coord_x,coord_y,stress_xx,stress_yy,tau_xy,velocity_x,velocity_y,stress_1,eps,damage,lx,ly
4.9985647e+0, 1.2657113e+2, -2051837.0, -1817935.0, -47783.668, -0.014212742, -0.0072283726, -1808549.9, -108948.53, 0.0026923823, 9.99729, 10.000595 
4.9986783e+0, 1.3657413e+2, -1790146.4, -1565812.0, -65163.773, -0.04272801, 0.07897112, -1548257.3, 53317.22, 0.0015911749, 9.998142, 10.00123 
4.9990177e+0, 1.4657702e+2, -1792507.0, -1680151.4, -59495.53, -0.010698753, 0.33110628, -1654502.1, -150954.17, 0.0007108368, 9.998178, 9.999744 
4.9993712e+0, 1.5657409e+2, -1739524.5, -1583086.5, -42048.652, 0.044875566, 0.0025683495, -1572500.6, -166922.69, 0.00020845741, 9.997784, 9.999928 
4.9994165e+0, 1.6657448e+2, -1575671.8, -1384521.3, -2279.368, 0.041737393, 0.016805336, -1384494.0, -76921.086, 0.000030560106, 9.997942, 10.000545 
4.9992624e+0, 1.765764e+2, -1414618.4, -1257355.0, -695.82416, 0.0043767816, 0.10691583, -1257351.9, -47800.1, 0.0000010193884, 9.99838, 10.000533 
4.9994072e+0, 1.8657629e+2, -1270410.6, -1115820.6, -11040.871, 0.0068407333, 0.035101693, -1115036.0, -3486.5034, 0.0, 9.998615, 10.000714 
4.9997148e+0, 1.9657482e+2, -1178019.9, -1061762.9, -43971.47, 0.031165052, -0.22438075, -1047005.1, -33445.176, 0.0, 9.998752, 10.000352 
5.0001746e+0, 2.0657557e+2, -1053848.6, -1142352.8, -10084.474, 0.026357708, -0.08280844, -1052714.1, -137158.55, 0.0, 9.9997635, 9.9986315 
5.0006634e+0, 2.1657719e+2, -742341.3, -942278.06, -4629.761, 0.0019179223, 0.16974565, -742234.2, 75311.92, 0.0, 10.001229, 9.998629 
5.000594e+0, 2.2657564e+2, -577790.0, -799258.9, -5094.647, -0.024913618, 0.14777443, -577672.8, 141887.17, 0.0, 10.001633, 9.998744 
5.000247e+0, 2.3657206e+2, -533149.4, -773059.25, 1749.9005, -0.05137778, -0.1311405, -533136.56, 88452.74, 0.0, 10.001463, 9.998335 
5.000807e+0, 2.4656945e+2, -473792.9, -936550.5, 69176.69, -0.03385595, -0.095143, -463673.13, 59945.695, 0.0, 10.002241, 9.996163 
5.001862e+0, 2.5656715e+2, -172788.3, -719304.9, 101391.13, 0.006172507, 0.008781873, -154584.33, 271066.66, 0.000000000017365094, 10.00354, 9.996359 
5.001762e+0, 2.665646e+2, 18764.166, -413127.38, 62510.59, -0.0004626534, 0.039931577, 27629.76, 355306.94, 0.000000288742, 10.003483, 9.997813 
5.0010276e+0, 2.765619e+2, -11104.872, -388815.22, 5832.9873, -0.033043705, -0.059180137, -11014.814, 218685.63, 0.0000032414011, 10.002653, 9.997705 
5.001203e+0, 2.8656015e+2, 42100.465, -403821.3, 24870.154, -0.019922055, 0.04477421, 43483.246, 175201.36, 0.00001724438, 10.002745, 9.996876 
5.0018156e+0, 2.9655784e+2, 251525.66, -223997.36, 28516.629, 0.008849907, 0.07065933, 253229.66, 286973.53, 0.00007523581, 10.003373, 9.997141 
5.001889e+0, 3.065547e+2, 396224.78, -22455.48, -17550.006, 0.006867391, -0.016661631, 396959.13, 396959.13, 0.0002887192, 10.003572, 9.998094 
5.001959e+0, 3.1655452e+2, 435536.97, 99300.2, -96620.77, 0.021602752, 0.11218526, 461324.13, 461324.13, 0.0007576416, 10.003334, 9.999062 
1.4995654e+1, 1.2656951e+2, -2074822.0, -1799106.9, -46766.113, -0.044008084, 0.010245549, -1791390.5, -91772.02, 0.0025889925, 9.9970455, 10.000856 
1.499608e+1, 1.365694e+2, -1789528.5, -1528723.5, -31944.87, -0.12134329, -0.18853419, -1524867.8, 76752.57, 0.0015350278, 9.998022, 10.00156 
1.4997049e+1, 1.4657302e+2, -1760532.1, -1570136.3, -85905.28, -0.030912248, 0.07724449, -1537106.4, -33521.254, 0.00068435894, 9.998007, 10.000593 
1.4998111e+1, 1.5657307e+2, -1709116.6, -1485542.3, -42278.41, 0.13550432, -0.0053577474, -1477814.5, -72229.31, 0.00019662973, 9.997654, 10.00067 
1.4998263e+1, 1.6657332e+2, -1568782.5, -1332647.9, 4947.083, 0.12805706, -0.06322011, -1332544.4, -24963.346, 0.000026649353, 9.997798, 10.000979 
1.499783e+1, 1.7657359e+2, -1410247.1, -1219358.1, 23267.768, 0.01638489, -0.15404986, -1216563.0, -6987.602, 0.00000066228677, 9.998265, 10.000862 
1.49982e+1, 1.8657486e+2, -1341705.4, -1220530.0, -15433.343, 0.020160325, -0.06850265, -1218595.3, -107032.195, 0.0, 9.99845, 10.000083 
1.4999157e+1, 1.9657648e+2, -1230770.0, -1135543.6, -20969.594, 0.09527141, 0.06453557, -1131130.5, -117581.26, 0.0, 9.998612, 9.999923 
1.5000503e+1, 2.0657563e+2, -1036790.9, -1060987.1, 38409.457, 0.07925998, 0.029331477, -1008619.25, -93061.36, 0.0, 9.999591, 9.99928 
1.5001981e+1, 2.1657334e+2, -724461.6, -861403.0, 53480.16, 0.0060406583, -0.14937952, -706051.0, 111528.94, 0.0, 10.001061, 9.999272 
1.5001771e+1, 2.2657284e+2, -571578.5, -744632.06, -22630.13, -0.073621884, -0.12019121, -568668.1, 150915.75, 0.0, 10.001476, 9.999201 
1.5000719e+1, 2.3657328e+2, -517618.5, -697890.8, 14432.916, -0.1545198, -0.016259326, -516470.28, 105108.305, 0.0, 10.0013, 9.998935 
1.5002428e+1, 2.4657242e+2, -399964.84, -749693.7, 109937.06, -0.101232484, 0.08827687, -368277.28, 155312.63, 0.0, 10.002112, 9.997516 
1.5005574e+1, 2.565706e+2, -126956.69, -579095.4, 146854.19, 0.017808005, 0.1336812, -83445.805, 342166.63, 0.0, 10.0033655, 9.997412 
1.5005298e+1, 2.665678e+2, -90604.02, -605658.3, 21100.531, 0.0009850231, 0.1604687, -89741.03, 237902.98, 0.00000013049092, 10.003355, 9.996562 
1.5003115e+1, 2.7656442e+2, -110024.42, -553464.44, -9468.655, -0.095329665, 0.14603554, -109822.33, 119858.125, 0.0000023602508, 10.002491, 9.996666 
1.500357e+1, 2.8656217e+2, 55999.21, -340433.28, 41137.94, -0.062554084, 0.21231273, 60223.105, 191926.61, 0.000014211254, 10.00262, 9.997381 
1.5005444e+1, 2.9655966e+2, 238097.89, -203537.02, 63910.477, 0.02512459, 0.19855937, 247160.61, 280887.78, 0.00006483318, 10.003175, 9.997389 
1.5005697e+1, 3.065562e+2, 254299.72, -264197.16, -31314.822, 0.028515222, 0.15800208, 256184.14, 256184.14, 0.00025577057, 10.003405, 9.996526 
1.5005864e+1, 3.1655246e+2, 268045.4, -157179.19, -72914.125, 0.06769487, 0.13433181, 280200.7, 280200.7, 0.0006794419, 10.002996, 9.997475 
2.4993238e+1, 1.2656842e+2, -1941822.9, -1699435.8, 44398.797, -0.018483043, 0.023181465, -1691559.1, 8071.315, 0.002469872, 9.997835, 10.001131 
2.4993923e+1, 1.3656801e+2, -1936322.3, -1585845.4, 31604.21, -0.07798604, -0.22843304, -1583018.4, 18615.365, 0.001465867, 9.996986, 10.001652 
2.4995157e+1, 1.4657173e+2, -1797558.8, -1537079.4, 10635.171, 0.010174929, 0.017272063, -1536645.9, -33049.46, 0.0006493342, 9.99755, 10.001026 
2.4996276e+1, 1.5657237e+2, -1507993.1, -1355476.8, 10225.231, 0.13084823, -0.058623586, -1354794.3, 50795.145, 0.00018140074, 9.9988985, 10.000954 
2.499647e+1, 1.6657284e+2, -1426893.6, -1290914.3, 29661.191, 0.11993619, -0.08820138, -1284725.9, 22857.842, 0.000022322774, 9.998901, 10.00072 
2.4996245e+1, 1.7657322e+2, -1445662.1, -1262590.1, -9272.215, 0.042820226, -0.15381825, -1262121.8, -52542.547, 0.00000035252413, 9.99816, 10.000599 
2.4997148e+1, 1.865745e+2, -1320344.3, -1250639.4, 1631.6586, 0.059853278, -0.033295825, -1250601.1, -139033.0, 0.0, 9.998768, 9.999714 
2.4998781e+1, 1.9657613e+2, -1043614.5, -1071841.9, 7166.8706, 0.1319404, 0.12831427, -1041899.06, -28343.688, 0.0, 10.000018, 9.999667 
2.500059e+1, 2.0657498e+2, -935959.2, -984805.94, 80338.87, 0.1063491, 0.05756461, -876413.3, 39152.58, 0.0, 10.0001545, 9.999527 
2.5002453e+1, 2.1657218e+2, -921125.56, -936517.4, 57314.402, 0.024576122, -0.20444426, -870992.7, -53402.246, 0.0, 9.999627, 9.999439 
2.5002772e+1, 2.2657199e+2, -761238.7, -854312.6, -27042.355, -0.05491599, -0.14196613, -753952.06, -34359.88, 0.0, 10.000242, 9.999034 
2.5002334e+1, 2.3657311e+2, -500549.16, -695427.06, -43077.707, -0.12476346, 0.0376125, -491451.56, 130131.04, 0.0, 10.001429, 9.998883 
2.5004506e+1, 2.4657251e+2, -407467.28, -662113.2, 39526.98, -0.07866458, 0.12383699, -401472.88, 122117.0, 0.0, 10.001678, 9.998315 
2.5008047e+1, 2.5657067e+2, -364522.53, -623967.56, 23602.117, 0.031270914, 0.082319014, -362392.88, 63216.06, 0.0, 10.0014305, 9.998029 
2.5008214e+1, 2.665683e+2, -239196.31, -685458.7, -38106.754, 0.0111084515, 0.13364099, -235965.72, 91670.29, 0.00000003137998, 10.002384, 9.996467 
2.500653e+1, 2.7656564e+2, 98006.375, -465528.2, 4825.1997, -0.07188208, 0.19296159, 98047.69, 327714.8, 0.0000016165861, 10.003992, 9.996531 
2.500724e+1, 2.8656286e+2, 237142.77, -298371.8, 62016.23, -0.023459323, 0.23760661, 244230.84, 375927.0, 0.000011342512, 10.004056, 9.996975 
2.5009292e+1, 2.9655942e+2, 215145.13, -250427.98, 9023.322, 0.09993561, 0.15763174, 215319.94, 249050.02, 0.000053962976, 10.003192, 9.997046 
2.5009596e+1, 3.06557e+2, 212492.73, -284199.88, 7645.364, 0.1034406, 0.2414746, 212610.39, 212610.39, 0.00022089553, 10.003122, 9.99653 
2.500987e+1, 3.1655192e+2, 319399.38, -139536.36, 54510.113, 0.16618878, 0.06491226, 325784.97, 325784.97, 0.0005981675, 10.003403, 9.997389 
3.49911e+1, 1.2656787e+2, -1932511.5, -1651473.1, -21791.896, -0.06946602, -0.015693123, -1649793.4, 49843.758, 0.0023442989, 9.997719, 10.00152 
3.4991866e+1, 1.3657005e+2, -1924695.6, -1549666.1, 19092.29, -0.010358938, -0.01724662, -1548696.6, 52917.293, 0.0013882996, 9.996949, 10.001914 
3.4993026e+1, 1.4657313e+2, -1793590.6, -1505539.1, 51117.836, 0.011033056, 0.13629475, -1496736.8, 6845.052, 0.0006086515, 9.997457, 10.001285 
3.4993556e+1, 1.5657198e+2, -1507675.0, -1334916.6, 61349.734, -0.059570473, -0.13813321, -1315346.9, 90243.54, 0.00016439817, 9.998829, 10.0011215 
3.4993884e+1, 1.6657306e+2, -1489485.8, -1405566.5, -11427.103, -0.055589028, -0.0761416, -1404038.3, -96456.91, 0.000017966355, 9.998826, 9.999979 
3.4994265e+1, 1.7657511e+2, -1496643.3, -1360183.0, -14870.372, 0.0028890774, 0.1092839, -1358581.4, -149016.72, 0.00000014192928, 9.998119, 9.999955 
3.499599e+1, 1.8657504e+2, -1327195.4, -1238943.3, 42090.3, 0.042089127, 0.11582902, -1222088.1, -110521.78, 0.0, 9.998663, 9.999842 
3.4998333e+1, 1.9657367e+2, -1045939.0, -1056750.3, 55373.523, 0.059323866, -0.031270202, -995707.9, 17871.777, 0.0, 9.999933, 9.999811 
3.500021e+1, 2.0657349e+2, -948609.44, -979622.94, 47609.758, 0.030882705, -0.019748177, -914044.75, 1536.1166, 0.0, 10.000027, 9.999623 
3.5001847e+1, 2.1657373e+2, -938963.4, -943845.4, 57050.113, -0.022534326, 0.020227524, -884302.06, -66724.6, 0.0, 9.999504, 9.999448 
3.5003376e+1, 2.26573e+2, -821045.3, -942886.6, 10819.341, -0.041111723, 0.05970929, -820092.0, -100506.49, 0.0, 10.000096, 9.998496 
3.5004824e+1, 2.3657162e+2, -545556.44, -755979.8, 3595.1467, -0.042043574, 0.047938388, -545495.06, 76105.75, 0.0, 10.001293, 9.998531 
3.5006818e+1, 2.4656974e+2, -396617.22, -614751.4, 20263.516, -0.03574959, -0.0013784154, -394750.8, 128867.96, 0.0, 10.001574, 9.998693 
3.500907e+1, 2.565674e+2, -347127.88, -557570.3, 35598.95, -0.032364722, -0.12888664, -341268.97, 84370.86, 0.0, 10.0013075, 9.998544 
3.5010314e+1, 2.6656616e+2, -161086.42, -509731.5, 15775.728, -0.03891546, -0.05278271, -160374.05, 167278.11, 0.0000000045955626, 10.002321, 9.997706 
3.501096e+1, 2.7656555e+2, 145376.89, -342035.78, 63804.207, -0.054567497, 0.094360866, 153590.7, 383250.72, 0.0000011861115, 10.003881, 9.997435 
3.501197e+1, 2.865623e+2, 149508.39, -461448.1, 18612.633, 0.02054964, 0.11316654, 150074.89, 281771.2, 0.000009324045, 10.003983, 9.995889 
3.5013068e+1, 2.96557e+2, 147963.39, -365331.72, -7905.0225, 0.12975234, -0.03789023, 148085.11, 181838.48, 0.00004426637, 10.003091, 9.996308 
3.5013235e+1, 3.0655694e+2, 339648.38, -16912.889, 10335.484, 0.1331757, 0.20653681, 339947.72, 339947.72, 0.00018827697, 10.003094, 9.998379 
3.5013455e+1, 3.1655294e+2, 416948.4, 72746.71, 88905.74, 0.13333738, -0.043662615, 438555.94, 438555.94, 0.00052437786, 10.003342, 9.99888 
4.498929e+1, 1.2656787e+2, -1905409.8, -1611037.0, 17702.533, -0.004371106, -0.007852094, -1609976.3, 89662.43, 0.0022184679, 9.997821, 10.001736 
4.4989833e+1, 1.365703e+2, -1742952.1, -1477553.3, -8579.178, 0.041083395, 0.024832446, -1477276.3, 124335.914, 0.0013082918, 9.998268, 10.001776 
4.4991225e+1, 1.4657293e+2, -1674527.1, -1473881.1, 44511.957, 0.05227071, 0.15773807, -1464449.8, 39134.613, 0.00056754425, 9.998384, 10.001065 
4.499201e+1, 1.5657187e+2, -1601741.6, -1413097.5, -14681.447, -0.059623577, -0.08093318, -1411961.8, -6368.1943, 0.00014805637, 9.998317, 10.000848 
4.4992533e+1, 1.6657263e+2, -1504645.0, -1443215.1, -74424.7, -0.06414526, -0.020515671, -1393416.5, -85828.61, 0.000013959289, 9.998855, 9.999705 
4.4993117e+1, 1.7657417e+2, -1271671.5, -1273998.3, -61219.395, 0.0034276024, 0.13978454, -1211604.4, -2028.0491, 0.000000037538413, 9.999749, 9.999764 
4.4995132e+1, 1.8657373e+2, -1150794.9, -1129084.5, 45502.516, 0.043970942, 0.1056159, -1093160.3, 18420.32, 0.0, 9.999766, 10.000076 
4.4997796e+1, 1.9657221e+2, -1137881.3, -1078702.4, 49056.84, 0.056961115, -0.07808617, -1051002.1, -37408.715, 0.0, 9.999212, 10.000013 
4.500013e+1, 2.065725e+2, -962390.0, -987036.1, 61475.227, 0.03384944, -0.02430987, -912014.9, 3575.2253, 0.0, 9.9999275, 9.999624 
4.5002353e+1, 2.1657361e+2, -684148.1, -827263.25, 44669.89, -0.0012764682, 0.10111003, -671350.0, 146229.81, 0.0, 10.001272, 9.999401 
4.5004696e+1, 2.265725e+2, -613551.56, -872425.94, 36500.035, 0.013178014, 0.11936818, -608503.7, 111088.57, 0.0, 10.001651, 9.998232 
4.5007065e+1, 2.3657002e+2, -533689.06, -773228.3, 25851.607, 0.051858157, 0.025864191, -530930.9, 90687.4, 0.0, 10.001483, 9.998325 
4.5008865e+1, 2.465681e+2, -430520.16, -610205.5, 34838.645, 0.036417384, -0.027260307, -424001.88, 99634.266, 0.0, 10.001256, 9.998873 
4.5010367e+1, 2.5656626e+2, -371204.06, -541620.0, 26637.824, -0.012155551, -0.12260146, -367137.3, 58514.363, 0.0, 10.001022, 9.998787 
4.501223e+1, 2.6656535e+2, -244964.23, -463961.47, 40789.176, -0.025553182, -0.07557048, -237613.78, 90045.71, 0.000000013083459, 10.001384, 9.998467 
4.5014316e+1, 2.7656484e+2, -67716.46, -378793.44, 28424.215, -0.010707347, 0.012321564, -65140.57, 164522.84, 0.0000010541644, 10.002131, 9.998032 
4.5015734e+1, 2.865616e+2, -36989.035, -559092.25, -1940.2148, 0.06875772, 0.015580699, -36981.824, 94717.234, 0.000008050424, 10.002746, 9.995817 
4.5016614e+1, 2.9655638e+2, 177834.14, -358942.34, 28575.84, 0.17120008, -0.118653, 179351.13, 213107.61, 0.00003666787, 10.003338, 9.996238 
4.5016944e+1, 3.065571e+2, 452308.34, 64299.656, 35766.063, 0.17090452, 0.19428189, 455577.66, 455577.66, 0.0001603948, 10.003742, 9.99862 
4.5017424e+1, 3.1655294e+2, 506201.97, 134242.42, -34483.08, 0.18181765, -0.106003046, 509371.78, 509371.78, 0.00046226455, 10.00387, 9.999043 
5.498667e+1, 1.2656876e+2, -1913139.6, -1651704.4, -3083.4385, -0.12105832, 0.06034783, -1651668.0, 47963.348, 0.0020911084, 9.997901, 10.001425 
5.498746e+1, 1.365688e+2, -1773719.3, -1561380.1, 18330.428, -0.062471744, -0.098197676, -1559809.3, 41818.516, 0.0012261746, 9.998342, 10.001165 
5.4989535e+1, 1.4657125e+2, -1727770.3, -1589431.6, 27247.682, 0.005661938, 0.08586332, -1584258.3, -80654.21, 0.0005263589, 9.9984, 10.000269 
5.499125e+1, 1.5657207e+2, -1645693.8, -1509818.9, -1247.5006, -0.00052559306, 0.11703506, -1509807.4, -104209.35, 0.00013276051, 9.998336, 10.000177 
5.4991895e+1, 1.6657166e+2, -1501177.3, -1426106.0, -50736.473, -0.044743497, 0.08134317, -1400529.6, -92927.17, 0.0000106646075, 9.998814, 9.999839 
5.4992354e+1, 1.7657033e+2, -1261411.3, -1246424.3, -26722.346, -0.07968453, -0.063293755, -1226164.6, -16549.39, 0.000000007551507, 9.999726, 9.999962 
5.4994243e+1, 1.8657063e+2, -1134835.9, -1081501.6, 11787.915, -0.047693934, -0.056177597, -1079012.5, 32597.963, 0.0, 9.999702, 10.000434 
5.4996794e+1, 1.9657174e+2, -1124360.8, -1040392.75, 47087.863, 0.007242715, -0.010251477, -1019290.1, -5693.185, 0.0, 9.999169, 10.000298 
5.499998e+1, 2.0657209e+2, -981973.5, -1004427.0, 104782.92, 0.0010322471, 0.040209673, -887817.6, 27775.953, 0.0, 9.999833, 9.999548 
5.500356e+1, 2.1657181e+2, -700316.5, -840866.25, 97042.8, -0.034746468, 0.037278403, -650775.4, 166822.34, 0.0, 10.00119, 9.999345 
5.5006367e+1, 2.2657047e+2, -622863.56, -875258.25, 20847.145, -0.011617245, 0.031972155, -621153.2, 98459.32, 0.0, 10.001577, 9.998249 
5.500875e+1, 2.365684e+2, -544787.8, -778015.25, 28986.195, 0.04667049, -0.022040356, -541239.3, 80394.76, 0.0, 10.001402, 9.998331 
5.5010283e+1, 2.4656762e+2, -442270.28, -619747.9, 18134.219, 0.026480062, 0.03996202, -440436.34, 83205.766, 0.0, 10.001196, 9.998834 
5.501147e+1, 2.5656733e+2, -387409.78, -544624.8, 32027.53, -0.032472044, 0.099667385, -381135.6, 44509.137, 0.0, 10.000899, 9.998821 
5.501358e+1, 2.6656577e+2, -231747.17, -430959.22, 59318.867, -0.05553739, 0.06936688, -215421.8, 112236.18, 0.000000016276152, 10.001352, 9.998713 
5.501628e+1, 2.7656344e+2, -52210.203, -332646.75, 64300.645, -0.05413001, -0.053837027, -38169.805, 191507.94, 0.00000094951764, 10.002063, 9.998384 
5.501818e+1, 2.865608e+2, 26424.426, -421244.0, 10412.314, 0.013770662, -0.063265234, 26666.475, 158371.39, 0.0000068870954, 10.002724, 9.996774 
5.501958e+1, 2.965575e+2, 208012.53, -279201.56, 61976.13, 0.10282735, -0.09304389, 215772.63, 249512.8, 0.000030486934, 10.003259, 9.996824 
5.5020404e+1, 3.065575e+2, 358976.03, -112635.086, 37418.766, 0.11659954, 0.19319636, 361926.47, 361926.47, 0.00013675928, 10.003681, 9.997434 
5.502107e+1, 3.165518e+2, 415228.38, -34286.47, 3083.031, 0.105285466, -0.13922283, 415249.53, 415249.53, 0.0004087046, 10.00379, 9.997921 
6.4984125e+1, 1.2656888e+2, -2188098.3, -1811523.6, 3559.244, -0.05910443, 0.12622836, -1811490.0, -111858.29, 0.0019647046, 9.996097, 10.001216 
6.4985347e+1, 1.3656802e+2, -1771186.6, -1600965.0, -6849.455, -0.106014766, -0.0796427, -1600689.9, 947.2805, 0.0011417874, 9.998517, 10.000819 
6.4987975e+1, 1.4656962e+2, -1653547.5, -1588272.8, 10305.893, -0.013416121, 0.05343111, -1586684.3, -83062.336, 0.0004823996, 9.999063, 9.999951 
6.499001e+1, 1.5657079e+2, -1604129.0, -1510341.8, -1252.8297, 0.032499153, 0.14809027, -1510325.0, -104712.266, 0.00011742101, 9.998719, 9.999977 
6.499107e+1, 1.6657038e+2, -1489209.6, -1389766.3, 15525.33, 0.0015995333, 0.103638954, -1387398.8, -79782.27, 0.000008467286, 9.998771, 10.000112 
6.4991945e+1, 1.7656878e+2, -1362389.1, -1272825.0, 25501.297, -0.04677613, -0.09223942, -1266073.1, -56442.633, 0.000000004638606, 9.99895, 10.0001545 
6.499415e+1, 1.865692e+2, -1163343.8, -1110358.9, 46897.53, -0.012534992, -0.070467755, -1082988.3, 28635.916, 0.0, 9.9995775, 10.000289 
6.499697e+1, 1.9657065e+2, -954523.56, -976564.7, 23832.63, 0.053516064, 0.02423744, -939286.75, 74320.95, 0.0, 10.000408, 10.000139 
6.5000206e+1, 2.065707e+2, -952321.2, -1013889.9, 79990.59, 0.032377254, 0.06252803, -897395.75, 18212.559, 0.0, 10.0001335, 9.999343 
6.5003705e+1, 2.165698e+2, -999942.8, -992922.7, 48922.074, -0.030758606, 0.016132854, -947384.94, -129765.18, 0.0, 9.999167, 9.999276 
6.500702e+1, 2.2656877e+2, -856439.3, -917212.9, 26379.23, -0.0018677606, 0.012546905, -846586.56, -126956.29, 0.0, 9.999672, 9.998881 
6.5010154e+1, 2.3656763e+2, -572216.1, -737172.56, 56150.953, 0.075044334, -0.012402767, -554916.7, 66724.27, 0.0, 10.000978, 9.998818 
6.501174e+1, 2.4656697e+2, -426497.44, -660301.0, 39916.156, 0.04560001, 0.06511671, -419870.6, 103777.45, 0.0, 10.0014925, 9.998432 
6.501253e+1, 2.565664e+2, -319206.6, -553550.6, 8673.738, -0.03958883, 0.1406167, -318885.97, 106768.72, 0.0, 10.001536, 9.99847 
6.501513e+1, 2.6656467e+2, -243088.1, -463277.2, 33733.227, -0.030902747, 0.12209353, -238036.05, 89635.09, 0.00000000394634, 10.001385, 9.998485 
6.5018797e+1, 2.7656224e+2, -177614.83, -394235.13, -9176.224, 0.04108501, 0.010323781, -177226.81, 52466.414, 0.0000007712445, 10.001219, 9.9983635 
6.5021247e+1, 2.8655997e+2, 28123.275, -322783.3, -32007.816, 0.07693233, -0.011124805, 31018.96, 162733.61, 0.000006042053, 10.00231, 9.997648 
6.502304e+1, 2.9655737e+2, 354778.38, -134334.33, -15038.315, 0.09837781, -0.059594937, 355240.3, 388979.78, 0.000026514312, 10.003958, 9.997478 
6.5024126e+1, 3.065567e+2, 402005.84, -163576.9, -33140.17, 0.09993214, 0.16879931, 403941.06, 403941.06, 0.00011976989, 10.004285, 9.996796 
6.502502e+1, 3.1655204e+2, 369177.78, -150058.67, -60255.05, 0.13027534, 0.005110504, 376078.4, 376078.4, 0.00036626696, 10.00387, 9.997101 
7.498101e+1, 1.2656793e+2, -2171360.3, -1786526.9, 67143.29, -0.043820616, 0.19056857, -1775148.6, -75506.41, 0.0018421272, 9.996142, 10.001362 
7.4982995e+1, 1.3656785e+2, -1768838.8, -1608761.4, 73728.734, -0.2268922, 0.07146802, -1579978.6, 21662.621, 0.0010580781, 9.9985695, 10.000742 
7.498591e+1, 1.465681e+2, -1638338.5, -1556866.1, -14745.727, -0.16139215, 0.061649945, -1554279.5, -50641.78, 0.0004375462, 9.9990635, 10.000167 
7.4987924e+1, 1.5656802e+2, -1585449.8, -1480947.5, 1105.4257, -0.08127751, 0.010292285, -1480935.9, -75297.914, 0.00010224, 9.998752, 10.00017 
7.4989676e+1, 1.665688e+2, -1467821.3, -1336986.9, 12516.886, -0.04206436, 0.054955475, -1335800.3, -28170.432, 0.000007138289, 9.998736, 10.000487 
7.499158e+1, 1.7656954e+2, -1348733.9, -1244423.5, 44934.395, -0.007829095, 0.0542122, -1227736.4, -18114.514, 0.00000003688298, 9.998945, 10.000352 
7.4994504e+1, 1.8656944e+2, -1217515.1, -1215421.0, 69975.664, 0.03940222, 0.05714323, -1146484.6, -34862.598, 0.0, 9.99954, 9.999591 
7.4997956e+1, 1.9656889e+2, -1002246.6, -1069119.0, 54761.5, 0.082569934, 0.01851004, -971520.5, 42106.258, 0.0, 10.000378, 9.999519 
7.5000495e+1, 2.0656833e+2, -988234.6, -1070370.3, 34753.867, 0.024084168, 0.042380854, -975502.8, -59868.44, 0.0, 10.000057, 9.998991 
7.500251e+1, 2.1656753e+2, -1018610.5, -1014250.7, 34109.09, -0.09270668, 0.037677757, -982251.94, -164606.27, 0.0, 9.999086, 9.999171 
7.5006276e+1, 2.2656743e+2, -785251.6, -747750.4, 68209.695, -0.06527387, 0.058616977, -695761.0, 23884.398, 0.0, 9.999581, 10.000086 
7.501098e+1, 2.3656757e+2, -526479.94, -618403.0, 109788.984, 0.036419656, 0.04273249, -453420.13, 168219.9, 0.0, 10.000874, 9.999685 
7.5012857e+1, 2.4656613e+2, -490755.03, -777356.6, 33418.707, -0.014766616, 0.04985078, -486909.88, 36744.125, 0.0, 10.001427, 9.997654 
7.501325e+1, 2.565636e+2, -386770.06, -674729.4, 17030.477, -0.14566773, 0.00432806, -385766.34, 39914.406, 0.0, 10.001449, 9.997681 
7.5016534e+1, 2.6656216e+2, -301193.16, -567076.6, 18808.465, -0.050575662, 0.090013996, -299869.25, 27828.426, 0.00000000015133415, 10.001322, 9.997798 
7.502148e+1, 2.7656132e+2, -224351.94, -468634.4, 9619.583, 0.16008909, 0.20108147, -223973.72, 5735.65, 0.00000065427645, 10.001125, 9.997896 
7.50246e+1, 2.865592e+2, 81147.93, -206174.92, 23380.92, 0.15447807, 0.16942519, 83038.12, 214766.03, 0.0000058927376, 10.002278, 9.998465 
7.5026613e+1, 2.9655594e+2, 389288.16, -45534.97, 44746.883, 0.029153448, -0.0276583, 393845.22, 427599.97, 0.000025865007, 10.00387, 9.9981365 
7.5027746e+1, 3.0655456e+2, 381456.88, -193790.86, -51258.367, 0.007903008, 0.112413846, 385988.66, 385988.66, 0.000112006936, 10.004238, 9.996603 
7.502856e+1, 3.1655306e+2, 317345.97, -230887.73, -42067.105, 0.0485042, 0.28629988, 320555.1, 320555.1, 0.00033989424, 10.003756, 9.996593 
8.49783e+1, 1.2656486e+2, -1869578.9, -1665460.8, 55014.816, -0.026222493, 0.13835447, -1651577.3, 48093.19, 0.0017237901, 9.998337, 10.0011215 
8.498154e+1, 1.3656573e+2, -1923727.5, -1697584.5, 88.767555, -0.16846325, 0.14420535, -1697584.4, -95921.195, 0.0009802121, 9.997592, 10.000588 
8.498489e+1, 1.4656554e+2, -1799378.9, -1569121.5, -74878.016, -0.09101171, 0.05983607, -1546913.6, -43249.91, 0.00039778455, 9.997664, 10.000765 
8.498664e+1, 1.5656544e+2, -1633818.8, -1446107.0, -51084.242, -0.04826954, -0.051302485, -1433105.4, -27443.836, 0.000088897265, 9.998171, 10.000686 
8.49886e+1, 1.6656676e+2, -1443979.6, -1324117.1, -11288.617, -0.023860836, 0.02517471, -1323063.3, -15415.097, 0.000006071428, 9.99889, 10.000504 
8.4991014e+1, 1.7656824e+2, -1249228.8, -1196937.3, -24410.674, 0.014565006, 0.098956734, -1187313.1, 22321.346, 0.000000076650345, 9.999632, 10.000345 
8.4994227e+1, 1.8656799e+2, -1173077.6, -1218754.6, 31332.896, 0.043170672, 0.09954234, -1157143.1, -45505.613, 0.0, 9.999955, 9.999368 
8.499785e+1, 1.9656688e+2, -1072257.0, -1122616.8, 27872.604, 0.061031815, 0.028175099, -1059874.9, -46225.94, 0.0, 9.999986, 9.99934 
8.500058e+1, 2.065663e+2, -963305.6, -1043078.9, 32665.527, 0.027892783, 0.0501637, -951636.6, -35980.55, 0.0, 10.000163, 9.999127 
8.500277e+1, 2.165658e+2, -825845.1, -913033.06, 51207.68, -0.033520974, 0.06413185, -802188.4, 15474.537, 0.0, 10.000374, 9.999248 
8.5006523e+1, 2.265657e+2, -663585.25, -710001.75, 79410.54, -0.039038334, 0.093966395, -604061.06, 115601.85, 0.0, 10.000512, 9.999893 
8.5011184e+1, 2.3656575e+2, -576771.25, -655702.4, -3043.6892, -0.009433913, 0.08868, -576654.06, 45005.8, 0.0, 10.000592, 9.9995575 
8.501386e+1, 2.4656402e+2, -519139.94, -769025.2, -58137.043, -0.036035746, 0.06213315, -506276.28, 17399.174, 0.0, 10.001134, 9.9978485 
8.501552e+1, 2.565612e+2, -302392.75, -619629.6, -22365.393, -0.0832346, -0.033040397, -300823.72, 124878.98, 0.0, 10.001978, 9.997794 
8.501889e+1, 2.6655945e+2, -170404.38, -557259.6, 19443.846, 0.004232025, 0.044530753, -169429.56, 158292.58, 0.0000000019213902, 10.002427, 9.997341 
8.502334e+1, 2.7655828e+2, -48253.934, -427325.6, 10857.0205, 0.17189415, 0.16718654, -47943.23, 181794.81, 0.0000006294421, 10.002505, 9.997521 
8.5026926e+1, 2.865563e+2, 73855.67, -208283.95, 34791.324, 0.16959478, 0.16463892, 78082.55, 209838.69, 0.0000062489003, 10.002219, 9.99848 
8.5029966e+1, 2.9655352e+2, 113468.26, -158955.97, -21342.17, 0.085860826, 0.013592551, 115130.1, 148909.2, 0.000027811611, 10.001896, 9.998303 
8.503158e+1, 3.065517e+2, 256002.52, -186253.2, -72918.734, 0.03541028, 0.06574372, 267715.1, 267715.1, 0.00011221587, 10.003063, 9.997234 
8.5032755e+1, 3.1655127e+2, 477307.75, -124005.49, -41930.203, 0.05691351, 0.2844014, 480217.5, 480217.5, 0.00032876598, 10.004713, 9.996868 
9.4975334e+1, 1.2655988e+2, -1914688.1, -1760885.0, -10992.871, -0.21788728, -0.014555272, -1760103.3, -60388.883, 0.0016162735, 9.998348, 10.000457 
9.498051e+1, 1.3656168e+2, -1938281.6, -1744631.8, -11853.697, -0.06433838, 0.1351325, -1743908.9, -142205.42, 0.000914127, 9.997659, 10.000234 
9.4984573e+1, 1.4656188e+2, -1729061.9, -1420847.0, -65555.516, 0.0797727, 0.047284123, -1407483.3, 96217.03, 0.00036652523, 9.997657, 10.001782 
9.498584e+1, 1.56563e+2, -1578287.3, -1333040.3, -19019.092, 0.023152424, -0.03909709, -1331574.1, 74109.73, 0.00007896126, 9.998179, 10.001456 
9.498758e+1, 1.6656429e+2, -1473874.6, -1377104.3, 7368.525, -0.04046134, 0.021236781, -1376546.5, -68875.04, 0.000005121987, 9.998849, 10.000161 
9.498988e+1, 1.7656493e+2, -1264471.0, -1229903.6, 9536.427, -0.091738366, 0.042738084, -1227447.4, -17779.188, 0.00000007826353, 9.999636, 10.000116 
9.499296e+1, 1.8656488e+2, -1167460.3, -1194204.6, 24360.742, -0.1024797, 0.05993965, -1153042.9, -41372.38, 0.0, 9.999899, 9.999563 
9.499636e+1, 1.9656457e+2, -1062107.1, -1089453.1, 41032.32, -0.11304562, 0.04664633, -1032529.6, -18855.068, 0.0, 9.999935, 9.999591 
9.500015e+1, 2.0656458e+2, -936072.6, -968561.94, 31619.17, -0.05419161, 0.08627296, -916769.25, -1095.8313, 0.0, 10.000082, 9.999679 
9.5004106e+1, 2.1656446e+2, -822804.2, -888899.9, 69243.734, 0.038213592, 0.08357492, -779126.2, 38546.34, 0.0, 10.000294, 9.999453 
9.5007414e+1, 2.265635e+2, -791401.8, -956684.3, 74667.36, -0.02579863, 0.113125324, -762666.25, -42982.555, 0.0, 10.000429, 9.998239 
9.50104e+1, 2.3656195e+2, -672289.3, -836853.9, 12353.214, -0.17167385, 0.107714474, -671367.1, -49664.723, 0.0, 10.00051, 9.998355 
9.501444e+1, 2.4656054e+2, -446358.63, -599891.94, -36055.895, -0.11458235, 0.09466715, -438312.84, 85400.42, 0.0, 10.001057, 9.999045 
9.501899e+1, 2.56559e+2, -243732.08, -486126.3, 17472.41, 0.040544342, 0.012623938, -242479.11, 183242.5, 0.0, 10.001917, 9.998744 
9.502189e+1, 2.6655635e+2, -196698.36, -595442.75, 14265.348, 0.039815113, -0.030221917, -196188.66, 131557.66, 0.0000000017799018, 10.002364, 9.997105 
9.502399e+1, 2.76553e+2, -84201.945, -479942.0, 20132.518, -0.03978419, -0.104307674, -83180.38, 146600.47, 0.0000005677249, 10.002412, 9.997201 
9.5027906e+1, 2.865513e+2, 11926.3545, -326389.94, 11228.488, 0.02155905, -0.022172868, 12298.611, 144098.08, 0.0000064583187, 10.002176, 9.997687 
9.503273e+1, 2.9655018e+2, 72056.305, -225649.77, -4541.2, 0.14326656, 0.06438597, 72125.56, 105937.93, 0.000029725905, 10.00181, 9.997888 
9.503527e+1, 3.0654824e+2, 358384.4, 31268.252, -14435.66, 0.07489305, 0.033672266, 359020.22, 359020.22, 0.00011359201, 10.003039, 9.998737 
9.50368e+1, 3.165468e+2, 531115.5, 14402.002, 48537.85, -0.06369994, 0.008413218, 535635.44, 535635.44, 0.000321603, 10.004595, 9.997876 
1.0497329e+2, 1.2655568e+2, -2154639.8, -1830223.9, -8026.3594, -0.15027912, -0.07325198, -1830025.4, -130271.06, 0.0015309328, 9.996468, 10.000906 
1.049784e+2, 1.3655807e+2, -1957155.1, -1701281.8, 41207.79, -0.01211497, 0.086603254, -1694809.0, -93073.875, 0.0008642909, 9.997277, 10.00073 
1.0498269e+2, 1.4655839e+2, -1714605.4, -1397628.1, 11277.392, 0.13131152, -0.020540098, -1397227.4, 106503.87, 0.00034447288, 9.997704, 10.001914 
1.0498418e+2, 1.565603e+2, -1614211.0, -1348917.6, -29817.654, 0.06081351, -0.034043208, -1345607.6, 60101.617, 0.00007296801, 9.997929, 10.001474 
1.04986176e+2, 1.6656163e+2, -1563296.3, -1426104.5, 15334.236, -0.029921854, 0.035988968, -1424411.5, -116714.484, 0.000004414203, 9.998273, 10.000094 
1.04988866e+2, 1.7656197e+2, -1411817.6, -1311839.6, 12768.507, -0.102056615, 0.03329281, -1310234.8, -100537.67, 0.000000050630582, 9.998685, 10.000008 
1.0499243e+2, 1.8656196e+2, -1262783.3, -1252063.6, 27026.348, -0.1099921, 0.06428127, -1229870.8, -118170.914, 0.0, 9.999291, 9.999456 
1.0499632e+2, 1.9656187e+2, -1079914.3, -1106812.1, -2002.3025, -0.09861952, 0.083557, -1079766.0, -66063.19, 0.0, 9.999846, 9.999513 
1.0500042e+2, 2.0656174e+2, -903877.0, -933738.25, -21012.166, -0.03531599, 0.10294105, -893031.0, 22671.186, 0.0, 10.00023, 9.999844 
1.0500468e+2, 2.1656133e+2, -791512.4, -859668.7, -33275.953, 0.064864315, 0.05549882, -777960.6, 39741.387, 0.0, 10.000458, 9.99957 
1.0500838e+2, 2.2656016e+2, -785290.5, -977007.5, 44071.023, 0.026328398, 0.07229889, -775644.94, -55930.113, 0.0, 10.000568, 9.998041 
1.05011806e+2, 2.3655848e+2, -669230.9, -854969.56, 71403.945, -0.081238754, 0.07758766, -644954.0, -23218.527, 0.0, 10.000617, 9.998186 
1.05016045e+2, 2.465572e+2, -473687.3, -611061.4, 38836.918, -0.045664214, 0.08358917, -463467.97, 60277.54, 0.0, 10.000864, 9.99906 
1.0502077e+2, 2.5655597e+2, -350474.4, -536458.6, -15216.47, 0.06833095, 0.029509433, -349237.7, 76513.65, 0.0, 10.001193, 9.998742 
1.05023816e+2, 2.6655293e+2, -276889.66, -635567.44, -27092.715, 0.029999817, -0.051596932, -274854.75, 52924.29, 0.00000000014537505, 10.001833, 9.997078 
1.0502612e+2, 2.765488e+2, -50396.164, -470411.34, -32915.34, -0.074965976, -0.19766591, -47832.336, 181987.19, 0.00000042821608, 10.002681, 9.997136 
1.0503019e+2, 2.8654712e+2, 104815.84, -301349.6, -10462.038, 0.0038634501, -0.10007089, 105085.15, 236923.11, 0.0000059800022, 10.002871, 9.9975395 
1.0503513e+2, 2.9654658e+2, 187986.94, -183359.02, 7836.7773, 0.16894615, 0.057026695, 188152.25, 221998.4, 0.000029321069, 10.002643, 9.997787 
1.0503855e+2, 3.065449e+2, 385529.25, 52701.34, 16568.975, 0.09918846, 0.051978253, 386352.06, 386352.06, 0.000109979665, 10.003212, 9.998794 
1.0504171e+2, 3.1654164e+2, 469696.5, -2648.852, -61224.58, 0.0029635266, -0.15376654, 477503.3, 477503.3, 0.0003077933, 10.004133, 9.997975 
1.1497138e+2, 1.2655203e+2, -2039401.3, -1601029.1, -9553.197, -0.04923353, -0.042062983, -1600821.0, 98971.37, 0.001474528, 9.996507, 10.002461 
1.14974916e+2, 1.3655485e+2, -1856188.0, -1496669.9, 75348.31, -0.11786735, -0.008500401, -1481517.0, 120242.45, 0.00083337264, 9.997302, 10.002119 
1.1497902e+2, 1.4655508e+2, -1776786.9, -1518677.3, 9692.123, -0.03440167, -0.14038284, -1518313.8, -14556.762, 0.00033260565, 9.997665, 10.001102 
1.1498115e+2, 1.5655734e+2, -1657508.8, -1442937.1, -5583.2837, -0.065005034, -0.040359326, -1442792.0, -37054.477, 0.0000710648, 9.997953, 10.000812 
1.1498403e+2, 1.6655885e+2, -1556007.3, -1410091.3, 22270.744, -0.09950073, 0.07029127, -1406767.8, -99043.234, 0.0000041843605, 9.998261, 10.000216 
1.1498776e+2, 1.765593e+2, -1406157.4, -1302606.6, 39643.918, -0.10796473, 0.06352276, -1289172.1, -79450.28, 0.000000024917117, 9.998693, 10.000068 
1.1499242e+2, 1.8655917e+2, -1306406.1, -1321684.3, 40824.367, -0.06355761, 0.10813035, -1272512.3, -160786.25, 0.0, 9.999202, 9.999024 
1.1499737e+2, 1.9655876e+2, -1112435.9, -1165946.9, 26427.264, -0.0068486766, 0.13766727, -1101584.8, -87850.88, 0.0, 9.99981, 9.999126 
1.1500108e+2, 2.0655781e+2, -933394.2, -978746.4, -21748.172, -0.014097557, 0.10671519, -924650.75, -8908.96, 0.0, 10.0001545, 9.999574 
1.1500417e+2, 2.1655634e+2, -807363.8, -871338.1, -17116.906, -0.054976847, -0.02547167, -803071.94, 14680.069, 0.0, 10.000361, 9.999539 
1.1500911e+2, 2.2655566e+2, -715114.94, -808388.1, 36643.082, 0.023518998, -0.025040604, -702441.44, 17315.158, 0.0, 10.000472, 9.999243 
1.1501503e+2, 2.3655532e+2, -623484.3, -737811.6, 85860.164, 0.15641241, -0.006704043, -577499.3, 44260.008, 0.0, 10.000518, 9.999038 
1.1501842e+2, 2.4655402e+2, -571132.9, -792164.0, 42224.016, 0.082390875, 0.02802721, -563341.44, -39569.31, 0.0, 10.000778, 9.997858 
1.1502046e+2, 2.5655195e+2, -431292.78, -685258.7, 7421.2393, -0.104728885, 0.010623079, -431076.1, -5283.77, 0.0, 10.001112, 9.99776 
1.150244e+2, 2.6654905e+2, -271795.38, -617595.06, -2853.558, -0.11765985, -0.024232548, -271771.84, 56049.05, 0.0, 10.001799, 9.997223 
1.150294e+2, 2.7654552e+2, -49065.477, -450185.06, 5028.339, -0.038556844, -0.119587146, -49002.453, 180852.48, 0.0000002594802, 10.002598, 9.997322 
1.15033425e+2, 2.865437e+2, 130626.21, -231229.06, -27540.598, 0.016902488, -0.07342189, 132710.31, 264582.38, 0.000005001763, 10.0028105, 9.998047 
1.15036845e+2, 2.9654276e+2, 179824.0, -169532.44, 16722.867, 0.046609975, -0.0027174787, 180622.66, 214502.94, 0.000026475647, 10.002517, 9.997943 
1.1504109e+2, 3.0654162e+2, 278238.16, -154421.47, 49165.29, 0.009306388, 0.12782457, 283754.72, 283754.72, 0.000100772006, 10.003159, 9.997392 
1.1504679e+2, 3.1653583e+2, 397828.53, -128539.09, 7274.954, 0.042142, -0.20676874, 397929.06, 397929.06, 0.00028477216, 10.004041, 9.997152 
1.2496883e+2, 1.2654853e+2, -1958178.5, -1494484.5, 7696.2676, 0.04036391, 0.036153283, -1494356.8, 205472.53, 0.0014451224, 9.996795, 10.003042 
1.24971785e+2, 1.3655113e+2, -1895707.4, -1454046.9, -23054.5, -0.12330796, -0.021228794, -1452846.8, 148947.38, 0.000820366, 9.996767, 10.002669 
1.24976255e+2, 1.4655134e+2, -1833209.3, -1581296.4, -55305.47, -0.05453823, -0.15917031, -1569689.4, -65897.4, 0.00033115427, 9.99743, 10.000784 
1.2497913e+2, 1.5655398e+2, -1569799.5, -1429753.9, -63936.332, -0.092067525, 0.009685365, -1404955.5, 815.96625, 0.00007354598, 9.998678, 10.000547 
1.2498313e+2, 1.6655526e+2, -1375697.5, -1316665.0, -17443.703, -0.070158765, 0.10148548, -1311895.9, -4135.4814, 0.0000047036624, 9.99946, 10.000286 
1.2498815e+2, 1.7655514e+2, -1240186.4, -1219705.8, -23292.65, 0.012676141, 0.036768995, -1204501.8, 5258.779, 0.000000012759114, 9.999803, 10.0001135 
1.2499295e+2, 1.8655483e+2, -1206986.5, -1272913.1, 12417.813, 0.04390379, 0.06017367, -1204725.0, -92958.914, 0.0, 9.999882, 9.99903 
1.2499748e+2, 1.9655453e+2, -1116285.3, -1170061.9, 10007.185, 0.029852575, 0.09997271, -1114483.4, -100709.8, 0.0, 9.999797, 9.999104 
1.2500133e+2, 2.0655368e+2, -982542.94, -1012729.44, -6033.6265, 0.01426654, 0.08746807, -981381.6, -65600.375, 0.0, 9.99986, 9.99948 
1.2500487e+2, 2.1655236e+2, -870905.7, -906433.1, -7171.785, 0.007118948, -0.018757176, -869512.56, -51721.445, 0.0, 9.999946, 9.9994955 
1.250099e+2, 2.2655176e+2, -696797.94, -775786.9, 31570.3, 0.060270198, -0.024742061, -685730.56, 34064.168, 0.0, 10.00049, 9.999453 
1.250157e+2, 2.3655143e+2, -504619.3, -665735.9, -13878.945, 0.14100902, -0.025690839, -503432.5, 118363.44, 0.0, 10.001282, 9.999155 
1.2501958e+2, 2.4655008e+2, -455822.9, -780839.25, -30264.799, 0.079354666, 0.022595342, -453028.72, 70781.82, 0.0, 10.001757, 9.997466 
1.2502253e+2, 2.5654796e+2, -311512.84, -663024.56, -22530.646, -0.05097629, 0.038737386, -310074.6, 115759.88, 0.0, 10.002074, 9.997456 
1.250268e+2, 2.6654565e+2, -227156.8, -561586.44, 9909.6, -0.059295725, 0.06211963, -226863.42, 100994.305, 0.0, 10.00196, 9.997525 
1.2503189e+2, 2.7654314e+2, -175069.7, -483743.53, 12616.279, 0.0048793694, 0.032903966, -174554.9, 55326.887, 0.00000012209664, 10.00163, 9.997548 
1.2503605e+2, 2.8654042e+2, 43238.156, -299865.8, -21529.795, 0.029410604, -0.006146611, 44583.87, 176490.11, 0.000003888246, 10.002338, 9.997796 
1.2503979e+2, 2.965377e+2, 314582.06, -141135.31, -52449.08, 0.042674553, -0.08660241, 320540.6, 354470.22, 0.00002250982, 10.003617, 9.9976 
1.2504496e+2, 3.065371e+2, 394717.97, -197701.47, 18502.256, 0.031725965, 0.15880808, 395295.25, 395295.25, 0.000088219014, 10.00434, 9.996553 
1.2505206e+2, 3.16531e+2, 469078.16, -101229.55, -9140.817, 0.15327242, -0.12999056, 469224.63, 469224.63, 0.00025421128, 10.004545, 9.997111 
1.3496497e+2, 1.2654497e+2, -1995485.3, -1564446.0, -25230.16, -0.08264997, 0.1435123, -1562974.3, 136892.72, 0.0014399097, 9.99677, 10.002572 
1.3496858e+2, 1.3654697e+2, -1903455.1, -1475040.8, -9883.207, -0.15100887, 0.047894724, -1474812.9, 127025.914, 0.0008240123, 9.996802, 10.002501 
1.3497406e+2, 1.4654733e+2, -1821818.6, -1571723.8, -21847.129, -0.050959732, -0.07060743, -1569829.6, -65994.45, 0.00033951883, 9.997471, 10.000837 
1.3497783e+2, 1.565502e+2, -1562958.1, -1418223.0, -10982.936, -0.11970288, 0.11500813, -1417394.3, -11582.745, 0.00008018549, 9.998678, 10.000633 
1.3498308e+2, 1.6655083e+2, -1388550.5, -1317961.6, -13868.547, -0.043360505, 0.13567568, -1315334.6, -7530.0903, 0.0000062149566, 9.999364, 10.000317 
1.3498956e+2, 1.7654952e+2, -1238110.4, -1209589.8, -435.45026, 0.14732417, -0.051044222, -1209583.1, 230.26093, 0.000000017143847, 9.999788, 10.000182 
1.3499363e+2, 1.8654902e+2, -1184240.9, -1219531.3, -137.47432, 0.09606481, -0.07180022, -1184240.4, -72421.26, 0.0, 9.999844, 9.999419 
1.3499622e+2, 1.9654909e+2, -1100139.9, -1124596.1, 18977.002, -0.10325839, -0.033913977, -1089792.5, -75970.336, 0.0, 9.99974, 9.999445 
1.3500078e+2, 2.0654932e+2, -991024.0, -1010714.6, -12253.417, -0.048289627, 0.042512715, -985150.6, -69329.73, 0.0, 9.999774, 9.9995365 
1.3500643e+2, 2.1654941e+2, -891282.5, -922893.25, 11988.225, 0.14317667, 0.07108353, -887250.4, -69430.74, 0.0, 9.999838, 9.999433 
1.350104e+2, 2.2654843e+2, -763840.44, -898275.2, 51257.492, 0.038094107, 0.07662378, -746526.75, -26697.59, 0.0, 10.000409, 9.998654 
1.3501343e+2, 2.3654673e+2, -559722.25, -760971.8, 22073.01, -0.23854128, 0.015306545, -557329.75, 64516.375, 0.0, 10.001194, 9.998545 
1.3501924e+2, 2.4654531e+2, -435297.66, -725171.0, -27148.29, -0.15550502, 0.061222415, -432776.97, 91084.84, 0.0, 10.001699, 9.997875 
1.3502663e+2, 2.5654396e+2, -296234.63, -608208.25, -4189.0283, 0.12714884, 0.112869546, -296178.4, 129699.445, 0.0, 10.001974, 9.997878 
1.3503075e+2, 2.6654285e+2, -205873.89, -503239.0, -12072.065, 0.11692502, 0.21041138, -205384.61, 122504.664, 0.0, 10.001904, 9.99795 
1.3503315e+2, 2.7654153e+2, -173636.27, -455105.1, 18021.592, -0.058191434, 0.25903302, -172487.1, 57413.723, 0.000000046518082, 10.001525, 9.99779 
1.3503778e+2, 2.8653714e+2, -27493.846, -440939.03, 17738.305, -0.05545789, 0.097203694, -26734.205, 105207.03, 0.0000029362805, 10.002311, 9.996842 
1.3504364e+2, 2.9653123e+2, 245158.36, -274118.06, 2245.9922, 0.03758605, -0.21034437, 245168.06, 279164.03, 0.000019015239, 10.00356, 9.996718 
1.3504972e+2, 3.0653113e+2, 373488.72, -230168.52, 19469.639, 0.055351496, 0.13874324, 374116.03, 374116.03, 0.000075927965, 10.004293, 9.996351 
1.350569e+2, 3.165271e+2, 508508.06, -3030.9463, 46898.496, 0.12700826, 0.065553255, 512772.22, 512772.22, 0.00022269739, 10.004466, 9.997828 
1.449622e+2, 1.2654005e+2, -1909228.8, -1632644.9, 38067.26, -0.07349749, 0.06139771, -1627501.3, 72408.93, 0.0014542761, 9.997839, 10.001593 
1.4496575e+2, 1.3654234e+2, -1879526.0, -1531769.9, -24736.342, -0.12795325, 0.06571189, -1530019.1, 71865.32, 0.0008417685, 9.997259, 10.00189 
1.44972e+2, 1.4654256e+2, -1801157.8, -1565656.4, 17807.254, -0.0058534476, -0.039747067, -1564317.5, -60434.992, 0.0003553583, 9.997631, 10.000806 
1.449767e+2, 1.5654458e+2, -1583102.3, -1431092.5, -7369.598, -0.08619125, 0.06665957, -1430736.0, -24871.082, 0.00008912462, 9.998552, 10.000609 
1.449824e+2, 1.6654511e+2, -1474278.8, -1352600.1, -21435.752, -0.00893643, 0.07416362, -1348934.4, -41075.766, 0.000008328298, 9.99875, 10.000371 
1.4498909e+2, 1.7654423e+2, -1422797.3, -1290886.8, -29245.57, 0.19142523, -0.07694506, -1284693.6, -74829.77, 0.0000000715251, 9.998487, 10.00025 
1.4499316e+2, 1.8654399e+2, -1321287.3, -1258398.8, -12848.029, 0.12264082, -0.08888202, -1255875.1, -144008.3, 0.0, 9.99879, 9.999662 
1.4499557e+2, 1.9654413e+2, -1142733.4, -1128100.6, -23362.488, -0.11427675, -0.06488196, -1110935.6, -97067.41, 0.0, 9.999367, 9.999608 
1.4500071e+2, 2.0654441e+2, -934224.6, -1010449.25, -42996.453, -0.051110305, 0.025782315, -914880.44, 986.7472, 0.0, 10.000292, 9.999284 
1.4500736e+2, 2.1654457e+2, -689988.6, -858217.7, -68113.62, 0.18276802, 0.08710319, -665868.56, 151998.45, 0.0, 10.001364, 9.99914 
1.4501143e+2, 2.2654347e+2, -650176.7, -875149.25, -8851.009, 0.059699126, 0.11005479, -649829.0, 70050.11, 0.0, 10.001331, 9.998371 
1.4501409e+2, 2.3654155e+2, -644970.25, -826924.6, -16654.475, -0.26018643, 0.056859057, -643458.44, -21559.371, 0.0, 10.000711, 9.998332 
1.450205e+2, 2.4654002e+2, -511785.0, -738360.94, -25470.326, -0.1633139, 0.08803276, -508957.06, 14958.585, 0.0, 10.001076, 9.998087 
1.4502898e+2, 2.5653863e+2, -278192.78, -578797.9, -44838.176, 0.16921017, 0.11450384, -271647.25, 154284.02, 0.0, 10.002019, 9.998056 
1.4503348e+2, 2.665375e+2, -164732.9, -497832.47, -95471.336, 0.18781422, 0.20850207, -139309.75, 188633.3, 0.0, 10.002235, 9.997835 
1.450358e+2, 2.765362e+2, -105487.85, -442283.2, -116333.16, 0.037232712, 0.27502793, -69212.17, 160742.94, 0.00000002138944, 10.00206, 9.997638 
1.4504087e+2, 2.8653184e+2, 13202.213, -447269.22, -30518.277, 0.010052598, 0.13514888, 15216.039, 147211.8, 0.0000023054517, 10.002689, 9.996622 
1.4504735e+2, 2.9652599e+2, 259480.83, -283791.6, -22724.633, 0.049491934, -0.14245875, 260429.72, 294479.53, 0.000016570593, 10.003729, 9.996568 
1.4505357e+2, 3.06525e+2, 318154.44, -224305.03, 19871.086, 0.04461637, 0.10808866, 318881.38, 318881.38, 0.0000664134, 10.003803, 9.996604 
1.450611e+2, 3.16521e+2, 373650.44, -8066.468, 54526.016, 0.17249137, 0.012087116, 381286.4, 381286.4, 0.0001967113, 10.003313, 9.99833 
1.5496e+2, 1.2653412e+2, -2004781.3, -1853414.4, -14057.244, -0.13644414, -0.18444702, -1852120.0, -152164.3, 0.0014746141, 9.997929, 10.000041 
1.54963e+2, 1.3653733e+2, -1954852.8, -1689769.0, -33849.887, -0.15761958, 0.046097513, -1685514.8, -83584.96, 0.00086313457, 9.997262, 10.00081 
1.5496962e+2, 1.4653705e+2, -1812398.1, -1578064.6, 41335.223, -0.033567347, -0.063094415, -1570987.1, -67053.28, 0.00037152023, 9.997589, 10.000738 
1.549753e+2, 1.5653715e+2, -1590510.4, -1442320.6, 33158.387, -0.11085408, -0.14252818, -1435239.6, -29307.814, 0.00009663115, 9.998542, 10.000532 
1.5498078e+2, 1.665382e+2, -1478099.5, -1350613.3, -42556.117, -0.0717737, -0.08008191, -1337713.0, -29791.44, 0.000009881803, 9.998704, 10.000411 
1.5498646e+2, 1.7653936e+2, -1423952.0, -1284090.0, -23718.773, 0.05452225, -0.02861789, -1280177.1, -70266.02, 0.00000020107916, 9.998447, 10.000319 
1.5499116e+2, 1.8653974e+2, -1323169.3, -1251001.9, -709.9479, 0.022348601, 0.013571366, -1250994.9, -139085.97, 0.0, 9.998739, 9.999739 
1.5499522e+2, 1.965396e+2, -1156436.4, -1138585.6, 12597.435, -0.11077122, 0.0035329126, -1132072.1, -118160.03, 0.0, 9.999299, 9.999567 
1.5500087e+2, 2.0653898e+2, -985193.06, -1103015.6, -11435.802, -0.08884216, 0.038589608, -984093.4, -68172.81, 0.0, 10.000224, 9.998688 
1.5500729e+2, 2.1653788e+2, -736173.4, -930646.5, -28119.064, 0.018112909, 0.034885585, -732189.2, 85744.33, 0.0, 10.001261, 9.998694 
1.5501267e+2, 2.2653694e+2, -649086.0, -854571.9, -41539.746, 0.027824163, 0.08141067, -641006.3, 78937.85, 0.0, 10.001249, 9.998552 
1.5501742e+2, 2.3653594e+2, -648486.2, -814522.8, -20573.89, -0.02098681, 0.101055376, -645974.9, -24020.055, 0.0, 10.000622, 9.998462 
1.5502302e+2, 2.465342e+2, -518994.1, -741850.94, 1058.9999, -0.03895336, 0.104855366, -518989.06, 4983.1807, 0.0, 10.001021, 9.998089 
1.5502924e+2, 2.5653183e+2, -298512.0, -603724.5, -3500.0369, -0.03010333, 0.034131266, -298471.88, 127523.81, 0.0, 10.001934, 9.997931 
1.5503463e+2, 2.665295e+2, -219468.47, -600144.56, -111418.9, 0.05779163, 0.05741556, -189255.52, 138763.97, 0.0, 10.0021925, 9.997149 
1.5503956e+2, 2.7652708e+2, -155911.52, -527777.94, -103597.12, 0.18512188, 0.07210283, -128998.484, 101046.78, 0.000000019825112, 10.001977, 9.997089 
1.5504494e+2, 2.8652447e+2, 42847.92, -376801.9, 2346.363, 0.12490906, 0.1052765, 42861.04, 174930.81, 0.0000019865888, 10.002652, 9.997121 
1.5505052e+2, 2.9652184e+2, 288555.4, -206320.4, 20562.77, -0.038063824, 0.09975027, 289408.34, 323501.06, 0.000014949104, 10.003649, 9.99714 
1.5505622e+2, 3.0651873e+2, 357006.56, -129846.31, -4863.3247, -0.09245099, 0.06927184, 357055.13, 357055.13, 0.000059797247, 10.0037565, 9.997267 
1.5506408e+2, 3.165128e+2, 378202.2, 22265.924, 75963.664, 0.087975726, -0.28418702, 393736.34, 393736.34, 0.00017773658, 10.00323, 9.998572 
1.6495755e+2, 1.265283e+2, -2238817.0, -1990442.1, -75868.24, -0.09111971, -0.26023075, -1969101.1, -269093.25, 0.0014821975, 9.99642, 9.999821 
1.6496089e+2, 1.365316e+2, -1768556.0, -1622086.6, -50835.598, -0.15369433, -0.0069601224, -1606172.1, -4189.6274, 0.0008719991, 9.998623, 10.000619 
1.6496788e+2, 1.4653145e+2, -1671408.0, -1541603.5, 41816.59, -0.013836948, -0.07940858, -1529298.8, -25312.781, 0.0003781117, 9.998722, 10.000427 
1.6497387e+2, 1.5653081e+2, -1714147.9, -1537655.5, -6736.098, -0.06526655, -0.19770327, -1537398.8, -131407.8, 0.000098805474, 9.99786, 10.000202 
1.649791e+2, 1.665318e+2, -1564117.0, -1414428.8, -66511.47, -0.07751195, -0.11487472, -1389145.9, -81163.03, 0.000009884257, 9.9981985, 10.0002165 
1.6498424e+2, 1.7653342e+2, -1335088.5, -1260599.1, -84291.234, -0.040353615, -0.0036848737, -1205690.8, 4279.403, 0.0000002904704, 9.999131, 10.000151 
1.6498993e+2, 1.8653381e+2, -1191240.8, -1204603.0, -53964.996, -0.018747933, 0.057971586, -1143544.9, -31576.527, 0.0, 9.999734, 9.999565 
1.6499585e+2, 1.9653343e+2, -1042286.94, -1103098.1, -78599.93, -0.014528222, 0.038100004, -988416.5, 25557.07, 0.0, 10.000167, 9.999382 
1.6500176e+2, 2.065324e+2, -991178.8, -1127772.3, -67203.26, -0.017289849, 0.05367748, -963659.44, -47673.426, 0.0, 10.000289, 9.998484 
1.6500762e+2, 2.1653095e+2, -891312.7, -1018141.8, -77998.695, -0.019065533, 0.0330694, -854202.6, -36199.297, 0.0, 10.000252, 9.99858 
1.6501352e+2, 2.2652999e+2, -734188.5, -862973.75, -78912.18, 0.029191643, 0.066779114, -696730.5, 23282.977, 0.0, 10.00054, 9.998831 
1.6501938e+2, 2.3652925e+2, -575644.94, -747054.3, -67097.16, 0.10021296, 0.08609934, -552504.25, 69516.09, 0.0, 10.001005, 9.998731 
1.6502516e+2, 2.4652761e+2, -430211.3, -689938.5, 9601.641, 0.049573924, 0.08626346, -429856.8, 94178.89, 0.0, 10.0015955, 9.99817 
1.6503099e+2, 2.5652537e+2, -246367.52, -569620.4, -13298.643, -0.05749906, 0.017944852, -245821.33, 180235.97, 0.0, 10.002263, 9.998001 
1.6503663e+2, 2.6652277e+2, -127973.766, -583251.1, -93226.516, 0.008014554, 0.02250316, -109623.52, 218460.69, 0.0, 10.002928, 9.996915 
1.6504222e+2, 2.7651978e+2, 70658.75, -433435.8, -71761.62, 0.17832412, 0.00617168, 80675.51, 310791.3, 0.000000024295247, 10.003606, 9.99694 
1.6504838e+2, 2.8651765e+2, 160107.14, -324892.78, 45429.445, 0.16874205, 0.09457924, 164325.77, 296462.7, 0.0000019697127, 10.003495, 9.997067 
1.6505487e+2, 2.9651606e+2, 201330.89, -232153.64, -5503.755, 0.07465654, 0.19778772, 201400.77, 235551.84, 0.000013995548, 10.0029955, 9.997275 
1.6505972e+2, 3.065122e+2, 251668.67, -122869.62, -45089.746, -0.058789726, 0.054509923, 257020.45, 257020.45, 0.000055183133, 10.002753, 9.997815 
1.6506678e+2, 3.1650767e+2, 247582.03, -76865.6, -9594.732, 0.08553719, -0.19967914, 247865.53, 247865.53, 0.00016346591, 10.002465, 9.998268 
1.7495406e+2, 1.2652259e+2, -2162439.5, -1822044.1, -15660.402, -0.1343771, -0.17333359, -1821325.3, -121258.305, 0.001464911, 9.996386, 10.000986 
1.7495903e+2, 1.3652529e+2, -1717932.9, -1508355.6, 20948.357, -0.22665776, -0.087482646, -1506282.3, 95759.12, 0.0008580161, 9.998606, 10.001397 
1.7496657e+2, 1.4652582e+2, -1716417.5, -1639840.0, -3924.4082, -0.046656508, -0.08268548, -1639639.4, -135601.4, 0.00036898247, 9.998728, 9.999759 
1.7497213e+2, 1.565256e+2, -1753324.6, -1619391.4, -16953.684, -0.05314376, -0.09554839, -1617278.6, -211236.23, 0.00009401229, 9.997856, 9.999646 
1.7497703e+2, 1.6652599e+2, -1594829.9, -1469546.4, -40455.035, -0.12875685, -0.030464992, -1457618.8, -149577.02, 0.000008393363, 9.998158, 9.999861 
1.7498203e+2, 1.7652644e+2, -1366664.3, -1318772.5, -41826.2, -0.20021155, 0.0026436376, -1294522.6, -84481.91, 0.00000020811186, 9.999104, 9.9997635 
1.749891e+2, 1.8652631e+2, -1224600.8, -1269599.4, -45887.51, -0.09942832, 0.051384255, -1195993.5, -83949.24, 0.0, 9.999702, 9.999141 
1.7499714e+2, 1.965257e+2, -1072756.6, -1152275.0, -55319.703, 0.07202779, 0.050531518, -1044390.44, -30338.75, 0.0, 10.000103, 9.999078 
1.750031e+2, 2.0652486e+2, -988934.2, -1107699.0, -80582.96, 0.06687404, 0.08597575, -948217.25, -32154.676, 0.0, 10.0002165, 9.998657 
1.7500797e+2, 2.1652374e+2, -894097.0, -1002088.75, -66570.48, -0.031879928, 0.08201158, -862377.2, -44300.527, 0.0, 10.000156, 9.998736 
1.7501363e+2, 2.2652265e+2, -718544.44, -814514.8, -72003.805, -0.03376308, 0.07540719, -680001.44, 40085.45, 0.0, 10.000464, 9.999202 
1.7501968e+2, 2.3652142e+2, -562715.0, -704592.4, -39164.49, 0.008471307, 0.0073933317, -552621.9, 69474.54, 0.0, 10.000929, 9.999062 
1.7502658e+2, 2.465203e+2, -430246.3, -676489.56, 25520.74, 0.010960628, 0.035814524, -427629.13, 96476.92, 0.0, 10.00154, 9.998285 
1.7503393e+2, 2.5651914e+2, -253614.88, -561461.3, 20406.557, -0.014183465, 0.06472349, -252268.06, 173848.84, 0.0, 10.002163, 9.998105 
1.7503926e+2, 2.665171e+2, -111254.555, -543009.5, -77323.96, -0.04405388, 0.1061292, -97824.2, 230313.69, 0.0, 10.0029, 9.997203 
1.7504351e+2, 2.7651432e+2, 72298.33, -415590.25, -43181.32, -0.07799228, 0.077849306, 76090.67, 306258.1, 0.000000035492793, 10.003539, 9.997097 
1.7505087e+2, 2.865114e+2, 117181.65, -411802.7, 14967.064, 0.045489013, 0.11554976, 117604.79, 249801.88, 0.0000021240596, 10.003487, 9.996471 
1.7505988e+2, 2.9650858e+2, 165942.84, -291909.1, -9788.664, 0.2502276, 0.15207244, 166152.02, 200377.27, 0.000013429294, 10.002941, 9.996886 
1.7506368e+2, 3.0650535e+2, 285161.8, -55731.516, -61784.438, 0.04186069, 0.058599524, 296014.3, 296014.3, 0.000050919698, 10.002758, 9.99828 
1.7506851e+2, 3.1650564e+2, 182863.69, -194045.63, 17923.328, -0.039763827, 0.26402405, 183714.1, 183714.1, 0.00014907931, 10.002402, 9.997489 
1.8495105e+2, 1.2651633e+2, -2054336.0, -1729143.8, 36648.105, -0.09061951, -0.1033355, -1725064.8, -24935.094, 0.0014182838, 9.996938, 10.001365 
1.8495741e+2, 1.3651797e+2, -1848246.1, -1559287.8, -49066.46, -0.19458926, -0.13564983, -1551183.4, 50928.688, 0.00082149997, 9.997654, 10.001509 
1.849653e+2, 1.4651893e+2, -1825070.6, -1704027.3, -95754.66, -0.003311497, -0.08530738, -1651271.3, -147166.66, 0.00034638878, 9.998019, 9.999657 
1.8497045e+2, 1.5651923e+2, -1679557.3, -1595222.6, -82115.04, -0.02765796, -0.04211909, -1545080.9, -138975.34, 0.000084445885, 9.9984045, 9.999545 
1.8497574e+2, 1.6651924e+2, -1515335.4, -1465650.4, -39725.285, -0.104519516, 0.0060718646, -1443639.4, -135530.44, 0.000006352812, 9.998875, 9.999531 
1.8498163e+2, 1.7651881e+2, -1345871.6, -1342047.9, -59451.695, -0.15857339, -0.0153512275, -1284477.4, -74361.1, 0.000000056960435, 9.999396, 9.999458 
1.8498906e+2, 1.865184e+2, -1228688.0, -1270656.1, -37627.49, -0.06734552, 0.020017417, -1206588.9, -94467.08, 0.0, 9.999681, 9.999139 
1.8499704e+2, 1.9651796e+2, -1113364.0, -1165449.1, -36431.633, 0.07304254, 0.03425429, -1094624.0, -80497.086, 0.0, 9.999803, 9.999132 
1.8500319e+2, 2.065174e+2, -1009359.56, -1085902.3, -34853.906, 0.07350627, 0.077883795, -995867.06, -79732.57, 0.0, 9.999932, 9.998944 
1.8500836e+2, 2.1651663e+2, -895035.7, -980810.6, -26078.215, 0.0038925386, 0.08067332, -887729.44, -69584.56, 0.0, 10.000046, 9.998938 
1.850146e+2, 2.2651556e+2, -687798.44, -830686.5, -15598.274, 0.0053662555, 0.08236616, -686115.5, 34039.957, 0.0, 10.000803, 9.998931 
1.8502143e+2, 2.365142e+2, -434551.4, -668369.3, -53615.563, 0.04604092, 0.02781402, -422843.34, 199323.95, 0.0, 10.001909, 9.998841 
1.8502855e+2, 2.4651285e+2, -353536.25, -632275.44, -12678.733, 0.033594623, 0.041530345, -352960.75, 171218.03, 0.0, 10.0020275, 9.998357 
1.8503582e+2, 2.5651148e+2, -331763.94, -587779.2, -34065.05, -0.0041284203, 0.041457154, -327308.8, 98881.95, 0.0, 10.001576, 9.998206 
1.8504182e+2, 2.665097e+2, -206375.86, -571009.9, -92775.97, -0.037871625, 0.09562152, -184127.78, 144081.73, 0.0, 10.002175, 9.997359 
1.8504713e+2, 2.765074e+2, 64030.887, -403505.78, -97204.59, -0.055965744, 0.10646136, 83435.16, 313669.88, 0.000000044067633, 10.003409, 9.997248 
1.8505459e+2, 2.8650442e+2, 135331.94, -393973.97, -38230.816, 0.06977153, 0.122122146, 138079.03, 270344.3, 0.000002141611, 10.003549, 9.996575 
1.8506302e+2, 2.9650128e+2, 195065.11, -269057.47, -29425.387, 0.26800314, 0.117927276, 196923.25, 231219.38, 0.000012353572, 10.00308, 9.996989 
1.8506661e+2, 3.06498e+2, 360902.7, -9890.908, -42590.586, 0.04115955, 0.0070058196, 365731.9, 365731.9, 0.00004451732, 10.003238, 9.998356 
1.850724e+2, 3.1649968e+2, 303225.34, -221150.34, -23871.744, 0.060608555, 0.35815528, 304309.84, 304309.84, 0.00012889046, 10.00355, 9.996772 
1.949479e+2, 1.2650947e+2, -2089087.0, -1789432.8, 43124.23, -0.1555383, -0.038539626, -1783350.1, -83153.61, 0.0013429979, 9.996904, 10.000959 
1.9495572e+2, 1.3650963e+2, -1896510.5, -1641493.5, -22773.207, -0.15207416, -0.1516644, -1639475.9, -37280.715, 0.0007683095, 9.997599, 10.000962 
1.949638e+2, 1.4651082e+2, -1789483.1, -1626924.1, -95093.22, 0.013603294, -0.08615874, -1583107.4, -78921.57, 0.00031677555, 9.997994, 10.000203 
1.9496849e+2, 1.5651184e+2, -1652055.9, -1536441.6, -57380.58, -0.09156099, -0.024773354, -1512798.1, -106619.14, 0.000073711046, 9.998395, 9.999956 
1.949749e+2, 1.6651165e+2, -1539716.9, -1513328.3, -26962.857, -0.098616004, 0.0077950275, -1496504.5, -188321.05, 0.0000047225935, 9.998852, 9.999221 
1.9498283e+2, 1.765106e+2, -1362414.9, -1371095.4, -30414.654, -0.00286276, -0.048343234, -1336032.4, -125836.26, 0.0000000036456946, 9.999371, 9.999275 
1.9498953e+2, 1.8651019e+2, -1207365.9, -1215491.5, -43453.508, -0.0122280475, -0.029009461, -1167785.6, -55585.383, 0.0, 9.999628, 9.999548 
1.9499525e+2, 1.965101e+2, -1095039.3, -1113263.5, -22120.363, -0.10862789, -0.018307036, -1080227.8, -66027.58, 0.0, 9.999739, 9.999525 
1.9500168e+2, 2.0650998e+2, -993438.1, -1029439.94, -39030.918, -0.091233, 0.027779358, -968457.1, -52254.703, 0.0, 9.999835, 9.999375 
1.9500853e+2, 2.1650961e+2, -892333.75, -951546.6, -7761.7754, -0.0073799132, 0.027395194, -891333.25, -73125.12, 0.0, 9.999946, 9.999183 
1.9501616e+2, 2.2650874e+2, -769697.5, -977693.75, 15611.824, 0.061937563, 0.09399603, -768532.25, -48313.273, 0.0, 10.000707, 9.997969 
1.950242e+2, 2.3650749e+2, -505302.06, -789673.56, -11704.715, 0.111817956, 0.14607525, -504821.13, 117412.49, 0.0, 10.001802, 9.998057 
1.9503076e+2, 2.4650529e+2, -363643.9, -632554.44, -40711.625, 0.032449055, 0.10324037, -357615.53, 166638.42, 0.0, 10.00194, 9.998398 
1.950364e+2, 2.5650242e+2, -343730.16, -587316.75, -32246.332, -0.12657048, -0.050812457, -339533.63, 86745.13, 0.0, 10.00147, 9.998259 
1.9504401e+2, 2.6650068e+2, -209371.44, -570515.7, -54973.85, -0.057576366, 0.00035642437, -201188.66, 127109.36, 0.0, 10.002141, 9.997385 
1.9505274e+2, 2.7649918e+2, 61925.473, -394539.84, -47711.543, 0.140041, 0.09111907, 66859.14, 297176.56, 0.000000036761158, 10.003343, 9.99735 
1.9505917e+2, 2.864967e+2, 180668.67, -286554.7, -63916.76, 0.15039876, 0.1137035, 189254.78, 321596.5, 0.0000018181237, 10.003499, 9.997333 
1.9506405e+2, 2.9649428e+2, 222062.47, -186913.31, -25536.813, 0.038417976, 0.10150204, 223650.84, 258014.0, 0.000010151812, 10.002978, 9.997598 
1.9506826e+2, 3.064902e+2, 338225.53, -49049.297, -32094.367, -0.14374928, -0.09480351, 340867.25, 340867.25, 0.00003534469, 10.003211, 9.998095 
1.950777e+2, 3.1649044e+2, 263875.2, -280735.63, 387.11102, 0.1860615, 0.12872534, 263875.47, 263875.47, 0.000102921294, 10.003475, 9.996386 
2.049446e+2, 1.2650032e+2, -2147082.8, -1763979.5, -34761.586, -0.13402227, -0.035105947, -1760851.0, -60562.137, 0.0012444656, 9.996279, 10.00144 
2.0495346e+2, 1.3650069e+2, -2030764.8, -1691280.3, -76444.625, -0.07659414, -0.14546737, -1674860.8, -72577.195, 0.00070293987, 9.996593, 10.0011215 
2.0496212e+2, 1.4650203e+2, -1823474.6, -1599651.5, -92286.33, 0.07316078, -0.088593, -1566508.0, -62235.934, 0.00028321997, 9.997589, 10.000585 
2.0496708e+2, 1.565034e+2, -1515055.6, -1430820.9, -98697.68, -0.10310246, -0.030785745, -1365629.9, 40632.508, 0.000063005726, 9.999167, 10.000309 
2.0497411e+2, 1.6650347e+2, -1419258.5, -1439715.3, -57903.17, -0.095463224, 0.005556485, -1370687.3, -62423.758, 0.0000035155435, 9.999619, 9.999352 
2.0498282e+2, 1.7650266e+2, -1345667.6, -1347305.0, -47128.895, 0.061676998, -0.037247453, -1299350.3, -89077.75, 0.0000000004928599, 9.999423, 9.999412 
2.0498939e+2, 1.8650223e+2, -1186761.1, -1181267.4, -34669.473, 0.015705073, -0.03892401, -1149236.1, -36960.105, 0.0, 9.999664, 9.999765 
2.0499454e+2, 1.9650194e+2, -1029812.1, -1068469.0, -48338.836, -0.16774052, -0.069316275, -997080.7, 17196.512, 0.0, 10.000122, 9.999647 
2.050013e+2, 2.0650165e+2, -903690.2, -1022977.56, -85493.74, -0.14688718, -0.024863284, -859091.1, 57190.43, 0.0, 10.000611, 9.999047 
2.0500906e+2, 2.165012e+2, -747910.1, -913781.94, -126620.71, 0.0015826689, 0.001954359, -679481.7, 138807.64, 0.0, 10.00108, 9.9989 
2.0501743e+2, 2.265004e+2, -677076.75, -924847.9, -47020.152, 0.09278214, 0.085008405, -668453.7, 51846.125, 0.0, 10.001304, 9.998039 
2.0502606e+2, 2.3649928e+2, -567896.9, -818597.2, -23462.328, 0.14584655, 0.14196263, -565720.0, 56593.37, 0.0, 10.001359, 9.998076 
2.0503263e+2, 2.4649704e+2, -471967.2, -683246.25, -41626.215, 0.07073332, 0.0938234, -464061.78, 60272.527, 0.0, 10.00119, 9.998405 
2.0503801e+2, 2.5649408e+2, -414837.88, -617059.4, -47606.91, -0.07946591, -0.07148504, -404190.84, 22169.684, 0.0, 10.000956, 9.998302 
2.0504622e+2, 2.6649258e+2, -299987.3, -560420.44, 8880.203, -0.003840742, -0.022577843, -299684.84, 28691.715, 0.0, 10.001297, 9.997854 
2.0505598e+2, 2.764916e+2, -107318.41, -424859.44, 20585.79, 0.20393221, 0.06881016, -105989.414, 124400.56, 0.00000002096579, 10.001976, 9.997787 
2.0506239e+2, 2.8648952e+2, 54584.82, -332184.22, -18462.055, 0.17821294, 0.10360601, 55464.09, 187874.78, 0.0000012828043, 10.002568, 9.997468 
2.0506673e+2, 2.9648745e+2, 251662.44, -161368.23, -36726.258, 0.0084655695, 0.11537935, 254902.69, 289331.7, 0.000007381431, 10.003134, 9.997695 
2.0507129e+2, 3.0648303e+2, 426913.6, -10523.685, -18596.752, -0.18281472, -0.11804044, 427702.78, 427702.78, 0.000026183836, 10.003846, 9.998063 
2.0508218e+2, 3.1648275e+2, 419922.84, -164701.36, -29428.023, 0.25150472, 0.053441163, 421400.4, 421400.4, 0.00007868774, 10.004408, 9.996724 
2.1494049e+2, 1.264888e+2, -2056114.8, -1555730.9, -47481.1, -0.22214833, -0.09340094, -1551265.3, 149142.39, 0.0011273269, 9.996204, 10.002902 
2.1495043e+2, 1.3649122e+2, -1962464.4, -1551370.0, -49517.258, -0.063947596, -0.11230151, -1545489.8, 56886.77, 0.0006276391, 9.996605, 10.002074 
2.1495992e+2, 1.4649272e+2, -1820259.4, -1588010.0, -44470.914, 0.065218456, -0.08206215, -1579786.0, -75423.914, 0.0002466057, 9.997568, 10.000673 
2.1496592e+2, 1.5649393e+2, -1499453.0, -1400184.9, -38309.293, -0.16319793, -0.054262582, -1387120.1, 19235.0, 0.000052325075, 9.999172, 10.000516 
2.1497303e+2, 1.6649465e+2, -1385974.3, -1359545.9, -76099.75, -0.18869655, 0.004227123, -1295521.5, 12827.699, 0.000002586899, 9.99957, 9.999926 
2.1498127e+2, 1.7649494e+2, -1318098.1, -1278487.3, -41457.668, -0.056954518, 0.011341713, -1252347.1, -42001.14, 0.000000000052014764, 9.999378, 9.999901 
2.1498835e+2, 1.8649445e+2, -1198988.9, -1190262.3, -24996.11, -0.07420452, -0.012782184, -1169251.4, -56901.883, 0.0, 9.999591, 9.999742 
2.1499461e+2, 1.9649342e+2, -1046603.56, -1091607.4, -20669.729, -0.1968833, -0.11739327, -1038551.06, -24192.563, 0.0, 10.0000725, 9.999512 
2.1500182e+2, 2.0649245e+2, -989193.25, -1186272.1, -78148.03, -0.1772374, -0.074582115, -961966.5, -45594.66, 0.0, 10.0005455, 9.99796 
2.1500967e+2, 2.164914e+2, -813186.7, -1028848.25, -102442.055, -0.068785824, -0.0013032518, -772283.3, 46105.387, 0.0, 10.000987, 9.998155 
2.1501806e+2, 2.2649054e+2, -620514.0, -779009.4, -53461.37, 0.007981928, 0.04432314, -604167.1, 116231.47, 0.0, 10.001186, 9.999095 
2.1502674e+2, 2.364896e+2, -523115.25, -695859.6, -12102.971, 0.0559327, 0.01447888, -522271.4, 100134.91, 0.0, 10.001236, 9.998975 
2.1503393e+2, 2.4648817e+2, -484549.9, -697081.0, -59895.09, 0.05779587, 0.015314894, -468832.72, 55586.563, 0.0, 10.001138, 9.998338 
2.1504037e+2, 2.5648645e+2, -422541.88, -610511.5, -42967.96, 0.03631359, -0.015739642, -413185.53, 13250.014, 0.0, 10.00086, 9.998394 
2.150481e+2, 2.6648548e+2, -247150.11, -438558.28, 25542.717, 0.03587025, 0.029619956, -243800.16, 84644.664, 0.0, 10.001246, 9.998713 
2.1505655e+2, 2.7648452e+2, -77018.766, -336939.84, 56350.457, 0.03984025, 0.03842474, -65327.918, 165125.95, 0.00000000626477, 10.001869, 9.998441 
2.1506402e+2, 2.864827e+2, 25018.625, -381847.97, -8578.617, 0.060793877, 0.09038758, 25199.422, 157672.73, 0.00000075455597, 10.002522, 9.997148 
2.150708e+2, 2.9648092e+2, 216229.44, -222096.72, -3845.4507, 0.07537387, 0.16594681, 216263.17, 250756.36, 0.0000049684672, 10.003079, 9.997306 
2.1507554e+2, 3.0647644e+2, 436370.16, 1926.7693, -1323.9183, -0.16465631, -0.05365044, 436374.2, 436374.2, 0.000019574018, 10.00387, 9.998143 
2.1508552e+2, 3.1647658e+2, 463875.28, -63580.816, -2257.1426, 0.09319212, 0.13798141, 463884.94, 463884.94, 0.000061826526, 10.004356, 9.997455 
2.2493789e+2, 1.2647942e+2, -1904302.1, -1447898.9, 64435.72, -0.13340124, -0.039225005, -1438976.1, 261527.36, 0.0009979393, 9.997071, 10.003233 
2.2494726e+2, 1.3648179e+2, -1941276.0, -1519096.8, -54872.008, -0.034711502, -0.08808791, -1512081.4, 90388.516, 0.0005469221, 9.996668, 10.002256 
2.2495735e+2, 1.4648283e+2, -1889264.5, -1640969.0, -11984.598, 0.07902868, -0.103442274, -1640391.9, -135932.44, 0.00020906674, 9.997174, 10.000511 
2.2496489e+2, 1.5648393e+2, -1632348.6, -1470736.5, -52528.918, -0.13310128, -0.06753931, -1455163.6, -48710.05, 0.000042237294, 9.998289, 10.000464 
2.2497232e+2, 1.6648498e+2, -1478112.8, -1346996.1, -130965.36, -0.16828074, -0.005461233, -1266096.9, 42347.074, 0.0000020119714, 9.99868, 10.000445 
2.249801e+2, 1.7648569e+2, -1405345.9, -1279032.0, -120045.84, -0.0668204, -0.0043698074, -1206543.0, 3892.3591, 0.0, 9.998587, 10.000285 
2.249877e+2, 1.864854e+2, -1293957.3, -1249731.3, -68545.55, -0.06435724, -0.019777363, -1199820.1, -87382.42, 0.0, 9.9990015, 9.999612 
2.24995e+2, 1.9648448e+2, -1114147.5, -1132927.4, -92216.17, -0.13892773, -0.09963815, -1030844.44, -16397.527, 0.0, 9.999657, 9.999427 
2.2500265e+2, 2.0648372e+2, -1001467.6, -1155311.9, -68652.36, -0.13165197, -0.048932187, -975287.06, -58829.113, 0.0, 10.000305, 9.998294 
2.2501056e+2, 2.164829e+2, -805260.9, -990756.44, -8746.603, -0.06823312, 0.0134999845, -804849.4, 13622.136, 0.0, 10.000893, 9.998466 
2.250188e+2, 2.2648202e+2, -628448.3, -767725.1, 33915.53, -0.026694994, 0.037456688, -620628.5, 99852.45, 0.0, 10.001065, 9.999234 
2.250272e+2, 2.36481e+2, -553992.8, -694657.75, -11005.203, 0.00047804372, -0.015129181, -553137.0, 69352.39, 0.0, 10.000963, 9.999112 
2.2503538e+2, 2.4647991e+2, -422973.25, -671750.8, -48582.254, 0.07204756, 0.015009575, -413822.5, 110677.22, 0.0, 10.001576, 9.998304 
2.2504345e+2, 2.564787e+2, -163512.17, -490061.9, -51100.703, 0.1734004, 0.037740722, -155702.38, 270809.72, 0.0, 10.002653, 9.998365 
2.2505085e+2, 2.664774e+2, -67124.52, -350027.8, -19670.45, 0.12946819, 0.05394369, -65763.375, 262760.47, 0.0, 10.002475, 9.998728 
2.2505796e+2, 2.7647582e+2, -105632.32, -346366.6, -64619.773, 0.011564771, -0.004160853, -89383.34, 141154.66, 0.00000000006385136, 10.001648, 9.998485 
2.2506605e+2, 2.8647417e+2, -44746.863, -389336.97, -77245.71, 0.048836887, 0.052080233, -28223.262, 104331.836, 0.00000032397858, 10.001927, 9.997382 
2.2507453e+2, 2.9647297e+2, 177875.33, -235632.56, -52004.582, 0.1618088, 0.15907778, 184315.36, 218885.14, 0.000003287384, 10.0028, 9.997342 
2.2507986e+2, 3.064682e+2, 402339.84, -83693.74, -29960.738, -0.11314193, -0.051619366, 404179.75, 404179.75, 0.000016014252, 10.003937, 9.997515 
2.2509012e+2, 3.1646806e+2, 576874.4, -15866.276, -140536.0, 0.090314195, 0.15456975, 608506.7, 608506.7, 0.000053501928, 10.00516, 9.99739 
2.3493627e+2, 1.2647222e+2, -1966056.6, -1572108.1, 26002.898, -0.05710631, 0.12582661, -1570399.3, 130176.29, 0.0008671324, 9.997069, 10.0023775 
2.349436e+2, 1.364723e+2, -1987949.4, -1623671.6, -63642.566, -0.09209943, -0.06763196, -1612872.8, -10307.719, 0.0004662031, 9.996694, 10.001532 
2.3495404e+2, 1.464721e+2, -1920852.1, -1688426.8, 16841.303, 0.0079111885, -0.16141048, -1687212.8, -182646.31, 0.00017258529, 9.997101, 10.000221 
2.3496369e+2, 1.5647334e+2, -1648103.3, -1501961.6, -5142.2363, -0.10960678, -0.079866745, -1501781.0, -95222.4, 0.000033446406, 9.998282, 10.000255 
2.3497164e+2, 1.6647436e+2, -1461618.0, -1298047.9, -145741.94, -0.12668519, -0.03298087, -1212711.6, 95837.09, 0.0000017722703, 9.99862, 10.000813 
2.3497908e+2, 1.7647482e+2, -1385610.1, -1230378.3, -110145.48, -0.052039545, -0.09260064, -1173249.0, 37292.566, 0.0000000001389195, 9.998551, 10.000638 
2.3498714e+2, 1.8647505e+2, -1328038.1, -1298271.4, -53424.977, -0.04215924, -0.05594933, -1257695.4, -145155.11, 0.0, 9.99891, 9.999325 
2.3499537e+2, 1.964751e+2, -1121955.8, -1135246.1, -59494.063, -0.09052795, -0.011258294, -1068736.9, -54194.184, 0.0, 9.9995985, 9.99944 
2.350034e+2, 2.0647542e+2, -892641.9, -904567.2, -55791.56, -0.102976784, 0.045457475, -842495.25, 74045.305, 0.0, 10.000199, 10.000065 
2.3501141e+2, 2.1647568e+2, -724369.06, -796312.2, 19902.303, -0.09361107, 0.041208357, -719230.3, 99307.6, 0.0, 10.000775, 9.999857 
2.3501933e+2, 2.2647496e+2, -702869.44, -892713.4, 21256.65, -0.09857479, 0.06608534, -700518.5, 20027.871, 0.0, 10.000943, 9.998435 
2.3502724e+2, 2.3647352e+2, -616277.3, -801489.4, 1720.2058, -0.11540768, 0.05610215, -616261.4, 6301.1396, 0.0, 10.000865, 9.998429 
2.3503661e+2, 2.4647216e+2, -429557.8, -671322.0, -17326.52, 0.012951766, 0.086012416, -428322.4, 96254.27, 0.0, 10.001516, 9.998334 
2.3504683e+2, 2.564707e+2, -186256.55, -511663.5, -10534.007, 0.22517619, 0.08143403, -185915.9, 240675.2, 0.0, 10.0025425, 9.998269 
2.3505414e+2, 2.6646847e+2, -132784.6, -471727.97, -59927.203, 0.18849021, 0.052762188, -122501.12, 206112.06, 0.0, 10.002415, 9.99792 
2.3505987e+2, 2.7646554e+2, -154840.97, -434699.1, -74491.69, 0.013664231, -0.057198513, -136248.27, 94393.68, 0.0, 10.001583, 9.997912 
2.350681e+2, 2.864641e+2, 8640.235, -273419.53, -52328.797, 0.03610032, -0.0063282913, 18035.52, 150690.84, 0.00000009734078, 10.001907, 9.998187 
2.3507757e+2, 2.9646352e+2, 197936.98, -176092.06, -7215.162, 0.15652812, 0.09409405, 198076.13, 232735.36, 0.0000024854203, 10.002716, 9.997797 
2.350839e+2, 3.064583e+2, 316637.97, -258324.78, 12668.774, -0.12780884, -0.114297576, 316917.0, 316917.0, 0.000014818683, 10.003918, 9.9963255 
2.3509528e+2, 3.1645724e+2, 512049.78, -140770.75, -86825.56, 0.03990574, 0.11388761, 523400.28, 523400.28, 0.000051300616, 10.005106, 9.996564 
2.4493496e+2, 1.2646276e+2, -2086811.6, -1727183.4, 32082.436, 0.13788764, 0.14588824, -1724343.8, -23676.516, 0.0007416808, 9.996666, 10.00151 
2.4494138e+2, 1.3646235e+2, -1742693.5, -1569293.3, -100616.36, -0.07093336, -0.023234962, -1523175.6, 79490.07, 0.00038814702, 9.998653, 10.000965 
2.4495184e+2, 1.4646189e+2, -1638137.5, -1498297.6, 25544.223, 0.0008162434, -0.14464118, -1493777.6, 10891.761, 0.00013769997, 9.998806, 10.000692 
2.4496253e+2, 1.5646383e+2, -1661878.9, -1471065.4, 38196.664, -0.03343559, -0.04095966, -1463703.3, -57050.92, 0.000025817635, 9.998036, 10.000576 
2.449708e+2, 1.6646475e+2, -1478328.3, -1334011.9, -77304.96, -0.068361565, -0.001596145, -1300421.0, 8222.083, 0.0000016011192, 9.998627, 10.000564 
2.4497814e+2, 1.7646465e+2, -1202861.1, -1164836.8, -110743.58, -0.0597525, -0.09475406, -1071485.1, 139157.36, 0.0000000006420841, 9.999905, 10.000438 
2.4498655e+2, 1.8646482e+2, -1105958.5, -1173003.8, -42467.434, -0.058714673, -0.065094166, -1085377.1, 27264.783, 0.0, 10.0003605, 9.999481 
2.4499533e+2, 1.9646509e+2, -1010709.25, -1060342.9, -37174.695, -0.080809295, -0.0126218, -990828.94, 23812.482, 0.0, 10.0002775, 9.99962 
2.4500364e+2, 2.0646577e+2, -906908.2, -868118.3, -80692.1, -0.07796726, 0.049709264, -804523.0, 112112.2, 0.0, 9.999913, 10.00045 
2.4501185e+2, 2.1646652e+2, -916230.25, -847532.44, -124134.484, -0.045402918, 0.056282386, -753082.25, 65545.0, 0.0, 9.999289, 10.000218 
2.4502005e+2, 2.2646591e+2, -835449.5, -934417.7, -72951.414, -0.06434632, 0.06587457, -796782.7, -76148.75, 0.0, 9.999934, 9.998632 
2.4502827e+2, 2.3646438e+2, -541158.44, -741993.5, -35806.594, -0.11214632, 0.02560897, -534965.5, 87684.81, 0.0, 10.001286, 9.99863 
2.4503782e+2, 2.4646315e+2, -420488.25, -653784.2, -13183.101, -0.010426633, 0.051211182, -419745.66, 104917.75, 0.0, 10.001514, 9.998465 
2.4504817e+2, 2.5646195e+2, -388227.28, -597911.94, -19178.451, 0.18385093, 0.05999387, -386487.6, 40188.117, 0.0, 10.001108, 9.998369 
2.4505606e+2, 2.6645976e+2, -250513.92, -557799.9, -24621.576, 0.17888331, 0.048118502, -248553.61, 80144.6, 0.0, 10.00172, 9.997671 
2.4506266e+2, 2.7645695e+2, 25491.248, -369430.8, -15351.0625, 0.073550604, -0.031319, 26087.063, 256814.73, 0.0, 10.002923, 9.997714 
2.4507123e+2, 2.8645542e+2, 188553.42, -203000.14, 4923.921, 0.09952635, 0.02988001, 188615.33, 321357.47, 0.00000009803459, 10.00321, 9.99805 
2.4508072e+2, 2.964545e+2, 235507.47, -166378.72, -34794.355, 0.19135755, 0.105239555, 238497.63, 273247.2, 0.0000023443192, 10.003011, 9.997724 
2.4508771e+2, 3.0644947e+2, 229154.66, -296033.0, 63477.19, -0.097927116, -0.08114361, 236717.95, 236717.95, 0.000014153015, 10.003313, 9.996354 
2.4509999e+2, 3.1644768e+2, 316360.88, -209485.45, -18021.238, 0.08254979, 0.07193884, 316977.75, 316977.75, 0.000049336963, 10.003682, 9.996763 
2.5493336e+2, 1.2645106e+2, -2150459.8, -1853463.5, 87579.59, 0.25882646, 0.022227485, -1829561.3, -128783.234, 0.000622871, 9.996645, 10.000651 
2.549404e+2, 1.3645186e+2, -1760725.5, -1603390.3, -33226.08, -0.05943331, 0.030223886, -1596661.4, 6110.676, 0.00031436078, 9.998652, 10.000725 
2.5495064e+2, 1.464522e+2, -1561706.6, -1336861.5, -16859.145, -0.03032445, -0.065310545, -1335604.4, 169163.69, 0.00010539114, 9.998788, 10.001811 
2.5496095e+2, 1.564554e+2, -1602984.6, -1346015.8, 29933.809, -0.0198596, 0.048311207, -1342574.9, 64160.152, 0.000019009012, 9.99802, 10.001441 
2.5496936e+2, 1.6645621e+2, -1550843.8, -1465665.0, -37257.594, -0.097587444, 0.08919037, -1451668.3, -142941.39, 0.0000013062046, 9.998552, 9.999693 
2.54977e+2, 1.7645523e+2, -1253736.8, -1262002.4, -58118.83, -0.19077833, -0.004517418, -1199604.0, 11133.34, 0.000000000635992, 9.999877, 9.999779 
2.549856e+2, 1.864547e+2, -1074046.0, -1094387.5, -53814.223, -0.21109186, -0.04764723, -1029449.8, 83292.195, 0.0, 10.0003, 10.000052 
2.5499457e+2, 1.9645438e+2, -991928.4, -1009728.06, -33253.32, -0.20937514, -0.11396907, -966404.56, 48339.215, 0.0, 10.000222, 9.999993 
2.5500315e+2, 2.0645472e+2, -1000278.1, -1031737.56, -113606.6, -0.137172, -0.040367186, -901317.44, 15424.731, 0.0, 9.999785, 9.999389 
2.550116e+2, 2.1645528e+2, -978638.8, -957757.44, -127415.055, -0.024606355, 0.047617856, -840356.0, -21615.418, 0.0, 9.999205, 9.999502 
2.550206e+2, 2.264548e+2, -761460.25, -759368.25, -31216.766, -0.022465779, 0.030581947, -729179.94, -8435.411, 0.0, 9.999841, 9.999881 
2.5502995e+2, 2.3645355e+2, -479878.47, -589788.7, 16183.802, -0.09196838, -0.10780254, -477545.0, 145208.31, 0.0, 10.001175, 9.99973 
2.550388e+2, 2.4645287e+2, -416873.72, -628530.75, -38907.508, -0.086771905, -0.08607505, -409948.2, 114811.67, 0.0, 10.00144, 9.998672 
2.5504723e+2, 2.5645235e+2, -387165.22, -574197.3, -18614.346, -0.043232884, -0.029940318, -385330.63, 41436.19, 0.0, 10.00101, 9.998581 
2.5505635e+2, 2.664513e+2, -233951.69, -508901.88, 12455.535, 0.01558702, 0.04119286, -233388.6, 95390.98, 0.0, 10.001664, 9.998033 
2.55066e+2, 2.7644977e+2, 23947.951, -353613.63, 33767.16, 0.09128613, 0.061505448, 26944.135, 257741.42, 0.0, 10.002833, 9.997871 
2.550751e+2, 2.8644797e+2, 104883.04, -358575.84, -13617.045, 0.14282292, 0.14685763, 105282.78, 238100.13, 0.00000013920514, 10.003144, 9.9970045 
2.5508356e+2, 2.9644576e+2, 169618.1, -273349.66, -28899.629, 0.1508962, 0.19426572, 171495.58, 206336.48, 0.0000022917138, 10.002893, 9.997039 
2.5509104e+2, 3.064415e+2, 312485.03, -121925.195, 74929.305, -0.11904592, 0.04173518, 325046.03, 325046.03, 0.0000129202135, 10.003309, 9.997553 
2.551037e+2, 3.1643894e+2, 383297.7, -61955.953, -3428.517, 0.032130916, 0.013363685, 383324.1, 383324.1, 0.000045823057, 10.003641, 9.997804 
2.6493105e+2, 1.2643947e+2, -1951558.3, -1781998.1, 105400.94, 0.30421826, -0.06432967, -1731511.6, -30622.762, 0.0005136847, 9.99809, 10.000444 
2.6493895e+2, 1.3644145e+2, -2047006.4, -1728750.8, -6210.4834, 0.04624982, 0.044841215, -1728629.5, -125754.73, 0.0002486243, 9.996596, 10.000867 
2.6494884e+2, 1.4644209e+2, -1883890.8, -1482218.6, 2565.0232, 0.03134307, -0.035670254, -1482202.3, 22666.904, 0.00007773356, 9.996549, 10.00189 
2.6495892e+2, 1.5644498e+2, -1640819.6, -1354127.4, -46916.832, -0.0042105233, 0.04271688, -1346644.9, 60193.414, 0.000013419433, 9.997721, 10.001533 
2.6496807e+2, 1.6644587e+2, -1482148.9, -1414442.9, -38395.246, -0.091156, 0.07629449, -1397107.8, -88278.91, 0.0000010267595, 9.99894, 9.999864 
2.6497695e+2, 1.7644517e+2, -1216730.9, -1222670.6, -12292.814, -0.18297276, -0.0055738627, -1207054.3, 3781.4814, 0.0000000012219834, 10.000033, 9.999975 
2.6498562e+2, 1.8644509e+2, -1144082.6, -1086500.0, -31886.924, -0.19947767, -0.034802027, -1072329.5, 40506.082, 0.0, 9.999642, 10.000423 
2.6499406e+2, 1.964453e+2, -1247480.3, -1106434.1, -41226.14, -0.18377575, -0.081640445, -1095268.3, -80436.35, 0.0, 9.998348, 10.000238 
2.650029e+2, 2.0644522e+2, -1095296.4, -1109584.5, -23513.545, -0.10865177, -0.04487396, -1077865.6, -161031.44, 0.0, 9.999274, 9.999099 
2.6501206e+2, 2.1644482e+2, -681813.0, -843969.4, -8860.648, 0.0013609026, -0.020688683, -681330.25, 137511.33, 0.0, 10.001371, 9.99924 
2.650213e+2, 2.264445e+2, -588466.8, -662645.3, 37160.285, 0.011368139, -0.01709441, -573053.7, 147790.45, 0.0, 10.000963, 10.000009 
2.650306e+2, 2.3644413e+2, -772981.2, -717648.9, -15382.168, -0.03698971, -0.078870624, -713660.25, -90815.445, 0.0, 9.999097, 9.999859 
2.650397e+2, 2.464436e+2, -647650.7, -705246.4, -40707.12, -0.04815122, -0.06354441, -626584.9, -101735.08, 0.0, 9.999729, 9.998958 
2.6504865e+2, 2.5644282e+2, -242962.56, -470638.9, -33024.492, -0.038063947, -0.064086355, -238269.11, 188589.77, 0.0, 10.001877, 9.998861 
2.650581e+2, 2.664419e+2, -114761.37, -439442.72, -8549.65, -0.009513173, 0.0049330643, -114536.39, 214333.4, 0.0, 10.002423, 9.998149 
2.6506793e+2, 2.7644095e+2, -80368.31, -386828.75, -25936.326, 0.048559792, 0.06720393, -78188.77, 152693.33, 0.0, 10.002059, 9.998009 
2.6507744e+2, 2.864392e+2, 7332.7505, -420099.44, -16469.893, 0.10131424, 0.15906626, 7966.4316, 140868.67, 0.00000017298198, 10.0025215, 9.996887 
2.6508647e+2, 2.964367e+2, 246168.27, -242280.23, 18215.488, 0.1344086, 0.18590823, 246846.63, 281776.72, 0.000002277503, 10.003421, 9.997007 
2.6509514e+2, 3.064333e+2, 374101.78, -109496.45, 109404.69, -0.05046535, 0.12530227, 397700.84, 397700.84, 0.000011809922, 10.003786, 9.997425 
2.6510802e+2, 3.164301e+2, 399435.66, -16864.166, -111402.71, 0.11720419, 0.0483317, 427372.47, 427372.47, 0.000042439046, 10.003569, 9.998159 
2.7492753e+2, 1.264278e+2, -1914988.6, -1710985.5, 14101.962, 0.082261115, -0.13039888, -1710015.4, -9014.064, 0.00042107303, 9.998105, 10.000926 
2.7493662e+2, 1.3643125e+2, -2000221.4, -1633009.8, -48014.54, 0.12554678, 0.036535937, -1626835.5, -23862.793, 0.00019522583, 9.9966, 10.00152 
2.7494606e+2, 1.4643162e+2, -1960441.0, -1633999.4, 30215.785, 0.069804616, -0.041650977, -1631226.1, -126254.96, 0.000056360343, 9.99652, 10.000862 
2.7495614e+2, 1.5643263e+2, -1693121.5, -1457486.9, 8841.8955, -0.07833958, -0.049799066, -1457155.5, -50193.84, 0.000009372096, 9.997705, 10.000831 
2.7496678e+2, 1.6643369e+2, -1398180.1, -1232390.4, -5627.7104, -0.14029972, -0.040257726, -1232199.6, 76749.51, 0.0000008660051, 9.998907, 10.001124 
2.7497768e+2, 1.7643441e+2, -1144799.1, -1067240.0, 26153.992, -0.14033537, -0.10532329, -1059244.8, 151693.48, 0.000000004874734, 10.0000105, 10.001049 
2.749863e+2, 1.864359e+2, -1149346.5, -1077428.5, -91778.62, -0.12073754, -0.027290488, -1014815.9, 98107.25, 0.0, 9.999559, 10.000525 
2.7499345e+2, 1.9643779e+2, -1242794.0, -1082668.0, -61315.563, -0.10513669, 0.0800247, -1061886.1, -46980.324, 0.0, 9.998295, 10.000423 
2.750026e+2, 2.0643729e+2, -1079573.3, -1055365.0, 47650.613, -0.08573429, 0.04298171, -1018305.2, -101394.766, 0.0, 9.999182, 9.999517 
2.7501294e+2, 2.1643515e+2, -684294.94, -818944.56, 60109.37, -0.06884008, -0.14908153, -661365.8, 157564.42, 0.0, 10.001243, 9.999473 
2.7502185e+2, 2.2643505e+2, -682492.8, -826646.6, -44035.652, -0.05162068, -0.075059004, -670105.4, 50827.34, 0.0, 10.000831, 9.998947 
2.750298e+2, 2.36436e+2, -848747.94, -848817.9, -57164.11, -0.041980423, 0.10100791, -791618.8, -168692.58, 0.0, 9.998983, 9.999014 
2.7504024e+2, 2.4643518e+2, -630485.2, -654570.5, 31430.504, 0.013452465, 0.10350546, -608869.25, -83934.76, 0.0, 9.999666, 9.999335 
2.7505204e+2, 2.5643313e+2, -236011.2, -436326.5, 44479.266, 0.087637186, -0.06077975, -226578.89, 200374.7, 0.0, 10.001782, 9.999146 
2.7506095e+2, 2.6643154e+2, -134225.7, -463092.25, -36185.71, 0.011143702, -0.06438604, -130291.195, 198678.36, 0.0, 10.002356, 9.998018 
2.7506822e+2, 2.7643022e+2, -94702.18, -397279.47, -24615.55, -0.15242907, -0.024856476, -92712.72, 138271.56, 0.00000000009324417, 10.001973, 9.997982 
2.750781e+2, 2.8642884e+2, 62211.19, -292812.56, 6988.5674, -0.11094385, 0.05341622, 62348.707, 195348.63, 0.00000023612336, 10.002471, 9.997782 
2.7508914e+2, 2.9642716e+2, 280891.47, -153521.89, 58431.38, 0.0266096, 0.07510664, 288613.6, 323632.28, 0.0000024951785, 10.003348, 9.997652 
2.750996e+2, 3.0642495e+2, 280274.8, -294890.16, 94991.305, -0.004141795, 0.17790958, 295557.03, 295557.03, 0.0000116764495, 10.0037565, 9.996157 
2.7511227e+2, 3.164213e+2, 352623.8, -84949.12, -99661.055, 0.13085558, 0.18220496, 374253.3, 374253.3, 0.000040598366, 10.003445, 9.997748 
2.8492516e+2, 1.264173e+2, -2001495.0, -1758849.9, 75190.38, 0.07488876, -0.16234967, -1737439.3, -36334.727, 0.00034660724, 9.997549, 10.000864 
2.8493464e+2, 1.3642147e+2, -1764241.8, -1498169.5, -71601.57, 0.20145066, 0.065104626, -1480124.9, 122944.445, 0.00015383559, 9.998152, 10.001687 
2.8494388e+2, 1.4642225e+2, -1717746.3, -1528264.3, 89826.56, 0.12224554, 0.023352778, -1492450.0, 12613.592, 0.00004093297, 9.998235, 10.000763 
2.8495446e+2, 1.5642236e+2, -1635645.8, -1434396.9, 115623.27, -0.027250757, -0.06307224, -1381743.8, 25318.271, 0.0000066741927, 9.998107, 10.000801 
2.8496566e+2, 1.6642335e+2, -1522007.3, -1246421.1, 101609.27, -0.082937345, -0.08076552, -1213008.6, 96040.55, 0.00000074756446, 9.997873, 10.001529 
2.8497708e+2, 1.764246e+2, -1475067.4, -1194831.9, 44148.902, -0.07516733, -0.1308374, -1188041.1, 22991.492, 0.000000006090155, 9.997605, 10.001342 
2.8498593e+2, 1.8642612e+2, -1351958.4, -1185981.9, -103382.83, -0.039259993, -0.055204295, -1136399.3, -23382.252, 0.0, 9.998218, 10.000425 
2.8499326e+2, 1.9642776e+2, -1104271.6, -1025115.9, -104193.55, 0.004009391, 0.040455505, -953236.56, 61765.773, 0.0, 9.999283, 10.000345 
2.8500274e+2, 2.0642741e+2, -971339.06, -982813.75, 43025.184, -0.016717909, 0.011332618, -933670.4, -16665.473, 0.0, 9.999844, 9.999687 
2.8501347e+2, 2.164257e+2, -854641.44, -891982.0, 7140.6304, -0.074978806, -0.15483792, -853322.5, -34302.875, 0.0, 10.000038, 9.999547 
2.8502238e+2, 2.2642529e+2, -736688.56, -888787.56, -103202.79, -0.06367093, -0.09347565, -684541.56, 36483.344, 0.0, 10.000624, 9.998616 
2.8503025e+2, 2.3642553e+2, -517872.9, -728246.8, -75956.25, -0.012980825, 0.044604134, -493315.34, 129710.38, 0.0, 10.001428, 9.998663 
2.8504103e+2, 2.4642451e+2, -396673.34, -595078.6, 60359.68, 0.040448755, 0.06809277, -379753.38, 145284.52, 0.0, 10.001483, 9.998873 
2.8505352e+2, 2.5642273e+2, -356311.4, -531674.06, -12715.765, 0.10108711, -0.026408764, -355394.16, 71662.945, 0.0, 10.001123, 9.998806 
2.8506276e+2, 2.6642123e+2, -254133.22, -484105.84, -98603.164, 0.013713929, -0.026133003, -217645.33, 111426.36, 0.0, 10.001383, 9.998335 
2.8507018e+2, 2.764197e+2, -74861.93, -357743.38, -70797.09, -0.14447272, -0.036446452, -58132.785, 172952.83, 0.0000000018932573, 10.001976, 9.998249 
2.8508022e+2, 2.864179e+2, 42471.598, -314467.78, -30499.928, -0.13204665, -0.0069353776, 45059.01, 178163.94, 0.00000028816427, 10.00238, 9.9976845 
2.8509152e+2, 2.9641593e+2, 190299.27, -195081.9, -73209.76, -0.030819438, -0.0043474333, 203738.1, 238865.56, 0.0000027347362, 10.002731, 9.997659 
2.8510314e+2, 3.064142e+2, 178126.4, -327974.63, -5867.5474, 0.023716163, 0.12958698, 178194.44, 178194.44, 0.000012525966, 10.00297, 9.996304 
2.8511572e+2, 3.164118e+2, 292319.53, -35168.36, -127148.46, 0.18535833, 0.24386945, 335888.88, 335888.88, 0.000040564606, 10.002686, 9.998447 
2.9492322e+2, 1.2640807e+2, -2042514.3, -1853591.1, 55494.68, 0.06309775, -0.14433819, -1838496.1, -137299.1, 0.00028487924, 9.997583, 10.000198 
2.9493275e+2, 1.3641219e+2, -1792184.1, -1562130.0, -47992.844, 0.16822338, 0.13407426, -1552519.5, 50645.1, 0.000121053716, 9.998184, 10.001229 
2.9494202e+2, 1.464139e+2, -1653194.0, -1403673.4, 68463.734, 0.07679667, 0.15936562, -1386122.8, 119024.44, 0.000029834508, 9.9982605, 10.001612 
2.949535e+2, 1.5641415e+2, -1591404.3, -1341318.1, 117848.81, 0.03470508, -0.00016095732, -1294535.4, 112603.74, 0.000004731658, 9.998098, 10.001445 
2.949644e+2, 1.6641492e+2, -1565939.0, -1324457.5, 82470.57, -0.016274586, -0.037514947, -1298980.1, 10148.213, 0.00000054097734, 9.997822, 10.001014 
2.9497483e+2, 1.7641585e+2, -1511300.8, -1260900.9, 55040.492, -0.0867704, -0.07243009, -1249336.5, -38219.094, 0.0000000012704189, 9.997577, 10.000896 
2.9498425e+2, 1.8641585e+2, -1386533.5, -1244541.9, -72576.25, -0.0538994, -0.110980384, -1214010.8, -100894.73, 0.0, 9.998156, 10.000056 
2.9499313e+2, 1.9641516e+2, -1136564.1, -1078633.5, -58665.45, 0.037654813, -0.21137822, -1042172.3, -27050.488, 0.0, 9.999225, 10.000005 
2.9500297e+2, 2.0641555e+2, -994323.75, -1004352.1, 42028.406, 0.0002563066, -0.14641087, -957011.5, -39893.426, 0.0, 9.999733, 9.999592 
2.9501322e+2, 2.1641642e+2, -873934.6, -902041.75, 29167.72, -0.12488803, -0.044687476, -855611.4, -36501.082, 0.0, 9.999912, 9.999536 
2.950226e+2, 2.2641525e+2, -731414.4, -846345.6, -82532.59, -0.122754425, -0.07878748, -688311.94, 32808.785, 0.0, 10.000489, 9.998971 
2.9503155e+2, 2.3641278e+2, -525849.56, -716692.3, -40103.836, -0.04601425, -0.2471239, -517764.66, 105378.57, 0.0, 10.001309, 9.998797 
2.9504183e+2, 2.4641177e+2, -494729.78, -782597.2, 36181.195, -0.04994355, -0.15694308, -490251.94, 34906.332, 0.0, 10.0014105, 9.997625 
2.950529e+2, 2.5641152e+2, -435269.03, -679678.7, -11468.022, -0.099731915, 0.031226754, -434732.13, -7562.2637, 0.0, 10.001047, 9.997834 
2.950633e+2, 2.6641074e+2, -204986.34, -372236.2, -84077.24, -0.096566886, 0.09791459, -170027.5, 159150.6, 0.0, 10.001338, 9.999125 
2.950734e+2, 2.7640936e+2, -48281.773, -283965.03, -41722.906, -0.049989115, 0.023350617, -41113.6, 190073.22, 0.0000000016821552, 10.001892, 9.998797 
2.9508346e+2, 2.8640655e+2, -34159.54, -465583.56, -28873.31, -0.068910085, -0.011901537, -32235.756, 100980.43, 0.00000022409213, 10.002344, 9.996667 
2.950933e+2, 2.9640302e+2, 135366.33, -302205.2, -44159.715, -0.15762572, -0.0620041, 139778.45, 175034.94, 0.0000026534976, 10.002689, 9.99695 
2.9510546e+2, 3.064009e+2, 285428.4, -96625.05, -18526.916, -0.066723466, -0.022799473, 286324.72, 286324.72, 0.00001292508, 10.002938, 9.997904 
2.9511774e+2, 3.1640106e+2, 412251.9, 223442.53, -90348.016, 0.059213422, 0.17824289, 448518.6, 448518.6, 0.000040882285, 10.002641, 10.000245 
3.0492198e+2, 1.263996e+2, -1958245.6, -1844303.8, 71007.24, 0.1620108, -0.033764318, -1810237.8, -108954.664, 0.00023189351, 9.998308, 9.999918 
3.0493057e+2, 1.3640155e+2, -1763452.6, -1591173.1, -49464.727, 0.123478435, 0.07406133, -1577981.0, 25289.59, 0.000094942065, 9.998548, 10.000867 
3.049397e+2, 1.4640357e+2, -1661748.0, -1367772.8, 41430.8, 0.03708169, 0.1258697, -1362045.4, 143203.8, 0.000021738364, 9.998061, 10.001938 
3.0495226e+2, 1.5640466e+2, -1693539.4, -1363803.5, 24744.684, 0.15242113, 0.022360515, -1361956.9, 45275.152, 0.0000030875526, 9.997297, 10.001667 
3.0496335e+2, 1.6640544e+2, -1619885.0, -1375605.9, 34372.434, 0.11580305, -0.011159076, -1370861.5, -61640.25, 0.0000002653173, 9.997543, 10.000798 
3.049732e+2, 1.7640598e+2, -1414978.5, -1233946.4, 11043.918, -0.036595475, -0.06444578, -1233275.1, -22060.154, 0.0, 9.998314, 10.000725 
3.0498302e+2, 1.8640564e+2, -1231869.8, -1178098.5, -50562.375, -0.03863701, -0.12597622, -1147718.1, -34501.973, 0.0, 9.999255, 9.999986 
3.0499294e+2, 1.9640459e+2, -996172.06, -1031872.44, -41836.582, 0.051686097, -0.2516525, -968536.75, 46686.996, 0.0, 10.000264, 9.999837 
3.050032e+2, 2.0640479e+2, -930175.2, -1025363.75, 32315.771, 0.024034163, -0.17037693, -920241.0, -3018.512, 0.0, 10.000389, 9.999142 
3.0501357e+2, 2.1640563e+2, -892974.94, -957466.94, -25584.229, -0.07679438, -0.024336386, -884058.4, -64841.297, 0.0, 9.999969, 9.999139 
3.0502337e+2, 2.2640423e+2, -735992.4, -841614.25, -108559.17, -0.08342971, -0.06815212, -668080.1, 53149.79, 0.0, 10.000425, 9.999036 
3.05033e+2, 2.3640145e+2, -511934.25, -702646.75, -114907.31, -0.030012129, -0.27409127, -457970.38, 165283.98, 0.0, 10.001381, 9.9988575 
3.050433e+2, 2.4640068e+2, -488950.53, -772716.75, -5789.186, -0.039748807, -0.16717109, -488832.47, 36434.105, 0.0, 10.00143, 9.997681 
3.0505395e+2, 2.564009e+2, -434231.7, -670541.6, 31389.06, -0.088648364, 0.06322704, -430133.38, -2860.4563, 0.0, 10.001028, 9.9979 
3.0506462e+2, 2.6639992e+2, -253386.95, -414569.84, -180.10338, -0.081480294, 0.11483965, -253386.75, 75896.56, 0.0, 10.0010805, 9.998962 
3.0507523e+2, 2.7639797e+2, -121047.46, -334498.9, -45890.926, -0.025342736, -0.00041740586, -111599.36, 119698.96, 0.00000000014964384, 10.001458, 9.998661 
3.0508584e+2, 2.8639534e+2, -79790.516, -476303.5, 13419.634, -0.041071933, -0.016130976, -79336.86, 53988.816, 0.00000013461268, 10.001999, 9.996748 
3.0509624e+2, 2.963926e+2, 124178.24, -294062.2, 54129.3, -0.11903335, -0.0021486992, 131070.164, 166428.33, 0.0000024184974, 10.002574, 9.997049 
3.051087e+2, 3.0638954e+2, 300730.94, -48163.473, 54316.76, -0.023211049, -0.08023332, 308991.53, 308991.53, 0.00001259153, 10.002859, 9.998291 
3.0512023e+2, 3.163895e+2, 424235.7, 228419.1, -124623.99, 0.05069345, 0.06800181, 484811.38, 484811.38, 0.00003964242, 10.002726, 10.000254 
3.1492108e+2, 1.2639216e+2, -1942522.1, -1815353.5, 25113.08, 0.18418002, 0.20298252, -1810573.9, -109213.67, 0.00018871382, 9.998335, 10.0001 
3.1492767e+2, 1.3638978e+2, -1786974.5, -1621923.0, -38875.105, -0.04474505, -0.10409836, -1613225.0, -9839.74, 0.00007509751, 9.998497, 10.000671 
3.1493652e+2, 1.4639139e+2, -1687173.3, -1422095.5, -1654.7329, -0.114307806, -0.06231828, -1422085.1, 83282.96, 0.00001598166, 9.998053, 10.001573 
3.149505e+2, 1.5639384e+2, -1713667.3, -1407611.3, 14273.156, 0.21943475, 0.00251811, -1406947.1, 393.76453, 0.00000170519, 9.997305, 10.001361 
3.1496218e+2, 1.6639486e+2, -1619403.0, -1369121.0, 49124.926, 0.22087003, 0.0032708212, -1359824.3, -50495.84, 0.000000057148895, 9.997512, 10.000862 
3.149719e+2, 1.7639495e+2, -1413471.5, -1222224.1, 47381.21, -0.022811288, -0.102338225, -1211129.1, 196.30019, 0.0, 9.998276, 10.000824 
3.149819e+2, 1.8639551e+2, -1226465.9, -1153969.0, -22983.365, -0.096994884, -0.0901969, -1147296.8, -33979.754, 0.0, 9.999193, 10.000183 
3.1499234e+2, 1.9639608e+2, -999213.8, -1023566.75, -548.6066, -0.058899295, -0.07593973, -999201.5, 16106.341, 0.0, 10.000201, 9.999923 
3.1500316e+2, 2.0639524e+2, -1010599.4, -1162556.0, 4940.5767, -0.037879083, -0.053146005, -1010438.94, -93121.6, 0.0, 10.000268, 9.998255 
3.1501412e+2, 2.1639341e+2, -967298.4, -1080974.9, -23720.732, -0.036834497, -0.08551404, -962547.2, -143207.94, 0.0, 9.999843, 9.998348 
3.1502438e+2, 2.2639234e+2, -763645.75, -877845.75, -81489.76, -0.04902467, -0.052563686, -721242.06, 109.309456, 0.0, 10.000329, 9.998838 
3.150342e+2, 2.3639154e+2, -524254.47, -706832.9, -75992.72, -0.06682899, -0.039598003, -496764.0, 126595.266, 0.0, 10.001282, 9.998882 
3.1504506e+2, 2.4639112e+2, -401774.25, -577800.9, -31864.967, -0.03259305, 0.02426947, -396183.5, 129180.29, 0.0, 10.001372, 9.999043 
3.1505635e+2, 2.5639084e+2, -378027.72, -527374.44, 26816.111, 0.026940871, 0.06644196, -373358.7, 54008.414, 0.0, 10.000915, 9.998939 
3.1506634e+2, 2.663889e+2, -332339.22, -569134.44, 4169.4575, -0.03616768, 0.036052477, -332265.84, -2878.878, 0.0, 10.001039, 9.997924 
3.150755e+2, 2.763856e+2, -179825.08, -445984.6, -19623.234, -0.17031913, -0.10764729, -178386.08, 53033.66, 0.00000000001473293, 10.001405, 9.997925 
3.1508702e+2, 2.8638428e+2, -8256.295, -320101.9, 24207.885, -0.14733891, -0.02671275, -6388.2803, 127045.734, 0.000000108201135, 10.001967, 9.997834 
3.1509987e+2, 2.9638425e+2, 167203.97, -186186.73, 83439.48, -0.04503918, 0.15778093, 185914.33, 221349.72, 0.0000023186144, 10.002486, 9.997836 
3.1511253e+2, 3.0637982e+2, 244237.75, -158337.16, 43551.395, 0.04688685, -0.04974931, 248895.34, 248895.34, 0.000012381474, 10.002827, 9.997549 
3.1512251e+2, 3.16377e+2, 309875.13, -7798.894, -71588.01, -0.048027992, -0.10545689, 325262.22, 325262.22, 0.000038038266, 10.002708, 9.998642 
3.249184e+2, 1.2638228e+2, -2190516.5, -1839348.4, 29761.729, 0.19847837, 0.22430032, -1836843.9, -135385.9, 0.00015750076, 9.996194, 10.00097 
3.2492623e+2, 1.3638002e+2, -1908443.0, -1646795.4, 4802.656, 0.023594854, -0.1259848, -1646707.3, -43228.6, 0.00006189271, 9.997476, 10.001009 
3.249349e+2, 1.4638147e+2, -1719355.9, -1518687.5, 42960.723, -0.0802066, -0.07427682, -1509876.9, -4412.5586, 0.000012633238, 9.998167, 10.000862 
3.2494825e+2, 1.5638341e+2, -1567032.5, -1404555.8, 12725.644, 0.20688014, 0.008991435, -1403565.0, 3880.7505, 0.0000008198343, 9.998586, 10.000772 
3.2496038e+2, 1.6638431e+2, -1437157.8, -1278171.4, 78888.96, 0.23416471, 0.020916102, -1245670.8, 63764.508, 0.000000004124255, 9.998774, 10.000868 
3.2497108e+2, 1.7638457e+2, -1332865.5, -1192623.3, 49992.83, 0.046375524, -0.064517125, -1176626.8, 34802.68, 0.0, 9.99887, 10.000742 
3.2498157e+2, 1.8638504e+2, -1236413.5, -1193527.3, -18441.807, -0.048945528, -0.03860942, -1186687.8, -73265.95, 0.0, 9.999275, 9.999864 
3.2499215e+2, 1.9638546e+2, -1077490.8, -1088675.4, -64269.04, -0.06962999, -0.010330914, -1018571.1, -3156.3782, 0.0, 9.999793, 9.999662 
3.250033e+2, 2.0638418e+2, -1017487.9, -1167673.4, -39413.86, -0.03979228, -0.01978174, -1007772.75, -90344.86, 0.0, 10.000217, 9.998246 
3.2501474e+2, 2.1638182e+2, -870104.0, -1036968.25, -17592.152, 0.012873807, -0.10694771, -868269.5, -48815.445, 0.0, 10.000518, 9.998326 
3.250254e+2, 2.2638096e+2, -732331.75, -876320.94, -9692.456, 0.014288262, -0.043563016, -731682.25, -10217.605, 0.0, 10.0006, 9.998719 
3.2503563e+2, 2.3638083e+2, -628149.56, -762090.7, -21133.09, -0.011323329, 0.04637452, -624894.3, -1426.568, 0.0, 10.000585, 9.998839 
3.2504633e+2, 2.4638009e+2, -497405.6, -578152.06, -23054.904, 0.008079443, 0.05617757, -491286.6, 34186.78, 0.0, 10.000506, 9.999465 
3.2505724e+2, 2.5637895e+2, -417804.88, -512741.25, -44562.453, 0.054386895, -0.031091271, -400165.13, 27315.996, 0.0, 10.000481, 9.999252 
3.2506776e+2, 2.663771e+2, -353907.75, -615991.0, -13051.272, 0.0062840516, -0.042470936, -353259.4, -23759.139, 0.0, 10.001059, 9.99759 
3.2507798e+2, 2.7637458e+2, -107847.914, -436024.84, -8370.222, -0.0874347, -0.079806104, -107634.57, 123894.62, 0.00000000010851988, 10.002022, 9.997691 
3.2508948e+2, 2.8637326e+2, 50409.16, -256910.33, 21977.879, -0.100066274, -0.0013714392, 51972.945, 185515.44, 0.00000014604628, 10.002211, 9.998159 
3.2510182e+2, 2.963729e+2, 100460.53, -183485.8, 5250.367, -0.056690976, 0.1146253, 100557.58, 136102.0, 0.0000023415487, 10.001882, 9.998145 
3.251148e+2, 3.063691e+2, 158007.95, -177328.13, 14262.638, 0.037275422, -0.05039306, 158613.48, 158613.48, 0.000012312151, 10.002165, 9.997721 
3.251257e+2, 3.1636697e+2, 277722.1, -71777.17, -53269.184, 0.008986723, -0.05774729, 285660.8, 285660.8, 0.000036624067, 10.002733, 9.998169 
3.3491307e+2, 1.2636992e+2, -2092761.4, -1623792.1, 5913.6436, -0.005458773, 0.025987595, -1623717.5, 77859.61, 0.00013853858, 9.996152, 10.002463 
3.34926e+2, 1.3637243e+2, -1851898.1, -1510846.9, 54448.977, 0.22699435, 0.027973507, -1502365.0, 101184.42, 0.000055370125, 9.997426, 10.001948 
3.3493453e+2, 1.4637396e+2, -1796257.3, -1669547.8, 44099.223, 0.036820196, 0.107578576, -1655710.8, -150174.45, 0.000011804474, 9.998127, 9.999848 
3.3494514e+2, 1.563736e+2, -1626151.3, -1524063.5, 37247.918, 0.0080799665, 0.0577052, -1511918.1, -104373.734, 0.00000057438905, 9.998576, 9.999956 
3.3495754e+2, 1.6637395e+2, -1449571.8, -1300571.4, 71997.82, 0.048315838, 0.05499199, -1271466.6, 38073.113, 0.00000000201948, 9.998754, 10.000729 
3.349705e+2, 1.7637478e+2, -1350785.4, -1229990.0, 67624.19, 0.07309993, 0.041170478, -1199718.5, 11808.618, 0.0, 9.998867, 10.00049 
3.3498165e+2, 1.8637419e+2, -1313272.5, -1330261.1, -9632.195, 0.008041233, 0.025130577, -1308924.3, -195393.8, 0.0, 9.99918, 9.998971 
3.3499205e+2, 1.9637257e+2, -1132362.3, -1185836.5, -36903.582, -0.08488176, -0.062889546, -1113528.0, -97982.45, 0.0, 9.999725, 9.999026 
3.3500332e+2, 2.0637156e+2, -966594.94, -1041343.8, -39162.105, -0.07605996, -0.07067738, -949835.1, -32280.375, 0.0, 10.000128, 9.999159 
3.3501512e+2, 2.1637078e+2, -832319.1, -928726.3, 1928.2526, -0.02231926, -0.09180769, -832280.6, -12718.713, 0.0, 10.000391, 9.999131 
3.3502617e+2, 2.2637007e+2, -754983.06, -896376.3, -21202.588, 0.013858354, -0.04337958, -751872.1, -30301.938, 0.0, 10.000487, 9.998633 
3.3503687e+2, 2.3636931e+2, -654866.6, -785630.44, -14220.491, 0.037465047, -0.010097939, -653338.0, -29757.88, 0.0, 10.000454, 9.998736 
3.350469e+2, 2.4636766e+2, -533027.06, -646244.3, -33031.14, -0.007008173, -0.06276849, -524094.94, 1499.9053, 0.0, 10.000474, 9.999016 
3.3505645e+2, 2.5636533e+2, -452400.0, -568926.9, -31431.27, -0.09728995, -0.2243427, -444462.6, -16848.707, 0.0, 10.000411, 9.9989 
3.350686e+2, 2.6636466e+2, -337955.53, -576994.44, 14372.121, -0.034706015, -0.11920194, -337094.5, -7471.9526, 0.0, 10.001033, 9.9978695 
3.3508217e+2, 2.763647e+2, -106080.82, -412689.72, 32381.357, 0.108855024, 0.07462914, -102698.305, 128929.375, 0.000000000044508567, 10.001935, 9.997891 
3.3509293e+2, 2.8636235e+2, 24271.498, -309670.34, 384.99515, -0.0010281877, 0.05415916, 24271.941, 157922.89, 0.00000018851506, 10.002193, 9.997809 
3.3510187e+2, 2.963587e+2, 82637.664, -217536.88, 9534.432, -0.26970226, -0.12175711, 82940.2, 118623.24, 0.0000023038672, 10.001856, 9.997931 
3.3511525e+2, 3.0635732e+2, 223438.98, -39496.277, 27182.027, -0.15393132, -0.086907886, 226219.64, 226219.64, 0.000011796056, 10.002159, 9.99867 
3.3512896e+2, 3.1635922e+2, 297145.56, -5180.1553, 11975.12, 0.011582092, 0.21227804, 297619.16, 297619.16, 0.000034748333, 10.002613, 9.998691 
3.4490886e+2, 1.2635724e+2, -2054963.1, -1573898.4, -40088.477, -0.03635064, -0.10141257, -1570580.6, 131119.5, 0.00012841672, 9.996288, 10.00274 
3.44924e+2, 1.3636146e+2, -1872676.4, -1524641.9, -88069.46, 0.3050487, 0.067836136, -1503625.1, 100031.48, 0.00005393956, 9.997276, 10.0019455 
3.4493336e+2, 1.4636305e+2, -1799441.4, -1661342.3, -70656.99, 0.116545424, 0.15176791, -1631597.8, -125953.84, 0.00001321429, 9.998075, 9.999921 
3.4494326e+2, 1.5636267e+2, -1608735.5, -1522205.4, -36394.086, -0.03289271, 0.09565221, -1508933.8, -101280.46, 0.00000089811203, 9.998722, 9.999898 
3.4495592e+2, 1.663627e+2, -1435506.6, -1352694.5, 16061.801, 0.0020088097, 0.09488421, -1349688.4, -40035.61, 0.0000000015154811, 9.999093, 10.000211 
3.4496963e+2, 1.7636299e+2, -1315040.6, -1256026.1, -33695.305, 0.08558708, 0.07824858, -1240744.4, -29098.379, 0.0, 9.999308, 10.000095 
3.4498146e+2, 1.8636222e+2, -1242933.9, -1283127.0, -44692.637, 0.057348732, 0.052192826, -1214027.4, -100375.82, 0.0, 9.999606, 9.999095 
3.4499252e+2, 1.9636054e+2, -1099402.8, -1155599.5, -14635.097, -0.011920484, -0.050402682, -1095819.9, -80153.055, 0.0, 9.999886, 9.999165 
3.4500363e+2, 2.0635988e+2, -1010540.3, -1023516.44, -17704.918, -0.030808536, -0.050975688, -998172.06, -80499.88, 0.0, 9.999656, 9.999508 
3.4501466e+2, 2.1635959e+2, -1002172.0, -978370.75, -38593.344, -0.032699965, -0.05413586, -949884.8, -130211.22, 0.0, 9.999075, 9.999429 
3.450262e+2, 2.2635902e+2, -875406.8, -922324.6, -20685.314, 0.017961357, -0.020571224, -867589.44, -145909.45, 0.0, 9.999528, 9.998915 
3.45038e+2, 2.3635818e+2, -618581.0, -746512.9, -9330.126, 0.102757804, -0.021191586, -617904.1, 5786.295, 0.0, 10.000607, 9.998933 
3.450482e+2, 2.4635668e+2, -439538.44, -623144.7, -5353.3843, 0.042757373, -0.055109225, -439382.47, 86321.61, 0.0, 10.00123, 9.998804 
3.4505737e+2, 2.5635457e+2, -290692.16, -514219.63, -6243.5225, -0.10297932, -0.16892798, -290517.9, 137203.84, 0.0, 10.001624, 9.998695 
3.4507012e+2, 2.6635388e+2, -220618.75, -513085.28, 64411.43, -0.018156871, -0.061035812, -207061.52, 122668.94, 0.0, 10.001809, 9.997933 
3.45085e+2, 2.7635375e+2, -108597.21, -407532.22, 45409.96, 0.20478503, 0.11106494, -101851.4, 129884.805, 0.0, 10.001896, 9.997946 
3.450958e+2, 2.8635105e+2, 19191.498, -311021.84, 25588.428, 0.07987281, 0.055424318, 21162.594, 154924.61, 0.00000016974016, 10.002177, 9.997799 
3.4510422e+2, 2.9634696e+2, 189051.4, -169514.67, 35799.09, -0.25049582, -0.165067, 192590.64, 228388.86, 0.0000020169734, 10.002612, 9.997896 
3.4511736e+2, 3.063459e+2, 269872.34, -30822.8, 40573.72, -0.16874048, -0.08679989, 275250.88, 275250.88, 0.0000103175025, 10.002514, 9.9985695 
3.4513146e+2, 3.1634733e+2, 195094.33, -53136.363, -68107.06, 0.04907304, 0.16874199, 212552.95, 212552.95, 0.00003196276, 10.00189, 9.998709 
3.5490504e+2, 1.2634434e+2, -2127588.5, -1722725.1, -71878.54, -0.11405531, -0.14130597, -1710342.6, -8516.239, 0.00012227354, 9.996282, 10.001719 
3.549198e+2, 1.3634709e+2, -1928686.1, -1638273.1, -40752.242, 0.1318118, -0.0043616015, -1632663.0, -28862.463, 0.00005490219, 9.997285, 10.001152 
3.549309e+2, 1.4634886e+2, -1724406.5, -1515241.8, -58591.83, 0.030374318, 0.07176016, -1499947.3, 5838.768, 0.000015641235, 9.998103, 10.000918 
3.5494247e+2, 1.5635058e+2, -1554669.1, -1420108.1, -5718.302, -0.015742736, 0.13305083, -1419865.5, -12092.648, 0.0000017221555, 9.998758, 10.0005865 
3.549552e+2, 1.6635053e+2, -1500192.0, -1477411.1, 9923.853, -0.0059906454, 0.14177938, -1473694.4, -163919.8, 0.000000007086625, 9.999049, 9.999374 
3.549681e+2, 1.7634922e+2, -1355419.5, -1336675.4, -15346.182, -0.023000224, 0.046312667, -1328065.8, -116279.266, 0.0, 9.99929, 9.99955 
3.5498062e+2, 1.8634911e+2, -1173579.8, -1121298.9, -41810.984, -0.008985364, 0.04163928, -1098129.3, 15655.952, 0.0, 9.999529, 10.000243 
3.5499328e+2, 1.9634953e+2, -1039318.06, -1019588.56, 2565.4705, 0.053026482, 0.036171146, -1019260.44, -3483.2178, 0.0, 9.999834, 10.000123 
3.5500386e+2, 2.0634922e+2, -1046140.1, -1074976.4, -49655.36, 0.010174801, 0.048505016, -1008852.0, -91072.84, 0.0, 9.999557, 9.999206 
3.5501316e+2, 2.1634829e+2, -1029406.3, -1009762.75, -41643.18, -0.1100715, 0.008344051, -976798.75, -157010.02, 0.0, 9.998965, 9.999266 
3.550251e+2, 2.2634786e+2, -847801.44, -843301.56, 13279.128, -0.05946324, 0.028485615, -832083.1, -110289.46, 0.0, 9.999433, 9.999503 
3.5503873e+2, 2.3634757e+2, -600290.25, -683891.2, 36909.066, 0.0935121, 0.02322042, -586327.3, 37470.145, 0.0, 10.000501, 9.999414 
3.5504985e+2, 2.4634719e+2, -457203.53, -641218.56, -1038.8604, 0.06521384, 0.086460955, -457197.7, 68603.2, 0.0, 10.001154, 9.998715 
3.5505953e+2, 2.5634655e+2, -311324.7, -533340.6, 14669.582, -0.068650045, 0.12703323, -310359.63, 117446.37, 0.0, 10.00153, 9.998607 
3.5507202e+2, 2.663447e+2, -235070.58, -535812.5, 59135.457, -0.03129362, 0.13060483, -223860.5, 105963.94, 0.0, 10.001775, 9.997793 
3.5508612e+2, 2.7634186e+2, -125826.64, -428124.94, 61046.965, 0.10612733, 0.04056597, -113964.14, 117889.31, 0.0, 10.001828, 9.997837 
3.5509795e+2, 2.863394e+2, 31118.703, -277912.63, 32326.115, 0.05090219, 0.0051422864, 34463.953, 168339.55, 0.00000011654808, 10.002146, 9.998039 
3.5510844e+2, 2.963373e+2, 183281.08, -163509.39, 60091.12, -0.12011663, -0.039604306, 193398.38, 229290.86, 0.0000016052002, 10.00254, 9.99797 
3.551207e+2, 3.0633473e+2, 201866.23, -176451.3, 10896.01, -0.109197356, -0.06056986, 202179.78, 202179.78, 0.000008325357, 10.002524, 9.99757 
3.5513252e+2, 3.16332e+2, 157316.6, -129472.45, -52218.715, -0.09504747, -0.12615293, 166528.7, 166528.7, 0.000028551576, 10.001876, 9.998195 
3.649026e+2, 1.2633221e+2, -2022592.6, -1648067.8, -93413.586, -0.0019644808, -0.042758353, -1626061.6, 75890.516, 0.000118926524, 9.996888, 10.001947 
3.6491606e+2, 1.3633448e+2, -1896184.8, -1583898.5, 40759.688, 0.038664907, 0.0055932226, -1578666.3, 25260.803, 0.000056465244, 9.997335, 10.001498 
3.6492833e+2, 1.4633588e+2, -1752753.3, -1530372.0, 40814.51, -0.020761628, 0.03143766, -1523117.9, -17203.848, 0.00001794202, 9.997928, 10.000896 
3.6494085e+2, 1.5633795e+2, -1585782.1, -1433014.5, -7930.555, -0.03504758, 0.1296105, -1432603.9, -24706.918, 0.000002788093, 9.998546, 10.000599 
3.6495417e+2, 1.6633798e+2, -1525511.6, -1479705.4, 34907.934, 0.0018430483, 0.14461325, -1460857.9, -150959.75, 0.00000008230677, 9.99884, 9.999458 
3.649674e+2, 1.7633663e+2, -1406048.8, -1349548.4, 52303.914, 0.0056701526, 0.03484517, -1318353.0, -106441.305, 0.0, 9.998896, 9.999653 
3.6498e+2, 1.8633686e+2, -1236110.3, -1125639.5, 27589.656, 0.010963913, 0.048607312, -1119132.4, -5225.139, 0.0, 9.998992, 10.000469 
3.6499256e+2, 1.963379e+2, -1134149.3, -1043872.3, -15621.635, 0.040378504, 0.08189686, -1041245.56, -25352.25, 0.0, 9.999093, 10.000314 
3.6500368e+2, 2.0633768e+2, -1014577.25, -1054876.1, -59749.098, 0.028249945, 0.09324247, -971671.5, -53777.297, 0.0, 9.999756, 9.999246 
3.6501387e+2, 2.1633652e+2, -772580.06, -881534.5, -48462.145, -0.019288067, 0.026725473, -754144.0, 65761.83, 0.0, 10.00072, 9.999297 
3.6502567e+2, 2.2633606e+2, -629838.8, -755952.6, 8602.038, -0.021577928, 0.050598163, -629254.8, 92656.56, 0.0, 10.000998, 9.999357 
3.650385e+2, 2.3633587e+2, -558201.2, -677044.3, -37817.957, 0.012315204, 0.07258289, -547187.5, 76727.13, 0.0, 10.000842, 9.999301 
3.6505044e+2, 2.4633549e+2, -432030.16, -630539.2, -66324.93, 0.0106840655, 0.14138827, -411909.4, 114008.81, 0.0, 10.001308, 9.998728 
3.6506185e+2, 2.5633487e+2, -222609.45, -484172.97, -64899.305, -0.008825393, 0.1797899, -207391.94, 220531.5, 0.0, 10.002104, 9.998672 
3.6507446e+2, 2.6633278e+2, -158138.2, -482147.47, -9940.387, 0.018702136, 0.14712596, -157833.53, 172109.56, 0.0, 10.002235, 9.997939 
3.6508772e+2, 2.7632955e+2, -91535.39, -397351.1, -6007.2983, 0.07924178, 0.008433945, -91417.43, 140556.33, 0.0, 10.002005, 9.997963 
3.650999e+2, 2.8632754e+2, 8348.85, -291918.34, -4785.535, 0.047215506, 0.009457807, 8425.101, 142417.27, 0.000000055764154, 10.001985, 9.998028 
3.651115e+2, 2.9632628e+2, 107923.16, -209252.23, -14955.437, -0.03256629, 0.049872678, 108626.77, 144629.28, 0.0000011855267, 10.002062, 9.997884 
3.6512426e+2, 3.0632317e+2, 269912.2, -199790.83, -15824.852, -0.03343502, 0.007292334, 270444.75, 270444.75, 0.0000067298934, 10.003261, 9.997044 
3.6513636e+2, 3.1631932e+2, 579494.8, 34367.496, -85364.445, -0.043605145, -0.11540122, 592549.8, 592549.8, 0.00002565761, 10.004971, 9.997832 
3.749008e+2, 1.263212e+2, -1902641.4, -1411851.9, -128247.85, 0.07444581, 0.24216475, -1380360.3, 321714.4, 0.0001191897, 9.996931, 10.003545 
3.749124e+2, 1.3632376e+2, -1779306.4, -1346800.3, 68220.35, -0.090208806, 0.117177956, -1336294.9, 267739.5, 0.00005856906, 9.997353, 10.003115 
3.749252e+2, 1.4632419e+2, -1832761.9, -1684279.5, 51553.516, -0.16030599, 0.031607185, -1668135.3, -162108.34, 0.000020069963, 9.997879, 9.999863 
3.7493804e+2, 1.5632471e+2, -1634360.3, -1539578.1, 24550.443, -0.19818589, 0.076629646, -1533596.6, -125570.59, 0.0000038584762, 9.998568, 9.999858 
3.7495244e+2, 1.6632509e+2, -1463402.6, -1342147.4, 27224.52, -0.07799375, 0.101894364, -1336315.4, -26292.012, 0.00000020238203, 9.998804, 10.000418 
3.7496725e+2, 1.7632526e+2, -1360123.5, -1249602.6, 66149.7, 0.07706169, 0.051102873, -1218668.5, -6647.6816, 0.0, 9.998871, 10.000352 
3.7497932e+2, 1.8632549e+2, -1296176.4, -1231513.3, 21750.03, 0.018664578, 0.07381572, -1224878.3, -110860.766, 0.0, 9.998914, 9.999778 
3.7499e+2, 1.9632557e+2, -1185972.3, -1129148.9, 3353.849, -0.14531909, 0.07926116, -1128951.6, -112936.24, 0.0, 9.999004, 9.999767 
3.7500265e+2, 2.0632516e+2, -1005768.9, -1016394.8, -32804.098, -0.06618838, 0.07747573, -977850.3, -59832.504, 0.0, 9.999664, 9.999557 
3.7501636e+2, 2.1632428e+2, -778270.94, -864960.2, -8730.18, 0.14073281, 0.009302157, -777400.5, 42624.137, 0.0, 10.0006, 9.999468 
3.750275e+2, 2.2632365e+2, -703039.8, -886671.94, -9981.196, 0.043857876, 0.057311893, -702498.9, 19533.723, 0.0, 10.000896, 9.998512 
3.7503704e+2, 2.3632303e+2, -620593.4, -786357.44, -30025.576, -0.23723492, 0.11621885, -615322.3, 8720.447, 0.0, 10.000747, 9.998599 
3.750497e+2, 2.463217e+2, -433107.78, -613762.1, -43954.02, -0.21312907, 0.10969304, -422981.22, 103074.51, 0.0, 10.001229, 9.998879 
3.7506407e+2, 2.5631967e+2, -227033.19, -469360.1, -28703.822, -0.018977815, -0.0010176204, -223679.6, 204392.98, 0.0, 10.001997, 9.998826 
3.7507713e+2, 2.663182e+2, -138929.97, -427915.34, -27340.928, 0.039303586, -0.0018418931, -136365.98, 193719.48, 0.0, 10.002177, 9.998337 
3.7508932e+2, 2.7631682e+2, -77440.41, -353360.5, -2087.476, 0.014517752, 0.0023696139, -77424.62, 154673.2, 0.0, 10.00194, 9.998297 
3.7510133e+2, 2.8631547e+2, -7833.8457, -321913.3, -10792.815, -0.034078404, 0.06536271, -7463.406, 126648.164, 0.00000003400916, 10.001965, 9.997834 
3.751132e+2, 2.9631403e+2, 85642.46, -244482.17, 7374.9004, -0.09788643, 0.11115873, 85807.13, 121933.96, 0.000000899484, 10.002004, 9.997676 
3.7512755e+2, 3.0631122e+2, 252169.7, -225047.83, 44772.098, -0.04786192, 0.11586821, 256333.84, 256333.84, 0.000005766145, 10.003215, 9.996894 
3.7514216e+2, 3.163086e+2, 547891.25, -15172.078, 933.1387, -0.010242305, 0.1392171, 547892.8, 547892.8, 0.000023929499, 10.004895, 9.997532 
3.8489687e+2, 1.2630923e+2, -2224794.8, -1594055.0, 48885.6, 0.1027712, 0.3213689, -1590288.6, 111905.54, 0.00012316402, 9.994858, 10.003287 
3.8490957e+2, 1.363115e+2, -1700243.8, -1316116.5, 43689.9, -0.12889807, 0.17204832, -1311210.0, 292946.5, 0.000061385945, 9.997916, 10.003064 
3.849239e+2, 1.4631155e+2, -1749838.3, -1650736.1, -24576.451, -0.09470549, 0.055531338, -1644976.1, -138824.31, 0.000022093489, 9.998476, 9.999804 
3.8493648e+2, 1.5631162e+2, -1790820.0, -1615667.4, -10462.944, -0.14944436, 0.059498843, -1615044.6, -206890.61, 0.000004863891, 9.997512, 9.999838 
3.849507e+2, 1.6631217e+2, -1656631.0, -1425813.3, 12093.407, -0.058376465, 0.09701452, -1425181.4, -115031.945, 0.00000029520132, 9.997415, 10.0005245 
3.8496545e+2, 1.7631294e+2, -1506609.8, -1309294.0, -26693.434, 0.07085271, 0.09361256, -1305746.6, -93604.81, 0.0, 9.997803, 10.000461 
3.8497803e+2, 1.8631311e+2, -1339141.3, -1250706.8, -28746.377, 0.019082299, 0.10387206, -1242183.9, -128044.94, 0.0, 9.998601, 9.9998045 
3.849895e+2, 1.9631262e+2, -1096098.9, -1089339.3, -16373.437, -0.11661309, 0.04981701, -1076000.5, -59858.81, 0.0, 9.999613, 9.999758 
3.850026e+2, 2.0631206e+2, -978429.6, -1013673.94, -33622.953, -0.040931482, 0.039025333, -958090.7, -39945.4, 0.0, 9.999905, 9.999458 
3.8501653e+2, 2.163113e+2, -908320.7, -947528.5, -58738.85, 0.14658642, -0.0047208797, -866000.7, -45849.773, 0.0, 9.999781, 9.999305 
3.850281e+2, 2.263105e+2, -835067.2, -985110.06, -31311.465, 0.06128319, 0.052259058, -828795.2, -106633.93, 0.0, 10.000157, 9.99818 
3.850383e+2, 2.3630956e+2, -624710.2, -818180.5, -39310.53, -0.18765055, 0.110789485, -617027.9, 7147.6826, 0.0, 10.000862, 9.998316 
3.8505095e+2, 2.4630801e+2, -514962.25, -639164.25, -32422.754, -0.17296061, 0.088787034, -507007.78, 19182.795, 0.0, 10.000619, 9.998986 
3.8506505e+2, 2.563059e+2, -530307.56, -607374.0, -35613.34, -0.008161583, -0.04437358, -516370.63, -88162.72, 0.0, 9.999877, 9.998895 
3.8507834e+2, 2.663046e+2, -332516.3, -517857.47, -3715.7036, 0.018426025, -0.027667316, -332441.84, -2222.9988, 0.0, 10.000824, 9.998379 
3.850912e+2, 2.7630374e+2, 42630.973, -294010.03, -30470.95, -0.025930054, 0.020129845, 45366.81, 277593.88, 0.0, 10.002764, 9.998307 
3.8510382e+2, 2.8630212e+2, 127740.47, -308095.7, -76673.41, -0.030380828, 0.08371597, 140835.6, 275079.63, 0.000000026095549, 10.003123, 9.997371 
3.8511628e+2, 2.963e+2, 132590.83, -261353.55, -87162.44, -0.0076641547, 0.10486876, 151014.4, 187281.42, 0.00000066980994, 10.002507, 9.997314 
3.8513136e+2, 3.062974e+2, 237130.64, -200411.19, 42944.168, 0.033019908, 0.13128096, 241305.72, 241305.72, 0.000005131084, 10.00296, 9.997181 
3.851465e+2, 3.1629515e+2, 409954.97, -60004.348, -11691.848, -0.00012940669, 0.1540498, 410245.66, 410245.66, 0.000023469871, 10.003859, 9.997711 
3.9489016e+2, 1.2629642e+2, -2407350.0, -1943292.4, 148838.14, -0.106542595, 0.18905772, -1899658.1, -197349.08, 0.0001272644, 9.994765, 10.000929 
3.949073e+2, 1.3629766e+2, -1833456.3, -1580495.0, 150684.45, -0.17325506, 0.1586226, -1510244.4, 94049.1, 0.00006380605, 9.997891, 10.001253 
3.9492434e+2, 1.4629802e+2, -1697168.3, -1539370.3, -74391.836, 0.06886614, 0.10800947, -1509829.4, -3541.1848, 0.000023677207, 9.998449, 10.000587 
3.949358e+2, 1.5629861e+2, -1743837.4, -1524037.6, -31529.88, 0.0012920708, 0.08331222, -1519604.1, -111322.74, 0.000005569423, 9.997527, 10.000463 
3.949485e+2, 1.6629913e+2, -1711278.9, -1523634.8, 12356.455, -0.03914299, 0.12679408, -1522824.5, -212547.13, 0.00000035120044, 9.997356, 9.999881 
3.9496177e+2, 1.7629962e+2, -1546162.4, -1377713.5, 479.86118, -0.10264732, 0.1606808, -1377712.1, -165437.08, 0.0, 9.997749, 10.000018 
3.9497593e+2, 1.8629965e+2, -1300603.0, -1150446.8, -138.70491, -0.07292716, 0.13584262, -1150446.5, -36174.57, 0.0, 9.99851, 10.000538 
3.949908e+2, 1.9629918e+2, -1068812.3, -1007913.2, 25830.955, 0.030402686, 0.011135486, -998432.6, 17838.1, 0.0, 9.999512, 10.000363 
3.9500326e+2, 2.062985e+2, -1028161.4, -1090476.9, -49350.543, 0.014284113, -0.010673943, -1000955.8, -82680.484, 0.0, 9.99979, 9.998987 
3.9501408e+2, 2.1629763e+2, -957465.06, -1012217.75, -47262.566, -0.09541735, -0.021722576, -930222.56, -109938.16, 0.0, 9.999627, 9.99893 
3.950273e+2, 2.2629665e+2, -842109.25, -975532.3, -12940.196, -0.056216083, 0.026778284, -840865.8, -118568.875, 0.0, 10.000049, 9.9983015 
3.950419e+2, 2.3629542e+2, -636013.0, -811200.94, -8364.821, 0.068105616, 0.04816293, -635614.5, -11300.884, 0.0, 10.000733, 9.998426 
3.9505395e+2, 2.4629441e+2, -517868.13, -632593.44, -71167.42, 0.040465724, 0.072541654, -483823.56, 42499.938, 0.0, 10.000562, 9.9990635 
3.9506447e+2, 2.5629336e+2, -536149.3, -606201.2, -41303.242, -0.07835245, 0.04005039, -517020.2, -88689.305, 0.0, 9.999813, 9.9989395 
3.9507788e+2, 2.6629207e+2, -358717.16, -562432.5, 61337.125, -0.1295169, 0.064202346, -341674.75, -11331.108, 0.0, 10.000779, 9.998096 
3.9509302e+2, 2.762903e+2, 6520.021, -351772.16, 41423.79, -0.14160632, 0.056643564, 11246.8545, 243608.78, 0.0, 10.00268, 9.997956 
3.9510706e+2, 2.8628755e+2, 70959.055, -407529.84, -109306.8, -0.04102218, 0.061126694, 94746.695, 229136.25, 0.000000010243951, 10.003058, 9.996714 
3.9512032e+2, 2.962842e+2, 86576.95, -336122.53, -87109.14, 0.121434525, 0.030975668, 103824.484, 140247.23, 0.0000005130985, 10.002427, 9.996839 
3.9513534e+2, 3.0628183e+2, 290904.78, -87895.914, 74933.83, 0.111568674, 0.053214233, 305189.4, 305189.4, 0.0000059963604, 10.002953, 9.997958 
3.9514887e+2, 3.1627896e+2, 441027.7, 26093.81, 40535.96, -0.19538644, -0.0576068, 444950.66, 444950.66, 0.000027743677, 10.003765, 9.998349 
4.048874e+2, 1.2628251e+2, -1804733.9, -1775589.8, 74960.92, -0.069946475, 0.1227301, -1713797.6, -11360.598, 0.0001282802, 9.999387, 9.999867 
4.049046e+2, 1.3628258e+2, -2097577.5, -1806280.5, 95326.39, -0.14699012, 0.07676032, -1777858.4, -173418.72, 0.00006493345, 9.996488, 10.00039 
4.0492275e+2, 1.462834e+2, -1967464.5, -1601911.4, -64846.832, 0.1811414, 0.07847326, -1590748.9, -84317.945, 0.00002457309, 9.996311, 10.001185 
4.0493384e+2, 1.562848e+2, -1643310.9, -1423566.5, -62559.902, 0.03783131, 0.072901376, -1407004.4, 1410.0576, 0.000005781208, 9.997984, 10.000934 
4.0494657e+2, 1.6628516e+2, -1528965.1, -1464851.8, 14750.924, -0.030791026, 0.09595277, -1461620.8, -151209.4, 0.0000003430959, 9.998741, 9.99961 
4.0496013e+2, 1.7628498e+2, -1395796.3, -1333103.5, 4935.752, -0.09270182, 0.09156874, -1332717.3, -120301.74, 0.0, 9.998906, 9.999763 
4.0497485e+2, 1.862851e+2, -1244511.9, -1130163.3, 949.48114, -0.04111541, 0.0874674, -1130155.4, -15742.582, 0.0, 9.998936, 10.000466 
4.0499055e+2, 1.9628505e+2, -1178213.5, -1069917.5, -48811.133, 0.09412663, 0.01552405, -1051164.6, -34755.777, 0.0, 9.998811, 10.000273 
4.0500313e+2, 2.0628442e+2, -1067633.9, -1125138.5, -110573.125, 0.039942402, 0.011274967, -982135.94, -63721.477, 0.0, 9.999583, 9.998847 
4.0501383e+2, 2.162833e+2, -782760.44, -940282.25, -108977.21, -0.1396813, -0.009245288, -727062.0, 93365.2, 0.0, 10.000867, 9.998829 
4.050276e+2, 2.2628257e+2, -668830.7, -849061.44, -48775.535, -0.077471405, 0.04473436, -656477.4, 65960.07, 0.0, 10.001057, 9.998683 
4.0504313e+2, 2.3628184e+2, -632594.6, -777893.94, -42992.105, 0.12866214, 0.08140162, -620826.94, 3620.891, 0.0, 10.000611, 9.998717 
4.050553e+2, 2.4628095e+2, -459244.7, -622143.56, -87656.12, 0.10485859, 0.11503287, -421037.9, 105418.49, 0.0, 10.0010395, 9.998907 
4.050656e+2, 2.5627995e+2, -224778.52, -466821.9, -90037.58, -0.054396376, 0.09532369, -194959.17, 233505.22, 0.0, 10.00202, 9.998826 
4.0507945e+2, 2.6627848e+2, -189959.3, -510883.44, 47790.426, -0.107122615, 0.12625408, -182993.78, 147485.45, 0.0, 10.002064, 9.997827 
4.0509555e+2, 2.7627647e+2, -173367.89, -461730.25, 12890.0, -0.09273757, 0.11841837, -172792.84, 59708.28, 0.0, 10.001541, 9.997744 
4.0511015e+2, 2.8627345e+2, 18411.668, -406815.97, -73137.47, -0.003869713, 0.089966595, 30639.404, 165169.52, 0.0000000008315615, 10.002571, 9.996955 
4.0512398e+2, 2.962698e+2, 413214.25, -153220.83, -11508.848, 0.14715037, -0.0015402087, 413447.97, 450011.47, 0.0000007104038, 10.004553, 9.997066 
4.0513948e+2, 3.0626762e+2, 450915.2, -36833.656, 112712.55, 0.17679673, 0.041666176, 475702.0, 475702.0, 0.000009515816, 10.004172, 9.997726 
4.0515214e+2, 3.1626436e+2, 225158.33, -64349.797, -14225.55, -0.15571368, -0.080687724, 225855.66, 225855.66, 0.0000394484, 10.00221, 9.9984865 
4.1488823e+2, 1.2626727e+2, -1762828.1, -1711676.0, -23490.709, 0.009471542, 0.11675996, -1702525.4, 55.43687, 0.0001259659, 9.999475, 10.000262 
4.1490114e+2, 1.3626634e+2, -2069134.3, -1761487.3, 7624.4863, -0.17021544, -0.06296035, -1761298.5, -156704.7, 0.00006410072, 9.996532, 10.000675 
4.1491875e+2, 1.4626777e+2, -1947305.4, -1547228.6, -10991.106, 0.122365676, -0.03551551, -1546926.9, -40347.445, 0.00002430965, 9.996268, 10.001579 
4.149303e+2, 1.5627022e+2, -1621397.3, -1366935.3, 7738.3574, -0.13602123, 0.026706288, -1366700.1, 41852.156, 0.0000053776803, 9.997948, 10.001336 
4.1494456e+2, 1.6627033e+2, -1536838.4, -1467195.3, 10342.697, -0.13206546, 0.003938581, -1465691.6, -155141.36, 0.0000002359893, 9.998678, 9.999623 
4.1496018e+2, 1.762691e+2, -1405336.8, -1347852.5, 21191.293, -0.0035442223, -0.1072375, -1340885.0, -128322.69, 0.0, 9.998882, 9.999672 
4.1497454e+2, 1.8626936e+2, -1314479.1, -1259730.5, -14220.218, 0.010217083, -0.041993562, -1256257.3, -141695.67, 0.0, 9.998871, 9.999606 
4.149883e+2, 1.9627026e+2, -1240264.5, -1179227.5, -38526.426, -0.032396697, 0.06268949, -1160596.5, -144040.77, 0.0, 9.9987335, 9.999555 
4.1500193e+2, 2.0626983e+2, -1074016.1, -1115858.6, -71430.21, -0.05815263, 0.103100516, -1020506.4, -101943.73, 0.0, 9.999478, 9.998966 
4.150154e+2, 2.1626845e+2, -788881.4, -918522.06, -60719.695, -0.08606191, 0.042023834, -764884.1, 55694.63, 0.0, 10.00072, 9.999048 
4.1502863e+2, 2.2626834e+2, -643358.06, -768630.75, -76191.945, -0.09697891, 0.11636136, -607361.1, 115220.63, 0.0, 10.000935, 9.999297 
4.150416e+2, 2.3626886e+2, -612339.8, -712415.06, -43213.152, -0.10335065, 0.21392955, -596262.8, 28315.377, 0.0, 10.000508, 9.999218 
4.1505468e+2, 2.4626777e+2, -490756.9, -674265.75, -59083.55, -0.08590755, 0.22116767, -473379.56, 53209.082, 0.0, 10.00098, 9.998575 
4.1506788e+2, 2.562655e+2, -258024.05, -518241.8, -50380.22, -0.049389068, 0.11061622, -248610.58, 179998.75, 0.0, 10.001939, 9.998511 
4.150827e+2, 2.6626384e+2, -209151.55, -541146.8, 19823.652, -0.011499373, 0.14669815, -207972.05, 122654.664, 0.0, 10.002028, 9.997634 
4.150984e+2, 2.762624e+2, -187348.97, -472634.66, 15554.6, 0.010746154, 0.21268053, -186503.39, 46140.582, 0.0, 10.001468, 9.997704 
4.1511285e+2, 2.862599e+2, 99940.43, -241570.0, -8544.842, -0.01715625, 0.17356165, 100154.09, 234819.53, 0.00000000001177225, 10.002574, 9.998095 
4.1512683e+2, 2.9625666e+2, 459939.25, -37943.14, 53659.26, -0.0556755, 0.010599392, 465656.72, 502347.03, 0.0000013022876, 10.004461, 9.997909 
4.151433e+2, 3.0625463e+2, 368332.34, -199879.02, 32904.58, 0.12010017, 0.099543735, 370231.47, 370231.47, 0.000014575742, 10.004141, 9.996618 
4.1515565e+2, 3.1625146e+2, 194501.1, -113024.266, -32463.814, -0.07658322, 0.08386181, 197890.77, 197890.77, 0.000055427667, 10.002147, 9.998181 
4.248869e+2, 1.2625064e+2, -2055824.6, -1816623.0, -1398.5219, 0.04685797, -0.015246051, -1816614.8, -113875.63, 0.000120138786, 9.997298, 10.000587 
4.2489848e+2, 1.36251e+2, -1938056.1, -1695649.9, -69144.37, -0.12426592, -0.084246404, -1677314.0, -72573.15, 0.00006079175, 9.997404, 10.000707 
4.2491624e+2, 1.4625277e+2, -1798147.3, -1506422.0, -20642.37, 0.1916442, -0.006554037, -1504968.6, 1755.8452, 0.00002257458, 9.99742, 10.001304 
4.2492786e+2, 1.5625457e+2, -1708283.0, -1430246.0, -85609.586, -0.14415929, 0.01604238, -1406000.5, 2704.6545, 0.0000044461326, 9.997446, 10.001144 
4.2494276e+2, 1.6625464e+2, -1637168.0, -1486186.3, -83525.1, -0.13170552, -0.0148011865, -1449092.5, -138389.17, 0.00000009724189, 9.997866, 9.999883 
4.2495954e+2, 1.7625369e+2, -1450779.8, -1348929.5, -75230.38, 0.06986713, -0.12537633, -1309008.8, -96296.9, 0.0, 9.998479, 9.999862 
4.2497405e+2, 1.8625396e+2, -1358579.0, -1312248.1, -74860.34, 0.08896949, -0.051141772, -1257051.0, -142338.88, 0.0, 9.998697, 9.999334 
4.249873e+2, 1.9625472e+2, -1267344.9, -1215855.8, -69638.266, 0.0033737416, 0.06745089, -1167355.6, -150645.63, 0.0, 9.998636, 9.999357 
4.250014e+2, 2.0625475e+2, -1120069.9, -1079437.5, -17207.42, -0.025176676, 0.1311533, -1073129.6, -154416.97, 0.0, 9.998913, 9.999485 
4.2501596e+2, 2.1625416e+2, -959542.8, -952655.5, -1846.2465, -0.027195457, 0.10201417, -952191.8, -131472.19, 0.0, 9.999344, 9.999477 
4.250293e+2, 2.262539e+2, -819841.1, -853252.5, -48135.438, -0.054828126, 0.14121318, -785594.9, -62871.22, 0.0, 9.999732, 9.999289 
4.250418e+2, 2.362537e+2, -675022.06, -741229.56, -80244.96, -0.104681425, 0.16866733, -621320.75, 3406.117, 0.0, 10.000085, 9.999219 
4.2505538e+2, 2.4625266e+2, -509090.6, -681458.9, -46790.26, -0.10196516, 0.1827601, -497208.25, 29528.648, 0.0, 10.000852, 9.9985895 
4.2506963e+2, 2.562509e+2, -261616.67, -518893.38, -39286.875, -0.057204474, 0.12273399, -255751.17, 173002.03, 0.0, 10.0019045, 9.998528 
4.2508486e+2, 2.662493e+2, -197062.06, -525685.3, 21863.316, 0.007250316, 0.16054237, -195613.88, 135155.66, 0.0, 10.00207, 9.997727 
4.251006e+2, 2.7624768e+2, -148886.44, -441849.78, 28707.01, 0.08224857, 0.20135146, -146099.98, 86687.4, 0.0, 10.001682, 9.997815 
4.251155e+2, 2.862453e+2, -3007.5984, -280718.53, 41240.28, 0.03618517, 0.16485068, 2987.2075, 137794.81, 0.0000000012455732, 10.001844, 9.998167 
4.251302e+2, 2.9624224e+2, 158417.98, -176074.33, -6436.979, -0.049092818, 0.017261285, 158541.81, 195373.13, 0.0000019825331, 10.002368, 9.997966 
4.251473e+2, 3.0624e+2, 169747.42, -298793.72, -48850.56, 0.18648517, 0.0823029, 174786.44, 174786.44, 0.000019679212, 10.002789, 9.996587 
4.2515954e+2, 3.1623772e+2, 373152.66, 12649.307, -39990.016, 0.05790831, 0.15449898, 377535.4, 377535.4, 0.00007104561, 10.003208, 9.998523 
4.3488273e+2, 1.2623265e+2, -2060985.3, -1793103.9, 51098.92, -0.15095766, -0.28819638, -1783687.6, -80775.83, 0.000112459136, 9.9971895, 10.000792 
4.3489644e+2, 1.3623668e+2, -1953381.8, -1719650.8, -54182.105, -0.09578483, 0.01406949, -1707701.5, -102821.984, 0.000055857796, 9.997395, 10.000541 
4.3491483e+2, 1.4623842e+2, -1875229.4, -1664088.8, -28261.473, 0.28193942, 0.15960184, -1660371.4, -153505.2, 0.000019900395, 9.997398, 10.00024 
4.3492603e+2, 1.5623781e+2, -1759552.5, -1548885.1, -69774.97, -0.100947864, 0.041768923, -1527871.1, -118997.695, 0.0000034951138, 9.99748, 10.000321 
4.349408e+2, 1.6623804e+2, -1609858.4, -1410962.5, -70540.14, -0.13723354, 0.030869862, -1388485.0, -77613.445, 0.000000032016867, 9.997797, 10.000428 
4.349578e+2, 1.7623878e+2, -1423456.6, -1277516.6, -44649.12, 0.026845329, 0.038027305, -1264940.4, -52076.547, 0.0, 9.998423, 10.000376 
4.34973e+2, 1.8623891e+2, -1351239.9, -1275904.8, -86258.73, 0.09258858, 0.059140395, -1219447.9, -104583.875, 0.0, 9.998607, 9.999629 
4.3498713e+2, 1.9623846e+2, -1252160.0, -1165873.1, -58339.227, 0.103168264, 0.026991257, -1136457.5, -119586.305, 0.0, 9.998558, 9.999739 
4.350012e+2, 2.0623921e+2, -1075786.4, -960155.6, -10247.047, 0.04490092, 0.09640431, -959254.56, -40390.645, 0.0, 9.998797, 10.000359 
4.350151e+2, 2.1624053e+2, -928437.75, -862107.1, 23570.93, -0.06603937, 0.16848238, -854584.25, -33734.957, 0.0, 9.999232, 10.000152 
4.350292e+2, 2.2623934e+2, -887944.2, -965443.3, -44811.25, -0.05474093, 0.12711735, -867452.06, -144590.16, 0.0, 9.999604, 9.998582 
4.350434e+2, 2.362364e+2, -729850.0, -831197.5, -54910.16, 0.025174815, -0.05082724, -705804.56, -80911.17, 0.0, 9.999978, 9.998653 
4.3505713e+2, 2.4623567e+2, -499056.53, -644585.4, -16609.848, -0.031106248, 0.0041598557, -497184.84, 29716.28, 0.0, 10.000784, 9.998874 
4.3507057e+2, 2.562362e+2, -254884.52, -482929.0, 3341.9343, -0.17619693, 0.14327936, -254835.55, 174059.81, 0.0, 10.001812, 9.998817 
4.3508565e+2, 2.6623496e+2, -171983.33, -468715.06, -1884.273, -0.13864894, 0.17899527, -171971.36, 158935.42, 0.0, 10.002046, 9.998132 
4.3510175e+2, 2.7623236e+2, -139337.33, -411933.56, 28913.738, 0.0048419433, 0.08391629, -136304.27, 96626.9, 0.0, 10.00163, 9.998049 
4.3511766e+2, 2.8622967e+2, -79046.6, -426651.44, 52674.836, 0.045957487, 0.061630994, -71239.77, 63716.887, 0.000000012355592, 10.001805, 9.997175 
4.3513384e+2, 2.962267e+2, 91875.59, -296755.7, 26347.96, 0.05240078, 0.019825714, 93653.766, 130638.734, 0.0000027662056, 10.002303, 9.997164 
4.3515122e+2, 3.062238e+2, 242778.3, -159724.5, -43073.06, 0.27200192, 0.0013502426, 247336.06, 247336.06, 0.000024180765, 10.002823, 9.997532 
4.35163e+2, 3.1622294e+2, 420999.03, 122875.664, 59178.805, 0.028038692, 0.12002194, 432316.63, 432316.63, 0.00008333817, 10.00315, 9.999314 
4.4488043e+2, 1.262168e+2, -2000027.5, -1745097.3, 85106.35, -0.10098624, -0.24572487, -1719296.4, -16228.514, 0.00010599228, 9.997532, 10.000962 
4.4489402e+2, 1.362205e+2, -1829441.4, -1660063.5, -136416.81, -0.1097418, 0.02796139, -1584185.5, 20851.762, 0.00005101591, 9.998269, 10.000529 
4.449123e+2, 1.4622189e+2, -1733620.3, -1605152.3, -45080.465, 0.2511328, 0.14450693, -1590911.6, -83884.61, 0.000017295639, 9.9984045, 10.000157 
4.4492435e+2, 1.5622124e+2, -1660487.9, -1504768.1, -37529.535, -0.04481141, 0.024939628, -1496195.1, -87159.836, 0.0000027656245, 9.99818, 10.000281 
4.4493923e+2, 1.6622178e+2, -1559698.6, -1395753.0, 1107.4084, -0.080714315, 0.04969162, -1395745.5, -84713.66, 0.000000035556127, 9.9981575, 10.000372 
4.4495595e+2, 1.7622302e+2, -1455694.3, -1293032.4, -35743.742, 0.016293393, 0.109848194, -1285524.5, -72502.766, 0.0, 9.9981985, 10.0003805 
4.4497144e+2, 1.8622327e+2, -1305396.8, -1211407.0, -69237.414, 0.07879925, 0.12142486, -1174721.9, -59701.73, 0.0, 9.998745, 9.999996 
4.449864e+2, 1.9622265e+2, -1088644.4, -1049938.6, -60313.984, 0.13445474, 0.03540387, -1005948.7, 11077.746, 0.0, 9.999525, 10.000061 
4.4500065e+2, 2.0622326e+2, -965684.7, -899884.0, -43048.227, 0.078311674, 0.07632097, -878603.4, 40416.03, 0.0, 9.999545, 10.000401 
4.450143e+2, 2.1622449e+2, -953032.6, -868943.06, -88507.46, -0.053838275, 0.13804585, -813001.44, 8004.2637, 0.0, 9.999059, 10.00018 
4.4502896e+2, 2.2622348e+2, -895612.44, -971231.44, -104079.57, -0.032895498, 0.11235648, -822687.5, -99670.516, 0.0, 9.999546, 9.998571 
4.450442e+2, 2.3622085e+2, -641051.2, -791932.56, -82963.94, 0.083366536, -0.031863008, -604356.6, 20689.156, 0.0, 10.000591, 9.99863 
4.4505864e+2, 2.4622013e+2, -470407.47, -626169.2, -25959.842, 0.040241037, 0.018455386, -466194.84, 60858.563, 0.0, 10.000957, 9.998913 
4.4507256e+2, 2.562204e+2, -385021.56, -541535.0, -44137.78, -0.105027765, 0.12735572, -373432.56, 55616.89, 0.0, 10.000897, 9.998853 
4.4508764e+2, 2.66219e+2, -252853.58, -494148.84, -59218.895, -0.10753061, 0.13886304, -239103.56, 91957.97, 0.0, 10.001435, 9.998245 
4.4510344e+2, 2.7621636e+2, -21373.996, -340596.25, -70964.484, -0.02081789, 0.028872894, -6309.221, 226776.23, 0.0, 10.002384, 9.998172 
4.4511983e+2, 2.8621408e+2, 56894.098, -341235.38, 12207.563, 0.04827364, 0.032795005, 57268.06, 192375.28, 0.00000003062236, 10.002636, 9.99737 
4.451371e+2, 2.9621175e+2, 117394.9, -251112.64, 49784.516, 0.15429077, 0.032802418, 124002.2, 161132.4, 0.0000032986038, 10.002336, 9.9974575 
4.4515428e+2, 3.0620873e+2, 219448.0, -134954.66, 26005.422, 0.32120427, -0.031362705, 221346.06, 221346.06, 0.000027227657, 10.00252, 9.997842 
4.4516605e+2, 3.1620803e+2, 419203.06, 111300.93, 96149.37, 0.026302231, 0.08092315, 446761.3, 446761.3, 0.000091368296, 10.003194, 9.999208 
4.5487943e+2, 1.2620306e+2, -1988930.1, -1721158.6, 153485.06, -0.0106803365, 0.11316801, -1651370.5, 51837.477, 0.00010140695, 9.997534, 10.0011215 
4.548907e+2, 1.362023e+2, -1814028.4, -1641710.4, -106227.625, -0.29596382, -0.05896487, -1591093.4, 14122.436, 0.00004730018, 9.998317, 10.000635 
4.5490828e+2, 1.4620294e+2, -1668665.0, -1461344.4, -59876.37, -0.025309082, -0.07792427, -1445294.1, 61915.617, 0.000015080613, 9.998376, 10.001154 
4.549225e+2, 1.5620485e+2, -1608503.9, -1393256.6, -31546.504, -0.07777453, -0.03505528, -1388728.5, 20462.434, 0.0000021144335, 9.99817, 10.00105 
4.5493782e+2, 1.6620591e+2, -1606266.0, -1485395.0, -9049.865, -0.06592015, 0.041956544, -1484721.1, -173536.8, 0.00000004449902, 9.998122, 9.999774 
4.549536e+2, 1.7620635e+2, -1486811.4, -1363192.6, -19879.523, -0.060891632, 0.08089677, -1360074.4, -146888.13, 0.0, 9.998213, 9.999895 
4.5496914e+2, 1.8620694e+2, -1287867.6, -1156380.6, -48243.215, -0.048490353, 0.1251022, -1140579.0, -25397.652, 0.0, 9.998672, 10.000405 
4.5498475e+2, 1.9620731e+2, -1085365.0, -1019049.2, -27470.314, -0.008331223, 0.09977391, -1009148.25, 8026.897, 0.0, 9.999428, 10.000315 
4.549993e+2, 2.0620699e+2, -1039015.75, -1025716.4, -73064.195, -0.027452387, 0.079450935, -958999.9, -39821.402, 0.0, 9.999427, 9.999597 
4.550132e+2, 2.162061e+2, -1014042.44, -962576.3, -88830.77, -0.094303906, 0.0071006995, -895826.44, -74637.8, 0.0, 9.998918, 9.999604 
4.550282e+2, 2.2620635e+2, -866298.44, -883252.44, -71880.72, -0.080639884, 0.09487777, -802396.6, -79207.97, 0.0, 9.999426, 9.99924 
4.5504394e+2, 2.362071e+2, -614266.8, -714036.9, -36848.387, -0.022593297, 0.22114284, -602133.2, 23050.945, 0.0, 10.000491, 9.999215 
4.550596e+2, 2.4620599e+2, -498114.56, -659538.1, -37822.973, 0.019281337, 0.2194735, -489691.78, 37502.29, 0.0, 10.000861, 9.998731 
4.5507526e+2, 2.5620347e+2, -410534.34, -571534.25, -31955.225, 0.053759888, 0.071114205, -404423.8, 24791.56, 0.0, 10.0008, 9.998697 
4.550905e+2, 2.662014e+2, -278806.78, -533466.3, -30659.08, 0.012571258, 0.037049465, -275167.66, 56066.043, 0.0, 10.001375, 9.998002 
4.551053e+2, 2.7619958e+2, -40594.563, -358472.5, -26887.094, -0.09357433, 0.026995702, -38336.41, 194914.38, 0.0, 10.00229, 9.998092 
4.5512176e+2, 2.861985e+2, 148425.77, -140673.47, -8424.393, -0.04806441, 0.07674739, 148671.05, 283930.2, 0.000000022691747, 10.002587, 9.998773 
4.5513964e+2, 2.9619744e+2, 201834.9, -67128.38, 51317.637, 0.14430432, 0.065306954, 211293.56, 248559.97, 0.0000033720132, 10.002285, 9.998754 
4.5515618e+2, 3.0619466e+2, 198950.42, -175815.19, 40939.89, 0.23576996, -0.020653313, 203370.61, 203370.61, 0.000028360193, 10.002522, 9.997555 
4.5516816e+2, 3.161929e+2, 340312.56, -38826.223, 184511.67, -0.13281347, 0.024404632, 415282.6, 415282.6, 0.00009465621, 10.003134, 9.998209 
4.648777e+2, 1.261854e+2, -1941313.1, -1643166.9, 117148.836, 0.07150971, 0.19511189, -1602644.0, 100741.625, 0.000096649455, 9.997592, 10.00163 
4.64888e+2, 1.3618428e+2, -2151984.3, -1750958.6, -180694.11, -0.25881496, -0.068557285, -1681553.4, -76159.97, 0.00004344866, 9.99574, 10.001135 
4.6490476e+2, 1.4618503e+2, -1980380.6, -1557858.1, -70212.08, -0.09249243, -0.12729421, -1546496.3, -39111.492, 0.000012657647, 9.996004, 10.001637 
4.6492088e+2, 1.5618786e+2, -1655267.3, -1368021.4, -107877.305, -0.020826755, -0.039407756, -1332019.6, 77337.1, 0.0000014631825, 9.997645, 10.001477 
4.649368e+2, 1.6618927e+2, -1564532.4, -1464009.4, -66368.02, 0.014577986, 0.05351995, -1431018.6, -119671.586, 0.000000030371112, 9.998424, 9.999767 
4.649523e+2, 1.7618954e+2, -1425500.8, -1331995.0, -53578.582, -0.029411638, 0.07668391, -1307638.9, -94287.52, 0.0, 9.998637, 9.999903 
4.6496782e+2, 1.8619011e+2, -1249750.6, -1121219.5, -45433.414, -0.05065166, 0.10820225, -1106781.5, 8564.94, 0.0, 9.998847, 10.000571 
4.6498358e+2, 1.9619063e+2, -1139277.3, -1033448.8, -60332.78, -0.036835086, 0.08024912, -1006113.7, 11224.585, 0.0, 9.998991, 10.000438 
4.649985e+2, 2.0619035e+2, -1049329.6, -1045563.6, -74822.39, -0.0411141, 0.066943094, -972600.56, -53259.23, 0.0, 9.999404, 9.999476 
4.6501282e+2, 2.1618946e+2, -868612.94, -908655.7, -61161.348, -0.06712918, 0.0065306313, -824279.3, -2926.532, 0.0, 9.99997, 9.999474 
4.6502823e+2, 2.261899e+2, -722187.8, -801197.3, -12493.751, -0.061082166, 0.1153631, -720259.25, 3091.4702, 0.0, 10.000385, 9.999325 
4.6504438e+2, 2.3619096e+2, -577498.8, -692497.25, -45197.063, -0.036457274, 0.26620373, -561861.6, 63480.527, 0.0, 10.000749, 9.999229 
4.6506062e+2, 2.4618955e+2, -459018.94, -680981.25, -63635.844, 0.020355284, 0.25283495, -442069.13, 85286.195, 0.0, 10.00129, 9.998382 
4.65077e+2, 2.5618637e+2, -265459.56, -530150.06, -87600.98, 0.1013522, 0.071111314, -239093.77, 190290.13, 0.0, 10.001917, 9.998441 
4.650926e+2, 2.6618427e+2, -172066.17, -448527.63, -50147.047, 0.063568756, 0.025813365, -163251.13, 168150.6, 0.0, 10.0019455, 9.99832 
4.6510744e+2, 2.761827e+2, -132700.73, -376556.44, -24220.697, -0.06068995, 0.010637708, -130318.32, 103095.81, 0.0, 10.00153, 9.998342 
4.6512395e+2, 2.8618157e+2, 18251.902, -240551.28, -39585.254, -0.039144985, 0.06353404, 24171.28, 159594.89, 0.00000001636591, 10.001846, 9.998447 
4.6514204e+2, 2.961804e+2, 253113.4, -60650.98, -132201.64, 0.14011668, 0.06857577, 301387.97, 338822.84, 0.0000038591365, 10.002716, 9.998589 
4.651584e+2, 3.061781e+2, 318753.44, -92715.17, -145334.78, 0.18043175, 0.023163483, 364909.6, 364909.6, 0.000029778155, 10.003222, 9.997805 
4.6517226e+2, 3.161758e+2, 379729.6, -5888.483, 28228.781, -0.030892245, 0.000015902795, 381785.1, 381785.1, 0.00009717631, 10.003354, 9.99833 
4.7487447e+2, 1.2616354e+2, -1885075.8, -1497061.9, 47195.09, -0.06817416, -0.017859265, -1491404.0, 212200.0, 0.0000915649, 9.997497, 10.002663 
4.7488558e+2, 1.361665e+2, -2086263.0, -1596367.8, -225876.14, -0.09668445, 0.0076035177, -1508119.8, 97449.78, 0.000038474074, 9.995686, 10.002208 
4.749014e+2, 1.4616823e+2, -1985740.0, -1565005.0, -16264.918, -0.057066776, 0.0025280113, -1564377.1, -56825.813, 0.000009911169, 9.99597, 10.001614 
4.749191e+2, 1.5617028e+2, -1642529.4, -1354882.9, -40379.105, 0.010620664, 0.01005193, -1349322.0, 60210.832, 0.0000009593812, 9.9976845, 10.001557 
4.7493595e+2, 1.6617179e+2, -1530496.6, -1381126.1, -68749.75, 0.06255069, 0.07739989, -1354300.8, -42779.59, 0.000000014696447, 9.998376, 10.0003605 
4.7495168e+2, 1.7617258e+2, -1394680.1, -1259694.0, -33667.637, 0.023315247, 0.09749647, -1251762.8, -38245.258, 0.0, 9.998605, 10.000416 
4.749671e+2, 1.8617278e+2, -1260776.0, -1127934.9, -47333.29, -0.029365877, 0.072558194, -1112794.9, 2720.7268, 0.0, 9.998775, 10.000564 
4.7498265e+2, 1.9617252e+2, -1143218.0, -1030610.4, -41421.11, -0.051809732, -0.031520072, -1017015.5, 500.48508, 0.0, 9.998937, 10.000489 
4.7499794e+2, 2.0617335e+2, -1029629.94, -978666.75, -61542.9, -0.0582476, 0.033587657, -937538.75, -18030.541, 0.0, 9.999298, 9.999983 
4.7501293e+2, 2.1617463e+2, -859702.06, -860890.6, -30216.936, -0.06990397, 0.14370558, -830073.56, -8576.366, 0.0, 9.999847, 9.999859 
4.7502872e+2, 2.2617415e+2, -771860.5, -887388.56, -7443.1416, -0.07445514, 0.17273109, -771382.94, -47879.938, 0.0, 10.000299, 9.998783 
4.7504506e+2, 2.361724e+2, -630902.94, -778829.1, -19493.873, -0.062734425, 0.0956394, -628377.1, -2856.334, 0.0, 10.000633, 9.998698 
4.7506133e+2, 2.4617076e+2, -505469.66, -757418.2, -47638.383, -0.05765536, 0.11121812, -496763.06, 30774.71, 0.0, 10.0012045, 9.997896 
4.7507757e+2, 2.5616905e+2, -305675.5, -594428.94, -57270.01, -0.059053183, 0.1216902, -294731.6, 134824.31, 0.0, 10.001824, 9.998048 
4.750937e+2, 2.6616746e+2, -117870.484, -319164.3, -73312.914, -0.042935904, 0.09749671, -93999.99, 237566.78, 0.0, 10.00188, 9.999236 
4.7510952e+2, 2.7616572e+2, -97841.33, -292003.3, -23566.625, -0.033003632, -0.0212933, -95021.84, 138553.89, 0.0, 10.001484, 9.998941 
4.751262e+2, 2.8616333e+2, -121549.72, -533256.94, -19118.252, -0.024516685, -0.009478105, -120663.836, 14936.704, 0.0000000367379, 10.001853, 9.996434 
4.7514388e+2, 2.9616052e+2, 119513.14, -320683.34, -89735.74, 0.029747725, 0.03065741, 137103.22, 174739.17, 0.000004901276, 10.002627, 9.996851 
4.7516057e+2, 3.0615896e+2, 365155.47, 20234.969, -148739.63, 0.056372732, 0.09091063, 420436.3, 420436.3, 0.000032907166, 10.003156, 9.9986105 
4.751775e+2, 3.161568e+2, 448640.88, 145588.39, 71568.016, 0.10193987, 0.0055648666, 464692.03, 464692.03, 0.00010232853, 10.003316, 9.999391 
4.8487127e+2, 1.2614444e+2, -2152114.5, -1584750.8, 184537.34, -0.022283534, -0.07892109, -1530010.6, 173783.31, 0.00008664265, 9.995472, 10.003051 
4.8488408e+2, 1.3614911e+2, -1708369.0, -1367049.9, -188820.95, 0.079177156, 0.071408175, -1283194.1, 322548.03, 0.000032757685, 9.998054, 10.002657 
4.848986e+2, 1.461511e+2, -1636094.9, -1416737.4, 23795.215, -0.051691495, 0.07964379, -1414185.9, 93536.27, 0.000007215262, 9.998469, 10.001418 
4.8491687e+2, 1.5615249e+2, -1691999.9, -1393899.1, -43740.785, 0.040301997, 0.04401617, -1387613.5, 22097.895, 0.00000059770906, 9.997424, 10.001409 
4.8493418e+2, 1.6615403e+2, -1609310.3, -1357979.5, -50283.414, 0.095831566, 0.09002294, -1348292.8, -36594.54, 0.0000000048834687, 9.997567, 10.00091 
4.8495016e+2, 1.7615531e+2, -1381005.9, -1193897.1, -36322.26, 0.028383788, 0.1030146, -1187093.5, 26593.563, 0.0, 9.998453, 10.000932 
4.849658e+2, 1.8615592e+2, -1277209.5, -1116541.5, -46152.867, -0.018511664, 0.08391139, -1104227.6, 11453.173, 0.0, 9.998586, 10.000724 
4.8498154e+2, 1.9615598e+2, -1240676.4, -1054738.0, -40648.645, -0.010027751, -0.007939356, -1046240.06, -28561.543, 0.0, 9.998187, 10.000671 
4.8499736e+2, 2.0615688e+2, -1092717.9, -1004233.06, -20295.232, -0.015488798, 0.05495825, -999800.2, -80131.31, 0.0, 9.998839, 10.000036 
4.8501322e+2, 2.1615803e+2, -820787.44, -840870.0, -37795.473, -0.035006803, 0.14519387, -791722.1, 29935.021, 0.0, 10.000111, 9.999871 
4.8502955e+2, 2.2615694e+2, -749703.0, -939758.75, -34606.375, -0.035573747, 0.14157028, -743597.75, -19928.723, 0.0, 10.00072, 9.998224 
4.850462e+2, 2.361542e+2, -625137.44, -829218.44, -65843.49, -0.015865505, 0.024275541, -605738.1, 19959.523, 0.0, 10.0008955, 9.998227 
4.8506263e+2, 2.4615252e+2, -525230.8, -746444.4, -41377.15, -0.028939284, 0.04576257, -517744.72, 9970.529, 0.0, 10.00098, 9.998079 
4.8507893e+2, 2.561514e+2, -418780.38, -630955.56, -21370.338, -0.057165075, 0.09801007, -416649.38, 13077.669, 0.0, 10.000981, 9.998198 
4.8509574e+2, 2.6615e+2, -137570.97, -367904.9, -43345.504, -0.02062246, 0.10282939, -129684.04, 202053.47, 0.0, 10.001912, 9.998883 
4.851128e+2, 2.7614808e+2, 166759.48, -202262.64, -106057.516, 0.05417267, 0.0013858613, 195068.84, 428819.53, 0.0, 10.003464, 9.998605 
4.8512965e+2, 2.861453e+2, 127205.42, -442940.78, -56485.65, 0.049913406, 0.0050203986, 132747.7, 268527.94, 0.00000008825205, 10.003691, 9.996168 
4.8514673e+2, 2.9614222e+2, 150178.6, -341847.63, -28188.32, 0.04157074, 0.04476939, 151788.23, 189606.4, 0.0000056092463, 10.002997, 9.996524 
4.851627e+2, 3.0614048e+2, 255884.11, -91522.24, -69165.21, -0.007611457, 0.13346988, 269147.8, 269147.8, 0.000035389916, 10.002658, 9.998071 
4.8518124e+2, 3.1613812e+2, 344532.78, 102517.36, 22369.611, 0.19574255, 0.07355343, 346583.03, 346583.03, 0.00010599746, 10.002566, 9.999447 
4.948673e+2, 1.2612823e+2, -2178447.3, -1633165.8, 228815.05, -0.021146754, 0.022551933, -1549872.1, 154081.98, 0.000079155536, 9.995455, 10.002722 
4.9488312e+2, 1.3613215e+2, -1714505.8, -1389745.3, -93269.445, 0.14959595, 0.11720991, -1364864.9, 241046.05, 0.000026309019, 9.998094, 10.00248 
4.9489588e+2, 1.461336e+2, -1672717.0, -1487330.0, -27507.066, -0.1991262, 0.10230267, -1483334.6, 24562.488, 0.0000047383246, 9.998449, 10.000941 
4.9491376e+2, 1.5613452e+2, -1720545.3, -1451990.4, -66210.67, -0.040012803, 0.067351766, -1436553.9, -26661.887, 0.0000002991547, 9.997419, 10.001012 
4.9493113e+2, 1.6613601e+2, -1574317.1, -1276764.1, -27320.564, 0.013745006, 0.0969124, -1274276.4, 37601.65, 0.0000000005507737, 9.997524, 10.0014925 
4.9494755e+2, 1.7613773e+2, -1343056.5, -1112467.0, 818.9679, -0.10520055, 0.09231918, -1112464.1, 101396.34, 0.0, 9.998435, 10.001503 
4.9496368e+2, 1.8613943e+2, -1262266.0, -1068755.5, -70564.69, -0.11137248, 0.13849881, -1045757.06, 70085.51, 0.0, 9.998515, 10.001085 
4.9497998e+2, 1.9614092e+2, -1229282.1, -1018330.4, -41315.484, -0.008039751, 0.15494666, -1010527.25, 7299.435, 0.0, 9.998125, 10.000956 
4.9499652e+2, 2.0614092e+2, -1127122.6, -1051907.5, 17594.672, 0.0013034352, 0.1298248, -1047995.1, -128171.055, 0.0, 9.998734, 9.9997635 
4.9501327e+2, 2.1613972e+2, -858383.94, -897857.2, 15571.753, -0.057903234, 0.014122748, -852980.6, -31148.5, 0.0, 10.000007, 9.999538 
4.950303e+2, 2.2613817e+2, -811425.0, -1038120.8, -35345.453, -0.04915548, 0.01486185, -806041.9, -82192.266, 0.0, 10.000601, 9.9976015 
4.950475e+2, 2.3613626e+2, -675900.75, -903141.5, -48798.746, 0.0027150142, 0.03968261, -665864.7, -39990.613, 0.0, 10.000764, 9.997781 
4.950642e+2, 2.4613477e+2, -475960.97, -624769.5, -50417.617, 0.009917768, 0.05117259, -460487.9, 67400.58, 0.0, 10.000902, 9.998951 
4.9508062e+2, 2.5613332e+2, -385770.1, -548693.06, -5196.6064, -0.00887843, -0.009611038, -385604.5, 44294.066, 0.0, 10.000921, 9.998792 
4.9509838e+2, 2.661317e+2, -253943.19, -597048.2, 4135.99, 0.03225756, 0.034751654, -253893.33, 78021.88, 0.0, 10.001863, 9.997332 
4.951169e+2, 2.7612972e+2, 61266.72, -389908.5, -44704.406, 0.09210203, 0.075692445, 65653.57, 299592.47, 0.0, 10.003334, 9.9973755 
4.9513388e+2, 2.861276e+2, 215210.64, -240542.17, -88661.74, 0.07818971, 0.116333425, 231851.23, 367812.47, 0.00000018947561, 10.003613, 9.997593 
4.9515018e+2, 2.9612544e+2, 217559.53, -196031.94, -37946.695, 0.055272933, 0.11485263, 221012.28, 258994.45, 0.000005650319, 10.002978, 9.997532 
4.951647e+2, 3.0612263e+2, 141999.2, -346280.7, -78566.93, -0.101409145, 0.15285546, 154329.67, 154329.67, 0.00003451672, 10.002721, 9.996298 
4.9518278e+2, 3.1611964e+2, 279473.75, -33334.53, 35202.703, 0.038069695, 0.18962207, 283386.44, 283386.44, 0.00010176044, 10.002559, 9.99852 
5.0486416e+2, 1.2611295e+2, -1935827.6, -1602904.3, 288567.75, 0.027043438, 0.1349654, -1436228.1, 267874.6, 0.00006651573, 9.997518, 10.001929 
5.0488096e+2, 1.3611469e+2, -2033562.8, -1616719.5, -61971.926, 0.23107852, 0.090227075, -1607701.3, -1616.3103, 0.00001955312, 9.996219, 10.001833 
5.0489265e+2, 1.4611606e+2, -1927653.3, -1578554.8, 23007.223, -0.2673395, 0.079838336, -1577045.0, -68973.02, 0.0000028130235, 9.996578, 10.001213 
5.049117e+2, 1.5611796e+2, -1646603.1, -1392113.5, 13038.319, 0.00056319375, 0.12162589, -1391447.3, 18607.117, 0.00000011765629, 9.997845, 10.001209 
5.0492966e+2, 1.6611925e+2, -1491034.9, -1267085.9, 65309.28, 0.089420944, 0.13397354, -1249431.6, 62610.15, 0.000000000026416515, 9.9982195, 10.001222 
5.049461e+2, 1.7611988e+2, -1431071.4, -1186746.6, 8293.176, -0.056339614, 0.050724585, -1186465.4, 27569.676, 0.0, 9.997956, 10.001226 
5.049624e+2, 1.8612146e+2, -1290673.6, -1100978.3, -95848.42, -0.07854349, 0.10621659, -1060981.6, 55037.277, 0.0, 9.9984045, 10.000917 
5.049789e+2, 1.961235e+2, -1067623.6, -959722.94, -120183.19, 0.021553647, 0.19550298, -881936.3, 136061.86, 0.0, 9.999334, 10.000768 
5.049962e+2, 2.0612296e+2, -949006.25, -1007943.44, -43857.5, 0.028923191, 0.14952874, -925636.6, -5635.797, 0.0, 10.000143, 9.99938 
5.050139e+2, 2.1612065e+2, -773296.44, -885069.2, -79436.79, -0.02853597, -0.04245927, -732056.7, 89963.74, 0.0, 10.000736, 9.999263 
5.0503117e+2, 2.2611944e+2, -748819.25, -965082.7, -99733.92, -0.02296325, -0.013846161, -709847.9, 14186.51, 0.0, 10.0008335, 9.997997 
5.050484e+2, 2.3611884e+2, -681886.3, -864847.4, -52752.785, 0.034069117, 0.10040464, -667766.0, -41719.848, 0.0, 10.000547, 9.998148 
5.0506556e+2, 2.4611746e+2, -409486.22, -592833.56, -13632.972, 0.041223828, 0.10625676, -408478.06, 119580.55, 0.0, 10.001357, 9.998953 
5.050828e+2, 2.5611535e+2, -94708.11, -413003.75, -51442.797, 0.023214241, -0.02082338, -86600.47, 343473.47, 0.0, 10.002941, 9.998754 
5.0510085e+2, 2.661137e+2, -117893.4, -571046.4, -13325.255, 0.04403918, 0.04124141, -117501.9, 214591.03, 0.0, 10.002971, 9.996981 
5.051192e+2, 2.7611214e+2, -162184.48, -528389.06, -2679.8413, 0.07662007, 0.1609585, -162164.88, 71951.64, 0.00000000061010413, 10.001928, 9.997105 
5.051366e+2, 2.8611022e+2, 88970.58, -239430.28, -17430.967, 0.060403332, 0.20667559, 89893.19, 226028.52, 0.00000027597625, 10.002479, 9.998149 
5.051536e+2, 2.9610816e+2, 402417.25, -66225.516, -53540.523, 0.054370407, 0.16074006, 408456.22, 446607.0, 0.0000049916057, 10.004077, 9.997898 
5.051679e+2, 3.061043e+2, 381208.78, -321533.28, -72270.17, -0.15058531, 0.1261137, 388564.1, 388564.1, 0.000030276777, 10.004769, 9.995482 
5.0518644e+2, 3.161015e+2, 539117.8, 14564.85, 46916.777, 0.05330013, 0.25655904, 543281.06, 543281.06, 0.000090633286, 10.004685, 9.99783 
5.1486075e+2, 1.2609865e+2, -2026410.9, -1794908.4, 126157.04, -0.11655066, 0.25917318, -1739446.4, -35207.15, 0.00005196835, 9.997541, 10.000593 
5.148774e+2, 1.3609676e+2, -2109501.8, -1779844.5, -82845.5, 0.22598837, -0.015384934, -1760196.0, -153932.25, 0.000013925394, 9.99624, 10.000704 
5.148885e+2, 1.4609848e+2, -1861504.9, -1435948.6, 61237.406, -0.36120898, 0.0073405094, -1427311.9, 80934.2, 0.000001645238, 9.99655, 10.002211 
5.149104e+2, 1.5610288e+2, -1592937.9, -1282473.3, 68014.65, 0.0627394, 0.19802146, -1268226.8, 141971.27, 0.00000003629146, 9.997847, 10.0019655 
5.1492953e+2, 1.6610366e+2, -1585129.1, -1444930.6, 48892.273, 0.22308198, 0.19362892, -1429564.4, -117374.42, 0.0, 9.998151, 10.000029 
5.149457e+2, 1.7610183e+2, -1517833.6, -1356551.6, 13495.258, 0.076046996, -0.020225897, -1355430.3, -141219.66, 0.0, 9.997918, 10.000074 
5.149616e+2, 1.8610214e+2, -1347024.0, -1206607.6, -71141.59, -0.018871399, -0.0025052552, -1176864.3, -60655.918, 0.0, 9.998352, 10.000217 
5.149781e+2, 1.9610365e+2, -1119348.3, -1063251.6, -75733.086, -0.022945646, 0.104611985, -1010539.75, 7653.1797, 0.0, 9.999302, 10.000078 
5.14996e+2, 2.0610294e+2, -1008852.4, -1101090.6, -30480.459, -0.026679607, 0.10029829, -999690.1, -79489.83, 0.0, 10.000014, 9.998799 
5.1501465e+2, 2.161006e+2, -813391.7, -943110.5, -51244.75, -0.043795712, -0.039068107, -795590.56, 26633.324, 0.0, 10.000621, 9.998921 
5.1503205e+2, 2.2610058e+2, -663992.8, -761589.06, -121909.41, -0.042875677, 0.04219455, -581477.75, 142747.61, 0.0, 10.000715, 9.999453 
5.150485e+2, 2.3610193e+2, -611844.0, -696173.1, -47135.215, -0.027623003, 0.2082205, -590766.3, 35447.598, 0.0, 10.000448, 9.999354 
5.150663e+2, 2.4610066e+2, -474339.13, -714430.94, 36980.73, -0.038499035, 0.21594544, -468772.16, 59452.84, 0.0, 10.001299, 9.998146 
5.1508504e+2, 2.560975e+2, -154382.55, -511205.25, 10497.422, -0.072969176, 0.0611834, -154074.0, 276178.56, 0.0, 10.002828, 9.998134 
5.151028e+2, 2.6609597e+2, -76313.12, -469781.13, -61760.324, -0.08221224, 0.12191357, -66846.72, 265423.66, 0.0, 10.00291, 9.997707 
5.151198e+2, 2.7609518e+2, -125992.57, -441490.16, -17384.2, -0.08615342, 0.25270903, -125037.58, 109247.28, 0.0000000018853024, 10.001877, 9.997729 
5.151378e+2, 2.860932e+2, 68575.69, -280921.16, 32886.79, -0.09651913, 0.27753308, 71643.33, 207946.63, 0.00000034894228, 10.002472, 9.997868 
5.1515657e+2, 2.960904e+2, 373979.94, -112807.66, 13328.527, -0.08829126, 0.1804878, 374344.63, 412669.16, 0.000004315403, 10.004016, 9.997608 
5.151717e+2, 3.060855e+2, 379738.03, -311893.84, -77733.0, -0.2681834, 0.05112163, 388366.84, 388366.84, 0.000026122347, 10.004726, 9.995568 
5.151917e+2, 3.1608325e+2, 484706.88, -63586.64, 53906.55, 0.053628232, 0.23885424, 489956.56, 489956.56, 0.000081293096, 10.004548, 9.997357 
5.248574e+2, 1.2608176e+2, -2207476.0, -1894809.3, -11156.966, -0.13820407, 0.20464863, -1894411.6, -190009.25, 0.000041741798, 9.996341, 10.0004835 
5.248749e+2, 1.3608073e+2, -1914553.3, -1700829.3, -55366.656, 0.29837924, 0.023651192, -1687337.8, -80918.72, 0.000010470756, 9.997634, 10.000571 
5.2488637e+2, 1.4608195e+2, -1572263.4, -1338789.5, 124737.66, -0.33898, 0.0225429, -1284684.4, 223721.45, 0.0000009776196, 9.998713, 10.001834 
5.249094e+2, 1.560849e+2, -1398008.1, -1232056.1, -4657.868, 0.10543376, 0.1057581, -1231925.5, 178445.38, 0.000000005050013, 9.999363, 10.001581 
5.249285e+2, 1.6608553e+2, -1450438.3, -1424735.4, -54358.297, 0.26305294, 0.12505835, -1381730.0, -69364.68, 0.0, 9.999268, 9.999637 
5.24944e+2, 1.7608444e+2, -1423514.1, -1352888.0, -46073.668, 0.08862172, 0.027589465, -1330151.1, -115770.14, 0.0, 9.998746, 9.999706 
5.249606e+2, 1.8608436e+2, -1221083.3, -1171774.0, -16956.03, -0.0026147072, 0.037868716, -1166506.1, -50123.195, 0.0, 9.999327, 9.999993 
5.2497834e+2, 1.9608478e+2, -954392.06, -999809.56, -12437.024, 0.021065472, 0.05869913, -951209.4, 67168.15, 0.0, 10.000525, 9.999919 
5.249966e+2, 2.0608422e+2, -920675.1, -1063771.5, 56567.18, 0.011851369, 0.080582105, -901014.8, 19369.104, 0.0, 10.000627, 9.998765 
5.2501494e+2, 2.1608289e+2, -912757.6, -992796.6, 60562.586, -0.033906367, 0.04198201, -880186.56, -57786.605, 0.0, 9.999941, 9.998907 
5.250326e+2, 2.2608292e+2, -692105.94, -757154.4, -16154.407, -0.034813426, 0.118654594, -688315.06, 36085.54, 0.0, 10.000455, 9.999602 
5.2504987e+2, 2.3608358e+2, -416644.06, -592278.94, -59264.0, 0.0015840189, 0.2052855, -398517.56, 227876.23, 0.0, 10.001748, 9.999444 
5.2506816e+2, 2.4608222e+2, -377085.22, -683639.8, 33063.832, -0.01754772, 0.20754725, -373559.63, 154845.88, 0.0, 10.002033, 9.998007 
5.250871e+2, 2.5607938e+2, -333699.9, -611679.9, 30389.258, -0.07807863, 0.09710776, -330416.5, 100014.414, 0.0, 10.001655, 9.998012 
5.2510494e+2, 2.6607755e+2, -226933.27, -535641.06, -57337.758, -0.100295484, 0.13204663, -216627.69, 115823.45, 0.0, 10.00185, 9.997758 
5.251218e+2, 2.7607614e+2, -37722.254, -389664.56, -77043.35, -0.09387445, 0.19442382, -21595.713, 212874.84, 0.00000000009174081, 10.002462, 9.99779 
5.251407e+2, 2.8607428e+2, 134803.1, -253487.67, 25885.66, -0.06904827, 0.23074266, 136521.17, 273009.1, 0.00000033351301, 10.002954, 9.997818 
5.2516085e+2, 2.9607204e+2, 274551.9, -160798.7, -8924.509, -0.02221876, 0.19221464, 274734.78, 313239.7, 0.0000041082662, 10.003335, 9.997602 
5.251759e+2, 3.0606723e+2, 225291.28, -324359.5, -85836.8, -0.24195632, 0.042251673, 238384.2, 238384.2, 0.000024723933, 10.003396, 9.996125 
5.251953e+2, 3.1606492e+2, 252744.97, -170289.92, 5695.056, 0.06380687, 0.17478383, 252821.63, 252821.63, 0.00007789345, 10.002933, 9.997401 
5.348531e+2, 1.2606195e+2, -2112163.3, -1700028.9, -118547.1, -0.26860562, -0.062219437, -1668362.8, 36233.277, 0.000035627574, 9.99637, 10.0018 
5.348733e+2, 1.3606668e+2, -1847829.9, -1563680.0, 5841.4453, 0.34708324, 0.21177453, -1563560.0, 42990.336, 0.000008273398, 9.997634, 10.001519 
5.3488547e+2, 1.4606659e+2, -1705995.5, -1606933.3, 142895.75, -0.3286024, 0.13634251, -1505227.8, 3322.5137, 0.00000061502607, 9.998676, 10.000006 
5.349082e+2, 1.5606402e+2, -1511542.9, -1466901.1, 25100.266, 0.030187054, -0.15424094, -1455632.6, -45059.32, 0.00000000036285042, 9.999359, 9.9999695 
5.3492653e+2, 1.6606477e+2, -1428799.3, -1372283.0, -88103.81, 0.11376585, -0.07044945, -1308016.5, 4552.2485, 0.0, 9.999234, 10.000014 
5.34941e+2, 1.7606764e+2, -1397666.8, -1301356.4, -48956.01, -0.11306718, 0.1906294, -1280841.3, -66294.484, 0.0, 9.998747, 10.000064 
5.349588e+2, 1.8606807e+2, -1212240.0, -1140097.6, 20180.838, -0.13180219, 0.22273785, -1134836.1, -18293.104, 0.0, 9.999271, 10.000234 
5.3497934e+2, 1.9606669e+2, -947470.4, -972728.8, 36449.453, 0.049775794, 0.040020764, -921524.2, 97028.95, 0.0, 10.000463, 10.000139 
5.3499776e+2, 2.0606679e+2, -897343.0, -986195.94, 20677.268, 0.04616195, 0.08208587, -892766.8, 27785.89, 0.0, 10.000507, 9.999351 
5.3501445e+2, 2.1606763e+2, -901099.0, -945457.9, 51554.996, -0.09438939, 0.20638728, -867154.94, -44607.773, 0.0, 9.999836, 9.999284 
5.350327e+2, 2.2606651e+2, -794019.7, -942678.25, 23086.541, -0.09035884, 0.21879116, -790516.9, -65957.62, 0.0, 10.000342, 9.9983835 
5.3505194e+2, 2.3606387e+2, -506500.66, -749283.06, -7479.523, 0.017674506, 0.092401706, -506270.44, 120314.664, 0.0, 10.00162, 9.9984255 
5.3507066e+2, 2.4606211e+2, -356601.0, -621879.06, 10672.626, 0.01072799, 0.07563725, -356172.3, 172428.25, 0.0, 10.001954, 9.998468 
5.3508896e+2, 2.5606078e+2, -321090.38, -567770.94, 32077.082, -0.08665881, 0.073098145, -316987.47, 113623.164, 0.0, 10.001578, 9.998349 
5.3510696e+2, 2.6605842e+2, -270841.63, -620239.56, -42625.91, -0.105288684, 0.068327434, -265716.5, 66919.28, 0.0, 10.001819, 9.997192 
5.351248e+2, 2.7605507e+2, -80387.78, -465501.47, -41488.055, -0.07009587, -0.009942176, -75969.0, 158704.4, 0.0, 10.002398, 9.997306 
5.351449e+2, 2.860535e+2, 141354.33, -234426.34, 32848.055, 0.027289324, 0.069817804, 144204.05, 280893.34, 0.00000019037492, 10.002931, 9.99796 
5.3516614e+2, 2.9605296e+2, 277056.1, -133581.08, 18678.297, 0.14820638, 0.19172806, 277903.97, 316596.28, 0.0000040138116, 10.003239, 9.997836 
5.3518015e+2, 3.0604935e+2, 286697.47, -196333.17, -104153.73, -0.17386295, 0.101508446, 308198.6, 308198.6, 0.000024880646, 10.003383, 9.997013 
5.351968e+2, 3.1604642e+2, 293606.34, -102470.945, -3113.3884, -0.13708602, 0.08129916, 293630.84, 293630.84, 0.00007745561, 10.002985, 9.997847 
5.4484916e+2, 1.2604317e+2, -2312800.0, -1746135.0, -184881.78, -0.20337988, -0.110457666, -1691150.3, 13629.673, 0.000030309948, 9.994777, 10.002278 
5.448717e+2, 1.3604802e+2, -1543850.1, -1373000.6, -57396.97, 0.34507415, 0.13155487, -1355508.9, 251219.39, 0.000006366235, 9.999537, 10.001916 
5.4488516e+2, 1.4604773e+2, -1532979.4, -1613902.0, 4348.772, -0.2950507, 0.06568113, -1532746.4, -24015.666, 0.00000037085837, 10.000239, 9.999217 
5.449069e+2, 1.5604502e+2, -1731420.4, -1643736.3, -56285.746, 0.034751114, -0.16300924, -1616232.6, -205472.84, 0.00000000007720086, 9.998154, 9.999338 
5.4492503e+2, 1.6604584e+2, -1523696.8, -1381424.9, -67557.14, 0.08984594, -0.06164705, -1354457.4, -41702.37, 0.0, 9.998441, 10.000325 
5.449401e+2, 1.7604889e+2, -1158280.1, -1155298.4, -59010.66, -0.14724104, 0.18783215, -1097759.8, 116969.55, 0.0, 10.000277, 10.000323 
5.4495823e+2, 1.8604924e+2, -1113666.6, -1124500.8, -24136.7, -0.14352213, 0.21485116, -1094346.6, 22379.557, 0.0, 10.000064, 9.99997 
5.44979e+2, 1.9604765e+2, -1244272.8, -1137265.4, -61657.76, 0.073038995, 0.036448617, -1109133.8, -90394.41, 0.0, 9.998503, 9.999959 
5.4499775e+2, 2.0604786e+2, -1106930.1, -1053900.1, -58987.914, 0.080599494, 0.08332512, -1015742.0, -95004.51, 0.0, 9.998931, 9.999648 
5.4501504e+2, 2.1604902e+2, -769859.0, -850315.75, -67369.77, -0.05781972, 0.21088225, -731620.75, 91107.11, 0.0, 10.000613, 9.999559 
5.450336e+2, 2.2604766e+2, -706731.8, -907673.44, -40244.996, -0.06268414, 0.19212146, -698971.2, 25769.818, 0.0, 10.000962, 9.998328 
5.45053e+2, 2.3604445e+2, -684404.8, -840842.9, -6193.2734, 0.028946199, 0.014309173, -684160.0, -57388.563, 0.0, 10.00042, 9.998381 
5.4507214e+2, 2.4604282e+2, -523817.44, -682193.25, 48249.72, 0.030815873, 0.0022858966, -510275.84, 18510.309, 0.0, 10.000722, 9.998645 
5.450909e+2, 2.5604206e+2, -306683.3, -543139.8, 26340.918, -0.034295663, 0.03836482, -303784.5, 127007.74, 0.0, 10.001611, 9.998498 
5.451094e+2, 2.6603982e+2, -216730.5, -610216.06, -6441.7456, -0.053440258, 0.05182276, -216625.08, 116190.85, 0.0, 10.002263, 9.997046 
5.451277e+2, 2.7603638e+2, -30893.326, -456589.6, 2088.6038, -0.028642736, -0.02477224, -30883.078, 203970.84, 0.0, 10.0028, 9.997174 
5.4514766e+2, 2.8603464e+2, 75479.33, -286675.75, 66840.266, 0.040753756, 0.053420983, 87421.73, 224294.45, 0.00000011177434, 10.002581, 9.997769 
5.4516846e+2, 2.9603395e+2, 74374.86, -235710.0, 12002.718, 0.13147077, 0.17721468, 74838.766, 113718.586, 0.0000045059896, 10.001892, 9.997775 
5.451835e+2, 3.0603102e+2, 229435.97, -162991.13, -80404.51, -0.1391099, 0.1273281, 245271.1, 245271.1, 0.000026381855, 10.002728, 9.99755 
5.452016e+2, 3.1602874e+2, 508578.5, 62689.57, -59008.523, -0.0058616465, 0.12039047, 516255.44, 516255.44, 0.00007890932, 10.0042095, 9.998383 
5.5484474e+2, 1.2602568e+2, -2340511.5, -1784780.1, -146286.47, -0.17066686, 0.10888281, -1748625.0, -43673.586, 0.000026661139, 9.994719, 10.0020275 
5.5487007e+2, 1.3602449e+2, -1559488.5, -1407455.5, 107629.2, 0.1997725, -0.22307695, -1351705.0, 255249.94, 0.0000052899522, 9.999549, 10.001675 
5.548852e+2, 1.460251e+2, -1504634.8, -1557150.0, -90222.305, -0.33877474, -0.20946357, -1436926.8, 72023.22, 0.00000021782215, 10.000248, 9.999602 
5.549052e+2, 1.5602791e+2, -1704505.8, -1591823.0, -109145.02, 0.017706592, 0.080073856, -1525335.4, -114405.61, 0.00000000000011946363, 9.998159, 9.999701 
5.5492365e+2, 1.6602881e+2, -1513747.8, -1351253.6, -6400.8237, 0.084530994, 0.1588244, -1351001.9, -38078.56, 0.0, 9.9984045, 10.000547 
5.5494106e+2, 1.7602809e+2, -1155848.3, -1143670.8, 7852.6587, -0.10541446, 0.011055201, -1139822.8, 75106.59, 0.0, 10.000246, 10.000421 
5.5495876e+2, 1.860278e+2, -1173915.9, -1232514.9, -94023.04, -0.12445024, 0.00880997, -1104732.9, 12199.974, 0.0, 9.999991, 9.999265 
5.54977e+2, 1.9602767e+2, -1298785.6, -1237953.0, -98592.23, -0.0008617376, 0.04736444, -1165191.9, -146255.89, 0.0, 9.998441, 9.999306 
5.549962e+2, 2.0602748e+2, -1118960.0, -1053259.9, -3222.9016, 0.020430664, 0.0825036, -1053102.3, -132163.95, 0.0, 9.998826, 9.9997 
5.550161e+2, 2.16027e+2, -777943.06, -839975.56, -1008.6592, -0.030092888, 0.04247018, -777926.6, 45015.797, 0.0, 10.000489, 9.999693 
5.550349e+2, 2.260263e+2, -652949.56, -762808.1, -70261.9, -0.050823938, 0.022681262, -618693.9, 106253.06, 0.0, 10.000825, 9.999387 
5.550528e+2, 2.360253e+2, -637807.5, -713319.75, -9548.773, -0.05298616, -0.03698174, -636618.75, -9665.888, 0.0, 10.000288, 9.999317 
5.550723e+2, 2.4602436e+2, -545840.06, -711852.25, 73647.4, -0.046892915, -0.012927544, -517877.94, 11084.0205, 0.0, 10.000646, 9.998484 
5.5509275e+2, 2.560232e+2, -326656.44, -563824.2, 69083.89, -0.03446392, -0.0012472488, -308000.66, 122974.914, 0.0, 10.001516, 9.9984045 
5.55112e+2, 2.660218e+2, -202946.31, -571175.25, 3855.17, -0.039083637, 0.07841908, -202905.95, 130086.33, 0.0, 10.00222, 9.9973345 
5.5513036e+2, 2.7601993e+2, -31358.596, -441016.78, 27681.389, -0.062242754, 0.1380419, -29496.574, 205517.1, 0.0, 10.002728, 9.997317 
5.5514896e+2, 2.8601754e+2, 34837.29, -365781.3, 29082.055, -0.106123, 0.17687294, 36937.426, 173977.13, 0.00000024371042, 10.002555, 9.997242 
5.551675e+2, 2.960147e+2, 39374.1, -300160.94, 8953.894, -0.1783873, 0.1400673, 39610.063, 78679.51, 0.0000058589785, 10.001847, 9.99736 
5.5518544e+2, 3.0601206e+2, 239186.2, -133129.75, -27813.342, -0.24321346, 0.1199098, 241252.48, 241252.48, 0.000029984647, 10.002689, 9.997771 
5.5520886e+2, 3.1601146e+2, 537974.4, 139085.84, 20478.885, 0.24946666, 0.25656602, 539023.0, 539023.0, 0.00008416486, 10.004132, 9.99895 
5.648413e+2, 1.2600611e+2, -1879040.0, -1629275.6, -139580.56, -0.14536868, 0.16240658, -1566865.8, 138276.6, 0.000022362967, 9.998152, 10.001434 
5.64868e+2, 1.36004e+2, -1854234.1, -1598160.5, 122313.664, 0.14169522, -0.21588863, -1549126.5, 58030.664, 0.000004259607, 9.997719, 10.001244 
5.6488526e+2, 1.4600478e+2, -1772361.4, -1627447.0, -145102.56, -0.24845855, -0.19295947, -1537716.6, -28565.463, 0.00000013010742, 9.9981575, 10.000131 
5.6490374e+2, 1.5600863e+2, -1503366.8, -1432734.3, -170545.95, 0.015105092, 0.14651433, -1293886.3, 117233.83, 0.0, 9.999286, 10.000245 
5.649222e+2, 1.6600956e+2, -1386018.9, -1286598.3, -9596.779, 0.07220938, 0.20091254, -1285680.4, 27431.82, 0.0, 9.999247, 10.000595 
5.64941e+2, 1.7600815e+2, -1415681.5, -1260681.3, -27565.447, -0.031571873, -0.023494087, -1255924.9, -40801.266, 0.0, 9.998417, 10.000498 
5.64959e+2, 1.8600784e+2, -1294598.4, -1285811.5, -92784.89, -0.04812266, -0.032940038, -1197316.1, -80189.34, 0.0, 9.999151, 9.999297 
5.649767e+2, 1.9600818e+2, -942139.75, -1059567.6, -56825.13, 0.0081425775, 0.045399405, -919144.3, 99981.14, 0.0, 10.000876, 9.999343 
5.649958e+2, 2.0600763e+2, -863249.7, -961304.3, 68381.33, 0.01327299, 0.0580889, -828136.1, 92994.62, 0.0, 10.000714, 9.999422 
5.650161e+2, 2.1600634e+2, -976960.9, -956094.06, 28310.246, -0.005040007, -0.038206205, -936355.8, -113213.49, 0.0, 9.999224, 9.999499 
5.6503534e+2, 2.2600573e+2, -800132.1, -813259.06, -48823.133, -0.017120833, -0.047286037, -757433.25, -32287.568, 0.0, 9.999725, 9.999569 
5.6505394e+2, 2.3600549e+2, -444917.66, -600440.6, -73541.42, -0.017620899, -0.054746676, -415650.22, 211495.08, 0.0, 10.001533, 9.999485 
5.650737e+2, 2.4600486e+2, -393989.3, -654146.44, -16990.387, -0.019444786, 0.004756752, -392884.38, 136268.2, 0.0, 10.001781, 9.99832 
5.650941e+2, 2.5600377e+2, -403057.34, -613809.3, -42375.2, -0.021485634, 0.03890727, -394856.25, 36311.613, 0.0, 10.001059, 9.998279 
5.651138e+2, 2.6600254e+2, -285727.06, -560199.2, -53881.42, -0.038293984, 0.12222288, -275528.6, 57653.54, 0.0, 10.001429, 9.99779 
5.6513286e+2, 2.7600113e+2, -30515.615, -388556.2, -41998.52, -0.064927824, 0.1758525, -25655.129, 209542.13, 0.0, 10.0025215, 9.997768 
5.651514e+2, 2.8599858e+2, 10772.63, -381021.5, -41703.496, -0.107219845, 0.18105215, 15162.464, 152385.9, 0.00000046127252, 10.002382, 9.997226 
5.651693e+2, 2.959953e+2, -20266.113, -333925.0, -33521.094, -0.15961039, 0.09882594, -16723.682, 22533.537, 0.000007820285, 10.001441, 9.99733 
5.651881e+2, 3.059923e+2, 138629.38, -179419.06, 35502.15, -0.19810614, 0.04779412, 142544.11, 142544.11, 0.00003595913, 10.00199, 9.997788 
5.6521344e+2, 3.159924e+2, 410084.7, 75280.914, 24515.14, 0.34858933, 0.2454987, 411870.22, 411870.22, 0.000094486146, 10.003276, 9.998915 
5.748381e+2, 1.2598416e+2, -1936006.0, -1757010.5, -248663.56, -0.34018347, 0.017150167, -1582229.3, 123126.46, 0.000015098279, 9.9982, 10.000526 
5.7486504e+2, 1.3598655e+2, -1902374.9, -1696128.0, 112520.91, 0.055846076, 0.16720189, -1646623.1, -39288.254, 0.0000026568694, 9.997701, 10.000579 
5.748849e+2, 1.4598686e+2, -1729548.0, -1523802.4, -117548.48, -0.12574273, 0.1335508, -1470468.8, 38864.582, 0.000000050157187, 9.998099, 10.000868 
5.749025e+2, 1.55987e+2, -1460182.3, -1339350.8, -123163.016, -0.066849224, 0.02889311, -1262583.5, 148749.16, 0.0, 9.9992695, 10.0008955 
5.749206e+2, 1.6598791e+2, -1392567.6, -1289218.5, -54650.07, -0.0395115, 0.05092429, -1265680.8, 47642.9, 0.0, 9.9992, 10.000598 
5.7493967e+2, 1.7598905e+2, -1417519.1, -1256743.8, -40449.25, -0.02673846, 0.082539044, -1247140.8, -31828.723, 0.0, 9.998379, 10.0005455 
5.749587e+2, 1.8598947e+2, -1243198.1, -1164146.1, -34348.035, -0.014048717, 0.096975684, -1151307.1, -34000.375, 0.0, 9.999093, 10.000157 
5.7497764e+2, 1.9598919e+2, -904147.75, -961369.25, 7659.0537, -0.004487823, 0.03201979, -903140.3, 116167.48, 0.0, 10.000796, 10.000055 
5.7499635e+2, 2.0598836e+2, -920268.2, -1054681.8, 193.50134, -0.029695224, 0.013664061, -920267.94, 1047.0085, 0.0, 10.000604, 9.998835 
5.7501477e+2, 2.1598697e+2, -1038086.06, -1055510.3, -6629.588, -0.08053785, -0.031054646, -1035850.44, -212522.64, 0.0, 9.999101, 9.9988785 
5.750349e+2, 2.2598597e+2, -857649.8, -906419.2, 10749.776, -0.054605257, -0.01976076, -855385.5, -130047.74, 0.0, 9.999609, 9.998986 
5.7505614e+2, 2.3598504e+2, -501910.8, -691053.1, -3343.1245, 0.02403538, -0.03433686, -501851.75, 125496.16, 0.0, 10.001409, 9.998925 
5.750759e+2, 2.4598436e+2, -416327.9, -693447.0, -55469.883, 0.0054836865, 0.05510222, -405637.13, 123720.805, 0.0, 10.001737, 9.998077 
5.750947e+2, 2.5598365e+2, -424127.38, -643172.8, -50846.15, -0.087262854, 0.15412518, -412900.13, 18469.615, 0.0, 10.000988, 9.9981165 
5.751145e+2, 2.6598218e+2, -241259.05, -466217.6, -21456.367, -0.13182934, 0.18182199, -239230.84, 94154.13, 0.0, 10.001411, 9.99845 
5.751348e+2, 2.7597994e+2, 7666.1943, -296767.0, -202.73407, -0.14981279, 0.09003411, 7666.329, 243071.0, 0.0, 10.002451, 9.99844 
5.751543e+2, 2.8597784e+2, 44251.785, -299613.1, -90551.02, -0.07690645, 0.07296104, 66639.32, 204063.11, 0.0000006054728, 10.002332, 9.99781 
5.751731e+2, 2.9597571e+2, 7707.87, -268226.6, -47260.44, 0.05217297, 0.04895127, 15577.897, 55021.445, 0.000009307056, 10.0014105, 9.997795 
5.7519126e+2, 3.0597195e+2, 126209.49, -211292.0, 79226.32, -0.10050418, -0.08612901, 143881.98, 143881.98, 0.000040671366, 10.002011, 9.997567 
5.7521504e+2, 3.159712e+2, 360686.84, -24295.12, 102026.08, 0.12678462, 0.053253993, 386053.84, 386053.84, 0.000103750725, 10.003248, 9.998256 
5.8483654e+2, 1.2596245e+2, -2006357.4, -1784801.9, -255808.58, -0.27284092, -0.08789037, -1616814.9, 88751.15, 0.000008007214, 9.997665, 10.000605 
5.848622e+2, 1.3596624e+2, -1804280.4, -1629210.0, 160686.64, -0.017709415, 0.18712695, -1533762.6, 73769.375, 0.0000012151539, 9.998289, 10.000759 
5.8488417e+2, 1.4596684e+2, -1705589.5, -1494079.3, -19411.496, -0.00092360633, 0.16816314, -1492312.5, 17215.08, 0.000000012980553, 9.9982, 10.001009 
5.849012e+2, 1.559663e+2, -1624068.1, -1400574.3, -98190.97, -0.053785607, -0.02313725, -1363563.5, 47969.62, 0.0, 9.998079, 10.001036 
5.849191e+2, 1.659671e+2, -1514938.1, -1349043.5, -48750.523, -0.065097824, -0.017975137, -1335778.1, -22253.236, 0.0, 9.998359, 10.000592 
5.8493847e+2, 1.7596859e+2, -1344298.4, -1218248.5, -47206.508, -0.0036102782, 0.047182303, -1202529.6, 12980.161, 0.0, 9.998867, 10.00057 
5.849582e+2, 1.8596923e+2, -1179505.1, -1140521.1, -12552.856, 0.009400711, 0.0851139, -1136828.9, -19325.75, 0.0, 9.999555, 10.000103 
5.84978e+2, 1.9596907e+2, -975682.2, -1001516.0, -66580.64, -0.018595517, 0.039745785, -920777.06, 98727.555, 0.0, 10.00032, 10.000016 
5.8499694e+2, 2.059684e+2, -894121.9, -1022265.75, -113072.45, -0.022333818, 0.030171629, -828230.0, 93279.914, 0.0, 10.000695, 9.999011 
5.850154e+2, 2.159672e+2, -780761.2, -920412.8, -74762.79, -0.0028522215, -0.015232677, -748287.9, 75231.766, 0.0, 10.000812, 9.998985 
5.850358e+2, 2.2596604e+2, -746736.44, -909922.56, 38961.703, 0.033871748, 0.0030280724, -737911.4, -12379.274, 0.0, 10.00063, 9.998471 
5.8505744e+2, 2.3596467e+2, -698212.0, -839195.3, 4765.4424, 0.07791053, -0.00018488211, -698051.06, -70502.28, 0.0, 10.000292, 9.998453 
5.850773e+2, 2.4596353e+2, -560599.6, -756555.4, -30219.844, 0.02504118, 0.06349796, -556045.06, -26482.277, 0.0, 10.000708, 9.998139 
5.8509594e+2, 2.5596243e+2, -307416.63, -576396.25, -21934.484, -0.094113484, 0.11200461, -305639.66, 125936.47, 0.0, 10.001743, 9.998202 
5.85116e+2, 2.6596093e+2, -194014.06, -439301.03, 11922.781, -0.12669192, 0.13317262, -193435.89, 140155.23, 0.0, 10.001735, 9.998471 
5.8513707e+2, 2.7595899e+2, -190582.3, -389077.53, -34117.625, -0.09376885, 0.06803185, -184881.83, 50727.57, 0.0, 10.00109, 9.998459 
5.851569e+2, 2.8595713e+2, -68171.05, -330655.5, -144597.0, 0.0054757507, 0.06496716, -4137.0254, 133488.89, 0.00000055145284, 10.001461, 9.9980135 
5.8517605e+2, 2.9595524e+2, 172484.28, -168243.28, -147457.4, 0.15814885, 0.04626702, 227436.95, 267079.2, 0.000008783807, 10.002452, 9.99798 
5.8519405e+2, 3.059517e+2, 328615.75, -79917.98, 44546.21, -0.08135864, -0.08782518, 333416.63, 333416.63, 0.000039667964, 10.003254, 9.997866 
5.852181e+2, 3.1595042e+2, 423705.56, -15319.5, 54637.082, 0.08887428, -0.03614215, 430403.03, 430403.03, 0.00010388018, 10.003778, 9.998049 
5.948363e+2, 1.2594076e+2, -1908723.5, -1578688.4, -240868.34, -0.12072668, -0.1541768, -1451732.8, 254042.77, 0.0000033727015, 9.99767, 10.002008 
5.948591e+2, 1.3594294e+2, -1725788.0, -1462546.3, 182421.69, -0.17353812, -0.17745358, -1369218.9, 238530.6, 0.00000044999516, 9.998285, 10.001902 
5.948828e+2, 1.459446e+2, -1743621.5, -1568171.6, -40980.83, 0.014925543, -0.112696245, -1559071.5, -49336.957, 0.000000014541682, 9.998178, 10.00051 
5.9489954e+2, 1.5594651e+2, -1660350.8, -1471392.6, -90959.3, -0.05419137, -0.009849894, -1434723.4, -23001.676, 0.0, 9.9980545, 10.000565 
5.949173e+2, 1.6594723e+2, -1519962.9, -1345908.4, -39496.105, -0.098317645, 0.0077826786, -1337365.4, -23650.404, 0.0, 9.998305, 10.00064 
5.949371e+2, 1.7594679e+2, -1350792.1, -1223713.8, -16736.623, -0.055501565, -0.12379249, -1221546.5, -5830.1226, 0.0, 9.9988365, 10.000548 
5.949571e+2, 1.8594706e+2, -1256160.4, -1286932.6, 4620.28, -0.07242283, -0.06805596, -1255481.6, -137765.27, 0.0, 9.9995, 9.999125 
5.9497726e+2, 1.9594774e+2, -1045304.1, -1124731.9, -30946.04, -0.14671469, 0.064248316, -1034670.7, -14954.044, 0.0, 10.000232, 9.999212 
5.9499747e+2, 2.0594776e+2, -837442.7, -882758.8, -118838.28, -0.06542841, 0.10672445, -739121.75, 182594.28, 0.0, 10.000598, 10.000018 
5.9501785e+2, 2.159471e+2, -737199.75, -802761.94, -61113.336, 0.13300137, 0.017981678, -700630.7, 123086.29, 0.0, 10.000694, 9.999851 
5.950378e+2, 2.25946e+2, -791839.8, -987812.6, 14714.798, 0.1544485, 0.028597377, -790741.1, -65013.094, 0.0, 10.000552, 9.997978 
5.9505755e+2, 2.3594433e+2, -743404.8, -910181.94, 7033.242, 0.044728126, 0.044412006, -743108.75, -115360.36, 0.0, 10.000186, 9.998022 
5.9507746e+2, 2.4594238e+2, -540140.94, -703461.4, -198.19843, -0.056479145, 0.024223357, -540140.7, -10373.138, 0.0, 10.000653, 9.998534 
5.9509736e+2, 2.5594014e+2, -296781.63, -536248.7, 19726.896, -0.15179068, -0.08183175, -295167.44, 136619.6, 0.0, 10.001659, 9.998521 
5.9511805e+2, 2.6593894e+2, -242072.95, -529416.06, -23748.814, -0.11898236, -0.014621048, -240123.36, 93676.83, 0.0, 10.001696, 9.997873 
5.951392e+2, 2.759382e+2, -239645.14, -478798.56, -39849.176, -0.008040407, 0.10461488, -233180.0, 2631.6313, 0.0, 10.001036, 9.997871 
5.95159e+2, 2.8593644e+2, -86253.25, -360596.94, -115984.586, 0.04501515, 0.14868855, -43790.64, 94039.06, 0.0000003359344, 10.001431, 9.997819 
5.9517765e+2, 2.9593387e+2, 158247.03, -183323.28, -100646.59, 0.053830452, 0.07950397, 185697.36, 225550.38, 0.000006914508, 10.002396, 9.997898 
5.9519607e+2, 3.0593154e+2, 377677.84, 29120.377, 57928.12, -0.22682354, 0.025373103, 387052.97, 387052.97, 0.000035638073, 10.003221, 9.998634 
5.952216e+2, 3.1593034e+2, 428785.0, 20581.28, 86045.88, 0.0017451174, 0.014553184, 446181.38, 446181.38, 0.00009897654, 10.003673, 9.998346 
6.0483664e+2, 1.2592056e+2, -1651726.6, -1501407.0, -122871.07, 0.06019835, -0.13335611, -1432531.1, 273441.9, 0.0000011596172, 9.999613, 10.001623 
6.048562e+2, 1.359213e+2, -1712740.0, -1489075.5, 67696.74, -0.29449442, -0.2595116, -1470181.6, 137780.16, 0.00000014603442, 9.998536, 10.00159 
6.04881e+2, 1.4592315e+2, -1764133.6, -1533885.9, -132033.34, 0.0399503, -0.17832124, -1473834.8, 36109.566, 0.0000000031309833, 9.997841, 10.000917 
6.0489804e+2, 1.5592612e+2, -1634688.3, -1417833.8, -132867.02, -0.00016121216, -0.00796075, -1354767.3, 57152.113, 0.0, 9.998052, 10.000939 
6.0491604e+2, 1.6592689e+2, -1436900.1, -1332109.8, -11053.256, -0.0793446, 0.0074670827, -1330956.5, -17044.77, 0.0, 9.998978, 10.000416 
6.049361e+2, 1.759258e+2, -1153321.3, -1155607.4, -34441.35, -0.10057229, -0.16339348, -1120004.0, 95915.5, 0.0, 10.000302, 10.000315 
6.0495657e+2, 1.8592578e+2, -1181689.0, -1263084.9, -7019.2, -0.09972349, -0.122351386, -1181088.1, -63165.473, 0.0, 10.00007, 9.999013 
6.04977e+2, 1.9592631e+2, -1269874.3, -1242038.3, 7940.111, -0.10914432, 0.0073261685, -1239932.8, -220008.42, 0.0, 9.998731, 9.999133 
6.0499763e+2, 2.059265e+2, -1022878.3, -960812.75, -27256.85, -0.030482296, 0.06341164, -950542.1, -28619.47, 0.0, 9.999281, 10.00012 
6.050185e+2, 2.1592616e+2, -668077.8, -759032.8, -63048.402, 0.12043223, -0.0018793399, -635816.6, 188104.9, 0.0, 10.001122, 9.999946 
6.0503876e+2, 2.2592527e+2, -620477.7, -897389.8, -16078.625, 0.13945512, 0.022650165, -619547.25, 106383.17, 0.0, 10.001706, 9.998037 
6.050585e+2, 2.3592375e+2, -558748.06, -809110.9, 258.24048, 0.063832544, 0.04694175, -558747.8, 69200.46, 0.0, 10.001423, 9.998106 
6.050788e+2, 2.4592158e+2, -447585.84, -664482.6, 41160.574, -0.011774546, 0.0044751423, -440037.5, 89931.17, 0.0, 10.001345, 9.998459 
6.050995e+2, 2.5591877e+2, -334650.16, -564809.4, 958.7891, -0.08546111, -0.14366011, -334646.16, 97346.17, 0.0, 10.001461, 9.99842 
6.051202e+2, 2.6591748e+2, -286450.47, -563726.7, -50945.254, -0.058563866, -0.07533071, -277386.34, 56619.656, 0.0, 10.0014305, 9.997774 
6.051408e+2, 2.75917e+2, -212674.11, -479670.2, -44711.02, 0.04082614, 0.077492304, -205385.78, 30629.266, 0.0, 10.0012665, 9.99776 
6.0516083e+2, 2.859148e+2, -27381.969, -376980.34, -35427.37, 0.057865478, 0.10523829, -23827.982, 114209.81, 0.00000016006682, 10.002032, 9.9974165 
6.051803e+2, 2.9591137e+2, 287803.66, -163596.47, -66318.25, 0.02600623, -0.009525128, 297345.22, 337415.7, 0.0000052467194, 10.003469, 9.997519 
6.0519904e+2, 3.0590975e+2, 366701.03, 7052.821, 9651.684, -0.23435326, 0.034157865, 366959.88, 366959.88, 0.000031333126, 10.003226, 9.99848 
6.052252e+2, 3.1590804e+2, 127013.2, -119857.125, -87875.67, 0.12403131, -0.0040148753, 155098.25, 155098.25, 0.00009226463, 10.001569, 9.99841 
6.1483717e+2, 1.259022e+2, -1801615.6, -1812865.5, -117579.555, 0.095493905, -0.003919188, -1689526.5, 16628.936, 0.000000319301, 9.999628, 9.99947 
6.14853e+2, 1.3590154e+2, -1856613.3, -1783011.1, 30330.604, -0.48825118, -0.03630812, -1772122.9, -163955.38, 0.000000018009526, 9.998529, 9.999571 
6.1487836e+2, 1.4590257e+2, -1670783.4, -1343765.8, -146435.67, -0.038128067, -0.015253637, -1287778.5, 222378.14, 0.0, 9.997846, 10.002222 
6.148964e+2, 1.5590505e+2, -1547578.1, -1248071.3, -112405.41, 0.009527505, -0.025362168, -1210578.6, 201548.47, 0.0, 9.998079, 10.002098 
6.149149e+2, 1.6590601e+2, -1478609.3, -1406486.4, 28931.432, -0.10963907, -0.02010442, -1396315.3, -82199.35, 0.0, 9.998934, 9.999925 
6.149353e+2, 1.7590562e+2, -1184307.8, -1216819.6, 17707.18, -0.23115247, -0.07348409, -1176526.3, 39593.793, 0.0, 10.000286, 9.999905 
6.1495614e+2, 1.8590535e+2, -1136961.4, -1153095.1, -66948.31, -0.16712855, -0.07849427, -1077595.8, 40526.77, 0.0, 9.999996, 9.999801 
6.1497706e+2, 1.9590499e+2, -1234895.0, -1156839.3, -20503.033, 0.0016535003, -0.11732335, -1151781.5, -131655.66, 0.0, 9.998671, 9.99975 
6.1499727e+2, 2.0590478e+2, -1094939.6, -1084786.8, 33247.914, -0.011345786, -0.08399761, -1056230.0, -134101.7, 0.0, 9.999173, 9.999319 
6.150173e+2, 2.1590446e+2, -736864.1, -870809.0, 8539.915, -0.13554125, -0.067924045, -736321.9, 87810.51, 0.0, 10.000986, 9.999246 
6.150382e+2, 2.2590391e+2, -594864.94, -818202.94, -35049.027, -0.10330275, -0.008990839, -589493.8, 136644.73, 0.0, 10.001589, 9.998639 
6.150598e+2, 2.3590302e+2, -540327.8, -744587.8, 1290.0372, 0.034896262, 0.016499259, -540319.6, 87828.04, 0.0, 10.001307, 9.998606 
6.150811e+2, 2.4590111e+2, -498193.66, -756593.5, 33519.504, 0.059209097, 0.0078496225, -493916.34, 36249.914, 0.0, 10.001284, 9.997857 
6.15102e+2, 2.5589827e+2, -382336.97, -648345.8, 13318.391, -0.0035201244, -0.0856243, -381671.8, 50521.38, 0.0, 10.00139, 9.997882 
6.1512196e+2, 2.6589656e+2, -264542.75, -508590.4, -66301.2, -0.039244603, -0.055298544, -247693.73, 86515.32, 0.0, 10.0013895, 9.998172 
6.151413e+2, 2.758954e+2, -201271.66, -439596.25, -33140.133, -0.056550678, -0.011714568, -196749.19, 39470.297, 0.0, 10.001199, 9.998064 
6.15162e+2, 2.8589228e+2, -73632.55, -469790.34, 8705.259, -0.053109806, -0.054258984, -73441.35, 64808.28, 0.00000012615395, 10.002014, 9.996788 
6.151833e+2, 2.9588786e+2, 229151.28, -262115.69, -8126.194, -0.05011885, -0.20967063, 229285.67, 269578.9, 0.000004351736, 10.003373, 9.996884 
6.152027e+2, 3.058865e+2, 284606.66, -158797.73, -55844.45, -0.21611857, -0.05086674, 291531.8, 291531.8, 0.000027327982, 10.003199, 9.997364 
6.152284e+2, 3.1588396e+2, 105502.336, -152273.31, -134393.45, 0.22892544, -0.06183145, 162823.19, 162823.19, 0.00008384043, 10.001518, 9.998215 
6.2483674e+2, 1.2588345e+2, -1709054.1, -1815217.4, -63799.707, 0.064935505, 0.07673522, -1679141.4, 27200.266, 0.00000004128188, 10.000438, 9.999083 
6.248515e+2, 1.3588272e+2, -1897627.8, -1855068.5, 98836.12, -0.4794634, 0.08920218, -1775247.3, -166891.81, 0.000000000001578113, 9.998457, 9.999125 
6.248771e+2, 1.4588293e+2, -1643526.0, -1355326.0, 34083.957, 0.045721095, 0.059358347, -1351350.0, 159001.81, 0.0, 9.9981365, 10.002005 
6.248953e+2, 1.5588431e+2, -1319533.0, -1155339.9, -62969.074, 0.009412954, -0.0426493, -1133971.6, 278359.28, 0.0, 9.999743, 10.001919 
6.2491417e+2, 1.6588514e+2, -1354755.1, -1372901.1, 36667.953, -0.11690101, -0.028551208, -1326054.4, -11733.502, 0.0, 9.9999075, 9.999679 
6.249353e+2, 1.758853e+2, -1406502.5, -1338932.0, 17125.326, -0.17863841, -0.0026764541, -1334839.6, -118518.66, 0.0, 9.998852, 9.999744 
6.2495637e+2, 1.8588495e+2, -1204486.5, -1155572.1, -60321.848, -0.104879275, -0.024630971, -1114938.0, 3384.5776, 0.0, 9.99938, 10.000088 
6.24977e+2, 1.95884e+2, -879977.4, -955695.06, -66914.64, 0.024094658, -0.15362374, -840954.06, 179373.88, 0.0, 10.000973, 10.000018 
6.249972e+2, 2.0588356e+2, -855599.06, -1005615.25, 20021.648, -0.017266829, -0.13793673, -852972.9, 69359.16, 0.0, 10.000963, 9.999007 
6.250174e+2, 2.1588326e+2, -931366.4, -988363.06, 16270.615, -0.1524864, -0.09151573, -927048.75, -102711.05, 0.0, 9.999761, 9.999028 
6.250389e+2, 2.2588262e+2, -797930.6, -904148.0, -2545.6045, -0.1096951, -0.03911666, -797869.6, -71524.6, 0.0, 10.000139, 9.998747 
6.250614e+2, 2.358815e+2, -484393.88, -711425.2, -24947.525, 0.056981772, -0.04446029, -481684.8, 146671.05, 0.0, 10.00165, 9.998676 
6.25083e+2, 2.4587989e+2, -419314.94, -718049.56, 6292.8364, 0.108966015, -0.025865389, -419182.44, 111189.39, 0.0, 10.001806, 9.997878 
6.2510395e+2, 2.5587773e+2, -427217.97, -666154.9, 15443.395, 0.07700697, -0.05131628, -426223.94, 6169.0767, 0.0, 10.001059, 9.997921 
6.2512404e+2, 2.6587576e+2, -242926.63, -496223.13, -14035.755, 0.0260665, -0.052333873, -242151.23, 92259.67, 0.0, 10.001527, 9.998186 
6.2514347e+2, 2.7587357e+2, 36668.914, -325542.34, -32762.02, -0.035200782, -0.11461355, 39608.383, 276038.03, 0.0, 10.002826, 9.998063 
6.251645e+2, 2.858705e+2, 68844.625, -405147.88, 40081.0, -0.041614745, -0.15172316, 72209.99, 210669.38, 0.000000116905284, 10.003013, 9.996757 
6.251864e+2, 2.9586682e+2, 85272.195, -346675.72, 37344.832, -0.014509377, -0.22328465, 88477.13, 128973.65, 0.000004287332, 10.00243, 9.996771 
6.2520576e+2, 3.058651e+2, 120908.336, -277856.22, 20537.36, -0.16793194, -0.07305655, 121963.27, 121963.27, 0.000025852014, 10.002266, 9.9969845 
6.252303e+2, 3.1586233e+2, 238160.75, -44057.957, -67735.43, 0.24209122, -0.07849689, 253575.95, 253575.95, 0.00007870898, 10.00225, 9.998595 
6.3483495e+2, 1.2586409e+2, -1587638.8, -1577851.0, -86805.42, -0.21144794, 0.10049368, -1495801.6, 210731.94, 0.000000010756334, 10.000502, 10.00068 
6.3485134e+2, 1.3586478e+2, -1815784.6, -1683334.3, 28902.83, -0.36614966, 0.10426017, -1677301.9, -68776.234, 0.0, 9.998445, 10.000311 
6.34877e+2, 1.4586431e+2, -1768004.8, -1601606.0, 79713.19, 0.19586147, 0.045489836, -1569582.5, -59054.12, 0.0, 9.998091, 10.000335 
6.348943e+2, 1.5586391e+2, -1423605.9, -1380814.5, 5847.69, -0.09112711, -0.06567562, -1380029.9, 32500.273, 0.0, 9.999777, 10.0003605 
6.349135e+2, 1.658642e+2, -1359410.0, -1378743.0, -14823.423, -0.19806774, -0.03165609, -1351379.8, -36852.51, 0.0, 9.999887, 9.999649 
6.3493586e+2, 1.7586476e+2, -1411512.6, -1349888.8, -5174.5522, -0.033059575, 0.039199598, -1349457.3, -132933.75, 0.0, 9.998841, 9.999682 
6.349569e+2, 1.8586442e+2, -1224635.8, -1181205.8, -9519.933, -0.010051203, 0.02864084, -1179210.6, -60685.816, 0.0, 9.999316, 9.999939 
6.3497657e+2, 1.9586323e+2, -899415.3, -980147.0, -7447.427, -0.14038473, -0.10876906, -898734.0, 121798.03, 0.0, 10.000902, 9.999884 
6.3499707e+2, 2.0586275e+2, -857591.7, -980608.9, -36314.12, -0.14018795, -0.1043372, -847671.9, 74863.336, 0.0, 10.00084, 9.999236 
6.3501847e+2, 2.1586251e+2, -938134.0, -969643.56, -9683.7295, -0.0317954, -0.0742677, -935395.9, -110858.18, 0.0, 9.99962, 9.999223 
6.350406e+2, 2.2586131e+2, -841611.4, -968162.1, 45621.79, 0.024455832, -0.06686429, -826879.56, -100329.2, 0.0, 10.000022, 9.998364 
6.35063e+2, 2.3585917e+2, -525174.9, -765601.94, 37068.938, 0.030595409, -0.13936971, -519589.38, 108983.35, 0.0, 10.001515, 9.99837 
6.3508433e+2, 2.4585797e+2, -389415.0, -636060.0, -30437.875, 0.03962837, -0.09745012, -385714.28, 144870.55, 0.0, 10.001722, 9.998481 
6.35105e+2, 2.5585726e+2, -403077.38, -597603.4, 2870.3083, 0.060408287, -0.0405707, -403035.03, 29556.49, 0.0, 10.000975, 9.998434 
6.35126e+2, 2.658551e+2, -279167.44, -554355.3, 24661.822, 0.049656585, -0.061193597, -276974.75, 57636.785, 0.0, 10.00146, 9.997817 
6.351469e+2, 2.7585164e+2, -4756.599, -378017.97, 22872.266, 0.0025799084, -0.21617113, -3360.283, 233283.83, 0.0, 10.0026865, 9.997768 
6.35168e+2, 2.8584936e+2, 98188.29, -329004.47, 7035.9155, -0.010051528, -0.18588401, 98304.14, 236970.81, 0.0000001448745, 10.002948, 9.997313 
6.3518935e+2, 2.958481e+2, 103001.43, -285047.56, 33749.543, 0.0064844154, -0.06861052, 105914.83, 146596.02, 0.000005079309, 10.002338, 9.997234 
6.3520795e+2, 3.0584565e+2, 135188.02, -256100.69, 19036.828, -0.20486695, -0.021242682, 136112.02, 136112.02, 0.000027855136, 10.00228, 9.997135 
6.352303e+2, 3.158426e+2, 271259.1, 47973.574, -43808.168, -0.03767059, -0.07984108, 279546.6, 279546.6, 0.00008149468, 10.002143, 9.999285 
6.448346e+2, 1.2584282e+2, -1850377.4, -1652250.4, -74703.734, -0.18663299, 0.037938833, -1627240.4, 79500.82, 0.0000000047013002, 9.998472, 10.001145 
6.4485127e+2, 1.3584383e+2, -1623052.3, -1539099.5, -158624.45, -0.2603653, 0.023235116, -1416991.4, 191735.83, 0.0, 9.999583, 10.000726 
6.4487636e+2, 1.4584337e+2, -1586898.9, -1591056.4, -21178.115, 0.25079924, -0.018365279, -1567697.8, -56967.098, 0.0, 9.999667, 9.999646 
6.4489394e+2, 1.558431e+2, -1529796.1, -1499128.8, -45812.582, -0.069940545, -0.048416395, -1466151.9, -53417.418, 0.0, 9.999337, 9.99976 
6.449135e+2, 1.6584317e+2, -1390158.3, -1384413.5, -37050.77, -0.1659776, -0.011678286, -1350123.9, -35389.84, 0.0, 9.999637, 9.999733 
6.44936e+2, 1.7584327e+2, -1181725.9, -1230461.6, -32566.678, 0.03247071, 0.004197328, -1165419.6, 51313.43, 0.0, 10.000387, 9.999755 
6.4495707e+2, 1.8584281e+2, -1120643.3, -1161090.6, -1207.9154, 0.041611794, -0.005428727, -1120607.1, -1871.7621, 0.0, 10.000165, 9.999668 
6.449766e+2, 1.9584176e+2, -1170598.6, -1134791.9, -30356.193, -0.12590104, -0.10199936, -1117452.8, -96710.53, 0.0, 9.999158, 9.999659 
6.449975e+2, 2.0584126e+2, -1017062.75, -1043093.8, -50419.918, -0.11700335, -0.09632027, -978005.56, -55260.313, 0.0, 9.999681, 9.999361 
6.4501953e+2, 2.158409e+2, -693219.6, -843572.94, -56040.7, 0.037532702, -0.089956835, -674630.1, 150117.77, 0.0, 10.00126, 9.999299 
6.4504176e+2, 2.2583975e+2, -658241.25, -880439.0, 32194.895, 0.088032864, -0.081100635, -653670.5, 73089.83, 0.0, 10.001274, 9.998368 
6.45064e+2, 2.358378e+2, -715768.0, -850643.5, 28042.764, 0.057822496, -0.13733959, -710169.8, -81388.21, 0.0, 10.000177, 9.998427 
6.4508516e+2, 2.4583669e+2, -594293.6, -709801.25, -24759.025, 0.031618595, -0.10151633, -589210.25, -58417.08, 0.0, 10.000215, 9.998705 
6.451056e+2, 2.5583598e+2, -370794.72, -553361.94, -33282.66, 0.020909851, -0.06263704, -364916.44, 67882.92, 0.0, 10.001081, 9.998687 
6.451271e+2, 2.6583427e+2, -299284.03, -538375.25, 38043.996, 0.04239257, -0.066302225, -293376.47, 41439.27, 0.0, 10.001206, 9.998054 
6.451495e+2, 2.758315e+2, -254162.92, -465755.28, 54094.465, 0.09762983, -0.17222483, -241135.52, -4293.4785, 0.000000000000000000046744374, 10.000834, 9.998063 
6.4517105e+2, 2.8583008e+2, -116949.37, -339914.7, 77450.336, 0.09521228, -0.11968346, -92686.164, 46169.637, 0.00000034821963, 10.001069, 9.998138 
6.4519167e+2, 2.9582947e+2, 57182.363, -226354.67, 98526.13, 0.0494057, -0.0185486, 88057.16, 128919.05, 0.0000068469953, 10.001662, 9.997964 
6.4521027e+2, 3.0582637e+2, 128799.234, -229434.03, 130925.76, -0.1773986, -0.080716625, 171548.16, 171548.16, 0.00003364889, 10.002125, 9.997376 
6.452322e+2, 3.1582376e+2, 324751.63, 84492.055, 13324.603, -0.063153334, -0.12752464, 325488.34, 325488.34, 0.000093661416, 10.00248, 9.999353 
6.548354e+2, 1.2581967e+2, -1900925.6, -1740832.8, 7768.148, 0.00034302633, -0.117428444, -1740456.8, -33492.242, 0.000000001405694, 9.998408, 10.000566 
6.5485096e+2, 1.3581985e+2, -1647644.5, -1597021.5, -120752.63, -0.27401304, -0.16055848, -1498956.1, 110004.53, 0.0, 9.999621, 10.000305 
6.548748e+2, 1.4581998e+2, -1563101.6, -1545914.4, -52849.445, 0.108240165, -0.14373727, -1500964.4, 9995.586, 0.0, 9.999683, 9.999952 
6.5489393e+2, 1.5582182e+2, -1514985.4, -1464250.3, -45044.09, -0.027712684, 0.011904328, -1437921.8, -24977.23, 0.0, 9.999311, 10.000018 
6.5491384e+2, 1.6582204e+2, -1377365.6, -1345736.0, -19859.943, -0.12458918, 0.0363503, -1336163.4, -21221.982, 0.0, 9.999587, 10.000016 
6.549355e+2, 1.7582081e+2, -1167389.0, -1198781.6, 1191.1368, -0.08690478, -0.107779846, -1167343.9, 49605.64, 0.0, 10.00038, 9.999972 
6.549566e+2, 1.8582013e+2, -1154961.1, -1219611.5, -50462.875, -0.043874476, -0.13099036, -1127357.9, -8403.812, 0.0, 10.00011, 9.999293 
6.549769e+2, 1.9581963e+2, -1204161.5, -1186335.3, -48855.52, -0.032788757, -0.13728052, -1145586.5, -124628.375, 0.0, 9.999083, 9.999341 
6.549982e+2, 2.0581916e+2, -1035019.44, -1059470.8, -536.87195, -0.03695561, -0.110858, -1035007.6, -112045.65, 0.0, 9.999586, 9.999301 
6.550201e+2, 2.1581843e+2, -713564.5, -853382.0, 5761.49, -0.046184357, -0.13564862, -713327.44, 111641.0, 0.0, 10.001121, 9.9993 
6.5504223e+2, 2.2581793e+2, -654140.6, -838393.9, -19498.836, -0.010806141, -0.07999727, -652099.75, 74874.87, 0.0, 10.001135, 9.99872 
6.550642e+2, 2.3581734e+2, -714127.8, -814082.2, 3013.3777, 0.044536017, -0.03666029, -714037.06, -85053.95, 0.0, 10.00004, 9.998741 
6.5508515e+2, 2.45816e+2, -613824.4, -728176.9, -2952.9753, -0.0075899777, -0.03177927, -613748.2, -82751.234, 0.0, 10.000123, 9.99862 
6.5510523e+2, 2.5581396e+2, -386828.6, -561366.75, 7529.664, -0.14331934, -0.122317806, -386504.34, 46512.22, 0.0, 10.000978, 9.998678 
6.5512735e+2, 2.6581317e+2, -246474.4, -424084.06, 13612.058, -0.08489376, -0.07438129, -245437.23, 89586.56, 0.0, 10.001178, 9.998856 
6.5515095e+2, 2.758131e+2, -202292.94, -351046.4, 56561.977, 0.12884508, 0.012406717, -183229.03, 53794.813, 0.0000000002377775, 10.000792, 9.998878 
6.5517277e+2, 2.8581247e+2, -46903.3, -180513.08, 87963.57, 0.1465909, 0.04627565, -3252.394, 135775.06, 0.0000008000927, 10.001019, 9.999251 
6.551931e+2, 2.95811e+2, 109577.18, -84314.17, 129659.234, -0.0055638426, -0.0541083, 174526.47, 215564.27, 0.000010270006, 10.001529, 9.998999 
6.552124e+2, 3.058074e+2, 145616.08, -193199.1, 133278.73, -0.20338602, -0.22575772, 191759.3, 191759.3, 0.00004390313, 10.002108, 9.997642 
6.552353e+2, 3.1580526e+2, 287425.72, 10011.03, 57888.94, -0.06039332, -0.24516542, 299020.94, 299020.94, 0.00011355634, 10.002459, 9.99886 
6.64834e+2, 1.2579764e+2, -1969956.3, -1771914.1, 60988.85, 0.06576014, -0.08078532, -1754639.0, -47458.164, 0.00000000035571668, 9.997915, 10.000594 
6.64851e+2, 1.3579795e+2, -1773795.0, -1640670.9, -106253.29, -0.17422171, -0.13016659, -1581852.4, 27323.705, 0.0, 9.99866, 10.000486 
6.648739e+2, 1.4579813e+2, -1617457.5, -1524788.3, -16218.011, 0.08327967, -0.13925074, -1522032.0, -10857.689, 0.0, 9.999117, 10.000364 
6.648933e+2, 1.5580027e+2, -1422673.1, -1377097.6, -21236.979, -0.03594361, 0.0028196597, -1368735.9, 44418.684, 0.0, 9.999775, 10.000384 
6.6491383e+2, 1.658006e+2, -1315356.8, -1318421.6, 29649.986, -0.09471055, 0.02337697, -1287199.6, 27950.082, 0.0, 10.000022, 10.000001 
6.6493624e+2, 1.757993e+2, -1241852.8, -1235780.8, 4363.458, -0.014442389, -0.1269427, -1233501.0, -16342.309, 0.0, 9.999865, 9.99997 
6.6495746e+2, 1.8579857e+2, -1151975.4, -1222302.9, -39707.12, 0.03829305, -0.15289368, -1134100.1, -14936.06, 0.0, 10.000164, 9.999242 
6.649775e+2, 1.9579802e+2, -955010.1, -1075455.8, -35653.508, 0.03422121, -0.15609898, -945247.56, 75921.41, 0.0, 10.000829, 9.999262 
6.6499865e+2, 2.0579746e+2, -879911.25, -979497.6, 63876.836, 0.009690521, -0.13657433, -848713.0, 74460.71, 0.0, 10.000638, 9.99934 
6.650208e+2, 2.157967e+2, -905126.06, -939879.3, 51387.367, -0.019591874, -0.16997646, -868256.9, -43076.234, 0.0, 9.999788, 9.999347 
6.6504276e+2, 2.2579645e+2, -819340.8, -884845.56, 26825.422, 0.003668163, -0.10606773, -809757.4, -82573.5, 0.0, 9.999858, 9.999021 
6.650646e+2, 2.3579645e+2, -620864.44, -740625.5, 27194.541, 0.056785822, -0.03146917, -614978.56, 14207.613, 0.0, 10.000557, 9.999003 
6.650858e+2, 2.4579515e+2, -518658.66, -680614.8, 64356.348, 0.028043749, -0.036636807, -496199.84, 34999.367, 0.0, 10.00075, 9.9986515 
6.651068e+2, 2.557927e+2, -446456.94, -588631.3, 56235.043, -0.057607148, -0.17149611, -426903.25, 6318.993, 0.0, 10.00054, 9.998711 
6.651288e+2, 2.6579186e+2, -284980.13, -424142.6, 53687.348, -0.026393631, -0.13779357, -266675.75, 68553.65, 0.0, 10.0008335, 9.9990225 
6.651517e+2, 2.7579212e+2, -87496.12, -276941.47, 27761.639, 0.10102934, -0.037067905, -83511.68, 153714.34, 0.0000000023427176, 10.001513, 9.999032 
6.6517353e+2, 2.8579146e+2, -19431.004, -207058.67, -1243.9592, 0.10816666, 0.004428004, -19422.756, 119808.24, 0.0000014418595, 10.0013685, 9.998905 
6.6519433e+2, 2.9578954e+2, -42124.29, -177106.7, -83829.27, 0.02108673, -0.10435326, -1993.8889, 39253.156, 0.000014823799, 10.000577, 9.998815 
6.6521484e+2, 3.057865e+2, 66256.31, -152155.22, -39719.484, -0.11352263, -0.25536862, 73255.266, 73255.266, 0.000057815294, 10.001226, 9.998347 
6.6523904e+2, 3.1578466e+2, 348206.34, 75543.76, -120018.15, 0.06402459, -0.30441126, 393508.13, 393508.13, 0.00014076945, 10.002719, 9.999188 
6.7483e+2, 1.2577678e+2, -1925578.5, -1680259.8, 80979.26, -0.18197778, 0.14077556, -1655939.6, 51450.887, 0.0000000023126079, 9.997928, 10.001212 
6.74851e+2, 1.3577826e+2, -1720759.8, -1522232.3, -75201.42, -0.057699274, 0.122962214, -1496962.8, 112409.81, 0.0, 9.998632, 10.001309 
6.748731e+2, 1.4577807e+2, -1584724.3, -1449356.9, -5830.4624, 0.06871891, 0.010634072, -1449106.1, 62264.934, 0.0, 9.9990835, 10.000898 
6.748915e+2, 1.5577865e+2, -1384920.4, -1302916.3, 14528.069, -0.22166058, -0.05453039, -1300418.5, 112944.03, 0.0, 9.999791, 10.000886 
6.749132e+2, 1.6577896e+2, -1335771.6, -1361814.3, 12097.667, -0.18428755, -0.044782333, -1331019.1, -15661.037, 0.0, 10.000019, 9.999708 
6.74938e+2, 1.757788e+2, -1263889.1, -1273220.6, 11140.645, 0.16030574, -0.05324291, -1256476.6, -39116.973, 0.0, 9.999827, 9.999732 
6.749594e+2, 1.857782e+2, -1142421.8, -1191542.9, -26353.818, 0.19313279, -0.068472564, -1130958.1, -11593.542, 0.0, 10.000112, 9.999481 
6.7497784e+2, 1.9577707e+2, -951467.6, -1047498.25, -4372.4624, -0.029877312, -0.15173793, -951268.94, 70104.766, 0.0, 10.000742, 9.999496 
6.7499864e+2, 2.0577632e+2, -891405.7, -983301.1, 21878.889, -0.073216885, -0.16322587, -886462.5, 36916.863, 0.0, 10.000539, 9.999368 
6.750212e+2, 2.1577564e+2, -916377.3, -938143.9, 33739.484, 0.021077534, -0.19362184, -891809.25, -66424.44, 0.0, 9.999674, 9.999415 
6.7504317e+2, 2.2577536e+2, -820032.06, -854668.56, 43072.805, 0.04176806, -0.15116642, -790926.25, -63538.84, 0.0, 9.999725, 9.999291 
6.750646e+2, 2.3577519e+2, -622343.75, -711575.06, 62604.53, -0.0066472427, -0.118352324, -590083.7, 39306.44, 0.0, 10.0004225, 9.999266 
6.750869e+2, 2.457742e+2, -526372.6, -674728.6, 47416.91, 0.043008994, -0.11093529, -512512.34, 18886.643, 0.0, 10.000657, 9.998734 
6.7510974e+2, 2.557723e+2, -458127.44, -593109.06, 60317.184, 0.16488902, -0.19918142, -435102.1, -1686.5906, 0.0, 10.000451, 9.998722 
6.751312e+2, 2.657705e+2, -323012.6, -489403.66, 67278.29, 0.11436863, -0.23766051, -299213.44, 36217.523, 0.0, 10.000777, 9.9986 
6.7515165e+2, 2.7576867e+2, -136694.64, -359268.2, 60198.105, -0.078122616, -0.30230147, -121456.484, 115990.67, 0.0000000015372758, 10.001427, 9.99851 
6.751731e+2, 2.8576714e+2, -133312.16, -443387.88, -41974.535, -0.09668216, -0.23509605, -127730.59, 11733.882, 0.0000017821444, 10.001367, 9.997284 
6.75195e+2, 2.9576546e+2, -145522.8, -379827.0, -90198.87, 0.0028064637, -0.16033937, -114822.09, -73336.01, 0.000019076204, 10.000523, 9.997451 
6.752171e+2, 3.0576366e+2, 134827.39, -802.1573, 11113.488, -0.035963975, -0.182114, 135732.0, 135732.0, 0.000073988194, 10.001193, 9.999397 
6.752424e+2, 3.157624e+2, 404292.44, 228884.17, -23514.031, 0.08077315, -0.27486607, 407389.88, 407389.88, 0.00017626988, 10.00257, 10.000307 
6.8482894e+2, 1.2575392e+2, -1762147.6, -1629097.1, 182820.02, -0.12713729, 0.06077435, -1501074.8, 206533.95, 0.0000000036242784, 9.999136, 10.000995 
6.8485034e+2, 1.3575594e+2, -1745347.0, -1529949.8, -78728.0, 0.030793192, 0.09860172, -1504242.6, 105344.52, 0.0, 9.998455, 10.001331 
6.848715e+2, 1.457559e+2, -1712611.5, -1522733.3, -15860.983, 0.05516333, 0.00398602, -1521417.4, -9832.392, 0.0, 9.998242, 10.000808 
6.848914e+2, 1.5575583e+2, -1578999.0, -1407066.8, -66219.125, -0.1352976, -0.115519196, -1384519.5, 29063.617, 0.0, 9.998489, 10.000811 
6.849135e+2, 1.6575627e+2, -1482842.9, -1408237.0, -58099.395, -0.08811212, -0.10056986, -1376496.1, -60917.58, 0.0, 9.998902, 9.999928 
6.849377e+2, 1.7575687e+2, -1303880.0, -1270703.1, -42806.934, 0.17188913, -0.05679698, -1241382.9, -23808.395, 0.0, 9.999455, 9.999932 
6.8495923e+2, 1.8575685e+2, -1186601.9, -1181428.0, -36391.426, 0.19404438, -0.035351507, -1147531.6, -27957.25, 0.0, 9.999674, 9.999759 
6.849784e+2, 1.9575615e+2, -1103540.9, -1089621.0, -32422.182, 0.021348642, -0.10480977, -1063420.1, -41840.242, 0.0, 9.999565, 9.999767 
6.8499947e+2, 2.057554e+2, -979082.7, -1028543.7, 1390.8304, -0.0077774874, -0.12767737, -979043.6, -55458.25, 0.0, 9.999969, 9.999317 
6.850219e+2, 2.1575437e+2, -760363.4, -870369.6, -13332.282, 0.07159459, -0.18493934, -758770.6, 66822.64, 0.0, 10.000781, 9.999342 
6.850438e+2, 2.2575378e+2, -631179.06, -776286.9, 6770.766, 0.0760395, -0.16646156, -630863.9, 96734.77, 0.0, 10.001066, 9.999184 
6.850655e+2, 2.357533e+2, -557894.25, -694394.3, -23132.508, 0.021876082, -0.15396696, -554080.56, 75523.33, 0.0, 10.00091, 9.99915 
6.8508816e+2, 2.4575238e+2, -449717.78, -650663.7, -38817.22, 0.07642125, -0.12817302, -442480.06, 89132.15, 0.0, 10.00124, 9.998611 
6.8511134e+2, 2.557509e+2, -245217.42, -505737.75, -60424.06, 0.20840366, -0.16013892, -231885.19, 201739.72, 0.0, 10.001991, 9.998573 
6.851329e+2, 2.6574886e+2, -198242.72, -484118.4, -51500.758, 0.15740818, -0.18861693, -189247.83, 146396.28, 0.0, 10.001869, 9.998106 
6.851534e+2, 2.7574626e+2, -219263.94, -446471.9, -84839.65, -0.015853083, -0.287044, -191080.64, 46589.605, 0.00000000039754933, 10.001058, 9.998085 
6.8517476e+2, 2.8574446e+2, -130912.54, -418964.72, -83463.414, -0.05620928, -0.23814063, -108476.45, 31213.213, 0.000001935021, 10.001286, 9.997489 
6.8519634e+2, 2.9574296e+2, 148061.78, -218257.19, -24891.346, -0.0013734571, -0.16311604, 149745.4, 191452.63, 0.000022833043, 10.002444, 9.99764 
6.8521863e+2, 3.0574122e+2, 253439.63, 10937.823, 87349.23, -0.036445554, -0.1656936, 281626.56, 281626.56, 0.00009092674, 10.002207, 9.998988 
6.852441e+2, 3.157397e+2, 90419.51, 64025.92, -73717.74, 0.11320777, -0.23701192, 152112.38, 152112.38, 0.00021663251, 10.000445, 10.00021 
6.948305e+2, 1.2572896e+2, -1825128.8, -1762232.3, 110164.56, 0.06237932, -0.33799437, -1679115.1, 28720.305, 0.00000000017840025, 9.999171, 10.000048 
6.9484854e+2, 1.357309e+2, -1803617.0, -1648722.5, -94877.72, -0.017026255, -0.21710654, -1603695.9, 6124.0283, 0.0, 9.998458, 10.000509 
6.9486886e+2, 1.4573145e+2, -1762089.3, -1625634.3, -19217.727, -0.066744536, -0.18463163, -1622979.4, -111161.58, 0.0, 9.998237, 10.000109 
6.948929e+2, 1.5573168e+2, -1624197.8, -1505022.8, -44216.066, 0.14051953, -0.20052785, -1490409.6, -76591.555, 0.0, 9.998494, 10.000145 
6.949146e+2, 1.6573252e+2, -1439716.4, -1307123.3, -47407.598, 0.10165355, -0.1517944, -1291917.0, 23894.496, 0.0, 9.99886, 10.000637 
6.949349e+2, 1.7573363e+2, -1263237.3, -1174656.3, -11119.019, -0.07983492, -0.12508005, -1173281.9, 44519.5, 0.0, 9.999407, 10.000614 
6.9495654e+2, 1.8573466e+2, -1173224.3, -1137293.6, -48340.73, -0.06331681, -0.04953563, -1103687.9, 16104.375, 0.0, 9.999604, 10.000094 
6.949789e+2, 1.9573537e+2, -1095438.3, -1054011.3, -23011.127, 0.09005495, -0.012284123, -1043764.1, -21977.586, 0.0, 9.99949, 10.000046 
6.9500077e+2, 2.0573476e+2, -1003550.0, -1057922.9, 20536.906, 0.11080251, -0.02677445, -996664.94, -72873.52, 0.0, 9.99987, 9.999166 
6.950224e+2, 2.1573293e+2, -792227.8, -906618.56, 24819.365, 0.03162938, -0.14770798, -787074.9, 38731.402, 0.0, 10.00065, 9.999158 
6.950445e+2, 2.2573173e+2, -683143.56, -856046.6, -8603.719, 0.017843716, -0.15383863, -682716.5, 45100.61, 0.0, 10.000944, 9.998694 
6.9506687e+2, 2.3573075e+2, -608538.0, -771639.06, -15935.172, 0.048372976, -0.14266726, -606995.7, 22831.76, 0.0, 10.000792, 9.998675 
6.9508916e+2, 2.4572977e+2, -482074.44, -698239.06, -19276.76, 0.03634429, -0.0848884, -480368.88, 51468.84, 0.0, 10.001154, 9.998329 
6.951113e+2, 2.5572857e+2, -277382.72, -553524.1, -24374.86, -0.0139851365, -0.062288653, -275247.7, 158602.19, 0.0, 10.001904, 9.99829 
6.9513375e+2, 2.6572692e+2, -247552.52, -570861.2, -88053.18, 0.030847263, -0.008669796, -225126.73, 110741.94, 0.0, 10.001805, 9.99754 
6.951565e+2, 2.757247e+2, -260080.56, -512596.28, -96052.76, 0.15857565, -0.0070277103, -227696.77, 10198.469, 0.0000000054780975, 10.0009775, 9.997671 
6.9517785e+2, 2.8572318e+2, -6228.9297, -147110.19, -49645.773, 0.10395524, -0.0144650685, 9508.077, 149415.52, 0.000002364329, 10.001232, 9.999377 
6.951979e+2, 2.9572192e+2, 247294.9, 12293.521, 28983.123, -0.121612, -0.1063951, 250816.67, 292727.63, 0.000027093956, 10.002344, 9.999267 
6.9521934e+2, 3.057191e+2, 131979.84, -242702.25, 18688.57, -0.20728493, -0.1995349, 132909.7, 132909.7, 0.00010798756, 10.002205, 9.997251 
6.9524395e+2, 3.1571668e+2, -4476.1045, -132284.25, -90264.6, 0.0003805474, -0.18854013, 42215.613, 42215.613, 0.00025661878, 10.000437, 9.99887 
7.048297e+2, 1.2570551e+2, -2060616.3, -1887302.0, -37948.97, 0.16028057, -0.38821682, -1879356.9, -171293.53, 0.0, 9.997589, 9.999971 
7.048476e+2, 1.3570711e+2, -1677532.6, -1596498.4, -182468.52, 0.009468304, -0.29160354, -1450102.6, 159949.2, 0.0, 9.999345, 10.00045 
7.048673e+2, 1.4570804e+2, -1542028.6, -1528611.1, -48100.902, -0.11267691, -0.2115584, -1486753.4, 25293.617, 0.0, 9.999798, 10.000011 
7.0489264e+2, 1.5570852e+2, -1474347.5, -1432958.3, -48360.348, 0.2223274, -0.19331926, -1401050.6, 12995.627, 0.0, 9.99955, 10.000111 
7.049143e+2, 1.6570964e+2, -1342959.9, -1214918.3, -12671.627, 0.17362538, -0.13723584, -1213676.3, 102360.88, 0.0, 9.999331, 10.001041 
7.049336e+2, 1.7571102e+2, -1294340.0, -1142574.4, -20906.121, -0.12216901, -0.12664007, -1139747.1, 78276.64, 0.0, 9.998997, 10.001027 
7.049555e+2, 1.8571231e+2, -1227941.3, -1153170.3, -53673.895, -0.09579295, -0.050216116, -1125145.0, -5132.8315, 0.0, 9.999178, 10.000193 
7.0497924e+2, 1.957132e+2, -1042408.4, -1021958.44, -65431.49, 0.16397035, 0.00029288878, -965957.8, 56047.31, 0.0, 9.999812, 10.000119 
7.050017e+2, 2.057127e+2, -894775.9, -1012930.8, 18496.752, 0.18502402, -0.002672835, -891948.0, 32061.615, 0.0, 10.000643, 9.999107 
7.0502335e+2, 2.1571095e+2, -664759.25, -850580.44, 7158.9106, 0.025438173, -0.10961426, -664483.8, 161540.44, 0.0, 10.001544, 9.999115 
7.050456e+2, 2.2570969e+2, -595434.5, -817805.9, -28018.035, 0.010657072, -0.119362235, -591958.7, 136076.97, 0.0, 10.001577, 9.998645 
7.050682e+2, 2.357085e+2, -581817.7, -759808.25, -20852.773, 0.09927849, -0.12337035, -579407.3, 50639.695, 0.0, 10.000994, 9.998654 
7.050905e+2, 2.4570742e+2, -521762.16, -697502.6, 56360.445, 0.07915099, -0.08442309, -505240.47, 26817.146, 0.0, 10.000803, 9.998504 
7.051126e+2, 2.557062e+2, -413364.63, -597817.5, 63997.797, -0.021985766, -0.08384835, -393334.94, 40734.72, 0.0, 10.000889, 9.998472 
7.051349e+2, 2.657048e+2, -355623.63, -619721.06, 33255.613, 0.020671824, -0.016714888, -351500.4, -15414.309, 0.0, 10.001049, 9.997573 
7.051577e+2, 2.7570307e+2, -219481.8, -485130.66, 46037.543, 0.18295038, 0.029932892, -211729.61, 26378.504, 0.000000016182126, 10.001235, 9.99773 
7.051795e+2, 2.857015e+2, -12076.796, -165538.6, 79824.66, 0.15606423, 0.02415934, 21915.412, 162035.53, 0.0000030357212, 10.001238, 9.999262 
7.052003e+2, 2.9569998e+2, 36941.875, -102321.55, -5921.7437, -0.03003171, -0.08759055, 37193.227, 79319.05, 0.000031540207, 10.000943, 9.999162 
7.052216e+2, 3.0569667e+2, -9019.434, -339293.22, -21059.82, -0.15056592, -0.21305813, -7681.975, -7681.975, 0.00012311795, 10.001365, 9.996985 
7.052453e+2, 3.1569514e+2, 223662.84, -64843.727, -60533.668, 0.014588561, -0.087415315, 235849.11, 235849.11, 0.0002906225, 10.002204, 9.998466 
7.1482545e+2, 1.2568365e+2, -1989225.8, -1733989.0, -51670.496, -0.08043524, -0.05181384, -1723925.5, -15632.852, 0.0, 9.997576, 10.00102 
7.148472e+2, 1.3568455e+2, -1611961.5, -1473680.9, -115560.86, 0.015299856, -0.11834104, -1408156.1, 202127.42, 0.0, 9.9993925, 10.001272 
7.148667e+2, 1.4568582e+2, -1502534.9, -1450585.0, -72754.586, -0.18580882, -0.06848924, -1399307.6, 112964.21, 0.0, 9.99982, 10.000532 
7.148902e+2, 1.5568656e+2, -1440199.1, -1361225.0, -45875.727, -0.0018286222, -0.08023588, -1340182.6, 74083.8, 0.0, 9.99954, 10.000608 
7.149123e+2, 1.656877e+2, -1340906.4, -1197727.1, -35319.957, 0.022149079, -0.0527146, -1189488.4, 126767.11, 0.0, 9.999282, 10.001182 
7.149336e+2, 1.7568898e+2, -1291357.5, -1132024.4, -21484.91, -0.04525956, -0.06323434, -1129178.1, 89063.81, 0.0, 9.99898, 10.001108 
7.149559e+2, 1.8568973e+2, -1243173.3, -1175757.8, -39455.777, 0.0054544914, -0.037535027, -1157571.6, -37337.03, 0.0, 9.999136, 10.000059 
7.14979e+2, 1.9568978e+2, -1063537.4, -1044866.4, -28857.32, 0.14282979, -0.060614005, -1023872.06, -1637.3994, 0.0, 9.99972, 10.000008 
7.150018e+2, 2.0568942e+2, -911418.25, -1017216.7, 43212.65, 0.11645973, -0.0457899, -896011.8, 28226.563, 0.0, 10.000518, 9.999135 
7.150244e+2, 2.1568854e+2, -686410.5, -855436.94, 45173.414, -0.03905917, -0.070198916, -675095.06, 151151.83, 0.0, 10.001381, 9.999156 
7.150469e+2, 2.2568768e+2, -585873.3, -769227.0, -61854.688, -0.038426958, -0.059636697, -566957.94, 161295.98, 0.0, 10.001448, 9.999044 
7.150692e+2, 2.3568663e+2, -571536.8, -710162.2, -30915.822, 0.07524099, -0.09036185, -564954.56, 65307.34, 0.0, 10.000867, 9.99906 
7.150918e+2, 2.4568538e+2, -494112.72, -615989.06, 48332.836, 0.109053, -0.11901699, -477272.22, 54999.402, 0.0, 10.0007, 9.999115 
7.1511453e+2, 2.5568372e+2, -383889.06, -514328.4, 76525.83, 0.07469696, -0.2194967, -348561.2, 85723.82, 0.0, 10.000796, 9.999091 
7.1513623e+2, 2.656825e+2, -316066.97, -532265.1, 26594.74, 0.024436044, -0.19820814, -312843.6, 23453.098, 0.0, 10.001021, 9.998189 
7.1515703e+2, 2.7568132e+2, -196822.0, -428773.56, 61979.477, -0.038378704, -0.15965572, -181299.36, 57010.55, 0.000000020828322, 10.001187, 9.998144 
7.151796e+2, 2.8567946e+2, -148407.98, -442807.84, 57842.277, 0.020923456, -0.109808765, -137451.2, 2877.1987, 0.0000037854625, 10.00122, 9.997365 
7.1520334e+2, 2.9567713e+2, -95186.805, -362317.66, 2163.9094, 0.14779153, -0.107938625, -95169.27, -52817.914, 0.000035842306, 10.000889, 9.997402 
7.152248e+2, 3.056739e+2, 69663.48, -182428.61, 5111.575, 0.0049936785, -0.19945231, 69767.08, 69767.08, 0.000135526, 10.00138, 9.998062 
7.1524715e+2, 3.1567433e+2, 234754.89, -27347.81, 8166.4614, -0.07692418, 0.015539701, 235009.1, 235009.1, 0.00031586387, 10.002119, 9.998779 
7.248233e+2, 1.2566137e+2, -1775089.5, -1594856.4, 55581.887, -0.096579306, 0.0909406, -1579094.1, 129426.016, 0.0, 9.998845, 10.001391 
7.24847e+2, 1.3566242e+2, -1787664.6, -1525112.6, -48611.02, 0.13400882, 0.017210163, -1516401.4, 94107.16, 0.0, 9.998054, 10.001562 
7.248664e+2, 1.4566392e+2, -1708659.0, -1507843.9, -13920.778, -0.10846857, 0.053728335, -1506883.5, 5609.2837, 0.0, 9.998211, 10.000926 
7.248889e+2, 1.5566427e+2, -1481304.1, -1335023.9, -20818.416, -0.053536564, -0.03493263, -1332118.8, 82369.59, 0.0, 9.999058, 10.001023 
7.2491115e+2, 1.656654e+2, -1334941.9, -1199341.8, -15871.514, -0.012316012, -0.024918992, -1197508.9, 118967.17, 0.0, 9.99932, 10.001162 
7.249334e+2, 1.7566702e+2, -1269759.5, -1122235.0, -30879.543, 0.0379158, -0.00045023498, -1116032.1, 102426.92, 0.0, 9.9991255, 10.001106 
7.249561e+2, 1.8566743e+2, -1171330.0, -1165247.5, 2621.8228, 0.09420304, -0.00008016214, -1164273.4, -43818.516, 0.0, 9.99973, 9.999848 
7.249793e+2, 1.9566655e+2, -904977.6, -988307.9, -16175.494, 0.1496447, -0.093839675, -901947.9, 120515.78, 0.0, 10.000897, 9.999828 
7.2500247e+2, 2.056662e+2, -877811.4, -1002918.4, 37198.492, 0.12270644, -0.06899755, -867586.6, 56881.066, 0.0, 10.000755, 9.999127 
7.2502553e+2, 2.1566595e+2, -948830.6, -983419.06, 19566.504, 0.032538854, -0.025401682, -940010.9, -113539.914, 0.0, 9.999573, 9.999158 
7.250479e+2, 2.256654e+2, -827430.9, -837485.3, -52860.65, 0.022745365, -0.007915794, -779358.94, -50884.258, 0.0, 9.999585, 9.999474 
7.250698e+2, 2.3566443e+2, -590648.6, -676502.4, -44014.797, 0.08018563, -0.07339332, -572093.6, 58386.83, 0.0, 10.00055, 9.999445 
7.2509253e+2, 2.456632e+2, -477721.5, -616554.3, 21400.467, 0.11889575, -0.11556681, -474497.56, 57992.12, 0.0, 10.000846, 9.999036 
7.251158e+2, 2.556615e+2, -404736.22, -535257.94, -18334.4, 0.1308747, -0.20917441, -402209.7, 32294.23, 0.0, 10.000687, 9.999002 
7.2513765e+2, 2.656603e+2, -272394.47, -486202.06, -63246.67, 0.0552757, -0.19516514, -255086.48, 81428.6, 0.0, 10.001229, 9.998395 
7.251584e+2, 2.7565908e+2, -13495.429, -322452.78, -83037.97, -0.069827594, -0.17550631, 7408.238, 245934.97, 0.000000011844985, 10.002372, 9.998302 
7.2518116e+2, 2.8565714e+2, -7864.071, -422595.4, -57259.414, 0.0010998687, -0.12253571, -103.82019, 140443.52, 0.000004675658, 10.00242, 9.996908 
7.2520506e+2, 2.9565445e+2, -14407.262, -365850.72, -34309.082, 0.20430264, -0.10867399, -11089.222, 31486.576, 0.000040333267, 10.001649, 9.996997 
7.252267e+2, 3.056516e+2, 102841.94, -117350.14, 48978.027, 0.06614092, -0.16251317, 113244.8, 113244.8, 0.00014552829, 10.001402, 9.998502 
7.2524995e+2, 3.1565228e+2, 122175.0, -81478.055, -43047.09, 0.039268676, 0.025684284, 130900.24, 130900.24, 0.00033116215, 10.001366, 9.99876 
7.348229e+2, 1.2563866e+2, -1790870.6, -1624769.5, -56081.703, -0.06990939, 0.03567378, -1607607.5, 101137.83, 0.0, 9.998853, 10.001167 
7.3484665e+2, 1.356407e+2, -1821468.0, -1594794.3, -68699.35, 0.2688065, 0.10713186, -1575598.6, 35128.234, 0.0, 9.998039, 10.001093 
7.3486596e+2, 1.4564215e+2, -1700998.5, -1468591.4, 6534.925, 0.0046913433, 0.14442898, -1468407.8, 44303.234, 0.0, 9.998123, 10.001228 
7.3488843e+2, 1.5564151e+2, -1468697.3, -1307490.9, 22813.016, -0.030847052, -0.07188368, -1304324.6, 110388.5, 0.0, 9.999051, 10.001215 
7.349106e+2, 1.6564275e+2, -1340787.1, -1213163.8, -35575.746, -0.02324442, -0.05656358, -1203916.9, 112782.27, 0.0, 9.999325, 10.001061 
7.3493266e+2, 1.7564526e+2, -1281621.9, -1141249.5, -24190.123, 0.032328572, 0.06513023, -1137197.8, 81476.19, 0.0, 9.999094, 10.000994 
7.3495585e+2, 1.8564545e+2, -1208024.5, -1220376.4, 37048.688, 0.07127466, 0.06852948, -1176640.5, -55968.16, 0.0, 9.999644, 9.999509 
7.349798e+2, 1.9564356e+2, -940204.2, -1039684.6, 31592.146, 0.08842245, -0.09308609, -931019.44, 91672.016, 0.0, 10.00081, 9.999515 
7.3500323e+2, 2.0564307e+2, -891019.6, -1009339.75, -17670.707, 0.11226271, -0.06654882, -888436.94, 36260.09, 0.0, 10.000659, 9.999129 
7.3502624e+2, 2.156434e+2, -963021.2, -983174.25, -7690.566, 0.13205756, 0.030176075, -960421.7, -133727.03, 0.0, 9.999445, 9.999218 
7.350485e+2, 2.2564304e+2, -819757.7, -791450.8, -27036.914, 0.10126676, 0.042894233, -775086.8, -46390.77, 0.0, 9.999453, 9.999856 
7.3506993e+2, 2.3564187e+2, -588075.9, -638124.94, 761.3912, 0.022315858, -0.08157624, -588064.25, 42638.457, 0.0, 10.000409, 9.999777 
7.350925e+2, 2.4564084e+2, -538525.4, -725686.25, 7021.725, 0.011826041, -0.07891616, -538262.3, -5550.683, 0.0, 10.00077, 9.998323 
7.351159e+2, 2.5563964e+2, -468735.66, -643763.3, -9738.999, 0.055625655, -0.053634856, -468195.44, -33470.344, 0.0, 10.000581, 9.998308 
7.3513883e+2, 2.656383e+2, -298171.16, -521777.72, -26269.95, 0.0353407, -0.005517811, -295126.34, 41612.8, 0.0, 10.001151, 9.998189 
7.351614e+2, 2.7563652e+2, -38812.957, -351160.5, -26658.613, -0.028689606, -0.023360496, -36554.0, 202203.0, 0.000000051096855, 10.002267, 9.998158 
7.351836e+2, 2.8563446e+2, 53707.258, -293152.16, -94590.99, -0.020611469, -0.025373936, 77825.82, 218602.44, 0.0000058850314, 10.002404, 9.997807 
7.352053e+2, 2.9563192e+2, 33473.395, -258285.72, -45095.18, 0.029604476, -0.087984435, 40284.44, 83083.836, 0.000044056193, 10.001605, 9.99776 
7.3522705e+2, 3.0562982e+2, 90036.35, -147751.75, 44882.996, -0.059512198, -0.08940954, 98226.05, 98226.05, 0.00015023243, 10.001416, 9.998285 
7.352526e+2, 3.1562895e+2, 73523.266, -160985.6, -30774.918, 0.12100409, -0.034915186, 77494.65, 77494.65, 0.0003329124, 10.001268, 9.998261 
7.4482214e+2, 1.2561665e+2, -2066616.9, -1770495.8, 23686.639, 0.06876466, -0.027782429, -1768613.0, -59652.344, 0.0, 9.9970455, 10.001024 
7.4484515e+2, 1.3561897e+2, -1622638.3, -1538097.8, 18854.248, 0.25017682, 0.11200298, -1534083.5, 76857.55, 0.0, 9.999601, 10.000716 
7.448649e+2, 1.4562029e+2, -1423908.3, -1362213.1, 65073.34, -0.0014669929, 0.16499291, -1321046.0, 191881.39, 0.0, 10.000139, 10.000985 
7.448882e+2, 1.5561943e+2, -1475345.0, -1335415.6, 14925.809, 0.04646155, -0.05097951, -1333841.3, 81090.69, 0.0, 9.999118, 10.000986 
7.449105e+2, 1.6562025e+2, -1397246.6, -1268784.0, -30929.24, 0.05287838, -0.0513799, -1261725.3, 55196.168, 0.0, 9.999061, 10.000816 
7.449322e+2, 1.7562217e+2, -1194742.5, -1123352.1, -51742.816, 0.04726681, 0.036225285, -1096186.6, 122714.65, 0.0, 9.999792, 10.000786 
7.449556e+2, 1.8562247e+2, -1144737.8, -1202824.4, 48336.95, 0.07499919, 0.0663555, -1117389.9, 3508.9446, 0.0, 10.000131, 9.999395 
7.449805e+2, 1.9562122e+2, -1045279.44, -1101641.0, 37392.133, 0.121080376, -0.019307662, -1026637.9, -3725.1882, 0.0, 10.000131, 9.999417 
7.4500406e+2, 2.0562078e+2, -893176.25, -949685.56, 1983.9828, 0.14527474, -0.013197955, -893106.7, 31810.055, 0.0, 10.000389, 9.999657 
7.4502647e+2, 2.156207e+2, -728391.3, -818175.94, 26897.416, 0.14976336, -0.007995629, -720950.1, 105965.23, 0.0, 10.00084, 9.999673 
7.4504876e+2, 2.2562031e+2, -617390.0, -724266.9, 44756.734, 0.120887265, -0.0042298688, -601123.1, 127793.664, 0.0, 10.000967, 9.999588 
7.4507076e+2, 2.3561944e+2, -549445.75, -650415.44, 704.23425, 0.053773418, -0.07503246, -549440.8, 81482.16, 0.0, 10.00079, 9.999515 
7.4509346e+2, 2.4561845e+2, -537293.6, -738087.6, 21824.629, 0.03163844, -0.05080815, -534948.8, -2015.9027, 0.0, 10.000835, 9.998215 
7.451167e+2, 2.5561714e+2, -390469.28, -613343.2, 25557.629, 0.05459824, -0.024681699, -387576.06, 47371.895, 0.0, 10.001155, 9.998242 
7.4513996e+2, 2.656158e+2, -318020.38, -519223.72, 70710.16, 0.05117168, 0.016497824, -295656.1, 41306.277, 0.0, 10.00096, 9.998303 
7.4516326e+2, 2.756141e+2, -302846.97, -455538.72, 71685.02, 0.03249051, -0.0047087977, -274467.3, -35488.563, 0.00000017449423, 10.000369, 9.99835 
7.451852e+2, 2.856123e+2, -164762.03, -322607.8, 20490.504, -0.0016225864, -0.023196876, -162145.45, -21151.098, 0.0000070145306, 10.000571, 9.998493 
7.4520606e+2, 2.956102e+2, 61979.688, -170390.03, 31793.432, -0.042567145, -0.11224356, 66251.23, 109262.4, 0.00004543542, 10.001479, 9.998429 
7.452283e+2, 3.056087e+2, 132587.1, -167712.78, 133310.2, -0.09415524, -0.06669793, 183227.14, 183227.14, 0.00014809403, 10.001885, 9.997922 
7.4525493e+2, 3.1560633e+2, 118699.66, -141344.95, -6020.4736, 0.21898891, -0.12421154, 118838.96, 118838.96, 0.00032280377, 10.001596, 9.998235 
7.548201e+2, 1.2559566e+2, -2080433.3, -1778382.1, 59014.89, 0.1180788, -0.07955448, -1767261.3, -58098.5, 0.0, 9.996972, 10.001 
7.548423e+2, 1.355972e+2, -1644719.6, -1588187.6, 118242.11, -0.02237351, 0.011595248, -1494879.9, 116271.24, 0.0, 9.999623, 10.000363 
7.54863e+2, 1.455982e+2, -1478235.8, -1479899.5, 12098.556, -0.23330443, 0.097597554, -1466940.5, 46202.215, 0.0, 10.000159, 10.000169 
7.5488776e+2, 1.5559815e+2, -1531573.5, -1446958.9, -11206.568, 0.060762055, 0.04294784, -1445499.8, -30356.67, 0.0, 9.999094, 10.000235 
7.5491035e+2, 1.6559803e+2, -1428570.1, -1325787.3, -15252.64, 0.11375674, 0.0019382039, -1323571.6, -6429.6294, 0.0, 9.9990225, 10.000444 
7.549316e+2, 1.7559774e+2, -1223349.5, -1179728.0, -14255.684, -0.011312342, -0.09159397, -1175482.4, 43658.746, 0.0, 9.999779, 10.000406 
7.549554e+2, 1.8559842e+2, -1139464.8, -1181740.8, 36878.848, 0.010737646, -0.013279575, -1118095.5, 3039.3594, 0.0, 10.000085, 9.999566 
7.549811e+2, 1.9559957e+2, -1041422.5, -1073610.6, 49989.723, 0.14397429, 0.12401564, -1004999.94, 18127.143, 0.0, 10.000044, 9.999653 
7.5500447e+2, 2.0559934e+2, -845814.9, -825502.5, 7286.218, 0.13036148, 0.09267168, -823159.2, 101967.31, 0.0, 10.000272, 10.000572 
7.55026e+2, 2.1559782e+2, -692993.44, -705396.44, 51320.676, -0.003582594, -0.13966781, -647500.94, 179632.53, 0.0, 10.000677, 10.000525 
7.550486e+2, 2.2559729e+2, -700326.1, -860381.3, 28203.498, -0.010494499, -0.14492717, -695501.8, 33634.95, 0.0, 10.000815, 9.998727 
7.550719e+2, 2.3559727e+2, -628058.56, -776389.6, 7087.56, 0.07349277, -0.039942496, -627720.7, 3419.2769, 0.0, 10.000636, 9.998722 
7.550949e+2, 2.4559619e+2, -520435.44, -683276.75, 22120.322, 0.07726477, -0.010544179, -517484.1, 15667.647, 0.0, 10.000746, 9.998635 
7.5511765e+2, 2.5559396e+2, -372813.38, -557912.2, 45780.15, 0.017149407, -0.12146596, -362109.63, 73063.65, 0.0, 10.00107, 9.998667 
7.5514054e+2, 2.6559263e+2, -290351.25, -452642.53, 37795.855, -0.0028351434, -0.12211744, -281980.72, 55204.723, 0.0, 10.000923, 9.998777 
7.551636e+2, 2.7559176e+2, -284915.78, -397449.13, 64963.785, 0.010983958, -0.10594697, -255239.27, -16046.859, 0.0000002213921, 10.000278, 9.998795 
7.5518566e+2, 2.855907e+2, -134684.22, -252798.3, 43904.203, -0.03186976, -0.096140236, -120152.445, 21048.025, 0.000006961638, 10.000534, 9.998995 
7.552069e+2, 2.955892e+2, 84448.62, -107526.68, 76988.914, -0.13541847, -0.17397362, 111509.42, 154721.66, 0.00004401986, 10.001399, 9.998907 
7.552297e+2, 3.0558798e+2, 88535.52, -239712.63, 115723.58, -0.15594347, -0.10322971, 125231.414, 125231.414, 0.0001416952, 10.001812, 9.997456 
7.552561e+2, 3.15585e+2, 130487.44, -97949.805, 6929.1997, 0.122811794, -0.17711273, 130697.42, 130697.42, 0.0003069929, 10.001518, 9.998567 
7.648179e+2, 1.2557498e+2, -1729415.8, -1641461.1, 28901.457, 0.08935214, -0.004587847, -1632814.3, 76551.875, 0.00000000032551553, 9.999448, 10.000762 
7.648413e+2, 1.3557519e+2, -1768680.3, -1692368.5, 64572.344, -0.036335062, -0.013593109, -1655521.3, -44154.06, 0.0, 9.998917, 10.000001 
7.64863e+2, 1.4557575e+2, -1628567.3, -1570378.8, -13376.367, -0.18804605, 0.050588436, -1567451.1, -54087.55, 0.0, 9.999198, 10.000017 
7.648871e+2, 1.5557659e+2, -1336559.9, -1371784.4, -11662.433, 0.026108272, 0.10095602, -1333048.5, 82307.25, 0.0, 10.000505, 10.000078 
7.649101e+2, 1.6557634e+2, -1158540.0, -1241338.5, 37603.586, 0.09556768, 0.07591807, -1144011.4, 173344.67, 0.0, 10.001094, 10.000012 
7.649327e+2, 1.7557503e+2, -1064170.6, -1145690.0, 10008.659, 0.06259306, -0.077345096, -1062959.9, 156404.84, 0.0, 10.001075, 10.000003 
7.6495624e+2, 1.8557511e+2, -1048357.9, -1126497.4, 53009.71, 0.070653364, -0.04562381, -1021575.7, 99787.31, 0.0, 10.000665, 9.999663 
7.6498055e+2, 1.95576e+2, -1052201.4, -1070440.1, 42095.926, 0.102824144, 0.056985106, -1018248.4, 5107.8364, 0.0, 9.999928, 9.999733 
7.65004e+2, 2.0557603e+2, -934729.8, -853336.56, 6235.711, 0.0946939, 0.041019402, -852861.6, 72491.01, 0.0, 9.999602, 10.000706 
7.6502657e+2, 2.1557511e+2, -843680.2, -769476.0, -31098.77, 0.050527167, -0.1421078, -758166.4, 69187.75, 0.0, 9.99959, 10.000619 
7.6504934e+2, 2.2557475e+2, -857325.6, -929081.4, -29689.691, 0.047686573, -0.13875407, -846634.2, -117277.85, 0.0, 9.99972, 9.99878 
7.650721e+2, 2.355746e+2, -718350.7, -812078.56, -5428.332, 0.06875866, -0.051952768, -718037.3, -86676.07, 0.0, 9.999998, 9.998778 
7.650955e+2, 2.4557357e+2, -583978.75, -708231.1, 53843.707, 0.08707452, -0.023114027, -563893.0, -30519.932, 0.0, 10.000293, 9.998674 
7.6511925e+2, 2.5557157e+2, -442440.53, -584867.7, 27771.336, 0.100588515, -0.11238526, -437217.1, -1824.5209, 0.0, 10.000575, 9.9987135 
7.6514184e+2, 2.6557028e+2, -313854.0, -432987.94, -5672.8926, 0.05738815, -0.12603658, -313584.5, 23819.611, 0.0, 10.000626, 9.999058 
7.651636e+2, 2.7556926e+2, -234730.77, -342808.75, -12900.269, -0.020747818, -0.15340318, -233212.31, 6199.0825, 0.00000016204108, 10.000491, 9.999066 
7.6518595e+2, 2.8556854e+2, -132343.0, -274480.6, -6035.2515, -0.051545393, -0.11243689, -132087.19, 9330.295, 0.000006290961, 10.00065, 9.998787 
7.652088e+2, 2.9556778e+2, 9964.563, -157135.3, -46540.97, -0.051672, -0.0955318, 22052.768, 65477.75, 0.000041719115, 10.000963, 9.998762 
7.6523185e+2, 3.0556616e+2, 6657.322, -266767.4, -8339.496, -0.07459211, -0.06587057, 6911.4414, 6911.4414, 0.00013461517, 10.00119, 9.997571 
7.652567e+2, 3.1556338e+2, 96819.22, -45794.42, -118703.45, 0.06892933, -0.12669633, 163986.84, 163986.84, 0.00029005748, 10.000992, 9.99918 
7.748144e+2, 1.2555455e+2, -1751254.6, -1681885.1, -50968.766, -0.2657558, 0.19190973, -1654918.9, 54653.188, 0.0000000023621072, 9.999439, 10.0004835 
7.748418e+2, 1.3555308e+2, -1790422.6, -1733876.6, 47268.21, 0.0969447, 0.05076964, -1707071.1, -95482.586, 0.0, 9.998907, 9.999719 
7.748647e+2, 1.4555298e+2, -1584764.0, -1480580.1, 19248.719, 0.027318165, 0.03146329, -1477137.6, 36451.434, 0.0, 9.999195, 10.000638 
7.748861e+2, 1.5555486e+2, -1294974.0, -1293030.3, 48419.273, -0.15514372, 0.12720886, -1245573.1, 169995.48, 0.0, 10.000531, 10.000608 
7.749095e+2, 1.6555524e+2, -1194349.9, -1313780.1, 24828.105, -0.10037675, 0.1677067, -1189394.1, 128168.31, 0.0, 10.001085, 9.99952 
7.749351e+2, 1.7555413e+2, -1097162.8, -1210994.9, 19510.371, 0.17181884, 0.08171717, -1093911.5, 125659.21, 0.0, 10.001059, 9.999564 
7.7495795e+2, 1.8555266e+2, -1055657.0, -1128842.1, 15664.036, 0.15526457, -0.021933533, -1052445.4, 69136.97, 0.0, 10.000604, 9.999682 
7.7497864e+2, 1.955507e+2, -1064907.9, -1078567.1, 26260.893, -0.10256656, -0.2075383, -1044603.06, -21004.512, 0.0, 9.9998455, 9.999721 
7.750021e+2, 2.0555094e+2, -1000702.6, -960452.5, -6329.984, -0.06644533, -0.16647398, -959480.5, -33886.047, 0.0, 9.999474, 10.000031 
7.750279e+2, 2.1555272e+2, -906633.3, -866172.94, -21402.848, 0.20878126, -0.01183405, -856952.44, -29376.03, 0.0, 9.999448, 10.000021 
7.7505064e+2, 2.2555284e+2, -812724.1, -806391.1, -31662.322, 0.19372042, 0.022223132, -777737.3, -48163.15, 0.0, 9.999587, 9.99969 
7.7507097e+2, 2.3555133e+2, -675867.9, -697008.44, 15086.395, -0.06091893, -0.11854966, -668017.2, -36429.613, 0.0, 9.999874, 9.999632 
7.750947e+2, 2.455505e+2, -622510.56, -763075.44, 53013.02, -0.039722674, -0.09311821, -604758.94, -71161.53, 0.0, 10.000187, 9.99835 
7.751211e+2, 2.5555003e+2, -478915.44, -637989.1, 49605.027, 0.2056982, 0.0023839537, -464714.53, -29108.742, 0.0, 10.000477, 9.998398 
7.7514356e+2, 2.6554877e+2, -314649.38, -423381.63, -19219.553, 0.14258112, 0.0037219543, -311352.1, 26265.834, 0.0, 10.000573, 9.999152 
7.7516276e+2, 2.7554652e+2, -241932.47, -342794.75, -4973.6377, -0.17263347, -0.15864334, -241687.81, -2051.0266, 0.00000014054619, 10.000418, 9.999108 
7.7518564e+2, 2.8554565e+2, -200530.36, -397203.34, -2524.0005, -0.17124303, -0.08814195, -200497.97, -58851.633, 0.0000059856334, 10.000577, 9.997974 
7.7521145e+2, 2.9554588e+2, -49314.363, -269350.94, -18255.85, 0.08340858, 0.10572744, -47810.01, -4160.451, 0.0000396548, 10.000916, 9.998013 
7.752346e+2, 3.0554333e+2, 50384.3, -169549.78, -17247.947, 0.050979834, 0.042735506, 51728.723, 51728.723, 0.00012692052, 10.001165, 9.998255 
7.7525616e+2, 3.1554115e+2, 128916.445, 41637.117, -87763.29, -0.14307585, -0.022846878, 183291.14, 183291.14, 0.00027215088, 10.000891, 9.99984 
7.8481376e+2, 1.255315e+2, -1880852.1, -1743875.8, -70415.51, -0.21788763, 0.20461781, -1714134.8, -4333.636, 0.0000000040597263, 9.998571, 10.000467 
7.848413e+2, 1.3553071e+2, -1695808.6, -1674944.1, 21760.518, 0.14003792, 0.124557815, -1661244.4, -49435.85, 0.0, 9.999525, 9.999812 
7.8486496e+2, 1.4553012e+2, -1494808.9, -1446029.5, 20940.84, 0.113384284, 0.052966774, -1438273.0, 75539.96, 0.0, 9.99986, 10.000549 
7.8488606e+2, 1.5553112e+2, -1407232.8, -1357658.6, -28917.338, -0.16148378, 0.07429957, -1344358.8, 71441.5, 0.0, 9.999819, 10.000502 
7.8490967e+2, 1.6553165e+2, -1354975.6, -1378790.6, -48019.773, -0.12694393, 0.12730396, -1317409.0, 384.26196, 0.0, 9.999927, 9.999627 
7.8493565e+2, 1.7553145e+2, -1232816.9, -1263349.5, -34287.82, 0.18231133, 0.12299055, -1210550.3, 9243.368, 0.0, 10.000075, 9.999672 
7.8495854e+2, 1.8553017e+2, -1112608.5, -1142929.8, -10190.901, 0.18626739, 0.026868092, -1109501.8, 12301.175, 0.0, 10.000159, 9.999794 
7.8497887e+2, 1.9552782e+2, -1026112.3, -1046483.3, -13020.386, -0.06720811, -0.20969893, -1019766.8, 4054.631, 0.0, 10.0000725, 9.999821 
7.85002e+2, 2.0552778e+2, -920801.44, -950477.8, 14306.469, -0.04816823, -0.18640196, -915027.8, 10791.909, 0.0, 10.000146, 9.999776 
7.850275e+2, 2.1552938e+2, -812219.25, -847252.6, 10209.93, 0.19495244, -0.022670563, -809460.94, 18343.383, 0.0, 10.000214, 9.999781 
7.8505063e+2, 2.255294e+2, -695323.5, -745720.56, 7166.475, 0.20274436, 0.008469383, -694324.25, 35479.523, 0.0, 10.000365, 9.999732 
7.850719e+2, 2.3552786e+2, -572245.8, -641200.7, -33353.95, 0.016744344, -0.13943881, -558752.6, 73065.25, 0.0, 10.000556, 9.999688 
7.850955e+2, 2.4552733e+2, -565141.2, -692325.06, 15504.6455, 0.023425957, -0.10461992, -563278.4, -29453.844, 0.0, 10.0004, 9.998727 
7.85121e+2, 2.555274e+2, -519960.66, -617485.7, 39675.324, 0.18639389, 0.007898723, -505858.94, -70031.84, 0.0, 10.00002, 9.998754 
7.851436e+2, 2.655265e+2, -421374.56, -479822.56, 7610.7734, 0.13526113, 0.027355649, -420399.78, -82563.57, 0.0, 9.999871, 9.9991 
7.851637e+2, 2.7552438e+2, -325374.88, -387984.84, -10216.136, -0.08486939, -0.11212511, -323750.06, -83896.02, 0.0000001311964, 9.999877, 9.999055 
7.851867e+2, 2.8552333e+2, -249271.55, -429573.53, 60218.76, -0.09839616, -0.06044346, -231008.98, -89142.54, 0.0000058891046, 10.000272, 9.997903 
7.8521204e+2, 2.9552308e+2, -58202.95, -281353.22, 72135.73, 0.06577039, 0.097937144, -36915.098, 6959.078, 0.000037489564, 10.000884, 9.997949 
7.852357e+2, 3.0552036e+2, 69894.914, -114032.47, 87112.625, 0.0676229, 0.0020010963, 104603.76, 104603.76, 0.00011865352, 10.001089, 9.998671 
7.8525805e+2, 3.1551987e+2, 104441.6, 29843.506, -40839.957, -0.018634409, 0.0563447, 122451.875, 122451.875, 0.00025448482, 10.000718, 9.999834 
7.948154e+2, 1.2550598e+2, -1857728.5, -1706687.8, -61345.285, 0.030567659, 0.032040376, -1684911.8, 25139.69, 0.0000000034592607, 9.998619, 10.000702 
7.9483956e+2, 1.3550827e+2, -1652023.3, -1597565.1, 62389.52, -0.023217374, 0.20142366, -1556721.6, 55304.633, 0.0, 9.999585, 10.000313 
7.948635e+2, 1.4550722e+2, -1559656.3, -1579276.4, 2565.071, -0.0464302, 0.10898475, -1559326.4, -45291.758, 0.0, 9.999855, 9.999636 
7.9488677e+2, 1.5550536e+2, -1463329.8, -1474321.3, -18873.096, -0.09906588, -0.071390055, -1449168.5, -33116.98, 0.0, 9.999818, 9.999701 
7.949102e+2, 1.655055e+2, -1311206.9, -1280252.4, -54132.21, -0.08842091, -0.05474346, -1239428.4, 78620.79, 0.0, 9.999889, 10.000325 
7.9493415e+2, 1.75507e+2, -1185760.0, -1166263.8, -19149.932, -0.004569067, 0.041217238, -1154523.6, 65509.8, 0.0, 10.000069, 10.000345 
7.949577e+2, 1.8550766e+2, -1113567.4, -1122525.4, -23597.328, 0.06217389, 0.09695428, -1094027.8, 27997.193, 0.0, 10.000068, 9.999975 
7.949808e+2, 1.9550738e+2, -1022055.0, -1021493.6, -4460.276, 0.098192796, 0.04668954, -1017305.25, 6719.564, 0.0, 10.000004, 10.000021 
7.950033e+2, 2.0550664e+2, -926918.8, -934645.7, 5561.863, 0.04854303, -0.020364285, -924010.2, 2017.9431, 0.0, 10.000026, 9.999942 
7.9502517e+2, 2.1550515e+2, -824969.2, -841242.8, 23615.324, -0.079782575, -0.18223406, -808128.2, 19909.748, 0.0, 10.000073, 9.99989 
7.9504895e+2, 2.2550449e+2, -775585.25, -875477.06, 6516.0938, -0.018140582, -0.18235797, -775162.0, -45117.25, 0.0, 10.000207, 9.998918 
7.9507446e+2, 2.3550427e+2, -639425.5, -756946.06, -13064.301, 0.1984451, -0.114839226, -637990.7, -5939.5317, 0.0, 10.000446, 9.998949 
7.950976e+2, 2.4550414e+2, -506563.8, -548749.5, -9218.186, 0.1706815, -0.059346322, -504637.47, 29416.43, 0.0, 10.000307, 9.999757 
7.951188e+2, 2.5550377e+2, -467380.0, -485964.8, 36999.984, -0.057651043, -0.09211286, -438523.38, -2466.8877, 0.0, 9.999921, 9.999706 
7.951417e+2, 2.655034e+2, -439176.25, -509314.34, -2687.6438, -0.061941724, -0.05147695, -439073.44, -101014.2, 0.0, 9.999832, 9.998919 
7.951659e+2, 2.7550283e+2, -341225.5, -415959.97, 4690.735, 0.122307524, -0.020049566, -340932.25, -100868.05, 0.000000103459534, 9.999847, 9.99888 
7.9518884e+2, 2.8550145e+2, -209242.67, -339894.66, 73920.55, 0.06512929, -0.022194661, -175919.13, -33841.082, 0.0000054454867, 10.000246, 9.998531 
7.952104e+2, 2.9549932e+2, -33955.59, -206021.48, 110073.125, -0.21392824, -0.11628306, 19717.445, 63817.258, 0.00003447301, 10.000776, 9.998522 
7.95235e+2, 3.0549732e+2, 75130.63, -93362.66, 68955.79, -0.13637267, -0.18011989, 99752.71, 99752.71, 0.0001104858, 10.001039, 9.998837 
7.9526156e+2, 3.154985e+2, 45789.94, -88255.56, -10801.963, 0.19393763, 0.025178736, 46654.832, 46654.832, 0.000240168, 10.000686, 9.999043 
8.0481625e+2, 1.2548281e+2, -1511918.9, -1571467.4, 42841.484, 0.1448818, 0.0035542804, -1489521.4, 220755.25, 0.0000000057252847, 10.001147, 10.000424 
8.048394e+2, 1.3548468e+2, -1597828.6, -1588618.8, 63695.324, -0.01022665, 0.14881502, -1529362.1, 82892.68, 0.0, 10.000026, 10.000184 
8.0486345e+2, 1.4548339e+2, -1614545.9, -1629963.6, 43367.92, -0.012443514, 0.05281224, -1578207.0, -63941.38, 0.0, 9.99959, 9.999416 
8.048868e+2, 1.5548173e+2, -1457667.8, -1499696.5, 40086.89, -0.067864776, -0.08305631, -1433421.1, -17139.424, 0.0, 9.999977, 9.9994545 
8.049102e+2, 1.6548178e+2, -1312882.8, -1250969.8, 15857.647, -0.06702599, -0.07609627, -1247144.5, 71135.625, 0.0, 9.999752, 10.000601 
8.049337e+2, 1.7548303e+2, -1326592.4, -1206285.8, -4202.193, 0.006752008, -0.028989572, -1206139.1, 14127.365, 0.0, 9.998989, 10.000598 
8.049572e+2, 1.8548411e+2, -1217109.1, -1129630.8, 26267.086, 0.06368666, 0.037698016, -1122349.6, -95.76296, 0.0, 9.999182, 10.000351 
8.0498064e+2, 1.9548482e+2, -989841.06, -974097.06, 31788.78, 0.08701454, 0.053319328, -949220.1, 75024.266, 0.0, 10.000084, 10.000318 
8.050033e+2, 2.054842e+2, -880857.44, -920534.0, 37231.637, 0.03947721, -0.012184412, -858508.6, 67738.35, 0.0, 10.000371, 9.999878 
8.050253e+2, 2.1548216e+2, -831255.0, -848626.4, 13781.559, -0.06232204, -0.22324395, -823650.44, 4611.85, 0.0, 10.000056, 9.9998455 
8.0504906e+2, 2.2548144e+2, -814969.5, -914526.56, 46411.668, -0.008624426, -0.2177329, -796689.6, -66419.33, 0.0, 10.000035, 9.998722 
8.0507433e+2, 2.3548156e+2, -688812.6, -797398.06, 50810.387, 0.16797267, -0.09649676, -668745.44, -36471.246, 0.0, 10.000204, 9.998774 
8.0509764e+2, 2.4548143e+2, -512879.03, -554095.4, 40539.313, 0.15625875, -0.033435825, -488010.5, 46266.703, 0.0, 10.000252, 9.99976 
8.0511934e+2, 2.5548074e+2, -434921.47, -471460.72, -6352.3394, 0.00029696713, -0.10102677, -433848.63, 2434.1343, 0.0, 10.000133, 9.999716 
8.0514234e+2, 2.6548028e+2, -359405.13, -480203.72, -29671.758, -0.0008877412, -0.06520294, -352510.38, -14224.349, 0.0, 10.000418, 9.9988365 
8.0516636e+2, 2.754798e+2, -159291.61, -331666.34, -35559.21, 0.130964, -0.020560786, -152244.22, 88045.7, 0.00000004701224, 10.001104, 9.998854 
8.0518925e+2, 2.8547826e+2, -134014.86, -279101.8, 17937.924, 0.07354919, -0.047326803, -131830.0, 10474.46, 0.000004093495, 10.000665, 9.998742 
8.05211e+2, 2.9547572e+2, -225753.33, -271574.66, 743.57715, -0.1490857, -0.20659223, -225741.27, -181411.73, 0.000029631305, 9.999349, 9.998753 
8.052359e+2, 3.0547485e+2, -67654.09, -127615.305, 22231.86, -0.08058072, -0.17851056, -60310.543, -60310.543, 0.00010221737, 9.999918, 9.999149 
8.0526257e+2, 3.1547648e+2, 208714.8, -9851.462, -80112.6, 0.18309152, 0.039622836, 234933.81, 234933.81, 0.00023173698, 10.0018425, 9.99902 
8.1481546e+2, 1.2546232e+2, -1571746.9, -1718417.1, -13495.07, -0.10660744, 0.13682586, -1570515.5, 139957.11, 0.000000004999778, 10.0012455, 9.999367 
8.148403e+2, 1.3546005e+2, -1650007.6, -1704691.1, 29102.21, 0.06447884, -0.04522118, -1637418.1, -24925.256, 0.0, 10.000066, 9.99936 
8.148646e+2, 1.4545876e+2, -1590497.8, -1580907.1, 44839.758, 0.107013375, -0.12081695, -1540607.0, -26102.12, 0.0, 9.999589, 9.999757 
8.14886e+2, 1.554604e+2, -1431733.3, -1446454.1, 66298.6, -0.1773408, 0.04113511, -1372387.8, 44101.15, 0.0, 9.99998, 9.999819 
8.149091e+2, 1.6546074e+2, -1335806.6, -1290842.5, -25320.299, -0.1685601, 0.07062346, -1279463.6, 39020.465, 0.0, 9.999722, 10.000339 
8.1493396e+2, 1.7545962e+2, -1346089.5, -1237726.4, -19153.326, 0.11260451, -0.09630494, -1234440.6, -13948.645, 0.0, 9.998953, 10.000396 
8.149569e+2, 1.8545958e+2, -1197426.3, -1071488.3, 51494.086, 0.091864415, -0.15505278, -1053113.9, 69375.22, 0.0, 9.999103, 10.000791 
8.1497806e+2, 1.954602e+2, -971225.25, -920732.56, 75660.58, -0.20550452, -0.19223109, -866217.4, 158262.2, 0.0, 10.000015, 10.000718 
8.150017e+2, 2.0546053e+2, -925569.8, -982841.75, 12772.331, -0.17074561, -0.15986215, -922850.56, 3624.4956, 0.0, 10.000239, 9.999515 
8.150276e+2, 2.1546043e+2, -873778.3, -904218.1, 13363.312, 0.14661683, -0.14534459, -868744.25, -40267.336, 0.0, 9.999915, 9.999532 
8.150507e+2, 2.2546023e+2, -806127.7, -861652.06, 40559.258, 0.13110638, -0.09274846, -784739.1, -54258.824, 0.0, 9.999887, 9.999158 
8.1507134e+2, 2.3545967e+2, -683283.06, -754240.8, 66611.55, -0.17320104, -0.087235846, -643291.06, -10802.963, 0.0, 10.000063, 9.999142 
8.1509537e+2, 2.4545911e+2, -598930.3, -701041.44, 24632.266, -0.115180254, -0.033957686, -593298.8, -58803.168, 0.0, 10.000121, 9.998812 
8.151222e+2, 2.5545835e+2, -514071.22, -612655.06, 1410.4991, 0.25283685, -0.013649023, -514051.03, -77545.734, 0.0, 10.000034, 9.998794 
8.151452e+2, 2.6545715e+2, -358989.3, -466275.16, -13056.835, 0.22020109, -0.014637557, -357423.16, -18907.19, 0.0, 10.000366, 9.998955 
8.1516486e+2, 2.7545533e+2, -173954.06, -330568.13, 1919.614, -0.15312545, -0.1092452, -173930.53, 66599.49, 0.000000004527389, 10.000976, 9.998922 
8.1518775e+2, 2.8545377e+2, -150271.97, -311238.13, -41185.16, -0.17087564, -0.13294816, -140346.28, 2198.8408, 0.0000024308686, 10.000648, 9.998532 
8.1521326e+2, 2.9545224e+2, -245158.78, -309354.97, -27888.549, 0.11140397, -0.16575544, -234735.61, -190173.0, 0.00002455122, 9.999337, 9.998501 
8.15238e+2, 3.0545297e+2, -28963.48, -58622.24, 88821.63, 0.115957715, 0.009729172, 46258.195, 46258.195, 0.00009685274, 9.999968, 9.999597 
8.1526047e+2, 3.1545362e+2, 227408.02, 70305.35, 24761.58, -0.2602181, 0.08512671, 231218.38, 231218.38, 0.00023260372, 10.001667, 9.999658 
8.2481676e+2, 1.2544023e+2, -1735326.4, -1859695.8, 18628.754, -0.04419265, 0.10890909, -1732596.0, -21912.072, 0.0000000017683296, 10.00035, 9.998829 
8.248407e+2, 1.354374e+2, -1542070.4, -1700288.1, 43069.664, 0.06222568, -0.09499852, -1531105.9, 81605.85, 0.0, 10.000989, 9.998946 
8.248647e+2, 1.4543626e+2, -1441527.4, -1489764.1, 98460.88, 0.12263839, -0.14233406, -1364273.9, 150449.22, 0.0, 10.000535, 9.999921 
8.2488585e+2, 1.5543844e+2, -1513052.3, -1472329.9, 77445.63, -0.14671418, 0.05533445, -1412613.6, 4089.1628, 0.0, 9.999367, 9.99993 
8.249089e+2, 1.6543868e+2, -1440516.6, -1364589.0, 9200.1045, -0.11958743, 0.08169405, -1363490.1, -44791.277, 0.0, 9.999103, 10.000124 
8.249338e+2, 1.7543708e+2, -1274886.1, -1233462.0, -6738.3154, 0.18693575, -0.11244259, -1232393.4, -11682.376, 0.0, 9.9995575, 10.000136 
8.249566e+2, 1.8543679e+2, -1179958.1, -1091655.5, 67841.65, 0.1514562, -0.17182091, -1054863.5, 67848.07, 0.0, 9.999345, 10.000537 
8.2497734e+2, 1.9543731e+2, -1206099.3, -1060052.4, 16045.699, -0.1926761, -0.19156475, -1058310.3, -33605.508, 0.0, 9.998524, 10.000475 
8.250014e+2, 2.0543785e+2, -1131901.6, -1083616.5, -20827.547, -0.14806361, -0.126405, -1075874.1, -149174.16, 0.0, 9.99884, 9.999483 
8.2502836e+2, 2.1543822e+2, -852418.2, -898474.6, -21092.172, 0.2307166, -0.06038944, -844218.56, -15519.821, 0.0, 10.000083, 9.999487 
8.250514e+2, 2.2543816e+2, -703185.7, -793726.5, 11751.757, 0.19856438, -0.0013217499, -701685.25, 29015.375, 0.0, 10.000502, 9.999342 
8.250713e+2, 2.3543744e+2, -650117.4, -721265.5, -3675.7615, -0.1807757, -0.02618493, -649927.94, -17219.717, 0.0, 10.000208, 9.99931 
8.250953e+2, 2.454365e+2, -618136.4, -737871.9, -1936.6097, -0.12628058, -0.0032855382, -618105.06, -83386.45, 0.0, 10.00012, 9.998556 
8.2512265e+2, 2.5543523e+2, -497888.25, -625290.7, 1949.8865, 0.2960166, -0.008918456, -497858.4, -61125.28, 0.0, 10.0002575, 9.998592 
8.25146e+2, 2.654339e+2, -338415.5, -436563.25, 47169.117, 0.27333027, -0.024211392, -319422.0, 19322.727, 0.0, 10.000416, 9.99914 
8.2516587e+2, 2.754322e+2, -226557.86, -335810.25, 45210.664, -0.1148343, -0.12895046, -210275.48, 30481.521, 0.0, 10.000523, 9.999105 
8.2518876e+2, 2.854309e+2, -105473.61, -314184.66, 10809.16, -0.14326881, -0.1223848, -104915.29, 37854.785, 0.000001518397, 10.001069, 9.998312 
8.2521415e+2, 2.9542968e+2, 127623.766, -152926.84, -800.1435, 0.14148644, -0.103967994, 127626.05, 172412.48, 0.000022026383, 10.001995, 9.998298 
8.252388e+2, 3.054302e+2, 157922.45, -5542.077, 118831.984, 0.13690597, 0.07903113, 220416.42, 220416.42, 0.00009707927, 10.001416, 9.999255 
8.2526046e+2, 3.154286e+2, -76512.055, -44563.258, -32145.502, -0.30026427, -0.04349045, -24641.768, -24641.768, 0.00024343748, 9.999426, 9.99994 
8.348195e+2, 1.2541644e+2, -1738967.5, -1846239.5, 30690.957, 0.14150113, -0.099910855, -1730807.4, -19896.033, 0.000000000051048894, 10.000277, 9.998953 
8.3484024e+2, 1.3541692e+2, -1515415.9, -1651469.5, 76726.53, -0.11746457, 0.004947587, -1480902.0, 132007.05, 0.0, 10.001027, 9.99926 
8.348634e+2, 1.454162e+2, -1455205.4, -1520443.4, 40006.402, -0.08854263, -0.0071163895, -1436205.5, 78712.51, 0.0, 10.000546, 9.999702 
8.348861e+2, 1.5541583e+2, -1526628.5, -1498234.8, 46190.91, -0.09334536, -0.046078876, -1464108.3, -47185.34, 0.0, 9.999356, 9.999757 
8.3490926e+2, 1.6541564e+2, -1463705.8, -1393076.1, 15806.569, -0.021517977, -0.04760513, -1389700.1, -70776.27, 0.0, 9.9990225, 9.999969 
8.3493316e+2, 1.7541558e+2, -1291009.9, -1261475.9, 23313.705, 0.13417235, -0.06998954, -1248645.9, -27724.064, 0.0, 9.999541, 9.999949 
8.349561e+2, 1.8541585e+2, -1254674.1, -1242649.4, 23966.59, 0.14578481, -0.007303113, -1223952.5, -101032.89, 0.0, 9.99932, 9.999517 
8.349782e+2, 1.9541611e+2, -1282573.4, -1199696.5, -710.05975, 0.020501638, 0.043707576, -1199690.5, -174770.1, 0.0, 9.998438, 9.999559 
8.3500195e+2, 2.0541608e+2, -1135289.9, -1057067.3, 14963.635, 0.007227204, 0.08113578, -1054302.5, -127380.37, 0.0, 9.998694, 9.999735 
8.3502716e+2, 2.1541552e+2, -856353.8, -872085.5, 34906.082, 0.0865675, 0.029255662, -828438.25, 489.07623, 0.0, 9.999935, 9.999736 
8.3505106e+2, 2.2541526e+2, -728930.44, -815728.2, -12093.082, 0.09624548, 0.057674844, -727277.06, 3653.2551, 0.0, 10.00036, 9.999263 
8.350738e+2, 2.3541494e+2, -670850.3, -740945.9, -877.58685, 0.036033634, 0.08089546, -670839.4, -37905.535, 0.0, 10.000094, 9.999234 
8.350971e+2, 2.4541372e+2, -602894.9, -686168.1, -6804.393, 0.020560063, 0.057390288, -602342.56, -67397.39, 0.0, 10.00003, 9.998956 
8.3512056e+2, 2.5541148e+2, -482422.97, -579641.06, 20778.404, 0.04199555, -0.08531817, -478168.2, -41202.254, 0.0, 10.000187, 9.998944 
8.351445e+2, 2.654105e+2, -327715.75, -399180.28, 42173.77, 0.071437016, -0.09299437, -308172.16, 30800.754, 0.0, 10.000353, 9.999426 
8.3516896e+2, 2.754104e+2, -222028.88, -305484.28, 64468.414, 0.114171945, -0.06806149, -186962.2, 54008.6, 0.0, 10.000433, 9.999358 
8.351919e+2, 2.8540966e+2, -125003.51, -342841.5, 35314.027, 0.039287806, -0.009305551, -119421.73, 23557.795, 0.0000012583888, 10.001018, 9.99814 
8.3521354e+2, 2.95408e+2, 93691.69, -195804.47, 45209.82, -0.14614917, -0.011282364, 100587.72, 145588.44, 0.000022671806, 10.001876, 9.998065 
8.35238e+2, 3.0540663e+2, 83405.04, -155330.94, 42896.203, -0.10617658, 0.041658763, 90878.69, 90878.69, 0.0001036696, 10.001394, 9.998238 
8.352615e+2, 3.1540298e+2, -94631.445, -73798.04, -43398.18, -0.1955902, -0.18357763, -39583.926, -39583.926, 0.00026239955, 9.999397, 9.999755 
8.4482026e+2, 1.2539324e+2, -1593384.5, -1694453.3, -22435.482, 0.17181979, -0.15028445, -1588628.1, 122510.11, 0.0, 10.000934, 9.999681 
8.448403e+2, 1.3539487e+2, -1796049.9, -1711805.0, -7414.685, -0.08877387, 0.0010000219, -1711157.5, -98033.68, 0.0, 9.9987955, 9.999922 
8.448632e+2, 1.453947e+2, -1775179.4, -1678613.1, 33945.56, -0.04793191, 0.014983962, -1667874.6, -152747.48, 0.0, 9.998365, 9.999668 
8.448861e+2, 1.5539382e+2, -1473194.8, -1479848.0, 26578.732, -0.031241333, -0.06838716, -1449735.3, -32598.232, 0.0, 9.99976, 9.999688 
8.4490913e+2, 1.6539349e+2, -1265553.0, -1336994.3, 26961.83, 0.005005675, -0.064019784, -1256519.8, 62620.74, 0.0, 10.00054, 9.999629 
8.449325e+2, 1.7539346e+2, -1162401.6, -1237731.3, -4001.5525, 0.0749386, -0.048037842, -1162189.6, 58950.29, 0.0, 10.0005865, 9.999612 
8.4495574e+2, 1.8539362e+2, -1097451.6, -1192304.0, 11776.098, 0.12461195, 0.029644078, -1096011.5, 27128.219, 0.0, 10.000518, 9.999278 
8.4497875e+2, 1.9539362e+2, -1023182.6, -1105656.4, 20866.264, 0.14526987, 0.07983054, -1018203.94, 6938.8994, 0.0, 10.000347, 9.999288 
8.450023e+2, 2.0539333e+2, -916915.94, -932977.75, 115370.42, 0.11152986, 0.09387699, -809297.25, 117848.93, 0.0, 10.000101, 9.999921 
8.450264e+2, 2.153925e+2, -885074.9, -872497.44, 103945.77, 0.035731938, 0.000059736267, -774650.3, 54502.02, 0.0, 9.99967, 9.999871 
8.450505e+2, 2.2539206e+2, -837653.94, -867051.8, 64630.824, 0.050393112, 0.008007282, -786071.6, -54915.508, 0.0, 9.999629, 9.999244 
8.450748e+2, 2.3539181e+2, -700269.94, -751081.2, 51578.227, 0.13757673, 0.036404114, -668179.8, -35020.55, 0.0, 9.999908, 9.999232 
8.45098e+2, 2.4539077e+2, -525828.5, -648327.8, 74398.88, 0.10127991, 0.029510997, -490710.56, 44458.605, 0.0, 10.000549, 9.998966 
8.451205e+2, 2.5538877e+2, -298981.3, -485358.97, 51243.195, -0.0374663, -0.09120109, -285821.56, 151366.23, 0.0, 10.001431, 9.998981 
8.4514457e+2, 2.6538798e+2, -193809.86, -344236.1, 36057.484, -0.002988218, -0.08180465, -185613.42, 153580.81, 0.0, 10.001316, 9.999333 
8.451701e+2, 2.7538794e+2, -233497.05, -315030.13, 11024.453, 0.19548413, -0.038651116, -232032.69, 9159.966, 0.0000000050987805, 10.000377, 9.999314 
8.451933e+2, 2.8538743e+2, -216250.86, -360437.2, 52279.1, 0.121434905, 0.032052364, -199290.5, -56091.145, 0.0000017149706, 10.000268, 9.998379 
8.4521437e+2, 2.9538608e+2, -46571.914, -229726.03, 65969.305, -0.18755871, 0.028569456, -25284.865, 19932.164, 0.0000255943, 10.000762, 9.998362 
8.4523904e+2, 3.053842e+2, 49034.285, -192114.63, 87819.65, -0.12180479, 0.025960207, 77625.805, 77625.805, 0.000114914044, 10.001241, 9.998067 
8.452632e+2, 3.153811e+2, 231603.14, 110647.26, 41989.484, -0.06564624, -0.12448861, 244750.6, 244750.6, 0.00028702893, 10.001493, 10.000024 
8.5481817e+2, 1.2537088e+2, -1518672.1, -1535699.1, -124201.84, -0.18505844, -0.028372362, -1402692.4, 308669.75, 0.0, 10.000929, 10.000769 
8.548405e+2, 1.353712e+2, -1736723.9, -1571167.0, -80666.68, 0.03472667, -0.11038408, -1538362.6, 74993.5, 0.0, 9.998743, 10.000899 
8.548637e+2, 1.4537176e+2, -1762626.3, -1654072.4, 73243.31, 0.1435902, -0.078286245, -1617187.0, -101836.96, 0.0, 9.998354, 9.999851 
8.548858e+2, 1.5537257e+2, -1454810.3, -1452783.6, 95178.53, -0.07072282, -0.014264341, -1358613.0, 58730.938, 0.0, 9.999799, 9.999857 
8.5490847e+2, 1.6537231e+2, -1311742.8, -1429395.0, 15459.718, -0.144371, 0.025245706, -1309745.3, 9602.95, 0.0, 10.0005245, 9.999002 
8.5493165e+2, 1.753708e+2, -1201912.5, -1314626.6, 6219.719, -0.09354594, -0.051768348, -1201570.3, 19794.668, 0.0, 10.000567, 9.99909 
8.549551e+2, 1.8537012e+2, -1071778.0, -1127617.3, -5931.208, -0.017452171, -0.058120597, -1071154.9, 52216.477, 0.0, 10.00046, 9.999756 
8.5497856e+2, 1.9536991e+2, -993992.0, -1037967.0, 23893.902, 0.07005947, -0.07589617, -983508.44, 41862.887, 0.0, 10.000308, 9.999773 
8.5500216e+2, 2.0536971e+2, -927615.0, -933750.56, 86459.95, 0.06909702, -0.07726082, -844168.44, 83202.35, 0.0, 10.000003, 9.9999695 
8.550257e+2, 2.1536914e+2, -896512.56, -867474.5, 101207.47, -0.017505718, -0.15165038, -779749.94, 49623.34, 0.0, 9.99954, 9.999972 
8.550495e+2, 2.253686e+2, -864595.9, -884116.7, 64580.82, -0.030270405, -0.15732698, -809042.06, -77664.19, 0.0, 9.999463, 9.9992075 
8.5507375e+2, 2.3536797e+2, -720333.4, -765040.9, 75612.086, 0.024162496, -0.16488141, -663839.94, -30454.342, 0.0, 9.999786, 9.999197 
8.5509795e+2, 2.453676e+2, -564929.0, -703460.1, 95830.836, 0.017792197, -0.086390086, -515952.16, 19439.05, 0.0, 10.00044, 9.998641 
8.5512215e+2, 2.5536707e+2, -339904.75, -543332.06, 92707.56, -0.04104863, -0.028259845, -303994.44, 133404.77, 0.0, 10.001309, 9.998647 
8.551458e+2, 2.6536614e+2, -234432.78, -408077.13, -10561.178, -0.027072454, 0.0061334902, -233792.81, 105616.69, 0.0, 10.001227, 9.99894 
8.551691e+2, 2.753648e+2, -269911.44, -376683.75, -8283.657, 0.043220673, -0.04573096, -269272.6, -27849.482, 0.0000001292932, 10.000316, 9.998924 
8.5519254e+2, 2.8536427e+2, -172058.61, -259540.53, 62987.46, 0.005639138, 0.0071410225, -139113.9, 4315.4604, 0.0000031613251, 10.000234, 9.9990835 
8.55216e+2, 2.953639e+2, -8200.65, -134342.28, 97365.7, -0.12767893, 0.03371169, 44737.188, 90172.05, 0.000030116835, 10.000694, 9.99905 
8.5524136e+2, 3.0536273e+2, 88678.164, -97048.445, 87710.26, -0.031644028, 0.035095535, 123551.625, 123551.625, 0.00012742863, 10.001195, 9.998742 
8.552649e+2, 3.153626e+2, 244558.36, 164697.19, 101014.445, -0.09646361, 0.1248109, 313248.06, 313248.06, 0.00031382052, 10.001387, 10.00045 
8.6481863e+2, 1.2534869e+2, -1817467.4, -1703783.9, 17420.102, -0.117442064, -0.047688045, -1701174.5, 10403.947, 0.00000000000000000000885557, 9.998959, 10.000566 
8.648401e+2, 1.3534883e+2, -1494898.5, -1493163.3, -83495.38, 0.045819253, -0.121371314, -1410531.0, 203045.31, 0.0, 10.000528, 10.0005865 
8.648631e+2, 1.4534947e+2, -1413799.9, -1455719.9, 79097.54, 0.14141329, -0.082132176, -1352932.4, 162637.13, 0.0, 10.000633, 10.00011 
8.648858e+2, 1.5535028e+2, -1460248.3, -1434717.6, 76301.13, -0.031887125, -0.036555, -1370121.4, 47439.906, 0.0, 9.999668, 10.000054 
8.6490864e+2, 1.6535017e+2, -1465949.9, -1486343.3, 52959.938, -0.11052579, 0.0011855738, -1422213.9, -102650.39, 0.0, 9.999406, 9.999138 
8.6493164e+2, 1.7534901e+2, -1305782.0, -1357627.8, 70611.305, -0.10699044, -0.04961725, -1256485.5, -34908.074, 0.0, 9.999822, 9.999154 
8.649549e+2, 1.8534827e+2, -1118989.5, -1149806.4, 77945.336, -0.05356744, -0.06634285, -1054944.3, 68640.17, 0.0, 10.000148, 9.999743 
8.6497843e+2, 1.9534767e+2, -990552.4, -1039042.06, 50362.566, 0.028104924, -0.1215007, -958902.7, 66684.36, 0.0, 10.000366, 9.999725 
8.650021e+2, 2.0534723e+2, -894323.7, -958086.25, 84015.695, 0.052041236, -0.123640195, -836343.7, 91245.38, 0.0, 10.000427, 9.999578 
8.650258e+2, 2.1534663e+2, -821463.1, -873370.1, 35884.566, 0.01757309, -0.1646727, -803130.25, 26463.385, 0.0, 10.000258, 9.999569 
8.650498e+2, 2.2534609e+2, -724263.5, -803442.2, 32838.684, 0.015878305, -0.1586216, -712416.5, 19182.033, 0.0, 10.000359, 9.999341 
8.650741e+2, 2.3534544e+2, -590166.5, -689859.94, 36593.49, 0.049230617, -0.17745687, -578176.5, 55428.555, 0.0, 10.000615, 9.999322 
8.6509866e+2, 2.453451e+2, -565518.06, -700712.06, 93259.766, 0.051856574, -0.10300855, -517933.75, 17676.244, 0.0, 10.000434, 9.998655 
8.651233e+2, 2.553447e+2, -538688.4, -636434.0, 89442.08, 0.027012117, -0.035033602, -485637.5, -48020.55, 0.0, 9.9999485, 9.998656 
8.651468e+2, 2.6534358e+2, -376784.13, -524449.56, 21819.742, -0.0063251345, 0.00087513396, -373627.4, -33997.223, 0.0000000005766255, 10.000451, 9.998513 
8.651693e+2, 2.753417e+2, -79175.83, -330549.06, -3627.4707, -0.03992064, -0.05856901, -79123.49, 162527.06, 0.000000514823, 10.001816, 9.998518 
8.651929e+2, 2.8534102e+2, 76638.67, -133747.42, 47711.605, -0.06315541, -0.0030490272, 86953.09, 230611.06, 0.0000054394536, 10.001906, 9.999155 
8.652173e+2, 2.9534096e+2, 22199.588, -105715.73, 17244.191, -0.06202473, 0.04300574, 24483.488, 70142.33, 0.000035908153, 10.000844, 9.99918 
8.652428e+2, 3.0533952e+2, 49532.316, -110674.805, 21809.764, 0.02388968, 0.009339258, 52448.31, 52448.31, 0.00014009468, 10.000905, 9.9987755 
8.6526644e+2, 3.1533998e+2, 252575.89, 138350.98, -29109.934, -0.08277534, 0.15334913, 259566.64, 259566.64, 0.00033844914, 10.001594, 10.000147 
8.74821e+2, 1.2532714e+2, -1923972.9, -1922677.8, 57042.563, 0.16638719, -0.17747106, -1866279.0, -154496.83, 0.0000000055054987, 9.998947, 9.999065 
8.748388e+2, 1.3532804e+2, -1597526.4, -1705388.3, -15679.716, -0.16790594, -0.027013673, -1595293.3, 18488.418, 0.0, 10.000531, 9.99912 
8.748609e+2, 1.4532802e+2, -1401099.3, -1435947.8, 26381.271, -0.17597331, 0.013029904, -1386907.5, 128875.76, 0.0, 10.000662, 10.000232 
8.748858e+2, 1.5532707e+2, -1449005.9, -1404116.9, 52297.008, -0.022263547, -0.13588424, -1369651.5, 48136.31, 0.0, 9.99965, 10.000266 
8.749094e+2, 1.6532722e+2, -1407653.0, -1365174.8, 57526.25, 0.0037041863, -0.12800258, -1325092.0, -5307.187, 0.0, 9.999392, 9.999983 
8.749321e+2, 1.753283e+2, -1249945.3, -1242457.9, 97704.766, -0.06171737, -0.038728777, -1148425.1, 73350.69, 0.0, 9.999819, 9.999948 
8.74955e+2, 1.8532829e+2, -1162910.6, -1231516.5, 76259.68, -0.08182874, 0.011073554, -1113594.0, 10182.257, 0.0, 10.000106, 9.999205 
8.7497795e+2, 1.9532694e+2, -1035010.25, -1117274.5, 70595.41, -0.07489671, -0.06942149, -994438.25, 31351.133, 0.0, 10.000304, 9.999219 
8.750019e+2, 2.053259e+2, -979185.2, -1105055.0, 67548.805, -0.031706255, -0.059700027, -949796.5, -21995.506, 0.0, 10.0002985, 9.998634 
8.7502646e+2, 2.1532498e+2, -902699.06, -1013052.5, 39920.63, 0.041038644, -0.03698552, -889771.94, -59958.918, 0.0, 10.000129, 9.998675 
8.750511e+2, 2.2532454e+2, -723376.56, -768705.5, 30470.635, 0.093289845, 0.008003614, -708065.56, 23751.898, 0.0, 10.000217, 9.999646 
8.750756e+2, 2.3532425e+2, -590344.4, -653216.9, 56732.566, 0.11952011, -0.00788352, -556920.6, 76897.03, 0.0, 10.000458, 9.999648 
8.7509984e+2, 2.4532332e+2, -559776.75, -665987.25, 63358.336, 0.110490546, -0.024356533, -530211.3, 5613.761, 0.0, 10.00033, 9.998947 
8.751238e+2, 2.5532162e+2, -534523.5, -605387.44, 86087.47, 0.060655076, -0.112440065, -476861.56, -39020.566, 0.0, 9.999851, 9.998918 
8.7514716e+2, 2.6532018e+2, -417474.38, -599726.5, 63086.12, -0.034266748, -0.09330833, -397768.06, -57911.516, 0.0000000691861, 10.000408, 9.998017 
8.751701e+2, 2.753187e+2, -128703.74, -408674.0, 57105.26, -0.16726215, -0.06781483, -117504.06, 124371.1, 0.000001269736, 10.001711, 9.998031 
8.7519383e+2, 2.8531787e+2, 40685.938, -198898.72, -4848.6826, -0.17901567, 0.015951838, 40784.023, 184668.25, 0.000008255043, 10.001861, 9.998734 
8.7521815e+2, 2.9531723e+2, -13220.595, -171378.98, -5410.39, -0.09309644, 0.05165068, -13035.729, 32853.043, 0.000042714033, 10.000803, 9.9987545 
8.752433e+2, 3.053147e+2, 5737.704, -193173.22, 45700.29, -0.0412101, -0.045529388, 15734.996, 15734.996, 0.00015288098, 10.000872, 9.998222 
8.75267e+2, 3.1531242e+2, 159075.94, -45338.61, 48585.336, -0.23935238, -0.11698823, 170036.06, 170036.06, 0.00035815634, 10.001543, 9.998912 
8.8482076e+2, 1.2530497e+2, -1913917.1, -1912958.5, -46319.043, 0.2605424, -0.158584, -1867116.3, -155115.4, 0.00000006865043, 9.998995, 9.999121 
8.8483834e+2, 1.353061e+2, -1752960.6, -1784360.5, -45942.09, -0.2047016, 0.02714875, -1720110.0, -106111.45, 0.0, 9.99948, 9.999094 
8.8486034e+2, 1.4530596e+2, -1571029.6, -1517744.1, 14645.929, -0.22834887, 0.055431746, -1513983.9, 2017.5289, 0.0, 9.999504, 10.00022 
8.848857e+2, 1.5530473e+2, -1485638.4, -1424906.8, -204.46951, 0.028437098, -0.11960054, -1424906.0, -6897.6943, 0.0, 9.999413, 10.000232 
8.8490963e+2, 1.6530474e+2, -1376939.3, -1319474.3, 30773.625, 0.08674552, -0.13790661, -1306104.9, 13900.813, 0.0, 9.99948, 10.000253 
8.8493216e+2, 1.7530583e+2, -1247200.1, -1209989.3, 6122.5674, -0.023107862, -0.072086394, -1209007.8, 12986.714, 0.0, 9.999715, 10.000218 
8.8495517e+2, 1.8530606e+2, -1175109.4, -1252239.8, 187.33006, -0.06590282, -0.004649576, -1175109.0, -51115.836, 0.0, 10.000086, 9.999073 
8.849785e+2, 1.9530515e+2, -1011408.9, -1122617.8, -3319.93, -0.060691662, -0.024216892, -1011309.9, 14694.264, 0.0, 10.00054, 9.999071 
8.8500243e+2, 2.0530418e+2, -917812.0, -1091429.8, 46565.457, -0.016991101, 0.0042280946, -906111.4, 21904.934, 0.0, 10.000771, 9.998512 
8.850271e+2, 2.1530294e+2, -821582.25, -990685.3, 64909.62, 0.06302946, 0.009785804, -799540.06, 30490.955, 0.0, 10.000743, 9.998546 
8.850516e+2, 2.2530222e+2, -660999.1, -762096.25, 93185.45, 0.105007954, 0.04261586, -605535.0, 126502.92, 0.0, 10.000755, 9.999422 
8.85076e+2, 2.3530158e+2, -556611.44, -664060.7, 48990.44, 0.10883332, 0.016837962, -537628.44, 96412.445, 0.0, 10.00081, 9.999398 
8.8510036e+2, 2.4530055e+2, -454421.4, -618325.44, 41433.918, 0.10273952, 0.0040894845, -444542.56, 91506.39, 0.0, 10.001062, 9.998919 
8.8512456e+2, 2.5529885e+2, -288695.78, -492927.38, 17068.61, 0.08078016, -0.08101803, -287279.1, 150785.31, 0.00000000006372724, 10.001542, 9.998879 
8.8514847e+2, 2.652972e+2, -266465.2, -542316.25, 36543.68, 0.0029993865, -0.0773352, -261706.13, 78375.77, 0.00000025387644, 10.001513, 9.99788 
8.8517195e+2, 2.7529526e+2, -226345.22, -468759.22, 31602.318, -0.116328165, -0.08033657, -222293.11, 19810.994, 0.0000021793016, 10.0011, 9.9979105 
8.851957e+2, 2.8529406e+2, -82801.32, -270975.88, -9667.706, -0.13351607, -0.022950368, -82305.94, 61810.17, 0.000011106664, 10.001093, 9.99859 
8.8521963e+2, 2.9529315e+2, 74804.445, -146856.72, -16860.88, -0.056421578, 0.003514042, 76079.66, 122201.875, 0.000049522223, 10.001493, 9.998583 
8.8524455e+2, 3.0529064e+2, 145577.63, -175991.52, 103680.33, -0.044283133, -0.057854194, 176107.69, 176107.69, 0.00016467013, 10.00204, 9.997793 
8.852696e+2, 3.152877e+2, 225494.73, -91272.66, 85683.74, -0.16498344, -0.1439109, 247186.3, 247186.3, 0.00037312726, 10.002333, 9.998235 
8.9481705e+2, 1.252819e+2, -1804040.5, -1662184.4, -67413.08, -0.058757927, 0.0077343625, -1635258.9, 76978.79, 0.00000033567557, 9.998928, 10.000859 
8.948385e+2, 1.3528325e+2, -1650463.6, -1559456.3, -24489.762, -0.1528385, 0.055160355, -1553284.6, 60940.32, 0.00000000007521531, 9.999449, 10.000645 
8.9486116e+2, 1.4528362e+2, -1585475.6, -1548227.5, -1813.2479, -0.12062762, 0.070327364, -1548139.4, -31918.785, 0.0, 9.999497, 10.000019 
8.9488536e+2, 1.5528351e+2, -1503064.5, -1462165.9, 10740.554, 0.023195384, 0.029302172, -1459516.8, -41296.367, 0.0, 9.999409, 9.999983 
8.949087e+2, 1.6528288e+2, -1403444.6, -1372607.5, 27126.432, 0.029185012, -0.019374192, -1356824.0, -36599.527, 0.0, 9.99947, 9.999891 
8.9493155e+2, 1.7528161e+2, -1274416.3, -1258116.5, 26585.988, -0.077402174, -0.15689443, -1238459.3, -16225.493, 0.0, 9.99968, 9.999905 
8.9495516e+2, 1.852816e+2, -1169894.4, -1226032.4, 6304.1934, -0.09504974, -0.11262036, -1169195.1, -44960.43, 0.0, 10.000013, 9.9992895 
8.949794e+2, 1.9528241e+2, -1010314.2, -1099402.0, 23192.652, -0.03631181, 0.018814843, -1004638.0, 21592.768, 0.0, 10.000444, 9.999277 
8.950035e+2, 2.0528214e+2, -882483.44, -990798.7, 34215.918, -0.009574092, 0.07088078, -872580.3, 55653.918, 0.0, 10.000654, 9.999258 
8.950272e+2, 2.1528062e+2, -794076.2, -896142.0, 76806.17, -0.014569751, -0.028318038, -752894.44, 77352.36, 0.0, 10.000587, 9.999266 
8.950511e+2, 2.2527923e+2, -742359.4, -899784.25, 84351.305, -0.03588011, -0.052420557, -705699.44, 26559.492, 0.0, 10.000613, 9.998549 
8.950751e+2, 2.3527767e+2, -634183.9, -795142.56, 62302.457, -0.08389266, -0.086598404, -612886.44, 21386.545, 0.0, 10.000679, 9.998561 
8.9509994e+2, 2.4527691e+2, -490867.75, -674614.9, 47502.023, -0.07183528, -0.013903561, -479314.06, 56966.633, 0.0, 10.000976, 9.998576 
8.9512545e+2, 2.5527653e+2, -331230.84, -549839.1, 45413.875, -0.008884601, 0.06647215, -322171.94, 116114.15, 0.0000000002378373, 10.001409, 9.998554 
8.9515024e+2, 2.6527482e+2, -260335.86, -513153.53, 11167.673, 0.012765497, 0.068128854, -259843.52, 80460.13, 0.00000030747992, 10.001443, 9.998111 
8.951744e+2, 2.7527156e+2, -227060.66, -448781.9, 31785.102, -0.004783971, -0.08737301, -222594.05, 19741.479, 0.0000026197797, 10.001011, 9.998089 
8.95198e+2, 2.852696e+2, -86664.6, -274532.38, -6110.953, -0.038682375, -0.114744544, -86466.03, 57887.402, 0.000013171274, 10.001062, 9.998582 
8.952211e+2, 2.952686e+2, 71677.664, -146487.0, 10054.537, -0.084624484, -0.103147216, 72140.06, 118500.31, 0.000055655084, 10.001453, 9.998605 
8.952463e+2, 3.0526727e+2, 110572.37, -226613.19, 106809.016, -0.08962927, -0.031199804, 141558.38, 141558.38, 0.00017580122, 10.001959, 9.997478 
8.9527315e+2, 3.152644e+2, 193432.92, -109480.68, 135845.16, -0.09240371, -0.08378007, 245428.98, 245428.98, 0.00038747952, 10.002142, 9.99819 
9.048154e+2, 1.2525877e+2, -1837164.0, -1613785.3, 71067.875, -0.07391709, 0.044087045, -1593092.0, 119376.04, 0.0000010657902, 9.998388, 10.001464 
9.048383e+2, 1.3526008e+2, -1723088.8, -1536741.9, -4436.788, -0.06162763, 0.028372478, -1536636.3, 77815.97, 0.000000007369457, 9.998687, 10.001168 
9.048614e+2, 1.4526065e+2, -1661545.8, -1592161.5, 7982.869, -0.015409807, 0.04096688, -1591254.9, -74809.63, 0.0, 9.999005, 9.999953 
9.0488505e+2, 1.5526107e+2, -1485791.5, -1456342.8, 5360.022, 0.05648528, 0.05764364, -1455397.5, -36956.07, 0.0, 9.999541, 9.999956 
9.049084e+2, 1.6526054e+2, -1354251.9, -1347784.6, 67035.02, 0.04225889, 0.020336645, -1283905.3, 36539.27, 0.0, 9.999799, 9.99991 
9.0493166e+2, 1.752589e+2, -1255804.1, -1246427.0, 69219.88, -0.03624212, -0.15582803, -1181737.0, 40719.48, 0.0, 9.999791, 9.999932 
9.0495557e+2, 1.852587e+2, -1162015.0, -1214438.6, 91828.914, -0.0482085, -0.13726957, -1092730.1, 31728.299, 0.0, 10.000026, 9.999363 
9.049802e+2, 1.9525951e+2, -988235.7, -1083346.6, 82238.23, -0.00792223, -0.013703925, -940793.0, 85660.87, 0.0, 10.000551, 9.999343 
9.050042e+2, 2.0525919e+2, -834813.75, -979001.0, 65299.723, -0.008245788, 0.036461316, -809636.9, 118820.63, 0.0, 10.001038, 9.9991455 
9.050278e+2, 2.1525756e+2, -672887.44, -853578.5, 12287.955, -0.04479573, -0.062445205, -672055.56, 158415.98, 0.0, 10.001488, 9.999121 
9.05052e+2, 2.2525586e+2, -584229.6, -857716.06, 32983.906, -0.06379905, -0.09117332, -580307.8, 152178.38, 0.0, 10.001858, 9.998237 
9.0507656e+2, 2.3525387e+2, -429817.75, -734433.4, 30407.137, -0.073624715, -0.13467018, -426812.13, 207691.63, 0.0, 10.002247, 9.998224 
9.0510136e+2, 2.452526e+2, -383710.72, -696688.5, 29459.803, -0.06567871, -0.0632278, -380961.88, 155556.22, 0.0, 10.00204, 9.997905 
9.0512633e+2, 2.552517e+2, -387593.38, -645823.4, -21785.266, -0.044997334, 0.032826062, -385768.4, 52763.49, 0.0, 10.00133, 9.997924 
9.0515125e+2, 2.652503e+2, -279048.94, -455814.4, -33224.64, -0.0038238782, 0.067586765, -273010.34, 67536.47, 0.0000002007212, 10.0010395, 9.998701 
9.0517604e+2, 2.7524814e+2, -169687.64, -357174.88, -11196.029, 0.063071266, -0.039138734, -169021.42, 73544.516, 0.0000025589381, 10.001132, 9.998661 
9.0520006e+2, 2.8524616e+2, -38088.13, -282503.72, 8028.579, 0.051440723, -0.07672733, -37824.688, 106758.74, 0.000014749117, 10.00152, 9.998321 
9.052234e+2, 2.9524437e+2, 145960.4, -133086.48, -22305.723, -0.02090996, -0.11622783, 147732.17, 194331.94, 0.00006245814, 10.002073, 9.998401 
9.0524817e+2, 3.0524334e+2, 115352.25, -178909.31, 79719.38, -0.082111895, -0.026350616, 135561.38, 135561.38, 0.00018874744, 10.001793, 9.997888 
9.0527445e+2, 3.1524137e+2, -8244.044, -136951.9, 107856.695, -0.06746661, -0.028856711, 52998.582, 52998.582, 0.0004049675, 10.000437, 9.998834 
9.1481495e+2, 1.2523617e+2, -1874220.4, -1688473.1, 45147.94, -0.011288908, -0.015721131, -1678080.8, 34604.82, 0.000002613721, 9.998398, 10.00094 
9.1483754e+2, 1.352366e+2, -1765047.5, -1614645.4, 14311.758, -0.034477662, -0.06342918, -1613295.6, 1384.4069, 0.00000007607973, 9.998651, 10.000649 
9.1486055e+2, 1.4523679e+2, -1661924.8, -1580635.5, 13398.384, -0.027505575, -0.068881, -1578484.0, -61806.652, 0.0, 9.998953, 10.000057 
9.148845e+2, 1.5523744e+2, -1478891.6, -1438786.6, 39515.56, 0.020923572, -0.038919196, -1414526.9, 4143.99, 0.0, 9.99953, 10.000081 
9.1490823e+2, 1.6523793e+2, -1327316.6, -1291032.8, 53044.36, 0.020822465, -0.003617784, -1253113.6, 67550.5, 0.0, 9.999794, 10.0003 
9.1493195e+2, 1.7523792e+2, -1235814.3, -1196708.4, 79672.305, -0.0032308016, -0.053836282, -1134224.8, 88435.57, 0.0, 9.999755, 10.000291 
9.14956e+2, 1.8523753e+2, -1171165.0, -1219227.6, 101371.55, -0.029506948, -0.07037229, -1091015.3, 33647.313, 0.0, 9.999965, 9.99936 
9.149803e+2, 1.9523656e+2, -1006976.9, -1096814.4, 114686.305, -0.068106405, -0.12416726, -928726.5, 97945.945, 0.0, 10.000446, 9.999301 
9.150045e+2, 2.0523545e+2, -927353.4, -1145513.3, 71983.5, -0.10406372, -0.09441655, -905742.6, 22942.416, 0.0, 10.000923, 9.998058 
9.1502863e+2, 2.1523395e+2, -770137.2, -1019588.1, 38936.363, -0.13270633, -0.074175514, -764200.94, 66502.35, 0.0, 10.001334, 9.998054 
9.150538e+2, 2.2523227e+2, -584635.0, -834141.5, 34686.207, -0.08520201, -0.06102291, -579902.7, 152815.81, 0.0, 10.001742, 9.998458 
9.150801e+2, 2.3523022e+2, -438662.63, -717997.75, 56222.68, 0.036162492, -0.13140194, -427771.2, 206961.89, 0.0, 10.002095, 9.99841 
9.1510445e+2, 2.4522778e+2, -469848.9, -851052.25, -5975.6035, 0.016349351, -0.13466148, -469755.25, 67004.02, 0.0, 10.001929, 9.996902 
9.1512704e+2, 2.5522462e+2, -469769.84, -796552.4, -33414.246, -0.13333039, -0.16310869, -466388.16, -27588.656, 0.0, 10.001238, 9.996939 
9.1515106e+2, 2.652238e+2, -222501.14, -325590.4, -37446.367, -0.14125186, -0.06883118, -210334.88, 130475.2, 0.00000011562638, 10.000989, 9.999619 
9.151766e+2, 2.7522486e+2, -116397.01, -230585.2, 7872.5977, -0.0145332785, 0.055471275, -115856.8, 126939.31, 0.0000025826089, 10.001064, 9.999564 
9.1520166e+2, 2.8522378e+2, -81687.945, -359132.44, 18195.357, 0.03963053, 0.0856704, -80499.75, 64306.3, 0.000017159802, 10.001463, 9.997821 
9.152262e+2, 2.9522055e+2, 99377.32, -215543.1, 13933.64, 0.017774127, -0.04241812, 99992.61, 146832.08, 0.00007135739, 10.0020075, 9.9978695 
9.152497e+2, 3.0521888e+2, 170275.61, -42991.953, 24988.219, -0.12879719, -0.042712428, 173164.31, 173164.31, 0.00020564985, 10.001706, 9.998857 
9.1527313e+2, 3.1521815e+2, 81521.66, 72867.375, 84541.55, -0.30011576, -0.026461579, 161846.73, 161846.73, 0.00042848263, 10.000348, 10.000309 
9.248138e+2, 1.2521422e+2, -1801722.0, -1712258.6, 60673.516, 0.014208361, -0.008229192, -1681610.0, 31286.777, 0.0000053718704, 9.999137, 10.000428 
9.248365e+2, 1.3521427e+2, -1826764.6, -1689591.1, 5135.514, 0.022458337, -0.054401744, -1689399.1, -74501.97, 0.00000033393198, 9.998418, 10.000259 
9.2485976e+2, 1.4521399e+2, -1704421.9, -1578460.1, 83619.67, 0.025105253, -0.09701013, -1536756.5, -19857.455, 0.0, 9.998559, 10.000266 
9.2488396e+2, 1.5521437e+2, -1436410.9, -1400749.4, 85220.52, 0.014997687, -0.114856064, -1331514.3, 87378.664, 0.0, 9.999736, 10.000246 
9.249081e+2, 1.6521478e+2, -1314321.1, -1335665.1, 56373.777, 0.025266476, -0.072516285, -1267618.0, 53269.21, 0.0, 10.0000925, 9.999852 
9.2493224e+2, 1.7521496e+2, -1267982.5, -1262651.0, -2568.218, 0.063839085, -0.06089604, -1261615.1, -38730.656, 0.0, 9.999743, 9.999848 
9.249566e+2, 1.8521446e+2, -1169669.3, -1238079.8, 36521.754, 0.037431244, -0.055928558, -1153836.1, -28947.324, 0.0, 10.000062, 9.9991865 
9.24981e+2, 1.9521311e+2, -942717.2, -1082698.9, 9961.246, -0.056645945, -0.13004787, -942011.9, 84890.19, 0.0, 10.000967, 9.999144 
9.2500556e+2, 2.0521176e+2, -896462.75, -1176099.6, -8788.502, -0.10087636, -0.09434308, -896186.8, 32730.89, 0.0, 10.001337, 9.997651 
9.250303e+2, 2.1521017e+2, -801635.56, -1076975.6, -7943.559, -0.09007251, -0.040311884, -801406.56, 29531.717, 0.0, 10.001299, 9.997681 
9.2505574e+2, 2.2520855e+2, -654064.56, -837448.25, 31222.896, -0.029087054, -0.016178513, -648894.4, 84058.93, 0.0, 10.001131, 9.99873 
9.250818e+2, 2.3520674e+2, -602054.5, -766214.1, 30401.83, 0.074868366, -0.092137605, -596605.06, 38359.977, 0.0, 10.000833, 9.99869 
9.251061e+2, 2.4520448e+2, -592030.44, -860789.75, 40943.367, 0.046965092, -0.11295945, -585931.44, -48943.66, 0.0, 10.000878, 9.997347 
9.251285e+2, 2.5520152e+2, -427110.0, -726669.56, 97205.21, -0.10101025, -0.16406363, -398332.13, 40691.105, 0.0, 10.001324, 9.99738 
9.2515236e+2, 2.652005e+2, -172205.95, -375778.28, 116349.4, -0.13643436, -0.077954605, -119403.61, 221632.53, 0.00000007319143, 10.00164, 9.998964 
9.251776e+2, 2.7520093e+2, -54993.684, -270640.6, 28637.535, -0.053860735, 0.045718174, -51255.473, 191776.13, 0.0000027897247, 10.001778, 9.998944 
9.2520297e+2, 2.8519994e+2, -42506.9, -321021.88, 35369.316, 0.01898889, 0.107745625, -38085.45, 106956.7, 0.000020180585, 10.001654, 9.997985 
9.252284e+2, 2.9519758e+2, 10147.714, -242046.88, 50344.457, 0.08509664, 0.04774162, 19826.309, 66893.69, 0.00008285034, 10.001321, 9.998014 
9.252516e+2, 3.051955e+2, 113943.22, -50642.855, 51313.977, -0.07108365, -0.008451029, 128630.945, 128630.945, 0.0002292469, 10.001202, 9.999056 
9.25274e+2, 3.1519443e+2, 193270.38, 162641.47, 1653.7544, -0.26650235, -0.044347778, 193359.4, 193359.4, 0.0004645645, 10.000939, 10.000649 
9.348111e+2, 1.2519252e+2, -1839654.3, -1765287.6, -5187.625, -0.22374651, 0.01802144, -1764927.5, -51822.293, 0.000009857008, 9.999053, 10.000095 
9.3483484e+2, 1.3519332e+2, -1832021.6, -1707200.8, -12866.965, -0.0061060106, 0.06222063, -1705888.3, -90786.914, 0.0000009955157, 9.99846, 10.000111 
9.3485856e+2, 1.4519261e+2, -1686928.4, -1549848.4, 114297.734, 0.02664347, -0.024640705, -1485115.3, 31991.318, 0.00000000002439963, 9.9985895, 10.000452 
9.348832e+2, 1.5519194e+2, -1428761.9, -1375276.0, 140976.53, -0.06464685, -0.16656028, -1258528.4, 160578.27, 0.0, 9.999696, 10.0004425 
9.349078e+2, 1.6519111e+2, -1407776.0, -1519612.0, 28489.662, -0.045369655, -0.19481823, -1400936.6, -79822.945, 0.0, 10.000048, 9.998613 
9.349323e+2, 1.7519003e+2, -1356554.8, -1443174.0, -4161.2485, 0.06953884, -0.1835749, -1356355.3, -133226.6, 0.0, 9.999729, 9.998617 
9.3495697e+2, 1.8518957e+2, -1208191.8, -1304367.0, 61352.805, 0.052333098, -0.09115516, -1178327.0, -53190.52, 0.0, 10.000005, 9.998761 
9.349819e+2, 1.951893e+2, -986486.6, -1150731.4, 54274.79, -0.08553522, -0.015489774, -970172.06, 56969.44, 0.0, 10.00087, 9.998725 
9.350071e+2, 2.0518823e+2, -883875.06, -1130348.6, -23601.223, -0.102459475, 0.05002552, -881635.5, 47518.85, 0.0, 10.001246, 9.998012 
9.3503255e+2, 2.1518628e+2, -799059.75, -1041251.44, 1592.1921, -0.0061464556, 0.034838893, -799049.3, 32126.969, 0.0, 10.001159, 9.997999 
9.3505746e+2, 2.251848e+2, -657289.44, -807698.25, 11033.69, 0.011564303, 0.041842245, -656484.4, 76705.6, 0.0, 10.000975, 9.999008 
9.350816e+2, 2.3518346e+2, -601426.2, -734075.94, 31176.367, -0.045337334, -0.015116336, -594464.25, 40734.848, 0.0, 10.000696, 9.998979 
9.35106e+2, 2.4518263e+2, -477270.22, -600746.3, 44697.395, -0.070620075, 0.0022444027, -462788.53, 74415.27, 0.0, 10.000784, 9.999177 
9.351305e+2, 2.551821e+2, -317108.72, -481381.0, 122540.84, -0.0531018, 0.008071936, -251723.31, 187483.34, 0.0, 10.001241, 9.999109 
9.3515474e+2, 2.6518017e+2, -329546.2, -679692.8, 112327.59, -0.081882015, 0.023178969, -296609.53, 44618.37, 0.00000003612581, 10.001548, 9.996918 
9.351785e+2, 2.7517658e+2, -213451.19, -573347.44, 47717.824, -0.15711689, -0.050416887, -207231.86, 36038.6, 0.0000027030533, 10.00167, 9.996915 
9.3520355e+2, 2.85175e+2, 3153.2395, -214393.38, 13702.714, -0.107760906, 0.012937109, 4012.9417, 149301.89, 0.000022488803, 10.001595, 9.998747 
9.352298e+2, 2.9517528e+2, 58372.598, -142297.94, 54367.926, 0.062952384, 0.14388156, 72155.85, 119440.52, 0.00009525127, 10.001311, 9.998709 
9.352535e+2, 3.051731e+2, 74777.73, -128839.11, 36566.92, -0.024093883, 0.06886988, 81145.52, 81145.52, 0.00025879213, 10.001193, 9.998522 
9.352762e+2, 3.151706e+2, 142611.81, 67597.305, 15547.216, -0.19325347, -0.061788663, 145706.4, 145706.4, 0.0005142612, 10.000896, 10.000014 
9.4480866e+2, 1.2516753e+2, -2153153.5, -1870863.3, -109250.375, -0.24017604, -0.09227786, -1833521.5, -120175.42, 0.000016753027, 9.996676, 10.000533 
9.4483334e+2, 1.351694e+2, -1831547.8, -1661876.1, -108150.89, 0.011399006, 0.016881714, -1609257.5, 6074.3057, 0.000002343361, 9.998256, 10.00053 
9.448578e+2, 1.4516915e+2, -1628306.3, -1555932.0, 61400.742, 0.07118718, -0.029424757, -1520848.0, -3514.3093, 0.0000000053592455, 9.999137, 10.000146 
9.44883e+2, 1.551683e+2, -1468827.4, -1435507.6, 21204.008, -0.0331903, -0.1581793, -1425201.6, -5864.3506, 0.0, 9.999584, 10.000089 
9.4490796e+2, 1.6516723e+2, -1414568.5, -1561649.4, -70704.48, -0.028278911, -0.174033, -1386092.6, -64744.11, 0.0, 10.000181, 9.99825 
9.449325e+2, 1.7516585e+2, -1204736.5, -1409114.3, -62912.566, 0.065805025, -0.1567353, -1186923.0, 36445.3, 0.0, 10.000954, 9.99825 
9.449574e+2, 1.8516529e+2, -1067433.5, -1259883.5, 63541.457, 0.050169826, -0.045847632, -1048346.9, 77031.125, 0.0, 10.001077, 9.99854 
9.449827e+2, 1.9516513e+2, -1037993.94, -1198135.3, 53151.617, -0.06392981, 0.06229876, -1021958.4, 5423.788, 0.0, 10.000616, 9.998514 
9.450083e+2, 2.0516396e+2, -941116.75, -1097694.4, 10657.674, -0.06113776, 0.097645216, -940394.7, -11000.177, 0.0, 10.000589, 9.998552 
9.4503415e+2, 2.151617e+2, -797474.8, -975249.75, 26932.186, 0.05533526, -0.003156474, -793484.25, 37931.27, 0.0, 10.000897, 9.998568 
9.450587e+2, 2.251603e+2, -629019.56, -795429.7, 53312.92, 0.040415972, -0.015879527, -613404.8, 120022.92, 0.0, 10.001183, 9.99899 
9.450821e+2, 2.3515941e+2, -486937.66, -678240.1, 31110.775, -0.09418821, -0.025305908, -482005.4, 153428.89, 0.0, 10.001487, 9.998977 
9.451066e+2, 2.4515888e+2, -343619.56, -526202.5, -515.78455, -0.11525764, 0.016406119, -343618.1, 193818.77, 0.0, 10.001656, 9.999268 
9.4513226e+2, 2.5515845e+2, -248701.06, -433449.22, -71384.93, -0.015565642, 0.026349831, -224332.78, 215104.98, 0.0, 10.001652, 9.999233 
9.4515663e+2, 2.6515645e+2, -337172.94, -691402.44, -60856.957, -0.03713979, 0.027315872, -327009.28, 14450.526, 0.000000027783642, 10.001517, 9.99686 
9.4517976e+2, 2.7515253e+2, -280584.0, -611846.4, -4296.435, -0.1662471, -0.06605818, -280528.28, -37023.297, 0.000002329391, 10.001227, 9.996873 
9.4520456e+2, 2.851507e+2, -39670.035, -234832.23, 32024.135, -0.14631687, -0.024621489, -34549.547, 110975.484, 0.000023981273, 10.001305, 9.998751 
9.452308e+2, 2.951507e+2, 101574.56, -120188.37, -5006.346, 0.024024565, 0.07518862, 101687.52, 149209.72, 0.00010679835, 10.0016165, 9.998712 
9.4525504e+2, 3.0514833e+2, 148267.88, -152487.16, -21835.098, -0.013411719, 0.013465556, 149844.86, 149844.86, 0.00028981623, 10.001967, 9.997988 
9.4527894e+2, 3.1514648e+2, 270367.78, 38640.324, -96044.164, -0.06189319, 0.0026705598, 304999.53, 304999.53, 0.00057081727, 10.002178, 9.999201 
9.548056e+2, 1.2513931e+2, -2088830.0, -1718886.5, -85971.99, -0.25893357, -0.33215758, -1699883.4, 13735.194, 0.00002677623, 9.996617, 10.001589 
9.5483136e+2, 1.351425e+2, -1770588.1, -1515235.3, -42481.87, -0.02336118, -0.19909796, -1508353.3, 107235.55, 0.0000047533053, 9.998184, 10.001556 
9.5485705e+2, 1.4514345e+2, -1695036.0, -1685571.0, 60221.727, 0.05360157, -0.13298213, -1629896.1, -112314.164, 0.000000046136613, 9.99909, 9.999284 
9.548831e+2, 1.5514351e+2, -1519878.8, -1551079.8, 47221.04, -0.0058829263, -0.08457729, -1485748.0, -66163.4, 0.0, 9.999624, 9.999277 
9.549083e+2, 1.6514331e+2, -1376604.8, -1488793.1, -53656.027, -0.034525063, 0.002139385, -1355074.8, -33484.414, 0.0, 10.000202, 9.998742 
9.549327e+2, 1.7514254e+2, -1172312.4, -1338236.9, -23838.516, -0.03868515, 0.030393384, -1168955.4, 54646.637, 0.0, 10.000935, 9.998748 
9.549576e+2, 1.851417e+2, -1070256.4, -1259549.4, 34776.484, -0.061578207, 0.086803555, -1064069.6, 61543.094, 0.0, 10.001042, 9.998564 
9.5498323e+2, 1.9514056e+2, -1044680.7, -1197732.4, 46278.723, -0.10009359, 0.09513467, -1031775.4, -4150.729, 0.0, 10.000548, 9.998553 
9.55009e+2, 2.0513889e+2, -904176.75, -995545.56, 9550.729, -0.07310614, 0.04251717, -903189.1, 26449.092, 0.0, 10.000479, 9.999309 
9.550347e+2, 2.1513647e+2, -770852.6, -882592.4, 48717.16, 0.007144745, -0.14935528, -752595.56, 79060.37, 0.0, 10.000734, 9.999288 
9.5505935e+2, 2.2513513e+2, -669518.25, -841694.25, 53610.773, -0.0293889, -0.17883947, -654190.0, 79476.13, 0.0, 10.001023, 9.998747 
9.55083e+2, 2.3513454e+2, -530202.9, -732891.94, 55216.98, -0.17285745, -0.13198467, -516136.7, 119535.09, 0.0, 10.001333, 9.998679 
9.5510775e+2, 2.4513319e+2, -473662.2, -761838.25, -10126.407, -0.18975039, -0.07850112, -473306.8, 64380.203, 0.0, 10.001516, 9.997711 
9.551334e+2, 2.5513086e+2, -373409.9, -666529.44, -57940.992, -0.0876677, -0.105476536, -362372.3, 77341.79, 0.0, 10.001539, 9.9976845 
9.5515776e+2, 2.6512945e+2, -227359.31, -437299.8, -80213.22, -0.08707366, -0.053003304, -200220.08, 141509.5, 0.000000030362223, 10.001412, 9.998652 
9.551809e+2, 2.751287e+2, -166808.03, -361612.0, 416.74158, -0.19251654, -0.013815614, -166807.14, 76929.61, 0.000002140531, 10.001168, 9.998619 
9.5520544e+2, 2.851269e+2, -95599.44, -337785.03, 33516.34, -0.20552588, -0.019780863, -91046.664, 54706.07, 0.000025889522, 10.00125, 9.998067 
9.552311e+2, 2.9512396e+2, 46262.01, -223004.47, 21311.334, -0.13203448, -0.14863351, 47938.28, 95716.8, 0.00011778403, 10.001562, 9.998031 
9.552561e+2, 3.0512154e+2, 101049.984, -235296.19, -13727.502, -0.11966984, -0.15342085, 101609.32, 101609.32, 0.00031950467, 10.001901, 9.997455 
9.552816e+2, 3.1512237e+2, 197175.61, -106286.14, -60904.395, -0.060048882, 0.15799733, 208942.77, 208942.77, 0.00062882464, 10.002139, 9.998229 
9.6480334e+2, 1.251135e+2, -2046295.0, -1738910.0, 22662.488, -0.15475848, -0.36338583, -1737248.1, -23378.318, 0.000040530904, 9.997059, 10.001243 
9.648297e+2, 1.3511638e+2, -1686990.6, -1507084.3, -70705.08, -0.029668419, -0.23473251, -1482622.5, 133221.34, 0.000008656152, 9.998879, 10.001283 
9.6485615e+2, 1.4511742e+2, -1637992.5, -1648657.3, -4101.44, 0.046225667, -0.14634262, -1636597.6, -118760.28, 0.00000019058375, 9.999477, 9.9993305 
9.648825e+2, 1.5511793e+2, -1578403.3, -1572824.3, 18272.896, -0.0027890508, -0.054084297, -1557129.3, -137291.45, 0.0, 9.999231, 9.999302 
9.6490806e+2, 1.651181e+2, -1474046.0, -1490498.8, -17082.357, -0.028492304, 0.04786616, -1463312.4, -141472.45, 0.0, 9.999349, 9.99914 
9.6493304e+2, 1.7511761e+2, -1306914.8, -1363451.0, -17753.559, -0.030812792, 0.065012865, -1301802.1, -77954.94, 0.0, 9.999837, 9.999106 
9.649583e+2, 1.8511659e+2, -1173873.4, -1293403.9, 37586.813, -0.044565383, 0.07859365, -1163036.5, -37178.52, 0.0, 10.000258, 9.998716 
9.64984e+2, 1.9511485e+2, -1024920.4, -1172208.8, 37309.81, -0.07250962, 0.015359415, -1016008.6, 11865.557, 0.0, 10.000614, 9.998702 
9.6500957e+2, 2.0511335e+2, -869753.25, -954903.75, 7748.142, -0.06124687, -0.038332555, -869054.0, 60831.813, 0.0, 10.000636, 9.999499 
9.6503496e+2, 2.1511184e+2, -811559.8, -880839.7, -20633.658, -0.011450011, -0.16272712, -805880.1, 26015.588, 0.0, 10.000376, 9.999461 
9.6505994e+2, 2.2511077e+2, -756729.2, -884841.44, 8038.236, -0.029376177, -0.17065853, -756226.8, -22323.121, 0.0, 10.000419, 9.998751 
9.650847e+2, 2.3510994e+2, -616559.5, -767728.56, 8748.052, -0.09864067, -0.14820325, -616054.94, 19857.225, 0.0, 10.000712, 9.998737 
9.6510935e+2, 2.4510838e+2, -590972.44, -831391.75, 16007.246, -0.12518004, -0.11389695, -589911.3, -51981.535, 0.0, 10.000756, 9.997608 
9.6513414e+2, 2.5510597e+2, -522585.53, -749578.0, 52885.875, -0.105168395, -0.13516614, -510868.7, -70910.87, 0.0, 10.000568, 9.997585 
9.651586e+2, 2.6510477e+2, -267984.28, -435482.22, 66474.9, -0.11863102, -0.06948128, -244808.97, 97162.31, 0.000000012060779, 10.001037, 9.998842 
9.651827e+2, 2.7510437e+2, -25251.389, -273658.5, 4683.231, -0.16667163, -0.014897754, -25163.125, 218811.23, 0.0000023356135, 10.002055, 9.998791 
9.652075e+2, 2.851025e+2, 40957.035, -295315.66, 4062.8787, -0.16409436, -0.027403522, 41006.113, 186996.61, 0.000028869204, 10.002293, 9.997848 
9.652329e+2, 2.950991e+2, 59296.52, -243768.06, -5567.776, -0.10496889, -0.17498732, 59398.773, 107418.664, 0.00012892728, 10.001776, 9.997781 
9.6525824e+2, 3.0509678e+2, 101543.875, -260132.4, 31997.47, -0.09039985, -0.15024246, 104352.875, 104352.875, 0.00034703137, 10.002005, 9.997231 
9.652842e+2, 3.1509712e+2, 219993.78, -144527.13, -45194.176, -0.020260897, 0.13583915, 225513.48, 225513.48, 0.0006841425, 10.002528, 9.997764 
9.7480106e+2, 1.2509006e+2, -2161983.5, -1975351.1, 53029.125, -0.14433987, -0.19392675, -1961336.1, -247236.02, 0.000058506626, 9.997046, 9.999624 
9.7482795e+2, 1.3509127e+2, -1785340.1, -1719747.4, 1955.3434, -0.11499811, -0.07785769, -1719689.3, -103594.64, 0.00001444443, 9.998919, 9.999802 
9.748547e+2, 1.4509141e+2, -1576081.5, -1528704.9, -26810.854, -0.07434647, -0.05098864, -1516616.8, 1480.2592, 0.0000005546723, 9.999512, 10.000141 
9.748808e+2, 1.5509166e+2, -1526272.9, -1460503.8, 22397.643, -0.11881096, -0.06466919, -1453600.8, -33504.906, 0.0, 9.999211, 10.000085 
9.7490686e+2, 1.6509159e+2, -1458957.3, -1451009.1, -13235.934, -0.10543188, -0.039715867, -1441163.5, -119065.87, 0.0, 9.99931, 9.999432 
9.7493327e+2, 1.7509103e+2, -1289165.0, -1323255.8, 7853.5107, -0.008502991, -0.058722332, -1287442.8, -63338.875, 0.0, 9.99982, 9.999391 
9.749593e+2, 1.8508996e+2, -1161427.3, -1256877.6, 41198.805, 0.0028202247, -0.076524146, -1146104.5, -19990.803, 0.0, 10.000211, 9.998989 
9.7498477e+2, 1.9508815e+2, -1018310.44, -1139166.8, 62863.57, -0.07866329, -0.17770949, -991541.2, 36588.53, 0.0, 10.000529, 9.998968 
9.750098e+2, 2.050875e+2, -916607.6, -1027024.94, -14846.517, -0.1145293, -0.13832131, -914646.2, 15489.6875, 0.0, 10.000523, 9.999063 
9.7503453e+2, 2.1508767e+2, -860650.2, -954920.1, -20167.58, -0.10581748, -0.047517687, -856516.9, -24381.32, 0.0, 10.000249, 9.99902 
9.7506016e+2, 2.250871e+2, -756899.56, -848412.44, 6705.8706, -0.06394614, 0.0017033617, -756410.75, -22269.6, 0.0, 10.000265, 9.99907 
9.7508675e+2, 2.3508564e+2, -621843.4, -734253.6, 29825.336, 0.016510414, -0.07473455, -614420.1, 21734.922, 0.0, 10.000527, 9.999052 
9.7511137e+2, 2.4508455e+2, -516297.56, -652103.4, -3309.6685, -0.01899445, -0.0728339, -516216.94, 21947.418, 0.0, 10.000648, 9.998896 
9.7513425e+2, 2.5508362e+2, -443930.25, -569106.5, 57708.76, -0.17267886, -0.07532882, -421385.7, 18785.795, 0.0, 10.000489, 9.998866 
9.751587e+2, 2.6508203e+2, -371091.13, -630706.6, 92401.7, -0.23014693, -0.046605557, -341562.34, 626.0127, 0.0000000034767167, 10.0009575, 9.997538 
9.7518474e+2, 2.7507955e+2, -130218.9, -468386.13, 56923.438, -0.19360495, -0.070929684, -120894.15, 123323.33, 0.0000028342504, 10.001955, 9.9975 
9.752104e+2, 2.8507757e+2, 43136.094, -276699.47, -23932.996, -0.124586195, -0.036727797, 44917.063, 191153.81, 0.000032313746, 10.002233, 9.998007 
9.752357e+2, 2.9507592e+2, 65660.35, -224471.28, -4664.203, -0.03221972, -0.02637353, 65735.31, 113983.58, 0.0001399921, 10.001748, 9.997929 
9.7526085e+2, 3.0507356e+2, 85433.51, -275502.63, 46825.85, -0.046357404, -0.0071387095, 91409.484, 91409.484, 0.00037284024, 10.001933, 9.997159 
9.7528595e+2, 3.150706e+2, 188793.55, -175597.75, 11496.541, -0.15578611, -0.05151633, 189155.89, 189155.89, 0.00073526404, 10.002386, 9.997616 
9.848001e+2, 1.2506491e+2, -1848538.0, -1829871.3, 3829.1985, -0.04193209, -0.07018992, -1829116.3, -114764.92, 0.00008108169, 9.999232, 9.999568 
9.848266e+2, 1.3506508e+2, -1800720.3, -1737276.4, 27147.629, -0.12788375, -0.04733805, -1727245.9, -110891.85, 0.000022462764, 9.998857, 9.999713 
9.848534e+2, 1.4506492e+2, -1703991.5, -1559619.1, 21243.31, -0.097616896, -0.05981088, -1556558.3, -38200.727, 0.0000013019285, 9.998477, 10.000435 
9.8487926e+2, 1.5506561e+2, -1636441.1, -1477927.8, 7033.725, -0.13062705, -0.06390129, -1477616.4, -57265.58, 0.0, 9.998291, 10.000406 
9.8490596e+2, 1.6506557e+2, -1516094.1, -1485841.5, 18268.164, -0.10380528, -0.048077773, -1477250.0, -154898.31, 0.0, 9.998946, 9.99937 
9.8493344e+2, 1.7506464e+2, -1195190.8, -1282604.5, -10014.609, -0.0017024652, -0.095787585, -1194058.1, 30303.988, 0.0, 10.000489, 9.999347 
9.849597e+2, 1.8506381e+2, -1057666.4, -1164040.0, -19619.607, 0.008870135, -0.10635167, -1054163.1, 72206.77, 0.0, 10.000748, 9.999363 
9.849847e+2, 1.9506285e+2, -1118575.5, -1147328.8, -17806.416, -0.0855483, -0.15930474, -1110066.4, -81688.65, 0.0, 9.999677, 9.999321 
9.850098e+2, 2.050626e+2, -1035634.06, -1090392.8, -24049.12, -0.123466164, -0.094085775, -1026571.9, -96191.086, 0.0, 9.999712, 9.999028 
9.85035e+2, 2.1506275e+2, -789190.75, -922222.9, -20529.193, -0.104535915, -0.00096205843, -786094.8, 46287.027, 0.0, 10.000746, 9.999007 
9.85061e+2, 2.2506227e+2, -643379.94, -790257.56, 14772.165, -0.04075557, 0.052417, -641909.0, 92478.67, 0.0, 10.001018, 9.999109 
9.850877e+2, 2.3506096e+2, -621181.5, -729365.75, -2148.3105, 0.0753626, -0.010584439, -621138.9, 15261.43, 0.0, 10.000506, 9.999098 
9.851124e+2, 2.4506006e+2, -491760.3, -581944.06, -35167.348, 0.030053787, -0.019009257, -479668.1, 58738.56, 0.0, 10.000582, 9.999401 
9.8513496e+2, 2.5505918e+2, -296246.63, -445965.28, -57884.11, -0.17975788, -0.06440469, -276477.78, 163932.72, 0.0, 10.001276, 9.999333 
9.851599e+2, 2.650576e+2, -320133.06, -623732.6, 8905.464, -0.22700958, -0.05287687, -319872.06, 22554.83, 0.00000001775074, 10.001387, 9.997386 
9.8518693e+2, 2.7505505e+2, -289566.03, -562910.2, 29265.469, -0.102098405, -0.06053195, -286467.88, -42010.637, 0.000003544514, 10.0009365, 9.997352 
9.8521286e+2, 2.8505298e+2, -79039.95, -336676.72, 10762.695, -0.05397968, -0.027457995, -78591.125, 67886.945, 0.00003520851, 10.001384, 9.998019 
9.852373e+2, 2.9505113e+2, 201221.98, -156750.86, -4284.165, -0.08349273, -0.04181067, 201273.25, 249765.38, 0.00014922032, 10.002661, 9.997962 
9.8526263e+2, 3.0504918e+2, 227513.98, -162679.86, 59152.168, -0.086947076, 0.0009733337, 236284.14, 236284.14, 0.00039592202, 10.002714, 9.997559 
9.852886e+2, 3.150461e+2, 63039.96, -185219.88, 13577.466, -0.05529757, -0.08917292, 63780.31, 63780.31, 0.0007798097, 10.001281, 9.998093 
9.947996e+2, 1.2503807e+2, -1738407.4, -1611070.8, -51390.652, -0.06991858, 0.021105157, -1592918.3, 121705.45, 0.000108580556, 9.999287, 10.001034 
9.948254e+2, 1.3503775e+2, -1705578.5, -1533990.5, 18609.83, -0.15045255, -0.1494171, -1531995.4, 84626.8, 0.000033028722, 9.998839, 10.001112 
9.9485195e+2, 1.4503801e+2, -1719970.3, -1589273.9, -1340.3665, -0.11988422, -0.17972095, -1589260.1, -70641.984, 0.0000026281716, 9.998456, 10.000244 
9.9487776e+2, 1.5503989e+2, -1643980.4, -1499039.4, 11119.954, -0.14085554, -0.046237625, -1498191.3, -77589.98, 0.00000000019976186, 9.998307, 10.000258 
9.9490476e+2, 1.6504015e+2, -1547394.1, -1547854.5, 64697.17, -0.13389663, 0.026861068, -1482926.6, -160325.44, 0.0, 9.998937, 9.998945 
9.949332e+2, 1.7503853e+2, -1224966.3, -1344445.6, 58392.074, -0.09805747, -0.04793998, -1201168.8, 23452.195, 0.0, 10.000485, 9.998924 
9.9495935e+2, 1.8503815e+2, -1036468.9, -1110950.1, -72957.49, -0.12103529, -0.0121407965, -991797.0, 134829.36, 0.0, 10.000709, 9.999748 
9.9498343e+2, 1.9503883e+2, -1099489.4, -1092548.1, -47811.67, -0.19700406, 0.059206903, -1048081.3, -19461.652, 0.0, 9.99961, 9.999731 
9.9500895e+2, 2.0503856e+2, -1027315.4, -1041912.7, 904.23175, -0.18908644, 0.084593475, -1027259.56, -96638.125, 0.0, 9.999581, 9.999424 
9.950359e+2, 2.1503712e+2, -783609.3, -873131.5, 27817.043, -0.10382244, -0.021213505, -775669.9, 56964.453, 0.0, 10.000584, 9.999423 
9.9506205e+2, 2.2503635e+2, -683941.0, -830020.94, -15801.872, -0.04793906, -0.00951377, -682251.2, 52391.008, 0.0, 10.000832, 9.998925 
9.9508744e+2, 2.3503597e+2, -657173.06, -766879.5, -9624.292, -0.019669505, 0.040243533, -656335.2, -19687.813, 0.0, 10.000349, 9.998916 
9.9511206e+2, 2.450349e+2, -530993.2, -634128.75, -20578.303, -0.07936762, 0.038788516, -527038.94, 11617.744, 0.0, 10.000453, 9.9991045 
9.9513596e+2, 2.5503284e+2, -334320.44, -494974.78, -19431.795, -0.22643384, -0.09788493, -332003.5, 108669.59, 0.0, 10.001142, 9.9990635 
9.951616e+2, 2.6503158e+2, -277605.22, -511645.22, -17239.36, -0.2044621, -0.07703319, -276342.2, 66342.32, 0.000000028595345, 10.001287, 9.998204 
9.9518895e+2, 2.750309e+2, -244200.23, -451377.84, 27366.0, -0.016410142, 0.017666616, -240646.44, 4047.1003, 0.000003781716, 10.000863, 9.998154 
9.9521434e+2, 2.8502864e+2, -97460.03, -355474.38, 48104.14, -0.06357959, -0.0032846166, -88783.29, 57932.176, 0.000036350866, 10.001303, 9.997926 
9.952375e+2, 2.9502475e+2, 183338.72, -168301.39, 59707.973, -0.3497134, -0.21079151, 193200.48, 241950.98, 0.00015456251, 10.002557, 9.997928 
9.952636e+2, 3.0502385e+2, 270645.53, -59305.902, -282.06366, -0.29161856, -0.10836131, 270645.75, 270645.75, 0.00041193186, 10.002652, 9.998301 
9.952913e+2, 3.1502348e+2, 117223.445, -42264.348, -7587.13, 0.03387954, -0.00044312218, 117583.57, 117583.57, 0.0008105773, 10.001157, 9.999134 
1.0047989e+3, 1.2501211e+2, -1828182.0, -1656198.5, 48642.06, -0.022420902, 0.08376156, -1643394.4, 71487.02, 0.00014134821, 9.998672, 10.001026 
1.0048245e+3, 1.3501142e+2, -1718918.0, -1540631.8, -21809.354, -0.10548882, -0.12290858, -1538002.6, 78880.336, 0.000046426092, 9.998753, 10.001104 
1.0048514e+3, 1.4501145e+2, -1618343.5, -1528822.3, -30190.799, -0.040440675, -0.17695169, -1519592.1, -711.8047, 0.00000474816, 9.999132, 10.000321 
1.0048775e+3, 1.5501334e+2, -1375114.9, -1363754.4, -33739.74, -0.07940813, -0.04742803, -1335220.0, 85642.78, 0.000000004412824, 10.00014, 10.000304 
1.0049045e+3, 1.6501376e+2, -1341392.9, -1403147.3, 76778.664, -0.10384282, 0.021888107, -1289515.3, 33344.73, 0.0, 10.000147, 9.999365 
1.0049327e+3, 1.7501257e+2, -1394376.1, -1376317.1, 113900.99, -0.116705306, -0.05396416, -1271088.3, -46214.59, 0.0, 9.999112, 9.999371 
1.00495905e+3, 1.8501249e+2, -1270098.6, -1243341.3, 9747.955, -0.1406113, -0.0015834251, -1240166.6, -113289.945, 0.0, 9.999195, 9.999564 
1.0049837e+3, 1.9501327e+2, -987997.75, -1061493.9, -30617.137, -0.17066738, 0.10038013, -976914.56, 51956.992, 0.0, 10.000479, 9.99952 
1.0050095e+3, 2.0501292e+2, -861323.9, -950635.3, 5449.2236, -0.14098875, 0.121293284, -860992.6, 69882.52, 0.0, 10.000669, 9.99952 
1.0050364e+3, 2.1501122e+2, -910600.8, -927045.7, -15474.437, -0.060638323, -0.019901412, -901299.94, -68410.305, 0.0, 9.999676, 9.99949 
1.00506224e+3, 2.2501042e+2, -867901.06, -877571.06, -29024.662, -0.029334242, -0.031842515, -843311.44, -108414.9, 0.0, 9.999396, 9.999291 
1.0050871e+3, 2.3501022e+2, -708164.8, -754277.5, -10209.935, -0.045147043, -0.0005369412, -706005.3, -69106.66, 0.0, 9.999836, 9.999252 
1.00511216e+3, 2.4500929e+2, -574397.75, -669942.0, 45771.4, -0.094983965, 0.0031397378, -556009.5, -17102.898, 0.0, 10.00021, 9.998979 
1.0051373e+3, 2.5500748e+2, -438518.16, -550533.1, 36540.258, -0.16813456, -0.09823887, -427652.4, 13269.738, 0.0, 10.000472, 9.998991 
1.0051634e+3, 2.6500636e+2, -295914.25, -490374.2, 36348.59, -0.13525759, -0.072929285, -289342.06, 53589.62, 0.000000017098808, 10.001034, 9.998465 
1.0051904e+3, 2.7500564e+2, -89592.34, -346842.0, 17173.719, -0.0010628352, -0.014020808, -88450.91, 156488.27, 0.000003428396, 10.001798, 9.998412 
1.0052158e+3, 2.850036e+2, -33323.133, -331640.06, 47352.285, -0.05863657, -0.022756834, -25987.232, 120972.12, 0.00003625069, 10.001776, 9.997855 
1.0052397e+3, 2.950002e+2, -68192.87, -303278.5, 33292.855, -0.29137012, -0.17490306, -63568.88, -14575.793, 0.00015744341, 10.000869, 9.997818 
1.00526586e+3, 3.0499923e+2, 45775.02, -166995.69, -41017.406, -0.22921531, -0.06816995, 53408.395, 53408.395, 0.00042211023, 10.001101, 9.998312 
1.0052931e+3, 3.149979e+2, 300949.78, 71280.66, -139405.02, 0.058336426, -0.055148583, 366727.34, 366727.34, 0.0008305699, 10.002294, 9.999377 
1.0147973e+3, 1.24987185e+2, -1934682.9, -1872576.4, 6098.122, -0.10819941, 0.11398404, -1871983.3, -156860.86, 0.0001798155, 9.998659, 9.999539 
1.0148235e+3, 1.3498624e+2, -1821491.9, -1761340.6, -10216.078, -0.108405, 0.0296893, -1759652.9, -142518.22, 0.000062927356, 9.998778, 9.9995775 
1.0148514e+3, 1.449854e+2, -1603021.9, -1499217.5, -9414.096, 0.01627036, -0.046359655, -1498370.6, 20772.62, 0.000007860604, 9.999142, 10.000519 
1.0148782e+3, 1.54986e+2, -1361706.0, -1337675.0, 15249.857, -0.039221995, -0.0628724, -1330275.9, 90859.53, 0.000000028517778, 10.00015, 10.000477 
1.014905e+3, 1.6498654e+2, -1244528.1, -1206837.8, 24709.691, -0.10345169, -0.05892287, -1194607.0, 128519.875, 0.0, 10.000164, 10.000704 
1.0149317e+3, 1.7498685e+2, -1299849.0, -1183435.6, 84672.18, -0.15011966, -0.11880994, -1138893.1, 86226.6, 0.0, 9.999118, 10.000695 
1.0149584e+3, 1.8498689e+2, -1333155.6, -1361637.8, 47460.33, -0.1481902, -0.07960922, -1297845.8, -170725.42, 0.0, 9.999142, 9.998777 
1.0149851e+3, 1.9498637e+2, -1055641.9, -1180728.0, 29152.266, -0.10146252, -0.031124754, -1049181.4, -20049.16, 0.0, 10.000384, 9.998748 
1.015011e+3, 2.0498583e+2, -895596.06, -991896.3, -43691.11, -0.07781115, 0.019800086, -878728.1, 52412.625, 0.0, 10.000544, 9.999296 
1.0150361e+3, 2.1498507e+2, -943560.2, -967190.06, -43265.34, -0.07592999, -0.00459872, -910525.56, -77377.734, 0.0, 9.999557, 9.9992695 
1.0150613e+3, 2.2498451e+2, -834003.25, -770442.06, -24938.09, -0.08335837, -0.021843871, -761825.7, -26674.688, 0.0, 9.999239, 10.0001 
1.0150866e+3, 2.3498385e+2, -669935.7, -643790.7, 16685.363, -0.10474496, -0.12136931, -635666.7, 1486.3203, 0.0, 9.9997, 10.000074 
1.0151124e+3, 2.4498343e+2, -593460.3, -674119.25, 41637.91, -0.11401407, -0.10886812, -575822.7, -36668.05, 0.0, 10.000063, 9.99902 
1.0151385e+3, 2.5498304e+2, -450224.4, -553599.5, 57141.62, -0.11305284, -0.070515744, -424861.53, 16296.843, 0.0, 10.000378, 9.999018 
1.0151647e+3, 2.6498175e+2, -322413.88, -525780.8, 55640.414, -0.12090853, -0.05546695, -308186.25, 34984.24, 0.000000011022683, 10.000948, 9.998264 
1.015191e+3, 2.7497935e+2, -114277.31, -376805.28, 60907.73, -0.14685173, -0.14632262, -100834.75, 144358.61, 0.0000031084232, 10.001703, 9.998252 
1.0152171e+3, 2.849779e+2, -52873.902, -353794.8, 2476.9434, -0.12571931, -0.0810084, -52853.516, 94355.79, 0.000035475467, 10.001701, 9.997736 
1.0152432e+3, 2.9497737e+2, -95468.34, -330427.84, 14429.173, -0.059437327, 0.06285333, -94585.54, -45365.656, 0.00015874387, 10.000757, 9.997677 
1.01526916e+3, 3.049754e+2, -8521.573, -272518.03, -1868.6178, -0.034516446, 0.1170224, -8508.347, -8508.347, 0.00042931808, 10.001056, 9.997615 
1.0152936e+3, 3.1496975e+2, 242646.61, -5315.086, -47035.086, -0.17967433, -0.23979858, 251268.75, 251268.75, 0.00084597495, 10.00211, 9.998937 
1.0247967e+3, 1.24960765e+2, -1863572.4, -1879672.3, 23687.162, -0.051571105, -0.00920916, -1846604.6, -131228.73, 0.00022439056, 9.999314, 9.999187 
1.02482274e+3, 1.3496043e+2, -1719885.0, -1756604.8, 63407.043, -0.09851987, 0.014706191, -1672233.3, -54847.59, 0.0000828242, 9.999667, 9.99919 
1.024851e+3, 1.4495973e+2, -1560811.4, -1520007.9, 122605.59, 0.037061103, -0.012491185, -1416118.1, 103277.086, 0.000012107546, 9.999594, 10.000164 
1.024878e+3, 1.5495992e+2, -1512753.9, -1448070.4, 84397.71, -0.017692404, -0.04065779, -1390029.8, 31362.85, 0.00000009714164, 9.999266, 10.000141 
1.0249049e+3, 1.6496034e+2, -1386798.3, -1247640.8, 27592.857, -0.059179053, -0.042339545, -1242369.3, 81016.13, 0.0, 9.999089, 10.000929 
1.0249317e+3, 1.7496094e+2, -1266682.3, -1136716.4, -22153.258, -0.059462592, -0.09636966, -1133044.0, 92330.37, 0.0, 9.999239, 10.000943 
1.02495834e+3, 1.8496098e+2, -1297515.3, -1310522.9, -2974.218, -0.05972095, -0.08520612, -1296867.5, -169493.94, 0.0, 9.999223, 9.999098 
1.0249849e+3, 1.9496024e+2, -1243977.0, -1234734.3, 42465.62, -0.07866298, -0.08951765, -1196639.3, -167253.81, 0.0, 9.998928, 9.999085 
1.0250107e+3, 2.0495982e+2, -1104938.5, -1107560.5, 14480.998, -0.08136389, -0.036756534, -1091709.3, -160316.44, 0.0, 9.999178, 9.999166 
1.025036e+3, 2.1495949e+2, -889333.2, -958275.75, -4153.7695, -0.056044385, -0.0028100302, -889083.8, -55686.06, 0.0, 10.000011, 9.999116 
1.0250614e+3, 2.2495894e+2, -665266.7, -708160.25, 14970.96, -0.05046723, -0.0014362204, -660558.25, 74843.336, 0.0, 10.00048, 9.999929 
1.02508694e+3, 2.3495795e+2, -573993.2, -617288.4, -39032.332, -0.07329241, -0.11320527, -551007.4, 86399.19, 0.0, 10.000457, 9.999891 
1.02511294e+3, 2.449575e+2, -511401.06, -615246.6, -25836.893, -0.08125453, -0.10166271, -505328.0, 34080.34, 0.0, 10.000559, 9.999173 
1.0251393e+3, 2.5495738e+2, -391668.16, -511590.28, -30801.207, -0.07725427, -0.052776087, -384219.72, 57189.906, 0.0, 10.000727, 9.999136 
1.025166e+3, 2.6495603e+2, -326818.38, -536614.0, 9411.158, -0.08205163, -0.04418688, -326397.03, 17025.459, 0.00000001218603, 10.000953, 9.998191 
1.0251929e+3, 2.7495322e+2, -193478.92, -418980.53, -299.4029, -0.0842363, -0.16363247, -193478.52, 51970.88, 0.0000027111198, 10.00119, 9.998207 
1.0252191e+3, 2.8495184e+2, -98172.94, -372754.56, -60098.824, -0.07295735, -0.094214104, -85595.02, 61871.195, 0.00003356842, 10.001388, 9.997753 
1.0252444e+3, 2.9495153e+2, 9401.805, -279618.0, -67654.27, -0.049586765, 0.07834559, 24454.47, 73930.35, 0.00015737157, 10.001476, 9.99768 
1.02527015e+3, 3.0494994e+2, 81987.01, -172808.84, 21705.379, -0.048925977, 0.14233144, 83822.805, 83822.805, 0.00043278775, 10.001472, 9.99808 
1.02529526e+3, 3.149451e+2, 151570.88, 26884.682, 17176.906, -0.14954369, -0.18053588, 153893.9, 153893.9, 0.00085734465, 10.001162, 9.999604 
1.0347964e+3, 1.2493266e+2, -1795159.4, -1752092.9, -21011.834, -0.06764476, -0.3012412, -1743540.0, -27896.475, 0.00027553758, 9.999376, 10.000031 
1.0348218e+3, 1.3493411e+2, -1668894.6, -1654342.5, 84028.766, -0.17412072, -0.171948, -1577275.4, 40359.043, 0.000106410545, 9.99968, 9.999889 
1.0348495e+3, 1.4493455e+2, -1615956.6, -1638575.8, 95927.79, -0.09312483, -0.07671696, -1530674.1, -11039.08, 0.000017580353, 9.999612, 9.99934 
1.0348765e+3, 1.549351e+2, -1568395.9, -1565796.5, 81342.7, -0.1250336, 0.014244798, -1485743.1, -64108.934, 0.00000023822265, 9.9992695, 9.999334 
1.03490405e+3, 1.6493528e+2, -1458858.0, -1388771.0, 17893.455, -0.08140242, 0.07259703, -1384467.0, -60832.676, 0.0, 9.999059, 9.999972 
1.03493236e+3, 1.7493485e+2, -1340117.6, -1280926.9, -5996.1333, 0.06833866, 0.012921511, -1280325.6, -54687.98, 0.0, 9.999204, 9.9999695 
1.0349587e+3, 1.849348e+2, -1203941.6, -1102393.9, -28407.188, 0.032778256, -0.009127332, -1094987.4, 32648.45, 0.0, 9.999165, 10.000555 
1.0349828e+3, 1.9493487e+2, -1151783.0, -1028139.75, 37867.574, -0.20098436, -0.07865558, -1017464.06, 12167.457, 0.0, 9.9988575, 10.00054 
1.0350084e+3, 2.0493487e+2, -1131415.1, -1131286.3, 32692.982, -0.24757956, -0.0530547, -1098657.6, -167025.94, 0.0, 9.999043, 9.999067 
1.0350358e+3, 2.1493442e+2, -910401.06, -978174.06, 38808.176, -0.091547, -0.021621196, -892767.0, -59127.23, 0.0, 9.9999, 9.999035 
1.0350622e+3, 2.2493367e+2, -769307.6, -886277.44, 2728.6292, -0.024707079, 0.019416863, -769244.06, -33595.273, 0.0, 10.000321, 9.998783 
1.0350876e+3, 2.3493241e+2, -671268.94, -790732.6, -27399.9, -0.055073176, -0.0046160193, -665284.4, -27623.967, 0.0, 10.000332, 9.99876 
1.0351134e+3, 2.4493141e+2, -523732.63, -605854.94, -27233.688, -0.09980556, 0.0010011374, -515522.16, 24146.406, 0.0, 10.000412, 9.999309 
1.0351394e+3, 2.5493047e+2, -395168.94, -495378.34, -10076.271, -0.15662089, -0.04490221, -394165.78, 47509.25, 0.0, 10.000626, 9.999296 
1.0351669e+3, 2.6492926e+2, -337041.47, -534349.94, 8415.457, -0.10567963, -0.035409182, -336683.2, 7003.189, 0.00000000560088, 10.000858, 9.998249 
1.0351957e+3, 2.749274e+2, -213870.0, -424559.66, 23896.313, 0.05827686, -0.06864956, -211193.69, 34512.57, 0.0000022721786, 10.001044, 9.998234 
1.0352212e+3, 2.8492537e+2, -104710.84, -362471.38, -65612.516, -0.015473538, -0.066236384, -88970.484, 58759.145, 0.000031172072, 10.001284, 9.997873 
1.03524305e+3, 2.9492325e+2, 859.5756, -266728.16, -44772.97, -0.34927902, -0.09498412, 8152.2686, 57908.855, 0.00015322318, 10.001351, 9.997826 
1.0352688e+3, 3.0492303e+2, 166191.47, 14894.771, 4258.4434, -0.34429213, 0.033912875, 166311.23, 166311.23, 0.00043103905, 10.001417, 9.999398 
1.0352974e+3, 3.1492367e+2, 233117.83, 248325.44, 44142.965, -0.11047447, 0.1279359, 285514.7, 285514.7, 0.0008619147, 10.000968, 10.001207 
1.044796e+3, 1.2490641e+2, -1932813.5, -1765898.5, -64653.24, 0.023748778, -0.30931967, -1743785.3, -27883.492, 0.0003338259, 9.998193, 10.0005045 
1.04482144e+3, 1.3490829e+2, -1678255.4, -1615083.4, 619.3615, -0.16078731, -0.17866573, -1615077.3, 2808.6567, 0.00013404706, 9.999414, 10.000278 
1.04484886e+3, 1.4490886e+2, -1587271.6, -1628122.4, 27904.484, -0.11444406, -0.09017138, -1573115.9, -53231.918, 0.000024406929, 9.999828, 9.999311 
1.0448758e+3, 1.5490921e+2, -1508653.1, -1535181.5, 42093.305, -0.120890416, -0.013307308, -1477783.6, -55898.65, 0.0000004785213, 9.999691, 9.999341 
1.0449035e+3, 1.6490917e+2, -1416729.3, -1423164.5, 60988.418, -0.05748076, 0.04867549, -1358873.6, -34985.45, 0.0, 9.999571, 9.999497 
1.04493186e+3, 1.7490849e+2, -1334331.4, -1333379.6, 54678.527, 0.091666356, 0.010132876, -1279174.9, -53278.49, 0.0, 9.99947, 9.999487 
1.0449582e+3, 1.8490839e+2, -1169187.5, -1073792.5, 16173.172, 0.07511615, 0.0017251127, -1071125.1, 56770.688, 0.0, 9.999367, 10.000647 
1.0449825e+3, 1.949087e+2, -1075336.3, -978712.9, -47052.965, -0.11600022, -0.05394518, -959585.7, 70302.35, 0.0, 9.999345, 10.000636 
1.04500845e+3, 2.0490864e+2, -1050295.4, -1083147.3, -48135.78, -0.16865997, -0.040114503, -1015860.1, -83972.31, 0.0, 9.999555, 9.999152 
1.0450358e+3, 2.1490793e+2, -906373.0, -965386.5, -49059.617, -0.07347679, -0.042576775, -878630.3, -44732.19, 0.0, 9.999887, 9.9991255 
1.0450625e+3, 2.2490709e+2, -767888.9, -893438.8, -32021.713, -0.022980614, -0.010435369, -760193.4, -24285.441, 0.0, 10.000357, 9.998719 
1.0450886e+3, 2.3490588e+2, -584498.3, -759379.94, -8579.876, -0.023319991, -0.020743499, -584078.4, 53841.11, 0.0, 10.000961, 9.998677 
1.0451144e+3, 2.4490477e+2, -436125.47, -595283.75, 26421.793, -0.0717984, -0.0103325555, -431853.84, 108075.77, 0.0, 10.001125, 9.999052 
1.0451399e+3, 2.5490353e+2, -386768.06, -519944.1, -8153.8853, -0.16594382, -0.06320051, -386270.7, 55669.605, 0.0, 10.000792, 9.999053 
1.0451672e+3, 2.6490256e+2, -391270.63, -533409.56, 15706.074, -0.11823506, -0.030593365, -389555.84, -45605.656, 0.0000000009945924, 10.0003605, 9.998504 
1.0451961e+3, 2.749014e+2, -383313.72, -484569.94, 21491.418, 0.08043994, -0.015016036, -378941.03, -132977.22, 0.0000020282196, 9.999749, 9.998462 
1.0452221e+3, 2.8489968e+2, -277881.72, -386368.22, 6195.617, 0.034290593, -0.020164544, -277529.03, -129546.09, 0.00002862313, 9.999825, 9.998422 
1.04524486e+3, 2.9489744e+2, -70235.74, -236939.98, 27729.201, -0.2597806, -0.11660181, -65744.34, -15736.546, 0.00014660136, 10.000579, 9.998408 
1.0452706e+3, 3.0489704e+2, 110826.24, -49419.758, 42807.195, -0.28053775, -0.017727755, 121544.59, 121544.59, 0.00042212423, 10.001203, 9.999051 
1.0452984e+3, 3.148979e+2, 288007.8, 235950.08, -76415.19, -0.10853584, 0.13691345, 342705.53, 342705.53, 0.0008537748, 10.001464, 10.000906 
1.0547947e+3, 1.24882236e+2, -1925308.4, -1739705.6, -77435.21, 0.011793708, -0.025002776, -1711642.1, 4507.059, 0.00039971265, 9.998161, 10.000693 
1.05482094e+3, 1.348831e+2, -1676082.3, -1606881.3, 55284.21, -0.16893388, 0.0011280564, -1576262.6, 41876.79, 0.00016604259, 9.999403, 10.000341 
1.0548487e+3, 1.448828e+2, -1528846.5, -1514706.4, 5186.3184, -0.14428578, -0.039630033, -1513008.0, 7132.9253, 0.000032768716, 9.999857, 10.000077 
1.0548761e+3, 1.5488227e+2, -1456414.6, -1430552.6, 47787.32, -0.098527685, -0.12853773, -1393977.6, 28166.7, 0.0000008393984, 9.999696, 10.000062 
1.054903e+3, 1.6488203e+2, -1416746.8, -1414218.6, 45194.56, -0.09049369, -0.123683766, -1370270.5, -46123.836, 0.0, 9.99954, 9.999569 
1.0549297e+3, 1.748819e+2, -1331118.1, -1324454.0, 59392.95, -0.093725964, -0.11452604, -1268299.8, -42149.684, 0.0, 9.999462, 9.999551 
1.0549567e+3, 1.8488188e+2, -1270350.4, -1271356.5, 1565.946, -0.038122177, -0.052690614, -1269208.6, -141056.67, 0.0, 9.999314, 9.999314 
1.054984e+3, 1.9488169e+2, -1180514.8, -1180758.3, -36959.113, 0.073489495, -0.024409186, -1143677.3, -113522.41, 0.0, 9.9992695, 9.999287 
1.0550104e+3, 2.0488122e+2, -1051636.0, -1057583.4, -49085.598, 0.06115651, 0.0030072131, -1005434.1, -73273.76, 0.0, 9.999433, 9.999387 
1.0550357e+3, 2.1488012e+2, -907572.5, -941181.8, -26346.094, -0.08626108, -0.06583512, -893127.94, -58956.17, 0.0, 9.999764, 9.999354 
1.0550619e+3, 2.248793e+2, -729783.0, -775841.44, -19395.154, -0.13498679, -0.086980045, -722703.8, 13474.8, 0.0, 10.000192, 9.999602 
1.0550891e+3, 2.348785e+2, -539950.9, -634335.94, 25895.133, -0.075103365, -0.15115893, -533313.2, 104869.945, 0.0, 10.000819, 9.999602 
1.0551154e+3, 2.4487768e+2, -500742.22, -696235.94, 953.7687, -0.09825464, -0.12681979, -500737.56, 39453.254, 0.0, 10.000984, 9.9984255 
1.0551405e+3, 2.548766e+2, -449010.78, -623115.6, -11708.506, -0.2083946, -0.10047495, -448226.9, -6022.42, 0.0, 10.000678, 9.998398 
1.0551667e+3, 2.648759e+2, -378767.38, -483759.94, -16322.255, -0.20898366, -0.02562217, -376288.44, -32074.588, 0.000000000012280949, 10.000264, 9.998885 
1.0551944e+3, 2.7487537e+2, -365147.7, -429144.13, 14692.48, -0.10171644, 0.008695565, -361935.75, -115714.88, 0.0000016155456, 9.999678, 9.998873 
1.0552217e+3, 2.8487483e+2, -219871.5, -255875.0, 21894.861, -0.0130639495, 0.054872077, -209528.1, -61302.5, 0.000025306648, 9.999782, 9.99934 
1.05524905e+3, 2.94874e+2, -23478.42, -114692.66, 69845.43, 0.069847055, 0.010878993, 14331.448, 64562.24, 0.00013793015, 10.000476, 9.999299 
1.05527475e+3, 3.0487195e+2, -30679.547, -329139.34, 45480.9, -0.0030171834, -0.008061149, -23902.795, -23902.795, 0.00040720604, 10.00113, 9.997169 
1.0552981e+3, 3.148684e+2, 130198.07, -52882.168, -25106.03, -0.34540847, -0.10971509, 133578.48, 133578.48, 0.00083313056, 10.0013, 9.998999 
1.0647935e+3, 1.2485644e+2, -1888506.9, -1726659.0, -47982.67, 0.07550899, 0.11803142, -1713503.0, 2903.8264, 0.00047318285, 9.998443, 10.000652 
1.06482066e+3, 1.3485599e+2, -1724884.0, -1637475.5, 49416.242, -0.11414903, 0.022302987, -1615209.9, 3198.3748, 0.00020250746, 9.999114, 10.000273 
1.0648483e+3, 1.4485534e+2, -1629224.0, -1542573.8, -47387.78, -0.12743494, -0.057752278, -1521690.9, -1279.2334, 0.000042863663, 9.999076, 10.000267 
1.0648759e+3, 1.548551e+2, -1615785.9, -1481252.9, -77192.6, -0.0200949, -0.13606204, -1446130.5, -23719.67, 0.0000013547858, 9.998496, 10.000286 
1.0649025e+3, 1.6485503e+2, -1558915.9, -1467266.4, -43948.12, -0.028547728, -0.13538441, -1449598.3, -125187.74, 0.0, 9.998481, 9.999725 
1.0649286e+3, 1.7485496e+2, -1376420.0, -1327638.6, -47045.61, -0.11907385, -0.13232327, -1299036.9, -72624.89, 0.0, 9.9990635, 9.99973 
1.064956e+3, 1.8485473e+2, -1235374.1, -1299558.5, -38098.5, -0.06462124, -0.07921352, -1217652.6, -89236.17, 0.0, 9.999732, 9.998925 
1.06498435e+3, 1.9485408e+2, -1026735.44, -1153514.9, -27566.516, 0.13043633, -0.058425523, -1021000.9, 9425.796, 0.0, 10.000508, 9.998884 
1.06501095e+3, 2.0485362e+2, -852979.6, -933986.06, 2517.3816, 0.13167207, -0.021492159, -852901.5, 79531.21, 0.0, 10.000685, 9.999624 
1.06503576e+3, 2.148532e+2, -816242.44, -866315.94, -3501.5593, -0.06671146, -0.04720731, -815998.75, 18437.367, 0.0, 10.000277, 9.999612 
1.0650618e+3, 2.2485271e+2, -750883.0, -768023.4, 8210.616, -0.13997757, -0.055994377, -747584.7, -11145.706, 0.0, 9.999958, 9.999776 
1.0650893e+3, 2.3485191e+2, -695853.2, -688525.56, -21161.398, -0.073437326, -0.13574818, -670713.1, -32269.447, 0.0, 9.99966, 9.999789 
1.0651161e+3, 2.4485114e+2, -649029.1, -768214.9, -24495.168, -0.07046362, -0.11538723, -644191.2, -103739.68, 0.0, 9.999978, 9.998413 
1.06514186e+3, 2.548501e+2, -409990.75, -609234.3, -17731.715, -0.14349748, -0.07851693, -408425.03, 34040.605, 0.0, 10.00097, 9.998358 
1.06516786e+3, 2.6484933e+2, -217868.63, -409259.06, -21799.246, -0.17150071, -0.0056602946, -215417.11, 129058.914, 0.0, 10.001375, 9.998859 
1.0651942e+3, 2.7484873e+2, -168189.4, -329250.75, -52359.08, -0.14762174, 0.019054845, -152664.56, 93819.37, 0.00000091217555, 10.001025, 9.9988985 
1.0652214e+3, 2.848482e+2, -95775.664, -208490.48, -47409.824, -0.0590822, 0.07028828, -78486.29, 70001.56, 0.000020761427, 10.000689, 9.9992285 
1.0652497e+3, 2.9484737e+2, -46897.418, -142008.03, -96475.96, 0.10811782, 0.040847775, 13107.112, 63599.016, 0.00012637535, 10.000364, 9.99917 
1.0652765e+3, 3.0484486e+2, -123986.78, -399763.16, -59671.81, 0.08625402, -0.0076655885, -111628.914, -111628.914, 0.00038601994, 10.000593, 9.996937 
1.0653009e+3, 3.148407e+2, 108166.87, -75106.21, -56700.465, -0.17433916, -0.14727452, 124290.234, 124290.234, 0.0008001297, 10.001197, 9.998881 
1.0747916e+3, 1.2482876e+2, -1912446.0, -1770252.3, -66665.84, -0.0077128094, 0.089667805, -1743885.8, -27208.785, 0.00055371417, 9.998439, 10.000343 
1.0748201e+3, 1.3482688e+2, -1752164.1, -1683359.3, 77598.77, -0.10659324, -0.11898541, -1632878.9, -14186.188, 0.00024334127, 9.99908, 9.999967 
1.0748471e+3, 1.4482641e+2, -1654663.1, -1598097.9, -88695.86, -0.17156175, -0.1459291, -1533284.5, -12588.166, 0.00005483326, 9.999075, 9.999892 
1.07487485e+3, 1.5482767e+2, -1639944.8, -1534127.4, -91144.42, 0.00585908, -0.042190094, -1481648.1, -58962.844, 0.000002073113, 9.9985, 9.999926 
1.07490174e+3, 1.6482821e+2, -1545595.6, -1430678.4, -38061.676, 0.031615175, 0.026996821, -1419215.4, -94536.2, 0.0000000000166348, 9.998447, 9.9999895 
1.07492834e+3, 1.7482774e+2, -1360753.5, -1289547.3, -14972.252, -0.070364274, -0.04261261, -1286527.1, -59845.76, 0.0, 9.999037, 10.000002 
1.07495554e+3, 1.8482707e+2, -1207523.1, -1223152.5, -21980.078, -0.093768805, -0.074171685, -1192009.9, -63321.71, 0.0, 9.9996605, 9.999482 
1.0749834e+3, 1.9482593e+2, -1001190.44, -1074860.3, 12094.886, -0.043797582, -0.1582796, -999255.56, 31447.064, 0.0, 10.000407, 9.99947 
1.07501015e+3, 2.0482595e+2, -861039.25, -922178.75, -26923.383, -0.04860368, -0.10851226, -850873.5, 81830.09, 0.0, 10.00056, 9.99977 
1.0750358e+3, 2.1482705e+2, -824763.7, -851188.06, -7597.805, -0.113159165, 0.0004753634, -822734.8, 11957.224, 0.0, 10.000131, 9.999788 
1.075062e+3, 2.2482724e+2, -806873.5, -847972.8, -13995.287, -0.13146028, 0.07379225, -802560.44, -65870.516, 0.0, 9.9998045, 9.999302 
1.0750889e+3, 2.348262e+2, -750836.44, -769350.94, -19268.324, -0.10414791, 0.018538537, -738716.94, -100016.555, 0.0, 9.999518, 9.999304 
1.0751161e+3, 2.448252e+2, -637613.3, -711506.7, 3892.8403, -0.079549186, 0.017617676, -637408.8, -96697.71, 0.0, 9.999839, 9.998867 
1.0751438e+3, 2.5482395e+2, -390420.13, -543698.94, 34847.723, -0.066023774, -0.016037684, -382869.5, 59855.082, 0.0, 10.000859, 9.998859 
1.0751702e+3, 2.648228e+2, -271150.88, -485006.28, -44850.574, -0.0953593, 0.015772015, -262125.53, 82611.89, 0.000000000031670343, 10.001229, 9.998411 
1.0751952e+3, 2.748215e+2, -219064.53, -410324.75, -49671.32, -0.16892019, 0.018670043, -206933.98, 39818.527, 0.00000057346807, 10.000916, 9.9984 
1.07522085e+3, 2.8482e+2, -175659.44, -358309.2, -69772.62, -0.20703237, 0.045339502, -152056.3, -3288.4312, 0.000016841232, 10.000624, 9.998227 
1.0752471e+3, 2.94818e+2, -121329.61, -284491.25, -85373.41, -0.21981518, -0.0010468089, -84825.51, -34040.12, 0.000114238224, 10.000317, 9.998212 
1.0752754e+3, 3.0481604e+2, -45552.508, -236240.92, -37579.348, -0.09715386, -0.00089197856, -38413.91, -38413.91, 0.0003625103, 10.000587, 9.998068 
1.07530594e+3, 3.1481454e+2, 162795.81, 77174.22, 12356.187, 0.14773725, 0.0075838906, 164543.3, 164543.3, 0.00076317973, 10.001021, 10.000024 
1.08479135e+3, 1.2480065e+2, -1757548.6, -1729126.0, -33516.668, 0.08930405, 0.033447392, -1706932.3, 10018.91, 0.00064071716, 9.999619, 10.0000725 
1.08481996e+3, 1.3479894e+2, -1747925.1, -1708673.4, 70539.13, -0.00747914, -0.13510104, -1655080.8, -36114.145, 0.00028839763, 9.999205, 9.999744 
1.0848458e+3, 1.4479886e+2, -1653508.0, -1583284.8, -50578.043, -0.20648837, -0.11658188, -1556825.6, -35857.805, 0.00006873226, 9.999056, 9.999984 
1.08487315e+3, 1.5480036e+2, -1493870.1, -1457374.0, -56027.04, -0.049146757, 0.005791786, -1416698.3, 6256.89, 0.0000030594845, 9.999486, 9.999972 
1.08490065e+3, 1.6480084e+2, -1358597.1, -1319474.8, 43789.06, 0.022963079, 0.055937167, -1291076.3, 33872.766, 0.000000000186287, 9.999643, 10.000169 
1.08492844e+3, 1.7480004e+2, -1277683.3, -1230601.9, 34492.395, 0.026817756, -0.06520854, -1212382.6, 14569.754, 0.0, 9.999533, 10.00016 
1.0849557e+3, 1.8479954e+2, -1246968.3, -1231934.6, 30200.916, -0.018690009, -0.09292166, -1208329.1, -79371.75, 0.0, 9.999343, 9.999579 
1.08498216e+3, 1.9479917e+2, -1201433.0, -1160452.9, 2665.309, -0.12578537, -0.1070449, -1160280.3, -129314.08, 0.0, 9.998996, 9.999562 
1.08500905e+3, 2.0479946e+2, -1012375.7, -969609.5, -19631.656, -0.14753707, -0.047280457, -961964.4, -28999.477, 0.0, 9.9994135, 9.99999 
1.0850364e+3, 2.1480009e+2, -731502.0, -786970.8, -22736.621, -0.07898881, -0.0049605886, -723373.5, 111582.75, 0.0, 10.00068, 9.999966 
1.0850632e+3, 2.2480008e+2, -619895.9, -796962.4, -22679.973, -0.04816875, 0.057446744, -617037.0, 119919.266, 0.0, 10.001278, 9.998938 
1.0850896e+3, 2.3479915e+2, -528312.94, -705506.6, -51833.918, -0.061448347, 0.05308858, -514264.0, 124703.71, 0.0, 10.001245, 9.998908 
1.0851166e+3, 2.4479814e+2, -475973.9, -613132.06, -4162.745, -0.06201208, 0.06402421, -475847.7, 65131.117, 0.0, 10.00085, 9.999065 
1.0851443e+3, 2.5479686e+2, -508062.34, -576337.1, -14962.563, -0.047512587, 0.008098285, -504927.22, -61935.766, 0.0, 9.999953, 9.999077 
1.0851709e+3, 2.647958e+2, -473557.44, -553314.2, -54106.227, -0.062929824, 0.025661355, -446221.44, -101219.36, 0.000000020287489, 9.999718, 9.998664 
1.0851963e+3, 2.7479467e+2, -307474.66, -426244.84, -35683.633, -0.10683076, 0.023663992, -297578.34, -50564.715, 0.0000009682407, 10.000195, 9.998636 
1.0852221e+3, 2.8479302e+2, -140767.03, -390291.6, 30913.16, -0.16065608, 0.04497439, -136994.3, 12035.945, 0.000016002106, 10.00107, 9.997789 
1.08524814e+3, 2.9479057e+2, 122900.98, -213016.66, 19191.299, -0.21866256, -0.008948563, 123993.84, 175048.0, 0.00010691048, 10.002197, 9.997792 
1.0852766e+3, 3.047884e+2, 149822.61, -117536.39, 35808.563, -0.09035974, -0.014981743, 154535.53, 154535.53, 0.00034615427, 10.001845, 9.998281 
1.0853074e+3, 3.1478757e+2, -14688.277, 16691.975, -29396.824, 0.27627385, 0.041975297, 34323.813, 34323.813, 0.0007399488, 9.999727, 10.000225 
1.09479286e+3, 1.2477206e+2, -1766516.8, -1750442.4, -50518.258, 0.21523191, -0.066100486, -1707326.0, 9903.744, 0.000734217, 9.999628, 9.999922 
1.0948203e+3, 1.3477255e+2, -1745176.6, -1710782.1, 59626.395, 0.07876989, -0.016771756, -1665922.5, -46696.258, 0.00033773432, 9.999231, 9.999718 
1.09484375e+3, 1.4477293e+2, -1628659.9, -1527522.9, -48236.887, -0.3481101, 0.031975158, -1508206.0, 13017.002, 0.0000845864, 9.999042, 10.000372 
1.0948705e+3, 1.547732e+2, -1468395.4, -1398919.0, -25128.3, -0.28824708, -0.0069929413, -1390783.3, 32436.66, 0.0000043925156, 9.999469, 10.000378 
1.09489866e+3, 1.6477294e+2, -1352976.0, -1311349.4, 25727.021, -0.15777382, -0.053180467, -1299070.9, 26148.654, 0.0000000006358386, 9.999654, 10.000223 
1.0949287e+3, 1.7477183e+2, -1269967.5, -1220451.6, 41801.773, 0.07765663, -0.21210513, -1196626.1, 30598.861, 0.0, 9.999548, 10.000226 
1.094956e+3, 1.847722e+2, -1281445.1, -1291080.5, 3885.6355, 0.065811016, -0.13926585, -1280073.4, -150850.08, 0.0, 9.999293, 9.999195 
1.0949805e+3, 1.9477393e+2, -1242532.6, -1223241.6, 2945.1768, -0.21372357, 0.096190624, -1222802.0, -191586.2, 0.0, 9.998899, 9.999175 
1.0950074e+3, 2.0477413e+2, -1011033.25, -944682.2, 13665.453, -0.26195928, 0.15685207, -941977.94, -8761.581, 0.0, 9.9993105, 10.000216 
1.09503746e+3, 2.1477242e+2, -735715.1, -760338.6, 35245.86, -0.056847814, -0.059388254, -710692.56, 124535.26, 0.0, 10.0005245, 10.000227 
1.0950653e+3, 2.2477134e+2, -674594.8, -869240.8, -35504.676, 0.016029594, -0.097217664, -668320.75, 68916.19, 0.0, 10.0011015, 9.998523 
1.095091e+3, 2.3477064e+2, -582540.25, -779910.0, -40997.45, -0.053971145, -0.03697138, -574363.1, 64883.375, 0.0, 10.00108, 9.998475 
1.09511696e+3, 2.4476992e+2, -497738.0, -625563.6, -48356.535, -0.12128388, 0.023748519, -481505.94, 59749.49, 0.0, 10.000709, 9.999048 
1.095143e+3, 2.547689e+2, -522422.94, -583731.9, -34854.6, -0.18156442, -0.0052608456, -506660.4, -63394.836, 0.0, 9.999852, 9.999077 
1.0951698e+3, 2.6476845e+2, -428521.84, -435432.16, -45271.055, -0.16465613, 0.029774295, -386574.28, -41305.477, 0.00000010014453, 9.999612, 9.999525 
1.0951971e+3, 2.747683e+2, -251576.47, -299726.66, 333.9241, -0.07248608, 0.03276891, -251574.16, -4306.527, 0.0000018117424, 10.00014, 9.999536 
1.0952246e+3, 2.8476706e+2, -153919.1, -396436.56, 58507.883, -0.033793867, 0.052540343, -140541.83, 8736.392, 0.000017402066, 10.000981, 9.997787 
1.0952524e+3, 2.9476452e+2, 95055.46, -233141.88, 75471.09, -0.039615106, -0.009556645, 111578.664, 162882.3, 0.00010435712, 10.002034, 9.997734 
1.0952793e+3, 3.0476168e+2, 88593.75, -218962.78, -50104.965, -0.025512336, -0.04802895, 96550.65, 96550.65, 0.00033796718, 10.00173, 9.997642 
1.09530516e+3, 3.1475973e+2, -63836.836, -95309.13, -71598.73, 0.026316185, -0.032591246, -6265.3823, -6265.3823, 0.00073106954, 9.999748, 9.999458 
1.1047927e+3, 1.247438e+2, -1677022.9, -1658372.5, -77040.18, 0.24267963, -0.04200156, -1590095.3, 127414.664, 0.00083503575, 10.000044, 10.000334 
1.10481955e+3, 1.3474509e+2, -1878832.3, -1714621.4, -23728.371, 0.15516219, 0.029895043, -1711261.4, -91764.47, 0.0003918232, 9.998051, 10.000256 
1.1048423e+3, 1.4474556e+2, -1815809.0, -1610741.6, -8326.881, -0.31858185, 0.053623296, -1610404.0, -88912.48, 0.000102570426, 9.997706, 10.000454 
1.10487e+3, 1.5474533e+2, -1483518.9, -1399671.3, -31473.887, -0.26622146, -0.041976403, -1389171.8, 34320.813, 0.0000061708192, 9.999323, 10.000447 
1.1048982e+3, 1.6474503e+2, -1332455.9, -1304699.8, -19967.02, -0.17142989, -0.095340006, -1294261.5, 31231.4, 0.0000000015512864, 9.999821, 10.000185 
1.1049272e+3, 1.7474441e+2, -1324230.0, -1248912.4, -42599.61, 0.003070338, -0.19828185, -1229712.4, -2217.284, 0.0, 9.999204, 10.000191 
1.1049547e+3, 1.8474504e+2, -1268089.5, -1252079.6, -18069.836, 0.01898329, -0.10844026, -1240321.0, -110830.62, 0.0, 9.999259, 9.999472 
1.1049805e+3, 1.9474675e+2, -1055978.9, -1099337.4, 7400.305, -0.14431316, 0.09358983, -1054750.5, -23269.729, 0.0, 10.000048, 9.999464 
1.1050079e+3, 2.0474678e+2, -949280.56, -970867.6, 42304.785, -0.16799207, 0.14585371, -916414.1, 17069.12, 0.0, 9.999979, 9.999717 
1.10503726e+3, 2.1474475e+2, -990888.9, -938838.5, -19987.953, -0.0400155, -0.04829446, -932048.6, -96548.08, 0.0, 9.999017, 9.999726 
1.1050653e+3, 2.2474349e+2, -910446.5, -944420.1, -43080.367, 0.002684438, -0.0977023, -881124.9, -143613.05, 0.0, 9.999308, 9.998873 
1.105092e+3, 2.3474273e+2, -572119.94, -733783.4, -9942.253, -0.04375841, -0.07923847, -571510.8, 68008.52, 0.0, 10.00097, 9.998847 
1.1051182e+3, 2.4474214e+2, -406151.9, -593184.4, -29680.377, -0.09102883, -0.017438138, -401554.88, 139970.86, 0.0, 10.001405, 9.998922 
1.1051436e+3, 2.547415e+2, -436537.7, -556742.6, -59757.707, -0.13876581, 0.0040887576, -411885.84, 31647.174, 0.0, 10.000521, 9.998925 
1.1051702e+3, 2.6474074e+2, -333274.56, -430447.06, -41597.035, -0.124723524, 0.032067884, -317900.38, 27639.371, 0.00000018749917, 10.000431, 9.999171 
1.1051979e+3, 2.7473953e+2, -136843.05, -283803.2, -109870.125, -0.04127551, -0.02928652, -78146.1, 169402.39, 0.0000025365616, 10.001102, 9.999182 
1.1052258e+3, 2.8473824e+2, -154442.2, -330827.03, -81197.695, 0.015778981, -0.026150892, -122755.66, 26803.768, 0.000019295574, 10.000707, 9.998371 
1.1052539e+3, 2.9473662e+2, -297888.66, -353842.44, -51660.22, 0.068736285, -0.048956197, -267116.2, -215541.72, 0.00010487227, 9.999058, 9.998334 
1.1052803e+3, 3.0473426e+2, -200323.44, -388311.13, -72298.39, 0.014609702, -0.06280642, -175734.4, -175734.4, 0.00033641586, 9.99985, 9.997385 
1.10530555e+3, 3.147321e+2, 388109.72, 108930.28, -109178.82, -0.057545494, -0.048647985, 425735.44, 425735.44, 0.00073074934, 10.002936, 9.999301 
1.114791e+3, 1.2471593e+2, -1611896.8, -1519007.3, -117623.25, 0.0054248045, 0.07607194, -1438991.1, 278800.5, 0.000944546, 10.00004, 10.001295 
1.1148176e+3, 1.3471667e+2, -1813754.3, -1572623.0, -88233.266, 0.13584794, 0.004121862, -1543785.9, 75991.74, 0.00045159098, 9.998022, 10.00125 
1.1148412e+3, 1.4471678e+2, -1830902.9, -1633517.3, 32842.383, -0.22181036, -0.053971022, -1628196.1, -106423.14, 0.00012308804, 9.997673, 10.000313 
1.1148714e+3, 1.5471692e+2, -1497588.1, -1428863.3, 40854.676, -0.0790676, -0.09495503, -1409841.4, 13929.566, 0.000008505592, 9.999322, 10.000249 
1.1148988e+3, 1.6471727e+2, -1345626.8, -1333717.6, -58087.863, -0.118389465, -0.061277315, -1281279.9, 44487.367, 0.0000000033697685, 9.999821, 9.999991 
1.1149237e+3, 1.7471786e+2, -1337586.3, -1278011.0, -55730.617, -0.29830703, -0.021087559, -1244606.9, -16845.06, 0.0, 9.999198, 10.000003 
1.11495145e+3, 1.8471812e+2, -1208510.5, -1119103.0, -3989.226, -0.26966938, -0.004031205, -1118925.4, 10833.134, 0.0, 9.999219, 10.000404 
1.1149819e+3, 1.9471776e+2, -1004831.06, -968022.7, 46619.36, -0.020311225, -0.1058877, -936306.25, 95453.99, 0.0, 9.999943, 10.000417 
1.11501016e+3, 2.0471747e+2, -1048189.56, -1154782.5, -9506.759, 0.033437606, -0.073553555, -1047348.3, -113583.484, 0.0, 9.999882, 9.998501 
1.1150355e+3, 2.14717e+2, -1105012.0, -1140484.5, -44005.902, -0.13087672, 0.012617094, -1075302.5, -239527.05, 0.0, 9.998858, 9.998422 
1.1150628e+3, 2.2471641e+2, -855197.1, -790829.94, 6121.905, -0.19131067, 0.045432996, -790252.9, -52471.0, 0.0, 9.999146, 10.000002 
1.1150924e+3, 2.3471549e+2, -513132.94, -570950.8, 65935.85, -0.123259336, -0.07294386, -470047.0, 169738.4, 0.0, 10.000796, 10.00005 
1.11512e+3, 2.4471489e+2, -453420.9, -652729.9, -70990.69, -0.072286636, -0.057177003, -430720.6, 111068.586, 0.0, 10.001239, 9.998592 
1.1151454e+3, 2.5471446e+2, -480095.72, -622825.44, -79269.06, -0.035915013, 0.019397931, -444799.78, -1004.15796, 0.0, 10.000413, 9.998524 
1.1151715e+3, 2.6471248e+2, -451899.4, -654523.75, -29195.066, -0.051423125, 0.023478532, -447776.72, -101960.58, 0.00000020790911, 10.000338, 9.997676 
1.11519836e+3, 2.7470857e+2, -258417.89, -511108.4, -65554.06, -0.12530808, -0.16108534, -242423.9, 5431.202, 0.0000030041283, 10.00099, 9.997674 
1.1152255e+3, 2.8470686e+2, -93576.414, -178460.47, -147248.2, -0.11056735, -0.17636167, 17224.373, 167095.1, 0.000021785861, 10.000601, 9.999467 
1.1152526e+3, 2.9470727e+2, -215734.2, -184230.97, -89867.83, -0.0013540429, -0.114843495, -108744.766, -56881.4, 0.00010887074, 9.999062, 9.999497 
1.1152796e+3, 3.0470622e+2, -200581.3, -386557.6, 33288.45, -0.06490256, -0.056822613, -194802.47, -194802.47, 0.00034133886, 9.999844, 9.997399 
1.1153075e+3, 3.1470424e+2, 356321.84, 96042.11, 50124.77, -0.2121213, -0.023890147, 365641.2, 365641.2, 0.0007374856, 10.0027, 9.999331 
1.1247896e+3, 1.2468872e+2, -1822713.1, -1631917.8, 61979.41, -0.055243008, 0.115846954, -1613551.9, 104509.63, 0.0010643419, 9.99864, 10.001202 
1.1248163e+3, 1.346892e+2, -1650567.6, -1513048.5, -103659.64, 0.15670948, 0.033185802, -1457416.8, 162633.16, 0.00051804923, 9.999243, 10.001063 
1.1248407e+3, 1.4468902e+2, -1601711.9, -1529992.1, 64998.293, -0.10422591, -0.038661517, -1491617.9, 30429.746, 0.00014661087, 9.999276, 10.000248 
1.1248714e+3, 1.5468936e+2, -1569871.9, -1468917.9, 50667.855, 0.018053507, -0.05733617, -1447874.5, -23830.99, 0.00001150662, 9.998855, 10.000195 
1.1248986e+3, 1.6468978e+2, -1519367.0, -1432294.1, -39198.207, -0.056581575, -0.009872958, -1417247.9, -91208.125, 0.0000000061074554, 9.998683, 9.999864 
1.1249226e+3, 1.7469019e+2, -1384785.0, -1310807.0, -54830.227, -0.30761975, 0.021919709, -1281655.6, -53618.504, 0.0, 9.998918, 9.9999075 
1.12495005e+3, 1.8469036e+2, -1219570.1, -1106517.5, 20699.379, -0.295315, 0.025307722, -1102846.8, 27187.707, 0.0, 9.999062, 10.000568 
1.1249816e+3, 1.9468991e+2, -1103874.6, -1002429.3, -11215.623, -0.004544211, -0.09964302, -1001204.1, 30830.81, 0.0, 9.999175, 10.000563 
1.12501e+3, 2.0468973e+2, -1104604.3, -1155403.5, -46437.516, 0.07218637, -0.07433993, -1077073.9, -143036.69, 0.0, 9.9994, 9.998721 
1.1250353e+3, 2.1468955e+2, -938987.1, -1028094.0, -55.351776, -0.08371985, 0.0186799, -938987.1, -102942.98, 0.0, 9.999884, 9.998685 
1.1250628e+3, 2.2468911e+2, -763335.4, -755772.94, 117096.67, -0.13285825, 0.05361157, -642396.44, 95652.42, 0.0, 9.999802, 9.999935 
1.1250929e+3, 2.3468822e+2, -758081.44, -693923.94, 60239.35, -0.054407846, -0.056453317, -657754.44, -17701.793, 0.0, 9.999128, 10.000006 
1.1251208e+3, 2.4468744e+2, -739510.0, -798437.06, -101716.66, -0.003732791, -0.053940162, -663075.56, -121017.32, 0.0, 9.9993105, 9.998526 
1.1251462e+3, 2.5468662e+2, -475893.03, -628495.56, -109851.09, 0.020680765, -0.0052212114, -418443.97, 25624.006, 0.0, 10.0004835, 9.998457 
1.1251724e+3, 2.646846e+2, -369911.25, -608662.5, 26907.506, -0.0094914, -0.004296143, -366916.34, -20827.506, 0.00000016860811, 10.000888, 9.99772 
1.1251992e+3, 2.7468094e+2, -334389.8, -542552.7, 69778.89, -0.099821046, -0.1653291, -313163.47, -65038.207, 0.0000038179373, 10.000458, 9.997707 
1.1252263e+3, 2.846794e+2, -67778.28, -204082.03, 16756.512, -0.0869536, -0.14967524, -65748.55, 84391.766, 0.000026510976, 10.000915, 9.999148 
1.12525366e+3, 2.9468003e+2, 222660.75, -5957.3813, -61210.527, 0.040360827, -0.041972753, 238017.77, 290151.5, 0.00011807009, 10.00221, 9.999206 
1.1252806e+3, 3.0467898e+2, 117422.19, -181661.05, 60752.992, -0.03719668, 0.013278228, 129291.914, 129291.914, 0.0003550206, 10.001836, 9.99784 
1.1253089e+3, 3.1467673e+2, -112323.87, -86239.98, 62588.457, -0.1629174, -0.017704424, -35349.086, -35349.086, 0.0007557831, 9.9992895, 9.999733 
1.13478795e+3, 1.2466251e+2, -1906329.9, -1797475.9, 110979.31, -0.12840833, 0.08703704, -1728295.9, -9980.562, 0.0011953667, 9.998619, 10.00007 
1.1348152e+3, 1.346628e+2, -1743319.6, -1706040.5, -69692.83, 0.08950973, 0.11821184, -1652537.6, -32225.658, 0.00059164723, 9.999248, 9.999736 
1.1348405e+3, 1.4466259e+2, -1595002.3, -1520054.3, 33231.516, -0.09309206, 0.10548764, -1507441.9, 14871.143, 0.00017336896, 9.999294, 10.00031 
1.1348695e+3, 1.5466292e+2, -1563633.1, -1454675.9, 47267.625, -0.081651814, 0.08206496, -1437028.5, -12720.772, 0.000015247707, 9.998847, 10.000299 
1.1348971e+3, 1.646627e+2, -1521091.3, -1435512.1, -45143.65, -0.105876945, 0.060715005, -1416101.3, -89792.6, 0.000000009421829, 9.998678, 9.999844 
1.1349235e+3, 1.7466153e+2, -1387818.3, -1317698.6, -35980.87, -0.1280974, -0.063632056, -1302520.9, -74201.4, 0.0, 9.9989195, 9.99986 
1.1349508e+3, 1.8466178e+2, -1260533.0, -1190628.9, 9115.38, -0.15560763, -0.023531925, -1189459.8, -59142.11, 0.0, 9.999051, 9.999999 
1.134979e+3, 1.9466335e+2, -1160619.5, -1095255.3, 1744.9171, -0.20132206, 0.11219043, -1095208.8, -62904.74, 0.0, 9.999063, 9.999982 
1.1350073e+3, 2.0466372e+2, -1011767.44, -940101.06, -43733.836, -0.1553285, 0.14951372, -919395.2, 14903.803, 0.0, 9.999296, 10.000253 
1.1350363e+3, 2.146625e+2, -848705.0, -805333.2, 26594.947, 0.0056525976, -0.02195492, -792703.4, 43602.65, 0.0, 9.999726, 10.000296 
1.1350648e+3, 2.246616e+2, -864346.6, -931562.56, 77059.41, 0.079314806, -0.060743622, -813885.3, -75572.52, 0.0, 9.999654, 9.998798 
1.1350933e+3, 2.3466083e+2, -868167.3, -890103.6, 46683.902, 0.05429364, -0.03666062, -831180.44, -190858.72, 0.0, 9.998985, 9.998731 
1.1351204e+3, 2.4465972e+2, -745011.44, -782549.9, -72508.055, 0.003117239, -0.0071124076, -688882.7, -146549.56, 0.0, 9.999191, 9.998691 
1.1351461e+3, 2.546581e+2, -473555.53, -599726.7, -53634.023, -0.062248778, -0.062390108, -453837.75, -9488.927, 0.0, 10.000376, 9.998708 
1.1351726e+3, 2.6465708e+2, -280830.25, -407638.5, 3191.0093, -0.09012775, -0.047618058, -280750.0, 65607.68, 0.00000020663475, 10.000812, 9.999143 
1.1352002e+3, 2.7465636e+2, -246161.63, -344838.5, 67849.64, -0.07589154, -0.057577647, -211608.14, 36754.254, 0.0000055002247, 10.000387, 9.999107 
1.13522805e+3, 2.8465548e+2, -197444.86, -443435.72, 47052.71, -0.03217743, 0.031121766, -188751.89, -38379.125, 0.000033703815, 10.000801, 9.99755 
1.1352562e+3, 2.946544e+2, 80621.14, -262525.9, 2728.7166, 0.056833096, 0.13690148, 80642.836, 133033.06, 0.00013271971, 10.002047, 9.997519 
1.13528274e+3, 3.046523e+2, 154917.69, -73213.3, -38067.03, -0.023168767, 0.13434882, 161102.08, 161102.08, 0.00037893685, 10.001708, 9.998648 
1.13530874e+3, 3.146496e+2, -54044.15, 36084.227, 592.7612, -0.15373705, -0.03324029, 36088.125, 36088.125, 0.0007912106, 9.999288, 10.000571 
1.1447874e+3, 1.2463511e+2, -1909795.5, -1803108.4, 96170.02, -0.040801253, 0.07460326, -1746478.3, -27895.64, 0.0013373722, 9.998577, 10.00007 
1.144814e+3, 1.3463548e+2, -1669917.8, -1682144.0, -54553.42, 0.033066362, 0.12090424, -1621136.0, -555.9602, 0.000672049, 9.999762, 9.999672 
1.1448407e+3, 1.4463554e+2, -1520711.3, -1491128.3, 67197.42, -0.020038703, 0.1417919, -1437113.6, 85466.04, 0.0002032588, 9.999839, 10.000245 
1.1448684e+3, 1.5463586e+2, -1577153.8, -1468837.6, 31597.068, -0.0544951, 0.12704292, -1460294.3, -35718.723, 0.000019742625, 9.998796, 10.000225 
1.14489585e+3, 1.6463564e+2, -1509241.6, -1408981.1, 16680.297, -0.07504182, 0.10203516, -1406278.9, -79702.9, 0.000000013934886, 9.998684, 10.000019 
1.1449236e+3, 1.7463447e+2, -1255333.0, -1232969.5, 21353.35, -0.04572219, -0.041130554, -1220047.4, 8537.2295, 0.0, 9.999744, 10.000041 
1.1449509e+3, 1.8463454e+2, -1177819.4, -1187270.0, 65264.156, -0.07206639, -0.011946178, -1117109.8, 13474.4795, 0.0, 9.9997835, 9.999666 
1.1449779e+3, 1.9463581e+2, -1240980.5, -1163851.3, 47511.16, -0.17931573, 0.12568836, -1141223.3, -108647.76, 0.0, 9.998672, 9.999684 
1.14500634e+3, 2.0463607e+2, -1059050.1, -933169.7, 49239.934, -0.1500849, 0.15262292, -916197.2, 18374.18, 0.0, 9.998834, 10.000528 
1.1450366e+3, 2.1463494e+2, -719879.44, -712703.1, 2718.2275, 0.046204194, -0.038906127, -711789.75, 124785.17, 0.0, 10.000463, 10.000585 
1.1450658e+3, 2.2463408e+2, -669551.06, -886261.8, -4392.27, 0.13927639, -0.0651356, -669462.06, 69119.3, 0.0, 10.001213, 9.998353 
1.14509374e+3, 2.3463333e+2, -611034.3, -814679.5, -8064.3496, 0.11069231, 0.009270759, -610715.44, 29877.686, 0.0, 10.000973, 9.998285 
1.1451207e+3, 2.446321e+2, -509250.72, -676208.94, -43358.59, 0.04276594, 0.05001146, -498662.16, 43945.06, 0.0, 10.000833, 9.998632 
1.14514664e+3, 2.5463012e+2, -406486.56, -566279.1, -67448.21, -0.06073494, -0.037774034, -381823.4, 62802.16, 0.0, 10.000837, 9.998706 
1.1451733e+3, 2.646292e+2, -300668.94, -425624.66, -83828.6, -0.08243629, -0.012278993, -258596.72, 88037.14, 0.00000038376965, 10.000699, 9.999079 
1.1452012e+3, 2.7462906e+2, -247973.73, -350504.28, -150663.56, -0.007552085, 0.04385078, -140092.4, 108541.49, 0.0000075917305, 10.000391, 9.999066 
1.1452293e+3, 2.8462794e+2, -267405.47, -468730.72, -99779.734, 0.044924147, 0.1084889, -226332.56, -75686.414, 0.000041535674, 10.000283, 9.997631 
1.1452577e+3, 2.946257e+2, -170962.53, -373942.94, -47608.33, 0.099618204, 0.096468054, -160350.94, -107678.67, 0.00014998692, 10.000279, 9.997607 
1.1452843e+3, 3.046237e+2, 92940.73, -115588.375, -53792.79, -0.003296387, 0.099348016, 105999.49, 105999.49, 0.00040887797, 10.001296, 9.998565 
1.1453104e+3, 3.1462198e+2, 497998.06, 287937.3, -131151.7, -0.09021547, 0.03740148, 560991.94, 560991.94, 0.0008407425, 10.003145, 10.00044 
1.154786e+3, 1.2460634e+2, -1826490.8, -1623307.3, 81934.19, -0.081592515, 0.06369866, -1594384.3, 124481.086, 0.001489488, 9.998552, 10.001311 
1.15481235e+3, 1.3460736e+2, -1573342.4, -1486132.8, 1515.7218, -0.12506224, 0.040314, -1486106.4, 134746.08, 0.00075867696, 9.999782, 10.001003 
1.15484096e+3, 1.4460796e+2, -1536925.1, -1535274.4, 15015.787, -0.0050217113, 0.062292177, -1521061.3, 1784.9596, 0.0002361324, 9.99987, 9.999933 
1.1548679e+3, 1.5460823e+2, -1594830.0, -1515520.1, 2084.4968, -0.014439569, 0.07224349, -1515465.4, -90618.89, 0.000024990082, 9.998827, 9.999895 
1.1548949e+3, 1.6460864e+2, -1478783.1, -1346167.1, 38953.695, -0.07936578, 0.106721304, -1335571.6, -8730.097, 0.000000023716384, 9.998689, 10.000446 
1.1549224e+3, 1.7460911e+2, -1227517.8, -1167872.3, 72356.96, -0.1598526, 0.08280235, -1119433.1, 109398.625, 0.0, 9.999719, 10.000496 
1.1549502e+3, 1.8460886e+2, -1195513.1, -1216315.4, 11989.601, -0.15038477, 0.06571375, -1190041.8, -59209.62, 0.0, 9.999749, 9.999483 
1.1549781e+3, 1.9460739e+2, -1265433.1, -1197589.4, 14178.954, -0.052261975, -0.052449375, -1194745.3, -161897.33, 0.0, 9.998594, 9.999491 
1.1550067e+3, 2.0460679e+2, -1136865.5, -1069885.9, 88837.19, -0.019726424, -0.061733454, -1008435.6, -73581.76, 0.0, 9.998722, 9.999645 
1.1550362e+3, 2.1460687e+2, -807735.8, -859793.2, 75178.945, -0.06022929, -0.0397101, -754207.2, 82643.375, 0.0, 10.000299, 9.999658 
1.1550653e+3, 2.2460663e+2, -683382.44, -875687.75, -21706.662, -0.0480889, 0.035363395, -680962.7, 57891.07, 0.0, 10.001045, 9.998505 
1.155094e+3, 2.3460574e+2, -619674.5, -797997.6, -4515.183, 0.022659332, 0.0771436, -619560.25, 21306.354, 0.0, 10.000823, 9.998473 
1.1551215e+3, 2.4460448e+2, -548967.6, -720918.8, -57518.242, 0.022202361, 0.11732462, -531501.7, 11379.303, 0.0, 10.000671, 9.998401 
1.1551475e+3, 2.546026e+2, -446977.6, -619601.94, -55401.215, -0.071903184, 0.06292977, -430727.16, 14171.607, 0.0, 10.0007, 9.998406 
1.1551742e+3, 2.6460087e+2, -417247.5, -640649.44, -105117.305, -0.0860862, 0.095400736, -375564.16, -28646.816, 0.0000005356376, 10.000586, 9.997655 
1.1552018e+3, 2.7459905e+2, -357639.34, -556324.75, -144017.98, -0.009437686, 0.12639758, -282024.47, -33085.52, 0.000008957139, 10.000297, 9.997698 
1.1552296e+3, 2.8459707e+2, -162484.98, -232160.44, -105914.15, 0.04206726, 0.08947451, -85826.195, 65131.164, 0.000047577858, 10.000202, 9.999296 
1.1552578e+3, 2.9459447e+2, -52350.703, -129164.37, -24023.037, 0.049842242, -0.13588266, -45456.42, 7519.4043, 0.00016516355, 10.000272, 9.999299 
1.15528494e+3, 3.0459335e+2, 2838.4878, -273599.0, 6825.7607, -0.09406384, -0.07482635, 3006.926, 3006.926, 0.00043857994, 10.001179, 9.997528 
1.1553129e+3, 3.145935e+2, 381635.25, 93911.086, -14774.189, -0.21362908, 0.15731354, 382391.88, 382391.88, 0.0008950193, 10.002928, 9.99921 
1.1647854e+3, 1.24578275e+2, -1833505.9, -1615666.1, 154043.64, 0.020708282, 0.03452901, -1535925.0, 183212.1, 0.0016512593, 9.9984665, 10.001399 
1.1648104e+3, 1.3457943e+2, -1736618.0, -1533385.8, -2193.562, -0.22510506, 0.0065182694, -1533362.0, 87761.75, 0.0008513687, 9.998559, 10.001257 
1.1648403e+3, 1.4458036e+2, -1681263.6, -1596535.4, -22024.922, 0.0016652448, 0.04460468, -1591152.1, -68036.82, 0.00027198074, 9.998846, 10.000003 
1.1648672e+3, 1.5458064e+2, -1513708.3, -1470491.4, -34631.676, 0.020016132, 0.048857488, -1451279.8, -26163.77, 0.00003101119, 9.999359, 9.999945 
1.1648942e+3, 1.6458116e+2, -1368212.1, -1269843.9, 51685.113, -0.03402777, 0.080677986, -1247680.8, 79428.99, 0.00000004774233, 9.999346, 10.000656 
1.1649219e+3, 1.745818e+2, -1350779.6, -1207405.4, 39154.96, -0.13309422, 0.055774156, -1197409.3, 31687.656, 0.0, 9.998776, 10.0006895 
1.1649498e+3, 1.845814e+2, -1295653.3, -1263057.1, -4637.122, -0.11586423, 0.015515622, -1262410.3, -131313.08, 0.0, 9.999045, 9.999502 
1.16497815e+3, 1.9457959e+2, -1005025.4, -1073457.6, -10754.291, 0.008113678, -0.13895743, -1003375.1, 29740.26, 0.0, 10.000376, 9.99949 
1.1650068e+3, 2.0457886e+2, -869583.4, -996792.7, 123667.164, 0.034949783, -0.13448417, -794122.9, 141000.34, 0.0, 10.000803, 9.999136 
1.1650364e+3, 2.1457922e+2, -864993.5, -940165.0, 107476.52, -0.049834765, -0.037065115, -788720.2, 48400.582, 0.0, 10.000153, 9.999164 
1.16506554e+3, 2.2457898e+2, -850502.56, -936047.5, 32312.611, -0.059793018, 0.05444345, -839669.1, -100544.125, 0.0, 9.999816, 9.998682 
1.1650942e+3, 2.345777e+2, -747724.94, -835884.25, 27120.21, 0.023308165, 0.036222573, -740050.2, -98909.92, 0.0, 9.999847, 9.998683 
1.16512194e+3, 2.4457635e+2, -630033.9, -763748.4, 20128.281, 0.04086507, 0.05855969, -627069.6, -83914.945, 0.0, 10.000119, 9.998376 
1.1651485e+3, 2.5457484e+2, -462292.7, -633687.6, 13648.423, -0.02752414, 0.043680143, -461212.66, -16043.172, 0.0, 10.0006075, 9.998361 
1.16517544e+3, 2.645731e+2, -388364.0, -665056.4, 22544.963, -0.039053842, 0.09634229, -386539.06, -39350.305, 0.00000056359414, 10.000955, 9.997304 
1.1652028e+3, 2.7457094e+2, -268869.8, -555783.3, 28952.406, 0.024111426, 0.12954038, -265977.38, -16762.082, 0.00000928475, 10.001101, 9.997313 
1.1652306e+3, 2.8456858e+2, -9520.453, -174982.05, 72403.766, 0.07406874, 0.08078874, 17688.234, 168925.38, 0.000050789153, 10.001319, 9.999148 
1.1652592e+3, 2.9456565e+2, 122729.14, -55642.336, -10593.283, 0.10047817, -0.16428332, 123356.055, 176612.4, 0.00017624088, 10.001537, 9.999185 
1.1652865e+3, 3.0456436e+2, 21971.041, -286781.06, 26562.02, -0.04738843, -0.10651425, 24239.51, 24239.51, 0.0004642717, 10.001409, 9.997331 
1.1653152e+3, 3.14564e+2, -5713.506, -128013.64, 33314.39, -0.13296062, 0.100099556, 2772.4763, 2772.4763, 0.0009430786, 10.000424, 9.998896 
1.1747833e+3, 1.2455038e+2, -1922232.8, -1787502.8, 43483.375, -0.084964424, -0.09056923, -1774687.8, -55285.086, 0.0018234614, 9.998431, 10.000232 
1.17480785e+3, 1.3455187e+2, -1805129.3, -1678306.1, 11330.456, -0.36124673, 0.015727839, -1677301.8, -55908.813, 0.0009506097, 9.9985695, 10.000261 
1.1748382e+3, 1.4455289e+2, -1652074.5, -1529291.4, -16839.764, -0.12538487, 0.09158113, -1527023.6, -3637.8433, 0.00031097958, 9.998819, 10.000474 
1.1748661e+3, 1.5455328e+2, -1478083.4, -1399780.1, -1609.4019, -0.053981543, 0.057687093, -1399747.0, 25635.455, 0.00003785508, 9.999368, 10.000426 
1.1748937e+3, 1.6455323e+2, -1379937.8, -1291123.1, 17537.715, -0.051182304, 0.015146552, -1287785.5, 39594.816, 0.00000010132158, 9.999335, 10.00051 
1.17492154e+3, 1.7455252e+2, -1364674.6, -1228491.5, 28909.676, -0.06428692, -0.13357446, -1222608.5, 6771.583, 0.0, 9.998743, 10.000559 
1.17494956e+3, 1.8455231e+2, -1286894.3, -1234287.0, 27802.82, -0.072216265, -0.16142792, -1222316.9, -90938.5, 0.0, 9.998999, 9.999723 
1.17497765e+3, 1.9455239e+2, -1000081.2, -1047784.4, 53512.44, -0.09323008, -0.14846833, -965345.44, 68032.086, 0.0, 10.000303, 9.999705 
1.1750066e+3, 2.0455238e+2, -898373.44, -1031851.44, 87927.27, -0.08856631, -0.072771765, -854725.4, 80653.35, 0.0, 10.000699, 9.998943 
1.1750369e+3, 2.1455206e+2, -901546.56, -982920.9, 92883.7, -0.030222453, -0.02520681, -840829.44, -3444.6304, 0.0, 10.000003, 9.998945 
1.175066e+3, 2.2455107e+2, -860413.7, -913452.25, 17178.51, 0.0045758267, -0.007297917, -855335.94, -115940.02, 0.0, 9.999635, 9.998923 
1.175094e+3, 2.3454916e+2, -752499.7, -804224.0, 41137.582, 0.0014718822, -0.116326466, -729770.2, -88355.875, 0.0, 9.999676, 9.998979 
1.1751218e+3, 2.4454775e+2, -642947.8, -756048.7, 25374.914, -0.010402065, -0.12148324, -637515.7, -94087.59, 0.0, 9.999967, 9.998507 
1.1751493e+3, 2.5454676e+2, -461736.5, -608269.9, 43599.133, -0.032106526, -0.09994411, -449745.38, -4307.091, 0.0, 10.000502, 9.998585 
1.17517665e+3, 2.645458e+2, -365434.75, -594447.6, 14640.3545, -0.02569434, -0.010397181, -364502.63, -17053.045, 0.0000005132723, 10.00085, 9.997846 
1.1752036e+3, 2.7454454e+2, -239066.16, -484978.22, 48420.79, -0.013856283, 0.05521729, -229875.45, 19590.086, 0.000009286575, 10.001055, 9.997826 
1.1752317e+3, 2.8454226e+2, -150078.03, -451625.34, 68394.72, 0.032281537, 0.083840065, -135290.42, 16197.715, 0.000051726838, 10.001254, 9.99728 
1.1752612e+3, 2.9453877e+2, -8243.362, -324686.06, 14792.509, 0.12623404, -0.029174233, -7553.3726, 45965.836, 0.00018255804, 10.00151, 9.997354 
1.1752888e+3, 3.0453628e+2, 50288.54, -199896.02, -12138.268, 0.03129628, -0.03218733, 50876.074, 50876.074, 0.00047999644, 10.001305, 9.997974 
1.1753168e+3, 3.1453377e+2, 17227.307, -47057.734, 34182.42, -0.060177397, -0.10938021, 32005.78, 32005.78, 0.0009686636, 10.000293, 9.999513 
1.1847821e+3, 1.2452285e+2, -1819365.0, -1754197.5, -46090.73, -0.06470725, -0.0975292, -1730336.1, -10664.029, 0.0020081834, 9.99919, 10.000093 
1.1848073e+3, 1.345244e+2, -1770332.4, -1677470.9, 10588.137, -0.26892945, 0.021066455, -1676278.9, -54617.7, 0.0010574218, 9.998854, 10.000135 
1.1848373e+3, 1.4452514e+2, -1648776.3, -1525174.8, 56720.61, -0.087906964, 0.07342618, -1503091.3, 20565.117, 0.00035351914, 9.998833, 10.000494 
1.184865e+3, 1.5452573e+2, -1475640.6, -1389595.3, 1450.7576, -0.09115852, 0.053530354, -1389570.9, 36080.51, 0.00004562391, 9.999363, 10.000491 
1.1848928e+3, 1.6452557e+2, -1351671.0, -1305664.0, -248.30466, -0.071324825, 0.012258871, -1305662.6, 21987.701, 0.00000019883093, 9.999649, 10.000264 
1.1849215e+3, 1.7452444e+2, -1241713.0, -1192277.9, -23918.227, 0.02125045, -0.15730578, -1182600.1, 47055.29, 0.0, 9.999693, 10.000344 
1.1849498e+3, 1.845243e+2, -1164049.0, -1171714.3, 28918.678, 0.020045588, -0.1690923, -1138710.1, -7056.4214, 0.0, 9.999832, 9.999749 
1.1849775e+3, 1.94525e+2, -1019005.06, -1048177.06, 11101.752, -0.11586929, -0.095974065, -1015260.75, 18385.697, 0.0, 10.000144, 9.999774 
1.1850065e+3, 2.0452501e+2, -1001179.44, -1085201.8, 17749.951, -0.13380262, -0.020797584, -997583.6, -61936.074, 0.0, 10.000017, 9.998913 
1.1850369e+3, 2.1452387e+2, -993985.5, -1026881.6, 12125.28, 0.013697417, -0.047653463, -989999.25, -152338.14, 0.0, 9.999383, 9.998941 
1.18506625e+3, 2.2452277e+2, -839138.9, -874694.9, 17899.732, 0.073704384, -0.05234868, -831688.75, -92016.28, 0.0, 9.999641, 9.99919 
1.18509434e+3, 2.3452154e+2, -546811.75, -677471.3, 15652.292, 0.013901833, -0.12142438, -544962.9, 96720.11, 0.0, 10.000944, 9.999247 
1.1851223e+3, 2.4452044e+2, -440354.13, -649780.25, -3742.8833, -0.007785002, -0.11400071, -440287.28, 103405.87, 0.0, 10.001331, 9.998574 
1.1851503e+3, 2.5451925e+2, -432793.5, -597400.0, -22199.982, 0.017478785, -0.1120867, -429852.03, 15853.517, 0.0, 10.000713, 9.998565 
1.1851781e+3, 2.6451808e+2, -333073.44, -566326.75, -20706.11, 0.03422951, -0.04289785, -331249.6, 16468.709, 0.0000005059796, 10.001037, 9.997939 
1.1852056e+3, 2.7451676e+2, -30378.467, -379536.84, -51427.824, 0.013323267, 0.006330344, -22961.19, 226773.27, 0.000009353779, 10.002477, 9.997863 
1.18523374e+3, 2.8451452e+2, 46958.57, -409035.88, -16144.648, 0.041168865, 0.060621984, 47529.46, 199286.73, 0.000051580555, 10.002842, 9.996801 
1.1852631e+3, 2.9451135e+2, 9457.75, -372689.72, 1751.6743, 0.1502051, 0.037915807, 9465.779, 63252.93, 0.00018437536, 10.00189, 9.996835 
1.1852905e+3, 3.0450875e+2, 76493.63, -176064.64, 20384.564, 0.07354317, 0.043524597, 78128.336, 78128.336, 0.0004810056, 10.001416, 9.998092 
1.18531846e+3, 3.1450513e+2, 142266.38, -6421.0347, -16397.953, 0.04837364, -0.16103765, 144053.34, 144053.34, 0.0009623852, 10.001208, 9.999358 
1.1947806e+3, 1.244957e+2, -1729731.1, -1577879.3, -129508.02, -0.19437864, 0.0014812108, -1503681.6, 216264.55, 0.0022081332, 9.999228, 10.001286 
1.19480856e+3, 1.344971e+2, -1699982.3, -1538331.3, 7411.2925, -0.048332766, 0.0074743717, -1537992.1, 83936.11, 0.0011730703, 9.998869, 10.001086 
1.1948373e+3, 1.4449714e+2, -1685293.6, -1597923.6, 60186.35, -0.002830583, -0.03624186, -1567239.4, -43312.33, 0.00040013902, 9.998822, 9.999999 
1.1948636e+3, 1.5449807e+2, -1509841.9, -1471684.6, 34564.766, -0.18762101, 0.03757733, -1451282.6, -25361.482, 0.00005450229, 9.9994, 9.999915 
1.1948913e+3, 1.6449837e+2, -1367020.9, -1343525.3, -14538.113, -0.2035321, 0.08111971, -1336581.6, -8663.158, 0.00000035173326, 9.999671, 9.999997 
1.1949215e+3, 1.744977e+2, -1265672.3, -1237708.0, -11717.357, 0.030582225, -0.012886498, -1233447.5, -3526.172, 0.0, 9.999669, 10.000049 
1.1949502e+3, 1.8449743e+2, -1184336.9, -1206270.4, 26154.475, 0.05853095, -0.008134241, -1166943.0, -35020.945, 0.0, 9.999803, 9.999526 
1.1949774e+3, 1.944975e+2, -1047959.94, -1088011.3, 33885.02, -0.16317323, 0.020996375, -1028625.44, 5296.44, 0.0, 10.000053, 9.999547 
1.19500585e+3, 2.0449674e+2, -1005374.25, -1068017.3, -20708.584, -0.20490777, 0.023495153, -999147.4, -63217.85, 0.0, 9.999908, 9.99908 
1.1950361e+3, 2.144947e+2, -1003167.3, -1011286.2, -867.50336, -0.019055268, -0.11132561, -1003075.6, -165126.58, 0.0, 9.999235, 9.999118 
1.1950658e+3, 2.2449405e+2, -844155.1, -849906.2, 50023.082, 0.044971853, -0.09224979, -796925.0, -56970.105, 0.0, 9.999489, 9.9994335 
1.1950949e+3, 2.3449491e+2, -551969.44, -647608.6, 74428.055, -0.039634407, 0.01872395, -511322.97, 130622.484, 0.0, 10.000773, 9.999531 
1.1951234e+3, 2.4449454e+2, -469264.75, -675292.6, -38172.1, -0.054768026, 0.08767314, -462419.75, 81528.93, 0.0, 10.001175, 9.998482 
1.195151e+3, 2.5449243e+2, -457570.63, -617635.9, -33017.15, 0.0104897795, 0.008573943, -451027.53, -5057.869, 0.0, 10.00058, 9.998488 
1.1951793e+3, 2.6449022e+2, -386672.03, -650455.3, 18922.893, 0.03421898, -0.0018614352, -385321.47, -37328.51, 0.0000006389743, 10.000914, 9.997428 
1.1952081e+3, 2.744876e+2, -80416.39, -452369.47, 18331.695, 0.0046646856, -0.023962473, -79515.09, 170506.08, 0.000009301616, 10.002344, 9.997427 
1.19523644e+3, 2.844854e+2, 79859.484, -314458.47, -56971.0, 0.010242423, 0.019099863, 87925.65, 239969.02, 0.00005191434, 10.00272, 9.997514 
1.1952643e+3, 2.9448348e+2, 51349.64, -272884.22, -15026.665, 0.05455303, 0.0389295, 52044.563, 106104.61, 0.00018470343, 10.001819, 9.9975605 
1.195291e+3, 3.0448171e+2, 21981.254, -256405.25, 8299.72, -0.029561635, 0.11739456, 22228.479, 22228.479, 0.0004730737, 10.0012865, 9.997596 
1.1953196e+3, 3.144777e+2, 48339.0, -148388.73, 29983.021, -0.01812062, -0.07634306, 52807.188, 52807.188, 0.0009339275, 10.000985, 9.998486 
1.2047799e+3, 1.24469504e+2, -1911902.9, -1659010.8, 49413.914, -0.119254574, 0.05057303, -1649698.4, 70505.44, 0.0024257244, 9.997976, 10.001338 
1.2048081e+3, 1.3446996e+2, -1667007.9, -1557829.3, 21850.758, 0.01588449, 0.0026676236, -1553618.5, 68575.7, 0.0012988481, 9.999284, 10.000744 
1.2048357e+3, 1.4446929e+2, -1590327.0, -1584195.9, 43934.14, -0.06580855, -0.08088634, -1543220.4, -19021.117, 0.00045139206, 9.999605, 9.999719 
1.2048634e+3, 1.5447016e+2, -1592993.5, -1536774.1, 10293.867, -0.11930699, 0.010997536, -1534948.6, -108755.016, 0.00006471426, 9.998942, 9.999687 
1.2048916e+3, 1.6447058e+2, -1485605.5, -1404863.0, 25689.393, -0.105950266, 0.08239334, -1397382.5, -69192.625, 0.00000057087306, 9.9988785, 9.99995 
1.2049209e+3, 1.744702e+2, -1262708.5, -1235662.8, 22175.24, 0.01874574, 0.018194338, -1223212.4, 6979.028, 0.0, 9.999699, 10.000038 
1.2049497e+3, 1.8446997e+2, -1185791.0, -1227903.4, 79701.59, 0.035289854, 0.03507949, -1124411.1, 7781.7046, 0.0, 9.999889, 9.999331 
1.2049778e+3, 1.9446968e+2, -1164714.5, -1161424.8, 65852.805, -0.083645456, 0.047461387, -1097196.4, -62999.85, 0.0, 9.999335, 9.999379 
1.2050066e+3, 2.0446871e+2, -1061061.1, -1105624.3, 45958.684, -0.095200524, 0.041235413, -1032267.56, -96061.64, 0.0, 9.999556, 9.998993 
1.2050365e+3, 2.1446663e+2, -783384.75, -917339.06, 19547.281, 0.027739124, -0.09389457, -780590.6, 57634.883, 0.0, 10.00077, 9.999029 
1.2050659e+3, 2.2446579e+2, -657674.06, -774424.94, 60893.3, 0.049948554, -0.080401465, -631695.0, 108537.445, 0.0, 10.00084, 9.999301 
1.2050948e+3, 2.3446633e+2, -744437.56, -755965.5, 31497.496, -0.047177393, 0.015252319, -718181.0, -75955.07, 0.0, 9.999529, 9.999387 
1.2051235e+3, 2.444659e+2, -713332.5, -771741.7, -52432.723, -0.052397586, 0.07745279, -682519.6, -138290.36, 0.0, 9.999418, 9.9986515 
1.2051518e+3, 2.5446403e+2, -417268.34, -580218.6, -53890.297, 0.032051932, 0.0026928247, -401058.47, 45188.72, 0.00000000020898414, 10.000779, 9.998643 
1.2051805e+3, 2.6446182e+2, -337953.16, -617096.6, 51264.19, 0.06464388, -0.016159745, -328836.34, 19432.816, 0.00000074892756, 10.001209, 9.997505 
1.2052097e+3, 2.7445906e+2, -342661.94, -569668.7, 65894.0, 0.037204433, -0.062293615, -324921.13, -74623.3, 0.000009032264, 10.000503, 9.9974985 
1.2052382e+3, 2.8445688e+2, -181348.9, -385248.97, 20079.887, 0.019104647, -0.048838213, -179390.27, -27070.85, 0.000052136886, 10.000701, 9.997995 
1.2052655e+3, 2.944551e+2, 98829.78, -191909.97, 7333.4736, 0.0030843022, -0.059727162, 99014.64, 153348.98, 0.0001849306, 10.001916, 9.998062 
1.2052923e+3, 3.0445388e+2, 147103.22, -165237.7, 35539.695, -0.059180498, 0.034694377, 151096.06, 151096.06, 0.0004665325, 10.002019, 9.997864 
1.20532125e+3, 3.144514e+2, -59764.89, -200977.56, 71150.055, 0.10647891, -0.034000173, -30133.582, -30133.582, 0.00090606173, 10.000285, 9.998445 
1.21478006e+3, 1.2444465e+2, -2002012.3, -1829320.3, 154803.94, 0.05918276, 0.05471706, -1738409.6, -17968.959, 0.0026624324, 9.997929, 10.000184 
1.2148057e+3, 1.3444315e+2, -1801673.8, -1844420.8, 79055.01, -0.17660199, 0.008771295, -1741153.9, -118696.91, 0.0014356553, 9.99931, 9.998773 
1.2148323e+3, 1.444417e+2, -1584201.6, -1567922.5, 5388.295, -0.39525086, -0.05522367, -1566300.6, -41828.77, 0.0005075534, 9.999602, 9.999826 
1.2148639e+3, 1.54442e+2, -1586653.9, -1519429.6, -1019.43896, 0.017853428, -0.03834234, -1519414.1, -92945.86, 0.000076397075, 9.998923, 9.999818 
1.21489294e+3, 1.6444215e+2, -1475278.5, -1379057.8, 41772.793, 0.12033352, -0.006859694, -1363453.3, -34987.77, 0.0000008702971, 9.998865, 10.000128 
1.21491954e+3, 1.74442e+2, -1254391.9, -1211424.8, 64532.906, -0.10793899, -0.06813224, -1164893.3, 65572.01, 0.0, 9.999667, 10.000219 
1.21494785e+3, 1.844419e+2, -1191840.9, -1237056.8, 47104.3, -0.15585542, -0.045212384, -1162200.0, -29734.27, 0.0, 9.999874, 9.999276 
1.21497825e+3, 1.9444165e+2, -1183174.8, -1182455.5, 56615.91, 0.014948387, -0.020910917, -1126198.1, -91728.64, 0.0, 9.999258, 9.999274 
1.2150082e+3, 2.0444103e+2, -1103944.0, -1166233.5, 73971.98, 0.09004445, 0.03080353, -1054827.6, -118351.266, 0.0, 9.999436, 9.998631 
1.2150377e+3, 2.1443975e+2, -835464.75, -981141.2, 75700.59, 0.052478034, 0.012346549, -803250.7, 35238.227, 0.0, 10.00058, 9.998679 
1.2150663e+3, 2.2443816e+2, -718004.8, -863763.6, 3062.994, -0.0082362415, -0.0085447375, -717940.44, 22563.045, 0.0, 10.000678, 9.998771 
1.215094e+3, 2.3443598e+2, -799219.0, -841470.25, -3900.5667, -0.0961386, -0.12933047, -798861.94, -156339.42, 0.0, 9.999402, 9.998863 
1.2151227e+3, 2.4443465e+2, -713869.56, -734723.06, -14170.747, -0.10466959, -0.14403641, -706702.94, -162169.42, 0.0, 9.999256, 9.9989805 
1.2151524e+3, 2.5443417e+2, -406729.16, -533124.4, 11222.482, -0.010628737, -0.12219886, -405740.47, 40796.39, 0.00000000018849695, 10.000668, 9.99902 
1.2151815e+3, 2.6443312e+2, -313233.6, -537650.25, 18256.54, 0.025633935, -0.07668513, -311758.13, 36787.965, 0.00000061447383, 10.001087, 9.998113 
1.2152101e+3, 2.7443105e+2, -310084.94, -483909.94, 54350.23, -0.0001552425, -0.11286485, -294490.22, -43924.88, 0.000008322687, 10.000419, 9.998132 
1.2152384e+3, 2.844288e+2, -194352.78, -375486.63, 52726.914, -0.04401042, -0.14204529, -180122.31, -27536.004, 0.000050710027, 10.000553, 9.998131 
1.2152665e+3, 2.9442623e+2, 90731.97, -176700.16, 72771.91, -0.11734285, -0.2463889, 109251.695, 163861.56, 0.00018357177, 10.0017805, 9.998229 
1.21529385e+3, 3.0442524e+2, 178151.72, -61814.164, -32994.168, -0.11940778, -0.18141298, 182605.6, 182605.6, 0.00046227945, 10.001855, 9.998655 
1.2153229e+3, 3.144257e+2, -36937.73, -118100.46, 49220.406, 0.1875915, -0.030006962, -13726.496, -13726.496, 0.00088881893, 10.000138, 9.9990835 
1.2247788e+3, 1.2441714e+2, -1792371.5, -1742337.4, 56150.4, 0.08614414, 0.054692753, -1705883.1, 14826.182, 0.0029179724, 9.999376, 10.000097 
1.22480445e+3, 1.344156e+2, -1979205.0, -1940613.8, 10834.869, -0.16684158, 0.015723893, -1937779.9, -315052.44, 0.0015834377, 9.998135, 9.998677 
1.2248313e+3, 1.4441486e+2, -1813570.1, -1650489.8, 58722.9, -0.3593502, 0.013639995, -1631545.3, -106810.14, 0.00056846405, 9.997905, 10.000079 
1.2248633e+3, 1.544144e+2, -1511026.1, -1440604.8, 32297.957, 0.056491733, -0.07976521, -1428035.3, -1298.78, 0.00008951281, 9.999273, 10.000177 
1.22489244e+3, 1.6441426e+2, -1359164.0, -1350997.5, 92460.805, 0.15087877, -0.0867427, -1262529.9, 66206.08, 0.0000012652538, 9.999755, 9.999914 
1.2249188e+3, 1.7441434e+2, -1342621.5, -1279326.0, 63314.89, -0.11515461, -0.099907786, -1240189.9, -9454.744, 0.0, 9.999151, 10.000019 
1.2249473e+3, 1.8441442e+2, -1269341.1, -1253592.1, 67333.47, -0.16523299, -0.058093525, -1193674.3, -60940.234, 0.0, 9.999243, 9.999473 
1.2249783e+3, 1.9441424e+2, -1009283.25, -1072895.5, 71089.234, 0.042013224, -0.047880773, -963209.3, 71525.8, 0.0, 10.00034, 9.999509 
1.2250085e+3, 2.0441358e+2, -945700.2, -1117340.9, 129307.984, 0.13309969, -0.0029929236, -876324.9, 60417.03, 0.0, 10.00064, 9.998388 
1.2250381e+3, 2.1441206e+2, -957388.06, -1067797.3, 114758.42, 0.079521194, -0.0154579105, -885246.5, -46488.797, 0.0, 9.999873, 9.998422 
1.2250669e+3, 2.2441034e+2, -842871.94, -926726.5, 73961.81, 0.037374157, -0.036104564, -799780.1, -59006.105, 0.0, 9.99983, 9.998745 
1.22509494e+3, 2.344081e+2, -613730.56, -754860.9, 72452.97, 0.0011659127, -0.16335541, -583157.8, 59635.277, 0.0, 10.000684, 9.998842 
1.2251236e+3, 2.4440661e+2, -468027.9, -630645.6, 117051.44, -0.008924105, -0.1872599, -406816.0, 137989.17, 0.0, 10.000996, 9.998868 
1.2251532e+3, 2.5440592e+2, -415551.1, -544826.0, 86581.78, 0.014143783, -0.17361842, -372140.38, 74669.81, 0.0, 10.000652, 9.998944 
1.22518234e+3, 2.644049e+2, -340688.5, -509311.44, 67947.52, 0.025893845, -0.13669986, -316716.6, 32101.506, 0.0000003685213, 10.000723, 9.99848 
1.225211e+3, 2.7440327e+2, -172809.88, -371419.16, 57527.992, 0.024541019, -0.17450394, -157350.06, 93482.15, 0.0000073761885, 10.001184, 9.998525 
1.2252396e+3, 2.8440133e+2, -110139.8, -345857.88, 73972.45, 0.0069122002, -0.18660271, -88849.0, 64000.863, 0.000049087277, 10.001146, 9.998057 
1.2252682e+3, 2.9439902e+2, -131258.34, -301047.2, 53232.31, -0.031131648, -0.2537829, -115949.26, -61076.152, 0.00018153466, 10.000308, 9.998097 
1.2252955e+3, 3.0439755e+2, -14383.555, -101097.055, -62602.773, -0.047364593, -0.25270054, 18410.303, 18410.303, 0.00045750884, 10.0003, 9.9991255 
1.22532316e+3, 3.1439844e+2, 111061.125, -12397.758, -48938.254, 0.17561957, -0.111741744, 128106.53, 128106.53, 0.0008771935, 10.000956, 9.999428 
1.2347768e+3, 1.2438629e+2, -1700239.4, -1571000.1, 5769.6084, -0.09572084, -0.00033113212, -1570743.1, 150274.14, 0.0031899144, 9.99945, 10.00124 
1.2348036e+3, 1.343872e+2, -1835452.0, -1653927.1, -37269.92, -0.07850487, 0.004517638, -1646573.0, -23565.916, 0.0017411282, 9.998161, 10.000635 
1.23483256e+3, 1.4438865e+2, -1780169.8, -1585580.9, 92330.48, -0.06626825, 0.09868126, -1548744.4, -23754.26, 0.0006337289, 9.997917, 10.000524 
1.23486124e+3, 1.5438733e+2, -1480581.9, -1386678.1, 95297.74, -0.100088194, -0.11378504, -1327393.9, 99604.46, 0.00010392506, 9.999294, 10.000549 
1.2348896e+3, 1.6438688e+2, -1385126.5, -1409861.8, 55750.805, -0.12400295, -0.1538638, -1340388.0, -11386.485, 0.0000017603737, 9.999778, 9.9994955 
1.2349182e+3, 1.7438735e+2, -1378547.9, -1354705.9, 48840.113, -0.10660137, -0.0809611, -1316353.0, -85352.81, 0.0, 9.9991455, 9.999507 
1.2349474e+3, 1.8438761e+2, -1247932.0, -1201646.0, 92732.61, -0.09600876, -0.010711416, -1129212.1, 3785.02, 0.0, 9.999211, 9.999846 
1.2349774e+3, 1.9438747e+2, -990035.06, -1015304.8, 125232.25, -0.09846297, -0.039551646, -876801.94, 158191.6, 0.0, 10.0002575, 9.9999485 
1.2350074e+3, 2.0438631e+2, -970636.5, -1137629.4, 88421.52, -0.06485729, -0.062436976, -932518.7, 4484.3105, 0.0, 10.000507, 9.998311 
1.23503745e+3, 2.1438368e+2, -987892.25, -1099113.9, 96405.44, 0.016243024, -0.17700918, -932208.1, -93176.94, 0.0, 9.999731, 9.998278 
1.2350674e+3, 2.2438236e+2, -837048.25, -881063.5, 90453.55, 0.085265115, -0.16537213, -765963.56, -24919.645, 0.0, 9.9996805, 9.999134 
1.2350972e+3, 2.3438255e+2, -606479.6, -707261.3, 118166.87, 0.14091592, -0.09215502, -528407.8, 114630.9, 0.0, 10.000537, 9.999245 
1.2351261e+3, 2.4438164e+2, -523994.72, -711373.7, 93409.266, 0.115973756, -0.056427456, -485385.25, 59660.074, 0.0, 10.000843, 9.998386 
1.2351539e+3, 2.5437912e+2, -465505.25, -628181.0, 85651.445, 0.001975509, -0.17202686, -428724.44, 18344.459, 0.0, 10.000553, 9.9984255 
1.2351826e+3, 2.6437712e+2, -360237.84, -510896.97, 73268.055, -0.037145946, -0.21432583, -330482.9, 18604.04, 0.00000016286783, 10.000563, 9.998544 
1.2352123e+3, 2.7437556e+2, -185272.42, -367050.1, 89394.125, 0.01144287, -0.25242704, -148677.58, 102421.76, 0.000006622681, 10.001058, 9.998612 
1.2352416e+3, 2.8437433e+2, -146451.28, -390766.47, 34278.453, 0.06063727, -0.18808597, -141732.98, 11378.355, 0.000048750662, 10.0010195, 9.997811 
1.2352703e+3, 2.9437312e+2, -155872.7, -342526.06, 41645.563, 0.11567283, -0.114888035, -147002.4, -91875.82, 0.00018217463, 10.000259, 9.997841 
1.2352967e+3, 3.0437055e+2, -19929.703, -93929.83, -43330.57, 0.022256762, -0.2138623, 48.67603, 48.67603, 0.00045752534, 10.000224, 9.999211 
1.23532176e+3, 3.143695e+2, 99507.17, 4190.15, 14921.546, -0.11884775, -0.28117746, 101788.49, 101788.49, 0.000874485, 10.000792, 9.999618 
1.2447745e+3, 1.2435768e+2, -2195536.5, -1776874.4, 139033.78, -0.0963606, 0.023816312, -1734909.1, -13611.433, 0.003475539, 9.99594, 10.001497 
1.244802e+3, 1.3435887e+2, -1779598.6, -1508246.4, 10306.819, -0.038930018, -0.049253374, -1507855.4, 115427.02, 0.0019075654, 9.998035, 10.001695 
1.2448329e+3, 1.4436093e+2, -1658735.4, -1548797.4, 106159.88, 0.15059718, 0.05905052, -1484219.3, 41039.895, 0.0007030745, 9.998846, 10.000329 
1.24485984e+3, 1.5435997e+2, -1671703.4, -1511460.8, 32677.338, -0.09319839, -0.08895863, -1505053.3, -77787.03, 0.00011956255, 9.998123, 10.000259 
1.2448878e+3, 1.6435963e+2, -1637575.0, -1534892.9, -1215.1344, -0.19118053, -0.099245384, -1534878.5, -205608.77, 0.0000023468863, 9.998074, 9.999453 
1.2449176e+3, 1.7436e+2, -1401746.1, -1365077.5, -1569.4733, -0.073619045, -0.03215623, -1365010.5, -133740.81, 0.0, 9.999007, 9.999489 
1.24494724e+3, 1.8435998e+2, -1208335.6, -1190092.8, 79233.11, -0.042189687, 0.014088321, -1119457.8, 13810.92, 0.0, 9.999507, 9.999782 
1.2449768e+3, 1.9435927e+2, -1116803.9, -1085365.5, 54950.426, -0.12590843, -0.06813009, -1043930.1, -8661.183, 0.0, 9.9994135, 9.999876 
1.245007e+3, 2.0435801e+2, -1091995.1, -1180712.3, 13122.339, -0.10197555, -0.103814974, -1090094.9, -152816.31, 0.0, 9.9995985, 9.998457 
1.2450377e+3, 2.1435592e+2, -921284.7, -1044938.56, 13637.643, 0.068339474, -0.18139957, -919798.5, -80496.78, 0.0, 10.0000925, 9.998474 
1.245068e+3, 2.2435491e+2, -735762.5, -831360.0, 49918.38, 0.15447047, -0.1504847, -714448.56, 26863.012, 0.0, 10.000387, 9.999125 
1.2450975e+3, 2.3435499e+2, -620931.0, -710621.0, 21722.898, 0.13190073, -0.08764339, -615946.7, 27360.576, 0.0, 10.000442, 9.999254 
1.2451266e+3, 2.4435401e+2, -566416.56, -749834.5, 2762.4326, 0.09924321, -0.050968975, -566374.94, -21060.223, 0.0, 10.0006275, 9.998228 
1.2451552e+3, 2.5435153e+2, -421506.63, -623935.9, -4509.9336, 0.05934059, -0.14467326, -421406.2, 25932.559, 0.0, 10.0009365, 9.998264 
1.2451841e+3, 2.6434928e+2, -296635.2, -503842.16, 15303.613, 0.039190106, -0.19145776, -295511.03, 53848.797, 0.000000050542315, 10.001083, 9.998345 
1.2452135e+3, 2.7434716e+2, -214118.0, -410856.53, -14984.145, 0.038217925, -0.26304603, -212983.31, 38395.277, 0.0000061370592, 10.000961, 9.998375 
1.2452426e+3, 2.8434607e+2, -112895.31, -339867.03, -46989.203, 0.07022138, -0.18471773, -103551.92, 49837.703, 0.000049451548, 10.001122, 9.998101 
1.2452715e+3, 2.9434583e+2, 63562.1, -194381.7, -34050.63, 0.15082568, -0.050596688, 67981.34, 123376.8, 0.00018750013, 10.001618, 9.998187 
1.2452983e+3, 3.043428e+2, 216832.06, 264.34134, -61856.992, 0.08735412, -0.20194964, 233254.58, 233254.58, 0.000470274, 10.001914, 9.9990635 
1.2453237e+3, 3.143413e+2, 260622.27, 105508.164, -61450.0, -0.035480697, -0.29218027, 282015.72, 282015.72, 0.00089436676, 10.001796, 9.999843 
1.25477e+3, 1.2433103e+2, -2240624.5, -1875164.4, 70887.92, -0.18716441, 0.068643674, -1861896.0, -140343.38, 0.0037739007, 9.995942, 10.000831 
1.2547994e+3, 1.3433084e+2, -1771659.3, -1500306.9, 104399.086, -0.13041174, -0.14284296, -1464789.6, 158761.6, 0.0020822603, 9.998064, 10.001742 
1.2548324e+3, 1.443318e+2, -1711582.1, -1669343.5, 68654.44, 0.18823613, -0.107619055, -1618633.5, -93091.99, 0.0007764397, 9.998889, 9.999479 
1.2548588e+3, 1.5433243e+2, -1733229.4, -1644851.0, 14215.954, -0.029268946, -0.008085077, -1642620.6, -215081.14, 0.00013646827, 9.998141, 9.999336 
1.2548865e+3, 1.6433263e+2, -1620839.3, -1502008.1, 14353.613, -0.14136434, 0.07409567, -1500298.9, -170758.88, 0.0000030208696, 9.9980755, 9.9996805 
1.2549165e+3, 1.7433234e+2, -1379920.9, -1319085.5, 43906.727, -0.09816049, 0.044645384, -1296089.4, -64546.176, 0.0, 9.998995, 9.999814 
1.2549464e+3, 1.843315e+2, -1240923.0, -1250951.4, 63794.445, -0.09446277, 0.01098462, -1181946.0, -48396.97, 0.0, 9.999476, 9.99938 
1.2549764e+3, 1.9432966e+2, -1156803.1, -1156767.4, 62172.563, -0.14096625, -0.13955443, -1094612.6, -59051.383, 0.0, 9.999355, 9.999415 
1.2550071e+3, 2.043287e+2, -1085705.1, -1135228.5, 17072.836, -0.074713424, -0.13829005, -1080389.9, -142821.67, 0.0, 9.999464, 9.998835 
1.2550387e+3, 2.1432881e+2, -916614.56, -998030.3, 44243.945, 0.1339534, -0.03664802, -897200.4, -57631.273, 0.0, 9.999929, 9.99888 
1.2550683e+3, 2.2432786e+2, -788281.56, -897657.44, 39812.965, 0.13531108, -0.0016806198, -775324.5, -33746.695, 0.0, 10.000205, 9.998755 
1.2550956e+3, 2.3432541e+2, -670605.5, -783905.44, 35569.676, -0.11520468, -0.15162124, -660364.4, -16766.004, 0.0, 10.000305, 9.998819 
1.2551248e+3, 2.443238e+2, -576641.4, -736469.94, 2902.9666, -0.15024182, -0.1633573, -576588.6, -30976.436, 0.0, 10.000481, 9.998389 
1.2551565e+3, 2.543231e+2, -431969.06, -613318.7, 20923.627, 0.08835696, -0.09836854, -429586.25, 18033.373, 0.0, 10.0007925, 9.998407 
1.2551863e+3, 2.643213e+2, -351969.25, -583230.3, 2795.8818, 0.1498186, -0.08290626, -351935.44, -2297.7766, 0.00000007625481, 10.000931, 9.997874 
1.255214e+3, 2.7431804e+2, -262111.78, -487767.13, 385.01825, -0.008186238, -0.21966296, -262111.13, -10441.228, 0.0000061507535, 10.000857, 9.997899 
1.2552425e+3, 2.843167e+2, -78965.78, -249365.4, -36425.2, -0.07332586, -0.17699833, -71505.984, 82177.42, 0.000051588533, 10.001031, 9.998767 
1.2552716e+3, 2.9431713e+2, 100725.19, -96254.914, 3738.4255, -0.015781732, -0.049892552, 100796.12, 156474.48, 0.00020006, 10.001519, 9.998911 
1.2553e+3, 3.043142e+2, 169675.22, -67510.11, -72684.79, 0.039993856, -0.21016529, 190177.13, 190177.13, 0.00050364056, 10.001787, 9.998653 
1.2553279e+3, 3.1431335e+2, 244089.03, 114161.016, -19205.744, 0.1473462, -0.19844036, 246868.53, 246868.53, 0.00095293473, 10.001604, 9.999996 
1.2647676e+3, 1.2430186e+2, -2145014.0, -1852130.3, -53552.207, -0.034559015, 0.029322026, -1842645.6, -120807.37, 0.004085261, 9.996728, 10.000617 
1.2647973e+3, 1.3430211e+2, -1819243.8, -1539373.0, 5689.8735, -0.10029048, -0.10719558, -1539257.4, 84576.45, 0.0022650692, 9.997846, 10.001569 
1.2648305e+3, 1.4430258e+2, -1748395.6, -1623908.9, -34466.72, 0.1497401, -0.13757439, -1615003.1, -89173.99, 0.00085386867, 9.998359, 10.000051 
1.2648574e+3, 1.5430437e+2, -1665532.3, -1539432.4, -6982.665, 0.017954817, 0.016513498, -1539046.9, -111232.555, 0.00015477135, 9.998303, 9.999978 
1.2648858e+3, 1.6430497e+2, -1569923.1, -1470094.5, 119055.59, -0.049391873, 0.1028955, -1390913.3, -61103.848, 0.0000038088367, 9.998401, 9.999734 
1.2649159e+3, 1.7430407e+2, -1388120.4, -1323045.3, 103557.49, -0.04924031, 0.0079971505, -1247034.0, -15216.257, 0.0, 9.998939, 9.999813 
1.2649462e+3, 1.8430284e+2, -1260923.5, -1295604.9, 120952.58, -0.050797164, -0.0509752, -1156074.9, -22247.096, 0.0, 9.999494, 9.999064 
1.2649769e+3, 1.94301e+2, -1072030.5, -1150062.0, 98223.34, -0.055834766, -0.16479836, -1005357.8, 30484.457, 0.0, 10.000108, 9.99909 
1.2650076e+3, 2.043002e+2, -929589.7, -1028168.44, 75979.77, -0.002972195, -0.14465497, -888312.1, 49535.668, 0.0, 10.000397, 9.999117 
1.2650384e+3, 2.1430054e+2, -857127.94, -932427.94, 69657.21, 0.11700841, -0.053084135, -815596.8, 24246.926, 0.0, 10.000177, 9.999206 
1.265068e+3, 2.2429949e+2, -766884.3, -899884.3, 107783.73, 0.080953404, -0.042397387, -706736.9, 35115.438, 0.0, 10.000383, 9.998669 
1.2650959e+3, 2.3429658e+2, -564178.56, -742880.0, 105514.914, -0.14152046, -0.22690013, -515265.22, 128612.6, 0.0, 10.001068, 9.99874 
1.2651256e+3, 2.4429497e+2, -443250.38, -663041.06, 89559.63, -0.1561665, -0.23996942, -411378.6, 134513.7, 0.0, 10.001349, 9.998477 
1.2651575e+3, 2.542948e+2, -381591.44, -579491.25, 74513.27, 0.09646291, -0.12920381, -356673.22, 91222.04, 0.0, 10.001086, 9.998504 
1.2651877e+3, 2.6429337e+2, -321063.44, -571126.2, 101550.984, 0.18547434, -0.080749795, -285018.9, 64891.66, 0.00000015326442, 10.001161, 9.997848 
1.265216e+3, 2.7429023e+2, -149364.3, -432442.2, 101075.34, 0.06951067, -0.20376128, -116979.414, 134963.06, 0.0000068361555, 10.001639, 9.997894 
1.2652443e+3, 2.842887e+2, -1597.5889, -214437.53, 71969.32, -0.001444692, -0.17821275, 20453.422, 174411.19, 0.000055437977, 10.001559, 9.998759 
1.2652728e+3, 2.9428867e+2, 6281.0054, -145911.52, 30180.684, -0.008327152, -0.09719163, 12047.523, 68004.484, 0.00021969865, 10.000875, 9.998884 
1.2653013e+3, 3.0428573e+2, 10451.858, -182002.95, -31889.102, 0.04953829, -0.23861173, 15598.16, 15598.16, 0.00055760087, 10.000868, 9.998297 
1.2653302e+3, 3.142854e+2, 239520.83, 139182.5, -16177.864, 0.24327397, -0.13700113, 242064.73, 242064.73, 0.0010537416, 10.001481, 10.000209 
1.2747656e+3, 1.2427118e+2, -2097604.0, -1782294.6, -93845.695, 0.024121292, 0.015364838, -1756477.1, -34332.008, 0.0044096503, 9.9968405, 10.001041 
1.2747958e+3, 1.3427274e+2, -1855927.5, -1622156.4, 51560.875, -0.0515435, 0.06256772, -1611289.3, 12841.147, 0.0024558255, 9.997859, 10.0009985 
1.2748267e+3, 1.4427337e+2, -1593302.6, -1315541.6, -48505.535, -0.10729031, -0.021164134, -1307314.8, 218806.52, 0.00093550276, 9.998411, 10.002144 
1.2748553e+3, 1.5427591e+2, -1503829.9, -1212445.6, 2050.695, -0.048474956, -0.016700864, -1212431.3, 215658.02, 0.00017466526, 9.998332, 10.002212 
1.2748848e+3, 1.6427667e+2, -1569488.8, -1482730.1, 123018.45, -0.014759149, -0.02939912, -1395666.8, -65588.984, 0.0000047674703, 9.998448, 9.999629 
1.2749153e+3, 1.7427512e+2, -1404380.8, -1363699.6, 134680.27, -0.02447974, -0.16118394, -1247832.6, -15739.307, 0.0, 9.998958, 9.999529 
1.2749463e+3, 1.84274e+2, -1286294.8, -1341514.0, 132379.52, -0.01508354, -0.1803757, -1178676.4, -44571.95, 0.0, 9.999466, 9.99876 
1.2749779e+3, 1.9427328e+2, -1102219.1, -1200926.6, 134354.06, 0.025046045, -0.15351531, -1008440.75, 27670.959, 0.0, 10.0000515, 9.998769 
1.2750083e+3, 2.0427242e+2, -931538.5, -1008370.8, 55096.707, 0.009753846, -0.1316856, -902787.3, 35330.797, 0.0, 10.000291, 9.999307 
1.275037e+3, 2.1427114e+2, -862132.25, -909335.4, 70415.35, -0.07562131, -0.2240105, -811468.4, 28657.008, 0.0, 10.000025, 9.999442 
1.2750666e+3, 2.2426988e+2, -776595.5, -873846.44, 119105.73, -0.10314381, -0.2608128, -696571.8, 45562.14, 0.0, 10.000195, 9.998933 
1.275098e+3, 2.3426843e+2, -574528.75, -723034.3, 144822.23, -0.054834716, -0.32438266, -486033.4, 158112.64, 0.0, 10.00089, 9.998961 
1.2751284e+3, 2.4426734e+2, -474567.44, -683556.7, 70255.125, -0.025433864, -0.29168305, -453145.78, 93010.72, 0.0, 10.001159, 9.998429 
1.2751576e+3, 2.5426665e+2, -402005.7, -590335.0, 78942.12, -0.017988587, -0.23374921, -373293.0, 74872.84, 0.0, 10.000946, 9.9985 
1.2751876e+3, 2.6426554e+2, -317505.16, -532090.94, 105799.52, 0.040800646, -0.17111261, -274115.25, 76063.1, 0.00000020123079, 10.00103, 9.998174 
1.2752187e+3, 2.7426362e+2, -149645.67, -397961.72, 132434.89, 0.1587449, -0.2091912, -92270.74, 159926.9, 0.0000077157165, 10.001494, 9.998198 
1.275248e+3, 2.8426194e+2, -64371.56, -318454.06, 34313.473, 0.16589887, -0.18109947, -59819.14, 94395.83, 0.000060411407, 10.001445, 9.998098 
1.2752745e+3, 2.9426026e+2, -59905.266, -258488.36, 22081.768, 0.03826716, -0.19805409, -57479.48, -1246.7261, 0.00024271311, 10.00077, 9.998162 
1.2753019e+3, 3.042573e+2, -34558.734, -260498.25, -19080.615, 0.0040780995, -0.27500287, -32958.703, -32958.703, 0.0006224366, 10.000798, 9.997792 
1.2753305e+3, 3.1425774e+2, 210305.38, 128678.23, 45953.984, 0.06823493, -0.060437314, 230953.3, 230953.3, 0.0011818967, 10.001276, 10.000229 
1.2847641e+3, 1.2424205e+2, -1738825.9, -1565244.3, 107030.69, 0.08797802, -0.028346507, -1514237.4, 208191.5, 0.0047468157, 9.999067, 10.001464 
1.2847944e+3, 1.3424382e+2, -2017326.4, -1732194.6, 186148.55, 0.05762061, 0.061951436, -1640290.3, -15878.619, 0.0026545508, 9.99687, 10.000712 
1.2848234e+3, 1.4424442e+2, -1913906.3, -1447638.8, 110097.28, -0.16064112, -0.024194447, -1422949.4, 103453.27, 0.0010215283, 9.9961405, 10.002329 
1.2848537e+3, 1.5424652e+2, -1504150.0, -1184234.8, -16079.036, -0.036517758, -0.08288519, -1183428.6, 244945.66, 0.00019628371, 9.9982195, 10.00246 
1.284884e+3, 1.6424724e+2, -1450562.4, -1432605.4, 19637.691, 0.040294543, -0.1092544, -1419991.0, -89627.734, 0.0000059623408, 9.999286, 9.999577 
1.2849146e+3, 1.7424624e+2, -1400486.4, -1368912.3, 17743.508, 0.012317966, -0.17685823, -1360949.3, -128574.734, 0.0, 9.999019, 9.999464 
1.2849456e+3, 1.8424565e+2, -1337878.0, -1334393.1, 79110.77, 0.014165258, -0.15103126, -1257005.6, -122624.16, 0.0, 9.998988, 9.999037 
1.284978e+3, 1.942454e+2, -1175284.4, -1200665.1, 104025.77, 0.053449977, -0.10596042, -1083177.8, -46793.18, 0.0, 9.999413, 9.999079 
1.2850085e+3, 2.042445e+2, -1013486.0, -1066875.3, 45678.207, 0.028245475, -0.093997285, -987274.06, -48882.46, 0.0, 9.999815, 9.999134 
1.2850368e+3, 2.1424258e+2, -857774.56, -924379.3, 4542.921, -0.07713854, -0.23189141, -857466.1, -17060.875, 0.0, 10.000148, 9.999272 
1.2850669e+3, 2.2424114e+2, -791030.06, -873406.0, 47689.258, -0.07563082, -0.27959964, -769204.44, -26788.84, 0.0, 10.00007, 9.998994 
1.2850992e+3, 2.3424016e+2, -786832.94, -813310.6, 33269.816, 0.068724975, -0.30283675, -764264.7, -119841.32, 0.0, 9.999399, 9.999053 
1.28513e+3, 2.442393e+2, -677470.7, -751874.75, 10151.222, 0.097377546, -0.2643591, -676110.6, -129679.25, 0.0, 9.999635, 9.9986925 
1.2851584e+3, 2.5423852e+2, -373939.0, -543654.56, 15962.461, -0.020333804, -0.24235737, -372450.72, 75989.984, 0.0, 10.001006, 9.998786 
1.2851883e+3, 2.642375e+2, -217612.39, -465667.88, 52542.41, -0.0008331144, -0.19289143, -206942.0, 143509.92, 0.00000014147287, 10.001619, 9.998354 
1.2852204e+3, 2.7423593e+2, -169497.27, -386860.75, 41963.723, 0.19700538, -0.21065983, -161677.19, 90790.84, 0.000007879153, 10.00126, 9.998393 
1.2852497e+3, 2.842344e+2, -97870.016, -346283.13, -19949.084, 0.22997685, -0.16929984, -96278.19, 58205.902, 0.00006527563, 10.001275, 9.997988 
1.2852758e+3, 2.942326e+2, 63671.723, -215014.19, -28188.104, 0.058569327, -0.18357094, 66494.266, 122998.016, 0.000269289, 10.001689, 9.998017 
1.2853032e+3, 3.0422997e+2, 87445.19, -247051.6, -5751.271, 0.01177168, -0.20237613, 87544.04, 87544.04, 0.00069755525, 10.001821, 9.997406 
1.2853317e+3, 3.1422895e+2, 236320.36, 103856.164, 14501.338, 0.06506179, -0.08823259, 237889.28, 237889.28, 0.0013291562, 10.001568, 9.999944 
1.2947626e+3, 1.2421494e+2, -1709846.0, -1506104.4, 136186.39, -0.015200079, -0.10147934, -1437903.5, 284780.5, 0.0050962004, 9.999093, 10.001856 
1.2947923e+3, 1.3421564e+2, -2031347.5, -1741866.5, 103789.11, 0.14604537, -0.11968497, -1708500.3, -83825.95, 0.0028611089, 9.996803, 10.000674 
1.2948202e+3, 1.4421584e+2, -2048464.1, -1720136.6, 159840.47, -0.10616581, -0.15140526, -1655174.4, -128503.0, 0.00111182, 9.99611, 10.000475 
1.2948519e+3, 1.5421626e+2, -1641238.9, -1470341.1, 77636.81, -0.04380299, -0.18214987, -1440338.8, -11670.458, 0.000219555, 9.998221, 10.000499 
1.2948832e+3, 1.6421674e+2, -1446589.6, -1430793.0, -1472.9181, 0.00041620547, -0.12929446, -1430656.9, -99991.41, 0.0000074533, 9.99931, 9.9995775 
1.2949133e+3, 1.7421743e+2, -1391934.8, -1352813.6, 15443.799, -0.033899132, -0.039765436, -1347451.8, -114790.445, 0.0, 9.999022, 9.999574 
1.2949441e+3, 1.8421783e+2, -1281483.1, -1215632.9, 78834.79, -0.06416708, 0.038335342, -1163123.9, -28465.5, 0.0, 9.998976, 9.999861 
1.2949763e+3, 1.942174e+2, -1118898.0, -1075168.1, 129656.805, -0.06559206, -0.021831136, -965545.56, 71114.84, 0.0, 9.999363, 9.9999695 
1.2950076e+3, 2.0421645e+2, -1069123.5, -1148698.0, 45431.05, -0.045689568, -0.03860811, -1048520.25, -109852.23, 0.0, 9.999679, 9.998633 
1.295038e+3, 2.1421473e+2, -928913.56, -1028396.75, 26981.377, 0.0044773933, -0.096531436, -922067.0, -81382.734, 0.0, 9.999965, 9.998643 
1.2950684e+3, 2.2421315e+2, -829748.0, -912871.1, 13089.77, 0.060032565, -0.114303984, -827735.44, -85037.28, 0.0, 9.99989, 9.998812 
1.2950994e+3, 2.3421167e+2, -814864.56, -840597.3, 24090.0, 0.12336979, -0.17355199, -800420.25, -155710.3, 0.0, 9.999257, 9.9989395 
1.2951298e+3, 2.4421072e+2, -671458.75, -690391.1, 44259.285, 0.10497695, -0.16222318, -635664.7, -88947.414, 0.0, 9.999438, 9.999205 
1.2951596e+3, 2.542103e+2, -365330.03, -476648.75, 81386.03, -0.01825368, -0.1618487, -322390.97, 126329.6, 0.0, 10.000809, 9.999335 
1.2951899e+3, 2.6420924e+2, -232501.75, -467680.47, 33000.547, -0.036359, -0.14644699, -227958.83, 122772.37, 0.000000052302592, 10.001484, 9.998411 
1.2952207e+3, 2.7420732e+2, -185274.23, -388154.4, 45670.617, 0.08304895, -0.20080297, -175467.31, 77284.22, 0.000007172051, 10.001121, 9.998453 
1.2952499e+3, 2.8420627e+2, -94684.63, -313155.84, -15051.754, 0.08688724, -0.13683742, -93652.51, 61111.227, 0.00006969282, 10.001153, 9.998276 
1.2952764e+3, 2.9420575e+2, 66012.29, -185896.97, 6398.5527, -0.061686594, -0.051876288, 66174.71, 122944.12, 0.00030090337, 10.001581, 9.998269 
1.2953047e+3, 3.042037e+2, 52238.145, -305140.0, -23652.988, -0.037751026, -0.007622205, 53796.816, 53796.816, 0.00078645255, 10.001757, 9.99704 
1.2953334e+3, 3.141995e+2, 168364.84, 11247.377, 44014.273, 0.02633284, -0.17984027, 179854.61, 179854.61, 0.0014985187, 10.0013685, 9.999401 
1.3047612e+3, 1.2418615e+2, -2037221.1, -1664931.1, 49730.12, 0.06054926, -0.102063075, -1658402.6, 64558.18, 0.0054552136, 9.996869, 10.00183 
1.3047892e+3, 1.34186e+2, -1893676.3, -1662399.5, -126542.7, 0.1285388, -0.21003203, -1606616.5, 18342.934, 0.003073975, 9.9977045, 10.000785 
1.3048182e+3, 1.4418648e+2, -1820929.4, -1677606.6, 90570.76, 0.0038065566, -0.1906683, -1633776.0, -106820.97, 0.0012055306, 9.99795, 9.999872 
1.3048507e+3, 1.5418665e+2, -1664475.8, -1548507.8, 93775.46, 0.010158391, -0.18792781, -1496237.6, -67280.4, 0.000244213, 9.998351, 9.999887 
1.3048825e+3, 1.64187e+2, -1542473.1, -1459515.5, 54568.887, 0.03822762, -0.123299986, -1432450.5, -101493.516, 0.000009295233, 9.998606, 9.999712 
1.3049124e+3, 1.7418762e+2, -1408925.6, -1336885.8, 44692.566, -0.0016971286, -0.05851605, -1315504.8, -82551.82, 0.0, 9.998824, 9.999773 
1.3049433e+3, 1.8418801e+2, -1278353.6, -1203253.6, 118965.234, -0.031651985, 0.005373041, -1116053.0, 18896.705, 0.0, 9.998928, 9.99998 
1.3049756e+3, 1.9418786e+2, -1184712.5, -1091190.8, 89045.555, -0.031556617, -0.038247533, -1037374.8, -425.80002, 0.0, 9.998837, 10.000114 
1.3050073e+3, 2.0418718e+2, -1150264.0, -1192681.9, 28557.83, -0.0026531084, -0.035442695, -1135900.9, -196945.7, 0.0, 9.999143, 9.998591 
1.3050383e+3, 2.1418563e+2, -928301.5, -1036322.3, 29117.076, 0.05766511, -0.068196155, -920952.9, -79981.11, 0.0, 10.000005, 9.998574 
1.3050692e+3, 2.241843e+2, -698838.06, -821257.94, 50868.625, 0.109311536, -0.06770242, -680459.9, 62523.96, 0.0, 10.000665, 9.99906 
1.3050997e+3, 2.3418318e+2, -542113.7, -675413.0, 62272.953, 0.15344954, -0.12416169, -517548.78, 127442.24, 0.0, 10.000989, 9.999228 
1.30513e+3, 2.4418218e+2, -445794.63, -565965.94, 129186.6, 0.1228341, -0.14246644, -363404.1, 183593.42, 0.0, 10.000903, 9.999357 
1.3051602e+3, 2.5418118e+2, -429640.1, -494024.8, 115720.414, -0.004072579, -0.21537007, -341717.66, 107287.67, 0.0, 10.000281, 9.999479 
1.3051908e+3, 2.6418027e+2, -374534.53, -492649.06, 83246.72, -0.028026372, -0.20843148, -331524.28, 19489.29, 0.000000026393016, 10.000331, 9.998793 
1.3052218e+3, 2.741794e+2, -125835.625, -321553.3, 87446.37, 0.077083535, -0.1970052, -92457.2, 160567.08, 0.0000066700077, 10.001353, 9.998807 
1.3052511e+3, 2.8417844e+2, 29905.406, -261814.25, 57116.88, 0.07056817, -0.13512474, 40689.848, 195724.88, 0.00007506801, 10.0020485, 9.998193 
1.3052782e+3, 2.9417714e+2, 177672.83, -145479.98, 18179.705, -0.080275826, -0.116757646, 178692.34, 235739.94, 0.00033560226, 10.002407, 9.998145 
1.3053069e+3, 3.0417526e+2, 176482.06, -247907.75, -3735.8618, -0.020241836, -0.05112739, 176514.94, 176514.94, 0.0008831013, 10.002624, 9.99701 
1.3053355e+3, 3.1417063e+2, 318072.0, 38485.62, 28531.803, 0.05769903, -0.26086375, 320953.97, 320953.97, 0.001684596, 10.002583, 9.999007 
1.314759e+3, 1.2415464e+2, -2078618.8, -1743359.8, 67368.14, 0.09881379, -0.12913994, -1730329.0, -7059.097, 0.005819013, 9.996837, 10.001306 
1.3147846e+3, 1.3415492e+2, -1873072.1, -1627852.5, -93166.46, -0.12067582, -0.21091746, -1596471.5, 28796.213, 0.0032902497, 9.997733, 10.001012 
1.3148169e+3, 1.4415641e+2, -1759294.0, -1559514.9, 79524.68, 0.03885194, -0.1390788, -1531724.8, -4471.413, 0.0013013786, 9.997998, 10.000658 
1.3148496e+3, 1.5415788e+2, -1610694.6, -1434211.0, 116172.85, 0.036234703, -0.087109566, -1376566.6, 52672.414, 0.00026992275, 9.99834, 10.00068 
1.3148814e+3, 1.6415812e+2, -1522318.5, -1426234.1, 48161.95, 0.057460766, -0.08386342, -1406249.6, -75013.234, 0.00001153221, 9.998628, 9.999934 
1.3149117e+3, 1.7415671e+2, -1389864.6, -1305498.3, 62090.867, 0.018940074, -0.24649121, -1272616.8, -39366.953, 0.0, 9.998845, 9.99998 
1.3149428e+3, 1.841562e+2, -1323486.1, -1286869.5, 102359.16, 0.008781136, -0.25810304, -1201194.3, -65939.086, 0.0, 9.998889, 9.999421 
1.3149755e+3, 1.9415683e+2, -1239062.8, -1187497.6, 95213.06, 0.056855746, -0.16562086, -1114638.0, -77387.63, 0.0, 9.998764, 9.999488 
1.3150072e+3, 2.0415674e+2, -1139375.4, -1142665.5, 46655.48, 0.058739904, -0.08850722, -1094336.0, -155083.27, 0.0, 9.999025, 9.99899 
1.3150379e+3, 2.1415542e+2, -915397.75, -980328.0, 74906.195, -0.010007189, -0.14264627, -866223.94, -24957.246, 0.0, 9.999868, 9.999029 
1.3150686e+3, 2.2415471e+2, -679014.5, -736027.6, 54670.227, -0.026046483, -0.13791077, -645865.06, 97407.0, 0.0, 10.0004835, 9.99973 
1.3150999e+3, 2.3415466e+2, -522687.28, -592330.4, 88385.84, 0.054869607, -0.15472512, -462510.94, 182756.1, 0.0, 10.000807, 9.999887 
1.3151304e+3, 2.4415365e+2, -482386.28, -599229.4, 95708.445, 0.04618849, -0.20036815, -428677.63, 118595.03, 0.0, 10.000717, 9.999221 
1.3151598e+3, 2.5415137e+2, -467548.25, -535015.75, 104852.09, -0.08304705, -0.3787294, -391136.97, 58155.91, 0.0, 10.000117, 9.999279 
1.3151906e+3, 2.641508e+2, -356271.13, -422359.6, 104338.67, -0.08686562, -0.3600298, -279869.13, 71429.234, 0.000000066602475, 10.000191, 9.999343 
1.3152233e+3, 2.741521e+2, -108284.35, -242258.6, 141734.27, 0.066232964, -0.192794, -18504.53, 234782.42, 0.0000067822207, 10.001181, 9.99943 
1.3152534e+3, 2.8415117e+2, -15398.417, -334425.13, 59889.367, 0.06978185, -0.14226949, -4526.1885, 150770.84, 0.000081610815, 10.001941, 9.997754 
1.3152805e+3, 2.94147e+2, 120327.4, -232035.64, 50231.16, -0.111387104, -0.3592822, 127348.22, 184685.03, 0.0003693932, 10.00226, 9.997629 
1.3153094e+3, 3.0414477e+2, 170496.28, -235315.1, -11530.526, -0.052707847, -0.30520645, 170823.64, 170823.64, 0.00097588636, 10.002522, 9.997139 
1.3153373e+3, 3.141425e+2, 258760.92, -22004.686, 55516.895, -0.059643365, -0.29831195, 269339.9, 269339.9, 0.0018645462, 10.002333, 9.9987 
1.3247564e+3, 1.2412388e+2, -2307621.8, -1902897.1, 162967.16, 0.26382676, -0.19523071, -1845434.9, -121867.484, 0.006183249, 9.995431, 10.000905 
1.3247812e+3, 1.3412511e+2, -1846223.6, -1595258.4, 37570.3, -0.21167928, -0.19490618, -1589754.6, 35804.375, 0.0035072896, 9.997846, 10.001167 
1.3248162e+3, 1.4412688e+2, -1660040.5, -1499118.1, 140871.38, 0.15340242, -0.111170106, -1417348.8, 110194.016, 0.0013982238, 9.998624, 10.000775 
1.3248476e+3, 1.5412784e+2, -1728232.1, -1481261.5, 97633.08, 0.07063646, -0.12043406, -1447327.5, -17795.85, 0.00029637254, 9.997487, 10.000775 
1.3248795e+3, 1.6412807e+2, -1674865.1, -1461613.5, 75828.76, 0.06833723, -0.13921942, -1437399.5, -105871.49, 0.000014169166, 9.997423, 10.000266 
1.3249108e+3, 1.7412731e+2, -1345729.6, -1249478.4, 77563.95, 0.05736352, -0.2659469, -1206322.9, 27211.56, 0.0, 9.998999, 10.000291 
1.3249426e+3, 1.84127e+2, -1199956.3, -1244997.5, 121257.7, 0.05684085, -0.2664492, -1099145.6, 36392.402, 0.0, 9.999824, 9.999253 
1.3249749e+3, 1.9412713e+2, -1129024.1, -1160085.0, 112648.984, 0.089313366, -0.20156765, -1030840.06, 6699.15, 0.0, 9.9996395, 9.99925 
1.3250068e+3, 2.0412691e+2, -1025024.06, -1050506.8, 123061.96, 0.08338721, -0.1394925, -914045.56, 25497.166, 0.0, 9.999643, 9.999326 
1.3250378e+3, 2.1412611e+2, -880996.06, -916153.2, 125756.03, 0.014380086, -0.18486828, -771595.94, 69954.75, 0.0, 9.999905, 9.999447 
1.3250689e+3, 2.2412564e+2, -765464.0, -795809.44, 79910.22, -0.004519793, -0.17026262, -699298.8, 44255.34, 0.0, 9.9999695, 9.999574 
1.3251e+3, 2.3412551e+2, -685417.0, -687573.9, 23856.008, 0.06565719, -0.17351685, -662615.06, -17062.506, 0.0, 9.999771, 9.999733 
1.3251308e+3, 2.4412471e+2, -592800.3, -640870.6, 30208.13, 0.0710645, -0.19561635, -578232.06, -30674.057, 0.0, 9.999917, 9.999318 
1.3251607e+3, 2.5412288e+2, -398969.03, -486056.9, 34989.395, -0.02016023, -0.33794245, -386653.03, 62920.9, 0.0, 10.000533, 9.999411 
1.3251917e+3, 2.6412243e+2, -270275.66, -371034.16, 67099.15, -0.024237024, -0.31473118, -236748.02, 114829.64, 0.0000000978673, 10.000747, 9.999422 
1.325224e+3, 2.7412346e+2, -208449.22, -280505.8, 40506.36, 0.07322401, -0.1834204, -190266.8, 63301.164, 0.000006920427, 10.00045, 9.9995165 
1.3252546e+3, 2.8412232e+2, -166446.73, -403400.47, 2703.5745, 0.057310328, -0.15681033, -166415.89, -10836.64, 0.000086783395, 10.000913, 9.997765 
1.3252829e+3, 2.9411823e+2, 175312.38, -204312.9, -7432.3384, -0.09197615, -0.3681413, 175457.84, 233077.08, 0.00039493892, 10.002643, 9.997628 
1.3253129e+3, 3.0411598e+2, 336849.53, -156764.2, -59581.625, -0.009989546, -0.31530762, 343939.5, 343939.5, 0.0010490068, 10.003685, 9.997118 
1.3253403e+3, 3.1411427e+2, 390786.84, -10842.626, -76473.414, -0.04743748, -0.24087468, 404855.22, 404855.22, 0.00200862, 10.003461, 9.998238 
1.3347504e+3, 1.24093845e+2, -2312800.0, -1906980.6, 16366.326, 0.057762507, -0.32468408, -1906321.6, -182468.67, 0.0065457188, 9.995404, 10.000887 
1.3347791e+3, 1.3409671e+2, -1845087.9, -1594313.4, 137911.89, -0.23417683, -0.16458805, -1533309.5, 92521.92, 0.0037237175, 9.997845, 10.001176 
1.3348159e+3, 1.4409779e+2, -1688686.1, -1568908.1, 90824.5, 0.23490056, -0.1294938, -1520004.8, 7818.939, 0.0014951822, 9.998657, 10.000287 
1.3348447e+3, 1.5409656e+2, -1763892.5, -1562369.1, 64942.492, 0.011953892, -0.29834828, -1543254.0, -113419.73, 0.00032323142, 9.997502, 10.000218 
1.334876e+3, 1.6409688e+2, -1657351.5, -1418820.4, 112804.29, -0.045204207, -0.29103482, -1373924.1, -42093.418, 0.000017128494, 9.997396, 10.000571 
1.3349096e+3, 1.7409958e+2, -1318980.1, -1191038.6, 149683.78, 0.023007488, -0.11529165, -1092228.9, 141576.63, 0.00000000003443261, 9.998985, 10.000697 
1.3349423e+3, 1.8410057e+2, -1191432.1, -1230022.4, 106508.9, 0.018321572, -0.0148256505, -1102484.6, 33312.223, 0.0, 9.999827, 9.99936 
1.3349736e+3, 1.940988e+2, -1130769.1, -1154314.6, 114940.04, -0.029793551, -0.14570765, -1027000.5, 10814.542, 0.0, 9.999587, 9.999322 
1.3350053e+3, 2.0409772e+2, -1020667.94, -1013723.75, 117272.23, -0.02881781, -0.18798305, -899872.25, 39953.074, 0.0, 9.999523, 9.999637 
1.3350381e+3, 2.1409754e+2, -880766.6, -883046.56, 145063.63, 0.03365349, -0.2047335, -736838.5, 104986.65, 0.0, 9.999753, 9.999755 
1.3350698e+3, 2.2409697e+2, -853933.3, -940003.06, 63991.97, 0.06721127, -0.1750772, -819851.56, -76020.22, 0.0, 9.9998, 9.998663 
1.3351002e+3, 2.3409578e+2, -780583.44, -852092.25, 30137.334, 0.07847045, -0.18323177, -769576.4, -123729.28, 0.0, 9.999622, 9.998677 
1.335131e+3, 2.440953e+2, -595231.8, -608569.06, 38625.93, 0.07733317, -0.1313312, -562703.06, -14849.36, 0.0, 9.99976, 9.999613 
1.3351622e+3, 2.5409558e+2, -392091.9, -439274.06, 70810.0, 0.06716185, -0.1052479, -341046.56, 108802.75, 0.0, 10.000394, 9.999798 
1.3351932e+3, 2.6409516e+2, -310305.03, -433269.47, 46891.652, 0.04769122, -0.07925089, -294463.97, 57388.06, 0.00000008871969, 10.000652, 9.999042 
1.3352239e+3, 2.740935e+2, -255301.22, -350122.75, 44342.707, -0.00080697925, -0.17614, -237796.22, 16070.533, 0.000006673535, 10.000331, 9.999095 
1.3352545e+3, 2.84092e+2, -162176.44, -370139.9, 46461.25, -0.0768836, -0.1766826, -152268.55, 3612.5833, 0.00008871381, 10.000805, 9.998046 
1.3352855e+3, 2.9409063e+2, 167904.78, -169857.2, 77770.0, -0.14348215, -0.15043642, 184951.1, 242846.66, 0.0004076121, 10.002423, 9.997974 
1.3353166e+3, 3.0408874e+2, 302443.1, -177069.13, -63433.79, -0.023088824, -0.07748718, 310692.7, 310692.7, 0.0010927352, 10.003476, 9.997073 
1.3353436e+3, 3.1408557e+2, 319311.34, -108283.91, -55001.582, -0.10775188, -0.13808708, 326272.84, 326272.84, 0.0021020344, 10.003247, 9.997672 
1.3447464e+3, 1.2406396e+2, -2097495.5, -1793643.0, -136487.6, 0.058581036, -0.32917225, -1741337.9, -17192.121, 0.0069055543, 9.996842, 10.000974 
1.3447776e+3, 1.3406684e+2, -1940959.5, -1647277.4, 96130.76, -0.11230574, -0.1607032, -1618609.5, 7513.6606, 0.0039389143, 9.997223, 10.001118 
1.344814e+3, 1.440675e+2, -1834263.0, -1641969.0, 31256.918, 0.22956283, -0.16122352, -1637015.8, -108896.92, 0.0015916337, 9.997681, 10.000253 
1.3448428e+3, 1.5406618e+2, -1573467.5, -1473606.8, 12384.92, 0.01527675, -0.33386877, -1472093.6, -41963.344, 0.0003501717, 9.998846, 10.000169 
1.3448742e+3, 1.6406652e+2, -1394750.3, -1312426.9, 108923.67, -0.04364462, -0.31287608, -1237147.0, 94980.09, 0.000020254476, 9.999288, 10.00039 
1.3449083e+3, 1.740693e+2, -1384509.8, -1241396.4, 76078.8, 0.020712577, -0.107647926, -1208510.0, 25592.002, 0.0000000014653116, 9.998628, 10.00052 
1.3449413e+3, 1.8407038e+2, -1373432.6, -1272454.4, 27405.06, 0.023568043, -0.0063719726, -1265496.1, -129403.42, 0.0, 9.998395, 9.999752 
1.3449727e+3, 1.9406873e+2, -1194484.9, -1132344.1, 40723.664, -0.032041408, -0.16932882, -1112191.6, -74083.414, 0.0, 9.998939, 9.999776 
1.3450047e+3, 2.0406781e+2, -1048101.56, -1042723.9, 72223.15, -0.025334401, -0.2120121, -973139.56, -33022.63, 0.0, 9.999403, 9.999498 
1.345038e+3, 2.140679e+2, -906967.4, -908120.1, 33226.473, 0.0606928, -0.18482748, -874312.3, -32196.059, 0.0, 9.999648, 9.99962 
1.3450699e+3, 2.2406743e+2, -852845.56, -938040.94, -26390.352, 0.10203104, -0.1371129, -845333.25, -101210.414, 0.0, 9.999802, 9.998673 
1.3451e+3, 2.3406607e+2, -744132.56, -828568.9, -4585.843, 0.09199565, -0.1637536, -743884.25, -97743.46, 0.0, 9.999856, 9.998721 
1.3451308e+3, 2.4406566e+2, -553766.56, -591316.06, 80029.97, 0.08281556, -0.104903586, -490338.6, 57808.746, 0.0, 10.000062, 9.999588 
1.3451627e+3, 2.5406638e+2, -381580.84, -433680.28, 59028.43, 0.0802438, -0.033400483, -343109.7, 107029.875, 0.0, 10.000475, 9.999797 
1.3451943e+3, 2.640659e+2, -268283.34, -445288.38, 39322.727, 0.07283003, -0.001639452, -259940.77, 92202.7, 0.000000062099474, 10.00109, 9.998747 
1.3452254e+3, 2.740634e+2, -24008.06, -274108.72, 12053.289, 0.051371098, -0.14692861, -23428.512, 230737.52, 0.0000065347235, 10.002074, 9.998775 
1.3452564e+3, 2.8406176e+2, 45785.49, -234623.4, 39966.082, -0.014473839, -0.1568346, 51370.527, 207551.61, 0.00008986311, 10.00207, 9.998374 
1.3452871e+3, 2.940614e+2, -55931.227, -219593.97, 39453.81, -0.10561653, -0.07220805, -46916.703, 11267.971, 0.00041355038, 10.000647, 9.998481 
1.3453192e+3, 3.0405936e+2, 19431.525, -314086.16, -2856.442, 0.0012561744, -0.04779468, 19455.988, 19455.988, 0.0011132387, 10.001487, 9.997113 
1.3453482e+3, 3.1405643e+2, 605273.25, 36070.86, -53555.72, -0.0422469, -0.083172515, 610268.4, 610268.4, 0.0021484285, 10.005189, 9.9977255 
1.3547435e+3, 1.2403433e+2, -2078426.6, -1753588.9, -211642.67, 0.036555655, -0.20760126, -1649226.0, 75219.63, 0.0072628423, 9.996855, 10.001245 
1.354777e+3, 1.3403553e+2, -1950015.6, -1664143.4, 115628.57, 0.07584211, -0.19402434, -1623229.8, 3204.2551, 0.004152666, 9.997221, 10.001003 
1.3548096e+3, 1.4403611e+2, -1816465.8, -1598738.3, 55514.813, 0.0045382725, -0.20594035, -1585400.5, -56973.15, 0.0016872559, 9.997652, 10.000563 
1.3548416e+3, 1.5403673e+2, -1540490.9, -1417158.8, 70114.664, -0.024501344, -0.2258969, -1385450.5, 44969.23, 0.0003769789, 9.998886, 10.000541 
1.354874e+3, 1.640369e+2, -1435703.6, -1407374.5, 73254.05, -0.023003614, -0.21408382, -1346928.1, -14510.195, 0.000023370363, 9.999329, 9.999721 
1.3549066e+3, 1.7403635e+2, -1444874.1, -1362031.0, 58016.12, -0.031444877, -0.26345983, -1332167.1, -97741.36, 0.0000000068048798, 9.998599, 9.99971 
1.3549392e+3, 1.8403631e+2, -1334171.8, -1176446.1, 29254.838, -0.038648345, -0.2566423, -1171194.8, -34768.22, 0.0, 9.998336, 10.000436 
1.354972e+3, 1.940369e+2, -1144499.8, -1015518.75, 74397.94, -0.01941855, -0.28183177, -981550.75, 56868.293, 0.0, 9.998877, 10.000609 
1.3550045e+3, 2.0403725e+2, -1107696.9, -1137953.0, 69341.44, -0.00509223, -0.21726114, -1051852.5, -111435.41, 0.0, 9.999287, 9.998898 
1.3550372e+3, 2.1403715e+2, -986504.56, -1033371.7, 53204.98, 0.004856762, -0.13121092, -951801.2, -109377.21, 0.0, 9.999473, 9.998847 
1.3550688e+3, 2.2403692e+2, -818042.6, -818730.06, -37640.984, 0.00985, -0.059797995, -780743.75, -36314.16, 0.0, 9.9996, 9.99959 
1.3550991e+3, 2.3403637e+2, -691826.4, -682153.8, 8904.111, 0.011340144, -0.114690594, -676857.3, -30423.396, 0.0, 9.999693, 9.999805 
1.3551301e+3, 2.4403588e+2, -596326.2, -643248.4, 82343.836, -0.009579606, -0.106537126, -534166.44, 14271.92, 0.0, 9.999904, 9.9993105 
1.3551618e+3, 2.540354e+2, -431642.16, -504195.34, 87771.305, -0.069182366, -0.11731914, -372946.16, 77498.11, 0.0, 10.000331, 9.999385 
1.3551944e+3, 2.6403457e+2, -306902.56, -495911.06, 61353.598, -0.04273651, -0.08071507, -288733.3, 63719.242, 0.000000036385206, 10.000959, 9.998465 
1.3552284e+3, 2.740331e+2, -74633.766, -334561.13, 65670.836, 0.11479243, -0.0961726, -58984.207, 195482.14, 0.0000068750182, 10.001881, 9.998456 
1.3552599e+3, 2.8403172e+2, 50684.17, -188124.63, -15765.449, 0.10818825, -0.083915025, 51720.465, 208199.03, 0.00009120505, 10.001915, 9.998767 
1.355288e+3, 2.940303e+2, -34297.22, -162438.16, 4852.819, -0.10763589, -0.14571372, -34113.7, 24375.58, 0.00041555686, 10.000585, 9.998911 
1.3553204e+3, 3.0402756e+2, 11632.42, -303155.63, 108251.33, -0.054110274, -0.2184656, 45265.17, 45265.17, 0.0011140582, 10.001387, 9.997229 
1.3553534e+3, 3.140262e+2, 576151.25, 74459.87, 105789.72, -0.09224599, -0.10572933, 597546.3, 597546.3, 0.0021475272, 10.004775, 9.998185 
1.36474e+3, 1.2400473e+2, -1951284.3, -1696634.6, -76529.77, -0.030853793, -0.12708925, -1675405.0, 49335.066, 0.0076198755, 9.997736, 10.001208 
1.3647766e+3, 1.3400474e+2, -1838802.9, -1649120.0, 129222.31, 0.2869053, -0.2028942, -1583670.1, 43067.48, 0.004366158, 9.9981365, 10.000668 
1.3648067e+3, 1.440051e+2, -1798180.0, -1592897.6, 83836.68, -0.035952594, -0.21730508, -1563010.3, -34277.973, 0.0017823466, 9.997788, 10.000534 
1.36484e+3, 1.5400666e+2, -1760824.0, -1521496.3, 50145.188, 0.017231986, -0.1438373, -1511414.3, -80697.53, 0.0004035849, 9.997372, 10.000549 
1.364873e+3, 1.640068e+2, -1739205.8, -1570505.3, 64251.8, 0.056654952, -0.12780005, -1548821.3, -216105.77, 0.000026350568, 9.997304, 9.999583 
1.3649051e+3, 1.7400496e+2, -1560979.8, -1430558.4, 70170.78, 0.010301058, -0.29456204, -1399975.8, -165241.0, 0.000000016360648, 9.997857, 9.999596 
1.3649376e+3, 1.8400462e+2, -1342604.5, -1177490.4, 91137.266, -0.013987382, -0.31426904, -1137077.3, -338.94534, 0.0, 9.998257, 10.000471 
1.3649708e+3, 1.9400635e+2, -1207324.1, -1034420.44, 53118.207, 0.013371992, -0.23237331, -1019405.75, 19314.666, 0.0, 9.998404, 10.000706 
1.3650037e+3, 2.0400716e+2, -1179180.5, -1155019.9, 63083.836, 0.021757202, -0.13534062, -1102870.1, -162155.73, 0.0, 9.998713, 9.999061 
1.3650364e+3, 2.1400651e+2, -999893.94, -1020289.25, 95524.72, -0.0030083994, -0.12246833, -914024.06, -71297.39, 0.0, 9.99929, 9.999026 
1.3650683e+3, 2.2400627e+2, -773336.7, -746205.6, 46513.543, -0.0044995877, -0.08297767, -711319.8, 33411.426, 0.0, 9.999686, 10.000047 
1.3650988e+3, 2.3400651e+2, -645997.7, -609612.2, 18592.13, 0.02024229, -0.1061407, -601792.56, 44932.69, 0.0, 9.99978, 10.000269 
1.3651302e+3, 2.4400614e+2, -602529.06, -709754.2, 99546.016, 0.011392545, -0.08596562, -543076.56, 5651.5435, 0.0, 10.000142, 9.998734 
1.3651624e+3, 2.540048e+2, -382548.56, -555795.25, 60075.14, -0.057342626, -0.11258088, -363755.47, 86989.375, 0.0, 10.000997, 9.998704 
1.3651954e+3, 2.6400355e+2, -256447.13, -459379.7, 46945.383, -0.03329551, -0.09082698, -246113.25, 106645.44, 0.000000033203506, 10.001253, 9.998574 
1.3652295e+3, 2.7400222e+2, -233249.78, -380315.22, 56368.203, 0.11931194, -0.113138996, -214130.28, 40639.098, 0.0000069323874, 10.000666, 9.99872 
1.3652615e+3, 2.8400093e+2, -80093.164, -272935.5, 17086.35, 0.13774131, -0.09684584, -78590.97, 78189.2, 0.000089487476, 10.001135, 9.998549 
1.365291e+3, 2.9399958e+2, 348952.4, -506.6883, -35261.266, -0.00042278037, -0.1284736, 352474.84, 411266.53, 0.00040599646, 10.003333, 9.9986925 
1.3653235e+3, 3.0399653e+2, 389011.88, -92860.6, 82855.83, 0.02444434, -0.23064376, 402860.56, 402860.56, 0.0010861106, 10.003868, 9.997483 
1.3653564e+3, 3.1399494e+2, 173379.9, -34463.37, 30166.547, -0.09593293, -0.16441669, 177669.77, 177669.77, 0.0020927999, 10.001615, 9.998974 
1.3747382e+3, 1.2397516e+2, -1989853.8, -1783164.6, 83952.086, -0.032074, -0.11144568, -1753362.5, -28333.844, 0.0079810945, 9.997775, 10.000586 
1.374776e+3, 1.339745e+2, -1877164.3, -1738959.8, 138591.1, 0.38822272, -0.19578616, -1653198.8, -26165.129, 0.0045821774, 9.998168, 10.000038 
1.3748054e+3, 1.4397447e+2, -1822295.6, -1646422.8, 46313.527, 0.0096395565, -0.19871606, -1634972.3, -105938.375, 0.0018779465, 9.997802, 10.000162 
1.3748379e+3, 1.5397592e+2, -1791901.6, -1579940.5, 44705.793, 0.047627997, -0.099374056, -1570897.3, -139874.86, 0.00043006244, 9.997341, 10.000166 
1.3748708e+3, 1.6397633e+2, -1709758.8, -1505427.5, 64845.094, 0.08363048, -0.05383928, -1486586.1, -153566.78, 0.000029160963, 9.997282, 10.000043 
1.3749036e+3, 1.7397532e+2, -1520444.1, -1346944.5, 103166.43, 0.044840425, -0.19435951, -1298902.5, -63874.68, 0.000000027808229, 9.997847, 10.000182 
1.3749363e+3, 1.8397544e+2, -1388515.4, -1267739.9, 84141.06, -0.0045306045, -0.17267671, -1224559.3, -87532.79, 0.0, 9.9982395, 9.999859 
1.3749689e+3, 1.9397701e+2, -1275628.3, -1155968.5, 66439.24, -0.027813466, -0.027802628, -1126390.4, -87377.42, 0.0, 9.998313, 9.999919 
1.3750018e+3, 2.0397744e+2, -1126650.3, -1017353.56, 69484.25, -0.052878387, 0.028660258, -983602.25, -42592.043, 0.0, 9.998589, 10.000065 
1.3750352e+3, 2.1397603e+2, -941682.75, -860568.44, 129674.81, -0.07248933, -0.15396056, -765256.4, 77767.375, 0.0, 9.99912, 10.000208 
1.3750675e+3, 2.2397561e+2, -803267.06, -762513.94, 39249.313, -0.056186143, -0.19396946, -738667.06, 6359.4985, 0.0, 9.999493, 10.000025 
1.3750987e+3, 2.3397654e+2, -685889.25, -644680.7, 33358.11, 0.009262799, -0.13541806, -626076.56, 20937.955, 0.0, 9.999581, 10.000118 
1.3751307e+3, 2.439764e+2, -690149.4, -855387.94, 110286.625, 0.035518527, -0.04457027, -634967.75, -85950.64, 0.0, 9.999978, 9.997817 
1.3751642e+3, 2.5397462e+2, -474200.38, -711287.25, 102140.98, 0.015577551, -0.018314632, -436265.94, 14775.658, 0.0, 10.000841, 9.997716 
1.3751972e+3, 2.6397282e+2, -238942.1, -390361.78, 18111.943, -0.0037319106, -0.019716848, -236805.78, 116255.47, 0.000000022673568, 10.001114, 9.999113 
1.3752289e+3, 2.7397066e+2, -206357.9, -289306.03, 46164.67, -0.030361366, -0.19322369, -185773.33, 69303.02, 0.0000066245593, 10.000522, 9.999413 
1.3752614e+3, 2.8396937e+2, -140438.72, -378844.63, 72107.49, -0.021021368, -0.18353768, -120326.08, 36760.863, 0.000084736, 10.00104, 9.997871 
1.3752954e+3, 2.939692e+2, 256615.48, -140544.06, 65935.28, 0.08865811, -0.014723189, 267275.75, 326367.38, 0.00038240643, 10.003098, 9.997852 
1.3753283e+3, 3.0396613e+2, 378623.38, -58641.492, 9521.148, 0.103316344, -0.08893742, 378830.6, 378830.6, 0.0010237873, 10.003641, 9.997818 
1.3753568e+3, 3.1396195e+2, 195267.03, 83231.65, -23473.127, -0.27259886, -0.32349843, 199986.22, 199986.22, 0.0019802407, 10.001334, 9.999905 
1.3847353e+3, 1.2394318e+2, -2182003.8, -1835395.4, 42826.688, -0.026911931, -0.07637953, -1830182.1, -104837.3, 0.008351057, 9.996295, 10.000938 
1.3847733e+3, 1.3394314e+2, -2030513.4, -1749204.3, 17546.291, 0.36642537, -0.14836472, -1748114.0, -120771.32, 0.004803759, 9.996855, 10.000597 
1.3848034e+3, 1.439433e+2, -1936468.3, -1709725.1, 16114.401, 0.0760369, -0.16022065, -1708585.6, -179244.63, 0.0019753822, 9.99705, 10.000094 
1.3848361e+3, 1.5394425e+2, -1714914.5, -1552650.9, 5979.776, 0.13337925, -0.09848906, -1552430.9, -121095.98, 0.00045665295, 9.997914, 10.000076 
1.3848694e+3, 1.639447e+2, -1526649.9, -1416441.5, 62040.777, 0.16506875, -0.044759303, -1388566.5, -55234.434, 0.00003186285, 9.99856, 10.000029 
1.3849021e+3, 1.7394447e+2, -1363678.4, -1269786.3, 27302.664, 0.07782932, -0.105823696, -1262424.3, -27091.004, 0.000000039188958, 9.998934, 10.000182 
1.384935e+3, 1.8394455e+2, -1309294.6, -1253855.6, -854.8361, 0.020039659, -0.07796103, -1253842.5, -116510.41, 0.0, 9.998883, 9.999646 
1.3849677e+3, 1.9394502e+2, -1264780.3, -1166705.8, 1026.2905, 0.019896159, -0.025041124, -1166695.0, -127366.74, 0.0, 9.998466, 9.999763 
1.3850008e+3, 2.03945e+2, -1151647.4, -1024148.2, 49983.004, -0.0023285525, -0.006036678, -1006889.7, -65560.984, 0.0, 9.998401, 10.000104 
1.3850342e+3, 2.1394415e+2, -961408.3, -861589.44, 318.26114, -0.053215023, -0.13934846, -861588.4, -18252.088, 0.0, 9.998947, 10.000285 
1.385067e+3, 2.2394389e+2, -832443.94, -814954.56, -128640.305, -0.038109027, -0.15331995, -694762.06, 50575.934, 0.0, 9.999437, 9.999703 
1.385099e+3, 2.3394436e+2, -648205.7, -667222.7, -173666.34, 0.07352889, -0.10342743, -483787.75, 163544.52, 0.0, 10.0, 9.999771 
1.3851318e+3, 2.439438e+2, -615193.94, -804157.56, -30767.803, 0.124498986, -0.037008833, -610310.4, -60971.617, 0.0, 10.00044, 9.997934 
1.3851656e+3, 2.5394174e+2, -464590.66, -685079.1, 12948.513, 0.07784044, -0.054217122, -463832.84, -12469.245, 0.0, 10.000818, 9.997896 
1.3851987e+3, 2.6394004e+2, -246812.66, -394510.78, -47809.902, 0.039729707, -0.05403118, -232687.45, 120694.14, 0.0000000049794013, 10.001062, 9.999107 
1.38523e+3, 2.7393875e+2, -104866.35, -243630.4, -96906.5, 0.0090730665, -0.14230329, -55064.754, 200326.08, 0.0000064670485, 10.001219, 9.999396 
1.3852628e+3, 2.839376e+2, -112688.71, -381701.78, -13154.808, 0.021598663, -0.10876783, -112046.97, 45354.8, 0.00007993784, 10.001292, 9.997741 
1.3852979e+3, 2.9393646e+2, 4561.989, -264260.0, 8.475503, 0.120685495, -0.020273484, 4561.989, 63978.496, 0.00035406946, 10.001381, 9.99782 
1.3853309e+3, 3.0393377e+2, 132877.25, -188616.8, -65970.89, 0.08670602, -0.05318371, 145888.0, 145888.0, 0.00094641367, 10.001968, 9.997741 
1.385359e+3, 3.1393006e+2, 458241.97, 232853.5, -181051.3, -0.24249022, -0.24001183, 558807.1, 558807.1, 0.0018394237, 10.003013, 10.000133 
1.3947308e+3, 1.23907536e+2, -2093570.9, -1624177.5, 34715.496, -0.14255448, -0.11744453, -1621623.9, 104077.33, 0.008733579, 9.996196, 10.002432 
1.3947676e+3, 1.3391061e+2, -1902769.3, -1478657.5, 31720.482, 0.09805093, -0.0662081, -1476298.1, 151367.81, 0.005033633, 9.996825, 10.002473 
1.3948004e+3, 1.4391182e+2, -1912656.6, -1660333.8, 20853.727, 0.04279562, -0.09144736, -1658621.9, -128970.14, 0.002076125, 9.997052, 10.00043 
1.3948345e+3, 1.5391178e+2, -1706530.0, -1531048.3, 52377.93, 0.14937112, -0.14685506, -1516603.4, -84950.09, 0.00048381835, 9.997893, 10.000235 
1.3948683e+3, 1.6391186e+2, -1564166.4, -1500636.8, 61133.55, 0.17702009, -0.111364074, -1463508.1, -129853.945, 0.000034571214, 9.998584, 9.999442 
1.3949008e+3, 1.7391223e+2, -1419843.9, -1378894.5, 48469.87, 0.022584746, -0.04232959, -1346752.3, -111099.47, 0.00000005013657, 9.998899, 9.999454 
1.3949333e+3, 1.8391189e+2, -1281510.4, -1195815.6, -31834.314, -0.047142528, -0.031101486, -1185283.9, -47628.45, 0.0, 9.998882, 10.000045 
1.3949667e+3, 1.9391043e+2, -1240500.9, -1099604.1, -5818.0464, 0.05291729, -0.22266062, -1099364.3, -59699.08, 0.0, 9.998386, 10.000267 
1.395e+3, 2.0390995e+2, -1231652.5, -1163814.1, 53703.227, 0.06864222, -0.23763289, -1134215.3, -192546.16, 0.0, 9.998286, 9.999201 
1.3950333e+3, 2.139109e+2, -1065070.5, -1035359.0, 31745.482, -0.049955074, -0.08262068, -1015165.2, -171500.88, 0.0, 9.99877, 9.999179 
1.3950664e+3, 2.2391114e+2, -892569.8, -906274.56, -119611.69, -0.059927907, 0.039914858, -779614.4, -33949.098, 0.0, 9.999282, 9.999155 
1.3950995e+3, 2.3391019e+2, -703466.0, -749770.06, -137477.72, 0.11428989, -0.003480216, -587204.44, 60471.246, 0.0, 9.999852, 9.999279 
1.3951328e+3, 2.4390873e+2, -563937.75, -663346.2, -27697.455, 0.1679369, -0.04826495, -556741.56, -7052.106, 0.0, 10.000292, 9.998972 
1.395166e+3, 2.5390634e+2, -412136.0, -529815.1, 40672.355, 0.037184037, -0.21814375, -399447.0, 52262.96, 0.0, 10.000625, 9.999054 
1.3951994e+3, 2.6390535e+2, -301715.94, -477191.22, -53851.355, 0.0035748482, -0.18763527, -286507.66, 67211.71, 0.0000000011462398, 10.000923, 9.998609 
1.3952325e+3, 2.7390653e+2, -175929.4, -357204.03, -75013.33, 0.12745516, 0.038054008, -148914.17, 106797.58, 0.0000063015364, 10.001064, 9.998696 
1.3952653e+3, 2.8390574e+2, -109976.81, -345669.53, -20634.52, 0.13704333, 0.13436297, -108183.93, 49538.49, 0.00007549819, 10.0011635, 9.998047 
1.3952981e+3, 2.9390156e+2, 6320.338, -227958.06, 23315.309, -0.013482034, -0.12524591, 8618.133, 68382.94, 0.0003302392, 10.001235, 9.998143 
1.3953309e+3, 3.038995e+2, 93177.42, -233033.64, -41855.65, -0.13095835, -0.09532677, 98462.234, 98462.234, 0.00088409375, 10.001814, 9.997504 
1.3953626e+3, 3.1389946e+2, 378608.63, 149390.36, -105571.78, -0.23448901, 0.106218286, 419822.0, 419822.0, 0.0017247383, 10.002675, 9.999715 
1.4047283e+3, 1.23874284e+2, -2050035.5, -1611237.1, 191575.03, -0.0050352155, -0.09245227, -1539368.4, 186660.33, 0.009133226, 9.996484, 10.002403 
1.4047638e+3, 1.3387766e+2, -2025908.1, -1525956.5, 15447.466, 0.098449335, -0.022749223, -1525479.6, 102512.38, 0.005275387, 9.9959135, 10.002594 
1.4047977e+3, 1.4387904e+2, -2022281.0, -1664803.5, 9822.619, 0.14210439, -0.05981539, -1664533.8, -134557.81, 0.0021822979, 9.996089, 10.000866 
1.4048322e+3, 1.5387905e+2, -1718820.9, -1488403.9, 34040.855, 0.15617307, -0.15644483, -1483480.0, -51505.27, 0.00051218417, 9.997598, 10.000674 
1.4048663e+3, 1.6387913e+2, -1625067.6, -1551501.4, 61907.594, 0.1389234, -0.13694112, -1516273.8, -182299.34, 0.000037386584, 9.998257, 9.9992485 
1.4048994e+3, 1.7387936e+2, -1562612.0, -1469515.9, 54121.453, 0.048617642, -0.06262992, -1444678.6, -208703.61, 0.00000006103049, 9.998016, 9.999249 
1.4049324e+3, 1.8387882e+2, -1390862.3, -1285014.4, 11081.519, 0.016720515, -0.04484842, -1283866.6, -145886.3, 0.0, 9.998291, 9.999719 
1.4049658e+3, 1.9387716e+2, -1102214.5, -1069494.4, -53127.117, 0.08364453, -0.22395761, -1030265.4, 9727.597, 0.0, 9.999488, 9.999948 
1.4049992e+3, 2.0387644e+2, -1012916.44, -1076681.0, 3975.2263, 0.09705883, -0.23806684, -1012669.56, -70670.59, 0.0, 9.999865, 9.999042 
1.4050329e+3, 2.1387705e+2, -1014348.7, -1017235.4, 29060.0, 0.017232597, -0.10525244, -986696.2, -142700.73, 0.0, 9.999155, 9.99911 
1.4050663e+3, 2.23877e+2, -944776.06, -979914.75, -17414.898, 0.014924745, 0.012356398, -937607.56, -191608.2, 0.0, 9.999162, 9.998693 
1.4050998e+3, 2.3387586e+2, -666868.25, -779931.9, -61912.29, 0.13527673, -0.004119086, -639561.06, 8454.192, 0.0, 10.000332, 9.998827 
1.4051332e+3, 2.4387445e+2, -443210.6, -556023.6, 22628.219, 0.15920812, -0.038220435, -438841.03, 111188.266, 0.0, 10.000904, 9.999421 
1.4051665e+3, 2.5387257e+2, -370836.22, -442151.03, 22572.463, 0.020532697, -0.21094643, -364292.13, 87749.414, 0.0, 10.000617, 9.999662 
1.4052002e+3, 2.6387176e+2, -342274.16, -541471.8, -44084.547, 0.00093383953, -0.17729719, -332953.88, 21094.54, 0.0000000047036606, 10.000839, 9.998208 
1.4052343e+3, 2.738727e+2, -80843.57, -362714.63, -89233.445, 0.17327785, 0.07702146, -54969.53, 201076.48, 0.000006310061, 10.001958, 9.99822 
1.4052676e+3, 2.8387183e+2, 83867.555, -223302.56, -33998.633, 0.19235589, 0.17980136, 87585.63, 245644.27, 0.00007173929, 10.002375, 9.998301 
1.4052995e+3, 2.938679e+2, 90303.164, -144206.14, -19913.945, -0.009812842, -0.08464711, 91982.18, 152078.72, 0.0003165935, 10.001643, 9.998517 
1.4053322e+3, 3.0386657e+2, 106937.96, -212500.77, 16040.162, -0.14327708, -0.010674661, 107741.375, 107741.375, 0.00085306884, 10.001847, 9.997629 
1.4053667e+3, 3.1386554e+2, 484129.56, 171620.0, -66178.914, -0.106521435, 0.08801122, 497566.28, 497566.28, 0.0016671325, 10.003511, 9.999473 
1.4147252e+3, 1.2384387e+2, -2151181.8, -1825486.6, 62561.227, -0.022597216, -0.0015506515, -1813882.9, -87560.664, 0.009556688, 9.996509, 10.000912 
1.4147615e+3, 1.3384444e+2, -2158527.8, -1793203.6, 5600.3994, 0.2744598, -0.028645363, -1793117.9, -164798.27, 0.0055341963, 9.995881, 10.000775 
1.4147952e+3, 1.4384474e+2, -1985748.5, -1589439.3, 39321.63, 0.24360508, -0.10003058, -1585575.5, -55259.047, 0.0022969088, 9.996091, 10.001383 
1.414829e+3, 1.5384604e+2, -1673667.5, -1390334.9, 102122.02, 0.05347755, -0.13035475, -1357363.8, 74935.28, 0.0005425403, 9.997579, 10.00136 
1.4148627e+3, 1.6384663e+2, -1594196.6, -1493366.6, 41046.543, -0.063887246, -0.11484991, -1478770.3, -144479.3, 0.000040406845, 9.998279, 9.99964 
1.4148976e+3, 1.73846e+2, -1547959.6, -1425250.1, 55418.652, 0.051869944, -0.15573314, -1403927.0, -167629.02, 0.00000007226826, 9.997952, 9.999589 
1.4149317e+3, 1.8384555e+2, -1470780.9, -1440615.3, 36474.316, 0.10084934, -0.10695958, -1416228.3, -277923.56, 0.0, 9.998249, 9.998669 
1.4149648e+3, 1.9384526e+2, -1202766.9, -1259844.9, 2504.4265, 0.0147154955, -0.024990669, -1202657.3, -162346.02, 0.0, 9.99941, 9.998677 
1.4149982e+3, 2.0384446e+2, -977959.94, -986109.0, -33522.16, -0.018212644, -0.00464491, -948265.56, -5946.7974, 0.0, 9.999779, 9.999707 
1.4150324e+3, 2.1384269e+2, -976074.6, -901332.06, 11937.395, 0.05390571, -0.19805108, -899471.8, -55142.543, 0.0, 9.998988, 9.999992 
1.4150663e+3, 2.2384149e+2, -996002.5, -1044885.4, 4253.146, 0.08290288, -0.22963338, -995635.25, -249294.81, 0.0, 9.998983, 9.99833 
1.4150992e+3, 2.3384118e+2, -739394.44, -879961.8, -5067.324, 0.04145039, -0.10739271, -739212.0, -90859.73, 0.0, 10.00012, 9.9982395 
1.4151326e+3, 2.4384087e+2, -465602.8, -571001.4, 6169.3906, -0.012292783, 0.0023451631, -465242.9, 85115.98, 0.0, 10.000759, 9.999389 
1.4151663e+3, 2.5384042e+2, -383614.4, -443374.38, 24545.824, -0.07813715, -0.03799339, -374825.13, 77533.53, 0.0, 10.0005, 9.999713 
1.4152004e+3, 2.6383933e+2, -389848.1, -610465.3, -20931.752, -0.06875038, -0.015890876, -387879.7, -33511.477, 0.000000079284355, 10.000712, 9.997792 
1.4152353e+3, 2.7383718e+2, -143180.78, -454413.4, -29842.31, 0.04896485, -0.020868441, -140345.2, 116049.28, 0.000007370644, 10.001794, 9.99767 
1.4152691e+3, 2.838357e+2, 91738.79, -181780.5, -66364.336, 0.077720836, 0.03932854, 106990.414, 265402.16, 0.00007202747, 10.002262, 9.998639 
1.4153014e+3, 2.9383528e+2, 99621.39, -95790.14, -29691.516, 0.0014679058, 0.075367205, 104033.22, 164448.11, 0.0003176136, 10.0015, 9.998927 
1.4153348e+3, 3.0383465e+2, 99363.15, -177975.06, 58364.56, -0.091822326, 0.17764705, 111145.17, 111145.17, 0.0008555456, 10.0016575, 9.997939 
1.415371e+3, 3.1382906e+2, 406682.66, 94639.234, 40129.12, -0.07106364, -0.20855168, 411760.66, 411760.66, 0.0016671636, 10.0031805, 9.999084 
1.4247224e+3, 1.23810284e+2, -2231033.5, -1897382.1, -63017.793, 0.084073015, -0.024820773, -1885876.5, -159226.23, 0.010011913, 9.996121, 10.000601 
1.4247583e+3, 1.3381049e+2, -2017610.3, -1764740.4, -44098.973, 0.3186908, -0.042873368, -1757270.4, -128618.11, 0.0058154534, 9.997059, 10.000388 
1.4247917e+3, 1.4381075e+2, -1794500.9, -1535773.0, 66551.25, 0.21592994, -0.08129311, -1519658.0, 10992.923, 0.002423067, 9.997584, 10.001021 
1.4248264e+3, 1.5381226e+2, -1775363.3, -1477427.8, 13573.661, 0.08060308, -0.057571866, -1476810.6, -44176.56, 0.00057589856, 9.997066, 10.00099 
1.4248607e+3, 1.6381276e+2, -1741588.3, -1546035.0, -71758.05, -0.02476158, -0.0372907, -1522528.9, -187901.48, 0.00004378684, 9.997173, 9.999814 
1.4248958e+3, 1.7381173e+2, -1434858.1, -1343331.1, -88983.2, 0.06934001, -0.14322089, -1289033.1, -52396.63, 0.00000008454083, 9.998596, 9.999845 
1.4249305e+3, 1.8381123e+2, -1332558.0, -1387855.6, -59292.074, 0.110477865, -0.10603294, -1294785.1, -156142.27, 0.0, 9.999264, 9.998539 
1.4249638e+3, 1.9381154e+2, -1293240.3, -1319661.5, -38960.164, 0.013050852, 0.053062737, -1265312.0, -224667.0, 0.0, 9.998871, 9.99852 
1.4249974e+3, 2.0381084e+2, -1109751.4, -1054550.4, -38765.652, -0.018832982, 0.09583739, -1034563.44, -91911.67, 0.0, 9.998896, 9.999661 
1.4250319e+3, 2.1380836e+2, -871404.2, -855288.0, -91932.73, 0.07047891, -0.16602871, -771060.9, 73607.12, 0.0, 9.999712, 9.999964 
1.4250658e+3, 2.2380684e+2, -823928.3, -937656.1, -82172.44, 0.10329242, -0.23730454, -780863.2, -34182.2, 0.0, 10.000052, 9.99856 
1.425099e+3, 2.338069e+2, -769036.94, -863773.5, -54410.68, 0.029497428, -0.103194416, -744264.56, -95576.414, 0.0, 9.999772, 9.998528 
1.4251328e+3, 2.4380684e+2, -615312.44, -690835.06, 3954.775, -0.018273592, 0.03527477, -615105.9, -64413.152, 0.0, 9.9999485, 9.998956 
1.4251675e+3, 2.5380647e+2, -341276.88, -478440.56, -50960.84, -0.023900116, 0.057144508, -324415.9, 128278.38, 0.00000000006254562, 10.001036, 9.999211 
1.425202e+3, 2.6380485e+2, -234324.97, -533924.44, -74697.78, -0.02203531, 0.052439373, -216733.8, 137975.52, 0.00000036239143, 10.001764, 9.997815 
1.4252363e+3, 2.738013e+2, -121150.625, -427509.5, -61734.887, -0.010604871, -0.103533566, -109178.2, 147567.08, 0.000010087366, 10.001866, 9.997818 
1.4252704e+3, 2.8379932e+2, 22491.656, -255887.61, -90330.23, 0.010067336, -0.08641974, 49233.645, 207999.47, 0.00007869426, 10.001966, 9.998278 
1.4253038e+3, 2.937997e+2, 189690.22, -96678.734, -163964.81, 0.06919906, 0.076791614, 264189.6, 324952.38, 0.00033370158, 10.002319, 9.998525 
1.425338e+3, 3.0379894e+2, 240841.83, -130818.1, -57834.434, 0.02605125, 0.19637164, 249633.55, 249633.55, 0.00088820345, 10.00269, 9.9977865 
1.4253749e+3, 3.1379306e+2, 309311.28, -14251.492, -124511.59, 0.036085825, -0.20652978, 351677.78, 351677.78, 0.0017209378, 10.002763, 9.998548 
1.43472e+3, 1.2377386e+2, -2156057.0, -1742650.9, 27672.697, 0.16857255, -0.13390815, -1740806.8, -13796.346, 0.010506618, 9.996109, 10.001671 
1.4347537e+3, 1.337761e+2, -1945554.1, -1612745.4, 12230.019, 0.12317969, -0.053315785, -1612296.6, 16690.965, 0.006123269, 9.997051, 10.001428 
1.4347865e+3, 1.4377743e+2, -1863439.3, -1701677.1, 39280.766, -0.083132565, 0.0063325213, -1692643.1, -161666.95, 0.002563054, 9.997672, 9.999848 
1.4348242e+3, 1.5377778e+2, -1885942.8, -1703768.6, 1108.6104, 0.13780475, 0.06660398, -1703761.9, -270782.75, 0.0006133788, 9.997042, 9.999457 
1.43486e+3, 1.6377749e+2, -1746529.3, -1552892.0, -45995.33, 0.15132518, 0.09481703, -1542521.9, -207537.34, 0.000047750204, 9.997158, 9.999777 
1.434894e+3, 1.7377634e+2, -1424788.4, -1324879.9, -25693.867, 0.0057243016, -0.03635518, -1318659.4, -81666.984, 0.00000010052836, 9.9986, 9.999974 
1.4349283e+3, 1.8377578e+2, -1274516.9, -1264187.9, -83875.92, -0.060544282, -0.046144903, -1185317.6, -46321.785, 0.0, 9.999249, 9.999394 
1.4349625e+3, 1.9377606e+2, -1242359.4, -1192497.3, -43896.277, -0.029962625, 0.0145062385, -1166946.3, -125952.45, 0.0, 9.998773, 9.999443 
1.4349964e+3, 2.0377564e+2, -1178793.0, -1171282.9, -28391.002, -0.02514122, 0.06640614, -1146399.8, -203402.27, 0.0, 9.998777, 9.998916 
1.4350307e+3, 2.1377409e+2, -970959.6, -1018968.9, -49044.29, -0.031192623, -0.008841364, -940360.56, -95349.46, 0.0, 9.999525, 9.998929 
1.4350648e+3, 2.2377309e+2, -796207.7, -833901.44, -101529.164, -0.02417029, -0.0024771022, -711790.94, 35229.344, 0.0, 9.99986, 9.999361 
1.4350985e+3, 2.3377307e+2, -723960.06, -722728.6, -54285.367, -0.00082129485, 0.017646056, -669055.5, -20033.357, 0.0, 9.9995775, 9.999586 
1.4351334e+3, 2.437724e+2, -698374.75, -827463.1, 22209.742, 0.029370485, 0.07441635, -694660.44, -143630.25, 0.0, 9.999785, 9.998099 
1.4351696e+3, 2.5377065e+2, -451395.3, -663159.1, 2516.1985, 0.071889065, 0.07231683, -451365.44, 1683.4976, 0.000000006122379, 10.000846, 9.998035 
1.4352046e+3, 2.6376835e+2, -215382.9, -461346.8, -78180.95, 0.035523165, 0.03758698, -192636.27, 162434.8, 0.0000008787704, 10.001615, 9.998389 
1.4352374e+3, 2.737651e+2, -85594.95, -321830.2, -42231.914, -0.114257984, -0.1665959, -78272.12, 178826.03, 0.000014147242, 10.00172, 9.998623 
1.435271e+3, 2.837627e+2, -73677.75, -426842.0, -91352.44, -0.12636559, -0.18865135, -51447.113, 107673.35, 0.000090676054, 10.001838, 9.997164 
1.4353064e+3, 2.9376125e+2, 61604.18, -331266.72, -128728.04, 0.06915314, -0.07027065, 100025.69, 161164.94, 0.00036367134, 10.00217, 9.996992 
1.4353415e+3, 3.0375963e+2, 190890.25, -193191.83, -61734.957, 0.08578804, 0.0707033, 200569.22, 200569.22, 0.00095405465, 10.002538, 9.99742 
1.4353779e+3, 3.1375757e+2, 218382.94, -117820.375, -62979.875, 0.022463378, 0.07112593, 229793.48, 229793.48, 0.0018378863, 10.0024, 9.998014 
1.4447159e+3, 1.2373724e+2, -2188628.3, -1678537.9, 49045.008, 0.20053224, -0.12914468, -1673865.0, 53506.42, 0.011047917, 9.995525, 10.002395 
1.4447497e+3, 1.3374019e+2, -1995816.4, -1558401.3, -69687.76, 0.07364758, -0.05869251, -1547567.1, 81771.37, 0.00646129, 9.996345, 10.002145 
1.4447841e+3, 1.4374171e+2, -1945725.9, -1767935.1, -30228.26, -0.06385165, -0.0045058173, -1762936.1, -231611.56, 0.0027186894, 9.997241, 9.99959 
1.4448221e+3, 1.5374184e+2, -1732017.6, -1666583.6, -20223.328, 0.17863908, 0.0678839, -1660837.9, -227504.97, 0.0006559602, 9.998266, 9.999121 
1.4448583e+3, 1.6374166e+2, -1527633.3, -1430732.4, 30484.236, 0.21022798, 0.12252064, -1421940.0, -86601.2, 0.000052490832, 9.998607, 9.9999075 
1.4448929e+3, 1.7374118e+2, -1459393.8, -1311078.9, 32232.16, 0.043364283, 0.033211343, -1304377.0, -67037.26, 0.00000012546444, 9.998256, 10.000219 
1.4449273e+3, 1.8374069e+2, -1381275.4, -1304503.4, -26569.453, -0.029399, 0.008799858, -1296205.1, -156863.63, 0.0, 9.99845, 9.999509 
1.4449617e+3, 1.9374008e+2, -1110244.5, -1112242.8, -74607.66, -0.0016283792, -0.030678038, -1036629.25, 4716.773, 0.0, 9.999604, 9.999591 
1.444996e+3, 2.0373935e+2, -1015177.6, -1117227.5, -65284.84, -0.0023432628, -0.008739038, -983343.3, -39990.81, 0.0, 10.00002, 9.998689 
1.4450301e+3, 2.1373832e+2, -1019787.3, -1066897.4, -62057.023, -0.02118658, -0.0011024976, -976965.3, -131602.33, 0.0, 9.99931, 9.998702 
1.4450644e+3, 2.237376e+2, -898924.0, -901193.0, -73609.945, -0.016125476, 0.05097308, -826439.8, -79069.086, 0.0, 9.999222, 9.99921 
1.4450984e+3, 2.3373729e+2, -639740.75, -696054.06, -134936.22, 0.013550295, 0.055360842, -530054.8, 119319.85, 0.0, 10.000202, 9.999471 
1.4451337e+3, 2.4373624e+2, -572157.6, -771719.75, -53712.69, 0.063155204, 0.080734365, -558619.2, -7232.9653, 0.0, 10.00068, 9.998044 
1.4451708e+3, 2.5373384e+2, -500760.66, -695284.6, -17965.123, 0.1329629, 0.020193676, -499115.4, -45704.363, 0.000000012932129, 10.000525, 9.997976 
1.4452063e+3, 2.6373163e+2, -347734.28, -512466.4, -42247.203, 0.10372327, -0.0032010658, -337531.47, 17900.81, 0.0000016431604, 10.0006695, 9.998484 
1.4452392e+3, 2.737298e+2, -113857.58, -316564.56, -90833.95, -0.07934961, -0.07834246, -79110.6, 178336.14, 0.000019343763, 10.00147, 9.998764 
1.4452732e+3, 2.837278e+2, -16872.313, -421868.28, -108328.61, -0.11843577, -0.062815025, 10282.751, 169748.34, 0.00010742276, 10.002317, 9.996965 
1.4453089e+3, 2.9372513e+2, 183633.31, -290196.9, -82630.21, 0.07183677, -0.047004923, 197629.58, 259123.88, 0.00040939418, 10.003085, 9.996821 
1.4453442e+3, 3.0372232e+2, 271184.53, -191650.19, 41517.375, 0.08560768, -0.001947523, 274879.25, 274879.25, 0.0010586395, 10.003231, 9.997114 
1.4453803e+3, 3.1372142e+2, 200707.86, -144856.06, -24390.855, 0.062126964, 0.14377876, 202420.95, 202420.95, 0.0020274452, 10.00236, 9.997846 
1.4547119e+3, 1.2370071e+2, -2166521.8, -1651157.8, 39140.563, 0.19728714, -0.018410606, -1648202.0, 79528.65, 0.011640448, 9.995601, 10.00255 
1.4547463e+3, 1.3370284e+2, -1985835.1, -1523836.3, -24554.855, 0.08311962, -0.062630445, -1522534.9, 107169.3, 0.0068325973, 9.996276, 10.002423 
1.454784e+3, 1.4370361e+2, -1903017.4, -1673707.5, -6524.1406, 0.16259252, -0.122731835, -1673522.0, -141825.69, 0.0028915813, 9.997223, 10.00024 
1.4548197e+3, 1.5370439e+2, -1675878.0, -1544374.6, 28839.746, 0.08656065, -0.06978388, -1538327.9, -104632.25, 0.00070428615, 9.99825, 9.999963 
1.4548554e+3, 1.6370538e+2, -1489780.5, -1371081.4, 5528.317, 0.028227935, 0.038265612, -1370824.4, -35135.215, 0.000058062662, 9.998679, 10.000285 
1.4548917e+3, 1.737064e+2, -1440716.5, -1269981.6, 30596.072, 0.08766295, 0.06731439, -1264664.4, -26987.514, 0.00000016567238, 9.998237, 10.000516 
1.4549273e+3, 1.8370603e+2, -1425259.6, -1389832.6, -3684.475, 0.09811171, 0.06291672, -1389453.5, -249774.97, 0.0, 9.9984255, 9.998937 
1.4549616e+3, 1.9370364e+2, -1175541.9, -1228777.4, -19542.877, 0.0006712329, -0.07999898, -1169138.0, -127436.78, 0.0, 9.999518, 9.998838 
1.4549956e+3, 2.0370187e+2, -1014880.2, -1086957.1, -98105.234, -0.055069573, -0.1289629, -946403.56, -2685.9023, 0.0, 9.999896, 9.998954 
1.4550297e+3, 2.1370105e+2, -1015599.6, -1017822.0, -78519.04, -0.007032331, -0.14456436, -938183.9, -92459.39, 0.0, 9.999139, 9.99912 
1.455064e+3, 2.237003e+2, -990681.44, -1052807.8, -59052.336, 0.010046385, -0.07667823, -955020.56, -207287.44, 0.0, 9.999053, 9.998251 
1.4550982e+3, 2.3369971e+2, -759152.44, -887753.25, -83738.97, -0.0323558, 0.017146142, -717874.7, -68130.125, 0.0, 9.999969, 9.998264 
1.4551339e+3, 2.436985e+2, -545177.25, -681349.06, -65366.063, -0.0231467, 0.06434385, -518878.75, 32880.348, 0.0, 10.000519, 9.998749 
1.4551708e+3, 2.5369617e+2, -449546.16, -559563.3, -9810.129, 0.06961555, -0.08465094, -448678.25, 5100.7817, 0.000000017460069, 10.000393, 9.998977 
1.4552067e+3, 2.6369488e+2, -396848.66, -586050.44, -27125.219, 0.0777959, -0.055240333, -393036.63, -37244.766, 0.000002726617, 10.00054, 9.998043 
1.4552413e+3, 2.7369517e+2, -190092.63, -428894.03, -45363.633, -0.036293864, 0.14212368, -181765.55, 76027.97, 0.000025176965, 10.001272, 9.998084 
1.455276e+3, 2.836942e+2, 9549.105, -317459.1, -90563.445, -0.0822385, 0.27015045, 32954.953, 192758.83, 0.00012772917, 10.002108, 9.997785 
1.4553113e+3, 2.9369104e+2, 229595.06, -149481.75, -34996.715, -0.029761985, 0.12960032, 232798.92, 294629.38, 0.00046719576, 10.002887, 9.9978895 
1.455346e+3, 3.0368686e+2, 222312.52, -252771.64, 5690.497, -0.07380792, -0.010539818, 222380.67, 222380.67, 0.0011939924, 10.003053, 9.99678 
1.455382e+3, 3.1368408e+2, 146284.02, -192303.95, -11146.223, -0.061159387, 0.0011618937, 146650.55, 146650.55, 0.0022782013, 10.00207, 9.9976635 
1.4647089e+3, 1.2366332e+2, -2083539.8, -1631634.3, 25171.857, 0.30953008, 0.022192346, -1630236.5, 97861.555, 0.012283002, 9.996257, 10.002377 
1.4647435e+3, 1.3366495e+2, -1884952.9, -1505831.4, -77673.125, 0.14766982, -0.047997687, -1490535.1, 139542.88, 0.00723705, 9.9971075, 10.002144 
1.464782e+3, 1.4366569e+2, -1848473.6, -1582908.8, -46732.54, 0.2803249, -0.11309515, -1574925.0, -42855.027, 0.0030819494, 9.997285, 10.0008545 
1.4648174e+3, 1.5366697e+2, -1685392.6, -1448319.1, -34495.04, 0.06176327, -0.094339006, -1443401.9, -9340.963, 0.0007585455, 9.997722, 10.00089 
1.464853e+3, 1.6366836e+2, -1578798.3, -1411866.1, -62257.69, -0.027074577, -0.0017094732, -1391204.4, -55155.02, 0.00006440502, 9.998064, 10.0003 
1.46489e+3, 1.736694e+2, -1402631.8, -1265596.8, -102883.664, 0.084318414, 0.04287657, -1210503.3, 27535.47, 0.00000022299002, 9.998559, 10.00039 
1.4649262e+3, 1.8366918e+2, -1364106.5, -1361218.0, -92426.57, 0.12545283, 0.06370214, -1270224.4, -130183.92, 0.0, 9.99888, 9.9989 
1.4649612e+3, 1.9366714e+2, -1226570.4, -1247762.9, -78960.04, 0.04415061, -0.043903742, -1157498.8, -115438.5, 0.0, 9.999169, 9.99886 
1.4649957e+3, 2.0366551e+2, -1084543.0, -1116628.5, -136483.31, 0.010338995, -0.08242582, -963162.8, -19086.98, 0.0, 9.999391, 9.9990015 
1.4650297e+3, 2.136645e+2, -935611.9, -968092.7, -166973.83, 0.06196681, -0.122897595, -784090.5, 61993.96, 0.0, 9.999638, 9.999226 
1.4650638e+3, 2.2366358e+2, -865089.2, -993893.2, -75860.94, 0.06466351, -0.07626461, -829979.9, -81885.234, 0.0, 9.999934, 9.998229 
1.4650986e+3, 2.3366268e+2, -685115.75, -857231.25, -40490.86, -0.023088109, -0.010201542, -676065.94, -25957.084, 0.0, 10.00049, 9.998228 
1.4651342e+3, 2.4366158e+2, -488221.4, -638740.3, 8797.042, -0.031550724, 0.047133468, -487709.0, 64412.957, 0.0, 10.000851, 9.998882 
1.4651716e+3, 2.5366026e+2, -342219.22, -484537.28, -26661.816, 0.08088196, -0.019430518, -337388.38, 116744.305, 0.000000044837254, 10.00104, 9.999173 
1.4652078e+3, 2.6365918e+2, -331436.7, -565394.75, -38674.406, 0.1044318, 0.025916059, -325209.38, 30933.99, 0.0000038968087, 10.001024, 9.997957 
1.4652424e+3, 2.736585e+2, -278929.97, -490075.47, -37392.523, -0.017506236, 0.14260982, -272503.6, -14349.592, 0.000030518888, 10.000714, 9.99795 
1.4652775e+3, 2.8365713e+2, -128250.805, -341924.66, -16825.148, -0.06709902, 0.2190161, -126934.07, 33234.195, 0.00014669269, 10.000978, 9.998161 
1.4653139e+3, 2.9365462e+2, 164778.92, -128647.38, -46198.08, -0.0121803135, 0.10608036, 171880.64, 234068.53, 0.00052426284, 10.002228, 9.998342 
1.4653488e+3, 3.0365103e+2, 192018.23, -243031.1, -47656.17, -0.07151402, -0.008503894, 197177.4, 197177.4, 0.0013359416, 10.002758, 9.996967 
1.4653838e+3, 3.1364873e+2, 192429.61, -95991.055, -52053.31, -0.06471782, 0.0353055, 201536.48, 201536.48, 0.0025510115, 10.00206, 9.998321 
1.4747041e+3, 1.23624064e+2, -2100702.3, -1674541.9, -103605.21, 0.15312538, -0.08608008, -1650689.1, 77794.39, 0.012969953, 9.996313, 10.00203 
1.4747405e+3, 1.3362637e+2, -1951988.1, -1638694.1, -54097.008, 0.11241597, -0.0071890573, -1629616.1, 844.7831, 0.0076708426, 9.997089, 10.001226 
1.4747785e+3, 1.4362797e+2, -1783400.0, -1467769.5, -58454.215, 0.14600714, 0.033505958, -1457291.6, 75154.08, 0.0032881629, 9.997356, 10.0016165 
1.4748147e+3, 1.5362985e+2, -1620923.1, -1304833.4, -9057.765, 0.006018537, 0.0114646405, -1304574.0, 129852.68, 0.00081847684, 9.997675, 10.001903 
1.4748509e+3, 1.6363083e+2, -1600509.6, -1466292.0, -60447.203, -0.07151736, 0.021439474, -1443082.3, -106664.71, 0.000071419374, 9.9980955, 9.999911 
1.4748871e+3, 1.736303e+2, -1451292.4, -1360661.8, -75706.1, -0.08008437, -0.031720426, -1317745.0, -79320.67, 0.0000002932695, 9.998531, 9.999748 
1.4749233e+3, 1.8363012e+2, -1325862.3, -1289826.0, -97155.62, -0.06141506, 0.0114480285, -1209031.9, -68604.57, 0.0, 9.998901, 9.999387 
1.4749603e+3, 1.9363052e+2, -1188633.9, -1155104.9, -58976.688, 0.024892576, 0.08020938, -1110556.3, -68132.375, 0.0, 9.9991, 9.999537 
1.474996e+3, 2.0363024e+2, -1102583.1, -1130509.5, -144078.03, 0.08085549, 0.13800238, -971793.25, -27365.928, 0.0, 9.999289, 9.998953 
1.4750297e+3, 2.136288e+2, -978566.0, -1011323.0, -148536.3, 0.0849842, 0.0725962, -845507.94, 933.8477, 0.0, 9.999444, 9.99902 
1.4750637e+3, 2.2362748e+2, -832414.7, -886725.0, -70475.25, 0.047103077, 0.055459213, -784043.94, -35588.934, 0.0, 9.999754, 9.999057 
1.4750987e+3, 2.3362623e+2, -639247.94, -723681.1, -6908.397, -0.060637284, -0.012247054, -638686.44, 11780.646, 0.0, 10.000322, 9.999229 
1.4751346e+3, 2.4362554e+2, -538103.8, -712371.56, 3481.1729, -0.08283748, 0.045416348, -538034.3, 14440.363, 0.0, 10.0007105, 9.998447 
1.4751725e+3, 2.5362575e+2, -416636.66, -597406.0, -7132.3286, 0.05698936, 0.19646789, -416355.7, 38119.152, 0.000000082863835, 10.0008545, 9.998491 
1.4752086e+3, 2.6362437e+2, -335228.13, -534670.25, -56492.445, 0.07088724, 0.2372689, -320338.2, 36150.227, 0.0000048986644, 10.000855, 9.998247 
1.4752422e+3, 2.7362013e+2, -265703.13, -432437.97, -28776.578, -0.124355145, -0.051256627, -260876.36, -2350.3713, 0.00003489947, 10.000585, 9.998403 
1.4752775e+3, 2.83617e+2, -162711.81, -389434.03, 9636.931, -0.18321693, -0.16554712, -162302.92, -1748.1046, 0.00016199038, 10.000863, 9.997897 
1.4753161e+3, 2.9361597e+2, 104266.45, -202598.13, 17683.207, -0.024414929, -0.099876255, 105282.09, 167848.75, 0.00057622173, 10.001999, 9.99795 
1.4753519e+3, 3.0361468e+2, 206552.63, -151201.06, -75302.18, -0.05290226, 0.011163867, 221756.55, 221756.55, 0.0014704264, 10.002499, 9.997717 
1.4753853e+3, 3.136149e+2, 242013.83, 90142.805, -27158.451, -0.17400885, 0.20313436, 246724.36, 246724.36, 0.0028070426, 10.001718, 9.999759 
1.4847018e+3, 1.2358684e+2, -1719189.1, -1551856.4, -10117.919, 0.16860278, -0.10912304, -1551246.9, 177600.88, 0.013700781, 9.999168, 10.001521 
1.4847381e+3, 1.3358863e+2, -1861222.6, -1658193.6, 19144.074, 0.14527863, -0.021400401, -1656404.3, -25572.596, 0.00813248, 9.997956, 10.000691 
1.4847748e+3, 1.4359039e+2, -1860403.5, -1501891.8, 74545.92, 0.08562689, 0.06545296, -1487009.1, 45805.973, 0.0035089266, 9.996855, 10.001606 
1.4848126e+3, 1.5359232e+2, -1604491.1, -1285583.0, 28830.97, 0.04273918, 0.03734435, -1282997.5, 151797.23, 0.0008836724, 9.997765, 10.001974 
1.4848499e+3, 1.6359316e+2, -1573361.5, -1465679.3, -33893.438, 0.006663562, 0.037074838, -1455899.4, -119113.0, 0.00007901186, 9.9983635, 9.99978 
1.4848858e+3, 1.7359222e+2, -1430217.4, -1363638.8, -44290.25, -0.060998343, -0.039040934, -1341522.3, -102724.39, 0.00000037325287, 9.998749, 9.999621 
1.4849222e+3, 1.8359193e+2, -1300394.5, -1240758.5, -28241.52, -0.06348447, -0.015066861, -1229507.1, -88704.79, 0.0, 9.99891, 9.999723 
1.4849594e+3, 1.9359277e+2, -1168363.4, -1098262.6, -36036.008, 0.03123027, 0.054655235, -1083042.5, -40248.1, 0.0, 9.999027, 9.999968 
1.4849952e+3, 2.0359305e+2, -1115205.0, -1100262.6, -100011.56, 0.100143224, 0.13389438, -1007443.56, -62651.395, 0.0, 9.999063, 9.999258 
1.4850292e+3, 2.1359247e+2, -1009309.94, -990218.2, -97543.26, 0.12742531, 0.122338764, -901754.8, -54955.945, 0.0, 9.9990835, 9.99933 
1.4850637e+3, 2.2359145e+2, -901325.3, -902174.25, 20503.182, 0.113297105, 0.109690785, -881242.2, -132433.44, 0.0, 9.999199, 9.999217 
1.4850992e+3, 2.3358977e+2, -729895.2, -748457.5, -1098.384, 0.010658395, -0.016717447, -729830.4, -79007.15, 0.0, 9.999618, 9.999394 
1.4851356e+3, 2.4358878e+2, -638450.0, -752744.9, 4266.217, -0.024799047, 0.00029830317, -638291.0, -85458.414, 0.0, 10.0, 9.998511 
1.485173e+3, 2.5358906e+2, -481256.03, -619462.25, 17426.574, 0.058272578, 0.15313113, -479092.56, -24260.143, 0.00000011463164, 10.000385, 9.998563 
1.4852093e+3, 2.6358774e+2, -323160.03, -531496.5, 12537.009, 0.07024394, 0.20021021, -322408.3, 34436.945, 0.000005857849, 10.000971, 9.998208 
1.4852442e+3, 2.7358365e+2, -70287.82, -345233.5, -32773.69, -0.04179227, -0.06428959, -66435.164, 192446.38, 0.000039275426, 10.001977, 9.998327 
1.48528e+3, 2.8358048e+2, 5930.19, -318938.56, -969.5299, -0.090077065, -0.17127821, 5933.0835, 166844.45, 0.00017769578, 10.002084, 9.997783 
1.4853172e+3, 2.9357925e+2, -95592.94, -310154.06, -7386.517, -0.04621803, -0.11038619, -95338.945, -32412.182, 0.0006295016, 10.000673, 9.997851 
1.485353e+3, 3.0357862e+2, -37211.03, -208212.4, -30978.016, -0.08768557, 0.04622358, -31772.152, -31772.152, 0.0015966473, 10.000535, 9.998292 
1.4853883e+3, 3.135785e+2, 434828.03, 277809.72, -48421.418, -0.06041263, 0.13636468, 448559.44, 448559.44, 0.0030272538, 10.00262, 10.000626 
1.4947e+3, 1.23552516e+2, -1719467.6, -1581006.5, 6719.4727, 0.004450986, 0.028153487, -1580681.3, 148500.94, 0.014485426, 9.999299, 10.001253 
1.4947362e+3, 1.3355227e+2, -1877507.6, -1682087.5, -35246.402, 0.13566077, -0.0671759, -1675924.8, -44740.555, 0.008627366, 9.997926, 10.000539 
1.494771e+3, 1.4355327e+2, -1905414.9, -1619567.3, 72366.25, -0.017257933, -0.017486943, -1602290.9, -69116.19, 0.0037456865, 9.996938, 10.000767 
1.4948107e+3, 1.5355459e+2, -1682205.4, -1446815.0, 75973.73, 0.05826433, 0.00036203876, -1424424.0, 10738.348, 0.0009542572, 9.997754, 10.000881 
1.4948492e+3, 1.6355552e+2, -1549745.6, -1434258.8, -32623.125, 0.07898167, 0.06170253, -1425680.4, -88526.15, 0.00008722728, 9.998433, 9.99996 
1.4948857e+3, 1.7355524e+2, -1410908.1, -1318019.1, -20730.229, 0.053116564, 0.018374095, -1313602.8, -74444.164, 0.0000004647829, 9.998725, 9.999945 
1.494922e+3, 1.8355475e+2, -1283159.9, -1212104.4, -39186.188, 0.011227853, -0.006174645, -1194738.1, -53573.93, 0.0, 9.998934, 9.999911 
1.4949578e+3, 1.9355401e+2, -1173062.6, -1087709.3, -23005.799, -0.049890753, -0.10778251, -1081903.4, -38732.86, 0.0, 9.998937, 10.000085 
1.4949931e+3, 2.035541e+2, -1082800.1, -1011409.5, -113491.945, -0.04347083, -0.085138544, -928131.8, 17037.59, 0.0, 9.99896, 9.999921 
1.4950281e+3, 2.1355553e+2, -979025.3, -891746.94, -87768.3, 0.09840875, 0.028072583, -837367.5, 9788.189, 0.0, 9.998928, 10.00008 
1.4950636e+3, 2.2355558e+2, -956591.75, -983158.06, 17580.79, 0.16243608, 0.10068321, -947840.25, -198685.06, 0.0, 9.999044, 9.998741 
1.4950998e+3, 2.3355329e+2, -802610.7, -861285.6, 25751.96, 0.08904674, -0.0221859, -792911.6, -141734.2, 0.0, 9.999448, 9.998707 
1.4951362e+3, 2.4355142e+2, -630309.06, -692777.25, 7062.8203, 0.024771594, -0.07392881, -629520.5, -76325.56, 0.0, 9.999814, 9.999012 
1.4951727e+3, 2.5355032e+2, -457692.0, -533494.06, 45591.88, -0.014684221, -0.12901382, -436304.72, 18899.61, 0.00000015644366, 10.000221, 9.999234 
1.4952098e+3, 2.6354942e+2, -383797.9, -615950.44, 33468.348, -0.0041298005, -0.06088382, -379069.25, -21855.682, 0.000006865855, 10.000791, 9.997714 
1.4952476e+3, 2.735487e+2, -150356.95, -464675.06, 19072.684, 0.104935795, 0.082491875, -149203.86, 110020.164, 0.00004412461, 10.001776, 9.997604 
1.4952838e+3, 2.83547e+2, -15381.445, -327421.97, -53806.86, 0.07340817, 0.16737059, -6363.832, 154878.95, 0.00019465707, 10.001921, 9.9978075 
1.4953165e+3, 2.9354426e+2, -98523.61, -292741.1, -41192.62, -0.1957113, 0.05249912, -90148.04, -26877.01, 0.00068026903, 10.000562, 9.998031 
1.4953515e+3, 3.0354285e+2, -37921.82, -168942.45, 14439.523, -0.29299068, 0.108186476, -36349.344, -36349.344, 0.001699818, 10.00038, 9.998627 
1.4953922e+3, 3.1353977e+2, 384884.66, 251774.39, 65979.875, 0.012430366, -0.13032068, 412046.8, 412046.8, 0.0031843882, 10.002295, 10.000603 
1.5046975e+3, 1.23515576e+2, -1941619.8, -1747455.6, 14200.5, -0.09468173, 0.015856441, -1746422.5, -16882.344, 0.015336173, 9.998051, 10.0006895 
1.5047337e+3, 1.3351506e+2, -1831370.6, -1686062.0, -154349.86, 0.082540296, -0.08999589, -1588121.8, 43424.863, 0.0091627855, 9.998344, 10.000316 
1.5047689e+3, 1.4351565e+2, -1711972.5, -1565906.9, 26537.578, 0.02959269, -0.053158153, -1561234.9, -27692.713, 0.0040015904, 9.998459, 10.000391 
1.5048087e+3, 1.5351638e+2, -1592123.6, -1440582.8, 56514.754, 0.06377535, -0.054713085, -1421827.6, 13707.543, 0.001031135, 9.998545, 10.000536 
1.5048474e+3, 1.6351709e+2, -1553522.1, -1445420.6, -9841.699, 0.07041473, 0.007727934, -1444531.9, -107002.46, 0.000096309515, 9.998423, 9.999901 
1.5048848e+3, 1.7351724e+2, -1447325.0, -1329836.8, -48824.7, 0.11025336, 0.0030418097, -1312195.5, -72665.13, 0.000000575819, 9.998437, 10.000006 
1.5049213e+3, 1.8351717e+2, -1365108.0, -1222994.8, -60252.086, 0.1032198, 0.0061902734, -1200888.3, -59355.777, 0.0, 9.998258, 10.000152 
1.5049563e+3, 1.9351685e+2, -1291439.5, -1107243.5, -59889.805, -0.020208864, -0.08347133, -1089483.3, -45948.098, 0.0, 9.997974, 10.0004015 
1.5049917e+3, 2.0351698e+2, -1175582.5, -1047402.7, -106261.19, -0.044375196, -0.0784595, -987400.06, -41866.71, 0.0, 9.998295, 9.999996 
1.5050274e+3, 2.1351776e+2, -845472.0, -826214.4, -158000.69, 0.104291126, -0.026719997, -677549.4, 169975.1, 0.0, 9.999842, 10.000097 
1.5050636e+3, 2.2351763e+2, -719232.44, -887472.75, -69933.88, 0.18642487, 0.0364395, -693959.06, 55566.652, 0.0, 10.000786, 9.998542 
1.5051003e+3, 2.3351593e+2, -627492.5, -801756.9, -64471.406, 0.13332999, -0.0019015002, -606233.8, 45310.152, 0.0, 10.000778, 9.99846 
1.5051368e+3, 2.435142e+2, -506111.9, -635457.2, -61213.21, 0.07878325, -0.025724724, -481736.2, 71825.18, 0.0, 10.000674, 9.998986 
1.5051731e+3, 2.5351253e+2, -423259.63, -511924.22, -100676.48, 0.018058255, -0.1384805, -357586.9, 97988.84, 0.00000020302433, 10.00044, 9.999268 
1.5052104e+3, 2.635115e+2, -416666.22, -617612.94, -71355.34, 0.00784698, -0.08853094, -393906.13, -36320.32, 0.0000077496, 10.000503, 9.997842 
1.5052488e+3, 2.7351135e+2, -229395.17, -484512.34, -44081.926, 0.08464246, 0.097196475, -221992.98, 37597.38, 0.000048509926, 10.00114, 9.99778 
1.5052854e+3, 2.8350988e+2, -75882.73, -374908.94, -99619.69, 0.06573804, 0.19974928, -45734.34, 115872.37, 0.00020995413, 10.001594, 9.997637 
1.5053184e+3, 2.935068e+2, 83046.93, -219817.38, -165516.92, -0.10525265, 0.079585515, 155952.8, 219589.95, 0.00072184385, 10.001908, 9.997862 
1.505354e+3, 3.0350506e+2, 204909.81, -133704.22, -70343.22, -0.17065261, 0.13815875, 218941.38, 218941.38, 0.0017670484, 10.002372, 9.997929 
1.5053946e+3, 3.1349993e+2, 327197.22, 68953.25, -124875.73, 0.023789588, -0.21436813, 377703.8, 377703.8, 0.0032593366, 10.002549, 9.999237 
1.5146957e+3, 1.23476624e+2, -1990826.8, -1868808.5, 23569.604, -0.12869541, -0.13258496, -1864413.9, -134498.23, 0.016257107, 9.998127, 9.9998255 
1.51473e+3, 1.3347737e+2, -1875743.0, -1759946.1, -118896.97, -0.13726349, -0.07646234, -1685599.6, -53683.996, 0.009740974, 9.998284, 9.999828 
1.5147683e+3, 1.4347786e+2, -1686294.0, -1550644.5, 10007.058, 0.07990252, -0.014943093, -1549910.3, -15995.966, 0.0042781597, 9.998601, 10.000436 
1.5148063e+3, 1.534777e+2, -1570155.8, -1404164.4, 68657.31, -0.05558109, -0.12991548, -1379447.0, 56466.707, 0.0011151112, 9.9985695, 10.00078 
1.514844e+3, 1.6347793e+2, -1556109.4, -1466693.4, -27727.54, -0.14705972, -0.12307729, -1458793.3, -120881.46, 0.000106548556, 9.9984865, 9.9997225 
1.5148824e+3, 1.7347835e+2, -1470137.6, -1371859.8, -37859.58, 0.0071578966, -0.078333504, -1358966.6, -119054.41, 0.0000007145684, 9.998409, 9.999733 
1.5149198e+3, 1.8347931e+2, -1337749.0, -1170975.0, -82789.21, 0.09642154, 0.028521571, -1136856.9, 5049.358, 0.0, 9.998272, 10.000505 
1.514955e+3, 1.9348131e+2, -1271101.5, -1048625.6, -61072.156, 0.021486659, 0.12716441, -1032963.25, 10924.571, 0.0, 9.9979, 10.000842 
1.5149903e+3, 2.0348176e+2, -1231262.6, -1137645.1, -73239.914, -0.014171526, 0.16460964, -1097533.5, -151650.48, 0.0, 9.998181, 9.999434 
1.5150268e+3, 2.1347941e+2, -921496.25, -944058.6, -87787.86, 0.0471583, -0.02788603, -844267.7, 3635.4314, 0.0, 9.999664, 9.999376 
1.5150635e+3, 2.2347781e+2, -748309.94, -902113.0, -74419.77, 0.07375021, -0.07009967, -718196.75, 31721.371, 0.0, 10.000586, 9.998541 
1.5151002e+3, 2.334777e+2, -646566.44, -801001.25, -50894.28, 0.040975027, 0.04197528, -631302.75, 20620.213, 0.0, 10.0006, 9.998555 
1.5151371e+3, 2.4347703e+2, -570629.44, -728877.6, -81238.83, 0.022822997, 0.14454576, -536350.0, 17582.096, 0.0, 10.000492, 9.998439 
1.515174e+3, 2.5347552e+2, -487849.28, -616093.8, -94167.16, 0.04697405, 0.109030284, -438045.63, 17902.148, 0.00000026346208, 10.0002985, 9.998629 
1.5152109e+3, 2.6347384e+2, -386870.38, -518937.78, -59880.2, -0.005638204, 0.099403754, -363763.25, -5800.0825, 0.000008336701, 10.000346, 9.998594 
1.5152474e+3, 2.7347186e+2, -187569.1, -351838.47, -70.8941, -0.19271652, 0.0016991247, -187569.06, 72409.18, 0.00005112129, 10.00095, 9.998782 
1.5152843e+3, 2.8346947e+2, -135669.23, -458656.63, -98766.44, -0.2189704, -0.023345767, -107861.52, 54137.516, 0.00022272031, 10.001409, 9.997151 
1.5153223e+3, 2.9346702e+2, 6659.4087, -343444.8, -131306.22, 0.068637654, -0.013144893, 50432.723, 114457.23, 0.000756888, 10.001745, 9.997093 
1.5153594e+3, 3.0346516e+2, 65041.406, -363565.8, -66834.89, 0.119892545, 0.13550362, 75221.516, 75221.516, 0.0018089807, 10.002141, 9.996447 
1.515395e+3, 3.134593e+2, 101770.7, -302959.28, -63014.09, -0.21882926, -0.12185216, 111354.68, 111354.68, 0.0032733746, 10.002174, 9.996841 
1.5246937e+3, 1.23437986e+2, -2204937.5, -1954154.4, 12949.356, -0.06835058, -0.23710684, -1953487.5, -223195.72, 0.017244658, 9.996599, 9.999978 
1.5247275e+3, 1.3344006e+2, -1796475.3, -1667589.5, -29853.86, -0.21520966, -0.09561613, -1661010.3, -28731.746, 0.010359608, 9.998606, 10.000305 
1.5247677e+3, 1.434405e+2, -1586060.4, -1564865.8, 110354.93, 0.12836999, -0.037281312, -1464600.5, 69678.195, 0.0045741852, 9.999569, 9.999867 
1.5248053e+3, 1.534404e+2, -1539299.9, -1459709.9, 60071.35, -0.031865258, -0.08751729, -1427447.9, 8834.011, 0.0012060112, 9.999086, 10.000144 
1.5248425e+3, 1.6344056e+2, -1550214.6, -1424652.0, -32103.902, -0.11922816, -0.06283177, -1416919.9, -78637.51, 0.000118081814, 9.998395, 10.000048 
1.5248807e+3, 1.7344108e+2, -1502587.9, -1323935.1, -14079.414, 0.025594572, -0.055393793, -1322832.4, -82553.58, 0.0000008766353, 9.997942, 10.000279 
1.524918e+3, 1.8344204e+2, -1402544.6, -1233114.8, -247.1536, 0.11745678, 0.03284836, -1233114.4, -90843.04, 0.0, 9.997961, 10.0002365 
1.5249537e+3, 1.9344386e+2, -1116445.5, -1024581.75, -65573.42, 0.059975926, 0.1553674, -990453.56, 53802.7, 0.0, 9.999168, 10.000408 
1.5249898e+3, 2.0344412e+2, -981708.5, -1019416.6, -66674.305, 0.026985927, 0.20057516, -931273.75, 14980.226, 0.0, 9.999886, 9.999426 
1.5250264e+3, 2.1344171e+2, -910918.06, -928959.1, -45431.563, 0.045731854, -0.0075605614, -873620.1, -25346.814, 0.0, 9.999685, 9.999466 
1.525063e+3, 2.2344005e+2, -882851.0, -948561.44, 14678.336, 0.0472207, -0.070627086, -879721.2, -129433.28, 0.0, 9.999565, 9.99872 
1.5250999e+3, 2.3343982e+2, -770431.6, -835405.94, 20469.32, 0.008661001, 0.008341157, -764520.75, -112227.76, 0.0, 9.999637, 9.998783 
1.5251371e+3, 2.4343927e+2, -656012.2, -800217.75, 42182.52, 0.0042993566, 0.11888687, -644579.44, -90278.15, 0.0, 10.000064, 9.998139 
1.525175e+3, 2.5343817e+2, -383677.66, -607171.4, 20792.525, 0.060265496, 0.16598412, -381759.72, 74555.1, 0.0000003530132, 10.001214, 9.998235 
1.5252121e+3, 2.6343644e+2, -205768.98, -445908.03, 39741.523, 0.021630023, 0.1747323, -199362.9, 158968.97, 0.000008619123, 10.001641, 9.998476 
1.525248e+3, 2.734335e+2, -223448.86, -368345.5, -8329.284, -0.1864645, -0.013939272, -222971.63, 37383.406, 0.000051931653, 10.0007105, 9.998774 
1.5252855e+3, 2.8343073e+2, -250547.48, -506667.3, -70713.305, -0.18518041, -0.082081474, -232320.98, -69942.43, 0.00023518385, 10.000589, 9.997225 
1.5253255e+3, 2.9342854e+2, 55508.223, -311787.56, -67418.055, 0.1999217, -0.04801627, 67491.984, 131892.58, 0.00079146493, 10.002035, 9.997189 
1.5253632e+3, 3.034265e+2, 202234.17, -258746.27, 74303.195, 0.26134583, 0.06325614, 213914.78, 213914.78, 0.0018451918, 10.002893, 9.996818 
1.5253972e+3, 3.1342232e+2, 87791.53, -331882.0, 149796.73, -0.20399216, -0.06776273, 135773.56, 135773.56, 0.0032714915, 10.002129, 9.996683 
1.5346906e+3, 1.2339982e+2, -2119735.0, -1781380.3, -129128.58, -0.08970941, -0.2912958, -1737731.0, -7063.508, 0.018294634, 9.996615, 10.001153 
1.534726e+3, 1.3340345e+2, -1689904.1, -1446290.3, 65565.68, -0.2481235, -0.14037238, -1429765.1, 202866.69, 0.011016667, 9.9986, 10.001841 
1.5347667e+3, 1.4340405e+2, -1649371.8, -1729406.9, 87201.26, 0.03550027, -0.103061855, -1593444.3, -58813.805, 0.0048880493, 9.999702, 9.99868 
1.5348051e+3, 1.5340486e+2, -1660814.8, -1698815.8, 48989.613, 0.031515453, 0.10002004, -1627270.0, -190633.7, 0.0013030368, 9.999037, 9.998529 
1.534843e+3, 1.6340537e+2, -1486011.8, -1306572.9, -68133.875, 0.05654439, 0.22249967, -1283634.5, 55003.46, 0.00013086536, 9.998451, 10.000836 
1.5348792e+3, 1.7340568e+2, -1418828.5, -1144829.1, -21929.668, 0.07565399, 0.08558336, -1143085.0, 97543.21, 0.0000010420176, 9.997919, 10.001521 
1.5349156e+3, 1.8340553e+2, -1464107.1, -1371191.8, 20463.412, 0.053598754, 0.03283886, -1366884.6, -224258.1, 0.0, 9.997999, 9.999272 
1.5349524e+3, 1.9340454e+2, -1216709.1, -1222519.8, -10044.455, -0.007919443, 0.004202723, -1209158.3, -164518.06, 0.0, 9.999118, 9.999076 
1.5349892e+3, 2.0340404e+2, -963038.6, -947939.7, -78539.39, -0.03631705, 0.026608568, -876587.75, 70058.32, 0.0, 9.999749, 9.999979 
1.5350257e+3, 2.134046e+2, -877785.8, -815515.2, -42074.547, -0.0055296174, 0.0295948, -794308.6, 54327.164, 0.0, 9.999495, 10.000336 
1.5350622e+3, 2.2340427e+2, -882559.44, -902583.44, 3313.426, -0.009267315, 0.033361174, -882025.4, -131389.73, 0.0, 9.999366, 9.999133 
1.535099e+3, 2.3340231e+2, -766464.5, -792467.5, 36797.38, -0.060096107, -0.09860123, -740439.3, -87785.06, 0.0, 9.999482, 9.999156 
1.5351364e+3, 2.4340086e+2, -695363.25, -833308.8, 67289.77, -0.08698151, -0.095165245, -667976.5, -113306.76, 0.0, 9.999863, 9.998006 
1.5351751e+3, 2.5340047e+2, -430501.0, -660713.5, 77673.984, -0.048266347, 0.04355696, -406745.1, 49933.047, 0.0000004707298, 10.001034, 9.9979515 
1.5352134e+3, 2.633991e+2, -292692.53, -588060.75, 874.7803, -0.030436799, 0.14698349, -292689.94, 66004.055, 0.0000086272985, 10.001471, 9.997583 
1.5352504e+3, 2.7339604e+2, -312362.78, -524487.0, -33467.4, -0.04341727, 0.04703656, -307207.8, -46485.12, 0.000052741245, 10.000585, 9.997765 
1.5352882e+3, 2.833933e+2, -236909.55, -444334.22, -41425.73, 0.014181728, 0.011927727, -228942.25, -66193.66, 0.00024875673, 10.000435, 9.997732 
1.5353276e+3, 2.9339102e+2, 80936.78, -213119.61, 11653.37, 0.18323812, -0.037426956, 81397.875, 146166.11, 0.0008280964, 10.001832, 9.997965 
1.5353651e+3, 3.0338892e+2, 294704.16, -2463.2456, 47190.98, 0.1576088, -0.06152388, 302018.2, 302018.2, 0.0018910866, 10.002636, 9.998693 
1.5353999e+3, 3.1338847e+2, 169809.48, -71948.32, 152948.31, -0.19177756, -0.0321775, 243879.02, 243879.02, 0.0032980533, 10.001778, 9.998624 
1.5446882e+3, 1.2336336e+2, -2042096.3, -1700682.9, -85174.82, 0.01498367, -0.20682071, -1680613.4, 50416.01, 0.019406972, 9.99695, 10.001545 
1.5447259e+3, 1.3336653e+2, -1741393.1, -1495843.4, 1918.096, -0.09640229, -0.088114105, -1495828.4, 137167.28, 0.0117135905, 9.998329, 10.001625 
1.5447651e+3, 1.4336622e+2, -1891718.0, -1825955.8, -47568.375, -0.0015478664, -0.13846761, -1801010.3, -266008.2, 0.0052204016, 9.997962, 9.998858 
1.5448034e+3, 1.5336765e+2, -1890537.5, -1782611.1, 22616.889, 0.051050678, 0.106583126, -1778063.1, -341061.38, 0.0014059248, 9.997323, 9.9987955 
1.5448414e+3, 1.6336857e+2, -1632909.8, -1375341.6, 37444.39, 0.11701775, 0.24996582, -1370008.5, -31009.225, 0.00014487762, 9.99744, 10.000838 
1.5448777e+3, 1.7336878e+2, -1232226.6, -1062651.1, -30696.527, 0.093568705, 0.104071535, -1057265.5, 183723.6, 0.000001197513, 9.999218, 10.001456 
1.5449144e+3, 1.8336816e+2, -1210832.4, -1277067.8, -17539.639, 0.06417732, 0.021682158, -1206474.5, -63483.805, 0.0, 9.999879, 9.999001 
1.5449518e+3, 1.933663e+2, -1288716.9, -1285792.9, 2556.9067, 0.047348887, -0.063976705, -1284309.5, -239297.42, 0.0, 9.998774, 9.998797 
1.5449888e+3, 2.0336543e+2, -1189594.5, -1068075.1, -11664.451, 0.04557223, -0.05839182, -1066965.5, -119943.89, 0.0, 9.998253, 9.999878 
1.5450254e+3, 2.1336658e+2, -955735.9, -858503.44, -70300.66, 0.058064252, 0.010183797, -821646.1, 27361.44, 0.0, 9.998993, 10.000282 
1.545062e+3, 2.2336657e+2, -824046.25, -865696.56, -45640.004, 0.043063674, 0.04918223, -794704.7, -43699.438, 0.0, 9.999749, 9.999196 
1.5450992e+3, 2.3336457e+2, -601289.7, -701510.44, -64208.254, -0.030144082, -0.09359742, -569952.2, 83071.92, 0.0, 10.000589, 9.99924 
1.5451367e+3, 2.4336301e+2, -515437.75, -736804.5, -18948.959, -0.08143421, -0.10789771, -513827.44, 41212.684, 0.000000000009610117, 10.00103, 9.998123 
1.5451755e+3, 2.533624e+2, -464850.0, -662613.8, -590.7255, -0.08021963, 0.00043334672, -464848.22, -7798.822, 0.0000005675007, 10.000717, 9.998109 
1.5452142e+3, 2.6336095e+2, -430516.88, -669964.8, -32292.29, -0.037577774, 0.094614536, -426238.34, -67172.38, 0.000008574752, 10.000602, 9.99744 
1.5452519e+3, 2.7335808e+2, -275116.38, -539070.56, -45122.563, 0.0558815, 0.035464022, -267615.88, -6520.5664, 0.00005426492, 10.000968, 9.997492 
1.54529e+3, 2.8335568e+2, -106232.82, -339670.4, 24241.105, 0.13398936, 0.039592624, -103742.1, 59376.266, 0.00026286932, 10.00118, 9.998066 
1.5453286e+3, 2.9335403e+2, 9416.664, -202162.23, 24858.902, 0.15051588, 0.008304174, 12298.152, 77429.57, 0.0008684736, 10.001162, 9.998346 
1.5453665e+3, 3.033515e+2, 176159.61, -8486.353, 18121.607, 0.098231554, -0.096939296, 177921.3, 177921.3, 0.0019580566, 10.001589, 9.999168 
1.5454033e+3, 3.1335235e+2, 332248.47, 78017.11, -40598.215, -0.03153578, 0.025424413, 338574.2, 338574.2, 0.003382468, 10.002574, 9.999285 
1.5546839e+3, 1.2332873e+2, -2041960.5, -1724045.0, -16238.297, -0.1753038, 0.035353057, -1723217.8, 8158.8228, 0.020587768, 9.997063, 10.001323 
1.5547265e+3, 1.3332935e+2, -1894171.3, -1788829.5, 16281.61, 0.11330039, 0.09312757, -1786370.4, -152999.86, 0.012455585, 9.998242, 9.999648 
1.5547623e+3, 1.4332677e+2, -1765759.6, -1571106.3, -94852.336, -0.10440394, -0.14444838, -1532530.5, 2865.8105, 0.0055746003, 9.997977, 10.000603 
1.5547994e+3, 1.5332884e+2, -1731834.8, -1444617.0, 11616.31, -0.0940053, -0.07070305, -1444147.9, -6770.3984, 0.001515748, 9.997291, 10.001128 
1.5548372e+3, 1.6333024e+2, -1673462.3, -1478508.1, 79113.52, -0.06863993, 0.0192413, -1450443.5, -111079.445, 0.00016035176, 9.997511, 10.000104 
1.5548761e+3, 1.7333038e+2, -1328910.9, -1258916.0, 45865.125, -0.017677376, -0.00021582951, -1236220.9, 5139.926, 0.0000013687348, 9.999197, 10.000123 
1.5549144e+3, 1.8333009e+2, -1179801.6, -1214479.1, -57541.406, 0.043986946, 0.0071922834, -1137043.4, 6319.048, 0.0, 9.999888, 9.999427 
1.5549514e+3, 1.9332922e+2, -1250769.9, -1185759.9, -29915.846, 0.12236927, -0.051250696, -1174088.6, -128717.45, 0.0, 9.998685, 9.999527 
1.5549885e+3, 2.0332836e+2, -1254549.4, -1186628.5, -8255.104, 0.16181298, -0.05262875, -1185639.6, -238259.34, 0.0, 9.998169, 9.999113 
1.5550254e+3, 2.1332774e+2, -1047821.5, -1019108.5, -29398.594, 0.14261179, -0.059057698, -1000748.25, -151360.22, 0.0, 9.998846, 9.99926 
1.5550625e+3, 2.2332709e+2, -877848.6, -936331.56, -26861.506, 0.09028866, -0.012171651, -867383.6, -115987.695, 0.0, 9.99957, 9.998798 
1.5551e+3, 2.3332646e+2, -647133.5, -763671.94, -19808.938, -0.012072148, 0.015774598, -643858.5, 9545.198, 0.0, 10.00044, 9.99889 
1.5551376e+3, 2.4332553e+2, -515895.4, -692267.44, -35094.766, -0.1031753, 0.07049886, -509168.75, 46244.867, 0.0, 10.0008335, 9.998524 
1.5551758e+3, 2.533241e+2, -449441.25, -589439.6, -1184.3079, -0.13970438, 0.034923192, -449431.25, 7996.3975, 0.0000005355393, 10.000541, 9.998695 
1.5552141e+3, 2.6332211e+2, -425307.75, -619607.56, -31031.318, -0.11339874, 0.020307224, -420472.13, -61025.14, 0.000008556659, 10.00043, 9.997869 
1.5552528e+3, 2.7331954e+2, -272199.5, -496016.75, -12996.691, 0.025989925, -0.047917802, -271447.34, -9974.817, 0.000056489618, 10.00081, 9.99786 
1.555291e+3, 2.8331786e+2, -127264.99, -346147.1, 15428.701, 0.08277788, 0.008628747, -126182.79, 37305.73, 0.00027893353, 10.001019, 9.998099 
1.5553282e+3, 2.933173e+2, -12200.643, -209796.06, 41777.64, -0.016365418, 0.07683512, -3730.6563, 61761.79, 0.0009152954, 10.001006, 9.998365 
1.5553667e+3, 3.033142e+2, 74200.45, -159773.06, 36638.65, -0.051719174, -0.04313746, 79803.63, 79803.63, 0.0020517935, 10.001353, 9.998229 
1.555407e+3, 3.1331378e+2, 235000.69, 468.60922, 41153.46, 0.0568442, 0.046313547, 242012.28, 242012.28, 0.003534902, 10.002084, 9.998962 
1.5646814e+3, 1.2329042e+2, -2014652.8, -1708517.8, 9714.757, -0.12044413, 0.068591364, -1708209.9, 23546.17, 0.021849003, 9.997253, 10.0013485 
1.5647249e+3, 1.332907e+2, -2063276.9, -1898499.3, 6006.7124, 0.19520327, 0.12529776, -1898280.6, -264525.84, 0.013250772, 9.9972, 9.999412 
1.56476e+3, 1.4328878e+2, -1804547.0, -1529949.3, -26468.178, -0.08016001, -0.061542694, -1527421.4, 8352.037, 0.0059556314, 9.997465, 10.001128 
1.5647976e+3, 1.5329036e+2, -1441965.3, -1239601.1, -79048.5, -0.06907499, -0.09427414, -1212383.5, 225370.16, 0.0016345053, 9.999008, 10.001701 
1.5648358e+3, 1.6329128e+2, -1405092.5, -1407597.1, -55769.168, -0.067404546, -0.06314182, -1350561.6, -10819.171, 0.00017771397, 9.999599, 9.999596 
1.5648752e+3, 1.7329113e+2, -1425247.8, -1384803.9, -61789.414, 0.00031254173, -0.03745967, -1340011.5, -98266.15, 0.0000016137079, 9.998869, 9.999426 
1.5649138e+3, 1.8329097e+2, -1376890.9, -1276174.8, -146314.88, 0.08348407, 0.009674381, -1171794.4, -28046.557, 0.0, 9.998388, 9.999725 
1.5649502e+3, 1.9329087e+2, -1211002.3, -1112992.5, -166056.1, 0.14518385, -0.01812599, -988861.25, 56886.5, 0.0, 9.998714, 10.000014 
1.564987e+3, 2.032903e+2, -1133389.9, -1151565.8, -78831.77, 0.17937931, -0.009903313, -1063123.9, -115369.945, 0.0, 9.999133, 9.998867 
1.5650249e+3, 2.13289e+2, -894671.75, -982161.75, -68853.23, 0.16476598, -0.04685579, -856842.3, -7072.3896, 0.0, 10.000093, 9.998889 
1.5650627e+3, 2.2328801e+2, -744520.5, -908991.8, -30049.39, 0.11784972, 0.0035917875, -739202.3, 12580.342, 0.0, 10.000627, 9.998479 
1.5651006e+3, 2.332878e+2, -680716.2, -808250.9, -42279.145, 0.014139275, 0.099002935, -667973.4, -14185.373, 0.0, 10.000319, 9.998638 
1.5651384e+3, 2.4328713e+2, -605265.94, -701750.7, -49596.973, -0.06007981, 0.17985162, -584318.8, -28522.982, 0.0, 10.000068, 9.99883 
1.5651764e+3, 2.532856e+2, -498704.47, -564181.94, -54297.883, -0.08620624, 0.09594303, -468039.06, -10230.561, 0.00000039469393, 9.9999895, 9.999131 
1.5652148e+3, 2.6328373e+2, -414709.28, -551495.25, -43779.438, -0.06254311, 0.043688606, -401897.34, -42072.586, 0.000008163994, 10.000242, 9.998422 
1.5652537e+3, 2.732815e+2, -192007.83, -391965.4, -38198.867, 0.038118534, -0.04321775, -184959.0, 76886.14, 0.000058543963, 10.001088, 9.998435 
1.5652922e+3, 2.832801e+2, -20572.967, -295150.1, 7573.4663, 0.07533, 0.0045473287, -20364.23, 143494.05, 0.00029613846, 10.001745, 9.998118 
1.5653297e+3, 2.932796e+2, 122983.38, -159038.08, -12339.891, -0.006004088, 0.10434098, 123522.28, 189384.48, 0.00096598663, 10.001989, 9.998255 
1.5653685e+3, 3.032763e+2, 114895.03, -178876.22, 20496.752, -0.013934559, -0.015186723, 116318.22, 116318.22, 0.0021639143, 10.001761, 9.997904 
1.5654092e+3, 3.1327498e+2, 60886.168, -64409.113, 36290.918, 0.14331307, 0.012186788, 70638.51, 70638.51, 0.003739025, 10.000713, 9.999201 
1.5746808e+3, 1.2324856e+2, -1983501.9, -1662317.0, 106489.016, 0.03992539, -0.083599724, -1630218.4, 101947.48, 0.023204513, 9.997309, 10.001659 
1.5747201e+3, 1.3325097e+2, -1950849.9, -1661202.8, 3535.2576, 0.0034310496, 0.035286017, -1661159.6, -27015.555, 0.014108494, 9.997185, 10.001045 
1.5747583e+3, 1.4325275e+2, -1841784.5, -1635094.0, 7737.4565, -0.0363134, 0.14932363, -1634804.8, -98677.59, 0.0063687824, 9.997574, 10.0003605 
1.574798e+3, 1.532523e+2, -1541779.3, -1447449.1, -13830.329, 0.044382367, 0.053290255, -1445463.3, -7333.813, 0.00176415, 9.999012, 10.000273 
1.5748364e+3, 1.6325165e+2, -1409311.8, -1433266.6, -90348.914, 0.017495304, 0.018341191, -1330149.9, 9985.18, 0.00019721544, 9.999668, 9.999387 
1.5748748e+3, 1.7325108e+2, -1428696.5, -1386368.0, -82716.664, 0.04707407, 0.00027723183, -1322150.9, -80008.305, 0.0000019795527, 9.998846, 9.999425 
1.5749122e+3, 1.832509e+2, -1354053.1, -1240871.9, -153627.23, 0.06843502, 0.03581947, -1133743.8, 10401.999, 0.0, 9.998428, 9.999952 
1.5749477e+3, 1.9325146e+2, -1206252.9, -1084922.1, -145071.03, 0.017115265, 0.049084224, -988342.8, 57797.395, 0.0, 9.998632, 10.000249 
1.5749845e+3, 2.0325139e+2, -1131384.6, -1128430.1, -60137.867, -0.016014837, 0.08490981, -1069751.4, -121609.95, 0.0, 9.99904, 9.999073 
1.5750237e+3, 2.1325025e+2, -905907.44, -971810.0, -23285.377, 0.018584386, 0.045265947, -898510.25, -48355.72, 0.0, 9.999943, 9.999035 
1.5750626e+3, 2.2324924e+2, -777288.25, -935608.7, -43487.55, 0.015303447, 0.08843622, -766129.56, -13962.648, 0.0, 10.000448, 9.99838 
1.5751003e+3, 2.3324864e+2, -719678.25, -845494.44, -43936.266, -0.048826575, 0.16027807, -705854.2, -51677.305, 0.0, 10.000132, 9.998472 
1.5751386e+3, 2.432479e+2, -620965.25, -691620.94, -64842.094, -0.069842, 0.23593912, -582451.7, -26265.947, 0.0, 9.999879, 9.99899 
1.5751773e+3, 2.5324696e+2, -503994.25, -546349.1, -45019.895, -0.012824862, 0.18622816, -475419.56, -17227.842, 0.00000029448665, 9.999861, 9.999314 
1.575216e+3, 2.6324573e+2, -395307.4, -482568.28, -28339.17, 0.0154172955, 0.16696449, -386911.7, -26711.643, 0.000007127328, 10.000112, 9.998962 
1.5752544e+3, 2.7324393e+2, -167141.92, -305051.66, 8566.307, -0.019633094, 0.052295323, -166611.86, 95601.94, 0.000059012113, 10.000934, 9.999109 
1.5752931e+3, 2.8324226e+2, -55139.816, -328958.6, 5332.7856, -0.018876238, 0.04119118, -55035.996, 109191.88, 0.00030982727, 10.001575, 9.997967 
1.5753326e+3, 2.932411e+2, 62182.87, -230147.89, 15501.438, 0.052982993, 0.10262423, 63002.566, 129242.234, 0.0010139171, 10.00175, 9.997881 
1.5753712e+3, 3.0323792e+2, 97143.664, -152871.56, -22804.62, 0.07225325, 0.006596028, 99206.72, 99206.72, 0.002279307, 10.00152, 9.998179 
1.5754089e+3, 3.1323576e+2, 68363.75, 40625.62, 45863.297, 0.009962499, -0.1053403, 102409.12, 102409.12, 0.003959466, 10.000373, 10.000059 
1.584679e+3, 1.2320795e+2, -2035442.3, -1690375.4, 110020.53, 0.17726944, -0.06520272, -1658281.6, 74284.25, 0.024665277, 9.996973, 10.001614 
1.584716e+3, 1.3321126e+2, -1884936.4, -1540583.4, -77244.05, -0.13150041, 0.07356586, -1524050.0, 110484.79, 0.0150364665, 9.997245, 10.001848 
1.5847567e+3, 1.4321347e+2, -1787944.4, -1630880.4, -59276.65, 0.04283156, 0.18916465, -1611020.3, -74506.7, 0.0068181083, 9.99805, 10.000154 
1.5847975e+3, 1.5321235e+2, -1688126.6, -1571802.5, -42553.824, 0.15000275, 0.07736817, -1557897.6, -119375.12, 0.0019058621, 9.998241, 9.999788 
1.5848361e+3, 1.6321146e+2, -1605466.5, -1496430.5, -76435.87, 0.10896512, 0.035541195, -1457062.1, -116531.68, 0.0002187055, 9.998191, 9.999659 
1.5848733e+3, 1.7321119e+2, -1485216.9, -1359643.9, -69148.33, 0.07825983, -0.0005886962, -1329030.0, -86495.11, 0.000002466339, 9.998238, 9.999894 
1.5849105e+3, 1.832112e+2, -1366730.4, -1266333.4, -81810.08, 0.06455128, 0.036445946, -1220548.6, -76012.27, 0.0, 9.998438, 9.999768 
1.5849462e+3, 1.932119e+2, -1120130.9, -1075283.5, -132388.23, -0.022555273, 0.09268472, -963433.4, 83098.26, 0.0, 9.999369, 9.999955 
1.5849833e+3, 2.03212e+2, -1024719.7, -1070059.4, -66442.28, -0.061412245, 0.15844403, -977186.25, -28654.121, 0.0, 9.999722, 9.999161 
1.5850231e+3, 2.13211e+2, -1023957.2, -1011843.1, -53313.87, 0.024629923, 0.1203674, -964243.3, -113701.03, 0.0, 9.999024, 9.999221 
1.5850624e+3, 2.2320998e+2, -991957.7, -990168.7, -27118.336, 0.05607419, 0.1318131, -963930.06, -211377.13, 0.0, 9.998785, 9.998813 
1.5851003e+3, 2.3320903e+2, -732285.94, -800749.7, -5402.1675, -0.035082962, 0.12845701, -731862.3, -77299.45, 0.0, 9.99983, 9.998939 
1.5851387e+3, 2.4320799e+2, -526717.9, -671659.4, 1791.5264, -0.058887232, 0.1591906, -526695.75, 29877.416, 0.0, 10.000668, 9.99873 
1.5851781e+3, 2.5320697e+2, -347305.06, -521149.28, -55476.25, 0.034721393, 0.14557113, -331110.4, 127472.07, 0.00000023115544, 10.001168, 9.99885 
1.5852171e+3, 2.6320565e+2, -251099.22, -438228.1, -69350.02, 0.08090529, 0.15777567, -228200.23, 132393.39, 0.0000061293663, 10.001219, 9.998724 
1.5852556e+3, 2.7320385e+2, -220803.7, -346599.22, -119783.04, 0.02109929, 0.064061336, -148408.8, 114199.52, 0.000060026516, 10.000654, 9.998942 
1.5852942e+3, 2.8320226e+2, -188915.38, -349583.84, -113304.32, 0.0040846244, 0.057115074, -130355.91, 34265.82, 0.0003212461, 10.00047, 9.998351 
1.5853338e+3, 2.9320142e+2, -26922.977, -211326.25, -81569.47, 0.06711327, 0.09316947, 3979.8955, 70609.805, 0.0010569163, 10.000856, 9.998437 
1.585373e+3, 3.0319893e+2, 108555.516, -153769.1, -58967.18, 0.109818935, 0.03781596, 121201.0, 121201.0, 0.002384318, 10.001598, 9.998171 
1.5854113e+3, 3.1319615e+2, 439294.0, 206094.38, -80651.2, 0.086647004, -0.101679295, 464469.13, 464469.13, 0.0041536926, 10.00297, 9.999986 
1.5946767e+3, 1.23168886e+2, -2048581.0, -1767772.6, -92310.81, 0.1837239, 0.11688877, -1740145.3, -7191.9487, 0.026239868, 9.997153, 10.000999 
1.5947118e+3, 1.3317184e+2, -1903718.4, -1581536.0, -22526.61, -0.27823487, 0.24708955, -1579968.6, 54956.42, 0.016040104, 9.99725, 10.001559 
1.594755e+3, 1.4317064e+2, -1745272.3, -1581885.3, -62498.47, 0.025116876, 0.028693613, -1560720.3, -23784.596, 0.0073062, 9.998196, 10.000429 
1.5947959e+3, 1.5317063e+2, -1652321.9, -1506764.8, -27999.39, 0.14125395, -0.02119802, -1501564.5, -62632.652, 0.002060233, 9.998265, 10.000231 
1.5948343e+3, 1.6317101e+2, -1541560.5, -1377156.0, -90713.69, 0.0923745, 0.0072645466, -1336940.1, 3985.5535, 0.00024185247, 9.998246, 10.000451 
1.5948711e+3, 1.7317162e+2, -1430491.1, -1239613.3, -57694.387, 0.0077456348, -0.024184657, -1223529.9, 19390.393, 0.0000030340082, 9.99821, 10.000731 
1.5949082e+3, 1.8317202e+2, -1402662.9, -1349871.0, -65514.203, -0.0399036, 0.021521697, -1305635.1, -160716.48, 0.0, 9.998469, 9.999182 
1.5949453e+3, 1.9317225e+2, -1197112.4, -1215839.8, -84632.67, -0.07358438, 0.11843905, -1121327.0, -74405.55, 0.0, 9.999286, 9.99903 
1.5949832e+3, 2.0317213e+2, -1040906.8, -1079863.8, -93992.11, -0.062302757, 0.22161771, -964396.06, -15470.63, 0.0, 9.99962, 9.999141 
1.5950228e+3, 2.1317144e+2, -1039158.0, -996497.2, -71799.42, 0.08239753, 0.19130269, -942926.7, -91994.95, 0.0, 9.998832, 9.999416 
1.595062e+3, 2.2317044e+2, -955114.25, -876182.56, -11332.392, 0.12552992, 0.15843052, -874587.8, -121649.2, 0.0, 9.998612, 9.999681 
1.5951002e+3, 2.331691e+2, -690388.2, -672874.6, 49822.035, -0.043519244, 0.013881902, -631045.7, 23899.25, 0.0, 9.999648, 9.999907 
1.5951388e+3, 2.4316755e+2, -612478.6, -801683.44, 15767.234, -0.13635474, -0.03061402, -611173.7, -54216.465, 0.0, 10.0004635, 9.997932 
1.5951787e+3, 2.531657e+2, -460580.38, -701186.6, -24784.162, -0.04121362, -0.015857715, -458053.97, 926.5486, 0.00000009760233, 10.000944, 9.997714 
1.5952182e+3, 2.6316366e+2, -351433.53, -606488.25, -94878.91, 0.0360573, 0.034635566, -320010.47, 40993.68, 0.0000054247644, 10.001039, 9.997658 
1.5952566e+3, 2.731616e+2, -319331.38, -514364.8, -121550.98, 0.05277396, 0.011281455, -261014.38, 2011.7726, 0.0000627863, 10.000489, 9.99787 
1.5952949e+3, 2.8316024e+2, -153178.31, -238028.3, -110829.66, 0.023581846, 0.056784075, -76931.09, 88107.984, 0.0003316825, 10.000307, 9.9992 
1.5953334e+3, 2.931603e+2, 41242.797, -30814.762, -45262.83, -0.080523424, 0.06050094, 63065.523, 130100.22, 0.0010853008, 10.000685, 9.999766 
1.5953735e+3, 3.0315918e+2, 42586.465, -226103.8, -29901.771, -0.024611536, 0.08075392, 45873.926, 45873.926, 0.002449286, 10.001348, 9.997784 
1.595415e+3, 3.1315643e+2, 284747.16, 9995.325, 17483.746, 0.14239675, 0.017393176, 285855.25, 285855.25, 0.0042658485, 10.002469, 9.998862 
1.6046736e+3, 1.2312892e+2, -2259238.0, -1897205.1, -93282.13, 0.2365411, 0.16305117, -1874583.4, -141236.02, 0.027939666, 9.995876, 10.000715 
1.6047107e+3, 1.3313097e+2, -1835595.3, -1600603.0, 47348.645, -0.1454867, 0.25221884, -1591421.5, 43906.004, 0.01712635, 9.997979, 10.001062 
1.6047539e+3, 1.4312887e+2, -1646641.4, -1495387.0, -35036.85, 0.09287605, -0.034103937, -1487665.3, 49680.652, 0.007836914, 9.998734, 10.000743 
1.6047938e+3, 1.5312986e+2, -1683004.3, -1450933.6, -40971.37, 0.15365054, -0.044169538, -1443912.6, -4580.9443, 0.0022287087, 9.99777, 10.0008335 
1.6048321e+3, 1.63131e+2, -1687325.0, -1434912.0, -64436.68, 0.10694733, 0.017373186, -1419414.0, -78095.98, 0.00026665046, 9.997204, 10.000553 
1.604869e+3, 1.7313196e+2, -1443270.4, -1242736.5, -112526.164, 0.0012777626, 0.021289572, -1192286.5, 51023.28, 0.0000036433328, 9.998115, 10.000756 
1.6049068e+3, 1.8313235e+2, -1360112.1, -1346311.3, -117164.62, -0.039796904, 0.07409042, -1235844.0, -90535.96, 0.0, 9.998826, 9.999036 
1.604945e+3, 1.9313174e+2, -1184490.1, -1229453.9, -106129.41, -0.015925376, 0.10416161, -1098487.5, -51169.625, 0.0, 9.999438, 9.998866 
1.6049835e+3, 2.0313102e+2, -1015794.7, -1081920.1, -93194.234, 0.016020494, 0.16230296, -949972.06, -644.973, 0.0, 9.99987, 9.999003 
1.605022e+3, 2.1313034e+2, -849001.56, -915471.7, -125849.05, 0.06902945, 0.14796798, -752073.06, 99259.914, 0.0, 10.000203, 9.999306 
1.6050608e+3, 2.231293e+2, -702169.75, -759057.25, -63428.37, 0.0837033, 0.12191499, -661099.44, 92240.35, 0.0, 10.000371, 9.999627 
1.6051005e+3, 2.3312788e+2, -582127.0, -613436.56, -97796.64, -0.0009507131, -0.031020727, -498740.1, 156605.95, 0.0, 10.000377, 9.999939 
1.6051398e+3, 2.4312639e+2, -637500.2, -807061.1, -139294.39, -0.052385792, -0.07457335, -559214.25, -1856.4263, 0.0, 10.000253, 9.998012 
1.6051793e+3, 2.5312486e+2, -594682.94, -755698.7, -113443.49, -0.0020437522, -0.027226143, -536083.1, -76703.74, 0.000000007673713, 9.999963, 9.997828 
1.6052186e+3, 2.6312333e+2, -453555.63, -599007.6, -57664.97, 0.044156514, 0.04296312, -433468.25, -72069.29, 0.0000049768487, 10.000093, 9.99817 
1.6052571e+3, 2.7312195e+2, -199739.03, -396608.38, -6678.3423, 0.046347484, 0.038151726, -199512.75, 63899.656, 0.00006482946, 10.001037, 9.998435 
1.6052958e+3, 2.8312048e+2, 5882.5586, -231966.16, 63940.04, 0.020623824, 0.06479637, 21981.648, 187407.61, 0.00033743004, 10.001682, 9.998585 
1.605335e+3, 2.931191e+2, 157718.11, -67519.62, -52433.863, -0.028793808, 0.010696429, 169326.13, 236764.13, 0.0010901192, 10.001891, 9.998928 
1.6053759e+3, 3.0311796e+2, 152339.97, -147670.52, -68791.55, 0.08486383, 0.05787934, 167361.55, 167361.55, 0.0024526818, 10.001985, 9.998005 
1.6054173e+3, 3.131162e+2, 151328.03, -50404.496, -2377.7166, 0.18464258, 0.051365986, 151356.06, 151356.06, 0.004266189, 10.001493, 9.998912 
1.6146685e+3, 1.2308807e+2, -2230126.8, -1880903.4, -60253.42, 0.08555073, 0.044125985, -1870799.9, -137051.98, 0.02978273, 9.99604, 10.000762 
1.6147122e+3, 1.3308899e+2, -1893958.0, -1725904.3, 128391.76, 0.19099851, 0.09637265, -1656487.4, -20748.844, 0.018308382, 9.997994, 10.000198 
1.6147532e+3, 1.430888e+2, -1605250.0, -1437403.8, -65299.594, 0.11206777, 0.04334221, -1414991.9, 122746.484, 0.008418617, 9.998842, 10.001097 
1.6147912e+3, 1.5309022e+2, -1635365.4, -1354003.8, -69840.99, 0.08577294, 0.014178395, -1337621.4, 102099.375, 0.0024150687, 9.997777, 10.0015 
1.614829e+3, 1.6309142e+2, -1709858.4, -1511889.0, -61053.305, 0.034487817, 0.064307235, -1494574.6, -152866.95, 0.0002938315, 9.997316, 9.999976 
1.614867e+3, 1.7309225e+2, -1504276.4, -1374911.1, -68876.45, -0.02955982, 0.13869826, -1345106.8, -101403.56, 0.000004294035, 9.99812, 9.999854 
1.6149057e+3, 1.8309219e+2, -1338837.3, -1307496.1, -106648.36, -0.044180978, 0.19308996, -1215373.3, -69667.89, 0.0, 9.998853, 9.999285 
1.6149454e+3, 1.9309044e+2, -1159350.3, -1162281.8, -73669.4, 0.052525233, 0.057136226, -1087132.0, -39411.094, 0.0, 9.999375, 9.999357 
1.614984e+3, 2.0308879e+2, -1053248.5, -1130413.3, -94478.87, 0.056818694, 0.0025402375, -989777.7, -40041.836, 0.0, 9.999746, 9.998727 
1.6150206e+3, 2.1308775e+2, -905803.7, -997590.3, -103698.21, -0.10116227, -0.0011709812, -838297.2, 13448.542, 0.0, 10.0000515, 9.998812 
1.615059e+3, 2.2308661e+2, -801268.25, -916074.0, -73378.81, -0.1626567, 0.030175235, -765507.06, -11750.92, 0.0, 10.000166, 9.998646 
1.6151007e+3, 2.3308527e+2, -684781.06, -781272.06, -83825.31, -0.017331738, -0.008702551, -636308.9, 19457.883, 0.0, 10.000185, 9.9988785 
1.6151415e+3, 2.4308437e+2, -599060.0, -689424.1, -160785.22, 0.06848222, 0.030982176, -477229.16, 80546.64, 0.0, 10.000082, 9.998904 
1.61518e+3, 2.5308448e+2, -528854.1, -578289.5, -108781.12, 0.04274524, 0.10509115, -442017.8, 17761.502, 0.00000000987263, 9.999784, 9.999131 
1.6152184e+3, 2.6308453e+2, -361003.72, -353965.28, -42967.445, -0.008001697, 0.18453166, -314373.2, 47406.223, 0.000004852571, 9.999872, 9.999953 
1.6152567e+3, 2.7308443e+2, -93145.98, -127272.83, 44103.004, -0.10832826, 0.1171956, -62920.55, 200852.31, 0.00006465758, 10.000846, 10.000367 
1.6152963e+3, 2.8308272e+2, -159787.86, -534771.56, 56171.03, -0.122430645, 0.08646619, -151554.45, 14231.989, 0.0003366383, 10.0015, 9.996595 
1.6153382e+3, 2.9307806e+2, -77004.87, -502914.72, -22816.086, 0.07771366, -0.022628149, -75786.09, -7947.7324, 0.0010767062, 10.001659, 9.996055 
1.61538e+3, 3.0307508e+2, 164332.83, -50718.95, -90301.5, 0.27982077, -0.019552525, 197221.25, 197221.25, 0.0024075846, 10.0017, 9.998789 
1.6154172e+3, 3.1307584e+2, 157088.38, 85893.25, 23117.943, -0.015734034, 0.07219166, 163936.38, 163936.38, 0.0041727168, 10.001015, 10.0000515 
1.6246654e+3, 1.2304797e+2, -1924003.4, -1709449.5, 26272.8, 0.094621584, 0.059503578, -1706279.1, 27862.639, 0.03179242, 9.998026, 10.000966 
1.6247115e+3, 1.3304873e+2, -1860164.4, -1696618.8, 165138.23, 0.33387136, 0.07266289, -1594116.1, 42015.62, 0.019603958, 9.998146, 10.000324 
1.6247514e+3, 1.4304885e+2, -1858680.8, -1586252.3, -5741.6865, 0.13464949, 0.052447908, -1586131.3, -48002.97, 0.009062119, 9.997241, 10.000837 
1.6247886e+3, 1.530502e+2, -1729649.5, -1429055.8, -108768.7, 0.08795694, 0.04492958, -1393827.0, 46287.004, 0.002624408, 9.997269, 10.001225 
1.6248263e+3, 1.6305119e+2, -1673925.6, -1493456.3, -56583.168, 0.056528583, 0.09345767, -1477183.0, -135079.25, 0.00032476612, 9.997571, 9.999973 
1.6248657e+3, 1.7305157e+2, -1423230.8, -1322535.4, -9865.883, 0.015271412, 0.11258628, -1321577.9, -77477.18, 0.000005034694, 9.998632, 9.999953 
1.6249053e+3, 1.8305114e+2, -1280979.9, -1300189.1, -6789.2217, 0.012226444, 0.13041691, -1278822.6, -132717.89, 0.0, 9.999345, 9.999103 
1.6249451e+3, 1.9304933e+2, -1133700.3, -1163694.6, -53096.918, 0.08264932, 0.0087880995, -1093523.3, -45402.51, 0.0, 9.999636, 9.999214 
1.6249838e+3, 2.0304766e+2, -1048190.5, -1153472.9, -83934.16, 0.07932204, -0.030342583, -1001755.75, -51619.785, 0.0, 9.999881, 9.998507 
1.6250208e+3, 2.1304652e+2, -899062.4, -1019890.25, -98474.24, -0.06995712, -0.021956945, -843947.0, 8200.619, 0.0, 10.0001955, 9.998593 
1.6250595e+3, 2.230452e+2, -784451.2, -946453.25, -25500.684, -0.12370991, 0.018600645, -780531.94, -26371.088, 0.0, 10.000438, 9.998309 
1.6251013e+3, 2.3304352e+2, -655397.8, -811863.2, -13748.702, 0.0010585941, -0.017045626, -654198.94, 1977.76, 0.0, 10.000566, 9.998492 
1.6251417e+3, 2.4304254e+2, -507636.25, -586282.44, -64057.49, 0.08390818, 0.018772943, -471795.06, 86391.22, 0.0, 10.000453, 9.999428 
1.6251796e+3, 2.5304312e+2, -447896.7, -457372.03, -86892.54, 0.049284127, 0.068342045, -365612.75, 94568.945, 0.000000011745934, 9.999978, 9.9998665 
1.6252181e+3, 2.6304343e+2, -336836.75, -329548.22, -23762.744, -0.0042475504, 0.12453353, -309151.94, 53025.48, 0.0000048598445, 9.999987, 10.000065 
1.6252576e+3, 2.7304327e+2, -72975.99, -124204.63, -91787.22, -0.097122855, 0.055187203, -3296.0964, 260876.64, 0.00006306325, 10.001004, 10.00031 
1.6252978e+3, 2.830418e+2, -145214.48, -494375.25, -104461.76, -0.09605659, 0.041785557, -116348.14, 49836.37, 0.00033149842, 10.001484, 9.99687 
1.6253397e+3, 2.930377e+2, -141389.34, -498741.44, -21060.574, 0.1108392, -0.03860881, -140152.4, -71921.99, 0.001055369, 10.001075, 9.996361 
1.6253817e+3, 3.0303445e+2, 59347.133, -116514.516, 52051.28, 0.3273468, -0.074868634, 73598.33, 73598.33, 0.002338704, 10.001026, 9.998676 
1.6254185e+3, 3.1303567e+2, 185876.67, 53753.176, -25609.252, 0.034129944, 0.091550335, 190666.8, 190666.8, 0.004021066, 10.00136, 9.999694 
1.6346636e+3, 1.2300902e+2, -1873643.8, -1645173.5, 127501.57, 0.050303277, 0.2278057, -1588217.8, 146307.55, 0.03398967, 9.99819, 10.00135 
1.6347079e+3, 1.3301046e+2, -1774419.8, -1527305.1, 142213.8, 0.14703627, 0.20373034, -1462471.4, 174032.95, 0.02102759, 9.998173, 10.001492 
1.634748e+3, 1.4300899e+2, -1897303.8, -1692570.5, -36714.88, 0.034021445, -0.015573402, -1686185.5, -147669.84, 0.009775217, 9.99734, 10.000066 
1.6347855e+3, 1.5301004e+2, -1820347.8, -1614852.8, -96935.1, 0.04162906, 0.06762245, -1576343.6, -135834.67, 0.002860367, 9.997258, 9.999957 
1.6348243e+3, 1.6301057e+2, -1624204.9, -1404691.0, -37934.7, 0.05379371, 0.12122179, -1398320.4, -55816.535, 0.00036087315, 9.997624, 10.000562 
1.6348648e+3, 1.7300992e+2, -1354617.1, -1177911.4, 37050.86, 0.04290348, -0.05564469, -1170457.3, 74045.516, 0.000005927034, 9.998622, 10.000954 
1.6349049e+3, 1.8300909e+2, -1304722.6, -1365409.3, -5461.149, 0.021045791, -0.11975537, -1304235.1, -157728.34, 0.0, 9.999406, 9.99863 
1.6349438e+3, 1.9300832e+2, -1202513.0, -1294284.5, -34224.684, -0.018453795, -0.054819398, -1191155.1, -142636.89, 0.0, 9.9995775, 9.998352 
1.634983e+3, 2.0300746e+2, -1074694.6, -1182262.6, -84357.63, -0.022075433, 0.044850145, -1028434.06, -77904.41, 0.0, 9.999765, 9.998367 
1.6350226e+3, 2.130065e+2, -919678.7, -1029731.6, -73013.64, 0.061317436, 0.07100431, -883278.1, -30738.17, 0.0, 10.000043, 9.998607 
1.635062e+3, 2.2300501e+2, -805103.1, -936310.4, -29015.518, 0.07120576, 0.08729451, -798972.94, -44418.387, 0.0, 10.000212, 9.998485 
1.6351014e+3, 2.330026e+2, -667714.7, -792992.94, 3959.15, -0.041626748, -0.045342267, -667589.7, -11013.821, 0.0, 10.000376, 9.998712 
1.6351403e+3, 2.4300094e+2, -531421.75, -581790.9, -88538.28, -0.1105069, -0.0976049, -464555.84, 94033.68, 0.0, 10.000225, 9.999567 
1.6351785e+3, 2.5300092e+2, -459199.94, -443189.94, -90438.51, -0.083467275, -0.12189346, -360402.84, 100183.62, 0.000000006263202, 9.999825, 10.000035 
1.6352178e+3, 2.6300037e+2, -460040.3, -553911.1, -7477.6343, -0.056523673, -0.101484574, -459448.4, -96858.13, 0.000005059976, 9.999836, 9.998605 
1.6352592e+3, 2.72999e+2, -229852.78, -405836.9, -28672.65, -0.04047789, -0.11807254, -225299.05, 39307.18, 0.000060994436, 10.000802, 9.998479 
1.6353e+3, 2.8299809e+2, -38910.023, -209589.02, -120105.55, -0.047622528, -0.053027004, 23087.412, 189703.53, 0.0003219481, 10.001224, 9.998944 
1.6353394e+3, 2.929978e+2, 28552.791, -83506.96, -14210.163, -0.047675077, -0.040377047, 30326.686, 98943.23, 0.0010251402, 10.000824, 9.999327 
1.6353807e+3, 3.0299565e+2, -51637.44, -280371.5, 43117.336, 0.113942504, -0.096215956, -43779.586, -43779.586, 0.002254671, 10.000747, 9.997683 
1.635421e+3, 3.1299558e+2, 25800.285, -182758.28, 17577.463, 0.107908376, 0.1066098, 27271.35, 27271.35, 0.0038411752, 10.00096, 9.998253 
1.6446623e+3, 1.2296831e+2, -1889783.8, -1651867.6, 205353.8, 0.12933365, 0.16421051, -1533504.9, 201414.14, 0.036383986, 9.998115, 10.001352 
1.6447046e+3, 1.3296983e+2, -1897821.0, -1595450.4, 53108.4, 0.063631386, 0.16512986, -1586393.6, 50506.133, 0.022584815, 9.997393, 10.001385 
1.6447452e+3, 1.4296858e+2, -1948316.3, -1745198.1, -101424.73, 0.05281689, -0.015793113, -1703225.9, -164314.78, 0.010560797, 9.997094, 9.999832 
1.6447838e+3, 1.5296943e+2, -1618398.4, -1549468.4, -98676.305, 0.07843276, 0.07404937, -1479411.4, -38504.773, 0.0031241647, 9.998755, 9.999693 
1.6448234e+3, 1.6296965e+2, -1361659.0, -1311838.5, -15452.871, 0.119141735, 0.12004442, -1307434.6, 35470.36, 0.0004029895, 9.999572, 10.000262 
1.644864e+3, 1.7296858e+2, -1355023.3, -1217971.3, -66280.32, 0.09162247, -0.063062705, -1191161.5, 53746.6, 0.0000070009137, 9.998782, 10.000611 
1.644904e+3, 1.8296768e+2, -1442889.6, -1398867.9, -112938.89, 0.059905082, -0.122589245, -1305815.0, -158902.13, 0.0, 9.998333, 9.998901 
1.6449434e+3, 1.9296746e+2, -1239687.6, -1265198.8, -74371.74, 0.01264244, -0.045322075, -1176985.5, -128067.2, 0.0, 9.999131, 9.998754 
1.6449828e+3, 2.0296687e+2, -1065919.9, -1161807.0, -41425.17, 0.020862827, 0.05339467, -1050502.4, -99575.93, 0.0, 9.999763, 9.998501 
1.6450232e+3, 2.1296579e+2, -904795.6, -1005332.94, -50987.066, 0.1299714, 0.054173756, -883463.9, -30526.297, 0.0, 10.000094, 9.99873 
1.6450629e+3, 2.229644e+2, -792798.94, -918045.56, 7593.1074, 0.15322563, 0.070080966, -792340.25, -37389.28, 0.0, 10.000243, 9.998606 
1.6451019e+3, 2.3296253e+2, -705088.75, -795788.4, 9572.928, -0.0018295973, -0.019613154, -704089.4, -47121.555, 0.0, 10.000057, 9.998855 
1.6451405e+3, 2.4296096e+2, -596191.25, -648064.9, -80344.18, -0.101368114, -0.059966587, -537701.1, 21279.783, 0.0, 9.999936, 9.9992485 
1.645178e+3, 2.5295997e+2, -465342.66, -501307.47, -153028.13, -0.10123891, -0.13173904, -329244.0, 131741.97, 0.000000005166704, 10.000021, 9.999547 
1.6452175e+3, 2.6295862e+2, -471158.56, -607730.3, -28367.127, -0.05106233, -0.14168933, -465500.84, -102503.32, 0.000005473011, 9.999975, 9.9981575 
1.6452603e+3, 2.7295688e+2, -390377.84, -526957.44, 10875.814, 0.049808737, -0.1527076, -389517.22, -124497.48, 0.000058881178, 9.999912, 9.998057 
1.6453016e+3, 2.8295615e+2, -167231.16, -209628.61, -47411.82, 0.06169279, -0.0670634, -136494.67, 30534.379, 0.0003079229, 10.000064, 9.999515 
1.6453399e+3, 2.9295722e+2, 10983.088, -1897.9634, -123480.23, -0.04454043, 0.0030621379, 128190.64, 197205.23, 0.0009851714, 10.000317, 10.000134 
1.6453809e+3, 3.0295527e+2, -36738.07, -270754.84, -67092.35, 0.07295121, -0.08023007, -18867.451, -18867.451, 0.0021641257, 10.000787, 9.997752 
1.6454224e+3, 3.129544e+2, 121179.805, -85020.01, -52924.387, 0.1633159, 0.04768856, 133970.28, 133970.28, 0.003669242, 10.001389, 9.998718 
1.6546617e+3, 1.2292558e+2, -1880691.3, -1673654.9, 27409.656, 0.18947774, -0.1678235, -1670087.6, 65236.496, 0.03897044, 9.9982815, 10.0011 
1.6547012e+3, 1.3292684e+2, -2012822.1, -1831619.1, 30222.31, -0.025210943, -0.047521174, -1826711.4, -189393.31, 0.024272982, 9.997376, 9.999771 
1.6547427e+3, 1.4292775e+2, -1914156.9, -1684463.4, -80476.7, 0.06331037, 0.06745977, -1659073.6, -119759.945, 0.0114189135, 9.997136, 10.000229 
1.6547829e+3, 1.529285e+2, -1556867.8, -1432109.5, -23720.834, 0.10098979, 0.071117155, -1427751.6, 13554.563, 0.0034161112, 9.998798, 10.00048 
1.6548234e+3, 1.6292848e+2, -1421718.8, -1474164.6, -43003.13, 0.12953845, 0.09725238, -1397573.9, -54267.31, 0.00045137366, 9.9997225, 9.999079 
1.6548626e+3, 1.7292774e+2, -1469410.9, -1453631.8, -91978.1, 0.06643309, 0.1019309, -1369205.5, -123889.83, 0.000008273259, 9.998778, 9.998992 
1.6549022e+3, 1.8292707e+2, -1371865.1, -1261729.9, -107078.07, 0.026496192, 0.12624325, -1196389.3, -49067.23, 0.0, 9.9983635, 9.999834 
1.6549432e+3, 1.9292675e+2, -1136786.0, -1039919.1, -35061.355, 0.07649028, 0.042875316, -1028560.5, 20760.736, 0.0, 9.999067, 10.000338 
1.6549836e+3, 2.0292597e+2, -1055699.0, -1110569.6, -37352.28, 0.09048211, 0.009354872, -1036789.0, -85463.266, 0.0, 9.999636, 9.998913 
1.6550227e+3, 2.1292438e+2, -920602.5, -998273.0, -29059.932, 0.045148507, -0.057478197, -910933.56, -57593.047, 0.0, 9.999925, 9.998859 
1.6550618e+3, 2.2292319e+2, -812330.8, -916409.44, -9780.647, 0.01175715, -0.03496118, -811419.6, -56067.465, 0.0, 10.00006, 9.998706 
1.6551022e+3, 2.3292308e+2, -724589.44, -796717.06, 16263.832, 0.013828538, 0.043515943, -721091.75, -63736.902, 0.0, 9.999883, 9.998936 
1.6551414e+3, 2.4292234e+2, -683827.5, -783816.56, -85282.53, -0.024374137, 0.116929606, -634965.75, -75603.36, 0.0, 9.999742, 9.998407 
1.6551782e+3, 2.5292015e+2, -564083.2, -667731.0, -134916.67, -0.10160717, 0.02568555, -471379.5, -9998.443, 0.00000000856411, 9.999867, 9.998468 
1.6552173e+3, 2.62918e+2, -468675.75, -575465.1, -42473.32, -0.090700075, -0.014730204, -453843.06, -90442.05, 0.0000057188686, 9.999846, 9.998446 
1.6552606e+3, 2.729164e+2, -360656.88, -436978.25, 26092.564, 0.06618012, -0.06989959, -352589.22, -87170.836, 0.00005720022, 9.999778, 9.998745 
1.6553022e+3, 2.829156e+2, -250508.97, -329628.7, -53797.496, 0.105163395, -0.006948991, -223291.94, -55864.293, 0.0002952708, 9.999832, 9.998802 
1.6553406e+3, 2.9291573e+2, -89347.36, -172786.19, -89053.49, -0.024183867, 0.06775212, -32725.357, 36700.848, 0.0009504649, 10.000142, 9.999048 
1.6553815e+3, 3.0291316e+2, -24996.95, -170393.38, -59574.383, 0.04238273, -0.042582087, -3705.0715, -3705.0715, 0.002096841, 10.000487, 9.998577 
1.6554227e+3, 3.1291154e+2, 193759.27, 163072.47, 19934.518, 0.0032498834, -0.12505956, 203571.48, 203571.48, 0.0035553107, 10.000968, 10.000632 
1.6646606e+3, 1.2288424e+2, -2052993.1, -1761225.9, -98904.0, 0.3243382, -0.23880295, -1730859.6, 4868.784, 0.041736465, 9.997112, 10.001052 
1.6646996e+3, 1.3288558e+2, -1870027.1, -1829371.6, 3547.0217, 0.023438545, -0.06014803, -1829064.5, -191340.69, 0.026087236, 9.998621, 9.99919 
1.6647404e+3, 1.4288692e+2, -1649541.0, -1553852.3, -37656.883, 0.06045809, 0.13492317, -1540810.5, -1094.5657, 0.012349877, 9.998963, 10.000229 
1.6647817e+3, 1.52887e+2, -1595794.5, -1420164.8, -39779.016, 0.1307303, 0.052964438, -1411575.1, 30137.043, 0.003737191, 9.998427, 10.000723 
1.6648227e+3, 1.6288675e+2, -1660432.3, -1603723.3, -50504.93, 0.18223864, 0.046541832, -1574157.8, -230443.8, 0.00050616945, 9.998171, 9.998926 
1.6648617e+3, 1.7288636e+2, -1463990.4, -1479281.1, -28793.34, 0.101111494, 0.10891629, -1441844.6, -196122.95, 0.000009797576, 9.99894, 9.998734 
1.6649014e+3, 1.8288593e+2, -1230016.5, -1191642.9, 32098.95, 0.07097899, 0.16986297, -1173433.5, -25706.148, 0.0, 9.999337, 9.999841 
1.6649431e+3, 1.9288562e+2, -1078564.6, -997320.8, -23342.613, 0.1445767, 0.08032991, -991091.7, 58634.355, 0.0, 9.999422, 10.000445 
1.6649836e+3, 2.028849e+2, -1060049.5, -1064167.0, -82610.67, 0.16467324, 0.027610173, -979471.9, -27742.467, 0.0, 9.999396, 9.999349 
1.6650222e+3, 2.1288344e+2, -976109.25, -967419.7, -71179.48, 0.06334875, -0.07486059, -900452.5, -46711.47, 0.0, 9.999287, 9.999385 
1.6650614e+3, 2.2288243e+2, -891767.7, -934656.06, -3562.6748, 0.006439365, -0.071861394, -891473.8, -135723.89, 0.0, 9.999435, 9.99887 
1.6651022e+3, 2.328827e+2, -662264.8, -754404.06, -5480.22, 0.031338222, 0.03244413, -661940.0, -4190.2173, 0.0, 10.000266, 9.999024 
1.665142e+3, 2.4288201e+2, -517907.3, -751775.56, -73006.586, 0.022966314, 0.123892486, -496988.06, 62769.508, 0.0, 10.001056, 9.99802 
1.6651794e+3, 2.5287932e+2, -332392.34, -608967.06, -101964.36, -0.039995402, 0.030323274, -298865.47, 162917.27, 0.0000000057748837, 10.00167, 9.99802 
1.6652185e+3, 2.6287702e+2, -199596.69, -443856.56, 6062.069, -0.031193253, 0.0042886846, -199446.34, 164358.08, 0.0000055479773, 10.001691, 9.998461 
1.6652608e+3, 2.7287602e+2, -243932.89, -382108.7, -1235.8147, 0.068203144, 0.0027599214, -243921.83, 21892.965, 0.000055377644, 10.000556, 9.998767 
1.665302e+3, 2.8287506e+2, -254907.23, -362235.6, -33850.203, 0.10599636, 0.061461724, -245123.17, -77297.95, 0.00028510438, 9.999936, 9.998513 
1.6653416e+3, 2.9287404e+2, -79813.89, -210321.98, -64912.703, 0.064337686, 0.056027245, -53025.832, 16810.918, 0.0009269267, 10.000421, 9.998634 
1.6653831e+3, 3.028715e+2, 41677.49, -137007.02, 7622.7603, 0.15066266, -0.023699017, 42002.09, 42002.09, 0.0020627275, 10.000938, 9.998578 
1.6654237e+3, 3.128706e+2, 249394.92, 239863.92, -57068.184, 0.014728078, -0.046151716, 301896.22, 301896.22, 0.0035148177, 10.001152, 10.001054 
1.6746569e+3, 1.2284554e+2, -2029939.4, -1725771.4, -94232.13, 0.18668313, 0.08675811, -1698944.1, 37177.57, 0.044670317, 9.997153, 10.0012865 
1.6746993e+3, 1.328466e+2, -1817841.5, -1744306.1, 54458.56, 0.11254318, 0.17769885, -1715365.4, -77252.766, 0.028026333, 9.998708, 9.99974 
1.6747384e+3, 1.4284606e+2, -1651529.8, -1586179.3, -64978.543, -0.079250865, 0.16577467, -1546122.9, -6004.989, 0.013357116, 9.999085, 9.999947 
1.6747797e+3, 1.5284511e+2, -1629465.6, -1487532.4, -52260.426, 0.06261184, 0.020156477, -1470366.1, -28242.18, 0.004090086, 9.998414, 10.000269 
1.6748208e+3, 1.628444e+2, -1589796.0, -1470504.0, -45924.965, 0.1544138, -0.038618512, -1454872.3, -110744.32, 0.0005678562, 9.998221, 9.999822 
1.6748607e+3, 1.7284447e+2, -1383788.1, -1305259.6, 10039.852, 0.103253886, -0.044275504, -1303996.4, -57870.523, 0.000011659807, 9.998908, 9.999948 
1.674901e+3, 1.8284437e+2, -1286036.6, -1321561.6, 28173.875, 0.072525516, 0.012359238, -1270493.4, -122366.46, 0.0, 9.999387, 9.998931 
1.6749424e+3, 1.9284405e+2, -1192519.0, -1220455.8, -12635.449, 0.117055796, 0.064760484, -1187652.0, -137518.98, 0.0, 9.999359, 9.998949 
1.6749829e+3, 2.0284358e+2, -1037489.25, -1001634.94, -98097.84, 0.1332776, 0.10852097, -919839.6, 32298.766, 0.0, 9.99932, 9.999818 
1.6750218e+3, 2.1284288e+2, -932290.94, -843311.5, -64080.94, 0.08374673, -0.008240865, -809790.3, 44349.938, 0.0, 9.99913, 10.0003195 
1.6750611e+3, 2.2284213e+2, -914576.06, -926104.8, 10821.285, 0.01780927, -0.043520823, -908079.56, -151935.23, 0.0, 9.999197, 9.999039 
1.675102e+3, 2.3284142e+2, -694970.06, -778247.9, 36824.973, -0.047126636, -0.03587635, -681022.3, -22869.844, 0.0, 10.000074, 9.998952 
1.6751422e+3, 2.4284002e+2, -545431.3, -753650.06, -60889.188, -0.075606085, -0.015773397, -528932.8, 31233.775, 0.0, 10.000817, 9.99812 
1.6751814e+3, 2.5283754e+2, -355717.4, -604303.2, -63939.793, -0.021293629, -0.10134675, -340235.4, 121954.98, 0.0000000017385277, 10.001437, 9.998164 
1.6752207e+3, 2.628358e+2, -260471.58, -509908.03, -33786.5, 0.002404281, -0.07041773, -255976.16, 108231.27, 0.0000048816705, 10.001429, 9.9981365 
1.6752602e+3, 2.7283564e+2, -297297.13, -461391.38, -23020.496, -0.045883745, 0.05440099, -294128.78, -27918.057, 0.000051551386, 10.000414, 9.998295 
1.6753004e+3, 2.8283447e+2, -289832.44, -394820.3, -35426.19, -0.05931584, 0.1307085, -278996.88, -110773.766, 0.0002714196, 9.999762, 9.998379 
1.6753425e+3, 2.928318e+2, -92680.4, -211037.58, -20923.87, 0.0825675, -0.03611101, -89090.26, -18841.283, 0.0008993855, 10.000283, 9.998708 
1.675385e+3, 3.0283e+2, -59809.59, -265335.6, 4429.3086, 0.23625, -0.02664192, -59714.176, -59714.176, 0.0020323566, 10.000613, 9.997843 
1.6754244e+3, 3.1283063e+2, 129899.55, 73280.98, -853.16174, -0.074283354, 0.19803253, 129912.4, 129912.4, 0.0035035976, 10.000821, 10.000053 
1.684654e+3, 1.2280559e+2, -1908725.6, -1650619.4, -27581.807, 0.1739854, 0.30837274, -1647704.9, 88814.56, 0.04776628, 9.997912, 10.001446 
1.6846983e+3, 1.3280515e+2, -1894396.4, -1718920.9, 51390.73, 0.18183663, 0.19684644, -1704978.1, -66457.1, 0.030093629, 9.997941, 10.000271 
1.6847374e+3, 1.4280443e+2, -1791357.1, -1633634.5, -59182.52, -0.026895823, 0.123654015, -1613897.3, -73371.4, 0.0144471, 9.998025, 10.000139 
1.6847782e+3, 1.528041e+2, -1660020.6, -1489541.0, -40490.242, 0.0946928, 0.029743474, -1480413.0, -37887.117, 0.004479329, 9.998141, 10.000396 
1.684819e+3, 1.6280378e+2, -1558051.0, -1416101.4, 38731.277, 0.16408919, -0.011281487, -1406221.1, -61695.434, 0.0006375465, 9.998278, 10.000165 
1.6848598e+3, 1.7280358e+2, -1298518.8, -1212122.6, 27467.69, 0.12285059, -0.09044217, -1204129.5, 42394.176, 0.00001399049, 9.999277, 10.000399 
1.6849008e+3, 1.8280324e+2, -1273219.4, -1350088.6, 4858.211, 0.10794721, -0.07387981, -1272913.5, -124387.67, 0.0, 9.999639, 9.998608 
1.6849414e+3, 1.9280286e+2, -1311037.1, -1342168.9, 2124.9097, 0.12286265, 0.02477379, -1310892.8, -260357.22, 0.0, 9.998821, 9.998378 
1.6849817e+3, 2.0280229e+2, -1187211.1, -1098499.3, -20226.02, 0.13372123, 0.1054523, -1094105.4, -141561.42, 0.0, 9.998404, 9.999595 
1.685021e+3, 2.1280187e+2, -952783.0, -859060.94, -86862.22, 0.12421158, 0.027222438, -807225.5, 47318.78, 0.0, 9.999035, 10.000247 
1.6850609e+3, 2.2280127e+2, -864375.6, -892390.94, -33646.492, 0.08408405, 0.007833258, -841937.44, -85390.12, 0.0, 9.999474, 9.99916 
1.6851017e+3, 2.3280029e+2, -792383.6, -803962.4, -5727.0854, -0.024986578, -0.02478207, -790029.56, -131473.03, 0.0, 9.999296, 9.99917 
1.685142e+3, 2.4279898e+2, -750503.06, -801607.6, -57151.797, -0.079065256, -0.028418206, -713451.44, -152882.56, 0.0, 9.999201, 9.998552 
1.6851816e+3, 2.5279722e+2, -617815.8, -685389.7, -70577.55, -0.034318272, -0.090530425, -573354.75, -110769.26, 0.0000000018399801, 9.999431, 9.998571 
1.6852212e+3, 2.6279572e+2, -503152.66, -635081.06, -10490.506, 0.0007744583, -0.05664586, -502323.7, -137724.19, 0.0000039092515, 9.999799, 9.998063 
1.685261e+3, 2.7279475e+2, -278031.03, -461010.3, -14446.392, -0.006695173, 0.0057318634, -276897.5, -10288.644, 0.000046409757, 10.000631, 9.998171 
1.6853012e+3, 2.8279278e+2, -95787.36, -361835.72, 18491.643, -0.01087088, 0.03232852, -94508.25, 74119.82, 0.00025645504, 10.001341, 9.99786 
1.685343e+3, 2.9278982e+2, 66129.35, -196812.73, -38864.52, 0.05040914, -0.10374229, 71753.484, 142411.81, 0.000866263, 10.001642, 9.998159 
1.6853857e+3, 3.0278853e+2, 93787.48, -236871.64, -6277.187, 0.19993986, -0.00006093961, 93906.6, 93906.6, 0.0019892203, 10.001822, 9.997483 
1.6854265e+3, 3.1278825e+2, 158804.27, -8142.5493, -29208.156, 0.05353019, 0.1916657, 163766.86, 163766.86, 0.0034767648, 10.001369, 9.999278 
1.6946514e+3, 1.2276256e+2, -1883866.8, -1632486.8, -14606.005, 0.057307657, 0.21877223, -1631640.9, 105297.57, 0.051028147, 9.998039, 10.001525 
1.6946955e+3, 1.3276081e+2, -1874110.0, -1663782.4, 63467.14, 0.09898116, -0.06038344, -1646115.0, -7161.8887, 0.032295942, 9.997882, 10.000681 
1.6947371e+3, 1.4276195e+2, -1732460.9, -1526458.4, -62022.965, 0.105063096, -0.004154362, -1509226.0, 31713.879, 0.015627254, 9.998078, 10.000858 
1.6947769e+3, 1.5276435e+2, -1608401.9, -1388846.5, -25590.818, 0.13001302, 0.10477245, -1385903.1, 57012.063, 0.004910431, 9.998162, 10.001082 
1.6948168e+3, 1.6276516e+2, -1555300.1, -1428217.0, 53837.875, 0.08588191, 0.14102705, -1408475.6, -63570.67, 0.0007170378, 9.998351, 10.000046 
1.6948588e+3, 1.7276384e+2, -1327910.3, -1270562.3, 76517.43, 0.061791744, -0.014043922, -1217522.6, 29390.96, 0.000016975888, 9.999264, 10.000003 
1.6949001e+3, 1.8276267e+2, -1246759.5, -1312373.1, -27179.73, 0.059150275, -0.067945965, -1236963.3, -88040.055, 0.0, 9.999703, 9.998838 
1.6949397e+3, 1.9276194e+2, -1293874.9, -1290662.3, -23900.727, 0.056717444, -0.03907443, -1268313.9, -217379.78, 0.0, 9.998749, 9.998767 
1.6949794e+3, 2.0276111e+2, -1276171.0, -1243279.8, -21688.94, 0.053037044, 0.025415257, -1232506.5, -279561.16, 0.0, 9.998233, 9.998685 
1.6950199e+3, 2.1276036e+2, -1064773.3, -1059844.1, -50589.96, 0.07960733, 0.039771803, -1011658.75, -156705.17, 0.0, 9.998888, 9.998946 
1.6950604e+3, 2.2275972e+2, -879913.94, -876059.75, -45455.063, 0.07428112, 0.08607617, -832490.94, -75530.984, 0.0, 9.999271, 9.999365 
1.6951013e+3, 2.3275933e+2, -784786.4, -734480.7, 3213.9143, -0.008093105, 0.056108505, -734276.2, -75314.336, 0.0, 9.999068, 9.999754 
1.6951412e+3, 2.4275874e+2, -748179.44, -731460.0, -61287.03, -0.10081632, 0.06501253, -677965.2, -116999.55, 0.0, 9.998922, 9.99917 
1.6951796e+3, 2.5275803e+2, -597624.06, -603871.7, -47403.23, -0.16865006, 0.04805779, -553241.8, -90271.266, 0.0000000033657745, 9.999261, 9.999214 
1.6952196e+3, 2.627565e+2, -525720.56, -632036.9, 4575.3677, -0.15334609, 0.036089484, -525524.0, -160541.22, 0.0000030031388, 9.999588, 9.998183 
1.6952625e+3, 2.7275318e+2, -306104.56, -476429.78, 32761.326, 0.061808046, -0.13941227, -300020.4, -33009.297, 0.000041455987, 10.000447, 9.998154 
1.695304e+3, 2.8274986e+2, -194427.94, -506974.2, 20146.338, 0.10839421, -0.21993707, -193134.67, -24092.428, 0.00024337543, 10.001084, 9.996989 
1.6953428e+3, 2.9274756e+2, -39043.863, -371083.6, -6209.621, -0.14406571, -0.17434734, -38927.777, 32141.756, 0.00083297, 10.001438, 9.997068 
1.6953848e+3, 3.0274653e+2, 34347.813, -271885.3, -22604.498, -0.07665673, 0.022173895, 36007.363, 36007.363, 0.0019296512, 10.001468, 9.997402 
1.6954291e+3, 3.1274435e+2, 69887.31, -81982.44, 9852.673, 0.130033, 0.00438806, 70523.85, 70523.85, 0.0034045347, 10.0009165, 9.998972 
1.7046487e+3, 1.22720055e+2, -2093274.5, -1796265.9, 59008.863, 0.06328231, 0.100544475, -1784971.6, -47621.81, 0.054460447, 9.996896, 10.000919 
1.7046927e+3, 1.3271901e+2, -1955847.5, -1681549.8, 102044.586, 0.090822086, -0.10793002, -1647751.5, -8391.396, 0.034638863, 9.99723, 10.000874 
1.7047353e+3, 1.4272067e+2, -1789712.5, -1524769.1, -29567.482, 0.16681083, -0.024845539, -1521509.6, 19833.637, 0.016903277, 9.997593, 10.001095 
1.7047751e+3, 1.5272357e+2, -1698750.8, -1410959.0, -69667.086, 0.19755046, 0.1163275, -1394981.5, 48332.414, 0.00538814, 9.997472, 10.00125 
1.7048153e+3, 1.6272457e+2, -1682184.3, -1501023.9, 33600.06, 0.15228653, 0.16267902, -1494992.9, -149690.22, 0.0008082668, 9.9975195, 9.9999485 
1.7048578e+3, 1.7272314e+2, -1475249.8, -1357641.6, 62333.43, 0.10158308, 0.0144387465, -1330752.3, -83438.57, 0.000020835996, 9.998313, 9.999872 
1.7048998e+3, 1.8272199e+2, -1341947.8, -1345722.3, -38012.88, 0.093947016, -0.032210987, -1305775.4, -156451.45, 0.0, 9.998991, 9.998964 
1.7049393e+3, 1.9272135e+2, -1133847.9, -1192651.8, -79993.63, 0.1088217, -0.012773546, -1078023.9, -26691.143, 0.0, 9.999744, 9.998972 
1.7049791e+3, 2.0272043e+2, -1004172.75, -1130154.3, -29401.215, 0.115113676, 0.03557167, -997649.0, -44304.836, 0.0, 10.000179, 9.998512 
1.7050195e+3, 2.1271922e+2, -910798.56, -1017072.06, -3986.454, 0.099858046, 0.028978182, -910649.2, -55292.344, 0.0, 10.00009, 9.998652 
1.7050599e+3, 2.2271828e+2, -795565.06, -836777.44, 40603.645, 0.07300521, 0.06484491, -770638.06, -13271.998, 0.0, 9.999864, 9.999343 
1.7051005e+3, 2.3271818e+2, -737755.7, -701263.25, 16031.5205, 0.009476726, 0.05539019, -695220.94, -35855.39, 0.0, 9.999357, 9.999834 
1.7051405e+3, 2.4271785e+2, -710019.0, -712637.44, -38180.97, -0.05724008, 0.086313, -673124.8, -111757.73, 0.0, 9.999184, 9.999179 
1.7051795e+3, 2.527171e+2, -514829.63, -554855.7, -87334.6, -0.12022402, 0.067445934, -445244.38, 18127.895, 0.0000000026261497, 9.999813, 9.999276 
1.70522e+3, 2.6271552e+2, -404890.88, -561239.2, -37039.926, -0.09414372, 0.038794156, -396559.8, -31174.623, 0.0000021613648, 10.000344, 9.998311 
1.705263e+3, 2.7271217e+2, -279172.44, -446333.28, -23972.564, 0.07690457, -0.15452904, -275802.47, -8389.492, 0.000036656253, 10.000542, 9.99832 
1.7053047e+3, 2.827091e+2, -236962.02, -498034.84, 25449.389, 0.108852215, -0.22603348, -234504.34, -65063.78, 0.00022921336, 10.000678, 9.997237 
1.7053442e+3, 2.9270735e+2, -106920.4, -374987.2, 57691.33, -0.106299795, -0.14934242, -95031.76, -23569.664, 0.0007930789, 10.000862, 9.997314 
1.7053866e+3, 3.0270642e+2, 12726.876, -278201.72, 122964.23, -0.020478794, 0.036779486, 57735.84, 57735.84, 0.0018420495, 10.0012865, 9.997441 
1.7054294e+3, 3.1270376e+2, 136517.28, -113347.016, 64419.273, 0.06540586, -0.017181085, 152147.88, 152147.88, 0.0032650803, 10.001658, 9.998376 
1.7146462e+3, 1.22678794e+2, -2189590.5, -2001253.4, -57028.58, 0.062418632, -0.0053389464, -1985331.3, -247585.0, 0.058051143, 9.996911, 9.999507 
1.7146899e+3, 1.3268074e+2, -1971234.6, -1703775.9, 146905.73, 0.06956608, 0.13180672, -1638847.6, 884.96313, 0.037118543, 9.997192, 10.000739 
1.7147316e+3, 1.4268096e+2, -1791562.9, -1556645.3, -39713.56, -0.0010984767, 0.08556778, -1550113.3, -8380.8545, 0.018276531, 9.997699, 10.000829 
1.7147727e+3, 1.5268159e+2, -1735392.1, -1484940.3, -63404.508, 0.18194214, 0.046244387, -1469803.6, -26079.732, 0.005915651, 9.997456, 10.0007515 
1.7148142e+3, 1.626818e+2, -1679334.3, -1499386.3, 39081.836, 0.2568642, 0.045781467, -1491264.9, -145544.63, 0.0009130136, 9.997542, 9.999943 
1.7148566e+3, 1.7268158e+2, -1470574.1, -1338083.5, 100993.305, 0.14918596, -0.0011245235, -1283547.6, -35824.42, 0.000025810483, 9.998277, 10.000018 
1.714899e+3, 1.826813e+2, -1339333.3, -1344016.6, -20157.438, 0.09505152, 0.033502784, -1321382.0, -171654.75, 0.0, 9.999001, 9.998973 
1.7149399e+3, 1.9268113e+2, -1142677.4, -1196990.8, -40497.03, 0.17705543, 0.099478275, -1121074.5, -69343.37, 0.0, 9.999682, 9.998973 
1.7149803e+3, 2.0268035e+2, -981364.8, -1058857.9, -37188.895, 0.19719397, 0.13955095, -966405.56, -12666.054, 0.0, 10.000076, 9.999052 
1.7150195e+3, 2.1267834e+2, -888672.0, -927164.2, 2045.85, 0.08593969, -0.014348245, -888563.6, -32808.387, 0.0, 9.999899, 9.999362 
1.715059e+3, 2.2267681e+2, -847801.8, -891217.44, 14328.852, -0.016448095, -0.071442604, -843499.2, -85731.76, 0.0, 9.999623, 9.999091 
1.715099e+3, 2.3267679e+2, -799005.56, -793380.2, 10486.457, -0.07591668, -0.020267738, -785335.75, -125567.57, 0.0, 9.999193, 9.9992895 
1.7151396e+3, 2.4267623e+2, -780993.25, -805242.75, -35511.035, -0.096150145, 0.0403219, -755594.06, -193820.1, 0.0, 9.998957, 9.998648 
1.7151807e+3, 2.526744e+2, -582167.9, -653909.75, -47120.047, 0.00010070316, -0.0360407, -558818.7, -95027.15, 0.0000000000058928205, 9.999633, 9.998685 
1.7152219e+3, 2.6267257e+2, -427285.44, -554519.8, -37667.375, 0.04736458, -0.05317288, -416970.38, -51162.29, 0.0000014626683, 10.000125, 9.998461 
1.7152624e+3, 2.7267146e+2, -283782.75, -404830.34, -2944.8438, -0.056255776, -0.058586635, -283711.16, -15894.815, 0.000032258973, 10.000323, 9.998711 
1.7153032e+3, 2.826702e+2, -200078.83, -355972.94, 18071.557, -0.1255325, -0.017700247, -198011.36, -28184.95, 0.00021422842, 10.000396, 9.99835 
1.7153463e+3, 2.9266888e+2, -40945.137, -185728.5, 87177.33, 0.0011094103, -0.03719989, -21.142258, 71817.875, 0.0007459909, 10.000636, 9.998721 
1.7153902e+3, 3.026677e+2, -49775.875, -323246.4, 119218.9, 0.1967093, 0.03974882, -5100.8945, -5100.8945, 0.0017319225, 10.000941, 9.997293 
1.7154278e+3, 3.126655e+2, -2860.9858, -261317.58, 115318.23, -0.31512946, 0.0838778, 41110.734, 41110.734, 0.0030778677, 10.001091, 9.997619 
1.7246437e+3, 1.22636504e+2, -1898636.0, -1937955.6, -151201.75, 0.018797135, -0.06546574, -1765821.3, -27664.54, 0.06177432, 9.999239, 9.998813 
1.7246886e+3, 1.326393e+2, -1811443.8, -1581819.3, 64933.383, 0.19226673, 0.11653622, -1564729.3, 75406.4, 0.039721623, 9.998082, 10.001154 
1.7247286e+3, 1.4264025e+2, -1929999.0, -1662264.8, -46526.043, -0.0038922753, 0.13224363, -1654410.0, -112281.55, 0.019743169, 9.996897, 10.0005 
1.7247705e+3, 1.526394e+2, -1651074.6, -1491058.0, -85786.586, 0.18938512, -0.011017444, -1453760.4, -9625.212, 0.006494274, 9.99821, 10.000364 
1.7248125e+3, 1.6263908e+2, -1503044.3, -1434901.0, 27886.14, 0.2987445, -0.03242333, -1424944.0, -78805.74, 0.001032908, 9.99884, 9.999768 
1.7248553e+3, 1.726397e+2, -1501713.0, -1362698.9, 40801.105, 0.20967226, 0.016438734, -1351608.4, -103472.89, 0.00003215152, 9.998104, 9.999936 
1.7248979e+3, 1.8264003e+2, -1479222.5, -1346075.3, -22882.092, 0.17421782, 0.09515611, -1342252.5, -192117.94, 0.0, 9.997764, 9.999549 
1.7249396e+3, 1.9264017e+2, -1180560.1, -1123942.4, -379.46317, 0.22448796, 0.115141116, -1123939.8, -71806.4, 0.0, 9.99904, 9.999776 
1.7249803e+3, 2.0263968e+2, -1005098.6, -1046065.7, 12496.798, 0.21856087, 0.12701078, -1001587.5, -47450.402, 0.0, 9.999805, 9.999282 
1.7250189e+3, 2.1263789e+2, -950651.94, -953193.4, -26723.803, 0.07784471, -0.00883409, -925168.7, -69018.1, 0.0, 9.999448, 9.999413 
1.7250581e+3, 2.2263637e+2, -927873.5, -948301.44, -14672.65, -0.021032153, -0.06182433, -920209.8, -162046.75, 0.0, 9.999176, 9.998899 
1.7250986e+3, 2.3263587e+2, -791225.9, -818303.94, -27579.424, -0.039072767, -0.031361464, -774041.44, -113872.734, 0.0, 9.999399, 9.999001 
1.7251395e+3, 2.4263488e+2, -684181.1, -793832.75, -10092.818, -0.02420847, 0.016697956, -683259.9, -121080.72, 0.0, 9.99977, 9.998326 
1.7251812e+3, 2.5263298e+2, -493762.9, -639015.44, -18203.986, 0.058140885, -0.036985382, -491516.22, -27318.219, 0.0000000000049057277, 10.000374, 9.998414 
1.7252226e+3, 2.626312e+2, -358849.0, -532679.25, -2498.2473, 0.099886395, -0.030705886, -358813.13, 7401.993, 0.0000011502509, 10.000649, 9.998355 
1.725263e+3, 2.7263016e+2, -331733.44, -437737.22, -35252.58, 0.010633829, -0.016814506, -321080.44, -52856.3, 0.000029351942, 10.000034, 9.998624 
1.7253037e+3, 2.826293e+2, -277796.47, -351183.34, -7498.5195, -0.064454496, 0.05330932, -277038.13, -106806.875, 0.00020332959, 9.999684, 9.998719 
1.7253463e+3, 2.926285e+2, -70050.54, -149045.44, -34374.836, -0.022869824, 0.04480847, -57186.957, 15050.313, 0.0007056686, 10.000234, 9.999157 
1.7253909e+3, 3.0262688e+2, -18703.203, -263093.8, 1152.4113, 0.18618092, 0.041579254, -18697.77, -18697.77, 0.001634867, 10.000925, 9.997738 
1.7254302e+3, 3.126251e+2, 53882.918, -186741.02, -4416.487, -0.16031964, 0.08732416, 53963.95, 53963.95, 0.0029108385, 10.001187, 9.998136 
1.7346396e+3, 1.22593224e+2, -1869772.4, -1915801.6, -108791.516, -0.39260858, -0.07457538, -1781587.8, -43006.055, 0.06561491, 9.999408, 9.998877 
1.7346884e+3, 1.3259405e+2, -1748319.9, -1456670.3, -10136.582, 0.34515822, -0.20892762, -1456318.4, 184257.08, 0.042436883, 9.998079, 10.002052 
1.7347264e+3, 1.4259802e+2, -1954305.1, -1715497.3, -45660.035, 0.041476946, 0.087154806, -1707064.9, -164528.78, 0.021297567, 9.99691, 10.000124 
1.734768e+3, 1.5259701e+2, -1666970.1, -1528523.3, -24202.633, 0.10042697, -0.04759031, -1524414.3, -79866.59, 0.0071235094, 9.998236, 10.00009 
1.73481e+3, 1.6259651e+2, -1502353.1, -1471484.1, 2960.0925, 0.13501213, -0.05890443, -1471202.9, -124647.48, 0.0011691477, 9.998986, 9.999454 
1.7348534e+3, 1.725975e+2, -1523906.6, -1418569.0, 16692.002, 0.18937474, 0.06395182, -1415987.3, -167436.72, 0.00004011834, 9.998131, 9.999546 
1.7348963e+3, 1.8259817e+2, -1399997.0, -1186111.3, -8565.353, 0.21653362, 0.15865026, -1185768.8, -35222.613, 0.0, 9.997783, 10.000639 
1.734938e+3, 1.9259834e+2, -1088827.0, -907495.06, 56774.96, 0.14889947, 0.030360263, -891185.75, 161354.73, 0.0, 9.998926, 10.001317 
1.7349787e+3, 2.0259832e+2, -1029527.0, -1065787.5, -556.78986, 0.06196107, -0.0042297333, -1029518.44, -74980.5, 0.0, 9.999668, 9.999213 
1.7350173e+3, 2.1259794e+2, -1012321.94, -1050604.8, -31230.074, -0.03327469, 0.04989798, -994833.94, -138291.56, 0.0, 9.99931, 9.998812 
1.735057e+3, 2.2259699e+2, -975149.56, -997130.7, -23252.908, -0.080137014, 0.10260193, -960420.7, -201868.56, 0.0, 9.998967, 9.998662 
1.7350985e+3, 2.3259515e+2, -821664.3, -843258.1, -6011.0728, 0.0063711926, 0.0069681746, -820103.75, -159534.25, 0.0, 9.999228, 9.998913 
1.7351401e+3, 2.4259351e+2, -725634.25, -819397.0, -1152.7266, 0.040064085, -0.001765493, -725620.06, -163034.98, 0.0, 9.99952, 9.99827 
1.7351806e+3, 2.5259268e+2, -524293.6, -654091.25, 20147.068, -0.047093417, 0.056709018, -521238.34, -56645.29, 0.000000000000012544113, 10.000173, 9.998407 
1.7352219e+3, 2.6259112e+2, -422243.78, -606181.2, -24969.65, -0.05041956, 0.09655278, -418914.4, -52305.77, 0.0000010511417, 10.0004015, 9.997969 
1.7352644e+3, 2.7258834e+2, -397417.47, -526050.9, -41286.31, 0.13822101, -0.01701029, -385306.47, -116670.29, 0.000029114979, 9.999835, 9.998109 
1.7353055e+3, 2.825865e+2, -348555.7, -445151.25, -13097.052, 0.13432914, 0.004653732, -346811.4, -176156.69, 0.00019954766, 9.999454, 9.998189 
1.7353442e+3, 2.9258612e+2, -148551.02, -249542.0, 11920.881, -0.2695772, 0.08483946, -147162.97, -74504.945, 0.00068418466, 9.999965, 9.998598 
1.7353885e+3, 3.0258408e+2, -14999.775, -165620.33, 4208.745, -0.17656189, 0.046479017, -14882.263, -14882.263, 0.0015842997, 10.000563, 9.998567 
1.7354354e+3, 3.125821e+2, 102042.32, 56498.05, 36196.043, 0.19751582, -0.07542264, 122033.766, 122033.766, 0.0028315135, 10.000624, 10.000053 
1.7446382e+3, 1.22550555e+2, -2249119.0, -2106131.0, 11011.179, -0.32159328, -0.008324756, -2105288.3, -366287.25, 0.06957688, 9.99686, 9.998806 
1.7446862e+3, 1.325507e+2, -1816723.0, -1379015.3, -98212.945, 0.3843301, -0.29850817, -1357988.4, 283010.16, 0.045260757, 9.997132, 10.0030775 
1.7447239e+3, 1.4255553e+2, -1884402.0, -1691190.3, -5696.93, 0.087195426, 0.026506096, -1691022.5, -148073.66, 0.022935338, 9.997452, 10.000014 
1.7447655e+3, 1.5255475e+2, -1687674.4, -1585034.1, -9090.726, 0.043373358, -0.052883305, -1584235.1, -139273.83, 0.0078018596, 9.998308, 9.99965 
1.7448077e+3, 1.6255417e+2, -1543974.8, -1466481.5, -2746.2783, 0.029809045, -0.052911896, -1466384.4, -119413.24, 0.0013223152, 9.998601, 9.999678 
1.7448513e+3, 1.725553e+2, -1466776.6, -1342415.6, 31373.451, 0.17491591, 0.04696608, -1334949.1, -85986.5, 0.000049909977, 9.998324, 9.999979 
1.7448947e+3, 1.8255615e+2, -1367682.8, -1168133.4, 70967.91, 0.26707855, 0.13138266, -1145468.6, 5486.6475, 0.0000000000000006446772, 9.998006, 10.000644 
1.7449363e+3, 1.9255626e+2, -1248435.4, -1001619.75, 61.18597, 0.14808723, 0.009180667, -1001619.7, 51332.125, 0.0, 9.99791, 10.001149 
1.7449772e+3, 2.0255633e+2, -1227122.0, -1133775.1, -107068.13, 0.049167745, -0.013258553, -1063649.6, -108699.695, 0.0, 9.998193, 9.999452 
1.7450172e+3, 2.1255665e+2, -936637.6, -967566.7, -100160.36, 0.01717098, 0.07513441, -850755.0, 6193.096, 0.0, 9.999642, 9.999211 
1.7450576e+3, 2.2255601e+2, -733989.0, -899252.7, -36877.43, 0.02345013, 0.14037281, -726133.5, 32821.457, 0.0, 10.000679, 9.998527 
1.7450991e+3, 2.3255362e+2, -650541.06, -794406.0, -55941.355, 0.09239959, 0.020452565, -631348.8, 29628.66, 0.0, 10.000539, 9.998629 
1.7451404e+3, 2.4255174e+2, -587311.56, -733957.1, -26557.172, 0.099740386, -0.0008413732, -582650.3, -19655.25, 0.0, 10.0004, 9.998432 
1.7451808e+3, 2.5255123e+2, -473456.34, -600842.56, -12520.232, -0.044673454, 0.06300145, -472237.44, -7237.9033, 0.0, 10.000403, 9.998664 
1.745222e+3, 2.6254988e+2, -436287.66, -601947.3, -32794.188, -0.049806964, 0.10598297, -430031.9, -63019.582, 0.0000010008785, 10.000251, 9.998071 
1.745265e+3, 2.725471e+2, -384246.8, -516972.66, -47954.99, 0.22658701, -0.009831123, -368733.5, -99693.93, 0.000030147008, 9.999905, 9.998138 
1.7453064e+3, 2.8254494e+2, -287806.0, -424999.38, 75454.305, 0.26922882, -0.013920779, -254427.89, -83367.53, 0.00019898178, 9.999912, 9.998101 
1.7453448e+3, 2.9254365e+2, -94288.945, -255549.14, 92391.2, -0.20704542, -0.011976145, -52292.188, 20780.518, 0.0006810842, 10.000452, 9.99833 
1.7453888e+3, 3.0254114e+2, 29231.152, -142928.6, 111017.29, -0.18294096, -0.07459112, 83631.11, 83631.11, 0.0015907967, 10.000838, 9.998604 
1.7454359e+3, 3.125405e+2, 243382.17, 187908.83, -33347.453, 0.17950302, -0.07857869, 259020.33, 259020.33, 0.0028688698, 10.001311, 10.000623 
1.7546394e+3, 1.22507446e+2, -2280831.3, -2141182.0, 89437.74, 0.07114385, 0.040724125, -2097540.3, -358115.8, 0.07366958, 9.996727, 9.998628 
1.7546812e+3, 1.3250972e+2, -1737168.8, -1211525.8, -84239.37, 0.14295805, -0.113756046, -1198355.5, 443044.5, 0.048192136, 9.997085, 10.00431 
1.7547205e+3, 1.4251335e+2, -1854293.9, -1656545.6, 11904.331, -0.014521124, -0.011593747, -1655831.6, -112470.055, 0.024652572, 9.9975605, 10.000208 
1.7547628e+3, 1.525127e+2, -1731232.0, -1678301.1, 31760.49, -0.080192074, -0.018863423, -1663424.8, -218049.72, 0.008527423, 9.998309, 9.999018 
1.7548048e+3, 1.6251194e+2, -1489987.8, -1359856.5, -26039.064, -0.13902237, -0.02222535, -1354839.6, -7452.9624, 0.0014925194, 9.998629, 10.000394 
1.7548487e+3, 1.7251307e+2, -1385291.1, -1160399.8, 30106.805, 0.060226146, -0.04290357, -1156439.1, 92932.695, 0.00006156021, 9.998278, 10.001245 
1.7548922e+3, 1.8251403e+2, -1439374.9, -1325145.1, 54180.008, 0.20286046, 0.012675024, -1303535.4, -152174.33, 0.0000000010737394, 9.998036, 9.999553 
1.754934e+3, 1.9251397e+2, -1390014.3, -1284482.9, 5384.005, 0.11699209, 0.053984217, -1284209.0, -230841.9, 0.0, 9.997855, 9.999237 
1.7549758e+3, 2.0251377e+2, -1211518.1, -1075304.3, -79054.09, 0.055469073, 0.106597915, -1039065.06, -83692.36, 0.0, 9.998077, 9.999908 
1.7550181e+3, 2.1251382e+2, -870648.94, -794520.1, -34644.293, 0.1305184, 0.05159849, -781114.9, 76254.8, 0.0, 9.999478, 10.000482 
1.75506e+3, 2.2251326e+2, -770030.75, -919232.7, -39731.86, 0.175661, 0.044320457, -760110.0, -736.64856, 0.0, 10.000448, 9.9985 
1.7551e+3, 2.3251136e+2, -709270.6, -876917.1, -48819.066, 0.11175866, 0.014209093, -696090.56, -34698.633, 0.0, 10.000365, 9.998148 
1.7551401e+3, 2.425096e+2, -604801.8, -718534.3, -35299.355, 0.018612405, 0.026126903, -594736.6, -31327.861, 0.0, 10.000174, 9.998648 
1.7551811e+3, 2.5250852e+2, -465886.75, -544878.25, 1437.2764, -0.060596228, -0.009566908, -465860.63, -443.05295, 0.0, 10.00023, 9.99913 
1.7552227e+3, 2.625073e+2, -431020.1, -556262.3, -58292.434, -0.032767512, 0.0017134012, -408087.66, -40659.746, 0.00000094846536, 10.000091, 9.9984665 
1.7552646e+3, 2.725062e+2, -371260.88, -455374.2, -45468.984, 0.17457545, 0.005425667, -351380.56, -81944.07, 0.000030605133, 9.999755, 9.9986315 
1.755306e+3, 2.825045e+2, -300702.56, -410196.13, 75104.48, 0.21586952, 0.0029184443, -262509.06, -91058.27, 0.0002004244, 9.999729, 9.998292 
1.7553473e+3, 2.9250097e+2, -129759.11, -273134.4, 128584.09, -0.02403938, -0.22501042, -54229.277, 19253.723, 0.000696972, 10.000215, 9.998322 
1.755391e+3, 3.0249828e+2, -92939.97, -308679.5, 104785.66, -0.050749235, -0.26602167, -50423.83, -50423.83, 0.0016492817, 10.000465, 9.997639 
1.7554322e+3, 3.1250027e+2, 81825.52, -6798.8623, 14894.618, -0.36214876, 0.0835036, 84261.81, 84261.81, 0.002997406, 10.000735, 9.999541 
1.764638e+3, 1.2246324e+2, -2229963.8, -2084434.4, 168178.97, 0.27746728, -0.03795462, -1973953.8, -234093.83, 0.07790593, 9.996908, 9.998924 
1.7646767e+3, 1.3246714e+2, -1710261.8, -1187451.5, -112993.79, -0.00020499702, -0.037228208, -1164075.5, 477744.78, 0.05123237, 9.997188, 10.004445 
1.7647184e+3, 1.4247084e+2, -1819376.0, -1578492.4, -50562.902, 0.018386327, 0.034883823, -1568309.4, -24528.18, 0.026445003, 9.997528, 10.00077 
1.764761e+3, 1.5247062e+2, -1857825.6, -1682006.8, 18997.129, -0.01103804, 0.02284299, -1679977.6, -234188.69, 0.009296644, 9.997208, 9.999526 
1.7648034e+3, 1.624702e+2, -1661733.1, -1420020.4, 42080.16, -0.0734114, 0.014674005, -1412904.1, -65108.656, 0.0016790463, 9.997364, 10.000575 
1.7648467e+3, 1.7247078e+2, -1281339.8, -1107918.9, -10167.526, 0.03228175, -0.0706022, -1107324.9, 142459.4, 0.000074904594, 9.998966, 10.001269 
1.7648903e+3, 1.824712e+2, -1193616.1, -1238601.8, -24672.02, 0.13116398, -0.057635438, -1182722.8, -30944.996, 0.000000009428086, 9.99986, 9.999274 
1.7649324e+3, 1.9247115e+2, -1175079.6, -1218665.6, -233.06871, 0.0979232, 0.01994938, -1175078.5, -121293.17, 0.0, 9.999503, 9.9989 
1.7649746e+3, 2.0247102e+2, -1047001.6, -983621.06, 27976.58, 0.09335096, 0.10025443, -973038.8, -17247.895, 0.0, 9.999163, 10.000013 
1.765018e+3, 2.1247151e+2, -909543.8, -784222.3, -8619.935, 0.20239896, 0.06579712, -783632.2, 74152.24, 0.0, 9.9991, 10.000731 
1.7650606e+3, 2.2247124e+2, -922895.8, -954718.56, -41433.055, 0.2707456, 0.058544356, -894424.0, -134638.81, 0.0, 9.999239, 9.998829 
1.7651007e+3, 2.3246916e+2, -731768.56, -845428.06, -28305.785, 0.17723621, -0.023525896, -725109.44, -63305.625, 0.0, 10.00004, 9.998509 
1.7651407e+3, 2.4246728e+2, -527119.75, -683686.9, 28920.855, 0.06112637, -0.046283737, -521948.3, 41872.586, 0.0, 10.000687, 9.998656 
1.7651816e+3, 2.5246647e+2, -386421.13, -522643.2, 7554.1606, -0.057972573, -0.046824675, -386003.47, 79825.03, 0.0, 10.000812, 9.99902 
1.7652228e+3, 2.624655e+2, -302792.53, -499507.03, -62015.797, -0.049823757, 0.0018544423, -284873.78, 82963.37, 0.0000007067664, 10.001015, 9.9984 
1.7652652e+3, 2.724643e+2, -123815.7, -347885.84, -122981.97, 0.17560025, 0.005329866, -69488.45, 200358.88, 0.000029110019, 10.001515, 9.99852 
1.7653069e+3, 2.824624e+2, -22888.45, -259933.98, -16070.688, 0.25346008, -0.011690142, -21803.887, 150060.08, 0.00020337792, 10.001566, 9.998448 
1.7653486e+3, 2.9245928e+2, -50232.59, -216543.75, -1027.0823, 0.087122746, -0.21291576, -50226.246, 23666.584, 0.0007255654, 10.000688, 9.9984865 
1.7653923e+3, 3.0245748e+2, -121154.914, -322740.56, 67483.9, 0.04931071, -0.17207709, -100649.47, -100649.47, 0.0017280998, 10.0002575, 9.9976425 
1.7654328e+3, 3.124585e+2, 54614.676, -32984.016, -22201.535, -0.35658678, 0.09550536, 59920.227, 59920.227, 0.0031350597, 10.000557, 9.999471 
1.7746346e+3, 1.2241976e+2, -2151080.3, -1955549.1, 32962.414, 0.18121335, -0.088821575, -1950142.0, -209852.64, 0.08231803, 9.997035, 9.99976 
1.7746729e+3, 1.3242292e+2, -1785832.1, -1335782.8, -73325.12, -0.12394219, -0.07286831, -1324137.4, 318122.06, 0.054393712, 9.9971695, 10.003387 
1.7747165e+3, 1.4242767e+2, -1748666.5, -1446007.5, -75577.984, 0.054773714, 0.14099942, -1428184.3, 116026.945, 0.02831169, 9.997568, 10.001683 
1.77476e+3, 1.5242855e+2, -1737832.9, -1426301.6, 15928.997, 0.14479704, 0.07172926, -1425489.3, 20712.799, 0.010105246, 9.997172, 10.001299 
1.7748028e+3, 1.6242912e+2, -1690427.6, -1481426.8, 74862.07, 0.12045017, 0.06219074, -1457378.9, -109183.36, 0.0018804772, 9.997368, 10.0001545 
1.7748457e+3, 1.7242853e+2, -1371672.9, -1290418.3, 63573.383, -0.0011756318, -0.02645709, -1255599.1, -5399.921, 0.00008970714, 9.998948, 10.000025 
1.7748885e+3, 1.8242782e+2, -1147060.5, -1160746.6, -35540.06, -0.07403042, -0.06612666, -1117710.8, 34494.137, 0.000000028818846, 9.999934, 9.999774 
1.774931e+3, 1.9242771e+2, -1101141.6, -1056681.6, -5941.1113, -0.02019873, -0.09981777, -1055901.4, -1694.2435, 0.0, 9.999458, 10.000036 
1.7749736e+3, 2.0242804e+2, -1082486.1, -1029410.94, 10764.574, 0.040566728, -0.03679827, -1027310.8, -71105.3, 0.0, 9.99905, 9.999748 
1.7750165e+3, 2.1242961e+2, -990463.7, -910448.06, -638.3515, 0.13664323, 0.10588829, -910443.0, -52249.926, 0.0, 9.998925, 9.999944 
1.7750593e+3, 2.2242986e+2, -913911.3, -892854.75, -28739.055, 0.19879785, 0.18065786, -872776.2, -112584.83, 0.0, 9.999041, 9.999354 
1.775101e+3, 2.3242688e+2, -678214.5, -706207.7, 15297.156, 0.18667336, -0.09200376, -671476.9, -9262.044, 0.0, 9.999903, 9.9995365 
1.7751421e+3, 2.4242458e+2, -569897.44, -720154.2, 26618.582, 0.10600528, -0.2167168, -565321.25, -1087.4508, 0.0, 10.000465, 9.99851 
1.7751817e+3, 2.5242496e+2, -453601.28, -617413.44, 24678.482, -0.12623216, -0.049436755, -449964.2, 16268.748, 0.0, 10.000626, 9.998456 
1.7752226e+3, 2.624245e+2, -385117.16, -612704.75, -54930.484, -0.20232534, 0.10577002, -372552.78, -4312.7246, 0.00000032366296, 10.000769, 9.997743 
1.775266e+3, 2.7242157e+2, -210390.66, -466868.9, -85039.38, 0.10186159, 0.010775361, -184756.56, 85513.484, 0.00002512301, 10.001271, 9.997812 
1.7753084e+3, 2.8241888e+2, -64948.79, -299633.56, -53158.12, 0.234767, -0.03137113, -53469.51, 118827.75, 0.00020098852, 10.001351, 9.998283 
1.7753488e+3, 2.9241824e+2, -63403.168, -201778.23, -15645.056, 0.012842415, -0.0044639497, -61656.348, 12647.496, 0.0007424793, 10.000503, 9.998678 
1.775392e+3, 3.0241832e+2, -115025.875, -233995.77, 60804.156, -0.022546131, 0.17899868, -89448.46, -89448.46, 0.0017693732, 9.999945, 9.998397 
1.7754361e+3, 3.1241712e+2, 30761.316, 69200.74, 27628.412, -0.118461855, 0.13915955, 83637.03, 83637.03, 0.0031776992, 9.9999695, 10.000425 
1.7846319e+3, 1.2237888e+2, -1898978.8, -1835078.0, 169110.72, 0.15982746, -0.021452487, -1694925.9, 45764.54, 0.08696164, 9.998819, 9.999723 
1.7846704e+3, 1.3238154e+2, -1708422.6, -1407776.6, 4656.159, -0.13309601, 0.035925206, -1407704.6, 234962.94, 0.057701517, 9.998225, 10.002349 
1.7847142e+3, 1.4238459e+2, -1863865.3, -1506760.1, 26147.58, 0.1177739, 0.15025993, -1504855.8, 39781.184, 0.030258754, 9.996825, 10.001605 
1.784758e+3, 1.5238537e+2, -1535595.6, -1300048.1, -700.7667, 0.17496161, 0.045373593, -1300046.1, 146580.17, 0.0109521225, 9.9984255, 10.001574 
1.7848013e+3, 1.6238613e+2, -1406566.3, -1370653.1, 10172.751, 0.15490419, 0.04792726, -1367971.8, -19355.398, 0.0020959692, 9.999424, 9.999922 
1.7848445e+3, 1.7238565e+2, -1419947.5, -1352679.5, 24734.684, 0.012264023, 0.0069913766, -1344563.6, -93942.61, 0.000105867584, 9.998803, 9.99966 
1.7848875e+3, 1.8238503e+2, -1354620.1, -1213884.9, -24138.98, -0.07017, -0.016818725, -1209859.6, -57232.844, 0.0000000562377, 9.998305, 10.000202 
1.78493e+3, 1.9238515e+2, -1146394.8, -993871.44, -43837.633, -0.012007579, -0.0966122, -982169.56, 72454.14, 0.0, 9.998771, 10.000802 
1.7849725e+3, 2.0238553e+2, -1066318.4, -1028145.44, -16816.365, 0.05762412, -0.07536283, -1021794.06, -65174.516, 0.0, 9.999178, 9.999704 
1.7850156e+3, 2.1238656e+2, -911168.7, -908691.25, -20778.46, 0.1346525, 0.043052256, -889114.6, -30501.592, 0.0, 9.999616, 9.999634 
1.7850585e+3, 2.2238672e+2, -767463.1, -815854.25, -1355.0956, 0.19198127, 0.12899384, -767425.2, -6812.1147, 0.0, 10.000036, 9.999403 
1.7851011e+3, 2.3238496e+2, -582697.25, -643747.56, -40984.387, 0.19588949, -0.033009913, -562119.5, 100506.74, 0.0, 10.000508, 9.999674 
1.7851429e+3, 2.4238329e+2, -544375.56, -697718.25, -74167.766, 0.13667187, -0.10289086, -514372.88, 50267.133, 0.0, 10.000623, 9.998572 
1.785182e+3, 2.5238267e+2, -553628.5, -663717.06, -76451.234, -0.1021444, -0.036889695, -514467.34, -47819.03, 0.0, 9.999953, 9.998449 
1.785223e+3, 2.6238164e+2, -508341.53, -663891.1, -52738.234, -0.17816046, 0.06297874, -492146.97, -123486.64, 0.00000018370703, 9.999861, 9.997844 
1.7852671e+3, 2.723793e+2, -183723.64, -450413.63, -32395.904, 0.11118433, 0.01584977, -179844.8, 90840.516, 0.000020759246, 10.001385, 9.997899 
1.78531e+3, 2.82377e+2, 54896.543, -242207.3, 19075.547, 0.24509144, 0.004606503, 56116.277, 228825.9, 0.0001926232, 10.002201, 9.998251 
1.7853497e+3, 2.9237637e+2, 38691.434, -160191.16, -18637.953, 0.028754259, 0.04665472, 40422.984, 115139.305, 0.00073848147, 10.001251, 9.99859 
1.7853922e+3, 3.023765e+2, 17465.041, -143063.97, 104271.84, -0.015305423, 0.22216436, 68787.04, 68787.04, 0.001753451, 10.000747, 9.99863 
1.7854385e+3, 3.123746e+2, 209646.44, 116711.99, -41949.76, 0.07629725, 0.10927322, 225781.02, 225781.02, 0.0030955747, 10.001343, 10.000105 
1.7946297e+3, 1.2233982e+2, -1953578.4, -1990216.5, 229209.3, -0.012664363, 0.021983875, -1741957.3, -887.1038, 0.09190124, 9.998987, 9.998569 
1.7946687e+3, 1.3234356e+2, -1774432.3, -1561508.0, -58211.984, -0.14119107, 0.3046905, -1546632.5, 96405.47, 0.06119029, 9.998312, 10.001208 
1.7947108e+3, 1.4234181e+2, -1961803.3, -1707079.1, 28796.459, 0.0664852, 0.064923644, -1703864.3, -158808.73, 0.03230053, 9.996826, 10.000218 
1.7947546e+3, 1.5234107e+2, -1637360.0, -1506157.3, 78587.164, -0.03370105, -0.052916475, -1469389.3, -22328.125, 0.011841973, 9.998421, 10.000145 
1.7947985e+3, 1.6234115e+2, -1393626.1, -1372276.4, -8762.445, -0.10435694, -0.024136791, -1369140.6, -20081.363, 0.0023264778, 9.999536, 9.999863 
1.7948431e+3, 1.7234206e+2, -1381870.8, -1277553.9, 2110.054, -0.023778666, 0.032913245, -1277511.3, -26460.273, 0.00012352158, 9.998811, 10.000177 
1.794887e+3, 1.8234277e+2, -1322536.0, -1151700.3, -29990.39, 0.02896845, 0.09396791, -1146588.4, 6455.584, 0.000000085167756, 9.998326, 10.000617 
1.7949292e+3, 1.9234347e+2, -1135694.0, -953137.0, -17219.803, 0.021530585, 0.036902864, -951526.94, 103508.02, 0.0, 9.9986925, 10.001121 
1.7949715e+3, 2.023436e+2, -1069503.9, -1009743.75, -13478.483, 0.022162642, 0.005407734, -1006844.44, -49812.313, 0.0, 9.999062, 9.999892 
1.7950149e+3, 2.1234252e+2, -919609.25, -898604.4, 6315.967, 0.09312989, -0.10384457, -896851.5, -37808.555, 0.0, 9.999483, 9.999774 
1.7950581e+3, 2.223419e+2, -833779.6, -909874.8, 4345.016, 0.1382301, -0.084602065, -833532.3, -72482.35, 0.0, 9.9998455, 9.998852 
1.7951009e+3, 2.3234317e+2, -668207.25, -773934.94, -10137.8125, 0.11334738, 0.1342212, -667243.94, -4203.8477, 0.0, 10.000306, 9.998876 
1.7951426e+3, 2.4234311e+2, -571501.9, -698456.44, -95610.62, 0.042257294, 0.26890138, -520215.25, 44826.92, 0.0, 10.000379, 9.998689 
1.7951822e+3, 2.5233963e+2, -547668.5, -609215.2, -88454.82, -0.092272624, 0.007877623, -484786.88, -17712.752, 0.0, 9.999777, 9.998906 
1.7952237e+3, 2.6233703e+2, -485244.75, -566610.0, -25114.896, -0.11012645, -0.10684032, -478116.97, -109019.0, 0.00000013255313, 9.999648, 9.998615 
1.7952685e+3, 2.7233738e+2, -154656.88, -323240.8, 40411.117, 0.09191307, 0.019044586, -145470.55, 125624.34, 0.0000188634, 10.001116, 9.998892 
1.7953117e+3, 2.8233674e+2, 5085.443, -277689.8, -10631.789, 0.15866715, 0.11266466, 5484.614, 178586.31, 0.00018772867, 10.001896, 9.998163 
1.7953508e+3, 2.9233408e+2, -26944.816, -228927.53, -33879.39, -0.015780954, -0.011511485, -21413.559, 53714.387, 0.00073076796, 10.000971, 9.998249 
1.7953923e+3, 3.023323e+2, -70440.12, -259636.77, 95726.99, -0.09508113, 0.022070026, -30455.754, -30455.754, 0.0017121877, 10.000445, 9.997984 
1.7954391e+3, 3.1233117e+2, 60976.05, -64577.59, 52045.008, -0.030622143, 0.042899463, 79744.38, 79744.38, 0.002951229, 10.000826, 9.999086 
1.804629e+3, 1.2229789e+2, -2129411.5, -2087527.9, 160714.3, 0.08182394, -0.022868438, -1946396.8, -204919.03, 0.097200245, 9.997865, 9.998434 
1.8046671e+3, 1.3230109e+2, -1703565.3, -1586502.4, -200910.14, -0.15468386, 0.2504181, -1435771.3, 207680.39, 0.06490086, 9.9990835, 10.000689 
1.8047088e+3, 1.4229912e+2, -1653480.9, -1631366.0, -5023.6924, 0.093400076, 0.045912273, -1630278.3, -84806.14, 0.034457777, 9.999239, 9.999576 
1.804753e+3, 1.522979e+2, -1656339.9, -1581900.3, 97960.87, -0.017190203, -0.058640845, -1514326.8, -66843.55, 0.0127833225, 9.998572, 9.999546 
1.8047972e+3, 1.6229767e+2, -1598378.0, -1453810.1, 71276.46, -0.10180252, -0.029354645, -1424579.1, -75094.34, 0.0025744103, 9.998064, 10.000017 
1.8048419e+3, 1.722987e+2, -1377629.0, -1222380.9, 49080.523, 0.0020890138, -0.0013625001, -1208166.0, 43308.61, 0.00014305822, 9.998615, 10.000647 
1.804886e+3, 1.8229963e+2, -1237640.3, -1116812.9, 29875.648, 0.08883424, 0.05231594, -1109829.5, 43636.047, 0.00000010953618, 9.998932, 10.000562 
1.8049282e+3, 1.923008e+2, -1127941.3, -973813.94, -20984.096, 0.056816205, 0.06207674, -971008.06, 84445.94, 0.0, 9.998865, 10.000887 
1.8049707e+3, 2.0230119e+2, -1061732.0, -990831.6, -5847.0483, 0.041890964, 0.0676332, -990352.6, -32903.06, 0.0, 9.999051, 10.000032 
1.8050146e+3, 2.1229985e+2, -814368.94, -815030.2, 6325.697, 0.11503583, -0.09100023, -808365.25, 51095.695, 0.0, 10.000073, 10.00006 
1.8050584e+3, 2.2229901e+2, -727700.06, -856367.25, 18561.574, 0.1584829, -0.11279611, -725075.9, 36392.98, 0.0, 10.000587, 9.998846 
1.8051003e+3, 2.3230013e+2, -733816.94, -822366.9, 18481.879, 0.0683373, 0.103047155, -730114.25, -66652.31, 0.0, 9.999938, 9.99871 
1.805142e+3, 2.4230002e+2, -684336.94, -758426.7, -18236.518, -0.0025447025, 0.24460186, -680091.44, -114626.14, 0.0, 9.999608, 9.998666 
1.8051833e+3, 2.5229672e+2, -489079.6, -587338.7, -64701.293, 0.027035326, 0.0077219387, -456968.94, 10526.531, 0.0, 10.000177, 9.998889 
1.8052256e+3, 2.6229426e+2, -342381.56, -461961.44, 2044.544, 0.09722642, -0.103023544, -342346.6, 27171.262, 0.00000007008213, 10.000485, 9.998924 
1.8052694e+3, 2.722948e+2, -289071.6, -351488.44, 1620.2542, 0.1397417, 0.00950171, -289029.56, -17517.082, 0.000018211349, 10.00003, 9.999228 
1.805312e+3, 2.8229433e+2, -275555.22, -409308.72, -55354.07, 0.12304529, 0.10457775, -255618.52, -82101.83, 0.00018396281, 9.999947, 9.998194 
1.8053521e+3, 2.9229146e+2, 19057.867, -222854.9, -97467.12, 0.04301958, -0.025997499, 53440.742, 128985.6, 0.0007176482, 10.001339, 9.99812 
1.805394e+3, 3.0228904e+2, 183733.64, -88158.78, 73954.5, -0.02499896, -0.072007105, 202547.38, 202547.38, 0.0016599778, 10.001996, 9.99841 
1.8054394e+3, 3.1228912e+2, -22999.607, -96329.29, 57321.465, -0.021958796, 0.040154383, 8380.102, 8380.102, 0.0028119995, 10.000118, 9.999261 
1.8146268e+3, 1.22253165e+2, -2063389.1, -1949605.5, 141910.66, 0.028981581, -0.100639924, -1853607.4, -111695.09, 0.10291468, 9.997854, 9.999387 
1.8146646e+3, 1.322532e+2, -1682410.4, -1545286.4, -166906.5, -0.3286592, -0.18183404, -1433408.6, 210508.42, 0.06887483, 9.999092, 10.000975 
1.8147084e+3, 1.4225638e+2, -1604443.4, -1561878.3, -41388.535, 0.08842179, 0.09056612, -1536621.0, 9266.803, 0.036753505, 9.999365, 10.000001 
1.8147531e+3, 1.522559e+2, -1625534.0, -1528934.9, 78914.75, 0.13185413, 0.026908724, -1484712.1, -36820.07, 0.01378539, 9.998605, 9.999904 
1.8147969e+3, 1.622559e+2, -1565752.9, -1393217.5, 67067.29, 0.037519984, 0.03916403, -1370214.3, -20323.387, 0.002842686, 9.998093, 10.000416 
1.8148407e+3, 1.7225568e+2, -1357134.0, -1180046.8, 84225.61, 0.006504142, -0.093994424, -1146385.9, 105505.02, 0.00016504708, 9.998605, 10.000946 
1.8148842e+3, 1.8225564e+2, -1268729.9, -1189814.4, 21465.406, 0.00016347994, -0.13749373, -1184353.5, -30462.637, 0.00000012908751, 9.998964, 10.000048 
1.8149266e+3, 1.9225708e+2, -1188337.8, -1094408.1, -14899.145, -0.006864613, -0.022162136, -1092101.5, -36220.3, 0.0, 9.998837, 10.000076 
1.8149695e+3, 2.0225821e+2, -1075413.8, -991023.9, 12311.324, 0.0016150178, 0.104670644, -989264.5, -31391.633, 0.0, 9.998934, 10.000084 
1.8150148e+3, 2.1225841e+2, -813947.56, -775659.8, 57276.71, 0.11133029, 0.067408904, -734412.4, 125456.2, 0.0, 9.999905, 10.000412 
1.8150589e+3, 2.2225791e+2, -734159.56, -812446.25, -1361.6818, 0.14461237, 0.04072256, -734135.94, 27735.611, 0.0, 10.000338, 9.99927 
1.8150993e+3, 2.3225595e+2, -731775.25, -774827.0, 4559.194, -0.04360856, -0.09514806, -731297.75, -67407.16, 0.0, 9.999748, 9.999129 
1.8151405e+3, 2.4225418e+2, -736423.6, -816922.4, -18457.951, -0.12692368, -0.13242391, -732393.1, -166484.9, 0.0, 9.9993925, 9.998366 
1.8151848e+3, 2.5225368e+2, -545372.6, -663180.6, -27584.76, 0.15130931, -0.049152266, -539233.56, -71318.5, 0.0, 10.000001, 9.998448 
1.8152285e+3, 2.62253e+2, -397552.75, -523352.44, -12930.732, 0.3246949, 0.052109756, -396237.38, -26313.783, 0.0000000874347, 10.00025, 9.998618 
1.8152696e+3, 2.722517e+2, -337160.44, -400207.88, 2503.1338, 0.14055032, 0.0007044491, -337061.22, -65124.805, 0.00001648955, 9.999823, 9.998983 
1.8153109e+3, 2.8225026e+2, -313586.34, -443735.4, -31781.389, -0.008285588, 0.01925077, -306240.22, -132289.61, 0.00017264257, 9.9997425, 9.99806 
1.815354e+3, 2.9224864e+2, -4020.5398, -227213.48, -19011.33, 0.057082973, 0.0053148475, -2412.7573, 73553.54, 0.00068279123, 10.0011425, 9.998184 
1.8153967e+3, 3.022465e+2, 201295.42, 28611.494, 16559.99, 0.02037835, -0.048391942, 202869.14, 202869.14, 0.0015890675, 10.001668, 9.999367 
1.8154374e+3, 3.122461e+2, 6987.504, 121690.78, 58293.813, -0.2697134, -0.12541233, 146115.53, 146115.53, 0.0027039917, 9.999522, 10.001012 
1.8246236e+3, 1.2220999e+2, -2022627.4, -1800108.8, 175094.14, -0.031031722, -0.052039713, -1703915.4, 38419.74, 0.10907774, 9.997555, 10.000576 
1.8246643e+3, 1.3220836e+2, -1904549.9, -1645672.9, -139218.94, -0.1782713, -0.31937093, -1585016.0, 59338.15, 0.07313931, 9.997492, 10.001021 
1.8247071e+3, 1.4221302e+2, -1701405.8, -1553750.3, -11523.761, 0.08749188, 0.069666184, -1552856.4, -6546.6157, 0.039204508, 9.998501, 10.000455 
1.8247525e+3, 1.5221275e+2, -1513772.4, -1438401.5, 63644.055, 0.18631953, -0.0060201334, -1402122.4, 46188.66, 0.014855209, 9.999234, 10.0002165 
1.824796e+3, 1.6221277e+2, -1392418.8, -1337485.9, 52081.0, 0.095120244, -0.000273684, -1306072.5, 44237.402, 0.0031336718, 9.999403, 10.000161 
1.8248394e+3, 1.7221262e+2, -1376346.5, -1233863.6, -11600.521, 0.023280304, -0.08686634, -1232925.4, 19385.98, 0.00019006866, 9.998683, 10.000528 
1.8248829e+3, 1.8221246e+2, -1377865.6, -1262720.0, -67006.74, 0.01661668, -0.10685056, -1231949.5, -77635.37, 0.00000015151502, 9.998305, 9.999866 
1.8249258e+3, 1.9221334e+2, -1125894.4, -1071991.1, -70217.484, 0.027834453, -0.032566868, -1023730.5, 32579.865, 0.0, 9.999321, 9.999992 
1.824969e+3, 2.0221436e+2, -948005.2, -910369.75, -4647.972, 0.055583786, 0.08130417, -909804.25, 48499.414, 0.0, 9.99973, 10.000241 
1.825014e+3, 2.1221547e+2, -1011231.3, -838352.56, 7762.7173, 0.13710433, 0.10882673, -838004.7, 22285.46, 0.0, 9.998422, 10.000681 
1.825058e+3, 2.2221555e+2, -1087746.3, -956533.4, -19404.361, 0.1632347, 0.111030154, -953723.94, -191436.86, 0.0, 9.997757, 9.999541 
1.825099e+3, 2.3221308e+2, -807807.06, -776555.56, -39665.54, 0.007210951, -0.105516456, -749548.94, -85238.805, 0.0, 9.999063, 9.999455 
1.8251409e+3, 2.4221112e+2, -610663.75, -726682.56, -30740.42, -0.049460236, -0.19279611, -603022.06, -36692.94, 0.0, 10.000137, 9.998616 
1.8251851e+3, 2.5221142e+2, -486931.47, -608137.06, -16208.238, 0.18063445, -0.051969912, -484801.47, -16472.674, 0.0, 10.000294, 9.998672 
1.8252286e+3, 2.622113e+2, -377454.88, -516328.25, 43886.188, 0.31859383, 0.09072557, -364748.7, 5583.5156, 0.00000011582431, 10.000417, 9.998577 
1.8252696e+3, 2.722096e+2, -211775.94, -369840.8, 21293.62, 0.13781205, 0.025718171, -208957.64, 63391.625, 0.000015405387, 10.000804, 9.998726 
1.8253113e+3, 2.8220773e+2, -109397.234, -375566.1, 42624.668, 0.014272066, 0.026423767, -102737.87, 71630.336, 0.00016033727, 10.001284, 9.997785 
1.8253553e+3, 2.922059e+2, 48972.477, -244587.38, 4227.4263, 0.072691634, 0.032116584, 49033.34, 125419.38, 0.000639737, 10.001687, 9.997808 
1.8253987e+3, 3.0220336e+2, 197760.16, 2090.871, -29334.195, 0.0752304, -0.031275135, 202063.23, 202063.23, 0.001517877, 10.001738, 9.999148 
1.8254395e+3, 3.122023e+2, 343011.53, 269438.5, -147686.17, -0.10757634, -0.1446882, 458423.72, 458423.72, 0.0026419428, 10.001814, 10.000971 
1.8346192e+3, 1.2216726e+2, -1908514.4, -1604221.6, 52805.117, -0.29921502, -0.012889273, -1595318.6, 147438.56, 0.11569034, 9.99763, 10.002003 
1.8346661e+3, 1.3216728e+2, -1913945.0, -1655197.5, -88157.89, 0.23750083, -0.10676641, -1628016.5, 16739.506, 0.07769921, 9.997454, 10.000953 
1.8347043e+3, 1.4216919e+2, -1673933.6, -1507600.1, 11779.451, -0.07480314, -0.010786372, -1506770.0, 39965.78, 0.04181763, 9.998534, 10.000769 
1.8347502e+3, 1.5216835e+2, -1497492.6, -1412679.8, 101770.39, 0.019825637, -0.16682824, -1344834.1, 103907.21, 0.015997248, 9.999259, 10.000388 
1.8347943e+3, 1.621682e+2, -1440967.4, -1460220.6, 19545.521, -0.04897145, -0.15585484, -1428806.4, -78063.97, 0.0034491862, 9.999494, 9.999279 
1.8348375e+3, 1.721693e+2, -1460413.9, -1418386.3, -35418.297, -0.046257377, 0.0068708705, -1398217.0, -145479.13, 0.00021871291, 9.998712, 9.999255 
1.8348813e+3, 1.8216987e+2, -1370569.4, -1247345.6, -59766.58, 0.004650122, 0.13704872, -1223120.0, -68382.51, 0.00000018976193, 9.998312, 9.999964 
1.8349257e+3, 1.9216947e+2, -1095489.0, -994015.0, -20151.568, 0.06218303, 0.028681207, -990159.6, 66583.52, 0.0, 9.999255, 10.00056 
1.8349695e+3, 2.0216948e+2, -939959.75, -868170.7, -43325.605, 0.08897005, -0.0056803147, -847802.25, 110941.16, 0.0, 9.99962, 10.000584 
1.8350121e+3, 2.1217102e+2, -1016508.9, -815444.7, -37521.594, 0.087245315, 0.040306758, -808670.8, 52054.93, 0.0, 9.998276, 10.000909 
1.835055e+3, 2.2217193e+2, -1108480.9, -948877.25, -5559.0615, 0.09025916, 0.10870593, -948683.9, -185968.8, 0.0, 9.997539, 9.9997015 
1.8350993e+3, 2.3217122e+2, -823950.94, -763853.4, 26861.094, 0.12267763, 0.049871065, -753597.7, -88874.49, 0.0, 9.998864, 9.999641 
1.8351428e+3, 2.4217042e+2, -599387.25, -638126.6, -22898.342, 0.117301576, 0.039170753, -588765.0, -22033.188, 0.0, 9.999854, 9.999366 
1.8351838e+3, 2.5216997e+2, -456531.97, -491909.7, 1815.9723, 0.026092129, 0.01621957, -456439.0, 12296.968, 0.0, 10.0000725, 9.999578 
1.8352257e+3, 2.6216936e+2, -410007.6, -543699.4, 42847.816, -0.03376813, 0.060880147, -397453.8, -26712.033, 0.000000090536304, 10.000233, 9.998483 
1.8352695e+3, 2.721683e+2, -261477.98, -435590.78, 53102.22, 0.015574088, 0.08728929, -246560.55, 26192.78, 0.00001528185, 10.000638, 9.998355 
1.8353131e+3, 2.8216636e+2, -181883.44, -474105.28, 40268.61, 0.033495244, 0.12252997, -176435.92, -1662.5973, 0.00015301339, 10.001053, 9.997222 
1.835356e+3, 2.9216298e+2, -29590.293, -351437.97, 37500.523, -0.031923015, 0.03655615, -25278.63, 51527.895, 0.00060723, 10.001453, 9.997181 
1.8353997e+3, 3.021598e+2, 34880.055, -257450.89, -43231.047, -0.018864037, 0.0077929087, 41139.215, 41139.215, 0.0014659015, 10.001406, 9.99752 
1.835443e+3, 3.1215823e+2, 133596.5, -34558.46, -36489.95, 0.019730587, 0.01085098, 141173.48, 141173.48, 0.0026169054, 10.001271, 9.9991255 
1.8446158e+3, 1.221233e+2, -1998819.1, -1653234.8, 57002.754, -0.3430258, -0.019729119, -1644075.1, 99113.11, 0.12272786, 9.997074, 10.001903 
1.8446666e+3, 1.3212411e+2, -1857838.9, -1637594.4, -135537.14, 0.5342899, -0.015056726, -1573082.0, 72097.22, 0.08254445, 9.997927, 10.000858 
1.8447018e+3, 1.4212494e+2, -1726996.4, -1543433.1, -41296.31, -0.14252256, -0.015216784, -1534570.5, 12599.673, 0.04459436, 9.998195, 10.000693 
1.8447484e+3, 1.5212399e+2, -1623933.1, -1471008.5, -1452.8821, -0.03248382, -0.17880827, -1470994.8, -21817.787, 0.017215712, 9.998379, 10.00041 
1.8447934e+3, 1.6212393e+2, -1571332.4, -1512407.8, -54310.23, -0.01675403, -0.16163127, -1480083.1, -128906.07, 0.0037916328, 9.99858, 9.999359 
1.844837e+3, 1.7212503e+2, -1346574.3, -1352861.6, -37170.742, 0.0077882065, -0.006023221, -1312414.5, -59242.75, 0.00025177147, 9.999468, 9.999339 
1.8448807e+3, 1.8212561e+2, -1170889.4, -1157497.0, 16731.586, 0.063043185, 0.120377675, -1146171.4, 8999.224, 0.00000025167606, 9.9997015, 9.999911 
1.8449244e+3, 1.9212542e+2, -1232291.8, -1068453.4, -14140.84, 0.074142955, 0.03966326, -1067241.9, -10067.453, 0.0, 9.998343, 10.000484 
1.8449679e+3, 2.0212543e+2, -1229776.0, -1011320.6, -49340.086, 0.08462274, 0.0105433, -1000693.7, -41518.51, 0.0, 9.99764, 10.000565 
1.8450113e+3, 2.1212637e+2, -848530.1, -732672.3, -77714.516, 0.128747, -0.001915992, -693671.8, 167492.31, 0.0, 9.999428, 10.000929 
1.8450548e+3, 2.2212717e+2, -689839.1, -714966.2, -43651.945, 0.18837333, 0.04388246, -656978.7, 106176.37, 0.0, 10.0003, 9.999959 
1.8450989e+3, 2.3212753e+2, -864847.0, -745016.06, -31302.766, 0.22485113, 0.063066736, -737331.75, -72179.766, 0.0, 9.998428, 9.999966 
1.8451421e+3, 2.4212751e+2, -935966.25, -782144.1, -25347.365, 0.20318323, 0.09767293, -778074.94, -210922.05, 0.0, 9.997479, 9.999512 
1.8451835e+3, 2.5212666e+2, -523516.66, -520982.66, -72978.61, 0.020698182, 0.03427395, -449260.06, 19900.977, 0.0, 9.999591, 9.99961 
1.8452258e+3, 2.6212576e+2, -286119.97, -491218.44, -79266.19, -0.07607073, 0.04731142, -259056.44, 112113.836, 0.00000009817215, 10.001124, 9.998409 
1.84527e+3, 2.721247e+2, -251651.36, -441773.94, -88319.62, 0.026296461, 0.089585796, -216955.16, 56226.06, 0.000013983738, 10.000767, 9.99824 
1.8453142e+3, 2.8212264e+2, -194194.56, -450789.5, -14710.383, 0.071638435, 0.114561915, -193353.98, -18152.389, 0.00014297603, 10.0008545, 9.997479 
1.8453579e+3, 2.9211947e+2, 137796.89, -224511.55, 9567.672, -0.031544935, 0.017988188, 138049.38, 215281.3, 0.000574171, 10.002408, 9.997604 
1.8454024e+3, 3.02117e+2, 236491.5, -197331.53, -15809.71, 0.05343263, 0.048922, 237066.88, 237066.88, 0.0014107538, 10.002946, 9.997207 
1.8454437e+3, 3.1211397e+2, 49163.773, -142808.52, 12617.053, 0.012605403, -0.02538659, 49989.453, 49989.453, 0.002569783, 10.000964, 9.998534 
1.8546148e+3, 1.2207833e+2, -2131504.3, -1953958.9, 190422.88, -0.21513923, -0.070411414, -1832632.9, -89007.48, 0.13014582, 9.997204, 9.999699 
1.8546654e+3, 1.3207851e+2, -1877013.8, -1683277.4, -118850.92, 0.5981092, -0.08575248, -1626819.1, 18808.086, 0.08765755, 9.997942, 10.000519 
1.8546993e+3, 1.4208013e+2, -1756469.9, -1608933.4, -47700.137, -0.24572453, 0.04426242, -1594854.9, -47240.75, 0.04753598, 9.998215, 10.000234 
1.8547465e+3, 1.5207972e+2, -1637467.4, -1504546.0, 12347.659, -0.07808889, -0.037385114, -1503408.8, -53790.68, 0.01851746, 9.998395, 10.000176 
1.8547931e+3, 1.6207999e+2, -1491347.1, -1356316.5, -45222.227, 0.058443528, -0.012360859, -1342570.8, 9043.615, 0.0041650403, 9.998621, 10.000409 
1.8548375e+3, 1.7207965e+2, -1241608.3, -1136927.8, 9119.475, 0.090314195, -0.14241995, -1136139.3, 117474.93, 0.00029041685, 9.999468, 10.000824 
1.8548809e+3, 1.8207948e+2, -1172987.9, -1172322.4, -24756.34, 0.07877571, -0.18190321, -1147896.6, 7718.1895, 0.0000003514084, 9.999748, 9.999787 
1.8549217e+3, 1.9208117e+2, -1298218.9, -1188944.6, -62885.477, -0.041832842, -0.0055589597, -1160276.4, -102671.98, 0.0, 9.998271, 9.999696 
1.854964e+3, 2.0208222e+2, -1279461.6, -1081789.6, -24959.744, -0.08034385, 0.13903977, -1078686.6, -119087.94, 0.0, 9.997501, 10.000147 
1.8550111e+3, 2.1208146e+2, -888994.44, -777510.4, 6064.738, 0.17441979, -0.018505797, -777181.44, 84424.26, 0.0, 9.999258, 10.000702 
1.8550569e+3, 2.2208107e+2, -695965.2, -680534.44, -87509.38, 0.34526962, -0.0912489, -600401.0, 163207.53, 0.0, 10.000089, 10.000303 
1.8550973e+3, 2.3208216e+2, -851015.9, -682637.1, -95189.84, 0.21239612, -0.049408212, -639747.94, 25847.549, 0.0, 9.998278, 10.000472 
1.8551385e+3, 2.4208263e+2, -998282.94, -868178.5, 1990.0957, 0.082132734, 0.025215581, -868148.06, -300558.22, 0.0, 9.997293, 9.99901 
1.8551835e+3, 2.520816e+2, -612056.44, -656195.94, 25267.537, 0.060877845, 0.019422568, -600577.4, -130974.09, 0.0, 9.999391, 9.998773 
1.8552285e+3, 2.6208046e+2, -331165.84, -522605.78, -80161.78, 0.063584104, 0.067358464, -302033.0, 69583.92, 0.00000008466028, 10.00086, 9.998321 
1.8552713e+3, 2.720789e+2, -273418.03, -431170.97, -87081.11, 0.06175083, 0.042695448, -234801.44, 38830.152, 0.000011476472, 10.000537, 9.998422 
1.8553145e+3, 2.8207678e+2, -179193.08, -364310.72, 8790.519, -0.0021844928, 0.025807125, -178776.6, -3125.6726, 0.00012753508, 10.000609, 9.998197 
1.85536e+3, 2.9207528e+2, 172759.16, -80056.98, 87047.21, -0.06691375, -0.008275548, 199831.44, 277494.2, 0.0005320517, 10.002099, 9.998747 
1.8554062e+3, 3.0207482e+2, 218014.31, -137706.33, -80762.24, 0.10331146, 0.123259604, 235491.73, 235491.73, 0.0013351652, 10.002532, 9.99781 
1.8554428e+3, 3.1207117e+2, 703.93506, -123264.19, -23338.549, -0.20414522, -0.048407637, 4952.13, 4952.13, 0.0024626518, 10.000479, 9.998891 
1.8646142e+3, 1.2203322e+2, -1981285.5, -1799776.9, 78329.22, -0.008376011, -0.0023012836, -1770648.8, -26578.863, 0.1378835, 9.99792, 10.000385 
1.864662e+3, 1.3203329e+2, -1984863.9, -1730408.5, -168990.81, 0.5162691, -0.05314507, -1646106.6, -33.108868, 0.09301642, 9.997203, 10.000527 
1.8646981e+3, 1.420352e+2, -1885583.8, -1655626.9, -30894.305, -0.115255475, 0.10388066, -1651548.5, -103489.586, 0.050644647, 9.997285, 10.00035 
1.8647455e+3, 1.5203518e+2, -1707672.3, -1510002.6, 41906.15, 0.020662254, 0.036399003, -1501485.5, -51426.27, 0.01991141, 9.997803, 10.000417 
1.8647924e+3, 1.620355e+2, -1521543.0, -1322650.9, 24479.81, 0.15778708, 0.035890758, -1319682.1, 32372.107, 0.0045744055, 9.998191, 10.000847 
1.8648371e+3, 1.7203552e+2, -1343582.0, -1120005.0, -9263.556, 0.16400498, -0.116680585, -1119621.9, 134426.69, 0.0003360051, 9.998486, 10.001401 
1.8648805e+3, 1.820356e+2, -1324932.4, -1226480.1, -94335.14, 0.1379349, -0.17456737, -1169299.8, -13255.034, 0.00000050835786, 9.998628, 9.999954 
1.8649207e+3, 1.9203696e+2, -1217247.9, -1147948.8, -111819.766, 0.01495919, -0.03542899, -1065533.1, -7496.604, 0.0, 9.9988165, 9.999716 
1.8649626e+3, 2.0203784e+2, -1121779.5, -1029868.75, 29300.861, -0.022703558, 0.09654303, -1021322.44, -61289.94, 0.0, 9.998696, 9.999925 
1.8650094e+3, 2.1203749e+2, -1107394.1, -920443.9, 47540.785, 0.15858564, 0.011176063, -909048.94, -47011.156, 0.0, 9.997917, 10.000369 
1.8650551e+3, 2.2203729e+2, -1027843.0, -841786.44, -50500.81, 0.28586116, -0.019272856, -828963.0, -64922.996, 0.0, 9.99782, 10.000297 
1.865096e+3, 2.3203798e+2, -592194.8, -546311.06, -116482.54, 0.18233483, -0.0252501, -450532.63, 215496.58, 0.0, 10.000008, 10.000585 
1.865138e+3, 2.42038e+2, -427023.06, -634429.8, -10121.236, 0.10074695, 0.010088749, -426530.3, 141496.7, 0.0, 10.001387, 9.998642 
1.8651837e+3, 2.520366e+2, -547482.44, -689299.5, 13157.103, 0.12083816, 0.020325808, -546272.1, -76227.03, 0.0, 10.00011, 9.998198 
1.8652293e+3, 2.6203507e+2, -543124.2, -630282.7, -46975.69, 0.15797476, 0.069898635, -522626.44, -150563.39, 0.000000065173005, 9.999419, 9.9982815 
1.8652722e+3, 2.7203333e+2, -214271.03, -382586.9, -85515.27, 0.1086871, 0.0129655, -178448.05, 95630.48, 0.000009433609, 10.000843, 9.998617 
1.8653153e+3, 2.8203127e+2, -6740.0986, -229380.2, 23271.389, -0.019105088, -0.028970348, -4333.6743, 171762.38, 0.00011541226, 10.001572, 9.998649 
1.8653603e+3, 2.9203016e+2, -18410.338, -110136.15, 30537.486, -0.14910667, -0.07682733, -9173.842, 68929.26, 0.0004964564, 10.000516, 9.999287 
1.8654077e+3, 3.020303e+2, -33886.855, -250899.88, -122585.92, 0.12318739, 0.08055394, 21316.658, 21316.658, 0.0012593403, 10.000749, 9.997883 
1.8654448e+3, 3.1202754e+2, 476227.1, 70137.47, -187779.05, -0.20747419, 0.0063640424, 549747.2, 549747.2, 0.002321422, 10.00387, 9.998585 
1.8746127e+3, 1.2198678e+2, -1699074.9, -1294976.6, -222306.98, -0.008912694, 0.048506867, -1196618.9, 547915.7, 0.14588223, 9.99806, 10.004328 
1.8746555e+3, 1.3198856e+2, -1962398.4, -1683022.6, -150996.14, 0.12872188, 0.08725536, -1617010.4, 29507.084, 0.0986057, 9.997184, 10.000886 
1.8746983e+3, 1.4199015e+2, -1821946.6, -1541193.6, -31192.316, 0.13108368, 0.15923075, -1537769.8, 10734.866, 0.053927336, 9.997347, 10.001111 
1.8747449e+3, 1.5199025e+2, -1650958.3, -1397180.6, 75710.67, 0.17008469, 0.02512983, -1376309.9, 74191.42, 0.021407956, 9.997807, 10.001205 
1.8747908e+3, 1.6199046e+2, -1520819.0, -1331533.0, 26806.047, 0.1580223, -0.034241445, -1327810.0, 24686.83, 0.0050250688, 9.998233, 10.000768 
1.8748352e+3, 1.7199272e+2, -1379404.5, -1189859.9, 9997.404, 0.11506393, 0.07979082, -1189334.0, 65139.94, 0.00038988978, 9.998455, 10.000944 
1.8748789e+3, 1.8199405e+2, -1288042.9, -1152060.9, -101117.45, 0.09496454, 0.15776823, -1098201.5, 58258.7, 0.000000733184, 9.998639, 10.000462 
1.874921e+3, 1.919928e+2, -1165138.1, -1021320.9, -95620.31, 0.14438033, -0.043747768, -973588.0, 84883.21, 0.0, 9.998743, 10.000622 
1.874963e+3, 2.0199218e+2, -1132213.3, -1036576.5, -7940.432, 0.14078854, -0.12051256, -1035921.7, -75444.12, 0.0, 9.998622, 9.999919 
1.8750057e+3, 2.1199447e+2, -1161019.8, -996230.0, 26033.313, -0.021416154, 0.09317268, -992215.1, -129754.836, 0.0, 9.99776, 9.999928 
1.8750489e+3, 2.2199593e+2, -1090301.6, -920503.4, -9670.067, -0.11898394, 0.27457586, -919954.44, -155505.67, 0.0, 9.997593, 9.999868 
1.8750945e+3, 2.3199482e+2, -648772.94, -614099.6, -17160.797, 0.030768897, 0.12618226, -607042.56, 59412.438, 0.0, 9.999795, 10.000217 
1.8751398e+3, 2.419933e+2, -480330.53, -690694.1, -32377.654, 0.13280325, 0.038596768, -475459.94, 93007.12, 0.0, 10.001144, 9.99838 
1.8751837e+3, 2.519915e+2, -591377.2, -737526.4, -25935.736, 0.09712892, 0.03389294, -586911.1, -116423.43, 0.0, 9.999927, 9.997956 
1.8752283e+3, 2.619896e+2, -575743.2, -655369.94, -31535.508, 0.09093548, 0.06415493, -564766.9, -192258.45, 0.00000004605578, 9.999223, 9.998212 
1.8752727e+3, 2.719879e+2, -239131.0, -383886.2, -10460.919, 0.056089588, 0.00870371, -238378.94, 36143.707, 0.000008319171, 10.000619, 9.998722 
1.8753159e+3, 2.8198603e+2, -33232.484, -223997.3, -6490.734, -0.13251063, -0.030199258, -33011.895, 143525.89, 0.00010877432, 10.001308, 9.998817 
1.8753587e+3, 2.9198408e+2, -57724.996, -125818.52, 13522.976, -0.3806771, -0.1725583, -55137.72, 23415.223, 0.0004725632, 10.000238, 9.999315 
1.875407e+3, 3.0198357e+2, -103307.805, -316314.84, -53108.54, -0.051432192, -0.070132785, -90800.75, -90800.75, 0.001193127, 10.000424, 9.997584 
1.8754505e+3, 3.1198254e+2, 314901.7, -92168.33, -65671.92, -0.08528746, 0.06612892, 325234.16, 325234.16, 0.0021761258, 10.003167, 9.997792 
1.8846112e+3, 1.2194179e+2, -1799816.8, -1233776.1, -147082.94, 0.11856889, -0.045936372, -1197838.9, 547140.25, 0.15411249, 9.996698, 10.005528 
1.8846512e+3, 1.319451e+2, -1912022.4, -1730082.0, 27071.85, -0.026273938, 0.15861906, -1726139.3, -79193.26, 0.10442951, 9.997829, 10.000235 
1.8846971e+3, 1.4194506e+2, -1595187.3, -1461346.8, 59043.01, 0.22210374, 0.12629232, -1439023.5, 109925.84, 0.057399224, 9.999039, 10.000868 
1.8847436e+3, 1.5194602e+2, -1428913.1, -1259495.0, 90324.06, 0.20365109, 0.060965914, -1220373.3, 230564.16, 0.023018045, 9.999236, 10.00146 
1.884789e+3, 1.619468e+2, -1426655.6, -1303771.1, 18525.209, 0.15112339, 0.047177948, -1301039.1, 51888.73, 0.005521801, 9.998949, 10.000616 
1.8848333e+3, 1.719486e+2, -1487899.9, -1275151.0, -17049.43, 0.12102668, 0.13886091, -1273793.4, -18882.355, 0.0004532519, 9.997843, 10.000664 
1.8848771e+3, 1.8194968e+2, -1497049.6, -1241964.4, -70247.78, 0.12890406, 0.2074215, -1223898.4, -66997.96, 0.0000010252129, 9.997165, 10.000547 
1.8849199e+3, 1.9194876e+2, -1171298.5, -996047.2, -113459.945, 0.17807451, 0.013372528, -940315.2, 118591.68, 0.0, 9.998578, 10.000869 
1.8849622e+3, 2.0194831e+2, -989550.56, -969297.56, -77092.055, 0.16306627, -0.061210282, -901669.8, 59240.22, 0.0, 9.99961, 9.999899 
1.8850037e+3, 2.1195e+2, -916952.94, -889728.94, -65992.695, -0.04626878, 0.10284011, -835959.0, 26937.754, 0.0, 9.999485, 9.999819 
1.885047e+3, 2.2195089e+2, -864476.7, -851141.75, -15074.336, -0.14250751, 0.24585149, -841326.2, -76436.33, 0.0, 9.999324, 9.999498 
1.8850942e+3, 2.3194951e+2, -718503.8, -704011.25, -26756.75, 0.053737443, 0.120294675, -683536.94, -16635.96, 0.0, 9.999552, 9.999717 
1.8851405e+3, 2.4194792e+2, -669831.0, -766398.9, -62191.234, 0.1821713, 0.05502477, -639380.6, -70465.64, 0.0, 9.999795, 9.998504 
1.8851836e+3, 2.5194627e+2, -536088.94, -678071.56, -69889.31, 0.09721707, 0.037865005, -507459.56, -36526.97, 0.0, 10.000173, 9.998248 
1.8852279e+3, 2.619445e+2, -379915.78, -532232.3, 16694.762, 0.090237595, 0.05544206, -378107.4, -5156.8374, 0.000000017635879, 10.000466, 9.998445 
1.8852738e+3, 2.719434e+2, -216231.81, -340580.06, 37146.055, 0.10830173, 0.033916578, -205980.45, 68978.71, 0.000007223604, 10.0006695, 9.998976 
1.8853174e+3, 2.8194207e+2, -132277.38, -282801.0, 35656.563, -0.0650335, 0.0381185, -124258.16, 52711.26, 0.00010058898, 10.000705, 9.998692 
1.8853593e+3, 2.9193968e+2, 22116.063, -135241.66, -17993.92, -0.36259046, -0.12002672, 24147.45, 103138.06, 0.0004433926, 10.000991, 9.998888 
1.885408e+3, 3.01938e+2, 89202.34, -240953.42, -6974.4976, -0.03108833, -0.0954261, 89349.62, 89349.62, 0.00111724, 10.001772, 9.997488 
1.8854539e+3, 3.1193718e+2, 234135.73, -44368.555, -112274.54, 0.012378001, 0.05043694, 273759.9, 273759.9, 0.0020247328, 10.002224, 9.998585 
1.8946081e+3, 1.2190137e+2, -1944686.0, -1518393.5, -217146.25, 0.08354444, -0.059111916, -1427263.9, 318107.56, 0.16258536, 9.996816, 10.003249 
1.8946491e+3, 1.3190354e+2, -2040385.4, -2005303.3, 113207.84, -0.038896218, 0.18753418, -1908285.6, -260933.39, 0.110513955, 9.997845, 9.998357 
1.8946941e+3, 1.4189993e+2, -1676452.8, -1634253.4, 69872.49, -0.009048664, -0.016630648, -1582364.4, -32971.305, 0.06108175, 9.999086, 9.999614 
1.8947409e+3, 1.519026e+2, -1457199.8, -1322306.8, 106117.75, -0.0006668524, 0.14564876, -1264015.4, 187351.7, 0.024752133, 9.999262, 10.001011 
1.8947868e+3, 1.619046e+2, -1420800.0, -1316992.4, -21589.807, -0.005879123, 0.2904172, -1312681.1, 40665.77, 0.0060684755, 9.999056, 10.000474 
1.8948309e+3, 1.719031e+2, -1489758.6, -1276170.3, -54117.105, 0.083725125, 0.055452745, -1263241.1, -7881.1367, 0.0005270964, 9.997829, 10.000664 
1.8948746e+3, 1.8190227e+2, -1512131.8, -1280221.6, -54952.99, 0.13043313, -0.057187267, -1267859.1, -110491.83, 0.0000013718216, 9.997196, 10.000267 
1.8949167e+3, 1.9190496e+2, -1210679.5, -1059300.8, -48074.24, 0.001479541, 0.14602286, -1045323.94, 14018.36, 0.0, 9.998503, 10.000467 
1.8949595e+3, 2.0190647e+2, -1007880.2, -988484.9, -74598.445, -0.095404275, 0.29616162, -922956.4, 38371.26, 0.0, 9.999516, 9.999822 
1.8950038e+3, 2.1190411e+2, -929804.06, -886643.25, -62677.938, -0.009867319, 0.04961314, -841934.6, 21412.17, 0.0, 9.999344, 9.999916 
1.8950488e+3, 2.2190203e+2, -919632.25, -913784.0, -23595.805, 0.09273196, -0.10214971, -892931.8, -127567.22, 0.0, 9.999104, 9.999172 
1.8950947e+3, 2.3190221e+2, -786110.2, -795975.44, -2084.8232, 0.1387313, -0.024163656, -785687.7, -118322.266, 0.0, 9.999349, 9.999179 
1.89514e+3, 2.419021e+2, -683017.25, -742644.6, -60525.89, 0.118829474, 0.08479016, -645360.7, -75992.12, 0.0, 9.999561, 9.998787 
1.8951832e+3, 2.5190085e+2, -516068.72, -589880.2, -41487.902, 0.026530532, 0.04411589, -497447.2, -26067.129, 0.0, 9.999973, 9.99895 
1.895228e+3, 2.6189956e+2, -375049.5, -476466.16, 16180.517, 0.037121154, 0.047602672, -372530.56, 861.1731, 0.0000000071100716, 10.000265, 9.998927 
1.8952748e+3, 2.7189946e+2, -223285.78, -301173.53, 58200.71, 0.14514469, 0.08843643, -192201.45, 83189.51, 0.0000064443307, 10.000447, 9.99935 
1.8953192e+3, 2.818991e+2, -193956.56, -359881.0, 25047.348, 0.02852365, 0.17191716, -190257.95, -12864.267, 0.0000894982, 10.000469, 9.998281 
1.8953614e+3, 2.9189643e+2, -86607.625, -299334.94, 21879.375, -0.2667376, 0.057090618, -84380.6, -4960.0083, 0.00040206578, 10.000714, 9.997901 
1.89541e+3, 3.018932e+2, 27574.627, -281935.72, 12182.751, -0.037184827, 0.010984491, 28053.416, 28053.416, 0.0010244825, 10.001422, 9.997363 
1.8954551e+3, 3.118913e+2, 247850.56, 148607.89, -89605.93, -0.116805084, -0.012003743, 300657.25, 300657.25, 0.0018685344, 10.001591, 10.000191 
1.904605e+3, 1.2185957e+2, -1904959.3, -1610889.0, -262931.16, 0.074733056, 0.017918602, -1456673.3, 289108.16, 0.1713416, 9.997715, 10.002095 
1.9046478e+3, 1.3186128e+2, -1885177.4, -1995437.9, 31644.219, -0.0064601325, 0.2512229, -1876741.1, -228973.38, 0.11689223, 9.999232, 9.99773 
1.9046928e+3, 1.4185613e+2, -1819188.9, -1772000.6, 78521.66, -0.0015492552, -0.025340192, -1713604.9, -163781.72, 0.06499328, 9.998364, 9.999033 
1.9047391e+3, 1.5185864e+2, -1658487.5, -1422255.9, 123838.91, -0.016082004, 0.12842813, -1369236.0, 82562.46, 0.026617203, 9.997851, 10.001011 
1.9047847e+3, 1.618609e+2, -1651209.8, -1444283.0, 48540.95, -0.02534708, 0.30175123, -1433462.1, -79686.266, 0.0066676727, 9.997546, 10.000329 
1.9048291e+3, 1.7185925e+2, -1390816.1, -1243418.5, -16685.268, 0.09685525, 0.068766385, -1241553.4, 14237.557, 0.0006122247, 9.998587, 10.000514 
1.904873e+3, 1.818582e+2, -1245752.5, -1173627.0, 5903.245, 0.17268342, -0.04928618, -1173147.0, -15346.314, 0.0000017786746, 9.999129, 10.000068 
1.9049151e+3, 1.9186063e+2, -1228541.9, -1094983.3, 6787.7817, 0.005119319, 0.15223207, -1094639.1, -34861.465, 0.0, 9.998499, 10.000232 
1.9049582e+3, 2.0186184e+2, -1201763.4, -1078274.1, 19445.232, -0.09734463, 0.289317, -1075284.6, -113519.52, 0.0, 9.998205, 9.999819 
1.9050036e+3, 2.1185914e+2, -874975.4, -850672.44, 8124.96, 0.040951062, 0.00035079956, -848206.3, 15579.989, 0.0, 9.999708, 9.999976 
1.9050494e+3, 2.2185686e+2, -701863.1, -848298.25, 40202.77, 0.17377605, -0.16064377, -691551.8, 74253.78, 0.0, 10.000746, 9.998842 
1.9050947e+3, 2.3185743e+2, -715210.56, -821172.9, 29296.26, 0.17965299, 0.003042908, -707650.25, -39844.547, 0.0, 10.000072, 9.998666 
1.9051394e+3, 2.4185774e+2, -663278.1, -703074.25, 18483.777, 0.13973178, 0.17627427, -656017.7, -86211.09, 0.0, 9.999584, 9.999032 
1.9051832e+3, 2.5185642e+2, -422567.9, -476573.34, 15720.429, 0.033423178, 0.071604624, -418325.2, 53491.043, 0.0, 10.0003195, 9.999552 
1.9052283e+3, 2.6185498e+2, -282958.75, -418733.06, 71551.31, 0.035426795, 0.012246712, -252213.98, 121613.164, 0.000000016068412, 10.000836, 9.999047 
1.9052753e+3, 2.7185473e+2, -173806.6, -301666.06, 42671.68, 0.14656986, 0.05115888, -160873.58, 114955.016, 0.000006020835, 10.000854, 9.999165 
1.9053203e+3, 2.818545e+2, -99479.336, -312846.5, 37853.496, 0.073650554, 0.16273974, -92962.766, 84867.92, 0.00007835106, 10.001106, 9.9983015 
1.9053636e+3, 2.918528e+2, 102993.14, -196778.58, 54243.027, -0.15993124, 0.14135244, 112506.39, 192356.11, 0.00035541714, 10.001982, 9.997988 
1.9054122e+3, 3.0184913e+2, 163290.64, -224884.97, 119449.78, 0.023830522, 0.05177932, 197102.66, 197102.66, 0.0009236989, 10.002401, 9.997288 
1.9054583e+3, 3.1184563e+2, 379143.78, 289148.34, -112780.93, 0.043671682, -0.12135864, 455572.3, 455572.3, 0.0017173454, 10.002089, 10.000961 
1.9146009e+3, 1.2181513e+2, -1883004.1, -1575967.1, -44528.344, -0.17678522, 0.08519427, -1569639.8, 176582.44, 0.18042894, 9.997687, 10.002283 
1.9146469e+3, 1.3181777e+2, -1827278.3, -1889381.1, 6671.0894, -0.043570448, 0.31994507, -1826569.6, -178371.63, 0.12358676, 9.999291, 9.998427 
1.9146928e+3, 1.4181364e+2, -1780397.0, -1713444.1, 37999.113, 0.12817197, 0.10118614, -1696278.6, -146038.05, 0.069141634, 9.998458, 9.999391 
1.914738e+3, 1.5181422e+2, -1623270.9, -1340298.6, 113436.664, 0.05526547, 0.007173559, -1300439.1, 151791.7, 0.028615344, 9.997808, 10.001607 
1.9147825e+3, 1.6181572e+2, -1652716.0, -1459762.8, 61190.074, -0.03436753, 0.06942997, -1441994.1, -87780.46, 0.0073205116, 9.997597, 10.000197 
1.9148274e+3, 1.7181729e+2, -1423333.3, -1306185.0, 34510.285, 0.056194194, 0.19544826, -1296774.8, -40573.754, 0.00070924795, 9.9985695, 10.000087 
1.9148718e+3, 1.818178e+2, -1246712.5, -1195962.9, -13260.927, 0.1320484, 0.26665288, -1192706.8, -34509.367, 0.0000023137907, 9.999204, 9.999886 
1.9149147e+3, 1.9181587e+2, -1242730.6, -1109840.9, -11991.321, 0.09861616, 0.045757342, -1108767.5, -48555.75, 0.0, 9.998432, 10.000166 
1.9149579e+3, 2.0181432e+2, -1221723.0, -1097385.8, 39749.69, 0.041813146, -0.08816466, -1085764.4, -123541.26, 0.0, 9.998096, 9.9997425 
1.915003e+3, 2.1181488e+2, -901697.8, -871118.8, 77570.82, -0.00019132144, -0.04651102, -807345.06, 56871.777, 0.0, 9.999547, 9.999914 
1.9150484e+3, 2.2181526e+2, -756981.3, -909602.5, 30538.07, -0.0095403185, 0.0700407, -751097.75, 15116.503, 0.0, 10.000513, 9.998537 
1.9150938e+3, 2.3181519e+2, -775930.3, -899184.6, 11645.8545, 0.08464886, 0.21246853, -774839.56, -106617.52, 0.0, 9.999871, 9.998227 
1.915139e+3, 2.4181458e+2, -683193.25, -693399.8, 19503.725, 0.11476429, 0.32162943, -668136.25, -97904.5, 0.0, 9.99936, 9.9992075 
1.9151834e+3, 2.518128e+2, -417620.53, -417477.34, 56259.64, 0.00087917066, 0.12519132, -361289.25, 110953.23, 0.0, 10.000114, 10.000053 
1.9152285e+3, 2.618108e+2, -336468.78, -476373.6, 60960.36, -0.047654953, -0.013248707, -313633.78, 60622.18, 0.000000038925435, 10.000598, 9.998771 
1.9152747e+3, 2.718093e+2, -252891.3, -413406.8, 53934.793, -0.0046704765, -0.045090478, -236452.27, 39818.31, 0.0000054500297, 10.000636, 9.998498 
1.9153202e+3, 2.8180853e+2, -112411.48, -293076.5, 46785.55, -0.0711264, 0.048534393, -101014.69, 77264.15, 0.00006657065, 10.000901, 9.99854 
1.9153658e+3, 2.9180875e+2, 106747.195, -121478.22, 101926.35, -0.16853112, 0.1569025, 145640.02, 225919.64, 0.0003045757, 10.001698, 9.998642 
1.9154145e+3, 3.018058e+2, 118323.695, -249128.72, 91284.59, -0.012451802, 0.10060836, 139751.56, 139751.56, 0.0008128508, 10.002097, 9.997261 
1.9154598e+3, 3.1180206e+2, 313112.63, 304306.13, -71681.06, -0.05736328, -0.09729965, 380525.56, 380525.56, 0.001554456, 10.001476, 10.001332 
1.9245984e+3, 1.2176971e+2, -2110485.8, -1738035.0, 61125.18, -0.117669016, 0.13293593, -1728259.9, 18407.605, 0.18987963, 9.99649, 10.001525 
1.9246465e+3, 1.3177226e+2, -2006918.3, -1843655.1, -53065.6, 0.085782625, 0.26403156, -1827923.1, -179278.4, 0.13060497, 9.997484, 9.999618 
1.9246916e+3, 1.4177011e+2, -1754320.9, -1677654.0, 17495.463, 0.19191675, 0.16020851, -1673850.3, -123184.12, 0.07352615, 9.998552, 9.999582 
1.9247359e+3, 1.5176976e+2, -1556547.8, -1334779.6, -287.0571, 0.07355268, -0.010926326, -1334779.3, 117885.984, 0.030745408, 9.998393, 10.001354 
1.9247803e+3, 1.6177024e+2, -1577769.4, -1443433.1, -40934.8, -0.029439397, -0.0249461, -1431942.4, -77284.33, 0.008026891, 9.998219, 9.999998 
1.9248264e+3, 1.7177264e+2, -1362058.6, -1299125.5, -59481.313, 0.07917442, 0.20306718, -1263300.4, -6662.013, 0.0008187495, 9.999094, 9.999884 
1.9248717e+3, 1.817736e+2, -1205309.4, -1210405.5, -110667.625, 0.19418555, 0.34534022, -1097160.5, 61470.395, 0.0000031359323, 9.999622, 9.999587 
1.9249141e+3, 1.9177036e+2, -1104803.0, -1080956.1, -167389.58, 0.16094616, 0.022349423, -925065.9, 135591.83, 0.0, 9.999524, 9.999835 
1.9249572e+3, 2.0176807e+2, -1031126.8, -1010137.9, -69997.38, 0.10687234, -0.16433664, -949852.6, 12823.525, 0.0, 9.999414, 9.999712 
1.9250028e+3, 2.1177e+2, -849015.6, -834400.56, -23231.266, 0.02798673, 0.010398291, -817354.6, 47303.754, 0.0, 9.999854, 10.000021 
1.9250487e+3, 2.2177127e+2, -798853.9, -917845.06, -62822.7, 0.0078755235, 0.20707281, -771825.4, -5177.377, 0.0, 10.000209, 9.998611 
1.9250941e+3, 2.317698e+2, -684803.75, -848211.25, -89552.91, 0.10566794, 0.20730597, -645283.7, 23383.102, 0.0, 10.0004835, 9.998276 
1.9251391e+3, 2.4176812e+2, -524012.38, -642310.3, -34795.797, 0.1556268, 0.21114217, -514536.66, 56148.62, 0.0, 10.000545, 9.998999 
1.9251837e+3, 2.51767e+2, -431920.8, -468756.3, -68205.96, 0.04802578, 0.12087593, -379689.66, 93001.38, 0.0, 10.000183, 9.999687 
1.9252291e+3, 2.6176554e+2, -423196.8, -529802.06, -67065.28, -0.0046227872, 0.06092667, -390831.94, -16130.975, 0.000000047147957, 10.000066, 9.998654 
1.9252753e+3, 2.7176294e+2, -198885.1, -389630.25, -60282.22, -0.01690646, -0.07022123, -181430.94, 95293.49, 0.0000044268, 10.00102, 9.998477 
1.9253212e+3, 2.817612e+2, 20255.041, -211112.22, -16467.002, -0.08085498, -0.075610474, 21421.162, 200161.86, 0.000054025306, 10.001758, 9.9986725 
1.9253676e+3, 2.917621e+2, 142545.47, -80867.7, -30485.463, -0.1361705, 0.086329654, 146630.61, 227364.8, 0.0002523606, 10.001831, 9.998854 
1.9254163e+3, 3.017603e+2, 123868.48, -200101.88, -3076.8013, -0.011380369, 0.1044053, 123897.695, 123897.695, 0.0006949365, 10.001931, 9.997677 
1.9254637e+3, 3.117574e+2, 459983.38, 285364.88, -177888.23, 0.1456154, -0.01719868, 570833.5, 570833.5, 0.0013689849, 10.002809, 10.000586 
1.9345969e+3, 1.217213e+2, -2229458.3, -1992137.6, -35362.715, 0.02866162, -0.029725375, -1986980.4, -239844.13, 0.1997211, 9.996529, 9.999742 
1.9346458e+3, 1.317243e+2, -1903465.6, -1608062.0, 6244.903, 0.2509509, 0.052703124, -1607930.0, 41181.37, 0.13795441, 9.997367, 10.001338 
1.9346888e+3, 1.4172576e+2, -1741624.5, -1666190.4, 23182.465, 0.015814142, 0.17942235, -1659635.5, -108538.125, 0.07814733, 9.998609, 9.999637 
1.9347331e+3, 1.5172529e+2, -1634669.8, -1505657.3, -4035.546, -0.072440736, 0.095951304, -1505531.1, -52429.938, 0.033007, 9.998434, 10.000143 
1.9347776e+3, 1.6172437e+2, -1582169.6, -1470999.9, -37847.6, -0.14743778, 0.027319338, -1459338.1, -104227.84, 0.008786739, 9.998296, 9.999775 
1.9348256e+3, 1.7172511e+2, -1352723.6, -1283611.9, -17881.1, 0.072035536, 0.0851174, -1279259.6, -22154.412, 0.00094156526, 9.9991045, 9.999991 
1.934872e+3, 1.8172543e+2, -1221622.3, -1257157.3, -115329.016, 0.22952949, 0.16664293, -1122700.1, 36403.316, 0.0000044945964, 9.999675, 9.999242 
1.9349131e+3, 1.9172408e+2, -1154544.4, -1176515.9, -164327.9, 0.08843374, 0.08854971, -1000835.4, 60280.152, 0.0, 9.99948, 9.9992075 
1.9349553e+3, 2.0172313e+2, -1045336.4, -1015375.1, -72712.04, -0.03530678, 0.07652897, -956116.56, 7007.3623, 0.0, 9.99931, 9.999728 
1.9350028e+3, 2.117245e+2, -859143.06, -811004.56, 3933.5425, 0.028044553, 0.17652722, -810685.25, 54425.688, 0.0, 9.999663, 10.000276 
1.9350499e+3, 2.2172476e+2, -810189.56, -878186.8, -60984.6, 0.09590946, 0.2417964, -774366.8, -7258.4146, 0.0, 9.999945, 9.999008 
1.9350949e+3, 2.3172131e+2, -683343.3, -795956.7, -67562.37, 0.1259535, -0.0014244032, -651700.5, 17439.459, 0.0, 10.000277, 9.998732 
1.9351396e+3, 2.4171849e+2, -597966.44, -744746.5, -54975.965, 0.12064903, -0.12241027, -579658.8, -8492.793, 0.0, 10.000321, 9.998406 
1.9351842e+3, 2.5171915e+2, -533108.5, -640777.44, -72538.5, 0.07013726, 0.06597814, -496610.38, -23449.271, 0.0, 10.000023, 9.998584 
1.9352297e+3, 2.61719e+2, -463191.03, -558510.1, -59110.33, 0.037658606, 0.21921797, -434919.94, -59757.24, 0.00000001782158, 9.999842, 9.998562 
1.9352765e+3, 2.7171564e+2, -204363.77, -336601.72, -8359.748, -0.0061351806, -0.028453438, -203837.38, 73353.1, 0.0000033385966, 10.000766, 9.998953 
1.9353229e+3, 2.8171283e+2, -19670.242, -242604.22, -23158.695, -0.10746761, -0.16694653, -17289.9, 161923.78, 0.00004416703, 10.001519, 9.99858 
1.9353688e+3, 2.9171318e+2, 98775.38, -109661.086, -14379.587, -0.215041, -0.042798508, 99762.73, 180973.78, 0.00021030588, 10.001574, 9.998778 
1.935417e+3, 3.0171308e+2, 118379.45, -138530.34, -2384.812, -0.13943313, 0.10634516, 118401.586, 118401.586, 0.0005915153, 10.001621, 9.998247 
1.9354677e+3, 3.1171042e+2, 217406.28, -47964.293, -44944.39, 0.245399, -0.022782763, 224811.63, 224811.63, 0.0011871094, 10.00213, 9.998592 
1.9445945e+3, 1.21674016e+2, -2170381.0, -2140400.0, -47316.785, 0.1107493, -0.05340019, -2105756.0, -358156.88, 0.20999403, 9.997663, 9.998188 
1.9446443e+3, 1.3167763e+2, -1720310.0, -1408701.6, 1908.5615, 0.3668877, 0.030758044, -1408690.0, 240878.33, 0.14565058, 9.997962, 10.002672 
1.9446869e+3, 1.4167948e+2, -1638569.4, -1601628.3, -7524.68, -0.055180155, 0.08596613, -1600154.3, -48605.477, 0.083007626, 9.999229, 9.999795 
1.9447316e+3, 1.5167962e+2, -1649049.4, -1607834.8, -77105.89, -0.06982053, 0.13370176, -1548629.9, -95080.77, 0.03539992, 9.9987335, 9.999303 
1.9447765e+3, 1.6167857e+2, -1622822.6, -1518095.8, -37508.918, -0.060475823, 0.11405289, -1506047.6, -150486.53, 0.009600047, 9.998129, 9.999539 
1.9448245e+3, 1.7167819e+2, -1375001.8, -1288158.1, -21810.99, 0.078821555, 0.06194565, -1282988.1, -25422.418, 0.0010784023, 9.998926, 10.000043 
1.944871e+3, 1.8167797e+2, -1226964.4, -1247293.3, -114485.94, 0.18342996, 0.07968743, -1122192.6, 37375.81, 0.0000066792873, 9.999609, 9.999332 
1.9449125e+3, 1.9167757e+2, -1054675.1, -1110720.4, -143812.58, 0.06342092, 0.088269256, -936180.44, 125391.336, 0.0, 10.00013, 9.9993305 
1.9449551e+3, 2.0167731e+2, -917359.75, -978148.56, -7960.625, -0.016382972, 0.14407465, -916334.56, 47239.754, 0.0, 10.000305, 9.9995 
1.9450028e+3, 2.1167797e+2, -868168.75, -857445.44, 2537.2346, 0.072526686, 0.2101789, -856875.4, 8693.949, 0.0, 9.999796, 9.999888 
1.94505e+3, 2.2167772e+2, -873216.5, -897378.75, -65229.484, 0.1541114, 0.24640454, -818958.8, -51386.92, 0.0, 9.999442, 9.999125 
1.9450949e+3, 2.3167449e+2, -704020.5, -765084.4, -92901.77, 0.14522146, -0.0050750175, -636762.2, 32836.41, 0.0, 9.999944, 9.999113 
1.9451398e+3, 2.416718e+2, -594577.4, -767184.94, -58314.816, 0.12723172, -0.13177587, -576722.8, -5100.825, 0.0, 10.00047, 9.998178 
1.9451849e+3, 2.5167182e+2, -405409.9, -647097.06, -69464.734, 0.098920055, 0.047507424, -386867.25, 86758.52, 0.0, 10.001193, 9.997976 
1.9452308e+3, 2.6167136e+2, -215581.28, -464789.3, -12629.372, 0.09015159, 0.21552707, -214942.88, 160689.84, 0.000000002142629, 10.001632, 9.998349 
1.9452776e+3, 2.7166885e+2, -155746.25, -322635.63, -17275.105, 0.029422825, 0.06246245, -153976.81, 123674.97, 0.0000030022966, 10.0011015, 9.998906 
1.9453242e+3, 2.8166598e+2, -165937.11, -337243.7, -23513.914, -0.06620461, -0.06933205, -162768.17, 16906.93, 0.00003904193, 10.000613, 9.99838 
1.9453707e+3, 2.9166433e+2, 37998.65, -157181.06, -53033.61, -0.13342834, -0.11648392, 51477.883, 133168.25, 0.00018459432, 10.001211, 9.998642 
1.94542e+3, 3.016645e+2, 191732.38, -60277.215, -26520.611, -0.0027758193, 0.04002047, 194493.06, 194493.06, 0.00051477127, 10.001956, 9.998615 
1.9454688e+3, 3.116633e+2, 180061.4, -161695.83, -97657.664, 0.15187372, 0.048789665, 205998.75, 205998.75, 0.001027113, 10.002235, 9.997779 
1.9545919e+3, 1.21629566e+2, -2219648.0, -2316471.3, -59082.84, 0.005620688, 0.22652628, -2191676.0, -443635.2, 0.22070916, 9.997914, 9.996889 
1.954642e+3, 1.3163255e+2, -1632633.1, -1279076.5, 59411.895, 0.3145661, 0.22687803, -1269360.0, 380652.8, 0.15369554, 9.998077, 10.003696 
1.9546854e+3, 1.4163107e+2, -1598137.1, -1549930.8, -5420.8687, -0.16004281, -0.14249502, -1549328.8, 2693.395, 0.08810495, 9.999368, 10.000083 
1.9547309e+3, 1.516326e+2, -1679909.1, -1682327.0, -93914.11, -0.02174234, 0.085701175, -1587196.1, -133186.11, 0.037922986, 9.998769, 9.998779 
1.9547766e+3, 1.6163288e+2, -1625885.3, -1543672.1, -40777.387, 0.10434139, 0.2400805, -1526877.5, -170867.36, 0.010466628, 9.998207, 9.999328 
1.9548227e+3, 1.7163199e+2, -1376523.4, -1300320.3, 19893.807, 0.00068711257, 0.14409648, -1295439.3, -37420.566, 0.0012294218, 9.99895, 9.999952 
1.9548681e+3, 1.8163118e+2, -1183417.5, -1168264.3, -100360.61, -0.084931545, 0.0941585, -1075194.6, 84831.0, 0.000009908067, 9.999662, 9.999846 
1.954912e+3, 1.9163081e+2, -1005541.2, -995699.6, -116905.805, -0.017288119, 0.029469952, -883611.06, 178415.55, 0.0, 10.000074, 10.000148 
1.9549562e+3, 2.0163034e+2, -968260.0, -1054777.3, -29668.617, 0.04315109, 0.027718214, -959063.56, 4966.4297, 0.0, 10.000178, 9.999036 
1.9550024e+3, 2.1163025e+2, -965624.5, -1021161.06, -9483.521, 0.05496511, 0.112108335, -964049.75, -98014.94, 0.0, 9.999634, 9.99884 
1.9550487e+3, 2.2162996e+2, -910889.9, -930580.6, -65659.59, 0.057406213, 0.21654001, -854341.6, -86301.45, 0.0, 9.999237, 9.999 
1.9550942e+3, 2.3162922e+2, -709878.6, -730931.56, -60639.8, 0.057193037, 0.18740748, -658858.44, 11185.417, 0.0, 9.99975, 9.999438 
1.9551395e+3, 2.4162781e+2, -634078.0, -789412.1, -43684.92, 0.036153477, 0.16892132, -622635.3, -50580.05, 0.0, 10.000211, 9.998148 
1.9551855e+3, 2.516249e+2, -448825.97, -684550.0, -28370.52, 0.029792726, 0.06788245, -445459.5, 28626.74, 0.0, 10.000976, 9.997815 
1.9552319e+3, 2.616228e+2, -277753.03, -536884.9, -28304.072, 0.029101579, 0.08983073, -274697.5, 101411.445, 0.00000003752054, 10.001379, 9.997981 
1.9552784e+3, 2.7162263e+2, -214511.34, -401873.8, -26742.297, -0.024137784, 0.21398745, -210769.16, 67338.945, 0.0000033251551, 10.00092, 9.998449 
1.9553244e+3, 2.8162068e+2, -235726.72, -425557.2, -35149.305, -0.109513804, 0.21954268, -229427.44, -49302.645, 0.000036409245, 10.000373, 9.997887 
1.9553731e+3, 2.916158e+2, -26719.617, -221888.64, -5173.363, -0.027323298, -0.10592491, -26582.582, 55587.3, 0.00016708692, 10.000922, 9.998331 
1.9554242e+3, 3.0161488e+2, 142212.11, -84815.055, -27096.389, 0.2050689, -0.03962076, 145401.34, 145401.34, 0.00045041088, 10.0016, 9.99863 
1.9554682e+3, 3.116154e+2, 132110.31, -140522.61, -34881.676, -0.16525714, 0.11934421, 136502.44, 136502.44, 0.00087241025, 10.001753, 9.998143 
1.9645908e+3, 1.21582575e+2, -2242927.0, -2298864.5, -37586.645, 0.14056952, 0.24139515, -2224045.0, -475542.8, 0.23177752, 9.997723, 9.997053 
1.9646384e+3, 1.3158515e+2, -1718036.3, -1307234.4, 74209.74, 0.1949903, 0.19538207, -1294239.8, 356238.22, 0.1620495, 9.997519, 10.003725 
1.9646849e+3, 1.4158463e+2, -1905276.3, -1683837.0, -43204.31, -0.025126824, -0.074798726, -1675706.1, -123228.56, 0.093428105, 9.997237, 10.000165 
1.9647306e+3, 1.5158579e+2, -1583102.5, -1598972.5, -106575.15, 0.05224466, 0.08704815, -1484167.4, -29699.799, 0.04057487, 9.999313, 9.99906 
1.9647764e+3, 1.6158548e+2, -1293850.6, -1424902.0, -25808.137, 0.15090904, 0.176347, -1288951.4, 67520.664, 0.011385711, 10.000665, 9.99896 
1.9648217e+3, 1.7158432e+2, -1413121.8, -1385294.4, -36959.766, 0.017501663, 0.111148, -1359716.1, -101231.92, 0.0013940044, 9.999, 9.999341 
1.9648668e+3, 1.8158352e+2, -1474160.9, -1310216.6, -141111.63, -0.07583294, 0.10335128, -1228995.9, -68503.805, 0.000014255441, 9.99766, 9.999843 
1.9649117e+3, 1.915838e+2, -1157598.4, -1038099.3, -198765.52, 0.017255306, 0.07835005, -890297.06, 172190.52, 0.0, 9.998884, 10.000435 
1.9649567e+3, 2.015836e+2, -1009678.4, -1098926.1, -141976.9, 0.09344952, 0.090929694, -905477.75, 59011.133, 0.0, 9.999989, 9.998824 
1.9650021e+3, 2.1158212e+2, -927958.8, -1058853.1, -118266.03, 0.051804144, 0.08162117, -858238.7, 8267.8, 0.0, 10.000108, 9.998358 
1.965048e+3, 2.2158095e+2, -793687.8, -883190.25, -110195.555, 0.03629674, 0.13261901, -719503.2, 49017.09, 0.0, 10.000096, 9.998907 
1.965094e+3, 2.3158103e+2, -612276.5, -680566.8, -138918.88, 0.051801287, 0.1878456, -503368.0, 167149.56, 0.0, 10.000399, 9.999474 
1.96514e+3, 2.4158028e+2, -553817.9, -709347.94, -113134.69, 0.060139477, 0.22184578, -494299.03, 78224.44, 0.0, 10.00056, 9.998542 
1.965186e+3, 2.515776e+2, -550935.9, -669955.9, -78116.15, 0.05017603, 0.08797465, -512244.16, -37694.01, 0.0, 9.999993, 9.998396 
1.9652328e+3, 2.6157537e+2, -505229.5, -656518.56, 3104.1343, 0.06983488, 0.06995074, -505165.8, -128594.055, 0.00000006167767, 9.999864, 9.997892 
1.9652799e+3, 2.7157453e+2, -166408.14, -432435.13, -19202.328, 0.037354838, 0.16688113, -165029.22, 113550.28, 0.000003603985, 10.001488, 9.997962 
1.9653264e+3, 2.8157228e+2, 54421.676, -314106.56, -17664.91, -0.044670302, 0.18820743, 55266.484, 235867.13, 0.00003430298, 10.002498, 9.9976225 
1.9653742e+3, 2.9156843e+2, 9351.034, -237936.0, -18419.66, -0.008218723, -0.008884148, 10715.529, 93353.805, 0.00015136057, 10.001313, 9.998037 
1.9654259e+3, 3.0156705e+2, 12607.566, -165690.63, 16519.805, 0.26495448, 0.0459834, 14125.252, 14125.252, 0.00039140965, 10.000784, 9.998475 
1.965469e+3, 3.1156683e+2, 247526.55, 4973.062, -103793.664, -0.26049614, 0.13414028, 285878.03, 285878.03, 0.0007268672, 10.002136, 9.99898 
1.9745892e+3, 1.2153418e+2, -2092721.4, -2039063.3, -151451.0, 0.13203618, 0.042925928, -1912083.4, -163112.1, 0.24301729, 9.997938, 9.998737 
1.9746327e+3, 1.3153519e+2, -1811657.3, -1484017.1, 64546.113, -0.12791677, -0.10872684, -1471759.9, 179205.45, 0.17062773, 9.997553, 10.002291 
1.9746849e+3, 1.4154044e+2, -1911164.0, -1705446.3, -15322.1875, 0.23197605, 0.31663027, -1704311.3, -151398.61, 0.09895461, 9.997263, 10.000012 
1.97473e+3, 1.515391e+2, -1499866.1, -1441655.6, -11570.015, 0.044800423, 0.14236757, -1439440.3, 15481.493, 0.04335473, 9.999367, 10.000126 
1.9747752e+3, 1.615361e+2, -1300778.3, -1469452.9, -54442.633, -0.06286596, -0.095137954, -1284732.4, 72216.55, 0.012356995, 10.000805, 9.998586 
1.9748211e+3, 1.71535e+2, -1487601.6, -1543953.4, -103619.66, 0.03747402, -0.050990753, -1408395.4, -149431.7, 0.0015709848, 9.999021, 9.998245 
1.9748664e+3, 1.815348e+2, -1510927.8, -1389702.5, -145053.06, 0.10776127, 0.09293862, -1293107.4, -132137.58, 0.000019593592, 9.997669, 9.999297 
1.974911e+3, 1.9153644e+2, -1183937.5, -1075755.4, -135862.81, 0.05601142, 0.23457378, -983611.9, 79343.914, 0.0, 9.99881, 10.000213 
1.9749558e+3, 2.0153694e+2, -1031065.25, -1111117.5, -130451.914, -0.0028001077, 0.33269325, -934637.06, 30315.342, 0.0, 9.999854, 9.998804 
1.9750014e+3, 2.1153376e+2, -948984.6, -1058115.0, -107472.68, -0.03428118, 0.14383282, -883018.8, -16035.952, 0.0, 9.999921, 9.998451 
1.9750473e+3, 2.2153082e+2, -842011.8, -931818.0, -114493.34, -0.038509265, 0.020761402, -763931.1, 5079.6953, 0.0, 9.999862, 9.998692 
1.9750942e+3, 2.3152998e+2, -656366.56, -739772.0, -112993.95, 0.034641456, 0.011145304, -577625.3, 93393.984, 0.0, 10.000247, 9.999145 
1.9751407e+3, 2.415294e+2, -533872.94, -624147.0, -134768.66, 0.07602393, 0.06016343, -436883.47, 136141.14, 0.0, 10.000364, 9.999225 
1.9751862e+3, 2.5152975e+2, -480281.9, -497695.5, -91590.586, 0.05882355, 0.11601352, -396985.22, 78033.0, 0.0, 9.999876, 9.999639 
1.9752328e+3, 2.6152894e+2, -532410.1, -665968.9, 23062.102, 0.070438094, 0.15160182, -528540.06, -151516.44, 0.000000055759365, 9.999664, 9.997918 
1.9752821e+3, 2.7152473e+2, -236732.08, -522753.47, 59834.5, 0.095595635, -0.046452865, -224719.47, 54345.293, 0.0000036492006, 10.001259, 9.997442 
1.9753295e+3, 2.815214e+2, -1164.3646, -370713.47, -47059.26, -0.0062988508, -0.09675569, 4734.126, 185832.56, 0.00003270768, 10.00223, 9.997372 
1.9753739e+3, 2.9152194e+2, -30709.693, -282597.1, -44753.945, -0.19074804, 0.1583754, -22994.383, 60103.895, 0.00013942833, 10.001141, 9.997816 
1.9754243e+3, 3.015206e+2, -99933.28, -313051.28, 24106.19, 0.016517743, 0.28268442, -97240.6, -97240.6, 0.00034788318, 10.000434, 9.997625 
1.9754726e+3, 3.115172e+2, 262832.44, 176217.16, -29438.107, -0.14678992, 0.09350131, 271890.38, 271890.38, 0.0006198475, 10.0015745, 10.000409 
1.9845885e+3, 1.2148745e+2, -1946875.0, -1750509.4, -147660.48, 0.28615683, 0.030100226, -1671369.0, 78060.33, 0.25424254, 9.997938, 10.000884 
1.98463e+3, 1.3148637e+2, -1696621.1, -1627406.6, -20750.445, -0.24267334, -0.20884067, -1621662.4, 29781.04, 0.17932345, 9.999299, 10.000278 
1.9846837e+3, 1.414922e+2, -1689549.9, -1663076.8, -91379.19, 0.30842987, 0.4330835, -1583980.4, -30592.068, 0.104643695, 9.99906, 9.999443 
1.9847293e+3, 1.514904e+2, -1573550.5, -1439258.4, -136328.1, 0.07822299, 0.1942071, -1354437.5, 100963.87, 0.046255346, 9.998699, 10.00049 
1.9847745e+3, 1.6148733e+2, -1625088.9, -1580857.4, -219646.63, -0.077934206, -0.08722048, -1382215.9, -24787.67, 0.013380272, 9.998389, 9.998977 
1.9848202e+3, 1.7148642e+2, -1471553.9, -1488962.9, -204178.23, 0.07556355, -0.06334229, -1275894.6, -16455.582, 0.0017591557, 9.998935, 9.998661 
1.9848657e+3, 1.8148623e+2, -1282632.4, -1327865.6, -102590.17, 0.1969538, 0.067834295, -1200195.4, -38751.59, 0.0000256483, 9.999431, 9.998872 
1.9849108e+3, 1.914872e+2, -1073833.1, -1121836.1, -128480.98, 0.09805432, 0.21782985, -967131.0, 96307.84, 0.0, 9.999971, 9.99934 
1.9849558e+3, 2.0148727e+2, -974500.56, -1075249.8, -161775.47, 0.009577321, 0.32960597, -855438.2, 110003.17, 0.0, 10.000205, 9.998883 
1.9850013e+3, 2.1148469e+2, -914371.06, -982765.25, -147177.61, -0.025475366, 0.15586577, -797469.9, 69995.195, 0.0, 9.999904, 9.99898 
1.9850473e+3, 2.2148225e+2, -847347.6, -914597.56, -84733.36, -0.021129197, 0.042253934, -789811.3, -20323.79, 0.0, 9.999736, 9.998869 
1.9850945e+3, 2.3148155e+2, -659990.7, -742731.94, -71228.14, 0.06330303, 0.04372787, -618990.4, 52505.703, 0.0, 10.000228, 9.999129 
1.9851418e+3, 2.4148117e+2, -475399.16, -590774.0, -80921.96, 0.124858335, 0.11162436, -433707.5, 139793.03, 0.0, 10.000783, 9.9992285 
1.9851871e+3, 2.5148135e+2, -217498.31, -375935.0, -151227.9, 0.07571975, 0.15904035, -125996.336, 349498.78, 0.0, 10.001719, 9.999577 
1.9852336e+3, 2.614804e+2, -141367.17, -461138.28, -70684.14, 0.06962338, 0.17757528, -126439.57, 251062.52, 0.00000004684117, 10.002288, 9.998058 
1.9852833e+3, 2.714764e+2, -179214.75, -474489.88, -15717.79, 0.10110782, -0.014327517, -178380.42, 101161.27, 0.000003631824, 10.001568, 9.997624 
1.9853312e+3, 2.814736e+2, -140276.13, -397875.9, -67734.58, 0.018890942, -0.032684207, -123551.5, 58018.79, 0.000030883682, 10.00112, 9.997708 
1.9853751e+3, 2.9147473e+2, 87360.234, -190072.69, -81485.13, -0.20674291, 0.25104555, 109522.875, 193086.39, 0.00012822116, 10.001828, 9.998105 
1.9854248e+3, 3.0147326e+2, 158912.61, -212885.83, 86209.29, -0.04595828, 0.35240316, 177929.38, 177929.38, 0.00031412428, 10.002278, 9.997427 
1.985476e+3, 3.1146818e+2, 272108.84, 155158.98, -43287.81, 0.06325352, 0.032440543, 286387.97, 286387.97, 0.00054947456, 10.0016775, 10.000227 
1.9945873e+3, 1.2144288e+2, -1732981.6, -1424158.9, -89222.234, 0.31700665, 0.2796054, -1400234.9, 349637.38, 0.26535824, 9.998049, 10.003729 
1.9946294e+3, 1.31439e+2, -1858428.8, -1991492.0, -16974.623, -0.23545463, -0.05793658, -1856297.5, -204387.55, 0.18805622, 9.999429, 9.997678 
1.9946805e+3, 1.4143923e+2, -1732679.9, -1795266.3, -121147.72, 0.036400806, 0.22149213, -1638849.0, -84937.59, 0.11045076, 9.999242, 9.998451 
1.9947278e+3, 1.514393e+2, -1596441.1, -1488285.3, -150892.63, 0.04697262, 0.22396626, -1382072.8, 73837.87, 0.04926506, 9.998713, 10.000142 
1.9947739e+3, 1.614391e+2, -1538152.4, -1403616.1, -223216.61, 0.004732452, 0.21567626, -1237752.0, 120159.13, 0.014456319, 9.998399, 10.000198 
1.9948189e+3, 1.7143859e+2, -1327173.5, -1189133.9, -175569.75, 0.035841547, 0.08535481, -1069504.6, 190406.0, 0.0019582892, 9.998932, 10.000721 
1.9948642e+3, 1.8143773e+2, -1294294.3, -1362659.3, -89828.695, 0.06501054, 0.019416112, -1232364.1, -70448.63, 0.000032105352, 9.999482, 9.998608 
1.9949104e+3, 1.91436e+2, -1187574.1, -1342777.9, -100659.62, 0.04964712, 0.029070234, -1138076.0, -74138.36, 0.0, 9.999915, 9.997847 
1.9949563e+3, 2.0143454e+2, -985402.6, -1072712.4, -178501.45, 0.018600265, 0.08561422, -845295.4, 120661.19, 0.0, 10.000091, 9.998958 
1.9950013e+3, 2.1143477e+2, -868012.4, -853407.2, -151757.36, -0.02163831, 0.11413471, -708776.8, 159177.78, 0.0, 9.999759, 9.999938 
1.9950469e+3, 2.2143514e+2, -841918.1, -853960.4, -83981.11, -0.03989252, 0.19613613, -763742.56, 6208.889, 0.0, 9.99952, 9.99939 
1.9950947e+3, 2.3143569e+2, -664819.8, -713910.5, -36197.496, 0.03899188, 0.28819776, -645630.4, 26317.838, 0.0, 10.000054, 9.999413 
1.9951421e+3, 2.4143533e+2, -567606.7, -723091.8, -62378.55, 0.075934514, 0.36427838, -545674.8, 28278.393, 0.0, 10.000524, 9.998449 
1.9951881e+3, 2.5143245e+2, -337383.53, -580999.6, -102773.266, 0.0086611295, 0.22204717, -299819.22, 176161.58, 0.0, 10.001527, 9.998261 
1.995235e+3, 2.614298e+2, -175566.44, -470986.13, -88086.19, -0.04194388, 0.15819979, -151295.55, 226710.69, 0.000000042002604, 10.002031, 9.998113 
1.9952835e+3, 2.7142918e+2, -159088.33, -377055.13, -30171.383, -0.048065085, 0.23852095, -154989.05, 125023.57, 0.0000035134383, 10.001343, 9.998395 
1.995331e+3, 2.814282e+2, -142786.36, -341903.34, -70718.91, -0.12116977, 0.33703175, -120225.83, 61796.324, 0.00002820436, 10.00085, 9.998226 
1.995377e+3, 2.9142648e+2, 90688.9, -123677.65, -36274.105, -0.21700819, 0.27062201, 96660.67, 180698.28, 0.00011358975, 10.001559, 9.998693 
1.9954266e+3, 3.0142504e+2, 103860.72, -200630.52, 57656.883, -0.11565206, 0.30420914, 114412.66, 114412.66, 0.00027761437, 10.001766, 9.997742 
1.9954777e+3, 3.1142062e+2, 44128.113, -184097.1, -25723.938, 0.010430083, 0.05899394, 46991.61, 46991.61, 0.0004899251, 10.0011425, 9.99813 
2.004585e+3, 1.2139498e+2, -1715354.3, -1312593.3, -114738.01, 0.31329605, 0.36491802, -1282200.3, 468144.0, 0.27641812, 9.997554, 10.005056 
2.0046288e+3, 1.3139112e+2, -1981528.6, -2124569.3, -18564.936, -0.19268614, 0.06764579, -1979158.4, -326779.16, 0.1968332, 9.998902, 9.997008 
2.0046799e+3, 1.4138874e+2, -1681331.3, -1781970.8, -13875.453, 0.068998516, 0.12202196, -1679453.3, -125046.945, 0.11636926, 9.999654, 9.998334 
2.0047268e+3, 1.5138909e+2, -1585273.6, -1488433.3, -51040.125, 0.09876797, 0.15697256, -1466500.0, -10096.165, 0.05238356, 9.99881, 10.000073 
2.0047724e+3, 1.613898e+2, -1558962.8, -1387819.5, -66617.94, 0.047168367, 0.23315941, -1364945.5, -6549.3086, 0.015589432, 9.998121, 10.000441 
2.0048179e+3, 1.7139013e+2, -1257806.0, -1116632.0, -131918.2, 0.039941784, 0.14746092, -1037603.06, 222783.78, 0.0021699998, 9.999208, 10.001096 
2.0048636e+3, 1.8138959e+2, -1216466.0, -1299022.8, -121400.61, 0.06834054, 0.077894345, -1129517.9, 32869.863, 0.00003871999, 9.999919, 9.998829 
2.00491e+3, 1.9138682e+2, -1210763.8, -1348650.8, -60197.305, 0.055051167, -0.023193764, -1188181.8, -123764.06, 0.0, 9.999743, 9.997891 
2.0049562e+3, 2.013847e+2, -1062577.0, -1110884.3, -38039.02, 0.041116253, -0.03679727, -1041671.1, -75229.39, 0.0, 9.999578, 9.998942 
2.0050018e+3, 2.1138594e+2, -808262.94, -828837.9, -93910.17, 0.03678792, 0.09700947, -724078.44, 144353.64, 0.0, 10.000198, 9.999897 
2.0050476e+3, 2.213871e+2, -677863.2, -778311.2, -74161.69, 0.038215704, 0.26273772, -638519.25, 131903.8, 0.0, 10.000684, 9.99934 
2.0050944e+3, 2.31387e+2, -555958.7, -666752.5, -81749.71, -0.006382622, 0.30262473, -512604.25, 159821.05, 0.0, 10.000855, 9.999338 
2.0051417e+3, 2.4138601e+2, -490478.16, -704443.56, -83480.67, -0.02905534, 0.32491076, -461761.5, 112674.89, 0.0, 10.001097, 9.998317 
2.0051895e+3, 2.513831e+2, -354330.6, -605247.1, -61810.555, 0.024205754, 0.19720984, -339930.63, 136534.97, 0.0, 10.001462, 9.998133 
2.0052375e+3, 2.6138097e+2, -222117.33, -471917.3, 2391.915, 0.06192258, 0.18699172, -222094.42, 156392.3, 0.000000029896977, 10.001616, 9.998301 
2.0052847e+3, 2.71381e+2, -154628.7, -345702.66, -7446.6465, -0.04291734, 0.3021906, -154338.92, 126146.83, 0.0000031274246, 10.001224, 9.998674 
2.0053317e+3, 2.8137973e+2, -113950.86, -306372.9, -18584.15, -0.13379064, 0.34452486, -112172.44, 70324.07, 0.000025154262, 10.000947, 9.99843 
2.0053788e+3, 2.9137623e+2, 3318.9424, -159392.67, -49340.055, -0.13812003, 0.09515327, 17111.484, 101638.945, 0.00009776422, 10.0009365, 9.998749 
2.0054282e+3, 3.0137593e+2, 36850.88, -176020.0, 40441.52, -0.06596901, 0.21548952, 44275.086, 44275.086, 0.00024034745, 10.001042, 9.998281 
2.0054805e+3, 3.1137305e+2, 130672.09, -183521.52, -26847.752, 0.16895737, 0.08955368, 132949.72, 132949.72, 0.0004335503, 10.00189, 9.997801 
2.0145817e+3, 1.21341266e+2, -1763178.5, -1402438.0, -112883.984, 0.16754726, 0.058481205, -1370026.1, 380842.56, 0.28771394, 9.997619, 10.004237 
2.0146278e+3, 1.3134249e+2, -1863946.5, -1879757.6, 36964.004, -0.20709373, 0.14778699, -1834052.1, -181198.53, 0.20582092, 9.998895, 9.998697 
2.0146823e+3, 1.4134106e+2, -1604618.3, -1644822.1, -27914.977, 0.2973687, 0.14967738, -1590320.6, -35450.965, 0.12247417, 9.999739, 9.999237 
2.0147263e+3, 1.5133987e+2, -1561346.1, -1447107.9, -78530.805, 0.12769833, -0.009111002, -1407120.4, 49759.18, 0.055639356, 9.9988365, 10.000361 
2.0147695e+3, 1.613394e+2, -1595167.3, -1483118.6, -59703.133, -0.09649029, -0.0519271, -1457270.0, -98387.086, 0.016791714, 9.998206, 9.999748 
2.0148169e+3, 1.7134106e+2, -1353328.0, -1309623.3, -77758.67, 0.00030486443, 0.11897254, -1250704.8, 10163.307, 0.0023981123, 9.999191, 9.999775 
2.0148641e+3, 1.8134192e+2, -1164401.4, -1208394.0, -128441.92, 0.090873875, 0.25829464, -1056085.9, 106774.48, 0.000045425786, 9.999985, 9.999424 
2.0149094e+3, 1.9133976e+2, -1103019.3, -1112203.5, -65291.83, 0.008911557, 0.07374505, -1042158.25, 22720.416, 0.0, 9.999687, 9.999541 
2.014955e+3, 2.013379e+2, -1085949.0, -1129682.9, -35947.305, -0.0534748, -0.02432576, -1065740.3, -98844.82, 0.0, 9.999449, 9.998878 
2.015002e+3, 2.1133827e+2, -913681.6, -1004807.5, -57066.93, 0.055353023, 0.11482904, -886219.8, -17323.256, 0.0, 10.000015, 9.998778 
2.015049e+3, 2.2133806e+2, -765980.5, -910345.56, -71203.58, 0.088406354, 0.24692181, -736771.4, 34131.465, 0.0, 10.000452, 9.99855 
2.0150939e+3, 2.3133542e+2, -615594.8, -759737.5, -63397.28, -0.16719998, 0.09099409, -591679.25, 81249.25, 0.0, 10.000706, 9.998779 
2.01514e+3, 2.4133302e+2, -495773.47, -656277.25, -77458.5, -0.32090333, -0.0045789825, -464489.78, 110461.98, 0.0, 10.00085, 9.998763 
2.0151909e+3, 2.5133327e+2, -314543.88, -475036.53, -35603.813, 0.009232712, 0.0937228, -307000.1, 169950.55, 0.0, 10.0012665, 9.999119 
2.015241e+3, 2.6133355e+2, -239489.77, -454289.66, -13657.202, 0.22842188, 0.25274995, -238624.9, 140323.19, 0.0000000091701935, 10.00138, 9.998539 
2.0152864e+3, 2.7133197e+2, -191369.47, -374397.38, -7104.4683, -0.01058036, 0.21224001, -191094.11, 89866.59, 0.0000023642951, 10.001018, 9.998578 
2.0153321e+3, 2.8132877e+2, -176147.94, -370668.34, -38586.305, -0.19729266, 0.07039574, -168773.3, 14215.862, 0.000021595964, 10.000677, 9.998113 
2.0153801e+3, 2.9132402e+2, -51328.773, -249043.86, -31316.725, -0.11192345, -0.2633342, -46486.984, 38546.43, 0.000083873885, 10.000813, 9.998199 
2.0154291e+3, 3.0132556e+2, 9603.567, -146908.34, 42739.89, -0.10239776, 0.07448522, 20514.27, 20514.27, 0.00020823472, 10.000708, 9.998623 
2.0154822e+3, 3.11327e+2, 102264.9, -31520.38, 127345.65, 0.114490785, 0.27438253, 179217.8, 179217.8, 0.00038333618, 10.001035, 9.999231 
2.0245801e+3, 1.2129065e+2, -1540892.1, -1463789.9, -31549.754, 0.120210275, -0.029439457, -1452525.6, 298836.8, 0.29983783, 10.000661, 10.002209 
2.0246275e+3, 1.3129379e+2, -1813169.5, -1728268.9, 64044.746, -0.09686963, 0.19597049, -1693883.3, -40552.81, 0.21537028, 9.998716, 9.999806 
2.0246814e+3, 1.4129286e+2, -1755887.6, -1651024.0, -29593.531, 0.32983282, 0.1453739, -1643248.9, -87907.41, 0.12892798, 9.998407, 9.999841 
2.0247248e+3, 1.5129218e+2, -1565812.8, -1434796.6, -131904.39, 0.1253845, 0.015366724, -1353029.1, 104316.89, 0.05909158, 9.998746, 10.000507 
2.0247678e+3, 1.6129161e+2, -1528356.4, -1486003.4, -72376.27, -0.08566143, -0.03472217, -1431769.1, -72418.94, 0.018083457, 9.998848, 9.999404 
2.0248164e+3, 1.7129238e+2, -1404743.1, -1412563.8, -50937.21, 0.052286264, 0.112907074, -1357566.4, -96220.086, 0.0026487417, 9.999217, 9.999042 
2.0248646e+3, 1.8129276e+2, -1232381.5, -1219131.5, -82167.45, 0.17885837, 0.25034216, -1143322.4, 20022.123, 0.000052423693, 9.999418, 9.9996195 
2.0249093e+3, 1.9129172e+2, -1058007.4, -1014961.4, -112247.42, 0.03781137, 0.11271402, -922192.06, 143158.27, 0.0, 9.999657, 10.000222 
2.0249544e+3, 2.0129071e+2, -1012667.25, -1071385.5, -91319.97, -0.055439778, 0.04532477, -946103.0, 21254.13, 0.0, 9.999859, 9.999066 
2.0250022e+3, 2.1129037e+2, -869277.25, -999140.7, -63439.637, 0.05768815, 0.11971632, -843430.6, 25934.441, 0.0, 10.000383, 9.998629 
2.0250496e+3, 2.2128941e+2, -737713.25, -916421.5, -4823.0107, 0.11781419, 0.19004677, -737583.2, 33795.35, 0.0, 10.000726, 9.998371 
2.0250948e+3, 2.3128667e+2, -652697.1, -797834.94, 7794.3457, -0.110024065, 0.042466916, -652279.75, 21125.691, 0.0, 10.000541, 9.998589 
2.0251413e+3, 2.4128446e+2, -563460.2, -684442.56, 30230.95, -0.23703003, -0.025515, -556326.7, 19100.467, 0.0, 10.000384, 9.998782 
2.025192e+3, 2.51285e+2, -391829.1, -505743.9, -4032.3633, 0.017176304, 0.09706263, -391686.53, 85736.555, 0.0, 10.000711, 9.99917 
2.0252417e+3, 2.6128525e+2, -283291.2, -452399.38, -21623.863, 0.20572357, 0.24209915, -280569.94, 98850.69, 0.000000001074916, 10.0009775, 9.998751 
2.0252874e+3, 2.7128345e+2, -200480.14, -342238.72, -28164.713, 0.03403092, 0.1534645, -195089.34, 86345.266, 0.0000018159459, 10.00082, 9.998886 
2.0253338e+3, 2.8128052e+2, -122133.09, -359098.8, 14199.935, -0.10557066, 0.025415562, -121285.21, 62174.3, 0.000018189116, 10.001087, 9.998 
2.0253818e+3, 2.912766e+2, 161376.39, -169315.06, 7542.281, -0.10592487, -0.19213486, 161548.31, 247045.22, 0.000072171526, 10.002388, 9.997976 
2.0254311e+3, 3.0127668e+2, 292488.66, -7612.248, 48117.043, -0.052811325, 0.0086851325, 300014.8, 300014.8, 0.00017992329, 10.002568, 9.998722 
2.0254813e+3, 3.1127915e+2, -178560.75, -51179.78, 58703.645, 0.08713241, 0.29037505, -28252.742, -28252.742, 0.0003356384, 9.998553, 10.000315 
2.0345795e+3, 1.2124331e+2, -1701449.0, -1860004.0, -135950.25, -0.08715668, 0.04792196, -1623349.9, 128473.63, 0.3135409, 10.000954, 9.998623 
2.0346275e+3, 1.3124499e+2, -1774470.8, -1676893.3, 45933.063, 0.0058508175, 0.18877633, -1658673.1, -4862.449, 0.22593072, 9.998821, 10.000116 
2.0346768e+3, 1.4124398e+2, -1724283.0, -1615048.9, -36798.758, -0.011769719, 0.10138032, -1603808.8, -47984.74, 0.13594478, 9.998533, 10.000027 
2.0347223e+3, 1.5124613e+2, -1559889.1, -1426464.1, -114403.36, -0.016856786, 0.24759127, -1360743.0, 97059.63, 0.06282382, 9.998765, 10.00055 
2.0347673e+3, 1.6124666e+2, -1522574.8, -1495953.0, -77195.18, -0.054225046, 0.30751395, -1430929.5, -71132.69, 0.019494196, 9.998936, 9.999295 
2.0348161e+3, 1.7124408e+2, -1403324.3, -1422844.3, -28793.66, 0.096753955, 0.1302763, -1382681.4, -120859.55, 0.0029308582, 9.99926, 9.998952 
2.0348646e+3, 1.8124202e+2, -1242326.4, -1250122.4, -78866.016, 0.20385513, 0.033418078, -1167262.1, -3420.7517, 0.00006041413, 9.999465, 9.999387 
2.0349091e+3, 1.9124265e+2, -1088909.8, -1061259.6, -94574.84, 0.047806054, 0.09438111, -979504.75, 86328.3, 0.0, 9.999585, 9.99994 
2.034954e+3, 2.0124306e+2, -1002463.56, -1022258.56, -87685.94, -0.102174155, 0.17540516, -924118.3, 43709.305, 0.0, 9.999741, 9.99946 
2.0350015e+3, 2.1124212e+2, -832288.06, -886956.56, -33510.13, -0.05711818, 0.115456864, -816377.75, 53460.72, 0.0, 10.000228, 9.999477 
2.0350492e+3, 2.2124107e+2, -743773.7, -864526.8, -11947.598, -0.007789517, 0.10258328, -742602.94, 29247.893, 0.0, 10.000461, 9.99885 
2.035097e+3, 2.3124062e+2, -670515.06, -785231.3, 12986.517, 0.05378536, 0.15645458, -669063.25, 4794.2827, 0.0, 10.000335, 9.998771 
2.0351449e+3, 2.4123995e+2, -629724.1, -770092.9, 26088.674, 0.07231503, 0.24636984, -625032.1, -49166.01, 0.0, 10.00016, 9.998304 
2.035192e+3, 2.5123814e+2, -466895.13, -634806.1, 21562.154, -0.044016615, 0.20909503, -464170.44, 13714.077, 0.0, 10.000586, 9.998351 
2.0352395e+3, 2.6123607e+2, -315940.75, -459457.75, -30363.799, -0.12916999, 0.17527421, -309781.1, 70123.195, 0.000000023664393, 10.000737, 9.998809 
2.0352878e+3, 2.7123487e+2, -187843.6, -274510.63, -20022.463, -0.025798576, 0.094458185, -183441.47, 98470.516, 0.0000019634658, 10.000644, 9.999435 
2.0353359e+3, 2.8123423e+2, -167699.66, -377925.75, 32512.813, -0.0113758715, 0.15437773, -162786.19, 21128.809, 0.000016146072, 10.0007715, 9.998019 
2.035383e+3, 2.9123333e+2, 104877.625, -210987.89, 81386.87, -0.23199707, 0.2584461, 124614.73, 210539.3, 0.00006227005, 10.002044, 9.997866 
2.0354329e+3, 3.0122864e+2, 163660.34, -110080.625, -57554.902, -0.14188062, 0.011250649, 175269.14, 175269.14, 0.00015436458, 10.001896, 9.998318 
2.035479e+3, 3.11227e+2, -168916.25, 73489.77, 47373.004, -0.039708555, -0.11089708, 82418.89, 82418.89, 0.00029089712, 9.998138, 10.001351 
2.0445794e+3, 1.21194504e+2, -1975924.6, -2012712.1, -121160.6, -0.07770845, 0.05751762, -1871769.5, -119465.266, 0.3294151, 9.998836, 9.998509 
2.0446281e+3, 1.3119559e+2, -1747804.1, -1610854.1, 8776.557, 0.22147319, 0.10235419, -1610294.0, 44001.766, 0.23787552, 9.99875, 10.000697 
2.0446734e+3, 1.4119637e+2, -1877581.8, -1685460.9, 13468.202, -0.13434702, 0.15845433, -1684521.3, -128231.195, 0.14372098, 9.997461, 10.000062 
2.0447206e+3, 1.5119842e+2, -1598016.6, -1461163.4, -87802.08, -0.026851181, 0.30586177, -1418273.3, 39997.273, 0.06692591, 9.998573, 10.000386 
2.0447674e+3, 1.611985e+2, -1446612.0, -1457173.9, -49734.117, 0.056526497, 0.32891783, -1401879.3, -41609.543, 0.021061258, 9.999445, 9.999314 
2.0448157e+3, 1.7119539e+2, -1339624.5, -1382276.8, -19222.35, 0.111241, 0.08785445, -1332240.0, -69941.69, 0.003256253, 9.999655, 9.999041 
2.0448636e+3, 1.8119307e+2, -1190558.8, -1215625.6, -28839.332, 0.16036917, -0.04152022, -1171647.0, -7328.051, 0.00007088071, 9.999792, 9.999462 
2.0449091e+3, 1.9119418e+2, -912119.7, -962449.6, -31245.057, 0.05192713, 0.058355175, -897165.7, 169140.98, 0.0, 10.00076, 10.000043 
2.0449549e+3, 2.0119502e+2, -778452.7, -914266.5, -15095.504, -0.047518466, 0.17513652, -776795.06, 191503.08, 0.0, 10.001262, 9.999485 
2.0450015e+3, 2.1119429e+2, -857671.3, -895969.3, -54127.254, -0.041131385, 0.13586569, -819405.6, 50902.676, 0.0, 10.000049, 9.999505 
2.0450489e+3, 2.211936e+2, -925730.8, -934459.2, -44369.44, 0.0058803, 0.15238231, -885511.44, -113193.12, 0.0, 9.999133, 9.999018 
2.0450978e+3, 2.3119348e+2, -667708.8, -756624.1, -28347.186, 0.11344314, 0.21894002, -659440.4, 14881.401, 0.0, 10.000236, 9.999019 
2.0451462e+3, 2.4119292e+2, -455838.5, -684738.9, 15750.346, 0.15250383, 0.30460095, -454759.8, 121568.92, 0.0, 10.001338, 9.998326 
2.0451927e+3, 2.5119072e+2, -317611.66, -566194.8, 36844.027, -0.07097538, 0.23463553, -312265.75, 166083.86, 0.0, 10.00164, 9.998303 
2.0452398e+3, 2.6118827e+2, -180448.17, -419320.4, 22235.861, -0.19849253, 0.17023256, -178395.94, 201976.6, 0.00000011200642, 10.001747, 9.998604 
2.0452887e+3, 2.711868e+2, -98671.06, -267056.25, -54588.37, -0.024291418, 0.09422307, -82522.83, 199862.05, 0.000002326167, 10.001392, 9.999128 
2.0453367e+3, 2.811863e+2, -114057.46, -283517.63, 3349.4624, 0.005458048, 0.17138775, -113991.29, 70396.805, 0.000014696717, 10.000837, 9.998635 
2.0453835e+3, 2.9118702e+2, -202678.25, -232734.94, 91556.9, -0.23882696, 0.3378397, -124924.5, -38542.9, 0.00005375532, 9.999413, 9.998971 
2.0454353e+3, 3.0118355e+2, -263168.56, -318768.1, 55094.688, 0.09798217, 0.14887238, -229257.3, -229257.3, 0.00013253847, 9.99897, 9.998282 
2.0454788e+3, 3.1117886e+2, 433886.38, 348867.44, 56647.734, -0.0735643, -0.2235201, 462200.78, 462200.78, 0.00025393235, 10.002291, 10.001253 
2.0545784e+3, 1.21146545e+2, -1713993.0, -1551676.5, 73043.266, -0.11409401, 0.2307989, -1523646.9, 229135.95, 0.3476065, 9.998899, 10.002383 
2.0546292e+3, 1.3114575e+2, -1679197.3, -1510132.9, -35324.586, 0.41794017, -0.069613725, -1503048.9, 151735.4, 0.2513395, 9.998794, 10.001608 
2.0546705e+3, 1.4115022e+2, -1878438.4, -1701380.6, 11638.24, -0.2071325, 0.30773464, -1700619.0, -143881.0, 0.15236652, 9.997524, 9.999921 
2.0547195e+3, 1.5114917e+2, -1617896.9, -1511688.5, -24989.324, -0.020155955, 0.17867976, -1506102.6, -47354.355, 0.071473114, 9.99861, 10.00001 
2.0547678e+3, 1.6114695e+2, -1430538.4, -1456118.5, -41543.223, 0.11195623, 0.0006618367, -1399861.0, -39090.86, 0.022826005, 9.999575, 9.999267 
2.0548142e+3, 1.7114623e+2, -1324383.4, -1351182.0, -8386.182, -0.0029099975, -0.015919002, -1321975.4, -59199.38, 0.0036400491, 9.999653, 9.99926 
2.054861e+3, 1.8114588e+2, -1155009.3, -1161475.5, -14095.726, -0.09898263, 0.027501553, -1143780.6, 20997.277, 0.00008593674, 9.999862, 9.999807 
2.0549089e+3, 1.911462e+2, -876510.94, -891628.56, 16040.476, -0.06544582, 0.00021228376, -866337.5, 200435.31, 0.0, 10.000757, 10.000539 
2.0549566e+3, 2.0114645e+2, -815875.3, -970791.4, -41316.625, -0.032440603, 0.034310825, -805544.94, 163225.36, 0.0, 10.001172, 9.99914 
2.0550022e+3, 2.1114674e+2, -944340.9, -1040041.8, -94561.125, 0.003046735, 0.17515424, -886212.7, -15436.823, 0.0, 9.9998865, 9.998596 
2.0550483e+3, 2.2114664e+2, -979796.1, -987950.6, -43640.62, 0.021504072, 0.32060835, -940042.7, -167258.27, 0.0, 9.998888, 9.998766 
2.0550966e+3, 2.3114508e+2, -676657.75, -733773.75, 32560.543, -0.029787855, 0.23005728, -661905.9, 12893.759, 0.0, 10.000059, 9.999261 
2.055145e+3, 2.4114335e+2, -464838.4, -634161.94, 27732.73, -0.11853143, 0.16334969, -460411.9, 116403.61, 0.0, 10.001054, 9.998805 
2.0551933e+3, 2.5114238e+2, -308756.03, -492273.34, 57394.555, -0.17165954, 0.15916085, -292284.47, 186537.28, 0.0, 10.0014105, 9.99892 
2.0552422e+3, 2.6114136e+2, -258716.64, -505021.38, 6116.728, -0.1489462, 0.20740429, -258564.83, 122265.04, 0.00000017468948, 10.001422, 9.998169 
2.0552897e+3, 2.711391e+2, -204729.34, -441363.06, -52225.082, -0.07939018, 0.14910507, -193715.86, 89138.69, 0.0000023499456, 10.001187, 9.998034 
2.0553356e+3, 2.8113687e+2, -106223.23, -184878.45, -45900.684, -0.20403768, 0.10205243, -85106.375, 99771.875, 0.000012296112, 10.000501, 9.99947 
2.0553826e+3, 2.9113758e+2, -84166.305, 47042.6, 51980.367, -0.29124323, 0.07314933, 65139.418, 152007.6, 0.000044415407, 9.999266, 10.000963 
2.055438e+3, 3.011402e+2, -314354.06, -332959.75, 90713.164, 0.42423356, 0.35123706, -232467.98, -232467.98, 0.00011238554, 9.9986105, 9.998342 
2.05548e+3, 3.1113452e+2, 212638.66, 57229.527, 164018.27, -0.21273674, -0.047792535, 316427.88, 316427.88, 0.00022334591, 10.001603, 9.999565 
2.0645772e+3, 1.2109956e+2, -1861054.4, -1413870.9, 279470.7, 0.0028076917, 0.30965018, -1279556.0, 473687.06, 0.36771804, 9.996771, 10.005139 
2.064627e+3, 1.3109688e+2, -1701174.3, -1563859.5, -14402.06, 0.35579416, -0.20388217, -1562365.3, 92894.28, 0.26616043, 9.998874, 10.001084 
2.0646699e+3, 1.4110197e+2, -1520310.4, -1579474.1, -3556.4363, -0.11844994, 0.28806818, -1520097.4, 37109.42, 0.1618756, 10.000246, 9.99945 
2.064719e+3, 1.5110013e+2, -1433385.4, -1456324.9, -54010.56, 0.014379348, 0.109185696, -1389640.1, 69586.125, 0.07651462, 10.000039, 9.999717 
2.0647673e+3, 1.6109791e+2, -1412235.0, -1443298.9, -46909.945, 0.12022275, -0.048993602, -1378352.5, -17103.418, 0.024829434, 9.999692, 9.999288 
2.0648135e+3, 1.7109798e+2, -1254755.9, -1290599.4, -32344.37, -0.054442126, -0.0075588915, -1235700.0, 27548.219, 0.0041003036, 10.000021, 9.999488 
2.0648599e+3, 1.8109813e+2, -1131230.4, -1142878.3, -20969.088, -0.17580345, 0.06918906, -1115291.5, 49954.313, 0.000108260756, 10.000012, 9.999849 
2.0649089e+3, 1.9109827e+2, -1064245.1, -987541.56, -52780.918, -0.065919004, 0.029198168, -960650.06, 106593.46, 0.0, 9.999507, 10.000474 
2.0649573e+3, 2.0109835e+2, -1097152.9, -1089843.5, -124000.41, 0.04305583, 0.048417438, -969443.94, -200.60071, 0.0, 9.999173, 9.999277 
2.0650022e+3, 2.1109875e+2, -878605.4, -975289.94, -126157.99, 0.015925303, 0.17296362, -791844.7, 79402.47, 0.0, 10.000208, 9.998877 
2.0650479e+3, 2.2109868e+2, -641343.0, -829816.75, 37269.41, -0.019066684, 0.3059889, -634240.8, 139013.5, 0.0, 10.001212, 9.998743 
2.0650966e+3, 2.3109715e+2, -476223.72, -659731.8, 85967.64, -0.083649464, 0.23636138, -442242.97, 233026.45, 0.0, 10.001533, 9.999062 
2.0651458e+3, 2.4109545e+2, -386376.53, -587259.56, 42883.047, -0.15445843, 0.18580164, -377605.2, 199679.84, 0.0, 10.001547, 9.998892 
2.0651944e+3, 2.5109407e+2, -405527.22, -507890.4, 1238.5768, -0.16832606, 0.116320595, -405512.22, 73782.516, 0.0, 10.000614, 9.999193 
2.0652434e+3, 2.6109302e+2, -458236.9, -567795.7, -18761.473, -0.089406826, 0.13268857, -455113.16, -73810.086, 0.00000012472299, 9.999898, 9.99848 
2.065291e+3, 2.7109244e+2, -289520.03, -430994.53, 2329.8054, -0.02056475, 0.20734227, -289481.7, -6169.153, 0.0000018192295, 10.000387, 9.99849 
2.0653364e+3, 2.810914e+2, -71161.96, -180238.78, 70503.68, -0.15643089, 0.24327211, -36564.48, 148761.45, 0.000008845643, 10.000778, 9.999378 
2.0653819e+3, 2.9109022e+2, 92242.06, 60419.043, -41171.316, -0.32663304, 0.0751603, 120469.57, 207804.34, 0.000033872344, 10.000785, 10.000327 
2.065438e+3, 3.0109173e+2, 125109.08, -155541.72, -10582.716, 0.43711576, 0.29769117, 125507.56, 125507.56, 0.00009226449, 10.001707, 9.998116 
2.0654844e+3, 3.1108811e+2, 427102.97, 90204.55, -34071.676, 0.002083944, 0.12518315, 430514.22, 430514.22, 0.00019358228, 10.0033455, 9.998984 
2.0745751e+3, 1.21053584e+2, -1736085.9, -1299082.6, 141605.97, 0.07827717, 0.26700455, -1257209.1, 496473.72, 0.38886976, 9.996859, 10.006347 
2.0746209e+3, 1.3104925e+2, -1831781.1, -1831272.8, 71578.3, -0.16841452, -0.2741506, -1759948.3, -104229.984, 0.28190908, 9.998977, 9.998982 
2.0746718e+3, 1.410511e+2, -1545110.9, -1686393.6, -4966.5703, -0.011566965, 0.06353194, -1544936.5, 12765.681, 0.17213808, 10.000446, 9.998621 
2.0747188e+3, 1.5105107e+2, -1431307.8, -1467437.9, -63747.625, -0.03796288, 0.09474706, -1383114.9, 76591.74, 0.08207624, 10.000115, 9.999602 
2.0747654e+3, 1.6105144e+2, -1387253.5, -1410974.6, -58029.977, -0.07357926, 0.19438462, -1339884.5, 21822.35, 0.027111659, 9.999776, 9.99947 
2.0748128e+3, 1.7105076e+2, -1229798.4, -1240225.1, -12869.058, -0.14533044, 0.13231002, -1221126.8, 42587.043, 0.0046569863, 10.000032, 9.999825 
2.07486e+3, 1.8104994e+2, -1141025.1, -1185633.1, -40826.176, -0.18448058, 0.09759164, -1116807.6, 48914.39, 0.00014131474, 10.000107, 9.999512 
2.0749089e+3, 1.9105029e+2, -1127682.5, -1107038.5, -69115.195, -0.03721571, 0.14985405, -1047478.8, 20241.428, 0.0000000002137382, 9.99945, 9.999684 
2.0749567e+3, 2.0105052e+2, -1074651.4, -1015812.9, -117676.7, 0.052245773, 0.21952589, -923933.75, 45785.75, 0.0, 9.999049, 9.9998455 
2.0750012e+3, 2.1105e+2, -798165.94, -774493.4, -70942.62, -0.10629875, 0.12523828, -714406.44, 157318.36, 0.0, 10.000052, 10.000333 
2.0750469e+3, 2.2104947e+2, -666051.44, -813887.56, 53180.52, -0.23656672, 0.09888627, -648908.8, 124821.69, 0.0, 10.00094, 9.998974 
2.0750977e+3, 2.3104958e+2, -554418.8, -767667.1, 108692.81, -0.15186284, 0.23573495, -508783.88, 166948.5, 0.0, 10.001311, 9.998422 
2.075148e+3, 2.41049e+2, -452385.3, -656132.3, 16422.049, -0.1082851, 0.35236403, -451070.2, 126669.69, 0.0, 10.001258, 9.998554 
2.0751949e+3, 2.5104567e+2, -440952.88, -545325.94, -26762.695, -0.17546242, 0.106386475, -434490.66, 45279.188, 0.0, 10.000458, 9.999011 
2.0752427e+3, 2.610432e+2, -431452.3, -449119.75, -32221.62, -0.15582876, -0.033132214, -406875.44, -25083.143, 0.000000021824269, 9.999639, 9.999416 
2.075292e+3, 2.710464e+2, -190904.06, -178946.16, 35746.02, 0.026808476, 0.25578555, -148682.52, 135080.77, 0.00000084431264, 10.000196, 10.000311 
2.0753387e+3, 2.810489e+2, -190810.39, -349435.1, 50585.082, -0.043888167, 0.5455922, -176052.02, 9689.228, 0.000005133315, 10.000449, 9.998369 
2.0753816e+3, 2.9104438e+2, -146364.75, -402866.56, -21002.021, -0.46198294, 0.3016609, -144656.5, -56870.402, 0.000023723636, 10.000625, 9.99723 
2.0754355e+3, 3.0103877e+2, -3087.0476, -287208.1, 37153.438, -0.00012184496, 0.04346843, 1691.0139, 1691.0139, 0.00007269807, 10.00119, 9.997432 
2.0754898e+3, 3.110407e+2, 296831.3, 52675.625, -34093.145, 0.16390282, 0.36613584, 301502.6, 301502.6, 0.00016061905, 10.002446, 9.999113 
2.0845754e+3, 1.2100436e+2, -1486670.0, -1239677.4, -30743.617, 0.28783947, 0.16395192, -1235908.3, 518251.78, 0.40993002, 10.000006, 10.005673 
2.084619e+3, 1.3100182e+2, -1925821.4, -1988414.4, -83429.88, -0.24631332, -0.096217155, -1868011.1, -211829.05, 0.29801235, 9.998822, 9.997969 
2.0846719e+3, 1.410008e+2, -1821071.3, -1798209.4, -63884.586, 0.071488686, 0.0045474926, -1744741.1, -186543.97, 0.18298064, 9.998468, 9.9987955 
2.0847182e+3, 1.5100121e+2, -1506381.5, -1445704.4, -98954.65, -0.041084073, 0.03620875, -1372542.0, 87654.125, 0.088167645, 9.999332, 10.000152 
2.0847644e+3, 1.610026e+2, -1345841.3, -1358233.6, -36605.77, -0.1382817, 0.19166514, -1314911.0, 47274.223, 0.029713616, 9.999914, 9.999783 
2.0848125e+3, 1.7100263e+2, -1272208.0, -1248917.1, -31925.818, -0.12902443, 0.1831623, -1226579.1, 37608.047, 0.005333032, 9.999676, 9.999952 
2.0848608e+3, 1.8100223e+2, -1262172.6, -1231138.1, -49849.953, -0.07504576, 0.17947622, -1194446.1, -28253.486, 0.00018960002, 9.999222, 9.999633 
2.0849086e+3, 1.9100206e+2, -1132202.8, -1093752.0, -36688.12, 0.021234415, 0.1666835, -1071557.1, -3362.7002, 0.000000020895914, 9.999358, 9.999819 
2.084956e+3, 2.0100175e+2, -994641.9, -973225.7, 2901.835, 0.06542569, 0.17265826, -972839.44, -2642.2466, 0.0, 9.999606, 9.999863 
2.0850015e+3, 2.1100122e+2, -682813.4, -723230.06, -51358.734, -0.115402736, 0.08314136, -647830.25, 224371.39, 0.0, 10.000882, 10.000276 
2.0850481e+3, 2.210008e+2, -530393.3, -731426.9, -33635.67, -0.23850305, 0.069086045, -524914.9, 249290.63, 0.0, 10.001777, 9.999148 
2.0850989e+3, 2.3100129e+2, -603234.56, -748089.6, 34201.492, -0.115860365, 0.21002479, -595565.3, 80637.83, 0.0, 10.00077, 9.998826 
2.0851491e+3, 2.4100108e+2, -643269.25, -739161.6, 36831.65, -0.023633556, 0.3314244, -630755.44, -52548.58, 0.0, 9.999894, 9.998647 
2.0851961e+3, 2.5099787e+2, -427213.56, -554277.75, -8127.9463, -0.10374272, 0.10955128, -426695.75, 53541.652, 0.0, 10.000604, 9.998886 
2.0852435e+3, 2.6099554e+2, -193393.08, -324192.63, 292.05734, -0.107859395, -0.0095027145, -193392.42, 188867.1, 0.0, 10.001234, 9.999501 
2.085292e+3, 2.7099845e+2, -93891.95, -122860.73, -66185.695, 0.0020068944, 0.2376614, -40624.26, 243607.89, 0.000000115745564, 10.000833, 10.000384 
2.0853388e+3, 2.8100026e+2, -154092.52, -360584.72, -80211.3, -0.051157, 0.4658863, -126596.08, 59619.184, 0.0000020138657, 10.000808, 9.998121 
2.085384e+3, 2.909952e+2, 106144.22, -314098.63, -20006.05, -0.3639687, 0.21214649, 107094.48, 195359.27, 0.000014504671, 10.00252, 9.996917 
2.0854373e+3, 3.0099028e+2, 349069.7, -142160.13, 181153.17, -0.030212015, 0.04101616, 408648.44, 408648.44, 0.000053403415, 10.003642, 9.997276 
2.085492e+3, 3.1099233e+2, 76323.664, -84882.98, -107681.29, 0.23223975, 0.40047953, 130227.42, 130227.42, 0.00012565745, 10.000945, 9.998925 
2.0945752e+3, 1.2094911e+2, -1587908.4, -1492174.0, -97673.11, 0.17223482, -0.23546687, -1431269.4, 323433.16, 0.42994058, 10.00032, 10.002712 
2.094621e+3, 1.3095441e+2, -1889807.5, -1924473.6, -110744.7, 0.052099217, 0.3503775, -1795047.6, -138393.1, 0.31401625, 9.998872, 9.998388 
2.0946696e+3, 1.409512e+2, -1729143.8, -1615572.3, -68589.69, -0.031658325, 0.15178536, -1583312.1, -24620.568, 0.19429262, 9.998485, 10.000051 
2.094717e+3, 1.5095055e+2, -1412817.9, -1270597.1, -52786.3, -0.12123738, -0.05272918, -1253146.4, 207548.73, 0.094824284, 9.99936, 10.001444 
2.094764e+3, 1.6095117e+2, -1295292.1, -1285504.0, -41870.02, -0.22403048, -0.07578608, -1248243.0, 114443.68, 0.032688897, 10.000053, 10.000228 
2.0948127e+3, 1.7095351e+2, -1275825.3, -1263891.8, -40326.77, -0.09928669, 0.14720558, -1229092.6, 35576.06, 0.0061590113, 9.9997, 9.999842 
2.0948611e+3, 1.8095505e+2, -1212247.4, -1142332.9, -63444.266, 0.02109999, 0.32849532, -1104852.6, 61804.383, 0.00026052183, 9.999284, 10.000212 
2.0949079e+3, 1.9095358e+2, -1064015.3, -945457.7, -22731.107, 0.002616273, 0.0890856, -941248.9, 127416.99, 0.00000016154512, 9.999326, 10.000854 
2.0949546e+3, 2.0095204e+2, -1053445.4, -1068605.1, 24118.363, -0.048666894, -0.0839982, -1035743.8, -65067.44, 0.0, 9.999493, 9.99926 
2.0950024e+3, 2.1095227e+2, -832682.8, -989184.56, 9671.408, -0.11335108, 0.050852027, -832087.4, 40591.48, 0.0, 10.000692, 9.998536 
2.0950508e+3, 2.2095251e+2, -559617.3, -731962.5, -49457.496, -0.15764114, 0.21872135, -546433.1, 228247.73, 0.0, 10.00152, 9.999266 
2.0950998e+3, 2.3095219e+2, -537866.6, -565689.44, -1307.3248, -0.09046462, 0.17169535, -537805.3, 138877.13, 0.0, 10.000568, 10.000175 
2.0951489e+3, 2.4095157e+2, -649527.0, -682247.9, 28136.47, -0.044583365, 0.13857627, -633340.2, -54652.977, 0.0, 9.999598, 9.999178 
2.095197e+3, 2.5095057e+2, -455942.34, -570017.06, 36822.113, -0.05830519, 0.12582068, -445089.16, 35609.703, 0.0, 10.000411, 9.998872 
2.0952448e+3, 2.609498e+2, -288755.06, -457487.34, -7648.2964, -0.0972839, 0.18041368, -288409.1, 94298.92, 0.0, 10.000965, 9.998712 
2.095291e+3, 2.7094862e+2, -228579.75, -359751.47, -68715.414, -0.20251414, 0.15359041, -199174.5, 85544.43, 0.0, 10.000648, 9.998845 
2.0953374e+3, 2.8094608e+2, -189571.92, -347165.13, -55002.59, -0.30754283, 0.053420484, -172273.84, 14468.535, 0.00000039293647, 10.000443, 9.998386 
2.0953885e+3, 2.909431e+2, 194448.27, -52966.414, 76334.41, -0.18843096, -0.14564787, 216104.1, 304872.44, 0.000007667558, 10.002188, 9.998871 
2.0954421e+3, 3.0094445e+2, 242902.11, -173810.05, 124065.09, 0.05088613, 0.16974436, 277042.22, 277042.22, 0.000037309004, 10.002885, 9.997401 
2.095491e+3, 3.1094205e+2, -34586.574, -124499.71, -106089.71, 0.0050327806, 0.17164628, 35678.902, 35678.902, 0.00009608347, 10.000205, 9.9989805 
2.1045743e+3, 1.20897174e+2, -1851875.8, -1831898.3, -146876.55, 0.09446246, -0.16981737, -1694671.3, 60543.465, 0.44859928, 9.99926, 9.9997 
2.1046196e+3, 1.3090402e+2, -1644007.4, -1572145.9, -66011.26, 0.029539749, 0.42339543, -1532920.1, 124232.85, 0.3298663, 9.999481, 10.000835 
2.1046689e+3, 1.4090197e+2, -1667202.1, -1509033.5, 83903.97, 0.06827528, 0.1499946, -1472817.3, 86358.03, 0.20615475, 9.99854, 10.000874 
2.1047167e+3, 1.5090217e+2, -1449662.6, -1290271.1, 13470.857, -0.042530887, 0.011113682, -1289140.6, 172030.53, 0.10215144, 9.999117, 10.0014 
2.1047634e+3, 1.6090281e+2, -1387781.0, -1347803.8, -59571.54, -0.2153532, 0.00030814754, -1304956.8, 58206.586, 0.036114734, 9.999481, 10.000064 
2.104812e+3, 1.7090443e+2, -1340913.3, -1310580.0, -107413.91, -0.091553695, 0.16738899, -1217267.3, 47885.156, 0.007176738, 9.999324, 9.999694 
2.1048605e+3, 1.8090561e+2, -1220118.8, -1131277.4, -105976.41, 0.059416965, 0.3157484, -1060788.6, 106355.66, 0.0003661867, 9.99916, 10.00035 
2.1049078e+3, 1.9090466e+2, -938462.25, -844276.4, -122350.0, 0.021914417, 0.102302484, -760269.1, 308877.44, 0.00000091193453, 10.000025, 10.001206 
2.1049549e+3, 2.0090368e+2, -866561.75, -985201.0, -81299.29, -0.021560991, -0.03789111, -825241.44, 145909.08, 0.0, 10.000766, 9.999235 
2.1050036e+3, 2.1090353e+2, -842739.9, -1032786.06, -17316.531, -0.037314706, 0.084139295, -841174.94, 31982.38, 0.0, 10.000749, 9.998234 
2.1050528e+3, 2.2090338e+2, -719153.9, -788825.44, -14252.317, -0.040369507, 0.23044032, -716351.06, 58812.215, 0.0, 10.000355, 9.999426 
2.1051002e+3, 2.3090288e+2, -648975.9, -568074.75, -67302.02, -0.05895758, 0.12582523, -530002.7, 147162.78, 0.0, 9.9995985, 10.000612 
2.105148e+3, 2.4090241e+2, -692581.4, -652018.3, -32439.22, -0.062293902, 0.0664986, -634042.25, -54874.754, 0.0, 9.999079, 9.999641 
2.105197e+3, 2.509027e+2, -547956.3, -557323.1, 9448.321, -0.044339377, 0.1403591, -542094.3, -60928.008, 0.0, 9.99955, 9.99937 
2.1052459e+3, 2.6090264e+2, -424372.9, -553456.2, 4341.362, -0.038015142, 0.23673119, -424227.06, -41058.094, 0.0, 10.000142, 9.99846 
2.105292e+3, 2.708997e+2, -223710.58, -446480.16, -40605.785, -0.14807463, 0.109280236, -216539.89, 68656.91, 0.0, 10.001051, 9.998058 
2.1053393e+3, 2.8089646e+2, 35201.95, -217744.67, 45948.125, -0.21664979, -0.017050607, 43289.883, 230517.05, 0.00000006547354, 10.0019245, 9.998546 
2.1053912e+3, 2.9089487e+2, 100715.94, -24054.578, 67374.54, -0.070534594, -0.124170125, 130152.516, 219390.03, 0.000004738257, 10.001258, 9.999505 
2.1054438e+3, 3.0089548e+2, -86694.086, -314127.4, 62216.043, 0.10275763, 0.06549932, -70787.01, -70787.01, 0.00002905632, 10.000513, 9.9975815 
2.1054912e+3, 3.1089315e+2, 321810.94, 127346.15, -137071.78, -0.09129036, 0.08130543, 392634.5, 392634.5, 0.00007990105, 10.002283, 9.999713 
2.1145721e+3, 1.2084887e+2, -2093213.6, -2358088.3, -26403.459, -0.12402958, 0.35502434, -2090607.3, -334913.84, 0.46656317, 9.999278, 9.9958935 
2.1146138e+3, 1.3085024e+2, -1413727.1, -1125157.6, -83972.54, -0.54602534, 0.059671674, -1102500.8, 555180.06, 0.34608045, 9.999601, 10.005465 
2.1146694e+3, 1.4085285e+2, -1626807.9, -1477422.4, 75699.69, 0.21992594, -0.04831165, -1445769.3, 113880.37, 0.21890919, 9.998725, 10.001063 
2.1147175e+3, 1.5085611e+2, -1539001.1, -1488255.5, 46304.87, 0.09428107, 0.23340638, -1460827.5, 796.13245, 0.110347085, 9.99923, 9.999856 
2.114763e+3, 1.608577e+2, -1425983.9, -1449485.6, -67943.12, -0.24888918, 0.4453637, -1368783.0, -5168.713, 0.040102176, 9.9995775, 9.999308 
2.1148103e+3, 1.7085543e+2, -1353820.8, -1344055.4, -110329.58, -0.21481398, 0.2558234, -1238500.5, 27138.03, 0.008443992, 9.999344, 9.9994545 
2.1148583e+3, 1.8085353e+2, -1237811.6, -1177797.6, -103407.4, -0.10877184, 0.120840006, -1100131.5, 67526.33, 0.00052604213, 9.999204, 10.000007 
2.1149072e+3, 1.9085513e+2, -976479.4, -911468.8, -80456.29, -0.025742846, 0.20531134, -857199.6, 212438.7, 0.0000034897541, 9.999977, 10.000765 
2.1149561e+3, 2.008565e+2, -850379.4, -917860.9, -79522.2, 0.016399916, 0.3129641, -797735.94, 173885.72, 0.0, 10.000625, 9.999764 
2.1150051e+3, 2.1085498e+2, -789806.5, -874594.8, -15219.527, 0.009856677, 0.19386345, -787157.4, 86479.89, 0.0, 10.000561, 9.999403 
2.1150535e+3, 2.2085336e+2, -746986.25, -783984.06, -42469.277, -0.023070233, 0.105589375, -719161.8, 56491.543, 0.0, 10.000086, 9.999586 
2.1150994e+3, 2.3085321e+2, -713096.8, -662248.56, -84762.64, -0.11755608, 0.076283514, -599179.25, 78473.875, 0.0, 9.999429, 10.000048 
2.1151455e+3, 2.4085346e+2, -707079.06, -623536.9, -39489.375, -0.21988, 0.116550855, -607825.5, -28176.508, 0.0, 9.998834, 9.999948 
2.1151955e+3, 2.5085416e+2, -510691.97, -442970.13, 40658.7, -0.16734806, 0.14785111, -423918.94, 57722.664, 0.0, 9.999398, 10.00022 
2.1152459e+3, 2.608539e+2, -458727.06, -550945.5, 22353.35, -0.073878184, 0.16421323, -453594.4, -69950.37, 0.0, 9.999835, 9.998618 
2.115295e+3, 2.7085155e+2, -259526.83, -478557.3, 11922.322, 0.021051886, 0.10128977, -258879.78, 26787.938, 0.0, 10.000867, 9.997925 
2.1153435e+3, 2.8085038e+2, -34993.46, -278924.84, 37009.965, -0.012155761, 0.19286649, -29501.836, 158177.31, 0.00000005479561, 10.001564, 9.998297 
2.1153916e+3, 2.9084963e+2, 22854.54, -140755.27, 56879.953, -0.15686688, 0.20531574, 40685.832, 130366.81, 0.0000044706885, 10.001046, 9.998811 
2.1154426e+3, 3.008432e+2, -201747.81, -358457.66, 50960.83, -0.111097164, -0.24950083, -186633.48, -186633.48, 0.000027145721, 9.999747, 9.997613 
2.115492e+3, 3.1084532e+2, 210544.75, 129052.02, 125961.97, -0.2980313, 0.1236471, 302186.78, 302186.78, 0.00007500409, 10.001328, 10.00017 
2.1245821e+3, 1.2079525e+2, -1921117.1, -2247756.0, 129283.34, 0.9156794, 0.029395374, -1876140.1, -119920.89, 0.48543465, 10.000249, 9.996202 
2.1246111e+3, 1.3079992e+2, -1523488.8, -1140061.0, -51023.99, -0.6897335, -0.056177285, -1133387.1, 524788.44, 0.3637423, 9.99821, 10.006105 
2.124669e+3, 1.4080405e+2, -1602583.9, -1476922.3, -25432.477, 0.3008581, -0.043650474, -1471970.1, 88157.62, 0.23315269, 9.998903, 10.000973 
2.1247168e+3, 1.5080747e+2, -1619894.0, -1569178.5, -28225.16, 0.1378074, 0.28491077, -1556593.1, -94491.43, 0.1197026, 9.99883, 9.999513 
2.1247622e+3, 1.6080877e+2, -1571161.6, -1520941.3, -43987.203, -0.20610312, 0.49239972, -1495401.8, -131305.5, 0.044803485, 9.998582, 9.999308 
2.1248096e+3, 1.7080604e+2, -1323818.5, -1308702.8, -63210.695, -0.22243863, 0.24446209, -1252599.8, 13523.802, 0.01004214, 9.999458, 9.999645 
2.1248575e+3, 1.8080387e+2, -1129812.1, -1138872.5, -15839.722, -0.14500901, 0.072543114, -1117867.5, 50276.31, 0.0007722133, 9.999989, 9.999891 
2.1249068e+3, 1.908056e+2, -1068591.4, -999738.06, -6231.046, -0.043761913, 0.19830124, -999178.7, 70946.15, 0.000010944595, 9.999515, 10.000385 
2.1249561e+3, 2.0080717e+2, -1073446.5, -997394.25, 7790.3457, 0.040776648, 0.34477732, -996604.44, -24496.926, 0.0, 9.998997, 9.999991 
2.1250051e+3, 2.1080594e+2, -893366.94, -851393.94, 12388.024, 0.020544253, 0.20067011, -848010.44, 26108.178, 0.0, 9.99956, 10.000027 
2.1250534e+3, 2.2080459e+2, -715121.5, -754063.25, -30898.828, 0.002796369, 0.08846197, -698070.44, 78060.7, 0.0, 10.000225, 9.999734 
2.1250992e+3, 2.308047e+2, -527323.4, -586691.0, -72733.695, -0.13056357, 0.097107776, -478449.44, 199679.52, 0.0, 10.00077, 9.99992 
2.125145e+3, 2.4080516e+2, -395492.78, -500010.78, 834.6941, -0.25194603, 0.1718458, -395486.13, 184637.5, 0.0, 10.0011, 9.999701 
2.1251951e+3, 2.508052e+2, -359357.75, -417072.78, -23225.602, -0.18608734, 0.18009222, -351172.28, 130950.78, 0.0, 10.000641, 9.999805 
2.1252464e+3, 2.6080436e+2, -373733.66, -484857.66, -69475.125, -0.02018625, 0.16392873, -340335.4, 43795.71, 0.0, 10.000325, 9.998832 
2.1252972e+3, 2.708024e+2, -239207.67, -390101.13, -54497.016, 0.16364825, 0.08984082, -221583.81, 64565.637, 0.0, 10.000699, 9.998607 
2.1253462e+3, 2.8080195e+2, -127858.57, -339743.0, 12921.316, 0.15419456, 0.21201064, -127073.5, 61079.063, 0.000000117451826, 10.000969, 9.998188 
2.1253918e+3, 2.9080164e+2, -18944.52, -232573.27, -32400.422, -0.21392563, 0.32990092, -14138.564, 76013.86, 0.0000050467984, 10.0010605, 9.998181 
2.1254426e+3, 3.0079448e+2, 110866.9, -142821.69, 30553.758, -0.13585134, -0.18190168, 114494.85, 114494.85, 0.00002697455, 10.001516, 9.9983015 
2.1254943e+3, 3.1079662e+2, 22767.223, 41553.973, 66346.03, -0.06814783, 0.10445677, 99168.29, 99168.29, 0.00007158717, 9.999931, 10.000302 
2.134612e+3, 1.3075376e+2, -1725024.4, -1500522.4, -49953.23, -0.41532958, 0.17031536, -1489909.3, 168721.55, 0.38411817, 9.998181, 10.002273 
2.1346664e+3, 1.4075573e+2, -1628839.1, -1545455.8, -34853.57, 0.11440503, 0.22353329, -1532806.3, 27802.7, 0.24951555, 9.999038, 10.000312 
2.1347141e+3, 1.5075593e+2, -1535905.1, -1418979.9, -34872.313, -0.044631753, 0.16305922, -1409369.3, 53239.004, 0.13052814, 9.998901, 10.000556 
2.1347609e+3, 1.6075538e+2, -1500069.0, -1399322.6, -42530.695, -0.23453175, 0.085769095, -1383769.3, -19154.238, 0.050404422, 9.998692, 10.00009 
2.1348093e+3, 1.7075603e+2, -1279154.4, -1217062.8, -19855.66, -0.21462674, 0.11152508, -1211256.3, 55352.324, 0.012084308, 9.999463, 10.000274 
2.1348575e+3, 1.8075673e+2, -1107738.1, -1118520.8, -22087.719, -0.18105568, 0.17575285, -1090393.3, 78207.82, 0.001155736, 10.0000925, 9.999985 
2.1349055e+3, 1.907561e+2, -1095635.6, -1054567.8, -21909.182, -0.13298157, 0.091173664, -1045074.2, 25531.266, 0.000030850606, 9.999497, 10.000023 
2.1349539e+3, 2.0075549e+2, -1105497.0, -1027776.0, 575.3569, -0.102469474, 0.049458478, -1027771.75, -55161.92, 0.0, 9.998843, 9.999856 
2.1350034e+3, 2.1075614e+2, -918889.5, -860056.7, 47966.6, -0.09489695, 0.09472497, -833204.8, 41399.45, 0.0, 9.999371, 10.00006 
2.135053e+3, 2.2075692e+2, -748358.4, -748012.06, -14380.938, -0.1037615, 0.18488973, -733803.25, 42794.31, 0.0, 9.999916, 9.999918 
2.1350993e+3, 2.3075727e+2, -541544.0, -572642.9, -42772.27, -0.20384926, 0.19408283, -511582.44, 167011.36, 0.0, 10.00058, 10.000113 
2.1351458e+3, 2.4075724e+2, -496847.6, -647575.7, -12085.207, -0.31380284, 0.23399512, -495884.75, 84709.34, 0.0, 10.000834, 9.998811 
2.1351956e+3, 2.5075573e+2, -498064.06, -671430.6, -31436.361, -0.2066473, 0.23207676, -492539.78, -9928.127, 0.0, 10.000492, 9.998129 
2.1352465e+3, 2.6075378e+2, -412370.63, -501893.13, -74181.47, -0.022623358, 0.22608995, -370492.03, 14139.979, 0.0, 10.000068, 9.998832 
2.1352978e+3, 2.7075198e+2, -179087.48, -225674.33, -23617.305, 0.17309207, 0.06363992, -169209.22, 117435.33, 0.00000000014169585, 10.000525, 9.999821 
2.1353467e+3, 2.8075078e+2, -198993.73, -384323.13, 2797.5693, 0.09965493, 0.034597445, -198951.52, -10300.094, 0.000000256191, 10.000558, 9.998059 
2.1353915e+3, 2.9075062e+2, -109923.31, -370408.28, 4884.82, -0.36172187, 0.23279911, -109831.74, -19178.074, 0.0000052967753, 10.000826, 9.997348 
2.1354431e+3, 3.0074772e+2, 76684.164, -21544.268, 6687.613, -0.2838411, 0.14618637, 77137.38, 77137.38, 0.000025200057, 10.00077, 9.999458 
2.1354966e+3, 3.1074446e+2, -148360.4, -67049.44, 22410.75, 0.10419616, -0.27075714, -61281.758, -61281.758, 0.00006359548, 9.998968, 9.999976 
2.1446145e+3, 1.3070595e+2, -1509888.3, -1594616.1, -22868.834, -0.11877323, 0.25006303, -1504109.9, 154991.95, 0.40760165, 10.001553, 9.9996195 
2.1446641e+3, 1.4070657e+2, -1721471.4, -1643939.9, -32290.693, 0.018786825, 0.36617163, -1632252.9, -71155.25, 0.26811564, 9.998648, 9.999771 
2.1447122e+3, 1.5070592e+2, -1526691.9, -1335444.0, -23567.432, -0.0951748, 0.16593774, -1332582.6, 130519.195, 0.14296411, 9.998556, 10.001396 
2.1447605e+3, 1.6070528e+2, -1472451.9, -1326389.9, -21415.969, -0.11227257, 0.004926699, -1323314.6, 41791.125, 0.057087187, 9.9986315, 10.0006275 
2.144809e+3, 1.7070709e+2, -1388992.9, -1230465.6, -36508.723, -0.12369997, 0.10506461, -1222461.8, 44625.797, 0.014719365, 9.998565, 10.000604 
2.1448569e+3, 1.8070869e+2, -1339771.0, -1207113.8, -44960.91, -0.1369169, 0.23262186, -1193311.4, -24240.094, 0.0017550356, 9.998424, 10.000177 
2.144905e+3, 1.9070782e+2, -1090277.5, -1036642.9, -35896.41, -0.11808334, 0.11158026, -1018652.56, 52425.29, 0.00008036648, 9.999495, 10.00014 
2.1449532e+3, 2.0070687e+2, -906820.8, -945374.3, 26497.068, -0.09092294, 0.030748941, -893330.4, 79755.19, 0.000000018813253, 10.000264, 9.999736 
2.1450026e+3, 2.1070726e+2, -899519.94, -888386.0, 30124.604, -0.1002193, 0.07642634, -863318.3, 11764.742, 0.0, 9.999657, 9.999729 
2.145052e+3, 2.2070777e+2, -893391.6, -845429.25, -29813.637, -0.10470682, 0.173347, -831148.9, -54069.535, 0.0, 9.99904, 9.999673 
2.1450993e+3, 2.3070815e+2, -705274.06, -669705.06, -100066.56, -0.18650539, 0.20775823, -585854.9, 93221.21, 0.0, 9.999546, 9.99994 
2.1451464e+3, 2.4070796e+2, -608717.0, -722956.6, -72142.13, -0.25701118, 0.25062045, -573819.6, 7258.6416, 0.0, 10.000151, 9.998631 
2.145196e+3, 2.507057e+2, -486270.53, -680771.5, -23727.498, -0.19075814, 0.19524817, -483417.8, -315.80884, 0.0, 10.000642, 9.997991 
2.1452469e+3, 2.6070353e+2, -251075.42, -424592.03, 40800.746, -0.042028543, 0.17436053, -241960.34, 143163.39, 0.0, 10.001155, 9.998849 
2.1452983e+3, 2.7070266e+2, -56968.6, -150171.14, 1055.7916, 0.13905555, 0.0971152, -56956.64, 230170.78, 0.00000000016893417, 10.001286, 9.999976 
2.1453476e+3, 2.8070164e+2, -122594.01, -357931.94, -13591.536, 0.13355695, 0.07090316, -121811.65, 67322.01, 0.0000002738674, 10.001074, 9.998008 
2.1453933e+3, 2.9070002e+2, -138990.34, -376171.0, 2587.551, -0.2427563, 0.13946317, -138962.11, -47810.71, 0.0000047479944, 10.000599, 9.997406 
2.145445e+3, 3.006995e+2, 145105.33, 42102.492, 60152.652, -0.12931752, 0.25615072, 172791.9, 172791.9, 0.000021563434, 10.001007, 9.999819 
2.1454975e+3, 3.106953e+2, 276099.38, 122201.06, -170756.02, 0.19460623, -0.2703537, 386443.53, 386443.53, 0.000054127435, 10.001891, 9.999867 
2.1546179e+3, 1.3065664e+2, -1564861.5, -1766267.6, -101485.41, -0.029568894, 0.21019469, -1522594.6, 136992.81, 0.43279883, 10.001817, 9.998108 
2.1546608e+3, 1.40656e+2, -1706893.3, -1684280.1, -136011.27, -0.2505677, 0.30508447, -1559106.4, 2493.338, 0.28823382, 9.998939, 9.999361 
2.1547104e+3, 1.5065762e+2, -1476495.3, -1272225.3, -6716.6133, -0.13364959, 0.29776305, -1272004.6, 191575.98, 0.15688464, 9.998659, 10.001876 
2.154761e+3, 1.6065904e+2, -1434426.1, -1289016.1, -28518.395, 0.009700807, 0.2950762, -1283623.0, 81940.37, 0.06501248, 9.998804, 10.000817 
2.1548083e+3, 1.7065936e+2, -1396576.8, -1243467.4, -39564.477, -0.060127303, 0.2510004, -1233848.0, 33711.465, 0.018139776, 9.99856, 10.000509 
2.1548554e+3, 1.8065962e+2, -1314131.8, -1168785.3, -36390.668, -0.15383808, 0.24630174, -1160183.1, 9373.015, 0.0026903055, 9.998481, 10.000416 
2.1549048e+3, 1.9066073e+2, -1049389.8, -944605.5, 17708.979, -0.111199416, 0.267987, -941693.5, 129849.086, 0.00019736934, 9.999467, 10.000781 
2.154954e+3, 2.0066133e+2, -930153.06, -971955.9, 18378.188, -0.072666794, 0.2986003, -923222.3, 50312.03, 0.0000007869328, 10.000165, 9.999603 
2.1550025e+3, 2.1065915e+2, -970905.25, -1006990.06, 7312.7173, -0.10548241, 0.1474164, -969479.6, -93923.34, 0.0, 9.99952, 9.998982 
2.1550508e+3, 2.2065708e+2, -978412.7, -968912.75, -38843.69, -0.15276699, 0.056879673, -934529.7, -156952.05, 0.0, 9.998808, 9.998937 
2.1550989e+3, 2.3065723e+2, -775247.94, -779818.5, -64499.344, -0.1908779, 0.13858983, -712993.44, -33416.723, 0.0, 9.999385, 9.999263 
2.1551472e+3, 2.4065718e+2, -621898.56, -680530.06, -60160.13, -0.22874717, 0.22721164, -584291.56, -2714.1804, 0.0, 9.9998665, 9.99905 
2.1551965e+3, 2.50655e+2, -423904.9, -514726.16, 5494.2, -0.23287927, 0.072616495, -423573.75, 60022.18, 0.0, 10.000481, 9.999208 
2.1552463e+3, 2.6065326e+2, -293152.03, -441423.6, 47138.75, -0.22360063, 0.0048987987, -279434.66, 106175.5, 0.0, 10.000861, 9.998871 
2.1552978e+3, 2.7065396e+2, -150198.83, -302008.84, 16137.832, -0.046036337, 0.15388487, -148502.3, 139101.11, 0.0, 10.001097, 9.999029 
2.1553484e+3, 2.8065357e+2, -188681.22, -392390.44, -42578.06, 0.078695625, 0.26122525, -180139.94, 9468.219, 0.000000100631844, 10.00067, 9.997949 
2.1553965e+3, 2.9064956e+2, -147538.39, -322861.13, 16640.936, -0.021530198, 0.046723057, -145972.89, -54324.777, 0.0000031808167, 10.000295, 9.997917 
2.1554473e+3, 3.0064884e+2, -19475.945, -94682.945, 75113.19, -0.04616252, 0.1286005, 26920.637, 26920.637, 0.000016664693, 10.000186, 9.999243 
2.1554966e+3, 3.1064892e+2, 114975.08, -45584.54, -30868.771, -0.1736246, 0.104686946, 120705.32, 120705.32, 0.00004561872, 10.001185, 9.999049 
2.1646199e+3, 1.3060963e+2, -1700079.6, -1791947.9, -102779.125, 0.08793009, 0.27983093, -1633437.1, 26615.215, 0.45757636, 10.000226, 9.998635 
2.1646582e+3, 1.4060766e+2, -1750729.8, -1688041.4, 32390.465, -0.35392624, 0.21729343, -1674312.4, -112239.81, 0.3088363, 9.998598, 9.99949 
2.1647093e+3, 1.5060937e+2, -1448836.4, -1325413.0, 114228.39, -0.13857375, 0.2585227, -1257292.3, 206759.98, 0.17204043, 9.999289, 10.001159 
2.164761e+3, 1.6061084e+2, -1394240.5, -1329533.1, 10378.476, 0.13380077, 0.3326794, -1327909.3, 38125.41, 0.07433442, 9.999314, 10.000293 
2.1648076e+3, 1.7061047e+2, -1338596.3, -1242581.1, -35102.973, -0.0007468576, 0.24641511, -1231116.5, 36921.61, 0.022589553, 9.999038, 10.00031 
2.164854e+3, 1.806102e+2, -1296698.4, -1169587.9, -2971.959, -0.13676456, 0.20556752, -1169518.4, 522.0593, 0.00413868, 9.99865, 10.000328 
2.164904e+3, 1.9061148e+2, -1117264.9, -992435.56, -6612.293, -0.07423504, 0.25658014, -992086.3, 79940.09, 0.00045452762, 9.99906, 10.00066 
2.1649544e+3, 2.0061229e+2, -1047328.25, -1031363.2, -53565.934, 0.005647759, 0.31917837, -985188.25, -11171.292, 0.000007502901, 9.999355, 9.999591 
2.1650022e+3, 2.1061046e+2, -950572.4, -989656.75, -51367.91, -0.07826268, 0.20039532, -915154.94, -39119.176, 0.0, 9.999622, 9.999059 
2.16505e+3, 2.2060862e+2, -835563.7, -909352.94, 232.43225, -0.15199646, 0.13453533, -835563.0, -57508.555, 0.0, 9.999848, 9.998832 
2.1650991e+3, 2.306079e+2, -620978.75, -739487.56, 909.42255, -0.1571976, 0.14897391, -620971.75, 59089.24, 0.0, 10.0006, 9.998949 
2.1651484e+3, 2.406069e+2, -422171.1, -582427.1, 15356.897, -0.1406538, 0.16877362, -420712.78, 161356.72, 0.0, 10.001211, 9.9990835 
2.1651976e+3, 2.506053e+2, -357493.22, -430590.84, -5751.536, -0.16981377, 0.040550575, -357043.44, 127038.305, 0.0, 10.000738, 9.999646 
2.165247e+3, 2.6060438e+2, -391523.75, -506669.53, 13515.191, -0.19205672, 0.025053605, -389958.7, -3870.9282, 0.0, 10.000253, 9.998716 
2.1652979e+3, 2.7060473e+2, -263718.38, -418109.28, -16978.633, -0.11649068, 0.19376664, -261873.25, 26213.342, 0.0, 10.000606, 9.99845 
2.1653484e+3, 2.8060374e+2, -79570.664, -302089.25, -38081.145, 0.007258581, 0.26674253, -73234.02, 116864.94, 0.0000000029805467, 10.00124, 9.9983015 
2.1653982e+3, 2.9060018e+2, 49708.56, -121125.0, 336.64792, 0.111263946, 0.024915336, 49709.22, 141842.83, 0.000001345268, 10.001205, 9.998861 
2.16545e+3, 3.0060086e+2, 25227.402, -154413.72, 123642.09, 0.20453748, 0.21031234, 88230.59, 88230.59, 0.000010778314, 10.000824, 9.998533 
2.1654963e+3, 3.1059903e+2, 196421.02, 2837.7944, -34205.645, -0.3171684, 0.13339499, 202287.28, 202287.28, 0.00003608632, 10.001743, 9.9991 
2.1746214e+3, 1.3056688e+2, -1612284.0, -1558145.3, -229979.25, 0.1544909, 0.6421076, -1353647.8, 306829.84, 0.48078975, 10.00056, 10.001013 
2.1746565e+3, 1.4056264e+2, -1701739.5, -1639409.0, 61337.883, -0.45359528, 0.1257255, -1601773.0, -39268.297, 0.32934, 9.998844, 9.9997 
2.174708e+3, 1.5056132e+2, -1602174.0, -1641129.5, 166421.14, -0.20550664, 0.04648728, -1454094.6, 10419.567, 0.18832743, 9.999317, 9.998765 
2.1747603e+3, 1.6056028e+2, -1463853.3, -1513225.1, -39.788303, 0.0752202, 0.08985074, -1463853.3, -97330.21, 0.0852701, 9.999488, 9.998926 
2.1748061e+3, 1.7056036e+2, -1340801.3, -1266003.3, -39352.65, -0.06947241, 0.08721121, -1249113.1, 19410.256, 0.028395085, 9.99912, 10.000101 
2.174852e+3, 1.8056042e+2, -1329499.0, -1260181.8, -10272.88, -0.23255199, 0.108966134, -1258691.4, -88167.04, 0.006367479, 9.998743, 9.99966 
2.1749029e+3, 1.9055985e+2, -1192833.8, -1143209.6, 17093.291, -0.11618544, 0.06806947, -1137891.6, -65360.43, 0.0009868387, 9.99903, 9.999637 
2.1749537e+3, 2.0055945e+2, -1061360.8, -1036722.3, -51067.92, -0.016356423, 0.08214584, -996508.75, -21972.262, 0.000047582707, 9.999247, 9.999609 
2.1750015e+3, 2.1056105e+2, -912596.25, -868779.75, -35151.617, -0.11640263, 0.23487836, -849268.1, 27254.504, 0.00000000032497088, 9.999441, 9.999976 
2.1750493e+3, 2.2056232e+2, -850217.56, -871078.2, 12225.516, -0.22946775, 0.3992405, -844577.56, -66066.33, 0.0, 9.9995575, 9.999233 
2.1750994e+3, 2.3055972e+2, -654148.75, -759854.44, 42096.902, -0.19572094, 0.2213246, -639432.56, 41100.44, 0.0, 10.000397, 9.998902 
2.1751496e+3, 2.4055672e+2, -498551.5, -654357.4, 5823.5723, -0.15531099, 0.051248908, -498334.13, 84224.63, 0.0, 10.000853, 9.9987545 
2.175199e+3, 2.5055617e+2, -419198.63, -512712.28, -20583.705, -0.11460617, 0.07403949, -414868.38, 69694.53, 0.0, 10.0005455, 9.999172 
2.1752483e+3, 2.6055646e+2, -460306.4, -574797.8, -1445.3588, -0.106230326, 0.2183489, -460288.2, -73728.29, 0.0, 9.99995, 9.998386 
2.1752979e+3, 2.7055493e+2, -317263.22, -478996.72, 16896.836, -0.19445366, 0.22811885, -315516.8, -26939.842, 0.0, 10.0004, 9.998128 
2.1753472e+3, 2.8055197e+2, -106429.79, -246293.19, -37198.375, -0.26861858, 0.11239338, -97151.88, 93455.95, 0.0, 10.000783, 9.998895 
2.1753985e+3, 2.905512e+2, 83128.0, 9866.033, 2903.5361, -0.002257099, 0.023698179, 83242.89, 175857.22, 0.00000028754212, 10.000939, 9.999887 
2.1754527e+3, 3.0055368e+2, -163038.17, -386782.38, 95431.3, 0.35047427, 0.40368497, -127864.37, -127864.37, 0.0000061263827, 10.000211, 9.997198 
2.1754976e+3, 3.1054705e+2, 112695.36, 33996.18, 153316.66, -0.42123926, -0.0073748794, 231631.55, 231631.55, 0.000027574106, 10.000879, 9.999723 
2.1846566e+3, 1.4051542e+2, -1913768.3, -1617630.8, -136878.55, -0.20814581, 0.11809069, -1564056.0, -1090.4211, 0.34983045, 9.996779, 10.00084 
2.1847087e+3, 1.505138e+2, -1558146.0, -1732968.3, -26070.035, -0.06676248, 0.09931266, -1554341.1, -89363.81, 0.2059314, 10.00005, 9.997806 
2.1847585e+3, 1.605102e+2, -1535875.9, -1588726.6, -65327.773, 0.009487538, -0.043145362, -1491831.3, -124819.0, 0.09816949, 9.999192, 9.998547 
2.1848054e+3, 1.705111e+2, -1283179.4, -1261235.9, -102442.18, -0.058826175, 0.066125646, -1169179.6, 99827.625, 0.036017943, 9.999674, 9.999862 
2.1848513e+3, 1.8051201e+2, -1159219.0, -1210930.5, -55724.55, -0.21750085, 0.20084792, -1123643.9, 47358.094, 0.009796201, 10.000026, 9.999388 
2.1849021e+3, 1.9051073e+2, -1123665.4, -1134484.4, 7641.889, -0.09625237, 0.1126909, -1119712.1, -46695.984, 0.0020521113, 9.999597, 9.999416 
2.1849534e+3, 2.0050976e+2, -1087161.4, -1058851.1, 19273.893, 0.053664595, 0.08321843, -1049092.9, -74065.81, 0.00020967671, 9.999128, 9.9995165 
2.1850015e+3, 2.1051139e+2, -855845.25, -847556.7, -38488.195, -0.051501397, 0.24681793, -812990.3, 64021.254, 0.00000086887735, 9.999865, 9.999921 
2.1850498e+3, 2.2051255e+2, -724665.0, -828321.3, -41577.766, -0.1576308, 0.414316, -710048.7, 68951.16, 0.0, 10.00047, 9.999103 
2.1851002e+3, 2.3050982e+2, -689078.2, -782403.3, -47522.09, -0.12179085, 0.23467016, -669139.4, 11884.056, 0.0, 10.000193, 9.998843 
2.1851507e+3, 2.4050687e+2, -634507.3, -741119.25, -63141.94, -0.067210354, 0.079562545, -605179.0, -22129.852, 0.0, 9.999997, 9.998574 
2.1851997e+3, 2.5050637e+2, -417651.1, -551330.94, -102056.29, -0.071580395, 0.13615575, -362494.84, 122559.31, 0.0, 10.000694, 9.99885 
2.185249e+3, 2.6050642e+2, -285323.3, -482413.13, -65501.707, -0.05621177, 0.27482185, -265540.0, 121514.4, 0.0, 10.001098, 9.998482 
2.1852988e+3, 2.705046e+2, -331539.25, -447323.22, -34719.902, -0.08107355, 0.23532149, -321926.0, -32852.848, 0.0, 10.00012, 9.998498 
2.1853484e+3, 2.8050226e+2, -287460.34, -311882.78, -18201.66, -0.13000707, 0.14287692, -277753.2, -86656.51, 0.0, 9.999415, 9.999121 
2.1853982e+3, 2.905019e+2, -31450.26, -64868.035, -83225.94, -0.06401186, 0.10748164, 36727.508, 129826.05, 0.000000027227998, 10.000221, 9.999726 
2.1854521e+3, 3.005021e+2, -87308.81, -444893.2, 2692.769, 0.283392, 0.30761313, -87288.54, -87288.54, 0.0000044959556, 10.001061, 9.996431 
2.1855007e+3, 3.1049702e+2, 230857.9, 190554.97, 34622.06, -0.18041466, 0.14059962, 250766.0, 250766.0, 0.000025056477, 10.001141, 10.000734 
2.1946558e+3, 1.4046396e+2, -1656065.9, -1249384.0, 20409.615, -0.0393269, 0.21436855, -1248362.3, 315113.56, 0.371045, 9.996752, 10.004632 
2.1947111e+3, 1.5046623e+2, -1473119.9, -1569825.9, -38914.543, 0.14459571, 0.4537074, -1459405.5, 6042.251, 0.22535217, 10.000129, 9.998892 
2.1947558e+3, 1.6046058e+2, -1466128.5, -1462394.5, -96554.1, -0.21615015, -0.03291891, -1367689.4, -186.37665, 0.113554515, 9.999278, 9.999369 
2.1948051e+3, 1.7046238e+2, -1309973.9, -1316154.8, -73635.12, -0.061238468, 0.18746945, -1239364.4, 30128.2, 0.046104282, 9.999673, 9.999476 
2.1948516e+3, 1.8046464e+2, -1127697.6, -1165904.5, -61325.242, -0.23017266, 0.47584146, -1082569.3, 88908.08, 0.015073848, 10.0001135, 9.9996605 
2.1949019e+3, 1.9046423e+2, -1073359.8, -1028317.56, -8499.218, -0.11400066, 0.41265437, -1026767.2, 46713.484, 0.004138987, 9.999591, 10.000151 
2.1949528e+3, 2.0046325e+2, -1123383.9, -1108410.5, 16279.213, 0.061931394, 0.3394717, -1097979.0, -122490.68, 0.00072646124, 9.999021, 9.999226 
2.195002e+3, 2.104613e+2, -962485.8, -1022629.44, 864.18506, -0.002795103, 0.235799, -962473.44, -84969.14, 0.000022642807, 9.999671, 9.998805 
2.195051e+3, 2.2045931e+2, -812066.4, -940770.2, -44491.367, -0.091366, 0.18091089, -798183.7, -18662.576, 0.000000000011542125, 10.000172, 9.998472 
2.1951014e+3, 2.3045814e+2, -721141.06, -817403.06, -53066.94, -0.04562764, 0.18508959, -697629.25, -16096.795, 0.0, 10.00005, 9.998672 
2.1951512e+3, 2.4045731e+2, -692896.5, -782452.0, -61722.07, -0.040378906, 0.25427136, -661420.3, -77879.305, 0.0, 9.999667, 9.998443 
2.1951997e+3, 2.5045583e+2, -458507.44, -593658.5, -61590.438, -0.1537383, 0.23120521, -434650.84, 50904.344, 0.0, 10.000513, 9.998644 
2.195249e+3, 2.604541e+2, -323797.88, -469729.3, -87612.836, -0.20288189, 0.20202366, -282746.03, 104826.125, 0.0, 10.000721, 9.9987335 
2.1953008e+3, 2.704533e+2, -306532.9, -339472.22, -63592.527, 0.07467968, 0.18927683, -257311.92, 32266.83, 0.0, 9.999899, 9.999329 
2.1953513e+3, 2.8045368e+2, -356456.44, -370464.16, -26106.172, 0.19456552, 0.30675682, -336430.94, -144856.78, 0.0, 9.999072, 9.998875 
2.1953972e+3, 2.9045245e+2, -156663.95, -273841.38, -24790.805, -0.19563429, 0.29097715, -151634.89, -58050.492, 0.000000020729713, 10.000006, 9.998393 
2.1954483e+3, 3.0044603e+2, -200838.44, -533747.7, 17749.385, -0.24931878, -0.061022095, -199894.78, -199894.78, 0.0000055230016, 10.000479, 9.996069 
2.195505e+3, 3.1044704e+2, 43984.773, 68452.01, 40100.918, 0.109666206, 0.33799088, 98143.86, 98143.86, 0.000029811183, 10.000089, 10.000354 
2.204651e+3, 1.4040974e+2, -1506701.0, -1231966.3, 80075.09, -0.23035842, 0.07292742, -1210331.1, 353677.16, 0.39437363, 9.998232, 10.004244 
2.2047104e+3, 1.5041503e+2, -1733640.1, -1432893.8, -74024.47, 0.22346121, 0.48889926, -1415661.0, 50291.902, 0.24751917, 9.99715, 10.001371 
2.2047544e+3, 1.6041265e+2, -1617919.3, -1382309.4, -60173.17, -0.18596168, 0.09439322, -1367831.3, 144.28804, 0.13222682, 9.997551, 10.000771 
2.2048043e+3, 1.7041409e+2, -1497565.4, -1410283.0, 13452.928, -0.04588034, 0.24700324, -1408256.5, -138289.77, 0.059555795, 9.998331, 9.999508 
2.2048521e+3, 1.8041559e+2, -1317230.6, -1281376.9, 55342.66, -0.12329096, 0.45979655, -1241130.0, -69172.734, 0.023171267, 9.998913, 9.99945 
2.2049022e+3, 1.9041523e+2, -1023745.6, -1073515.8, -3190.0432, -0.05653756, 0.45294285, -1023542.0, 50420.004, 0.008108057, 10.000233, 9.999547 
2.2049528e+3, 2.0041427e+2, -812721.9, -1000608.56, -39344.035, 0.07444679, 0.43831867, -804815.8, 171155.6, 0.0021629941, 10.001329, 9.998859 
2.2050028e+3, 2.1041144e+2, -696372.1, -909848.2, -14426.094, 0.0376211, 0.26685825, -695401.6, 182592.55, 0.00023583506, 10.001548, 9.998679 
2.2050525e+3, 2.2040848e+2, -636206.8, -878001.44, 3780.0344, 0.0016042627, 0.13100049, -636147.7, 143871.06, 0.0000019906881, 10.001471, 9.998281 
2.205102e+3, 2.3040748e+2, -628244.9, -814556.6, -50186.07, 0.020144166, 0.18126602, -615586.5, 66443.87, 0.0, 10.0008545, 9.998318 
2.2051516e+3, 2.4040684e+2, -607898.94, -746447.0, -25689.594, 0.031102786, 0.30360213, -603289.0, -19250.4, 0.0, 10.000264, 9.998406 
2.2052005e+3, 2.5040573e+2, -445493.72, -543975.25, -5007.748, -0.10598742, 0.28955925, -445239.72, 40809.08, 0.0, 10.000479, 9.998972 
2.2052498e+3, 2.6040387e+2, -314755.06, -459797.63, -20048.33, -0.16428056, 0.22826815, -312034.94, 76030.54, 0.0, 10.000747, 9.998799 
2.2053011e+3, 2.704023e+2, -233989.16, -323733.94, -89795.97, 0.103174746, 0.14657766, -178478.05, 111601.445, 0.0, 10.000454, 9.999184 
2.2053513e+3, 2.804028e+2, -209943.8, -303307.34, -39114.52, 0.2676107, 0.2849223, -195722.92, -3649.643, 0.0, 10.000094, 9.998838 
2.2053982e+3, 2.9040235e+2, 13890.249, -176750.36, 19136.137, -0.15517317, 0.35717344, 15792.125, 109866.88, 0.00000007580395, 10.001119, 9.998525 
2.2054487e+3, 3.0039552e+2, 42636.93, -355998.9, 141727.36, -0.28777578, -0.09597891, 87888.586, 87888.586, 0.0000083740215, 10.001849, 9.996652 
2.2055066e+3, 3.1039745e+2, -138413.81, -110088.25, -7494.9526, 0.3357841, 0.38791335, -108227.336, -108227.336, 0.000042885644, 9.9991865, 9.999558 
2.2146484e+3, 1.403553e+2, -1834382.4, -1769104.4, 10375.043, -0.38701004, -0.050743643, -1767495.0, -202957.6, 0.4221777, 9.998221, 9.999085 
2.2147068e+3, 1.5035933e+2, -1486124.5, -1041921.7, -24280.926, 0.11232067, 0.14177625, -1040598.4, 425903.0, 0.27423543, 9.99706, 10.005101 
2.2147535e+3, 1.6036634e+2, -1451483.0, -1104208.1, -46769.88, -0.08516059, 0.3602457, -1098019.5, 270411.03, 0.15564767, 9.997637, 10.002969 
2.2148018e+3, 1.7036639e+2, -1454942.0, -1315121.6, 46815.1, -0.1342014, 0.26060882, -1300894.5, -30467.09, 0.07778218, 9.998305, 10.000167 
2.2148521e+3, 1.8036488e+2, -1369232.1, -1401286.3, 84259.1, -0.034969468, 0.14897445, -1299489.4, -127048.516, 0.035576556, 9.99896, 9.998608 
2.2149028e+3, 1.9036357e+2, -1180488.4, -1380443.6, 57907.656, -0.026609391, 0.22411212, -1164929.0, -90467.37, 0.0154146915, 10.000153, 9.997478 
2.2149532e+3, 2.0036252e+2, -864279.8, -1081417.6, -20222.602, -0.061760392, 0.36344838, -862412.5, 114066.4, 0.005714695, 10.001214, 9.998361 
2.2150037e+3, 2.1036161e+2, -656397.7, -791988.6, -1972.9575, -0.047353443, 0.33005401, -656368.94, 222113.97, 0.0013616167, 10.001396, 9.999562 
2.2150537e+3, 2.2036031e+2, -678514.5, -889042.8, -19117.47, -0.043427665, 0.29213002, -676792.6, 103698.164, 0.00013056793, 10.001145, 9.99836 
2.2151026e+3, 2.3035759e+2, -699421.9, -917195.75, -65436.72, -0.028919507, 0.21483678, -681272.06, 1247.2651, 0.0000045921656, 10.000656, 9.997709 
2.2151516e+3, 2.4035536e+2, -666058.44, -774358.5, -46182.754, -0.016831148, 0.22525822, -649039.1, -64495.75, 0.000000030624218, 9.9998865, 9.998386 
2.2152017e+3, 2.503557e+2, -435141.38, -466220.6, 16122.504, -0.04138509, 0.3050946, -428288.7, 58249.28, 0.0, 10.000251, 9.999609 
2.2152515e+3, 2.6035517e+2, -383400.8, -513392.47, -34883.027, -0.09430134, 0.3320009, -374631.56, 13909.271, 0.0, 10.000381, 9.998601 
2.2152996e+3, 2.703515e+2, -330148.53, -470134.47, -97459.22, -0.08928657, 0.11117775, -280152.7, 10423.753, 0.0, 10.000238, 9.998274 
2.2153482e+3, 2.803497e+2, -287592.84, -359112.44, -39611.426, -0.08240717, 0.10217073, -269987.6, -77394.09, 0.0, 9.99967, 9.998644 
2.2153999e+3, 2.903511e+2, 36221.82, -54361.926, 84019.79, -0.103992075, 0.28712136, 86379.82, 180954.42, 0.00000027397763, 10.00081, 9.999502 
2.2154523e+3, 3.003492e+2, 55771.125, -175039.7, 88548.6, -0.15395546, 0.17197621, 85827.95, 85827.95, 0.000015050563, 10.001239, 9.99816 
2.2155032e+3, 3.1034738e+2, -397578.44, -470749.22, -7575.196, 0.025715562, 0.2014176, -396802.44, -396802.44, 0.00007034586, 9.998475, 9.997405 
2.2246565e+3, 1.4030689e+2, -1493451.1, -2116859.0, -457966.5, 0.28802806, 0.36836374, -1251176.1, 313834.56, 0.45833316, 10.004323, 9.994116 
2.2247021e+3, 1.5030849e+2, -1649617.0, -1070863.6, 124933.18, 0.05066027, 0.07232813, -1045046.5, 421954.4, 0.30885017, 9.995715, 10.00566 
2.2247522e+3, 1.6031691e+2, -1312129.3, -1098597.4, -57604.67, -0.0031066467, 0.4346521, -1084048.5, 284866.0, 0.18666483, 9.998902, 10.002481 
2.2248015e+3, 1.7031546e+2, -1177676.4, -1220054.6, -130926.34, -0.08853561, 0.22355159, -1066235.6, 204687.8, 0.103338934, 10.000479, 9.999831 
2.224853e+3, 1.8031265e+2, -1096151.6, -1275955.3, -145311.89, 0.08956405, 0.011439413, -1015179.56, 157768.1, 0.054786276, 10.000895, 9.998564 
2.2249036e+3, 1.903119e+2, -1129671.4, -1319109.3, -47212.938, 0.054618537, 0.121558085, -1118556.8, -43593.8, 0.028543482, 10.0003195, 9.997817 
2.2249536e+3, 2.0031156e+2, -1086536.9, -1178199.8, 43031.875, -0.026427658, 0.30108547, -1069501.3, -92527.46, 0.013685946, 9.999653, 9.998441 
2.2250041e+3, 2.1031095e+2, -889868.75, -933387.5, -20106.297, -0.03018984, 0.31638145, -882001.56, -3023.8662, 0.005262215, 9.999933, 9.999296 
2.2250547e+3, 2.203097e+2, -792781.1, -963577.5, -88075.18, -0.011013804, 0.3127422, -755500.5, 25486.713, 0.001420654, 10.000418, 9.998209 
2.2251032e+3, 2.303068e+2, -648791.3, -888214.44, -125232.4, -0.024669457, 0.21865046, -595257.3, 87760.0, 0.0002619265, 10.000968, 9.9977665 
2.2251518e+3, 2.4030438e+2, -451568.25, -665897.9, -53188.26, -0.024642674, 0.20600231, -439094.9, 145947.64, 0.000035642544, 10.001317, 9.998459 
2.2252019e+3, 2.5030488e+2, -335253.0, -409709.94, -32076.006, -0.047732856, 0.29472658, -323340.56, 163694.66, 0.0000011567587, 10.000841, 9.999746 
2.2252516e+3, 2.6030457e+2, -397284.63, -518137.13, -80851.92, -0.06451819, 0.33449492, -356773.44, 32262.373, 0.0, 10.000266, 9.998628 
2.2253e+3, 2.703009e+2, -264018.06, -445885.03, -132300.88, -0.076178335, 0.12645154, -194413.63, 96658.2, 0.0, 10.000752, 9.99819 
2.2253487e+3, 2.8029892e+2, -96122.42, -260421.23, -10190.743, -0.052237507, 0.10169284, -95492.74, 97598.31, 0.0, 10.000935, 9.998735 
2.2254007e+3, 2.9030004e+2, -31079.164, -50172.023, 63855.17, -0.051250853, 0.25383067, 23939.238, 119014.07, 0.00000073017384, 10.000199, 9.999821 
2.2254542e+3, 3.0029947e+2, -81907.0, -162900.1, 10313.916, -0.010479987, 0.20353045, -80614.23, -80614.23, 0.00002755439, 9.999924, 9.998904 
2.2255021e+3, 3.102962e+2, 173209.28, -129558.67, -175898.92, -0.09571262, 0.064379536, 253897.58, 253897.58, 0.000118261974, 10.002071, 9.9980545 
2.2346963e+3, 1.502639e+2, -1900097.6, -1390694.6, 197478.92, -0.14336123, 0.42555797, -1323106.3, 144331.34, 0.35698506, 9.995407, 10.002825 
2.234751e+3, 1.6026339e+2, -1557029.1, -1563967.9, 25801.375, -0.07840757, 0.23977815, -1534464.9, -165028.42, 0.23053116, 9.99886, 9.998883 
2.234803e+3, 1.7026067e+2, -1286582.4, -1439527.1, -97878.08, -0.009837045, 0.098682515, -1238844.6, 32616.834, 0.14104874, 10.000402, 9.998299 
2.234854e+3, 1.8025862e+2, -1052224.9, -1176844.3, -155224.58, 0.07634178, 0.049480386, -947270.75, 226210.03, 0.08532412, 10.000909, 9.999265 
2.2349043e+3, 1.9026013e+2, -945568.75, -916512.3, -68261.84, 0.080242455, 0.15450384, -861249.8, 214217.17, 0.05187056, 10.000255, 10.000674 
2.2349541e+3, 2.0026158e+2, -1069364.9, -1101433.5, 25807.11, 0.031380463, 0.28550243, -1055016.5, -77562.414, 0.030293982, 9.99948, 9.999049 
2.2350045e+3, 2.1025923e+2, -1014512.1, -1150701.8, 3542.8574, -0.013853041, 0.21952027, -1014420.0, -134939.66, 0.015773455, 9.999753, 9.997891 
2.2350547e+3, 2.2025643e+2, -873415.3, -1047394.56, -76360.266, -0.05608785, 0.17984448, -844654.9, -63144.145, 0.0069356123, 10.00007, 9.997791 
2.2351037e+3, 2.30255e+2, -625713.2, -800664.7, -92002.12, -0.09070097, 0.18115649, -586238.56, 97286.8, 0.002541045, 10.000792, 9.998446 
2.2351518e+3, 2.402538e+2, -503901.47, -684625.3, -67326.31, -0.16240646, 0.24500667, -481577.5, 103959.23, 0.00075579167, 10.000947, 9.998499 
2.235201e+3, 2.5025335e+2, -394162.7, -472845.28, -45768.47, -0.23574252, 0.25438216, -373150.94, 114388.72, 0.00014769337, 10.000591, 9.999426 
2.2352505e+3, 2.6025236e+2, -475083.84, -564837.56, -99610.586, -0.25658324, 0.25579816, -410707.78, -21159.793, 0.000007045108, 9.999801, 9.998514 
2.2353016e+3, 2.702503e+2, -280019.1, -415612.22, -98543.6, -0.004041466, 0.17897053, -228202.88, 63364.633, 0.00000000065814787, 10.000483, 9.998514 
2.2353515e+3, 2.8024966e+2, -159901.19, -269217.1, -44582.383, 0.13411939, 0.24421382, -144024.89, 49548.18, 0.0, 10.000444, 9.998888 
2.2354001e+3, 2.9024914e+2, -127455.11, -156478.48, 45248.004, -0.14594406, 0.2420891, -94448.69, 1127.1399, 0.0000012574419, 9.999829, 9.9992485 
2.2354531e+3, 3.00246e+2, -234024.19, -312329.75, 23308.611, -0.12610915, 0.033311438, -227611.28, -227611.28, 0.000044073433, 9.999261, 9.99817 
2.2355036e+3, 3.102456e+2, 170047.66, 141873.39, 34166.32, -0.18540424, 0.14798419, 192917.05, 192917.05, 0.00018419352, 10.0009575, 10.000424 
2.2446944e+3, 1.5020776e+2, -1745370.9, -1489121.6, 9280.476, 0.0053540026, -0.0018088507, -1488785.9, -20799.941, 0.42759266, 9.997436, 10.000572 
2.2447507e+3, 1.6020958e+2, -1412607.8, -1482411.3, 20284.535, -0.012777315, 0.1410028, -1407141.3, -37179.207, 0.29616648, 9.999785, 9.999009 
2.2448032e+3, 1.7020804e+2, -1285867.6, -1397550.4, -12866.996, 0.021979682, 0.08821505, -1284404.4, -12428.437, 0.19952731, 10.000191, 9.998683 
2.2448544e+3, 1.8020645e+2, -1146252.6, -1174732.5, 15647.762, 0.10345121, 0.041186355, -1139335.4, 34655.727, 0.13536815, 9.999984, 9.999685 
2.2449043e+3, 1.9020826e+2, -971020.2, -885655.56, -67491.05, 0.09738758, 0.12834318, -848482.9, 227490.0, 0.09319166, 9.999863, 10.001166 
2.2449538e+3, 2.0020998e+2, -1002437.7, -1056605.4, -76269.06, 0.07890035, 0.2492988, -948586.4, 29369.94, 0.06306426, 9.999822, 9.999237 
2.245005e+3, 2.1020783e+2, -874222.4, -1078117.3, -19761.66, 0.052595075, 0.20346363, -872324.75, 7656.9126, 0.0400799, 10.000655, 9.997982 
2.2450559e+3, 2.2020532e+2, -638570.4, -893959.25, 12175.23, 0.014976677, 0.17611921, -637991.25, 144019.2, 0.023131557, 10.001518, 9.998163 
2.2451045e+3, 2.302042e+2, -563066.25, -710503.75, -50091.938, -0.066306256, 0.1612076, -547657.8, 136363.39, 0.011994159, 10.000982, 9.998978 
2.2451526e+3, 2.4020319e+2, -571871.2, -723146.4, -25140.684, -0.13159153, 0.21436669, -567802.44, 18227.559, 0.0054928027, 10.000467, 9.998482 
2.2452016e+3, 2.5020254e+2, -412814.47, -507184.22, -25275.842, -0.20104975, 0.22511852, -406471.03, 81564.55, 0.002050329, 10.000568, 9.99921 
2.2452508e+3, 2.602013e+2, -395062.22, -523902.66, -47553.555, -0.19648045, 0.22397947, -379411.8, 10634.873, 0.0004876709, 10.000321, 9.998554 
2.245302e+3, 2.7019948e+2, -294091.3, -374341.22, -45611.16, 0.04151321, 0.14003614, -273467.7, 18594.686, 0.000047167257, 10.000181, 9.998946 
2.2453521e+3, 2.8019917e+2, -253442.33, -340261.0, 6722.9263, 0.19796476, 0.20236644, -252924.83, -58861.12, 0.00000034188096, 9.999895, 9.998674 
2.2454008e+3, 2.9019806e+2, 16079.346, -219551.81, 19410.602, -0.11174441, 0.25196984, 17667.627, 113743.66, 0.0000013302117, 10.001343, 9.998114 
2.2454539e+3, 3.0019355e+2, 140947.17, -172965.73, 16372.739, -0.08660537, -0.013066555, 141798.81, 141798.81, 0.0000584347, 10.001944, 9.997848 
2.2455053e+3, 3.101949e+2, 26879.146, 247947.13, -69221.88, -0.012453486, 0.2707891, 267833.34, 267833.34, 0.00025945, 9.9991045, 10.002054 
2.2547504e+3, 1.601563e+2, -1303378.5, -1170445.6, 23557.484, -0.077361494, 0.2570304, -1166394.4, 204089.5, 0.39765337, 9.999239, 10.002297 
2.2548024e+3, 1.7015758e+2, -1164031.9, -1107978.1, -17630.588, -0.12238446, 0.19712736, -1102894.0, 169573.11, 0.29298013, 10.000123, 10.001162 
2.2548543e+3, 1.8015595e+2, -1190214.1, -1213418.6, -24736.654, 0.0037432797, -0.027801543, -1174494.0, -14.123151, 0.21888196, 9.99973, 9.999519 
2.2549033e+3, 1.9015574e+2, -1144733.1, -1190321.4, -81676.445, -0.019332955, 0.010071323, -1082729.8, -6244.1274, 0.16615056, 9.999618, 9.999041 
2.2549526e+3, 2.0015626e+2, -1064673.1, -1121547.1, -70475.33, -0.070516884, 0.1623482, -1017113.8, -38628.566, 0.12546477, 9.999545, 9.9988985 
2.2550057e+3, 2.1015657e+2, -798776.44, -865685.1, 24202.893, 0.024689937, 0.24396284, -790939.44, 89544.03, 0.0914258, 10.000485, 9.999514 
2.2550578e+3, 2.2015636e+2, -641001.56, -802804.3, 11557.515, 0.028854933, 0.30662188, -640180.2, 142306.23, 0.062582165, 10.001155, 9.998965 
2.255106e+3, 2.301543e+2, -587268.8, -706220.94, -67116.01, -0.043302085, 0.16124448, -557067.9, 127437.96, 0.039919913, 10.0007515, 9.999128 
2.2551535e+3, 2.4015242e+2, -682923.1, -800724.06, -51798.305, -0.112059765, 0.13023841, -663386.8, -76863.164, 0.023601582, 9.999837, 9.998238 
2.2552034e+3, 2.5015232e+2, -463926.0, -538401.06, -13182.805, -0.0908691, 0.19786347, -461661.4, 26862.668, 0.012405956, 10.000268, 9.999125 
2.2552525e+3, 2.601511e+2, -466753.7, -562425.06, -81039.98, -0.075844906, 0.22067872, -420484.5, -29949.541, 0.005154125, 9.999879, 9.998493 
2.2553013e+3, 2.7014834e+2, -319607.06, -334314.84, -47129.992, -0.07105762, -0.00468156, -279260.7, 13296.864, 0.0013586987, 9.9998045, 9.999392 
2.2553496e+3, 2.8014734e+2, -422055.84, -530514.94, 393.3637, -0.060131002, -0.012520056, -422054.4, -227490.28, 0.00015517221, 9.999254, 9.997656 
2.2554024e+3, 2.90147e+2, -174405.17, -499533.8, 97246.73, -0.097863145, 0.28911167, -147538.53, -50964.617, 0.0000026982873, 10.00092, 9.996356 
2.2554553e+3, 3.0014193e+2, 25983.14, -251625.48, -52904.773, -0.19233973, 0.0737334, 35723.61, 35723.61, 0.000065484004, 10.001317, 9.997585 
2.2555037e+3, 3.1014144e+2, -54985.31, 273626.75, -34056.81, -0.12330145, 0.14458041, 277119.22, 277119.22, 0.00034262822, 9.998335, 10.002586 
2.2648036e+3, 1.7010409e+2, -1584511.6, -1248467.3, 47628.36, 0.21492334, -0.0050621065, -1241847.3, 31138.496, 0.44342524, 9.996124, 10.002013 
2.2648536e+3, 1.801084e+2, -1194945.3, -1333359.8, 58256.83, -0.06452705, 0.12388958, -1173689.8, 1251.2604, 0.3585124, 10.000039, 9.99858 
2.2649036e+3, 1.9010545e+2, -1072251.8, -1333179.0, -59585.18, -0.012107454, 0.07571542, -1059289.0, 17687.941, 0.29413474, 10.000957, 9.997358 
2.2649539e+3, 2.0010276e+2, -729847.9, -935129.44, 12413.507, -0.0072152046, 0.009479233, -729100.0, 249910.47, 0.24160613, 10.002267, 9.999011 
2.2650051e+3, 2.1010411e+2, -687367.8, -727545.5, 22564.146, -0.07910425, 0.12749508, -677245.7, 203751.4, 0.1940874, 10.001016, 10.000487 
2.2650568e+3, 2.2010536e+2, -796617.75, -819207.56, -7382.6973, -0.09906729, 0.25630528, -794419.0, -11435.801, 0.14888066, 9.999694, 9.99958 
2.2651057e+3, 2.301045e+2, -668719.1, -692807.5, -88929.65, -0.08332436, 0.19805346, -591021.75, 93967.875, 0.108788945, 9.999957, 9.999644 
2.2651541e+3, 2.4010293e+2, -544230.44, -715860.06, -4565.409, -0.062587984, 0.15558219, -544109.1, 42894.43, 0.07581198, 10.000638, 9.9984665 
2.2652051e+3, 2.501017e+2, -378361.03, -568027.3, -5837.833, 0.025609635, 0.13947876, -378181.5, 110835.66, 0.048806984, 10.001088, 9.998592 
2.2652541e+3, 2.600996e+2, -297874.28, -544872.56, -107668.484, 0.05239579, 0.1467868, -257530.39, 133508.7, 0.026684597, 10.001246, 9.997996 
2.2653012e+3, 2.7009758e+2, -17373.236, -186643.84, -132604.13, -0.12952046, 0.00860952, 55303.21, 348359.5, 0.010897145, 10.001789, 9.999509 
2.2653481e+3, 2.8009716e+2, -234033.02, -454184.1, -70526.414, -0.17382133, 0.05461445, -213377.53, -18318.615, 0.002788968, 10.000571, 9.997566 
2.2654043e+3, 2.900958e+2, -97369.7, -497448.06, 164657.72, -0.001895264, 0.29270753, -38318.48, 58758.652, 0.0003034348, 10.001613, 9.996045 
2.265458e+3, 3.0009e+2, 130479.664, -206996.52, 21307.625, -0.058272112, -0.019493703, 131819.67, 131819.67, 0.000074942734, 10.002117, 9.997516 
2.2655037e+3, 3.100888e+2, 188347.06, 230273.2, -124162.19, -0.072089694, 0.15585282, 335229.56, 335229.56, 0.00045627946, 10.000577, 10.001311 
2.2749577e+3, 2.0005347e+2, -819334.5, -1045864.56, 15851.773, 0.08347361, 0.22362083, -818230.6, 161262.81, 0.4526298, 10.002502, 9.997996 
2.2750059e+3, 2.1005335e+2, -669455.9, -719132.56, -33226.285, -0.11268737, 0.16320026, -652810.1, 228683.55, 0.38963944, 10.001673, 10.000617 
2.275058e+3, 2.2005321e+2, -1001874.2, -939545.44, -97552.45, 0.01098017, 0.13210228, -868300.3, -84807.84, 0.32267725, 9.998415, 9.99932 
2.2751057e+3, 2.3005347e+2, -858972.8, -694104.8, -51842.83, -0.084149875, 0.109268814, -679157.9, 6327.7607, 0.25840095, 9.998251, 10.000378 
2.275154e+3, 2.4005328e+2, -711494.3, -837347.1, 25441.082, -0.20002541, 0.15804836, -706546.0, -119061.61, 0.20062341, 9.999666, 9.998068 
2.2752067e+3, 2.5005046e+2, -546123.8, -766397.8, 16963.496, 0.045782465, 0.0003260177, -544825.06, -55308.176, 0.14660953, 10.000433, 9.997498 
2.2752556e+3, 2.6004732e+2, -646440.06, -916749.3, -126804.586, 0.021410797, 0.05759563, -596267.44, -204714.0, 0.09444842, 9.99975, 9.99612 
2.2753023e+3, 2.7004796e+2, -131687.64, -260648.0, -119561.984, -0.24712569, 0.21834973, -60326.887, 233223.8, 0.04983968, 10.00117, 9.999268 
2.2753474e+3, 2.8004885e+2, -376913.53, -492535.47, -159458.63, -0.34377253, 0.40280902, -265109.75, -69564.984, 0.019500945, 9.9995165, 9.997778 
2.2754055e+3, 2.900445e+2, -142678.83, -429615.06, 211925.92, -0.04456491, 0.23155835, -30225.68, 67359.22, 0.004786881, 10.000977, 9.996782 
2.2754605e+3, 3.0003786e+2, -57840.563, -342504.84, -62521.855, -0.05467866, -0.23911494, -44713.96, -44713.96, 0.0007184054, 10.001111, 9.997023 
2.275503e+3, 3.1003937e+2, -274323.8, -394896.1, -75808.516, -0.25573993, 0.37828377, -237752.58, -237752.58, 0.0007782504, 9.999343, 9.99751 
2.2851558e+3, 2.3999971e+2, -618325.8, -796574.06, 84248.48, -0.11036274, 0.09254809, -584808.5, 3199.5251, 0.45869297, 9.999482, 9.9989805 
2.2852056e+3, 2.4999145e+2, -252486.56, -470871.03, -377294.38, -0.22797084, -0.3582735, 31098.463, 521194.66, 0.36361384, 10.002973, 9.999175 
2.2852534e+3, 2.5999874e+2, -360498.47, -484463.8, -212894.42, -0.23443821, 0.47585875, -200747.31, 191283.61, 0.26167566, 10.000499, 9.998979 
2.285305e+3, 2.6999834e+2, -75747.59, -323210.25, -106843.83, -0.087186635, 0.5266085, -36000.957, 258039.31, 0.1640845, 10.002092, 9.998529 
2.2853497e+3, 2.7999458e+2, -212753.1, -304676.8, -255897.6, -0.07940932, 0.33356676, 1277.4917, 197358.58, 0.0825175, 10.000125, 9.998879 
2.2854064e+3, 2.8999418e+2, 436362.25, 290446.4, 415045.13, -0.1232231, 0.22885218, 784813.06, 882892.0, 0.030766618, 10.002963, 10.000952 
2.2854656e+3, 2.999962e+2, 638419.0, 148445.69, 222792.84, 0.15340184, 0.26959822, 724574.5, 724628.2, 0.009050321, 10.005093, 9.998544 
2.2855039e+3, 3.099902e+2, 44025.184, -257877.63, -117360.22, -0.18386482, 0.23544295, 84279.81, 84279.81, 0.003966084, 10.001529, 9.997384 
2.2953078e+3, 2.6994425e+2, -676753.5, -726497.5, 112450.8, -0.022461386, 0.43959436, -586456.94, -291887.22, 0.434636, 9.998135, 9.997488 
2.2953545e+3, 2.7993485e+2, -944544.1, -767473.4, -428984.25, 0.30179372, -0.21397823, -417983.63, -221320.4, 0.25417706, 9.995635, 9.997723 
2.295407e+3, 2.899482e+2, 696951.2, 1086007.0, 557219.1, -0.4326178, 0.3884719, 1481677.6, 1580204.9, 0.121765554, 10.002205, 10.007709 
2.2954726e+3, 2.999665e+2, -280082.34, -293597.84, 94939.09, 0.22762808, 1.572823, -191660.8, -191317.52, 0.05399721, 9.998918, 9.998343 
2.295509e+3, 3.0993906e+2, -209134.27, -179930.52, -486142.78, 0.009390426, -0.6870739, 291829.63, 291829.63, 0.03145577, 9.999286, 9.998836 
2.3054111e+3, 2.8990304e+2, -281165.78, -1331835.3, -41804.438, -0.7711594, -0.105264924, -279505.1, -180547.38, 0.36120358, 10.003005, 9.990168 
2.3054779e+3, 2.998939e+2, -116295.57, 303481.8, -637519.0, 0.29264057, -0.8381713, 764774.0, 765835.2, 0.21492489, 9.9974375, 10.004238 
2.3055059e+3, 3.0991417e+2, 39097.977, 329477.6, 573202.6, -0.37160665, 1.0007212, 775592.56, 775592.56, 0.1671689, 9.998419, 10.004183 
2.3487993e+3, 2.7720964e+2, -117193.56, -664881.06, -79628.59, -0.15408081, 0.042362507, -105851.21, 117472.51, 0.4504328, 10.002899, 9.994901 
2.3484199e+3, 2.8719524e+2, 687748.1, -152628.25, -206136.08, 1.0005637, -0.32212737, 735587.9, 861055.2, 0.3547011, 10.010387, 9.994555 
2.3480278e+3, 2.9719284e+2, -45518.473, -62897.254, 728394.9, -1.4910948, -0.37851405, 674238.9, 701729.4, 0.27907157, 10.000683, 10.000115 
2.3476799e+3, 3.0718085e+2, -194025.67, -681907.3, -639216.5, 0.46273422, -0.046241008, 246215.4, 246215.4, 0.2252916, 10.0028515, 9.9944315 
2.3625788e+3, 1.7765343e+2, -487638.16, -793698.6, -125050.13, 0.14137848, -0.22394897, -443043.03, 755946.1, 0.43641204, 10.007593, 10.000662 
2.362186e+3, 1.8764292e+2, 139289.16, -773857.25, 60475.293, -1.6657468, -0.31094527, 143276.86, 1244364.3, 0.37760025, 10.015258, 9.995538 
2.3618364e+3, 1.9763854e+2, -599903.06, -1116013.0, 146046.89, 0.85462695, 0.20720053, -561441.5, 441687.03, 0.33353606, 10.005408, 9.996071 
2.3614483e+3, 2.0762147e+2, -501890.25, -639067.94, -287174.1, 0.016929451, -0.65279794, -275227.7, 630065.06, 0.30097768, 10.003167, 10.000363 
2.3610616e+3, 2.176194e+2, -874337.94, -827499.44, -91860.17, -0.194303, -0.29498723, -756120.25, 51189.29, 0.27814317, 9.998864, 9.999951 
2.3606804e+3, 2.276167e+2, -234331.63, -734967.8, -129138.25, -0.31858927, 0.27393964, -202983.55, 506353.0, 0.26104832, 10.005275, 9.996736 
2.3602967e+3, 2.375999e+2, -852588.25, -908375.5, -285982.22, -1.1359918, -0.5589752, -593142.56, 18360.855, 0.24563015, 9.998535, 9.998128 
2.3599277e+3, 2.475952e+2, -575795.3, -478862.6, -10293.9, -0.31227562, -0.3181856, -477781.47, 35769.883, 0.2300865, 9.99868, 10.000362 
2.3595533e+3, 2.5759253e+2, -1661691.4, -815313.8, 146634.03, -0.36488873, 0.031754557, -790629.5, -375050.4, 0.20983136, 9.989913, 10.001598 
2.3591664e+3, 2.6758736e+2, -417839.97, 176679.63, -308548.25, -0.70966876, -0.27598748, 307865.2, 625493.2, 0.17457648, 9.9959135, 10.005706 
2.358792e+3, 2.775787e+2, -441970.47, -721360.56, -43715.5, -0.47498426, -0.72200656, -435290.16, -215579.66, 0.12479943, 9.999764, 9.996115 
2.358413e+3, 2.8757456e+2, 657276.0, 67658.49, -373659.13, -0.024932405, -0.13887289, 838422.44, 960175.6, 0.08190531, 10.006189, 9.997933 
2.3580374e+3, 2.9757684e+2, -181141.73, -34989.453, 285401.3, -0.058286935, 0.42791227, 186542.69, 210277.17, 0.055404086, 9.99859, 10.000509 
2.357668e+3, 3.075599e+2, 49067.152, -224256.02, 73126.0, -0.142389, -0.230689, 67401.695, 67401.695, 0.039851084, 10.001937, 9.997659 
2.3733076e+3, 1.5803804e+2, -1204260.4, -906653.56, 225076.64, -0.67354494, -0.1991498, -785638.6, 605590.4, 0.40917477, 9.998562, 10.005758 
2.3729444e+3, 1.6803804e+2, -1371425.6, -1324078.8, 101174.87, 0.41684806, 0.27961385, -1243844.6, 49378.754, 0.3191415, 9.998992, 9.999786 
2.3725651e+3, 1.7803116e+2, -1864376.9, -1550254.4, 25936.328, -0.2475593, 0.22773737, -1548127.3, -352838.4, 0.25440004, 9.994985, 9.999506 
2.3721899e+3, 1.8802129e+2, -1883363.9, -1286608.8, 44904.74, -0.26870316, -0.09830275, -1283248.6, -185870.0, 0.20803122, 9.993389, 10.001339 
2.3718163e+3, 1.980144e+2, -1890426.3, -1375341.3, 170105.48, 0.0016667708, -0.23351991, -1324235.1, -324796.34, 0.17323056, 9.993035, 10.000337 
2.3714326e+3, 2.080076e+2, -1182248.9, -1070066.9, 107180.16, -0.6567046, -0.15878172, -1005187.7, -103684.484, 0.14628343, 9.997679, 9.999454 
2.3710474e+3, 2.1800184e+2, -238300.17, -562003.25, -3514.507, -1.2178327, -0.0014597656, -238262.02, 565297.0, 0.1255341, 10.003992, 9.999501 
2.3706762e+3, 2.2799483e+2, -398434.0, -694202.3, 51052.14, -0.29703254, 0.122209735, -389869.94, 315757.94, 0.10829949, 10.002472, 9.998392 
2.3703068e+3, 2.3798448e+2, -866326.9, -800661.2, 141781.53, 0.76462877, -0.019589288, -687960.56, -80230.92, 0.09199208, 9.997928, 9.999199 
2.3699285e+3, 2.4797855e+2, -398917.84, -132782.27, 201467.02, 0.6951245, -0.050994784, -24404.424, 485385.7, 0.07586676, 9.998746, 10.002944 
2.369552e+3, 2.579738e+2, -155235.88, -252908.88, 157821.61, 0.38936874, 0.04540157, -38867.457, 372972.1, 0.059159197, 10.001195, 10.000081 
2.3691677e+3, 2.6796702e+2, 158121.19, 119321.56, -192843.6, 0.12010273, -0.041941795, 332538.3, 646444.25, 0.040412202, 10.001898, 10.001693 
2.3687871e+3, 2.7795762e+2, -487601.94, -594588.9, 133317.7, -0.2171777, -0.32292727, -397445.97, -181449.1, 0.021718558, 9.998927, 9.997309 
2.3684074e+3, 2.8795123e+2, -103950.164, -330189.9, -115400.3, -0.18184566, 0.02253481, -55473.832, 62588.242, 0.00948949, 10.000895, 9.99742 
2.3680341e+3, 2.9794806e+2, 251786.66, 189844.31, 246785.64, 0.1473722, 0.30275542, 469536.94, 489634.0, 0.0043450063, 10.001647, 10.000311 
2.3676616e+3, 3.0793202e+2, -141368.88, -123950.414, 136.06856, -0.15270957, -0.36979988, -123949.35, -123949.35, 0.0025844644, 9.999463, 9.999189 
2.3836811e+3, 1.4843114e+2, -1381641.3, -1658133.6, 76401.32, -0.33533454, 0.52264136, -1361934.4, 123423.35, 0.38968244, 10.002, 9.997263 
2.383303e+3, 1.5841468e+2, -1479035.1, -1732961.6, -139748.81, -0.50329834, -0.28724366, -1417187.9, -29665.283, 0.27836236, 10.000189, 9.997084 
2.3829284e+3, 1.6840702e+2, -1389808.8, -1292094.1, -8011.134, -0.39082202, -0.24926119, -1291441.8, -1840.7297, 0.19862524, 9.998744, 10.00003 
2.3825552e+3, 1.784048e+2, -1423144.3, -1228004.4, -65775.016, -0.21966349, 0.12324972, -1207904.3, -16278.5205, 0.1461588, 9.997638, 10.000407 
2.3821789e+3, 1.8839997e+2, -1233970.5, -801136.3, -55760.78, -0.17925753, 0.1176553, -794068.2, 299597.63, 0.11113541, 9.99699, 10.003172 
2.381804e+3, 1.983927e+2, -1370122.6, -991667.56, -59245.145, -0.013430648, -0.26244405, -982609.8, 13117.24, 0.08556882, 9.996104, 10.001476 
2.3814316e+3, 2.0838463e+2, -1282456.1, -1141242.8, 104853.32, 0.13693377, -0.39205167, -1085439.4, -187635.98, 0.065839775, 9.997164, 9.999181 
2.3810554e+3, 2.183755e+2, -1008850.44, -1034960.56, -5483.047, -0.01428714, -0.55530566, -1007745.75, -207853.45, 0.050802168, 9.998633, 9.998583 
2.3806705e+3, 2.2836861e+2, -690480.3, -628348.7, -188901.97, -0.40094647, -0.5277649, -467975.1, 233982.92, 0.038884565, 9.999417, 10.000282 
2.3802859e+3, 2.3836216e+2, -824075.1, -826417.44, -92818.42, -0.5623038, -0.4601392, -732420.5, -128401.12, 0.028499383, 9.998566, 9.998692 
2.3799068e+3, 2.4835534e+2, -545675.3, -443518.94, 146738.14, -0.7748646, -0.43415454, -339223.2, 166865.92, 0.019239577, 9.998981, 10.000425 
2.3795328e+3, 2.5834712e+2, -775973.6, -794072.75, 85119.72, -0.9421566, -0.499698, -699423.75, -291250.13, 0.011432521, 9.998052, 9.997769 
2.3791577e+3, 2.6834396e+2, -120167.94, -92051.51, -312742.9, -0.33526546, -0.105983675, 206949.0, 517156.4, 0.005416997, 10.000461, 10.000723 
2.3787841e+3, 2.7834028e+2, -363990.22, -463211.2, -37253.19, 0.25646517, 0.14622845, -351560.4, -139314.7, 0.001679893, 9.999536, 9.997922 
2.3784016e+3, 2.8832856e+2, -73520.766, -319871.7, -67847.266, -0.21254286, -0.06003712, -56071.03, 58292.78, 0.00032890253, 10.00115, 9.997377 
2.3780246e+3, 2.983209e+2, -279069.22, -302109.34, 149779.27, -0.37030053, -0.14029722, -140367.64, -123926.49, 0.000101582686, 9.998974, 9.998271 
2.3776585e+3, 3.0830953e+2, -242211.45, 67793.34, -5940.793, 0.10942053, -0.41754216, 67907.15, 67907.15, 0.00014370115, 9.997812, 10.001279 
2.3940659e+3, 1.3879687e+2, -2097065.5, -1473234.6, -267364.84, 0.28049645, -0.75728226, -1374327.4, 205437.17, 0.42782584, 9.994151, 10.003807 
2.393678e+3, 1.4879873e+2, -1308443.6, -1561251.3, -239499.11, -0.27683663, 0.06445757, -1164038.1, 317716.34, 0.2998544, 10.002212, 9.998162 
2.3933029e+3, 1.587877e+2, -1384532.1, -1575682.9, -201232.16, 0.07764394, -0.19028288, -1257331.8, 126537.695, 0.19614406, 10.000418, 9.998194 
2.3929241e+3, 1.687808e+2, -1177411.3, -1097100.4, -96248.91, -0.14773826, -0.22562553, -1032966.25, 252969.23, 0.12585048, 9.999697, 10.001186 
2.3925452e+3, 1.7877528e+2, -1229604.3, -1126256.1, -93423.57, -0.44175768, -0.23764084, -1071168.0, 116818.664, 0.083471425, 9.998845, 10.000621 
2.3921709e+3, 1.8876992e+2, -1049816.6, -885230.1, -147481.88, -0.19182122, -0.2059385, -798635.6, 291403.0, 0.057587944, 9.999083, 10.001443 
2.3917972e+3, 1.9876418e+2, -955422.4, -819489.3, -182328.52, 0.09061979, -0.27357408, -692871.3, 299222.47, 0.03970386, 9.999041, 10.00129 
2.3914197e+3, 2.0875873e+2, -975546.5, -683789.44, -57835.355, -0.16898216, -0.3366505, -672742.94, 221398.5, 0.026570952, 9.997897, 10.002008 
2.3910412e+3, 2.187527e+2, -1122792.9, -876902.0, -29877.533, -0.52578855, -0.42700112, -873323.75, -77129.26, 0.017417854, 9.996909, 10.000497 
2.3906626e+3, 2.2874646e+2, -678140.94, -673526.7, -186216.38, -0.42421204, -0.37288114, -489603.13, 208651.31, 0.011141793, 9.999671, 9.999843 
2.390284e+3, 2.3873924e+2, -180553.86, -545709.5, -141081.94, -0.26794896, -0.32455006, -132396.4, 467929.06, 0.0065593217, 10.003099, 9.998418 
2.389903e+3, 2.4873096e+2, -276933.66, -426089.63, -72226.86, -0.5180429, -0.38055953, -247691.64, 254719.92, 0.0032030866, 10.001302, 9.999403 
2.3895256e+3, 2.587222e+2, -844790.56, -800763.4, -17288.332, -0.7894363, -0.43557262, -794786.2, -390283.5, 0.0011282732, 9.997459, 9.997968 
2.3891509e+3, 2.6871714e+2, -257067.78, -195490.98, -210562.19, -0.33442822, -0.20826246, -13478.159, 293073.03, 0.00023273825, 9.999689, 10.000356 
2.388778e+3, 2.7871206e+2, 86435.12, -68631.69, -59650.008, 0.14985123, -0.08907423, 106725.805, 315324.53, 0.000018051116, 10.001834, 9.999485 
2.3883948e+3, 2.8870133e+2, -121346.45, -244401.13, -134803.69, -0.29048535, -0.32573086, -34692.66, 76012.914, 0.000004039042, 10.00034, 9.998279 
2.3880163e+3, 2.9869545e+2, -417013.6, -375463.47, 75743.55, -0.38986734, -0.19121067, -317697.53, -304932.84, 0.00001362104, 9.997903, 9.9983015 
2.3876491e+3, 3.0868387e+2, 245421.81, 454810.47, -152245.14, -0.028999064, -0.42429897, 534884.9, 534884.9, 0.00005414364, 10.000385, 10.002772 
2.404428e+3, 1.291822e+2, -1463410.4, -1571974.5, 116914.64, 0.04745908, -0.2893633, -1388791.0, 285198.1, 0.49043512, 10.002727, 9.999303 
2.4040459e+3, 1.3917534e+2, -1763344.1, -1776001.1, -19301.557, -0.7679479, -0.3512714, -1749360.1, -173301.95, 0.36336103, 9.998807, 9.998714 
2.4036726e+3, 1.4916918e+2, -1468022.5, -1458449.0, -35622.113, -0.22722486, -0.25664544, -1427293.5, 50831.004, 0.24041095, 9.999784, 9.99974 
2.4033001e+3, 1.5916309e+2, -1309861.8, -1359086.8, 29126.715, 0.43822834, -0.1683247, -1296341.0, 83849.02, 0.14389461, 10.000224, 9.999625 
2.4029186e+3, 1.691563e+2, -1108354.9, -1014107.3, 104823.19, 0.016531678, -0.24007232, -946302.6, 335949.06, 0.08188297, 10.000106, 10.001492 
2.4025366e+3, 1.7914851e+2, -1189992.8, -1166581.1, 30636.604, -0.51735616, -0.45624372, -1145490.1, 38831.715, 0.047678713, 9.999402, 10.000051 
2.4021626e+3, 1.8914278e+2, -1161233.0, -1089365.0, 24505.434, -0.21521454, -0.33271486, -1081804.5, 4579.4517, 0.028905774, 9.999045, 9.999954 
2.4017896e+3, 1.991381e+2, -1118567.3, -937677.56, -17484.578, 0.17095555, -0.14460665, -936003.0, 52433.38, 0.017015342, 9.998179, 10.000835 
2.4014087e+3, 2.0913433e+2, -743422.5, -320499.75, 12100.849, -0.37284583, -0.16101483, -320153.78, 570311.94, 0.00915297, 9.998523, 10.004188 
2.4010278e+3, 2.1913016e+2, -899448.2, -682978.6, -48038.934, -0.8852921, -0.24925157, -672796.75, 119699.63, 0.0045936005, 9.998183, 10.001222 
2.400655e+3, 2.2912383e+2, -825223.94, -808573.3, -80442.445, -0.4135726, -0.19875231, -736026.5, -41468.97, 0.0022051786, 9.998983, 9.999235 
2.4002832e+3, 2.3911557e+2, -798315.0, -926589.8, -97667.13, 0.14921577, -0.2078586, -745608.56, -148967.97, 0.0009056362, 9.999259, 9.997658 
2.3999016e+3, 2.4910764e+2, -546029.94, -559036.0, -145820.75, -0.055906445, -0.20300362, -406567.3, 92157.67, 0.00023937336, 9.999633, 9.999205 
2.3995206e+3, 2.590993e+2, -833580.5, -835519.8, -30874.76, -0.3558813, -0.23128672, -803660.2, -402846.9, 0.000025130046, 9.997776, 9.997584 
2.3991443e+3, 2.6909113e+2, -178264.56, -159119.47, -40508.57, -0.2811431, -0.29129228, -127067.766, 175820.45, 0.00000030344088, 10.000332, 10.0002575 
2.3987697e+3, 2.7908346e+2, -49822.14, -79228.4, -64872.773, -0.1749519, -0.48813722, 1992.8405, 206948.75, 0.000000006555133, 10.0007105, 9.999971 
2.3983882e+3, 2.890758e+2, 8542.563, -48346.09, -169542.67, -0.31584492, -0.53686285, 152010.4, 259040.48, 0.00000087941476, 10.000752, 9.999394 
2.3980089e+3, 2.9907122e+2, -618374.2, -659789.1, 130893.99, -0.31628665, -0.24793868, -506559.84, -497484.5, 0.0000072209577, 9.997444, 9.996546 
2.397638e+3, 3.090603e+2, -13933.98, 291167.8, 213675.27, -0.58759385, -0.37921312, 401160.06, 401160.06, 0.00003484927, 9.998955, 10.002204 
2.4144231e+3, 1.2955628e+2, -1314274.9, -1350285.0, -140032.11, -0.2675434, -0.31660193, -1191095.0, 479235.94, 0.44509998, 10.003077, 10.001896 
2.41404e+3, 1.3955563e+2, -1610917.0, -1496375.9, -70728.414, -0.6496598, 0.052973393, -1462638.6, 109700.91, 0.31930807, 9.998868, 10.000945 
2.4136643e+3, 1.4955029e+2, -1323134.1, -1145728.8, 13336.445, -0.3601754, -0.013730128, -1144731.9, 329658.3, 0.20041417, 9.999691, 10.002439 
2.4132895e+3, 1.5954319e+2, -1215490.8, -1221687.8, 110266.086, -0.047423854, -0.25239176, -1108279.6, 268178.22, 0.110025235, 10.000503, 10.000531 
2.4129114e+3, 1.6953613e+2, -1101043.1, -1137088.5, 125507.17, -0.09598503, -0.28365615, -992271.2, 286251.72, 0.054970514, 10.00071, 10.000243 
2.4125327e+3, 1.7952895e+2, -1143415.6, -1224732.3, 67029.875, -0.258788, -0.31535637, -1105676.9, 74913.7, 0.027314784, 10.000058, 9.999332 
2.412155e+3, 1.8952294e+2, -1112404.3, -1109851.5, 54641.523, -0.22405499, -0.17396517, -1056471.5, 26187.656, 0.013986388, 9.999531, 9.9996 
2.4117783e+3, 1.9951712e+2, -1066403.4, -979266.9, 97090.664, -0.19106627, -0.036392536, -916417.1, 68308.93, 0.006556314, 9.99878, 10.000268 
2.4114026e+3, 2.0951238e+2, -651345.06, -450219.25, 94650.33, -0.2620039, -0.014185895, -412682.25, 474085.25, 0.002469395, 9.999893, 10.002637 
2.4110264e+3, 2.1950723e+2, -519449.66, -553830.9, -34425.758, -0.39388904, -0.045955773, -498161.06, 290649.44, 0.00078321603, 10.0009365, 10.000812 
2.4106486e+3, 2.2949915e+2, -703246.25, -660861.06, -121477.02, -0.28620642, -0.2144765, -558741.9, 132143.47, 0.00023610769, 9.99937, 10.000089 
2.4102718e+3, 2.3949027e+2, -961694.7, -871827.7, -36594.88, -0.15037009, -0.36654416, -858811.2, -265840.9, 0.000047296035, 9.997485, 9.998896 
2.4098925e+3, 2.4948497e+2, -649766.44, -552417.56, -31089.67, -0.16308635, -0.16097176, -543335.9, -48306.008, 0.0000020598873, 9.998635, 9.999749 
2.409515e+3, 2.5947946e+2, -450043.1, -541635.75, 111015.74, -0.22786729, 0.04453232, -375748.63, 21343.213, 0.0, 9.999876, 9.998576 
2.4091402e+3, 2.694702e+2, -148960.95, -243586.61, 100901.83, -0.1341928, -0.07828448, -84830.15, 214349.08, 0.0, 10.000943, 9.999386 
2.4087651e+3, 2.7946115e+2, 114674.234, 71714.37, -4929.617, -0.0971919, -0.31725648, 115232.65, 316494.88, 0.0, 10.001395, 10.000711 
2.4083838e+3, 2.894543e+2, 465583.75, 372125.03, -127957.1, -0.27078226, -0.43712032, 555077.2, 658400.0, 0.0000001537889, 10.002858, 10.001371 
2.4080041e+3, 2.994501e+2, 462352.22, -24450.016, 192143.0, -0.34776384, -0.2221674, 529052.75, 534411.3, 0.000003139397, 10.004154, 9.997735 
2.4076335e+3, 3.0943808e+2, 167156.61, 153794.64, 244788.22, -0.39426327, -0.35399586, 405355.0, 405355.0, 0.000017282315, 10.000833, 10.0004835 
2.4244177e+3, 1.2993225e+2, -1783994.1, -1484994.9, 18233.713, -0.12992238, -0.43169236, -1483887.0, 182762.03, 0.4141129, 9.997209, 10.002977 
2.4240342e+3, 1.3993426e+2, -1622708.8, -1441516.0, -14391.631, -0.3719563, 0.13640137, -1440380.0, 128251.31, 0.28877336, 9.998247, 10.001743 
2.4236575e+3, 1.4992929e+2, -1261505.8, -1053620.0, 26745.553, -0.32858548, 0.043730855, -1050234.1, 420441.88, 0.17287979, 9.999743, 10.003158 
2.4232812e+3, 1.5992238e+2, -1147375.8, -1203257.1, -51451.844, -0.21936831, -0.22742687, -1116767.6, 255971.4, 0.08747846, 10.000901, 10.000531 
2.422905e+3, 1.6991511e+2, -1097766.3, -1206616.9, -31489.137, -0.11768861, -0.2568187, -1089313.3, 185493.56, 0.038149297, 10.000986, 9.999607 
2.4225281e+3, 1.7990826e+2, -1136241.3, -1272887.6, -55908.652, -0.0125904195, -0.20477377, -1116281.8, 60591.37, 0.01570925, 10.000341, 9.998843 
2.422148e+3, 1.89902e+2, -1025091.9, -1088212.8, -50304.563, -0.1954327, -0.087353244, -997267.06, 81678.836, 0.0064830934, 10.000217, 9.999397 
2.4217688e+3, 1.9989556e+2, -1062398.8, -1091461.0, 20604.266, -0.32438973, 0.013672101, -1051717.0, -70696.66, 0.0021827125, 9.999324, 9.9992285 
2.4213965e+3, 2.098898e+2, -794264.6, -695675.2, 114958.39, -0.13162552, 0.06080363, -619888.3, 263185.97, 0.00044835047, 9.999706, 10.001007 
2.4210244e+3, 2.1988365e+2, -814267.06, -774413.7, -40621.348, 0.06824779, 0.050765183, -749094.75, 36034.79, 0.000068581576, 9.99935, 10.000035 
2.4206421e+3, 2.2987488e+2, -576536.5, -487722.13, -179489.2, -0.19530065, -0.2294704, -347228.34, 339980.25, 0.0000096515805, 9.999909, 10.000959 
2.4202597e+3, 2.3986602e+2, -713791.3, -703407.7, -91806.03, -0.40630203, -0.48042646, -616646.75, -27356.611, 0.00000040342232, 9.999095, 9.999264 
2.4198833e+3, 2.4986286e+2, -423315.94, -388788.97, -29453.326, -0.29589352, -0.11944634, -371912.66, 119415.83, 0.0, 10.000012, 10.00019 
2.4195088e+3, 2.598596e+2, -551379.75, -633949.6, 46661.04, -0.14089018, 0.24941902, -530361.44, -136992.02, 0.0, 9.999436, 9.998179 
2.4191356e+3, 2.6985025e+2, -361481.1, -425123.97, 90090.11, 0.01770865, 0.1511841, -297757.63, -2296.4536, 0.0, 9.999933, 9.9985695 
2.4187614e+3, 2.798404e+2, -362983.0, -283636.97, 2520.9128, 0.11859929, -0.07619414, -283556.97, -86002.25, 0.0, 9.998745, 9.99955 
2.4183792e+3, 2.898336e+2, 195966.72, 400793.75, -106266.805, -0.26926315, -0.24464642, 445964.66, 545573.7, 0.0000000009564638, 10.000516, 10.002604 
2.4180003e+3, 2.9982862e+2, -280032.5, -381514.88, 118015.45, -0.45697495, -0.26354888, -202312.34, -200665.17, 0.0000004799063, 9.999228, 9.997632 
2.4176286e+3, 3.0981869e+2, -275379.56, -299550.5, -95110.414, -0.35040146, -0.23915167, -191589.86, -191589.86, 0.0000055147566, 9.998976, 9.998214 
2.4344072e+3, 1.3031724e+2, -1964811.5, -1663205.9, 41486.598, -0.25332412, -0.09852771, -1657603.4, 5268.2505, 0.39271495, 9.99698, 10.000986 
2.4340278e+3, 1.403081e+2, -1793239.9, -1696253.1, 73813.06, -0.23183978, -0.4197588, -1656429.0, -91467.484, 0.26710206, 9.998128, 9.999669 
2.4336526e+3, 1.5030381e+2, -1374413.8, -1333394.9, 48757.97, -0.14921905, -0.20932084, -1301008.4, 165997.69, 0.15331793, 9.999997, 10.000687 
2.433277e+3, 1.6029933e+2, -1200615.4, -1310236.8, -57121.605, -0.124396324, -0.026604494, -1176261.1, 192790.45, 0.07196278, 10.000898, 9.999713 
2.4328984e+3, 1.7029168e+2, -1022538.7, -1106022.3, -82012.31, -0.21594302, -0.12546568, -972256.56, 298866.94, 0.027363949, 10.00124, 10.000183 
2.4325195e+3, 1.8028367e+2, -1051830.3, -1199972.3, -83354.85, -0.3201806, -0.2364516, -1014390.94, 158809.11, 0.009079448, 10.000803, 9.999099 
2.4321419e+3, 1.9027749e+2, -939167.6, -1046420.8, -100493.21, -0.20684162, -0.11188211, -878887.7, 196380.89, 0.002868925, 10.000803, 9.999403 
2.4317645e+3, 2.0027125e+2, -866628.7, -958482.44, -3156.4333, -0.15186264, 0.007924658, -866520.4, 110817.14, 0.00059867656, 10.000459, 9.999604 
2.4313886e+3, 2.102644e+2, -733192.9, -665933.4, 94532.59, -0.26540682, -0.07091921, -599226.9, 280174.47, 0.000045539302, 10.000059, 10.001064 
2.4310131e+3, 2.2025758e+2, -746496.75, -712691.0, 3847.6826, -0.3750449, -0.14254071, -712258.6, 69204.83, 0.0000022398012, 9.999635, 10.000312 
2.4306348e+3, 2.3025125e+2, -409487.38, -417299.88, -119969.65, -0.3120311, -0.17324555, -293360.4, 390162.1, 0.000000052409952, 10.001059, 10.000905 
2.4302563e+3, 2.4024463e+2, -232429.81, -440426.53, -73673.086, -0.26595625, -0.19342123, -208978.64, 376606.75, 0.0, 10.002208, 9.999573 
2.4298787e+3, 2.502381e+2, -226732.66, -371557.4, -88963.555, -0.22203398, -0.11910101, -184436.42, 303216.38, 0.0, 10.001634, 9.999568 
2.429502e+3, 2.602317e+2, -308098.3, -392270.72, -50681.934, -0.19247846, -0.026562905, -284306.53, 105412.77, 0.0, 10.000452, 9.999372 
2.4291274e+3, 2.7022454e+2, -351741.25, -279363.34, 13465.793, -0.051611878, -0.04173678, -276939.25, 14848.63, 0.0, 9.999255, 9.999969 
2.4287532e+3, 2.8021732e+2, -393904.1, -251935.42, 10969.456, 0.08168646, -0.08643155, -251092.84, -57236.676, 0.0, 9.998182, 10.000062 
2.4283718e+3, 2.9021052e+2, -210248.08, 25572.652, -118813.83, -0.22151123, -0.1435687, 75052.79, 170968.73, 0.0, 9.998339, 10.001138 
2.4279931e+3, 3.0020404e+2, -303083.16, -268753.28, 28587.154, -0.43532276, -0.20884241, -252573.64, -252573.64, 0.000000008678429, 9.998353, 9.99886 
2.4276243e+3, 3.1019598e+2, 62824.684, -100803.04, -298410.53, -0.13835937, -0.067322165, 290433.44, 290433.44, 0.0000009202062, 10.000713, 9.998944 
2.444773e+3, 1.2070262e+2, -2054022.3, -1924789.6, -48698.996, -0.80171746, -0.39426282, -1908493.3, -151407.11, 0.4945417, 9.997618, 9.999572 
2.4443991e+3, 1.3070017e+2, -1608447.0, -1681028.3, 53058.332, -0.22006516, 0.08130154, -1580455.5, 78659.195, 0.3775347, 10.000614, 9.99921 
2.4440213e+3, 1.4068492e+2, -1478883.5, -1690394.3, 97421.3, -0.14350304, -0.66278726, -1440850.4, 120413.16, 0.25111946, 10.001188, 9.998274 
2.443647e+3, 1.5068e+2, -1409451.0, -1553830.6, 121892.66, -0.039290626, -0.34093085, -1339975.0, 123343.09, 0.13882844, 10.0007, 9.998695 
2.443272e+3, 1.6067566e+2, -1395547.5, -1473956.0, 16338.843, 0.049007148, 0.033268847, -1392279.0, -26912.604, 0.060861234, 9.999796, 9.999069 
2.4428919e+3, 1.7066802e+2, -1177863.5, -1144347.4, -35783.652, -0.2345988, -0.07755788, -1121592.1, 145847.44, 0.02025213, 10.000038, 10.0004635 
2.4425115e+3, 1.8065982e+2, -1205460.6, -1276823.4, -82060.46, -0.43893105, -0.21494097, -1151659.8, 17858.453, 0.0052852775, 9.999763, 9.999093 
2.4421352e+3, 1.9065326e+2, -1089175.0, -1122489.9, -86864.05, -0.20350988, -0.13251033, -1017385.7, 54201.715, 0.0012089658, 9.999809, 9.999372 
2.4417593e+3, 2.0064688e+2, -1033866.5, -1013757.56, 11373.756, 0.029823862, -0.028943602, -1008631.3, -34977.055, 0.00012403581, 9.999296, 9.999762 
2.4413806e+3, 2.1063986e+2, -796894.75, -652551.44, 100641.31, -0.3447668, -0.17161432, -600878.75, 274840.16, 0.000001917801, 9.999544, 10.001326 
2.4410029e+3, 2.2063285e+2, -897167.94, -840701.7, 26401.059, -0.63477004, -0.2762625, -830280.9, -52497.42, 0.000000018702426, 9.998907, 9.999751 
2.4406277e+3, 2.3062825e+2, -681423.2, -590980.4, -63926.156, -0.3549866, -0.1027839, -557897.7, 121931.875, 0.0, 9.999393, 10.000477 
2.4402528e+3, 2.4062279e+2, -764884.6, -796106.5, -62313.598, -0.050893005, 0.02692385, -716256.25, -134372.17, 0.0, 9.999036, 9.998652 
2.4398738e+3, 2.5061306e+2, -437403.28, -518060.56, -55771.023, -0.13311994, -0.17255647, -408907.47, 75070.75, 0.0, 10.000515, 9.999044 
2.4394952e+3, 2.606037e+2, -354594.53, -432811.75, -16303.073, -0.22886634, -0.34352642, -351332.47, 34736.055, 0.0, 10.000327, 9.999137 
2.4391186e+3, 2.705986e+2, -161878.08, -36856.113, -8227.578, -0.17826426, -0.25278303, -36316.99, 251797.5, 0.0, 9.9999895, 10.001245 
2.4387431e+3, 2.8059354e+2, -473407.84, -398951.4, -44301.387, -0.05301059, -0.16961233, -378312.94, -188152.28, 0.0, 9.998194, 9.999056 
2.438364e+3, 2.9058635e+2, -213901.7, -207931.03, -121655.08, -0.14946747, -0.12759562, -89224.67, 3007.8274, 0.0, 9.999407, 9.998977 
2.4379855e+3, 3.0057883e+2, -561840.25, -502087.5, 75655.81, -0.38435632, -0.11874576, -450622.63, -450622.63, 0.0, 9.997206, 9.997804 
2.4376164e+3, 3.10568e+2, -224046.83, 26155.46, 56365.414, -0.34637362, -0.4796639, 38267.13, 38267.13, 0.00000009984614, 9.99809, 10.000872 
2.4547702e+3, 1.21082306e+2, -2205860.8, -2214039.8, 171135.52, -0.27196866, -0.52806187, -2038765.8, -285404.2, 0.48539782, 9.997607, 9.997617 
2.4543941e+3, 1.3108042e+2, -1602593.8, -1743494.3, 79080.234, -0.15475914, 0.097643875, -1567134.0, 88250.39, 0.36593348, 10.001044, 9.998535 
2.454013e+3, 1.4106768e+2, -1492362.4, -1806809.8, 113859.6, -0.5102585, -0.31473744, -1455464.3, 102044.555, 0.23856215, 10.001594, 9.997239 
2.4536392e+3, 1.5105887e+2, -1438108.8, -1670861.9, 100011.914, -0.23675387, -0.28965855, -1401038.6, 58561.645, 0.1275105, 10.000913, 9.997746 
2.4532653e+3, 1.610508e+2, -1463536.4, -1572632.0, 27497.445, 0.016344177, -0.20390846, -1456997.6, -95313.18, 0.052560914, 9.999656, 9.998439 
2.4528852e+3, 1.7104441e+2, -1225112.9, -1224897.4, -9806.354, -0.19555095, -0.13081054, -1215198.3, 48550.7, 0.01541553, 9.999957, 9.999941 
2.452505e+3, 1.810375e+2, -1212612.4, -1281233.1, -63216.977, -0.45165733, -0.09093576, -1174995.0, -9176.991, 0.0031067657, 9.999711, 9.999086 
2.452126e+3, 1.9102958e+2, -1096546.6, -1099639.3, -67882.48, -0.39780512, -0.15990125, -1030192.9, 37705.133, 0.00048131414, 9.99965, 9.999599 
2.4517488e+3, 2.0102221e+2, -980727.3, -935036.3, 53831.285, -0.31280357, -0.17957442, -899403.4, 70568.22, 0.000015932997, 9.999408, 10.00023 
2.4513748e+3, 2.1101756e+2, -744766.75, -597293.25, 123440.81, -0.24825732, -0.107861035, -527242.9, 344770.84, 0.0000000054715246, 9.999754, 10.001608 
2.451e+3, 2.2101231e+2, -754579.8, -744716.2, 18801.467, -0.2450187, -0.048523556, -730210.5, 43851.684, 0.0, 9.9997, 10.00004 
2.4506211e+3, 2.3100474e+2, -846994.6, -737008.1, -92107.38, -0.21283183, -0.12573949, -684725.94, -8588.194, 0.0, 9.998462, 9.999974 
2.4502426e+3, 2.409971e+2, -887648.9, -738266.94, -10889.322, -0.18926713, -0.1850755, -737477.3, -159264.06, 0.0, 9.99758, 9.999775 
2.4498662e+3, 2.5099e+2, -389418.13, -344077.47, 97639.67, -0.21661529, -0.24265656, -266510.8, 213767.7, 0.0, 10.000092, 10.0005045 
2.4494897e+3, 2.6098263e+2, -43297.293, -257929.66, 98203.55, -0.2810761, -0.2924487, -5146.297, 377200.13, 0.0, 10.002205, 9.999476 
2.4491122e+3, 2.7097479e+2, -8109.1816, -162207.48, -18128.326, -0.27512273, -0.3412863, -6005.2666, 278415.28, 0.0, 10.001755, 9.999607 
2.4487355e+3, 2.8096727e+2, -8842.9, -254555.5, -70974.805, -0.21082468, -0.35009828, 10184.885, 196678.13, 0.0, 10.001562, 9.998457 
2.4483596e+3, 2.9095986e+2, 352326.88, -43873.656, -104272.59, -0.13119759, -0.23508604, 378093.72, 466663.88, 0.0, 10.003595, 9.998158 
2.4479839e+3, 3.0095223e+2, 478568.9, -87412.97, -14282.962, -0.16238786, -0.12379413, 478929.13, 478929.13, 0.0, 10.004459, 9.997217 
2.4476096e+3, 3.1094286e+2, 157983.08, 133596.02, -94356.555, -0.39745674, -0.14291212, 240930.7, 240930.7, 0.000000000000427524, 10.000691, 10.0004635 
2.4647653e+3, 1.21459715e+2, -1874639.9, -1984820.4, 33957.72, 0.021122182, -0.32349527, -1865014.9, -115349.75, 0.47722325, 9.999486, 9.998333 
2.4643885e+3, 1.3145468e+2, -1755057.5, -1785850.5, -214868.66, -0.047322117, -0.08295454, -1555034.4, 96681.64, 0.3557266, 9.999583, 9.999122 
2.4640056e+3, 1.4144589e+2, -1935157.4, -1980117.1, -130951.72, -0.55352557, -0.15620686, -1824770.0, -270969.1, 0.22774403, 9.998081, 9.997745 
2.4636321e+3, 1.5143597e+2, -1731004.1, -1785990.8, -41761.863, -0.25795773, -0.2943336, -1708498.0, -252597.14, 0.11809006, 9.998762, 9.997977 
2.4632584e+3, 1.6142662e+2, -1548390.8, -1643647.8, -25276.066, 0.07848408, -0.34228292, -1542099.4, -184103.28, 0.04605504, 9.999169, 9.998196 
2.4628787e+3, 1.7142077e+2, -1354526.0, -1357009.3, -51884.23, -0.13052917, -0.17737989, -1303868.5, -43810.2, 0.012013259, 9.999358, 9.999313 
2.4624981e+3, 1.8141463e+2, -1288875.0, -1323109.3, -106648.836, -0.35347003, -0.028690452, -1197978.4, -35856.285, 0.0018483637, 9.999213, 9.999043 
2.4621177e+3, 1.914059e+2, -1018893.06, -1048598.8, -103909.9, -0.49587905, -0.20322312, -928779.8, 135427.45, 0.00018026956, 10.000086, 9.99976 
2.4617398e+3, 2.0139806e+2, -923716.44, -931234.6, 22071.367, -0.46742436, -0.28285354, -905086.3, 61197.055, 0.0000007906511, 9.999937, 10.000022 
2.4613692e+3, 2.113947e+2, -791448.75, -651639.8, 50035.023, -0.08389358, -0.07304547, -635578.4, 232735.38, 0.0, 9.999585, 10.001354 
2.4609965e+3, 2.213902e+2, -997663.9, -930524.3, -123912.25, 0.21268816, 0.09143232, -835715.06, -65359.14, 0.0, 9.998457, 9.999356 
2.4606137e+3, 2.3138049e+2, -855215.25, -768492.25, -225011.3, -0.065293886, -0.17849748, -582702.44, 89750.43, 0.0, 9.998737, 9.999531 
2.4602327e+3, 2.4137159e+2, -823305.6, -683287.4, -59206.75, -0.27858272, -0.35958168, -661608.3, -87068.016, 0.0, 9.998043, 9.999902 
2.4598587e+3, 2.5136727e+2, -394406.88, -221299.66, 52929.37, -0.2879305, -0.25959587, -206398.63, 270177.22, 0.0, 9.999542, 10.001594 
2.4594843e+3, 2.6136172e+2, -510684.16, -633245.9, -55513.9, -0.2822544, -0.18982518, -489278.06, -110653.77, 0.0, 9.999741, 9.998065 
2.4591064e+3, 2.713505e+2, -341566.22, -543004.2, -141790.1, -0.30269006, -0.4222053, -268363.53, 12369.748, 0.0, 10.000531, 9.997514 
2.4587297e+3, 2.813402e+2, -363304.47, -612676.8, -65057.1, -0.26213992, -0.5202437, -347352.56, -164517.52, 0.0, 10.000089, 9.996687 
2.4583557e+3, 2.913329e+2, 98070.625, -238115.61, -36322.406, -0.19516413, -0.3424354, 101950.22, 186862.83, 0.0, 10.002275, 9.9974165 
2.4579836e+3, 3.0132392e+2, -338455.0, -892288.56, -86428.42, 0.06399276, -0.18054879, -325280.8, -325280.8, 0.0, 10.00085, 9.993383 
2.4576032e+3, 3.1131637e+2, -496286.13, -455982.94, -174843.2, -0.46743053, 0.2733477, -300133.88, -300133.88, 0.0, 9.997836, 9.997607 
2.4747606e+3, 1.2183338e+2, -1732296.6, -1685603.3, 167928.6, 0.096976504, 0.1589472, -1539406.3, 206604.47, 0.4678463, 9.999916, 10.000809 
2.4743818e+3, 1.3182166e+2, -1690855.5, -1602536.3, -268078.88, 0.003264862, -0.46778557, -1375004.3, 273119.38, 0.34520847, 9.9994955, 10.000768 
2.473999e+3, 1.4181675e+2, -1919800.0, -1767761.6, -151880.66, -0.35000265, -0.32396498, -1673937.8, -123769.26, 0.21743059, 9.997353, 9.999535 
2.4736245e+3, 1.5181018e+2, -1619939.9, -1478162.9, -14026.298, -0.20459887, -0.34748352, -1476788.5, -24556.258, 0.109704144, 9.9985, 10.000174 
2.4732497e+3, 1.6180319e+2, -1533095.1, -1592924.0, -3916.6414, -0.06075705, -0.31908438, -1532839.8, -178537.83, 0.040704507, 9.999122, 9.998549 
2.4728708e+3, 1.7179571e+2, -1385330.6, -1446350.6, -53668.49, -0.17961325, -0.26732185, -1354106.0, -97725.52, 0.00953522, 9.9994545, 9.998664 
2.4724913e+3, 1.8178856e+2, -1234408.9, -1259889.5, -88783.55, -0.34607986, -0.17749529, -1157456.3, 998.11224, 0.0011160366, 9.999424, 9.999373 
2.4721123e+3, 1.9178204e+2, -915506.0, -932774.7, -70751.36, -0.40296802, -0.18445206, -852864.06, 207652.66, 0.00006263998, 10.00051, 10.000355 
2.4717349e+3, 2.0177524e+2, -829762.5, -926221.9, 8058.462, -0.38018855, -0.17824778, -829093.94, 133487.56, 0.0000000031066179, 10.000742, 9.999668 
2.4713631e+3, 2.1176794e+2, -832505.25, -828761.75, -10155.147, 0.0011256151, -0.23465106, -820307.3, 44343.12, 0.0, 9.999931, 10.000018 
2.4709888e+3, 2.2176063e+2, -919624.56, -932649.94, -169863.75, 0.19786355, -0.23320463, -756148.7, 10572.667, 0.0, 9.999086, 9.999058 
2.4706055e+3, 2.3175314e+2, -723446.8, -738731.2, -251326.5, -0.14565852, -0.25211188, -479646.34, 189153.66, 0.0, 9.999713, 9.999303 
2.4702246e+3, 2.41746e+2, -526802.2, -578128.75, -116220.31, -0.40817997, -0.22234198, -433445.44, 137428.0, 0.0, 10.000141, 9.999632 
2.4698515e+3, 2.5174046e+2, -470687.28, -389188.34, -90220.59, -0.26099214, -0.14789191, -330941.47, 141982.61, 0.0, 9.999489, 10.000517 
2.4694787e+3, 2.617339e+2, -570669.5, -629828.4, -210378.73, -0.13462137, -0.11168039, -387800.94, -12815.839, 0.0, 9.99905, 9.998441 
2.4691026e+3, 2.7172342e+2, -344752.38, -506858.06, -233692.42, -0.041890252, -0.31819272, -178455.84, 98631.55, 0.0, 10.0002365, 9.99794 
2.468726e+3, 2.8171417e+2, -101850.375, -382241.53, -115899.66, -0.079758905, -0.36176786, -60146.17, 119032.93, 0.0, 10.001334, 9.997675 
2.4683489e+3, 2.917071e+2, 49896.75, -253281.66, -68670.91, -0.39112365, -0.1861987, 64725.637, 145978.66, 0.0, 10.001731, 9.997674 
2.4679771e+3, 3.016975e+2, -91877.734, -683515.44, -81086.26, -0.13112794, -0.10208944, -80965.8, -80965.8, 0.0, 10.001918, 9.994363 
2.4675964e+3, 3.1168753e+2, 173540.2, -111776.52, -84346.93, -0.5346561, 0.13672093, 196609.97, 196609.97, 0.0, 10.001915, 9.998167 
2.4847515e+3, 1.22202896e+2, -1779063.0, -1796816.0, 349530.03, -0.23181002, -0.27030244, -1438296.8, 304088.5, 0.45571515, 10.000129, 10.000156 
2.484375e+3, 1.3219418e+2, -1656590.8, -1543935.6, -161157.83, 0.10516027, -0.5952828, -1429545.1, 214929.25, 0.33319858, 9.99925, 10.001255 
2.4839914e+3, 1.4219156e+2, -1672915.9, -1541129.3, -28238.77, -0.19635239, -0.2705252, -1535333.3, 11166.6875, 0.20679392, 9.998536, 10.000575 
2.4836168e+3, 1.5218593e+2, -1473730.5, -1332017.4, 7198.2334, -0.1677399, -0.28008774, -1331652.6, 116899.99, 0.10179194, 9.999041, 10.001087 
2.483242e+3, 1.6217934e+2, -1503667.4, -1552340.1, -72302.125, -0.066830866, -0.27496558, -1451715.8, -101099.56, 0.036105353, 9.999232, 9.998783 
2.4828635e+3, 1.7217061e+2, -1310592.1, -1434568.6, -92626.0, -0.16996966, -0.33736217, -1261125.9, -8420.505, 0.0076701324, 10.000127, 9.998416 
2.4824849e+3, 1.8216272e+2, -1094769.3, -1200377.8, -91141.71, -0.24961182, -0.29395717, -1042240.25, 112544.92, 0.000687035, 10.000467, 9.999257 
2.4821067e+3, 1.9215778e+2, -904434.0, -905823.9, -123970.766, -0.31603, -0.17335579, -781156.25, 275675.7, 0.000019881356, 10.000585, 10.000447 
2.4817297e+3, 2.0215146e+2, -976917.4, -1078264.6, -88450.03, -0.24032357, -0.108025186, -925653.7, 33237.664, 0.0, 10.000137, 9.9988785 
2.4813564e+3, 2.121413e+2, -865111.75, -941753.56, -57466.17, 0.060708087, -0.38034865, -834361.3, 26626.348, 0.0, 10.000204, 9.99903 
2.4809809e+3, 2.2213212e+2, -919352.2, -1048952.5, -135416.64, 0.19934717, -0.47900856, -834030.0, -70951.99, 0.0, 9.999619, 9.997991 
2.4805976e+3, 2.3212613e+2, -642525.3, -778429.8, -224768.95, -0.22005676, -0.28806219, -475661.5, 189483.77, 0.0, 10.000575, 9.998628 
2.480217e+3, 2.4211997e+2, -625845.75, -776208.9, -127669.39, -0.4524275, -0.07700499, -552866.1, 14346.221, 0.0, 10.0002165, 9.998221 
2.4798453e+3, 2.5211266e+2, -490705.1, -530112.44, -99199.64, -0.18005599, -0.07152622, -409271.22, 60012.57, 0.0, 10.000027, 9.999227 
2.4794732e+3, 2.6210493e+2, -648303.75, -705324.9, -144649.27, 0.09998249, -0.05878443, -529382.06, -158022.63, 0.0, 9.998819, 9.99802 
2.4790984e+3, 2.7209628e+2, -390255.44, -439185.66, -157163.67, 0.22344549, -0.1478644, -255664.06, 17780.37, 0.0, 9.999648, 9.998664 
2.4787219e+3, 2.8208813e+2, -418584.6, -555268.0, -69709.7, 0.086826876, -0.11728201, -389304.4, -213779.06, 0.0, 9.99935, 9.997437 
2.4783413e+3, 2.920806e+2, -139447.27, -264922.03, -39643.348, -0.62533814, -0.04861464, -127971.62, -50369.406, 0.0, 10.000282, 9.9982 
2.477969e+3, 3.020725e+2, -428186.53, -688731.6, -74500.38, -0.4442164, 0.095824786, -408388.28, -408388.28, 0.0, 9.9991255, 9.995637 
2.4775915e+3, 3.1206205e+2, -101845.34, 13075.645, -138769.03, -0.57994574, -0.026467891, 105810.195, 105810.195, 0.0, 9.999082, 10.0003605 
2.4947405e+3, 1.2257511e+2, -1958384.8, -2116507.3, 221104.05, -0.76160794, -0.7608128, -1802631.9, -63908.56, 0.43991756, 9.999452, 9.997388 
2.494368e+3, 1.3257389e+2, -1676187.5, -1567080.4, -162721.48, 0.14643438, -0.30843163, -1450011.1, 190741.86, 0.31901658, 9.999251, 10.000982 
2.4939817e+3, 1.4257191e+2, -1794069.6, -1729696.9, 2057.21, -0.408377, 0.14338857, -1729631.1, -186849.97, 0.19536594, 9.9983425, 9.9993305 
2.4936081e+3, 1.525634e+2, -1574496.4, -1501694.1, 39380.094, -0.2570975, -0.0249126, -1484468.4, -39605.555, 0.094030365, 9.998974, 9.999837 
2.4932344e+3, 1.6255449e+2, -1497479.6, -1539007.8, -48860.695, -0.1326986, -0.1704253, -1465154.0, -118205.945, 0.032013185, 9.999263, 9.998842 
2.4928567e+3, 1.7254539e+2, -1210454.5, -1314295.8, -39115.098, -0.22046742, -0.32931992, -1197369.4, 51666.1, 0.0062260167, 10.000514, 9.999039 
2.4924785e+3, 1.8253706e+2, -1052072.3, -1230482.1, -79666.98, -0.35808855, -0.35278514, -1021676.4, 129440.26, 0.00043419475, 10.00097, 9.9988 
2.4920994e+3, 1.9253065e+2, -923411.9, -1035266.75, -145792.47, -0.44714147, -0.27803293, -823187.7, 229992.83, 0.0000058323185, 10.000936, 9.999406 
2.4917221e+3, 2.0252405e+2, -852081.6, -944908.56, -109257.58, -0.4334366, -0.18976031, -779787.75, 175456.6, 0.000000000090419006, 10.000631, 9.999558 
2.4913491e+3, 2.1251664e+2, -655186.7, -728034.56, -39775.895, -0.115686946, -0.28860852, -637677.06, 219635.19, 0.0, 10.001075, 10.000097 
2.4909733e+3, 2.2250867e+2, -692313.8, -994266.44, -109306.8, -0.0054024323, -0.3024753, -656898.56, 102491.54, 0.0, 10.001355, 9.99752 
2.4905916e+3, 2.3250031e+2, -544300.6, -900907.4, -192192.48, -0.29752505, -0.2006665, -460439.84, 201043.19, 0.0, 10.001925, 9.997166 
2.4902125e+3, 2.4249233e+2, -329967.16, -616776.6, -136335.17, -0.44330388, -0.07124596, -275502.75, 288066.5, 0.0, 10.002099, 9.998406 
2.4898404e+3, 2.52485e+2, -276748.75, -431976.7, -94249.5, -0.10995159, -0.070738606, -232268.9, 233371.58, 0.0, 10.001418, 9.999264 
2.4894665e+3, 2.6247758e+2, -298477.8, -433791.63, -123085.01, 0.0830955, -0.03937175, -225680.55, 142031.33, 0.0, 10.000665, 9.999013 
2.4890889e+3, 2.7247056e+2, -267986.75, -305793.34, -102039.945, -0.05052014, -0.020407753, -183113.92, 86665.22, 0.0, 10.000061, 9.99944 
2.4887116e+3, 2.8246292e+2, -297315.75, -419284.4, 13057.493, -0.24334255, 0.011462441, -295933.53, -124079.99, 0.0, 9.999656, 9.998268 
2.4883357e+3, 2.9245397e+2, -169638.22, -267120.34, 29548.195, -0.50999033, -0.0570568, -161381.14, -87437.18, 0.0, 9.999843, 9.998476 
2.4879648e+3, 3.0244598e+2, -158733.06, -357866.28, -47611.145, -0.17379022, 0.02034285, -147935.14, -147935.14, 0.0, 9.999957, 9.997542 
2.487586e+3, 3.1243676e+2, 14401.392, 144900.2, -210265.84, -0.40076354, -0.014213832, 299808.03, 299808.03, 0.0, 9.999213, 10.001342 
2.5047374e+3, 1.2295322e+2, -2306684.5, -2271973.0, 114428.65, -0.23756462, -0.67089444, -2173591.5, -438571.94, 0.42027465, 9.996822, 9.997697 
2.5043595e+3, 1.3295299e+2, -1531306.8, -1479282.9, -117644.89, 0.061585978, -0.13039148, -1384808.5, 252229.38, 0.30251706, 10.000238, 10.001239 
2.503974e+3, 1.4294943e+2, -1362209.3, -1592818.6, 35104.89, -0.4400733, 0.20477924, -1356983.8, 182098.63, 0.18302314, 10.001823, 9.998641 
2.5036007e+3, 1.5293957e+2, -1402976.4, -1557087.6, 66572.25, -0.25647038, 0.0043764273, -1378201.6, 62978.156, 0.08629053, 10.000675, 9.998677 
2.5032273e+3, 1.6293016e+2, -1408351.0, -1492575.4, 25232.592, -0.089890115, -0.11977285, -1401370.1, -58098.836, 0.028287582, 9.999812, 9.998896 
2.50285e+3, 1.7292172e+2, -1187138.3, -1282685.9, 11674.857, -0.22627373, -0.2513114, -1185732.4, 59618.445, 0.0050760456, 10.000496, 9.999289 
2.502472e+3, 1.8291312e+2, -1173197.9, -1335823.0, -47880.59, -0.34646103, -0.29745817, -1160147.9, -12714.605, 0.00028139996, 10.000393, 9.998352 
2.5020927e+3, 1.9290513e+2, -1107732.8, -1196315.9, -86045.77, -0.45811415, -0.31660047, -1055248.3, -5734.3745, 0.0000014559199, 10.000059, 9.998719 
2.501715e+3, 2.0289788e+2, -995653.1, -998218.1, 181.56323, -0.44504285, -0.24033144, -995640.3, -44055.64, 0.0, 9.999648, 9.999668 
2.5013417e+3, 2.1289256e+2, -697449.2, -659860.8, -8368.956, -0.25096285, -0.19343688, -658081.75, 195549.64, 0.0, 10.000538, 10.000793 
2.5009662e+3, 2.2288567e+2, -852745.06, -1195322.5, -102182.34, -0.14607833, -0.09293657, -824581.9, -68882.94, 0.0, 10.000867, 9.996379 
2.5005862e+3, 2.3287494e+2, -634766.6, -1066466.6, -118693.56, -0.33328652, -0.12905058, -604284.8, 53531.324, 0.0, 10.0019, 9.996013 
2.5002083e+3, 2.4286528e+2, -439869.34, -720895.56, -57120.86, -0.35985702, -0.0770231, -428702.78, 131216.05, 0.0, 10.001627, 9.997909 
2.4998352e+3, 2.52858e+2, -300956.5, -431823.5, -58860.54, -0.06297529, -0.08193228, -278378.03, 183610.53, 0.0, 10.001286, 9.999293 
2.4994595e+3, 2.6285118e+2, -368238.56, -464984.94, -107382.734, 0.015910655, 0.0073171947, -298836.47, 65216.508, 0.0, 10.000265, 9.998978 
2.4990784e+3, 2.7284494e+2, -221834.31, -229520.28, -112603.53, -0.42306858, 0.045868583, -113008.21, 153101.86, 0.0, 10.000192, 9.999887 
2.4987012e+3, 2.828376e+2, -449069.3, -519387.44, -5126.942, -0.58283186, 0.08630401, -448697.47, -280517.1, 0.0, 9.998864, 9.9979315 
2.4983315e+3, 2.9282758e+2, -347877.88, -353059.56, 20635.393, -0.23181081, -0.11922336, -329671.3, -259390.38, 0.0, 9.998716, 9.99838 
2.4979606e+3, 3.0281863e+2, -482149.72, -477849.6, -91432.164, 0.1019399, -0.14047094, -388542.2, -388542.2, 0.0, 9.997786, 9.99771 
2.4975789e+3, 3.128111e+2, -359137.84, -49967.426, -170119.66, -0.37462452, -0.14770973, 25310.984, 25310.984, 0.0, 9.997084, 10.000887 
2.5147316e+3, 1.2333764e+2, -2265768.3, -1957027.8, 80102.48, 0.13897038, 0.122918025, -1937482.6, -206213.89, 0.39734322, 9.996023, 10.000163 
2.5143492e+3, 1.3332936e+2, -1495568.8, -1411265.0, -4057.4346, -0.28550947, -0.23607463, -1411070.1, 222277.9, 0.28406283, 10.000367, 10.001712 
2.5139698e+3, 1.4332135e+2, -1389106.9, -1678374.4, 43544.46, -0.46535325, -0.33176845, -1382694.1, 152732.3, 0.16993596, 10.001943, 9.997963 
2.5135952e+3, 1.533134e+2, -1401949.8, -1612407.0, 48083.24, -0.26440158, -0.2942451, -1391484.5, 46025.066, 0.078587286, 10.000944, 9.998144 
2.5132203e+3, 1.6330639e+2, -1405701.9, -1505377.1, 53285.035, -0.16471332, -0.13357334, -1382580.0, -42997.29, 0.024857625, 9.999919, 9.998738 
2.5128436e+3, 1.7330079e+2, -1168632.9, -1266223.5, 71451.74, -0.276052, 0.024244769, -1130904.6, 110736.03, 0.0041356636, 10.000616, 9.999331 
2.5124663e+3, 1.8329357e+2, -1114807.9, -1232001.0, -59603.586, -0.35816413, 0.09472666, -1089821.3, 53890.87, 0.00018434241, 10.000468, 9.999013 
2.5120878e+3, 1.9328418e+2, -1079852.4, -1118070.3, -49749.21, -0.25620311, -0.113405325, -1045668.4, 133.21404, 0.00000026313862, 9.999946, 9.99932 
2.5117102e+3, 2.0327547e+2, -1028236.06, -1108473.8, 76002.43, -0.26666507, -0.1730551, -982413.7, -34528.76, 0.0, 9.99982, 9.998823 
2.5113344e+3, 2.1326822e+2, -745500.4, -859987.56, 50757.094, -0.37080663, -0.15466963, -726238.3, 123715.6, 0.0, 10.000938, 9.999254 
2.5109586e+3, 2.2326034e+2, -615468.94, -966991.56, -73771.24, -0.42872322, -0.08525499, -600614.9, 151416.44, 0.0, 10.001913, 9.997468 
2.5105813e+3, 2.332508e+2, -423035.56, -813062.25, -34505.176, -0.38682222, -0.12783675, -420006.47, 234123.66, 0.0, 10.002608, 9.997454 
2.5102043e+3, 2.4324182e+2, -236440.0, -608790.3, 21107.9, -0.3490094, -0.0856172, -235247.25, 320974.7, 0.0, 10.00287, 9.998093 
2.5098285e+3, 2.532337e+2, -176853.28, -464072.16, 1215.743, -0.24006134, -0.09054822, -176848.14, 281453.66, 0.0, 10.0024, 9.9986 
2.5094524e+3, 2.6322564e+2, -151110.97, -411513.9, -77826.266, -0.18965648, -0.048258405, -129624.11, 230755.27, 0.0, 10.001866, 9.998605 
2.5090742e+3, 2.7321765e+2, -101009.43, -283723.3, -120964.89, -0.257481, -0.07764097, -40779.445, 221674.78, 0.0, 10.001388, 9.999005 
2.5086972e+3, 2.832093e+2, -194117.55, -397741.4, -74974.42, -0.31562123, -0.07433565, -169490.44, -4954.706, 0.0, 10.000481, 9.99802 
2.5083232e+3, 2.9319996e+2, -341645.88, -409219.4, -69233.836, -0.26350722, -0.1722218, -298394.53, -231762.36, 0.0, 9.998812, 9.998038 
2.50795e+3, 3.031923e+2, -322853.03, -194422.89, -131769.11, -0.08398545, -0.11935507, -112054.63, -112054.63, 0.0, 9.997809, 9.999686 
2.507573e+3, 3.1318676e+2, -16232.83, 236849.3, -131083.22, -0.08870682, -0.063656144, 292504.4, 292504.4, 0.0, 9.998621, 10.002218 
2.524718e+3, 1.2371418e+2, -1931868.8, -1748434.3, -25864.736, -0.24940719, 0.14540628, -1744857.0, -17273.25, 0.3720952, 9.9979, 10.000716 
2.524342e+3, 1.3370425e+2, -1580862.0, -1507177.6, -69857.96, -0.35597938, -0.3403346, -1465042.0, 164631.53, 0.26429757, 9.999745, 10.001092 
2.5239664e+3, 1.4369561e+2, -1583138.6, -1786294.0, -135640.0, -0.2361304, -0.47485578, -1515257.8, 16497.521, 0.15642525, 10.000461, 9.997898 
2.5235897e+3, 1.5368797e+2, -1441671.5, -1665640.1, -142157.67, -0.18784593, -0.40009174, -1372688.1, 61148.867, 0.071005836, 10.000892, 9.997785 
2.523214e+3, 1.6368169e+2, -1280979.3, -1447306.1, -56519.277, -0.12767969, -0.15001218, -1263591.3, 72313.93, 0.021693112, 10.000821, 9.998716 
2.5228375e+3, 1.7367731e+2, -1177035.8, -1258209.3, -61002.594, -0.23670043, 0.12466732, -1144351.8, 93601.914, 0.00335279, 10.000616, 9.9993725 
2.5224608e+3, 1.8367122e+2, -1137266.4, -1228639.8, -205167.95, -0.22741598, 0.28810742, -972759.9, 167255.13, 0.00011963712, 10.000228, 9.999156 
2.5220826e+3, 1.9366167e+2, -1020915.56, -1063195.5, -230230.13, -0.064908825, 0.0070449286, -810856.9, 231246.6, 0.00000002568285, 10.00019, 9.999575 
2.521705e+3, 2.0365228e+2, -1076534.0, -1284722.6, -11601.906, -0.063885614, -0.10369893, -1075889.5, -131696.86, 0.0, 10.000118, 9.997478 
2.521328e+3, 2.1364306e+2, -847171.0, -1080836.5, 2311.142, -0.4013138, -0.16618629, -847148.1, -864.54126, 0.0, 10.000935, 9.997745 
2.520952e+3, 2.2363445e+2, -732635.7, -942413.06, -90798.81, -0.5363958, -0.118980475, -698794.2, 49573.87, 0.0, 10.000856, 9.998115 
2.5205764e+3, 2.3362659e+2, -564195.6, -725294.6, -96489.55, -0.37411785, -0.15277617, -519053.22, 131390.81, 0.0, 10.001027, 9.998803 
2.5202e+3, 2.4361841e+2, -619894.3, -871779.06, -65670.6, -0.304444, -0.083723925, -603801.1, -51276.79, 0.0, 10.00067, 9.99734 
2.519822e+3, 2.5360948e+2, -456129.22, -679131.4, -73419.58, -0.41647512, -0.12033444, -434127.75, 20485.875, 0.0, 10.000939, 9.997795 
2.5194454e+3, 2.636002e+2, -492753.84, -735719.75, -118485.875, -0.33381054, -0.09254736, -444539.97, -87835.35, 0.0, 10.000334, 9.997084 
2.519071e+3, 2.7359018e+2, -410234.13, -551513.25, -130372.555, 0.035908103, -0.23712099, -332593.72, -73793.64, 0.0, 9.999916, 9.997801 
2.5186944e+3, 2.835806e+2, -489622.88, -617272.94, -76638.61, 0.056077752, -0.25008947, -453712.7, -292817.75, 0.0, 9.99895, 9.9972105 
2.5183132e+3, 2.9357204e+2, -411130.8, -456240.06, -52585.695, -0.46103197, -0.2628234, -376466.84, -313480.5, 0.0, 9.99855, 9.99778 
2.5179377e+3, 3.035665e+2, -309096.38, -57746.383, -56046.04, -0.41429877, -0.028188467, -45815.55, -45815.55, 0.0, 9.99751, 10.000719 
2.517563e+3, 3.1355944e+2, -155402.2, 356398.38, -15371.198, -0.31720024, -0.33608636, 356859.6, 356859.6, 0.0, 9.997151, 10.003638 
2.534709e+3, 1.2408008e+2, -2052585.8, -1892434.9, 106242.766, -0.41078198, -0.68142056, -1839470.5, -115478.48, 0.34545994, 9.997559, 9.999863 
2.534337e+3, 1.3407795e+2, -1680546.1, -1641864.1, -38947.344, -0.13088536, -0.2848501, -1617719.9, 8293.385, 0.24384509, 9.999507, 9.999969 
2.533963e+3, 1.4407259e+2, -1706219.4, -1855532.5, -126736.54, 0.014701948, -0.0160264, -1633785.0, -105716.914, 0.14280653, 9.999734, 9.997728 
2.5335848e+3, 1.540625e+2, -1424577.3, -1616564.6, -114911.48, -0.14244142, -0.21020915, -1370839.8, 59333.145, 0.06363834, 10.000896, 9.998079 
2.533208e+3, 1.6405375e+2, -1250237.9, -1444529.1, -94491.89, -0.20370083, -0.21672596, -1211862.4, 120399.875, 0.0187796, 10.001094, 9.9986 
2.5328323e+3, 1.7404644e+2, -1159945.1, -1279395.3, -92677.15, -0.19800587, -0.21855246, -1109415.3, 124918.9, 0.0026956536, 10.000795, 9.9991665 
2.5324547e+3, 1.8403968e+2, -1122490.9, -1228276.3, -256189.1, -0.21914469, -0.10402232, -913791.3, 222608.67, 0.00007576087, 10.00038, 9.999067 
2.532075e+3, 1.9403294e+2, -973096.8, -1064243.6, -276393.0, -0.19062701, -0.08218562, -738545.2, 299919.0, 0.00000000011876218, 10.0006, 9.9993725 
2.5316983e+3, 2.0402503e+2, -921401.06, -1134124.5, -47348.543, -0.18562795, -0.061947215, -911338.1, 29201.973, 0.0, 10.00084, 9.998149 
2.531325e+3, 2.1401557e+2, -703786.3, -954083.56, 10132.743, -0.21217197, -0.19537176, -703376.75, 139254.94, 0.0, 10.001632, 9.998285 
2.530949e+3, 2.2400701e+2, -588767.8, -820546.56, -151953.31, -0.28728575, -0.19532326, -513554.75, 231160.77, 0.0, 10.001558, 9.998623 
2.530571e+3, 2.3399943e+2, -613244.5, -740706.1, -170355.81, -0.30756655, -0.19586602, -495088.72, 151701.2, 0.0, 10.00058, 9.998952 
2.530193e+3, 2.4399172e+2, -641365.25, -802520.25, -132144.98, -0.35139412, -0.121517755, -567168.6, -18302.434, 0.0, 10.00008, 9.998125 
2.5298157e+3, 2.5398368e+2, -483117.03, -648081.75, -95725.81, -0.42156455, -0.0984773, -439239.72, 11706.685, 0.0, 10.000486, 9.99826 
2.5294387e+3, 2.6397502e+2, -401019.16, -585940.6, -154502.56, -0.36173564, -0.07540494, -313424.25, 39606.914, 0.0, 10.000409, 9.998096 
2.5290632e+3, 2.739652e+2, -446973.8, -523728.5, -122751.5, -0.02329229, -0.233599, -356740.3, -101615.01, 0.0, 9.999348, 9.998312 
2.5286862e+3, 2.8395668e+2, -327457.06, -323092.13, 36575.246, 0.0012351975, -0.24549158, -288634.28, -131425.69, 0.0, 9.999067, 9.999168 
2.528306e+3, 2.9394987e+2, -63428.09, -128133.266, 117738.53, -0.47655642, -0.20083745, 26321.947, 85599.92, 0.0, 10.000149, 9.999311 
2.5279304e+3, 3.039432e+2, 52439.184, 15191.684, 54248.305, -0.42105332, -0.104093425, 91171.54, 91171.54, 0.0, 10.000286, 9.999946 
2.5275555e+3, 3.1393507e+2, 4009.9082, 247982.64, -34810.496, -0.18667322, -0.2828679, 252852.27, 252852.27, 0.0, 9.9987755, 10.002239 
2.5447085e+3, 1.24457486e+2, -1576451.9, -1550934.5, -9224.007, 0.27872232, -0.29211685, -1547949.4, 172349.3, 0.31815657, 10.0006075, 10.001262 
2.544332e+3, 1.3445325e+2, -1545336.3, -1551561.9, 1829.5065, 0.07615856, -0.15153207, -1544838.4, 77502.0, 0.22319712, 10.0004015, 10.000301 
2.5439563e+3, 1.4444819e+2, -1536936.1, -1728409.1, 10928.913, 0.03663803, 0.12917824, -1536314.4, -11922.036, 0.12934339, 10.000609, 9.998214 
2.5435793e+3, 1.5443784e+2, -1394185.8, -1583785.0, 11827.641, -0.063126504, -0.11475516, -1393450.8, 33047.805, 0.05657354, 10.000923, 9.998354 
2.543203e+3, 1.6442826e+2, -1305989.8, -1450850.6, 34585.6, -0.10210354, -0.20837331, -1298156.0, 30437.314, 0.016116831, 10.0005865, 9.998799 
2.5428262e+3, 1.7441927e+2, -1253221.8, -1338414.4, 23585.07, -0.16174138, -0.38202322, -1247128.1, -16450.184, 0.0021455006, 10.000161, 9.999076 
2.5424483e+3, 1.8441156e+2, -1187434.1, -1326482.5, -81447.82, -0.19359662, -0.31592992, -1149872.5, -17121.006, 0.000046550977, 10.000204, 9.998494 
2.5420687e+3, 1.9440544e+2, -902542.56, -1097207.0, -145170.86, -0.23160811, -0.1713356, -825094.5, 209716.86, 0.0, 10.001366, 9.998799 
2.5416923e+3, 2.0439805e+2, -872820.75, -1086929.8, 68241.984, -0.1695987, -0.058416106, -852920.0, 83963.11, 0.0, 10.001146, 9.998293 
2.541321e+3, 2.1438856e+2, -902638.56, -1009873.94, 46858.14, -0.0409733, -0.23948967, -885048.5, -46073.496, 0.0, 10.000162, 9.998581 
2.5409454e+3, 2.2437997e+2, -906413.7, -995746.25, -152588.66, -0.028584901, -0.23714334, -792088.2, -51028.695, 0.0, 9.999541, 9.998384 
2.540565e+3, 2.343723e+2, -743875.9, -806182.8, -176024.1, -0.21505423, -0.25410524, -596269.7, 46867.457, 0.0, 9.999796, 9.998844 
2.5401866e+3, 2.4436513e+2, -710461.6, -793659.3, -81766.99, -0.31323513, -0.124951065, -660320.06, -115111.45, 0.0, 9.999555, 9.998388 
2.5398096e+3, 2.5435805e+2, -536693.44, -604922.25, -48709.203, -0.3740783, -0.091560185, -511340.38, -64062.473, 0.0, 9.999898, 9.998794 
2.539432e+3, 2.6435003e+2, -488180.78, -574078.4, -148328.45, -0.3378116, -0.041506473, -376708.3, -27352.582, 0.0, 9.999696, 9.9984865 
2.5390542e+3, 2.7434072e+2, -382221.84, -402589.72, -143091.7, -0.14409795, -0.25150207, -248952.14, 2493.4214, 0.0, 9.999505, 9.999033 
2.538677e+3, 2.8433406e+2, -289009.44, -168046.38, 50975.496, -0.121045046, -0.1666, -149429.75, 4078.8728, 0.0, 9.998856, 10.000316 
2.5382996e+3, 2.943297e+2, -120558.29, 41233.16, 85959.4, -0.42327887, -0.07748679, 78376.14, 133924.0, 0.0, 9.999046, 10.000955 
2.5379238e+3, 3.0432e+2, -361997.88, -477351.63, -49952.965, -0.37836653, -0.24054989, -343373.25, -343373.25, 0.0, 9.998871, 9.997195 
2.5375482e+3, 3.1430888e+2, -243694.27, 4029.6272, -95498.445, -0.15016769, -0.51564467, 36570.16, 36570.16, 0.0, 9.997821, 10.000969 
2.5547e+3, 1.2483248e+2, -1648435.9, -1532872.6, -13495.103, -0.019180834, -0.106147274, -1531317.6, 185322.84, 0.29081753, 9.999743, 10.001726 
2.5543246e+3, 1.3482907e+2, -1431299.9, -1333414.8, 53528.445, -0.063664824, -0.055238977, -1309826.9, 308838.16, 0.2027681, 10.000577, 10.002042 
2.5539455e+3, 1.4482164e+2, -1491410.1, -1604706.6, 29642.818, -0.47937733, -0.13569228, -1484123.1, 36611.67, 0.11625642, 10.000593, 9.999042 
2.5535738e+3, 1.548145e+2, -1356877.6, -1473604.4, 68637.33, -0.05085766, -0.14594017, -1325144.5, 97662.66, 0.04988728, 10.000823, 9.9991455 
2.553198e+3, 1.6480741e+2, -1295559.9, -1384954.0, 55983.406, 0.009604192, -0.047773246, -1268619.1, 56256.832, 0.013707004, 10.000425, 9.999326 
2.552818e+3, 1.747999e+2, -1227025.3, -1266019.3, 85123.58, -0.31985566, -0.10646157, -1159194.4, 67750.43, 0.0016894786, 10.000097, 9.999603 
2.5524402e+3, 1.8479104e+2, -1179394.1, -1398322.8, 26149.31, -0.3948183, -0.1405264, -1176314.1, -47285.95, 0.000027889511, 10.000588, 9.997802 
2.5520644e+3, 1.9478075e+2, -845384.2, -1168423.0, -7483.645, -0.16080269, -0.3185451, -845210.94, 185915.69, 0.0, 10.002176, 9.997918 
2.5516883e+3, 2.0477167e+2, -799202.6, -1128301.4, 61046.09, -0.14230056, -0.2856569, -788243.8, 144972.64, 0.0, 10.00194, 9.997636 
2.5513116e+3, 2.1476315e+2, -969130.06, -1139712.9, 36658.75, -0.32345697, -0.27438945, -961585.7, -126281.54, 0.0, 10.000037, 9.99778 
2.5509354e+3, 2.2475548e+2, -894115.7, -938221.44, -106584.81, -0.32125628, -0.15975714, -807326.25, -69942.92, 0.0, 9.999365, 9.998866 
2.550559e+3, 2.3474866e+2, -655982.56, -748292.0, -93363.06, -0.15214351, -0.09142222, -597988.75, 41465.51, 0.0, 10.000278, 9.999026 
2.5501817e+3, 2.4474116e+2, -448458.6, -533214.2, -34552.887, -0.17591035, -0.05972764, -436157.5, 105369.1, 0.0, 10.000682, 9.999658 
2.549803e+3, 2.5473258e+2, -399445.97, -450756.28, 9273.003, -0.3865799, -0.23809277, -397821.53, 45782.418, 0.0, 10.000338, 9.999693 
2.5494254e+3, 2.6472464e+2, -309314.2, -417743.78, -82822.23, -0.38575307, -0.25581175, -264540.28, 81138.38, 0.0, 10.000519, 9.999204 
2.5490487e+3, 2.7471703e+2, -86726.586, -247860.72, -82535.88, -0.11396142, -0.27849692, -51954.047, 195798.84, 0.0, 10.001374, 9.999258 
2.5486708e+3, 2.8471035e+2, -46453.67, -192507.98, -12056.294, -0.1166117, -0.14671698, -45465.152, 104354.6, 0.0, 10.000977, 9.99918 
2.5482914e+3, 2.9470456e+2, -237758.69, -214485.31, -107892.07, -0.47244236, -0.018510288, -117604.21, -65724.72, 0.0, 9.998938, 9.999328 
2.5479174e+3, 3.046947e+2, -177847.5, -232049.89, -165212.1, -0.2659748, -0.2045038, -37528.53, -37528.53, 0.0, 9.999288, 9.9987545 
2.547541e+3, 3.1468335e+2, 325021.47, 226558.38, -147647.31, -0.20168562, -0.5595145, 431428.84, 431428.84, 0.0, 10.001662, 10.000758 
2.5646964e+3, 1.2521422e+2, -1645684.9, -1568925.5, 104258.1, 0.30815604, 0.24592839, -1496207.3, 216693.5, 0.26403108, 9.999847, 10.001367 
2.5643182e+3, 1.3520615e+2, -1548318.0, -1467072.9, 133497.1, -0.062301785, -0.05138029, -1368154.5, 246817.67, 0.18292536, 9.999983, 10.001216 
2.563939e+3, 1.4519772e+2, -1492901.8, -1564138.0, 62058.754, -0.49521098, -0.19410299, -1456966.1, 60084.555, 0.1037245, 10.00032, 9.999489 
2.563568e+3, 1.5519148e+2, -1275174.0, -1419810.8, 27815.137, -0.019732393, -0.15971391, -1270009.3, 149102.25, 0.043632858, 10.001246, 9.999339 
2.5631925e+3, 1.6518524e+2, -1180304.4, -1315806.9, -14220.253, 0.09839097, 0.0030759983, -1178828.1, 142342.64, 0.011545959, 10.001217, 9.999379 
2.5628117e+3, 1.7517851e+2, -1152041.3, -1251038.9, -64308.92, -0.28522032, 0.013623761, -1120387.3, 102845.586, 0.0013158798, 10.000744, 9.999369 
2.5624344e+3, 1.8516898e+2, -1164939.6, -1419087.1, -28505.979, -0.34608433, -0.06933774, -1161781.6, -36459.035, 0.000016496271, 10.000871, 9.997519 
2.5620607e+3, 1.9515647e+2, -956666.25, -1285309.4, -18497.066, -0.057324477, -0.44341868, -955628.44, 71812.97, 0.0, 10.001706, 9.997365 
2.561683e+3, 2.0514674e+2, -894049.56, -1184919.8, 35190.71, -0.115008585, -0.42941368, -889852.6, 39685.348, 0.0, 10.001409, 9.997496 
2.5613022e+3, 2.1513939e+2, -990307.0, -1185646.6, 57063.965, -0.56718457, -0.28376958, -974858.8, -143241.97, 0.0, 10.000127, 9.997418 
2.5609258e+3, 2.2513258e+2, -826958.9, -914665.2, 43180.117, -0.5163776, -0.040857367, -809268.4, -75578.41, 0.0, 9.999935, 9.998717 
2.5605533e+3, 2.3512605e+2, -629335.2, -755155.75, 10019.748, -0.052961323, 0.051887576, -628542.25, 7217.6577, 0.0, 10.000596, 9.998798 
2.5601768e+3, 2.4511778e+2, -489970.13, -502964.16, 344.73206, -0.0013874577, 0.0075671733, -489961.0, 47876.766, 0.0, 10.000268, 10.000034 
2.5597963e+3, 2.551074e+2, -528156.5, -464997.84, -26581.537, -0.37977067, -0.42785025, -455299.66, -15371.859, 0.0, 9.999342, 10.000048 
2.5594184e+3, 2.650998e+2, -513900.13, -526596.6, -79371.18, -0.37770298, -0.41640797, -440623.72, -98626.93, 0.0, 9.999295, 9.998973 
2.5590435e+3, 2.750941e+2, -204077.53, -324919.84, -77725.45, -0.047743034, -0.27993634, -166050.92, 78002.22, 0.0, 10.000761, 9.998971 
2.5586647e+3, 2.8508618e+2, -311504.03, -623685.44, -96812.38, -0.112465404, -0.11232716, -283918.53, -137781.58, 0.0, 10.000586, 9.996352 
2.5582823e+3, 2.9507673e+2, -420535.97, -610153.3, -154442.66, -0.58091116, -0.11707033, -334123.2, -285882.06, 0.0, 9.999115, 9.996456 
2.557911e+3, 3.0506915e+2, -140614.98, -73903.39, -59509.18, -0.118937925, 0.020262139, -39039.31, -39039.31, 0.0, 9.99913, 9.999815 
2.5575387e+3, 3.1506634e+2, 100018.08, 273610.72, -27062.602, 0.058843907, 0.3128497, 277731.88, 277731.88, 0.0, 9.999768, 10.001852 
2.5746873e+3, 1.2559032e+2, -1871783.4, -1845577.8, 162828.31, 0.032004938, -0.2326086, -1695325.9, 13874.381, 0.23823552, 9.999154, 9.9993925 
2.5743136e+3, 1.3558426e+2, -1776572.9, -1843767.9, 164035.63, 0.1648956, -0.0815467, -1642729.4, -31465.45, 0.16394834, 9.999619, 9.998505 
2.5739363e+3, 1.4557637e+2, -1576896.9, -1629773.5, 116011.46, -0.1413332, -0.017872158, -1484349.3, 28991.217, 0.09188186, 9.999896, 9.999213 
2.5735614e+3, 1.555678e+2, -1301675.3, -1457489.9, 97743.18, -0.1795424, -0.19289747, -1254589.4, 160830.53, 0.03784501, 10.001188, 9.999111 
2.573186e+3, 1.655595e+2, -1247230.6, -1481501.3, -47643.137, -0.06743332, -0.15999307, -1237912.1, 79587.766, 0.009625426, 10.001377, 9.998136 
2.5728095e+3, 1.7555083e+2, -1199791.0, -1419861.3, -77418.3, 0.038353935, -0.2098205, -1175285.0, 44300.35, 0.0010124295, 10.001054, 9.998054 
2.5724322e+3, 1.8554248e+2, -1013860.0, -1174448.9, -42845.395, -0.03518596, -0.18444818, -1003143.9, 118523.38, 0.000009793076, 10.001171, 9.999041 
2.5720546e+3, 1.9553383e+2, -844508.8, -1068705.5, 25332.086, -0.14302285, -0.3044629, -841682.2, 182069.58, 0.0, 10.001751, 9.998831 
2.5716758e+3, 2.055263e+2, -712720.56, -874357.5, 34951.91, -0.35271668, -0.2491231, -705486.44, 220337.28, 0.0, 10.001649, 9.999523 
2.5712955e+3, 2.1551968e+2, -696399.2, -851143.9, 129334.516, -0.65340894, -0.19437258, -623060.2, 204826.19, 0.0, 10.00125, 9.999202 
2.5709197e+3, 2.2551216e+2, -635637.1, -892025.2, 154617.89, -0.57291734, -0.0717353, -562982.0, 166981.73, 0.0, 10.001469, 9.99815 
2.5705475e+3, 2.3550375e+2, -462988.88, -771418.5, 122756.11, -0.1539225, -0.06318622, -420096.44, 211957.61, 0.0, 10.002036, 9.998033 
2.5701705e+3, 2.45495e+2, -401905.03, -573778.4, -14211.684, -0.07810004, -0.0631139, -400737.84, 133402.36, 0.0, 10.001287, 9.999076 
2.5697896e+3, 2.554856e+2, -566371.2, -615840.0, -59996.637, -0.2951546, -0.25124067, -526210.4, -89983.95, 0.0, 9.999557, 9.998946 
2.5694108e+3, 2.6547772e+2, -457742.63, -502645.78, -43614.76, -0.40563905, -0.21541122, -431139.94, -92839.125, 0.0, 9.999594, 9.999004 
2.5690344e+3, 2.7547088e+2, -162606.63, -346692.9, -52603.563, -0.37527364, -0.15156154, -148635.27, 91733.06, 0.0, 10.001098, 9.998692 
2.568657e+3, 2.85462e+2, -68242.69, -458625.6, -96594.65, -0.35785308, -0.09554868, -45649.32, 96808.42, 0.0, 10.001952, 9.996847 
2.5682786e+3, 2.9545152e+2, 66966.375, -370071.7, -54520.79, -0.38689074, -0.17664832, 73665.2, 118230.37, 0.0, 10.002308, 9.996612 
2.567905e+3, 3.0544305e+2, -28417.809, -158374.5, 4448.6665, -0.05970211, -0.06774291, -28265.7, -28265.7, 0.0, 10.000333, 9.998709 
2.5675222e+3, 3.154346e+2, -453172.22, -205644.52, -105039.36, -0.7361264, -0.14062792, -167079.2, -167079.2, 0.0, 9.996593, 10.000173 
2.5846833e+3, 1.2596574e+2, -1440228.0, -1821205.0, 54678.902, 0.18509372, -0.37811112, -1432535.6, 272983.75, 0.21373183, 10.003276, 9.997632 
2.5843087e+3, 1.359609e+2, -1361086.3, -1756877.0, -32590.123, 0.2096079, -0.034102518, -1358420.6, 249154.13, 0.14603193, 10.003133, 9.997489 
2.583932e+3, 1.4595267e+2, -1279864.4, -1498945.6, 14260.563, 0.016702065, 0.035179548, -1278940.0, 230715.38, 0.080827504, 10.0021715, 9.99901 
2.5835556e+3, 1.559431e+2, -1297243.1, -1507242.9, -56381.84, -0.18995687, -0.21017659, -1283062.9, 128680.3, 0.032553293, 10.001446, 9.998637 
2.58318e+3, 1.6593401e+2, -1284129.9, -1505213.8, -116623.88, -0.05001085, -0.2481504, -1233983.8, 79846.695, 0.007938516, 10.001102, 9.998102 
2.582806e+3, 1.7592494e+2, -1266183.3, -1474275.3, -51397.914, 0.31031507, -0.33558422, -1254180.5, -38259.92, 0.00076767127, 10.00068, 9.997854 
2.5824285e+3, 1.8591781e+2, -1050571.1, -1138481.4, 31126.572, 0.20481846, -0.19299752, -1040666.1, 77327.69, 0.000005913737, 10.000734, 9.99948 
2.5820485e+3, 1.9591185e+2, -960804.0, -1050944.3, -39692.47, -0.21390098, -0.106271066, -945817.44, 74239.13, 0.0, 10.000717, 9.999416 
2.581669e+3, 2.0590553e+2, -784934.06, -774418.4, -94364.016, -0.4541224, -0.03354046, -685165.9, 236948.06, 0.0, 10.000589, 10.000709 
2.5812897e+3, 2.158987e+2, -786923.2, -782698.0, -77512.75, -0.6023148, -0.16377372, -707269.06, 116901.65, 0.0, 10.000154, 10.000195 
2.5809142e+3, 2.258907e+2, -906032.4, -1046885.44, 25772.266, -0.50671035, -0.13211446, -901464.8, -175215.52, 0.0, 9.999872, 9.997819 
2.580541e+3, 2.3588134e+2, -858803.4, -1011749.94, 46048.188, -0.22821024, -0.20520437, -846009.6, -217660.86, 0.0, 9.999677, 9.997486 
2.5801638e+3, 2.4587293e+2, -717762.75, -860463.25, -64534.48, -0.12425382, -0.08033231, -692907.2, -162471.94, 0.0, 9.999822, 9.99777 
2.5797835e+3, 2.5586474e+2, -649090.5, -807673.6, -71155.58, -0.17278178, -0.044127587, -621844.44, -189328.13, 0.0, 9.999754, 9.997499 
2.5794035e+3, 2.6585627e+2, -487693.63, -582198.25, 45533.27, -0.40766054, 0.043792773, -469325.34, -134725.14, 0.0, 9.999745, 9.9983835 
2.5790244e+3, 2.7584758e+2, -377547.56, -511539.72, 3317.777, -0.76196223, -0.049278084, -377465.47, -140779.22, 0.0, 9.999997, 9.998066 
2.5786495e+3, 2.8583843e+2, -222499.45, -415056.75, -55153.54, -0.58276, -0.035977863, -207820.94, -69048.34, 0.0, 10.000495, 9.997808 
2.578277e+3, 2.9582804e+2, -103147.086, -371290.53, -19841.729, -0.094128035, -0.24309403, -101686.81, -60818.355, 0.0, 10.000904, 9.99725 
2.5778973e+3, 3.0581757e+2, -286058.0, -463703.63, -94315.445, -0.14384815, -0.2645381, -245324.28, -245324.28, 0.0, 9.999492, 9.996966 
2.5775114e+3, 3.1581444e+2, -613447.94, -364328.72, -59817.965, -0.82930785, 0.3310589, -350709.88, -350709.88, 0.0, 9.996056, 9.999304 
2.594682e+3, 1.2634306e+2, -1487081.8, -1818559.6, 19539.348, 0.27787343, 0.011738314, -1485933.9, 215899.44, 0.19077115, 10.002816, 9.997832 
2.5943014e+3, 1.363354e+2, -1363439.9, -1726414.6, -27265.656, -0.1900286, 0.0359744, -1361403.3, 242508.31, 0.12932457, 10.002999, 9.9977455 
2.593925e+3, 1.4632551e+2, -1335747.5, -1604866.3, -34168.38, -0.25865325, -0.034032978, -1331477.1, 174530.9, 0.07062259, 10.002113, 9.998294 
2.5935516e+3, 1.563159e+2, -1332400.4, -1563010.3, -73331.8, -0.09804444, -0.20666564, -1311057.0, 97042.52, 0.027766839, 10.001385, 9.998274 
2.5931755e+3, 1.6630897e+2, -1097742.4, -1095643.0, -129681.68, 0.016525391, -0.1679506, -967006.75, 343156.28, 0.0064744665, 10.00103, 10.000947 
2.5927988e+3, 1.7630313e+2, -1107762.1, -1159813.3, 3845.4612, 0.16668765, -0.19862254, -1107479.6, 104736.234, 0.0005723583, 10.0007105, 10.000012 
2.5924203e+3, 1.8629648e+2, -1188849.1, -1422801.3, 48243.094, -0.0119859185, 0.009526145, -1179291.4, -65004.844, 0.0000035552432, 10.000714, 9.997544 
2.5920406e+3, 1.9628914e+2, -1069550.9, -1301708.5, -29516.932, -0.41530845, 0.16955158, -1065856.8, -49487.582, 0.0, 10.000771, 9.997694 
2.5916624e+3, 2.0628054e+2, -788337.9, -806921.2, -163014.88, -0.5059495, 0.09896068, -634350.06, 284099.97, 0.0, 10.000686, 10.000446 
2.5912857e+3, 2.1627115e+2, -733884.2, -779786.5, -163231.44, -0.40332368, -0.23065017, -591998.25, 228532.1, 0.0, 10.000546, 10.000064 
2.590909e+3, 2.2626446e+2, -726621.75, -687442.5, -92996.875, -0.3530656, -0.20658407, -611994.4, 110597.305, 0.0, 9.999889, 10.000278 
2.5905326e+3, 2.3625888e+2, -790454.8, -753842.9, 7629.2983, -0.31290883, -0.11960756, -752316.7, -127669.04, 0.0, 9.999094, 9.999558 
2.5901556e+3, 2.462512e+2, -644829.94, -744871.1, -18230.809, -0.2428524, -0.06006258, -641611.25, -114887.555, 0.0, 9.999884, 9.998558 
2.5897777e+3, 2.5624216e+2, -349024.2, -617081.0, 30281.969, -0.16756491, -0.14516553, -345645.84, 83166.695, 0.0, 10.00151, 9.997997 
2.589399e+3, 2.662331e+2, -323214.84, -636753.5, 68095.79, -0.31241015, -0.07356538, -309064.16, 21841.125, 0.0, 10.001393, 9.997235 
2.5890198e+3, 2.7622384e+2, -408290.34, -643229.9, 12996.3545, -0.5669393, -0.04836664, -407573.6, -174572.38, 0.0, 10.000182, 9.997119 
2.588643e+3, 2.8621525e+2, -242910.45, -308399.88, -40880.797, -0.53929436, -0.004819529, -223277.16, -88193.58, 0.0, 9.999767, 9.998915 
2.5882673e+3, 2.9620633e+2, -189540.92, -317885.2, -39030.746, -0.3758551, -0.12805416, -178603.39, -141439.23, 0.0, 9.999766, 9.998215 
2.5878888e+3, 3.0619612e+2, -163620.55, -377811.3, -134916.05, -0.24181493, -0.18359117, -98461.01, -98461.01, 0.0, 10.000101, 9.997327 
2.5875047e+3, 3.161892e+2, -239116.14, -531501.44, 127887.945, -0.6792511, 0.06686552, -191072.8, -191072.8, 0.0, 9.999956, 9.996339 
2.6046768e+3, 1.2671961e+2, -1393136.6, -1861263.6, 44461.74, 0.09241258, 0.117518745, -1388951.1, 309201.25, 0.16949552, 10.003913, 9.997029 
2.6042983e+3, 1.3671048e+2, -1022978.9, -1574839.4, 5349.267, -0.19881734, 0.04806177, -1022927.0, 577314.06, 0.11391175, 10.005708, 9.997515 
2.6039213e+3, 1.4670043e+2, -1112246.8, -1505318.5, -21508.273, -0.21907292, -0.021907443, -1111073.4, 391265.7, 0.061296463, 10.003793, 9.998148 
2.6035464e+3, 1.566909e+2, -1483122.4, -1649736.3, -30811.404, -0.010275838, -0.15473656, -1477607.1, -73175.35, 0.023481611, 10.00037, 9.99817 
2.6031694e+3, 1.6668506e+2, -1101086.5, -981573.3, -78668.37, 0.044318456, -0.057288233, -942539.4, 363945.34, 0.005220199, 10.000476, 10.002046 
2.6027918e+3, 1.7668095e+2, -900285.75, -992767.25, -143340.34, 0.0521866, -0.019550946, -795912.25, 412606.47, 0.00041937284, 10.001829, 10.000662 
2.6024127e+3, 1.8667406e+2, -1114677.4, -1462198.5, -35048.5, -0.14639376, 0.16149463, -1111177.9, -586.95496, 0.0000020172258, 10.001557, 9.996852 
2.6020333e+3, 1.9666535e+2, -1215741.5, -1479109.3, 4563.2324, -0.47194958, 0.25363767, -1215662.4, -202974.97, 0.0, 10.0002365, 9.996724 
2.6016566e+3, 2.0665538e+2, -911965.3, -931856.3, -44790.785, -0.40664715, 0.13201018, -876029.2, 38753.945, 0.0, 10.000189, 9.999802 
2.6012817e+3, 2.1664454e+2, -843266.94, -873612.0, -82178.57, -0.118005, -0.28307334, -774872.0, 42007.24, 0.0, 10.000073, 9.99961 
2.6009032e+3, 2.2663912e+2, -639305.94, -450014.1, -76750.41, -0.17157125, -0.20421816, -422805.72, 296119.75, 0.0, 9.999668, 10.002013 
2.6005238e+3, 2.3663618e+2, -800368.25, -601822.06, -74843.336, -0.36758718, -0.047860734, -576770.25, 44179.1, 0.0, 9.998393, 10.00093 
2.6001474e+3, 2.4662894e+2, -744179.94, -716683.6, -42718.973, -0.31572136, -0.0385407, -685555.06, -162537.22, 0.0, 9.99895, 9.9991865 
2.599772e+3, 2.5661904e+2, -567176.44, -712419.4, -44141.89, -0.14770591, -0.30047947, -554813.3, -129699.56, 0.0, 10.0000305, 9.998053 
2.5993946e+3, 2.6660958e+2, -568314.9, -899932.56, -43515.797, -0.16858172, -0.1972375, -562699.7, -235487.4, 0.0, 10.00045, 9.995848 
2.5990158e+3, 2.7659994e+2, -572549.4, -873148.3, -34271.01, -0.2671489, -0.10446431, -568691.7, -339375.44, 0.0, 9.999801, 9.995705 
2.5986367e+3, 2.8659192e+2, -266657.78, -260694.27, -38794.92, -0.46149835, 0.039424792, -224766.69, -93371.3, 0.0, 9.99944, 9.999379 
2.598256e+3, 2.9658473e+2, -356285.3, -383028.97, -64510.457, -0.78146714, 0.015792968, -303775.4, -270313.63, 0.0, 9.998685, 9.99826 
2.597881e+3, 3.0657473e+2, -201061.48, -351027.22, -149675.97, -0.3358333, -0.033834446, -108636.695, -108636.695, 0.0, 9.999817, 9.997568 
2.5975078e+3, 3.1656304e+2, 167809.28, 481264.72, 205841.94, 0.28358087, -0.35263956, 583254.0, 583254.0, 0.0, 9.999428, 10.003497 
2.6146716e+3, 1.2709711e+2, -1427106.4, -1784241.6, 98996.29, -0.21447262, 0.26714018, -1401500.9, 292958.38, 0.14988421, 10.003237, 9.997862 
2.6143017e+3, 1.3708667e+2, -1033317.5, -1623553.9, 63165.992, 0.19418316, 0.07327351, -1026633.3, 569924.75, 0.09979623, 10.005774, 9.997112 
2.6139218e+3, 1.4707775e+2, -1073704.0, -1394798.0, -137777.27, 0.08789192, 0.09293116, -1022690.3, 475953.75, 0.05285716, 10.003671, 9.998992 
2.6135385e+3, 1.5706915e+2, -1545101.5, -1687673.5, -71710.21, -0.1634311, -0.0043802536, -1515273.5, -114545.266, 0.019694533, 9.999977, 9.998114 
2.6131603e+3, 1.6706231e+2, -1277891.1, -1324015.8, 2869.726, -0.24289836, 0.13741322, -1277713.3, 25082.703, 0.004163879, 10.000398, 9.999695 
2.6127845e+3, 1.770562e+2, -927438.0, -1170555.5, -102007.6, -0.26310307, 0.20801228, -890308.1, 314548.3, 0.00030229846, 10.002376, 9.999157 
2.612407e+3, 1.8704808e+2, -803093.2, -951835.06, -109985.58, -0.28403947, 0.13522789, -744694.2, 362237.16, 0.0000010444409, 10.002113, 10.000094 
2.6120287e+3, 1.970387e+2, -994663.25, -1116283.1, 24911.295, -0.34051925, -0.12820365, -989758.5, 19258.857, 0.0, 10.000566, 9.999081 
2.6116526e+3, 2.0703074e+2, -898343.0, -992029.0, 31498.678, -0.20955738, -0.10826359, -888737.5, 22356.768, 0.0, 10.000531, 9.999229 
2.611277e+3, 2.1702307e+2, -741274.56, -904563.0, 4832.8726, -0.005728022, -0.1210246, -741131.6, 72037.766, 0.0, 10.001054, 9.998935 
2.610897e+3, 2.2701629e+2, -581353.5, -545155.25, -92474.34, -0.13674377, -0.08999338, -469025.47, 246206.34, 0.0, 10.000504, 10.000989 
2.610516e+3, 2.3700996e+2, -728132.7, -688466.2, -120727.96, -0.41210818, -0.13932563, -585953.2, 31334.877, 0.0, 9.999276, 9.999955 
2.6101395e+3, 2.4700245e+2, -704642.0, -729198.2, -94834.98, -0.3533465, -0.10918014, -621293.6, -101932.055, 0.0, 9.999299, 9.998948 
2.6097652e+3, 2.5699398e+2, -550934.9, -714285.9, -116993.695, -0.16207498, -0.17850976, -489927.47, -68480.36, 0.0, 10.000063, 9.998061 
2.609388e+3, 2.669855e+2, -373881.28, -586064.6, -100633.516, -0.1913865, -0.108638264, -333745.22, -10212.234, 0.0, 10.000746, 9.997889 
2.6090094e+3, 2.7697673e+2, -225946.72, -520528.75, -6368.3823, -0.3015096, -0.08552513, -225809.11, -187.21404, 0.0, 10.001253, 9.997457 
2.608631e+3, 2.8696805e+2, -92905.85, -196256.38, -30733.336, -0.38095415, -0.084268995, -84457.32, 43248.23, 0.0, 10.000644, 9.999262 
2.6082507e+3, 2.9695973e+2, -222515.34, -341605.2, -45616.89, -0.5300024, -0.15592168, -207050.28, -177267.58, 0.0, 9.999608, 9.998124 
2.607874e+3, 3.069517e+2, -9714.264, -285539.03, -57741.945, -0.39825585, -0.0022735656, 1885.7518, 1885.7518, 0.0, 10.00108, 9.997455 
2.6074994e+3, 3.169413e+2, 508479.4, 334493.1, -174078.98, -0.039782736, -0.15624648, 616091.75, 616091.75, 0.0, 10.002883, 10.000847 
2.6246676e+3, 1.2747195e+2, -1457955.1, -1644161.9, 94690.94, -0.23856306, 0.19453701, -1418263.1, 272524.1, 0.13183987, 10.0022, 9.999333 
2.624301e+3, 1.3746318e+2, -1460407.6, -1738198.5, 77780.13, 0.40306008, 0.048328325, -1440112.3, 152753.27, 0.08692974, 10.001979, 9.998165 
2.6239195e+3, 1.47455e+2, -1202224.9, -1494216.3, -181009.67, 0.2570979, 0.1130114, -1115671.1, 379274.4, 0.045284748, 10.002764, 9.998788 
2.6235327e+3, 1.5744676e+2, -1090009.1, -1505298.8, -171512.92, -0.1680052, 0.07934503, -1028334.3, 368694.47, 0.01638905, 10.003242, 9.997837 
2.623154e+3, 1.6743913e+2, -1106274.9, -1395895.0, 73277.836, -0.326307, 0.22507337, -1088790.1, 210316.84, 0.0032885466, 10.00225, 9.998315 
2.6227784e+3, 1.7743154e+2, -1217421.6, -1406986.1, 35552.668, -0.35576302, 0.29589492, -1210973.1, -9788.023, 0.00021471751, 10.000779, 9.998327 
2.6224017e+3, 1.8742265e+2, -875576.94, -794315.25, -91754.01, -0.27599436, 0.080204755, -734598.4, 368664.25, 0.00000047553752, 10.000761, 10.00184 
2.6220244e+3, 1.9741333e+2, -940615.44, -959915.3, -125648.86, -0.13224548, -0.36087283, -824246.5, 181092.55, 0.0, 10.000407, 10.000233 
2.6216477e+3, 2.0740698e+2, -960475.6, -1068023.5, -62132.344, -0.028941672, -0.2089261, -932078.56, -24677.3, 0.0, 10.000318, 9.998808 
2.6212713e+3, 2.174016e+2, -1005228.4, -1114400.6, -73390.375, 0.06754027, 0.03097471, -968349.75, -158889.44, 0.0, 9.999638, 9.99818 
2.6208907e+3, 2.2739345e+2, -786140.0, -756943.0, -133382.19, -0.0948617, 0.015715415, -637362.75, 74175.18, 0.0, 9.999684, 9.999898 
2.6205087e+3, 2.373841e+2, -896493.75, -910343.44, -121949.05, -0.34633663, -0.24050301, -781273.1, -167649.1, 0.0, 9.998847, 9.998611 
2.620132e+3, 2.473764e+2, -751472.4, -796083.94, 12928.436, -0.32479024, -0.1379764, -747996.56, -232294.78, 0.0, 9.999267, 9.998461 
2.619758e+3, 2.573691e+2, -695673.5, -808048.1, -6489.0547, -0.17213091, -0.049638394, -695300.0, -277521.16, 0.0, 9.999279, 9.997766 
2.6193812e+3, 2.6736185e+2, -382692.34, -336213.56, -10118.665, -0.22821464, 0.026184918, -334106.22, -14256.989, 0.0, 9.999642, 10.000098 
2.619003e+3, 2.7735427e+2, -432101.28, -470419.78, 14370.119, -0.35551426, -0.07595626, -427311.06, -205391.36, 0.0, 9.99928, 9.998719 
2.618625e+3, 2.873445e+2, -264205.6, -309717.03, -50592.637, -0.30033812, -0.20864439, -231486.67, -107475.87, 0.0, 9.999728, 9.998874 
2.618247e+3, 2.9733375e+2, -337944.5, -505026.13, -18319.648, -0.19065037, -0.5041436, -335959.44, -309848.75, 0.0, 9.999386, 9.99709 
2.6178676e+3, 3.073293e+2, -175035.48, -407047.47, 40944.1, -0.43361464, 0.088422164, -168021.92, -168021.92, 0.0, 10.000247, 9.996986 
2.617488e+3, 3.173145e+2, -5013.592, -166729.3, -80801.625, -0.7816227, -0.4666943, 28439.072, 28439.072, 0.0, 10.000672, 9.99843 
2.6346645e+3, 1.2784585e+2, -1396207.9, -1335681.9, 59063.71, -0.1389967, 0.12704366, -1299579.4, 387538.75, 0.11528824, 10.001389, 10.002076 
2.6342937e+3, 1.378393e+2, -1461487.0, -1582275.3, 98601.33, 0.13988484, -0.07771054, -1406253.9, 182914.64, 0.07524984, 10.00129, 9.999581 
2.6339135e+3, 1.4783135e+2, -1328593.9, -1673675.9, -124627.7, 0.05008242, 0.03387138, -1288291.1, 202958.47, 0.038529176, 10.002413, 9.997679 
2.6335302e+3, 1.578226e+2, -1049358.9, -1534196.8, -120494.03, -0.13735728, 0.04240703, -1021064.44, 372279.03, 0.013527696, 10.003769, 9.997362 
2.633151e+3, 1.6781455e+2, -961493.7, -1198163.8, 5645.512, -0.18113531, 0.091588, -961359.1, 334062.72, 0.0025719018, 10.002699, 9.999459 
2.6327738e+3, 1.7780674e+2, -1246859.9, -1388009.5, 51660.637, -0.20195764, 0.04279307, -1229972.5, -32476.85, 0.00015054179, 10.000413, 9.998634 
2.6323962e+3, 1.877987e+2, -1076346.1, -1149816.6, -60054.547, -0.18878174, 0.046302762, -1042682.3, 56891.81, 0.0000001940375, 10.000489, 9.99953 
2.632018e+3, 1.9779041e+2, -962732.8, -1124548.9, -135708.06, -0.19529217, -0.06797953, -885644.7, 116009.945, 0.0, 10.000857, 9.998902 
2.6316398e+3, 2.0778362e+2, -860713.2, -897238.2, -134146.36, -0.17729829, 0.012694753, -743591.94, 160128.94, 0.0, 10.000486, 9.999886 
2.631262e+3, 2.1777734e+2, -882769.56, -940973.4, -89271.56, -0.17783892, 0.06937582, -817976.1, -12193.493, 0.0, 9.9999275, 9.99924 
2.6308832e+3, 2.2776973e+2, -693327.4, -662884.56, -124074.84, -0.14756568, 0.033864427, -553100.94, 154751.81, 0.0, 10.000057, 10.000383 
2.6305038e+3, 2.3776154e+2, -622426.4, -697846.56, -56929.168, -0.15004857, -0.13021445, -591850.44, 18076.445, 0.0, 10.000293, 9.999397 
2.630127e+3, 2.4775378e+2, -530979.5, -591097.44, 85355.97, -0.14746298, -0.12188764, -470544.34, 41457.816, 0.0, 10.000283, 9.9994 
2.6297516e+3, 2.5774622e+2, -507187.34, -599572.06, 116151.61, -0.143198, -0.12800236, -428379.97, -14302.025, 0.0, 9.999979, 9.998872 
2.6293746e+3, 2.6773962e+2, -426883.7, -357758.13, 48005.25, -0.14628133, -0.025208963, -333167.78, -17024.658, 0.0, 9.999238, 10.000192 
2.628997e+3, 2.7773318e+2, -527032.9, -467331.78, 41068.957, -0.15842573, 0.0090525495, -446411.13, -228205.44, 0.0, 9.998277, 9.999268 
2.6286188e+3, 2.8772366e+2, -221201.14, -226462.44, 36404.867, -0.21343282, -0.16149369, -187332.0, -67039.46, 0.0, 9.999616, 9.999549 
2.62824e+3, 2.9771298e+2, 34165.547, -265966.16, 77801.37, -0.2855766, -0.4775038, 53134.645, 75523.67, 0.0, 10.001528, 9.997749 
2.6278618e+3, 3.0770746e+2, -232107.9, -583653.06, 48942.31, -0.35600606, 0.05675448, -225421.31, -225421.31, 0.0, 10.000359, 9.995806 
2.6274887e+3, 3.1769523e+2, -73540.55, 274762.0, -66880.22, 0.05581058, -0.096324205, 287162.7, 287162.7, 0.0, 9.997901, 10.002907 
2.6446617e+3, 1.2822074e+2, -1223010.1, -1291119.0, 41853.938, 0.014893299, 0.046108484, -1203106.6, 480331.38, 0.10017185, 10.002707, 10.001822 
2.6442868e+3, 1.3821352e+2, -1544568.5, -1612103.6, -129850.15, 0.06630178, -0.19360122, -1444167.1, 141329.9, 0.06469282, 10.0006, 9.99973 
2.6439074e+3, 1.4820635e+2, -1448460.9, -1731472.4, -210149.81, -0.022787584, -0.04027386, -1336615.4, 150956.42, 0.032530583, 10.001548, 9.997697 
2.6435268e+3, 1.5819839e+2, -1150464.0, -1561003.9, -174913.44, -0.10023137, 0.040593863, -1086048.0, 303611.28, 0.011066901, 10.002948, 9.997576 
2.6431477e+3, 1.6819006e+2, -955688.7, -1106902.3, -119557.56, -0.06900066, -0.015086109, -889837.4, 401899.34, 0.0019930317, 10.002326, 10.000267 
2.642769e+3, 1.7818178e+2, -1251038.4, -1401187.4, -98704.13, -0.02357519, -0.1761046, -1202102.1, -8291.599, 0.00010503105, 10.000397, 9.998581 
2.6423904e+3, 1.8817483e+2, -1178767.6, -1322471.5, -25161.824, -0.099755935, 0.005784314, -1174489.4, -78604.61, 0.00000008640195, 10.000446, 9.998292 
2.6420116e+3, 1.9816805e+2, -1064818.4, -1276793.3, -34923.125, -0.1962235, 0.16630888, -1059213.0, -61251.89, 0.0, 10.000689, 9.99791 
2.641633e+3, 2.0816056e+2, -673860.1, -736676.6, -45366.848, -0.25279865, 0.17709045, -650090.2, 249943.39, 0.0, 10.001469, 10.000528 
2.6412544e+3, 2.18153e+2, -689126.3, -825790.2, -84874.664, -0.26222825, 0.045462586, -648495.1, 153608.14, 0.0, 10.001171, 9.999457 
2.6408765e+3, 2.2814603e+2, -547374.2, -571730.25, -137497.14, -0.121362165, 0.053513784, -421516.8, 282649.75, 0.0, 10.000999, 10.000531 
2.640499e+3, 2.381391e+2, -706093.8, -733269.25, -126669.3, 0.067313485, -0.024341658, -592285.56, 13943.191, 0.0, 9.99974, 9.999421 
2.640122e+3, 2.4813136e+2, -569742.25, -504478.28, -15055.794, 0.022025155, -0.08307391, -501172.47, 7127.9243, 0.0, 9.999622, 10.000293 
2.639745e+3, 2.581233e+2, -711679.3, -678985.7, -23859.002, -0.07583958, -0.24672148, -666410.7, -256034.63, 0.0, 9.99856, 9.999013 
2.6393676e+3, 2.6811734e+2, -526697.0, -443007.7, -94074.055, -0.023347849, -0.07569721, -381891.66, -69454.21, 0.0, 9.998824, 9.999762 
2.6389906e+3, 2.781117e+2, -609763.9, -569947.8, -66445.8, 0.07174135, 0.052431367, -520491.78, -305995.47, 0.0, 9.998088, 9.998644 
2.6386118e+3, 2.8810313e+2, -274103.63, -158511.27, 13213.73, -0.1507194, -0.058533017, -157020.0, -40447.438, 0.0, 9.998946, 10.000298 
2.6382324e+3, 2.9809365e+2, -313537.53, -456101.63, 3802.1038, -0.4865416, -0.34889683, -313436.22, -294781.56, 0.0, 9.999348, 9.997475 
2.637855e+3, 3.0808505e+2, -477748.22, -827333.8, -76333.89, -0.31935233, -0.056672886, -461807.2, -461807.2, 0.0, 9.999353, 9.994532 
2.6374784e+3, 3.1807208e+2, -225677.08, 132980.94, 211925.81, -0.0830098, -0.23312478, 231269.38, 231269.38, 0.0, 9.99735, 10.002122 
2.6546577e+3, 1.2859632e+2, -1570492.8, -1806120.8, -58228.418, -0.021229753, 0.03557136, -1556888.8, 122861.75, 0.086430125, 10.001807, 9.998358 
2.654281e+3, 1.385847e+2, -1727891.4, -1909042.0, -141328.5, 0.075584464, -0.346338, -1650604.8, -68740.08, 0.055199515, 10.000222, 9.997843 
2.6539013e+3, 1.4857906e+2, -1362995.0, -1480422.1, -134461.25, -0.1059862, -0.10608264, -1274987.4, 208936.47, 0.027235242, 10.001275, 9.999536 
2.6535213e+3, 1.5857396e+2, -1108449.9, -1403445.5, -108880.58, -0.3214867, 0.09383142, -1072615.9, 313362.16, 0.0089680515, 10.002649, 9.998795 
2.6531416e+3, 1.6856551e+2, -981076.1, -1099261.8, -171262.03, -0.23059873, -0.027358374, -858998.75, 429056.78, 0.0015322798, 10.002135, 10.000378 
2.6527622e+3, 1.7855632e+2, -1176862.5, -1289526.0, -118364.555, -0.11843426, -0.29118958, -1102108.6, 88029.414, 0.00007382683, 10.000578, 9.999254 
2.6523834e+3, 1.8855079e+2, -1018816.2, -1061053.0, 17238.2, -0.18783373, -0.102688506, -1012674.0, 79521.61, 0.000000036839044, 10.000736, 9.999951 
2.6520053e+3, 1.9854581e+2, -918834.8, -1104501.0, 72975.66, -0.32194188, 0.100265004, -893585.56, 100664.81, 0.0, 10.001207, 9.998846 
2.6516286e+3, 2.0853736e+2, -609423.8, -817528.0, 41515.09, -0.23408012, 0.052490674, -601447.56, 294884.5, 0.0, 10.002384, 9.999524 
2.651252e+3, 2.1852821e+2, -433759.34, -811861.8, -35010.113, -0.13957731, -0.12154339, -430544.94, 367873.72, 0.0, 10.00333, 9.998521 
2.6508722e+3, 2.285208e+2, -437177.97, -684877.3, -192868.72, -0.102958865, -0.03318628, -331817.94, 368673.78, 0.0, 10.002412, 9.999095 
2.6504916e+3, 2.3851378e+2, -560624.7, -746745.9, -188618.58, -0.08721812, 0.025385493, -443358.75, 159202.3, 0.0, 10.000982, 9.998757 
2.6501137e+3, 2.4850562e+2, -520395.0, -492289.9, -117060.71, -0.094034895, -0.05742309, -388441.28, 116196.266, 0.0, 9.999926, 10.000271 
2.6497367e+3, 2.5849733e+2, -634953.6, -637460.94, -127409.35, -0.13167074, -0.22561125, -508791.75, -102076.92, 0.0, 9.998952, 9.999136 
2.6493588e+3, 2.684907e+2, -452022.22, -468762.34, -189162.5, -0.15948431, -0.10169538, -271044.7, 37736.39, 0.0, 9.99952, 9.999277 
2.6489812e+3, 2.7848455e+2, -252297.25, -361872.53, -193468.19, -0.13766567, 0.018860912, -106008.72, 104835.13, 0.0, 10.00026, 9.999057 
2.648604e+3, 2.8847662e+2, -179012.1, -96256.805, -166950.17, -0.18123122, -0.07939919, 34366.918, 147281.47, 0.0, 9.999378, 10.0006 
2.648225e+3, 2.984685e+2, -392022.63, -334983.8, -187376.14, -0.36734384, -0.26354593, -173969.13, -158984.03, 0.0, 9.997966, 9.999017 
2.6478466e+3, 3.0846077e+2, -425551.1, -456244.13, -149588.23, -0.3273584, -0.15749727, -290524.22, -290524.22, 0.0, 9.998087, 9.997748 
2.647467e+3, 3.1845242e+2, -74131.27, 258690.53, 304553.22, -0.3841747, -0.116981894, 439331.84, 439331.84, 0.0, 9.997939, 10.002766 
2.6646543e+3, 1.289725e+2, -1215463.3, -1736572.0, -89312.93, -0.00008738855, -0.002966653, -1200580.9, 475485.53, 0.07399981, 10.004828, 9.997363 
2.664276e+3, 1.3896166e+2, -1374551.4, -1773489.1, -23512.328, 0.14951345, -0.19406767, -1373170.4, 205006.8, 0.046711504, 10.002822, 9.997535 
2.6638964e+3, 1.4895551e+2, -1181830.5, -1262165.5, 56240.76, -0.053920552, -0.056247335, -1152886.1, 327350.84, 0.022592498, 10.001958, 10.000753 
2.6635167e+3, 1.5895042e+2, -1275894.8, -1420276.9, -21525.96, -0.27099863, 0.05620823, -1272753.8, 109531.555, 0.0071954923, 10.001178, 9.999424 
2.663136e+3, 1.6894199e+2, -1097190.3, -1219903.9, -140340.72, -0.24756455, -0.03758659, -1005379.94, 278984.03, 0.001170623, 10.001576, 9.999852 
2.6627558e+3, 1.7893295e+2, -1065261.1, -1241490.4, -136159.78, -0.13486308, -0.24397658, -991191.7, 195256.19, 0.00005271245, 10.001396, 9.999197 
2.662377e+3, 1.8892717e+2, -909820.56, -936463.75, -55378.145, -0.20165369, -0.13487867, -866184.25, 222321.16, 0.000000014947995, 10.001133, 10.00065 
2.6619995e+3, 1.989222e+2, -1064553.0, -1156877.1, -85073.26, -0.26543403, -0.003977261, -1013924.56, -23368.676, 0.0, 10.0001545, 9.999013 
2.661624e+3, 2.089137e+2, -869831.5, -971369.94, -12996.173, -0.15752812, -0.06431384, -868194.44, 24442.424, 0.0, 10.000815, 9.999166 
2.6612484e+3, 2.189042e+2, -902621.94, -1149452.9, -58000.46, -0.0020863442, -0.2388452, -889672.3, -94944.945, 0.0, 10.00071, 9.997423 
2.6608667e+3, 2.2889628e+2, -747686.5, -950271.56, -165979.72, -0.098813266, -0.09439494, -654532.5, 42276.94, 0.0, 10.000877, 9.997948 
2.660484e+3, 2.3888868e+2, -828923.8, -1008226.0, -112463.766, -0.21032631, 0.014236456, -774750.7, -175861.42, 0.0, 9.999815, 9.9974985 
2.6601058e+3, 2.4888025e+2, -458686.5, -512193.2, -52918.105, -0.19831854, -0.015679544, -426143.4, 74827.49, 0.0, 10.000642, 9.999769 
2.6597282e+3, 2.588716e+2, -533500.3, -681544.7, -90435.75, -0.18321678, -0.17234172, -490655.44, -87602.5, 0.0, 10.000169, 9.998227 
2.6593497e+3, 2.6886407e+2, -453694.9, -494093.9, -85138.6, -0.31989643, -0.088594906, -386392.4, -81266.33, 0.0, 9.99978, 9.998896 
2.6589715e+3, 2.788568e+2, -558499.6, -563620.44, -88963.484, -0.40914258, -0.049224313, -472059.72, -264862.84, 0.0, 9.998551, 9.998449 
2.6585957e+3, 2.8884926e+2, -322613.5, -127403.77, -123360.39, -0.22185315, -0.10418111, -67704.805, 41561.164, 0.0, 9.998402, 10.000768 
2.658218e+3, 2.9884204e+2, -490308.28, -267052.56, -139514.7, -0.17744134, -0.24080889, -200004.36, -188673.69, 0.0, 9.996968, 9.999918 
2.657837e+3, 3.0883628e+2, -209431.38, 121423.234, -132443.72, -0.38371345, -0.24585351, 167909.9, 167909.9, 0.0, 9.997666, 10.00184 
2.6574555e+3, 3.1882784e+2, -314861.9, 18496.316, 66547.25, -0.64911944, -0.5795945, 31289.941, 31289.941, 0.0, 9.997023, 10.001498 
2.674651e+3, 1.2934954e+2, -1213317.0, -1523579.5, -191161.83, -0.1724251, 0.04285413, -1122260.3, 550123.4, 0.062782034, 10.003983, 9.999256 
2.674272e+3, 1.3934541e+2, -1362664.8, -1649460.6, -36542.145, 0.08995472, 0.34125915, -1358081.9, 216341.94, 0.039146993, 10.002441, 9.998564 
2.6738927e+3, 1.493362e+2, -1204917.4, -1247197.3, 50572.56, 0.074739866, 0.12697531, -1171244.3, 305261.22, 0.018543638, 10.001746, 10.000921 
2.673514e+3, 1.5932663e+2, -1367660.8, -1525960.9, 11243.881, -0.0002287959, -0.20670937, -1366866.1, 11724.437, 0.005710664, 10.000819, 9.998866 
2.6731315e+3, 1.693198e+2, -1194782.9, -1406720.8, -92537.586, -0.171581, -0.032255065, -1160065.5, 120594.086, 0.0008890518, 10.001528, 9.99857 
2.6727492e+3, 1.7931297e+2, -1083040.1, -1406324.0, -96375.91, -0.3419832, 0.11702888, -1056489.6, 126240.56, 0.000037964888, 10.001944, 9.9977865 
2.672372e+3, 1.8930319e+2, -990467.06, -1171045.9, -112198.79, -0.19992758, -0.0061901924, -936740.0, 148087.81, 0.0000000057994387, 10.001429, 9.9988985 
2.6719955e+3, 1.9929373e+2, -1024742.6, -1113623.8, -142397.33, -0.06429237, -0.18510117, -920012.25, 66908.74, 0.0, 10.000285, 9.999253 
2.6716176e+3, 2.092884e+2, -750813.25, -642854.4, -30323.867, -0.14819705, -0.113306895, -634920.06, 254047.38, 0.0, 10.000435, 10.001626 
2.6712397e+3, 2.1928309e+2, -748336.9, -838439.4, -32088.041, -0.28020337, -0.09116122, -738077.56, 52935.63, 0.0, 10.000663, 9.999599 
2.6708585e+3, 2.2927472e+2, -700103.3, -805952.5, -105414.055, -0.28645644, -0.13023344, -635073.94, 58021.31, 0.0, 10.000609, 9.999107 
2.6704767e+3, 2.39266e+2, -682243.1, -920507.8, 43244.375, -0.28765365, -0.19447626, -674637.25, -79454.1, 0.0, 10.00065, 9.997724 
2.6701003e+3, 2.4925813e+2, -329200.78, -656383.3, 107208.59, -0.23770174, -0.037204523, -297201.2, 200065.52, 0.0, 10.002341, 9.997995 
2.669724e+3, 2.5925034e+2, -10535.487, -439965.53, -12460.54, -0.22843903, 0.0654914, -10174.23, 389174.28, 0.0, 10.003691, 9.9982195 
2.669344e+3, 2.692419e+2, -140699.34, -207761.47, -61775.246, -0.28301087, -0.022412624, -103941.625, 197484.06, 0.0, 10.001261, 10.000188 
2.668964e+3, 2.792335e+2, -510498.25, -409925.9, 27932.832, -0.3090388, -0.1825666, -402688.7, -199187.27, 0.0, 9.998223, 9.999671 
2.6685873e+3, 2.8922626e+2, -410814.75, -179097.39, 46906.875, -0.19949223, -0.22276449, -169962.11, -64393.316, 0.0, 9.997791, 10.000733 
2.6682088e+3, 2.9921955e+2, -360958.78, -231747.02, 20655.512, -0.20435004, -0.25101322, -228525.4, -220893.6, 0.0, 9.997855, 9.999762 
2.6678285e+3, 3.0921388e+2, -171407.67, -23169.67, -113174.95, -0.3229951, -0.12607263, 37996.938, 37996.938, 0.0, 9.998524, 10.000487 
2.6674482e+3, 3.19205e+2, 43022.023, 16578.139, -42156.707, -0.6064418, -0.34728143, 73981.62, 73981.62, 0.0, 9.999982, 10.000123 
2.6846483e+3, 1.2972766e+2, -1460933.6, -1513556.5, -60351.887, -0.027984433, 0.015736338, -1421407.1, 247271.89, 0.05267765, 10.001327, 10.000712 
2.6842672e+3, 1.3972601e+2, -1168629.6, -1486377.9, -1071.2601, 0.039300617, 0.45701554, -1168626.1, 402064.53, 0.03242507, 10.003439, 9.999241 
2.6838884e+3, 1.4971541e+2, -1037597.25, -1263311.0, 20189.06, 0.11074286, 0.14050734, -1035805.6, 436979.5, 0.015032841, 10.003277, 10.000066 
2.6835102e+3, 1.5970367e+2, -1181978.3, -1509384.8, -96463.37, 0.21238825, -0.3325182, -1155671.1, 219220.03, 0.0044764117, 10.002412, 9.998206 
2.6831266e+3, 1.6969748e+2, -1152232.4, -1446133.5, -106833.66, -0.09479008, -0.043112405, -1117502.3, 159455.22, 0.00066900725, 10.002113, 9.998013 
2.682743e+3, 1.7969166e+2, -1224080.6, -1582093.8, -72110.77, -0.39760962, 0.2778994, -1210101.9, -31079.412, 0.000027210404, 10.001455, 9.996825 
2.6823667e+3, 1.896798e+2, -1051236.3, -1344331.6, -36591.906, -0.15774111, 0.072774194, -1046736.94, 34405.133, 0.000000001728097, 10.001658, 9.997602 
2.681991e+3, 1.9966811e+2, -950902.3, -1073078.3, -33902.406, 0.14691186, -0.22010215, -942125.3, 41132.54, 0.0, 10.000806, 9.999284 
2.6816112e+3, 2.0966469e+2, -752132.3, -445212.88, 17235.879, -0.12367143, -0.08470771, -444247.97, 441035.53, 0.0, 9.999581, 10.003394 
2.681231e+3, 2.196621e+2, -1107600.8, -882155.1, -72909.83, -0.43114203, 0.048189137, -860630.9, -73330.85, 0.0, 9.997681, 10.00075 
2.6808506e+3, 2.2965343e+2, -740238.6, -698074.0, -146359.55, -0.38406274, -0.14936483, -571286.2, 118093.805, 0.0, 9.999813, 10.000221 
2.6804706e+3, 2.39644e+2, -729367.7, -1004934.94, 1238.0538, -0.26125485, -0.37146288, -729362.1, -137891.78, 0.0, 10.000683, 9.99712 
2.680095e+3, 2.4963687e+2, -699213.2, -994977.94, 151244.89, -0.24162912, -0.033689216, -635567.25, -142013.67, 0.0, 10.000636, 9.996393 
2.6797196e+3, 2.5962996e+2, -702927.94, -848512.4, 10713.083, -0.23205678, 0.27152586, -702143.8, -306509.84, 0.0, 9.999378, 9.997454 
2.6793388e+3, 2.6962093e+2, -325363.03, -155726.6, -141777.8, -0.1915416, 0.04593118, -75332.61, 222380.36, 0.0, 9.999445, 10.001391 
2.6789573e+3, 2.7961156e+2, -554455.9, -425144.4, -47564.285, -0.12206961, -0.32031852, -409533.56, -209741.88, 0.0, 9.997959, 9.999701 
2.6785782e+3, 2.8960457e+2, -374802.38, -191832.64, 11298.084, -0.18072392, -0.32742935, -191137.64, -89279.63, 0.0, 9.998218, 10.000417 
2.6781985e+3, 2.995983e+2, -567798.94, -554300.8, -1720.1166, -0.30030692, -0.26601076, -554085.06, -550165.3, 0.0, 9.9975, 9.997707 
2.6778218e+3, 3.095923e+2, -344250.06, -461280.38, -75527.04, -0.16715221, 0.10667136, -307222.78, -307222.78, 0.0, 9.999012, 9.997172 
2.6774424e+3, 3.195816e+2, -261073.1, -274109.53, 237262.77, -0.5501202, -0.0231934, -30239.043, -30239.043, 0.0, 9.998781, 9.998638 
2.6946446e+3, 1.3010606e+2, -1500667.5, -1400424.9, 12644.404, 0.15839314, -0.10717441, -1398854.5, 266104.03, 0.0436191, 10.000597, 10.001763 
2.6942608e+3, 1.4010192e+2, -1286807.0, -1616894.0, 66976.74, -0.29459015, -0.013821878, -1273734.8, 293254.63, 0.026486209, 10.0029745, 9.998516 
2.6938826e+3, 1.5009247e+2, -1208998.5, -1592755.0, 13096.985, -0.14734752, -0.030447194, -1208552.1, 260530.52, 0.012009438, 10.003181, 9.997819 
2.693505e+3, 1.6008213e+2, -1216137.6, -1608137.4, -109859.68, 0.06692575, -0.17233787, -1187448.6, 183736.7, 0.003455713, 10.002544, 9.997451 
2.6931217e+3, 1.7007393e+2, -1066581.5, -1303854.8, -114072.97, -0.12169312, -0.14414263, -1020635.94, 252631.88, 0.00049606664, 10.002253, 9.998908 
2.6927385e+3, 1.8006638e+2, -1158571.3, -1491128.3, -26708.598, -0.3852101, -0.07198908, -1156439.9, 18905.193, 0.00001910138, 10.001624, 9.997365 
2.692361e+3, 1.9005814e+2, -969231.2, -1264098.9, 26646.04, -0.22787243, 0.043369267, -966842.6, 110589.914, 0.0000000002885943, 10.002019, 9.997973 
2.691984e+3, 2.0005009e+2, -810088.7, -1012078.44, 15589.846, -0.06457128, 0.09867696, -808892.5, 170624.17, 0.0, 10.001747, 9.999247 
2.691603e+3, 2.1004426e+2, -829163.3, -593941.75, -28090.12, -0.19754967, 0.06791205, -590633.75, 290935.53, 0.0, 9.999478, 10.002436 
2.691222e+3, 2.2003883e+2, -1155969.5, -929112.3, -52111.895, -0.37792793, 0.009950626, -917714.25, -134098.23, 0.0, 9.99739, 10.000565 
2.6908442e+3, 2.3003103e+2, -681683.8, -644392.0, -50579.902, -0.3050233, -0.11181364, -609130.6, 76554.555, 0.0, 10.000056, 10.000494 
2.6904666e+3, 2.40023e+2, -368977.94, -694044.94, -21031.066, -0.22121108, -0.23252916, -367622.9, 220135.89, 0.0, 10.002489, 9.998392 
2.6900887e+3, 2.5001544e+2, -731375.56, -869593.3, 56772.332, -0.20867416, -0.06865052, -711046.56, -221204.97, 0.0, 9.999717, 9.997748 
2.6897103e+3, 2.6000792e+2, -997593.6, -881550.1, 56978.492, -0.22801301, 0.08400079, -858251.06, -466326.9, 0.0, 9.996755, 9.998518 
2.68933e+3, 2.700004e+2, -490591.25, -289309.4, -39725.723, -0.1961278, 0.020455493, -281752.72, 12239.805, 0.0, 9.99842, 10.001032 
2.6889497e+3, 2.7999273e+2, -222589.8, -304327.22, -9192.144, -0.14566357, -0.114160486, -221568.8, -25507.984, 0.0, 10.000265, 9.999451 
2.688571e+3, 2.8998506e+2, -119390.805, -173208.66, -8392.5625, -0.15339191, -0.12111587, -118112.41, -19976.54, 0.0, 10.000286, 9.999585 
2.6881918e+3, 2.999777e+2, -162223.53, -363758.3, -1208.258, -0.21500906, -0.08841137, -162216.28, -162007.42, 0.0, 10.000159, 9.99775 
2.687815e+3, 3.0996975e+2, 71656.97, -236985.63, 70593.69, -0.18870436, 0.068649255, 87036.97, 87036.97, 0.0, 10.001609, 9.997524 
2.6874354e+3, 3.1995848e+2, -67930.94, -107998.2, 194741.45, -0.53079236, -0.11650556, 107804.64, 107804.64, 0.0, 9.999563, 9.999443 
2.7046403e+3, 1.3048524e+2, -1108298.6, -1268383.5, 87341.66, 0.18160698, -0.26445395, -1069870.1, 591361.0, 0.03554995, 10.003569, 10.001282 
2.7042574e+3, 1.4047873e+2, -1243882.6, -1681758.9, -15718.559, -0.24566892, -0.31555015, -1243319.1, 319965.75, 0.021269772, 10.003537, 9.997853 
2.7038783e+3, 1.5047045e+2, -1302699.3, -1739937.1, -3684.3923, -0.13752411, -0.14249508, -1302668.3, 162705.89, 0.009415533, 10.002903, 9.99699 
2.7035004e+3, 1.6046152e+2, -1307271.9, -1670868.3, -42323.332, 0.066293344, -0.056704216, -1302410.4, 65059.656, 0.0026134893, 10.001952, 9.997329 
2.7031168e+3, 1.7045212e+2, -1031973.56, -1236706.8, -67172.36, -0.13267678, -0.17911571, -1011902.25, 257659.77, 0.0003600524, 10.002226, 9.9993925 
2.7027336e+3, 1.8044336e+2, -1098547.8, -1397934.9, -5481.112, -0.3210539, -0.2712964, -1098447.4, 73200.48, 0.000012952271, 10.001778, 9.997923 
2.7023557e+3, 1.9043756e+2, -979114.1, -1186989.6, 79901.71, -0.22008897, 0.017025953, -951951.4, 121760.45, 0.000000000007316074, 10.001663, 9.998646 
2.7019778e+3, 2.0043181e+2, -1010156.7, -1177097.4, 34477.707, -0.10353534, 0.27504924, -1003316.4, -27541.162, 0.0, 10.000696, 9.998633 
2.7015954e+3, 2.1042399e+2, -879331.1, -784261.94, -81257.16, -0.19069155, 0.16856489, -737656.94, 140195.31, 0.0, 9.999877, 10.000934 
2.7012143e+3, 2.2041625e+2, -1113994.4, -1003792.9, -24481.818, -0.24819812, 0.009211331, -998598.94, -218673.25, 0.0, 9.998166, 9.999662 
2.700838e+3, 2.304093e+2, -757493.3, -635517.3, 91619.89, -0.18688536, -0.043101013, -586442.9, 95541.03, 0.0, 9.999454, 10.000773 
2.700462e+3, 2.4040242e+2, -738616.4, -832850.75, 17155.826, -0.11291254, -0.08566105, -735590.25, -151547.22, 0.0, 9.999859, 9.998693 
2.7000818e+3, 2.5039408e+2, -634185.5, -645057.56, -44560.875, -0.13809158, -0.1283915, -594730.3, -108602.81, 0.0, 9.999682, 9.999269 
2.699701e+3, 2.603861e+2, -864895.56, -814943.56, 26456.293, -0.162672, -0.15602002, -803536.4, -415326.72, 0.0, 9.997789, 9.998442 
2.6993215e+3, 2.703805e+2, -464904.28, -343378.78, 32127.445, -0.20906882, 0.012098945, -335408.1, -45142.234, 0.0, 9.999009, 10.000307 
2.698942e+3, 2.8037477e+2, -470227.9, -548364.06, 31108.39, -0.22022547, 0.13466999, -459355.56, -267032.7, 0.0, 9.999264, 9.99822 
2.6985648e+3, 2.9036632e+2, -277912.47, -344197.6, -874.6613, -0.103202574, 0.1522055, -277900.94, -183493.13, 0.0, 9.999771, 9.998595 
2.6981863e+3, 3.003575e+2, -368423.06, -478471.34, 65653.66, -0.09393473, 0.11133109, -337784.72, -337784.72, 0.0, 9.998953, 9.997524 
2.6978076e+3, 3.1034723e+2, -58307.473, -115983.46, 162615.11, -0.40715736, -0.09099628, 78006.9, 78006.9, 0.0, 10.000037, 9.999072 
2.697429e+3, 3.2033575e+2, -265160.9, -68368.516, -238768.89, -0.433043, -0.46702442, 91483.984, 91483.984, 0.0, 9.997844, 10.00052 
2.714635e+3, 1.3086507e+2, -1357674.5, -1614208.8, 56266.695, -0.073446, -0.30049425, -1345876.0, 311622.7, 0.028414978, 10.0029, 9.999104 
2.7142578e+3, 1.4085622e+2, -1343968.1, -1796668.5, -17648.918, 0.10894013, -0.43434626, -1343281.1, 216300.13, 0.016713178, 10.0031805, 9.99721 
2.7138764e+3, 1.5084927e+2, -1262027.4, -1592003.3, -17230.363, 0.069729514, -0.20240813, -1261130.0, 200530.86, 0.0071980846, 10.002686, 9.998073 
2.713495e+3, 1.6084212e+2, -1329198.3, -1647111.3, -14102.141, -0.017519772, -0.029958552, -1328574.0, 35168.223, 0.0019202423, 10.001687, 9.997606 
2.713111e+3, 1.7083368e+2, -1056633.1, -1282686.3, -19875.875, -0.24648957, -0.0336708, -1054898.8, 210926.9, 0.00025324232, 10.002223, 9.999078 
2.7127284e+3, 1.8082532e+2, -1007966.06, -1277067.4, 16053.137, -0.43069535, -0.07092752, -1007011.8, 160895.64, 0.000008369746, 10.002048, 9.998628 
2.7123514e+3, 1.908178e+2, -901432.3, -1005746.0, 93433.86, -0.13289805, -0.07088168, -846583.44, 223398.13, 0.0, 10.001569, 9.999945 
2.7119735e+3, 2.0081069e+2, -1026593.44, -1229242.1, 59974.832, 0.07387702, -0.02197033, -1010173.94, -38120.156, 0.0, 10.000741, 9.998264 
2.7115896e+3, 2.1080342e+2, -928514.56, -1054469.0, -61937.914, -0.11160063, 0.1138669, -903160.4, -29027.117, 0.0, 10.000557, 9.998787 
2.7112067e+3, 2.2079623e+2, -810260.0, -839882.6, 6108.1333, -0.30156246, 0.17766508, -809049.94, -32841.957, 0.0, 10.000107, 9.999873 
2.7108312e+3, 2.3078895e+2, -636876.1, -456358.47, 139904.81, -0.16951913, 0.008361127, -380124.03, 298141.66, 0.0, 9.999693, 10.00194 
2.710456e+3, 2.4078164e+2, -705371.94, -702666.75, 87802.71, -0.05928394, -0.15589778, -616206.25, -35881.586, 0.0, 9.999505, 9.999769 
2.7100754e+3, 2.5077355e+2, -479197.88, -524910.3, 14638.195, -0.093544826, -0.21966244, -474912.2, 7491.2275, 0.0, 10.000497, 9.999726 
2.7096945e+3, 2.6076573e+2, -340023.3, -522257.16, 45861.89, -0.15897223, -0.24911116, -329132.38, 55348.992, 0.0, 10.001136, 9.9988365 
2.7093145e+3, 2.7075905e+2, -246650.13, -315398.7, 35682.6, -0.25121307, -0.14798139, -231478.08, 55070.844, 0.0, 10.0007515, 9.999688 
2.7089348e+3, 2.8075236e+2, -319214.13, -460259.28, 29550.012, -0.27298465, -0.057857577, -313273.38, -124656.125, 0.0, 10.000165, 9.998379 
2.7085584e+3, 2.907442e+2, -235215.84, -326270.94, 22528.375, -0.015491117, -0.007969503, -229946.89, -139243.84, 0.0, 10.000054, 9.998596 
2.70818e+3, 3.0073625e+2, -188906.13, -246357.8, 96803.38, 0.0122116525, 0.030239113, -116656.375, -116656.375, 0.0, 9.999453, 9.998894 
2.7077958e+3, 3.1072974e+2, -348021.03, -92260.28, 175523.67, -0.6971957, 0.07475757, -2972.6367, -2972.6367, 0.0, 9.997245, 10.000649 
2.7074236e+3, 3.207191e+2, -137224.19, 134109.94, -110107.59, -0.04840984, -0.31776142, 173169.05, 173169.05, 0.0, 9.997967, 10.0019 
2.7246323e+3, 1.312463e+2, -1260995.1, -1631898.6, 4259.2476, 0.00020527972, -0.19015005, -1260946.3, 392817.22, 0.022191128, 10.003707, 9.998669 
2.7242553e+3, 1.4123513e+2, -1438440.6, -1779949.1, -15360.108, 0.30380845, -0.49002603, -1437751.3, 118118.92, 0.012784308, 10.002154, 9.99786 
2.7238727e+3, 1.512299e+2, -1242541.9, -1454448.8, 23050.443, 0.14320104, -0.19667435, -1240063.5, 217867.97, 0.00532732, 10.002228, 9.999271 
2.7234894e+3, 1.6122425e+2, -1276184.0, -1581366.3, 46989.92, -0.016321195, 0.054198135, -1269112.6, 90884.01, 0.0013580795, 10.001892, 9.997971 
2.7231058e+3, 1.7121546e+2, -1165432.5, -1358876.5, 43227.92, -0.2249152, 0.025854966, -1156212.1, 105871.94, 0.00016970174, 10.001625, 9.998838 
2.7227238e+3, 1.8120681e+2, -1123371.8, -1300331.4, 67260.88, -0.32558697, -0.019986806, -1100708.9, 63459.7, 0.0000049540654, 10.001135, 9.998914 
2.7223468e+3, 1.911987e+2, -735521.9, -836129.25, 94258.17, -0.026067914, -0.15321021, -678984.3, 387260.72, 0.0, 10.0023155, 10.000734 
2.7219692e+3, 2.0119089e+2, -868185.9, -1235841.8, 21927.34, 0.2418182, -0.20934428, -866882.7, 101438.83, 0.0, 10.002245, 9.997467 
2.721584e+3, 2.1118402e+2, -837144.5, -1161655.5, -19876.1, -0.019373301, 0.08533262, -835931.6, 34470.12, 0.0, 10.001932, 9.997335 
2.7212003e+3, 2.2117713e+2, -800591.6, -902566.8, 110344.52, -0.23426998, 0.30075476, -730024.06, 42453.445, 0.0, 10.000536, 9.999234 
2.7208248e+3, 2.311689e+2, -528988.94, -350436.22, 148274.6, -0.106507584, 0.0177718, -266635.66, 407906.9, 0.0, 10.000274, 10.002367 
2.720449e+3, 2.4116099e+2, -805655.2, -751557.6, 52208.965, 0.0384322, -0.2397091, -719806.6, -143201.58, 0.0, 9.998951, 9.999669 
2.7200693e+3, 2.5115344e+2, -567948.5, -532075.1, 10000.773, -0.031083003, -0.28841987, -529475.5, -50799.3, 0.0, 9.999823, 9.999959 
2.7196887e+3, 2.611459e+2, -621548.56, -742453.94, 17938.176, -0.12306377, -0.29460198, -618943.3, -238194.17, 0.0, 9.999648, 9.998055 
2.7193072e+3, 2.7113768e+2, -420468.75, -462149.66, -3162.4814, -0.2879282, -0.3006946, -420230.2, -137398.86, 0.0, 9.999914, 9.999066 
2.7189276e+3, 2.811295e+2, -575205.94, -670070.06, 5397.919, -0.31713226, -0.29944438, -574899.75, -389985.1, 0.0, 9.998858, 9.997577 
2.7185518e+3, 2.911213e+2, -373157.78, -380633.6, 6009.6226, 0.04731234, -0.26616248, -369818.44, -282815.44, 0.0, 9.999099, 9.998655 
2.7181727e+3, 3.0111495e+2, -389131.44, -286813.72, 32005.693, 0.04210358, -0.103837654, -277626.97, -277626.97, 0.0, 9.997944, 9.99932 
2.7177835e+3, 3.1111425e+2, -306990.38, 85034.3, 47285.836, -0.96811, 0.37428448, 90657.24, 90657.24, 0.0, 9.996942, 10.00194 
2.717419e+3, 3.2110208e+2, -212579.34, 176684.81, 232762.39, 0.36366323, -0.31388357, 285466.6, 285466.6, 0.0, 9.997305, 10.002436 
2.7346304e+3, 1.3162896e+2, -1319128.4, -1529430.5, -118572.63, 0.095340274, 0.19249645, -1265798.5, 384227.56, 0.016854065, 10.002843, 9.999726 
2.7342474e+3, 1.4161585e+2, -1471238.5, -1665304.1, -22131.52, -0.017041653, -0.4572054, -1468746.6, 83402.63, 0.009467284, 10.001431, 9.998963 
2.7338654e+3, 1.5161298e+2, -1182095.0, -1253208.1, 64018.285, -0.09653081, -0.075554624, -1144421.8, 309757.94, 0.0037924994, 10.001943, 10.000769 
2.7334836e+3, 1.6160837e+2, -1271218.4, -1529635.6, 69426.72, -0.14252135, 0.17146786, -1253747.3, 102479.64, 0.0009170214, 10.001752, 9.998368 
2.7331015e+3, 1.7159666e+2, -1202105.9, -1383290.6, 68159.25, -0.11365269, -0.1419585, -1179328.6, 79012.22, 0.0001065257, 10.001437, 9.998744 
2.7327204e+3, 1.8158649e+2, -1127123.3, -1306087.3, 144406.89, -0.12887762, -0.32261196, -1046721.9, 113718.625, 0.0000025959862, 10.001134, 9.998862 
2.7323422e+3, 1.915812e+2, -689871.1, -864299.3, 180827.31, -0.084920734, -0.13656439, -576324.6, 486170.03, 0.0, 10.002802, 10.000338 
2.731963e+3, 2.0157538e+2, -610982.25, -1024737.7, 30286.756, -0.054372575, 0.02625062, -608777.0, 355777.4, 0.0, 10.003594, 9.998264 
2.7315792e+3, 2.1156707e+2, -582258.56, -913801.2, 15267.67, -0.083463065, 0.07256, -581557.0, 285083.63, 0.0, 10.003098, 9.998491 
2.7311966e+3, 2.215586e+2, -586968.75, -906664.7, 178490.9, -0.14349201, 0.10193447, -507212.1, 261514.48, 0.0, 10.002399, 9.998307 
2.730819e+3, 2.3154883e+2, -554255.94, -667020.94, 147364.64, -0.08882063, -0.09218913, -452855.9, 217959.66, 0.0, 10.001353, 9.999688 
2.7304417e+3, 2.4154e+2, -634751.25, -714186.56, 9906.096, -0.028848367, -0.23442861, -633534.56, -60639.094, 0.0, 10.000248, 9.999299 
2.7300626e+3, 2.5153336e+2, -497117.78, -470098.63, -12489.052, 0.017665928, -0.2034308, -465210.25, 9748.343, 0.0, 10.000091, 10.0003 
2.7296826e+3, 2.6152676e+2, -524551.3, -617987.4, -12520.214, -0.037624918, -0.14693174, -522902.72, -145879.88, 0.0, 9.999883, 9.998811 
2.7292997e+3, 2.715193e+2, -427212.06, -457992.53, -21361.207, -0.3632881, -0.09083621, -416274.34, -137175.92, 0.0, 9.999755, 9.999215 
2.728918e+3, 2.8151113e+2, -431925.88, -520497.1, 3145.2317, -0.5105113, -0.10275313, -431814.34, -250633.06, 0.0, 9.999333, 9.998416 
2.728542e+3, 2.9150122e+2, -389188.34, -343748.9, 8934.612, -0.111734025, -0.28349, -342055.25, -258775.52, 0.0, 9.998635, 9.999214 
2.728163e+3, 3.0149415e+2, -350318.25, -218467.14, 36716.004, -0.019670904, -0.22495142, -208932.47, -208932.47, 0.0, 9.997881, 9.999836 
2.7277765e+3, 3.1149507e+2, -192915.02, 80836.734, -15206.19, -0.6943267, 0.44526052, 81678.805, 81678.805, 0.0, 9.99786, 10.001522 
2.7274087e+3, 3.2148272e+2, -232623.13, 1838.5703, 197606.13, 0.25638267, -0.15759665, 114371.195, 114371.195, 0.0, 9.997621, 10.001159 
2.7446276e+3, 1.3200858e+2, -1235965.3, -1459951.6, -27621.46, 0.2237001, 0.03677722, -1232609.4, 413701.0, 0.012358498, 10.003172, 10.000065 
2.7442414e+3, 1.4199933e+2, -1351635.3, -1519571.8, 16309.42, -0.08794795, -0.22858784, -1350066.0, 198331.17, 0.0067449147, 10.001825, 9.999771 
2.7438596e+3, 1.5199557e+2, -979141.6, -1069527.0, 58176.145, -0.18220553, -0.018071959, -950667.2, 499762.72, 0.0025850076, 10.00292, 10.00156 
2.7434787e+3, 1.6199014e+2, -1057947.0, -1432159.8, -29129.576, -0.14375359, 0.09616204, -1055693.0, 296787.25, 0.0005889778, 10.0032015, 9.998331 
2.7430972e+3, 1.7197773e+2, -1080980.4, -1385969.4, -67585.81, -0.013643711, -0.2678164, -1066674.4, 187927.28, 0.00006228534, 10.002469, 9.998246 
2.7427164e+3, 1.8196721e+2, -1150554.8, -1380478.8, 51949.777, 0.049649682, -0.43958345, -1139361.9, 17344.055, 0.0000011486238, 10.001244, 9.998298 
2.742337e+3, 1.9196336e+2, -979936.94, -1044429.1, 106634.64, -0.13596569, -0.09301056, -900779.44, 157969.81, 0.0, 10.001021, 9.9999275 
2.7419567e+3, 2.0195867e+2, -1013015.4, -1186404.3, -61082.75, -0.22935548, 0.187804, -993657.8, -32858.734, 0.0, 10.00076, 9.998508 
2.7415746e+3, 2.1194917e+2, -630751.6, -844922.25, -126605.7, -0.09765578, 0.019337134, -572016.94, 290872.53, 0.0, 10.002358, 9.999323 
2.7411935e+3, 2.2193931e+2, -712585.6, -1148234.9, 13489.816, 0.0058335485, -0.10538812, -712168.3, 52816.38, 0.0, 10.002355, 9.996667 
2.7408135e+3, 2.3192877e+2, -666894.1, -993113.06, 26042.336, -0.08757927, -0.17565322, -664828.2, 2262.1145, 0.0, 10.001807, 9.9972 
2.740434e+3, 2.4191955e+2, -717555.3, -872618.8, -17916.28, -0.10241889, -0.1633964, -715512.1, -146330.05, 0.0, 10.000231, 9.998225 
2.7400562e+3, 2.5191364e+2, -511238.72, -440318.66, -21503.008, 0.06280248, -0.08878204, -434308.3, 36930.516, 0.0, 9.999886, 10.000575 
2.7396762e+3, 2.6190802e+2, -729976.0, -743970.1, -14626.109, 0.06532705, 0.049897276, -720759.44, -347465.22, 0.0, 9.998706, 9.99848 
2.7392912e+3, 2.7190155e+2, -549984.44, -490285.56, -22932.844, -0.4243881, 0.16972639, -482493.22, -207131.47, 0.0, 9.998867, 9.9993725 
2.7389082e+3, 2.8189373e+2, -620738.8, -605161.94, -11270.942, -0.69379985, 0.17568399, -599250.25, -421810.25, 0.0, 9.998148, 9.99837 
2.7385318e+3, 2.9188207e+2, -347762.0, -246244.17, -20078.908, -0.28907517, -0.2524645, -242417.1, -162869.72, 0.0, 9.998707, 9.999799 
2.7381536e+3, 3.0187362e+2, -460886.13, -382300.5, 12160.442, -0.07473324, -0.34341472, -380461.8, -380461.8, 0.0, 9.997738, 9.998759 
2.737772e+3, 3.1187442e+2, -336055.8, -102667.19, -22373.81, -0.26753798, 0.3968482, -100541.68, -100541.68, 0.0, 9.997532, 10.000336 
2.7373937e+3, 3.218616e+2, -566154.5, -414526.1, 214004.69, -0.3606958, -0.10773168, -263303.28, -263303.28, 0.0, 9.996674, 9.998679 
2.7546236e+3, 1.323854e+2, -1419813.5, -1625495.9, -127922.69, 0.14861004, -0.5631505, -1358519.0, 284094.03, 0.008685325, 10.002336, 9.999288 
2.7542365e+3, 1.4238632e+2, -1474859.1, -1651078.0, 68108.75, -0.07724147, 0.23664954, -1451604.0, 93000.95, 0.004592608, 10.001346, 9.999077 
2.753856e+3, 1.523768e+2, -1026910.0, -1141915.0, 132969.31, -0.17050143, -0.08340103, -939542.3, 507148.13, 0.0016782222, 10.002846, 10.001086 
2.753475e+3, 1.6236745e+2, -1120479.5, -1562404.4, -42550.082, -0.20201953, -0.2882202, -1116420.0, 232358.03, 0.0003582281, 10.003242, 9.997404 
2.753092e+3, 1.7235844e+2, -1131896.6, -1512334.6, -103419.64, -0.11167503, -0.21826957, -1105600.3, 145271.83, 0.000033741435, 10.002582, 9.99731 
2.7527094e+3, 1.8234995e+2, -1141241.3, -1397552.5, 4300.324, -0.12929697, -0.11934092, -1141169.1, 11791.157, 0.00000040337267, 10.001386, 9.998107 
2.7523288e+3, 1.9234306e+2, -1072082.1, -1114133.0, 57591.063, -0.31049898, -0.05786346, -1031798.5, 23232.16, 0.0, 10.000473, 9.9997225 
2.7519488e+3, 2.0233601e+2, -1096578.5, -1250879.1, -55911.133, -0.39850292, 0.017604716, -1078449.0, -121348.125, 0.0, 10.000241, 9.99833 
2.7515694e+3, 2.1232647e+2, -628329.44, -892243.4, -95535.164, -0.14746806, -0.123441525, -597376.56, 261814.75, 0.0, 10.002505, 9.99897 
2.7511898e+3, 2.2231719e+2, -472686.1, -993720.2, -57123.37, -0.049672462, -0.1767674, -466496.9, 294784.94, 0.0, 10.003778, 9.997047 
2.7508068e+3, 2.323087e+2, -478446.75, -890811.4, -27213.916, -0.3185821, -0.0557487, -476658.53, 186714.13, 0.0, 10.002981, 9.997377 
2.7504256e+3, 2.4230082e+2, -391584.3, -599442.56, -47468.586, -0.4448158, 0.055358402, -381257.0, 184197.02, 0.0, 10.001871, 9.999331 
2.7500477e+3, 2.5229433e+2, -382702.78, -319100.1, -42462.45, -0.103932925, 0.022908865, -297850.66, 169662.64, 0.0, 10.000458, 10.001166 
2.7496684e+3, 2.62288e+2, -582143.25, -573299.06, -7434.938, 0.062004488, 0.0445939, -569070.56, -199497.92, 0.0, 9.999195, 9.999424 
2.749285e+3, 2.7228108e+2, -522923.9, -442847.97, -187.74579, -0.21560468, 0.09112882, -442847.53, -171205.06, 0.0, 9.99881, 9.999769 
2.748903e+3, 2.8227335e+2, -489234.16, -483038.72, 35482.26, -0.38936546, 0.08525451, -450519.22, -276801.0, 0.0, 9.998718, 9.998937 
2.7485254e+3, 2.9226303e+2, -165025.72, -167258.6, 9232.532, -0.17073427, -0.19220454, -156842.38, -81029.17, 0.0, 9.999957, 9.999768 
2.748146e+3, 3.0225423e+2, -62521.945, -176328.72, -32180.092, -0.083700895, -0.30167732, -54052.91, -54052.91, 0.0, 10.00029, 9.998983 
2.7477643e+3, 3.1225038e+2, -175556.9, -77883.69, -62705.73, -0.12596777, 0.016367806, -47240.598, -47240.598, 0.0, 9.998696, 10.000032 
2.747383e+3, 3.2224178e+2, -323813.13, -204196.19, 356610.22, -0.5076037, -0.05373189, 97586.13, 97586.13, 0.0, 9.997714, 9.99966 
2.7646187e+3, 1.3277015e+2, -1402640.6, -1600207.8, -107512.016, 0.14799114, -0.41396925, -1355420.8, 283425.63, 0.005822727, 10.002286, 9.99953 
2.764233e+3, 1.4276946e+2, -1084421.5, -1517564.6, 62686.953, 0.0010444013, 0.2702916, -1075531.5, 465317.44, 0.002969682, 10.004253, 9.998608 
2.7638522e+3, 1.5275767e+2, -1182283.6, -1323385.8, 88975.016, -0.09058482, -0.19019513, -1139282.9, 303674.25, 0.0010279784, 10.002234, 10.000139 
2.763471e+3, 1.6274704e+2, -1455383.1, -1749203.3, -66154.82, -0.12373623, -0.44991142, -1441175.1, -96117.46, 0.0002033788, 10.00099, 9.997247 
2.7630866e+3, 1.7274022e+2, -1165737.1, -1514765.3, -31208.426, -0.16712502, -0.17475042, -1162968.6, 84162.2, 0.000016580547, 10.002246, 9.997485 
2.7627033e+3, 1.8273285e+2, -1023050.56, -1390972.9, 126306.39, -0.22017089, 0.056433022, -983863.75, 165345.05, 0.00000009587778, 10.002462, 9.997629 
2.7623224e+3, 1.9272341e+2, -910129.7, -1120691.1, 86546.13, -0.34119812, -0.057981327, -879123.0, 172181.39, 0.0, 10.001974, 9.99896 
2.7619427e+3, 2.0271416e+2, -1027826.7, -1281760.4, 33474.77, -0.36046538, -0.12109672, -1023488.0, -70092.36, 0.0, 10.001014, 9.997751 
2.7615646e+3, 2.1270476e+2, -850535.3, -1008792.5, 28623.328, -0.13400468, -0.23070726, -845517.4, 9966.805, 0.0, 10.001092, 9.998816 
2.7611852e+3, 2.2269629e+2, -946360.5, -1195596.6, 47233.668, -0.061552286, -0.19415522, -937709.4, -180141.6, 0.0, 10.000543, 9.9971895 
2.7608004e+3, 2.3268947e+2, -719504.75, -936713.25, 61215.72, -0.4774343, 0.036119472, -703440.5, -43795.766, 0.0, 10.001116, 9.997928 
2.7604178e+3, 2.4268264e+2, -626703.8, -711102.06, 18502.367, -0.6484608, 0.22646852, -622825.8, -61108.26, 0.0, 10.000381, 9.999244 
2.7600396e+3, 2.5267512e+2, -423716.25, -317819.4, -40806.074, -0.23497441, 0.06315864, -303919.7, 159865.02, 0.0, 10.000157, 10.001275 
2.7596608e+3, 2.6266775e+2, -630629.0, -622016.6, -11647.89, 0.07567654, -0.02110435, -613904.44, -248052.48, 0.0, 9.999068, 9.999147 
2.7592796e+3, 2.726603e+2, -473393.78, -375833.6, -19994.785, 0.04976684, -0.06110769, -371894.72, -103970.59, 0.0, 9.999115, 10.00004 
2.7588987e+3, 2.8265268e+2, -619151.7, -615993.56, 57073.05, 0.021309184, -0.049719583, -560477.75, -390480.28, 0.0, 9.998241, 9.998245 
2.7585196e+3, 2.9264417e+2, -339306.9, -303962.78, 47156.152, -0.01952842, -0.118112504, -271276.1, -199198.6, 0.0, 9.999041, 9.999255 
2.7581388e+3, 3.0263528e+2, -349558.94, -363832.9, -77945.555, -0.106183186, -0.19008566, -278424.3, -278424.3, 0.0, 9.998661, 9.998453 
2.7577564e+3, 3.126251e+2, -219049.27, -99826.42, -126305.39, -0.059025463, -0.5087601, -19771.906, -19771.906, 0.0, 9.998532, 9.999908 
2.7573732e+3, 3.2262388e+2, -303222.7, 90554.0, 464459.75, -0.6325492, 0.044120006, 398133.6, 398133.6, 0.0, 9.99691, 10.001987 
2.774613e+3, 1.3316132e+2, -1449964.4, -1500824.3, -3522.776, 0.0026605835, 0.4645824, -1449721.5, 185303.03, 0.0036892197, 10.001573, 10.000481 
2.7742293e+3, 1.4314623e+2, -1234498.8, -1717819.6, 41603.613, -0.08703743, -0.3393659, -1230943.8, 306209.13, 0.0018042208, 10.003854, 9.997385 
2.7738476e+3, 1.5313831e+2, -1362246.0, -1582063.6, 16491.514, -0.055867314, -0.27320114, -1361015.6, 78215.26, 0.00058557204, 10.001781, 9.998549 
2.7734652e+3, 1.6313049e+2, -1411362.5, -1546728.6, -33588.227, -0.09022027, -0.21854655, -1403486.5, -62180.406, 0.00010501939, 10.000524, 9.998852 
2.7730805e+3, 1.731232e+2, -984388.4, -1135570.1, 77593.76, -0.3006811, -0.23878434, -951652.06, 291721.06, 0.0000068884756, 10.002236, 10.00009 
2.772698e+3, 1.8311538e+2, -1035864.7, -1518396.6, 176086.75, -0.3846278, -0.15223184, -978440.5, 167010.36, 0.00000000965895, 10.002921, 9.996519 
2.77232e+3, 1.9310553e+2, -963131.1, -1386590.5, 132594.31, -0.17528184, -0.095247105, -925039.5, 122518.34, 0.0, 10.002635, 9.996823 
2.7719402e+3, 2.0309626e+2, -878592.2, -1141921.5, 33702.184, -0.10617254, -0.047585662, -874347.25, 75306.914, 0.0, 10.001746, 9.99834 
2.771558e+3, 2.1308783e+2, -859755.6, -917325.44, 67164.13, -0.1781899, -0.13062567, -815468.0, 36264.293, 0.0, 10.000624, 9.999667 
2.7711764e+3, 2.2307977e+2, -911768.06, -1014705.75, 131528.83, -0.25144386, -0.14157975, -821996.44, -68188.016, 0.0, 10.000013, 9.998701 
2.7707955e+3, 2.3307201e+2, -703368.4, -790102.56, 194031.06, -0.3366841, -0.11186439, -547917.06, 107968.625, 0.0, 10.000556, 9.999252 
2.7704144e+3, 2.4306427e+2, -589113.2, -746063.9, 124667.19, -0.38163823, -0.054010577, -520278.38, 37685.527, 0.0, 10.000821, 9.998789 
2.7700335e+3, 2.5305596e+2, -426549.1, -522364.7, 33566.254, -0.22428747, -0.10910401, -415960.3, 44087.285, 0.0, 10.000955, 9.999522 
2.769653e+3, 2.6304832e+2, -335369.56, -463871.6, 16526.754, -0.092322916, -0.101030104, -333278.1, 28844.95, 0.0, 10.000929, 9.999359 
2.7692717e+3, 2.7304155e+2, -200942.48, -237939.77, 11720.975, -0.061900668, -0.06695693, -197541.78, 66644.91, 0.0, 10.000857, 10.0002 
2.7688906e+3, 2.830342e+2, -311013.5, -460383.0, 74096.15, -0.072817124, -0.024390155, -280493.44, -114236.58, 0.0, 10.000209, 9.998379 
2.76851e+3, 2.9302555e+2, -379196.97, -398631.7, 48181.566, -0.18543074, -0.048048936, -339762.63, -271420.88, 0.0, 9.998911, 9.998734 
2.7681285e+3, 3.0301675e+2, -330078.47, -317347.75, -22744.287, -0.30085215, -0.08674796, -300094.88, -300094.88, 0.0, 9.99848, 9.998873 
2.767748e+3, 3.13007e+2, 54240.125, 44014.313, -46934.965, -0.16352049, -0.37349376, 96339.85, 96339.85, 0.0, 10.00023, 10.000104 
2.7673665e+3, 3.2300436e+2, 136.02516, 180890.64, 305446.5, -0.4911027, 0.07390174, 409050.0, 409050.0, 0.0, 9.999039, 10.001604 
2.7846095e+3, 1.3354386e+2, -1085711.6, -1182613.5, -7704.9224, 0.1259185, 0.52901536, -1085102.8, 546179.6, 0.0021709546, 10.00335, 10.001856 
2.7842253e+3, 1.435273e+2, -1458778.8, -1833293.9, -33350.902, -0.10013703, -0.47618443, -1455832.0, 77586.95, 0.0010072378, 10.00218, 9.997475 
2.783843e+3, 1.5352103e+2, -1258783.8, -1590955.0, 6930.4966, 0.0048668925, -0.21491495, -1258639.1, 176845.38, 0.00030058212, 10.002601, 9.9981785 
2.7834606e+3, 1.6351412e+2, -1065237.0, -1325412.4, 43115.71, 0.032549873, -0.05079107, -1058278.1, 279273.75, 0.000046417692, 10.0026455, 9.999364 
2.7830762e+3, 1.7350584e+2, -790759.56, -976781.25, -38502.027, -0.25831378, -0.2359954, -783105.5, 456518.84, 0.0000020738605, 10.003269, 10.000708 
2.7826944e+3, 1.834973e+2, -1061312.9, -1604101.1, -30717.857, -0.33065844, -0.24190956, -1059580.0, 82126.55, 0.00000000000031198744, 10.003055, 9.995868 
2.7823168e+3, 1.9348764e+2, -1052867.8, -1516632.1, 35183.906, -0.0030070927, -0.12015642, -1050213.6, -6399.955, 0.0, 10.002424, 9.996011 
2.7819368e+3, 2.0347899e+2, -882221.6, -1115951.6, 31756.076, 0.112114914, 0.024915034, -877983.9, 67921.586, 0.0, 10.001672, 9.998539 
2.7815512e+3, 2.1347152e+2, -620489.9, -746944.25, 3117.9678, -0.217103, -0.01894502, -620413.06, 227561.78, 0.0, 10.002083, 10.000124 
2.7811688e+3, 2.2346365e+2, -685627.25, -836815.4, 83036.98, -0.3270484, -0.06215232, -648928.8, 101117.55, 0.0, 10.001306, 9.999288 
2.780791e+3, 2.334548e+2, -567717.7, -608607.3, 100254.62, -0.12520155, -0.2662846, -485844.5, 166281.39, 0.0, 10.001027, 10.000242 
2.7804112e+3, 2.4344622e+2, -825972.9, -1028902.7, 30862.068, -0.039150346, -0.29984638, -821383.06, -267174.0, 0.0, 10.000005, 9.997235 
2.7800274e+3, 2.5343746e+2, -699573.7, -837070.75, -7462.288, -0.16771019, -0.2523112, -699169.9, -242864.9, 0.0, 9.999975, 9.997809 
2.7796447e+3, 2.6342973e+2, -607273.9, -659152.75, 25124.365, -0.2268784, -0.12190954, -597101.1, -238714.98, 0.0, 9.999492, 9.998659 
2.7792636e+3, 2.7342337e+2, -264562.1, -268323.34, -12439.167, -0.23745607, -0.05674877, -253862.19, 6581.9854, 0.0, 10.000517, 10.000107 
2.7788818e+3, 2.8341618e+2, -441607.66, -605189.5, -102.12335, -0.27296215, 0.03467378, -441607.6, -279094.44, 0.0, 9.999793, 9.99756 
2.7784994e+3, 2.9340684e+2, -479441.66, -486213.1, -9982.584, -0.4007999, -0.03481806, -472286.25, -407678.25, 0.0, 9.998545, 9.998237 
2.778117e+3, 3.0339864e+2, -531214.3, -424837.28, 32911.684, -0.54471034, 0.029463643, -415478.25, -415478.25, 0.0, 9.997324, 9.99865 
2.7777386e+3, 3.1339177e+2, -223718.81, -43838.215, 26371.523, -0.3760987, -0.02732146, -40051.703, -40051.703, 0.0, 9.998276, 10.000397 
2.7773622e+3, 3.233826e+2, -469642.34, -251281.23, 124525.7, -0.12756433, -0.153231, -194850.66, -194850.66, 0.0, 9.996913, 9.999635 
2.7946082e+3, 1.3391906e+2, -1083413.0, -992184.0, -114094.48, 0.31733656, -0.01896357, -914923.6, 712685.25, 0.0011673695, 10.002654, 10.003461 
2.7942193e+3, 1.4391495e+2, -1512730.1, -1753556.6, -8120.3564, -0.23431148, 0.09535418, -1512456.6, 17169.303, 0.00050489604, 10.001434, 9.998347 
2.793838e+3, 1.5390648e+2, -1200655.8, -1390458.6, 74228.23, -0.041544676, -0.009091266, -1175074.4, 256635.9, 0.00013439951, 10.002328, 9.999651 
2.7934578e+3, 1.6389748e+2, -1245492.5, -1724184.1, 76652.555, 0.08883558, -0.008122141, -1233517.8, 100282.055, 0.000016423304, 10.002785, 9.996549 
2.7930754e+3, 1.738872e+2, -1014511.3, -1470931.3, -27420.133, -0.01308028, -0.050239496, -1012869.94, 223031.38, 0.0000003300107, 10.003412, 9.997239 
2.792693e+3, 1.838778e+2, -893119.0, -1284821.8, -104148.4, -0.12878096, -0.03953727, -867149.2, 270844.6, 0.0, 10.003164, 9.998013 
2.7923116e+3, 1.9386879e+2, -850490.0, -1104443.1, 18446.35, -0.108411096, -0.12476892, -849157.1, 190926.13, 0.0, 10.00243, 9.998862 
2.7919295e+3, 2.0386106e+2, -794431.1, -1047269.5, 67247.0, -0.16071096, -0.048074044, -777658.25, 164502.4, 0.0, 10.002173, 9.998752 
2.7915463e+3, 2.1385458e+2, -492501.97, -752679.1, 58153.742, -0.34470955, 0.07231707, -480095.3, 364129.44, 0.0, 10.003249, 9.999532 
2.7911645e+3, 2.2384699e+2, -375863.34, -707986.06, 37406.438, -0.3781074, 0.10287101, -371702.44, 374594.72, 0.0, 10.003447, 9.99915 
2.790786e+3, 2.3383747e+2, -419047.94, -591572.25, 16689.451, -0.14930657, -0.11990343, -417448.28, 230936.38, 0.0, 10.002195, 9.999824 
2.7904052e+3, 2.4382913e+2, -596327.6, -806232.75, -68345.516, -0.03607143, -0.14828153, -576035.9, -25570.934, 0.0, 10.001011, 9.998304 
2.7900213e+3, 2.5382182e+2, -604134.0, -701776.2, -24057.135, -0.08637987, -0.033810023, -598528.56, -145985.95, 0.0, 10.000121, 9.998736 
2.789638e+3, 2.6381376e+2, -562117.44, -698675.1, 94781.65, -0.19027038, 0.043961428, -513582.06, -158956.83, 0.0, 9.999963, 9.998172 
2.7892566e+3, 2.7380455e+2, -212874.83, -406278.94, 28465.297, -0.3471795, -0.034180723, -208772.31, 47942.477, 0.0, 10.0014515, 9.998756 
2.788875e+3, 2.8379607e+2, -128390.95, -360106.0, -77574.74, -0.3662006, -0.021128273, -104818.18, 53978.984, 0.0, 10.001487, 9.998415 
2.7884933e+3, 2.93788e+2, -262387.78, -302220.03, -68416.87, -0.24590933, -0.019929558, -211047.19, -150170.4, 0.0, 9.999635, 9.998981 
2.788111e+3, 3.037802e+2, -363981.84, -223405.05, 36611.97, -0.25823092, -0.009391516, -214441.34, -214441.34, 0.0, 9.997791, 9.99985 
2.7877307e+3, 3.1377313e+2, -469162.66, -113359.055, 41335.83, -0.14365451, -0.12035596, -108619.945, -108619.945, 0.0, 9.996177, 10.001035 
2.7873516e+3, 3.237656e+2, -521421.38, -117466.13, 247839.3, -0.13243042, -0.14642741, 273.74207, 273.74207, 0.0, 9.995636, 10.001252 
2.804604e+3, 1.3430235e+2, -1053824.9, -1229339.9, 100855.08, 0.2627675, -0.13254915, -1007891.94, 615951.8, 0.0005664125, 10.003789, 10.001329 
2.804216e+3, 1.4429879e+2, -1093173.1, -1573128.1, 37806.74, -0.09116094, 0.18702205, -1090213.3, 435655.28, 0.00022570654, 10.004387, 9.998154 
2.803834e+3, 1.5429044e+2, -911418.44, -1245451.1, 1965.6946, -0.048312433, 0.09025663, -911406.9, 516545.22, 0.00005282333, 10.004263, 9.999711 
2.8034535e+3, 1.642808e+2, -1175415.6, -1819518.4, 52055.54, 0.07161349, 0.06911649, -1171235.8, 158812.98, 0.000004777361, 10.00384, 9.995345 
2.8030726e+3, 1.7426932e+2, -1072833.0, -1664396.4, 119386.89, 0.086218596, 0.037563093, -1049647.5, 182517.53, 0.00000002399446, 10.003705, 9.995745 
2.8026906e+3, 1.8425946e+2, -858226.56, -1136379.6, 67632.24, 0.019851105, 0.0507353, -842653.8, 291608.56, 0.0, 10.002874, 9.999166 
2.8023058e+3, 1.9425124e+2, -851696.7, -931863.8, 6232.6455, -0.13520494, -0.094807364, -851215.06, 185123.94, 0.0, 10.001694, 10.000405 
2.8019232e+3, 2.0424382e+2, -994606.44, -1210915.5, 75700.55, -0.24854119, -0.04591544, -970745.9, -32335.346, 0.0, 10.001069, 9.998179 
2.8015417e+3, 2.1423717e+2, -703214.8, -924620.8, 65740.44, -0.34302822, 0.10191984, -685166.25, 155312.36, 0.0, 10.002077, 9.998922 
2.8011608e+3, 2.2422965e+2, -708820.2, -928641.56, 12175.321, -0.31662557, 0.19968612, -708147.9, 34405.355, 0.0, 10.0015545, 9.998507 
2.8007802e+3, 2.3422015e+2, -723190.5, -786383.25, -32976.51, -0.14136724, 0.01828944, -709116.5, -64472.67, 0.0, 10.0004225, 9.999314 
2.8003988e+3, 2.4421234e+2, -767583.3, -806059.0, -74587.01, 0.000046490077, 0.04821183, -709793.1, -163073.94, 0.0, 9.99958, 9.998968 
2.8000155e+3, 2.5420642e+2, -510711.13, -517514.7, -68465.5, 0.050231706, 0.16754645, -445562.97, 3215.2217, 0.0, 10.000263, 9.9998865 
2.7996323e+3, 2.641981e+2, -698804.3, -924175.06, 133790.94, -0.07026341, 0.22382188, -636566.8, -285705.28, 0.0, 9.999799, 9.9966955 
2.79925e+3, 2.741859e+2, -528602.56, -712394.94, 117317.72, -0.40093857, -0.0347781, -471474.06, -218489.7, 0.0, 10.000017, 9.997326 
2.7988687e+3, 2.841763e+2, -394115.3, -457433.9, -67473.04, -0.40352833, -0.05798567, -351243.25, -196164.42, 0.0, 9.999632, 9.998618 
2.798488e+3, 2.9416943e+2, -246831.14, -195688.73, -94258.375, 0.0017004886, -0.027026612, -123594.55, -66451.92, 0.0, 9.999412, 9.9998 
2.7981055e+3, 3.0416188e+2, -322553.63, -144596.94, -22745.549, 0.1362899, -0.05834421, -141735.72, -141735.72, 0.0, 9.998001, 10.000219 
2.797723e+3, 3.1415328e+2, -387804.84, 2685.702, -35503.234, 0.1906092, -0.3994533, 5887.3896, 5887.3896, 0.0, 9.99659, 10.001538 
2.797336e+3, 3.241518e+2, -356411.34, 339901.1, 300957.9, -0.6151011, -0.01340191, 451949.63, 451949.63, 0.0, 9.995491, 10.004325 
2.8145963e+3, 1.3469228e+2, -1630912.1, -2217321.5, 137920.97, -0.19604474, 0.13893045, -1600093.4, 19907.396, 0.00024939553, 10.003011, 9.994878 
2.8142163e+3, 1.4467706e+2, -1266795.8, -1839405.8, 29951.213, 0.16274358, -0.31190854, -1265233.4, 256930.61, 0.00009135431, 10.00407, 9.996449 
2.8138304e+3, 1.5467238e+2, -1050519.6, -1485924.9, 16029.622, -0.18663254, 0.10505061, -1049930.3, 374286.3, 0.000018191195, 10.004102, 9.998129 
2.813447e+3, 1.646644e+2, -990856.25, -1427253.6, 42735.543, -0.32688156, 0.2141025, -986710.6, 339584.0, 0.000001253609, 10.003823, 9.998045 
2.8130654e+3, 1.7465287e+2, -877319.94, -1243338.3, 190330.05, -0.3293221, -0.102665976, -796287.7, 432112.78, 0.0000000065346386, 10.003664, 9.998654 
2.8126836e+3, 1.846437e+2, -1002856.8, -1388348.5, 66311.38, -0.26657495, -0.07781007, -991769.0, 138720.95, 0.0, 10.002721, 9.997473 
2.812301e+3, 1.9463645e+2, -1039625.25, -1267753.9, -3243.2183, -0.10426014, 0.09946348, -1039579.2, -7012.0645, 0.0, 10.001477, 9.998193 
2.8119192e+3, 2.0462811e+2, -968076.8, -1172023.9, 94950.41, -0.07555146, 0.16970102, -930715.56, 3934.2798, 0.0, 10.001126, 9.998406 
2.8115383e+3, 2.146184e+2, -705386.56, -913270.1, 126452.625, -0.1976051, 0.002924187, -645639.1, 191102.25, 0.0, 10.001958, 9.999072 
2.8111562e+3, 2.2460997e+2, -681845.8, -903239.4, -32182.258, -0.23875909, 0.0034724057, -677262.6, 61560.63, 0.0, 10.001647, 9.998642 
2.8107736e+3, 2.3460215e+2, -757297.94, -829191.44, -41527.074, -0.14644276, 0.0223771, -738320.5, -97418.664, 0.0, 10.000228, 9.999145 
2.8103915e+3, 2.445948e+2, -637372.75, -697701.25, -5628.765, -0.025322441, 0.09275529, -636852.06, -93877.74, 0.0, 10.000208, 9.99941 
2.8100103e+3, 2.5458792e+2, -273739.47, -398412.6, -14842.485, 0.12404017, 0.121253856, -271996.8, 173043.86, 0.0, 10.001785, 9.999997 
2.809628e+3, 2.645799e+2, -325682.66, -592216.1, 87350.86, 0.07554786, 0.13755617, -299606.38, 47513.105, 0.0, 10.001596, 9.998144 
2.8092447e+3, 2.7456963e+2, -528645.56, -595513.06, 143613.17, -0.19720286, -0.018100176, -414625.72, -165404.1, 0.0, 9.999379, 9.998501 
2.808862e+3, 2.8456113e+2, -434131.16, -411607.03, 95980.17, -0.27440253, -0.015144546, -326230.47, -174924.63, 0.0, 9.998939, 9.9993105 
2.8084806e+3, 2.9455453e+2, -3493.45, -81251.41, 64712.047, -0.10126186, 0.06350937, 33120.777, 86490.61, 0.0, 10.000946, 9.99992 
2.808097e+3, 3.0454695e+2, 166044.33, -7009.407, 22479.025, -0.0556746, 0.08289703, 168916.6, 168916.6, 0.0, 10.001694, 9.999397 
2.807714e+3, 3.1453815e+2, 217577.23, 146260.08, -69683.61, 0.041491516, -0.12838848, 260195.98, 260195.98, 0.0, 10.001267, 10.00032 
2.8073284e+3, 3.2453242e+2, 32754.783, 125610.09, 43855.45, -0.4822803, 0.051740374, 143048.14, 143048.14, 0.0, 9.999638, 10.000946 
2.8245917e+3, 1.3507472e+2, -1598292.1, -2302623.8, -94986.2, -0.27636772, 0.019265203, -1585707.1, 30542.479, 0.00010704309, 10.003628, 9.994019 
2.8242144e+3, 1.4505932e+2, -1331840.6, -1831938.6, -4166.4, 0.29691312, -0.38962975, -1331806.0, 186613.64, 0.000035101017, 10.003441, 9.996813 
2.8238264e+3, 1.5505522e+2, -1287903.5, -1619515.8, 68176.555, -0.19272175, 0.10268055, -1274434.1, 146033.08, 0.0000055355054, 10.002568, 9.997959 
2.8234425e+3, 1.6504802e+2, -1085237.1, -1296926.3, 131633.48, -0.39704776, 0.23788163, -1022172.1, 300363.66, 0.0000002527922, 10.002449, 9.99961 
2.8230608e+3, 1.750372e+2, -851196.3, -1054891.3, 104789.19, -0.4325098, -0.15718798, -806914.8, 417714.97, 0.0, 10.003135, 10.000226 
2.8226784e+3, 1.850285e+2, -1033471.4, -1563072.5, -38429.95, -0.31323993, -0.10323321, -1030697.25, 96017.44, 0.0, 10.003159, 9.996089 
2.8222966e+3, 1.9502124e+2, -941616.56, -1404960.5, -26328.605, -0.0038392032, 0.21010187, -940125.3, 88671.85, 0.0, 10.002889, 9.996608 
2.8219154e+3, 2.0501195e+2, -864226.3, -1114357.4, 183820.53, 0.11690984, 0.27249184, -766960.2, 163929.72, 0.0, 10.001898, 9.998387 
2.8215343e+3, 2.1500012e+2, -841530.56, -974608.3, 159732.45, -0.020740055, -0.11985893, -735032.25, 97965.46, 0.0, 10.00109, 9.999031 
2.8211516e+3, 2.2499117e+2, -848166.6, -1026776.0, -37563.3, -0.10332757, -0.14353845, -840588.25, -105504.13, 0.0, 10.000751, 9.998205 
2.8207672e+3, 2.3498444e+2, -674456.7, -804827.44, -69084.35, -0.099802755, -0.009486525, -644659.0, -7503.7466, 0.0, 10.000948, 9.998925 
2.8203848e+3, 2.4497724e+2, -596971.2, -725826.94, 50297.3, -0.026146049, 0.11299569, -579663.06, -40435.21, 0.0, 10.000799, 9.998907 
2.820005e+3, 2.549689e+2, -388588.97, -487219.44, -4116.517, 0.14724965, 0.009202116, -388417.47, 52890.54, 0.0, 10.001219, 9.9996395 
2.8196234e+3, 2.6496142e+2, -399533.66, -498093.7, -37966.79, 0.18870315, 0.049389068, -386604.38, -43224.33, 0.0, 10.000677, 9.999177 
2.8192395e+3, 2.7495396e+2, -411905.06, -364320.25, -22059.39, 0.0688224, -0.008537647, -355667.4, -110215.02, 0.0, 9.999562, 9.999937 
2.8188553e+3, 2.8494704e+2, -507831.3, -472032.16, 56280.035, -0.12751907, 0.09500006, -430873.8, -283353.0, 0.0, 9.9986925, 9.998966 
2.8184718e+3, 2.9494038e+2, -259558.22, -202072.14, 47719.996, -0.32316798, 0.13598359, -175107.38, -125518.055, 0.0, 9.999305, 9.999829 
2.8180873e+3, 3.0493298e+2, -259473.63, -441760.38, -36911.168, -0.44918746, 0.28190854, -252283.14, -252283.14, 0.0, 9.999862, 9.997277 
2.8177047e+3, 3.149246e+2, -88020.63, -203121.81, -84275.5, -0.31350785, 0.2679974, -43520.11, -43520.11, 0.0, 10.000133, 9.998439 
2.817326e+3, 3.2490894e+2, -555728.7, -779079.06, 55439.742, -0.04082884, -0.17943713, -542724.6, -542724.6, 0.0, 9.998534, 9.99517 
2.8345883e+3, 1.3545205e+2, -1348555.3, -1562040.9, -120804.3, -0.2867759, -0.1582882, -1294091.0, 318474.94, 0.000050582996, 10.002758, 9.999484 
2.8342086e+3, 1.4544658e+2, -1300054.1, -1591214.1, -38715.31, 0.10687469, 0.04777837, -1294994.1, 219629.98, 0.000015386415, 10.002761, 9.998757 
2.833822e+3, 1.5543912e+2, -1281716.4, -1423358.4, 87507.86, -0.14222907, 0.009788274, -1239961.9, 176737.02, 0.0000020566958, 10.00183, 9.999639 
2.83344e+3, 1.6543126e+2, -1261132.5, -1526272.8, 173826.1, -0.17678253, 0.07558058, -1175092.6, 143681.61, 0.00000005936716, 10.001894, 9.9982815 
2.83306e+3, 1.7542219e+2, -981462.7, -1285747.0, 143062.19, -0.108342215, -0.007155189, -924765.1, 296092.9, 0.0, 10.002958, 9.998724 
2.8326774e+3, 1.8541312e+2, -898101.25, -1349496.0, -57414.434, -0.079643, 0.019195015, -890913.0, 232033.06, 0.0, 10.003421, 9.997441 
2.8322926e+3, 1.9540371e+2, -766096.06, -1188867.8, 29234.293, -0.03430789, 0.00067640137, -764084.1, 260957.67, 0.0, 10.003505, 9.997802 
2.8319103e+3, 2.0539442e+2, -768028.56, -1087871.6, 164604.28, -0.00021273704, 0.015506169, -698451.8, 228680.8, 0.0, 10.002639, 9.998218 
2.8315288e+3, 2.1538429e+2, -856787.06, -1043577.44, 167173.98, -0.0322037, -0.13845916, -758688.6, 70538.93, 0.0, 10.001213, 9.998523 
2.831146e+3, 2.2537537e+2, -768837.06, -999628.25, 32413.006, -0.052462947, -0.1210804, -764371.3, -33056.016, 0.0, 10.001298, 9.998138 
2.8307626e+3, 2.3536724e+2, -478721.4, -772939.2, 17497.79, -0.041395627, -0.06930431, -477684.4, 155714.88, 0.0, 10.002477, 9.998446 
2.830379e+3, 2.4535888e+2, -406351.6, -745430.56, 36575.6, -0.12978742, 0.016099676, -402451.13, 133033.52, 0.0, 10.002524, 9.997959 
2.8299958e+3, 2.5534976e+2, -394553.25, -645292.9, -18252.35, -0.25621575, -0.017163346, -393231.53, 44344.855, 0.0, 10.001744, 9.99834 
2.8296146e+3, 2.6534206e+2, -289812.34, -428991.47, -90382.36, -0.11809436, 0.052482456, -245333.17, 94319.484, 0.0, 10.001302, 9.999359 
2.8292343e+3, 2.753352e+2, -175744.13, -285241.1, -134466.8, 0.18329316, 0.09591115, -85307.49, 156412.13, 0.0, 10.001283, 9.999672 
2.8288504e+3, 2.8532794e+2, -228381.73, -255552.27, -117568.22, 0.13730253, 0.119865954, -123616.484, 20173.564, 0.0, 10.000152, 9.999784 
2.8284642e+3, 2.953199e+2, -405805.38, -266505.8, -119846.08, -0.19711381, 0.008890012, -197540.39, -151672.75, 0.0, 9.9981365, 10.000001 
2.8280786e+3, 3.0531296e+2, -350602.28, -330287.22, -39624.29, -0.5104876, 0.10148053, -299539.25, -299539.25, 0.0, 9.99843, 9.998775 
2.8276956e+3, 3.1530684e+2, 81724.984, -63669.375, 6061.3984, -0.56173867, 0.2418804, 81977.24, 81977.24, 0.0, 10.000871, 9.999109 
2.82732e+3, 3.252948e+2, -92820.61, -250776.8, 206100.25, 0.13208671, -0.006329214, 48915.72, 48915.72, 0.0, 10.000146, 9.998124 
2.844584e+3, 1.3583528e+2, -1534875.1, -1427414.9, 139101.48, -0.17047696, -0.0880358, -1332027.1, 276788.06, 0.000026717651, 10.000301, 10.001687 
2.844203e+3, 1.4583075e+2, -1365620.1, -1561009.1, -6996.2983, 0.034620114, 0.11677887, -1365370.0, 145487.81, 0.000008259606, 10.001968, 9.999364 
2.843818e+3, 1.5582238e+2, -1054416.4, -1286152.4, -41083.414, -0.054134417, -0.04769425, -1047348.4, 365592.03, 0.0000013335809, 10.003192, 9.999944 
2.843437e+3, 1.6581444e+2, -1145901.8, -1506439.3, 91570.39, 0.014454967, -0.005329051, -1123977.6, 191039.1, 0.000000073245815, 10.00284, 9.997957 
2.8430578e+3, 1.7580605e+2, -1193649.3, -1452789.4, 119379.41, 0.13411222, 0.027865313, -1147038.1, 70057.94, 0.0, 10.001769, 9.9981575 
2.842675e+3, 1.8579678e+2, -1116496.8, -1352467.6, -30991.229, 0.111437246, 0.020629719, -1112494.5, 6690.577, 0.0, 10.001526, 9.998305 
2.8422886e+3, 1.9578631e+2, -932878.2, -1193714.4, -33090.383, -0.010968222, -0.20274962, -928745.75, 92540.77, 0.0, 10.002056, 9.998449 
2.8419048e+3, 2.0577735e+2, -890099.0, -1183617.8, 77111.875, -0.04204073, -0.17195158, -871073.75, 52299.793, 0.0, 10.001972, 9.997882 
2.841523e+3, 2.157689e+2, -873945.5, -1098207.6, 75800.37, -0.02383152, -0.1456912, -850728.6, -25273.146, 0.0, 10.001346, 9.998063 
2.841141e+3, 2.2576015e+2, -831630.06, -1070919.5, 71142.21, 0.002925568, -0.067372255, -812076.8, -84534.26, 0.0, 10.001097, 9.997746 
2.8407583e+3, 2.3575069e+2, -664125.7, -928430.44, 52174.418, 0.029943053, -0.13083066, -654199.1, -24561.07, 0.0, 10.001527, 9.997844 
2.840373e+3, 2.4574134e+2, -634801.06, -985661.4, 78504.1, -0.21401769, -0.041741256, -618036.94, -86303.1, 0.0, 10.001583, 9.996762 
2.8399864e+3, 2.5573146e+2, -559325.8, -855460.8, 49802.67, -0.6129725, -0.051432934, -551174.56, -117338.93, 0.0, 10.0012665, 9.997115 
2.8396058e+3, 2.6572344e+2, -447719.63, -579464.9, 24372.502, -0.3898335, 0.09877473, -443355.34, -107437.74, 0.0, 10.000667, 9.998584 
2.839229e+3, 2.757162e+2, -386062.1, -466731.0, -43708.09, 0.28371254, 0.14886342, -366921.63, -128931.45, 0.0, 10.000293, 9.99886 
2.8388458e+3, 2.8570786e+2, -304895.88, -279012.0, -103817.29, 0.37231746, 0.11727358, -187333.08, -47264.09, 0.0, 9.999674, 9.999814 
2.8384575e+3, 2.956981e+2, -326684.06, -213378.73, -140594.7, 0.009586608, -0.2065617, -118451.734, -76293.125, 0.0, 9.99872, 10.000055 
2.83807e+3, 3.0569172e+2, -263678.63, -89252.52, 34185.625, -0.49221182, -0.13877422, -82791.81, -82791.81, 0.0, 9.998351, 10.000398 
2.8376865e+3, 3.1568757e+2, -118345.89, 52914.746, 29049.865, -0.81368154, -0.011226319, 57708.133, 57708.133, 0.0, 9.998768, 10.000848 
2.8373116e+3, 3.2568568e+2, 35607.625, 598409.2, 33375.863, 0.0025388848, 0.26053128, 600381.56, 600381.56, 0.0, 9.997932, 10.004887 
2.8545773e+3, 1.3622235e+2, -1751314.9, -1654022.8, 182433.28, -0.18988635, 0.08393144, -1513861.1, 91156.33, 0.000013313982, 9.999415, 10.0005455 
2.8541964e+3, 1.4621101e+2, -1586541.9, -1857180.3, 48712.0, -0.1158649, -0.23525462, -1578041.3, -70912.01, 0.0000038169696, 10.001328, 9.997611 
2.853814e+3, 1.5620512e+2, -1193333.8, -1540636.3, 27653.367, -0.11445842, 0.025585, -1191145.8, 218048.39, 0.0000005153316, 10.003076, 9.998242 
2.8534323e+3, 1.6619715e+2, -1023511.3, -1254095.1, 16303.493, -0.062690586, 0.049590804, -1022364.3, 288904.28, 0.00000002542409, 10.002876, 9.999653 
2.8530505e+3, 1.7618747e+2, -1175127.4, -1298628.1, 103740.42, -0.05246706, -0.2053039, -1116150.1, 97203.39, 0.0, 10.001296, 9.999428 
2.8526676e+3, 1.8617867e+2, -1188027.5, -1411024.1, 4708.6416, -0.046527572, -0.20317447, -1187928.0, -72489.95, 0.0, 10.001147, 9.998074 
2.852283e+3, 1.9616981e+2, -997905.1, -1261368.6, 18706.396, -0.02793373, -0.21850696, -996583.56, 20944.398, 0.0, 10.001744, 9.998138 
2.8518993e+3, 2.0616166e+2, -860152.9, -1124448.8, 62107.68, -0.1023052, -0.1150924, -846285.6, 73324.61, 0.0, 10.00196, 9.998289 
2.8515157e+3, 2.1615349e+2, -763714.94, -1014507.06, 89695.12, -0.23631108, -0.0823676, -734937.75, 86754.484, 0.0, 10.001914, 9.998373 
2.8511333e+3, 2.2614527e+2, -662001.75, -922370.94, 78391.7, -0.21861291, 0.000070175316, -640221.6, 83552.54, 0.0, 10.001951, 9.998345 
2.8507516e+3, 2.361364e+2, -564264.06, -829555.2, 104181.49, -0.13898998, -0.018808115, -528242.4, 97619.55, 0.0, 10.00191, 9.998358 
2.850368e+3, 2.4612737e+2, -462108.47, -739720.4, 140858.11, -0.20288973, -0.004858466, -403156.75, 124793.41, 0.0, 10.001979, 9.998289 
2.8499836e+3, 2.5611785e+2, -351798.6, -631220.6, 196783.39, -0.37323564, -0.071496464, -250174.02, 179868.44, 0.0, 10.002051, 9.998317 
2.849601e+3, 2.661088e+2, -379442.88, -616633.9, 155089.52, -0.275724, -0.033519667, -302800.97, 29331.398, 0.0, 10.001348, 9.998038 
2.8492197e+3, 2.7609992e+2, -399337.13, -554278.9, 108639.83, 0.021143897, -0.018576983, -343375.06, -109153.17, 0.0, 10.0004425, 9.998232 
2.8488368e+3, 2.8609127e+2, -221271.84, -396588.97, 57524.93, 0.121776246, 0.027326262, -204082.23, -67774.695, 0.0, 10.000817, 9.998498 
2.8484514e+3, 2.9608232e+2, 57279.4, -188267.45, -37404.875, 0.039372694, -0.02759304, 62850.973, 101246.02, 0.0, 10.00196, 9.998702 
2.8480646e+3, 3.0607405e+2, -33360.895, -121404.516, -43756.395, -0.3180027, -0.014640155, -15313.855, -15313.855, 0.0, 10.0004015, 9.999251 
2.8476793e+3, 3.1606674e+2, -419526.63, -206926.72, -168333.36, -0.6240977, -0.050010465, -114139.26, -114139.26, 0.0, 9.997036, 9.999973 
2.8473008e+3, 3.260641e+2, -214133.3, 468932.13, -392421.28, -0.06337128, 0.17281565, 647629.2, 647629.2, 0.0, 9.995939, 10.005102 
2.864572e+3, 1.3660467e+2, -1383658.6, -1511900.4, 62206.36, -0.09133136, 0.0025130233, -1358442.4, 242832.81, 0.0000059672334, 10.00199, 10.000316 
2.8641906e+3, 1.4659439e+2, -1381676.5, -1717985.6, 13119.399, -0.15929253, -0.20997488, -1381165.5, 122208.85, 0.0000015122073, 10.002529, 9.998004 
2.8638095e+3, 1.5658914e+2, -1351819.0, -1615078.9, 123468.32, -0.08780084, 0.104983434, -1302974.9, 102457.875, 0.0000000966577, 10.001929, 9.9983015 
2.8634274e+3, 1.6658074e+2, -1140708.8, -1277924.1, 64925.992, -0.06182889, 0.07872949, -1114858.0, 192653.05, 0.00000000026919006, 10.001898, 9.999985 
2.8630438e+3, 1.7657031e+2, -1082631.9, -1231668.8, 4208.2017, -0.14479281, -0.28139165, -1082513.1, 127088.93, 0.0, 10.001796, 9.999665 
2.8626606e+3, 1.8656199e+2, -1150570.9, -1384211.0, -43094.18, -0.122957595, -0.2486205, -1142875.8, -31192.918, 0.0, 10.001445, 9.998101 
2.862278e+3, 1.9655438e+2, -1116970.6, -1323093.6, -29810.53, 0.010717257, -0.13988204, -1112745.9, -98983.53, 0.0, 10.001033, 9.998036 
2.861894e+3, 2.0654672e+2, -938164.56, -1145880.9, 58428.402, -0.06936874, 0.009389406, -922857.3, -7016.186, 0.0, 10.001326, 9.998468 
2.8615096e+3, 2.165385e+2, -806501.6, -1037432.94, 53517.86, -0.28623903, 0.0056836056, -794701.9, 23223.139, 0.0, 10.001585, 9.998412 
2.861127e+3, 2.2653043e+2, -704524.7, -904802.6, 60673.145, -0.32459968, 0.08401761, -687578.0, 32426.965, 0.0, 10.0015545, 9.998613 
2.860745e+3, 2.3652205e+2, -644103.06, -828432.06, 54864.137, -0.23697302, 0.05101954, -629009.1, -6922.393, 0.0, 10.001317, 9.998588 
2.860363e+3, 2.4651384e+2, -486586.5, -587008.06, 104104.984, -0.14417243, 0.061687745, -421216.28, 102946.27, 0.0, 10.001261, 9.999585 
2.859981e+3, 2.56505e+2, -440691.25, -583449.06, 98901.6, -0.049114563, -0.11060422, -390101.0, 36141.26, 0.0, 10.001173, 9.998993 
2.8595963e+3, 2.6649517e+2, -448255.6, -747695.2, 56884.082, -0.12881254, -0.12977853, -437813.53, -109475.86, 0.0, 10.0013685, 9.997098 
2.85921e+3, 2.764844e+2, -373891.9, -679514.0, 44243.285, -0.28002244, -0.24914783, -367615.9, -137170.47, 0.0, 10.001255, 9.996973 
2.8588274e+3, 2.8647605e+2, -351392.56, -645345.4, 93960.305, -0.17671458, -0.017543927, -323925.28, -191392.42, 0.0, 10.000888, 9.996695 
2.858446e+3, 2.9646826e+2, -323160.66, -608447.6, 28197.129, 0.040410057, 0.20858023, -320400.4, -285784.84, 0.0, 10.000492, 9.996487 
2.8580597e+3, 3.0645743e+2, -340893.28, -522544.84, -70410.414, -0.12208102, 0.20135948, -316797.6, -316797.6, 0.0, 9.999542, 9.996838 
2.857672e+3, 3.164454e+2, -629677.44, -597832.7, -146739.11, -0.31533188, -0.09200636, -466154.66, -466154.66, 0.0, 9.99701, 9.997233 
2.8572884e+3, 3.2643625e+2, -411293.5, 182975.16, -212595.23, -0.20664345, -0.3147486, 251197.56, 251197.56, 0.0, 9.995666, 10.003165 
2.874568e+3, 1.3698438e+2, -1398702.9, -1368795.6, 94064.766, -0.063321754, 0.0036405653, -1288503.4, 309065.53, 0.0000021514043, 10.001309, 10.001599 
2.8741854e+3, 1.4698169e+2, -1215527.1, -1267823.8, -12004.142, -0.21835272, 0.30356774, -1212903.3, 286682.34, 0.00000043033984, 10.002115, 10.00127 
2.873804e+3, 1.5697461e+2, -1322177.0, -1375676.3, 145758.27, -0.15248698, 0.13010094, -1200734.1, 200918.23, 0.000000019645139, 10.001187, 10.000298 
2.873422e+3, 1.6696607e+2, -1354702.9, -1600118.3, 82944.76, -0.112518065, 0.13168511, -1329299.0, -25563.057, 0.0, 10.001397, 9.998003 
2.873038e+3, 1.7695658e+2, -1213420.4, -1487379.8, 27689.732, -0.23305407, 0.07556358, -1210649.6, -4820.6606, 0.0, 10.001725, 9.997948 
2.8726545e+3, 1.8694806e+2, -1075893.4, -1273988.6, -89375.88, -0.21136542, 0.11787294, -1041530.0, 66382.875, 0.0, 10.001598, 9.998795 
2.872271e+3, 1.9693951e+2, -1097341.4, -1265113.1, -8810.754, -0.079017065, 0.082514785, -1096879.9, -86882.4, 0.0, 10.0008955, 9.9985285 
2.871889e+3, 2.0693181e+2, -886527.7, -1047989.4, 82062.17, -0.03717627, 0.1677941, -852142.6, 59931.05, 0.0, 10.00139, 9.999087 
2.8715068e+3, 2.16924e+2, -692281.8, -937454.7, 100736.46, -0.09922199, 0.17994986, -656201.1, 157949.5, 0.0, 10.002147, 9.998832 
2.8711233e+3, 2.2691515e+2, -572702.6, -804041.8, 50845.953, -0.2071749, 0.14258121, -562020.44, 154216.23, 0.0, 10.002254, 9.998985 
2.870739e+3, 2.3690572e+2, -510516.88, -728085.94, 64300.52, -0.3107785, 0.00004084428, -492934.38, 125393.336, 0.0, 10.002004, 9.998978 
2.8703564e+3, 2.4689797e+2, -386963.3, -540456.06, 69542.63, -0.2721595, 0.027705563, -360142.4, 160258.34, 0.0, 10.001858, 9.9996605 
2.8699747e+3, 2.568904e+2, -330221.53, -526419.7, 46981.37, -0.1911292, 0.012367301, -319551.7, 102919.28, 0.0, 10.001792, 9.999137 
2.8695908e+3, 2.6688102e+2, -171083.83, -526374.94, 40798.387, -0.2313236, -0.028145008, -166459.11, 158103.06, 0.0, 10.002791, 9.997968 
2.8692058e+3, 2.768705e+2, 125267.43, -357285.5, 52242.605, -0.3428857, -0.16704115, 130858.586, 357524.97, 0.0, 10.004219, 9.997791 
2.868822e+3, 2.868622e+2, -6022.6685, -360264.63, 62150.242, -0.20706297, -0.02920241, 4564.8867, 133316.5, 0.0, 10.002682, 9.997804 
2.868439e+3, 2.9685465e+2, -311488.25, -493488.88, 115003.52, 0.016126666, 0.15672147, -255836.36, -225005.44, 0.0, 9.999985, 9.997552 
2.8680527e+3, 3.0684486e+2, -125878.375, -304712.6, 209957.84, -0.088768184, 0.16103372, 12909.947, 12909.947, 0.0, 10.000406, 9.997966 
2.8676662e+3, 3.1683418e+2, 225299.14, -99924.85, 227019.38, -0.21285565, -0.011348457, 341936.94, 341936.94, 0.0, 10.002368, 9.998131 
2.867279e+3, 3.2682484e+2, 51223.797, 182891.84, 89356.04, -0.21325347, -0.12997276, 228047.1, 228047.1, 0.0, 9.999586, 10.001347 
2.8845626e+3, 1.3736828e+2, -1234332.3, -1266086.0, 171013.69, -0.107140206, 0.12826382, -1078460.0, 515349.25, 0.00000033823923, 10.002234, 10.001879 
2.8841805e+3, 1.4736573e+2, -1443541.4, -1276709.8, 30402.889, -0.121129505, 0.40613046, -1271341.9, 224480.97, 0.000000039050374, 10.000082, 10.002204 
2.8837988e+3, 1.5735789e+2, -1302312.8, -1326871.4, -18574.66, -0.040245242, 0.083436124, -1292325.5, 105567.96, 0.0000000006124831, 10.0011215, 10.000689 
2.8834167e+3, 1.673497e+2, -1392639.8, -1721468.8, -7187.8345, -0.038672637, 0.14959471, -1392482.6, -92506.586, 0.0, 10.001567, 9.997067 
2.8830332e+3, 1.7734104e+2, -1280772.6, -1618850.5, -5125.8145, -0.17013147, 0.25470904, -1280695.0, -78627.71, 0.0, 10.00165, 9.99708 
2.882649e+3, 1.8733229e+2, -1068839.6, -1243731.3, -109269.64, -0.18665858, 0.2930841, -1016333.25, 87821.29, 0.0, 10.001589, 9.999001 
2.882265e+3, 1.9732322e+2, -1034721.9, -1208122.5, -88781.37, -0.06631416, 0.16825424, -997329.2, 8913.564, 0.0, 10.001248, 9.998759 
2.8818837e+3, 2.0731582e+2, -915098.06, -980072.5, 76183.734, 0.030387426, 0.23181382, -864763.94, 43549.27, 0.0, 10.000955, 9.999736 
2.8815034e+3, 2.1730869e+2, -901752.2, -998695.94, 82014.23, 0.10446009, 0.24077825, -854956.75, -44576.156, 0.0, 10.000655, 9.999101 
2.881119e+3, 2.2729972e+2, -806082.94, -868178.56, 53565.83, -0.06497835, 0.16433194, -775217.44, -62750.074, 0.0, 10.000514, 9.99938 
2.880733e+3, 2.3728982e+2, -817565.75, -882217.94, 61730.7, -0.30234504, -0.07204156, -780209.3, -165645.72, 0.0, 10.000011, 9.9988785 
2.8803498e+3, 2.4728245e+2, -611610.1, -668536.2, 112927.5, -0.35278666, 0.023206871, -523613.88, -6978.569, 0.0, 10.00047, 9.999445 
2.8799674e+3, 2.572757e+2, -538118.06, -660705.3, 95956.91, -0.31903273, 0.10503491, -485549.3, -66848.52, 0.0, 10.000607, 9.99878 
2.879585e+3, 2.6726738e+2, -434806.66, -528640.9, 144364.63, -0.3248463, 0.12918353, -329926.7, -9143.904, 0.0, 10.000563, 9.998981 
2.879202e+3, 2.772577e+2, -457479.25, -561147.75, 122557.31, -0.31211868, -0.041501414, -376245.53, -153367.5, 0.0, 10.000001, 9.998396 
2.878817e+3, 2.8724936e+2, -251640.17, -315630.56, 19796.666, -0.18765725, -0.004591464, -246010.89, -121049.53, 0.0, 10.000377, 9.999184 
2.878431e+3, 2.972413e+2, -289314.78, -364667.5, 76945.96, -0.011682813, -0.033427235, -241316.25, -214273.64, 0.0, 9.999734, 9.998533 
2.878046e+3, 3.0723402e+2, -82784.484, -68275.12, 246892.77, -0.08494329, 0.07737289, 171469.52, 171469.52, 0.0, 9.999927, 9.9997835 
2.877662e+3, 3.1722698e+2, -145971.64, -232398.6, 191946.95, -0.14796476, 0.08347216, 7566.096, 7566.096, 0.0, 9.99976, 9.998458 
2.877271e+3, 3.2721996e+2, -328751.0, -199952.6, -89222.58, -0.2613144, 0.2062929, -154315.78, -154315.78, 0.0, 9.998188, 9.999232 
2.8945556e+3, 1.3775496e+2, -1511863.1, -1534678.3, -176740.16, -0.32438862, 0.2832864, -1346162.8, 243845.77, 0.0000000028010363, 10.000994, 10.000614 
2.8941745e+3, 1.4774503e+2, -1715341.6, -1663510.8, 74772.06, -0.012144656, 0.0076953927, -1610290.4, -118190.72, 0.0, 9.99937, 9.999862 
2.8937948e+3, 1.577377e+2, -1482767.5, -1591512.6, 25835.766, 0.10622485, -0.0408322, -1476941.6, -82772.59, 0.0, 10.000664, 9.999085 
2.8934127e+3, 1.6772974e+2, -1317733.0, -1535024.8, -18011.943, 0.09372499, 0.016358275, -1316250.0, -20002.457, 0.0, 10.001429, 9.998407 
2.8930292e+3, 1.7772116e+2, -1240034.8, -1518526.5, 17879.08, -0.068816125, 0.01042865, -1238891.6, -40558.07, 0.0, 10.001566, 9.997812 
2.8926444e+3, 1.8771192e+2, -1089562.4, -1342149.1, -117192.555, -0.121388115, 0.019990098, -1043564.94, 56861.273, 0.0, 10.001786, 9.998241 
2.892259e+3, 1.9770242e+2, -989964.0, -1202962.6, -85818.38, -0.11746713, -0.05931383, -959690.2, 42830.66, 0.0, 10.001565, 9.998666 
2.8918767e+3, 2.0769538e+2, -784269.7, -754689.1, 36493.566, -0.083703645, -0.05844084, -730102.6, 174482.95, 0.0, 10.001111, 10.001213 
2.8914952e+3, 2.176889e+2, -812528.7, -802494.94, 91655.516, -0.081788726, -0.1191439, -715719.06, 90924.08, 0.0, 10.000529, 10.000528 
2.8911114e+3, 2.276825e+2, -791027.8, -781721.06, 46720.465, -0.15812363, -0.044484437, -739422.8, -30715.564, 0.0, 10.000215, 10.000135 
2.890726e+3, 2.3767577e+2, -769772.94, -762170.3, 100981.94, -0.29335386, -0.01653061, -664918.2, -54141.414, 0.0, 9.999813, 9.999826 
2.8903434e+3, 2.4766843e+2, -586543.4, -607508.5, 182725.63, -0.31755194, 0.005693676, -413999.88, 98849.44, 0.0, 10.00034, 9.99996 
2.8899613e+3, 2.576607e+2, -391758.44, -478114.13, 170966.03, -0.3258776, -0.03894456, -258602.19, 156322.58, 0.0, 10.001002, 9.999882 
2.8895777e+3, 2.6765466e+2, -518772.53, -375512.38, 148587.55, -0.3019704, 0.063478455, -282190.56, 34794.598, 0.0, 9.999086, 10.000767 
2.889193e+3, 2.776486e+2, -843476.9, -577074.4, 208693.89, -0.27679843, 0.12793349, -462695.94, -243649.5, 0.0, 9.996523, 9.999983 
2.8888085e+3, 2.876405e+2, -493143.16, -428161.78, 217389.22, -0.2367716, 0.12840019, -240848.66, -119720.04, 0.0, 9.998579, 9.99932 
2.8884238e+3, 2.9763156e+2, 101843.875, -146770.67, 199465.11, -0.17068233, 0.03543686, 212565.6, 235785.05, 0.0, 10.002171, 9.998889 
2.8880396e+3, 3.0762386e+2, 28766.97, -77222.73, 175855.3, -0.033050783, 0.11703217, 159439.05, 159439.05, 0.0, 10.000898, 9.999304 
2.8876573e+3, 3.1761643e+2, -414704.88, -399800.72, 49894.52, 0.21607752, 0.17665035, -356804.84, -356804.84, 0.0, 9.997953, 9.998254 
2.8872633e+3, 3.276077e+2, 27747.861, -151646.69, -176006.42, -0.27706116, 0.25949818, 135595.17, 135595.17, 0.0, 10.00088, 9.998458 
2.9045516e+3, 1.3813704e+2, -1561898.4, -1615574.9, -286759.8, -0.075124405, 0.04975809, -1300723.6, 285531.47, 0.00000000011876347, 10.000774, 10.000236 
2.904168e+3, 1.4812645e+2, -1305407.5, -1613203.4, 117209.12, -0.03889498, -0.18676066, -1265856.4, 222499.42, 0.0, 10.00277, 9.998613 
2.9037902e+3, 1.5811872e+2, -1246384.6, -1551705.8, 114200.336, 0.19824639, -0.14430779, -1208396.4, 182036.05, 0.0, 10.002569, 9.998465 
2.903408e+3, 1.6811095e+2, -1108156.5, -1319625.0, 68567.18, 0.17418703, -0.10262146, -1087870.1, 204637.78, 0.0, 10.002413, 9.9994 
2.9030246e+3, 1.7810263e+2, -1139319.0, -1401184.1, 53763.395, 0.010344418, -0.17117462, -1128710.6, 65877.53, 0.0, 10.001975, 9.998427 
2.9026395e+3, 1.8809359e+2, -1034496.94, -1338407.6, -6046.5776, -0.064149, -0.14731269, -1034376.7, 62302.54, 0.0, 10.00225, 9.998027 
2.9022542e+3, 1.9808422e+2, -880711.75, -1137730.6, 55436.42, -0.059562523, -0.2036775, -869264.5, 129509.46, 0.0, 10.002274, 9.998734 
2.90187e+3, 2.080772e+2, -655098.25, -607695.06, 127381.34, -0.14060418, -0.24715792, -501829.03, 399008.25, 0.0, 10.001633, 10.001948 
2.901487e+3, 2.180708e+2, -808831.6, -739746.2, 88208.84, -0.20824076, -0.38281304, -679557.7, 123334.82, 0.0, 10.000326, 10.001036 
2.9011035e+3, 2.2806634e+2, -753147.0, -685059.06, 49331.883, -0.22912474, -0.17338166, -659164.5, 45774.688, 0.0, 10.000233, 10.000735 
2.9007193e+3, 2.3806205e+2, -774827.3, -738445.75, 75651.12, -0.22963716, 0.024080086, -678829.06, -71841.42, 0.0, 9.999727, 10.000007 
2.9003373e+3, 2.4805465e+2, -630647.94, -539617.2, 199854.67, -0.24543753, -0.009307946, -380160.53, 128899.914, 0.0, 9.999786, 10.000603 
2.8999552e+3, 2.5804615e+2, -626407.6, -524184.06, 147489.95, -0.25820988, -0.2275704, -419200.66, -8058.2734, 0.0, 9.999236, 10.000351 
2.89957e+3, 2.6804236e+2, -422025.75, -162208.31, 34682.215, -0.2522354, -0.009373112, -157658.38, 155523.0, 0.0, 9.999114, 10.002173 
2.899183e+3, 2.7803957e+2, -608924.94, -410969.1, 101507.49, -0.23083095, 0.21416938, -368171.13, -152959.56, 0.0, 9.997989, 10.000398 
2.8987992e+3, 2.8803203e+2, -429545.38, -402064.22, 240938.16, -0.30683815, 0.262202, -174475.16, -57184.34, 0.0, 9.999184, 9.9991665 
2.8984165e+3, 2.9802263e+2, -201223.7, -377095.72, 172705.84, -0.3775152, 0.12697193, -95355.555, -75966.92, 0.0, 10.000608, 9.9980135 
2.8980315e+3, 3.0801547e+2, 31687.195, -165783.25, 57188.4, -0.22458836, 0.33274418, 47053.492, 47053.492, 0.0, 10.001506, 9.998237 
2.8976473e+3, 3.180086e+2, -257276.67, -622733.7, 112700.85, 0.10901451, 0.57176524, -225316.6, -225316.6, 0.0, 10.000558, 9.995335 
2.8972614e+3, 3.2799256e+2, 113015.836, -139710.92, 320727.94, 0.109087735, 0.0046250545, 331375.7, 331375.7, 0.0, 10.0019655, 9.997721 
2.9145497e+3, 1.3851668e+2, -1570277.1, -1466795.8, -99826.07, 0.35205826, -0.25465742, -1406098.3, 176429.61, 0.0000000000007792345, 10.000139, 10.001548 
2.9141605e+3, 1.4851105e+2, -1329520.6, -1588891.1, 109994.38, -0.37296543, -0.051539063, -1289155.8, 195425.14, 0.0, 10.002496, 9.998889 
2.9137838e+3, 1.5850173e+2, -1266652.9, -1543581.3, 132403.02, -0.04496239, -0.20097852, -1213537.1, 173139.13, 0.0, 10.00237, 9.998616 
2.9134017e+3, 1.684943e+2, -1085379.5, -1255776.9, 60934.16, -0.059652362, -0.16254477, -1065831.9, 222916.83, 0.0, 10.002346, 9.999859 
2.9130173e+3, 1.7848709e+2, -1096980.6, -1297850.0, 69928.49, -0.26972786, -0.16874994, -1075034.3, 115783.81, 0.0, 10.001882, 9.99919 
2.9126334e+3, 1.8847996e+2, -885627.25, -1085789.1, 31825.736, -0.19154029, -0.0885881, -880688.8, 212201.08, 0.0, 10.002466, 9.999662 
2.91225e+3, 1.9847275e+2, -760701.94, -991340.6, 129828.5, -0.0667224, -0.0670434, -702372.25, 292591.06, 0.0, 10.002669, 9.999564 
2.9118648e+3, 2.0846602e+2, -659290.7, -743666.2, 119298.72, -0.1896445, -0.033263184, -574939.94, 322088.53, 0.0, 10.002116, 10.000805 
2.9114792e+3, 2.1845928e+2, -734284.0, -765070.56, 86740.02, -0.40827248, -0.078805186, -661581.94, 137510.42, 0.0, 10.001025, 10.000551 
2.9110956e+3, 2.284533e+2, -630440.94, -609789.5, 46351.293, -0.37894237, -0.019757846, -572627.7, 128525.21, 0.0, 10.000942, 10.000945 
2.910712e+3, 2.3844731e+2, -536121.75, -542772.9, 82799.17, -0.31643322, 0.00594001, -456581.4, 146632.86, 0.0, 10.000903, 10.000824 
2.9103303e+3, 2.4844067e+2, -495974.3, -350388.06, 170621.88, -0.24020247, -0.062869094, -237680.06, 267595.63, 0.0, 10.00008, 10.001793 
2.9099482e+3, 2.5843373e+2, -560722.56, -399934.13, 152499.86, -0.20018916, -0.21457337, -307935.1, 99403.85, 0.0, 9.999152, 10.00128 
2.9095623e+3, 2.6842812e+2, -317317.97, -222167.39, 41568.86, -0.26929379, -0.15253973, -206565.33, 102828.76, 0.0, 10.00018, 10.001306 
2.9091752e+3, 2.78423e+2, -98986.75, -207265.2, 33442.95, -0.36795163, -0.07073852, -89490.4, 121956.586, 0.0, 10.001551, 10.0001135 
2.9087934e+3, 2.8841555e+2, -146605.3, -299675.88, 134707.8, -0.24522245, 0.00030913576, -68208.85, 45318.18, 0.0, 10.001198, 9.998925 
2.908411e+3, 2.9840806e+2, -149860.16, -116849.33, 95085.31, -0.25949553, 0.054435726, -36847.516, -21239.383, 0.0, 9.999764, 10.000237 
2.9245433e+3, 1.3890009e+2, -1268940.3, -1287270.5, -52384.906, 0.2756068, -0.3254348, -1224924.8, 353843.03, 0.0, 10.001996, 10.001886 
2.924155e+3, 1.4889666e+2, -1579059.9, -1716771.1, 209048.08, -0.36403593, 0.09584082, -1427819.6, 52980.348, 0.0, 10.000772, 9.998847 
2.9237792e+3, 1.5888546e+2, -1308028.5, -1541417.5, 162593.17, 0.029263144, -0.22838944, -1224587.6, 158327.25, 0.0, 10.001951, 9.998842 
2.923396e+3, 1.6887866e+2, -1179853.9, -1270733.1, 72237.97, -0.11034763, -0.1565425, -1139952.5, 145029.55, 0.0, 10.001527, 10.00019 
2.92301e+3, 1.7887248e+2, -1266304.4, -1317386.5, 62176.703, -0.38676682, -0.08629717, -1224627.1, -37585.36, 0.0, 10.000449, 9.999771 
2.9226273e+3, 1.8886618e+2, -1091183.0, -1072580.4, 7750.22, -0.26480904, -0.015964342, -1069774.6, 19329.969, 0.0, 10.000626, 10.0006075 
2.9222453e+3, 1.9885974e+2, -1050055.3, -1109666.6, 12296.186, -0.0033725747, -0.014880679, -1047618.5, -56448.824, 0.0, 10.000573, 9.999779 
2.9218593e+3, 2.0885375e+2, -873304.1, -910749.0, 54097.254, -0.17531765, 0.11726916, -834781.1, 58449.594, 0.0, 10.000992, 10.000188 
2.9214725e+3, 2.1884744e+2, -862347.06, -898244.1, 71264.055, -0.44109553, 0.16694994, -806806.06, -11511.273, 0.0, 10.000517, 9.999885 
2.9210883e+3, 2.2884001e+2, -738043.0, -654369.1, 68634.68, -0.4335148, 0.10058361, -615825.44, 81542.77, 0.0, 10.000224, 10.000964 
2.920705e+3, 2.3883246e+2, -766748.4, -630323.56, 73382.0, -0.32819304, -0.056726776, -598346.9, 1094.9266, 0.0, 9.999307, 10.000971 
2.9203233e+3, 2.4882703e+2, -528691.94, -247418.88, 136651.11, -0.20958032, -0.084248096, -191963.17, 309525.25, 0.0, 9.999418, 10.002794 
2.9199412e+3, 2.5882164e+2, -629064.9, -446832.0, 115090.34, -0.100903995, -0.18545543, -391156.1, 12377.415, 0.0, 9.998836, 10.001101 
2.919555e+3, 2.6881388e+2, -446517.53, -376967.13, 90147.39, -0.2817717, -0.27101454, -315120.03, -9511.746, 0.0, 9.999884, 10.000281 
2.919168e+3, 2.7880573e+2, -373259.44, -451234.8, 98941.19, -0.4933819, -0.4152629, -305901.47, -98211.945, 0.0, 10.000281, 9.999009 
2.9187882e+3, 2.8879854e+2, -320764.34, -409275.13, 152871.19, -0.1342097, -0.2666241, -205871.56, -96103.09, 0.0, 10.000235, 9.998567 
2.9184046e+3, 2.9879335e+2, -271823.72, 135172.69, 119450.75, -0.117327884, -0.06841929, 167640.6, 179468.1, 0.0, 9.997731, 10.002928 
2.9345322e+3, 1.392873e+2, -1494430.3, -1437430.1, -408936.6, -0.31267506, -0.11241964, -1056001.6, 518974.0, 0.0, 10.000728, 10.001442 
2.9341525e+3, 1.4928283e+2, -1681107.0, -1787339.4, 260307.13, -0.025837436, 0.22524492, -1468552.1, 8466.19, 0.0, 10.000172, 9.998654 
2.933778e+3, 1.5927014e+2, -1395036.3, -1592332.6, 185727.13, 0.339339, -0.22607443, -1283384.6, 95763.42, 0.0, 10.001391, 9.998772 
2.9333916e+3, 1.6926484e+2, -1219828.1, -1255982.0, 32394.795, 0.030891376, -0.027764691, -1200807.9, 80394.195, 0.0, 10.00112, 10.000478 
2.9330027e+3, 1.7926016e+2, -1347379.0, -1375381.0, 54634.324, -0.48152515, 0.17850263, -1304980.3, -121731.31, 0.0, 9.999951, 9.999623 
2.9326192e+3, 1.8925112e+2, -1228161.5, -1237551.4, -14959.949, -0.39759472, 0.03740285, -1217177.1, -131839.83, 0.0, 10.0000925, 9.999736 
2.932237e+3, 1.9924177e+2, -1107187.4, -1094330.9, -12645.377, -0.18219435, -0.18235187, -1086573.6, -99144.92, 0.0, 9.9999695, 10.000176 
2.9318532e+3, 2.0923725e+2, -790878.94, -688881.25, 46112.926, -0.15398955, -0.04196494, -671124.9, 218348.45, 0.0, 10.000763, 10.001827 
2.9314685e+3, 2.1923305e+2, -694718.44, -715996.2, 92004.84, -0.25693363, 0.087685026, -612739.44, 178775.33, 0.0, 10.001141, 10.000862 
2.931083e+3, 2.292258e+2, -709079.2, -685058.4, 42761.96, -0.28021836, 0.03675114, -652652.2, 40934.395, 0.0, 10.000497, 10.00068 
2.930698e+3, 2.392182e+2, -698677.7, -564924.6, 73878.03, -0.31305104, -0.0881025, -532149.56, 63511.625, 0.0, 9.999478, 10.001396 
2.9303154e+3, 2.4921381e+2, -461892.66, -209782.7, 129304.9, -0.24090154, -0.041415647, -155256.36, 342443.44, 0.0, 9.999724, 10.0029745 
2.9299334e+3, 2.5920948e+2, -383068.66, -274864.9, 92105.65, -0.17432575, -0.034530446, -222147.02, 177590.3, 0.0, 10.000142, 10.001704 
2.9295486e+3, 2.6920187e+2, -330982.6, -289470.38, 91144.805, -0.23228776, -0.15899354, -216748.19, 85062.305, 0.0, 10.000408, 10.000678 
2.9291633e+3, 2.79194e+2, -224633.45, -283961.94, 99762.45, -0.31496337, -0.30501089, -150218.34, 53669.785, 0.0, 10.00068, 10.000031 
2.9287836e+3, 2.891902e+2, -366009.03, -374533.9, 145791.36, 0.12548897, 0.10612098, -224417.81, -118485.734, 0.0, 9.999455, 9.999308 
2.9283953e+3, 2.9918283e+2, -196771.23, 174136.86, 71336.78, -0.14901507, 0.07018568, 187383.95, 195393.39, 0.0, 9.997885, 10.003237 
2.944527e+3, 1.3967204e+2, -1186353.5, -1361533.0, -451113.4, -0.26687828, -0.046656612, -814405.2, 756801.8, 0.0, 10.00301, 10.000917 
2.944148e+3, 1.4966637e+2, -1330976.6, -1566642.0, 213129.63, 0.14470679, 0.15543605, -1205275.4, 267986.5, 0.0, 10.002312, 9.99916 
2.9437727e+3, 1.5965562e+2, -1646147.8, -1664469.0, 161084.72, 0.4837337, -0.1539935, -1493963.4, -118591.21, 0.0, 9.999438, 9.9992285 
2.9433858e+3, 1.6965061e+2, -1311514.4, -1278161.8, 35903.305, 0.1090548, 0.051392294, -1255250.8, 22173.133, 0.0, 10.000444, 10.000625 
2.9429966e+3, 1.796459e+2, -1147851.4, -1292807.3, 37267.2, -0.42101285, 0.23725249, -1138831.5, 40640.93, 0.0, 10.001406, 9.9994545 
2.9426125e+3, 1.8963599e+2, -1119595.0, -1231524.8, 34287.008, -0.37629834, 0.04172012, -1109927.1, -28357.563, 0.0, 10.001049, 9.999317 
2.94223e+3, 1.9962561e+2, -1082294.4, -1066230.5, 70746.32, -0.13567507, -0.24588265, -1003061.6, -19391.29, 0.0, 10.000113, 10.000296 
2.941847e+3, 2.0962164e+2, -768962.0, -567314.75, 83808.3, -0.097742386, -0.13145624, -537030.7, 348677.3, 0.0, 10.00046, 10.002787 
2.9414636e+3, 2.1961838e+2, -838340.3, -775421.7, 25192.695, -0.085208446, 0.0049300585, -766577.7, 21161.078, 0.0, 10.000143, 10.000942 
2.941078e+3, 2.2961156e+2, -658819.44, -644038.06, 17568.152, -0.13918601, -0.016731782, -632369.3, 57435.71, 0.0, 10.000876, 10.000703 
2.9406914e+3, 2.396043e+2, -596405.25, -560125.25, 96991.39, -0.1955404, -0.1266563, -479592.1, 112284.15, 0.0, 10.000501, 10.000878 
2.9403085e+3, 2.4960051e+2, -423181.72, -208620.6, 142034.95, -0.23387617, 0.014955417, -137903.84, 356008.75, 0.0, 10.000245, 10.00264 
2.9399255e+3, 2.5959703e+2, -554927.2, -373919.75, 63881.277, -0.21503167, 0.116337664, -353645.6, 42299.594, 0.0, 9.999198, 10.00144 
2.9395425e+3, 2.6958987e+2, -467876.47, -287888.5, 83745.6, -0.13875565, -0.0049576596, -254950.61, 43063.184, 0.0, 9.999231, 10.001257 
2.9391593e+3, 2.7958286e+2, -552094.56, -396065.78, 78925.51, -0.042234123, -0.13823177, -363105.03, -163022.98, 0.0, 9.998373, 10.00035 
2.9387775e+3, 2.8958318e+2, -412787.1, -261908.34, 90243.664, 0.32465106, 0.5938554, -219725.36, -117641.52, 0.0, 9.998741, 10.000347 
2.938384e+3, 2.9956943e+2, -433086.53, -118510.125, 20930.14, -0.3300071, -0.12551725, -117123.664, -112903.08, 0.0, 9.997378, 10.001359 
2.9545265e+3, 1.4005326e+2, -1237933.8, -1396150.0, -203038.08, 0.0831216, -0.17318282, -1099137.0, 468335.4, 0.0, 10.002743, 10.0008135 
2.954141e+3, 1.5004764e+2, -1289195.3, -1396092.6, 44384.168, -0.124515094, -0.08007215, -1273169.4, 196357.83, 0.0, 10.001983, 10.000476 
2.9537612e+3, 1.6004245e+2, -1735674.9, -1649063.8, 109893.11, 0.10553994, 0.05968515, -1574251.3, -202670.81, 0.0, 9.998567, 9.999767 
2.9533777e+3, 1.7003478e+2, -1362618.5, -1312097.5, 89143.0, -0.03734221, -0.015680684, -1244705.1, 28952.336, 0.0, 10.000125, 10.000548 
2.9529923e+3, 1.8002729e+2, -1077964.0, -1194873.4, 42365.145, -0.36499885, -0.103892945, -1064226.3, 111506.336, 0.0, 10.001587, 10.000049 
2.952609e+3, 1.9002117e+2, -994893.25, -1049595.1, -1438.3218, -0.14824252, -0.026429709, -994855.5, 82939.914, 0.0, 10.001345, 10.000436 
2.9522264e+3, 2.0001489e+2, -1029848.25, -1039600.25, 92347.69, 0.08866183, 0.020724664, -942247.94, 37611.707, 0.0, 10.000398, 10.000363 
2.95184e+3, 2.100091e+2, -826073.5, -749510.1, 77289.6, -0.20199512, 0.0483057, -701541.2, 180376.03, 0.0, 10.000623, 10.001508 
2.951453e+3, 2.2000349e+2, -705689.0, -652762.9, 8513.353, -0.5322531, 0.050509576, -651427.2, 132544.23, 0.0, 10.000701, 10.00155 
2.9510707e+3, 2.2999766e+2, -382587.8, -308762.97, 46333.535, -0.32388407, -0.032296374, -286435.84, 399585.66, 0.0, 10.00185, 10.002569 
2.9506877e+3, 2.399917e+2, -234848.28, -355348.22, 110763.49, -0.120182335, -0.13758256, -169008.56, 419065.7, 0.0, 10.002749, 10.001223 
2.950303e+3, 2.499868e+2, -367905.8, -428432.4, 75836.69, -0.16676998, 0.035761986, -316516.97, 173610.19, 0.0, 10.001561, 10.000561 
2.9499185e+3, 2.5998178e+2, -395893.66, -305952.3, -35748.34, -0.21957603, 0.162784, -293474.72, 98705.8, 0.0, 10.00016, 10.001506 
2.9495347e+3, 2.6997477e+2, -413655.9, -109146.46, -12425.375, -0.09635445, -0.062329203, -108640.29, 185602.28, 0.0, 9.998826, 10.002745 
2.94915e+3, 2.799683e+2, -524894.75, -243687.97, 46507.54, -0.05582847, -0.2535294, -236195.9, -39895.934, 0.0, 9.997804, 10.001722 
2.9487643e+3, 2.899671e+2, -274034.78, -138373.53, 94766.43, -0.18517588, 0.23737383, -89663.734, 8652.041, 0.0, 9.999256, 10.001033 
2.9483756e+3, 2.999559e+2, 134118.06, 234007.94, -43802.89, -0.4106504, -0.26544937, 250494.84, 250918.81, 0.0, 10.000611, 10.002297 
2.9645228e+3, 1.4043592e+2, -1304944.8, -1554910.6, 130411.19, 0.121267244, -0.39977336, -1249296.0, 314422.66, 0.0, 10.002789, 9.999724 
2.9641354e+3, 1.5043195e+2, -1184808.5, -1405932.0, 6099.234, -0.1737817, -0.046500117, -1184640.4, 281121.84, 0.0, 10.002959, 9.999967 
2.9637527e+3, 1.6042656e+2, -1255485.0, -1399507.3, -12705.983, -0.029590877, 0.11248645, -1254372.6, 113446.38, 0.0, 10.001738, 9.999977 
2.9633707e+3, 1.7041865e+2, -1357469.9, -1264879.9, 69469.32, -0.03325514, -0.041544907, -1227693.1, 42203.344, 0.0, 9.999883, 10.001029 
2.9629874e+3, 1.8041086e+2, -1504205.4, -1334463.3, 58949.65, -0.13959692, -0.2176667, -1315999.1, -144025.78, 0.0, 9.998355, 10.000667 
2.962604e+3, 1.9040704e+2, -1213728.0, -1058650.9, -31463.91, 0.015510147, 0.008639665, -1052510.3, 21505.896, 0.0, 9.999488, 10.00124 
2.9622206e+3, 2.0040296e+2, -1119239.0, -1117348.9, 44841.688, 0.24308325, 0.21788773, -1073442.3, -97380.69, 0.0, 9.999992, 10.000013 
2.9618326e+3, 2.1039592e+2, -910852.94, -880980.25, 95078.23, -0.26467216, 0.19483224, -799672.3, 78460.01, 0.0, 10.000539, 10.000603 
2.961444e+3, 2.203887e+2, -793480.3, -683320.94, 67771.31, -0.74625266, 0.08984445, -651069.5, 129132.734, 0.0, 10.000155, 10.001566 
2.9610637e+3, 2.303835e+2, -455081.75, -192425.19, 58876.67, -0.4300043, -0.034578826, -179831.33, 502410.06, 0.0, 10.00077, 10.00386 
2.9606834e+3, 2.4037854e+2, -615534.44, -610273.94, 11542.936, -0.023587044, -0.1388752, -601065.4, -16785.361, 0.0, 10.00051, 10.000557 
2.9602975e+3, 2.503724e+2, -659394.1, -760846.0, 5297.0986, -0.10572953, 0.049676567, -659118.3, -172769.23, 0.0, 10.000444, 9.998786 
2.9599115e+3, 2.603659e+2, -599033.8, -477584.63, -38591.563, -0.18414068, 0.15958762, -466359.34, -77938.445, 0.0, 9.9992, 10.000751 
2.9595265e+3, 2.7035898e+2, -331839.56, 64498.707, -66003.305, -0.08060665, -0.13165955, 75201.41, 365678.22, 0.0, 9.998906, 10.003835 
2.9591396e+3, 2.8035247e+2, -544755.8, -229322.39, -8325.278, -0.14411038, -0.4334836, -229102.81, -36573.984, 0.0, 9.997723, 10.001811 
2.9587495e+3, 2.903485e+2, -363322.38, -132753.3, 71093.516, -0.84191066, -0.27406028, -112594.81, -18023.291, 0.0, 9.998596, 10.001307 
2.9583725e+3, 3.0034322e+2, -29005.752, 337704.44, -148739.31, -0.068862386, -0.29315117, 390447.78, 390447.78, 0.0, 9.9989195, 10.003777 
2.974515e+3, 1.4082548e+2, -1590621.5, -1978089.3, 101569.805, -0.26877463, -0.19154115, -1565610.6, -5719.221, 0.0, 10.002164, 9.997087 
2.974133e+3, 1.5081963e+2, -1469249.1, -1907730.1, -8705.943, 0.0055029574, 0.2742466, -1469076.4, -7112.0117, 0.0, 10.002622, 9.996659 
2.9737476e+3, 1.6080658e+2, -1280550.5, -1455914.5, -90488.93, -0.08179254, -0.084174186, -1242231.0, 121872.13, 0.0, 10.001781, 9.999559 
2.9733646e+3, 1.7080352e+2, -1280104.5, -1026935.94, -33577.97, 0.072283976, 0.10413557, -1022558.2, 243572.4, 0.0, 9.999559, 10.002817 
2.9729804e+3, 1.808002e+2, -1579997.1, -1312032.1, 35196.137, 0.03698813, 0.24684449, -1307486.4, -139325.11, 0.0, 9.997557, 10.001216 
2.9725942e+3, 1.9079411e+2, -1268152.8, -1123372.6, -3893.3455, -0.14769316, 0.25452778, -1123268.0, -53039.59, 0.0, 9.999203, 10.000969 
2.9722092e+3, 2.0078771e+2, -1018690.6, -998244.9, 30348.139, -0.26605323, 0.23473044, -976444.06, -4146.0107, 0.0, 10.000297, 10.000711 
2.9718256e+3, 2.1078113e+2, -819522.56, -748487.06, 85033.73, -0.3124013, 0.1746325, -691851.44, 182510.1, 0.0, 10.000745, 10.00144 
2.9714414e+3, 2.207747e+2, -693518.0, -657117.5, 67951.65, -0.42709506, 0.10410153, -604970.94, 171450.88, 0.0, 10.000808, 10.00148 
2.971058e+3, 2.3076874e+2, -552483.6, -423113.97, 13673.488, -0.36281964, 0.024533497, -421684.56, 256787.19, 0.0, 10.000747, 10.00236 
2.9706743e+3, 2.4076292e+2, -568240.8, -558188.7, -76166.4, -0.29476863, -0.051491976, -486882.7, 93639.18, 0.0, 10.000577, 10.000921 
2.9702887e+3, 2.5075695e+2, -559251.1, -567538.2, -35642.18, -0.3085957, 0.03215841, -527512.44, -44927.67, 0.0, 10.000373, 10.000203 
2.969903e+3, 2.6075068e+2, -428956.5, -380944.2, -32216.684, -0.31623852, 0.0790997, -364773.1, 19876.809, 0.0, 10.000139, 10.001 
2.969518e+3, 2.7074355e+2, -233920.28, -74509.875, -101203.23, -0.16917063, -0.107935674, -25393.447, 261317.17, 0.0, 10.000229, 10.002329 
2.9691318e+3, 2.807371e+2, -220513.03, -154472.28, -127382.76, -0.15875317, -0.25193667, -55899.67, 132866.44, 0.0, 10.000094, 10.001257 
2.9687455e+3, 2.9073423e+2, -362028.44, -205004.3, -96636.43, -0.37635595, 0.06473266, -159006.34, -68207.44, 0.0, 9.998763, 10.00083 
2.9683664e+3, 3.007271e+2, 153578.9, 568175.7, -174070.03, 0.11029992, -0.10653285, 631567.2, 631567.2, 0.0, 9.999368, 10.005226 
2.984509e+3, 1.4121078e+2, -1746784.0, -1793518.9, -183942.56, -0.30451182, -0.08632873, -1584730.6, -28608.508, 0.0, 9.999871, 9.999486 
2.9841298e+3, 1.5120503e+2, -1602179.4, -1948391.9, 62368.42, 0.22482853, 0.3181387, -1591286.8, -133097.55, 0.0, 10.001541, 9.996933 
2.9837412e+3, 1.6119047e+2, -1197542.5, -1398619.8, 130879.234, -0.16193365, -0.20533569, -1133043.6, 227298.33, 0.0, 10.002244, 9.999769 
2.9833567e+3, 1.711883e+2, -978136.8, -863576.9, 24603.963, -0.012623891, 0.086290754, -858516.25, 403845.22, 0.0, 10.00159, 10.00298 
2.9829723e+3, 1.8118602e+2, -1183021.0, -1181726.4, 48018.05, 0.0656197, 0.34662032, -1134351.4, 30031.557, 0.0, 10.000537, 10.000706 
2.9825863e+3, 1.9117928e+2, -1125214.3, -1108377.5, 28639.695, -0.1898711, 0.3466646, -1086944.5, -20487.504, 0.0, 10.000408, 10.000519 
2.982201e+3, 2.0117249e+2, -1053255.0, -977908.6, 29406.191, -0.38063097, 0.291541, -967790.7, 739.75903, 0.0, 9.9999075, 10.001051 
2.9818195e+3, 2.1116593e+2, -867621.2, -726821.94, 44302.348, -0.24268612, 0.17137718, -714042.2, 156549.92, 0.0, 10.000161, 10.001895 
2.981438e+3, 2.211602e+2, -912166.8, -823145.06, 26180.537, -0.0607402, 0.12804417, -816016.44, -43371.516, 0.0, 9.999634, 10.000906 
2.9810527e+3, 2.311544e+2, -611632.8, -562215.4, 38447.24, -0.22145659, 0.14834969, -541221.7, 133476.77, 0.0, 10.000927, 10.001285 
2.9806668e+3, 2.4114776e+2, -548302.94, -566856.2, -21082.395, -0.38244084, 0.084260285, -534546.5, 42213.88, 0.0, 10.000898, 10.000695 
2.980281e+3, 2.5114173e+2, -528012.0, -372471.94, -51872.867, -0.3852913, 0.049092773, -356759.5, 122058.54, 0.0, 9.999973, 10.001685 
2.9798955e+3, 2.6113567e+2, -756747.25, -645008.1, -62360.31, -0.30349463, 0.0432328, -617150.7, -236275.0, 0.0, 9.99847, 9.999981 
2.97951e+3, 2.7112812e+2, -496618.25, -372692.22, -62197.438, -0.22154966, -0.049541764, -346860.38, -63915.117, 0.0, 9.999273, 10.00071 
2.9791248e+3, 2.8112176e+2, -547771.3, -496837.88, -62989.477, -0.13447513, -0.030731317, -454361.75, -269356.84, 0.0, 9.998807, 9.999507 
2.9787442e+3, 2.911208e+2, -456600.34, -334040.47, -90226.02, 0.3173386, 0.5765685, -286251.78, -199230.6, 0.0, 9.9986515, 9.999938 
2.9783556e+3, 3.0110705e+2, -86655.37, 583733.1, 80085.26, -0.20755315, -0.2433702, 593167.44, 593167.44, 0.0, 9.99745, 10.00618 
2.994504e+3, 1.4158647e+2, -1350420.8, -662569.25, -129682.125, -0.1327384, -0.5319241, -638932.25, 913530.2, 0.0, 9.99867, 10.00783 
2.9941258e+3, 1.5158722e+2, -1341617.6, -1204158.4, 105487.016, 0.3539657, -0.07403413, -1146986.1, 307458.16, 0.0, 10.000748, 10.002411 
2.993733e+3, 1.6157962e+2, -1318949.1, -1470472.6, 167692.64, -0.5355253, -0.26275456, -1210698.3, 145818.89, 0.0, 10.001492, 9.999638 
2.9933465e+3, 1.7156996e+2, -1228679.8, -1327265.9, 5727.6963, -0.5163188, -0.46167016, -1228348.0, 30268.244, 0.0, 10.001358, 9.999909 
2.9929614e+3, 1.815626e+2, -1212701.8, -1301856.9, 16960.826, -0.47636405, -0.46505395, -1209584.3, -48891.273, 0.0, 10.000826, 9.999723 
2.9925814e+3, 1.9155966e+2, -1093622.9, -1113423.3, 17212.033, -0.07485525, -0.049566094, -1083666.9, -20940.727, 0.0, 10.000761, 10.000294 
2.9922006e+3, 2.0155618e+2, -1127862.1, -1044583.8, 3659.615, 0.22955598, 0.27450883, -1044423.3, -79659.56, 0.0, 9.999509, 10.000775 
2.9918152e+3, 2.1155089e+2, -926711.5, -756478.3, 17561.072, -0.0054943147, 0.29634225, -754685.6, 112129.29, 0.0, 9.999759, 10.001883 
2.9914296e+3, 2.2154504e+2, -742531.8, -636008.3, 25003.98, -0.25556278, 0.23441198, -630431.2, 138440.69, 0.0, 10.000272, 10.001888 
2.9910487e+3, 2.3153989e+2, -394696.34, -330860.3, 92800.99, -0.088186115, 0.21252225, -264641.75, 406283.1, 0.0, 10.001776, 10.002514 
2.9906675e+3, 2.4153525e+2, -238464.77, -377343.72, -20871.963, 0.13308886, 0.26331827, -235395.77, 337575.22, 0.0, 10.002766, 10.001114 
2.990282e+3, 2.5152892e+2, -468557.25, -466626.4, -145648.56, 0.35611334, 0.2842426, -321940.1, 153087.63, 0.0, 10.000837, 10.000674 
2.9898942e+3, 2.615217e+2, -628806.44, -464156.3, -117323.76, 0.36474544, 0.21436945, -403155.6, -26062.398, 0.0, 9.998694, 10.001181 
2.9895037e+3, 2.7151373e+2, -436933.97, -165614.83, 2094.7441, -0.043407727, -0.0523877, -165598.66, 113566.8, 0.0, 9.998863, 10.0023985 
2.989114e+3, 2.8150636e+2, -463247.25, -488311.75, 65599.35, -0.41901124, -0.19924104, -408993.78, -227758.06, 0.0, 9.999388, 9.999366 
2.988731e+3, 2.9149953e+2, -399704.03, -523747.22, 13139.018, -0.21006392, -0.002709821, -398327.56, -315014.94, 0.0, 9.999832, 9.998223 
2.9883403e+3, 3.014884e+2, -408145.03, 201515.5, -121744.64, -0.71322185, -0.3386111, 224927.9, 224927.9, 0.0, 9.99591, 10.004506 
3.0044985e+3, 1.4198764e+2, -1121770.0, -1159088.8, 542088.8, -0.122088, 0.3885793, -598019.5, 950507.2, 0.0, 10.002537, 10.002661 
3.0041176e+3, 1.519783e+2, -1757565.9, -1983718.5, 77131.48, 0.23939736, 0.4037427, -1733764.5, -283149.66, 0.0, 10.000299, 9.997268 
3.003726e+3, 1.61966e+2, -1833137.1, -1809674.1, -424489.06, -0.5473399, 0.041016743, -1396754.5, -44016.42, 0.0, 9.998197, 9.998892 
3.0033433e+3, 1.7196335e+2, -1329476.8, -1301332.3, -223997.2, -0.16542822, 0.40652272, -1090965.8, 163803.69, 0.0, 10.00022, 10.000582 
3.002962e+3, 1.8195719e+2, -1017470.56, -1246744.6, 99572.77, 0.12371378, 0.44945347, -980264.25, 176568.67, 0.0, 10.0021715, 9.999471 
3.0025765e+3, 1.9194807e+2, -762313.44, -984779.7, 73239.37, -0.021958478, 0.22688715, -740366.94, 318550.44, 0.0, 10.003034, 10.00006 
3.002192e+3, 2.0193687e+2, -662891.8, -1004199.6, 72635.0, -0.03529895, -0.12999853, -648077.1, 312946.78, 0.0, 10.003354, 9.999203 
3.0018073e+3, 2.1192993e+2, -855463.06, -733343.94, 66042.305, -0.061913505, -0.2387145, -704459.9, 158632.31, 0.0, 10.00029, 10.001697 
3.0014208e+3, 2.219256e+2, -1047110.44, -855695.3, 85832.15, -0.39240703, -0.104342714, -822845.1, -57707.71, 0.0, 9.998452, 10.001222 
3.001037e+3, 2.3192489e+2, -605748.06, -407118.22, 90715.63, -0.65712875, 0.27880263, -371923.75, 295230.38, 0.0, 10.000222, 10.002622 
3.0006552e+3, 2.4192287e+2, -548040.4, -463883.2, -112798.09, -0.60928804, 0.4986337, -385570.7, 183607.94, 0.0, 10.000367, 10.0016165 
3.00027e+3, 2.519131e+2, -233241.69, -261146.48, 76520.016, -0.18021396, 0.05550097, -169412.45, 301851.97, 0.0, 10.002132, 10.001312 
2.9998836e+3, 2.6190457e+2, -167602.34, -378964.44, 243274.9, 0.07648819, -0.14307085, -8045.443, 365293.63, 0.0, 10.002529, 9.9998255 
2.9994988e+3, 2.718998e+2, -180180.31, -134220.28, -97886.93, 0.2643751, 0.0011756957, -56652.14, 218728.53, 0.0, 10.00118, 10.00132 
2.9991102e+3, 2.8189418e+2, -234810.3, -416377.38, -217872.92, -0.075198136, 0.048317187, -89563.62, 87870.97, 0.0, 10.001208, 9.998891 
2.9987228e+3, 2.918854e+2, 269593.8, -168008.67, 203606.83, -0.3130781, -0.012228501, 349673.34, 429206.72, 0.0, 10.004487, 9.998245 
2.9983342e+3, 3.0188152e+2, 286863.28, 410363.8, -154066.38, -0.1877479, 0.41836154, 514594.1, 514594.1, 0.0, 10.001508, 10.003062 
