coord_x,coord_y,stress_xx,stress_yy,tau_xy,velocity_x,velocity_y,stress_1,eps,damage,lx,ly
4.9992117e+0, 1.2607343e+2, -1678455.6, -1553003.4, 94866.82, -0.05963679, 0.4826432, -1502000.5, 202508.13, 0.002661235, 9.999561, 10.001322 
5.000465e+0, 1.3607013e+2, -1624455.1, -1578318.0, 80547.734, 0.058563836, 0.0823644, -1517600.6, 88930.445, 0.0015827751, 9.999729, 10.000384 
5.000386e+0, 1.460717e+2, -1475145.4, -1377796.1, 36685.594, 0.049682803, 0.16691743, -1365519.6, 142991.5, 0.0007101352, 9.999752, 10.001073 
4.9994826e+0, 1.5607342e+2, -1393933.5, -1286248.6, -30191.324, -0.034728922, 0.20245412, -1278361.6, 132131.6, 0.00020845665, 9.999631, 10.001084 
4.9993786e+0, 1.6607381e+2, -1307896.5, -1211641.0, -43926.74, -0.0446827, 0.14358164, -1194608.6, 117878.63, 0.000030560015, 9.999625, 10.000929 
4.9998125e+0, 1.7607307e+2, -1206741.3, -1121468.9, -42312.44, -0.0044488534, -0.045865834, -1104036.9, 110454.71, 0.0000010193884, 9.999688, 10.000843 
5.000137e+0, 1.8607453e+2, -1086950.6, -1083915.3, -24634.81, 0.004736343, 0.05104325, -1060751.5, 55727.953, 0.0, 10.00015, 10.000207 
5.000373e+0, 1.9607736e+2, -897379.75, -962037.06, -25509.902, -0.00709342, 0.2948768, -888527.1, 129929.68, 0.0, 10.000864, 10.000029 
5.000495e+0, 2.0607695e+2, -822794.06, -1000238.6, -547.5058, -0.01397269, 0.3145308, -822792.4, 97670.734, 0.0, 10.001244, 9.998908 
5.00053e+0, 2.1607424e+2, -697781.5, -883726.6, 40854.402, -0.0186025, 0.13030729, -689201.25, 133288.5, 0.0, 10.001406, 9.998957 
5.000535e+0, 2.2607395e+2, -576983.9, -723562.56, 23647.035, -0.015064819, 0.18088722, -573263.44, 151228.36, 0.0, 10.001345, 9.999412 
5.000527e+0, 2.3607513e+2, -524878.4, -675607.5, -34382.918, -0.005971309, 0.33480102, -517405.75, 109072.82, 0.0, 10.001148, 9.999164 
5.000841e+0, 2.4607235e+2, -517368.47, -816568.6, -9054.307, 0.014939974, 0.23883331, -517094.72, 11410.35, 0.0, 10.001362, 9.997423 
5.001397e+0, 2.560668e+2, -340801.5, -672881.75, 36794.59, 0.045223184, -0.07932652, -336773.5, 93785.71, 0.0, 10.001868, 9.997494 
5.0012386e+0, 2.660655e+2, -184399.67, -425318.4, 20447.996, 0.035250634, -0.014403111, -182676.47, 149895.98, 0.000000019594776, 10.00175, 9.998574 
5.0005937e+0, 2.760671e+2, -175667.23, -389266.3, -21137.885, -0.002859763, 0.26434144, -173595.5, 60962.473, 0.00000061394036, 10.001219, 9.998404 
5.000974e+0, 2.8606418e+2, -79730.35, -459554.66, 2482.0002, -0.00037387223, 0.21291815, -79714.13, 56871.684, 0.000004739669, 10.001928, 9.996903 
5.002024e+0, 2.960576e+2, 235148.27, -268410.7, -911.46497, 0.028015096, -0.15418056, 235149.9, 273797.63, 0.00003407196, 10.003461, 9.996808 
5.001672e+0, 3.0605873e+2, 137739.58, -434470.03, -22981.295, 0.01200032, 0.34329966, 138661.08, 138661.08, 0.00018243087, 10.003075, 9.995521 
5.000341e+0, 3.1605372e+2, 80586.88, -157403.72, 18234.918, -0.036253665, 0.26521263, 81975.94, 81975.94, 0.0005321119, 10.001343, 9.998262 
1.4997597e+1, 1.2607184e+2, -1703439.8, -1580218.8, 85990.234, -0.18192935, 0.08440139, -1536045.6, 168463.23, 0.0025654268, 9.999469, 10.001186 
1.5001391e+1, 1.360719e+2, -1652925.3, -1627245.5, 88435.75, 0.17425376, 0.0523128, -1550722.4, 55779.977, 0.001528762, 9.999698, 10.00007 
1.5001173e+1, 1.4607255e+2, -1597329.4, -1616285.6, 28843.447, 0.15201105, 0.1515458, -1576446.6, -67949.836, 0.0006838554, 9.999694, 9.999471 
1.4998439e+1, 1.560709e+2, -1501186.1, -1494387.6, -29074.209, -0.104932606, 0.022768615, -1468514.6, -57995.9, 0.00019662829, 9.9995775, 9.999686 
1.4998157e+1, 1.6607177e+2, -1305786.9, -1191531.4, -45985.906, -0.13139337, 0.06323174, -1175322.4, 137189.23, 0.00002664921, 9.999562, 10.001104 
1.4999458e+1, 1.7607418e+2, -1202664.1, -1101768.0, -33753.617, -0.011991991, 0.18234001, -1091517.5, 122969.18, 0.00000066228677, 9.999643, 10.001008 
1.500039e+1, 1.8607476e+2, -1088133.9, -1066479.3, -561.06494, 0.012875991, 0.17830329, -1066464.6, 50015.676, 0.0, 10.000075, 10.000363 
1.5001118e+1, 1.9607417e+2, -887563.5, -925577.44, 4542.627, -0.021145407, 0.07092686, -887028.2, 131458.45, 0.0, 10.000801, 10.000313 
1.5001476e+1, 2.0607452e+2, -743216.5, -816320.44, 2891.6243, -0.04283737, 0.08296606, -743102.3, 177380.13, 0.0, 10.001172, 10.000207 
1.5001579e+1, 2.160755e+2, -640975.1, -746423.9, 50643.438, -0.05637981, 0.14989246, -620592.6, 201879.06, 0.0, 10.001331, 9.999937 
1.5001592e+1, 2.2607416e+2, -689403.3, -935300.7, 11995.971, -0.045784462, 0.13042797, -688819.5, 35665.8, 0.0, 10.001264, 9.997999 
1.5001556e+1, 2.3607126e+2, -613744.2, -839861.94, -35072.83, -0.018833686, 0.030392328, -608429.0, 18086.193, 0.0, 10.001074, 9.998074 
1.5002538e+1, 2.460703e+2, -426713.53, -616090.75, 6290.691, 0.045878153, 0.08582422, -426504.78, 102020.664, 0.0, 10.001311, 9.998832 
1.5004194e+1, 2.5607052e+2, -267109.72, -503281.4, 55371.375, 0.13589305, 0.21388008, -254772.17, 175751.25, 0.0, 10.001801, 9.998696 
1.5003717e+1, 2.6606914e+2, -264682.4, -579265.7, -4224.515, 0.10536291, 0.2715147, -264625.7, 67912.88, 0.0000000045160005, 10.0017, 9.997546 
1.5001793e+1, 2.7606672e+2, -251708.84, -532430.9, -30698.559, -0.007846361, 0.26424822, -248391.0, -13825.824, 0.00000044568839, 10.001158, 9.997456 
1.5002899e+1, 2.8606316e+2, -76678.58, -436697.88, 57696.73, -0.0023656308, 0.18571752, -67658.11, 68942.38, 0.000003862279, 10.001866, 9.997094 
1.5006076e+1, 2.9605854e+2, 249301.98, -221762.6, 51115.56, 0.08410312, -0.00022062025, 254784.75, 293429.78, 0.000030142082, 10.00339, 9.997168 
1.5005004e+1, 3.0605954e+2, 216895.36, -252051.75, -90522.51, 0.03468912, 0.39789948, 233762.55, 233762.55, 0.0001696507, 10.003016, 9.996803 
1.5000987e+1, 3.1605408e+2, 144519.5, 11202.41, -29267.08, -0.111101724, 0.16634169, 150661.53, 150661.53, 0.0005028014, 10.001209, 9.999487 
2.4998678e+1, 1.2607087e+2, -1596328.9, -1531178.5, -46528.18, -0.05510888, -0.0535833, -1506955.6, 197557.72, 0.0024531346, 10.000234, 10.001143 
2.5000823e+1, 1.3607249e+2, -1602769.8, -1615900.4, -45552.234, 0.1299962, 0.07310484, -1563312.1, 43183.203, 0.001461298, 10.000104, 9.999952 
2.5000465e+1, 1.460732e+2, -1602651.5, -1640845.0, -35481.605, 0.11144818, 0.19695811, -1581454.0, -72962.7, 0.0006489441, 9.99976, 9.999259 
2.4998724e+1, 1.5607093e+2, -1564886.8, -1552633.5, 9113.036, -0.016047549, 0.023171013, -1547779.1, -137258.56, 0.0001814002, 9.999263, 9.999432 
2.4998476e+1, 1.6607182e+2, -1351214.1, -1239691.3, 48181.664, -0.04362103, 0.09044913, -1221758.8, 90755.49, 0.000022322774, 9.999374, 10.000853 
2.4999218e+1, 1.7607465e+2, -1185477.0, -1113388.0, 24810.664, -0.008992995, 0.275305, -1105674.4, 108811.33, 0.00000035252413, 9.999862, 10.000812 
2.500013e+1, 1.860748e+2, -1133911.0, -1063450.9, 51880.69, 0.0032930651, 0.22066166, -1035969.25, 80512.71, 0.0, 9.999646, 10.000589 
2.5001225e+1, 1.9607313e+2, -1141810.6, -1022647.75, 62412.004, 0.004192649, -0.019076657, -995943.56, 22551.158, 0.0, 9.998947, 10.000532 
2.500224e+1, 2.060737e+2, -973891.56, -930970.9, 44488.523, -0.003295386, 0.00537854, -903037.1, 17451.344, 0.0, 9.9996, 10.000177 
2.5003177e+1, 2.1607567e+2, -675118.4, -767783.56, -11633.541, -0.016744064, 0.17103162, -673680.2, 148790.27, 0.0, 10.001117, 9.999894 
2.5003332e+1, 2.2607417e+2, -581149.4, -898586.25, -38201.94, -0.035951883, 0.14655922, -576616.7, 147869.44, 0.0, 10.002057, 9.997871 
2.5002977e+1, 2.3607041e+2, -398035.8, -749196.94, 7747.554, -0.058627814, -0.03265537, -397864.97, 228659.17, 0.0, 10.002598, 9.997964 
2.5003785e+1, 2.4606988e+2, -290216.22, -516879.1, 32317.342, 0.0011283242, 0.056008194, -285698.47, 242831.77, 0.0, 10.002111, 9.999117 
2.5005335e+1, 2.5607142e+2, -370014.66, -527200.7, -4950.4805, 0.112341404, 0.28362846, -369858.9, 60657.016, 0.0, 10.000988, 9.998915 
2.5005266e+1, 2.6606995e+2, -305058.94, -619783.0, -20005.488, 0.10103126, 0.33126253, -303792.4, 28739.945, 0.00000000030772893, 10.001521, 9.997348 
2.5004128e+1, 2.7606648e+2, 30460.148, -413316.53, 11479.1455, 0.010700645, 0.23699245, 30756.88, 265325.78, 0.00000033210142, 10.003179, 9.997293 
2.5005424e+1, 2.8606334e+2, 63516.35, -352174.28, 114124.625, 0.022508254, 0.19827448, 92787.266, 229388.4, 0.0000031221457, 10.002745, 9.997255 
2.5008357e+1, 2.9606017e+2, -101837.35, -365702.13, 101568.07, 0.10208944, 0.13767529, -67269.805, -28636.666, 0.000025684236, 10.000873, 9.99739 
2.5007078e+1, 3.060604e+2, -27529.982, -308407.6, -57602.23, 0.040291827, 0.4198926, -16175.919, -16175.919, 0.0001534223, 10.001075, 9.997356 
2.5002956e+1, 3.1605434e+2, 393351.44, 191195.05, -60047.156, -0.10199251, 0.06964367, 409842.2, 409842.2, 0.00046500997, 10.002665, 10.000023 
3.500237e+1, 1.260705e+2, -1603256.5, -1529722.9, -68866.37, 0.26699063, 0.04615603, -1488423.3, 216099.25, 0.0023328552, 10.000173, 10.001183 
3.4998658e+1, 1.3607189e+2, -1585908.3, -1578608.8, -47522.76, -0.11057632, 0.14873773, -1534595.8, 71914.12, 0.001385082, 10.000106, 10.000203 
3.499815e+1, 1.4607362e+2, -1520834.3, -1463296.3, -59146.74, -0.110641524, 0.29059353, -1426293.0, 82201.945, 0.00060841354, 9.999725, 10.000496 
3.5000187e+1, 1.5607351e+2, -1495779.4, -1400814.3, -991.6173, 0.1901765, 0.2131019, -1400803.9, 9694.68, 0.00016439817, 9.999234, 10.000484 
3.5000238e+1, 1.6607395e+2, -1395561.5, -1326525.0, 62795.39, 0.18078327, 0.21906935, -1289385.9, 23109.195, 0.000017966355, 9.999348, 10.000273 
3.499897e+1, 1.7607446e+2, -1220873.1, -1184704.9, 42583.707, -0.03235722, 0.2319377, -1156524.5, 57964.918, 0.00000014192928, 9.999852, 10.000329 
3.4999266e+1, 1.860745e+2, -1111094.0, -1006666.06, 21486.008, -0.05984545, 0.16627201, -1002418.1, 114067.055, 0.0, 9.999607, 10.000998 
3.5000592e+1, 1.9607423e+2, -1132806.6, -993435.9, 48714.773, 0.03325985, 0.028508106, -978096.7, 40385.035, 0.0, 9.9989, 10.000757 
3.500267e+1, 2.0607439e+2, -1070977.8, -1114982.8, 96367.695, 0.06978525, 0.07065847, -994132.7, -73650.5, 0.0, 9.999532, 9.998946 
3.50052e+1, 2.160747e+2, -750715.06, -908665.94, 46292.88, 0.06371986, 0.19675423, -738147.3, 84339.234, 0.0, 10.001053, 9.998957 
3.5005653e+1, 2.26074e+2, -501209.2, -715090.44, -21592.219, -0.021151714, 0.21863915, -499051.13, 225443.58, 0.0, 10.001987, 9.999165 
3.500468e+1, 2.3607261e+2, -332566.66, -596009.2, 26382.309, -0.15816782, 0.15493725, -329950.6, 296554.34, 0.0, 10.00253, 9.999047 
3.5004476e+1, 2.4607114e+2, -352161.2, -636630.9, -15247.799, -0.15289241, 0.14663199, -351346.22, 177172.7, 0.0, 10.002072, 9.998315 
3.500474e+1, 2.560695e+2, -423557.25, -624162.6, -33656.137, -0.057516795, 0.1394044, -418061.25, 12475.212, 0.0, 10.000929, 9.998277 
3.5005817e+1, 2.660679e+2, -257970.44, -516713.25, 38543.848, -0.006930314, 0.1614941, -252350.77, 80202.67, 0.00000000006499392, 10.001497, 9.998067 
3.500745e+1, 2.760663e+2, 72924.43, -314745.9, 64961.32, 0.012709054, 0.18384334, 83520.29, 318089.94, 0.00000028362408, 10.003133, 9.9979925 
3.5008407e+1, 2.860646e+2, 74014.21, -318708.84, 37958.723, 0.03474446, 0.2435829, 77649.47, 214237.75, 0.0000026203563, 10.002704, 9.997501 
3.5008755e+1, 2.960625e+2, -95500.28, -341938.8, 48266.33, 0.04239693, 0.26681542, -86384.266, -47772.23, 0.000020827198, 10.00083, 9.997572 
3.5007775e+1, 3.060612e+2, -33641.67, -318571.63, -215.09839, -0.008240548, 0.39541605, -33641.508, -33641.508, 0.0001336939, 10.001063, 9.997292 
3.5006076e+1, 3.1605455e+2, 381929.3, 173152.48, 9655.633, -0.08118102, -0.0049718963, 382374.94, 382374.94, 0.00041972147, 10.002635, 9.999916 
4.5002952e+1, 1.2607257e+2, -1745537.9, -1650046.6, 104800.94, 0.35707694, 0.13867696, -1582627.6, 121873.695, 0.0022111118, 9.999425, 10.000715 
4.4997588e+1, 1.3607223e+2, -1925970.1, -1784488.0, 72106.766, -0.113939345, 0.1194829, -1754215.9, -147706.6, 0.0013064536, 9.997958, 9.999828 
4.4996974e+1, 1.4607394e+2, -1680669.9, -1477759.1, 66710.58, -0.12583767, 0.24539667, -1457791.8, 50702.49, 0.00056747237, 9.998357, 10.001064 
4.500008e+1, 1.560755e+2, -1357894.5, -1286024.0, 59574.133, 0.22508499, 0.28071612, -1252386.1, 158092.56, 0.00014805637, 9.99996, 10.000935 
4.5000523e+1, 1.6607569e+2, -1273898.8, -1302790.3, 107989.914, 0.23015343, 0.26134852, -1179392.6, 133084.13, 0.000013959289, 10.000336, 9.999963 
4.4999188e+1, 1.7607471e+2, -1228696.3, -1222379.8, 98513.31, 0.0030096257, 0.15558016, -1126974.1, 87512.42, 0.000000037538413, 9.99994, 10.000032 
4.4999608e+1, 1.8607476e+2, -1011019.6, -985872.4, 68367.805, -0.023261178, 0.12048897, -928931.56, 187551.44, 0.0, 10.000415, 10.000755 
4.500115e+1, 1.9607563e+2, -785318.75, -854849.3, 41448.418, 0.07800935, 0.120646626, -765986.0, 252483.88, 0.0, 10.001416, 10.000498 
4.5003355e+1, 2.060755e+2, -825546.0, -1039579.94, 126926.61, 0.096599914, 0.16590196, -766541.9, 153932.38, 0.0, 10.001397, 9.998567 
4.5006028e+1, 2.1607457e+2, -823883.0, -974793.7, 131328.97, 0.065064, 0.20505953, -747876.1, 74615.31, 0.0, 10.000675, 9.998687 
4.5007e+1, 2.260743e+2, -698483.0, -729697.06, 65563.49, 0.0042659533, 0.2442075, -646694.56, 77799.84, 0.0, 10.000296, 9.999875 
4.500678e+1, 2.3607445e+2, -634786.0, -677369.2, 61074.875, -0.0799112, 0.26281783, -591397.9, 35090.13, 0.0, 10.000182, 9.999618 
4.500641e+1, 2.4607268e+2, -553568.44, -794657.56, 19086.635, -0.10714256, 0.22916102, -552066.75, -23561.68, 0.0, 10.000961, 9.997764 
4.5005932e+1, 2.560695e+2, -247851.8, -593961.44, 11136.089, -0.09949048, 0.12588547, -247493.86, 183045.05, 0.0, 10.002368, 9.997795 
4.500713e+1, 2.6606768e+2, -194759.05, -448903.88, 72139.62, -0.03587948, 0.13057472, -175709.86, 156847.75, 0.00000000016705606, 10.001773, 9.998402 
4.5009488e+1, 2.760668e+2, -373336.53, -491416.28, 60957.395, 0.068697825, 0.19282687, -347514.7, -112949.3, 0.00000025695456, 9.9999, 9.998342 
4.501008e+1, 2.8606564e+2, -257706.16, -419204.94, 45066.887, 0.06265003, 0.25881585, -245981.28, -109403.48, 0.0000021581377, 10.000177, 9.998027 
4.500938e+1, 2.9606393e+2, 97790.914, -198453.33, 68344.63, -0.029125946, 0.27408975, 112798.04, 151394.4, 0.000016077325, 10.0019455, 9.998023 
4.500901e+1, 3.0606183e+2, 154498.89, -218649.86, 64627.906, -0.04886596, 0.29276133, 165375.17, 165375.17, 0.00011232623, 10.00231, 9.997385 
4.500915e+1, 3.1605625e+2, 228594.75, 95038.91, 71289.46, 0.021922423, -0.0072601917, 259497.31, 259497.31, 0.0003706152, 10.0016, 9.999882 
5.4999906e+1, 1.2607725e+2, -1808743.1, -1804117.5, 33239.867, 0.07345305, 0.23842435, -1773110.0, -68661.734, 0.0020867882, 9.999506, 9.999622 
5.499736e+1, 1.360736e+2, -1988012.1, -1926229.4, 32798.074, 0.048983637, -0.0069052065, -1912065.3, -305572.88, 0.0012253985, 9.998008, 9.998834 
5.499674e+1, 1.4607427e+2, -1687156.0, -1498611.4, 124352.85, -0.0037326482, 0.067153186, -1436835.9, 71652.45, 0.00052635156, 9.998384, 10.000909 
5.499819e+1, 1.5607694e+2, -1364094.3, -1304340.8, 117420.125, 0.022214174, 0.2285047, -1213056.0, 197404.45, 0.00013276051, 9.999985, 10.000796 
5.49991e+1, 1.6607714e+2, -1279646.4, -1314331.5, 86874.17, 0.039491303, 0.22036682, -1208400.6, 104058.0, 0.0000106646075, 10.000335, 9.999885 
5.49997e+1, 1.760754e+2, -1241742.6, -1246509.9, 92372.47, 0.046521276, 0.047401123, -1151723.0, 62754.01, 0.000000007551507, 9.999928, 9.999871 
5.500098e+1, 1.8607567e+2, -1076338.0, -1115419.6, 102005.53, 0.060003296, 0.08879228, -992018.5, 124456.72, 0.0, 10.000389, 9.999878 
5.500269e+1, 1.9607735e+2, -838282.9, -961274.1, 75904.01, 0.07590561, 0.2577265, -802089.56, 216369.78, 0.0, 10.001405, 9.999771 
5.500417e+1, 2.0607702e+2, -796006.25, -971202.2, 94994.805, 0.025608093, 0.28935266, -754385.75, 166078.89, 0.0, 10.001365, 9.999052 
5.5005515e+1, 2.1607529e+2, -799044.5, -914348.2, 109607.75, -0.06716343, 0.19887923, -732851.3, 89633.52, 0.0, 10.000638, 9.999119 
5.500719e+1, 2.2607511e+2, -692878.6, -712373.44, 56747.934, -0.02090879, 0.22179256, -645047.0, 79438.19, 0.0, 10.000268, 10.000007 
5.50091e+1, 2.3607595e+2, -634783.0, -668720.9, 66028.945, 0.12125136, 0.29482934, -583577.44, 42895.387, 0.0, 10.000145, 9.999694 
5.500938e+1, 2.460745e+2, -580163.56, -844713.0, 68918.664, 0.080096334, 0.3064636, -563286.06, -34797.74, 0.0, 10.000939, 9.99743 
5.5008626e+1, 2.5607142e+2, -277202.8, -641099.6, 55132.96, -0.07946984, 0.24117373, -269033.2, 161490.2, 0.0, 10.002312, 9.997496 
5.5008984e+1, 2.6606932e+2, -202146.56, -460945.88, -4007.1887, -0.04101817, 0.24022728, -202084.53, 130460.08, 0.00000000012003064, 10.001756, 9.998328 
5.501009e+1, 2.76068e+2, -376962.75, -491408.94, 7603.3003, 0.12740864, 0.26091185, -376459.8, -141903.67, 0.00000017731924, 9.9998665, 9.998359 
5.501036e+1, 2.860664e+2, -204740.7, -308416.75, 107261.36, 0.05958231, 0.2434783, -137447.78, -878.02783, 0.0000014062957, 10.000173, 9.998792 
5.501009e+1, 2.9606444e+2, 142045.17, -97697.37, 131747.81, -0.16711183, 0.15498477, 200293.55, 238880.48, 0.00001153016, 10.001905, 9.998735 
5.5010563e+1, 3.060621e+2, 172162.78, -175547.27, 35943.355, -0.13731192, 0.10475723, 175839.42, 175839.42, 0.000091940805, 10.002288, 9.997687 
5.501172e+1, 3.1605926e+2, 229487.55, 102772.02, 57026.223, 0.092065655, 0.044561353, 251371.77, 251371.77, 0.0003222522, 10.001575, 9.999942 
6.49972e+1, 1.260784e+2, -2097600.5, -1919695.3, -58479.887, -0.03662052, 0.13516061, -1902193.8, -197758.64, 0.0019618457, 9.99743, 9.999831 
6.4997613e+1, 1.3607648e+2, -1678680.4, -1754082.1, 28842.873, 0.17754251, 0.037188813, -1668912.8, -62450.914, 0.0011414166, 10.000026, 9.9990425 
6.499708e+1, 1.4607641e+2, -1464080.5, -1447177.1, 143286.72, 0.108028986, 0.056182448, -1312093.0, 196371.36, 0.0004823892, 10.000165, 10.0004015 
6.499681e+1, 1.5607744e+2, -1571464.9, -1452645.4, 101589.92, -0.04965243, 0.10521376, -1394368.9, 16083.448, 0.00011742101, 9.998773, 10.0003605 
6.4998e+1, 1.6607784e+2, -1484554.3, -1386801.0, 87841.37, -0.024495235, 0.12263569, -1335153.9, -22705.11, 0.000008467286, 9.998813, 10.00012 
6.500015e+1, 1.7607749e+2, -1257861.0, -1240048.5, 111211.56, 0.112133086, 0.064449705, -1137387.1, 77066.91, 0.000000004638606, 9.999756, 10.0 
6.50018e+1, 1.8607779e+2, -1132933.6, -1212192.4, 164128.94, 0.11205044, 0.13833606, -1003717.5, 112736.16, 0.0, 10.000299, 9.999256 
6.500312e+1, 1.960786e+2, -993857.7, -1095388.0, 144107.16, 0.022727353, 0.28094038, -891835.5, 126613.555, 0.0, 10.000582, 9.99925 
6.500452e+1, 2.0607795e+2, -909097.44, -989255.44, 126903.89, -0.025970023, 0.28502205, -816094.0, 104362.516, 0.0, 10.000436, 9.999374 
6.5005946e+1, 2.1607627e+2, -876199.6, -923477.25, 126592.49, -0.052494314, 0.17056258, -771057.8, 51414.723, 0.0, 9.999991, 9.999366 
6.5007937e+1, 2.2607566e+2, -653113.6, -740690.2, 94260.55, 0.0067443945, 0.16386037, -592967.0, 131509.64, 0.0, 10.000742, 9.999589 
6.501032e+1, 2.3607577e+2, -346631.78, -567794.25, 50515.68, 0.12554574, 0.2057226, -335639.8, 290833.13, 0.0, 10.00228, 9.999366 
6.5011346e+1, 2.4607468e+2, -377524.03, -711670.2, 53861.367, 0.12468239, 0.25049096, -369056.63, 159428.55, 0.0, 10.002166, 9.997763 
6.5011466e+1, 2.5607273e+2, -449499.47, -691992.2, 81656.04, 0.04357546, 0.2675143, -424566.53, 5941.8384, 0.0, 10.000984, 9.997793 
6.501146e+1, 2.660706e+2, -229321.27, -492236.03, 43078.207, 0.03896167, 0.25697833, -222442.92, 110086.766, 0.00000000000043891748, 10.001647, 9.998165 
6.5011376e+1, 2.7606836e+2, 151310.13, -252068.6, 39285.703, 0.087766945, 0.20385878, 155100.61, 389650.28, 0.00000007111923, 10.003565, 9.998218 
6.501149e+1, 2.860667e+2, 230719.89, -95233.6, 107042.62, 0.010998723, 0.1844629, 262729.16, 399292.94, 0.0000006300397, 10.003146, 9.998827 
6.5011764e+1, 2.960653e+2, 37165.375, -140511.47, 72175.45, -0.14750259, 0.14822794, 62789.008, 101364.484, 0.000007787418, 10.00115, 9.998804 
6.501279e+1, 3.060628e+2, 94113.17, -182877.48, -9572.438, -0.1061018, 0.05888579, 94443.586, 94443.586, 0.0000752456, 10.001617, 9.997956 
6.501457e+1, 3.1606135e+2, 537493.25, 234568.25, -10612.77, 0.11616938, 0.1141598, 537864.6, 537864.6, 0.00028007987, 10.003755, 9.999801 
7.4994415e+1, 1.2607591e+2, -1977491.8, -1681418.0, 24689.627, -0.087601006, -0.168817, -1679373.3, 25089.563, 0.001839182, 9.997477, 10.001441 
7.499817e+1, 1.3608085e+2, -1574834.9, -1549286.9, 113062.08, 0.21386078, 0.25132084, -1448279.5, 158137.89, 0.0010576415, 10.000071, 10.000428 
7.4997795e+1, 1.460804e+2, -1519368.9, -1566805.0, 86503.71, 0.14663757, 0.2175236, -1453390.5, 55031.6, 0.00043753645, 10.000188, 9.999568 
7.499575e+1, 1.5607703e+2, -1620690.8, -1556330.1, 63623.03, -0.047422852, -0.08897912, -1517212.0, -106757.734, 0.00010224, 9.998781, 9.999646 
7.4996996e+1, 1.6607785e+2, -1447702.3, -1308390.0, 121695.02, -0.020960597, -0.026854921, -1237826.1, 74620.66, 0.000007138289, 9.998802, 10.000664 
7.500039e+1, 1.7608099e+2, -1224485.4, -1174055.9, 148697.3, 0.14512086, 0.20938337, -1048450.7, 165966.73, 0.00000003688298, 9.999769, 10.000446 
7.500194e+1, 1.8608114e+2, -1158324.9, -1265019.1, 170852.69, 0.08155728, 0.26733252, -1032684.4, 83734.08, 0.0, 10.0002985, 9.998896 
7.5002295e+1, 1.9607937e+2, -1019171.2, -1144075.9, 155904.84, -0.1310843, 0.19028538, -913675.25, 104763.65, 0.0, 10.000566, 9.998924 
7.50042e+1, 2.0607829e+2, -904272.2, -972294.75, 106823.805, -0.11418858, 0.1576731, -826175.94, 94273.516, 0.0, 10.000405, 9.999503 
7.5007117e+1, 2.1607754e+2, -880663.94, -925332.2, 122049.195, 0.053138476, 0.12068452, -778922.2, 43532.215, 0.0, 9.999957, 9.99937 
7.5009024e+1, 2.2607598e+2, -728207.0, -888699.3, 148699.53, 0.029120386, 0.07261798, -639482.75, 84985.63, 0.0, 10.000708, 9.998588 
7.501027e+1, 2.3607387e+2, -410538.84, -689114.4, 103101.92, -0.118403055, -0.009606646, -376531.8, 249956.8, 0.0, 10.002229, 9.998557 
7.501209e+1, 2.4607325e+2, -312282.78, -566784.56, 5282.8477, -0.02941317, 0.06295586, -312173.16, 216322.03, 0.0, 10.00213, 9.998772 
7.501431e+1, 2.5607353e+2, -394289.8, -570146.7, 52954.8, 0.21891204, 0.20467275, -379575.06, 50918.297, 0.0, 10.000951, 9.998646 
7.5014406e+1, 2.6607153e+2, -249248.9, -529688.1, 113261.94, 0.15731259, 0.18193302, -209219.23, 123293.21, 0.0, 10.001631, 9.997917 
7.5013113e+1, 2.76068e+2, 122728.93, -300833.2, 103084.97, -0.10906057, 0.021453813, 146484.97, 381030.53, 0.000000009748358, 10.003518, 9.997905 
7.5013214e+1, 2.8606662e+2, 181309.23, -193528.7, 27554.08, -0.1443434, 0.081631154, 183323.89, 319883.4, 0.00000018216522, 10.003128, 9.998158 
7.501422e+1, 2.9606658e+2, -9616.891, -229707.98, 16423.758, -0.029004019, 0.24893995, -8398.059, 30163.725, 0.000005368871, 10.001113, 9.998211 
7.501559e+1, 3.0606383e+2, 105399.54, -156266.06, 70653.61, 0.00012552086, 0.15417908, 123258.21, 123258.21, 0.00006268461, 10.001606, 9.998142 
7.5017476e+1, 3.1606245e+2, 501401.97, 180740.22, 79034.88, 0.0068206373, 0.19520475, 519823.72, 519823.72, 0.00024572245, 10.003665, 9.999472 
8.499284e+1, 1.2607658e+2, -2048283.9, -1649656.5, 53665.266, 0.050649796, -0.08865029, -1642558.3, 61904.613, 0.0017199421, 9.9966955, 10.002037 
8.499656e+1, 1.3608156e+2, -1806282.0, -1586745.3, 46734.824, 0.1443762, 0.26694292, -1577210.5, 29202.08, 0.0009794245, 9.99817, 10.0010805 
8.499668e+1, 1.4608128e+2, -1699752.0, -1638813.4, -43908.63, 0.08478709, 0.21066532, -1615837.9, -107423.445, 0.0003977733, 9.998878, 9.99971 
8.499562e+1, 1.5607871e+2, -1568711.0, -1518815.9, 5680.802, 0.049925998, -0.030894024, -1518177.3, -107738.25, 0.000088897265, 9.999082, 9.999759 
8.49968e+1, 1.660794e+2, -1423337.3, -1324371.9, 101039.93, 0.06817315, 0.028317327, -1261348.6, 51083.813, 0.000006071428, 9.999093, 10.000414 
8.499947e+1, 1.7608179e+2, -1355609.1, -1259413.9, 60871.76, 0.11952256, 0.21348363, -1229930.9, -15520.943, 0.000000076650345, 9.998964, 10.000249 
8.50016e+1, 1.8608147e+2, -1324128.6, -1328474.4, 82984.055, 0.081450604, 0.22476108, -1243289.0, -126874.57, 0.0, 9.999093, 9.999043 
8.5003394e+1, 1.9607951e+2, -1186168.0, -1210742.3, 99142.72, -0.013642613, 0.11530936, -1098553.9, -80118.67, 0.0, 9.999365, 9.999045 
8.500544e+1, 2.0607857e+2, -981241.9, -1035404.1, 54309.152, -0.0066952007, 0.10571152, -947636.3, -27191.81, 0.0, 9.999983, 9.999281 
8.5007614e+1, 2.1607822e+2, -773285.2, -897605.5, 34958.76, 0.068402275, 0.13253914, -764129.1, 58317.816, 0.0, 10.000795, 9.999162 
8.5009766e+1, 2.2607663e+2, -708400.2, -895058.56, 110541.95, 0.025065748, 0.098861806, -657057.8, 67403.92, 0.0, 10.000914, 9.998444 
8.5011894e+1, 2.3607422e+2, -654457.94, -818464.9, 117202.164, -0.094478816, 0.0023552815, -593419.75, 33064.81, 0.0, 10.0006075, 9.998446 
8.5013855e+1, 2.4607322e+2, -435594.84, -615731.44, -5903.154, -0.017687168, 0.035383847, -435401.6, 93092.0, 0.0, 10.001236, 9.998866 
8.501575e+1, 2.5607306e+2, -161521.53, -447184.44, -30347.49, 0.19239368, 0.1237731, -158333.14, 272160.72, 0.0, 10.002509, 9.998736 
8.5016257e+1, 2.660711e+2, -83288.016, -459309.7, 42614.145, 0.123896584, 0.10450741, -78519.086, 253993.08, 0.0, 10.002808, 9.997838 
8.5015917e+1, 2.7606788e+2, -39567.945, -394619.75, 28737.434, -0.12426432, -0.014546156, -37257.016, 197285.83, 0.0, 10.002461, 9.997776 
8.5016173e+1, 2.860663e+2, 73932.125, -318108.56, -79654.375, -0.13516228, 0.06503548, 89498.16, 226058.4, 0.000000023853914, 10.002695, 9.997516 
8.501682e+1, 2.9606572e+2, 272931.75, -161988.63, -90273.34, 0.011778076, 0.24481681, 290924.75, 329494.03, 0.0000039776505, 10.003347, 9.997601 
8.501819e+1, 3.0606258e+2, 329378.13, -93186.59, -890.8246, 0.016526824, 0.16283996, 329380.0, 329380.0, 0.000053629374, 10.003337, 9.997745 
8.5020465e+1, 3.1606147e+2, 320647.1, 8097.5957, -58409.313, -0.0107926605, 0.2677261, 331205.94, 331205.94, 0.00021911417, 10.002789, 9.998701 
9.499223e+1, 1.260804e+2, -2074698.8, -1704649.9, 94814.266, 0.29318044, 0.37987882, -1681771.0, 22664.006, 0.0016117445, 9.996699, 10.001657 
9.4992566e+1, 1.3607857e+2, -1809344.1, -1600981.5, 98289.62, -0.08430613, 0.081363864, -1561933.6, 44514.65, 0.00091292575, 9.9981985, 10.000971 
9.499352e+1, 1.4607894e+2, -1616394.8, -1465438.8, -37577.504, -0.13152575, 0.02935689, -1456601.9, 51840.2, 0.00036647206, 9.9988785, 10.0008955 
9.4996256e+1, 1.5608248e+2, -1502227.3, -1383406.3, 17434.408, 0.1897698, 0.2802812, -1380901.0, 29505.6, 0.00007896108, 9.999095, 10.000679 
9.4997287e+1, 1.6608256e+2, -1497416.1, -1478501.6, 92082.5, 0.19439578, 0.29653725, -1395392.0, -82986.79, 0.000005121987, 9.999093, 9.999357 
9.499721e+1, 1.7607985e+2, -1415163.0, -1386024.6, 61018.023, -0.016056795, 0.07654288, -1337860.5, -123428.74, 0.00000007826353, 9.998974, 9.999377 
9.5000595e+1, 1.8607877e+2, -1282426.6, -1237936.8, 90253.73, 0.06136124, 0.015303379, -1167227.0, -50785.4, 0.0, 9.999076, 9.999672 
9.500625e+1, 1.9607893e+2, -1153044.3, -1137575.1, 116889.414, 0.32158628, 0.053691465, -1028164.6, -9726.144, 0.0, 9.999348, 9.999554 
9.500804e+1, 2.0607878e+2, -1028014.3, -1124222.1, 81001.32, 0.24357349, 0.13234332, -981909.94, -61468.23, 0.0, 9.9999485, 9.998686 
9.5007235e+1, 2.1607825e+2, -810588.6, -968407.75, 66448.41, -0.06065227, 0.19982456, -786337.56, 36113.02, 0.0, 10.000765, 9.998691 
9.500997e+1, 2.2607756e+2, -665997.06, -798673.9, 94817.2, -0.058602925, 0.23908515, -616615.6, 107841.4, 0.0, 10.000879, 9.999121 
9.5015043e+1, 2.3607674e+2, -623136.5, -745072.56, 114785.82, 0.14862892, 0.23386067, -554131.9, 72329.945, 0.0, 10.000569, 9.99897 
9.5016503e+1, 2.4607453e+2, -496101.78, -732362.44, 37584.844, 0.11300589, 0.16643362, -490266.8, 38213.938, 0.0, 10.001202, 9.998078 
9.5015574e+1, 2.5607133e+2, -217268.39, -553197.75, 15735.564, -0.08618691, 0.023782501, -216532.9, 213976.73, 0.0, 10.002468, 9.998028 
9.501684e+1, 2.6606923e+2, -82692.65, -455205.3, 26194.863, -0.109408036, 0.023985328, -80859.664, 251669.42, 0.0, 10.002794, 9.997872 
9.501962e+1, 2.7606788e+2, -46720.184, -400890.63, 24363.469, -0.011837224, 0.08833337, -45052.07, 189490.55, 0.0, 10.002423, 9.997751 
9.502024e+1, 2.8606564e+2, 32549.553, -402004.9, -59618.273, -0.010792496, 0.13593706, 40580.406, 177146.69, 0.000000004406078, 10.002687, 9.996939 
9.501936e+1, 2.9606274e+2, 221463.13, -258617.52, -63648.23, -0.08252955, 0.13608868, 229758.17, 268355.78, 0.0000031202694, 10.003303, 9.996957 
9.502037e+1, 3.0605912e+2, 259493.67, -236992.02, -20993.932, -0.111625634, 0.0879598, 260379.83, 260379.83, 0.00004667503, 10.003328, 9.996761 
9.502311e+1, 3.1605837e+2, 221460.8, -183061.31, -65636.16, -0.05449674, 0.335401, 231844.14, 231844.14, 0.00019750041, 10.002725, 9.99742 
1.0498962e+2, 1.2608151e+2, -1839362.8, -1638969.1, 120140.51, 0.27757302, 0.5424049, -1582727.0, 121701.47, 0.0015258539, 9.998507, 10.00124 
1.04990244e+2, 1.3607784e+2, -2039306.6, -1733501.1, 115114.555, -0.058069877, 0.089733705, -1695012.6, -88552.305, 0.00086255383, 9.996704, 10.000788 
1.0499165e+2, 1.4607799e+2, -1844259.8, -1501497.5, -195.32404, -0.10916395, -0.01630961, -1501497.4, 6958.1006, 0.00034425873, 9.996998, 10.001556 
1.04995064e+2, 1.5608287e+2, -1531228.5, -1343937.3, 3082.8826, 0.18661118, 0.31202248, -1343886.5, 66518.13, 0.00007295785, 9.998665, 10.001162 
1.0499649e+2, 1.6608307e+2, -1445141.6, -1508938.8, 71767.06, 0.17863943, 0.34513408, -1398503.4, -86100.83, 0.0000044141693, 9.999699, 9.998851 
1.0499667e+2, 1.760796e+2, -1251626.8, -1356989.1, 70813.5, -0.032733355, 0.10073281, -1216047.8, -1609.8907, 0.000000050630582, 10.000324, 9.998919 
1.050003e+2, 1.8607819e+2, -1103411.0, -1151572.5, 83328.14, 0.06636678, 0.026259644, -1040753.9, 75696.664, 0.0, 10.0002985, 9.999672 
1.05006255e+2, 1.9607832e+2, -1090616.0, -1110185.4, 57823.04, 0.36907566, 0.057056945, -1041755.7, -23309.414, 0.0, 9.999782, 9.999532 
1.0500844e+2, 2.060782e+2, -972631.5, -1106691.9, 74387.234, 0.27060202, 0.14638604, -939529.25, -19080.896, 0.0, 10.000372, 9.9986 
1.0500814e+2, 2.160778e+2, -684364.0, -915206.5, 83503.79, -0.08809204, 0.2336327, -657324.94, 165131.05, 0.0, 10.001671, 9.998615 
1.05011344e+2, 2.2607693e+2, -550882.5, -762766.25, 43467.477, -0.050255112, 0.26949206, -542311.94, 182152.08, 0.0, 10.001754, 9.998951 
1.0501687e+2, 2.3607579e+2, -565004.9, -732398.4, 589.03577, 0.25384808, 0.24913208, -565002.8, 61469.31, 0.0, 10.001041, 9.998829 
1.05018295e+2, 2.4607337e+2, -459243.63, -716812.94, -1516.1792, 0.16172062, 0.16735901, -459234.7, 69258.03, 0.0, 10.001461, 9.99806 
1.05017036e+2, 2.5607e+2, -195718.33, -543903.9, 17813.861, -0.19104548, 0.009049992, -194809.3, 235713.19, 0.0, 10.002621, 9.998016 
1.0501895e+2, 2.6606795e+2, -118955.164, -469575.13, -3120.9993, -0.1618605, 0.015217379, -118927.39, 213613.81, 0.0, 10.002537, 9.997894 
1.0502304e+2, 2.7606687e+2, -156893.94, -454811.13, -7025.7085, 0.12859301, 0.10300868, -156728.34, 77824.26, 0.0, 10.00167, 9.997743 
1.0502404e+2, 2.860643e+2, -19553.793, -453465.1, -5468.1514, 0.11564187, 0.13166167, -19484.895, 117094.21, 0.0000000012345152, 10.002444, 9.996707 
1.05022915e+2, 2.9606068e+2, 354047.9, -215296.3, -4926.8457, -0.10305964, 0.07985006, 354090.53, 392707.3, 0.0000025058646, 10.004302, 9.996776 
1.0502372e+2, 3.0605698e+2, 390030.8, -183039.03, 29697.572, -0.15118536, 0.03688157, 391565.7, 391565.7, 0.000040625986, 10.004265, 9.996685 
1.0502631e+2, 3.160556e+2, 245352.11, -193983.83, 34959.49, -0.013597961, 0.23090738, 248116.56, 248116.56, 0.00017793843, 10.002985, 9.997226 
1.14984564e+2, 1.2607975e+2, -1868388.5, -1710975.3, 31546.447, -0.109592125, 0.38386613, -1704888.5, -444.01358, 0.0014675308, 9.998553, 10.000725 
1.1498939e+2, 1.3607931e+2, -2054991.3, -1770566.1, 61258.582, 0.17233917, 0.28814182, -1757933.5, -151484.22, 0.0008305489, 9.996724, 10.000523 
1.14990965e+2, 1.4607838e+2, -1839138.1, -1487224.1, 58637.316, 0.10989818, 0.080381535, -1477710.9, 30743.8, 0.00033210375, 9.996982, 10.001663 
1.14991784e+2, 1.5607995e+2, -1522161.8, -1326840.1, 67853.58, -0.02090672, 0.063753136, -1305581.9, 104851.08, 0.00007103606, 9.998676, 10.00127 
1.1499425e+2, 1.6608094e+2, -1442947.8, -1510403.1, 92616.69, -0.029571857, 0.17378081, -1378108.8, -65684.76, 0.0000041839003, 9.999715, 9.998839 
1.1499773e+2, 1.76081e+2, -1251550.6, -1362275.4, 94161.19, 0.027183332, 0.28075892, -1197682.4, 16746.342, 0.000000024917117, 10.000344, 9.998876 
1.1500066e+2, 1.860797e+2, -1152262.6, -1244373.0, 60916.117, 0.059124563, 0.25289777, -1121951.3, -5509.427, 0.0, 10.000263, 9.999053 
1.1500323e+2, 1.9607757e+2, -1128581.8, -1184886.3, 48373.57, 0.07432446, 0.1240576, -1100764.8, -82305.74, 0.0, 9.999764, 9.999027 
1.15006484e+2, 2.0607683e+2, -947788.0, -1047757.1, 119038.64, 0.028567743, 0.14931796, -868665.44, 51798.92, 0.0, 10.0003395, 9.999022 
1.1501019e+2, 2.1607684e+2, -669942.9, -876280.25, 127955.586, -0.061458178, 0.235508, -608744.8, 213718.39, 0.0, 10.001632, 9.998902 
1.1501375e+2, 2.2607478e+2, -627212.94, -912648.7, 12115.811, 0.006081404, 0.19383496, -626699.56, 97783.17, 0.0, 10.001716, 9.99794 
1.150172e+2, 2.3607136e+2, -628388.2, -854691.3, -14860.644, 0.17157179, 0.045461167, -627416.5, -900.8442, 0.0, 10.000999, 9.998011 
1.1501911e+2, 2.4606967e+2, -414448.7, -613783.8, 38300.58, 0.086272754, 0.034868196, -407342.84, 121187.03, 0.0, 10.001419, 9.998789 
1.15020014e+2, 2.5606903e+2, -155088.08, -449553.28, 55812.953, -0.16615085, 0.07870549, -144864.25, 285668.44, 0.0, 10.002579, 9.998686 
1.15022495e+2, 2.6606733e+2, -119193.75, -466658.97, -40493.016, -0.07202462, 0.08026557, -114537.164, 218011.3, 0.0, 10.0025215, 9.997923 
1.1502603e+2, 2.7606484e+2, -160901.56, -456328.2, -24461.42, 0.24835686, 0.031525914, -158889.84, 75683.016, 0.0, 10.001638, 9.997751 
1.150274e+2, 2.8606227e+2, -17769.357, -443436.03, 60888.78, 0.19725755, 0.053837612, -9230.896, 127367.93, 0.00000000007947066, 10.002421, 9.996786 
1.15027346e+2, 2.9605946e+2, 357895.13, -193177.13, 57246.06, -0.10145531, 0.08056869, 363779.1, 402406.03, 0.000001910546, 10.004247, 9.996954 
1.1502806e+2, 3.060561e+2, 448614.3, -58866.742, -20411.926, -0.1558783, 0.016825017, 449434.0, 449434.0, 0.000034739915, 10.004256, 9.997539 
1.15029655e+2, 3.1605303e+2, 300438.7, -67751.68, -3679.4434, -0.004986543, -0.04697932, 300475.44, 300475.44, 0.00015856141, 10.002936, 9.998113 
1.24981605e+2, 1.2607738e+2, -2055610.8, -1761355.0, -64488.742, -0.18567348, 0.2514319, -1747842.3, -43372.496, 0.0014351123, 9.997121, 10.001061 
1.2498748e+2, 1.3608e+2, -1959645.4, -1683949.4, 26195.564, 0.28938627, 0.41872084, -1681482.4, -75036.87, 0.00081633194, 9.997212, 10.00088 
1.2498928e+2, 1.4607908e+2, -1774230.8, -1509431.3, 100367.914, 0.21373403, 0.22152983, -1475688.3, 32763.537, 0.00033045214, 9.997664, 10.001176 
1.2498986e+2, 1.5607889e+2, -1596273.9, -1413522.0, 46998.47, -0.06375977, 0.08110901, -1402143.8, 8304.184, 0.00007352079, 9.998387, 10.000813 
1.249931e+2, 1.6607963e+2, -1585418.8, -1570267.8, 33279.777, -0.06293815, 0.18013728, -1543712.1, -231270.48, 0.0000047035833, 9.998705, 9.998914 
1.24998e+2, 1.7608042e+2, -1485315.4, -1476493.1, 32456.236, 0.10412631, 0.3550278, -1448149.6, -233710.4, 0.000000012759114, 9.99874, 9.99887 
1.2500092e+2, 1.8607914e+2, -1250321.3, -1334639.1, 26737.459, 0.08834855, 0.35575056, -1242557.5, -126105.5, 0.0, 9.999781, 9.998665 
1.2500261e+2, 1.9607674e+2, -909855.9, -1118070.9, 22783.139, -0.04605368, 0.23715515, -907392.06, 111080.87, 0.0, 10.001441, 9.998677 
1.250066e+2, 2.060753e+2, -792031.2, -966959.1, 71802.78, -0.04278375, 0.20529233, -766333.4, 154150.6, 0.0, 10.001383, 9.999071 
1.2501217e+2, 2.1607438e+2, -883869.75, -976005.2, 45003.754, 0.050843865, 0.19320703, -865535.8, -43046.14, 0.0, 10.000145, 9.998934 
1.2501578e+2, 2.2607231e+2, -768891.44, -977073.3, -9675.074, 0.09005827, 0.1479796, -768442.8, -43934.46, 0.0, 10.000722, 9.997975 
1.250181e+2, 2.360695e+2, -409177.56, -747521.56, 29028.498, 0.09124531, 0.05705393, -406705.13, 219830.22, 0.0, 10.002496, 9.998026 
1.2502046e+2, 2.4606808e+2, -312986.4, -570321.94, 58422.215, 0.045234237, 0.073560655, -300344.03, 228203.97, 0.0, 10.002143, 9.998737 
1.2502283e+2, 2.5606748e+2, -471479.56, -609363.44, 14498.899, -0.031097151, 0.12740833, -469971.44, -39419.32, 0.0, 10.000432, 9.998625 
1.2502545e+2, 2.660659e+2, -311104.22, -544316.9, -61921.13, 0.04237702, 0.14256188, -295683.03, 36883.69, 0.0, 10.001143, 9.998052 
1.2502822e+2, 2.760637e+2, 116576.32, -302287.22, -48795.324, 0.2150267, 0.10712489, 122185.586, 356773.75, 0.0, 10.003469, 9.99792 
1.2502995e+2, 2.8606114e+2, 155738.69, -322880.13, 41219.367, 0.16282833, 0.101607226, 159262.61, 295875.38, 0.00000000021645001, 10.003451, 9.997117 
1.25031e+2, 2.9605818e+2, 33868.867, -312440.84, 52449.69, -0.03768816, 0.07884102, 41638.234, 80278.3, 0.0000014014497, 10.001861, 9.997282 
1.2503232e+2, 3.060553e+2, 232664.47, -156187.14, -27332.463, -0.07615001, 0.040916953, 234576.27, 234576.27, 0.000028974657, 10.002731, 9.997612 
1.2503393e+2, 3.16052e+2, 652024.44, 137468.34, -90886.08, 0.021850273, -0.047684204, 667605.8, 667605.8, 0.0001384936, 10.005196, 9.998443 
1.349804e+2, 1.2607443e+2, -1980474.1, -1599961.0, -77474.945, -0.04561268, 0.14830792, -1584791.4, 119712.42, 0.0014283952, 9.997103, 10.002176 
1.3498433e+2, 1.3608003e+2, -1881101.0, -1524770.4, 36693.53, 0.23964767, 0.48385757, -1521031.1, 85416.88, 0.000819765, 9.997239, 10.001953 
1.3498645e+2, 1.4608015e+2, -1853330.1, -1681462.4, 124266.125, 0.15015101, 0.40872708, -1616311.1, -107865.24, 0.00033887546, 9.997691, 9.999986 
1.3498914e+2, 1.5607977e+2, -1668869.8, -1564195.1, 76125.29, 0.0125316465, 0.36552876, -1524151.4, -113702.47, 0.0000801792, 9.998387, 9.999779 
1.3499288e+2, 1.6607915e+2, -1582779.3, -1559089.8, 30432.262, 0.033258583, 0.36989126, -1538278.4, -225823.1, 0.0000062149566, 9.998682, 9.999002 
1.3499728e+2, 1.7607778e+2, -1479600.4, -1465012.6, 45894.203, 0.14450288, 0.32254288, -1425836.3, -211366.86, 0.000000017143847, 9.998749, 9.99894 
1.3500094e+2, 1.8607664e+2, -1262786.3, -1361216.0, 86054.33, 0.098876186, 0.3398719, -1212867.6, -96387.03, 0.0, 9.999776, 9.998488 
1.3500416e+2, 1.9607578e+2, -921401.9, -1142862.6, 78436.41, -0.046544034, 0.3916075, -896436.0, 122052.21, 0.0, 10.00144, 9.998509 
1.3500866e+2, 2.0607358e+2, -822250.3, -1021156.4, 21003.686, 0.013118278, 0.31024548, -820056.6, 100450.95, 0.0, 10.001348, 9.998717 
1.3501394e+2, 2.1607037e+2, -904911.9, -1007253.2, 14959.81, 0.20089847, 0.10587726, -902769.94, -80234.3, 0.0, 10.000094, 9.998742 
1.3501729e+2, 2.2606954e+2, -699247.9, -826074.25, 52967.797, 0.1565901, 0.13277109, -680036.5, 44504.285, 0.0, 10.0006895, 9.999029 
1.3501938e+2, 2.3607017e+2, -352477.3, -623520.94, 85191.4, -0.041427527, 0.28142333, -327924.97, 298606.4, 0.0, 10.002466, 9.998891 
1.3502215e+2, 2.460685e+2, -377761.56, -696514.75, -11165.127, -0.009932727, 0.28203213, -377370.97, 151176.4, 0.0, 10.002109, 9.997887 
1.350254e+2, 2.5606525e+2, -528463.8, -718148.3, -30199.55, 0.1710891, 0.15535933, -523771.84, -93191.24, 0.0, 10.000392, 9.997895 
1.3502766e+2, 2.6606378e+2, -301332.66, -517421.88, 23486.87, 0.1404112, 0.20187642, -298809.34, 33786.26, 0.0, 10.001118, 9.998247 
1.3502942e+2, 2.7606344e+2, 125715.77, -268870.94, 28912.361, -0.024339024, 0.3300089, 127823.01, 362422.06, 0.0, 10.003409, 9.998179 
1.3503154e+2, 2.860608e+2, 197793.17, -227918.0, -24231.768, -0.036707826, 0.27539665, 199168.02, 335789.56, 0.000000004047862, 10.003424, 9.997781 
1.350338e+2, 2.9605672e+2, 65114.24, -239529.11, 11724.436, 0.04474804, 0.0713469, 65564.8, 104221.51, 0.0000011638989, 10.001825, 9.997801 
1.3503632e+2, 3.060544e+2, 178217.3, -257353.84, 65165.49, 0.04282688, 0.10463156, 187757.69, 187757.69, 0.00002372901, 10.002692, 9.996933 
1.3503893e+2, 3.160525e+2, 626237.5, 101066.31, 6895.3545, -0.023338176, 0.22425628, 626328.06, 626328.06, 0.000118264084, 10.005132, 9.998222 
1.4497837e+2, 1.2607378e+2, -2247421.0, -1754328.5, 4518.0396, 0.13556278, 0.23056096, -1754287.0, -49775.566, 0.0014440229, 9.995375, 10.001955 
1.4498125e+2, 1.3607794e+2, -1857508.9, -1526110.0, 2999.6804, 0.19865738, 0.4263007, -1526082.9, 80385.82, 0.00083842565, 9.997438, 10.001853 
1.4498407e+2, 1.4607787e+2, -1750390.3, -1705441.8, 70939.62, 0.094478056, 0.37034455, -1653501.5, -145031.6, 0.00035495815, 9.998717, 9.999327 
1.4498869e+2, 1.5607816e+2, -1555915.9, -1579026.0, 49524.613, 0.07918425, 0.4624627, -1516616.1, -106146.95, 0.00008912459, 9.99946, 9.999163 
1.4499274e+2, 1.6607718e+2, -1389292.0, -1455891.8, 10263.269, 0.08960426, 0.45548314, -1387746.3, -75267.5, 0.000008328298, 9.999968, 9.999086 
1.4499632e+2, 1.7607485e+2, -1255389.3, -1349772.1, 16737.195, 0.10053439, 0.30025557, -1252509.1, -38008.67, 0.0000000715251, 10.000251, 9.999006 
1.4500064e+2, 1.860737e+2, -1193850.9, -1315303.3, 94800.65, 0.07230324, 0.30949804, -1141994.5, -25483.617, 0.0, 10.0001955, 9.998599 
1.4500546e+2, 1.9607349e+2, -1137722.3, -1241582.3, 93808.81, 0.017496772, 0.41653517, -1082429.0, -63916.53, 0.0, 9.999922, 9.998568 
1.4501e+2, 2.0607163e+2, -1020072.4, -1139039.9, 20993.154, 0.077815175, 0.37759987, -1016476.56, -95946.3, 0.0, 10.000088, 9.998513 
1.4501429e+2, 2.1606855e+2, -854044.5, -1001203.8, 21852.582, 0.20864508, 0.20836724, -850868.06, -28308.492, 0.0, 10.000522, 9.998578 
1.4501797e+2, 2.2606777e+2, -645356.7, -748405.0, 93413.9, 0.14992192, 0.22286944, -590199.56, 134364.45, 0.0, 10.000848, 9.999483 
1.4502126e+2, 2.3606843e+2, -521266.3, -660950.56, 62933.78, -0.030320618, 0.3289368, -497094.7, 129457.766, 0.0, 10.001123, 9.999281 
1.4502409e+2, 2.4606672e+2, -458279.44, -742251.8, -62493.53, 0.0016032641, 0.31287667, -445134.97, 83432.914, 0.0, 10.00158, 9.997831 
1.4502662e+2, 2.560635e+2, -279369.75, -604268.1, -24606.016, 0.1703527, 0.18979913, -277516.78, 153084.33, 0.0, 10.002136, 9.997834 
1.4502914e+2, 2.660618e+2, -147810.61, -481274.3, 94735.94, 0.118879646, 0.23768562, -122775.91, 209842.67, 0.0, 10.002332, 9.997912 
1.4503177e+2, 2.7606112e+2, -59158.855, -392322.63, 46086.883, -0.06980887, 0.36712205, -52901.145, 181725.16, 0.0, 10.002284, 9.997875 
1.4503428e+2, 2.8605834e+2, 83346.055, -289496.72, -98972.61, -0.06072928, 0.3124835, 107989.84, 244640.6, 0.000000009906891, 10.002659, 9.99773 
1.4503661e+2, 2.960543e+2, 280927.94, -138901.53, -116242.12, 0.072666176, 0.11762558, 310964.06, 349649.44, 0.0000010384059, 10.003326, 9.9977665 
1.4503999e+2, 3.0605182e+2, 341812.44, -208740.73, 9782.339, 0.08272506, 0.14947858, 341986.2, 341986.2, 0.000019000812, 10.003941, 9.996667 
1.4504363e+2, 3.1604996e+2, 525119.9, 67990.57, -37176.77, -0.020569373, 0.29819697, 528123.56, 528123.56, 0.0000984148, 10.004361, 9.998367 
1.549752e+2, 1.2607552e+2, -2353308.3, -1982095.0, 65717.57, 0.2549476, 0.5036432, -1970804.1, -266312.03, 0.0014662774, 9.995409, 10.000377 
1.5497802e+2, 1.360738e+2, -1943805.3, -1707789.4, 79056.805, 0.12091844, 0.25121304, -1683755.6, -77248.43, 0.0008607167, 9.997446, 10.000606 
1.5498191e+2, 1.4607224e+2, -1760559.3, -1727330.5, 94859.09, -0.0058940584, 0.10888663, -1647641.8, -139118.33, 0.00037131715, 9.99872, 9.999176 
1.5498838e+2, 1.56074e+2, -1563690.9, -1598013.1, 80790.336, 0.08731504, 0.3687459, -1498259.1, -87750.31, 0.00009663115, 9.999475, 9.999023 
1.5499248e+2, 1.6607374e+2, -1386831.1, -1446512.5, 17295.934, 0.05536354, 0.43447542, -1382181.0, -69669.09, 0.000009881803, 9.999951, 9.99916 
1.5499496e+2, 1.7607161e+2, -1248157.5, -1332611.6, 29615.99, -0.07255262, 0.2915232, -1238807.1, -24275.309, 0.00000020107916, 10.000244, 9.999127 
1.5499984e+2, 1.8607035e+2, -1169817.0, -1265523.4, 80172.266, -0.041016433, 0.26619503, -1124302.5, -7759.8555, 0.0, 10.000195, 9.998943 
1.5500632e+2, 1.9606987e+2, -1120805.1, -1199789.4, 90285.04, 0.09875591, 0.31042823, -1061752.8, -43206.777, 0.0, 9.999899, 9.998863 
1.5501045e+2, 2.0606944e+2, -1030077.5, -1154530.6, 33483.11, 0.10368068, 0.4098498, -1021641.0, -101088.94, 0.0, 10.000061, 9.998423 
1.5501298e+2, 2.1606895e+2, -863843.0, -1013699.6, 40763.813, 0.0149770705, 0.5038395, -853472.2, -30910.758, 0.0, 10.000488, 9.9985075 
1.5501763e+2, 2.2606707e+2, -664874.56, -781000.44, 98981.805, 0.019918622, 0.42242798, -608182.5, 116395.15, 0.0, 10.000811, 9.99928 
1.5502363e+2, 2.3606421e+2, -532734.3, -679402.4, 79279.19, 0.08402312, 0.19829686, -498072.63, 128526.18, 0.0, 10.001094, 9.999171 
1.5502611e+2, 2.4606271e+2, -411435.06, -637499.44, -45948.477, 0.034512863, 0.16639894, -402452.75, 126156.82, 0.0, 10.001549, 9.998565 
1.5502633e+2, 2.5606203e+2, -245968.94, -526522.25, -1723.5281, -0.08345781, 0.23001699, -245958.34, 184655.86, 0.0, 10.002097, 9.998389 
1.5502968e+2, 2.660599e+2, -209691.64, -604624.1, 88155.055, -0.07199297, 0.25305653, -190907.48, 141728.67, 0.0, 10.002313, 9.997071 
1.5503512e+2, 2.7605674e+2, -125660.36, -520161.34, 50385.965, 0.027545542, 0.21604462, -119326.71, 115343.79, 0.0, 10.002239, 9.997019 
1.5503807e+2, 2.8605366e+2, 29751.791, -396111.03, -77558.914, 0.04074113, 0.21072033, 43437.17, 180137.95, 0.000000005626964, 10.002638, 9.997007 
1.5503927e+2, 2.9605085e+2, 235202.63, -229700.86, -83223.79, -0.009143105, 0.20954254, 249651.69, 288378.38, 0.00000082513446, 10.003301, 9.997158 
1.5504313e+2, 3.0604756e+2, 346332.66, -186705.47, 23682.613, -0.0076105064, 0.17691466, 347382.78, 347382.78, 0.000014599608, 10.003901, 9.996827 
1.5504771e+2, 3.1604454e+2, 548605.9, 136489.34, -12857.886, -0.07046284, 0.1926386, 549006.6, 549006.6, 0.00007959566, 10.004291, 9.998862 
1.6497217e+2, 1.2607148e+2, -2035969.0, -1888945.1, -147320.34, 0.29243353, 0.56143326, -1797814.1, -93279.35, 0.0014745225, 9.997839, 9.999844 
1.6497633e+2, 1.3606952e+2, -1745693.4, -1638580.5, -66933.71, 0.13699786, 0.32100394, -1606414.1, 138.97183, 0.00086981576, 9.998927, 10.000362 
1.6498078e+2, 1.4606778e+2, -1702649.9, -1647796.8, -36297.523, 0.004806523, 0.14607038, -1629729.1, -121158.875, 0.00037795518, 9.998906, 9.999628 
1.6498734e+2, 1.5606916e+2, -1722711.9, -1628726.3, -8606.17, 0.10353352, 0.32150444, -1627944.8, -217387.16, 0.000098805474, 9.998183, 9.999434 
1.6499181e+2, 1.660693e+2, -1563482.9, -1505050.8, -13113.165, 0.063703366, 0.39838126, -1502242.9, -189686.94, 0.000009884257, 9.998611, 9.999406 
1.649949e+2, 1.7606823e+2, -1296113.3, -1325442.8, 2417.2583, -0.07872265, 0.33475846, -1295915.4, -81349.49, 0.0000002904704, 9.999777, 9.999403 
1.6500013e+2, 1.8606713e+2, -1112188.6, -1190402.8, 42819.74, -0.0387733, 0.29026943, -1093305.3, 23269.102, 0.0, 10.000399, 9.999356 
1.650068e+2, 1.960662e+2, -986981.7, -1095054.8, 49338.613, 0.12366613, 0.24975938, -967845.5, 50734.68, 0.0, 10.0006485, 9.99922 
1.6501074e+2, 2.0606597e+2, -947109.75, -1121903.8, 9484.816, 0.098667525, 0.3550437, -946596.6, -26011.803, 0.0, 10.000665, 9.998356 
1.650128e+2, 2.1606612e+2, -862880.6, -1022646.9, 8159.3164, -0.0515012, 0.5212757, -862465.0, -39875.566, 0.0, 10.000536, 9.9984255 
1.6501807e+2, 2.2606438e+2, -740233.9, -833936.3, 73054.805, 0.00894619, 0.46823418, -700297.75, 24308.396, 0.0, 10.000372, 9.999123 
1.6502543e+2, 2.3606147e+2, -676426.6, -760883.6, 51337.324, 0.20264655, 0.25250754, -652181.3, -25550.982, 0.0, 10.0001745, 9.999047 
1.6502827e+2, 2.4606e+2, -487534.22, -663742.1, -60114.74, 0.1273907, 0.22566108, -468979.4, 59661.6, 0.0, 10.000982, 9.998656 
1.650282e+2, 2.5605947e+2, -187219.45, -488936.44, -77617.32, -0.121788606, 0.2955658, -168423.2, 262219.9, 0.0, 10.002461, 9.99847 
1.65032e+2, 2.6605713e+2, -140138.86, -582520.44, -4181.7764, -0.094955735, 0.29549208, -140099.34, 192567.4, 0.0, 10.002829, 9.996981 
1.650384e+2, 2.760534e+2, -95447.43, -512629.28, 12634.015, 0.12346262, 0.21294856, -95065.164, 139640.67, 0.0, 10.002469, 9.996961 
1.6504173e+2, 2.860506e+2, 105567.94, -356900.7, -6358.278, 0.12180121, 0.23429434, 105655.336, 242388.94, 0.00000000009995645, 10.003149, 9.99703 
1.65043e+2, 2.9604867e+2, 416085.22, -145162.81, 26628.846, -0.025173685, 0.32232267, 417345.8, 456096.78, 0.00000049216277, 10.004558, 9.997134 
1.6504744e+2, 3.060443e+2, 474227.13, -166521.89, 105649.07, -0.013735402, 0.20461215, 491197.47, 491197.47, 0.000010365808, 10.004941, 9.996471 
1.6505256e+2, 3.1604013e+2, 564479.6, 114126.89, 11299.963, -0.020438725, 0.13467294, 564763.0, 564763.0, 0.000061981555, 10.004515, 9.998601 
1.7496899e+2, 1.2606159e+2, -1995363.0, -1805324.4, -123437.67, 0.16749115, 0.40310276, -1744569.6, -39929.523, 0.0014574766, 9.997843, 10.000415 
1.7497607e+2, 1.3606514e+2, -1692430.6, -1527470.1, -34102.32, 0.20629184, 0.6428897, -1520698.1, 85907.78, 0.00085594517, 9.998931, 10.001121 
1.7498067e+2, 1.4606448e+2, -1624758.8, -1491144.4, -69404.63, 0.08955524, 0.48167294, -1461617.8, 46992.656, 0.0003688444, 9.99892, 10.0007 
1.7498538e+2, 1.5606353e+2, -1652434.3, -1481822.8, -24844.617, 0.077824496, 0.3174018, -1478278.5, -67662.49, 0.00009401229, 9.998179, 10.000444 
1.7499056e+2, 1.6606393e+2, -1533059.6, -1440134.0, 27403.676, 0.06450052, 0.3498814, -1432654.6, -120044.21, 0.000008393363, 9.998601, 9.999857 
1.7499594e+2, 1.7606482e+2, -1265293.5, -1261781.3, 45902.0, 0.03570746, 0.4377529, -1217601.8, -3000.0925, 0.00000020811186, 9.99978, 9.999837 
1.7500134e+2, 1.8606414e+2, -1079676.0, -1123520.4, 49150.344, 0.032079086, 0.38899633, -1047780.56, 68824.336, 0.0, 10.000394, 9.999821 
1.7500675e+2, 1.9606252e+2, -960540.1, -1036510.25, 62128.47, 0.04185077, 0.234591, -925704.8, 92910.27, 0.0, 10.000628, 9.999633 
1.7501068e+2, 2.0606121e+2, -956629.4, -1134819.0, 42.766224, 0.015245451, 0.21838036, -956629.4, -36001.35, 0.0, 10.000633, 9.998282 
1.7501362e+2, 2.1606003e+2, -872195.44, -1036839.44, 7777.734, -0.035163544, 0.25770068, -871828.8, -49185.01, 0.0, 10.000513, 9.99834 
1.7501915e+2, 2.260598e+2, -753397.56, -853069.7, 62561.53, 0.06952096, 0.36446333, -723248.75, 1400.1584, 0.0, 10.000338, 9.999006 
1.7502645e+2, 2.3606011e+2, -692326.7, -789190.5, 55896.484, 0.27748826, 0.4848023, -666798.7, -40151.12, 0.0, 10.000149, 9.998867 
1.7503038e+2, 2.4605857e+2, -531210.2, -747776.94, -8781.316, 0.2296503, 0.48758665, -530854.7, -2192.1785, 0.0, 10.000956, 9.998089 
1.7503208e+2, 2.5605574e+2, -224944.64, -557200.4, -25886.438, 0.009341011, 0.3833193, -222939.9, 207748.44, 0.0, 10.002417, 9.998023 
1.75036e+2, 2.6605338e+2, -93394.375, -480243.13, -21901.246, 0.013849057, 0.36330327, -92158.4, 240552.36, 0.0, 10.00281, 9.99769 
1.7504147e+2, 2.760511e+2, -50364.676, -411677.25, 10669.708, 0.17142984, 0.3543243, -50049.87, 184682.77, 0.0, 10.002437, 9.997669 
1.7504515e+2, 2.8604916e+2, 154428.22, -253342.47, 39633.137, 0.1354657, 0.388564, 158244.64, 294993.88, 0.0, 10.00314, 9.9977455 
1.7504758e+2, 2.9604772e+2, 444527.38, -76219.82, 77905.87, -0.034927253, 0.45699868, 455932.63, 494691.56, 0.00000022526268, 10.004515, 9.997629 
1.7505278e+2, 3.06042e+2, 415027.25, -282956.88, 87696.23, 0.01448144, 0.22600314, 425876.94, 425876.94, 0.0000067412816, 10.004917, 9.995682 
1.7505781e+2, 3.1603667e+2, 487337.38, -28841.457, 9849.757, 0.027894566, 0.12225472, 487525.25, 487525.25, 0.000045960638, 10.004452, 9.997644 
1.8496634e+2, 1.260538e+2, -2019838.6, -1731591.8, -32661.787, 0.14802921, 0.3549351, -1727937.1, -23217.895, 0.0014119628, 9.997302, 10.001177 
1.8497418e+2, 1.3605873e+2, -1963840.0, -1565801.5, 60569.605, 0.2410632, 0.6446029, -1556788.8, 49881.445, 0.0008198644, 9.996657, 10.001955 
1.849789e+2, 1.460592e+2, -1855277.0, -1545831.5, 14066.285, 0.114596084, 0.53180623, -1545193.4, -36530.438, 0.0003462985, 9.997091, 10.001203 
1.849833e+2, 1.5605877e+2, -1600610.1, -1404934.1, 7902.8765, 0.04690117, 0.36979502, -1404615.5, 6047.932, 0.000084445885, 9.998307, 10.000912 
1.8498918e+2, 1.660591e+2, -1482685.1, -1392737.6, 51257.926, 0.05471244, 0.36281306, -1369520.4, -56862.176, 0.000006352812, 9.998866, 10.00005 
1.8499593e+2, 1.7605959e+2, -1368422.1, -1293118.4, 40163.227, 0.0983043, 0.39229822, -1275718.0, -61065.2, 0.000000056960435, 9.998998, 10.000001 
1.8500155e+2, 1.8605934e+2, -1243646.0, -1197329.9, 10693.929, 0.07456696, 0.3775471, -1194979.9, -78327.12, 0.0, 9.999245, 9.999866 
1.8500642e+2, 1.9605878e+2, -1112328.5, -1099880.4, -16197.589, 0.0037221885, 0.32256335, -1088752.3, -70097.3, 0.0, 9.999544, 9.999719 
1.8501076e+2, 2.060573e+2, -1019557.9, -1117189.5, -62387.277, -0.0053244876, 0.26194477, -989157.8, -68489.9, 0.0, 9.999997, 9.998707 
1.8501471e+2, 2.1605518e+2, -840783.0, -980005.5, -26619.516, 0.024588484, 0.16673923, -835866.94, -13178.219, 0.0, 10.000549, 9.99871 
1.8502004e+2, 2.26055e+2, -706916.2, -860768.9, 33029.97, 0.10614063, 0.27460107, -700124.94, 24568.244, 0.0, 10.00077, 9.998756 
1.8502638e+2, 2.3605604e+2, -620279.0, -780912.3, 14520.912, 0.22862571, 0.49305218, -618976.9, 7710.0664, 0.0, 10.000748, 9.998641 
1.8503127e+2, 2.4605452e+2, -505704.34, -750560.4, 17208.902, 0.21199141, 0.51701325, -504500.78, 24202.42, 0.0, 10.001195, 9.997954 
1.8503518e+2, 2.5605127e+2, -296867.7, -601648.9, 18952.375, 0.10413608, 0.3818457, -295693.7, 135040.8, 0.0, 10.0019655, 9.997932 
1.8503918e+2, 2.660489e+2, -132853.53, -483551.56, -20987.176, 0.07054636, 0.36038524, -131602.05, 201154.39, 0.0, 10.002471, 9.997829 
1.8504329e+2, 2.76047e+2, 11202.846, -366148.88, -36170.664, 0.095441036, 0.3724051, 14638.664, 249412.39, 0.0, 10.002796, 9.997806 
1.8504758e+2, 2.8604513e+2, 109554.56, -275032.75, -25762.668, 0.084464684, 0.40870655, 111272.67, 248062.52, 0.0, 10.002826, 9.997748 
1.8505195e+2, 2.9604363e+2, 170176.81, -212830.47, -51135.72, 0.047101766, 0.46958867, 176886.45, 215688.08, 0.000000073239775, 10.0026455, 9.997589 
1.850582e+2, 3.0603808e+2, 166366.0, -399586.7, -24606.398, 0.15696675, 0.26122427, 167433.83, 167433.83, 0.000003933053, 10.003185, 9.995722 
1.8506326e+2, 3.1603384e+2, 424268.78, -105923.47, -55138.082, 0.14561039, 0.25980526, 429942.22, 429942.22, 0.000032239117, 10.004195, 9.997258 
1.9496395e+2, 1.2604815e+2, -1954148.0, -1594053.4, -78253.18, 0.15329124, 0.41434163, -1577783.1, 126988.41, 0.0013384911, 9.9973, 10.002122 
1.9497053e+2, 1.3605027e+2, -1904256.5, -1431386.5, 44726.652, 0.20040701, 0.31961936, -1427193.3, 179552.94, 0.0007672974, 9.996622, 10.00289 
1.9497538e+2, 1.4605202e+2, -1863552.0, -1560702.0, 55192.707, 0.040111903, 0.29820618, -1550957.0, -42229.49, 0.00031672008, 9.997075, 10.001111 
1.9498089e+2, 1.56055e+2, -1608931.8, -1418790.6, 53356.02, -0.034944125, 0.48542777, -1404841.6, 5857.495, 0.000073711046, 9.998295, 10.000821 
1.949875e+2, 1.6605495e+2, -1489624.8, -1406481.3, 53440.652, -0.010026367, 0.44698972, -1380347.0, -67648.57, 0.0000047225935, 9.998857, 9.999962 
1.9499473e+2, 1.7605256e+2, -1376160.0, -1309145.4, 51683.19, 0.066600375, 0.19740537, -1281058.1, -66339.11, 0.0000000036456946, 9.998995, 9.999892 
1.9500066e+2, 1.860528e+2, -1274647.4, -1258941.0, 17358.277, 0.04719584, 0.25890914, -1247742.1, -131024.586, 0.0, 9.999228, 9.999456 
1.9500567e+2, 1.9605489e+2, -1131261.1, -1138795.0, 358.77594, -0.03664212, 0.5094767, -1131244.0, -112543.76, 0.0, 9.999539, 9.999456 
1.9501078e+2, 2.0605417e+2, -958221.44, -982976.7, -44945.0, -0.012618269, 0.4845451, -923980.8, -3275.9324, 0.0, 9.999967, 9.999641 
1.9501594e+2, 2.1605149e+2, -790210.0, -867655.6, -3352.0068, 0.080128126, 0.23897113, -790065.2, 32659.871, 0.0, 10.000517, 9.9994955 
1.9502063e+2, 2.2604997e+2, -739713.0, -918637.06, 26822.664, 0.07819592, 0.20164669, -735778.5, -11039.642, 0.0, 10.00073, 9.998377 
1.9502507e+2, 2.3604926e+2, -646853.3, -826265.6, 21034.162, 0.013062357, 0.28157085, -644420.25, -17672.074, 0.0, 10.000707, 9.998348 
1.9503082e+2, 2.460479e+2, -489302.78, -711251.0, 42286.99, 0.03751626, 0.3162259, -481518.97, 47244.03, 0.0, 10.001169, 9.998238 
1.950374e+2, 2.56046e+2, -286886.5, -573915.25, 50196.46, 0.11851211, 0.28869706, -278361.2, 152420.78, 0.0, 10.001934, 9.998139 
1.9504142e+2, 2.6604375e+2, -162697.86, -541029.94, -12981.162, 0.03540665, 0.29098853, -162252.98, 170550.61, 0.0, 10.002455, 9.997441 
1.9504371e+2, 2.7604112e+2, -23693.607, -431528.22, -20798.43, -0.1540437, 0.2690481, -22635.69, 212193.1, 0.0, 10.002765, 9.997375 
1.9504891e+2, 2.8603852e+2, 58863.453, -379051.9, -35970.055, -0.07728047, 0.29246598, 61798.336, 198653.78, 0.0, 10.00282, 9.997037 
1.9505595e+2, 2.9603642e+2, 122997.46, -304020.25, -47647.324, 0.17165123, 0.36572903, 128249.44, 167127.88, 0.000000013907536, 10.002615, 9.996978 
1.950636e+2, 3.0603263e+2, 225947.19, -270122.47, 10136.329, 0.36611062, 0.312767, 226154.22, 226154.22, 0.0000021091166, 10.003169, 9.9966135 
1.950686e+2, 3.1603175e+2, 437508.88, -65056.633, -4377.3228, 0.23827481, 0.5559262, 437547.0, 437547.0, 0.000021823846, 10.004148, 9.997556 
2.0496027e+2, 1.2604243e+2, -2174628.5, -1734104.8, 29796.568, 0.12604323, 0.3633581, -1732098.5, -27276.236, 0.0012408808, 9.995948, 10.001811 
2.0496745e+2, 1.3604397e+2, -1701558.9, -1368491.8, 42962.773, 0.15677795, 0.24195422, -1363039.1, 243766.11, 0.0007023467, 9.998157, 10.00259 
2.0497298e+2, 1.4604606e+2, -1638253.3, -1458568.9, 8110.4854, 0.01727377, 0.27193582, -1458203.5, 50581.906, 0.0002832004, 9.998662, 10.001044 
2.0497915e+2, 1.5604937e+2, -1639971.0, -1439714.9, -3564.6924, -0.024908159, 0.5007311, -1439651.5, -28896.443, 0.000063005726, 9.998107, 10.000769 
2.0498623e+2, 1.6604947e+2, -1543992.3, -1419338.6, 21004.52, 0.0025733206, 0.47397035, -1415894.4, -103141.19, 0.0000035155435, 9.998424, 10.000082 
2.0499381e+2, 1.7604722e+2, -1322941.5, -1274237.0, 23525.684, 0.06193211, 0.22946016, -1264729.4, -49956.992, 0.0000000004928599, 9.999321, 9.999976 
2.0500009e+2, 1.860473e+2, -1227147.5, -1245861.0, 3356.9773, 0.052744985, 0.27596712, -1226563.5, -109790.52, 0.0, 9.999603, 9.99936 
2.050055e+2, 1.9604896e+2, -1144198.8, -1152643.1, 734.8222, -0.0045956518, 0.49283263, -1144135.3, -125374.57, 0.0, 9.999484, 9.999387 
2.0501126e+2, 2.0604871e+2, -953101.1, -956899.0, -40267.383, 0.042826552, 0.5033625, -914687.94, 6073.546, 0.0, 9.999897, 9.999858 
2.0501727e+2, 2.1604708e+2, -758857.94, -830308.6, -61546.34, 0.1591798, 0.34310988, -723419.75, 99352.06, 0.0, 10.000634, 9.999699 
2.0502183e+2, 2.2604522e+2, -686780.75, -875331.0, -40593.57, 0.11397433, 0.2552035, -678412.6, 46374.33, 0.0, 10.001022, 9.998528 
2.0502548e+2, 2.3604323e+2, -567919.6, -772735.9, -15985.16, -0.037023712, 0.18971604, -566679.56, 60125.977, 0.0, 10.001185, 9.998484 
2.050315e+2, 2.4604207e+2, -453704.38, -683046.1, 34953.6, -0.018982645, 0.23655142, -448495.47, 80321.88, 0.0, 10.001368, 9.998337 
2.0503907e+2, 2.5604144e+2, -329744.9, -587412.4, 22039.066, 0.10927025, 0.32490972, -327873.44, 102951.74, 0.0, 10.001611, 9.998203 
2.0504369e+2, 2.6603907e+2, -235746.45, -597927.25, -32279.732, 0.041069523, 0.32021463, -232891.98, 99956.64, 0.0, 10.002041, 9.997255 
2.0504643e+2, 2.7603534e+2, -60890.477, -470968.2, -35193.81, -0.14783213, 0.20956393, -57891.99, 176992.22, 0.0, 10.002601, 9.997185 
2.0505191e+2, 2.8603262e+2, 92861.875, -394947.03, -23160.623, -0.07553947, 0.24822164, 93959.05, 230872.55, 0.0, 10.003203, 9.99674 
2.0505908e+2, 2.9603106e+2, 287025.7, -248765.73, -9826.611, 0.16420221, 0.403259, 287205.84, 326140.0, 0.0000000026409164, 10.003855, 9.9967575 
2.0506735e+2, 3.0602795e+2, 415257.0, -102353.35, 72031.25, 0.3806912, 0.3905685, 425094.0, 425094.0, 0.000001406237, 10.004149, 9.997293 
2.0507303e+2, 3.160269e+2, 454188.38, -24175.367, 26164.31, 0.27044144, 0.5428343, 455615.2, 455615.2, 0.000015573223, 10.004144, 9.997827 
2.1495494e+2, 1.2603663e+2, -2290716.5, -1970021.6, 97026.13, -0.022862254, 0.20358892, -1942951.4, -238080.13, 0.0011227193, 9.995927, 10.000206 
2.149648e+2, 1.3603999e+2, -1802733.5, -1580031.9, 119169.43, 0.066355266, 0.42786697, -1528286.5, 78559.445, 0.0006268979, 9.99817, 10.00113 
2.1497154e+2, 1.4604147e+2, -1643711.4, -1475053.9, -17068.184, -0.0043393583, 0.4694302, -1473343.9, 35490.945, 0.0002465844, 9.998679, 10.000925 
2.1497796e+2, 1.5604189e+2, -1641156.1, -1443828.3, -14324.2, 0.031189205, 0.41578662, -1442793.9, -31962.72, 0.000052325075, 9.998113, 10.000738 
2.1498528e+2, 1.6604269e+2, -1525591.4, -1376462.9, 50171.62, 0.05146434, 0.44322976, -1361154.9, -48331.824, 0.000002586899, 9.998404, 10.000387 
2.1499306e+2, 1.7604361e+2, -1304503.4, -1230615.5, 57237.72, 0.044153128, 0.48455927, -1199434.4, 15378.815, 0.000000000052014764, 9.999303, 10.000281 
2.1499972e+2, 1.8604286e+2, -1218082.5, -1222389.4, -4912.004, 0.04677563, 0.42599806, -1214872.6, -98053.164, 0.0, 9.999579, 9.9995365 
2.1500573e+2, 1.9604102e+2, -1136921.6, -1135152.8, 4710.978, 0.058541667, 0.2744692, -1131243.9, -112407.586, 0.0, 9.999473, 9.999514 
2.1501204e+2, 2.060409e+2, -991821.4, -1031028.94, -16533.525, 0.12010149, 0.3234768, -985780.2, -64942.605, 0.0, 9.999871, 9.999359 
2.1501857e+2, 2.1604195e+2, -789524.44, -885974.56, -32233.365, 0.21384215, 0.47799382, -779743.94, 43084.85, 0.0, 10.0006, 9.999332 
2.1502352e+2, 2.2604069e+2, -646773.3, -783094.7, -38916.71, 0.16948588, 0.42897108, -636445.9, 88392.01, 0.0, 10.000981, 9.999181 
2.1502747e+2, 2.3603787e+2, -533393.56, -691377.5, -4119.843, 0.033617686, 0.21502803, -533286.2, 93573.18, 0.0, 10.001144, 9.999063 
2.1503316e+2, 2.4603705e+2, -462482.28, -697692.7, 39150.957, -0.0006784606, 0.27525625, -456136.78, 72729.75, 0.0, 10.001354, 9.998243 
2.1504001e+2, 2.5603756e+2, -342134.66, -601250.06, 35510.14, 0.03317249, 0.4897187, -337356.34, 93507.93, 0.0, 10.001562, 9.998132 
2.1504591e+2, 2.6603478e+2, -238147.56, -598444.94, -14807.414, 0.049416695, 0.44894364, -237540.03, 95351.46, 0.0, 10.002021, 9.997259 
2.1505122e+2, 2.760297e+2, -65608.15, -473639.53, -9087.115, 0.059718378, 0.19821891, -65405.87, 169534.02, 0.0, 10.002568, 9.997181 
2.1505639e+2, 2.8602746e+2, 101644.67, -372207.78, -4385.524, 0.040919855, 0.27647075, 101685.26, 238649.58, 0.0, 10.003186, 9.996904 
2.1506128e+2, 2.9602745e+2, 294861.03, -227273.0, 14699.494, -0.014142463, 0.57181257, 295274.53, 334244.34, 0.000000034055795, 10.00383, 9.99692 
2.1506947e+2, 3.06024e+2, 443069.6, -40875.176, 69106.92, 0.16869162, 0.49495825, 452744.6, 452744.6, 0.0000015569075, 10.004134, 9.997723 
2.150763e+2, 3.1601942e+2, 458725.84, -8147.883, 44785.887, 0.15843128, 0.2504292, 462983.22, 462983.22, 0.000013189906, 10.004114, 9.997953 
2.249512e+2, 1.2603004e+2, -2092287.4, -1885745.3, -76613.31, -0.055652384, 0.24268152, -1860429.6, -155491.6, 0.0009915447, 9.997325, 10.000113 
2.2496153e+2, 1.360338e+2, -2011802.9, -1700181.8, 41703.367, -0.0074311574, 0.52163434, -1694697.3, -87787.234, 0.000545711, 9.99682, 10.000955 
2.2496897e+2, 1.460351e+2, -1891148.3, -1603139.8, -66832.984, -0.04502778, 0.558758, -1588386.8, -79486.19, 0.00020902291, 9.997016, 10.000854 
2.24976e+2, 1.5603428e+2, -1707197.5, -1482268.0, -66668.25, 0.047284517, 0.38815653, -1463992.6, -53084.145, 0.000042237294, 9.9976845, 10.000686 
2.249837e+2, 1.6603535e+2, -1552755.5, -1367754.9, 19338.96, 0.07100928, 0.43442538, -1365754.9, -52856.84, 0.0000020119714, 9.998122, 10.000585 
2.2499172e+2, 1.7603758e+2, -1425452.1, -1266395.9, 7589.1475, 0.030862618, 0.5872909, -1266034.5, -51158.1, 0.0, 9.998371, 10.000488 
2.24999e+2, 1.8603699e+2, -1288232.3, -1197356.6, -46275.6, 0.05420714, 0.50618315, -1177940.5, -61060.934, 0.0, 9.998845, 10.000059 
2.2500576e+2, 1.9603455e+2, -1112023.1, -1073939.8, -18758.89, 0.120203026, 0.24321246, -1066251.6, -47352.426, 0.0, 9.99944, 9.999947 
2.2501239e+2, 2.0603447e+2, -996504.44, -1064844.9, 156.8573, 0.16487359, 0.29055706, -996504.06, -75603.54, 0.0, 9.999976, 9.99908 
2.2501889e+2, 2.1603589e+2, -824703.25, -930420.06, -7586.838, 0.19428948, 0.5109567, -824161.56, -1271.1802, 0.0, 10.00048, 9.999085 
2.250244e+2, 2.260348e+2, -617970.4, -775101.4, -35542.164, 0.15055853, 0.49303353, -610304.9, 114593.27, 0.0, 10.001203, 9.999131 
2.2502929e+2, 2.3603198e+2, -409553.9, -637774.75, -64923.81, 0.06038472, 0.2845928, -392377.28, 234541.27, 0.0, 10.00202, 9.999008 
2.2503525e+2, 2.4603072e+2, -356046.8, -665674.94, -54436.69, 0.03431644, 0.30986604, -346754.97, 182174.53, 0.0, 10.002162, 9.998076 
2.2504188e+2, 2.5603044e+2, -304090.13, -598478.0, -68383.336, 0.051287547, 0.459783, -288980.8, 141953.84, 0.0, 10.001883, 9.997998 
2.2504835e+2, 2.6602787e+2, -205749.56, -570887.56, -85094.05, 0.0859067, 0.439289, -186892.55, 146067.44, 0.0, 10.002196, 9.997362 
2.2505477e+2, 2.7602366e+2, -7296.645, -434727.28, -80916.375, 0.141524, 0.27121013, 7508.7065, 242508.38, 0.0, 10.002925, 9.997275 
2.2506012e+2, 2.860212e+2, 89195.195, -376737.97, -85582.47, 0.104198895, 0.32133943, 104417.63, 241442.97, 0.00000000075483947, 10.003081, 9.996929 
2.250646e+2, 2.9602015e+2, 145647.25, -303534.97, -85534.29, -0.009870726, 0.50655496, 161383.58, 200423.2, 0.0000002669958, 10.002817, 9.996885 
2.250732e+2, 3.0601695e+2, 341449.4, -132714.5, -37563.996, 0.15847263, 0.47829258, 344406.84, 344406.84, 0.0000027230408, 10.003605, 9.99735 
2.2508062e+2, 3.160118e+2, 594572.75, 25490.602, -127005.07, 0.13205108, 0.21070506, 621630.6, 621630.6, 0.000014136919, 10.005158, 9.997692 
2.3494871e+2, 1.2602273e+2, -1991580.1, -1680293.4, -117678.71, -0.05946252, 0.48976123, -1640813.4, 64208.914, 0.0008595536, 9.997347, 10.00151 
2.349575e+2, 1.3602524e+2, -1932416.1, -1538261.6, 24844.613, -0.10232828, 0.52056855, -1536701.8, 70297.06, 0.00046458573, 9.996829, 10.002063 
2.3496504e+2, 1.4602678e+2, -1894402.6, -1603789.9, -46914.836, -0.14844587, 0.53071606, -1596403.9, -87419.555, 0.00017252294, 9.996991, 10.00086 
2.3497309e+2, 1.5602656e+2, -1703030.6, -1476023.4, -40204.973, -0.026364813, 0.4201518, -1469113.1, -58126.33, 0.000033446406, 9.997695, 10.000723 
2.3498137e+2, 1.6602747e+2, -1552276.6, -1362501.6, 23287.756, 0.014681722, 0.44790828, -1359685.8, -46707.734, 0.0000017722703, 9.998104, 10.000631 
2.3498975e+2, 1.7602912e+2, -1413893.6, -1240459.0, 22449.541, -0.01604664, 0.5348263, -1237600.3, -22637.924, 0.0000000001389195, 9.998363, 10.00067 
2.3499772e+2, 1.8602967e+2, -1235357.9, -1081369.6, -27938.947, 0.032162644, 0.5146017, -1076457.3, 40496.535, 0.0, 9.998817, 10.000872 
2.3500545e+2, 1.9602951e+2, -1061832.1, -968069.44, 4990.22, 0.13425405, 0.39921987, -967804.6, 51145.508, 0.0, 9.999431, 10.00068 
2.350121e+2, 2.0602927e+2, -1003044.94, -1069673.8, 14758.84, 0.13101903, 0.3989952, -999922.1, -78970.9, 0.0, 9.999938, 9.999064 
2.3501807e+2, 2.160289e+2, -836658.2, -946820.1, 17735.836, 0.05548836, 0.4424178, -833873.2, -10916.74, 0.0, 10.000441, 9.998992 
2.3502435e+2, 2.260276e+2, -679510.2, -890954.75, -7584.6484, 0.016012458, 0.4474943, -679238.44, 45729.125, 0.0, 10.001155, 9.998359 
2.3503083e+2, 2.3602559e+2, -465967.0, -745283.8, -34122.46, 0.0022405812, 0.40077636, -461858.9, 165124.14, 0.0, 10.00198, 9.99829 
2.3503757e+2, 2.4602301e+2, -373413.56, -696140.8, -69634.266, 0.039163165, 0.33903208, -359029.78, 169976.92, 0.0, 10.002138, 9.997878 
2.3504451e+2, 2.5602e+2, -323017.8, -626577.25, -71278.11, 0.114446856, 0.23781726, -307114.34, 123921.945, 0.0, 10.001835, 9.9978285 
2.350509e+2, 2.6601824e+2, -195915.52, -543407.8, -61431.98, 0.11130991, 0.29423508, -185374.9, 147679.0, 0.0, 10.00217, 9.997561 
2.3505694e+2, 2.7601722e+2, -1750.0748, -409640.6, -51581.875, 0.05511064, 0.42133462, 4671.865, 239736.02, 0.0, 10.002871, 9.997472 
2.3506296e+2, 2.860139e+2, 79802.0, -394583.0, -99012.195, 0.06764813, 0.38477066, 99638.09, 236734.36, 0.00000003119879, 10.003072, 9.996813 
2.3506884e+2, 2.9600918e+2, 128096.24, -338273.22, -84723.57, 0.11965013, 0.21490021, 143010.69, 182153.44, 0.00000087505157, 10.002802, 9.996658 
2.3507828e+2, 3.0600682e+2, 260064.69, -294349.8, 18478.867, 0.29653677, 0.3422534, 260679.92, 260679.92, 0.0000050395365, 10.003581, 9.996248 
2.3508567e+2, 3.1600404e+2, 540373.94, -68309.164, -48123.566, 0.097361274, 0.42001984, 544155.2, 544155.2, 0.00001767749, 10.005085, 9.99708 
2.449447e+2, 1.2601462e+2, -2201336.0, -1696764.4, -43816.707, -0.10035325, 0.56234896, -1692987.6, 12118.214, 0.0007335385, 9.99554, 10.002275 
2.4495462e+2, 1.360166e+2, -2026756.9, -1526013.1, 45735.457, -0.02519906, 0.48394814, -1521870.1, 85213.72, 0.00038622954, 9.9959345, 10.0025835 
2.4496275e+2, 1.4601856e+2, -1920875.8, -1592304.1, 2839.4148, -0.059814118, 0.5040545, -1592279.6, -83216.04, 0.00013762695, 9.996707, 10.001075 
2.4497074e+2, 1.5601917e+2, -1680084.9, -1443862.9, 13842.062, -0.03058937, 0.45268074, -1443054.5, -31996.6, 0.000025817635, 9.99777, 10.000905 
2.449793e+2, 1.660198e+2, -1529207.4, -1357943.8, 60715.418, -0.008311822, 0.44561815, -1338603.4, -25551.84, 0.0000016011192, 9.998293, 10.000568 
2.4498823e+2, 1.7602038e+2, -1417172.6, -1252625.5, 40838.918, -0.00019839151, 0.43552938, -1243047.3, -28002.176, 0.0000000006420841, 9.9983835, 10.000578 
2.4499658e+2, 1.8602133e+2, -1264287.0, -1103104.8, -35481.168, 0.04730154, 0.462822, -1095639.9, 21394.195, 0.0, 9.998657, 10.000795 
2.4500453e+2, 1.9602251e+2, -1119255.1, -999136.0, -76703.58, 0.12100414, 0.4877611, -961775.94, 57244.57, 0.0, 9.999054, 10.000645 
2.4501152e+2, 2.0602228e+2, -1035938.0, -1036968.8, -69189.945, 0.10292149, 0.46737355, -967261.56, -46241.64, 0.0, 9.999505, 9.999498 
2.4501795e+2, 2.1602109e+2, -892085.7, -935114.3, -40647.816, 0.028238375, 0.38670647, -867609.7, -44581.1, 0.0, 9.999901, 9.999332 
2.450251e+2, 2.2601938e+2, -791259.0, -1001937.44, -17677.033, 0.00459717, 0.36466607, -789786.1, -64742.387, 0.0, 10.000632, 9.997848 
2.4503271e+2, 2.3601723e+2, -554227.44, -838333.1, -35451.58, 0.015700968, 0.35257086, -549870.5, 77193.39, 0.0, 10.0015955, 9.997834 
2.4503972e+2, 2.4601458e+2, -437102.25, -735001.9, -89718.086, 0.062348545, 0.30843866, -412168.8, 116920.59, 0.0, 10.001737, 9.9978075 
2.4504629e+2, 2.5601158e+2, -396441.7, -666995.3, -85648.58, 0.13601692, 0.21432315, -371607.63, 59511.047, 0.0, 10.00135, 9.997788 
2.4505302e+2, 2.6601e+2, -255850.48, -554942.5, -28235.207, 0.13383093, 0.28110883, -253208.33, 79925.38, 0.0, 10.001674, 9.997726 
2.4505989e+2, 2.760093e+2, -49394.863, -419804.78, -31200.13, 0.08614707, 0.42380482, -46785.22, 188354.56, 0.0, 10.002484, 9.997589 
2.4506636e+2, 2.8600553e+2, 121959.05, -413590.63, -89853.86, 0.08021679, 0.3538602, 136632.58, 273808.78, 0.00000009380251, 10.003538, 9.996456 
2.4507238e+2, 2.959997e+2, 395871.1, -241831.52, -105752.02, 0.094725154, 0.11336066, 412950.8, 452183.94, 0.0000015673739, 10.004793, 9.996358 
2.4508233e+2, 3.0599755e+2, 445301.88, -215957.98, 44570.277, 0.28258055, 0.28291753, 448292.47, 448292.47, 0.000007492646, 10.004903, 9.996152 
2.4509022e+2, 3.1599522e+2, 434897.63, -66306.44, 43323.227, 0.09792844, 0.41248587, 438614.84, 438614.84, 0.000021673697, 10.004147, 9.99754 
2.5493884e+2, 1.2600583e+2, -2191529.0, -1675700.3, -49933.996, -0.26113632, 0.46535674, -1670911.0, 34276.977, 0.0006147494, 9.995535, 10.002425 
2.5495282e+2, 1.3600792e+2, -2028817.9, -1532149.6, 64623.56, 0.19087408, 0.408521, -1523878.9, 83285.805, 0.00031221876, 9.995942, 10.002539 
2.5496203e+2, 1.4601056e+2, -1895251.6, -1539235.4, 40013.875, 0.18773706, 0.47810754, -1534793.5, -25655.877, 0.00010529937, 9.996704, 10.00144 
2.5496876e+2, 1.5601207e+2, -1655117.3, -1394219.1, 55464.676, -0.016637614, 0.47746962, -1382917.4, 28205.023, 0.000019009012, 9.997777, 10.001243 
2.5497732e+2, 1.6601223e+2, -1548756.3, -1392280.0, 60978.53, -0.047185045, 0.42044845, -1371323.4, -58204.363, 0.0000013062046, 9.998268, 10.000344 
2.549871e+2, 1.7601146e+2, -1436791.5, -1293080.5, 48998.73, 0.035142265, 0.29789037, -1277964.3, -62840.51, 0.000000000635992, 9.998386, 10.000298 
2.5499544e+2, 1.8601207e+2, -1335060.3, -1246973.3, -23420.203, 0.05603628, 0.35746565, -1241133.5, -124013.805, 0.0, 9.998642, 9.999818 
2.5500286e+2, 1.9601353e+2, -1175385.5, -1113601.4, -56967.88, 0.036316454, 0.5053239, -1079688.8, -60578.156, 0.0, 9.9990425, 9.999866 
2.5501052e+2, 2.0601344e+2, -984358.7, -919761.75, -57531.91, 0.04259052, 0.4886799, -886082.06, 35025.137, 0.0, 9.999461, 10.000324 
2.5501832e+2, 2.1601231e+2, -844175.06, -832409.8, -19926.73, 0.06352451, 0.33289555, -817515.5, 5592.5957, 0.0, 9.999883, 10.000049 
2.5502646e+2, 2.2601004e+2, -811543.94, -1035585.75, 13821.153, 0.06719968, 0.23474087, -810694.5, -85566.63, 0.0, 10.000597, 9.997634 
2.5503483e+2, 2.3600687e+2, -572642.4, -866946.5, -2.4323761, 0.05808292, 0.14054525, -572642.4, 54519.027, 0.0, 10.001552, 9.997661 
2.5504154e+2, 2.460054e+2, -437587.13, -728806.06, -108337.88, 0.06109793, 0.21825837, -401704.94, 127472.71, 0.0, 10.00171, 9.997861 
2.550471e+2, 2.5600505e+2, -397197.5, -661143.75, -93118.484, 0.071877114, 0.3811946, -367652.97, 63529.695, 0.0, 10.001317, 9.997845 
2.5505462e+2, 2.66003e+2, -248821.67, -536827.8, -1600.9602, 0.11415719, 0.39734957, -248812.78, 84387.38, 0.0, 10.00166, 9.997859 
2.5506344e+2, 2.759998e+2, -52134.71, -415030.0, 5605.846, 0.18112884, 0.28050748, -52048.137, 183178.67, 0.0, 10.002437, 9.997649 
2.5507006e+2, 2.8599593e+2, 74302.04, -504823.0, -48533.484, 0.086498916, 0.23023944, 78341.2, 215606.53, 0.00000013915765, 10.003508, 9.995842 
2.5507504e+2, 2.9599157e+2, 357839.75, -308538.94, -61323.12, -0.13089512, 0.19341546, 363435.97, 402748.22, 0.0000020008988, 10.004741, 9.995925 
2.550853e+2, 3.0598912e+2, 503705.6, -86481.164, 13822.173, 0.0745012, 0.2965039, 504029.13, 504029.13, 0.000009108913, 10.004871, 9.997055 
2.5509402e+2, 3.1598514e+2, 527864.0, 139812.81, 42728.02, 0.03835516, 0.18107392, 532513.06, 532513.06, 0.000024996654, 10.004091, 9.998983 
2.6493454e+2, 1.2599699e+2, -2137690.0, -1676802.8, -37016.625, -0.2639086, 0.39055818, -1673848.6, 31421.252, 0.0005062773, 9.996022, 10.002171 
2.6494947e+2, 1.359986e+2, -1890019.0, -1520350.1, 36685.547, 0.20828585, 0.33340174, -1516744.6, 90507.27, 0.0002464049, 9.997123, 10.002049 
2.6495963e+2, 1.4600118e+2, -1744755.8, -1468711.6, -8730.683, 0.22853208, 0.42073268, -1468435.8, 40790.145, 0.00007758306, 9.99775, 10.001419 
2.6496685e+2, 1.5600292e+2, -1601336.3, -1368434.6, -35726.754, -0.0004099453, 0.44669977, -1363077.4, 48131.05, 0.000013419433, 9.998148, 10.001242 
2.64976e+2, 1.6600314e+2, -1499608.6, -1362022.9, -36989.273, -0.019606745, 0.39231974, -1352709.0, -39505.07, 0.0000010267595, 9.998571, 10.000412 
2.6498637e+2, 1.7600237e+2, -1347180.9, -1247883.0, -34184.617, 0.09729506, 0.26027563, -1237252.5, -22044.674, 0.0000000012219834, 9.998991, 10.000318 
2.649948e+2, 1.860026e+2, -1314401.9, -1295182.9, -77338.01, 0.11126295, 0.30940136, -1226859.6, -109651.32, 0.0, 9.999033, 9.999299 
2.6500195e+2, 1.960034e+2, -1245058.4, -1199861.6, -83148.914, 0.05746871, 0.4482344, -1136294.9, -117087.42, 0.0, 9.99879, 9.999397 
2.6501003e+2, 2.0600308e+2, -985372.1, -911968.3, -70676.34, 0.053771697, 0.4231798, -869032.44, 52174.703, 0.0, 9.999428, 10.00039 
2.6501873e+2, 2.1600197e+2, -727380.5, -763791.94, -101124.85, 0.08409824, 0.2620946, -642835.6, 180371.7, 0.0, 10.000639, 10.000152 
2.6502755e+2, 2.2600035e+2, -747921.3, -940967.1, -71155.836, 0.11234504, 0.1958579, -724528.3, 692.1871, 0.0, 10.000755, 9.998209 
2.6503646e+2, 2.359984e+2, -745170.7, -892632.9, -34995.336, 0.14285274, 0.16820422, -737287.1, -110044.73, 0.0, 10.000117, 9.998176 
2.6504335e+2, 2.4599725e+2, -511296.13, -759798.06, -86469.28, 0.09997595, 0.25206783, -484169.3, 45085.742, 0.0, 10.0011835, 9.997901 
2.650488e+2, 2.5599656e+2, -92176.28, -509009.6, -80393.55, 0.009270308, 0.3777025, -77208.46, 354053.6, 0.0, 10.003403, 9.997878 
2.6505694e+2, 2.6599386e+2, 27506.41, -431706.88, -33675.18, 0.0834514, 0.33797327, 29962.75, 363248.8, 0.0, 10.003685, 9.9976015 
2.6506695e+2, 2.7598983e+2, -36577.06, -429579.94, -58666.063, 0.2809059, 0.16162115, -28006.504, 207315.11, 0.0, 10.002646, 9.997443 
2.6507413e+2, 2.8598672e+2, 8295.814, -521908.78, -34498.94, 0.17183045, 0.1901752, 10531.141, 147884.94, 0.00000017298198, 10.002988, 9.9959755 
2.6507923e+2, 2.9598418e+2, 299449.84, -315698.72, -11103.02, -0.15672208, 0.32322693, 299650.2, 339034.5, 0.0000022405377, 10.004247, 9.996113 
2.6508927e+2, 3.0598095e+2, 323901.28, -155014.97, -25403.326, 0.056835428, 0.33055106, 325245.0, 325245.0, 0.00001010162, 10.003545, 9.99723 
2.6509747e+2, 3.1597537e+2, 182931.8, 38701.957, -42791.18, 0.11512733, 0.035461567, 194671.8, 194671.8, 0.00002797797, 10.001421, 9.99958 
2.7493152e+2, 1.2598792e+2, -2188275.8, -1778942.4, -11741.322, -0.19676593, 0.3244621, -1778605.9, -73252.555, 0.00041453895, 9.996007, 10.001476 
2.749443e+2, 1.3598862e+2, -1947066.1, -1643267.9, 73697.414, -0.030649098, 0.25996917, -1626333.8, -18987.713, 0.00019313562, 9.997144, 10.001191 
2.749554e+2, 1.4599043e+2, -1776087.3, -1535002.3, -1615.2867, 0.014391511, 0.3374593, -1534991.4, -25662.904, 0.000056136425, 9.997754, 10.000965 
2.7496493e+2, 1.5599176e+2, -1625218.4, -1418259.5, -17409.459, -0.018320106, 0.36484435, -1416805.1, -5488.941, 0.000009372096, 9.998151, 10.0009 
2.7497518e+2, 1.6599257e+2, -1473219.3, -1304288.3, -26053.941, 0.032994073, 0.36425203, -1300361.3, 12944.819, 0.0000008660051, 9.99856, 10.000811 
2.7498588e+2, 1.7599301e+2, -1326284.8, -1200565.9, -17005.117, 0.13736318, 0.31410345, -1198306.4, 16991.598, 0.000000004874734, 9.998976, 10.000648 
2.7499446e+2, 1.8599282e+2, -1327575.0, -1312171.8, -90321.56, 0.16476749, 0.31422895, -1229224.0, -111923.34, 0.0, 9.998992, 9.999201 
2.7500165e+2, 1.9599225e+2, -1258015.6, -1221216.6, -82755.17, 0.1371048, 0.3205395, -1154840.1, -135529.36, 0.0, 9.99877, 9.999258 
2.7501e+2, 2.0599131e+2, -1040234.5, -1019049.25, -28459.512, 0.096777834, 0.2819111, -999275.0, -77956.41, 0.0, 9.999396, 9.999673 
2.750191e+2, 2.1599004e+2, -768366.06, -839949.5, -56584.715, 0.044948634, 0.17319675, -737203.5, 86122.6, 0.0, 10.000598, 9.99965 
2.750283e+2, 2.2599031e+2, -665424.0, -757166.6, -100032.61, 0.09953823, 0.2466127, -601246.7, 124074.93, 0.0, 10.000702, 9.999497 
2.750375e+2, 2.3599169e+2, -668712.56, -725215.9, -45668.996, 0.22627291, 0.42212436, -643263.06, -15954.454, 0.0, 10.00008, 9.999344 
2.75045e+2, 2.4599002e+2, -511905.28, -751912.56, -6672.917, 0.13828218, 0.40013292, -511719.9, 17602.871, 0.0, 10.001147, 9.997971 
2.7505124e+2, 2.5598618e+2, -101697.83, -514940.66, -4752.979, -0.10023342, 0.20329563, -101643.17, 329713.66, 0.0, 10.003339, 9.997869 
2.7505988e+2, 2.6598257e+2, -24973.256, -526501.9, -78689.445, -0.0010161167, 0.1091651, -12916.774, 320474.22, 0.0, 10.003629, 9.996976 
2.7507025e+2, 2.759792e+2, -76332.195, -504454.75, -84528.06, 0.33446008, 0.06015196, -60247.38, 175177.72, 0.00000000009324417, 10.002614, 9.996944 
2.750784e+2, 2.8597772e+2, 69537.96, -392943.1, 10006.11, 0.2864853, 0.22488654, 69754.35, 207197.25, 0.00000023612336, 10.002979, 9.996863 
2.7508473e+2, 2.9597744e+2, 345368.88, -208682.08, 30220.361, -0.04466972, 0.49569884, 347012.34, 386462.84, 0.0000024950837, 10.004187, 9.99688 
2.7509397e+2, 3.059731e+2, 283504.72, -220844.98, -109209.14, 0.16365844, 0.38313, 306136.72, 306136.72, 0.000010927285, 10.003485, 9.996795 
2.7510023e+2, 3.1596583e+2, 155754.64, 1374.5692, -88423.5, 0.22132932, -0.042291205, 195940.14, 195940.14, 0.000030095847, 10.00135, 9.999351 
2.849288e+2, 1.2597862e+2, -2131050.0, -1739932.4, -55317.87, -0.08286466, 0.37023792, -1732259.0, -26814.398, 0.0003410361, 9.996362, 10.001565 
2.8494114e+2, 1.3597882e+2, -1894372.6, -1634318.1, 65783.04, -0.08087749, 0.26800582, -1618624.8, -11184.42, 0.00015204525, 9.997584, 10.001036 
2.8495273e+2, 1.4597987e+2, -1711248.6, -1542089.0, 5368.336, -0.050290678, 0.2956077, -1541918.8, -32489.598, 0.000040681283, 9.998364, 10.00062 
2.849629e+2, 1.5598066e+2, -1539684.3, -1410576.4, -14476.75, -0.06923013, 0.30374774, -1408973.1, 2448.6768, 0.0000066741927, 9.9988785, 10.000603 
2.849736e+2, 1.6598158e+2, -1449071.8, -1284237.8, -47661.0, 0.014709424, 0.32202455, -1271449.0, 41962.61, 0.00000074756446, 9.998699, 10.000879 
2.8498468e+2, 1.7598245e+2, -1452389.4, -1252503.9, -70646.13, 0.1684628, 0.31006527, -1230056.1, -14655.323, 0.000000006090155, 9.998072, 10.00073 
2.8499353e+2, 1.8598242e+2, -1315791.0, -1263586.9, -92841.33, 0.18003649, 0.30068552, -1193248.1, -75847.54, 0.0, 9.998889, 9.999582 
2.850009e+2, 1.9598183e+2, -961610.75, -1049782.3, -60807.395, 0.08896395, 0.26959407, -930589.3, 88817.91, 0.0, 10.000681, 9.999514 
2.8500968e+2, 2.059808e+2, -871938.94, -1032761.1, -11716.839, 0.05183789, 0.25467756, -871089.8, 50328.348, 0.0, 10.000951, 9.998828 
2.850195e+2, 2.1597937e+2, -886497.25, -977871.06, -59796.72, 0.050828505, 0.2142624, -856931.6, -33498.563, 0.0, 10.000136, 9.998922 
2.8502885e+2, 2.2597961e+2, -706565.1, -746218.6, -146090.72, 0.10928883, 0.3039424, -578961.9, 146467.97, 0.0, 10.000291, 9.999769 
2.850379e+2, 2.35981e+2, -501032.34, -612087.2, -172031.3, 0.20842353, 0.45408115, -375789.03, 251625.5, 0.0, 10.001092, 9.999635 
2.8504604e+2, 2.459792e+2, -514060.03, -701320.9, -116982.62, 0.14478455, 0.37953997, -457851.9, 71576.29, 0.0, 10.000908, 9.998434 
2.850536e+2, 2.5597522e+2, -545949.0, -681583.06, -96383.945, -0.0284978, 0.123293914, -495914.38, -64452.45, 0.0, 10.000085, 9.998293 
2.8506255e+2, 2.6597226e+2, -413054.56, -711711.0, -127434.68, 0.042799875, 0.073419586, -366070.5, -32579.666, 0.0, 10.000948, 9.996998 
2.850726e+2, 2.7597004e+2, -23592.479, -465805.53, -97687.305, 0.2953205, 0.13534299, -2974.1494, 232542.63, 0.0000000018932573, 10.002915, 9.9970665 
2.850813e+2, 2.8596884e+2, 85342.82, -303708.03, -2650.0251, 0.29527012, 0.28333002, 85360.87, 222891.95, 0.00000028816427, 10.002735, 9.997601 
2.8508884e+2, 2.959684e+2, -57436.215, -322299.2, 1292.5464, 0.107494615, 0.4661917, -57429.91, -17892.855, 0.0000027347362, 10.001082, 9.997593 
2.8509757e+2, 3.05964e+2, 22987.953, -362330.75, -112160.23, 0.26768228, 0.31439146, 53258.06, 53258.06, 0.000011893844, 10.001743, 9.996672 
2.851025e+2, 3.159583e+2, 488410.3, 135520.63, -71183.15, 0.19701473, 0.06514135, 502227.97, 502227.97, 0.000031796684, 10.00375, 9.99912 
2.9492602e+2, 1.2596935e+2, -2077208.3, -1634618.8, -24841.334, -0.02766671, 0.5436587, -1633228.9, 72312.68, 0.00028049768, 9.996384, 10.002282 
2.9493982e+2, 1.359692e+2, -1858718.0, -1565152.1, 109159.47, 0.016011044, 0.35342818, -1529011.5, 78523.25, 0.000119661214, 9.997603, 10.001503 
2.949516e+2, 1.459694e+2, -1726755.5, -1574634.4, 17493.15, -0.015122304, 0.28575033, -1572648.8, -63119.777, 0.000029635712, 9.998363, 10.0004 
2.9496047e+2, 1.5596966e+2, -1558804.1, -1446353.8, 3917.1082, -0.20967676, 0.26271436, -1446217.5, -34692.348, 0.0000047316526, 9.998862, 10.000364 
2.9497102e+2, 1.6597013e+2, -1473081.8, -1330686.0, -75783.1, -0.12487021, 0.26665562, -1297902.1, 15618.382, 0.00000054097734, 9.998683, 10.000567 
2.9498267e+2, 1.759707e+2, -1464570.3, -1277911.1, -81372.34, 0.14894664, 0.2534272, -1247418.8, -31902.781, 0.0000000012704189, 9.998074, 10.000552 
2.9499185e+2, 1.8597138e+2, -1257515.6, -1138304.8, -29992.78, 0.112574324, 0.27171582, -1131184.0, -13676.158, 0.0, 9.99887, 10.000452 
2.9499942e+2, 1.9597204e+2, -917729.5, -954118.9, 1233.7814, -0.13490397, 0.28450128, -917687.7, 101809.99, 0.0, 10.000661, 10.00018 
2.9500893e+2, 2.0597142e+2, -947390.75, -1178496.1, -45623.3, -0.12734349, 0.3330435, -938710.2, -17203.42, 0.0, 10.000906, 9.997849 
2.9501975e+2, 2.1596985e+2, -959073.0, -1118397.1, -79471.086, 0.052308723, 0.3775914, -926210.8, -102681.51, 0.0, 10.0000925, 9.997979 
2.950291e+2, 2.2596823e+2, -764997.25, -853322.9, -119836.72, 0.09747014, 0.36055884, -681444.8, 44101.137, 0.0, 10.000232, 9.999062 
2.950375e+2, 2.3596649e+2, -549477.7, -698920.0, -141794.3, 0.052337434, 0.27006358, -463921.38, 163637.81, 0.0, 10.001035, 9.999065 
2.9504645e+2, 2.4596494e+2, -458776.3, -580394.2, -151975.31, 0.08275673, 0.2000736, -355895.84, 173673.97, 0.0, 10.000879, 9.999281 
2.9505578e+2, 2.5596353e+2, -491638.25, -564881.25, -112649.85, 0.16967164, 0.12098023, -409806.72, 21771.84, 0.0, 10.000064, 9.999108 
2.9506484e+2, 2.6596272e+2, -367923.06, -614493.4, -55839.37, 0.16584918, 0.2089774, -355866.94, -22279.256, 0.0, 10.000931, 9.997675 
2.9507375e+2, 2.7596217e+2, 16198.71, -373245.8, -32614.629, 0.1086048, 0.37514955, 18911.18, 254509.3, 0.0000000016821552, 10.002867, 9.997728 
2.950827e+2, 2.8596014e+2, 124051.43, -213341.2, -71592.516, 0.15128034, 0.3718219, 138614.31, 276232.66, 0.00000022409213, 10.002695, 9.99824 
2.9509136e+2, 2.9595712e+2, -17701.273, -239425.11, -39745.688, 0.23869283, 0.23386075, -10791.869, 28852.498, 0.0000026529046, 10.001075, 9.99817 
2.9509988e+2, 3.0595347e+2, 36128.203, -328078.13, -39260.78, 0.31432173, 0.12238351, 40312.375, 40312.375, 0.000012290724, 10.001721, 9.996911 
2.9510376e+2, 3.1595242e+2, 465542.78, 99945.69, 28381.813, -0.07619298, 0.31525195, 467732.97, 467732.97, 0.000033071607, 10.003699, 9.998895 
3.049235e+2, 1.2595816e+2, -1816364.4, -1557189.0, 47616.285, -0.010373402, 0.49376214, -1548717.8, 156930.72, 0.00022859985, 9.998377, 10.001862 
3.0493847e+2, 1.3595809e+2, -1686166.9, -1533707.4, 82192.91, 0.057989515, 0.36085013, -1497836.0, 109806.21, 0.00009393993, 9.998995, 10.001059 
3.0495086e+2, 1.459579e+2, -1619342.3, -1500540.6, -40390.934, 0.046475537, 0.26490217, -1488109.1, 21531.018, 0.000021636553, 9.999016, 10.000588 
3.0495927e+2, 1.5595824e+2, -1570157.6, -1438145.5, -37615.63, -0.20705912, 0.23242326, -1428179.6, -16544.768, 0.0000030875526, 9.998729, 10.000482 
3.0496958e+2, 1.659588e+2, -1458645.1, -1364125.9, -103288.87, -0.14863195, 0.25859788, -1297798.3, 15832.188, 0.0000002653173, 9.99895, 10.000211 
3.0498117e+2, 1.7595941e+2, -1274410.5, -1217032.3, -115715.24, 0.12192046, 0.2849306, -1126502.8, 89124.89, 0.0, 9.999515, 10.000274 
3.049909e+2, 1.8595988e+2, -1144103.9, -1064927.3, -62536.953, 0.09533759, 0.2861807, -1030501.3, 87119.86, 0.0, 9.999565, 10.000626 
3.0499935e+2, 1.959602e+2, -1110210.3, -1024959.94, -93248.73, -0.1351493, 0.24454245, -965055.94, 54556.84, 0.0, 9.99924, 10.000383 
3.0500937e+2, 2.0595998e+2, -1075885.8, -1191017.5, -107089.95, -0.11878884, 0.3035684, -1011870.0, -90252.92, 0.0, 9.999814, 9.998291 
3.0502042e+2, 2.159594e+2, -801102.9, -1003361.75, -44663.344, 0.06651311, 0.4045669, -791679.25, 31951.113, 0.0, 10.001006, 9.998333 
3.0502975e+2, 2.2595759e+2, -663713.7, -839594.25, -20163.05, 0.10045683, 0.36867985, -661431.8, 64217.32, 0.0, 10.001075, 9.99875 
3.0503798e+2, 2.3595488e+2, -668014.06, -786131.06, -23135.703, 0.030264573, 0.20925881, -663644.1, -35971.99, 0.0, 10.000357, 9.998789 
3.0504704e+2, 2.4595344e+2, -524613.94, -617041.6, -52646.86, 0.07540612, 0.16611254, -500774.88, 28907.572, 0.0, 10.000452, 9.999231 
3.0505666e+2, 2.5595292e+2, -330125.38, -483827.16, -81440.086, 0.19883236, 0.17662996, -295000.63, 136683.58, 0.0, 10.001165, 9.999128 
3.0506614e+2, 2.6595247e+2, -288047.13, -527468.3, -21198.342, 0.1867467, 0.2747536, -286184.72, 47505.188, 0.0, 10.001273, 9.998107 
3.0507553e+2, 2.7595192e+2, -230581.81, -448257.1, -27830.006, 0.095119834, 0.40000716, -227080.05, 8619.211, 0.00000000014964384, 10.000989, 9.998115 
3.0508453e+2, 2.859496e+2, -66159.96, -298989.28, -131830.89, 0.13810079, 0.3472037, -6700.3604, 131021.88, 0.00000013461268, 10.001369, 9.998282 
3.0509314e+2, 2.9594615e+2, 147946.72, -145900.31, -145469.72, 0.25416976, 0.16067529, 207778.98, 247531.95, 0.0000024042524, 10.002171, 9.998273 
3.0510214e+2, 3.0594334e+2, 261020.8, -141398.25, -74952.05, 0.31070727, 0.089344986, 274527.56, 274527.56, 0.000011913728, 10.002918, 9.997623 
3.0510753e+2, 3.159442e+2, 444522.9, 104876.27, 21007.07, -0.05137172, 0.40255597, 445817.25, 445817.25, 0.0000326923, 10.0034685, 9.999051 
3.1492096e+2, 1.2594496e+2, -1919942.5, -1774747.3, 68009.46, -0.12656382, 0.21041863, -1747867.8, -42101.637, 0.00018624985, 9.998401, 10.000352 
3.14937e+2, 1.3594562e+2, -1777317.8, -1723345.3, 103660.05, -0.0013734589, 0.30052578, -1643216.4, -35455.348, 0.00007443096, 9.999007, 9.999748 
3.1495035e+2, 1.459455e+2, -1584987.0, -1427921.3, -57671.242, 0.08220868, 0.24630986, -1409020.1, 100741.234, 0.000015949841, 9.999008, 10.00109 
3.149591e+2, 1.5594631e+2, -1540303.1, -1378295.4, -42273.367, -0.10760137, 0.21015465, -1367928.3, 43823.477, 0.00000170519, 9.998735, 10.000892 
3.1496912e+2, 1.6594742e+2, -1485014.5, -1416316.6, -87935.54, -0.10037724, 0.29113287, -1356259.4, -42516.926, 0.000000057148895, 9.998938, 9.999859 
3.1497997e+2, 1.7594855e+2, -1302045.4, -1272732.0, -94808.625, 0.040795684, 0.40317434, -1191453.9, 24281.826, 0.0, 9.999508, 9.999895 
3.1499034e+2, 1.8594797e+2, -1182396.3, -1142014.5, -79302.48, 0.07715167, 0.3479162, -1080372.9, 37367.277, 0.0, 9.999552, 10.000104 
3.1500044e+2, 1.9594625e+2, -1133045.4, -1065819.9, -95910.18, 0.040610112, 0.15100092, -997803.0, 21949.414, 0.0, 9.99921, 10.000117 
3.1501082e+2, 2.059465e+2, -955014.0, -926018.5, -67466.75, 0.03411336, 0.16719407, -871509.4, 50239.69, 0.0, 9.999757, 10.000136 
3.150213e+2, 2.1594808e+2, -692247.8, -764506.56, -2295.1711, 0.045964397, 0.30054042, -692174.94, 131560.88, 0.0, 10.000953, 9.999997 
3.1503057e+2, 2.2594775e+2, -662868.25, -827749.3, -51559.582, 0.06554051, 0.33357358, -648072.8, 77666.2, 0.0, 10.001032, 9.998853 
3.1503904e+2, 2.3594604e+2, -672375.06, -787419.25, -40906.563, 0.09212414, 0.2674885, -659312.9, -31558.582, 0.0, 10.00032, 9.998799 
3.1504753e+2, 2.4594457e+2, -587354.7, -746141.4, -31703.824, 0.0720376, 0.26850006, -581258.6, -51491.176, 0.0, 10.000446, 9.998347 
3.1505612e+2, 2.559433e+2, -389957.22, -597539.56, -56466.453, 0.018573934, 0.29052344, -375591.44, 56187.656, 0.0, 10.00112, 9.99837 
3.1506634e+2, 2.6594156e+2, -274387.25, -494234.22, -35784.004, 0.07016447, 0.28172666, -268709.38, 65087.246, 0.0, 10.001252, 9.998347 
3.1507766e+2, 2.7593935e+2, -223166.7, -424960.34, -29116.03, 0.19797343, 0.21425551, -219049.66, 16770.145, 0.00000000001473293, 10.000952, 9.998295 
3.1508666e+2, 2.8593722e+2, -108964.9, -381593.9, -107245.04, 0.20056856, 0.20561865, -71834.48, 66008.47, 0.000000108201135, 10.001343, 9.997727 
3.1509385e+2, 2.9593536e+2, 111636.22, -210575.81, -110974.69, 0.09647409, 0.23443685, 146158.75, 186022.64, 0.0000022594174, 10.002118, 9.997857 
3.1510416e+2, 3.0593345e+2, 340713.9, 37551.582, -54086.473, 0.20868765, 0.20410393, 350074.3, 350074.3, 0.000011524727, 10.002872, 9.998869 
3.151133e+2, 3.159337e+2, 477087.78, 194192.4, 60654.906, 0.15167068, 0.3345607, 489544.2, 489544.2, 0.00003194629, 10.0033865, 9.999699 
3.2492062e+2, 1.2593311e+2, -1625181.4, -1689508.5, -8089.8784, -0.106845126, 0.16089596, -1624179.6, 81699.53, 0.00015560584, 10.0006485, 9.999858 
3.2493523e+2, 1.3593364e+2, -1822916.3, -1778241.5, 87938.414, -0.06372597, 0.27256644, -1709847.9, -101971.01, 0.000061447354, 9.998833, 9.999456 
3.24949e+2, 1.4593337e+2, -1684250.5, -1468018.9, -19826.291, 0.08637278, 0.2105844, -1466216.0, 43663.58, 0.000012624197, 9.998282, 10.001168 
3.249588e+2, 1.559346e+2, -1527069.5, -1358350.6, -38846.293, -0.010685097, 0.20754732, -1349836.1, 62029.71, 0.0000008198343, 9.998768, 10.001012 
3.2496887e+2, 1.6593589e+2, -1398824.8, -1348592.6, -41732.39, -0.039368536, 0.28787974, -1325001.4, -11147.058, 0.000000004124255, 9.999425, 10.000088 
3.2497916e+2, 1.7593697e+2, -1193402.1, -1203812.5, -18731.824, -0.022392474, 0.3755179, -1179165.8, 36680.746, 0.0, 10.000178, 10.000047 
3.2498953e+2, 1.8593632e+2, -1120088.1, -1149412.6, -9336.53, 0.011759908, 0.32326606, -1117367.9, 484.35483, 0.0, 10.00015, 9.999759 
3.2499996e+2, 1.9593446e+2, -1102862.3, -1083760.0, -20052.17, 0.05654065, 0.14914516, -1071100.5, -51233.363, 0.0, 9.999566, 9.999819 
3.2501063e+2, 2.0593464e+2, -1008434.5, -923443.06, -14658.973, 0.0692906, 0.1568127, -920985.75, 878.6409, 0.0, 9.999262, 10.000395 
3.2502145e+2, 2.1593623e+2, -942984.9, -857438.4, -75793.57, 0.061595872, 0.2641497, -813181.6, 10668.004, 0.0, 9.999111, 10.000247 
3.2503098e+2, 2.2593617e+2, -804948.0, -888011.56, -167040.06, 0.05338945, 0.3085805, -674354.06, 51496.44, 0.0, 10.000016, 9.998932 
3.2503957e+2, 2.3593488e+2, -467672.78, -681429.44, -166603.38, 0.045746308, 0.27600428, -376612.6, 251250.39, 0.0, 10.001685, 9.998875 
3.250484e+2, 2.4593358e+2, -363567.8, -636385.25, -125269.75, 0.037983835, 0.28844628, -314774.34, 215100.88, 0.0, 10.001972, 9.99837 
3.2505748e+2, 2.5593224e+2, -356414.0, -580530.25, -91664.65, 0.030490395, 0.30529907, -323698.4, 108188.88, 0.0, 10.001345, 9.99838 
3.250676e+2, 2.6593024e+2, -317279.38, -530497.56, -60363.996, 0.08439571, 0.2777131, -301376.0, 32531.951, 0.0, 10.00103, 9.998201 
3.2507846e+2, 2.759276e+2, -233326.56, -443164.47, -87805.086, 0.18681453, 0.18210715, -201432.8, 34503.402, 0.00000000010851988, 10.000946, 9.998169 
3.2508764e+2, 2.8592592e+2, -110013.51, -371487.72, -107761.88, 0.17331831, 0.21888915, -71325.66, 66630.664, 0.00000014601811, 10.001284, 9.997829 
3.2509556e+2, 2.9592517e+2, 88811.71, -209515.33, -74070.41, 0.06975429, 0.34383494, 106190.016, 146158.27, 0.000002235968, 10.00191, 9.997964 
3.2510632e+2, 3.0592358e+2, 275913.47, 12483.707, -47905.152, 0.1672869, 0.3404715, 284354.63, 284354.63, 0.000011294619, 10.002404, 9.998923 
3.251164e+2, 3.1592217e+2, 370751.84, 132004.72, -38084.125, 0.16102405, 0.29546082, 376679.72, 376679.72, 0.000031418378, 10.002713, 9.999592 
3.3492222e+2, 1.2592262e+2, -1580220.5, -1597926.4, -77655.47, -0.04115839, 0.3548515, -1510915.0, 195072.7, 0.00013659472, 10.000665, 10.000474 
3.3493307e+2, 1.3592197e+2, -1769248.9, -1667492.3, 23499.732, -0.17237613, 0.26653817, -1662327.4, -54335.742, 0.000054929977, 9.998839, 10.000209 
3.3494666e+2, 1.4592129e+2, -1707332.6, -1508506.0, -7641.874, 0.011972382, 0.14351176, -1508212.8, 1783.6086, 0.000011796083, 9.998254, 10.0009 
3.349581e+2, 1.559232e+2, -1537252.3, -1380571.5, -15127.399, 0.029592557, 0.23311067, -1379124.4, 32851.926, 0.00000057438905, 9.998774, 10.0008545 
3.3496863e+2, 1.6592428e+2, -1346790.3, -1237510.1, -17037.574, -0.01743978, 0.2568289, -1234915.5, 79049.234, 0.00000000201948, 9.999412, 10.000856 
3.3497858e+2, 1.7592469e+2, -1145960.6, -1104516.3, 9168.817, -0.108557515, 0.20046227, -1102578.5, 113381.516, 0.0, 10.000173, 10.000734 
3.349882e+2, 1.8592481e+2, -1138624.5, -1180018.4, -36048.926, -0.14470325, 0.20789465, -1117753.6, 204.27309, 0.0, 10.0001135, 9.999567 
3.3499768e+2, 1.9592477e+2, -1125852.1, -1128641.5, -35988.72, -0.13918988, 0.23397979, -1091231.1, -71273.28, 0.0, 9.999553, 9.999517 
3.3500868e+2, 2.0592444e+2, -1105254.1, -1115765.6, -23770.203, -0.05993168, 0.27417788, -1086165.5, -164202.66, 0.0, 9.999228, 9.99909 
3.3502072e+2, 2.1592383e+2, -1031460.8, -1029020.9, -70832.43, 0.06989341, 0.2914928, -959397.9, -135425.7, 0.0, 9.999061, 9.999092 
3.3503073e+2, 2.259228e+2, -807956.4, -883494.8, -108135.01, 0.020864876, 0.28690976, -731184.4, -5200.3545, 0.0, 9.999969, 9.998986 
3.3503935e+2, 2.3592143e+2, -467241.72, -665984.7, -107989.87, -0.15200055, 0.24019216, -419860.0, 208137.7, 0.0, 10.00162, 9.999013 
3.350494e+2, 2.4592052e+2, -303086.53, -503177.9, -152909.92, -0.07331003, 0.23335576, -220401.31, 309603.72, 0.0, 10.001939, 9.9993 
3.3506042e+2, 2.5591984e+2, -306770.0, -469304.25, -109601.016, 0.1812548, 0.22396295, -251594.02, 180414.3, 0.0, 10.001308, 9.99916 
3.3506972e+2, 2.6591855e+2, -359088.16, -613860.06, -68285.37, 0.18459642, 0.26189223, -341940.13, -7916.2534, 0.0, 10.001015, 9.997636 
3.350778e+2, 2.7591667e+2, -268124.63, -506992.88, -84835.87, 0.011766376, 0.2950611, -241060.84, -5011.5215, 0.000000000044508567, 10.000909, 9.997748 
3.350874e+2, 2.8591567e+2, -56825.152, -259783.69, -87944.96, 0.009287426, 0.37683633, -24019.807, 114043.08, 0.00000018850986, 10.001275, 9.998601 
3.35098e+2, 2.9591554e+2, 122821.086, -134001.08, -46811.656, 0.10994037, 0.49185535, 131087.5, 171153.38, 0.0000021997091, 10.001884, 9.998499 
3.3510846e+2, 3.0591366e+2, 193020.97, -152315.39, -40690.684, 0.13094786, 0.49922958, 197750.73, 197750.73, 0.000010789971, 10.0023775, 9.9978 
3.3511657e+2, 3.159095e+2, 294698.25, -1548.254, -15838.005, -0.11528127, 0.28759146, 295542.56, 295542.56, 0.000030295108, 10.002615, 9.998718 
3.4492353e+2, 1.2591104e+2, -1618962.6, -1600019.3, -77128.16, 0.044788424, 0.4185252, -1531783.4, 174322.64, 0.00012625929, 10.000332, 10.000622 
3.4493276e+2, 1.3591082e+2, -1631926.6, -1564379.4, -45880.137, -0.12105097, 0.33944467, -1541182.4, 66921.695, 0.000053424294, 9.9996195, 10.000547 
3.4494567e+2, 1.4590997e+2, -1579865.4, -1441258.3, -16406.889, 0.050478704, 0.17792477, -1439342.6, 70766.32, 0.0000131995685, 9.999105, 10.00095 
3.449568e+2, 1.5591154e+2, -1513055.5, -1368271.4, -12521.947, 0.017261855, 0.22942424, -1367196.4, 44893.707, 0.00000089811203, 9.998937, 10.000859 
3.4496763e+2, 1.6591227e+2, -1445900.1, -1310760.5, -36091.402, -0.027425446, 0.23292516, -1301725.6, 12355.673, 0.0000000015154811, 9.998835, 10.000633 
3.4497824e+2, 1.7591237e+2, -1366892.8, -1228062.1, -92707.76, -0.08515636, 0.16722254, -1181662.0, 34418.375, 0.0, 9.998735, 10.000575 
3.44988e+2, 1.8591273e+2, -1261286.8, -1208714.5, -149721.11, -0.12642251, 0.18909948, -1082989.5, 35086.28, 0.0, 9.999136, 9.999843 
3.449973e+2, 1.9591324e+2, -1066930.1, -1079340.3, -122053.4, -0.14896657, 0.2439838, -950924.1, 69145.086, 0.0, 9.999863, 9.999708 
3.4500813e+2, 2.0591258e+2, -966573.3, -1121783.9, -55943.24, -0.09365567, 0.27823716, -948511.3, -26433.51, 0.0, 10.000485, 9.998447 
3.4502015e+2, 2.1591097e+2, -787928.9, -976227.8, -61376.48, 0.012652114, 0.25995287, -769689.75, 54408.445, 0.0, 10.001003, 9.998522 
3.4503034e+2, 2.2590978e+2, -771243.94, -847825.25, -75307.07, -0.02183163, 0.25953525, -725051.9, 1060.1603, 0.0, 10.000152, 9.999139 
3.4503928e+2, 2.3590897e+2, -934712.9, -870680.8, -74723.51, -0.15180358, 0.25057918, -821403.4, -193282.6, 0.0, 9.998335, 9.999184 
3.450497e+2, 2.4590826e+2, -780101.94, -712675.0, -120907.71, -0.06042295, 0.24749553, -620868.44, -90741.984, 0.0, 9.998578, 9.999481 
3.4506124e+2, 2.5590754e+2, -446458.84, -519119.0, -142457.58, 0.18779542, 0.21675673, -335771.78, 96359.01, 0.0, 10.000269, 9.999325 
3.450708e+2, 2.659066e+2, -334755.16, -587176.8, -101789.266, 0.19044961, 0.27785024, -298823.38, 35319.59, 0.0, 10.001116, 9.997771 
3.4507906e+2, 2.7590543e+2, -189334.95, -452432.78, -74976.445, 0.028873747, 0.36873886, -169468.6, 66692.89, 0.0, 10.001384, 9.997894 
3.450889e+2, 2.8590444e+2, 6691.3335, -213456.19, -66762.64, 0.014267178, 0.43737847, 25355.613, 163530.17, 0.00000016974016, 10.001654, 9.998734 
3.450996e+2, 2.9590374e+2, 133778.34, -120845.28, -79898.72, 0.08649099, 0.48183486, 156773.23, 196955.8, 0.0000019719364, 10.001927, 9.998569 
3.451103e+2, 3.0590194e+2, 187706.89, -202724.77, -42741.7, 0.07527957, 0.5173425, 192331.19, 192331.19, 0.0000096256135, 10.00253, 9.997385 
3.4511924e+2, 3.158974e+2, 395510.28, 54138.367, 14239.677, -0.13431391, 0.2997338, 396103.22, 396103.22, 0.00002817607, 10.00325, 9.998802 
3.5492423e+2, 1.2589829e+2, -1637945.8, -1648832.4, -92876.695, 0.05222916, 0.3444826, -1550353.0, 155881.78, 0.00012021515, 10.000367, 10.000271 
3.54934e+2, 1.3590035e+2, -1630204.3, -1568772.5, -71461.62, 0.030799411, 0.50052494, -1521705.1, 86508.08, 0.000054251253, 9.999655, 10.000499 
3.549459e+2, 1.4589949e+2, -1555767.6, -1397511.1, -29278.205, 0.14664716, 0.3255846, -1392268.3, 117947.97, 0.000015580335, 9.99913, 10.001243 
3.5495478e+2, 1.558995e+2, -1498624.0, -1344887.8, -15221.89, -0.08972496, 0.19713858, -1343395.1, 68812.83, 0.0000017221554, 9.998961, 10.001012 
3.549657e+2, 1.6589975e+2, -1532601.0, -1483409.3, -45839.742, -0.11504708, 0.20811543, -1455983.6, -141778.4, 0.000000007086625, 9.998805, 9.99946 
3.5497794e+2, 1.759e+2, -1438510.3, -1376033.4, -89617.29, 0.0000353833, 0.27376577, -1312366.1, -96158.02, 0.0, 9.99873, 9.999562 
3.549887e+2, 1.8589999e+2, -1217955.4, -1108482.8, -125644.5, 0.022458805, 0.26636094, -1026169.44, 92037.05, 0.0, 9.999096, 10.000549 
3.549986e+2, 1.9589986e+2, -1024851.4, -983910.3, -91446.09, -0.011643666, 0.18508506, -910671.56, 109529.95, 0.0, 9.99983, 10.000379 
3.5500896e+2, 2.0589904e+2, -971037.06, -1121836.9, -39622.22, -0.06957201, 0.17222553, -961260.25, -39050.855, 0.0, 10.000444, 9.9984665 
3.5501963e+2, 2.1589765e+2, -791075.6, -974048.3, -44805.0, -0.15123725, 0.17227037, -780693.25, 43534.17, 0.0, 10.000963, 9.998556 
3.5502964e+2, 2.2589724e+2, -759603.2, -815361.75, -147101.22, -0.118060485, 0.23205492, -637762.6, 88471.29, 0.0, 10.000114, 9.99938 
3.5503918e+2, 2.3589748e+2, -925336.2, -849036.4, -126980.86, -0.0036914027, 0.30746925, -754598.4, -126365.91, 0.0, 9.998322, 9.999342 
3.550493e+2, 2.4589676e+2, -822993.9, -797035.1, -61054.96, 0.031120798, 0.32749975, -747595.2, -217354.89, 0.0, 9.998561, 9.99891 
3.5505977e+2, 2.558953e+2, -482227.06, -585554.06, -79857.72, 0.0071641975, 0.27731988, -438778.13, -6522.8013, 0.0, 10.0002365, 9.998883 
3.5507074e+2, 2.6589447e+2, -283617.56, -473672.25, -93741.625, 0.062153477, 0.32620317, -245162.0, 89103.15, 0.0, 10.001085, 9.998563 
3.5508206e+2, 2.7589402e+2, -151321.25, -363292.47, -59092.03, 0.18024562, 0.41096103, -135961.0, 100311.12, 0.0, 10.00134, 9.998525 
3.5509187e+2, 2.8589228e+2, -31202.326, -287066.44, -61276.645, 0.13506871, 0.4044699, -17284.326, 121007.02, 0.00000011654808, 10.001631, 9.9982395 
3.5510036e+2, 2.958897e+2, 102412.945, -179649.5, -62269.77, -0.044264466, 0.30973816, 115548.29, 155866.67, 0.0000016005947, 10.001896, 9.99818 
3.5511178e+2, 3.058884e+2, 205928.97, -153196.94, -13915.559, -0.039679643, 0.3923261, 206467.36, 206467.36, 0.00000802472, 10.002489, 9.997743 
3.5512394e+2, 3.1588605e+2, 456234.84, 202332.03, 49390.48, -0.018185938, 0.35587066, 465504.16, 465504.16, 0.000025457135, 10.003171, 9.999854 
3.6492395e+2, 1.2588647e+2, -1856259.0, -1772024.6, -48184.2, 0.061597675, 0.3381398, -1750145.1, -43793.375, 0.00011678404, 9.998944, 10.0001135 
3.649337e+2, 1.3588896e+2, -1698166.1, -1592949.0, -56553.266, 0.061010633, 0.52955544, -1568318.1, 40008.906, 0.000055597222, 9.999156, 10.000567 
3.649454e+2, 1.4588818e+2, -1565099.8, -1438148.8, -14741.302, 0.18410958, 0.3755827, -1436459.5, 73870.484, 0.000017763748, 9.999227, 10.000916 
3.6495396e+2, 1.558876e+2, -1469890.0, -1364340.5, -53388.895, -0.08068185, 0.22186224, -1342045.0, 70282.664, 0.000002786188, 9.999302, 10.000715 
3.6496505e+2, 1.6588771e+2, -1433635.4, -1439902.3, -39166.777, -0.08853058, 0.23355353, -1397476.9, -83150.71, 0.00000008230677, 9.999503, 9.999423 
3.6497784e+2, 1.7588814e+2, -1291086.3, -1309612.1, -7690.0386, 0.07199428, 0.3206327, -1288310.1, -71983.305, 0.0, 9.999766, 9.9995165 
3.649889e+2, 1.8588799e+2, -1136893.0, -1094580.1, -35622.59, 0.10037168, 0.3112533, -1074305.1, 44021.406, 0.0, 9.999758, 10.000327 
3.6499876e+2, 1.9588734e+2, -1082445.9, -1030865.6, -77602.79, 0.04037653, 0.20425494, -974879.7, 45446.52, 0.0, 9.999515, 10.000211 
3.6500922e+2, 2.0588648e+2, -1097357.1, -1139406.0, -34059.06, -0.03280594, 0.17385572, -1078356.0, -156022.13, 0.0, 9.999398, 9.998848 
3.6502004e+2, 2.1588539e+2, -1002438.1, -1035331.1, -26075.219, -0.11878894, 0.16731234, -988056.0, -163708.19, 0.0, 9.999346, 9.998915 
3.6502978e+2, 2.258853e+2, -787085.8, -801930.56, -134462.06, -0.094658405, 0.22969352, -659841.44, 66508.42, 0.0, 9.999807, 9.999621 
3.6503878e+2, 2.3588586e+2, -578834.7, -664290.06, -117124.805, 0.0105182985, 0.31344298, -496887.3, 131456.53, 0.0, 10.000621, 9.999502 
3.650491e+2, 2.4588491e+2, -499412.1, -705312.25, 6117.3247, 0.031726416, 0.3336981, -499230.5, 31124.088, 0.0, 10.001055, 9.998339 
3.6506033e+2, 2.5588283e+2, -375768.22, -584450.1, -24934.627, -0.0073765656, 0.27989477, -372830.25, 59547.234, 0.0, 10.00119, 9.998428 
3.6507133e+2, 2.6588187e+2, -346359.38, -457647.94, -98956.21, 0.046245832, 0.30907452, -288475.63, 45912.97, 0.0, 10.000452, 9.998982 
3.6508217e+2, 2.7588153e+2, -453388.34, -468607.6, -93793.26, 0.17390758, 0.36665547, -366896.53, -130504.22, 0.0, 9.999085, 9.998893 
3.6509234e+2, 2.8587967e+2, -330532.8, -441124.3, -22237.908, 0.1252734, 0.33681968, -326228.7, -187817.52, 0.000000055764154, 9.999609, 9.99816 
3.6510187e+2, 2.9587686e+2, 32857.098, -220126.0, -9766.465, -0.057773553, 0.22239433, 33233.574, 73673.5, 0.0000011854916, 10.001453, 9.9981165 
3.6511418e+2, 3.0587545e+2, 151907.5, -203641.17, 11078.058, -0.026942713, 0.30643228, 152252.33, 152252.33, 0.0000066145303, 10.002217, 9.997532 
3.6512747e+2, 3.158743e+2, 327698.63, 174099.95, 9037.197, 0.07610208, 0.41411567, 328228.53, 328228.53, 0.00002317202, 10.002135, 10.000166 
3.749221e+2, 1.2587571e+2, -1853823.5, -1767476.9, -24498.506, -0.044506323, 0.4148529, -1761010.4, -54554.953, 0.000116595606, 9.998945, 10.000142 
3.749316e+2, 1.3587673e+2, -1679296.6, -1562803.0, -47448.387, -0.076599956, 0.4267758, -1545923.0, 62522.19, 0.000057458026, 9.999191, 10.000757 
3.7494406e+2, 1.4587599e+2, -1633715.6, -1575607.9, -17807.117, 0.114085495, 0.31847462, -1570585.0, -60134.387, 0.000019792478, 9.999209, 9.999979 
3.749541e+2, 1.5587582e+2, -1519735.5, -1474667.8, -44483.504, -0.010215794, 0.29642543, -1447336.3, -34886.45, 0.000003853391, 9.99933, 9.999946 
3.7496558e+2, 1.6587614e+2, -1360062.6, -1285109.1, -32337.922, -0.00040635758, 0.3067414, -1273086.0, 41358.69, 0.00000020238203, 9.999495, 10.000487 
3.749779e+2, 1.758768e+2, -1228496.3, -1182866.6, 4713.7656, 0.085931316, 0.3130791, -1182384.8, 34051.617, 0.0, 9.999775, 10.000383 
3.7498835e+2, 1.858766e+2, -1219153.0, -1260258.5, -49214.598, 0.060307026, 0.318604, -1186372.0, -67935.195, 0.0, 9.999737, 9.999199 
3.749976e+2, 1.9587566e+2, -1155293.4, -1174838.1, -81444.766, -0.039483074, 0.29264686, -1083036.8, -62592.78, 0.0, 9.999485, 9.999234 
3.750088e+2, 2.0587488e+2, -1055118.8, -1043811.8, -39723.465, -0.024852967, 0.278129, -1009341.56, -86889.93, 0.0, 9.999362, 9.999523 
3.750213e+2, 2.1587415e+2, -962000.7, -941646.94, -19538.0, 0.061801236, 0.2416577, -929794.25, -105334.44, 0.0, 9.999302, 9.999579 
3.750307e+2, 2.2587396e+2, -779894.3, -773616.44, -108513.43, 0.0058225784, 0.25226608, -668196.56, 58263.492, 0.0, 9.999748, 9.999845 
3.750379e+2, 2.3587407e+2, -571563.94, -641126.8, -85367.87, -0.14952563, 0.26543057, -514163.9, 114291.516, 0.0, 10.000583, 9.99968 
3.750489e+2, 2.458727e+2, -542800.0, -785575.0, 8604.325, -0.09925714, 0.2657356, -542495.4, -12026.069, 0.0, 10.001014, 9.997808 
3.7506264e+2, 2.5587025e+2, -415924.66, -660998.06, -19428.852, 0.09376145, 0.22604503, -414393.94, 18103.254, 0.0, 10.001157, 9.99792 
3.750724e+2, 2.6586878e+2, -346680.47, -451890.5, -155790.56, 0.098791055, 0.22845116, -234853.17, 99660.45, 0.0, 10.000429, 9.999031 
3.750793e+2, 2.7586794e+2, -449022.44, -454430.75, -130544.945, -0.033829965, 0.23071246, -321153.63, -84631.375, 0.0, 9.999066, 9.998999 
3.7509018e+2, 2.8586668e+2, -310850.84, -400257.34, 43502.97, -0.060529873, 0.23686828, -293177.1, -154643.13, 0.00000003400916, 9.999605, 9.9984455 
3.751039e+2, 2.958651e+2, 42865.23, -196349.83, 58369.086, -0.012798143, 0.21870868, 56347.563, 96895.57, 0.0000008994765, 10.001432, 9.998294 
3.7511727e+2, 3.058629e+2, 91889.234, -313885.3, 5159.6865, 0.051316045, 0.2590634, 91954.83, 91954.83, 0.000005653272, 10.002166, 9.996796 
3.7512952e+2, 3.1586203e+2, 290364.97, 120682.27, 9369.615, 0.04407668, 0.46818486, 290880.78, 290880.78, 0.000021689997, 10.002042, 9.99984 
3.8492134e+2, 1.2586413e+2, -1782914.4, -1766013.8, 46175.36, -0.036530398, 0.36471403, -1727521.9, -20956.705, 0.00011972094, 9.999583, 9.999841 
3.849309e+2, 1.3586482e+2, -1684413.9, -1585913.5, -59761.082, -0.06710265, 0.36458614, -1557723.6, 50836.813, 0.000060093465, 9.999247, 10.000573 
3.8494346e+2, 1.4586462e+2, -1660390.5, -1605151.6, 2904.065, 0.14085782, 0.32610556, -1604999.4, -94436.77, 0.000021868578, 9.999085, 9.999841 
3.8495404e+2, 1.5586488e+2, -1565961.3, -1508646.6, 23976.873, 0.06832167, 0.35836107, -1499939.0, -87379.87, 0.000004862859, 9.999068, 9.999836 
3.849653e+2, 1.6586499e+2, -1437633.5, -1334832.0, 21272.709, 0.052078128, 0.35785955, -1330603.9, -16048.289, 0.00000029520132, 9.9990015, 10.000393 
3.8497674e+2, 1.7586501e+2, -1368017.9, -1263562.0, -31540.887, 0.04280546, 0.30858213, -1254777.0, -38225.03, 0.0, 9.998869, 10.00027 
3.849874e+2, 1.8586436e+2, -1264917.5, -1330603.5, -66500.805, 0.0039297813, 0.30078918, -1223591.6, -105035.0, 0.0, 9.999633, 9.998765 
3.849978e+2, 1.958631e+2, -963567.6, -1128780.5, -63312.566, -0.038635474, 0.2839896, -942095.7, 78473.31, 0.0, 10.000996, 9.998824 
3.8500908e+2, 2.0586245e+2, -845738.25, -936171.94, -60032.23, 0.0029607231, 0.29739523, -815799.06, 106776.68, 0.0, 10.000766, 9.999586 
3.8502094e+2, 2.158622e+2, -947750.4, -933801.2, -89298.07, 0.094575696, 0.30239633, -851205.75, -26627.145, 0.0, 9.999389, 9.999594 
3.8503096e+2, 2.2586168e+2, -810638.4, -827252.75, -148261.38, 0.06179971, 0.29884496, -670451.6, 56130.348, 0.0, 9.999705, 9.999496 
3.8503972e+2, 2.3586091e+2, -498319.2, -636311.8, -183780.73, -0.055464465, 0.25992537, -371010.0, 257576.13, 0.0, 10.001228, 9.999399 
3.8505057e+2, 2.4585947e+2, -531682.8, -748762.0, -131298.23, -0.030749254, 0.24818377, -469869.63, 60730.516, 0.0, 10.000953, 9.998089 
3.8506284e+2, 2.5585747e+2, -660850.25, -758583.75, -102859.38, 0.0901138, 0.22873238, -595839.8, -163217.8, 0.0, 9.999382, 9.998108 
3.850723e+2, 2.6585612e+2, -443674.25, -538468.56, -185638.36, 0.07221311, 0.2542266, -299477.84, 35160.254, 0.0, 9.99993, 9.998677 
3.850797e+2, 2.7585515e+2, -47459.203, -292695.78, -201803.73, -0.041882284, 0.27881822, 66058.04, 302708.38, 0.0, 10.001964, 9.998712 
3.8509122e+2, 2.8585398e+2, 93173.13, -160638.45, -24075.309, -0.043626323, 0.2837983, 95436.61, 234096.78, 0.000000026095549, 10.002194, 9.998839 
3.8510555e+2, 2.958526e+2, 22063.553, -163202.78, -8711.945, 0.030312018, 0.24876922, 22472.32, 63140.605, 0.0000006696504, 10.001116, 9.998666 
3.8511905e+2, 3.058495e+2, -93182.87, -387412.9, -20595.18, 0.08309565, 0.16851614, -91748.266, -91748.266, 0.000004955279, 10.000822, 9.996939 
3.8513112e+2, 3.1584916e+2, 135820.92, 49071.84, 19081.723, 0.06315375, 0.41697106, 139832.7, 139832.7, 0.000021234744, 10.000967, 9.9998665 
3.9492163e+2, 1.2585169e+2, -1839008.4, -1876618.8, 52677.773, 0.0052027614, 0.18157987, -1801879.8, -95198.79, 0.0001233599, 9.99957, 9.999085 
3.9493135e+2, 1.3585316e+2, -1724796.3, -1673331.6, -70115.39, 0.04069807, 0.3298349, -1624375.8, -15701.865, 0.00006261113, 9.999266, 9.999964 
3.9494336e+2, 1.4585406e+2, -1618513.0, -1514926.4, -2184.1714, 0.20884116, 0.3960877, -1514880.4, -4214.1567, 0.000023583854, 9.999069, 10.000468 
3.949536e+2, 1.5585479e+2, -1527016.8, -1435021.0, 28023.518, 0.1024795, 0.41259006, -1427156.8, -14500.916, 0.000005569423, 9.999093, 10.000331 
3.9496407e+2, 1.6585417e+2, -1523768.4, -1511546.5, 8943.78, 0.017759247, 0.3819824, -1506825.4, -192165.22, 0.00000035120044, 9.998993, 9.999185 
3.949743e+2, 1.758527e+2, -1444095.6, -1419675.1, -28163.926, -0.09987726, 0.3027945, -1401188.5, -184514.84, 0.0, 9.99886, 9.999205 
3.9498606e+2, 1.8585126e+2, -1255888.4, -1301878.6, -18014.186, -0.10593348, 0.25122833, -1249672.4, -130985.58, 0.0, 9.999589, 9.998985 
3.9499924e+2, 1.9584969e+2, -957204.4, -1105644.5, -16085.89, -0.0063508824, 0.18383883, -955481.2, 65219.805, 0.0, 10.000956, 9.999002 
3.9500996e+2, 2.0584919e+2, -891828.2, -1019329.2, -118032.34, 0.0057000187, 0.2333369, -821430.4, 101275.88, 0.0, 10.000715, 9.99904 
3.9501885e+2, 2.1584944e+2, -996132.1, -1019804.94, -128034.2, -0.061686397, 0.3431926, -879388.4, -54683.33, 0.0, 9.999332, 9.999027 
3.950305e+2, 2.258484e+2, -880264.6, -963496.8, -94205.01, 0.034223076, 0.36374715, -818892.94, -92177.02, 0.0, 9.999665, 9.998584 
3.9504406e+2, 2.3584634e+2, -556660.4, -747495.2, -130305.516, 0.24559878, 0.2871931, -490572.34, 138164.03, 0.0, 10.001183, 9.998659 
3.950538e+2, 2.4584512e+2, -463325.88, -597017.5, -194397.89, 0.18879125, 0.27452365, -324601.97, 206145.56, 0.0, 10.000915, 9.999148 
3.9506078e+2, 2.5584447e+2, -599964.0, -624420.75, -144612.48, -0.06274224, 0.2815478, -467063.8, -34311.516, 0.0, 9.999348, 9.999045 
3.9507085e+2, 2.6584384e+2, -501168.3, -650402.2, -109933.61, -0.07401299, 0.37865603, -442920.34, -108158.125, 0.0, 9.999898, 9.997926 
3.950832e+2, 2.7584314e+2, -97922.48, -390171.34, -127708.914, 0.09639644, 0.504278, -49980.13, 186796.83, 0.0, 10.001928, 9.998062 
3.9509514e+2, 2.8584158e+2, 126147.83, -83179.234, -67412.13, 0.11979714, 0.47413892, 145978.67, 284768.22, 0.000000010243951, 10.002161, 9.999386 
3.9510673e+2, 2.958395e+2, 55742.895, -81179.234, -37335.805, 0.02417246, 0.31156024, 65261.824, 106061.98, 0.00000051187845, 10.001064, 9.999255 
3.9511943e+2, 3.0583522e+2, -26767.701, -243226.73, -15182.242, 0.026501782, 0.03445762, -25708.02, -25708.02, 0.0000058094397, 10.000799, 9.997936 
3.9513204e+2, 3.1583568e+2, 156110.27, 102122.02, 28179.24, 0.0343077, 0.26915503, 168138.6, 168138.6, 0.000025375839, 10.000931, 10.000243 
4.049218e+2, 1.2584057e+2, -1899494.8, -1905797.9, -19660.18, 0.095573805, 0.27023572, -1882735.1, -175941.7, 0.00012458346, 9.999133, 9.9991045 
4.049306e+2, 1.3584119e+2, -1757067.4, -1691521.1, -135739.56, 0.05607271, 0.33558273, -1584654.3, 24139.123, 0.00006386204, 9.999051, 9.999945 
4.0494204e+2, 1.4584227e+2, -1593156.8, -1473021.6, -37655.766, 0.17238152, 0.4056034, -1462194.4, 48588.227, 0.000024485202, 9.999119, 10.0007305 
4.0495303e+2, 1.5584305e+2, -1475186.9, -1386479.6, -44945.19, 0.12630427, 0.4000528, -1367688.0, 45082.035, 0.000005781208, 9.999348, 10.000542 
4.0496394e+2, 1.6584225e+2, -1431733.1, -1512564.5, -27559.385, 0.06496985, 0.36607087, -1423231.0, -108455.03, 0.0000003430959, 9.999833, 9.998767 
4.0497425e+2, 1.7584048e+2, -1239095.6, -1363356.9, -19651.38, -0.068016, 0.2988144, -1236062.0, -19268.375, 0.0, 10.000459, 9.998816 
4.0498635e+2, 1.8583907e+2, -1165824.8, -1252119.5, 14982.715, -0.061752763, 0.2642172, -1163297.4, -44489.996, 0.0, 10.0001745, 9.999047 
4.0500003e+2, 1.958377e+2, -1208367.5, -1221219.3, -1066.5781, 0.07025517, 0.21269657, -1208279.5, -187459.22, 0.0, 9.999204, 9.999058 
4.050106e+2, 2.0583709e+2, -1049644.6, -1099452.4, -84981.56, 0.055334225, 0.2507757, -985993.0, -63167.297, 0.0, 9.999651, 9.999002 
4.0501893e+2, 2.1583697e+2, -744790.9, -910129.3, -65100.707, -0.07442261, 0.32845291, -722235.06, 102590.82, 0.0, 10.001104, 9.99893 
4.050306e+2, 2.2583558e+2, -704372.44, -936158.5, 16208.564, 0.011694304, 0.34412634, -703244.44, 23596.566, 0.0, 10.001127, 9.998063 
4.050447e+2, 2.3583318e+2, -741208.3, -890085.0, -2524.3289, 0.24869248, 0.2856079, -741165.5, -112297.914, 0.0, 10.000144, 9.99818 
4.050546e+2, 2.4583195e+2, -537576.56, -593608.2, -97691.336, 0.21280983, 0.27610907, -463963.25, 66915.63, 0.0, 10.000232, 9.999502 
4.0506142e+2, 2.5583163e+2, -319485.7, -448603.03, -107180.69, -0.019854782, 0.27863282, -258922.34, 173956.38, 0.0, 10.001108, 9.9994 
4.050719e+2, 2.6583093e+2, -307206.7, -571377.94, -17166.162, -0.02636972, 0.359629, -306095.88, 28792.088, 0.0, 10.001288, 9.997801 
4.05085e+2, 2.7582985e+2, -249875.89, -481257.5, 433.99094, 0.13678083, 0.45911485, -249875.08, -12969.391, 0.0, 10.0009575, 9.997905 
4.0509692e+2, 2.858284e+2, -108525.83, -243510.77, -1025.506, 0.15734316, 0.46712282, -108518.04, 30401.19, 0.0000000008315615, 10.000751, 9.998962 
4.05108e+2, 2.9582667e+2, -28977.637, -156703.16, -48317.313, 0.07302375, 0.38166165, -12759.095, 28170.535, 0.00000071034475, 10.000634, 9.998939 
4.0512088e+2, 3.0582216e+2, 69976.55, -148088.1, -23618.113, 0.07816076, 0.07264068, 72505.25, 72505.25, 0.000009258835, 10.001249, 9.998375 
4.051341e+2, 3.1582275e+2, 349343.28, 161457.72, -44498.824, 0.08368202, 0.27841425, 359349.5, 359349.5, 0.000036115405, 10.002382, 9.999959 
4.149216e+2, 1.2583071e+2, -1834295.0, -1774333.9, -10138.374, 0.13226737, 0.62864524, -1772666.0, -65762.18, 0.00012201354, 9.99915, 9.999994 
4.1492847e+2, 1.3582902e+2, -1705349.0, -1597745.0, -137125.73, -0.077633716, 0.38698822, -1504244.1, 104674.39, 0.00006271878, 9.9991, 10.0005665 
4.149393e+2, 1.4582925e+2, -1600103.8, -1487329.8, -32370.385, -0.026741458, 0.34963727, -1478698.8, 32213.2, 0.000024127196, 9.999125, 10.000628 
4.149522e+2, 1.5582967e+2, -1478982.1, -1392932.4, -29385.049, 0.095103204, 0.32008258, -1383855.3, 29046.326, 0.0000053776757, 9.999345, 10.000498 
4.1496477e+2, 1.6582923e+2, -1414746.3, -1471854.9, -7712.3223, 0.15250745, 0.30687594, -1413723.0, -98819.805, 0.0000002359893, 9.999807, 9.999059 
4.1497645e+2, 1.7582835e+2, -1218789.4, -1324492.8, 4079.972, 0.09298581, 0.298132, -1218632.1, -1720.4623, 0.0, 10.00047, 9.999078 
4.149881e+2, 1.8582775e+2, -1171963.4, -1263481.9, -26109.506, 0.08468734, 0.33715674, -1165038.5, -46119.535, 0.0, 10.000169, 9.998971 
4.1500002e+2, 1.958272e+2, -1213399.1, -1225805.3, -26236.928, 0.13963215, 0.3713687, -1192641.9, -171715.22, 0.0, 9.999181, 9.999035 
4.150109e+2, 2.0582624e+2, -1024135.44, -1039241.94, -33382.656, 0.108651005, 0.35286415, -997462.2, -74528.695, 0.0, 9.999614, 9.999436 
4.150209e+2, 2.158249e+2, -725060.44, -855506.25, -13177.92, 0.0059154932, 0.26443508, -723742.5, 101197.734, 0.0, 10.001045, 9.999333 
4.1503116e+2, 2.2582322e+2, -725146.1, -969326.5, -24437.285, -0.05571885, 0.24580833, -722724.5, 4232.379, 0.0, 10.001081, 9.997859 
4.1504157e+2, 2.3582126e+2, -759962.75, -921773.75, -28914.658, -0.08876107, 0.24871069, -754951.1, -125969.99, 0.0, 10.000111, 9.997979 
4.1505274e+2, 2.4581987e+2, -564131.4, -643492.8, -67524.836, -0.0057866103, 0.24972886, -525491.2, 5503.8027, 0.0, 10.00021, 9.999167 
4.1506448e+2, 2.5581884e+2, -342800.8, -490827.28, -73591.88, 0.16424738, 0.21765056, -312441.06, 120560.92, 0.0, 10.001079, 9.999125 
4.1507515e+2, 2.6581734e+2, -271811.22, -493047.06, -33801.938, 0.16266021, 0.19956124, -266761.97, 68254.01, 0.0, 10.001272, 9.9983425 
4.15085e+2, 2.7581543e+2, -227824.86, -427985.25, -6258.977, 0.030632181, 0.15896079, -227629.33, 9406.718, 0.0, 10.000927, 9.998283 
4.1509646e+2, 2.8581443e+2, -200880.17, -439629.94, -9852.435, 0.023019098, 0.268903, -200474.28, -61425.1, 0.00000000001177225, 10.000764, 9.997611 
4.1510916e+2, 2.9581407e+2, -118572.945, -341022.56, -43589.16, 0.11200337, 0.4564704, -110336.58, -69279.01, 0.0000013013552, 10.000621, 9.997683 
4.1512325e+2, 3.058103e+2, 66912.16, -152592.28, 19268.096, 0.17959927, 0.28104416, 68590.68, 68590.68, 0.000013961503, 10.001244, 9.998346 
4.1513702e+2, 3.158105e+2, 277406.44, 34006.46, 1674.3848, 0.108540215, 0.45247206, 277417.97, 277417.97, 0.00004972542, 10.002295, 9.999124 
4.2492014e+2, 1.2581863e+2, -1840932.5, -1691072.8, 115271.86, 0.0972262, 0.6494798, -1628517.8, 78508.055, 0.000114420596, 9.998726, 10.000773 
4.2492837e+2, 1.3581741e+2, -1661915.5, -1527767.0, -58983.066, 0.004940858, 0.40142897, -1505521.9, 103509.26, 0.00005866896, 9.9991865, 10.001005 
4.2493904e+2, 1.4581752e+2, -1528478.9, -1524625.0, 36213.67, -0.0024587226, 0.36810625, -1490287.0, 20737.955, 0.00002226237, 9.999917, 9.999994 
4.2495203e+2, 1.5581697e+2, -1331001.1, -1383387.8, -16486.146, 0.086108476, 0.30079478, -1326244.8, 86781.8, 0.0000044458184, 10.000625, 9.999948 
4.2496508e+2, 1.6581638e+2, -1296792.5, -1377273.9, -17104.172, 0.17618789, 0.28050405, -1293308.3, 21721.67, 0.00000009724189, 10.000454, 9.999396 
4.2497736e+2, 1.7581591e+2, -1309898.1, -1332111.3, -10081.643, 0.18087105, 0.27853236, -1306004.9, -88971.555, 0.0, 9.999688, 9.999403 
4.2498863e+2, 1.8581572e+2, -1207930.1, -1276022.9, -27563.309, 0.13768333, 0.34313148, -1198171.4, -79135.03, 0.0, 9.999906, 9.999009 
4.2499948e+2, 1.958156e+2, -975574.7, -1108176.8, -25775.658, 0.089933954, 0.41786656, -970740.56, 50299.94, 0.0, 10.000805, 9.999056 
4.2501083e+2, 2.058144e+2, -866946.56, -967287.0, -31292.506, 0.088324815, 0.37674817, -857987.5, 65061.824, 0.0, 10.000713, 9.999396 
4.2502233e+2, 2.1581239e+2, -895124.2, -939865.7, -57969.61, 0.107657745, 0.2212639, -855358.56, -30296.418, 0.0, 9.999887, 9.9993105 
4.2503247e+2, 2.258108e+2, -867378.8, -1010186.1, -72023.41, 0.023159243, 0.20047635, -837363.25, -110285.7, 0.0, 9.999988, 9.998106 
4.250415e+2, 2.3580955e+2, -650968.5, -848789.44, -52192.18, -0.13692652, 0.25238848, -638042.94, -8948.059, 0.0, 10.000773, 9.998161 
4.25053e+2, 2.4580833e+2, -478362.06, -678250.4, -64882.355, -0.043653402, 0.29910398, -459148.53, 71960.61, 0.0, 10.001122, 9.998494 
4.2506632e+2, 2.5580707e+2, -372258.47, -574068.7, -103566.96, 0.23729281, 0.30981895, -328567.72, 104554.3, 0.0, 10.00117, 9.998512 
4.250771e+2, 2.65805e+2, -221477.72, -452503.03, -93730.695, 0.22044319, 0.25333363, -188233.47, 146907.66, 0.0, 10.001547, 9.998492 
4.250861e+2, 2.7580222e+2, -36257.195, -318281.88, -104699.29, -0.008686961, 0.11642126, -1638.0441, 235527.31, 0.0, 10.002173, 9.998437 
4.2509755e+2, 2.8580132e+2, 3213.9348, -361597.97, -74700.67, -0.014623013, 0.24032696, 17917.398, 157094.83, 0.0000000012455732, 10.0022545, 9.99743 
4.251108e+2, 2.9580176e+2, 59997.023, -274082.5, -32197.916, 0.14993323, 0.5238671, 63071.895, 104253.09, 0.0000019618685, 10.001926, 9.997518 
4.2512515e+2, 3.0579847e+2, 98642.56, -147063.28, 94812.76, 0.23600373, 0.4074868, 130974.36, 130974.36, 0.000018429422, 10.001503, 9.998263 
4.2513853e+2, 3.157975e+2, 51269.48, -137062.94, 47797.152, 0.10055421, 0.47193545, 62705.56, 62705.56, 0.00006268099, 10.001018, 9.998562 
4.349171e+2, 1.2580428e+2, -1795886.3, -1594715.0, 141071.84, -0.10639627, 0.32434386, -1522041.5, 185118.2, 0.00010246441, 9.998724, 10.001431 
4.3493038e+2, 1.358064e+2, -1642458.8, -1492977.6, -34079.664, 0.273202, 0.3730055, -1485574.5, 123556.484, 0.000052240124, 9.9992075, 10.001236 
4.349412e+2, 1.458071e+2, -1617231.9, -1703429.1, 64043.32, 0.20979802, 0.45577693, -1583135.6, -72013.92, 0.000019361623, 9.999896, 9.998776 
4.3495238e+2, 1.558049e+2, -1403183.5, -1539824.1, 10855.713, 0.045915265, 0.34186387, -1402326.5, 10818.928, 0.0000034941986, 10.000649, 9.998863 
4.349647e+2, 1.6580361e+2, -1270148.1, -1319994.4, -51502.98, 0.08010568, 0.2795267, -1237854.8, 77302.32, 0.000000032016867, 10.000446, 9.999794 
4.3497688e+2, 1.7580312e+2, -1284291.5, -1277099.8, -29748.646, 0.15249391, 0.23930164, -1250730.5, -33572.035, 0.0, 9.999678, 9.999787 
4.3498778e+2, 1.85803e+2, -1205747.0, -1259985.6, 2786.7854, 0.05437282, 0.28219995, -1205604.1, -86444.62, 0.0, 9.99986, 9.999142 
4.3499827e+2, 1.9580293e+2, -975790.3, -1099474.3, 7376.5933, -0.12238259, 0.34848014, -975351.94, 45810.03, 0.0, 10.000767, 9.999134 
4.3501022e+2, 2.0580162e+2, -914034.25, -1050428.6, -67005.11, -0.050283767, 0.32199484, -886625.25, 36548.105, 0.0, 10.000653, 9.998853 
4.350231e+2, 2.1579938e+2, -933628.4, -1008653.2, -80390.305, 0.1849105, 0.19909577, -882429.0, -57237.39, 0.0, 9.999843, 9.9988575 
4.350343e+2, 2.2579831e+2, -829332.3, -918663.5, -47266.332, 0.19986497, 0.21569398, -808966.25, -81763.72, 0.0, 9.999935, 9.998759 
4.3504432e+2, 2.3579806e+2, -621659.8, -775582.3, -21923.309, 0.05807409, 0.30212426, -618598.1, 10610.586, 0.0, 10.000723, 9.998688 
4.350552e+2, 2.4579735e+2, -552972.94, -826545.1, -68034.59, 0.056441836, 0.4283156, -536987.5, -5766.144, 0.0, 10.001092, 9.997491 
4.350667e+2, 2.5579622e+2, -442626.7, -713289.9, -96153.445, 0.15102081, 0.5539555, -411945.88, 21293.227, 0.0, 10.001139, 9.997571 
4.350776e+2, 2.6579377e+2, -237358.22, -484832.66, -72456.53, 0.106205225, 0.5136737, -217704.89, 117558.8, 0.0, 10.001543, 9.998273 
4.3508813e+2, 2.7579018e+2, -47592.355, -338450.2, -77850.734, -0.03606948, 0.31766444, -28065.803, 209228.33, 0.0, 10.002153, 9.99831 
4.3510002e+2, 2.8578907e+2, 66859.56, -224939.25, -90116.92, -0.0070644417, 0.37336195, 92446.88, 231751.42, 0.000000012355592, 10.002239, 9.998375 
4.3511274e+2, 2.9578975e+2, 114264.47, -155428.63, -39089.4, 0.14093404, 0.5880489, 119815.836, 161116.28, 0.0000026583295, 10.001902, 9.998345 
4.3512642e+2, 3.0578658e+2, 87907.63, -170125.13, 71323.914, 0.2059981, 0.45795855, 106310.13, 106310.13, 0.000022356537, 10.001504, 9.998105 
4.3513843e+2, 3.157836e+2, 19408.877, -190044.17, 39401.32, -0.033183377, 0.33517417, 26575.646, 26575.646, 0.000073377385, 10.000968, 9.998219 
4.4491708e+2, 1.2579212e+2, -1692944.4, -1582674.6, 188186.23, -0.016679473, 0.21399327, -1441712.8, 265557.72, 0.000089493355, 9.999607, 10.001085 
4.449311e+2, 1.3579418e+2, -1499508.8, -1483447.8, -86281.72, 0.36469674, 0.31517562, -1404823.6, 204421.45, 0.000044922584, 10.000461, 10.000692 
4.4494107e+2, 1.4579488e+2, -1579491.5, -1679877.3, 12567.079, 0.20313565, 0.42074797, -1577942.1, -66704.87, 0.00001621496, 10.0001335, 9.998824 
4.4495225e+2, 1.5579285e+2, -1684566.4, -1671668.4, 44032.85, 0.067824766, 0.31889948, -1633614.8, -220355.13, 0.0000027558995, 9.99871, 9.998892 
4.4496453e+2, 1.6579142e+2, -1495954.0, -1489760.3, 22362.9, 0.089412846, 0.2705326, -1470280.9, -155006.36, 0.000000035556127, 9.999147, 9.999258 
4.4497663e+2, 1.7579064e+2, -1134421.6, -1259373.1, -35953.027, 0.0992033, 0.25045085, -1124815.3, 92466.63, 0.0, 10.000943, 9.999298 
4.4498795e+2, 1.8579024e+2, -1041553.25, -1176394.1, -53248.684, 0.031802446, 0.28881216, -1023061.3, 96224.72, 0.0, 10.000959, 9.999187 
4.4499928e+2, 1.9578996e+2, -1137902.4, -1170348.6, -64187.344, -0.038813997, 0.32935324, -1087919.8, -66630.08, 0.0, 9.999618, 9.999202 
4.4501108e+2, 2.0578887e+2, -1037040.4, -1085514.6, -86713.03, 0.020072851, 0.3095805, -971240.9, -47941.9, 0.0, 9.999706, 9.999066 
4.4502306e+2, 2.1578714e+2, -778189.25, -913342.3, -51904.285, 0.15091032, 0.21870708, -760556.4, 64756.54, 0.0, 10.000824, 9.999039 
4.4503474e+2, 2.257862e+2, -656797.44, -847311.2, -14386.574, 0.19286881, 0.2432385, -655717.1, 71605.38, 0.0, 10.001169, 9.998652 
4.450463e+2, 2.3578572e+2, -598079.6, -777371.94, -52701.434, 0.17707472, 0.3184194, -583736.0, 45594.004, 0.0, 10.0009365, 9.998574 
4.4505706e+2, 2.4578486e+2, -547035.06, -825252.0, -72623.56, 0.13129053, 0.437508, -529218.9, 2125.315, 0.0, 10.001143, 9.997471 
4.4506714e+2, 2.5578368e+2, -361927.53, -676804.2, -37433.387, 0.05509243, 0.55848885, -357538.5, 75825.28, 0.0, 10.001706, 9.997545 
4.4507846e+2, 2.6578143e+2, -206303.89, -486913.6, 23000.252, 0.025591487, 0.5469743, -204431.17, 130956.01, 0.0, 10.001829, 9.998118 
4.4509077e+2, 2.7577826e+2, -134524.45, -400977.44, 14218.6, 0.038918257, 0.4075196, -133767.86, 103646.195, 0.0, 10.001645, 9.998125 
4.451026e+2, 2.8577647e+2, -23283.865, -314808.2, -50895.676, 0.05397419, 0.42694035, -14653.741, 124777.69, 0.00000003060041, 10.001815, 9.997962 
4.4511405e+2, 2.9577562e+2, 135730.48, -181592.89, -112236.29, 0.067864195, 0.53079265, 171415.17, 212857.56, 0.000003132682, 10.002212, 9.998012 
4.4512764e+2, 3.0577326e+2, 143092.81, -106409.38, -40676.973, 0.16591822, 0.47453412, 149557.02, 149557.02, 0.000025258936, 10.001723, 9.998436 
4.451396e+2, 3.157712e+2, -11046.523, -157194.34, -46528.707, 0.014702708, 0.41281664, 2509.3347, 2509.3347, 0.00008019797, 10.000533, 9.998663 
4.5491996e+2, 1.2578225e+2, -1791083.3, -1783518.1, 207533.33, 0.28380248, 0.32537323, -1579732.9, 127624.375, 0.00007906838, 9.999604, 9.999705 
4.5493022e+2, 1.3578057e+2, -1594102.8, -1688033.9, -53917.36, 0.21929024, 0.21620005, -1569564.1, 39811.016, 0.00003857364, 10.000494, 9.999274 
4.5493847e+2, 1.4578065e+2, -1481480.1, -1477600.5, -41859.38, -0.08268766, 0.25018263, -1437636.0, 73737.43, 0.000013268856, 10.00014, 10.000208 
4.549514e+2, 1.5578084e+2, -1604065.1, -1503498.1, 7283.7524, 0.10240705, 0.2324899, -1502973.3, -89604.15, 0.0000020825275, 9.998706, 10.000047 
4.5496452e+2, 1.657799e+2, -1599966.1, -1703234.0, 85306.7, 0.15760137, 0.25961715, -1551884.0, -236502.61, 0.00000004449902, 9.999136, 9.9978 
4.5497647e+2, 1.757783e+2, -1227760.4, -1457219.1, 27140.842, -0.020056313, 0.30436188, -1224593.8, -7189.4453, 0.0, 10.000955, 9.997937 
4.5498893e+2, 1.8577734e+2, -1049753.9, -1184764.1, -106934.445, 0.024350977, 0.35210577, -990799.9, 128616.99, 0.0, 10.000927, 9.999144 
4.5500225e+2, 1.957767e+2, -1141489.6, -1169183.9, -102720.31, 0.28820756, 0.3612227, -1051687.4, -30264.066, 0.0, 9.999583, 9.999225 
4.550132e+2, 2.0577615e+2, -978079.4, -949151.9, -50469.176, 0.24992618, 0.34258878, -911114.8, 12311.321, 0.0, 9.999647, 10.000032 
4.550221e+2, 2.1577565e+2, -729020.3, -794120.2, -9088.228, -0.036797922, 0.27749494, -727775.4, 97651.01, 0.0, 10.0007515, 9.999892 
4.5503366e+2, 2.257744e+2, -725545.1, -976277.6, -26677.049, -0.04103926, 0.27908948, -722738.2, 4699.698, 0.0, 10.001108, 9.997797 
4.5504728e+2, 2.3577254e+2, -651849.0, -882934.75, -53778.26, 0.17207538, 0.2995001, -639946.75, -10488.267, 0.0, 10.000909, 9.997863 
4.5505834e+2, 2.4577095e+2, -485419.25, -691505.56, -55591.2, 0.13479666, 0.3274823, -471380.1, 60097.496, 0.0, 10.001119, 9.998403 
4.5506752e+2, 2.557695e+2, -308184.38, -553934.1, -14575.855, -0.089889936, 0.32853308, -307322.88, 126173.234, 0.0, 10.0016575, 9.998414 
4.5507956e+2, 2.65768e+2, -218765.86, -505658.4, 13545.224, -0.05800029, 0.36011195, -218127.77, 117383.95, 0.0, 10.0018, 9.998003 
4.5509377e+2, 2.757664e+2, -155164.22, -438758.56, 14398.798, 0.16563138, 0.386897, -154435.03, 83090.78, 0.0, 10.001623, 9.997875 
4.5510522e+2, 2.8576353e+2, -142691.6, -560498.75, -39053.71, 0.12327352, 0.40063426, -139072.47, 485.7428, 0.000000022691747, 10.0018015, 9.996284 
4.5511457e+2, 2.9575962e+2, 30280.467, -396573.28, -94481.27, -0.112126246, 0.3646288, 50258.27, 91863.64, 0.0000032965943, 10.002186, 9.996552 
4.5512852e+2, 3.0575848e+2, 195775.13, 8613.554, -83168.23, 0.07270239, 0.45672885, 227391.45, 227391.45, 0.000026467469, 10.001707, 9.999231 
4.5514178e+2, 3.1576014e+2, 69296.22, 22125.547, -68556.68, 0.15732224, 0.6870388, 118211.125, 118211.125, 0.00008171888, 10.000489, 9.999913 
4.6492004e+2, 1.2576918e+2, -1614598.1, -1742945.5, 79442.48, 0.26900327, 0.27578816, -1576647.5, 130831.36, 0.000072079085, 10.00099, 9.999323 
4.6493047e+2, 1.357668e+2, -1681265.9, -1782580.4, -94745.26, 0.2224261, 0.1475375, -1624485.6, -14978.024, 0.000033639506, 10.000104, 9.998823 
4.6493807e+2, 1.4576676e+2, -1416677.0, -1414121.5, -90594.945, -0.14829479, 0.17462787, -1324795.3, 186713.4, 0.000010536622, 10.000436, 10.000504 
4.6495163e+2, 1.5576789e+2, -1190536.8, -1273676.8, -133620.61, 0.124073595, 0.21959123, -1092169.1, 321326.03, 0.0000014175026, 10.001404, 10.000326 
4.6496516e+2, 1.6576739e+2, -1252460.0, -1540768.5, 16553.22, 0.19468498, 0.27963683, -1251512.6, 63990.99, 0.000000030371112, 10.001559, 9.997742 
4.6497744e+2, 1.7576574e+2, -1201629.4, -1447764.5, 51355.42, -0.026999505, 0.32486662, -1191344.0, 26183.906, 0.0, 10.00116, 9.9979 
4.6498972e+2, 1.8576461e+2, -1059429.4, -1188408.9, -79212.46, 0.01805734, 0.35655433, -1021774.44, 97767.484, 0.0, 10.000858, 9.99915 
4.650026e+2, 1.9576377e+2, -992709.44, -1102690.1, -73025.01, 0.3134193, 0.34496394, -956285.4, 65264.156, 0.0, 10.000627, 9.999182 
4.6501353e+2, 2.0576335e+2, -834206.6, -920470.25, -10960.125, 0.26426867, 0.36093652, -832835.9, 90716.75, 0.0, 10.000805, 9.999671 
4.650228e+2, 2.1576321e+2, -675517.75, -804127.8, -82395.42, -0.06261925, 0.36819777, -635304.2, 190248.52, 0.0, 10.001269, 9.999574 
4.6503448e+2, 2.257617e+2, -631828.3, -889245.5, -108968.984, -0.088217594, 0.3384453, -591894.9, 135671.1, 0.0, 10.001574, 9.998169 
4.6504804e+2, 2.357591e+2, -498582.38, -770073.06, -54252.62, 0.11641745, 0.24657306, -488142.4, 141447.47, 0.0, 10.001796, 9.998209 
4.6505952e+2, 2.4575746e+2, -402715.47, -645607.4, -43625.51, 0.116911866, 0.25184646, -395117.6, 136490.14, 0.0, 10.0016575, 9.99846 
4.650694e+2, 2.557565e+2, -361764.13, -573115.6, -74692.516, -0.038118478, 0.29532093, -338032.22, 95589.58, 0.0, 10.001259, 9.998474 
4.6508166e+2, 2.657553e+2, -253384.8, -517356.2, -51569.64, -0.010918208, 0.35152683, -243667.8, 91967.57, 0.0, 10.001532, 9.998055 
4.6509558e+2, 2.7575386e+2, -54669.33, -384220.28, -46202.32, 0.15510917, 0.3880303, -48314.406, 189334.89, 0.0, 10.002285, 9.9979315 
4.6510714e+2, 2.857512e+2, -53705.07, -533927.0, -27183.293, 0.104945175, 0.4278129, -52171.24, 87509.47, 0.00000001636591, 10.002485, 9.996138 
4.651169e+2, 2.9574755e+2, 35713.285, -408514.13, 15952.916, -0.100637555, 0.43672162, 36285.445, 78011.125, 0.0000038137496, 10.002294, 9.996415 
4.6513087e+2, 3.0574584e+2, 172523.58, -65822.62, -11366.503, 0.13771969, 0.50334466, 173064.4, 173064.4, 0.000027236774, 10.001808, 9.998677 
4.651431e+2, 3.1574634e+2, 120231.02, 21844.055, -97294.445, 0.22724545, 0.67465895, 180061.42, 180061.42, 0.00008037478, 10.000946, 9.99969 
4.7491685e+2, 1.2575269e+2, -1563470.3, -1634475.8, 8434.596, -0.17789188, 0.058996297, -1562482.0, 145155.36, 0.00006757851, 10.000989, 10.00006 
4.7493178e+2, 1.3575287e+2, -1641446.6, -1695912.1, -114790.586, 0.33018887, 0.1155347, -1550702.6, 58939.496, 0.000029630666, 10.000092, 9.99942 
4.749398e+2, 1.4575328e+2, -1470338.8, -1527926.3, -52383.62, -0.03613086, 0.20059934, -1439356.9, 72285.63, 0.00000816001, 10.000442, 9.9997225 
4.7495276e+2, 1.5575397e+2, -1228838.8, -1360662.0, -96398.72, 0.07936808, 0.28161353, -1177972.6, 235665.66, 0.0000009257674, 10.001432, 9.999719 
4.749664e+2, 1.6575378e+2, -1154599.8, -1338146.4, -4089.4246, 0.14904985, 0.3265557, -1154508.6, 161133.7, 0.000000014696447, 10.001561, 9.999131 
4.749793e+2, 1.7575288e+2, -1112743.8, -1262095.4, 41433.17, 0.033362847, 0.3105611, -1102019.4, 115633.625, 0.0, 10.001156, 9.999175 
4.7499013e+2, 1.8575202e+2, -1055832.9, -1176398.3, -92141.36, -0.036016032, 0.30359128, -1006006.4, 113655.055, 0.0, 10.000836, 9.999246 
4.7500005e+2, 1.9575109e+2, -996356.44, -1109057.6, -75683.055, -0.011209637, 0.2769237, -958349.6, 63319.168, 0.0, 10.000616, 9.999146 
4.7501194e+2, 2.057504e+2, -957643.25, -1168696.3, 2944.8157, 0.015233124, 0.35880014, -957602.1, -33923.23, 0.0, 10.000771, 9.997985 
4.7502503e+2, 2.1574984e+2, -783857.56, -1018585.8, -61408.918, 0.02258273, 0.49415684, -768762.7, 56928.934, 0.0, 10.001224, 9.998125 
4.7503707e+2, 2.2574809e+2, -527075.94, -662297.25, -103962.3, 0.0017152216, 0.42017263, -470673.03, 257033.73, 0.0, 10.001529, 9.999751 
4.7504845e+2, 2.3574537e+2, -409671.2, -570002.94, -43230.137, -0.02893706, 0.16257559, -398757.9, 230966.19, 0.0, 10.001726, 9.999619 
4.7506046e+2, 2.4574436e+2, -463341.9, -765389.06, -62073.887, 0.03304857, 0.20824698, -451082.63, 80652.44, 0.0, 10.001627, 9.997653 
4.7507274e+2, 2.5574458e+2, -417070.7, -685833.2, -81584.46, 0.15743682, 0.44888595, -394243.97, 39498.023, 0.0, 10.001243, 9.997711 
4.750846e+2, 2.6574326e+2, -238785.7, -481152.22, -25336.117, 0.119575106, 0.51388294, -236165.48, 99593.305, 0.0, 10.00151, 9.998311 
4.7509608e+2, 2.7574062e+2, -38453.234, -337666.75, -15608.218, -0.03528433, 0.41133922, -37641.25, 200142.84, 0.0, 10.002233, 9.998274 
4.7510824e+2, 2.8573942e+2, 35801.938, -345500.38, -38189.77, -0.04431942, 0.50841385, 39589.258, 179388.4, 0.0000000367379, 10.002468, 9.997442 
4.7512075e+2, 2.9573923e+2, 104625.94, -260582.8, 12895.246, 0.047015473, 0.72834355, 105080.695, 146887.23, 0.000004802636, 10.002258, 9.997455 
4.7513443e+2, 3.0573514e+2, 40954.645, -329216.66, -46008.26, 0.30759436, 0.60766655, 46587.26, 46587.26, 0.000029242266, 10.001767, 9.996885 
4.751434e+2, 3.157299e+2, 10794.777, -210976.61, -93287.28, 0.13336253, 0.38466918, 44816.48, 44816.48, 0.000080926366, 10.000964, 9.998081 
4.8491684e+2, 1.2573901e+2, -1774067.8, -1699290.6, 67061.11, -0.18987821, 0.0015504612, -1659899.6, 47871.695, 0.00006360682, 9.999386, 10.000381 
4.849318e+2, 1.3574028e+2, -1681164.6, -1683619.5, -59080.55, 0.34938112, 0.13017668, -1623298.8, -13533.756, 0.000025765483, 9.999672, 9.999705 
4.8493963e+2, 1.4574064e+2, -1514331.3, -1623497.5, 52708.69, -0.09260651, 0.23223643, -1493036.0, 18731.424, 0.000006126259, 10.00047, 9.999049 
4.8495388e+2, 1.55741e+2, -1280715.8, -1448200.9, -3608.7688, 0.058691934, 0.34763452, -1280638.0, 133131.64, 0.0000005794279, 10.001356, 9.99915 
4.8496774e+2, 1.6574076e+2, -1227002.4, -1301609.4, 754.98615, 0.17108731, 0.37599775, -1226994.8, 88778.76, 0.0000000048834687, 10.0007515, 9.999775 
4.8498e+2, 1.7573991e+2, -1373152.5, -1321277.1, -7881.6235, 0.09371241, 0.30131492, -1320106.1, -102326.7, 0.0, 9.999077, 9.999772 
4.8499072e+2, 1.8573907e+2, -1192885.5, -1242195.9, -80995.28, -0.010635126, 0.26929435, -1132876.0, -13090.066, 0.0, 9.99989, 9.9992485 
4.85001e+2, 1.9573818e+2, -716486.3, -974707.7, -81863.48, -0.07263559, 0.24214225, -692720.6, 329072.78, 0.0, 10.002546, 9.999133 
4.8501325e+2, 2.0573725e+2, -728852.5, -1122312.0, -17990.973, -0.0195547, 0.32952434, -728031.56, 195775.77, 0.0, 10.002623, 9.997411 
4.8502678e+2, 2.1573615e+2, -885061.75, -1124325.0, -1450.7681, 0.10098173, 0.46813893, -885052.94, -59225.78, 0.0, 10.000776, 9.997614 
4.850387e+2, 2.2573474e+2, -707235.56, -725564.7, -24962.645, 0.081845365, 0.44185832, -689808.4, 38031.844, 0.0, 10.000193, 9.999959 
4.8504955e+2, 2.3573305e+2, -562528.1, -619873.0, -72356.35, -0.031602975, 0.263705, -513370.3, 116478.2, 0.0, 10.000576, 9.9998255 
4.850616e+2, 2.4573195e+2, -510492.66, -777857.75, -89238.66, 0.0055589923, 0.28630784, -483443.88, 48415.207, 0.0, 10.001265, 9.99774 
4.850744e+2, 2.5573125e+2, -274196.88, -607017.2, -52544.16, 0.15108216, 0.42729968, -266098.5, 167773.66, 0.0, 10.002185, 9.997795 
4.8508635e+2, 2.6572978e+2, -148926.89, -446013.25, 17098.19, 0.115787394, 0.48127228, -147946.08, 187943.5, 0.0, 10.002162, 9.998241 
4.850978e+2, 2.7572766e+2, -155043.33, -397316.56, -3457.067, -0.042008705, 0.43216497, -154994.0, 82917.74, 0.0, 10.00144, 9.998251 
4.8511025e+2, 2.857268e+2, -131029.516, -358025.72, -63595.844, -0.012506698, 0.5310722, -114426.695, 25496.21, 0.00000008825205, 10.001036, 9.998039 
4.8512334e+2, 2.9572695e+2, -57961.85, -278571.8, -73835.04, 0.14795631, 0.7308137, -35530.992, 6393.4556, 0.0000054540624, 10.000891, 9.997982 
4.851367e+2, 3.057225e+2, 45409.293, -328435.7, -48107.01, 0.35730895, 0.550967, 51500.54, 51500.54, 0.000030858784, 10.001807, 9.996862 
4.8514462e+2, 3.1571728e+2, 363399.3, -56777.004, 36564.246, 0.039557274, 0.3320777, 366557.44, 366557.44, 0.00008250138, 10.003463, 9.997929 
4.949198e+2, 1.2572825e+2, -1780644.9, -1715004.4, 22463.352, 0.13904814, 0.106067844, -1708053.1, -173.38368, 0.00005696404, 9.999397, 10.000266 
4.949304e+2, 1.357291e+2, -1685969.3, -1692547.3, -38406.42, 0.2296041, 0.19580774, -1650711.3, -40835.746, 0.00002106699, 9.999666, 9.999648 
4.9493742e+2, 1.457289e+2, -1553116.4, -1703464.3, 85887.78, -0.3734281, 0.27122125, -1514150.9, -2267.3914, 0.000004231548, 10.000468, 9.998502 
4.9495488e+2, 1.5572909e+2, -1319322.3, -1526274.5, 27254.266, 0.012267599, 0.4249955, -1315793.3, 98095.516, 0.00000029436407, 10.00135, 9.998617 
4.94969e+2, 1.6572833e+2, -1232400.3, -1311959.6, -68055.4, 0.21290717, 0.4349879, -1193351.3, 122545.38, 0.0000000005507737, 10.000745, 9.999707 
4.9497935e+2, 1.7572682e+2, -1379035.0, -1330618.3, -56019.33, 0.11184575, 0.2971957, -1293800.4, -75893.22, 0.0, 9.999063, 9.999715 
4.9499136e+2, 1.8572576e+2, -1202937.5, -1252146.0, 15720.235, 0.05188502, 0.24980517, -1198344.3, -78428.516, 0.0, 9.999846, 9.999202 
4.9500525e+2, 1.9572501e+2, -721752.44, -977896.25, 8740.531, 0.0861129, 0.24222314, -721454.5, 300469.06, 0.0, 10.002511, 9.99913 
4.9501732e+2, 2.0572378e+2, -694761.7, -1041852.3, -92452.97, 0.11704078, 0.26940194, -671671.44, 252267.06, 0.0, 10.002577, 9.997988 
4.950279e+2, 2.1572213e+2, -858639.5, -1063035.6, -61037.77, 0.12735641, 0.29443187, -841799.5, -15840.221, 0.0, 10.000742, 9.998056 
4.950392e+2, 2.2572161e+2, -793240.25, -894939.06, -13938.183, 0.1015074, 0.4002104, -791364.56, -63397.906, 0.0, 10.000154, 9.998815 
4.9505112e+2, 2.3572199e+2, -638144.9, -767460.94, -52611.74, 0.05611388, 0.5424644, -619444.3, 10519.655, 0.0, 10.000537, 9.998832 
4.9506277e+2, 2.4572013e+2, -444523.88, -637658.2, -58416.68, -0.013123015, 0.4820171, -428229.5, 103750.945, 0.0, 10.001248, 9.998711 
4.9507415e+2, 2.557165e+2, -219310.05, -483392.66, -19063.934, -0.1027123, 0.23448275, -217940.94, 216071.66, 0.0, 10.002141, 9.998667 
4.9508685e+2, 2.6571494e+2, -179461.88, -500490.6, -15240.379, -0.06305895, 0.2568286, -178739.98, 157288.36, 0.0, 10.002124, 9.997885 
4.9510053e+2, 2.7571484e+2, -185766.31, -449318.0, -23883.133, 0.07475879, 0.4463017, -183619.5, 54413.348, 0.0, 10.001391, 9.997915 
4.9511302e+2, 2.8571337e+2, -142833.34, -377568.4, -72713.74, 0.14492144, 0.5074988, -122134.13, 17916.713, 0.00000018947561, 10.001016, 9.997915 
4.951244e+2, 2.9571092e+2, -57278.69, -276258.72, -67257.77, 0.15362395, 0.4571209, -38270.957, 3807.1292, 0.000005346717, 10.000887, 9.998 
4.9513757e+2, 3.0570796e+2, 161432.56, -88612.625, 11734.1875, 0.25206265, 0.33514878, 161982.03, 161982.03, 0.000029419843, 10.001809, 9.99851 
4.9514633e+2, 3.1570816e+2, 435309.1, 108528.78, 128978.94, -0.16239934, 0.49294537, 480082.13, 480082.13, 0.000078988014, 10.003396, 9.999097 
5.049203e+2, 1.2571594e+2, -1878826.6, -1762328.3, -79575.54, 0.28596044, 0.21128964, -1721960.8, -13953.554, 0.000046012723, 9.99874, 10.000256 
5.049308e+2, 1.357169e+2, -1368728.4, -1527924.9, -91278.97, 0.20243661, 0.30401707, -1327216.3, 282783.13, 0.000015500982, 10.001789, 9.999763 
5.049378e+2, 1.457161e+2, -1259724.5, -1566056.6, 2968.985, -0.4737402, 0.31823325, -1259695.6, 252315.2, 0.0000026245805, 10.002504, 9.998462 
5.049563e+2, 1.5571545e+2, -1349909.1, -1547074.8, -34148.727, 0.030723268, 0.39224666, -1344162.1, 69860.27, 0.00000011750303, 10.001165, 9.998563 
5.0497013e+2, 1.6571447e+2, -1179225.1, -1289557.1, -106299.74, 0.23533402, 0.3836454, -1114629.1, 201402.4, 0.000000000026416515, 10.001122, 9.999678 
5.049793e+2, 1.7571317e+2, -942246.9, -1126784.8, -97371.6, 0.05760828, 0.27069694, -900371.1, 317668.7, 0.0, 10.0020895, 9.999655 
5.0499177e+2, 1.8571235e+2, -938205.2, -1171321.3, 8775.396, 0.011006694, 0.27305615, -937875.3, 182173.03, 0.0, 10.001867, 9.998782 
5.0500715e+2, 1.9571191e+2, -1003918.9, -1147972.6, -36918.566, 0.12196543, 0.3393874, -995008.44, 27048.852, 0.0, 10.000729, 9.9988165 
5.0501925e+2, 2.0571081e+2, -879686.4, -1034088.0, -170333.17, 0.14205691, 0.3491674, -769875.56, 154193.77, 0.0, 10.000886, 9.998854 
5.050287e+2, 2.1570916e+2, -624428.4, -864670.9, -123959.64, 0.07534971, 0.28819546, -571937.06, 254147.47, 0.0, 10.00199, 9.998811 
5.050401e+2, 2.2570837e+2, -522420.0, -860114.0, -28546.129, 0.06565937, 0.373142, -520023.94, 208070.83, 0.0, 10.002423, 9.997963 
5.0505304e+2, 2.3570809e+2, -432177.84, -757158.0, -54295.926, 0.10751797, 0.5386846, -423346.38, 206755.72, 0.0, 10.00233, 9.998043 
5.050648e+2, 2.457062e+2, -325770.16, -560888.2, -73805.27, 0.027778871, 0.5029713, -304522.3, 227597.55, 0.0, 10.001986, 9.998881 
5.050755e+2, 2.55703e+2, -301325.88, -502038.6, -101683.02, -0.14264229, 0.28357986, -258815.75, 175330.6, 0.0, 10.001496, 9.998848 
5.050885e+2, 2.6570132e+2, -290756.4, -529666.94, -111887.44, -0.06195084, 0.2728668, -246540.17, 89621.53, 0.0, 10.001258, 9.998099 
5.051031e+2, 2.757007e+2, -205066.58, -438078.53, -90941.734, 0.2060785, 0.38640222, -173775.25, 64394.527, 0.00000000061010413, 10.001175, 9.998094 
5.0511515e+2, 2.8569886e+2, -71647.34, -352676.06, -86054.41, 0.23541923, 0.41066596, -47390.207, 92799.66, 0.00000027554938, 10.001542, 9.997834 
5.051252e+2, 2.9569626e+2, 137357.7, -187351.14, -85972.48, 0.082973905, 0.35402024, 158715.63, 200933.53, 0.000004532087, 10.002249, 9.997955 
5.0513875e+2, 3.0569413e+2, 276777.34, 21234.854, -33186.93, 0.16378094, 0.29091227, 281016.97, 281016.97, 0.0000250645, 10.002371, 9.9990015 
5.051495e+2, 3.1569535e+2, 232027.86, 16102.015, -155.26096, -0.10515607, 0.5039089, 232027.98, 232027.98, 0.0000692816, 10.001965, 9.999163 
5.149178e+2, 1.2570195e+2, -1869420.9, -1742462.8, -34245.973, 0.13738257, 0.32154688, -1733814.3, -25659.477, 0.00003362694, 9.998745, 10.000383 
5.1493293e+2, 1.3570376e+2, -1340740.6, -1478102.5, 22886.44, 0.22425716, 0.46294615, -1337027.8, 273108.3, 0.0000102900585, 10.001825, 10.000085 
5.1494086e+2, 1.4570233e+2, -1222809.5, -1499535.0, -49959.992, -0.44000238, 0.37831178, -1214066.0, 298083.28, 0.0000014940234, 10.002544, 9.998899 
5.149579e+2, 1.5570004e+2, -1321309.5, -1487578.9, -74377.734, 0.061014466, 0.2442555, -1292894.0, 121277.26, 0.00000003629146, 10.001165, 9.99897 
5.1497096e+2, 1.6569908e+2, -1183902.0, -1292591.9, -72430.78, 0.1901885, 0.21812823, -1147695.4, 168483.63, 0.0, 10.001098, 9.999667 
5.149798e+2, 1.7569897e+2, -946795.0, -1137526.9, -61207.758, -0.11804852, 0.22548519, -928842.56, 289334.84, 0.0, 10.002096, 9.9995775 
5.1499176e+2, 1.8569891e+2, -993957.25, -1284426.1, -39545.957, -0.18873507, 0.34767312, -988669.5, 131513.5, 0.0, 10.001858, 9.998008 
5.1500666e+2, 1.9569889e+2, -1052796.3, -1246335.8, -68947.6, -0.015387335, 0.5315685, -1030746.2, -8551.985, 0.0, 10.00071, 9.998153 
5.1501894e+2, 2.0569827e+2, -808815.56, -875270.4, -133044.36, 0.009295422, 0.56188273, -704912.1, 219288.47, 0.0, 10.000835, 9.999968 
5.150291e+2, 2.1569717e+2, -558487.9, -719890.5, -82487.67, -0.097967446, 0.441043, -523790.25, 302413.6, 0.0, 10.001952, 9.999824 
5.1504123e+2, 2.256948e+2, -570603.56, -946956.25, -38291.586, -0.067529224, 0.35376522, -566747.1, 161478.5, 0.0, 10.002367, 9.997394 
5.150551e+2, 2.356914e+2, -478731.56, -842973.1, -55855.348, 0.07361503, 0.26123747, -470358.78, 159903.72, 0.0, 10.002284, 9.997475 
5.1506734e+2, 2.4569021e+2, -371906.84, -649614.1, -96011.65, 0.07652714, 0.35512018, -341945.28, 190331.39, 0.0, 10.001955, 9.998288 
5.150783e+2, 2.5569072e+2, -340881.4, -575735.7, -112047.85, -0.02873921, 0.5629492, -296000.66, 138273.13, 0.0, 10.001458, 9.998361 
5.150911e+2, 2.656889e+2, -244352.4, -427346.8, -118274.266, 0.063354455, 0.5219277, -186315.2, 149974.88, 0.0, 10.001236, 9.998813 
5.1510537e+2, 2.7568513e+2, -162912.13, -344018.0, -86456.36, 0.30132368, 0.255001, -128267.07, 110055.445, 0.0000000018853024, 10.00115, 9.998752 
5.151166e+2, 2.856832e+2, -74907.28, -359024.9, -64104.06, 0.21187365, 0.24230775, -61113.48, 79226.82, 0.00000034744536, 10.001537, 9.997794 
5.151255e+2, 2.9568294e+2, 127900.55, -202963.94, -55412.176, -0.1266206, 0.41630778, 136934.17, 179279.14, 0.0000038784074, 10.002229, 9.997859 
5.151399e+2, 3.0568096e+2, 232615.92, -68440.07, -51970.383, 0.0309088, 0.41214404, 241334.9, 241334.9, 0.000021208403, 10.002364, 9.998388 
5.151538e+2, 3.1567913e+2, 156916.1, -122900.984, 18948.965, 0.10664015, 0.38226286, 158193.47, 158193.47, 0.00006028198, 10.001903, 9.998232 
5.24917e+2, 1.256871e+2, -1652395.1, -1651597.6, -54373.5, 0.108361796, 0.39130607, -1597621.4, 110684.88, 0.000024083258, 10.000286, 10.000269 
5.2493465e+2, 1.3568851e+2, -1510186.4, -1551214.5, 20688.564, 0.27922997, 0.48881388, -1501565.5, 108724.664, 0.000006343457, 10.000607, 10.000179 
5.249431e+2, 1.456873e+2, -1417409.0, -1527085.1, -126177.51, -0.38147384, 0.3882542, -1334668.0, 177631.69, 0.00000066930806, 10.000929, 9.999486 
5.2495897e+2, 1.5568551e+2, -1303052.5, -1419077.0, -151167.1, 0.067653924, 0.2467308, -1199148.4, 215166.61, 0.000000004981165, 10.001035, 9.999502 
5.249718e+2, 1.6568486e+2, -1207946.8, -1325716.4, -103339.37, 0.17814007, 0.2372736, -1147892.8, 168427.05, 0.0, 10.001017, 9.999487 
5.2498126e+2, 1.7568497e+2, -1123659.6, -1239029.9, -115259.086, -0.11942979, 0.28532276, -1052456.4, 165861.55, 0.0, 10.000946, 9.99944 
5.249934e+2, 1.8568477e+2, -1084440.9, -1308591.8, -79308.76, -0.16848359, 0.39118907, -1059218.1, 61106.64, 0.0, 10.001151, 9.998186 
5.2500826e+2, 1.9568431e+2, -922234.3, -1163077.4, -44247.74, 0.032920975, 0.5142949, -914362.4, 107976.32, 0.0, 10.001524, 9.99833 
5.250204e+2, 2.0568383e+2, -724974.94, -844525.3, -92747.08, 0.046042655, 0.5518076, -674409.3, 249934.73, 0.0, 10.001455, 9.999883 
5.250305e+2, 2.156832e+2, -693821.9, -790894.06, -142795.11, -0.101558715, 0.49291614, -591539.56, 234804.19, 0.0, 10.001047, 9.999775 
5.2504283e+2, 2.2568098e+2, -713041.6, -944020.0, -86212.82, -0.08171309, 0.3888795, -684411.4, 43951.445, 0.0, 10.001087, 9.998027 
5.2505696e+2, 2.3567742e+2, -556503.56, -814075.06, -25878.982, 0.07294615, 0.21803808, -553929.1, 76468.65, 0.0, 10.001474, 9.99806 
5.250692e+2, 2.4567632e+2, -454277.7, -694615.4, -20022.652, 0.09476545, 0.29581922, -452621.0, 79789.016, 0.0, 10.001412, 9.998239 
5.2507985e+2, 2.556771e+2, -412093.94, -618071.7, -5251.844, 0.009090595, 0.53580344, -411960.13, 22445.133, 0.0, 10.001005, 9.998289 
5.250926e+2, 2.6567551e+2, -251063.33, -452257.3, 5343.364, 0.089128, 0.5315661, -250921.52, 85498.766, 0.0, 10.00128, 9.998622 
5.251069e+2, 2.7567193e+2, -39987.207, -304859.97, -35136.793, 0.3028749, 0.30163112, -35405.38, 203046.78, 0.00000000009174081, 10.00208, 9.998573 
5.251184e+2, 2.8566983e+2, -7846.898, -332104.47, -45570.973, 0.21904764, 0.28017196, -1564.1147, 138907.11, 0.00000033351301, 10.002032, 9.997739 
5.2512753e+2, 2.95669e+2, -14791.984, -286989.0, -51697.004, -0.100726746, 0.40493962, -5304.146, 37175.313, 0.000003888586, 10.001315, 9.997724 
5.251418e+2, 3.05667e+2, 70549.45, -213725.2, -29627.877, 0.03003295, 0.43890715, 73604.516, 73604.516, 0.000020489533, 10.001542, 9.997786 
5.251563e+2, 3.1566384e+2, 199293.75, -172598.45, 34480.418, 0.14598054, 0.33467495, 202463.63, 202463.63, 0.000057556197, 10.002481, 9.997619 
5.3491735e+2, 1.2567125e+2, -1673634.3, -1695773.3, -122518.98, 0.086020626, 0.40792096, -1561685.8, 146777.48, 0.000017799504, 10.000307, 9.999947 
5.349357e+2, 1.3567114e+2, -1528154.5, -1578698.4, 37097.184, 0.3223538, 0.3828463, -1508539.1, 101922.82, 0.0000036805177, 10.000572, 10.000008 
5.349445e+2, 1.4567095e+2, -1366301.3, -1421752.3, -122811.89, -0.3518413, 0.35130027, -1268124.1, 244338.56, 0.00000019448485, 10.000925, 10.000213 
5.3495955e+2, 1.5567182e+2, -1256053.1, -1325784.8, -143649.52, 0.0016442662, 0.40200126, -1143098.8, 271355.1, 0.00000000000050979853, 10.001048, 10.000138 
5.3497267e+2, 1.6567184e+2, -1231780.5, -1374671.5, -112439.195, 0.14862889, 0.44852024, -1170008.0, 146445.83, 0.0, 10.001017, 9.99915 
5.3498363e+2, 1.7567112e+2, -1139850.0, -1275099.6, -112652.77, 0.009373339, 0.44751817, -1076083.3, 142378.7, 0.0, 10.000956, 9.99919 
5.3499657e+2, 1.8566987e+2, -1006332.3, -1141584.4, -69024.0, 0.02460022, 0.39922696, -977327.1, 143147.27, 0.0, 10.001133, 9.999338 
5.3501165e+2, 1.9566818e+2, -857900.6, -1025037.06, -27466.033, 0.21328562, 0.2835959, -853502.75, 168988.14, 0.0, 10.0015, 9.999291 
5.350235e+2, 2.0566745e+2, -822036.9, -1035818.7, -112030.5, 0.19808361, 0.32205543, -774084.3, 150415.36, 0.0, 10.001413, 9.998587 
5.3503275e+2, 2.1566743e+2, -775534.8, -951755.1, -151078.08, 0.014733838, 0.44730583, -688750.75, 137752.25, 0.0, 10.001008, 9.998688 
5.3504455e+2, 2.2566696e+2, -594788.25, -691519.2, -75563.91, -0.025053054, 0.4773331, -553436.8, 175068.94, 0.0, 10.001052, 9.999781 
5.350584e+2, 2.3566611e+2, -443605.38, -571175.94, -8815.919, 0.05694097, 0.39977953, -442999.03, 187509.55, 0.0, 10.001435, 9.999747 
5.3507006e+2, 2.4566446e+2, -429175.53, -634273.44, -40312.336, 0.035220858, 0.31999618, -421536.6, 110984.36, 0.0, 10.00138, 9.998668 
5.3508013e+2, 2.5566214e+2, -391311.2, -571282.6, -14841.202, -0.07260536, 0.20853777, -390095.53, 44445.71, 0.0, 10.000989, 9.998617 
5.3509283e+2, 2.6566115e+2, -324675.47, -601374.7, 32301.086, -0.022679782, 0.30495456, -320954.78, 15598.122, 0.0, 10.001264, 9.997606 
5.351077e+2, 2.7566108e+2, -111138.37, -443755.47, -2087.197, 0.15562102, 0.52280813, -111125.27, 127433.85, 0.0, 10.00204, 9.99764 
5.351203e+2, 2.8565866e+2, -17869.643, -351605.53, -77569.17, 0.1958955, 0.51969856, -721.58704, 139861.72, 0.00000019037492, 10.002026, 9.997608 
5.3513104e+2, 2.9565445e+2, -28938.35, -311293.2, -69906.77, 0.11280123, 0.32693523, -12578.405, 30042.408, 0.000003945089, 10.001294, 9.997564 
5.351443e+2, 3.056523e+2, 20534.787, -312476.56, 6158.5186, 0.122895174, 0.38061303, 20648.64, 20648.64, 0.000021599248, 10.001522, 9.997116 
5.351567e+2, 3.1564933e+2, 167174.38, -218035.8, 93718.39, -0.083973, 0.36187187, 188765.13, 188765.13, 0.000060066017, 10.002401, 9.997338 
5.449175e+2, 1.2565643e+2, -1648729.0, -1650094.4, -136637.8, 0.07790472, 0.4720884, -1512772.3, 195839.86, 0.000013143151, 10.000334, 10.000256 
5.449357e+2, 1.3565576e+2, -1624081.5, -1584543.9, 120201.46, 0.30964193, 0.35347715, -1482496.4, 128117.125, 0.000002162896, 9.999742, 10.000369 
5.449452e+2, 1.4565587e+2, -1539296.4, -1522970.6, -26368.809, -0.3153782, 0.34552023, -1503530.1, 9082.086, 0.000000029643958, 9.999813, 10.000055 
5.4496044e+2, 1.5565737e+2, -1353493.9, -1381701.9, -128840.234, 0.02477598, 0.47255018, -1237987.9, 176612.92, 0.0, 10.000421, 10.000054 
5.449737e+2, 1.6565771e+2, -1269350.8, -1341237.9, -100742.85, 0.17764851, 0.52942914, -1198331.4, 118266.81, 0.0, 10.000548, 9.999599 
5.449849e+2, 1.7565706e+2, -1210196.1, -1257477.9, -50161.023, 0.07682708, 0.49221584, -1178384.1, 40219.074, 0.0, 10.000261, 9.99964 
5.4499775e+2, 1.8565586e+2, -1093212.1, -1138212.3, 16852.148, 0.06738974, 0.4058479, -1087600.8, 33012.023, 0.0, 10.000328, 9.999758 
5.4501235e+2, 1.9565426e+2, -944062.4, -1021748.5, -4676.4536, 0.17547613, 0.25628674, -943781.9, 78844.19, 0.0, 10.000709, 9.999698 
5.450246e+2, 2.0565353e+2, -884287.1, -1095402.5, -73225.86, 0.18408702, 0.2894664, -861375.2, 63259.684, 0.0, 10.001108, 9.998328 
5.450349e+2, 2.1565337e+2, -723911.7, -952088.3, -42725.215, 0.10556122, 0.4286555, -716173.94, 110467.43, 0.0, 10.001472, 9.998462 
5.450466e+2, 2.2565329e+2, -568642.3, -674353.1, -3169.9478, 0.07284704, 0.5022284, -568547.4, 160094.77, 0.0, 10.001213, 9.999819 
5.4505956e+2, 2.3565312e+2, -575933.1, -630114.4, -74370.42, 0.08195144, 0.4911997, -523872.88, 106766.445, 0.0, 10.000501, 9.999795 
5.450714e+2, 2.4565136e+2, -491388.53, -616744.4, -137927.75, 0.06850218, 0.37481725, -402565.34, 130085.61, 0.0, 10.00074, 9.9991 
5.450825e+2, 2.5564834e+2, -254445.3, -458199.34, -120842.55, 0.030839961, 0.14891812, -198265.84, 236408.34, 0.0, 10.001731, 9.999035 
5.45095e+2, 2.656473e+2, -255943.4, -573580.5, -33762.74, 0.04860924, 0.22209895, -252394.31, 84290.82, 0.0, 10.001759, 9.99756 
5.4510874e+2, 2.756476e+2, -260783.92, -521816.47, -6967.6904, 0.11496499, 0.48713195, -260598.06, -21909.898, 0.0, 10.001035, 9.997592 
5.451217e+2, 2.856453e+2, -96353.82, -387943.38, -28648.863, 0.16624604, 0.49571425, -93565.71, 47146.58, 0.00000011177434, 10.001486, 9.997614 
5.4513395e+2, 2.9564092e+2, 203696.14, -192866.78, -22801.74, 0.19759151, 0.2850642, 205002.89, 247755.3, 0.0000044340386, 10.002874, 9.997612 
5.451467e+2, 3.056392e+2, 143742.63, -197934.05, 75886.12, 0.18598856, 0.35650334, 159838.61, 159838.61, 0.000024114986, 10.002129, 9.997606 
5.451579e+2, 3.1563666e+2, -182268.84, -286650.2, 226045.11, -0.061409898, 0.3246057, -2467.5884, -2467.5884, 0.00006615612, 9.999568, 9.998229 
5.549171e+2, 1.2564278e+2, -1573700.5, -1487649.4, -238166.97, -0.02060676, 0.6047225, -1288652.8, 420098.7, 0.000010165176, 10.000321, 10.0013685 
5.549344e+2, 1.3564241e+2, -1559496.9, -1446158.0, 105028.46, 0.19293502, 0.40580088, -1383485.9, 227258.69, 0.0000015959415, 9.99973, 10.001322 
5.5494505e+2, 1.4564212e+2, -1611200.8, -1675246.9, -9077.112, -0.3239248, 0.37139273, -1609939.1, -97191.47, 0.000000016896806, 9.999822, 9.999008 
5.549616e+2, 1.5564218e+2, -1415363.6, -1512717.8, -102266.96, 0.0888415, 0.45956498, -1350780.0, 63975.625, 0.0, 10.000428, 9.999154 
5.549748e+2, 1.6564246e+2, -1181149.5, -1159203.3, -116358.06, 0.21624623, 0.48414883, -1053302.0, 263450.5, 0.0, 10.000552, 10.000846 
5.5498487e+2, 1.7564274e+2, -1132466.3, -1093040.5, -55917.58, 0.03878551, 0.4155673, -1053462.9, 165279.39, 0.0, 10.000248, 10.000775 
5.549967e+2, 1.856428e+2, -1116801.5, -1180112.9, 26865.393, -0.07944365, 0.41360345, -1106938.1, 13801.551, 0.0, 10.0002985, 9.999485 
5.550102e+2, 1.9564256e+2, -963770.8, -1058143.0, 14630.675, -0.1200189, 0.43288994, -961554.6, 61189.36, 0.0, 10.000685, 9.999464 
5.5502355e+2, 2.0564201e+2, -831203.8, -976773.4, -63548.516, -0.040702704, 0.4501239, -807365.44, 117384.99, 0.0, 10.001075, 9.999157 
5.5503666e+2, 2.156411e+2, -685057.56, -861613.94, -27865.52, 0.12572233, 0.4321221, -680764.0, 145995.33, 0.0, 10.001428, 9.999106 
5.550489e+2, 2.2563992e+2, -695193.94, -923744.94, -34287.387, 0.16471645, 0.45797002, -690160.94, 38611.703, 0.0, 10.001161, 9.99813 
5.550604e+2, 2.3563847e+2, -692904.94, -861276.3, -91160.02, 0.10711833, 0.48831272, -653004.44, -22214.484, 0.0, 10.000451, 9.998232 
5.5507314e+2, 2.4563706e+2, -465526.28, -556580.9, -102614.39, 0.14813787, 0.4579924, -398792.94, 134006.81, 0.0, 10.000711, 9.999528 
5.5508673e+2, 2.5563562e+2, -227233.31, -394094.34, -81312.266, 0.26871672, 0.34764284, -194163.45, 240640.88, 0.0, 10.001697, 9.999493 
5.5509895e+2, 2.6563382e+2, -198231.36, -446681.1, -64213.93, 0.2543225, 0.27600408, -182616.16, 154201.38, 0.0, 10.001731, 9.998442 
5.5511004e+2, 2.7563167e+2, -210066.63, -408009.25, -24052.248, 0.13366301, 0.20336984, -207185.94, 31652.691, 0.0, 10.001, 9.998389 
5.5512255e+2, 2.8562978e+2, -88780.586, -372124.22, 21418.443, 0.09166176, 0.2175327, -87170.67, 53687.27, 0.00000024371042, 10.001477, 9.997733 
5.55136e+2, 2.9562825e+2, 217556.88, -162494.75, 27489.492, 0.1071319, 0.27284, 219534.92, 262410.6, 0.0000057652805, 10.002855, 9.997837 
5.5514866e+2, 3.0562764e+2, 248365.72, 29444.775, -22362.313, 0.15971008, 0.36361143, 250626.64, 250626.64, 0.000028463612, 10.00209, 9.999182 
5.551594e+2, 3.1562537e+2, -39437.31, 12118.766, 141206.36, 0.101389326, 0.2004159, 129880.766, 129880.766, 0.00007494189, 9.99956, 10.000281 
5.649169e+2, 1.256291e+2, -1730094.9, -1596011.9, -121507.42, -0.0153123, 0.5318949, -1524277.9, 184603.84, 0.000007999431, 9.999369, 10.001091 
5.649341e+2, 1.356297e+2, -1575787.8, -1492603.0, 143979.53, 0.19580822, 0.4621173, -1384328.6, 226540.98, 0.00000128022, 9.999759, 10.0009985 
5.6494564e+2, 1.4562933e+2, -1604973.1, -1691243.6, 47306.348, -0.25083536, 0.4441467, -1584088.5, -71213.56, 0.000000037787355, 9.999954, 9.998833 
5.6496173e+2, 1.5562823e+2, -1478775.9, -1558217.3, 7464.626, 0.07923744, 0.43364036, -1478080.5, -63187.137, 0.0, 10.000062, 9.999019 
5.6497484e+2, 1.6562839e+2, -1161604.4, -1125205.8, -12906.759, 0.17078312, 0.44037494, -1121093.6, 195797.31, 0.0, 10.000582, 10.001066 
5.6498545e+2, 1.7562936e+2, -938155.4, -976827.25, -41840.68, 0.018992387, 0.41990516, -911398.75, 307474.8, 0.0, 10.001483, 10.000978 
5.6499743e+2, 1.8562983e+2, -991101.94, -1137918.1, -1795.3932, -0.07635638, 0.4608402, -991079.94, 129787.945, 0.0, 10.001246, 9.999312 
5.6501067e+2, 1.9562985e+2, -1057854.6, -1113637.5, -9071.668, -0.10680547, 0.51733494, -1056416.4, -33544.38, 0.0, 10.000091, 9.999361 
5.6502414e+2, 2.0562938e+2, -948494.1, -975919.25, -52361.883, -0.033424567, 0.51924443, -908079.06, 16797.809, 0.0, 10.000027, 9.999666 
5.650378e+2, 2.1562845e+2, -737927.1, -831979.6, -49948.258, 0.12286676, 0.44954634, -716350.94, 110531.78, 0.0, 10.000834, 9.999591 
5.650502e+2, 2.2562706e+2, -672688.75, -937549.06, -20068.957, 0.16706787, 0.44162813, -671176.7, 57720.47, 0.0, 10.001415, 9.997914 
5.650617e+2, 2.356252e+2, -511447.16, -793241.0, 27743.188, 0.1330867, 0.45090446, -508741.75, 122177.21, 0.0, 10.001783, 9.998052 
5.650746e+2, 2.4562392e+2, -330650.03, -512185.25, 64919.02, 0.18136974, 0.4502739, -309823.56, 223105.03, 0.0, 10.001741, 9.999328 
5.650885e+2, 2.5562292e+2, -278747.56, -439293.22, 26598.225, 0.294361, 0.40285012, -274455.66, 160474.55, 0.0, 10.001432, 9.999307 
5.6510067e+2, 2.6562095e+2, -242008.42, -434643.97, -16557.402, 0.2770892, 0.31020966, -240595.64, 96348.766, 0.0, 10.001296, 9.998728 
5.6511146e+2, 2.7561823e+2, -141095.33, -335714.3, -23831.947, 0.16121665, 0.15209535, -138219.5, 100749.34, 0.0, 10.001323, 9.998718 
5.6512403e+2, 2.856168e+2, -133446.47, -360298.2, 47156.8, 0.115031056, 0.1740485, -124034.26, 16949.564, 0.00000046127252, 10.001026, 9.998032 
5.651378e+2, 2.9561636e+2, -110617.125, -284695.66, 53380.918, 0.12142219, 0.31467426, -95551.76, -52560.77, 0.000007729108, 10.000451, 9.998155 
5.651502e+2, 3.0561548e+2, 53661.113, -24555.264, -75913.95, 0.18329011, 0.34020236, 99948.35, 99948.35, 0.000034443015, 10.000566, 9.999554 
5.6516093e+2, 3.1561276e+2, 226606.4, 205558.98, -18638.93, 0.23315135, 0.097150266, 237487.33, 237487.33, 0.00008580813, 10.001097, 10.000878 
5.749165e+2, 1.2561536e+2, -1846574.3, -1841043.4, -161841.25, -0.020077944, 0.24103151, -1681944.0, 27059.098, 0.0000055281434, 9.999386, 9.999395 
5.749347e+2, 1.3561778e+2, -1692754.3, -1734850.1, 160537.6, 0.26816595, 0.52973497, -1551890.8, 59096.96, 0.00000085256136, 9.999757, 9.999334 
5.749468e+2, 1.4561765e+2, -1555295.4, -1589430.5, 44876.56, -0.1390628, 0.5777629, -1524350.4, -11357.512, 0.00000002938157, 9.999959, 9.999531 
5.749606e+2, 1.5561554e+2, -1439088.8, -1471964.9, 18795.744, -0.05043261, 0.3968836, -1430557.0, -15543.141, 0.0, 10.000049, 9.999618 
5.7497376e+2, 1.6561548e+2, -1217490.3, -1243487.9, 15863.248, -0.00701075, 0.39851925, -1209980.3, 107033.17, 0.0, 10.000584, 10.000255 
5.749866e+2, 1.7561692e+2, -990817.3, -1089396.4, -7665.226, -0.02981645, 0.503169, -990224.9, 228772.48, 0.0, 10.0014925, 10.000202 
5.749998e+2, 1.8561707e+2, -992858.7, -1137420.5, -49281.477, 0.028142937, 0.5490426, -977657.06, 143339.94, 0.0, 10.001233, 9.99932 
5.750136e+2, 1.9561617e+2, -1062940.6, -1114692.3, -43540.414, 0.16306779, 0.51437974, -1038167.4, -15157.556, 0.0, 10.000052, 9.999373 
5.7502615e+2, 2.0561567e+2, -939822.5, -949229.5, -27212.55, 0.16099247, 0.5038356, -916909.94, 8103.904, 0.0, 9.999986, 9.999869 
5.7503796e+2, 2.1561544e+2, -726236.1, -797640.3, -16610.453, 0.05085705, 0.4806522, -722561.2, 104450.62, 0.0, 10.000787, 9.999852 
5.7505035e+2, 2.2561462e+2, -587955.7, -746815.75, -10086.988, 0.03734473, 0.44888565, -587317.75, 141698.61, 0.0, 10.001354, 9.999251 
5.7506335e+2, 2.3561333e+2, -436987.63, -625003.6, 45166.61, 0.107085496, 0.3836214, -426700.25, 204326.28, 0.0, 10.001726, 9.999236 
5.750758e+2, 2.4561185e+2, -390849.75, -635068.8, 47607.88, 0.11673094, 0.35213578, -381897.28, 151141.17, 0.0, 10.001725, 9.998495 
5.7508785e+2, 2.556101e+2, -341244.97, -559018.75, 19529.236, 0.072031096, 0.3182794, -339507.5, 95545.1, 0.0, 10.001388, 9.9985075 
5.751002e+2, 2.656086e+2, -262446.03, -474788.38, -18983.795, 0.085526384, 0.322122, -260762.19, 76304.07, 0.0, 10.00128, 9.998463 
5.7511276e+2, 2.756072e+2, -157612.3, -368897.13, -19887.295, 0.1441451, 0.31979612, -155756.69, 83323.73, 0.0, 10.0013075, 9.998503 
5.751258e+2, 2.856061e+2, -102275.71, -288680.06, 19439.045, 0.1780952, 0.35795712, -100270.11, 40821.266, 0.0000006054728, 10.000997, 9.998537 
5.7513905e+2, 2.9560524e+2, -84143.46, -224990.72, 41184.574, 0.18632407, 0.40881133, -72984.88, -29885.633, 0.000009214798, 10.000428, 9.998576 
5.7515126e+2, 3.0560267e+2, -460.26114, -132838.6, -56359.76, 0.21533148, 0.2811883, 20284.045, 20284.045, 0.00003883035, 10.000548, 9.998821 
5.751624e+2, 3.155986e+2, 171588.16, 101097.48, 6077.9805, 0.24707896, -0.020943612, 172108.39, 172108.39, 0.00009398202, 10.001055, 10.000183 
5.849154e+2, 1.2560225e+2, -1997817.4, -1950805.8, -310192.78, -0.025726534, 0.22074012, -1663229.5, 45899.55, 0.0000029888902, 9.998507, 9.999065 
5.8493364e+2, 1.3560393e+2, -1705575.5, -1777089.9, 130413.555, 0.19145925, 0.47666058, -1606106.0, 5018.242, 0.00000032572908, 9.999824, 9.999011 
5.8494735e+2, 1.456042e+2, -1448966.1, -1457142.0, 48981.445, -0.09927918, 0.54363006, -1403902.4, 109222.125, 0.0000000021906112, 10.000348, 10.000245 
5.849607e+2, 1.556035e+2, -1336732.5, -1350886.6, 13089.503, -0.058822785, 0.43083778, -1328929.4, 86197.79, 0.0, 10.000441, 10.000255 
5.849737e+2, 1.6560331e+2, -1373025.0, -1399909.8, 18627.764, -0.033982184, 0.42691153, -1363495.9, -46367.125, 0.0, 9.999865, 9.999526 
5.849867e+2, 1.756034e+2, -1434022.8, -1375531.8, -7856.7217, -0.027447984, 0.47047764, -1374494.8, -155364.27, 0.0, 9.998763, 9.999551 
5.850001e+2, 1.8560334e+2, -1291666.4, -1244937.3, -17734.56, 0.04691529, 0.5047408, -1238969.0, -117835.83, 0.0, 9.999022, 9.999652 
5.8501387e+2, 1.9560309e+2, -999322.1, -1049393.0, 3985.0544, 0.17811808, 0.5042122, -999006.94, 24129.953, 0.0, 10.000339, 9.999687 
5.8502656e+2, 2.0560259e+2, -851913.1, -918695.94, 33883.156, 0.17126939, 0.48269328, -837732.94, 87407.08, 0.0, 10.000639, 9.999764 
5.850384e+2, 2.1560174e+2, -818367.25, -846171.1, 14479.089, 0.057514425, 0.40910345, -812196.6, 14947.223, 0.0, 10.000176, 9.99981 
5.850513e+2, 2.2560123e+2, -701312.25, -747653.75, -3165.5442, 0.04735987, 0.38197955, -701097.0, 28047.973, 0.0, 10.000346, 9.999736 
5.850648e+2, 2.3560087e+2, -510816.44, -612418.6, -22090.273, 0.123205096, 0.36287752, -506221.4, 124923.445, 0.0, 10.001007, 9.999675 
5.850772e+2, 2.4559957e+2, -494608.3, -690779.9, -36912.008, 0.12155076, 0.33150774, -487892.78, 45262.56, 0.0, 10.001036, 9.998446 
5.850886e+2, 2.555974e+2, -454778.53, -620567.6, -11672.917, 0.05540129, 0.26206067, -453960.7, -18785.93, 0.0, 10.000636, 9.998448 
5.8510107e+2, 2.6559612e+2, -329625.63, -537181.3, 14441.333, 0.07079158, 0.30265707, -328625.63, 8562.533, 0.0, 10.000951, 9.99819 
5.8511436e+2, 2.7559537e+2, -94843.79, -369100.44, -500.14447, 0.15099302, 0.39284745, -94842.875, 144355.19, 0.0, 10.001869, 9.998231 
5.851271e+2, 2.8559405e+2, -3261.9744, -219674.33, -14288.784, 0.18642244, 0.41715017, -2322.6243, 138888.0, 0.00000055145284, 10.001586, 9.998725 
5.8513933e+2, 2.955925e+2, -86214.95, -206938.22, -22539.998, 0.18791321, 0.37444547, -82143.84, -38919.863, 0.000008696917, 10.000337, 9.998739 
5.851516e+2, 3.0559003e+2, -93582.46, -194291.63, -52204.94, 0.2302777, 0.2625108, -71404.71, -71404.71, 0.000037738446, 9.999986, 9.998662 
5.85164e+2, 3.155875e+2, 30015.727, -10387.108, 22025.012, 0.3462198, 0.1252301, 39700.734, 39700.734, 0.000093645554, 10.000268, 9.999787 
5.949131e+2, 1.2558979e+2, -1916442.8, -1775980.3, -292050.34, -0.12424556, 0.48936895, -1545835.3, 163424.3, 0.000001124367, 9.998495, 10.000264 
5.949308e+2, 1.3558812e+2, -1632654.9, -1621469.5, 176347.72, -0.07978684, 0.3003718, -1450625.9, 160653.45, 0.000000025767086, 9.999813, 10.000082 
5.949469e+2, 1.4558893e+2, -1396746.8, -1350759.4, 45633.035, -0.1903959, 0.33360428, -1322654.3, 190615.69, 0.0, 10.000351, 10.000976 
5.949619e+2, 1.5559214e+2, -1289430.9, -1255509.9, 18449.412, -0.00008590605, 0.5373364, -1247409.6, 167823.61, 0.0, 10.000449, 10.000907 
5.9497446e+2, 1.6559196e+2, -1421109.6, -1493575.1, -29252.621, 0.045478825, 0.5353313, -1410775.0, -93538.56, 0.0, 9.999841, 9.998896 
5.949857e+2, 1.7558883e+2, -1472716.0, -1456046.5, -39935.563, -0.014934241, 0.32417768, -1423585.3, -204312.05, 0.0, 9.998763, 9.9990015 
5.9499806e+2, 1.8558858e+2, -1247377.3, -1147259.6, 27264.648, -0.0694545, 0.33005828, -1140316.3, -19039.602, 0.0, 9.998999, 10.000332 
5.950114e+2, 1.9559056e+2, -961214.2, -963811.9, 53582.016, -0.11289897, 0.4824964, -908915.25, 114338.68, 0.0, 10.000309, 10.00029 
5.9502506e+2, 2.0559004e+2, -882423.0, -972337.44, 11661.147, -0.051985413, 0.4505824, -880935.3, 44320.67, 0.0, 10.000599, 9.999414 
5.950391e+2, 2.1558748e+2, -851040.25, -903173.8, 4717.32, 0.09429217, 0.24055517, -850616.9, -23338.477, 0.0, 10.000131, 9.999441 
5.950527e+2, 2.2558692e+2, -731406.44, -803045.5, 16896.322, 0.14831023, 0.24611011, -727621.4, 1661.3007, 0.0, 10.000311, 9.999373 
5.9506595e+2, 2.3558785e+2, -539924.1, -661219.06, 4502.323, 0.12871036, 0.39124566, -539757.2, 91516.42, 0.0, 10.000955, 9.999366 
5.950786e+2, 2.4558702e+2, -447067.78, -587227.5, -57183.824, 0.1433283, 0.38568944, -426697.78, 106581.61, 0.0, 10.001011, 9.999172 
5.950906e+2, 2.5558484e+2, -410258.13, -521673.28, -20531.76, 0.18728454, 0.23430434, -406594.94, 28701.857, 0.0, 10.0006075, 9.999142 
5.951032e+2, 2.6558352e+2, -353127.16, -582047.8, 45222.406, 0.18064553, 0.25794354, -344517.44, -7207.6353, 0.0, 10.000934, 9.997891 
5.9511614e+2, 2.7558273e+2, -121230.55, -414352.03, 34917.434, 0.12663946, 0.37607172, -117128.49, 122193.04, 0.0, 10.001829, 9.997938 
5.9512794e+2, 2.8558075e+2, -14607.435, -242625.28, -67083.92, 0.09460156, 0.35358152, 3664.7349, 145006.02, 0.0000003359344, 10.001579, 9.998572 
5.951387e+2, 2.955781e+2, -96342.836, -225163.98, -63456.414, 0.079582356, 0.21312217, -70335.27, -26970.316, 0.00000683328, 10.000322, 9.998621 
5.9515125e+2, 3.0557752e+2, -71941.91, -144651.02, -43423.707, 0.1873262, 0.2783568, -51663.68, -51663.68, 0.0000338567, 9.99997, 9.999011 
5.9516543e+2, 3.1557935e+2, 20133.654, -21848.893, 28629.604, 0.42975217, 0.54188067, 34642.914, 34642.914, 0.00008915562, 10.000237, 9.999722 
6.049119e+2, 1.255765e+2, -1872998.9, -1693003.8, -163329.48, -0.09148105, 0.5562676, -1596517.9, 112875.19, 0.00000033090242, 9.998495, 10.000853 
6.0492915e+2, 1.3557453e+2, -1757969.9, -1618179.8, 245830.05, -0.1708773, 0.278459, -1432501.5, 178909.3, 0.000000000013925105, 9.998677, 10.000654 
6.049467e+2, 1.4557517e+2, -1662766.0, -1453883.3, 58964.66, -0.14868926, 0.25724816, -1438387.8, 75013.0, 0.0, 9.998421, 10.001198 
6.0496175e+2, 1.5557845e+2, -1603822.8, -1381750.1, -15024.589, 0.05673495, 0.44523442, -1380738.3, 34624.87, 0.0, 9.998187, 10.001131 
6.0497427e+2, 1.6557866e+2, -1547541.8, -1541216.5, -29359.352, 0.085667185, 0.46705407, -1514849.9, -197487.11, 0.0, 9.998916, 9.999014 
6.0498536e+2, 1.755763e+2, -1234626.0, -1327160.1, 8533.532, -0.0040895767, 0.31655684, -1233845.6, -14452.021, 0.0, 10.0003395, 9.9991255 
6.049977e+2, 1.8557619e+2, -1024481.2, -1016089.25, 89710.22, -0.0791154, 0.32033566, -930476.9, 190918.22, 0.0, 10.000421, 10.00055 
6.050109e+2, 1.955778e+2, -1077578.5, -993727.56, 73844.2, -0.14197065, 0.41391173, -950737.1, 72636.695, 0.0, 9.999399, 10.00052 
6.0502505e+2, 2.0557736e+2, -1058086.3, -1065470.5, 38259.613, -0.052832827, 0.38121903, -1023341.06, -97966.37, 0.0, 9.999426, 9.999345 
6.050399e+2, 2.1557516e+2, -842845.06, -910356.1, 45124.04, 0.16155784, 0.21675165, -820248.0, 7146.1924, 0.0, 10.000226, 9.9993515 
6.050536e+2, 2.2557451e+2, -746324.9, -846590.0, 76417.42, 0.20432214, 0.23463494, -705063.25, 24337.594, 0.0, 10.000368, 9.999044 
6.0506624e+2, 2.3557496e+2, -700144.7, -769739.3, 58590.62, 0.11099665, 0.36333013, -666797.25, -35398.75, 0.0, 9.999994, 9.99908 
6.050792e+2, 2.4557416e+2, -552308.3, -628600.56, -17153.918, 0.141946, 0.36839464, -548628.8, -15223.659, 0.0, 10.000258, 9.999245 
6.050923e+2, 2.5557232e+2, -341187.13, -480267.03, -40087.063, 0.27125683, 0.24785449, -330460.16, 104959.23, 0.0, 10.001048, 9.999212 
6.0510486e+2, 2.655711e+2, -308966.84, -535455.7, 31081.592, 0.24214521, 0.26104122, -304778.88, 32652.445, 0.0, 10.00112, 9.998129 
6.051169e+2, 2.7557006e+2, -282290.38, -470322.88, 50608.875, 0.08437618, 0.33763495, -269534.38, -30090.77, 0.0, 10.000617, 9.998147 
6.051286e+2, 2.8556788e+2, -137675.52, -327560.22, -40842.2, 0.04593942, 0.2969684, -129263.45, 12201.85, 0.00000016006682, 10.00085, 9.998339 
6.0514003e+2, 2.95565e+2, 83374.69, -168581.31, -55078.793, 0.107982434, 0.16060044, 94888.98, 138380.81, 0.0000051844427, 10.00168, 9.99836 
6.051521e+2, 3.0556497e+2, 199660.78, -17928.908, -39501.086, 0.18516411, 0.2943658, 206609.86, 206609.86, 0.000029848581, 10.001853, 9.998978 
6.051652e+2, 3.1556714e+2, 176380.61, 21087.043, -29676.31, 0.3227147, 0.5977805, 181858.47, 181858.47, 0.00008365637, 10.00145, 9.999443 
6.1491144e+2, 1.2556238e+2, -1867114.8, -1679314.1, -163648.05, -0.01862034, 0.4172395, -1584540.3, 124988.84, 0.000000091949275, 9.9985, 10.0009365 
6.1492836e+2, 1.355633e+2, -1759065.1, -1613139.0, 249041.48, -0.12621859, 0.422984, -1426592.4, 184924.86, 0.0, 9.998655, 10.000694 
6.149465e+2, 1.4556298e+2, -1683617.5, -1498821.9, 39370.18, -0.019062273, 0.3199477, -1490783.8, 22732.455, 0.0, 9.998417, 10.0008955 
6.149601e+2, 1.5556231e+2, -1614629.6, -1411770.0, -15848.4795, 0.062631845, 0.14503126, -1410539.4, 4978.087, 0.0, 9.998209, 10.000918 
6.149727e+2, 1.6556337e+2, -1488819.9, -1412143.8, 21798.273, 0.0309922, 0.21254544, -1406380.0, -88871.43, 0.0, 9.998892, 9.99991 
6.1498547e+2, 1.7556566e+2, -1176663.3, -1209584.9, 62000.016, -0.036057618, 0.44042975, -1128976.0, 90516.96, 0.0, 10.000349, 9.999929 
6.149987e+2, 1.8556607e+2, -1046027.3, -1049758.0, 46844.914, -0.024198193, 0.4698207, -1001010.6, 120478.586, 0.0, 10.000377, 10.000337 
6.150123e+2, 1.955649e+2, -1095670.0, -1025765.0, 43941.78, 0.041236743, 0.30652303, -1004569.9, 18925.746, 0.0, 9.999374, 10.000312 
6.150263e+2, 2.0556456e+2, -1048603.9, -1035529.5, 63431.6, 0.11916742, 0.2821769, -978299.1, -52803.414, 0.0, 9.999382, 9.99957 
6.150408e+2, 2.155648e+2, -835926.94, -885721.0, 75967.12, 0.2141472, 0.33697787, -780881.06, 46610.47, 0.0, 10.00018, 9.999543 
6.150537e+2, 2.2556399e+2, -772694.5, -889768.5, 58655.773, 0.17416117, 0.34517324, -748363.7, -18863.85, 0.0, 10.000318, 9.998773 
6.150655e+2, 2.3556225e+2, -725148.1, -813442.4, 52123.26, 0.024732642, 0.28149876, -700988.56, -69469.49, 0.0, 9.999957, 9.998797 
6.150788e+2, 2.4556093e+2, -599333.5, -721080.25, 7011.1377, 0.06836873, 0.28044406, -598931.1, -65398.31, 0.0, 10.000235, 9.998622 
6.150934e+2, 2.555599e+2, -385359.6, -565366.0, -9657.77, 0.2671104, 0.3002808, -384842.9, 50699.855, 0.0, 10.001018, 9.998644 
6.1510575e+2, 2.6555875e+2, -259266.2, -428168.94, 8213.863, 0.2162106, 0.31339985, -258867.7, 78685.016, 0.0, 10.001102, 9.998872 
6.151164e+2, 2.7555743e+2, -236785.33, -369028.34, 39785.668, -0.03269867, 0.28123406, -225738.48, 13825.281, 0.0, 10.000591, 9.998851 
6.15129e+2, 2.855555e+2, -164018.61, -382133.1, -14547.34, -0.014002194, 0.252648, -163052.64, -21470.51, 0.00000012615395, 10.000843, 9.997969 
6.151428e+2, 2.9555324e+2, 49555.234, -227331.23, -21224.549, 0.21030843, 0.20932662, 51172.742, 94777.78, 0.000004328694, 10.001632, 9.997978 
6.151539e+2, 3.0555248e+2, 162057.86, -86817.91, -57110.777, 0.171372, 0.31557918, 174537.56, 174537.56, 0.000026339554, 10.001815, 9.998525 
6.1516297e+2, 3.1555137e+2, 138676.03, -44838.67, -40217.53, -0.0649556, 0.33466664, 147102.81, 147102.81, 0.00007734693, 10.001409, 9.999006 
6.249105e+2, 1.255487e+2, -1742134.1, -1641623.5, -141014.61, -0.007921281, 0.33805466, -1542176.8, 167483.17, 0.000000014013729, 9.9994545, 10.00074 
6.2492764e+2, 1.3555087e+2, -1685238.4, -1593690.6, 210804.92, -0.087645486, 0.483595, -1423747.3, 187889.89, 0.0, 9.999231, 10.000553 
6.249464e+2, 1.4555028e+2, -1630969.4, -1504701.9, 7745.1685, 0.10882774, 0.37693864, -1504228.6, 9411.353, 0.0, 9.998923, 10.000607 
6.249586e+2, 1.5554844e+2, -1512951.4, -1387273.9, -50905.234, 0.05156608, 0.10945737, -1369242.1, 46411.957, 0.0, 9.999027, 10.000685 
6.249713e+2, 1.6554955e+2, -1422688.5, -1305940.1, 9197.926, -0.0033972247, 0.15968181, -1305220.0, 12422.966, 0.0, 9.999015, 10.000585 
6.249855e+2, 1.7555293e+2, -1363244.9, -1227089.9, 22457.158, 0.020251462, 0.4286275, -1223481.4, -3868.5205, 0.0, 9.998762, 10.000571 
6.249994e+2, 1.8555346e+2, -1243138.6, -1195155.0, -20139.023, 0.07022466, 0.46330437, -1187822.9, -66215.09, 0.0, 9.999232, 9.999893 
6.2501276e+2, 1.9555162e+2, -998421.44, -1025949.6, -46185.82, 0.11428036, 0.2755847, -963992.4, 59631.527, 0.0, 10.000238, 9.999897 
6.2502635e+2, 2.0555116e+2, -871810.7, -941861.4, -21501.893, 0.13247058, 0.25644654, -865737.3, 59888.883, 0.0, 10.00056, 9.999645 
6.250403e+2, 2.1555173e+2, -811395.4, -861738.5, -30912.637, 0.14539452, 0.3353456, -796702.2, 30916.357, 0.0, 10.000304, 9.999643 
6.250535e+2, 2.2555096e+2, -770589.4, -874686.7, -42774.54, 0.12882702, 0.33630568, -755268.0, -25642.352, 0.0, 10.000267, 9.998902 
6.250662e+2, 2.3554905e+2, -655003.94, -767052.8, -26294.04, 0.08688307, 0.24423604, -649140.44, -17494.908, 0.0, 10.000381, 9.998915 
6.2507945e+2, 2.4554786e+2, -525624.5, -674443.94, 7614.307, 0.0918534, 0.24670993, -525235.94, 8422.242, 0.0, 10.000684, 9.998729 
6.2509316e+2, 2.5554723e+2, -355268.56, -537604.8, 34168.438, 0.13474855, 0.29403394, -349075.97, 86589.75, 0.0, 10.001166, 9.998762 
6.25106e+2, 2.6554623e+2, -206620.7, -393824.47, 27016.383, 0.11183435, 0.31111288, -202799.8, 134874.58, 0.0, 10.001424, 9.998954 
6.2511814e+2, 2.7554482e+2, -103410.016, -295916.7, 238.34392, 0.040186387, 0.26393372, -103409.72, 136275.5, 0.0, 10.001466, 9.998934 
6.251308e+2, 2.855431e+2, -95595.02, -330349.53, -30043.516, 0.06902811, 0.24428631, -91811.09, 49889.777, 0.000000116905284, 10.001228, 9.998142 
6.251435e+2, 2.9554117e+2, -66455.24, -275350.5, -9862.485, 0.16821066, 0.21790011, -65990.64, -22270.428, 0.000004282829, 10.00079, 9.998059 
6.251551e+2, 3.0553985e+2, 26852.957, -257930.39, -23700.42, 0.13950245, 0.31385222, 28811.893, 28811.893, 0.000025214384, 10.001342, 9.997575 
6.2516546e+2, 3.1553632e+2, 276411.84, -53396.758, -68209.01, -0.01276549, 0.18347287, 289961.72, 289961.72, 0.00007395699, 10.002656, 9.998351 
6.349087e+2, 1.255356e+2, -1766682.4, -1702344.5, -130883.22, -0.1549938, 0.32586235, -1599734.9, 110049.16, 0.0000000049225286, 9.999497, 10.000306 
6.3492686e+2, 1.3553727e+2, -1708135.3, -1640317.1, 197566.95, -0.097830914, 0.45518425, -1473770.4, 138000.22, 0.0, 9.99923, 10.000235 
6.349463e+2, 1.4553711e+2, -1653423.9, -1551115.5, 2870.0073, 0.19147573, 0.42600945, -1551035.1, -37263.133, 0.0, 9.998919, 10.000293 
6.3495696e+2, 1.5553671e+2, -1529597.8, -1427453.3, -41266.492, -0.023542153, 0.33560646, -1412865.0, 2908.4749, 0.0, 9.999045, 10.000404 
6.349697e+2, 1.6553713e+2, -1392344.5, -1233032.6, -5960.797, -0.068608046, 0.30182865, -1232809.9, 84956.49, 0.0, 9.998979, 10.0011 
6.349854e+2, 1.755381e+2, -1332231.3, -1162912.4, 18990.133, 0.121720485, 0.27675036, -1160808.8, 58945.047, 0.0, 9.99876, 10.001015 
6.3499963e+2, 1.8553832e+2, -1292689.3, -1292578.4, 14448.057, 0.1573641, 0.29487786, -1278185.8, -156434.03, 0.0, 9.99921, 9.999233 
6.3501227e+2, 1.955379e+2, -1046614.56, -1120011.9, -6649.082, 0.032113004, 0.31495062, -1046017.06, -22258.002, 0.0, 10.000212, 9.999264 
6.3502514e+2, 2.0553711e+2, -886702.5, -958106.94, -36628.824, -0.05132148, 0.2986072, -871254.75, 54511.695, 0.0, 10.000499, 9.999562 
6.350383e+2, 2.1553595e+2, -822713.44, -870224.0, -35753.29, -0.089739956, 0.21252275, -803543.06, 24231.723, 0.0, 10.000241, 9.999615 
6.350528e+2, 2.2553544e+2, -744530.4, -805674.4, -42267.637, 0.02087305, 0.21225983, -722937.25, 6840.6836, 0.0, 10.000203, 9.999406 
6.350683e+2, 2.3553534e+2, -623452.9, -692375.25, -15890.875, 0.24627155, 0.24927528, -619965.5, 11812.316, 0.0, 10.00034, 9.999447 
6.35081e+2, 2.45535e+2, -473034.88, -558161.94, 22199.816, 0.16393125, 0.26711896, -467593.34, 66187.586, 0.0, 10.000652, 9.999545 
6.3509136e+2, 2.5553435e+2, -308751.66, -431546.2, 54987.76, -0.16751546, 0.23622072, -287727.6, 148060.08, 0.0, 10.001122, 9.999515 
6.3510525e+2, 2.6553345e+2, -253136.77, -479891.8, 24261.363, -0.11476283, 0.25682068, -250570.0, 87226.46, 0.0, 10.001382, 9.998382 
6.351218e+2, 2.7553228e+2, -147655.02, -372617.03, 6138.606, 0.24951966, 0.28627473, -147487.64, 92320.164, 0.0, 10.001404, 9.998436 
6.351339e+2, 2.8553078e+2, -48106.152, -228862.11, -53403.11, 0.24475685, 0.2712765, -33507.605, 108313.625, 0.0000001448745, 10.001214, 9.99885 
6.3514215e+2, 2.9552892e+2, -28313.732, -190588.97, -18714.44, -0.06600526, 0.19492787, -26183.45, 17652.875, 0.0000050785306, 10.000773, 9.998649 
6.3515544e+2, 3.055272e+2, -73615.45, -472589.6, 24328.969, 0.025230883, 0.3016322, -72137.375, -72137.375, 0.000027373664, 10.00136, 9.996095 
6.3517195e+2, 3.155222e+2, 197273.36, -190699.22, -9433.486, 0.34561116, 0.16251849, 197502.61, 197502.61, 0.00007720963, 10.002547, 9.997457 
6.449081e+2, 1.255216e+2, -1841409.8, -1767649.9, -140956.94, -0.14015584, 0.28801802, -1658828.1, 51088.363, 0.0000000021351345, 9.9991045, 10.000049 
6.449253e+2, 1.3552262e+2, -1815674.1, -1702564.6, 141230.05, -0.13978124, 0.36634725, -1606986.6, 4924.557, 0.0, 9.998552, 10.000125 
6.4494514e+2, 1.4552307e+2, -1703875.4, -1535618.9, 20736.857, 0.22003458, 0.38347614, -1533100.9, -19193.352, 0.0, 9.998395, 10.000654 
6.449561e+2, 1.5552421e+2, -1520714.0, -1385922.0, 21103.412, -0.00368447, 0.4107764, -1382695.3, 33198.62, 0.0, 9.998941, 10.000741 
6.4496887e+2, 1.6552432e+2, -1400540.6, -1278445.4, 33305.918, -0.050360385, 0.34828088, -1269951.0, 47938.6, 0.0, 9.999095, 10.000734 
6.449845e+2, 1.7552347e+2, -1335702.1, -1202677.3, -14215.947, 0.14990695, 0.18070057, -1201175.0, 18719.01, 0.0, 9.998894, 10.000681 
6.4499897e+2, 1.8552347e+2, -1306719.5, -1280017.5, 26982.518, 0.18307629, 0.18270624, -1263263.6, -141369.56, 0.0, 9.99903, 9.999407 
6.450122e+2, 1.9552405e+2, -1148520.9, -1149481.3, 57446.777, 0.047206484, 0.28537756, -1091552.3, -67660.5, 0.0, 9.999433, 9.999434 
6.450252e+2, 2.0552363e+2, -1003426.44, -1012523.5, 42845.246, -0.0510036, 0.29310405, -964888.94, -38992.496, 0.0, 9.999687, 9.99958 
6.450381e+2, 2.1552227e+2, -885733.94, -903242.8, 40059.957, -0.10581004, 0.18883385, -853483.0, -25575.346, 0.0, 9.999809, 9.999603 
6.450527e+2, 2.2552173e+2, -751475.1, -784727.56, 42263.938, 0.00047503997, 0.17445168, -722684.7, 7226.2227, 0.0, 10.000048, 9.999627 
6.4506847e+2, 2.3552175e+2, -604854.6, -661847.2, 34376.27, 0.23200841, 0.20027024, -588699.3, 43209.227, 0.0, 10.000376, 9.9996395 
6.4508146e+2, 2.4552149e+2, -561213.1, -639235.44, 13501.375, 0.17718962, 0.23719886, -558942.9, -25031.42, 0.0, 10.000216, 9.999198 
6.450923e+2, 2.5552094e+2, -542283.2, -577880.4, -45057.902, -0.11060695, 0.25109553, -511635.9, -75716.38, 0.0, 9.999666, 9.999211 
6.4510643e+2, 2.6551998e+2, -439769.1, -520197.9, -44691.92, -0.0495999, 0.25525436, -419862.25, -81933.15, 0.0, 9.999883, 9.998828 
6.4512336e+2, 2.7551857e+2, -209609.31, -356461.28, 3410.2402, 0.30099055, 0.21635707, -209530.16, 30410.578, 0.000000000000000000046744374, 10.000776, 9.99885 
6.4513564e+2, 2.8551736e+2, -20096.535, -231626.63, -61282.26, 0.2865292, 0.22066142, -3625.0872, 138326.56, 0.00000034821963, 10.001483, 9.998696 
6.4514387e+2, 2.9551622e+2, 140497.6, -123937.05, -98116.234, -0.029610919, 0.22597222, 172926.0, 216888.84, 0.000006846114, 10.001991, 9.99852 
6.451578e+2, 3.0551457e+2, 74264.79, -359571.6, 25106.504, 0.09143906, 0.32534483, 75712.89, 75712.89, 0.000033104992, 10.002196, 9.996465 
6.45175e+2, 3.155096e+2, 214077.2, -90167.48, 101428.766, 0.42052668, 0.15135607, 244790.86, 244790.86, 0.000088752815, 10.002253, 9.998287 
6.549084e+2, 1.2550665e+2, -1846878.6, -1777576.5, -132968.69, -0.03796511, 0.21249348, -1674818.1, 35239.418, 0.0000000012982254, 9.999101, 9.999981 
6.5492266e+2, 1.3550697e+2, -1811316.4, -1691620.9, 117661.336, -0.26763263, 0.21736102, -1619461.3, -7402.6514, 0.0, 9.998553, 10.000194 
6.549429e+2, 1.4550811e+2, -1627119.8, -1378569.1, 31323.297, 0.14696737, 0.24339664, -1374682.5, 139364.48, 0.0, 9.998402, 10.001732 
6.5495586e+2, 1.5551087e+2, -1452730.4, -1246850.9, 45406.18, 0.06392112, 0.3272788, -1237281.5, 178733.97, 0.0, 9.998946, 10.001696 
6.549686e+2, 1.6551112e+2, -1490607.1, -1463896.8, 21259.172, -0.00032779342, 0.29933357, -1452145.9, -134133.9, 0.0, 9.999088, 9.999462 
6.5498257e+2, 1.7550914e+2, -1416301.0, -1372661.4, -16525.998, 0.05290396, 0.1445553, -1367109.5, -147076.47, 0.0, 9.998903, 9.99951 
6.549972e+2, 1.8550892e+2, -1237457.0, -1130268.8, 35489.67, 0.09942761, 0.12682064, -1119583.4, 2451.5974, 0.0, 9.999006, 10.000446 
6.5501237e+2, 1.955101e+2, -1083669.4, -1002436.1, 76408.71, 0.10832003, 0.1853309, -956519.5, 67502.38, 0.0, 9.999386, 10.000464 
6.550264e+2, 2.0551069e+2, -1005893.2, -1008189.75, 42344.23, 0.083649255, 0.24324572, -964681.7, -38665.77, 0.0, 9.999642, 9.999634 
6.5503955e+2, 2.1551065e+2, -888796.6, -898552.7, 49765.555, 0.04236687, 0.2624585, -843670.6, -15653.237, 0.0, 9.999762, 9.999658 
6.55053e+2, 2.2550981e+2, -769184.0, -805223.94, 48939.71, 0.019922206, 0.22304419, -735052.1, -5027.578, 0.0, 9.999982, 9.999516 
6.5506667e+2, 2.3550823e+2, -626058.75, -690362.4, 49112.137, 0.00693334, 0.10130726, -599510.1, 32527.229, 0.0, 10.000315, 9.999471 
6.550809e+2, 2.4550736e+2, -669803.75, -856459.0, -11706.83, 0.08650839, 0.1591647, -669072.4, -135022.95, 0.0, 10.00018, 9.997724 
6.5509564e+2, 2.5550696e+2, -636078.06, -770092.6, -57563.22, 0.246593, 0.33288255, -614747.94, -178686.52, 0.0, 9.999658, 9.997894 
6.551096e+2, 2.655058e+2, -333955.8, -304377.53, -14516.935, 0.2581532, 0.30233023, -298443.25, 39628.74, 0.0, 9.999895, 10.000307 
6.5512276e+2, 2.755039e+2, -120896.66, -163046.2, 42486.14, 0.1494143, 0.07129388, -94545.5, 145536.67, 0.0000000002377775, 10.000735, 10.000201 
6.5513575e+2, 2.8550312e+2, -93860.07, -375599.5, -45831.49, 0.139457, 0.10370874, -86592.01, 55498.582, 0.0000008000927, 10.001445, 9.997724 
6.551484e+2, 2.955031e+2, 76955.78, -242103.61, -74117.07, 0.20618191, 0.31515747, 93332.49, 137431.05, 0.0000102621225, 10.001937, 9.997732 
6.5516204e+2, 3.0550197e+2, 225019.33, -48401.254, 23531.854, 0.27527654, 0.38866872, 227029.8, 227029.8, 0.000043104363, 10.002205, 9.998601 
6.551747e+2, 3.154984e+2, 377182.97, 262714.16, 122712.06, 0.13549231, 0.15127958, 455351.78, 455351.78, 0.000108066146, 10.002201, 10.000737 
6.649083e+2, 1.254926e+2, -1768601.9, -1743231.8, -120579.27, 0.012320991, 0.25457415, -1634672.1, 75521.805, 0.00000000035571668, 9.999631, 9.999968 
6.6492116e+2, 1.3549155e+2, -1768109.6, -1668807.3, 65718.2, -0.2818595, 0.11786694, -1636092.6, -23887.287, 0.0, 9.998819, 10.000234 
6.649415e+2, 1.4549254e+2, -1635983.9, -1364122.0, -8525.803, 0.1705412, 0.118259445, -1363854.9, 150339.6, 0.0, 9.998281, 10.001879 
6.64955e+2, 1.5549596e+2, -1517584.8, -1264302.8, -73641.055, 0.1111712, 0.25445846, -1244448.3, 171709.61, 0.0, 9.998456, 10.001805 
6.649681e+2, 1.6549665e+2, -1485388.1, -1488940.6, -70899.15, 0.03522764, 0.27812865, -1416243.0, -98090.84, 0.0, 9.999244, 9.999215 
6.649822e+2, 1.7549494e+2, -1205091.3, -1290915.6, -42836.234, 0.049999867, 0.17441726, -1187370.1, 32802.71, 0.0, 10.000446, 9.99932 
6.649967e+2, 1.8549486e+2, -1009613.44, -980415.8, -2279.1377, 0.07529911, 0.16051541, -980239.0, 141934.39, 0.0, 10.000402, 10.000803 
6.6501135e+2, 1.9549604e+2, -1068464.8, -959073.44, -23542.117, 0.072257474, 0.1851609, -954222.06, 69935.98, 0.0, 9.999325, 10.000798 
6.650257e+2, 2.0549688e+2, -1072810.0, -998178.3, -40326.492, 0.08843683, 0.23208125, -980551.44, -54402.742, 0.0, 9.999004, 10.000008 
6.650399e+2, 2.1549729e+2, -929671.3, -879211.06, -20051.965, 0.131974, 0.26119095, -872213.25, -44067.56, 0.0, 9.999321, 9.999998 
6.6505355e+2, 2.2549662e+2, -820939.9, -864572.4, -538.45917, 0.08429041, 0.23760517, -820933.25, -90780.54, 0.0, 9.999776, 9.999207 
6.650664e+2, 2.3549499e+2, -645036.3, -730999.9, -24819.305, -0.045985706, 0.14123403, -638385.1, -6216.4717, 0.0, 10.000317, 9.999192 
6.6508114e+2, 2.45494e+2, -510008.97, -721550.56, -11267.337, 0.049710967, 0.17456755, -509410.53, 24770.402, 0.0, 10.001025, 9.998245 
6.6509724e+2, 2.5549343e+2, -277804.88, -544417.6, 76931.484, 0.33119872, 0.28098884, -257198.78, 178992.14, 0.0, 10.001884, 9.998375 
6.6511065e+2, 2.6549262e+2, -115130.42, -237305.16, 104923.35, 0.3001078, 0.27924842, -54807.01, 283391.56, 0.0, 10.00156, 9.999967 
6.6512185e+2, 2.7549148e+2, -213222.14, -242021.95, 22300.438, 0.013194875, 0.15829697, -201076.48, 39128.684, 0.0000000023427176, 10.000248, 9.999891 
6.6513556e+2, 2.8549054e+2, -245072.92, -441337.44, -29345.348, 0.032824818, 0.18907209, -240779.17, -98563.26, 0.0000014418595, 10.000374, 9.997788 
6.651511e+2, 2.954896e+2, 54624.99, -238891.81, 4227.5557, 0.30424595, 0.30183998, 54685.867, 98917.33, 0.000014782389, 10.001726, 9.997853 
6.651653e+2, 3.0548817e+2, 255597.6, -1035.7446, 35382.207, 0.38056982, 0.320362, 260386.4, 260386.4, 0.000056755354, 10.002283, 9.998888 
6.65176e+2, 3.1548643e+2, 381407.03, 298506.66, -7887.334, 0.05150355, 0.23964348, 382150.78, 382150.78, 0.00013493579, 10.002096, 10.001034 
6.749072e+2, 1.2547943e+2, -1764099.8, -1732557.1, -114382.76, -0.079655156, 0.41029, -1632863.5, 77462.48, 0.0000000023126079, 9.999639, 10.00003 
6.7492056e+2, 1.3547641e+2, -1765563.0, -1656980.9, 33950.754, -0.23145841, 0.063625984, -1647239.4, -34888.387, 0.0, 9.998807, 10.000313 
6.749405e+2, 1.4547648e+2, -1697331.1, -1494938.5, -10942.115, 0.23814759, 0.015778909, -1494348.6, 20000.273, 0.0, 9.998289, 10.00098 
6.749532e+2, 1.5547952e+2, -1569777.5, -1378868.6, -59894.625, 0.07396302, 0.20188124, -1361633.6, 54686.973, 0.0, 9.998479, 10.00101 
6.7496717e+2, 1.6548091e+2, -1424300.9, -1362281.4, -30799.328, 0.00048674902, 0.28948846, -1349585.3, -31275.717, 0.0, 9.999244, 10.000085 
6.749832e+2, 1.7548092e+2, -1148128.5, -1172018.9, 3778.0505, 0.0986644, 0.26905286, -1147545.3, 72767.695, 0.0, 10.000444, 10.000138 
6.749971e+2, 1.8548132e+2, -1036302.44, -1034401.75, -48675.184, 0.06281255, 0.28478393, -986667.6, 135641.0, 0.0, 10.000392, 10.00044 
6.7500883e+2, 1.9548196e+2, -1097117.8, -1009118.4, -57081.543, -0.114077516, 0.2901552, -981046.75, 43252.582, 0.0, 9.999285, 10.000474 
6.75023e+2, 2.0548226e+2, -1033754.2, -907130.7, -33207.32, -0.08668105, 0.26771533, -898950.44, 27343.291, 0.0, 9.998958, 10.000658 
6.7503923e+2, 2.1548225e+2, -892438.25, -792343.6, -3271.991, 0.122179374, 0.18846235, -792236.75, 36055.305, 0.0, 9.999278, 10.000616 
6.75054e+2, 2.2548218e+2, -863369.06, -939607.5, 15809.623, 0.14985082, 0.22149475, -860220.6, -129925.92, 0.0, 9.999721, 9.998717 
6.750675e+2, 2.3548196e+2, -677720.94, -786647.4, 2722.2217, 0.022800086, 0.31485468, -677652.94, -45350.938, 0.0, 10.000266, 9.998834 
6.750819e+2, 2.454814e+2, -346842.47, -372998.94, 16816.146, 0.014888982, 0.282063, -338617.6, 195688.06, 0.0, 10.000984, 10.000655 
6.75097e+2, 2.5548044e+2, -135414.55, -232743.39, 107055.1, 0.1081199, 0.10762199, -66482.12, 369825.25, 0.0, 10.001813, 10.000548 
6.7510974e+2, 2.6548043e+2, -270999.9, -547008.4, 49434.758, 0.04197098, 0.19424203, -262413.0, 75895.85, 0.0, 10.001502, 9.997866 
6.751205e+2, 2.7548113e+2, -351004.0, -524875.44, -17641.656, -0.16215058, 0.4642263, -349232.06, -108921.17, 0.0000000015372758, 10.0002365, 9.997953 
6.7513484e+2, 2.8547955e+2, -164249.39, -282818.34, 16316.855, -0.08785783, 0.46448767, -162044.92, -19716.18, 0.0000017821444, 10.00041, 9.99886 
6.751522e+2, 2.9547596e+2, 113519.586, -106485.52, 56415.047, 0.21899852, 0.20273894, 127142.35, 171503.06, 0.000018938657, 10.001678, 9.998787 
6.751674e+2, 3.054733e+2, 143228.52, -220344.63, 24435.541, 0.3513758, 0.13761665, 144863.45, 144863.45, 0.00007225524, 10.002226, 9.997404 
6.751782e+2, 3.1547335e+2, 251810.08, 39233.445, 8615.027, 0.03690185, 0.38635734, 252158.64, 252158.64, 0.00016863653, 10.002056, 9.999267 
6.8490696e+2, 1.2546466e+2, -1820962.6, -1730024.3, -40796.223, -0.03652761, 0.3721768, -1714405.1, -3935.8418, 0.0000000036242784, 9.999095, 10.000325 
6.8491995e+2, 1.3546243e+2, -1611411.1, -1548320.9, 58972.61, -0.20962408, 0.074311905, -1512986.6, 99497.98, 0.0, 9.999726, 10.000611 
6.8493944e+2, 1.454625e+2, -1551679.9, -1494977.6, 45654.047, 0.23595558, 0.04346419, -1469587.9, 44894.97, 0.0, 9.999582, 10.0003605 
6.849518e+2, 1.554643e+2, -1520900.5, -1421236.5, 12126.54, 0.059180394, 0.168777, -1419782.3, -3313.4167, 0.0, 9.9990835, 10.000436 
6.849659e+2, 1.6546564e+2, -1457143.6, -1323914.4, 67888.99, -0.022938132, 0.25109264, -1295416.3, 23042.432, 0.0, 9.998788, 10.000571 
6.849824e+2, 1.7546654e+2, -1376684.8, -1234188.1, 61012.035, 0.0656062, 0.2740069, -1211634.6, 8817.443, 0.0, 9.998666, 10.000573 
6.849967e+2, 1.8546697e+2, -1257925.6, -1170351.0, -17973.078, 0.0581864, 0.28573158, -1166805.9, -44359.03, 0.0, 9.999001, 10.000174 
6.850088e+2, 1.9546688e+2, -1053918.1, -1015613.75, -26655.086, -0.06259256, 0.24482016, -1001943.7, 22500.834, 0.0, 9.999706, 10.00022 
6.850227e+2, 2.0546679e+2, -931381.94, -896316.9, -23903.227, -0.05663113, 0.21069498, -884205.6, 42238.43, 0.0, 9.999829, 10.000309 
6.85038e+2, 2.1546665e+2, -885201.75, -823280.25, -77229.57, 0.06169255, 0.15316983, -771036.56, 57409.047, 0.0, 9.999473, 10.000311 
6.8505317e+2, 2.2546698e+2, -837600.6, -861233.8, -19843.707, 0.099374585, 0.2085436, -826321.7, -95877.28, 0.0, 9.999606, 9.999316 
6.8506813e+2, 2.3546757e+2, -655678.6, -711588.8, 36324.094, 0.066613995, 0.3237051, -637797.9, -5356.0874, 0.0, 10.000131, 9.999419 
6.8508244e+2, 2.4546726e+2, -526369.0, -455418.4, -23489.38, 0.03757803, 0.28611603, -448346.72, 86095.74, 0.0, 9.999729, 10.000696 
6.850962e+2, 2.554661e+2, -600781.8, -452059.66, -112571.57, 0.012511306, 0.089565314, -391506.22, 44940.582, 0.0, 9.998597, 10.000591 
6.851095e+2, 2.65466e+2, -607809.25, -704244.75, -134118.0, -0.011218536, 0.16330191, -513504.78, -175055.56, 0.0, 9.999168, 9.99791 
6.8512243e+2, 2.7546665e+2, -211309.88, -452267.56, -56662.324, -0.031029705, 0.4228461, -198650.55, 41800.637, 0.00000000039754933, 10.001171, 9.998004 
6.8513703e+2, 2.854651e+2, 3949.4548, -195299.23, 5604.884, 0.03269632, 0.42082903, 4106.996, 146574.75, 0.0000019350068, 10.001542, 9.998917 
6.851527e+2, 2.9546162e+2, -40774.645, -174550.47, -36655.652, 0.16668816, 0.16977583, -31389.168, 13107.965, 0.000022513892, 10.000595, 9.99884 
6.851683e+2, 3.0545893e+2, -49089.516, -330163.84, -21736.44, 0.2928467, 0.1040517, -47418.496, -47418.496, 0.000087464054, 10.000961, 9.997262 
6.851812e+2, 3.154593e+2, 239125.05, -27459.129, 54979.188, 0.136833, 0.3971984, 250018.56, 250018.56, 0.00020410729, 10.002213, 9.998736 
6.949073e+2, 1.2544824e+2, -1781557.3, -1640950.0, 3958.411, 0.059216715, 0.13336769, -1640838.6, 69785.45, 0.00000000017840025, 9.999082, 10.000931 
6.949192e+2, 1.3544974e+2, -1577419.9, -1474435.6, 81338.734, -0.264426, 0.1528307, -1429660.3, 182944.7, 0.0, 9.999724, 10.001111 
6.9493794e+2, 1.4545064e+2, -1571633.8, -1540579.4, 20534.271, 0.11581142, 0.19824876, -1530362.6, -15766.692, 0.0, 9.999599, 10.000039 
6.9495064e+2, 1.5545037e+2, -1537181.1, -1465700.0, 1307.4359, 0.016383365, 0.14924239, -1465676.1, -49074.19, 0.0, 9.999125, 10.000114 
6.949641e+2, 1.6545087e+2, -1454132.3, -1318870.8, 58054.24, -0.089478575, 0.16177353, -1297371.1, 21227.898, 0.0, 9.998795, 10.000601 
6.9497955e+2, 1.754519e+2, -1376980.0, -1231633.8, 62556.527, -0.0964275, 0.1941851, -1208417.9, 12171.39, 0.0, 9.9986515, 10.000597 
6.9499534e+2, 1.8545191e+2, -1270976.1, -1191867.4, 5203.691, 0.01195929, 0.16558062, -1191526.5, -68939.18, 0.0, 9.998976, 10.000037 
6.950111e+2, 1.954509e+2, -1072074.8, -1046712.6, 2835.1174, 0.18101151, 0.048606586, -1046399.56, -21806.299, 0.0, 9.999678, 10.00002 
6.950245e+2, 2.0545049e+2, -1031159.25, -1094559.9, -42523.742, 0.1309683, 0.06294145, -1009820.2, -83220.81, 0.0, 9.999791, 9.998966 
6.95036e+2, 2.1545048e+2, -977339.75, -1003631.44, -85109.4, -0.0937072, 0.15414648, -904366.94, -75760.46, 0.0, 9.999425, 9.999096 
6.950507e+2, 2.2545101e+2, -728230.4, -621408.2, -3949.717, -0.10902522, 0.19969013, -621262.4, 109339.21, 0.0, 9.999554, 10.000987 
6.9506806e+2, 2.3545185e+2, -561959.8, -499629.6, 58118.434, 0.043110818, 0.17302856, -464847.63, 167740.11, 0.0, 10.000058, 10.000908 
6.950826e+2, 2.4545164e+2, -688793.9, -781316.7, -70612.85, 0.07137313, 0.19130264, -650637.94, -116047.35, 0.0, 9.999682, 9.998482 
6.9509465e+2, 2.554505e+2, -743748.1, -745593.1, -144226.58, -0.0054833707, 0.21565367, -600441.06, -163832.83, 0.0, 9.998583, 9.998583 
6.951098e+2, 2.654494e+2, -462484.75, -402507.0, -60211.246, 0.09323679, 0.17953506, -365229.78, -26611.264, 0.0, 9.99917, 9.999979 
6.951275e+2, 2.7544826e+2, -84569.53, -178046.88, 19086.998, 0.3464271, 0.056721296, -80822.39, 159801.47, 0.0000000054780975, 10.001123, 9.99991 
6.951417e+2, 2.854474e+2, -65224.51, -332045.0, -35312.36, 0.3332451, 0.07895155, -60630.203, 82001.06, 0.000002355568, 10.001511, 9.997992 
6.951526e+2, 2.9544666e+2, -100008.67, -295216.56, -60314.168, 0.079362094, 0.19216079, -82876.71, -38235.805, 0.000026314181, 10.000583, 9.998018 
6.9516796e+2, 3.0544493e+2, 28705.184, -164623.44, 23999.545, 0.15283066, 0.2021359, 31639.904, 31639.904, 0.00010198075, 10.000956, 9.998398 
6.9518495e+2, 3.1544438e+2, 274377.44, 56863.22, 121197.66, 0.25841156, 0.29027987, 328460.66, 328460.66, 0.00023747227, 10.002174, 9.999331 
7.0490766e+2, 1.254327e+2, -1722849.3, -1639205.6, -14643.366, 0.17192037, 0.048216462, -1636716.1, 74057.82, 0.0, 9.999581, 10.000714 
7.049186e+2, 1.3543491e+2, -1792688.0, -1609428.9, -54061.875, -0.2235137, 0.17083937, -1594669.3, 18082.467, 0.0, 9.998373, 10.00084 
7.049365e+2, 1.454363e+2, -1791654.4, -1601195.9, -89502.805, 0.10126505, 0.25624686, -1565737.1, -50998.44, 0.0, 9.997896, 10.000445 
7.049495e+2, 1.5543598e+2, -1612209.5, -1453174.9, -61577.688, 0.03754288, 0.1598208, -1432119.8, -15376.491, 0.0, 9.998421, 10.000528 
7.049631e+2, 1.6543627e+2, -1458701.5, -1338149.3, 24237.596, -0.072560154, 0.14146316, -1333458.6, -14717.672, 0.0, 9.99884, 10.0004425 
7.049781e+2, 1.7543694e+2, -1329507.3, -1223737.4, 5601.457, -0.12275153, 0.15486316, -1223441.5, -2707.5862, 0.0, 9.999048, 10.000456 
7.0499426e+2, 1.854369e+2, -1217579.8, -1167708.6, -24533.07, -0.0091028465, 0.12887575, -1157663.4, -34930.797, 0.0, 9.999349, 10.000023 
7.0501107e+2, 1.9543606e+2, -1062308.6, -1046107.4, -28572.537, 0.20778511, 0.03089523, -1024509.4, 228.16183, 0.0, 9.999754, 9.999992 
7.0502454e+2, 2.054357e+2, -1033906.4, -1112086.3, -41181.535, 0.15549041, 0.05840296, -1016216.56, -89473.016, 0.0, 9.999843, 9.998825 
7.0503527e+2, 2.1543565e+2, -955738.1, -1005713.06, -2391.3472, -0.1125364, 0.15955232, -955624.0, -126872.914, 0.0, 9.999632, 9.998982 
7.0504993e+2, 2.2543609e+2, -751977.94, -599649.44, 81818.48, -0.12730211, 0.18659046, -564031.5, 166714.44, 0.0, 9.999249, 10.00128 
7.0506763e+2, 2.3543681e+2, -738252.75, -555317.56, 34386.613, 0.06603715, 0.11836756, -549067.4, 83664.04, 0.0, 9.998725, 10.001165 
7.050826e+2, 2.4543665e+2, -778501.0, -870277.75, -51580.035, 0.12840839, 0.1507453, -755351.4, -220616.9, 0.0, 9.999264, 9.998071 
7.050952e+2, 2.5543568e+2, -460900.34, -651705.44, 503.11185, 0.080102526, 0.23191069, -460899.03, -24145.814, 0.0, 10.000708, 9.998201 
7.051107e+2, 2.6543444e+2, -182793.38, -266827.16, 89790.31, 0.175927, 0.19515626, -125675.414, 213090.28, 0.0, 10.001091, 9.999987 
7.051289e+2, 2.7543285e+2, -164516.44, -213774.84, 7958.8027, 0.40408465, 0.025795162, -163262.44, 77511.555, 0.000000016182126, 10.000567, 9.999929 
7.0514286e+2, 2.854318e+2, -198498.58, -405307.56, -101367.625, 0.35476184, 0.035181765, -157100.16, -14317.562, 0.0000029996863, 10.000631, 9.997913 
7.051532e+2, 2.954311e+2, -19124.566, -263561.28, -72011.38, 0.06264733, 0.1618686, 512.5188, 45304.438, 0.000030264622, 10.001168, 9.997953 
7.0516884e+2, 3.0542982e+2, 144864.69, -140088.33, 42146.805, 0.09650099, 0.22770028, 150967.81, 150967.81, 0.00011479558, 10.001885, 9.998122 
7.0518684e+2, 3.1542864e+2, 316754.97, 19598.783, 28806.652, 0.2117385, 0.28811082, 319521.75, 319521.75, 0.0002649436, 10.002712, 9.99882 
7.149078e+2, 1.2541798e+2, -1788879.5, -1781056.1, -44102.97, 0.20803015, 0.118241854, -1740691.8, -29772.537, 0.0, 9.999608, 9.999723 
7.14918e+2, 1.3541783e+2, -1862211.5, -1760227.1, -98583.22, -0.13277528, 0.11549241, -1700229.0, -87303.12, 0.0, 9.9984, 9.999793 
7.1493495e+2, 1.4541939e+2, -1709371.3, -1433073.8, -79482.28, 0.14490278, 0.20921922, -1411840.9, 103070.914, 0.0, 9.99791, 10.001591 
7.149485e+2, 1.5542106e+2, -1535240.9, -1296251.6, -36484.105, 0.07720602, 0.19879067, -1290806.0, 126086.96, 0.0, 9.998426, 10.001606 
7.1496254e+2, 1.654218e+2, -1483953.6, -1384972.9, 28571.225, -0.017608572, 0.18834312, -1377317.6, -58432.83, 0.0, 9.998819, 10.000131 
7.149779e+2, 1.754217e+2, -1350347.1, -1268829.5, 19327.467, -0.055591054, 0.1561296, -1264479.3, -43593.4, 0.0, 9.999057, 10.000143 
7.149933e+2, 1.8542199e+2, -1212327.9, -1153904.6, -13494.032, -0.04946814, 0.17308347, -1150938.5, -28056.049, 0.0, 9.999336, 10.000124 
7.1500856e+2, 1.9542243e+2, -1059238.4, -1027321.9, -8285.382, -0.02948881, 0.19082768, -1025299.2, -422.26404, 0.0, 9.999702, 10.000145 
7.1502256e+2, 2.0542249e+2, -969939.8, -965619.56, -53727.08, -0.02920748, 0.20067562, -914009.2, 12866.654, 0.0, 9.999787, 9.999854 
7.150357e+2, 2.1542215e+2, -900496.8, -875073.5, -8597.388, -0.042242493, 0.16941571, -872439.1, -43559.55, 0.0, 9.999569, 9.999907 
7.150505e+2, 2.254222e+2, -832146.56, -753206.1, 56790.15, 0.002576802, 0.16887552, -723517.0, 7360.8286, 0.0, 9.999191, 10.000256 
7.1506673e+2, 2.3542249e+2, -807257.7, -690348.06, 22336.934, 0.09037832, 0.16020247, -686225.7, -53353.18, 0.0, 9.998688, 10.000257 
7.150823e+2, 2.4542233e+2, -689041.8, -677478.0, -2378.9243, 0.16074336, 0.16469993, -677007.75, -142133.7, 0.0, 9.999233, 9.99941 
7.1509737e+2, 2.554217e+2, -383588.3, -481728.78, 53392.875, 0.21792758, 0.14713718, -360141.75, 76740.58, 0.0, 10.00067, 9.999387 
7.1511215e+2, 2.6542103e+2, -321172.4, -549196.1, 64555.863, 0.1932271, 0.212384, -304164.56, 34727.01, 0.0, 10.001067, 9.998059 
7.151265e+2, 2.754202e+2, -298883.63, -480631.0, -2936.0352, 0.098853916, 0.31014547, -298836.22, -57933.15, 0.000000020828322, 10.000513, 9.998123 
7.151407e+2, 2.8541815e+2, -149274.83, -299266.84, -84014.695, 0.060538862, 0.2700404, -111652.59, 31270.33, 0.0000037479972, 10.000614, 9.998652 
7.151545e+2, 2.954151e+2, 23221.428, -173646.58, -45265.61, 0.06463782, 0.08780967, 33130.53, 78080.41, 0.000034324887, 10.0011635, 9.998574 
7.151705e+2, 3.0541363e+2, 37604.99, -364879.7, 70748.16, 0.0717832, 0.19113198, 49678.797, 49678.797, 0.00012562028, 10.001893, 9.9965725 
7.151865e+2, 3.1541246e+2, 198406.28, -205654.48, 82649.42, -0.12101831, 0.40172458, 214658.3, 214658.3, 0.00028501154, 10.002628, 9.997307 
7.2490627e+2, 1.2540424e+2, -1885526.6, -1793507.6, 8476.7, 0.138229, 0.21119967, -1792733.3, -81675.766, 0.0, 9.998771, 10.000058 
7.2491693e+2, 1.3540362e+2, -1892762.1, -1751744.8, 16269.974, -0.062519565, 0.1427914, -1749891.9, -136825.2, 0.0, 9.998099, 9.999994 
7.249332e+2, 1.4540495e+2, -1699172.9, -1467018.5, 92266.7, 0.17580049, 0.21989647, -1434815.4, 80239.336, 0.0, 9.998145, 10.001247 
7.249466e+2, 1.5540636e+2, -1490110.3, -1308196.3, 13997.9, 0.029985312, 0.2152785, -1307125.5, 109914.266, 0.0, 9.998881, 10.001304 
7.249614e+2, 1.6540714e+2, -1414719.3, -1326233.0, 40608.5, -0.023598414, 0.21356605, -1310421.9, 8608.668, 0.0, 9.999177, 10.000365 
7.2497827e+2, 1.754074e+2, -1326347.0, -1230367.1, 63101.664, 0.07367075, 0.19039683, -1199080.0, 21946.516, 0.0, 9.9991045, 10.000384 
7.2499347e+2, 1.854078e+2, -1261391.4, -1183071.0, 53702.496, 0.052249867, 0.21076845, -1155767.1, -32745.457, 0.0, 9.999019, 10.000079 
7.250071e+2, 1.9540815e+2, -1176545.9, -1086873.5, 40190.62, -0.0931097, 0.22602886, -1071496.9, -46478.992, 0.0, 9.998907, 10.00012 
7.250215e+2, 2.0540823e+2, -1046054.9, -962503.94, -28219.402, -0.07884121, 0.21859118, -953865.9, -26850.525, 0.0, 9.999092, 10.000212 
7.2503644e+2, 2.1540792e+2, -885620.56, -836942.5, -41973.785, 0.07801154, 0.15583938, -812761.56, 16253.7295, 0.0, 9.999525, 10.0001955 
7.250511e+2, 2.254075e+2, -805682.94, -824365.6, 10025.396, 0.113502406, 0.13179718, -801321.4, -70302.875, 0.0, 9.999734, 9.999505 
7.250654e+2, 2.3540692e+2, -698126.1, -715546.75, -12978.407, 0.043055866, 0.11141449, -691206.06, -58181.0, 0.0, 9.999774, 9.999559 
7.250813e+2, 2.4540675e+2, -511320.47, -532010.56, -4486.0215, 0.093391836, 0.121514216, -510389.7, 24636.584, 0.0, 10.000199, 9.999941 
7.250984e+2, 2.5540686e+2, -306280.44, -389321.3, -17542.672, 0.2435981, 0.12554446, -302726.6, 134297.3, 0.0, 10.00096, 9.999883 
7.251131e+2, 2.6540646e+2, -382228.25, -592900.3, -23834.984, 0.20761636, 0.20128155, -379565.25, -40535.254, 0.0, 10.000713, 9.997928 
7.2512573e+2, 2.754055e+2, -438360.72, -560430.7, 31975.102, 0.017192256, 0.29813072, -430492.3, -189447.58, 0.000000011844985, 9.999616, 9.998006 
7.2514045e+2, 2.854034e+2, -204779.55, -333335.22, 70233.98, -0.006342522, 0.2627792, -173849.97, -30783.918, 0.0000046664522, 10.000272, 9.998578 
7.251567e+2, 2.9540035e+2, 202851.4, -97357.93, 39287.95, 0.1082471, 0.08618609, 207907.8, 253001.33, 0.00003902921, 10.002441, 9.998483 
7.251735e+2, 3.0539912e+2, 167677.19, -330940.03, 132700.66, 0.12353357, 0.23179245, 200794.22, 200794.22, 0.00013569239, 10.0029125, 9.996316 
7.2518885e+2, 3.1539732e+2, 85764.79, -260590.1, 222377.39, -0.09955662, 0.40187046, 194442.14, 194442.14, 0.0002996597, 10.001835, 9.997322 
7.3490274e+2, 1.2539154e+2, -1760016.6, -1531789.4, -11215.469, -0.11551199, 0.33309633, -1531239.5, 179948.52, 0.0, 9.9987755, 10.001846 
7.349152e+2, 1.3539246e+2, -1789904.6, -1539804.3, -4432.508, -0.0553785, 0.25659776, -1539725.8, 73446.84, 0.0, 9.998103, 10.001447 
7.3493123e+2, 1.4539303e+2, -1832844.6, -1736363.6, 117240.89, 0.146376, 0.28392795, -1657826.5, -142659.9, 0.0, 9.99812, 9.999405 
7.3494375e+2, 1.5539184e+2, -1613143.9, -1566250.4, 48356.1, -0.15945849, 0.20631309, -1535956.5, -118773.33, 0.0, 9.998897, 9.999523 
7.349596e+2, 1.6539228e+2, -1355778.5, -1207620.0, 31957.154, -0.13922063, 0.21240884, -1201021.0, 118157.4, 0.0, 9.999191, 10.001173 
7.349789e+2, 1.7539403e+2, -1273970.1, -1118478.3, 65013.04, 0.2265531, 0.25862935, -1094877.6, 126278.12, 0.0, 9.999089, 10.001162 
7.349946e+2, 1.8539436e+2, -1278692.1, -1211272.0, 46164.844, 0.2546133, 0.24450126, -1187819.4, -64669.492, 0.0, 9.998988, 9.9999 
7.3500675e+2, 1.9539337e+2, -1198003.3, -1117217.1, 41699.37, -0.03045411, 0.14274782, -1099554.8, -74394.92, 0.0, 9.998854, 9.999934 
7.3502105e+2, 2.0539303e+2, -1072495.4, -1008752.3, -16120.768, -0.038802113, 0.11798233, -1004907.3, -77745.95, 0.0, 9.99905, 9.999917 
7.350372e+2, 2.1539308e+2, -910006.75, -879222.75, -21719.42, 0.19787376, 0.119216025, -867994.3, -38837.01, 0.0, 9.999489, 9.999921 
7.350514e+2, 2.253921e+2, -848759.06, -903434.75, 5955.2896, 0.15981492, 0.08067011, -848117.94, -116951.31, 0.0, 9.999688, 9.998984 
7.350637e+2, 2.3539014e+2, -741696.3, -794428.4, -6349.3066, -0.11885125, -0.02840815, -740942.6, -107753.92, 0.0, 9.999723, 9.9990425 
7.3507947e+2, 2.4538997e+2, -532762.5, -567680.3, 20624.152, -0.119487695, 0.019430274, -523199.75, 11991.101, 0.0, 10.000162, 9.999714 
7.350982e+2, 2.5539127e+2, -325871.53, -414467.97, 13557.78, 0.11823623, 0.16514885, -323843.22, 113333.79, 0.0, 10.0008955, 9.999741 
7.351136e+2, 2.653909e+2, -278874.38, -368598.28, -68755.695, 0.18129362, 0.16976269, -241639.19, 97540.41, 0.0, 10.000672, 9.999488 
7.3512626e+2, 2.7538896e+2, -335190.8, -348460.75, -855.9169, 0.09957308, 0.0125162555, -335135.8, -93937.984, 0.000000051096855, 9.999624, 9.999458 
7.351418e+2, 2.8538764e+2, -256267.81, -445076.56, 145825.73, 0.0909392, 0.024362832, -176955.95, -33743.883, 0.0000058850314, 10.000294, 9.997799 
7.3515964e+2, 2.9538688e+2, 143599.38, -205832.2, 121985.305, 0.13350071, 0.15445235, 181970.48, 227193.66, 0.000043358832, 10.002381, 9.997764 
7.351771e+2, 3.0538625e+2, 220207.75, -210362.16, 90791.34, 0.1933453, 0.3495712, 238569.28, 238569.28, 0.00014281429, 10.002865, 9.997166 
7.351935e+2, 3.1538323e+2, 167348.5, -69798.19, 196674.44, 0.15300153, 0.31464636, 278428.1, 278428.1, 0.00030710292, 10.001755, 9.998665 
7.449e+2, 1.2537679e+2, -2117286.8, -1638550.6, -27423.26, -0.12726894, 0.32565334, -1636984.9, 74348.35, 0.0, 9.996039, 10.002432 
7.449137e+2, 1.3537824e+2, -1788334.1, -1485636.4, -134116.3, -0.0060691442, 0.25803357, -1434763.4, 178547.03, 0.0, 9.997895, 10.001912 
7.4492955e+2, 1.4537878e+2, -1777404.6, -1719463.5, 17056.277, 0.15675882, 0.2645099, -1714815.5, -199512.44, 0.0, 9.998537, 9.99932 
7.449425e+2, 1.5537724e+2, -1716504.5, -1626819.4, 72576.266, -0.13677105, 0.15744454, -1586349.8, -169027.75, 0.0, 9.998232, 9.999428 
7.4495846e+2, 1.6537741e+2, -1489418.9, -1305489.0, 86583.45, -0.13076764, 0.15840985, -1271143.9, 48175.77, 0.0, 9.998416, 10.000878 
7.4497765e+2, 1.7537896e+2, -1299401.4, -1161898.5, 27068.867, 0.1901186, 0.21426232, -1156761.6, 64538.387, 0.0, 9.999043, 10.000887 
7.4499357e+2, 1.8537913e+2, -1248088.0, -1210565.8, -32718.357, 0.24709085, 0.2013577, -1191611.3, -68314.63, 0.0, 9.999258, 9.999775 
7.450066e+2, 1.9537795e+2, -1166703.0, -1117935.0, -40274.152, 0.054120205, 0.09241959, -1095238.4, -69929.68, 0.0, 9.999127, 9.999801 
7.45021e+2, 2.0537747e+2, -1022344.8, -1000592.4, -54276.21, 0.030358994, 0.069213904, -956113.4, -28801.445, 0.0, 9.999465, 9.99977 
7.4503666e+2, 2.1537754e+2, -812183.4, -847460.3, -59476.543, 0.15847242, 0.087274805, -767785.0, 61523.563, 0.0, 10.000232, 9.99978 
7.4505115e+2, 2.2537684e+2, -744995.8, -870069.8, -30751.666, 0.13537787, 0.09266909, -737843.94, -6527.8696, 0.0, 10.000473, 9.9988365 
7.450645e+2, 2.3537543e+2, -679817.1, -782192.6, -24801.938, -0.025862232, 0.053939365, -674124.94, -40790.85, 0.0, 10.000217, 9.998893 
7.450801e+2, 2.4537481e+2, -571597.06, -596869.94, 43340.824, -0.050446507, 0.06907697, -539088.1, -3747.7202, 0.0, 9.999939, 9.999622 
7.450977e+2, 2.5537482e+2, -503252.84, -509250.0, 34717.695, 0.043753892, 0.09651638, -471404.47, -34066.94, 0.0, 9.999716, 9.99966 
7.4511343e+2, 2.653744e+2, -296667.06, -351012.5, -86589.42, 0.1092321, 0.0844937, -233086.9, 106253.36, 0.0, 10.000435, 9.999726 
7.451276e+2, 2.753734e+2, 21358.313, -152631.58, -121474.414, 0.15752143, 0.0055684326, 83776.06, 325125.0, 0.00000017449423, 10.00197, 9.999676 
7.45144e+2, 2.8537238e+2, 39857.832, -330650.38, 29083.203, 0.17663075, 0.044583295, 42126.836, 185488.39, 0.0000070142673, 10.002451, 9.997546 
7.4516207e+2, 2.9537112e+2, 79406.97, -260622.66, 30558.87, 0.16432095, 0.15228848, 82131.5, 127509.875, 0.000045203302, 10.002043, 9.99755 
7.4517936e+2, 3.0537003e+2, 99174.1, -194100.08, -32830.656, 0.19330418, 0.27857226, 102804.4, 102804.4, 0.00014394909, 10.001707, 9.99784 
7.4519527e+2, 3.153673e+2, 173787.45, 50183.99, 44726.934, 0.18931651, 0.20520018, 188274.33, 188274.33, 0.00030552503, 10.00129, 9.999717 
7.548977e+2, 1.2535997e+2, -2171645.5, -1733538.8, 30331.611, 0.024001796, 0.18753262, -1731448.8, -19955.725, 0.0, 9.995974, 10.001808 
7.5491214e+2, 1.3536087e+2, -1834337.8, -1578338.3, -65768.64, 0.040647767, 0.13686061, -1562430.3, 51051.258, 0.0, 9.997889, 10.001277 
7.5492835e+2, 1.453621e+2, -1652238.9, -1464424.4, -1468.343, 0.16539721, 0.15131946, -1464412.9, 51052.62, 0.0, 9.998552, 10.001066 
7.549428e+2, 1.5536258e+2, -1601758.0, -1387120.3, 68433.5, 0.05265739, 0.074964754, -1367158.0, 50297.547, 0.0, 9.998223, 10.00108 
7.549578e+2, 1.6536263e+2, -1588557.6, -1508738.4, 105646.85, -0.046360336, 0.054501813, -1435714.3, -116260.734, 0.0, 9.998405, 9.999488 
7.5497407e+2, 1.7536227e+2, -1397895.6, -1362569.1, 54867.56, -0.08111932, 0.061441667, -1322591.8, -101133.31, 0.0, 9.999028, 9.999517 
7.549903e+2, 1.853621e+2, -1253295.9, -1216675.9, -42419.004, -0.019370807, 0.08394813, -1188783.8, -65322.504, 0.0, 9.999238, 9.9997425 
7.5500643e+2, 1.953619e+2, -1177030.5, -1126791.3, -38755.79, 0.11238784, 0.07588635, -1105726.4, -80262.195, 0.0, 9.999077, 9.9997635 
7.5502104e+2, 2.0536165e+2, -1030187.0, -1008773.8, -30863.037, 0.083248496, 0.07987047, -986813.0, -59346.77, 0.0, 9.999427, 9.999734 
7.550346e+2, 2.1536131e+2, -822737.56, -854431.06, -28132.191, -0.07893088, 0.059475776, -806295.94, 23172.662, 0.0, 10.000168, 9.999763 
7.550503e+2, 2.2536178e+2, -741521.56, -843903.2, -44096.566, -0.004505553, 0.16969094, -725147.5, 6318.649, 0.0, 10.000394, 9.999054 
7.550678e+2, 2.3536283e+2, -672433.75, -754963.06, -29381.95, 0.27062464, 0.3570309, -663042.0, -29580.951, 0.0, 10.00017, 9.999102 
7.550832e+2, 2.4536136e+2, -574939.6, -599312.8, 29123.05, 0.24679488, 0.2767465, -555556.25, -20081.883, 0.0, 9.99992, 9.999614 
7.5509673e+2, 2.5535756e+2, -507584.1, -517269.13, 31899.691, -0.033191856, -0.07637602, -480161.44, -42656.19, 0.0, 9.999709, 9.999608 
7.5511223e+2, 2.6535693e+2, -368533.53, -496252.22, -31929.604, -0.059436377, -0.053992566, -360996.0, -21484.254, 0.0, 10.000421, 9.998733 
7.551295e+2, 2.7535892e+2, -52755.426, -294990.4, -59048.992, 0.1390824, 0.2605545, -39127.86, 202370.17, 0.0000002213921, 10.001923, 9.998719 
7.5514686e+2, 2.853576e+2, 49334.832, -306535.7, 11308.4795, 0.20471926, 0.31289136, 49693.82, 193207.8, 0.000006955663, 10.002427, 9.9977255 
7.551641e+2, 2.9535332e+2, 89052.07, -234078.89, 22576.352, 0.1492515, 0.098299794, 90621.8, 136178.56, 0.000043838252, 10.002007, 9.997754 
7.5518e+2, 3.0535078e+2, 132032.33, -114166.625, -47797.473, 0.07296658, 0.037932355, 140986.17, 140986.17, 0.0001394824, 10.001669, 9.998401 
7.551941e+2, 3.1534943e+2, 231474.4, 174310.3, 44549.863, -0.07936455, 0.045886174, 255822.72, 255822.72, 0.0002957357, 10.001277, 10.000574 
7.6489484e+2, 1.2534356e+2, -2110885.5, -1726412.1, 52432.73, 0.123314835, 0.12973295, -1719389.9, -7739.681, 0.0, 9.99646, 10.001624 
7.649096e+2, 1.3534462e+2, -2038979.3, -1707516.1, -28325.223, 0.06666762, 0.12045955, -1705113.0, -91472.875, 0.0, 9.996601, 10.001015 
7.6492614e+2, 1.4534585e+2, -1794007.1, -1488846.6, -3960.8862, 0.15260501, 0.12660775, -1488795.3, 26828.896, 0.0, 9.997389, 10.00146 
7.649421e+2, 1.5534653e+2, -1466279.0, -1281189.5, -48772.285, 0.14056134, 0.030721067, -1269124.3, 148485.5, 0.0, 9.998973, 10.001448 
7.6495725e+2, 1.6534652e+2, -1440883.4, -1464517.6, -19467.54, 0.010052391, -0.00089042244, -1429927.1, -110319.26, 0.0, 9.9995365, 9.999248 
7.649721e+2, 1.7534587e+2, -1389621.0, -1383314.9, 8059.5273, -0.18316925, -0.0005495028, -1377813.6, -156196.61, 0.0, 9.999193, 9.999295 
7.6498854e+2, 1.853457e+2, -1248458.4, -1237877.5, -40724.133, -0.12452294, 0.042378698, -1202101.6, -78480.74, 0.0, 9.9993725, 9.999533 
7.650062e+2, 1.9534573e+2, -1053877.3, -1089631.8, -58891.297, 0.13934259, 0.0811872, -1010209.5, 15412.6455, 0.0, 10.000017, 9.999566 
7.650213e+2, 2.053455e+2, -955657.2, -984729.0, -55616.273, 0.13997261, 0.10058926, -912708.6, 14916.406, 0.0, 9.999992, 9.999627 
7.650343e+2, 2.153449e+2, -945523.8, -926208.56, -67984.484, -0.08392327, 0.06841926, -867199.2, -37568.656, 0.0, 9.999374, 9.999655 
7.6505023e+2, 2.2534521e+2, -842309.06, -877199.4, -69922.89, -0.009173062, 0.15948914, -787688.0, -56058.574, 0.0, 9.99964, 9.999187 
7.6506865e+2, 2.353462e+2, -594020.2, -703774.7, -73247.25, 0.31841528, 0.3283494, -557373.3, 76250.23, 0.0, 10.000656, 9.999217 
7.6508427e+2, 2.4534495e+2, -414633.4, -535006.56, -33470.523, 0.31089616, 0.27087694, -405952.72, 129682.57, 0.0, 10.001075, 9.9995 
7.650975e+2, 2.553417e+2, -336176.38, -446580.38, -45018.434, 0.012153688, -0.016328067, -320146.9, 117516.35, 0.0, 10.000948, 9.999495 
7.6511323e+2, 2.6534095e+2, -275419.6, -490478.22, -36108.816, -0.046691492, 0.019346217, -269518.75, 70153.52, 0.0, 10.001233, 9.998381 
7.651311e+2, 2.753422e+2, -83040.64, -344029.22, -30348.037, 0.10925214, 0.29501328, -79558.21, 162108.2, 0.00000016204108, 10.001866, 9.998407 
7.651487e+2, 2.853411e+2, 22788.656, -261294.53, 33791.523, 0.17417791, 0.3594169, 26752.82, 170432.11, 0.0000062859385, 10.001995, 9.998245 
7.6516587e+2, 2.9533798e+2, 69801.34, -185021.34, 61023.965, 0.15491877, 0.2063916, 83661.28, 129370.34, 0.000041485197, 10.001635, 9.998266 
7.651819e+2, 3.0533445e+2, 170698.56, -136204.5, 4087.9695, 0.081810854, 0.040463395, 170753.0, 170753.0, 0.00013263787, 10.002105, 9.998041 
7.651966e+2, 3.1533185e+2, 472339.0, 252484.25, 10776.058, -0.048871268, -0.04005655, 472865.9, 472865.9, 0.0002807991, 10.003112, 10.000219 
7.74891e+2, 1.2532772e+2, -2095164.5, -1687090.5, 37227.59, 0.059330683, 0.15460657, -1683722.1, 28081.404, 0.00000000003061157, 9.996438, 10.001903 
7.749058e+2, 1.3532963e+2, -2032271.3, -1688605.3, -20473.479, 0.018366238, 0.2136653, -1687389.9, -73604.74, 0.0, 9.996582, 10.001151 
7.749228e+2, 1.4533018e+2, -1864346.5, -1634458.3, 48802.664, 0.06339368, 0.19405574, -1624527.1, -108749.16, 0.0, 9.997384, 10.000466 
7.7494067e+2, 1.5532915e+2, -1529436.1, -1417663.0, 13679.711, 0.0806941, 0.03038383, -1416013.1, 1770.9296, 0.0, 9.99899, 10.000506 
7.749567e+2, 1.6532908e+2, -1374346.9, -1325757.3, -37982.395, -0.0110733155, -0.008266363, -1304964.4, 14818.022, 0.0, 9.999535, 10.000197 
7.7497166e+2, 1.7532976e+2, -1327385.9, -1252198.3, 1688.0004, -0.15934452, 0.02669451, -1252160.4, -30385.184, 0.0, 9.999183, 10.0002 
7.7498806e+2, 1.8532993e+2, -1278762.1, -1293833.9, -20599.334, -0.116329536, 0.07951714, -1264363.5, -140588.64, 0.0, 9.999341, 9.999165 
7.750058e+2, 1.9532952e+2, -1084853.6, -1144823.0, -30853.885, 0.08708731, 0.11039053, -1071814.6, -46032.508, 0.0, 9.999973, 9.99921 
7.750215e+2, 2.0532905e+2, -979324.8, -1018093.4, -84681.84, 0.15097927, 0.13305384, -911837.0, 15950.979, 0.0, 9.999928, 9.999428 
7.750355e+2, 2.1532838e+2, -967302.25, -958837.6, -85041.83, 0.093615934, 0.1135873, -877922.9, -48128.875, 0.0, 9.999324, 9.999454 
7.750507e+2, 2.2532725e+2, -849124.7, -877905.9, -37180.32, 0.06944666, 0.070802666, -823647.2, -91842.4, 0.0, 9.999582, 9.999211 
7.75067e+2, 2.3532556e+2, -599371.06, -704411.0, -31009.87, 0.07710136, -0.030499497, -590899.56, 42921.727, 0.0, 10.0006075, 9.999238 
7.750833e+2, 2.4532562e+2, -436972.9, -568205.6, -43205.953, 0.09927501, 0.05051962, -424025.53, 111797.46, 0.0, 10.001022, 9.999297 
7.7509975e+2, 2.5532714e+2, -354567.22, -477399.22, -43734.54, 0.13469782, 0.2631143, -340586.72, 97225.445, 0.0, 10.000916, 9.999299 
7.75116e+2, 2.6532635e+2, -265732.13, -464621.8, -15517.982, 0.1021377, 0.29452854, -264528.66, 75293.92, 0.0, 10.0012045, 9.998573 
7.751321e+2, 2.7532333e+2, -72567.15, -315319.63, -2514.5557, 0.017233193, 0.12256335, -72541.1, 169312.47, 0.00000014054619, 10.001828, 9.998628 
7.7514935e+2, 2.853229e+2, 79593.805, -133773.94, 15417.085, 0.029793302, 0.19301645, 80702.02, 224559.81, 0.000005985507, 10.001958, 9.999136 
7.7516735e+2, 2.953247e+2, 126113.27, -69748.02, 53575.47, 0.12665087, 0.44507545, 139810.33, 185649.48, 0.000039454848, 10.001638, 9.999057 
7.7518487e+2, 3.0532068e+2, 81407.01, -318401.25, 39819.03, 0.16332628, 0.2598386, 85334.22, 85334.22, 0.00012495591, 10.002091, 9.996796 
7.752019e+2, 3.1531447e+2, 357438.22, 23160.686, 63843.58, 0.14209352, -0.058558214, 369216.66, 369216.66, 0.00026321306, 10.00306, 9.9986725 
7.8488755e+2, 1.253113e+2, -2041063.5, -1669877.8, 55552.37, 0.06472382, 0.13677163, -1661742.0, 50218.875, 0.0000000009851104, 9.996847, 10.001824 
7.8490347e+2, 1.3531268e+2, -1856105.3, -1617534.9, -37382.176, 0.06829594, 0.15586054, -1611814.5, 2132.3994, 0.0, 9.997857, 10.0010195 
7.849206e+2, 1.4531304e+2, -1723573.8, -1616504.9, 73055.39, 0.05739267, 0.14748241, -1579468.8, -63525.37, 0.0, 9.998569, 10.000015 
7.84939e+2, 1.5531252e+2, -1554091.3, -1477736.0, 67818.3, 0.01589843, 0.08104026, -1438087.9, -20139.1, 0.0, 9.999037, 10.000068 
7.84956e+2, 1.6531266e+2, -1438966.4, -1352194.9, -42529.902, -0.008569852, 0.08180793, -1334826.1, -14879.028, 0.0, 9.999074, 10.000235 
7.8497237e+2, 1.7531323e+2, -1391334.3, -1275209.5, -81701.734, 0.017611193, 0.101950355, -1233040.1, -11099.682, 0.0, 9.998721, 10.000257 
7.8498846e+2, 1.8531328e+2, -1328715.6, -1284704.4, -65327.516, 0.018253386, 0.124584116, -1237775.8, -113835.55, 0.0, 9.998851, 9.999467 
7.850044e+2, 1.9531274e+2, -1158508.9, -1146776.0, -35625.54, -0.011420354, 0.11224912, -1116537.1, -90590.266, 0.0, 9.999328, 9.999507 
7.850205e+2, 2.0531228e+2, -969083.94, -1054568.9, -73711.31, 0.046159696, 0.14015661, -926619.1, 1333.6882, 0.0, 10.000175, 9.999058 
7.850367e+2, 2.1531175e+2, -711756.5, -875927.6, -96471.055, 0.18360038, 0.17075057, -667174.4, 162785.06, 0.0, 10.001255, 9.99909 
7.850522e+2, 2.253102e+2, -590527.06, -746543.5, -48544.004, 0.17067733, 0.1014218, -576656.0, 155317.94, 0.0, 10.001326, 9.999272 
7.8506696e+2, 2.3530766e+2, -613241.4, -704854.44, -49827.176, 0.026524665, -0.090706766, -591364.94, 42631.51, 0.0, 10.000487, 9.9992895 
7.8508335e+2, 2.4530797e+2, -545453.1, -649807.9, -49145.297, 0.03935646, 0.026832081, -525952.5, 10043.9, 0.0, 10.000408, 9.999027 
7.851012e+2, 2.5531068e+2, -358462.88, -507509.13, -65140.695, 0.18870157, 0.38325086, -334006.2, 103971.29, 0.0, 10.00101, 9.9990425 
7.8511786e+2, 2.6530984e+2, -234342.14, -402207.7, -20584.738, 0.17333314, 0.4003745, -231854.77, 108132.95, 0.0, 10.001212, 9.999001 
7.8513354e+2, 2.7530575e+2, -152648.16, -306268.34, 1032.9553, 0.017453017, 0.0790762, -152641.22, 89383.68, 0.0000001311964, 10.001075, 9.999051 
7.851507e+2, 2.8530508e+2, -16790.814, -217558.55, -10369.713, 0.001818194, 0.12237075, -16256.637, 127774.46, 0.000005888669, 10.001457, 9.998802 
7.851692e+2, 2.9530737e+2, 189998.73, -74254.29, -71050.125, 0.11662739, 0.4596605, 207890.67, 253901.4, 0.000037310834, 10.002235, 9.998737 
7.851874e+2, 3.0530396e+2, 145155.27, -284260.78, -59012.066, 0.19148698, 0.34702027, 153117.3, 153117.3, 0.00011684081, 10.002499, 9.996841 
7.852058e+2, 3.1529886e+2, 209810.31, -93719.02, 36802.164, 0.27455392, 0.1348714, 214208.75, 214208.75, 0.00024566453, 10.002225, 9.998282 
7.948843e+2, 1.2529449e+2, -2068440.6, -1731539.8, 71755.18, 0.02513872, 0.08548665, -1716893.6, -4773.6533, 0.0000000034592607, 9.996876, 10.001387 
7.949025e+2, 1.3529384e+2, -1877193.8, -1669236.5, 2426.3335, 0.17323838, -0.05748242, -1669208.3, -55083.508, 0.0, 9.997895, 10.000645 
7.949196e+2, 1.4529449e+2, -1717018.5, -1605905.0, 84960.52, 0.090844296, -0.020491907, -1559949.0, -43828.793, 0.0, 9.998583, 10.00008 
7.949369e+2, 1.5529673e+2, -1550014.1, -1470587.6, 91190.71, -0.10831051, 0.17633848, -1410837.9, 7265.6772, 0.0, 9.999041, 10.000114 
7.9495496e+2, 1.6529731e+2, -1505084.4, -1485549.5, -60372.676, -0.035682414, 0.2676112, -1434159.3, -114058.29, 0.0, 9.999056, 9.99933 
7.949741e+2, 1.7529634e+2, -1449204.6, -1398262.3, -89939.82, 0.30563578, 0.22501522, -1330256.4, -108144.164, 0.0, 9.998728, 9.999412 
7.949896e+2, 1.8529578e+2, -1266148.8, -1144846.1, -51872.008, 0.2356842, 0.17573254, -1125689.6, -1572.8987, 0.0, 9.998809, 10.000445 
7.950018e+2, 1.9529542e+2, -1097942.5, -1013596.06, -11384.163, -0.21184759, 0.08362225, -1012086.56, 14029.871, 0.0, 9.999294, 10.000436 
7.95018e+2, 2.0529522e+2, -1016149.94, -1136946.5, -39057.94, -0.22698267, 0.12036419, -1004621.3, -76501.88, 0.0, 10.00011, 9.998524 
7.950377e+2, 2.1529496e+2, -756462.44, -955584.44, -53481.066, 0.14535798, 0.2307113, -743007.44, 87119.836, 0.0, 10.001197, 9.998572 
7.950544e+2, 2.2529402e+2, -596032.25, -739186.3, -85448.53, 0.2497192, 0.24264462, -556143.06, 175994.13, 0.0, 10.001247, 9.999359 
7.9506844e+2, 2.3529245e+2, -614942.2, -698035.3, -75519.55, 0.11485619, 0.13860117, -570295.25, 63854.164, 0.0, 10.000441, 9.99936 
7.950843e+2, 2.45292e+2, -574348.94, -703846.06, -32696.268, 0.077060014, 0.19477813, -566561.8, -30406.04, 0.0, 10.0003805, 9.998672 
7.9510176e+2, 2.5529236e+2, -388226.28, -560095.2, -39644.55, 0.12980114, 0.35140914, -379522.38, 58636.465, 0.0, 10.000966, 9.998706 
7.9511863e+2, 2.6529142e+2, -190573.14, -302938.9, -31708.125, 0.11907614, 0.3416913, -182243.06, 157924.42, 0.0, 10.001178, 9.999697 
7.951351e+2, 2.752893e+2, -113740.09, -220044.55, 812.2345, 0.054910164, 0.14841248, -113733.88, 128448.08, 0.000000103459534, 10.001051, 9.999655 
7.9515266e+2, 2.8528765e+2, -124752.43, -439662.2, 14446.58, 0.04025859, 0.14415978, -124091.07, 20108.275, 0.000005445095, 10.001446, 9.997283 
7.95171e+2, 2.9528636e+2, 83572.484, -286522.5, -34892.023, 0.066105776, 0.2699508, 86833.33, 133053.89, 0.000034263594, 10.002191, 9.997304 
7.9518926e+2, 3.0528438e+2, 229764.17, -97460.6, -71405.39, 0.115018256, 0.30814612, 244667.17, 244667.17, 0.000108508386, 10.0024605, 9.998138 
7.952081e+2, 3.1528488e+2, 249977.63, 2800.04, 33075.656, 0.25331026, 0.5252944, 254327.06, 254327.06, 0.00023086925, 10.002176, 9.998965 
8.048815e+2, 1.252756e+2, -2086572.1, -1736047.5, -36279.46, 0.07447656, 0.037228357, -1732332.0, -20026.21, 0.0000000057252847, 9.996734, 10.001435 
8.049006e+2, 1.3527556e+2, -1799433.1, -1624171.0, -72148.234, 0.16853462, -0.051433876, -1598291.8, 16011.611, 0.0, 9.998385, 10.000733 
8.04918e+2, 1.4527622e+2, -1714301.5, -1630143.3, -29742.23, 0.063110344, -0.006188815, -1620693.3, -104393.79, 0.0, 9.998717, 9.999846 
8.0493575e+2, 1.5527834e+2, -1723583.6, -1581275.5, -61770.813, -0.069613904, 0.20654058, -1558203.6, -139917.56, 0.0, 9.997973, 9.9998665 
8.0495393e+2, 1.6527882e+2, -1618354.5, -1513417.5, -151978.22, 0.008206652, 0.28733712, -1405105.8, -84821.24, 0.0, 9.998163, 9.999573 
8.049728e+2, 1.7527778e+2, -1373305.5, -1336395.0, -104020.68, 0.29186773, 0.21607329, -1249205.1, -26910.88, 0.0, 9.999145, 9.999638 
8.0498874e+2, 1.8527725e+2, -1188439.8, -1126467.3, -74524.83, 0.24851762, 0.16795798, -1076743.5, 47554.805, 0.0, 9.999434, 10.000263 
8.0500215e+2, 1.9527699e+2, -1147117.8, -1058780.8, -130511.34, -0.09431687, 0.105228685, -965166.56, 61132.445, 0.0, 9.999057, 10.00024 
8.050186e+2, 2.0527698e+2, -1105027.6, -1134894.5, -121962.54, -0.12992361, 0.15197553, -997087.7, -68787.41, 0.0, 9.9993105, 9.998922 
8.050379e+2, 2.1527702e+2, -893997.4, -979033.94, -79821.64, 0.112291664, 0.25349247, -846076.2, -15772.496, 0.0, 10.000072, 9.998952 
8.0505484e+2, 2.2527623e+2, -708050.0, -841220.6, -130381.914, 0.20743404, 0.2829876, -628235.0, 104077.62, 0.0, 10.000682, 9.998932 
8.050697e+2, 2.3527463e+2, -546729.75, -710324.94, -166542.98, 0.16776016, 0.21853696, -442981.1, 191346.27, 0.0, 10.001103, 9.998957 
8.050854e+2, 2.4527366e+2, -421864.75, -589639.9, -87543.64, 0.11869631, 0.22632118, -384504.6, 151832.38, 0.0, 10.001247, 9.999042 
8.051021e+2, 2.5527313e+2, -336313.25, -496159.3, -52348.49, 0.0654542, 0.25721857, -320695.44, 117648.164, 0.0, 10.001153, 9.999058 
8.051193e+2, 2.6527217e+2, -241805.47, -409409.16, -71494.125, 0.06700691, 0.26012412, -215452.16, 124900.7, 0.0, 10.001178, 9.998966 
8.051369e+2, 2.7527064e+2, -124199.945, -303139.56, -152473.88, 0.122526206, 0.20180334, -36884.207, 205481.39, 0.00000004701224, 10.001315, 9.998957 
8.051548e+2, 2.8526872e+2, -109149.81, -424472.22, -97136.29, 0.108894974, 0.20058775, -81628.63, 62758.22, 0.0000040934947, 10.001516, 9.9973545 
8.051726e+2, 2.9526633e+2, 38257.215, -295356.47, -43759.332, 0.028432656, 0.20916396, 43901.53, 90318.53, 0.000029452855, 10.001827, 9.997414 
8.051909e+2, 3.0526495e+2, 224872.19, -54994.26, -66134.414, 0.055633355, 0.28007528, 239713.22, 239713.22, 0.000100260084, 10.002234, 9.998543 
8.0521065e+2, 3.152662e+2, 312794.47, 50561.8, -43234.21, 0.28082123, 0.53559244, 319738.6, 319738.6, 0.00022208261, 10.002541, 9.999116 
8.148789e+2, 1.252547e+2, -2049744.4, -1660076.4, -358.77097, 0.11260665, -0.00432809, -1660076.0, 52441.742, 0.000000004999778, 9.996743, 10.001948 
8.1489736e+2, 1.3525793e+2, -1758388.8, -1538091.3, -9475.32, -0.0036648945, 0.17203484, -1537684.5, 76797.95, 0.0, 9.998386, 10.00132 
8.1491536e+2, 1.4525837e+2, -1759954.6, -1723750.3, -63821.83, -0.082674384, 0.19805588, -1675513.0, -159032.92, 0.0, 9.998711, 9.999209 
8.149354e+2, 1.5525742e+2, -1762244.9, -1664566.3, -81964.375, 0.08600791, 0.16885696, -1617993.6, -199497.52, 0.0, 9.997983, 9.999293 
8.149529e+2, 1.652572e+2, -1523165.3, -1311895.9, -120256.65, 0.07690414, 0.13580452, -1257467.0, 63030.434, 0.0, 9.998149, 10.00096 
8.149684e+2, 1.7525756e+2, -1281382.8, -1144851.0, -63442.47, -0.07676567, 0.06480177, -1119922.6, 102563.57, 0.0, 9.99914, 10.000955 
8.149858e+2, 1.8525772e+2, -1291162.1, -1330790.5, -91330.78, 0.002025688, 0.09360207, -1217520.9, -93036.21, 0.0, 9.999396, 9.99888 
8.150051e+2, 1.9525751e+2, -1243483.5, -1253198.5, -137151.38, 0.28664055, 0.17383058, -1111103.6, -84609.71, 0.0, 9.999028, 9.99892 
8.150222e+2, 2.0525764e+2, -1026001.6, -954081.06, -98150.52, 0.28789684, 0.23391004, -885510.6, 42983.84, 0.0, 9.999241, 10.000196 
8.150373e+2, 2.1525802e+2, -815978.3, -805077.2, -46719.824, 0.037385866, 0.23988603, -763491.06, 66997.12, 0.0, 10.000019, 10.000173 
8.1505346e+2, 2.252569e+2, -782603.1, -978361.5, -120067.9, -0.007439648, 0.22555904, -725573.8, 6925.9023, 0.0, 10.000607, 9.998027 
8.1507057e+2, 2.352543e+2, -616552.3, -841698.2, -145489.36, 0.13333876, 0.15119393, -545169.25, 89360.195, 0.0, 10.001041, 9.998087 
8.150867e+2, 2.4525312e+2, -352712.88, -436646.44, -96258.63, 0.111537, 0.1230867, -289670.44, 246868.73, 0.0, 10.0012045, 10.000115 
8.1510216e+2, 2.552531e+2, -270596.47, -355251.34, -51362.84, -0.05082268, 0.101387754, -246367.53, 192164.17, 0.0, 10.001126, 10.000044 
8.1511956e+2, 2.6525205e+2, -390168.94, -710251.3, -70255.97, -0.030549096, 0.15464042, -375427.16, -34883.633, 0.0, 10.001152, 9.99691 
8.1513876e+2, 2.752499e+2, -270291.13, -596132.4, -138266.1, 0.16340281, 0.24046265, -219528.25, 23045.857, 0.000000004527389, 10.001272, 9.996964 
8.151568e+2, 2.8524834e+2, 695.5705, -196705.81, -89375.42, 0.15258037, 0.29066873, 35148.145, 179740.81, 0.0000024308686, 10.0015135, 9.998921 
8.151738e+2, 2.952472e+2, 140542.56, -81877.15, -26941.291, -0.047747895, 0.2692473, 143759.39, 190360.94, 0.000024457544, 10.001815, 9.998892 
8.151924e+2, 3.052456e+2, 192491.08, -111229.4, -54728.402, -0.033206813, 0.2649011, 202051.81, 202051.81, 0.00009519151, 10.002194, 9.998169 
8.1521314e+2, 3.152435e+2, 270545.1, -19610.365, -19237.754, 0.24861744, 0.22033904, 271815.03, 271815.03, 0.00022313076, 10.002466, 9.998669 
8.248768e+2, 1.2523541e+2, -1815978.8, -1599310.6, 27850.98, 0.14722225, 0.12525827, -1595787.9, 116926.05, 0.0000000017683296, 9.998553, 10.001492 
8.248956e+2, 1.3523826e+2, -1724635.5, -1560964.5, -63005.97, -0.020658696, 0.30033505, -1539519.8, 75164.03, 0.0, 9.99878, 10.000971 
8.249142e+2, 1.452383e+2, -1668897.3, -1624800.1, -132504.45, -0.07677762, 0.277441, -1512522.3, 4161.504, 0.0, 9.999098, 9.999702 
8.249352e+2, 1.5523712e+2, -1496016.9, -1482021.9, -76272.77, 0.19606324, 0.17703074, -1412426.4, 6271.096, 0.0, 9.999575, 9.999777 
8.249525e+2, 1.6523692e+2, -1292722.0, -1172051.0, -93455.96, 0.15270202, 0.10714627, -1121146.3, 199549.8, 0.0, 9.999607, 10.001213 
8.2496667e+2, 1.7523748e+2, -1253222.5, -1106140.5, -133483.38, -0.15879698, 0.031759884, -1027280.44, 195401.61, 0.0, 9.999223, 10.001179 
8.249844e+2, 1.8523784e+2, -1274692.3, -1324631.5, -141130.38, -0.086969554, 0.07209086, -1156339.6, -31661.271, 0.0, 9.99952, 9.998861 
8.250052e+2, 1.9523789e+2, -1045785.2, -1157150.5, -95938.3, 0.3263968, 0.17995135, -990541.2, 36144.348, 0.0, 10.000395, 9.998915 
8.250226e+2, 2.0523795e+2, -863982.1, -854028.94, -55214.176, 0.3614185, 0.2235466, -803567.56, 125118.93, 0.0, 10.000254, 10.000396 
8.250371e+2, 2.15238e+2, -931668.7, -837505.1, -92084.766, 0.061387505, 0.17861922, -781164.0, 49518.273, 0.0, 9.999126, 10.00038 
8.250532e+2, 2.2523722e+2, -944700.0, -1003109.75, -101258.72, -0.024288286, 0.15919203, -868518.7, -135829.03, 0.0, 9.999261, 9.998509 
8.250708e+2, 2.3523545e+2, -665247.5, -812244.7, -36380.17, 0.0832225, 0.12162866, -656736.56, -22027.283, 0.0, 10.000486, 9.998553 
8.250876e+2, 2.4523413e+2, -428494.94, -549284.94, -29230.104, 0.08865525, 0.09249346, -421793.34, 114927.09, 0.0, 10.001019, 9.999427 
8.2510376e+2, 2.552331e+2, -342555.1, -458957.22, -122849.55, 0.008130612, 0.03643607, -264817.28, 173907.44, 0.0, 10.000948, 9.999408 
8.251213e+2, 2.6523182e+2, -345098.22, -680760.5, -89426.16, 0.017093878, 0.09143236, -322760.13, 17979.285, 0.0, 10.001418, 9.996991 
8.2514e+2, 2.7523008e+2, -108959.29, -508181.88, -10700.815, 0.11362042, 0.20609862, -108672.67, 134092.6, 0.0, 10.002332, 9.99706 
8.251581e+2, 2.8522843e+2, 126048.086, -154413.22, 35130.527, 0.08775842, 0.25343674, 130381.57, 275165.38, 0.000001518397, 10.002458, 9.998757 
8.251756e+2, 2.9522678e+2, 132070.89, -102390.45, -35542.36, -0.044221707, 0.19959733, 137340.39, 184137.6, 0.000022006743, 10.001832, 9.998741 
8.2519436e+2, 3.0522534e+2, 117209.13, -147800.53, -81034.484, -0.022748051, 0.21785155, 140023.7, 140023.7, 0.00009542949, 10.001674, 9.998166 
8.252149e+2, 3.1522256e+2, 199688.8, -24798.42, -43175.703, 0.216456, 0.102148555, 207706.44, 207706.44, 0.0002328845, 10.001854, 9.998922 
8.3487475e+2, 1.2521787e+2, -1914257.3, -1804901.5, 12853.6455, 0.061201908, 0.43271524, -1803411.0, -90518.38, 0.000000000051048894, 9.998566, 10.00007 
8.348955e+2, 1.3521662e+2, -1807589.0, -1743220.5, -49577.504, 0.07236391, 0.3295574, -1716296.8, -101389.84, 0.0, 9.998821, 9.999701 
8.3491457e+2, 1.4521602e+2, -1554497.6, -1392842.5, -120233.125, 0.031797923, 0.22486648, -1328794.0, 188116.6, 0.0, 9.999121, 10.001282 
8.34935e+2, 1.5521751e+2, -1385617.1, -1255869.1, -53668.918, 0.20459709, 0.22907782, -1236547.0, 182342.34, 0.0, 9.999585, 10.001325 
8.3495253e+2, 1.6521803e+2, -1358195.6, -1303440.8, -111996.81, 0.18527913, 0.20178303, -1215523.8, 105355.9, 0.0, 9.999589, 10.000321 
8.349677e+2, 1.752176e+2, -1310748.9, -1228622.4, -140003.45, 0.005266772, 0.11769911, -1123784.4, 99096.58, 0.0, 9.999235, 10.000333 
8.3498424e+2, 1.8521766e+2, -1185828.9, -1137124.5, -113253.52, -0.0605918, 0.103842355, -1045634.56, 79244.25, 0.0, 9.999505, 10.000157 
8.350022e+2, 1.9521804e+2, -958464.7, -973283.6, -59902.93, -0.024984954, 0.11350789, -905514.7, 121360.12, 0.0, 10.000376, 10.000189 
8.350197e+2, 2.0521787e+2, -931480.0, -980905.9, -102664.586, 0.038996786, 0.11151866, -850595.8, 78281.03, 0.0, 10.000197, 9.99955 
8.3503705e+2, 2.1521704e+2, -991415.2, -954238.6, -127307.42, 0.1340577, 0.06305452, -844169.56, -13283.797, 0.0, 9.999093, 9.999594 
8.350539e+2, 2.252172e+2, -824965.25, -740602.94, -61705.844, 0.11107708, 0.08319488, -708038.75, 24843.037, 0.0, 9.9992, 10.000342 
8.3507025e+2, 2.3521808e+2, -546610.9, -560613.06, 12490.691, -0.028504636, 0.12773976, -539293.0, 95574.17, 0.0, 10.000454, 10.000301 
8.3508784e+2, 2.4521673e+2, -602595.06, -900205.0, -38464.42, 0.0016434847, 0.12993024, -597704.1, -60822.99, 0.0, 10.000973, 9.997041 
8.351066e+2, 2.552131e+2, -510114.66, -800216.3, -119159.92, 0.19109759, 0.053625993, -467445.4, -28522.432, 0.0, 10.000912, 9.997087 
8.3512414e+2, 2.652113e+2, -199597.77, -367182.94, -57981.094, 0.1602282, 0.06245176, -181493.33, 159448.27, 0.0, 10.001371, 9.999166 
8.351406e+2, 2.7521104e+2, 27961.979, -208683.5, 26313.945, -0.07280619, 0.10688828, 30852.664, 273792.78, 0.0, 10.002265, 9.999151 
8.351585e+2, 2.8520897e+2, -5931.9663, -414211.9, 5781.799, -0.12787174, 0.099489, -5850.1045, 139110.64, 0.0000012583888, 10.0024, 9.996999 
8.351778e+2, 2.9520512e+2, 4942.3213, -358696.5, -51176.633, -0.018513024, 0.002673353, 12007.388, 59011.03, 0.000022643984, 10.001798, 9.996999 
8.3519673e+2, 3.0520418e+2, 139807.34, -95569.32, -72845.9, 0.033457216, 0.13629968, 160528.08, 160528.08, 0.000101563375, 10.001654, 9.998535 
8.352156e+2, 3.1520325e+2, 252270.78, 86151.95, -19744.135, 0.08103282, 0.17365281, 254585.23, 254585.23, 0.0002494841, 10.001847, 9.999692 
8.448734e+2, 1.2519777e+2, -1859586.3, -1796960.1, 30379.887, 0.05555366, 0.47207475, -1784644.8, -71553.1, 0.0, 9.999027, 9.999905 
8.448952e+2, 1.3519605e+2, -1758155.5, -1726656.6, 55364.17, 0.14438123, 0.33152357, -1684845.4, -69734.16, 0.0, 9.999206, 9.999628 
8.449142e+2, 1.4519541e+2, -1531137.9, -1333613.9, -10556.362, 0.086370625, 0.20591444, -1333051.4, 184062.66, 0.0, 9.999081, 10.001704 
8.449336e+2, 1.5519734e+2, -1473109.8, -1252915.1, -42136.992, 0.1578061, 0.21210343, -1245127.1, 173958.86, 0.0, 9.998797, 10.001722 
8.4495175e+2, 1.6519824e+2, -1428249.0, -1359399.6, -99057.56, 0.17109731, 0.21341906, -1288955.6, 32117.053, 0.0, 9.999199, 10.000129 
8.4496874e+2, 1.7519815e+2, -1193565.5, -1191767.4, -83998.234, 0.14876468, 0.18327902, -1108663.4, 114409.93, 0.0, 10.000127, 10.000156 
8.449851e+2, 1.8519805e+2, -1085902.3, -1056881.0, -76768.72, 0.054265175, 0.14691918, -993263.56, 131808.47, 0.0, 10.000048, 10.000448 
8.450009e+2, 1.9519785e+2, -1145045.4, -1034241.06, -109019.24, -0.11118897, 0.068174265, -967354.25, 59716.035, 0.0, 9.99897, 10.00045 
8.4501857e+2, 2.0519742e+2, -1043058.7, -1076549.8, -138698.3, -0.061561666, 0.048809722, -920098.7, 8975.33, 0.0, 9.999609, 9.999181 
8.45038e+2, 2.1519665e+2, -631545.75, -824144.25, -139709.48, 0.19310002, 0.044802923, -558162.06, 272922.47, 0.0, 10.001749, 9.999208 
8.4505534e+2, 2.2519684e+2, -405817.34, -529246.56, -137826.56, 0.20071681, 0.08511572, -316519.2, 416561.5, 0.0, 10.0020485, 10.000413 
8.450708e+2, 2.3519784e+2, -520653.84, -539135.6, -208552.47, -0.02283917, 0.13321514, -321137.66, 313926.53, 0.0, 10.000611, 10.000366 
8.4508806e+2, 2.4519663e+2, -706716.94, -938063.06, -205632.03, -0.028298764, 0.14314798, -586456.1, -49379.555, 0.0, 10.000199, 9.997156 
8.4510714e+2, 2.551932e+2, -535350.0, -796706.5, -112405.0, 0.1680244, 0.07395315, -493657.44, -54540.26, 0.0, 10.000674, 9.99722 
8.45125e+2, 2.6519132e+2, -283116.16, -396791.3, -26825.73, 0.13909048, 0.06162186, -277103.66, 64032.69, 0.0, 10.000754, 9.999258 
8.4514177e+2, 2.751907e+2, -225453.0, -318299.25, -101919.08, -0.086867005, 0.06409824, -159882.36, 83254.59, 0.0000000050987805, 10.000478, 9.999255 
8.451603e+2, 2.851887e+2, -234188.48, -506925.8, -121905.805, -0.10216155, 0.049493086, -187643.4, -42487.016, 0.0000017148438, 10.000758, 9.997151 
8.451804e+2, 2.951852e+2, -32165.502, -355515.84, -52011.063, 0.082689635, -0.02710836, -24005.424, 23189.771, 0.000025402682, 10.00146, 9.997177 
8.4519905e+2, 3.0518427e+2, 159219.16, -156597.48, -21400.105, 0.087821454, 0.124713615, 160662.66, 160662.66, 0.00011168263, 10.002079, 9.997922 
8.452168e+2, 3.151831e+2, 341832.66, 110886.914, -51855.39, -0.021905733, 0.20292373, 352941.63, 352941.63, 0.00027089723, 10.002533, 9.999539 
8.5487247e+2, 1.2517512e+2, -1787817.6, -1647268.3, 13747.818, 0.03128885, 0.23539138, -1645936.1, 67374.26, 0.0, 9.999031, 10.000929 
8.548946e+2, 1.351766e+2, -1685325.0, -1570264.8, 63185.305, 0.15842195, 0.30633262, -1542342.5, 72952.74, 0.0, 9.99919, 10.000706 
8.5491294e+2, 1.4517659e+2, -1582074.5, -1438837.1, -24488.273, 0.048820447, 0.22478013, -1434766.3, 82526.22, 0.0, 9.999072, 10.00099 
8.5493106e+2, 1.5517662e+2, -1519575.6, -1356403.5, -42338.266, 0.001707241, 0.11555153, -1346072.1, 73214.67, 0.0, 9.998822, 10.001002 
8.5494995e+2, 1.6517755e+2, -1397981.6, -1294510.1, -67647.086, 0.060650304, 0.13354495, -1261083.0, 60192.043, 0.0, 9.999189, 10.000579 
8.549698e+2, 1.7517915e+2, -1159973.1, -1123868.8, -45225.473, 0.22684099, 0.22201669, -1093225.8, 130033.195, 0.0, 10.000131, 10.000622 
8.549868e+2, 1.8517908e+2, -1140835.1, -1164423.4, -120543.016, 0.21063434, 0.20067401, -1031510.6, 93747.016, 0.0, 10.000019, 9.999724 
8.5500133e+2, 1.951773e+2, -1195228.1, -1139609.1, -141639.89, 0.019908974, 0.04136027, -1023074.56, 4197.006, 0.0, 9.998968, 9.99973 
8.5501903e+2, 2.0517665e+2, -1045429.2, -1071238.9, -62681.688, 0.018495927, 0.031862915, -994337.75, -65060.06, 0.0, 9.999564, 9.999241 
8.5503983e+2, 2.1517688e+2, -634027.7, -818210.4, -55429.246, 0.19365469, 0.118366584, -618633.1, 212645.06, 0.0, 10.001697, 9.999276 
8.550574e+2, 2.2517623e+2, -539351.56, -785981.06, -196051.77, 0.19820052, 0.15745749, -431057.13, 302228.56, 0.0, 10.00196, 9.998694 
8.5507214e+2, 2.351747e+2, -639794.6, -779924.75, -253659.78, 0.047222376, 0.12590922, -446701.2, 188598.9, 0.0, 10.000578, 9.998732 
8.550881e+2, 2.4517384e+2, -535331.75, -572306.7, -191339.42, -0.047636364, 0.12385678, -361588.75, 175717.8, 0.0, 10.000159, 9.999686 
8.551053e+2, 2.5517344e+2, -367770.03, -440138.53, -91330.266, -0.09037484, 0.101835154, -305717.22, 133590.13, 0.0, 10.000635, 9.99969 
8.551237e+2, 2.6517186e+2, -420117.97, -671054.94, -42955.695, -0.06634132, 0.09230157, -412968.47, -71644.72, 0.0, 10.000711, 9.997396 
8.551433e+2, 2.7516907e+2, -358472.34, -585135.4, -104031.09, 0.014465518, 0.06780262, -317964.66, -74609.4, 0.0000001292932, 10.000439, 9.997443 
8.5516316e+2, 2.8516757e+2, -99167.5, -220245.52, -96016.12, 0.10140259, 0.09018534, -46198.504, 99171.89, 0.000003149254, 10.00073, 9.999134 
8.551832e+2, 2.9516697e+2, 100185.85, -79036.266, -19924.55, 0.19814143, 0.10309434, 102374.195, 149747.14, 0.000029420804, 10.001443, 9.999089 
8.5520124e+2, 3.0516544e+2, 43814.97, -376733.47, -7538.465, 0.09082784, 0.18357745, 43950.055, 43950.055, 0.00012215794, 10.002014, 9.996433 
8.552179e+2, 3.151617e+2, 248645.27, -48206.86, -19682.494, -0.17962588, 0.15519321, 249944.61, 249944.61, 0.00029314935, 10.002404, 9.998503 
8.648726e+2, 1.251548e+2, -1494449.9, -1526286.1, 94433.64, 0.0449626, 0.102388166, -1414602.1, 298901.16, 0.00000000000000000000885557, 10.001124, 10.000745 
8.6489433e+2, 1.3515727e+2, -1615186.1, -1549269.6, 46105.617, 0.19773309, 0.27723405, -1525553.6, 89926.55, 0.0, 9.99971, 10.0006 
8.649126e+2, 1.4515753e+2, -1601815.3, -1496060.0, -38130.473, 0.11102974, 0.2512623, -1483745.8, 33730.727, 0.0, 9.999148, 10.000556 
8.6493087e+2, 1.5515707e+2, -1457770.8, -1374972.0, -46630.414, 0.07279094, 0.13716982, -1354015.1, 65462.87, 0.0, 9.999459, 10.000566 
8.6494964e+2, 1.6515745e+2, -1359657.1, -1299450.9, -61752.56, 0.09980484, 0.13219142, -1260854.9, 60617.844, 0.0, 9.999549, 10.000371 
8.649692e+2, 1.7515849e+2, -1278012.5, -1204963.9, -100491.06, 0.19271642, 0.1849794, -1134565.4, 88896.875, 0.0, 9.99942, 10.000407 
8.6498666e+2, 1.851585e+2, -1150145.0, -1151051.1, -175436.3, 0.19825684, 0.1757396, -975161.2, 150298.72, 0.0, 9.999885, 9.999878 
8.650023e+2, 1.951575e+2, -912118.25, -985048.0, -138263.2, 0.12467829, 0.07863367, -805592.2, 221873.56, 0.0, 10.000846, 9.99988 
8.650201e+2, 2.05157e+2, -873424.06, -999817.94, -2255.4111, 0.11083681, 0.08080105, -873383.9, 56086.25, 0.0, 10.000795, 9.999134 
8.650401e+2, 2.1515676e+2, -928654.7, -973019.25, -20832.592, 0.15142275, 0.13400939, -920405.9, -88931.33, 0.0, 9.999735, 9.999156 
8.650577e+2, 2.2515553e+2, -883121.4, -980046.1, -131342.52, 0.14307225, 0.13387369, -791585.7, -58097.777, 0.0, 9.999712, 9.998448 
8.650732e+2, 2.3515327e+2, -651209.3, -812058.56, -88195.266, 0.09214974, 0.051330317, -612275.1, 23235.115, 0.0, 10.000613, 9.998491 
8.650892e+2, 2.4515256e+2, -393948.22, -484939.84, -36150.395, -0.0032366521, 0.06398758, -381334.47, 156181.16, 0.0, 10.001054, 9.99985 
8.6510557e+2, 2.551531e+2, -292246.6, -386994.63, -121185.766, -0.14285058, 0.12183188, -209504.17, 230002.72, 0.0, 10.001088, 9.999834 
8.651242e+2, 2.651518e+2, -370095.97, -650550.25, -95468.414, -0.10697731, 0.13831484, -340682.7, 837.92535, 0.0000000005766255, 10.001065, 9.997364 
8.651448e+2, 2.7514872e+2, -285085.0, -554330.4, -33666.29, 0.095367625, 0.08092321, -280939.22, -37382.8, 0.000000514823, 10.000953, 9.997407 
8.6516476e+2, 2.851473e+2, -21500.342, -159687.44, 13562.901, 0.17045088, 0.10550138, -20181.74, 125388.35, 0.0000053955687, 10.001157, 9.999349 
8.65184e+2, 2.951473e+2, 153209.9, -25726.88, -46735.74, 0.13472717, 0.15799035, 164681.22, 212246.42, 0.00003455936, 10.001692, 9.999335 
8.652023e+2, 3.051453e+2, 33955.79, -356618.53, -43112.574, 0.012932808, 0.16290647, 38658.05, 38658.05, 0.000132535, 10.00182, 9.996668 
8.6522e+2, 3.151417e+2, 129962.06, -53014.082, 54675.223, -0.14744489, 0.11977498, 145054.7, 145054.7, 0.00031326473, 10.001348, 9.998974 
8.748734e+2, 1.2513699e+2, -1590219.4, -1728453.6, 25342.889, -0.0096580805, 0.073668465, -1585719.6, 127948.86, 0.0000000055054987, 10.001141, 9.999345 
8.7489426e+2, 1.351381e+2, -1702813.4, -1729651.6, -2324.3364, 0.2107657, 0.23652728, -1702613.6, -86948.31, 0.0, 9.999708, 9.999358 
8.749131e+2, 1.4513832e+2, -1618283.1, -1533402.9, -30721.129, 0.22669944, 0.28218344, -1523450.8, -5785.076, 0.0, 9.999158, 10.000297 
8.74933e+2, 1.5513879e+2, -1472931.9, -1405787.9, -29802.756, 0.33061835, 0.2819767, -1394467.9, 25190.727, 0.0, 9.999458, 10.000354 
8.749508e+2, 1.6513807e+2, -1419513.1, -1424650.5, -71900.71, 0.25041926, 0.2187682, -1350135.3, -28470.48, 0.0, 9.99955, 9.999514 
8.749668e+2, 1.7513616e+2, -1335864.3, -1328790.0, -99907.55, 0.0021350968, 0.06723038, -1232357.0, -8673.4, 0.0, 9.999433, 9.999554 
8.749843e+2, 1.851364e+2, -1083688.5, -1006052.4, -143470.98, -0.027018635, 0.07219377, -896240.8, 229437.69, 0.0, 9.999854, 10.000888 
8.7500346e+2, 1.9513844e+2, -844686.1, -838808.44, -97945.53, 0.15453658, 0.17379063, -743757.7, 283895.16, 0.0, 10.000814, 10.0009 
8.750216e+2, 2.051384e+2, -904503.4, -1048917.3, -47804.105, 0.17252584, 0.1878633, -890113.1, 39538.42, 0.0, 10.0007305, 9.998829 
8.750386e+2, 2.1513633e+2, -954590.7, -1018529.94, -55167.75, 0.028270056, 0.08761662, -922798.75, -91124.914, 0.0, 9.999697, 9.998863 
8.75056e+2, 2.2513479e+2, -806335.1, -808959.3, -102624.18, -0.0036638433, 0.0117872935, -705014.6, 28672.965, 0.0, 9.999661, 9.999648 
8.750737e+2, 2.3513359e+2, -575864.06, -644519.9, -51016.13, 0.072947524, -0.08598005, -548701.7, 86993.125, 0.0, 10.000562, 9.999667 
8.7509096e+2, 2.4513277e+2, -551544.06, -801148.4, -39885.023, 0.05809727, -0.034244455, -545325.6, -7621.7627, 0.0, 10.001004, 9.997703 
8.751077e+2, 2.551322e+2, -446882.78, -696297.25, -113066.08, -0.047705453, 0.12727399, -403257.5, 36458.082, 0.0, 10.001037, 9.997734 
8.751261e+2, 2.6513118e+2, -256352.89, -408479.4, -101153.56, -0.031268165, 0.18807489, -205855.25, 135872.34, 0.0000000691861, 10.001036, 9.999043 
8.75146e+2, 2.7512956e+2, -175098.05, -316867.53, -31661.004, 0.1048876, 0.109246366, -168348.61, 75392.77, 0.000001269736, 10.000913, 9.999058 
8.75165e+2, 2.85128e+2, -123010.234, -367092.25, 27949.664, 0.066057555, 0.10994868, -119850.64, 25904.617, 0.000008177336, 10.001137, 9.997937 
8.751831e+2, 2.9512632e+2, 50705.715, -229457.97, -19821.979, -0.13951427, 0.13587432, 52101.195, 99873.125, 0.000040999803, 10.001641, 9.997968 
8.7520224e+2, 3.0512375e+2, 152151.33, -85820.09, -56112.33, -0.18672924, 0.057849687, 164718.63, 164718.63, 0.00014405875, 10.001723, 9.998568 
8.752227e+2, 3.1512246e+2, 247825.92, 212131.11, 56939.32, -0.048280668, 0.060425617, 289649.4, 289649.4, 0.00033067827, 10.001266, 10.000834 
8.848742e+2, 1.2511867e+2, -1806490.4, -1894596.8, -39085.273, 0.022262098, 0.058942433, -1791651.0, -77808.89, 0.00000006865043, 9.999915, 9.998804 
8.848938e+2, 1.3511835e+2, -1630913.1, -1749689.4, -17140.504, 0.16191326, 0.12828769, -1628489.0, -12634.223, 0.0, 10.000429, 9.99888 
8.8491255e+2, 1.4511833e+2, -1437703.9, -1485627.5, 16289.329, 0.19182639, 0.19041897, -1432691.4, 85167.67, 0.0, 10.000567, 9.999947 
8.849333e+2, 1.5511942e+2, -1336444.5, -1381064.5, -3573.6077, 0.36318827, 0.28666672, -1336160.0, 83687.01, 0.0, 10.0005665, 9.99999 
8.8495106e+2, 1.6511866e+2, -1306024.1, -1373867.1, -25134.596, 0.28770265, 0.24238162, -1297727.0, 24126.69, 0.0, 10.000357, 9.99947 
8.8496625e+2, 1.7511626e+2, -1269937.0, -1301799.5, -2504.0837, -0.014964249, 0.04455246, -1269741.4, -45864.168, 0.0, 9.999916, 9.999505 
8.8498396e+2, 1.8511626e+2, -1111772.5, -1051847.3, -24419.643, -0.04197103, 0.04304456, -1043156.56, 82718.69, 0.0, 9.999794, 10.000604 
8.850042e+2, 1.9511837e+2, -991359.56, -939743.5, -89973.87, 0.19045292, 0.17999925, -871949.44, 155901.66, 0.0, 9.999939, 10.000628 
8.850223e+2, 2.051184e+2, -968580.7, -1027681.94, -86596.29, 0.2070053, 0.19208041, -906631.8, 23216.979, 0.0, 10.000063, 9.999296 
8.8503844e+2, 2.1511646e+2, -861589.25, -921840.06, -43341.3, 0.019823622, 0.057612225, -838932.0, -7064.299, 0.0, 10.00011, 9.999329 
8.85056e+2, 2.251154e+2, -675394.8, -740873.56, -47963.695, -0.008742022, 0.00533246, -650062.0, 83814.734, 0.0, 10.000546, 9.999684 
8.8507503e+2, 2.3511504e+2, -457849.6, -584780.56, -97441.54, 0.112502106, -0.010346591, -405027.84, 230850.14, 0.0, 10.001366, 9.999689 
8.8509285e+2, 2.4511415e+2, -506774.88, -794901.56, -89027.81, 0.1341816, 0.041469906, -481485.9, 56401.938, 0.0, 10.001372, 9.997572 
8.8510954e+2, 2.551126e+2, -512856.78, -743424.0, -23857.318, 0.059050933, 0.116931565, -510414.1, -70506.66, 0.00000000006372724, 10.000637, 9.997608 
8.851276e+2, 2.6511115e+2, -327313.56, -447585.94, 27398.588, 0.046182547, 0.14427316, -321366.13, 20556.44, 0.00000025387644, 10.00058, 9.998989 
8.851469e+2, 2.7510968e+2, -133771.63, -301391.16, -41962.473, 0.09581814, 0.08837844, -123853.45, 120081.13, 0.0000021793016, 10.001228, 9.999006 
8.851656e+2, 2.851082e+2, -135037.95, -370953.22, -979.50836, 0.022192726, 0.09684174, -135033.89, 10914.01, 0.00001103343, 10.00106, 9.997941 
8.851836e+2, 2.951065e+2, -174935.75, -331739.3, 42920.715, -0.16720654, 0.12223663, -163956.17, -115991.836, 0.00004783983, 10.000079, 9.998008 
8.8520294e+2, 3.0510354e+2, -127201.91, -164020.61, 13069.025, -0.16735046, -0.027894013, -123034.64, -123034.64, 0.00015538944, 9.999549, 9.999091 
8.852241e+2, 3.1510296e+2, -20329.066, 111316.086, 15718.225, 0.076916054, -0.0022857909, 113166.805, 113166.805, 0.00034428985, 9.9993, 10.0011 
8.9487445e+2, 1.2509976e+2, -1787805.3, -1843055.8, -39816.883, 0.02918445, 0.05304508, -1766968.8, -52943.574, 0.00000033567557, 9.999878, 9.999168 
8.948928e+2, 1.3509825e+2, -1609839.1, -1699434.6, 3327.6538, 0.01027988, -0.032893248, -1609715.6, 6331.1133, 0.00000000007521531, 10.000417, 9.999227 
8.949109e+2, 1.450978e+2, -1463903.5, -1548816.0, 9417.503, -0.04410299, -0.007424847, -1462871.6, 55182.645, 0.0, 10.000597, 9.999503 
8.9493144e+2, 1.5509902e+2, -1365920.1, -1447436.6, 3303.5303, 0.11101391, 0.14891219, -1365786.4, 54255.977, 0.0, 10.000584, 9.999531 
8.949502e+2, 1.6509937e+2, -1254129.5, -1269161.8, -45672.355, 0.15093371, 0.20210758, -1215358.9, 106679.27, 0.0, 10.000366, 10.000184 
8.9496744e+2, 1.7509878e+2, -1219754.4, -1199076.8, -12703.503, 0.098916166, 0.1118078, -1193036.6, 31005.979, 0.0, 9.999917, 10.000211 
8.9498544e+2, 1.8509811e+2, -1228957.6, -1286795.8, -23460.674, 0.112472266, 0.088641666, -1220638.1, -94588.53, 0.0, 9.999759, 9.999009 
8.9500415e+2, 1.9509727e+2, -1106859.6, -1172297.1, -79430.61, 0.18378426, 0.09174003, -1053673.0, -25612.668, 0.0, 9.999906, 9.999048 
8.9502203e+2, 2.05097e+2, -889261.2, -850989.06, -90693.18, 0.16928543, 0.08837532, -777435.06, 152626.83, 0.0, 10.0000105, 10.000536 
8.950392e+2, 2.1509719e+2, -786001.56, -747627.2, -36462.09, 0.07307994, 0.040100284, -725612.06, 106443.734, 0.0, 10.000038, 10.000558 
8.950575e+2, 2.2509745e+2, -767481.8, -917038.8, -22485.357, 0.075525895, 0.117237315, -764174.4, -30119.879, 0.0, 10.000475, 9.998511 
8.95077e+2, 2.3509765e+2, -545862.44, -755002.7, -61896.344, 0.16431299, 0.27374756, -528916.9, 107142.3, 0.0, 10.0013075, 9.998549 
8.950948e+2, 2.4509665e+2, -386074.9, -535239.06, -122170.46, 0.18226157, 0.28083253, -317520.3, 220547.66, 0.0, 10.001333, 9.999373 
8.95111e+2, 2.550943e+2, -396568.47, -490678.4, -47352.805, 0.13161589, 0.097197056, -376866.72, 63215.773, 0.0000000002378373, 10.00059, 9.999367 
8.9512867e+2, 2.6509187e+2, -449661.28, -698640.94, 46876.023, 0.077406734, 0.025386415, -441128.25, -99023.664, 0.00000030747992, 10.000564, 9.997274 
8.9514744e+2, 2.750892e+2, -259830.88, -554033.2, -10566.023, 0.02055196, 0.02196836, -259451.89, -15316.508, 0.0000026197797, 10.001184, 9.997295 
8.951664e+2, 2.8508788e+2, -48142.813, -184242.72, -40033.992, -0.015200056, 0.06634356, -37240.14, 108907.84, 0.000013141425, 10.001031, 9.999236 
8.951853e+2, 2.9508772e+2, -84704.03, -147571.73, 12348.383, -0.021995105, 0.11457733, -82365.56, -34221.12, 0.00005419451, 10.000083, 9.999273 
8.952043e+2, 3.0508444e+2, -179245.67, -265348.34, 800.28705, 0.0041223266, -0.09602789, -179238.23, -179238.23, 0.0001662128, 9.999533, 9.998394 
8.952241e+2, 3.1508264e+2, -105187.36, -58650.336, 22182.922, 0.124489844, -0.12601402, -49770.664, -49770.664, 0.0003568497, 9.999278, 9.999936 
9.0487444e+2, 1.2508029e+2, -1849899.9, -1847302.6, -68105.89, 0.08023461, 0.07251819, -1780483.0, -66264.05, 0.0000010657902, 9.999331, 9.999415 
9.048928e+2, 1.3507949e+2, -1657114.8, -1692102.9, -49418.26, -0.0029602766, 0.034658927, -1622185.4, -5953.551, 0.000000007369457, 9.999958, 9.999503 
9.049108e+2, 1.45079e+2, -1563587.3, -1565563.9, -44370.55, -0.0631198, 0.027265703, -1520194.0, -1956.3073, 0.0, 9.999786, 9.999772 
9.0493107e+2, 1.5507907e+2, -1590863.6, -1524724.6, -8273.449, 0.10664116, 0.042674545, -1523705.4, -103471.555, 0.0, 9.998914, 9.999802 
9.0494996e+2, 1.6507946e+2, -1485829.4, -1408169.8, -31452.21, 0.17195253, 0.09814383, -1397029.6, -74800.3, 0.0, 9.998893, 9.999943 
9.0496767e+2, 1.7508e+2, -1267524.1, -1245798.5, -83137.67, 0.14896977, 0.14561725, -1172817.0, 51408.42, 0.0, 9.999699, 9.99999 
9.0498567e+2, 1.8507943e+2, -1197332.6, -1292575.4, -70519.89, 0.153135, 0.15018491, -1159860.9, -33627.62, 0.0, 10.000062, 9.998824 
9.05004e+2, 1.9507764e+2, -1107100.5, -1195512.0, -26255.072, 0.18244535, 0.07905349, -1099891.5, -71638.14, 0.0, 9.9999895, 9.998856 
9.05022e+2, 2.0507725e+2, -922276.25, -881381.4, -32898.766, 0.17959003, 0.07811889, -863093.5, 67163.734, 0.0, 9.999847, 10.000402 
9.0503967e+2, 2.15078e+2, -853932.44, -797671.2, -97277.84, 0.14345048, 0.1033639, -724538.25, 107708.58, 0.0, 9.999641, 10.000406 
9.0505797e+2, 2.2507837e+2, -904604.6, -975174.4, -59073.504, 0.12948412, 0.19483648, -871080.4, -136835.22, 0.0, 9.999502, 9.998581 
9.05077e+2, 2.350782e+2, -807227.3, -873366.94, -17084.523, 0.13194723, 0.3100051, -803074.94, -166821.84, 0.0, 9.99948, 9.998617 
9.05095e+2, 2.4507713e+2, -536125.8, -554997.0, -79892.67, 0.1315781, 0.28214124, -465113.5, 73147.69, 0.0, 10.000078, 9.999839 
9.0511185e+2, 2.5507507e+2, -263489.63, -373746.3, -115156.016, 0.1257741, 0.07891371, -190946.34, 249324.19, 0.0, 10.00128, 9.999833 
9.0512985e+2, 2.6507282e+2, -305621.75, -623361.2, -1655.0424, 0.09691107, -0.00056452106, -305613.13, 36676.55, 0.0000002007212, 10.001529, 9.997328 
9.051488e+2, 2.7507022e+2, -298567.8, -565664.25, 58657.527, 0.053829487, -0.00071578583, -286253.66, -41934.1, 0.0000025589381, 10.000887, 9.99736 
9.0516764e+2, 2.8506902e+2, -118359.68, -214545.84, 39657.97, 0.038279813, 0.05058622, -104117.38, 42214.113, 0.000014744336, 10.000533, 9.99927 
9.051863e+2, 2.950691e+2, -30977.271, -111706.53, -11115.483, 0.057330236, 0.11784862, -29474.762, 18851.947, 0.00006127167, 10.000423, 9.999351 
9.052049e+2, 3.0506614e+2, -3169.1306, -176347.42, -4022.822, 0.058262177, -0.06699134, -3075.7334, -3075.7334, 0.00017929857, 10.000716, 9.99844 
9.0522444e+2, 3.1506488e+2, 144547.42, 17771.137, 53332.88, 0.13999964, -0.042537905, 163999.2, 163999.2, 0.00037394426, 10.001185, 9.999542 
9.1487384e+2, 1.2506054e+2, -1834347.3, -1819154.8, -57192.137, 0.06026344, 0.143905, -1769056.6, -54636.316, 0.000002613721, 9.999353, 9.999595 
9.148937e+2, 1.350622e+2, -1644740.8, -1665533.3, -22818.096, 0.07625043, 0.33209664, -1630062.1, -13653.142, 0.00000007607973, 9.999951, 9.999688 
9.149122e+2, 1.4506193e+2, -1496171.3, -1425113.0, -82694.07, 0.08689703, 0.28824538, -1370638.6, 147770.38, 0.0, 9.999781, 10.00074 
9.1493213e+2, 1.5505965e+2, -1521654.1, -1382839.8, -34357.094, 0.30847067, -0.03171771, -1374801.8, 45619.113, 0.0, 9.998918, 10.000773 
9.149503e+2, 1.6505903e+2, -1572715.8, -1586079.0, -6948.1313, 0.30728912, -0.06276863, -1569757.9, -247332.05, 0.0, 9.998884, 9.998725 
9.149669e+2, 1.7505999e+2, -1354321.6, -1423846.3, -47734.414, 0.0878018, 0.14776076, -1330033.1, -105608.234, 0.0, 9.999688, 9.998775 
9.1498464e+2, 1.8506017e+2, -1111084.5, -1108340.1, -78020.195, 0.031723533, 0.2263207, -1031680.06, 94745.82, 0.0, 10.000038, 10.000101 
9.1500366e+2, 1.9505952e+2, -1024462.06, -1016227.2, -22882.207, 0.13526218, 0.14004953, -997094.94, 31334.678, 0.0, 9.999957, 10.000103 
9.15022e+2, 2.0505922e+2, -1039097.44, -1113579.9, -44871.074, 0.18544094, 0.166246, -1018026.4, -87592.88, 0.0, 9.999801, 9.998833 
9.150397e+2, 2.1505907e+2, -972798.8, -1027618.4, -99261.41, 0.18231776, 0.25631705, -897232.3, -64793.04, 0.0, 9.999571, 9.99886 
9.1505736e+2, 2.2505829e+2, -823184.44, -795858.75, -65731.18, 0.10855292, 0.24703315, -742385.44, -7937.897, 0.0, 9.999454, 9.999837 
9.150749e+2, 2.350568e+2, -726677.2, -696317.8, -12042.432, -0.030110601, 0.10328201, -692121.1, -55662.03, 0.0, 9.999436, 9.999854 
9.150931e+2, 2.4505575e+2, -598586.5, -677037.56, -37946.598, -0.06751833, 0.05739102, -583235.6, -44769.51, 0.0, 10.000042, 9.999021 
9.1511196e+2, 2.5505495e+2, -327217.47, -495929.22, -63346.594, -0.0033878288, 0.06401079, -306080.7, 134389.75, 0.0, 10.001231, 9.999022 
9.151311e+2, 2.6505393e+2, -189366.3, -373153.16, -29803.34, 0.061766688, 0.062552154, -184654.13, 157823.44, 0.00000011562638, 10.0014925, 9.999063 
9.151506e+2, 2.7505258e+2, -182379.38, -318799.3, 39490.59, 0.1338842, 0.011480978, -171772.42, 72716.36, 0.0000025826089, 10.000859, 9.99907 
9.151691e+2, 2.8505152e+2, -202154.36, -383848.25, 28940.531, 0.12289946, 0.04540314, -197656.02, -51156.305, 0.000017158924, 10.000512, 9.998117 
9.151865e+2, 2.950505e+2, -113430.29, -283713.88, -8650.947, 0.027878743, 0.12370581, -112991.92, -64480.305, 0.000070174305, 10.000417, 9.998177 
9.1520476e+2, 3.0504847e+2, 40089.863, -70224.21, 10604.317, -0.03752458, 0.05249478, 41099.99, 41099.99, 0.00019601652, 10.00066, 9.999187 
9.1522473e+2, 3.150494e+2, 153860.55, 59874.023, 83152.414, 0.02853506, 0.21927917, 202380.06, 202380.06, 0.00039683623, 10.001098, 9.999867 
9.2487323e+2, 1.2504068e+2, -1844115.4, -1751671.3, -1249.6284, 0.09230067, 0.15904117, -1751654.4, -37037.83, 0.0000053718704, 9.998963, 10.000243 
9.248933e+2, 1.3504262e+2, -1784361.1, -1658489.3, 51230.813, 0.11921019, 0.30485713, -1640273.9, -23675.045, 0.00000033393198, 9.998667, 10.000357 
9.249121e+2, 1.450427e+2, -1618662.8, -1511098.1, -23753.352, 0.13515058, 0.27729583, -1506086.3, 12508.485, 0.0, 9.999062, 10.000498 
9.249318e+2, 1.5504064e+2, -1339877.1, -1321530.4, -82947.17, 0.31912303, 0.0047143935, -1247250.9, 173356.31, 0.0, 10.000285, 10.000534 
9.249499e+2, 1.6503978e+2, -1358165.1, -1497994.5, -58826.46, 0.3052894, -0.031848863, -1336709.1, -14093.342, 0.0, 10.000423, 9.998585 
9.2496645e+2, 1.750401e+2, -1395418.3, -1461564.1, -27790.277, 0.09623121, 0.12950872, -1385292.6, -160671.56, 0.0, 9.999482, 9.998616 
9.2498434e+2, 1.8504032e+2, -1238410.9, -1148343.1, -46241.547, 0.049256817, 0.21017842, -1128829.9, -2208.3718, 0.0, 9.999077, 10.000288 
9.250034e+2, 1.9504035e+2, -1126904.3, -1041092.5, -87066.07, 0.15807968, 0.17151307, -986934.44, 41684.266, 0.0, 9.999162, 10.000308 
9.250217e+2, 2.0504014e+2, -1091152.9, -1130464.5, -72750.59, 0.1978485, 0.19540796, -1035449.56, -104828.52, 0.0, 9.999409, 9.998907 
9.250393e+2, 2.1503957e+2, -927907.94, -997752.1, -12795.588, 0.17153835, 0.23484619, -925637.56, -93007.31, 0.0, 9.99984, 9.998938 
9.25057e+2, 2.250387e+2, -696749.5, -695255.44, 58212.902, 0.10013601, 0.19502135, -637784.75, 96852.94, 0.0, 10.000152, 10.00019 
9.250749e+2, 2.350375e+2, -569793.44, -583167.3, 32482.5, -0.016613884, 0.045059055, -543316.75, 93327.195, 0.0, 10.000347, 10.0001955 
9.250936e+2, 2.4503654e+2, -562946.3, -707249.25, 19902.102, -0.04504299, 0.01223648, -560251.75, -21600.826, 0.0, 10.000491, 9.9986 
9.25113e+2, 2.5503564e+2, -440152.28, -593542.56, 13335.94, 0.0139456475, 0.049893934, -439001.47, 1658.6858, 0.0, 10.000648, 9.998631 
9.251322e+2, 2.6503494e+2, -287614.2, -386831.13, -19329.848, 0.066382214, 0.084662475, -283981.28, 58684.426, 0.00000007319143, 10.00067, 9.999365 
9.251511e+2, 2.7503437e+2, -205893.97, -293721.47, -62250.1, 0.12297187, 0.07670195, -173627.06, 71041.78, 0.0000027897247, 10.0005455, 9.99939 
9.251699e+2, 2.8503308e+2, -173227.45, -406816.6, -55544.5, 0.13302888, 0.09465651, -160692.36, -14010.672, 0.000020132902, 10.000865, 9.997791 
9.2518824e+2, 2.9503113e+2, 36306.28, -248609.84, -44026.72, 0.099779055, 0.10698853, 42954.395, 91658.97, 0.00008107723, 10.001602, 9.99785 
9.252063e+2, 3.0502915e+2, 164889.27, -1896.0743, -30154.762, 0.013840922, 0.056472432, 170173.81, 170173.81, 0.00021777536, 10.001459, 9.99928 
9.2522526e+2, 3.150301e+2, 22752.207, -32139.572, -26759.865, 0.01757842, 0.21185584, 33638.645, 33638.645, 0.000428338, 10.000297, 9.99963 
9.348722e+2, 1.2502044e+2, -1767051.6, -1578878.4, -25056.83, 0.06884691, 0.07833719, -1575599.0, 139210.8, 0.000009857008, 9.998919, 10.001448 
9.3489164e+2, 1.3502078e+2, -1698310.1, -1482358.4, 43827.742, 0.079052985, -0.055626158, -1473802.5, 142997.7, 0.0000009955157, 9.998682, 10.001555 
9.3491024e+2, 1.4502151e+2, -1724412.9, -1738550.3, 17061.186, 0.028683262, -0.00032866147, -1713014.0, -194221.34, 0.00000000002439963, 9.999089, 9.998928 
9.3492985e+2, 1.5502211e+2, -1451282.8, -1551008.4, -30163.578, 0.082455926, 0.1515507, -1442869.1, -22076.969, 0.0, 10.000274, 9.998967 
9.3494856e+2, 1.6502175e+2, -1291373.5, -1355449.4, -101252.73, 0.11250989, 0.1913347, -1217211.0, 105588.04, 0.0, 10.000409, 9.999569 
9.349664e+2, 1.7502038e+2, -1326963.6, -1319195.4, -58378.004, 0.12893188, 0.09010567, -1264572.5, -39759.45, 0.0, 9.999484, 9.999592 
9.3498456e+2, 1.8501994e+2, -1308868.0, -1288657.6, -46914.74, 0.1611228, 0.1022488, -1250772.1, -123952.9, 0.0, 9.999051, 9.99934 
9.350031e+2, 1.9502015e+2, -1199249.9, -1182084.3, -78514.78, 0.2006629, 0.17902774, -1111684.5, -82864.74, 0.0, 9.999122, 9.999361 
9.350209e+2, 2.0502006e+2, -972674.2, -878303.56, -63801.246, 0.16983712, 0.17058975, -846134.94, 84684.78, 0.0, 9.999378, 10.000653 
9.350382e+2, 2.1501951e+2, -814040.56, -751119.75, 7546.189, 0.070022434, 0.04076044, -750227.4, 82592.484, 0.0, 9.99979, 10.000659 
9.350568e+2, 2.2501963e+2, -744811.7, -779353.9, 60427.9, 0.056450307, 0.04179541, -699235.1, 35580.188, 0.0, 10.000087, 9.999642 
9.350768e+2, 2.3502028e+2, -618251.1, -669701.25, 44780.188, 0.13119483, 0.1302379, -592332.75, 44475.113, 0.0, 10.000286, 9.999631 
9.3509614e+2, 2.4501945e+2, -570075.8, -712948.9, 19726.248, 0.14911076, 0.14076406, -567402.25, -28586.31, 0.0, 10.000451, 9.998579 
9.351148e+2, 2.5501704e+2, -448138.3, -603964.4, 23127.7, 0.12202648, 0.031793628, -444778.16, -3937.4646, 0.0, 10.000615, 9.998578 
9.351329e+2, 2.6501584e+2, -361272.5, -532797.2, -28106.975, 0.06575933, 0.06588328, -356784.2, -13929.999, 0.00000003612581, 10.000641, 9.998377 
9.3515044e+2, 2.7501562e+2, -280938.16, -442736.44, -59876.324, -0.014088346, 0.19593278, -261190.16, -16331.806, 0.0000027028154, 10.000514, 9.998383 
9.351698e+2, 2.8501394e+2, -146950.34, -343196.72, -29352.805, 0.032181382, 0.20267507, -142654.06, 4221.542, 0.000022320448, 10.000828, 9.998245 
9.3519104e+2, 2.950109e+2, 64236.047, -187765.75, -6431.6025, 0.20596802, 0.05917803, 64400.086, 113305.75, 0.000092742026, 10.001585, 9.998279 
9.3520916e+2, 3.050082e+2, 125195.3, -75322.13, -75191.35, 0.14473763, -0.05741405, 150258.36, 150258.36, 0.0002446386, 10.00143, 9.998786 
9.3522555e+2, 3.1500745e+2, -31424.002, -133841.89, -58345.65, -0.006169029, -0.025327059, -5001.9546, -5001.9546, 0.00047061927, 10.000264, 9.9989395 
9.448715e+2, 1.2500054e+2, -1768512.4, -1615033.3, 1921.6503, 0.10138036, 0.024970124, -1615009.3, 99991.56, 0.000016753027, 9.999055, 10.001143 
9.448909e+2, 1.3500045e+2, -1625743.3, -1486211.6, -72277.35, 0.10943089, -0.11500597, -1455522.1, 161475.22, 0.000002343361, 9.999352, 10.001208 
9.4490933e+2, 1.450013e+2, -1713960.3, -1725859.8, -75291.26, 0.03782942, -0.03130202, -1644384.0, -125393.69, 0.0000000053592455, 9.999136, 9.998985 
9.4492847e+2, 1.5500239e+2, -1701137.6, -1667721.3, -11367.667, 0.011475602, 0.16054428, -1664220.9, -243233.8, 0.0, 9.998541, 9.9990015 
9.4494724e+2, 1.6500238e+2, -1531041.1, -1419657.8, -44301.59, 0.04556184, 0.21365933, -1404186.3, -81196.305, 0.0, 9.99854, 10.000032 
9.4496584e+2, 1.7500132e+2, -1344230.4, -1274636.5, -51172.92, 0.15009938, 0.09469542, -1247550.5, -22551.365, 0.0, 9.999135, 10.000065 
9.4498426e+2, 1.8500099e+2, -1253469.9, -1262545.6, -6209.709, 0.20933767, 0.0937914, -1250316.8, -123313.125, 0.0, 9.99944, 9.999324 
9.450025e+2, 1.9500116e+2, -1147269.4, -1161398.9, 24232.637, 0.21585196, 0.16677432, -1129092.6, -100087.5, 0.0, 9.999495, 9.999323 
9.4502044e+2, 2.0500083e+2, -935209.2, -872160.0, 26853.957, 0.16879329, 0.14465116, -862272.8, 68734.08, 0.0, 9.999691, 10.000544 
9.4503814e+2, 2.15e+2, -789690.6, -748527.2, -52996.473, 0.074835464, -0.0043041552, -712256.2, 120752.87, 0.0, 10.000007, 10.0005665 
9.4505715e+2, 2.250001e+2, -745627.3, -802667.7, -54523.27, 0.075691305, 0.00804731, -712615.5, 22389.742, 0.0, 10.000183, 9.999436 
9.450775e+2, 2.3500094e+2, -638571.94, -697491.4, -53776.62, 0.17577957, 0.13797793, -606714.44, 30282.438, 0.0, 10.000234, 9.999459 
9.4509697e+2, 2.4500032e+2, -573030.06, -697693.9, -46213.133, 0.19968946, 0.17144649, -557767.4, -18763.627, 0.0, 10.000359, 9.998729 
9.451157e+2, 2.5499818e+2, -445716.75, -581645.5, -36955.31, 0.15388645, 0.07117085, -436319.3, 4707.13, 0.0, 10.000546, 9.99876 
9.451338e+2, 2.649967e+2, -360964.78, -562568.06, -50068.15, 0.08437687, 0.0825078, -349215.13, -6172.2065, 0.000000027783642, 10.000768, 9.998113 
9.451513e+2, 2.7499568e+2, -224162.28, -442946.6, -38003.777, 0.0005349091, 0.16160746, -217748.88, 27306.195, 0.000002328807, 10.001023, 9.9981365 
9.451709e+2, 2.8499424e+2, -96348.1, -279082.03, 31006.9, 0.058595613, 0.18065731, -91230.09, 55840.965, 0.000023776485, 10.001003, 9.998604 
9.4519264e+2, 2.949923e+2, -51939.453, -200759.56, 37026.434, 0.25947022, 0.11609363, -43236.254, 5854.2217, 0.00010394975, 10.000612, 9.998653 
9.4521105e+2, 3.0499035e+2, 109561.71, -90924.79, -1295.6234, 0.20020917, 0.0573257, 109570.08, 109570.08, 0.00027361658, 10.001356, 9.998723 
9.4522774e+2, 3.1498852e+2, 380990.72, 49434.21, 27802.752, 0.04694193, -0.009411929, 383305.97, 383305.97, 0.00052026927, 10.003148, 9.998831 
9.5487034e+2, 1.2498142e+2, -1907995.8, -1905902.1, 7348.948, 0.06448537, 0.028244713, -1899525.8, -184340.6, 0.00002677623, 9.999072, 9.999129 
9.548909e+2, 1.3498184e+2, -1771718.9, -1783923.9, -58583.79, 0.16531238, 0.13713388, -1718920.6, -101732.12, 0.0000047533053, 9.999332, 9.999171 
9.5490944e+2, 1.4498208e+2, -1599319.9, -1480822.6, -104491.58, 0.11656541, 0.17683738, -1419950.9, 99237.47, 0.000000046136613, 9.999102, 10.000685 
9.5492756e+2, 1.5498143e+2, -1578886.6, -1418930.5, -27886.51, 0.049612347, 0.029251095, -1414208.1, 6983.5503, 0.0, 9.99856, 10.000701 
9.549459e+2, 1.649818e+2, -1531550.3, -1422871.0, -26756.125, 0.047917068, 0.03370119, -1416640.9, -93453.04, 0.0, 9.9985485, 10.000005 
9.549647e+2, 1.7498305e+2, -1350728.6, -1283561.8, -23411.566, 0.11493292, 0.14714606, -1276206.9, -51028.69, 0.0, 9.999115, 10.000012 
9.5498323e+2, 1.8498361e+2, -1190601.0, -1130216.4, -9320.244, 0.1487896, 0.19361253, -1128810.5, -1637.1669, 0.0, 9.999428, 10.000241 
9.550015e+2, 1.9498336e+2, -1085651.3, -1028391.8, 31607.994, 0.15089339, 0.13488515, -1014375.0, 14799.434, 0.0, 9.999471, 10.000248 
9.5502e+2, 2.0498258e+2, -1077554.5, -1159823.4, 32871.9, 0.14790283, 0.11574511, -1066033.4, -134851.33, 0.0, 9.999655, 9.998588 
9.5503885e+2, 2.1498106e+2, -938705.75, -1042334.4, -36026.418, 0.13769014, 0.09763211, -927412.0, -94214.46, 0.0, 9.999937, 9.998586 
9.5505774e+2, 2.249801e+2, -742231.9, -781131.3, -58199.383, 0.111728385, 0.09536593, -700318.25, 34888.383, 0.0, 10.00012, 9.999614 
9.5507675e+2, 2.3497953e+2, -636431.9, -681425.4, -46192.465, 0.07541321, 0.066936255, -607549.2, 29661.502, 0.0, 10.000177, 9.999602 
9.55096e+2, 2.449792e+2, -553692.3, -645238.6, -42959.97, 0.059607178, 0.103081465, -536690.2, 2523.5833, 0.0, 10.000311, 9.999108 
9.551155e+2, 2.54979e+2, -426757.8, -533407.5, -24854.92, 0.07034959, 0.16390575, -421249.78, 19967.176, 0.0, 10.000506, 9.999111 
9.5513463e+2, 2.649775e+2, -337494.0, -502298.1, -43290.8, 0.0849986, 0.13418734, -326814.4, 16417.44, 0.000000030362223, 10.000722, 9.998547 
9.5515347e+2, 2.7497455e+2, -199966.14, -385744.75, -21635.994, 0.1050717, -0.028527424, -197479.67, 47780.25, 0.000002140531, 10.000993, 9.998547 
9.551729e+2, 2.849738e+2, -79753.47, -236629.98, 11348.422, 0.1501255, 0.027789926, -78936.78, 68332.46, 0.000025776937, 10.000972, 9.998907 
9.551929e+2, 2.949753e+2, -33536.508, -161284.86, 26885.543, 0.22375397, 0.2764823, -28108.86, 21150.668, 0.00011520068, 10.000603, 9.998929 
9.55212e+2, 3.0497542e+2, 127292.71, -39453.31, 64227.445, 0.15087052, 0.39179125, 149163.34, 149163.34, 0.0003025404, 10.001302, 9.9991 
9.5523137e+2, 3.1497312e+2, 404148.06, 118673.664, 103873.82, 0.07943986, 0.23719575, 437943.25, 437943.25, 0.00057311467, 10.003065, 9.999343 
9.648702e+2, 1.2496211e+2, -1861869.3, -1891139.8, -41710.08, 0.13228682, 0.06837259, -1832301.3, -116925.45, 0.000040530904, 9.999408, 9.999076 
9.648897e+2, 1.349626e+2, -1971705.6, -1880605.0, 19559.777, 0.18357848, 0.18710524, -1876583.0, -259203.84, 0.000008656152, 9.997961, 9.99917 
9.6490806e+2, 1.449629e+2, -1761876.1, -1515064.0, 54496.277, 0.14117365, 0.2129705, -1503566.8, 15811.118, 0.00000019058375, 9.997798, 10.001079 
9.649266e+2, 1.5496217e+2, -1486651.3, -1328039.6, 18917.418, 0.080356285, 0.016207311, -1325814.5, 95565.59, 0.0, 9.999004, 10.001106 
9.64945e+2, 1.6496252e+2, -1430564.8, -1379503.5, -35488.734, 0.0684781, -0.0009862637, -1361316.1, -37940.457, 0.0, 9.999266, 9.999955 
9.6496344e+2, 1.7496373e+2, -1429089.3, -1329645.3, -42930.203, 0.10591015, 0.11541607, -1313676.5, -88310.2, 0.0, 9.998607, 9.999944 
9.649821e+2, 1.8496442e+2, -1266832.6, -1174825.1, -27455.121, 0.12661047, 0.18172637, -1167255.4, -39894.813, 0.0, 9.998939, 10.0001745 
9.650011e+2, 1.9496445e+2, -975507.94, -982672.9, -72754.914, 0.13397531, 0.15777786, -906247.3, 123112.24, 0.0, 10.000261, 10.000182 
9.6502024e+2, 2.0496365e+2, -922956.0, -1097541.3, -55034.305, 0.15476996, 0.14953801, -907055.7, 24311.467, 0.0, 10.000784, 9.998465 
9.650395e+2, 2.149619e+2, -858805.94, -1016519.44, 3339.2065, 0.1851155, 0.11748176, -858735.25, -25350.695, 0.0, 10.000548, 9.998462 
9.650583e+2, 2.2496057e+2, -711834.8, -797622.6, 47362.816, 0.1470748, 0.098107, -690829.4, 44567.87, 0.0, 10.000458, 9.999342 
9.650768e+2, 2.3495954e+2, -603369.1, -690926.7, 17026.98, 0.04934097, 0.051641643, -600174.5, 37231.504, 0.0, 10.000514, 9.999372 
9.6509606e+2, 2.4495909e+2, -548564.0, -654309.7, -6327.165, 0.035816506, 0.088378035, -548186.75, -8775.476, 0.0, 10.000393, 9.999008 
9.651162e+2, 2.5495908e+2, -488090.63, -572697.75, -32390.291, 0.11634343, 0.17587587, -477114.53, -35700.695, 0.0, 10.0001335, 9.999018 
9.6513593e+2, 2.6495776e+2, -352578.94, -472210.8, -37695.734, 0.1568401, 0.15561987, -341691.88, 1734.6156, 0.000000012060779, 10.000452, 9.998888 
9.6515507e+2, 2.7495503e+2, -128630.38, -312633.94, -31936.252, 0.156234, -0.015651554, -123245.04, 122205.695, 0.0000023356135, 10.001313, 9.998894 
9.6517456e+2, 2.8495416e+2, 3153.6619, -232093.9, -44810.887, 0.18299693, 0.024385467, 11400.327, 158861.66, 0.000028836348, 10.001692, 9.99859 
9.651942e+2, 2.9495516e+2, 85424.375, -141958.69, -86080.766, 0.24665448, 0.2556136, 114336.01, 163793.63, 0.00012695143, 10.001589, 9.998587 
9.6521354e+2, 3.0495548e+2, 178346.19, -45322.438, -35624.543, 0.1614988, 0.42125586, 183883.19, 183883.19, 0.00033048782, 10.00178, 9.998828 
9.65234e+2, 3.149531e+2, 249066.78, 33914.27, -64862.844, 0.09109537, 0.29012898, 267108.34, 267108.34, 0.00062489236, 10.002055, 9.999236 
9.7487056e+2, 1.24942355e+2, -1713647.0, -1579828.6, -107115.6, 0.19740452, 0.13040292, -1520442.3, 195133.42, 0.000058506626, 9.999391, 10.001217 
9.7488695e+2, 1.3494281e+2, -1815085.4, -1561237.1, -31872.115, 0.10602597, 0.029124899, -1557296.5, 60271.668, 0.00001444443, 9.997982, 10.001349 
9.749051e+2, 1.4494391e+2, -1827263.4, -1654800.1, 95421.65, 0.0535369, 0.07126104, -1612419.1, -92862.23, 0.0000005546723, 9.997812, 10.000117 
9.7492546e+2, 1.5494467e+2, -1557322.5, -1472844.5, 70078.55, 0.06377555, 0.12276792, -1433259.8, -11708.355, 0.0, 9.998994, 10.00012 
9.749444e+2, 1.6494454e+2, -1437569.9, -1390127.3, -66469.21, 0.06839383, 0.113873474, -1343273.4, -19720.395, 0.0, 9.9992485, 9.999891 
9.7496194e+2, 1.7494345e+2, -1431886.0, -1336551.6, -64147.45, 0.0795436, 0.0035734898, -1304299.8, -78736.94, 0.0, 9.9986105, 9.999895 
9.7498083e+2, 1.8494345e+2, -1341955.0, -1328817.4, 17254.664, 0.09801822, 0.056664366, -1316923.5, -189358.83, 0.0, 9.998928, 9.999125 
9.7500134e+2, 1.9494446e+2, -1056344.0, -1141921.4, -17666.475, 0.12226655, 0.2359901, -1052840.4, -23280.396, 0.0, 10.000223, 9.999108 
9.75021e+2, 2.0494416e+2, -808674.8, -855342.2, -69529.445, 0.14447875, 0.24943557, -758668.2, 172893.42, 0.0, 10.000755, 10.000144 
9.7503996e+2, 2.1494247e+2, -747233.3, -775436.7, -1628.2236, 0.16849968, 0.05528553, -747139.6, 86430.95, 0.0, 10.000503, 10.000144 
9.7505873e+2, 2.2494145e+2, -763205.1, -893372.56, 43160.82, 0.13257036, 0.012952386, -750194.4, -14616.831, 0.0, 10.000412, 9.998704 
9.7507733e+2, 2.3494098e+2, -662688.0, -795925.94, 23042.287, 0.042400107, 0.08697949, -658815.6, -21231.96, 0.0, 10.000437, 9.998689 
9.75097e+2, 2.4493998e+2, -591108.7, -735950.2, -22548.45, 0.07803878, 0.13339613, -587679.56, -48083.176, 0.0, 10.000361, 9.998464 
9.751177e+2, 2.5493833e+2, -529600.0, -655469.56, -37754.324, 0.23992166, 0.11080167, -519144.22, -77527.164, 0.0, 10.0001135, 9.998463 
9.751374e+2, 2.649374e+2, -338469.94, -433307.1, -9849.13, 0.2503066, 0.14210755, -337457.88, 6169.46, 0.0000000034767167, 10.000416, 9.999168 
9.7515607e+2, 2.749371e+2, -117969.75, -275386.03, 6181.107, 0.11105498, 0.18498725, -117727.414, 127901.16, 0.0000028342504, 10.001251, 9.999178 
9.7517574e+2, 2.8493527e+2, -68593.92, -369599.0, -51998.55, 0.12035602, 0.16427934, -59864.35, 87783.09, 0.000032308424, 10.001644, 9.997671 
9.751962e+2, 2.9493198e+2, 18168.303, -280842.4, -80582.24, 0.27035338, 0.056871958, 38502.133, 88186.02, 0.00013865711, 10.001583, 9.997639 
9.752155e+2, 3.049307e+2, 105830.08, -183180.47, -25830.207, 0.17746791, 0.15864296, 108120.49, 108120.49, 0.0003574127, 10.00173, 9.997903 
9.752352e+2, 3.149289e+2, 184013.17, -73890.87, -39847.164, -0.010642184, 0.1727665, 190029.38, 190029.38, 0.0006733306, 10.001944, 9.998545 
9.8486954e+2, 1.24922566e+2, -1994677.1, -1634070.8, -29797.92, 0.28231156, 0.11872293, -1631625.0, 84148.57, 0.00008108169, 9.997111, 10.001943 
9.8488474e+2, 1.3492365e+2, -1666175.6, -1409807.5, -87244.04, 0.056060567, 0.00553811, -1382934.5, 234820.94, 0.000022462764, 9.998654, 10.002067 
9.849031e+2, 1.4492501e+2, -1666410.4, -1633281.4, 22728.598, 0.011721303, 0.06458254, -1621721.8, -101981.38, 0.0000013019285, 9.999156, 9.999614 
9.849247e+2, 1.5492575e+2, -1632803.8, -1567484.0, 21707.545, 0.10492621, 0.16197704, -1560928.0, -139190.33, 0.0, 9.998724, 9.9995985 
9.849439e+2, 1.6492537e+2, -1484592.9, -1438070.1, -95229.09, 0.11402625, 0.16568936, -1363302.5, -39559.83, 0.0, 9.999038, 9.999664 
9.849609e+2, 1.749238e+2, -1233744.1, -1263848.5, -116604.766, 0.052507605, 0.03303425, -1131224.0, 94532.22, 0.0, 10.000079, 9.999682 
9.8498e+2, 1.8492322e+2, -1151075.3, -1256069.8, 4758.5605, 0.05402813, 0.045714777, -1150860.0, -23097.0, 0.0, 10.000321, 9.998951 
9.8500115e+2, 1.9492348e+2, -1139496.0, -1200534.9, 27812.291, 0.11079498, 0.16637105, -1128724.4, -98959.91, 0.0, 9.999731, 9.998943 
9.850212e+2, 2.0492327e+2, -951738.9, -912813.5, -43723.813, 0.13891508, 0.19098587, -884416.3, 47349.082, 0.0, 9.999717, 10.000253 
9.8504007e+2, 2.1492252e+2, -770926.5, -771911.8, -103101.49, 0.1426238, 0.078219295, -668316.5, 165450.28, 0.0, 10.000276, 10.000277 
9.850591e+2, 2.2492163e+2, -762565.06, -899061.4, -95715.78, 0.1328587, 0.04623042, -713257.56, 22514.69, 0.0, 10.000442, 9.998654 
9.850784e+2, 2.3492049e+2, -700174.44, -817067.06, -77803.51, 0.118319385, 0.058209985, -661310.1, -23526.998, 0.0, 10.000195, 9.99866 
9.85098e+2, 2.4491917e+2, -576046.5, -738176.6, -54173.387, 0.14396551, 0.07784943, -559611.3, -19813.094, 0.0, 10.000517, 9.99837 
9.851181e+2, 2.549175e+2, -334945.28, -572382.1, -47194.324, 0.20851216, 0.06659286, -325908.6, 115910.37, 0.0, 10.001497, 9.998365 
9.8513794e+2, 2.6491687e+2, -203839.69, -386573.53, -31504.701, 0.2186265, 0.13830194, -198560.55, 145267.22, 0.00000001775074, 10.001412, 9.999015 
9.851575e+2, 2.749172e+2, -279702.22, -370709.78, -58859.582, 0.1877361, 0.25671068, -250808.13, -4982.727, 0.000003544514, 10.00021, 9.99903 
9.8517746e+2, 2.8491527e+2, -236260.63, -472943.0, -54031.523, 0.18457317, 0.2471166, -224509.38, -76663.79, 0.000035208486, 10.000588, 9.997473 
9.851975e+2, 2.949112e+2, 152813.45, -239297.06, -39934.613, 0.19961438, 0.082069375, 156839.28, 206728.11, 0.00014828902, 10.002608, 9.997431 
9.8521686e+2, 3.049093e+2, 206051.75, -165819.63, 3392.9639, 0.10610704, 0.14635898, 206082.7, 206082.7, 0.00038101713, 10.0025425, 9.997634 
9.8523694e+2, 3.14907e+2, -65409.79, -203805.73, 14878.199, 0.061038025, 0.14055803, -63828.387, -63828.387, 0.0007157471, 10.000243, 9.998485 
9.9486697e+2, 1.2490294e+2, -2058801.0, -1756888.0, 22296.25, 0.28482422, 0.032767445, -1755250.3, -39282.348, 0.000108580556, 9.99708, 10.001112 
9.94883e+2, 1.3490522e+2, -1725550.4, -1525200.4, -26692.838, 0.0034184614, 0.11894522, -1521705.1, 96234.79, 0.000033028722, 9.99863, 10.001284 
9.94902e+2, 1.4490631e+2, -1671948.6, -1643483.4, -1463.2766, -0.021945009, 0.19477527, -1643408.4, -123480.914, 0.0000026281716, 9.999143, 9.999555 
9.94924e+2, 1.5490544e+2, -1628337.4, -1566903.8, 10322.1455, 0.15244569, 0.13582805, -1565215.9, -143277.23, 0.00000000019976186, 9.9987545, 9.999591 
9.949435e+2, 1.64905e+2, -1512531.8, -1496010.4, -61527.58, 0.15574217, 0.1524263, -1442191.5, -118247.01, 0.0, 9.999039, 9.999265 
9.949604e+2, 1.7490485e+2, -1262107.5, -1323596.5, -73468.63, -0.014649828, 0.20059457, -1213209.9, 12736.46, 0.0, 10.00008, 9.999272 
9.949794e+2, 1.8490373e+2, -1104048.6, -1153807.9, -23373.771, -0.049657922, 0.14632285, -1094791.4, 33164.13, 0.0, 10.000302, 9.999662 
9.950004e+2, 1.9490154e+2, -1090937.9, -1094830.3, 9144.246, 0.055207938, -0.050721545, -1083535.0, -53562.14, 0.0, 9.999708, 9.9996805 
9.950205e+2, 2.0490101e+2, -1058119.8, -1121573.8, -29231.91, 0.09489689, -0.024793234, -1046706.2, -114728.03, 0.0, 9.999668, 9.998842 
9.950397e+2, 2.149021e+2, -884225.25, -986795.8, -78177.99, 0.06713626, 0.19060087, -842011.94, -8039.4404, 0.0, 10.00019, 9.998843 
9.950594e+2, 2.2490123e+2, -733982.94, -821280.0, -109418.01, 0.11059669, 0.20469214, -659828.7, 76151.68, 0.0, 10.000364, 9.999224 
9.950797e+2, 2.3489822e+2, -668670.4, -736366.0, -82413.74, 0.22862723, -0.02815108, -613424.44, 24578.617, 0.0, 10.000132, 9.999245 
9.9509907e+2, 2.4489671e+2, -556472.75, -690875.0, -23232.666, 0.186751, -0.07280188, -552570.1, -12554.227, 0.0, 10.000484, 9.998712 
9.951175e+2, 2.5489664e+2, -319614.16, -528448.6, -4942.5664, -0.016934153, 0.039874453, -319497.25, 122522.45, 0.0, 10.001441, 9.998696 
9.9513745e+2, 2.6489624e+2, -250680.92, -475907.34, -79485.89, 0.02328237, 0.14779717, -225454.58, 118572.68, 0.000000028595345, 10.001376, 9.998418 
9.951591e+2, 2.748954e+2, -327146.47, -463105.47, -97369.266, 0.31966886, 0.21056907, -276374.2, -30334.3, 0.000003781716, 10.000184, 9.998407 
9.9517936e+2, 2.848942e+2, -206185.08, -403832.72, 17787.018, 0.31823343, 0.277446, -204597.13, -56541.65, 0.000036350866, 10.000557, 9.997964 
9.9519825e+2, 2.9489264e+2, 180615.89, -165806.05, 45407.07, 0.00079889933, 0.3145155, 186468.72, 236542.89, 0.00015374523, 10.00254, 9.997968 
9.9521756e+2, 3.0489108e+2, 215595.75, -127058.01, -80715.39, -0.08569886, 0.3689501, 233657.03, 233657.03, 0.0003968945, 10.002463, 9.997935 
9.9523866e+2, 3.148871e+2, -45582.863, -134327.06, -57610.375, 0.1889938, 0.16393502, -17237.436, -17237.436, 0.00074672233, 10.000131, 9.99901 
1.00486465e+3, 1.24884374e+2, -1858423.6, -1721842.4, 25176.734, 0.27366787, 0.14478828, -1717349.1, -1195.5203, 0.00014134821, 9.998723, 10.000559 
1.0048826e+3, 1.3488561e+2, -1572659.9, -1510655.0, -25277.627, 0.046613086, 0.17754993, -1501656.1, 116479.984, 0.000046426092, 9.999938, 10.000751 
1.0049024e+3, 1.4488606e+2, -1507973.8, -1549872.0, -37627.402, 0.053294264, 0.210118, -1485856.8, 34272.32, 0.00000474816, 10.000223, 9.999667 
1.00492306e+3, 1.548851e+2, -1507890.0, -1498462.6, -33721.824, 0.14474712, 0.13427728, -1469126.6, -46987.535, 0.000000004412824, 9.999549, 9.999675 
1.0049425e+3, 1.648846e+2, -1485360.9, -1475818.0, -36613.027, 0.14893696, 0.13760456, -1443666.8, -119522.32, 0.0, 9.9991865, 9.999337 
1.00496076e+3, 1.7488442e+2, -1389731.1, -1375587.3, -20022.652, 0.061688013, 0.17637391, -1361424.3, -135278.14, 0.0, 9.999165, 9.999358 
1.0049798e+3, 1.848836e+2, -1213221.0, -1163470.9, 25745.662, 0.017383475, 0.12657227, -1152546.4, -24394.947, 0.0, 9.999367, 10.000047 
1.0049997e+3, 1.9488199e+2, -1058860.6, -1036851.9, 21631.219, 0.017973958, -0.05058648, -1023586.8, 6574.194, 0.0, 9.999747, 10.000059 
1.0050197e+3, 2.0488141e+2, -1073131.6, -1210009.8, 16081.465, 0.038881987, -0.015443556, -1071267.6, -139099.7, 0.0, 9.999912, 9.998117 
1.0050397e+3, 2.1488172e+2, -988590.44, -1119245.5, 9674.759, 0.082405165, 0.19557245, -987877.94, -153704.16, 0.0, 9.9998255, 9.998108 
1.0050597e+3, 2.2488052e+2, -772381.8, -841055.75, -5687.0796, 0.1248491, 0.21470709, -771914.06, -35727.88, 0.0, 10.000108, 9.99921 
1.0050795e+3, 2.3487765e+2, -572654.6, -692085.2, -34431.402, 0.1668427, -0.0056630387, -563439.25, 74767.27, 0.0, 10.000793, 9.99923 
1.00509904e+3, 2.4487606e+2, -494190.03, -655061.5, 562.5759, 0.12333744, -0.061397795, -494188.06, 46030.76, 0.0, 10.000877, 9.998773 
1.0051185e+3, 2.5487572e+2, -474773.28, -591745.1, -10251.681, -0.00014360578, 0.018380588, -473881.6, -31658.066, 0.0, 10.000332, 9.998794 
1.0051387e+3, 2.6487502e+2, -356076.5, -524482.06, -69653.914, 0.047128342, 0.09191863, -331000.84, 13232.165, 0.000000017098808, 10.000661, 9.998423 
1.0051596e+3, 2.7487382e+2, -74223.9, -340174.44, -53638.273, 0.27050033, 0.11771611, -63813.375, 182435.83, 0.000003428396, 10.001926, 9.998407 
1.0051799e+3, 2.8487292e+2, -14850.466, -247945.8, 95218.72, 0.26476827, 0.1874437, 19100.916, 167362.14, 0.00003625069, 10.001592, 9.998536 
1.0051995e+3, 2.948724e+2, -218545.64, -295856.44, 115323.31, 0.026524125, 0.2707403, -135571.66, -85302.8, 0.00015665985, 9.999517, 9.998533 
1.0052191e+3, 3.0487168e+2, -213103.77, -287985.25, -6373.2764, -0.025736958, 0.35907376, -212565.2, -212565.2, 0.0004073917, 9.999311, 9.99835 
1.00523956e+3, 3.1486842e+2, 129796.43, 15584.98, 6289.7246, 0.22612609, 0.179697, 130141.766, 130141.766, 0.00076893705, 10.001041, 9.999603 
1.0148623e+3, 1.2486708e+2, -1878121.0, -1760851.3, 58862.66, 0.13830183, 0.45867905, -1736402.6, -20073.355, 0.0001798155, 9.998713, 10.000298 
1.0148835e+3, 1.3486494e+2, -1578629.1, -1538526.8, 26783.373, 0.13417944, 0.17669153, -1525120.5, 93222.61, 0.000062927356, 9.999996, 10.000534 
1.0149041e+3, 1.4486434e+2, -1493530.4, -1527087.9, -69176.375, 0.18586811, 0.10629576, -1439127.0, 81217.664, 0.000007860604, 10.000252, 9.999811 
1.0149217e+3, 1.548648e+2, -1500446.0, -1481322.6, -55733.72, 0.036248513, 0.15945023, -1434336.4, -11997.644, 0.000000028517778, 9.999541, 9.999796 
1.01494074e+3, 1.6486427e+2, -1444986.6, -1390767.0, -44389.71, 0.045198996, 0.12648967, -1365863.5, -41521.703, 0.0, 9.999178, 9.999927 
1.0149618e+3, 1.7486265e+2, -1343472.3, -1285413.8, -16055.074, 0.23968352, -0.041829083, -1281269.8, -54914.99, 0.0, 9.999184, 9.9999695 
1.0149813e+3, 1.8486288e+2, -1213391.6, -1159852.5, 34096.03, 0.21415897, -0.018030139, -1143272.9, -14922.745, 0.0, 9.99935, 10.00008 
1.0149989e+3, 1.948649e+2, -1064043.9, -1037134.25, 39729.438, -0.046636567, 0.16509552, -1008643.1, 21685.379, 0.0, 9.9997, 10.000081 
1.0150185e+3, 2.0486449e+2, -1083672.4, -1219526.9, 7746.6953, -0.07737685, 0.21895905, -1083232.1, -150897.72, 0.0, 9.999861, 9.998077 
1.0150402e+3, 2.1486142e+2, -997902.4, -1128944.0, 10019.398, 0.13798256, 0.0956152, -997140.7, -162770.42, 0.0, 9.999784, 9.998062 
1.01505995e+3, 2.248595e+2, -823386.9, -931197.5, 13390.878, 0.13154478, 0.07595422, -821748.5, -85358.55, 0.0, 10.000042, 9.998622 
1.0150776e+3, 2.3485872e+2, -624958.6, -784449.44, -3143.4104, -0.10859922, 0.12200698, -624896.7, 13497.11, 0.0, 10.000722, 9.998631 
1.0150979e+3, 2.4485718e+2, -518657.56, -689321.7, -24860.744, -0.09151334, 0.11268143, -515109.8, 25296.785, 0.0, 10.00081, 9.998567 
1.0151208e+3, 2.5485477e+2, -495992.0, -626009.7, -25385.432, 0.19989386, 0.0023252405, -491211.38, -48781.383, 0.0, 10.00029, 9.998578 
1.0151413e+3, 2.648532e+2, -320724.8, -440686.8, -25631.428, 0.23796149, -0.028617678, -315477.8, 28967.545, 0.000000011022683, 10.000612, 9.9990225 
1.01515904e+3, 2.7485242e+2, -37751.99, -251391.23, 3367.7642, 0.008029215, -0.02061201, -37698.91, 208754.6, 0.0000031084232, 10.001866, 9.999048 
1.01517886e+3, 2.8485158e+2, 20291.758, -164698.33, 15049.039, -0.008933479, -0.0079011405, 21508.008, 169970.19, 0.000035475463, 10.00155, 9.9991255 
1.01520084e+3, 2.9485074e+2, -185579.9, -217037.42, 43135.73, 0.20741513, -0.017599804, -155394.78, -104923.48, 0.000157892, 9.999477, 9.999091 
1.0152209e+3, 3.0485123e+2, -181380.61, -214465.5, 55459.086, 0.2191214, 0.1405095, -140049.38, -140049.38, 0.00041497825, 9.999282, 9.998869 
1.0152394e+3, 3.1485084e+2, 161562.14, 108560.055, 84813.65, 0.08598019, 0.19531468, 223918.63, 223918.63, 0.00078677625, 10.000939, 10.000286 
1.02486156e+3, 1.2484686e+2, -1761390.8, -1743000.4, 91864.44, 0.15468213, 0.46544293, -1659872.1, 56652.16, 0.00022439056, 9.999661, 9.999969 
1.02488354e+3, 1.3484432e+2, -1753538.5, -1660077.4, 37023.176, 0.18677062, 0.17593703, -1647188.8, -28643.76, 0.0000828242, 9.998946, 10.000211 
1.02490455e+3, 1.4484352e+2, -1691663.0, -1596204.6, -61539.203, 0.27619642, 0.0888418, -1566054.8, -45505.38, 0.000012107546, 9.998767, 10.000054 
1.024921e+3, 1.5484418e+2, -1517296.4, -1460285.3, -47357.63, 0.04564812, 0.13417798, -1433516.0, -10975.841, 0.00000009714164, 9.999292, 10.000061 
1.02493994e+3, 1.6484393e+2, -1334470.4, -1311864.6, -15229.761, 0.021963853, 0.10356631, -1304201.8, 20337.826, 0.0, 9.999831, 10.000151 
1.02496155e+3, 1.748427e+2, -1148034.9, -1167127.3, -29053.893, 0.23487851, -0.046714645, -1126999.1, 99549.05, 0.0, 10.0004225, 10.000187 
1.0249813e+3, 1.84843e+2, -1084567.0, -1145826.0, -18469.402, 0.233706, -0.0042406553, -1079429.4, 49114.523, 0.0, 10.000442, 9.999649 
1.024999e+3, 1.9484475e+2, -1070923.5, -1085250.4, -56184.516, -0.0040732133, 0.19626574, -1021447.6, 9080.066, 0.0, 9.999856, 9.999669 
1.0250187e+3, 2.0484427e+2, -1037967.56, -1145523.8, -59715.664, -0.044448774, 0.24018595, -1011383.7, -78849.53, 0.0, 9.9999485, 9.998547 
1.0250403e+3, 2.1484135e+2, -825753.2, -993242.1, -29593.117, 0.12819734, 0.08639578, -820678.25, 13886.985, 0.0, 10.000737, 9.998538 
1.0250602e+3, 2.248396e+2, -692778.75, -891419.9, 11645.245, 0.110925995, 0.06745758, -692098.4, 44485.098, 0.0, 10.001033, 9.99842 
1.0250784e+3, 2.3483898e+2, -640222.1, -814232.44, 12847.305, -0.10467169, 0.15286894, -639278.75, -689.498, 0.0, 10.000721, 9.9984255 
1.0250988e+3, 2.448376e+2, -537807.7, -668369.7, 14437.565, -0.07151995, 0.1579227, -536230.25, 4371.1255, 0.0, 10.00056, 9.998827 
1.0251214e+3, 2.5483534e+2, -444428.66, -571928.06, 33380.96, 0.224303, 0.037541118, -436217.88, 6403.4736, 0.0, 10.0005245, 9.998835 
1.0251417e+3, 2.6483387e+2, -356391.94, -455246.4, 68406.4, 0.23608987, -0.0014122543, -321424.34, 23210.33, 0.00000001218603, 10.000337, 9.9990635 
1.0251593e+3, 2.7483308e+2, -317631.9, -380015.44, 45808.87, -0.046750076, 0.0017530271, -293403.66, -46761.664, 0.0000027111198, 9.999909, 9.999109 
1.0251792e+3, 2.8483203e+2, -159571.52, -248778.78, -6599.2495, -0.058573827, -0.011017698, -159085.97, -10434.103, 0.00003356216, 10.000315, 9.999138 
1.0252015e+3, 2.9483065e+2, 122946.0, -67255.91, -35006.75, 0.22118194, -0.07314779, 129184.4, 179849.66, 0.00015613875, 10.0016, 9.999094 
1.0252214e+3, 3.0483082e+2, 152426.05, -70704.836, -31859.203, 0.23469843, 0.0606284, 156885.84, 156885.84, 0.0004183757, 10.001657, 9.998712 
1.0252396e+3, 3.1483045e+2, 60047.598, 50561.523, -70846.64, 0.04552198, 0.13307227, 126309.8, 126309.8, 0.000800343, 10.000274, 10.000211 
1.0348622e+3, 1.2482357e+2, -1784917.3, -1800409.0, 42027.457, 0.22323005, 0.14198272, -1749927.8, -33188.344, 0.00027553758, 9.999707, 9.999548 
1.0348822e+3, 1.3482386e+2, -1793179.4, -1729414.0, 10664.464, 0.1554542, 0.17830335, -1727677.6, -108937.24, 0.000106410545, 9.998899, 9.999756 
1.0349033e+3, 1.4482377e+2, -1664251.3, -1535695.6, -48537.17, 0.2630927, 0.16908781, -1519428.5, 1312.9244, 0.000017580353, 9.998748, 10.000482 
1.03492126e+3, 1.5482329e+2, -1480576.3, -1389693.1, -20902.105, 0.12797794, 0.05289634, -1385116.4, 37626.516, 0.00000023822265, 9.999312, 10.000538 
1.03494e+3, 1.648236e+2, -1344892.5, -1337775.3, 502.519, 0.034574416, 0.063157596, -1337740.0, -13002.787, 0.0, 9.999848, 9.999965 
1.0349597e+3, 1.7482467e+2, -1164979.8, -1201954.0, -2788.7656, 0.004969129, 0.16396181, -1164770.6, 61954.598, 0.0, 10.000417, 9.999953 
1.03497975e+3, 1.848241e+2, -1150809.3, -1276552.1, -46180.164, 0.024880089, 0.17506182, -1135671.5, -6940.199, 0.0, 10.000415, 9.998762 
1.0350001e+3, 1.9482164e+2, -1138634.6, -1219434.0, -75735.69, 0.10038872, 0.04258167, -1093197.0, -62439.043, 0.0, 9.999826, 9.998762 
1.0350201e+3, 2.0482078e+2, -978281.94, -1010260.94, -38139.992, 0.097734794, 0.04756545, -952915.4, -20148.111, 0.0, 9.999897, 9.999499 
1.03503995e+3, 2.1482149e+2, -763976.06, -854072.7, 5557.2827, 0.010559753, 0.15771589, -763634.56, 71124.4, 0.0, 10.000684, 9.99952 
1.0350604e+3, 2.2482076e+2, -694512.8, -874238.1, -5117.1567, 0.0157013, 0.18437721, -694367.2, 42399.555, 0.0, 10.000947, 9.998577 
1.03508145e+3, 2.3481843e+2, -637671.6, -797354.5, 6330.4453, 0.118981294, 0.083473325, -637421.06, 1371.6268, 0.0, 10.000668, 9.998568 
1.03510134e+3, 2.448173e+2, -500542.78, -576241.1, 8824.044, 0.12819657, 0.07347419, -499527.78, 41275.45, 0.0, 10.000497, 9.99949 
1.0351203e+3, 2.5481737e+2, -397280.63, -473749.4, 38816.77, 0.042574912, 0.11567543, -381030.06, 61768.535, 0.0, 10.000515, 9.9995165 
1.03513986e+3, 2.6481685e+2, -392891.5, -523145.8, 47803.742, 0.010302741, 0.1641175, -377230.38, -32428.355, 0.00000000560088, 10.00031, 9.998607 
1.0351601e+3, 2.748157e+2, -359999.72, -456728.16, 36419.625, 0.039903034, 0.17563124, -347820.7, -101005.414, 0.0000022721786, 9.999866, 9.998602 
1.0351807e+3, 2.848141e+2, -204509.0, -333532.2, 37902.797, 0.04898266, 0.16197719, -194198.36, -45366.793, 0.00003115889, 10.000277, 9.998574 
1.0352013e+3, 2.9481208e+2, 80105.5, -148106.67, 25249.43, 0.033552498, 0.0886679, 82865.71, 133716.63, 0.00015172908, 10.001562, 9.998559 
1.03522085e+3, 3.048105e+2, 89004.94, -191884.83, -81906.55, -0.0068471595, 0.1137722, 111143.72, 111143.72, 0.0004166064, 10.001619, 9.997892 
1.0352395e+3, 3.148076e+2, -8415.83, -63654.438, -104537.47, -0.008519497, 0.018041493, 72089.375, 72089.375, 0.00080601213, 10.000173, 9.999466 
1.0448624e+3, 1.24800704e+2, -1697923.5, -1747846.4, -78199.51, 0.25035846, -0.028552206, -1640798.1, 76158.66, 0.0003338259, 10.000254, 9.999651 
1.0448811e+3, 1.3480212e+2, -1732170.6, -1689719.1, -71171.81, 0.14984715, 0.11502607, -1636675.4, -17725.678, 0.00013404706, 9.999261, 9.99986 
1.0449022e+3, 1.4480284e+2, -1615716.4, -1462361.3, -40096.3, 0.288299, 0.15733477, -1452510.5, 68434.0, 0.000024406929, 9.998873, 10.000924 
1.0449207e+3, 1.5480314e+2, -1460077.6, -1327575.5, -29278.795, 0.14142628, 0.07718409, -1321394.3, 101543.78, 0.0000004785213, 9.999236, 10.0009985 
1.04493946e+3, 1.6480362e+2, -1440081.8, -1411311.8, -10783.468, 0.022637479, 0.091416635, -1407718.6, -82787.05, 0.0, 9.999319, 9.999711 
1.044959e+3, 1.7480412e+2, -1364537.8, -1323771.8, -26224.16, -0.05142822, 0.16143368, -1310940.8, -84014.13, 0.0, 9.999167, 9.999709 
1.04497924e+3, 1.8480316e+2, -1289777.3, -1344185.9, -31523.598, -0.014050692, 0.14500093, -1275342.5, -146405.5, 0.0, 9.999459, 9.998761 
1.0450005e+3, 1.9480057e+2, -1083344.8, -1193546.1, -2281.0923, 0.14455548, -0.0010711902, -1083297.6, -52333.207, 0.0, 10.000203, 9.998763 
1.04502074e+3, 2.0479983e+2, -925333.1, -941592.1, 51187.95, 0.16762923, -0.00070990727, -881633.1, 51338.594, 0.0, 10.000081, 9.999879 
1.0450402e+3, 2.1480092e+2, -982714.0, -913254.6, 38104.66, 0.047729015, 0.107235834, -896427.4, -61468.027, 0.0, 9.998995, 9.999922 
1.0450605e+3, 2.2480074e+2, -957375.06, -959964.3, 41609.85, 0.048056815, 0.14878064, -917039.7, -180077.53, 0.0, 9.998964, 9.998943 
1.0450823e+3, 2.3479913e+2, -700056.06, -786946.1, 56599.484, 0.17471477, 0.08547826, -672150.06, -33168.24, 0.0, 10.000065, 9.998928 
1.0451022e+3, 2.4479842e+2, -461766.47, -558319.75, 43225.8, 0.15226498, 0.09655668, -445242.63, 95746.49, 0.0, 10.000748, 9.999501 
1.0451202e+3, 2.5479853e+2, -336859.2, -441551.78, 15189.032, -0.022327095, 0.14349209, -334700.06, 108284.01, 0.0, 10.000916, 9.999546 
1.04514025e+3, 2.6479787e+2, -258045.22, -486619.22, 14956.925, -0.034185167, 0.18209635, -257070.66, 87918.82, 0.0000000009945924, 10.001363, 9.998347 
1.045162e+3, 2.7479604e+2, -59864.605, -342713.72, 7579.7476, 0.1334471, 0.16159524, -59661.633, 187346.52, 0.0000020282196, 10.002056, 9.998327 
1.04518265e+3, 2.8479427e+2, -3314.5652, -275464.66, 34039.855, 0.14523178, 0.1600587, 878.4537, 149905.11, 0.000028619394, 10.001814, 9.998237 
1.0452019e+3, 2.9479253e+2, -93948.16, -266544.5, 23404.164, -0.005962429, 0.14741476, -90830.836, -39786.332, 0.00014518836, 10.000513, 9.998249 
1.0452212e+3, 3.0479085e+2, -96010.29, -286713.78, -44595.188, -0.0620903, 0.17979227, -86097.2, -86097.2, 0.00040815427, 10.000368, 9.997847 
1.04524076e+3, 3.147875e+2, 168101.38, 22345.61, -32765.842, 0.04603518, 0.044609483, 175128.34, 175128.34, 0.00079748995, 10.001361, 9.999497 
1.0548615e+3, 1.24778435e+2, -1648715.6, -1635742.9, -148987.69, 0.108327426, -0.03169289, -1493100.5, 224074.44, 0.00039971265, 10.00023, 10.000421 
1.05488025e+3, 1.3477924e+2, -1684249.8, -1587176.8, -103350.79, 0.121526696, -0.018532364, -1521532.8, 97638.91, 0.00016604259, 9.999257, 10.000561 
1.0549013e+3, 1.4478086e+2, -1582368.5, -1401664.1, -34363.336, 0.30052477, 0.055588543, -1395350.1, 125806.94, 0.000032768716, 9.998903, 10.0013275 
1.0549189e+3, 1.5478393e+2, -1434270.1, -1275586.6, -12097.999, 0.037297297, 0.21426839, -1274669.5, 148454.34, 0.0000008393984, 9.999235, 10.00136 
1.054938e+3, 1.6478413e+2, -1463558.1, -1453931.8, -21385.875, -0.07108107, 0.19693545, -1436824.1, -111703.195, 0.0, 9.999296, 9.999428 
1.05495885e+3, 1.7478107e+2, -1384551.5, -1367666.8, -27507.473, 0.018830374, -0.06140714, -1347335.3, -120183.26, 0.0, 9.999175, 9.999405 
1.05497964e+3, 1.8478018e+2, -1231188.3, -1214764.1, -10413.851, 0.07312184, -0.098527655, -1209714.0, -80553.2, 0.0, 9.999428, 9.999663 
1.0550001e+3, 1.9478159e+2, -1024869.6, -1062822.0, 30956.262, 0.08077901, 0.06339113, -1007536.25, 23609.791, 0.0, 10.000163, 9.99968 
1.05502054e+3, 2.0478152e+2, -945113.0, -974349.5, 5379.925, 0.11908927, 0.09388714, -944154.44, -11007.721, 0.0, 10.000042, 9.999674 
1.05504066e+3, 2.1477973e+2, -1004135.75, -950328.7, 1107.1328, 0.19374473, -0.063941136, -950305.94, -115140.47, 0.0, 9.998958, 9.999688 
1.0550608e+3, 2.2477956e+2, -928585.1, -886940.0, 75858.86, 0.16511819, -0.035368335, -829097.8, -91928.74, 0.0, 9.998905, 9.999475 
1.055081e+3, 2.3478103e+2, -667012.9, -708894.94, 103301.44, 0.024326548, 0.15214266, -582551.25, 56606.086, 0.0, 10.000019, 9.999488 
1.0551011e+3, 2.447809e+2, -510885.63, -647818.3, 44540.066, -0.040136874, 0.22264273, -497672.97, 43486.285, 0.0, 10.000694, 9.998912 
1.05512135e+3, 2.5477895e+2, -386751.9, -537024.25, 26232.012, -0.020961566, 0.12422109, -382304.38, 60872.492, 0.0, 10.000876, 9.998911 
1.0551424e+3, 2.647768e+2, -274094.78, -502876.4, 38561.273, 0.052719265, 0.05574597, -267770.13, 77426.35, 0.000000000012280949, 10.001293, 9.998266 
1.0551647e+3, 2.747743e+2, -74208.32, -356101.22, 43393.8, 0.18524916, -0.031070985, -67679.61, 179539.95, 0.0000016155456, 10.0019865, 9.998269 
1.0551849e+3, 2.8477275e+2, -17164.563, -296671.1, -16154.632, 0.18459561, -0.0028200075, -16233.971, 133002.03, 0.00002530106, 10.0017805, 9.998108 
1.055203e+3, 2.9477215e+2, -106239.71, -291254.5, -15834.91, 0.045211025, 0.113667056, -104894.23, -53648.82, 0.00013660942, 10.000507, 9.998085 
1.0552223e+3, 3.047718e+2, -49246.324, -189026.03, -7665.2456, 0.004362484, 0.2566761, -48827.234, -48827.234, 0.00039392404, 10.000365, 9.998518 
1.05524294e+3, 3.1476992e+2, 212636.72, 127513.46, 22451.504, 0.10242958, 0.19999789, 218195.38, 218195.38, 0.00077736063, 10.001308, 10.000248 
1.0648602e+3, 1.24756984e+2, -2070065.8, -1763732.0, -97110.02, 0.123344585, -0.022761278, -1735541.6, -18154.402, 0.00047318285, 9.997, 10.001107 
1.0648782e+3, 1.3475858e+2, -1771243.1, -1555984.1, -51361.14, 0.043777887, 0.0032916153, -1544357.3, 75015.98, 0.00020250746, 9.998337, 10.00122 
1.06489964e+3, 1.4476013e+2, -1596919.6, -1442279.9, 896.2487, 0.23467118, 0.05312849, -1442274.6, 79083.63, 0.000042863663, 9.998957, 10.001019 
1.0649178e+3, 1.547624e+2, -1503024.6, -1344150.6, -44099.766, 0.02459369, 0.16379023, -1332730.4, 90604.086, 0.0000013547858, 9.998923, 10.001036 
1.0649375e+3, 1.6476257e+2, -1470842.5, -1420910.9, -46468.18, -0.038274903, 0.14499673, -1393126.5, -67793.56, 0.0, 9.999086, 9.999759 
1.064959e+3, 1.7476045e+2, -1321154.6, -1297010.0, -14852.173, 0.094164535, -0.052267853, -1289942.6, -62587.047, 0.0, 9.999443, 9.999763 
1.0649796e+3, 1.8476029e+2, -1155787.6, -1097175.5, 38484.566, 0.12641376, -0.07044014, -1078109.0, 51247.246, 0.0, 9.999593, 10.000393 
1.0649994e+3, 1.9476213e+2, -1070227.6, -1001966.0, 55882.027, 0.03414732, 0.061158013, -970616.2, 60717.953, 0.0, 9.999494, 10.000422 
1.0650197e+3, 2.0476235e+2, -1033333.44, -1064594.0, 655.1186, 0.057202805, 0.10254161, -1033319.75, -99986.72, 0.0, 9.999647, 9.999244 
1.0650403e+3, 2.1476074e+2, -874103.7, -939338.9, -33572.113, 0.21228126, 0.009841401, -859913.25, -24557.758, 0.0, 10.000079, 9.999222 
1.06506065e+3, 2.2476056e+2, -710677.75, -734967.75, 66044.98, 0.20775168, 0.041931342, -655670.44, 81689.17, 0.0, 10.000195, 9.999901 
1.0650809e+3, 2.3476182e+2, -649218.0, -648780.9, 78197.3, 0.031094076, 0.16430198, -570801.8, 68543.02, 0.0, 9.999924, 9.999948 
1.06510155e+3, 2.4476144e+2, -632977.6, -740297.9, 31277.79, -0.023542903, 0.20182094, -624527.3, -83179.44, 0.0, 10.000012, 9.998599 
1.0651227e+3, 2.5475916e+2, -463449.9, -610512.9, 19574.531, 0.051066928, 0.10436933, -460889.06, -17517.49, 0.0, 10.000514, 9.998576 
1.065144e+3, 2.647571e+2, -348034.8, -513470.72, 59469.793, 0.11255705, 0.0494933, -328875.78, 16515.59, 0.0, 10.000672, 9.998496 
1.0651656e+3, 2.747552e+2, -289661.06, -429314.53, 75422.74, 0.16802213, -0.0030774658, -256704.72, -9297.234, 0.00000091217555, 10.000379, 9.99854 
1.0651858e+3, 2.8475362e+2, -137976.6, -336304.22, 43419.297, 0.14471412, 0.0013327441, -128887.47, 20535.236, 0.00002073869, 10.000878, 9.998269 
1.0652044e+3, 2.947523e+2, 162197.83, -142090.23, 52634.656, 0.03910991, 0.025365796, 171045.14, 222483.1, 0.00012474366, 10.002267, 9.998261 
1.0652237e+3, 3.047519e+2, 267424.6, -52281.65, 57085.547, 0.004018, 0.16224127, 277311.78, 277311.78, 0.00037297295, 10.002594, 9.998387 
1.06524415e+3, 3.1475076e+2, 261694.53, 143467.81, 8788.49, 0.07687483, 0.18792093, 262344.25, 262344.25, 0.00074707123, 10.001667, 10.000183 
1.07485816e+3, 1.24736436e+2, -2028976.5, -1664132.5, -87271.414, 0.19673495, -0.0030905092, -1644331.6, 73261.29, 0.00055371417, 9.996954, 10.001803 
1.07487485e+3, 1.3474034e+2, -1734520.0, -1469955.0, 3397.0435, -0.13634104, 0.1914795, -1469911.4, 149640.67, 0.00024334127, 9.9983015, 10.001823 
1.07489675e+3, 1.4474086e+2, -1668355.8, -1593805.3, -6620.563, 0.033857767, 0.15855116, -1593221.9, -71675.84, 0.00005483326, 9.998963, 9.999978 
1.07491724e+3, 1.5473852e+2, -1577056.1, -1501188.9, -40418.8, 0.056115232, -0.085770704, -1483691.1, -60120.957, 0.000002073113, 9.998934, 9.999954 
1.0749377e+3, 1.6473895e+2, -1405613.3, -1284693.8, -39530.082, 0.07954984, -0.06793973, -1272917.8, 52649.8, 0.0000000000166348, 9.999084, 10.000693 
1.0749589e+3, 1.7474236e+2, -1249790.8, -1153461.9, 3446.6177, 0.1341135, 0.18757501, -1153338.8, 74197.75, 0.0, 9.999457, 10.000741 
1.074979e+3, 1.8474361e+2, -1120881.1, -1017548.9, 28357.934, 0.09931606, 0.23260207, -1010278.06, 119244.055, 0.0, 9.999566, 10.000951 
1.0749983e+3, 1.9474234e+2, -1035757.56, -922706.75, 55491.45, -0.042751007, -0.0020017757, -900020.9, 131506.42, 0.0, 9.999463, 10.000979 
1.0750182e+3, 2.0474242e+2, -1087853.5, -1170386.8, 9348.676, -0.06026933, 0.03117203, -1086807.8, -153278.11, 0.0, 9.99961, 9.998539 
1.0750389e+3, 2.147439e+2, -933459.7, -1049624.6, -12447.451, 0.06166761, 0.3195858, -932140.9, -96611.22, 0.0, 10.000018, 9.998497 
1.0750603e+3, 2.2474374e+2, -697153.1, -689594.3, 50966.703, 0.13332692, 0.37475747, -642267.06, 95266.51, 0.0, 10.000122, 10.000247 
1.07508205e+3, 2.3474169e+2, -633043.44, -599190.4, 72905.71, 0.14929163, 0.12690382, -541272.06, 98270.71, 0.0, 9.999857, 10.00032 
1.07510336e+3, 2.4474016e+2, -648850.44, -760193.6, 45509.387, 0.1542317, 0.036021296, -632616.4, -91062.26, 0.0, 9.999953, 9.998493 
1.0751243e+3, 2.547391e+2, -474794.28, -628126.3, 45538.473, 0.14708875, 0.07453776, -462289.5, -18720.648, 0.0, 10.000483, 9.998473 
1.0751448e+3, 2.6473862e+2, -316916.75, -438473.8, 44315.184, 0.11085347, 0.15333708, -302476.5, 43098.832, 0.000000000031670343, 10.000628, 9.999033 
1.0751649e+3, 2.747386e+2, -259506.88, -355720.66, 70290.72, 0.04227901, 0.23385262, -222437.14, 25136.172, 0.00000057346807, 10.000328, 9.999072 
1.0751852e+3, 2.847368e+2, -114663.46, -274889.25, 87497.87, -0.017800748, 0.16998693, -76142.67, 73445.3, 0.00001665899, 10.000823, 9.998716 
1.07520565e+3, 2.947329e+2, 182781.11, -81848.25, 112514.29, -0.06823161, -0.10386186, 224151.89, 275773.97, 0.000111651505, 10.002189, 9.998715 
1.0752253e+3, 3.0473122e+2, 199483.7, -177060.44, 23317.943, -0.10150546, -0.083431326, 200922.19, 200922.19, 0.00034802765, 10.002528, 9.997562 
1.075244e+3, 3.147301e+2, 181528.0, 3.2524748, -7864.9897, -0.11258802, 0.036460843, 181868.13, 181868.13, 0.0007106943, 10.001571, 9.999246 
1.0848555e+3, 1.2471678e+2, -1981094.8, -1661366.6, -22460.27, 0.22230965, 0.06912243, -1659796.5, 57990.51, 0.00064071716, 9.997371, 10.001626 
1.0848739e+3, 1.3471983e+2, -1692640.3, -1476776.8, 16311.86, -0.07652488, 0.20422043, -1475551.1, 144203.02, 0.00028839763, 9.998706, 10.001585 
1.0848961e+3, 1.4472003e+2, -1641898.4, -1580772.1, -33511.496, 0.07223081, 0.15229778, -1565979.8, -44228.27, 0.00006873226, 9.999161, 9.999969 
1.0849156e+3, 1.5471786e+2, -1616234.6, -1520358.5, -4251.2397, 0.020817375, -0.072564304, -1520170.4, -96395.63, 0.0000030594845, 9.998676, 9.999943 
1.08493604e+3, 1.6471869e+2, -1445274.4, -1248762.1, 53516.375, 0.029405741, -0.040389143, -1235133.3, 90634.586, 0.000000000186287, 9.998575, 10.001183 
1.084958e+3, 1.7472275e+2, -1292284.8, -1119037.9, 48847.957, 0.13279134, 0.23116344, -1106214.1, 121514.2, 0.0, 9.998932, 10.001231 
1.08497836e+3, 1.8472405e+2, -1204706.8, -1077380.1, 23053.12, 0.111326545, 0.26464674, -1073334.8, 56378.617, 0.0, 9.999073, 10.000778 
1.0849973e+3, 1.9472219e+2, -1127134.1, -989550.1, -17942.686, -0.056852046, -0.009231803, -987248.7, 44477.86, 0.0, 9.998936, 10.000773 
1.08501725e+3, 2.0472226e+2, -1149918.1, -1190091.5, -31148.525, -0.085167445, 0.029879374, -1132941.3, -199211.47, 0.0, 9.99914, 9.998625 
1.08503856e+3, 2.1472433e+2, -969514.5, -1058027.8, -4460.0293, 0.040457763, 0.36760077, -969290.4, -133566.77, 0.0, 9.99973, 9.998574 
1.0850602e+3, 2.2472411e+2, -732005.94, -709402.56, 58068.984, 0.13258682, 0.41554058, -661545.7, 76181.75, 0.0, 9.999902, 10.0002165 
1.08508214e+3, 2.3472133e+2, -669933.9, -620987.6, 35488.402, 0.18796922, 0.09862275, -602352.0, 37391.19, 0.0, 9.999621, 10.000285 
1.08510375e+3, 2.447198e+2, -653893.75, -735179.1, 47114.664, 0.20535053, -0.0020950327, -632314.06, -90560.22, 0.0, 9.999798, 9.998743 
1.085125e+3, 2.5471964e+2, -460142.94, -592706.3, 64976.133, 0.18301266, 0.09931102, -433606.72, 10152.688, 0.0, 10.000464, 9.998726 
1.0851454e+3, 2.6471946e+2, -329104.97, -453027.47, 28899.707, 0.12103308, 0.19978954, -322696.72, 23066.82, 0.000000020287489, 10.000583, 9.998953 
1.0851647e+3, 2.7471906e+2, -306187.78, -388012.84, -5589.1953, 0.013412134, 0.25214162, -305807.78, -58040.57, 0.0000009638229, 10.000052, 9.9989805 
1.0851852e+3, 2.8471735e+2, -234090.94, -301696.44, 38754.25, -0.045682732, 0.18862213, -216468.81, -66687.38, 0.000015514439, 9.99987, 9.998991 
1.08520694e+3, 2.9471415e+2, -110621.9, -185318.33, 38389.406, -0.03870151, -0.046601865, -94410.47, -42603.14, 0.000103128805, 10.000023, 9.999041 
1.08522706e+3, 3.0471265e+2, -77697.08, -300017.84, -39768.555, -0.076095715, -0.027164912, -70797.445, -70797.445, 0.00032888475, 10.000591, 9.997645 
1.085245e+3, 3.1471097e+2, 184458.89, 9156.966, -26459.662, -0.17091088, 0.028142191, 188365.6, 188365.6, 0.0006833059, 10.001578, 9.999291 
1.09485194e+3, 1.2469826e+2, -2055480.9, -1810868.1, -13572.583, 0.10341001, 0.19751097, -1810117.4, -92150.28, 0.000734217, 9.997359, 10.0006 
1.09487526e+3, 1.3469723e+2, -1775538.4, -1644767.5, 70895.03, 0.17961289, 0.037025098, -1613709.4, 6268.4966, 0.00033773432, 9.9986925, 10.000438 
1.0948977e+3, 1.4469776e+2, -1571741.1, -1437803.8, -54408.18, 0.30410954, 0.02908187, -1418487.8, 103485.875, 0.0000845864, 9.999169, 10.000947 
1.0949128e+3, 1.5470058e+2, -1544652.0, -1371877.4, -15488.684, -0.12609543, 0.20136888, -1370499.9, 53447.156, 0.0000043925156, 9.998676, 10.000963 
1.0949321e+3, 1.6470197e+2, -1441107.1, -1243379.1, 61011.977, -0.23792428, 0.237215, -1226068.5, 99863.31, 0.0000000006358386, 9.998585, 10.001218 
1.0949562e+3, 1.7470165e+2, -1287194.1, -1116505.1, 68972.9, 0.044991072, 0.06881665, -1092118.4, 135812.19, 0.0, 9.998958, 10.00124 
1.0949776e+3, 1.8470159e+2, -1272980.6, -1213575.3, 13108.562, 0.11732335, 0.013020531, -1210811.3, -80881.43, 0.0, 9.999055, 9.999848 
1.0949963e+3, 1.9470176e+2, -1200614.6, -1131933.5, -17062.21, -0.048556164, 0.036478773, -1127928.4, -95997.58, 0.0, 9.998894, 9.999816 
1.09501675e+3, 2.0470196e+2, -1098196.9, -1074009.9, -16499.188, -0.06141358, 0.09821906, -1065646.8, -131713.98, 0.0, 9.999099, 9.999444 
1.09503895e+3, 2.1470217e+2, -916988.44, -934023.25, 22271.053, 0.10101131, 0.16315861, -901661.6, -65725.71, 0.0, 9.999664, 9.999459 
1.0950604e+3, 2.2470184e+2, -773735.44, -780333.6, 42832.637, 0.1586569, 0.1734425, -734075.06, 3864.8486, 0.0, 9.999833, 9.999763 
1.0950809e+3, 2.3470074e+2, -712015.0, -697340.5, 31674.17, 0.10050685, 0.07373819, -672164.8, -32218.7, 0.0, 9.99957, 9.999786 
1.0951024e+3, 2.4470034e+2, -618744.1, -652065.9, 65395.715, 0.08347742, 0.08396229, -567920.3, -25972.883, 0.0, 9.999753, 9.999334 
1.09512486e+3, 2.5470075e+2, -423493.4, -504131.84, 96136.625, 0.11792984, 0.17691773, -359563.44, 84379.75, 0.0, 10.00041, 9.99936 
1.0951459e+3, 2.646997e+2, -388755.0, -559914.75, 6819.5845, 0.10195553, 0.19410655, -388483.72, -42528.617, 0.00000010014453, 10.00051, 9.998254 
1.095165e+3, 2.7469677e+2, -358374.5, -494277.97, -15987.998, 0.022800677, 0.06707412, -356518.97, -108531.836, 0.0000018004142, 10.000041, 9.998257 
1.09518565e+3, 2.8469536e+2, -223431.69, -284405.75, 38605.805, 0.0066105956, 0.061273076, -204726.58, -54724.72, 0.000016749296, 9.9998865, 9.9991045 
1.09520815e+3, 2.9469568e+2, -104763.25, -170995.7, 52352.957, 0.06790628, 0.16412212, -75931.78, -23935.982, 0.00009990713, 10.000005, 9.999153 
1.0952288e+3, 3.0469584e+2, -21408.242, -171821.84, -6520.126, 0.018496322, 0.30100256, -21126.137, -21126.137, 0.00031833493, 10.000548, 9.998543 
1.09524645e+3, 3.1469318e+2, 234199.95, 122379.445, 21602.797, -0.20491348, 0.16816835, 238228.31, 238228.31, 0.00066799513, 10.0015335, 10.000094 
1.1048501e+3, 1.2467784e+2, -1891141.3, -1739793.5, -62871.082, 0.13659109, 0.19446401, -1717083.9, 1084.0226, 0.00083503575, 9.998507, 10.000538 
1.1048734e+3, 1.3467683e+2, -1953220.0, -1740435.4, 109927.15, 0.2005834, 0.044297133, -1693846.3, -73667.17, 0.0003918232, 9.997497, 10.000365 
1.104896e+3, 1.4467767e+2, -1813330.9, -1531414.5, 15390.095, 0.30467695, 0.059556022, -1530576.8, -8405.0625, 0.000102570426, 9.997414, 10.001148 
1.1049121e+3, 1.546807e+2, -1563047.0, -1355160.0, -19357.063, -0.05203498, 0.2318982, -1353373.0, 70769.24, 0.0000061708192, 9.998442, 10.001187 
1.1049313e+3, 1.6468191e+2, -1448884.6, -1250362.9, 16902.863, -0.17257299, 0.24022254, -1248934.0, 77193.84, 0.0000000015512864, 9.998548, 10.001188 
1.1049541e+3, 1.7468108e+2, -1473833.1, -1206358.4, 8944.677, 0.010832135, 0.021574754, -1206059.6, 22071.42, 0.0, 9.997685, 10.001229 
1.1049755e+3, 1.8468103e+2, -1482227.6, -1352100.8, 11833.029, 0.062322672, -0.016519196, -1351033.4, -220901.84, 0.0, 9.997775, 9.999519 
1.1049952e+3, 1.9468178e+2, -1217830.6, -1176534.0, 18962.43, -0.045350205, 0.097908154, -1169148.0, -137017.16, 0.0, 9.998931, 9.999492 
1.1050161e+3, 2.0468196e+2, -1042023.94, -980382.06, 27129.365, -0.025478015, 0.14637962, -970142.9, -36011.137, 0.0, 9.999205, 10.000036 
1.10503845e+3, 2.1468148e+2, -1039026.06, -922597.75, 33266.73, 0.14530964, 0.079692684, -913762.94, -77627.7, 0.0, 9.998529, 10.000084 
1.1050598e+3, 2.2468108e+2, -946720.8, -926287.94, 75846.33, 0.17180319, 0.07934544, -859973.06, -121834.06, 0.0, 9.998918, 9.999196 
1.1050802e+3, 2.3468065e+2, -620419.44, -719934.3, 45280.727, 0.03302853, 0.10725181, -602900.25, 37244.32, 0.0, 10.000492, 9.999182 
1.1051018e+3, 2.4468037e+2, -454710.97, -528757.9, 41932.137, 0.004747735, 0.14184278, -435796.6, 106349.5, 0.0, 10.000693, 9.999728 
1.10512465e+3, 2.5468025e+2, -548028.2, -515998.0, 42447.008, 0.10557029, 0.14227204, -486645.34, -42501.953, 0.0, 9.9993515, 9.999786 
1.10514626e+3, 2.6467922e+2, -542080.3, -635208.1, 16005.659, 0.14199731, 0.14147289, -539406.25, -193252.58, 0.00000018749917, 9.999465, 9.9982395 
1.1051664e+3, 2.7467707e+2, -196053.69, -420922.53, 31752.357, 0.10370353, 0.09301005, -191656.14, 56523.727, 0.0000025324416, 10.001182, 9.998212 
1.105187e+3, 2.8467575e+2, 13637.251, -190617.75, 72180.25, 0.0762762, 0.11108074, 36569.797, 186764.31, 0.000018771152, 10.001614, 9.998911 
1.1052084e+3, 2.946754e+2, -37565.367, -159940.98, 46078.777, 0.07000376, 0.1694047, -22155.516, 30040.045, 0.0001004618, 10.000565, 9.998955 
1.1052293e+3, 3.0467528e+2, 1574.4407, -161984.5, 20219.453, 0.033775203, 0.28737122, 4036.9314, 4036.9314, 0.00031494282, 10.0006895, 9.998556 
1.1052494e+3, 3.1467262e+2, 296162.44, 151602.55, -34461.383, -0.07560343, 0.14385447, 303957.34, 303957.34, 0.0006609386, 10.001963, 10.000089 
1.1148498e+3, 1.24655396e+2, -1826358.0, -1595900.5, -134712.78, 0.23471569, 0.032868575, -1533857.6, 184533.27, 0.000944546, 9.998488, 10.001525 
1.1148684e+3, 1.3465892e+2, -1890187.0, -1598182.4, 78963.07, -0.058400743, 0.23927927, -1578197.3, 42157.824, 0.00045159098, 9.99746, 10.001354 
1.11489065e+3, 1.4466009e+2, -1849078.3, -1610763.8, 46255.55, 0.015431662, 0.26243705, -1602100.8, -79757.875, 0.00012308804, 9.997428, 10.0006 
1.1149132e+3, 1.5465835e+2, -1605166.3, -1444952.0, 24362.564, 0.19314544, 0.017392697, -1441329.4, -16969.926, 0.000008505592, 9.998445, 10.000573 
1.1149335e+3, 1.6465856e+2, -1455225.3, -1265320.9, -20648.24, 0.18235189, -0.039250012, -1263101.6, 63254.434, 0.0000000033697685, 9.998554, 10.001083 
1.1149517e+3, 1.7466101e+2, -1480764.8, -1220795.6, -19388.71, -0.005125639, 0.084984586, -1219357.6, 8972.24, 0.0, 9.997684, 10.001136 
1.1149717e+3, 1.8466237e+2, -1463247.0, -1310112.0, 46219.555, -0.101850905, 0.17686833, -1297243.3, -166924.84, 0.0, 9.997764, 9.999811 
1.1149938e+3, 1.9466235e+2, -1201671.1, -1136401.0, 65705.11, -0.09969346, 0.182796, -1095672.5, -63347.203, 0.0, 9.9989, 9.999782 
1.1150155e+3, 2.0466231e+2, -1022232.6, -933071.9, -5291.6973, -0.026875634, 0.17741023, -932758.9, 1567.4578, 0.0, 9.999175, 10.000374 
1.1150368e+3, 2.1466213e+2, -1024406.9, -879328.94, 12563.635, 0.12806803, 0.1072373, -878248.94, -41926.99, 0.0, 9.998471, 10.000409 
1.11505836e+3, 2.2466175e+2, -1002043.0, -1029045.8, 126322.09, 0.12299866, 0.12539755, -888502.8, -150177.58, 0.0, 9.998867, 9.998514 
1.11508e+3, 2.3466109e+2, -680587.1, -828674.56, 110079.37, -0.05729073, 0.20036024, -621966.1, 18371.844, 0.0, 10.000421, 9.998471 
1.11510165e+3, 2.4465996e+2, -453245.88, -509655.1, -9094.555, -0.0756898, 0.17684382, -451815.84, 90533.234, 0.0, 10.000622, 9.999895 
1.1151239e+3, 2.546582e+2, -536897.4, -492142.13, -974.63446, 0.094218805, -0.0066112247, -492120.9, -47761.402, 0.0, 9.999345, 9.999956 
1.1151462e+3, 2.6465806e+2, -500533.16, -547053.44, 70649.99, 0.18877211, 0.042898647, -449412.8, -103053.516, 0.00000020790911, 9.9994545, 9.998851 
1.11516856e+3, 2.746597e+2, -163322.64, -334423.4, 103837.4, 0.20039766, 0.31119367, -114332.8, 134014.69, 0.0000030041272, 10.0011, 9.998846 
1.1151892e+3, 2.846584e+2, -36579.9, -272955.4, 32398.342, 0.115926564, 0.32433242, -32219.71, 118141.414, 0.000021469468, 10.001517, 9.998392 
1.1152077e+3, 2.9465365e+2, -76285.98, -241746.4, 15875.312, -0.07576727, -0.0045016254, -74776.57, -22371.992, 0.00010445724, 10.000567, 9.998392 
1.1152291e+3, 3.0465147e+2, -50007.67, -272656.03, 62546.44, -0.0663002, -0.026791476, -33640.31, -33640.31, 0.00031704624, 10.000709, 9.997786 
1.1152534e+3, 3.1464928e+2, 219489.0, 15319.294, 29246.102, 0.09901529, -0.037719335, 223595.73, 223595.73, 0.00065944524, 10.001867, 9.999198 
1.1248473e+3, 1.2463575e+2, -2084244.0, -1696440.3, -68678.06, 0.2333848, 0.063458964, -1684637.0, 33946.77, 0.0010643419, 9.996594, 10.001761 
1.1248659e+3, 1.3463907e+2, -1833863.3, -1537654.4, 91879.89, -0.05538108, 0.21935403, -1511469.3, 109078.3, 0.00051804923, 9.997698, 10.001655 
1.12488784e+3, 1.4464007e+2, -1769798.3, -1587425.1, 73538.234, -0.02517594, 0.21736686, -1561467.0, -38931.47, 0.00014661087, 9.998037, 10.000466 
1.12491176e+3, 1.5463795e+2, -1744378.0, -1527896.4, 71082.42, 0.253906, -0.052192688, -1506642.9, -82087.0, 0.00001150662, 9.997558, 10.000433 
1.1249326e+3, 1.646381e+2, -1576248.9, -1367899.0, 45436.02, 0.2732852, -0.08738625, -1358421.6, -31866.89, 0.0000000061074554, 9.997915, 10.000688 
1.1249506e+3, 1.7464082e+2, -1271429.5, -1163269.3, 13109.214, 0.03168993, 0.103168465, -1161703.1, 66825.96, 0.0, 9.999308, 10.000747 
1.1249703e+3, 1.8464236e+2, -1200462.8, -1165845.9, 63290.426, -0.09456129, 0.22475053, -1117539.8, 12977.198, 0.0, 9.999488, 9.999974 
1.1249923e+3, 1.9464242e+2, -1273506.0, -1151317.9, 62449.914, -0.09953081, 0.222793, -1125047.9, -92526.43, 0.0, 9.998316, 9.999968 
1.1250143e+3, 2.0464224e+2, -1113440.8, -995607.56, 6225.936, -0.035703383, 0.20153639, -995279.5, -60756.426, 0.0, 9.998632, 10.000203 
1.12503625e+3, 2.1464163e+2, -710183.6, -745657.2, -28515.959, 0.10917234, 0.10551574, -694338.4, 142184.28, 0.0, 10.000708, 10.000245 
1.1250584e+3, 2.2464125e+2, -693809.5, -862945.1, 73427.45, 0.13363098, 0.122911766, -666380.44, 72145.195, 0.0, 10.000903, 9.998679 
1.1250803e+3, 2.3464109e+2, -876769.06, -899046.06, 110377.27, 0.026948491, 0.23230617, -776969.7, -136437.2, 0.0, 9.998975, 9.998684 
1.1251023e+3, 2.4463978e+2, -754595.2, -724595.6, 27687.389, 0.015049813, 0.20996337, -708105.94, -165559.78, 0.0, 9.998856, 9.999268 
1.1251242e+3, 2.5463706e+2, -369011.63, -485522.25, -35158.434, 0.10912391, -0.005734869, -359224.3, 85344.45, 0.0, 10.000819, 9.999291 
1.12514615e+3, 2.646365e+2, -237474.23, -371306.38, -5721.504, 0.16113096, 0.015750531, -237230.08, 109342.09, 0.00000016860811, 10.001054, 9.999286 
1.1251684e+3, 2.7463827e+2, -388721.34, -387581.25, 1322.3448, 0.16849416, 0.24904342, -386711.3, -138156.3, 0.0000038179373, 9.999315, 9.999335 
1.12518944e+3, 2.8463718e+2, -386892.1, -474066.53, -35473.277, 0.1189401, 0.27062014, -374281.47, -223715.52, 0.000026281929, 9.999247, 9.998109 
1.12520926e+3, 2.9463282e+2, -26518.059, -250960.1, -47820.01, 0.010782139, 0.012041278, -16754.197, 35854.59, 0.00011318937, 10.001054, 9.9980955 
1.1252313e+3, 3.0463055e+2, 96830.04, -212880.38, 36699.664, 0.03158148, 0.00444952, 101119.42, 101119.42, 0.0003258272, 10.001773, 9.997679 
1.125255e+3, 3.1462765e+2, 95007.14, -75812.81, 31800.594, 0.1183768, -0.066064544, 100735.2, 100735.2, 0.0006650931, 10.001131, 9.998933 
1.1348422e+3, 1.2461914e+2, -2116996.8, -1749067.1, -44445.895, 0.03423736, 0.3014463, -1743774.1, -25030.32, 0.0011953667, 9.996554, 10.001407 
1.13486595e+3, 1.3461728e+2, -1864409.6, -1589889.4, 137525.66, 0.16031969, -0.025817169, -1532846.6, 87909.75, 0.00059164723, 9.997663, 10.001309 
1.1348877e+3, 1.446176e+2, -1746402.4, -1541558.5, 51635.18, 0.13809264, -0.09481732, -1529278.9, -6528.61, 0.00017336896, 9.998044, 10.000782 
1.1349076e+3, 1.5461968e+2, -1720314.9, -1481587.5, 59765.965, 0.08209686, 0.025285514, -1467460.9, -42730.72, 0.000015247707, 9.997568, 10.00075 
1.13492824e+3, 1.646208e+2, -1624305.6, -1468529.4, 90145.81, 0.037882455, 0.105935745, -1427283.9, -100562.63, 0.000000009421829, 9.997918, 9.999993 
1.1349503e+3, 1.7462067e+2, -1321533.9, -1270125.9, 71125.54, 0.06761786, 0.07979054, -1220202.3, 8525.002, 0.0, 9.999318, 10.000008 
1.1349713e+3, 1.8462108e+2, -1195126.9, -1159472.8, 15655.852, 0.03670959, 0.12568448, -1153574.0, -22847.412, 0.0, 9.999507, 10.000009 
1.1349908e+3, 1.9462207e+2, -1273486.0, -1145616.8, 22425.645, -0.08646514, 0.2109599, -1141797.9, -109078.92, 0.0, 9.998288, 10.000021 
1.13501236e+3, 2.0462184e+2, -1168627.8, -1103290.9, 73099.96, -0.0954911, 0.21607578, -1055891.6, -121170.305, 0.0, 9.9986, 9.99948 
1.13503635e+3, 2.1462005e+2, -772277.1, -859308.56, 52709.3, 0.043729275, 0.07787581, -747441.6, 89294.83, 0.0, 10.000638, 9.9995 
1.13505945e+3, 2.2461963e+2, -635093.6, -721430.3, -2152.5662, 0.15564677, 0.0800493, -635039.94, 103699.26, 0.0, 10.000823, 9.999686 
1.1350816e+3, 2.3462066e+2, -810989.6, -751400.06, 42026.965, 0.23459786, 0.20181893, -729677.9, -88949.63, 0.0, 9.998927, 9.99972 
1.1351034e+3, 2.4461985e+2, -853896.75, -926461.5, 89898.07, 0.22266178, 0.2405417, -793235.44, -250497.77, 0.0, 9.998836, 9.997892 
1.135125e+3, 2.546168e+2, -477491.9, -698520.7, 44841.76, 0.108828284, 0.13964541, -468741.0, -23969.734, 0.0, 10.000764, 9.997857 
1.1351459e+3, 2.6461455e+2, -225961.0, -335470.9, -67654.08, 0.022950541, 0.053908154, -193680.45, 153111.45, 0.00000020663475, 10.001002, 9.9995575 
1.1351659e+3, 2.7461308e+2, -365155.97, -342908.16, -54695.637, -0.030641453, -0.06869726, -298216.7, -49417.4, 0.0000055002247, 9.999334, 9.999636 
1.135188e+3, 2.846123e+2, -386883.2, -483847.0, 21740.65, 0.036015153, -0.024041394, -382231.75, -231425.6, 0.00003348498, 9.9992895, 9.99802 
1.13521285e+3, 2.946126e+2, -39213.938, -267854.03, 28307.857, 0.25880256, 0.18985666, -35761.29, 17049.303, 0.00012691141, 10.001012, 9.998001 
1.1352355e+3, 3.0461213e+2, 122492.15, -141205.63, 13014.731, 0.2632676, 0.34208426, 123132.93, 123132.93, 0.00034269877, 10.001696, 9.998205 
1.1352541e+3, 3.146077e+2, 108326.266, -29498.555, 20279.152, -0.101903595, 0.059973124, 111248.14, 111248.14, 0.00068300014, 10.0010605, 9.999278 
1.1448386e+3, 1.2459851e+2, -1899528.5, -1690011.8, -94307.484, -0.04595769, 0.25229007, -1653815.5, 65126.207, 0.0013373722, 9.998218, 10.001028 
1.1448639e+3, 1.3459626e+2, -1888780.0, -1637827.3, 62063.11, 0.20207798, -0.08188119, -1623317.4, -2357.1763, 0.000672049, 9.997623, 10.001017 
1.1448853e+3, 1.4459682e+2, -1773996.5, -1530677.6, -12382.386, 0.11282217, -0.12206588, -1530049.1, -7096.4077, 0.0002032588, 9.997758, 10.000991 
1.1449052e+3, 1.545996e+2, -1536518.9, -1367870.0, -31322.238, 0.029839253, 0.049943775, -1362240.6, 62684.754, 0.000019742625, 9.998731, 10.000964 
1.14492625e+3, 1.6460092e+2, -1518704.9, -1449590.3, 19629.104, 0.008362336, 0.15130673, -1444404.5, -117489.125, 0.000000013934886, 9.998778, 9.999709 
1.1449492e+3, 1.7460036e+2, -1571413.1, -1424874.6, 22902.707, 0.11493099, 0.11217886, -1421378.5, -192451.11, 0.0, 9.9977455, 9.999705 
1.1449707e+3, 1.846002e+2, -1429721.8, -1270975.6, -4961.5024, 0.10736596, 0.117478095, -1270820.6, -139888.83, 0.0, 9.997905, 10.000009 
1.14499e+3, 1.9460046e+2, -1088258.1, -1048937.5, -14261.534, -0.058121692, 0.12748581, -1044309.6, -11381.432, 0.0, 9.999548, 10.000064 
1.1450117e+3, 2.0460014e+2, -950963.1, -1013146.7, 85451.38, -0.0945248, 0.1290047, -891122.9, 43807.504, 0.0, 10.000156, 9.999356 
1.1450364e+3, 2.1459907e+2, -943398.4, -954564.4, 101355.63, 0.038666982, 0.07619837, -847472.06, -10532.138, 0.0, 9.999523, 9.999388 
1.1450599e+3, 2.2459862e+2, -770472.4, -794927.3, 12256.143, 0.16856669, 0.08637155, -765387.25, -26443.984, 0.0, 9.999919, 9.99962 
1.1450821e+3, 2.3459877e+2, -439798.38, -580545.44, -39658.453, 0.28865963, 0.12441329, -429393.03, 211547.38, 0.0, 10.001496, 9.999661 
1.145104e+3, 2.4459796e+2, -437995.13, -728979.6, 40219.37, 0.2664491, 0.16958217, -432538.4, 110411.55, 0.0, 10.00171, 9.997858 
1.14512525e+3, 2.5459594e+2, -530959.5, -722346.25, 86711.02, 0.08499228, 0.17505428, -497517.2, -52542.457, 0.0, 10.000403, 9.997856 
1.1451465e+3, 2.645939e+2, -315830.4, -413368.72, 9788.988, 0.0038342238, 0.12145914, -314857.7, 32136.96, 0.00000038376965, 10.000527, 9.999255 
1.14516735e+3, 2.7459165e+2, 49724.508, -178424.88, -32051.988, 0.03638481, -0.04935695, 54141.863, 303152.22, 0.0000075917305, 10.002326, 9.999329 
1.1451897e+3, 2.845904e+2, 99422.68, -276550.53, 35867.906, 0.10572608, -0.02679023, 102813.89, 253836.25, 0.00004126663, 10.0027485, 9.997775 
1.14521384e+3, 2.945904e+2, 19421.22, -265652.28, 20206.814, 0.23016235, 0.18855262, 20846.41, 73875.14, 0.00014267156, 10.001526, 9.997766 
1.1452367e+3, 3.0459043e+2, 35278.934, -155824.2, -13732.344, 0.25704053, 0.38418344, 36260.67, 36260.67, 0.00036406744, 10.000969, 9.998458 
1.1452568e+3, 3.1458724e+2, 118014.445, -14371.938, -51369.418, 0.06314419, 0.20147966, 135608.81, 135608.81, 0.00071071996, 10.001085, 9.99937 
1.15483664e+3, 1.2457336e+2, -1927380.6, -1736582.1, -101301.805, -0.08107824, -0.1340579, -1692830.1, 26351.895, 0.001489488, 9.998181, 10.000718 
1.1548597e+3, 1.3457625e+2, -1899370.6, -1660142.8, 44329.33, 0.01190649, 0.06257923, -1652192.6, -31036.201, 0.00075867696, 9.997632, 10.000852 
1.1548805e+3, 1.4457805e+2, -1772316.3, -1535388.0, 16950.83, -0.15758593, 0.15694468, -1534181.4, -11041.389, 0.0002361324, 9.997782, 10.000954 
1.15490414e+3, 1.5457778e+2, -1530992.4, -1363938.0, 10437.918, 0.043821387, 0.020128781, -1363288.4, 61853.395, 0.000024990082, 9.998754, 10.000984 
1.1549264e+3, 1.6457833e+2, -1504536.9, -1420443.5, -24491.102, 0.13517995, 0.036013823, -1413830.8, -86692.336, 0.000000023716384, 9.998783, 9.999907 
1.1549473e+3, 1.7457992e+2, -1562146.0, -1399492.9, -12486.4, 0.13606133, 0.19493355, -1398539.9, -169410.81, 0.0, 9.997724, 9.999888 
1.1549683e+3, 1.8457986e+2, -1437003.4, -1284810.9, 47175.72, 0.074899204, 0.20425335, -1271374.0, -140242.75, 0.0, 9.997895, 9.99992 
1.1549895e+3, 1.9457771e+2, -1098632.3, -1065546.8, 52079.17, -0.06733809, -0.019228604, -1027446.06, 5702.1553, 0.0, 9.999519, 9.999969 
1.15501195e+3, 2.0457722e+2, -921088.06, -944088.44, 54153.438, -0.08511122, -0.05339025, -877227.2, 57922.617, 0.0, 10.000124, 9.999845 
1.155036e+3, 2.1457864e+2, -916547.3, -886762.1, 81714.41, 0.046026994, 0.090757735, -818594.3, 18539.465, 0.0, 9.999464, 9.999884 
1.15505956e+3, 2.2457822e+2, -858862.44, -961039.06, 62467.223, 0.12795484, 0.13220806, -829252.75, -90114.63, 0.0, 9.9998455, 9.998515 
1.1550824e+3, 2.3457552e+2, -532665.4, -755193.6, 25372.068, 0.15029609, 0.0027489795, -529809.2, 111358.36, 0.0, 10.001421, 9.998497 
1.1551043e+3, 2.4457423e+2, -362275.38, -555438.06, -12688.0625, 0.10915355, 0.0016373334, -361445.53, 181736.5, 0.0, 10.001639, 9.9990835 
1.1551249e+3, 2.5457457e+2, -446152.25, -536053.3, 40567.75, -0.006181593, 0.1079451, -430552.88, 14626.173, 0.0, 10.000358, 9.999157 
1.1551475e+3, 2.6457444e+2, -377997.2, -534289.75, 66494.92, 0.051884577, 0.2188672, -353535.4, -6354.074, 0.0000005356376, 10.000491, 9.998442 
1.1551725e+3, 2.745736e+2, -24642.967, -309341.78, 41380.355, 0.30849904, 0.2785476, -18750.385, 230441.02, 0.000008957139, 10.002226, 9.998478 
1.1551942e+3, 2.8457114e+2, 61787.4, -329525.72, -9248.956, 0.2729428, 0.23763528, 62005.883, 213222.45, 0.000047151985, 10.002642, 9.997462 
1.15521215e+3, 2.9456672e+2, -4373.7144, -314821.25, -13702.755, -0.10093274, 0.03920236, -3770.0662, 49489.742, 0.00015594735, 10.001521, 9.997434 
1.155235e+3, 3.0456585e+2, 27062.758, -169682.44, -11073.438, -0.017807083, 0.17131342, 27684.043, 27684.043, 0.0003853337, 10.000963, 9.998362 
1.1552624e+3, 3.1456622e+2, 88185.48, -52011.023, -30772.008, 0.48063263, 0.35155618, 94642.31, 94642.31, 0.00074189703, 10.000987, 9.999153 
1.1648352e+3, 1.245511e+2, -1869301.1, -1729363.8, -51976.996, -0.071004964, -0.2201718, -1712170.4, 7227.9443, 0.0016512593, 9.998663, 10.000528 
1.1648579e+3, 1.3455495e+2, -1707991.1, -1577892.4, 36378.7, 0.002779885, 0.07794585, -1568411.0, 52954.594, 0.0008513687, 9.998989, 10.00076 
1.1648781e+3, 1.4455691e+2, -1628640.5, -1478271.4, 30790.545, -0.21731974, 0.20101641, -1472210.8, 51137.715, 0.00027198074, 9.998829, 10.000835 
1.1649028e+3, 1.5455617e+2, -1646584.3, -1433016.1, 139.37659, 0.07163892, 0.02883638, -1433016.0, -7661.2036, 0.00003101119, 9.998022, 10.00086 
1.1649254e+3, 1.6455649e+2, -1568418.3, -1451853.1, -27518.049, 0.18184614, 0.02655232, -1445683.4, -118329.516, 0.00000004774233, 9.998351, 9.999898 
1.16494596e+3, 1.745581e+2, -1215171.6, -1231258.3, -42308.99, 0.11619248, 0.18973573, -1180148.3, 49195.547, 0.0, 10.000106, 9.999894 
1.1649672e+3, 1.8455815e+2, -1059054.6, -1116609.9, 17373.137, 0.040366743, 0.21634454, -1054217.1, 77127.414, 0.0, 10.000539, 9.9998045 
1.164989e+3, 1.9455625e+2, -1124802.3, -1091170.5, 12033.59, -0.057778627, 0.02933411, -1087308.4, -53949.13, 0.0, 9.999387, 9.999861 
1.165012e+3, 2.0455566e+2, -1067654.1, -993155.5, 7308.786, -0.04767339, -0.016686207, -992445.25, -57084.34, 0.0, 9.999037, 10.000022 
1.16503604e+3, 2.1455662e+2, -869023.44, -837520.9, -4968.311, 0.09712746, 0.059799675, -836755.9, 591.6452, 0.0, 9.999691, 10.000101 
1.1650594e+3, 2.2455594e+2, -862108.2, -1003352.9, 28176.553, 0.1386945, 0.08095938, -856694.8, -117340.63, 0.0, 10.000005, 9.998145 
1.16508216e+3, 2.3455316e+2, -779185.94, -917525.3, 37133.324, 0.062021878, -0.01560283, -769848.75, -128462.73, 0.0, 9.999921, 9.998103 
1.1651043e+3, 2.4455185e+2, -533047.9, -587433.9, -21868.264, 0.02340355, -0.020336166, -525345.6, 18054.574, 0.0, 10.000245, 9.999538 
1.1651259e+3, 2.5455225e+2, -312126.16, -419026.0, -42617.637, 0.026265051, 0.044592414, -297215.56, 148177.81, 0.0, 10.001039, 9.999642 
1.1651491e+3, 2.6455238e+2, -317117.7, -554509.5, 1974.4142, 0.1262764, 0.18069854, -317101.28, 30291.943, 0.00000056359414, 10.001131, 9.997991 
1.16517395e+3, 2.745521e+2, -323839.16, -508914.16, -9194.132, 0.33860126, 0.34381947, -323383.53, -73980.95, 0.0000092835935, 10.000418, 9.997976 
1.1651958e+3, 2.845494e+2, -204766.86, -417987.03, -27458.188, 0.27609998, 0.28738853, -201287.61, -49857.31, 0.000049926817, 10.00063, 9.997828 
1.1652139e+3, 2.9454392e+2, 84333.67, -221019.06, 3344.9116, -0.10195899, -0.056512963, 84370.31, 137849.11, 0.00016435768, 10.001924, 9.99788 
1.1652366e+3, 3.045426e+2, 204431.22, -109340.59, 23739.273, -0.01920007, 0.01883283, 206217.11, 206217.11, 0.00040264626, 10.002283, 9.998148 
1.1652634e+3, 3.1454358e+2, 101434.54, -98622.0, -25067.15, 0.48721007, 0.28454074, 104527.64, 104527.64, 0.0007699058, 10.0012865, 9.998703 
1.1748341e+3, 1.2453203e+2, -1880698.9, -1748118.3, 9391.129, -0.075193964, 0.00046405318, -1747456.4, -27868.193, 0.0018234614, 9.998649, 10.000405 
1.1748583e+3, 1.3453236e+2, -1709163.4, -1584777.0, 53233.246, 0.13972625, -0.046021603, -1565105.8, 56481.344, 0.0009506097, 9.999004, 10.000707 
1.1748782e+3, 1.4453335e+2, -1644715.0, -1511409.8, -1650.4844, -0.11041482, -0.009305971, -1511389.4, 12189.265, 0.00031097958, 9.998825, 10.00061 
1.1749009e+3, 1.5453486e+2, -1664857.3, -1472197.5, -23632.105, 0.06411095, 0.070486024, -1469341.1, -43777.254, 0.00003785508, 9.998025, 10.000591 
1.17492296e+3, 1.6453548e+2, -1586620.5, -1491274.4, 28485.08, 0.091995254, 0.12525706, -1483412.5, -155852.27, 0.00000010132158, 9.998357, 9.999623 
1.1749451e+3, 1.7453496e+2, -1233182.6, -1267679.3, 28726.873, 0.012387334, 0.098363675, -1216923.6, 12646.804, 0.0, 10.000098, 9.999649 
1.1749669e+3, 1.8453515e+2, -1067826.5, -1130741.4, -28713.746, -0.040737677, 0.15494384, -1056692.3, 74878.805, 0.0, 10.000525, 9.999712 
1.1749883e+3, 1.945361e+2, -1137832.6, -1108490.6, -26071.143, -0.080547966, 0.26310724, -1093246.1, -59685.137, 0.0, 9.999347, 9.999761 
1.17501125e+3, 2.0453557e+2, -1081653.8, -1015709.9, 21280.254, -0.031305343, 0.23478526, -1009439.0, -73876.16, 0.0, 9.999005, 9.999885 
1.1750363e+3, 2.1453318e+2, -887257.75, -863208.2, 24251.332, 0.14185604, -0.010107045, -848164.1, -10584.305, 0.0, 9.999634, 9.999956 
1.1750597e+3, 2.2453181e+2, -847009.5, -958585.8, 18436.412, 0.15615518, -0.0654094, -844042.06, -104450.88, 0.0, 9.999945, 9.998483 
1.1750812e+3, 2.3453166e+2, -763181.3, -867735.1, 39877.79, -0.025821472, 0.06391123, -749707.9, -108111.8, 0.0, 9.999849, 9.998479 
1.17510386e+3, 2.4453083e+2, -563029.1, -636950.3, 1719.3519, -0.04604668, 0.10276713, -562989.1, -19384.992, 0.0, 10.000185, 9.99923 
1.1751281e+3, 2.5452903e+2, -338159.56, -465323.72, -5264.5454, 0.13368525, -0.020280596, -337942.0, 107675.22, 0.0, 10.001, 9.999344 
1.1751509e+3, 2.645279e+2, -336170.88, -582648.75, -27426.291, 0.18999906, 0.009934653, -333155.97, 14473.177, 0.0000005132723, 10.001083, 9.99782 
1.175172e+3, 2.7452734e+2, -340128.63, -537412.8, -26982.975, 0.09047499, 0.1660051, -336504.7, -86863.2, 0.000009280944, 10.000395, 9.997791 
1.17519446e+3, 2.8452536e+2, -144118.27, -287876.3, 15271.169, 0.068453275, 0.14840592, -142513.95, 9147.393, 0.000050485156, 10.000611, 9.998732 
1.1752184e+3, 2.945217e+2, 150072.16, -75502.25, 58965.188, 0.15076728, -0.113246866, 164555.7, 218244.5, 0.00016787817, 10.001874, 9.998907 
1.17524095e+3, 3.045203e+2, 181552.95, -135965.1, -11407.647, 0.19235326, -0.097902946, 181962.28, 181962.28, 0.00041124245, 10.002202, 9.998 
1.1752604e+3, 3.1451976e+2, 68243.016, -168369.84, -47212.04, 0.027297681, 0.042145513, 77315.5, 77315.5, 0.00078260904, 10.001302, 9.998211 
1.1848333e+3, 1.2451139e+2, -1828543.0, -1742052.3, 67948.16, -0.030126387, 0.09267123, -1704755.0, 15037.517, 0.0020081834, 9.999093, 10.000235 
1.1848573e+3, 1.345111e+2, -1776548.6, -1633029.5, 21265.453, 0.15942983, -0.0018425209, -1629944.9, -8148.133, 0.0010574218, 9.998618, 10.000562 
1.18487686e+3, 1.4451158e+2, -1656565.4, -1519890.0, -13028.524, -0.11070233, -0.006478647, -1518659.1, 5133.291, 0.00035351914, 9.998759, 10.000581 
1.18489906e+3, 1.5451318e+2, -1436030.5, -1361531.5, -34588.35, 0.010258323, 0.08239905, -1347949.1, 77827.27, 0.00004562391, 9.999599, 10.000587 
1.1849214e+3, 1.6451362e+2, -1394772.4, -1407906.3, 65001.473, 0.032815296, 0.12284708, -1336007.0, -8233.406, 0.00000019883093, 9.999709, 9.999548 
1.1849444e+3, 1.7451258e+2, -1402441.8, -1354621.1, 71942.04, -0.003386066, 0.050125074, -1302720.1, -72933.195, 0.0, 9.99896, 9.999599 
1.1849668e+3, 1.8451266e+2, -1301607.6, -1245856.1, 13069.063, -0.020275226, 0.10210139, -1242944.6, -111156.484, 0.0, 9.9989395, 9.999682 
1.18498825e+3, 1.9451407e+2, -1062988.0, -1071846.3, 4509.282, -0.03609587, 0.25675797, -1061096.5, -27321.158, 0.0, 9.999867, 9.999757 
1.1850113e+3, 2.0451361e+2, -922632.6, -1002021.6, 67563.664, 0.006660698, 0.26224786, -883965.8, 51812.723, 0.0, 10.000363, 9.99933 
1.18503615e+3, 2.1451075e+2, -823082.0, -896985.4, 30114.344, 0.13575742, 0.029344913, -812365.06, 25437.533, 0.0, 10.000348, 9.999383 
1.1850597e+3, 2.2450933e+2, -738952.0, -828155.8, 20361.105, 0.1439702, -0.035107143, -734524.25, 5289.4595, 0.0, 10.000357, 9.999174 
1.1850815e+3, 2.3450962e+2, -625682.25, -715453.75, 55552.582, -0.002313181, 0.06012019, -599148.0, 42661.426, 0.0, 10.000426, 9.999243 
1.1851046e+3, 2.4450877e+2, -552584.3, -674721.9, 56529.535, 0.003444579, 0.07696202, -530436.6, 13378.562, 0.0, 10.000448, 9.998841 
1.18512936e+3, 2.545065e+2, -446770.44, -566766.06, 27576.523, 0.1966179, -0.050780244, -440736.44, 5097.6777, 0.0, 10.000479, 9.998894 
1.1851521e+3, 2.6450458e+2, -364282.3, -593775.4, 2292.652, 0.22350414, -0.0757968, -364259.44, -16406.336, 0.0000005059796, 10.000873, 9.9978485 
1.1851725e+3, 2.74503e+2, -155791.53, -442658.94, 3557.575, 0.04422093, -0.028646199, -155747.4, 94125.89, 0.000009346627, 10.001635, 9.997845 
1.1851952e+3, 2.845014e+2, 30232.938, -193429.52, 48803.03, 0.029924726, -0.0095939385, 40417.934, 192306.94, 0.000050141156, 10.001772, 9.9988165 
1.1852207e+3, 2.9449993e+2, 51501.62, -113226.66, 17622.09, 0.23103625, -0.060846586, 53365.68, 107264.09, 0.0001672216, 10.001159, 9.998989 
1.1852438e+3, 3.044985e+2, 145532.22, -172215.0, -58224.234, 0.260488, -0.04753187, 155865.25, 155865.25, 0.00040719565, 10.002021, 9.997844 
1.18526235e+3, 3.1449637e+2, 504636.2, -2813.721, -115624.78, -0.064279445, -0.04694387, 529739.94, 529739.94, 0.0007697525, 10.004476, 9.997827 
1.19483314e+3, 1.2448912e+2, -1841640.0, -1761007.1, 103825.85, 0.022202374, 0.036662072, -1689944.9, 30067.387, 0.0022081332, 9.9990635, 10.0001135 
1.1948544e+3, 1.3449135e+2, -1793294.0, -1666034.9, 8125.4116, 0.00097351975, 0.21364975, -1665518.3, -43525.895, 0.0011730703, 9.9986105, 10.000337 
1.19487405e+3, 1.444918e+2, -1647385.3, -1502482.5, 12245.816, -0.2780416, 0.21402307, -1501454.9, 22532.88, 0.00040013902, 9.998764, 10.000701 
1.1948974e+3, 1.5449119e+2, -1422373.4, -1338668.3, 3352.168, -0.13464104, 0.066884615, -1338534.1, 87457.43, 0.00005450229, 9.999617, 10.000741 
1.1949204e+3, 1.644909e+2, -1379383.0, -1378042.0, 31790.611, -0.04425063, 0.017338105, -1346914.9, -18921.527, 0.00000035173326, 9.999719, 9.999747 
1.1949437e+3, 1.7449099e+2, -1393599.9, -1331659.5, 48054.996, 0.023647731, 0.039380696, -1305459.5, -75466.89, 0.0, 9.9989395, 9.999767 
1.1949666e+3, 1.8449081e+2, -1301732.0, -1244462.4, 39401.07, 0.05126321, 0.0551101, -1224390.0, -92395.23, 0.0, 9.998931, 9.999696 
1.19498886e+3, 1.9449028e+2, -1069321.3, -1077053.1, 44792.438, 0.027652455, 0.016256979, -1028228.25, 5772.9854, 0.0, 9.999828, 9.999743 
1.1950118e+3, 2.0448983e+2, -993348.8, -1138808.1, 60108.86, 0.018936768, 0.066069365, -971724.5, -35716.566, 0.0, 10.000322, 9.998409 
1.1950355e+3, 2.1448942e+2, -902501.4, -1043504.94, 33833.45, 0.030565063, 0.1747534, -894803.4, -56787.992, 0.0, 10.000273, 9.998412 
1.1950592e+3, 2.2448856e+2, -677306.3, -685200.94, 16934.68, 0.050350662, 0.17037672, -663865.0, 76156.13, 0.0, 10.000289, 10.00019 
1.1950829e+3, 2.3448709e+2, -555223.1, -556883.4, 63260.164, 0.08383835, -0.02135611, -492787.63, 149237.67, 0.0, 10.000372, 10.000359 
1.19510636e+3, 2.4448577e+2, -592345.06, -749554.2, 50348.06, 0.1201979, -0.08762813, -577602.94, -33570.395, 0.0, 10.000413, 9.998347 
1.1951295e+3, 2.544846e+2, -493598.94, -654046.5, 34081.203, 0.16083243, -0.04614677, -486659.75, -40615.688, 0.0, 10.000435, 9.998316 
1.19515255e+3, 2.6448238e+2, -358482.38, -573583.3, 24189.242, 0.17325595, -0.07532369, -355795.72, -7730.511, 0.0000006389743, 10.0008335, 9.99801 
1.1951752e+3, 2.744789e+2, -146369.2, -412937.47, 38561.996, 0.14279333, -0.24202043, -140902.89, 109196.16, 0.000009277396, 10.00159, 9.998072 
1.19519785e+3, 2.844775e+2, -22170.514, -294399.16, 21742.227, 0.11387403, -0.18439066, -20444.953, 131669.13, 0.000049688064, 10.001734, 9.998142 
1.1952206e+3, 2.9447863e+2, -452.26563, -222512.78, 3567.0437, 0.09968931, 0.093591854, -394.9816, 53712.156, 0.00016438575, 10.001157, 9.998241 
1.19524464e+3, 3.0447719e+2, 112992.875, -220191.78, 28810.516, 0.1403673, 0.16041413, 115465.77, 115465.77, 0.00039412428, 10.001947, 9.997542 
1.1952684e+3, 3.1447327e+2, 447072.7, -65550.8, -5995.663, 0.08548301, 0.0062856027, 447142.8, 447142.8, 0.0007360574, 10.004242, 9.997501 
1.204833e+3, 1.24466114e+2, -1609768.5, -1599051.0, 38879.125, 0.038091924, 0.026480667, -1565163.1, 155076.22, 0.0024257244, 10.000438, 10.000568 
1.2048525e+3, 1.3446853e+2, -1725865.9, -1591447.8, -79807.05, -0.05173619, 0.18542059, -1554319.8, 67894.77, 0.0012988481, 9.998881, 10.000724 
1.204873e+3, 1.4446907e+2, -1737302.6, -1563785.1, 15523.538, -0.22836189, 0.18181168, -1562407.3, -38198.438, 0.00045139206, 9.998228, 10.000538 
1.2048963e+3, 1.5446873e+2, -1568305.5, -1425336.3, -31727.777, -0.15482754, 0.0813375, -1418611.5, 7601.146, 0.00006471426, 9.998695, 10.000586 
1.20491944e+3, 1.6446853e+2, -1468796.1, -1383304.1, -36366.297, -0.07068354, 0.032015458, -1369927.8, -41714.15, 0.00000057087306, 9.998943, 10.000084 
1.204943e+3, 1.7446841e+2, -1360083.8, -1272373.0, -22158.842, 0.062859766, -0.001372284, -1267092.8, -36881.44, 0.0, 9.998988, 10.000148 
1.20496616e+3, 1.844681e+2, -1237175.4, -1226136.1, 30804.27, 0.10299634, -0.0154264225, -1200360.9, -68147.33, 0.0, 9.999422, 9.999587 
1.2049889e+3, 1.9446741e+2, -1001676.6, -1056142.1, 21578.814, 0.025376339, -0.057392478, -994163.6, 40058.72, 0.0, 10.00034, 9.999638 
1.205012e+3, 2.044672e+2, -919586.56, -1065878.3, 49866.86, -0.009682436, 0.006879877, -904205.44, 32021.152, 0.0, 10.000667, 9.998742 
1.2050355e+3, 2.1446751e+2, -874378.0, -989660.4, 105712.96, 0.01263087, 0.15151827, -811612.6, 26613.34, 0.0, 10.000286, 9.998777 
1.2050593e+3, 2.2446673e+2, -721670.8, -756252.3, 116130.42, 0.041783184, 0.15368298, -621551.0, 118679.75, 0.0, 10.000191, 9.999756 
1.2050833e+3, 2.3446448e+2, -573284.56, -619055.0, 33866.785, 0.07941956, -0.06624535, -555295.7, 86947.086, 0.0, 10.000475, 9.999887 
1.2051068e+3, 2.4446271e+2, -541890.8, -775616.56, -22063.717, 0.10232689, -0.13156958, -539826.25, 4429.589, 0.0, 10.000975, 9.997893 
1.20513e+3, 2.544614e+2, -336964.63, -630727.5, -40470.293, 0.099409595, -0.056490067, -331491.22, 114779.76, 0.00000000020898414, 10.001726, 9.997856 
1.2051533e+3, 2.6445916e+2, -183776.14, -470896.5, -39115.184, 0.119699806, -0.07336546, -178542.77, 169749.95, 0.00000074892756, 10.001967, 9.998159 
1.205177e+3, 2.7445576e+2, -125228.086, -380518.84, -40880.45, 0.16174063, -0.24975167, -118841.55, 131481.42, 0.000008958339, 10.001647, 9.9982605 
1.2051998e+3, 2.844544e+2, -46211.215, -350580.7, -45475.58, 0.13925469, -0.17872432, -39562.004, 112775.37, 0.000049074697, 10.001762, 9.997742 
1.2052218e+3, 2.944555e+2, 142434.2, -200443.23, -60806.87, 0.050284, 0.14087133, 152898.5, 207232.3, 0.00016160097, 10.002349, 9.997816 
1.2052464e+3, 3.0445346e+2, 187045.61, -134620.72, 32493.035, 0.11178237, 0.1537894, 190295.06, 190295.06, 0.0003810888, 10.00224, 9.997988 
1.2052723e+3, 3.144499e+2, 10709.598, -210752.63, 25157.02, 0.2223666, -0.014718063, 13531.358, 13531.358, 0.00070004223, 10.000978, 9.998063 
1.2148327e+3, 1.24442436e+2, -1535018.9, -1440677.3, -14458.245, -0.05945408, 0.06290176, -1438511.1, 281961.7, 0.0026624324, 10.000439, 10.00165 
1.21485166e+3, 1.3444261e+2, -1659111.0, -1450700.9, -135684.03, -0.030438295, -0.097147055, -1383824.5, 238638.6, 0.0014356553, 9.998877, 10.001692 
1.21487364e+3, 1.444433e+2, -1766808.5, -1623914.1, 23373.867, 0.009502118, -0.119535685, -1620187.9, -95732.12, 0.0005075534, 9.998221, 10.00013 
1.2148956e+3, 1.5444581e+2, -1605318.1, -1502481.3, -6942.052, -0.09782607, 0.11418252, -1502014.8, -75575.13, 0.000076397075, 9.9986925, 10.00006 
1.2149182e+3, 1.6444653e+2, -1436736.0, -1317036.1, -41877.887, -0.098923326, 0.16515276, -1303839.6, 24594.43, 0.0000008702971, 9.998945, 10.000536 
1.21494226e+3, 1.7444493e+2, -1326045.6, -1200547.8, -16966.695, 0.075603865, -0.0682838, -1198294.5, 32148.25, 0.0, 9.998978, 10.000648 
1.2149657e+3, 1.8444452e+2, -1247261.4, -1246527.6, 56928.387, 0.09254364, -0.11200801, -1189964.9, -57520.457, 0.0, 9.999419, 9.999449 
1.214988e+3, 1.9444552e+2, -1019800.3, -1087557.4, 61960.332, -0.098921016, 0.03267522, -983061.3, 51376.875, 0.0, 10.00031, 9.999439 
1.2150113e+3, 2.0444581e+2, -817198.1, -842515.7, 30745.604, -0.13764639, 0.08425995, -796607.3, 139826.98, 0.0, 10.000622, 10.000295 
1.21503614e+3, 2.1444516e+2, -768090.6, -753009.3, 95282.12, 0.029846925, -0.033194937, -664969.94, 173463.83, 0.0, 10.000217, 10.000434 
1.2150598e+3, 2.2444388e+2, -859619.1, -1029753.5, 116426.16, 0.070539534, -0.07942443, -800493.8, -60051.688, 0.0, 10.000134, 9.997908 
1.2150824e+3, 2.344418e+2, -723917.6, -920192.25, 50929.297, -0.0542616, -0.07955611, -711489.5, -69027.875, 0.0, 10.000422, 9.997847 
1.2151058e+3, 2.4443959e+2, -581507.7, -840610.9, 1401.8506, -0.097819224, -0.06237865, -581500.1, -37015.434, 0.0, 10.000903, 9.99748 
1.2151305e+3, 2.5443703e+2, -367727.97, -682420.7, -4695.942, -0.02853243, -0.07921873, -367657.9, 78855.625, 0.00000000018849695, 10.001676, 9.997524 
1.21515445e+3, 2.6443496e+2, -179997.42, -455835.47, -52218.875, 0.022206416, -0.069743015, -170442.83, 178091.63, 0.00000061447383, 10.001932, 9.9982815 
1.2151776e+3, 2.744334e+2, -118960.89, -361483.88, -42995.445, 0.049782515, -0.07299602, -111564.086, 138981.5, 0.00000822272, 10.001614, 9.99841 
1.21520065e+3, 2.84432e+2, -72096.67, -388082.22, -26839.205, 0.047571667, -0.0072696893, -69833.21, 82726.04, 0.000047693058, 10.001695, 9.997518 
1.215224e+3, 2.944306e+2, 116485.57, -240415.19, -24671.121, 0.022645134, 0.08612841, 118182.914, 172760.72, 0.00015870755, 10.002287, 9.997573 
1.2152488e+3, 3.0442744e+2, 252556.9, 18210.143, -11749.125, 0.122102305, -0.04827587, 253144.48, 253144.48, 0.00037049488, 10.002174, 9.999067 
1.2152738e+3, 3.1442624e+2, 102123.18, -14033.709, -8829.286, 0.24921498, -0.10036416, 102790.48, 102790.48, 0.0006721225, 10.000954, 9.999424 
1.2248314e+3, 1.24419756e+2, -1979931.3, -1642744.3, 85374.9, -0.06369211, 0.05310104, -1622359.9, 98334.86, 0.0029179724, 9.997305, 10.001783 
1.22485e+3, 1.3442017e+2, -1721986.6, -1472635.5, -104432.83, -0.057630148, -0.08934499, -1434675.9, 188007.78, 0.0015834377, 9.9984045, 10.001773 
1.2248738e+3, 1.4442112e+2, -1697219.9, -1592922.8, 50775.26, 0.17363515, -0.09048093, -1572286.8, -47612.094, 0.00056846405, 9.99871, 10.000104 
1.22489475e+3, 1.5442352e+2, -1698875.4, -1550428.6, 41723.176, -0.0067797187, 0.13455303, -1539505.4, -112845.32, 0.00008951281, 9.998062, 10.000032 
1.2249171e+3, 1.6442432e+2, -1512326.3, -1332715.4, 60121.543, -0.07125981, 0.18502827, -1314448.5, 14205.249, 0.0000012652538, 9.99833, 10.000729 
1.2249413e+3, 1.7442308e+2, -1197672.5, -1112309.5, 57776.95, 0.046110503, -0.035177823, -1083158.6, 147499.33, 0.0, 9.999746, 10.000883 
1.2249651e+3, 1.844229e+2, -1118206.6, -1164442.1, 120266.57, 0.057375487, -0.07530341, -1018856.06, 113799.96, 0.0, 10.000225, 9.999623 
1.2249882e+3, 1.94424e+2, -1115199.0, -1109486.3, 135081.3, -0.07298821, 0.060229626, -977231.1, 57416.18, 0.0, 9.999565, 9.999642 
1.22501194e+3, 2.0442384e+2, -985690.25, -975482.5, 68549.91, -0.086046994, 0.07803442, -911846.7, 24800.164, 0.0, 9.999683, 9.999838 
1.22503676e+3, 2.1442209e+2, -724768.06, -787765.9, -35821.418, 0.058430087, -0.098735854, -708566.3, 130091.11, 0.0, 10.000755, 9.999936 
1.2250608e+3, 2.2442034e+2, -686973.6, -975145.0, -35234.758, 0.08981154, -0.15202916, -682728.06, 57943.258, 0.0, 10.001448, 9.9976425 
1.2250836e+3, 2.3441857e+2, -560863.06, -868419.44, 14909.347, -0.029253865, -0.097617134, -560142.0, 82547.58, 0.0, 10.00166, 9.9976015 
1.2251073e+3, 2.4441646e+2, -478833.16, -787960.7, 61004.668, -0.07289027, -0.057300694, -467229.75, 77481.96, 0.0, 10.001586, 9.99752 
1.225132e+3, 2.5441384e+2, -431940.1, -703012.25, 71829.766, -0.016341655, -0.087925576, -414082.75, 32657.11, 0.0, 10.001192, 9.997616 
1.2251561e+3, 2.644119e+2, -255789.61, -482192.22, 51193.688, 0.03313039, -0.07444862, -244751.9, 104006.87, 0.0000003685213, 10.00137, 9.998372 
1.22517966e+3, 2.7441072e+2, -25167.62, -305134.2, 43429.047, 0.072260596, -0.048860658, -18585.553, 232180.8, 0.000007319039, 10.002216, 9.998506 
1.22520275e+3, 2.8440908e+2, 3909.454, -351631.84, 56782.598, 0.058097556, -0.01303699, 12757.848, 165538.88, 0.000046575948, 10.002215, 9.997515 
1.22522525e+3, 2.9440656e+2, -54301.76, -323066.44, 62534.273, -0.015352684, -0.0312643, -40464.168, 14342.924, 0.0001562628, 10.001119, 9.997566 
1.22525014e+3, 3.0440265e+2, 106939.305, -105292.98, 68007.55, 0.08884861, -0.22087656, 126861.49, 126861.49, 0.00036177837, 10.001397, 9.998599 
1.2252765e+3, 3.14402e+2, 411812.5, 113182.734, -70526.5, 0.31390634, -0.16474742, 427630.66, 427630.66, 0.0006523365, 10.003158, 9.9992485 
1.2348284e+3, 1.24398045e+2, -2038412.9, -1751159.6, 58284.05, -0.112094946, -0.013031458, -1739784.1, -18879.459, 0.0031899144, 9.997256, 10.001057 
1.23484716e+3, 1.3440144e+2, -1775951.0, -1586626.6, -56499.633, -0.18699767, 0.21978977, -1571047.5, 51826.094, 0.0017411282, 9.998412, 10.000983 
1.2348729e+3, 1.4440277e+2, -1669542.6, -1543863.4, 24455.695, 0.20469718, 0.28269774, -1539272.3, -14409.359, 0.0006337289, 9.998741, 10.000429 
1.2348938e+3, 1.5440193e+2, -1667438.9, -1492399.8, 22103.639, 0.072873645, 0.14553475, -1489651.6, -62778.35, 0.00010392506, 9.998082, 10.000427 
1.2349159e+3, 1.6440186e+2, -1510949.1, -1327801.8, 102555.42, -0.0305511, 0.08593178, -1281886.0, 46986.605, 0.0000017603737, 9.998324, 10.000764 
1.2349399e+3, 1.744029e+2, -1199192.9, -1114214.5, 115617.99, -0.07678272, 0.09276481, -1033525.56, 197330.84, 0.0, 9.999738, 10.000875 
1.2349642e+3, 1.844033e+2, -1087646.4, -1099971.1, 93271.625, -0.051410835, 0.08999878, -1000333.8, 132514.0, 0.0, 10.00022, 10.00007 
1.2349892e+3, 1.9440283e+2, -1085280.6, -1042936.4, 115415.8, 0.06112782, 0.02425278, -946766.9, 88082.805, 0.0, 9.999541, 10.000115 
1.2350137e+3, 2.0440128e+2, -1158259.1, -1324239.8, 96269.92, 0.102070205, -0.010811658, -1114146.0, -177281.48, 0.0, 9.999645, 9.99746 
1.2350376e+3, 2.1439835e+2, -913340.25, -1167432.5, 9803.778, 0.05277163, -0.049690735, -912962.56, -74066.336, 0.0, 10.000699, 9.997358 
1.2350619e+3, 2.2439615e+2, -613256.56, -801689.3, -30341.486, 0.047381315, -0.070362, -608491.44, 132426.19, 0.0, 10.001363, 9.998874 
1.2350867e+3, 2.3439477e+2, -470571.63, -664010.0, 29929.14, 0.10164573, -0.119865716, -466046.78, 176879.64, 0.0, 10.00159, 9.999039 
1.2351108e+3, 2.4439333e+2, -450227.3, -718890.8, 41212.395, 0.114529885, -0.11237022, -444047.56, 100889.6, 0.0, 10.001543, 9.998014 
1.23513415e+3, 2.5439176e+2, -405039.66, -641308.0, 63149.656, 0.079392485, -0.086174056, -389220.25, 57730.67, 0.0, 10.00116, 9.998057 
1.2351582e+3, 2.643899e+2, -262149.63, -480450.0, 75946.42, 0.09796976, -0.08803086, -238327.55, 110639.266, 0.00000016286783, 10.001308, 9.998413 
1.23518296e+3, 2.7438772e+2, -36748.133, -311181.72, 82841.61, 0.17655526, -0.16572347, -13680.237, 237305.27, 0.0000066111284, 10.00214, 9.9985 
1.2352055e+3, 2.843856e+2, 8428.614, -327106.6, 14828.907, 0.11226299, -0.18520646, 9082.7, 162086.14, 0.000046430763, 10.002149, 9.997715 
1.2352255e+3, 2.9438317e+2, -37296.156, -294142.34, 29032.818, -0.117138125, -0.21476157, -34055.3, 20968.74, 0.00015647624, 10.001139, 9.997759 
1.2352504e+3, 3.0437878e+2, -25302.76, -381690.4, 128386.06, -0.038997494, -0.37300894, 16130.416, 16130.416, 0.00036044128, 10.001403, 9.996699 
1.2352798e+3, 3.1437725e+2, 280284.56, -123876.39, 16866.203, 0.30531943, -0.2097216, 280987.22, 280987.22, 0.00064742, 10.003003, 9.997693 
1.244826e+3, 1.24377005e+2, -2088956.5, -1796888.5, 53024.34, -0.04829184, -0.019743599, -1787560.0, -66453.305, 0.003475539, 9.997011, 10.000856 
1.2448449e+3, 1.3438004e+2, -1818864.8, -1628635.4, 36225.824, -0.24471837, 0.19695853, -1621970.3, 1110.9362, 0.0019075654, 9.998208, 10.000794 
1.2448719e+3, 1.443812e+2, -1579701.6, -1484442.0, 109185.336, 0.21889001, 0.24551815, -1412949.9, 112121.92, 0.0007030745, 9.999289, 10.000574 
1.2448932e+3, 1.5438028e+2, -1333402.9, -1310565.3, 77252.46, 0.09379059, 0.084275186, -1243892.3, 183187.53, 0.00011956255, 10.000294, 10.0006075 
1.24491565e+3, 1.6438015e+2, -1191996.1, -1216187.1, 158017.3, -0.0028026307, 0.02574055, -1045612.06, 283467.22, 0.0000023468863, 10.000691, 10.000393 
1.2449401e+3, 1.7438106e+2, -1149948.9, -1136109.5, 127614.89, -0.05025082, 0.061209872, -1015226.9, 215840.14, 0.0, 10.000273, 10.000467 
1.2449648e+3, 1.8438138e+2, -1105918.0, -1127568.6, 53085.38, -0.013312242, 0.079946175, -1062565.5, 70495.26, 0.0, 10.000171, 9.999903 
1.24498986e+3, 1.9438086e+2, -959659.9, -1001300.25, 19153.244, 0.12866211, 0.022494487, -952190.0, 82873.14, 0.0, 10.000475, 9.999952 
1.2450144e+3, 2.0437916e+2, -1022996.06, -1289855.8, 89090.83, 0.16058949, -0.0073629105, -995986.8, -58906.855, 0.0, 10.000699, 9.997193 
1.24503836e+3, 2.1437594e+2, -916471.7, -1194242.9, 161399.72, 0.059655353, -0.04930441, -842427.5, -3312.5774, 0.0, 10.0007925, 9.997129 
1.245063e+3, 2.2437364e+2, -690163.56, -868018.6, 160016.81, 0.051666394, -0.056912713, -596024.2, 145114.38, 0.0, 10.000954, 9.99862 
1.24508865e+3, 2.3437236e+2, -544071.94, -726316.75, 82715.58, 0.16395926, -0.074766256, -512128.66, 131020.414, 0.0, 10.001194, 9.998803 
1.245113e+3, 2.4437098e+2, -390798.34, -618968.4, 42896.695, 0.1852276, -0.07748282, -383000.16, 162157.67, 0.0, 10.001649, 9.998649 
1.2451361e+3, 2.5436944e+2, -178814.39, -453459.16, 69660.29, 0.09507122, -0.11405726, -162156.28, 285008.53, 0.0, 10.002381, 9.998757 
1.2451598e+3, 2.643673e+2, -183730.73, -507188.1, 61710.848, 0.08740193, -0.15434651, -172357.14, 176824.5, 0.000000050542315, 10.002118, 9.997839 
1.2451843e+3, 2.7436444e+2, -309890.6, -517989.16, 5379.3545, 0.17760192, -0.23402694, -309751.63, -58540.74, 0.000006130949, 10.000577, 9.997837 
1.2452072e+3, 2.8436223e+2, -181886.11, -410849.0, -38649.5, 0.13174312, -0.2326882, -175537.98, -22306.04, 0.0000467863, 10.000812, 9.997785 
1.2452281e+3, 2.943603e+2, 291656.34, -120578.46, -42719.797, -0.070377626, -0.21812163, 296036.84, 351283.3, 0.00016088788, 10.003342, 9.997886 
1.24525316e+3, 3.0435613e+2, 281499.6, -258998.02, 72028.02, 0.002737724, -0.35315043, 290933.56, 290933.56, 0.00037296483, 10.003613, 9.996474 
1.2452818e+3, 3.1435412e+2, -10264.862, -240055.39, 58404.38, 0.315113, -0.21423958, 3727.3953, 3727.3953, 0.00066910626, 10.000905, 9.997903 
1.254823e+3, 1.2435694e+2, -2059513.8, -1746092.1, -13419.776, -0.069179215, 0.05617688, -1745518.6, -24221.127, 0.0037739007, 9.997043, 10.001191 
1.254843e+3, 1.3435583e+2, -1787066.5, -1569249.3, 87652.95, -0.26176712, -0.18415539, -1538357.5, 84949.4, 0.0020822603, 9.998222, 10.001202 
1.254871e+3, 1.4435627e+2, -1578473.0, -1485059.8, 143240.02, 0.17538881, -0.22885387, -1381103.8, 144198.11, 0.0007764397, 9.999303, 10.000562 
1.2548926e+3, 1.5435864e+2, -1329104.0, -1312341.0, 123127.78, 0.006462026, -0.05882294, -1197309.8, 229968.89, 0.00013646827, 10.000334, 10.000578 
1.2549162e+3, 1.6435924e+2, -1248837.1, -1338987.8, 139216.17, -0.03530972, -0.0018922925, -1147580.9, 181692.17, 0.0000030208696, 10.000711, 9.999539 
1.2549418e+3, 1.7435761e+2, -1212146.3, -1267861.1, 115383.555, 0.091611244, -0.13112605, -1121304.9, 109984.26, 0.0, 10.000278, 9.999562 
1.2549666e+3, 1.8435714e+2, -1158791.8, -1234341.4, 56339.785, 0.13363875, -0.11041681, -1128735.1, 4559.773, 0.0, 10.000158, 9.999175 
1.2549898e+3, 1.9435808e+2, -1013222.4, -1106647.3, 34633.406, 0.074780576, 0.04976724, -1001783.94, 33503.9, 0.0, 10.000447, 9.999242 
1.255014e+3, 2.0435745e+2, -903674.7, -1029137.3, 85510.836, 0.04284566, 0.080363564, -860352.6, 76940.5, 0.0, 10.000644, 9.999011 
1.255039e+3, 2.143548e+2, -785987.8, -911163.9, 169018.36, 0.036571417, -0.10148036, -668341.4, 170972.63, 0.0, 10.000738, 9.999102 
1.2550642e+3, 2.2435267e+2, -815451.56, -1111793.3, 161312.73, 0.055768203, -0.11687956, -744587.25, -3251.823, 0.0, 10.000885, 9.996979 
1.2550893e+3, 2.3435125e+2, -683906.3, -1004006.3, 96951.33, 0.11417043, 0.03609788, -656831.8, -13474.036, 0.0, 10.001136, 9.996926 
1.2551141e+3, 2.443494e+2, -348206.1, -514026.84, 63892.133, 0.10160253, 0.049805094, -326443.94, 218929.48, 0.0, 10.001578, 9.999403 
1.2551376e+3, 2.543469e+2, -127049.16, -328836.2, 103171.34, -0.00604212, -0.17394665, -83638.03, 363743.7, 0.0, 10.002306, 9.99965 
1.2551607e+3, 2.6434407e+2, -277998.3, -684697.2, 3198.3496, -0.035706867, -0.27896187, -277973.16, 71430.86, 0.00000007625481, 10.002041, 9.996656 
1.2551835e+3, 2.7434084e+2, -408235.84, -711611.3, -44360.63, 0.033231087, -0.2626285, -401882.34, -150439.27, 0.0000061180435, 10.000534, 9.996528 
1.2552074e+3, 2.8433883e+2, -189080.1, -423300.06, 44014.01, 0.06676474, -0.16263759, -181082.2, -27615.87, 0.00004818149, 10.000794, 9.997709 
1.255233e+3, 2.94338e+2, 274136.63, -132743.69, 64077.824, 0.06806912, -0.051234864, 283989.38, 339462.97, 0.00017152917, 10.00323, 9.997859 
1.2552585e+3, 3.043345e+2, 350945.94, -86097.234, -18717.14, 0.15227982, -0.16688867, 351746.06, 351746.06, 0.00040416623, 10.0034895, 9.997721 
1.2552822e+3, 3.143321e+2, 99899.4, 3851.424, -31469.246, 0.24277538, -0.20580791, 109291.586, 109291.586, 0.0007265205, 10.000837, 9.999613 
1.2648202e+3, 1.2433501e+2, -2069968.3, -1755026.5, -66114.99, -0.049314443, -0.00053345726, -1741710.3, -20202.617, 0.004085261, 9.996988, 10.00116 
1.2648422e+3, 1.343333e+2, -1711814.4, -1525865.1, 66012.26, -0.18120438, -0.30029434, -1504813.9, 118707.87, 0.0022650692, 9.99873, 10.001242 
1.2648709e+3, 1.4433353e+2, -1553440.8, -1519624.9, 67835.305, 0.21766077, -0.34836403, -1466622.0, 58896.59, 0.00085386867, 9.999679, 10.000142 
1.2648925e+3, 1.5433621e+2, -1471267.1, -1427660.1, 607.32446, -0.0017924588, -0.10131689, -1427651.6, -157.60632, 0.00015477135, 9.999571, 10.000147 
1.2649162e+3, 1.6433674e+2, -1452822.6, -1459578.6, 8505.223, -0.025742486, -0.017933173, -1447049.1, -117559.18, 0.0000038088367, 9.999411, 9.999334 
1.2649426e+3, 1.7433456e+2, -1369039.0, -1361164.1, 27645.469, 0.19743511, -0.18623647, -1337177.1, -105665.555, 0.0, 9.999287, 9.999394 
1.2649675e+3, 1.843336e+2, -1235962.3, -1309730.3, 60332.57, 0.23750839, -0.1893931, -1202132.4, -68609.984, 0.0, 9.999792, 9.9988365 
1.2649903e+3, 1.9433413e+2, -950354.25, -1113417.4, 56416.348, 0.046660155, -0.03175819, -932738.44, 102781.82, 0.0, 10.00105, 9.998903 
1.2650144e+3, 2.0433371e+2, -750502.1, -917336.56, 45970.41, -0.011056618, 0.021227982, -738673.8, 198850.02, 0.0, 10.001535, 9.999342 
1.2650403e+3, 2.1433194e+2, -727120.9, -842874.0, -4653.2393, 0.096026205, -0.11002066, -726934.1, 112601.48, 0.0, 10.000968, 9.9994545 
1.2650657e+3, 2.2433028e+2, -787817.3, -1078938.3, 25624.256, 0.12824748, -0.10712697, -785579.1, -44026.88, 0.0, 10.000989, 9.997154 
1.2650904e+3, 2.3432878e+2, -583457.7, -933887.7, 101277.55, 0.0700042, 0.025285844, -556293.25, 87281.195, 0.0, 10.001741, 9.997113 
1.265115e+3, 2.4432673e+2, -353466.75, -567670.44, 95106.77, 0.0432469, 0.028213235, -317334.16, 228259.06, 0.0, 10.0017605, 9.998945 
1.2651396e+3, 2.5432375e+2, -378306.94, -507114.1, 17156.863, 0.056727342, -0.19191639, -376060.84, 71548.484, 0.0, 10.00082, 9.999142 
1.2651631e+3, 2.6432085e+2, -434663.13, -761394.4, -80998.83, 0.054259174, -0.27108327, -415685.28, -66051.766, 0.00000015326442, 10.000964, 9.9966545 
1.2651849e+3, 2.7431816e+2, -123019.07, -567949.0, -45373.45, 0.031154253, -0.20942692, -118439.08, 133228.28, 0.000006713193, 10.002461, 9.996586 
1.2652089e+3, 2.8431606e+2, 16824.588, -343150.16, 103779.37, 0.06471543, -0.113205336, 44600.566, 198292.23, 0.000050966704, 10.002296, 9.997531 
1.2652357e+3, 2.9431447e+2, -199284.58, -382800.97, 94808.9, 0.18089068, -0.052641813, -159102.28, -103395.21, 0.00018813205, 10.000076, 9.997655 
1.265261e+3, 3.043116e+2, -124659.875, -240651.22, -4839.3022, 0.25139555, -0.12871183, -124458.32, -124458.32, 0.00045240793, 9.9999, 9.998389 
1.2652832e+3, 3.1431022e+2, 378746.47, 247057.45, -89344.23, 0.20554873, -0.14304397, 423887.94, 423887.94, 0.0008183063, 10.002282, 10.000591 
1.2748161e+3, 1.2431127e+2, -2098313.0, -1811439.8, -80076.414, -0.19804569, -0.19395335, -1790601.4, -68864.84, 0.0044096503, 9.996983, 10.000772 
1.2748425e+3, 1.3431266e+2, -1744778.3, -1595312.8, 136093.42, -0.03761201, -0.13574474, -1514783.1, 108940.63, 0.0024558255, 9.998731, 10.000768 
1.2748714e+3, 1.4431319e+2, -1609690.6, -1639002.0, 60904.273, 0.29315302, -0.09338697, -1561703.5, -35982.88, 0.00093550276, 9.99969, 9.999316 
1.2748924e+3, 1.54313e+2, -1535946.8, -1563760.9, 355.90646, 0.029416904, -0.044026684, -1535942.1, -108215.85, 0.00017466526, 9.999571, 9.999218 
1.2749158e+3, 1.6431254e+2, -1417145.6, -1386649.0, -4553.861, -0.020503234, -0.030801304, -1385983.6, -56252.227, 0.0000047674703, 9.999412, 9.999836 
1.2749423e+3, 1.7431185e+2, -1322966.0, -1271106.1, 26695.086, 0.21638294, -0.10918482, -1259820.6, -28086.338, 0.0, 9.999303, 10.000009 
1.2749673e+3, 1.8431076e+2, -1234231.1, -1303948.5, 99171.7, 0.24425094, -0.1609938, -1163970.1, -30227.078, 0.0, 9.999783, 9.99888 
1.2749909e+3, 1.9430913e+2, -951778.25, -1115626.5, 109520.87, -0.004796834, -0.22297703, -896931.1, 138828.38, 0.0, 10.00104, 9.998895 
1.2750156e+3, 2.0430799e+2, -839287.06, -1088862.5, 21799.88, -0.046319444, -0.18664496, -837397.25, 100374.54, 0.0, 10.001483, 9.998191 
1.2750423e+3, 2.1430744e+2, -823490.8, -1023871.44, -21459.45, 0.18980017, -0.07287821, -821218.44, 18560.537, 0.0, 10.000888, 9.99825 
1.2750676e+3, 2.2430651e+2, -665000.56, -803315.3, 44950.973, 0.2242901, -0.024469905, -651675.6, 90112.23, 0.0, 10.0009, 9.999089 
1.2750913e+3, 2.34305e+2, -444319.94, -627926.8, 136105.83, -0.011263198, -0.10880446, -371950.7, 271848.25, 0.0, 10.001665, 9.999252 
1.275116e+3, 2.443029e+2, -481135.6, -812478.06, 56936.42, -0.034370147, -0.14458409, -471624.88, 74192.84, 0.0, 10.001675, 9.997305 
1.2751423e+3, 2.5430006e+2, -520470.38, -784974.8, -11570.894, 0.22603968, -0.16812845, -519965.2, -72118.37, 0.0, 10.000747, 9.997268 
1.2751666e+3, 2.6429784e+2, -367789.78, -608687.94, -34244.492, 0.2980318, -0.12873688, -363016.38, -13147.344, 0.00000020123079, 10.0009, 9.997733 
1.2751883e+3, 2.742964e+2, -46979.96, -389875.25, 20166.29, 0.113778435, -0.06943858, -45798.016, 206085.5, 0.0000075115454, 10.002376, 9.99785 
1.2752114e+3, 2.8429386e+2, -12446.466, -391649.25, 21806.703, 0.06794916, -0.07074151, -11196.554, 142711.86, 0.000055155855, 10.002243, 9.99722 
1.2752362e+3, 2.9428983e+2, -232381.98, -446244.1, 21368.373, 0.21569769, -0.21604504, -230267.83, -174320.06, 0.00020861672, 10.000052, 9.997231 
1.275261e+3, 3.0428743e+2, -118701.76, -228987.89, 72238.39, 0.25416976, -0.22355379, -82965.0, -82965.0, 0.00051069446, 9.999901, 9.998468 
1.2752847e+3, 3.142886e+2, 372674.47, 268208.34, 14635.01, 0.1035164, -0.0032646758, 374686.0, 374686.0, 0.0009331976, 10.002147, 10.000798 
1.284814e+3, 1.2428836e+2, -1870500.6, -1742745.8, -120646.64, -0.18718374, -0.22394054, -1670109.8, 51850.48, 0.0047468157, 9.998699, 10.000432 
1.2848419e+3, 1.342906e+2, -1772884.0, -1655233.3, 107090.79, 0.044460334, -0.033061247, -1591874.9, 32065.479, 0.0026545508, 9.998742, 10.000348 
1.2848702e+3, 1.442909e+2, -1717410.4, -1702303.6, 50497.918, 0.25600052, 0.0120764095, -1658797.4, -132857.56, 0.0010215283, 9.999004, 9.999212 
1.2848926e+3, 1.5428929e+2, -1504020.1, -1553498.9, 37578.676, 0.07992552, -0.07248231, -1483768.5, -55810.715, 0.00019628371, 9.999823, 9.999161 
1.2849164e+3, 1.6428833e+2, -1251644.4, -1338420.8, 54550.227, 0.03634433, -0.094259135, -1225331.4, 104636.17, 0.0000059623408, 10.000679, 9.999561 
1.284942e+3, 1.7428835e+2, -1022101.56, -1157063.5, 8461.965, 0.1621355, -0.07262704, -1021573.06, 210392.13, 0.0, 10.001505, 9.999732 
1.2849674e+3, 1.8428744e+2, -966908.4, -1175627.3, 47232.566, 0.17327069, -0.0883773, -956717.3, 177254.92, 0.0, 10.001621, 9.998874 
1.2849922e+3, 1.9428533e+2, -977856.6, -1126574.0, 47096.063, 0.0313234, -0.19782451, -964196.8, 71795.164, 0.0, 10.00086, 9.998904 
1.2850173e+3, 2.0428385e+2, -973343.4, -1167254.0, -5679.206, 0.011920189, -0.19087806, -973177.2, -35169.918, 0.0, 10.00062, 9.99807 
1.2850429e+3, 2.1428306e+2, -817814.56, -1034393.6, 19583.52, 0.15612307, -0.08894599, -816058.0, 23959.457, 0.0, 10.000984, 9.998133 
1.285068e+3, 2.2428197e+2, -654833.2, -771061.8, 83228.27, 0.17291176, -0.060734693, -611437.75, 130589.516, 0.0, 10.000855, 9.99933 
1.2850924e+3, 2.3428045e+2, -655291.1, -699806.6, 21210.496, 0.018282, -0.17146732, -646803.25, -2766.4458, 0.0, 10.000092, 9.999514 
1.2851176e+3, 2.4427871e+2, -733271.75, -929428.25, -66695.28, 0.041815214, -0.18740095, -712743.06, -166690.23, 0.0, 9.999919, 9.99735 
1.2851435e+3, 2.5427672e+2, -555201.4, -797116.44, -8776.197, 0.3039828, -0.12779063, -554883.4, -106806.18, 0.0, 10.00049, 9.997309 
1.2851682e+3, 2.6427495e+2, -351516.78, -575893.9, 60244.113, 0.38246658, -0.058061842, -336364.75, 13731.792, 0.00000014147287, 10.000912, 9.997948 
1.285191e+3, 2.7427337e+2, -204947.11, -441001.63, 24258.963, 0.21288139, -0.033250958, -202479.83, 49630.754, 0.00000765521, 10.001184, 9.99807 
1.2852138e+3, 2.8427067e+2, -68942.91, -372589.0, -30994.406, 0.12841558, -0.083303966, -65811.48, 88323.66, 0.00005963982, 10.001655, 9.99764 
1.2852369e+3, 2.9426643e+2, 125538.79, -223236.08, 5551.4917, 0.17346202, -0.29160383, 125627.125, 181800.64, 0.00023270557, 10.002295, 9.997682 
1.2852614e+3, 3.0426452e+2, 176368.14, -168101.9, 129569.31, 0.18648793, -0.24108164, 219662.95, 219662.95, 0.0005779569, 10.002288, 9.997734 
1.285287e+3, 3.142653e+2, 212846.52, 87734.53, -19259.213, 0.15218581, 0.031265896, 215744.1, 215744.1, 0.0010646739, 10.001489, 9.999875 
1.294813e+3, 1.2426636e+2, -1883271.0, -1772325.9, -124627.73, -0.17562963, -0.08921641, -1691382.6, 30795.348, 0.0050962004, 9.998718, 10.000218 
1.2948406e+3, 1.3426709e+2, -1807628.5, -1722417.0, 109517.55, 0.018932603, -0.006592448, -1647509.6, -23337.252, 0.0028611089, 9.998727, 9.999892 
1.2948672e+3, 1.4426653e+2, -1671796.1, -1606995.8, 70449.46, 0.043166455, -0.050311986, -1561853.0, -35675.69, 0.00111182, 9.998998, 9.99987 
1.2948927e+3, 1.5426518e+2, -1446284.8, -1440807.3, 75188.85, 0.09747965, -0.18591979, -1368307.3, 59880.11, 0.000219555, 9.999843, 9.99993 
1.2949178e+3, 1.6426419e+2, -1322187.6, -1486091.1, 78561.62, 0.09346201, -0.20687334, -1290614.0, 39583.453, 0.0000074533, 10.000686, 9.998542 
1.2949419e+3, 1.7426403e+2, -1104286.0, -1331259.6, 43089.92, -0.009381929, -0.08661698, -1096380.9, 135823.13, 0.0, 10.001518, 9.9985285 
1.2949672e+3, 1.8426368e+2, -974589.75, -1190372.8, 16038.99, -0.019588321, 0.020825302, -973404.06, 160805.9, 0.0, 10.001615, 9.998778 
1.2949939e+3, 1.9426285e+2, -978849.44, -1126585.0, 23977.516, 0.10891918, 0.040292155, -975055.3, 61162.02, 0.0, 10.000846, 9.998914 
1.295019e+3, 2.0426129e+2, -918665.56, -1042495.9, 512.1452, 0.11537328, -0.0005061852, -918663.44, 19567.127, 0.0, 10.000573, 9.998947 
1.2950419e+3, 2.142588e+2, -762373.06, -904186.8, 38505.38, -0.04645583, -0.16379361, -752592.56, 87658.64, 0.0, 10.000918, 9.999058 
1.2950665e+3, 2.2425672e+2, -768274.25, -988277.9, 51489.145, -0.06850755, -0.21381517, -756820.2, -14549.882, 0.0, 10.000777, 9.997876 
1.2950934e+3, 2.342552e+2, -776904.25, -938251.06, 1044.8273, 0.10175381, -0.16699369, -776897.5, -132609.95, 0.0, 10.000028, 9.997908 
1.2951192e+3, 2.4425419e+2, -628314.0, -694553.25, -53306.645, 0.21435606, -0.102049835, -598676.06, -52377.914, 0.0, 9.999849, 9.998993 
1.2951435e+3, 2.5425377e+2, -432577.8, -527864.5, 19675.064, 0.24877124, -0.07091419, -428675.1, 19625.709, 0.0, 10.000431, 9.999184 
1.2951681e+3, 2.6425216e+2, -403573.8, -675585.56, 64206.883, 0.27106023, -0.05245134, -389179.8, -38863.434, 0.000000052184554, 10.000867, 9.99729 
1.2951928e+3, 2.742491e+2, -271718.53, -563634.75, 44045.324, 0.27175832, -0.09317054, -265217.6, -12869.445, 0.000006761853, 10.001111, 9.997266 
1.2952162e+3, 2.842465e+2, -4896.939, -222250.8, -12085.221, 0.18937781, -0.1425049, -4227.0464, 150144.3, 0.000062792315, 10.001576, 9.998713 
1.2952377e+3, 2.9424423e+2, 196675.16, -58733.324, 37222.754, 0.0048517226, -0.2729851, 201989.36, 258374.2, 0.00025879944, 10.00222, 9.998851 
1.2952618e+3, 3.0424276e+2, 60956.145, -390947.25, 95296.41, -0.0028463511, -0.17206226, 80230.01, 80230.01, 0.0006519277, 10.002222, 9.996232 
1.2952895e+3, 3.1424055e+2, 46565.547, -214594.03, -32044.592, 0.2409906, -0.031838056, 50439.977, 50439.977, 0.0012067992, 10.001317, 9.997874 
1.304812e+3, 1.242419e+2, -2036706.1, -1802898.3, -143299.45, -0.074762374, -0.062891275, -1734866.4, -12448.05, 0.0054552136, 9.99748, 10.0006 
1.3048401e+3, 1.3424177e+2, -1718584.4, -1649326.8, 81600.67, 0.09093452, -0.08967711, -1595311.3, 29106.316, 0.003073975, 9.999221, 10.000148 
1.3048661e+3, 1.4424117e+2, -1486799.1, -1524044.6, 56623.586, -0.03418212, -0.14974765, -1445814.5, 80606.74, 0.0012055306, 10.000285, 9.999823 
1.3048927e+3, 1.542403e+2, -1340586.4, -1396307.0, -13025.612, 0.09069538, -0.23146035, -1337691.9, 90735.55, 0.000244213, 10.000599, 9.999869 
1.3049185e+3, 1.6423953e+2, -1331959.6, -1511386.8, -13178.188, 0.1152584, -0.21670496, -1330996.9, -560.5871, 0.000009295233, 10.000717, 9.998352 
1.3049428e+3, 1.742392e+2, -1245884.4, -1421480.5, 10978.546, -0.024439428, -0.09116131, -1245200.6, -12754.426, 0.0, 10.000651, 9.998325 
1.304968e+3, 1.8423873e+2, -1108629.1, -1243441.9, 15817.114, -0.041995045, 0.012542568, -1106798.1, 27655.604, 0.0, 10.000641, 9.998883 
1.3049945e+3, 1.9423793e+2, -998538.3, -1119920.8, 18062.484, 0.10655374, 0.019311665, -995907.5, 40552.29, 0.0, 10.000645, 9.999054 
1.3050197e+3, 2.0423652e+2, -891841.75, -1003885.3, 7589.7246, 0.124989994, -0.024662862, -891329.94, 47140.996, 0.0, 10.0006485, 9.999176 
1.3050427e+3, 2.1423441e+2, -781821.5, -884299.75, -15592.124, -0.02964534, -0.17516111, -779501.7, 60986.38, 0.0, 10.000668, 9.999312 
1.3050674e+3, 2.2423254e+2, -768221.75, -996091.25, 14381.118, -0.044185128, -0.2139967, -767317.75, -24812.47, 0.0, 10.000806, 9.997809 
1.305094e+3, 2.3423098e+2, -636417.56, -879657.56, 61819.285, 0.131053, -0.16165763, -621607.94, 22915.178, 0.0, 10.00103, 9.997826 
1.3051197e+3, 2.4422973e+2, -451101.16, -627319.3, 36625.5, 0.2173824, -0.10957797, -443792.0, 102744.305, 0.0, 10.001144, 9.998833 
1.3051437e+3, 2.542288e+2, -341137.7, -505172.78, -51961.867, 0.18845896, -0.11287781, -326062.94, 122481.46, 0.0, 10.0011425, 9.9990015 
1.3051683e+3, 2.6422724e+2, -329915.47, -579304.5, -41151.17, 0.188557, -0.10516361, -323300.66, 27258.385, 0.000000019202236, 10.00112, 9.997825 
1.3051935e+3, 2.7422485e+2, -226870.75, -476593.88, 23570.633, 0.21917295, -0.13783987, -224665.45, 27916.842, 0.0000058574187, 10.001138, 9.99785 
1.3052176e+3, 2.842225e+2, -59922.36, -285776.6, 7665.62, 0.19618766, -0.17387712, -59662.48, 94940.25, 0.00006594774, 10.001363, 9.998374 
1.3052407e+3, 2.9422024e+2, 127840.4, -136204.64, -71941.73, 0.110877626, -0.26365015, 146169.33, 202788.67, 0.00028478247, 10.001942, 9.99845 
1.3052647e+3, 3.0421883e+2, 50246.055, -368421.1, -48153.71, 0.07297362, -0.1473297, 55713.145, 55713.145, 0.00072544854, 10.002007, 9.996504 
1.30529e+3, 3.1421593e+2, 44522.438, -224532.5, -62650.797, 0.1691408, -0.10425467, 58395.652, 58395.652, 0.0013484193, 10.00131, 9.997825 
1.3148107e+3, 1.24214806e+2, -1968328.6, -1658489.3, -23955.24, 0.01751197, -0.17438261, -1656648.1, 66034.78, 0.005819013, 9.997459, 10.001608 
1.3148408e+3, 1.3421465e+2, -1651315.1, -1515859.1, 148878.13, 0.22162221, -0.2909263, -1420027.4, 204648.27, 0.0032902497, 9.999238, 10.001064 
1.3148665e+3, 1.442149e+2, -1533673.0, -1623532.4, 63467.926, -0.023027297, -0.28755376, -1500841.1, 25829.28, 0.0013013786, 10.000301, 9.999131 
1.3148928e+3, 1.542147e+2, -1405441.5, -1530941.5, 1393.4968, 0.013095823, -0.21115409, -1405426.0, 23251.125, 0.00026992275, 10.0006, 9.998945 
1.3149187e+3, 1.6421436e+2, -1289437.8, -1424576.5, -22720.768, 0.055919737, -0.12931517, -1285720.0, 44964.332, 0.00001153221, 10.000716, 9.998951 
1.3149446e+3, 1.742139e+2, -1189107.0, -1308113.0, 13401.5, 0.079933085, -0.09252075, -1187616.5, 45075.28, 0.0, 10.000662, 9.999102 
1.3149697e+3, 1.8421273e+2, -1093250.5, -1205420.4, 9893.383, 0.061369304, -0.11516793, -1092384.5, 42318.473, 0.0, 10.000617, 9.999155 
1.314994e+3, 1.9421059e+2, -987118.6, -1091140.6, 21769.2, -0.01827003, -0.2642419, -982746.6, 53972.895, 0.0, 10.00062, 9.999266 
1.315019e+3, 2.042095e+2, -926312.25, -1063289.9, 878.8807, -0.0027863295, -0.2687833, -926306.6, 12422.163, 0.0, 10.000597, 9.998793 
1.3150454e+3, 2.1420984e+2, -821334.94, -952923.3, -8890.478, 0.1526725, -0.13170834, -820736.94, 19991.47, 0.0, 10.000606, 9.998874 
1.3150705e+3, 2.242094e+2, -690035.9, -813962.06, 16037.012, 0.18645293, -0.065343276, -687994.2, 54738.51, 0.0, 10.000723, 9.9991 
1.3150945e+3, 2.3420784e+2, -550013.75, -682327.8, 76686.586, 0.05619588, -0.15258045, -514891.06, 129852.734, 0.0, 10.000953, 9.99922 
1.315119e+3, 2.4420543e+2, -596628.3, -910135.2, 30375.729, 0.0068621966, -0.20114507, -593712.3, -46945.117, 0.0, 10.00106, 9.996933 
1.3151439e+3, 2.54202e+2, -503656.47, -823367.44, -42932.004, 0.07484731, -0.23886345, -497991.75, -49185.688, 0.0, 10.001059, 9.996859 
1.3151684e+3, 2.6420027e+2, -228889.81, -352747.06, -45003.95, 0.082688265, -0.20961976, -214264.48, 136558.9, 0.000000054232096, 10.001045, 9.999416 
1.3151924e+3, 2.7420056e+2, -108968.39, -207830.28, 32050.932, 0.0099513605, -0.16236883, -99486.86, 153326.55, 0.0000056747863, 10.001043, 9.999738 
1.3152182e+3, 2.8419882e+2, -178829.84, -524497.75, 21144.477, 0.101094045, -0.16554275, -177541.23, -22712.588, 0.00007077781, 10.001315, 9.996764 
1.3152458e+3, 2.9419458e+2, -18074.102, -418727.94, -36933.086, 0.41033533, -0.26496193, -14697.984, 42177.453, 0.0003102898, 10.001845, 9.996562 
1.3152695e+3, 3.0419287e+2, 169816.48, -100382.45, -70476.836, 0.33309087, -0.16225937, 187094.34, 187094.34, 0.0007935088, 10.001933, 9.998374 
1.3152884e+3, 3.141918e+2, 140331.55, 16162.042, -70077.81, -0.15487315, -0.15321815, 171870.6, 171870.6, 0.00147785, 10.001162, 9.999538 
1.3248101e+3, 1.2418886e+2, -1677364.0, -1576059.8, 88686.06, 0.1108308, -0.16966236, -1524580.3, 198354.52, 0.006183249, 9.999682, 10.001115 
1.3248406e+3, 1.341877e+2, -1615145.3, -1539457.8, 80147.75, 0.27501407, -0.34897706, -1488668.5, 136270.31, 0.0035072896, 9.9996805, 10.000675 
1.3248667e+3, 1.4418806e+2, -1629428.3, -1668511.8, -43371.344, -0.003189077, -0.31043404, -1601399.5, -74465.98, 0.0013982238, 9.999643, 9.999135 
1.3248926e+3, 1.5418853e+2, -1500439.8, -1573105.9, -47416.57, -0.0063703856, -0.17242447, -1477036.5, -48101.535, 0.00029637254, 9.999933, 9.998979 
1.324919e+3, 1.6418841e+2, -1341720.8, -1416563.8, -36447.848, 0.032197036, -0.08216178, -1326904.1, 4035.6123, 0.000014169166, 10.000216, 9.999244 
1.3249451e+3, 1.741876e+2, -1201146.1, -1281075.3, -47628.203, 0.08202088, -0.11130688, -1178936.6, 54012.195, 0.0, 10.00044, 9.999391 
1.3249704e+3, 1.8418631e+2, -1086070.3, -1172348.0, -63414.0, 0.074809775, -0.17236248, -1052513.0, 82446.81, 0.0, 10.000547, 9.999412 
1.3249946e+3, 1.9418442e+2, -982435.2, -1059277.4, -61361.28, -0.0063811108, -0.32194725, -948458.9, 88514.03, 0.0, 10.000532, 9.999521 
1.3250197e+3, 2.0418349e+2, -930305.1, -1085550.4, -57211.098, 0.017377255, -0.31654698, -911499.6, 27481.27, 0.0, 10.000654, 9.998613 
1.3250464e+3, 2.1418387e+2, -792905.2, -963076.75, -64401.68, 0.18665111, -0.15288235, -771280.3, 69701.6, 0.0, 10.000902, 9.998661 
1.3250716e+3, 2.2418368e+2, -660720.1, -762779.3, -63605.02, 0.2215836, -0.06333906, -630204.56, 112779.98, 0.0, 10.000778, 9.999419 
1.3250951e+3, 2.3418272e+2, -631242.2, -675055.8, -93720.57, 0.07489265, -0.12923165, -556902.1, 88087.484, 0.0, 10.000213, 9.999619 
1.3251194e+3, 2.4418052e+2, -714136.94, -946507.25, -79458.03, 0.014143786, -0.18661478, -689564.94, -142555.0, 0.0, 10.000162, 9.997115 
1.3251445e+3, 2.5417677e+2, -530751.3, -813485.56, 2790.651, 0.069912545, -0.27478927, -530723.75, -81674.07, 0.0, 10.00078, 9.997056 
1.3251694e+3, 2.6417467e+2, -266776.44, -413622.25, 20644.988, 0.0822482, -0.2727819, -263929.16, 87140.9, 0.00000008813443, 10.000967, 9.999041 
1.3251936e+3, 2.7417457e+2, -203323.45, -301363.63, -82537.04, 0.03630576, -0.22336088, -156347.02, 96719.83, 0.000005758402, 10.000592, 9.999322 
1.3252193e+3, 2.8417313e+2, -270193.75, -524700.6, -79474.414, 0.11561317, -0.19091555, -247415.13, -92334.17, 0.000075127005, 10.000509, 9.997148 
1.3252464e+3, 2.9417017e+2, -103454.74, -404973.53, 11761.237, 0.34880614, -0.20695911, -102996.67, -45880.992, 0.00033054428, 10.001021, 9.997051 
1.3252707e+3, 3.0416843e+2, 162479.9, -65511.004, 24221.484, 0.29223195, -0.15368734, 165024.77, 165024.77, 0.00084821245, 10.001725, 9.998712 
1.3252918e+3, 3.1416613e+2, 359209.7, 115823.13, -130682.695, 0.017848132, -0.2923448, 416086.34, 416086.34, 0.0015816313, 10.00267, 9.999509 
1.3348101e+3, 1.24164276e+2, -1817608.0, -1872949.9, 137870.5, 0.13237059, -0.046739705, -1704659.1, 18512.914, 0.0065457188, 9.999719, 9.999051 
1.3348398e+3, 1.3416101e+2, -1741644.4, -1800655.3, 73196.99, 0.19788718, -0.25408375, -1692229.9, -67023.82, 0.0037237175, 9.999679, 9.998879 
1.3348663e+3, 1.4416063e+2, -1576059.0, -1555890.1, -42493.063, -0.025194274, -0.22836976, -1522301.3, 4910.0703, 0.0014951822, 9.999629, 9.999919 
1.3348927e+3, 1.5416183e+2, -1424892.4, -1419436.6, -28732.959, -0.012987363, -0.119408935, -1393302.4, 35898.164, 0.00032323142, 9.999936, 10.000036 
1.3349189e+3, 1.641618e+2, -1351208.4, -1431441.6, -34380.49, -0.004455471, -0.07436648, -1338491.6, -7289.9956, 0.000017128494, 10.000195, 9.999153 
1.3349442e+3, 1.7416038e+2, -1217272.3, -1310626.4, -35228.313, -0.06297324, -0.14654197, -1205470.4, 27746.56, 0.00000000003443261, 10.000424, 9.999194 
1.3349698e+3, 1.8415953e+2, -1070355.1, -1139681.4, -70434.84, -0.04931181, -0.16093762, -1026516.06, 108707.77, 0.0, 10.000542, 9.99964 
1.3349964e+3, 1.9415942e+2, -963301.6, -1018511.6, -55939.363, 0.09347148, -0.1604692, -928526.75, 108693.36, 0.0, 10.000521, 9.99981 
1.3350217e+3, 2.0415856e+2, -937755.25, -1088078.1, -56350.8, 0.13720495, -0.16664529, -918977.0, 20249.652, 0.0, 10.0006, 9.998621 
1.3350458e+3, 2.141566e+2, -808467.75, -977411.8, -50089.598, 0.034628764, -0.23202614, -794733.44, 46514.117, 0.0, 10.000819, 9.998607 
1.3350704e+3, 2.2415547e+2, -713857.4, -854666.7, -87431.836, 0.017386217, -0.2065506, -672007.25, 71253.05, 0.0, 10.000695, 9.99883 
1.335096e+3, 2.3415555e+2, -684656.1, -772748.1, -106652.82, 0.13351503, -0.10267755, -613312.0, 31948.768, 0.0, 10.00015, 9.998982 
1.3351214e+3, 2.441548e+2, -572906.56, -637686.56, -66307.05, 0.1730931, -0.07920039, -531501.3, 15764.376, 0.0, 10.000095, 9.999267 
1.3351458e+3, 2.541529e+2, -375243.88, -474132.4, 30247.752, 0.11056696, -0.2198314, -366725.56, 82551.2, 0.0, 10.000708, 9.99942 
1.3351707e+3, 2.6415038e+2, -428025.88, -736657.06, 2511.0933, 0.12166029, -0.2886296, -428005.44, -76705.28, 0.00000008397673, 10.000911, 9.996851 
1.3351962e+3, 2.7414694e+2, -396380.16, -684253.3, -85412.58, 0.23191828, -0.31632435, -372945.75, -119604.62, 0.0000056271715, 10.000515, 9.99673 
1.3352205e+3, 2.841455e+2, -124743.086, -216138.42, -68146.61, 0.18006371, -0.24116577, -88390.54, 66967.75, 0.000076498116, 10.000474, 9.999285 
1.3352431e+3, 2.9414693e+2, 60740.723, -38051.695, 39159.773, -0.09049976, -0.07726541, 74380.01, 131721.39, 0.00034050437, 10.000908, 9.999629 
1.3352688e+3, 3.041454e+2, 80862.83, -209417.28, 55833.414, -0.083768494, -0.09868104, 91231.63, 91231.63, 0.000882415, 10.001622, 9.997767 
1.3352999e+3, 3.1413913e+2, 219509.77, -123439.67, -71016.49, 0.53179806, -0.5069544, 233633.86, 233633.86, 0.0016524311, 10.002466, 9.997956 
1.3448107e+3, 1.24137245e+2, -1600621.3, -1851615.1, 107818.86, 0.12332852, -0.09452129, -1560666.1, 162767.22, 0.0069055543, 10.001578, 9.998298 
1.3448389e+3, 1.3413478e+2, -1673577.6, -1823005.5, 93803.836, 0.1187174, -0.17402743, -1628369.4, -2904.419, 0.0039389143, 10.0003805, 9.998395 
1.3448663e+3, 1.441344e+2, -1538290.6, -1508632.1, 63585.996, 0.026217798, -0.1315891, -1458169.0, 69302.76, 0.0015916337, 9.999765, 10.0001745 
1.3448934e+3, 1.5413496e+2, -1341618.4, -1340547.1, 13262.181, 0.05711134, -0.1205128, -1327809.8, 101654.49, 0.0003501717, 10.000356, 10.000365 
1.3449198e+3, 1.6413482e+2, -1279929.0, -1390962.0, -16937.65, 0.056597564, -0.10828665, -1277402.8, 54062.36, 0.000020254476, 10.000668, 9.999199 
1.3449445e+3, 1.741339e+2, -1199047.9, -1299336.4, -15012.972, -0.05787208, -0.1299626, -1196848.6, 36627.023, 0.0000000014653116, 10.000545, 9.999212 
1.3449703e+3, 1.8413329e+2, -1112990.6, -1183991.1, -53441.973, -0.04144935, -0.11367193, -1084332.4, 51148.97, 0.0, 10.000354, 9.999427 
1.3449973e+3, 1.9413304e+2, -1044170.56, -1084354.3, -94187.19, 0.17559122, -0.10296165, -967956.06, 69524.78, 0.0, 10.000088, 9.999565 
1.3450228e+3, 2.0413204e+2, -994517.1, -1068728.0, -77763.54, 0.21083608, -0.12621872, -945460.06, -5971.902, 0.0, 10.000008, 9.99904 
1.3450457e+3, 2.1413001e+2, -868562.25, -944668.5, -44786.56, -0.013461212, -0.24948405, -847845.7, -6339.862, 0.0, 10.000154, 9.999144 
1.34507e+3, 2.2412863e+2, -802541.2, -946079.0, -55125.484, -0.057967562, -0.2592217, -783813.7, -40293.973, 0.0, 10.000284, 9.9984045 
1.3450965e+3, 2.3412819e+2, -681372.0, -827211.5, -76338.195, 0.15741555, -0.1592335, -648722.75, -3194.8906, 0.0, 10.000406, 9.9984865 
1.3451223e+3, 2.4412763e+2, -492228.28, -525464.5, -55850.03, 0.2542095, -0.1205463, -450576.44, 96955.52, 0.0, 10.000346, 9.999914 
1.345147e+3, 2.5412682e+2, -415648.75, -407997.6, -88833.72, 0.18366487, -0.22625698, -322907.13, 126624.055, 0.0, 10.000072, 10.000181 
1.3451718e+3, 2.6412496e+2, -524630.8, -769512.06, -90595.734, 0.17407404, -0.27294374, -494758.3, -143210.81, 0.00000006157407, 10.000197, 9.9969635 
1.345197e+3, 2.7412164e+2, -322423.16, -639632.9, -7595.518, 0.24788359, -0.29546273, -322241.4, -68653.734, 0.0000055913592, 10.000988, 9.9968 
1.3452213e+3, 2.841201e+2, -48686.035, -204510.39, 38189.293, 0.1815208, -0.22331476, -39829.96, 115776.79, 0.00007685254, 10.001105, 9.999062 
1.3452438e+3, 2.9412112e+2, -30322.861, -100383.78, -71357.83, -0.08408851, -0.07574085, 14139.272, 71735.02, 0.00034429008, 10.000364, 9.99946 
1.3452695e+3, 3.0411935e+2, -59946.355, -238369.58, -64549.254, -0.101597086, -0.13080783, -39042.95, -39042.95, 0.00089966063, 10.000463, 9.99814 
1.3453016e+3, 3.1411484e+2, 136680.97, -111371.77, -83382.91, 0.5125735, -0.40863165, 162104.42, 162104.42, 0.0016932157, 10.001667, 9.99842 
1.3548115e+3, 1.2410737e+2, -1557663.9, -1759894.6, 45477.344, 0.029366514, -0.37100342, -1547907.6, 175815.4, 0.0072628423, 10.001587, 9.998918 
1.354838e+3, 1.3410906e+2, -1607734.8, -1684672.6, 50349.86, -0.011532923, -0.12714055, -1582840.0, 42874.645, 0.004152666, 10.000383, 9.999339 
1.3548669e+3, 1.4410968e+2, -1566645.4, -1568514.5, 75001.35, 0.10087855, -0.014988405, -1492572.8, 35139.176, 0.0016872559, 9.999764, 9.999767 
1.354895e+3, 1.541081e+2, -1371926.6, -1409989.8, 43180.91, 0.15138602, -0.1692701, -1343769.3, 85955.086, 0.0003769789, 10.000376, 9.999883 
1.3549218e+3, 1.6410744e+2, -1262964.4, -1360857.1, -26367.984, 0.1653687, -0.19343333, -1256313.8, 75416.266, 0.000023370363, 10.000684, 9.999401 
1.3549463e+3, 1.7410815e+2, -1182406.9, -1264280.0, -13963.947, 0.058527887, -0.075917855, -1180090.8, 53634.605, 0.0000000068048798, 10.000536, 9.999462 
1.3549715e+3, 1.8410763e+2, -1166872.0, -1293000.3, -69502.016, 0.043683726, -0.029708745, -1136087.3, -355.42276, 0.0, 10.000339, 9.998686 
1.3549976e+3, 1.9410531e+2, -1104396.3, -1207389.8, -99323.266, 0.1834277, -0.14315976, -1044013.56, -6259.0776, 0.0, 10.000071, 9.998732 
1.3550226e+3, 2.0410396e+2, -938235.9, -943768.7, -80993.52, 0.18667352, -0.1970386, -859961.5, 79803.55, 0.0, 9.9999695, 9.999918 
1.355046e+3, 2.14104e+2, -803924.2, -798722.4, -33963.207, -0.0066107153, -0.21591756, -767260.6, 74497.164, 0.0, 10.000094, 10.000178 
1.3550706e+3, 2.2410306e+2, -830872.06, -983808.06, -59067.613, -0.05582747, -0.22742677, -810715.3, -66951.06, 0.0, 10.000197, 9.998185 
1.3550964e+3, 2.3410073e+2, -718564.06, -886043.75, -66580.836, 0.10169631, -0.28257313, -695320.9, -49530.76, 0.0, 10.000326, 9.998121 
1.3551223e+3, 2.4409913e+2, -556107.2, -640988.44, -70981.46, 0.21102676, -0.2924805, -515846.1, 31961.117, 0.0, 10.000269, 9.999161 
1.3551477e+3, 2.540986e+2, -481761.72, -528471.0, -91798.75, 0.2446987, -0.29221582, -410393.34, 39418.207, 0.0, 9.999998, 9.999391 
1.3551724e+3, 2.6409832e+2, -379266.22, -455063.5, -72115.414, 0.19624832, -0.23585379, -335697.44, 16115.228, 0.000000036385206, 10.000139, 9.999152 
1.3551961e+3, 2.7409846e+2, -166656.1, -287823.75, 26596.35, 0.047956575, -0.16175605, -161075.23, 92734.13, 0.000005925218, 10.000868, 9.999275 
1.3552211e+3, 2.8409684e+2, -224856.77, -552431.3, 6036.1797, 0.057133865, -0.12517054, -224745.58, -68917.42, 0.00007723303, 10.001026, 9.99671 
1.3552478e+3, 2.9409283e+2, -243717.8, -525099.8, -87890.37, 0.26929566, -0.19631714, -218521.25, -160643.06, 0.00034439715, 10.000282, 9.996584 
1.3552727e+3, 3.040903e+2, 40533.934, -8596.68, -27802.393, 0.15966137, -0.24378361, 53068.86, 53068.86, 0.0009018357, 10.000387, 9.999747 
1.3552976e+3, 3.1409276e+2, 251374.84, 188968.38, -9583.288, -0.07310533, -0.027844558, 252813.33, 252813.33, 0.0017008643, 10.001422, 10.000596 
1.364812e+3, 1.2408022e+2, -1881725.0, -1887156.3, -15085.258, 0.025775027, -0.3283577, -1869112.9, -145120.95, 0.0076198755, 9.999197, 9.999208 
1.364838e+3, 1.3408187e+2, -1590178.5, -1645773.3, -44269.668, -0.038973, -0.12228458, -1565702.6, 60279.594, 0.004366158, 10.000351, 9.99963 
1.364868e+3, 1.44082e+2, -1469156.3, -1505208.4, -19288.088, 0.20152272, -0.077736124, -1460782.1, 67200.04, 0.0017823466, 10.000373, 9.999905 
1.3648947e+3, 1.5408082e+2, -1529084.6, -1471803.4, -12133.723, 0.15618844, -0.20466138, -1469339.1, -39350.063, 0.0004035849, 9.999242, 10.000005 
1.3649213e+3, 1.6408025e+2, -1501409.9, -1465655.9, -24051.926, 0.14196545, -0.22948751, -1453564.9, -121572.29, 0.000026350568, 9.998997, 9.999494 
1.364947e+3, 1.7408074e+2, -1248076.0, -1283732.8, -34907.67, 0.10132117, -0.14542507, -1226707.5, 7282.4746, 0.000000016360648, 10.000032, 9.999567 
1.3649724e+3, 1.8408024e+2, -1141162.0, -1268820.5, -79479.695, 0.087176844, -0.107678086, -1103054.0, 32942.227, 0.0, 10.000467, 9.998789 
1.364997e+3, 1.9407828e+2, -1096074.3, -1186100.8, -50287.777, 0.13224298, -0.1988182, -1073596.4, -35580.797, 0.0, 10.000063, 9.998877 
1.365022e+3, 2.0407706e+2, -960610.44, -993965.9, -3515.8152, 0.14855678, -0.23066747, -960243.9, -20218.225, 0.0, 9.999993, 9.999558 
1.3650475e+3, 2.14077e+2, -787742.7, -836535.0, -73916.305, 0.116907395, -0.22044612, -734300.56, 107721.34, 0.0, 10.00041, 9.9997635 
1.3650724e+3, 2.2407594e+2, -759402.4, -918029.0, -141011.77, 0.10257583, -0.23399825, -676929.06, 67100.66, 0.0, 10.000557, 9.998461 
1.3650969e+3, 2.3407349e+2, -707292.1, -840903.06, -113356.734, 0.11824767, -0.33475527, -642519.8, 3533.629, 0.0, 10.0002365, 9.998473 
1.3651218e+3, 2.440719e+2, -637166.0, -757018.6, -74872.84, 0.15770556, -0.3320646, -601190.75, -53119.73, 0.0, 10.000051, 9.998464 
1.3651475e+3, 2.540715e+2, -519084.28, -634370.4, -110110.18, 0.22128491, -0.23892047, -452441.47, -2361.615, 0.0, 10.000123, 9.998597 
1.3651724e+3, 2.6407135e+2, -334014.6, -348768.97, -111049.51, 0.19849794, -0.1636628, -230097.52, 121984.23, 0.000000033203506, 10.0000925, 9.999904 
1.3651966e+3, 2.740715e+2, -237559.81, -218109.1, -137130.2, 0.06428672, -0.1738082, -90359.82, 163713.81, 0.000006027052, 9.999934, 10.000204 
1.3652219e+3, 2.8407016e+2, -380818.63, -627292.6, -143239.67, 0.09710751, -0.16110635, -315098.03, -159009.7, 0.00007556622, 9.999975, 9.9966955 
1.3652489e+3, 2.9406664e+2, -224516.28, -520016.66, -61445.098, 0.34264305, -0.17267309, -212248.9, -154113.58, 0.00033622416, 10.000448, 9.996531 
1.3652736e+3, 3.040642e+2, 77200.375, 21537.354, 91219.445, 0.20846063, -0.21425654, 144739.61, 144739.61, 0.0008816842, 10.000575, 9.999873 
1.3652985e+3, 3.1406724e+2, 99613.56, 163884.19, -39197.824, -0.05552152, 0.047765326, 182435.64, 182435.64, 0.001665559, 10.000127, 10.001071 
1.3748112e+3, 1.2405586e+2, -1901647.3, -1895785.8, -64707.53, 0.027836895, 0.03405979, -1833942.6, -109702.74, 0.0079810945, 9.999085, 9.999191 
1.3748387e+3, 1.3405322e+2, -1617704.5, -1696755.5, 1899.4236, -0.01592258, -0.15186769, -1617658.9, 8608.254, 0.0045821774, 10.000329, 9.999288 
1.3748692e+3, 1.4405128e+2, -1418483.4, -1404316.3, -67136.375, 0.27516606, -0.32950917, -1343890.8, 184392.83, 0.0018779465, 10.000388, 10.000594 
1.3748926e+3, 1.5405297e+2, -1477282.3, -1362793.6, -49054.3, 0.021008166, -0.24330762, -1344650.8, 85608.625, 0.00043006244, 9.999232, 10.00076 
1.3749182e+3, 1.6405334e+2, -1504743.8, -1467736.4, 789.99347, -0.07282253, -0.21694116, -1467719.5, -135467.45, 0.000029160963, 9.998972, 9.999494 
1.3749462e+3, 1.7405182e+2, -1253955.3, -1293990.4, 9352.298, 0.014880834, -0.32640487, -1251878.4, -17610.145, 0.000000027808229, 10.000017, 9.999507 
1.3749725e+3, 1.8405119e+2, -1068349.6, -1118861.6, -96974.664, 0.03542851, -0.34534344, -993396.06, 142877.98, 0.0, 10.000472, 9.999818 
1.3749957e+3, 1.9405185e+2, -1021908.75, -1028571.0, -62243.01, -0.021445401, -0.28333002, -962907.8, 75357.125, 0.0, 10.000042, 9.999973 
1.3750212e+3, 2.0405133e+2, -1075671.8, -1223845.6, 2026.394, 0.04566892, -0.23346096, -1075644.0, -135373.61, 0.0, 9.999952, 9.998002 
1.3750497e+3, 2.1404912e+2, -927170.44, -1110411.4, -51917.04, 0.29598072, -0.25645795, -913483.3, -71186.2, 0.0, 10.000339, 9.997921 
1.3750756e+3, 2.2404736e+2, -720477.3, -813049.44, -154419.06, 0.35834292, -0.27301157, -605556.56, 138758.31, 0.0, 10.000455, 9.999231 
1.3750975e+3, 2.340464e+2, -646720.06, -697075.44, -118019.91, 0.15311053, -0.32571688, -551222.1, 95096.3, 0.0, 10.00016, 9.999497 
1.3751209e+3, 2.4404575e+2, -693194.4, -860075.0, -81664.414, 0.042267792, -0.25333306, -659881.25, -111556.164, 0.0, 9.999989, 9.997787 
1.375146e+3, 2.540455e+2, -588515.44, -761738.4, -100612.39, 0.07302575, -0.06520566, -542370.0, -92033.375, 0.0, 10.000045, 9.997764 
1.3751718e+3, 2.640441e+2, -384785.97, -436722.3, -120210.19, 0.12821713, -0.04245932, -287771.06, 64582.45, 0.000000022673568, 10.000019, 9.999334 
1.3751982e+3, 2.740411e+2, -290248.8, -305301.88, -134291.38, 0.22887984, -0.31451154, -163273.23, 91104.484, 0.0000059199137, 9.999849, 9.999642 
1.3752235e+3, 2.840402e+2, -236525.97, -319307.72, -133552.63, 0.24245696, -0.3168386, -138097.28, 18287.902, 0.000072404306, 9.99993, 9.998835 
1.3752471e+3, 2.9404235e+2, -75615.664, -177873.36, -33290.39, 0.10947324, -0.005253712, -65732.96, -7363.349, 0.00031917673, 10.000301, 9.998958 
1.3752721e+3, 3.040408e+2, -26735.037, -161986.56, 72316.92, -0.004798335, -0.036056384, 4649.203, 4649.203, 0.0008366534, 10.0004425, 9.99867 
1.3753033e+3, 3.140383e+2, -1704.2795, 2295.7578, -29009.4, 0.3827288, -0.16954935, 29374.002, 29374.002, 0.0015845374, 9.999944, 10.000034 
1.3848126e+3, 1.24029495e+2, -1517872.6, -1661119.1, -52446.58, 0.15070319, 0.099392496, -1500723.5, 223778.4, 0.008351057, 10.001499, 9.999649 
1.3848391e+3, 1.340266e+2, -1631666.4, -1687626.0, 107595.25, 0.011172987, -0.12652187, -1548472.4, 78056.2, 0.004803759, 10.000161, 9.999435 
1.384869e+3, 1.4402436e+2, -1528237.9, -1493700.5, 41800.1, 0.25804722, -0.32865956, -1465742.5, 62804.457, 0.0019753822, 9.999788, 10.000271 
1.3848925e+3, 1.5402564e+2, -1223289.9, -1283427.4, -38508.164, -0.011731972, -0.24690834, -1204501.6, 226026.6, 0.00045665295, 10.0011635, 10.000375 
1.384918e+3, 1.6402572e+2, -1159448.8, -1308310.6, -33671.25, -0.11021866, -0.22255068, -1152186.9, 180337.31, 0.00003186285, 10.001384, 9.999422 
1.3849461e+3, 1.7402422e+2, -1264837.0, -1302607.6, -37366.95, -0.008267425, -0.3253133, -1241854.1, -7314.772, 0.000000039188958, 9.999968, 9.999469 
1.3849723e+3, 1.8402366e+2, -1213192.3, -1163461.3, -147731.0, 0.03855583, -0.34586063, -1038517.75, 98026.086, 0.0, 9.999368, 10.000046 
1.384996e+3, 1.9402455e+2, -999359.7, -984643.7, -186340.97, 0.0067586247, -0.28798407, -805515.5, 233015.88, 0.0, 10.000061, 10.000263 
1.3850217e+3, 2.0402429e+2, -1025378.44, -1201701.1, -95296.48, 0.081374586, -0.22718525, -983717.44, -43183.05, 0.0, 10.000306, 9.997982 
1.38505e+3, 2.1402235e+2, -991245.44, -1142745.8, -29013.59, 0.31364277, -0.21991405, -985879.2, -143319.13, 0.0, 9.999904, 9.997908 
1.3850757e+3, 2.2402067e+2, -821260.6, -881917.1, -72573.586, 0.37281325, -0.22076942, -772933.1, -28355.3, 0.0, 9.999844, 9.999058 
1.385098e+3, 2.3401947e+2, -627454.94, -709295.6, -137774.55, 0.18581575, -0.2787477, -524652.25, 121931.14, 0.0, 10.000379, 9.999311 
1.3851212e+3, 2.4401836e+2, -626130.6, -806232.25, -121974.83, 0.075199224, -0.24977148, -564566.75, -15973.46, 0.0, 10.000362, 9.997973 
1.385146e+3, 2.540174e+2, -631500.44, -751770.44, -81481.53, 0.0710977, -0.15257026, -590366.2, -139757.52, 0.0, 9.99963, 9.998026 
1.3851714e+3, 2.6401588e+2, -515060.7, -565819.56, -29523.588, 0.12000913, -0.13371293, -501507.38, -148879.78, 0.0000000049794013, 9.999413, 9.998738 
1.3851984e+3, 2.7401346e+2, -308883.63, -390080.44, -61662.086, 0.2572455, -0.27988198, -275654.9, -21003.766, 0.0000059839426, 10.00004, 9.99897 
1.3852236e+3, 2.8401294e+2, -172875.58, -184950.33, -111833.414, 0.2721014, -0.25342882, -66916.69, 89739.12, 0.00006977907, 9.999924, 9.99976 
1.3852462e+3, 2.9401502e+2, -213364.2, -114052.52, -124576.33, 0.075387165, -0.06045644, -29600.328, 29034.281, 0.0002993371, 9.998803, 10.000109 
1.3852711e+3, 3.0401373e+2, -322923.03, -371669.6, -5814.529, -0.04598634, -0.09737812, -322239.06, -322239.06, 0.00078111177, 9.998706, 9.998059 
1.3853037e+3, 3.140113e+2, 15240.093, -27074.363, -55151.664, 0.44012952, -0.1525686, 53153.453, 53153.453, 0.0014819879, 10.000213, 9.999703 
1.3948157e+3, 1.2400065e+2, -1446073.8, -1504958.3, -194781.16, 0.2882663, -0.19063593, -1278522.3, 446259.88, 0.008733579, 10.001487, 10.000729 
1.3948391e+3, 1.340021e+2, -1585113.1, -1591306.5, 59279.09, -0.0075471015, -0.052557256, -1528850.0, 97915.31, 0.005033633, 10.000157, 10.0001 
1.3948672e+3, 1.4400154e+2, -1626366.4, -1690146.9, 72914.516, 0.0913216, -0.064445615, -1578673.3, -49903.965, 0.002076125, 9.99976, 9.998936 
1.3948938e+3, 1.5399899e+2, -1334564.9, -1512441.4, 22180.047, -0.0048599127, -0.20864606, -1331840.9, 98953.01, 0.00048381835, 10.001158, 9.998804 
1.3949203e+3, 1.6399749e+2, -1166486.8, -1335004.6, -85255.88, -0.029906683, -0.24776773, -1130878.6, 201930.02, 0.000034571214, 10.001426, 9.999224 
1.394946e+3, 1.7399788e+2, -1269856.1, -1313314.5, -87912.195, -0.006527874, -0.15589423, -1201027.5, 33777.402, 0.00000005013657, 9.999961, 9.999404 
1.3949719e+3, 1.8399768e+2, -1248385.5, -1236920.8, -136976.53, 0.04539533, -0.11151781, -1105556.8, 31248.857, 0.0, 9.999367, 9.999541 
1.3949977e+3, 1.9399647e+2, -1041663.25, -1068129.5, -155458.88, 0.1616236, -0.20885885, -898875.3, 139938.77, 0.0, 10.000034, 9.999706 
1.3950232e+3, 2.0399597e+2, -924804.3, -981209.8, -113240.65, 0.20212676, -0.21247903, -836307.3, 104510.1, 0.0, 10.000256, 9.999518 
1.3950479e+3, 2.1399662e+2, -879624.1, -896083.9, -39628.152, 0.12404093, -0.11873678, -847380.3, -4568.541, 0.0, 9.999837, 9.999634 
1.395073e+3, 2.2399577e+2, -903038.75, -1040307.0, -63020.32, 0.09705313, -0.08195314, -878494.56, -133674.77, 0.0, 9.999787, 9.997998 
1.3950983e+3, 2.3399276e+2, -734416.1, -912599.1, -109652.91, 0.16529067, -0.19013794, -682224.06, -35376.18, 0.0, 10.000292, 9.997959 
1.3951229e+3, 2.4398993e+2, -567869.25, -666826.06, -150301.39, 0.19383629, -0.30492625, -459111.7, 89761.914, 0.0, 10.00028, 9.998971 
1.3951465e+3, 2.5398743e+2, -557111.06, -581702.7, -102478.734, 0.15917471, -0.4856262, -466193.1, -15297.809, 0.0, 9.999566, 9.999224 
1.3951708e+3, 2.6398665e+2, -559413.3, -654373.9, -16446.584, 0.12488743, -0.42745784, -556645.5, -203740.56, 0.0000000011462398, 9.999392, 9.998143 
1.395197e+3, 2.7398846e+2, -378784.78, -511656.4, -27854.62, 0.11188166, -0.07485274, -373181.75, -118285.83, 0.000005942459, 9.999934, 9.998189 
1.3952222e+3, 2.8398824e+2, -198715.31, -220032.17, -150871.02, 0.12970167, 0.03585941, -58126.715, 98773.81, 0.000067021225, 9.999841, 9.999559 
1.395246e+3, 2.9398483e+2, -229283.14, -147896.58, -156725.13, 0.1623001, -0.30417642, -26667.94, 32259.826, 0.0002811343, 9.998802, 9.99988 
1.3952705e+3, 3.0398315e+2, -316203.47, -360745.78, 37158.848, 0.009814685, -0.36979684, -295152.75, -295152.75, 0.00073367514, 9.998719, 9.998126 
1.3953005e+3, 3.1398574e+2, -6572.797, -6324.9004, 38327.773, 0.07014478, 0.06766433, 31879.125, 31879.125, 0.0013956741, 9.99993, 9.999985 
1.404817e+3, 1.23973794e+2, -1764740.4, -1664841.3, -209312.81, 0.35877392, -0.28457418, -1499600.6, 225441.44, 0.009133226, 9.999304, 10.000678 
1.4048404e+3, 1.3397592e+2, -1428102.6, -1524450.1, 12560.138, 0.0536903, -0.07272537, -1426492.3, 200527.97, 0.005275387, 10.001276, 10.000023 
1.404867e+3, 1.4397639e+2, -1378526.0, -1593929.6, 26695.178, 0.011933566, 0.032797813, -1375267.0, 153748.56, 0.0021822979, 10.001561, 9.998722 
1.4048946e+3, 1.5397322e+2, -1575071.4, -1655419.1, 61808.098, 0.039218765, -0.15169433, -1541528.4, -110480.484, 0.00051218417, 9.999619, 9.998563 
1.4049214e+3, 1.6397136e+2, -1509725.0, -1513147.9, 42093.492, 0.058322586, -0.20827046, -1469308.3, -136241.88, 0.000037386584, 9.999132, 9.999104 
1.4049467e+3, 1.7397164e+2, -1128156.8, -1255437.5, 24490.754, 0.020534186, -0.121009625, -1123607.0, 111455.36, 0.00000006103049, 10.0009775, 9.9993105 
1.4049722e+3, 1.8397102e+2, -971332.1, -1135880.8, -25085.824, 0.050144553, -0.10005216, -967592.75, 169473.45, 0.0, 10.001416, 9.999245 
1.4049979e+3, 1.939691e+2, -1092169.9, -1123728.1, -41409.945, 0.19162741, -0.23968592, -1063634.6, -24553.227, 0.0, 9.99983, 9.999418 
1.4050229e+3, 2.0396826e+2, -1049469.1, -1032358.75, 2741.4214, 0.2032911, -0.26583782, -1031930.25, -90842.9, 0.0, 9.999358, 9.999602 
1.4050472e+3, 2.1396917e+2, -753380.9, -818348.9, -50942.656, 0.017297776, -0.15832739, -725446.6, 117631.57, 0.0, 10.000636, 9.999781 
1.4050722e+3, 2.2396852e+2, -747037.8, -950938.3, -118015.17, -0.010966834, -0.116023846, -693034.75, 52049.543, 0.0, 10.000813, 9.998112 
1.4050984e+3, 2.3396553e+2, -853612.6, -950265.75, -75774.72, 0.20227845, -0.23460622, -812065.56, -164952.75, 0.0, 9.999404, 9.99812 
1.4051236e+3, 2.4396297e+2, -716856.06, -743715.2, -44263.707, 0.29346934, -0.33051488, -684029.5, -134892.7, 0.0, 9.999275, 9.99893 
1.405147e+3, 2.5396106e+2, -334825.34, -479660.75, -95604.52, 0.18684584, -0.44689727, -287307.44, 163846.25, 0.0, 10.001106, 9.999186 
1.4051712e+3, 2.639604e+2, -270829.53, -509499.0, -70442.71, 0.114364795, -0.37805998, -251589.53, 101572.77, 0.0000000047036606, 10.001352, 9.998191 
1.4051965e+3, 2.7396163e+2, -458711.78, -539398.56, -46462.21, 0.111395374, -0.08528607, -437522.03, -182365.1, 0.0000060153247, 9.999346, 9.998278 
1.4052217e+3, 2.8396088e+2, -345359.66, -348629.7, -82391.516, 0.13938156, -0.013322582, -264586.94, -107420.23, 0.00006434686, 9.999088, 9.999036 
1.4052463e+3, 2.93957e+2, 117061.516, -43319.363, -125574.555, 0.17951892, -0.34238616, 185865.95, 245065.92, 0.000270618, 10.001453, 9.99932 
1.4052707e+3, 3.0395564e+2, 87590.586, -77812.37, 13348.554, 0.04642629, -0.37786075, 88660.93, 88660.93, 0.000709568, 10.001102, 9.998934 
1.4052993e+3, 3.1395778e+2, -378599.53, -65541.87, 55304.29, 0.14204052, -0.083876416, -56059.13, -56059.13, 0.0013524415, 9.996859, 10.001057 
1.4148155e+3, 1.23949334e+2, -1866551.8, -1844898.0, -171688.31, 0.26104313, -0.16520347, -1683695.5, 41581.88, 0.009556688, 9.999186, 9.999487 
1.4148425e+3, 1.3394806e+2, -1496243.6, -1654915.0, 93727.234, 0.13451794, -0.20129995, -1452783.0, 174510.16, 0.0055341963, 10.001241, 9.999136 
1.4148682e+3, 1.439488e+2, -1306513.4, -1458264.3, -43261.43, -0.042947166, -0.06185503, -1295046.9, 234240.17, 0.0022969088, 10.001607, 9.99964 
1.4148945e+3, 1.5394849e+2, -1496554.1, -1492232.4, -8756.42, 0.071212724, -0.07203681, -1485374.1, -54085.645, 0.0005425403, 9.99961, 9.99969 
1.414921e+3, 1.639476e+2, -1512714.1, -1515183.3, 90425.71, 0.10146674, -0.0910812, -1423514.5, -90219.84, 0.000040406845, 9.999115, 9.999099 
1.4149478e+3, 1.7394565e+2, -1141455.9, -1274408.1, 101881.1, 0.021688785, -0.21422428, -1086281.5, 149028.8, 0.00000007226826, 10.000942, 9.999198 
1.4149733e+3, 1.8394384e+2, -976842.8, -1149094.0, -78733.35, -0.003349316, -0.3051156, -946278.44, 191045.8, 0.0, 10.001421, 9.999154 
1.4149964e+3, 1.9394241e+2, -1104244.9, -1143469.5, -96800.47, 0.045191865, -0.38321894, -1025089.9, 14243.58, 0.0, 9.9998045, 9.999297 
1.4150208e+3, 2.0394117e+2, -1143625.5, -1221831.0, 30359.904, 0.03472111, -0.38488594, -1133223.3, -191878.64, 0.0, 9.999329, 9.998318 
1.415047e+3, 2.1394013e+2, -866582.2, -1033663.2, 2992.899, -0.050162036, -0.33172387, -866528.6, -23169.896, 0.0, 10.000545, 9.998351 
1.4150731e+3, 2.2393897e+2, -674545.4, -775830.9, -167602.86, -0.002798908, -0.3183536, -550101.25, 195269.75, 0.0, 10.000708, 9.999364 
1.4150985e+3, 2.3393776e+2, -760399.2, -737572.3, -122771.15, 0.24686638, -0.40831327, -625685.2, 21693.752, 0.0, 9.999324, 9.9996195 
1.4151232e+3, 2.4393734e+2, -786478.5, -884016.4, 6326.4556, 0.31412295, -0.32721797, -786069.9, -236685.67, 0.0, 9.999247, 9.997982 
1.4151475e+3, 2.5393814e+2, -433095.47, -664833.56, -18263.975, 0.10845091, -0.056079045, -431664.88, 19720.605, 0.0, 10.001017, 9.99796 
1.4151719e+3, 2.6393703e+2, -244308.23, -430112.25, -134637.2, 0.038065318, 0.009793084, -173631.64, 179768.39, 0.000000079284355, 10.001247, 9.998785 
1.4151968e+3, 2.739331e+2, -413996.88, -435277.56, -111874.56, 0.19188723, -0.29344326, -312257.8, -56823.816, 0.0000071917057, 9.999298, 9.999016 
1.415222e+3, 2.839308e+2, -396063.72, -455701.78, -11678.835, 0.23313962, -0.37867194, -393858.22, -236403.58, 0.00006590789, 9.999083, 9.998308 
1.4152469e+3, 2.9393113e+2, 34692.65, -189296.95, -21078.338, 0.08319118, -0.20038804, 36658.945, 96113.445, 0.00027570056, 10.001325, 9.99839 
1.4152713e+3, 3.0393094e+2, 163772.5, 121647.6, -122309.28, 0.004537004, -0.13300923, 266819.63, 266819.63, 0.00071893854, 10.000945, 10.000366 
1.4153e+3, 3.1392774e+2, -284570.4, 142674.58, -80498.62, 0.5014822, -0.5468851, 157338.3, 157338.3, 0.0013634532, 9.99682, 10.002496 
1.4248146e+3, 1.23923086e+2, -1570091.3, -1792725.0, -130150.01, 0.1455516, -0.20033783, -1510146.8, 215381.5, 0.010011913, 10.001624, 9.998674 
1.4248444e+3, 1.3392062e+2, -1596249.8, -1748943.4, 128938.664, 0.22388548, -0.313188, -1522749.9, 104807.58, 0.0058154534, 10.000746, 9.998736 
1.4248691e+3, 1.4392112e+2, -1461476.0, -1524080.8, -32720.06, -0.054904506, -0.1773885, -1447496.6, 82058.37, 0.002423067, 10.000526, 9.9997 
1.4248951e+3, 1.5392177e+2, -1192424.1, -1332583.9, -94216.46, 0.07363639, -0.10539109, -1145082.0, 286466.0, 0.00057589856, 10.00165, 9.999801 
1.4249215e+3, 1.6392127e+2, -1140708.0, -1328955.6, -3102.9106, 0.10657129, -0.09440111, -1140656.9, 192894.02, 0.00004378684, 10.001634, 9.999161 
1.4249484e+3, 1.7391904e+2, -1276427.4, -1329862.1, 10769.848, 0.030625854, -0.25160152, -1274338.4, -38769.41, 0.00000008454083, 9.999977, 9.999278 
1.4249738e+3, 1.8391716e+2, -1294981.0, -1333764.6, -167248.64, 0.0074431812, -0.34042457, -1146003.8, -8419.7, 0.0, 9.999376, 9.998868 
1.4249964e+3, 1.93916e+2, -1021605.6, -1137939.5, -214609.31, 0.045447584, -0.361892, -857420.25, 182172.25, 0.0, 10.000523, 9.998985 
1.4250207e+3, 2.0391455e+2, -965914.8, -1152568.8, -38996.277, 0.037936736, -0.35860714, -958095.2, -16489.031, 0.0, 10.000625, 9.998167 
1.425047e+3, 2.139126e+2, -1072216.5, -1142199.1, 16124.946, -0.029959591, -0.38375688, -1068679.9, -225052.13, 0.0, 9.999176, 9.9982605 
1.425073e+3, 2.2391129e+2, -909195.4, -857860.56, -110889.805, 0.0113260625, -0.39462423, -769706.4, -24065.621, 0.0, 9.998955, 9.999647 
1.4250979e+3, 2.3391105e+2, -542653.9, -594216.06, -162976.89, 0.21542911, -0.42212927, -403431.53, 244207.75, 0.0, 10.000642, 9.999973 
1.4251228e+3, 2.4391122e+2, -548339.6, -778579.2, -43766.15, 0.2740155, -0.29722565, -540300.8, 9338.847, 0.0, 10.000943, 9.997886 
1.4251475e+3, 2.53912e+2, -690451.06, -800166.6, -9040.229, 0.10691889, -0.012238389, -689711.2, -238068.3, 0.00000000006254562, 9.999313, 9.997847 
1.425172e+3, 2.6391083e+2, -568217.4, -532851.44, -87058.05, 0.06490008, 0.032169666, -461698.66, -108041.15, 0.00000036239143, 9.998795, 9.999262 
1.4251968e+3, 2.739068e+2, -272826.78, -299094.22, -90235.305, 0.22943753, -0.33887848, -194774.39, 60913.973, 0.000010031926, 9.999976, 9.99962 
1.4252219e+3, 2.8390464e+2, -235081.73, -356781.8, 71369.09, 0.27530003, -0.45843515, -202143.31, -44437.066, 0.000074052536, 10.000104, 9.998495 
1.425247e+3, 2.9390538e+2, -328999.7, -344399.03, 115424.37, 0.11562221, -0.24859436, -221018.45, -161315.6, 0.00029689216, 9.998757, 9.998554 
1.4252713e+3, 3.0390576e+2, -183445.13, -114600.555, -35615.938, 0.019657757, -0.1082825, -99491.14, -99491.14, 0.00075968413, 9.998836, 9.9997635 
1.4252985e+3, 3.1390202e+2, 248727.34, 280938.53, -170952.58, 0.46247068, -0.5111527, 436542.5, 436542.5, 0.0014267517, 10.000974, 10.001455 
1.4348139e+3, 1.2389494e+2, -1596806.8, -1847339.3, -110633.42, -0.114050694, -0.4089959, -1554946.1, 170849.33, 0.010506618, 10.001615, 9.9983015 
1.4348456e+3, 1.3389392e+2, -1593668.5, -1730292.8, 95487.36, 0.2651886, -0.39340776, -1544573.8, 83236.18, 0.006123269, 10.000695, 9.998881 
1.4348695e+3, 1.438937e+2, -1517464.3, -1648687.8, -5424.8594, -0.076450825, -0.2992479, -1517240.4, 12575.757, 0.002563054, 10.000549, 9.998841 
1.4348961e+3, 1.5389301e+2, -1257436.5, -1467759.9, -44622.43, -0.00664462, -0.26473713, -1248361.0, 183465.89, 0.0006133788, 10.001648, 9.998878 
1.4349222e+3, 1.6389234e+2, -1129034.9, -1310960.1, -64020.7, 0.009791632, -0.22452056, -1108764.1, 225070.77, 0.000047750204, 10.001654, 9.999279 
1.434948e+3, 1.7389183e+2, -1262013.8, -1299820.3, -49007.777, -0.0067714434, -0.23417398, -1228389.9, 7448.296, 0.00000010052836, 9.99997, 9.999491 
1.4349735e+3, 1.8389104e+2, -1326405.4, -1397261.1, -143081.78, 0.03425597, -0.20395172, -1214430.6, -76585.266, 0.0, 9.999367, 9.998439 
1.434998e+3, 1.9388989e+2, -1061889.4, -1215303.8, -165572.72, 0.1432364, -0.1739198, -956118.25, 83739.92, 0.0, 10.000492, 9.998473 
1.4350227e+3, 2.0388848e+2, -899812.25, -1008976.75, -91105.375, 0.15151398, -0.18499772, -848189.94, 93681.51, 0.0, 10.000594, 9.999167 
1.435047e+3, 2.1388663e+2, -1002573.2, -984045.2, -33069.855, 0.017435735, -0.3151652, -958966.25, -115081.016, 0.0, 9.999112, 9.999379 
1.4350717e+3, 2.2388546e+2, -961890.1, -948648.75, -65368.727, -0.027421998, -0.34420595, -889566.25, -143672.44, 0.0, 9.998877, 9.999062 
1.4350972e+3, 2.3388547e+2, -612268.8, -715822.7, -92035.79, 0.06581068, -0.2702605, -558445.4, 89447.875, 0.0, 10.000544, 9.9991865 
1.4351223e+3, 2.438847e+2, -511146.97, -684134.75, -99429.48, 0.12303402, -0.22837505, -465855.38, 84046.91, 0.0, 10.000861, 9.998576 
1.435147e+3, 2.5388283e+2, -643583.25, -688206.06, -63465.016, 0.12546766, -0.29283503, -598622.06, -146696.81, 0.000000006122379, 9.999248, 9.99865 
1.4351717e+3, 2.638819e+2, -540244.06, -465652.06, -57407.906, 0.1388745, -0.28641087, -434488.88, -80554.27, 0.0000008787704, 9.998749, 9.999748 
1.4351963e+3, 2.7388254e+2, -254210.11, -240210.55, -35835.95, 0.17923868, -0.23456103, -210697.14, 45225.39, 0.000014099222, 9.999881, 10.000077 
1.4352214e+3, 2.8388196e+2, -179763.05, -221950.7, 23530.516, 0.20985825, -0.26450256, -169255.69, -11331.097, 0.0000867421, 10.000015, 9.999463 
1.4352468e+3, 2.938795e+2, -266410.13, -212931.44, 71330.305, 0.20638499, -0.47230855, -163493.33, -103545.7, 0.00032959942, 9.998742, 9.999469 
1.4352705e+3, 3.0387986e+2, -343433.13, -437771.75, 26739.969, 0.030939642, -0.29010862, -336380.97, -336380.97, 0.00082783273, 9.998809, 9.997551 
1.4352949e+3, 3.1388015e+2, -13681.78, -206495.55, -55926.0, -0.017371673, -0.02451538, 1365.3828, 1365.3828, 0.0015416822, 10.000727, 9.998223 
1.4448145e+3, 1.2386846e+2, -1514616.6, -1781568.5, -89738.87, -0.22056697, -0.41202486, -1487254.5, 238801.06, 0.011047917, 10.002068, 9.998536 
1.4448461e+3, 1.3386819e+2, -1672421.8, -1748557.3, 14862.843, 0.28641313, -0.34647024, -1669623.1, -41563.656, 0.00646129, 10.000053, 9.999065 
1.4448696e+3, 1.43867e+2, -1759910.0, -1788623.1, 33618.88, -0.042979673, -0.34826857, -1737710.6, -207636.7, 0.0027186894, 9.999, 9.998616 
1.444897e+3, 1.5386562e+2, -1573101.1, -1647769.9, 37820.727, 0.03911968, -0.35600087, -1557291.8, -125198.81, 0.0006559602, 9.999611, 9.998617 
1.4449233e+3, 1.6386501e+2, -1373310.0, -1410141.0, 2670.7979, 0.042162027, -0.3014265, -1373117.4, -39015.508, 0.000052490832, 9.999918, 9.999425 
1.4449479e+3, 1.7386582e+2, -1240672.0, -1265142.8, -4446.6514, -0.021223368, -0.19908217, -1239889.0, -3795.35, 0.00000012546444, 10.000021, 9.9997 
1.4449729e+3, 1.8386558e+2, -1201713.4, -1353808.1, -19405.916, 0.0017065399, -0.12208061, -1199276.5, -61179.55, 0.0, 10.000285, 9.998298 
1.4449984e+3, 1.9386378e+2, -1024398.2, -1216219.4, -22384.002, 0.12387225, -0.14037015, -1021820.8, 18296.105, 0.0, 10.000827, 9.998305 
1.4450231e+3, 2.038622e+2, -834683.0, -963332.06, -14362.522, 0.14688398, -0.16359803, -833099.06, 109032.92, 0.0, 10.000989, 9.999287 
1.4450468e+3, 2.1386105e+2, -769403.75, -849542.1, -49407.42, 0.033062413, -0.24205509, -745859.8, 98278.83, 0.0, 10.00063, 9.999566 
1.4450714e+3, 2.2386006e+2, -765620.56, -876841.25, -39393.113, -0.0068504866, -0.25544786, -753081.6, -6936.0547, 0.0, 10.0003195, 9.998861 
1.4450975e+3, 2.3385942e+2, -692736.44, -778949.1, -31575.014, 0.06421534, -0.22317857, -682409.3, -34257.49, 0.0, 10.000094, 9.998968 
1.4451225e+3, 2.4385828e+2, -627793.75, -660292.2, -63737.676, 0.12423117, -0.23797368, -578266.6, -28103.926, 0.0, 9.999718, 9.999287 
1.4451465e+3, 2.538564e+2, -591441.4, -572251.94, -46686.99, 0.1571893, -0.3838658, -534183.94, -82003.58, 0.000000012932129, 9.999202, 9.999473 
1.4451705e+3, 2.6385576e+2, -545158.44, -472840.8, 5644.752, 0.15250325, -0.3944803, -472402.88, -118217.62, 0.0000016431604, 9.99873, 9.999706 
1.4451946e+3, 2.7385718e+2, -470259.13, -358632.9, -24251.607, 0.10167209, -0.25441247, -353591.72, -97422.69, 0.000019264668, 9.998458, 9.999946 
1.44522e+3, 2.838569e+2, -375578.97, -336093.8, -26992.135, 0.13926636, -0.23897271, -322394.72, -164224.52, 0.000103277154, 9.998756, 9.999283 
1.4452471e+3, 2.938541e+2, -110183.55, -150454.95, -73301.625, 0.3004228, -0.4695806, -54302.316, 5894.732, 0.00037424423, 9.999876, 9.999342 
1.445271e+3, 3.038542e+2, -132148.84, -285235.28, -50042.805, 0.14088109, -0.32247487, -117241.82, -117241.82, 0.0009255103, 10.000032, 9.998024 
1.4452928e+3, 3.1385523e+2, -299888.8, -335110.94, 66211.85, -0.17648058, -0.03425994, -248985.95, -248985.95, 0.0017119541, 9.998725, 9.998307 
1.4548168e+3, 1.23844035e+2, -1455410.0, -1659244.9, -88990.82, -0.23754257, -0.19636637, -1422025.9, 304279.63, 0.011640448, 10.002077, 9.999373 
1.4548458e+3, 1.3384368e+2, -1663270.8, -1712846.1, -57847.48, 0.24324735, -0.16578765, -1625123.9, 3180.1199, 0.0068325973, 9.999989, 9.999338 
1.4548689e+3, 1.4384128e+2, -1741920.3, -1744475.3, 39504.15, -0.020844305, -0.31763124, -1703672.9, -173347.0, 0.0028915813, 9.998964, 9.998938 
1.454898e+3, 1.5383987e+2, -1555537.8, -1599713.0, 66220.17, 0.1493347, -0.3671284, -1507818.8, -75475.04, 0.00070428615, 9.999563, 9.998967 
1.4549245e+3, 1.6383953e+2, -1356894.6, -1382421.8, 498.95987, 0.1494056, -0.31332168, -1356884.9, -22535.42, 0.000058062662, 9.999932, 9.999615 
1.4549476e+3, 1.738411e+2, -1228720.9, -1240282.1, 7095.2813, -0.057117313, -0.15158486, -1225349.5, 10985.397, 0.00000016567238, 10.000013, 9.999879 
1.4549717e+3, 1.8384083e+2, -1191749.6, -1331315.1, -7517.6494, -0.14488238, -0.09562591, -1191345.9, -53007.81, 0.0, 10.0002775, 9.998455 
1.4549975e+3, 1.938377e+2, -1022793.94, -1203338.9, 3108.801, -0.0687514, -0.25722662, -1022740.44, 17627.732, 0.0, 10.000787, 9.998413 
1.4550225e+3, 2.0383577e+2, -894210.6, -1074686.9, -31076.809, -0.028014882, -0.28860867, -889009.3, 53378.195, 0.0, 10.000935, 9.998549 
1.4550468e+3, 2.1383578e+2, -837190.9, -974105.06, -57644.496, -0.03212118, -0.1697258, -816153.5, 28235.213, 0.0, 10.000558, 9.998748 
1.455072e+3, 2.2383496e+2, -760550.8, -847055.4, -54448.855, 0.018198801, -0.13091092, -734265.8, 12130.848, 0.0, 10.000237, 9.9991045 
1.4550984e+3, 2.3383296e+2, -686607.1, -739131.4, -31675.709, 0.15127407, -0.2689417, -671722.56, -23308.133, 0.0, 9.999984, 9.999294 
1.4551233e+3, 2.4383192e+2, -583280.2, -556607.44, -86195.05, 0.21461451, -0.32380244, -482723.16, 67698.445, 0.0, 9.999659, 10.000031 
1.4551458e+3, 2.5383252e+2, -542472.7, -456763.0, -59489.37, 0.15953714, -0.30401942, -426299.88, 26111.14, 0.000000017460069, 9.999136, 10.0003 
1.4551684e+3, 2.6383224e+2, -592144.4, -554754.6, -10228.79, 0.06303143, -0.3008391, -552139.25, -197727.98, 0.000002726617, 9.998662, 9.999177 
1.4551915e+3, 2.7383068e+2, -527996.3, -469181.47, -26766.16, -0.06190197, -0.38681743, -458824.28, -202396.34, 0.000025068905, 9.998419, 9.999205 
1.4552176e+3, 2.838295e+2, -457431.6, -500315.47, 6985.3706, 0.0075225392, -0.36986274, -456322.44, -297880.34, 0.00012317942, 9.998729, 9.99817 
1.4552476e+3, 2.9382893e+2, -204079.86, -325781.1, -17796.896, 0.35535628, -0.25926065, -201530.73, -141079.42, 0.0004300027, 9.999778, 9.998193 
1.4552724e+3, 3.0382875e+2, 44089.332, 120590.73, -89038.875, 0.29510915, -0.21111473, 179247.39, 179247.39, 0.0010507762, 9.999872, 10.000882 
1.4552921e+3, 3.1382775e+2, -121242.57, 64904.195, 31730.723, -0.14799435, -0.4522173, 70164.4, 70164.4, 0.0019355183, 9.998606, 10.001109 
1.4648183e+3, 1.2381842e+2, -1807465.8, -1735283.9, 15094.937, -0.14652458, -0.12908347, -1732254.3, -5693.394, 0.012283002, 9.999217, 10.000231 
1.4648463e+3, 1.3381767e+2, -1411207.6, -1557396.8, -38669.984, 0.22521754, -0.16845942, -1401608.9, 226950.81, 0.00723705, 10.001586, 9.99964 
1.4648697e+3, 1.438156e+2, -1269364.3, -1487753.8, 52770.02, 0.008377902, -0.31472477, -1257281.8, 273294.63, 0.0030819494, 10.002088, 9.999198 
1.4648968e+3, 1.5381499e+2, -1476681.9, -1535379.9, 51288.97, 0.074708946, -0.30992195, -1446938.4, -14352.662, 0.0007585455, 9.999977, 9.999216 
1.464923e+3, 1.638148e+2, -1503976.6, -1459388.0, 29293.69, 0.08474784, -0.2549968, -1444869.9, -110279.555, 0.00006440502, 9.998958, 9.999553 
1.4649485e+3, 1.7381538e+2, -1238758.0, -1257741.5, 5416.7837, 0.04066117, -0.1811475, -1237321.1, -734.9634, 0.00000022299002, 10.000005, 9.99976 
1.4649735e+3, 1.8381478e+2, -1130809.6, -1254728.6, -17186.305, -0.014185986, -0.16764747, -1128470.3, 10121.902, 0.0, 10.00051, 9.99886 
1.4649975e+3, 1.9381246e+2, -1071741.9, -1170175.8, 3731.2332, -0.10651538, -0.2981777, -1071600.8, -30988.217, 0.0, 10.000217, 9.998909 
1.465022e+3, 2.0381084e+2, -1063750.3, -1190226.6, 248.32584, -0.11928105, -0.31090364, -1063749.8, -121121.01, 0.0, 9.999911, 9.998253 
1.4650473e+3, 2.1381049e+2, -993480.5, -1092940.9, -6740.3525, -0.003529759, -0.1894109, -993025.8, -148388.97, 0.0, 9.999668, 9.998365 
1.4650726e+3, 2.2380969e+2, -871867.1, -880425.44, 22948.01, 0.09877089, -0.13625549, -852802.75, -106155.99, 0.0, 9.999392, 9.999283 
1.4650981e+3, 2.3380823e+2, -790716.44, -759366.2, 25435.072, 0.1759137, -0.24603792, -745164.06, -96505.016, 0.0, 9.999137, 9.999563 
1.4651224e+3, 2.4380748e+2, -696442.94, -605000.9, -44207.375, 0.2051643, -0.28908706, -587123.94, -36461.176, 0.0, 9.998866, 10.000077 
1.4651446e+3, 2.53808e+2, -601315.56, -476912.9, -88781.54, 0.15137264, -0.28045303, -430711.47, 21940.111, 0.000000044837254, 9.998711, 10.000357 
1.4651673e+3, 2.6380748e+2, -557113.75, -579931.06, -29551.732, 0.06810314, -0.2880314, -536844.94, -182190.7, 0.0000038968087, 9.999088, 9.998801 
1.4651911e+3, 2.7380547e+2, -288419.7, -401031.16, -31153.736, -0.042445205, -0.37217608, -280375.66, -23698.543, 0.000030358568, 10.000264, 9.998789 
1.4652169e+3, 2.8380445e+2, -215530.39, -346659.97, 42165.523, -0.0007623129, -0.3311402, -203142.16, -44451.34, 0.00014195647, 10.00023, 9.998505 
1.4652456e+3, 2.9380497e+2, -372100.34, -354807.84, 104644.24, 0.2564525, -0.15660909, -258453.27, -197764.16, 0.00048668167, 9.998416, 9.998644 
1.4652708e+3, 3.0380428e+2, -246918.22, -12602.748, 35444.223, 0.24429972, -0.18299872, -7358.572, -7358.572, 0.0011867037, 9.997839, 10.0009365 
1.4652927e+3, 3.1380287e+2, -78607.6, 69928.875, -88908.1, 0.05292393, -0.4740609, 111507.18, 111507.18, 0.0021867163, 9.998953, 10.000972 
1.4748189e+3, 1.237917e+2, -1751744.6, -1602910.5, 123148.195, -0.041470796, -0.21202269, -1533440.9, 193379.39, 0.012969953, 9.999148, 10.001181 
1.4748473e+3, 1.3379036e+2, -1391400.5, -1512529.8, 57262.387, 0.15779357, -0.34954563, -1368616.1, 260208.64, 0.0076708426, 10.001574, 9.999954 
1.4748716e+3, 1.437901e+2, -1243263.9, -1451432.5, -17932.615, -0.033880554, -0.34367996, -1241730.4, 289093.6, 0.0032881629, 10.002157, 9.999418 
1.4748938e+3, 1.5379123e+2, -1470889.4, -1514138.9, -24800.96, -0.23872313, -0.17740351, -1459609.4, -26792.557, 0.00081847684, 9.999942, 9.999378 
1.4749192e+3, 1.6379102e+2, -1530715.9, -1521006.6, 46131.938, -0.2173547, -0.11379275, -1479474.6, -144652.36, 0.000071419374, 9.998972, 9.999126 
1.4749503e+3, 1.7378873e+2, -1273644.1, -1327982.0, 50471.523, 0.2148489, -0.28148627, -1243493.5, -6646.992, 0.0000002932695, 9.999991, 9.999284 
1.4749777e+3, 1.8378747e+2, -1081409.8, -1156936.9, -29185.305, 0.34091225, -0.33667064, -1071446.3, 67412.52, 0.0, 10.000523, 9.99953 
1.4749986e+3, 1.9378796e+2, -1015964.4, -1051389.4, -1962.9609, -0.04086514, -0.2667972, -1015855.94, 24994.504, 0.0, 10.0002, 9.999736 
1.4750214e+3, 2.0378742e+2, -1056159.0, -1167944.6, -18020.926, -0.18535723, -0.22836111, -1053325.8, -110469.836, 0.0, 9.999882, 9.99842 
1.4750476e+3, 2.1378526e+2, -1003698.06, -1094387.1, -11261.113, 0.062469363, -0.29336908, -1002320.6, -157438.11, 0.0, 9.999585, 9.998395 
1.475073e+3, 2.2378424e+2, -876349.0, -872878.56, 7632.1704, 0.18458173, -0.2650628, -866786.8, -119891.12, 0.0, 9.999312, 9.999375 
1.4750965e+3, 2.3378518e+2, -790605.2, -742835.2, 23029.521, 0.09383093, -0.14878505, -733541.06, -84655.02, 0.0, 9.999064, 9.999714 
1.4751199e+3, 2.4378495e+2, -743111.4, -695965.25, -56290.99, 0.047550075, -0.12391268, -658510.75, -107624.56, 0.0, 9.998833, 9.999473 
1.4751427e+3, 2.5378284e+2, -659273.5, -590479.9, -86854.07, 0.08443512, -0.3041607, -531459.5, -78557.695, 0.000000082863835, 9.998676, 9.9995985 
1.4751667e+3, 2.6378143e+2, -578287.3, -613068.06, 6647.098, 0.10296874, -0.34677717, -577060.25, -222146.42, 0.0000048986644, 9.999043, 9.998591 
1.4751928e+3, 2.737814e+2, -312845.72, -426725.1, 25070.209, 0.097657114, -0.22756134, -307570.9, -50652.74, 0.00003468843, 10.000156, 9.998662 
1.4752178e+3, 2.8378153e+2, -125280.14, -132964.23, -17000.795, 0.058210604, -0.13016869, -111692.664, 47225.98, 0.00015714212, 10.000111, 10.000031 
1.475241e+3, 2.9378182e+2, -254507.02, -106598.734, 43099.688, -0.04339878, -0.15133321, -94956.16, -34042.297, 0.0005383698, 9.998391, 10.000362 
1.4752656e+3, 3.0378047e+2, -419231.16, -356866.78, 63799.04, -0.054095414, -0.23776986, -317037.38, -317037.38, 0.0013175347, 9.997795, 9.998585 
1.4752945e+3, 3.137801e+2, -295303.75, -327076.97, -28930.182, 0.30800146, -0.14159393, -278185.2, -278185.2, 0.0024270895, 9.998743, 9.998336 
1.484819e+3, 1.237655e+2, -1600907.8, -1526028.5, 200979.53, 0.038751595, -0.28299877, -1359031.1, 368042.13, 0.013700781, 10.000163, 10.00124 
1.4848466e+3, 1.3376398e+2, -1675309.8, -1619701.6, 106931.77, 0.040488347, -0.4615104, -1537018.3, 92062.43, 0.00813248, 9.999473, 10.0002365 
1.4848723e+3, 1.4376499e+2, -1658576.0, -1629093.6, -7874.655, -0.029643545, -0.35110444, -1627122.1, -96054.15, 0.0035089266, 9.99922, 9.999605 
1.4848943e+3, 1.5376581e+2, -1407007.6, -1458914.0, -33757.844, -0.19730322, -0.23835854, -1390379.6, 42683.617, 0.0008836724, 10.000282, 9.999587 
1.4849193e+3, 1.6376543e+2, -1324556.9, -1457233.6, 80382.76, -0.17195505, -0.188023, -1286673.5, 48396.95, 0.00007901186, 10.000564, 9.998789 
1.4849499e+3, 1.7376311e+2, -1342287.4, -1405198.3, 78902.125, 0.18615659, -0.31697345, -1288801.8, -51704.965, 0.00000037325287, 9.9997225, 9.99888 
1.484977e+3, 1.8376201e+2, -1248149.3, -1200448.5, -1925.2909, 0.30548838, -0.34742793, -1200370.9, -61262.266, 0.0, 9.999222, 9.999858 
1.4849989e+3, 1.9376306e+2, -1088979.8, -1036326.0, -16710.145, 0.016082868, -0.2657704, -1031470.56, 9624.739, 0.0, 9.999485, 10.000183 
1.4850222e+3, 2.0376311e+2, -1026155.4, -1087664.6, -21357.432, -0.09612652, -0.21794398, -1019466.9, -76372.125, 0.0, 9.999808, 9.999002 
1.4850476e+3, 2.1376164e+2, -868145.25, -958711.6, 13001.28, 0.08165985, -0.27614823, -866315.8, -21202.537, 0.0, 10.000213, 9.99902 
1.4850724e+3, 2.2376095e+2, -747443.56, -821958.9, 50524.086, 0.16311182, -0.24805313, -721925.3, 25197.516, 0.0, 10.000248, 9.9992695 
1.4850958e+3, 2.3376164e+2, -697205.5, -720219.25, 24892.744, 0.07241554, -0.13540709, -681288.7, -32172.658, 0.0, 9.999803, 9.999509 
1.485119e+3, 2.4376105e+2, -615960.94, -697376.7, -29756.67, 0.03640316, -0.10949395, -606244.7, -55123.77, 0.0, 9.999971, 9.998919 
1.4851426e+3, 2.5375846e+2, -343587.3, -503467.47, -59197.992, 0.08905287, -0.27794796, -324054.7, 129088.82, 0.00000011463164, 10.00112, 9.9990225 
1.4851671e+3, 2.637568e+2, -261894.75, -406751.94, 40812.535, 0.13565582, -0.3376943, -251187.53, 103970.66, 0.000005857849, 10.000987, 9.999072 
1.4851929e+3, 2.7375692e+2, -448391.75, -419331.47, 92127.1, 0.17807014, -0.2640673, -340595.72, -83438.695, 0.000039061, 9.998922, 9.999303 
1.4852175e+3, 2.837573e+2, -422229.47, -291313.6, 51202.45, 0.12527916, -0.17031811, -273666.6, -114512.484, 0.00017263576, 9.998154, 9.999879 
1.4852396e+3, 2.937579e+2, -120309.36, -70103.74, -41488.938, -0.09171813, -0.13872737, -46714.457, 14436.3, 0.000590196, 9.999442, 10.000105 
1.4852636e+3, 3.0375642e+2, -138701.56, -225959.1, -18922.852, -0.1389914, -0.21632914, -134774.64, -134774.64, 0.0014390951, 9.999712, 9.998587 
1.4852929e+3, 3.1375724e+2, -335172.1, -296351.4, 63863.434, 0.31982085, -0.0010771439, -249013.72, -249013.72, 0.0026355411, 9.99824, 9.998806 
1.494819e+3, 1.2374028e+2, -1650143.9, -1635668.3, 124857.35, -0.027089216, -0.30910063, -1517839.1, 209475.69, 0.014485426, 10.000206, 10.00045 
1.4948438e+3, 1.3373892e+2, -1676307.1, -1599638.6, 81351.11, -0.18294476, -0.48490906, -1548042.3, 81281.28, 0.008627366, 9.999388, 10.000409 
1.4948715e+3, 1.4374048e+2, -1651395.5, -1612441.4, 12813.964, -0.036380917, -0.3327632, -1608604.3, -77297.85, 0.0037456865, 9.999194, 9.99974 
1.494898e+3, 1.5373887e+2, -1394465.3, -1429650.5, 15464.031, 0.14289229, -0.48552337, -1388634.9, 44688.492, 0.0009542572, 10.000264, 9.999801 
1.4949235e+3, 1.6373813e+2, -1334553.3, -1492323.8, 48429.918, 0.16341415, -0.472311, -1320873.1, 14460.774, 0.00008722728, 10.000619, 9.998524 
1.494947e+3, 1.7373857e+2, -1372916.1, -1462320.0, 49936.234, -0.09087395, -0.2870098, -1350596.5, -113260.22, 0.0000004647829, 9.999697, 9.998502 
1.4949715e+3, 1.8373853e+2, -1247595.5, -1203192.8, -5081.588, -0.18306607, -0.18996102, -1202618.6, -63278.098, 0.0, 9.99923, 9.999838 
1.4949983e+3, 1.9373785e+2, -1090471.1, -1034564.5, -1896.2855, 0.00064992724, -0.28494257, -1034500.25, 6845.964, 0.0, 9.999459, 10.000209 
1.4950238e+3, 2.0373799e+2, -959952.8, -941688.06, -13375.709, 0.08907752, -0.27328235, -934624.44, 8720.14, 0.0, 9.999766, 10.000028 
1.4950472e+3, 2.1373957e+2, -797301.06, -793519.56, 33659.266, 0.011216055, -0.14286041, -761698.0, 83631.57, 0.0, 10.000135, 10.000192 
1.495071e+3, 2.2373971e+2, -778611.3, -875704.94, 30026.688, -0.014374666, -0.0833148, -770075.75, -22747.225, 0.0, 10.000191, 9.998933 
1.4950953e+3, 2.3373759e+2, -747123.75, -808925.4, 13060.211, 0.054083534, -0.1983952, -744477.1, -95127.84, 0.0, 9.999735, 9.998936 
1.4951198e+3, 2.4373582e+2, -660320.3, -773915.25, 2116.202, 0.10404591, -0.23583312, -660280.9, -108913.98, 0.0, 9.999902, 9.998426 
1.495144e+3, 2.537347e+2, -392485.44, -581270.3, -6632.874, 0.112517156, -0.2129675, -392252.66, 61125.91, 0.00000015644366, 10.001015, 9.99854 
1.495168e+3, 2.6373336e+2, -201556.33, -256239.78, -27312.82, 0.1219826, -0.25805268, -190251.45, 165137.36, 0.000006865855, 10.000876, 10.000159 
1.4951918e+3, 2.7373204e+2, -363237.25, -235605.72, 19555.9, 0.1506734, -0.45901135, -232676.55, 24717.639, 0.000043953176, 9.998891, 10.000582 
1.4952159e+3, 2.8373173e+2, -544413.2, -541964.06, 79496.15, 0.13613205, -0.4292241, -463683.06, -304285.4, 0.00018936973, 9.998137, 9.998166 
1.4952402e+3, 2.9373288e+2, -283219.97, -389435.7, 20961.1, 0.032652397, -0.13281034, -279233.03, -217832.11, 0.0006395796, 9.9993515, 9.997959 
1.4952639e+3, 3.0373198e+2, -20496.838, 64639.098, -62491.76, -0.08211885, -0.12369748, 97683.64, 97683.64, 0.0015392303, 9.99954, 10.000652 
1.4952883e+3, 3.137342e+2, -123581.13, 164892.77, 22286.598, 0.006859762, -0.03896369, 166604.39, 166604.39, 0.0027906613, 9.998165, 10.002003 
1.5048198e+3, 1.2371571e+2, -1672164.4, -1710744.0, 98280.66, 0.045745175, -0.3117491, -1591298.4, 136254.42, 0.015336173, 10.000342, 9.99986 
1.5048434e+3, 1.3371517e+2, -1592403.4, -1519020.3, 100438.555, -0.18513094, -0.44635168, -1448781.1, 180774.28, 0.0091627855, 9.999784, 10.00078 
1.5048715e+3, 1.4371671e+2, -1624772.8, -1629208.0, 96782.63, 0.037037652, -0.30042866, -1530182.4, 1357.2509, 0.0040015904, 9.99952, 9.999458 
1.5048991e+3, 1.5371437e+2, -1389723.0, -1464884.0, 52008.734, 0.21215317, -0.4943677, -1363138.0, 70427.12, 0.001031135, 10.000455, 9.999467 
1.5049244e+3, 1.6371359e+2, -1282240.6, -1413063.5, 41098.152, 0.2075976, -0.4879014, -1270401.1, 65174.695, 0.000096309515, 10.000733, 9.999017 
1.5049464e+3, 1.7371505e+2, -1275591.4, -1345493.0, 95350.81, -0.11662459, -0.2637391, -1208987.6, 28577.34, 0.000000575819, 10.00005, 9.999137 
1.5049705e+3, 1.8371534e+2, -1230422.5, -1235207.6, 116633.64, -0.2265552, -0.15204345, -1116156.9, 23408.121, 0.0, 9.999535, 9.999463 
1.5049978e+3, 1.9371402e+2, -1121871.3, -1103885.3, 71891.336, 0.017981399, -0.26497987, -1040426.6, 1153.2793, 0.0, 9.999486, 9.999716 
1.5050237e+3, 2.0371373e+2, -1019007.44, -950756.2, 17772.26, 0.12696034, -0.27436528, -946405.7, -2822.653, 0.0, 9.999293, 10.000189 
1.5050466e+3, 2.137153e+2, -950764.4, -839061.3, -18156.617, -0.000090066984, -0.17019476, -836184.2, 9381.563, 0.0, 9.998964, 10.000442 
1.5050705e+3, 2.2371534e+2, -900158.2, -928119.8, -19484.98, -0.042764455, -0.1349988, -890157.2, -142593.0, 0.0, 9.999349, 9.998974 
1.5050957e+3, 2.3371309e+2, -575079.94, -722536.44, -4647.527, 0.0540677, -0.26451367, -574933.56, 74652.836, 0.0, 10.000912, 9.99896 
1.5051204e+3, 2.4371146e+2, -488578.97, -681640.4, 3372.9312, 0.12140214, -0.29060754, -488520.06, 63083.266, 0.0, 10.001057, 9.998494 
1.5051441e+3, 2.5371101e+2, -686788.44, -711630.06, 12966.248, 0.12688927, -0.20778601, -681253.75, -227643.67, 0.00000020302433, 9.998961, 9.998623 
1.5051676e+3, 2.6371005e+2, -574878.5, -449644.97, 3968.412, 0.12828495, -0.2161272, -449519.34, -93901.016, 0.0000077496, 9.998375, 10.000033 
1.5051912e+3, 2.7370852e+2, -172566.25, -162601.06, -59212.85, 0.13256979, -0.41851678, -108161.54, 149465.13, 0.0000483451, 10.000273, 10.0004225 
1.505215e+3, 2.8370795e+2, -172109.13, -368201.8, -6899.916, 0.12498828, -0.40589705, -171866.64, -12233.026, 0.00020450291, 10.000714, 9.998118 
1.5052398e+3, 2.9370883e+2, -361879.28, -425405.38, 58185.496, 0.08126469, -0.13240635, -327351.75, -265712.72, 0.00068072864, 9.998821, 9.997957 
1.5052633e+3, 3.0370787e+2, -187890.27, -24176.732, 30553.914, -0.027435953, -0.12800989, -18660.322, -18660.322, 0.0016085604, 9.998388, 10.000613 
1.5052876e+3, 3.1370974e+2, 189433.03, 354928.2, -78865.65, 0.024685899, -0.07307404, 386491.38, 386491.38, 0.0028770326, 10.000109, 10.002398 
1.5148216e+3, 1.2369204e+2, -1690189.1, -1760053.9, -18583.12, 0.1577314, -0.28931537, -1685553.9, 42231.168, 0.016257107, 10.000386, 9.999498 
1.5148447e+3, 1.3369302e+2, -1558326.3, -1435763.8, 85449.31, -0.035089985, -0.33428648, -1391892.8, 237880.28, 0.009740974, 9.999736, 10.001378 
1.514872e+3, 1.4369398e+2, -1677777.1, -1752037.8, 111291.02, 0.12183392, -0.2385718, -1597585.9, -65821.086, 0.0042781597, 9.999561, 9.998603 
1.5148969e+3, 1.5369251e+2, -1461302.1, -1605360.1, 93438.7, -0.054364383, -0.24728836, -1415352.4, 18434.098, 0.0011151112, 10.000424, 9.998514 
1.5149222e+3, 1.6369203e+2, -1183954.1, -1219436.1, 14727.275, -0.10901214, -0.21509963, -1178637.9, 157155.83, 0.000106548556, 10.000769, 10.000332 
1.5149483e+3, 1.736927e+2, -1158918.5, -1101484.5, 73707.234, 0.054296494, -0.23802017, -1051097.6, 186683.75, 0.0000007145684, 10.00004, 10.000815 
1.5149736e+3, 1.836926e+2, -1278031.3, -1337447.1, 106158.01, 0.1267225, -0.23062322, -1197502.8, -57722.03, 0.0, 9.999547, 9.998758 
1.5149975e+3, 1.9369158e+2, -1203139.3, -1263559.5, 74767.65, 0.023453854, -0.20751405, -1152709.1, -110913.195, 0.0, 9.999451, 9.998636 
1.5150215e+3, 2.0369036e+2, -1074315.5, -1061020.0, -1384.1725, -0.03371428, -0.21538419, -1060877.5, -117067.74, 0.0, 9.999266, 9.999449 
1.5150456e+3, 2.1368892e+2, -1006727.44, -942600.2, -26274.115, -0.0038890634, -0.34566554, -933210.2, -87389.445, 0.0, 9.998904, 9.9997635 
1.5150705e+3, 2.2368798e+2, -883712.1, -873090.06, 24831.275, 0.01860318, -0.38755915, -853008.2, -105180.05, 0.0, 9.999259, 9.999394 
1.5150963e+3, 2.3368812e+2, -548432.4, -646279.56, 61773.133, 0.0226801, -0.33428285, -518556.0, 131271.53, 0.0, 10.000822, 9.999527 
1.5151207e+3, 2.4368796e+2, -460481.03, -605576.2, -65084.098, 0.039377287, -0.27148846, -435565.34, 116265.25, 0.0, 10.000974, 9.999062 
1.5151428e+3, 2.5368738e+2, -650938.5, -631986.1, -61942.8, 0.0828163, -0.25461918, -578798.9, -124960.164, 0.00000026346208, 9.998933, 9.999188 
1.5151657e+3, 2.6368675e+2, -667394.25, -633423.94, 53553.375, 0.09857123, -0.21144463, -594226.7, -238378.64, 0.0000083363275, 9.998343, 9.998786 
1.5151909e+3, 2.736862e+2, -295535.88, -388698.88, 23282.984, 0.0707598, -0.16923648, -290041.16, -32184.668, 0.000050820046, 10.000155, 9.998922 
1.515215e+3, 2.8368577e+2, -89679.42, -174036.28, -64175.035, 0.04194223, -0.116336934, -55062.96, 104800.26, 0.000217125, 10.000603, 9.999512 
1.515238e+3, 2.936856e+2, -231969.48, -161858.75, -5450.692, 0.002454158, -0.13034588, -161437.52, -99570.45, 0.00071596226, 9.998836, 9.999764 
1.5152617e+3, 3.036839e+2, -329001.75, -293582.94, 73934.74, -0.028365437, -0.21397132, -235266.23, -235266.23, 0.0016557103, 9.99832, 9.998781 
1.51529e+3, 3.1368363e+2, 12332.623, 59178.773, 8973.114, 0.23856108, -0.14925851, 60838.703, 60838.703, 0.0029081663, 9.999842, 10.000466 
1.5248223e+3, 1.2366751e+2, -1808580.1, -1864709.6, -63574.625, 0.21253577, -0.35976765, -1767151.3, -39128.195, 0.017244658, 9.999789, 9.999054 
1.5248449e+3, 1.3366918e+2, -1475204.9, -1444397.4, 8319.149, -0.026165662, -0.30106023, -1442294.4, 187713.78, 0.010359608, 10.000505, 10.000951 
1.5248713e+3, 1.4366919e+2, -1542863.8, -1659713.1, 41776.324, 0.057394255, -0.28544614, -1529464.4, 2546.4011, 0.0045741852, 10.000389, 9.998829 
1.5248957e+3, 1.5366931e+2, -1589437.8, -1628542.9, 112361.336, -0.1555747, -0.17139463, -1494940.4, -60925.465, 0.0012060112, 9.999372, 9.998867 
1.5249212e+3, 1.6366906e+2, -1494664.5, -1390944.1, 51537.617, -0.18815231, -0.12596826, -1369690.6, -33672.203, 0.000118081814, 9.998757, 10.000116 
1.5249483e+3, 1.7366804e+2, -1298013.6, -1203039.1, -56166.92, 0.099268995, -0.28429946, -1176975.4, 61046.71, 0.0000008766353, 9.99925, 10.000498 
1.5249741e+3, 1.8366717e+2, -1255097.8, -1307939.6, -65728.74, 0.21711227, -0.3410307, -1210678.5, -70650.5, 0.0, 9.999623, 9.998925 
1.524997e+3, 1.9366695e+2, -1115332.9, -1197761.5, -9914.806, 0.0152358115, -0.26069194, -1114157.1, -72122.9, 0.0, 9.999938, 9.9988575 
1.5250209e+3, 2.0366594e+2, -925218.6, -1020597.0, 2647.6377, -0.07000557, -0.24833655, -925145.2, 18900.2, 0.0, 10.000422, 9.999167 
1.5250461e+3, 2.1366382e+2, -690203.6, -828546.25, -9152.99, 0.043162737, -0.4106882, -689600.7, 156462.7, 0.0, 10.001242, 9.999419 
1.5250713e+3, 2.2366276e+2, -610795.25, -725076.94, 45029.15, 0.08804974, -0.45141125, -595185.2, 152887.42, 0.0, 10.001057, 9.999546 
1.5250961e+3, 2.3366371e+2, -770882.9, -727695.8, 43536.4, 0.011485301, -0.3399784, -700692.0, -50626.92, 0.0, 9.999184, 9.999756 
1.5251201e+3, 2.4366403e+2, -756238.75, -715897.44, -88874.38, -0.008436578, -0.255081, -644933.56, -92869.445, 0.0, 9.998811, 9.999342 
1.5251423e+3, 2.5366345e+2, -336708.44, -447940.72, -116024.32, 0.06224425, -0.2706741, -263659.13, 190413.27, 0.0000003530132, 10.00095, 9.999478 
1.5251656e+3, 2.636629e+2, -236332.08, -472129.44, 14899.353, 0.09731688, -0.21264052, -235394.36, 120687.53, 0.00000861748, 10.001502, 9.998373 
1.5251906e+3, 2.736627e+2, -443954.44, -515026.66, 41493.605, 0.07848443, -0.08521679, -424859.66, -166768.61, 0.000051570143, 9.999379, 9.998424 
1.525215e+3, 2.836623e+2, -334527.38, -260224.34, -16886.252, 0.07125714, -0.014796217, -256566.78, -96468.2, 0.00022934856, 9.998796, 9.999788 
1.5252383e+3, 2.936617e+2, 79064.74, 26670.46, -70891.46, 0.06128095, -0.10299716, 128444.65, 190547.19, 0.00074981863, 10.000803, 10.000121 
1.5252618e+3, 3.036602e+2, 77872.02, -118384.21, -6996.842, 0.016832901, -0.18130535, 78121.16, 78121.16, 0.001694506, 10.001188, 9.998613 
1.5252891e+3, 3.1365913e+2, -157911.14, -51612.105, 47370.125, 0.23444426, -0.17073524, -33566.117, -33566.117, 0.002917839, 9.998766, 10.000236 
1.5348208e+3, 1.2364236e+2, -1855403.3, -1958992.1, -114425.07, 0.06102705, -0.5141977, -1781596.1, -53331.54, 0.018294634, 9.999769, 9.998421 
1.5348434e+3, 1.3364391e+2, -1583237.8, -1658516.3, 37136.664, -0.23441063, -0.32638395, -1568001.3, 62257.016, 0.011016667, 10.000471, 9.99948 
1.5348691e+3, 1.4364256e+2, -1438157.1, -1461335.6, -3587.9475, -0.21749277, -0.41812494, -1437614.4, 94660.52, 0.0048880493, 10.000463, 10.000166 
1.5348953e+3, 1.536449e+2, -1475036.3, -1369581.9, 75125.78, -0.14702857, -0.25727525, -1330526.5, 103722.21, 0.0013030368, 9.999293, 10.000679 
1.5349211e+3, 1.636449e+2, -1625814.3, -1666198.9, 53929.742, -0.080560945, -0.20789564, -1588420.6, -252173.17, 0.00013086536, 9.998756, 9.998236 
1.5349464e+3, 1.7364116e+2, -1474298.0, -1561534.3, -32103.398, -0.028797051, -0.39639378, -1463757.4, -225471.38, 0.0000010420176, 9.999221, 9.998053 
1.5349716e+3, 1.8363914e+2, -1179441.4, -1159860.6, -59812.156, -0.015090179, -0.47107035, -1109042.9, 31263.361, 0.0, 9.999652, 9.99993 
1.5349963e+3, 1.9364019e+2, -1007948.3, -970311.5, 5822.018, -0.059317097, -0.4174147, -969431.5, 72862.48, 0.0, 9.999915, 10.000431 
1.5350217e+3, 2.0364055e+2, -919613.44, -996730.8, 25233.053, -0.037116878, -0.36678582, -912090.9, 32197.98, 0.0, 10.000368, 9.999357 
1.5350479e+3, 2.1363996e+2, -704838.6, -840379.7, 27900.787, 0.08776302, -0.37328997, -699320.06, 146974.11, 0.0, 10.001162, 9.999375 
1.5350726e+3, 2.2363964e+2, -632516.3, -748726.2, -18194.742, 0.11304109, -0.33367488, -629734.2, 118564.08, 0.0, 10.000958, 9.999434 
1.5350951e+3, 2.3363984e+2, -784424.2, -746377.5, -21733.275, -0.023403918, -0.2862445, -736517.94, -86218.336, 0.0, 9.999134, 9.999655 
1.5351182e+3, 2.4363963e+2, -772697.44, -725940.06, -31349.936, -0.07477941, -0.2451892, -710211.44, -157907.23, 0.0, 9.998714, 9.999315 
1.535143e+3, 2.5363907e+2, -354868.6, -458487.56, -26217.438, 0.013813634, -0.25765353, -348612.8, 105698.75, 0.0000004707298, 10.000839, 9.999455 
1.535167e+3, 2.6363856e+2, -224890.03, -424784.4, -52157.23, 0.07206528, -0.21283454, -212099.39, 144220.61, 0.000008627056, 10.001394, 9.998754 
1.5351902e+3, 2.7363822e+2, -417749.5, -451785.34, -35135.414, 0.09100968, -0.14303084, -395727.6, -137398.1, 0.00005249565, 9.999339, 9.9988785 
1.5352146e+3, 2.836376e+2, -400706.13, -386830.03, 35535.08, 0.14093184, -0.08157783, -357562.03, -197222.2, 0.0002422958, 9.998746, 9.998947 
1.5352404e+3, 2.936371e+2, -9323.744, -127589.39, 19968.207, 0.19337176, -0.06693915, -6043.267, 56303.73, 0.0007832617, 10.000673, 9.999123 
1.5352635e+3, 3.036366e+2, 137418.67, 55199.41, -80700.83, 0.060887534, -0.044148333, 186877.39, 186877.39, 0.0017341964, 10.000991, 9.999893 
1.535285e+3, 3.1363606e+2, -80644.086, 147010.77, -21012.08, -0.0729307, -0.13817908, 148933.89, 148933.89, 0.0029379996, 9.998635, 10.00165 
1.5448196e+3, 1.2361845e+2, -1923533.9, -1948552.9, -136059.53, 0.0018085445, -0.5187904, -1799410.0, -70910.41, 0.019406972, 9.999132, 9.998793 
1.5448438e+3, 1.3361993e+2, -1788339.0, -1828572.5, 93073.734, -0.18432775, -0.2778174, -1713232.9, -82737.66, 0.0117135905, 9.99936, 9.998851 
1.544869e+3, 1.436178e+2, -1563814.6, -1526584.3, 43405.69, -0.24209559, -0.41355425, -1497970.4, 34549.17, 0.0052204016, 9.999625, 10.000115 
1.5448953e+3, 1.5361972e+2, -1285301.6, -1282285.5, -29805.266, -0.12620819, -0.2923035, -1253950.1, 180545.03, 0.0014059248, 10.000602, 10.000655 
1.544921e+3, 1.6361944e+2, -1318824.3, -1524098.1, -55693.902, -0.065840736, -0.265583, -1304687.3, 31807.904, 0.00014487762, 10.000897, 9.998168 
1.5449452e+3, 1.7361575e+2, -1328463.8, -1502294.3, 22189.451, -0.10549752, -0.44535458, -1325676.0, -87142.0, 0.000001197513, 10.000254, 9.99796 
1.5449704e+3, 1.8361394e+2, -1130849.6, -1121846.4, 95360.09, -0.096622616, -0.50081164, -1030881.75, 109670.84, 0.0, 9.999935, 10.000053 
1.5449968e+3, 1.9361556e+2, -923918.9, -909162.44, 49957.74, -0.015791256, -0.40416953, -866041.0, 176493.73, 0.0, 10.000415, 10.0006075 
1.5450229e+3, 2.0361629e+2, -935868.44, -996303.0, -6369.36, 0.04731688, -0.32997546, -935204.44, 9321.941, 0.0, 10.000235, 9.999422 
1.5450478e+3, 2.1361576e+2, -1026327.3, -990710.06, -14997.232, 0.07453246, -0.33391, -985236.4, -138704.77, 0.0, 9.99895, 9.999407 
1.5450718e+3, 2.2361518e+2, -988584.75, -940608.56, -50100.07, 0.05606613, -0.30976185, -909049.9, -160511.73, 0.0, 9.998609, 9.999244 
1.5450943e+3, 2.336148e+2, -692618.1, -725129.9, -77036.03, -0.043497797, -0.29834446, -630141.5, 20403.043, 0.0, 9.999879, 9.999435 
1.545118e+3, 2.436144e+2, -540465.9, -608710.9, -54238.797, -0.058650527, -0.26794347, -510508.8, 42042.22, 0.000000000009610117, 10.0002775, 9.9993725 
1.5451433e+3, 2.536142e+2, -601422.25, -566376.9, -46221.945, 0.062440794, -0.2538686, -534467.6, -79912.54, 0.0000005675007, 9.999101, 9.999557 
1.5451676e+3, 2.6361388e+2, -565416.6, -544147.7, -80057.42, 0.1260038, -0.21030329, -474021.5, -117460.414, 0.000008574752, 9.99887, 9.9991455 
1.54519e+3, 2.736134e+2, -250566.64, -328182.9, -82022.97, 0.09176765, -0.19477782, -198634.28, 59936.21, 0.000054083343, 10.000296, 9.999272 
1.5452142e+3, 2.8361282e+2, -126076.74, -233592.81, 39020.613, 0.14594321, -0.16041622, -113407.87, 47171.156, 0.0002552126, 10.000552, 9.999117 
1.5452412e+3, 2.9361263e+2, -271844.56, -241567.6, 86766.17, 0.29590675, -0.12390895, -168629.17, -106047.77, 0.0008167423, 9.998823, 9.999225 
1.5452643e+3, 3.0361247e+2, -210962.6, -157947.22, 2565.2998, 0.15985559, -0.062047593, -157823.39, -157823.39, 0.0017831527, 9.998777, 9.999499 
1.5452842e+3, 3.1361115e+2, 253506.7, 191259.2, -104369.01, -0.14748508, -0.17839329, 331293.8, 331293.8, 0.0029899941, 10.001398, 10.000645 
1.5548185e+3, 1.2359661e+2, -1823870.5, -1744208.8, -146035.67, -0.055503633, -0.2961286, -1632669.5, 96050.7, 0.020587768, 9.999144, 10.0002 
1.5548459e+3, 1.3359757e+2, -1780959.4, -1783727.3, 101309.67, 0.074059226, -0.13920243, -1681024.3, -50308.29, 0.012455585, 9.999252, 9.999206 
1.5548703e+3, 1.4359517e+2, -1667006.9, -1746824.4, 69794.48, -0.083563246, -0.26088178, -1626516.8, -93774.82, 0.0055746003, 9.999631, 9.998609 
1.5548958e+3, 1.5359409e+2, -1417866.4, -1559541.8, 15600.929, -0.15672177, -0.2555932, -1416168.8, 18582.578, 0.001515748, 10.000611, 9.998746 
1.5549207e+3, 1.6359293e+2, -1186279.6, -1266587.1, -81116.516, -0.20882288, -0.27964297, -1135922.5, 200837.33, 0.00016035176, 10.000962, 9.999909 
1.554945e+3, 1.7359194e+2, -1166105.3, -1159128.8, -960.7515, -0.17172478, -0.42130348, -1158998.9, 79766.02, 0.0000013687348, 10.000228, 10.000328 
1.5549707e+3, 1.8359174e+2, -1183697.3, -1231854.1, 101574.3, -0.077257775, -0.41851962, -1103386.5, 37378.76, 0.0, 9.999934, 9.9993 
1.5549985e+3, 1.9359316e+2, -1017981.6, -1096496.8, 74135.234, 0.0908881, -0.21844348, -973351.2, 69404.43, 0.0, 10.000381, 9.999337 
1.555024e+3, 2.0359321e+2, -947179.06, -1015860.94, -53011.617, 0.13150856, -0.13254885, -918357.25, 26400.078, 0.0, 10.000206, 9.999309 
1.5550457e+3, 2.1359114e+2, -1025774.44, -981077.2, -59162.125, -0.03830283, -0.2972671, -940183.3, -93406.85, 0.0, 9.998902, 9.999502 
1.5550685e+3, 2.2358944e+2, -1021297.9, -990599.6, -19510.88, -0.13564262, -0.3817843, -981123.94, -232331.53, 0.0, 9.99853, 9.9989395 
1.5550937e+3, 2.3358862e+2, -728993.6, -785191.44, -20250.654, -0.10433336, -0.3762091, -722456.75, -71656.35, 0.0, 9.99981, 9.999057 
1.5551187e+3, 2.4358825e+2, -544794.0, -595692.9, -90017.42, -0.02053096, -0.32451686, -476697.7, 76107.414, 0.0, 10.00018, 9.999511 
1.5551433e+3, 2.535888e+2, -593702.0, -533862.94, -84976.36, 0.15263091, -0.25931805, -473692.72, -18889.766, 0.0000005355393, 9.999029, 9.999816 
1.5551673e+3, 2.6358885e+2, -553409.44, -501308.75, -39960.344, 0.1986309, -0.21190478, -479657.44, -122851.85, 0.000008556659, 9.998792, 9.999477 
1.5551898e+3, 2.735882e+2, -240399.63, -284632.13, -17332.813, 0.035354894, -0.24780266, -234416.86, 24397.63, 0.00005618316, 10.000203, 9.999611 
1.555214e+3, 2.835879e+2, -68405.836, -96604.72, -16827.664, 0.044873334, -0.25046346, -60551.59, 100265.61, 0.0002694524, 10.000469, 10.000105 
1.5552403e+3, 2.935883e+2, -187240.03, -68054.36, 26628.605, 0.31329036, -0.26150388, -62375.543, 431.4305, 0.0008545011, 9.998825, 10.000419 
1.555264e+3, 3.0358782e+2, -369202.63, -458826.4, 74906.95, 0.24493362, -0.2169967, -326726.72, -326726.72, 0.0018516757, 9.998684, 9.997469 
1.5552862e+3, 3.1358442e+2, -4870.8164, -268438.72, 23193.322, -0.11866198, -0.29104716, -2845.4255, -2845.4255, 0.003092014, 10.001103, 9.997604 
1.5648176e+3, 1.2357249e+2, -1651979.6, -1671579.3, -140405.42, -0.10634392, -0.24066064, -1521032.5, 207924.16, 0.021849003, 10.0003605, 10.00013 
1.564847e+3, 1.3357216e+2, -1608350.1, -1762766.1, -12967.583, 0.19938271, -0.15958293, -1607268.8, 23696.74, 0.013250772, 10.000679, 9.998676 
1.5648706e+3, 1.435702e+2, -1559255.4, -1680879.9, -20202.555, -0.043986212, -0.2128296, -1555987.4, -23000.445, 0.0059556314, 10.000335, 9.998713 
1.5648955e+3, 1.5356857e+2, -1589797.9, -1625767.1, 62625.46, -0.17155866, -0.2773732, -1542625.8, -107625.09, 0.0016345053, 9.999363, 9.99889 
1.5649201e+3, 1.6356744e+2, -1467791.0, -1366744.9, 21562.031, -0.24928641, -0.32161763, -1362336.1, -25327.457, 0.00017771397, 9.998883, 10.000226 
1.5649448e+3, 1.7356755e+2, -1241503.8, -1155411.1, -55374.43, -0.17122713, -0.3849176, -1128319.6, 110684.13, 0.0000016137079, 9.999541, 10.000685 
1.5649706e+3, 1.8356779e+2, -1216595.3, -1263215.4, -10076.87, -0.06419772, -0.35275254, -1214510.4, -73509.945, 0.0, 9.999775, 9.999159 
1.5649977e+3, 1.9356844e+2, -1186460.4, -1204553.4, 28847.719, 0.05063262, -0.20707965, -1165273.9, -122275.69, 0.0, 9.999334, 9.999104 
1.565023e+3, 2.0356803e+2, -1083487.4, -1108986.9, -52174.24, 0.064502746, -0.14490424, -1042527.7, -97522.71, 0.0, 9.999392, 9.999055 
1.5650447e+3, 2.1356604e+2, -816909.1, -905743.2, -93753.7, -0.09266047, -0.2780659, -757583.06, 89441.44, 0.0, 10.00045, 9.999264 
1.5650679e+3, 2.2356442e+2, -668171.7, -774069.25, -27901.875, -0.15814613, -0.35726026, -661269.9, 87769.16, 0.0, 10.000756, 9.999352 
1.5650937e+3, 2.3356369e+2, -705327.3, -715714.94, 27924.025, -0.07029549, -0.39496443, -682118.2, -31075.324, 0.0, 9.999717, 9.99958 
1.5651187e+3, 2.4356328e+2, -708489.5, -693916.4, -22331.701, 0.031934872, -0.37254077, -677712.5, -124666.03, 0.0, 9.999132, 9.999343 
1.5651424e+3, 2.5356355e+2, -556131.7, -547228.6, -70949.38, 0.14188299, -0.3055244, -480591.25, -25543.219, 0.00000039469393, 9.999416, 9.999537 
1.5651661e+3, 2.6356345e+2, -442507.63, -449576.0, -17007.318, 0.17419639, -0.25524387, -428671.16, -71618.54, 0.000008163994, 9.99957, 9.999457 
1.56519e+3, 2.7356285e+2, -351329.3, -339440.5, -25598.693, 0.07480637, -0.28728786, -319105.1, -60044.33, 0.000058034057, 9.999449, 9.9996 
1.5652144e+3, 2.835626e+2, -161065.08, -130912.25, -80271.95, 0.087737665, -0.2827858, -64313.188, 96749.13, 0.00028458447, 9.999796, 10.000194 
1.5652396e+3, 2.9356328e+2, 137057.4, 97446.16, -133148.61, 0.26077121, -0.2781604, 251865.34, 314915.34, 0.0008964698, 10.001023, 10.000497 
1.5652636e+3, 3.0356255e+2, 25843.074, -241573.4, -30147.465, 0.2109577, -0.26762465, 29199.648, 29199.648, 0.0019394822, 10.001256, 9.997727 
1.565288e+3, 3.1355968e+2, -227725.17, -391134.13, 97078.23, 0.045054007, -0.3106181, -182544.64, -182544.64, 0.003246145, 9.999591, 9.997509 
1.5748166e+3, 1.2354617e+2, -1765277.3, -1908362.9, -89151.12, -0.2782369, -0.3520125, -1722512.1, 6695.5044, 0.023204513, 10.000354, 9.998494 
1.574847e+3, 1.3354407e+2, -1710133.5, -1972265.4, -2075.9258, 0.120139055, -0.30510828, -1710117.0, -78877.34, 0.014108494, 10.000681, 9.9972315 
1.5748696e+3, 1.4354314e+2, -1427212.4, -1427607.3, -61976.79, -0.18861829, -0.24606372, -1365432.8, 167819.77, 0.0063687824, 10.000413, 10.000426 
1.5748945e+3, 1.5354326e+2, -1433959.3, -1295973.3, 28502.186, -0.2165911, -0.35452926, -1290317.8, 144924.56, 0.00176415, 9.999333, 10.001172 
1.5749192e+3, 1.6354312e+2, -1545310.8, -1528592.3, 33436.023, -0.24354677, -0.38544282, -1502486.4, -165246.48, 0.00019721544, 9.99888, 9.999119 
1.5749446e+3, 1.7354278e+2, -1366198.3, -1407023.6, -23414.168, -0.15480885, -0.32817405, -1355548.1, -116299.22, 0.0000019795527, 9.999511, 9.998971 
1.57497e+3, 1.835422e+2, -1182541.5, -1197286.3, -26917.059, -0.111750126, -0.29685423, -1162005.5, -20748.127, 0.0, 9.99979, 9.999606 
1.5749949e+3, 1.9354148e+2, -1134367.0, -1088747.9, 15732.843, -0.18506244, -0.3681611, -1083848.3, -40586.098, 0.0, 9.999302, 9.999914 
1.5750198e+3, 2.035408e+2, -1115354.1, -1167506.5, -24222.477, -0.21259712, -0.36263192, -1105839.8, -160571.13, 0.0, 9.999352, 9.998673 
1.5750447e+3, 2.1354048e+2, -871683.2, -999316.9, -47578.625, -0.14574401, -0.2716641, -855899.06, -8623.595, 0.0, 10.000363, 9.998664 
1.5750696e+3, 2.2354014e+2, -605006.06, -620201.7, -60492.074, -0.0719664, -0.23562987, -551636.5, 197641.83, 0.0, 10.000654, 10.00046 
1.5750943e+3, 2.3353994e+2, -621969.5, -519745.2, -7060.0586, 0.005108917, -0.36045212, -519259.9, 132013.14, 0.0, 9.999618, 10.000975 
1.575118e+3, 2.435394e+2, -758672.3, -774949.4, -24185.006, 0.038867515, -0.4082265, -741293.2, -188017.6, 0.0, 9.99903, 9.998835 
1.5751404e+3, 2.5353852e+2, -622299.06, -674111.2, -54282.234, -0.0059076534, -0.37911928, -588057.94, -132767.92, 0.00000029448665, 9.999372, 9.998685 
1.5751642e+3, 2.6353776e+2, -477971.66, -515901.47, -22285.69, 0.0129977, -0.32669535, -467673.63, -110371.46, 0.000007127328, 9.999534, 9.999022 
1.5751901e+3, 2.7353728e+2, -380274.2, -385104.3, -20961.463, 0.14600281, -0.31075594, -361589.13, -102279.8, 0.000058357444, 9.99939, 9.999313 
1.5752155e+3, 2.8353706e+2, -232485.48, -267192.7, -43691.523, 0.201529, -0.25387537, -202827.42, -41514.094, 0.0002965317, 9.999731, 9.999294 
1.5752392e+3, 2.935374e+2, 50293.387, -59597.938, -72036.85, 0.08926073, -0.18182516, 85947.58, 149257.1, 0.0009377398, 10.000916, 9.999473 
1.5752628e+3, 3.0353656e+2, 160712.42, 80557.375, -78321.56, 0.005097762, -0.22637372, 208614.88, 208614.88, 0.0020369852, 10.001093, 10.000011 
1.5752894e+3, 3.135369e+2, -54504.496, 8259.08, 51117.887, 0.20912793, -0.23249698, 36859.414, 36859.414, 0.00343096, 9.999447, 10.000305 
1.5848167e+3, 1.2351877e+2, -1726486.4, -1876421.0, -108133.9, -0.2903015, -0.44513303, -1669874.8, 59598.527, 0.024665277, 10.000596, 9.9985895 
1.5848461e+3, 1.3351698e+2, -1838479.3, -1982207.3, 26096.967, 0.038134437, -0.4091848, -1833887.4, -202386.16, 0.0150364665, 9.999584, 9.997691 
1.5848683e+3, 1.4351696e+2, -1606006.0, -1473064.9, 24431.27, -0.29121235, -0.30216134, -1468717.3, 64787.94, 0.0068181083, 9.999013, 10.000781 
1.5848944e+3, 1.5351748e+2, -1355109.6, -1222539.4, -40293.67, -0.17091054, -0.4015126, -1211253.3, 224238.78, 0.0019058621, 9.999723, 10.001486 
1.5849194e+3, 1.6351786e+2, -1394105.5, -1468795.5, -72138.516, -0.14528629, -0.39394477, -1350218.6, -12732.168, 0.0002187055, 9.999979, 9.998994 
1.5849438e+3, 1.7351802e+2, -1385507.5, -1437304.5, -29357.578, -0.1662852, -0.26763058, -1372257.6, -132764.02, 0.000002466339, 9.999471, 9.99878 
1.5849689e+3, 1.8351746e+2, -1232331.1, -1220284.4, 37683.64, -0.17333049, -0.22531661, -1188145.8, -46642.742, 0.0, 9.999451, 9.999611 
1.5849945e+3, 1.9351591e+2, -953802.44, -993228.5, 15198.221, -0.20708162, -0.3828171, -948623.94, 94890.016, 0.0, 10.000509, 9.999984 
1.5850198e+3, 2.0351498e+2, -902882.4, -1014921.44, -39625.15, -0.19551043, -0.4260053, -890284.56, 55236.42, 0.0, 10.000601, 9.999122 
1.5850449e+3, 2.135153e+2, -1034056.25, -1022288.2, 2325.7751, -0.08966254, -0.32111907, -1021845.2, -174325.22, 0.0, 9.9990015, 9.999171 
1.5850696e+3, 2.2351538e+2, -974108.44, -812980.75, 14287.7, -0.011489551, -0.2652134, -811723.6, -62204.88, 0.0, 9.99819, 10.000322 
1.5850934e+3, 2.3351538e+2, -730291.06, -600135.8, -63521.637, 0.0055056247, -0.3438488, -574273.4, 77241.34, 0.0, 9.998996, 10.000725 
1.5851171e+3, 2.4351496e+2, -639049.9, -709700.56, -100584.88, 0.018880595, -0.36837968, -567767.5, -14249.699, 0.0, 9.999834, 9.998886 
1.5851407e+3, 2.5351393e+2, -425858.44, -570633.44, -73948.984, 0.01563916, -0.3591697, -394764.53, 60767.027, 0.00000023115544, 10.000683, 9.998759 
1.5851648e+3, 2.63513e+2, -275659.34, -428483.88, -15984.206, 0.053032305, -0.32344493, -274005.44, 83538.58, 0.0000061293663, 10.000973, 9.998919 
1.5851901e+3, 2.735125e+2, -238580.58, -331215.75, -19313.318, 0.16215807, -0.29711366, -234715.27, 24835.521, 0.00005923624, 10.00043, 9.999175 
1.5852152e+3, 2.835121e+2, -255562.45, -339926.3, 3396.8364, 0.210412, -0.22747722, -255425.9, -93868.82, 0.00030706255, 9.999846, 9.998733 
1.5852393e+3, 2.935117e+2, -254158.52, -276355.13, -15869.462, 0.10895298, -0.16678445, -245891.6, -182328.89, 0.0009776513, 9.99913, 9.998837 
1.585263e+3, 3.0350992e+2, -72975.21, 6215.012, -55998.004, 0.024629887, -0.28124642, 35202.33, 35202.33, 0.0021345343, 9.999295, 10.000384 
1.585289e+3, 3.1351164e+2, 193179.48, 206831.3, -107818.87, 0.1632852, -0.20361477, 308040.13, 308040.13, 0.0036136475, 10.000798, 10.001039 
1.5948185e+3, 1.23490356e+2, -1592613.0, -1611547.3, -72949.88, -0.21093516, -0.52637386, -1528518.5, 201234.98, 0.026239868, 10.000649, 10.000404 
1.5948445e+3, 1.3349105e+2, -1673066.8, -1628368.8, -12657.026, -0.08987259, -0.47837418, -1625033.6, 6715.056, 0.016040104, 9.99954, 10.000137 
1.5948662e+3, 1.434918e+2, -1681939.4, -1637725.4, 36709.637, -0.41039756, -0.3875552, -1616980.1, -83236.76, 0.0073062, 9.999031, 9.999646 
1.594895e+3, 1.5349147e+2, -1479807.4, -1480915.8, -5938.4497, -0.086045824, -0.40425578, -1474397.3, -38649.082, 0.002060233, 9.999718, 9.999715 
1.594921e+3, 1.6349182e+2, -1329976.8, -1343316.1, -91930.92, -0.0070118126, -0.3324951, -1244473.9, 93273.67, 0.00024185247, 10.00001, 9.999843 
1.5949427e+3, 1.7349336e+2, -1296590.5, -1247816.6, -45797.133, -0.24758203, -0.19539803, -1220318.1, 19418.887, 0.0000030340082, 9.999452, 10.000089 
1.5949671e+3, 1.834936e+2, -1256799.1, -1275345.3, 62966.703, -0.30068088, -0.13328968, -1202426.4, -60689.39, 0.0, 9.999464, 9.999228 
1.5949966e+3, 1.9349185e+2, -1010138.75, -1101619.8, 62318.0, -0.063814625, -0.24361752, -978576.44, 65176.188, 0.0, 10.000473, 9.999258 
1.5950231e+3, 2.034906e+2, -822258.6, -841423.5, -90668.375, 0.06450868, -0.3271124, -740667.75, 205094.27, 0.0, 10.00057, 10.000327 
1.595045e+3, 2.1349043e+2, -936026.2, -799404.75, -56128.633, 0.021113388, -0.42445084, -779302.94, 68455.42, 0.0, 9.998922, 10.000736 
1.5950677e+3, 2.2349022e+2, -1078977.4, -1015838.94, 26117.58, -0.03514307, -0.43348646, -1006435.7, -256676.27, 0.0, 9.9981165, 9.998969 
1.5950914e+3, 2.3349012e+2, -871319.56, -879565.8, -23614.371, -0.115722686, -0.3393416, -851471.06, -199704.14, 0.0, 9.998932, 9.998839 
1.5951161e+3, 2.4348997e+2, -615812.7, -641859.9, -69415.47, -0.0875238, -0.24907626, -558209.7, -4437.396, 0.0, 9.999751, 9.999391 
1.5951426e+3, 2.5348973e+2, -374561.34, -439714.7, -34640.105, 0.14331788, -0.25216538, -359586.2, 96187.15, 0.00000009760233, 10.000584, 9.999703 
1.5951677e+3, 2.6348913e+2, -277568.47, -417069.72, -33605.777, 0.23535885, -0.24096867, -269894.97, 87883.44, 0.0000054247644, 10.000895, 9.99904 
1.5951899e+3, 2.7348843e+2, -248485.95, -340008.88, -30946.848, 0.0781218, -0.2389102, -239004.16, 20781.518, 0.000061938634, 10.000371, 9.9991455 
1.5952136e+3, 2.8348756e+2, -286970.22, -389942.13, -25393.887, 0.057030946, -0.20192412, -281048.4, -119253.164, 0.0003177167, 9.999781, 9.998424 
1.59524e+3, 2.9348585e+2, -280060.47, -326321.13, -31701.137, 0.24892381, -0.23758213, -263948.28, -200135.33, 0.0010084098, 9.99911, 9.998509 
1.5952642e+3, 3.034826e+2, -184111.08, -200823.5, -11724.599, 0.19683875, -0.41878778, -178069.64, -178069.64, 0.0022063714, 9.999213, 9.998994 
1.5952866e+3, 3.134841e+2, 84464.734, 40288.797, -20550.207, -0.1718948, -0.21219145, 92546.11, 92546.11, 0.0037438306, 10.000571, 9.999988 
1.6048187e+3, 1.2346442e+2, -1839409.6, -1662119.4, 79126.35, -0.14410236, -0.4837475, -1631941.4, 98068.67, 0.027939666, 9.998628, 10.001027 
1.6048433e+3, 1.3346572e+2, -1665777.9, -1536530.1, -52950.418, -0.13439783, -0.4546964, -1517607.8, 114388.12, 0.01712635, 9.999204, 10.0009365 
1.6048658e+3, 1.4346668e+2, -1628724.3, -1613501.5, -8305.267, -0.36797574, -0.38944718, -1609847.4, -75860.13, 0.007836914, 9.999418, 9.999618 
1.6048943e+3, 1.5346621e+2, -1571865.0, -1547997.1, 51336.684, -0.10536066, -0.40160006, -1507225.5, -71230.34, 0.0022287087, 9.999177, 9.9995165 
1.6049202e+3, 1.6346636e+2, -1444350.4, -1372191.0, 22606.629, -0.037360627, -0.34820798, -1365693.6, -27696.713, 0.00026665046, 9.999126, 10.000066 
1.6049424e+3, 1.7346773e+2, -1208561.1, -1171727.6, -16625.945, -0.23708592, -0.2568146, -1165333.1, 74653.15, 0.0000036433328, 9.999911, 10.000392 
1.6049671e+3, 1.8346821e+2, -1163792.1, -1203740.0, 70338.766, -0.2675086, -0.20023969, -1110646.4, 31337.041, 0.0, 9.999989, 9.999463 
1.6049963e+3, 1.9346729e+2, -1221765.6, -1180063.8, 125152.74, -0.03872968, -0.2495165, -1074036.9, -30044.945, 0.0, 9.998908, 9.999475 
1.6050228e+3, 2.0346653e+2, -1121470.5, -975936.44, -21929.57, 0.08063569, -0.2979213, -972703.8, -26706.537, 0.0, 9.998484, 10.000409 
1.605044e+3, 2.134664e+2, -860856.1, -754986.1, -111366.99, 0.013502947, -0.39758053, -684613.7, 163380.06, 0.0, 9.999412, 10.000802 
1.6050665e+3, 2.2346608e+2, -820299.4, -919312.0, -25549.092, -0.045615487, -0.40966445, -814095.44, -64098.82, 0.0, 10.000022, 9.998706 
1.6050908e+3, 2.334657e+2, -724078.75, -839184.1, 27779.8, -0.10655586, -0.3126536, -717725.0, -65717.234, 0.0, 10.000088, 9.998548 
1.6051161e+3, 2.4346533e+2, -546583.2, -591921.06, 46707.453, -0.07146004, -0.23422188, -517334.22, 36680.957, 0.0, 10.000151, 9.999551 
1.6051431e+3, 2.5346518e+2, -406465.63, -426433.6, 24895.854, 0.14221244, -0.25175396, -389626.44, 66387.32, 0.000000007673713, 10.000244, 9.999966 
1.6051681e+3, 2.6346457e+2, -351538.8, -445547.7, -15889.836, 0.21864943, -0.25926194, -348925.66, 9091.624, 0.0000049766613, 10.000363, 9.999099 
1.6051899e+3, 2.7346364e+2, -230572.4, -335264.53, -34773.867, 0.04725374, -0.27901226, -220074.77, 39951.11, 0.00006397672, 10.000508, 9.999118 
1.6052134e+3, 2.8346252e+2, -133571.97, -300726.94, 815.2565, 0.025280373, -0.26269272, -133568.0, 28468.19, 0.0003242289, 10.000766, 9.998562 
1.60524e+3, 2.93461e+2, 47415.37, -147945.06, 17174.068, 0.24408838, -0.30040506, 48913.65, 112964.945, 0.0010201149, 10.001275, 9.99869 
1.6052645e+3, 3.0345768e+2, 53497.844, -162170.89, 96741.516, 0.22145517, -0.4717397, 90532.98, 90532.98, 0.0022306554, 10.00117, 9.99831 
1.605287e+3, 3.1345856e+2, -45877.41, -72561.086, 105860.76, -0.123404086, -0.24580485, 47478.95, 47478.95, 0.0037873564, 9.99986, 9.999562 
1.6148174e+3, 1.2344125e+2, -1873075.6, -1743121.1, 106774.51, -0.16798417, -0.31639364, -1683107.0, 47133.156, 0.02978273, 9.998668, 10.000448 
1.6148426e+3, 1.3344145e+2, -1732776.8, -1669145.6, -26546.223, -0.14752546, -0.3069779, -1659525.3, -27286.754, 0.018308382, 9.999177, 10.000031 
1.6148669e+3, 1.4344178e+2, -1548762.5, -1457999.3, -17389.553, -0.22338536, -0.29407534, -1454781.6, 79453.15, 0.008418617, 9.999455, 10.000672 
1.6148917e+3, 1.5344183e+2, -1479278.5, -1350056.0, 45771.8, -0.27732682, -0.3883484, -1335486.0, 100745.77, 0.0024150687, 9.999158, 10.000884 
1.6149169e+3, 1.634416e+2, -1460764.6, -1424522.8, 39004.832, -0.29873294, -0.43743625, -1399635.0, -61401.445, 0.0002938315, 9.999189, 9.9996805 
1.6149428e+3, 1.7344122e+2, -1259838.8, -1279707.5, 19306.959, -0.18520305, -0.45245832, -1248060.1, -7819.694, 0.000004294035, 9.999909, 9.999654 
1.6149688e+3, 1.8344127e+2, -1104194.9, -1084923.5, 34431.9, -0.12536922, -0.4278293, -1058804.4, 83437.555, 0.0, 10.00001, 10.000267 
1.614994e+3, 1.9344224e+2, -1147723.6, -1022374.9, 88535.71, -0.18267533, -0.396552, -976575.06, 67656.76, 0.0, 9.998893, 10.000564 
1.6150184e+3, 2.0344289e+2, -1200951.5, -1129757.0, -6552.959, -0.20572032, -0.3259337, -1129158.9, -182932.67, 0.0, 9.998433, 9.999377 
1.615042e+3, 2.134432e+2, -970012.75, -967181.3, -70799.56, -0.1520477, -0.24067667, -897783.3, -49557.223, 0.0, 9.99935, 9.999373 
1.6150662e+3, 2.2344296e+2, -783856.8, -821093.25, -24184.76, -0.0907848, -0.19141462, -771953.9, -21723.691, 0.0, 9.999928, 9.999425 
1.6150919e+3, 2.3344196e+2, -658484.44, -681594.2, 35741.438, -0.02681551, -0.26644638, -632476.44, 19762.629, 0.0, 9.999999, 9.999671 
1.615117e+3, 2.43441e+2, -567888.94, -618296.25, 43816.44, 0.0023187436, -0.30805504, -542544.56, 11702.892, 0.0, 10.000069, 9.999412 
1.6151416e+3, 2.534403e+2, -445752.8, -487700.44, 35969.34, -0.030810973, -0.34800676, -425088.97, 31163.576, 0.00000000987263, 10.000154, 9.999588 
1.615166e+3, 2.6343924e+2, -379006.06, -477042.75, -14716.394, -0.037518878, -0.37211022, -376844.63, -18583.371, 0.000004852554, 10.000252, 9.998937 
1.6151902e+3, 2.7343786e+2, -249284.08, -353345.56, -20192.723, 0.01082577, -0.4243922, -245503.13, 14770.507, 0.00006378427, 10.000428, 9.999027 
1.6152148e+3, 2.83437e+2, -106966.33, -232755.67, 11189.916, 0.050561022, -0.40044388, -105978.66, 56302.258, 0.0003243143, 10.000703, 9.999063 
1.6152394e+3, 2.93437e+2, 73789.34, -65770.63, 45480.844, 0.044689063, -0.348279, 87302.54, 151581.64, 0.0010147488, 10.001149, 9.999318 
1.615264e+3, 3.0343476e+2, 14168.028, -192867.2, 49170.242, 0.046222027, -0.44361186, 25252.373, 25252.373, 0.002213579, 10.000976, 9.998179 
1.61529e+3, 3.134346e+2, -62215.465, -47341.734, 67117.69, 0.16314766, -0.2987102, 12749.849, 12749.849, 0.003751188, 9.999658, 9.999806 
1.624817e+3, 1.2341608e+2, -1737461.6, -1667148.0, 55732.215, -0.10925387, -0.27749053, -1636410.4, 94078.91, 0.03179242, 9.999556, 10.000545 
1.6248406e+3, 1.3341594e+2, -1696004.5, -1636033.1, -3486.636, -0.24504188, -0.31553116, -1635831.1, -3340.783, 0.019603958, 9.999356, 10.000172 
1.6248664e+3, 1.4341661e+2, -1602347.3, -1454733.9, 28621.203, -0.17707029, -0.28742117, -1449378.8, 85103.67, 0.009062119, 9.998972, 10.000924 
1.624891e+3, 1.5341689e+2, -1465768.3, -1305166.5, 4925.2637, -0.25923407, -0.38899556, -1305015.6, 131460.19, 0.002624408, 9.999102, 10.001208 
1.624916e+3, 1.6341688e+2, -1449734.9, -1397683.6, -5319.806, -0.29331487, -0.442769, -1397145.5, -58670.902, 0.00032476612, 9.999184, 9.999861 
1.6249423e+3, 1.7341653e+2, -1354274.6, -1306878.1, 29985.023, -0.19467226, -0.4713571, -1292357.1, -51876.0, 0.000005034694, 9.999191, 9.999807 
1.6249682e+3, 1.8341666e+2, -1204728.5, -1112691.6, 49184.56, -0.14207652, -0.45030302, -1091354.3, 51126.992, 0.0, 9.999232, 10.000455 
1.624993e+3, 1.9341803e+2, -1051586.9, -945962.3, 23859.764, -0.19246556, -0.40264368, -940822.7, 103643.9, 0.0, 9.999438, 10.00082 
1.6250175e+3, 2.0341875e+2, -1012996.25, -1065696.0, -30493.945, -0.20061545, -0.33018297, -999044.8, -52584.547, 0.0, 9.999837, 9.99914 
1.625042e+3, 2.1341848e+2, -814155.8, -930134.8, -18404.334, -0.13205473, -0.27089977, -811305.3, 37161.78, 0.0, 10.000579, 9.999041 
1.6250667e+3, 2.2341798e+2, -627376.44, -727424.25, 33283.03, -0.07131065, -0.23631239, -617315.8, 133158.08, 0.0, 10.000916, 9.999597 
1.6250919e+3, 2.3341736e+2, -562377.56, -609062.3, 13659.086, -0.042254426, -0.29792315, -558674.9, 93802.35, 0.0, 10.000537, 9.999916 
1.6251168e+3, 2.4341653e+2, -576323.4, -642007.6, -7112.619, -0.029234797, -0.32986206, -575562.0, -21078.627, 0.0, 10.000095, 9.99923 
1.625141e+3, 2.5341555e+2, -543940.94, -567341.7, -25347.328, -0.06197638, -0.37298533, -527723.8, -71230.7, 0.000000011745934, 9.999606, 9.999307 
1.6251656e+3, 2.6341426e+2, -458519.2, -518602.94, -25747.818, -0.059943605, -0.4014141, -448995.1, -90490.125, 0.0000048598445, 9.999718, 9.99891 
1.6251908e+3, 2.7341285e+2, -172652.36, -313928.8, -29776.396, 0.0066992696, -0.45994142, -166632.95, 93884.34, 0.000062331186, 10.0009365, 9.999055 
1.6252156e+3, 2.8341192e+2, -65777.516, -224876.69, -45359.066, 0.05357088, -0.4376332, -53754.277, 108770.53, 0.0003208773, 10.001045, 9.998948 
1.6252394e+3, 2.934121e+2, -232508.2, -233658.84, -101185.09, 0.038349327, -0.35712993, -131896.8, -67373.87, 0.0010017914, 9.999127, 9.99914 
1.6252637e+3, 3.0341035e+2, -322047.1, -362777.66, -65894.54, 0.036570366, -0.38275284, -273442.56, -273442.56, 0.002173294, 9.998679, 9.9981365 
1.6252902e+3, 3.1340972e+2, 147618.83, 57647.01, -48855.375, 0.14343336, -0.27702165, 169045.13, 169045.13, 0.0036599205, 10.001022, 9.999909 
1.634817e+3, 1.2338927e+2, -1679458.5, -1562099.8, -25850.262, -0.08483853, -0.35066634, -1556658.1, 174095.95, 0.03398967, 9.9996195, 10.001254 
1.6348378e+3, 1.3338922e+2, -1620435.4, -1482885.0, -11818.501, -0.47497362, -0.4786255, -1481876.9, 150873.81, 0.02102759, 9.999364, 10.00124 
1.6348642e+3, 1.4339113e+2, -1622870.1, -1513210.6, 16908.156, -0.29985186, -0.37103754, -1510662.9, 24066.885, 0.009775217, 9.999033, 10.000492 
1.6348918e+3, 1.5339153e+2, -1519336.6, -1414328.3, 16198.769, -0.10990758, -0.39219132, -1411886.3, 24839.428, 0.002860367, 9.999091, 10.000463 
1.6349176e+3, 1.6339226e+2, -1398485.6, -1294779.0, -10724.563, -0.06911924, -0.35797897, -1293681.5, 45037.766, 0.00036087315, 9.999198, 10.000561 
1.6349404e+3, 1.7339365e+2, -1289614.4, -1167190.5, 31888.31, -0.30717874, -0.30540884, -1159382.4, 81325.65, 0.000005927034, 9.999172, 10.000774 
1.6349651e+3, 1.8339449e+2, -1224533.0, -1161436.0, 50109.535, -0.37484193, -0.25808853, -1133770.8, 8929.749, 0.0, 9.999257, 10.000112 
1.6349931e+3, 1.9339469e+2, -1094744.3, -1032644.25, 37579.527, -0.11981777, -0.27132726, -1014946.7, 29749.426, 0.0, 9.999423, 10.000235 
1.6350201e+3, 2.0339407e+2, -982262.8, -993302.5, -11499.052, 0.04257651, -0.3197663, -975027.4, -28327.127, 0.0, 9.999798, 9.999657 
1.6350442e+3, 2.133922e+2, -774700.06, -830644.1, 15196.434, 0.021544045, -0.49181116, -770838.7, 77878.8, 0.0, 10.000501, 9.999763 
1.6350679e+3, 2.2339115e+2, -672029.0, -794048.94, 20752.771, -0.050687946, -0.5367058, -668596.0, 82131.67, 0.0, 10.000798, 9.999197 
1.635091e+3, 2.3339188e+2, -617191.94, -702596.7, 5180.5674, -0.19785976, -0.4050863, -616878.9, 35843.152, 0.0, 10.000448, 9.999317 
1.6351151e+3, 2.4339192e+2, -612612.3, -692714.3, -29481.59, -0.21513027, -0.3029902, -602931.56, -48208.203, 0.0, 9.99999, 9.998933 
1.6351412e+3, 2.5339088e+2, -567290.0, -602484.44, -36178.863, -0.009136002, -0.3253196, -544655.75, -87920.04, 0.000000006263202, 9.999554, 9.999088 
1.6351669e+3, 2.6338974e+2, -456802.8, -508310.63, 7117.6206, 0.08372203, -0.33201143, -455837.34, -97089.94, 0.000005059976, 9.99968, 9.999004 
1.6351914e+3, 2.733886e+2, -178019.25, -300204.03, 28379.203, -0.027344344, -0.38311183, -171749.5, 89006.836, 0.000060572125, 10.000824, 9.999207 
1.6352159e+3, 2.8338727e+2, -141878.89, -353214.44, -102865.766, -0.03164691, -0.3771824, -100077.87, 62690.62, 0.00031406162, 10.00092, 9.998126 
1.6352396e+3, 2.9338607e+2, -307192.3, -381550.25, -162030.61, 0.14710863, -0.3254615, -178129.9, -113347.28, 0.0009813922, 9.999106, 9.998132 
1.6352633e+3, 3.0338454e+2, -322135.34, -357445.97, -6111.593, 0.12473447, -0.2741682, -321107.47, -321107.47, 0.0021163202, 9.998658, 9.998181 
1.6352874e+3, 3.1338394e+2, 122506.5, 70713.56, 63267.453, -0.25728828, -0.19869472, 164972.28, 164972.28, 0.0035357173, 10.000762, 10.000113 
1.6448168e+3, 1.2336432e+2, -1848824.1, -1691184.5, 23487.69, -0.010290386, -0.35525617, -1687759.4, 43241.293, 0.036383986, 9.998688, 10.000788 
1.6448371e+3, 1.3336474e+2, -1478373.5, -1393796.9, 33752.03, -0.52224106, -0.4486468, -1381978.9, 251014.95, 0.022584815, 10.000289, 10.001416 
1.6448638e+3, 1.4336696e+2, -1388847.1, -1413498.0, -2321.1025, -0.33080715, -0.31353727, -1388630.5, 146339.3, 0.010560797, 10.000709, 10.00038 
1.6448914e+3, 1.5336666e+2, -1481764.3, -1416590.3, 19228.164, -0.07043851, -0.387436, -1411340.3, 25631.72, 0.0031241647, 9.999424, 10.000295 
1.6449173e+3, 1.6336718e+2, -1461080.3, -1314168.1, 38119.56, 0.011841657, -0.36696765, -1304866.1, 34100.465, 0.0004029895, 9.99871, 10.000672 
1.6449398e+3, 1.7336923e+2, -1264084.3, -1135798.9, 17716.498, -0.28394306, -0.26480365, -1133397.3, 107550.57, 0.0000070009137, 9.999254, 10.000958 
1.6449645e+3, 1.8337011e+2, -1177408.6, -1149427.8, 14489.441, -0.377266, -0.21850012, -1143276.8, -338.052, 0.0, 9.999646, 9.999995 
1.644993e+3, 1.9336921e+2, -1040847.9, -1032607.3, 14703.366, -0.09378311, -0.32170156, -1021457.8, 23486.625, 0.0, 9.999903, 10.000004 
1.6450201e+3, 2.0336811e+2, -954849.2, -969662.4, -21405.045, 0.08525089, -0.4072614, -939605.5, 7347.1484, 0.0, 9.999934, 9.999756 
1.6450444e+3, 2.1336707e+2, -891341.5, -865739.6, -45747.813, 0.05441485, -0.5135081, -831035.56, 17926.05, 0.0, 9.999613, 9.999942 
1.6450682e+3, 2.233665e+2, -853631.56, -869758.7, -44669.02, -0.025211552, -0.5251021, -816304.1, -65336.89, 0.0, 9.99951, 9.999296 
1.645091e+3, 2.333669e+2, -698884.94, -733794.6, -24791.979, -0.19014822, -0.43298215, -686019.6, -33054.35, 0.0, 9.999853, 9.999392 
1.6451152e+3, 2.4336676e+2, -577026.5, -682417.44, -9555.645, -0.21371324, -0.35092047, -576167.1, -21198.326, 0.0, 10.000276, 9.998859 
1.6451415e+3, 2.5336596e+2, -382148.22, -526690.4, -18048.479, 0.0017934135, -0.33907512, -379928.66, 77050.38, 0.000000005166704, 10.000891, 9.998963 
1.6451673e+3, 2.6336512e+2, -291405.34, -425017.9, 30347.83, 0.10887779, -0.3107492, -284835.4, 74152.99, 0.000005473011, 10.000805, 9.99903 
1.6451919e+3, 2.7336425e+2, -360095.28, -382940.13, 23364.598, 0.009612093, -0.33410096, -345510.47, -84514.945, 0.000058693688, 9.9995575, 9.999245 
1.6452162e+3, 2.8336278e+2, -347461.88, -463058.63, -64137.016, -0.013472384, -0.34148604, -318922.47, -155912.69, 0.00030246936, 9.999572, 9.998013 
1.6452396e+3, 2.9336077e+2, 86909.26, -205825.61, -75707.98, 0.09801581, -0.3564845, 105329.94, 170360.86, 0.0009508184, 10.001892, 9.997988 
1.6452633e+3, 3.0335912e+2, 202118.1, -111662.69, 97863.93, 0.0831224, -0.31026235, 230138.34, 230138.34, 0.0020491271, 10.002269, 9.998134 
1.6452882e+3, 3.133579e+2, -182568.88, -118150.85, 102226.11, -0.13066345, -0.29070675, -43179.652, -43179.652, 0.0034089144, 9.998836, 9.999736 
1.6548155e+3, 1.2334148e+2, -1942003.8, -1898778.6, -19721.982, -0.037895724, -0.27817, -1891132.8, -159905.94, 0.03897044, 9.998756, 9.999312 
1.6548383e+3, 1.3334289e+2, -1535044.6, -1508071.0, 99340.79, -0.43705916, -0.1982117, -1421305.6, 211909.78, 0.024272982, 10.000268, 10.000628 
1.6548647e+3, 1.4334428e+2, -1378250.4, -1396903.0, -44290.11, -0.31862742, -0.104865365, -1342315.3, 192885.77, 0.0114189135, 10.000735, 10.000482 
1.6548896e+3, 1.5334243e+2, -1461831.6, -1373535.5, -26768.127, -0.19727807, -0.36257613, -1366054.3, 71158.82, 0.0034161112, 9.99942, 10.000592 
1.6549148e+3, 1.633418e+2, -1481657.1, -1373564.1, 42006.57, -0.12736435, -0.45551068, -1359159.4, -19944.572, 0.00045137366, 9.998768, 10.00024 
1.6549402e+3, 1.733434e+2, -1303690.3, -1217455.9, 44330.34, -0.17188695, -0.34671894, -1198732.4, 42466.582, 0.000008273259, 9.9992485, 10.0004015 
1.6549662e+3, 1.8334359e+2, -1177164.8, -1154321.6, 20804.6, -0.19118027, -0.33720958, -1142009.6, 1186.164, 0.0, 9.999664, 9.999956 
1.6549924e+3, 1.933416e+2, -1041549.1, -1025584.6, 29187.385, -0.15913513, -0.55243224, -1003307.6, 41903.97, 0.0, 9.9998665, 10.0000725 
1.655018e+3, 2.0334098e+2, -984595.44, -1018040.06, -33618.12, -0.12749267, -0.5810942, -963770.3, -16553.629, 0.0, 9.999876, 9.999453 
1.6550429e+3, 2.1334317e+2, -926617.0, -923291.44, -52306.684, -0.08159181, -0.32929808, -872621.1, -23422.256, 0.0, 9.999545, 9.99958 
1.6550675e+3, 2.2334398e+2, -825235.2, -794932.9, -41291.586, -0.057787575, -0.20377064, -766100.5, -14907.493, 0.0, 9.999434, 9.999849 
1.6550921e+3, 2.333424e+2, -659542.94, -632785.5, -3662.2139, -0.07855169, -0.38414025, -632293.3, 20914.125, 0.0, 9.999768, 10.000128 
1.6551168e+3, 2.4334106e+2, -583504.06, -674400.94, 8901.47, -0.09163939, -0.46785966, -582640.56, -27420.877, 0.0, 10.000177, 9.998964 
1.6551417e+3, 2.5334066e+2, -397798.53, -536401.6, 12589.92, -0.07218978, -0.41609073, -396664.22, 60559.688, 0.00000000856411, 10.000796, 9.99894 
1.6551669e+3, 2.633402e+2, -311918.16, -452970.56, -10309.933, -0.025075471, -0.34041947, -311168.56, 48060.86, 0.0000057188686, 10.000734, 9.998877 
1.6551921e+3, 2.7333972e+2, -376855.53, -406581.9, -15769.376, 0.061575323, -0.30894113, -370048.75, -108812.72, 0.000057056757, 9.999506, 9.999109 
1.6552164e+3, 2.833384e+2, -318540.03, -391041.53, -2029.7467, 0.045315214, -0.31598708, -318483.25, -155234.02, 0.00029092102, 9.999508, 9.998544 
1.6552392e+3, 2.933359e+2, 114795.445, -117172.836, 24540.396, -0.1529207, -0.44783178, 117363.2, 182633.5, 0.00092205656, 10.001751, 9.998668 
1.6552635e+3, 3.0333376e+2, 152870.78, -156039.47, -2310.4631, -0.14131543, -0.48321983, 152888.06, 152888.06, 0.0019985014, 10.002042, 9.997927 
1.6552922e+3, 3.1333154e+2, -276432.1, -270653.78, -10881.456, 0.36966246, -0.52232164, -262284.47, -262284.47, 0.003328062, 9.99868, 9.998749 
1.6648151e+3, 1.2331893e+2, -1753932.8, -1853426.5, -11224.722, -0.033534743, -0.23642315, -1752682.1, -21234.488, 0.041736465, 10.000189, 9.998963 
1.6648394e+3, 1.3332042e+2, -1736363.4, -1627044.1, 188799.5, -0.2963749, -0.13267954, -1485151.1, 148284.69, 0.026087236, 9.998951, 10.000453 
1.6648649e+3, 1.433205e+2, -1697672.4, -1567426.8, 77070.91, -0.26869646, -0.15123123, -1531649.1, 3785.1335, 0.012349877, 9.998605, 10.000326 
1.6648887e+3, 1.5331925e+2, -1327943.0, -1310649.8, 61256.0, -0.266619, -0.34140542, -1257433.1, 180006.25, 0.003737191, 10.000356, 10.000569 
1.6649137e+3, 1.6331853e+2, -1185341.8, -1276962.6, 106841.29, -0.21080127, -0.427917, -1114903.9, 224537.78, 0.00050616945, 10.001025, 9.999801 
1.6649407e+3, 1.733185e+2, -1267929.1, -1261662.8, 92539.555, -0.08064899, -0.4278223, -1172203.4, 69237.53, 0.000009797576, 9.999761, 9.999845 
1.6649671e+3, 1.8331802e+2, -1280560.1, -1219737.9, 103945.68, -0.025077626, -0.44710547, -1141846.0, 1598.2528, 0.0, 9.9990225, 9.999814 
1.6649924e+3, 1.9331713e+2, -1080487.6, -1042255.7, 100171.98, -0.12612522, -0.5532684, -959392.06, 86058.54, 0.0, 9.999604, 10.00007 
1.6650173e+3, 2.0331691e+2, -985652.75, -1040688.3, 28037.535, -0.18460535, -0.5354156, -973885.3, -26433.025, 0.0, 9.999967, 9.999251 
1.6650417e+3, 2.1331817e+2, -893924.56, -936030.25, 3885.946, -0.152547, -0.35120884, -893568.9, -44125.56, 0.0, 9.9998865, 9.999333 
1.6650666e+3, 2.2331859e+2, -779794.3, -793673.4, 19713.904, -0.102294266, -0.24303553, -765834.2, -14392.514, 0.0, 9.999841, 9.999657 
1.6650923e+3, 2.3331769e+2, -651872.44, -649617.44, -21515.11, -0.037516024, -0.33551082, -629200.3, 24250.54, 0.0, 9.999909, 9.999938 
1.6651176e+3, 2.4331665e+2, -598824.1, -654486.06, -31536.383, -0.012290992, -0.39004484, -584594.3, -29133.92, 0.0, 9.999945, 9.999223 
1.6651422e+3, 2.533156e+2, -489691.16, -541931.94, -11483.698, -0.06413936, -0.43537322, -487278.22, -29809.832, 0.0000000057748837, 9.999988, 9.999298 
1.6651669e+3, 2.6331475e+2, -417844.2, -523741.97, -31817.64, -0.06069798, -0.40933195, -409019.72, -49542.9, 0.0000055479773, 10.000104, 9.998689 
1.6651917e+3, 2.733146e+2, -262016.52, -388753.66, -66402.68, 0.02579326, -0.31589636, -233597.88, 27885.326, 0.000055266635, 10.000451, 9.998778 
1.6652162e+3, 2.8331375e+2, -176103.7, -275279.7, -19297.422, 0.035802037, -0.27271214, -172481.17, -8988.069, 0.00028143296, 10.000276, 9.998971 
1.66524e+3, 2.9331204e+2, -214822.58, -209888.31, -12255.624, -0.10163925, -0.3815563, -199853.97, -134348.55, 0.00090243336, 9.999204, 9.999256 
1.6652648e+3, 3.033101e+2, -168557.63, -260675.45, -30334.28, -0.07872252, -0.45391002, -159465.9, -159465.9, 0.0019766411, 9.999602, 9.998387 
1.665293e+3, 3.1330764e+2, 278431.1, 711.4845, -12848.563, 0.38787472, -0.5500546, 279024.25, 279024.25, 0.0033124597, 10.002463, 9.998806 
1.6748147e+3, 1.23296365e+2, -1684775.5, -1696782.1, -91544.0, -0.11017358, -0.25695404, -1599038.1, 132628.22, 0.044670317, 10.000167, 10.000056 
1.6748397e+3, 1.3329732e+2, -1717275.4, -1576809.5, 139602.28, -0.15156148, -0.25600353, -1490768.8, 142885.61, 0.028026333, 9.998908, 10.000818 
1.6748638e+3, 1.4329562e+2, -1712342.9, -1602689.0, 122519.1, -0.24513814, -0.46386054, -1523288.9, 12379.707, 0.013357116, 9.998616, 10.000081 
1.6748886e+3, 1.5329728e+2, -1354398.9, -1367350.5, 140119.27, -0.32852906, -0.32925645, -1220605.9, 217043.94, 0.004090086, 10.000354, 10.000187 
1.674914e+3, 1.6329733e+2, -1216360.4, -1351017.0, 71636.21, -0.2954092, -0.2929227, -1185378.6, 154268.73, 0.0005678562, 10.001067, 9.999271 
1.6749407e+3, 1.7329468e+2, -1313189.6, -1348327.8, 45718.246, -0.05486032, -0.4977282, -1281780.9, -40108.223, 0.000011659807, 9.999736, 9.999261 
1.6749671e+3, 1.8329358e+2, -1289116.9, -1244789.1, 109074.19, 0.062434416, -0.53625447, -1155649.8, -11966.85, 0.0, 9.999043, 9.999638 
1.6749929e+3, 1.9329576e+2, -1090550.1, -1059958.6, 128295.18, -0.04855421, -0.32227874, -946050.6, 99610.805, 0.0, 9.999586, 9.999961 
1.6750178e+3, 2.0329584e+2, -994824.7, -1055226.8, 23372.648, -0.14532259, -0.2658542, -986836.94, -39176.902, 0.0, 9.999945, 9.999162 
1.6750413e+3, 2.1329205e+2, -913287.25, -960899.25, 6025.1367, -0.2050631, -0.57648, -912536.6, -62841.32, 0.0, 9.999813, 9.999201 
1.6750655e+3, 2.2329026e+2, -863392.7, -943192.6, 17530.854, -0.21322505, -0.63977224, -859711.25, -107997.49, 0.0, 9.999738, 9.998679 
1.6750915e+3, 2.3329274e+2, -743763.75, -823522.2, -12010.59, -0.11049641, -0.2835094, -741994.4, -88298.27, 0.0, 9.999836, 9.998779 
1.6751173e+3, 2.432934e+2, -582032.2, -601831.94, -34325.4, -0.03729811, -0.11607015, -556207.56, -515.5715, 0.0, 9.999864, 9.999623 
1.6751426e+3, 2.532908e+2, -452637.38, -443565.63, -2505.1335, -0.02864188, -0.38642672, -442919.8, 14792.145, 0.0000000017385277, 9.999896, 10.000016 
1.6751671e+3, 2.6328892e+2, -450014.44, -570375.94, -25163.04, -0.056691136, -0.4985983, -444965.6, -85236.125, 0.0000048816705, 10.00001, 9.998419 
1.6751905e+3, 2.7328876e+2, -308651.84, -465842.88, -42008.047, -0.1413428, -0.35887447, -298129.84, -36391.58, 0.00005151775, 10.000361, 9.998297 
1.6752152e+3, 2.8328863e+2, -173521.44, -245354.86, -52747.02, -0.10142668, -0.2225007, -145623.9, 18119.307, 0.00026894332, 10.000169, 9.9992285 
1.6752419e+3, 2.9328898e+2, -189876.05, -149111.48, -37646.066, 0.1608936, -0.1678256, -126684.15, -60946.68, 0.0008798074, 9.999156, 9.9997 
1.6752669e+3, 3.032878e+2, -116542.9, -119893.84, 51503.953, 0.18010153, -0.23332821, -66687.17, -66687.17, 0.0019595742, 9.999477, 9.999409 
1.6752905e+3, 3.1328583e+2, 308288.84, 134315.2, 124819.18, -0.13241191, -0.39162257, 373441.88, 373441.88, 0.0033249364, 10.002182, 9.99985 
1.6848144e+3, 1.23272985e+2, -1646890.9, -1633841.5, -80100.49, -0.16011359, -0.34565714, -1560000.4, 171890.69, 0.04776628, 10.000257, 10.000446 
1.68484e+3, 1.332737e+2, -1543054.3, -1565861.8, 21635.934, -0.09523535, -0.30825377, -1530000.8, 103880.445, 0.030093629, 10.000461, 10.000125 
1.6848631e+3, 1.4327127e+2, -1467145.4, -1509739.6, 7515.5615, -0.25833684, -0.5392775, -1465858.3, 70045.445, 0.0144471, 10.000416, 9.999851 
1.684889e+3, 1.5327339e+2, -1437646.5, -1422656.6, 29462.36, -0.27823088, -0.3420547, -1399750.9, 38132.504, 0.004479329, 9.999849, 10.000045 
1.684915e+3, 1.6327375e+2, -1419869.9, -1472927.6, -28460.902, -0.23230983, -0.25694513, -1407491.1, -67611.01, 0.0006375465, 9.999769, 9.999068 
1.6849409e+3, 1.7327121e+2, -1139593.0, -1279715.6, -34772.945, -0.07110429, -0.43336388, -1131438.4, 110466.21, 0.00001399049, 10.000993, 9.999126 
1.6849668e+3, 1.8327016e+2, -971184.5, -1111722.9, 45437.758, 0.023597073, -0.45109886, -957773.6, 186141.08, 0.0, 10.001322, 9.999448 
1.6849929e+3, 1.9327216e+2, -1042972.9, -1064641.8, 44659.22, -0.02507716, -0.23398261, -1007852.6, 38043.38, 0.0, 10.00002, 9.999726 
1.6850181e+3, 2.032719e+2, -1071435.8, -1077461.1, -30112.416, -0.083566606, -0.19997337, -1044185.6, -96288.266, 0.0, 9.999359, 9.999293 
1.6850415e+3, 2.1326777e+2, -870135.0, -908563.56, -31832.234, -0.15560912, -0.56542885, -852167.56, -2234.6497, 0.0, 9.999993, 9.999463 
1.6850658e+3, 2.2326563e+2, -746217.6, -875597.9, 35104.445, -0.1852887, -0.6844266, -737306.56, 14645.466, 0.0, 10.000484, 9.998793 
1.6850914e+3, 2.332676e+2, -620083.5, -751206.8, 85914.44, -0.138356, -0.38614038, -577572.9, 76363.92, 0.0, 10.00063, 9.998899 
1.685117e+3, 2.4326816e+2, -508055.16, -618951.9, 92004.836, -0.08321952, -0.22024883, -456081.88, 99851.94, 0.0, 10.000598, 9.999148 
1.6851425e+3, 2.5326607e+2, -444639.22, -512132.78, 14223.578, -0.033275243, -0.3821017, -441764.22, 16189.252, 0.0000000018399801, 10.000249, 9.999381 
1.6851674e+3, 2.6326427e+2, -458420.63, -547794.3, -32944.7, -0.021431036, -0.45175338, -447589.28, -87617.74, 0.0000039092515, 9.999836, 9.998653 
1.685191e+3, 2.7326354e+2, -413720.78, -465700.44, -4078.5771, -0.078826495, -0.41179287, -413402.72, -151419.33, 0.000046398793, 9.999434, 9.9987335 
1.6852158e+3, 2.832633e+2, -248578.17, -298504.44, 32707.89, -0.024499089, -0.30985332, -232395.66, -68407.125, 0.000254962, 9.999726, 9.999077 
1.6852427e+3, 2.932643e+2, 110014.93, -28343.275, -11967.255, 0.21198645, -0.16064504, 111042.4, 177019.9, 0.0008516298, 10.001326, 9.999483 
1.6852677e+3, 3.0326295e+2, 190070.78, 15984.545, 29972.672, 0.20324643, -0.23216183, 195086.69, 195086.69, 0.0019299267, 10.0016165, 9.999327 
1.6852912e+3, 3.132605e+2, -96650.266, -63978.152, 2078.8652, -0.11255226, -0.42567274, -63846.41, -63846.41, 0.003322302, 9.999356, 9.999875 
1.6948135e+3, 1.2324889e+2, -1659642.3, -1675098.5, -33830.32, -0.30905974, -0.505829, -1632668.6, 99451.92, 0.051028147, 10.000311, 10.000131 
1.6948396e+3, 1.3324957e+2, -1675941.0, -1837566.0, 33541.97, -0.19260202, -0.29086453, -1669256.5, -35139.715, 0.032295942, 10.000421, 9.99827 
1.6948628e+3, 1.4324746e+2, -1479252.1, -1543273.4, -15083.81, -0.3631227, -0.3754116, -1475876.4, 60264.023, 0.015627254, 10.000446, 9.999608 
1.6948901e+3, 1.5324774e+2, -1440565.5, -1427355.5, 8994.72, -0.17074697, -0.35814378, -1422801.1, 15338.185, 0.004910431, 9.999841, 10.00002 
1.6949165e+3, 1.6324781e+2, -1395679.6, -1430434.3, -1497.6384, -0.087136455, -0.31213906, -1395615.1, -55475.367, 0.0007170378, 9.999796, 9.999348 
1.6949409e+3, 1.7324816e+2, -1117173.0, -1235993.8, 17356.32, -0.17733108, -0.23080239, -1114689.6, 127446.67, 0.000016975888, 10.000998, 9.999428 
1.6949661e+3, 1.832478e+2, -983998.5, -1145990.6, 5068.2188, -0.20363137, -0.18702234, -983840.06, 160299.56, 0.0, 10.00135, 9.9992 
1.6949922e+3, 1.9324629e+2, -1074804.8, -1123470.0, -2496.0164, -0.10962476, -0.28372598, -1074677.1, -28522.648, 0.0, 9.999989, 9.999338 
1.6950178e+3, 2.0324518e+2, -1055442.0, -1029766.4, -25037.414, -0.051180013, -0.32815126, -1014467.4, -66303.81, 0.0, 9.999297, 9.999651 
1.6950426e+3, 2.132453e+2, -844154.94, -842073.25, -1332.6389, -0.05913198, -0.31866142, -841423.1, 8733.6045, 0.0, 9.999933, 9.999952 
1.6950673e+3, 2.2324456e+2, -671022.94, -700590.5, 37537.484, -0.09288666, -0.37828967, -645462.94, 106695.03, 0.0, 10.000404, 10.0000305 
1.6950917e+3, 2.332423e+2, -541197.8, -562829.5, 99357.48, -0.17708163, -0.63938326, -452069.22, 202104.03, 0.0, 10.000521, 10.000248 
1.6951166e+3, 2.4324082e+2, -623669.1, -824419.06, 77228.695, -0.2067197, -0.70065004, -597397.3, -41210.137, 0.0, 10.000452, 9.9978075 
1.695142e+3, 2.532412e+2, -591064.4, -795309.8, 9510.861, -0.12552752, -0.42594227, -590622.44, -132428.36, 0.0000000033657745, 10.000163, 9.997477 
1.6951673e+3, 2.6324075e+2, -425104.44, -459438.38, -49395.727, -0.023369297, -0.2805504, -389977.6, -29772.818, 0.0000030031388, 9.999752, 9.9993 
1.6951926e+3, 2.732389e+2, -343306.13, -301654.3, -9542.474, 0.13672587, -0.4687752, -299572.2, -37352.07, 0.000041424442, 9.999363, 9.99989 
1.695218e+3, 2.8323767e+2, -296820.94, -382057.3, 73838.42, 0.19482979, -0.50891834, -254184.06, -89954.06, 0.00024197955, 9.999651, 9.998543 
1.6952422e+3, 2.9323795e+2, 34924.89, -162078.98, 57982.41, 0.023236489, -0.35087037, 50723.4, 116951.234, 0.00082078995, 10.001224, 9.998618 
1.6952668e+3, 3.0323532e+2, 84897.9, -155042.97, -36211.25, -0.054124996, -0.4482868, 90243.7, 90243.7, 0.0018795029, 10.001429, 9.998234 
1.6952944e+3, 3.1323233e+2, -180987.17, -171285.08, -50870.207, 0.26233423, -0.5867926, -125035.15, -125035.15, 0.00326918, 9.999099, 9.999244 
1.7048135e+3, 1.232255e+2, -1820273.5, -1743802.8, -32473.867, -0.26662275, -0.49375114, -1731873.4, 474.09415, 0.054460447, 9.999122, 10.000224 
1.7048398e+3, 1.3322477e+2, -1841898.3, -1948768.4, 74379.43, -0.15386103, -0.3898556, -1803749.5, -169391.97, 0.034638863, 9.999398, 9.998007 
1.704863e+3, 1.432232e+2, -1613364.3, -1651701.1, 99244.055, -0.33504507, -0.39129543, -1531454.4, 4921.8125, 0.016903277, 9.99973, 9.999203 
1.7048901e+3, 1.5322295e+2, -1416628.0, -1465228.9, 71001.98, -0.16156964, -0.3820215, -1365883.1, 72498.46, 0.00538814, 10.000234, 9.999563 
1.7049164e+3, 1.6322283e+2, -1273782.3, -1324925.4, 75027.17, -0.09645552, -0.34504232, -1220088.5, 120295.28, 0.0008082668, 10.000429, 9.999768 
1.7049412e+3, 1.7322378e+2, -1182849.8, -1196679.1, 111208.03, -0.20382535, -0.26353604, -1078341.6, 164030.36, 0.000020835996, 10.000241, 10.000065 
1.7049664e+3, 1.8322353e+2, -1167786.6, -1275963.4, 91483.73, -0.2336193, -0.23314692, -1115597.9, 28775.78, 0.0, 10.000267, 9.998836 
1.7049924e+3, 1.9322102e+2, -982993.2, -1140437.8, 54096.258, -0.12595668, -0.3736134, -966197.94, 80202.76, 0.0, 10.000885, 9.998792 
1.7050181e+3, 2.0321961e+2, -804367.6, -931824.75, 33100.05, -0.041945662, -0.40820777, -796284.3, 152130.48, 0.0, 10.001126, 9.999432 
1.7050433e+3, 2.132207e+2, -739809.94, -810579.0, -1042.4597, -0.014929475, -0.2854717, -739794.56, 110605.06, 0.0, 10.000731, 9.999782 
1.705068e+3, 2.2322035e+2, -697103.6, -716179.4, -33040.977, -0.033591572, -0.2943529, -672251.44, 80146.21, 0.0, 10.000244, 9.999997 
1.7050922e+3, 2.3321737e+2, -671588.1, -622365.5, -89918.125, -0.13397971, -0.6272577, -553751.4, 100668.055, 0.0, 9.999621, 10.000261 
1.7051166e+3, 2.432157e+2, -730145.44, -814638.75, -86315.94, -0.17879747, -0.72815335, -676292.06, -119858.31, 0.0, 9.999458, 9.998358 
1.7051421e+3, 2.5321677e+2, -532024.2, -686072.6, 20311.955, -0.12279121, -0.45101085, -529391.0, -70959.945, 0.0000000026261497, 10.000225, 9.998195 
1.7051674e+3, 2.6321676e+2, -277559.44, -386639.44, 52628.605, -0.022989798, -0.30579767, -256307.73, 104127.64, 0.0000021613648, 10.000762, 9.999316 
1.7051929e+3, 2.73215e+2, -134385.75, -219318.2, -15743.703, 0.15439141, -0.46899658, -131561.31, 130888.37, 0.000036573332, 10.000872, 9.999738 
1.7052183e+3, 2.8321338e+2, -145000.38, -373332.7, 58423.984, 0.21152791, -0.5131598, -130919.6, 33544.242, 0.00022739316, 10.000982, 9.997958 
1.705243e+3, 2.932121e+2, -26032.338, -269300.22, 42197.625, -0.0004852567, -0.44039834, -18920.578, 47557.773, 0.0007810647, 10.0011425, 9.997922 
1.7052679e+3, 3.0320892e+2, 18788.664, -171684.25, -70787.06, -0.06872454, -0.5562074, 42214.715, 42214.715, 0.0017958801, 10.000905, 9.9983635 
1.7052948e+3, 3.132077e+2, 13892.206, -15095.203, -22595.04, 0.35523134, -0.55680937, 26242.555, 26242.555, 0.0031408968, 10.000151, 9.9998045 
1.7148143e+3, 1.2320282e+2, -1795778.1, -1676505.1, 24659.645, -0.1320671, -0.31511998, -1671607.9, 60964.4, 0.058051143, 9.9990425, 10.000743 
1.7148404e+3, 1.3319972e+2, -1757079.1, -1758301.5, 92416.75, -0.04140845, -0.57865846, -1665271.5, -30671.924, 0.037118543, 9.999347, 9.999334 
1.714864e+3, 1.4319865e+2, -1640675.0, -1728466.8, 113894.164, -0.24426688, -0.5836833, -1562510.5, -25900.89, 0.018276531, 9.999795, 9.998653 
1.7148891e+3, 1.5319894e+2, -1486803.8, -1610787.8, 97132.22, -0.31306258, -0.42820343, -1433567.0, 5043.9, 0.005915651, 10.00022, 9.998575 
1.7149147e+3, 1.6319884e+2, -1231741.3, -1236730.3, 63242.04, -0.32136324, -0.35720575, -1170944.5, 169667.48, 0.0009130136, 10.000429, 10.00037 
1.7149416e+3, 1.731982e+2, -1123277.6, -1064537.9, 108165.055, -0.19924508, -0.5255775, -981826.25, 260784.25, 0.000025810483, 10.000209, 10.000985 
1.714968e+3, 1.8319732e+2, -1199293.5, -1342371.4, 105205.586, -0.12134453, -0.5921365, -1143608.0, 1008.65283, 0.0, 10.000266, 9.998382 
1.7149933e+3, 1.9319634e+2, -1038854.75, -1253388.1, 84946.2, -0.12925051, -0.510206, -1009293.06, 37341.547, 0.0, 10.000868, 9.998027 
1.7150185e+3, 2.0319517e+2, -865145.8, -1052459.1, 19823.182, -0.12421541, -0.4408385, -863070.9, 85580.26, 0.0, 10.001101, 9.998616 
1.7150435e+3, 2.1319397e+2, -810655.3, -937432.6, -10718.677, -0.07513546, -0.46621525, -809755.44, 40906.29, 0.0, 10.000645, 9.998952 
1.7150682e+3, 2.2319295e+2, -803322.3, -914315.56, -58396.93, -0.048285663, -0.4395244, -778257.9, -25586.367, 0.0, 10.000144, 9.998688 
1.7150925e+3, 2.3319273e+2, -780278.3, -831460.75, -105433.0, -0.068999104, -0.3550817, -697375.2, -42699.77, 0.0, 9.999549, 9.998863 
1.7151172e+3, 2.4319261e+2, -576063.0, -476443.22, -69421.11, -0.08261255, -0.31710956, -440811.22, 115863.65, 0.0, 9.999377, 10.000717 
1.7151429e+3, 2.531926e+2, -324699.03, -234966.58, 56719.816, -0.08002068, -0.45934668, -207513.27, 251152.52, 0.0000000000058928205, 10.000134, 10.001337 
1.7151679e+3, 2.631922e+2, -335115.78, -481739.97, 52387.184, -0.07285691, -0.51306534, -318321.94, 42342.906, 0.0000014626683, 10.000657, 9.998715 
1.7151916e+3, 2.7319166e+2, -249019.77, -428108.34, -5306.563, -0.062054053, -0.41871294, -248862.67, 13811.276, 0.000032081512, 10.000751, 9.998362 
1.7152171e+3, 2.8319016e+2, -210565.88, -484821.5, 58835.156, -0.023965752, -0.34265137, -198477.03, -33784.824, 0.00021176567, 10.00087, 9.997251 
1.7152448e+3, 2.931867e+2, -84319.53, -361968.88, 62140.375, 0.051502984, -0.43067855, -71046.484, -4317.159, 0.0007336498, 10.001019, 9.997346 
1.7152701e+3, 3.0318367e+2, 71869.46, -19521.021, -99562.336, 0.06688169, -0.5423902, 135721.98, 135721.98, 0.0016880672, 10.000734, 9.999491 
1.7152928e+3, 3.1318533e+2, 94848.74, 220764.58, -22016.328, 0.10540594, -0.4014231, 224503.13, 224503.13, 0.0029604107, 9.999888, 10.001548 
1.7248148e+3, 1.23178266e+2, -1803471.6, -1746085.8, 81320.67, 0.0072480137, -0.3056743, -1688544.5, 44268.33, 0.06177432, 9.99929, 10.000135 
1.7248398e+3, 1.3317603e+2, -1523394.4, -1596013.1, 36833.063, -0.095196426, -0.52337503, -1507983.0, 126850.05, 0.039721623, 10.000781, 9.999759 
1.7248642e+3, 1.4317535e+2, -1393571.3, -1596852.3, 16880.08, -0.2615718, -0.5142586, -1392179.1, 144659.33, 0.019743169, 10.001457, 9.998757 
1.7248891e+3, 1.5317476e+2, -1423424.4, -1569120.1, 54213.848, -0.33368817, -0.4571054, -1405465.0, 33380.387, 0.006494274, 10.000588, 9.998694 
1.7249146e+3, 1.6317412e+2, -1343224.8, -1318137.6, 54775.46, -0.32563278, -0.43489277, -1274487.9, 66362.48, 0.001032908, 9.999789, 10.000117 
1.7249416e+3, 1.7317331e+2, -1260919.9, -1165010.1, -8367.637, -0.17272241, -0.5898907, -1164285.5, 78567.055, 0.00003215152, 9.999418, 10.00067 
1.7249681e+3, 1.8317264e+2, -1312858.8, -1353960.3, -2534.1792, -0.07437092, -0.6315066, -1312703.1, -167845.06, 0.0, 9.999299, 9.998768 
1.7249939e+3, 1.9317274e+2, -1136235.0, -1235428.8, 67524.68, -0.10365166, -0.49317393, -1102049.8, -55184.977, 0.0, 9.999921, 9.998603 
1.7250192e+3, 2.0317218e+2, -955346.8, -1098178.9, 76177.305, -0.111328065, -0.39778018, -922344.3, 26531.287, 0.0, 10.000489, 9.998605 
1.7250443e+3, 2.1317041e+2, -765447.3, -930412.6, 83626.71, -0.064944014, -0.4651491, -730470.1, 120422.29, 0.0, 10.001013, 9.998829 
1.7250691e+3, 2.2316909e+2, -685166.2, -917651.44, 85477.12, -0.033479378, -0.43975106, -657122.0, 95784.64, 0.0, 10.001228, 9.998136 
1.7250928e+3, 2.3316903e+2, -619552.25, -827320.1, 77192.8, -0.050151747, -0.27553153, -594012.1, 60899.4, 0.0, 10.000975, 9.998202 
1.7251174e+3, 2.4316852e+2, -402269.13, -401295.72, 99834.64, -0.04871476, -0.23441646, -301946.6, 254968.42, 0.0, 10.000617, 10.000632 
1.7251435e+3, 2.5316724e+2, -325361.88, -230570.67, -4979.6636, -0.021874975, -0.5060153, -230309.8, 228604.33, 0.0000000000049057277, 10.00012, 10.001369 
1.7251688e+3, 2.631662e+2, -440142.03, -558991.94, -109786.49, -0.009136045, -0.61373246, -374729.47, -13812.443, 0.0000011502509, 10.000054, 9.99847 
1.7251927e+3, 2.7316618e+2, -254257.45, -465454.2, -104407.914, -0.032740425, -0.44008294, -211356.58, 51565.973, 0.000029088935, 10.000856, 9.998053 
1.7252178e+3, 2.83165e+2, -140051.94, -416972.6, 28932.33, -0.025535455, -0.32569027, -137061.42, 27876.693, 0.0002003837, 10.001214, 9.997543 
1.7252454e+3, 2.9316163e+2, -89824.234, -318688.2, 72796.875, 0.018989494, -0.4456275, -68631.5, -1658.1313, 0.0006934616, 10.000792, 9.997743 
1.7252709e+3, 3.0315906e+2, 45736.004, -71752.24, -73018.32, 0.07024462, -0.52160954, 80707.125, 80707.125, 0.0015933388, 10.000704, 9.999163 
1.7252935e+3, 3.1316042e+2, 254665.11, 228268.7, -147810.58, 0.13215734, -0.35861847, 389865.56, 389865.56, 0.0027992886, 10.001242, 10.000978 
1.7348145e+3, 1.2315176e+2, -1918694.6, -1995175.9, 92172.97, 0.016595906, -0.48124725, -1857144.5, -124074.734, 0.06561491, 9.999333, 9.99839 
1.7348377e+3, 1.3315378e+2, -1571819.6, -1686437.6, 98203.41, -0.39052057, -0.21502556, -1515426.3, 119630.58, 0.042436883, 10.0007305, 9.999162 
1.7348638e+3, 1.4315331e+2, -1340094.3, -1485541.8, -8275.017, -0.46295622, -0.17685297, -1339625.0, 197438.31, 0.021297567, 10.001466, 9.99952 
1.7348902e+3, 1.5315053e+2, -1340319.0, -1390896.9, 24425.88, -0.29106402, -0.45585018, -1330448.9, 108635.055, 0.0071235094, 10.000574, 9.999922 
1.7349163e+3, 1.631488e+2, -1414044.6, -1480942.5, 31056.744, -0.17248091, -0.56920815, -1401849.9, -60752.156, 0.0011691477, 9.999841, 9.998981 
1.7349412e+3, 1.731491e+2, -1377969.4, -1410710.6, -18852.854, -0.1697285, -0.45274255, -1369371.5, -126273.05, 0.00004011834, 9.999417, 9.998991 
1.7349668e+3, 1.8314943e+2, -1227726.5, -1177001.0, 4099.776, -0.15013456, -0.34429723, -1176671.8, -31573.656, 0.0, 9.9993, 9.99998 
1.7349939e+3, 1.931502e+2, -1016958.94, -971738.94, 94893.305, -0.09721659, -0.3178281, -896799.2, 150292.63, 0.0, 9.999853, 10.000445 
1.7350206e+3, 2.031505e+2, -904420.56, -984737.4, 89199.09, -0.057314742, -0.2785735, -846756.8, 102332.46, 0.0, 10.000448, 9.999405 
1.7350456e+3, 2.1315005e+2, -737578.7, -855943.44, 108352.85, -0.043955207, -0.27472806, -673298.94, 177792.63, 0.0, 10.0009365, 9.999378 
1.73507e+3, 2.2314875e+2, -689464.4, -904201.4, 74762.29, -0.061950583, -0.28508526, -665999.4, 87103.94, 0.0, 10.001132, 9.998272 
1.7350931e+3, 2.3314615e+2, -630028.9, -826560.3, 72555.164, -0.12953475, -0.3838244, -606145.5, 48983.965, 0.0, 10.000879, 9.998251 
1.7351174e+3, 2.4314338e+2, -587955.1, -761713.75, 77453.54, -0.12858498, -0.46972826, -558442.56, -1287.4393, 0.0, 10.000509, 9.998211 
1.7351438e+3, 2.5314075e+2, -542841.2, -662577.0, -12773.401, -0.003432692, -0.5864015, -541493.7, -82318.14, 0.000000000000012544113, 10.00004, 9.99844 
1.73517e+3, 2.6313883e+2, -449038.97, -558229.1, -88331.234, 0.097942136, -0.613407, -399792.66, -38601.37, 0.0000010511417, 9.9999695, 9.998517 
1.7351955e+3, 2.7313867e+2, -220641.95, -369560.75, -61121.336, 0.15571386, -0.5164218, -198768.5, 64425.39, 0.000028849088, 10.000751, 9.998758 
1.7352207e+3, 2.8313807e+2, -76068.59, -266517.28, 15673.052, 0.112065196, -0.4328944, -74787.39, 90412.88, 0.00019663657, 10.001124, 9.998625 
1.7352447e+3, 2.931365e+2, -25652.904, -159762.44, 66429.34, -0.1463178, -0.49010143, 1680.8882, 68895.375, 0.00067244127, 10.000677, 9.998891 
1.7352697e+3, 3.031347e+2, -93185.28, -315118.75, -65851.77, -0.12182927, -0.4918698, -75116.86, -75116.86, 0.0015435342, 10.000524, 9.997565 
1.7352962e+3, 3.131324e+2, 14395.697, -174750.17, -99228.516, 0.2554418, -0.48695648, 56900.617, 56900.617, 0.0027222822, 10.000866, 9.9983635 
1.7448145e+3, 1.2312565e+2, -1666100.0, -1879562.4, -24969.443, 0.0054716286, -0.5168872, -1663218.1, 70109.23, 0.06957688, 10.0011425, 9.998318 
1.7448379e+3, 1.3312878e+2, -1668080.6, -1695756.0, 89747.8, -0.3954196, -0.16876535, -1591110.0, 44193.64, 0.045260757, 9.999877, 9.999515 
1.7448653e+3, 1.4312808e+2, -1654727.4, -1599416.4, 15506.449, -0.32988402, -0.18544342, -1595365.8, -58053.43, 0.022935338, 9.999117, 9.999862 
1.7448908e+3, 1.5312634e+2, -1486534.4, -1413981.1, -31637.1, -0.21718706, -0.40123573, -1402123.5, 37199.453, 0.0078018596, 9.999371, 10.000338 
1.7449161e+3, 1.631251e+2, -1456121.3, -1532530.6, -9904.71, -0.14484107, -0.4809606, -1454858.3, -113525.375, 0.0013223152, 9.999687, 9.998703 
1.7449407e+3, 1.7312475e+2, -1265630.4, -1405468.0, 22588.498, -0.18467103, -0.38476822, -1262072.1, -18730.521, 0.000049909977, 10.000397, 9.998558 
1.7449664e+3, 1.8312484e+2, -1011002.9, -1032532.6, 80502.47, -0.19014826, -0.28884414, -940548.75, 204795.19, 0.0000000000000006446772, 10.000617, 10.000334 
1.7449935e+3, 1.9312616e+2, -974333.6, -890892.06, 61216.258, -0.12696753, -0.26234266, -858531.44, 188798.25, 0.0, 9.999882, 10.000984 
1.7450203e+3, 2.031268e+2, -1014418.56, -985385.3, 16675.361, -0.062067717, -0.23742379, -977793.1, -28471.533, 0.0, 9.999473, 9.999865 
1.7450464e+3, 2.1312632e+2, -842627.3, -853325.8, 14942.236, -0.0066375467, -0.28337884, -832105.7, 19218.063, 0.0, 9.99999, 9.9998455 
1.7450714e+3, 2.2312509e+2, -762333.9, -913585.56, -21576.088, -0.007326439, -0.32162577, -759316.25, -5982.1377, 0.0, 10.00051, 9.998517 
1.745094e+3, 2.3312294e+2, -598225.6, -791011.5, -26587.525, -0.11922277, -0.39244276, -594626.06, 60729.516, 0.0, 10.001001, 9.998444 
1.7451182e+3, 2.4312033e+2, -512618.0, -808609.8, 36226.12, -0.13520907, -0.4452173, -508248.84, 49131.67, 0.0, 10.001387, 9.99746 
1.7451449e+3, 2.5311705e+2, -380865.3, -693645.56, 71172.88, 0.026947053, -0.5319773, -365431.53, 93977.98, 0.0, 10.001619, 9.997463 
1.7451712e+3, 2.6311436e+2, -209343.44, -452526.3, 99421.484, 0.15761, -0.5750552, -173870.84, 187562.27, 0.0000010008785, 10.001658, 9.99843 
1.7451969e+3, 2.7311334e+2, -105018.12, -302259.13, 74664.11, 0.19063753, -0.57435095, -79942.49, 183498.44, 0.00002996529, 10.00149, 9.998867 
1.7452219e+3, 2.8311244e+2, -51566.527, -241140.42, 91118.1, 0.12738538, -0.5328889, -14873.155, 150575.13, 0.00019663884, 10.001256, 9.99873 
1.7452458e+3, 2.9311147e+2, 15996.765, -137860.2, 41150.297, -0.10904754, -0.53159654, 26311.268, 93768.195, 0.0006699009, 10.000953, 9.998913 
1.7452711e+3, 3.0311006e+2, -24426.658, -277331.4, -47542.242, -0.054373488, -0.49753034, -15784.741, -15784.741, 0.00154873, 10.00096, 9.997623 
1.7452966e+3, 3.13108e+2, 111728.0, -148661.16, 20813.936, 0.17712328, -0.47955176, 113381.24, 113381.24, 0.0027554093, 10.001602, 9.998189 
1.7548144e+3, 1.231e+2, -1566665.6, -1643115.3, -176951.83, -0.15948729, -0.40253398, -1423857.0, 309728.4, 0.07366958, 10.001082, 10.000025 
1.7548402e+3, 1.33101e+2, -1585673.0, -1516629.6, 46882.113, -0.16500472, -0.39559257, -1492930.4, 142643.19, 0.048192136, 9.999836, 10.000797 
1.7548688e+3, 1.430998e+2, -1664129.4, -1613810.3, 6609.3706, 0.08139722, -0.53441423, -1612956.5, -75372.26, 0.024652572, 9.99909, 9.99978 
1.754891e+3, 1.5310226e+2, -1522130.8, -1479524.6, -15334.593, -0.16348682, -0.28929764, -1474579.4, -35017.6, 0.008527423, 9.999333, 9.999906 
1.7549144e+3, 1.6310301e+2, -1417792.3, -1452144.1, 4258.3135, -0.307615, -0.16525412, -1417272.3, -75716.516, 0.0014925194, 9.999683, 9.999258 
1.7549405e+3, 1.7310023e+2, -1213642.6, -1290495.4, 55478.633, -0.275023, -0.38850886, -1184582.1, 59000.29, 0.00006156021, 10.000369, 9.99936 
1.7549664e+3, 1.8309885e+2, -1043694.56, -1101583.4, 57414.805, -0.25599828, -0.470151, -1008340.94, 137254.77, 0.0000000010737394, 10.00062, 9.999858 
1.7549922e+3, 1.931007e+2, -1035392.3, -1009437.4, 37905.867, -0.25588462, -0.31691143, -982349.06, 65228.266, 0.0, 9.999846, 10.000187 
1.7550185e+3, 2.0310117e+2, -1014213.1, -977124.3, 19653.12, -0.19370162, -0.26429778, -968647.6, -19075.809, 0.0, 9.9994335, 9.999942 
1.7550465e+3, 2.1309912e+2, -832810.2, -816093.94, 38718.668, -0.0020476591, -0.4944741, -784841.56, 66748.05, 0.0, 9.999913, 10.000141 
1.7550729e+3, 2.2309802e+2, -750621.9, -870873.7, -7541.47, 0.07950798, -0.5512939, -750150.75, 3449.1084, 0.0, 10.000427, 9.998852 
1.7550956e+3, 2.3309942e+2, -587422.5, -748676.25, 283.62534, -0.07958781, -0.30394727, -587422.0, 68167.664, 0.0, 10.000914, 9.998777 
1.7551196e+3, 2.4309918e+2, -475032.75, -706681.25, 41431.9, -0.14800034, -0.16750543, -467845.38, 89746.74, 0.0, 10.001279, 9.998215 
1.7551464e+3, 2.5309592e+2, -333775.88, -571941.25, 84218.76, 0.011065742, -0.34210023, -307004.22, 152614.03, 0.0, 10.00152, 9.998345 
1.7551726e+3, 2.6309258e+2, -237915.69, -497370.2, 88522.266, 0.112955384, -0.48896402, -210590.88, 151054.2, 0.00000094846536, 10.001588, 9.998159 
1.7551969e+3, 2.7308995e+2, -154032.05, -377871.1, 75611.41, 0.029971981, -0.6024439, -130884.68, 132781.08, 0.000030532858, 10.001383, 9.998396 
1.7552216e+3, 2.8308782e+2, -124320.984, -372345.72, 72835.44, -0.036487192, -0.6203198, -104513.78, 61170.465, 0.00019885889, 10.001163, 9.997876 
1.7552482e+3, 2.9308653e+2, -79514.75, -300271.72, 41941.29, 0.03247377, -0.56629366, -71814.945, -4113.461, 0.00068665395, 10.000801, 9.9978695 
1.7552742e+3, 3.030853e+2, 41964.87, -93820.87, -33768.316, 0.14977032, -0.5013777, 49899.05, 49899.05, 0.0016055047, 10.000769, 9.998973 
1.755295e+3, 3.1308743e+2, 173896.06, 52425.66, 33462.816, -0.17418039, -0.25575823, 182504.39, 182504.39, 0.0028769057, 10.001324, 9.999695 
1.7648129e+3, 1.2307586e+2, -1904015.6, -1731494.9, -102823.46, -0.2561259, -0.3201496, -1683540.8, 50284.926, 0.07790593, 9.998328, 10.000701 
1.7648406e+3, 1.3307615e+2, -1522408.1, -1418324.8, 130439.13, -0.09937261, -0.44461364, -1329928.9, 305886.5, 0.05123237, 9.999979, 10.001439 
1.7648691e+3, 1.4307526e+2, -1478833.9, -1536634.8, 67356.805, 0.14684284, -0.5905091, -1434439.3, 103381.19, 0.026445003, 10.000432, 9.999665 
1.7648908e+3, 1.530776e+2, -1506070.9, -1514414.4, 34690.23, -0.11551327, -0.32339555, -1475302.5, -35500.293, 0.009296644, 9.999636, 9.999517 
1.7649142e+3, 1.6307843e+2, -1460259.4, -1435554.6, 88871.555, -0.2731179, -0.18120807, -1358181.1, -16384.602, 0.0016790463, 9.999239, 9.999583 
1.7649406e+3, 1.7307605e+2, -1296122.3, -1276638.6, 106623.414, -0.24395446, -0.41267666, -1179312.9, 64504.555, 0.000074904594, 9.999571, 9.999838 
1.7649667e+3, 1.8307461e+2, -1204449.8, -1206707.5, 80780.85, -0.2281967, -0.51714075, -1124789.9, 21039.795, 0.000000009428086, 9.999637, 9.999614 
1.7649919e+3, 1.9307558e+2, -1116584.0, -1092795.3, 67587.234, -0.25012806, -0.41264325, -1036063.75, 11756.039, 0.0, 9.99948, 9.999795 
1.7650178e+3, 2.0307563e+2, -1036238.0, -1016191.3, 93750.74, -0.20686051, -0.36715114, -931929.6, 17889.338, 0.0, 9.999408, 9.999687 
1.765046e+3, 2.1307424e+2, -904668.0, -874913.8, 69619.984, -0.033177488, -0.50874794, -818599.1, 33233.965, 0.0, 9.99953, 9.999923 
1.765073e+3, 2.2307351e+2, -811871.56, -882158.1, 18486.156, 0.07254944, -0.52038205, -807306.06, -53465.17, 0.0, 9.999937, 9.999003 
1.7650974e+3, 2.3307462e+2, -551593.4, -703543.9, 6053.9165, 0.013801772, -0.3246777, -551352.56, 104479.49, 0.0, 10.001046, 9.999018 
1.7651223e+3, 2.4307448e+2, -385034.1, -628726.06, 15809.383, -0.029379874, -0.20539096, -384012.75, 173820.23, 0.0, 10.001752, 9.998526 
1.7651476e+3, 2.5307214e+2, -296235.5, -518284.22, 2382.425, -0.018785164, -0.31418946, -296209.94, 163641.02, 0.0, 10.001626, 9.998666 
1.7651732e+3, 2.6306924e+2, -252607.58, -535850.94, -5144.625, 0.021647943, -0.42377323, -252514.17, 109360.71, 0.0000007067664, 10.001633, 9.997869 
1.7651987e+3, 2.7306587e+2, -91915.016, -399541.56, -27936.83, 0.048132114, -0.5685136, -89398.54, 174506.02, 0.00002910251, 10.002025, 9.997942 
1.7652237e+3, 2.8306335e+2, -9607.78, -296410.7, -14648.921, 0.03215222, -0.60556436, -8861.505, 157065.55, 0.00020251243, 10.001859, 9.99806 
1.7652489e+3, 2.9306257e+2, -48532.973, -252694.95, 13993.262, 0.039574537, -0.52827334, -47578.336, 20357.98, 0.000716697, 10.000871, 9.998159 
1.765275e+3, 3.030608e+2, 60894.883, -120780.59, 34360.652, 0.14346248, -0.5244004, 67176.39, 67176.39, 0.0016844932, 10.001045, 9.998659 
1.7652972e+3, 3.1306174e+2, 418867.66, 132781.0, -101290.56, -0.15489891, -0.35176826, 451098.9, 451098.9, 0.003009792, 10.003143, 9.99939 
1.7748098e+3, 1.2305374e+2, -1936797.1, -1782041.5, -126812.72, -0.43027318, -0.23643108, -1710863.6, 23179.258, 0.08231803, 9.9982605, 10.000375 
1.774839e+3, 1.3305444e+2, -1518549.1, -1409232.4, 188141.75, -0.27723777, -0.3095393, -1267970.1, 368057.0, 0.054393712, 9.999968, 10.001525 
1.7748661e+3, 1.4305454e+2, -1488521.9, -1559706.9, 37240.313, -0.21891527, -0.35943168, -1472600.6, 65419.707, 0.02831169, 10.000442, 9.999499 
1.7748903e+3, 1.5305239e+2, -1534665.0, -1567560.8, 11531.753, -0.14371137, -0.50948024, -1531025.3, -90981.74, 0.010105246, 9.99961, 9.999164 
1.7749152e+3, 1.6305126e+2, -1461310.1, -1435203.5, 87031.86, -0.1057102, -0.5401427, -1360251.5, -18195.73, 0.0018804772, 9.999229, 9.99959 
1.7749412e+3, 1.7305224e+2, -1295134.9, -1263454.4, 122690.86, -0.14212638, -0.4483688, -1155585.5, 88460.62, 0.00008970714, 9.99953, 9.999944 
1.7749672e+3, 1.8305224e+2, -1202577.3, -1208664.8, 70373.12, -0.16682413, -0.41310042, -1135182.1, 10862.868, 0.000000028818846, 9.999655, 9.999593 
1.7749922e+3, 1.9305074e+2, -1123449.1, -1102603.6, 66808.51, -0.16537303, -0.55038124, -1045409.7, 2647.9163, 0.0, 9.999458, 9.99974 
1.7750178e+3, 2.030501e+2, -1079727.3, -1103939.4, 90380.36, -0.16551258, -0.5479823, -1000645.75, -50581.656, 0.0, 9.999397, 9.999087 
1.7750444e+3, 2.1305159e+2, -971640.0, -991505.6, 79281.89, -0.15527597, -0.32882768, -901671.1, -49616.49, 0.0, 9.999437, 9.999162 
1.7750713e+3, 2.2305155e+2, -831571.7, -904697.6, 48285.594, -0.0856794, -0.22441846, -807567.75, -53510.35, 0.0, 9.999846, 9.998897 
1.7750995e+3, 2.3304859e+2, -556518.4, -698862.0, 55458.38, 0.10758062, -0.44130144, -537462.4, 118620.29, 0.0, 10.000972, 9.999091 
1.7751259e+3, 2.4304627e+2, -411749.94, -659818.5, 13982.539, 0.15466851, -0.5401736, -410964.3, 147138.53, 0.0, 10.001645, 9.998363 
1.7751485e+3, 2.5304586e+2, -330810.06, -560652.4, 3575.6174, -0.104906134, -0.4360221, -330754.44, 129352.38, 0.0, 10.001503, 9.998431 
1.7751731e+3, 2.630444e+2, -297045.63, -598987.2, 1045.4951, -0.16461252, -0.37618753, -297042.0, 65080.21, 0.00000032366296, 10.001505, 9.9974985 
1.7752019e+3, 2.730411e+2, -147261.98, -469922.9, -3021.8486, 0.16274038, -0.4694011, -147233.69, 116923.016, 0.00002512301, 10.001848, 9.997538 
1.775228e+3, 2.8303906e+2, 43983.098, -164019.7, -48523.84, 0.23619899, -0.47241995, 54746.04, 220921.5, 0.00020058491, 10.001753, 9.999029 
1.7752482e+3, 2.930395e+2, 35885.805, -62370.793, -14334.305, -0.13981345, -0.40710175, 37934.277, 106097.234, 0.0007353367, 10.000801, 9.999505 
1.7752734e+3, 3.030363e+2, -78840.51, -377357.25, 90644.484, -0.1400599, -0.55286735, -53472.18, -53472.18, 0.0017276168, 10.000913, 9.996955 
1.775303e+3, 3.1303304e+2, 226364.5, -148705.97, -24939.178, 0.08967356, -0.5701859, 228015.48, 228015.48, 0.0030498388, 10.002689, 9.997645 
1.7848094e+3, 1.2302994e+2, -1617756.3, -1721155.9, -152480.25, -0.42008057, -0.24053197, -1508449.6, 225822.63, 0.08696164, 10.000982, 9.999505 
1.7848393e+3, 1.3302982e+2, -1636687.6, -1488976.4, 96708.73, -0.19782044, -0.35678756, -1441147.0, 195119.58, 0.057701517, 9.999239, 10.0013 
1.7848639e+3, 1.4303063e+2, -1804586.4, -1674442.0, -34317.89, -0.3522612, -0.34192184, -1665947.1, -127693.555, 0.030258754, 9.998097, 9.999843 
1.7848898e+3, 1.5302819e+2, -1522142.5, -1521013.3, -10426.431, -0.13333462, -0.5564509, -1511136.1, -70858.484, 0.0109521225, 9.9995165, 9.999532 
1.7849155e+3, 1.630271e+2, -1324414.5, -1380129.0, 94028.21, -0.03058917, -0.60204357, -1254203.8, 88085.055, 0.0020959692, 10.000218, 9.999486 
1.7849411e+3, 1.730286e+2, -1316276.1, -1300519.6, 86200.5, -0.10485311, -0.4374239, -1221838.1, 22437.127, 0.000105867584, 9.999498, 9.999705 
1.7849667e+3, 1.8302882e+2, -1269939.4, -1235991.8, 46231.09, -0.13667114, -0.36967298, -1203717.0, -57444.246, 0.0000000562377, 9.99918, 9.999636 
1.7849924e+3, 1.930269e+2, -1050540.9, -1053451.8, 47439.68, -0.11303949, -0.5585802, -1004534.3, 43753.715, 0.0, 9.9999, 9.999863 
1.7850181e+3, 2.0302588e+2, -949982.94, -1088312.9, 91378.31, -0.10760494, -0.58525246, -904545.1, 45752.426, 0.0, 10.000498, 9.998667 
1.7850445e+3, 2.1302703e+2, -790827.7, -967870.6, 79469.336, -0.13909593, -0.34425697, -760389.44, 91902.766, 0.0, 10.00095, 9.998601 
1.7850715e+3, 2.2302653e+2, -664210.4, -841050.9, 69243.32, -0.09926318, -0.24315654, -640324.0, 113975.41, 0.0, 10.001076, 9.998742 
1.7850998e+3, 2.3302303e+2, -625257.0, -737145.94, 51128.855, 0.077934034, -0.5066453, -605412.7, 50916.305, 0.0, 10.000533, 9.999037 
1.7851266e+3, 2.4302046e+2, -639323.06, -768438.6, 5313.1587, 0.13970505, -0.6260615, -639104.8, -80753.336, 0.0, 10.00008, 9.998368 
1.7851497e+3, 2.5302038e+2, -564357.4, -675786.75, -4590.7866, -0.047495455, -0.48973677, -564168.56, -103814.24, 0.0, 9.999898, 9.998419 
1.7851746e+3, 2.6301938e+2, -503094.3, -694639.6, 51692.406, -0.08662256, -0.3817945, -490034.5, -127667.36, 0.00000018370703, 10.00007, 9.997533 
1.785203e+3, 2.7301666e+2, -257021.55, -525631.6, 68094.336, 0.1420831, -0.42122573, -240745.44, 23653.127, 0.000020759246, 10.001078, 9.997536 
1.7852293e+3, 2.8301486e+2, 71696.32, -135609.33, 8087.6396, 0.19448525, -0.40491924, 72011.36, 238427.38, 0.00019242667, 10.001917, 9.999128 
1.7852508e+3, 2.930152e+2, 315935.88, 86932.66, -66161.76, -0.055096686, -0.35492316, 333676.47, 402078.75, 0.000732247, 10.002685, 9.999615 
1.785276e+3, 3.0301172e+2, 171661.34, -321531.66, 50485.793, -0.054946266, -0.51554954, 176776.28, 176776.28, 0.0017117219, 10.002912, 9.996376 
1.7853054e+3, 3.130075e+2, 48969.81, -286790.97, -33251.74, 0.12839839, -0.5491057, 52231.184, 52231.184, 0.0029630733, 10.00167, 9.997192 
1.7948116e+3, 1.2300412e+2, -1712408.1, -1936850.8, -171626.94, -0.34032232, -0.3837892, -1619569.9, 114946.91, 0.09190124, 10.00103, 9.997975 
1.7948416e+3, 1.3300227e+2, -1683360.8, -1578614.6, 22666.352, 0.081554994, -0.59692717, -1573920.3, 62613.777, 0.06119029, 9.999208, 10.000661 
1.7948626e+3, 1.4300337e+2, -1756398.9, -1562934.5, -19419.78, -0.3085384, -0.5464951, -1561004.5, -22483.314, 0.03230053, 9.998048, 10.000632 
1.7948894e+3, 1.5300514e+2, -1450114.6, -1359306.6, 52282.25, -0.13993037, -0.44993174, -1335465.0, 105038.49, 0.011841973, 9.999467, 10.0006695 
1.7949152e+3, 1.6300616e+2, -1334982.3, -1409968.9, 75256.46, -0.11265466, -0.34860873, -1288396.5, 54097.426, 0.0023264778, 10.000238, 9.999279 
1.79494e+3, 1.7300518e+2, -1354167.6, -1382869.1, 61461.285, -0.18528084, -0.3763431, -1305404.0, -60898.87, 0.00012352158, 9.999504, 9.999144 
1.7949654e+3, 1.8300427e+2, -1264190.0, -1221917.9, 57241.16, -0.20289055, -0.38976854, -1182035.3, -35521.863, 0.000000085167756, 9.999176, 9.999731 
1.7949921e+3, 1.9300412e+2, -1043138.3, -1023987.1, 80824.8, -0.1474179, -0.425439, -952172.7, 96337.74, 0.0, 9.999843, 10.0000925 
1.7950189e+3, 2.030031e+2, -973167.44, -1127372.4, 103024.336, -0.098364756, -0.4563083, -921588.9, 28929.145, 0.0, 10.000453, 9.998422 
1.7950465e+3, 2.1300063e+2, -826667.1, -1029928.06, 102242.5, -0.03991702, -0.5395588, -784137.0, 68407.67, 0.0, 10.000892, 9.998206 
1.7950734e+3, 2.2299851e+2, -697209.5, -888889.0, 51622.344, -0.026536912, -0.56546324, -684190.94, 70375.66, 0.0, 10.000991, 9.998453 
1.7950985e+3, 2.3299775e+2, -660383.0, -782354.5, 38149.65, -0.11984694, -0.53070843, -649433.7, 7139.112, 0.0, 10.000419, 9.998777 
1.795124e+3, 2.4299681e+2, -645564.3, -755985.7, -8951.89, -0.12238905, -0.47777995, -644843.3, -86261.99, 0.0, 9.999968, 9.99851 
1.795151e+3, 2.5299573e+2, -559813.75, -647864.94, -3670.234, 0.0881342, -0.46197635, -559661.06, -99067.89, 0.0, 9.999826, 9.998641 
1.7951773e+3, 2.6299432e+2, -487054.88, -651786.94, 77129.64, 0.1750831, -0.42253858, -456579.7, -93970.1, 0.00000013255313, 10.000017, 9.997857 
1.7952023e+3, 2.7299252e+2, -246706.16, -474927.47, 113722.36, -0.063268684, -0.40838072, -199714.3, 64916.566, 0.0000188634, 10.000959, 9.997937 
1.795228e+3, 2.8299087e+2, -3380.2058, -262399.03, 28293.912, -0.14536975, -0.37210348, -325.54553, 166322.69, 0.00018750537, 10.001778, 9.99833 
1.795256e+3, 2.9298985e+2, 215592.58, -72618.48, -22482.64, 0.19128719, -0.35744977, 217335.86, 285989.13, 0.0007238546, 10.002482, 9.99861 
1.7952824e+3, 3.02987e+2, 148486.66, -319061.2, 15424.891, 0.26843554, -0.39586556, 148994.98, 148994.98, 0.0016668775, 10.002685, 9.996507 
1.7953044e+3, 3.129844e+2, 81721.92, -156777.81, -69733.87, -0.15786938, -0.3260942, 100614.52, 100614.52, 0.002811778, 10.001432, 9.998184 
1.8048121e+3, 1.2297948e+2, -1915091.5, -2067828.0, -25867.666, -0.32493386, -0.5112351, -1910829.5, -176079.42, 0.097200245, 9.999717, 9.997692 
1.804842e+3, 1.3297798e+2, -1698854.4, -1623434.3, 68310.195, 0.21839325, -0.65658855, -1583116.5, 53650.25, 0.06490086, 9.99927, 10.00032 
1.8048613e+3, 1.4297912e+2, -1667795.6, -1542021.5, 99375.016, -0.27684247, -0.579846, -1487306.8, 51448.93, 0.034457777, 9.998751, 10.000442 
1.8048893e+3, 1.5298094e+2, -1523186.6, -1416886.8, 77698.43, -0.076220766, -0.4588968, -1375898.6, 64839.19, 0.0127833225, 9.99906, 10.000466 
1.8049155e+3, 1.6298173e+2, -1459506.8, -1465089.0, 28273.541, -0.050943732, -0.36664146, -1433886.9, -91156.76, 0.0025744103, 9.999376, 9.999312 
1.80494e+3, 1.729804e+2, -1289229.5, -1335404.8, 40792.18, -0.15254235, -0.44092727, -1265444.5, -20701.127, 0.00014305822, 9.999906, 9.999265 
1.8049651e+3, 1.829792e+2, -1158766.9, -1227862.3, 69453.53, -0.17779101, -0.4718499, -1115743.0, 31011.418, 0.00000010953618, 10.000126, 9.999237 
1.804992e+3, 1.929788e+2, -1106874.9, -1123379.4, 19631.469, -0.1267025, -0.47054687, -1093831.8, -45075.258, 0.0, 9.999698, 9.999479 
1.8050192e+3, 2.0297763e+2, -1083325.4, -1160389.0, 43347.88, -0.069791526, -0.48631752, -1063859.5, -113093.234, 0.0, 9.999604, 9.998609 
1.8050478e+3, 2.1297516e+2, -880530.8, -1010289.7, 90715.37, 0.029530216, -0.60606796, -833881.7, 18907.709, 0.0, 10.000326, 9.9986105 
1.805075e+3, 2.229732e+2, -738734.75, -909530.7, 59873.59, 0.043668192, -0.6439067, -719836.7, 34971.53, 0.0, 10.000718, 9.998436 
1.8050987e+3, 2.3297267e+2, -665914.06, -804444.06, 36730.234, -0.14250763, -0.56872195, -656777.9, 35.857044, 0.0, 10.000457, 9.998611 
1.8051237e+3, 2.4297178e+2, -554992.7, -720077.7, 28489.912, -0.18820707, -0.4992054, -550214.25, 8608.729, 0.0, 10.000625, 9.998443 
1.8051516e+3, 2.529703e+2, -279860.6, -523275.2, 3226.8958, 0.07348803, -0.51475555, -279817.8, 181020.19, 0.0, 10.001782, 9.998566 
1.8051785e+3, 2.6296863e+2, -154926.6, -478885.3, 60525.277, 0.17669205, -0.49769074, -143987.98, 218867.73, 0.00000007008213, 10.00226, 9.997958 
1.8052028e+3, 2.7296695e+2, -179430.94, -431306.3, 55938.742, -0.110368475, -0.481956, -167566.42, 97308.49, 0.000018211342, 10.00138, 9.998035 
1.8052287e+3, 2.8296506e+2, -154742.9, -358249.22, 2359.4373, -0.17251183, -0.46586117, -154715.56, 12179.524, 0.00018362651, 10.000825, 9.998135 
1.8052582e+3, 2.9296347e+2, 486.7531, -207453.45, -10434.404, 0.251413, -0.47180358, 1009.0379, 69918.055, 0.0007096767, 10.00111, 9.99836 
1.8052842e+3, 3.0296177e+2, 38813.117, -277403.28, 81565.11, 0.25935373, -0.42409655, 58612.395, 58612.395, 0.0016118336, 10.001519, 9.997353 
1.8053068e+3, 3.129604e+2, 269135.2, 8152.765, -4494.187, -0.11550746, -0.31513032, 269212.53, 269212.53, 0.0026686986, 10.002339, 9.998919 
1.8148105e+3, 1.2295602e+2, -1852631.1, -1921934.1, 73367.664, -0.48049268, -0.6373382, -1806143.6, -71171.695, 0.10291468, 9.999649, 9.998727 
1.8148406e+3, 1.3295723e+2, -1702028.3, -1619398.0, 47815.266, 0.13405855, -0.5229629, -1597521.0, 39441.125, 0.06887483, 9.999232, 10.0003605 
1.8148597e+3, 1.4295805e+2, -1748247.6, -1714576.3, 96429.56, -0.3316667, -0.43365955, -1633523.8, -94568.914, 0.036753505, 9.998767, 9.999248 
1.8148892e+3, 1.5295546e+2, -1630911.8, -1645143.5, 97011.94, -0.0014930851, -0.59760606, -1540755.1, -99773.34, 0.01378539, 9.999069, 9.9988985 
1.8149164e+3, 1.6295378e+2, -1442501.3, -1428940.0, 38652.227, 0.08099869, -0.66856045, -1396478.1, -53479.73, 0.002842686, 9.999374, 9.999559 
1.8149409e+3, 1.7295423e+2, -1241134.5, -1232747.4, 67420.52, -0.050346542, -0.62967837, -1169390.1, 75600.195, 0.00016504708, 9.9998865, 9.999981 
1.814966e+3, 1.829536e+2, -1230850.8, -1374841.9, 55704.31, -0.11585516, -0.61021316, -1211817.0, -64821.383, 0.00000012908751, 10.000116, 9.998234 
1.814992e+3, 1.9295095e+2, -1210603.0, -1337388.5, 7867.206, -0.110776156, -0.691581, -1210116.6, -161090.39, 0.0, 9.999693, 9.9980135 
1.8150188e+3, 2.0294936e+2, -1043213.7, -1075359.8, 56803.08, -0.08120489, -0.68492854, -1000253.44, -49209.863, 0.0, 9.999595, 9.999197 
1.8150482e+3, 2.1295045e+2, -811511.7, -850110.06, 125054.22, 0.021154772, -0.55707407, -704276.25, 148751.88, 0.0, 10.000249, 9.999749 
1.8150759e+3, 2.2295038e+2, -740283.2, -885533.4, 51701.375, 0.05783969, -0.4837279, -723759.9, 31265.912, 0.0, 10.000597, 9.998663 
1.8151002e+3, 2.329479e+2, -680489.9, -816970.5, 34233.797, -0.055250242, -0.6023322, -672384.3, -15333.335, 0.0, 10.000381, 9.998562 
1.8151249e+3, 2.4294549e+2, -592038.2, -781185.9, 57049.66, -0.13263531, -0.66436934, -576163.56, -17088.39, 0.0, 10.00055, 9.99806 
1.8151514e+3, 2.52944e+2, -321876.78, -588168.3, 56424.406, -0.13027336, -0.6446578, -310414.44, 150675.06, 0.0, 10.001684, 9.998166 
1.8151778e+3, 2.6294225e+2, -188728.39, -520704.13, 35621.57, -0.124016, -0.6028231, -184949.17, 178157.45, 0.0000000874347, 10.0021305, 9.997737 
1.8152046e+3, 2.7293998e+2, -216524.22, -472911.72, 31683.78, -0.07897779, -0.6328657, -212666.84, 52463.625, 0.00001648955, 10.001237, 9.997813 
1.8152314e+3, 2.8293753e+2, -157635.81, -343541.72, 2928.8472, 0.00275982, -0.6559187, -157589.69, 9565.709, 0.00017232615, 10.000722, 9.99829 
1.8152577e+3, 2.9293618e+2, 18434.201, -149915.95, 14700.478, 0.067811206, -0.6829079, 19708.219, 88877.55, 0.00067456526, 10.001017, 9.998799 
1.8152818e+3, 3.029361e+2, 94642.09, -114723.75, 95038.08, -0.14472635, -0.5560242, 131347.83, 131347.83, 0.0015401024, 10.001327, 9.998559 
1.81531e+3, 3.1293336e+2, 254429.33, 92511.516, 84582.53, -0.04415695, -0.718307, 290553.94, 290553.94, 0.0025581955, 10.001894, 9.999684 
1.8248098e+3, 1.229317e+2, -2060466.5, -1930048.5, 61833.06, -0.42820364, -0.66719025, -1905393.5, -170189.05, 0.10907774, 9.9978, 9.999568 
1.8248394e+3, 1.3293257e+2, -1697203.0, -1636349.6, -89396.2, 0.09751294, -0.5851819, -1572344.0, 64853.246, 0.07313931, 9.99933, 10.000213 
1.8248591e+3, 1.4293292e+2, -1573263.8, -1663585.3, -24826.94, -0.31323066, -0.5196374, -1566889.4, -27694.549, 0.039204508, 10.000124, 9.998937 
1.8248889e+3, 1.529304e+2, -1551821.3, -1645123.9, 48418.773, 0.029912015, -0.64512724, -1531236.3, -90012.914, 0.014855209, 9.999791, 9.998543 
1.824916e+3, 1.6292863e+2, -1424589.8, -1417810.0, 57375.49, 0.118659064, -0.70218766, -1363724.3, -20482.348, 0.0031336718, 9.999479, 9.999587 
1.8249409e+3, 1.7292894e+2, -1309997.1, -1248000.9, 37553.555, -0.000008392367, -0.69125813, -1230304.5, 14929.955, 0.00019006866, 9.999334, 10.000141 
1.8249665e+3, 1.8292835e+2, -1322476.4, -1434184.8, 38474.043, -0.04813527, -0.66888875, -1310507.8, -163268.56, 0.00000015151502, 9.999563, 9.99809 
1.8249927e+3, 1.9292623e+2, -1081931.5, -1300323.1, 70817.88, -0.046770945, -0.6745532, -1060977.8, -11711.252, 0.0, 10.000702, 9.997776 
1.8250196e+3, 2.0292473e+2, -800759.1, -961495.9, 155253.53, -0.03545694, -0.6433663, -706305.5, 244978.11, 0.0, 10.001287, 9.999151 
1.8250483e+3, 2.1292485e+2, -755840.3, -821912.0, 126860.89, 0.0033569771, -0.61378735, -657784.4, 195491.25, 0.0, 10.000643, 9.999743 
1.825076e+3, 2.2292425e+2, -783098.06, -938071.8, 6843.058, 0.031178221, -0.5820865, -782796.5, -27518.75, 0.0, 10.000431, 9.998385 
1.8251017e+3, 2.3292227e+2, -582344.44, -806262.1, -45928.785, 0.030082583, -0.61659247, -573289.94, 84009.984, 0.0, 10.001215, 9.998233 
1.8251272e+3, 2.4292003e+2, -450223.16, -724262.2, -15751.048, 0.0015614189, -0.63812226, -449320.78, 110002.91, 0.0, 10.001579, 9.997949 
1.8251526e+3, 2.5291786e+2, -429118.6, -644465.4, -3655.1746, -0.11626243, -0.6790808, -429056.56, 32287.137, 0.0, 10.000974, 9.998115 
1.8251786e+3, 2.6291597e+2, -388718.44, -567647.1, 615.3058, -0.17574053, -0.66931933, -388716.3, -25355.227, 0.00000011582431, 10.000554, 9.998171 
1.8252057e+3, 2.7291444e+2, -253834.25, -435542.56, 25120.38, -0.06388944, -0.67147344, -250425.42, 14949.874, 0.000015405387, 10.000721, 9.998328 
1.8252328e+3, 2.8291225e+2, -161920.47, -382411.75, 48889.188, 0.06403813, -0.6863008, -151566.55, 15830.71, 0.00016006886, 10.000864, 9.9979515 
1.8252584e+3, 2.929102e+2, -33694.797, -237894.84, -23747.748, 0.05393923, -0.7253806, -30969.395, 38452.49, 0.0006307873, 10.000929, 9.99824 
1.825282e+3, 3.0291003e+2, 68554.1, 12880.757, 23013.295, -0.20784144, -0.62556607, 76835.18, 76835.18, 0.0014636228, 10.000563, 9.999797 
1.8253125e+3, 3.1290808e+2, 56606.79, 82378.6, 32230.838, 0.134526, -0.8468907, 104203.984, 104203.984, 0.0024808757, 10.000103, 10.000516 
1.8348096e+3, 1.2290626e+2, -2028991.1, -1846935.5, 150720.47, -0.23447996, -0.61881775, -1761887.4, -26437.563, 0.11569034, 9.997728, 10.00017 
1.8348385e+3, 1.3290392e+2, -1715006.8, -1668910.4, -33402.977, 0.056376863, -0.84985113, -1651375.6, -13902.923, 0.07769921, 9.999317, 9.999965 
1.8348595e+3, 1.4290369e+2, -1533615.3, -1584094.5, -32224.795, -0.2979896, -0.84665525, -1517922.3, 21554.156, 0.04181763, 10.00014, 9.9994755 
1.834888e+3, 1.5290576e+2, -1493198.0, -1523410.9, 42041.613, -0.050377723, -0.5937489, -1463631.1, -22168.96, 0.015997248, 9.999786, 9.999381 
1.8349144e+3, 1.6290638e+2, -1435813.8, -1442387.9, 42275.68, -0.0026669148, -0.45668197, -1396697.5, -53237.848, 0.0034491862, 9.999485, 9.999416 
1.8349399e+3, 1.7290437e+2, -1339236.8, -1312405.1, 35291.605, -0.05661054, -0.63543516, -1288065.4, -42588.375, 0.00021871291, 9.999345, 9.999698 
1.8349662e+3, 1.8290327e+2, -1276566.8, -1336398.5, 66328.875, -0.04608681, -0.6657201, -1233719.5, -86232.12, 0.00000018976193, 9.999554, 9.998764 
1.834994e+3, 1.9290462e+2, -1018547.94, -1160121.8, 121714.55, 0.012487323, -0.42021403, -948532.8, 100944.95, 0.0, 10.000664, 9.998756 
1.8350215e+3, 2.0290378e+2, -853731.94, -1064190.9, 139096.9, 0.017335756, -0.35685343, -784544.7, 166941.45, 0.0, 10.001251, 9.998467 
1.8350482e+3, 2.1289843e+2, -846855.9, -994483.5, 105656.24, -0.07947845, -0.7603614, -791783.2, 61747.844, 0.0, 10.000573, 9.998592 
1.8350752e+3, 2.2289485e+2, -852900.8, -1060772.1, 23002.736, -0.0979818, -0.9240051, -850385.8, -94822.68, 0.0, 10.00033, 9.997596 
1.8351033e+3, 2.3289563e+2, -639169.06, -904010.56, -5184.713, 0.06544982, -0.6195961, -639067.56, 18494.432, 0.0, 10.001125, 9.997606 
1.8351305e+3, 2.4289513e+2, -455506.25, -710574.6, -31439.31, 0.15634492, -0.43678105, -451688.25, 107882.625, 0.0, 10.001469, 9.998101 
1.8351553e+3, 2.5289193e+2, -422230.1, -607760.5, -16684.807, 0.0506482, -0.6076889, -420741.56, 40858.34, 0.0, 10.000879, 9.998414 
1.8351804e+3, 2.628898e+2, -336054.88, -442271.28, -726.6792, -0.06470978, -0.6721701, -336049.9, 27568.063, 0.000000090536304, 10.000477, 9.999072 
1.8352059e+3, 2.7289024e+2, -184591.8, -274019.44, 43863.953, -0.12543646, -0.5935126, -166668.78, 98941.61, 0.00001528185, 10.000648, 9.999472 
1.8352327e+3, 2.82889e+2, -234046.63, -522617.25, 40654.246, -0.053409684, -0.54656976, -228428.58, -60805.98, 0.00015262203, 10.000813, 9.997018 
1.8352601e+3, 2.9288524e+2, -151133.33, -454374.03, -11476.924, 0.12319101, -0.6140931, -150699.58, -81031.18, 0.00059531454, 10.000822, 9.9967985 
1.8352842e+3, 3.0288363e+2, 116102.25, 143100.78, -2364.4404, -0.045649074, -0.6145146, 143306.3, 143306.3, 0.0013981345, 10.000429, 10.000753 
1.835313e+3, 3.1288558e+2, 58889.605, 148101.11, 95791.164, 0.1592458, -0.60552925, 209162.86, 209162.86, 0.0024225295, 9.999865, 10.00107 
1.8448094e+3, 1.2287906e+2, -1784504.6, -1682337.4, 137404.63, -0.10774226, -0.6869262, -1586827.8, 148885.81, 0.12272786, 9.999212, 10.000682 
1.8448369e+3, 1.328775e+2, -1843136.1, -1734775.8, -54888.633, 0.014231239, -0.84540796, -1711831.0, -74100.78, 0.08254445, 9.998488, 9.999901 
1.8448599e+3, 1.4287719e+2, -1774195.6, -1638144.3, -52204.24, -0.18132505, -0.86174834, -1620421.6, -80686.1, 0.04459436, 9.998205, 10.000042 
1.8448871e+3, 1.5288007e+2, -1641650.3, -1499883.3, 2456.9688, -0.0356563, -0.6115273, -1499840.6, -58129.34, 0.017215712, 9.99835, 10.000242 
1.844913e+3, 1.6288131e+2, -1541175.4, -1472059.6, 43120.707, -0.037827022, -0.4689115, -1451357.8, -107656.414, 0.0037916328, 9.998682, 9.999597 
1.8449388e+3, 1.7287956e+2, -1287564.1, -1285945.5, 61147.64, -0.10058766, -0.6257646, -1225601.9, 20115.574, 0.00025177147, 9.999706, 9.999701 
1.844966e+3, 1.8287846e+2, -1144482.8, -1269180.5, 108928.88, -0.074879356, -0.6559119, -1081321.1, 66407.02, 0.00000025167606, 10.000446, 9.998789 
1.844995e+3, 1.9287921e+2, -1025902.56, -1162317.9, 83185.74, 0.055189222, -0.4729956, -986536.25, 63187.332, 0.0, 10.0006, 9.998772 
1.8450232e+3, 2.028781e+2, -953788.06, -1138462.4, 49747.29, 0.094179206, -0.42713666, -941239.8, 10495.0, 0.0, 10.000674, 9.998239 
1.845049e+3, 2.1287335e+2, -838925.1, -1027486.6, 58049.277, -0.06586787, -0.74108857, -822487.44, 31288.746, 0.0, 10.000779, 9.998275 
1.8450755e+3, 2.2286993e+2, -743845.2, -1003843.06, 84921.81, -0.12930608, -0.86968714, -718565.5, 37242.0, 0.0, 10.00108, 9.997614 
1.8451041e+3, 2.3286988e+2, -519248.97, -836564.7, 105353.44, 0.007165988, -0.65702444, -487455.63, 170356.86, 0.0, 10.001918, 9.997682 
1.8451317e+3, 2.4286897e+2, -356221.88, -661460.2, 66021.57, 0.11122239, -0.5188342, -342553.75, 217270.08, 0.0, 10.002163, 9.9980955 
1.8451568e+3, 2.528664e+2, -380297.88, -589681.1, 24614.916, 0.094045684, -0.6286069, -377443.1, 84404.63, 0.0, 10.001184, 9.998386 
1.8451817e+3, 2.6286435e+2, -301718.8, -436767.97, 53525.195, 0.023198247, -0.67799586, -283077.75, 80787.66, 0.00000009817215, 10.000761, 9.998972 
1.845207e+3, 2.7286407e+2, -48944.363, -221539.34, 13009.283, -0.11235886, -0.654148, -47969.305, 217895.58, 0.000013983738, 10.001642, 9.999349 
1.8452339e+3, 2.8286293e+2, -38316.48, -429922.6, -27744.531, -0.07591008, -0.59168684, -36360.6, 131516.23, 0.0001420209, 10.002178, 9.996992 
1.8452618e+3, 2.9286033e+2, 2454.975, -381268.78, -19313.05, 0.15622558, -0.53914934, 3424.5627, 73336.51, 0.0005568976, 10.001871, 9.996805 
1.8452862e+3, 3.0285808e+2, 221729.72, 124886.62, 16564.81, 0.05125775, -0.57909465, 224484.73, 224484.73, 0.0013248264, 10.00144, 10.0001545 
1.8453132e+3, 3.1285948e+2, 236311.64, 124157.49, -26871.732, 0.12042815, -0.54198515, 242417.58, 242417.58, 0.0023356052, 10.001518, 10.000121 
1.854808e+3, 1.2285e+2, -1744469.9, -1635240.6, 54867.926, -0.17762719, -0.88592404, -1612439.1, 123557.39, 0.13014582, 9.999304, 10.000977 
1.8548344e+3, 1.3285342e+2, -1845461.5, -1735739.8, -71229.66, -0.09194564, -0.5698828, -1700693.0, -62724.023, 0.08765755, 9.998458, 9.999912 
1.8548597e+3, 1.4285353e+2, -1739989.3, -1560720.3, -56936.72, -0.029060759, -0.55964404, -1544165.6, -4193.9556, 0.04753598, 9.998177, 10.000588 
1.8548861e+3, 1.528532e+2, -1582475.3, -1379109.6, 11972.94, 0.01601917, -0.7094802, -1378407.1, 63564.703, 0.01851746, 9.998349, 10.001082 
1.8549117e+3, 1.6285329e+2, -1500090.8, -1391113.0, 69340.914, -0.06090355, -0.7572027, -1357413.5, -13445.199, 0.0041650403, 9.998698, 10.000143 
1.8549378e+3, 1.728545e+2, -1255372.6, -1223439.4, 108335.57, -0.18719786, -0.666423, -1129900.1, 116055.28, 0.00029041685, 9.999715, 10.000128 
1.8549654e+3, 1.8285392e+2, -1190484.8, -1368910.5, 115545.73, -0.19264054, -0.64282084, -1133719.0, 14242.44, 0.0000003514084, 10.000461, 9.998101 
1.8549953e+3, 1.9284998e+2, -1096876.0, -1308324.3, 91980.29, 0.021266414, -0.8316413, -1062464.6, -12460.185, 0.0, 10.000587, 9.997779 
1.8550242e+3, 2.0284761e+2, -946681.1, -1116004.4, 48402.875, 0.12925355, -0.8561526, -933821.3, 18209.303, 0.0, 10.00064, 9.998411 
1.8550505e+3, 2.1284938e+2, -812171.5, -952884.8, 68768.88, -0.0003856205, -0.5694163, -784145.1, 69867.78, 0.0, 10.000698, 9.998825 
1.8550768e+3, 2.2284928e+2, -702639.7, -899422.94, 107021.74, -0.117447406, -0.43246302, -655654.0, 100358.82, 0.0, 10.000992, 9.998378 
1.8551041e+3, 2.3284502e+2, -480032.5, -733814.75, 145563.08, -0.19436371, -0.71475613, -413817.53, 244233.8, 0.0, 10.00182, 9.99844 
1.855131e+3, 2.4284169e+2, -389960.7, -705978.25, 38671.18, -0.19169569, -0.85324913, -385297.28, 174784.53, 0.0, 10.002047, 9.997848 
1.8551569e+3, 2.52841e+2, -421954.34, -659189.1, -6089.826, -0.025500882, -0.7323079, -421798.13, 40291.227, 0.0, 10.001112, 9.997942 
1.8551828e+3, 2.6283935e+2, -377178.38, -586285.44, 66418.89, 0.04261991, -0.6784058, -357865.4, 6240.635, 0.00000008466028, 10.000727, 9.997965 
1.8552092e+3, 2.7283606e+2, -150927.56, -402955.22, 59953.566, -0.08087162, -0.84041893, -137392.42, 128746.1, 0.000011475633, 10.001515, 9.998162 
1.8552361e+3, 2.828342e+2, -17719.06, -352853.22, -35281.89, -0.07708525, -0.8013765, -14044.972, 154113.89, 0.00012583715, 10.002019, 9.997605 
1.855263e+3, 2.9283535e+2, 70545.91, -217476.3, -22214.32, 0.09146311, -0.48387727, 72249.16, 142402.77, 0.0005095329, 10.001776, 9.997977 
1.8552874e+3, 3.028333e+2, 59255.64, -195142.83, 665.75775, 0.010811961, -0.49082282, 59257.383, 59257.383, 0.0012346595, 10.001373, 9.99798 
1.855314e+3, 3.128319e+2, 34206.6, -216934.48, 34389.887, 0.017511252, -0.43932772, 38830.63, 38830.63, 0.0022029516, 10.001206, 9.997914 
1.8648067e+3, 1.228226e+2, -2019623.6, -1656541.8, -16244.997, -0.13438721, -0.88683724, -1655816.4, 80452.11, 0.1378835, 9.99693, 10.001954 
1.8648316e+3, 1.3282776e+2, -2020594.5, -1748821.3, -66627.516, -0.14018728, -0.47404075, -1733365.9, -95144.72, 0.09301642, 9.996947, 10.00055 
1.8648587e+3, 1.4282753e+2, -1829516.3, -1585614.8, 13922.132, 0.09323516, -0.5383951, -1584822.6, -44597.324, 0.050644647, 9.997509, 10.000727 
1.8648851e+3, 1.5282631e+2, -1450820.8, -1305406.4, 21300.73, 0.03985827, -0.78721595, -1302350.4, 139882.03, 0.01991141, 9.999226, 10.001165 
1.864911e+3, 1.6282605e+2, -1287294.3, -1293486.1, 11847.247, -0.0643007, -0.8715764, -1278145.1, 66086.68, 0.0045744055, 10.00018, 10.000098 
1.8649378e+3, 1.728279e+2, -1312755.4, -1255999.5, -8499.458, -0.123975344, -0.7084369, -1254754.0, -8539.449, 0.0003360051, 9.999354, 10.000068 
1.8649659e+3, 1.8282779e+2, -1365267.1, -1430886.1, 33892.26, -0.114048086, -0.64406997, -1350905.1, -202687.63, 0.00000050835786, 9.999168, 9.9983 
1.8649957e+3, 1.9282389e+2, -1065477.1, -1262198.0, 99540.71, -0.007351408, -0.8549095, -1023897.9, 26361.219, 0.0, 10.000677, 9.9980545 
1.8650247e+3, 2.0282175e+2, -788060.2, -1025523.44, 96478.66, 0.05950235, -0.87771064, -753803.8, 198478.92, 0.0, 10.00168, 9.998524 
1.8650517e+3, 2.1282391e+2, -688551.75, -885876.1, 64126.16, 0.023043266, -0.55923855, -669543.25, 184719.56, 0.0, 10.001516, 9.998885 
1.8650785e+3, 2.2282405e+2, -657570.75, -834626.3, 80199.55, -0.054697882, -0.4161794, -626645.06, 129615.63, 0.0, 10.001114, 9.998765 
1.8651047e+3, 2.3281993e+2, -657276.6, -764146.06, 85923.4, -0.22659107, -0.7325792, -609527.8, 48767.547, 0.0, 10.000367, 9.998931 
1.8651314e+3, 2.4281673e+2, -612643.4, -813721.75, 3613.3838, -0.27431092, -0.8889772, -612578.5, -52255.387, 0.0, 10.000509, 9.99785 
1.8651584e+3, 2.5281605e+2, -211435.98, -575361.1, -21755.969, -0.06596479, -0.75286597, -210140.0, 252190.78, 0.0, 10.002624, 9.997792 
1.8651849e+3, 2.6281428e+2, -711.99243, -440248.84, 60861.223, 0.042340934, -0.6913463, 7559.5986, 371909.3, 0.000000065173005, 10.003474, 9.997642 
1.8652107e+3, 2.7281055e+2, -178216.92, -463988.5, 78572.83, -0.068592034, -0.8559674, -158038.19, 108349.73, 0.000009431519, 10.001515, 9.997754 
1.8652374e+3, 2.8280854e+2, -172103.64, -389071.5, 78999.62, -0.074139565, -0.82477045, -146387.33, 22022.1, 0.00011328213, 10.000801, 9.997934 
1.8652655e+3, 2.928099e+2, 305764.8, -50614.836, 36925.06, 0.09471783, -0.53250885, 309550.47, 379947.5, 0.00047182312, 10.003174, 9.998435 
1.8652907e+3, 3.0280727e+2, 367150.72, -198256.28, -1662.3156, 0.090762556, -0.5620379, 367155.63, 367155.63, 0.0011563048, 10.004137, 9.996623 
1.8653144e+3, 3.1280497e+2, 88045.836, -306394.38, 63754.75, -0.08798766, -0.4418812, 98094.73, 98094.73, 0.0020674597, 10.002042, 9.9969015 
1.874804e+3, 1.2279754e+2, -1913549.1, -1455960.4, -93147.86, -0.10489402, -0.62782204, -1437725.6, 298797.7, 0.14588223, 9.996877, 10.003605 
1.8748282e+3, 1.3280052e+2, -1937884.3, -1574952.6, -55234.24, -0.17634407, -0.56871897, -1566732.8, 71753.86, 0.0986057, 9.996907, 10.001817 
1.8748565e+3, 1.4279902e+2, -1849925.1, -1631369.5, 64992.137, 0.11402031, -0.8212479, -1613503.3, -73005.945, 0.053927336, 9.997518, 10.000409 
1.8748838e+3, 1.5279928e+2, -1499493.5, -1410699.0, 98002.36, -0.029521063, -0.8546259, -1347506.4, 94987.336, 0.021407956, 9.999242, 10.00043 
1.8749109e+3, 1.6279963e+2, -1331050.6, -1387929.4, -6308.344, -0.110764086, -0.8092784, -1330359.4, 14132.056, 0.0050250688, 10.000196, 9.999441 
1.8749389e+3, 1.7279977e+2, -1357547.8, -1348872.3, -38248.215, 0.038544625, -0.75369084, -1314716.6, -68221.125, 0.00038988978, 9.999347, 9.999438 
1.8749672e+3, 1.8279989e+2, -1289794.1, -1270228.0, 65475.836, 0.09571827, -0.66830665, -1213808.4, -65310.57, 0.000000733184, 9.999154, 9.99941 
1.8749957e+3, 1.9280086e+2, -960750.8, -1035290.6, 164336.03, -0.08069039, -0.54416305, -829511.5, 220976.58, 0.0, 10.000639, 9.999631 
1.8750241e+3, 2.0280036e+2, -788479.6, -1022853.56, 96432.875, -0.17256632, -0.49942195, -753903.3, 198589.13, 0.0, 10.001656, 9.99856 
1.8750525e+3, 2.12797e+2, -729754.6, -956743.1, 61294.227, -0.056018066, -0.6970492, -714260.75, 140264.94, 0.0, 10.001444, 9.99844 
1.87508e+3, 2.2279441e+2, -670921.6, -840709.75, 51876.76, -0.012831152, -0.79710734, -656326.0, 100223.97, 0.0, 10.001017, 9.998772 
1.875106e+3, 2.327944e+2, -657230.75, -743655.8, 64911.063, -0.14592738, -0.7189383, -622464.0, 36082.516, 0.0, 10.000282, 9.999109 
1.8751326e+3, 2.427937e+2, -607725.56, -783100.4, 57441.98, -0.2011294, -0.64718705, -590586.2, -30035.275, 0.0, 10.000419, 9.998108 
1.8751608e+3, 2.527915e+2, -212461.11, -547579.9, 68325.47, -0.08665371, -0.6884192, -199066.03, 263506.56, 0.0, 10.002499, 9.998043 
1.8751878e+3, 2.6278916e+2, -2967.9392, -417787.75, 11412.496, -0.033566378, -0.70477265, -2654.1968, 361941.84, 0.00000004605578, 10.0033455, 9.997865 
1.8752116e+3, 2.727874e+2, -171987.77, -430177.1, 9769.7, -0.13845816, -0.70047927, -171618.63, 94996.24, 0.000008317367, 10.001429, 9.998028 
1.8752377e+3, 2.827857e+2, -175962.16, -394143.7, 125737.76, -0.14558463, -0.6497927, -118587.38, 50043.266, 0.00010640216, 10.000777, 9.997919 
1.8752688e+3, 2.927839e+2, 262728.72, -94622.62, 142917.36, 0.102844335, -0.6680481, 312855.1, 383499.1, 0.00044870467, 10.002986, 9.998224 
1.8752961e+3, 3.0278012e+2, 293264.38, -303636.3, -56857.734, 0.19912273, -0.76354665, 298632.1, 298632.1, 0.001099917, 10.003927, 9.996001 
1.8753159e+3, 3.1277692e+2, 60280.035, -297513.75, -24061.74, -0.16372462, -0.67786604, 61890.94, 61890.94, 0.0019558533, 10.001794, 9.997067 
1.884802e+3, 1.2277256e+2, -1828266.1, -1416588.3, 11002.309, -0.017342282, -0.5410154, -1416294.5, 320474.22, 0.15411249, 9.997404, 10.003686 
1.884826e+3, 1.3277349e+2, -1817957.9, -1577640.1, -44031.813, -0.14454988, -0.6461279, -1569826.5, 68924.84, 0.10442951, 9.997991, 10.001273 
1.8848544e+3, 1.4277159e+2, -1757466.4, -1609553.4, 13366.585, 0.123728484, -0.89439154, -1608355.1, -67589.16, 0.057399224, 9.998249, 10.000209 
1.8848822e+3, 1.5277289e+2, -1704458.4, -1504870.3, 86923.11, -0.037434604, -0.82017386, -1472322.0, -29568.201, 0.023018045, 9.997831, 10.000447 
1.88491e+3, 1.6277388e+2, -1656290.0, -1561521.6, 36235.242, -0.10259506, -0.7054652, -1549254.8, -204508.27, 0.005521801, 9.998035, 9.999294 
1.8849385e+3, 1.7277338e+2, -1297503.5, -1342516.4, 25811.113, 0.036243565, -0.6936997, -1285764.4, -39007.2, 0.0004532519, 9.999853, 9.999245 
1.8849671e+3, 1.8277325e+2, -1011977.0, -1091172.0, 137986.6, 0.0874653, -0.63990724, -908018.7, 240742.89, 0.0000010252129, 10.000858, 9.999819 
1.884996e+3, 1.9277465e+2, -1015029.06, -996715.0, 155310.44, -0.077110134, -0.53011024, -850291.9, 200452.27, 0.0, 9.999975, 10.000215 
1.8850246e+3, 2.027745e+2, -1089531.1, -1144043.0, 57443.934, -0.17077148, -0.49806145, -1053204.9, -100461.24, 0.0, 9.9994955, 9.998764 
1.8850529e+3, 2.127711e+2, -887258.8, -1017094.6, 44588.277, -0.10120078, -0.70713854, -873421.1, -18642.42, 0.0, 10.000316, 9.998561 
1.8850806e+3, 2.2276865e+2, -654800.5, -843937.0, 59345.645, -0.052932553, -0.7978431, -637721.7, 119081.5, 0.0, 10.001185, 9.998661 
1.8851078e+3, 2.3276879e+2, -400194.7, -642343.06, 37757.918, -0.07911018, -0.6877646, -394443.75, 264355.38, 0.0, 10.002137, 9.998914 
1.885135e+3, 2.4276805e+2, -301141.8, -612911.2, 35561.86, -0.10356387, -0.6137444, -297136.9, 263666.94, 0.0, 10.002441, 9.998298 
1.8851623e+3, 2.5276557e+2, -356321.84, -589772.9, 34047.832, -0.12096267, -0.70673484, -351457.47, 111369.7, 0.0, 10.001393, 9.998289 
1.8851893e+3, 2.6276326e+2, -313891.75, -562375.1, -29140.938, -0.104335725, -0.73332864, -310520.0, 54329.33, 0.000000017635879, 10.001197, 9.9979 
1.8852143e+3, 2.727623e+2, 75863.72, -307178.4, -67991.98, -0.08133566, -0.650985, 87574.61, 354435.03, 0.000007212163, 10.003135, 9.99804 
1.8852408e+3, 2.827606e+2, 286842.03, -147650.4, 63536.086, -0.06189612, -0.6127899, 295942.34, 464818.03, 0.00009812263, 10.003883, 9.998104 
1.8852708e+3, 2.9275712e+2, 148903.13, -140701.39, 83267.54, 0.049736537, -0.8120595, 171137.33, 242039.52, 0.00042172684, 10.0021515, 9.998316 
1.8852988e+3, 3.027534e+2, 4533.069, -466130.97, -54232.55, 0.17332765, -0.8981292, 10701.213, 10701.213, 0.0010390888, 10.002018, 9.995821 
1.8853216e+3, 3.1275088e+2, 523573.22, -88316.68, -83428.32, 0.06299508, -0.7228325, 534744.3, 534744.3, 0.0018470694, 10.005012, 9.996971 
1.8947995e+3, 1.2274734e+2, -1931007.1, -1607113.0, -16260.188, -0.046790484, -0.6947881, -1606298.8, 130708.234, 0.16258536, 9.997453, 10.002128 
1.8948244e+3, 1.3274664e+2, -2003331.0, -1951304.4, -16186.507, -0.118646994, -0.7138339, -1946679.6, -307664.5, 0.110513955, 9.997967, 9.998675 
1.8948522e+3, 1.4274538e+2, -1765911.0, -1615757.8, -3905.7385, 0.052663937, -0.7393179, -1615656.3, -74626.086, 0.06108175, 9.998208, 10.000182 
1.8948801e+3, 1.5274721e+2, -1662168.0, -1407744.5, 75532.5, -0.03210444, -0.6755881, -1387010.4, 56001.617, 0.024752133, 9.997789, 10.001144 
1.8949082e+3, 1.6274874e+2, -1625676.6, -1502952.1, 84489.16, -0.10273553, -0.5646648, -1459893.4, -114895.93, 0.0060684755, 9.998049, 9.999693 
1.8949363e+3, 1.7274873e+2, -1277400.9, -1303803.4, 102526.33, -0.18356031, -0.53190196, -1187229.4, 59770.773, 0.0005270964, 9.999856, 9.999516 
1.894965e+3, 1.8274775e+2, -1028508.8, -1121747.0, 121905.09, -0.20133334, -0.5714193, -944612.8, 204396.92, 0.0000013718216, 10.00085, 9.999608 
1.8949962e+3, 1.9274542e+2, -1047340.3, -1052756.8, 123506.96, -0.058360834, -0.8004088, -926511.9, 124514.016, 0.0, 9.999932, 9.999846 
1.895026e+3, 2.027442e+2, -1068644.3, -1100250.9, 69516.945, -0.0023644653, -0.8635789, -1013156.94, -60121.67, 0.0, 9.999481, 9.999077 
1.8950526e+3, 2.1274608e+2, -859031.94, -943373.56, 82208.85, -0.1575725, -0.5971212, -808808.6, 46214.69, 0.0, 10.000241, 9.999108 
1.8950802e+3, 2.2274634e+2, -687488.3, -884376.44, 88658.93, -0.22156984, -0.44241512, -653449.75, 103574.625, 0.0, 10.001065, 9.998442 
1.89511e+3, 2.3274307e+2, -454082.28, -721465.25, 81751.48, -0.08940394, -0.6277408, -431067.94, 227985.11, 0.0, 10.002003, 9.99843 
1.895138e+3, 2.4274006e+2, -313414.97, -614967.3, 5645.991, -0.052801404, -0.7546468, -313309.3, 247769.98, 0.0, 10.002327, 9.998345 
1.8951629e+3, 2.5273836e+2, -355128.44, -564666.56, 921.81586, -0.2143748, -0.79185003, -355124.38, 107969.54, 0.0, 10.001296, 9.998509 
1.8951893e+3, 2.6273662e+2, -337061.47, -592637.6, 16059.642, -0.22133312, -0.76613724, -336056.28, 29053.484, 0.0000000071100716, 10.001117, 9.997733 
1.8952188e+3, 2.7273533e+2, 34794.414, -351188.6, 18858.662, 0.033349324, -0.6912361, 35713.637, 302837.94, 0.0000064261117, 10.002969, 9.997813 
1.8952465e+3, 2.8273326e+2, 287417.13, -118202.49, 18603.242, 0.09248072, -0.6864021, 288268.56, 457411.66, 0.00008727804, 10.003739, 9.998384 
1.8952712e+3, 2.927296e+2, 153912.55, -100814.48, 32698.988, -0.13105954, -0.9502283, 158043.1, 229214.73, 0.00038336485, 10.002015, 9.998659 
1.8952985e+3, 3.0272713e+2, -7977.692, -454600.16, 22410.426, -0.07835291, -0.93657196, -6856.009, -6856.009, 0.0009603228, 10.001878, 9.995958 
1.8953305e+3, 3.1272656e+2, 377597.13, -260591.44, 34098.758, 0.45472914, -0.5663866, 379413.88, 379413.88, 0.0017272044, 10.004513, 9.996005 
1.9047971e+3, 1.2272149e+2, -2004721.9, -1635854.9, -96453.6, 0.00015730807, -0.7511968, -1612156.3, 125100.97, 0.1713416, 9.996932, 10.00218 
1.9048232e+3, 1.3272026e+2, -2009009.3, -2056642.4, 15147.869, -0.04847691, -0.7441758, -2004600.3, -365326.66, 0.11689223, 9.998381, 9.997747 
1.9048503e+3, 1.4271969e+2, -1633515.9, -1595456.8, 76777.6, 0.012275365, -0.6292157, -1535385.5, 5898.646, 0.06499328, 9.999296, 9.999799 
1.9048783e+3, 1.52721e+2, -1456670.3, -1333854.4, 64942.734, -0.04817556, -0.59534734, -1305883.9, 137387.11, 0.026617203, 9.999286, 10.000948 
1.9049068e+3, 1.6272186e+2, -1470372.5, -1433902.8, 70328.67, -0.1030907, -0.53880286, -1379483.4, -34220.914, 0.0066676727, 9.999142, 9.999639 
1.9049357e+3, 1.7272125e+2, -1367253.8, -1344454.3, 67354.18, -0.18423657, -0.56474966, -1287541.9, -40273.35, 0.0006122247, 9.999238, 9.999525 
1.9049652e+3, 1.8271999e+2, -1243036.3, -1215941.3, 51081.086, -0.19858204, -0.63636804, -1176641.6, -27362.54, 0.0000017786746, 9.999343, 9.999685 
1.9049959e+3, 1.9271803e+2, -1081551.4, -1057392.6, 64670.797, -0.067560144, -0.83758473, -1003682.8, 47609.207, 0.0, 9.999653, 9.9999485 
1.9050255e+3, 2.0271708e+2, -1022491.44, -1074917.0, 52627.992, -0.0064028194, -0.87821823, -989909.56, -36610.71, 0.0, 9.9998045, 9.999084 
1.905053e+3, 2.1271876e+2, -945367.94, -992506.8, 18039.922, -0.1171501, -0.62902373, -939256.44, -83967.13, 0.0, 9.999683, 9.999035 
1.9050811e+3, 2.2271901e+2, -855584.0, -923020.3, 33970.46, -0.15915696, -0.4845814, -841438.75, -84148.08, 0.0, 9.999723, 9.998826 
1.9051112e+3, 2.3271644e+2, -683713.8, -777529.94, 87977.15, -0.063651666, -0.6477235, -630920.56, 28391.676, 0.0, 10.00018, 9.998931 
1.9051398e+3, 2.4271403e+2, -540559.8, -717936.2, 48902.96, -0.03657642, -0.74803233, -527970.7, 33362.293, 0.0, 10.000754, 9.998384 
1.9051649e+3, 2.5271222e+2, -297368.0, -546127.1, -163.98264, -0.1672844, -0.78602916, -297367.88, 165981.3, 0.0, 10.001736, 9.998417 
1.9051914e+3, 2.6271036e+2, -154126.83, -470691.88, 49383.727, -0.17591847, -0.7868905, -146601.9, 218765.1, 0.000000016068412, 10.0022335, 9.998026 
1.9052207e+3, 2.727089e+2, -124225.77, -392451.06, 83418.46, 0.004911874, -0.7604671, -100399.06, 166982.53, 0.000006012962, 10.001697, 9.998153 
1.9052486e+3, 2.827071e+2, -56515.414, -336641.22, 81366.38, 0.060197856, -0.7348352, -34596.51, 134802.1, 0.000076659555, 10.001612, 9.997906 
1.9052745e+3, 2.9270446e+2, 246540.95, -133191.9, -12977.491, -0.03407613, -0.8207819, 246983.95, 318405.0, 0.00034009607, 10.0029955, 9.997957 
1.9053021e+3, 3.0270186e+2, 374450.0, -123195.88, 21963.787, 0.015228258, -0.83313006, 375417.5, 375417.5, 0.0008709652, 10.0038805, 9.997273 
1.9053344e+3, 3.1269976e+2, 264934.3, -176291.61, 107609.7, 0.47662106, -0.7900092, 289779.97, 289779.97, 0.0016019944, 10.003098, 9.997286 
1.9147938e+3, 1.2269456e+2, -1887789.6, -1409371.0, -45552.36, -0.043111764, -0.74711716, -1405072.4, 332452.34, 0.18042894, 9.996811, 10.004107 
1.9148222e+3, 1.3269417e+2, -1957380.8, -1942926.3, 73904.7, 0.004324658, -0.7526825, -1875896.3, -236367.98, 0.12358676, 9.9983635, 9.9985285 
1.9148493e+3, 1.4269435e+2, -1671735.3, -1691596.3, 82310.03, -0.057328723, -0.5823269, -1598758.9, -57229.3, 0.069141634, 9.999365, 9.999105 
1.9148767e+3, 1.5269424e+2, -1534977.5, -1493782.6, 68801.22, -0.1510593, -0.583363, -1442561.9, 969.6653, 0.028615344, 9.999281, 9.999833 
1.9149053e+3, 1.6269329e+2, -1499154.0, -1500340.4, 63624.145, -0.17850304, -0.6205926, -1436120.4, -90579.39, 0.0073205116, 9.999171, 9.9991665 
1.9149366e+3, 1.7269097e+2, -1391724.9, -1392460.6, 74917.555, -0.018780893, -0.787047, -1317174.3, -69612.36, 0.00070924795, 9.999228, 9.999199 
1.914967e+3, 1.8268993e+2, -1214020.5, -1160710.6, 55973.223, 0.040937692, -0.8294384, -1125369.8, 24200.25, 0.0000023137907, 9.999359, 10.000061 
1.9149947e+3, 1.926925e+2, -1046199.9, -975970.3, 82288.31, -0.15332109, -0.63212645, -921617.7, 129924.26, 0.0, 9.999615, 10.000529 
1.915023e+3, 2.0269309e+2, -1053756.0, -1132670.4, 45874.13, -0.2405681, -0.5427076, -1032704.5, -79169.4, 0.0, 9.999766, 9.998709 
1.9150534e+3, 2.1268919e+2, -1002956.0, -1095819.5, 18607.72, -0.04348264, -0.78569764, -999366.25, -143790.2, 0.0, 9.99961, 9.998362 
1.9150832e+3, 2.2268684e+2, -802595.6, -789443.5, 44197.0, 0.06801919, -0.89763963, -751336.0, 6264.2007, 0.0, 9.999619, 9.999797 
1.9151115e+3, 2.3268895e+2, -596277.56, -568170.2, 113989.08, -0.048910588, -0.73526424, -467371.72, 192204.9, 0.0, 10.000064, 10.000425 
1.9151397e+3, 2.4268967e+2, -559803.7, -728142.1, 75761.57, -0.12029283, -0.61374426, -530728.56, 30839.332, 0.0, 10.000623, 9.99838 
1.9151677e+3, 2.5268704e+2, -349615.75, -617677.3, 43592.336, -0.056041718, -0.697175, -342704.9, 120890.2, 0.0, 10.001587, 9.9979925 
1.915195e+3, 2.6268446e+2, -123674.08, -383376.4, 32344.941, -0.046161003, -0.76554483, -119706.26, 245914.19, 0.000000038925435, 10.002118, 9.998688 
1.9152202e+3, 2.7268296e+2, -73653.46, -262640.3, 65812.52, -0.22060372, -0.83910924, -52993.53, 214639.64, 0.000005437274, 10.001593, 9.999094 
1.9152476e+3, 2.826819e+2, -156687.61, -529459.94, 103417.516, -0.22745752, -0.7415442, -129918.93, 39724.383, 0.00006527873, 10.00154, 9.996619 
1.9152804e+3, 2.9268134e+2, 91432.195, -418312.88, 56267.71, 0.23900619, -0.44088444, 97569.36, 169223.75, 0.00029241332, 10.002844, 9.996071 
1.9153093e+3, 3.0267748e+2, 520394.63, 209947.34, 4576.8657, 0.3276984, -0.56078744, 520462.1, 520462.1, 0.0007691183, 10.00374, 9.99963 
1.9153312e+3, 3.1267333e+2, 453574.75, 307299.78, 117328.38, -0.17868543, -1.0703895, 518694.44, 518694.44, 0.0014565451, 10.002729, 10.000772 
1.9247906e+3, 1.22667365e+2, -1774053.3, -1302010.6, -35180.203, -0.04855046, -0.6500477, -1299403.1, 438391.66, 0.18987963, 9.99721, 10.004872 
1.9248207e+3, 1.3266596e+2, -2024783.8, -1931931.9, -33424.953, 0.06135973, -0.7984506, -1921151.3, -281345.72, 0.13060497, 9.9977045, 9.998929 
1.9248481e+3, 1.426668e+2, -1856545.4, -1795348.0, -26547.223, -0.035232153, -0.5805575, -1785437.0, -243638.5, 0.07352615, 9.998169, 9.99897 
1.9248763e+3, 1.526662e+2, -1603157.4, -1560287.1, -898.71246, -0.097433336, -0.6007732, -1560268.3, -116462.95, 0.030745408, 9.99897, 9.99952 
1.9249053e+3, 1.6266465e+2, -1473347.9, -1529558.1, 36590.996, -0.110456936, -0.66401166, -1455314.1, -109493.55, 0.008026891, 9.999544, 9.998777 
1.9249365e+3, 1.7266192e+2, -1347823.4, -1417577.3, 25936.658, 0.013850949, -0.832133, -1339236.4, -91390.96, 0.0008187495, 9.999737, 9.99878 
1.9249667e+3, 1.8266077e+2, -1173920.9, -1163203.1, -5039.194, 0.05833258, -0.8523171, -1161206.0, -11350.821, 0.0000031359323, 9.999729, 9.999869 
1.9249944e+3, 1.9266368e+2, -1062127.1, -997438.6, -37972.938, -0.12303116, -0.60506743, -979902.06, 71924.305, 0.0, 9.999558, 10.000412 
1.925023e+3, 2.0266455e+2, -1042231.75, -1049925.0, -62199.4, -0.1998732, -0.50644773, -983760.1, -29943.145, 0.0, 9.999516, 9.999397 
1.9250533e+3, 2.1266088e+2, -894492.06, -938679.25, 11863.3, -0.018859522, -0.81744325, -891508.44, -35657.836, 0.0, 9.999914, 9.99929 
1.9250832e+3, 2.2265881e+2, -731193.94, -733570.1, 93499.29, 0.092983216, -0.96541464, -638875.2, 118993.67, 0.0, 10.000028, 9.99998 
1.9251119e+3, 2.326611e+2, -681495.56, -615823.4, 40830.25, 0.0061361804, -0.7819589, -596263.7, 63582.1, 0.0, 9.999505, 10.000367 
1.9251403e+3, 2.4266201e+2, -738023.94, -792630.8, -22398.537, -0.042951655, -0.6437795, -730012.06, -168175.08, 0.0, 9.999306, 9.998572 
1.925169e+3, 2.526599e+2, -559871.44, -696451.25, -11801.553, -0.000380886, -0.6964525, -558859.25, -94999.74, 0.0, 10.000028, 9.998215 
1.9251966e+3, 2.6265758e+2, -333878.5, -513201.47, -21288.97, -0.012095245, -0.7428806, -331385.75, 34497.297, 0.000000047147957, 10.000806, 9.998426 
1.925222e+3, 2.7265564e+2, -74983.945, -307557.28, -107680.95, -0.20542477, -0.8197386, -32784.727, 235116.8, 0.0000043683804, 10.0017805, 9.998693 
1.9252497e+3, 2.8265435e+2, 38510.285, -373744.7, -41688.867, -0.20832026, -0.74181104, 42683.777, 212598.16, 0.000052619915, 10.002642, 9.997146 
1.9252835e+3, 2.926543e+2, 209424.55, -278051.56, 79133.12, 0.2533966, -0.46181685, 221948.64, 293866.22, 0.00024219825, 10.003289, 9.99682 
1.9253126e+3, 3.026501e+2, 417401.97, 127545.516, 25647.777, 0.32621115, -0.6502153, 419653.9, 419653.9, 0.0006583253, 10.003167, 9.999344 
1.9253343e+3, 3.1264684e+2, 292583.53, 172004.06, -148885.56, -0.078416936, -1.0082757, 392923.06, 392923.06, 0.0012843859, 10.001817, 10.000309 
1.9347873e+3, 1.2264002e+2, -1802731.5, -1364672.4, 13629.907, -0.1308363, -0.44167796, -1364248.8, 373817.7, 0.1997211, 9.997254, 10.00436 
1.9348182e+3, 1.326356e+2, -2033489.3, -1937232.5, -17128.045, 0.037491113, -0.87400335, -1934275.5, -294169.94, 0.13795441, 9.997646, 9.998925 
1.9348466e+3, 1.4263716e+2, -1827491.9, -1726915.4, -4554.878, -0.00761509, -0.6071375, -1726709.5, -184619.42, 0.07814733, 9.998133, 9.999456 
1.9348769e+3, 1.5263692e+2, -1571015.9, -1495444.0, 37704.71, 0.05717075, -0.64095885, -1479850.0, -35757.73, 0.033007, 9.998971, 9.999969 
1.9349065e+3, 1.6263588e+2, -1488580.0, -1567378.5, 41547.973, 0.036472976, -0.66995454, -1470720.8, -124618.8, 0.008786739, 9.999569, 9.9985075 
1.9349347e+3, 1.7263405e+2, -1385844.0, -1494572.5, 36774.797, -0.13753396, -0.69562536, -1374574.0, -126454.93, 0.00094156526, 9.999726, 9.99826 
1.9349639e+3, 1.8263242e+2, -1224776.8, -1270085.9, -12761.512, -0.21196643, -0.7037596, -1221429.6, -71294.516, 0.0000044945964, 9.999734, 9.999132 
1.934995e+3, 1.9263165e+2, -1122649.1, -1115812.6, -38023.176, -0.038551006, -0.7478762, -1081054.3, -28909.912, 0.0, 9.99953, 9.999611 
1.9350252e+3, 2.0263158e+2, -926970.8, -806646.75, -56307.836, 0.04929609, -0.75879836, -784407.06, 169736.8, 0.0, 9.999491, 10.001085 
1.9350526e+3, 2.1263362e+2, -733907.8, -588084.1, 33436.824, -0.0918264, -0.73166364, -580782.75, 275332.1, 0.0, 9.999835, 10.00174 
1.9350809e+3, 2.2263452e+2, -792935.06, -832307.0, 74922.27, -0.14365181, -0.711929, -735155.6, 22944.957, 0.0, 9.999904, 9.999359 
1.9351117e+3, 2.3263285e+2, -807767.8, -848408.25, 25879.137, 0.035684586, -0.7812154, -795184.5, -135064.17, 0.0, 9.999388, 9.99882 
1.9351415e+3, 2.4263135e+2, -727447.94, -752164.75, -13613.4795, 0.118306376, -0.80096805, -721420.0, -159282.48, 0.0, 9.999219, 9.998897 
1.9351685e+3, 2.5263095e+2, -507479.66, -567405.56, 21597.54, -0.048657, -0.76718575, -500507.1, -36365.594, 0.0, 9.999946, 9.99914 
1.9351964e+3, 2.626297e+2, -429464.2, -688353.75, 4702.807, -0.13418558, -0.71689105, -429378.8, -63224.16, 0.00000001782158, 10.000709, 9.997271 
1.9352256e+3, 2.72627e+2, -219621.55, -569388.75, -59745.418, -0.032722425, -0.7014996, -209697.7, 58488.125, 0.0000032439186, 10.001635, 9.996957 
1.9352548e+3, 2.8262478e+2, 168924.31, -84504.91, -23836.148, 0.018743815, -0.691129, 171146.72, 341354.44, 0.000042492127, 10.002541, 9.99919 
1.935284e+3, 2.9262364e+2, 402898.56, 170496.63, 107816.98, -0.04619923, -0.8262397, 445213.1, 517421.94, 0.00020128557, 10.003089, 10.000002 
1.9353123e+3, 3.0262014e+2, 189112.06, -290843.97, -29365.822, -0.04560339, -1.0274498, 190902.13, 190902.13, 0.00056116504, 10.002929, 9.996583 
1.9353414e+3, 3.1261858e+2, -3330.9324, -377642.06, -116687.2, 0.4268711, -0.8035901, 30065.332, 30065.332, 0.0011166048, 10.001583, 9.996621 
1.9447856e+3, 1.22609645e+2, -1738201.8, -1436898.6, 18642.197, -0.07673243, -0.46343562, -1435749.6, 302614.22, 0.20999403, 9.9982, 10.003311 
1.944816e+3, 1.3260536e+2, -1949462.4, -1863819.0, -55922.79, 0.03245181, -0.8921162, -1836205.9, -195802.58, 0.14565058, 9.998077, 9.999214 
1.944845e+3, 1.4260809e+2, -1774573.5, -1670928.9, 2390.8743, 0.0068975147, -0.5411712, -1670873.8, -128496.95, 0.083007626, 9.998347, 9.999745 
1.9448765e+3, 1.5260756e+2, -1499499.9, -1429807.5, 18808.969, 0.10445769, -0.6294082, -1425055.4, 19325.15, 0.03539992, 9.999324, 10.000254 
1.9449066e+3, 1.6260657e+2, -1431321.5, -1498722.3, 12996.748, 0.09147957, -0.68627894, -1428902.1, -82513.89, 0.009600047, 9.999767, 9.998893 
1.9449341e+3, 1.7260534e+2, -1421390.6, -1462232.3, 59717.94, -0.14369515, -0.69516236, -1378698.5, -130300.74, 0.0010784023, 9.999256, 9.998711 
1.9449626e+3, 1.8260388e+2, -1378486.0, -1360457.5, 80524.05, -0.24061733, -0.7080176, -1288444.8, -138033.92, 0.0000066792873, 9.998756, 9.998975 
1.9449942e+3, 1.9260235e+2, -1294544.4, -1237504.4, 78739.54, -0.025885053, -0.79712665, -1182279.0, -129850.39, 0.0, 9.9985285, 9.999251 
1.9450246e+3, 2.0260192e+2, -1079707.1, -892512.5, 58400.44, 0.09161896, -0.81691486, -875787.25, 78644.95, 0.0, 9.998504, 10.000963 
1.9450523e+3, 2.1260445e+2, -855789.0, -656845.44, -39009.355, -0.061779264, -0.7353512, -649469.8, 206929.33, 0.0, 9.999038, 10.001651 
1.9450808e+3, 2.2260548e+2, -877406.6, -901085.1, -110377.83, -0.11642868, -0.6858008, -778234.94, -19850.59, 0.0, 9.999436, 9.999114 
1.9451115e+3, 2.3260324e+2, -809125.7, -883314.8, -89872.66, 0.07236289, -0.7804061, -748993.2, -88582.54, 0.0, 9.999517, 9.998526 
1.9451413e+3, 2.4260142e+2, -625966.6, -681894.56, -28751.084, 0.15833569, -0.8206585, -613823.1, -51391.594, 0.0, 9.999836, 9.999081 
1.9451691e+3, 2.5260103e+2, -342410.03, -456631.6, -39329.785, -0.034886476, -0.8125386, -330177.66, 134256.52, 0.0, 10.000939, 9.999423 
1.9451977e+3, 2.6259997e+2, -256929.72, -578543.5, -46039.86, -0.11006965, -0.7733626, -250468.78, 115975.875, 0.000000002142629, 10.001778, 9.997506 
1.9452283e+3, 2.725978e+2, -145885.16, -517597.0, 5531.5786, 0.06164044, -0.72461146, -145802.86, 122666.6, 0.0000029419668, 10.002047, 9.997126 
1.9452576e+3, 2.825956e+2, 48891.4, -136427.03, 56703.066, 0.101852454, -0.7214766, 64864.445, 235355.14, 0.000037529444, 10.001696, 9.999241 
1.9452846e+3, 2.9259402e+2, -31320.525, -33411.21, -61856.063, -0.124398276, -0.8969136, 29499.027, 101997.19, 0.00017698373, 10.000075, 10.000052 
1.9453138e+3, 3.0259135e+2, -204200.77, -513285.1, -176929.16, -0.038049694, -1.008681, -123823.36, -123823.36, 0.00049046276, 10.000371, 9.996281 
1.9453456e+3, 3.1259012e+2, 527165.25, -151632.8, 15319.016, 0.5177653, -0.700944, 527510.8, 527510.8, 0.0009707168, 10.005311, 9.996393 
1.9547847e+3, 1.2257627e+2, -1838897.4, -1618124.3, 16969.715, -0.027179003, -0.7103678, -1616827.5, 121858.77, 0.22070916, 9.998265, 10.001723 
1.9548137e+3, 1.3257518e+2, -1901686.1, -1778448.8, -54741.25, -0.007978249, -0.85471827, -1757644.9, -116945.47, 0.15369554, 9.998121, 9.999784 
1.9548428e+3, 1.4257944e+2, -1756234.4, -1642817.8, 23865.408, -0.06394262, -0.39277866, -1638000.5, -95340.445, 0.08810495, 9.99839, 9.999916 
1.9548747e+3, 1.5257803e+2, -1497007.9, -1423875.4, 59470.035, -0.02103659, -0.5728729, -1390629.3, 54042.04, 0.037922986, 9.999317, 10.000305 
1.9549054e+3, 1.6257666e+2, -1351926.0, -1338804.0, -85.293816, -0.02456844, -0.7132691, -1338803.4, 7876.9966, 0.010466628, 9.999787, 9.99998 
1.9549343e+3, 1.7257573e+2, -1321191.5, -1259173.9, 42303.684, -0.055258717, -0.8309243, -1237731.4, 10950.49, 0.0012294218, 9.999271, 10.000097 
1.9549632e+3, 1.8257508e+2, -1346845.5, -1298405.9, 65330.918, -0.08521414, -0.8662613, -1252949.9, -102266.51, 0.000009908067, 9.998774, 9.999392 
1.9549917e+3, 1.925757e+2, -1289126.4, -1223328.1, 76745.22, -0.13159122, -0.75294715, -1172727.8, -120047.945, 0.0, 9.998513, 9.999359 
1.9550209e+3, 2.0257545e+2, -1226296.0, -1180755.6, 66238.86, -0.12909617, -0.68767446, -1133482.5, -178798.52, 0.0, 9.998438, 9.999016 
1.9550522e+3, 2.1257335e+2, -1049951.5, -1035379.5, -11064.696, 0.011584252, -0.8193141, -1029417.4, -172713.78, 0.0, 9.998939, 9.999098 
1.9550826e+3, 2.2257178e+2, -884815.44, -892571.6, -104316.76, 0.10455294, -0.8751657, -784304.75, -25585.674, 0.0, 9.999329, 9.999226 
1.9551109e+3, 2.3257235e+2, -758938.06, -752006.25, -79531.336, 0.060669247, -0.77538085, -675865.3, -15148.842, 0.0, 9.999409, 9.999475 
1.9551396e+3, 2.4257211e+2, -643839.56, -694689.6, -374.97275, 0.008513193, -0.71364063, -643836.8, -81116.49, 0.0, 9.999729, 9.999044 
1.9551702e+3, 2.5257024e+2, -382911.84, -511294.03, 12312.168, -0.022009332, -0.8241876, -381741.72, 82995.2, 0.0, 10.000826, 9.999095 
1.9552007e+3, 2.6256868e+2, -170465.16, -378510.72, -35273.152, -0.008418192, -0.86862355, -164647.45, 202102.25, 0.00000003752054, 10.001676, 9.998936 
1.95523e+3, 2.72568e+2, -25146.62, -236277.08, 20537.934, 0.022175258, -0.8630603, -23167.326, 245585.47, 0.0000033154865, 10.001916, 9.999122 
1.9552583e+3, 2.8256676e+2, -105763.086, -420814.16, -3600.6812, -0.028196106, -0.8191147, -105721.94, 65042.7, 0.00003554113, 10.001536, 9.997365 
1.9552852e+3, 2.9256544e+2, -245870.5, -457109.9, -113206.42, -0.07273487, -0.68092114, -196663.8, -123878.66, 0.00016173386, 9.999994, 9.997175 
1.955317e+3, 3.0256376e+2, -87527.25, -266104.34, -55316.32, 0.2251217, -0.58722806, -71780.85, -71780.85, 0.0004325806, 10.000333, 9.998004 
1.9553487e+3, 3.1256086e+2, 645908.25, 205020.78, 203549.25, 0.26245144, -0.73850334, 725510.75, 725510.75, 0.0008294885, 10.004877, 9.999036 
1.9647828e+3, 1.2254464e+2, -2111668.5, -1800182.3, 25589.643, 0.048410892, -0.76841563, -1798094.0, -59100.516, 0.23177752, 9.996768, 10.00096 
1.9648123e+3, 1.3254522e+2, -1727941.1, -1605893.9, -3482.3901, 0.006967462, -0.81337523, -1605794.6, 35196.75, 0.1620495, 9.998921, 10.000624 
1.964842e+3, 1.4254932e+2, -1537134.6, -1546935.1, 44843.47, -0.05383958, -0.4113201, -1496924.5, 46028.977, 0.093428105, 9.99997, 9.999816 
1.9648734e+3, 1.5254754e+2, -1633522.1, -1525659.3, 29551.26, -0.030190926, -0.60036415, -1518093.8, -73124.67, 0.04057487, 9.99855, 9.999955 
1.964904e+3, 1.6254605e+2, -1609940.0, -1437694.9, -40501.055, -0.02933189, -0.7384876, -1428646.9, -81667.18, 0.011385711, 9.997915, 10.000202 
1.9649336e+3, 1.725457e+2, -1258674.0, -1181003.0, -75469.13, -0.06081468, -0.8351773, -1134963.4, 114011.734, 0.0013940044, 9.99951, 10.000515 
1.9649628e+3, 1.8254542e+2, -1086740.8, -1170049.5, -127752.95, -0.07597565, -0.85893756, -994022.9, 156949.64, 0.000014255441, 10.00054, 9.999428 
1.9649914e+3, 1.9254588e+2, -1068038.3, -1128556.5, -152923.64, -0.0710524, -0.7528232, -942408.8, 110561.13, 0.0, 10.000082, 9.999255 
1.9650207e+3, 2.0254536e+2, -1057042.4, -1115333.9, -95767.23, -0.045584098, -0.70078284, -986084.0, -31107.64, 0.0, 9.999653, 9.998888 
1.9650514e+3, 2.1254286e+2, -986871.0, -1017466.94, -3592.069, 0.030176431, -0.8611846, -986454.94, -129454.3, 0.0, 9.999413, 9.998997 
1.9650817e+3, 2.2254123e+2, -864523.4, -865206.7, 33251.586, 0.091086514, -0.9260872, -831611.7, -72594.59, 0.0, 9.999399, 9.999379 
1.9651107e+3, 2.3254205e+2, -643962.4, -678102.56, 589.0884, 0.07634204, -0.8174333, -643952.25, 17059.098, 0.0, 10.000101, 9.999657 
1.96514e+3, 2.425421e+2, -521900.56, -653596.2, 59963.766, 0.0374382, -0.73478323, -498688.94, 64323.777, 0.0, 10.000634, 9.998891 
1.9651707e+3, 2.5254074e+2, -419277.7, -563935.2, 62022.2, -0.041374408, -0.7696364, -396326.84, 68699.766, 0.0, 10.000717, 9.998791 
1.9652013e+3, 2.6253927e+2, -309700.78, -434117.72, -22966.455, -0.048918758, -0.78635293, -305596.72, 61442.816, 0.00000006167767, 10.000681, 9.99903 
1.9652309e+3, 2.7253783e+2, -229732.86, -311888.38, -114708.67, 0.0067823473, -0.8714727, -148968.67, 120079.43, 0.000003603985, 10.000416, 9.99932 
1.9652592e+3, 2.825361e+2, -295797.7, -551765.94, -161025.64, -0.014197854, -0.873238, -218089.83, -47025.754, 0.00003406456, 10.000403, 9.997011 
1.9652866e+3, 2.9253504e+2, -38040.688, -416562.44, -120456.69, -0.019193742, -0.65663004, -2959.2063, 70124.78, 0.0001486936, 10.00167, 9.996655 
1.9653195e+3, 3.0253354e+2, 329284.44, 52048.1, 89372.91, 0.33584592, -0.55644375, 355598.13, 355598.13, 0.00038063264, 10.002706, 9.999048 
1.9653499e+3, 3.1253108e+2, 195768.28, 97791.5, 120853.19, 0.100008816, -0.7882218, 277184.47, 277184.47, 0.00069814175, 10.001274, 10.000055 
1.9747797e+3, 1.2251449e+2, -2091537.4, -1757661.1, -1188.681, 0.031931043, -0.67891204, -1757656.9, -18368.71, 0.24301729, 9.996776, 10.001245 
1.9748116e+3, 1.3251546e+2, -1662481.0, -1486621.5, 75886.02, 0.027332673, -0.77556205, -1458403.4, 182875.3, 0.17062773, 9.998919, 10.001629 
1.9748423e+3, 1.4251778e+2, -1557414.4, -1603512.3, 16149.626, -0.034989323, -0.5986648, -1552319.8, -9063.363, 0.09895461, 10.000011, 9.999396 
1.9748726e+3, 1.5251596e+2, -1687848.9, -1646641.8, -24266.813, 0.0280543, -0.71359664, -1635411.6, -190137.05, 0.04335473, 9.998575, 9.99912 
1.9749026e+3, 1.6251461e+2, -1649765.3, -1524234.8, -13057.264, 0.019671522, -0.76209575, -1522891.0, -175603.88, 0.012356995, 9.997933, 9.9996 
1.9749318e+3, 1.7251517e+2, -1296225.3, -1259308.4, -5965.6177, -0.207911, -0.7108183, -1258368.3, -9089.615, 0.0015709848, 9.999513, 9.999977 
1.9749616e+3, 1.8251488e+2, -1112543.3, -1223959.4, -131266.92, -0.27270925, -0.6886677, -1025652.6, 125626.86, 0.000019593592, 10.000543, 9.999057 
1.9749933e+3, 1.9251285e+2, -1095693.6, -1177651.5, -165295.39, 0.091178924, -0.7978117, -966373.25, 86926.54, 0.0, 10.000047, 9.998935 
1.9750236e+3, 2.0251161e+2, -951198.9, -880525.3, -109301.76, 0.26890188, -0.8593363, -800990.1, 154320.28, 0.0, 9.999592, 10.000527 
1.9750501e+3, 2.1251301e+2, -840926.06, -693711.7, -5625.0776, -0.0532502, -0.8475704, -693497.06, 163793.33, 0.0, 9.999325, 10.001262 
1.9750781e+3, 2.2251363e+2, -869772.4, -851463.0, 45793.258, -0.21417746, -0.8336314, -813918.4, -54637.89, 0.0, 9.99929, 9.999525 
1.9751108e+3, 2.3251235e+2, -695144.56, -763008.0, 34691.637, 0.06755673, -0.8922641, -680549.25, -19253.715, 0.0, 10.000012, 9.999113 
1.9751422e+3, 2.425115e+2, -557907.94, -710677.4, 63053.297, 0.1802185, -0.853753, -535245.44, 28062.094, 0.0, 10.000551, 9.998543 
1.9751704e+3, 2.5251228e+2, -449644.16, -606020.56, 70980.59, -0.14455178, -0.64443254, -422231.03, 43073.938, 0.0, 10.000628, 9.998545 
1.9751997e+3, 2.6251143e+2, -412463.78, -617053.6, -36593.11, -0.29772, -0.5389927, -406115.66, -38799.31, 0.000000055759365, 10.000551, 9.997835 
1.9752309e+3, 2.725074e+2, -346299.34, -528775.8, -116271.125, -0.048747547, -0.74804455, -289742.47, -20388.094, 0.0000036492006, 10.000322, 9.997868 
1.9752605e+3, 2.8250417e+2, -238845.3, -426450.1, -138995.19, 0.06457847, -0.840449, -164961.81, 6422.04, 0.00003270161, 10.000361, 9.997897 
1.9752882e+3, 2.92503e+2, 62088.03, -180689.02, -52155.668, -0.032289222, -0.7924379, 72818.34, 146212.45, 0.00013867494, 10.001547, 9.998335 
1.9753212e+3, 3.0250084e+2, 299152.56, 52157.242, 63055.12, 0.20822816, -0.8648111, 314318.6, 314318.6, 0.0003432824, 10.002453, 9.999166 
1.9753519e+3, 3.12501e+2, 139835.45, 45898.492, -33206.35, 0.15488707, -0.8160492, 150388.27, 150388.27, 0.00060457416, 10.001053, 9.999779 
1.9847777e+3, 1.22483715e+2, -1661366.9, -1647262.3, -31736.602, -0.0030037228, -0.67931867, -1621803.9, 117784.45, 0.25424254, 10.000246, 10.000551 
1.984811e+3, 1.3248438e+2, -1650434.1, -1514592.8, 17148.29, 0.08368029, -0.7667856, -1512461.5, 129120.945, 0.17932345, 9.999135, 10.001294 
1.9848415e+3, 1.4248602e+2, -1769773.4, -1658798.3, -104873.34, -0.023233652, -0.6488622, -1595638.0, -52072.324, 0.104643695, 9.998347, 9.9998255 
1.9848713e+3, 1.5248491e+2, -1530294.3, -1488931.0, -51200.89, 0.0072350185, -0.7598079, -1454392.5, -8817.85, 0.046255346, 9.999315, 9.999841 
1.9849014e+3, 1.624839e+2, -1380675.8, -1429789.8, 77899.89, 0.018827125, -0.81010616, -1323553.9, 24029.125, 0.013380272, 9.999941, 9.999274 
1.9849318e+3, 1.7248408e+2, -1341147.6, -1358274.6, 75641.83, -0.13417429, -0.7317256, -1273586.1, -24004.512, 0.0017591557, 9.999539, 9.999284 
1.9849624e+3, 1.8248352e+2, -1304420.4, -1325702.0, -58535.395, -0.16974398, -0.69151837, -1255566.5, -103979.05, 0.0000256483, 9.999256, 9.998979 
1.9849932e+3, 1.9248132e+2, -1152431.9, -1190886.1, -76401.55, 0.09905188, -0.8310271, -1092875.3, -39266.24, 0.0, 9.999586, 9.999066 
1.9850229e+3, 2.024803e+2, -893921.4, -800298.7, -23465.4, 0.2283756, -0.89838827, -794746.6, 160870.1, 0.0, 9.999758, 10.000998 
1.9850497e+3, 2.1248278e+2, -753826.25, -588548.94, -53276.395, -0.022494813, -0.83666724, -572864.06, 284721.06, 0.0, 9.999649, 10.001828 
1.9850783e+3, 2.2248393e+2, -788298.1, -815549.7, -42763.902, -0.15329093, -0.8024359, -757041.7, 2527.3057, 0.0, 9.999861, 9.999498 
1.9851108e+3, 2.3248191e+2, -587776.5, -733832.0, -36160.402, 0.03888808, -0.91361964, -579314.2, 82277.055, 0.0, 10.0008545, 9.998901 
1.9851425e+3, 2.424806e+2, -459662.47, -670317.5, -13015.116, 0.12398085, -0.903312, -458861.38, 104746.484, 0.0, 10.001279, 9.998458 
1.9851713e+3, 2.5248152e+2, -482643.44, -629604.75, -14173.76, -0.104275286, -0.6723486, -481288.9, -15683.766, 0.0, 10.000442, 9.99847 
1.9852006e+3, 2.6248083e+2, -486473.9, -673863.3, -49839.96, -0.21309459, -0.5421736, -474042.66, -106426.25, 0.00000004684117, 10.000134, 9.997645 
1.9852316e+3, 2.7247697e+2, -252050.61, -520037.47, -59314.344, -0.030344736, -0.703586, -239509.3, 30144.7, 0.000003631824, 10.001113, 9.997554 
1.9852616e+3, 2.8247362e+2, -22200.02, -268701.1, -32425.463, 0.08834269, -0.8051176, -18006.037, 153678.16, 0.000030883682, 10.001633, 9.9983635 
1.98529e+3, 2.9247147e+2, 34005.664, -120307.82, -24827.998, 0.031510927, -0.91740954, 37901.94, 111600.67, 0.00012816787, 10.001047, 9.998987 
1.9853215e+3, 3.0246928e+2, 58473.625, -133662.31, 42827.793, 0.08829957, -1.0147058, 67587.76, 67587.76, 0.00031299857, 10.001072, 9.99856 
1.9853544e+3, 3.1246963e+2, 281176.6, 16755.355, -211733.17, 0.2378758, -0.8388849, 398586.84, 398586.84, 0.0005436533, 10.0023985, 9.99895 
1.9947764e+3, 1.2245236e+2, -1763020.9, -1865653.9, -186489.95, -0.19659823, -0.7698179, -1620915.9, 118977.49, 0.26535824, 10.000355, 9.998888 
1.9948107e+3, 1.324518e+2, -1771590.4, -1750176.4, -27974.172, 0.11909158, -0.7937074, -1730930.1, -89025.98, 0.18805622, 9.999172, 9.999474 
1.9948395e+3, 1.4245403e+2, -1672981.5, -1470853.0, -95100.45, -0.07993274, -0.55813724, -1433143.8, 110738.85, 0.11045076, 9.998368, 10.001186 
1.9948691e+3, 1.5245436e+2, -1368449.4, -1162605.5, -3613.3247, -0.15467355, -0.7401998, -1162542.1, 283327.47, 0.04926506, 9.999329, 10.002177 
1.9949004e+3, 1.6245383e+2, -1377840.1, -1430882.3, 70425.37, -0.10031635, -0.89061236, -1329107.6, 18760.53, 0.014456319, 9.99997, 9.999252 
1.994934e+3, 1.7245236e+2, -1401113.6, -1485010.3, 61354.684, 0.11458569, -0.9020106, -1368738.0, -118853.22, 0.0019582892, 9.999543, 9.998414 
1.9949652e+3, 1.824512e+2, -1288744.5, -1293113.0, -56899.95, 0.18346436, -0.8745767, -1233986.9, -82088.72, 0.000032105352, 9.99926, 9.9992 
1.9949909e+3, 1.9245113e+2, -1114548.6, -1102669.1, -58552.957, -0.09082995, -0.8526, -1049755.4, 4143.609, 0.0, 9.999553, 9.999686 
1.9950181e+3, 2.0245123e+2, -947705.25, -900146.9, -30276.92, -0.21645294, -0.82446307, -885427.5, 70469.81, 0.0, 9.999704, 10.000339 
1.9950503e+3, 2.1245201e+2, -840910.94, -751795.1, -51405.85, 0.06286479, -0.8281215, -728323.9, 129561.98, 0.0, 9.999575, 10.000743 
1.9950816e+3, 2.2245212e+2, -813096.1, -850256.7, -15467.766, 0.19806467, -0.8253898, -807500.44, -47617.637, 0.0, 9.999784, 9.999296 
1.9951107e+3, 2.324507e+2, -595086.44, -727939.8, 12425.733, -0.059830226, -0.882307, -593934.25, 67964.32, 0.0, 10.000759, 9.998989 
1.9951406e+3, 2.424493e+2, -476721.28, -671529.06, -34464.395, -0.19384742, -0.8911615, -470803.75, 93111.33, 0.0, 10.001131, 9.998521 
1.995173e+3, 2.524486e+2, -486710.78, -621796.9, -41826.492, 0.014495361, -0.83295935, -474808.78, -8882.614, 0.0, 10.000376, 9.998553 
1.9952044e+3, 2.6244766e+2, -453004.9, -590638.2, -33992.35, 0.12312211, -0.7545813, -445067.34, -77129.71, 0.000000042002604, 10.000075, 9.998246 
1.9952331e+3, 2.724464e+2, -216628.78, -417814.75, -12428.138, -0.0046005454, -0.72892886, -215863.94, 54085.207, 0.0000035134383, 10.000999, 9.998305 
1.9952624e+3, 2.8244406e+2, -50236.227, -288819.16, -52277.37, -0.018728243, -0.7755725, -39284.16, 132685.14, 0.00002820436, 10.001469, 9.998304 
1.9952919e+3, 2.9244024e+2, 2818.9543, -171258.13, -38937.055, 0.09645663, -1.0342034, 11131.354, 85131.77, 0.00011358975, 10.000985, 9.998665 
1.9953208e+3, 3.0243883e+2, -67544.37, -354874.0, 67494.64, -0.10001533, -0.9810274, -52479.523, -52479.523, 0.00027749003, 10.000911, 9.997112 
1.9953561e+3, 3.124374e+2, 137138.31, -208665.16, -120421.15, 0.14932261, -0.82728, 174940.78, 174940.78, 0.0004881666, 10.002106, 9.997524 
2.0047763e+3, 1.2242219e+2, -1751280.9, -1914051.6, -237515.22, -0.24610087, -0.704021, -1581594.5, 158594.8, 0.27641812, 10.000755, 9.998391 
2.004811e+3, 1.3242005e+2, -1536167.5, -1630423.8, 30803.113, 0.16562751, -0.8685238, -1526993.8, 115218.125, 0.1968332, 10.000982, 9.999433 
2.0048383e+3, 1.4242196e+2, -1402727.1, -1368699.3, 33196.113, -0.13076758, -0.65974224, -1348411.0, 195780.56, 0.11636926, 10.00045, 10.000956 
2.0048682e+3, 1.5242279e+2, -1362656.3, -1211143.4, -58733.02, -0.17547248, -0.7527734, -1191042.6, 255135.16, 0.05238356, 9.999593, 10.00171 
2.0048998e+3, 1.6242258e+2, -1488264.4, -1457083.5, -106008.91, -0.088244915, -0.84945786, -1365524.8, -17348.793, 0.015589432, 9.99909, 9.999502 
2.0049337e+3, 1.7242123e+2, -1354093.6, -1405639.5, -34205.07, 0.13587397, -0.8953845, -1337038.6, -86848.73, 0.0021699998, 9.999626, 9.998916 
2.004965e+3, 1.8242024e+2, -1170214.6, -1197893.3, -73909.164, 0.20864142, -0.8952572, -1108860.3, 43340.07, 0.00003871999, 9.999918, 9.999532 
2.0049904e+3, 1.9242041e+2, -1082607.0, -1059969.8, -107889.22, -0.08817556, -0.87801665, -962807.06, 91390.89, 0.0, 9.999658, 9.999927 
2.0050178e+3, 2.0242043e+2, -987053.7, -973795.9, -72076.89, -0.21877098, -0.8526781, -908043.7, 48153.203, 0.0, 9.99968, 9.999843 
2.0050505e+3, 2.1242045e+2, -737586.9, -784246.2, -76522.836, 0.07636239, -0.8599814, -680916.44, 177279.31, 0.0, 10.000644, 10.000003 
2.0050822e+3, 2.2242025e+2, -632678.0, -761137.6, -26018.299, 0.22356017, -0.84247077, -627608.3, 132589.27, 0.0, 10.001024, 9.99931 
2.0051113e+3, 2.3241967e+2, -678839.94, -739206.75, -4236.9297, -0.040726963, -0.8355161, -678544.0, -16339.559, 0.0, 10.000067, 9.999245 
2.0051415e+3, 2.4241854e+2, -657895.56, -758579.0, -19884.896, -0.15612042, -0.8324417, -654110.6, -89893.516, 0.0, 9.999858, 9.998549 
2.0051746e+3, 2.5241673e+2, -334079.72, -555895.4, -40241.816, 0.08737875, -0.87839645, -327004.7, 139232.88, 0.0, 10.001438, 9.998501 
2.0052062e+3, 2.6241547e+2, -115385.33, -374086.22, -47705.023, 0.19752075, -0.8511501, -106868.79, 261382.72, 0.000000029896977, 10.002174, 9.998711 
2.0052344e+3, 2.724153e+2, -180256.02, -337339.28, -56896.098, 0.032105044, -0.769815, -161813.36, 108438.74, 0.0000031274246, 10.000973, 9.998869 
2.0052639e+3, 2.8241378e+2, -163094.55, -354726.3, -65390.285, 0.033025257, -0.76818365, -142907.97, 29357.645, 0.000025154262, 10.00074, 9.998201 
2.005294e+3, 2.9241043e+2, 153265.9, -145551.16, -85602.9, 0.14650865, -0.94187075, 176051.36, 250346.58, 0.00009776422, 10.0022335, 9.998237 
2.0053215e+3, 3.0240956e+2, 158328.31, -201889.48, 46681.207, -0.18431725, -0.8198304, 164279.48, 164279.48, 0.00024027855, 10.002265, 9.997517 
2.0053583e+3, 3.1240624e+2, -44824.46, -216799.45, 71012.555, 0.25060844, -0.91326505, -19292.305, -19292.305, 0.00043247704, 10.000492, 9.9982605 
2.0147775e+3, 1.2239299e+2, -1700473.4, -1805503.4, -175811.73, -0.24508765, -0.49987024, -1569501.1, 170977.19, 0.28771394, 10.000773, 9.999156 
2.0148121e+3, 1.3238911e+2, -1428407.0, -1409499.0, 28844.219, 0.15867437, -0.99711186, -1388599.0, 253906.39, 0.20582092, 10.001011, 10.001334 
2.0148377e+3, 1.4238974e+2, -1514195.3, -1617256.5, 2364.0466, -0.24878271, -0.9754015, -1514141.1, 30352.371, 0.12247417, 10.000488, 9.999073 
2.0148687e+3, 1.523901e+2, -1594234.3, -1689419.0, -90989.87, -0.11138826, -0.79899436, -1539141.8, -92641.32, 0.055639356, 9.999594, 9.998339 
2.0149e+3, 1.6239016e+2, -1450197.8, -1378807.1, -103140.51, -0.0027735326, -0.6766751, -1305359.8, 43147.117, 0.016791714, 9.999095, 10.000041 
2.0149308e+3, 1.7239064e+2, -1221673.8, -1129608.4, -6348.4385, -0.11733411, -0.7076007, -1129172.6, 121325.35, 0.0023981123, 9.9996195, 10.000817 
2.0149614e+3, 1.8239056e+2, -1137101.3, -1131712.4, -83393.65, -0.16144952, -0.7550716, -1050969.6, 101525.04, 0.000045425786, 9.999925, 9.999985 
2.0149915e+3, 1.9238912e+2, -1095374.3, -1078386.0, -114538.15, 0.04023606, -0.89659876, -972027.44, 82478.195, 0.0, 9.999623, 9.999818 
2.0150213e+3, 2.0238793e+2, -1017623.6, -1026800.75, -51715.023, 0.14967164, -0.9724549, -970294.0, -13778.781, 0.0, 9.999636, 9.999499 
2.0150502e+3, 2.1238802e+2, -785957.2, -859000.44, -32358.574, -0.022265844, -0.9268498, -773684.3, 84830.93, 0.0, 10.000538, 9.999539 
2.0150799e+3, 2.2238815e+2, -641125.4, -751642.5, -50751.105, -0.1253444, -0.8494011, -621356.06, 139158.77, 0.0, 10.0009, 9.999437 
2.0151122e+3, 2.3238862e+2, -661323.56, -693814.75, -35516.727, 0.035148975, -0.77304286, -638513.3, 23997.29, 0.0, 10.000018, 9.999584 
2.0151444e+3, 2.4238817e+2, -672257.4, -762664.1, 16360.46, 0.1518073, -0.7245095, -669387.8, -104872.26, 0.0, 9.999758, 9.998564 
2.0151758e+3, 2.523858e+2, -362733.1, -581815.2, 30225.2, 0.06828796, -0.8138154, -358639.63, 107901.03, 0.0, 10.0013075, 9.99838 
2.015206e+3, 2.6238394e+2, -119574.27, -348381.88, -74143.72, -0.033661876, -0.84863085, -97649.35, 270911.2, 0.0000000091701935, 10.00202, 9.998966 
2.0152354e+3, 2.7238366e+2, -162244.05, -278494.47, -91780.96, 0.017067602, -0.8206885, -111730.945, 158832.39, 0.0000023642951, 10.000879, 9.99932 
2.0152657e+3, 2.8238297e+2, -205293.64, -411486.9, -34731.03, 0.144904, -0.75432754, -199600.75, -27029.627, 0.000021595964, 10.000615, 9.997868 
2.0152959e+3, 2.9238173e+2, 93765.8, -244529.08, -22590.973, 0.10721299, -0.6634167, 95267.734, 169853.39, 0.0000838711, 10.00212, 9.997611 
2.0153229e+3, 3.0238068e+2, 246453.6, 43912.293, -20963.004, -0.27766517, -0.5849483, 248600.5, 248600.5, 0.00020805722, 10.002013, 9.999317 
2.0153594e+3, 3.1237814e+2, 107361.625, 180843.17, 175586.95, 0.2884776, -0.86968386, 323492.1, 323492.1, 0.0003820047, 10.000174, 10.001129 
2.024779e+3, 1.2236054e+2, -1619924.0, -1727960.8, -122684.086, -0.18302502, -0.536472, -1539892.5, 200903.73, 0.29983783, 10.001292, 9.999443 
2.0248128e+3, 1.3235757e+2, -1566708.8, -1443291.0, -136501.0, 0.21185897, -0.9790798, -1355198.3, 287614.78, 0.21537028, 9.999659, 10.001718 
2.0248373e+3, 1.4235765e+2, -1809086.1, -1786298.9, -190289.7, -0.23905438, -1.031748, -1607062.0, -62255.29, 0.12892798, 9.998544, 9.998853 
2.0248689e+3, 1.5235814e+2, -1598156.8, -1746471.0, -76973.83, -0.040435564, -0.7936789, -1565429.6, -118614.14, 0.05909158, 9.999814, 9.997832 
2.0249003e+3, 1.6235852e+2, -1227440.0, -1229759.8, 43008.23, 0.07108745, -0.6217264, -1185576.0, 163244.63, 0.018083457, 10.000452, 10.00042 
2.02493e+3, 1.7235962e+2, -1192608.0, -1037462.25, 48219.426, -0.16057368, -0.6584938, -1023696.94, 227108.03, 0.0026487417, 9.999489, 10.001513 
2.0249599e+3, 1.8236007e+2, -1242566.3, -1156066.9, -58411.86, -0.24726641, -0.70617706, -1126635.9, 26159.707, 0.000052423693, 9.99908, 10.000225 
2.0249918e+3, 1.9235887e+2, -956195.1, -1005144.56, -83732.63, 0.07491207, -0.83205044, -893433.56, 161370.47, 0.0, 10.000541, 9.99988 
2.0250227e+3, 2.0235774e+2, -795272.4, -958868.75, -22376.922, 0.25879744, -0.89514756, -792266.8, 164546.6, 0.0, 10.00133, 9.9991455 
2.0250507e+3, 2.1235721e+2, -859427.75, -953231.75, -26429.521, -0.0026671097, -0.8662248, -852493.75, 6326.721, 0.0, 10.000276, 9.99902 
2.02508e+3, 2.2235674e+2, -808808.3, -828985.0, -29537.338, -0.13859402, -0.81770474, -787684.0, -26858.09, 0.0, 9.999743, 9.999458 
2.0251133e+3, 2.3235688e+2, -511921.28, -594955.25, -30131.49, 0.11458604, -0.7907856, -502139.47, 160683.17, 0.0, 10.000943, 9.999809 
2.0251462e+3, 2.423565e+2, -399185.72, -601325.75, 28178.775, 0.272729, -0.76188016, -395331.03, 169494.34, 0.0, 10.001512, 9.998824 
2.0251764e+3, 2.523548e+2, -491100.38, -616062.5, 56886.082, 0.0603153, -0.80735207, -469083.47, -2240.1643, 0.0, 10.00031, 9.998623 
2.0252062e+3, 2.6235324e+2, -453529.5, -499149.75, -29706.377, -0.09761388, -0.8315261, -438886.03, -70025.95, 0.000000001074916, 9.99967, 9.999067 
2.0252362e+3, 2.7235276e+2, -204510.39, -295554.0, -90363.49, 0.039986722, -0.8312929, -148850.2, 122015.484, 0.0000018159459, 10.000572, 9.999353 
2.0252673e+3, 2.8235245e+2, -80932.05, -324654.1, 2221.3105, 0.2088981, -0.7346059, -80911.805, 91958.07, 0.000018189116, 10.001341, 9.998121 
2.0252977e+3, 2.9235214e+2, -16303.671, -257413.39, 53005.105, 0.14215645, -0.5783144, -5165.647, 69709.555, 0.000072167386, 10.001195, 9.997965 
2.0253257e+3, 3.0234948e+2, 28372.297, -94734.664, -3004.97, -0.11767211, -0.67045796, 28445.602, 28445.602, 0.00017965614, 10.000616, 9.999053 
2.0253581e+3, 3.1234872e+2, 39857.547, 155260.39, 28100.076, 0.18310447, -0.7323164, 161738.94, 161738.94, 0.00033365883, 9.99963, 10.001235 
2.0347807e+3, 1.22324646e+2, -1631406.6, -1756339.4, -64252.848, -0.19809145, -0.8472774, -1604260.0, 136884.48, 0.3135409, 10.001315, 9.999128 
2.034813e+3, 1.3232538e+2, -1661737.8, -1610498.9, -214690.45, 0.23672357, -0.7999782, -1419904.6, 223231.44, 0.22593072, 9.999657, 10.000442 
2.0348367e+3, 1.4232562e+2, -1705199.9, -1573957.4, -177110.95, -0.16728756, -0.8104232, -1450701.9, 94431.12, 0.13594478, 9.998557, 10.000373 
2.0348692e+3, 1.5232682e+2, -1424490.0, -1387020.6, -19119.463, -0.013047099, -0.73479366, -1378987.0, 68136.79, 0.06282382, 9.999812, 10.000328 
2.034901e+3, 1.623276e+2, -1199895.8, -1184197.9, 20131.318, 0.058259707, -0.69297177, -1170439.5, 178678.2, 0.019494196, 10.000499, 10.000718 
2.0349307e+3, 1.723281e+2, -1225717.4, -1110721.4, 13408.922, -0.05112951, -0.7535075, -1109178.5, 141932.7, 0.0029308582, 9.999498, 10.001007 
2.0349605e+3, 1.8232863e+2, -1241339.4, -1152921.9, -27746.674, -0.10911815, -0.76172835, -1144935.9, 8168.478, 0.00006041413, 9.99908, 10.000246 
2.0349914e+3, 1.923296e+2, -946944.6, -977765.06, -18797.582, -0.028122194, -0.6862566, -938048.0, 117046.195, 0.0, 10.000506, 10.000086 
2.035022e+3, 2.0232974e+2, -824221.7, -1010658.56, -44112.465, 0.036645763, -0.62462676, -814311.1, 142781.84, 0.0, 10.001294, 9.998807 
2.0350517e+3, 2.123279e+2, -908570.1, -1040007.7, -63921.69, 0.069977306, -0.67413515, -882610.44, -23498.125, 0.0, 10.000205, 9.998461 
2.0350821e+3, 2.2232592e+2, -830800.44, -845520.2, -7824.7837, 0.102699816, -0.7389944, -827418.1, -66287.01, 0.0, 9.999625, 9.999398 
2.0351148e+3, 2.3232438e+2, -525839.94, -595233.8, 29414.445, 0.15436925, -0.8877756, -515049.7, 148091.7, 0.0, 10.000823, 9.999864 
2.0351467e+3, 2.4232332e+2, -390288.2, -548529.0, 1198.7079, 0.15192729, -0.943799, -390279.13, 174869.17, 0.0, 10.001364, 9.999259 
2.0351763e+3, 2.5232357e+2, -456440.38, -533141.0, 14733.411, 0.008013466, -0.85664856, -453707.6, 13439.534, 0.0, 10.000253, 9.999225 
2.0352061e+3, 2.6232317e+2, -480694.1, -527440.1, -19283.855, -0.084090255, -0.7942095, -473765.88, -104613.8, 0.000000023664393, 9.999563, 9.998919 
2.0352368e+3, 2.7232218e+2, -247286.61, -360093.78, -43259.813, 0.03394942, -0.8118405, -232607.31, 38555.207, 0.0000019634658, 10.000473, 9.998955 
2.0352682e+3, 2.8232184e+2, -53974.29, -227194.03, -1138.6903, 0.15793441, -0.7219682, -53966.805, 119198.81, 0.000016146072, 10.001168, 9.998873 
2.0352995e+3, 2.9232168e+2, 59920.742, -83193.69, 52115.367, 0.19351566, -0.66431415, 76887.234, 152052.5, 0.000062268045, 10.001108, 9.999212 
2.035329e+3, 3.023161e+2, -177220.17, -442863.56, -51835.113, 0.15437475, -1.0368855, -167463.89, -167463.89, 0.00015400637, 10.000312, 9.996791 
2.0353554e+3, 3.123158e+2, -148252.1, -158117.08, 71274.59, -0.06567134, -0.7463266, -81739.52, -81739.52, 0.00028777335, 9.999337, 9.999201 
2.0447819e+3, 1.2229137e+2, -1885705.5, -1843656.1, 55616.21, -0.06980768, -0.9650345, -1805223.3, -63752.598, 0.3294151, 9.998962, 9.99961 
2.0448127e+3, 1.3229498e+2, -1650817.1, -1627413.0, -123026.06, 0.254492, -0.6171054, -1515533.8, 127904.71, 0.23787552, 9.999775, 10.000182 
2.0448367e+3, 1.4229482e+2, -1461089.3, -1394290.1, -12494.236, -0.088090986, -0.6746652, -1392029.6, 153411.17, 0.14372098, 9.999976, 10.001027 
2.0448688e+3, 1.5229559e+2, -1457607.8, -1297781.5, 36772.895, 0.005367977, -0.74358666, -1289726.8, 157702.42, 0.06692591, 9.999094, 10.001333 
2.0449002e+3, 1.6229609e+2, -1521965.9, -1371949.1, -13915.689, 0.043751426, -0.78352916, -1370669.1, -21247.36, 0.021061258, 9.998432, 10.000393 
2.0449306e+3, 1.7229633e+2, -1377748.5, -1275745.8, -68479.12, 0.034611996, -0.7935924, -1241362.5, 10059.777, 0.003256253, 9.998861, 10.000168 
2.044961e+3, 1.8229683e+2, -1227012.6, -1143334.0, -89925.22, 0.029361248, -0.7509306, -1085991.3, 67428.08, 0.00007088071, 9.999175, 10.000266 
2.0449913e+3, 1.9229838e+2, -1126936.3, -1019122.25, -69250.59, -0.023405818, -0.6510296, -985270.44, 70132.625, 0.0, 9.99909, 10.000478 
2.0450215e+3, 2.0229883e+2, -1106924.1, -1117892.9, -82058.2, -0.032395467, -0.59020203, -1030167.2, -72769.67, 0.0, 9.999228, 9.999072 
2.0450522e+3, 2.122967e+2, -895037.94, -1002662.3, -66227.3, 0.10470733, -0.6912242, -863516.6, -4099.03, 0.0, 10.000185, 9.99872 
2.0450832e+3, 2.2229461e+2, -693851.9, -793284.7, 37474.934, 0.21180417, -0.7799195, -681310.06, 80126.375, 0.0, 10.000607, 9.999289 
2.0451152e+3, 2.3229331e+2, -732413.94, -718448.6, 46976.2, 0.20048831, -0.8846796, -677938.94, -14493.072, 0.0, 9.999493, 9.99966 
2.0451468e+3, 2.4229246e+2, -731354.4, -701214.6, 12216.377, 0.16521709, -0.9111533, -696885.0, -131433.48, 0.0, 9.998962, 9.999369 
2.045177e+3, 2.5229275e+2, -451505.34, -505614.06, -11637.809, 0.06868172, -0.8411319, -449108.44, 18339.953, 0.0, 10.000182, 9.999444 
2.0452075e+3, 2.6229215e+2, -254611.31, -427993.0, -40181.938, 0.0139350295, -0.80947614, -245751.69, 123702.13, 0.00000011200642, 10.001155, 9.9988365 
2.0452379e+3, 2.722904e+2, -180976.38, -347203.53, -64103.086, 0.07435673, -0.8813692, -159127.72, 112342.836, 0.000002326167, 10.001025, 9.998769 
2.0452689e+3, 2.8228953e+2, -126762.6, -270189.4, -39020.7, 0.1505211, -0.8330103, -116833.94, 56644.953, 0.000014696717, 10.000683, 9.998814 
2.0453006e+3, 2.922895e+2, -95691.625, -154518.2, -97863.85, 0.25126514, -0.75545037, -22916.482, 52562.145, 0.000053738604, 10.000029, 9.999239 
2.0453314e+3, 3.0228496e+2, -164718.81, -347026.47, -138985.88, 0.3760833, -1.0606024, -89661.65, -89661.65, 0.00013193817, 9.999999, 9.9976015 
2.0453553e+3, 3.1228474e+2, 81037.79, -27858.05, 166746.78, -0.076704234, -0.8407013, 202001.0, 202001.0, 0.0002497408, 10.0007925, 9.999409 
2.054783e+3, 1.2226102e+2, -1802069.1, -1684996.5, 73923.04, 0.09736255, -0.8695824, -1649240.1, 92531.76, 0.3476065, 9.9989395, 10.000984 
2.054812e+3, 1.322666e+2, -1585146.1, -1515525.5, -78389.54, 0.18722329, -0.43021035, -1464564.8, 179153.23, 0.2513395, 9.999802, 10.00108 
2.0548366e+3, 1.4226535e+2, -1472553.9, -1423848.4, -31680.154, -0.09986761, -0.64121056, -1408242.5, 137486.56, 0.15236652, 10.000009, 10.000784 
2.0548671e+3, 1.5226452e+2, -1494723.4, -1370540.4, 9776.84, -0.065621294, -0.81888425, -1369775.4, 77954.77, 0.071473114, 9.999091, 10.000803 
2.054898e+3, 1.622639e+2, -1596497.0, -1528512.5, -17000.469, -0.042250652, -0.8954381, -1524498.4, -174765.05, 0.022826005, 9.998434, 9.999323 
2.0549297e+3, 1.7226426e+2, -1468882.3, -1461860.1, -45308.176, 0.044051696, -0.76822585, -1419927.1, -168188.28, 0.0036400491, 9.998847, 9.998902 
2.0549609e+3, 1.8226457e+2, -1217286.8, -1129003.3, -92706.61, 0.095395945, -0.6672464, -1070465.8, 83275.76, 0.00008593674, 9.999191, 10.000359 
2.054991e+3, 1.9226506e+2, -1088647.1, -940297.94, -68589.13, 0.025276871, -0.7249317, -913446.06, 142285.98, 0.0, 9.999084, 10.001027 
2.055021e+3, 2.0226488e+2, -1050990.5, -994115.25, -61125.066, -0.016207453, -0.7934695, -955136.5, 2592.0771, 0.0, 9.999196, 9.999934 
2.055052e+3, 2.1226338e+2, -840685.6, -872132.3, -23276.545, 0.054391433, -0.9241566, -828319.5, 31419.133, 0.0, 10.000106, 9.999656 
2.055083e+3, 2.2226243e+2, -719974.2, -815800.44, 10076.108, 0.12426493, -0.95685816, -718926.2, 42819.324, 0.0, 10.000476, 9.999195 
2.0551148e+3, 2.3226342e+2, -777741.94, -792481.56, 8005.778, 0.19326161, -0.79014236, -774230.3, -110491.5, 0.0, 9.999404, 9.999196 
2.0551465e+3, 2.422637e+2, -768561.1, -741121.25, 30488.064, 0.23066646, -0.667911, -721408.25, -155670.97, 0.0, 9.998813, 9.999163 
2.0551784e+3, 2.5226215e+2, -477500.94, -535480.4, 46209.91, 0.18079561, -0.76749796, -451940.16, 15808.95, 0.0, 10.000084, 9.999285 
2.0552097e+3, 2.6226e+2, -278099.6, -443929.47, -34450.438, 0.12659991, -0.8784567, -271227.47, 98539.195, 0.00000017468948, 10.001015, 9.998794 
2.0552392e+3, 2.7225733e+2, -192882.88, -355422.97, -61135.38, 0.08912574, -1.0409098, -172455.55, 99335.35, 0.0000023499456, 10.000939, 9.998759 
2.055269e+3, 2.8225538e+2, -229086.28, -424832.16, -69093.08, 0.087283686, -1.0618986, -207155.36, -33344.77, 0.000012296112, 10.000455, 9.997851 
2.0553005e+3, 2.9225546e+2, -187740.08, -327192.88, -105399.625, 0.23408338, -0.86671937, -131090.64, -55274.742, 0.00004437096, 9.99995, 9.998087 
2.0553322e+3, 3.022551e+2, 28166.586, 122124.11, -126224.445, 0.45209992, -0.8233202, 209828.73, 209828.73, 0.00011165042, 9.999739, 10.000936 
2.0553572e+3, 3.1225464e+2, 164902.34, 212781.19, 101679.86, 0.0001892835, -1.0618516, 293301.75, 293301.75, 0.0002193155, 10.00052, 10.001189 
2.0647815e+3, 1.22231014e+2, -1795677.8, -1620902.8, 147721.03, 0.100327, -0.84222853, -1536656.6, 205409.53, 0.36771804, 9.998706, 10.001863 
2.0648113e+3, 1.3223703e+2, -1664589.3, -1532565.9, -52075.766, 0.17344798, -0.3987372, -1514497.8, 129508.234, 0.26616043, 9.9990635, 10.001295 
2.0648366e+3, 1.4223455e+2, -1588537.8, -1524978.0, -43538.594, -0.07422266, -0.72883123, -1502854.5, 43173.8, 0.1618756, 9.999366, 10.000298 
2.0648669e+3, 1.5223348e+2, -1453020.4, -1424161.4, -34751.742, -0.018042011, -0.8647034, -1400962.5, 47070.66, 0.07651462, 9.999721, 10.00011 
2.0648974e+3, 1.622328e+2, -1397228.6, -1457894.0, -21369.342, 0.014534294, -0.8957974, -1390457.1, -40419.047, 0.024829434, 9.999898, 9.999106 
2.064929e+3, 1.7223339e+2, -1349470.5, -1403555.1, 38363.727, 0.050633747, -0.74389696, -1329576.0, -77534.516, 0.0041003036, 9.999653, 9.998918 
2.0649602e+3, 1.822337e+2, -1210076.8, -1163373.8, 51998.043, 0.08807284, -0.6333399, -1129724.5, 24319.791, 0.000108260756, 9.999414, 10.00001 
2.0649907e+3, 1.9223332e+2, -1039056.5, -969453.1, -8837.024, 0.0863859, -0.72981864, -968348.7, 87695.305, 0.0, 9.999662, 10.000544 
2.0650212e+3, 2.0223272e+2, -949613.3, -926754.6, -51545.414, 0.07728106, -0.8176944, -885386.6, 72658.59, 0.0, 9.999811, 10.0001 
2.0650515e+3, 2.1223201e+2, -871925.8, -838363.06, -59407.355, 0.028040245, -0.90745986, -793412.4, 66634.3, 0.0, 9.999681, 10.000092 
2.065082e+3, 2.2223157e+2, -851616.56, -888988.25, -61278.39, 0.030231886, -0.9116652, -806238.3, -44190.24, 0.0, 9.999615, 9.99911 
2.0651142e+3, 2.3223214e+2, -738461.06, -803250.4, -73383.875, 0.18996093, -0.76222116, -690639.7, -26593.12, 0.0, 9.999816, 9.998919 
2.0651467e+3, 2.4223205e+2, -584707.3, -639723.9, 7182.2734, 0.3089055, -0.6631641, -583785.2, -17736.246, 0.0, 10.000017, 9.999281 
2.0651792e+3, 2.5223044e+2, -465279.63, -496689.97, 50937.56, 0.25649768, -0.7944724, -427681.06, 40378.46, 0.0, 10.000027, 9.999579 
2.0652106e+3, 2.6222852e+2, -438139.5, -522551.13, -20476.768, 0.19586365, -0.9022306, -433434.47, -63360.324, 0.00000012472299, 9.999911, 9.998791 
2.06524e+3, 2.722264e+2, -394050.4, -463429.03, -78869.75, 0.14679638, -1.0005594, -342578.34, -70482.74, 0.0000018192295, 9.999603, 9.998663 
2.0652698e+3, 2.8222463e+2, -308313.84, -430906.28, -24201.758, 0.14409554, -1.0033917, -303709.0, -129594.68, 0.000008845643, 9.999758, 9.998157 
2.0653011e+3, 2.922246e+2, -54778.504, -227147.55, 24579.703, 0.2464668, -0.8593696, -51341.97, 24778.182, 0.000033808126, 10.000727, 9.998398 
2.0653325e+3, 3.022252e+2, 306218.4, 243498.89, 2882.2952, 0.40249348, -0.73334867, 306350.6, 306350.6, 0.00009162271, 10.001647, 10.000886 
2.0653594e+3, 3.1222352e+2, 398138.75, 300659.75, -151861.69, 0.098399185, -1.07838, 508890.66, 508890.66, 0.0001905405, 10.002203, 10.001001 
2.0747769e+3, 1.22201145e+2, -1763824.3, -1593364.0, 96267.766, -0.28718853, -0.9164887, -1550018.6, 192336.56, 0.38886976, 9.998736, 10.002119 
2.0748101e+3, 1.3220607e+2, -1691783.9, -1584493.5, -38027.816, 0.11713396, -0.54383063, -1572382.1, 71921.7, 0.28190908, 9.999086, 10.000819 
2.0748359e+3, 1.4220227e+2, -1637788.5, -1633182.9, -43019.695, -0.090060696, -0.9455945, -1592404.4, -46064.94, 0.17213808, 9.999397, 9.999501 
2.074868e+3, 1.5220234e+2, -1508773.5, -1548868.1, -16314.926, 0.08331841, -0.8798191, -1502973.6, -54634.332, 0.08207624, 9.999753, 9.999223 
2.074899e+3, 1.6220264e+2, -1340426.3, -1344663.9, -32146.107, 0.1359775, -0.7832377, -1310329.1, 40008.418, 0.027111659, 9.999923, 9.999874 
2.074928e+3, 1.7220369e+2, -1253065.0, -1203236.8, 30600.193, -0.005534589, -0.71437156, -1188691.0, 63639.2, 0.0046569863, 9.999653, 10.000294 
2.0749582e+3, 1.822041e+2, -1260115.4, -1274198.4, 51567.02, -0.058814365, -0.65388376, -1215111.4, -60782.758, 0.00014131474, 9.999444, 9.999235 
2.0749907e+3, 1.9220303e+2, -1155058.8, -1204075.6, 7100.5947, 0.1094934, -0.67140406, -1154050.9, -97710.55, 0.0000000002137382, 9.999634, 9.998948 
2.0750222e+3, 2.0220214e+2, -986769.94, -997455.56, -55553.695, 0.17979303, -0.6671631, -936302.75, 22046.377, 0.0, 9.999783, 9.999627 
2.0750505e+3, 2.1220246e+2, -886911.94, -853556.9, -57593.64, -0.03314435, -0.6467786, -810274.7, 50068.203, 0.0, 9.999608, 10.000024 
2.0750801e+3, 2.2220196e+2, -875682.56, -908061.0, -59089.953, -0.13197805, -0.6509291, -830604.25, -68259.11, 0.0, 9.999491, 9.999033 
2.0751135e+3, 2.3219943e+2, -763249.8, -832780.56, -55693.27, 0.135863, -0.7967474, -732361.75, -67992.3, 0.0, 9.999726, 9.998758 
2.075147e+3, 2.4219741e+2, -572658.8, -586681.0, 6776.2236, 0.3274879, -0.8973674, -569919.4, -3531.7014, 0.0, 9.9999, 9.999701 
2.0751789e+3, 2.5219747e+2, -428439.72, -402926.72, 58269.367, 0.23897877, -0.92059875, -356033.84, 112347.3, 0.0, 9.999951, 10.000259 
2.0752105e+3, 2.6219743e+2, -462196.97, -536009.4, -37247.957, 0.15464433, -0.8833137, -446667.72, -76289.164, 0.000000021824269, 9.999763, 9.998767 
2.07524e+3, 2.72197e+2, -421133.47, -501324.7, -79356.52, 0.18103684, -0.788514, -372318.34, -99929.516, 0.00000084431264, 9.999532, 9.998436 
2.0752703e+3, 2.8219652e+2, -234483.53, -240922.31, -7954.3047, 0.22045738, -0.71234876, -229121.81, -54724.277, 0.000005133315, 9.999609, 9.999528 
2.0753016e+3, 2.9219624e+2, 45884.277, -12001.111, 68036.55, 0.20684996, -0.7606005, 90878.39, 167276.36, 0.000023674193, 10.000683, 9.9999 
2.0753315e+3, 3.021949e+2, 17758.012, -247523.39, 8527.714, 0.1289583, -0.7891858, 18031.861, 18031.861, 0.00007214658, 10.001235, 9.9976845 
2.0753609e+3, 3.1219348e+2, 177473.3, -20646.596, -52483.754, 0.00018339802, -0.7065549, 190517.84, 190517.84, 0.0001581692, 10.001674, 9.999022 
2.0847751e+3, 1.2217106e+2, -1744221.6, -1678803.3, 31282.951, -0.34275213, -0.9070881, -1666251.9, 76398.65, 0.40993002, 9.9994, 10.000829 
2.08481e+3, 1.3217558e+2, -1573734.3, -1561155.6, -85685.63, 0.17878821, -0.5298543, -1481528.8, 163075.5, 0.29801235, 10.000258, 10.00049 
2.0848367e+3, 1.421705e+2, -1465906.9, -1561542.3, -75576.34, -0.022686455, -1.0369654, -1424291.3, 122361.23, 0.18298064, 10.000804, 9.999343 
2.0848681e+3, 1.5217151e+2, -1381183.0, -1507715.4, -24730.77, 0.10028742, -0.8593891, -1376521.1, 72123.625, 0.088167645, 10.000778, 9.999011 
2.0848987e+3, 1.6217251e+2, -1240485.5, -1252797.0, -24246.68, 0.12370635, -0.6918507, -1221625.4, 129010.7, 0.029713616, 10.000434, 10.000278 
2.0849276e+3, 1.7217344e+2, -1232206.3, -1121568.5, -36265.758, -0.019812785, -0.696131, -1110740.6, 141884.84, 0.005333032, 9.999491, 10.000935 
2.0849572e+3, 1.8217358e+2, -1315591.3, -1312952.5, 16973.03, -0.07356932, -0.70016646, -1297247.6, -142624.33, 0.00018960002, 9.999104, 9.999141 
2.0849903e+3, 1.9217189e+2, -1044529.44, -1192837.3, 66388.375, 0.06630844, -0.74959844, -1019153.4, 37488.344, 0.000000020895914, 10.000555, 9.9985895 
2.0850222e+3, 2.0217061e+2, -796866.94, -971358.6, 29750.975, 0.13249926, -0.74103326, -791933.8, 166721.81, 0.0, 10.001381, 9.999036 
2.0850508e+3, 2.1217111e+2, -793871.9, -883620.94, -42760.93, -0.013608764, -0.63191, -776760.75, 83890.484, 0.0, 10.000581, 9.999343 
2.0850803e+3, 2.2217074e+2, -797385.94, -852709.0, -40158.824, -0.072628334, -0.5871593, -776283.8, -13629.513, 0.0, 9.999939, 9.999209 
2.0851132e+3, 2.32168e+2, -688080.25, -739302.94, 5908.309, 0.12775576, -0.7995087, -687407.6, -22729.877, 0.0, 9.999982, 9.999288 
2.0851463e+3, 2.421659e+2, -569901.0, -601581.8, 94606.336, 0.27220464, -0.9386484, -489818.13, 76876.98, 0.0, 9.999987, 9.999553 
2.0851785e+3, 2.521659e+2, -462553.13, -466145.47, 58563.92, 0.20345625, -0.9288905, -405757.84, 62934.07, 0.0, 9.999918, 9.999835 
2.08521e+3, 2.62166e+2, -416548.66, -494497.84, -66036.914, 0.1436902, -0.8611298, -378842.78, -8152.4277, 0.0, 9.999992, 9.9989395 
2.0852394e+3, 2.7216628e+2, -260049.5, -382207.5, -80561.0, 0.13766153, -0.72563165, -220030.92, 52661.92, 0.000000115745564, 10.0004635, 9.998804 
2.08527e+3, 2.8216627e+2, -41418.105, -183060.33, 4019.138, 0.16380848, -0.61654955, -41304.152, 133392.52, 0.0000020138657, 10.001076, 9.99922 
2.0853025e+3, 2.9216492e+2, 154593.06, -20354.66, -95831.914, 0.19782977, -0.71555847, 196870.63, 273578.16, 0.000014488007, 10.001696, 9.999354 
2.0853335e+3, 3.0216244e+2, 45745.746, -294945.53, -183780.97, 0.21081294, -0.80033636, 125985.58, 125985.58, 0.000052987816, 10.0016365, 9.997189 
2.0853618e+3, 3.121632e+2, -164790.56, -269682.44, -32911.723, 0.04945041, -0.44321093, -155319.16, -155319.16, 0.0001235068, 9.99962, 9.998323 
2.0947766e+3, 1.221409e+2, -1947063.0, -2074126.3, 22984.139, -0.18988982, -0.7879088, -1943033.3, -200081.83, 0.42994058, 9.999429, 9.99779 
2.0948118e+3, 1.3214558e+2, -1577447.6, -1575030.4, -61228.816, 0.28635156, -0.34546113, -1514998.3, 129909.234, 0.31401625, 10.0002985, 10.000341 
2.0948383e+3, 1.4213926e+2, -1429559.1, -1493700.1, -71769.08, 0.03940787, -0.98686874, -1383021.0, 163946.58, 0.19429262, 10.000862, 9.999833 
2.0948677e+3, 1.5214093e+2, -1336410.1, -1421624.5, -22599.783, -0.042645752, -0.7982661, -1330787.4, 118162.78, 0.094824284, 10.000836, 9.999596 
2.0948972e+3, 1.621423e+2, -1229655.3, -1243947.3, -55612.73, -0.10441401, -0.6329761, -1180731.3, 170203.63, 0.032688897, 10.000494, 10.000316 
2.0949267e+3, 1.7214262e+2, -1240994.0, -1143846.1, -70349.77, -0.04756201, -0.68397886, -1106930.3, 145997.63, 0.0061590113, 9.999504, 10.000777 
2.0949571e+3, 1.8214212e+2, -1272783.9, -1227618.4, 42474.96, -0.01948329, -0.76206225, -1202096.0, -47167.008, 0.00026052183, 9.99912, 9.999718 
2.0949893e+3, 1.9213985e+2, -988258.0, -1071397.9, 127453.695, -0.09766299, -0.9514593, -895766.4, 161182.0, 0.00000016154512, 10.000535, 9.999432 
2.0950213e+3, 2.0213798e+2, -853249.4, -1080207.4, 13724.575, -0.12214363, -1.0323851, -852422.44, 106543.76, 0.0, 10.001347, 9.998302 
2.095052e+3, 2.1213786e+2, -902668.6, -1088116.5, -70962.46, 0.033016376, -0.85819227, -878630.4, -17657.424, 0.0, 10.000489, 9.997983 
2.0950826e+3, 2.2213769e+2, -784165.75, -797537.8, -50075.645, 0.14468214, -0.7213576, -740331.75, 22646.068, 0.0, 9.999819, 9.999646 
2.0951131e+3, 2.3213764e+2, -620861.1, -576012.2, 16851.488, 0.10719808, -0.77243346, -570386.2, 94587.12, 0.0, 9.999882, 10.000456 
2.0951442e+3, 2.4213721e+2, -634569.94, -707685.56, 88057.65, 0.07151126, -0.79527825, -575783.0, -8808.736, 0.0, 9.9998665, 9.998881 
2.0951775e+3, 2.5213552e+2, -573429.3, -681282.56, 63405.21, 0.094982356, -0.82611877, -544119.56, -75125.8, 0.0, 9.999851, 9.998392 
2.0952095e+3, 2.6213396e+2, -417066.53, -461699.25, -57674.375, 0.081503704, -0.8421713, -377541.53, -6530.313, 0.0, 9.999854, 9.999228 
2.0952383e+3, 2.7213413e+2, -213529.63, -264168.53, -51681.31, -0.046473987, -0.80353004, -181298.83, 91710.195, 0.0, 10.000371, 9.999659 
2.0952685e+3, 2.8213385e+2, -209213.66, -471563.94, 18764.81, -0.10380159, -0.6975308, -207878.28, -32866.09, 0.00000039293647, 10.000829, 9.9973545 
2.095304e+3, 2.9213083e+2, -33364.4, -382340.84, -52984.496, 0.15793426, -0.70564747, -25497.209, 51548.656, 0.000007661527, 10.001572, 9.99693 
2.095338e+3, 3.0212685e+2, 115540.24, -50633.47, -238869.75, 0.4611608, -0.87549525, 285360.84, 285360.84, 0.000036947218, 10.001257, 9.99903 
2.0953628e+3, 3.1213078e+2, -166284.86, -190391.72, -31499.506, 0.14511313, -0.46116176, -144611.39, -144611.39, 0.00009412716, 9.999318, 9.998993 
2.1047771e+3, 1.2211026e+2, -1913852.0, -2218593.0, -13086.262, -0.121886194, -0.65753263, -1913291.1, -170034.39, 0.44859928, 10.000343, 9.996359 
2.1048115e+3, 1.3211533e+2, -1596821.5, -1497657.1, -15098.891, 0.28464192, -0.25876912, -1495409.1, 149800.66, 0.3298663, 9.999545, 10.001522 
2.104839e+3, 1.421103e+2, -1560848.1, -1509447.5, 32395.238, 0.078965545, -0.86201566, -1493796.1, 53459.188, 0.20615475, 9.999541, 10.000349 
2.1048674e+3, 1.5211155e+2, -1545162.6, -1489643.1, 59372.508, -0.067651585, -0.7534984, -1451861.4, -2621.442, 0.10215144, 9.999181, 9.999902 
2.1048963e+3, 1.6211218e+2, -1461539.3, -1389442.8, 23049.648, -0.1521898, -0.67117274, -1382703.5, -31473.176, 0.036114734, 9.999022, 10.000002 
2.1049267e+3, 1.7211178e+2, -1197324.9, -1180552.4, -21305.527, -0.015948076, -0.7474276, -1166042.0, 87188.86, 0.007176738, 10.000047, 10.000263 
2.1049576e+3, 1.8211113e+2, -1077404.1, -1148666.5, 68640.84, 0.06690679, -0.8046904, -1035697.5, 119536.79, 0.0003661867, 10.000536, 9.999577 
2.1049894e+3, 1.9210991e+2, -1135919.6, -1143192.4, 80063.56, -0.07884318, -0.8818489, -1059409.9, -2165.536, 0.00000091193453, 9.999546, 9.99941 
2.1050212e+3, 2.0210853e+2, -1208033.3, -1230905.3, -56786.453, -0.13166258, -0.9161582, -1161542.6, -202285.61, 0.0, 9.998802, 9.9985 
2.1050522e+3, 2.1210714e+2, -1097898.6, -1150090.1, -43078.95, 0.10456725, -0.90057266, -1073627.9, -212354.42, 0.0, 9.999, 9.99828 
2.1050833e+3, 2.2210619e+2, -861300.3, -868569.06, 73231.4, 0.2677929, -0.8500152, -791613.1, -28328.96, 0.0, 9.999452, 9.999322 
2.1051137e+3, 2.3210669e+2, -545564.2, -604179.06, 19174.55, 0.14548872, -0.79210055, -539848.94, 125428.5, 0.0, 10.000686, 9.999863 
2.1051446e+3, 2.4210675e+2, -446273.25, -649425.94, -10448.256, 0.05082205, -0.7158358, -445737.3, 121539.27, 0.0, 10.001301, 9.998594 
2.105177e+3, 2.5210533e+2, -564967.06, -694382.25, 17299.457, 0.07452999, -0.6999554, -562694.5, -93398.83, 0.0, 10.0, 9.998229 
2.105209e+3, 2.6210368e+2, -489854.84, -484783.4, 4977.2144, 0.08274343, -0.71697813, -481733.22, -110419.03, 0.0, 9.999283, 9.999355 
2.1052386e+3, 2.7210262e+2, -211427.39, -234478.5, -28186.607, -0.045237646, -0.8204931, -192500.97, 80817.49, 0.0, 10.000254, 9.999924 
2.1052693e+3, 2.8210157e+2, -194977.38, -474091.0, 71217.76, -0.121429875, -0.8110395, -177855.94, -2529.922, 0.00000006547354, 10.000973, 9.997263 
2.1053042e+3, 2.920987e+2, -124113.03, -455334.1, 133745.52, 0.07403735, -0.7737967, -76851.04, 508.77457, 0.0000047361223, 10.001094, 9.996653 
2.1053392e+3, 3.020953e+2, 244062.44, 386.62186, -3928.3228, 0.42551574, -0.8715898, 244125.75, 244125.75, 0.00002876755, 10.002142, 9.998969 
2.1053642e+3, 3.1209835e+2, 523611.63, 142836.88, -90955.93, 0.14280549, -0.53643596, 544222.7, 544222.7, 0.000078050216, 10.004015, 9.999039 
2.1147761e+3, 1.2207863e+2, -1886313.9, -2190116.5, -46574.83, -0.28167874, -0.576562, -1879334.0, -135762.66, 0.46656317, 10.000461, 9.996497 
2.1148092e+3, 1.3208495e+2, -1473694.4, -1253292.5, -14266.271, 0.069022894, -0.2692884, -1252372.9, 393136.9, 0.34608045, 9.999605, 10.004097 
2.1148379e+3, 1.4208348e+2, -1523744.3, -1455349.9, 26888.457, 0.009347361, -0.6870145, -1446044.9, 101472.266, 0.21890919, 9.999601, 10.000793 
2.114867e+3, 1.520833e+2, -1536631.5, -1484986.1, 45423.03, -0.0418793, -0.73246694, -1458558.8, -9044.389, 0.110347085, 9.9992285, 9.999909 
2.1148962e+3, 1.6208218e+2, -1501605.5, -1479973.0, 42105.48, -0.092532076, -0.8029515, -1447316.8, -95794.56, 0.040102176, 9.999053, 9.999365 
2.1149272e+3, 1.7208092e+2, -1256065.9, -1307774.5, 24520.072, 0.025789168, -0.8829636, -1246287.6, 7247.224, 0.008443992, 10.000064, 9.999381 
2.1149588e+3, 1.8208043e+2, -1138347.9, -1277880.9, 44957.96, 0.119703665, -0.83685887, -1125116.9, 30424.2, 0.00052604213, 10.000551, 9.998678 
2.1149905e+3, 1.9208196e+2, -1201881.0, -1279279.9, 45231.035, 0.065453365, -0.546641, -1181053.3, -123522.41, 0.0000034897541, 9.999543, 9.998475 
2.1150218e+3, 2.0208222e+2, -1137683.1, -1074623.4, -64058.645, 0.03754079, -0.3985164, -1034755.5, -75225.945, 0.0, 9.998757, 9.999596 
2.1150517e+3, 2.1207891e+2, -977369.4, -882313.9, -28549.43, 0.14699982, -0.7495337, -874398.4, -12845.544, 0.0, 9.998927, 10.000153 
2.1150826e+3, 2.2207604e+2, -954517.5, -1036594.56, 106250.78, 0.22696692, -0.9740815, -881655.25, -118079.99, 0.0, 9.999341, 9.998221 
2.1151148e+3, 2.3207507e+2, -721916.4, -948348.5, 75295.16, 0.18766178, -0.8498903, -699164.7, -33573.9, 0.0, 10.00059, 9.997546 
2.1151467e+3, 2.4207443e+2, -463930.88, -654276.6, -36268.895, 0.12841204, -0.69457173, -457254.28, 110348.32, 0.0, 10.001165, 9.998624 
2.1151772e+3, 2.5207502e+2, -506207.3, -562910.6, -26888.969, 0.08297097, -0.5602132, -495484.25, -25883.707, 0.0, 9.999956, 9.999153 
2.1152082e+3, 2.6207474e+2, -502946.4, -486900.34, 16983.828, 0.06417424, -0.4986697, -476139.88, -104536.83, 0.0, 9.999183, 9.999385 
2.1152398e+3, 2.7207172e+2, -236864.52, -274061.6, 22217.969, 0.06320314, -0.777723, -226488.17, 47134.2, 0.0, 10.000193, 9.999681 
2.1152712e+3, 2.8206888e+2, -132005.66, -292434.1, 76488.12, -0.023150949, -0.9872978, -101383.27, 74259.91, 0.00000005479561, 10.000765, 9.998607 
2.1153034e+3, 2.920679e+2, -32587.072, -245595.52, 158676.94, -0.13245423, -0.9423478, 52014.746, 129671.55, 0.0000044705935, 10.000995, 9.998145 
2.115337e+3, 3.0206692e+2, 30676.621, -298327.78, 50424.34, -0.03241606, -0.8022924, 38231.35, 38231.35, 0.0000269908, 10.001573, 9.997165 
2.1153665e+3, 3.1206614e+2, 369677.16, -34555.418, -60680.59, -0.061444193, -0.623273, 378589.6, 378589.6, 0.000073670904, 10.0034485, 9.998073 
2.1247827e+3, 1.2204392e+2, -1897315.6, -2341303.0, 138860.31, 0.2886144, -0.9003746, -1857463.3, -113547.58, 0.48543465, 10.001, 9.995198 
2.1248078e+3, 1.320549e+2, -1374751.5, -1127695.4, -21111.637, -0.026641974, -0.30863586, -1125904.3, 519901.84, 0.3637423, 10.000171, 10.005277 
2.1248367e+3, 1.420544e+2, -1602366.5, -1490239.4, 4829.101, -0.038668223, -0.6966185, -1490031.8, 57769.77, 0.23315269, 9.999018, 10.000781 
2.1248664e+3, 1.5205432e+2, -1564608.0, -1532782.5, -29596.115, -0.0036546637, -0.7022613, -1515092.5, -65292.7, 0.1197026, 9.999178, 9.999615 
2.1248965e+3, 1.6205332e+2, -1478118.4, -1499315.0, -7340.617, 0.019326441, -0.73334306, -1475824.5, -124015.8, 0.044803485, 9.9993515, 9.999089 
2.1249275e+3, 1.7205197e+2, -1296406.5, -1361017.5, 16996.752, 0.049269084, -0.7854843, -1292208.1, -38384.477, 0.01004214, 9.999943, 9.999069 
2.1249588e+3, 1.8205136e+2, -1149407.9, -1272847.6, 64847.66, 0.08239382, -0.7360101, -1121603.8, 34227.9, 0.0007722133, 10.00041, 9.998784 
2.1249907e+3, 1.9205256e+2, -1016466.94, -1158443.6, 131687.16, 0.078516364, -0.5067754, -937853.0, 119968.97, 0.000010944595, 10.000668, 9.998766 
2.125022e+3, 2.0205267e+2, -834447.3, -936090.25, 78014.37, 0.09420598, -0.3910654, -792161.0, 167659.27, 0.0, 10.000891, 9.999509 
2.125052e+3, 2.1204959e+2, -659383.0, -760418.5, -43561.152, 0.1584622, -0.69467545, -643195.3, 218647.28, 0.0, 10.001253, 9.999864 
2.1250825e+3, 2.2204675e+2, -677616.2, -930113.7, 22557.936, 0.21054739, -0.88994485, -675616.75, 88249.36, 0.0, 10.001349, 9.99799 
2.1251152e+3, 2.3204528e+2, -719029.44, -967457.56, 124010.59, 0.16282475, -0.7939564, -667722.06, -1835.5176, 0.0, 10.000699, 9.997364 
2.1251473e+3, 2.4204417e+2, -585990.4, -707806.56, 104491.7, 0.10509433, -0.67958015, -525950.94, 41951.746, 0.0, 10.000309, 9.998666 
2.1251772e+3, 2.520444e+2, -371900.06, -484040.2, 44490.293, 0.049402494, -0.5888075, -356393.34, 113508.52, 0.0, 10.000817, 9.999279 
2.1252081e+3, 2.6204416e+2, -229460.56, -372278.6, 76379.016, 0.03720145, -0.52874, -196308.6, 175594.45, 0.0, 10.001146, 9.999221 
2.1252403e+3, 2.7204168e+2, -191819.34, -279311.22, 64726.25, 0.066227704, -0.726291, -157442.33, 116476.51, 0.0, 10.00064, 9.99942 
2.1252722e+3, 2.8203908e+2, -175932.64, -301653.94, 100835.25, 0.019421168, -0.89955014, -119969.016, 55969.33, 0.000000117451826, 10.000396, 9.99873 
2.1253045e+3, 2.92038e+2, -22548.72, -207885.47, 62691.8, -0.13082162, -0.8812346, -3334.6133, 74616.27, 0.0000050467984, 10.000935, 9.998425 
2.1253374e+3, 3.0203766e+2, 52027.664, -271547.16, 1482.192, -0.112531446, -0.70642036, 52034.453, 52034.453, 0.000026928557, 10.00159, 9.997373 
2.1253692e+3, 3.1203622e+2, 76710.76, -135515.73, -5252.7993, -0.01860306, -0.6082769, 76840.69, 76840.69, 0.00007094617, 10.001214, 9.998475 
2.1348082e+3, 1.3202487e+2, -1391019.9, -1160990.8, -76694.14, -0.042538173, -0.37956062, -1137765.1, 508336.5, 0.38411817, 10.000185, 10.0050745 
2.1348347e+3, 1.4202307e+2, -1634636.8, -1551615.3, -5443.8687, -0.15212557, -0.8729233, -1551259.8, -3151.3877, 0.24951555, 9.999064, 10.0002165 
2.1348657e+3, 1.5202461e+2, -1602879.4, -1619108.4, -19474.277, -0.0051624947, -0.65194684, -1589896.8, -139800.3, 0.13052814, 9.999205, 9.999008 
2.134897e+3, 1.6202538e+2, -1467320.1, -1493162.8, 2331.513, 0.120555386, -0.47201696, -1467111.4, -115019.15, 0.050404422, 9.999412, 9.999105 
2.134927e+3, 1.7202486e+2, -1276936.0, -1330060.5, 42223.527, -0.003460547, -0.46217272, -1253614.5, 484.16177, 0.012084308, 9.999977, 9.999267 
2.1349575e+3, 1.8202388e+2, -1068739.5, -1111846.0, 73665.95, -0.11554925, -0.49861518, -1013538.5, 142567.94, 0.001155736, 10.000437, 9.999878 
2.1349898e+3, 1.9202171e+2, -913190.25, -943525.94, 144812.25, -0.09356672, -0.748417, -782753.6, 275364.13, 0.000030850606, 10.000662, 10.000245 
2.1350217e+3, 2.0201977e+2, -932695.8, -1124609.8, 83312.91, -0.035092954, -0.8918322, -901574.94, 58555.844, 0.0, 10.000825, 9.998248 
2.1350527e+3, 2.1201897e+2, -841572.3, -1116586.8, -24020.3, 0.094598606, -0.74323857, -839490.06, 22654.813, 0.0, 10.001159, 9.997465 
2.1350835e+3, 2.2201818e+2, -654904.94, -849845.7, 6834.661, 0.15577994, -0.5999699, -654665.56, 109491.97, 0.0, 10.001212, 9.998604 
2.1351145e+3, 2.3201714e+2, -606403.7, -713693.8, 105115.56, 0.02113115, -0.62328917, -542035.75, 124130.65, 0.0, 10.000611, 9.999149 
2.1351455e+3, 2.4201567e+2, -599339.56, -707296.06, 105175.28, -0.08883946, -0.6640093, -535099.8, 33079.633, 0.0, 10.000191, 9.998725 
2.1351768e+3, 2.5201336e+2, -428806.22, -584281.5, 71690.99, -0.07316843, -0.77533865, -400795.4, 69405.836, 0.0, 10.000738, 9.99863 
2.1352082e+3, 2.6201174e+2, -279139.34, -440078.47, 63060.105, -0.06430755, -0.79787594, -257374.23, 114841.73, 0.0, 10.001007, 9.998817 
2.1352395e+3, 2.7201203e+2, -233199.7, -349165.28, 52792.688, -0.08569733, -0.68147296, -212766.48, 61445.56, 0.00000000014169585, 10.000567, 9.998978 
2.1352714e+3, 2.820113e+2, -280549.13, -464823.28, 102700.21, -0.103534244, -0.5976795, -234713.11, -58494.145, 0.000000256191, 10.00018, 9.997702 
2.1353066e+3, 2.9200864e+2, -107718.125, -365185.03, 108102.84, -0.004780178, -0.63242483, -68348.85, 9897.486, 0.0000052967753, 10.000832, 9.997399 
2.1353401e+3, 3.0200627e+2, 120710.66, -613.599, 4025.1804, -0.0500509, -0.67783237, 120844.05, 120844.05, 0.000025183504, 10.001106, 9.999434 
2.1353704e+3, 3.1200498e+2, 96134.83, 50544.676, 94451.805, -0.054562397, -0.8419723, 170503.31, 170503.31, 0.0000632292, 10.000649, 10.0 
2.1448068e+3, 1.3199523e+2, -1926440.4, -1516126.9, 29569.994, 0.017121738, -0.49175152, -1514006.8, 132380.83, 0.40760165, 9.996414, 10.002991 
2.1448347e+3, 1.4199336e+2, -1557073.6, -1563400.4, -23660.135, -0.09546596, -0.8406998, -1536366.4, 12034.099, 0.26811564, 9.999828, 9.999773 
2.1448655e+3, 1.5199485e+2, -1453713.9, -1521948.0, 5913.8145, 0.0064391973, -0.6389346, -1453205.1, -2816.1902, 0.14296411, 10.000109, 9.999242 
2.1448967e+3, 1.6199574e+2, -1369413.9, -1461383.9, 73496.01, 0.12526101, -0.4583312, -1328702.4, 23681.102, 0.057087187, 10.0001745, 9.998956 
2.144927e+3, 1.7199507e+2, -1286371.1, -1370788.8, 65573.13, 0.0049780537, -0.43234596, -1250596.5, 3795.0305, 0.014719365, 10.000087, 9.998932 
2.1449575e+3, 1.8199378e+2, -1159439.5, -1138789.5, 38529.695, -0.0952317, -0.48357832, -1109225.4, 47176.695, 0.0017550356, 9.999763, 10.000011 
2.1449898e+3, 1.9199103e+2, -1113446.6, -1004174.2, 9876.969, -0.06946101, -0.8202411, -1003288.56, 55128.453, 0.00008036648, 9.999149, 10.000555 
2.1450217e+3, 2.0198885e+2, -1234388.6, -1288838.8, -48203.29, -0.01143707, -0.9968876, -1206253.4, -245821.83, 0.000000018813253, 9.998828, 9.998087 
2.1450527e+3, 2.1198902e+2, -1075674.9, -1268158.9, -15933.043, 0.06621519, -0.71981853, -1074364.9, -211924.7, 0.0, 9.999717, 9.997118 
2.1450837e+3, 2.2198892e+2, -767761.5, -894571.25, 77143.11, 0.10445755, -0.48873118, -731310.25, 33138.555, 0.0, 10.000398, 9.99869 
2.1451147e+3, 2.3198763e+2, -633001.06, -696786.06, 52759.54, 0.012206251, -0.5613437, -603243.75, 63215.313, 0.0, 10.000306, 9.999413 
2.145146e+3, 2.4198589e+2, -576550.94, -686748.0, 16857.436, -0.05593178, -0.64723766, -574029.8, -5556.584, 0.0, 10.000309, 9.99881 
2.1451777e+3, 2.5198334e+2, -422309.16, -577486.44, 24346.008, -0.04998859, -0.7801261, -418579.16, 51916.715, 0.0, 10.000769, 9.998661 
2.1452095e+3, 2.6198164e+2, -302229.7, -495942.13, 31027.844, -0.03777988, -0.80501103, -297381.2, 75130.61, 0.0, 10.001027, 9.998429 
2.1452405e+3, 2.7198207e+2, -258206.5, -421889.8, -18299.273, -0.04021651, -0.6135394, -256185.66, 18323.365, 0.00000000016893417, 10.000668, 9.998425 
2.1452725e+3, 2.8198132e+2, -225150.02, -446418.8, 93908.19, -0.029334601, -0.4945497, -190668.2, -14150.678, 0.0000002738674, 10.000571, 9.997651 
2.1453078e+3, 2.9197726e+2, -70457.85, -311694.63, 177044.55, 0.04511749, -0.6836022, 23151.596, 101706.95, 0.0000047479944, 10.000939, 9.99771 
2.1453425e+3, 3.0197474e+2, 193388.94, -5229.2407, 87045.51, 0.08269538, -0.76953894, 226137.47, 226137.47, 0.00002151286, 10.00169, 9.999165 
2.1453731e+3, 3.119735e+2, 477678.53, 218342.36, -72375.305, 0.024187125, -0.8677759, 496509.6, 496509.6, 0.00005359827, 10.003325, 9.99986 
2.1548037e+3, 1.3196652e+2, -2236937.8, -2052413.1, 258023.98, 0.03278941, -0.60175765, -1870652.3, -223994.7, 0.43279883, 9.996341, 9.998722 
2.1548359e+3, 1.4196508e+2, -1570207.6, -1620960.8, -4642.345, 0.015716823, -0.6255581, -1569786.5, -21106.559, 0.28823382, 9.99993, 9.999322 
2.1548654e+3, 1.519651e+2, -1379490.6, -1372205.1, 13385.948, -0.033267245, -0.6633218, -1361975.1, 88701.92, 0.15688464, 10.000176, 10.000341 
2.1548952e+3, 1.6196455e+2, -1385382.5, -1512085.3, 69904.71, -0.050452814, -0.6785731, -1354393.8, -1713.1522, 0.06501248, 10.000244, 9.99857 
2.1549276e+3, 1.7196259e+2, -1350856.9, -1506620.4, 64733.945, 0.016964333, -0.69811475, -1327466.5, -72764.15, 0.018139776, 10.000096, 9.997992 
2.1549593e+3, 1.8196087e+2, -1217204.1, -1268225.5, 14519.267, 0.07479477, -0.69856846, -1213361.6, -56641.445, 0.0026903055, 9.999797, 9.999111 
2.1549907e+3, 1.9196038e+2, -1170479.8, -1123124.6, -9043.025, 0.09424104, -0.7249036, -1121456.5, -62735.83, 0.00019736934, 9.999154, 9.999735 
2.1550217e+3, 2.0195991e+2, -1179044.1, -1168954.9, -33468.047, 0.08750257, -0.7056751, -1140153.4, -179430.55, 0.0000007869328, 9.998802, 9.998923 
2.155052e+3, 2.119596e+2, -974921.0, -1046332.75, 25035.361, 0.017608376, -0.6237261, -967018.6, -104288.52, 0.0, 9.999653, 9.998674 
2.155083e+3, 2.2195879e+2, -812049.1, -960991.5, 80636.07, -0.016478643, -0.5523452, -776756.3, -12014.396, 0.0, 10.000291, 9.998282 
2.1551158e+3, 2.3195657e+2, -733431.7, -883924.1, 53509.23, 0.071793355, -0.605585, -716345.75, -49580.324, 0.0, 10.000216, 9.998171 
2.1551482e+3, 2.4195465e+2, -593830.4, -684409.8, 24554.482, 0.12105404, -0.632861, -587602.3, -18817.281, 0.0, 10.0001545, 9.998893 
2.1551797e+3, 2.5195408e+2, -391740.78, -494153.06, 48602.434, 0.055776432, -0.6248278, -372347.6, 98440.96, 0.0, 10.000685, 9.999273 
2.1552111e+3, 2.6195332e+2, -346591.75, -558646.9, 21392.389, 0.0244694, -0.57742196, -344455.2, 28339.303, 0.0, 10.000904, 9.998055 
2.1552429e+3, 2.7195156e+2, -315387.4, -536158.5, -22891.746, 0.12357233, -0.53899556, -313038.75, -38226.04, 0.0, 10.000641, 9.997656 
2.1552749e+3, 2.8194883e+2, -190552.47, -337010.66, 97600.63, 0.12781297, -0.59985536, -141763.6, 35074.902, 0.000000100631844, 10.00044, 9.998451 
2.1553081e+3, 2.9194388e+2, -207.62978, -144815.78, 206666.16, -0.044705503, -1.004435, 146437.56, 225316.11, 0.0000031808088, 10.000844, 9.998907 
2.1553442e+3, 3.019419e+2, -56778.813, -388567.75, 122560.6, 0.04931926, -1.0106506, -16415.977, -16415.977, 0.000016571294, 10.001152, 9.996762 
2.155376e+3, 3.1194353e+2, 203434.58, -230437.75, 81533.375, -0.05797242, -0.5050626, 218250.42, 218250.42, 0.00004498328, 10.002801, 9.997032 
2.1648012e+3, 1.3193339e+2, -1657451.0, -1887699.5, 92888.195, -0.0525603, -0.85935354, -1624650.3, 22322.852, 0.45757636, 10.00096, 9.997634 
2.1648371e+3, 1.4193463e+2, -1548166.1, -1619010.8, -25306.799, 0.12974456, -0.5493461, -1540054.9, 8921.86, 0.3088363, 10.000172, 9.999211 
2.1648657e+3, 1.5193415e+2, -1324481.5, -1349823.8, -93921.2, -0.031005718, -0.63589275, -1242380.5, 208599.34, 0.17204043, 10.00068, 10.000282 
2.1648948e+3, 1.6193305e+2, -1314316.3, -1463487.3, -107236.8, -0.12614724, -0.7058385, -1258277.4, 94711.664, 0.07433442, 10.000697, 9.998698 
2.1649277e+3, 1.7193103e+2, -1252570.6, -1427173.8, -34981.14, 0.020865869, -0.7546032, -1245823.0, 9186.926, 0.022589553, 10.000617, 9.998292 
2.1649599e+3, 1.8192944e+2, -1151148.0, -1277949.5, -8796.675, 0.14663842, -0.74961305, -1150540.6, 6485.958, 0.00413868, 10.000427, 9.998737 
2.1649908e+3, 1.9192941e+2, -1054636.1, -1151531.9, -37087.246, 0.12701999, -0.6631807, -1042070.4, 16956.744, 0.00045452762, 10.000301, 9.998989 
2.1650213e+3, 2.0192918e+2, -944604.5, -1017535.1, -31475.549, 0.091990404, -0.58597827, -932899.0, 28130.363, 0.000007502901, 10.000244, 9.999265 
2.165052e+3, 2.1192844e+2, -758925.9, -850612.9, -21618.404, 0.0063008834, -0.6177783, -754084.25, 108951.875, 0.0, 10.000749, 9.999488 
2.1650833e+3, 2.2192734e+2, -712212.3, -901941.4, -10495.736, -0.025063926, -0.6295759, -711633.5, 53414.094, 0.0, 10.0009365, 9.998373 
2.1651162e+3, 2.3192549e+2, -727434.2, -906880.56, 6028.5386, 0.09470134, -0.6281258, -727231.9, -60161.945, 0.0, 10.000368, 9.997938 
2.1651489e+3, 2.4192402e+2, -607401.06, -681720.1, 61127.76, 0.18188208, -0.59711945, -573024.4, -3937.174, 0.0, 10.000004, 9.998993 
2.1651806e+3, 2.5192398e+2, -405354.22, -460147.56, 66445.02, 0.119919874, -0.56288856, -360879.34, 110206.164, 0.0, 10.00043, 9.999618 
2.165213e+3, 2.619233e+2, -317877.25, -547804.25, 44384.99, 0.091538735, -0.53165245, -309606.7, 63483.836, 0.0, 10.001128, 9.9980135 
2.1652448e+3, 2.7192044e+2, -41103.414, -423164.5, 27776.441, 0.16688095, -0.58207816, -39094.582, 236025.06, 0.0, 10.002626, 9.997465 
2.1652773e+3, 2.8191748e+2, 240872.97, -170405.36, 127656.02, 0.1801031, -0.64240885, 277274.13, 454422.3, 0.0000000029805467, 10.003567, 9.998097 
2.1653102e+3, 2.9191443e+2, 211496.72, -70728.234, 82389.664, 0.016402552, -0.81252974, 233788.0, 312960.22, 0.0000013452404, 10.002455, 9.998623 
2.1653464e+3, 3.019128e+2, 10528.442, -314213.56, 52699.676, 0.16816042, -0.7902754, 18866.543, 18866.543, 0.000010696579, 10.001401, 9.997163 
2.1653777e+3, 3.1191283e+2, -82665.6, -349419.13, 210521.06, -0.02947173, -0.49608988, 33173.37, 33173.37, 0.000035610625, 10.000762, 9.997187 
2.1747996e+3, 1.3189566e+2, -1526907.5, -1582129.0, -35612.1, -0.37369135, -1.2764994, -1509456.3, 137879.72, 0.48078975, 10.001489, 9.999827 
2.1748382e+3, 1.4190227e+2, -1538273.1, -1605260.5, 4375.473, 0.18657674, -0.6016295, -1537988.6, 11299.828, 0.32934, 10.000229, 9.999272 
2.1748665e+3, 1.5190187e+2, -1415003.1, -1540340.6, -85582.29, -0.039000984, -0.56255746, -1371597.9, 79700.84, 0.18832743, 10.000664, 9.99886 
2.1748953e+3, 1.6190092e+2, -1263809.0, -1371669.8, -111701.28, -0.19510655, -0.5415274, -1193700.5, 159611.4, 0.0852701, 10.000775, 9.999309 
2.1749277e+3, 1.7190042e+2, -1133228.6, -1185456.9, -31353.574, -0.04957187, -0.59488475, -1118538.4, 136776.06, 0.028395085, 10.000664, 9.999937 
2.1749598e+3, 1.8189958e+2, -1143064.9, -1274250.5, -18813.113, 0.048807357, -0.6238166, -1140420.3, 16900.777, 0.006367479, 10.000481, 9.998738 
2.1749894e+3, 1.91898e+2, -1102539.8, -1254376.1, -39059.195, -0.022348087, -0.6319433, -1093081.3, -33743.684, 0.0009868387, 10.000311, 9.99828 
2.17502e+3, 2.0189649e+2, -957558.8, -1041904.9, -24055.334, -0.07590041, -0.6323249, -951180.56, 10171.875, 0.000047582707, 10.000227, 9.999108 
2.1750525e+3, 2.1189542e+2, -765826.3, -845541.56, 3907.863, -0.021274798, -0.70274264, -765635.2, 97724.086, 0.00000000032497088, 10.00066, 9.999567 
2.1750847e+3, 2.2189447e+2, -700134.3, -840392.06, -24164.28, 0.019273166, -0.7226349, -696087.94, 69278.96, 0.0, 10.000784, 9.998865 
2.175116e+3, 2.3189415e+2, -696332.25, -815728.7, -10316.038, 0.028587446, -0.63478416, -695447.5, -28072.719, 0.0, 10.00026, 9.998611 
2.1751477e+3, 2.4189378e+2, -617252.5, -663563.8, 60709.508, 0.04632775, -0.54387605, -575432.56, -6050.9165, 0.0, 9.999848, 9.999187 
2.1751809e+3, 2.5189298e+2, -423291.1, -469550.75, 89072.695, 0.08621992, -0.59098285, -354394.13, 116993.35, 0.0, 10.000316, 9.999606 
2.1752141e+3, 2.6189148e+2, -329094.88, -530262.2, 82404.71, 0.08755719, -0.6490442, -299649.28, 73751.62, 0.0, 10.000959, 9.998211 
2.175246e+3, 2.7188858e+2, -43997.03, -398768.7, 94716.805, 0.032356597, -0.7321696, -20293.314, 255138.13, 0.0, 10.0025015, 9.99769 
2.1752793e+3, 2.8188685e+2, 103429.57, -389318.47, 107275.03, 0.014381639, -0.63094676, 125771.18, 303222.53, 0.0, 10.003299, 9.996713 
2.1753137e+3, 2.9188788e+2, 62552.043, -362971.66, 48086.902, 0.11290406, -0.20777237, 67918.49, 147363.86, 0.00000028754212, 10.002372, 9.996657 
2.1753491e+3, 3.0188558e+2, 149141.31, 69840.555, 16017.67, 0.26223394, -0.23020093, 152254.44, 152254.44, 0.0000061160813, 10.001053, 9.999936 
2.1753798e+3, 3.1188184e+2, 7985.9497, -36644.887, 157105.7, 0.08745308, -0.7227399, 144353.17, 144353.17, 0.000027460846, 10.000244, 9.999581 
2.1848376e+3, 1.4186956e+2, -1471737.6, -1683904.6, -25542.307, 0.07552676, -0.68703777, -1468705.9, 80899.46, 0.34983045, 10.001464, 9.998145 
2.1848682e+3, 1.5186994e+2, -1428110.3, -1545660.0, -83876.41, 0.08222853, -0.53686213, -1384465.8, 67144.07, 0.2059314, 10.000551, 9.998889 
2.1848945e+3, 1.6186799e+2, -1537638.1, -1447618.3, 11223.572, -0.21495618, -0.6370218, -1446240.0, -92606.82, 0.09816949, 9.9986, 9.999807 
2.1849279e+3, 1.7186886e+2, -1167537.3, -1138198.6, 42841.04, -0.047948286, -0.60626495, -1107585.0, 148036.66, 0.036017943, 10.000177, 10.000505 
2.1849604e+3, 1.818691e+2, -996616.94, -1198990.3, -14849.022, 0.053516004, -0.5662172, -995533.2, 162084.02, 0.009796201, 10.001479, 9.998774 
2.1849898e+3, 1.9186692e+2, -997304.56, -1224069.3, -27049.97, -0.05763481, -0.61992, -994122.5, 65517.563, 0.0020521113, 10.001131, 9.998085 
2.1850197e+3, 2.0186476e+2, -932831.25, -1053802.1, 26398.773, -0.116447456, -0.6627011, -927321.4, 34339.992, 0.00020967671, 10.000507, 9.998896 
2.1850528e+3, 2.1186337e+2, -925078.94, -946381.4, 19037.33, -0.013930089, -0.74317294, -913915.75, -50244.594, 0.00000086887735, 9.999675, 9.999351 
2.1850853e+3, 2.2186229e+2, -915264.8, -918841.8, -11135.472, 0.06265265, -0.76794213, -905775.1, -140095.61, 0.0, 9.999182, 9.99911 
2.185116e+3, 2.318624e+2, -709927.0, -760463.4, -16512.453, 0.042228173, -0.6836771, -705010.06, -37327.875, 0.0, 9.999913, 9.999153 
2.1851477e+3, 2.4186236e+2, -519045.72, -619007.6, 54935.418, 0.044198446, -0.59641653, -494756.9, 74928.58, 0.0, 10.000526, 9.99917 
2.1851811e+3, 2.5186142e+2, -410471.25, -499392.6, 51384.68, 0.08708736, -0.62694156, -386982.4, 84711.805, 0.0, 10.000541, 9.999305 
2.1852149e+3, 2.6186007e+2, -350109.16, -530353.3, 67484.92, 0.08934153, -0.65501636, -327642.6, 46064.96, 0.0, 10.000751, 9.998324 
2.1852478e+3, 2.7185762e+2, -137310.83, -414582.3, 73005.73, -0.015408693, -0.71393, -119263.125, 156470.38, 0.0, 10.001718, 9.997972 
2.1852815e+3, 2.8185603e+2, -42106.637, -437646.3, 84639.31, -0.029045343, -0.6278824, -24756.227, 152995.19, 0.0, 10.00218, 9.99693 
2.1853164e+3, 2.918566e+2, -8826.826, -375839.47, 134170.27, 0.17324741, -0.2579189, 34990.914, 114740.4, 0.000000027227998, 10.00178, 9.996861 
2.1853513e+3, 3.0185464e+2, 294239.66, 135206.28, 156119.13, 0.35421735, -0.2783372, 389925.94, 389925.94, 0.0000044959556, 10.0020075, 9.999964 
2.1853814e+3, 3.118514e+2, 295577.13, 101401.58, -64686.215, 0.107392155, -0.6872064, 315152.72, 315152.72, 0.000025056414, 10.002152, 9.9996395 
2.1948342e+3, 1.4183563e+2, -1567499.8, -1960194.4, -91463.695, -0.46544412, -0.8295505, -1547241.8, 2694.519, 0.371045, 10.001454, 9.996241 
2.1948709e+3, 1.5183814e+2, -1335132.9, -1337880.0, -139923.31, 0.27098843, -0.5498994, -1196576.4, 255338.45, 0.22535217, 10.0005665, 10.000536 
2.1948928e+3, 1.6183434e+2, -1509238.5, -1393585.8, 6901.978, -0.2581706, -0.97142833, -1393175.4, -39223.563, 0.113554515, 9.99862, 10.000168 
2.1949287e+3, 1.7183618e+2, -1213672.9, -1226407.0, 118109.375, -0.021507286, -0.7972855, -1101759.0, 154174.16, 0.046104282, 10.000159, 9.999899 
2.1949627e+3, 1.8183771e+2, -989111.1, -1186820.3, -2608.6729, 0.09470131, -0.59245414, -989076.7, 168841.38, 0.015073848, 10.001498, 9.998851 
2.1949913e+3, 1.9183603e+2, -974292.56, -1173936.5, -38115.766, -0.036511417, -0.62484115, -967263.06, 92672.68, 0.004138987, 10.001127, 9.99843 
2.1950205e+3, 2.0183396e+2, -960791.7, -1105290.6, -6923.972, -0.114700586, -0.668581, -960460.6, 1495.8745, 0.00072646124, 10.000479, 9.998553 
2.1950522e+3, 2.1183215e+2, -981249.3, -1042855.7, -9830.22, -0.038425237, -0.7354044, -979718.8, -115745.72, 0.000022642807, 9.999593, 9.998722 
2.195084e+3, 2.218307e+2, -930880.25, -922874.2, -4523.4946, 0.0320505, -0.76101506, -920836.9, -154850.17, 0.000000000011542125, 9.999056, 9.999143 
2.1951164e+3, 2.3183009e+2, -694959.94, -715004.8, 19217.428, 0.07252412, -0.7785573, -683308.44, -15314.963, 0.0, 9.999844, 9.9995 
2.1951486e+3, 2.4182956e+2, -566894.3, -673945.56, 54929.723, 0.087444946, -0.7543313, -543724.0, 26276.264, 0.0, 10.000348, 9.998873 
2.1951817e+3, 2.518293e+2, -467344.3, -594651.75, 54873.414, 0.05923888, -0.66835445, -446957.03, 25049.174, 0.0, 10.000451, 9.998689 
2.1952148e+3, 2.6182887e+2, -387092.22, -557074.2, 89552.01, 0.007979918, -0.55675596, -348620.56, 25392.266, 0.0, 10.000553, 9.998224 
2.195249e+3, 2.7182713e+2, -144377.53, -392952.56, 117656.31, -0.056133963, -0.5612285, -97520.68, 178509.17, 0.0, 10.0015745, 9.998179 
2.1952835e+3, 2.8182456e+2, 38611.113, -220846.44, 71046.0, -0.071360454, -0.64594626, 56791.395, 234845.17, 0.0, 10.001983, 9.998508 
2.1953179e+3, 2.9182118e+2, 106747.04, -101924.42, 132447.28, 0.12810478, -0.8782801, 171018.03, 251099.66, 0.000000020729713, 10.001638, 9.998809 
2.1953525e+3, 3.018199e+2, 71878.76, -234689.63, 166078.33, 0.24113542, -0.8527335, 144599.11, 144599.11, 0.0000055230016, 10.001654, 9.997561 
2.1953818e+3, 3.1181872e+2, -12089.889, -427051.3, 41257.246, -0.069467396, -0.6966596, -8027.6826, -8027.6826, 0.000029811183, 10.001734, 9.99618 
2.2048332e+3, 1.4180276e+2, -1805833.5, -1842391.8, 76998.055, -0.5512328, -0.9059623, -1744974.6, -194711.7, 0.39437363, 9.998801, 9.998324 
2.2048701e+3, 1.5180534e+2, -1396977.0, -1355088.0, -198523.28, 0.17783375, -0.6422337, -1176407.5, 275828.13, 0.24751917, 10.000039, 10.00077 
2.2048931e+3, 1.6180266e+2, -1294795.5, -1311770.0, -90355.016, -0.1769761, -0.9807536, -1212530.0, 141728.86, 0.13222682, 10.000223, 10.000039 
2.2049287e+3, 1.7180349e+2, -1222155.6, -1315093.1, 28878.107, -0.032009304, -0.8415572, -1213913.4, 42337.637, 0.059555795, 10.000411, 9.999177 
2.2049627e+3, 1.8180406e+2, -1165538.6, -1265381.0, -126164.55, 0.010746769, -0.68620193, -1079777.8, 78468.1, 0.023171267, 10.000233, 9.998934 
2.2049919e+3, 1.918029e+2, -1156271.0, -1218207.4, -190359.44, -0.011214824, -0.69992304, -994377.25, 65881.04, 0.008108057, 9.999675, 9.998842 
2.2050215e+3, 2.0180143e+2, -1101910.1, -1152613.8, -116461.32, 0.004999686, -0.71690136, -1008073.2, -45800.188, 0.0021629941, 9.999418, 9.998745 
2.2050527e+3, 2.1179982e+2, -855251.7, -973136.75, -68983.13, 0.011542559, -0.7713509, -823458.9, 40827.875, 0.00023583506, 10.000406, 9.998816 
2.205084e+3, 2.2179838e+2, -640924.56, -799638.7, -18030.799, 0.024674373, -0.7938781, -638901.94, 127397.88, 0.0000019906881, 10.001118, 9.998996 
2.2051162e+3, 2.3179772e+2, -574853.06, -692445.0, -51604.477, 0.04427402, -0.7885604, -555418.7, 112889.66, 0.0, 10.000806, 9.999203 
2.205149e+3, 2.41797e+2, -541075.2, -661496.75, -30770.67, 0.074085824, -0.7596025, -533668.1, 36649.836, 0.0, 10.000513, 9.998883 
2.2051823e+3, 2.517966e+2, -418508.16, -537481.1, 3327.547, 0.09553162, -0.70629483, -418415.16, 53909.1, 0.0, 10.000679, 9.998948 
2.2052163e+3, 2.6179627e+2, -328779.4, -489481.66, 106208.44, 0.10668588, -0.6180411, -275951.94, 98376.99, 0.0, 10.000769, 9.998594 
2.2052512e+3, 2.7179492e+2, -253830.5, -396420.6, 151667.38, 0.06796639, -0.6249736, -157536.83, 118803.98, 0.0, 10.000599, 9.998633 
2.2052859e+3, 2.817926e+2, -133309.78, -256645.88, 95465.555, 0.055225983, -0.73376435, -81326.52, 97034.3, 0.0, 10.000613, 9.9989195 
2.2053194e+3, 2.9178888e+2, 124827.945, -69781.92, 12322.73, 0.12898673, -1.0197747, 125605.125, 205997.73, 0.00000007580395, 10.001663, 9.999021 
2.2053543e+3, 3.0178806e+2, 170451.5, -298311.13, 29479.602, 0.21557657, -0.92660695, 172298.14, 172298.14, 0.0000083740215, 10.002765, 9.996616 
2.2053862e+3, 3.1178555e+2, 301520.94, -224632.2, 6409.512, 0.10668147, -0.77745914, 301599.0, 301599.0, 0.000042885644, 10.00363, 9.996673 
2.2148381e+3, 1.4177275e+2, -1443389.8, -1162752.0, 231304.34, 0.02592216, -0.71052027, -1032532.3, 518035.6, 0.4221777, 9.998713, 10.005001 
2.214866e+3, 1.5177113e+2, -1482517.3, -1520006.4, -191798.13, -0.26004782, -0.82596976, -1308549.9, 144026.27, 0.27423543, 10.000007, 9.999483 
2.2148946e+3, 1.6177262e+2, -1331589.8, -1386602.3, -98875.77, -0.06318702, -0.6545213, -1256465.5, 98092.05, 0.15564767, 10.000226, 9.999499 
2.214928e+3, 1.7177074e+2, -1272727.6, -1420907.9, 36495.668, -0.14767356, -0.7241212, -1264226.6, -7651.1665, 0.07778218, 10.000393, 9.998457 
2.21496e+3, 1.8176818e+2, -1157396.4, -1261327.1, -145731.39, -0.2794653, -0.8316408, -1054642.5, 103957.945, 0.035576556, 10.000286, 9.998946 
2.2149915e+3, 1.9176745e+2, -1131906.8, -1160862.8, -208769.16, -0.03919455, -0.8359928, -937114.1, 123494.336, 0.0154146915, 9.999651, 9.99925 
2.2150227e+3, 2.0176697e+2, -1055090.6, -1049487.1, -99988.54, 0.16594829, -0.80907345, -952261.1, 10351.539, 0.005714695, 9.999392, 9.999465 
2.2150537e+3, 2.117662e+2, -806060.75, -853635.3, -22123.102, 0.074232005, -0.8610147, -797363.2, 67250.71, 0.0013616167, 10.000332, 9.999669 
2.2150844e+3, 2.2176546e+2, -696119.6, -876698.2, -19749.633, -0.04084105, -0.8528154, -693984.9, 72633.086, 0.00013056793, 10.000957, 9.998544 
2.2151157e+3, 2.3176518e+2, -659767.3, -843846.6, -58697.508, -0.0958129, -0.7213303, -642643.4, 25984.396, 0.0000045921656, 10.000694, 9.998216 
2.2151479e+3, 2.4176459e+2, -559301.5, -642226.6, -39213.72, -0.08129211, -0.6206049, -543695.2, 26943.982, 0.000000030624218, 10.000284, 9.999118 
2.2151835e+3, 2.517632e+2, -375171.25, -414448.63, 15270.676, 0.13141948, -0.74701613, -369932.8, 102717.47, 0.0, 10.000541, 9.999859 
2.215219e+3, 2.61762e+2, -299792.94, -380355.34, 89891.45, 0.2922848, -0.83499324, -241570.1, 133088.81, 0.0, 10.000575, 9.999431 
2.2152542e+3, 2.717611e+2, -221619.94, -298794.94, 145445.58, 0.2763544, -0.88013846, -109730.164, 166935.27, 0.0, 10.000475, 9.999358 
2.2152883e+3, 2.8176007e+2, -230590.16, -396591.03, 109936.1, 0.21552078, -0.8756586, -175840.75, 2833.2957, 0.0, 10.000367, 9.998064 
2.2153208e+3, 2.91759e+2, -8006.68, -322047.34, 66206.46, 0.10066411, -0.7528743, 5380.384, 86068.72, 0.00000027397763, 10.001579, 9.997316 
2.2153564e+3, 3.0175808e+2, 158493.33, -249026.89, 60260.51, 0.12864581, -0.55828786, 167217.36, 167217.36, 0.000015050563, 10.002495, 9.997061 
2.2153911e+3, 3.1175128e+2, 427809.56, 196618.5, 1509.4208, 0.19847156, -1.009032, 427819.4, 427819.4, 0.00007034586, 10.003008, 9.999844 
2.2248374e+3, 1.4174247e+2, -1828454.9, -1173514.1, 341473.88, 0.2602873, -0.20091885, -1027865.9, 523006.72, 0.45833316, 9.994671, 10.007472 
2.2248635e+3, 1.517387e+2, -1835187.1, -1600017.6, -201952.88, -0.33308315, -0.7569372, -1483912.1, -31014.588, 0.30885017, 9.997039, 10.00019 
2.2248971e+3, 1.6174147e+2, -1211317.1, -1304162.6, -23993.822, 0.1443304, -0.49943843, -1205483.1, 149381.47, 0.18666483, 10.0011215, 9.99966 
2.2249284e+3, 1.7173879e+2, -1342756.5, -1422869.5, 103859.35, -0.09678415, -0.6734199, -1271496.9, -14608.223, 0.103338934, 9.999801, 9.998718 
2.2249587e+3, 1.8173572e+2, -1409823.0, -1378129.8, 19535.9, -0.33430767, -0.85314906, -1368821.5, -209903.92, 0.054786276, 9.998516, 9.998993 
2.224991e+3, 1.917354e+2, -1022117.25, -1113813.8, -53938.742, -0.067135416, -0.81478447, -997173.9, 63748.246, 0.028543482, 10.000415, 9.999203 
2.2250232e+3, 2.0173514e+2, -700866.0, -882249.9, 6826.7783, 0.16937998, -0.76475805, -700609.4, 262314.97, 0.013685946, 10.001862, 9.999429 
2.2250542e+3, 2.1173403e+2, -715625.44, -814248.3, -7637.7935, 0.073779315, -0.84561706, -715037.44, 149891.0, 0.005262215, 10.000976, 9.999635 
2.2250852e+3, 2.2173283e+2, -825588.1, -963511.94, -36514.074, -0.030581538, -0.87360144, -816517.9, -49581.4, 0.001420654, 10.000154, 9.9983425 
2.2251162e+3, 2.3173213e+2, -787907.9, -934677.4, -40850.19, -0.07999171, -0.75877386, -777304.2, -108353.99, 0.0002619265, 9.9999275, 9.997972 
2.2251484e+3, 2.4173126e+2, -623821.44, -682574.5, 34051.695, -0.0392429, -0.6633389, -608225.8, -37261.93, 0.000035642544, 9.999858, 9.999059 
2.2251849e+3, 2.517302e+2, -406796.7, -420728.38, 39677.992, 0.22048634, -0.76178336, -373477.72, 99493.09, 0.0000011567587, 10.000248, 9.999978 
2.2252205e+3, 2.6172927e+2, -300133.97, -354329.25, 63275.824, 0.39951822, -0.83824223, -258397.67, 116578.91, 0.0, 10.000461, 9.999661 
2.2252546e+3, 2.7172863e+2, -120980.836, -215497.73, 61764.613, 0.26884064, -0.87945503, -90468.93, 186512.69, 0.0, 10.0010395, 9.999649 
2.2252887e+3, 2.8172833e+2, -18141.887, -312070.9, 59853.523, 0.16795194, -0.8250094, -6421.137, 172563.86, 0.0, 10.00188, 9.9979315 
2.2253235e+3, 2.9172754e+2, 185040.77, -275770.88, 87249.375, 0.13396142, -0.6272258, 201007.2, 282005.03, 0.00000073017384, 10.003105, 9.9969015 
2.2253604e+3, 3.0172583e+2, 306975.75, -140862.67, 119922.35, 0.22558156, -0.51490355, 337066.75, 337066.75, 0.00002755439, 10.003331, 9.997413 
2.2253948e+3, 3.1171745e+2, 417696.16, 277597.75, -69351.47, 0.3118769, -1.1635431, 446219.34, 446219.34, 0.000118261974, 10.00251, 10.000655 
2.2348627e+3, 1.5170853e+2, -1649133.3, -1248585.4, -28468.238, -0.108606935, -0.3492886, -1246572.1, 206622.88, 0.35698506, 9.9967575, 10.003487 
2.2349012e+3, 1.61709e+2, -1187725.8, -1228706.5, 3342.4321, 0.37961832, -0.5414214, -1187455.0, 167726.88, 0.23053116, 10.0010395, 10.000399 
2.2349302e+3, 1.7170739e+2, -1277314.4, -1270581.4, 33256.336, 0.07006099, -0.70951015, -1240521.6, 16671.213, 0.14104874, 9.999723, 9.999811 
2.2349586e+3, 1.8170638e+2, -1410920.1, -1367876.8, 39567.03, -0.23932955, -0.76803535, -1344357.0, -185157.16, 0.08532412, 9.998465, 9.999084 
2.2349907e+3, 1.9170655e+2, -1057826.9, -1178091.0, 31453.555, -0.14933598, -0.64526814, -1050097.4, 11103.272, 0.05187056, 10.000364, 9.998785 
2.235023e+3, 2.0170604e+2, -770731.4, -1002743.25, 4778.0713, -0.05939763, -0.56489193, -770633.0, 192574.1, 0.030293982, 10.001786, 9.99863 
2.2350542e+3, 2.1170317e+2, -796098.0, -959417.4, -40347.383, -0.047344048, -0.7298243, -786674.1, 78557.24, 0.015773455, 10.000882, 9.998683 
2.2350855e+3, 2.2170028e+2, -858603.25, -980926.2, -59106.207, -0.032208823, -0.8601898, -834710.2, -67453.15, 0.0069356123, 9.999947, 9.998314 
2.2351173e+3, 2.3169833e+2, -764305.8, -869074.2, -41455.01, 0.01677084, -0.9151689, -749887.2, -80609.27, 0.002541045, 9.999856, 9.99845 
2.2351496e+3, 2.4169691e+2, -676262.1, -747274.5, 34043.715, 0.10035369, -0.88807404, -662578.2, -91284.87, 0.00075579167, 9.999681, 9.9986925 
2.2351858e+3, 2.516977e+2, -465385.13, -514402.97, 58565.91, 0.2893222, -0.75546104, -426406.63, 46878.977, 0.00014769337, 10.000126, 9.999392 
2.2352205e+3, 2.616981e+2, -385324.34, -454945.56, 62141.223, 0.32953393, -0.6363122, -348907.78, 26374.043, 0.000007045108, 10.00016, 9.9991 
2.2352532e+3, 2.7169728e+2, -174015.6, -279292.72, 90282.14, 0.0022406676, -0.65415585, -122147.3, 155144.4, 0.00000000065814787, 10.000855, 9.999286 
2.2352874e+3, 2.8169683e+2, -32156.928, -264885.78, 83448.91, -0.16376561, -0.61755973, -5327.782, 173970.36, 0.0, 10.001579, 9.9983835 
2.2353266e+3, 2.9169482e+2, 179300.11, -215038.02, 131666.28, 0.13366333, -0.61476624, 219221.0, 300539.4, 0.0000012574419, 10.002814, 9.997446 
2.2353645e+3, 3.0169094e+2, 225892.94, -176251.78, 78312.8, 0.29116523, -0.7620368, 240605.17, 240605.17, 0.000044073433, 10.002809, 9.997396 
2.2353992e+3, 3.116874e+2, 174780.08, -78970.78, 67292.37, 0.4738791, -0.873873, 191520.94, 191520.94, 0.00018419352, 10.001936, 9.998463 
2.2448601e+3, 1.5167229e+2, -1319397.0, -1248840.4, 155088.03, -0.28567442, -0.9293194, -1125068.9, 328466.78, 0.42759266, 10.000475, 10.001872 
2.2449002e+3, 1.6167493e+2, -1682470.3, -1490563.1, 71619.3, 0.36650306, -0.7884357, -1466781.9, -111274.97, 0.29616648, 9.997452, 10.000083 
2.2449307e+3, 1.7167419e+2, -1236875.4, -1241250.1, 2403.1357, 0.16717641, -0.87012184, -1235813.1, 21699.07, 0.19952731, 9.999996, 9.999895 
2.244961e+3, 1.8167374e+2, -924964.94, -1123491.0, -31362.049, -0.016160436, -0.8806038, -920128.4, 239387.5, 0.13536815, 10.002036, 9.999086 
2.2449929e+3, 1.9167411e+2, -905961.8, -1094781.5, -29410.025, -0.025161847, -0.7359132, -901487.0, 160026.7, 0.09319166, 10.001482, 9.998836 
2.2450244e+3, 2.0167384e+2, -930722.75, -1148838.5, -46991.168, -0.030448264, -0.620113, -921029.7, 42488.484, 0.06306426, 10.000915, 9.998076 
2.245055e+3, 2.1167065e+2, -881870.9, -1107343.4, -120004.49, -0.04732218, -0.7234461, -829954.4, 35595.727, 0.0400799, 10.000726, 9.997769 
2.2450857e+3, 2.2166748e+2, -735067.1, -919311.8, -98715.25, -0.033190187, -0.8178988, -692166.4, 75414.87, 0.023131557, 10.000771, 9.998357 
2.2451185e+3, 2.316658e+2, -581676.9, -719312.1, -87510.59, 0.109340526, -0.89462876, -539166.3, 130429.44, 0.011994159, 10.000845, 9.999007 
2.2451514e+3, 2.4166428e+2, -516960.25, -742247.25, 4023.774, 0.23593763, -0.8886139, -516888.4, 54720.69, 0.0054928027, 10.001073, 9.99806 
2.2451855e+3, 2.5166348e+2, -340755.28, -570970.5, -14042.364, 0.1954844, -0.80982935, -339901.9, 133715.5, 0.002050329, 10.001484, 9.998351 
2.2452188e+3, 2.6166221e+2, -287052.3, -502079.2, -52842.297, 0.12552536, -0.75423706, -274768.22, 100863.234, 0.0004876709, 10.001216, 9.998282 
2.2452539e+3, 2.7166125e+2, -255852.55, -376015.5, -35316.73, 0.025664262, -0.72534055, -246241.45, 31403.422, 0.000047167257, 10.000531, 9.998789 
2.2452895e+3, 2.8166172e+2, -270489.22, -342951.3, -17174.838, -0.014811341, -0.57959783, -266624.6, -86981.29, 0.00000034188096, 9.999792, 9.998704 
2.2453274e+3, 2.916603e+2, 6840.725, -234521.06, 13380.457, 0.024558743, -0.55006605, 7580.2363, 89234.7, 0.0000013302117, 10.001352, 9.998017 
2.2453664e+3, 3.0165443e+2, 342030.53, -31548.877, -17361.738, 0.20341954, -0.998426, 342835.66, 342835.66, 0.0000584347, 10.003179, 9.998225 
2.2454034e+3, 3.1165606e+2, 443711.06, -35406.066, -15600.025, 0.5828373, -0.61891764, 444218.47, 444218.47, 0.00025945, 10.004102, 9.997719 
2.2548933e+3, 1.6163912e+2, -1905554.8, -1856096.5, 67281.21, -0.08911022, -1.2429352, -1809143.8, -453302.75, 0.39765337, 9.997023, 9.997778 
2.2549307e+3, 1.7163886e+2, -1311719.3, -1379790.5, 93800.99, 0.13292243, -1.1796955, -1245969.9, 11880.498, 0.29298013, 9.999898, 9.9989805 
2.254966e+3, 1.8163744e+2, -988530.06, -1171782.8, -32948.043, 0.2663706, -1.2113934, -982786.2, 177082.66, 0.21888196, 10.001804, 9.998828 
2.254997e+3, 1.9163768e+2, -918420.7, -1058333.6, -52727.547, 0.2347664, -1.1116563, -900775.2, 161090.16, 0.16615056, 10.001318, 9.999175 
2.2550273e+3, 2.0163804e+2, -976138.2, -1213550.5, -63885.3, 0.1452127, -0.9545904, -960039.0, 3823.2292, 0.12546477, 10.00077, 9.997689 
2.2550559e+3, 2.1163614e+2, -950742.3, -1241273.3, -120279.23, -0.013869458, -0.8547009, -907409.94, -41522.242, 0.0914258, 10.000674, 9.996865 
2.2550857e+3, 2.2163433e+2, -753797.7, -925310.8, -96777.24, -0.12243009, -0.75398755, -710248.4, 57661.727, 0.062582165, 10.000641, 9.998383 
2.2551197e+3, 2.3163448e+2, -559282.9, -644063.56, -75621.99, 0.15071099, -0.7008135, -514980.5, 154923.45, 0.039919913, 10.000727, 9.9995985 
2.2551528e+3, 2.4163333e+2, -656553.56, -922647.3, 527.9452, 0.27107182, -0.6519483, -656552.56, -84641.73, 0.023601582, 10.000623, 9.997027 
2.2551839e+3, 2.5162768e+2, -483050.3, -809067.9, 1810.7322, -0.12215867, -0.923289, -483040.25, -9074.955, 0.012405956, 10.001253, 9.996815 
2.2552161e+3, 2.6162165e+2, -416623.75, -697415.5, -96458.375, -0.29425696, -1.1874425, -386681.06, -10655.887, 0.005154125, 10.000913, 9.997082 
2.2552563e+3, 2.716209e+2, -334056.63, -481297.34, -61652.72, 0.22183643, -1.0759535, -311650.88, -33613.4, 0.0013586987, 10.000298, 9.99817 
2.2552939e+3, 2.8162333e+2, -342462.44, -387257.78, -21762.805, 0.4283638, -0.6880896, -333630.72, -153613.7, 0.00015517221, 9.999382, 9.998575 
2.2553262e+3, 2.9162425e+2, -17264.184, -193214.28, 85863.44, -0.24246499, -0.44165415, 17692.207, 99696.586, 0.0000026982873, 10.001023, 9.998426 
2.2553661e+3, 3.0161607e+2, 374679.16, 152637.14, 24112.432, -0.18412232, -1.2274752, 377267.44, 377267.44, 0.000065484004, 10.002723, 9.999688 
2.2554047e+3, 3.1162056e+2, 373762.06, -86815.984, 88502.68, 0.2888693, -0.67452484, 390182.9, 390182.9, 0.00034262822, 10.003725, 9.997551 
2.2649324e+3, 1.7161039e+2, -1076346.5, -1188916.6, -61440.582, 0.2375143, -0.4929945, -1049307.3, 208832.19, 0.44342524, 10.001825, 9.999843 
2.2649637e+3, 1.8161109e+2, -1278351.3, -1395302.9, -120552.07, -0.057125207, -0.44872558, -1202841.1, -42703.906, 0.3585124, 9.999673, 9.998323 
2.2649954e+3, 1.9160628e+2, -1136041.8, -1233239.6, -212474.2, -0.0038736928, -0.7709775, -966679.3, 95500.89, 0.29413474, 10.000071, 9.998621 
2.2650269e+3, 2.0160261e+2, -890438.56, -1102771.0, -198849.98, -0.004258847, -1.0060616, -771188.3, 193025.44, 0.24160613, 10.001318, 9.998314 
2.2650562e+3, 2.1160264e+2, -720296.56, -1014297.9, -158559.94, -0.13398606, -0.79747576, -651078.7, 215140.17, 0.1940874, 10.002055, 9.997832 
2.2650866e+3, 2.2160214e+2, -560652.9, -886272.7, -86208.555, -0.16108915, -0.617776, -539237.44, 228990.19, 0.14888066, 10.00245, 9.997806 
2.265119e+3, 2.3159993e+2, -693289.1, -868044.75, -241229.72, 0.018651884, -0.65986353, -524099.9, 146145.42, 0.108788945, 10.000521, 9.998203 
2.2651511e+3, 2.4159712e+2, -831521.4, -976570.7, -160286.45, 0.111343, -0.69485456, -728115.44, -155847.22, 0.07581198, 9.999191, 9.997385 
2.2651851e+3, 2.5159332e+2, -656040.06, -798157.0, 5455.962, -0.031366758, -0.8680745, -655830.9, -181530.0, 0.048806984, 9.999547, 9.997773 
2.2652185e+3, 2.615883e+2, -602306.44, -893737.44, 39083.8, -0.07366009, -1.0422752, -597155.94, -220808.27, 0.026684597, 10.00004, 9.996169 
2.2652574e+3, 2.7158445e+2, -74351.91, -528604.1, 28974.1, 0.1848346, -1.1096119, -72511.27, 205880.47, 0.010897145, 10.002764, 9.996687 
2.2652934e+3, 2.8158405e+2, 81282.39, -263681.3, -49672.227, 0.30209684, -0.8773971, 88292.375, 268692.38, 0.002788968, 10.002607, 9.997891 
2.2653289e+3, 2.9158553e+2, -110383.31, -239384.25, 52810.656, -0.03673662, -0.54155487, -91521.47, -9139.625, 0.0003034348, 10.000388, 9.99842 
2.2653703e+3, 3.015788e+2, -14643.856, -54653.242, 44291.504, 0.109888114, -1.2209388, 13951.09, 13951.09, 0.000074942734, 10.000184, 9.999478 
2.2654073e+3, 3.115817e+2, 585053.06, -116838.47, -93075.234, 0.058195166, -0.6568998, 597185.7, 597185.7, 0.00045627946, 10.005666, 9.996459 
2.2750261e+3, 2.0156792e+2, -864935.2, -971774.4, -105858.76, -0.24886174, -0.7196338, -799781.06, 164787.77, 0.4526298, 10.001381, 9.999301 
2.2750613e+3, 2.1156986e+2, -675861.4, -732735.2, -31166.201, 0.14529704, -0.578898, -662108.4, 204438.36, 0.38963944, 10.001598, 10.000495 
2.2750947e+3, 2.2157045e+2, -1001410.44, -1280529.9, -50523.453, 0.36715135, -0.43828645, -992546.6, -224007.95, 0.32267725, 9.99989, 9.996293 
2.2751182e+3, 2.3156096e+2, -1204296.8, -1493858.1, -279307.9, -0.117493495, -0.91697335, -1034475.5, -363843.88, 0.25840095, 9.998581, 9.994772 
2.275146e+3, 2.4155442e+2, -853627.44, -882818.3, -160716.3, -0.3670648, -1.1328807, -706845.2, -134151.86, 0.20062341, 9.998609, 9.998286 
2.2751887e+3, 2.5156003e+2, -482217.9, -362283.16, 24353.21, 0.35889024, -0.7014929, -357526.78, 117101.01, 0.14660953, 9.999169, 10.001048 
2.2752258e+3, 2.6156217e+2, -830470.94, -1135958.4, 67606.46, 0.6149362, -0.3255807, -816177.9, -439578.03, 0.09444842, 9.999082, 9.994936 
2.2752573e+3, 2.7155223e+2, -299866.78, -886055.5, 122274.47, -0.11883166, -0.81144416, -275383.8, 3320.455, 0.04983968, 10.002304, 9.99442 
2.2752889e+3, 2.815442e+2, -120117.16, -508340.72, -171569.17, -0.4443293, -1.1379628, -55162.61, 125626.33, 0.019500945, 10.001914, 9.996519 
2.275334e+3, 2.9154488e+2, -177769.78, -331307.53, -42213.434, 0.44448653, -0.84087884, -166929.1, -84148.57, 0.004786881, 10.000218, 9.9978485 
2.2753769e+3, 3.0154338e+2, -186385.42, -349756.72, 115308.45, 0.74467266, -0.905601, -126760.83, -126760.83, 0.0007184054, 10.000001, 9.9975 
2.2754087e+3, 3.1154123e+2, 256327.14, -551320.2, 40380.063, -0.38826147, -0.5449508, 258341.0, 258341.0, 0.0007782504, 10.004782, 9.993813 
2.2851552e+3, 2.4152164e+2, -748807.1, -616699.75, 280309.16, 0.6417977, -0.9888656, -394766.78, 178238.13, 0.45869297, 9.998002, 10.001416 
2.2851841e+3, 2.5152504e+2, -574101.06, -831947.44, -221997.31, -0.091073535, -0.43848297, -446306.53, 28657.902, 0.36361384, 10.000527, 9.997155 
2.2852197e+3, 2.6151273e+2, -506427.38, -922007.5, -349556.44, -0.02278406, -1.2454247, -307564.75, 69515.89, 0.26167566, 10.001011, 9.995594 
2.285258e+3, 2.7151272e+2, -150092.83, -541420.8, -1782.7699, -0.23570642, -0.9456495, -150084.7, 129002.6, 0.1640845, 10.002232, 9.996927 
2.2852923e+3, 2.8151122e+2, -332555.16, -674145.06, -126433.8, -0.21340105, -0.74245834, -290849.7, -109741.586, 0.0825175, 10.000658, 9.99601 
2.285336e+3, 2.9150748e+2, 642620.25, -152486.75, 87562.04, 0.27219462, -0.7350687, 652148.9, 735294.75, 0.030766597, 10.006896, 9.995919 
2.2853766e+3, 3.015057e+2, 1006912.6, 62988.586, 41160.996, 0.2638226, -0.63624513, 1008704.1, 1008704.1, 0.009049441, 10.008854, 9.996135 
2.2854155e+3, 3.114972e+2, -274019.25, -480546.5, -37523.645, 0.07494239, -0.8416226, -267412.94, -267412.94, 0.003959628, 9.999684, 9.996761 
2.2952634e+3, 2.7146298e+2, -506599.03, -94050.11, -134233.45, 0.06994533, -1.8509448, -54219.363, 225350.28, 0.4346357, 9.996308, 10.0039015 
2.295302e+3, 2.814848e+2, -1186346.1, -1139690.9, -339982.56, 0.6349138, 0.20655808, -822236.56, -640876.2, 0.25417078, 9.995127, 9.99541 
2.2953348e+3, 2.9147536e+2, 155591.25, -691200.2, 287731.44, -0.5491403, -0.22160539, 244106.95, 327564.66, 0.12169735, 10.005146, 9.992987 
2.2953704e+3, 3.0146763e+2, 349408.34, -448048.25, -198874.48, -1.3280426, -0.41990384, 396253.06, 396253.06, 0.053721927, 10.005422, 9.994186 
2.2954278e+3, 3.1145024e+2, 79240.18, 440689.7, -291616.53, 1.2949635, -1.6624978, 603041.6, 603041.6, 0.030796101, 9.999038, 10.003406 
2.3053372e+3, 2.9140276e+2, -298129.13, 326072.4, -641181.8, -0.68076533, -2.4070985, 727078.25, 811247.1, 0.35947138, 9.995659, 10.007075 
2.305407e+3, 3.0143023e+2, -83219.35, 306212.4, -114968.85, 1.9303294, -0.52415407, 337620.63, 337620.63, 0.21141233, 9.99757, 10.003786 
2.3054145e+3, 3.114261e+2, 565942.1, -245695.2, 334153.38, -0.4201726, -0.27686542, 685810.9, 685810.9, 0.1614965, 10.006559, 9.995533 
2.351805e+3, 2.78588e+2, -349541.56, 245151.08, 202614.48, 0.921196, -1.0278072, 307620.63, 517435.4, 0.44749686, 9.994905, 10.007755 
2.3514368e+3, 2.8861225e+2, 1030452.56, 1028164.5, -317422.88, -1.8260155, 0.99741876, 1346733.5, 1458296.9, 0.34859464, 10.007411, 10.008202 
2.3511508e+3, 2.9860944e+2, 875723.94, 1104030.8, 163730.39, 1.1871598, -0.290004, 1189473.5, 1203045.9, 0.26934615, 10.004444, 10.008224 
2.3508283e+3, 3.0859172e+2, -641714.8, -1475016.4, -341184.6, -0.58719593, -0.83420783, -519844.7, -519844.7, 0.2132505, 10.001732, 9.988849 
2.3650932e+3, 1.7899367e+2, -1840651.8, -1112110.3, 17842.057, 0.30900353, -0.6503939, -1111673.6, 74138.14, 0.43640596, 9.993118, 10.003795 
2.3647602e+3, 1.889818e+2, -993609.6, -1803346.5, 187511.92, -0.24923901, -0.90870446, -952295.1, 135642.06, 0.3775988, 10.00433, 9.992528 
2.3644389e+3, 1.9897734e+2, -1008293.2, -1420085.4, 402765.78, 0.5098196, -0.21571845, -761847.06, 228152.33, 0.33353588, 10.00193, 9.995864 
2.3641135e+3, 2.0897157e+2, -1016064.44, -816304.44, 133094.58, 0.9068907, -0.16654934, -749780.75, 142270.81, 0.30097756, 9.998099, 10.001286 
2.3637669e+3, 2.1896459e+2, -1194581.6, -998718.9, -215690.78, -0.5594302, -0.4924748, -859768.3, -65658.79, 0.27814138, 9.996776, 9.999768 
2.3634446e+3, 2.2895734e+2, -580245.2, -1109540.4, 124956.75, -0.425409, -0.3990708, -552228.25, 143949.47, 0.2610385, 10.002739, 9.99546 
2.3631321e+3, 2.3894943e+2, 958561.0, 45160.277, -91187.625, 0.658996, -0.35608608, 967575.56, 1565829.9, 0.24561289, 10.014318, 9.998576 
2.3627925e+3, 2.48941e+2, 365757.7, -47240.324, -50742.914, 0.12303261, -0.68166226, 371900.84, 872230.94, 0.2300761, 10.006978, 10.00032 
2.3624563e+3, 2.5893247e+2, -1568343.4, -720653.94, 291213.16, -0.19890863, -0.98021156, -630252.2, -227846.27, 0.2098204, 9.990339, 10.002146 
2.3621191e+3, 2.6893237e+2, -629535.1, 121313.42, -207917.69, 0.02998984, -0.981794, 175043.14, 479451.97, 0.17452952, 9.994202, 10.006127 
2.361786e+3, 2.7893317e+2, -490916.9, -928028.2, 61555.58, -0.09836091, -0.5896759, -482413.84, -276007.88, 0.12459233, 10.0002, 9.994555 
2.3614544e+3, 2.8892076e+2, 259799.2, -851762.9, -314247.22, -0.3050538, -0.5014624, 342488.13, 451022.7, 0.08134714, 10.006342, 9.991516 
2.3611335e+3, 2.9891083e+2, 145405.86, 187353.97, 221158.69, -0.46208215, -0.7236575, 388530.94, 399168.7, 0.054234035, 10.000536, 10.001144 
2.3608272e+3, 3.0891198e+2, 88564.05, 761064.6, 79791.336, -0.32322294, -0.43792292, 770402.1, 770402.1, 0.037975926, 9.997538, 10.006701 
2.3757517e+3, 1.5933916e+2, -1993234.8, -1121807.9, 375115.16, 0.83695173, 0.06112259, -982579.94, 395871.34, 0.40915862, 9.992093, 10.006862 
2.375406e+3, 1.6932686e+2, -924911.0, -1377881.0, 324268.75, -0.7594513, -0.57588685, -755863.9, 524699.8, 0.3191401, 10.004761, 9.996976 
2.3750956e+3, 1.7932414e+2, -924264.8, -1249181.9, -40587.957, 0.78361577, -0.084055424, -919271.4, 263313.6, 0.25440004, 10.002962, 9.997759 
2.3747674e+3, 1.8931608e+2, -924635.9, -1185218.3, -56401.67, 0.7897387, -0.15208746, -912951.94, 171712.19, 0.20803122, 10.00191, 9.997994 
2.3744343e+3, 1.9930801e+2, -937221.25, -1283554.6, 82160.945, 0.41535375, -0.21332036, -918718.6, 68027.26, 0.17323056, 10.001375, 9.996964 
2.3741043e+3, 2.0929925e+2, -558868.9, -1132899.0, -36344.867, 0.17293425, -0.17620096, -556576.8, 332256.5, 0.14628343, 10.004054, 9.996014 
2.3737743e+3, 2.1929058e+2, 70996.82, -539579.56, -232724.25, 0.10567584, -0.19398972, 149585.5, 940503.56, 0.1255341, 10.007135, 9.998176 
2.3734483e+3, 2.2928311e+2, -690221.44, -752300.5, -124572.86, 0.443646, -0.3483075, -592879.3, 100105.97, 0.10829949, 9.999858, 9.999339 
2.3731221e+3, 2.3927583e+2, -1727136.9, -1121846.0, -98279.96, 0.79992414, -0.4514685, -1106288.4, -511237.2, 0.09199208, 9.991735, 9.999995 
2.3727837e+3, 2.4927573e+2, -1112852.9, -568594.44, -243644.53, 0.28609446, -0.07096092, -475460.78, 21598.12, 0.07586676, 9.99437, 10.001878 
2.3724456e+3, 2.59275e+2, -570962.5, -533310.94, -250070.28, -0.4303727, 0.3478881, -301358.8, 97714.09, 0.05915913, 9.998735, 9.999292 
2.3721114e+3, 2.6926708e+2, 300830.2, 59358.785, -471845.47, -0.3449383, 0.043691278, 667142.0, 968288.4, 0.040411502, 10.003571, 10.000492 
2.3717849e+3, 2.7925608e+2, 204828.48, -561002.0, -77165.43, -0.062312722, -0.42498365, 212526.33, 415775.88, 0.021716056, 10.005131, 9.994579 
2.3714553e+3, 2.8924328e+2, -109962.65, -906428.5, -159004.33, -0.14955425, -0.45219585, -79392.77, 25984.107, 0.009480262, 10.003382, 9.992298 
2.3711309e+3, 2.9923305e+2, -320607.22, -214151.66, 395022.2, -0.17274962, -0.5730701, 131212.73, 138693.52, 0.0043092477, 9.998364, 9.999095 
2.3708178e+3, 3.0923036e+2, -835413.0, -22706.49, 63733.78, -0.12827022, -0.33227605, -17738.748, -17738.748, 0.0024652453, 9.992967, 10.002985 
2.386054e+3, 1.4967713e+2, -1467199.8, -1748143.9, 147674.88, 0.061132453, -0.1717035, -1403857.5, 69275.73, 0.38967857, 10.001253, 9.997133 
2.3857464e+3, 1.5966412e+2, -1557004.0, -1901357.8, -131862.73, 1.0583594, -0.7127818, -1512310.8, -137057.84, 0.2783623, 10.000291, 9.995908 
2.3854175e+3, 1.6965586e+2, -1558116.9, -1945074.9, -89524.336, 0.63862145, -0.55907077, -1538408.9, -261071.66, 0.19862524, 10.000122, 9.994944 
2.3850842e+3, 1.796491e+2, -1330775.6, -1667024.6, 5436.6157, -0.0684953, -0.26239425, -1330687.8, -151279.75, 0.1461588, 10.00043, 9.996078 
2.3847549e+3, 1.896405e+2, -971015.6, -1173046.5, -86902.16, -0.11592919, -0.36517844, -938779.06, 142711.61, 0.11113541, 10.001204, 9.99842 
2.3844275e+3, 1.9963112e+2, -955959.0, -1333763.3, -145595.81, 0.053314783, -0.6168391, -906361.3, 77218.67, 0.08556882, 10.001394, 9.996609 
2.3841017e+3, 2.0962246e+2, -1145225.0, -1574204.4, 21739.166, 0.14683978, -0.49954382, -1144126.1, -258459.14, 0.065839775, 10.000277, 9.994785 
2.3837739e+3, 2.1961409e+2, -963852.25, -1097120.3, -94614.75, 0.13260496, -0.36447263, -914762.25, -127011.1, 0.050802168, 9.999379, 9.997833 
2.3834367e+3, 2.2960657e+2, -748669.9, -493665.38, -258529.22, -0.13097015, -0.68795514, -332907.0, 356911.5, 0.038884565, 9.998257, 10.001894 
2.3830998e+3, 2.39599e+2, -998386.5, -780311.3, -193503.5, -0.3568117, -1.0235357, -667239.0, -75351.97, 0.028499383, 9.996831, 9.99988 
2.3827723e+3, 2.495978e+2, -568351.4, -573802.0, -104923.63, 0.00035730272, -0.58691114, -466117.7, 27795.18, 0.019239577, 9.999315, 9.999442 
2.3824492e+3, 2.5959605e+2, -354799.72, -661305.75, -87597.21, 0.4564347, -0.05524515, -331531.47, 64413.855, 0.011432521, 10.001255, 9.9971895 
2.3821162e+3, 2.6958945e+2, 69411.164, -160892.72, -309204.47, 0.33077005, -0.071159154, 284209.8, 582212.3, 0.005416997, 10.002429, 9.999381 
2.3817845e+3, 2.7958083e+2, -222300.73, -540779.8, -53788.23, -0.017390992, -0.31207925, -213461.7, -13385.822, 0.001679893, 10.001126, 9.996666 
2.3814529e+3, 2.895694e+2, 158502.53, -448604.84, -133343.31, -0.23852642, -0.4760871, 186498.66, 288683.88, 0.00032890108, 10.003761, 9.995303 
2.381129e+3, 2.9956293e+2, 69690.54, -295194.63, 210360.03, 0.09109774, -0.35862684, 165701.98, 169950.3, 0.00010134281, 10.00207, 9.996855 
2.380809e+3, 3.0955327e+2, -856409.5, -620998.7, 135905.06, -0.02612484, -0.31087953, -558913.25, -558913.25, 0.00013857817, 9.995181, 9.997943 
2.3963627e+3, 1.4000708e+2, -972353.75, -1073518.3, 131397.89, -0.55590826, 0.38815838, -882138.4, 685764.9, 0.42781976, 10.005221, 10.003017 
2.3960571e+3, 1.4999181e+2, -1436447.9, -1789277.9, 19929.783, 0.70692307, -0.54160416, -1435325.8, 34724.47, 0.2998544, 10.001449, 9.996785 
2.3957361e+3, 1.5998463e+2, -1341096.8, -1535901.3, -127520.86, 0.47038367, -0.46046722, -1278034.8, 94088.89, 0.19614406, 10.0007105, 9.998291 
2.3954085e+3, 1.6998175e+2, -1095437.5, -1111732.9, -96908.8, 0.18640983, -0.25665575, -1006334.44, 267816.88, 0.12585048, 10.000667, 10.000631 
2.39508e+3, 1.7997843e+2, -1124617.8, -1366821.4, 10268.976, -0.03999245, -0.07011392, -1124183.1, 52000.83, 0.083471425, 10.000949, 9.997916 
2.3947549e+3, 1.8996872e+2, -1045366.94, -1527745.5, -81882.57, 0.24653311, -0.13971598, -1031846.5, 46437.82, 0.057587944, 10.001902, 9.995663 
2.3944291e+3, 1.999583e+2, -769824.75, -1195684.6, -171541.44, 0.5337011, -0.27550298, -709321.6, 271069.0, 0.03970386, 10.002483, 9.997025 
2.3940983e+3, 2.0995036e+2, -856028.25, -1031154.44, -64628.566, 0.31999967, -0.36753726, -834760.56, 47702.668, 0.026570952, 10.00055, 9.998365 
2.3937666e+3, 2.199431e+2, -963048.5, -946242.56, -86309.82, 0.08339336, -0.4005501, -867927.6, -83398.43, 0.017417854, 9.998766, 9.999144 
2.3934324e+3, 2.2993927e+2, -748870.8, -638041.8, -255374.22, 0.12712201, -0.28351316, -432138.97, 254429.19, 0.011141793, 9.998915, 10.000518 
2.3930989e+3, 2.3993441e+2, -645026.3, -726788.44, -137168.05, 0.17553511, -0.20131168, -542776.9, 45841.15, 0.0065593217, 9.999788, 9.998788 
2.3927696e+3, 2.4992758e+2, -210342.33, -476811.78, -8867.15, 0.108960286, -0.2419053, -210047.6, 280643.06, 0.0032030866, 10.002147, 9.998701 
2.3924434e+3, 2.5992054e+2, -54547.582, -485986.47, -36456.19, 0.10406976, -0.20477557, -51488.754, 341276.44, 0.0011282732, 10.00324, 9.997387 
2.3921108e+3, 2.6991484e+2, -122814.82, -282223.75, -264491.7, 0.16506706, -0.101466164, 73720.914, 368537.72, 0.00023273825, 10.001316, 9.9990225 
2.3917796e+3, 2.799083e+2, -461214.3, -427955.38, 51292.957, 0.088639036, -0.15094744, -390663.53, -193789.22, 0.000018051116, 9.998585, 9.998594 
2.3914504e+3, 2.8989848e+2, 142636.63, -194204.73, 142717.25, -0.28698483, -0.37646446, 194973.14, 293938.75, 0.000004039042, 10.002554, 9.997598 
2.3911269e+3, 2.9989392e+2, 644322.25, 3858.5315, 183922.39, -0.064224355, -0.15145448, 693381.44, 694388.9, 0.000013542408, 10.005886, 9.9970665 
2.3908015e+3, 3.0988103e+2, -238551.45, -149022.56, -193331.47, 0.048197888, -0.4342041, 4659.237, 4659.237, 0.000052300038, 9.998635, 9.999529 
2.406706e+3, 1.3031936e+2, -1221646.5, -1121047.3, -9403.143, 0.8013735, -0.40586573, -1120175.9, 542682.4, 0.4904266, 10.003125, 10.005292 
2.4063772e+3, 1.4031643e+2, -1168872.8, -1241756.3, -99657.54, 0.9043424, -0.6544316, -1099203.1, 465670.3, 0.36336082, 10.003105, 10.001645 
2.4060528e+3, 1.5031289e+2, -1425913.8, -1617397.6, 103313.516, 0.62518257, -0.44820932, -1380800.5, 86111.45, 0.24041095, 10.001, 9.998132 
2.4057283e+3, 1.6030906e+2, -1550868.5, -1471757.5, 48016.426, 0.21761367, -0.17560382, -1449101.9, -80147.414, 0.14389461, 9.99853, 9.999689 
2.405402e+3, 1.7030582e+2, -1180574.0, -1020412.75, -74527.96, 0.06543297, -0.12348762, -991098.06, 279885.3, 0.08188297, 9.9994, 10.001854 
2.4050765e+3, 1.8030196e+2, -1221777.6, -1351816.6, -228009.98, 0.06420655, -0.10594405, -1049697.9, 123321.4, 0.047678713, 10.000025, 9.998492 
2.4047518e+3, 1.9029456e+2, -1410106.8, -1686397.5, -174333.7, 0.3776616, 0.0064723627, -1325819.3, -250717.78, 0.028905774, 9.999368, 9.995775 
2.4044256e+3, 2.0028654e+2, -1271621.0, -1322735.3, -127695.86, 0.62722796, 0.077805676, -1166949.9, -189761.95, 0.017015342, 9.998534, 9.998038 
2.4040933e+3, 2.1027897e+2, -917161.4, -780570.94, -92325.1, 0.33626822, -0.18567713, -734026.44, 145224.5, 0.00915297, 9.998946, 10.000866 
2.4037603e+3, 2.2027194e+2, -888076.0, -893756.44, -183954.45, 0.07523913, -0.39415392, -706939.8, 74369.69, 0.0045936005, 9.999241, 9.999284 
2.4034275e+3, 2.3026963e+2, -688451.8, -789537.3, -309258.6, 0.2522837, -0.01913464, -425633.03, 257706.61, 0.0022051786, 10.000123, 9.998885 
2.4030963e+3, 2.4026595e+2, -602981.1, -790315.1, -154915.19, 0.41573912, 0.29848477, -515617.13, 69766.31, 0.0009056362, 10.000464, 9.998035 
2.4027656e+3, 2.5025657e+2, -483398.6, -561910.8, 12710.994, 0.10739967, -0.012165092, -481392.0, 6080.4863, 0.00023937336, 10.000153, 9.999032 
2.402437e+3, 2.6024696e+2, -636197.8, -746633.25, -54028.37, -0.1900455, -0.29670313, -614162.3, -224598.73, 0.000025130046, 9.999174, 9.997559 
2.4021044e+3, 2.7024168e+2, -40632.727, -292766.97, -300557.63, -0.07222341, -0.11677944, 159226.22, 450841.03, 0.00000030344088, 10.00211, 9.998571 
2.401774e+3, 2.8023672e+2, 168324.14, -8120.3193, -18472.193, 0.012294345, -0.037322767, 170237.27, 363899.16, 0.000000006555133, 10.002372, 9.999699 
2.4014473e+3, 2.9022905e+2, -35931.156, -59073.82, 193346.45, -0.29312652, -0.25842866, 146189.92, 241920.8, 0.00000087941476, 10.000362, 9.999596 
2.4011233e+3, 3.0022413e+2, -523552.78, -585525.2, 46030.34, -0.36387858, -0.14796263, -499050.8, -499050.8, 0.0000071974287, 9.997955, 9.9968605 
2.4007952e+3, 3.1021255e+2, 122200.2, 109722.03, -323150.03, -0.057393774, -0.34646067, 439171.38, 439171.38, 0.00003374468, 10.000671, 10.000342 
2.4166948e+3, 1.3064788e+2, -1551963.0, -1808505.3, -62939.7, -0.034851957, -0.39693707, -1537353.5, 122281.2, 0.44509977, 10.002251, 9.997561 
2.4163654e+3, 1.4064373e+2, -1238884.0, -1472774.3, -88088.54, -0.09167786, -0.084574714, -1209419.6, 352260.56, 0.31930807, 10.003362, 9.999008 
2.4160437e+3, 1.5064092e+2, -1215602.8, -1278739.3, 15909.301, 0.086215675, 0.100111954, -1211820.5, 251889.63, 0.20041417, 10.001576, 10.000477 
2.4157219e+3, 1.6063671e+2, -1423348.5, -1413767.0, 29387.734, 0.19293547, 0.1761527, -1388782.0, -23029.328, 0.110025235, 9.999427, 9.999642 
2.4153979e+3, 1.7062779e+2, -1256973.8, -1300388.4, -50005.74, 0.20690636, -0.16219085, -1224167.0, 43669.39, 0.054970514, 9.999968, 9.999495 
2.4150732e+3, 1.8061963e+2, -1095690.1, -1229075.8, -229864.73, 0.21208386, -0.40855104, -923038.6, 246876.25, 0.027314784, 10.000603, 9.999063 
2.4147442e+3, 1.9061774e+2, -1142870.4, -1219404.6, -216320.39, 0.21605763, 0.01246533, -961458.5, 110485.98, 0.013986388, 9.999719, 9.998833 
2.414415e+3, 2.0061503e+2, -1074274.0, -996314.7, -115035.9, 0.21854138, 0.35121822, -913833.75, 60145.063, 0.006556314, 9.998858, 10.000129 
2.4140857e+3, 2.1060698e+2, -819909.56, -653344.06, -78334.3, 0.21914843, -0.069301836, -622292.75, 253750.38, 0.002469395, 9.999264, 10.001594 
2.4137558e+3, 2.2059885e+2, -801959.7, -892583.56, -154690.33, 0.19109271, -0.41483265, -686081.44, 92028.42, 0.00078321603, 9.999968, 9.998946 
2.4134214e+3, 2.3059496e+2, -683949.06, -941448.56, -284064.7, 0.11569682, -0.08113448, -500818.63, 179338.47, 0.00023610769, 10.000784, 9.997527 
2.4130881e+3, 2.405903e+2, -487032.28, -674711.7, -157185.66, 0.04681429, 0.21959329, -397805.84, 184404.84, 0.000047296035, 10.000989, 9.998569 
2.412759e+3, 2.5058168e+2, -523617.66, -435611.7, -42523.79, -0.0050535924, -0.1249403, -418422.06, 65862.88, 0.0000020598873, 9.999253, 10.000337 
2.4124311e+3, 2.6057288e+2, -776685.4, -740455.25, 11228.774, -0.07590907, -0.43463904, -737257.4, -350895.53, 0.0, 9.997895, 9.9981985 
2.4121009e+3, 2.7056727e+2, -123931.42, -447890.2, -103356.37, -0.14197963, -0.22533706, -93765.4, 194656.11, 0.0, 10.002071, 9.997502 
2.4117708e+3, 2.8056195e+2, 491210.0, 125558.49, -96308.28, -0.22004451, -0.07812034, 515025.34, 705502.4, 0.0, 10.004637, 9.999538 
2.4114406e+3, 2.905538e+2, -240227.38, -101114.96, -140767.13, -0.34970027, -0.3858704, -13656.991, 78893.07, 0.0000001537889, 9.998676, 10.000145 
2.4111138e+3, 3.0054855e+2, -958206.56, -737662.44, 5433.708, -0.31272432, -0.33442682, -737528.6, -737528.6, 0.000003139397, 9.994684, 9.997387 
2.4107912e+3, 3.1054178e+2, 553481.3, 317583.7, -63971.367, -0.1396558, -0.11700866, 569712.44, 569712.44, 0.000017109696, 10.003647, 10.000315 
2.4266933e+3, 1.3097405e+2, -1501512.3, -1782241.5, -136276.08, 0.09374921, -0.25466657, -1446241.0, 210205.89, 0.4141129, 10.002724, 9.997622 
2.4263623e+3, 1.4097163e+2, -1356962.1, -1544634.0, 21291.885, -0.15713133, 0.20011164, -1354576.8, 203899.81, 0.28877336, 10.002206, 9.998772 
2.4260408e+3, 1.509668e+2, -1045000.06, -1197374.0, 95074.67, 0.06830341, 0.2086135, -999352.56, 461170.06, 0.17287979, 10.002925, 10.000455 
2.425719e+3, 1.6096093e+2, -970307.56, -1241731.4, 11828.281, 0.28549355, 0.13190918, -969793.06, 392785.25, 0.08747846, 10.002966, 9.999232 
2.4253938e+3, 1.7095211e+2, -1250862.1, -1347526.4, 33984.727, 0.27856448, -0.14852475, -1240109.9, 24553.283, 0.038149297, 10.0002365, 9.999026 
2.4250676e+3, 1.8094422e+2, -1476513.1, -1338144.5, -31057.557, 0.27029493, -0.3400147, -1331493.1, -164752.48, 0.01570925, 9.997682, 9.999685 
2.4247381e+3, 1.9094296e+2, -1190057.6, -1050300.9, -75056.16, 0.2117576, 0.004117395, -1017629.7, 51131.438, 0.0064830934, 9.998564, 10.000544 
2.4244079e+3, 2.0094128e+2, -1007378.3, -921833.6, -71553.84, 0.15652984, 0.31146145, -881242.75, 89540.35, 0.0021827125, 9.999174, 10.0004835 
2.4240789e+3, 2.1093407e+2, -781223.4, -678959.75, -106166.11, 0.11674597, -0.002344301, -612253.94, 260587.98, 0.00044835047, 9.999742, 10.001174 
2.4237493e+3, 2.2092625e+2, -854370.25, -974937.7, -241026.38, 0.088168584, -0.29247895, -666203.1, 108705.09, 0.000068581576, 9.999908, 9.998402 
2.423415e+3, 2.3092072e+2, -707729.3, -976452.56, -285646.9, -0.0521141, -0.09677306, -526421.5, 150548.22, 0.0000096515805, 10.000824, 9.997229 
2.423082e+3, 2.409148e+2, -472825.34, -643973.9, -162393.63, -0.14566001, 0.07861555, -374838.6, 204194.33, 0.00000040342232, 10.001042, 9.998749 
2.4227534e+3, 2.5090742e+2, -278211.47, -244674.94, -134269.06, -0.0017146805, -0.20018491, -126131.13, 354961.53, 0.0, 10.000678, 10.000943 
2.422426e+3, 2.608999e+2, -570339.9, -642452.56, -51663.62, 0.06854355, -0.44930792, -543394.7, -160239.27, 0.0, 9.999349, 9.998184 
2.4220961e+3, 2.7089387e+2, -468626.47, -655662.5, -1743.8136, -0.21878952, -0.2703128, -468610.22, -183389.05, 0.0, 9.999926, 9.9970875 
2.4217664e+3, 2.8088772e+2, -278288.16, -386799.03, -140039.52, -0.45754674, -0.13461795, -182361.33, 4925.5645, 0.0, 9.999975, 9.99828 
2.4214338e+3, 2.9087856e+2, 29884.172, -52541.12, -294970.94, -0.4297923, -0.43779397, 286507.6, 375877.2, 0.0000000009564638, 10.00089, 9.999424 
2.4211064e+3, 3.0087224e+2, -203076.66, -318557.94, 94398.766, -0.26599038, -0.48979554, -150159.67, -150159.67, 0.0000004799063, 9.999623, 9.99792 
2.4207842e+3, 3.1087226e+2, -135664.14, -68315.52, 42692.75, -0.6743411, 0.26270765, -47614.93, -47614.93, 0.0000055147566, 9.999033, 9.999949 
2.4366948e+3, 1.31303e+2, -1302696.0, -1370718.1, -127168.734, 0.44111958, 0.25955793, -1205068.8, 448168.56, 0.39271495, 10.002904, 10.001477 
2.436364e+3, 1.4129888e+2, -1248633.3, -1413943.1, 30029.602, 0.25529552, 0.2746311, -1243347.3, 311928.88, 0.26710206, 10.002665, 9.99977 
2.4360415e+3, 1.5129009e+2, -1090306.9, -1336801.6, 109036.28, 0.341019, -0.03229128, -1048997.8, 408358.2, 0.15331793, 10.003052, 9.999229 
2.435718e+3, 1.6128218e+2, -953721.44, -1202045.3, -36266.066, 0.38753855, -0.22779399, -948533.4, 410895.34, 0.07196278, 10.002869, 9.999565 
2.4353887e+3, 1.7127894e+2, -1135825.6, -1174003.3, -79597.44, 0.2636536, -0.042388428, -1073060.1, 188402.84, 0.027363949, 10.000494, 10.0001335 
2.4350595e+3, 1.8127523e+2, -1346983.1, -1186411.6, -45544.504, 0.19154708, 0.08963921, -1174393.0, -10891.506, 0.009079448, 9.998183, 10.000473 
2.4347334e+3, 1.9126973e+2, -1124947.5, -983682.9, -35879.992, 0.4079686, -0.027313618, -975092.1, 90462.75, 0.002868925, 9.998865, 10.000848 
2.4344058e+3, 2.0126441e+2, -980092.8, -997276.75, -37471.145, 0.4800656, -0.07090446, -950241.2, 17365.764, 0.00059867656, 9.9997225, 9.999701 
2.4340722e+3, 2.1126008e+2, -860698.1, -916483.9, -96121.59, -0.0020253814, 0.06510475, -788504.2, 81144.95, 0.000045539302, 10.000028, 9.999414 
2.4337398e+3, 2.212546e+2, -780323.0, -907824.2, -222334.02, -0.36599004, 0.12938736, -612780.4, 158921.52, 0.0000022398012, 10.000259, 9.998683 
2.4334094e+3, 2.3124623e+2, -573539.44, -757749.94, -245620.5, -0.17224829, -0.06749002, -403322.75, 270460.16, 0.000000052409952, 10.001074, 9.9986105 
2.4330804e+3, 2.4123842e+2, -367148.66, -538475.94, -138623.31, 0.062044498, -0.19236086, -289856.22, 286002.13, 0.0, 10.001526, 9.99923 
2.4327523e+3, 2.512336e+2, -304104.3, -360668.13, -154170.05, 0.29725647, -0.14570545, -175643.52, 302258.06, 0.0, 10.0009365, 10.000028 
2.4324234e+3, 2.6122847e+2, -433677.3, -505768.78, -101615.34, 0.32636258, -0.10036631, -361903.88, 18044.287, 0.0, 9.99995, 9.998823 
2.4320893e+3, 2.7122203e+2, -537397.4, -568627.44, -57183.496, -0.29064822, -0.06737022, -493735.25, -211722.14, 0.0, 9.998883, 9.998212 
2.4317577e+3, 2.8121528e+2, -410616.28, -427824.2, -52578.027, -0.6666878, -0.054695968, -365942.88, -181862.97, 0.0, 9.998907, 9.998522 
2.4314333e+3, 2.9120702e+2, 342929.03, 21282.11, -99932.484, -0.19995655, -0.22101727, 371448.34, 457604.2, 0.0, 10.003302, 9.998798 
2.4311094e+3, 3.0120012e+2, 526137.56, 36738.434, 18696.67, 0.21725039, -0.26686046, 526850.8, 526850.8, 0.000000008678429, 10.004591, 9.9979725 
2.4307775e+3, 3.111995e+2, -785651.2, -498927.34, -440353.03, -0.402348, 0.45314288, -179187.3, -179187.3, 0.0000009202062, 9.994976, 9.999006 
2.4470092e+3, 1.21632755e+2, -2058108.6, -2037308.8, 21153.104, -0.5933465, 0.20626758, -2024137.3, -276136.25, 0.49454167, 9.998209, 9.998625 
2.4466917e+3, 1.3162696e+2, -1467085.9, -1494483.8, -49960.836, 0.4584697, 0.08603218, -1428979.9, 221080.14, 0.3775347, 10.001397, 10.000767 
2.4463624e+3, 1.416237e+2, -1218607.8, -1392301.9, -32573.637, 0.34347326, 0.22543664, -1212700.0, 339390.66, 0.25111946, 10.002816, 9.999882 
2.4460381e+3, 1.5161508e+2, -1439929.8, -1490616.1, 53485.22, 0.36556154, -0.09943396, -1406087.3, 48081.973, 0.13882844, 10.000118, 9.99946 
2.4457128e+3, 1.6160755e+2, -1633417.1, -1478575.5, -13252.018, 0.38757408, -0.28679967, -1477449.5, -121210.24, 0.060861234, 9.997816, 9.999993 
2.445383e+3, 1.7160626e+2, -1172465.3, -1118072.3, -49071.105, 0.21662365, 0.03094862, -1089165.1, 169091.11, 0.02025213, 9.999987, 10.000721 
2.4450538e+3, 1.8160377e+2, -884708.3, -998391.3, -61431.49, 0.13268529, 0.25254703, -857855.25, 302428.47, 0.0052852775, 10.001547, 10.000144 
2.444728e+3, 1.9159587e+2, -854640.4, -918962.7, -102388.49, 0.40536025, -0.05439101, -779480.75, 282876.4, 0.0012089658, 10.0010395, 10.000234 
2.444401e+3, 2.0158869e+2, -937805.06, -1052764.6, -133905.81, 0.53062326, -0.23485315, -849563.5, 114861.734, 0.00012403581, 10.000389, 9.998985 
2.4440664e+3, 2.1158583e+2, -820338.75, -967161.4, -106208.89, -0.09637704, 0.097848795, -764639.44, 101819.16, 0.000001917801, 10.000668, 9.998721 
2.4437332e+3, 2.215815e+2, -757534.1, -897225.1, -183937.31, -0.5400482, 0.31886074, -630627.7, 137876.95, 0.000000018702426, 10.000476, 9.9986315 
2.4434051e+3, 2.3157176e+2, -611511.06, -699368.7, -243256.64, -0.16886748, -0.07075467, -408248.6, 262346.3, 0.0, 10.000497, 9.999279 
2.4430774e+3, 2.4156313e+2, -580434.9, -662110.2, -197802.28, 0.22461206, -0.33795372, -419298.63, 153377.06, 0.0, 10.000167, 9.999042 
2.4427488e+3, 2.5156066e+2, -364163.0, -440470.9, -173317.61, 0.41907886, -0.027508449, -224849.44, 249853.4, 0.0, 10.000775, 9.999537 
2.442419e+3, 2.615574e+2, -328645.16, -456197.25, -104138.73, 0.38336465, 0.23005511, -270305.44, 106430.71, 0.0, 10.000682, 9.998826 
2.442083e+3, 2.7154997e+2, -177326.08, -306191.25, -72093.3, -0.36085522, 0.10118295, -145068.42, 133736.48, 0.0, 10.000962, 9.999017 
2.4417512e+3, 2.815424e+2, -199507.61, -295997.47, -3253.393, -0.77482617, -0.045177963, -199398.03, -18523.283, 0.0, 10.000234, 9.998807 
2.4414326e+3, 2.9153562e+2, -213870.17, -227789.1, 57618.375, 0.013878693, -0.09720354, -162792.47, -79854.61, 0.0, 9.999431, 9.998939 
2.4411096e+3, 3.0152932e+2, -441375.38, -458612.56, -33839.215, 0.42599902, -0.079844296, -415074.47, -415074.47, 0.0, 9.998083, 9.997717 
2.4407688e+3, 3.1152326e+2, -163939.5, -188724.95, -252737.53, -0.42110717, 0.07700982, 76708.96, 76708.96, 0.00000009975268, 9.999333, 9.998974 
2.4570073e+3, 1.219544e+2, -1690217.5, -1647279.0, 83521.51, -0.17422651, -0.37993535, -1582511.6, 162325.53, 0.48539782, 9.999925, 10.001112 
2.4566868e+3, 1.3194698e+2, -1479261.4, -1680224.1, 13517.952, 0.32764274, -0.50296825, -1478356.3, 168556.94, 0.36593348, 10.002343, 9.998401 
2.4563584e+3, 1.4194725e+2, -1157052.5, -1341721.4, -49757.93, 0.13579538, 0.14404245, -1144499.0, 404414.0, 0.23856215, 10.003219, 10.0000925 
2.4560314e+3, 1.5194154e+2, -1302233.3, -1288287.9, -52883.49, 0.19936542, -0.0015138201, -1241919.4, 209047.0, 0.1275105, 10.000529, 10.00079 
2.4557048e+3, 1.6193599e+2, -1474718.3, -1319333.1, 16796.14, 0.25718623, -0.102257624, -1317538.3, 35481.418, 0.052560914, 9.99853, 10.000745 
2.4553771e+3, 1.7193326e+2, -1096727.3, -1067661.8, 41298.625, 0.12903243, 0.04662522, -1038413.5, 216637.33, 0.01541553, 10.000429, 10.00086 
2.4550493e+3, 1.8192917e+2, -877426.9, -1094582.0, -49047.2, 0.034704834, 0.14060855, -866862.8, 290231.1, 0.0031067657, 10.002002, 9.999262 
2.4547216e+3, 1.9192106e+2, -909542.75, -1109213.1, -128136.18, 0.16642167, -0.046657164, -846940.44, 212231.72, 0.00048131414, 10.0013485, 9.998787 
2.4543934e+3, 2.0191374e+2, -855353.2, -978322.7, -130356.305, 0.21466646, -0.1476626, -772709.06, 188533.81, 0.000015932997, 10.000786, 9.999293 
2.454062e+3, 2.1191008e+2, -718758.7, -819123.75, -99171.4, -0.10018993, 0.027500471, -657796.06, 205484.95, 0.0000000054715246, 10.000919, 9.999619 
2.4537311e+3, 2.219053e+2, -673491.5, -824011.44, -188860.84, -0.29084557, 0.14207482, -545447.56, 219882.02, 0.0, 10.000884, 9.998941 
2.4534021e+3, 2.3189671e+2, -650867.06, -772284.25, -262502.78, 0.044340048, -0.0935639, -442144.34, 225268.06, 0.0, 10.000422, 9.998839 
2.453073e+3, 2.418895e+2, -557681.1, -588340.6, -194648.22, 0.28819048, -0.1958729, -377759.94, 191722.7, 0.0, 10.000014, 9.999624 
2.4527414e+3, 2.5188842e+2, -321782.0, -351093.38, -148619.94, 0.13470978, 0.19584037, -187096.89, 284400.5, 0.0, 10.000748, 10.000179 
2.4524109e+3, 2.6188537e+2, -184094.3, -333892.06, -81378.97, -0.026577588, 0.42677143, -148393.1, 225134.52, 0.0, 10.001389, 9.999339 
2.4520816e+3, 2.7187502e+2, -58999.332, -253296.19, -73859.16, -0.15879312, -0.003117197, -34110.914, 241507.02, 0.0, 10.001724, 9.999043 
2.4517524e+3, 2.8186598e+2, 10042.916, -52555.19, -118837.83, -0.21732739, -0.33668628, 101634.305, 279331.2, 0.0, 10.001011, 10.000109 
2.4514239e+3, 2.9186198e+2, -439504.4, -173619.08, -105091.11, -0.08247459, -0.26584247, -137098.2, -57365.727, 0.0, 9.997125, 10.000434 
2.4510962e+3, 3.0185735e+2, -627645.56, -358225.53, 82777.3, 0.00459933, -0.21622427, -334825.25, -334825.25, 0.0, 9.99591, 9.999456 
2.450768e+3, 3.1185094e+2, 766651.4, 599233.25, 146478.45, -0.24716382, -0.26396528, 851652.56, 851652.56, 0.000000000000427524, 10.004292, 10.001957 
2.4670103e+3, 1.222853e+2, -1351439.1, -1458697.0, 155793.11, 0.34850833, -0.09645813, -1240303.0, 501293.94, 0.47722325, 10.004151, 10.001484 
2.4666816e+3, 1.3227394e+2, -1401428.8, -1776923.1, 51116.273, 0.0034483008, -0.49650404, -1394594.6, 249111.63, 0.3557266, 10.003798, 9.997049 
2.466358e+3, 1.4227185e+2, -1239558.0, -1404381.8, -39802.977, 0.32754716, 0.020211678, -1230449.5, 315277.84, 0.22774403, 10.002567, 9.999823 
2.4660279e+3, 1.5226729e+2, -1074651.4, -1150454.1, -99419.73, 0.23123959, -0.031602155, -1006153.5, 441617.9, 0.11809006, 10.00218, 10.0010395 
2.4656992e+3, 1.6226272e+2, -1061397.9, -1134391.9, -35074.797, 0.20314774, -0.053615082, -1047276.0, 302541.03, 0.04605504, 10.001523, 10.000639 
2.4653728e+3, 1.722591e+2, -1115080.5, -1101703.1, -12338.429, 0.15448944, 0.017527469, -1094357.0, 157500.39, 0.012013259, 10.000421, 10.000634 
2.4650455e+3, 1.8225455e+2, -1233598.9, -1278033.9, -103213.44, 0.095695056, 0.07397288, -1150238.8, 3667.0208, 0.0018483637, 9.999632, 9.999145 
2.4647161e+3, 1.9224755e+2, -990205.8, -1149571.9, -73566.34, 0.040840082, -0.0065021706, -961438.9, 94535.125, 0.00018026956, 10.000821, 9.998757 
2.464387e+3, 2.0224084e+2, -835111.44, -929424.25, -31992.578, 0.021148026, -0.05086035, -825283.2, 132755.9, 0.0000007906511, 10.00081, 9.999614 
2.4640577e+3, 2.1223599e+2, -966186.06, -864130.94, -18324.85, -0.020309666, -0.051027816, -860940.3, -854.3334, 0.0, 9.998949, 10.00025 
2.463728e+3, 2.2223067e+2, -1079983.0, -1007298.06, -70579.57, -0.020858143, -0.032520078, -964253.8, -202116.13, 0.0, 9.998072, 9.999043 
2.4633981e+3, 2.3222384e+2, -585248.9, -712346.8, -62333.926, 0.13374302, -0.11025437, -559781.06, 104423.25, 0.0, 10.000817, 9.999023 
2.4630676e+3, 2.4221802e+2, -337235.72, -530463.75, -18360.408, 0.21220218, -0.06483718, -335506.6, 230756.02, 0.0, 10.001783, 9.9991665 
2.4627346e+3, 2.522159e+2, -436956.34, -454093.88, -61007.703, -0.0620579, 0.27464563, -383918.6, 84370.04, 0.0, 10.000155, 9.999767 
2.462404e+3, 2.622114e+2, -614199.1, -598632.7, -52012.035, -0.23280653, 0.4062332, -553824.75, -183491.9, 0.0, 9.998696, 9.998833 
2.4620794e+3, 2.7219954e+2, -371805.9, -420614.88, -43209.637, 0.04217909, -0.16374943, -346585.28, -74149.39, 0.0, 9.999677, 9.998865 
2.461752e+3, 2.8219035e+2, -139095.22, -96788.016, -213327.64, 0.18383434, -0.514038, 96432.25, 270946.9, 0.0, 9.999897, 10.000351 
2.4614143e+3, 2.9218823e+2, -50867.42, 70090.8, -315168.72, -0.29685357, -0.32046983, 330530.75, 407062.22, 0.0, 9.999539, 10.000961 
2.4610847e+3, 3.021832e+2, -364206.53, -259317.8, 27513.156, -0.34704617, -0.33707517, -252538.98, -252538.98, 0.0, 9.997866, 9.999208 
2.4607678e+3, 3.1217635e+2, -56266.56, 357317.03, 199796.28, -0.09750255, -0.5022299, 438069.0, 438069.0, 0.0, 9.998038, 10.0032835 
2.4770086e+3, 1.2262148e+2, -1284214.1, -1428630.4, 198546.58, 0.17581911, 0.7230348, -1145152.8, 593158.1, 0.46784618, 10.004996, 10.001344 
2.4766763e+3, 1.326043e+2, -1438256.9, -1902518.3, 20368.617, -0.40185913, -0.16792579, -1437364.9, 203105.2, 0.34520847, 10.003796, 9.996153 
2.4763593e+3, 1.4259638e+2, -1273491.1, -1455006.3, -42982.418, 0.7120369, -0.16279645, -1263827.4, 278716.38, 0.21743059, 10.002398, 9.999443 
2.4760261e+3, 1.52592e+2, -1088083.3, -1190078.1, -89501.484, 0.35599762, -0.15170637, -1036069.75, 408517.34, 0.109704144, 10.00222, 10.000686 
2.4756953e+3, 1.6258775e+2, -1047719.3, -1160411.0, -41585.97, 0.14742158, -0.103071705, -1034034.9, 312596.38, 0.040704507, 10.00175, 10.00033 
2.4753691e+3, 1.7258354e+2, -1101197.1, -1142938.5, -44477.004, 0.2676281, -0.044704292, -1072937.5, 175741.19, 0.00953522, 10.000698, 10.000223 
2.475042e+3, 1.8257937e+2, -1075722.3, -1059228.4, -71386.01, 0.26577464, 0.037556134, -995614.5, 155109.39, 0.0011160366, 10.00008, 10.000432 
2.474712e+3, 1.9257523e+2, -831001.8, -886311.3, -20751.182, 0.04045246, 0.082340226, -824082.06, 228681.95, 0.00006263998, 10.001091, 10.0004425 
2.474382e+3, 2.025702e+2, -723613.3, -766043.8, -68975.09, -0.048484966, 0.07095539, -672664.5, 282147.06, 0.0000000031066179, 10.001105, 10.0005865 
2.4740532e+3, 2.1256378e+2, -941475.6, -810150.94, -87860.664, 0.19166759, -0.12382388, -766127.2, 90743.81, 0.0, 9.99891, 10.000666 
2.4737236e+3, 2.2255805e+2, -965959.2, -784292.4, 27953.71, 0.2603806, -0.21564764, -780088.3, -21164.959, 0.0, 9.998098, 10.000572 
2.4733923e+3, 2.3255426e+2, -427354.66, -465744.53, 96207.414, -0.017562935, -0.13390861, -348446.0, 312509.5, 0.0, 10.001135, 10.000587 
2.4730615e+3, 2.425491e+2, -285884.97, -634867.8, -14568.017, -0.12663445, -0.06173725, -285277.9, 277726.5, 0.0, 10.002646, 9.998044 
2.472731e+3, 2.5254115e+2, -614641.0, -810223.75, -137699.72, 0.1015511, -0.07387423, -543540.75, -78452.58, 0.0, 10.000071, 9.99738 
2.4724014e+3, 2.6253328e+2, -709678.8, -715112.6, -26777.355, 0.18893732, -0.09934693, -685480.9, -318312.03, 0.0, 9.998315, 9.998213 
2.4720733e+3, 2.725251e+2, -454393.22, -506092.88, 372.98248, 0.031486534, -0.25169775, -454390.53, -185145.84, 0.0, 9.999268, 9.998499 
2.4717441e+3, 2.825185e+2, -183718.86, -291252.56, -204031.02, -0.07277946, -0.25399807, -26489.201, 144817.58, 0.0, 10.000303, 9.998819 
2.471411e+3, 2.925142e+2, 41441.13, -144013.4, -372805.7, -0.17384934, -0.06321617, 332878.44, 406228.56, 0.0, 10.001222, 9.99872 
2.4710843e+3, 3.0250698e+2, -75131.31, -258170.33, -164786.92, 0.15304796, -0.107545786, 21844.67, 21844.67, 0.0, 10.00037, 9.998051 
2.4707551e+3, 3.1249824e+2, -528943.75, 2080.7134, -143902.53, -0.40632987, -0.32978663, 38569.61, 38569.61, 0.0, 9.995206, 10.00229 
2.4870083e+3, 1.2294159e+2, -1361107.0, -1539827.6, 31385.172, 0.16128522, 0.16122125, -1355755.6, 379412.44, 0.45571506, 10.004434, 10.000139 
2.4866755e+3, 1.32932e+2, -1477868.1, -1681736.5, -30030.605, -0.2361814, -0.18197328, -1473536.5, 163716.8, 0.33319858, 10.002197, 9.998475 
2.4863559e+3, 1.4292485e+2, -1481293.9, -1536712.8, 44953.21, 0.7728729, -0.24743012, -1456196.1, 83123.83, 0.20679392, 10.000469, 9.999689 
2.4860209e+3, 1.5292013e+2, -1383024.5, -1380294.6, 23976.6, 0.25629437, -0.22714306, -1357644.1, 83724.91, 0.10179194, 10.000181, 10.000208 
2.4856897e+3, 1.6291535e+2, -1319709.6, -1323202.4, 98333.27, 0.03933939, -0.17528807, -1223107.3, 120311.875, 0.036105353, 9.999972, 10.000025 
2.4853654e+3, 1.7291054e+2, -1101924.5, -1162891.8, 120649.77, 0.34062356, -0.14733513, -1007966.94, 237503.98, 0.0076701324, 10.000794, 10.000028 
2.4850386e+3, 1.8290648e+2, -948012.5, -920110.25, 93320.55, 0.41624492, -0.053914573, -839703.75, 307810.63, 0.000687035, 10.000646, 10.001108 
2.4847063e+3, 1.9290411e+2, -1072125.5, -874265.56, 103312.07, 0.0010439022, 0.06392166, -830155.25, 219382.88, 0.000019881356, 9.998924, 10.001544 
2.4843755e+3, 2.0290017e+2, -1172364.4, -967260.1, 1879.7748, -0.13307546, 0.09349083, -967242.94, -15667.512, 0.0, 9.997995, 10.000691 
2.4840482e+3, 2.1289328e+2, -871964.2, -771203.4, -41444.79, 0.29716498, -0.1481378, -756346.8, 97291.34, 0.0, 9.999418, 10.000649 
2.4837193e+3, 2.2288738e+2, -707210.5, -658889.2, 83550.984, 0.4438414, -0.25696272, -596075.7, 159615.42, 0.0, 9.999908, 10.000545 
2.4833871e+3, 2.328842e+2, -591693.2, -517704.5, 68667.82, -0.071435526, -0.1421502, -476699.8, 181017.02, 0.0, 9.999909, 10.000811 
2.4830562e+3, 2.4287865e+2, -759453.25, -994592.94, -179335.19, -0.28972265, -0.09160811, -662584.8, -102815.95, 0.0, 9.999992, 9.996857 
2.4827266e+3, 2.5286752e+2, -604405.94, -956654.4, -206891.83, 0.16053954, -0.30695993, -508824.5, -46941.656, 0.0, 10.000794, 9.996027 
2.4823973e+3, 2.6285803e+2, -481559.5, -671974.25, 39348.902, 0.39102077, -0.3858688, -473748.53, -109768.055, 0.0, 10.00021, 9.997597 
2.4820669e+3, 2.728529e+2, -513656.5, -559725.3, 101739.89, 0.0092050815, -0.2085397, -432376.03, -166342.06, 0.0, 9.999013, 9.998236 
2.4817365e+3, 2.8284752e+2, -588777.44, -653433.3, -40659.0, -0.27298626, -0.0014717735, -569160.7, -401070.94, 0.0, 9.998259, 9.997319 
2.481407e+3, 2.9284045e+2, -281453.8, -453299.38, -69414.75, -0.116701506, 0.06732757, -256917.88, -186755.31, 0.0, 9.999708, 9.997298 
2.4810828e+3, 3.0283302e+2, -275921.78, -440886.25, 43126.695, 0.4728885, 0.13737048, -265327.53, -265327.53, 0.0, 9.999413, 9.997246 
2.4807446e+3, 3.1282514e+2, -284868.06, 53968.695, -56510.98, -0.56662637, 0.058409885, 63145.047, 63145.047, 0.0, 9.9971695, 10.00171 
2.497012e+3, 1.2325778e+2, -1389283.3, -1536406.3, -53491.11, 0.5510739, -0.65313447, -1371891.0, 360167.1, 0.43991756, 10.003799, 10.000413 
2.4966764e+3, 1.3325873e+2, -1259719.4, -1236545.4, -52709.0, 0.15528913, -0.32900956, -1194164.9, 439878.66, 0.31901658, 10.00225, 10.002798 
2.4963494e+3, 1.4325568e+2, -1404882.5, -1457887.3, 28463.656, 0.54906875, -0.25303, -1392493.3, 143579.22, 0.19536594, 10.000881, 10.000122 
2.4960135e+3, 1.5325004e+2, -1355149.9, -1422091.9, 17465.459, 0.002556417, -0.27350378, -1350867.0, 87265.734, 0.094030365, 10.000625, 9.999678 
2.4956828e+3, 1.6324444e+2, -1244834.5, -1285296.9, 131064.09, -0.15878126, -0.26807952, -1132449.3, 207741.84, 0.032013185, 10.000487, 10.000035 
2.4953616e+3, 1.7323935e+2, -1055572.9, -1130884.0, 165700.28, 0.3756164, -0.2756129, -923303.4, 318938.34, 0.0062260167, 10.001058, 10.000117 
2.4950351e+3, 1.8323536e+2, -854766.56, -792651.4, 53932.363, 0.5023458, -0.21005127, -761473.3, 382808.9, 0.00043419475, 10.000916, 10.001848 
2.4946992e+3, 1.932336e+2, -1000024.94, -772431.4, 46032.36, -0.08499205, -0.087634355, -763473.56, 282828.7, 0.0000058323185, 9.999099, 10.002171 
2.4943668e+3, 2.0323043e+2, -1132832.4, -962394.9, 46028.18, -0.29846895, -0.0023163683, -950758.94, -2425.4084, 0.000000000090419006, 9.9983015, 10.000571 
2.4940418e+3, 2.132249e+2, -848247.7, -806529.8, 30720.967, 0.23418063, -0.064695336, -790255.56, 60127.805, 0.0, 9.999753, 10.000243 
2.4937148e+3, 2.2321874e+2, -722478.1, -837817.2, 83359.35, 0.46655905, -0.106561966, -678784.1, 73657.586, 0.0, 10.000519, 9.999008 
2.4933837e+3, 2.3321204e+2, -738362.44, -814495.1, 23319.047, 0.12404603, -0.14424483, -731787.7, -77278.01, 0.0, 9.999858, 9.998802 
2.4930522e+3, 2.432052e+2, -711069.7, -867996.75, -176153.0, -0.11270877, -0.13068983, -596695.44, -40116.81, 0.0, 9.999852, 9.997779 
2.49272e+3, 2.531977e+2, -435726.5, -717244.44, -160393.25, -0.07174644, -0.12763369, -363086.6, 95568.0, 0.0, 10.001216, 9.9974785 
2.4923897e+3, 2.6319054e+2, -255621.19, -476983.88, 17823.898, 0.030413115, -0.08562667, -254195.2, 106532.45, 0.0, 10.001342, 9.998392 
2.4920623e+3, 2.7318496e+2, -466710.4, -497710.72, 64998.297, 0.16618703, 0.012335446, -415389.66, -152603.19, 0.0, 9.999133, 9.998616 
2.4917327e+3, 2.8317904e+2, -473155.97, -359960.72, 62403.45, 0.06435638, 0.06552209, -332311.78, -167467.47, 0.0, 9.997964, 9.999485 
2.4913985e+3, 2.9317203e+2, -208310.38, -155844.75, 133192.86, -0.36181256, -0.07295443, -46325.96, 20578.885, 0.0, 9.999021, 9.999697 
2.4910733e+3, 3.0316558e+2, -218932.02, -403128.88, 257558.33, 0.08510137, -0.036833957, -37500.9, -37500.9, 0.0, 9.999748, 9.997323 
2.4907458e+3, 3.1315818e+2, -51573.71, 42391.063, 85876.03, 0.19905163, 0.053286534, 93296.555, 93296.555, 0.0, 9.999291, 10.000585 
2.507008e+3, 1.23591244e+2, -1699953.1, -1634334.1, -17481.451, 0.5678655, -0.35790327, -1629967.5, 98829.68, 0.42027465, 9.999578, 10.001229 
2.5066736e+3, 1.3359079e+2, -1386489.0, -1292884.4, -11954.959, 0.26603183, -0.15599185, -1291381.6, 339416.8, 0.30251706, 10.000948, 10.002769 
2.5063446e+3, 1.4358775e+2, -1312723.6, -1480951.9, -23572.947, 0.45755434, -0.041638255, -1309482.9, 223345.8, 0.18302314, 10.001963, 9.999402 
2.506011e+3, 1.5358137e+2, -1073750.1, -1361031.6, -44209.516, 0.10165662, -0.08870271, -1067100.6, 367796.06, 0.08629053, 10.003043, 9.998979 
2.5056806e+3, 1.6357543e+2, -913278.06, -1068606.8, 28806.982, -0.0017484663, -0.1108281, -908107.7, 428848.47, 0.028287582, 10.002596, 10.000533 
2.505356e+3, 1.735704e+2, -1168321.9, -1111350.1, 91085.805, 0.30486128, -0.19294396, -1044399.8, 194600.27, 0.0050760456, 10.000001, 10.000745 
2.505028e+3, 1.8356606e+2, -1261206.0, -1059852.3, -12148.7705, 0.36800316, -0.17128953, -1059121.9, 81918.87, 0.00028139996, 9.998471, 10.001187 
2.504693e+3, 1.935633e+2, -1006486.75, -849082.0, -110950.14, -0.0750653, -0.08883598, -791755.0, 251317.17, 0.0000014559199, 9.999445, 10.001456 
2.504361e+3, 2.035597e+2, -892964.2, -846184.8, -95125.49, -0.23195729, -0.022878572, -771615.7, 173491.78, 0.0, 9.999959, 10.000582 
2.5040355e+3, 2.1355459e+2, -749691.3, -724958.1, -29636.973, 0.14574751, -0.09146317, -705211.1, 141939.28, 0.0, 10.000299, 10.000548 
2.5037086e+3, 2.2354867e+2, -847165.4, -1005716.4, 55990.87, 0.35613987, -0.09088745, -829386.4, -80179.13, 0.0, 10.000159, 9.998042 
2.5033793e+3, 2.3354109e+2, -788884.6, -951812.94, 89022.086, 0.2029133, -0.12243413, -749678.4, -98388.98, 0.0, 10.000005, 9.997791 
2.5030482e+3, 2.4353397e+2, -698457.4, -802411.56, -30310.031, 0.015790356, -0.09173172, -690265.4, -136901.27, 0.0, 9.9997, 9.998313 
2.502714e+3, 2.5352818e+2, -503034.72, -622550.5, -40726.156, -0.20526189, -0.01317391, -490476.47, -35055.855, 0.0, 10.000258, 9.99857 
2.5023827e+3, 2.6352236e+2, -418069.16, -554908.9, -1055.4065, -0.20945126, 0.10114412, -418061.03, -60581.355, 0.0, 10.00025, 9.99839 
2.502057e+3, 2.735163e+2, -388910.25, -467679.94, -17023.664, 0.20162201, 0.14971544, -385388.56, -125843.78, 0.0, 9.999706, 9.998556 
2.5017276e+3, 2.8350994e+2, -220070.13, -90376.43, -17455.342, 0.23016435, 0.103858605, -88068.21, 73535.7, 0.0, 9.999094, 10.000805 
2.5013912e+3, 2.935034e+2, 3861.9377, 141173.78, -16418.348, -0.49697006, -0.17896646, 143109.63, 206759.84, 0.0, 9.999681, 10.001411 
2.5010633e+3, 3.0349702e+2, -262747.6, -467655.38, 4252.84, -0.35770994, -0.2344323, -262659.34, -262659.34, 0.0, 9.999656, 9.996924 
2.5007457e+3, 3.1349006e+2, -251438.02, -267836.78, -50207.594, 0.7388883, -0.082682185, -208764.69, -208764.69, 0.0, 9.998859, 9.998652 
2.5170022e+3, 1.2392922e+2, -1635299.3, -1594522.5, -74416.28, 0.5082893, 0.15308203, -1537752.1, 187748.58, 0.3973432, 10.000263, 10.001282 
2.5166687e+3, 1.3392463e+2, -1446269.8, -1499289.9, 23355.756, 0.19603069, 0.16465762, -1437448.9, 190096.23, 0.28406283, 10.001431, 10.00045 
2.5163412e+3, 1.4391977e+2, -1326724.3, -1567763.0, 18772.057, 0.4091195, 0.26819238, -1325271.0, 204323.89, 0.16993596, 10.002192, 9.998612 
2.5160122e+3, 1.5391316e+2, -1108890.1, -1432651.9, 16732.111, 0.43960848, 0.26213336, -1108027.8, 323637.06, 0.078587286, 10.003009, 9.998451 
2.5156817e+3, 1.6390738e+2, -819966.94, -895601.75, -28834.578, 0.34150505, 0.23402719, -810228.1, 523491.78, 0.024857625, 10.002652, 10.00172 
2.515349e+3, 1.7390276e+2, -1042229.2, -911718.44, 3681.4407, 0.09345015, 0.08052599, -911614.7, 324138.56, 0.0041356636, 10.000239, 10.002022 
2.5150177e+3, 1.8389769e+2, -1305383.9, -1256011.5, 7347.5024, -0.014113643, 0.0292507, -1254941.4, -117142.55, 0.00018434241, 9.998906, 9.999625 
2.514689e+3, 1.9389234e+2, -1103863.3, -1131799.3, -72430.77, 0.07167512, 0.067250594, -1044066.0, -4208.475, 0.00000026313862, 9.999768, 9.999369 
2.5143594e+3, 2.0388678e+2, -738945.56, -631473.06, -82099.33, 0.06508781, 0.0035680595, -587087.5, 354823.0, 0.0, 10.000405, 10.001835 
2.5140294e+3, 2.1388088e+2, -601570.75, -489418.44, -24830.861, -0.0035876017, -0.28604305, -484166.72, 359788.38, 0.0, 10.000593, 10.002039 
2.5137004e+3, 2.2387603e+2, -696788.56, -798829.5, 57213.08, 0.000840773, -0.3037589, -671151.2, 74847.43, 0.0, 10.000564, 9.999281 
2.513373e+3, 2.3387259e+2, -677046.25, -777195.9, 99464.52, 0.08749148, -0.024430692, -615762.75, 32279.04, 0.0, 10.000213, 9.998905 
2.5130436e+3, 2.4386688e+2, -617142.9, -731905.56, 10853.075, 0.09731776, 0.07832751, -616125.56, -66023.35, 0.0, 10.000089, 9.9986105 
2.512711e+3, 2.5385818e+2, -495465.0, -627875.8, -6648.0337, 0.0029903222, -0.12514515, -495132.06, -42947.47, 0.0, 10.0003, 9.998536 
2.5123793e+3, 2.6385084e+2, -480385.63, -698522.1, -389.6918, -0.06094073, -0.11244286, -480384.94, -126126.31, 0.0, 10.000277, 9.997403 
2.512049e+3, 2.7384534e+2, -435206.22, -635976.44, -47405.62, -0.031699177, 0.12677658, -424575.72, -168253.77, 0.0, 9.999984, 9.997291 
2.5117192e+3, 2.8383833e+2, -170946.38, -219469.55, -48451.344, -0.042644214, 0.14576243, -141021.64, 17368.326, 0.0, 10.000054, 9.999465 
2.5113887e+3, 2.9382944e+2, 377.32977, -55134.793, -123744.45, -0.21611878, -0.21219625, 99440.38, 159901.72, 0.0, 10.000438, 9.99972 
2.5110608e+3, 3.038228e+2, -155948.39, -379775.56, -191743.11, -0.10184677, -0.21823077, -45848.3, -45848.3, 0.0, 10.000191, 9.997279 
2.510735e+3, 3.1381857e+2, -162051.34, -213954.22, -217835.36, 0.3127026, 0.14728789, 31372.96, 31372.96, 0.0, 9.999357, 9.998808 
2.5270003e+3, 1.24260336e+2, -1429641.6, -1585196.8, -95787.43, 0.6770245, 0.17570472, -1384031.3, 338229.53, 0.37209463, 10.003128, 9.999891 
2.5266662e+3, 1.3425513e+2, -1387834.8, -1620695.6, -45601.33, 0.27786523, 0.27514765, -1379223.1, 245093.72, 0.26429734, 10.002803, 9.998608 
2.5263375e+3, 1.4424948e+2, -1325529.5, -1448786.0, -16590.56, 0.39555195, 0.3382333, -1323335.4, 203038.17, 0.15642525, 10.001645, 9.99976 
2.526008e+3, 1.5424375e+2, -1418492.8, -1447901.5, 79378.77, 0.38180172, 0.2780034, -1352468.0, 75959.016, 0.071005836, 10.000147, 9.99971 
2.5256774e+3, 1.642382e+2, -1313276.0, -1212912.3, 50645.863, 0.34516126, 0.24821478, -1191797.4, 138681.0, 0.021693112, 9.999572, 10.000967 
2.5253445e+3, 1.7423311e+2, -1061573.3, -1008022.25, -58298.887, 0.13967223, 0.13462679, -970644.1, 261878.81, 0.00335279, 10.000536, 10.001209 
2.525013e+3, 1.842278e+2, -1036394.3, -1112553.3, -20725.809, 0.06983448, 0.09170512, -1031119.4, 103451.375, 0.00011963712, 10.000699, 9.999755 
2.524685e+3, 1.9422205e+2, -1017868.0, -1074511.4, 89420.63, 0.22310801, 0.059061997, -952391.2, 84235.086, 0.00000002568285, 10.0002775, 9.999524 
2.5243554e+3, 2.0421608e+2, -869393.06, -762214.75, 104291.66, 0.21807352, -0.012882944, -698549.7, 240132.67, 0.0, 9.999804, 10.001229 
2.5240234e+3, 2.1420988e+2, -785233.44, -637721.6, -2498.9783, -0.058240987, -0.2761582, -637679.25, 203057.3, 0.0, 9.999586, 10.001503 
2.5236937e+3, 2.2420546e+2, -827647.94, -741401.8, -6045.1763, -0.14372104, -0.2727686, -740980.1, 1796.7034, 0.0, 9.999168, 10.000341 
2.5233668e+3, 2.3420374e+2, -764763.3, -660037.6, 68855.83, 0.02756009, 0.018902708, -625896.2, 18901.451, 0.0, 9.998951, 10.000309 
2.5230384e+3, 2.4419889e+2, -713399.56, -763633.2, 40816.523, 0.123180844, 0.12612392, -690591.0, -143744.48, 0.0, 9.999419, 9.998703 
2.5227073e+3, 2.541894e+2, -377318.75, -559306.6, 61600.004, 0.0958155, -0.17506838, -358428.88, 90507.29, 0.0, 10.001106, 9.998601 
2.5223753e+3, 2.641812e+2, -407164.2, -787100.75, 44424.957, 0.00413584, -0.19649757, -402038.84, -51019.906, 0.0, 10.001338, 9.996278 
2.522042e+3, 2.7417514e+2, -491734.1, -778182.0, 40136.016, -0.18225327, 0.09075388, -486216.7, -233128.45, 0.0, 10.000112, 9.996236 
2.5217125e+3, 2.8416696e+2, -329287.22, -504524.47, 97812.24, -0.21759698, 0.13723457, -285588.47, -130417.89, 0.0, 9.999905, 9.997566 
2.5213858e+3, 2.9415587e+2, -24254.928, -289842.22, 30307.91, -0.045579344, -0.24428259, -20840.197, 36428.984, 0.0, 10.001251, 9.997708 
2.521058e+3, 3.0414933e+2, -31204.518, -314425.44, -116903.664, 0.10279117, -0.11795302, 10815.056, 10815.056, 0.0, 10.001065, 9.997306 
2.5207207e+3, 3.1414413e+2, -172648.0, -185952.05, -81262.02, -0.5928843, 0.111966215, -97766.19, -97766.19, 0.0, 9.999255, 9.999017 
2.5369984e+3, 1.2458952e+2, -1421462.6, -1708838.0, -29793.65, 0.6356088, 0.12126487, -1418406.3, 300629.03, 0.34545884, 10.003856, 9.998186 
2.5366655e+3, 1.3458355e+2, -1456247.6, -1813780.3, -41887.207, 0.42729804, 0.28219748, -1451405.9, 169698.81, 0.24384478, 10.002712, 9.997321 
2.536333e+3, 1.445776e+2, -1195452.8, -1135436.3, -32073.459, 0.29307184, 0.26119345, -1121521.9, 401639.22, 0.14280652, 10.001419, 10.002348 
2.535999e+3, 1.5457322e+2, -1197691.6, -1049681.1, 40080.727, 0.005474079, 0.073168576, -1039524.4, 385663.1, 0.06363834, 10.000429, 10.002459 
2.5356692e+3, 1.6456771e+2, -1395893.5, -1510079.5, 82111.016, 0.0601437, 0.019763676, -1352977.4, -25739.39, 0.0187796, 10.000109, 9.998649 
2.535343e+3, 1.7456102e+2, -1195726.8, -1369091.5, -13384.119, 0.43209225, 0.014041407, -1194699.5, 34614.805, 0.0026956536, 10.0008545, 9.998581 
2.5350136e+3, 1.8455581e+2, -790407.6, -679578.75, -27672.664, 0.511861, -0.009921768, -673053.4, 458308.22, 0.00007576087, 10.001039, 10.002551 
2.5346813e+3, 1.9455215e+2, -768728.25, -621073.25, 85456.33, 0.317549, -0.12184368, -581970.3, 451407.88, 0.00000000011876218, 10.000539, 10.002512 
2.5343502e+3, 2.0454775e+2, -1009114.9, -1128922.6, 110266.125, 0.18271601, -0.06386624, -943531.4, -8111.1865, 0.0, 10.00011, 9.998556 
2.5340196e+3, 2.1454263e+2, -973249.2, -1074409.5, -10036.96, 0.09508669, 0.09832796, -972262.94, -134774.84, 0.0, 9.999756, 9.99842 
2.5336897e+3, 2.2453769e+2, -653317.44, -431625.4, -16817.555, 0.03720638, 0.113042526, -430356.9, 309182.03, 0.0, 9.999361, 10.002376 
2.5333607e+3, 2.3453319e+2, -607593.3, -350826.78, 58419.816, 0.059158254, -0.070040405, -338159.94, 303409.16, 0.0, 9.998979, 10.0024395 
2.5330317e+3, 2.4452871e+2, -609901.9, -606621.7, 117037.51, 0.03822049, -0.07603088, -491212.75, 52394.043, 0.0, 9.99962, 9.999694 
2.5327018e+3, 2.5452393e+2, -245882.69, -401032.13, 151484.69, -0.04379546, 0.016778918, -153265.02, 292390.53, 0.0, 10.001578, 9.99947 
2.5323713e+3, 2.645166e+2, -287589.7, -702324.6, 30652.365, -0.04693795, 0.035978697, -285336.47, 62392.703, 0.0, 10.002013, 9.996538 
2.5320396e+3, 2.7450675e+2, -437374.34, -748240.5, 35500.29, 0.061888594, -0.059593856, -433371.8, -183543.36, 0.0, 10.000415, 9.996315 
2.5317097e+3, 2.8449732e+2, -383829.22, -688387.7, 230304.4, 0.045086864, -0.067333296, -260012.3, -108088.06, 0.0, 10.000213, 9.9961405 
2.5313815e+3, 2.9448807e+2, -48750.434, -491933.5, 165248.9, -0.13464019, -0.08129702, 6081.638, 60099.266, 0.0, 10.001894, 9.996015 
2.531053e+3, 3.044803e+2, 101181.125, -257343.06, -103476.61, -0.051580302, 0.028669229, 128902.87, 128902.87, 0.0, 10.001986, 9.997269 
2.5307178e+3, 3.1447357e+2, -65749.52, -131206.6, -98470.234, -0.3011827, 0.14392087, 5288.7188, 5288.7188, 0.0, 9.9999075, 9.999136 
2.5469962e+3, 1.2491831e+2, -1262219.3, -1570986.0, -32319.645, 0.46166992, 0.0643859, -1258872.5, 456942.13, 0.31815624, 10.004993, 9.998978 
2.546663e+3, 1.3491374e+2, -1589340.6, -1801307.9, -97029.14, 0.5200776, 0.2617004, -1551632.9, 66236.28, 0.22319707, 10.001166, 9.998143 
2.546328e+3, 1.4490776e+2, -1381647.5, -1196104.8, 42669.723, 0.29544154, 0.18588501, -1186762.3, 333161.44, 0.12934339, 9.999763, 10.002643 
2.5459957e+3, 1.5490334e+2, -1068873.1, -972972.56, -12317.989, 0.11899632, -0.022027392, -971415.7, 450532.25, 0.05657354, 10.001261, 10.002639 
2.5456658e+3, 1.6489805e+2, -1233769.3, -1501085.4, 14543.524, 0.16143043, -0.033964567, -1232980.3, 91017.36, 0.016116831, 10.001544, 9.998012 
2.5453383e+3, 1.7489174e+2, -1207370.8, -1455200.5, 52895.543, 0.40812013, 0.04054664, -1196553.1, 29522.68, 0.0021455006, 10.001125, 9.997847 
2.5450087e+3, 1.8488625e+2, -860035.7, -726878.94, -1868.0981, 0.47853592, 0.03625444, -726852.7, 401274.22, 0.000046550977, 10.000636, 10.0024185 
2.5446764e+3, 1.9488189e+2, -797326.9, -631089.1, -118832.16, 0.3039611, -0.15684488, -569191.3, 460954.97, 0.0, 10.000341, 10.002534 
2.544345e+3, 2.0487753e+2, -1125408.4, -1316573.9, -112181.13, 0.19410473, -0.053316284, -1073611.8, -141422.47, 0.0, 9.999921, 9.997355 
2.5440148e+3, 2.1487305e+2, -1077398.5, -1257755.6, -60606.734, 0.15941358, 0.263843, -1058924.6, -224665.02, 0.0, 9.99966, 9.997201 
2.5436848e+3, 2.248677e+2, -568373.5, -329732.16, -33958.582, 0.12241208, 0.27690372, -324993.94, 411320.6, 0.0, 9.999741, 10.002885 
2.543355e+3, 2.3486152e+2, -383493.75, -176852.3, -85807.24, 0.060715973, -0.14498937, -145867.2, 492484.8, 0.0, 10.000297, 10.002984 
2.543026e+3, 2.4485733e+2, -536998.94, -571506.0, -87269.62, -0.015032184, -0.16091733, -465293.66, 75090.4, 0.0, 10.000157, 9.999674 
2.5426966e+3, 2.5485525e+2, -518158.22, -504698.72, -89629.85, -0.13624474, 0.14740303, -421546.3, 20863.627, 0.0, 9.999608, 9.999705 
2.542367e+3, 2.6484844e+2, -526431.5, -780393.9, -268401.78, -0.06664949, 0.17200096, -356488.88, -12011.344, 0.0, 10.000241, 9.996852 
2.542037e+3, 2.7483654e+2, -183575.05, -576960.56, -213013.17, 0.24326843, -0.20964722, -90332.195, 156258.55, 0.0, 10.001979, 9.996729 
2.5417072e+3, 2.848274e+2, -223292.36, -716554.94, 93075.984, 0.21541429, -0.1775797, -206313.84, -57629.97, 0.0, 10.001784, 9.995195 
2.5413764e+3, 2.9482085e+2, -340313.78, -731022.56, 151199.81, -0.26754552, 0.13912518, -288636.34, -237876.73, 0.0, 10.000348, 9.995109 
2.541047e+3, 3.0481085e+2, -153537.45, -416754.44, -133011.56, -0.24535826, 0.09143288, -98028.68, -98028.68, 0.0, 10.000415, 9.99693 
2.5407162e+3, 3.148023e+2, 248274.86, 155272.44, -129426.54, 0.032163426, 0.030137451, 339300.34, 339300.34, 0.0, 10.001491, 10.000345 
2.5569966e+3, 1.2524815e+2, -1374072.1, -1526474.3, -137247.5, 0.5216189, 0.12355108, -1293290.8, 419293.3, 0.2908175, 10.003119, 10.00025 
2.5566587e+3, 1.3524461e+2, -1442685.1, -1505070.5, -156983.4, 0.5346026, 0.2352934, -1313825.4, 300798.2, 0.2027681, 10.001333, 10.000299 
2.556323e+3, 1.4523882e+2, -1361723.5, -1294424.6, 103144.57, 0.30963063, 0.12743825, -1219579.5, 297096.06, 0.11625642, 10.000456, 10.001491 
2.5559965e+3, 1.5523358e+2, -1138867.8, -1141021.3, 59986.332, 0.5663791, -0.033188388, -1079948.5, 338763.9, 0.04988728, 10.001356, 10.001344 
2.5556654e+3, 1.6522898e+2, -1127028.0, -1320508.1, 17996.982, 0.461848, 0.036700938, -1125368.1, 195389.28, 0.013707004, 10.001711, 9.999184 
2.5553307e+3, 1.7522465e+2, -1073983.6, -1256287.0, 58435.46, 0.04418725, 0.20705967, -1056861.0, 165951.95, 0.0016894786, 10.001437, 9.999078 
2.5549993e+3, 1.852183e+2, -1007618.7, -1130720.5, -5556.3633, -0.021774616, 0.2066333, -1007368.4, 117507.22, 0.000027889511, 10.001047, 9.999441 
2.5546706e+3, 1.9521056e+2, -967002.7, -1062877.3, -124249.96, 0.20973666, -0.00453444, -881763.25, 145177.03, 0.0, 10.000675, 9.999412 
2.55434e+3, 2.0520444e+2, -933433.4, -1009624.2, -125255.266, 0.2336924, -0.013453749, -840608.44, 88392.82, 0.0, 10.000289, 9.999291 
2.5540084e+3, 2.1519966e+2, -904248.94, -964940.5, -55347.734, 0.09006957, 0.09699046, -871473.94, -40412.3, 0.0, 9.999906, 9.999107 
2.5536788e+3, 2.2519429e+2, -641008.75, -577886.44, 10306.001, 0.037662897, 0.10403095, -576246.4, 156865.63, 0.0, 10.000138, 10.000993 
2.5533506e+3, 2.351885e+2, -439716.97, -440666.44, -72691.24, 0.067169845, -0.06225745, -367498.9, 267652.13, 0.0, 10.000916, 10.000877 
2.5530216e+3, 2.4518283e+2, -527051.25, -671799.75, -175638.58, 0.0345973, -0.07117831, -409459.84, 127741.836, 0.0, 10.000646, 9.998758 
2.5526914e+3, 2.5517753e+2, -648742.06, -685737.5, -215601.14, -0.05789864, 0.02063149, -450846.56, -11585.421, 0.0, 9.999188, 9.998677 
2.5523624e+3, 2.65171e+2, -452157.75, -581813.06, -251928.6, 0.0082810065, 0.045630623, -256849.6, 84477.266, 0.0, 10.000017, 9.998333 
2.5520346e+3, 2.7516288e+2, 65033.82, -304876.53, -199763.81, 0.26114738, -0.09042226, 152317.5, 395720.06, 0.0, 10.003002, 9.998119 
2.5517038e+3, 2.85156e+2, 111555.83, -284871.7, -68545.22, 0.13057257, -0.030888638, 123073.19, 268543.2, 0.0, 10.002872, 9.997649 
2.5513694e+3, 2.951503e+2, -273438.53, -449575.1, 27703.482, -0.42718908, 0.1514351, -269183.97, -221654.19, 0.0, 9.999681, 9.997384 
2.551042e+3, 3.051415e+2, -140647.7, -340793.66, 2987.6062, -0.20698458, 0.07555247, -140603.11, -140603.11, 0.0, 10.0001545, 9.997593 
2.550713e+3, 3.1513304e+2, 454332.53, 126550.1, -28867.1, -0.009975655, -0.0016861581, 456855.38, 456855.38, 0.0, 10.0034, 9.999235 
2.566988e+3, 1.2557912e+2, -2313675.3, -1909758.4, -28549.584, 0.34350306, -0.024748761, -1907750.5, -198412.73, 0.26403108, 9.995475, 10.000804 
2.5666547e+3, 1.3557774e+2, -1376893.9, -1411168.8, -31485.545, 0.54107845, 0.23398295, -1358184.0, 253169.81, 0.18292536, 10.001527, 10.000968 
2.56632e+3, 1.4557177e+2, -1151568.1, -1326607.1, 104080.38, 0.37222448, 0.1534966, -1103100.9, 410307.47, 0.1037245, 10.002701, 10.000124 
2.5659916e+3, 1.5556441e+2, -1388325.6, -1422721.8, 49616.87, 0.54293436, -0.0908305, -1353010.8, 62460.125, 0.043632858, 10.000284, 9.999822 
2.5656605e+3, 1.655595e+2, -1372530.9, -1411962.8, 51881.473, 0.4508289, 0.015533018, -1336745.4, -19224.867, 0.011545959, 9.999927, 9.999388 
2.5653264e+3, 1.755563e+2, -1079492.9, -1242794.4, 20078.525, 0.02315838, 0.2631926, -1077060.4, 142501.98, 0.0013158798, 10.001375, 9.999175 
2.5649944e+3, 1.8554975e+2, -1024189.44, -1274417.4, -26736.018, -0.08337937, 0.29298827, -1021364.7, 100264.41, 0.000016496271, 10.001558, 9.998196 
2.564665e+3, 1.9554055e+2, -1067441.5, -1265246.4, -155.80724, 0.12601604, 0.05919728, -1067441.4, -43726.477, 0.0, 10.0006695, 9.998023 
2.5643346e+3, 2.0553368e+2, -838933.5, -948042.1, 17755.033, 0.17417374, 0.059355907, -836117.0, 89667.53, 0.0, 10.000903, 9.999416 
2.5640035e+3, 2.1552868e+2, -604412.3, -792994.2, -50298.05, 0.039072327, 0.12345006, -591835.7, 236005.48, 0.0, 10.001881, 9.999333 
2.5636736e+3, 2.2552292e+2, -547200.75, -672170.44, -18255.352, -0.0021826902, 0.1393874, -544588.7, 185304.11, 0.0, 10.001408, 9.999727 
2.563345e+3, 2.3551658e+2, -694187.44, -717203.94, -9691.722, 0.014583538, 0.03272619, -690650.1, -58710.203, 0.0, 9.999844, 9.999489 
2.5630164e+3, 2.4550943e+2, -711399.56, -834806.9, -63136.26, 0.017608026, -0.0070472523, -684822.25, -150815.2, 0.0, 9.999746, 9.998055 
2.562686e+3, 2.555016e+2, -505982.44, -693780.2, -62694.65, -0.027606895, -0.09637174, -486975.97, -50884.727, 0.0, 10.000527, 9.997967 
2.5623578e+3, 2.654955e+2, -368659.56, -435614.94, -23902.348, 0.046454813, -0.022798587, -361002.38, -22849.535, 0.0, 10.000168, 9.999248 
2.562031e+3, 2.754907e+2, -376442.0, -402662.5, -8514.047, 0.2111254, 0.06645728, -373919.97, -133722.39, 0.0, 9.999505, 9.999121 
2.561699e+3, 2.8548476e+2, -245950.55, -242797.22, -79218.88, -0.013138434, 0.08787854, -165139.31, -22886.623, 0.0, 9.999527, 9.9995365 
2.561362e+3, 2.954785e+2, -131736.45, -174752.72, -32657.277, -0.6044261, 0.008677167, -114140.914, -69829.586, 0.0, 9.999801, 9.999196 
2.561038e+3, 3.0547285e+2, -47035.31, -256332.55, 80956.38, -0.10825055, 0.14704019, -19376.45, -19376.45, 0.0, 10.000686, 9.997887 
2.560713e+3, 3.1546733e+2, -54491.395, -496797.7, 33888.152, 0.18860401, 0.3115282, -51910.05, -51910.05, 0.0, 10.001631, 9.995769 
2.5769737e+3, 1.2591174e+2, -2101597.3, -1822077.6, 165644.81, -0.13535054, -0.1012387, -1745109.5, -39036.32, 0.23823525, 9.99694, 10.0007 
2.576651e+3, 1.3591167e+2, -1366069.6, -1382409.8, 111949.84, 0.5369697, 0.24706067, -1261992.1, 346083.22, 0.16394834, 10.001444, 10.001185 
2.5763175e+3, 1.4590539e+2, -1280448.1, -1534863.9, 10514.428, 0.3792972, 0.20270865, -1280014.4, 230120.31, 0.09188186, 10.002363, 9.998716 
2.5759828e+3, 1.5589511e+2, -1429954.3, -1589934.9, -18347.701, 0.15784468, -0.18368998, -1427877.0, -15646.353, 0.03784501, 10.000592, 9.998537 
2.575653e+3, 1.6588925e+2, -1336250.0, -1431898.4, 111868.67, 0.19899707, -0.089656174, -1262411.8, 51879.26, 0.009625426, 10.000355, 9.999035 
2.575326e+3, 1.7588645e+2, -1059137.9, -1266893.1, 81670.17, 0.3336335, 0.24849325, -1030877.06, 185450.16, 0.0010124295, 10.001655, 9.99887 
2.574994e+3, 1.8588042e+2, -914958.0, -1110079.5, -50725.883, 0.22394355, 0.295004, -902558.7, 215829.34, 0.000009793076, 10.001824, 9.999192 
2.5746593e+3, 1.9587205e+2, -979747.7, -1142136.1, 516.973, 0.015694832, 0.072055176, -979746.06, 40720.477, 0.0, 10.000899, 9.998765 
2.5743288e+3, 2.0586568e+2, -921867.7, -1214395.1, 85687.54, -0.00760631, 0.19292647, -898616.1, 23918.158, 0.0, 10.001259, 9.997432 
2.5740007e+3, 2.1586087e+2, -639258.56, -1015537.3, -0.7067379, 0.073975764, 0.492688, -639258.56, 185334.27, 0.0, 10.0024805, 9.997536 
2.57367e+3, 2.2585404e+2, -427082.03, -539121.1, -78979.75, -0.0023502032, 0.44605744, -386271.88, 340382.66, 0.0, 10.001881, 10.000402 
2.5733382e+3, 2.3584582e+2, -645269.0, -640092.56, -48030.094, -0.16020717, 0.10661069, -594581.0, 34136.945, 0.0, 9.999907, 9.99999 
2.573009e+3, 2.4583836e+2, -641878.0, -734126.0, 34093.46, -0.14104673, -0.015892383, -630645.3, -99859.83, 0.0, 9.999909, 9.998672 
2.572682e+3, 2.5583145e+2, -346665.25, -559490.6, 42654.984, -0.020139622, -0.050797034, -338434.53, 94421.93, 0.0, 10.001333, 9.998518 
2.5723523e+3, 2.6582572e+2, -294289.0, -368143.34, -30102.863, -0.0041128243, 0.022371152, -283573.75, 51339.83, 0.0, 10.000524, 9.99954 
2.5720212e+3, 2.7582088e+2, -569707.06, -474547.38, -16727.838, -0.02839502, 0.11308292, -471692.5, -234732.4, 0.0, 9.998068, 9.999328 
2.5716904e+3, 2.858144e+2, -412725.63, -302113.28, 39826.582, -0.14172384, 0.064438514, -289265.72, -150245.45, 0.0, 9.998258, 9.999742 
2.5713593e+3, 2.9580712e+2, -40423.816, -123879.13, 46787.535, -0.36110312, -0.11676483, -19459.604, 21626.994, 0.0, 10.000356, 9.99929 
2.571034e+3, 3.0580157e+2, 39335.473, -118441.35, 98139.15, -0.059453588, -0.01917521, 86362.41, 86362.41, 0.0, 10.000832, 9.998775 
2.5707045e+3, 3.157949e+2, -28739.826, -140942.72, -114508.734, -0.18682112, -0.036089, 42671.95, 42671.95, 0.0, 10.000271, 9.99889 
2.5869703e+3, 1.2624268e+2, -1600716.1, -1604799.5, 4431.945, 0.1331742, -0.0038340876, -1597878.3, 104953.234, 0.21372975, 10.000585, 10.000615 
2.5866464e+3, 1.362411e+2, -1634319.0, -1586517.0, -67765.03, 0.5600325, 0.2191079, -1538561.5, 66287.24, 0.14603175, 9.999656, 10.000413 
2.5863135e+3, 1.4623511e+2, -1580949.1, -1735961.0, -197447.5, 0.36999023, 0.24232885, -1446340.3, 60567.31, 0.080827504, 10.000386, 9.998295 
2.5859782e+3, 1.5622607e+2, -1224950.1, -1536652.1, -186521.86, 0.102452606, -0.0009209758, -1137737.5, 271257.88, 0.032553293, 10.0022955, 9.998075 
2.585648e+3, 1.6621965e+2, -1151538.9, -1339704.1, -44368.15, 0.14846157, 0.04041521, -1141601.9, 169457.67, 0.007938516, 10.001642, 9.999034 
2.5853214e+3, 1.762152e+2, -1424204.5, -1462764.5, -46052.813, 0.36695218, 0.19503482, -1393558.8, -180452.05, 0.00076767127, 9.999247, 9.998688 
2.58499e+3, 1.8620925e+2, -1195970.6, -1256077.4, -154034.4, 0.2738068, 0.2584132, -1069085.1, 46080.777, 0.000005913737, 9.999952, 9.999088 
2.584655e+3, 1.9620211e+2, -796142.3, -1065490.4, -171229.61, -0.028370641, 0.1347092, -712970.8, 304263.9, 0.0, 10.00225, 9.998626 
2.584325e+3, 2.061957e+2, -760967.06, -1182003.4, -27450.66, -0.049881853, 0.26373762, -759184.9, 160117.17, 0.0, 10.002595, 9.996995 
2.5839978e+3, 2.1618985e+2, -769091.1, -1125460.9, 22242.373, 0.08874584, 0.48403722, -767708.3, 53659.24, 0.0, 10.001807, 9.997098 
2.5836664e+3, 2.2618291e+2, -545319.3, -599905.0, -86616.195, 0.008071811, 0.4530805, -481797.7, 241633.2, 0.0, 10.00114, 10.000337 
2.5833324e+3, 2.3617499e+2, -590972.6, -620037.1, -95235.02, -0.21919237, 0.1420842, -509167.47, 116327.23, 0.0, 10.000359, 9.9999075 
2.5830036e+3, 2.4616772e+2, -592580.25, -676041.4, 34887.008, -0.17225266, 0.028520163, -579918.3, -52358.258, 0.0, 10.000128, 9.998949 
2.582678e+3, 2.5616106e+2, -498388.56, -604472.5, 19086.707, 0.023504555, -0.026548313, -495058.97, -65433.883, 0.0, 10.000202, 9.99874 
2.5823468e+3, 2.661555e+2, -335915.8, -369542.56, -144778.53, -0.033221655, 0.04295228, -206977.66, 124701.5, 0.0, 10.000185, 9.999688 
2.582012e+3, 2.7615064e+2, -310768.56, -341310.7, -100442.414, -0.25333187, 0.097240314, -224442.94, 9283.505, 0.0, 9.999835, 9.999382 
2.581683e+3, 2.8614435e+2, -234624.4, -193707.98, 75477.23, -0.22012557, 0.053249434, -135965.48, -181.58188, 0.0, 9.999407, 9.9999275 
2.581357e+3, 2.96137e+2, -219853.47, -194116.11, 105282.91, -0.070099354, -0.16560169, -100918.33, -63068.793, 0.0, 9.999077, 9.99942 
2.5810286e+3, 3.0612993e+2, -192785.06, -129799.77, 77402.87, -0.1164132, -0.2701294, -77728.125, -77728.125, 0.0, 9.998836, 9.999643 
2.5806952e+3, 3.1613052e+2, -49705.94, 135735.95, -74329.586, -0.60421175, 0.33375517, 161851.28, 161851.28, 0.0, 9.998921, 10.001434 
2.596973e+3, 1.265728e+2, -1617398.4, -1688926.4, -54456.273, 0.7855407, 0.174108, -1588012.3, 111588.766, 0.19076674, 10.000844, 9.999778 
2.5966406e+3, 1.3656767e+2, -1669556.4, -1706086.3, -80384.07, 0.55644923, 0.17817912, -1605388.3, -3734.0347, 0.12932399, 9.999841, 9.999472 
2.596308e+3, 1.4656234e+2, -1539262.0, -1663651.5, -107762.02, 0.33078852, 0.28674266, -1477034.8, 26675.096, 0.07062259, 10.00044, 9.998757 
2.595977e+3, 1.5655708e+2, -1199925.6, -1472715.1, -101930.88, 0.26075557, 0.39829987, -1166045.9, 239718.75, 0.027766839, 10.00223, 9.99854 
2.595645e+3, 1.6655001e+2, -1098757.5, -1257682.6, -114521.766, 0.17832883, 0.32372537, -1038830.2, 269001.8, 0.0064744665, 10.0017395, 9.999557 
2.595313e+3, 1.7654213e+2, -1340507.5, -1387915.5, -85602.04, 0.10822258, 0.10410402, -1275388.1, -65483.598, 0.0005723583, 9.999637, 9.999027 
2.5949827e+3, 1.865358e+2, -1201180.3, -1350855.9, -47462.176, 0.06455566, 0.16276342, -1187398.9, -75431.64, 0.0000035552432, 10.000293, 9.998284 
2.5946528e+3, 1.9653018e+2, -758056.2, -1100498.0, -81332.555, 0.019061994, 0.28616345, -739720.8, 274304.97, 0.0, 10.002704, 9.998182 
2.5943232e+3, 2.0652238e+2, -547263.25, -842232.56, -53486.59, 0.016065823, 0.17531365, -537864.06, 378235.63, 0.0, 10.003027, 9.999126 
2.593994e+3, 2.1651354e+2, -605704.3, -862128.75, 3632.6055, 0.05332898, -0.083949655, -605652.9, 212528.11, 0.0, 10.002091, 9.998794 
2.5936627e+3, 2.2650802e+2, -559350.7, -691809.9, -89314.28, 0.05359364, -0.004561405, -514389.44, 205842.88, 0.0, 10.001398, 9.999577 
2.59333e+3, 2.3650406e+2, -560881.7, -688413.1, -92074.38, 0.017515894, 0.1732758, -512648.47, 109620.12, 0.0, 10.000891, 9.999186 
2.593001e+3, 2.464971e+2, -531071.3, -648172.1, 31056.084, 0.062251106, 0.12107208, -523344.8, 990.91156, 0.0, 10.000521, 9.998959 
2.5926742e+3, 2.564887e+2, -498180.2, -596655.1, 4931.8965, 0.16984479, -0.093352295, -497933.8, -71515.94, 0.0, 10.000137, 9.998831 
2.5923428e+3, 2.664832e+2, -272933.9, -292113.47, -126667.43, 0.04549058, -0.05266324, -155493.77, 172975.6, 0.0, 10.000407, 10.000103 
2.5920084e+3, 2.7647924e+2, -98978.53, -182923.78, -98153.766, -0.18598028, 0.068038575, -34199.75, 196304.22, 0.0, 10.001022, 9.999897 
2.5916788e+3, 2.8647384e+2, -69523.16, -18662.639, 10933.623, -0.14024955, 0.03685534, -16411.818, 116138.94, 0.0, 10.000145, 10.00077 
2.591351e+3, 2.964674e+2, -268416.44, -130149.2, 42929.984, 0.025760433, -0.15216388, -117904.445, -83298.35, 0.0, 9.998373, 10.000198 
2.591024e+3, 3.0645913e+2, -336414.16, -251125.86, 48799.14, 0.15966609, -0.39111313, -228963.53, -228963.53, 0.0, 9.998063, 9.99918 
2.590693e+3, 3.1645992e+2, -16557.148, 265440.75, 345310.16, -0.14252678, 0.2880974, 497429.47, 497429.47, 0.0, 9.99863, 10.00247 
2.6069674e+3, 1.2690128e+2, -1514425.3, -1743360.6, -150613.38, 0.63208055, 0.29472148, -1439717.9, 256670.02, 0.16949083, 10.002193, 9.998781 
2.606635e+3, 1.3689455e+2, -1589323.3, -1705398.1, -155230.11, 0.5045821, 0.17309456, -1481635.9, 116821.0, 0.11391108, 10.000674, 9.999081 
2.606303e+3, 1.4688942e+2, -1535220.8, -1538156.4, -72885.336, 0.3561786, 0.25097466, -1463788.4, 36719.273, 0.061296463, 9.999929, 9.999858 
2.6059726e+3, 1.5688519e+2, -1511346.4, -1551678.3, -34594.383, 0.27898073, 0.35314226, -1491469.4, -88920.15, 0.023481611, 9.999713, 9.999215 
2.6056406e+3, 1.6687855e+2, -1249920.6, -1367188.1, -72200.7, 0.17794721, 0.32018906, -1215544.4, 89067.97, 0.005220199, 10.000838, 9.999254 
2.6053083e+3, 1.7687052e+2, -980408.6, -1263436.6, -97095.44, 0.06845183, 0.111028604, -950301.75, 256385.84, 0.00041937284, 10.00232, 9.998602 
2.6049784e+3, 1.8686378e+2, -1032285.3, -1308115.8, -20184.297, 0.055785965, 0.16501416, -1030816.1, 77938.39, 0.0000020172258, 10.001626, 9.997932 
2.6046497e+3, 1.9685784e+2, -1200241.5, -1343223.8, -16729.38, 0.087726444, 0.2848028, -1198310.3, -187494.13, 0.0, 9.999809, 9.997909 
2.6043203e+3, 2.0684996e+2, -915889.6, -922619.4, -45179.49, 0.07488898, 0.13759, -873949.9, 38938.82, 0.0, 10.000144, 9.999929 
2.6039904e+3, 2.1684092e+2, -735382.25, -859626.25, -87105.87, 0.05024927, -0.24032307, -690515.6, 124452.79, 0.0, 10.000992, 9.999311 
2.603659e+3, 2.2683585e+2, -712973.94, -842559.2, -208563.06, 0.102664456, -0.10505353, -559371.0, 157646.52, 0.0, 10.000684, 9.998889 
2.603327e+3, 2.3683289e+2, -805032.4, -877065.3, -174339.0, 0.19083247, 0.2204208, -663028.44, -43978.375, 0.0, 9.99954, 9.998536 
2.6029977e+3, 2.4682607e+2, -696209.1, -719205.5, -21501.299, 0.22970088, 0.20470385, -683324.7, -162207.78, 0.0, 9.999404, 9.998996 
2.6026696e+3, 2.568172e+2, -588040.44, -637094.06, -28686.309, 0.23604529, -0.07080608, -574825.1, -151623.11, 0.0, 9.999541, 9.998839 
2.6023382e+3, 2.6681143e+2, -270658.44, -291574.63, -139663.28, 0.07901651, -0.059556328, -141062.25, 184191.92, 0.0, 10.00046, 10.000081 
2.6020047e+3, 2.768073e+2, -50157.824, -166143.17, -144437.58, -0.14342967, 0.02974853, 47494.5, 274782.97, 0.0, 10.001418, 9.999824 
2.6016742e+3, 2.8680226e+2, -72326.586, 5923.9624, -175488.86, -0.08240975, 0.022245457, 146596.16, 275926.66, 0.0, 10.000011, 10.00101 
2.6013443e+3, 2.9679677e+2, -427013.9, -216222.39, -154187.97, 0.041696217, -0.11618525, -134850.39, -103473.766, 0.0, 9.997327, 10.000119 
2.6010188e+3, 3.0678746e+2, -343799.84, -378527.2, -75098.2, 0.33820805, -0.4058585, -284084.1, -284084.1, 0.0, 9.998552, 9.998067 
2.6006857e+3, 3.1678492e+2, 52245.344, -21748.633, 254387.7, -0.3301473, 0.024392394, 272312.3, 272312.3, 0.0, 10.000533, 9.999556 
2.616959e+3, 1.2722868e+2, -1505745.5, -1681376.8, -158076.56, 0.049260605, 0.3436651, -1412730.4, 280455.28, 0.14988111, 10.001917, 9.999366 
2.61663e+3, 1.3722156e+2, -1563702.1, -1672932.6, -148774.16, 0.42771286, 0.21172778, -1459835.3, 135422.3, 0.09979579, 10.000737, 9.999288 
2.6162982e+3, 1.472159e+2, -1389909.6, -1284565.3, -47153.133, 0.35871556, 0.13091205, -1266542.4, 230765.03, 0.05285716, 10.000142, 10.001565 
2.6159662e+3, 1.5721087e+2, -1373240.3, -1365990.5, -8909.88, 0.15004787, 0.006081202, -1359996.4, 39351.94, 0.019694533, 10.000127, 10.000304 
2.615636e+3, 1.6720565e+2, -1257905.0, -1456021.3, -3248.2446, 0.13041991, 0.11691491, -1257851.8, 43549.008, 0.004163879, 10.0011425, 9.998489 
2.615307e+3, 1.7720006e+2, -979216.75, -1326272.3, -44091.043, 0.1897208, 0.23641355, -973702.9, 229757.02, 0.00030229846, 10.0026, 9.998023 
2.6149762e+3, 1.8719271e+2, -961163.3, -1233108.5, -75257.17, 0.18771297, 0.23136057, -941726.2, 163805.77, 0.0000010444409, 10.001908, 9.998317 
2.614645e+3, 1.9718476e+2, -1136127.3, -1295664.1, -41037.895, 0.15925899, 0.13119219, -1126190.0, -118581.73, 0.0, 10.000119, 9.9981 
2.6143155e+3, 2.0717882e+2, -939698.06, -1006429.44, 7912.2705, 0.11106477, 0.2058063, -938772.75, -29105.41, 0.0, 10.000265, 9.999299 
2.6139864e+3, 2.1717355e+2, -726749.75, -911720.8, -69556.875, 0.06666213, 0.279119, -703512.6, 108207.61, 0.0, 10.001271, 9.998814 
2.6136547e+3, 2.271671e+2, -684138.2, -831998.4, -254933.2, 0.1436446, 0.29560536, -492631.66, 221153.53, 0.0, 10.000858, 9.998892 
2.613322e+3, 2.3716044e+2, -776842.3, -856913.6, -199418.97, 0.27972215, 0.26773128, -613479.9, 2372.2458, 0.0, 9.999651, 9.998639 
2.6129922e+3, 2.4715415e+2, -654792.75, -648559.1, -5063.6353, 0.26770443, 0.27031922, -645729.94, -127820.4, 0.0, 9.9994545, 9.999459 
2.6126635e+3, 2.5714776e+2, -527960.9, -584630.6, -6906.9297, 0.18073587, 0.21893851, -527131.2, -107165.94, 0.0, 9.999824, 9.999073 
2.612333e+3, 2.671406e+2, -239017.73, -323468.13, -89423.01, 0.044766136, 0.106454365, -182351.86, 139679.11, 0.0, 10.000859, 9.999674 
2.6120016e+3, 2.7713344e+2, -2496.2493, -201843.36, -144794.98, -0.080916986, -0.05003911, 73615.305, 297712.8, 0.0, 10.001961, 9.999329 
2.611669e+3, 2.8712845e+2, -125437.27, -136673.36, -314616.1, -0.06587328, 0.022175077, 183610.94, 309753.56, 0.0, 10.000142, 9.999965 
2.611335e+3, 2.971243e+2, -533688.44, -393826.34, -261315.34, -0.05509701, 0.1374784, -193246.64, -165067.25, 0.0, 9.997127, 9.999 
2.6110092e+3, 3.071147e+2, -324567.4, -441819.16, 29747.623, 0.020550184, -0.0999515, -317452.03, -317452.03, 0.0, 9.998964, 9.997438 
2.610684e+3, 3.1710944e+2, 500417.6, 420993.75, -47550.027, -0.17436542, 0.11797619, 522657.6, 522657.6, 0.0, 10.002604, 10.001596 
2.626955e+3, 1.2755674e+2, -1678510.3, -1672157.8, -84930.61, 0.0791943, 0.20001277, -1590344.0, 99626.36, 0.13183834, 10.00016, 10.00021 
2.6266247e+3, 1.3755327e+2, -1605987.9, -1657193.5, -26665.736, 0.41450262, 0.35704195, -1594623.6, -2617.402, 0.08692956, 10.000277, 9.99957 
2.6262936e+3, 1.4754666e+2, -1350508.6, -1399345.5, 35800.06, 0.36767805, 0.259384, -1331592.3, 162474.83, 0.045284744, 10.001009, 10.000331 
2.6259622e+3, 1.5753901e+2, -1210639.9, -1398978.3, -75203.57, 0.20562571, -0.016760293, -1184295.9, 211839.69, 0.01638905, 10.001775, 9.999286 
2.6256326e+3, 1.6753365e+2, -1228850.1, -1472277.8, -86788.19, 0.18623903, 0.12966248, -1201076.6, 97114.46, 0.0032885466, 10.001501, 9.9982 
2.6253036e+3, 1.7752895e+2, -1267485.1, -1482024.0, -100691.2, 0.23351976, 0.35271052, -1227630.6, -27387.234, 0.00021471751, 10.000709, 9.997871 
2.6249728e+3, 1.875214e+2, -931163.75, -1140088.3, -112791.1, 0.20699626, 0.284372, -881891.8, 220423.34, 0.00000047553752, 10.001817, 9.998987 
2.624641e+3, 1.9751282e+2, -696694.7, -1051542.9, -66199.91, 0.1524577, 0.051525243, -684746.9, 319647.0, 0.0, 10.003045, 9.998359 
2.6243106e+3, 2.0750782e+2, -846564.75, -1007509.3, -4266.649, 0.09351741, 0.23544282, -846451.7, 59993.906, 0.0, 10.001089, 9.998908 
2.6239806e+3, 2.1750417e+2, -1251694.0, -1220166.6, -40192.12, 0.037682243, 0.5070015, -1192757.4, -384270.22, 0.0, 9.997923, 9.998316 
2.6236495e+3, 2.2749707e+2, -912117.8, -953203.94, -178605.25, 0.14298333, 0.4900485, -752878.1, -42318.68, 0.0, 9.999393, 9.998737 
2.6233172e+3, 2.3748858e+2, -494449.25, -746563.2, -141489.23, 0.30593076, 0.28872392, -431008.03, 181635.33, 0.0, 10.001744, 9.998378 
2.622987e+3, 2.4748239e+2, -383115.44, -512358.28, 2411.0735, 0.2546455, 0.30972937, -383070.47, 131625.97, 0.0, 10.001312, 9.99949 
2.622657e+3, 2.5747696e+2, -601026.5, -653322.4, -12904.415, 0.10683738, 0.3426256, -598015.56, -181276.69, 0.0, 9.999474, 9.998773 
2.6223278e+3, 2.6746887e+2, -631349.7, -579162.56, -87151.914, 0.056336563, 0.18753277, -514281.78, -195466.2, 0.0, 9.998462, 9.999072 
2.6219982e+3, 2.7745998e+2, -683009.0, -618494.44, -161316.28, 0.04774105, -0.09345498, -486241.88, -265338.9, 0.0, 9.997688, 9.998524 
2.6216632e+3, 2.874551e+2, -240029.4, -275201.03, -348842.47, -0.069069594, 0.06853839, 91670.25, 214620.03, 0.0, 9.999734, 9.999206 
2.6213264e+3, 2.974514e+2, 84232.72, -211017.2, -206344.83, -0.23674046, 0.29753965, 190322.8, 215307.42, 0.0, 10.001869, 9.997976 
2.621002e+3, 3.074424e+2, -133553.77, -362514.13, 190468.1, -0.16803673, 0.18466462, -25809.275, -25809.275, 0.0, 10.000361, 9.997306 
2.620683e+3, 3.1743068e+2, -256894.4, -91668.37, 252548.5, 0.05322951, -0.24561511, 91435.86, 91435.86, 0.0, 9.998032, 10.000301 
2.6369524e+3, 1.2788565e+2, -1563904.3, -1496428.4, -84634.87, 0.3182081, 0.019891536, -1439054.9, 247688.7, 0.11528629, 10.000418, 10.00141 
2.6366195e+3, 1.3788725e+2, -1523027.5, -1602499.0, -11146.236, 0.358302, 0.58083415, -1521493.8, 67235.5, 0.07524959, 10.000781, 9.999716 
2.636289e+3, 1.478795e+2, -1494710.8, -1772839.4, 70680.62, 0.35010934, 0.53812194, -1477779.4, 13028.592, 0.038529173, 10.001291, 9.9976015 
2.6359606e+3, 1.5786858e+2, -1316721.6, -1658590.4, -35587.48, 0.35649523, 0.19995244, -1313056.4, 79861.62, 0.013527696, 10.0019245, 9.997426 
2.6356298e+3, 1.6786201e+2, -1174934.3, -1423127.5, -90681.37, 0.2761219, 0.2837733, -1145332.9, 149653.3, 0.0025719018, 10.001745, 9.998437 
2.6352987e+3, 1.7785698e+2, -1161847.1, -1368863.5, -77062.78, 0.16305545, 0.45617542, -1136310.3, 60729.004, 0.00015054179, 10.001126, 9.998458 
2.6349682e+3, 1.8784972e+2, -818700.3, -970211.2, -34637.582, 0.08530763, 0.33099267, -811157.25, 287948.34, 0.0000001940375, 10.002094, 10.000017 
2.634638e+3, 1.9784176e+2, -556634.0, -881906.5, -38837.83, 0.019983513, 0.07033546, -552061.0, 449114.94, 0.0, 10.003541, 9.999289 
2.6343054e+3, 2.0783623e+2, -799169.44, -951854.5, -123027.1, -0.012567203, 0.14682229, -730722.94, 172506.92, 0.0, 10.001265, 9.999201 
2.6339725e+3, 2.178316e+2, -1237233.5, -1190840.4, -78340.5, -0.03175145, 0.30000612, -1132334.4, -327056.72, 0.0, 9.997892, 9.998534 
2.6336426e+3, 2.2782502e+2, -902591.25, -990897.7, -21207.115, 0.06631044, 0.35194817, -897762.3, -190418.83, 0.0, 9.999602, 9.998394 
2.6333138e+3, 2.3781769e+2, -342730.8, -698794.5, -44526.727, 0.2098754, 0.31303233, -337247.06, 272168.34, 0.0, 10.002852, 9.998178 
2.632983e+3, 2.4780996e+2, -309081.0, -523641.22, -64878.605, 0.1875801, 0.2153089, -290988.63, 220492.84, 0.0, 10.002002, 9.999082 
2.6326516e+3, 2.578023e+2, -607369.44, -699184.4, -82421.62, 0.117080644, 0.07608864, -558932.75, -145388.66, 0.0, 9.999591, 9.998395 
2.6323217e+3, 2.67795e+2, -798229.8, -755598.0, -141477.23, 0.21833955, 0.06503214, -633839.9, -318220.63, 0.0, 9.997701, 9.998242 
2.6319924e+3, 2.7778792e+2, -915902.8, -760263.7, -158163.98, 0.36594746, 0.058190912, -661811.5, -444115.1, 0.0, 9.996187, 9.998281 
2.6316598e+3, 2.8778246e+2, -169669.8, -175110.42, -136954.25, 0.13088852, 0.12595849, -35408.855, 84338.34, 0.0, 9.99988, 9.999841 
2.6313254e+3, 2.9777756e+2, 577938.7, 112408.01, -78205.78, -0.21815513, 0.18381508, 590725.5, 612514.9, 0.0, 10.004851, 9.998777 
2.631001e+3, 3.0776978e+2, 70524.33, -205595.73, 28421.104, 0.12017888, 0.13388547, 73419.37, 73419.37, 0.0, 10.001472, 9.997873 
2.630678e+3, 3.1776407e+2, -806402.3, -329716.03, -11094.294, 0.5461537, 0.29527315, -329457.97, -329457.97, 0.0, 9.994127, 10.0005455 
2.6469463e+3, 1.282157e+2, -1569877.4, -1583199.3, -99591.484, 0.16980062, 0.019034425, -1476724.4, 206779.75, 0.10016904, 10.000806, 10.000534 
2.646616e+3, 1.38215e+2, -1394945.6, -1630742.9, -132805.78, 0.40288636, 0.42323202, -1335256.3, 250257.67, 0.06469245, 10.002178, 9.998846 
2.646286e+3, 1.4820777e+2, -1455772.8, -1817756.0, -27250.322, 0.4096835, 0.48357725, -1453732.9, 33858.6, 0.032530583, 10.00188, 9.996988 
2.645957e+3, 1.5819806e+2, -1498028.3, -1776044.4, -18395.795, 0.37867513, 0.3186755, -1496816.3, -107122.625, 0.011066901, 10.000826, 9.99714 
2.6456255e+3, 1.681915e+2, -1130566.3, -1303126.9, 20927.291, 0.22938386, 0.35709175, -1128064.5, 163696.36, 0.0019930317, 10.0016365, 9.999309 
2.6452938e+3, 1.7818615e+2, -960585.1, -1231793.3, 56399.195, 0.03852314, 0.42699993, -949324.2, 244490.88, 0.00010503105, 10.002365, 9.998802 
2.644964e+3, 1.8817995e+2, -983159.25, -1071192.6, 45178.92, 0.03596553, 0.41639832, -964099.75, 131774.25, 0.00000008640195, 10.001065, 9.999807 
2.6446348e+3, 1.9817336e+2, -1226455.9, -1228244.9, -57043.543, 0.07902394, 0.30334914, -1170299.8, -172364.52, 0.0, 9.999075, 9.999057 
2.644301e+3, 2.0816678e+2, -856498.6, -951583.94, -174981.8, -0.0008960987, 0.26615253, -722715.8, 177280.2, 0.0, 10.000778, 9.9994335 
2.6439667e+3, 2.181604e+2, -566653.06, -891905.7, -111303.17, -0.08930664, 0.22060937, -532211.56, 269843.97, 0.0, 10.002617, 9.998322 
2.6436374e+3, 2.281535e+2, -557487.94, -885264.25, 4497.0303, 0.0034864815, 0.2822761, -557426.25, 146696.83, 0.0, 10.002244, 9.997841 
2.6433098e+3, 2.3814648e+2, -660179.1, -892859.0, -57020.926, 0.13447009, 0.31228518, -646956.9, -40764.934, 0.0, 10.000882, 9.997795 
2.6429784e+3, 2.4813828e+2, -562871.3, -594426.3, -108531.67, 0.16678825, 0.14369312, -468976.3, 39284.49, 0.0, 10.000065, 9.999524 
2.642646e+3, 2.5812966e+2, -747291.44, -786519.94, -32011.809, 0.16855212, -0.12389187, -729362.7, -319031.66, 0.0, 9.998748, 9.998204 
2.6423156e+3, 2.6812303e+2, -535958.8, -717355.0, -32562.893, 0.2957798, -0.0007625252, -530290.5, -217886.72, 0.0, 9.999917, 9.997413 
2.6419857e+3, 2.781169e+2, -261087.88, -511479.2, 1186.9921, 0.45226187, 0.16710965, -261082.25, -46605.59, 0.0, 10.000985, 9.997675 
2.6416555e+3, 2.8811088e+2, -119995.555, -74348.266, 94027.79, 0.24874128, 0.16799366, -413.73398, 116117.99, 0.0, 9.999969, 10.000453 
2.641324e+3, 2.981052e+2, -300535.78, -250265.81, 69197.16, -0.11770711, 0.096687235, -201780.05, -183202.45, 0.0, 9.998621, 9.999263 
2.6409978e+3, 3.0809805e+2, -197621.3, -268549.6, -32181.758, 0.29637793, 0.053393725, -185196.28, -185196.28, 0.0, 9.999375, 9.998431 
2.6406628e+3, 3.1809014e+2, -310361.5, -339223.06, -89314.31, 0.018447593, -0.024229184, -234319.67, -234319.67, 0.0, 9.9986315, 9.9983 
2.6569384e+3, 1.2854582e+2, -1649456.0, -1812993.4, -73668.266, -0.19602668, 0.060860533, -1621165.0, 59098.754, 0.086428925, 10.001063, 9.99876 
2.656614e+3, 1.3853914e+2, -1415707.4, -1750917.9, -89183.984, 0.49018997, 0.043412898, -1393456.6, 188878.3, 0.055199463, 10.00246, 9.99788 
2.656283e+3, 1.485333e+2, -1382794.1, -1694964.0, -40967.12, 0.46257728, 0.2313266, -1377507.5, 106892.3, 0.027235242, 10.0020275, 9.997757 
2.6559514e+3, 1.5852751e+2, -1363799.9, -1576343.5, 7215.3154, 0.26195717, 0.38480356, -1363555.1, 22908.936, 0.0089680515, 10.001148, 9.998355 
2.65562e+3, 1.6852173e+2, -1002029.4, -1074340.9, 82818.58, 0.05144524, 0.36044753, -947818.4, 340702.63, 0.0015322798, 10.001825, 10.000782 
2.6552892e+3, 1.7851613e+2, -859386.9, -1114571.6, 77993.66, -0.15102728, 0.28729564, -837437.25, 353137.7, 0.00007382683, 10.00274, 9.999432 
2.6549602e+3, 1.8851192e+2, -1041927.2, -1251943.5, -19227.271, 0.06473277, 0.5443826, -1040181.44, 52441.45, 0.000000036839044, 10.001291, 9.998471 
2.654631e+3, 1.9850771e+2, -1230926.3, -1306230.9, -59650.184, 0.340463, 0.80290437, -1198038.9, -203367.64, 0.0, 9.999336, 9.9984 
2.654298e+3, 2.0849963e+2, -795967.56, -904162.4, -50377.38, 0.14307323, 0.6263695, -776143.4, 120599.516, 0.0, 10.001114, 9.999593 
2.6539642e+3, 2.1849069e+2, -407930.53, -822814.6, -44414.234, -0.14793526, 0.32409617, -403229.16, 395590.88, 0.0, 10.003704, 9.998277 
2.6536343e+3, 2.2848237e+2, -517846.1, -934352.44, -53378.4, -0.041992564, 0.28589255, -511114.06, 189787.27, 0.0, 10.002795, 9.997246 
2.6533055e+3, 2.384744e+2, -600413.56, -799829.1, -105571.445, 0.16972493, 0.26936257, -554907.8, 48072.863, 0.0, 10.000963, 9.998408 
2.6529738e+3, 2.4846813e+2, -429178.28, -262692.72, -110130.12, 0.27861428, 0.11550405, -207884.77, 297144.0, 0.0, 9.99981, 10.001943 
2.6526412e+3, 2.5846222e+2, -608679.25, -557020.44, 40438.355, 0.33451086, -0.08703025, -534866.3, -127795.57, 0.0, 9.998971, 9.999675 
2.6523098e+3, 2.6845568e+2, -412390.4, -724671.9, 142117.0, 0.15618677, 0.04359603, -357398.1, -48257.758, 0.0, 10.001041, 9.996817 
2.651979e+3, 2.7844906e+2, 103972.414, -344294.94, 80620.51, -0.0013863589, 0.2239309, 118031.04, 329246.8, 0.0, 10.003495, 9.997621 
2.6516488e+3, 2.8844306e+2, -73102.84, -32287.908, 555.29004, 0.101215065, 0.21922669, -32280.354, 80991.75, 0.0, 10.0001745, 10.00066 
2.6513177e+3, 2.9843757e+2, -696994.75, -371378.7, 72674.97, 0.16101249, 0.15405564, -355894.53, -340574.72, 0.0, 9.995581, 9.999888 
2.6509923e+3, 3.0843106e+2, -307070.13, -199763.0, 191650.84, 0.43332836, 0.09203181, -54397.1, -54397.1, 0.0, 9.998111, 9.999511 
2.650658e+3, 3.1842685e+2, 251853.36, -129075.93, 86635.37, -0.10557911, 0.33009338, 270631.3, 270631.3, 0.0, 10.002719, 9.997795 
2.666936e+3, 1.2887378e+2, -1521066.3, -1753250.8, -171843.9, -0.0642203, 0.18872511, -1429775.4, 247283.95, 0.07399833, 10.002014, 9.998725 
2.6666105e+3, 1.38867e+2, -1321395.9, -1665189.5, -155203.53, 0.42462945, 0.13648987, -1261696.8, 317432.5, 0.04671107, 10.002939, 9.998251 
2.666279e+3, 1.4886151e+2, -1188231.0, -1408974.6, -82722.2, 0.3577507, 0.22500716, -1160672.1, 320513.25, 0.022592433, 10.002583, 9.999456 
2.6659465e+3, 1.588566e+2, -1228739.9, -1426953.4, 15414.714, 0.17950758, 0.31165734, -1227548.3, 155687.66, 0.0071954923, 10.001738, 9.999101 
2.665616e+3, 1.688511e+2, -1104413.9, -1181340.0, 32746.193, 0.0064954516, 0.32478008, -1092362.4, 192928.03, 0.001170623, 10.001382, 10.000244 
2.6652858e+3, 1.788456e+2, -1188988.9, -1330275.8, -94595.875, -0.13954744, 0.29041865, -1141569.3, 45775.832, 0.00005271245, 10.000761, 9.998892 
2.6649565e+3, 1.888413e+2, -943405.6, -1231584.4, -167448.88, 0.07752652, 0.5610569, -866585.8, 222810.02, 0.000000014947995, 10.002136, 9.998196 
2.664627e+3, 1.988372e+2, -735755.4, -1103188.3, -126826.1, 0.37424836, 0.8543244, -696230.7, 295214.47, 0.0, 10.002954, 9.99804 
2.6642945e+3, 2.0882866e+2, -741039.44, -880067.25, -76191.24, 0.19155619, 0.6352411, -707416.1, 186103.64, 0.0, 10.001544, 9.999525 
2.663961e+3, 2.1881925e+2, -1039122.25, -1117633.3, -91025.586, -0.09711384, 0.2785583, -979248.25, -183649.3, 0.0, 9.999398, 9.998305 
2.6636308e+3, 2.2881164e+2, -893211.0, -1022232.56, -28974.338, 0.005063091, 0.25230128, -887002.94, -189330.55, 0.0, 9.999859, 9.998032 
2.6633015e+3, 2.388045e+2, -704003.9, -797498.6, 7813.956, 0.2163456, 0.2475088, -703355.3, -103611.92, 0.0, 10.000087, 9.998835 
2.662969e+3, 2.4879912e+2, -316010.88, -189815.27, -139902.63, 0.32081053, 0.16440907, -99439.68, 402346.38, 0.0, 10.000535, 10.002083 
2.6626357e+3, 2.587942e+2, -412057.16, -457535.8, -133110.44, 0.35182035, 0.022095745, -299757.75, 104064.02, 0.0, 10.000331, 9.999703 
2.6623043e+3, 2.6878744e+2, -459019.13, -696881.6, 80383.2, 0.026816886, 0.0872245, -434402.13, -128514.07, 0.0, 10.0005245, 9.997253 
2.6619732e+3, 2.7878043e+2, -350665.53, -561809.75, 51588.58, -0.31070277, 0.17885523, -338735.06, -130774.45, 0.0, 10.000402, 9.997617 
2.661642e+3, 2.8877452e+2, -136984.52, -120434.68, -207900.33, -0.027188601, 0.20722318, 79355.34, 189373.34, 0.0, 9.999985, 10.000146 
2.6613104e+3, 2.9876885e+2, -286988.4, -219305.92, -84054.74, 0.28289098, 0.16208735, -162535.75, -150464.5, 0.0, 9.998593, 9.9994955 
2.6609868e+3, 3.0876288e+2, 19393.248, 17310.771, 159568.55, 0.5211224, 0.114717945, 177923.95, 177923.95, 0.0, 10.000114, 10.000024 
2.660656e+3, 3.187598e+2, 156671.95, -189961.86, -78563.67, -0.048815906, 0.39462402, 173646.94, 173646.94, 0.0, 10.002164, 9.997639 
2.6769358e+3, 1.2920068e+2, -1366736.4, -1566859.5, -68149.16, 0.19688198, 0.34725305, -1345733.5, 328138.22, 0.06277716, 10.002652, 9.999703 
2.6766062e+3, 1.3919672e+2, -1262171.3, -1460512.0, -83570.664, 0.2030196, 0.47868592, -1231654.3, 344256.38, 0.039144833, 10.002551, 9.999871 
2.6762742e+3, 1.4919092e+2, -1044586.2, -1083146.0, -72568.28, 0.14115709, 0.32728252, -988780.3, 489180.63, 0.01854302, 10.002462, 10.001791 
2.6759425e+3, 1.5918489e+2, -1116246.3, -1298003.5, 17514.494, 0.09395234, 0.116648614, -1114574.0, 265439.8, 0.005710628, 10.002171, 9.999784 
2.6756126e+3, 1.6917953e+2, -1204688.8, -1447450.4, 33298.504, 0.049147148, 0.26104945, -1200204.1, 81866.27, 0.0008890518, 10.001625, 9.998298 
2.675283e+3, 1.7917423e+2, -1170032.8, -1402092.8, -61370.156, -0.011108829, 0.4273359, -1154802.5, 29325.664, 0.000037964888, 10.001223, 9.998167 
2.674953e+3, 1.8916753e+2, -831944.3, -1082874.8, -91914.73, 0.038837396, 0.42213306, -801878.7, 284318.72, 0.0000000057994387, 10.002479, 9.999057 
2.6746228e+3, 1.9916068e+2, -591988.8, -965327.3, -108932.65, 0.11514004, 0.36743408, -562529.06, 425737.63, 0.0, 10.0036125, 9.998672 
2.6742902e+3, 2.0915279e+2, -726252.0, -893504.5, -158621.6, 0.14727451, 0.20959648, -630562.44, 259773.23, 0.0, 10.001716, 9.99936 
2.6739576e+3, 2.1914509e+2, -936288.94, -920506.8, -116026.46, 0.1375398, 0.022430472, -812103.4, -19702.477, 0.0, 9.99941, 9.999663 
2.673627e+3, 2.2914158e+2, -692101.2, -573769.8, 31624.852, 0.19858485, 0.14210653, -565848.2, 128583.3, 0.0, 9.999689, 10.001208 
2.6732972e+3, 2.3913838e+2, -629209.25, -738814.6, 77766.484, 0.27832556, 0.29093575, -588875.44, 7585.7197, 0.0, 10.000456, 9.999069 
2.6729634e+3, 2.4913108e+2, -560576.4, -817292.56, -120525.57, 0.21836615, 0.32941565, -512860.03, -14324.476, 0.0, 10.001019, 9.99755 
2.6726294e+3, 2.5912318e+2, -346799.38, -565149.56, -178967.6, 0.13190801, 0.28532672, -246335.27, 154279.36, 0.0, 10.001323, 9.998503 
2.6722997e+3, 2.691155e+2, -210397.72, -203215.3, 18628.445, 0.058162935, 0.055338044, -187835.06, 114842.87, 0.0, 10.000569, 10.000648 
2.6719707e+3, 2.791081e+2, -373488.25, -423595.7, 29385.242, 0.016345294, -0.1837142, -359926.16, -155187.88, 0.0, 9.999573, 9.998963 
2.6716372e+3, 2.8910175e+2, -294115.5, -460463.2, -200092.89, 0.034381103, -0.071654074, -160598.2, -53797.074, 0.0, 10.000047, 9.997792 
2.6713026e+3, 2.990954e+2, -89809.52, -338338.63, -95381.52, 0.017992625, 0.0485445, -57423.79, -48556.734, 0.0, 10.00082, 9.997623 
2.67098e+3, 3.0908677e+2, 162661.92, -65734.28, 111452.62, 0.22706214, -0.11178987, 208034.78, 208034.78, 0.0, 10.001748, 9.998664 
2.6706538e+3, 3.1908333e+2, 242356.88, -13407.98, -266184.34, 0.04838625, 0.21631955, 409784.5, 409784.5, 0.0, 10.002136, 9.998856 
2.6869345e+3, 1.2953311e+2, -1064961.4, -1444490.4, 62909.62, 0.21721143, 0.45679605, -1054805.4, 615808.94, 0.052668657, 10.004903, 9.999507 
2.6866022e+3, 1.3952774e+2, -1649144.3, -1696136.9, 66680.234, 0.22964828, 0.47882414, -1601941.6, -29274.508, 0.032422073, 10.000039, 9.999416 
2.68627e+3, 1.4952186e+2, -1224897.8, -1262777.8, 53965.9, 0.08278609, 0.39700952, -1186644.8, 288075.6, 0.015032093, 10.001548, 10.000981 
2.685939e+3, 1.5951577e+2, -944837.94, -1242722.6, -40609.75, 0.0060715964, 0.23578328, -939401.0, 437373.72, 0.0044763535, 10.003474, 9.999543 
2.6856098e+3, 1.6950971e+2, -1014934.75, -1298129.8, 33980.63, 0.07447224, 0.27548754, -1010914.44, 267919.6, 0.00066900725, 10.002685, 9.998822 
2.68528e+3, 1.7950371e+2, -1168843.6, -1358809.9, 118474.71, 0.13059027, 0.33587918, -1111978.0, 68916.67, 0.000027210404, 10.001068, 9.998546 
2.6849493e+3, 1.8949686e+2, -998085.2, -1091492.4, 149059.89, 0.05045246, 0.27786976, -888583.5, 194379.31, 0.000000001728097, 10.001076, 9.999651 
2.6846185e+3, 1.994898e+2, -986992.2, -1135403.0, 73577.984, -0.01170266, 0.1664942, -956698.0, 28333.896, 0.0, 10.000827, 9.998853 
2.6842862e+3, 2.0948252e+2, -728190.94, -894141.7, -8050.275, 0.13464656, 0.07441619, -727801.3, 159296.08, 0.0, 10.001713, 9.999349 
2.6839542e+3, 2.1947567e+2, -602060.1, -771821.6, 47877.297, 0.29534963, -0.014938729, -589488.44, 199669.11, 0.0, 10.0018, 9.999531 
2.6836234e+3, 2.2947218e+2, -325913.75, -367832.63, 8606.235, 0.30437815, 0.10153449, -324215.63, 366972.78, 0.0, 10.002115, 10.001442 
2.683293e+3, 2.3946925e+2, -505025.5, -773977.1, -150431.05, 0.2862268, 0.25102723, -437726.1, 155489.39, 0.0, 10.00177, 9.998189 
2.6829588e+3, 2.4946152e+2, -605113.1, -1059434.0, -159541.02, 0.1641877, 0.39065903, -554685.4, -59384.06, 0.0, 10.001702, 9.995536 
2.6826242e+3, 2.594529e+2, -430783.53, -656239.0, -14142.217, 0.031720992, 0.44322297, -429899.88, -32505.146, 0.0, 10.001006, 9.998017 
2.6822954e+3, 2.6944524e+2, -100052.89, 92837.12, 67943.26, 0.112820186, 0.084307626, 114366.37, 413816.2, 0.0, 10.000316, 10.002779 
2.6819673e+3, 2.7943772e+2, -386303.75, -406446.13, -11953.165, 0.23206514, -0.3468031, -380744.63, -179243.42, 0.0, 9.999412, 9.999162 
2.6816326e+3, 2.8943008e+2, -235798.58, -628451.1, -141679.45, 0.08957451, -0.25028473, -190015.22, -86437.54, 0.0, 10.001299, 9.996027 
2.6812968e+3, 2.9942247e+2, 29057.44, -464492.13, 36826.63, -0.1589058, -0.08063938, 31790.158, 37448.938, 0.0, 10.002464, 9.995959 
2.6809728e+3, 3.094125e+2, -98239.92, -315848.25, 268777.34, -0.10960668, -0.24227573, 82920.74, 82920.74, 0.0, 10.000509, 9.997536 
2.680652e+3, 3.1940937e+2, -262783.5, -124713.734, -77254.09, 0.26980618, 0.19187011, -90143.55, -90143.55, 0.0, 9.998138, 10.000014 
2.696933e+3, 1.2986737e+2, -1228059.1, -1597382.6, -177846.9, 0.07719075, 0.46504134, -1156343.3, 510988.3, 0.0436092, 10.004017, 9.998806 
2.6965982e+3, 1.3985899e+2, -1637573.4, -1843629.8, 8336.739, 0.34649283, 0.27563307, -1637236.6, -67821.33, 0.026484182, 10.000782, 9.998036 
2.6962665e+3, 1.4985359e+2, -1352490.6, -1609369.1, 166145.38, 0.08879415, 0.4664221, -1270927.6, 200544.03, 0.012009186, 10.001907, 9.998405 
2.6959363e+3, 1.598483e+2, -939704.5, -1253438.3, 11360.2705, -0.13042165, 0.593776, -939293.7, 434231.34, 0.0034557066, 10.00355, 9.999424 
2.6956072e+3, 1.6984095e+2, -832274.7, -925346.2, 4639.1064, 0.0688423, 0.3166759, -832044.0, 443543.0, 0.00049606664, 10.002674, 10.001391 
2.6952776e+3, 1.7983389e+2, -997823.06, -1091627.1, 112398.09, 0.2515345, 0.041423917, -922933.75, 254712.52, 0.00001910138, 10.001417, 10.00021 
2.694946e+3, 1.8982944e+2, -941612.1, -1024101.94, 169590.17, 0.11608972, 0.15149559, -808323.5, 271367.88, 0.0000000002885943, 10.001268, 10.000025 
2.6946142e+3, 1.9982515e+2, -877539.2, -1032885.56, 112429.59, -0.02187138, 0.28786358, -818561.2, 163174.48, 0.0, 10.001319, 9.999321 
2.6942828e+3, 2.0981923e+2, -654394.6, -826608.7, 60419.555, 0.12986408, 0.3009765, -635311.6, 248479.86, 0.0, 10.002021, 9.999691 
2.6939514e+3, 2.198126e+2, -598261.4, -971891.44, 108669.75, 0.30061004, 0.26302087, -568953.8, 216900.16, 0.0, 10.002655, 9.997743 
2.6936203e+3, 2.2980262e+2, -556764.6, -1001757.94, 14873.432, 0.2672202, 0.12338644, -556268.0, 131686.53, 0.0, 10.002757, 9.996788 
2.6932892e+3, 2.3979342e+2, -405402.56, -775638.0, -197118.8, 0.22786081, 0.021779006, -320105.06, 269943.13, 0.0, 10.002635, 9.997759 
2.6929566e+3, 2.4978884e+2, -265239.47, -465414.0, -167106.64, 0.2950819, 0.20039776, -170539.45, 321557.5, 0.0, 10.002146, 9.999416 
2.6926234e+3, 2.5978467e+2, -239887.95, -367410.44, 36776.28, 0.3380401, 0.37478277, -230042.2, 164097.53, 0.0, 10.001427, 9.999801 
2.6922914e+3, 2.697794e+2, -161929.52, -86501.055, 80483.99, 0.2061078, 0.3070214, -35333.14, 260843.61, 0.0, 10.000514, 10.001459 
2.6919603e+3, 2.7977324e+2, -344789.72, -445574.9, 18059.31, 0.12298811, 0.1435019, -341651.47, -143429.7, 0.0, 9.999912, 9.9986515 
2.6916307e+3, 2.8976256e+2, -61998.35, -478552.56, -13500.293, 0.26532334, -0.08734524, -61561.273, 38764.66, 0.0, 10.002179, 9.99663 
2.6913e+3, 2.997526e+2, 333378.53, -180703.06, 78906.49, 0.2877843, -0.22342592, 345217.28, 347643.63, 0.0, 10.003941, 9.997188 
2.6909658e+3, 3.0974907e+2, -134528.53, -186363.7, 210315.73, -0.2692299, 0.13291393, 51460.535, 51460.535, 0.0, 9.999588, 9.998898 
2.6906428e+3, 3.1974328e+2, -545221.0, -177089.13, 132502.02, 0.2698267, 0.21254002, -134357.69, -134357.69, 0.0, 9.995785, 10.000814 
2.7069277e+3, 1.301968e+2, -1579956.8, -1733369.6, -290621.56, -0.112656675, 0.2950586, -1356089.1, 308014.13, 0.035540115, 10.001333, 9.999178 
2.7065971e+3, 1.401907e+2, -1052571.4, -1566487.4, -73642.4, 0.48596504, 0.2945363, -1042226.9, 523935.94, 0.021268353, 10.004909, 9.99797 
2.7062654e+3, 1.5018442e+2, -1121220.0, -1528950.5, 155841.58, 0.2278045, 0.4109329, -1068477.3, 399750.63, 0.009415484, 10.003672, 9.998104 
2.7059343e+3, 1.6017829e+2, -1244312.3, -1405961.6, 69295.586, -0.03966922, 0.4880487, -1218673.4, 151616.89, 0.0026134893, 10.001496, 9.999366 
2.705603e+3, 1.7017208e+2, -1170356.3, -1039388.4, -55177.547, 0.08698709, 0.2971792, -1019241.06, 253100.48, 0.0003600524, 10.000169, 10.001799 
2.705272e+3, 1.8016602e+2, -1366841.6, -1251868.8, -34770.47, 0.23058052, 0.076946326, -1242171.4, -67780.74, 0.000012952271, 9.998831, 10.000357 
2.7049416e+3, 1.9016136e+2, -1146628.1, -1105025.0, 27915.586, 0.16193214, 0.1319264, -1091013.0, -14577.369, 0.000000000007316074, 9.999778, 10.000192 
2.7046108e+3, 2.0015708e+2, -1022444.25, -1122839.5, -34839.06, 0.07983491, 0.24212386, -1011539.0, -33060.25, 0.0, 10.0004425, 9.999133 
2.7042794e+3, 2.101522e+2, -787487.44, -900830.06, -110630.234, 0.1820264, 0.35078463, -719857.94, 160669.58, 0.0, 10.001174, 9.999583 
2.703948e+3, 2.2014633e+2, -872427.6, -1203699.9, -50881.656, 0.2931408, 0.39807403, -864788.6, -82202.66, 0.0, 10.001235, 9.996839 
2.7036172e+3, 2.3013452e+2, -832044.75, -1278050.3, 106585.78, 0.25606623, 0.17890432, -807882.06, -123176.39, 0.0, 10.00152, 9.99547 
2.703286e+3, 2.40123e+2, -634003.94, -909685.4, 114394.086, 0.21616846, -0.033008028, -592718.8, -5896.2095, 0.0, 10.001198, 9.997527 
2.7029535e+3, 2.501192e+2, -217926.56, -261412.06, -44312.887, 0.36607906, 0.13030967, -190309.63, 298550.53, 0.0, 10.001726, 10.000997 
2.702621e+3, 2.6011664e+2, -250994.77, -364732.06, -54475.098, 0.4907518, 0.32962626, -229113.31, 161770.36, 0.0, 10.00137, 9.999837 
2.7022865e+3, 2.7011222e+2, -306070.53, -292850.3, -32464.81, 0.2265211, 0.42989105, -266329.5, 26586.943, 0.0, 10.000156, 10.000199 
2.7019536e+3, 2.801067e+2, -585892.25, -613033.7, 2480.984, -0.001155754, 0.43146944, -585667.4, -390706.94, 0.0, 9.998525, 9.998164 
2.7016276e+3, 2.9009473e+2, -403624.97, -558908.2, 53155.22, 0.36342204, 0.022197934, -387172.5, -290096.22, 0.0, 9.99948, 9.997372 
2.7012998e+3, 3.0008397e+2, -170128.44, -311377.75, 37391.848, 0.55146, -0.2807884, -160840.69, -160840.69, 0.0, 10.000022, 9.9981785 
2.7009577e+3, 3.1008607e+2, -165709.55, -42034.746, 1980.0142, -0.46274728, 0.50197315, -42003.055, -42003.055, 0.0, 9.998732, 10.000284 
2.700634e+3, 3.2007527e+2, -287224.34, -23642.389, 156951.73, 0.2857243, -0.04527899, 49512.254, 49512.254, 0.0, 9.997469, 10.001059 
2.716922e+3, 1.3052462e+2, -1470893.5, -1570780.5, -91831.26, -0.333644, 0.09151874, -1416303.1, 244590.56, 0.028404262, 10.001602, 10.000156 
2.716598e+3, 1.4052272e+2, -1022536.94, -1438785.9, 12961.635, 0.57268435, 0.42543337, -1022133.7, 540775.25, 0.016711324, 10.004598, 9.999005 
2.7162656e+3, 1.5051448e+2, -1086819.6, -1390929.1, 106839.3, 0.41163266, 0.2461476, -1053037.6, 411950.66, 0.0071979812, 10.003381, 9.999191 
2.7159327e+3, 1.605066e+2, -1226927.4, -1396713.8, 19824.074, 0.15809508, 0.07402001, -1224643.5, 142421.3, 0.0019202423, 10.001598, 9.999379 
2.715598e+3, 1.7050327e+2, -1227791.5, -1215565.3, -87533.71, 0.08356809, 0.27362692, -1133931.4, 135165.48, 0.00025324232, 10.00041, 10.000478 
2.7152643e+3, 1.804996e+2, -1322815.9, -1287882.5, -14155.063, 0.04915546, 0.41173258, -1282867.0, -111735.555, 0.000008369746, 9.999344, 9.99987 
2.7149364e+3, 1.9049206e+2, -1111561.9, -1074998.3, 85169.36, 0.18859449, 0.18697941, -1006170.7, 67030.27, 0.0, 9.9999485, 10.000324 
2.7146086e+3, 2.0048489e+2, -971589.44, -1109510.5, 3206.159, 0.30756012, 0.007551642, -971514.94, 3753.3914, 0.0, 10.00082, 9.999044 
2.7142766e+3, 2.1047997e+2, -812249.94, -988404.25, -88226.76, 0.30363315, 0.17503417, -775661.4, 101659.625, 0.0, 10.001326, 9.998918 
2.7139443e+3, 2.2047532e+2, -643659.5, -829810.0, -45774.418, 0.28660303, 0.33736122, -633012.56, 146357.89, 0.0, 10.0016365, 9.999218 
2.7136138e+3, 2.304695e+2, -495289.97, -600056.75, 146457.64, 0.310412, 0.31737295, -392129.6, 289293.8, 0.0, 10.001582, 10.000117 
2.713283e+3, 2.4046299e+2, -552180.3, -820380.7, 202881.83, 0.31799284, 0.27082026, -443085.3, 140398.9, 0.0, 10.001502, 9.997996 
2.7129492e+3, 2.504551e+2, -450874.78, -783217.06, 21056.076, 0.29308793, 0.30559984, -449546.03, 36019.273, 0.0, 10.001868, 9.997357 
2.712615e+3, 2.6044747e+2, -290333.94, -567507.2, -87031.44, 0.26794726, 0.32336205, -265272.4, 122369.53, 0.0, 10.001864, 9.998199 
2.7122805e+3, 2.704396e+2, -332121.22, -365462.4, -111471.12, 0.1350016, 0.15228882, -236081.03, 53625.46, 0.0, 10.000201, 9.999696 
2.711947e+3, 2.804321e+2, -551175.6, -525994.4, -24698.05, 0.036901772, -0.012724564, -510862.84, -319094.0, 0.0, 9.998446, 9.998788 
2.7116185e+3, 2.9042467e+2, -477515.25, -445805.28, 73379.89, 0.14924659, -0.07838383, -386587.03, -292743.66, 0.0, 9.998331, 9.998699 
2.711289e+3, 3.0041808e+2, -357281.16, -311801.75, 51466.773, 0.13697407, -0.07392376, -278274.9, -278274.9, 0.0, 9.998317, 9.998996 
2.7109507e+3, 3.1041744e+2, -195180.4, -44690.133, -21699.383, -0.4576021, 0.41121835, -41623.75, -41623.75, 0.0, 9.998469, 10.000395 
2.710628e+3, 3.2040736e+2, -124084.5, -77815.25, 208876.47, 0.33246073, -0.037330978, 109203.85, 109203.85, 0.0, 9.99916, 9.999861 
2.7269205e+3, 1.3085869e+2, -1381914.0, -1496571.5, 112930.72, -0.12810498, 0.19424698, -1312593.9, 345028.56, 0.022179216, 10.002077, 10.000453 
2.7265936e+3, 1.4085607e+2, -1358822.9, -1653983.1, 95459.336, 0.36376166, 0.46411347, -1330640.8, 229002.75, 0.012781535, 10.002438, 9.998575 
2.7262616e+3, 1.5084738e+2, -1393677.8, -1600610.1, 66273.63, 0.3047757, 0.28919476, -1374272.3, 87455.29, 0.0053271092, 10.001513, 9.998655 
2.725929e+3, 1.6083905e+2, -1412360.5, -1558420.0, -49520.52, 0.22052383, 0.122013606, -1397154.0, -33345.227, 0.0013580795, 10.00065, 9.998734 
2.7255943e+3, 1.7083508e+2, -995923.94, -1176531.6, -95016.26, 0.14540589, 0.31355798, -955144.3, 310705.47, 0.00016970174, 10.002349, 9.999807 
2.725261e+3, 1.808312e+2, -763718.2, -1053791.9, 11676.306, 0.08878537, 0.4885933, -763248.94, 404639.94, 0.0000049540654, 10.003393, 9.999517 
2.7249327e+3, 1.9082385e+2, -698572.8, -865821.2, 104374.484, 0.19600259, 0.28030688, -648454.56, 421500.78, 0.0, 10.002774, 10.000387 
2.7246046e+3, 2.008164e+2, -905630.8, -1116529.5, 25446.623, 0.3298031, 0.081423685, -902603.94, 69420.34, 0.0, 10.001485, 9.998662 
2.724273e+3, 2.1081059e+2, -803705.94, -1019221.2, -32475.713, 0.3361679, 0.18949199, -798918.56, 75167.99, 0.0, 10.001594, 9.998541 
2.7239406e+3, 2.2080557e+2, -674209.4, -778627.4, -15070.807, 0.31656918, 0.3296952, -672077.7, 104062.25, 0.0, 10.001191, 9.999772 
2.72361e+3, 2.3080231e+2, -450667.78, -374535.7, -62365.73, 0.33065128, 0.40210563, -339536.63, 338628.78, 0.0, 10.001049, 10.0019 
2.7232787e+3, 2.4079834e+2, -740633.2, -914980.75, -152954.84, 0.3287657, 0.45270097, -651754.56, -71556.53, 0.0, 10.0002775, 9.997931 
2.7229443e+3, 2.5078887e+2, -713738.3, -1045943.4, -100941.62, 0.20825925, 0.3882084, -685471.94, -203178.67, 0.0, 10.000676, 9.996113 
2.7226093e+3, 2.607788e+2, -546622.56, -822806.5, -29007.518, 0.0898514, 0.2801022, -543608.8, -159215.66, 0.0, 10.000709, 9.99701 
2.7222753e+3, 2.7076876e+2, -228480.95, -383935.75, -77818.74, 0.08832137, -0.0379945, -196220.61, 90258.97, 0.0, 10.0012455, 9.999048 
2.7219415e+3, 2.8075984e+2, -236641.48, -406315.2, 1423.5468, 0.08179594, -0.288618, -236629.53, -48073.008, 0.0, 10.000775, 9.998493 
2.7216107e+3, 2.9075542e+2, -216804.69, -253553.81, 25802.51, -0.018621359, -0.0947147, -203502.86, -112897.51, 0.0, 9.999866, 9.9992695 
2.7212784e+3, 3.007518e+2, -307742.6, -275605.7, -58054.836, -0.2418925, 0.14789724, -231436.61, -231436.61, 0.0, 9.998631, 9.999095 
2.7209446e+3, 3.1074825e+2, -122918.72, -16757.293, -114654.27, -0.40554863, 0.32489708, 56507.41, 56507.41, 0.0, 9.998988, 10.000329 
2.72062e+3, 3.2074034e+2, -315644.78, -336195.9, 247782.8, 0.13339186, 0.12993582, -77924.58, -77924.58, 0.0, 9.998599, 9.998339 
2.7369198e+3, 1.3119543e+2, -1394121.4, -1518653.4, 97628.75, 0.12924217, 0.42035198, -1340592.6, 313732.13, 0.016839433, 10.002051, 10.000301 
2.7365863e+3, 1.4119014e+2, -1410602.9, -1781364.6, 65613.664, -0.087589726, 0.46271446, -1399333.8, 157038.5, 0.009463963, 10.00251, 9.9976635 
2.7362546e+3, 1.51182e+2, -1463228.8, -1797793.0, 32609.473, -0.0030022848, 0.48184058, -1460080.0, -1625.719, 0.0037923288, 10.001739, 9.99719 
2.7359235e+3, 1.6117385e+2, -1371216.1, -1582263.8, -5401.4463, 0.13596739, 0.45099416, -1371078.0, -10541.73, 0.0009170214, 10.001125, 9.998326 
2.7355924e+3, 1.71167e+2, -975263.3, -1159403.8, 2174.714, 0.24649468, 0.36797675, -975237.6, 287365.63, 0.0001065257, 10.002483, 9.999849 
2.735261e+3, 1.8116118e+2, -692516.7, -989417.56, 45508.758, 0.2780578, 0.34480366, -685697.75, 478961.78, 0.0000025959862, 10.003734, 9.999794 
2.7349296e+3, 1.9115697e+2, -658545.0, -840333.6, 89983.36, 0.14814855, 0.4442727, -621537.8, 445159.16, 0.0, 10.002984, 10.000485 
2.7345988e+3, 2.0115212e+2, -803486.2, -1041029.94, 29792.666, 0.07748026, 0.5029652, -799806.6, 168935.03, 0.0, 10.002031, 9.998916 
2.7342683e+3, 2.1114443e+2, -751414.44, -985805.3, -3337.121, 0.2445795, 0.4149782, -751366.94, 119452.58, 0.0, 10.001874, 9.998652 
2.7339375e+3, 2.2113694e+2, -696740.25, -966525.75, 1315.0175, 0.36377788, 0.35740364, -696733.8, 76161.805, 0.0, 10.001759, 9.998209 
2.7336052e+3, 2.3113032e+2, -643586.94, -813017.2, -101878.97, 0.27345333, 0.37290114, -595803.1, 79157.91, 0.0, 10.001192, 9.998823 
2.7332723e+3, 2.4112423e+2, -577823.7, -658017.75, -217842.4, 0.18764116, 0.3840085, -396418.8, 180599.52, 0.0, 10.000599, 9.999535 
2.7329388e+3, 2.5111824e+2, -397867.13, -400515.8, -103478.61, 0.15943035, 0.28442717, -295704.38, 183363.42, 0.0, 10.000691, 10.00055 
2.7326053e+3, 2.6111174e+2, -403249.53, -586800.56, 40682.203, 0.15178975, 0.1870847, -394636.88, -13513.445, 0.0, 10.000945, 9.998514 
2.7322724e+3, 2.7110344e+2, -195881.02, -481631.94, 5001.4775, 0.19470495, 0.1075143, -195793.52, 87406.125, 0.0, 10.001938, 9.998056 
2.73194e+3, 2.8109512e+2, -91110.49, -496380.63, 14688.533, 0.26027068, 0.041636996, -90578.82, 94700.59, 0.0, 10.0024, 9.99711 
2.7316085e+3, 2.910878e+2, -210568.5, -472530.1, -45986.832, 0.22912154, 0.1357882, -202730.14, -115369.055, 0.0, 10.000814, 9.997344 
2.7312747e+3, 3.0108202e+2, -237422.25, -277116.06, -124775.0, 0.015298429, 0.31030363, -130925.57, -130925.57, 0.0, 9.999255, 9.99878 
2.7309385e+3, 3.110797e+2, -36955.02, 58419.06, -143844.78, -0.3907076, 0.5879611, 162275.33, 162275.33, 0.0, 9.999432, 10.000626 
2.7306136e+3, 3.2107052e+2, -296514.8, -242247.11, 82372.945, 0.18791713, 0.23840849, -182654.11, -182654.11, 0.0, 9.998341, 9.999107 
2.7469158e+3, 1.3152842e+2, -1436977.1, -1639340.0, -16853.895, 0.011983411, 0.6036135, -1435583.0, 215481.98, 0.012343712, 10.002204, 9.999362 
2.7465835e+3, 1.415217e+2, -1348581.5, -1738522.3, -117888.25, -0.09132983, 0.5449262, -1315711.9, 237415.47, 0.006742268, 10.00291, 9.9977455 
2.7462518e+3, 1.515135e+2, -1191307.5, -1579396.3, -55406.555, 0.013478161, 0.4713915, -1183552.3, 271653.28, 0.0025849442, 10.003232, 9.997965 
2.7459207e+3, 1.6150568e+2, -1097789.9, -1423309.8, 11885.008, 0.17390184, 0.41141164, -1097356.5, 259924.66, 0.0005889778, 10.002894, 9.99856 
2.745589e+3, 1.7149913e+2, -1084875.8, -1226806.4, 32540.887, 0.24023241, 0.34803566, -1077770.6, 181575.88, 0.00006228534, 10.001772, 9.999733 
2.745258e+3, 1.8149324e+2, -1177453.3, -1237388.1, 74603.74, 0.27002835, 0.33509168, -1127023.1, 34381.145, 0.0000011486238, 10.000481, 9.999655 
2.7449265e+3, 1.9148952e+2, -960132.7, -959614.4, 115135.16, 0.19118099, 0.4583903, -844738.06, 218699.3, 0.0, 10.000836, 10.000663 
2.744595e+3, 2.0148519e+2, -1006424.9, -1198409.5, 69477.24, 0.10760926, 0.5739342, -983919.9, -18441.975, 0.0, 10.000941, 9.998356 
2.744264e+3, 2.1147689e+2, -791476.7, -1065624.1, -6006.279, 0.1687654, 0.47885254, -791345.2, 76217.766, 0.0, 10.001882, 9.998098 
2.7439326e+3, 2.2146845e+2, -776355.75, -1119479.5, -37277.137, 0.24036719, 0.38843396, -772352.7, -2702.867, 0.0, 10.001755, 9.997157 
2.7435997e+3, 2.3146039e+2, -858355.0, -1054859.1, -7166.1934, 0.18642864, 0.37594798, -858094.0, -186361.02, 0.0, 10.000359, 9.997545 
2.7432665e+3, 2.4145326e+2, -769727.2, -673043.0, 1236.7758, 0.12714511, 0.36723515, -673027.2, -99224.47, 0.0, 9.998991, 10.000201 
2.7429342e+3, 2.5144887e+2, -317313.25, -97874.51, -56758.98, 0.17548542, 0.23117188, -84062.82, 391767.16, 0.0, 10.000139, 10.002881 
2.7426016e+3, 2.6144436e+2, -418706.5, -560955.94, -70577.75, 0.21196224, 0.15394163, -389631.7, -11770.587, 0.0, 10.000727, 9.998792 
2.7422687e+3, 2.7143762e+2, -420312.6, -652358.1, -59373.41, 0.23248069, 0.2456401, -406003.16, -126075.23, 0.0, 10.0006695, 9.99749 
2.7419367e+3, 2.8143007e+2, -468919.75, -803448.8, -10552.368, 0.28387213, 0.3262344, -468587.22, -286581.2, 0.0, 10.000395, 9.9959545 
2.7416053e+3, 2.914205e+2, -273413.25, -613937.06, 21634.152, 0.38670322, 0.29660723, -272044.28, -187934.16, 0.0, 10.000924, 9.996287 
2.7412713e+3, 3.0141282e+2, -76571.55, -242837.86, 54133.273, 0.2222899, 0.37931266, -60500.2, -60500.2, 0.0, 10.000595, 9.998362 
2.740933e+3, 3.1141153e+2, -7340.875, 85533.27, 22561.775, -0.35878417, 0.7638375, 90724.055, 90724.055, 0.0, 9.999603, 10.000722 
2.740608e+3, 3.2140037e+2, -356247.28, -211368.56, 69149.15, 0.28429642, 0.19827789, -183662.7, -183662.7, 0.0, 9.997655, 9.999669 
2.75691e+3, 1.3185915e+2, -1409220.1, -1771653.9, 35554.406, -0.30758536, 0.71161807, -1405765.3, 242063.2, 0.008673605, 10.003017, 9.998067 
2.7565834e+3, 1.4185166e+2, -1272000.4, -1568179.8, -68402.375, 0.097480536, 0.63187397, -1256966.0, 292932.5, 0.0045905835, 10.002853, 9.99894 
2.7562517e+3, 1.518432e+2, -1066945.6, -1260460.9, -17171.68, 0.2048044, 0.32583055, -1065433.8, 386536.22, 0.0016781231, 10.002979, 10.000278 
2.7559194e+3, 1.618358e+2, -1042723.75, -1305186.3, 3904.708, 0.25617787, 0.13202757, -1042665.7, 311368.88, 0.0003582228, 10.002862, 9.999389 
2.755584e+3, 1.7183161e+2, -1081336.3, -1245646.4, 6910.4873, 0.11878034, 0.3099208, -1081046.1, 175033.98, 0.000033741435, 10.001861, 9.999569 
2.7552512e+3, 1.818271e+2, -1083204.1, -1141918.6, 87877.21, 0.06428239, 0.43515158, -1019910.2, 138216.45, 0.00000040337267, 10.000881, 10.000115 
2.7549237e+3, 1.9182117e+2, -904817.8, -889260.5, 149793.73, 0.3302287, 0.30144393, -747043.6, 313136.03, 0.0, 10.001007, 10.00107 
2.7545944e+3, 2.0181505e+2, -981211.25, -1271945.9, 108862.55, 0.44041052, 0.24852937, -944967.2, 17270.459, 0.0, 10.001438, 9.997627 
2.7542597e+3, 2.1180747e+2, -836976.3, -1241771.3, 45609.832, 0.08345593, 0.35938394, -831900.94, 32420.29, 0.0, 10.002177, 9.99678 
2.7539256e+3, 2.2180027e+2, -625005.5, -909946.5, -58843.19, -0.13256, 0.44552436, -613332.0, 153068.02, 0.0, 10.0022, 9.998368 
2.7535936e+3, 2.3179428e+2, -706662.1, -755245.9, -29236.861, 0.0864514, 0.4602229, -692942.25, -24481.082, 0.0, 10.000416, 9.999581 
2.7532616e+3, 2.417882e+2, -770532.44, -739934.0, 78617.8, 0.2754325, 0.44756788, -675140.6, -104620.484, 0.0, 9.999216, 9.999644 
2.7529305e+3, 2.5178155e+2, -455435.44, -436416.2, 15315.426, 0.33831576, 0.30825627, -427898.2, 44676.36, 0.0, 10.00032, 10.000484 
2.7525982e+3, 2.6177514e+2, -368291.4, -543809.8, -92487.984, 0.32442197, 0.21604732, -328552.75, 46075.91, 0.0, 10.001065, 9.998748 
2.7522624e+3, 2.717688e+2, -384669.84, -523573.88, -96081.2, 0.10067174, 0.26968586, -335567.3, -58875.426, 0.0, 10.000419, 9.9985 
2.7519283e+3, 2.8176206e+2, -363667.66, -499479.22, 30887.355, -0.011254332, 0.29776084, -356973.03, -178214.3, 0.0, 10.000027, 9.998209 
2.7515987e+3, 2.917539e+2, -49589.72, -217667.16, 141609.31, 0.15460183, 0.16981746, 31040.027, 111877.51, 0.0, 10.001258, 9.998835 
2.751267e+3, 3.0174673e+2, 146976.73, -68991.47, 148939.38, 0.19047338, 0.13084763, 222958.67, 222958.67, 0.0, 10.001821, 9.99898 
2.7509323e+3, 3.117432e+2, 26300.115, 13045.577, 74704.92, 0.14438991, 0.35669965, 94671.15, 94671.15, 0.0, 10.000154, 10.000006 
2.7505976e+3, 3.2173425e+2, -493777.72, -409322.03, 43063.2, 0.07474317, 0.124288164, -391237.1, -391237.1, 0.0, 9.997212, 9.998537 
2.7669117e+3, 1.3218799e+2, -914305.56, -1550397.8, 223.55246, -0.114058755, 0.43033436, -914305.44, 730291.5, 0.005812209, 10.006493, 9.99794 
2.7665827e+3, 1.4218198e+2, -1321756.3, -1558821.4, -21030.135, 0.30135784, 0.5134504, -1319905.1, 226747.94, 0.0029674415, 10.002375, 9.999241 
2.766249e+3, 1.5217344e+2, -1271555.8, -1291373.9, -15967.774, 0.28586072, 0.14388934, -1262672.3, 186053.75, 0.0010277871, 10.00129, 10.0008745 
2.7659154e+3, 1.621665e+2, -1327773.9, -1383619.6, -36545.04, 0.25272706, -0.06308094, -1309705.1, 41081.164, 0.00020336722, 10.000672, 9.999909 
2.7655804e+3, 1.7216392e+2, -1040800.56, -1156011.9, 9638.847, 0.08937077, 0.21085386, -1039999.75, 212814.8, 0.000016580547, 10.001863, 10.000178 
2.765247e+3, 1.8216032e+2, -931936.5, -1160297.6, 100057.63, 0.003343075, 0.41764796, -894298.94, 260554.11, 0.00000009587778, 10.002348, 9.999283 
2.7649188e+3, 1.9215289e+2, -869681.25, -1010655.56, 34514.645, 0.24340114, 0.24565051, -861684.6, 195241.86, 0.0, 10.001866, 9.999827 
2.7645895e+3, 2.0214568e+2, -1065545.6, -1301229.0, -36753.953, 0.36793554, 0.15412442, -1059947.0, -100948.625, 0.0, 10.000853, 9.997702 
2.7642548e+3, 2.1213906e+2, -1113489.5, -1267588.0, 75635.65, 0.029757688, 0.26075098, -1082569.5, -221500.77, 0.0, 9.999871, 9.9976845 
2.7639207e+3, 2.221331e+2, -1047591.1, -1057223.8, 49507.445, -0.18373054, 0.4044224, -1002666.25, -239532.8, 0.0, 9.999088, 9.998856 
2.7635887e+3, 2.3212856e+2, -736251.94, -701937.9, -38532.113, 0.1139961, 0.5008841, -676915.7, -11732.96, 0.0, 9.999929, 10.000178 
2.7632567e+3, 2.4212322e+2, -734556.75, -838724.06, 39928.586, 0.36415154, 0.5553377, -721012.7, -153776.33, 0.0, 10.0000105, 9.998574 
2.762926e+3, 2.5211495e+2, -653236.44, -709959.75, 77919.875, 0.38427842, 0.38857013, -598677.06, -129366.5, 0.0, 9.999764, 9.998862 
2.7625933e+3, 2.621071e+2, -629590.1, -695874.06, 4327.798, 0.31980637, 0.27684644, -629308.75, -257926.69, 0.0, 9.999444, 9.998477 
2.7622566e+3, 2.7210084e+2, -406801.38, -451480.47, -41408.555, 0.040470272, 0.2881121, -382090.7, -108646.36, 0.0, 9.99998, 9.9991865 
2.7619216e+3, 2.820946e+2, -270206.3, -292765.5, 66860.91, -0.14830838, 0.27942687, -213680.22, -38176.836, 0.0, 10.000002, 9.99964 
2.761592e+3, 2.9208785e+2, -38873.19, -3523.295, 111417.36, -0.057120856, 0.093179196, 91612.36, 169171.94, 0.0, 10.000415, 10.000721 
2.7612618e+3, 3.020813e+2, -78277.8, -192427.88, -7080.193, 0.07515131, -0.014079139, -77840.32, -77840.32, 0.0, 10.000366, 9.998823 
2.7609316e+3, 3.1207505e+2, -13027.3, -101530.59, -102349.39, 0.58989865, -0.0018878645, 54227.133, 54227.133, 0.0, 10.000329, 9.99911 
2.7605855e+3, 3.2206878e+2, -372959.75, -486629.88, -164762.34, -0.38225752, 0.11959258, -255505.23, -255505.23, 0.0, 9.998748, 9.997215 
2.7769163e+3, 1.3251625e+2, -990328.8, -1533412.3, -188130.75, 0.2507057, -0.016401004, -931525.1, 709840.0, 0.0036787125, 10.005739, 9.998407 
2.7765808e+3, 1.4251244e+2, -1337113.1, -1565847.9, -55186.48, 0.4423716, 0.2593859, -1324494.5, 218904.92, 0.0018012314, 10.002271, 9.999235 
2.7762443e+3, 1.5250401e+2, -1284617.9, -1356489.6, -12922.782, 0.2535843, -0.051273122, -1282365.0, 163112.83, 0.000585267, 10.001447, 10.000349 
2.77591e+3, 1.6249755e+2, -1201276.3, -1221449.6, 10218.611, 0.14431393, -0.20759282, -1197004.6, 150532.92, 0.0001050167, 10.001075, 10.000831 
2.775577e+3, 1.7249615e+2, -915236.44, -940937.25, 79881.91, 0.118602306, 0.058005087, -847177.94, 402371.2, 0.0000068884756, 10.002034, 10.00158 
2.7752444e+3, 1.8249302e+2, -1011197.5, -1392884.0, 111894.21, 0.027932175, 0.29302192, -980813.6, 170769.61, 0.00000000965895, 10.002634, 9.997545 
2.7749115e+3, 1.9248468e+2, -1051750.5, -1431126.9, 33183.46, -0.13521567, 0.31946868, -1048869.9, 4809.5244, 0.0, 10.0020275, 9.996878 
2.77458e+3, 2.0247714e+2, -857716.75, -938438.9, -60927.355, -0.1606885, 0.29896253, -824994.6, 130765.76, 0.0, 10.001129, 10.000056 
2.7742496e+3, 2.1247166e+2, -844074.56, -704626.8, 59883.785, 0.08031499, 0.16098534, -682440.5, 175363.45, 0.0, 9.99985, 10.001564 
2.7739185e+3, 2.2246681e+2, -1023248.44, -1042450.0, 99219.23, 0.24838606, 0.17838904, -933166.56, -173318.33, 0.0, 9.999204, 9.998918 
2.7735853e+3, 2.3246297e+2, -812672.4, -922782.25, 25201.906, 0.3198116, 0.49906018, -807178.3, -145279.38, 0.0, 10.000154, 9.998589 
2.7732518e+3, 2.4245793e+2, -627593.0, -755042.25, 50388.605, 0.33453295, 0.6814036, -610078.25, -46122.426, 0.0, 10.000601, 9.998855 
2.7729183e+3, 2.524495e+2, -591786.6, -624005.06, 87152.766, 0.19383587, 0.45962405, -519266.78, -53235.254, 0.0, 9.999941, 9.999376 
2.7725855e+3, 2.6244158e+2, -593997.7, -648872.6, 71171.41, 0.14839284, 0.3103059, -545158.1, -177054.5, 0.0, 9.99954, 9.998754 
2.7722538e+3, 2.724352e+2, -377809.16, -455044.22, 35913.082, 0.29342353, 0.3255767, -363690.9, -93524.87, 0.0, 10.000218, 9.999066 
2.7719212e+3, 2.8242904e+2, -205733.23, -290516.94, 115641.4, 0.3008681, 0.34895316, -124958.52, 47266.156, 0.0, 10.000536, 9.999395 
2.7715868e+3, 2.9242328e+2, -87044.0, -94656.7, 94817.19, -0.05451511, 0.32038862, 4043.2073, 78318.875, 0.0, 10.000318, 10.000154 
2.7712536e+3, 3.0241683e+2, -151603.38, -311723.7, -49185.91, -0.19978641, 0.28664076, -137701.4, -137701.4, 0.0, 10.000185, 9.998084 
2.7709252e+3, 3.1240836e+2, -36963.453, -215395.86, -143068.77, 0.4443195, 0.15989798, 42427.0, 42427.0, 0.0, 10.000578, 9.998204 
2.770585e+3, 3.2240063e+2, -29367.383, -336149.7, -281969.06, 0.09877922, 0.20662174, 138232.75, 138232.75, 0.0, 10.001131, 9.997097 
2.786917e+3, 1.3285112e+2, -1110707.5, -1397027.9, -230055.55, 0.4240564, 0.038278714, -982905.7, 655181.7, 0.0021632467, 10.004088, 10.0001135 
2.786577e+3, 1.4284843e+2, -1324914.3, -1593708.9, 16985.518, 0.386942, 0.32684487, -1323845.3, 216260.75, 0.0010047747, 10.002478, 9.998951 
2.7862403e+3, 1.5284e+2, -1186186.3, -1397374.1, 68564.56, 0.16673711, 0.08948544, -1165878.8, 276307.8, 0.00030023578, 10.002485, 9.999578 
2.7859056e+3, 1.6283305e+2, -1105392.1, -1248643.9, 66461.64, 0.083382964, -0.032440998, -1079307.1, 264945.3, 0.000046417168, 10.002073, 10.000159 
2.7855736e+3, 1.7282966e+2, -1065280.8, -1076288.6, 11261.678, 0.14031921, 0.0827203, -1058250.0, 188032.8, 0.0000020738605, 10.001299, 10.001004 
2.785241e+3, 1.8282518e+2, -1401489.9, -1655636.0, -7877.6543, 0.09230631, 0.24486575, -1401246.0, -252916.9, 0.00000000000031198744, 10.000295, 9.996865 
2.784907e+3, 1.9281717e+2, -1411566.3, -1662567.4, 77570.055, -0.15948024, 0.33834413, -1389528.6, -339105.44, 0.0, 9.999821, 9.996337 
2.7845743e+3, 2.0280993e+2, -1046695.8, -959003.7, 62215.6, -0.22808146, 0.36585265, -926736.3, 25764.658, 0.0, 9.999584, 10.000637 
2.784245e+3, 2.1280457e+2, -621658.25, -474266.4, -31481.736, 0.13264842, 0.13316004, -467823.78, 386714.6, 0.0, 10.000892, 10.0026245 
2.7839148e+3, 2.2279969e+2, -750149.94, -963392.25, -101308.65, 0.3993795, 0.08852337, -709694.5, 46884.37, 0.0, 10.001345, 9.998413 
2.7835807e+3, 2.3279548e+2, -694356.06, -939567.3, -80104.26, 0.3737908, 0.41135627, -670507.5, -11873.827, 0.0, 10.001328, 9.997881 
2.7832463e+3, 2.4279027e+2, -589215.6, -791219.94, -32230.436, 0.26683402, 0.63137007, -584197.75, -23503.742, 0.0, 10.00114, 9.998347 
2.782912e+3, 2.527822e+2, -353214.97, -525481.25, -69649.84, 0.038287483, 0.45375288, -328577.97, 134192.16, 0.0, 10.001696, 9.999195 
2.7825788e+3, 2.627747e+2, -359281.7, -541425.1, -115731.58, -0.0053717224, 0.3448221, -303085.44, 61754.43, 0.0, 10.00121, 9.998684 
2.7822492e+3, 2.7276838e+2, -422851.7, -458020.7, -108328.66, 0.3777942, 0.3327004, -330689.6, -63790.336, 0.0, 9.999861, 9.9992075 
2.781918e+3, 2.8276256e+2, -503009.4, -478685.97, 6204.292, 0.50887996, 0.38261494, -477194.8, -308240.5, 0.0, 9.998729, 9.998968 
2.7815822e+3, 2.9275742e+2, -314682.88, -268283.9, 20047.307, -0.008997438, 0.45713964, -260822.17, -189818.66, 0.0, 9.9990635, 9.999556 
2.781247e+3, 3.0275118e+2, -350218.4, -455713.47, -75782.26, -0.33092737, 0.5037651, -310633.63, -310633.63, 0.0, 9.999066, 9.997638 
2.780918e+3, 3.1274188e+2, -281045.34, -346697.56, -71374.01, 0.25395402, 0.29974288, -235310.63, -235310.63, 0.0, 9.999009, 9.9980545 
2.7805862e+3, 3.227336e+2, -192386.64, -386863.94, -124852.22, 0.6501033, 0.31515825, -131374.13, -131374.13, 0.0, 9.999896, 9.997372 
2.7969158e+3, 1.331891e+2, -1058329.9, -1119692.9, -323143.34, 0.42222473, 0.2817912, -764414.75, 870373.2, 0.001162559, 10.003332, 10.002396 
2.796572e+3, 1.4318764e+2, -1291139.3, -1601831.6, -835.26624, 0.17531098, 0.57954234, -1291137.0, 245652.11, 0.00050346105, 10.0028105, 9.9987335 
2.796236e+3, 1.5317962e+2, -1233278.8, -1500120.1, 79636.42, 0.034738567, 0.45516384, -1211319.1, 227546.69, 0.00013422777, 10.002515, 9.998857 
2.795902e+3, 1.6317156e+2, -1214671.6, -1509009.1, 56968.125, 0.028416887, 0.34392864, -1204030.4, 136913.17, 0.00001642319, 10.002197, 9.9983225 
2.7955693e+3, 1.731637e+2, -1193841.0, -1386815.1, 3901.7026, 0.123686194, 0.24351089, -1193762.1, 49258.258, 0.0000003300107, 10.0014715, 9.9988 
2.795237e+3, 1.8315674e+2, -1243655.3, -1426655.1, -8721.679, 0.17544346, 0.2358115, -1243240.5, -98150.69, 0.0, 10.000668, 9.998275 
2.794905e+3, 1.9315039e+2, -1229851.8, -1333895.9, 82999.91, 0.19742735, 0.29910272, -1183918.4, -136761.94, 0.0, 9.999994, 9.99853 
2.794573e+3, 2.031441e+2, -1075097.6, -1108197.0, 118234.39, 0.17711924, 0.341302, -972260.3, -23041.166, 0.0, 9.999968, 9.999421 
2.7942407e+3, 2.131376e+2, -743404.3, -812641.6, 35628.23, 0.10935203, 0.24157149, -728345.8, 122930.09, 0.0, 10.001255, 10.0001335 
2.7939084e+3, 2.2313102e+2, -617665.56, -873649.3, -94486.95, 0.10434495, 0.17397228, -586567.2, 166768.45, 0.0, 10.002094, 9.998668 
2.793575e+3, 2.3312417e+2, -556595.7, -781544.4, -86971.914, 0.17526108, 0.16088468, -526892.0, 128512.07, 0.0, 10.0018425, 9.998716 
2.7932417e+3, 2.4311757e+2, -546044.75, -876472.94, -10785.964, 0.1700517, 0.22851159, -545693.0, 11780.254, 0.0, 10.001857, 9.997418 
2.7929085e+3, 2.5311062e+2, -336623.72, -708007.9, -60539.46, 0.01635487, 0.3275485, -327004.3, 132545.78, 0.0, 10.002565, 9.997556 
2.7925748e+3, 2.631039e+2, -166043.03, -378590.34, -208756.38, -0.082226895, 0.3690589, -38066.15, 323552.1, 0.0, 10.002191, 9.999336 
2.7922392e+3, 2.730976e+2, -332754.53, -314631.16, -219930.73, -0.057329718, 0.27321044, -103575.49, 160096.38, 0.0, 10.0000105, 10.000132 
2.7919066e+3, 2.8309155e+2, -494141.25, -410552.0, -19128.709, 0.07597522, 0.22275458, -406382.53, -240656.95, 0.0, 9.998521, 9.999513 
2.7915785e+3, 2.9308575e+2, -335891.56, -253546.4, 11059.521, 0.30250803, 0.20879072, -252086.9, -184305.33, 0.0, 9.998801, 9.999772 
2.7912465e+3, 3.0308035e+2, -202415.06, -120545.5, -73511.92, 0.3168902, 0.23031661, -77339.57, -77339.57, 0.0, 9.998901, 10.000027 
2.7909115e+3, 3.1307548e+2, -113730.71, 39267.82, -25261.965, 0.3202289, 0.20934987, 43330.98, 43330.98, 0.0, 9.998802, 10.000829 
2.7905762e+3, 3.2307166e+2, -132562.7, -152352.23, 101753.914, 0.26492652, 0.44507757, -40223.598, -40223.598, 0.0, 9.999383, 9.999235 
2.806909e+3, 1.335242e+2, -1513759.1, -1455123.5, -224656.19, 0.16936693, 0.35448724, -1257880.3, 373624.3, 0.00056259136, 10.00068, 10.001386 
2.8065714e+3, 1.4352223e+2, -976157.7, -1464853.1, -156004.05, 0.25042665, 0.6508944, -930603.56, 602911.8, 0.0002248401, 10.005055, 9.998594 
2.8062353e+3, 1.5351371e+2, -1101641.8, -1422284.1, -78752.26, 0.23075137, 0.44259542, -1083343.8, 352250.34, 0.00005269784, 10.003346, 9.999001 
2.8059006e+3, 1.6350561e+2, -1244638.0, -1581869.0, 15701.715, 0.22683875, 0.3371084, -1243908.5, 93763.1, 0.0000047753, 10.002287, 9.997752 
2.8055662e+3, 1.7349799e+2, -1006332.0, -1374764.9, 58491.918, 0.1141837, 0.30896172, -997268.9, 242480.38, 0.00000002399446, 10.003105, 9.998073 
2.8052333e+3, 1.8349071e+2, -826048.06, -1167107.4, 76735.96, 0.10827605, 0.29969102, -809578.3, 332242.9, 0.0, 10.003357, 9.998734 
2.8049022e+3, 1.9348419e+2, -717286.9, -982736.4, 61578.74, 0.29567268, 0.2612487, -703697.56, 340184.75, 0.0, 10.003134, 9.9994 
2.8045702e+3, 2.0347768e+2, -859806.44, -1148899.1, 81342.375, 0.33784115, 0.28045306, -838490.75, 107453.4, 0.0, 10.002079, 9.998128 
2.8042364e+3, 2.1347065e+2, -955413.75, -1085485.6, 80304.734, 0.10890355, 0.26860958, -917112.75, -69100.89, 0.0, 10.000551, 9.998588 
2.803903e+3, 2.2346333e+2, -941818.5, -1028183.5, 9322.215, -0.015063034, 0.22420137, -940823.7, -190742.72, 0.0, 9.999927, 9.998647 
2.8035703e+3, 2.3345502e+2, -610313.3, -753967.4, -20856.861, 0.086841345, 0.025349237, -607346.44, 44810.723, 0.0, 10.001283, 9.999178 
2.8032374e+3, 2.4344751e+2, -706708.25, -1017478.56, 42016.797, 0.12265638, 0.00802822, -701127.7, -146895.19, 0.0, 10.001075, 9.996817 
2.8029045e+3, 2.5344115e+2, -904201.75, -1048851.9, 76954.5, 0.03142341, 0.22706999, -870919.44, -414610.3, 0.0, 9.99902, 9.996895 
2.8025696e+3, 2.63435e+2, -704649.5, -617743.25, -39165.402, -0.112373605, 0.37292784, -602697.6, -244322.84, 0.0, 9.998451, 9.99948 
2.8022313e+3, 2.7342874e+2, -142265.86, -170784.42, -100116.67, -0.32497868, 0.24404928, -55398.12, 205026.92, 0.0, 10.001124, 10.000568 
2.8018978e+3, 2.834222e+2, -99086.71, -232386.11, 49834.8, -0.21690463, 0.13610794, -82515.68, 79965.79, 0.0, 10.001309, 9.999402 
2.801574e+3, 2.9341492e+2, -373363.2, -263037.9, 48250.75, 0.48059815, -0.029515447, -244913.1, -180361.02, 0.0, 9.998547, 9.999827 
2.8012437e+3, 3.0341017e+2, -349929.94, 2565.1526, -70774.805, 0.709124, -0.012923375, 16244.619, 16244.619, 0.0, 9.997105, 10.001719 
2.8009054e+3, 3.1340963e+2, -26481.238, 324802.56, -101615.93, 0.35274327, 0.18337816, 352079.06, 352079.06, 0.0, 9.998394, 10.002963 
2.800565e+3, 3.234087e+2, -102041.96, 39091.926, 50398.26, -0.2737289, 0.50072336, 55241.063, 55241.063, 0.0, 9.998947, 10.000713 
2.816901e+3, 1.3385794e+2, -1619451.3, -1795014.1, 67295.51, -0.21114837, 0.34637648, -1596624.0, 31605.018, 0.0002458616, 10.001191, 9.998814 
2.8165728e+3, 1.4385413e+2, -1021908.75, -1433211.5, -164413.58, 0.4418658, 0.59513533, -964265.0, 566001.8, 0.00009057798, 10.004506, 9.99908 
2.816237e+3, 1.5384445e+2, -1063226.0, -1309141.5, -127933.21, 0.6020793, 0.19299611, -1008742.2, 423609.8, 0.000018083496, 10.003192, 9.999859 
2.8159007e+3, 1.6383703e+2, -1158914.6, -1448984.6, 43389.844, 0.53911287, 0.07352208, -1152563.4, 181857.67, 0.000001252134, 10.002465, 9.998588 
2.8155634e+3, 1.7383297e+2, -946322.75, -1267771.8, 116439.17, 0.057577316, 0.34199712, -908577.0, 327889.03, 0.0000000065346386, 10.003171, 9.998784 
2.8152287e+3, 1.8382701e+2, -806193.44, -1170738.1, 84366.164, -0.15574887, 0.43895304, -787615.44, 350909.44, 0.0, 10.003571, 9.998587 
2.814898e+3, 1.9381823e+2, -721266.56, -1042700.25, 75632.0, 0.08373871, 0.2273259, -704359.9, 336245.0, 0.0, 10.003346, 9.99889 
2.8145662e+3, 2.0381042e+2, -799157.06, -1123006.9, 39285.16, 0.22403163, 0.15157598, -794459.6, 148218.64, 0.0, 10.002482, 9.9981165 
2.8142318e+3, 2.1380384e+2, -947563.8, -1104064.5, 40155.69, 0.16722351, 0.21137975, -937861.94, -93117.695, 0.0, 10.000665, 9.99842 
2.813899e+3, 2.2379707e+2, -899698.2, -994615.9, 75662.79, 0.1393995, 0.23145272, -857841.9, -111031.195, 0.0, 10.000137, 9.998779 
2.8135675e+3, 2.337896e+2, -550804.5, -733796.44, 71055.09, 0.17836219, 0.12943953, -526454.3, 122427.31, 0.0, 10.001691, 9.999136 
2.813234e+3, 2.4378254e+2, -555908.3, -793915.2, -4037.7383, 0.1788743, 0.10811939, -555839.8, -4887.692, 0.0, 10.001434, 9.998176 
2.8128982e+3, 2.537761e+2, -899397.75, -885529.6, 31551.664, 0.09932361, 0.18804644, -860159.06, -407136.4, 0.0, 9.998342, 9.998347 
2.8125638e+3, 2.6377028e+2, -779310.56, -677800.25, 158276.61, 0.05737486, 0.29629064, -562339.94, -207258.06, 0.0, 9.997992, 9.999307 
2.8122318e+3, 2.7376506e+2, -42727.45, -214003.17, 119605.44, 0.059516124, 0.35476518, 18737.729, 275864.3, 0.0, 10.002136, 9.999819 
2.811898e+3, 2.8375795e+2, 117917.91, -189243.36, 9483.367, 0.061449315, 0.26730853, 118210.414, 277401.0, 0.0, 10.003005, 9.998906 
2.811563e+3, 2.937479e+2, -371404.03, -334899.8, -47125.227, 0.07483572, -0.097718686, -302615.53, -241328.56, 0.0, 9.998829, 9.999227 
2.8112292e+3, 3.0374265e+2, -443566.38, -132390.05, -161.15056, 0.15843971, -0.063998654, -132389.95, -132389.95, 0.0, 9.996837, 10.000913 
2.8108996e+3, 3.1374457e+2, -65736.86, 178530.33, -71791.17, 0.5045494, 0.49607277, 198067.44, 198067.44, 0.0, 9.998638, 10.00185 
2.8105617e+3, 3.2373554e+2, -44916.38, 17316.557, -83274.914, 0.003846728, 0.080103315, 75098.6, 75098.6, 0.0, 9.999487, 10.000322 
2.8268972e+3, 1.3419041e+2, -1420134.1, -1788197.4, 94605.72, -0.27089676, 0.23431887, -1397240.9, 227719.23, 0.00010338345, 10.003032, 9.997921 
2.8265697e+3, 1.4418525e+2, -1431181.9, -1683310.8, -158698.63, 0.38533255, 0.42625916, -1354570.5, 172446.34, 0.000034347617, 10.001971, 9.998553 
2.826233e+3, 1.5417677e+2, -1163989.9, -1403073.9, -204605.39, 0.48420665, 0.18061917, -1046564.25, 382532.47, 0.0000055031255, 10.002756, 9.9993925 
2.825897e+3, 1.6417035e+2, -1086405.3, -1336347.6, -63863.56, 0.458533, 0.14883465, -1071032.8, 260125.33, 0.0000002527922, 10.00266, 9.99926 
2.825561e+3, 1.7416678e+2, -1132499.0, -1259638.5, 2368.7952, 0.09742635, 0.36603138, -1132454.9, 100740.62, 0.0, 10.001521, 9.999628 
2.8252262e+3, 1.8416114e+2, -1129811.9, -1330222.3, 29461.951, -0.092726834, 0.44439662, -1125570.5, 9678.929, 0.0, 10.0013685, 9.998557 
2.8248954e+3, 1.9415213e+2, -802495.7, -1086001.4, 57021.723, 0.05630626, 0.19491176, -791456.7, 245874.73, 0.0, 10.002816, 9.998841 
2.824563e+3, 2.0414436e+2, -727170.5, -1056983.4, -11481.809, 0.19485056, 0.11374182, -726771.25, 212632.77, 0.0, 10.0029, 9.998353 
2.8242284e+3, 2.1413817e+2, -811162.4, -1004508.1, 19929.844, 0.25920516, 0.17118675, -809129.44, 32336.166, 0.0, 10.001497, 9.998694 
2.823895e+3, 2.24132e+2, -887927.0, -1019725.6, 160916.11, 0.23904541, 0.25906858, -779939.25, -36411.22, 0.0, 10.000402, 9.998462 
2.8235626e+3, 2.3412536e+2, -809856.8, -881588.6, 146341.22, 0.14416519, 0.25888908, -695050.5, -49455.05, 0.0, 10.000072, 9.998877 
2.8232285e+3, 2.4411866e+2, -700326.25, -783036.25, -47714.867, 0.0976608, 0.26256502, -678539.0, -130876.59, 0.0, 10.000137, 9.998873 
2.8228918e+3, 2.5411177e+2, -501037.7, -590804.8, -70046.76, 0.115507536, 0.1931544, -462728.22, -12997.677, 0.0, 10.000661, 9.999251 
2.8225586e+3, 2.6410583e+2, -455468.84, -574984.0, 187426.64, 0.1747057, 0.259241, -318504.0, 33283.883, 0.0, 10.0005, 9.998788 
2.8222305e+3, 2.7410075e+2, -332997.88, -416125.78, 197942.23, 0.3149723, 0.3744047, -172302.86, 81531.625, 0.0, 10.000458, 9.999221 
2.821896e+3, 2.8409344e+2, -303744.63, -445042.9, -77165.16, 0.194718, 0.32443643, -269771.78, -113869.23, 0.0, 10.000385, 9.998392 
2.821553e+3, 2.940824e+2, -191114.06, -287654.66, -106503.766, -0.28385472, -0.11691257, -122452.445, -64445.344, 0.0, 10.000255, 9.998857 
2.8212175e+3, 3.040767e+2, -120413.32, -129468.35, 98108.75, -0.27505356, -0.039038006, -26727.67, -26727.67, 0.0, 9.999748, 9.999526 
2.820895e+3, 3.1407896e+2, -1710.4088, 49466.89, 38596.11, 0.66691524, 0.690411, 70186.33, 70186.33, 0.0, 9.999789, 10.000401 
2.8205582e+3, 3.240622e+2, -62483.355, -43837.105, -31624.809, 0.22085176, -0.3942918, -20189.8, -20189.8, 0.0, 9.999644, 9.999802 
2.8368953e+3, 1.345221e+2, -1427377.8, -1799364.4, -1629.7175, -0.25415424, 0.032867327, -1427370.6, 194325.33, 0.000047312235, 10.00297, 9.997894 
2.8365636e+3, 1.4451624e+2, -1457516.5, -1800623.0, -118719.13, 0.13417426, 0.20806256, -1420443.9, 103319.88, 0.0000143478965, 10.0022335, 9.9976225 
2.8362253e+3, 1.545103e+2, -1250503.0, -1583603.3, -132600.69, 0.0135065885, 0.3416279, -1204163.8, 221667.75, 0.0000019516297, 10.002757, 9.998154 
2.8358907e+3, 1.6450462e+2, -1019652.94, -1202628.8, -69107.16, 0.08172773, 0.41108188, -996485.56, 331404.47, 0.00000005936716, 10.002661, 10.00018 
2.835558e+3, 1.7449915e+2, -1048869.9, -1122429.1, -15007.142, 0.22052515, 0.35396838, -1045926.0, 184013.6, 0.0, 10.001636, 10.000533 
2.8352258e+3, 1.8449314e+2, -1028747.1, -1200157.6, 90865.5, 0.23586853, 0.3104845, -989544.7, 142450.3, 0.0, 10.00166, 9.999329 
2.834894e+3, 1.9448598e+2, -718811.75, -976978.94, 131178.22, 0.18631044, 0.19174245, -663856.5, 370205.28, 0.0, 10.003052, 9.999494 
2.8345612e+3, 2.0447958e+2, -596321.94, -857845.56, -44368.62, 0.24308006, 0.15707225, -588999.6, 347121.22, 0.0, 10.003201, 9.999578 
2.834226e+3, 2.1447387e+2, -679726.6, -823575.25, -1963.9633, 0.3637524, 0.16638756, -679699.8, 158473.42, 0.0, 10.001868, 9.999769 
2.8338903e+3, 2.2446832e+2, -849782.9, -1038443.06, 165219.8, 0.2527406, 0.2781565, -753861.2, -13630.545, 0.0, 10.000795, 9.998153 
2.8335547e+3, 2.344627e+2, -843467.75, -962954.7, 147631.36, -0.119604796, 0.4455112, -743949.5, -101653.805, 0.0, 10.000084, 9.998329 
2.8332204e+3, 2.4445617e+2, -657140.06, -751875.5, 17874.283, -0.19533437, 0.49354243, -653879.8, -109517.97, 0.0, 10.000357, 9.99899 
2.8328875e+3, 2.544484e+2, -327239.22, -514064.94, -2313.5276, 0.065321766, 0.3544007, -327210.6, 119221.234, 0.0, 10.001834, 9.99923 
2.832555e+3, 2.6444077e+2, -244778.13, -453036.66, 162611.72, 0.17703298, 0.23893449, -155812.92, 192690.02, 0.0, 10.001826, 9.99899 
2.832223e+3, 2.744331e+2, -383316.78, -444215.16, 148252.67, 0.11195626, 0.10810401, -262418.66, -11842.581, 0.0, 10.000118, 9.999196 
2.8318888e+3, 2.8442675e+2, -295426.22, -311708.25, -9622.193, 0.0671422, 0.097395964, -290963.16, -138327.78, 0.0, 9.999858, 9.999571 
2.831551e+3, 2.9442117e+2, 60955.15, -64655.2, -8646.178, -0.020249574, 0.11916457, 61547.5, 116232.95, 0.0, 10.001522, 9.999789 
2.8312173e+3, 3.0441478e+2, 110822.266, -178109.14, 153474.8, 0.11083859, 0.14946114, 177128.61, 177128.61, 0.0, 10.001986, 9.998126 
2.8308916e+3, 3.1440827e+2, 54464.33, -138655.83, 61448.14, 0.8041394, 0.19221108, 72358.27, 72358.27, 0.0, 10.001053, 9.998521 
2.8305513e+3, 3.2440087e+2, -41326.906, -170178.42, -8150.9116, 0.08365119, 0.21415998, -40813.34, -40813.34, 0.0, 10.000344, 9.998613 
2.8468952e+3, 1.3485464e+2, -1221116.3, -1538693.9, -33887.43, -0.04280672, -0.061445426, -1217540.5, 400897.47, 0.000024810672, 10.003663, 9.9993725 
2.8465596e+3, 1.4485148e+2, -1239068.5, -1667127.9, -72218.445, 0.003113694, 0.29155594, -1227212.8, 293261.6, 0.0000075134353, 10.003619, 9.9978695 
2.8462213e+3, 1.5484427e+2, -1199110.6, -1551541.3, -10869.338, -0.12368354, 0.29076463, -1198775.8, 223781.0, 0.0000012508747, 10.003082, 9.998215 
2.845887e+3, 1.6483824e+2, -1048293.8, -1252075.3, 56490.477, 0.007948263, 0.3498674, -1033681.75, 290938.47, 0.000000073245815, 10.002647, 9.9998255 
2.8455555e+3, 1.7483288e+2, -972853.25, -1128482.9, 23310.2, 0.3267809, 0.34311873, -969436.9, 257231.75, 0.0, 10.002367, 10.000121 
2.8452232e+3, 1.8482703e+2, -1043076.94, -1123446.9, 115462.51, 0.37607157, 0.30559292, -961006.3, 167715.86, 0.0, 10.001245, 10.000048 
2.8448898e+3, 1.9482046e+2, -1203190.4, -1133712.3, 155897.83, 0.17981216, 0.16445541, -1008729.9, 22053.363, 0.0, 9.999419, 10.00017 
2.8445563e+3, 2.048149e+2, -1082725.8, -1054827.6, -17385.18, 0.18718928, 0.16876432, -1046487.2, -113652.74, 0.0, 9.999714, 9.999894 
2.8442222e+3, 2.1480995e+2, -653654.0, -785013.0, -39820.484, 0.37094662, 0.20406403, -642525.5, 192353.83, 0.0, 10.001943, 9.999994 
2.8438863e+3, 2.2480409e+2, -727807.0, -1059127.4, 54507.992, 0.25659037, 0.3099699, -719069.9, 17870.244, 0.0, 10.002001, 9.997419 
2.8435487e+3, 2.3479742e+2, -867928.3, -1054341.6, 33662.438, -0.18946046, 0.41760066, -862035.8, -223018.58, 0.0, 10.000274, 9.997606 
2.8432143e+3, 2.4479087e+2, -722689.9, -779018.0, -3006.6606, -0.275909, 0.491154, -722529.9, -181446.11, 0.0, 9.999948, 9.998975 
2.8428835e+3, 2.5478366e+2, -442237.06, -571612.7, -10845.267, 0.06877334, 0.3867385, -441334.25, 1811.4872, 0.0, 10.001119, 9.999152 
2.842551e+3, 2.6477563e+2, -390752.97, -561195.06, 42968.535, 0.13808616, 0.25514045, -380533.34, -35312.516, 0.0, 10.001039, 9.998609 
2.8422156e+3, 2.7476645e+2, -475816.44, -530769.2, -647.76965, -0.09877191, -0.01594394, -475808.8, -228496.78, 0.0, 9.999693, 9.998795 
2.8418818e+3, 2.847609e+2, -336243.78, -260983.36, -85835.125, -0.050875694, 0.03986122, -204892.17, -55528.063, 0.0, 9.999325, 10.000152 
2.8415498e+3, 2.9475898e+2, -62288.67, -53213.68, -107448.73, 0.27719024, 0.33519775, 49793.316, 101170.17, 0.0, 10.000401, 10.000396 
2.841217e+3, 3.047516e+2, -107191.1, -411605.72, 44.97281, 0.41148943, 0.2836893, -107191.09, -107191.09, 0.0, 10.001089, 9.996935 
2.840886e+3, 3.1473792e+2, -3957.3228, -309449.44, 434.83014, 0.66868156, -0.28813714, -3956.7039, -3956.7039, 0.0, 10.001308, 9.997203 
2.8405446e+3, 3.2474202e+2, -123182.12, -301098.9, 34974.83, -0.11398061, 0.9723146, -116553.73, -116553.73, 0.0, 10.000231, 9.997735 
2.8568953e+3, 1.3518852e+2, -1152856.9, -1258659.1, 3928.4956, 0.1355582, -0.059518714, -1152711.1, 462462.13, 0.000013007372, 10.003031, 10.001623 
2.8565568e+3, 1.4518876e+2, -1257130.5, -1560264.1, -77773.6, -0.08369183, 0.49023974, -1238341.1, 278825.66, 0.0000037394736, 10.002969, 9.998927 
2.8562194e+3, 1.5517837e+2, -1161655.8, -1431507.3, -8429.479, -0.070695914, 0.0765244, -1161392.8, 257884.16, 0.00000051506584, 10.002872, 9.999153 
2.8558853e+3, 1.6517171e+2, -1117215.5, -1408805.9, 57392.605, 0.10977979, 0.07994272, -1106325.9, 215020.77, 0.00000002542409, 10.0027, 9.998727 
2.8555533e+3, 1.7516811e+2, -1045333.1, -1294580.0, 41086.363, 0.3676436, 0.37939218, -1038735.0, 184647.06, 0.0, 10.00243, 9.99895 
2.8552186e+3, 1.8516275e+2, -946945.44, -957309.94, 68339.04, 0.31586888, 0.3996622, -883592.44, 241838.98, 0.0, 10.001387, 10.001115 
2.8548822e+3, 1.9515564e+2, -1115143.0, -983379.7, 118731.11, 0.0023853553, 0.11951249, -913476.7, 114018.35, 0.0, 9.9995365, 10.001154 
2.8545487e+3, 2.051504e+2, -1087031.6, -1117477.0, 89692.69, -0.010653087, 0.13368571, -1011278.94, -81734.484, 0.0, 9.999896, 9.9993925 
2.8542176e+3, 2.1514648e+2, -643085.8, -844131.3, 68481.195, 0.23390557, 0.3427403, -621975.94, 209608.19, 0.0, 10.002248, 9.999454 
2.8538832e+3, 2.251388e+2, -694991.0, -1103448.5, 4182.779, 0.27432153, 0.31928554, -694948.2, 38713.68, 0.0, 10.002459, 9.996895 
2.8535467e+3, 2.3512751e+2, -842319.6, -1107344.5, -16744.135, 0.10348326, 0.037115153, -841265.9, -205489.67, 0.0, 10.00068, 9.997056 
2.8532124e+3, 2.4512003e+2, -640596.5, -708895.56, 45686.07, 0.07015489, 0.02872401, -617707.4, -79857.664, 0.0, 10.000331, 9.999289 
2.8528804e+3, 2.5511575e+2, -382597.2, -518515.6, 41246.313, 0.18510816, 0.20614268, -371059.78, 68828.4, 0.0, 10.00137, 9.9994135 
2.852546e+3, 2.6511028e+2, -434479.75, -675234.4, -223.95396, 0.101973526, 0.36012012, -434479.53, -92534.19, 0.0, 10.001121, 9.997795 
2.8522086e+3, 2.7510348e+2, -503640.2, -638112.8, -59909.484, -0.19710644, 0.4331146, -480821.7, -236799.11, 0.0, 9.999885, 9.997975 
2.851876e+3, 2.8509673e+2, -326003.7, -318289.72, -87333.234, -0.043510858, 0.4277982, -234728.34, -88639.05, 0.0, 9.999602, 9.999647 
2.851547e+3, 2.9509026e+2, -119723.79, -155682.17, -143533.98, 0.5149502, 0.34265664, 6952.6597, 55096.723, 0.0, 10.000299, 9.999753 
2.851211e+3, 3.0508327e+2, 16974.443, -163320.08, -11522.659, 0.30289555, 0.27388963, 17707.875, 17707.875, 0.0, 10.001119, 9.99863 
2.850872e+3, 3.1507495e+2, 246124.75, -4247.428, 36442.344, -0.34693906, 0.078080036, 251321.19, 251321.19, 0.0, 10.002239, 9.998852 
2.850544e+3, 3.2507432e+2, 94321.17, 4444.686, -95149.35, 0.3259354, 0.6891995, 154610.52, 154610.52, 0.0, 10.00078, 9.99961 
2.8668895e+3, 1.3552721e+2, -1485643.6, -1423525.5, 76610.7, -0.06860341, 0.17700167, -1371917.4, 239938.19, 0.0000059629547, 10.000801, 10.001547 
2.866555e+3, 1.4552324e+2, -1587968.1, -1731340.9, -19544.8, 0.13935052, 0.3189381, -1585351.5, -71461.95, 0.0000015122073, 10.00078, 9.998797 
2.8662175e+3, 1.555158e+2, -1304323.8, -1523599.4, -12363.495, 0.05845773, 0.21037829, -1303628.9, 112341.57, 0.0000000966577, 10.002001, 9.998943 
2.8658822e+3, 1.6550913e+2, -1198460.3, -1434270.1, 29640.082, 0.12278338, 0.21597579, -1194791.8, 123246.016, 0.00000000026919006, 10.002101, 9.998846 
2.865548e+3, 1.7550349e+2, -1227061.9, -1386679.1, 79469.09, 0.23112734, 0.3009898, -1194243.9, 25846.654, 0.0, 10.001203, 9.998924 
2.8652126e+3, 1.8549757e+2, -1123419.0, -1108440.6, 72968.29, 0.18388674, 0.30489936, -1042578.2, 79567.85, 0.0, 10.000483, 10.000501 
2.8648767e+3, 1.9549091e+2, -1123905.0, -1053507.6, 12569.465, 0.02439384, 0.11423065, -1051330.8, -27122.627, 0.0, 9.999808, 10.000519 
2.8645438e+3, 2.0548575e+2, -1064932.0, -1120431.6, 79000.48, 0.021584773, 0.17258745, -1008949.4, -82690.45, 0.0, 10.000168, 9.999219 
2.8642133e+3, 2.1548168e+2, -789338.0, -941700.1, 83334.39, 0.17043641, 0.3651041, -752611.25, 75691.21, 0.0, 10.001417, 9.999165 
2.86388e+3, 2.2547367e+2, -664903.0, -1048343.4, 87.1734, 0.24531613, 0.30752167, -664902.94, 65478.965, 0.0, 10.00252, 9.997231 
2.8635445e+3, 2.3546177e+2, -468443.66, -895208.6, 54334.8, 0.2511514, -0.07635442, -461634.5, 170862.83, 0.0, 10.003172, 9.99729 
2.8632098e+3, 2.4545401e+2, -353552.97, -587537.44, 164491.4, 0.23366114, -0.10442135, -268692.28, 265880.1, 0.0, 10.002433, 9.999088 
2.8628764e+3, 2.554498e+2, -511018.78, -628239.44, 117133.39, 0.20341606, 0.093567654, -438650.47, -2037.6903, 0.0, 10.000723, 9.998966 
2.862541e+3, 2.6544532e+2, -491219.63, -757949.75, 77483.46, 0.036923043, 0.40761226, -470344.88, -131680.14, 0.0, 10.001014, 9.997255 
2.8622037e+3, 2.754402e+2, -145381.31, -528192.6, 70470.15, -0.25658992, 0.69440216, -132820.88, 107909.89, 0.0, 10.002648, 9.997388 
2.861871e+3, 2.8543255e+2, 20603.938, -226663.44, 64201.4, -0.040413063, 0.67816365, 36279.65, 179088.44, 0.0, 10.002349, 9.998945 
2.8615427e+3, 2.9542252e+2, -113602.83, -234813.66, 21514.787, 0.607508, 0.31134766, -109897.266, -64998.4, 0.0, 10.000718, 9.99901 
2.8612044e+3, 3.0541632e+2, -76349.83, -32646.598, 135749.52, 0.10485708, 0.29368123, 82998.77, 82998.77, 0.0, 9.999757, 10.000172 
2.86086e+3, 3.1541345e+2, -102694.3, -6862.4795, 135323.84, -1.1845074, 0.48713475, 88778.13, 88778.13, 0.0, 9.999154, 10.000319 
2.8605443e+3, 3.2540488e+2, 117491.47, 215845.48, -169688.23, 0.8756111, 0.15204631, 343339.0, 343339.0, 0.0, 10.000103, 10.001394 
2.876882e+3, 1.358669e+2, -1528183.8, -1574327.1, -26673.629, -0.37958333, 0.39152017, -1515988.1, 92537.54, 0.0000021473002, 10.001038, 10.000408 
2.8765538e+3, 1.4585662e+2, -1604227.6, -1797382.8, 24938.012, 0.47398272, -0.0069949017, -1601059.9, -90435.23, 0.00000043033984, 10.0009, 9.998291 
2.876215e+3, 1.5585572e+2, -1340401.0, -1596113.9, 58279.184, 0.1698443, 0.6025281, -1327745.0, 84898.72, 0.000000019645139, 10.001969, 9.998467 
2.875878e+3, 1.658491e+2, -1132401.6, -1286758.8, 10331.633, 0.030225541, 0.58296496, -1131713.1, 182993.14, 0.0, 10.002033, 9.999898 
2.8755406e+3, 1.7583874e+2, -1161446.1, -1264360.1, 65943.92, -0.0952899, 0.10944611, -1129258.5, 87538.516, 0.0, 10.001232, 9.999754 
2.8752062e+3, 1.8583155e+2, -1230117.0, -1374174.6, 52169.59, 0.0013437582, 0.044516534, -1213208.6, -94342.32, 0.0, 10.000626, 9.998627 
2.8748736e+3, 1.9582616e+2, -1214336.1, -1298573.6, 16106.905, 0.25655693, 0.18711366, -1211361.4, -190437.36, 0.0, 10.000016, 9.998753 
2.8745416e+3, 2.058205e+2, -971111.6, -1000763.75, 136683.45, 0.2931747, 0.24468398, -848452.5, 74530.51, 0.0, 10.00049, 9.999878 
2.8742096e+3, 2.158146e+2, -701951.44, -830987.8, 147114.94, 0.17004381, 0.2136538, -605829.0, 219214.38, 0.0, 10.001695, 9.999796 
2.873876e+3, 2.2580937e+2, -458192.0, -715569.3, 68087.07, 0.121625274, 0.29542282, -441290.06, 285805.16, 0.0, 10.002903, 9.999339 
2.873541e+3, 2.3580407e+2, -202260.06, -554381.7, 133409.13, 0.10919203, 0.38033566, -157424.06, 471722.1, 0.0, 10.004047, 9.99922 
2.873206e+3, 2.4579637e+2, -291206.97, -654389.4, 126590.52, 0.08669032, 0.3154942, -251437.55, 279781.94, 0.0, 10.003226, 9.998279 
2.87287e+3, 2.5578716e+2, -526964.3, -723286.0, 90952.29, 0.043267056, 0.12644054, -491304.84, -57997.613, 0.0, 10.000928, 9.998247 
2.872536e+3, 2.6578027e+2, -340955.8, -575953.1, 238610.05, -0.052459635, 0.18044277, -192483.27, 142895.72, 0.0, 10.001538, 9.998261 
2.8722027e+3, 2.7577484e+2, 171014.95, -277110.9, 235683.67, -0.19871278, 0.36421856, 272145.78, 509587.5, 0.0, 10.004363, 9.998294 
2.871869e+3, 2.857683e+2, 231265.64, -159473.36, 74526.81, -0.05936708, 0.4371916, 244997.75, 384507.22, 0.0, 10.003936, 9.9986515 
2.871535e+3, 2.9576057e+2, -35984.926, -228067.98, 53408.746, 0.28721958, 0.35325053, -22133.463, 19450.707, 0.0, 10.001365, 9.998754 
2.8711984e+3, 3.057547e+2, -115312.695, -43184.902, 200921.81, 0.092435814, 0.3851628, 124883.95, 124883.95, 0.0, 9.999425, 10.000261 
2.8708607e+3, 3.1575078e+2, -263415.38, -97205.98, 166137.4, -0.3731829, 0.48945677, 5452.681, 5452.681, 0.0, 9.998066, 10.000232 
2.8705356e+3, 3.2574278e+2, 51142.367, -34894.277, 35741.563, 0.5193594, 0.31971657, 64052.887, 64052.887, 0.0, 10.000584, 9.999417 
2.8868824e+3, 1.3620192e+2, -1224612.4, -1458142.1, -268319.1, 0.010174192, 0.45128757, -1048752.6, 556498.44, 0.0000003382392, 10.00325, 10.000129 
2.886547e+3, 1.4619178e+2, -1318955.0, -1486380.8, -22391.734, 0.22457391, -0.014398238, -1316012.0, 191331.55, 0.000000039050374, 10.002109, 9.999831 
2.8862116e+3, 1.5619084e+2, -1214215.4, -1419501.6, 90201.445, 0.15142687, 0.4445424, -1180213.3, 229138.08, 0.0000000006124831, 10.002339, 9.999504 
2.8858748e+3, 1.661844e+2, -1196659.5, -1398313.1, -189.18207, 0.07946008, 0.44238636, -1196659.4, 114752.23, 0.0, 10.001973, 9.999142 
2.8855363e+3, 1.7617393e+2, -1239618.3, -1393002.6, -46532.58, -0.09161398, 0.016075166, -1226605.5, -13096.33, 0.0, 10.001113, 9.998919 
2.8852013e+3, 1.8616667e+2, -1155062.0, -1403625.1, -10272.114, -0.011073934, 0.009312997, -1154638.1, -39056.438, 0.0, 10.00148, 9.997992 
2.8848696e+3, 1.9616142e+2, -910903.94, -1225800.1, 36793.563, 0.299555, 0.2169855, -906662.0, 110977.83, 0.0, 10.002444, 9.998082 
2.8845376e+3, 2.0615569e+2, -815645.8, -897082.7, 165819.2, 0.32941133, 0.2840772, -685618.8, 234081.81, 0.0, 10.001473, 10.000108 
2.8842047e+3, 2.1614936e+2, -1014336.4, -962229.0, 155761.19, 0.15765774, 0.18088563, -830357.56, -8592.0205, 0.0, 9.999511, 9.999939 
2.8838715e+3, 2.2614561e+2, -872574.6, -783113.75, 74046.7, 0.07862784, 0.34515443, -741335.7, -17532.043, 0.0, 9.999538, 10.000479 
2.883538e+3, 2.3614347e+2, -658966.9, -683383.4, 47199.984, 0.065688185, 0.6180926, -622421.9, 3403.1074, 0.0, 10.000563, 10.000009 
2.8832018e+3, 2.4613613e+2, -641449.94, -826330.75, -21827.684, 0.016590152, 0.54700375, -638907.9, -111013.99, 0.0, 10.000871, 9.99821 
2.8828642e+3, 2.5612497e+2, -633238.25, -795119.94, 48229.367, -0.06416888, 0.15716018, -619958.7, -189960.64, 0.0, 10.0003395, 9.998015 
2.882531e+3, 2.6611692e+2, -520364.66, -589891.9, 313475.4, -0.1174069, 0.070882924, -239731.16, 92346.19, 0.0, 10.000051, 9.998862 
2.882201e+3, 2.7611062e+2, -448472.53, -530420.7, 262752.4, -0.1290632, 0.09886684, -223518.63, 10623.632, 0.0, 9.99996, 9.998661 
2.881866e+3, 2.86105e+2, -280866.4, -418494.97, -11418.357, -0.08308378, 0.25316927, -279925.53, -143724.0, 0.0, 10.000522, 9.998493 
2.8815278e+3, 2.960994e+2, -146889.08, -318787.47, 3301.2998, -0.0051536905, 0.39097172, -146825.7, -108564.82, 0.0, 10.000809, 9.998384 
2.881193e+3, 3.060935e+2, -38545.543, -57360.867, 127287.34, 0.10466322, 0.46183783, 79681.31, 79681.31, 0.0, 10.000206, 9.999789 
2.8808615e+3, 3.160877e+2, -201283.92, -167136.66, 97188.21, 0.39806706, 0.42940083, -85533.766, -85533.766, 0.0, 9.998959, 9.999324 
2.8805247e+3, 3.260819e+2, -239715.6, -395027.63, 255581.52, -0.123938516, 0.5895023, -50252.96, -50252.96, 0.0, 9.999644, 9.997347 
2.8968847e+3, 1.3653567e+2, -1371432.9, -1504011.5, -331956.25, 0.47473407, 0.5057024, -1099211.9, 502781.44, 0.0000000028010363, 10.002094, 10.000386 
2.8965378e+3, 1.4652754e+2, -1162367.3, -1125862.5, 20627.238, -0.35863492, 0.08906851, -1116571.5, 387484.6, 0.0, 10.001939, 10.002391 
2.8962073e+3, 1.5652272e+2, -1121902.4, -1161602.0, 103514.38, 0.03802703, -0.08395006, -1036351.8, 369730.13, 0.0, 10.002025, 10.001432 
2.8958726e+3, 1.6651665e+2, -1334375.1, -1668798.4, -26185.383, 0.20723955, -0.031217763, -1332337.3, -24195.781, 0.0, 10.001878, 9.997337 
2.8955343e+3, 1.7650945e+2, -1306147.9, -1588924.3, -42887.48, 0.14206195, 0.06322989, -1299786.5, -89563.8, 0.0, 10.001338, 9.997466 
2.8951985e+3, 1.8650286e+2, -1068050.0, -1293968.9, 45422.61, 0.07471243, 0.1473808, -1059259.5, 53032.992, 0.0, 10.001745, 9.998628 
2.8948647e+3, 1.964966e+2, -821588.1, -1112112.0, 75629.984, 0.06730761, 0.21014093, -803079.1, 211276.53, 0.0, 10.002704, 9.998754 
2.8945315e+3, 2.0649138e+2, -780457.25, -885709.44, 94695.234, 0.11602134, 0.29710206, -724747.3, 191663.39, 0.0, 10.001684, 10.00011 
2.8941986e+3, 2.1648636e+2, -997422.9, -950076.56, 111501.22, 0.14579687, 0.3362868, -859763.1, -41298.61, 0.0, 9.999547, 10.000029 
2.8938666e+3, 2.264814e+2, -917457.3, -842032.6, 119043.46, 0.16614854, 0.39026886, -754870.75, -34353.25, 0.0, 9.999359, 10.000169 
2.893534e+3, 2.3647651e+2, -685815.9, -690157.5, 70437.195, 0.18215932, 0.43160167, -617516.06, 5053.078, 0.0, 10.0002985, 10.000101 
2.8931978e+3, 2.4647076e+2, -543108.9, -574223.6, -20536.602, 0.10556874, 0.40763628, -532902.25, -8281.387, 0.0, 10.000626, 10.000067 
2.8928593e+3, 2.5646403e+2, -467704.75, -520796.75, 71654.6, -0.042917337, 0.28578705, -417836.9, 8840.935, 0.0, 10.000598, 9.999779 
2.892526e+3, 2.6645693e+2, -542659.1, -602402.4, 309782.7, -0.057477534, 0.22464895, -261311.19, 67433.39, 0.0, 9.999882, 9.998869 
2.8921956e+3, 2.764496e+2, -595986.9, -588781.2, 252488.4, -0.0007976331, 0.16570906, -339869.9, -109052.164, 0.0, 9.998872, 9.998782 
2.891861e+3, 2.8644362e+2, -407340.13, -446044.63, 66704.98, 0.03336934, 0.2639731, -357236.88, -224356.95, 0.0, 9.9994755, 9.998812 
2.8915235e+3, 2.9643828e+2, -86862.95, -272571.22, 80045.484, 0.044126306, 0.40974036, -57123.57, -22186.133, 0.0, 10.001123, 9.998547 
2.891187e+3, 3.064313e+2, 652.5625, -199460.64, 122099.664, 0.0007968792, 0.4454991, 58455.555, 58455.555, 0.0, 10.001175, 9.998368 
2.8908527e+3, 3.1642333e+2, -92735.25, -258398.72, 66923.84, 0.11190752, 0.3717661, -69078.03, -69078.03, 0.0, 10.000319, 9.998081 
2.890521e+3, 3.2641757e+2, -102026.67, -213217.67, 244715.52, 0.08438471, 0.56678414, 93329.1, 93329.1, 0.0, 10.000015, 9.998501 
2.9068786e+3, 1.3687117e+2, -1857964.5, -1759687.1, 100873.48, 0.40479338, 0.31890512, -1696620.3, -97921.96, 0.00000000011876347, 9.998862, 10.000208 
2.906534e+3, 1.4686705e+2, -1148495.3, -1186038.5, 66471.89, -0.393894, 0.35980773, -1098195.3, 402531.94, 0.0, 10.002348, 10.001791 
2.9062027e+3, 1.568584e+2, -1429253.8, -1360509.4, 3076.9292, 0.023615612, -0.14720775, -1360371.9, 42420.37, 0.0, 10.000175, 10.00095 
2.9058686e+3, 1.6685225e+2, -1490059.8, -1728922.1, -38909.676, 0.25318998, -0.093873166, -1483881.4, -179026.94, 0.0, 10.000778, 9.99744 
2.905532e+3, 1.7684707e+2, -1146194.8, -1497334.6, 49230.016, 0.29375955, 0.18319032, -1139423.4, 67495.38, 0.0, 10.002405, 9.99758 
2.9051954e+3, 1.8684052e+2, -1000966.56, -1159118.9, 170460.89, 0.110162206, 0.22738373, -892133.3, 216851.06, 0.0, 10.001819, 9.999497 
2.9048586e+3, 1.9683328e+2, -1173712.6, -1204814.6, 223537.63, -0.1168542, 0.10713003, -965185.7, 45865.223, 0.0, 10.0000105, 9.999386 
2.9045254e+3, 2.0682827e+2, -1058361.0, -1029941.75, 225213.28, -0.03644777, 0.2068548, -818490.25, 94613.38, 0.0, 9.999867, 9.999963 
2.9041937e+3, 2.1682407e+2, -933452.94, -942670.56, 232254.8, 0.18244116, 0.343115, -705761.25, 109390.79, 0.0, 10.000141, 9.999769 
2.9038614e+3, 2.2681853e+2, -823812.94, -811222.44, 291904.56, 0.22385198, 0.3708049, -525545.25, 191667.53, 0.0, 10.000109, 10.000002 
2.9035288e+3, 2.368122e+2, -784513.1, -763850.8, 250592.33, 0.19758655, 0.291121, -523376.78, 95904.0, 0.0, 9.999783, 9.999833 
2.9031932e+3, 2.4680719e+2, -407812.7, -437938.22, 97463.49, 0.08278136, 0.33152276, -324254.88, 197071.33, 0.0, 10.0013075, 10.000639 
2.902855e+3, 2.5680274e+2, -79247.54, -289879.16, 54700.445, -0.08816182, 0.36661792, -65889.18, 357471.88, 0.0, 10.003137, 10.000124 
2.9025212e+3, 2.6679632e+2, -238080.94, -431960.0, 188269.2, -0.061102003, 0.3433003, -123259.836, 202159.25, 0.0, 10.001884, 9.999065 
2.9021898e+3, 2.7678862e+2, -616957.9, -610440.25, 177400.36, 0.06018213, 0.21627344, -436268.78, -208775.94, 0.0, 9.998781, 9.998686 
2.901855e+3, 2.867824e+2, -480899.75, -434356.53, 96039.98, 0.079020254, 0.27020326, -358808.88, -229252.28, 0.0, 9.998814, 9.999191 
2.901519e+3, 2.9677686e+2, -240158.58, -359831.6, 122707.33, 0.04588133, 0.36627334, -163475.86, -131859.9, 0.0, 10.000193, 9.998371 
2.9011813e+3, 3.0676728e+2, 79618.68, -258990.28, 137221.22, -0.16829889, 0.1882341, 128244.625, 128244.625, 0.0, 10.002219, 9.997392 
2.9008436e+3, 3.1675628e+2, 218319.98, -336713.84, 165048.81, -0.3817462, -0.0701627, 263691.22, 263691.22, 0.0, 10.003535, 9.995942 
2.9005197e+3, 3.2675016e+2, 354724.38, -59766.324, 203588.5, 0.36665806, 0.23623064, 437993.9, 437993.9, 0.0, 10.003502, 9.997816 
2.91687e+3, 1.3720807e+2, -1801953.3, -1763938.4, 443666.63, 0.16580267, 0.100245625, -1338872.3, 256508.06, 0.0000000000007792345, 9.999396, 9.999918 
2.9165334e+3, 1.4720838e+2, -1399082.8, -1545942.9, -31422.56, -0.16453688, 0.7264134, -1392642.0, 104737.17, 0.0, 10.001647, 9.999663 
2.9161972e+3, 1.5719627e+2, -1538889.4, -1583637.8, -37965.457, -0.00327022, 0.09448289, -1517195.6, -117703.15, 0.0, 10.000132, 9.999448 
2.9158634e+3, 1.671901e+2, -1371465.0, -1492133.5, 36626.547, 0.2114102, 0.10800144, -1361217.9, -59661.918, 0.0, 10.000796, 9.999062 
2.91553e+3, 1.7718622e+2, -1018806.94, -1251261.3, 97453.19, 0.3377493, 0.36346722, -983357.25, 220243.6, 0.0, 10.002437, 9.99927 
2.9151914e+3, 1.871794e+2, -899064.1, -962995.2, 104894.45, 0.083237946, 0.22856419, -821372.75, 284287.38, 0.0, 10.001851, 10.000837 
2.9148516e+3, 1.9717136e+2, -1083036.8, -1045093.1, 184700.02, -0.29522726, -0.09210978, -878393.1, 129332.64, 0.0, 10.00009, 10.000453 
2.914519e+3, 2.0716624e+2, -1051796.1, -1058340.1, 254465.44, -0.11911749, -0.027787123, -800581.6, 109197.266, 0.0, 9.99998, 9.999741 
2.914189e+3, 2.171623e+2, -873415.7, -912418.7, 263092.7, 0.25612217, 0.16389506, -629102.75, 182725.14, 0.0, 10.000486, 9.999831 
2.9138565e+3, 2.2715765e+2, -764957.06, -747939.56, 297285.4, 0.23612426, 0.26209947, -459041.16, 254838.73, 0.0, 10.000332, 10.000348 
2.9135218e+3, 2.371525e+2, -750391.75, -749913.7, 297750.3, 0.042306833, 0.2845853, -452402.3, 163533.38, 0.0, 9.999963, 9.999865 
2.913187e+3, 2.4714625e+2, -484481.06, -704181.5, 223431.44, -0.120639786, 0.3227389, -345356.03, 172642.66, 0.0, 10.001713, 9.998635 
2.912852e+3, 2.571396e+2, 7489.2505, -388001.3, 106705.75, -0.27041483, 0.3432455, 34442.242, 454505.8, 0.0, 10.004262, 9.998929 
2.912517e+3, 2.671333e+2, -81329.96, -236705.28, 54116.945, -0.19338457, 0.31180006, -64339.137, 257780.81, 0.0, 10.002413, 10.000159 
2.9121822e+3, 2.7712712e+2, -536959.7, -438042.5, 97336.59, -0.031218674, 0.23177432, -378319.75, -154146.06, 0.0, 9.998726, 9.999895 
2.9118475e+3, 2.8712097e+2, -436864.7, -355755.6, 206591.36, -0.01612493, 0.21471941, -185775.92, -59541.684, 0.0, 9.998838, 9.999734 
2.911513e+3, 2.9711446e+2, -194437.08, -201220.0, 240059.33, -0.0041716415, 0.16099699, 42254.742, 70556.13, 0.0, 9.999857, 9.999628 
2.9268652e+3, 1.3754345e+2, -1527909.6, -1611233.0, 201251.03, 0.13716982, 0.021663828, -1364053.3, 228031.45, 0.0, 10.001214, 10.000076 
2.9265285e+3, 1.4754255e+2, -1825199.5, -1791329.1, -78783.86, -0.075458564, 0.5292163, -1727680.8, -233581.25, 0.0, 9.998924, 9.999276 
2.926194e+3, 1.5753227e+2, -1473492.8, -1565690.5, -2889.2222, 0.20574167, 0.11075063, -1473402.3, -77199.31, 0.0, 10.000649, 9.999319 
2.9258597e+3, 1.6752745e+2, -1258833.6, -1275893.3, 103513.53, 0.27434227, 0.180579, -1163499.0, 134753.98, 0.0, 10.000889, 10.000498 
2.9255244e+3, 1.7752463e+2, -1257345.9, -1240596.1, 144834.08, 0.2168713, 0.3985652, -1103895.0, 96388.08, 0.0, 10.000297, 10.000369 
2.9251865e+3, 1.8751806e+2, -1020272.7, -1023829.7, 60355.254, 0.020963999, 0.24552792, -961669.75, 140669.58, 0.0, 10.001032, 10.000816 
2.9248482e+3, 1.9750996e+2, -868791.4, -976123.25, 42135.785, -0.18121135, -0.093549624, -854226.4, 150180.0, 0.0, 10.001722, 10.000146 
2.924515e+3, 2.0750442e+2, -1018848.1, -1111327.4, 66690.5, -0.003264666, -0.036527567, -983935.25, -77470.49, 0.0, 10.000553, 9.999079 
2.9241842e+3, 2.1749991e+2, -1224525.5, -1143893.8, 55512.79, 0.3126284, 0.1372996, -1115601.8, -307082.1, 0.0, 9.998382, 9.999254 
2.92385e+3, 2.2749561e+2, -1016664.5, -845184.6, 106928.37, 0.19132131, 0.2562011, -793866.1, -83299.82, 0.0, 9.998513, 10.00055 
2.9235145e+3, 2.3749122e+2, -901304.5, -849541.75, 124686.49, -0.09447865, 0.3105954, -748078.8, -135467.39, 0.0, 9.999091, 9.999586 
2.9231817e+3, 2.4748431e+2, -846350.9, -993586.44, 174734.6, -0.22328351, 0.34636098, -730359.2, -215675.5, 0.0, 9.999791, 9.99755 
2.922849e+3, 2.574764e+2, -634373.06, -770061.56, 106910.78, -0.27856165, 0.31801334, -575596.8, -158830.38, 0.0, 10.000237, 9.998221 
2.9225126e+3, 2.6747033e+2, -393649.53, -301711.16, -83043.12, -0.20289214, 0.29095602, -252762.88, 66056.73, 0.0, 9.99994, 10.000895 
2.922175e+3, 2.7746513e+2, -504246.6, -327183.72, -32100.66, -0.092039764, 0.21451351, -321543.7, -100683.22, 0.0, 9.998568, 10.000739 
2.92184e+3, 2.874596e+2, -386219.03, -254362.8, 184533.47, -0.13637887, 0.17296144, -124333.98, -1420.8696, 0.0, 9.99894, 10.000342 
2.9215065e+3, 2.974532e+2, -262557.9, -73527.59, 182867.81, -0.07332508, 0.004203904, 37806.11, 62784.38, 0.0, 9.998734, 10.00105 
2.9368606e+3, 1.3787702e+2, -1525597.5, -1568119.5, -144091.58, 0.09723864, -0.1177668, -1401206.9, 187603.7, 0.0, 10.001005, 10.000487 
2.9365218e+3, 1.4787306e+2, -1700585.5, -1660700.4, 6093.3867, -0.08195079, 0.033346474, -1659790.3, -168935.34, 0.0, 9.999444, 9.999934 
2.9361925e+3, 1.5786736e+2, -1369007.0, -1409497.6, 55727.71, 0.5147735, 0.009403266, -1329961.1, 62955.816, 0.0, 10.000873, 10.000296 
2.935856e+3, 1.6786443e+2, -1150079.5, -1076406.4, 80590.73, 0.37091738, 0.14537984, -1024632.6, 270314.28, 0.0, 10.000951, 10.001861 
2.9355162e+3, 1.778623e+2, -1175359.0, -1122228.8, 137235.78, -0.108082026, 0.3133555, -1009010.6, 187956.64, 0.0, 10.000464, 10.0011215 
2.9351816e+3, 1.8785658e+2, -1076437.6, -1179407.3, 91119.81, -0.045526285, 0.28845286, -1023263.44, 75759.12, 0.0, 10.001161, 9.999702 
2.9348487e+3, 1.9784935e+2, -888548.4, -1103222.0, 48016.668, 0.20658904, 0.15837385, -878297.8, 122794.4, 0.0, 10.00205, 9.9991255 
2.934513e+3, 2.0784268e+2, -1082216.1, -1266317.3, -31800.977, 0.30142504, 0.21157333, -1076877.8, -173713.02, 0.0, 10.000646, 9.997974 
2.934177e+3, 2.178363e+2, -1250285.6, -1228897.3, -14917.789, 0.30962524, 0.31256744, -1221236.5, -415999.5, 0.0, 9.998454, 9.998653 
2.933842e+3, 2.2783154e+2, -1002990.5, -834076.44, 108923.26, 0.092606865, 0.3986502, -780702.9, -73418.7, 0.0, 9.998503, 10.000671 
2.9335076e+3, 2.3782715e+2, -828787.75, -765681.06, 107004.41, -0.20332076, 0.44157046, -685674.75, -76350.01, 0.0, 9.999285, 10.000103 
2.933177e+3, 2.478204e+2, -825833.1, -885667.3, 140840.05, -0.09265814, 0.41721857, -711767.75, -200375.0, 0.0, 9.99946, 9.998472 
2.9328474e+3, 2.578128e+2, -682185.2, -699465.06, 72858.734, 0.14237945, 0.3390103, -617455.9, -203985.42, 0.0, 9.999436, 9.999112 
2.9325098e+3, 2.6780647e+2, -523811.97, -413202.84, -127337.18, 0.14342153, 0.26300067, -329678.9, -14151.312, 0.0, 9.999181, 10.000526 
2.932169e+3, 2.778007e+2, -442471.4, -296615.34, -97194.1, 0.036732323, 0.165909, -248031.28, -30455.52, 0.0, 9.998887, 10.00083 
2.9318333e+3, 2.8779602e+2, -363006.84, -218747.34, 121424.88, -0.125132, 0.17314789, -149644.3, -30022.951, 0.0, 9.99888, 10.000677 
2.9315e+3, 2.9779285e+2, -195155.9, -154518.23, 54613.023, -0.082870364, 0.32380962, -116566.695, -94910.414, 0.0, 9.999506, 10.000194 
2.9468566e+3, 1.3821474e+2, -1330179.9, -1488908.4, -44717.984, 0.09939204, -0.07918244, -1318448.6, 267056.72, 0.0, 10.002434, 10.000342 
2.9465184e+3, 1.482111e+2, -1113973.5, -1378108.9, 115868.664, -0.05718281, 0.11494318, -1070350.0, 417194.53, 0.0, 10.003497, 9.999912 
2.9461882e+3, 1.582053e+2, -1145267.9, -1327271.1, 104767.984, 0.45732892, 0.0876543, -1097497.6, 292108.8, 0.0, 10.0025425, 10.000058 
2.9458514e+3, 1.6820098e+2, -1108368.4, -1128553.9, 6900.445, 0.33498925, 0.13650143, -1106235.0, 185414.7, 0.0, 10.001575, 10.001194 
2.9455113e+3, 1.7819726e+2, -1202512.0, -1179538.4, -33953.92, -0.0863357, 0.18557657, -1155180.9, 38505.047, 0.0, 10.0005, 10.000692 
2.9451773e+3, 1.88193e+2, -1129981.5, -1159466.9, 16651.674, -0.009389313, 0.27915892, -1122484.1, -26753.992, 0.0, 10.000653, 10.000053 
2.9448456e+3, 1.9818796e+2, -1046753.9, -1167397.5, 59468.383, 0.29892683, 0.32771352, -1022369.1, -24586.33, 0.0, 10.000948, 9.999209 
2.9445088e+3, 2.0818126e+2, -843831.9, -1122877.5, 56377.965, 0.27916372, 0.35709855, -832871.9, 66981.95, 0.0, 10.002176, 9.998212 
2.9441705e+3, 2.1817406e+2, -650223.6, -982615.06, 174029.52, 0.1448242, 0.37839815, -575780.0, 226150.27, 0.0, 10.002808, 9.998239 
2.9438356e+3, 2.2816807e+2, -552810.2, -710204.94, 270245.84, -0.008718647, 0.4272766, -350036.28, 353951.8, 0.0, 10.002076, 9.999754 
2.943502e+3, 2.381625e+2, -698512.4, -749689.94, 172832.2, -0.17217511, 0.4317259, -549384.94, 56654.703, 0.0, 10.000448, 9.999632 
2.943172e+3, 2.4815631e+2, -837916.06, -749181.75, 191451.31, -0.000412187, 0.40302354, -597023.94, -88923.5, 0.0, 9.998812, 9.999708 
2.942842e+3, 2.5814983e+2, -986502.0, -779090.0, 155469.48, 0.3019482, 0.32555178, -695911.9, -285746.63, 0.0, 9.997112, 9.999687 
2.9425046e+3, 2.6814348e+2, -617434.44, -523057.72, -9325.498, 0.28377536, 0.27069637, -522145.06, -209920.33, 0.0, 9.99887, 9.999896 
2.942164e+3, 2.781372e+2, -212570.17, -253162.66, 2851.0186, 0.10950007, 0.1768487, -212370.9, 1910.9642, 0.0, 10.000815, 10.000178 
2.9418272e+3, 2.8813213e+2, -176192.64, -122113.05, 150866.4, -0.13433549, 0.17947422, 4117.5757, 120448.54, 0.0, 10.0001745, 10.000705 
2.941494e+3, 2.98131e+2, -474941.94, -439652.1, 134503.16, -0.11403267, 0.5726554, -321641.4, -303293.38, 0.0, 9.998349, 9.998757 
2.956854e+3, 1.3855526e+2, -1402462.8, -1558341.3, 59373.746, 0.09904266, 0.1209992, -1382423.6, 199754.05, 0.0, 10.002046, 10.000068 
2.956516e+3, 1.4855322e+2, -1208513.1, -1478773.8, 58704.105, -0.06667918, 0.51353234, -1196312.6, 287885.7, 0.0, 10.003037, 9.999469 
2.9561818e+3, 1.5854467e+2, -1272857.5, -1494711.5, 46620.15, 0.094769076, 0.27049702, -1263459.0, 122825.445, 0.0, 10.002079, 9.999151 
2.9558462e+3, 1.6853687e+2, -1271188.6, -1430036.1, -36157.258, 0.22682258, 0.13207911, -1263345.6, 25017.541, 0.0, 10.001392, 9.999222 
2.9555094e+3, 1.7853e+2, -1213461.9, -1245431.4, -42549.184, 0.17570607, 0.047309894, -1183994.0, 6438.7017, 0.0, 10.00064, 10.000183 
2.9551733e+3, 1.8852742e+2, -985551.56, -894298.7, 26155.352, 0.062278632, 0.20671877, -887333.5, 205126.1, 0.0, 10.000759, 10.001837 
2.9548383e+3, 1.9852552e+2, -867078.0, -875547.4, 80871.69, -0.008948475, 0.40045744, -790330.2, 204149.5, 0.0, 10.001235, 10.001093 
2.9545018e+3, 2.0852032e+2, -640663.4, -808709.0, 105515.57, -0.11930327, 0.38756013, -589803.4, 306724.78, 0.0, 10.002535, 10.000242 
2.9541644e+3, 2.185139e+2, -468081.03, -818516.0, 198793.39, -0.25587738, 0.312366, -378307.97, 420280.4, 0.0, 10.003656, 9.9989805 
2.9538321e+3, 2.2850537e+2, -649784.2, -1040693.4, 216604.55, -0.100872315, 0.25466427, -553485.44, 147187.27, 0.0, 10.002634, 9.997214 
2.9535004e+3, 2.3849669e+2, -661221.06, -825235.0, 96438.15, 0.08859439, 0.17959607, -616636.3, -13877.259, 0.0, 10.001039, 9.998837 
2.9531652e+3, 2.484921e+2, -694562.1, -482550.53, 109711.69, -0.011158468, 0.21341838, -435998.53, 68804.375, 0.0, 9.998864, 10.001555 
2.952829e+3, 2.5848845e+2, -925875.44, -641963.56, 151536.94, -0.12901862, 0.26071852, -576278.2, -169440.66, 0.0, 9.996978, 10.0007305 
2.9524952e+3, 2.6848322e+2, -619905.8, -631966.6, 120623.695, 0.0013651745, 0.34758326, -505161.9, -196271.34, 0.0, 9.99926, 9.998988 
2.9521605e+3, 2.784773e+2, -20480.281, -252091.6, 61756.773, 0.11895154, 0.39714357, -5042.4634, 205907.5, 0.0, 10.002447, 9.999431 
2.951823e+3, 2.8846896e+2, -74621.26, -179002.78, 50989.156, -0.112317756, 0.15388416, -53847.85, 59180.734, 0.0, 10.001229, 9.999849 
2.9514876e+3, 2.9846457e+2, -372179.4, -302976.75, -6529.8823, -0.028765285, 0.29976967, -302365.97, -287293.28, 0.0, 9.998531, 9.999642 
2.9668492e+3, 1.3889225e+2, -1618175.5, -1594302.0, 136458.89, 0.059952952, 0.18993719, -1469258.8, 109620.37, 0.0, 10.000345, 10.000607 
2.9665145e+3, 1.488894e+2, -1522179.4, -1647331.1, -70695.61, 0.13621671, 0.48518473, -1490343.4, -9436.141, 0.0, 10.001018, 9.999255 
2.9661775e+3, 1.5888132e+2, -1649664.5, -1630632.5, -34230.84, 0.18171653, 0.2915158, -1604619.6, -221630.58, 0.0, 9.999324, 9.999536 
2.9658416e+3, 1.688749e+2, -1392715.5, -1334162.8, 90131.72, 0.26044378, 0.18076326, -1268671.9, 16378.886, 0.0, 9.99992, 10.000579 
2.965505e+3, 1.7886896e+2, -1166403.1, -1177241.3, 267032.7, 0.24323831, 0.084125064, -904734.56, 282373.47, 0.0, 10.000797, 10.000582 
2.9651684e+3, 1.8886547e+2, -1074135.5, -1010502.75, 225674.3, 0.072339974, 0.21182357, -814413.06, 274732.5, 0.0, 10.00051, 10.001155 
2.9648328e+3, 1.9886245e+2, -1159180.8, -1069684.0, 128233.734, -0.045021687, 0.36350995, -978615.2, 12563.467, 0.0, 9.999505, 10.00059 
2.964497e+3, 2.0885748e+2, -1038597.94, -949427.56, 38749.445, -0.16737102, 0.3621283, -934941.94, -41717.9, 0.0, 9.999662, 10.00063 
2.9641604e+3, 2.188515e+2, -1064401.8, -1118809.5, -250.96011, -0.2979499, 0.27521655, -1064400.6, -269122.6, 0.0, 9.999664, 9.998838 
2.963828e+3, 2.2884205e+2, -1023219.3, -1279983.4, 113470.984, -0.10422835, 0.15301259, -980260.75, -282890.72, 0.0, 10.000331, 9.996689 
2.9634967e+3, 2.3883238e+2, -758409.25, -907764.7, 130211.5, 0.18190864, 0.02254166, -682981.0, -83515.445, 0.0, 10.000568, 9.9985 
2.9631588e+3, 2.488283e+2, -460366.78, -335478.47, 32201.768, -0.045094464, 0.09409981, -327664.34, 173839.14, 0.0, 10.000367, 10.001819 
2.9628196e+3, 2.5882557e+2, -567627.94, -491237.38, 11057.257, -0.3587535, 0.20090733, -489669.1, -86141.23, 0.0, 9.999581, 10.000492 
2.962488e+3, 2.6882127e+2, -482630.63, -595117.3, 112037.516, -0.15633799, 0.39299506, -413511.6, -107937.52, 0.0, 10.00036, 9.998694 
2.962157e+3, 2.7881593e+2, -273285.38, -430910.5, 58864.51, 0.09661622, 0.5164692, -253729.0, -46097.547, 0.0, 10.001027, 9.998867 
2.9618174e+3, 2.8880584e+2, -295913.56, -320920.4, 3321.6016, -0.1789707, 0.1338144, -295479.9, -185755.63, 0.0, 9.999922, 9.999466 
2.9614812e+3, 2.9879832e+2, -362868.9, -203460.81, 2659.571, 0.011520307, -0.027601982, -203416.45, -191621.45, 0.0, 9.998282, 10.000409 
2.9768437e+3, 1.3922748e+2, -1538399.1, -1484031.4, 271175.47, -0.02759872, 0.18244644, -1238680.8, 336914.3, 0.0, 10.00057, 10.00126 
2.976513e+3, 1.4922215e+2, -1570080.4, -1667643.5, -141989.33, 0.44821748, 0.22274978, -1468726.6, 8921.16, 0.0, 10.000661, 9.999295 
2.9761747e+3, 1.5921676e+2, -1516165.6, -1364196.4, -70278.695, 0.495665, 0.25764713, -1336678.5, 43026.625, 0.0, 9.999343, 10.001362 
2.975837e+3, 1.6921517e+2, -1116450.0, -782937.7, 114705.52, 0.34040868, 0.30456468, -747295.8, 534416.6, 0.0, 9.999979, 10.004356 
2.975499e+3, 1.7921326e+2, -1048946.4, -1013542.8, 243024.97, 0.06592547, 0.30435255, -787575.75, 396146.6, 0.0, 10.001092, 10.001581 
2.9751638e+3, 1.892064e+2, -1240183.4, -1421284.3, 162554.52, 0.077012025, 0.27346545, -1144660.3, -58864.477, 0.0, 10.000723, 9.998267 
2.9748294e+3, 1.9919875e+2, -1250788.8, -1363702.5, 80299.33, 0.17696343, 0.23710452, -1209085.8, -221206.03, 0.0, 9.999872, 9.998425 
2.9744944e+3, 2.0919211e+2, -1166770.9, -1220346.6, 7664.0293, 0.1817801, 0.26610214, -1165696.0, -275746.63, 0.0, 9.999645, 9.998808 
2.9741588e+3, 2.1918577e+2, -1040822.3, -1079399.0, -31832.559, 0.1191762, 0.28781137, -1022890.4, -230876.61, 0.0, 9.999614, 9.999167 
2.973824e+3, 2.291787e+2, -815675.9, -869829.7, 123771.84, 0.028693335, 0.18850751, -716053.8, -21976.148, 0.0, 10.000294, 9.99958 
2.9734904e+3, 2.3917139e+2, -628521.6, -768453.6, 142959.23, -0.03227599, 0.057501037, -539325.5, 56817.67, 0.0, 10.001048, 9.999258 
2.9731542e+3, 2.4916515e+2, -558099.94, -712197.94, 4292.848, -0.03245125, 0.09570479, -557980.44, -59777.547, 0.0, 10.001039, 9.998937 
2.972818e+3, 2.591594e+2, -429301.63, -548221.0, -48324.676, -0.025226159, 0.1586809, -412140.66, -11881.786, 0.0, 10.000946, 9.999475 
2.9724857e+3, 2.6915503e+2, -272031.53, -337168.9, 68006.91, 0.063548714, 0.27937594, -229196.92, 73105.62, 0.0, 10.0010605, 10.000182 
2.9721522e+3, 2.7915075e+2, -128208.45, -157653.81, 7795.439, 0.08281601, 0.37225053, -126272.016, 78073.414, 0.0, 10.001052, 10.000777 
2.9718092e+3, 2.8914496e+2, -189912.42, -42380.145, -43518.094, -0.39712715, 0.20988998, -30500.104, 75895.72, 0.0, 9.999621, 10.001565 
2.9714748e+3, 2.9913783e+2, -286295.75, -207147.73, 130065.32, 0.07318327, -0.038882695, -110769.22, -102306.16, 0.0, 9.99898, 10.000068 
2.9868406e+3, 1.3956484e+2, -1445137.9, -1322054.1, 151149.42, 0.10491342, 0.49807307, -1220398.1, 351899.03, 0.0, 10.000673, 10.002353 
2.9865065e+3, 1.4955615e+2, -1614586.0, -1600653.8, -181422.06, 0.38128012, 0.109178536, -1426064.1, 48314.355, 0.0, 9.99995, 10.000123 
2.9861674e+3, 1.5955208e+2, -1412733.3, -1301499.0, -62402.664, 0.38892132, 0.19657245, -1273525.8, 102896.016, 0.0, 10.000005, 10.001487 
2.985831e+3, 1.6955094e+2, -1070217.8, -817550.1, -65909.06, 0.27912626, 0.315317, -801391.0, 477035.03, 0.0, 10.00058, 10.003816 
2.9854947e+3, 1.7954926e+2, -1115084.9, -1120700.1, -173199.77, 0.10640051, 0.3686145, -944669.94, 235764.84, 0.0, 10.00098, 10.000906 
2.98516e+3, 1.895425e+2, -1195642.4, -1405549.6, -173420.83, 0.19181745, 0.33337387, -1097889.1, -15383.763, 0.0, 10.001047, 9.998224 
2.9848257e+3, 1.9953491e+2, -1156184.9, -1356306.1, -39329.938, 0.332755, 0.2805946, -1148732.9, -164146.19, 0.0, 10.00072, 9.998056 
2.984491e+3, 2.0952758e+2, -893644.6, -1211816.5, 15008.791, 0.29881048, 0.31102744, -892938.2, -6273.9375, 0.0, 10.002043, 9.99771 
2.9841557e+3, 2.1952128e+2, -602421.1, -869099.8, 24116.154, 0.2725679, 0.40600115, -600257.8, 188472.61, 0.0, 10.0026865, 9.999115 
2.9838207e+3, 2.2951639e+2, -517978.28, -554889.5, 49008.617, 0.1360899, 0.41328058, -484065.44, 206706.58, 0.0, 10.001689, 10.001036 
2.9834855e+3, 2.3951058e+2, -728054.7, -813828.9, -23699.486, -0.029683549, 0.31238666, -721942.1, -129121.17, 0.0, 10.000409, 9.999241 
2.98315e+3, 2.4950229e+2, -569607.6, -841359.75, -21894.732, -0.024398735, 0.2116291, -567854.9, -72955.75, 0.0, 10.001565, 9.997771 
2.9828155e+3, 2.594941e+2, -301998.72, -579044.1, 48004.895, 0.10281064, 0.1543318, -293916.47, 103061.734, 0.0, 10.002303, 9.998592 
2.9824826e+3, 2.694887e+2, -248414.44, -231838.03, 96421.66, 0.21720389, 0.13824539, -143349.02, 155682.45, 0.0, 10.0008545, 10.00098 
2.9821476e+3, 2.7948454e+2, -384212.44, -155276.31, -36130.816, 0.15112802, 0.13760978, -149709.48, 51362.023, 0.0, 9.998813, 10.001858 
2.9818022e+3, 2.8948382e+2, -115615.055, 190420.56, -164010.55, -0.4649965, 0.3226124, 261710.38, 364782.7, 0.0, 9.999364, 10.003266 
2.9814705e+3, 2.9947686e+2, -236083.03, -243479.63, 126668.195, 0.21707447, -0.036776796, -113059.15, -107919.66, 0.0, 9.999702, 9.9994335 
2.9968366e+3, 1.3990085e+2, -1449372.6, -1129473.3, 42869.914, 0.14858349, 0.7474641, -1123827.9, 445187.2, 0.0, 9.99981, 10.004101 
2.9964975e+3, 1.4989005e+2, -1558648.3, -1413109.1, -191045.67, 0.04412422, 0.0062930556, -1281443.3, 189667.88, 0.0, 9.99963, 10.001581 
2.9961577e+3, 1.598865e+2, -1475628.1, -1446899.0, -29133.002, -0.051873244, 0.06515901, -1428781.6, -55635.152, 0.0, 10.00005, 10.000478 
2.995825e+3, 1.6988169e+2, -1363903.4, -1382743.0, -55347.715, 0.19002907, 0.12853533, -1317179.5, -41984.23, 0.0, 10.000375, 10.000045 
2.9954928e+3, 1.7987752e+2, -1123687.3, -1151027.1, -169141.1, 0.30350173, 0.22589982, -967664.6, 209572.61, 0.0, 10.001037, 10.000664 
2.9951566e+3, 1.8987408e+2, -938254.5, -946821.9, -167130.3, 0.27850336, 0.31925005, -775353.0, 303916.6, 0.0, 10.001389, 10.001206 
2.9948214e+3, 1.9987029e+2, -1014247.56, -1110163.1, -29149.244, 0.33603066, 0.40638342, -1006083.8, -24778.166, 0.0, 10.000912, 9.999651 
2.994487e+3, 2.0986496e+2, -826064.25, -1114012.0, 71655.39, 0.2297433, 0.56466836, -809218.44, 74139.04, 0.0, 10.002226, 9.998291 
2.9941514e+3, 2.1985878e+2, -493688.9, -838173.94, 20273.656, 0.04326449, 0.6509463, -492499.84, 292918.0, 0.0, 10.003482, 9.998945 
2.9938176e+3, 2.298538e+2, -574425.06, -733387.56, -48473.855, 0.1663298, 0.7559683, -560809.7, 126656.19, 0.0, 10.001892, 9.999747 
2.9934844e+3, 2.3984925e+2, -610446.1, -676353.06, -61996.477, 0.3332118, 0.8603825, -573189.25, 16318.246, 0.0, 10.000817, 10.000003 
2.993147e+3, 2.4984048e+2, -286065.8, -462913.72, 18265.852, 0.022663219, 0.5262615, -284198.94, 207385.02, 0.0, 10.002413, 10.000007 
2.9928097e+3, 2.5983077e+2, -80834.73, -356874.2, 49604.996, -0.24174161, 0.1340995, -72191.23, 321479.56, 0.0, 10.003247, 9.999715 
2.992478e+3, 2.6982245e+2, -317341.0, -358259.88, 8680.962, 0.23447993, -0.13319065, -315575.5, -19818.234, 0.0, 10.000742, 10.000216 
2.992145e+3, 2.7981612e+2, -464955.75, -240547.67, -78610.69, 0.6096846, -0.26709208, -215750.3, -17925.898, 0.0, 9.998399, 10.001516 
2.9918024e+3, 2.8981915e+2, -105577.336, 148105.38, -152183.44, 0.15741049, 0.3233355, 219376.44, 319168.97, 0.0, 9.999578, 10.002962 
2.991466e+3, 2.9981607e+2, -160105.81, -247852.33, 18488.424, 0.3254165, 0.42157885, -156369.36, -154543.44, 0.0, 10.000227, 9.9993105 
3.006833e+3, 1.4023018e+2, -1911752.5, -1138280.5, 57069.973, 0.49871925, 0.24939412, -1134092.4, 431696.2, 0.0, 9.99572, 10.005965 
3.006494e+3, 1.5022871e+2, -1366181.3, -1122406.8, -16064.238, 0.28440344, 0.23830706, -1121352.8, 346442.03, 0.0, 10.000098, 10.003305 
3.0061585e+3, 1.6023527e+2, -1220496.1, -1369003.8, 67922.875, 0.4550298, 1.2054416, -1194116.3, 175615.86, 0.0, 10.001925, 10.00011 
3.005821e+3, 1.7022358e+2, -1442620.9, -1629728.8, 94345.51, 0.30341664, 0.72530854, -1403308.6, -131458.63, 0.0, 10.000637, 9.998226 
3.0054873e+3, 1.8021137e+2, -1437923.0, -1476670.0, 168043.31, 0.28833202, 0.18049297, -1288140.1, -114167.22, 0.0, 9.999571, 9.999137 
3.00515e+3, 1.902093e+2, -911736.0, -1044651.56, -69761.27, -0.034056664, 0.51035106, -881844.0, 194148.66, 0.0, 10.001991, 10.000226 
3.0048126e+3, 2.0020369e+2, -488831.53, -899036.56, -165508.11, -0.250655, 0.5048314, -430381.44, 547663.56, 0.0, 10.004672, 9.999288 
3.0044806e+3, 2.1019563e+2, -792792.75, -842688.3, -30919.387, -0.06124534, 0.21461038, -778011.44, 102103.414, 0.0, 10.001376, 10.000513 
3.0041474e+3, 2.2018754e+2, -1242192.5, -1281977.4, 29491.748, 0.04380243, -0.021244023, -1226511.5, -444324.06, 0.0, 9.998716, 9.998165 
3.0038124e+3, 2.3017932e+2, -730966.5, -1079164.6, -66467.086, 0.06323687, -0.044000152, -718710.1, -34435.918, 0.0, 10.001989, 9.99727 
3.0034795e+3, 2.4017368e+2, -315057.4, -610438.44, -142885.48, 0.18732248, 0.09544531, -257251.56, 329082.47, 0.0, 10.003211, 9.999263 
3.0031443e+3, 2.5016788e+2, -135902.38, -319496.53, -170932.38, 0.00890857, -0.008128779, -33677.344, 454702.1, 0.0, 10.003189, 10.000538 
3.002806e+3, 2.6016226e+2, -115420.35, -182799.38, -273280.84, -0.29462615, -0.13995709, 126239.734, 516662.38, 0.0, 10.002216, 10.001372 
3.00247e+3, 2.7016374e+2, -284561.06, -72434.32, -82169.42, -0.016559452, 0.31639633, -44328.945, 248083.81, 0.0, 9.999862, 10.002541 
3.0021337e+3, 2.8016365e+2, -541287.3, -316742.03, 197408.13, 0.2076555, 0.64782023, -201913.13, -7492.6724, 0.0, 9.998086, 10.001109 
3.001795e+3, 2.9015756e+2, -60194.83, -86282.86, 96935.54, 0.024159582, 0.5288906, 24570.383, 121051.06, 0.0, 10.001093, 10.000544 
3.0014554e+3, 3.001472e+2, 193238.4, -393259.47, -52471.055, -0.32473117, 0.12755047, 197895.75, 197895.75, 0.0, 10.004176, 9.996319 
