coord_x,coord_y,stress_xx,stress_yy,tau_xy,velocity_x,velocity_y,stress_1,eps,damage,lx,ly
4.9988046e+0, 1.2526937e+2, -1982999.1, -1627543.3, -5972.4907, 0.01902081, 0.09778323, -1627442.9, 84929.445, 0.0013801174, 9.99722, 10.001936 
4.9986404e+0, 1.352706e+2, -1937044.8, -1709247.8, -13254.429, -0.012844393, 0.16555156, -1708479.1, -94118.89, 0.0008364695, 9.997533, 10.00055 
4.998788e+0, 1.4527048e+2, -1773827.6, -1560039.8, -11114.784, -0.01627545, 0.08721481, -1559463.5, -43101.875, 0.00038681776, 9.997895, 10.000721 
4.999228e+0, 1.5527166e+2, -1622882.3, -1447867.0, -6882.4116, 0.0072024497, 0.13517588, -1447596.9, -29246.902, 0.00011816065, 9.998308, 10.000619 
4.9994165e+0, 1.6527236e+2, -1497786.1, -1374054.0, -9841.332, 0.008746783, 0.15953399, -1373276.1, -52933.207, 0.000016018055, 9.998654, 10.000288 
4.999383e+0, 1.7527215e+2, -1358246.0, -1258240.9, -17496.34, -0.009335079, 0.105594836, -1255268.1, -32923.76, 0.00000013955699, 9.99895, 10.000268 
4.999556e+0, 1.8527207e+2, -1228147.6, -1186023.3, -14582.156, -0.01196351, 0.08911243, -1181467.9, -57123.62, 0.0, 9.999349, 9.999901 
4.9999142e+0, 1.952722e+2, -1062288.4, -1060269.9, -10135.896, -0.00041240396, 0.10906503, -1051093.1, -24751.51, 0.0, 9.999836, 9.999857 
5.000183e+0, 2.0527174e+2, -928791.4, -994028.3, -12160.5205, 0.0037537897, 0.09950757, -926598.3, 1746.5577, 0.0, 10.00029, 9.999418 
5.0003684e+0, 2.1527065e+2, -771636.25, -872223.3, -20068.244, 0.0009097796, 0.045996144, -767780.25, 62573.848, 0.0, 10.000716, 9.999376 
5.0005984e+0, 2.2526973e+2, -665524.6, -854421.06, -21097.154, 0.003023965, 0.053763893, -663197.0, 69166.484, 0.0, 10.001135, 9.998624 
5.0008667e+0, 2.3526889e+2, -510167.34, -732102.6, -17670.326, 0.009462577, 0.10226202, -508769.25, 125604.08, 0.0, 10.001543, 9.998594 
5.0010026e+0, 2.4526744e+2, -387874.6, -667174.2, -14993.3, 0.0050841514, 0.11823413, -387072.03, 149315.5, 0.0, 10.001903, 9.998196 
5.0010216e+0, 2.552654e+2, -246279.02, -553499.3, -11328.892, -0.009125076, 0.092284195, -245861.83, 192544.03, 0.0, 10.002225, 9.998147 
5.0012064e+0, 2.6526296e+2, -130880.36, -507980.9, -6252.088, -0.009799734, 0.06280482, -130776.73, 209652.22, 0.0, 10.002606, 9.997602 
5.0015396e+0, 2.752602e+2, 28874.473, -381950.06, -6836.578, 0.001953982, 0.021061385, 28988.21, 271444.1, 0.0, 10.003038, 9.997586 
5.001793e+0, 2.8525797e+2, 170554.47, -290056.78, -12659.862, 0.006443278, 0.048325382, 170902.16, 315378.97, 0.000000004221918, 10.003455, 9.997343 
5.001973e+0, 2.95256e+2, 329024.1, -161291.86, -22643.574, 0.0039371313, 0.11290866, 330067.6, 376561.44, 0.0000065845143, 10.003864, 9.997358 
5.002086e+0, 3.0525097e+2, 318273.66, -313352.75, -22323.465, -0.001188945, -0.04908024, 319061.66, 319061.66, 0.0000754208, 10.004194, 9.995826 
5.0021595e+0, 3.1524765e+2, 521892.63, 53679.664, -8303.082, -0.006073812, 0.039916214, 522039.8, 522039.8, 0.00026987135, 10.004435, 9.998231 
1.4996408e+1, 1.2526926e+2, -1995867.1, -1652483.9, 5399.0166, 0.056635108, 0.12126504, -1652399.0, 59974.46, 0.00135349, 9.997214, 10.001768 
1.4995925e+1, 1.3527018e+2, -1948140.3, -1731357.1, -1470.3629, -0.038310066, 0.17386739, -1731347.3, -116982.266, 0.0008181531, 9.99753, 10.000401 
1.499636e+1, 1.452699e+2, -1765165.9, -1540609.9, 3701.4739, -0.04895016, 0.08085422, -1540548.9, -24181.355, 0.00037595516, 9.99789, 10.000857 
1.4997683e+1, 1.5527101e+2, -1614430.8, -1429347.3, 8800.278, 0.021657929, 0.10870948, -1428929.8, -10573.801, 0.00011312574, 9.998304, 10.000749 
1.499825e+1, 1.6527177e+2, -1511354.0, -1401139.9, 470.2135, 0.026208593, 0.14359578, -1401137.9, -80789.49, 0.000014709239, 9.998651, 10.000105 
1.4998148e+1, 1.7527182e+2, -1371838.4, -1285484.3, -6046.3228, -0.028007051, 0.1339851, -1285062.9, -62714.555, 0.00000010097208, 9.998946, 10.000083 
1.4998667e+1, 1.8527162e+2, -1219595.6, -1166981.1, 3533.0918, -0.03594491, 0.10745197, -1166744.9, -42395.52, 0.0, 9.999343, 10.000034 
1.4999744e+1, 1.9527131e+2, -1053529.5, -1041530.75, 8574.702, -0.0012038562, 0.07117183, -1037065.06, -10715.095, 0.0, 9.999833, 9.999987 
1.5000549e+1, 2.0527089e+2, -942636.94, -1021725.8, 3384.0728, 0.011192463, 0.069640875, -942492.4, -14139.413, 0.0, 10.000286, 9.99923 
1.5001105e+1, 2.152703e+2, -785284.0, -899519.6, -3447.6938, 0.0029087642, 0.08303848, -785180.0, 45178.953, 0.0, 10.000712, 9.999191 
1.5001792e+1, 2.2526933e+2, -657890.4, -837256.4, -6139.315, 0.008859007, 0.09079989, -657680.5, 74688.195, 0.0, 10.00113, 9.998744 
1.5002602e+1, 2.3526807e+2, -502909.22, -716443.75, -1853.6733, 0.028519273, 0.086366184, -502893.13, 131488.4, 0.0, 10.00154, 9.998704 
1.5003006e+1, 2.4526651e+2, -381043.5, -652147.4, -3387.0308, 0.015023239, 0.08188106, -381001.2, 155394.86, 0.0, 10.001899, 9.998301 
1.5003066e+1, 2.5526467e+2, -238414.73, -536291.3, 1322.9503, -0.027467294, 0.0644973, -238408.86, 200003.42, 0.0, 10.002221, 9.998267 
1.5003619e+1, 2.6526245e+2, -130412.734, -505930.53, 9621.153, -0.029388776, 0.047409747, -130166.39, 210266.83, 0.0, 10.002603, 9.997619 
1.5004617e+1, 2.7525988e+2, 26904.375, -384929.6, 9750.748, 0.005631088, 0.02630766, 27135.107, 269593.25, 0.0, 10.003035, 9.997569 
1.500538e+1, 2.852575e+2, 151717.42, -328013.72, 2157.0723, 0.01956997, 0.055024996, 151727.13, 296208.5, 0.0000000059189293, 10.003451, 9.997086 
1.5005913e+1, 2.9525515e+2, 313014.44, -193250.56, -6519.3413, 0.0113613475, 0.10993214, 313098.38, 359602.2, 0.0000065077284, 10.0038595, 9.997141 
1.5006262e+1, 3.0525035e+2, 342044.78, -262627.47, -13543.785, -0.003053058, -0.040198635, 342348.0, 342348.0, 0.000074264535, 10.0041895, 9.996177 
1.500647e+1, 3.152477e+2, 543575.75, 100902.49, 5623.109, -0.019021451, 0.084344, 543647.2, 543647.2, 0.0002663471, 10.004427, 9.998559 
2.4993312e+1, 1.2526843e+2, -2016217.4, -1654081.8, -20068.824, 0.034100313, 0.12630041, -1652973.0, 59409.363, 0.0013145427, 9.997043, 10.001841 
2.4993569e+1, 1.3526946e+2, -1959338.9, -1728340.9, -11694.6, -0.02159075, 0.18381226, -1727750.4, -113378.305, 0.0007913486, 9.997418, 10.000477 
2.4994373e+1, 1.4526914e+2, -1783096.3, -1554845.8, -1374.9758, -0.031830054, 0.084610775, -1554837.5, -38462.54, 0.00036019128, 9.99779, 10.00081 
2.4995776e+1, 1.552701e+2, -1635520.1, -1444638.1, -10538.439, 0.0063093724, 0.100916855, -1444058.1, -25692.914, 0.00010584406, 9.998182, 10.000704 
2.4996729e+1, 1.6527085e+2, -1509011.0, -1396127.4, -15194.531, 0.008994938, 0.13482574, -1394117.9, -73760.35, 0.000012859098, 9.998651, 10.00014 
2.4997297e+1, 1.75271e+2, -1335092.9, -1264495.9, -5583.11, -0.019699968, 0.13372687, -1264057.0, -41701.023, 0.00000006033416, 9.999185, 10.0001135 
2.4998254e+1, 1.8527082e+2, -1194665.0, -1163791.1, 2805.979, -0.02193747, 0.11069808, -1163538.1, -39181.074, 0.0, 9.999553, 9.999956 
2.4999559e+1, 1.9527043e+2, -1067132.6, -1056394.3, -8377.437, -0.00020088447, 0.07421889, -1051813.0, -25454.045, 0.0, 9.999777, 9.999912 
2.500077e+1, 2.0526998e+2, -960691.0, -1035971.9, -9729.671, 0.009587151, 0.07436573, -959453.8, -31091.137, 0.0, 10.000186, 9.999181 
2.5001884e+1, 2.1526933e+2, -782519.4, -903636.06, -6820.407, 0.0076200413, 0.08986269, -782136.5, 48232.383, 0.0, 10.000755, 9.999143 
2.5002962e+1, 2.252683e+2, -650308.75, -831329.0, -12500.265, 0.010862834, 0.09277261, -649449.6, 82929.36, 0.0, 10.001171, 9.998766 
2.5004008e+1, 2.3526698e+2, -513935.2, -719164.6, -15842.405, 0.019340135, 0.079815984, -512719.44, 121672.73, 0.0, 10.001454, 9.998727 
2.5004798e+1, 2.4526544e+2, -389193.7, -653327.56, -20698.137, 0.0076579093, 0.07456053, -387581.6, 148824.73, 0.0, 10.001831, 9.998325 
2.5005376e+1, 2.552637e+2, -226821.69, -527249.56, -22622.625, -0.02199049, 0.061202083, -225127.72, 213294.03, 0.0, 10.002286, 9.998299 
2.500631e+1, 2.6526147e+2, -118480.0, -496163.56, -16713.746, -0.023626672, 0.043357156, -117741.805, 222700.42, 0.0, 10.002667, 9.997655 
2.5007585e+1, 2.7525887e+2, 22847.957, -384165.3, -14492.892, 0.00092686794, 0.017018005, 23363.365, 265830.5, 0.0, 10.002995, 9.997594 
2.5008696e+1, 2.852565e+2, 125089.61, -351420.8, -13499.284, 0.013029224, 0.04998474, 125471.73, 269962.4, 0.0000000086392555, 10.003314, 9.996991 
2.5009623e+1, 2.952542e+2, 269008.28, -224271.7, -11529.762, 0.009457578, 0.11812947, 269277.63, 315791.34, 0.0000063841276, 10.003599, 9.997054 
2.501033e+1, 3.0524945e+2, 321663.2, -245320.95, -17867.04, -0.0024111662, -0.036299285, 322225.7, 322225.7, 0.00007245599, 10.003935, 9.996418 
2.5010896e+1, 3.1524694e+2, 544384.9, 124037.57, -3493.0645, -0.014635672, 0.07849284, 544413.9, 544413.9, 0.00026087384, 10.004337, 9.998762 
3.498951e+1, 1.2526685e+2, -1994265.5, -1608387.1, -6589.6885, -0.052503705, 0.11000065, -1608274.6, 104124.39, 0.0012623775, 9.997043, 10.002154 
3.499156e+1, 1.3526848e+2, -1937246.3, -1683234.1, 3149.1765, 0.03483915, 0.19427636, -1683195.1, -68813.48, 0.000755357, 9.997422, 10.000785 
3.4992817e+1, 1.452682e+2, -1798743.0, -1587265.1, 12163.067, 0.03243193, 0.097455665, -1586567.9, -70184.04, 0.00033918672, 9.997791, 10.000587 
3.4993502e+1, 1.5526892e+2, -1651289.8, -1476535.1, 4454.324, -0.039918844, 0.11360405, -1476421.6, -58044.316, 0.00009620481, 9.998179, 10.000486 
3.4994853e+1, 1.6526957e+2, -1491340.0, -1358249.0, 4760.786, -0.04467283, 0.13296948, -1358078.9, -37708.5, 0.000010539653, 9.998646, 10.000402 
3.4996822e+1, 1.752697e+2, -1317709.3, -1228083.5, 14738.047, 0.013544486, 0.10416433, -1225722.1, -3354.7114, 0.000000028001644, 9.999184, 10.000363 
3.499831e+1, 1.8526965e+2, -1214677.4, -1204688.5, 10720.045, 0.027884455, 0.09776649, -1197856.6, -73489.19, 0.0, 9.99955, 9.999677 
3.499936e+1, 1.9526955e+2, -1087113.5, -1096855.5, 917.8972, 0.001737194, 0.11870506, -1087027.9, -60659.27, 0.0, 9.999773, 9.999637 
3.500084e+1, 2.0526895e+2, -955238.94, -1022949.94, 11620.556, -0.0025694282, 0.11340585, -953300.1, -24926.201, 0.0, 10.00018, 9.999273 
3.5002705e+1, 2.1526779e+2, -776703.3, -890928.8, 14857.992, 0.013689135, 0.066511296, -774802.3, 55581.676, 0.0, 10.000752, 9.999231 
3.50041e+1, 2.2526667e+2, -655283.5, -840647.1, -2306.6118, 0.0070424494, 0.05847904, -655254.8, 77139.805, 0.0, 10.001167, 9.998704 
3.500508e+1, 2.3526564e+2, -518609.8, -728612.4, -4432.7544, -0.019021075, 0.08246134, -518516.3, 115889.01, 0.0, 10.001452, 9.998663 
3.500637e+1, 2.4526422e+2, -392802.53, -659454.75, -3862.0007, -0.018413974, 0.094887674, -392746.63, 143671.86, 0.0, 10.001826, 9.998285 
3.5007942e+1, 2.5526243e+2, -230922.53, -534650.44, -5301.23, 0.0057678604, 0.0829647, -230830.03, 207604.23, 0.0, 10.002282, 9.99825 
3.500927e+1, 2.6526007e+2, -114848.96, -487476.28, -4800.816, 0.0053992574, 0.049706977, -114787.12, 225668.92, 0.0, 10.002664, 9.997717 
3.5010433e+1, 2.7525726e+2, 27732.729, -372605.34, -1467.9591, -0.014318807, -0.005844368, 27738.11, 270220.84, 0.0, 10.00299, 9.997676 
3.501174e+1, 2.85255e+2, 129242.45, -341527.3, -2993.0823, -0.014388995, 0.03243183, 129261.484, 273766.25, 0.000000011844628, 10.003309, 9.997062 
3.5013092e+1, 2.9525316e+2, 272126.44, -216192.03, -347.77164, -0.004072895, 0.13779098, 272126.7, 318650.34, 0.0000061783935, 10.003593, 9.997112 
3.5014287e+1, 3.0524826e+2, 330468.44, -225743.44, -3588.1323, -0.00046948265, -0.038092166, 330491.56, 330491.56, 0.00006980885, 10.00393, 9.996555 
3.5015422e+1, 3.152454e+2, 550346.25, 138099.14, 16608.936, 0.0029417882, 0.02479992, 551014.3, 551014.3, 0.00025299258, 10.004332, 9.998861 
4.4986644e+1, 1.2526532e+2, -1994056.8, -1608600.4, 2648.1208, -0.042684462, 0.10907737, -1608582.1, 103832.11, 0.0011988538, 9.997045, 10.002154 
4.4988918e+1, 1.35267e+2, -1924553.3, -1674782.5, -12676.232, 0.024538342, 0.19698821, -1674140.8, -59744.285, 0.0007112032, 9.9975, 10.000806 
4.4990543e+1, 1.4526671e+2, -1776076.3, -1577519.8, -4674.16, 0.017825773, 0.09780548, -1577409.8, -61011.008, 0.00031351, 9.997952, 10.000577 
4.4991764e+1, 1.5526749e+2, -1618211.0, -1462118.8, 2758.795, -0.043331612, 0.12114628, -1462070.0, -43678.637, 0.000084590996, 9.998413, 10.000474 
4.4993535e+1, 1.6526806e+2, -1486495.3, -1355787.9, -1777.0195, -0.04224752, 0.13633557, -1355763.8, -35378.992, 0.000007991499, 9.998679, 10.000403 
4.4995838e+1, 1.7526808e+2, -1375891.5, -1255736.8, -11691.794, 0.016716937, 0.09327301, -1254609.6, -32226.748, 0.000000008983813, 9.998783, 10.000367 
4.4997716e+1, 1.8526798e+2, -1271095.3, -1242526.6, -11869.951, 0.030563213, 0.08847692, -1238238.5, -113855.125, 0.0, 9.999209, 9.999581 
4.49992e+1, 1.9526796e+2, -1071792.8, -1100041.3, -8500.442, 0.0011659089, 0.12505716, -1069432.1, -43047.695, 0.0, 9.999924, 9.999542 
4.500109e+1, 2.0526737e+2, -925147.7, -1004241.8, 5175.935, -0.0041410173, 0.12309531, -924810.44, 3579.4355, 0.0, 10.000367, 9.999312 
4.5003363e+1, 2.1526617e+2, -800991.5, -897741.6, 3944.0679, 0.013649781, 0.06983085, -800831.0, 29568.848, 0.0, 10.000566, 9.999275 
4.500512e+1, 2.2526503e+2, -689232.25, -863686.44, -12311.864, 0.0026228335, 0.060548335, -688367.7, 44042.883, 0.0, 10.000963, 9.998645 
4.5006427e+1, 2.3526396e+2, -510219.63, -730739.7, -14690.482, -0.033607446, 0.086867444, -509245.28, 125176.34, 0.0, 10.001537, 9.998608 
4.5008147e+1, 2.452625e+2, -379947.53, -654080.94, -15218.7, -0.02775547, 0.096024446, -379105.22, 157330.14, 0.0, 10.001918, 9.998279 
4.5010236e+1, 2.5526062e+2, -254371.33, -546837.4, -14508.158, 0.014954764, 0.07600592, -253653.39, 184798.56, 0.0, 10.002125, 9.998242 
4.501194e+1, 2.6525828e+2, -146306.2, -502256.63, -12231.879, 0.017133765, 0.04604857, -145886.36, 194587.13, 0.0, 10.002445, 9.997722 
4.5013362e+1, 2.752556e+2, 9099.109, -380362.63, -13982.554, -0.013471507, 0.0022148567, 9600.47, 252099.52, 0.0, 10.002855, 9.997687 
4.5014957e+1, 2.8525335e+2, 120983.81, -334754.7, -18872.504, -0.017772049, 0.035605617, 121764.01, 266284.66, 0.000000014278152, 10.003207, 9.997158 
4.5016629e+1, 2.9525137e+2, 268470.6, -209241.66, -14463.212, -0.0062973523, 0.120542616, 268908.1, 315447.97, 0.0000058442592, 10.0035305, 9.997191 
4.5018157e+1, 3.0524644e+2, 314621.34, -240830.2, -21925.78, -0.002115415, -0.06234899, 315485.5, 315485.5, 0.000066210356, 10.003854, 9.99649 
4.5019683e+1, 3.1524375e+2, 509657.9, 103581.98, -16112.101, 0.0074688336, 0.02777848, 510296.2, 510296.2, 0.0002424885, 10.004113, 9.998731 
5.49847e+1, 1.2526383e+2, -2014792.6, -1653603.6, 19751.514, 0.056683052, 0.12506132, -1652526.8, 59901.36, 0.0011275938, 9.997053, 10.001842 
5.498564e+1, 1.3526505e+2, -1943660.8, -1714283.3, 4103.7183, -0.053380053, 0.19489218, -1714209.9, -99793.555, 0.00066134764, 9.9975, 10.000536 
5.4987544e+1, 1.4526464e+2, -1761315.9, -1546052.1, 12733.308, -0.0781829, 0.08507768, -1545301.5, -28881.795, 0.00028458898, 9.997949, 10.000794 
5.4990524e+1, 1.5526575e+2, -1603623.5, -1432912.9, 20577.398, -0.009462149, 0.1222644, -1430467.5, -12060.031, 0.00007188515, 9.998417, 10.000672 
5.499276e+1, 1.6526638e+2, -1503934.6, -1392287.6, 1473.3628, 0.011519416, 0.1439956, -1392268.1, -71867.66, 0.0000055425044, 9.998681, 10.000153 
5.499435e+1, 1.7526613e+2, -1393789.1, -1291619.5, -6997.272, -0.010570027, 0.10230565, -1291142.5, -68740.195, 0.00000000116644, 9.998778, 10.000124 
5.4996467e+1, 1.8526584e+2, -1265887.4, -1230154.1, 15140.975, -0.015988078, 0.08337789, -1224601.4, -100196.51, 0.0, 9.999203, 9.999669 
5.4999065e+1, 1.952656e+2, -1065807.6, -1087423.9, 18406.574, -0.005237573, 0.09239787, -1055270.6, -28863.71, 0.0, 9.999923, 9.999629 
5.500153e+1, 2.0526518e+2, -925144.7, -1003874.25, 12371.752, 0.0017845017, 0.10226011, -923246.3, 5164.27, 0.0, 10.000366, 9.999316 
5.500385e+1, 2.152645e+2, -801625.94, -898454.2, 12334.2, 0.0054575535, 0.09920421, -800079.44, 30337.117, 0.0, 10.000563, 9.999271 
5.5006015e+1, 2.252634e+2, -693483.5, -871015.94, 9186.4795, -0.004614863, 0.09801841, -693009.4, 39417.555, 0.0, 10.0009575, 9.998597 
5.500804e+1, 2.3526198e+2, -513768.88, -737805.56, 7059.3013, -0.026734142, 0.093541265, -513546.66, 120894.45, 0.0, 10.001536, 9.99856 
5.5010116e+1, 2.4526024e+2, -377791.56, -649021.06, -7666.591, -0.023388457, 0.0770206, -377575.03, 158882.06, 0.0, 10.001915, 9.998315 
5.501225e+1, 2.552582e+2, -252638.73, -542488.2, -5996.693, 0.0030653053, 0.040169157, -252514.72, 185960.19, 0.0, 10.002121, 9.998275 
5.501432e+1, 2.652561e+2, -149978.44, -508787.2, 3092.9197, 0.009906526, 0.030913346, -149951.78, 190542.94, 0.0, 10.002441, 9.997678 
5.501636e+1, 2.752539e+2, 5328.2246, -387124.38, 1424.3739, 0.00065627554, 0.04148835, 5333.394, 247849.47, 0.0, 10.002852, 9.9976425 
5.5018336e+1, 2.8525153e+2, 128977.055, -317752.28, -7230.8345, -0.0009401512, 0.05905768, 129094.06, 273632.44, 0.000000014996283, 10.003205, 9.997275 
5.5020225e+1, 2.9524893e+2, 276222.47, -191828.36, -1083.2207, -0.00067300955, 0.068158895, 276224.97, 322787.2, 0.0000053587105, 10.003526, 9.9973135 
5.502193e+1, 3.0524394e+2, 294716.63, -281466.0, -11947.796, -0.010481, -0.10986816, 294964.28, 294964.28, 0.00006167987, 10.00385, 9.996212 
5.5023676e+1, 3.1524202e+2, 484269.72, 51488.516, -1616.7708, -0.006648987, 0.08458486, 484275.75, 484275.75, 0.00022941288, 10.004111, 9.998374 
6.498178e+1, 1.252617e+2, -2007064.0, -1668047.4, -2483.7168, 0.05306658, 0.12826218, -1668029.1, 44419.46, 0.001052614, 9.997186, 10.0016775 
6.498313e+1, 1.352628e+2, -1930079.4, -1721015.6, -8187.4385, -0.06141087, 0.20054117, -1720695.5, -106257.016, 0.00060904585, 9.997651, 10.000416 
6.498542e+1, 1.4526229e+2, -1755638.8, -1535074.8, -2660.6494, -0.08508337, 0.08255089, -1535042.8, -18599.854, 0.000254567, 9.997953, 10.000869 
6.498884e+1, 1.5526345e+2, -1638897.5, -1442270.4, -5813.7114, -0.006109219, 0.11760658, -1442098.6, -23669.186, 0.00005931439, 9.998143, 10.00074 
6.4991426e+1, 1.6526404e+2, -1528758.8, -1427788.5, -24738.895, 0.01318335, 0.14348102, -1422053.0, -101630.0, 0.0000034805446, 9.998612, 9.999942 
6.499327e+1, 1.752637e+2, -1327624.5, -1282421.8, -30225.246, -0.023272268, 0.11123224, -1267282.0, -44855.22, 0.00000000000024211628, 9.999331, 9.99992 
6.4995813e+1, 1.852633e+2, -1184474.8, -1183314.8, -5945.488, -0.027830012, 0.0900302, -1177921.0, -53490.766, 0.0, 9.99973, 9.999736 
6.4998984e+1, 1.9526301e+2, -1072362.1, -1082900.3, -4511.1177, -0.0014172543, 0.08532946, -1070694.8, -44262.707, 0.0, 9.999846, 9.999697 
6.500184e+1, 2.0526259e+2, -960399.2, -1029234.6, -16460.6, 0.0069595105, 0.09651189, -956665.5, -28229.652, 0.0, 10.000161, 9.99924 
6.500438e+1, 2.1526198e+2, -792701.44, -901835.94, -22558.826, -0.002159999, 0.108737916, -788222.25, 42219.742, 0.0, 10.000658, 9.999202 
6.500696e+1, 2.2526094e+2, -672853.8, -842904.06, -16952.021, -0.009247964, 0.10745631, -671180.3, 61271.43, 0.0, 10.00102, 9.99876 
6.500957e+1, 2.3525952e+2, -543204.3, -733676.7, -3339.6794, -0.013662413, 0.08739989, -543145.8, 91318.91, 0.0, 10.001255, 9.998724 
6.5012014e+1, 2.4525782e+2, -418585.6, -674162.1, -13868.476, -0.01205575, 0.069000974, -417835.22, 118644.99, 0.0, 10.001658, 9.998266 
6.5014344e+1, 2.5525585e+2, -241968.34, -541803.7, -18470.967, -0.004286543, 0.042731863, -240834.75, 197663.4, 0.0, 10.0022135, 9.998235 
6.501672e+1, 2.6525375e+2, -123441.25, -487693.1, -9331.516, -0.0002984014, 0.032301597, -123202.35, 217315.56, 0.0, 10.002587, 9.997752 
6.50192e+1, 2.752515e+2, 3178.374, -380821.78, -2325.6868, 0.002155273, 0.02959691, 3192.459, 245731.75, 0.0, 10.002806, 9.997708 
6.5021616e+1, 2.8524914e+2, 124762.31, -324786.38, -8411.903, 0.006558465, 0.04896626, 124919.664, 269480.88, 0.000000013847158, 10.003198, 9.997231 
6.502391e+1, 2.9524666e+2, 302594.88, -183010.22, -15642.878, 0.006316551, 0.07481138, 303098.25, 349682.3, 0.0000047556837, 10.003723, 9.997278 
6.502583e+1, 3.052416e+2, 314141.7, -266674.38, -29399.455, -0.010328544, -0.11200978, 315626.03, 315626.03, 0.000056396846, 10.003961, 9.99626 
6.502765e+1, 3.152397e+2, 457245.72, 31034.129, 7473.3994, -0.012348377, 0.07923574, 457376.72, 457376.72, 0.00021408794, 10.003959, 9.998306 
7.497787e+1, 1.2525883e+2, -2006350.0, -1667753.9, 14835.109, -0.059118863, 0.11465227, -1667105.1, 45371.098, 0.0009783517, 9.9971895, 10.001677 
7.498134e+1, 1.3526024e+2, -1925977.5, -1715162.1, 9699.74, -0.0073047713, 0.21154714, -1714716.8, -100253.48, 0.00055803865, 9.997661, 10.000451 
7.4984145e+1, 1.4525966e+2, -1759986.5, -1545071.6, 3991.5874, -0.009328095, 0.08886551, -1544997.5, -28529.092, 0.00022607559, 9.997958, 10.000797 
7.4986726e+1, 1.552606e+2, -1644667.1, -1453348.4, 2058.643, -0.032390863, 0.10802835, -1453326.3, -34868.938, 0.000048170983, 9.998139, 10.000667 
7.4989533e+1, 1.6526107e+2, -1540687.3, -1451148.1, 2487.909, -0.037838522, 0.13480167, -1451079.1, -130626.875, 0.0000019773436, 9.998607, 9.9997835 
7.4992585e+1, 1.7526074e+2, -1338154.6, -1305067.4, -3066.3816, -0.026352327, 0.119482145, -1304785.6, -82329.03, 0.0, 9.999334, 9.999763 
7.4995726e+1, 1.8526039e+2, -1180513.4, -1175551.9, -1778.1104, -0.009808167, 0.107498296, -1174980.4, -50520.848, 0.0, 9.999733, 9.999788 
7.499897e+1, 1.9526018e+2, -1069469.5, -1076023.5, 438.08524, 0.011830794, 0.10452617, -1069440.4, -42980.34, 0.0, 9.999843, 9.999746 
7.500204e+1, 2.0525959e+2, -971824.6, -1051717.8, 2261.6257, 0.010658444, 0.10599901, -971760.7, -43295.14, 0.0, 10.000156, 9.999087 
7.500494e+1, 2.1525864e+2, -802853.06, -922396.94, -3634.7317, -0.011945868, 0.09875044, -802742.6, 27733.418, 0.0, 10.000656, 9.999062 
7.5007933e+1, 2.2525764e+2, -646171.2, -787101.06, -8294.813, -0.013918591, 0.08841599, -645684.7, 86800.39, 0.0, 10.001019, 9.999144 
7.501099e+1, 2.352566e+2, -517599.2, -680142.1, 6084.547, 0.0037317968, 0.067795716, -517371.75, 117120.86, 0.0, 10.001253, 9.999092 
7.5013846e+1, 2.4525522e+2, -427775.9, -692311.44, 6795.6787, 0.005014856, 0.07003921, -427601.47, 108903.516, 0.0, 10.001655, 9.998143 
7.5016505e+1, 2.5525352e+2, -250300.39, -558679.9, 2165.6858, -0.009913618, 0.08397856, -250285.19, 188236.53, 0.0, 10.002212, 9.998119 
7.5019157e+1, 2.6525122e+2, -109939.15, -459172.06, -1610.8646, -0.016357057, 0.05063859, -109931.72, 230611.34, 0.0, 10.002586, 9.997949 
7.5021887e+1, 2.7524838e+2, 14902.584, -355114.47, 6871.8926, -0.010757813, -0.033149842, 15030.164, 257598.8, 0.0, 10.0028, 9.997887 
7.502478e+1, 2.852462e+2, 109518.57, -355575.72, 11178.784, 0.0026809254, 0.004873901, 109787.1, 254376.3, 0.000000011324871, 10.003195, 9.997021 
7.5027704e+1, 2.952446e+2, 289150.3, -210652.55, 3839.3613, 0.011746506, 0.13920076, 289179.78, 335785.28, 0.000004098041, 10.003722, 9.997089 
7.502983e+1, 3.052394e+2, 340207.47, -212238.53, -30070.178, -0.0066683656, -0.06882006, 341839.4, 341839.4, 0.000050636394, 10.00396, 9.996634 
7.5031585e+1, 3.1523678e+2, 473095.22, 65299.02, 11703.346, -0.015871715, 0.014200792, 473430.8, 473430.8, 0.00019707165, 10.003953, 9.998543 
8.497484e+1, 1.252556e+2, -2010413.8, -1663941.6, 2858.085, -0.0775215, 0.10120016, -1663918.0, 48589.793, 0.00090933184, 9.997135, 10.00173 
8.4978974e+1, 1.3525715e+2, -1929499.4, -1706150.5, -520.13904, -0.0058957865, 0.2044361, -1706149.4, -91656.61, 0.0005120121, 9.997591, 10.000546 
8.4982216e+1, 1.4525649e+2, -1753302.0, -1562291.8, -10599.6045, -0.0044934135, 0.07764165, -1561705.4, -45206.58, 0.00020159004, 9.998092, 10.000615 
8.498506e+1, 1.5525734e+2, -1581307.3, -1442806.5, -20977.172, -0.037718076, 0.107029356, -1439699.0, -21209.643, 0.000039447743, 9.998662, 10.000486 
8.498827e+1, 1.6525778e+2, -1473516.9, -1412141.1, -11757.06, -0.04526769, 0.13551663, -1409966.1, -89481.32, 0.0000010481418, 9.999041, 9.999842 
8.4991866e+1, 1.7525744e+2, -1346582.5, -1302722.4, -2073.2393, -0.027070528, 0.115075886, -1302624.6, -80136.086, 0.0, 9.999249, 9.99982 
8.499539e+1, 1.8525709e+2, -1215022.8, -1199561.3, -5992.0254, -0.006067087, 0.102980636, -1197510.9, -73019.46, 0.0, 9.999527, 9.999723 
8.499886e+1, 1.9525684e+2, -1069985.9, -1083020.9, -12458.286, 0.015598778, 0.104708485, -1062443.3, -35950.855, 0.0, 9.999868, 9.999685 
8.500225e+1, 2.0525627e+2, -957576.1, -1041249.75, 1055.1151, 0.012146971, 0.10688732, -957562.8, -29064.69, 0.0, 10.000239, 9.99912 
8.5005575e+1, 2.152553e+2, -804059.56, -919605.56, 8231.597, -0.013241965, 0.097111486, -803476.1, 27032.516, 0.0, 10.000633, 9.999093 
8.5008925e+1, 2.2525436e+2, -652807.06, -786902.94, -10448.178, -0.013602253, 0.08834209, -651997.9, 80519.39, 0.0, 10.000958, 9.999174 
8.501229e+1, 2.3525342e+2, -519211.03, -677012.9, -23186.387, 0.009371898, 0.07399264, -515874.7, 118649.445, 0.0, 10.001225, 9.999126 
8.5015523e+1, 2.4525213e+2, -436947.06, -686641.9, -18052.316, 0.013268557, 0.07951432, -435648.7, 100886.95, 0.0, 10.001548, 9.998234 
8.5018647e+1, 2.5525054e+2, -286700.47, -566491.3, -7079.617, -0.0021153633, 0.09488737, -286521.44, 152029.86, 0.0, 10.00192, 9.998207 
8.502165e+1, 2.6524827e+2, -140298.5, -469796.06, -13618.002, -0.013985501, 0.056827504, -139736.64, 200835.83, 0.0, 10.002359, 9.997985 
8.502465e+1, 2.7524534e+2, 26016.28, -344780.78, -17831.615, -0.01642162, -0.036886666, 26871.826, 269470.44, 0.0, 10.002854, 9.997932 
8.502788e+1, 2.8524324e+2, 116105.23, -336616.94, -3904.4211, -0.0051457724, 0.0010536558, 116138.9, 260757.03, 0.000000007967864, 10.00317, 9.997164 
8.503116e+1, 2.9524192e+2, 242716.0, -217295.2, 14238.7, 0.004893131, 0.1468672, 243156.3, 289788.06, 0.0000034232567, 10.003336, 9.997231 
8.503367e+1, 3.0523676e+2, 309017.16, -212953.2, -21127.387, -0.0053255027, -0.07074145, 309870.9, 309870.9, 0.00004462947, 10.003683, 9.996762 
8.503587e+1, 3.1523424e+2, 498253.22, 73454.36, 3954.3665, 0.009152543, 0.009375849, 498290.03, 498290.03, 0.00017893763, 10.004142, 9.998508 
9.4972664e+1, 1.2525195e+2, -2003464.8, -1649785.5, 20303.81, -0.0099328505, 0.08859583, -1648623.8, 63919.57, 0.0008487081, 9.997136, 10.001827 
9.4976074e+1, 1.352535e+2, -1919300.8, -1686046.8, 16715.72, -0.056153845, 0.17818108, -1684854.9, -70328.0, 0.00047347447, 9.997595, 10.000684 
9.497965e+1, 1.4525275e+2, -1772490.3, -1602410.5, 10499.85, -0.07131193, 0.04855172, -1601764.8, -85230.53, 0.00018256163, 9.998094, 10.000339 
9.4983816e+1, 1.5525368e+2, -1599735.5, -1482391.1, 988.28186, -0.029437253, 0.113978684, -1482382.9, -63857.086, 0.00003354367, 9.998667, 10.000213 
9.498762e+1, 1.6525413e+2, -1454770.6, -1373596.8, -3826.7646, -0.01597046, 0.14498067, -1373416.8, -52895.953, 0.00000057940093, 9.9990425, 10.000106 
9.4991136e+1, 1.7525381e+2, -1328689.3, -1265126.3, 6231.857, -0.025406873, 0.0977691, -1264521.0, -41998.242, 0.0, 9.999248, 10.000078 
9.4994813e+1, 1.852534e+2, -1227631.9, -1225310.6, 6683.8174, -0.016899684, 0.077003516, -1219687.5, -95161.414, 0.0, 9.999525, 9.999547 
9.499864e+1, 1.9525307e+2, -1081713.6, -1107445.6, 876.944, 0.0069656456, 0.08584469, -1081683.8, -55154.555, 0.0, 9.999869, 9.9995165 
9.5002455e+1, 2.0525262e+2, -942890.06, -1010516.4, 15717.203, 0.009002036, 0.099373594, -939415.7, -10882.05, 0.0, 10.000237, 9.999331 
9.5006263e+1, 2.1525201e+2, -790108.06, -890284.2, 23275.775, -0.008052642, 0.10353746, -784964.06, 45575.58, 0.0, 10.000631, 9.999295 
9.500992e+1, 2.2525111e+2, -676155.56, -834698.3, -630.2729, -0.010096153, 0.107024975, -676153.06, 56395.402, 0.0, 10.000956, 9.998848 
9.5013446e+1, 2.3524998e+2, -541040.7, -721876.44, -12816.871, 0.0017228371, 0.10545048, -540136.8, 94422.58, 0.0, 10.001224, 9.998819 
9.501706e+1, 2.4524859e+2, -415851.47, -642428.94, -4478.177, 0.011166595, 0.098361135, -415763.0, 120809.21, 0.0, 10.001546, 9.998538 
9.502076e+1, 2.552469e+2, -267155.47, -524991.5, 7425.0645, 0.017231543, 0.07450147, -266941.84, 171645.17, 0.0, 10.001916, 9.998493 
9.502421e+1, 2.652448e+2, -150055.08, -489109.6, 4739.818, 0.0057481914, 0.050000425, -149988.83, 190617.44, 0.0, 10.002356, 9.997855 
9.5027494e+1, 2.752424e+2, 18851.61, -359654.0, 542.58527, -0.018004965, 0.017829489, 18852.389, 261481.69, 0.0, 10.002854, 9.99783 
9.503089e+1, 2.8524035e+2, 151204.69, -263586.72, 1375.5311, -0.020509277, 0.03852238, 151209.25, 295857.22, 0.0000000042394483, 10.00317, 9.997665 
9.503429e+1, 2.952386e+2, 274525.25, -149679.05, 21380.412, -0.016059833, 0.09755342, 275600.13, 322262.97, 0.000002739973, 10.003329, 9.997698 
9.5037323e+1, 3.052337e+2, 299618.84, -230635.47, -3786.2456, -0.008029698, -0.11821325, 299645.88, 299645.88, 0.000038513957, 10.003676, 9.996643 
9.504051e+1, 3.1523204e+2, 476546.38, 28475.91, 24872.719, 0.057040565, 0.061449476, 477922.84, 477922.84, 0.00016010099, 10.004141, 9.9982 
1.0496992e+2, 1.2524812e+2, -1956771.8, -1634577.1, 11359.578, -0.015332124, 0.09262596, -1634177.1, 78403.664, 0.00079770345, 9.99749, 10.00176 
1.0497374e+2, 1.3524969e+2, -1876867.0, -1664764.9, -5195.686, -0.06333628, 0.1833111, -1664637.6, -50073.71, 0.0004431459, 9.997884, 10.000689 
1.0497774e+2, 1.4524883e+2, -1751028.6, -1596764.3, -4628.7705, -0.0790775, 0.04480843, -1596625.5, -80053.25, 0.00016917764, 9.9982605, 10.000298 
1.0498241e+2, 1.5524971e+2, -1607485.3, -1491214.0, 2110.675, -0.03431096, 0.10957533, -1491175.8, -72611.305, 0.000030278157, 9.998635, 10.000168 
1.0498661e+2, 1.6525017e+2, -1465625.0, -1375968.8, -10936.139, -0.016382879, 0.14043954, -1374654.1, -54094.6, 0.0000004316036, 9.998954, 10.000133 
1.049904e+2, 1.7524987e+2, -1330019.3, -1262733.5, -18688.81, -0.021778502, 0.09559869, -1257891.1, -35330.5, 0.0, 9.999226, 10.000106 
1.0499439e+2, 1.8524946e+2, -1216352.0, -1223933.6, -13893.797, -0.016927877, 0.073973745, -1205741.1, -81177.164, 0.0, 9.99962, 9.99951 
1.0499855e+2, 1.9524904e+2, -1046226.44, -1094740.5, -10429.599, -0.0024730253, 0.07818993, -1044079.25, -17511.035, 0.0, 10.000131, 9.999478 
1.05002746e+2, 2.0524856e+2, -913090.1, -993951.06, -4045.067, 0.0041686133, 0.089488454, -912888.25, 15684.661, 0.0, 10.000432, 9.999352 
1.05006956e+2, 2.1524799e+2, -802018.9, -893367.0, -11229.485, 0.0031160552, 0.093650304, -800658.7, 29919.826, 0.0, 10.000539, 9.999318 
1.0501091e+2, 2.2524714e+2, -694218.4, -847080.56, -25202.01, -0.00086312584, 0.10380911, -690170.6, 42416.414, 0.0, 10.000848, 9.998815 
1.0501463e+2, 2.3524609e+2, -526719.75, -718935.1, -16084.273, -0.007376009, 0.11557258, -525383.1, 109214.66, 0.0, 10.001339, 9.998785 
1.05018586e+2, 2.4524473e+2, -393143.84, -621232.9, -9842.832, 0.0039276215, 0.10714389, -392719.88, 143890.75, 0.0, 10.0016575, 9.99863 
1.0502276e+2, 2.5524297e+2, -274708.88, -518011.0, -14724.086, 0.030585265, 0.06762105, -273821.03, 164804.69, 0.0, 10.001819, 9.998589 
1.05026625e+2, 2.6524103e+2, -171639.03, -487403.9, -5579.6353, 0.022085944, 0.045998633, -171540.47, 169103.23, 0.0, 10.002153, 9.997965 
1.05030276e+2, 2.752389e+2, -5021.229, -359365.72, 7155.148, -0.014878135, 0.034020826, -4876.8066, 237787.19, 0.0, 10.002639, 9.997937 
1.0503401e+2, 2.8523692e+2, 134973.14, -266404.25, -11344.388, -0.018986726, 0.055256974, 135293.52, 279975.5, 0.0000000012344323, 10.0030365, 9.997711 
1.05037734e+2, 2.952351e+2, 280481.22, -141824.66, -25242.32, -0.0043315166, 0.0992134, 281984.66, 328682.53, 0.0000020653147, 10.0033455, 9.9977455 
1.05041064e+2, 3.0523023e+2, 321332.53, -203005.52, -44810.035, -0.004772073, -0.117642894, 325134.44, 325134.44, 0.00003243676, 10.003748, 9.996801 
1.0504461e+2, 3.1522897e+2, 482926.94, 25022.307, 4674.415, 0.049732618, 0.08372799, 482974.63, 482974.63, 0.00014094144, 10.004212, 9.998143 
1.14966616e+2, 1.2524408e+2, -1971813.9, -1667492.9, 26546.654, -0.09746679, 0.110455304, -1665194.5, 47426.06, 0.0007564602, 9.997498, 10.001531 
1.14971906e+2, 1.3524571e+2, -1885528.3, -1682528.3, 9831.715, -0.034890983, 0.22027007, -1682053.3, -67449.32, 0.00042056636, 9.997882, 10.000568 
1.1497645e+2, 1.4524472e+2, -1739307.1, -1571440.3, 9663.476, -0.035360713, 0.066580564, -1570885.9, -54272.855, 0.00016082273, 9.998256, 10.000473 
1.1498088e+2, 1.552454e+2, -1594999.0, -1466408.3, 16873.457, -0.05269011, 0.09267621, -1464231.0, -45625.31, 0.000029173776, 9.99864, 10.000337 
1.14985265e+2, 1.6524582e+2, -1478554.5, -1403881.3, -1307.9082, -0.046620723, 0.12177738, -1403858.4, -83257.36, 0.0000005105562, 9.998959, 9.999939 
1.1498965e+2, 1.7524567e+2, -1343339.3, -1290708.3, -7855.921, -0.020139547, 0.109227814, -1289560.6, -66958.64, 0.0, 9.999227, 9.999913 
1.1499407e+2, 1.8524526e+2, -1210244.6, -1210823.5, 5287.314, -0.0103476625, 0.09402611, -1205238.9, -80633.516, 0.0, 9.999619, 9.999601 
1.14998564e+2, 1.9524476e+2, -1039871.2, -1081539.3, 8845.456, -0.013925917, 0.08127868, -1038071.2, -11461.634, 0.0, 10.00013, 9.999569 
1.15003094e+2, 2.0524408e+2, -925478.7, -1019078.5, -230.32875, -0.0036437148, 0.077387705, -925478.1, 3137.9238, 0.0, 10.000429, 9.999182 
1.1500766e+2, 2.1524319e+2, -813198.2, -916252.7, -6517.1514, 0.018810509, 0.06714988, -812787.6, 17837.557, 0.0, 10.000537, 9.999162 
1.150119e+2, 2.2524242e+2, -676799.2, -810169.8, -6920.8804, 0.012665083, 0.078529544, -676441.0, 56191.984, 0.0, 10.000845, 9.999069 
1.15015864e+2, 2.3524177e+2, -510076.84, -683833.06, 2538.7551, -0.019153796, 0.10447422, -510039.75, 124599.54, 0.0, 10.001336, 9.999027 
1.1502011e+2, 2.4524054e+2, -402882.8, -640555.4, -4115.2627, -0.009875447, 0.10600385, -402811.6, 133839.36, 0.0, 10.001654, 9.9985 
1.1502463e+2, 2.5523874e+2, -282139.63, -533236.4, -8176.567, 0.03546269, 0.07426607, -281873.66, 156793.89, 0.0, 10.001818, 9.998485 
1.15028895e+2, 2.6523688e+2, -146997.73, -435964.0, 12063.948, 0.033203945, 0.045268662, -146494.97, 194189.83, 0.0, 10.002152, 9.998319 
1.1503298e+2, 2.7523488e+2, 16590.682, -313224.66, 25489.926, -0.00844091, 0.010807893, 18549.055, 261251.83, 0.0, 10.002633, 9.998258 
1.15037225e+2, 2.85233e+2, 105134.07, -326318.84, -161.94606, -0.0011150171, 0.050027654, 105134.13, 249854.44, 0.00000000006210851, 10.003028, 9.997304 
1.1504149e+2, 2.9523137e+2, 254352.81, -195917.47, -12579.901, 0.03582489, 0.1515186, 254704.0, 301440.78, 0.0000014487281, 10.0033455, 9.997375 
1.1504488e+2, 3.052265e+2, 351756.97, -139244.86, -27785.016, 0.0016233821, -0.068456896, 353324.25, 353324.25, 0.000026628812, 10.003746, 9.99724 
1.1504818e+2, 3.1522512e+2, 494311.63, 51233.72, 24602.95, -0.016214157, 0.07554092, 495673.6, 495673.6, 0.00012196842, 10.004202, 9.998328 
1.24964006e+2, 1.252394e+2, -1972581.3, -1684993.9, 9265.174, -0.1110661, 0.10628384, -1684695.6, 27970.291, 0.0007247361, 9.997567, 10.001377 
1.2496978e+2, 1.3524102e+2, -1888299.3, -1690643.8, -6186.8467, -0.03597255, 0.22096995, -1690450.4, -75800.37, 0.00040489552, 9.997894, 10.000507 
1.2497471e+2, 1.4523996e+2, -1736627.6, -1562458.9, -5576.5537, -0.032317344, 0.06167718, -1562280.5, -45621.094, 0.00015657058, 9.99824, 10.000543 
1.24979526e+2, 1.5524071e+2, -1592176.3, -1457997.5, -6736.181, -0.051367246, 0.08826389, -1457660.1, -39009.484, 0.000029665785, 9.998629, 10.0004 
1.2498431e+2, 1.6524106e+2, -1468094.8, -1413085.9, -25336.605, -0.045293927, 0.11376899, -1403194.6, -82548.09, 0.0000007617598, 9.99909, 9.999813 
1.2498909e+2, 1.7524071e+2, -1295517.3, -1281811.4, -28293.871, -0.017795246, 0.0945864, -1259552.4, -36902.3, 0.0, 9.999614, 9.999789 
1.2499387e+2, 1.8524034e+2, -1168296.1, -1185847.0, -17848.537, -0.005876116, 0.08593092, -1157182.4, -32528.906, 0.0, 9.999885, 9.999645 
1.2499866e+2, 1.9524008e+2, -1067049.4, -1089662.9, -18265.826, -0.0075115967, 0.092791595, -1056874.0, -30218.662, 0.0, 9.999923, 9.999614 
1.2500341e+2, 2.0523942e+2, -968468.44, -1042801.06, -23781.666, -0.0015083028, 0.08851277, -961511.0, -32849.207, 0.0, 10.000147, 9.999154 
1.2500812e+2, 2.152383e+2, -814131.56, -919708.3, -20283.19, 0.010775305, 0.059719533, -810368.9, 20304.223, 0.0, 10.000543, 9.999136 
1.250127e+2, 2.2523749e+2, -668723.0, -793443.2, -16986.494, 0.008178133, 0.06224472, -666450.9, 66230.24, 0.0, 10.000843, 9.999186 
1.2501717e+2, 2.3523696e+2, -542878.5, -686722.2, -18625.238, -0.007901106, 0.088196255, -540506.0, 94179.98, 0.0, 10.001056, 9.999143 
1.2502179e+2, 2.4523586e+2, -433494.75, -653106.4, -23415.422, 0.003335559, 0.09650921, -431025.9, 105670.44, 0.0, 10.001434, 9.99852 
1.2502654e+2, 2.5523424e+2, -260859.17, -521086.75, -16877.666, 0.037408132, 0.079171784, -259769.1, 178942.8, 0.0, 10.001955, 9.998503 
1.2503108e+2, 2.652324e+2, -121597.84, -417734.5, -3689.2693, 0.030259717, 0.05407034, -121551.89, 219176.8, 0.0, 10.002301, 9.998372 
1.2503552e+2, 2.7523038e+2, -1024.1466, -316560.75, -13609.787, -0.008888527, 0.012031473, -438.2146, 242308.75, 0.0, 10.002488, 9.998305 
1.2504022e+2, 2.8522855e+2, 86171.375, -334261.97, -27178.518, 0.0035588408, 0.049474612, 87921.02, 232685.38, 0.0, 10.002891, 9.997316 
1.25045e+2, 2.95227e+2, 272041.13, -186007.06, -9974.192, 0.04719562, 0.15728754, 272258.22, 319038.13, 0.00000094519226, 10.003462, 9.997386 
1.250487e+2, 3.052222e+2, 372184.6, -122062.516, -28937.518, 0.0045962622, -0.06000941, 373873.1, 373873.1, 0.000021325412, 10.003857, 9.997305 
1.2505229e+2, 3.1522068e+2, 463089.06, 14367.981, -3309.3977, -0.01824268, 0.06495242, 463113.47, 463113.47, 0.00010374953, 10.00408, 9.998136 
1.3496207e+2, 1.2523411e+2, -1981095.5, -1700282.1, 22152.775, -0.06217784, 0.08460872, -1698545.4, 14171.242, 0.0007016644, 9.997557, 10.001278 
1.3496736e+2, 1.3523553e+2, -1888196.4, -1693206.0, 6786.333, -0.06836123, 0.18379132, -1692970.1, -78267.51, 0.00039489288, 9.997906, 10.000484 
1.3497259e+2, 1.4523451e+2, -1736808.8, -1564949.0, 7606.0293, -0.072296135, 0.02831567, -1564613.0, -47901.176, 0.00015526546, 9.99825, 10.000521 
1.3497832e+2, 1.5523566e+2, -1594805.4, -1462422.3, 8282.35, -0.03560912, 0.097705744, -1461906.0, -43206.805, 0.000031126172, 9.998624, 10.000371 
1.3498367e+2, 1.652359e+2, -1473766.1, -1423850.5, -5689.7783, -0.017779872, 0.117437884, -1423210.1, -102513.945, 0.0000011270397, 9.999085, 9.999742 
1.3498873e+2, 1.75235e+2, -1299532.0, -1290885.1, -8488.55, -0.016082527, 0.050327208, -1285682.4, -62977.31, 0.0, 9.999618, 9.999725 
1.3499378e+2, 1.8523467e+2, -1167586.6, -1184865.8, -16851.684, -0.004745195, 0.04912175, -1157288.9, -32580.393, 0.0, 9.9998865, 9.999652 
1.3499881e+2, 1.9523498e+2, -1066894.5, -1089289.9, -16209.421, 0.015016426, 0.11241217, -1058391.1, -31685.422, 0.0, 9.999922, 9.999617 
1.3500366e+2, 2.0523451e+2, -961073.5, -1026821.75, -9132.626, 0.00848546, 0.12268765, -959828.56, -31118.213, 0.0, 10.000144, 9.999266 
1.3500834e+2, 2.152333e+2, -806937.1, -904227.7, -4992.828, -0.02224042, 0.07117397, -806681.56, 24040.701, 0.0, 10.00054, 9.999244 
1.350133e+2, 2.2523233e+2, -671487.4, -798088.5, -9180.54, -0.016480152, 0.055762958, -670825.1, 61906.313, 0.0, 10.000839, 9.999156 
1.3501854e+2, 2.3523162e+2, -543921.06, -688884.8, -9959.815, 0.023852173, 0.06594383, -543240.0, 91497.914, 0.0, 10.001056, 9.999128 
1.3502361e+2, 2.4523063e+2, -421619.97, -627960.5, -4129.049, 0.041161194, 0.077301845, -421537.38, 115209.71, 0.0, 10.001432, 9.998693 
1.3502847e+2, 2.552294e+2, -250528.3, -498874.78, 2716.0818, 0.035288237, 0.08186154, -250498.6, 188260.19, 0.0, 10.001951, 9.998657 
1.3503322e+2, 2.6522768e+2, -140355.44, -455244.88, 3004.6467, 0.012682795, 0.07194965, -140326.77, 200448.55, 0.0, 10.0022955, 9.998117 
1.3503791e+2, 2.752255e+2, -16437.465, -348417.72, -5470.6255, -0.020089842, 0.03823286, -16347.34, 226449.14, 0.0, 10.002488, 9.998086 
1.35043e+2, 2.8522354e+2, 115757.04, -272368.2, -6119.848, -0.00826066, 0.053951655, 115853.51, 260667.58, 0.0, 10.002889, 9.997743 
1.3504827e+2, 2.9522195e+2, 298635.03, -128950.89, 11664.452, 0.027322363, 0.11574999, 298953.0, 345780.44, 0.0000005800232, 10.003453, 9.997783 
1.3505253e+2, 3.0521727e+2, 349512.63, -166196.56, -21237.758, 0.0028167232, -0.09421924, 350385.75, 350385.75, 0.000016654767, 10.003845, 9.997007 
1.3505693e+2, 3.1521565e+2, 424307.1, -64934.98, 7313.667, 0.036958836, 0.05218469, 424416.38, 424416.38, 0.00008670888, 10.004077, 9.997591 
1.4495979e+2, 1.2522854e+2, -1956684.6, -1697766.9, 10290.861, -0.053675078, 0.07395159, -1697358.5, 15411.877, 0.0006852014, 9.997764, 10.001195 
1.4496543e+2, 1.3522995e+2, -1845264.5, -1671417.0, -5262.065, -0.0672617, 0.16993484, -1671257.9, -56501.516, 0.00038852147, 9.998195, 10.000494 
1.4497098e+2, 1.4522885e+2, -1702986.5, -1562281.1, -9169.589, -0.072151564, 0.012562576, -1561686.1, -44919.7, 0.00015533686, 9.99854, 10.0004 
1.4497706e+2, 1.5522994e+2, -1579054.1, -1468528.5, -17387.58, -0.030795114, 0.08744973, -1465857.6, -47103.027, 0.00003278088, 9.998791, 10.000249 
1.4498277e+2, 1.6523015e+2, -1474307.3, -1417936.5, -24926.986, -0.014255488, 0.108401015, -1408495.1, -87743.266, 0.0000015078091, 9.999055, 9.999797 
1.4498818e+2, 1.7522931e+2, -1335399.6, -1302203.4, -19186.467, -0.020130439, 0.04133457, -1293431.9, -70671.664, 0.0, 9.999345, 9.999779 
1.4499347e+2, 1.85229e+2, -1202212.5, -1204290.4, -31943.385, -0.011740403, 0.04127701, -1171291.1, -46527.695, 0.0, 9.99966, 9.999627 
1.449987e+2, 1.9522929e+2, -1057583.3, -1087693.5, -34243.383, 0.0088414345, 0.10462769, -1035231.6, -8470.393, 0.0, 9.999997, 9.999593 
1.4500384e+2, 2.052289e+2, -933034.25, -1006380.8, -23571.01, 0.004977445, 0.12042618, -926112.56, 2652.7698, 0.0, 10.000306, 9.999328 
1.4500889e+2, 2.1522787e+2, -795166.6, -891660.44, -23957.006, -0.021692334, 0.081974186, -789546.1, 41229.273, 0.0, 10.000591, 9.999305 
1.450142e+2, 2.2522694e+2, -668655.0, -800688.56, -32681.76, -0.012470809, 0.0696772, -661008.25, 71775.89, 0.0, 10.000875, 9.999121 
1.4501971e+2, 2.3522614e+2, -531614.5, -686599.25, -34361.047, 0.030258985, 0.072764315, -524338.06, 110453.71, 0.0, 10.001156, 9.999096 
1.4502507e+2, 2.4522513e+2, -416727.78, -618561.44, -27233.982, 0.044749085, 0.07958264, -413117.6, 123683.64, 0.0, 10.001435, 9.998756 
1.4503026e+2, 2.5522393e+2, -281087.1, -507334.0, -29477.615, 0.03131062, 0.08303886, -277309.53, 161502.8, 0.0, 10.001715, 9.998713 
1.4503537e+2, 2.6522225e+2, -175079.03, -475200.78, -26775.492, 0.010070581, 0.07566854, -172708.95, 168119.6, 0.0, 10.00207, 9.998089 
1.4504047e+2, 2.7522007e+2, -20930.93, -352940.88, -18971.602, -0.01306794, 0.046471633, -19850.377, 222999.34, 0.0, 10.002469, 9.998064 
1.4504589e+2, 2.852181e+2, 114340.66, -261091.98, -18252.855, -0.0035811132, 0.05304789, 115225.99, 260093.52, 0.0, 10.002829, 9.9978485 
1.450515e+2, 2.9521638e+2, 263719.0, -135979.22, -24881.686, 0.019117596, 0.09410805, 265261.97, 312143.28, 0.00000034163278, 10.00317, 9.997871 
1.4505628e+2, 3.0521193e+2, 335964.6, -167977.06, -53989.023, -0.0014879883, -0.09516885, 341683.72, 341683.72, 0.000012640429, 10.003729, 9.997051 
1.4506151e+2, 3.1521043e+2, 458447.97, -71210.76, -2455.3835, 0.07080527, 0.054119993, 458459.38, 458459.38, 0.000071064576, 10.004409, 9.997389 
1.549572e+2, 1.2522264e+2, -1958620.8, -1704447.1, 27170.186, -0.09319247, 0.0697679, -1701575.1, 11252.729, 0.0006719969, 9.997774, 10.001143 
1.5496391e+2, 1.3522425e+2, -1841838.6, -1663843.9, 10913.532, -0.038563304, 0.18119183, -1663177.3, -48365.992, 0.00038301162, 9.998192, 10.000547 
1.5496987e+2, 1.45223e+2, -1719761.6, -1595859.3, -136.2401, -0.037109345, 0.01639473, -1595859.0, -79036.234, 0.00015494693, 9.998534, 10.000172 
1.5497579e+2, 1.5522349e+2, -1593754.9, -1500254.5, -7578.2007, -0.038854055, 0.05647718, -1499644.3, -80827.266, 0.000033834087, 9.9987955, 10.000029 
1.5498161e+2, 1.6522379e+2, -1460269.5, -1390262.8, -14812.963, -0.037148036, 0.08529171, -1387257.5, -66443.65, 0.0000017896223, 9.999061, 9.999984 
1.5498738e+2, 1.7522365e+2, -1323047.5, -1276105.4, -7958.193, -0.033163633, 0.068693385, -1274793.0, -51977.637, 0.0, 9.999343, 9.999959 
1.5499295e+2, 1.8522334e+2, -1206356.4, -1212550.5, -19525.877, -0.030519102, 0.06344487, -1189683.5, -64865.016, 0.0, 9.999658, 9.999573 
1.5499833e+2, 1.9522299e+2, -1061179.4, -1095095.6, -21253.016, -0.027971776, 0.06902804, -1050948.0, -24125.918, 0.0, 9.999996, 9.999542 
1.5500396e+2, 2.0522255e+2, -932604.7, -1005052.7, -13110.505, -0.014043277, 0.081916444, -930305.1, -1478.3442, 0.0, 10.000304, 9.999338 
1.550098e+2, 2.15222e+2, -794612.2, -890380.44, -12730.526, 0.010082096, 0.09091131, -792948.75, 37883.82, 0.0, 10.00059, 9.999314 
1.5501536e+2, 2.252213e+2, -671462.56, -806014.2, -22438.357, 0.017800309, 0.10256404, -667819.3, 65020.29, 0.0, 10.000874, 9.999084 
1.5502067e+2, 2.3522049e+2, -534739.1, -692687.06, -23504.297, 0.010791697, 0.10844249, -531315.6, 103532.01, 0.0, 10.001154, 9.999055 
1.5502618e+2, 2.4521932e+2, -420948.47, -626565.25, -16940.18, 0.012772557, 0.103961356, -419562.16, 117296.59, 0.0, 10.001432, 9.998703 
1.5503189e+2, 2.5521782e+2, -283883.06, -513228.28, -18289.156, 0.021627752, 0.08269017, -282433.75, 156438.83, 0.0, 10.001715, 9.9986725 
1.5503752e+2, 2.6521608e+2, -161412.02, -446499.8, -11931.124, 0.018762527, 0.064107224, -160913.56, 179974.98, 0.0, 10.0020685, 9.998287 
1.5504315e+2, 2.7521414e+2, -8378.986, -325996.75, -4037.2632, 0.009890934, 0.036188018, -8327.677, 234579.11, 0.0, 10.002465, 9.99825 
1.5504894e+2, 2.8521216e+2, 98878.414, -292561.72, -6043.643, 0.016269373, 0.045463894, 98971.7, 243896.52, 0.0, 10.002825, 9.997635 
1.5505467e+2, 2.952103e+2, 250183.39, -164758.97, -10185.727, 0.018888446, 0.09274436, 250433.27, 297374.6, 0.00000019535571, 10.003172, 9.997673 
1.5505989e+2, 3.0520633e+2, 361168.13, -114793.69, -28147.633, -0.013276091, -0.06248556, 362826.97, 362826.97, 0.000009261703, 10.003726, 9.9974165 
1.5506595e+2, 3.15205e+2, 465997.34, -53244.96, 24509.436, 0.07395159, 0.07121623, 467151.66, 467151.66, 0.000056915687, 10.004399, 9.997516 
1.6495498e+2, 1.2521628e+2, -1951397.3, -1713374.1, -2076.7947, -0.09733746, 0.08264031, -1713356.0, -465.6015, 0.00065754744, 9.997874, 10.001034 
1.6496223e+2, 1.3521785e+2, -1828768.5, -1657632.8, -27325.56, -0.028325021, 0.18947703, -1653375.5, -38501.355, 0.00037533476, 9.9982815, 10.000546 
1.6496854e+2, 1.4521652e+2, -1710312.3, -1587353.5, -35510.18, -0.02626983, 0.016398016, -1577835.1, -60949.008, 0.00015252095, 9.998582, 10.000207 
1.6497459e+2, 1.5521689e+2, -1591162.0, -1495310.4, -23963.992, -0.03872148, 0.040875334, -1489653.0, -70771.82, 0.000033788867, 9.998797, 10.000062 
1.649806e+2, 1.6521724e+2, -1468809.1, -1398379.3, -29164.79, -0.041822664, 0.075389326, -1387870.3, -66992.67, 0.0000018950186, 9.99902, 9.999948 
1.6498663e+2, 1.7521732e+2, -1340316.8, -1288804.6, -40219.79, -0.039129842, 0.08526055, -1266800.9, -43923.445, 0.0, 9.999243, 9.99992 
1.6499253e+2, 1.8521698e+2, -1212843.6, -1213038.9, -50211.016, -0.035961334, 0.078175284, -1162730.1, -37849.363, 0.0, 9.999602, 9.999595 
1.6499834e+2, 1.9521639e+2, -1044940.5, -1084707.9, -47093.207, -0.03196332, 0.056972586, -1013705.4, 13181.012, 0.0, 10.000097, 9.999565 
1.650043e+2, 2.052159e+2, -920997.1, -999746.06, -44302.957, -0.014093964, 0.06350204, -901100.2, 27791.166, 0.0, 10.000385, 9.999336 
1.6501041e+2, 2.1521547e+2, -810123.75, -898041.2, -45260.266, 0.015802616, 0.08425665, -790988.4, 39907.64, 0.0, 10.000484, 9.999312 
1.6501625e+2, 2.252148e+2, -686854.4, -815144.94, -47112.582, 0.022941021, 0.09931513, -671411.9, 61490.918, 0.0, 10.000775, 9.999069 
1.6502185e+2, 2.3521394e+2, -522669.3, -688688.1, -47443.816, 0.009480408, 0.102864705, -510067.66, 124843.74, 0.0, 10.001245, 9.999039 
1.6502763e+2, 2.4521272e+2, -404496.53, -622821.56, -44156.03, 0.009075896, 0.09818351, -395904.2, 141018.7, 0.0, 10.001563, 9.998666 
1.6503358e+2, 2.5521123e+2, -283723.72, -516441.28, -44304.223, 0.018716058, 0.0784867, -275574.53, 163362.47, 0.0, 10.001731, 9.998642 
1.6503955e+2, 2.6520953e+2, -162855.98, -440836.75, -35533.96, 0.016279763, 0.06038969, -158385.61, 182567.11, 0.0, 10.002032, 9.9983425 
1.650456e+2, 2.752076e+2, -5412.448, -319012.28, -39319.79, 0.008384062, 0.03104433, -557.6103, 242412.8, 0.0, 10.002461, 9.9983 
1.6505176e+2, 2.8520563e+2, 96045.34, -295387.84, -42048.695, 0.018365024, 0.0385819, 100511.36, 245500.02, 0.0, 10.002812, 9.997621 
1.6505787e+2, 2.9520378e+2, 233175.52, -174455.47, -32109.889, 0.02674677, 0.086521715, 235689.36, 282695.13, 0.00000010392393, 10.003063, 9.997657 
1.6506349e+2, 3.052002e+2, 339909.6, -109245.914, -38150.49, -0.014618774, -0.032664306, 343127.0, 343127.0, 0.0000064948904, 10.003512, 9.997557 
1.6507018e+2, 3.1519875e+2, 424837.0, -78193.055, -4564.45, 0.06995661, 0.07369751, 424878.4, 424878.4, 0.00004432351, 10.004136, 9.997469 
1.7495312e+2, 1.2520945e+2, -1963515.1, -1738131.3, 15047.019, -0.07187916, 0.11509239, -1737131.1, -24173.271, 0.0006370072, 9.997872, 10.000865 
1.7496043e+2, 1.3521066e+2, -1832038.8, -1666081.0, -11784.885, -0.038823586, 0.19339563, -1665248.4, -50303.035, 0.00036284848, 9.998287, 10.000485 
1.7496696e+2, 1.4520937e+2, -1688193.3, -1542856.4, -28495.275, -0.04257099, 0.010590373, -1537469.1, -20512.492, 0.00014707113, 9.998588, 10.000509 
1.7497341e+2, 1.5521011e+2, -1570788.3, -1453008.8, -15561.124, -0.034416866, 0.042288877, -1450987.5, -32040.344, 0.00003249045, 9.998796, 10.000353 
1.7497972e+2, 1.6521052e+2, -1487336.6, -1436762.8, -21178.922, -0.032179862, 0.080390394, -1429065.3, -108122.1, 0.0000018022155, 9.99902, 9.999685 
1.7498586e+2, 1.7521033e+2, -1358400.3, -1326247.6, -31325.365, -0.039640307, 0.090682976, -1307114.3, -84167.766, 0.0, 9.999243, 9.999663 
1.7499219e+2, 1.8520993e+2, -1205938.5, -1198977.4, -31856.209, -0.030762158, 0.085308015, -1170412.3, -45461.707, 0.0, 9.999603, 9.999691 
1.749987e+2, 1.9520947e+2, -1038443.94, -1070942.6, -28394.063, -0.004540723, 0.06822022, -1021978.4, 4975.736, 0.0, 10.000095, 9.9996605 
1.7500487e+2, 2.0520893e+2, -922102.06, -1001737.06, -40811.965, 0.0031611416, 0.06529827, -904901.56, 24057.533, 0.0, 10.000383, 9.999323 
1.7501067e+2, 2.1520825e+2, -811524.06, -900357.5, -40823.574, -0.0063827788, 0.0620749, -795613.25, 35352.48, 0.0, 10.000482, 9.999298 
1.750168e+2, 2.2520742e+2, -686988.2, -814750.1, -29774.646, 0.0007342541, 0.060892295, -680390.06, 52583.777, 0.0, 10.000772, 9.999074 
1.7502326e+2, 2.3520645e+2, -522341.47, -688159.56, -29554.281, 0.023945898, 0.055170022, -517231.4, 117751.74, 0.0, 10.0012455, 9.9990425 
1.7502943e+2, 2.4520536e+2, -405998.5, -625684.44, -38128.598, 0.031151578, 0.061079115, -399569.06, 137424.75, 0.0, 10.001562, 9.998647 
1.7503534e+2, 2.552041e+2, -285213.84, -519112.88, -37678.945, 0.021206006, 0.07033718, -279293.94, 159711.67, 0.0, 10.001729, 9.998625 
1.7504144e+2, 2.652025e+2, -169000.22, -453577.56, -19712.09, 0.0022625062, 0.06440382, -167641.3, 173379.8, 0.0, 10.002032, 9.998256 
1.7504779e+2, 2.7520043e+2, -10959.623, -330654.16, -22557.473, -0.01982516, 0.030849744, -9375.826, 233664.72, 0.0, 10.002461, 9.99822 
1.7505439e+2, 2.8519845e+2, 107653.13, -270754.5, -32875.555, -0.0010704933, 0.03257599, 110488.08, 255547.11, 0.0, 10.0028105, 9.99779 
1.7506105e+2, 2.9519668e+2, 243409.81, -152016.84, -22005.816, 0.03881598, 0.07507703, 244630.69, 291705.5, 0.00000004563321, 10.003058, 9.997813 
1.7506707e+2, 3.0519354e+2, 334832.63, -119761.89, -14979.135, -0.008939919, -0.006002765, 335325.66, 335325.66, 0.000004309572, 10.003511, 9.997485 
1.7507418e+2, 3.1519172e+2, 411401.5, -107025.88, 18846.25, 0.055079937, 0.06736098, 412085.72, 412085.72, 0.000033325945, 10.004139, 9.997271 
1.849513e+2, 1.2520187e+2, -1904675.1, -1711325.6, -4322.148, -0.060889117, 0.10890592, -1711229.0, 1803.0277, 0.0006065531, 9.998283, 10.00085 
1.8495864e+2, 1.3520308e+2, -1849787.8, -1665660.1, -23675.719, -0.038852215, 0.17940404, -1662664.5, -47645.133, 0.00034376056, 9.998127, 10.000565 
1.8496539e+2, 1.4520198e+2, -1732430.4, -1558206.3, -38140.984, -0.0423674, 0.009241045, -1550222.4, -33193.387, 0.00013809917, 9.998259, 10.000563 
1.8497221e+2, 1.55203e+2, -1588316.1, -1455554.3, -44919.137, -0.026817517, 0.062081985, -1441784.4, -22767.184, 0.000029920388, 9.9986515, 10.000404 
1.8497889e+2, 1.6520332e+2, -1475928.9, -1432299.9, -46570.406, -0.022326658, 0.0928225, -1402688.0, -81674.44, 0.0000015280342, 9.999103, 9.999676 
1.8498534e+2, 1.7520283e+2, -1305431.8, -1301623.1, -38361.855, -0.033783264, 0.07265367, -1265118.4, -42099.016, 0.0, 9.99961, 9.999655 
1.8499196e+2, 1.8520238e+2, -1164422.3, -1185899.8, -37281.145, -0.02905454, 0.064545974, -1136364.1, -11340.132, 0.0, 9.999918, 9.99963 
1.8499875e+2, 1.9520208e+2, -1050127.9, -1082908.3, -46326.0, -0.007608573, 0.06918565, -1017378.1, 9648.367, 0.0, 10.000043, 9.999603 
1.8500516e+2, 2.0520158e+2, -927071.4, -994635.06, -62051.8, -0.0016678141, 0.07033703, -890201.7, 38829.156, 0.0, 10.000309, 9.999408 
1.8501121e+2, 2.1520089e+2, -772127.4, -872132.3, -55459.99, -0.010936292, 0.056119375, -747456.8, 83580.29, 0.0, 10.000712, 9.999381 
1.8501766e+2, 2.2519997e+2, -658465.2, -806946.3, -39682.81, -0.0022922913, 0.04540971, -648525.1, 84520.66, 0.0, 10.000994, 9.999021 
1.8502444e+2, 2.3519887e+2, -538119.4, -701340.3, -44183.52, 0.023853578, 0.032009423, -526926.56, 108129.91, 0.0, 10.001162, 9.998992 
1.8503092e+2, 2.4519776e+2, -418706.4, -630121.06, -53378.316, 0.029553639, 0.03793248, -405993.78, 131073.58, 0.0, 10.001468, 9.998661 
1.8503708e+2, 2.551966e+2, -258947.08, -505219.4, -51483.96, 0.014014597, 0.054302778, -248617.45, 190460.84, 0.0, 10.0019045, 9.998635 
1.8504344e+2, 2.6519504e+2, -156684.6, -453576.4, -33349.16, -0.0055519906, 0.057801872, -152984.67, 188108.56, 0.0, 10.002143, 9.998201 
1.8505007e+2, 2.7519307e+2, -54559.668, -357145.63, -34122.965, -0.023699593, 0.035739128, -50759.313, 192353.05, 0.0, 10.002187, 9.99817 
1.8505706e+2, 2.8519094e+2, 60168.0, -295262.94, -43569.313, 0.000621322, 0.030223189, 65430.87, 210563.02, 0.0, 10.002492, 9.997775 
1.8506418e+2, 2.9518896e+2, 239548.14, -156164.5, -47305.61, 0.048063036, 0.04966384, 245124.72, 292275.34, 0.000000013949684, 10.003042, 9.997792 
1.8507054e+2, 3.0518624e+2, 346361.56, -95224.58, -33199.195, -0.011764909, 0.0052651, 348843.56, 348843.56, 0.0000026617806, 10.003509, 9.997655 
1.8507805e+2, 3.151843e+2, 380555.56, -107071.58, 14796.625, 0.041971248, 0.04979867, 381004.16, 381004.16, 0.00002394661, 10.003865, 9.9974 
1.9494954e+2, 1.251935e+2, -1894441.4, -1691505.9, -8961.841, -0.06733983, 0.062831216, -1691110.9, 22002.271, 0.0005643703, 9.998289, 10.000983 
1.9495685e+2, 1.3519512e+2, -1834172.9, -1633236.4, -28829.41, -0.031289645, 0.14836437, -1629181.9, -14085.625, 0.00031730495, 9.998128, 10.000788 
1.949638e+2, 1.4519437e+2, -1746775.8, -1588069.5, -23675.164, -0.029465511, 0.013586298, -1584613.0, -67510.0, 0.00012543245, 9.998259, 10.000358 
1.9497098e+2, 1.551955e+2, -1601535.9, -1483547.8, -29562.93, -0.01739435, 0.09996792, -1476555.0, -57463.36, 0.000026112697, 9.998653, 10.000212 
1.9497807e+2, 1.6519569e+2, -1458563.1, -1396401.1, -27802.125, -0.014303833, 0.112231314, -1385780.9, -64691.81, 0.0000011234973, 9.999103, 9.999922 
1.9498506e+2, 1.7519484e+2, -1288693.0, -1266760.4, -19044.277, -0.022784973, 0.03160702, -1255750.8, -32654.646, 0.0, 9.99961, 9.999895 
1.9499184e+2, 1.8519431e+2, -1179679.8, -1217488.8, -32821.17, -0.03306235, 0.016435254, -1160708.0, -35606.94, 0.0, 9.999918, 9.999413 
1.9499844e+2, 1.951942e+2, -1065304.9, -1114027.1, -41238.465, -0.042647086, 0.060165502, -1041769.5, -14665.973, 0.0, 10.000041, 9.999392 
1.9500518e+2, 2.0519386e+2, -914381.8, -967941.9, -47101.43, -0.030863956, 0.07938059, -886979.6, 42126.938, 0.0, 10.000307, 9.999592 
1.9501203e+2, 2.1519335e+2, -759687.06, -845999.06, -39822.914, 0.00028644834, 0.06519817, -744120.8, 86989.52, 0.0, 10.0007105, 9.999561 
1.950188e+2, 2.2519244e+2, -666721.3, -823586.25, -33784.56, 0.012311488, 0.052179534, -659754.44, 73364.336, 0.0, 10.000992, 9.998907 
1.9502546e+2, 2.351912e+2, -545883.9, -717072.25, -37357.203, 0.007791977, 0.03320817, -538086.8, 97044.61, 0.0, 10.00116, 9.998885 
1.9503213e+2, 2.4518992e+2, -415710.53, -623760.6, -37327.81, 0.0030577523, 0.028896688, -409216.0, 127927.57, 0.0, 10.001467, 9.998705 
1.9503881e+2, 2.5518867e+2, -256255.27, -499462.63, -34986.504, -0.00466885, 0.03006246, -251322.34, 187832.8, 0.0, 10.001904, 9.998675 
1.9504556e+2, 2.651872e+2, -158917.7, -458002.25, -32156.518, -0.009300026, 0.040650953, -155499.42, 185669.77, 0.0, 10.002142, 9.998172 
1.9505243e+2, 2.7518547e+2, -56498.5, -361100.6, -32182.615, -0.005814922, 0.04549822, -53135.39, 190050.61, 0.0, 10.002186, 9.998143 
1.9505975e+2, 2.8518316e+2, 46369.332, -323578.2, -23105.953, 0.021290781, 0.03161247, 47806.883, 193014.98, 0.0, 10.00249, 9.9975815 
1.9506729e+2, 2.9518053e+2, 225974.78, -184612.73, -25491.826, 0.05312319, 0.010522308, 227551.42, 274784.63, 0.0000000023315327, 10.003043, 9.997597 
1.9507392e+2, 3.0517828e+2, 374053.8, -37609.734, -20477.385, -0.024951814, 0.0020070376, 375069.9, 375069.9, 0.0000014940416, 10.003509, 9.99805 
1.9508174e+2, 3.1517658e+2, 409942.25, -44983.992, 26330.06, 0.024120482, 0.026534332, 411461.13, 411461.13, 0.000016254342, 10.00386, 9.997829 
2.0494768e+2, 1.251854e+2, -1961257.6, -1727085.8, -3660.8276, -0.06040116, 0.050111756, -1727028.5, -13836.472, 0.0005112227, 9.9978485, 10.000951 
2.0495516e+2, 1.3518707e+2, -1788028.8, -1605832.9, -42641.992, -0.02709263, 0.13812423, -1596346.6, 18827.975, 0.00028397882, 9.998424, 10.0008335 
2.0496231e+2, 1.4518641e+2, -1674698.9, -1560449.6, -35013.477, -0.028237171, 0.013493819, -1550573.1, -33392.473, 0.000109345056, 9.998784, 10.000295 
2.0496976e+2, 1.5518747e+2, -1562372.4, -1470773.6, -30875.572, -0.01912208, 0.09617537, -1461338.3, -42168.047, 0.000021261263, 9.998949, 10.000157 
2.049772e+2, 1.6518761e+2, -1444852.6, -1388769.8, -27350.111, -0.015526599, 0.106639996, -1377640.4, -56472.293, 0.00000067965186, 9.999192, 9.999931 
2.0498462e+2, 1.7518678e+2, -1301706.3, -1271901.5, -37557.664, -0.022747343, 0.028734252, -1246397.6, -23222.973, 0.0, 9.999516, 9.999906 
2.0499171e+2, 1.851863e+2, -1193925.9, -1219459.3, -57746.656, -0.030325176, 0.013466125, -1147551.5, -22372.178, 0.0, 9.999799, 9.999457 
2.0499855e+2, 1.9518617e+2, -1061212.8, -1106935.4, -46673.887, -0.03626554, 0.053565368, -1032102.06, -4920.5796, 0.0, 10.000048, 9.999436 
2.0500556e+2, 2.0518582e+2, -916134.3, -976496.75, -45472.48, -0.025104925, 0.07160257, -891738.5, 37446.36, 0.0, 10.000328, 9.999523 
2.0501272e+2, 2.1518525e+2, -774076.9, -860260.44, -58120.65, 0.00092922006, 0.059255753, -744815.94, 86373.586, 0.0, 10.000644, 9.999496 
2.050197e+2, 2.2518441e+2, -670859.0, -820434.1, -59130.703, 0.006229997, 0.054999538, -650307.06, 82890.305, 0.0, 10.000941, 9.998954 
2.0502649e+2, 2.3518336e+2, -533409.8, -705774.25, -51525.613, -0.0066810013, 0.05043329, -519181.56, 116026.555, 0.0, 10.001223, 9.998932 
2.0503345e+2, 2.451821e+2, -413450.84, -622420.06, -42816.652, -0.01161737, 0.043760296, -405018.22, 132201.88, 0.0, 10.001482, 9.998707 
2.0504054e+2, 2.551807e+2, -283212.97, -512399.06, -44320.44, -0.011661559, 0.028173529, -274940.75, 164292.36, 0.0, 10.0017185, 9.998675 
2.0504765e+2, 2.6517913e+2, -178441.27, -470431.7, -47190.785, -0.007804674, 0.033761334, -171003.86, 170243.73, 0.0, 10.00202, 9.998146 
2.0505482e+2, 2.7517742e+2, -31128.09, -352157.0, -48369.81, 0.0054632355, 0.045254927, -23998.492, 219265.38, 0.0, 10.002374, 9.998115 
2.0506242e+2, 2.8517503e+2, 67589.336, -321426.56, -27211.357, 0.031599395, 0.02504287, 69483.53, 214770.64, 0.0, 10.00267, 9.99751 
2.0507026e+2, 2.9517218e+2, 200435.53, -205380.67, -20814.225, 0.052535627, -0.013444031, 201500.3, 248815.14, 0.000000000097020676, 10.002905, 9.99752 
2.0507714e+2, 3.051702e+2, 336360.94, -54439.242, -25108.41, -0.038387552, 0.009001388, 337967.5, 337967.5, 0.00000072960836, 10.003243, 9.998063 
2.050854e+2, 3.1516808e+2, 388020.3, -41093.637, -11425.978, 0.015767176, -0.006425013, 388324.34, 388324.34, 0.000010315381, 10.003646, 9.997961 
2.1494569e+2, 1.2517755e+2, -1976669.3, -1759349.4, 22064.578, -0.045284268, 0.07263044, -1757131.8, -43863.12, 0.00045034575, 9.9978485, 10.0007305 
2.1495359e+2, 1.3517895e+2, -1797573.9, -1626870.4, -20464.633, -0.027861027, 0.14879577, -1624451.3, -9196.763, 0.0002457903, 9.998427, 10.000688 
2.1496098e+2, 1.4517811e+2, -1668217.0, -1547924.5, -29495.566, -0.041471284, 0.009174252, -1541081.5, -23819.676, 0.00009091271, 9.998788, 10.000379 
2.1496856e+2, 1.5517884e+2, -1556276.8, -1458075.1, -24046.0, -0.033699, 0.050685972, -1452503.3, -33250.25, 0.000015871614, 9.998948, 10.000245 
2.1497627e+2, 1.6517906e+2, -1461123.0, -1422610.9, -15366.115, -0.028756576, 0.07614399, -1417231.4, -95980.75, 0.00000031009594, 9.999192, 9.999699 
2.1498403e+2, 1.7517866e+2, -1317289.8, -1304983.8, -25128.316, -0.035367455, 0.06421702, -1285266.1, -62010.785, 0.0, 9.999517, 9.999678 
2.149916e+2, 1.8517828e+2, -1171787.4, -1173656.5, -48526.484, -0.023717094, 0.055860963, -1124186.4, 1072.4426, 0.0, 9.999799, 9.999771 
2.1499905e+2, 1.95178e+2, -1039889.8, -1062505.1, -36779.965, 0.010089835, 0.04902464, -1012718.56, 14541.999, 0.0, 10.000047, 9.9997425 
2.1500628e+2, 2.0517744e+2, -939139.5, -1023773.8, -33747.402, 0.014262442, 0.046822626, -927330.6, 1935.2266, 0.0, 10.000326, 9.9992 
2.1501325e+2, 2.151766e+2, -796383.6, -906243.1, -45692.387, -0.010621617, 0.039074015, -779863.56, 51411.13, 0.0, 10.000642, 9.999182 
2.1502036e+2, 2.2517592e+2, -656860.8, -790700.25, -48900.664, -0.022441683, 0.054057885, -640897.94, 92383.664, 0.0, 10.000938, 9.999159 
2.1502757e+2, 2.3517539e+2, -519799.53, -676897.0, -40617.19, -0.02121002, 0.082871646, -509919.4, 125367.18, 0.0, 10.001221, 9.999131 
2.150349e+2, 2.4517427e+2, -416832.9, -629311.94, -34482.754, -0.015818413, 0.082619905, -411376.88, 125920.164, 0.0, 10.001481, 9.99866 
2.1504228e+2, 2.551726e+2, -285914.38, -517756.25, -35100.22, -0.009116842, 0.04788126, -280716.8, 158595.5, 0.0, 10.001718, 9.99864 
2.1504971e+2, 2.6517087e+2, -181212.83, -475555.72, -34131.95, -0.0027030706, 0.036960922, -177306.73, 164021.77, 0.0, 10.002017, 9.998113 
2.1505724e+2, 2.75169e+2, -33799.445, -357709.13, -34704.598, 0.008448827, 0.034658078, -30122.83, 213223.22, 0.0, 10.002374, 9.998076 
2.1506508e+2, 2.8516653e+2, 70573.945, -315042.66, -19397.168, 0.030261582, 0.010661998, 71547.2, 216916.5, 0.0, 10.002669, 9.997555 
2.1507306e+2, 2.9516378e+2, 203233.86, -199890.08, -11765.331, 0.043090813, -0.023299139, 203576.95, 250972.75, 0.0, 10.002905, 9.997559 
2.1508023e+2, 3.051619e+2, 310752.25, -105762.85, -9718.43, -0.05463744, 0.025862005, 310978.9, 310978.9, 0.0000002906552, 10.003237, 9.997714 
2.1508902e+2, 3.151589e+2, 377206.5, -63494.29, 1220.9957, 0.011784537, -0.044652015, 377209.88, 377209.88, 0.0000060416633, 10.003646, 9.9978075 
2.2494403e+2, 1.251692e+2, -1914684.5, -1744318.4, 3563.2625, -0.020675398, 0.09120805, -1744243.9, -30893.459, 0.0003861587, 9.99834, 10.000597 
2.2495203e+2, 1.3517039e+2, -1811865.3, -1640990.0, -37809.613, -0.022860155, 0.15176885, -1632997.6, -17659.057, 0.00020573656, 9.9983635, 10.000621 
2.2495966e+2, 1.4516951e+2, -1691669.1, -1555719.3, -44449.97, -0.043449163, 0.010905466, -1542476.0, -25129.945, 0.00007189719, 9.998612, 10.000411 
2.249676e+2, 1.5517017e+2, -1531367.4, -1441744.1, -44576.945, -0.031026518, 0.04117139, -1423348.3, -4010.4805, 0.000010694928, 9.999102, 10.000284 
2.2497557e+2, 1.651704e+2, -1442957.6, -1413816.4, -34793.89, -0.02368825, 0.066201605, -1390665.5, -69330.29, 0.000000092361944, 9.999316, 9.999701 
2.2498344e+2, 1.7517012e+2, -1352928.8, -1321287.9, -26906.264, -0.032465175, 0.065370396, -1305895.6, -82556.58, 0.0, 9.99927, 9.999684 
2.2499132e+2, 1.8516982e+2, -1197427.0, -1177168.5, -38287.8, -0.020189151, 0.060643706, -1147692.8, -22351.033, 0.0, 9.999585, 9.99985 
2.2499926e+2, 1.9516958e+2, -1005208.56, -1037230.9, -45289.406, 0.016516773, 0.04957761, -973183.4, 54159.273, 0.0, 10.000247, 9.99982 
2.2500676e+2, 2.05169e+2, -900518.8, -1011000.5, -48805.813, 0.01606355, 0.04449167, -882046.94, 47301.08, 0.0, 10.000616, 9.999148 
2.2501382e+2, 2.1516807e+2, -790085.4, -908831.44, -40720.48, -0.020920971, 0.03527045, -777463.1, 53894.57, 0.0, 10.0007105, 9.99913 
2.2502114e+2, 2.2516732e+2, -665455.4, -799321.25, -40074.082, -0.03583973, 0.04717448, -654375.8, 78989.55, 0.0, 10.000899, 9.999118 
2.250287e+2, 2.351667e+2, -529672.2, -686743.75, -50778.72, -0.029206116, 0.07180511, -514686.06, 120684.98, 0.0, 10.001174, 9.999086 
2.250363e+2, 2.4516556e+2, -425828.4, -637130.7, -53421.54, -0.020053007, 0.073065914, -413090.25, 124291.49, 0.0, 10.001434, 9.99863 
2.2504397e+2, 2.5516394e+2, -294139.53, -525462.0, -54455.227, -0.011074899, 0.044352595, -281961.47, 157435.5, 0.0, 10.0016775, 9.998606 
2.2505173e+2, 2.6516217e+2, -183197.77, -476753.34, -46510.793, -0.0031219772, 0.033691783, -176004.86, 165408.45, 0.0, 10.002006, 9.998109 
2.2505963e+2, 2.7516025e+2, -29183.209, -355805.7, -45024.184, 0.009056219, 0.027463917, -23090.38, 220340.8, 0.0, 10.002408, 9.998074 
2.2506778e+2, 2.8515783e+2, 74985.734, -306436.0, -34402.055, 0.03308602, 0.0040853303, 78063.766, 223517.86, 0.0, 10.002671, 9.997613 
2.2507598e+2, 2.9515517e+2, 188812.23, -202293.14, -27575.115, 0.05076941, -0.02589606, 190746.86, 238226.53, 0.0, 10.002786, 9.997601 
2.2508341e+2, 3.0515343e+2, 278420.56, -141952.13, -7727.925, -0.053960726, 0.046139725, 278562.6, 278562.6, 0.000000085825576, 10.003101, 9.997531 
2.2509262e+2, 3.1514996e+2, 377142.13, -52824.66, 10157.749, 0.009733719, -0.057552543, 377381.94, 377381.94, 0.0000031779714, 10.003601, 9.997902 
2.3494266e+2, 1.2516038e+2, -1917171.1, -1750416.1, 6862.507, 0.00707139, 0.10904372, -1750134.3, -36696.87, 0.00032267286, 9.998344, 10.000553 
2.3495048e+2, 1.3516136e+2, -1811594.4, -1639323.1, -36648.906, -0.013757483, 0.14742559, -1631850.6, -16423.54, 0.0001666326, 9.998359, 10.000635 
2.3495835e+2, 1.451606e+2, -1694153.8, -1560041.9, -26438.66, -0.036402874, 0.018538615, -1555018.0, -37584.305, 0.00005400246, 9.998609, 10.000383 
2.3496689e+2, 1.5516143e+2, -1532306.5, -1445248.8, -26043.3, -0.013341337, 0.067965254, -1438052.8, -18628.125, 0.000006396683, 9.999107, 10.000258 
2.349751e+2, 1.651616e+2, -1424809.8, -1377169.0, -36983.266, -0.003841479, 0.077059545, -1356998.8, -35576.78, 0.000000013163342, 9.999321, 9.999949 
2.3498288e+2, 1.7516114e+2, -1335434.9, -1285131.3, -27876.283, -0.015756821, 0.031739842, -1272737.0, -49311.074, 0.0, 9.99927, 9.999933 
2.349909e+2, 1.8516088e+2, -1209193.0, -1200885.4, -13508.377, -0.021622099, 0.027302966, -1190906.6, -65478.582, 0.0, 9.999582, 9.999689 
2.3499916e+2, 1.9516088e+2, -1016052.8, -1059996.6, -20359.61, -0.01842201, 0.056067787, -1008070.06, 19357.844, 0.0, 10.000248, 9.999662 
2.35007e+2, 2.0516048e+2, -885111.94, -978407.3, -45517.875, -0.02178074, 0.0648427, -866583.8, 62847.773, 0.0, 10.000614, 9.9993725 
2.3501442e+2, 2.1515968e+2, -775431.9, -877660.3, -36587.664, -0.032399446, 0.04712541, -763686.56, 67752.18, 0.0, 10.000708, 9.999346 
2.3502204e+2, 2.2515865e+2, -685961.6, -841398.3, -29987.785, -0.035901066, 0.034328215, -680376.9, 53071.85, 0.0, 10.000897, 9.998831 
2.3502983e+2, 2.3515734e+2, -548889.06, -726606.3, -39887.31, -0.031841923, 0.018370839, -540347.2, 95114.18, 0.0, 10.001174, 9.998813 
2.3503768e+2, 2.45156e+2, -428011.13, -641716.4, -44526.62, -0.025705056, 0.015455727, -419104.94, 118369.28, 0.0, 10.001434, 9.998599 
2.3504555e+2, 2.5515464e+2, -296933.3, -530935.5, -44901.367, -0.019952456, 0.01778288, -288613.25, 150873.8, 0.0, 10.001676, 9.9985695 
2.3505364e+2, 2.6515305e+2, -181326.2, -472460.72, -31977.459, -0.010999611, 0.024668798, -177855.27, 163646.8, 0.0, 10.002004, 9.99814 
2.35062e+2, 2.7515122e+2, -26272.432, -348884.66, -29632.16, 0.004868658, 0.023160504, -23573.28, 219946.05, 0.0, 10.002404, 9.998122 
2.350705e+2, 2.8514892e+2, 78141.46, -298651.34, -29845.824, 0.038304336, 0.00463006, 80490.91, 226032.36, 0.0, 10.002666, 9.99767 
2.3507899e+2, 2.9514635e+2, 192085.45, -196318.7, -22377.152, 0.072465755, -0.022061171, 193370.42, 240936.95, 0.0, 10.0027895, 9.997641 
2.3508665e+2, 3.0514482e+2, 276339.78, -145286.55, 10115.455, -0.038391493, 0.0679101, 276582.3, 276582.3, 0.000000016806371, 10.003098, 9.99751 
2.3509616e+2, 3.1514117e+2, 398963.47, -5042.381, 25099.264, 0.0027218515, -0.046019558, 400516.8, 400516.8, 0.0000014346882, 10.003592, 9.998235 
2.4494097e+2, 1.251511e+2, -1918200.3, -1747806.3, 5049.158, 0.0041961614, 0.095916, -1747656.8, -34128.777, 0.00026299746, 9.998322, 10.000582 
2.4494907e+2, 1.3515213e+2, -1774389.9, -1612896.6, -40354.176, -0.0006118376, 0.13108592, -1603374.4, 12142.533, 0.0001305452, 9.998577, 10.000711 
2.449572e+2, 1.4515157e+2, -1678009.0, -1558499.3, -21641.97, -0.019036306, 0.020566965, -1554700.9, -37178.938, 0.000038366878, 9.998746, 10.000328 
2.4496597e+2, 1.5515243e+2, -1575890.6, -1471101.0, -23334.438, -0.0013787196, 0.07918946, -1466139.8, -46626.465, 0.000003303544, 9.99883, 10.000215 
2.4497442e+2, 1.6515262e+2, -1439344.9, -1369008.8, -39648.137, 0.0048382073, 0.08556743, -1351179.0, -29668.602, 0.00000000018007511, 9.999157, 10.000085 
2.4498242e+2, 1.7515218e+2, -1259145.3, -1233345.8, -40510.28, -0.011001616, 0.029479071, -1203730.9, 19782.262, 0.0, 9.99973, 10.000067 
2.4499062e+2, 1.851519e+2, -1159743.6, -1185699.4, -25788.645, -0.024877237, 0.019576818, -1143851.4, -18336.227, 0.0, 9.999959, 9.999612 
2.4499907e+2, 1.9515179e+2, -1078214.9, -1097864.4, -26401.78, -0.032741018, 0.046544164, -1059869.1, -32352.754, 0.0, 9.999857, 9.999591 
2.4500726e+2, 2.051514e+2, -960049.8, -1004969.7, -52669.746, -0.02863488, 0.055300195, -925251.1, 4268.735, 0.0, 10.000059, 9.999457 
2.4501522e+2, 2.1515073e+2, -792644.6, -877007.8, -55140.977, -0.014967169, 0.039492544, -765401.4, 66124.23, 0.0, 10.00055, 9.999427 
2.4502315e+2, 2.2514968e+2, -677765.8, -841329.44, -41975.363, -0.017542517, 0.024835372, -667622.6, 65912.65, 0.0, 10.00097, 9.998796 
2.4503106e+2, 2.3514827e+2, -530131.75, -721542.75, -34054.445, -0.034375027, 0.0019196284, -524253.56, 111295.336, 0.0, 10.00132, 9.998777 
2.4503912e+2, 2.4514684e+2, -410643.1, -645193.9, -35055.74, -0.033728465, -0.004234347, -405515.78, 132047.19, 0.0, 10.001605, 9.998492 
2.450473e+2, 2.5514537e+2, -282074.0, -535653.1, -41166.33, -0.01930976, -0.0005775929, -275558.44, 164018.83, 0.0, 10.001828, 9.998464 
2.4505563e+2, 2.6514387e+2, -179837.72, -457532.47, -26983.56, -0.009693593, 0.012502331, -177240.03, 164351.53, 0.0, 10.001953, 9.998267 
2.4506412e+2, 2.7514225e+2, -80027.93, -361352.9, -19548.59, -0.0005196369, 0.021357378, -78676.04, 164930.13, 0.0, 10.001977, 9.998243 
2.4507292e+2, 2.8513995e+2, 23830.275, -329366.66, -13956.8955, 0.033056032, 0.00014834544, 24380.936, 170009.13, 0.0, 10.002313, 9.997629 
2.4508187e+2, 2.951372e+2, 211872.27, -192456.7, -14183.077, 0.07496162, -0.04220924, 212369.16, 260024.88, 0.0, 10.002952, 9.997589 
2.450898e+2, 3.0513567e+2, 286068.5, -143240.63, 7506.8594, -0.03705973, 0.055376723, 286199.72, 286199.72, 0.0000000018495133, 10.003178, 9.997484 
2.4509943e+2, 3.1513232e+2, 331179.78, -3367.768, 14483.328, 0.001896806, -0.030831369, 331805.63, 331805.63, 0.00000052479436, 10.002976, 9.998543 
2.5493893e+2, 1.251413e+2, -1911556.9, -1732794.5, 18829.57, -0.033203933, 0.048527848, -1730832.6, -17209.85, 0.000209724, 9.998316, 10.000689 
2.5494778e+2, 1.3514265e+2, -1763610.9, -1593220.9, -30528.682, 0.01182862, 0.10155353, -1587916.3, 27692.162, 0.00009902971, 9.998587, 10.000842 
2.549562e+2, 1.4514236e+2, -1681928.0, -1568341.4, -19573.664, 0.0034331619, 0.016905049, -1565063.0, -47452.027, 0.000025643241, 9.998754, 10.0002575 
2.5496486e+2, 1.5514316e+2, -1580269.3, -1479410.4, -20043.078, 0.002531758, 0.074755035, -1475573.3, -55969.465, 0.0000014046367, 9.998826, 10.000159 
2.5497353e+2, 1.6514345e+2, -1439163.6, -1367573.6, -18443.842, 0.00072401547, 0.09202871, -1363101.3, -41500.816, 0.0, 9.999152, 10.000097 
2.5498205e+2, 1.7514323e+2, -1257830.3, -1231899.5, -18911.033, -0.020490592, 0.058789603, -1221936.1, 1664.6566, 0.0, 9.999736, 10.000074 
2.5499052e+2, 1.8514286e+2, -1158125.6, -1182892.8, -29894.537, -0.032812137, 0.037226573, -1138151.3, -12547.841, 0.0, 9.999962, 9.99963 
2.5499895e+2, 1.9514233e+2, -1076840.4, -1094921.6, -29615.963, -0.028488107, 0.02028199, -1054915.9, -27307.908, 0.0, 9.999857, 9.999612 
2.5500754e+2, 2.0514178e+2, -964779.06, -1013962.7, -34224.63, -0.00618464, 0.015100537, -947227.3, -17614.383, 0.0, 10.000056, 9.999397 
2.550162e+2, 2.1514119e+2, -796548.2, -884601.6, -36193.285, 0.03008222, 0.013709883, -783581.0, 48037.15, 0.0, 10.000549, 9.999375 
2.5502446e+2, 2.2514042e+2, -663097.9, -810414.4, -29154.943, 0.017743722, 0.0187157, -657537.8, 76087.33, 0.0, 10.000967, 9.99901 
2.5503233e+2, 2.3513947e+2, -516470.63, -692170.4, -20615.273, -0.039145984, 0.02198193, -514084.2, 121549.56, 0.0, 10.001316, 9.9989805 
2.550406e+2, 2.4513805e+2, -423393.4, -671071.7, -27059.979, -0.04703078, 0.014014659, -420471.44, 117176.63, 0.0, 10.001602, 9.998316 
2.5504923e+2, 2.5513613e+2, -293402.03, -558606.75, -32363.62, -0.010487193, -0.010810785, -289509.75, 150157.8, 0.0, 10.001826, 9.998307 
2.550577e+2, 2.6513457e+2, -165630.83, -428478.0, -26048.465, -0.00020346267, -0.0035301135, -163074.27, 178607.64, 0.0, 10.001954, 9.9984665 
2.55066e+2, 2.7513334e+2, -66635.94, -334344.25, -18096.184, -0.010329034, 0.021816855, -65418.234, 178273.63, 0.0, 10.001979, 9.998428 
2.5507504e+2, 2.8513095e+2, 14118.046, -348923.1, 9141.414, 0.013827157, -0.008920012, 14348.081, 160062.52, 0.0, 10.00231, 9.997497 
2.5508463e+2, 2.9512772e+2, 202049.83, -210522.11, 10008.111, 0.05579666, -0.085626096, 202292.45, 250039.67, 0.0, 10.002941, 9.997469 
2.5509283e+2, 3.051261e+2, 281905.47, -150475.22, 658.11414, -0.051302887, 0.008831375, 281906.47, 281906.47, 0.000000000039700524, 10.003171, 9.997439 
2.5510243e+2, 3.1512332e+2, 352188.22, 38363.293, 3508.599, 0.0020030611, -0.01679169, 352227.44, 352227.44, 0.00000015406697, 10.002983, 9.998827 
2.6493722e+2, 1.2513177e+2, -1873750.5, -1719167.4, 27280.947, -0.048180472, 0.03201335, -1714494.0, -778.7874, 0.0001649167, 9.998593, 10.0006485 
2.649464e+2, 1.3513324e+2, -1765881.6, -1595178.0, -39397.684, 0.018352628, 0.09675778, -1586523.9, 29176.313, 0.000073287774, 9.998574, 10.000835 
2.64955e+2, 1.451331e+2, -1684936.6, -1561936.9, -24653.422, 0.014813708, 0.02205627, -1557179.5, -39478.113, 0.000016155976, 9.9987, 10.000327 
2.649638e+2, 1.5513375e+2, -1549621.6, -1455947.5, -16240.488, 0.0083145695, 0.0596486, -1453211.8, -33516.98, 0.00000046134082, 9.999, 10.000237 
2.6497275e+2, 1.6513397e+2, -1436245.9, -1381013.5, -7595.056, 0.0027719326, 0.07304956, -1379988.1, -58296.184, 0.0, 9.999237, 9.999965 
2.649816e+2, 1.7513376e+2, -1315668.4, -1274496.5, -19778.79, -0.023385173, 0.052133124, -1266534.6, -42841.664, 0.0, 9.999403, 9.999943 
2.6499036e+2, 1.8513335e+2, -1198079.5, -1201159.0, -44206.66, -0.030556139, 0.033793267, -1155385.8, -29689.732, 0.0, 9.999683, 9.999639 
2.6499912e+2, 1.9513278e+2, -1042916.9, -1077718.8, -45494.7, -0.011424268, 0.0114717595, -1011608.9, 16092.195, 0.0, 10.000086, 9.9996195 
2.6500794e+2, 2.0513217e+2, -912219.8, -988129.6, -39182.66, 0.009633052, 0.00097441924, -895623.3, 34082.992, 0.0, 10.000415, 9.999403 
2.6501682e+2, 2.1513154e+2, -778647.25, -875384.6, -36670.1, 0.02895948, -0.0061526527, -766318.06, 65393.688, 0.0, 10.0006695, 9.999381 
2.6502532e+2, 2.2513084e+2, -674030.9, -811320.2, -37873.55, 0.013839059, 0.0049433946, -664275.94, 69442.13, 0.0, 10.0008745, 9.999049 
2.6503354e+2, 2.3513013e+2, -554972.2, -706400.3, -42953.027, -0.03301103, 0.026072755, -543636.94, 92088.164, 0.0, 10.001033, 9.99902 
2.650421e+2, 2.451288e+2, -463298.8, -680944.7, -43563.617, -0.04159197, 0.024004152, -454903.06, 82835.26, 0.0, 10.001288, 9.998399 
2.6505092e+2, 2.551269e+2, -315068.47, -559612.6, -30744.25, -0.015698513, -0.00781856, -311262.53, 128494.7, 0.0, 10.001637, 9.998391 
2.6505956e+2, 2.6512527e+2, -166774.95, -433139.03, -28346.354, -0.006108555, -0.010190814, -163791.77, 177980.39, 0.0, 10.001965, 9.99843 
2.6506814e+2, 2.751239e+2, -26405.01, -318803.16, -37812.06, -0.00805109, 0.0045252144, -21594.412, 222189.25, 0.0, 10.002274, 9.998393 
2.650774e+2, 2.8512162e+2, 38118.785, -325431.13, -3829.7432, 0.015772324, -0.02063289, 38159.125, 183964.4, 0.0, 10.002426, 9.997601 
2.6508725e+2, 2.9511866e+2, 130220.29, -234051.34, 12509.391, 0.04987418, -0.078254, 130649.37, 178484.25, 0.0, 10.0024, 9.997568 
2.6509574e+2, 3.0511674e+2, 198167.77, -207732.86, 4506.926, -0.051132537, -0.013493542, 198217.8, 198217.8, 0.0, 10.002668, 9.997288 
2.6510572e+2, 3.1511378e+2, 398031.4, 74018.805, -7150.616, 0.022519857, -0.04149029, 398189.16, 398189.16, 0.000000038019415, 10.003243, 9.998945 
2.7493584e+2, 1.2512253e+2, -1885617.1, -1744714.0, 30767.78, -0.046463978, 0.048190083, -1738288.6, -24483.229, 0.00012966055, 9.998599, 10.00047 
2.74945e+2, 1.3512392e+2, -1776379.0, -1615590.8, -40946.043, 0.016221507, 0.11809482, -1605764.1, 10028.296, 0.00005392466, 9.998569, 10.000697 
2.7495366e+2, 1.4512374e+2, -1670876.4, -1531789.5, -14180.194, 0.012246735, 0.036868818, -1530358.5, -12565.356, 0.0000098627, 9.998695, 10.000537 
2.7496287e+2, 1.5512419e+2, -1534411.3, -1425526.6, -4638.7646, 0.01249757, 0.032876655, -1425329.4, -5543.224, 0.00000011248763, 9.999004, 10.000444 
2.7497205e+2, 1.651242e+2, -1455425.8, -1421702.3, -1924.8394, 0.0077430164, 0.027386453, -1421592.8, -99807.71, 0.0, 9.999241, 9.999683 
2.7498102e+2, 1.7512372e+2, -1334781.4, -1314038.3, -13460.471, -0.021708773, 0.009510992, -1307417.0, -83627.25, 0.0, 9.999402, 9.999672 
2.7499014e+2, 1.8512337e+2, -1199091.1, -1202636.8, -29435.043, -0.020325258, 0.0096186, -1171375.5, -45582.203, 0.0, 9.999681, 9.99963 
2.7499947e+2, 1.9512312e+2, -1043711.56, -1079340.5, -30137.816, 0.016953345, 0.02062013, -1026516.8, 1278.8701, 0.0, 10.000086, 9.999608 
2.750084e+2, 2.0512258e+2, -907356.0, -977339.7, -29704.855, 0.017284939, 0.012929114, -896447.9, 33352.254, 0.0, 10.000411, 9.999478 
2.75017e+2, 2.1512173e+2, -773843.4, -864974.1, -26555.063, -0.019890698, -0.02069359, -766670.0, 65136.59, 0.0, 10.000667, 9.999454 
2.7502576e+2, 2.2512095e+2, -684436.7, -831879.1, -32020.809, -0.031638265, -0.017276598, -677782.9, 56031.383, 0.0, 10.00087, 9.99891 
2.7503476e+2, 2.3512019e+2, -563996.56, -724910.8, -36430.164, -0.016608445, 0.0144382855, -556133.2, 79689.78, 0.0, 10.001032, 9.998893 
2.750436e+2, 2.451191e+2, -439731.47, -632300.5, -30764.469, -0.01856179, 0.025187341, -434936.0, 102897.79, 0.0, 10.001289, 9.998733 
2.750523e+2, 2.5511768e+2, -293015.28, -513400.94, -17442.791, -0.03829264, 0.008355734, -291643.28, 148203.19, 0.0, 10.001635, 9.99871 
2.7506128e+2, 2.6511598e+2, -185667.44, -471254.6, -17354.125, -0.031431984, -0.0067361286, -184616.75, 157245.63, 0.0, 10.00196, 9.99817 
2.7507055e+2, 2.751139e+2, -44226.36, -354294.6, -25669.598, 0.004992781, -0.030199716, -42115.62, 201765.83, 0.0, 10.002268, 9.998152 
2.7508008e+2, 2.8511187e+2, 60531.535, -278709.5, -4570.1006, 0.037706867, -0.036311526, 60593.09, 206493.84, 0.0, 10.002424, 9.997923 
2.7508968e+2, 2.9511e+2, 152486.05, -189263.08, 11968.639, 0.05308701, -0.022467006, 152904.7, 200823.78, 0.0, 10.002406, 9.997873 
2.7509847e+2, 3.0510747e+2, 180340.56, -245297.31, 25130.955, -0.042676978, -0.012459562, 181819.23, 181819.23, 0.0, 10.00267, 9.997028 
2.7510932e+2, 3.1510362e+2, 393767.3, 66940.77, 9655.904, 0.055734836, -0.10871966, 394052.34, 394052.34, 0.00000000643165, 10.003236, 9.998899 
2.849345e+2, 1.2511306e+2, -1903914.0, -1767609.9, 22207.143, -0.037798155, 0.062568195, -1764083.1, -50185.305, 0.00010364884, 9.998535, 10.000344 
2.8494358e+2, 1.3511418e+2, -1785293.5, -1630806.5, -54858.36, 0.021425085, 0.116204314, -1613308.3, 2579.6199, 0.000040612387, 9.998555, 10.0006 
2.849524e+2, 1.4511397e+2, -1656614.4, -1524697.6, -19742.035, 0.00999586, 0.03754681, -1521806.5, -3917.6306, 0.0000062724685, 9.998794, 10.000538 
2.849619e+2, 1.5511435e+2, -1501136.4, -1408634.3, -26864.035, 0.008519241, 0.025167188, -1401398.5, 18483.463, 0.000000028346124, 9.999229, 10.000452 
2.8497145e+2, 1.6511428e+2, -1419840.6, -1401663.5, -28497.574, 0.0111048445, 0.012553309, -1380840.4, -58959.305, 0.0, 9.999474, 9.999709 
2.8498065e+2, 1.751138e+2, -1310639.9, -1299474.3, -17985.924, -0.004052478, -0.009086587, -1286224.6, -62338.992, 0.0, 9.999557, 9.999698 
2.8498998e+2, 1.8511346e+2, -1197194.6, -1211054.4, -17495.176, -0.005865254, -0.005147443, -1185306.9, -59417.535, 0.0, 9.999736, 9.999545 
2.8499946e+2, 1.9511326e+2, -1061637.8, -1097540.8, -24758.15, 0.011269678, 0.017332572, -1049007.9, -21116.01, 0.0, 10.000005, 9.999522 
2.850086e+2, 2.0511271e+2, -931263.75, -988691.0, -33240.547, 0.0047208997, 0.015358958, -916052.4, 13843.984, 0.0, 10.000246, 9.99948 
2.850175e+2, 2.1511188e+2, -803386.7, -878404.06, -36328.496, -0.026951179, -0.017948216, -788677.94, 43224.85, 0.0, 10.000462, 9.99946 
2.8502652e+2, 2.2511105e+2, -703265.25, -839894.8, -37568.344, -0.035492126, -0.018817907, -693616.6, 40294.145, 0.0, 10.000736, 9.9989195 
2.8503576e+2, 2.3511022e+2, -558542.75, -721077.25, -31263.453, -0.019520767, 0.0042259954, -552736.6, 83183.52, 0.0, 10.001064, 9.998904 
2.8504494e+2, 2.4510914e+2, -426489.44, -616263.0, -27489.578, -0.015213734, 0.011561586, -422587.66, 115342.88, 0.0, 10.001339, 9.998819 
2.8505406e+2, 2.5510785e+2, -297277.97, -505798.53, -32997.324, -0.024190001, -0.0031036192, -292180.88, 147760.95, 0.0, 10.001565, 9.9987955 
2.8506327e+2, 2.6510617e+2, -211660.34, -486476.34, -33033.527, -0.020945469, -0.017154215, -207745.4, 134212.02, 0.0, 10.001795, 9.998144 
2.8507262e+2, 2.751041e+2, -82401.164, -374704.9, -25079.58, -0.001119595, -0.04104753, -80264.95, 163712.3, 0.0, 10.002015, 9.998133 
2.8508234e+2, 2.8510213e+2, 41138.223, -284700.1, -10111.592, 0.030601934, -0.037928164, 41451.707, 187447.44, 0.0, 10.002277, 9.997952 
2.8509226e+2, 2.9510045e+2, 183336.13, -171030.33, -15694.397, 0.060444422, -0.0060752076, 184029.86, 232041.77, 0.0, 10.002606, 9.997901 
2.8510138e+2, 3.0509764e+2, 205391.86, -229070.0, 5100.7773, -0.026958447, -0.034040317, 205451.73, 205451.73, 0.0, 10.002827, 9.997064 
2.851125e+2, 3.1509405e+2, 351035.72, 57851.195, 3955.5315, 0.06677256, -0.101744026, 351089.06, 351089.06, 0.00000000043435586, 10.0028925, 9.999003 
2.9493314e+2, 1.2510335e+2, -1909292.9, -1779671.9, 28265.586, -0.028123872, 0.074511245, -1773776.4, -59783.99, 0.000085497144, 9.998538, 10.00026 
2.9494223e+2, 1.3510402e+2, -1789678.6, -1640286.0, -53771.348, 0.031237422, 0.089646004, -1622944.9, -6958.264, 0.000032281903, 9.998557, 10.000534 
2.9495117e+2, 1.451038e+2, -1671686.3, -1556200.5, -3962.912, 0.0058542495, 0.023450281, -1556064.6, -38076.36, 0.0000046245973, 9.998794, 10.000322 
2.94961e+2, 1.5510425e+2, -1515299.1, -1437748.6, -10757.966, -0.0071794204, 0.038712565, -1436284.0, -16302.0, 0.00000001715619, 9.999229, 10.000252 
2.949709e+2, 1.6510431e+2, -1396560.3, -1353302.3, -26121.023, 0.00892784, 0.031256963, -1341017.8, -19038.197, 0.0, 9.999473, 10.000041 
2.9498053e+2, 1.7510402e+2, -1288135.9, -1252242.6, -14427.692, 0.02773664, -0.0045328704, -1247162.4, -23181.707, 0.0, 9.999554, 10.000023 
2.9498988e+2, 1.8510363e+2, -1209765.9, -1236219.0, -7437.732, 0.011366444, -0.011478406, -1207818.1, -81834.11, 0.0, 9.999732, 9.999374 
2.9499906e+2, 1.9510315e+2, -1073355.6, -1121865.0, -14314.085, -0.029650439, 0.0011236002, -1069446.8, -41457.164, 0.0, 10.000004, 9.999356 
2.950085e+2, 2.0510258e+2, -936734.44, -999360.06, -25266.26, -0.029985564, 0.007915269, -927812.0, 2183.1682, 0.0, 10.000243, 9.999409 
2.950183e+2, 2.1510196e+2, -808435.2, -888638.06, -27672.863, 0.005968385, 0.0016693716, -799813.8, 32186.734, 0.0, 10.00046, 9.999392 
2.950276e+2, 2.2510117e+2, -692395.4, -816700.44, -25539.29, 0.000039031005, -0.00015826622, -687352.75, 46655.063, 0.0, 10.000733, 9.999081 
2.9503658e+2, 2.3510022e+2, -547912.6, -698701.0, -18596.45, -0.043804813, -0.0046330504, -545653.0, 90363.69, 0.0, 10.001062, 9.99906 
2.9504612e+2, 2.4509895e+2, -437821.9, -639028.3, -19369.602, -0.034085058, -0.016579429, -435974.22, 102054.4, 0.0, 10.001335, 9.998665 
2.950561e+2, 2.550974e+2, -308148.44, -527717.8, -24070.998, 0.025156517, -0.042341344, -305540.56, 134502.72, 0.0, 10.001562, 9.998647 
2.9506552e+2, 2.6509586e+2, -198119.52, -457998.8, -25206.982, 0.024526484, -0.04245948, -195697.14, 146360.31, 0.0, 10.001793, 9.998341 
2.9507434e+2, 2.7509436e+2, -68803.445, -346558.5, -16922.656, -0.029996509, -0.029066687, -67776.2, 176295.08, 0.0, 10.002015, 9.998326 
2.9508424e+2, 2.850924e+2, 22997.752, -322018.34, 1207.4022, -0.009654182, -0.024921725, 23001.977, 169092.25, 0.0, 10.002276, 9.997696 
2.9509494e+2, 2.9509008e+2, 164799.5, -207502.61, -2781.7488, 0.070096575, -0.027420523, 164820.3, 212933.5, 0.0, 10.002598, 9.997655 
2.9510444e+2, 3.050871e+2, 226657.67, -183354.64, 7748.1934, -0.004486278, -0.077438995, 226804.05, 226804.05, 0.0, 10.002819, 9.997382 
2.9511523e+2, 3.1508493e+2, 369845.9, 95664.98, 2649.3594, 0.051000748, -0.035646733, 369871.5, 369871.5, 0.0, 10.002897, 9.999261 
3.0493185e+2, 1.2509316e+2, -1907277.8, -1780608.0, 30661.762, -0.011611652, 0.05517989, -1773576.3, -59485.438, 0.000073591786, 9.998565, 10.00024 
3.0494088e+2, 1.3509372e+2, -1737779.3, -1616471.8, -55557.76, 0.024492478, 0.05948485, -1594872.6, 21213.414, 0.000027638554, 9.9989195, 10.000524 
3.049499e+2, 1.4509358e+2, -1639366.6, -1555214.8, 2204.0613, -0.0109303845, 0.00990584, -1555157.1, -37069.93, 0.000004191702, 9.999081, 10.00019 
3.0496016e+2, 1.5509404e+2, -1548143.4, -1467962.6, -304.5957, -0.0028027429, 0.03917985, -1467961.5, -47879.742, 0.000000032166714, 9.999066, 10.000123 
3.0497032e+2, 1.6509409e+2, -1424971.5, -1366392.3, -23688.39, 0.019556526, 0.037177496, -1358012.0, -35932.188, 0.0, 9.999277, 10.000045 
3.0498013e+2, 1.7509378e+2, -1265379.3, -1240973.3, -37965.89, 0.024619542, -0.00045916482, -1213297.4, 10783.392, 0.0, 9.999709, 10.000026 
3.0498967e+2, 1.8509337e+2, -1165423.0, -1209143.5, -35000.727, 0.001472711, -0.012940921, -1146016.8, -19932.652, 0.0, 10.000011, 9.999426 
3.0499905e+2, 1.9509286e+2, -1041259.56, -1099740.5, -25615.254, -0.03788112, -0.008774274, -1031626.56, -3537.059, 0.0, 10.000198, 9.9994135 
3.0500877e+2, 2.0509225e+2, -926215.3, -1006667.5, -31041.887, -0.035150588, -0.0036174734, -915630.6, 14464.828, 0.0, 10.00037, 9.999297 
3.0501872e+2, 2.1509157e+2, -806462.4, -900286.94, -37085.76, 0.0038347307, -0.0037411798, -793574.0, 38527.867, 0.0, 10.000527, 9.999279 
3.0502838e+2, 2.2509074e+2, -683482.94, -807945.3, -34777.02, 0.0027577917, -0.004755836, -674424.9, 59684.508, 0.0, 10.000773, 9.999122 
3.0503774e+2, 2.350898e+2, -538729.6, -689316.9, -37633.836, -0.034542866, -0.01403504, -529848.25, 106269.664, 0.0, 10.001104, 9.999104 
3.050475e+2, 2.450885e+2, -446872.75, -651765.3, -45594.207, -0.024893086, -0.026626464, -437184.88, 100945.13, 0.0, 10.00131, 9.9985895 
3.0505762e+2, 2.5508687e+2, -337818.66, -550074.56, -44577.46, 0.028652685, -0.049020812, -328836.72, 111308.78, 0.0, 10.001393, 9.998574 
3.0506724e+2, 2.6508537e+2, -214568.2, -456865.06, -39970.14, 0.026229147, -0.04941862, -208144.88, 134014.72, 0.0, 10.001641, 9.998421 
3.0507642e+2, 2.7508393e+2, -57337.836, -332272.13, -41576.21, -0.026420012, -0.039398305, -51188.137, 192984.42, 0.0, 10.002058, 9.998404 
3.0508646e+2, 2.8508198e+2, 21127.025, -325906.84, -24805.99, -0.012267531, -0.035994332, 22891.19, 169082.42, 0.0, 10.002277, 9.997669 
3.0509722e+2, 2.9507965e+2, 117859.38, -232714.97, -12779.496, 0.05562994, -0.037047222, 118324.62, 166539.06, 0.0, 10.002286, 9.997632 
3.0510706e+2, 3.0507642e+2, 183476.58, -192154.17, 1606.977, -0.005120131, -0.11399495, 183483.45, 183483.45, 0.0, 10.002471, 9.997489 
3.0511835e+2, 3.1507486e+2, 355089.3, 81969.875, -25610.826, 0.0784024, -0.020735541, 357470.13, 357470.13, 0.0, 10.002826, 9.999201 
3.1493065e+2, 1.250825e+2, -1904393.5, -1775108.9, 52111.63, 0.00964289, 0.0047755223, -1756719.6, -42526.535, 0.00006650563, 9.998566, 10.000278 
3.1493953e+2, 1.3508329e+2, -1732617.8, -1607632.9, -41665.152, -0.006542616, 0.02780377, -1595016.8, 21168.926, 0.000025576577, 9.998927, 10.00058 
3.1494865e+2, 1.4508337e+2, -1642274.9, -1563049.1, 983.15015, -0.04860927, -0.00068435253, -1563037.0, -44851.973, 0.000004447986, 9.999087, 10.000134 
3.1495947e+2, 1.5508373e+2, -1552984.9, -1476793.9, -212.68219, 0.020543236, 0.024825623, -1476793.3, -56612.137, 0.00000006594377, 9.999062, 10.000066 
3.1496984e+2, 1.6508365e+2, -1449975.3, -1416739.9, -7695.7803, 0.042431213, 0.029049996, -1415044.4, -92862.805, 0.0, 9.99927, 9.999703 
3.1497943e+2, 1.7508312e+2, -1288896.8, -1289959.8, -21538.74, -0.016382828, 0.0040045152, -1267883.0, -43696.754, 0.0, 9.99971, 9.999689 
3.1498927e+2, 1.8508269e+2, -1145776.8, -1168775.4, -28402.117, -0.03996726, -0.0074362825, -1126634.4, -444.8018, 0.0, 10.000012, 9.999703 
3.149995e+2, 1.9508235e+2, -1022203.3, -1059886.4, -18142.266, -0.0152123235, -0.013490854, -1014888.7, 13302.993, 0.0, 10.0001955, 9.999689 
3.1500936e+2, 2.050817e+2, -937857.3, -1029464.25, -25237.764, -0.012295617, -0.020230345, -931364.5, -1167.0066, 0.0, 10.000364, 9.999143 
3.1501886e+2, 2.1508071e+2, -817601.25, -923119.94, -30573.967, -0.0348353, -0.03443835, -809382.56, 22824.262, 0.0, 10.000525, 9.999124 
3.1502885e+2, 2.250798e+2, -689242.7, -819403.1, -22429.094, -0.0291333, -0.03282853, -685486.1, 48729.46, 0.0, 10.0007715, 9.999044 
3.1503928e+2, 2.3507895e+2, -544148.3, -700451.3, -24876.88, 0.0064877174, -0.024483515, -540284.5, 95939.3, 0.0, 10.001103, 9.999028 
3.1504917e+2, 2.4507779e+2, -446847.34, -651290.0, -43038.71, 0.0108519355, -0.019741824, -438156.4, 100078.48, 0.0, 10.001308, 9.998594 
3.1505853e+2, 2.5507638e+2, -336917.0, -548317.8, -41249.086, -0.016460722, -0.024202561, -329153.5, 111095.05, 0.0, 10.001393, 9.998587 
3.1506845e+2, 2.650747e+2, -217328.39, -462529.06, -24777.91, -0.018043326, -0.03806486, -214849.61, 127414.195, 0.0, 10.001641, 9.998383 
3.1507882e+2, 2.7507278e+2, -60931.887, -338384.4, -25479.236, 0.0072559677, -0.07138239, -58611.46, 185669.47, 0.0, 10.002051, 9.998364 
3.1508908e+2, 2.8507087e+2, 33119.406, -299212.13, -25101.016, 0.021603847, -0.07087535, 35004.594, 181303.2, 0.0, 10.00227, 9.997856 
3.1509912e+2, 2.950691e+2, 132263.95, -203920.61, -12387.016, 0.013751514, -0.036974173, 132719.73, 181035.64, 0.0, 10.002292, 9.997827 
3.1510925e+2, 3.0506557e+2, 177196.94, -206782.25, 14159.222, -0.032322146, -0.14474244, 177718.34, 177718.34, 0.0, 10.002478, 9.997386 
3.151218e+2, 3.1506386e+2, 329194.44, 29893.992, -16582.543, 0.14106768, -0.060419366, 330110.38, 330110.38, 0.0, 10.002817, 9.998848 
3.2492915e+2, 1.250718e+2, -1861190.1, -1753569.0, 48524.516, -0.009856022, -0.024683394, -1734921.3, -20624.88, 0.00006287029, 9.998861, 10.000281 
3.2493845e+2, 1.350728e+2, -1769578.8, -1623840.8, -58052.684, 0.008459734, 0.016433068, -1603543.1, 12743.722, 0.000025189593, 9.998668, 10.000594 
3.249477e+2, 1.4507297e+2, -1681709.3, -1596314.9, -12521.64, -0.038006112, 0.0018641866, -1594516.6, -76231.0, 0.0000050024137, 9.998879, 10.000005 
3.2495865e+2, 1.5507299e+2, -1503118.8, -1466498.3, -20459.373, 0.014315767, 0.005284663, -1457352.1, -37066.46, 0.000000115129794, 9.999463, 9.999942 
3.249692e+2, 1.6507277e+2, -1386676.0, -1392748.0, -20836.469, 0.030064734, 0.006082538, -1368655.5, -46367.97, 0.0, 9.999734, 9.999643 
3.24979e+2, 1.7507236e+2, -1292241.6, -1297531.3, -13831.724, -0.02751474, -0.0018450319, -1280804.1, -56513.13, 0.0, 9.999715, 9.999634 
3.249891e+2, 1.8507193e+2, -1171997.1, -1189600.1, -21305.17, -0.046217132, -0.0053681945, -1157747.0, -31452.627, 0.0, 9.999869, 9.999628 
3.2499966e+2, 1.9507152e+2, -1026914.1, -1070938.8, -39016.992, -0.01476191, -0.011720423, -1004128.4, 24169.428, 0.0, 10.0002, 9.999611 
3.250098e+2, 2.0507078e+2, -917648.8, -1017547.25, -54026.414, -0.01139066, -0.02269781, -894019.6, 36284.48, 0.0, 10.000492, 9.999165 
3.2501945e+2, 2.1506974e+2, -784581.94, -904029.06, -46764.555, -0.039265748, -0.044491235, -768451.5, 63861.695, 0.0, 10.00074, 9.99915 
3.250296e+2, 2.2506876e+2, -685081.6, -834522.9, -35054.9, -0.034218334, -0.04444422, -677267.3, 57055.465, 0.0, 10.000875, 9.99889 
3.2504025e+2, 2.350678e+2, -584249.6, -736857.06, -43552.063, 0.0048191147, -0.031451732, -572695.3, 63637.617, 0.0, 10.000902, 9.998875 
3.250504e+2, 2.4506666e+2, -461854.0, -648887.4, -56494.223, 0.011424241, -0.0225465, -446114.25, 92229.76, 0.0, 10.0011635, 9.99868 
3.250601e+2, 2.5506535e+2, -293180.16, -517969.7, -50008.78, -0.014819729, -0.023284515, -282556.78, 157798.98, 0.0, 10.001655, 9.99867 
3.2507017e+2, 2.6506364e+2, -186231.86, -454578.28, -35244.402, -0.02011211, -0.04310983, -181680.1, 160691.22, 0.0, 10.001884, 9.998321 
3.2508066e+2, 2.750615e+2, -93037.08, -360521.06, -37997.836, -0.0025548069, -0.09130464, -87743.98, 156646.83, 0.0, 10.00186, 9.998305 
3.2509115e+2, 2.8505963e+2, 2674.9375, -307930.53, -41678.836, 0.015381751, -0.086933784, 8170.414, 154578.55, 0.0, 10.002035, 9.99791 
3.2510155e+2, 2.9505813e+2, 150916.56, -189370.11, -40482.07, 0.023728313, -0.030534394, 155666.2, 204088.72, 0.0, 10.002396, 9.997877 
3.25112e+2, 3.050546e+2, 208760.6, -173720.28, -8521.162, -0.013982968, -0.15255645, 208950.33, 208950.33, 0.0, 10.002617, 9.997546 
3.2512456e+2, 3.1505287e+2, 300320.22, -1519.0985, -25201.686, 0.14494823, -0.0838548, 302409.94, 302409.94, 0.0, 10.002692, 9.9986925 
3.349273e+2, 1.2506115e+2, -1862791.9, -1760289.3, 48352.434, -0.08351271, -0.030007577, -1741080.3, -26679.926, 0.000061273975, 9.998875, 10.00023 
3.3493775e+2, 1.3506228e+2, -1773394.4, -1630013.8, -64158.56, 0.071061514, 0.025839146, -1605496.9, 10892.657, 0.000025556885, 9.99866, 10.000556 
3.349472e+2, 1.4506236e+2, -1697318.3, -1627018.8, 9689.496, 0.022636399, 0.017881662, -1625707.6, -107318.71, 0.0000055599335, 9.998872, 9.999799 
3.349577e+2, 1.550618e+2, -1516276.6, -1494471.5, 2115.9316, -0.028761333, -0.017950278, -1494268.0, -73872.92, 0.00000016881297, 9.999466, 9.999748 
3.3496842e+2, 1.6506147e+2, -1369626.1, -1359058.0, -21945.904, -0.026183153, -0.029363113, -1341769.0, -19371.586, 0.0, 9.99974, 9.999873 
3.349789e+2, 1.7506146e+2, -1276518.5, -1264642.3, -13849.118, -0.008994275, -0.019714598, -1255511.9, -31116.518, 0.0, 9.999712, 9.999862 
3.3498925e+2, 1.850611e+2, -1203672.0, -1253821.8, -9044.52, -0.017691396, -0.008136649, -1202090.6, -75691.79, 0.0, 9.999863, 9.99919 
3.3499962e+2, 1.9506034e+2, -1058120.9, -1135517.0, -26070.416, -0.038642734, -0.003718696, -1050158.4, -21750.445, 0.0, 10.000198, 9.999168 
3.3501005e+2, 2.0505954e+2, -904183.1, -988881.4, -44728.52, -0.035391927, -0.010236257, -884936.06, 45479.31, 0.0, 10.000489, 9.999363 
3.3502048e+2, 2.1505867e+2, -770607.2, -875031.6, -36914.707, -0.011602587, -0.034842644, -758875.56, 73545.516, 0.0, 10.000739, 9.999351 
3.3503067e+2, 2.2505762e+2, -701445.0, -867949.94, -34461.563, -0.014422692, -0.040464718, -694594.4, 39836.785, 0.0, 10.000873, 9.998662 
3.350407e+2, 2.3505636e+2, -599642.94, -769031.6, -41999.965, -0.040877767, -0.035155706, -589800.94, 46644.426, 0.0, 10.000902, 9.998654 
3.350512e+2, 2.4505508e+2, -451108.06, -626191.75, -38217.25, -0.02493523, -0.03473083, -443129.6, 95327.8, 0.0, 10.001162, 9.9988365 
3.350622e+2, 2.5505382e+2, -283236.03, -496150.38, -31250.096, 0.030758156, -0.045588683, -278744.13, 161723.03, 0.0, 10.001649, 9.998822 
3.3507246e+2, 2.6505214e+2, -193177.56, -467734.8, -36917.992, 0.018621769, -0.06455866, -188300.08, 154182.11, 0.0, 10.001879, 9.998233 
3.3508196e+2, 2.7505004e+2, -97699.42, -370558.06, -38917.65, -0.05791291, -0.10084004, -92257.17, 152245.16, 0.0, 10.001861, 9.998236 
3.3509272e+2, 2.8504822e+2, -3269.637, -320288.0, -28585.709, -0.033297244, -0.0854852, -712.6724, 145807.19, 0.0, 10.002034, 9.997825 
3.3510453e+2, 2.9504675e+2, 143872.66, -202039.2, -26029.504, 0.080637164, -0.017738597, 145820.38, 194354.48, 0.0, 10.002387, 9.997794 
3.351152e+2, 3.050434e+2, 235404.81, -116149.164, -6660.803, 0.04707402, -0.13808492, 235530.97, 235530.97, 0.0, 10.002607, 9.997946 
3.351267e+2, 3.150418e+2, 304540.25, 6564.238, -24826.756, 0.08703864, -0.095257215, 306594.6, 306594.6, 0.0, 10.002696, 9.998746 
3.4492588e+2, 1.2505028e+2, -1944367.6, -1799183.9, 34496.043, -0.08336481, -0.011995457, -1791404.4, -76897.125, 0.000060228966, 9.998314, 10.000232 
3.449367e+2, 1.3505109e+2, -1689601.6, -1590001.0, -84424.84, 0.07549311, 0.014093628, -1541782.8, 74715.83, 0.000025763518, 9.999233, 10.000554 
3.4494632e+2, 1.450512e+2, -1597435.9, -1594203.8, -9713.557, 0.010466598, 0.012796803, -1585972.8, -67474.9, 0.000005876301, 9.999623, 9.99966 
3.4495705e+2, 1.5505053e+2, -1525617.1, -1513889.9, -13790.66, -0.038942717, -0.016222628, -1504768.0, -84262.81, 0.0000002059256, 9.999467, 9.999614 
3.4496805e+2, 1.6505016e+2, -1389188.0, -1365118.8, -43272.664, -0.028069686, -0.028095752, -1332238.4, -9730.311, 0.0, 9.999592, 9.999902 
3.449788e+2, 1.7505012e+2, -1229595.0, -1238753.5, -51642.98, -0.002437492, -0.024161048, -1182328.6, 42177.273, 0.0, 10.00002, 9.99989 
3.4498936e+2, 1.8504968e+2, -1152766.5, -1239482.8, -40799.645, -0.0132690165, -0.016746592, -1136588.6, -10078.766, 0.0, 10.000256, 9.9991 
3.4499982e+2, 1.9504882e+2, -1050305.5, -1140837.5, -31461.662, -0.04481756, -0.014133068, -1040445.75, -11925.737, 0.0, 10.000294, 9.999085 
3.4501043e+2, 2.0504798e+2, -908629.56, -996015.8, -41175.03, -0.044009723, -0.018289903, -892285.44, 38242.555, 0.0, 10.000481, 9.999317 
3.450212e+2, 2.1504714e+2, -762341.7, -876311.44, -52756.582, -0.016726743, -0.03660553, -741670.06, 90863.83, 0.0, 10.000818, 9.999304 
3.450316e+2, 2.2504607e+2, -679894.3, -859525.06, -59835.254, -0.016407264, -0.039027315, -661788.2, 72755.86, 0.0, 10.001029, 9.998645 
3.450417e+2, 2.3504478e+2, -570728.9, -756872.56, -52524.62, -0.039634652, -0.033494964, -556930.7, 79627.59, 0.0, 10.001109, 9.998638 
3.4505242e+2, 2.4504347e+2, -444316.16, -622304.06, -37067.637, -0.02043586, -0.03830014, -436905.06, 101665.53, 0.0, 10.001205, 9.998842 
3.4506375e+2, 2.5504214e+2, -330638.44, -518321.13, -41659.363, 0.038403325, -0.059985895, -321807.0, 118773.95, 0.0, 10.001321, 9.998828 
3.450742e+2, 2.6504043e+2, -243876.16, -501465.84, -55761.97, 0.025574815, -0.0752576, -232323.19, 110273.016, 0.0, 10.001571, 9.99815 
3.450839e+2, 2.7503842e+2, -91412.336, -377718.84, -58929.145, -0.055229224, -0.09409739, -79757.65, 164858.78, 0.0, 10.001946, 9.998146 
3.450948e+2, 2.8503662e+2, 18407.525, -294136.63, -41106.367, -0.031731628, -0.08061957, 23723.49, 170357.25, 0.0, 10.002115, 9.997966 
3.4510678e+2, 2.9503506e+2, 111415.27, -202371.13, -22759.748, 0.085319445, -0.03337358, 113057.51, 161705.0, 0.0, 10.002097, 9.9979315 
3.4511778e+2, 3.0503196e+2, 202075.17, -125000.94, -2001.5822, 0.05509719, -0.13801968, 202087.42, 202087.42, 0.0, 10.002349, 9.998009 
3.451294e+2, 3.1503037e+2, 303876.28, -20890.557, -51426.758, 0.08001159, -0.10313849, 311825.16, 311825.16, 0.0, 10.0028105, 9.998501 
3.549249e+2, 1.2503915e+2, -1941036.8, -1790861.0, 77593.59, -0.009817297, 0.029717548, -1757972.3, -43355.043, 0.00005843651, 9.998306, 10.000294 
3.5493535e+2, 1.3503927e+2, -1685168.3, -1582645.3, -48307.684, 0.011600186, -0.01813489, -1563469.8, 53144.25, 0.000025162195, 9.999241, 10.000602 
3.5494497e+2, 1.4503942e+2, -1600891.8, -1604247.6, -15511.05, -0.08619349, -0.011988013, -1586968.1, -68355.78, 0.0000057861466, 9.999635, 9.999587 
3.5495675e+2, 1.5503924e+2, -1530969.0, -1524579.4, -19139.592, -0.014956917, 0.01042592, -1508369.8, -87753.6, 0.00000020730299, 9.999464, 9.999542 
3.5496816e+2, 1.6503885e+2, -1402421.3, -1391873.8, -27592.639, 0.025513688, 0.010442137, -1369055.4, -46435.633, 0.0, 9.999588, 9.999721 
3.5497877e+2, 1.7503832e+2, -1242072.4, -1265263.1, -35007.504, -0.012567195, -0.01479061, -1216789.9, 7832.89, 0.0, 10.000022, 9.999708 
3.5498938e+2, 1.850377e+2, -1133902.8, -1200421.6, -39402.207, -0.038985625, -0.030226208, -1115599.4, 11028.143, 0.0, 10.000255, 9.999369 
3.5500023e+2, 1.9503696e+2, -1031156.3, -1101143.6, -29394.354, -0.03448815, -0.0441498, -1020448.94, 8185.3486, 0.0, 10.000293, 9.999359 
3.5501096e+2, 2.050361e+2, -929571.75, -1038608.0, -28713.152, -0.037994035, -0.047906876, -922472.75, 8169.5, 0.0, 10.000477, 9.999026 
3.550216e+2, 2.1503513e+2, -783291.44, -919093.0, -39420.777, -0.056555573, -0.049439028, -772677.8, 59973.766, 0.0, 10.000815, 9.999012 
3.5503235e+2, 2.2503413e+2, -667286.25, -832497.4, -57061.707, -0.042885855, -0.040051427, -649494.0, 85167.48, 0.0, 10.001025, 9.998833 
3.5504326e+2, 2.3503312e+2, -557999.06, -730214.44, -49241.164, 0.0062844115, -0.026635068, -544913.9, 91758.0, 0.0, 10.001107, 9.998822 
3.5505408e+2, 2.450318e+2, -454280.25, -642797.25, -33294.734, 0.02328428, -0.033705216, -448572.72, 90111.125, 0.0, 10.0012045, 9.998703 
3.5506472e+2, 2.5503018e+2, -339635.66, -536894.75, -37253.48, 0.0066694114, -0.06722248, -332834.63, 107862.51, 0.0, 10.00132, 9.998701 
3.5507554e+2, 2.6502848e+2, -250169.7, -513872.8, -41813.094, -0.0015181481, -0.076112896, -243698.56, 99014.82, 0.0, 10.001568, 9.998066 
3.550864e+2, 2.7502662e+2, -98427.42, -391257.22, -44199.05, 0.0009991324, -0.0709125, -91901.555, 152831.4, 0.0, 10.001943, 9.998055 
3.5509738e+2, 2.850248e+2, 42130.94, -243979.8, -42724.41, 0.016838321, -0.07185019, 48374.645, 195124.34, 0.0, 10.002111, 9.998313 
3.551084e+2, 2.9502308e+2, 136603.44, -150164.3, -23185.104, 0.037085, -0.07698041, 138465.84, 187228.53, 0.0, 10.002098, 9.99829 
3.5511962e+2, 3.050203e+2, 182639.95, -165280.14, 15236.818, 0.008101414, -0.15252532, 183305.95, 183305.95, 0.0, 10.002347, 9.997733 
3.5513252e+2, 3.1501853e+2, 266490.7, -97015.52, -36251.78, 0.11160191, -0.10566311, 270070.75, 270070.75, 0.0, 10.002803, 9.997982 
3.6492398e+2, 1.2502751e+2, -1783618.3, -1727364.8, 76209.34, 0.012407487, 0.044315822, -1674257.4, 40473.645, 0.000055122826, 9.999441, 10.000181 
3.6493433e+2, 1.3502719e+2, -1739953.6, -1623394.5, -72051.66, 0.004694171, -0.035786256, -1589002.9, 27729.57, 0.000023501116, 9.998926, 10.000473 
3.64944e+2, 1.4502741e+2, -1686255.1, -1634832.9, -38573.195, -0.11532722, -0.021269301, -1614187.3, -95457.22, 0.00000526637, 9.999003, 9.9996805 
3.6495632e+2, 1.550274e+2, -1500174.9, -1498813.1, -31126.785, -0.011625149, 0.011414998, -1468359.8, -47628.414, 0.00000017249042, 9.999627, 9.99964 
3.6496806e+2, 1.6502702e+2, -1361271.8, -1390020.6, -31117.678, 0.038728967, 0.0145854475, -1341368.9, -18633.79, 0.0, 9.999948, 9.999559 
3.649787e+2, 1.7502633e+2, -1260930.9, -1291856.8, -37259.71, -0.016340034, -0.014221978, -1236053.0, -11312.166, 0.0, 9.999969, 9.99955 
3.6498952e+2, 1.850256e+2, -1135530.0, -1188805.9, -45551.863, -0.044798296, -0.036720295, -1109399.1, 17347.148, 0.0, 10.00019, 9.999479 
3.650007e+2, 1.9502486e+2, -975373.0, -1061846.4, -48667.984, -0.02843661, -0.06090213, -953509.9, 75241.71, 0.0, 10.000621, 9.999471 
3.6501166e+2, 2.0502402e+2, -893592.44, -1033012.5, -51133.332, -0.029458765, -0.062457837, -876849.56, 53909.72, 0.0, 10.000772, 9.998923 
3.6502233e+2, 2.150231e+2, -815497.4, -945675.7, -48098.547, -0.054948922, -0.0493183, -799654.06, 33115.26, 0.0, 10.000642, 9.998913 
3.6503324e+2, 2.2502208e+2, -704544.5, -845479.25, -58750.184, -0.04243589, -0.03892383, -683266.4, 51513.133, 0.0, 10.000748, 9.998877 
3.6504441e+2, 2.35021e+2, -556948.9, -724885.7, -62399.5, 0.010973047, -0.037722457, -536301.8, 100487.914, 0.0, 10.001095, 9.998864 
3.6505532e+2, 2.4501963e+2, -442731.72, -649965.25, -52971.395, 0.02304895, -0.046528105, -429976.66, 108825.48, 0.0, 10.001339, 9.998589 
3.65066e+2, 2.5501797e+2, -323965.16, -542420.9, -56148.906, -0.007921609, -0.07201642, -310378.4, 130438.09, 0.0, 10.001483, 9.998585 
3.6507702e+2, 2.6501626e+2, -240837.03, -502441.47, -50248.094, -0.008382801, -0.077013485, -231517.55, 111315.26, 0.0, 10.001601, 9.998129 
3.6508843e+2, 2.7501446e+2, -128072.57, -398440.75, -42436.516, 0.023267629, -0.071571864, -121568.29, 123283.04, 0.0, 10.001708, 9.998118 
3.6509958e+2, 2.8501257e+2, 20168.037, -252967.39, -48935.902, 0.035747167, -0.08393254, 28670.867, 175539.4, 0.0, 10.001953, 9.998327 
3.6511046e+2, 2.9501063e+2, 166950.02, -134504.53, -54702.22, 0.022058047, -0.112696975, 176569.38, 225452.94, 0.0, 10.0023, 9.998301 
3.6512196e+2, 3.0500832e+2, 207565.03, -141090.08, -10784.134, -0.00070222013, -0.14712693, 207898.27, 207898.27, 0.0, 10.002465, 9.997844 
3.651353e+2, 3.150065e+2, 220687.0, -121069.47, -39078.64, 0.12567624, -0.11904842, 225098.55, 225098.55, 0.0, 10.002495, 9.997966 
3.7492305e+2, 1.2501536e+2, -1804098.1, -1771280.3, 64554.914, -0.026723003, 0.031925175, -1721081.4, -6232.564, 0.00005010573, 9.999447, 9.999877 
3.7493378e+2, 1.3501483e+2, -1762376.1, -1669735.8, -90430.27, 0.056631956, -0.037718702, -1614452.9, 2401.188, 0.000020857056, 9.998924, 10.000156 
3.7494338e+2, 1.4501512e+2, -1668190.3, -1596347.6, -15207.629, -0.07606401, -0.014045935, -1593261.0, -74410.164, 0.000004428325, 9.998999, 9.999948 
3.749557e+2, 1.5501507e+2, -1481016.1, -1459349.3, -7142.761, -0.034885418, -0.013718469, -1457206.4, -36355.49, 0.00000011962439, 9.999628, 9.99991 
3.749677e+2, 1.650147e+2, -1370474.1, -1409542.5, -30471.47, 0.00439344, -0.015456843, -1353813.1, -30958.982, 0.0, 9.9999485, 9.999425 
3.749787e+2, 1.7501406e+2, -1270090.5, -1311119.0, -35891.906, -0.014121426, -0.023112712, -1249263.9, -24403.744, 0.0, 9.9999695, 9.999418 
3.7498984e+2, 1.8501335e+2, -1139264.4, -1196355.8, -29733.88, -0.03182077, -0.036395192, -1126591.6, 274.43915, 0.0, 10.000189, 9.999429 
3.750013e+2, 1.9501252e+2, -979356.56, -1069754.6, -31978.771, -0.029320762, -0.06384665, -969187.75, 59684.3, 0.0, 10.000619, 9.999418 
3.7501252e+2, 2.0501174e+2, -887768.7, -1020234.2, -56208.293, -0.021462258, -0.061783876, -867132.9, 63746.285, 0.0, 10.00077, 9.999013 
3.7502337e+2, 2.1501102e+2, -809342.7, -932401.6, -52507.09, -0.013946672, -0.037123594, -789984.1, 42903.082, 0.0, 10.000639, 9.999005 
3.7503424e+2, 2.2500992e+2, -711639.75, -859908.7, -46154.2, -0.016600853, -0.03603094, -698446.5, 36451.613, 0.0, 10.000746, 9.998778 
3.750451e+2, 2.350084e+2, -563819.94, -738712.8, -49141.574, -0.026580567, -0.06635332, -550958.0, 85953.8, 0.0, 10.001092, 9.998771 
3.750562e+2, 2.4500693e+2, -449695.28, -663587.2, -47798.566, -0.023069527, -0.07690065, -439499.7, 99425.79, 0.0, 10.001335, 9.998496 
3.7506747e+2, 2.5500548e+2, -330955.88, -556468.94, -50398.996, -0.0074182483, -0.07438625, -320204.94, 120734.11, 0.0, 10.001481, 9.998489 
3.7507874e+2, 2.6500386e+2, -227102.03, -473752.13, -46854.984, 0.003465946, -0.07753805, -218501.13, 124453.25, 0.0, 10.0016, 9.998327 
3.7509003e+2, 2.75002e+2, -113927.16, -368221.72, -38150.785, 0.010712102, -0.095508054, -108326.88, 136644.73, 0.0, 10.001703, 9.998328 
3.7510142e+2, 2.8499997e+2, -1523.2803, -296472.56, -35778.74, 0.022509733, -0.11656469, 2754.7979, 149745.1, 0.0, 10.001946, 9.998032 
3.751129e+2, 2.9499778e+2, 145016.72, -179253.63, -40781.95, 0.034836605, -0.14046036, 150067.02, 199076.78, 0.0, 10.002297, 9.997994 
3.7512463e+2, 3.049961e+2, 240533.22, -72775.164, -10744.7705, 0.023682186, -0.12242373, 240901.28, 240901.28, 0.0, 10.002465, 9.998313 
3.7513772e+2, 3.1499434e+2, 252534.55, -52826.11, -40169.414, 0.11841292, -0.13565019, 257730.33, 257730.33, 0.0, 10.002486, 9.998439 
3.849219e+2, 1.250027e+2, -1878880.9, -1803555.6, 42642.547, -0.057857703, 0.009688944, -1784324.8, -69352.45, 0.00004363311, 9.998919, 9.999909 
3.849333e+2, 1.3500237e+2, -1675793.6, -1628968.0, -96891.984, 0.086398594, -0.03811315, -1552700.3, 64275.223, 0.000017489165, 9.999521, 10.000148 
3.8494295e+2, 1.4500283e+2, -1551615.4, -1540855.4, -11260.85, -0.058753375, 0.0011101711, -1533755.4, -14784.579, 0.0000034194288, 9.999801, 9.999941 
3.849553e+2, 1.5500246e+2, -1475278.0, -1457187.0, -26111.09, -0.043625865, -0.02750197, -1438599.0, -17625.494, 0.00000006772674, 9.999671, 9.999906 
3.8496742e+2, 1.6500202e+2, -1391828.0, -1421309.1, -55314.793, -0.007603261, -0.036984917, -1349323.4, -26345.793, 0.0, 9.999807, 9.9994135 
3.8497883e+2, 1.7500152e+2, -1230293.9, -1292983.0, -52114.785, -0.011269819, -0.03015218, -1200823.8, 24158.934, 0.0, 10.000245, 9.999411 
3.849902e+2, 1.8500087e+2, -1110584.0, -1185840.3, -42816.746, -0.02596553, -0.034583546, -1091210.9, 35777.293, 0.0, 10.0004, 9.999399 
3.8500175e+2, 1.9500005e+2, -1033482.8, -1098734.3, -43867.26, -0.03206344, -0.059243836, -1011438.9, 17555.373, 0.0, 10.00026, 9.999392 
3.850131e+2, 2.0499922e+2, -945911.75, -1048566.4, -70747.055, -0.02129991, -0.05877401, -909834.06, 21167.67, 0.0, 10.000373, 9.999009 
3.850242e+2, 2.1499845e+2, -794192.5, -925301.06, -75018.32, 0.00031848592, -0.03930065, -760121.94, 72888.43, 0.0, 10.000745, 9.999003 
3.8503522e+2, 2.249973e+2, -674868.75, -844899.2, -63598.016, -0.0062852507, -0.041425638, -653712.9, 81308.64, 0.0, 10.001011, 9.9987545 
3.8504612e+2, 2.3499575e+2, -553678.7, -736489.6, -61867.598, -0.03896926, -0.07383616, -534709.5, 102325.81, 0.0, 10.001173, 9.998748 
3.850574e+2, 2.4499425e+2, -461908.8, -669235.7, -60656.027, -0.03235635, -0.08508789, -445467.03, 93582.195, 0.0, 10.00125, 9.998499 
3.8506904e+2, 2.549928e+2, -364717.75, -572294.7, -56979.95, 0.012059842, -0.0812374, -350105.38, 90957.7, 0.0, 10.001248, 9.998492 
3.8508043e+2, 2.6499125e+2, -243399.8, -468568.5, -45964.758, 0.01958426, -0.082684845, -234378.25, 108699.2, 0.0, 10.001432, 9.998444 
3.8509154e+2, 2.7498958e+2, -92603.086, -344734.38, -43914.043, -0.0087171355, -0.09873682, -85173.45, 159919.0, 0.0, 10.001793, 9.998447 
3.8510314e+2, 2.8498748e+2, -4033.4946, -301595.25, -36838.723, 0.0034015095, -0.12764773, 459.37357, 147570.88, 0.0, 10.001945, 9.997998 
3.8511515e+2, 2.949851e+2, 86449.58, -212323.22, -24352.266, 0.052909218, -0.17010798, 88421.45, 137555.55, 0.0, 10.001914, 9.997952 
3.851272e+2, 3.0498382e+2, 192742.64, -93891.984, 2090.406, 0.049391802, -0.10522708, 192757.88, 192757.88, 0.0, 10.002128, 9.99833 
3.8514e+2, 3.1498194e+2, 272349.28, -27043.482, -63477.82, 0.09701578, -0.13426387, 285251.94, 285251.94, 0.000000000002787424, 10.002551, 9.998586 
3.9492056e+2, 1.24989495e+2, -1853813.9, -1749401.1, 71679.51, -0.08492646, -0.023148756, -1712931.4, 2170.4063, 0.0000362571, 9.99891, 10.000285 
3.9493287e+2, 1.3498984e+2, -1652741.0, -1582341.3, -72521.17, 0.08993059, -0.03731998, -1536928.8, 80168.24, 0.000013744367, 9.999526, 10.000466 
3.9494267e+2, 1.4499052e+2, -1572408.1, -1584227.0, -15679.246, -0.06867002, 0.024966473, -1561561.6, -42471.87, 0.0000023661473, 9.999802, 9.999643 
3.9495498e+2, 1.5498962e+2, -1495635.5, -1499801.3, -30854.896, -0.039727326, -0.029922564, -1466793.3, -45694.094, 0.000000028035489, 9.999672, 9.999612 
3.9496732e+2, 1.6498896e+2, -1384071.0, -1405083.3, -39697.832, 0.0005547305, -0.049712695, -1353512.6, -30407.025, 0.0, 9.999806, 9.999525 
3.949791e+2, 1.7498866e+2, -1222256.4, -1275968.5, -35191.223, -0.009779592, -0.034976497, -1204844.3, 20264.035, 0.0, 10.000243, 9.999528 
3.9499053e+2, 1.8498814e+2, -1111181.9, -1186751.6, -48130.664, -0.030068846, -0.031109683, -1087776.4, 39336.047, 0.0, 10.000398, 9.999393 
3.9500192e+2, 1.949874e+2, -1034011.9, -1099383.8, -48723.22, -0.038371783, -0.047561277, -1008026.5, 21091.715, 0.0, 10.000258, 9.999388 
3.9501336e+2, 2.0498648e+2, -952914.75, -1062646.1, -57051.72, -0.030702554, -0.053394843, -928627.8, 2499.2253, 0.0, 10.000371, 9.998913 
3.950248e+2, 2.149854e+2, -801362.1, -939491.5, -60430.58, -0.014191574, -0.05493681, -778656.56, 54482.125, 0.0, 10.000741, 9.998907 
3.9503616e+2, 2.2498424e+2, -671947.2, -837973.8, -57638.598, -0.014075139, -0.054898057, -653899.0, 81250.766, 0.0, 10.001007, 9.998804 
3.950474e+2, 2.34983e+2, -550568.44, -729409.06, -55318.39, -0.02773101, -0.06106387, -534840.7, 102319.734, 0.0, 10.00117, 9.998797 
3.950589e+2, 2.4498159e+2, -455897.25, -656305.9, -61115.508, -0.0068700765, -0.071551666, -438730.3, 100443.15, 0.0, 10.001248, 9.998589 
3.950706e+2, 2.5497997e+2, -358619.66, -558740.9, -56724.445, 0.047439996, -0.092416495, -343659.44, 97529.25, 0.0, 10.001244, 9.998588 
3.9508203e+2, 2.6497853e+2, -240997.44, -462415.13, -32612.086, 0.036984287, -0.09257188, -236294.0, 106908.08, 0.0, 10.001427, 9.998488 
3.9509308e+2, 2.7497712e+2, -90152.195, -339160.84, -30100.936, -0.03698363, -0.08167304, -86565.17, 158648.66, 0.0, 10.001791, 9.9984865 
3.9510483e+2, 2.849751e+2, 10342.464, -271111.1, -38841.582, -0.023538005, -0.11780288, 15604.365, 162836.6, 0.0, 10.001942, 9.998209 
3.9511725e+2, 2.949725e+2, 99389.086, -182562.0, -25137.807, 0.07304155, -0.20078285, 101612.76, 150869.4, 0.0, 10.001902, 9.998163 
3.9512956e+2, 3.0497155e+2, 162298.92, -154509.45, 17747.867, 0.07340774, -0.094744146, 163290.08, 163290.08, 0.0, 10.002117, 9.997919 
3.9514214e+2, 3.149694e+2, 260248.69, -51272.58, -47403.324, 0.05420147, -0.10979169, 267302.22, 267302.22, 0.000000001718879, 10.002549, 9.998419 
4.049198e+2, 1.2497648e+2, -1734169.1, -1686293.4, 78316.92, -0.090415075, -0.02661906, -1628337.6, 86891.61, 0.000028702449, 9.999708, 10.000333 
4.0493232e+2, 1.3497666e+2, -1649101.4, -1581812.0, -97398.766, 0.08211601, -0.05491537, -1512410.6, 104814.94, 0.000010028613, 9.999556, 10.000457 
4.0494207e+2, 1.4497745e+2, -1604276.5, -1604206.9, -49747.832, -0.09562161, 0.021157026, -1554493.9, -35276.496, 0.0000013962007, 9.999601, 9.999603 
4.0495476e+2, 1.5497655e+2, -1480545.3, -1496536.0, -48061.742, -0.03258232, -0.02967171, -1439818.4, -18591.184, 0.000000006286357, 9.999792, 9.999577 
4.049673e+2, 1.6497594e+2, -1360960.0, -1386965.5, -39466.113, 0.0146715045, -0.047468904, -1332409.9, -9176.484, 0.0, 9.999935, 9.999588 
4.049791e+2, 1.7497568e+2, -1250008.6, -1282459.0, -39657.78, -0.020316066, -0.03381939, -1223385.3, 1850.0133, 0.0, 10.000024, 9.99959 
4.049907e+2, 1.8497519e+2, -1141668.0, -1201722.8, -61214.582, -0.043135088, -0.030677984, -1103512.8, 23726.412, 0.0, 10.000191, 9.999391 
4.0500236e+2, 1.9497444e+2, -1005130.25, -1085481.3, -62456.855, -0.030214299, -0.04723526, -971043.2, 58202.22, 0.0, 10.000457, 9.999388 
4.0501398e+2, 2.0497352e+2, -908488.7, -1041616.4, -58842.285, -0.022114849, -0.05156654, -886209.06, 45045.1, 0.0, 10.000678, 9.998909 
4.0502545e+2, 2.1497247e+2, -785168.8, -931802.5, -55953.52, -0.028059592, -0.050717946, -766256.9, 67008.68, 0.0, 10.000854, 9.998906 
4.05037e+2, 2.2497135e+2, -681417.3, -834079.7, -56393.723, -0.024766894, -0.0503545, -662844.9, 72431.31, 0.0, 10.000906, 9.9988785 
4.0504858e+2, 2.3497018e+2, -593919.44, -741362.3, -52747.703, -0.008629364, -0.05792913, -576992.3, 60293.668, 0.0, 10.000835, 9.998877 
4.050602e+2, 2.449688e+2, -486609.88, -667864.2, -52149.96, 0.010561283, -0.06946102, -472676.53, 66621.89, 0.0, 10.001023, 9.998618 
4.050718e+2, 2.549672e+2, -322660.5, -537855.4, -52933.465, 0.031358447, -0.09142723, -310344.8, 130968.58, 0.0, 10.001474, 9.99862 
4.050834e+2, 2.6496577e+2, -218601.75, -448154.94, -37278.367, 0.024418248, -0.09361264, -212699.66, 130626.98, 0.0, 10.001565, 9.99852 
4.050949e+2, 2.749644e+2, -158222.78, -368855.5, -36712.51, -0.008439811, -0.08492863, -152007.33, 93331.05, 0.0, 10.001309, 9.998514 
4.0510678e+2, 2.8496248e+2, -60856.273, -297640.9, -44562.62, 0.005795086, -0.11687347, -52747.332, 94608.64, 0.0, 10.001419, 9.998279 
4.0511906e+2, 2.9496e+2, 99769.31, -174245.81, -41616.13, 0.06329811, -0.19190173, 105950.34, 155329.36, 0.0, 10.001869, 9.998236 
4.0513152e+2, 3.0495918e+2, 161337.52, -167516.66, 13103.573, 0.060399823, -0.07381797, 161858.81, 161858.81, 0.0, 10.002165, 9.997807 
4.051445e+2, 3.1495646e+2, 245436.48, -35347.906, -34358.344, 0.045552913, -0.13355224, 249579.63, 249579.63, 0.00000001196501, 10.002347, 9.998626 
4.149196e+2, 1.2496361e+2, -1754165.8, -1728005.3, 78059.9, -0.07975466, -0.0022232675, -1661937.3, 53417.617, 0.000021697306, 9.99971, 10.000046 
4.1493165e+2, 1.3496283e+2, -1672620.4, -1631944.9, -102134.15, 0.060003217, -0.092661604, -1548143.3, 69218.29, 0.000006740833, 9.99956, 10.000112 
4.1494122e+2, 1.449636e+2, -1589738.5, -1573386.0, -42339.484, -0.14381315, -0.011798116, -1538440.5, -19086.693, 0.0000006540361, 9.999599, 9.999816 
4.149547e+2, 1.5496327e+2, -1464894.9, -1463898.8, -40484.254, -0.022947561, -0.026410379, -1423909.5, -2551.8997, 0.0000000002364484, 9.999791, 9.999802 
4.1496745e+2, 1.6496293e+2, -1360835.3, -1386088.1, -36644.957, 0.03331436, -0.029564515, -1334702.4, -11341.507, 0.0, 9.999932, 9.999595 
4.1497886e+2, 1.7496258e+2, -1249890.4, -1281606.0, -36012.656, -0.045684703, -0.0264089, -1226398.8, -1035.1581, 0.0, 10.000021, 9.999597 
4.1499063e+2, 1.8496199e+2, -1142013.6, -1202044.5, -51534.02, -0.06847239, -0.03324382, -1112391.1, 14977.275, 0.0, 10.000189, 9.999389 
4.1500303e+2, 1.9496116e+2, -1005655.94, -1085827.1, -51932.1, -0.00896553, -0.057576083, -980138.2, 49237.45, 0.0, 10.000454, 9.999387 
4.150149e+2, 2.0496039e+2, -902753.44, -1029001.1, -52418.08, 0.003022995, -0.053175565, -883826.8, 47556.4, 0.0, 10.000675, 9.998998 
4.1502616e+2, 2.1495965e+2, -779417.9, -918846.56, -48888.84, -0.042962, -0.027287297, -763984.06, 69407.14, 0.0, 10.00085, 9.998997 
4.1503775e+2, 2.2495863e+2, -674523.3, -819276.25, -59316.914, -0.040189635, -0.028383525, -653321.75, 82079.07, 0.0, 10.000904, 9.998981 
4.1504964e+2, 2.3495728e+2, -586795.44, -726288.1, -55093.86, 0.015813082, -0.06378698, -567660.44, 69751.51, 0.0, 10.0008335, 9.9989805 
4.1506127e+2, 2.449559e+2, -488607.78, -671550.75, -35530.047, 0.017936165, -0.07832074, -481949.66, 57474.508, 0.0, 10.001021, 9.998593 
4.150726e+2, 2.5495452e+2, -324933.22, -541842.5, -35740.09, -0.036104243, -0.079049535, -319196.1, 122241.23, 0.0, 10.0014715, 9.998594 
4.150845e+2, 2.6495302e+2, -218177.33, -446265.88, -47379.57, -0.018807111, -0.08632258, -208726.98, 134724.27, 0.0, 10.001561, 9.998534 
4.1509703e+2, 2.7495137e+2, -157902.58, -366954.72, -45587.063, 0.07169807, -0.107862085, -148394.1, 97071.984, 0.0, 10.001304, 9.99853 
4.15109e+2, 2.849495e+2, -65801.19, -306920.8, -27968.855, 0.08645209, -0.12468522, -62599.434, 84883.31, 0.0, 10.001414, 9.998217 
4.1512048e+2, 2.9494756e+2, 95771.32, -182326.55, -24821.36, 0.02238704, -0.14436701, 97969.36, 147470.55, 0.0, 10.001868, 9.998181 
4.151332e+2, 3.0494666e+2, 172497.31, -143483.03, 19165.457, 0.0091715325, -0.04231715, 173655.53, 173655.53, 0.0, 10.002161, 9.9979725 
4.1514704e+2, 3.1494305e+2, 281309.25, 43285.13, -28353.416, 0.061721493, -0.20552489, 284640.1, 284640.1, 0.000000036873733, 10.002331, 9.999173 
4.2491946e+2, 1.2495085e+2, -1728948.8, -1729326.5, 91946.27, -0.07871556, 0.013337729, -1637191.1, 78288.77, 0.000015823704, 9.999945, 9.999923 
4.2493132e+2, 1.349497e+2, -1671108.4, -1653590.8, -83728.52, 0.06585532, -0.0961902, -1578164.3, 39326.703, 0.0000041887733, 9.999667, 9.999911 
4.2494065e+2, 1.4495046e+2, -1568000.5, -1557995.4, -6689.8, -0.16751605, -0.0075764437, -1554644.5, -35161.33, 0.00000021832761, 9.999728, 9.99986 
4.2495447e+2, 1.5495022e+2, -1428516.0, -1441273.5, -19756.02, -0.032786064, -0.018847955, -1414134.5, 7351.2544, 0.0, 10.00002, 9.999846 
4.2496747e+2, 1.6494982e+2, -1328918.5, -1372302.0, -29592.998, 0.031864673, -0.02863009, -1313918.6, 9570.571, 0.0, 10.00016, 9.999579 
4.2497894e+2, 1.7494927e+2, -1227871.6, -1272668.1, -32006.242, -0.04810029, -0.042204913, -1211204.8, 14288.669, 0.0, 10.00018, 9.99958 
4.249908e+2, 1.8494871e+2, -1126253.3, -1190011.4, -40315.367, -0.071828164, -0.04836102, -1106735.9, 20762.273, 0.0, 10.000278, 9.999429 
4.250034e+2, 1.949481e+2, -1003440.4, -1080383.5, -38081.535, -0.013756864, -0.05397101, -987780.0, 41723.258, 0.0, 10.000451, 9.999425 
4.2501548e+2, 2.0494737e+2, -924746.44, -1036687.2, -44547.59, 0.003664807, -0.048241805, -909182.44, 22327.926, 0.0, 10.000512, 9.9990225 
4.2502695e+2, 2.1494651e+2, -833819.75, -942118.25, -46473.895, -0.029203894, -0.039466795, -816611.0, 16908.395, 0.0, 10.0004635, 9.999023 
4.2503864e+2, 2.2494544e+2, -708700.56, -835546.9, -57307.42, -0.026847512, -0.04489972, -686644.8, 48884.355, 0.0, 10.000669, 9.998982 
4.2505062e+2, 2.349442e+2, -542626.56, -704666.06, -61541.832, 0.014577407, -0.07014098, -521903.53, 115635.99, 0.0, 10.001136, 9.998983 
4.2506236e+2, 2.4494287e+2, -449663.84, -648241.3, -45710.305, 0.0105237635, -0.082882345, -439647.13, 99904.26, 0.0, 10.001269, 9.998633 
4.2507383e+2, 2.5494143e+2, -381049.06, -564613.44, -41986.52, -0.04089943, -0.091600254, -371901.38, 69663.46, 0.0, 10.001067, 9.998632 
4.2508587e+2, 2.6493993e+2, -272859.4, -475054.6, -52714.26, -0.019547096, -0.096698016, -259941.58, 83637.06, 0.0, 10.001196, 9.998513 
4.250985e+2, 2.7493837e+2, -108960.836, -345071.53, -54005.5, 0.0767693, -0.10505908, -97194.54, 148398.13, 0.0, 10.001648, 9.998515 
4.2511067e+2, 2.8493658e+2, -6187.436, -274047.94, -30291.51, 0.09232042, -0.12448749, -2804.586, 144804.8, 0.0, 10.001806, 9.998255 
4.251223e+2, 2.9493445e+2, 70945.625, -189980.39, -21847.275, 0.025465919, -0.16623537, 72762.25, 122391.41, 0.0, 10.001678, 9.99822 
4.2513523e+2, 3.0493337e+2, 94981.516, -197040.03, 15792.908, 0.019152809, -0.07081206, 95833.13, 95833.13, 0.0, 10.0016985, 9.997828 
4.2514905e+2, 3.1493e+2, 227695.67, 41902.26, -55098.633, 0.05581395, -0.19779223, 242806.63, 242806.63, 0.00000007454206, 10.001856, 9.999393 
4.3491924e+2, 1.2493824e+2, -1726838.5, -1725087.8, 85991.3, -0.09379451, 0.020956922, -1639967.4, 75636.664, 0.0000113764345, 9.999946, 9.999951 
4.349313e+2, 1.3493726e+2, -1674417.1, -1662313.0, -91766.7, 0.09895362, -0.06390575, -1576399.0, 41214.4, 0.0000025044064, 9.999674, 9.999849 
4.3494034e+2, 1.4493805e+2, -1576572.5, -1576021.9, 5050.4067, -0.16847086, 0.035371937, -1571239.3, -51634.027, 0.000000047491298, 9.999729, 9.999736 
4.3495417e+2, 1.5493734e+2, -1437705.4, -1459957.0, -8217.503, -0.065831855, -0.008256413, -1434999.6, -13388.199, 0.0, 10.000018, 9.999719 
4.3496734e+2, 1.6493659e+2, -1333098.0, -1380251.8, -28940.664, 0.005975371, -0.045937393, -1319346.1, 4271.93, 0.0, 10.000157, 9.999526 
4.3497932e+2, 1.7493577e+2, -1231288.0, -1279651.9, -30536.934, -0.02886047, -0.081103966, -1216517.9, 9106.943, 0.0, 10.00018, 9.999533 
4.3499127e+2, 1.8493535e+2, -1121361.8, -1179051.3, -34185.7, -0.054936513, -0.07532396, -1105477.5, 22150.621, 0.0, 10.000276, 9.999505 
4.3500355e+2, 1.9493528e+2, -998383.2, -1069060.8, -31310.723, -0.046517596, -0.036150172, -986507.6, 43120.71, 0.0, 10.000447, 9.999504 
4.350157e+2, 2.049345e+2, -927751.3, -1042196.56, -46421.83, -0.022135092, -0.036888223, -911289.4, 20346.242, 0.0, 10.000509, 9.998986 
4.350278e+2, 2.14933e+2, -836653.56, -947670.2, -47761.992, 0.010545366, -0.086430214, -818933.56, 14716.551, 0.0, 10.000462, 9.998985 
4.350397e+2, 2.249318e+2, -715999.94, -850360.9, -40045.223, 0.012855929, -0.09876843, -704970.25, 30691.07, 0.0, 10.000667, 9.998882 
4.3505147e+2, 2.3493092e+2, -549993.3, -719308.94, -43564.117, -0.013029795, -0.07782606, -539442.0, 98226.8, 0.0, 10.001133, 9.998884 
4.350634e+2, 2.4492966e+2, -443250.53, -634073.4, -53407.83, -0.012944763, -0.08392041, -429319.7, 110360.56, 0.0, 10.001266, 9.998733 
4.350754e+2, 2.54928e+2, -374300.06, -550163.5, -49106.55, 0.0119538, -0.12779911, -361517.16, 80178.89, 0.0, 10.001065, 9.998733 
4.3508744e+2, 2.649266e+2, -277013.13, -482969.1, -36138.824, 0.018597575, -0.12400914, -270855.97, 72852.85, 0.0, 10.001192, 9.998461 
4.3509948e+2, 2.7492553e+2, -113092.01, -352605.03, -36899.2, 0.007821472, -0.07720885, -107536.22, 138182.06, 0.0, 10.001642, 9.998466 
4.351118e+2, 2.8492358e+2, 2108.8896, -254868.86, -35344.234, 0.02398663, -0.116149634, 6881.434, 154617.47, 0.0, 10.001798, 9.99839 
4.351244e+2, 2.949206e+2, 79524.34, -170793.08, -25928.248, 0.06644485, -0.2542856, 82181.81, 131944.63, 0.0, 10.001673, 9.998354 
4.3513754e+2, 3.049194e+2, 63445.543, -261039.08, 21151.912, 0.084143475, -0.15756543, 64818.543, 64818.543, 0.0, 10.001693, 9.997391 
4.3515056e+2, 3.149172e+2, 220407.16, 28379.85, -46215.56, 0.02288551, -0.12174749, 230951.0, 230951.0, 0.0000001100893, 10.001849, 9.999303 
4.4491884e+2, 1.2492532e+2, -1766292.8, -1733213.3, 77868.805, -0.10932532, 0.017407073, -1670147.0, 45583.42, 0.000008277144, 9.999631, 10.000047 
4.4493142e+2, 1.3492446e+2, -1621771.3, -1635968.3, -97559.62, 0.12721021, -0.05696827, -1531052.3, 86686.305, 0.0000015575915, 10.00003, 9.99986 
4.449403e+2, 1.4492527e+2, -1518441.6, -1557563.6, 3377.294, -0.16718882, 0.047490526, -1518152.1, 1577.8602, 0.000000013935479, 10.00017, 9.99965 
4.4495398e+2, 1.5492426e+2, -1453070.4, -1476789.4, -10152.305, -0.082066916, -0.017678592, -1449318.5, -27579.541, 0.0, 9.999955, 9.999634 
4.4496724e+2, 1.6492335e+2, -1368520.5, -1405439.0, -26168.215, -0.009899274, -0.06044861, -1354956.0, -31209.094, 0.0, 9.999949, 9.999454 
4.4497946e+2, 1.749226e+2, -1237427.8, -1290482.9, -29290.36, -0.028501725, -0.08362591, -1224437.8, 1315.5671, 0.0, 10.000174, 9.999462 
4.449916e+2, 1.8492214e+2, -1121790.8, -1184071.3, -38519.33, -0.051663056, -0.075025596, -1103398.6, 24358.576, 0.0, 10.000294, 9.999461 
4.450038e+2, 1.9492196e+2, -1021340.6, -1084918.3, -45678.723, -0.05360087, -0.04294468, -997478.06, 32280.768, 0.0, 10.000311, 9.99946 
4.4501618e+2, 2.0492117e+2, -919296.0, -1026966.6, -56741.953, -0.026945857, -0.046118177, -894914.4, 36851.484, 0.0, 10.00052, 9.999085 
4.450286e+2, 2.1491982e+2, -762402.94, -900654.94, -48290.336, 0.020246778, -0.09263203, -747205.94, 86572.51, 0.0, 10.000924, 9.999085 
4.4504067e+2, 2.2491862e+2, -665022.25, -831964.94, -34631.78, 0.024723776, -0.10634682, -658123.06, 77666.32, 0.0, 10.001045, 9.998826 
4.450525e+2, 2.349176e+2, -592366.0, -746352.56, -35790.734, -0.012021596, -0.093323715, -584453.8, 53344.777, 0.0, 10.000871, 9.998825 
4.4506446e+2, 2.4491633e+2, -495332.56, -660571.75, -51770.406, -0.012531704, -0.09651333, -480452.56, 59357.867, 0.0, 10.000914, 9.998721 
4.4507664e+2, 2.549148e+2, -358421.72, -542980.75, -56270.754, 0.022604993, -0.12501235, -342618.38, 99206.76, 0.0, 10.001178, 9.998728 
4.4508877e+2, 2.6491344e+2, -250361.25, -455058.63, -32431.764, 0.027775958, -0.12349497, -245345.73, 98491.62, 0.0, 10.001311, 9.998594 
4.451009e+2, 2.7491236e+2, -150970.2, -356232.3, -20270.129, 0.0039922874, -0.09608134, -148987.64, 96859.125, 0.0, 10.001319, 9.998596 
4.4511327e+2, 2.8491047e+2, -59399.168, -293008.78, -26800.502, 0.0151895005, -0.1283868, -56363.957, 91499.73, 0.0, 10.0014105, 9.998315 
4.4512594e+2, 2.9490775e+2, 58516.984, -188528.63, -34213.496, 0.06253061, -0.23522869, 63167.68, 113056.68, 0.0, 10.001561, 9.998286 
4.451393e+2, 3.0490625e+2, 54855.51, -268392.5, 25137.436, 0.09280966, -0.16415155, 56798.65, 56798.65, 0.00000000000009396187, 10.001646, 9.997364 
4.4515225e+2, 3.1490427e+2, 210487.53, 48253.496, -12882.033, 0.01713564, -0.10373342, 211504.05, 211504.05, 0.00000013361628, 10.001675, 9.999523 
4.5491827e+2, 1.2491206e+2, -1753425.8, -1706822.0, 95296.58, -0.13248257, -0.00022190643, -1632019.8, 83839.77, 0.0000061456926, 9.999632, 10.000227 
4.549317e+2, 1.3491125e+2, -1615048.9, -1622177.3, -80185.3, 0.14875606, -0.078018606, -1538348.6, 79517.86, 0.0000010596042, 10.00003, 9.999955 
4.549405e+2, 1.4491208e+2, -1523039.8, -1566712.6, -3146.7478, -0.16670391, 0.027270664, -1522814.1, -2956.5352, 0.000000007555667, 10.000168, 9.999588 
4.5495388e+2, 1.5491095e+2, -1457061.4, -1485396.8, -17363.426, -0.08440922, -0.045788962, -1448819.0, -26950.715, 0.0, 9.999956, 9.999574 
4.549671e+2, 1.6491015e+2, -1374051.1, -1417225.9, -18346.326, -0.018728659, -0.07028136, -1367308.3, -43432.69, 0.0, 9.999951, 9.999372 
4.5497945e+2, 1.7490976e+2, -1243755.5, -1303044.0, -20209.797, -0.048213758, -0.05007523, -1237521.9, -11642.626, 0.0, 10.000171, 9.999376 
4.5499176e+2, 1.849091e+2, -1134582.1, -1209124.6, -37634.797, -0.06410283, -0.048429117, -1118886.3, 8999.345, 0.0, 10.000288, 9.999291 
4.550043e+2, 1.9490816e+2, -1033460.3, -1109499.5, -44561.473, -0.037490703, -0.074386485, -1012903.4, 16991.406, 0.0, 10.000309, 9.999292 
4.5501685e+2, 2.0490743e+2, -903714.8, -993604.5, -41943.93, -0.013211845, -0.075849935, -887183.4, 44717.773, 0.0, 10.000515, 9.999317 
4.550293e+2, 2.1490695e+2, -745929.5, -866088.1, -32578.684, -0.0008119936, -0.058476, -737664.9, 96239.65, 0.0, 10.000922, 9.999323 
4.5504153e+2, 2.249059e+2, -666767.25, -835191.44, -41282.203, 0.007840683, -0.06863157, -657192.9, 78720.79, 0.0, 10.001043, 9.998805 
4.5505363e+2, 2.3490424e+2, -593978.94, -749777.3, -42156.086, 0.015365015, -0.11582848, -583303.8, 54625.184, 0.0, 10.000871, 9.998802 
4.550656e+2, 2.4490291e+2, -503996.63, -678095.4, -42356.887, 0.009657496, -0.1195942, -494238.47, 45703.52, 0.0, 10.000911, 9.998602 
4.5507747e+2, 2.5490186e+2, -367097.25, -559623.75, -46136.47, -0.009594607, -0.085213296, -356612.25, 85340.17, 0.0, 10.001171, 9.998616 
4.5508987e+2, 2.649005e+2, -229126.31, -410032.13, -32285.111, 0.0072417706, -0.09642262, -223537.27, 120427.23, 0.0, 10.001307, 9.998906 
4.5510277e+2, 2.748988e+2, -129185.445, -311116.66, -19316.313, 0.059398245, -0.16050684, -127157.17, 118821.02, 0.0, 10.001319, 9.998907 
4.5511514e+2, 2.8489724e+2, -79843.01, -334181.72, -21802.713, 0.06065045, -0.16166502, -77987.55, 70004.984, 0.0, 10.001406, 9.9980345 
4.55127e+2, 2.9489577e+2, 39046.19, -227423.3, -28889.037, 0.01301191, -0.11404383, 42142.195, 92150.43, 0.0, 10.001555, 9.998022 
4.5514047e+2, 3.0489382e+2, 78338.664, -217249.13, 25973.756, 0.045395013, -0.094010375, 80603.664, 80603.664, 0.00000000000087855477, 10.0016365, 9.99772 
4.551541e+2, 3.14891e+2, 245426.14, 122553.06, -8385.098, 0.03050081, -0.15015641, 245995.72, 245995.72, 0.00000014519496, 10.001668, 10.000037 
4.64918e+2, 1.2489866e+2, -1692500.3, -1675868.5, 88398.02, -0.14168288, -0.017762698, -1595396.1, 120593.805, 0.000004581255, 10.000048, 10.000236 
4.6493152e+2, 1.3489774e+2, -1661571.4, -1653922.1, -102800.93, 0.1448436, -0.1000516, -1554874.8, 63123.457, 0.0000007444035, 9.999749, 9.999872 
4.6494022e+2, 1.4489861e+2, -1576513.5, -1590031.8, -29071.715, -0.19087432, 0.01246953, -1553425.5, -33436.32, 0.0000000034677494, 9.999791, 9.99961 
4.6495408e+2, 1.5489756e+2, -1435267.0, -1471891.9, -38191.2, -0.070184685, -0.054409966, -1411224.9, 10774.481, 0.0, 10.000094, 9.9996 
4.6496737e+2, 1.6489686e+2, -1331234.1, -1397079.8, -29523.234, -0.001479325, -0.070091985, -1319935.5, 4070.3943, 0.0, 10.000247, 9.999368 
4.6497947e+2, 1.7489658e+2, -1232069.3, -1297883.8, -26120.574, -0.06613904, -0.03833456, -1222962.6, 3046.118, 0.0, 10.000253, 9.999373 
4.6499184e+2, 1.8489589e+2, -1134390.3, -1211928.1, -36225.83, -0.08185413, -0.037706003, -1120099.4, 7915.8447, 0.0, 10.000301, 9.999267 
4.6500483e+2, 1.9489479e+2, -1020859.1, -1106213.0, -32091.176, -0.01850015, -0.076605074, -1010139.75, 19886.078, 0.0, 10.000407, 9.999268 
4.650176e+2, 2.04894e+2, -902354.25, -995015.94, -25062.457, 0.008907866, -0.08052039, -896009.94, 36022.78, 0.0, 10.000534, 9.999298 
4.6502995e+2, 2.148936e+2, -783923.6, -886766.2, -36015.21, -0.012468356, -0.055036146, -772565.6, 61470.125, 0.0, 10.000672, 9.999302 
4.650423e+2, 2.2489265e+2, -693562.1, -836047.06, -60151.105, -0.0097792, -0.05924479, -671564.9, 64479.1, 0.0, 10.000806, 9.998913 
4.6505457e+2, 2.3489116e+2, -576698.06, -728583.75, -51474.26, 0.020886816, -0.10174567, -560897.1, 77160.44, 0.0, 10.000936, 9.998916 
4.6506664e+2, 2.4488984e+2, -481604.5, -661533.56, -32533.367, 0.01843886, -0.11010325, -475902.75, 64167.105, 0.0, 10.001041, 9.998652 
4.6507856e+2, 2.548887e+2, -370498.9, -556382.25, -24955.582, -0.018270059, -0.091233216, -367206.84, 74873.984, 0.0, 10.001126, 9.99866 
4.6509102e+2, 2.648873e+2, -255279.84, -430857.28, -25395.535, -0.00006160523, -0.10621363, -251680.42, 92413.1, 0.0, 10.001163, 9.998834 
4.6510413e+2, 2.7488562e+2, -160309.19, -334023.1, -42019.453, 0.07333226, -0.16013299, -150679.02, 95428.81, 0.0, 10.001141, 9.998836 
4.6511665e+2, 2.848842e+2, -93439.4, -331711.34, -36377.39, 0.07540207, -0.14714731, -88009.34, 60111.613, 0.0, 10.001274, 9.998115 
4.651285e+2, 2.9488295e+2, 45251.18, -214172.94, -18204.586, 0.008949929, -0.08370513, 46522.42, 96656.305, 0.0, 10.001554, 9.998115 
4.65142e+2, 3.0488056e+2, 67195.01, -219162.81, 26672.035, 0.043101653, -0.117055364, 69658.12, 69658.12, 0.00000000000042122027, 10.001544, 9.997751 
4.6515542e+2, 3.1487802e+2, 185109.84, 98328.61, -29809.113, 0.020506063, -0.1476477, 194362.64, 194362.64, 0.00000014428599, 10.00123, 10.000083 
4.7491804e+2, 1.2488511e+2, -1706012.9, -1703401.9, 76144.59, -0.14441158, -0.0360586, -1628551.6, 87569.86, 0.0000033199578, 10.000044, 10.000049 
4.7493094e+2, 1.348839e+2, -1680933.0, -1695514.4, -111836.39, 0.109531306, -0.119619496, -1576149.9, 41983.836, 0.00000048107097, 9.999753, 9.999586 
4.7493947e+2, 1.4488481e+2, -1567157.3, -1572036.3, -17419.484, -0.24628179, 0.007040302, -1552007.3, -31882.37, 0.000000000765976, 9.999797, 9.999731 
4.7495446e+2, 1.5488404e+2, -1427115.5, -1454056.5, -26137.984, -0.03985984, -0.044558, -1411181.0, 10951.372, 0.0, 10.00009, 9.999724 
4.7496805e+2, 1.6488343e+2, -1327038.0, -1387269.9, -29112.258, 0.04082548, -0.060595546, -1315267.4, 8870.735, 0.0, 10.000242, 9.999437 
4.7497952e+2, 1.7488304e+2, -1226725.1, -1287103.5, -25217.627, -0.08671601, -0.048049547, -1217578.4, 8563.29, 0.0, 10.000254, 9.999447 
4.749919e+2, 1.848825e+2, -1125418.5, -1193394.1, -32576.678, -0.110063314, -0.041701786, -1112327.5, 15818.826, 0.0, 10.000301, 9.999393 
4.7500545e+2, 1.9488184e+2, -1011828.94, -1087746.4, -27487.809, 0.0029706464, -0.049944732, -1002921.44, 27230.637, 0.0, 10.000408, 9.999394 
4.750184e+2, 2.0488094e+2, -922770.5, -1036223.6, -19930.63, 0.03825938, -0.06067731, -919371.1, 12789.553, 0.0, 10.000529, 9.999018 
4.7503057e+2, 2.1487977e+2, -803991.0, -928203.06, -30533.27, -0.016835518, -0.0818757, -796891.25, 37280.89, 0.0, 10.00067, 9.999018 
4.7504288e+2, 2.2487886e+2, -677545.8, -801962.8, -55769.86, -0.030580524, -0.07772158, -656206.9, 79973.414, 0.0, 10.000802, 9.999149 
4.7505534e+2, 2.348783e+2, -559494.3, -692242.9, -46328.58, 0.003270312, -0.05307495, -544924.9, 93259.72, 0.0, 10.000932, 9.9991665 
4.7506762e+2, 2.4487711e+2, -467685.7, -632148.3, -29765.19, 0.012152521, -0.06993364, -462464.4, 77730.0, 0.0, 10.001039, 9.998856 
4.7507977e+2, 2.548753e+2, -356657.1, -527833.3, -21702.75, -0.006393725, -0.14113644, -353948.34, 88262.016, 0.0, 10.001127, 9.998857 
4.7509223e+2, 2.648738e+2, -286954.8, -496314.1, -26685.316, 0.003850047, -0.15102462, -283607.0, 60617.434, 0.0, 10.001161, 9.998384 
4.75105e+2, 2.7487275e+2, -192237.28, -399192.5, -42587.27, 0.04493606, -0.097539835, -183816.31, 62419.543, 0.0, 10.001136, 9.99839 
4.7511774e+2, 2.848713e+2, -64242.266, -270326.88, -26051.063, 0.05854397, -0.08611518, -61000.168, 87249.0, 0.0, 10.00127, 9.998538 
4.7513044e+2, 2.9486933e+2, 76360.52, -149563.86, -7277.29, 0.044245068, -0.14083014, 76594.69, 126860.54, 0.0, 10.001553, 9.998559 
4.751439e+2, 3.0486643e+2, 46596.688, -259979.08, 14099.966, 0.08038814, -0.2308709, 47243.805, 47243.805, 0.0, 10.001536, 9.997475 
4.7515628e+2, 3.1486514e+2, 156803.16, 42291.227, -35013.12, -0.018220173, -0.10952518, 166660.27, 166660.27, 0.00000012581201, 10.00122, 9.999702 
4.849178e+2, 1.24871746e+2, -1740632.6, -1702393.5, 74973.29, -0.15519407, -0.04293579, -1644140.3, 72112.34, 0.0000022837717, 9.999734, 10.000204 
4.8493084e+2, 1.3487072e+2, -1663803.4, -1680341.4, -84403.68, 0.12284095, -0.111922055, -1587264.6, 30997.686, 0.0000002759338, 9.99984, 9.999649 
4.8493916e+2, 1.448716e+2, -1549903.1, -1578187.3, 24399.969, -0.26145813, 0.0145576075, -1535843.1, -15589.332, 0.000000000009128432, 9.999978, 9.999601 
4.849544e+2, 1.5487057e+2, -1449501.3, -1480060.6, -6642.8765, -0.0495468, -0.051140893, -1448119.6, -25855.172, 0.0, 10.000001, 9.99959 
4.8496813e+2, 1.648699e+2, -1349975.4, -1387730.4, -21496.371, 0.03923446, -0.07186063, -1340244.3, -15973.321, 0.0, 10.000039, 9.999533 
4.849798e+2, 1.7486966e+2, -1237313.8, -1280915.5, -16058.987, -0.07713472, -0.05255428, -1232037.5, -5765.128, 0.0, 10.000133, 9.999547 
4.849922e+2, 1.8486919e+2, -1125162.3, -1201559.8, -23494.31, -0.10570352, -0.04261253, -1118515.4, 9760.98, 0.0, 10.000338, 9.999321 
4.8500577e+2, 1.9486846e+2, -982856.6, -1082022.4, -34325.582, -0.018051023, -0.049424794, -972134.44, 58148.56, 0.0, 10.000642, 9.999322 
4.8501882e+2, 2.0486751e+2, -891431.7, -1024343.0, -30736.332, 0.017760785, -0.059044603, -884667.94, 47624.137, 0.0, 10.000757, 9.99899 
4.8503134e+2, 2.1486631e+2, -805473.7, -931535.4, -22065.188, -0.008640428, -0.07894275, -801723.06, 32580.736, 0.0, 10.000672, 9.998995 
4.8504376e+2, 2.248654e+2, -695074.3, -809880.7, -42153.992, -0.01637595, -0.075813726, -681258.94, 55053.305, 0.0, 10.00068, 9.999153 
4.8505613e+2, 2.3486479e+2, -580642.75, -702350.0, -52162.03, -0.0026474688, -0.055277407, -561346.25, 76970.836, 0.0, 10.000786, 9.999167 
4.8506847e+2, 2.4486367e+2, -486888.47, -631555.9, -50610.23, 0.0045785927, -0.071034744, -470941.03, 69385.234, 0.0, 10.000864, 9.998944 
4.850809e+2, 2.54862e+2, -381703.9, -529380.25, -51322.844, 0.003613237, -0.13588338, -365619.28, 76721.03, 0.0, 10.000911, 9.998949 
4.8509347e+2, 2.6486048e+2, -304407.5, -513212.88, -43800.31, 0.017226145, -0.14958458, -295591.88, 48762.77, 0.0, 10.00108, 9.998307 
4.8510626e+2, 2.748592e+2, -164946.83, -395396.4, -32613.338, 0.04722768, -0.111310735, -160420.28, 85948.48, 0.0, 10.001364, 9.998306 
4.8511904e+2, 2.8485778e+2, -36537.2, -252624.89, -17935.297, 0.057513084, -0.095053926, -35058.684, 113323.26, 0.0, 10.001442, 9.998577 
4.8513186e+2, 2.948561e+2, 44080.46, -159437.5, -29754.586, 0.048078563, -0.12236297, 48341.41, 98736.836, 0.0, 10.001307, 9.99861 
4.851454e+2, 3.0485293e+2, 8326.554, -264797.8, -17607.342, 0.0919761, -0.24941768, 9456.957, 9456.957, 0.0, 10.001215, 9.997596 
4.851574e+2, 3.148519e+2, 137791.86, 22733.795, -33507.344, -0.019155173, -0.11363318, 146838.6, 146838.6, 0.00000009052117, 10.001134, 9.999609 
4.949172e+2, 1.24858536e+2, -1705830.3, -1629392.8, 74572.81, -0.1857648, -0.037417173, -1583815.4, 132568.13, 0.0000015131136, 9.999731, 10.000707 
4.949313e+2, 1.3485822e+2, -1634673.8, -1619136.4, -77777.16, 0.1852002, -0.07826474, -1548740.9, 69643.23, 0.00000014199817, 9.999836, 10.0000725 
4.949394e+2, 1.4485899e+2, -1577820.6, -1635408.3, 26858.54, -0.23728731, 0.03469177, -1567238.5, -46862.48, 0.0, 9.999973, 9.999211 
4.9495384e+2, 1.5485714e+2, -1477310.3, -1538363.3, -5201.8154, -0.10579181, -0.07201978, -1476870.3, -54474.67, 0.0, 10.000004, 9.999188 
4.9496764e+2, 1.6485626e+2, -1340452.1, -1369425.3, -18943.938, -0.013746438, -0.10032536, -1331090.6, -6686.32, 0.0, 10.000045, 9.999656 
4.949803e+2, 1.7485642e+2, -1228265.3, -1262280.6, -11871.474, -0.037621632, -0.052274518, -1224531.8, 1869.1864, 0.0, 10.000133, 9.999676 
4.949929e+2, 1.848559e+2, -1145207.5, -1241738.9, -12058.074, -0.06944583, -0.040548164, -1143724.0, -15318.461, 0.0, 10.000331, 9.999048 
4.9500573e+2, 1.9485462e+2, -1002241.5, -1122249.8, -22415.313, -0.083863184, -0.075378686, -998191.44, 32227.186, 0.0, 10.000641, 9.999046 
4.9501884e+2, 2.0485373e+2, -875758.0, -991064.3, -34195.2, -0.05588997, -0.07589479, -866379.9, 66047.3, 0.0, 10.000753, 9.999221 
4.950322e+2, 2.1485327e+2, -788724.8, -896731.8, -24660.895, 0.010441168, -0.047985498, -783360.5, 51070.285, 0.0, 10.000671, 9.999235 
4.950449e+2, 2.2485225e+2, -712242.3, -844961.6, -38539.98, 0.029899547, -0.055205952, -701862.6, 34577.38, 0.0, 10.000677, 9.998914 
4.9505696e+2, 2.3485067e+2, -597921.44, -738745.4, -47955.22, 0.0022754315, -0.105986774, -583142.2, 55312.74, 0.0, 10.000788, 9.998918 
4.9506924e+2, 2.4484953e+2, -488776.56, -635242.6, -49154.598, -0.005121753, -0.11127442, -473809.53, 66655.734, 0.0, 10.000863, 9.9989195 
4.9508184e+2, 2.548488e+2, -382854.4, -531244.5, -49120.426, 0.009581209, -0.07784679, -368067.88, 74402.93, 0.0, 10.000908, 9.998939 
4.9509472e+2, 2.648473e+2, -285457.53, -473272.97, -33378.176, 0.03714233, -0.104265094, -279702.0, 64782.45, 0.0, 10.001077, 9.998583 
4.9510792e+2, 2.7484497e+2, -146098.27, -355650.0, -21491.553, 0.076527715, -0.19863075, -143916.81, 102589.65, 0.0, 10.001361, 9.998581 
4.951206e+2, 2.8484362e+2, -61116.92, -302466.47, -23321.71, 0.06997948, -0.17132281, -58883.992, 89635.195, 0.0, 10.001437, 9.998238 
4.951329e+2, 2.948433e+2, 20453.158, -207100.22, -33952.734, 0.02006226, -0.031288594, 25411.145, 75933.94, 0.0, 10.001301, 9.998285 
4.9514645e+2, 3.0484003e+2, 41724.688, -193783.36, -20359.81, 0.077243835, -0.17574787, 43471.844, 43471.844, 0.0, 10.001208, 9.998087 
4.9515885e+2, 3.1483823e+2, 150604.86, 50998.613, -29749.49, 0.008423906, -0.16347454, 158813.67, 158813.67, 0.000000050936965, 10.001128, 9.999805 
5.049167e+2, 1.2484551e+2, -1724580.0, -1645826.9, 88026.31, -0.19986057, -0.024331266, -1588771.4, 127739.58, 0.0000009949754, 9.999638, 10.000637 
5.049314e+2, 1.348449e+2, -1613320.0, -1625265.5, -102038.67, 0.19986285, -0.08079792, -1517079.4, 101435.484, 0.000000065122016, 10.0000515, 9.9999275 
5.0493944e+2, 1.4484553e+2, -1534210.9, -1611542.1, -13519.837, -0.24099867, 0.024453908, -1531915.3, -11407.218, 0.0, 10.00026, 9.999237 
5.04954e+2, 1.5484387e+2, -1448825.4, -1521573.3, -16241.634, -0.099089034, -0.06503413, -1445364.0, -22838.795, 0.0, 10.000185, 9.999216 
5.0496787e+2, 1.6484295e+2, -1320764.8, -1380040.3, -17173.004, -0.0068632364, -0.09156388, -1316148.9, 8385.4795, 0.0, 10.000266, 9.999476 
5.0498056e+2, 1.7484279e+2, -1189532.4, -1263959.3, -34260.86, -0.041037053, -0.057038236, -1176162.8, 50371.83, 0.0, 10.000485, 9.999495 
5.0499326e+2, 1.8484215e+2, -1111306.1, -1222379.0, -35576.934, -0.07686576, -0.049588583, -1100887.9, 27652.61, 0.0, 10.00055, 9.999076 
5.0500625e+2, 1.9484095e+2, -1024839.3, -1129529.9, -23385.066, -0.08958138, -0.07751652, -1019853.2, 10699.111, 0.0, 10.00047, 9.999079 
5.050194e+2, 2.048401e+2, -908926.8, -1005400.0, -33251.266, -0.05913611, -0.078137144, -898576.6, 33983.73, 0.0, 10.000517, 9.999236 
5.0503284e+2, 2.1483955e+2, -784589.7, -892728.94, -41652.094, 0.007882534, -0.058593366, -770406.7, 64157.71, 0.0, 10.00069, 9.999253 
5.050456e+2, 2.248385e+2, -693366.75, -836985.94, -53072.906, 0.026761174, -0.0704632, -675882.7, 60691.21, 0.0, 10.000812, 9.998905 
5.050577e+2, 2.3483692e+2, -585983.5, -733863.25, -45093.387, -0.0024794408, -0.12200565, -573317.8, 65271.25, 0.0, 10.0008745, 9.998909 
5.0507015e+2, 2.4483581e+2, -478397.3, -632699.5, -37385.68, -0.0075988625, -0.12079159, -469816.4, 70782.83, 0.0, 10.000945, 9.998897 
5.0508285e+2, 2.5483522e+2, -366900.47, -526316.25, -38297.93, 0.0130545525, -0.07365163, -358177.16, 84427.086, 0.0, 10.00103, 9.998914 
5.050959e+2, 2.6483378e+2, -279029.8, -457918.2, -25997.521, 0.044723492, -0.09836184, -275328.22, 69289.15, 0.0, 10.001068, 9.998692 
5.051092e+2, 2.748314e+2, -182484.42, -361105.1, -27949.506, 0.085139684, -0.20483726, -178213.19, 68425.914, 0.0, 10.00106, 9.998688 
5.0512195e+2, 2.8483012e+2, -113156.8, -336994.78, -31898.674, 0.0719731, -0.17499384, -108699.734, 39951.906, 0.0, 10.001121, 9.998153 
5.0513405e+2, 2.948299e+2, 4552.948, -223190.53, -24346.283, 0.0095727295, -0.013624737, 7126.5376, 57781.367, 0.0, 10.001228, 9.998209 
5.0514764e+2, 3.0482662e+2, 60408.277, -160614.42, -13204.652, 0.07559279, -0.1660863, 61194.375, 61194.375, 0.0, 10.001233, 9.998302 
5.051601e+2, 3.1482515e+2, 140301.81, 29011.973, -40208.92, 0.021552647, -0.14400257, 153309.02, 153309.02, 0.000000020855737, 10.001131, 9.999653 
5.149163e+2, 1.2483264e+2, -1772218.5, -1742502.9, 95625.5, -0.20525289, -0.005826878, -1660587.9, 56047.22, 0.00000067894854, 9.999628, 9.999979 
5.14931e+2, 1.3483077e+2, -1663150.8, -1730079.6, -84773.336, 0.15990546, -0.116304055, -1605475.8, 13178.812, 0.000000029496794, 10.000056, 9.999207 
5.149393e+2, 1.4483126e+2, -1502557.8, -1547969.9, -16722.412, -0.28197768, -0.011442194, -1497064.5, 23585.5, 0.0, 10.000269, 9.999669 
5.149548e+2, 1.5483075e+2, -1416727.4, -1455014.3, -18780.69, -0.030543407, -0.03039498, -1409053.1, 13600.439, 0.0, 10.000185, 9.999673 
5.149688e+2, 1.6482992e+2, -1354291.4, -1449027.1, -9497.917, 0.05960446, -0.04536447, -1353348.5, -28687.197, 0.0, 10.000262, 9.999004 
5.1498055e+2, 1.7482874e+2, -1223206.3, -1334556.4, -25654.623, -0.09091936, -0.06719237, -1217579.8, 9093.688, 0.0, 10.000488, 9.999008 
5.1499325e+2, 1.848279e+2, -1088226.1, -1175069.3, -39080.676, -0.13369519, -0.06902927, -1073229.1, 55452.2, 0.0, 10.000553, 9.999399 
5.150072e+2, 1.9482747e+2, -1001167.9, -1080523.0, -26021.928, -0.03685857, -0.056286022, -993396.0, 37288.06, 0.0, 10.00047, 9.999416 
5.1502055e+2, 2.0482658e+2, -923773.25, -1034745.94, -27200.924, 0.00599639, -0.06632602, -917464.56, 15227.132, 0.0, 10.000511, 9.999038 
5.1503325e+2, 2.1482521e+2, -799179.2, -923122.2, -34750.574, -0.016972402, -0.109678045, -790100.9, 44603.69, 0.0, 10.00069, 9.999045 
5.150458e+2, 2.2482416e+2, -678281.1, -805066.0, -51009.69, -0.02698703, -0.12123735, -660306.56, 76407.52, 0.0, 10.000809, 9.9991255 
5.150584e+2, 2.3482347e+2, -569850.5, -700386.0, -42244.938, -0.01879185, -0.10556917, -557371.75, 81348.04, 0.0, 10.000874, 9.99914 
5.150711e+2, 2.4482249e+2, -480640.47, -636957.5, -34762.01, -0.0059332764, -0.10231942, -473258.63, 67469.91, 0.0, 10.000944, 9.998869 
5.1508385e+2, 2.548212e+2, -369705.03, -531667.4, -34903.01, 0.012722968, -0.12113963, -362503.63, 80236.91, 0.0, 10.001028, 9.9988785 
5.1509684e+2, 2.6481986e+2, -283693.88, -466919.94, -26405.654, 0.039621416, -0.12977095, -279964.34, 64789.0, 0.0, 10.001065, 9.998632 
5.1511014e+2, 2.7481848e+2, -186690.08, -369504.03, -27558.193, 0.07226985, -0.1329215, -182626.17, 64140.78, 0.0, 10.001058, 9.9986315 
5.1512295e+2, 2.8481716e+2, -103512.586, -315496.72, -28028.803, 0.061269406, -0.10903488, -99869.2, 48910.49, 0.0, 10.001115, 9.998302 
5.151353e+2, 2.9481593e+2, 14720.706, -200023.08, -19756.3, 0.011536027, -0.067086816, 16523.145, 67314.78, 0.0, 10.001221, 9.998371 
5.1514894e+2, 3.0481273e+2, 56370.074, -167948.6, -17953.287, 0.08299832, -0.21858485, 57797.875, 57797.875, 0.0, 10.001228, 9.998255 
5.151612e+2, 3.1481254e+2, 108337.78, -38069.945, -36655.18, 0.018003037, -0.06015449, 117002.16, 117002.16, 0.0000000053166334, 10.001134, 9.999191 
5.2491605e+2, 1.24818936e+2, -1729804.0, -1733961.5, 46517.69, -0.20794643, -0.0028937145, -1685318.8, 31450.373, 0.0000005002885, 9.999973, 9.999869 
5.24931e+2, 1.3481691e+2, -1689565.5, -1760647.0, -84991.914, 0.1624106, -0.11482952, -1632982.6, -14191.5205, 0.000000016983103, 9.99995, 9.999048 
5.249394e+2, 1.4481725e+2, -1513228.8, -1548630.3, -11387.219, -0.2942901, -0.016218493, -1509882.3, 10905.75, 0.0, 10.000176, 9.999709 
5.2495533e+2, 1.5481697e+2, -1366179.6, -1425821.9, -46715.504, -0.012706996, -0.018197846, -1340578.4, 82210.85, 0.0, 10.000512, 9.999716 
5.2496934e+2, 1.6481617e+2, -1311137.8, -1429590.0, -39973.406, 0.07848141, -0.03130684, -1298910.4, 25886.063, 0.0, 10.000565, 9.998993 
5.249809e+2, 1.7481484e+2, -1244265.4, -1346573.5, -22060.219, -0.09846693, -0.06660117, -1239711.4, -12901.359, 0.0, 10.00035, 9.998994 
5.2499366e+2, 1.8481398e+2, -1113885.6, -1183400.4, -24682.65, -0.14034578, -0.07206108, -1106013.1, 22804.73, 0.0, 10.000359, 9.999436 
5.2500796e+2, 1.9481365e+2, -980753.1, -1065961.8, -35040.543, -0.016921056, -0.051946804, -968194.3, 62625.004, 0.0, 10.000591, 9.999457 
5.250214e+2, 2.0481277e+2, -897144.25, -1023025.75, -39513.695, 0.024682213, -0.06462605, -885768.94, 47058.027, 0.0, 10.000699, 9.999027 
5.2503383e+2, 2.1481125e+2, -802186.5, -925592.6, -33117.28, -0.028712597, -0.11970486, -793860.8, 40980.25, 0.0, 10.000675, 9.999035 
5.2504647e+2, 2.2481026e+2, -680683.5, -794447.8, -44032.938, -0.04345148, -0.13059066, -665631.8, 71218.125, 0.0, 10.000741, 9.999231 
5.2505934e+2, 2.348098e+2, -557121.06, -681830.9, -45035.46, -0.013581879, -0.10312411, -542558.3, 96294.92, 0.0, 10.000908, 9.99925 
5.250721e+2, 2.4480887e+2, -476074.75, -630566.7, -43212.26, 0.0016289566, -0.10258386, -464809.47, 76051.87, 0.0, 10.0009575, 9.998906 
5.2508473e+2, 2.5480744e+2, -389591.78, -537097.1, -39413.227, 0.0010107219, -0.13845277, -379721.13, 63153.457, 0.0, 10.000874, 9.998915 
5.2509767e+2, 2.6480615e+2, -315914.97, -490020.78, -26595.71, 0.02116248, -0.13896278, -311942.94, 32944.18, 0.0, 10.000876, 9.998564 
5.25111e+2, 2.7480504e+2, -205308.03, -385593.5, -28539.814, 0.06166764, -0.10966186, -200897.95, 46000.965, 0.0, 10.000962, 9.998567 
5.2512395e+2, 2.848037e+2, -110823.016, -316081.13, -30478.445, 0.058436014, -0.08731481, -106392.94, 42519.37, 0.0, 10.001053, 9.998328 
5.251365e+2, 2.9480216e+2, 5705.2744, -201886.84, -33075.42, 0.014848431, -0.078252435, 10847.755, 61774.844, 0.0, 10.001148, 9.998394 
5.2515024e+2, 3.047991e+2, 72818.414, -145316.47, -32477.041, 0.08851792, -0.22137238, 77551.086, 77551.086, 0.0, 10.001277, 9.998386 
5.251624e+2, 3.1479913e+2, 133608.66, -51101.0, -31759.414, 0.016767368, -0.0543041, 138916.89, 138916.89, 0.00000000056215, 10.001414, 9.998968 
5.34916e+2, 1.2480445e+2, -1698549.6, -1671580.5, 33634.246, -0.22164415, -0.012512016, -1648828.4, 68084.46, 0.00000041209, 9.999983, 10.000293 
5.349315e+2, 1.3480327e+2, -1661118.1, -1702491.4, -84487.09, 0.2057353, -0.07664224, -1594822.0, 24102.682, 0.000000018082496, 9.999952, 9.999448 
5.349397e+2, 1.4480354e+2, -1538406.8, -1599783.6, 1299.6671, -0.27951202, 0.01012549, -1538379.3, -17457.02, 0.0, 10.000172, 9.999361 
5.349555e+2, 1.5480253e+2, -1391490.9, -1478855.4, -34186.484, -0.05002703, -0.028173134, -1379703.6, 43228.46, 0.0, 10.000514, 9.999351 
5.349696e+2, 1.648017e+2, -1279857.6, -1365736.1, -48873.58, 0.043237094, -0.047682144, -1257740.0, 67199.625, 0.0, 10.000568, 9.99943 
5.3498155e+2, 1.748011e+2, -1212155.6, -1280368.8, -29712.916, -0.06577173, -0.055065636, -1201028.1, 25915.934, 0.0, 10.000351, 9.999449 
5.3499436e+2, 1.8480037e+2, -1131683.9, -1219491.6, -16634.727, -0.09888811, -0.05868537, -1128638.1, 312.13394, 0.0, 10.000355, 9.99919 
5.350084e+2, 1.9479951e+2, -999035.1, -1103959.6, -26171.924, -0.031334206, -0.06555586, -992869.25, 38088.99, 0.0, 10.00059, 9.999197 
5.350218e+2, 2.0479861e+2, -885191.6, -997352.4, -40597.95, -0.0054312963, -0.07375603, -872039.06, 60927.19, 0.0, 10.000695, 9.999206 
5.350345e+2, 2.1479769e+2, -789625.1, -899072.3, -33617.15, -0.029761579, -0.09024279, -780124.25, 54849.82, 0.0, 10.000672, 9.999219 
5.3504735e+2, 2.2479679e+2, -681726.2, -795853.25, -38428.58, -0.025824161, -0.10071458, -669992.94, 66988.82, 0.0, 10.000738, 9.999223 
5.3506047e+2, 2.347959e+2, -558020.06, -683785.2, -38480.29, 0.011428044, -0.11400065, -547180.56, 91808.7, 0.0, 10.000907, 9.999238 
5.3507316e+2, 2.4479493e+2, -469373.7, -616035.94, -46323.145, 0.013222458, -0.12129319, -455967.9, 85029.695, 0.0, 10.000955, 9.999007 
5.350853e+2, 2.547939e+2, -382275.1, -522511.88, -42166.22, -0.02374486, -0.12733369, -370573.1, 72433.61, 0.0, 10.000875, 9.999014 
5.350982e+2, 2.6479262e+2, -321390.56, -501423.6, -23875.41, -0.012482676, -0.12802383, -318278.1, 26740.932, 0.0, 10.000876, 9.998486 
5.351119e+2, 2.7479106e+2, -211205.44, -397072.72, -25036.033, 0.05011617, -0.13360557, -207892.19, 39142.9, 0.0, 10.000958, 9.998489 
5.35125e+2, 2.847897e+2, -117731.65, -329388.7, -27241.916, 0.060148403, -0.10818115, -114281.63, 34767.84, 0.0, 10.001047, 9.9982395 
5.351377e+2, 2.9478854e+2, -1282.7056, -216497.44, -28363.07, 0.018645583, -0.04856963, 2392.4922, 53453.75, 0.0, 10.001147, 9.998295 
5.3515154e+2, 3.0478576e+2, 92252.73, -103258.01, -27550.926, 0.09052945, -0.17649901, 96060.96, 96060.96, 0.0, 10.001271, 9.998678 
5.3516376e+2, 3.1478497e+2, 131296.48, -51502.473, -18843.03, 0.0094886115, -0.1215384, 133218.61, 133218.61, 0.0000000000003731001, 10.001397, 9.998973 
5.449159e+2, 1.2479001e+2, -1706521.9, -1657604.8, 43679.1, -0.21832202, -0.028548514, -1632002.5, 85052.54, 0.00000036785775, 9.999852, 10.000452 
5.449318e+2, 1.3478936e+2, -1593177.8, -1653350.9, -82199.47, 0.2325991, -0.055077434, -1535731.8, 83329.3, 0.000000024396927, 10.000347, 9.999594 
5.4494005e+2, 1.4478958e+2, -1497724.1, -1587535.8, -2458.3835, -0.27519947, 0.022138137, -1497656.9, 23402.049, 0.0, 10.000484, 9.999293 
5.449557e+2, 1.5478826e+2, -1442921.0, -1511793.8, -19572.93, -0.06617339, -0.040137857, -1437747.3, -14674.973, 0.0, 10.000196, 9.999278 
5.4496986e+2, 1.6478743e+2, -1317559.6, -1367343.9, -30950.084, 0.03081846, -0.06296362, -1302733.6, 22345.951, 0.0, 10.000239, 9.999577 
5.4498225e+2, 1.7478716e+2, -1163919.0, -1239322.1, -34981.973, -0.044187773, -0.05115343, -1150189.6, 76890.445, 0.0, 10.000608, 9.999604 
5.449951e+2, 1.847865e+2, -1084539.9, -1207215.3, -28479.057, -0.07951193, -0.052493494, -1078250.9, 50834.72, 0.0, 10.000725, 9.999096 
5.450087e+2, 1.9478539e+2, -1008060.06, -1119470.8, -27033.82, -0.05539682, -0.0748309, -1001846.8, 29249.76, 0.0, 10.000577, 9.999097 
5.4502213e+2, 2.0478448e+2, -894884.7, -991797.9, -36667.758, -0.030687049, -0.082396224, -882574.8, 50529.77, 0.0, 10.000584, 9.999298 
5.450354e+2, 2.1478383e+2, -770252.0, -878675.75, -36961.254, -0.010209991, -0.08199105, -758850.9, 76258.43, 0.0, 10.000758, 9.999317 
5.450484e+2, 2.2478296e+2, -679178.0, -798756.6, -47866.26, 0.0016861272, -0.09138432, -662377.9, 74738.63, 0.0, 10.000773, 9.999186 
5.4506123e+2, 2.3478189e+2, -602981.4, -709621.3, -51016.8, 0.006265334, -0.120321415, -582506.1, 56620.31, 0.0, 10.000618, 9.9992 
5.4507387e+2, 2.4478093e+2, -502064.1, -623008.94, -55706.824, -0.001245134, -0.12976205, -480316.28, 60818.633, 0.0, 10.000693, 9.999084 
5.450863e+2, 2.5478008e+2, -355700.06, -500512.53, -53247.867, -0.02161248, -0.1234836, -338228.63, 104913.055, 0.0, 10.00102, 9.999095 
5.4509926e+2, 2.6477885e+2, -280677.8, -479487.66, -36276.64, -0.0077865473, -0.12737508, -274265.28, 70888.22, 0.0, 10.001146, 9.998506 
5.451127e+2, 2.747771e+2, -197248.61, -388470.6, -31679.014, 0.041325662, -0.15472429, -192137.1, 55034.098, 0.0, 10.001046, 9.998507 
5.451259e+2, 2.8477564e+2, -126843.48, -344323.84, -26763.209, 0.04784819, -0.13225894, -123598.41, 25588.129, 0.0, 10.00103, 9.998145 
5.451387e+2, 2.9477462e+2, -15238.671, -233603.72, -28531.45, 0.014220086, -0.049752895, -11572.326, 39625.61, 0.0, 10.001098, 9.998199 
5.451527e+2, 3.047723e+2, 87756.445, -78007.11, -29536.338, 0.08896247, -0.1402918, 92862.08, 92862.08, 0.0, 10.0011215, 9.998923 
5.45165e+2, 3.147711e+2, 90324.664, -66065.57, -19182.643, 0.008409383, -0.15001036, 92643.21, 92643.21, 0.000000000015387011, 10.001092, 9.99902 
5.549159e+2, 1.2477563e+2, -1713046.8, -1670457.8, 49452.27, -0.20265631, -0.05298681, -1637910.1, 79285.516, 0.0000003291145, 9.999849, 10.000364 
5.5493224e+2, 1.347752e+2, -1598107.8, -1665230.0, -62497.39, 0.23960552, -0.049458336, -1560730.4, 58469.52, 0.000000025104656, 10.000355, 9.99951 
5.549404e+2, 1.447754e+2, -1483117.0, -1558973.1, -13202.001, -0.28726208, 0.020971172, -1480885.0, 40312.867, 0.0, 10.00049, 9.999487 
5.549559e+2, 1.5477416e+2, -1428201.0, -1481637.8, -29967.38, -0.0637912, -0.053997032, -1414770.8, 8438.859, 0.0, 10.000196, 9.999485 
5.549702e+2, 1.6477336e+2, -1328051.9, -1387514.1, -17982.834, 0.03900723, -0.07756419, -1323036.4, 2179.9443, 0.0, 10.000233, 9.999441 
5.549829e+2, 1.7477305e+2, -1174204.4, -1260363.0, -20932.04, -0.035555378, -0.055356394, -1169388.3, 57829.645, 0.0, 10.0006075, 9.99946 
5.549958e+2, 1.8477237e+2, -1080998.8, -1199687.1, -34160.06, -0.08489956, -0.05379335, -1071869.3, 57354.52, 0.0, 10.000724, 9.999149 
5.550089e+2, 1.9477127e+2, -1004291.4, -1111444.8, -32267.434, -0.09069601, -0.080091245, -995324.9, 35909.43, 0.0, 10.000575, 9.999153 
5.5502254e+2, 2.0477037e+2, -894737.0, -990482.8, -30752.18, -0.053172257, -0.0914465, -885710.75, 47531.293, 0.0, 10.00058, 9.999309 
5.550365e+2, 2.1476969e+2, -770091.2, -877564.94, -30112.033, 0.027488468, -0.09484616, -762229.44, 73017.36, 0.0, 10.000753, 9.999328 
5.550495e+2, 2.2476882e+2, -684278.4, -808497.44, -53811.01, 0.037170038, -0.10261591, -664209.94, 73044.39, 0.0, 10.000771, 9.999121 
5.5506146e+2, 2.3476775e+2, -607654.7, -719717.8, -56709.67, -0.029651323, -0.12266881, -583964.75, 55300.16, 0.0, 10.000619, 9.99913 
5.550741e+2, 2.447668e+2, -498219.66, -615051.44, -44197.945, -0.04259098, -0.12926745, -483383.4, 57890.047, 0.0, 10.000693, 9.999139 
5.550875e+2, 2.54766e+2, -351962.44, -491814.47, -40559.113, 0.0043363627, -0.12712544, -341051.03, 102228.59, 0.0, 10.001016, 9.999157 
5.551008e+2, 2.6476476e+2, -273504.88, -463179.03, -40005.066, 0.03153392, -0.13698654, -265412.5, 79878.05, 0.0, 10.001141, 9.998621 
5.5511373e+2, 2.7476305e+2, -189921.94, -373512.97, -35165.53, 0.03393013, -0.17365351, -183416.73, 63890.64, 0.0, 10.001046, 9.99861 
5.5512667e+2, 2.8476152e+2, -134793.39, -360239.06, -24820.48, 0.020829277, -0.15995803, -132093.11, 17230.582, 0.0, 10.001028, 9.998037 
5.5513966e+2, 2.9476035e+2, -24336.926, -249936.69, -25617.734, -0.0022087463, -0.080319755, -21464.506, 29872.781, 0.0, 10.001086, 9.998093 
5.551537e+2, 3.0475864e+2, 101673.016, -46881.82, -31393.785, 0.07956502, -0.11158335, 108034.945, 108034.945, 0.0, 10.001112, 9.999142 
5.5516607e+2, 3.1475753e+2, 99070.04, -49071.063, -13929.34, 0.009276945, -0.13677862, 100368.4, 100368.4, 0.0000000020600701, 10.001097, 9.999134 
5.6491596e+2, 1.2476145e+2, -1695536.4, -1672325.0, 46143.613, -0.18681452, -0.04867842, -1636349.9, 80985.07, 0.00000027083397, 10.000017, 10.000268 
5.6493247e+2, 1.3476099e+2, -1627444.3, -1688085.8, -55686.344, 0.23446631, -0.041243177, -1594359.0, 24980.889, 0.000000017878008, 10.000189, 9.999433 
5.6494075e+2, 1.4476103e+2, -1492375.0, -1558460.5, -24994.508, -0.3025754, 0.017127078, -1483986.5, 37352.844, 0.0, 10.000405, 9.999532 
5.649564e+2, 1.5475993e+2, -1363680.3, -1444600.0, -54421.133, -0.048201695, -0.048270214, -1336326.8, 87022.52, 0.0, 10.000616, 9.999536 
5.649708e+2, 1.6475917e+2, -1265994.0, -1361733.5, -37709.918, 0.05569883, -0.0699745, -1252924.9, 72430.78, 0.0, 10.000679, 9.999402 
5.649834e+2, 1.7475876e+2, -1181077.6, -1268636.4, -34725.348, -0.046140954, -0.053768925, -1168977.8, 58380.48, 0.0, 10.000583, 9.999415 
5.6499636e+2, 1.8475805e+2, -1097112.9, -1199191.8, -48960.11, -0.0967345, -0.05394355, -1077426.6, 51937.457, 0.0, 10.000577, 9.999223 
5.6500965e+2, 1.9475706e+2, -985008.75, -1093111.5, -46239.477, -0.077643424, -0.077723555, -967928.94, 63444.203, 0.0, 10.0006695, 9.999233 
5.6502324e+2, 2.0475616e+2, -884239.06, -980135.1, -40988.297, -0.036724985, -0.09747421, -869107.3, 64273.324, 0.0, 10.000629, 9.999355 
5.650371e+2, 2.147553e+2, -811436.7, -891956.4, -38225.98, 0.023986982, -0.121247604, -796180.0, 39206.457, 0.0, 10.000447, 9.999376 
5.6505007e+2, 2.2475442e+2, -721883.6, -832620.2, -54512.055, 0.02831045, -0.1287215, -699552.44, 37841.62, 0.0, 10.000539, 9.999066 
5.650623e+2, 2.3475355e+2, -565487.25, -705675.0, -56894.816, -0.027621472, -0.12542944, -545302.8, 94100.68, 0.0, 10.000936, 9.999073 
5.65075e+2, 2.4475263e+2, -453148.3, -591616.94, -49058.656, -0.03976643, -0.12737529, -437528.97, 103883.164, 0.0, 10.000995, 9.999155 
5.6508833e+2, 2.5475168e+2, -399561.97, -512648.38, -49640.242, -0.003673899, -0.14101486, -380863.66, 62555.914, 0.0, 10.00068, 9.999176 
5.6510156e+2, 2.6475054e+2, -337773.03, -488876.8, -48489.76, 0.022057513, -0.14498433, -323551.06, 21878.553, 0.0, 10.000677, 9.998668 
5.6511474e+2, 2.7474916e+2, -191340.28, -368063.44, -48581.805, 0.034163333, -0.15393482, -178865.55, 68577.83, 0.0, 10.001013, 9.998661 
5.6512773e+2, 2.847475e+2, -116044.5, -339810.5, -38167.055, 0.020800386, -0.15682237, -109713.586, 39746.56, 0.0, 10.001108, 9.998138 
5.6514055e+2, 2.947459e+2, -40012.684, -247893.13, -24778.621, -0.013742013, -0.1366232, -37099.97, 14377.538, 0.0, 10.000937, 9.9981785 
5.651547e+2, 3.0474457e+2, 85401.84, -72383.57, -25425.715, 0.06652961, -0.12368083, 89397.77, 89397.77, 0.0, 10.001076, 9.998984 
5.6516755e+2, 3.147435e+2, 156828.14, -36186.2, -31607.846, 0.019007633, -0.12983558, 161872.38, 161872.38, 0.000000017271022, 10.001557, 9.999001 
5.7491606e+2, 1.24747515e+2, -1704073.4, -1694091.6, 36549.504, -0.17759025, -0.013654653, -1662193.8, 55278.625, 0.00000019303324, 10.000033, 10.000113 
5.7493246e+2, 1.3474672e+2, -1633103.8, -1701228.9, -48427.066, 0.21402588, -0.030245224, -1607959.6, 11521.275, 0.000000007774616, 10.000193, 9.999342 
5.749409e+2, 1.447465e+2, -1500716.5, -1574127.3, -17449.795, -0.324742, 0.010379197, -1496779.8, 24703.445, 0.0, 10.000399, 9.999427 
5.749573e+2, 1.5474561e+2, -1370384.9, -1458894.5, -46140.73, -0.021795474, -0.022805795, -1350706.5, 72784.6, 0.0, 10.000618, 9.999437 
5.749717e+2, 1.6474485e+2, -1262492.6, -1355018.1, -41562.477, 0.07821187, -0.040203903, -1246564.8, 78932.51, 0.0, 10.00068, 9.999449 
5.7498366e+2, 1.7474428e+2, -1177481.9, -1261722.5, -37932.395, -0.07794617, -0.046601284, -1162919.0, 64582.234, 0.0, 10.000584, 9.999463 
5.7499665e+2, 1.8474358e+2, -1091211.8, -1185991.1, -46034.723, -0.1183466, -0.053515162, -1072533.5, 56973.074, 0.0, 10.000573, 9.999315 
5.750109e+2, 1.9474277e+2, -978708.8, -1079332.9, -42649.805, -0.018860972, -0.067895815, -963063.94, 68449.16, 0.0, 10.000667, 9.99933 
5.750244e+2, 2.047418e+2, -878674.94, -967928.8, -48128.836, 0.016953785, -0.10044481, -857666.94, 75853.45, 0.0, 10.000627, 9.999441 
5.7503706e+2, 2.147407e+2, -805428.3, -879353.75, -44867.914, -0.021851163, -0.16074625, -784258.6, 51269.617, 0.0, 10.000446, 9.999463 
5.7505006e+2, 2.2473982e+2, -724975.1, -838788.44, -40410.86, -0.026337119, -0.16970485, -712086.3, 25449.318, 0.0, 10.000537, 9.999024 
5.750635e+2, 2.3473927e+2, -569140.8, -712318.3, -41428.133, 0.009563633, -0.12927186, -558017.75, 81524.65, 0.0, 10.000932, 9.99903 
5.750764e+2, 2.4473839e+2, -455349.03, -595298.25, -60531.51, 0.004418849, -0.12482862, -432800.6, 108750.45, 0.0, 10.000991, 9.999132 
5.7508856e+2, 2.5473714e+2, -401600.53, -517050.5, -61299.984, -0.04615607, -0.16497399, -375124.2, 68437.34, 0.0, 10.00068, 9.9991455 
5.751017e+2, 2.6473618e+2, -339137.1, -491824.84, -36738.902, -0.035901573, -0.15141293, -330757.1, 14813.622, 0.0, 10.000677, 9.998648 
5.751158e+2, 2.747354e+2, -192967.28, -369518.38, -35559.11, 0.039019313, -0.09690159, -186074.44, 61504.887, 0.0, 10.001003, 9.998656 
5.751291e+2, 2.8473365e+2, -95906.35, -295534.16, -44589.938, 0.043575402, -0.12381332, -86399.27, 63196.766, 0.0, 10.001098, 9.998447 
5.7514143e+2, 2.9473117e+2, -19870.637, -206744.6, -30818.688, -0.022890009, -0.21832782, -14919.301, 36699.42, 0.0, 10.000939, 9.998461 
5.7515556e+2, 3.0473003e+2, 48127.83, -149686.9, -8598.477, 0.04795361, -0.1754528, 48500.875, 48500.875, 0.00000000021282408, 10.001075, 9.998454 
5.751692e+2, 3.14729e+2, 126058.086, -94138.16, -6778.3623, 0.031038582, -0.12544847, 126266.555, 126266.555, 0.0000000699572, 10.001531, 9.998615 
5.849163e+2, 1.2473352e+2, -1652425.4, -1681741.1, 28554.207, -0.172793, 0.014080148, -1634986.6, 82623.984, 0.00000011738098, 10.0004425, 9.999999 
5.849329e+2, 1.3473254e+2, -1592036.0, -1686928.0, -39116.22, 0.22773403, -0.015323675, -1577990.5, 41630.047, 0.0000000014227642, 10.000502, 9.9992895 
5.8494145e+2, 1.4473207e+2, -1479572.0, -1565668.3, -1809.2653, -0.31448475, 0.00559165, -1479534.0, 42091.09, 0.0, 10.000553, 9.99941 
5.8495796e+2, 1.5473132e+2, -1375599.5, -1462810.0, -25953.645, -0.01907711, -0.0135253025, -1368460.3, 55171.285, 0.0, 10.000589, 9.999424 
5.8497226e+2, 1.6473062e+2, -1276142.3, -1361286.3, -26664.021, 0.075561754, -0.026067793, -1268481.4, 57155.69, 0.0, 10.000585, 9.999452 
5.8498424e+2, 1.7472997e+2, -1184392.8, -1264545.0, -27061.176, -0.07693926, -0.03882052, -1176111.9, 51529.566, 0.0, 10.000534, 9.999467 
5.8499724e+2, 1.8472919e+2, -1103848.9, -1189098.1, -35599.902, -0.111047536, -0.055756003, -1090937.8, 38709.492, 0.0, 10.000475, 9.999341 
5.8501154e+2, 1.9472827e+2, -1016064.5, -1094238.9, -37970.293, -0.0055672866, -0.08496601, -1000658.1, 30996.66, 0.0, 10.000397, 9.999356 
5.850251e+2, 2.0472734e+2, -898337.4, -976864.4, -46753.945, 0.027153375, -0.11573849, -876547.2, 57114.53, 0.0, 10.000489, 9.999445 
5.850376e+2, 2.1472642e+2, -757249.5, -855695.56, -50487.992, -0.023867521, -0.15528034, -735960.5, 99707.375, 0.0, 10.000775, 9.999467 
5.850507e+2, 2.2472563e+2, -681280.0, -811640.75, -44432.754, -0.029668508, -0.16096275, -667575.94, 70098.75, 0.0, 10.00081, 9.99908 
5.8506435e+2, 2.3472495e+2, -618600.44, -729680.75, -38610.836, 0.016268281, -0.13796611, -606498.1, 33184.094, 0.0, 10.000564, 9.999088 
5.850772e+2, 2.4472405e+2, -519722.53, -630095.7, -56880.06, 0.010662235, -0.1373014, -495657.0, 46034.047, 0.0, 10.000566, 9.999098 
5.850892e+2, 2.547229e+2, -380911.7, -510845.9, -58890.918, -0.05237931, -0.16554694, -358192.63, 85508.38, 0.0, 10.000839, 9.999111 
5.851023e+2, 2.6472193e+2, -312899.5, -476818.03, -30884.822, -0.045695752, -0.14946787, -307273.4, 38436.684, 0.0, 10.000847, 9.998668 
5.851165e+2, 2.747211e+2, -254866.4, -397083.84, -27817.89, 0.03639484, -0.10273991, -249618.83, -1899.8083, 0.0, 10.000567, 9.998677 
5.851299e+2, 2.8471935e+2, -152690.31, -313061.75, -37746.43, 0.0462705, -0.1355007, -144250.17, 5485.3174, 0.0, 10.000665, 9.998536 
5.851425e+2, 2.9471695e+2, 17952.576, -179982.06, -41280.246, -0.01788903, -0.23332223, 26216.73, 77974.03, 0.0, 10.0011635, 9.998536 
5.851567e+2, 3.0471602e+2, 62619.777, -148777.73, -15317.78, 0.044594366, -0.16775206, 63723.93, 63723.93, 0.000000006848287, 10.001201, 9.9984 
5.8517027e+2, 3.1471455e+2, 25746.598, -121753.516, 25759.813, 0.027283536, -0.15951183, 30115.93, 30115.93, 0.00000018333391, 10.000753, 9.998799 
5.9491676e+2, 1.24719515e+2, -1655551.9, -1690689.5, 14435.672, -0.17501657, 0.037804183, -1650381.9, 67367.03, 0.000000058921596, 10.000452, 9.999933 
5.949339e+2, 1.3471848e+2, -1591596.6, -1687979.9, -36427.656, 0.27389595, 0.0020608199, -1579378.0, 40380.98, 0.000000000010343272, 10.000508, 9.999279 
5.9494245e+2, 1.447178e+2, -1474948.5, -1556227.5, -741.6534, -0.27378154, 0.0010561281, -1474941.6, 46823.074, 0.0, 10.000553, 9.999475 
5.949583e+2, 1.547171e+2, -1370775.1, -1453134.6, -23822.477, -0.042265274, -0.021173785, -1364380.9, 59389.348, 0.0, 10.000589, 9.999491 
5.9497255e+2, 1.6471645e+2, -1279911.6, -1368335.0, -28809.084, 0.044186663, -0.028668433, -1271353.6, 54421.258, 0.0, 10.000581, 9.999405 
5.9498507e+2, 1.7471586e+2, -1187188.4, -1270808.8, -28603.594, -0.04539018, -0.030556817, -1178340.4, 49438.383, 0.0, 10.000536, 9.999423 
5.9499806e+2, 1.8471491e+2, -1106529.9, -1194647.4, -38755.293, -0.07698922, -0.0608375, -1091910.3, 37876.066, 0.0, 10.000474, 9.999304 
5.950116e+2, 1.9471356e+2, -1018649.44, -1099862.8, -40603.434, -0.03892161, -0.12855573, -1001831.9, 29966.117, 0.0, 10.000398, 9.999318 
5.950252e+2, 2.0471273e+2, -904669.56, -989192.94, -36762.6, -0.007834822, -0.14350857, -890917.5, 42887.117, 0.0, 10.000486, 9.999362 
5.950388e+2, 2.1471252e+2, -763744.8, -867991.9, -39318.61, 0.015300979, -0.10633516, -750578.1, 85227.37, 0.0, 10.000771, 9.999385 
5.9505194e+2, 2.2471182e+2, -671392.56, -790030.06, -53608.38, 0.016022807, -0.103973456, -650757.75, 87053.54, 0.0, 10.000805, 9.999231 
5.9506464e+2, 2.3471062e+2, -607805.0, -707183.2, -47667.45, -0.008582252, -0.15048197, -588637.8, 51185.023, 0.0, 10.000564, 9.999243 
5.9507746e+2, 2.4470963e+2, -522654.0, -636320.4, -47274.984, -0.022590637, -0.16359869, -505562.0, 36270.004, 0.0, 10.000566, 9.999055 
5.950903e+2, 2.5470892e+2, -384099.9, -516726.5, -48191.73, -0.024875358, -0.14323781, -368438.22, 75399.82, 0.0, 10.000835, 9.999073 
5.951035e+2, 2.6470783e+2, -309116.28, -468472.25, -41059.7, -0.0097995065, -0.13925079, -299159.03, 46688.76, 0.0, 10.000845, 9.998727 
5.9511703e+2, 2.7470627e+2, -250781.23, -389818.16, -37809.49, 0.023509689, -0.16986243, -241164.53, 6697.925, 0.0, 10.000573, 9.998725 
5.9513044e+2, 2.8470463e+2, -161877.98, -332383.44, -20066.482, 0.026047545, -0.19115952, -159548.22, -9669.666, 0.0, 10.000666, 9.998403 
5.951438e+2, 2.9470313e+2, 6048.5215, -200990.58, -22495.29, -0.0019140395, -0.18353501, 8464.496, 60357.855, 0.0, 10.001147, 9.9984 
5.95158e+2, 3.0470252e+2, 87881.49, -91272.12, -31795.57, 0.05447931, -0.10091117, 93357.1, 93357.1, 0.000000033052434, 10.00118, 9.998805 
5.951708e+2, 3.147001e+2, 76240.07, -15619.358, 14014.663, 0.0038995103, -0.22891736, 78330.66, 78330.66, 0.00000037488923, 10.000749, 9.999532 
6.049172e+2, 1.2470535e+2, -1651019.1, -1702735.6, 22431.799, -0.17456858, 0.024789266, -1642645.4, 75241.33, 0.000000021349177, 10.0005455, 9.999806 
6.049347e+2, 1.3470432e+2, -1557652.1, -1675743.4, -18438.17, 0.28962758, -0.006586482, -1554840.1, 65056.64, 0.0, 10.000761, 9.999241 
6.049433e+2, 1.4470352e+2, -1440432.4, -1540196.6, 7572.705, -0.25290108, -0.016648058, -1439860.9, 82042.87, 0.0, 10.000793, 9.999469 
6.0495895e+2, 1.547029e+2, -1357507.5, -1446326.5, -21424.953, -0.042459838, -0.030511748, -1352609.5, 71298.63, 0.0, 10.000681, 9.999493 
6.0497314e+2, 1.6470222e+2, -1279347.8, -1370627.1, -27981.053, 0.044356033, -0.039577533, -1271453.1, 54459.816, 0.0, 10.000595, 9.999382 
6.049859e+2, 1.7470151e+2, -1191666.9, -1275361.0, -26932.766, -0.016824033, -0.054017164, -1183749.0, 44169.207, 0.0, 10.000516, 9.999401 
6.049988e+2, 1.8470055e+2, -1105485.5, -1196933.0, -33398.79, -0.048585825, -0.08169826, -1094586.5, 35339.67, 0.0, 10.000493, 9.999278 
6.05012e+2, 1.9469938e+2, -998340.9, -1093078.0, -35174.44, -0.044837862, -0.12971179, -986709.25, 45227.363, 0.0, 10.00055, 9.999291 
6.0502553e+2, 2.0469862e+2, -895981.2, -983797.75, -22939.139, -0.025033936, -0.13587216, -890350.2, 43592.664, 0.0, 10.000541, 9.999373 
6.0503936e+2, 2.1469836e+2, -809934.25, -889056.5, -18861.701, 0.0130147645, -0.10283102, -805667.9, 30276.293, 0.0, 10.000448, 9.999395 
6.050526e+2, 2.246977e+2, -718971.44, -813410.5, -39101.05, 0.018061174, -0.09908408, -704883.75, 33066.227, 0.0, 10.000482, 9.999226 
6.0506517e+2, 2.3469657e+2, -594724.2, -701784.1, -46372.13, -0.014869147, -0.13767079, -577431.6, 62529.254, 0.0, 10.000657, 9.999234 
6.0507804e+2, 2.4469554e+2, -501126.7, -625027.1, -45301.63, -0.025091024, -0.15243512, -486330.13, 55639.996, 0.0, 10.00071, 9.9990635 
6.050913e+2, 2.5469473e+2, -414457.84, -530647.7, -43308.05, -0.009716246, -0.14372553, -400091.7, 43885.258, 0.0, 10.000625, 9.99908 
6.0510445e+2, 2.6469356e+2, -323400.8, -474194.8, -37960.246, 0.004198837, -0.14754988, -314384.03, 31603.049, 0.0, 10.000741, 9.998738 
6.051177e+2, 2.74692e+2, -177465.52, -353116.34, -38673.402, 0.015065195, -0.1815521, -169327.73, 78673.93, 0.0, 10.00107, 9.998737 
6.051311e+2, 2.8469038e+2, -108250.61, -305339.44, -16711.322, 0.014909611, -0.2019847, -106843.69, 43173.92, 0.0, 10.001028, 9.998414 
6.0514474e+2, 2.9468894e+2, -77061.22, -241533.03, -9918.986, 0.006016759, -0.18963628, -76465.19, -24432.953, 0.00000000003092486, 10.000577, 9.998397 
6.0515875e+2, 3.046884e+2, -10270.93, -133291.95, -28138.86, 0.056043018, -0.101078354, -4140.194, -4140.194, 0.00000008707832, 10.0004835, 9.998851 
6.0517144e+2, 3.14686e+2, 109857.28, 40977.4, -8108.984, -0.006012096, -0.23108141, 110799.05, 110799.05, 0.0000006525611, 10.000807, 9.999892 
6.149179e+2, 1.2469106e+2, -1664626.0, -1731541.8, 13940.757, -0.17079304, -0.024462288, -1661837.9, 56185.605, 0.0000000039655865, 10.000547, 9.999608 
6.149352e+2, 1.3469009e+2, -1563693.1, -1687901.4, -10184.157, 0.2717162, -0.041389216, -1562863.6, 57170.344, 0.0, 10.00076, 9.999158 
6.1494404e+2, 1.4468926e+2, -1445941.5, -1552200.0, 2536.2712, -0.25563607, -0.047805034, -1445881.0, 76160.81, 0.0, 10.000794, 9.999386 
6.149598e+2, 1.5468875e+2, -1362137.1, -1457232.8, -25074.592, -0.021673633, -0.042450644, -1355930.6, 68114.51, 0.0, 10.000684, 9.999417 
6.14974e+2, 1.6468796e+2, -1278750.9, -1369625.5, -31240.604, 0.073578775, -0.0591885, -1269047.3, 57003.805, 0.0, 10.000596, 9.999389 
6.1498666e+2, 1.7468688e+2, -1191147.5, -1274561.3, -29683.828, 0.007267698, -0.10940502, -1181662.6, 46397.22, 0.0, 10.000516, 9.999407 
6.1499953e+2, 1.846861e+2, -1107678.3, -1200901.9, -32121.1, -0.028308611, -0.11889905, -1097682.5, 32384.09, 0.0, 10.00049, 9.999252 
6.1501276e+2, 1.9468567e+2, -999993.5, -1096435.6, -32762.436, -0.025364168, -0.08944527, -989916.6, 42154.086, 0.0, 10.000549, 9.999269 
6.1502606e+2, 2.0468499e+2, -889193.1, -968823.5, -26831.623, -0.026334234, -0.09337373, -880996.0, 53080.48, 0.0, 10.000537, 9.999477 
6.1503935e+2, 2.1468401e+2, -802268.1, -872974.06, -22204.611, -0.0323022, -0.14295912, -795873.3, 40210.516, 0.0, 10.000447, 9.999506 
6.150527e+2, 2.2468327e+2, -731158.06, -838090.9, -33309.938, -0.025495874, -0.14444111, -721630.75, 16459.736, 0.0, 10.000479, 9.999058 
6.15066e+2, 2.3468278e+2, -606806.06, -726406.06, -39380.56, -0.0036862122, -0.10071098, -595003.9, 45092.5, 0.0, 10.000655, 9.999066 
6.1507905e+2, 2.446818e+2, -498179.1, -618437.25, -48658.984, 0.0021503065, -0.10494627, -480957.0, 61148.527, 0.0, 10.000707, 9.99911 
6.1509186e+2, 2.5468034e+2, -411200.72, -523860.44, -46120.63, -0.0096179275, -0.1669351, -394728.34, 49389.477, 0.0, 10.000624, 9.999126 
6.1510503e+2, 2.6467916e+2, -326024.9, -479201.84, -25975.586, -0.0068698768, -0.17444684, -321739.84, 24388.162, 0.0, 10.000738, 9.998705 
6.1511874e+2, 2.7467826e+2, -180438.3, -357161.28, -25794.313, 0.010174155, -0.13845077, -176750.36, 71386.32, 0.0, 10.0010605, 9.998714 
6.1513215e+2, 2.8467658e+2, -99035.88, -284119.44, -32860.156, 0.012864579, -0.16725944, -93374.96, 56777.64, 0.0, 10.001019, 9.998565 
6.1514527e+2, 2.9467434e+2, -67352.46, -222061.56, -26206.81, 0.0022534912, -0.24984533, -63033.742, -10859.824, 0.0000000010306047, 10.00058, 9.998529 
6.151591e+2, 3.0467364e+2, -32298.701, -178761.78, -17227.197, 0.04427051, -0.16852838, -30299.697, -30299.697, 0.00000016756015, 10.000483, 9.998539 
6.1517227e+2, 3.146722e+2, 106501.76, 38296.45, 7844.0684, -0.008285554, -0.17419498, 107392.25, 107392.25, 0.000001002472, 10.000789, 9.999883 
6.2491864e+2, 1.24676704e+2, -1647549.5, -1730223.5, -4497.745, -0.1555759, -0.06533988, -1647305.5, 70856.98, 0.00000000008306351, 10.000692, 9.999547 
6.249359e+2, 1.346761e+2, -1545077.1, -1673966.0, -6237.4604, 0.25631937, -0.0486738, -1544776.0, 75393.484, 0.0, 10.000866, 9.999202 
6.2494487e+2, 1.4467524e+2, -1436988.1, -1554353.8, 2951.7185, -0.25744167, -0.057303205, -1436913.9, 85263.81, 0.0, 10.000883, 9.99933 
6.249608e+2, 1.5467452e+2, -1350830.6, -1457535.1, -23541.498, -0.0010132578, -0.06810839, -1345867.6, 78315.42, 0.0, 10.000787, 9.999365 
6.2497485e+2, 1.6467369e+2, -1265961.8, -1366691.4, -28435.953, 0.09374066, -0.085941754, -1258488.8, 67701.016, 0.0, 10.000699, 9.999359 
6.249872e+2, 1.7467272e+2, -1176467.3, -1270602.5, -30663.863, 0.006075848, -0.119916245, -1167359.9, 60837.87, 0.0, 10.000631, 9.999378 
6.25e+2, 1.8467204e+2, -1094110.8, -1193047.1, -29303.582, -0.029225774, -0.11977245, -1086082.9, 44121.043, 0.0, 10.000578, 9.999265 
6.250135e+2, 1.9467165e+2, -1002050.3, -1096002.8, -27793.025, -0.0045766756, -0.08897067, -994444.3, 37763.438, 0.0, 10.000529, 9.999281 
6.2502676e+2, 2.0467097e+2, -895658.94, -976361.2, -26443.627, -0.007887941, -0.09232647, -887766.1, 46447.56, 0.0, 10.000511, 9.999438 
6.2503976e+2, 2.1466994e+2, -792527.6, -873073.4, -34101.094, -0.044106722, -0.14192377, -780029.4, 56192.453, 0.0, 10.000535, 9.999463 
6.25053e+2, 2.2466911e+2, -725364.06, -837108.2, -41652.188, -0.041655436, -0.1475291, -711546.9, 26682.424, 0.0, 10.000526, 9.999042 
6.250666e+2, 2.3466854e+2, -634656.1, -741754.9, -36831.785, 0.004838722, -0.111967884, -623212.3, 17023.59, 0.0, 10.000473, 9.999049 
6.2507975e+2, 2.4466759e+2, -516707.63, -621133.4, -38929.41, 0.015543721, -0.115972474, -503792.28, 38452.44, 0.0, 10.000553, 9.999166 
6.2509245e+2, 2.5466624e+2, -384495.9, -504710.66, -36946.64, -0.015059045, -0.17025855, -374048.7, 70207.055, 0.0, 10.00078, 9.999182 
6.2510574e+2, 2.6466513e+2, -322385.56, -475236.5, -16501.393, -0.015388281, -0.17430618, -320624.4, 25640.9, 0.0, 10.000753, 9.998725 
6.251195e+2, 2.7466425e+2, -268777.34, -397568.13, -13511.327, 0.017864544, -0.13690895, -267375.16, -19101.424, 0.0, 10.000444, 9.998734 
6.251329e+2, 2.8466266e+2, -172245.63, -312191.03, -21813.799, 0.021289634, -0.16360268, -168924.27, -18635.275, 0.0, 10.000484, 9.998629 
6.2514585e+2, 2.9466045e+2, -15132.376, -190499.42, -23208.586, -0.0076538874, -0.24820529, -12112.875, 40196.77, 0.000000004235602, 10.000912, 9.998586 
6.251596e+2, 3.0465946e+2, 19138.906, -179814.73, -14123.269, 0.025484994, -0.18818973, 20136.482, 20136.482, 0.000000262113, 10.000946, 9.998309 
6.25173e+2, 3.1465808e+2, 75174.97, 24342.275, 18505.002, 0.00086275325, -0.1674134, 81197.86, 81197.86, 0.0000013873902, 10.000567, 9.999893 
6.349196e+2, 1.2466229e+2, -1640444.0, -1717258.5, -15441.111, -0.12859878, -0.09769486, -1637456.3, 80847.34, 0.0, 10.000698, 9.999635 
6.349366e+2, 1.3466239e+2, -1532951.5, -1649314.3, -199.89604, 0.24072255, -0.028838001, -1532951.3, 87352.05, 0.0, 10.000868, 9.999371 
6.349457e+2, 1.4466152e+2, -1438684.0, -1558361.8, -2262.5522, -0.26137844, -0.044560406, -1438641.3, 83669.99, 0.0, 10.000885, 9.9993 
6.3496166e+2, 1.5466025e+2, -1353097.8, -1462456.9, -27105.252, 0.01716654, -0.107480034, -1346748.3, 77573.664, 0.0, 10.000787, 9.999331 
6.349757e+2, 1.6465941e+2, -1270745.1, -1376666.5, -31889.137, 0.10140991, -0.12024637, -1261885.5, 64443.47, 0.0, 10.000698, 9.999291 
6.349875e+2, 1.7465907e+2, -1180740.5, -1280352.8, -33027.637, -0.022719054, -0.08607307, -1170784.8, 57547.113, 0.0, 10.000634, 9.9993105 
6.3500035e+2, 1.846584e+2, -1090928.8, -1186148.3, -31669.094, -0.054429825, -0.08445488, -1081357.9, 48980.09, 0.0, 10.000577, 9.999312 
6.3501424e+2, 1.946573e+2, -998126.75, -1088264.8, -29511.127, 0.015607007, -0.12718242, -989324.4, 43023.086, 0.0, 10.00053, 9.999333 
6.350276e+2, 2.0465653e+2, -909585.06, -1004676.1, -26395.238, 0.027510965, -0.13204445, -902749.7, 31604.72, 0.0, 10.000508, 9.999246 
6.350404e+2, 2.146561e+2, -806301.56, -901820.9, -32884.563, -0.024393288, -0.10217605, -796075.2, 40283.09, 0.0, 10.000535, 9.999266 
6.350536e+2, 2.2465521e+2, -717214.3, -819176.06, -44035.402, -0.032696825, -0.11060472, -700829.25, 37537.14, 0.0, 10.000522, 9.9991665 
6.350671e+2, 2.3465383e+2, -624947.8, -721740.75, -38320.38, 0.00845639, -0.17019959, -611613.6, 28765.588, 0.0, 10.000473, 9.9991865 
6.3508034e+2, 2.4465288e+2, -513175.5, -613435.9, -30941.69, 0.01231578, -0.18386367, -504395.38, 37992.18, 0.0, 10.000551, 9.999219 
6.3509315e+2, 2.5465244e+2, -380499.8, -495982.53, -28079.113, -0.026654735, -0.15314816, -374034.47, 70356.195, 0.0, 10.000778, 9.999243 
6.351064e+2, 2.646515e+2, -317965.4, -465921.56, -27699.64, -0.021654388, -0.14608844, -312949.66, 33449.203, 0.0, 10.000752, 9.99879 
6.351201e+2, 2.7465004e+2, -264115.22, -388484.56, -24461.96, 0.03356631, -0.17675394, -259476.84, -11063.903, 0.0, 10.000446, 9.998796 
6.3513356e+2, 2.8464854e+2, -173873.48, -315297.28, -6556.8857, 0.035003256, -0.19317162, -173570.14, -23143.074, 0.0, 10.0004835, 9.998609 
6.351467e+2, 2.9464725e+2, -18164.434, -194452.95, -6761.774, -0.02406369, -0.18709676, -17905.457, 34534.258, 0.000000008608103, 10.000901, 9.998564 
6.351603e+2, 3.046458e+2, 7157.183, -201856.88, -27603.234, -0.000011739801, -0.15899709, 10741.124, 10741.124, 0.00000035003856, 10.000934, 9.998164 
6.351737e+2, 3.1464362e+2, 76486.164, 29732.441, 7754.8306, 0.014093448, -0.206948, 77738.86, 77738.86, 0.0000017531552, 10.000555, 9.999937 
6.449203e+2, 1.2464852e+2, -1634044.5, -1713686.6, 224.48119, -0.12786035, -0.09030265, -1634043.9, 84394.76, 0.0, 10.000739, 9.9996395 
6.4493763e+2, 1.346486e+2, -1506531.4, -1623209.1, 23225.098, 0.24933524, -0.03364846, -1502078.3, 118359.16, 0.0, 10.000994, 9.999488 
6.449469e+2, 1.4464772e+2, -1425848.3, -1555671.6, 7104.293, -0.2348262, -0.05606681, -1425460.6, 96984.76, 0.0, 10.000989, 9.999269 
6.4496243e+2, 1.5464653e+2, -1354763.3, -1467265.5, -19310.736, 0.010202396, -0.107382104, -1351541.0, 72914.67, 0.0, 10.000793, 9.999295 
6.449762e+2, 1.6464569e+2, -1271159.4, -1383716.6, -17709.307, 0.086915046, -0.11512616, -1268438.8, 58024.18, 0.0, 10.000725, 9.99923 
6.4498836e+2, 1.7464526e+2, -1163091.4, -1278763.6, -19287.0, -0.011041199, -0.08435493, -1159960.3, 68506.77, 0.0, 10.000786, 9.9992485 
6.450012e+2, 1.8464452e+2, -1065052.6, -1170623.6, -21533.895, -0.037472464, -0.08617357, -1060829.3, 69644.39, 0.0, 10.000742, 9.999339 
6.450147e+2, 1.9464345e+2, -987944.56, -1079684.9, -22034.914, 0.010944289, -0.13070859, -982926.5, 49556.03, 0.0, 10.0005865, 9.999365 
6.4502805e+2, 2.0464261e+2, -918917.56, -1028495.3, -13405.756, 0.022753732, -0.13544135, -917301.3, 17188.89, 0.0, 10.000528, 9.999072 
6.450412e+2, 2.1464202e+2, -813775.7, -926078.9, -19431.223, -0.00420209, -0.104410514, -810508.7, 25987.945, 0.0, 10.000573, 9.999081 
6.4505434e+2, 2.246411e+2, -695940.4, -796535.8, -31348.111, -0.012481466, -0.11270541, -686971.2, 51534.063, 0.0, 10.000614, 9.999278 
6.450676e+2, 2.3463982e+2, -590852.0, -691826.3, -28187.748, -0.000983036, -0.17312121, -583516.1, 57000.215, 0.0, 10.000649, 9.999306 
6.4508075e+2, 2.4463895e+2, -502894.78, -610788.25, -20693.57, -0.003285688, -0.1830077, -499062.0, 43461.707, 0.0, 10.000632, 9.999198 
6.450938e+2, 2.5463855e+2, -415366.44, -515720.72, -24458.547, -0.02172142, -0.14351082, -409722.75, 34804.02, 0.0, 10.000551, 9.999216 
6.451071e+2, 2.6463765e+2, -329464.47, -462020.66, -29673.436, -0.016390264, -0.13978057, -323125.1, 23410.186, 0.0, 10.000634, 9.998873 
6.451206e+2, 2.746361e+2, -192113.67, -343935.47, -26036.059, 0.016001556, -0.18669596, -187772.83, 60777.152, 0.0, 10.000899, 9.998882 
6.451341e+2, 2.8463474e+2, -115568.89, -288328.25, -4267.4766, 0.019192632, -0.19274575, -115463.54, 35099.246, 0.0, 10.000889, 9.998598 
6.451475e+2, 2.9463378e+2, -69571.73, -220610.89, -4546.237, -0.009521614, -0.15067303, -69435.016, -16862.645, 0.000000011710588, 10.000554, 9.99855 
6.4516103e+2, 3.0463207e+2, -76334.92, -234269.45, -25909.885, 0.0073238164, -0.15302415, -72192.914, -72192.914, 0.00000040808163, 10.000325, 9.998235 
6.451739e+2, 3.1463e+2, 40838.273, 27015.041, 24190.44, -0.0050544753, -0.19432527, 59085.11, 59085.11, 0.0000020409286, 10.000247, 10.000067 
6.549208e+2, 1.2463547e+2, -1638013.0, -1724554.8, -4385.043, -0.1521113, -0.04167157, -1637791.4, 80775.56, 0.0, 10.000749, 9.999561 
6.549389e+2, 1.3463482e+2, -1502896.1, -1615228.6, 31633.39, 0.278494, -0.06363649, -1494600.6, 125971.12, 0.0, 10.000992, 9.999543 
6.549484e+2, 1.4463387e+2, -1428842.8, -1561234.9, -1926.937, -0.18079472, -0.09376514, -1428814.6, 93765.37, 0.0, 10.000986, 9.999232 
6.5496284e+2, 1.546334e+2, -1357383.9, -1473558.5, -26272.834, -0.024682645, -0.06773218, -1351718.5, 72865.445, 0.0, 10.000796, 9.999251 
6.549765e+2, 1.6463259e+2, -1275263.6, -1392622.5, -16497.984, 0.046949517, -0.06972641, -1272988.5, 53602.957, 0.0, 10.000727, 9.999168 
6.549896e+2, 1.7463133e+2, -1167244.6, -1287811.1, -17106.006, 0.039131932, -0.11484584, -1164864.6, 63738.41, 0.0, 10.000787, 9.9991865 
6.550024e+2, 1.8463047e+2, -1065294.3, -1170371.3, -28026.006, 0.018817902, -0.12542579, -1058286.5, 72323.984, 0.0, 10.000738, 9.999342 
6.55015e+2, 1.946301e+2, -987405.6, -1078744.9, -27757.04, -0.019636877, -0.10169106, -979632.1, 52980.848, 0.0, 10.0005865, 9.999372 
6.5502816e+2, 2.046292e+2, -930816.56, -1052410.6, -12466.793, -0.02357151, -0.10452489, -929551.5, 5069.8306, 0.0, 10.000525, 9.998909 
6.5504193e+2, 2.146277e+2, -825766.5, -950999.6, -17374.523, 0.014729139, -0.14760031, -823400.7, 13236.035, 0.0, 10.000572, 9.99891 
6.550552e+2, 2.2462675e+2, -690215.4, -783843.0, -30524.385, 0.01641581, -0.1527188, -681142.94, 57502.78, 0.0, 10.00061, 9.999367 
6.55068e+2, 2.3462649e+2, -583657.56, -677095.6, -26591.545, -0.024235789, -0.12285872, -576619.94, 64027.453, 0.0, 10.000649, 9.999407 
6.5508103e+2, 2.4462578e+2, -510602.22, -626069.44, -24029.004, -0.03289725, -0.11586167, -505801.3, 36852.03, 0.0, 10.000628, 9.999095 
6.5509456e+2, 2.5462463e+2, -423442.88, -531529.5, -26985.795, -0.0035697634, -0.14224261, -417079.94, 27584.15, 0.0, 10.000546, 9.99911 
6.551079e+2, 2.6462352e+2, -323778.4, -448977.4, -20144.75, -0.0020062278, -0.1565913, -320616.9, 26057.656, 0.0, 10.000628, 9.998965 
6.55121e+2, 2.746224e+2, -186158.23, -329589.22, -15425.805, -0.034361728, -0.1668699, -184517.97, 64166.844, 0.0, 10.000892, 9.998985 
6.551345e+2, 2.8462124e+2, -116993.24, -289438.4, -16124.182, -0.026483096, -0.1599663, -115498.54, 35197.406, 0.0, 10.00088, 9.998594 
6.5514845e+2, 2.9462013e+2, -70501.16, -221306.84, -16481.727, 0.030296018, -0.13754526, -68720.87, -16013.358, 0.000000011654482, 10.000548, 9.998549 
6.551617e+2, 3.0461824e+2, -57976.473, -194588.38, -29214.248, 0.042359054, -0.17224166, -51991.273, -51991.273, 0.00000041978168, 10.000319, 9.998509 
6.551736e+2, 3.146172e+2, 54243.023, 57533.332, 22883.941, -0.057557095, -0.13710701, 78831.18, 78831.18, 0.000002202322, 10.000236, 10.000281 
6.64922e+2, 1.2462225e+2, -1586953.4, -1718307.9, -2508.905, -0.1272357, -0.024081808, -1586905.5, 131790.45, 0.0, 10.001177, 9.999399 
6.649398e+2, 1.346212e+2, -1510324.3, -1625543.6, 33003.62, 0.2714554, -0.07934188, -1501540.3, 119164.12, 0.0, 10.000973, 9.999481 
6.649495e+2, 1.4462012e+2, -1443091.1, -1568188.4, -3605.9485, -0.16970125, -0.11895072, -1442987.3, 79726.64, 0.0, 10.000889, 9.999231 
6.649638e+2, 1.5461986e+2, -1319575.9, -1454970.8, -24328.38, -0.021239173, -0.07313645, -1315337.1, 109378.945, 0.0, 10.001055, 9.999254 
6.6497743e+2, 1.6461907e+2, -1232446.0, -1369155.4, -12660.007, 0.048647813, -0.07129782, -1231283.5, 95439.3, 0.0, 10.001009, 9.999192 
6.649904e+2, 1.7461772e+2, -1176112.0, -1289004.4, -8110.6724, 0.04822638, -0.13091068, -1175532.3, 53202.9, 0.0, 10.000715, 9.999211 
6.650033e+2, 1.8461677e+2, -1088761.9, -1200244.0, -15330.551, 0.031319954, -0.14225817, -1086692.1, 44051.406, 0.0, 10.000659, 9.999175 
6.650158e+2, 1.9461636e+2, -956954.0, -1084183.8, -29993.375, -0.010286262, -0.10440621, -950237.9, 82509.41, 0.0, 10.000882, 9.999191 
6.650288e+2, 2.0461543e+2, -874005.25, -1021311.44, -18910.227, -0.02282004, -0.103495345, -871616.44, 63139.895, 0.0, 10.000899, 9.998942 
6.650424e+2, 2.1461388e+2, -807249.25, -936614.7, -8927.51, -0.000073244344, -0.15342376, -806636.06, 30135.314, 0.0, 10.000679, 9.998957 
6.650557e+2, 2.2461297e+2, -708531.9, -805242.4, -17101.152, -0.00011458159, -0.15521654, -705597.0, 33183.44, 0.0, 10.00054, 9.999253 
6.650685e+2, 2.346127e+2, -614750.7, -705589.5, -29955.55, -0.027184516, -0.11122033, -605761.9, 35020.793, 0.0, 10.000495, 9.999287 
6.650816e+2, 2.4461198e+2, -529909.7, -630873.06, -31224.982, -0.030521449, -0.10248087, -521033.13, 21756.086, 0.0, 10.000477, 9.999135 
6.6509503e+2, 2.5461078e+2, -428881.66, -529005.25, -24156.373, -0.005949358, -0.14218242, -423358.25, 21442.361, 0.0, 10.000487, 9.999156 
6.651084e+2, 2.6460963e+2, -351882.7, -463493.84, -10855.051, -0.0050802683, -0.15602386, -350836.75, -4025.7507, 0.0, 10.000441, 9.998956 
6.651216e+2, 2.7460873e+2, -269955.03, -371140.4, -14824.3, -0.032830108, -0.14823167, -267827.9, -19007.775, 0.0, 10.000321, 9.998974 
6.6513515e+2, 2.8460768e+2, -184248.66, -302076.44, -17904.621, -0.024037376, -0.13869032, -181588.03, -30757.914, 0.0, 10.000336, 9.998769 
6.651489e+2, 2.946065e+2, -62428.98, -196339.23, -6605.958, 0.027375884, -0.13585337, -62103.89, -9262.911, 0.000000008469742, 10.000515, 9.998735 
6.6516197e+2, 3.046045e+2, -25609.393, -161560.61, -20659.436, 0.03257009, -0.20181063, -22539.271, -22539.271, 0.00000038345433, 10.000467, 9.998664 
6.651738e+2, 3.1460407e+2, 38842.89, 49580.168, 21112.486, -0.049367312, -0.119990245, 65995.914, 65995.914, 0.0000022156387, 10.000133, 10.000276 
6.7492396e+2, 1.2460887e+2, -1603795.1, -1754707.0, -23789.658, -0.051763903, -0.041193634, -1600133.8, 118691.586, 0.0, 10.001181, 9.999148 
6.749403e+2, 1.3460779e+2, -1522490.4, -1652106.9, 24447.482, 0.22388549, -0.08055495, -1518032.6, 102802.414, 0.0, 10.000978, 9.999295 
6.7495e+2, 1.446065e+2, -1440062.3, -1563330.5, -263.2574, -0.20553447, -0.1309561, -1440061.8, 82784.79, 0.0, 10.000895, 9.999262 
6.749652e+2, 1.546059e+2, -1316426.9, -1448760.5, -18001.861, 0.017436394, -0.12504585, -1314021.8, 110829.8, 0.0, 10.001055, 9.999297 
6.749788e+2, 1.6460522e+2, -1225402.8, -1353212.4, -23875.557, 0.08868843, -0.12173396, -1221088.3, 105768.7, 0.0, 10.001004, 9.999305 
6.7499083e+2, 1.7460443e+2, -1168047.1, -1272242.9, -18832.135, 0.014826324, -0.1333716, -1164747.9, 64115.3, 0.0, 10.000714, 9.999327 
6.750036e+2, 1.8460345e+2, -1113718.9, -1251757.9, -8252.244, -0.0023043142, -0.13706855, -1113227.3, 17645.217, 0.0, 10.000657, 9.998822 
6.750172e+2, 1.9460228e+2, -983552.06, -1138968.1, -21562.773, 0.036653165, -0.13809474, -980615.9, 52269.406, 0.0, 10.00088, 9.998817 
6.750302e+2, 2.0460132e+2, -858593.1, -988337.1, -27302.484, 0.022306653, -0.13173401, -853081.9, 81813.08, 0.0, 10.000895, 9.999171 
6.750426e+2, 2.1460062e+2, -789322.44, -899547.7, -17127.373, -0.0492204, -0.12396604, -786722.44, 50178.35, 0.0, 10.000678, 9.999211 
6.7505556e+2, 2.245997e+2, -730367.6, -850402.56, -19566.48, -0.063632935, -0.122370884, -727258.7, 11650.905, 0.0, 10.000539, 9.998943 
6.7506915e+2, 2.3459853e+2, -638159.06, -754068.2, -31031.268, -0.01148658, -0.1374419, -630374.2, 10547.748, 0.0, 10.000494, 9.998955 
6.750824e+2, 2.4459758e+2, -518085.4, -606065.44, -31054.814, 0.0017087742, -0.14187165, -508228.22, 34702.82, 0.0, 10.000476, 9.999306 
6.7509526e+2, 2.5459695e+2, -415729.16, -501572.0, -23396.459, -0.030266514, -0.14263618, -409766.63, 35169.61, 0.0, 10.000486, 9.999345 
6.7510855e+2, 2.6459607e+2, -360028.13, -479679.16, -15382.308, -0.028087849, -0.13718013, -358082.25, -11137.771, 0.0, 10.000437, 9.998846 
6.7512244e+2, 2.74595e+2, -278882.72, -388374.66, -18662.271, 0.015799038, -0.13167925, -275789.22, -26833.309, 0.0, 10.000316, 9.9988575 
6.751359e+2, 2.8459397e+2, -161475.44, -253429.33, -11650.433, 0.022903915, -0.13053137, -160022.3, -9056.864, 0.0, 10.000329, 9.999106 
6.7514896e+2, 2.9459298e+2, -39326.777, -145723.42, 801.786, -0.017713245, -0.14483424, -39320.74, 13652.149, 0.0000000040864183, 10.000504, 9.999088 
6.7516184e+2, 3.0459088e+2, -23747.195, -155193.83, -32673.885, -0.021890767, -0.23948286, -16073.394, -16073.394, 0.0000003121116, 10.000457, 9.998713 
6.7517453e+2, 3.1459072e+2, 23738.47, 20092.535, 9334.497, 0.009382545, -0.1345837, 31426.34, 31426.34, 0.0000020914758, 10.000125, 10.000076 
6.849253e+2, 1.2459513e+2, -1627382.6, -1774337.3, -44804.15, -0.027701434, -0.07265339, -1614800.0, 104158.6, 0.0, 10.001056, 9.999074 
6.8494135e+2, 1.345943e+2, -1477501.4, -1630136.4, 24821.826, 0.21676604, -0.086919166, -1473566.3, 147400.23, 0.0, 10.001289, 9.999295 
6.849512e+2, 1.445931e+2, -1398448.6, -1541937.0, 2595.8113, -0.18734121, -0.12928149, -1398401.6, 124575.67, 0.0, 10.001176, 9.999272 
6.849663e+2, 1.5459232e+2, -1356644.6, -1466800.3, -17807.777, 0.03224213, -0.14198628, -1353837.4, 71146.336, 0.0, 10.000775, 9.999307 
6.849797e+2, 1.6459158e+2, -1271135.4, -1381001.4, -24604.66, 0.09201308, -0.14202087, -1265876.9, 61112.715, 0.0, 10.000716, 9.999251 
6.849916e+2, 1.745909e+2, -1122678.0, -1256727.0, -33973.004, 0.00061651616, -0.13983454, -1114559.8, 114435.46, 0.0, 10.001054, 9.9992695 
6.8500435e+2, 1.845899e+2, -1051786.5, -1228322.6, -20758.693, -0.017450262, -0.14015082, -1049378.4, 81626.42, 0.0, 10.00111, 9.998764 
6.85018e+2, 1.9458857e+2, -991737.5, -1147889.3, -10077.877, 0.03737022, -0.14965284, -991089.75, 41929.152, 0.0, 10.000849, 9.998769 
6.8503106e+2, 2.0458758e+2, -881659.0, -1003581.1, -12833.745, 0.02855741, -0.1416951, -880322.75, 54706.207, 0.0, 10.000755, 9.999132 
6.8504333e+2, 2.1458697e+2, -764571.2, -892275.8, -25731.053, -0.050252825, -0.12097914, -759581.6, 77452.53, 0.0, 10.000868, 9.99917 
6.8505615e+2, 2.2458604e+2, -693920.75, -835179.06, -32690.43, -0.06643372, -0.11843402, -686722.25, 52320.953, 0.0, 10.000798, 9.998923 
6.850696e+2, 2.3458472e+2, -635489.6, -754010.56, -22156.168, -0.009941451, -0.14619818, -631483.2, 9573.556, 0.0, 10.000519, 9.998942 
6.8508285e+2, 2.4458376e+2, -543148.8, -628453.06, -12948.551, 0.0044038296, -0.14822249, -541226.6, 1839.6553, 0.0, 10.000348, 9.999213 
6.8509567e+2, 2.545832e+2, -448115.22, -527599.7, -26400.688, -0.030937674, -0.1297924, -440145.38, 4925.8545, 0.0, 10.00031, 9.99925 
6.8510896e+2, 2.6458234e+2, -374137.06, -476756.88, -22612.723, -0.029181195, -0.124217995, -369375.22, -22295.566, 0.0, 10.000299, 9.998932 
6.851227e+2, 2.745811e+2, -270586.66, -373956.78, -11778.372, 0.018227108, -0.14137787, -269261.56, -20169.71, 0.0, 10.000328, 9.998951 
6.8513626e+2, 2.845802e+2, -166555.23, -248198.77, -4605.5767, 0.027482389, -0.13927592, -166296.25, -15196.044, 0.0, 10.000262, 9.999174 
6.851494e+2, 2.9457954e+2, -96513.266, -164794.1, -13141.056, -0.012655373, -0.12629648, -94071.51, -40967.133, 0.0000000009738006, 10.000074, 9.999164 
6.851621e+2, 3.0457744e+2, -77896.695, -166453.75, -56111.535, -0.019965366, -0.23291981, -50697.305, -50697.305, 0.00000022618863, 10.000021, 9.998845 
6.851749e+2, 3.1457704e+2, 14815.418, 779.1963, -10453.717, 0.026332038, -0.16128881, 20388.338, 20388.338, 0.0000018666766, 10.000129, 9.999941 
6.949261e+2, 1.24581076e+2, -1620142.0, -1762266.9, -44583.957, -0.056748636, -0.12249949, -1607314.0, 111781.375, 0.0, 10.001067, 9.999152 
6.9494295e+2, 1.3458079e+2, -1465333.8, -1603919.6, 32341.602, 0.24660106, -0.09996567, -1458157.8, 162940.67, 0.0, 10.0012865, 9.999476 
6.949531e+2, 1.4457996e+2, -1399653.3, -1542998.5, -13360.634, -0.117731996, -0.11571377, -1398418.6, 124687.48, 0.0, 10.001171, 9.999268 
6.949669e+2, 1.5457919e+2, -1356956.4, -1468421.0, -31752.053, 0.021023307, -0.12379059, -1348546.0, 76566.055, 0.0, 10.000779, 9.999294 
6.9498e+2, 1.6457826e+2, -1288049.1, -1416359.3, -13768.506, 0.055111345, -0.13186319, -1286588.4, 40531.797, 0.0, 10.000717, 9.999008 
6.949926e+2, 1.745771e+2, -1141035.8, -1293903.4, -21475.97, 0.002142977, -0.15005906, -1138076.0, 91054.99, 0.0, 10.001049, 9.999017 
6.950054e+2, 1.845761e+2, -1034737.44, -1191472.1, -30489.555, -0.017623734, -0.15171413, -1029015.2, 102125.25, 0.0, 10.001103, 9.999021 
6.950184e+2, 1.9457525e+2, -972463.2, -1107497.0, -19649.314, -0.00835262, -0.14057958, -969662.0, 63486.08, 0.0, 10.000846, 9.999048 
6.950314e+2, 2.0457424e+2, -903327.25, -1048505.4, -9876.109, -0.0053535346, -0.13459288, -902658.5, 32499.701, 0.0, 10.000755, 9.998825 
6.9504464e+2, 2.1457301e+2, -788893.8, -941822.8, -21271.527, -0.006145785, -0.14324577, -785990.2, 51181.043, 0.0, 10.000863, 9.998833 
6.950575e+2, 2.24572e+2, -675713.94, -796688.94, -43141.547, -0.011915803, -0.14222872, -661905.2, 77275.945, 0.0, 10.000795, 9.999189 
6.9507e+2, 2.345713e+2, -614955.25, -711918.4, -32612.395, -0.023722537, -0.13783152, -605007.1, 36180.023, 0.0, 10.00052, 9.999231 
6.950829e+2, 2.4457048e+2, -566394.0, -677190.9, -15266.827, -0.024060182, -0.12276441, -564328.8, -21133.656, 0.0, 10.00035, 9.998878 
6.950962e+2, 2.5456956e+2, -474002.75, -580470.06, -27312.74, -0.01008184, -0.10485274, -467404.9, -22199.28, 0.0, 10.000306, 9.99889 
6.951094e+2, 2.6456845e+2, -356169.72, -438208.6, -21655.51, -0.010066171, -0.118179, -350804.3, -3587.7444, 0.0, 10.000295, 9.999199 
6.951226e+2, 2.7456713e+2, -251308.3, -332751.53, -10211.64, -0.02577028, -0.17520949, -250047.45, -819.65704, 0.0, 10.000323, 9.999236 
6.9513613e+2, 2.8456634e+2, -179777.16, -274713.1, -11502.745, -0.011494954, -0.1633918, -178403.33, -27169.021, 0.0, 10.0002575, 9.998994 
6.951499e+2, 2.9456618e+2, -110429.17, -192159.86, -19471.582, 0.03684232, -0.08275855, -106027.32, -52791.793, 0.000000000021633938, 10.000069, 9.998979 
6.9516265e+2, 3.0456415e+2, -64450.32, -136815.6, -52932.87, 0.033623405, -0.18507543, -36515.316, -36515.316, 0.00000014519733, 10.000014, 9.999051 
6.951747e+2, 3.145632e+2, 7037.503, -12145.227, -6794.1074, -0.0012867809, -0.19041905, 9200.038, 9200.038, 0.0000015881137, 10.000115, 9.999858 
7.049273e+2, 1.2456764e+2, -1564385.9, -1734334.0, -27803.03, -0.05644721, -0.14236806, -1559953.0, 159273.84, 0.0, 10.001445, 9.999163 
7.0494395e+2, 1.3456771e+2, -1499962.1, -1611498.5, 44820.56, 0.23567162, -0.092651635, -1484183.3, 137043.42, 0.0, 10.001012, 9.999556 
7.0495427e+2, 1.4456701e+2, -1439249.5, -1571407.6, -850.9397, -0.09918328, -0.09429381, -1439244.0, 83988.97, 0.0, 10.000939, 9.999184 
7.04968e+2, 1.5456602e+2, -1269010.6, -1436680.4, -25031.37, 0.013359296, -0.11627781, -1265353.5, 159887.88, 0.0, 10.00143, 9.999199 
7.0498097e+2, 1.6456491e+2, -1187477.6, -1381967.0, -10223.15, 0.042307682, -0.13041462, -1186941.8, 140309.52, 0.0, 10.001469, 9.998881 
7.0499367e+2, 1.7456368e+2, -1161796.6, -1317144.0, -8862.118, 0.007569994, -0.14580497, -1161292.6, 67970.445, 0.0, 10.000967, 9.998895 
7.050064e+2, 1.845626e+2, -1074166.9, -1204021.6, -15804.745, -0.012374654, -0.15041992, -1072271.0, 59001.887, 0.0, 10.000807, 9.999076 
7.050192e+2, 1.9456172e+2, -937208.8, -1084183.5, -22776.996, -0.02562041, -0.14971678, -933759.94, 99519.99, 0.0, 10.00106, 9.999105 
7.0503217e+2, 2.0456064e+2, -872351.56, -1046265.2, -18789.023, -0.022151822, -0.1476804, -870344.8, 64945.598, 0.0, 10.001021, 9.998713 
7.0504546e+2, 2.1455932e+2, -828836.56, -973528.7, -14823.429, 0.0048530437, -0.1532346, -827333.56, 9971.331, 0.0, 10.000644, 9.99872 
7.050583e+2, 2.2455828e+2, -718924.9, -818259.25, -34059.664, 0.0041703414, -0.14985716, -708368.44, 30946.873, 0.0, 10.000503, 9.999182 
7.0507056e+2, 2.3455757e+2, -596881.3, -703432.44, -45717.6, -0.030346826, -0.14316544, -579954.44, 61366.29, 0.0, 10.000645, 9.9992285 
7.0508325e+2, 2.4455673e+2, -538234.44, -670642.0, -33505.598, -0.03344229, -0.12944753, -530238.75, 13090.38, 0.0, 10.000574, 9.998815 
7.0509654e+2, 2.545557e+2, -485397.78, -593188.3, -25242.39, 0.0014074219, -0.11702457, -479779.38, -34438.426, 0.0, 10.000258, 9.998825 
7.051098e+2, 2.6455456e+2, -378783.53, -445689.28, -7656.658, 0.0054047015, -0.1304117, -377918.5, -30566.498, 0.0, 10.000124, 9.99923 
7.051229e+2, 2.7455336e+2, -266606.7, -335602.56, -14573.388, -0.026295435, -0.18146446, -263654.78, -14292.803, 0.0, 10.000199, 9.999276 
7.0513624e+2, 2.845525e+2, -201178.45, -291285.28, -28888.965, -0.01941541, -0.17198786, -192711.95, -41343.168, 0.0, 10.000138, 9.998939 
7.051498e+2, 2.9455218e+2, -134162.48, -209899.02, -28288.744, 0.031544715, -0.102208555, -124762.805, -71390.72, 0.0, 9.999932, 9.998923 
7.0516264e+2, 3.0455035e+2, -66408.49, -123578.78, -45907.09, 0.034650054, -0.1865801, -40914.332, -40914.332, 0.00000008201181, 9.999939, 9.999179 
7.0517516e+2, 3.1454954e+2, 6538.9253, -25275.387, -9077.754, 0.030403446, -0.1934726, 8946.878, 8946.878, 0.0000012936833, 10.000167, 9.999744 
7.149291e+2, 1.2455487e+2, -1567847.5, -1743186.1, -50142.684, -0.02796215, -0.13478592, -1554520.8, 164831.9, 0.0, 10.00145, 9.999101 
7.149444e+2, 1.3455512e+2, -1499924.6, -1613262.3, 28436.371, 0.17943986, -0.064516336, -1493190.1, 128160.39, 0.0, 10.0010195, 9.99954 
7.1495485e+2, 1.4455433e+2, -1452417.8, -1598849.4, 13978.875, -0.1373635, -0.06497959, -1451095.1, 72262.44, 0.0, 10.000941, 9.998994 
7.149693e+2, 1.5455283e+2, -1283370.3, -1465830.5, -6211.494, 0.0055475743, -0.11983106, -1283159.0, 142212.42, 0.0, 10.001427, 9.999 
7.1498257e+2, 1.6455156e+2, -1187045.4, -1380385.8, -27763.66, 0.050314132, -0.13905032, -1183137.5, 144245.23, 0.0, 10.001466, 9.998894 
7.1499467e+2, 1.745506e+2, -1159966.0, -1313928.0, -27121.08, 0.01569019, -0.12782371, -1155328.3, 74063.06, 0.0, 10.000969, 9.998917 
7.150073e+2, 1.845494e+2, -1085656.5, -1227714.0, -8119.1304, -0.004124581, -0.13678408, -1085193.9, 46207.785, 0.0, 10.000806, 9.998915 
7.150203e+2, 1.9454798e+2, -950111.56, -1109707.8, -13148.392, -0.01757346, -0.17570966, -949035.56, 84378.65, 0.0, 10.001054, 9.998933 
7.150331e+2, 2.0454678e+2, -866803.75, -1033853.5, -32741.188, -0.024326496, -0.17983516, -860615.75, 74809.64, 0.0, 10.001017, 9.9988 
7.1504587e+2, 2.1454588e+2, -822022.8, -959363.3, -28990.828, -0.017734313, -0.15175441, -816154.0, 21281.146, 0.0, 10.000643, 9.998818 
7.1505857e+2, 2.2454485e+2, -736863.7, -855952.94, -30257.686, -0.01909206, -0.14209053, -729616.94, 9828.806, 0.0, 10.0005045, 9.998922 
7.1507114e+2, 2.345436e+2, -617139.3, -744508.2, -39837.563, -0.031453382, -0.16173612, -605705.56, 35751.71, 0.0, 10.000641, 9.99895 
7.150839e+2, 2.4454251e+2, -525314.56, -642898.3, -44951.914, -0.026010666, -0.16693743, -510098.6, 33369.223, 0.0, 10.00057, 9.999007 
7.1509683e+2, 2.545416e+2, -470389.84, -562692.4, -36842.594, 0.0018043277, -0.16383861, -457487.63, -12010.603, 0.0, 10.000261, 9.999034 
7.1511e+2, 2.6454064e+2, -390884.0, -471805.2, -5708.337, 0.015209384, -0.16003615, -390483.3, -42997.3, 0.0, 10.000128, 9.999049 
7.151235e+2, 2.745397e+2, -281150.44, -364251.7, -11271.271, 0.012540845, -0.16258396, -279648.8, -30154.324, 0.0, 10.000193, 9.9990835 
7.151365e+2, 2.845387e+2, -198514.5, -283446.84, -36433.195, 0.0003567329, -0.16621369, -185027.55, -33523.95, 0.0, 10.000129, 9.998997 
7.1514916e+2, 2.945376e+2, -130281.42, -200425.61, -34940.797, -0.027555706, -0.1795069, -115846.836, -62333.29, 0.0, 9.999927, 9.998991 
7.1516204e+2, 3.0453613e+2, -63235.44, -116230.6, -37800.684, -0.016248696, -0.23395401, -43570.12, -43570.12, 0.00000004119849, 9.999935, 9.999231 
7.1517617e+2, 3.145361e+2, -6500.7373, -48643.45, -1019.3111, 0.110960595, -0.1634582, -6476.097, -6476.097, 0.0000010048329, 10.000151, 9.999593 
7.249303e+2, 1.24542214e+2, -1643292.9, -1785159.1, -68408.695, -0.024181198, -0.09018848, -1615680.3, 103798.02, 0.0, 10.000954, 9.999053 
7.249454e+2, 1.3454202e+2, -1414524.4, -1573180.9, 12891.562, 0.15109082, -0.061420638, -1413483.8, 207995.81, 0.0, 10.001613, 9.999528 
7.2495615e+2, 1.4454114e+2, -1354002.9, -1554544.5, -793.5848, -0.13355592, -0.07205285, -1353999.8, 169487.73, 0.0, 10.001631, 9.998965 
7.249706e+2, 1.5453969e+2, -1349037.1, -1500830.6, -8157.355, 0.012837754, -0.11606157, -1348600.0, 76900.516, 0.0, 10.000992, 9.998968 
7.2498375e+2, 1.6453847e+2, -1268439.0, -1416184.3, -17723.03, 0.055921447, -0.13142398, -1266342.8, 61168.46, 0.0, 10.000893, 9.998925 
7.249959e+2, 1.745375e+2, -1087688.8, -1276020.6, -17522.52, 0.013803941, -0.12513103, -1086072.4, 143447.03, 0.0, 10.001451, 9.998945 
7.250084e+2, 1.8453617e+2, -996546.94, -1205843.8, -4783.647, -0.0042075105, -0.13803156, -996437.7, 135093.17, 0.0, 10.001508, 9.998727 
7.250214e+2, 1.9453451e+2, -976256.75, -1143667.4, -12109.844, -0.0059552533, -0.18051411, -975385.3, 58160.785, 0.0, 10.000968, 9.99874 
7.250341e+2, 2.0453322e+2, -905989.9, -1050658.9, -32583.988, -0.01602439, -0.18592031, -898989.6, 36568.69, 0.0, 10.00074, 9.998818 
7.250465e+2, 2.1453238e+2, -784720.9, -938414.1, -35019.79, -0.0313927, -0.15571357, -777117.56, 60449.332, 0.0, 10.000886, 9.998846 
7.250591e+2, 2.2453126e+2, -701383.94, -853901.6, -33430.016, -0.03302452, -0.14759085, -694378.3, 45199.66, 0.0, 10.000813, 9.998789 
7.2507185e+2, 2.3452982e+2, -649216.9, -775415.4, -34004.91, -0.019246565, -0.17434606, -640637.4, 954.633, 0.0, 10.000486, 9.998811 
7.250846e+2, 2.4452862e+2, -550604.6, -650583.4, -37617.527, -0.0066392487, -0.18372674, -538031.9, 5571.458, 0.0, 10.000377, 9.999048 
7.2509724e+2, 2.5452778e+2, -428723.5, -536533.44, -41444.656, 0.0050789826, -0.18067783, -414632.84, 30978.57, 0.0, 10.000522, 9.999087 
7.2511023e+2, 2.6452684e+2, -358969.88, -465211.28, -16524.43, 0.012226535, -0.17187227, -356459.06, -8839.24, 0.0, 10.000385, 9.998971 
7.251235e+2, 2.7452594e+2, -326353.8, -395717.3, -15249.526, 0.015258339, -0.16426826, -323149.28, -73520.76, 0.0, 9.999923, 9.998998 
7.251365e+2, 2.8452483e+2, -247931.38, -303574.8, -28838.264, 0.0046918644, -0.17552043, -235681.98, -84043.28, 0.0, 9.999772, 9.99903 
7.251491e+2, 2.945235e+2, -116880.47, -189315.2, -29360.19, -0.027058102, -0.21511994, -106474.68, -52824.09, 0.0, 9.999998, 9.999033 
7.25162e+2, 3.0452242e+2, -44055.023, -93482.96, -31308.338, -0.017904304, -0.23897311, -28881.75, -28881.75, 0.000000018939705, 10.00001, 9.999352 
7.251762e+2, 3.1452245e+2, -63612.086, -74424.49, 6854.9478, 0.124807596, -0.17698547, -60288.035, -60288.035, 0.0000007295325, 9.99975, 9.999608 
7.34931e+2, 1.24529704e+2, -1647686.3, -1793169.5, -47975.863, -0.05231589, -0.008616494, -1633289.9, 86313.57, 0.0, 10.000947, 9.9990015 
7.3494697e+2, 1.3452846e+2, -1415585.0, -1575182.1, 36837.58, 0.1481019, -0.08408109, -1407492.6, 214121.17, 0.0, 10.001613, 9.999514 
7.3495823e+2, 1.445274e+2, -1342779.8, -1532018.4, -24161.291, -0.090287134, -0.11773579, -1339743.6, 183878.81, 0.0, 10.001634, 9.999119 
7.3497176e+2, 1.5452667e+2, -1337594.8, -1478557.4, -31341.402, 0.032537024, -0.105663136, -1330940.5, 94687.914, 0.0, 10.000997, 9.999119 
7.3498464e+2, 1.6452566e+2, -1266715.8, -1412308.3, 647.7633, 0.05545155, -0.10788539, -1266712.9, 60923.652, 0.0, 10.000892, 9.998952 
7.349972e+2, 1.7452437e+2, -1086366.9, -1272723.9, 3678.7896, -0.00027032397, -0.13661405, -1086294.3, 143352.95, 0.0, 10.001448, 9.998969 
7.3500985e+2, 1.8452293e+2, -1010868.25, -1235062.0, -23906.426, -0.014914392, -0.15397675, -1008347.44, 123312.67, 0.0, 10.001505, 9.998528 
7.3502254e+2, 1.9452137e+2, -991056.2, -1174484.5, -32431.701, 0.0075412784, -0.1650597, -985490.9, 48184.723, 0.0, 10.000968, 9.998529 
7.3503506e+2, 2.0451997e+2, -909584.06, -1057921.8, -28951.082, 0.00025644735, -0.166591, -904133.94, 31555.092, 0.0, 10.000739, 9.998769 
7.350473e+2, 2.1451882e+2, -788501.44, -945155.5, -29254.95, -0.038379163, -0.16444273, -783216.44, 54483.504, 0.0, 10.00088, 9.998802 
7.350598e+2, 2.2451757e+2, -702759.5, -856036.4, -45610.52, -0.039502934, -0.16571712, -690214.0, 49497.758, 0.0, 10.000809, 9.9987755 
7.3507255e+2, 2.3451623e+2, -649733.25, -777148.44, -46065.016, 0.004224242, -0.18065421, -634823.8, 6900.9995, 0.0, 10.000489, 9.998798 
7.350852e+2, 2.4451509e+2, -556533.6, -663573.5, -33246.98, 0.022372276, -0.18047595, -547047.6, -3311.8206, 0.0, 10.00038, 9.998958 
7.3509777e+2, 2.5451422e+2, -436018.47, -550143.25, -35507.582, 0.009009799, -0.16949596, -425872.94, 19871.252, 0.0, 10.000515, 9.998998 
7.351104e+2, 2.6451322e+2, -358863.94, -463580.6, -32993.066, -0.005047071, -0.16705234, -349335.78, -1582.373, 0.0, 10.00038, 9.998985 
7.351231e+2, 2.7451205e+2, -325285.9, -394126.88, -31924.598, -0.017904712, -0.18351665, -312760.16, -62996.457, 0.0, 9.999926, 9.999007 
7.3513615e+2, 2.845109e+2, -245884.05, -300099.63, -21352.477, -0.0075230277, -0.19820836, -238484.44, -86710.51, 0.0, 9.999775, 9.999053 
7.351497e+2, 2.9450986e+2, -116665.87, -185888.88, -19563.055, 0.026225641, -0.21370141, -111519.734, -57736.22, 0.0, 9.999985, 9.999063 
7.3516244e+2, 3.0450922e+2, -34204.51, -69978.58, -39916.887, 0.023377394, -0.20541194, -8350.22, -8350.22, 0.0000000073965225, 9.999996, 9.99952 
7.3517543e+2, 3.1450868e+2, -54708.906, -53598.87, -4292.116, 0.071051106, -0.2167836, -49826.04, -49826.04, 0.0000004773962, 9.999742, 9.999756 
7.4493223e+2, 1.24516524e+2, -1550770.0, -1745638.6, -45719.508, -0.049764078, 0.00787843, -1540576.6, 179156.73, 0.0, 10.001611, 9.999006 
7.4494827e+2, 1.3451508e+2, -1493550.3, -1609692.1, 40962.863, 0.14067024, -0.09088469, -1480556.5, 141188.83, 0.0, 10.001066, 9.999538 
7.449597e+2, 1.4451408e+2, -1433576.5, -1570760.8, -24572.662, -0.07150379, -0.12155134, -1429307.8, 94445.36, 0.0, 10.000987, 9.999165 
7.4497294e+2, 1.5451358e+2, -1246167.9, -1429547.8, -39582.65, 0.022235462, -0.091394, -1237988.8, 187768.16, 0.0, 10.001603, 9.999164 
7.449857e+2, 1.6451257e+2, -1156506.6, -1365880.1, -13617.182, 0.03762916, -0.09396523, -1155624.6, 172140.42, 0.0, 10.001677, 9.998893 
7.4499846e+2, 1.7451097e+2, -1143939.5, -1307890.3, -17938.01, -0.0006452304, -0.14607222, -1141999.8, 87778.93, 0.0, 10.001085, 9.998902 
7.450111e+2, 1.8450953e+2, -1095687.9, -1267289.1, -42149.332, -0.009546006, -0.1642317, -1085894.0, 45897.633, 0.0, 10.000885, 9.998606 
7.4502355e+2, 1.9450831e+2, -956077.3, -1148491.9, -29691.879, 0.0030310757, -0.14896215, -951599.7, 82204.08, 0.0, 10.001167, 9.998612 
7.4503595e+2, 2.0450698e+2, -851076.8, -1038258.4, -13598.435, -0.0018246796, -0.14611897, -850094.06, 85722.57, 0.0, 10.001177, 9.9986925 
7.4504834e+2, 2.1450551e+2, -797602.6, -958447.75, -17795.895, -0.02311304, -0.16663778, -795657.2, 42173.227, 0.0, 10.000857, 9.998721 
7.450608e+2, 2.2450414e+2, -718204.7, -865205.94, -36161.71, -0.019888585, -0.17376305, -709790.7, 30052.58, 0.0, 10.0007105, 9.998761 
7.4507326e+2, 2.3450296e+2, -610239.4, -759063.8, -37300.867, 0.012041663, -0.17368387, -601413.8, 40441.004, 0.0, 10.000765, 9.99879 
7.450858e+2, 2.4450181e+2, -523946.88, -657642.3, -22502.922, 0.023808416, -0.1687736, -520260.94, 23604.883, 0.0, 10.000647, 9.99887 
7.4509823e+2, 2.5450078e+2, -470541.72, -577377.94, -25883.828, 0.010691226, -0.16494955, -464601.03, -18725.129, 0.0, 10.000323, 9.998903 
7.4511063e+2, 2.6449966e+2, -385785.1, -474397.9, -25972.896, -0.006731484, -0.16827321, -378733.47, -30847.55, 0.0, 10.000184, 9.999005 
7.451231e+2, 2.744985e+2, -272865.6, -365987.4, -24849.816, -0.027116444, -0.19027911, -266649.34, -16753.273, 0.0, 10.000273, 9.999034 
7.451361e+2, 2.8449732e+2, -202153.6, -280238.8, -13471.841, -0.010075197, -0.21059474, -199894.69, -47988.207, 0.0, 10.000081, 9.9990425 
7.451496e+2, 2.944962e+2, -180371.89, -218048.11, -15360.106, 0.04806682, -0.22878505, -174903.47, -120987.086, 0.0, 9.999553, 9.99905 
7.451623e+2, 3.044958e+2, -107965.82, -106669.28, -31173.758, 0.03769851, -0.19195886, -76137.055, -76137.055, 0.0000000015345106, 9.9994955, 9.99951 
7.4517506e+2, 3.1449482e+2, -8917.926, -24083.865, -13151.672, 0.048672974, -0.25007513, -1319.726, -1319.726, 0.00000026410652, 10.000024, 9.999822 
7.5493413e+2, 1.2450272e+2, -1547632.1, -1740991.8, -68402.05, -0.024711413, -0.044003874, -1525881.3, 193986.39, 0.0, 10.001617, 9.999035 
7.5494915e+2, 1.345019e+2, -1490265.9, -1602239.9, 19260.459, 0.12565652, -0.082710035, -1487045.6, 134828.33, 0.0, 10.001063, 9.999591 
7.5496066e+2, 1.4450122e+2, -1438915.8, -1580403.0, -5100.3896, -0.080631375, -0.08319592, -1438732.1, 85147.164, 0.0, 10.000982, 9.999101 
7.549741e+2, 1.5450045e+2, -1250149.3, -1438336.6, -15725.167, -0.020038214, -0.071879216, -1248844.3, 177041.45, 0.0, 10.001605, 9.999103 
7.54987e+2, 1.6449921e+2, -1165779.1, -1386012.1, -34325.285, -0.0007206481, -0.08999751, -1160553.3, 167343.48, 0.0, 10.001679, 9.998753 
7.5499964e+2, 1.7449734e+2, -1154142.1, -1329999.3, -40152.145, 0.01024295, -0.15450361, -1145408.3, 84505.51, 0.0, 10.001088, 9.99875 
7.5501215e+2, 1.84496e+2, -1071815.3, -1216863.8, -33733.656, 0.00867247, -0.16979967, -1064353.8, 67571.68, 0.0, 10.000881, 9.998954 
7.550245e+2, 1.9449538e+2, -930514.3, -1094634.1, -18868.172, -0.02031539, -0.13201027, -928373.06, 105557.35, 0.0, 10.001164, 9.998983 
7.5503695e+2, 2.0449424e+2, -858713.7, -1053378.0, -25431.775, -0.023022713, -0.12440408, -855446.06, 80494.91, 0.0, 10.001173, 9.998591 
7.550496e+2, 2.1449246e+2, -806621.6, -976825.0, -30009.672, 0.011392665, -0.1624224, -801485.4, 36472.918, 0.0, 10.000855, 9.998597 
7.5506186e+2, 2.2449103e+2, -719264.8, -866646.3, -35395.55, 0.02228121, -0.17178915, -711204.9, 28767.396, 0.0, 10.000707, 9.998753 
7.550739e+2, 2.3448999e+2, -611302.1, -760069.75, -35012.914, 0.0032567177, -0.15425731, -603473.7, 38508.33, 0.0, 10.00076, 9.998785 
7.550861e+2, 2.4448882e+2, -530968.7, -671257.25, -34297.69, -0.0024547384, -0.14898261, -523032.56, 20960.771, 0.0, 10.000642, 9.998778 
7.550985e+2, 2.5448745e+2, -477667.25, -592278.1, -37495.863, 0.008298021, -0.16562262, -466490.2, -20483.797, 0.0, 10.000323, 9.998801 
7.55111e+2, 2.6448625e+2, -383531.06, -469637.1, -23267.799, 0.0044793105, -0.17449877, -377645.8, -29628.586, 0.0, 10.000183, 9.999039 
7.551235e+2, 2.7448523e+2, -270992.28, -359689.6, -20355.547, -0.016308429, -0.18737689, -266543.88, -16518.113, 0.0, 10.000262, 9.999083 
7.551362e+2, 2.8448397e+2, -206990.78, -288737.6, -31896.441, -0.006092504, -0.21445373, -196018.08, -43981.582, 0.0, 10.000074, 9.998987 
7.5514907e+2, 2.9448262e+2, -184075.14, -227169.17, -33989.355, 0.03770629, -0.25434032, -165378.52, -111329.88, 0.0, 9.999559, 9.998985 
7.551617e+2, 3.0448237e+2, -118189.72, -129359.15, -12985.197, 0.023787113, -0.19276524, -109639.21, -109639.21, 0.00000000001992495, 9.999501, 9.999351 
7.551751e+2, 3.1448096e+2, -13455.961, -27321.19, 6632.208, 0.049603783, -0.2726635, -10794.445, -10794.445, 0.000000109993245, 9.999997, 9.999812 
7.6493585e+2, 1.24489136e+2, -1573183.4, -1758166.8, -61335.633, -0.007499592, -0.088743806, -1554694.1, 165305.3, 0.0, 10.001459, 9.998996 
7.6495034e+2, 1.3448879e+2, -1396307.8, -1561322.0, 17898.465, 0.1021148, -0.07814629, -1394388.6, 227613.45, 0.0, 10.001728, 9.999552 
7.6496184e+2, 1.444882e+2, -1353752.0, -1546492.3, -551.01935, -0.08129377, -0.06275514, -1353750.5, 170256.31, 0.0, 10.001596, 9.999038 
7.6497555e+2, 1.5448704e+2, -1328076.1, -1483541.5, -10777.886, -0.014724432, -0.08508279, -1327332.5, 98684.49, 0.0, 10.001102, 9.999035 
7.649884e+2, 1.6448571e+2, -1267659.3, -1431084.0, -30051.592, 0.0034004457, -0.110207364, -1262308.4, 65720.52, 0.0, 10.000961, 9.998791 
7.6500076e+2, 1.7448412e+2, -1125609.9, -1311066.4, -22603.168, 0.0004442378, -0.14908786, -1122894.8, 107148.75, 0.0, 10.001262, 9.998796 
7.650131e+2, 1.8448293e+2, -1009403.75, -1178773.5, -13273.518, -0.0025142008, -0.15711235, -1008369.8, 123684.08, 0.0, 10.001275, 9.999025 
7.6502556e+2, 1.944822e+2, -958654.25, -1100020.8, -21090.055, -0.016831547, -0.13537283, -955574.94, 78484.2, 0.0, 10.000936, 9.999057 
7.6503795e+2, 2.0448105e+2, -917109.5, -1083010.4, -38593.258, -0.013341461, -0.13297752, -908571.06, 27498.69, 0.0, 10.000778, 9.998578 
7.650504e+2, 2.1447934e+2, -810305.56, -980719.6, -36179.5, 0.015392629, -0.1632768, -802942.7, 35144.25, 0.0, 10.000839, 9.998578 
7.6506263e+2, 2.2447795e+2, -703928.5, -856351.9, -33155.664, 0.019211106, -0.16823553, -697028.7, 43071.918, 0.0, 10.000801, 9.998777 
7.6507455e+2, 2.3447694e+2, -626843.2, -764909.1, -31762.504, -0.008569537, -0.15054663, -619886.6, 22223.406, 0.0, 10.000642, 9.998809 
7.650866e+2, 2.4447575e+2, -545080.2, -673512.8, -29618.611, -0.013520743, -0.14985374, -538578.8, 5542.455, 0.0, 10.000525, 9.998819 
7.650989e+2, 2.5447434e+2, -454309.22, -576316.8, -23572.756, 0.009026995, -0.17709094, -449913.2, -3778.6294, 0.0, 10.000464, 9.998842 
7.651113e+2, 2.6447317e+2, -371889.9, -466314.7, -3403.2249, 0.015551593, -0.18449567, -371767.4, -23622.346, 0.0, 10.000275, 9.999017 
7.651238e+2, 2.7447227e+2, -322326.56, -387255.63, -6726.6772, 0.004223914, -0.1817105, -321637.0, -71484.305, 0.0, 9.999922, 9.999056 
7.651363e+2, 2.8447095e+2, -236381.84, -300848.97, -15759.158, 0.00808287, -0.2142455, -232735.69, -80571.89, 0.0, 9.999863, 9.999006 
7.651488e+2, 2.944693e+2, -91255.16, -180815.75, -13006.342, 0.02552511, -0.28406692, -89404.56, -35226.695, 0.0, 10.000189, 9.999001 
7.651613e+2, 3.0446914e+2, -52094.906, -121963.836, 8209.416, 0.004941561, -0.20384969, -51143.285, -51143.285, 0.0, 10.000059, 9.999133 
7.651748e+2, 3.144676e+2, -108795.45, -72933.53, 19373.53, 0.05727855, -0.27279717, -64466.523, -64466.523, 0.000000028836135, 9.99934, 9.999816 
7.7493733e+2, 1.2447585e+2, -1581683.5, -1773758.4, -52007.008, -0.0055030882, -0.12255292, -1568505.9, 151622.08, 0.00000000003061157, 10.001451, 9.998893 
7.7495164e+2, 1.3447572e+2, -1405145.5, -1579921.8, 27381.346, 0.06615098, -0.07664866, -1400956.3, 221173.38, 0.0, 10.00173, 9.999423 
7.749635e+2, 1.4447507e+2, -1356993.5, -1554713.3, -19834.395, -0.07888322, -0.06080149, -1355023.5, 169111.98, 0.0, 10.001602, 9.998979 
7.749771e+2, 1.5447333e+2, -1332718.1, -1494091.3, -29235.969, 0.03625833, -0.13302512, -1327584.8, 98565.83, 0.0, 10.001104, 9.998962 
7.749898e+2, 1.6447206e+2, -1253250.9, -1400122.8, -21023.527, 0.047989637, -0.15634921, -1250300.9, 77860.87, 0.0, 10.0009575, 9.999004 
7.7500165e+2, 1.7447138e+2, -1109149.5, -1276539.3, -11131.893, -0.03147857, -0.1296328, -1108412.5, 121755.305, 0.0, 10.001261, 9.999034 
7.75014e+2, 1.8447034e+2, -1023577.8, -1207535.6, -25476.146, -0.045776512, -0.12618385, -1020114.9, 112062.03, 0.0, 10.001272, 9.99883 
7.7502674e+2, 1.9446886e+2, -974534.3, -1132732.5, -33877.26, 0.010843479, -0.15856561, -967584.94, 66604.83, 0.0, 10.000934, 9.998834 
7.7503914e+2, 2.0446745e+2, -912636.56, -1072297.5, -37871.086, 0.024006858, -0.17168371, -904109.1, 32093.666, 0.0, 10.000772, 9.998654 
7.7505094e+2, 2.1446615e+2, -804939.75, -968487.9, -33855.176, -0.011727755, -0.16932948, -798208.6, 40007.426, 0.0, 10.000834, 9.998664 
7.750629e+2, 2.2446494e+2, -700992.3, -849412.3, -39366.164, -0.029321486, -0.16355449, -691197.44, 49030.63, 0.0, 10.000797, 9.998827 
7.7507496e+2, 2.3446383e+2, -623803.3, -757968.94, -37326.113, -0.02550281, -0.16180696, -614118.0, 28120.592, 0.0, 10.000639, 9.998858 
7.750871e+2, 2.4446264e+2, -533965.9, -649134.44, -32390.037, -0.012602486, -0.1706925, -525481.56, 18767.854, 0.0, 10.00052, 9.998989 
7.7509934e+2, 2.5446138e+2, -442512.0, -550415.94, -25290.92, 0.010756391, -0.20020624, -436878.34, 9382.065, 0.0, 10.000459, 9.999023 
7.751117e+2, 2.6446036e+2, -378168.6, -478755.75, -16069.721, 0.02522034, -0.19829454, -375663.7, -27394.2, 0.0, 10.000271, 9.998933 
7.7512395e+2, 2.7445963e+2, -329327.3, -402162.66, -19167.178, 0.030845046, -0.16952898, -324591.28, -74314.77, 0.0, 9.999923, 9.998954 
7.7513635e+2, 2.8445825e+2, -228859.75, -285174.44, -5045.174, 0.02827432, -0.2073444, -228411.33, -76123.164, 0.0, 9.999863, 9.999114 
7.751488e+2, 2.9445627e+2, -85865.914, -165988.56, 1014.41266, 0.009545309, -0.3232302, -85853.07, -31548.572, 0.0, 10.000173, 9.99911 
7.751611e+2, 3.0445614e+2, -75270.59, -166460.45, -15568.66, -0.020252781, -0.22836259, -72685.84, -72685.84, 0.0, 10.000043, 9.998836 
7.751742e+2, 3.1445488e+2, -111582.87, -77609.664, -8095.76, 0.06210981, -0.24263984, -75779.09, -75779.09, 0.0000000029769756, 9.999334, 9.999786 
7.8493863e+2, 1.2446282e+2, -1570211.1, -1776727.8, -53568.82, -0.020997232, -0.11968704, -1557142.8, 163112.7, 0.0000000009851104, 10.001566, 9.998817 
7.849531e+2, 1.3446262e+2, -1441289.1, -1607458.6, 25144.182, 0.05428327, -0.07074636, -1437567.6, 184690.6, 0.0, 10.001527, 9.999331 
7.849652e+2, 1.4446194e+2, -1373649.5, -1554742.6, -28089.56, -0.060943253, -0.056244083, -1369392.5, 154871.89, 0.0, 10.0014515, 9.999053 
7.849784e+2, 1.5446015e+2, -1279772.4, -1459153.8, -26861.127, 0.03471997, -0.14332828, -1275836.4, 150443.34, 0.0, 10.001428, 9.999046 
7.8499085e+2, 1.6445896e+2, -1198630.6, -1368129.0, -6175.5273, 0.041743517, -0.16571593, -1198405.9, 129884.016, 0.0, 10.0013075, 9.999056 
7.850029e+2, 1.7445853e+2, -1131540.5, -1282218.0, -10668.18, -0.0249216, -0.11714264, -1130789.0, 99504.65, 0.0, 10.001083, 9.999081 
7.8501517e+2, 1.8445753e+2, -1074846.5, -1236686.9, -34281.402, -0.035509355, -0.11181641, -1067884.4, 64418.207, 0.0, 10.000938, 9.998791 
7.850276e+2, 1.9445576e+2, -984048.5, -1141903.4, -30709.826, 0.011250247, -0.16724737, -978284.56, 56033.668, 0.0, 10.000889, 9.998793 
7.8503984e+2, 2.0445432e+2, -904126.06, -1056071.6, -20962.203, 0.019690868, -0.18841922, -901287.2, 35044.453, 0.0, 10.000779, 9.998762 
7.8505164e+2, 2.1445325e+2, -830946.5, -968355.4, -15421.244, -0.013720529, -0.17517486, -829237.06, 9105.37, 0.0, 10.000602, 9.998777 
7.8506356e+2, 2.2445217e+2, -743770.6, -860804.75, -20158.014, -0.028241897, -0.16472235, -740395.94, -43.041985, 0.0, 10.000464, 9.998908 
7.850755e+2, 2.344511e+2, -655111.25, -763914.06, -17346.846, -0.021710018, -0.1669793, -652412.5, -10049.53, 0.0, 10.000386, 9.998939 
7.850876e+2, 2.4444996e+2, -557466.8, -656774.94, -12361.05, -0.007044114, -0.17834377, -555951.4, -11577.875, 0.0, 10.000343, 9.999022 
7.8509986e+2, 2.544487e+2, -458213.72, -554976.75, -17131.014, 0.01731559, -0.20786354, -455270.34, -8886.013, 0.0, 10.000338, 9.99905 
7.8511196e+2, 2.6444775e+2, -376226.25, -479561.5, -17217.799, 0.027590448, -0.20065668, -373432.94, -25039.867, 0.0, 10.000292, 9.998918 
7.8512394e+2, 2.744471e+2, -288208.84, -384706.0, -15735.236, 0.022047777, -0.16009569, -285707.8, -35308.32, 0.0, 10.000216, 9.998933 
7.851362e+2, 2.8444576e+2, -203646.44, -269908.66, 5405.86, 0.021945152, -0.19568326, -203208.31, -50797.14, 0.0, 10.000022, 9.999142 
7.8514886e+2, 2.944437e+2, -158953.64, -197823.25, 4509.568, 0.02457822, -0.3218096, -158437.31, -104008.98, 0.0, 9.999657, 9.99914 
7.851609e+2, 3.0444363e+2, -162481.69, -205570.72, -13606.312, -0.0077254274, -0.2253849, -158544.88, -158544.88, 0.0, 9.999433, 9.99886 
7.851734e+2, 3.1444257e+2, -77380.516, -26769.2, 12253.907, 0.04475922, -0.22449097, -23958.412, -23958.412, 0.0, 9.999421, 10.000094 
7.9493976e+2, 1.244501e+2, -1573449.6, -1784952.8, -55448.51, -0.06794935, -0.07727881, -1559794.6, 160586.52, 0.0000000034592607, 10.001572, 9.998759 
7.949548e+2, 1.3444953e+2, -1444837.1, -1615882.8, 22866.174, 0.06546316, -0.06166862, -1441833.0, 180554.92, 0.0, 10.001531, 9.999272 
7.94967e+2, 1.4444886e+2, -1358793.6, -1523493.9, -30838.67, -0.02866122, -0.05013192, -1353208.8, 171184.81, 0.0, 10.001451, 9.999267 
7.949792e+2, 1.5444753e+2, -1263195.8, -1424034.0, -27424.498, -0.023881486, -0.11544676, -1258648.3, 167755.77, 0.0, 10.001425, 9.999289 
7.949915e+2, 1.6444643e+2, -1206669.0, -1384667.3, -15028.93, -0.020428773, -0.13771339, -1205408.9, 123004.195, 0.0, 10.001306, 9.998944 
7.9500437e+2, 1.7444563e+2, -1141243.3, -1302897.9, -18865.676, 0.018703448, -0.11148019, -1139070.8, 91349.92, 0.0, 10.001084, 9.998939 
7.950167e+2, 1.844445e+2, -1067349.0, -1220176.8, -37184.668, 0.026164034, -0.11471091, -1058781.9, 73649.05, 0.0, 10.000935, 9.998906 
7.9502827e+2, 1.9444296e+2, -975359.25, -1123207.1, -32674.78, -0.017199619, -0.16301918, -968459.94, 65984.42, 0.0, 10.000886, 9.998922 
7.950401e+2, 2.0444165e+2, -894700.56, -1035821.2, -28279.248, -0.02797702, -0.1844187, -889244.6, 47211.535, 0.0, 10.000776, 9.998902 
7.9505247e+2, 2.1444061e+2, -821582.44, -947963.25, -22100.62, 0.006884384, -0.18042754, -817829.1, 20636.693, 0.0, 10.000597, 9.9989195 
7.950645e+2, 2.2443965e+2, -737040.56, -845620.75, -24199.508, 0.018860059, -0.17157955, -731891.4, 8583.46, 0.0, 10.000459, 9.999015 
7.9507613e+2, 2.3443876e+2, -647976.6, -748745.1, -20238.848, 0.0010215605, -0.16621919, -644063.7, -1580.5858, 0.0, 10.000384, 9.999043 
7.95088e+2, 2.4443766e+2, -564989.3, -672173.3, -13010.397, 0.0016217913, -0.17280443, -563432.7, -18939.182, 0.0, 10.000341, 9.998917 
7.951002e+2, 2.5443634e+2, -467203.78, -572563.1, -16763.787, 0.025264407, -0.19940218, -464600.78, -18094.66, 0.0, 10.000333, 9.998932 
7.951122e+2, 2.6443535e+2, -373391.8, -472240.5, -20337.793, 0.019744456, -0.19222014, -369370.94, -20855.293, 0.0, 10.000285, 9.998972 
7.951237e+2, 2.7443472e+2, -285180.88, -376399.78, -17660.955, -0.021525053, -0.15708785, -281880.9, -31359.063, 0.0, 10.000206, 9.998995 
7.951359e+2, 2.844335e+2, -209696.03, -280410.16, -6812.608, -0.010770242, -0.1808943, -209045.69, -56512.773, 0.0, 10.000012, 9.999075 
7.951489e+2, 2.9443166e+2, -164626.67, -208072.81, -7676.352, 0.062003747, -0.27435225, -163310.25, -108761.43, 0.0, 9.99965, 9.999073 
7.951607e+2, 3.0443165e+2, -137758.28, -154242.02, -15122.378, 0.033134043, -0.19012567, -128777.64, -128777.64, 0.0, 9.999433, 9.999213 
7.9517245e+2, 3.144305e+2, -33406.465, 65402.83, 11252.12, 0.0033623022, -0.22869667, 66667.984, 66667.984, 0.0, 9.999417, 10.00073 
8.0494165e+2, 1.2443735e+2, -1519941.4, -1753665.5, -54013.78, -0.05212594, -0.04863678, -1508062.5, 212444.75, 0.0000000057252847, 10.001913, 9.998811 
8.049562e+2, 1.3443641e+2, -1456751.1, -1617601.1, 26897.193, 0.05914932, -0.070080325, -1452372.6, 170143.92, 0.0, 10.001432, 9.999308 
8.049683e+2, 1.4443578e+2, -1399819.8, -1536223.5, -17105.533, -0.023514902, -0.062602684, -1397707.4, 126814.484, 0.0, 10.001141, 9.999329 
8.049804e+2, 1.5443484e+2, -1290844.0, -1430953.6, -26576.047, -0.035638425, -0.092327744, -1285972.5, 140556.31, 0.0, 10.001207, 9.999347 
8.049927e+2, 1.6443387e+2, -1221727.0, -1384898.5, -21746.836, -0.030428754, -0.10879151, -1218878.4, 109658.61, 0.0, 10.001172, 9.999007 
8.0500555e+2, 1.7443281e+2, -1148664.8, -1299470.0, -11949.697, 0.02943545, -0.114077345, -1147723.8, 82822.92, 0.0, 10.001004, 9.9990015 
8.050177e+2, 1.8443169e+2, -1069672.4, -1212443.0, -17554.73, 0.038935445, -0.12538858, -1067545.6, 65011.234, 0.0, 10.000881, 9.998984 
8.0502903e+2, 1.9443044e+2, -978010.4, -1115851.5, -17074.393, -0.024427287, -0.1521956, -975926.9, 58640.887, 0.0, 10.000831, 9.998999 
8.050408e+2, 2.0442928e+2, -898189.2, -1027600.44, -21011.887, -0.03519384, -0.16473067, -894863.06, 41714.83, 0.0, 10.0007105, 9.99899 
8.050532e+2, 2.1442828e+2, -829909.2, -941724.9, -20269.803, 0.02253301, -0.16845089, -826348.1, 12238.917, 0.0, 10.000497, 9.999009 
8.050651e+2, 2.2442728e+2, -747124.25, -849272.44, -21201.186, 0.04130447, -0.16838162, -742898.7, -2302.4343, 0.0, 10.000384, 9.999025 
8.050766e+2, 2.344263e+2, -645658.3, -746962.0, -24909.18, 0.011212734, -0.1717292, -639864.8, 2740.6602, 0.0, 10.000398, 9.999049 
8.050884e+2, 2.444253e+2, -565948.0, -667309.3, -18489.658, 0.004597269, -0.17266716, -562680.56, -18065.313, 0.0, 10.000313, 9.998963 
8.0510044e+2, 2.5442424e+2, -494744.03, -580470.06, -11388.058, 0.026231809, -0.1773195, -493257.0, -46631.434, 0.0, 10.00012, 9.99898 
8.051123e+2, 2.644233e+2, -414389.2, -487347.72, -7751.166, 0.017683996, -0.169561, -413574.8, -64940.043, 0.0, 9.999984, 9.999013 
8.0512375e+2, 2.7442247e+2, -326377.94, -391565.75, -7624.6113, -0.026748342, -0.15942325, -325498.03, -74854.94, 0.0, 9.999904, 9.999036 
8.051357e+2, 2.8442132e+2, -239622.31, -279615.66, 2792.0088, -0.014489692, -0.18050131, -239428.34, -86775.305, 0.0, 9.9997425, 9.999209 
8.051485e+2, 2.9442e+2, -177055.97, -198242.11, 15268.1875, 0.06462992, -0.23899625, -169065.95, -114401.96, 0.0, 9.999496, 9.999214 
8.051602e+2, 3.044198e+2, -141969.92, -167545.19, 14569.575, 0.037571877, -0.17542273, -135372.1, -135372.1, 0.0, 9.999453, 9.999112 
8.051719e+2, 3.1441832e+2, 6337.627, 97840.52, 3284.0574, 0.0063084513, -0.24092604, 97958.234, 97958.234, 0.0, 9.999634, 10.000848 
8.1494427e+2, 1.2442463e+2, -1507588.8, -1728791.9, -71035.26, 0.015522819, -0.028442914, -1486741.9, 233890.94, 0.000000004999778, 10.001918, 9.99898 
8.149573e+2, 1.3442338e+2, -1449089.3, -1599484.1, 7763.259, 0.029932471, -0.09555516, -1448689.6, 173953.94, 0.0, 10.001425, 9.999434 
8.149692e+2, 1.4442271e+2, -1406370.9, -1549901.4, -17303.244, -0.051526923, -0.09251933, -1404314.3, 120334.55, 0.0, 10.001139, 9.999237 
8.1498194e+2, 1.5442215e+2, -1297860.6, -1447653.3, -23038.375, -0.0016057051, -0.07397708, -1294397.4, 132256.55, 0.0, 10.001215, 9.999229 
8.149943e+2, 1.644213e+2, -1205136.1, -1351159.1, -28165.494, 0.01012832, -0.0801646, -1199891.9, 128769.29, 0.0, 10.001176, 9.999236 
8.150063e+2, 1.7442012e+2, -1131311.1, -1262093.3, -18357.76, 0.003961442, -0.12669724, -1128783.1, 101888.12, 0.0, 10.0009985, 9.99926 
8.150182e+2, 1.8441908e+2, -1067208.0, -1206490.9, -20430.217, -0.0008969102, -0.14415067, -1064273.1, 68407.04, 0.0, 10.000876, 9.999027 
8.1503e+2, 1.9441822e+2, -976260.7, -1111998.5, -18895.604, -0.012177134, -0.1333408, -973679.4, 61008.527, 0.0, 10.00083, 9.999026 
8.150418e+2, 2.0441729e+2, -896575.56, -1023385.4, -29493.18, -0.004026921, -0.12896663, -890051.75, 46644.734, 0.0, 10.000707, 9.999021 
8.150537e+2, 2.1441624e+2, -828094.0, -937416.6, -28453.174, 0.031098776, -0.14004894, -821131.94, 17574.059, 0.0, 10.000495, 9.999041 
8.150655e+2, 2.2441505e+2, -752600.56, -860510.7, -21984.52, 0.037101664, -0.15556368, -748293.56, -7576.6274, 0.0, 10.000383, 9.998949 
8.1507695e+2, 2.3441376e+2, -652168.9, -759608.6, -24133.863, 0.0071070516, -0.1835415, -646996.75, -4267.051, 0.0, 10.000393, 9.998964 
8.150886e+2, 2.4441284e+2, -553707.94, -641090.0, -25869.717, -0.00021028187, -0.17885855, -546623.5, -1884.9607, 0.0, 10.000309, 9.999146 
8.1510055e+2, 2.5441238e+2, -481001.97, -551418.0, -18394.012, 0.019690277, -0.14276986, -476486.66, -29744.041, 0.0, 10.000117, 9.999181 
8.151123e+2, 2.644116e+2, -413207.44, -484097.44, -10804.295, 0.020097367, -0.13187775, -411597.34, -62847.04, 0.0, 9.99998, 9.999037 
8.1512386e+2, 2.7441034e+2, -326593.7, -390131.16, -9579.931, -0.0012632161, -0.16262117, -325180.7, -74417.87, 0.0, 9.999895, 9.99905 
8.1513566e+2, 2.8440934e+2, -216120.58, -230060.38, -6776.6807, 0.0032240234, -0.1923488, -213369.22, -60597.8, 0.0, 9.999738, 9.999553 
8.151477e+2, 2.9440865e+2, -152682.42, -147932.7, 6742.6343, 0.033916038, -0.22134157, -143158.92, -88384.3, 0.0, 9.999496, 9.99956 
8.151594e+2, 3.0440807e+2, -180253.11, -246014.06, 21260.275, 0.007389175, -0.18434335, -173978.44, -173978.44, 0.0, 9.999449, 9.998574 
8.1517196e+2, 3.144059e+2, -23154.969, 40618.99, 9927.025, 0.039190058, -0.2621694, 42128.492, 42128.492, 0.0000000016901937, 9.999618, 10.000463 
8.249463e+2, 1.2441185e+2, -1521030.8, -1726880.8, -58194.215, 0.035279352, -0.039642856, -1505718.3, 215040.02, 0.0000000017683296, 10.00179, 9.999052 
8.2495874e+2, 1.3441072e+2, -1398693.5, -1570646.3, 10398.537, 0.014482344, -0.09854858, -1398066.9, 224700.28, 0.0, 10.00175, 9.999476 
8.249705e+2, 1.4441009e+2, -1353876.0, -1527544.5, -10751.318, -0.05388389, -0.09321396, -1353212.9, 171559.25, 0.0, 10.001512, 9.99921 
8.2498324e+2, 1.5440944e+2, -1316237.4, -1459916.9, -11064.83, 0.013100164, -0.080857836, -1315390.3, 111388.375, 0.0, 10.001103, 9.999198 
8.2499534e+2, 1.6440862e+2, -1240781.9, -1357052.6, -13047.581, 0.023622237, -0.08788398, -1239335.6, 89450.13, 0.0, 10.000884, 9.999335 
8.250071e+2, 1.744076e+2, -1134313.5, -1252017.5, -14498.442, -0.008226504, -0.12612739, -1132553.9, 98240.016, 0.0, 10.000929, 9.999362 
8.2501894e+2, 1.8440674e+2, -1061788.3, -1193240.1, -21737.924, -0.013116628, -0.13708964, -1058286.8, 74514.42, 0.0, 10.00087, 9.999122 
8.250309e+2, 1.9440602e+2, -992095.4, -1109222.3, -16540.496, 0.0066713607, -0.12336449, -989804.3, 45003.395, 0.0, 10.000676, 9.999119 
8.2504267e+2, 2.0440508e+2, -922424.2, -1037663.6, -26277.955, 0.01880034, -0.1204328, -916714.94, 20101.314, 0.0, 10.000537, 9.999004 
8.250541e+2, 2.1440396e+2, -833165.3, -942379.5, -29630.48, 0.024314303, -0.13680175, -825644.3, 13182.637, 0.0, 10.000471, 9.999018 
8.250657e+2, 2.2440283e+2, -755811.3, -857066.94, -19358.143, 0.020419374, -0.14997514, -752236.6, -11398.817, 0.0, 10.00034, 9.998994 
8.250772e+2, 2.3440167e+2, -687359.4, -771082.94, -12797.387, 0.004174076, -0.1672758, -685446.94, -42598.1, 0.0, 10.000128, 9.999013 
8.250888e+2, 2.444008e+2, -586724.44, -650938.56, -10976.288, 0.0021326323, -0.16348857, -584900.06, -40042.84, 0.0, 10.000056, 9.9992 
8.2510066e+2, 2.5440028e+2, -470473.47, -539851.56, -14831.023, 0.017357534, -0.14250724, -467436.0, -20573.813, 0.0, 10.000163, 9.999238 
8.251123e+2, 2.6439953e+2, -398404.2, -462445.22, -16957.916, 0.023739148, -0.13497071, -394190.94, -45321.727, 0.0, 10.00002, 9.999166 
8.251238e+2, 2.7439854e+2, -364739.84, -393498.34, -8559.668, 0.021577343, -0.1529569, -362384.97, -111506.01, 0.0, 9.999569, 9.999183 
8.251354e+2, 2.8439766e+2, -256513.2, -245528.4, -990.4884, 0.022617726, -0.1777979, -245439.81, -92553.766, 0.0, 9.999444, 9.999588 
8.2514715e+2, 2.9439694e+2, -117341.57, -127220.39, -11437.824, 0.022000385, -0.21520792, -109822.19, -54932.473, 0.0, 9.999724, 9.999592 
8.251588e+2, 3.0439603e+2, -156139.5, -248508.3, 387.3461, -0.0060850168, -0.20573358, -156137.88, -156137.88, 0.0, 9.999675, 9.998449 
8.2517153e+2, 3.1439427e+2, -86985.414, 8347.646, 16149.581, 0.061172206, -0.229952, 11009.111, 11009.111, 0.000000023716037, 9.999186, 10.000448 
8.349477e+2, 1.2439904e+2, -1522133.4, -1729685.0, -58534.29, -0.007584583, -0.08250141, -1506763.5, 214119.64, 0.000000000051048894, 10.001789, 9.999035 
8.3496046e+2, 1.3439852e+2, -1398742.9, -1574099.0, 9573.007, 0.010071736, -0.07954053, -1398221.9, 224665.23, 0.0, 10.001762, 9.999447 
8.3497214e+2, 1.4439796e+2, -1351824.6, -1525006.1, -26794.414, -0.03332728, -0.065608144, -1347773.9, 177117.6, 0.0, 10.00152, 9.999224 
8.3498424e+2, 1.5439673e+2, -1314903.9, -1455146.1, -26571.424, 0.0060277563, -0.11350945, -1310038.3, 116864.4, 0.0, 10.001096, 9.999234 
8.349961e+2, 1.6439582e+2, -1242475.3, -1360161.0, -12939.474, 0.0068012644, -0.13057484, -1241069.4, 87841.32, 0.0, 10.00088, 9.999316 
8.35008e+2, 1.7439537e+2, -1135964.4, -1256675.6, -12175.513, -0.0089897765, -0.11052215, -1134748.5, 96165.77, 0.0, 10.000933, 9.999329 
8.3501995e+2, 1.8439472e+2, -1052568.3, -1174069.4, -28959.627, -0.00027614585, -0.103703596, -1046018.75, 86900.77, 0.0, 10.00087, 9.999252 
8.350318e+2, 1.943938e+2, -982602.06, -1088398.9, -23992.768, 0.029633239, -0.1236109, -977415.25, 57511.93, 0.0, 10.000671, 9.999264 
8.350433e+2, 2.0439275e+2, -926754.6, -1046245.2, -29955.133, 0.03105393, -0.13928685, -919665.75, 17271.21, 0.0, 10.000535, 9.998947 
8.350544e+2, 2.1439153e+2, -838487.75, -952878.7, -32397.496, 0.0009121376, -0.15769337, -829949.56, 8999.955, 0.0, 10.000468, 9.998947 
8.3506566e+2, 2.2439061e+2, -745258.9, -834870.8, -27972.197, -0.010049493, -0.1515885, -737244.2, 3714.2493, 0.0, 10.000339, 9.999147 
8.350773e+2, 2.343901e+2, -675232.5, -746223.0, -20920.23, 0.0014393972, -0.12304492, -669526.2, -26563.326, 0.0, 10.000129, 9.999185 
8.350889e+2, 2.4438922e+2, -591488.1, -660677.5, -8160.008, 0.010253924, -0.1253835, -590538.8, -45567.777, 0.0, 10.000054, 9.999134 
8.3510077e+2, 2.543879e+2, -477639.03, -552806.0, -10202.996, 0.015217343, -0.17470163, -476278.72, -29294.766, 0.0, 10.0001545, 9.999153 
8.3511233e+2, 2.643871e+2, -383144.34, -430153.34, -33207.05, 0.024516663, -0.17862801, -365965.06, -16973.734, 0.0, 10.000016, 9.99939 
8.351236e+2, 2.74387e+2, -347198.44, -358020.03, -25486.965, 0.041160725, -0.13410482, -326554.25, -75562.445, 0.0, 9.999572, 9.999426 
8.3513504e+2, 2.8438634e+2, -274814.1, -283533.28, 7993.043, 0.04321333, -0.13845405, -270069.03, -117072.02, 0.0, 9.999444, 9.999327 
8.351469e+2, 2.943849e+2, -139428.52, -169851.73, 326.1249, 0.02163644, -0.21514794, -139425.02, -84416.48, 0.0, 9.999711, 9.999306 
8.351584e+2, 3.0438367e+2, -138101.72, -209140.14, -16522.346, -0.010096361, -0.23585497, -134446.94, -134446.94, 0.0, 9.999665, 9.998724 
8.351708e+2, 3.1438318e+2, -62551.504, 58147.996, -2947.3298, 0.06734907, -0.1640977, 58219.926, 58219.926, 0.00000010288848, 9.999188, 10.00079 
8.449495e+2, 1.243871e+2, -1488778.5, -1724306.5, -20896.3, -0.01881653, -0.092650846, -1486938.9, 234060.48, 0.0, 10.002064, 9.998939 
8.449622e+2, 1.3438657e+2, -1423398.0, -1599458.4, 33914.367, 0.008390641, -0.078735575, -1417091.0, 205913.39, 0.0, 10.001655, 9.999323 
8.4497374e+2, 1.4438601e+2, -1367195.8, -1527015.9, -3891.8486, -0.018921705, -0.061184324, -1367101.0, 157908.08, 0.0, 10.001392, 9.9992695 
8.449854e+2, 1.5438482e+2, -1266716.5, -1425245.8, -353.55368, -0.003267435, -0.11039805, -1266715.6, 160303.45, 0.0, 10.001399, 9.999292 
8.4499705e+2, 1.6438386e+2, -1191024.5, -1348785.0, 15546.166, -0.00661913, -0.13027956, -1189507.1, 139520.28, 0.0, 10.001292, 9.999196 
8.45009e+2, 1.7438321e+2, -1129772.3, -1268714.0, 7228.2505, -0.0046586012, -0.11636912, -1129397.3, 101636.22, 0.0, 10.00104, 9.999194 
8.450209e+2, 1.8438248e+2, -1055248.1, -1169733.5, -18678.156, 0.009535113, -0.11354018, -1052277.9, 80761.87, 0.0, 10.000825, 9.999305 
8.4503245e+2, 1.9438162e+2, -979435.94, -1079193.1, -19748.375, 0.02891548, -0.13322419, -975668.75, 59377.61, 0.0, 10.000659, 9.999333 
8.450438e+2, 2.0438066e+2, -931345.25, -1047771.4, -22898.813, 0.024453247, -0.14364864, -927003.44, 10051.811, 0.0, 10.0005, 9.998953 
8.450547e+2, 2.1437955e+2, -856258.94, -961351.2, -20518.74, -0.005793077, -0.15225787, -852394.8, -13327.698, 0.0, 10.000345, 9.998948 
8.450659e+2, 2.2437866e+2, -750865.5, -832022.9, -15143.855, -0.01458404, -0.14532195, -748131.75, -7055.92, 0.0, 10.0002775, 9.999196 
8.450775e+2, 2.3437811e+2, -642693.75, -724783.75, -18016.977, 0.0018437135, -0.12585746, -638913.5, 4166.891, 0.0, 10.000328, 9.999234 
8.4508914e+2, 2.4437726e+2, -578014.4, -656443.5, -11856.148, 0.01615178, -0.12688969, -576261.25, -31172.957, 0.0, 10.000158, 9.999113 
8.451008e+2, 2.5437602e+2, -544824.94, -588128.9, -10961.886, 0.027537394, -0.16283248, -542208.2, -95107.586, 0.0, 9.999706, 9.999126 
8.4511226e+2, 2.643752e+2, -442027.72, -459261.72, -33550.055, 0.03339846, -0.16946536, -416005.72, -66897.28, 0.0, 9.999617, 9.999381 
8.451233e+2, 2.7437487e+2, -285409.2, -328753.8, -44896.01, 0.03393837, -0.1465535, -257228.3, -6117.5356, 0.0, 10.000001, 9.999419 
8.451347e+2, 2.843742e+2, -205687.44, -258557.19, -19604.676, 0.03413375, -0.14561655, -199211.14, -46095.145, 0.0, 9.999956, 9.99925 
8.451465e+2, 2.9437307e+2, -198900.55, -206902.63, -13518.247, 0.031411923, -0.18703257, -188803.67, -133678.0, 0.0, 9.999339, 9.999229 
8.45158e+2, 3.0437165e+2, -204487.7, -229785.25, -22228.686, 0.0035649438, -0.23035264, -191560.98, -191560.98, 0.00000000024035085, 9.999161, 9.998824 
8.4517e+2, 3.1437135e+2, -5149.427, 94114.43, -25858.85, 0.059824917, -0.14570655, 100446.85, 100446.85, 0.00000026211356, 9.999546, 10.000864 
8.549516e+2, 1.2437611e+2, -1501887.4, -1753175.4, -33584.63, -0.012838211, -0.06726067, -1497476.3, 223629.69, 0.0, 10.002071, 9.998737 
8.549638e+2, 1.3437489e+2, -1442438.8, -1637691.5, 17726.348, 0.009914241, -0.09507663, -1440842.4, 182276.44, 0.0, 10.001649, 9.9990635 
8.549752e+2, 1.4437425e+2, -1359683.8, -1511246.4, -5727.542, -0.012357251, -0.07801953, -1359467.6, 165657.08, 0.0, 10.0013895, 9.99938 
8.549866e+2, 1.5437376e+2, -1257524.5, -1408281.1, 1044.5, -0.01894175, -0.07029487, -1257517.3, 169610.03, 0.0, 10.001407, 9.999406 
8.549982e+2, 1.6437277e+2, -1207853.5, -1384577.3, 6486.781, -0.021119852, -0.08738253, -1207615.8, 121519.96, 0.0, 10.001295, 9.998948 
8.5501015e+2, 1.7437115e+2, -1148211.6, -1306199.9, -2252.7153, 0.003690174, -0.1445879, -1148179.5, 82971.77, 0.0, 10.001037, 9.998939 
8.550217e+2, 1.8437003e+2, -1056295.1, -1171709.9, -25752.115, 0.014623706, -0.16627817, -1050809.9, 82351.64, 0.0, 10.000823, 9.999292 
8.5503286e+2, 1.9436954e+2, -979170.0, -1079117.9, -26111.6, 0.0030900398, -0.15096222, -972759.44, 62405.44, 0.0, 10.000661, 9.999333 
8.55044e+2, 2.0436887e+2, -926386.6, -1037411.2, -29684.197, -0.00243352, -0.13332266, -918948.4, 18222.295, 0.0, 10.0005, 9.999025 
8.550551e+2, 2.1436805e+2, -851259.0, -950533.25, -26649.637, 0.0019123513, -0.12073568, -844557.44, -5377.8945, 0.0, 10.000342, 9.999023 
8.550664e+2, 2.2436702e+2, -755300.5, -840969.56, -14761.628, 0.004253929, -0.1300729, -752828.25, -11638.632, 0.0, 10.000275, 9.999135 
8.550778e+2, 2.3436575e+2, -647712.5, -734731.7, -15909.103, 0.0029181517, -0.17505893, -644895.1, -1694.0289, 0.0, 10.000325, 9.999167 
8.550893e+2, 2.4436495e+2, -577172.44, -654794.25, -28183.049, 0.01719648, -0.16878049, -568019.06, -22810.227, 0.0, 10.000157, 9.9991255 
8.5510075e+2, 2.5436473e+2, -542928.6, -585004.25, -27967.672, 0.052609324, -0.10828857, -528969.56, -81757.555, 0.0, 9.999709, 9.999147 
8.55112e+2, 2.6436386e+2, -457944.94, -492736.2, -21438.0, 0.049913406, -0.1072318, -447732.66, -98512.32, 0.0, 9.999618, 9.999151 
8.551229e+2, 2.7436224e+2, -304681.88, -366059.78, -29365.066, -0.0026161938, -0.18683448, -292895.9, -41660.746, 0.0, 9.999989, 9.999168 
8.551342e+2, 2.843614e+2, -200353.61, -245335.64, -39966.6, -0.0074612745, -0.19692998, -176984.25, -23741.729, 0.0, 9.999946, 9.999347 
8.55146e+2, 2.9436138e+2, -190222.4, -189213.13, -35629.58, 0.047055624, -0.13480876, -154084.63, -98843.33, 0.0, 9.99934, 9.999351 
8.5515743e+2, 3.0435985e+2, -208687.06, -239066.69, -9787.223, 0.03207023, -0.19262247, -205807.02, -205807.02, 0.0000000059514194, 9.999164, 9.998759 
8.5516936e+2, 3.1435877e+2, -19576.783, 68393.7, -10816.189, 0.03373984, -0.18070777, 69704.06, 69704.06, 0.0000005093443, 9.999529, 10.000695 
8.6495394e+2, 1.2436495e+2, -1479421.3, -1751435.8, -30803.713, 0.00034295052, -0.07566952, -1475976.6, 245237.83, 0.00000000000000000000885557, 10.002267, 9.998653 
8.649655e+2, 1.3436374e+2, -1408445.9, -1634977.0, 27173.184, 0.002056663, -0.09167237, -1405232.0, 217996.16, 0.0, 10.001942, 9.99894 
8.649767e+2, 1.44363e+2, -1328733.9, -1506617.9, 12488.956, -0.018423215, -0.07268679, -1327861.4, 197373.75, 0.0, 10.001648, 9.999288 
8.64988e+2, 1.5436235e+2, -1260102.4, -1420258.1, 1967.644, -0.020470012, -0.0708014, -1260078.1, 167160.94, 0.0, 10.001434, 9.9993105 
8.649995e+2, 1.6436127e+2, -1215094.8, -1391235.6, 4291.496, -0.019850412, -0.09071484, -1214990.3, 114257.88, 0.0, 10.001257, 9.998923 
8.650112e+2, 1.7435966e+2, -1135109.6, -1301098.0, 14316.003, 0.0016417799, -0.14473276, -1133884.0, 97379.49, 0.0, 10.001132, 9.998928 
8.650226e+2, 1.8435852e+2, -1036538.5, -1177512.5, -299.03778, 0.007313416, -0.1627868, -1036537.9, 96736.24, 0.0, 10.001026, 9.999154 
8.650335e+2, 1.943579e+2, -948475.7, -1081234.8, -12531.133, -0.01096946, -0.14448951, -947303.2, 87975.99, 0.0, 10.000944, 9.999183 
8.650445e+2, 2.0435715e+2, -882312.5, -1013052.9, -25786.355, -0.013754816, -0.1300753, -877410.4, 59875.63, 0.0, 10.000788, 9.999053 
8.6505556e+2, 2.1435626e+2, -820350.06, -930959.8, -26188.502, 0.0035157546, -0.12691128, -814462.9, 24831.824, 0.0, 10.000535, 9.999066 
8.650667e+2, 2.243552e+2, -755720.0, -848489.25, -10799.385, 0.009353562, -0.13768493, -754479.44, -13174.5625, 0.0, 10.000304, 9.99907 
8.6507803e+2, 2.3435394e+2, -685398.75, -760662.75, -13144.971, 0.00030507141, -0.17571664, -683169.06, -39852.066, 0.0, 10.000101, 9.999097 
8.650893e+2, 2.4435312e+2, -597203.4, -668018.75, -29339.932, 0.011723871, -0.1655719, -586626.94, -41301.914, 0.0, 10.000036, 9.999092 
8.651006e+2, 2.5435287e+2, -479457.88, -557979.94, -33987.277, 0.049415644, -0.10446211, -466790.47, -19462.236, 0.0, 10.00016, 9.999114 
8.651118e+2, 2.6435196e+2, -404414.28, -471713.94, -20112.22, 0.048409227, -0.10600274, -398861.9, -49524.746, 0.0, 10.000008, 9.999107 
8.651226e+2, 2.7435023e+2, -381524.75, -408346.0, -14042.588, -0.0012610033, -0.19156066, -375517.88, -124164.66, 0.0, 9.999484, 9.999122 
8.651338e+2, 2.843494e+2, -293943.78, -290341.8, -22004.527, -0.005631598, -0.19358638, -270064.7, -116704.484, 0.0, 9.999303, 9.999347 
8.6514544e+2, 2.9434967e+2, -154861.8, -171431.69, -27885.078, 0.044879146, -0.107698835, -134056.92, -78700.086, 0.0, 9.99958, 9.999356 
8.651567e+2, 3.043479e+2, -147623.45, -208338.97, 1717.0641, 0.028902603, -0.18950324, -147574.92, -147574.92, 0.000000027135602, 9.9995775, 9.99877 
8.6516863e+2, 3.1434682e+2, -83961.59, 21934.873, 3983.2495, 0.02941066, -0.17789909, 22084.49, 22084.49, 0.00000083365, 9.999152, 10.000557 
8.7495625e+2, 1.2435365e+2, -1475026.5, -1742123.0, -41952.76, 0.009345447, -0.11770016, -1468592.0, 252732.61, 0.0000000055054987, 10.002265, 9.998718 
8.749672e+2, 1.3435312e+2, -1404853.0, -1628001.0, 15317.327, -0.021512847, -0.06918233, -1403806.5, 219525.11, 0.0, 10.001944, 9.998987 
8.7497807e+2, 1.443523e+2, -1351955.9, -1555936.8, 3787.1428, -0.0442602, -0.046263788, -1351885.6, 173454.28, 0.0, 10.001652, 9.998947 
8.749896e+2, 1.5435064e+2, -1284052.6, -1470153.0, -5795.082, -0.007491712, -0.11153378, -1283872.3, 143481.84, 0.0, 10.001434, 9.998968 
8.750009e+2, 1.643494e+2, -1199227.8, -1358752.0, -1711.7601, -0.0027864263, -0.13838515, -1199209.4, 130155.234, 0.0, 10.001258, 9.9991455 
8.750122e+2, 1.7434882e+2, -1117375.3, -1264791.6, 9588.662, -0.013568199, -0.11589275, -1116754.3, 114615.29, 0.0, 10.001134, 9.999176 
8.7502337e+2, 1.8434797e+2, -1055574.8, -1216704.5, -4133.205, -0.01589216, -0.103215165, -1055468.8, 77908.484, 0.0, 10.001024, 9.998887 
8.7503445e+2, 1.9434676e+2, -969779.6, -1125166.4, -15760.289, -0.015073551, -0.11433352, -968197.25, 67191.78, 0.0, 10.000942, 9.998882 
8.750453e+2, 2.0434551e+2, -883594.06, -1015359.1, -35802.785, -0.011817204, -0.133558, -874494.25, 62906.523, 0.0, 10.000786, 9.999039 
8.75056e+2, 2.1434423e+2, -819598.1, -929616.25, -36025.813, -0.0028209456, -0.17033342, -808851.2, 30561.076, 0.0, 10.000535, 9.999075 
8.7506694e+2, 2.2434327e+2, -760805.4, -859489.3, -19615.998, -0.00068971585, -0.16899824, -757049.2, -15627.74, 0.0, 10.000305, 9.998995 
8.75078e+2, 2.3434271e+2, -690840.25, -772439.7, -20863.398, -0.006586258, -0.12823787, -685815.3, -42387.637, 0.0, 10.000103, 9.999016 
8.750892e+2, 2.4434184e+2, -602138.06, -678718.3, -26182.365, -0.0012898361, -0.115952656, -594042.3, -48605.773, 0.0, 10.000037, 9.999019 
8.751005e+2, 2.5434056e+2, -485611.7, -569576.94, -28677.16, 0.016012302, -0.1493537, -476752.2, -29303.426, 0.0, 10.000155, 9.999038 
8.751116e+2, 2.643395e+2, -396744.75, -454741.84, -37794.96, 0.026789024, -0.1650767, -378105.34, -28646.71, 0.0, 10.000002, 9.999227 
8.751225e+2, 2.743388e+2, -371256.6, -387616.4, -33046.035, 0.03322665, -0.16331439, -345393.13, -93927.984, 0.0, 9.999486, 9.999264 
8.751336e+2, 2.8433833e+2, -300171.84, -304246.66, -14107.996, 0.035152733, -0.13734096, -287954.9, -134485.6, 0.0, 9.999307, 9.999249 
8.751448e+2, 2.9433793e+2, -164111.17, -188032.1, -16418.59, 0.024466317, -0.10332581, -155758.52, -100286.445, 0.0, 9.999569, 9.999248 
8.751559e+2, 3.043358e+2, -144240.22, -197696.02, -11496.607, -0.005191437, -0.21879365, -141872.53, -141872.53, 0.00000006425192, 9.999562, 9.99885 
8.7516785e+2, 3.1433535e+2, -91855.39, 7928.429, -10753.795, 0.036068343, -0.15075018, 9074.219, 9074.219, 0.0000011924308, 9.999144, 10.0004635 
8.849583e+2, 1.243427e+2, -1542261.5, -1775320.6, -50607.516, 0.008711002, -0.10974675, -1531746.8, 189685.56, 0.00000006865042, 10.001807, 9.998713 
8.849691e+2, 1.3434209e+2, -1405815.1, -1633075.6, -5232.889, -0.02385623, -0.06635519, -1405694.6, 217745.55, 0.0, 10.001957, 9.998947 
8.849799e+2, 1.4434117e+2, -1310106.3, -1538637.1, -10917.945, -0.04157515, -0.04905493, -1309585.8, 215863.45, 0.0, 10.00195, 9.998923 
8.849912e+2, 1.5433945e+2, -1231983.0, -1446472.3, 4614.8193, -0.008149365, -0.11904964, -1231883.8, 195579.92, 0.0, 10.0018, 9.998955 
8.8500226e+2, 1.6433822e+2, -1155782.0, -1342783.8, 12282.944, -0.008591123, -0.14369363, -1154978.6, 174495.47, 0.0, 10.00158, 9.999099 
8.850132e+2, 1.7433767e+2, -1101658.5, -1264119.4, -1027.6298, -0.026262322, -0.110429674, -1101652.0, 129826.63, 0.0, 10.00127, 9.999116 
8.850243e+2, 1.843368e+2, -1057237.6, -1223310.1, -14616.632, -0.025020624, -0.096712984, -1055961.0, 77525.94, 0.0, 10.001037, 9.9988365 
8.850354e+2, 1.9433543e+2, -977993.2, -1133776.6, -7714.525, -0.010565999, -0.1176092, -977612.1, 57887.816, 0.0, 10.000907, 9.998839 
8.850461e+2, 2.043341e+2, -889548.56, -1028683.44, -21911.16, -0.005602361, -0.13937801, -886179.56, 51332.992, 0.0, 10.000792, 9.998943 
8.8505656e+2, 2.1433276e+2, -803814.4, -932968.7, -30972.416, -0.00942641, -0.17047262, -796771.0, 42753.586, 0.0, 10.000692, 9.998976 
8.850673e+2, 2.2433177e+2, -723856.3, -851135.6, -17173.592, -0.012037927, -0.16348855, -721579.8, 19954.533, 0.0, 10.0006, 9.99891 
8.8507825e+2, 2.3433119e+2, -635974.56, -755807.75, -20017.572, -0.013650042, -0.11521764, -632719.2, 10821.816, 0.0, 10.000521, 9.99893 
8.850893e+2, 2.4433024e+2, -566683.06, -658992.75, -23329.166, -0.005819437, -0.106452666, -561122.1, -15571.729, 0.0, 10.00027, 9.999042 
8.851004e+2, 2.5432882e+2, -535045.4, -589609.3, -19261.754, 0.012494788, -0.15885718, -528930.94, -81367.3, 0.0, 9.9998, 9.999071 
8.851114e+2, 2.6432776e+2, -458105.8, -489500.1, -28785.479, 0.025412776, -0.17549103, -441015.7, -91442.27, 0.0, 9.999603, 9.999181 
8.851221e+2, 2.7432725e+2, -334043.63, -375463.5, -38753.13, 0.033955745, -0.15016258, -310813.78, -59235.3, 0.0, 9.999767, 9.999211 
8.85133e+2, 2.843267e+2, -250258.08, -291414.97, -23159.389, 0.037001193, -0.12244051, -239855.4, -86272.0, 0.0, 9.9997, 9.999147 
8.851443e+2, 2.9432592e+2, -209343.6, -221708.47, -25908.47, 0.02879608, -0.11565874, -188890.13, -133300.19, 0.0, 9.999309, 9.999142 
8.851553e+2, 3.0432373e+2, -192750.11, -189291.47, -17811.178, -0.0006717484, -0.24639104, -173125.86, -173125.86, 0.00000010587227, 9.999092, 9.999135 
8.8516694e+2, 3.1432402e+2, -92205.33, 19460.201, -5173.963, 0.028798446, -0.13478689, 19699.422, 19699.422, 0.0000015115112, 9.999092, 10.000567 
8.949598e+2, 1.2433219e+2, -1549972.3, -1790593.3, -43502.48, -0.02106717, -0.050993674, -1542348.9, 179188.14, 0.00000033535434, 10.001804, 9.99861 
8.9497125e+2, 1.3433069e+2, -1417211.6, -1656880.5, 302.40033, -0.0035663452, -0.08039137, -1417211.3, 206342.06, 0.00000000007521531, 10.001958, 9.998783 
8.9498216e+2, 1.443297e+2, -1285877.3, -1490867.3, -18091.902, -0.008674996, -0.077369906, -1284292.8, 241269.67, 0.0, 10.00196, 9.999247 
8.9499277e+2, 1.5432884e+2, -1207922.5, -1396666.9, -1137.4551, -0.027026542, -0.09307889, -1207915.6, 219651.67, 0.0, 10.0018, 9.999297 
8.950035e+2, 1.6432774e+2, -1179426.6, -1391647.3, 775.57275, -0.043263976, -0.10756027, -1179423.8, 150152.47, 0.0, 10.001578, 9.998764 
8.950144e+2, 1.743263e+2, -1127698.1, -1318600.0, -12549.274, -0.03816463, -0.12846918, -1126876.8, 104713.805, 0.0, 10.001271, 9.998742 
8.950254e+2, 1.8432501e+2, -1045455.4, -1199375.0, -20896.602, -0.022575408, -0.1418105, -1042668.9, 90933.71, 0.0, 10.001038, 9.999001 
8.950364e+2, 1.9432394e+2, -963357.8, -1103934.6, -13036.011, 0.0011470974, -0.15366043, -962159.2, 73452.31, 0.0, 10.000909, 9.999043 
8.9504707e+2, 2.043229e+2, -901863.1, -1054202.4, -27033.34, 0.0038069584, -0.14783688, -897208.1, 40412.93, 0.0, 10.000791, 9.99877 
8.950572e+2, 2.143219e+2, -818245.06, -962684.06, -35146.02, -0.018225178, -0.12796907, -810147.06, 29484.506, 0.0, 10.00069, 9.998773 
8.950677e+2, 2.2432075e+2, -730713.5, -865352.7, -21162.004, -0.027813701, -0.12053738, -727465.7, 14177.639, 0.0, 10.000599, 9.998814 
8.9507866e+2, 2.3431946e+2, -642502.0, -769186.0, -22745.346, -0.023064762, -0.13584292, -638542.0, 5114.4873, 0.0, 10.00052, 9.998838 
8.950896e+2, 2.4431841e+2, -559384.56, -643924.25, -40355.316, -0.0037405395, -0.1374885, -543213.94, 2452.5796, 0.0, 10.00027, 9.9991455 
8.951005e+2, 2.5431764e+2, -525872.3, -571102.2, -36556.934, 0.03589765, -0.13432693, -505500.7, -57827.832, 0.0, 9.999802, 9.999198 
8.9511114e+2, 2.643167e+2, -471541.6, -518318.0, -24861.014, 0.041071996, -0.13721928, -460796.56, -111115.05, 0.0, 9.999606, 9.998981 
8.951215e+2, 2.7431557e+2, -350838.06, -409219.94, -31805.74, 0.0010673279, -0.15044643, -336858.22, -85165.45, 0.0, 9.999762, 9.998981 
8.9513236e+2, 2.8431457e+2, -259206.94, -308744.97, -35484.152, 0.0007581731, -0.14710598, -240702.06, -87000.055, 0.0, 9.999693, 9.999032 
8.951438e+2, 2.943137e+2, -216598.36, -236628.75, -38688.234, 0.050650414, -0.1435552, -186650.03, -130939.984, 0.0, 9.999308, 9.999041 
8.951547e+2, 3.0431166e+2, -160441.1, -121936.83, -18955.592, 0.034105375, -0.27149582, -114171.2, -114171.2, 0.00000013409642, 9.99909, 9.9995985 
8.951658e+2, 3.1431273e+2, -74417.6, 60668.773, -4802.931, 0.004273295, -0.13885666, 60839.324, 60839.324, 0.0000016978646, 9.999074, 10.000859 
9.049617e+2, 1.24321245e+2, -1502588.5, -1747332.9, -35384.254, -0.01571873, -0.040361505, -1497575.4, 224070.4, 0.0000010631732, 10.002036, 9.998796 
9.0497327e+2, 1.3431984e+2, -1418839.8, -1639428.6, 30085.365, 0.005657878, -0.07665102, -1414810.1, 208849.7, 0.000000007369457, 10.001867, 9.998946 
9.049841e+2, 1.4431888e+2, -1324365.0, -1514806.0, 8468.999, -0.00021549554, -0.07611565, -1323989.1, 201678.9, 0.0, 10.001722, 9.999196 
9.049944e+2, 1.5431802e+2, -1238990.5, -1420225.0, -7967.75, -0.03460191, -0.08623412, -1238640.9, 189032.72, 0.0, 10.001622, 9.999222 
9.050049e+2, 1.6431685e+2, -1188506.4, -1401837.5, -13380.536, -0.05170196, -0.100961536, -1187670.4, 142013.14, 0.0, 10.001541, 9.998713 
9.050158e+2, 1.7431527e+2, -1097221.6, -1308092.6, -3113.1782, -0.033634555, -0.12893233, -1097175.8, 134523.2, 0.0, 10.001501, 9.998702 
9.050266e+2, 1.8431394e+2, -997799.44, -1174976.9, -3458.559, -0.015965475, -0.14698698, -997731.94, 135979.31, 0.0, 10.001362, 9.99901 
9.0503734e+2, 1.9431287e+2, -936032.06, -1089885.6, -10282.294, -0.0022812376, -0.16019216, -935347.94, 100371.695, 0.0, 10.001093, 9.999052 
9.0504783e+2, 2.043118e+2, -887549.25, -1059421.9, -23767.842, -0.0030720467, -0.15291959, -884323.0, 53406.402, 0.0, 10.000941, 9.998662 
9.0505797e+2, 2.1431074e+2, -789463.2, -962009.4, -26669.951, -0.022123396, -0.12734869, -785434.94, 54306.086, 0.0, 10.000945, 9.998655 
9.0506834e+2, 2.2430949e+2, -707979.7, -857207.5, -13744.709, -0.029233294, -0.121242754, -706724.3, 35029.52, 0.0, 10.000769, 9.998787 
9.050791e+2, 2.3430806e+2, -666787.25, -782799.1, -11510.335, -0.022399096, -0.1476045, -665656.3, -21888.371, 0.0, 10.000362, 9.99882 
9.050898e+2, 2.4430701e+2, -582692.1, -663645.44, -30641.607, -0.0041370685, -0.14537668, -572402.0, -26624.025, 0.0, 10.000147, 9.999069 
9.051004e+2, 2.543064e+2, -476448.56, -556454.0, -42718.57, 0.030007647, -0.11858066, -457926.97, -10143.834, 0.0, 10.000181, 9.999115 
9.051109e+2, 2.6430532e+2, -411784.6, -502525.56, -30862.098, 0.03423182, -0.1233339, -402282.94, -52489.855, 0.0, 10.000073, 9.998864 
9.0512127e+2, 2.7430373e+2, -356089.53, -425099.13, -30858.617, -0.0005851422, -0.17184357, -344303.56, -92494.65, 0.0, 9.999783, 9.998862 
9.05132e+2, 2.8430274e+2, -277662.22, -311236.9, -31109.69, -0.00088180177, -0.16855755, -259099.48, -105281.04, 0.0, 9.999537, 9.999091 
9.051431e+2, 2.9430237e+2, -206211.16, -222778.33, -23260.635, 0.04261653, -0.11899937, -189803.14, -133981.97, 0.0, 9.999342, 9.999119 
9.051538e+2, 3.0430046e+2, -157343.3, -123938.11, -5973.544, 0.031020025, -0.24164845, -122902.05, -122902.05, 0.0000001316986, 9.999127, 9.999566 
9.051648e+2, 3.1430095e+2, -122258.734, 7255.3965, -33572.523, 0.010784816, -0.15310124, 15440.719, 15440.719, 0.0000016698094, 9.998873, 10.000591 
9.1496414e+2, 1.2430991e+2, -1462467.8, -1668749.0, -42391.3, 0.014802307, -0.07597217, -1454096.0, 267662.28, 0.0000026057617, 10.002055, 9.999328 
9.1497505e+2, 1.343096e+2, -1383114.4, -1563943.5, 23090.23, -0.0020826156, -0.055656303, -1380212.5, 243546.4, 0.00000007607973, 10.001862, 9.999468 
9.149856e+2, 1.4430879e+2, -1356423.8, -1580347.9, 4539.3687, -0.024269763, -0.046431005, -1356331.8, 169433.45, 0.0, 10.001718, 9.998749 
9.149961e+2, 1.5430702e+2, -1274648.3, -1494532.1, -11060.935, -0.033007685, -0.09773246, -1274093.3, 153688.67, 0.0, 10.001624, 9.998711 
9.1500664e+2, 1.643056e+2, -1171360.4, -1368189.4, -16315.202, -0.035449542, -0.12089932, -1170017.1, 159778.1, 0.0, 10.001548, 9.998941 
9.1501755e+2, 1.743047e+2, -1077131.8, -1266781.6, -4983.792, -0.014450224, -0.11108946, -1077000.9, 154802.4, 0.0, 10.001502, 9.998985 
9.150281e+2, 1.8430358e+2, -1007846.1, -1195397.3, -14037.304, -0.007500863, -0.112780385, -1006801.3, 127011.35, 0.0, 10.001359, 9.998872 
9.150383e+2, 1.9430223e+2, -948523.44, -1115470.6, -20762.95, -0.02314304, -0.1380328, -945979.94, 89843.95, 0.0, 10.001091, 9.998878 
9.1504854e+2, 2.043008e+2, -891950.75, -1068311.3, -25328.568, -0.029414272, -0.1541079, -888385.25, 49451.805, 0.0, 10.000939, 9.998602 
9.150589e+2, 2.142993e+2, -792979.94, -968871.9, -26835.135, -0.02256629, -0.16755481, -788976.94, 50875.7, 0.0, 10.000943, 9.99861 
9.150693e+2, 2.2429802e+2, -705338.3, -851819.2, -29080.594, -0.017092498, -0.16508828, -699776.2, 42089.434, 0.0, 10.000768, 9.998825 
9.150796e+2, 2.3429704e+2, -663394.5, -775847.44, -26737.27, -0.013362303, -0.15041402, -657361.06, -13485.865, 0.0, 10.000362, 9.998869 
9.150899e+2, 2.442961e+2, -599721.75, -699539.9, -30798.697, -0.009761828, -0.12955876, -590983.8, -45099.215, 0.0, 10.000149, 9.998822 
9.151002e+2, 2.5429514e+2, -496351.3, -597277.75, -40703.875, -0.0061896425, -0.11061899, -481981.34, -34087.316, 0.0, 10.000178, 9.9988365 
9.1511065e+2, 2.6429373e+2, -415089.3, -509098.06, -40426.953, 0.0042390744, -0.13319448, -400095.72, -50187.945, 0.0, 10.000072, 9.99882 
9.151213e+2, 2.7429178e+2, -357936.8, -428444.34, -40246.066, 0.023764722, -0.21364294, -339687.56, -87760.94, 0.0, 9.99978, 9.998841 
9.151318e+2, 2.8429112e+2, -262952.0, -279411.78, -38780.754, 0.025909351, -0.1864973, -231537.48, -77604.85, 0.0, 9.999533, 9.999312 
9.15142e+2, 2.942919e+2, -190486.53, -187939.22, -29602.361, 0.005020562, -0.044439726, -159583.13, -103659.53, 0.0, 9.999333, 9.999362 
9.151526e+2, 3.0428997e+2, -192293.48, -195339.77, -14635.873, -0.008431603, -0.15999, -179101.72, -179101.72, 0.00000009563079, 9.999122, 9.99908 
9.1516393e+2, 3.1428877e+2, -176301.61, -103561.7, -39853.18, 0.03711994, -0.18637908, -85977.516, -85977.516, 0.0000014046396, 9.998866, 9.999833 
9.2496634e+2, 1.2429934e+2, -1485341.8, -1680180.6, -5574.9126, 0.034532696, -0.07791491, -1485182.4, 236679.39, 0.0000053561066, 10.0019045, 9.999318 
9.2497694e+2, 1.3429898e+2, -1354837.3, -1555870.1, 12812.627, -0.011044243, -0.05710788, -1354024.0, 269838.75, 0.00000033393198, 10.00208, 9.999417 
9.249873e+2, 1.4429809e+2, -1311561.8, -1567584.1, -19723.19, -0.040777594, -0.049005333, -1310051.3, 215818.53, 0.0, 10.002065, 9.998669 
9.2499787e+2, 1.542962e+2, -1251835.3, -1491432.9, -5019.2466, -0.02491939, -0.10422452, -1251730.1, 176157.94, 0.0, 10.001817, 9.998637 
9.250084e+2, 1.6429478e+2, -1166897.1, -1365461.4, 1956.5946, -0.017725905, -0.1234636, -1166877.9, 163023.69, 0.0, 10.00158, 9.998942 
9.25019e+2, 1.7429404e+2, -1095534.5, -1275472.1, -7919.4507, -0.0070724, -0.09739811, -1095186.6, 136721.4, 0.0, 10.001376, 9.998986 
9.2502934e+2, 1.8429296e+2, -1020395.94, -1203670.4, -22953.191, -0.009565314, -0.0970656, -1017565.0, 116352.25, 0.0, 10.001283, 9.998852 
9.250393e+2, 1.9429141e+2, -913931.7, -1100667.4, -19752.172, -0.035682946, -0.13868275, -911865.25, 124064.94, 0.0, 10.001338, 9.998859 
9.250494e+2, 2.0428994e+2, -846601.4, -1039813.94, -15267.457, -0.0416205, -0.16116047, -845402.4, 92541.23, 0.0, 10.001224, 9.99866 
9.250598e+2, 2.1428858e+2, -796404.3, -963700.75, -9498.181, -0.020041982, -0.16712768, -795866.8, 44090.797, 0.0, 10.00089, 9.998671 
9.2507005e+2, 2.2428733e+2, -720518.94, -861639.2, -10890.538, -0.008756534, -0.16190651, -719683.44, 22286.525, 0.0, 10.000675, 9.998801 
9.2508006e+2, 2.342863e+2, -627972.44, -762034.6, -16120.746, -0.010892763, -0.15142702, -626061.2, 17918.908, 0.0, 10.00062, 9.998839 
9.250902e+2, 2.4428521e+2, -558880.5, -691301.1, -13942.249, -0.011161192, -0.13605465, -557428.44, -11437.725, 0.0, 10.000479, 9.998719 
9.251003e+2, 2.542841e+2, -495156.5, -608694.1, -12322.047, -0.009512563, -0.12272518, -493834.6, -45832.54, 0.0, 10.000237, 9.99873 
9.2511064e+2, 2.642827e+2, -426741.1, -510939.6, -8241.844, -0.00045693485, -0.13969311, -425941.9, -75926.164, 0.0, 9.999974, 9.998855 
9.2512095e+2, 2.74281e+2, -370654.2, -429035.8, -4436.667, 0.018773016, -0.20003214, -370318.97, -118286.87, 0.0, 9.999669, 9.998891 
9.2513126e+2, 2.842803e+2, -278829.72, -296051.25, -3575.9004, 0.021674177, -0.17445664, -278116.75, -124078.38, 0.0, 9.999463, 9.999231 
9.2514133e+2, 2.9428074e+2, -187712.92, -196590.89, -19821.928, 0.0037001448, -0.061109304, -171839.02, -115805.984, 0.0, 9.999394, 9.999274 
9.2515165e+2, 3.0427888e+2, -180530.98, -181013.81, -5521.494, -0.0075607374, -0.16716611, -175245.63, -175245.63, 0.00000004550982, 9.999165, 9.999158 
9.251627e+2, 3.1427807e+2, -206853.86, -128655.086, 12840.242, 0.03056004, -0.16407208, -126600.69, -126600.69, 0.0000009683944, 9.998701, 9.999741 
9.349681e+2, 1.2428956e+2, -1526756.3, -1764518.9, 3220.3176, 0.025274899, -0.051337317, -1526712.8, 195243.19, 0.000009830683, 10.001898, 9.998743 
9.349789e+2, 1.3428809e+2, -1399394.1, -1649482.9, 20172.49, -0.023241458, -0.0782963, -1397777.4, 226192.75, 0.0000009955157, 10.002087, 9.998772 
9.349893e+2, 1.442869e+2, -1288740.6, -1524498.0, -29137.592, -0.051479165, -0.079332784, -1285192.8, 240788.11, 0.00000000002439963, 10.002081, 9.998959 
9.349998e+2, 1.5428565e+2, -1226818.3, -1439676.3, -14502.888, -0.012882828, -0.104703136, -1225834.6, 202156.7, 0.0, 10.001817, 9.998994 
9.3501014e+2, 1.6428447e+2, -1183047.9, -1398336.6, -6658.717, -0.0020513325, -0.108697295, -1182842.1, 147159.88, 0.0, 10.001577, 9.998718 
9.350203e+2, 1.742834e+2, -1115158.3, -1315726.1, -15545.741, -0.013981225, -0.0882619, -1113960.5, 118052.01, 0.0, 10.001374, 9.998711 
9.350305e+2, 1.8428211e+2, -1014813.3, -1191904.8, -22340.53, -0.025600964, -0.09894501, -1012038.44, 121985.9, 0.0, 10.001281, 9.998934 
9.350406e+2, 1.9428048e+2, -905552.8, -1083117.4, -18055.61, -0.041034907, -0.16132542, -903735.44, 132302.5, 0.0, 10.001337, 9.9989805 
9.3505067e+2, 2.0427923e+2, -834590.1, -1014867.25, -28239.924, -0.040456977, -0.17375663, -830269.94, 107778.836, 0.0, 10.001223, 9.998832 
9.3506074e+2, 2.1427856e+2, -784881.6, -938926.7, -22539.96, -0.01697134, -0.12653391, -781651.3, 58404.383, 0.0, 10.000886, 9.998843 
9.3507075e+2, 2.2427748e+2, -727206.44, -875083.6, -14837.452, -0.0071910354, -0.11192606, -725732.4, 16334.122, 0.0, 10.000673, 9.998711 
9.3508065e+2, 2.3427585e+2, -636622.94, -778899.06, -18306.01, -0.016518807, -0.14997114, -634305.3, 9777.109, 0.0, 10.000615, 9.998726 
9.350907e+2, 2.4427442e+2, -556699.9, -686527.94, -23119.188, -0.009960424, -0.16344094, -552705.75, -6609.609, 0.0, 10.000477, 9.998754 
9.351009e+2, 2.5427333e+2, -491725.13, -601323.56, -20702.445, 0.01659864, -0.15470321, -487944.97, -39837.848, 0.0, 10.000236, 9.998782 
9.351108e+2, 2.6427227e+2, -418846.25, -494029.16, -19584.57, 0.016704617, -0.14358957, -414050.53, -63933.4, 0.0, 9.999972, 9.998972 
9.351203e+2, 2.742714e+2, -363007.53, -412644.75, -15342.75, -0.016669173, -0.13367546, -358648.0, -106522.37, 0.0, 9.999667, 9.999004 
9.3513036e+2, 2.8427032e+2, -304229.97, -349204.0, -6811.232, -0.014872991, -0.13334063, -303221.03, -149085.38, 0.0, 9.999463, 9.998866 
9.35141e+2, 2.942689e+2, -216165.14, -255377.47, -20503.803, 0.031521246, -0.16325544, -207402.17, -151253.48, 0.0, 9.999392, 9.998873 
9.3515116e+2, 3.042673e+2, -140076.92, -94375.555, -21494.56, 0.026238998, -0.25794226, -85854.76, -85854.76, 0.000000010385675, 9.999154, 9.999758 
9.351609e+2, 3.142687e+2, -172524.05, -52424.72, -2619.0505, -0.013107669, -0.09809084, -52367.63, -52367.63, 0.00000050425, 9.998681, 10.000273 
9.449702e+2, 1.24279216e+2, -1457965.9, -1753113.5, -17978.275, 0.021129407, -0.04661635, -1456874.9, 265181.88, 0.000016700973, 10.002463, 9.998549 
9.449811e+2, 1.3427742e+2, -1412136.6, -1680785.1, 24760.064, -0.011482509, -0.0839935, -1409873.6, 214201.42, 0.0000023433604, 10.002109, 9.998545 
9.4499135e+2, 1.4427616e+2, -1316350.3, -1534009.1, -18179.62, -0.04047339, -0.08157619, -1314842.4, 211244.72, 0.0000000053592455, 10.001879, 9.998988 
9.4500166e+2, 1.5427518e+2, -1220181.1, -1430800.5, -27552.021, -0.014134382, -0.08590735, -1216636.6, 211458.38, 0.0, 10.00184, 9.999043 
9.4501173e+2, 1.6427402e+2, -1155696.1, -1385098.9, -23979.012, -0.011226599, -0.089653656, -1153216.5, 176888.66, 0.0, 10.001766, 9.998718 
9.450217e+2, 1.7427267e+2, -1076605.3, -1296950.4, -13976.096, -0.027963223, -0.09730446, -1075722.3, 156395.63, 0.0, 10.001639, 9.998711 
9.4503176e+2, 1.842713e+2, -997612.6, -1178974.6, -10613.684, -0.033601806, -0.11507033, -996993.56, 137136.58, 0.0, 10.001382, 9.998973 
9.450419e+2, 1.9426994e+2, -957364.75, -1103661.3, -12447.245, -0.029014254, -0.15571271, -956313.3, 79828.57, 0.0, 10.000963, 9.99902 
9.450518e+2, 2.0426889e+2, -896132.9, -1031481.94, -25821.094, -0.02615088, -0.15784352, -891374.2, 46776.83, 0.0, 10.000745, 9.998948 
9.450615e+2, 2.1426828e+2, -789672.44, -927585.7, -25175.023, -0.024551218, -0.11609361, -785220.6, 54936.094, 0.0, 10.000795, 9.998963 
9.450713e+2, 2.2426718e+2, -725194.1, -876771.6, -17876.615, -0.01728112, -0.108615234, -723114.3, 19053.06, 0.0, 10.000699, 9.998687 
9.450813e+2, 2.3426543e+2, -668437.5, -798729.3, -16725.201, -0.003643446, -0.15464608, -666324.8, -22140.283, 0.0, 10.000416, 9.998686 
9.450912e+2, 2.4426404e+2, -586173.06, -685824.44, -14398.028, 0.0070496514, -0.17005397, -584134.5, -37936.56, 0.0, 10.00021, 9.998888 
9.45101e+2, 2.5426313e+2, -500677.7, -588825.75, -6217.141, 0.01356392, -0.15580504, -500241.34, -52034.875, 0.0, 10.000102, 9.998932 
9.451107e+2, 2.6426214e+2, -420773.75, -502295.6, -8471.049, 0.005333004, -0.14322726, -419902.8, -69686.95, 0.0, 9.999991, 9.998906 
9.4512004e+2, 2.7426118e+2, -336295.88, -408872.66, -19486.324, -0.020741457, -0.13677116, -331394.9, -79168.836, 0.0, 9.999889, 9.998923 
9.451299e+2, 2.8426006e+2, -267570.53, -322212.3, -3381.6147, -0.01803515, -0.1381189, -267362.06, -113125.49, 0.0, 9.999675, 9.99895 
9.4514024e+2, 2.942588e+2, -224474.63, -247916.69, 18088.371, 0.0213303, -0.16435778, -214641.73, -158393.64, 0.0, 9.999286, 9.998975 
9.4515014e+2, 3.042574e+2, -167746.13, -92152.92, 16082.28, 0.019776594, -0.24568275, -88873.7, -88873.7, 0.00000000032400083, 9.998898, 9.999896 
9.4515955e+2, 3.1425872e+2, -194394.7, -61499.918, -7297.8496, -0.0067875637, -0.108404845, -61100.36, -61100.36, 0.00000016973306, 9.998526, 10.000286 
9.549725e+2, 1.2426841e+2, -1441097.3, -1723638.9, -29625.51, 0.0042506177, -0.061950173, -1438024.3, 284139.1, 0.000026645826, 10.002485, 9.998742 
9.5498353e+2, 1.3426705e+2, -1399230.9, -1653648.1, 11181.78, 0.022156043, -0.07378499, -1398740.4, 225436.47, 0.00000475329, 10.002105, 9.9987335 
9.5499355e+2, 1.4426595e+2, -1333477.9, -1567924.3, -20861.582, -0.010815638, -0.05643588, -1331636.0, 194551.61, 0.000000046136613, 10.001871, 9.998759 
9.550033e+2, 1.5426484e+2, -1238846.6, -1469386.9, -28392.018, -0.031257175, -0.047848865, -1235401.5, 192796.78, 0.0, 10.001839, 9.998778 
9.550131e+2, 1.6426349e+2, -1139905.6, -1353034.9, -28809.88, -0.048887476, -0.065413974, -1136080.0, 194130.31, 0.0, 10.001768, 9.998938 
9.5502305e+2, 1.742619e+2, -1057888.0, -1258391.0, -18612.598, -0.050491523, -0.12362354, -1056174.9, 176048.53, 0.0, 10.00164, 9.998976 
9.5503306e+2, 1.8426065e+2, -998145.8, -1180106.6, -26757.549, -0.035667285, -0.14437781, -994292.7, 139941.45, 0.0, 10.001382, 9.998966 
9.550431e+2, 1.9425987e+2, -960212.06, -1108975.8, -28720.705, -0.0020289286, -0.121423505, -954859.75, 81381.65, 0.0, 10.00096, 9.998984 
9.550528e+2, 2.0425893e+2, -892779.8, -1024345.94, -26389.898, -0.0015628696, -0.11333688, -887683.8, 50566.113, 0.0, 10.000743, 9.998998 
9.550621e+2, 2.1425775e+2, -785721.6, -918535.75, -23716.555, -0.044183698, -0.1347837, -781613.6, 58646.555, 0.0, 10.000792, 9.999027 
9.550718e+2, 2.2425647e+2, -722758.9, -871457.75, -28914.049, -0.04018831, -0.15013818, -717334.5, 24937.564, 0.0, 10.000697, 9.998724 
9.55082e+2, 2.3425506e+2, -665875.06, -793103.4, -27243.576, 0.02518385, -0.16576643, -660286.8, -16000.733, 0.0, 10.000414, 9.998726 
9.5509166e+2, 2.4425404e+2, -570837.1, -653668.3, -19116.967, 0.037673697, -0.15717062, -566637.9, -20342.086, 0.0, 10.000208, 9.999109 
9.551008e+2, 2.5425354e+2, -485249.63, -555457.1, -9918.626, -0.020163713, -0.126127, -483875.25, -35575.36, 0.0, 10.000096, 9.999165 
9.5511025e+2, 2.6425236e+2, -437669.5, -536867.06, -12640.584, -0.03626138, -0.13641687, -436084.06, -85772.57, 0.0, 9.999988, 9.998672 
9.551202e+2, 2.7425033e+2, -355792.2, -448400.7, -22165.86, 0.0022547322, -0.20589119, -350760.22, -98427.49, 0.0, 9.999884, 9.998655 
9.551298e+2, 2.842495e+2, -233476.63, -248900.66, -16704.832, 0.008621906, -0.18824992, -222789.55, -68448.79, 0.0, 9.999664, 9.999459 
9.5513904e+2, 2.9425025e+2, -185988.73, -165226.25, 4421.154, -0.02844492, -0.07187886, -164324.02, -107991.98, 0.0, 9.999274, 9.999548 
9.551486e+2, 3.0424917e+2, -188978.89, -135414.98, 1544.9789, -0.028776178, -0.13638629, -135370.47, -135370.47, 0.0, 9.998893, 9.999602 
9.551586e+2, 3.1424823e+2, -227099.53, -129394.1, -18620.867, 0.038274426, -0.18952844, -125965.61, -125965.61, 0.000000027453995, 9.998524, 9.999821 
9.6497506e+2, 1.2425795e+2, -1431446.1, -1709506.4, -32531.023, 0.00093027536, -0.04597022, -1427690.9, 294576.5, 0.000040247374, 10.002515, 9.998822 
9.649858e+2, 1.3425663e+2, -1380543.9, -1636923.0, -6113.1836, 0.033391207, -0.059904933, -1380398.3, 243881.42, 0.0000086557575, 10.002203, 9.9988 
9.649955e+2, 1.4425555e+2, -1321003.4, -1564746.0, -25710.645, -0.005003211, -0.04289331, -1318320.9, 207969.34, 0.00000019058375, 10.00197, 9.998732 
9.6500504e+2, 1.5425438e+2, -1246400.3, -1476443.3, -17541.986, -0.03494129, -0.036518514, -1245070.4, 183231.67, 0.0, 10.001802, 9.998746 
9.650147e+2, 1.6425309e+2, -1162524.3, -1346481.1, -15045.673, -0.050496373, -0.055616952, -1161301.8, 169011.84, 0.0, 10.001538, 9.999093 
9.650246e+2, 1.7425166e+2, -1114160.9, -1265860.9, -12299.18, -0.037642494, -0.1134383, -1113170.1, 119154.25, 0.0, 10.00117, 9.999151 
9.650344e+2, 1.8425053e+2, -1058885.0, -1209669.1, -21600.443, -0.020616839, -0.13238508, -1055851.6, 78482.22, 0.0, 10.000966, 9.998962 
9.650441e+2, 1.9424976e+2, -958186.94, -1109801.8, -22921.254, -0.001672936, -0.1067781, -954797.44, 81543.98, 0.0, 10.000982, 9.998967 
9.650536e+2, 2.042488e+2, -866902.5, -1007040.7, -14724.27, -0.0036843428, -0.102188684, -865372.2, 72978.086, 0.0, 10.000902, 9.99904 
9.650629e+2, 2.1424755e+2, -796198.06, -918755.0, -13839.0625, -0.033166498, -0.13507295, -794654.8, 45705.84, 0.0, 10.000699, 9.999071 
9.6507245e+2, 2.242463e+2, -742560.4, -865986.2, -21512.414, -0.030683765, -0.15710837, -738918.3, 3453.5244, 0.0, 10.000497, 9.998858 
9.650822e+2, 2.3424502e+2, -673129.9, -780392.75, -14317.811, 0.013324864, -0.17406482, -671251.56, -26867.39, 0.0, 10.000295, 9.99887 
9.6509165e+2, 2.4424408e+2, -584622.5, -656606.94, -5167.758, 0.021036418, -0.16571103, -584253.4, -37860.484, 0.0, 10.000099, 9.999141 
9.6510077e+2, 2.542436e+2, -509301.88, -564397.1, -11576.13, -0.019377489, -0.13149169, -506968.44, -58571.625, 0.0, 9.999921, 9.9991865 
9.651101e+2, 2.6424256e+2, -467022.25, -535402.4, -10233.499, -0.028770477, -0.13838789, -465523.6, -115116.164, 0.0, 9.99972, 9.998811 
9.6511984e+2, 2.742407e+2, -406249.5, -455842.03, 9380.733, 0.0029587199, -0.20469683, -404534.4, -152107.8, 0.0, 9.999466, 9.998807 
9.651292e+2, 2.8423998e+2, -296389.97, -281522.2, 10583.767, 0.0059886365, -0.18589553, -276022.44, -121588.52, 0.0, 9.999243, 9.999438 
9.6513826e+2, 2.9424065e+2, -215574.6, -183358.38, -14208.682, -0.028502896, -0.07018886, -177987.25, -121561.07, 0.0, 9.999088, 9.999513 
9.651475e+2, 3.0423972e+2, -170413.89, -123245.63, -26253.625, -0.028755883, -0.12388172, -111538.63, -111538.63, 0.0, 9.999008, 9.99963 
9.651572e+2, 3.1423873e+2, -160593.14, -100804.97, -18566.477, 0.030803362, -0.18400042, -95508.57, -95508.57, 0.00000000015790982, 9.998997, 9.999789 
9.749775e+2, 1.2424788e+2, -1433904.5, -1713468.4, -38750.527, -0.007020972, -0.0035051424, -1428632.8, 293735.75, 0.000057975532, 10.002509, 9.998798 
9.7498786e+2, 1.3424626e+2, -1383846.8, -1644727.1, -16633.867, 0.018236138, -0.04184984, -1382790.5, 241592.44, 0.000014441633, 10.002207, 9.998745 
9.749973e+2, 1.4424507e+2, -1308957.3, -1540625.9, -32074.422, -0.02808818, -0.040201146, -1304598.5, 221795.48, 0.0000005546723, 10.001974, 9.998897 
9.7500694e+2, 1.5424392e+2, -1233480.3, -1449489.1, -23473.588, -0.027002282, -0.05130291, -1230958.9, 197446.53, 0.0, 10.0018015, 9.998932 
9.750166e+2, 1.6424286e+2, -1156054.1, -1332876.6, -29342.494, -0.018545404, -0.05933678, -1151312.1, 179102.45, 0.0, 10.001537, 9.999187 
9.7502625e+2, 1.7424203e+2, -1108483.8, -1253805.0, -26286.135, 0.008207487, -0.06622384, -1103875.3, 128544.984, 0.0, 10.001168, 9.999234 
9.750357e+2, 1.84241e+2, -1058751.1, -1209213.6, -22908.537, 0.008201896, -0.07974683, -1055340.5, 79088.26, 0.0, 10.000965, 9.998967 
9.750448e+2, 1.9423968e+2, -958287.94, -1109755.0, -22513.533, -0.028791657, -0.11165459, -955012.44, 81429.0, 0.0, 10.000981, 9.998968 
9.750542e+2, 2.0423855e+2, -865051.0, -1003225.8, -23124.162, -0.033873774, -0.12355479, -861283.75, 77167.66, 0.0, 10.000901, 9.999066 
9.7506404e+2, 2.1423773e+2, -794652.25, -914715.0, -21951.1, 0.0055053756, -0.11666271, -790764.8, 49692.85, 0.0, 10.000695, 9.999101 
9.7507334e+2, 2.2423668e+2, -727644.7, -834416.94, -30273.691, 0.008245283, -0.12999393, -719658.4, 22808.025, 0.0, 10.000493, 9.999078 
9.75082e+2, 2.342353e+2, -657483.3, -746632.44, -22116.664, -0.039188664, -0.178439, -652298.06, -7819.685, 0.0, 10.000289, 9.9991045 
9.750911e+2, 2.442342e+2, -595425.06, -678519.1, -12714.211, -0.042904746, -0.19264002, -593523.2, -47034.535, 0.0, 10.000096, 9.998993 
9.75101e+2, 2.5423345e+2, -521912.2, -590115.8, -17761.85, 0.011988532, -0.17154412, -517563.8, -69067.03, 0.0, 9.999918, 9.999012 
9.7511035e+2, 2.6423278e+2, -433386.78, -464516.28, -19115.947, 0.024166415, -0.15137143, -424300.34, -73796.81, 0.0, 9.999715, 9.9993 
9.7511905e+2, 2.7423227e+2, -368693.4, -376959.72, 547.282, -0.021118661, -0.13769208, -368657.3, -116149.23, 0.0, 9.999461, 9.999351 
9.751281e+2, 2.8423148e+2, -333556.3, -358799.0, 3953.4543, -0.028532669, -0.13180198, -332951.63, -178435.48, 0.0, 9.999242, 9.998908 
9.7513777e+2, 2.942302e+2, -258983.03, -273160.34, -18545.303, 0.014381036, -0.15061797, -246217.8, -189688.4, 0.0, 9.999086, 9.9988985 
9.7514695e+2, 3.0422905e+2, -149408.63, -77838.17, -26293.426, 0.01467107, -0.20142235, -69217.02, -69217.02, 0.0, 9.999, 9.999947 
9.751556e+2, 3.1423002e+2, -137919.81, -48773.59, -16307.083, -0.03390049, -0.11003146, -45884.26, -45884.26, 0.0, 9.998976, 10.000157 
9.8498e+2, 1.2423787e+2, -1442596.4, -1710370.8, -14351.782, 0.001996401, 0.012016801, -1441829.4, 280638.28, 0.00008015815, 10.002418, 9.998864 
9.8499006e+2, 1.342362e+2, -1391605.3, -1643153.8, 7263.1245, 0.020408522, -0.037047535, -1391395.8, 233086.4, 0.000022452736, 10.00213, 9.998794 
9.8499906e+2, 1.4423501e+2, -1326042.1, -1544072.6, -5147.525, -0.035484806, -0.03832168, -1325920.6, 200572.19, 0.0000013019285, 10.001835, 9.9989395 
9.8500866e+2, 1.5423392e+2, -1272681.8, -1462483.8, -7499.114, -0.016996527, -0.048721418, -1272385.9, 156117.94, 0.0, 10.001509, 9.998983 
9.8501813e+2, 1.6423298e+2, -1189230.3, -1341605.0, -18187.047, -0.0019036608, -0.0518313, -1187089.5, 143422.6, 0.0, 10.001279, 9.999251 
9.8502755e+2, 1.7423232e+2, -1102179.5, -1243598.9, -17632.69, 0.016647737, -0.04971844, -1100014.3, 132502.19, 0.0, 10.001181, 9.999299 
9.8503673e+2, 1.8423134e+2, -1038198.44, -1194140.8, -5501.6597, 0.013032887, -0.06320765, -1038004.56, 96519.73, 0.0, 10.001083, 9.999014 
9.8504585e+2, 1.9422993e+2, -952721.2, -1101858.4, -1952.5741, -0.023695204, -0.106791936, -952695.6, 83841.55, 0.0, 10.000996, 9.999016 
9.850551e+2, 2.0422879e+2, -876558.9, -1007240.2, -7750.409, -0.02731664, -0.124983646, -876100.8, 62446.484, 0.0, 10.000814, 9.999081 
9.850647e+2, 2.1422797e+2, -819849.9, -925380.6, -9161.194, 0.013913724, -0.118534654, -819060.5, 21493.074, 0.0, 10.000515, 9.999114 
9.850738e+2, 2.24227e+2, -754610.8, -838507.44, -19688.879, 0.014126589, -0.12842187, -750220.06, -7658.472, 0.0, 10.000272, 9.999154 
9.8508215e+2, 2.3422581e+2, -678164.9, -747803.7, -23816.8, -0.041666873, -0.1665489, -670798.56, -26227.027, 0.0, 10.00011, 9.999183 
9.850911e+2, 2.4422474e+2, -618539.25, -686900.56, -14622.623, -0.047916476, -0.18188354, -615542.75, -68961.414, 0.0, 9.999927, 9.999017 
9.8510075e+2, 2.5422382e+2, -552204.0, -602631.6, -7214.404, 0.011389435, -0.17845805, -551192.2, -102601.1, 0.0, 9.9997015, 9.99903 
9.8511e+2, 2.6422322e+2, -455026.7, -462396.6, -13269.1, 0.025341649, -0.1610666, -444940.34, -94342.914, 0.0, 9.999514, 9.999411 
9.8511845e+2, 2.74223e+2, -371344.03, -364672.4, -25761.934, -0.021397013, -0.12951842, -342031.22, -89432.35, 0.0, 9.999387, 9.999469 
9.851274e+2, 2.8422222e+2, -325147.38, -356145.47, -18112.352, -0.029864345, -0.12581182, -316807.84, -162201.4, 0.0, 9.999308, 9.998895 
9.851369e+2, 2.9422066e+2, -236108.25, -264949.1, 1993.4414, 0.013633235, -0.17251608, -235971.13, -179348.45, 0.0, 9.999255, 9.998873 
9.85146e+2, 3.0421957e+2, -134281.08, -66946.09, 7340.995, 0.01424288, -0.21760055, -66155.06, -66155.06, 0.0, 9.999089, 9.999977 
9.851544e+2, 3.1422076e+2, -164029.94, -61752.875, -12313.916, -0.035923522, -0.10554148, -60291.195, -60291.195, 0.0, 9.998797, 10.0001545 
9.9498254e+2, 1.2422797e+2, -1433353.5, -1690898.1, -19878.23, 0.013021676, -0.0039950605, -1431828.3, 290736.28, 0.00010704937, 10.002418, 9.998998 
9.949923e+2, 1.3422652e+2, -1382166.0, -1623406.1, -2732.0996, 0.03831009, -0.04505415, -1382135.1, 242441.61, 0.000032992957, 10.002129, 9.998929 
9.9500096e+2, 1.4422548e+2, -1330739.8, -1553856.9, -17687.604, -0.030009827, -0.036199916, -1329346.4, 197239.81, 0.0000026281716, 10.001834, 9.998874 
9.950103e+2, 1.5422447e+2, -1278147.1, -1473985.9, -19315.477, -0.008075369, -0.029072957, -1276260.3, 152336.52, 0.00000000019976186, 10.001508, 9.998905 
9.9501944e+2, 1.6422349e+2, -1187267.0, -1337306.1, -23158.525, -0.0041556647, -0.03450946, -1183773.9, 146831.94, 0.0, 10.001277, 9.999282 
9.950284e+2, 1.7422254e+2, -1098982.6, -1237456.4, -21354.723, -0.013773024, -0.063579634, -1095764.3, 136848.17, 0.0, 10.001182, 9.99934 
9.950376e+2, 1.842216e+2, -1032120.94, -1181684.6, -10057.032, -0.009157387, -0.08149082, -1031447.7, 103172.2, 0.0, 10.001083, 9.999099 
9.9504715e+2, 1.9422062e+2, -946919.0, -1089029.5, -5917.155, 0.011265225, -0.09071452, -946673.06, 89955.08, 0.0, 10.000993, 9.999106 
9.9505633e+2, 2.0421955e+2, -876702.94, -1006675.3, -20021.578, 0.013150216, -0.106112994, -873688.6, 64948.73, 0.0, 10.000811, 9.999087 
9.95065e+2, 2.1421833e+2, -820456.56, -925650.75, -21108.723, -0.0082016215, -0.13998672, -816378.9, 24269.064, 0.0, 10.000511, 9.999114 
9.950738e+2, 2.2421731e+2, -759291.4, -848102.2, -27475.406, -0.013947792, -0.15124056, -751478.6, -8821.747, 0.0, 10.00027, 9.999089 
9.950827e+2, 2.3421656e+2, -682947.6, -757624.9, -29918.309, 0.0018207488, -0.13978478, -672439.8, -27776.445, 0.0, 10.000109, 9.999116 
9.950915e+2, 2.4421573e+2, -606435.06, -661281.0, -23139.744, 0.0013625022, -0.13597333, -597976.75, -51305.973, 0.0, 9.999924, 9.999194 
9.9510014e+2, 2.5421482e+2, -538481.5, -573807.06, -15046.218, -0.021625243, -0.15279528, -532941.6, -84262.17, 0.0, 9.9997, 9.9992285 
9.95109e+2, 2.6421386e+2, -473256.56, -500659.34, -18559.742, -0.024852015, -0.16415441, -463888.66, -113200.086, 0.0, 9.999514, 9.999148 
9.95118e+2, 2.7421296e+2, -392722.5, -408453.7, -29538.754, -0.002368387, -0.17492948, -370020.06, -117322.02, 0.0, 9.999383, 9.999171 
9.9512696e+2, 2.842123e+2, -292865.0, -286871.13, -19338.613, -0.0027879728, -0.16639681, -270298.63, -115594.22, 0.0, 9.999297, 9.999375 
9.9513566e+2, 2.9421198e+2, -198782.55, -184681.5, 1939.0447, -0.032829788, -0.14298286, -184419.72, -127713.086, 0.0, 9.999244, 9.999429 
9.951446e+2, 3.0421117e+2, -153892.86, -106061.516, -2600.23, -0.031936735, -0.17777972, -105920.58, -105920.58, 0.0, 9.999081, 9.999713 
9.951537e+2, 3.1421104e+2, -191373.22, -115327.13, -19984.34, 0.01479649, -0.16457164, -110395.25, -110395.25, 0.0, 9.998783, 9.999793 
1.00498505e+3, 1.2421862e+2, -1424867.0, -1693095.8, 10908.107, 0.01533397, -0.011761213, -1424424.3, 298231.13, 0.0001389771, 10.0025, 9.998945 
1.00499466e+3, 1.342171e+2, -1389060.9, -1633062.0, 6407.2764, 0.055999957, -0.053742863, -1388892.8, 235775.95, 0.000046326506, 10.002109, 9.998874 
1.0050029e+3, 1.4421606e+2, -1320314.4, -1544545.9, -4965.7866, -0.01804806, -0.042769637, -1320204.5, 206473.58, 0.00000474816, 10.001888, 9.998911 
1.005012e+3, 1.5421511e+2, -1223584.6, -1443568.0, 246.3911, -0.00015912674, -0.03432077, -1223584.4, 205103.38, 0.000000004412824, 10.0018635, 9.998944 
1.00502096e+3, 1.642141e+2, -1130288.8, -1325164.1, -3657.9138, 0.00028828875, -0.03670398, -1130220.0, 200476.95, 0.0, 10.001733, 9.999146 
1.0050297e+3, 1.7421311e+2, -1067785.5, -1238396.6, -16458.291, -0.014253576, -0.059264135, -1066212.4, 166492.98, 0.0, 10.001465, 9.999198 
1.0050387e+3, 1.8421209e+2, -1025145.94, -1173766.5, -16587.246, -0.008761104, -0.07611374, -1023317.2, 111396.47, 0.0, 10.001112, 9.999139 
1.005048e+3, 1.942111e+2, -992413.56, -1104753.9, -15706.55, 0.019674081, -0.09282449, -990258.94, 46462.727, 0.0, 10.000653, 9.999162 
1.005057e+3, 2.0421009e+2, -933162.0, -1026776.7, -23356.664, 0.020122448, -0.10856032, -927658.2, 11071.968, 0.0, 10.000394, 9.999148 
1.0050654e+3, 2.1420905e+2, -830658.8, -923763.6, -20507.227, -0.016192336, -0.13139707, -826342.0, 14397.121, 0.0, 10.000412, 9.999174 
1.005074e+3, 2.2420809e+2, -750488.8, -843419.1, -23180.516, -0.023049751, -0.13903454, -745027.56, -2280.0752, 0.0, 10.00033, 9.999093 
1.0050829e+3, 2.3420724e+2, -682926.94, -757720.56, -22409.61, 0.00898253, -0.13714975, -676726.56, -31971.455, 0.0, 10.000111, 9.999114 
1.0050915e+3, 2.442064e+2, -607801.25, -654910.1, -17925.25, 0.013881982, -0.13713975, -601756.25, -54993.66, 0.0, 9.999886, 9.999255 
1.0050999e+3, 2.542056e+2, -539866.44, -566688.94, -20641.256, -0.018288722, -0.14630422, -528662.2, -79892.65, 0.0, 9.99966, 9.999296 
1.0051084e+3, 2.642047e+2, -479297.3, -507666.4, -17798.764, -0.026054423, -0.15697686, -470722.28, -119943.9, 0.0, 9.999493, 9.999109 
1.00511745e+3, 2.7420366e+2, -396044.1, -415569.97, -11052.515, -0.0022379025, -0.17824076, -391060.06, -138270.36, 0.0, 9.999386, 9.99912 
1.0051262e+3, 2.84203e+2, -303378.44, -271539.63, -4491.0596, -0.00420564, -0.17246942, -270918.25, -116122.414, 0.0, 9.999139, 9.999557 
1.0051346e+3, 2.9420298e+2, -261522.44, -192552.92, -12252.737, -0.03916169, -0.1404992, -190440.84, -133645.97, 0.0, 9.998718, 9.999628 
1.00514345e+3, 3.0420244e+2, -216911.22, -131009.43, -11346.777, -0.034806356, -0.16407324, -129535.914, -129535.914, 0.0, 9.998625, 9.999762 
1.0051527e+3, 3.1420222e+2, -166962.84, -101310.914, -1121.1971, 0.02518943, -0.16073538, -101291.77, -101291.77, 0.0, 9.998942, 9.999812 
1.0149872e+3, 1.2420979e+2, -1440542.1, -1724030.9, 4710.7295, -0.012920163, -0.015571268, -1440463.9, 282276.0, 0.00017643356, 10.002494, 9.998735 
1.0149969e+3, 1.34208e+2, -1405108.3, -1665663.9, -7242.341, 0.06917641, -0.06412443, -1404907.1, 219850.31, 0.00006271102, 10.002106, 9.998651 
1.01500496e+3, 1.4420684e+2, -1311985.5, -1527523.5, -7062.979, -0.0033130038, -0.05943379, -1311754.4, 215013.81, 0.000007860604, 10.001888, 9.999029 
1.015014e+3, 1.542059e+2, -1212913.6, -1422154.4, -426.67496, 0.0036091574, -0.063811846, -1212912.8, 215863.42, 0.000000028517778, 10.001865, 9.99909 
1.0150228e+3, 1.6420494e+2, -1151012.4, -1368623.1, -13992.148, 0.007087216, -0.056183178, -1150116.4, 180668.66, 0.0, 10.001734, 9.998848 
1.0150314e+3, 1.74204e+2, -1091244.0, -1286629.5, -26781.033, 0.012694058, -0.036534674, -1087639.6, 145154.9, 0.0, 10.001463, 9.998868 
1.01504005e+3, 1.8420288e+2, -1025489.5, -1174292.9, -34587.31, 0.011750548, -0.048235472, -1017843.06, 116962.01, 0.0, 10.00111, 9.999137 
1.01504855e+3, 1.9420142e+2, -990042.2, -1100634.8, -33423.613, 0.00024661014, -0.11339177, -980725.6, 56091.5, 0.0, 10.000656, 9.999188 
1.01505704e+3, 2.0420046e+2, -925017.3, -1010511.7, -25348.47, -0.008688188, -0.13203108, -918066.75, 20758.244, 0.0, 10.000396, 9.99926 
1.01506576e+3, 2.1420015e+2, -822693.3, -906714.4, -20233.037, -0.012808434, -0.093071505, -818074.9, 22751.803, 0.0, 10.000409, 9.999293 
1.0150744e+3, 2.2419937e+2, -746898.1, -834751.0, -31967.863, -0.016551679, -0.0925281, -736497.06, 6336.073, 0.0, 10.000324, 9.999155 
1.0150827e+3, 2.341979e+2, -678959.0, -749278.0, -30662.076, -0.019588253, -0.1570238, -667467.06, -22620.867, 0.0, 10.000109, 9.999172 
1.0150912e+3, 2.4419683e+2, -611765.2, -663339.8, -27058.684, -0.010382749, -0.18132186, -600173.94, -53317.99, 0.0, 9.999886, 9.999197 
1.0150999e+3, 2.5419632e+2, -544910.0, -576608.4, -28653.182, 0.016394127, -0.15825729, -528014.7, -79153.805, 0.0, 9.999656, 9.99923 
1.0151084e+3, 2.641957e+2, -467980.16, -482494.5, -21659.705, 0.015785564, -0.14232264, -452394.2, -101527.305, 0.0, 9.999485, 9.999286 
1.0151166e+3, 2.7419505e+2, -382070.56, -386154.84, -13392.665, -0.023028834, -0.14372234, -370565.25, -117691.23, 0.0, 9.999383, 9.999323 
1.015125e+3, 2.8419438e+2, -312644.34, -291631.22, -18931.72, -0.035692785, -0.14517705, -280486.06, -125605.47, 0.0, 9.999141, 9.999417 
1.0151336e+3, 2.941937e+2, -274484.1, -218092.92, -26631.39, -0.011569578, -0.15744954, -207504.22, -150617.72, 0.0, 9.998711, 9.999456 
1.0151424e+3, 3.0419335e+2, -193922.77, -80224.29, -824.7517, -0.001215535, -0.17063062, -80218.305, -80218.305, 0.0, 9.998611, 10.000117 
1.0151513e+3, 3.1419414e+2, -141311.66, -43701.55, 13761.854, -0.01148252, -0.10719692, -41798.402, -41798.402, 0.0, 9.998924, 10.0002165 
1.02498986e+3, 1.2420074e+2, -1413967.3, -1719896.4, 267.3877, -0.014530451, -0.03891975, -1413967.0, 308860.44, 0.00021988727, 10.002716, 9.998654 
1.0249992e+3, 1.341991e+2, -1377995.6, -1663532.1, -14133.376, 0.08024268, -0.060426608, -1377297.9, 247546.3, 0.000082442966, 10.002338, 9.998553 
1.025007e+3, 1.4419796e+2, -1289682.0, -1519079.8, -2703.8398, 0.004018391, -0.048381083, -1289650.1, 237204.81, 0.000012107546, 10.002049, 9.99901 
1.02501586e+3, 1.541968e+2, -1218243.0, -1425517.0, -8232.428, 0.009219649, -0.07530373, -1217916.5, 210948.0, 0.00000009714164, 10.001833, 9.999083 
1.0250244e+3, 1.6419569e+2, -1179439.4, -1387984.8, -24489.973, 0.014229842, -0.0781483, -1176602.1, 154272.53, 0.0, 10.001565, 9.9987955 
1.0250329e+3, 1.7419477e+2, -1127811.3, -1311311.3, -18507.355, 0.02607578, -0.05285228, -1125963.3, 106921.41, 0.0, 10.001241, 9.998806 
1.0250413e+3, 1.841937e+2, -1028286.0, -1173811.8, -9710.82, 0.022854563, -0.054998733, -1027640.9, 107254.04, 0.0, 10.001083, 9.999153 
1.0250493e+3, 1.9419242e+2, -913827.0, -1060960.0, -9307.839, -0.0038606205, -0.104563825, -913240.5, 123664.84, 0.0, 10.001167, 9.999214 
1.0250577e+3, 2.0419146e+2, -839555.7, -967399.44, -7342.214, -0.017628128, -0.123700276, -839135.4, 99777.49, 0.0, 10.000975, 9.999276 
1.02506615e+3, 2.1419095e+2, -821416.4, -904175.8, -10694.053, -0.013852254, -0.10869843, -820056.9, 20859.479, 0.0, 10.00041, 9.99931 
1.0250746e+3, 2.2419013e+2, -782005.06, -846401.3, -21217.604, -0.015438908, -0.11517866, -775642.8, -32719.795, 0.0, 10.000061, 9.999201 
1.0250826e+3, 2.3418891e+2, -689792.3, -748784.44, -21325.326, -0.024434283, -0.15973246, -682890.75, -37956.797, 0.0, 10.000012, 9.999222 
1.02509096e+3, 2.4418792e+2, -613038.75, -663195.4, -19729.096, -0.0146874655, -0.17825359, -606208.44, -59265.46, 0.0, 9.999875, 9.999203 
1.02509946e+3, 2.5418723e+2, -552254.75, -580123.4, -17993.836, 0.020292133, -0.17185426, -543430.7, -94481.19, 0.0, 9.999605, 9.999229 
1.0251079e+3, 2.6418668e+2, -479695.7, -479081.38, -7657.3394, 0.020499395, -0.15615532, -471725.03, -120769.89, 0.0, 9.999366, 9.999366 
1.02511585e+3, 2.741863e+2, -407695.38, -388011.13, -9432.05, -0.026586236, -0.13439204, -384221.28, -131262.02, 0.0, 9.999164, 9.999414 
1.02512404e+3, 2.8418574e+2, -339411.34, -318800.4, -22573.36, -0.03896251, -0.12828894, -304291.38, -149325.94, 0.0, 9.999021, 9.999288 
1.02513246e+3, 2.9418477e+2, -250213.48, -223097.16, -28824.662, -0.0032972028, -0.15541887, -204801.2, -147826.47, 0.0, 9.99895, 9.999306 
1.0251411e+3, 3.0418435e+2, -164093.2, -50162.426, 86.88013, 0.008266533, -0.17121147, -50162.36, -50162.36, 0.0, 9.998751, 10.000255 
1.0251499e+3, 3.1418526e+2, -214540.22, -62963.77, -6267.2954, -0.015817408, -0.11367765, -62705.08, -62705.08, 0.0, 9.998351, 10.0003605 
1.0349927e+3, 1.2419148e+2, -1413556.9, -1718515.9, -5719.1387, -0.004178667, -0.08524838, -1413449.6, 309468.03, 0.00026982953, 10.002714, 9.998665 
1.0350016e+3, 1.341905e+2, -1376892.8, -1661237.4, -27793.62, 0.08530555, -0.041934773, -1374201.5, 250726.64, 0.00010582585, 10.002337, 9.9985695 
1.035009e+3, 1.441895e+2, -1300323.9, -1541217.1, -11482.676, -0.00070400175, -0.007447457, -1299777.8, 227160.03, 0.000017580334, 10.002049, 9.998858 
1.0350177e+3, 1.5418786e+2, -1229519.3, -1448460.6, -16035.684, 0.014769964, -0.06927975, -1228351.0, 200601.36, 0.00000023822265, 10.001831, 9.998925 
1.0350261e+3, 1.6418643e+2, -1166137.4, -1361465.0, -37392.082, 0.020161362, -0.10411341, -1159224.0, 171741.14, 0.0, 10.001568, 9.998977 
1.0350342e+3, 1.7418543e+2, -1112677.8, -1280672.1, -30880.775, 0.023170687, -0.10803223, -1107181.1, 125794.01, 0.0, 10.001244, 9.999016 
1.03504226e+3, 1.8418463e+2, -1026446.25, -1170176.6, -8955.099, 0.020340553, -0.09453531, -1025890.44, 109091.85, 0.0, 10.001083, 9.999178 
1.0350507e+3, 1.9418415e+2, -913562.56, -1059479.1, -6680.5054, 0.005770675, -0.065915465, -913257.3, 123728.336, 0.0, 10.0011635, 9.999227 
1.0350587e+3, 2.0418318e+2, -845483.5, -978692.4, -28107.344, -0.008316825, -0.08400124, -839795.6, 99197.805, 0.0, 10.00097, 9.999202 
1.03506655e+3, 2.141815e+2, -826825.75, -915957.1, -32525.893, -0.02028868, -0.17754534, -816218.7, 24788.86, 0.0, 10.000412, 9.9992285 
1.0350746e+3, 2.2418043e+2, -779676.75, -842247.1, -25852.205, -0.021711426, -0.20462261, -770377.5, -27361.016, 0.0, 10.000063, 9.9992285 
1.03508286e+3, 2.341803e+2, -687565.06, -743886.6, -23140.879, -0.008398703, -0.1465243, -679276.9, -34258.86, 0.0, 10.00001, 9.999257 
1.0350909e+3, 2.4417968e+2, -609484.0, -654160.3, -29511.94, -0.0027174703, -0.13179906, -594809.4, -47785.742, 0.0, 9.999867, 9.999268 
1.0350989e+3, 2.5417846e+2, -547140.9, -570066.9, -27302.264, -0.0070897317, -0.18759397, -528992.8, -79957.87, 0.0, 9.999607, 9.999298 
1.0351069e+3, 2.6417768e+2, -481488.2, -483648.72, -15220.703, -0.011830043, -0.19508138, -467309.47, -116266.93, 0.0, 9.999369, 9.999333 
1.0351151e+3, 2.7417755e+2, -411535.97, -394728.72, -16300.307, -0.016856445, -0.14514741, -384793.28, -131748.48, 0.0, 9.999157, 9.9993725 
1.0351233e+3, 2.8417706e+2, -347871.9, -333945.8, -25344.068, -0.01924052, -0.12057376, -314625.7, -159575.45, 0.0, 9.99901, 9.999188 
1.0351314e+3, 2.9417613e+2, -256685.38, -236629.44, -29004.75, -0.017485127, -0.13944574, -215968.06, -158908.38, 0.0, 9.998951, 9.999212 
1.0351398e+3, 3.0417547e+2, -170268.47, -64528.33, -12248.411, -0.008793778, -0.1694784, -63128.074, -63128.074, 0.0, 9.998755, 10.0001545 
1.0351484e+3, 3.1417567e+2, -224444.45, -81200.62, -18275.0, 0.005881601, -0.17285863, -78905.86, -78905.86, 0.0, 9.99834, 10.000241 
1.0449955e+3, 1.2418302e+2, -1422280.6, -1726340.9, 15686.168, 0.013981958, -0.07625302, -1421473.5, 301526.8, 0.00032683904, 10.002666, 9.998634 
1.0450039e+3, 1.341818e+2, -1350944.0, -1651804.6, -19228.559, 0.081100225, -0.056468483, -1349720.1, 275293.03, 0.00013321284, 10.002528, 9.998543 
1.045011e+3, 1.4418077e+2, -1265644.6, -1527153.1, 480.22217, -0.013569201, -0.023479266, -1265643.8, 261379.4, 0.000024406861, 10.002301, 9.998832 
1.0450196e+3, 1.5417929e+2, -1217985.5, -1446621.4, 2986.5637, 0.02328248, -0.06341462, -1217946.5, 211089.89, 0.0000004785213, 10.0019245, 9.998894 
1.0450278e+3, 1.6417792e+2, -1146894.1, -1344019.3, -12732.364, 0.033347867, -0.09465211, -1146075.1, 184973.53, 0.0, 10.001665, 9.99905 
1.0450355e+3, 1.7417678e+2, -1057332.8, -1244115.1, -16178.368, 0.01691023, -0.1187332, -1055941.8, 177117.23, 0.0, 10.001582, 9.999102 
1.0450435e+3, 1.84176e+2, -986752.4, -1145477.6, 2455.2886, 0.0106538255, -0.11356619, -986714.4, 148351.55, 0.0, 10.001334, 9.999226 
1.04505174e+3, 1.9417565e+2, -953095.25, -1073707.6, 6657.3643, 0.013196797, -0.0767253, -952728.9, 84339.09, 0.0, 10.000872, 9.999269 
1.0450597e+3, 2.041747e+2, -901241.2, -1014521.25, -14497.033, 0.0051972843, -0.0903611, -899415.4, 39660.332, 0.0, 10.000627, 9.99912 
1.04506716e+3, 2.1417293e+2, -792756.2, -909579.2, -20801.43, -0.016224304, -0.18261695, -789162.8, 51928.31, 0.0, 10.00069, 9.999137 
1.0450748e+3, 2.2417185e+2, -721777.06, -818417.1, -18987.992, -0.023052087, -0.20699517, -718180.2, 24920.639, 0.0, 10.000479, 9.999192 
1.0450827e+3, 2.3417167e+2, -707940.0, -757373.9, -22929.152, -0.01037991, -0.1462522, -698942.3, -53839.875, 0.0, 9.999885, 9.999225 
1.0450907e+3, 2.441711e+2, -652150.8, -669947.2, -24873.88, -0.0059884405, -0.12989631, -634631.44, -87523.59, 0.0, 9.999553, 9.9993105 
1.0450984e+3, 2.5416994e+2, -547491.9, -563855.75, -24612.475, -0.012579553, -0.18316554, -529737.0, -80618.79, 0.0, 9.999579, 9.999352 
1.04510635e+3, 2.6416913e+2, -470829.63, -488705.47, -19097.059, -0.014142337, -0.19255212, -458682.38, -107556.35, 0.0, 9.999487, 9.999241 
1.0451144e+3, 2.741688e+2, -408203.75, -405104.1, -25376.781, -0.009260695, -0.15301624, -381229.84, -128099.28, 0.0, 9.999231, 9.999265 
1.0451223e+3, 2.8416827e+2, -341277.16, -327407.1, -26575.62, -0.010487775, -0.1286498, -306876.53, -151739.98, 0.0, 9.99904, 9.999218 
1.0451303e+3, 2.9416752e+2, -258908.6, -232596.17, -22633.389, -0.017475037, -0.13205193, -219573.08, -162429.02, 0.0, 9.998914, 9.999257 
1.0451385e+3, 3.0416688e+2, -190950.69, -86519.74, -11800.877, -0.009819995, -0.15844269, -85202.83, -85202.83, 0.0, 9.998666, 10.000047 
1.0451469e+3, 3.1416675e+2, -244221.58, -105134.43, -19841.982, 0.013275783, -0.18175574, -102359.18, -102359.18, 0.0, 9.998267, 10.000111 
1.0549983e+3, 1.24175414e+2, -1426287.6, -1733892.4, 19499.146, 0.021252474, -0.014509968, -1425056.5, 298018.47, 0.00039134276, 10.002663, 9.998585 
1.0550064e+3, 1.3417304e+2, -1354570.0, -1659404.4, -23402.84, 0.06699501, -0.103638954, -1352783.8, 272314.28, 0.00016489324, 10.002528, 9.99849 
1.0550132e+3, 1.4417177e+2, -1259162.4, -1515016.3, -13181.775, -0.0360265, -0.09659825, -1258485.0, 268625.3, 0.000032768054, 10.002305, 9.998914 
1.0550217e+3, 1.5417117e+2, -1212109.3, -1433803.8, -11101.879, 0.030875077, -0.057205915, -1211554.8, 217561.08, 0.0000008393984, 10.001922, 9.998983 
1.0550296e+3, 1.6417024e+2, -1149806.3, -1349898.1, -17530.09, 0.0484678, -0.047563624, -1148282.1, 182842.06, 0.0, 10.001663, 9.999011 
1.055037e+3, 1.7416894e+2, -1060706.0, -1250915.4, -19404.686, 0.0063156076, -0.08480723, -1058746.5, 174389.25, 0.0, 10.001581, 9.999056 
1.0550445e+3, 1.8416782e+2, -981832.3, -1135625.5, -15105.808, -0.007317805, -0.11280912, -980362.7, 154782.64, 0.0, 10.001335, 9.999293 
1.0550526e+3, 1.9416693e+2, -947377.3, -1062336.1, -11371.941, 0.01627491, -0.13766116, -946263.2, 90888.63, 0.0, 10.000873, 9.999347 
1.0550604e+3, 2.0416607e+2, -907765.7, -1028025.3, -14982.735, 0.019513957, -0.14183673, -905927.2, 33231.79, 0.0, 10.000626, 9.999028 
1.055068e+3, 2.1416529e+2, -800894.75, -925748.5, -18747.41, -0.0037887862, -0.12549728, -798140.44, 43026.29, 0.0, 10.000687, 9.999028 
1.0550753e+3, 2.2416432e+2, -729312.4, -833292.8, -40533.598, -0.02180208, -0.12562175, -715378.75, 27797.145, 0.0, 10.000474, 9.999092 
1.0550825e+3, 2.3416314e+2, -713773.44, -771316.4, -45344.566, -0.031439256, -0.15890841, -688842.75, -43655.863, 0.0, 9.999891, 9.9991255 
1.05509e+3, 2.4416223e+2, -650050.6, -667172.25, -26056.656, -0.025832023, -0.16970077, -631184.5, -83989.586, 0.0, 9.999559, 9.999328 
1.0550982e+3, 2.5416175e+2, -545944.8, -560045.0, -23083.172, 0.00092657714, -0.15843043, -528859.1, -79660.32, 0.0, 9.999575, 9.999382 
1.0551061e+3, 2.6416105e+2, -481698.78, -509190.28, -27939.055, 0.010091133, -0.15225707, -464307.16, -113101.53, 0.0, 9.999477, 9.999105 
1.0551137e+3, 2.741601e+2, -418446.3, -426828.88, -33510.68, -0.007210306, -0.16082326, -388865.8, -135649.53, 0.0, 9.999233, 9.999115 
1.05512135e+3, 2.8415936e+2, -332087.63, -309353.34, -30493.813, -0.015100988, -0.15239127, -288176.9, -132952.92, 0.0, 9.999043, 9.999341 
1.05512924e+3, 2.9415902e+2, -250390.39, -212458.78, -25949.186, -0.006509123, -0.12886824, -199283.3, -142055.98, 0.0, 9.998902, 9.999401 
1.0551372e+3, 3.0415863e+2, -199741.53, -101733.32, -25967.994, 0.0013521181, -0.1356921, -95278.08, -95278.08, 0.0, 9.9986515, 9.9999485 
1.05514504e+3, 3.1415853e+2, -251218.45, -120767.36, -31816.65, -0.0006424362, -0.14360906, -113421.07, -113421.07, 0.0, 9.998271, 10.000002 
1.0650009e+3, 1.241672e+2, -1408683.5, -1708969.1, 36353.79, 0.012891578, -0.030113647, -1404345.1, 318810.3, 0.00046328275, 10.002717, 9.99873 
1.06500894e+3, 1.3416511e+2, -1376913.4, -1652976.9, -3788.2607, 0.07708557, -0.104856804, -1376861.4, 248313.38, 0.00020096678, 10.002299, 9.998646 
1.06501535e+3, 1.4416394e+2, -1301154.8, -1543366.9, 13119.427, -0.022638122, -0.09370704, -1300446.3, 226739.72, 0.000042859534, 10.002052, 9.99884 
1.06502354e+3, 1.5416309e+2, -1207764.1, -1441711.8, 134.73286, 0.02816372, -0.07070308, -1207764.0, 221430.44, 0.0000013547858, 10.001997, 9.998892 
1.0650314e+3, 1.6416211e+2, -1123349.8, -1335108.3, -9262.626, 0.042115588, -0.06169149, -1122945.4, 208258.16, 0.0, 10.00184, 9.999025 
1.0650386e+3, 1.7416105e+2, -1061490.5, -1248683.5, -6399.884, 0.011858047, -0.07779811, -1061271.9, 171940.63, 0.0, 10.001565, 9.999079 
1.0650459e+3, 1.841599e+2, -991510.25, -1152905.5, -9392.828, -0.001827697, -0.10274798, -990965.44, 144256.66, 0.0, 10.001323, 9.99918 
1.0650535e+3, 1.9415869e+2, -916659.56, -1061422.8, -22083.969, 0.004010828, -0.14795782, -913365.56, 123866.86, 0.0, 10.001144, 9.999221 
1.065061e+3, 2.0415775e+2, -874536.6, -1012424.25, -25888.844, 0.005957271, -0.15328193, -869836.1, 69404.64, 0.0, 10.000856, 9.999024 
1.0650686e+3, 2.1415722e+2, -838837.94, -943188.25, -21595.922, 0.0032992668, -0.111878, -834545.1, 6701.1772, 0.0, 10.0004225, 9.999035 
1.0650758e+3, 2.2415635e+2, -763104.94, -849224.56, -34935.563, -0.006766347, -0.10431771, -750715.3, -7460.7173, 0.0, 10.00024, 9.999095 
1.0650826e+3, 2.3415501e+2, -637904.0, -733789.7, -33198.176, -0.026647797, -0.15259708, -627531.9, 17734.754, 0.0, 10.00041, 9.999133 
1.06508985e+3, 2.4415402e+2, -561953.6, -636143.0, -18225.006, -0.028623205, -0.16862908, -557718.4, -10442.833, 0.0, 10.000215, 9.999225 
1.0650975e+3, 2.5415346e+2, -562569.5, -580882.2, -26994.908, -0.0061551067, -0.15150197, -543220.3, -93940.09, 0.0, 9.999516, 9.999268 
1.0651052e+3, 2.641527e+2, -523048.28, -525342.25, -21075.455, 0.0027899563, -0.14815292, -503088.63, -151800.9, 0.0, 9.999176, 9.999139 
1.06511295e+3, 2.7415168e+2, -403135.78, -413562.03, -12624.761, -0.007384115, -0.169363, -394690.16, -141391.72, 0.0, 9.999313, 9.999167 
1.0651205e+3, 2.8415096e+2, -316724.1, -306110.63, -16471.06, -0.012966971, -0.16039743, -294112.53, -138806.64, 0.0, 9.999168, 9.999303 
1.0651281e+3, 2.9415074e+2, -288645.97, -236225.45, -26893.107, -0.010773341, -0.1212662, -224882.86, -167573.92, 0.0, 9.998663, 9.999352 
1.06513575e+3, 3.0415037e+2, -232036.7, -107194.984, -22097.242, -0.00020055023, -0.12675133, -103399.14, -103399.14, 0.0, 9.998388, 10.000037 
1.0651434e+3, 3.1415036e+2, -229897.55, -98939.65, -16214.27, 0.016881853, -0.13405097, -96961.98, -96961.98, 0.0, 9.998369, 10.000103 
1.07500315e+3, 1.24158464e+2, -1386977.0, -1663199.4, 31763.172, -0.023568824, -0.122787654, -1383371.6, 339868.97, 0.000542142, 10.002716, 9.999043 
1.0750115e+3, 1.341581e+2, -1353421.6, -1602484.8, -18914.705, 0.10739456, -0.059827697, -1351993.4, 273249.03, 0.00024133897, 10.002293, 9.998996 
1.075018e+3, 1.4415736e+2, -1317363.4, -1576166.8, 9965.052, 0.020935057, -0.014015684, -1316980.1, 210268.98, 0.0000548195, 10.002048, 9.998618 
1.0750255e+3, 1.5415512e+2, -1226902.8, -1481811.5, -1618.3711, 0.014278365, -0.10266411, -1226892.5, 202379.13, 0.000002073113, 10.001998, 9.998615 
1.07503295e+3, 1.6415359e+2, -1118053.5, -1325158.8, -20002.715, 0.012972028, -0.1365947, -1116139.3, 215146.75, 0.0000000000166348, 10.001843, 9.999092 
1.07504025e+3, 1.7415316e+2, -1055015.6, -1234874.5, -16833.777, 0.030809848, -0.09828369, -1053453.8, 179834.86, 0.0, 10.001563, 9.999175 
1.0750475e+3, 1.8415236e+2, -1012723.5, -1196559.4, -17615.746, 0.022418575, -0.0826274, -1011050.7, 124244.96, 0.0, 10.001321, 9.998881 
1.0750543e+3, 1.94151e+2, -940555.75, -1110730.3, -29246.895, -0.024698934, -0.10775896, -935669.56, 101639.625, 0.0, 10.0011425, 9.998884 
1.07506156e+3, 2.041498e+2, -868835.5, -1000813.56, -42791.535, -0.036500216, -0.12541339, -856175.56, 83145.125, 0.0, 10.000856, 9.9991045 
1.0750689e+3, 2.141488e+2, -830149.9, -925927.2, -38473.33, 0.0030270154, -0.14146185, -816609.56, 24719.686, 0.0, 10.000424, 9.999153 
1.0750763e+3, 2.2414798e+2, -755515.1, -833652.56, -31486.352, 0.019165486, -0.14131854, -744406.6, -1070.2565, 0.0, 10.00024, 9.999203 
1.0750834e+3, 2.3414737e+2, -631162.8, -718885.44, -26645.32, 0.0019258917, -0.1277127, -623703.7, 21637.727, 0.0, 10.000404, 9.999239 
1.07509024e+3, 2.4414647e+2, -578042.44, -668193.94, -42352.99, -0.016595202, -0.12946634, -561266.75, -13917.183, 0.0, 10.000208, 9.999008 
1.0750968e+3, 2.5414518e+2, -579522.44, -616889.8, -52734.957, -0.03617938, -0.16257203, -542259.25, -92897.16, 0.0, 9.999518, 9.999019 
1.075104e+3, 2.6414415e+2, -509112.56, -497575.7, -17701.982, -0.037008572, -0.17834392, -484726.0, -133354.36, 0.0, 9.99918, 9.999329 
1.07511215e+3, 2.7414358e+2, -388160.63, -380413.6, -6310.4067, -0.011465076, -0.17725235, -376882.7, -123506.016, 0.0, 9.999303, 9.9994 
1.07511975e+3, 2.8414306e+2, -331490.3, -333649.34, -33926.53, -0.006575378, -0.15359703, -298626.13, -143243.89, 0.0, 9.999154, 9.999121 
1.07512645e+3, 2.9414263e+2, -303489.06, -267528.2, -44103.81, -0.03318322, -0.111459374, -237880.47, -180491.73, 0.0, 9.998665, 9.999137 
1.0751339e+3, 3.0414212e+2, -214107.73, -72099.555, -22216.172, -0.016581789, -0.13206983, -68705.13, -68705.13, 0.0, 9.998395, 10.000276 
1.0751422e+3, 3.1414238e+2, -211056.02, -58036.34, -14654.285, 0.059564404, -0.1451487, -56645.58, -56645.58, 0.0, 9.99836, 10.000389 
1.0850062e+3, 1.2415108e+2, -1369574.1, -1668091.1, 64856.76, -0.0048469556, -0.122967094, -1356092.0, 367220.22, 0.0006273791, 10.002894, 9.998923 
1.0850139e+3, 1.3415055e+2, -1320050.6, -1598738.6, -33472.73, 0.10752451, -0.06697879, -1316086.6, 309229.75, 0.0002858709, 10.002577, 9.998884 
1.08502e+3, 1.4414972e+2, -1284214.8, -1561515.1, -6635.176, 0.016693266, -0.020869482, -1284056.1, 243267.67, 0.00006870092, 10.002284, 9.998603 
1.08502746e+3, 1.5414748e+2, -1226534.8, -1482891.4, -435.7592, 0.014664289, -0.10834318, -1226534.0, 202811.98, 0.0000030594845, 10.002007, 9.998604 
1.0850347e+3, 1.6414592e+2, -1132924.8, -1337544.4, -13487.416, 0.013200397, -0.14468111, -1132039.6, 199321.19, 0.000000000186287, 10.001763, 9.999045 
1.0850418e+3, 1.7414537e+2, -1057075.5, -1241041.6, -22304.043, 0.023845807, -0.11304097, -1054409.9, 178954.61, 0.0, 10.001574, 9.999126 
1.08504884e+3, 1.8414453e+2, -1013056.7, -1207839.1, -19939.541, 0.015542849, -0.09142703, -1011036.5, 124335.73, 0.0, 10.0013685, 9.998781 
1.08505554e+3, 1.9414331e+2, -945557.06, -1124865.6, -14903.804, -0.023496687, -0.093896754, -944326.75, 93058.74, 0.0, 10.00116, 9.998778 
1.0850624e+3, 2.0414214e+2, -847480.8, -979428.44, -21460.273, -0.03127239, -0.107011594, -844078.25, 95318.51, 0.0, 10.000956, 9.999203 
1.08506955e+3, 2.1414107e+2, -772200.06, -884580.6, -18248.855, 0.005381592, -0.14249264, -769311.0, 72094.0, 0.0, 10.000766, 9.999272 
1.0850766e+3, 2.2414018e+2, -731372.8, -826738.0, -11627.021, 0.019772917, -0.15247883, -729975.75, 13436.41, 0.0, 10.000427, 9.999161 
1.0850835e+3, 2.3413955e+2, -710665.94, -763743.7, -19923.748, 0.0018380792, -0.1365687, -704019.44, -58601.74, 0.0, 9.9998865, 9.99918 
1.0850902e+3, 2.4413861e+2, -665471.3, -716557.4, -39309.785, -0.013709981, -0.13546978, -644134.6, -96708.25, 0.0, 9.999634, 9.998953 
1.0850965e+3, 2.541373e+2, -546679.5, -606835.94, -36453.98, -0.024979565, -0.16417892, -529496.8, -80057.59, 0.0, 9.999769, 9.998967 
1.0851035e+3, 2.6413628e+2, -452128.34, -465768.7, 1232.0488, -0.02769007, -0.17927259, -452017.97, -100569.22, 0.0, 9.999554, 9.999367 
1.0851112e+3, 2.741357e+2, -448238.78, -404626.88, -1702.882, -0.01932139, -0.18384299, -404560.47, -151107.08, 0.0, 9.99887, 9.999442 
1.0851184e+3, 2.841352e+2, -414128.72, -374181.03, -24552.115, -0.017017027, -0.16333862, -362504.28, -207045.39, 0.0, 9.9985895, 9.999114 
1.0851252e+3, 2.9413477e+2, -279885.9, -257610.55, -21117.451, -0.0228018, -0.11943039, -244873.66, -187408.13, 0.0, 9.998834, 9.999124 
1.0851326e+3, 3.041342e+2, -166287.52, -47957.36, -4819.3154, -0.009215601, -0.14560376, -47761.402, -47761.402, 0.0, 9.998719, 10.000285 
1.08514026e+3, 3.1413463e+2, -237469.92, -67134.16, -18623.04, 0.029530246, -0.14007099, -65121.848, -65121.848, 0.0, 9.998164, 10.00042 
1.09500974e+3, 1.2414509e+2, -1408381.9, -1746624.6, 64642.266, 0.057648785, -0.03291386, -1396449.0, 326920.97, 0.0007190712, 10.002886, 9.998387 
1.0950161e+3, 1.3414252e+2, -1359412.8, -1681295.8, -44390.71, 0.074902095, -0.12427613, -1353403.0, 271992.3, 0.00033462446, 10.00258, 9.998317 
1.09502174e+3, 1.4414112e+2, -1270938.1, -1534569.3, -17440.9, -0.038199745, -0.112777166, -1269789.3, 257619.5, 0.000084530904, 10.002287, 9.998787 
1.09502956e+3, 1.5414025e+2, -1210014.3, -1447965.5, -10423.899, 0.026202248, -0.08873166, -1209558.5, 219858.53, 0.0000043925156, 10.002004, 9.998845 
1.0950367e+3, 1.6413912e+2, -1144316.4, -1360920.0, -21738.818, 0.038069203, -0.08655389, -1142156.1, 189271.0, 0.0000000006358386, 10.001761, 9.998886 
1.0950431e+3, 1.7413771e+2, -1071107.0, -1270494.0, -29582.521, -0.010637248, -0.121246986, -1066810.5, 166629.25, 0.0, 10.0015745, 9.998924 
1.0950497e+3, 1.8413652e+2, -1006374.75, -1194214.5, -29041.846, -0.025171045, -0.12851728, -1001987.1, 133464.1, 0.0, 10.0013685, 9.998875 
1.095057e+3, 1.9413567e+2, -937184.25, -1107120.3, -23245.033, 0.005297571, -0.10661628, -934062.0, 103398.85, 0.0, 10.001158, 9.998901 
1.0950638e+3, 2.0413482e+2, -839623.7, -962573.7, -29958.123, 0.018449346, -0.097731054, -832712.5, 106755.945, 0.0, 10.000952, 9.999321 
1.0950705e+3, 2.1413407e+2, -764497.25, -868218.0, -25807.967, 0.008479837, -0.115260534, -758430.5, 83042.65, 0.0, 10.000763, 9.999387 
1.0950768e+3, 2.2413301e+2, -744718.8, -854636.0, -32293.729, -0.006469875, -0.13829952, -735933.1, 7548.45, 0.0, 10.000427, 9.998969 
1.0950831e+3, 2.3413159e+2, -725747.44, -795855.6, -40496.797, -0.02803583, -0.17841032, -707240.56, -61745.46, 0.0, 9.999889, 9.998959 
1.0950897e+3, 2.441305e+2, -657888.0, -701513.6, -36390.24, -0.021639254, -0.18547449, -637273.9, -89768.35, 0.0, 9.999636, 9.999056 
1.0950968e+3, 2.5412992e+2, -537938.25, -587213.4, -30625.646, 0.024270967, -0.15633063, -523270.06, -73758.68, 0.0, 9.999763, 9.999106 
1.0951036e+3, 2.6412913e+2, -460735.5, -482236.0, -22156.127, 0.027130477, -0.15209423, -446859.3, -95340.45, 0.0, 9.999547, 9.999257 
1.0951099e+3, 2.7412808e+2, -456873.94, -423746.06, -26342.11, -0.03326376, -0.18944356, -409192.97, -155664.72, 0.0, 9.998875, 9.999309 
1.0951168e+3, 2.8412735e+2, -402944.38, -352516.9, -17136.049, -0.045397427, -0.18786497, -347244.97, -191709.7, 0.0, 9.998595, 9.99926 
1.0951245e+3, 2.941271e+2, -269404.63, -233161.64, -10233.452, 0.015247852, -0.14453356, -230471.8, -172932.63, 0.0, 9.998821, 9.999298 
1.09513156e+3, 3.0412653e+2, -183354.67, -80111.336, -23999.254, 0.016430726, -0.16785736, -74805.32, -74805.32, 0.0, 9.998705, 10.000072 
1.0951373e+3, 3.1412718e+2, -251463.9, -97118.56, -37119.59, -0.07413825, -0.11740725, -88655.46, -88655.46, 0.0, 9.998167, 10.000213 
1.1050127e+3, 1.2413805e+2, -1381736.3, -1750649.1, 47939.824, 0.055796735, -0.024384523, -1375608.3, 347830.8, 0.000818133, 10.003142, 9.998236 
1.1050187e+3, 1.3413528e+2, -1368376.1, -1701985.0, -45353.035, 0.068921514, -0.120686315, -1362320.5, 263146.56, 0.00038809632, 10.002585, 9.998173 
1.1050241e+3, 1.4413388e+2, -1279614.9, -1531370.4, 3086.823, -0.032962807, -0.10646073, -1279577.1, 247903.69, 0.000102482416, 10.002195, 9.998853 
1.1050316e+3, 1.5413311e+2, -1207927.0, -1437187.1, -2773.0894, 0.032710038, -0.07763309, -1207893.5, 221593.86, 0.0000061708192, 10.001978, 9.998931 
1.1050386e+3, 1.6413201e+2, -1144071.0, -1363006.8, -11622.794, 0.044672653, -0.07606145, -1143455.6, 188041.4, 0.0000000015512864, 10.001776, 9.998864 
1.1050447e+3, 1.7413051e+2, -1066268.9, -1271845.9, -7779.6226, -0.009028186, -0.119075574, -1065974.9, 167535.83, 0.0, 10.001624, 9.998891 
1.1050511e+3, 1.8412927e+2, -996941.06, -1181458.1, -3236.1848, -0.023642456, -0.13258642, -996884.3, 138638.08, 0.0, 10.001398, 9.998948 
1.1050581e+3, 1.9412847e+2, -942772.3, -1100230.4, -1267.9402, 0.012723276, -0.1130209, -942762.06, 94768.96, 0.0, 10.001079, 9.998986 
1.1050648e+3, 2.0412767e+2, -865638.4, -984768.2, -13003.53, 0.024189401, -0.101610616, -864235.5, 75302.82, 0.0, 10.000815, 9.999234 
1.105071e+3, 2.1412687e+2, -790329.8, -892069.5, -25808.352, 0.0013716525, -0.11081663, -784157.5, 57386.32, 0.0, 10.000636, 9.999284 
1.1050771e+3, 2.2412579e+2, -743908.9, -857951.94, -41322.113, -0.0168935, -0.13152076, -730510.44, 13042.49, 0.0, 10.000449, 9.998936 
1.10508315e+3, 2.3412429e+2, -674654.9, -774342.0, -36620.1, -0.02892255, -0.17749639, -662648.5, -17081.41, 0.0, 10.000255, 9.998931 
1.1050895e+3, 2.4412319e+2, -611075.8, -672409.8, -19549.926, -0.01867814, -0.18667349, -605374.4, -57796.96, 0.0, 9.99993, 9.999114 
1.1050964e+3, 2.5412267e+2, -580431.5, -600782.56, -19826.111, 0.022304876, -0.15498525, -568322.1, -118739.84, 0.0, 9.999441, 9.999167 
1.10510305e+3, 2.6412192e+2, -513782.1, -517337.38, -16027.719, 0.026860802, -0.14787863, -499433.75, -147844.11, 0.0, 9.999224, 9.999171 
1.10510916e+3, 2.741208e+2, -391839.16, -403495.97, -19043.258, -0.020791845, -0.17988226, -377752.34, -124152.37, 0.0, 9.999371, 9.999209 
1.1051157e+3, 2.8412008e+2, -319162.9, -303794.1, -10453.839, -0.034040958, -0.17738295, -298504.2, -142897.22, 0.0, 9.999136, 9.999334 
1.105123e+3, 2.9411983e+2, -325490.34, -250505.73, -10703.936, 0.004316806, -0.14236449, -249007.69, -191397.94, 0.0, 9.998394, 9.999384 
1.1051298e+3, 3.0411905e+2, -272965.16, -134699.22, -16193.752, 0.0004558507, -0.18712065, -132827.92, -132827.92, 0.0, 9.998138, 9.9999695 
1.10513575e+3, 3.1411967e+2, -203949.39, -82528.73, -23113.484, -0.06684684, -0.12997884, -78277.7, -78277.7, 0.0, 9.998529, 10.000139 
1.11501515e+3, 1.2412998e+2, -1366350.0, -1717637.8, 40858.656, -0.017964173, -0.10254896, -1361660.3, 361859.34, 0.00092609524, 10.0031395, 9.998464 
1.1150213e+3, 1.3412887e+2, -1349882.8, -1663418.0, -65176.977, 0.08584479, -0.05791011, -1336873.8, 288657.16, 0.00044726714, 10.002584, 9.998439 
1.11502685e+3, 1.4412802e+2, -1282393.4, -1536875.6, -6466.4697, 0.02834137, -0.0034619195, -1282229.1, 245310.14, 0.00012295434, 10.002193, 9.9988165 
1.11503355e+3, 1.541262e+2, -1212553.0, -1447015.9, -10864.259, 0.030741174, -0.07362697, -1212050.6, 217505.69, 0.000008505592, 10.001979, 9.998863 
1.1150402e+3, 1.6412473e+2, -1136238.0, -1347079.3, -18707.49, 0.02882408, -0.11166071, -1134591.0, 196978.7, 0.0000000033697685, 10.001777, 9.998973 
1.1150467e+3, 1.741238e+2, -1057237.0, -1252979.1, -13647.641, 0.026665345, -0.107107826, -1056290.0, 177286.89, 0.0, 10.001623, 9.999021 
1.115053e+3, 1.8412283e+2, -993336.1, -1173736.0, -16135.217, 0.017239945, -0.103877895, -991904.3, 143681.05, 0.0, 10.001396, 9.999002 
1.1150591e+3, 1.941218e+2, -939764.8, -1094352.9, -13942.048, -0.0031296741, -0.11271469, -938517.44, 99078.08, 0.0, 10.00108, 9.999027 
1.1150653e+3, 2.0412071e+2, -885780.4, -1026797.7, -21847.768, -0.015975222, -0.11832356, -882473.06, 57132.734, 0.0, 10.000816, 9.998945 
1.11507155e+3, 2.141196e+2, -812948.2, -938446.06, -33306.32, -0.01698656, -0.1287187, -804656.75, 36959.59, 0.0, 10.000633, 9.998967 
1.11507766e+3, 2.2411855e+2, -735897.94, -840517.4, -49699.492, -0.01346516, -0.13249537, -716052.6, 27573.031, 0.0, 10.000445, 9.999058 
1.1150836e+3, 2.3411764e+2, -663792.0, -750760.8, -43864.652, -0.0034340068, -0.13450366, -645510.7, 122.60866, 0.0, 10.00025, 9.999095 
1.1150896e+3, 2.4411668e+2, -611044.56, -671644.25, -37433.88, -0.0071167187, -0.13954549, -593184.5, -45542.805, 0.0, 9.999927, 9.999121 
1.1150953e+3, 2.5411567e+2, -580949.06, -602569.94, -37632.87, -0.03074422, -0.15979676, -552604.75, -102953.3, 0.0, 9.999444, 9.999154 
1.11510165e+3, 2.641147e+2, -518048.28, -527085.1, -12164.204, -0.027948769, -0.16619681, -509590.4, -157929.77, 0.0, 9.999228, 9.999103 
1.1151089e+3, 2.7411395e+2, -398787.8, -414938.8, -12297.498, 0.013407243, -0.1569436, -392151.34, -138482.81, 0.0, 9.999357, 9.999137 
1.11511536e+3, 2.841134e+2, -320715.28, -303656.66, -35575.875, 0.011341313, -0.13398774, -275601.94, -119928.02, 0.0, 9.999121, 9.999343 
1.1151209e+3, 2.9411304e+2, -323238.4, -247730.44, -36515.223, -0.054885976, -0.113113664, -232960.86, -175284.0, 0.0, 9.998402, 9.999401 
1.11512735e+3, 3.041118e+2, -272989.94, -136682.13, -3735.7654, -0.05637525, -0.20109569, -136579.81, -136579.81, 0.0, 9.998146, 9.999952 
1.1151354e+3, 3.1411213e+2, -203206.11, -76580.586, -5607.593, 0.038397994, -0.16845895, -76332.74, -76332.74, 0.0, 9.998509, 10.00019 
1.1250183e+3, 1.2412316e+2, -1391755.3, -1702482.1, 63647.266, -0.0008463659, -0.083103396, -1379223.5, 344365.1, 0.0010446907, 10.002848, 9.998709 
1.12502396e+3, 1.3412215e+2, -1325351.5, -1620722.1, -56425.99, 0.08017054, -0.056116745, -1314939.3, 310658.06, 0.0005132032, 10.002621, 9.998714 
1.1250292e+3, 1.441214e+2, -1263442.5, -1537293.0, 7288.2734, 0.033263136, -0.002052548, -1263248.6, 264355.47, 0.00014641856, 10.002367, 9.99873 
1.12503566e+3, 1.541196e+2, -1213626.3, -1461985.4, -3497.7715, 0.034333065, -0.058713302, -1213577.0, 216045.05, 0.00001150662, 10.002033, 9.998735 
1.125042e+3, 1.641181e+2, -1137107.3, -1343222.8, -11552.664, 0.032225925, -0.092330195, -1136461.8, 195174.17, 0.0000000061074554, 10.001752, 9.999012 
1.12504825e+3, 1.7411716e+2, -1063317.0, -1249697.8, -12535.771, 0.029234571, -0.096321344, -1062477.6, 171165.5, 0.0, 10.001555, 9.999076 
1.1250543e+3, 1.8411617e+2, -999428.0, -1179740.5, -22085.963, 0.019753061, -0.09670344, -996762.2, 138889.23, 0.0, 10.0013685, 9.998974 
1.1250603e+3, 1.9411512e+2, -924567.44, -1091157.5, -27049.357, -0.0007742145, -0.102611914, -920285.5, 117375.91, 0.0, 10.001202, 9.99899 
1.1250661e+3, 2.04114e+2, -871198.0, -1029582.56, -30967.771, -0.015960416, -0.10732554, -865358.4, 74313.92, 0.0, 10.000959, 9.9988575 
1.125072e+3, 2.1411276e+2, -821736.06, -953054.44, -26533.871, -0.023704184, -0.11945506, -816577.4, 25107.13, 0.0, 10.000617, 9.998875 
1.125078e+3, 2.2411172e+2, -749578.6, -829791.3, -32160.336, -0.017943028, -0.124922365, -738276.75, 5417.065, 0.0, 10.0002775, 9.999212 
1.1250839e+3, 2.3411098e+2, -695471.5, -745732.4, -27181.13, 0.006485572, -0.1275287, -683583.6, -37884.777, 0.0, 9.999946, 9.999276 
1.12508945e+3, 2.4411008e+2, -639157.56, -695653.44, -21590.926, 0.0031842045, -0.1329407, -631851.1, -84144.78, 0.0, 9.99978, 9.999026 
1.1250948e+3, 2.5410894e+2, -532590.8, -592666.75, -30068.143, -0.039976925, -0.15350366, -520127.34, -70409.82, 0.0, 9.999835, 9.999033 
1.1251009e+3, 2.641079e+2, -470734.66, -501903.9, -9333.705, -0.040092856, -0.16256905, -468153.4, -116425.695, 0.0, 9.999544, 9.999123 
1.125108e+3, 2.7410713e+2, -480883.1, -451364.2, -3481.389, 0.021814305, -0.15843283, -450959.16, -197223.31, 0.0, 9.99878, 9.999165 
1.12511426e+3, 2.8410664e+2, -411768.8, -343062.06, -16325.414, 0.025423361, -0.13248834, -339380.28, -183639.84, 0.0, 9.998476, 9.999384 
1.1251194e+3, 2.9410645e+2, -261333.95, -213382.63, -17231.281, -0.055049725, -0.097643696, -207832.88, -150091.67, 0.0, 9.998809, 9.99944 
1.1251257e+3, 3.0410504e+2, -203495.97, -108610.75, 13671.805, -0.05819371, -0.20405236, -106680.09, -106680.09, 0.0, 9.998648, 9.999903 
1.1251336e+3, 3.1410515e+2, -304799.2, -120789.12, 8310.738, 0.05571429, -0.18511716, -120414.53, -120414.53, 0.0, 9.997793, 10.000232 
1.1350222e+3, 1.2411765e+2, -1372683.0, -1661526.0, 67490.71, 0.102028675, 0.034449425, -1357691.3, 365954.2, 0.001174958, 10.002844, 9.998991 
1.1350262e+3, 1.341152e+2, -1304511.1, -1577315.3, -64349.16, 0.04732916, -0.112822406, -1290094.3, 335571.1, 0.00058639556, 10.002619, 9.999014 
1.135031e+3, 1.4411414e+2, -1274062.4, -1558787.5, -5000.1455, -0.023203092, -0.099861406, -1273974.6, 253699.69, 0.00017311395, 10.002364, 9.998584 
1.1350377e+3, 1.5411335e+2, -1226773.6, -1489703.4, -15832.24, 0.04149002, -0.034007102, -1225823.8, 203860.25, 0.000015247707, 10.002035, 9.998544 
1.13504395e+3, 1.6411224e+2, -1139136.8, -1347977.5, -20542.236, 0.052083846, -0.019417383, -1137135.4, 194559.94, 0.000000009421829, 10.001753, 9.99898 
1.13504946e+3, 1.7411064e+2, -1064430.8, -1252597.5, -20158.604, -0.0038300932, -0.08614273, -1062295.4, 171413.19, 0.0, 10.001557, 9.999055 
1.1350553e+3, 1.8410936e+2, -1007053.44, -1195848.1, -29899.682, -0.019557063, -0.11050772, -1002431.3, 133288.48, 0.0, 10.0013685, 9.998864 
1.1350617e+3, 1.9410852e+2, -932919.8, -1108065.1, -33952.93, 0.018307941, -0.083004475, -926568.1, 111159.89, 0.0, 10.0012, 9.998876 
1.1350675e+3, 2.0410755e+2, -864251.2, -1014359.6, -44564.25, 0.021738302, -0.0690012, -852017.9, 87719.31, 0.0, 10.000955, 9.998964 
1.1350726e+3, 2.1410644e+2, -813142.3, -935008.56, -39766.027, -0.02186841, -0.08310335, -801314.3, 40433.508, 0.0, 10.000616, 9.999 
1.13507815e+3, 2.2410536e+2, -737282.5, -804031.5, -46058.66, -0.03335719, -0.10816432, -713777.7, 29979.12, 0.0, 10.000276, 9.99939 
1.1350837e+3, 2.3410435e+2, -682437.3, -718981.7, -40136.64, 0.0002998378, -0.15590088, -656609.4, -10845.957, 0.0, 9.999947, 9.999459 
1.1350893e+3, 2.441034e+2, -652371.5, -723101.4, -21447.926, 0.010931609, -0.16686326, -646375.94, -98604.914, 0.0, 9.99978, 9.998838 
1.135095e+3, 2.5410253e+2, -549612.56, -625634.6, -27355.473, -0.010162509, -0.13659944, -540792.44, -91012.2, 0.0, 9.999825, 9.998812 
1.1351007e+3, 2.6410154e+2, -464891.72, -487304.34, -35177.516, -0.01444419, -0.13634454, -439178.7, -87388.336, 0.0, 9.999533, 9.999229 
1.1351065e+3, 2.7410036e+2, -470464.88, -431084.0, -30698.205, 0.0031847877, -0.18223178, -414304.0, -160502.69, 0.0, 9.998785, 9.999302 
1.1351126e+3, 2.8409985e+2, -408022.8, -336499.72, -6941.9585, 0.007249822, -0.17048073, -335832.16, -180026.16, 0.0, 9.998481, 9.999426 
1.13511875e+3, 2.9410008e+2, -261508.45, -209767.28, -3263.1187, -0.0041126525, -0.09805296, -209562.3, -151759.3, 0.0, 9.998791, 9.999474 
1.13512486e+3, 3.040987e+2, -210618.44, -118022.04, -14663.454, -0.012967935, -0.19878404, -115755.43, -115755.43, 0.0, 9.998624, 9.99985 
1.13513075e+3, 3.1409883e+2, -298426.4, -109852.5, -20606.873, -0.016348979, -0.17344236, -107626.9, -107626.9, 0.0, 9.997801, 10.000303 
1.1450253e+3, 1.2411164e+2, -1332531.5, -1666120.8, 111934.53, 0.105271794, 0.044806007, -1298453.5, 425250.75, 0.0013167423, 10.003224, 9.998776 
1.14502884e+3, 1.3410895e+2, -1307251.4, -1602832.6, -72566.49, 0.035375368, -0.10488879, -1290397.0, 335330.63, 0.0006665531, 10.002703, 9.9988 
1.14503354e+3, 1.441078e+2, -1273623.0, -1553603.3, -21490.295, -0.008646042, -0.089492396, -1271983.0, 255754.7, 0.00020295075, 10.002345, 9.99863 
1.1450398e+3, 1.5410706e+2, -1201665.6, -1469549.1, -14224.564, 0.04069824, -0.026966374, -1200912.4, 228834.16, 0.000019742625, 10.002173, 9.998615 
1.14504576e+3, 1.6410598e+2, -1112417.4, -1344286.5, -7254.333, 0.048400145, -0.00861197, -1112190.8, 219566.67, 0.000000013934886, 10.001976, 9.998898 
1.1450511e+3, 1.7410444e+2, -1042907.3, -1253591.3, -13348.348, 0.0033191813, -0.061579064, -1042065.0, 191705.86, 0.0, 10.001753, 9.998955 
1.14505686e+3, 1.841031e+2, -992759.0, -1189490.3, -23364.586, -0.010893124, -0.084018975, -990022.2, 145760.45, 0.0, 10.001471, 9.998858 
1.14506274e+3, 1.9410212e+2, -943849.9, -1112853.4, -19590.424, 0.014864981, -0.071170636, -941608.75, 96183.22, 0.0, 10.001123, 9.9988785 
1.1450683e+3, 2.0410112e+2, -882062.06, -1013134.8, -27596.846, 0.01993174, -0.06604062, -876488.6, 63312.51, 0.0, 10.000792, 9.999051 
1.1450734e+3, 2.141001e+2, -826328.1, -930405.7, -26612.436, -0.0038544168, -0.08008385, -819918.2, 21891.973, 0.0, 10.00048, 9.999096 
1.1450785e+3, 2.2409904e+2, -744573.0, -821784.4, -38706.195, -0.014412978, -0.10209186, -728510.9, 15308.002, 0.0, 10.000289, 9.999261 
1.14508376e+3, 2.3409794e+2, -646527.94, -718615.25, -57110.563, -0.0077601736, -0.14370976, -615038.2, 30789.037, 0.0, 10.000267, 9.999307 
1.1450891e+3, 2.4409695e+2, -613388.56, -689624.7, -45291.785, 0.0001019713, -0.15706842, -592309.2, -44473.87, 0.0, 9.999985, 9.998968 
1.1450947e+3, 2.540961e+2, -609397.0, -637185.9, -25855.674, 0.010738009, -0.14030297, -593938.9, -144095.69, 0.0, 9.99934, 9.998966 
1.1451002e+3, 2.640951e+2, -545626.0, -528182.6, -24021.568, 0.011907723, -0.1470441, -511348.4, -159495.67, 0.0, 9.998986, 9.999212 
1.1451054e+3, 2.7409393e+2, -435209.84, -417482.34, -32942.453, -0.0027915367, -0.19103783, -392232.0, -138367.89, 0.0, 9.999043, 9.99927 
1.1451111e+3, 2.840934e+2, -360204.1, -311229.22, -10678.145, -0.003470527, -0.1769985, -309002.28, -153133.39, 0.0, 9.998802, 9.999444 
1.1451174e+3, 2.9409367e+2, -357052.1, -253989.92, -7703.6245, 0.02063608, -0.10322139, -253417.28, -195551.61, 0.0, 9.998128, 9.99949 
1.1451233e+3, 3.040923e+2, -323155.44, -168649.6, -18865.783, 0.011726255, -0.20925769, -166379.36, -166379.36, 0.0, 9.997837, 9.999882 
1.1451285e+3, 3.1409276e+2, -243098.39, -61515.36, -23520.717, -0.03742324, -0.15554865, -58518.156, -58518.156, 0.0, 9.998093, 10.000493 
1.15502745e+3, 1.24105185e+2, -1384461.6, -1770587.0, 102814.81, 0.0034008485, -0.05140893, -1358791.4, 364972.8, 0.0014692028, 10.003212, 9.998065 
1.1550316e+3, 1.3410342e+2, -1358247.3, -1709341.5, -91470.92, 0.04173455, -0.034519393, -1335845.6, 289938.1, 0.00075311697, 10.002706, 9.998068 
1.15503676e+3, 1.4410247e+2, -1255684.8, -1517800.3, -29524.432, 0.07406933, 0.027184395, -1252400.4, 275393.53, 0.000235787, 10.00235, 9.998874 
1.1550419e+3, 1.541008e+2, -1177951.1, -1420624.4, -20547.125, 0.029048176, -0.035972092, -1176223.8, 253585.1, 0.000024990082, 10.002173, 9.998952 
1.15504734e+3, 1.6409944e+2, -1122015.0, -1363665.5, -16678.29, 0.016952192, -0.057991505, -1120869.3, 210951.92, 0.000000023716384, 10.001974, 9.998766 
1.1550534e+3, 1.7409858e+2, -1055788.9, -1279661.6, -22105.75, 0.048213784, -0.023138976, -1053627.0, 180202.28, 0.0, 10.00175, 9.998777 
1.1550588e+3, 1.8409747e+2, -986415.56, -1176076.5, -37154.91, 0.042272832, -0.018111495, -979396.6, 156442.73, 0.0, 10.001469, 9.998952 
1.1550636e+3, 1.9409601e+2, -935401.75, -1095811.6, -33047.51, -0.012985744, -0.067007765, -928860.06, 108992.51, 0.0, 10.001124, 9.998996 
1.1550687e+3, 2.0409474e+2, -877818.44, -1004395.44, -40971.082, -0.023634028, -0.097597785, -865714.2, 74149.34, 0.0, 10.000792, 9.999111 
1.15507424e+3, 2.1409377e+2, -822394.06, -922082.9, -39269.727, 0.029116632, -0.10977128, -808783.1, 33087.938, 0.0, 10.000479, 9.999154 
1.1550794e+3, 2.2409281e+2, -774613.94, -883167.2, -41769.15, 0.036772486, -0.10710602, -760402.5, -16522.842, 0.0, 10.000285, 9.998841 
1.15508385e+3, 2.3409182e+2, -680249.06, -787254.44, -57688.6, -0.019845407, -0.09192416, -655071.94, -9182.288, 0.0, 10.000261, 9.998838 
1.15508884e+3, 2.4409078e+2, -584508.0, -628110.3, -67655.77, -0.031755608, -0.10384165, -535227.56, 12671.031, 0.0, 9.999977, 9.999394 
1.1550942e+3, 2.5408968e+2, -573027.06, -562303.44, -49776.23, 0.02068051, -0.16384396, -517601.06, -67695.06, 0.0, 9.999342, 9.99948 
1.1550995e+3, 2.6408866e+2, -555525.6, -549459.75, -24351.004, 0.036881715, -0.19484675, -527953.56, -176038.92, 0.0, 9.998989, 9.999065 
1.1551045e+3, 2.740878e+2, -451511.72, -448887.28, -30005.967, 0.0005159535, -0.18687157, -420164.88, -166240.67, 0.0, 9.999033, 9.999061 
1.15510985e+3, 2.8408736e+2, -360220.0, -307856.03, -33024.035, -0.01019786, -0.15344384, -291894.4, -135965.61, 0.0, 9.998786, 9.9994755 
1.1551155e+3, 2.9408735e+2, -353072.22, -246704.83, -30305.61, 0.014775222, -0.11255928, -238676.3, -180747.89, 0.0, 9.998131, 9.999539 
1.1551211e+3, 3.0408582e+2, -320163.0, -163297.47, -11574.149, 0.012298863, -0.23484108, -162448.08, -162448.08, 0.0, 9.99784, 9.999918 
1.15512684e+3, 3.1408688e+2, -228676.75, -29588.795, -11910.344, -0.015213312, -0.12722293, -28878.795, -28878.795, 0.0, 9.998083, 10.000718 
1.1650304e+3, 1.2409903e+2, -1394456.9, -1787206.0, 74060.45, -0.021006491, -0.081288256, -1380955.5, 342868.25, 0.0016317561, 10.003196, 9.997958 
1.1650342e+3, 1.3409759e+2, -1319034.8, -1699687.6, -81187.48, 0.020277843, -0.023155792, -1302442.0, 323399.03, 0.00084588735, 10.003014, 9.997986 
1.16503954e+3, 1.4409673e+2, -1206204.6, -1503117.4, -1153.8832, 0.100511685, 0.055601314, -1206200.1, 321650.66, 0.00027161013, 10.002729, 9.998792 
1.16504416e+3, 1.5409471e+2, -1170334.4, -1426077.1, -24966.22, 0.034711625, -0.03397788, -1167920.0, 261949.0, 0.000031011183, 10.002264, 9.998871 
1.1650493e+3, 1.6409323e+2, -1127860.4, -1356629.5, -26070.646, 0.013678336, -0.068391904, -1124927.0, 206955.4, 0.00000004774233, 10.001892, 9.998854 
1.165055e+3, 1.7409255e+2, -1059104.9, -1269497.5, -11241.139, 0.047668252, -0.02636981, -1058506.0, 175382.38, 0.0, 10.001677, 9.998882 
1.1650603e+3, 1.8409154e+2, -995084.2, -1181073.5, -21079.496, 0.046990287, -0.016949594, -992725.0, 143172.44, 0.0, 10.001411, 9.998945 
1.1650648e+3, 1.9409005e+2, -942354.25, -1100776.1, -27938.1, 0.00008688156, -0.064344876, -937571.6, 100339.35, 0.0, 10.001084, 9.9989805 
1.1650696e+3, 2.0408878e+2, -875905.3, -1009870.25, -40505.34, -0.010979803, -0.09413219, -864610.5, 75311.914, 0.0, 10.0008335, 9.999053 
1.16507486e+3, 2.1408774e+2, -794657.7, -916032.25, -47716.445, 0.027843604, -0.10751189, -778145.2, 63785.418, 0.0, 10.0007, 9.999089 
1.1650796e+3, 2.2408672e+2, -761984.6, -880058.44, -44205.164, 0.032481335, -0.10532733, -747268.9, -3329.0999, 0.0, 10.000384, 9.998815 
1.165084e+3, 2.3408572e+2, -747999.1, -822436.2, -29768.457, -0.011257412, -0.08824055, -737558.7, -91608.62, 0.0, 9.999807, 9.998816 
1.16508864e+3, 2.440847e+2, -653319.06, -656864.94, -34388.242, -0.01972033, -0.09811544, -620658.06, -72699.21, 0.0, 9.999487, 9.9994335 
1.1650936e+3, 2.5408366e+2, -542182.94, -542110.3, -50869.203, 0.020738332, -0.1575941, -491277.4, -41311.504, 0.0, 9.999532, 9.999527 
1.1650986e+3, 2.640827e+2, -505744.88, -520335.78, -37181.984, 0.0353815, -0.18633775, -475149.38, -123175.52, 0.0, 9.9993105, 9.999109 
1.16510354e+3, 2.7408195e+2, -497668.44, -467301.56, -25358.71, 0.014747608, -0.17120731, -452928.25, -198945.98, 0.0, 9.998699, 9.999096 
1.1651085e+3, 2.8408158e+2, -431931.78, -337138.4, -21510.715, 0.008803526, -0.13773774, -332485.53, -176499.16, 0.0, 9.99827, 9.999524 
1.16511375e+3, 2.9408145e+2, -352086.84, -240863.98, -22390.709, 0.022204427, -0.109914884, -236525.64, -178538.9, 0.0, 9.9981165, 9.999585 
1.165119e+3, 3.0407983e+2, -302480.03, -158786.02, 10269.891, 0.009403123, -0.24215731, -158055.72, -158055.72, 0.0, 9.99798, 9.999881 
1.1651248e+3, 3.14081e+2, -255347.31, -25379.607, 7372.268, -0.019977048, -0.11836548, -25143.512, -25143.512, 0.0, 9.997825, 10.000874 
1.17503405e+3, 1.24093264e+2, -1359494.9, -1715056.3, 69570.46, 0.028948862, -0.0420051, -1346367.1, 377514.6, 0.0018049687, 10.003199, 9.998452 
1.1750367e+3, 1.3409154e+2, -1279979.1, -1618211.8, -87368.49, -0.032812957, -0.0690803, -1258744.3, 367154.38, 0.0009453062, 10.003011, 9.9985485 
1.1750419e+3, 1.4409067e+2, -1235110.5, -1561780.3, -18448.518, 0.066326804, -0.0020711224, -1234072.0, 293835.56, 0.0003105983, 10.002724, 9.998391 
1.17504664e+3, 1.5408888e+2, -1205174.0, -1498136.9, -42528.402, 0.05515189, -0.021690961, -1199125.1, 230801.2, 0.000037854974, 10.002264, 9.998377 
1.1750514e+3, 1.640874e+2, -1106182.9, -1312797.6, -35922.79, 0.035236653, -0.041730843, -1100115.4, 231825.05, 0.00000010132158, 10.001895, 9.999154 
1.17505625e+3, 1.7408638e+2, -1032383.06, -1214403.8, -19466.47, 0.00080627296, -0.07045297, -1030324.44, 203623.13, 0.0, 10.001677, 9.999261 
1.1750613e+3, 1.8408537e+2, -1002595.2, -1196070.0, -34485.207, 0.0009623327, -0.07801975, -996632.25, 139323.88, 0.0, 10.00141, 9.998843 
1.1750664e+3, 1.9408436e+2, -953304.4, -1122929.8, -40837.355, 0.051916614, -0.0628608, -943984.8, 93981.75, 0.0, 10.001081, 9.99883 
1.17507115e+3, 2.0408326e+2, -888294.94, -1035152.5, -47265.96, 0.05482199, -0.056803897, -874397.56, 65579.62, 0.0, 10.000831, 9.99888 
1.1750751e+3, 2.1408202e+2, -807419.3, -942025.44, -52901.895, -0.009387495, -0.07493608, -789116.8, 52871.508, 0.0, 10.000697, 9.998913 
1.17507935e+3, 2.2408082e+2, -738951.5, -831230.06, -65504.48, -0.029309642, -0.09690367, -704967.94, 39030.82, 0.0, 10.00038, 9.999152 
1.1750841e+3, 2.340797e+2, -720259.5, -765178.94, -51862.92, 0.015901078, -0.13129959, -686201.94, -40193.957, 0.0, 9.999807, 9.999208 
1.17508866e+3, 2.4407877e+2, -676495.4, -705010.6, -35544.19, 0.03338605, -0.13921617, -652455.94, -104439.945, 0.0, 9.999487, 9.999104 
1.1750931e+3, 2.5407806e+2, -571291.94, -601047.3, -48452.938, 0.009533726, -0.12285965, -535484.0, -85461.47, 0.0, 9.999526, 9.9991255 
1.1750977e+3, 2.640773e+2, -490188.94, -486531.22, -57364.47, 0.0064728884, -0.122696206, -430966.47, -78936.51, 0.0, 9.999303, 9.999346 
1.17510244e+3, 2.740765e+2, -476899.84, -423916.63, -46739.465, 0.03340115, -0.14476654, -396683.16, -142645.44, 0.0, 9.998696, 9.999395 
1.1751072e+3, 2.840761e+2, -431297.22, -335768.75, -28583.59, 0.046750356, -0.13098603, -327869.3, -171828.08, 0.0, 9.99827, 9.999534 
1.17511205e+3, 2.9407603e+2, -353870.4, -243136.06, -27397.514, 0.040593524, -0.09620248, -236728.27, -178687.42, 0.0, 9.99811, 9.999573 
1.175117e+3, 3.0407435e+2, -305580.16, -163408.25, 5254.3203, 0.0020530787, -0.23190932, -163214.33, -163214.33, 0.0, 9.997971, 9.999854 
1.1751222e+3, 3.1407535e+2, -243243.17, 1187.5364, 5821.7754, -0.061960086, -0.12407309, 1326.1191, 1326.1191, 0.0, 9.997817, 10.00106 
1.1850376e+3, 1.24087736e+2, -1337712.6, -1686132.4, 85939.08, 0.05770084, -0.0098036835, -1317668.5, 406268.7, 0.001990702, 10.003271, 9.998614 
1.1850394e+3, 1.3408567e+2, -1292569.5, -1598769.5, -98799.69, -0.054908782, -0.093544535, -1263458.1, 362497.75, 0.0010523666, 10.002815, 9.9987755 
1.1850446e+3, 1.4408481e+2, -1267199.9, -1578880.5, -27651.49, 0.07136267, -0.037507884, -1264765.8, 263198.1, 0.00035315592, 10.002512, 9.998375 
1.185049e+3, 1.540833e+2, -1186349.8, -1493210.1, -19203.35, 0.054349966, -0.025270995, -1185152.6, 244827.69, 0.000045623692, 10.002412, 9.998338 
1.18505344e+3, 1.6408187e+2, -1074459.1, -1300733.8, -7557.846, 0.03306109, -0.03524267, -1074206.9, 257787.16, 0.00000019883093, 10.002127, 9.999125 
1.185058e+3, 1.7408064e+2, -1046430.75, -1223652.9, -22010.457, 0.00042375052, -0.0840081, -1043738.06, 190265.61, 0.0, 10.001592, 9.999238 
1.1850626e+3, 1.8407962e+2, -1022823.75, -1196813.9, -40840.13, 0.00015633505, -0.09424114, -1013714.4, 122297.914, 0.0, 10.001232, 9.998922 
1.1850675e+3, 1.9407894e+2, -939498.25, -1106269.9, -29959.545, 0.046762694, -0.057810545, -934279.5, 103740.11, 0.0, 10.001133, 9.9989195 
1.1850719e+3, 2.0407794e+2, -884820.06, -1039875.25, -24944.242, 0.049027257, -0.043370098, -880906.0, 59123.344, 0.0, 10.000881, 9.998825 
1.1850757e+3, 2.1407653e+2, -853443.7, -971152.75, -23823.854, -0.011770861, -0.07026519, -848804.7, -6762.141, 0.0, 10.000413, 9.998848 
1.18507974e+3, 2.2407527e+2, -771102.25, -833197.8, -39511.266, -0.02647732, -0.09923581, -751899.6, -7846.0884, 0.0, 10.000101, 9.999272 
1.1850841e+3, 2.3407425e+2, -680751.0, -730525.6, -45166.73, 0.024970751, -0.13892742, -654068.8, -8007.5737, 0.0, 10.000011, 9.999349 
1.1850884e+3, 2.440734e+2, -646302.5, -704642.75, -28515.121, 0.04384732, -0.13939421, -634680.4, -86611.92, 0.0, 9.999756, 9.998976 
1.18509255e+3, 2.5407282e+2, -621285.44, -642851.5, -24664.82, 0.016125098, -0.09676515, -605149.56, -155074.25, 0.0, 9.999258, 9.998967 
1.1850968e+3, 2.6407206e+2, -548808.5, -507110.03, -35804.684, 0.011627585, -0.090323016, -486526.6, -134443.36, 0.0, 9.998868, 9.999414 
1.1851012e+3, 2.7407107e+2, -477970.84, -413839.94, -42780.16, 0.038977876, -0.13689569, -392442.0, -138349.92, 0.0, 9.998646, 9.999488 
1.1851056e+3, 2.840707e+2, -404162.1, -315681.94, -22649.88, 0.050260942, -0.12800416, -310220.9, -154126.0, 0.0, 9.998428, 9.999595 
1.1851102e+3, 2.9407096e+2, -337843.4, -229786.72, -14829.201, 0.040750727, -0.067635745, -227788.58, -169697.47, 0.0, 9.998195, 9.999624 
1.18511476e+3, 3.0406928e+2, -340542.88, -198264.47, 10548.634, 0.00038139592, -0.19838457, -197486.64, -197486.64, 0.0, 9.997809, 9.999692 
1.18511975e+3, 3.1406966e+2, -326490.47, -34325.637, -6088.4556, -0.057063323, -0.13472104, -34198.816, -34198.816, 0.0, 9.997227, 10.001099 
1.1950409e+3, 1.2408254e+2, -1350939.1, -1711527.5, 66353.18, 0.057376906, 0.016101684, -1339116.9, 384872.34, 0.0021913827, 10.003263, 9.998443 
1.1950422e+3, 1.3408005e+2, -1300211.0, -1615320.0, -115157.234, -0.048727144, -0.09677976, -1262612.8, 363399.2, 0.0011682742, 10.002817, 9.998661 
1.1950475e+3, 1.4407921e+2, -1240536.1, -1525143.5, -33327.703, 0.112815104, -0.051557314, -1236685.5, 291333.7, 0.00039982723, 10.002518, 9.998742 
1.19505115e+3, 1.5407805e+2, -1157385.9, -1433588.9, -22942.725, 0.030424142, -0.044155233, -1155493.1, 274537.1, 0.00005450218, 10.002412, 9.998748 
1.1950553e+3, 1.6407676e+2, -1099155.0, -1351817.1, -27246.488, 0.0036800017, -0.046854384, -1096250.1, 235792.4, 0.00000035173326, 10.002126, 9.998775 
1.19505994e+3, 1.740754e+2, -1076042.1, -1285371.5, -42347.58, 0.043599874, -0.067661166, -1067799.8, 166256.27, 0.0, 10.001593, 9.998815 
1.1950642e+3, 1.8407436e+2, -1004756.9, -1159940.5, -46936.78, 0.040728606, -0.06826914, -991664.9, 144400.66, 0.0, 10.001234, 9.999175 
1.195068e+3, 1.940738e+2, -917095.9, -1059892.3, -34154.84, -0.016181855, -0.050636783, -909347.0, 128722.77, 0.0, 10.001132, 9.999239 
1.195072e+3, 2.0407283e+2, -881446.75, -1031671.4, -42766.51, -0.029605433, -0.052475464, -870125.06, 69953.17, 0.0, 10.000875, 9.998883 
1.1950764e+3, 2.1407133e+2, -851447.7, -966753.6, -42240.156, 0.018855795, -0.09219389, -837629.75, 4463.1313, 0.0, 10.000411, 9.998879 
1.1950804e+3, 2.2407015e+2, -777253.94, -845610.4, -45375.33, 0.037857197, -0.112356804, -754624.8, -10521.048, 0.0, 10.000099, 9.999188 
1.195084e+3, 2.340694e+2, -687794.56, -744982.9, -48531.23, 0.014931758, -0.1128095, -660060.1, -13950.758, 0.0, 10.0000105, 9.99925 
1.1950879e+3, 2.4406868e+2, -642560.2, -696459.2, -46380.566, 0.010853708, -0.09994189, -615867.94, -67752.08, 0.0, 9.999753, 9.999034 
1.19509205e+3, 2.5406796e+2, -616406.25, -632038.1, -42960.34, 0.035403166, -0.07921581, -580556.7, -130432.84, 0.0, 9.999254, 9.999043 
1.1950959e+3, 2.6406702e+2, -557350.5, -524659.25, -45190.426, 0.04556295, -0.08903199, -492949.13, -140815.66, 0.0, 9.998866, 9.999295 
1.1950997e+3, 2.740658e+2, -487804.06, -433852.4, -50340.57, 0.032068253, -0.14578298, -403715.44, -149570.4, 0.0, 9.998644, 9.9993515 
1.19510375e+3, 2.840655e+2, -393353.38, -293362.1, -30739.771, 0.020491336, -0.1272015, -284667.88, -128520.875, 0.0, 9.998427, 9.999748 
1.19510815e+3, 2.9406634e+2, -326958.8, -205251.89, -21144.676, 0.0130125135, -0.026770284, -201682.98, -143545.92, 0.0, 9.998186, 9.999797 
1.19511254e+3, 3.0406472e+2, -368767.56, -255057.11, -9651.749, -0.0060895407, -0.14412254, -254243.69, -254243.69, 0.0, 9.997801, 9.999307 
1.19511746e+3, 3.140641e+2, -342219.75, -65288.92, -25362.314, -0.008200052, -0.13945061, -62985.313, -62985.313, 0.0, 9.99722, 10.000889 
1.2050443e+3, 1.2407775e+2, -1367195.9, -1742916.4, 112580.61, 0.06912582, 0.005476904, -1336045.0, 387990.44, 0.0024090873, 10.003255, 9.998231 
1.2050451e+3, 1.3407534e+2, -1269213.5, -1616803.8, -68646.98, -0.05811879, -0.08277671, -1256147.3, 369911.1, 0.0012942023, 10.0031, 9.998515 
1.2050504e+3, 1.440745e+2, -1190645.6, -1492205.3, 3864.6768, 0.13900967, -0.034983516, -1190596.1, 337469.75, 0.00045114366, 10.002822, 9.998821 
1.2050535e+3, 1.540731e+2, -1155808.3, -1420850.4, -9744.152, 0.026933301, -0.059911918, -1155450.5, 274627.53, 0.00006471426, 10.002373, 9.998853 
1.2050573e+3, 1.640718e+2, -1118959.8, -1373265.4, -19489.324, -0.006941086, -0.068275034, -1117474.8, 214615.8, 0.00000057087306, 10.002043, 9.998666 
1.20506175e+3, 1.7407058e+2, -1040706.9, -1283382.4, -14254.552, 0.051349033, -0.057155564, -1039872.44, 194230.73, 0.0, 10.001901, 9.998679 
1.2050657e+3, 1.8406957e+2, -955532.8, -1134244.4, -14813.667, 0.050344672, -0.04862624, -954313.2, 181799.6, 0.0, 10.001563, 9.999193 
1.205069e+3, 1.9406882e+2, -941418.7, -1066927.3, -23552.363, -0.02726367, -0.05390722, -937144.5, 100973.71, 0.0, 10.000946, 9.999279 
1.2050725e+3, 2.040678e+2, -931839.4, -1052898.9, -42235.508, -0.044690087, -0.067694604, -918560.6, 21566.566, 0.0, 10.000517, 9.99891 
1.2050768e+3, 2.1406636e+2, -857935.1, -967287.6, -43032.395, 0.02202123, -0.103169166, -843032.1, -890.6919, 0.0, 10.000355, 9.998903 
1.2050807e+3, 2.2406529e+2, -773175.25, -849785.25, -40345.785, 0.04815507, -0.11048483, -755847.0, -11695.369, 0.0, 10.000153, 9.999135 
1.20508395e+3, 2.3406474e+2, -708682.6, -761408.1, -41511.31, 0.0170801, -0.08566794, -685870.4, -39714.28, 0.0, 9.999895, 9.999192 
1.2050875e+3, 2.44064e+2, -657032.06, -695413.25, -44836.43, 0.009699713, -0.07252444, -627451.94, -79289.23, 0.0, 9.99962, 9.9991045 
1.2050913e+3, 2.54063e+2, -601233.4, -614935.4, -42777.934, 0.036478985, -0.08847657, -564761.3, -114588.56, 0.0, 9.999317, 9.999129 
1.2050948e+3, 2.6406202e+2, -533309.1, -511056.28, -34584.87, 0.04238653, -0.106733404, -485852.13, -133669.81, 0.0, 9.999024, 9.999311 
1.20509826e+3, 2.7406114e+2, -472895.22, -425922.13, -28781.688, 0.018010568, -0.13141787, -412260.25, -158069.48, 0.0, 9.998742, 9.999359 
1.20510206e+3, 2.840609e+2, -398512.25, -300130.06, -12051.459, 0.006816361, -0.108593665, -298675.3, -142482.6, 0.0, 9.99841, 9.999709 
1.2051062e+3, 2.940613e+2, -354949.5, -224140.55, -22651.313, 0.0145145105, -0.043292567, -220329.22, -162141.92, 0.0, 9.998018, 9.999746 
1.2051103e+3, 3.040598e+2, -392701.72, -263272.66, -10977.703, 0.001706574, -0.14608027, -262348.2, -262348.2, 0.0, 9.997623, 9.999334 
1.2051147e+3, 3.1405953e+2, -327449.47, -31042.945, 9426.375, 0.0017651344, -0.11274307, -30743.469, -30743.469, 0.0, 9.997204, 10.001132 
1.21504776e+3, 1.2407344e+2, -1385400.8, -1781300.8, 96751.15, 0.090034336, -0.04056697, -1363021.5, 361053.63, 0.002645014, 10.003257, 9.997968 
1.215048e+3, 1.340716e+2, -1281411.3, -1643566.5, -74249.1, -0.08687086, -0.052503772, -1266779.9, 359314.78, 0.0014309159, 10.003104, 9.99833 
1.21505335e+3, 1.4407073e+2, -1204371.8, -1520831.6, -13172.445, 0.14478955, 0.011271283, -1203824.4, 324279.16, 0.00050734985, 10.002822, 9.998625 
1.215056e+3, 1.5406856e+2, -1169505.8, -1449410.1, -26423.602, 0.04174094, -0.07306792, -1167033.1, 263089.94, 0.000076397075, 10.002373, 9.998657 
1.2150593e+3, 1.6406699e+2, -1110890.0, -1356686.0, -27050.082, -0.0019637197, -0.1008774, -1107948.4, 224189.28, 0.0000008702971, 10.002043, 9.99878 
1.2150633e+3, 1.740663e+2, -1030719.7, -1263007.4, -19940.184, 0.022433609, -0.05247206, -1029020.44, 205124.34, 0.0, 10.001901, 9.998819 
1.215067e+3, 1.8406539e+2, -970022.2, -1163948.1, -37612.793, 0.026917161, -0.032908622, -962982.56, 173170.77, 0.0, 10.001561, 9.99899 
1.2150703e+3, 1.940641e+2, -957593.2, -1101548.6, -47154.29, 0.010862005, -0.06717828, -943522.56, 94641.78, 0.0, 10.00095, 9.99904 
1.2150735e+3, 2.0406283e+2, -931532.25, -1053651.4, -51094.96, 0.00014590351, -0.09034143, -912974.2, 27201.64, 0.0, 10.000523, 9.998902 
1.2150769e+3, 2.1406163e+2, -856616.94, -964995.0, -49584.395, -0.0039768107, -0.10489413, -837354.9, 4832.9507, 0.0, 10.000355, 9.9989195 
1.2150803e+3, 2.2406073e+2, -775799.3, -854488.25, -50923.395, 0.0035192445, -0.09433827, -750791.8, -6595.1465, 0.0, 10.000149, 9.9991045 
1.215084e+3, 2.3406027e+2, -711253.94, -766409.3, -51250.94, 0.029036704, -0.057244565, -680632.06, -34431.215, 0.0, 9.999893, 9.999159 
1.2150874e+3, 2.4405944e+2, -651511.5, -683743.56, -56623.94, 0.03738824, -0.05696699, -608754.8, -60546.34, 0.0, 9.999618, 9.9991865 
1.21509045e+3, 2.5405803e+2, -594696.25, -601514.5, -53584.375, 0.019159678, -0.12301538, -544412.6, -94191.08, 0.0, 9.999317, 9.999223 
1.2150935e+3, 2.6405716e+2, -522777.75, -489217.28, -45074.973, 0.0026680848, -0.1421431, -457900.44, -105671.03, 0.0, 9.999023, 9.999462 
1.2150968e+3, 2.7405715e+2, -463125.7, -403142.2, -38000.203, -0.010160747, -0.09577524, -384724.0, -130494.96, 0.0, 9.998731, 9.999521 
1.2151004e+3, 2.8405684e+2, -418963.53, -340745.22, -26113.516, 0.0011063551, -0.073924296, -332828.4, -176596.47, 0.0, 9.998401, 9.999435 
1.21510446e+3, 2.9405594e+2, -378045.9, -270920.53, -36341.484, 0.04449829, -0.11249292, -259755.6, -201514.2, 0.0, 9.998013, 9.999429 
1.2151082e+3, 3.0405462e+2, -358679.0, -192317.78, -25778.086, 0.023906536, -0.1988425, -188414.97, -188414.97, 0.0, 9.997622, 9.999824 
1.21511154e+3, 3.1405607e+2, -276516.2, 77497.63, -1933.7465, -0.03828195, -0.052130606, 77508.195, 77508.195, 0.0, 9.997192, 10.0018835 
1.2250515e+3, 1.2406935e+2, -1349304.1, -1771862.0, 76275.12, 0.12438644, -0.057511784, -1335957.4, 388156.88, 0.002898859, 10.003543, 9.997892 
1.22505076e+3, 1.340677e+2, -1265490.9, -1633005.6, -70679.195, -0.11205947, -0.052402724, -1252366.8, 373765.97, 0.0015783015, 10.003204, 9.998353 
1.2250561e+3, 1.4406689e+2, -1201164.9, -1526335.6, -478.31104, 0.14386144, 0.019166997, -1201164.1, 326977.16, 0.0005682736, 10.002877, 9.998559 
1.2250586e+3, 1.540647e+2, -1143430.8, -1445590.8, -6498.424, 0.051257756, -0.05803265, -1143291.1, 286869.97, 0.00008951281, 10.002591, 9.998577 
1.2250615e+3, 1.6406307e+2, -1078928.3, -1339445.6, -1582.3302, 0.0051822183, -0.08874827, -1078918.6, 253257.58, 0.0000012652538, 10.002254, 9.998797 
1.2250652e+3, 1.7406225e+2, -1038037.7, -1262658.1, -3280.4094, 0.008794235, -0.056434937, -1037989.75, 196194.34, 0.0, 10.001835, 9.998852 
1.2250685e+3, 1.8406121e+2, -986830.56, -1187841.0, -26504.8, 0.014356274, -0.044603415, -983394.44, 152799.42, 0.0, 10.001515, 9.998848 
1.22507155e+3, 1.940598e+2, -911537.6, -1097440.0, -31851.695, 0.027171383, -0.075530045, -906231.75, 131974.98, 0.0, 10.001345, 9.998878 
1.2250746e+3, 2.0405851e+2, -850593.6, -1016429.25, -28397.0, 0.020931289, -0.092102475, -845865.8, 94352.92, 0.0, 10.001086, 9.998886 
1.2250773e+3, 2.1405742e+2, -806224.8, -940039.75, -28156.11, -0.012654898, -0.09515802, -800541.8, 41687.48, 0.0, 10.0007, 9.998923 
1.22508034e+3, 2.240565e+2, -755989.94, -849314.2, -31598.084, -0.016717354, -0.08434267, -746297.9, -2059.6885, 0.0, 10.000305, 9.9990635 
1.22508384e+3, 2.3405585e+2, -715026.2, -773441.0, -34742.566, 0.022309214, -0.06309787, -698845.06, -52600.297, 0.0, 9.999889, 9.999112 
1.2250869e+3, 2.4405496e+2, -663286.7, -685645.06, -40649.473, 0.037687827, -0.06733404, -632307.25, -84054.195, 0.0, 9.99952, 9.99922 
1.2250897e+3, 2.540537e+2, -603899.8, -600895.75, -42103.383, 0.01733236, -0.120562665, -560267.6, -110003.42, 0.0, 9.999232, 9.999267 
1.2250924e+3, 2.6405296e+2, -537115.7, -490822.8, -40571.07, -0.0011257352, -0.13244681, -467259.84, -114989.12, 0.0, 9.998902, 9.999509 
1.2250953e+3, 2.7405295e+2, -494104.72, -412971.8, -44467.406, -0.015484357, -0.08967224, -393347.0, -139076.66, 0.0, 9.998497, 9.999565 
1.2250985e+3, 2.840526e+2, -461843.88, -353353.38, -27032.402, -0.0017056332, -0.076900296, -346990.88, -190717.16, 0.0, 9.998074, 9.999505 
1.2251024e+3, 2.9405168e+2, -428526.47, -287442.97, -9132.814, 0.04991754, -0.12704784, -286854.22, -228570.48, 0.0, 9.997632, 9.999497 
1.22510575e+3, 3.040507e+2, -392972.28, -195603.56, 10503.356, 0.025223749, -0.18599421, -195046.17, -195046.17, 0.0, 9.99733, 9.999941 
1.22510865e+3, 3.1405216e+2, -254763.0, 116002.46, -1113.7926, -0.050555952, -0.05400065, 116005.805, 116005.805, 0.0, 9.99722, 10.002134 
1.2350554e+3, 1.2406554e+2, -1342294.0, -1756291.9, 48996.68, 0.163583, -0.047405533, -1336574.4, 387577.94, 0.0031684104, 10.003539, 9.998001 
1.23505384e+3, 1.340637e+2, -1250022.1, -1601147.0, -82691.625, -0.13450463, -0.08223405, -1231522.5, 394649.06, 0.001735363, 10.003204, 9.998572 
1.235059e+3, 1.4406304e+2, -1197986.0, -1519358.5, -13185.386, 0.13427606, -0.010454543, -1197446.0, 330732.56, 0.00063353236, 10.002874, 9.998609 
1.23506114e+3, 1.540616e+2, -1141001.4, -1442177.3, -17299.371, 0.05235536, -0.015418883, -1140010.9, 290180.7, 0.00010392506, 10.002596, 9.998599 
1.2350638e+3, 1.6406007e+2, -1083688.6, -1349572.9, -17636.684, 0.010346838, -0.032529384, -1082523.9, 249681.88, 0.0000017603737, 10.002254, 9.998728 
1.235067e+3, 1.740585e+2, -1043202.8, -1274017.6, -19071.424, 0.008638667, -0.06988179, -1041637.6, 192583.05, 0.0, 10.001837, 9.998775 
1.2350699e+3, 1.840571e+2, -993374.3, -1201493.8, -35168.383, 0.009477667, -0.08539211, -987592.1, 148641.84, 0.0, 10.001514, 9.9987545 
1.2350729e+3, 1.9405597e+2, -918046.25, -1111046.1, -38817.387, 0.020236515, -0.07934426, -910531.6, 127713.32, 0.0, 10.001344, 9.998785 
1.2350756e+3, 2.0405485e+2, -852374.3, -1019747.56, -43317.695, 0.017014557, -0.07223208, -841827.8, 98427.64, 0.0, 10.001083, 9.998865 
1.2350781e+3, 2.1405375e+2, -807044.0, -942124.75, -42963.332, -0.0065345624, -0.07404719, -794537.25, 47728.223, 0.0, 10.000701, 9.998909 
1.23508066e+3, 2.2405264e+2, -759393.56, -856903.6, -48019.1, -0.015741514, -0.080590144, -739717.0, 4559.0103, 0.0, 10.000306, 9.999012 
1.2350835e+3, 2.3405148e+2, -719137.2, -782307.44, -50173.96, -0.0038854182, -0.102554426, -691434.5, -45147.152, 0.0, 9.99989, 9.999052 
1.2350862e+3, 2.4405058e+2, -664582.2, -688619.56, -52393.934, 0.0101560475, -0.103212595, -622846.1, -74550.21, 0.0, 9.999521, 9.9992 
1.235089e+3, 2.5405008e+2, -605216.44, -602797.8, -52014.344, 0.026587348, -0.08271566, -551978.75, -101678.305, 0.0, 9.9992285, 9.999256 
1.2350917e+3, 2.6404944e+2, -542436.7, -501257.25, -54932.074, 0.025853049, -0.07908936, -463182.94, -110876.766, 0.0, 9.9988985, 9.999439 
1.235094e+3, 2.7404863e+2, -499466.44, -424615.78, -58408.87, 0.00030011937, -0.110082895, -392670.72, -138356.53, 0.0, 9.998498, 9.999485 
1.2350967e+3, 2.8404826e+2, -432462.13, -293169.88, -42995.664, -0.0030971456, -0.11447907, -280967.3, -124649.76, 0.0, 9.998076, 9.999917 
1.2350999e+3, 2.940485e+2, -396845.84, -220324.3, -23832.203, 0.024660477, -0.091457084, -217163.31, -158848.7, 0.0, 9.997626, 9.999962 
1.2351028e+3, 3.0404806e+2, -413783.28, -237533.67, 5889.6343, -0.0013588885, -0.11187646, -237337.08, -237337.08, 0.0, 9.997322, 9.999657 
1.235106e+3, 3.140479e+2, -276841.78, 72583.125, -987.87756, -0.039760605, -0.102559365, 72585.92, 72585.92, 0.0, 9.997209, 10.0018425 
1.2450589e+3, 1.24062166e+2, -1332134.4, -1749866.9, 67138.77, 0.16006722, -0.047255784, -1321608.9, 402577.44, 0.0034511262, 10.003607, 9.998012 
1.245057e+3, 1.3406041e+2, -1218363.1, -1574384.0, -59817.03, -0.14013322, -0.08290449, -1208581.8, 417622.4, 0.0019010409, 10.003375, 9.998673 
1.2450621e+3, 1.4405967e+2, -1164416.1, -1499990.6, 3556.0112, 0.15532662, -0.023850529, -1164378.4, 363832.78, 0.0007028683, 10.003091, 9.998636 
1.2450637e+3, 1.5405829e+2, -1115778.8, -1426491.1, -1303.2865, 0.039756868, -0.027298685, -1115773.3, 314450.7, 0.00011956255, 10.002757, 9.998628 
1.2450659e+3, 1.6405682e+2, -1067283.1, -1345400.5, -3399.6848, -0.008531955, -0.038942136, -1067241.5, 264996.0, 0.0000023468863, 10.002384, 9.9986925 
1.245069e+3, 1.7405528e+2, -1028299.94, -1271828.6, -3655.256, 0.017827, -0.06774137, -1028245.06, 206007.06, 0.0, 10.001962, 9.998728 
1.2450717e+3, 1.840539e+2, -978368.2, -1197225.3, -7343.805, 0.02320676, -0.07890879, -978122.0, 158143.45, 0.0, 10.001631, 9.998728 
1.2450741e+3, 1.9405273e+2, -909953.06, -1109612.0, -5753.64, 0.006509921, -0.07363131, -909787.4, 128489.56, 0.0, 10.001411, 9.998762 
1.2450765e+3, 2.0405158e+2, -843747.75, -1013689.1, -11682.513, -0.0015572738, -0.06754219, -842948.4, 97339.23, 0.0, 10.001136, 9.998881 
1.2450789e+3, 2.140505e+2, -794565.0, -933946.44, -10989.207, -0.00017061707, -0.07133025, -793703.94, 48593.3, 0.0, 10.000777, 9.998928 
1.2450812e+3, 2.2404933e+2, -752111.2, -867142.06, -17363.3, 0.00022843729, -0.078027286, -749547.44, -5239.231, 0.0, 10.000415, 9.998889 
1.2450835e+3, 2.3404807e+2, -704205.44, -789517.2, -25987.1, 0.0000108641925, -0.0984417, -696912.8, -50591.59, 0.0, 10.000056, 9.998921 
1.2450858e+3, 2.4404712e+2, -637180.6, -672512.06, -27018.436, 0.005399192, -0.09914079, -622565.2, -74234.71, 0.0, 9.999698, 9.999224 
1.2450883e+3, 2.5404662e+2, -587743.44, -590150.7, -24336.795, 0.018659264, -0.08044222, -564580.5, -114246.125, 0.0, 9.9993305, 9.999293 
1.24509044e+3, 2.6404598e+2, -538132.75, -504415.88, -26198.896, 0.020852037, -0.076174974, -490120.03, -137779.98, 0.0, 9.998951, 9.999392 
1.2450925e+3, 2.7404514e+2, -492040.9, -427019.34, -28852.467, 0.0065253456, -0.10522707, -416062.72, -161713.88, 0.0, 9.998575, 9.999431 
1.2450948e+3, 2.8404477e+2, -399863.0, -270352.53, -22139.443, -0.0046271062, -0.10850499, -266672.44, -110320.2, 0.0, 9.99827, 9.999981 
1.2450973e+3, 2.9404515e+2, -333147.75, -181155.11, -34067.582, -0.011839218, -0.07985579, -173868.53, -115520.71, 0.0, 9.998028, 10.000036 
1.2450998e+3, 3.0404502e+2, -391757.13, -233366.27, -16499.512, -0.03385431, -0.073277764, -231665.78, -231665.78, 0.0, 9.997502, 9.999597 
1.24510325e+3, 3.1404415e+2, -368233.38, 22188.389, -1288.4336, -0.0035526198, -0.1256501, 22192.64, 22192.64, 0.0, 9.99661, 10.001783 
1.255062e+3, 1.24059305e+2, -1339239.5, -1764867.8, 39590.31, 0.10947835, -0.056326035, -1335588.3, 388627.22, 0.0037460192, 10.003606, 9.99791 
1.2550606e+3, 1.3405788e+2, -1219637.9, -1578749.5, -68148.15, -0.13329804, -0.056122955, -1207140.5, 419089.2, 0.0020748412, 10.00338, 9.998642 
1.2550656e+3, 1.4405686e+2, -1163234.0, -1497425.6, -10201.215, 0.20143305, -0.024156747, -1162922.9, 365316.1, 0.00077620865, 10.003091, 9.998654 
1.2550662e+3, 1.5405482e+2, -1113170.9, -1421711.6, -13574.988, 0.01281992, -0.09385548, -1112574.8, 317682.63, 0.00013646827, 10.002758, 9.998661 
1.2550679e+3, 1.6405337e+2, -1068510.5, -1347627.6, -20410.662, -0.052976295, -0.108035736, -1067025.9, 265245.25, 0.0000030208696, 10.002382, 9.998678 
1.255071e+3, 1.7405267e+2, -1028699.75, -1274181.6, -19845.318, 0.03375163, -0.049571887, -1027105.75, 207172.11, 0.0, 10.001967, 9.99871 
1.2550735e+3, 1.8405163e+2, -975184.7, -1191197.6, -17130.184, 0.05265706, -0.025261171, -973834.7, 162453.13, 0.0, 10.001633, 9.998769 
1.2550753e+3, 1.9405012e+2, -906630.44, -1103199.5, -14239.343, -0.01570253, -0.059490804, -905604.3, 132698.13, 0.0, 10.001412, 9.998806 
1.2550773e+3, 2.0404877e+2, -841184.56, -1007884.25, -26082.303, -0.0372855, -0.07926517, -837198.94, 103115.95, 0.0, 10.001133, 9.998922 
1.2550797e+3, 2.1404769e+2, -791899.56, -928016.06, -25083.496, 0.005250003, -0.08665816, -787424.3, 54899.992, 0.0, 10.000775, 9.99897 
1.2550819e+3, 2.2404663e+2, -765403.7, -894675.2, -32281.342, 0.029921114, -0.07670401, -757790.75, -13456.183, 0.0, 10.000414, 9.998701 
1.2550838e+3, 2.3404561e+2, -718683.7, -819759.4, -39480.44, 0.030722905, -0.051802732, -705090.6, -58744.44, 0.0, 10.000055, 9.998714 
1.2550856e+3, 2.4404454e+2, -632545.9, -662949.75, -41045.91, 0.019785482, -0.055833764, -603977.25, -55620.594, 0.0, 9.999697, 9.99929 
1.2550873e+3, 2.5404337e+2, -581349.9, -577283.06, -37411.58, -0.0077319555, -0.11174353, -541849.7, -91483.89, 0.0, 9.999331, 9.999382 
1.255089e+3, 2.6404265e+2, -540022.3, -508906.0, -40153.99, -0.017062983, -0.121830076, -481401.4, -129029.39, 0.0, 9.998953, 9.999361 
1.2550911e+3, 2.740425e+2, -495089.7, -432441.5, -41527.734, -0.00020063974, -0.07707352, -411748.75, -157374.36, 0.0, 9.99857, 9.999396 
1.255093e+3, 2.8404218e+2, -421310.53, -313270.78, -30664.582, -0.00995764, -0.06142697, -305174.13, -148796.13, 0.0, 9.998262, 9.99969 
1.2550949e+3, 2.9404166e+2, -356240.1, -228082.33, -41452.313, -0.061997596, -0.08931297, -215843.47, -157460.4, 0.0, 9.998023, 9.999717 
1.255097e+3, 3.040416e+2, -379464.44, -207655.98, -47672.41, -0.0754266, -0.06667959, -195314.63, -195314.63, 0.0, 9.9975, 9.999775 
1.2551005e+3, 3.14041e+2, -356832.8, 46874.953, -30001.205, 0.049301334, -0.11735235, 49092.29, 49092.29, 0.0, 9.996604, 10.001956 
1.2650657e+3, 1.2405742e+2, -1347973.6, -1767509.8, 60025.04, 0.114631936, -0.021349916, -1339554.5, 384681.44, 0.004053067, 10.003538, 9.997925 
1.2650637e+3, 1.3405588e+2, -1204533.1, -1565230.3, -24086.229, -0.14699931, -0.037677757, -1202931.9, 423318.25, 0.0022565385, 10.003459, 9.998696 
1.2650688e+3, 1.4405462e+2, -1147536.6, -1500140.3, 27361.322, 0.20665482, -0.02771808, -1145426.0, 382835.25, 0.0008535736, 10.003244, 9.998561 
1.2650691e+3, 1.5405267e+2, -1105387.8, -1430959.3, 12191.928, 0.017254759, -0.079913035, -1104931.9, 325347.84, 0.00015477135, 10.002869, 9.998544 
1.2650704e+3, 1.6405115e+2, -1041133.0, -1332556.5, 2842.041, -0.05367194, -0.092379, -1041105.3, 291188.4, 0.0000038088367, 10.0025625, 9.998694 
1.2650731e+3, 1.7405026e+2, -970748.0, -1242358.8, 6166.734, 0.024284039, -0.056516092, -970608.06, 263693.3, 0.0, 10.00235, 9.998742 
1.2650754e+3, 1.8404916e+2, -925978.7, -1172836.9, 5687.3335, 0.045103945, -0.039798975, -925847.75, 210463.86, 0.0, 10.001995, 9.998719 
1.2650768e+3, 1.9404772e+2, -907304.94, -1109874.0, -457.67148, -0.010017682, -0.061298892, -907303.94, 131021.75, 0.0, 10.001437, 9.998747 
1.2650785e+3, 2.0404635e+2, -863216.06, -1025009.1, -15776.469, -0.027155299, -0.07703711, -861692.06, 78646.47, 0.0, 10.00101, 9.998863 
1.2650806e+3, 2.1404512e+2, -798020.2, -937267.9, -22667.488, 0.008299056, -0.09311877, -794423.2, 47926.37, 0.0, 10.000761, 9.998913 
1.2650824e+3, 2.2404402e+2, -749841.06, -883680.56, -26056.848, 0.027082881, -0.08431765, -744947.06, -586.9869, 0.0, 10.000506, 9.998731 
1.2650838e+3, 2.3404314e+2, -688792.8, -801208.56, -16872.846, 0.023170674, -0.049725924, -686314.94, -39944.97, 0.0, 10.000243, 9.998752 
1.2650853e+3, 2.4404208e+2, -609265.56, -662672.25, -17062.328, 0.01130079, -0.0509008, -604279.94, -55899.58, 0.0, 9.999904, 9.999193 
1.2650867e+3, 2.5404075e+2, -569793.56, -583604.2, -29569.502, -0.013194952, -0.11392977, -546333.8, -95942.055, 0.0, 9.999462, 9.999275 
1.265088e+3, 2.6403993e+2, -523552.47, -496647.6, -37091.992, -0.02357132, -0.1257396, -470643.9, -118245.414, 0.0, 9.999047, 9.999399 
1.2650897e+3, 2.740399e+2, -480251.7, -419349.75, -33092.992, -0.011669554, -0.076485984, -404829.53, -150430.42, 0.0, 9.998646, 9.99945 
1.2650912e+3, 2.8403947e+2, -433609.8, -331950.9, -9505.133, -0.014525587, -0.070051834, -331069.8, -174666.25, 0.0, 9.998233, 9.999576 
1.265093e+3, 2.9403856e+2, -395987.38, -262025.03, -7604.8643, -0.043058034, -0.12166602, -261594.69, -203181.98, 0.0, 9.997813, 9.999584 
1.2650946e+3, 3.0403876e+2, -386101.78, -212155.53, -20651.78, -0.05960992, -0.06770923, -209737.27, -209737.27, 0.0, 9.99746, 9.999763 
1.2650971e+3, 3.1403813e+2, -279911.5, 69278.58, -20608.326, 0.028952165, -0.12114931, 70490.625, 70490.625, 0.0, 9.997194, 10.001825 
1.2750699e+3, 1.2405658e+2, -1339208.8, -1747726.4, 35495.965, 0.16763571, 0.056702066, -1336147.5, 388099.38, 0.004371989, 10.003532, 9.998064 
1.2750669e+3, 1.3405448e+2, -1193988.5, -1543824.4, -26600.572, -0.18158624, -0.02770064, -1191977.5, 434287.4, 0.0024458813, 10.003461, 9.998842 
1.2750718e+3, 1.4405307e+2, -1161992.4, -1530804.9, 12322.372, 0.1696724, -0.03481775, -1161581.1, 366696.3, 0.00093509414, 10.003246, 9.99835 
1.2750722e+3, 1.5405184e+2, -1123178.8, -1469505.4, -2069.927, 0.048525963, 0.01235482, -1123166.4, 307123.94, 0.00017466526, 10.002873, 9.998278 
1.2750733e+3, 1.6405025e+2, -1038272.7, -1326578.8, -6772.221, -0.015087029, 0.0050546336, -1038113.7, 294191.3, 0.0000047674703, 10.0025625, 9.998735 
1.2750752e+3, 1.7404814e+2, -965197.75, -1231036.1, -2236.095, -0.0114508895, -0.088540636, -965178.94, 269143.2, 0.0, 10.00235, 9.998821 
1.2750769e+3, 1.840465e+2, -936307.9, -1193683.3, -15641.778, -0.0014275077, -0.12220052, -935360.75, 200975.52, 0.0, 10.001991, 9.998578 
1.2750785e+3, 1.9404554e+2, -918293.1, -1133348.6, -21999.385, 0.021708492, -0.07819108, -916065.75, 122280.484, 0.0, 10.001439, 9.998586 
1.27508e+3, 2.0404436e+2, -873716.94, -1047442.5, -27268.9, 0.026878266, -0.06077082, -869537.25, 70820.78, 0.0, 10.001012, 9.998709 
1.2750813e+3, 2.1404283e+2, -809067.6, -960204.56, -32282.008, 0.006477945, -0.091107585, -802461.1, 39911.34, 0.0, 10.00076, 9.998756 
1.2750825e+3, 2.2404158e+2, -733784.25, -849465.6, -37079.973, -0.010951473, -0.10064542, -722919.25, 21464.977, 0.0, 10.000503, 9.998968 
1.2750837e+3, 2.3404072e+2, -669665.5, -761357.0, -26881.867, -0.022538176, -0.09071217, -662365.56, -15973.366, 0.0, 10.000241, 9.999026 
1.2750849e+3, 2.4403976e+2, -627696.25, -700792.1, -33612.38, -0.020682797, -0.08354018, -614589.94, -66188.56, 0.0, 9.999902, 9.998933 
1.2750863e+3, 2.5403872e+2, -591839.5, -628767.0, -45409.668, -0.00090188783, -0.08823692, -561283.4, -110871.23, 0.0, 9.999458, 9.998968 
1.2750873e+3, 2.640379e+2, -516967.56, -482047.16, -51738.88, -0.0017407812, -0.08944948, -444901.78, -92482.31, 0.0, 9.9990425, 9.999502 
1.275088e+3, 2.740374e+2, -470264.9, -398554.0, -46684.816, -0.031051237, -0.10152446, -375544.5, -121121.8, 0.0, 9.998646, 9.999594 
1.2750894e+3, 2.840367e+2, -429421.44, -323947.13, -24908.418, -0.022308249, -0.13165544, -318360.72, -161932.13, 0.0, 9.998234, 9.999631 
1.2750916e+3, 2.940359e+2, -393919.2, -255584.13, -21770.053, 0.03840529, -0.17634746, -252239.02, -193802.3, 0.0, 9.997803, 9.999634 
1.2750928e+3, 3.0403647e+2, -402483.8, -243412.58, -29923.422, 0.009032253, -0.0771353, -237969.81, -237969.81, 0.0, 9.997449, 9.999554 
1.2750934e+3, 3.1403565e+2, -312955.03, 3938.0142, -24153.111, -0.06800434, -0.12500519, 5768.356, 5768.356, 0.0, 9.997181, 10.001382 
1.2850735e+3, 1.2405525e+2, -1321601.8, -1738402.9, 34644.75, 0.17943472, 0.06279289, -1318741.6, 405519.4, 0.004702441, 10.003653, 9.998068 
1.2850703e+3, 1.3405333e+2, -1183429.6, -1539418.1, -20025.072, -0.18464135, -0.0040031783, -1182306.6, 443970.56, 0.0026428394, 10.003539, 9.998835 
1.2850751e+3, 1.440518e+2, -1151044.9, -1538342.3, 8435.66, 0.17266934, -0.015709227, -1150861.3, 377429.7, 0.001020959, 10.003377, 9.998235 
1.2850752e+3, 1.5405048e+2, -1086753.9, -1465918.4, 2922.4316, 0.052160755, 0.035154473, -1086731.4, 343573.63, 0.00019628371, 10.003185, 9.998151 
1.285076e+3, 1.640488e+2, -996295.56, -1309639.4, 28.28086, -0.01233331, 0.028511684, -996295.56, 336024.94, 0.0000059623408, 10.002866, 9.998706 
1.2850775e+3, 1.7404667e+2, -966413.1, -1234093.5, -3801.0537, -0.012548774, -0.068866394, -966359.1, 267978.75, 0.0, 10.002354, 9.998798 
1.2850788e+3, 1.8404494e+2, -944676.75, -1200016.3, -17842.66, -0.0012516172, -0.10918224, -943436.0, 192916.55, 0.0, 10.0019455, 9.998556 
1.2850802e+3, 1.9404384e+2, -884482.0, -1119464.8, -15001.996, 0.030649869, -0.076374255, -883528.1, 154835.22, 0.0, 10.001682, 9.998564 
1.2850814e+3, 2.0404255e+2, -830027.2, -1034580.06, -9388.986, 0.035025477, -0.06342876, -829597.1, 110778.6, 0.0, 10.0013485, 9.998634 
1.2850821e+3, 2.14041e+2, -792296.8, -960417.9, -9604.11, -0.0017047927, -0.08923277, -791749.94, 50640.543, 0.0, 10.000913, 9.99868 
1.2850828e+3, 2.240397e+2, -732133.5, -847534.0, -16959.627, -0.024512906, -0.09991342, -729692.7, 14709.829, 0.0, 10.000509, 9.998978 
1.2850839e+3, 2.3403877e+2, -681652.8, -764579.7, -26475.346, -0.02626488, -0.09987662, -673921.1, -27510.219, 0.0, 10.00015, 9.999048 
1.2850848e+3, 2.4403779e+2, -649685.4, -718219.1, -39982.96, -0.021304544, -0.09308861, -631294.3, -82874.04, 0.0, 9.999781, 9.998872 
1.2850855e+3, 2.540368e+2, -606197.6, -643809.06, -35911.66, -0.0074412716, -0.083233215, -584465.6, -134034.7, 0.0, 9.999394, 9.998896 
1.2850863e+3, 2.6403597e+2, -516703.28, -480407.34, -33072.336, -0.0062736, -0.08162014, -460830.94, -108392.484, 0.0, 9.999037, 9.9995165 
1.2850867e+3, 2.740353e+2, -456404.84, -389211.4, -37755.77, -0.02265323, -0.1109098, -372268.66, -117826.06, 0.0, 9.998729, 9.999618 
1.2850878e+3, 2.840346e+2, -406043.1, -302861.63, -22976.385, -0.012840272, -0.14949809, -297976.56, -141528.02, 0.0, 9.998352, 9.999719 
1.2850894e+3, 2.94034e+2, -379735.84, -238155.78, -18546.637, 0.033406444, -0.1856556, -235766.53, -177311.58, 0.0, 9.997853, 9.99973 
1.28509e+3, 3.0403492e+2, -401527.97, -228605.88, -6478.4146, -0.004011523, -0.062310968, -228363.52, -228363.52, 0.0, 9.997395, 9.9996805 
1.2850903e+3, 3.1403396e+2, -341443.97, -24706.887, 26801.693, -0.07875396, -0.13545634, -22454.988, -22454.988, 0.0, 9.99705, 10.001248 
1.2950768e+3, 1.2405354e+2, -1331476.0, -1760417.1, 8547.961, 0.14304313, -0.00207027, -1331305.6, 392971.72, 0.0050440226, 10.003658, 9.997915 
1.2950741e+3, 1.3405246e+2, -1195867.4, -1564638.5, -24127.533, -0.16006841, 0.032181077, -1194295.5, 431991.06, 0.0028473313, 10.003537, 9.998662 
1.2950788e+3, 1.440509e+2, -1153310.4, -1542047.0, -277.65405, 0.21035302, 0.028126007, -1153310.1, 374990.8, 0.0011110725, 10.003373, 9.998212 
1.2950782e+3, 1.5404871e+2, -1085667.8, -1464366.3, -4120.3135, 0.027213106, -0.0092319455, -1085622.9, 344699.88, 0.000219555, 10.003187, 9.998161 
1.2950785e+3, 1.6404696e+2, -1003359.0, -1324427.8, -19184.066, -0.047097657, -0.020774122, -1002216.8, 330122.6, 0.0000074533, 10.002865, 9.998605 
1.29508e+3, 1.7404585e+2, -974448.75, -1251456.9, -23409.4, 0.01796881, 0.00038677393, -972484.4, 261863.78, 0.0, 10.002356, 9.998678 
1.2950812e+3, 1.8404447e+2, -938540.7, -1187531.4, -29681.75, 0.04213731, -0.0040479694, -935051.25, 201308.72, 0.0, 10.0019455, 9.998642 
1.2950817e+3, 1.9404264e+2, -877235.5, -1104168.1, -25317.639, 0.0153540755, -0.055912655, -874445.25, 163931.22, 0.0, 10.00168, 9.99867 
1.2950823e+3, 2.04041e+2, -830211.6, -1034201.3, -26667.408, -0.004693746, -0.08435643, -826783.06, 113608.17, 0.0, 10.001345, 9.99864 
1.2950827e+3, 2.1403965e+2, -792309.0, -961067.0, -26639.844, -0.017058123, -0.08808952, -788203.56, 54199.746, 0.0, 10.000915, 9.998676 
1.2950835e+3, 2.240384e+2, -746427.7, -877719.44, -31851.35, -0.0153106, -0.08342649, -739108.56, 5306.311, 0.0, 10.000511, 9.998771 
1.2950844e+3, 2.340373e+2, -697822.7, -797994.0, -39756.305, 0.008403306, -0.07832647, -683962.0, -37536.227, 0.0, 10.000148, 9.99882 
1.2950848e+3, 2.4403618e+2, -641529.75, -700291.7, -54604.566, 0.0056676306, -0.08016203, -608903.44, -60466.652, 0.0, 9.999776, 9.998998 
1.2950847e+3, 2.5403506e+2, -595334.1, -621003.4, -49693.566, -0.034685582, -0.097609594, -556844.5, -106396.74, 0.0, 9.9993925, 9.999053 
1.295085e+3, 2.6403424e+2, -521899.56, -491549.66, -44608.105, -0.03891027, -0.101334125, -459606.0, -107150.79, 0.0, 9.999037, 9.99944 
1.2950858e+3, 2.7403376e+2, -464382.84, -403501.4, -47709.004, 0.009263205, -0.10488904, -377348.97, -122890.32, 0.0, 9.998717, 9.999525 
1.2950863e+3, 2.840332e+2, -399728.34, -287633.8, -39863.695, 0.011003959, -0.12495826, -274903.1, -118439.79, 0.0, 9.9983425, 9.999828 
1.2950863e+3, 2.9403287e+2, -370863.2, -218212.33, -35498.98, -0.0592982, -0.14910723, -210360.88, -151893.66, 0.0, 9.997848, 9.999869 
1.2950864e+3, 3.040341e+2, -369751.25, -163818.61, -20246.217, -0.10033672, -0.02282882, -161846.98, -161846.98, 0.0, 9.997397, 10.000126 
1.2950881e+3, 3.1403315e+2, -333234.06, -2464.5984, 18938.52, -0.014253515, -0.14176911, -1383.7872, -1383.7872, 0.0, 9.997027, 10.001412 
1.3050805e+3, 1.2405252e+2, -1299524.1, -1752494.0, -1501.706, 0.12682576, -0.009826097, -1299519.3, 424768.06, 0.0053944704, 10.003915, 9.997847 
1.3050778e+3, 1.3405147e+2, -1161305.1, -1559341.5, -11465.992, -0.14975695, 0.038526453, -1160975.1, 465321.5, 0.003057975, 10.003827, 9.998559 
1.3050826e+3, 1.4404978e+2, -1121967.1, -1522021.9, 10863.923, 0.22696881, 0.023244819, -1121672.4, 406640.03, 0.0012046372, 10.003568, 9.998256 
1.3050812e+3, 1.540475e+2, -1097588.8, -1463595.0, 9317.489, 0.021575263, -0.027498119, -1097351.8, 332982.47, 0.000244213, 10.003078, 9.998219 
1.3050812e+3, 1.6404577e+2, -1035064.75, -1350484.5, -4280.8228, -0.057066668, -0.03496178, -1035006.7, 297343.88, 0.000009295233, 10.002695, 9.9985075 
1.3050826e+3, 1.7404485e+2, -964736.94, -1259077.3, -8730.281, 0.0314442, 0.015019401, -964478.25, 269880.5, 0.0, 10.002476, 9.998568 
1.3050833e+3, 1.840435e+2, -911458.25, -1178531.5, -18493.291, 0.06064488, 0.02271689, -910183.8, 226186.9, 0.0, 10.00215, 9.998606 
1.3050832e+3, 1.9404154e+2, -881612.9, -1108893.4, -25074.602, 0.009075251, -0.04129435, -878879.4, 159508.88, 0.0, 10.001663, 9.998645 
1.3050833e+3, 2.040398e+2, -834577.9, -1031536.6, -27387.016, -0.017720226, -0.08013488, -830840.6, 109562.94, 0.0, 10.001295, 9.998681 
1.305084e+3, 2.1403843e+2, -762715.6, -941332.8, -24157.78, -0.010825771, -0.090666965, -759506.0, 82909.37, 0.0, 10.001095, 9.998724 
1.3050842e+3, 2.2403719e+2, -717061.8, -868375.56, -26986.307, -0.0016512892, -0.086419925, -712392.94, 32033.756, 0.0, 10.000733, 9.998728 
1.3050845e+3, 2.340361e+2, -702421.2, -805736.4, -24148.398, 0.011405248, -0.07282805, -697055.56, -50617.99, 0.0, 10.000141, 9.99877 
1.3050845e+3, 2.4403496e+2, -656757.25, -703027.5, -30308.201, 0.005675708, -0.07640719, -641763.4, -93314.55, 0.0, 9.999651, 9.999039 
1.3050841e+3, 2.540337e+2, -603662.9, -619335.0, -33714.793, -0.026804248, -0.111004084, -576885.5, -126424.96, 0.0, 9.999311, 9.9991045 
1.305084e+3, 2.6403296e+2, -539493.3, -500022.94, -31451.998, -0.03183836, -0.1134803, -482627.2, -130159.59, 0.0, 9.998918, 9.999439 
1.3050844e+3, 2.740327e+2, -504455.0, -423864.38, -29942.943, 0.003992185, -0.08943193, -413957.16, -159488.03, 0.0, 9.998447, 9.999516 
1.3050845e+3, 2.8403226e+2, -449237.5, -315930.2, -23362.637, -0.0015020759, -0.099609256, -311954.38, -155480.78, 0.0, 9.998023, 9.999787 
1.305084e+3, 2.940317e+2, -398696.56, -236394.11, -33844.555, -0.071531445, -0.14102063, -229619.36, -171139.5, 0.0, 9.997677, 9.999827 
1.3050838e+3, 3.04033e+2, -365855.97, -126876.52, -29876.262, -0.11061533, -0.018761136, -123198.125, -123198.125, 0.0, 9.997275, 10.000438 
1.3050848e+3, 3.1403255e+2, -362963.44, -14637.117, 511.53418, -0.025515072, -0.11865544, -14636.366, -14636.366, 0.0, 9.996812, 10.001435 
1.3150842e+3, 1.24052316e+2, -1300114.3, -1751925.9, -24373.332, 0.12202329, 0.043634698, -1298803.3, 425486.38, 0.005749355, 10.003905, 9.997855 
1.3150817e+3, 1.3405046e+2, -1163038.8, -1564284.9, -14050.562, -0.15522273, 0.015102888, -1162547.4, 463759.22, 0.003271918, 10.003833, 9.998522 
1.3150859e+3, 1.440485e+2, -1113801.8, -1506599.8, -7731.6777, 0.21877097, -0.030462382, -1113649.6, 414674.9, 0.0013003697, 10.003574, 9.998359 
1.3150845e+3, 1.5404691e+2, -1090964.5, -1449557.5, -9544.787, 0.031845517, -0.021083862, -1090710.6, 339628.03, 0.00026992275, 10.003077, 9.998316 
1.3150841e+3, 1.6404532e+2, -1042160.5, -1365021.8, -14810.589, -0.045772042, -0.015362927, -1041482.5, 290870.97, 0.00001153221, 10.002693, 9.998409 
1.3150851e+3, 1.7404373e+2, -972040.75, -1274789.1, -17236.46, 0.026474679, -0.022224639, -971062.6, 263306.28, 0.0, 10.002478, 9.99846 
1.3150854e+3, 1.8404214e+2, -922222.5, -1200765.9, -37051.453, 0.051360704, -0.025865186, -917378.2, 219005.7, 0.0, 10.002149, 9.998454 
1.315085e+3, 1.9404057e+2, -892154.7, -1131776.4, -43870.09, 0.01002388, -0.033788163, -884375.44, 154022.84, 0.0, 10.001666, 9.9984865 
1.3150848e+3, 2.0403898e+2, -829058.75, -1020495.1, -37086.867, -0.0063487026, -0.052705914, -822125.06, 118287.39, 0.0, 10.001296, 9.998757 
1.3150851e+3, 2.1403739e+2, -756764.25, -927900.4, -31833.49, 0.014196937, -0.096529245, -751034.6, 91391.48, 0.0, 10.001089, 9.99882 
1.3150851e+3, 2.2403608e+2, -710590.44, -852975.9, -49069.65, 0.01307782, -0.10752029, -695317.94, 49119.68, 0.0, 10.000724, 9.998838 
1.3150844e+3, 2.3403524e+2, -694816.06, -790048.6, -46599.234, -0.017792009, -0.08300401, -675808.06, -29362.035, 0.0, 10.00014, 9.9988785 
1.3150838e+3, 2.4403417e+2, -658984.6, -708208.4, -44338.746, -0.021979164, -0.08237084, -632884.9, -84428.58, 0.0, 9.999653, 9.999002 
1.3150838e+3, 2.5403282e+2, -607657.7, -626601.25, -45455.957, 0.0123915095, -0.12319593, -570697.1, -120228.234, 0.0, 9.999306, 9.999058 
1.3150834e+3, 2.6403213e+2, -536281.1, -492520.0, -47881.293, 0.011309371, -0.11800825, -461756.7, -109281.305, 0.0, 9.998912, 9.999494 
1.3150825e+3, 2.7403226e+2, -500341.75, -415166.16, -45951.7, -0.040189963, -0.06345995, -395101.9, -140628.02, 0.0, 9.998446, 9.999576 
1.3150819e+3, 2.8403175e+2, -461716.2, -343256.97, -36552.74, -0.05255674, -0.07222291, -332885.94, -176406.67, 0.0, 9.998027, 9.9995985 
1.3150822e+3, 2.9403055e+2, -415858.9, -268232.06, -44809.863, -0.011039263, -0.1584761, -255695.34, -197202.86, 0.0, 9.99766, 9.999618 
1.3150817e+3, 3.040317e+2, -355771.53, -103336.48, -45387.67, -0.04240049, -0.047780797, -95423.82, -95423.82, 0.0, 9.997263, 10.000607 
1.3150808e+3, 3.1403235e+2, -371281.38, -29325.83, -10684.36, -0.115575776, -0.058560546, -28992.324, -28992.324, 0.0, 9.996801, 10.001338 
1.3250884e+3, 1.2405177e+2, -1315636.0, -1770088.9, -15679.593, 0.14199015, 0.034819864, -1315095.6, 409198.4, 0.0061044483, 10.003843, 9.997763 
1.3250856e+3, 1.3404989e+2, -1162872.9, -1577509.8, 4075.3867, -0.15957199, 0.0171874, -1162832.9, 463479.4, 0.003486321, 10.003894, 9.998401 
1.3250895e+3, 1.440479e+2, -1089772.1, -1490926.3, -11977.354, 0.20084052, -0.027090492, -1089414.8, 438915.94, 0.0013970502, 10.003724, 9.998394 
1.3250878e+3, 1.5404636e+2, -1060866.4, -1429831.6, -19337.049, 0.04732195, -0.01858676, -1059855.6, 370488.16, 0.00029637254, 10.003262, 9.998363 
1.3250871e+3, 1.6404472e+2, -1022223.3, -1357566.3, -15931.442, -0.0219611, -0.019452976, -1021468.2, 310890.53, 0.000014169166, 10.002839, 9.998389 
1.3250877e+3, 1.7404297e+2, -974969.3, -1279215.5, -13319.235, 0.026290009, -0.038519867, -974387.4, 259988.31, 0.0, 10.002471, 9.998432 
1.3250875e+3, 1.8404134e+2, -925799.1, -1207893.5, -28374.484, 0.043673452, -0.044120483, -922973.4, 213418.03, 0.0, 10.002148, 9.998405 
1.3250868e+3, 1.9403982e+2, -862440.25, -1122955.3, -27974.178, 0.015599792, -0.040025745, -859470.25, 178935.31, 0.0, 10.001894, 9.998438 
1.3250864e+3, 2.0403834e+2, -807029.06, -1007064.7, -22054.205, 0.005988222, -0.048370168, -804626.4, 135792.83, 0.0, 10.001435, 9.998782 
1.3250862e+3, 2.1403685e+2, -814677.56, -951345.4, -23409.902, 0.02340432, -0.08324537, -810778.9, 31653.264, 0.0, 10.000674, 9.998858 
1.3250856e+3, 2.2403565e+2, -779011.3, -872636.56, -36567.37, 0.016658353, -0.09408734, -766422.0, -21979.049, 0.0, 10.000198, 9.998956 
1.3250844e+3, 2.3403479e+2, -686949.94, -771770.3, -33035.34, -0.023855707, -0.08156938, -675601.75, -29150.996, 0.0, 10.000133, 9.999007 
1.3250837e+3, 2.4403375e+2, -625397.2, -686129.75, -31530.746, -0.02819684, -0.08619619, -611987.94, -63527.67, 0.0, 9.999859, 9.999055 
1.3250832e+3, 2.540325e+2, -607536.94, -620968.75, -28292.76, 0.019028153, -0.12339008, -585173.94, -134702.08, 0.0, 9.999285, 9.999105 
1.3250823e+3, 2.6403183e+2, -555618.7, -504067.66, -27864.383, 0.017053394, -0.1187069, -491885.28, -139406.97, 0.0, 9.998791, 9.999473 
1.3250807e+3, 2.7403185e+2, -506506.38, -421340.16, -33210.063, -0.05480518, -0.07062361, -409921.13, -155442.83, 0.0, 9.998419, 9.999547 
1.3250798e+3, 2.840314e+2, -461101.44, -343976.28, -19478.996, -0.07045273, -0.072107136, -340821.7, -184338.22, 0.0, 9.998037, 9.999588 
1.3250798e+3, 2.9403043e+2, -417168.22, -268715.97, -14785.075, -0.0056865816, -0.13481732, -267257.75, -208763.4, 0.0, 9.997651, 9.999619 
1.325079e+3, 3.0403134e+2, -360357.88, -95176.45, -12649.779, -0.027190495, -0.05287369, -94574.39, -94574.39, 0.0, 9.997189, 10.000697 
1.3250774e+3, 3.140319e+2, -408709.75, -65598.51, 14615.874, -0.12582695, -0.081111215, -64977.023, -64977.023, 0.0, 9.996624, 10.001174 
1.3350925e+3, 1.2405099e+2, -1329035.5, -1799580.3, -31518.803, 0.17635606, -0.034886412, -1326933.6, 397366.3, 0.0064571486, 10.003849, 9.997559 
1.3350894e+3, 1.3404988e+2, -1179192.8, -1609250.3, 5928.3154, -0.16341633, 0.045075763, -1179111.0, 447201.8, 0.0036994908, 10.003886, 9.998186 
1.335093e+3, 1.4404806e+2, -1092359.9, -1494749.8, -28976.396, 0.17107022, 0.032539193, -1090283.9, 438046.66, 0.0014937172, 10.003716, 9.998372 
1.3350913e+3, 1.5404591e+2, -1059282.0, -1428121.4, -36505.617, 0.064901635, -0.020325046, -1055703.6, 374645.4, 0.00032323142, 10.003267, 9.998372 
1.3350902e+3, 1.6404404e+2, -1018509.2, -1351360.9, -31031.506, 0.0096243275, -0.046995815, -1015640.9, 316724.75, 0.000017128494, 10.002845, 9.99843 
1.3350901e+3, 1.7404263e+2, -971848.56, -1273496.4, -27726.93, 0.028857209, -0.035359163, -969321.1, 265057.53, 0.00000000003443261, 10.002473, 9.998471 
1.3350897e+3, 1.8404113e+2, -922063.75, -1200218.9, -39692.605, 0.035439096, -0.033808805, -916510.5, 219882.47, 0.0, 10.002147, 9.998459 
1.3350888e+3, 1.9403937e+2, -858845.56, -1115229.9, -37870.457, 0.024042547, -0.059253585, -853368.75, 185040.75, 0.0, 10.001892, 9.998492 
1.3350879e+3, 2.040379e+2, -809689.75, -1011517.9, -50199.35, 0.016386885, -0.065438665, -797893.5, 142529.88, 0.0, 10.0014305, 9.9987545 
1.3350868e+3, 2.1403688e+2, -817084.6, -956849.6, -52659.465, 0.015259403, -0.0523488, -799465.25, 42967.996, 0.0, 10.000675, 9.99882 
1.3350856e+3, 2.2403584e+2, -769302.0, -852958.94, -42441.84, 0.0077249934, -0.048672646, -751540.75, -7098.128, 0.0, 10.0002, 9.99909 
1.3350847e+3, 2.3403482e+2, -677146.8, -750290.56, -34983.297, -0.008882229, -0.069036104, -663109.06, -16657.56, 0.0, 10.000127, 9.999159 
1.3350835e+3, 2.4403378e+2, -618062.2, -669030.2, -51558.22, -0.0155337425, -0.087632604, -586033.7, -37573.332, 0.0, 9.99985, 9.999177 
1.3350822e+3, 2.540328e+2, -600146.0, -605017.0, -49361.21, -0.008123586, -0.11081618, -553160.25, -102691.07, 0.0, 9.999281, 9.999217 
1.3350809e+3, 2.6403204e+2, -561471.9, -516569.5, -42331.215, -0.015605973, -0.11528688, -491104.22, -138627.83, 0.0, 9.998792, 9.999388 
1.3350792e+3, 2.7403155e+2, -515479.72, -437279.5, -45376.496, -0.04453925, -0.10969676, -416481.0, -161998.84, 0.0, 9.998406, 9.999444 
1.3350779e+3, 2.840312e+2, -452655.06, -324374.22, -32720.088, -0.06002033, -0.09793335, -316510.5, -160024.48, 0.0, 9.998028, 9.999728 
1.335077e+3, 2.9403135e+2, -405561.47, -243848.05, -27095.252, -0.055883095, -0.067996524, -239428.97, -180943.5, 0.0, 9.997647, 9.999791 
1.3350758e+3, 3.040319e+2, -358209.72, -91231.65, -32147.03, -0.06678819, -0.03267407, -87415.35, -87415.35, 0.0, 9.9971895, 10.000725 
1.3350746e+3, 3.1403124e+2, -425498.06, -95497.76, -1359.1699, -0.066697836, -0.18157588, -95492.16, -95492.16, 0.0, 9.996603, 10.000979 
1.3450964e+3, 1.2405098e+2, -1274369.5, -1775807.5, -29234.285, 0.1579032, -0.049316335, -1272670.9, 451628.56, 0.0068061836, 10.004243, 9.997531 
1.3450935e+3, 1.3404986e+2, -1172498.1, -1608901.8, 34438.223, -0.14221795, 0.03384359, -1169797.1, 456515.1, 0.0039106496, 10.003947, 9.998158 
1.3450968e+3, 1.4404808e+2, -1098642.1, -1505288.0, 1093.1825, 0.18713598, 0.028838981, -1098639.1, 429690.8, 0.0015897172, 10.003706, 9.998304 
1.3450947e+3, 1.5404603e+2, -1025225.3, -1420503.1, -15186.363, 0.06565249, -0.0069291536, -1024642.7, 405705.53, 0.0003501717, 10.00354, 9.998293 
1.3450933e+3, 1.6404411e+2, -971582.94, -1337699.1, -22233.938, 0.00583653, -0.029499803, -970237.6, 362127.97, 0.000020254476, 10.003206, 9.99835 
1.3450928e+3, 1.740425e+2, -952293.94, -1272671.9, -28150.16, 0.037155043, -0.031845674, -949839.3, 284541.3, 0.0000000014653116, 10.002645, 9.998394 
1.3450919e+3, 1.8404093e+2, -918839.6, -1181417.6, -38170.04, 0.05033746, -0.036130354, -913403.5, 222991.56, 0.0, 10.002095, 9.998613 
1.3450907e+3, 1.9403945e+2, -895526.5, -1112636.5, -28686.965, 0.036358953, -0.054511767, -891800.0, 146608.95, 0.0, 10.001554, 9.998673 
1.3450892e+3, 2.0403814e+2, -850448.7, -1028726.9, -36459.133, 0.021952728, -0.05566891, -843280.75, 97140.586, 0.0, 10.001141, 9.998776 
1.3450876e+3, 2.1403712e+2, -782121.8, -939379.4, -36730.043, 0.0071955696, -0.041296273, -773965.94, 68465.56, 0.0, 10.000912, 9.998827 
1.345086e+3, 2.2403614e+2, -720081.0, -816793.2, -21837.639, -0.00028571725, -0.038232166, -715378.7, 29061.969, 0.0, 10.000484, 9.999202 
1.3450848e+3, 2.3403522e+2, -719896.75, -756259.94, -18234.61, 0.0024675636, -0.061245445, -712328.2, -65879.82, 0.0, 9.999773, 9.999287 
1.3450833e+3, 2.4403434e+2, -696467.9, -695018.0, -35961.234, -0.0033808162, -0.07745733, -659774.44, -111318.586, 0.0, 9.999265, 9.999279 
1.3450813e+3, 2.540335e+2, -626765.5, -606514.75, -35615.15, -0.021213252, -0.09240045, -579613.6, -129150.65, 0.0, 9.999052, 9.999316 
1.3450794e+3, 2.640328e+2, -574423.1, -522303.34, -28422.102, -0.03442351, -0.09833158, -509802.47, -157332.47, 0.0, 9.998703, 9.99939 
1.3450775e+3, 2.7403218e+2, -551490.8, -454754.9, -26873.96, -0.041166287, -0.1056053, -447790.5, -193313.1, 0.0, 9.998163, 9.999439 
1.345076e+3, 2.84032e+2, -488478.4, -321476.5, -5016.05, -0.051089488, -0.089180596, -321326.0, -164846.05, 0.0, 9.997698, 9.999906 
1.3450745e+3, 2.940325e+2, -434309.72, -234710.7, 2342.4307, -0.065342814, -0.036787692, -234683.22, -176208.72, 0.0, 9.997354, 9.999994 
1.3450728e+3, 3.040328e+2, -385336.0, -102991.305, -6642.3955, -0.07042771, -0.042049024, -102835.125, -102835.125, 0.0, 9.997, 10.000735 
1.3450713e+3, 3.140323e+2, -433943.03, -110629.234, 21836.34, -0.04689621, -0.17445298, -109161.09, -109161.09, 0.0, 9.996594, 10.000879 
1.3551e+3, 1.240518e+2, -1265966.8, -1757238.9, -52581.367, 0.08422272, -0.009290534, -1260402.0, 463889.75, 0.0071519897, 10.004238, 9.997662 
1.3550979e+3, 1.3404994e+2, -1160483.6, -1584444.8, 23592.506, -0.10049988, -0.017120348, -1159174.9, 467135.06, 0.00411982, 10.003951, 9.998325 
1.355101e+3, 1.4404804e+2, -1107756.6, -1525344.9, -6700.993, 0.24092644, -0.038045213, -1107649.1, 420679.3, 0.0016847579, 10.00371, 9.998165 
1.3550982e+3, 1.5404677e+2, -1038230.7, -1447384.9, -21898.244, 0.04867678, 0.022458699, -1037062.0, 393279.0, 0.00037697863, 10.003539, 9.99811 
1.3550961e+3, 1.6404498e+2, -985114.25, -1365040.3, -43515.29, -0.03324766, 0.03266346, -980193.9, 352164.3, 0.000023370363, 10.003202, 9.998165 
1.3550955e+3, 1.740426e+2, -964949.2, -1298970.6, -49422.965, 0.048752625, -0.028637594, -957789.9, 276591.2, 0.0000000068048798, 10.002644, 9.998215 
1.3550943e+3, 1.8404087e+2, -901969.2, -1146242.6, -59520.23, 0.08341156, -0.050427016, -888238.2, 248158.9, 0.0, 10.002093, 9.998856 
1.3550922e+3, 1.940401e+2, -874876.8, -1070222.1, -49444.87, 0.05045612, -0.027116837, -863074.6, 175328.98, 0.0, 10.0015545, 9.998964 
1.3550903e+3, 2.0403907e+2, -845201.5, -1018293.44, -47424.33, 0.02140481, -0.021181833, -833059.7, 107353.31, 0.0, 10.001142, 9.998848 
1.3550882e+3, 2.1403766e+2, -779161.75, -932516.25, -45609.227, -0.0022204428, -0.049366605, -766622.4, 75804.08, 0.0, 10.000908, 9.998877 
1.3550864e+3, 2.2403659e+2, -715469.94, -805807.06, -47988.734, -0.009196643, -0.061095357, -694736.1, 49700.246, 0.0, 10.000478, 9.999281 
1.3550846e+3, 2.3403601e+2, -714680.44, -745102.56, -45210.367, 0.0077542756, -0.057735436, -682190.8, -35749.703, 0.0, 9.99977, 9.999365 
1.3550827e+3, 2.4403538e+2, -689847.44, -681266.5, -46168.63, 0.0058624665, -0.05653461, -639189.44, -90742.88, 0.0, 9.999264, 9.999374 
1.3550803e+3, 2.540347e+2, -620656.4, -592459.3, -42533.6, -0.023214651, -0.068890534, -561748.5, -111295.45, 0.0, 9.999044, 9.999416 
1.355078e+3, 2.6403412e+2, -571186.75, -514018.75, -46972.473, -0.042060323, -0.068701625, -487616.75, -135157.7, 0.0, 9.998695, 9.999451 
1.3550757e+3, 2.7403373e+2, -548055.5, -446996.6, -45664.53, -0.04710903, -0.057513896, -429419.7, -174955.52, 0.0, 9.998159, 9.9994955 
1.3550736e+3, 2.8403363e+2, -472729.78, -289113.3, -17956.373, -0.04730487, -0.04498873, -287373.8, -130908.3, 0.0, 9.997698, 10.000129 
1.355072e+3, 2.940339e+2, -419505.34, -201484.02, -8238.257, -0.040491816, -0.041332416, -201173.17, -142711.45, 0.0, 9.997342, 10.000229 
1.3550702e+3, 3.0403396e+2, -388282.97, -106789.77, -20118.676, -0.044313524, -0.08169281, -105359.14, -105359.14, 0.0, 9.996989, 10.000715 
1.3550678e+3, 3.1403485e+2, -435639.28, -111189.3, 10880.885, -0.06933716, -0.06819055, -110824.805, -110824.805, 0.0, 9.996582, 10.000882 
1.3651043e+3, 1.24052726e+2, -1210620.4, -1731779.0, -54543.06, 0.08657046, 0.017991638, -1204973.3, 519310.88, 0.0074978736, 10.004625, 9.997651 
1.3651021e+3, 1.3405064e+2, -1124105.0, -1564143.1, 18624.158, -0.089921385, -0.012829417, -1123318.1, 502985.1, 0.0043286607, 10.004191, 9.998348 
1.3651048e+3, 1.4404862e+2, -1104647.9, -1530172.5, -12083.243, 0.2358145, -0.04542322, -1104305.0, 424017.63, 0.0017792016, 10.00376, 9.998108 
1.3651016e+3, 1.5404736e+2, -1069545.1, -1470678.3, -18970.523, 0.05773767, 0.023276744, -1068650.0, 361685.5, 0.00040358416, 10.003359, 9.998036 
1.3650993e+3, 1.6404562e+2, -1021524.56, -1371180.3, -34646.215, -0.023010464, 0.03693508, -1018124.7, 314227.8, 0.000026350568, 10.002903, 9.998267 
1.365098e+3, 1.7404333e+2, -998490.06, -1302046.9, -20842.234, 0.046779763, -0.02637187, -997065.7, 237308.56, 0.000000016360648, 10.002357, 9.998332 
1.3650963e+3, 1.8404172e+2, -925567.8, -1153318.3, -20171.621, 0.07694214, -0.04591474, -923795.06, 212594.33, 0.0, 10.001913, 9.998895 
1.3650939e+3, 1.9404101e+2, -861720.7, -1060502.1, -29050.297, 0.04603157, -0.016189562, -857562.25, 180833.02, 0.0, 10.00163, 9.998995 
1.3650915e+3, 2.0404004e+2, -825565.8, -994520.1, -35517.69, 0.020739181, -0.012416309, -818402.94, 122001.11, 0.0, 10.001215, 9.998975 
1.3650891e+3, 2.1403866e+2, -812867.5, -932898.2, -28379.164, 0.004540903, -0.05392777, -806495.94, 35920.996, 0.0, 10.00061, 9.999016 
1.3650867e+3, 2.2403763e+2, -765068.44, -826526.6, -31448.875, -0.004237285, -0.069647044, -751828.1, -7401.8174, 0.0, 10.000127, 9.999306 
1.3650842e+3, 2.3403715e+2, -707771.1, -740865.4, -34986.4, -0.0030592745, -0.057259735, -685616.06, -39185.563, 0.0, 9.999815, 9.999372 
1.3650818e+3, 2.4403664e+2, -663809.8, -659264.0, -34693.8, -0.008378518, -0.045988407, -626768.75, -78333.73, 0.0, 9.999403, 9.999457 
1.3650793e+3, 2.5403616e+2, -642549.5, -592078.06, -33133.117, -0.023042511, -0.0486696, -575664.75, -125224.72, 0.0, 9.998851, 9.999511 
1.3650766e+3, 2.640357e+2, -605332.0, -512316.13, -36175.24, -0.033334434, -0.047864847, -499903.47, -147458.69, 0.0, 9.998386, 9.999609 
1.3650739e+3, 2.740354e+2, -553368.0, -430869.0, -28322.156, -0.038356543, -0.04587259, -424637.8, -170189.05, 0.0, 9.998046, 9.999659 
1.3650712e+3, 2.8403544e+2, -481545.97, -292348.8, -3086.3176, -0.04171529, -0.030819017, -292298.47, -135849.58, 0.0, 9.997636, 10.000135 
1.3650693e+3, 2.940358e+2, -452393.03, -217417.05, -12991.437, -0.039262272, -0.017465271, -216700.95, -158256.17, 0.0, 9.997119, 10.000225 
1.365067e+3, 3.040356e+2, -420133.47, -109935.01, -25328.314, -0.040170968, -0.08590491, -107880.51, -107880.51, 0.0, 9.996719, 10.000823 
1.3650642e+3, 3.1403726e+2, -433617.0, -79186.63, 16083.792, -0.07779354, -0.01027158, -78458.26, -78458.26, 0.0, 9.996461, 10.00116 
1.3751097e+3, 1.2405376e+2, -1222198.4, -1755737.3, -80135.54, 0.15445893, 0.028065085, -1210422.3, 513854.0, 0.0078491215, 10.004623, 9.997489 
1.3751061e+3, 1.3405205e+2, -1132373.6, -1581430.1, 2166.4143, -0.10925313, 0.04715639, -1132363.1, 493928.53, 0.004540282, 10.004193, 9.998228 
1.3751078e+3, 1.440499e+2, -1101761.8, -1525686.6, -28404.873, 0.17310162, 0.0068673845, -1099866.9, 428444.8, 0.0018741263, 10.003766, 9.998137 
1.3751054e+3, 1.5404786e+2, -1066396.4, -1464113.5, -33651.965, 0.08863271, -0.0052505443, -1063569.0, 366761.9, 0.00043006166, 10.003358, 9.998082 
1.3751027e+3, 1.6404608e+2, -996274.2, -1318047.6, -55257.117, 0.029851148, -0.016013207, -987049.5, 345298.2, 0.000029160963, 10.002898, 9.998634 
1.3751002e+3, 1.7404474e+2, -970044.6, -1243680.6, -41760.992, 0.030740293, -0.024177596, -963813.2, 270546.7, 0.000000027808229, 10.002358, 9.998733 
1.3750978e+3, 1.8404347e+2, -936609.06, -1177070.4, -33134.23, 0.030834649, -0.023295535, -932126.9, 204244.88, 0.0, 10.001915, 9.998731 
1.3750954e+3, 1.9404228e+2, -877296.8, -1093071.8, -40039.105, 0.022204192, -0.02151815, -870106.75, 168276.7, 0.0, 10.00163, 9.998772 
1.3750927e+3, 2.0404115e+2, -813347.44, -968484.7, -58298.164, 0.017955754, -0.028094867, -793882.25, 146511.75, 0.0, 10.001211, 9.999156 
1.37509e+3, 2.1404013e+2, -797678.2, -900715.2, -51520.188, 0.0243332, -0.054811057, -776337.3, 66065.21, 0.0, 10.000607, 9.999239 
1.375087e+3, 2.2403927e+2, -767658.94, -831228.5, -45170.313, 0.011435298, -0.06518326, -744211.25, 198.90111, 0.0, 10.000123, 9.999276 
1.3750839e+3, 2.3403867e+2, -712118.4, -749125.1, -46419.887, -0.030644977, -0.05978956, -680649.94, -34233.684, 0.0, 9.999811, 9.999317 
1.3750808e+3, 2.440382e+2, -660597.8, -651508.7, -54806.938, -0.04644411, -0.045689043, -601058.25, -52637.297, 0.0, 9.999397, 9.999514 
1.3750781e+3, 2.5403795e+2, -638724.4, -582877.6, -53179.426, -0.023911966, -0.029914409, -550736.3, -100312.69, 0.0, 9.998844, 9.9995775 
1.3750751e+3, 2.640376e+2, -587770.06, -475662.03, -49417.824, -0.011737545, -0.034442946, -456988.72, -104561.586, 0.0, 9.998384, 9.999863 
1.375072e+3, 2.7403718e+2, -534651.56, -391444.66, -39558.64, -0.019157434, -0.071626045, -381243.84, -126812.49, 0.0, 9.998042, 9.999932 
1.375069e+3, 2.8403732e+2, -497243.88, -323766.34, -21129.33, -0.03824967, -0.047653016, -321229.9, -164799.53, 0.0, 9.99763, 9.999923 
1.3750662e+3, 2.9403818e+2, -472476.94, -255950.06, -30012.875, -0.065892726, 0.038908027, -251866.95, -193443.48, 0.0, 9.997105, 9.999968 
1.3750635e+3, 3.0403775e+2, -404870.38, -77477.47, -34076.62, -0.063111365, -0.05131328, -73968.23, -73968.23, 0.0, 9.996714, 10.001049 
1.3750607e+3, 3.140393e+2, -396378.94, -709.3695, 9358.469, -0.08010065, -0.01436891, -488.14447, -488.14447, 0.0, 9.996455, 10.001703 
1.3851145e+3, 1.2405541e+2, -1225148.4, -1776452.0, -36944.703, 0.17544712, 0.027812416, -1222683.6, 501576.84, 0.008210514, 10.004691, 9.997313 
1.3851106e+3, 1.3405378e+2, -1069498.4, -1563219.0, 50598.125, -0.10181931, 0.06733632, -1064366.3, 561909.25, 0.0047577955, 10.004683, 9.998117 
1.3851117e+3, 1.440515e+2, -1030567.06, -1485927.0, 3754.656, 0.15697154, 0.020822037, -1030536.06, 497760.4, 0.0019708683, 10.004233, 9.998185 
1.3851087e+3, 1.5404925e+2, -1090666.5, -1469428.9, -4043.416, 0.09967541, -0.02233119, -1090623.4, 339694.28, 0.0004566524, 10.003163, 9.99814 
1.3851056e+3, 1.6404746e+2, -1047988.2, -1331530.3, -17844.746, 0.049787194, -0.03873751, -1046869.5, 285464.47, 0.00003186285, 10.002494, 9.998737 
1.3851026e+3, 1.7404656e+2, -952376.56, -1222923.6, -24554.371, 0.033106744, -0.0161542, -950166.1, 284176.16, 0.000000039188958, 10.002428, 9.998841 
1.3850997e+3, 1.8404545e+2, -905532.5, -1163024.9, -27242.637, 0.024944054, -0.0036501174, -902681.75, 233670.92, 0.0, 10.002133, 9.998721 
1.3850968e+3, 1.940441e+2, -896885.44, -1104867.0, -20964.451, 0.021118218, -0.016204169, -894793.3, 143573.19, 0.0, 10.001507, 9.99875 
1.3850938e+3, 2.0404296e+2, -846202.06, -979702.1, -36860.613, 0.018433139, -0.025140816, -836700.75, 103676.67, 0.0, 10.000967, 9.999196 
1.3850905e+3, 2.1404211e+2, -801484.3, -897695.5, -44004.73, 0.0197519, -0.03854591, -784393.56, 57990.74, 0.0, 10.00056, 9.999282 
1.385087e+3, 2.2404136e+2, -765756.2, -824850.7, -38282.03, 0.0046934923, -0.044260062, -746944.9, -2553.8914, 0.0, 10.000113, 9.999325 
1.3850835e+3, 2.3404069e+2, -737127.5, -754868.9, -32958.063, -0.035553027, -0.04701316, -711867.25, -65469.996, 0.0, 9.999615, 9.999372 
1.38508e+3, 2.440402e+2, -694600.5, -662346.6, -40206.25, -0.050990637, -0.041148975, -635153.6, -86751.555, 0.0, 9.999144, 9.999559 
1.3850768e+3, 2.540399e+2, -655275.8, -585944.1, -41261.477, -0.030369876, -0.033789217, -566719.06, -116314.164, 0.0, 9.998712, 9.9996195 
1.3850735e+3, 2.6403958e+2, -591349.9, -473557.97, -39068.04, -0.017669452, -0.039174862, -461778.28, -109370.125, 0.0, 9.998345, 9.999894 
1.3850701e+3, 2.740393e+2, -527053.06, -384171.4, -48127.176, -0.020164913, -0.06617702, -369472.72, -115061.33, 0.0, 9.998079, 9.999963 
1.3850667e+3, 2.8403962e+2, -487721.28, -308372.94, -38433.445, -0.041737456, -0.034221284, -300483.88, -144074.84, 0.0, 9.997652, 10.000016 
1.385063e+3, 2.9404056e+2, -481648.38, -248453.16, -24019.89, -0.081487715, 0.052732185, -246004.73, -187604.11, 0.0, 9.996994, 10.000072 
1.3850603e+3, 3.0403987e+2, -443155.63, -118450.8, -13825.45, -0.065984234, -0.058984596, -117863.195, -117863.195, 0.0, 9.996551, 10.000846 
1.3850574e+3, 3.1404138e+2, -397376.1, 12570.997, -7621.013, -0.0553745, -0.00033666578, 12712.624, 12712.624, 0.0, 9.996392, 10.001822 
1.395119e+3, 1.2405771e+2, -1237096.5, -1803176.5, -41467.734, 0.14859964, 0.016561603, -1234075.0, 490161.5, 0.008585683, 10.004698, 9.997128 
1.3951154e+3, 1.340559e+2, -1078492.0, -1578699.5, 50596.79, -0.07217829, 0.048147354, -1073425.4, 552828.75, 0.004983863, 10.004669, 9.998017 
1.3951162e+3, 1.4405355e+2, -1028742.6, -1479548.8, -33800.055, 0.17980863, -0.004121533, -1026222.5, 502053.97, 0.0020708872, 10.004222, 9.998235 
1.3951117e+3, 1.5405153e+2, -1085812.0, -1460597.6, -44803.3, 0.09118764, -0.02718249, -1080530.5, 349764.78, 0.0004838168, 10.003169, 9.9981985 
1.395108e+3, 1.6404985e+2, -1056731.3, -1352904.9, -25016.707, 0.036661476, -0.030470427, -1054633.1, 277677.9, 0.000034571214, 10.002506, 9.998586 
1.3951053e+3, 1.7404881e+2, -963851.0, -1247603.6, -26939.195, 0.050723366, -0.003197265, -961316.06, 273004.88, 0.00000005013657, 10.00243, 9.998672 
1.3951021e+3, 1.8404771e+2, -896527.25, -1143319.6, -49695.71, 0.054244064, 0.012678939, -886896.06, 249435.63, 0.0, 10.002129, 9.998859 
1.3950986e+3, 1.9404653e+2, -885172.7, -1080584.4, -44795.195, 0.040411923, -0.00038104382, -875393.44, 162950.42, 0.0, 10.001506, 9.998918 
1.3950947e+3, 2.0404546e+2, -853368.44, -994396.94, -53725.566, 0.019333452, -0.0050316206, -835233.44, 105120.8, 0.0, 10.000966, 9.999096 
1.3950907e+3, 2.1404462e+2, -810556.06, -916728.75, -59206.25, -0.009663954, -0.005590663, -784121.7, 58240.15, 0.0, 10.000559, 9.999152 
1.395087e+3, 2.2404389e+2, -757492.06, -807778.56, -57346.906, -0.024996314, -0.0073165176, -720018.6, 24349.758, 0.0, 10.000112, 9.999443 
1.3950832e+3, 2.3404329e+2, -727354.9, -734138.06, -51527.79, -0.021138225, -0.018304864, -679107.2, -32734.008, 0.0, 9.999612, 9.999516 
1.3950795e+3, 2.4404271e+2, -692085.75, -656807.7, -57016.41, -0.026300961, -0.032004565, -614764.2, -66385.97, 0.0, 9.999141, 9.999599 
1.3950753e+3, 2.540421e+2, -653460.06, -581865.56, -56787.938, -0.044738546, -0.060830276, -550533.75, -100149.914, 0.0, 9.99871, 9.999649 
1.3950716e+3, 2.6404172e+2, -605171.44, -502234.9, -48893.64, -0.052501418, -0.06267763, -482713.22, -130325.484, 0.0, 9.998343, 9.999699 
1.395068e+3, 2.7404183e+2, -543334.2, -416060.72, -55936.813, -0.04551601, -0.026407635, -394971.06, -140582.72, 0.0, 9.998071, 9.999749 
1.3950641e+3, 2.8404227e+2, -461314.44, -253465.55, -60745.78, -0.056851413, 0.012408079, -237014.17, -80629.59, 0.0, 9.997649, 10.000396 
1.39506e+3, 2.940429e+2, -451925.78, -186772.47, -46765.438, -0.091503195, 0.020917518, -178766.14, -120389.25, 0.0, 9.996992, 10.000497 
1.3950567e+3, 3.0404192e+2, -485677.38, -206999.47, -20813.115, -0.054370742, -0.110505365, -205453.61, -205453.61, 0.0, 9.9965515, 10.000237 
1.3950542e+3, 3.1404352e+2, -420516.53, -30977.332, -11657.623, -0.012772046, 0.02309956, -30628.77, -30628.77, 0.0, 9.996373, 10.001533 
1.4051238e+3, 1.2406041e+2, -1152786.1, -1761464.5, -33928.07, 0.12637825, 0.008888425, -1150900.8, 573309.0, 0.008978934, 10.0052805, 9.997133 
1.4051202e+3, 1.3405867e+2, -1149482.5, -1603081.0, 70882.55, -0.04460484, 0.039038695, -1138663.9, 487562.84, 0.005221992, 10.004138, 9.998105 
1.4051202e+3, 1.4405636e+2, -1135842.1, -1534573.4, -3121.7346, 0.19939484, -0.011905395, -1135817.8, 392431.22, 0.002176283, 10.0035, 9.998204 
1.405115e+3, 1.5405458e+2, -1024286.94, -1435799.6, -21556.287, 0.0780031, -0.0055931746, -1023160.8, 407105.22, 0.0005121799, 10.003613, 9.998154 
1.4051107e+3, 1.6405295e+2, -942013.44, -1299596.1, -1988.479, 0.01385526, -0.001320669, -942002.4, 390279.28, 0.000037386584, 10.003305, 9.998565 
1.4051077e+3, 1.7405167e+2, -969043.9, -1251924.6, 5763.351, 0.05535551, 0.0027742898, -968926.5, 265367.22, 0.00000006103049, 10.002404, 9.998653 
1.4051042e+3, 1.8405046e+2, -953944.06, -1169981.8, -14164.519, 0.06940261, 0.008418376, -953019.3, 183286.06, 0.0, 10.00173, 9.998868 
1.4051e+3, 1.9404936e+2, -899902.3, -1086087.6, -21631.377, 0.037008427, 0.004065642, -897422.1, 140894.7, 0.0, 10.001399, 9.99893 
1.4050958e+3, 2.0404841e+2, -842154.06, -983131.9, -29606.012, 0.009398637, 0.007465831, -836189.06, 104137.22, 0.0, 10.001019, 9.999147 
1.4050913e+3, 2.140477e+2, -804806.44, -907117.3, -21815.523, -0.008117675, 0.013604861, -800348.94, 41983.832, 0.0, 10.000571, 9.999211 
1.405087e+3, 2.2404695e+2, -762832.25, -816045.4, -20452.549, -0.014247925, 0.011086612, -755879.7, -11540.351, 0.0, 10.000101, 9.999391 
1.405083e+3, 2.3404619e+2, -734805.0, -745496.3, -31097.254, -0.006375908, -0.011378927, -708597.3, -62251.508, 0.0, 9.999594, 9.999447 
1.4050788e+3, 2.4404553e+2, -689725.2, -657777.9, -41843.168, -0.01657564, -0.027120188, -628963.06, -80611.516, 0.0, 9.9991665, 9.999581 
1.4050741e+3, 2.5404498e+2, -632330.9, -573437.3, -45771.42, -0.053129017, -0.046628732, -548458.56, -98102.0, 0.0, 9.998861, 9.999634 
1.4050697e+3, 2.6404467e+2, -591855.5, -493356.3, -35397.95, -0.06786086, -0.04492362, -481954.94, -129594.85, 0.0, 9.9984255, 9.999719 
1.4050658e+3, 2.7404478e+2, -580820.9, -430749.97, -26914.727, -0.052322432, -0.011662114, -426068.9, -171708.73, 0.0, 9.997802, 9.999776 
1.4050616e+3, 2.840451e+2, -506368.7, -279751.2, -33816.313, -0.0584535, 0.017993703, -274812.7, -118455.69, 0.0, 9.997361, 10.000354 
1.405057e+3, 2.9404548e+2, -426330.4, -180651.75, -56026.234, -0.090636246, 0.006850874, -168478.33, -110126.69, 0.0, 9.997193, 10.000442 
1.4050536e+3, 3.0404446e+2, -460553.16, -218546.6, -35164.94, -0.04720401, -0.1150425, -213540.48, -213540.48, 0.0, 9.996826, 10.000026 
1.4050505e+3, 3.1404597e+2, -439645.88, -22785.1, 3377.7385, -0.0148410145, 0.025906583, -22757.732, -22757.732, 0.0, 9.996166, 10.001689 
1.4151289e+3, 1.2406354e+2, -1142435.4, -1737367.5, -77922.45, 0.102577664, 0.0008094691, -1132398.6, 591781.6, 0.009396693, 10.00527, 9.997305 
1.4151247e+3, 1.3406214e+2, -1131688.1, -1566582.0, 27706.516, -0.019455282, 0.041831635, -1129930.1, 496262.75, 0.0054773125, 10.004143, 9.998354 
1.415124e+3, 1.4406002e+2, -1140438.0, -1547888.9, -4613.7837, 0.21400587, 0.00015369893, -1140385.8, 387827.53, 0.0022900396, 10.003514, 9.998107 
1.4151184e+3, 1.5405846e+2, -1034473.3, -1456158.9, -16903.672, 0.05629194, 0.041106466, -1033796.8, 396432.8, 0.00054253166, 10.003609, 9.998017 
1.4151135e+3, 1.6405682e+2, -936859.75, -1286920.3, -33647.906, -0.02287298, 0.047531143, -933654.9, 398590.75, 0.000040406845, 10.003296, 9.998657 
1.41511e+3, 1.7405514e+2, -960543.06, -1235168.4, -28659.371, 0.046537288, 0.0017328789, -957584.1, 276676.03, 0.00000007226826, 10.002406, 9.998768 
1.4151059e+3, 1.840537e+2, -961582.9, -1187134.4, -29588.445, 0.06828391, -0.015624853, -957766.0, 178507.52, 0.0, 10.001735, 9.998749 
1.4151011e+3, 1.9405265e+2, -909842.2, -1107421.5, -34036.664, 0.010216326, -0.0022308598, -904143.1, 134142.03, 0.0, 10.0014, 9.998784 
1.4150964e+3, 2.0405184e+2, -828316.94, -954118.5, -46932.285, -0.012547826, 0.012663437, -812737.44, 127555.984, 0.0, 10.001016, 9.999349 
1.4150922e+3, 2.1405137e+2, -788366.94, -872826.56, -38871.61, 0.02103536, 0.019726628, -773200.25, 69096.67, 0.0, 10.000569, 9.999449 
1.4150876e+3, 2.2405058e+2, -778787.3, -848630.4, -40137.7, 0.031782556, 0.011328513, -760505.94, -16202.329, 0.0, 10.000097, 9.999168 
1.4150828e+3, 2.3404941e+2, -753399.9, -784802.1, -49849.62, 0.007721349, -0.025978621, -716837.1, -70522.266, 0.0, 9.999596, 9.999176 
1.4150777e+3, 2.440487e+2, -695164.2, -669843.9, -53821.82, -0.022476071, -0.027264271, -627213.25, -78891.44, 0.0, 9.999167, 9.999497 
1.4150728e+3, 2.5404865e+2, -637545.8, -583125.3, -56146.234, -0.058655452, 0.010052926, -547943.25, -97620.38, 0.0, 9.998855, 9.999571 
1.415068e+3, 2.6404843e+2, -576836.4, -462098.38, -57064.51, -0.06818946, 0.015554356, -438550.38, -86225.43, 0.0, 9.998424, 9.999936 
1.4150637e+3, 2.740481e+2, -563811.75, -395580.47, -49042.49, -0.04464924, -0.02362116, -382327.7, -128000.51, 0.0, 9.997801, 10.000019 
1.4150591e+3, 2.840481e+2, -536446.3, -342443.97, -41003.344, -0.050295632, -0.01873289, -334133.7, -177807.11, 0.0, 9.997361, 9.999924 
1.4150544e+3, 2.940484e+2, -463349.22, -255527.78, -59409.27, -0.08467862, 0.014694422, -239743.47, -181419.25, 0.0, 9.997185, 9.999932 
1.4150505e+3, 3.040476e+2, -449908.9, -196966.19, -56380.227, -0.05023292, -0.0670496, -184968.3, -184968.3, 0.0, 9.996826, 10.0001745 
1.415046e+3, 3.140486e+2, -402534.0, 54962.85, -21864.814, -0.0670983, -0.00048802354, 56005.445, 56005.445, 0.0, 9.996162, 10.002226 
1.4251341e+3, 1.240676e+2, -1178334.0, -1759929.4, -47499.992, 0.10639454, 0.015851865, -1174480.1, 549661.9, 0.009846424, 10.005046, 9.997258 
1.425129e+3, 1.3406621e+2, -1038905.3, -1519755.4, 39829.79, -0.023357918, 0.05679331, -1035628.44, 590525.5, 0.005755011, 10.004776, 9.998372 
1.4251275e+3, 1.4406401e+2, -1038781.06, -1497824.5, 11077.146, 0.19675125, 0.006277355, -1038513.94, 489660.97, 0.0024151956, 10.004213, 9.998113 
1.425122e+3, 1.5406248e+2, -1082783.8, -1479537.3, 7954.7476, 0.065263584, 0.050547108, -1082624.4, 347566.75, 0.00057588227, 10.003278, 9.998015 
1.4251167e+3, 1.6406086e+2, -1033318.06, -1336848.0, -9976.247, -0.007955645, 0.060082916, -1032990.56, 299216.5, 0.00004378684, 10.002649, 9.998626 
1.4251123e+3, 1.7405915e+2, -954048.44, -1235543.5, -17297.9, 0.03834992, 0.015186107, -952989.44, 281232.6, 0.00000008454083, 10.002468, 9.998734 
1.4251077e+3, 1.8405773e+2, -909623.75, -1154232.9, -17520.207, 0.052797303, -0.0050738766, -908375.25, 227860.1, 0.0, 10.00206, 9.9988165 
1.4251024e+3, 1.9405667e+2, -912635.5, -1099417.8, -6277.5127, 0.010003384, 0.0017433747, -912424.75, 125821.43, 0.0, 10.001344, 9.998865 
1.4250974e+3, 2.0405582e+2, -864070.7, -982057.56, -13296.892, -0.0039207265, 0.013528917, -862590.7, 77663.88, 0.0, 10.000817, 9.999251 
1.4250928e+3, 2.1405526e+2, -796805.94, -889975.1, -31338.42, 0.027077641, 0.022985322, -787245.9, 55013.613, 0.0, 10.000568, 9.999331 
1.4250877e+3, 2.2405444e+2, -758848.6, -841230.2, -43511.86, 0.031691637, 0.017438423, -740123.06, 4143.8936, 0.0, 10.000243, 9.999149 
1.4250822e+3, 2.3405327e+2, -722158.5, -770419.2, -36068.668, -0.0036724033, -0.01777348, -702892.75, -56614.74, 0.0, 9.999813, 9.999169 
1.4250769e+3, 2.440526e+2, -680488.6, -669117.7, -29024.61, -0.032191504, -0.013536256, -645226.94, -96942.24, 0.0, 9.999296, 9.999441 
1.4250717e+3, 2.540526e+2, -670641.8, -605490.06, -31913.719, -0.048826393, 0.035820983, -592462.5, -142177.14, 0.0, 9.998656, 9.999513 
1.4250666e+3, 2.6405233e+2, -606853.5, -474120.9, -35417.99, -0.053124335, 0.037087187, -465261.4, -112973.71, 0.0, 9.998207, 9.999957 
1.4250617e+3, 2.740517e+2, -525842.9, -374322.06, -44052.305, -0.04533632, -0.033263065, -362445.47, -108153.74, 0.0, 9.998046, 10.000048 
1.4250565e+3, 2.8405154e+2, -494029.03, -332015.44, -33100.0, -0.056055903, -0.04110605, -325513.88, -169221.55, 0.0, 9.997694, 9.999834 
1.4250515e+3, 2.9405198e+2, -488263.16, -279418.13, -24555.625, -0.07863029, 0.012989813, -276569.75, -218280.06, 0.0, 9.997066, 9.999825 
1.425047e+3, 3.040515e+2, -492593.2, -228998.81, -14279.859, -0.041581377, -0.022731582, -228227.47, -228227.47, 0.0, 9.996583, 10.000071 
1.4250422e+3, 3.1405172e+2, -369353.78, 82505.57, -7621.9673, -0.08163497, -0.020712579, 82634.1, 82634.1, 0.0, 9.996339, 10.002329 
1.4351393e+3, 1.2407259e+2, -1195015.3, -1795508.6, -56716.676, 0.13507657, 0.05038084, -1189705.4, 534389.6, 0.010334893, 10.005048, 9.997014 
1.4351334e+3, 1.3407093e+2, -1053646.6, -1548008.6, 29936.855, -0.060508233, 0.08359905, -1051840.4, 574269.06, 0.006058709, 10.004767, 9.998181 
1.4351313e+3, 1.440684e+2, -1033550.7, -1486279.8, -23051.447, 0.14263667, 0.00634556, -1032380.0, 495753.22, 0.0025539119, 10.0042095, 9.998195 
1.4351256e+3, 1.5406673e+2, -1073686.8, -1462339.5, -27359.459, 0.102015495, 0.024227155, -1071770.3, 358379.56, 0.00061334786, 10.003284, 9.998131 
1.43512e+3, 1.6406515e+2, -1042659.75, -1358708.5, -20586.67, 0.054528587, 0.03949871, -1041324.44, 290840.94, 0.000047750204, 10.002658, 9.998471 
1.4351147e+3, 1.7406376e+2, -966819.44, -1262298.9, -23924.236, 0.028035002, 0.042765692, -964894.9, 269284.06, 0.00000010052836, 10.002468, 9.998551 
1.4351094e+3, 1.8406248e+2, -892778.9, -1118811.3, -43602.57, 0.020437403, 0.038889367, -884659.44, 251531.28, 0.0, 10.002057, 9.999063 
1.435104e+3, 1.9406141e+2, -891421.94, -1056851.0, -33555.77, 0.03309331, 0.014649449, -884874.6, 153325.17, 0.0, 10.001348, 9.999156 
1.4350986e+3, 2.0406038e+2, -890896.1, -1038569.75, -25080.926, 0.030586476, 0.00983283, -886752.6, 53456.9, 0.0, 10.00082, 9.998863 
1.4350931e+3, 2.140594e+2, -828917.06, -957261.25, -40323.203, 0.009577914, 0.023280295, -817299.8, 24920.48, 0.0, 10.000569, 9.998869 
1.4350876e+3, 2.2405852e+2, -746987.56, -816523.9, -59419.906, -0.013791249, 0.02854116, -712911.3, 31317.803, 0.0, 10.000242, 9.999321 
1.4350818e+3, 2.3405778e+2, -706146.44, -736718.7, -51868.06, -0.04177092, 0.013563636, -667358.9, -21123.912, 0.0, 9.999809, 9.999404 
1.435076e+3, 2.440572e+2, -682944.2, -673764.44, -52477.363, -0.049318563, 0.015044988, -625676.6, -77436.55, 0.0, 9.999292, 9.999412 
1.4350705e+3, 2.540568e+2, -674813.4, -614243.5, -55188.297, -0.026103139, 0.03038601, -581576.7, -131332.73, 0.0, 9.998655, 9.999454 
1.4350651e+3, 2.640563e+2, -617594.2, -496902.0, -42363.55, -0.024370644, 0.019362213, -483516.7, -131268.33, 0.0, 9.998208, 9.999802 
1.4350596e+3, 2.7405563e+2, -538338.6, -399185.6, -47950.793, -0.0569744, -0.03747544, -384262.56, -130009.38, 0.0, 9.998039, 9.999881 
1.435054e+3, 2.8405547e+2, -479154.5, -300927.38, -53719.566, -0.0795404, -0.046339322, -285987.97, -129734.22, 0.0, 9.997692, 10.00005 
1.4350486e+3, 2.940561e+2, -472275.44, -245061.23, -46389.89, -0.07773822, -0.0011736753, -235954.88, -177706.3, 0.0, 9.997059, 10.000064 
1.435044e+3, 3.040561e+2, -514812.22, -274604.22, -24617.297, -0.02527674, 0.015758295, -272107.3, -272107.3, 0.0, 9.996579, 9.99976 
1.4350387e+3, 3.1405556e+2, -392458.06, 36069.465, -16992.738, -0.06419199, -0.02494592, 36742.234, 36742.234, 0.0, 9.996332, 10.002014 
1.4451447e+3, 1.2407814e+2, -1147433.9, -1779986.4, -26082.25, 0.1474214, 0.080643706, -1146360.3, 577681.6, 0.010868161, 10.005418, 9.99694 
1.445138e+3, 1.3407634e+2, -1082910.8, -1566043.5, 66368.28, -0.062807865, 0.10250951, -1073959.6, 552098.0, 0.0063916203, 10.004586, 9.998143 
1.4451352e+3, 1.4407358e+2, -1073851.3, -1516533.5, 13616.1, 0.1261029, 0.00846237, -1073432.9, 454650.66, 0.0027079487, 10.003982, 9.9980955 
1.445129e+3, 1.5407173e+2, -1017380.1, -1446458.4, -7208.0215, 0.101012215, 0.020745551, -1017259.06, 412842.72, 0.0006559026, 10.003722, 9.998027 
1.445123e+3, 1.6407017e+2, -955560.75, -1308442.5, 1740.0432, 0.062496208, 0.040001, -955552.2, 376565.0, 0.000052490832, 10.003225, 9.998541 
1.4451171e+3, 1.7406903e+2, -969734.94, -1254325.3, 16411.05, 0.03609765, 0.059974004, -968791.7, 265336.44, 0.00000012546444, 10.00241, 9.998633 
1.4451115e+3, 1.8406779e+2, -931878.25, -1151420.5, -2340.8992, 0.031369805, 0.059557106, -931853.25, 204286.39, 0.0, 10.001849, 9.998938 
1.4451057e+3, 1.9406642e+2, -856810.75, -1056513.3, -25218.61, 0.04719371, 0.021900894, -853675.4, 184476.33, 0.0, 10.0016575, 9.999008 
1.4450997e+3, 2.0406525e+2, -827729.44, -1011037.5, -22388.84, 0.038151495, 0.012231608, -825034.5, 115128.34, 0.0, 10.001267, 9.9988365 
1.4450936e+3, 2.1406433e+2, -826443.6, -957490.0, -6114.195, -0.002732882, 0.033266515, -826159.0, 16013.819, 0.0, 10.000594, 9.998855 
1.4450875e+3, 2.2406343e+2, -780412.6, -840176.3, -12796.185, -0.031100271, 0.041356713, -777788.06, -33606.48, 0.0, 10.000046, 9.999251 
1.4450814e+3, 2.340626e+2, -731265.1, -757234.8, -28568.428, -0.044046752, 0.022442892, -712869.06, -66680.48, 0.0, 9.999674, 9.999328 
1.4450754e+3, 2.4406186e+2, -682034.3, -671241.75, -43175.75, -0.045536127, 0.01371972, -633126.4, -84931.7, 0.0, 9.9992895, 9.99943 
1.4450693e+3, 2.540613e+2, -638818.6, -594072.0, -41716.37, -0.02960024, 0.009447117, -569108.0, -118908.74, 0.0, 9.998888, 9.99948 
1.4450634e+3, 2.6406077e+2, -601104.7, -510334.13, -21970.535, -0.027490502, 0.001803921, -505295.94, -153091.92, 0.0, 9.998412, 9.999611 
1.4450575e+3, 2.7406025e+2, -584547.9, -444659.0, -31588.955, -0.048280906, -0.020619301, -437856.53, -183647.8, 0.0, 9.997823, 9.999672 
1.4450516e+3, 2.8406e+2, -524279.1, -317782.5, -46033.996, -0.0712806, -0.029111043, -307985.03, -151774.52, 0.0, 9.997362, 10.0000925 
1.4450455e+3, 2.940602e+2, -463933.53, -234451.6, -53925.664, -0.08717281, -0.026097573, -222411.38, -164203.48, 0.0, 9.997087, 10.000124 
1.4450404e+3, 3.040607e+2, -507718.28, -266790.72, -27586.713, -0.035551447, 0.029009605, -263672.34, -263672.34, 0.0, 9.996611, 9.999798 
1.4450349e+3, 3.1406006e+2, -464183.63, -4615.344, 3087.188, -0.052024044, -0.025705306, -4594.6064, -4594.6064, 0.0, 9.995868, 10.001957 
1.4551501e+3, 1.2408431e+2, -1143103.6, -1770922.1, -55989.355, 0.13679676, 0.106023766, -1138149.5, 585832.5, 0.011450323, 10.005419, 9.997004 
1.455143e+3, 1.3408245e+2, -1076704.9, -1553754.3, 34966.74, -0.032684755, 0.11398109, -1074155.6, 551842.4, 0.006756798, 10.004589, 9.998227 
1.4551392e+3, 1.4407957e+2, -1092213.6, -1555974.8, -114.51927, 0.1445861, 0.014584918, -1092213.6, 435811.8, 0.0028789733, 10.003986, 9.997823 
1.4551324e+3, 1.5407754e+2, -1039480.1, -1491245.1, -16703.732, 0.060234383, 0.039237663, -1038863.3, 391183.25, 0.0007041881, 10.003718, 9.997722 
1.4551257e+3, 1.6407596e+2, -936901.4, -1270098.3, -28041.379, 0.013146998, 0.06136241, -934557.94, 397504.13, 0.000058062662, 10.003224, 9.998806 
1.4551198e+3, 1.7407499e+2, -945230.5, -1206207.1, -14521.087, 0.05954821, 0.0663935, -944425.0, 289644.47, 0.00000016567238, 10.002419, 9.99896 
1.4551137e+3, 1.8407363e+2, -964856.7, -1222288.6, -12888.461, 0.08022813, 0.0582673, -964213.06, 171869.0, 0.0, 10.001858, 9.998447 
1.4551075e+3, 1.9407173e+2, -896644.8, -1140260.1, -32068.65, 0.051313944, 0.02359592, -892494.1, 145607.47, 0.0, 10.001661, 9.998432 
1.4551008e+3, 2.0407045e+2, -805663.25, -965135.5, -46847.535, 0.01860184, 0.02016304, -792919.44, 147194.83, 0.0, 10.001266, 9.999153 
1.455094e+3, 2.1407004e+2, -797226.44, -897718.8, -31555.28, -0.012785338, 0.05227742, -788139.56, 53977.41, 0.0, 10.000596, 9.999265 
1.4550877e+3, 2.2406918e+2, -801729.06, -884554.2, -28518.695, -0.025159545, 0.055806033, -792859.25, -48734.777, 0.0, 10.000045, 9.998948 
1.4550814e+3, 2.340677e+2, -757297.1, -811710.6, -41887.664, -0.012816059, 0.009078225, -734556.06, -88417.34, 0.0, 9.999675, 9.998954 
1.455075e+3, 2.4406661e+2, -677595.4, -662321.44, -57861.98, -0.021957064, -0.017761169, -611594.6, -63446.293, 0.0, 9.9992895, 9.999493 
1.4550678e+3, 2.5406614e+2, -631967.44, -579321.94, -55579.59, -0.06082803, -0.025428874, -544146.9, -93995.91, 0.0, 9.998884, 9.999584 
1.4550614e+3, 2.6406574e+2, -618135.9, -544800.25, -42732.168, -0.06485056, -0.013954686, -525160.3, -173005.84, 0.0, 9.998407, 9.999377 
1.4550556e+3, 2.7406546e+2, -604084.2, -483972.28, -52117.16, -0.023066469, 0.016038299, -464511.47, -210352.9, 0.0, 9.997817, 9.999405 
1.4550494e+3, 2.8406504e+2, -531619.2, -332939.2, -56324.117, -0.03414352, 0.008724068, -318082.7, -161919.83, 0.0, 9.997359, 9.99999 
1.4550424e+3, 2.9406446e+2, -471237.44, -249405.73, -61812.313, -0.10966538, -0.059772134, -233344.86, -175177.7, 0.0, 9.997084, 10.000024 
1.4550366e+3, 3.040653e+2, -482317.6, -214366.31, -52327.86, -0.07626685, 0.020012157, -204509.84, -204509.84, 0.0, 9.996611, 10.000157 
1.4550307e+3, 3.1406534e+2, -456450.03, 13964.154, -26136.17, -0.051754735, -0.007062311, 15411.822, 15411.822, 0.0, 9.995855, 10.00209 
1.4651553e+3, 1.2409048e+2, -1157048.0, -1787117.8, -36141.656, 0.120873876, 0.08100809, -1154981.6, 568939.44, 0.012080073, 10.005364, 9.996918 
1.4651479e+3, 1.3408886e+2, -1033610.06, -1542021.4, 38261.25, -0.025184775, 0.120009065, -1030746.75, 595189.1, 0.0071542417, 10.00493, 9.998143 
1.4651436e+3, 1.4408608e+2, -1042513.0, -1526560.6, 10158.357, 0.15407337, 0.035243794, -1042299.9, 485662.94, 0.0030672618, 10.004311, 9.997866 
1.465136e+3, 1.5408407e+2, -1072001.3, -1500513.3, 18310.432, 0.05835688, 0.056525778, -1071220.3, 358763.16, 0.00075839256, 10.003468, 9.997779 
1.4651287e+3, 1.6408241e+2, -985965.06, -1309108.8, 13767.27, 0.0063228635, 0.07338176, -985379.6, 346619.94, 0.00006440502, 10.002955, 9.998667 
1.4651224e+3, 1.7408119e+2, -883421.7, -1193768.1, -8551.324, 0.056081414, 0.06936636, -883186.25, 350823.38, 0.00000022299002, 10.002922, 9.998801 
1.465116e+3, 1.840797e+2, -870444.8, -1185898.4, -16432.275, 0.07603444, 0.062279347, -869591.1, 266432.38, 0.0, 10.002548, 9.9983635 
1.4651088e+3, 1.940779e+2, -897269.3, -1149306.0, -798.46277, 0.039261553, 0.04427915, -897266.8, 140775.77, 0.0, 10.001697, 9.998352 
1.465102e+3, 2.0407659e+2, -836206.6, -984893.5, -5365.996, 0.01018091, 0.044347472, -836013.25, 104042.305, 0.0, 10.001079, 9.999106 
1.465095e+3, 2.1407598e+2, -772053.3, -890537.94, -23968.21, -0.003069867, 0.06168552, -767388.44, 74671.29, 0.0, 10.000792, 9.99922 
1.465088e+3, 2.2407503e+2, -757351.3, -864953.25, -30278.934, -0.008338006, 0.058482043, -749416.06, -5348.2407, 0.0, 10.000359, 9.998932 
1.4650811e+3, 2.3407356e+2, -753081.44, -811135.0, -18963.244, -0.004729821, 0.015018784, -747436.06, -101354.47, 0.0, 9.99971, 9.99894 
1.4650743e+3, 2.4407241e+2, -698577.2, -685245.4, -21200.781, -0.020730564, -0.013549532, -669687.25, -121595.375, 0.0, 9.999201, 9.999377 
1.4650668e+3, 2.540717e+2, -640914.44, -597441.9, -36216.715, -0.063892335, -0.029346062, -576939.3, -126842.55, 0.0, 9.998884, 9.999459 
1.4650598e+3, 2.6407126e+2, -613798.8, -544149.8, -32795.74, -0.0662974, -0.015181113, -531138.06, -179037.19, 0.0, 9.998445, 9.999363 
1.4650536e+3, 2.7407113e+2, -602972.56, -483978.72, -25256.17, -0.013654191, 0.030930914, -478840.06, -224736.53, 0.0, 9.997827, 9.999401 
1.4650467e+3, 2.8407067e+2, -531899.44, -328322.8, -2439.7786, -0.021418406, 0.017407652, -328293.6, -172185.58, 0.0, 9.997337, 10.000032 
1.4650396e+3, 2.9406983e+2, -474199.2, -245727.9, 1956.4725, -0.104750805, -0.0834231, -245711.16, -187596.84, 0.0, 9.997043, 10.000068 
1.4650331e+3, 3.040709e+2, -486402.47, -203793.2, -7204.493, -0.08203831, 0.013196915, -203609.66, -203609.66, 0.0, 9.996529, 10.000269 
1.4650264e+3, 3.1407106e+2, -495735.97, -30816.27, -11072.133, -0.06005659, -0.013423892, -30552.734, -30552.734, 0.0, 9.995699, 10.001857 
1.4751604e+3, 1.2409671e+2, -1172178.0, -1818509.0, -48920.69, 0.101080365, 0.010277531, -1168496.3, 555361.94, 0.01275129, 10.005364, 9.996704 
1.4751525e+3, 1.3409558e+2, -1050329.0, -1575372.9, 21804.084, -0.044025637, 0.12089999, -1049425.1, 576445.6, 0.0075799655, 10.004925, 9.997915 
1.4751478e+3, 1.4409316e+2, -1019527.6, -1479726.9, -21107.5, 0.14806361, 0.07032881, -1018561.5, 509333.44, 0.003271114, 10.004313, 9.998188 
1.4751397e+3, 1.5409137e+2, -1043594.2, -1443698.5, -13531.626, 0.09208906, 0.072375245, -1043137.06, 386774.88, 0.0008182448, 10.003476, 9.998165 
1.475132e+3, 1.6408956e+2, -1021652.5, -1386189.0, 8005.539, 0.03780394, 0.077531174, -1021476.75, 310452.66, 0.000071419374, 10.002967, 9.998133 
1.4751251e+3, 1.7408766e+2, -927116.7, -1285339.0, -9719.19, 0.024808753, 0.06911665, -926853.2, 307094.9, 0.0000002932695, 10.002925, 9.998172 
1.475118e+3, 1.8408605e+2, -849694.94, -1142642.0, -46362.023, 0.017945522, 0.07149049, -842532.75, 293430.97, 0.0, 10.002546, 9.998662 
1.4751104e+3, 1.9408493e+2, -868668.44, -1091933.9, -33066.867, 0.00946433, 0.082754254, -863874.0, 174100.5, 0.0, 10.001703, 9.998744 
1.4751029e+3, 2.0408367e+2, -863918.44, -1043604.75, -18843.596, 0.009060019, 0.08390284, -861963.6, 78023.125, 0.0, 10.001082, 9.998703 
1.4750959e+3, 2.1408218e+2, -805877.4, -961457.4, -34272.082, 0.024254514, 0.06159442, -798662.3, 43338.51, 0.0, 10.000793, 9.998733 
1.4750886e+3, 2.24081e+2, -739893.56, -828489.25, -53778.3, 0.017974097, 0.048988882, -714517.8, 29493.627, 0.0, 10.000356, 9.999184 
1.4750808e+3, 2.3408018e+2, -730266.5, -763912.94, -42818.85, -0.021144625, 0.04020149, -701084.56, -55067.363, 0.0, 9.99971, 9.999266 
1.4750731e+3, 2.440792e+2, -719492.3, -728111.9, -34131.273, -0.043889917, 0.025792794, -689399.75, -141374.38, 0.0, 9.999198, 9.999084 
1.475066e+3, 2.5407803e+2, -666397.25, -649178.8, -46822.664, -0.041993804, -0.00338146, -610180.44, -160143.78, 0.0, 9.9988785, 9.999107 
1.4750586e+3, 2.6407734e+2, -599741.56, -514930.6, -53887.56, -0.034246426, -0.0029181698, -488764.25, -136720.94, 0.0, 9.998442, 9.999566 
1.4750513e+3, 2.740773e+2, -585709.25, -447520.34, -46555.07, -0.02209051, 0.025084144, -433299.63, -179256.02, 0.0, 9.997822, 9.999654 
1.475044e+3, 2.8407693e+2, -520558.47, -303798.2, -13675.393, -0.03567799, -0.00094727264, -302938.8, -146892.84, 0.0, 9.997333, 10.000203 
1.4750369e+3, 2.9407626e+2, -464398.7, -223223.77, -6960.6133, -0.07665688, -0.09734517, -223023.05, -164973.4, 0.0, 9.997033, 10.000227 
1.4750299e+3, 3.0407745e+2, -494717.16, -220971.89, -35604.996, -0.05601846, 0.0069421525, -216416.69, -216416.69, 0.0, 9.996526, 10.000154 
1.475022e+3, 3.1407747e+2, -537634.7, -117952.29, -43132.977, -0.083125725, -0.021120945, -113565.15, -113565.15, 0.0, 9.995697, 10.001261 
1.4851658e+3, 1.2410405e+2, -1163682.6, -1809457.0, -36342.66, 0.09431012, 0.013337786, -1161643.8, 562142.6, 0.013461898, 10.005409, 9.996742 
1.4851572e+3, 1.3410278e+2, -1100038.4, -1598504.3, 44095.02, -0.047421243, 0.10799336, -1096167.8, 529632.9, 0.008031766, 10.0045805, 9.997921 
1.485152e+3, 1.4410043e+2, -1049989.3, -1495360.0, 8642.039, 0.14468947, 0.06515614, -1049821.6, 478002.7, 0.0034890692, 10.004108, 9.9981785 
1.4851436e+3, 1.5409891e+2, -945196.2, -1395783.6, -11293.94, 0.08590233, 0.095232345, -944913.3, 484925.38, 0.0008833215, 10.004153, 9.998166 
1.4851353e+3, 1.6409709e+2, -915742.06, -1349322.1, 4511.834, 0.030623447, 0.105907366, -915695.1, 416161.22, 0.00007901186, 10.003758, 9.998003 
1.4851278e+3, 1.7409478e+2, -961403.06, -1318303.5, 19740.094, 0.017131507, 0.07167027, -960314.56, 273564.56, 0.00000037325287, 10.002761, 9.998024 
1.4851202e+3, 1.8409304e+2, -910941.2, -1168187.1, -5194.9507, 0.011065142, 0.06498229, -910836.3, 225059.9, 0.0, 10.00211, 9.998696 
1.485112e+3, 1.9409214e+2, -828914.44, -1066310.6, -17261.363, 0.0038514056, 0.09265941, -827665.9, 210238.6, 0.0, 10.001951, 9.998799 
1.4851043e+3, 2.040909e+2, -799733.56, -1025862.4, -6177.763, 0.0062630377, 0.100084856, -799564.94, 140351.3, 0.0, 10.001581, 9.998583 
1.4850968e+3, 2.1408918e+2, -799150.7, -973813.8, 2662.1123, 0.025717972, 0.06794417, -799110.1, 42822.883, 0.0, 10.000908, 9.998591 
1.485089e+3, 2.2408786e+2, -750387.06, -837203.7, -15262.393, 0.01885913, 0.05241182, -747782.1, -3837.0173, 0.0, 10.000301, 9.999149 
1.4850804e+3, 2.340871e+2, -721265.56, -762695.4, -31597.135, -0.02834903, 0.050546113, -704198.4, -58247.938, 0.0, 9.999786, 9.999236 
1.4850724e+3, 2.4408618e+2, -713423.9, -720664.5, -22192.313, -0.04453186, 0.04236031, -694558.5, -146600.48, 0.0, 9.999222, 9.999124 
1.4850648e+3, 2.540851e+2, -706935.6, -663989.3, -7150.119, -0.015369109, 0.01758606, -662830.2, -212861.8, 0.0, 9.998581, 9.999148 
1.4850572e+3, 2.640844e+2, -645445.75, -531466.75, -1531.3622, -0.00672136, 0.013075853, -531446.2, -179471.38, 0.0, 9.998107, 9.999613 
1.4850491e+3, 2.740842e+2, -574117.5, -436544.34, -10152.093, -0.031364873, 0.021735061, -435799.22, -181823.27, 0.0, 9.997881, 9.999701 
1.4850412e+3, 2.8408387e+2, -514858.72, -300235.06, 3323.6746, -0.049982697, -0.004250832, -300183.63, -144205.63, 0.0, 9.99737, 10.000209 
1.4850338e+3, 2.940835e+2, -550203.06, -264984.53, -5231.369, -0.050153404, -0.07197493, -264888.6, -206908.98, 0.0, 9.996448, 10.000222 
1.4850263e+3, 3.040847e+2, -552610.94, -213254.44, -14888.951, -0.031106476, 0.018348144, -212602.45, -212602.45, 0.0, 9.995978, 10.000469 
1.4850177e+3, 3.1408483e+2, -474703.25, -91041.7, 11416.27, -0.09654993, -0.027893683, -90702.3, -90702.3, 0.0, 9.996145, 10.001228 
1.4951712e+3, 1.2411252e+2, -1147676.6, -1774697.1, -63768.11, 0.09581881, 0.08568911, -1141257.1, 582448.25, 0.014219981, 10.005408, 9.996982 
1.495162e+3, 1.341105e+2, -1086195.4, -1569953.4, 12792.327, -0.036417067, 0.082676604, -1085857.3, 539867.7, 0.008514155, 10.004583, 9.998117 
1.4951561e+3, 1.4410794e+2, -1070366.6, -1540076.5, 5494.157, 0.1429678, 0.023773456, -1070302.4, 457447.94, 0.0037224193, 10.004118, 9.997868 
1.4951472e+3, 1.5410677e+2, -970407.0, -1448145.4, -9741.427, 0.038326, 0.124756746, -970208.44, 459554.7, 0.0009537393, 10.004151, 9.997808 
1.4951386e+3, 1.6410509e+2, -899204.3, -1314252.0, -30585.797, -0.017799629, 0.15758604, -896962.5, 434817.38, 0.00008722728, 10.003755, 9.998246 
1.4951308e+3, 1.7410263e+2, -939516.2, -1274292.9, -18221.736, 0.030777277, 0.0765191, -938527.3, 295275.3, 0.0000004647829, 10.002766, 9.998324 
1.4951226e+3, 1.8410067e+2, -925535.1, -1200442.6, -15008.018, 0.0505782, 0.043932293, -924718.25, 211102.64, 0.0, 10.002116, 9.998472 
1.4951143e+3, 1.9409953e+2, -847136.6, -1106140.3, -23091.203, 0.019640887, 0.07476443, -845094.06, 192738.11, 0.0, 10.001958, 9.998523 
1.4951058e+3, 2.0409831e+2, -789660.56, -1004718.6, -30496.324, 0.000048891707, 0.09276172, -785419.6, 154424.23, 0.0, 10.001579, 9.99873 
1.4950976e+3, 2.1409698e+2, -785556.25, -945915.6, -22758.049, 0.00026339715, 0.080951154, -782389.0, 59467.313, 0.0, 10.000908, 9.998784 
1.495089e+3, 2.2409566e+2, -773200.75, -884264.3, -35748.15, -0.0076485523, 0.0680497, -762689.3, -18820.463, 0.0, 10.0002985, 9.998829 
1.4950801e+3, 2.3409432e+2, -747197.0, -816601.75, -50381.133, -0.028411772, 0.046512507, -720723.3, -74842.0, 0.0, 9.999786, 9.998867 
1.4950718e+3, 2.4409336e+2, -689159.4, -670542.8, -45502.887, -0.024910152, 0.03649202, -633405.9, -85516.234, 0.0, 9.999222, 9.999469 
1.4950638e+3, 2.540929e+2, -678138.1, -604005.7, -30080.17, 0.014139055, 0.03433867, -593336.0, -143444.03, 0.0, 9.998579, 9.999561 
1.4950554e+3, 2.6409242e+2, -653008.75, -546810.3, -11009.646, 0.014134139, 0.03317831, -545680.94, -193785.48, 0.0, 9.998104, 9.99951 
1.4950468e+3, 2.7409187e+2, -585516.5, -459143.2, -16947.61, -0.044758055, 0.020425035, -456909.84, -203009.06, 0.0, 9.997875, 9.999548 
1.4950384e+3, 2.8409147e+2, -527004.94, -325716.7, -27870.44, -0.067010336, 0.0066019036, -321929.0, -166024.69, 0.0, 9.997369, 10.000035 
1.4950305e+3, 2.9409146e+2, -564237.5, -292747.97, -37987.344, -0.02928579, -0.006549734, -287532.88, -229628.58, 0.0, 9.996439, 10.000036 
1.4950226e+3, 3.0409256e+2, -500868.9, -104760.96, -11252.213, -0.011762666, 0.04804345, -104441.57, -104441.57, 0.0, 9.995973, 10.001218 
1.4950138e+3, 3.140933e+2, -437725.63, -12896.326, 19427.746, -0.10674077, -0.02083201, -12009.732, -12009.732, 0.0, 9.9961405, 10.001767 
1.5051766e+3, 1.24121085e+2, -1147080.4, -1780175.0, -33679.332, 0.083311915, 0.109413974, -1145293.8, 578328.7, 0.01503716, 10.005441, 9.996928 
1.5051666e+3, 1.3411885e+2, -1009798.7, -1546606.5, 14116.6455, -0.04879858, 0.095743835, -1009427.7, 616216.25, 0.009034082, 10.005176, 9.997993 
1.5051603e+3, 1.4411613e+2, -1003330.44, -1516740.6, 6525.3306, 0.13470997, 0.032574084, -1003247.56, 524423.06, 0.003974272, 10.004622, 9.997784 
1.505151e+3, 1.5411478e+2, -1040113.6, -1489858.1, 10253.856, 0.028003313, 0.120854534, -1039879.94, 389805.22, 0.0010303953, 10.003708, 9.997736 
1.505142e+3, 1.6411306e+2, -982686.8, -1346752.1, -7360.5117, -0.02637354, 0.15118203, -982538.06, 349163.97, 0.000096309515, 10.003146, 9.998317 
1.5051337e+3, 1.7411079e+2, -889459.8, -1240363.6, -11489.307, 0.028735882, 0.08105171, -889084.0, 344638.66, 0.000000575819, 10.003068, 9.998411 
1.5051252e+3, 1.8410887e+2, -836579.2, -1163104.8, -6109.4385, 0.05465802, 0.050109778, -836464.94, 299275.5, 0.0, 10.002753, 9.998421 
1.5051164e+3, 1.9410755e+2, -829585.0, -1105532.3, -46.235462, 0.027690027, 0.06945449, -829585.0, 208168.48, 0.0, 10.002112, 9.998452 
1.5051073e+3, 2.0410627e+2, -809394.1, -1015647.75, -13827.294, 0.006379367, 0.08679702, -808471.25, 131294.63, 0.0, 10.001451, 9.998716 
1.5050982e+3, 2.141051e+2, -809043.9, -957887.75, -22572.38, -0.0038340492, 0.090116404, -805696.06, 36081.094, 0.0, 10.0007515, 9.998776 
1.5050893e+3, 2.2410376e+2, -791658.44, -900548.0, -25668.73, -0.010952028, 0.081432685, -785910.9, -42120.938, 0.0, 10.000206, 9.99876 
1.5050802e+3, 2.3410223e+2, -740054.0, -821746.2, -19145.004, -0.014836052, 0.04824617, -735789.8, -89985.26, 0.0, 9.999874, 9.998789 
1.5050712e+3, 2.4410123e+2, -650490.25, -645224.75, -17362.824, -0.009019429, 0.035662614, -630296.2, -82482.88, 0.0, 9.99946, 9.999526 
1.5050624e+3, 2.5410092e+2, -621518.6, -568842.8, -29616.783, 0.01011367, 0.041577525, -555546.9, -105733.2, 0.0, 9.998936, 9.99963 
1.5050536e+3, 2.6410046e+2, -626148.25, -533436.0, -18544.395, 0.0079846205, 0.04050047, -529864.3, -178047.61, 0.0, 9.998288, 9.999512 
1.5050447e+3, 2.7409983e+2, -646159.9, -488881.47, -14620.33, -0.02678535, 0.018891498, -487533.9, -233710.69, 0.0, 9.997463, 9.999542 
1.5050358e+3, 2.840995e+2, -609935.4, -364988.16, -18210.182, -0.040776778, 0.010682598, -363641.75, -207815.23, 0.0, 9.9967985, 10.00004 
1.505027e+3, 2.940997e+2, -571735.06, -295408.63, -16120.55, -0.018918982, 0.018879812, -294471.34, -236646.78, 0.0, 9.996386, 10.000044 
1.5050186e+3, 3.0410045e+2, -482019.88, -70163.44, 21429.266, -0.016200589, 0.028626006, -69051.46, -69051.46, 0.0, 9.995993, 10.001446 
1.5050098e+3, 3.1410173e+2, -510012.06, -35211.72, 7239.309, -0.09223859, -0.011351698, -35101.367, -35101.367, 0.0, 9.995589, 10.001881 
1.5151817e+3, 1.24129884e+2, -1168532.3, -1824908.8, -40994.2, 0.057769213, 0.095040895, -1165981.8, 557554.56, 0.015918085, 10.005442, 9.996622 
1.5151715e+3, 1.3412787e+2, -1038509.44, -1605813.9, 3713.0107, -0.087401666, 0.14425953, -1038485.1, 587072.0, 0.009594055, 10.005176, 9.997584 
1.5151648e+3, 1.4412506e+2, -994929.94, -1499925.3, -26772.52, 0.1156185, 0.088580534, -993514.56, 534070.1, 0.0042462233, 10.004625, 9.997899 
1.5151548e+3, 1.5412295e+2, -1027092.44, -1464311.3, -24281.313, 0.052047078, 0.08558207, -1025748.06, 403856.3, 0.0011140896, 10.003714, 9.99791 
1.5151455e+3, 1.6412105e+2, -987367.5, -1358575.8, -14227.045, 0.00075784366, 0.090691485, -986823.06, 344799.34, 0.000106548556, 10.003154, 9.998233 
1.5151365e+3, 1.7411931e+2, -896742.5, -1256684.0, -14587.981, 0.008725197, 0.084627, -896152.25, 337486.75, 0.0000007145684, 10.003072, 9.998298 
1.5151276e+3, 1.8411766e+2, -830074.4, -1149139.3, -29231.793, 0.021586116, 0.08120816, -827418.4, 308236.28, 0.0, 10.002749, 9.99852 
1.5151185e+3, 1.9411619e+2, -821246.0, -1088447.6, -24319.193, 0.027154358, 0.07629396, -819050.7, 218617.69, 0.0, 10.002112, 9.998571 
1.515109e+3, 2.041148e+2, -821804.44, -1041321.6, -40675.266, 0.023052605, 0.08236215, -814509.94, 125172.06, 0.0, 10.00145, 9.998542 
1.5150993e+3, 2.141135e+2, -822995.25, -987777.5, -48742.695, 0.010561015, 0.095192775, -809656.8, 32038.55, 0.0, 10.000754, 9.998571 
1.5150896e+3, 2.241122e+2, -780052.44, -876414.44, -39677.156, 0.005852069, 0.09147362, -765818.0, -22109.729, 0.0, 10.000205, 9.998927 
1.5150803e+3, 2.3411086e+2, -725789.75, -792314.1, -30903.62, 0.010703227, 0.05594483, -713649.2, -67928.914, 0.0, 9.999873, 9.998991 
1.5150708e+3, 2.4410981e+2, -667160.56, -679421.06, -36392.625, 0.0008298251, 0.039574362, -636385.5, -88656.32, 0.0, 9.999457, 9.999293 
1.515061e+3, 2.5410917e+2, -641361.75, -609044.1, -48262.656, -0.029175863, 0.039508894, -574307.06, -124573.46, 0.0, 9.998931, 9.999357 
1.5150516e+3, 2.6410857e+2, -620089.06, -519890.97, -47541.3, -0.026625752, 0.035413306, -500924.2, -149185.81, 0.0, 9.998283, 9.999608 
1.5150426e+3, 2.7410808e+2, -638140.94, -471159.8, -43773.58, 0.020082219, 0.018271167, -460380.53, -206637.22, 0.0, 9.9974575, 9.999666 
1.5150332e+3, 2.8410792e+2, -596790.0, -337799.78, -34792.586, 0.025363777, 0.009429905, -333207.22, -177462.64, 0.0, 9.996798, 10.000228 
1.5150233e+3, 2.941082e+2, -558007.0, -266929.63, -29774.277, -0.023249004, 0.004422452, -263915.25, -206174.83, 0.0, 9.996384, 10.000241 
1.5150142e+3, 3.0410838e+2, -502377.0, -113953.49, 8165.4854, -0.04814804, -0.0416319, -113781.914, -113781.914, 0.0, 9.995996, 10.001144 
1.5150057e+3, 3.1411004e+2, -530426.6, -75856.08, -3770.2134, -0.060254604, -0.0020016907, -75824.81, -75824.81, 0.0, 9.995581, 10.001606 
1.5251872e+3, 1.2413879e+2, -1143898.0, -1814624.1, -40760.434, 0.06610246, 0.08628913, -1141430.0, 582019.2, 0.016859403, 10.005629, 9.996602 
1.5251765e+3, 1.3413692e+2, -1051555.4, -1623595.4, 17546.18, -0.09997412, 0.15868264, -1051017.6, 574451.3, 0.010191749, 10.005137, 9.997479 
1.5251693e+3, 1.441341e+2, -994833.9, -1502275.3, -15882.532, 0.10813643, 0.11080632, -994337.25, 533159.2, 0.0045370553, 10.004637, 9.997879 
1.5251589e+3, 1.5413168e+2, -970930.94, -1437404.9, -28061.352, 0.062245887, 0.07515471, -969248.94, 460269.8, 0.001204649, 10.004101, 9.997909 
1.5251487e+3, 1.6412966e+2, -932040.7, -1333950.3, -8460.41, 0.012553099, 0.069267936, -931862.7, 399675.03, 0.000118081814, 10.003545, 9.998212 
1.5251394e+3, 1.741281e+2, -911272.44, -1266689.0, -2658.2131, -0.0024414773, 0.084620535, -911252.56, 322300.3, 0.0000008766353, 10.002986, 9.998271 
1.52513e+3, 1.8412656e+2, -875190.1, -1163118.9, -24959.547, 0.0018298193, 0.09029516, -873042.5, 262525.1, 0.0, 10.002406, 9.998589 
1.5251203e+3, 1.9412509e+2, -862229.0, -1099314.4, -24526.426, 0.018483028, 0.07813645, -859718.3, 177862.78, 0.0, 10.001794, 9.99865 
1.5251103e+3, 2.0412368e+2, -837707.25, -1047136.5, -30513.04, 0.02300214, 0.07742987, -833352.2, 106242.664, 0.0, 10.001334, 9.998556 
1.5251002e+3, 2.1412234e+2, -773496.5, -963673.3, -23855.693, 0.015070253, 0.084642515, -770549.7, 71059.09, 0.0, 10.001094, 9.998572 
1.52509e+3, 2.2412108e+2, -719600.8, -843681.6, -14706.416, 0.016351944, 0.08601863, -717881.56, 25739.598, 0.0, 10.000606, 9.998959 
1.5250804e+3, 2.3411997e+2, -739398.75, -795106.56, -20401.79, 0.027701538, 0.06964583, -732726.25, -87094.99, 0.0, 9.999765, 9.999023 
1.5250702e+3, 2.4411893e+2, -727205.0, -716263.2, -24097.295, 0.016548226, 0.056738414, -697023.56, -149383.3, 0.0, 9.999081, 9.999222 
1.5250598e+3, 2.5411806e+2, -694087.25, -643825.3, -22569.213, -0.025662763, 0.039285522, -635178.56, -185530.98, 0.0, 9.9986105, 9.999272 
1.5250497e+3, 2.641174e+2, -649467.25, -525602.7, -23817.121, -0.028101776, 0.03072404, -521180.88, -169527.7, 0.0, 9.998048, 9.999681 
1.52504e+3, 2.741171e+2, -647712.94, -465720.5, -25391.264, 0.024405316, 0.025865296, -462244.34, -208588.28, 0.0, 9.997351, 9.999756 
1.5250301e+3, 2.8411713e+2, -581818.6, -318108.38, -4288.5273, 0.03669044, 0.026752785, -318038.66, -162383.45, 0.0, 9.996848, 10.000339 
1.52502e+3, 2.9411754e+2, -515638.38, -233756.05, -5360.2334, -0.006146233, 0.025258187, -233654.16, -176005.05, 0.0, 9.996622, 10.000354 
1.5250103e+3, 3.0411726e+2, -505244.47, -136446.55, 20315.191, -0.03834846, -0.06474833, -135330.86, -135330.86, 0.0, 9.996072, 10.000953 
1.5250012e+3, 3.1411907e+2, -604060.1, -110145.125, 18553.916, -0.044467997, 0.008882415, -109449.125, -109449.125, 0.0, 9.995072, 10.001616 
1.5351932e+3, 1.24147885e+2, -1127350.9, -1780593.6, -53123.344, 0.10548743, 0.085710555, -1123059.0, 600301.06, 0.017855544, 10.005636, 9.996834 
1.5351817e+3, 1.3414603e+2, -1040517.75, -1600048.9, -971.4752, -0.0906404, 0.14189519, -1040516.06, 584862.75, 0.010824324, 10.0051365, 9.997644 
1.535174e+3, 1.4414334e+2, -1004887.4, -1522708.5, -36874.62, 0.10927548, 0.102726385, -1002274.7, 525130.6, 0.0048449207, 10.004635, 9.99774 
1.535163e+3, 1.5414096e+2, -982140.9, -1460609.8, -48183.277, 0.056214403, 0.08739333, -977336.94, 452091.1, 0.0013012696, 10.0041, 9.997749 
1.5351522e+3, 1.6413888e+2, -929755.3, -1330350.3, -29971.078, 0.0057570324, 0.084649295, -927525.44, 403922.3, 0.00013086536, 10.003548, 9.998237 
1.5351424e+3, 1.7413719e+2, -907840.4, -1260502.4, -23330.08, -0.006455987, 0.08178854, -906303.7, 327160.16, 0.0000010420176, 10.002988, 9.998313 
1.5351324e+3, 1.841356e+2, -872350.56, -1157701.4, -48412.227, -0.0069237007, 0.07967914, -864360.75, 271118.06, 0.0, 10.002407, 9.998627 
1.535122e+3, 1.9413425e+2, -859176.1, -1094242.6, -47567.395, -0.00049272407, 0.07405396, -849915.4, 187576.17, 0.0, 10.001798, 9.998683 
1.5351115e+3, 2.041329e+2, -824413.0, -1020124.56, -41359.176, 0.0037498404, 0.07037139, -816031.6, 123472.695, 0.0, 10.001335, 9.998742 
1.5351012e+3, 2.141316e+2, -759633.5, -934819.2, -32324.344, 0.008548012, 0.059308548, -753859.5, 87657.7, 0.0, 10.001092, 9.998773 
1.5350907e+3, 2.2413045e+2, -728294.0, -860694.4, -44796.1, 0.018700302, 0.06631916, -714562.0, 28966.492, 0.0, 10.0006, 9.998845 
1.5350801e+3, 2.3412958e+2, -749666.6, -816275.8, -51377.656, 0.035051074, 0.08908615, -721743.3, -76205.87, 0.0, 9.9997635, 9.99888 
1.5350695e+3, 2.441286e+2, -722040.0, -704752.9, -42724.53, 0.036435258, 0.08625053, -669806.4, -122259.74, 0.0, 9.999077, 9.999304 
1.5350588e+3, 2.5412756e+2, -687833.44, -630409.44, -38718.695, 0.017736549, 0.041383073, -610918.56, -161362.86, 0.0, 9.998608, 9.999367 
1.535048e+3, 2.641269e+2, -645561.9, -517748.94, -48509.707, -0.0004079525, 0.026043361, -501423.06, -149861.84, 0.0, 9.998047, 9.999737 
1.535037e+3, 2.7412686e+2, -643969.4, -458276.63, -49928.316, -0.016969962, 0.039642233, -445703.44, -192141.78, 0.0, 9.99735, 9.999808 
1.5350264e+3, 2.8412715e+2, -580892.1, -315727.47, -12978.376, -0.009265522, 0.061003305, -315093.78, -159535.2, 0.0, 9.996846, 10.000357 
1.5350169e+3, 2.9412782e+2, -515749.88, -232716.17, -11560.3545, 0.030192852, 0.08465272, -232244.78, -174694.25, 0.0, 9.996615, 10.000364 
1.5350068e+3, 3.0412713e+2, -510025.53, -146805.27, -14094.282, 0.011379941, -0.038310494, -146259.17, -146259.17, 0.0, 9.996071, 10.000883 
1.5349962e+3, 3.1412852e+2, -581339.3, -62297.61, -12333.879, -0.05558039, -0.003779962, -62004.688, -62004.688, 0.0, 9.995068, 10.001947 
1.545199e+3, 1.241575e+2, -1052221.4, -1729444.6, -28040.088, 0.09085036, 0.077182315, -1051062.4, 672203.4, 0.0189042, 10.006108, 9.996957 
1.545187e+3, 1.3415562e+2, -1046136.8, -1596179.4, 6730.9893, -0.08185011, 0.121926844, -1046054.5, 579230.0, 0.011492054, 10.0050745, 9.997701 
1.5451787e+3, 1.4415295e+2, -1048348.8, -1544470.8, -15690.717, 0.13151301, 0.085587755, -1047853.06, 479457.3, 0.0051700394, 10.004341, 9.99773 
1.5451668e+3, 1.5415072e+2, -991181.4, -1465677.0, -16420.629, 0.04212129, 0.08705558, -990613.8, 438718.1, 0.0014036599, 10.004042, 9.997743 
1.5451556e+3, 1.6414872e+2, -925059.2, -1328424.5, 280.3621, -0.014871303, 0.090854935, -925059.0, 406292.25, 0.00014487762, 10.003582, 9.998234 
1.5451455e+3, 1.7414694e+2, -921104.56, -1267350.8, 2122.1829, 0.0065875477, 0.08116413, -921091.56, 312276.53, 0.000001197513, 10.002899, 9.998309 
1.545135e+3, 1.841453e+2, -880837.75, -1166292.6, -21626.184, 0.013062921, 0.07422671, -879208.6, 256175.22, 0.0, 10.00237, 9.998585 
1.5451236e+3, 1.9414388e+2, -823962.3, -1082617.0, -27099.385, -0.012310851, 0.06768269, -821153.56, 216243.7, 0.0, 10.002064, 9.998634 
1.5451127e+3, 2.0414259e+2, -782746.6, -984549.75, -27474.105, -0.013993875, 0.065159194, -779073.06, 160336.6, 0.0, 10.001555, 9.998879 
1.5451021e+3, 2.1414146e+2, -795978.25, -934908.06, -23311.352, 0.019486506, 0.05836884, -792171.1, 49249.316, 0.0, 10.000769, 9.998926 
1.5450913e+3, 2.2414047e+2, -790500.2, -884648.44, -35098.7, 0.03605999, 0.06924109, -778855.56, -35425.266, 0.0, 10.000148, 9.9988985 
1.5450798e+3, 2.3413967e+2, -747852.06, -811033.3, -28971.463, 0.028370297, 0.095603704, -736578.8, -91140.01, 0.0, 9.999758, 9.998919 
1.5450685e+3, 2.4413875e+2, -705704.94, -697502.5, -16616.012, 0.027556498, 0.096758746, -684489.06, -137041.25, 0.0, 9.999193, 9.999296 
1.5450574e+3, 2.5413772e+2, -722029.5, -648432.06, -22950.041, 0.03524898, 0.055338375, -641862.0, -192404.73, 0.0, 9.998382, 9.9993515 
1.5450461e+3, 2.6413712e+2, -668806.06, -518599.38, -27875.139, 0.018247226, 0.040000945, -513593.2, -162130.67, 0.0, 9.997844, 9.999828 
1.5450343e+3, 2.741371e+2, -587485.2, -420086.66, -25991.988, -0.031765364, 0.049198, -416143.75, -162681.9, 0.0, 9.997692, 9.999906 
1.5450233e+3, 2.8413746e+2, -548050.44, -308690.6, 238.13585, -0.029820709, 0.07540754, -308690.34, -153232.03, 0.0, 9.997111, 10.0002775 
1.5450135e+3, 2.9413822e+2, -625688.94, -296396.1, -9734.142, 0.042769294, 0.116734505, -296108.6, -238657.8, 0.0, 9.99591, 10.000267 
1.5450028e+3, 3.041376e+2, -631163.1, -204158.67, -3726.2305, 0.032369804, 0.0032809116, -204126.16, -204126.16, 0.0, 9.995238, 10.000889 
1.5449914e+3, 3.14139e+2, -509922.4, 19235.293, 8271.703, -0.048249643, 0.040287886, 19364.564, 19364.564, 0.0, 9.995358, 10.002365 
1.5552045e+3, 1.2416773e+2, -1052533.4, -1726632.1, -58749.05, 0.026449643, 0.069194384, -1047451.56, 675713.8, 0.020009985, 10.0061, 9.996981 
1.555192e+3, 1.3416564e+2, -1049028.8, -1602255.1, -31793.945, -0.075834155, 0.098374456, -1047207.56, 577978.06, 0.012199416, 10.005078, 9.997657 
1.5551835e+3, 1.4416301e+2, -1039477.6, -1528995.3, -29567.914, 0.17021944, 0.06115438, -1037698.1, 489513.0, 0.0055154273, 10.004354, 9.997832 
1.5551707e+3, 1.5416104e+2, -982011.56, -1447927.4, -27244.521, 0.017849823, 0.07617266, -980423.8, 448806.3, 0.0015128531, 10.004046, 9.997864 
1.5551588e+3, 1.6415918e+2, -926809.06, -1332936.8, -24968.84, -0.050708234, 0.08964541, -925279.75, 405968.44, 0.00016035166, 10.003585, 9.998202 
1.5551485e+3, 1.7415737e+2, -924108.75, -1274563.3, -23620.273, 0.033431545, 0.08129604, -922523.94, 310741.75, 0.0000013687348, 10.002902, 9.998259 
1.5551376e+3, 1.8415563e+2, -889190.2, -1184528.1, -34793.188, 0.05587819, 0.07326717, -885146.6, 250135.98, 0.0, 10.002372, 9.99846 
1.5551257e+3, 1.9415401e+2, -832777.06, -1101607.0, -37861.03, -0.018406283, 0.05995208, -827546.6, 209751.45, 0.0, 10.002065, 9.998505 
1.5551141e+3, 2.0415273e+2, -777862.2, -973871.56, -55737.5, -0.031217866, 0.0630163, -763121.2, 176189.4, 0.0, 10.001552, 9.998956 
1.5551032e+3, 2.1415195e+2, -790039.25, -921663.5, -52724.58, 0.044948976, 0.08019455, -771523.94, 69794.67, 0.0, 10.000764, 9.999022 
1.5550917e+3, 2.2415112e+2, -776085.06, -853629.56, -51376.04, 0.064710274, 0.0924796, -750492.8, -7165.966, 0.0, 10.000142, 9.999115 
1.5550794e+3, 2.3415026e+2, -732295.6, -778720.2, -42587.836, 0.0064103766, 0.089496836, -707005.0, -61669.688, 0.0, 9.999756, 9.999142 
1.5550674e+3, 2.4414939e+2, -713663.56, -713846.06, -45271.066, -0.011930098, 0.088544324, -668483.7, -121139.805, 0.0, 9.999191, 9.9991865 
1.5550558e+3, 2.5414854e+2, -731623.0, -668845.06, -52133.863, 0.025120292, 0.07962508, -639380.06, -190027.55, 0.0, 9.998382, 9.999212 
1.555044e+3, 2.6414797e+2, -659755.0, -499786.34, -34673.492, 0.026669316, 0.07156734, -492594.2, -141236.89, 0.0, 9.997843, 9.999959 
1.5550321e+3, 2.7414793e+2, -577583.56, -399555.53, -29342.25, -0.022287259, 0.057250142, -394844.06, -141487.63, 0.0, 9.99769, 10.000048 
1.5550204e+3, 2.841481e+2, -560483.75, -334805.94, -40351.88, -0.028458215, 0.071197435, -327807.9, -172453.47, 0.0, 9.99711, 10.000099 
1.5550092e+3, 2.941487e+2, -640657.4, -327185.28, -53391.613, 0.02486209, 0.11673289, -318340.97, -260990.53, 0.0, 9.995907, 10.000058 
1.5549979e+3, 3.041485e+2, -628252.06, -197426.75, -2427.7148, 0.018466374, 0.055927105, -197413.08, -197413.08, 0.0, 9.9952345, 10.000938 
1.5549871e+3, 3.1415033e+2, -476109.2, 88940.94, 21407.531, -0.026832322, 0.12466827, 89750.82, 89750.82, 0.0, 9.995359, 10.002845 
1.5652105e+3, 1.2417886e+2, -1086876.5, -1746914.4, -17099.863, 0.03291, 0.07164523, -1086433.9, 636622.94, 0.021184592, 10.005883, 9.996944 
1.5651971e+3, 1.3417675e+2, -1008758.9, -1591046.9, -3975.5144, -0.088691704, 0.104897656, -1008731.7, 616345.56, 0.012954223, 10.005399, 9.9975815 
1.565188e+3, 1.4417404e+2, -974796.25, -1496429.8, 2965.4067, 0.16516903, 0.06680192, -974779.4, 552323.75, 0.005885832, 10.004798, 9.997842 
1.5651748e+3, 1.5417205e+2, -978148.75, -1443569.9, -2764.7642, 0.019584883, 0.07564209, -978132.3, 450989.84, 0.0016307851, 10.004064, 9.997884 
1.5651625e+3, 1.6417012e+2, -946526.9, -1350343.1, -5064.188, -0.046501692, 0.08607501, -946463.4, 384677.34, 0.00017771347, 10.003486, 9.99813 
1.5651517e+3, 1.7416827e+2, -897776.44, -1270959.1, -7209.7847, 0.03384308, 0.0823125, -897637.25, 335521.84, 0.0000016137079, 10.003124, 9.998176 
1.5651402e+3, 1.8416654e+2, -852128.0, -1162262.0, -13386.331, 0.05950389, 0.07847061, -851551.3, 283624.72, 0.0, 10.002608, 9.998498 
1.5651278e+3, 1.9416502e+2, -855241.4, -1107202.3, -5052.0317, -0.0029719586, 0.06941236, -855140.1, 182050.34, 0.0, 10.001889, 9.998549 
1.5651156e+3, 2.0416376e+2, -833812.75, -1007158.06, -27272.4, -0.016816314, 0.07401273, -829623.2, 109579.78, 0.0, 10.001196, 9.9988985 
1.5651038e+3, 2.1416287e+2, -827733.0, -947601.56, -37035.24, 0.04056106, 0.089357994, -817213.56, 23999.012, 0.0, 10.000539, 9.998951 
1.5650916e+3, 2.2416207e+2, -787084.0, -836580.94, -31599.178, 0.052556485, 0.099438004, -771695.25, -28474.668, 0.0, 9.999972, 9.999312 
1.565079e+3, 2.341614e+2, -750362.1, -762984.06, -24767.809, 0.00028601434, 0.09369513, -731113.9, -85887.516, 0.0, 9.999529, 9.999359 
1.5650664e+3, 2.4416064e+2, -724595.44, -718156.0, -29500.672, -0.016491586, 0.091782905, -691699.9, -144466.39, 0.0, 9.999112, 9.999194 
1.5650542e+3, 2.5415978e+2, -680843.75, -645547.1, -28052.717, 0.016805891, 0.084945895, -630053.06, -180810.86, 0.0, 9.998737, 9.999201 
1.565042e+3, 2.6415923e+2, -622946.75, -489759.3, -10303.948, 0.022413462, 0.08071186, -488966.88, -137719.52, 0.0, 9.998131, 9.999888 
1.5650296e+3, 2.7415913e+2, -656397.0, -446413.88, -23396.408, -0.011487569, 0.069044724, -443838.63, -190591.13, 0.0, 9.99719, 9.999967 
1.5650174e+3, 2.841592e+2, -631980.06, -359843.94, -38416.824, -0.017476764, 0.07296043, -354524.72, -199278.1, 0.0, 9.99658, 10.000182 
1.5650052e+3, 2.941597e+2, -558966.44, -276608.88, -30333.678, 0.014664703, 0.09951512, -273386.88, -216143.84, 0.0, 9.99642, 10.000157 
1.5649933e+3, 3.0415988e+2, -564010.25, -177324.86, 31233.438, 0.010807133, 0.07605262, -174818.31, -174818.31, 0.0, 9.995723, 10.000841 
1.5649821e+3, 3.141614e+2, -621156.3, 29571.979, 43362.37, -0.009181048, 0.1220562, 32448.785, 32448.785, 0.0, 9.994318, 10.002939 
1.5752171e+3, 1.2419092e+2, -1093232.0, -1760770.0, -26522.19, 0.1048544, 0.08895625, -1092179.9, 630759.44, 0.02244179, 10.00589, 9.996847 
1.5752022e+3, 1.3418889e+2, -1016620.3, -1607674.8, -22785.42, -0.122258775, 0.14086464, -1015743.2, 609216.25, 0.013765249, 10.005403, 9.997465 
1.5751922e+3, 1.4418608e+2, -980634.0, -1508975.4, -24982.088, 0.1169799, 0.101877846, -979455.4, 547531.0, 0.006286161, 10.004801, 9.997754 
1.5751791e+3, 1.5418372e+2, -983111.9, -1455404.3, -30157.965, 0.043884695, 0.0840401, -981193.94, 447814.06, 0.0017593338, 10.00407, 9.9978 
1.5751663e+3, 1.6418158e+2, -952970.6, -1366198.6, -20277.861, -0.008751583, 0.081456214, -951977.94, 379050.66, 0.00019721405, 10.003494, 9.998017 
1.5751545e+3, 1.7417969e+2, -905884.7, -1288388.5, -20182.18, 0.008010409, 0.084605396, -904822.75, 328225.25, 0.0000019795527, 10.003125, 9.998056 
1.5751424e+3, 1.8417805e+2, -840336.5, -1137141.6, -39539.87, 0.02506379, 0.090027325, -835159.3, 299904.7, 0.0, 10.0026045, 9.9986725 
1.5751301e+3, 1.9417687e+2, -841839.25, -1078880.8, -31969.215, 0.030060727, 0.09409179, -837603.3, 199471.38, 0.0, 10.001885, 9.998747 
1.5751173e+3, 2.041756e+2, -846751.7, -1033730.25, -52356.88, 0.02362744, 0.0966859, -833089.25, 105997.984, 0.0, 10.001193, 9.998718 
1.575104e+3, 2.1417426e+2, -842535.06, -979286.9, -60602.242, 0.006114371, 0.086476885, -819544.2, 21558.035, 0.0, 10.000542, 9.998733 
1.575091e+3, 2.2417335e+2, -775925.7, -814055.94, -48479.055, -0.00009071733, 0.09121615, -742897.6, 213.69844, 0.0, 9.999973, 9.999468 
1.5750785e+3, 2.3417309e+2, -736960.4, -735386.4, -40576.723, 0.007884665, 0.10729727, -695589.0, -50476.785, 0.0, 9.999528, 9.99955 
1.5750659e+3, 2.441725e+2, -715841.9, -699670.9, -43497.414, 0.011279588, 0.10536065, -663513.9, -116396.91, 0.0, 9.999109, 9.999323 
1.5750529e+3, 2.5417152e+2, -672743.6, -628351.2, -40572.082, 0.0074810423, 0.07275743, -604300.56, -155174.13, 0.0, 9.9987335, 9.999321 
1.5750399e+3, 2.6417089e+2, -642955.4, -531019.2, -42592.914, 0.0023426637, 0.067496926, -516655.3, -165522.47, 0.0, 9.998128, 9.999608 
1.5750268e+3, 2.741707e+2, -678353.25, -492470.78, -56834.336, -0.0032768617, 0.08081382, -476470.7, -223335.1, 0.0, 9.99719, 9.999651 
1.5750141e+3, 2.8417072e+2, -607824.4, -310046.16, -45386.22, -0.0002692764, 0.07794583, -303282.2, -148146.8, 0.0, 9.99658, 10.0005245 
1.5750016e+3, 2.9417127e+2, -529864.3, -217763.78, -34023.125, 0.010289503, 0.06866213, -214097.86, -156969.31, 0.0, 9.996425, 10.000561 
1.574989e+3, 3.0417174e+2, -580631.25, -212796.73, -17195.11, 0.006776766, 0.06631099, -211994.66, -211994.66, 0.0, 9.995725, 10.000597 
1.5749764e+3, 3.14172e+2, -643598.44, -15946.513, -3025.2676, -0.0088044, 0.020651551, -15931.932, -15931.932, 0.0, 9.994312, 10.00263 
1.5852234e+3, 1.24203496e+2, -1064118.5, -1760418.8, -2373.9607, 0.12885311, 0.115534484, -1064110.5, 658706.3, 0.023792101, 10.006166, 9.996715 
1.5852076e+3, 1.3420121e+2, -1021372.6, -1623296.1, -14386.049, -0.12942572, 0.15392737, -1021029.0, 603810.5, 0.0146394, 10.005435, 9.997338 
1.585197e+3, 1.4419822e+2, -980805.5, -1513365.8, -12498.72, 0.11528055, 0.10635263, -980512.4, 546355.9, 0.006720073, 10.004824, 9.997712 
1.5851833e+3, 1.5419586e+2, -938275.2, -1437056.5, -15765.942, 0.05316019, 0.09076503, -937777.4, 491112.53, 0.0018996403, 10.004396, 9.997767 
1.58517e+3, 1.6419372e+2, -905875.06, -1337021.6, 1290.9187, -0.00019793249, 0.088850185, -905871.2, 425038.97, 0.0002187027, 10.003794, 9.998072 
1.5851575e+3, 1.7419186e+2, -924862.5, -1290772.8, 12564.27, -0.00078974554, 0.08957777, -924431.56, 308497.38, 0.000002466339, 10.002969, 9.998114 
1.5851448e+3, 1.8419027e+2, -885278.56, -1150860.5, -4244.282, 0.011115799, 0.09217141, -885210.75, 249733.67, 0.0, 10.002264, 9.998741 
1.5851319e+3, 1.9418913e+2, -860875.5, -1080296.6, -6724.6563, 0.026750434, 0.094239585, -860669.6, 176285.11, 0.0, 10.001723, 9.998814 
1.5851185e+3, 2.0418793e+2, -839357.6, -1026909.75, -21623.88, 0.020449867, 0.09832997, -836896.75, 102069.82, 0.0, 10.001231, 9.998745 
1.5851045e+3, 2.1418668e+2, -802303.94, -957505.06, -14350.565, -0.0125347, 0.09459799, -800988.1, 39992.38, 0.0, 10.00081, 9.998752 
1.585091e+3, 2.241857e+2, -740550.4, -807064.7, -2343.7307, -0.017027337, 0.09569101, -740467.94, 2522.339, 0.0, 10.00026, 9.999377 
1.5850781e+3, 2.3418514e+2, -741781.75, -748609.3, -15797.774, 0.017163292, 0.094006725, -729033.1, -84039.21, 0.0, 9.999543, 9.999451 
1.585065e+3, 2.4418451e+2, -734898.3, -694183.4, -25050.205, 0.029018782, 0.08774279, -682261.75, -135262.78, 0.0, 9.998919, 9.999452 
1.5850514e+3, 2.5418383e+2, -709154.44, -629870.3, -21985.262, 0.007969161, 0.070521004, -624182.0, -175176.53, 0.0, 9.998416, 9.999462 
1.5850379e+3, 2.6418337e+2, -683671.2, -555765.44, -26199.15, -0.002095812, 0.07560835, -550607.06, -199596.6, 0.0, 9.997871, 9.999561 
1.5850241e+3, 2.7418312e+2, -671370.56, -495987.75, -23686.408, 0.0055671893, 0.09063611, -492845.06, -239830.8, 0.0, 9.99727, 9.999588 
1.5850109e+3, 2.8418303e+2, -584577.6, -294030.6, 3861.926, 0.0054266728, 0.07787649, -293979.28, -138964.02, 0.0, 9.996722, 10.000566 
1.5849976e+3, 2.941834e+2, -555171.06, -223699.14, -12008.927, -0.009223197, 0.049011014, -223264.64, -166255.4, 0.0, 9.996227, 10.000613 
1.5849844e+3, 3.041843e+2, -606961.44, -222756.39, -29367.434, -0.0029968985, 0.08046459, -220524.6, -220524.6, 0.0, 9.995535, 10.000619 
1.584971e+3, 3.1418422e+2, -614247.4, -18129.742, 6670.5776, 0.004434256, 0.0004834319, -18055.107, -18055.107, 0.0, 9.994587, 10.002481 
1.5952294e+3, 1.2421671e+2, -1075373.8, -1785023.6, -16343.522, 0.10898162, 0.15764268, -1074997.6, 647690.5, 0.02524383, 10.006177, 9.996541 
1.5952131e+3, 1.3421376e+2, -1030371.7, -1644061.9, -41307.406, -0.11407607, 0.14428917, -1027603.75, 597113.4, 0.015581735, 10.0054455, 9.997192 
1.5952022e+3, 1.4421056e+2, -980914.06, -1514216.6, -29947.215, 0.15302779, 0.082609765, -979237.7, 547510.44, 0.0071899537, 10.0048275, 9.9977045 
1.5951878e+3, 1.5420848e+2, -939011.1, -1437483.4, -31182.016, 0.046463177, 0.09645261, -937068.1, 491699.4, 0.0020522822, 10.004392, 9.997768 
1.5951736e+3, 1.6420658e+2, -892574.06, -1308459.6, -29001.502, -0.021035096, 0.1078452, -890561.4, 440224.03, 0.00024184772, 10.003788, 9.998271 
1.5951604e+3, 1.7420481e+2, -909647.0, -1259909.0, -17996.732, 0.003264568, 0.096790865, -908724.7, 324077.3, 0.0000030340082, 10.002971, 9.998325 
1.595147e+3, 1.842032e+2, -886810.44, -1155259.6, -25742.926, 0.01160942, 0.08629212, -884364.1, 250453.28, 0.0, 10.002268, 9.998711 
1.5951332e+3, 1.9420183e+2, -864259.94, -1088353.9, -26316.182, -0.011948847, 0.07133784, -861211.0, 175619.38, 0.0, 10.001726, 9.998757 
1.5951191e+3, 2.0420073e+2, -824913.94, -997503.06, -38018.133, -0.02467785, 0.0802606, -816910.44, 121930.56, 0.0, 10.001232, 9.998947 
1.5951052e+3, 2.1420006e+2, -787041.2, -925079.3, -29904.51, -0.019023525, 0.11298311, -780841.1, 60006.89, 0.0, 10.000805, 9.998978 
1.5950914e+3, 2.2419904e+2, -763675.2, -854281.5, -28855.002, -0.003007775, 0.11191502, -755266.25, -12408.339, 0.0, 10.000255, 9.999057 
1.5950778e+3, 2.3419757e+2, -767819.94, -802422.7, -41449.082, 0.025763478, 0.054979987, -740206.25, -95334.8, 0.0, 9.99954, 9.9990835 
1.595064e+3, 2.4419671e+2, -727595.44, -679259.8, -43657.504, 0.03447548, 0.040381525, -653527.1, -106647.66, 0.0, 9.998918, 9.999556 
1.59505e+3, 2.541967e+2, -698392.9, -608345.1, -39143.223, 0.015982088, 0.07695271, -593708.75, -144829.22, 0.0, 9.998418, 9.999611 
1.5950358e+3, 2.6419663e+2, -670563.9, -529449.5, -47589.383, 0.007641816, 0.104255974, -514900.47, -164019.84, 0.0, 9.997873, 9.999742 
1.5950215e+3, 2.741964e+2, -658532.2, -469718.63, -44306.926, 0.011656373, 0.1007608, -459838.56, -206954.86, 0.0, 9.99727, 9.999769 
1.5950075e+3, 2.841961e+2, -603724.2, -334097.0, -13600.802, -0.0049756053, 0.07370551, -333412.66, -178526.08, 0.0, 9.996721, 10.000291 
1.5949935e+3, 2.941961e+2, -576710.7, -269171.03, -28710.594, -0.049898513, 0.03593175, -266513.7, -209627.58, 0.0, 9.996229, 10.000301 
1.5949798e+3, 3.0419743e+2, -587579.0, -181914.33, -62999.895, -0.023821322, 0.115895905, -172355.66, -172355.66, 0.0, 9.995531, 10.000902 
1.5949658e+3, 3.1419805e+2, -615331.4, -21315.018, -26204.498, 0.026247099, 0.0770068, -20161.271, -20161.271, 0.0, 9.994589, 10.00246 
1.6052356e+3, 1.2423007e+2, -1002636.9, -1757450.4, 18110.78, 0.085056625, 0.14892927, -1002202.56, 720354.75, 0.026807869, 10.006738, 9.996459 
1.6052188e+3, 1.3422705e+2, -991043.3, -1625998.9, -16915.293, -0.11083222, 0.13086303, -990593.0, 633994.1, 0.01659935, 10.005733, 9.997176 
1.6052073e+3, 1.4422396e+2, -980971.6, -1510796.3, 12017.368, 0.17644982, 0.07927153, -980699.2, 545918.2, 0.007699596, 10.004818, 9.997731 
1.605192e+3, 1.5422209e+2, -981747.75, -1454460.0, 12227.341, 0.050177347, 0.111337006, -981431.7, 447203.47, 0.0022186453, 10.004085, 9.997797 
1.6051771e+3, 1.6422023e+2, -932543.3, -1320149.9, 10663.631, -0.026621949, 0.123665996, -932250.1, 398402.28, 0.0002666428, 10.003483, 9.998336 
1.6051635e+3, 1.7421836e+2, -892647.75, -1243736.9, 9961.097, 0.0030148167, 0.09459408, -892365.3, 340304.06, 0.0000036433328, 10.003056, 9.998393 
1.6051494e+3, 1.8421671e+2, -856580.7, -1147506.6, -4326.0845, 0.011343734, 0.07999738, -856516.4, 278168.63, 0.0, 10.002507, 9.998647 
1.6051348e+3, 1.9421537e+2, -859379.06, -1094771.8, -8162.9556, -0.021713275, 0.07798325, -859096.3, 177601.9, 0.0, 10.001801, 9.998676 
1.6051203e+3, 2.0421427e+2, -831562.25, -991531.94, -20429.824, -0.032151338, 0.08722604, -828994.3, 109714.5, 0.0, 10.001149, 9.999027 
1.6051061e+3, 2.1421355e+2, -813812.06, -927605.8, -21787.379, -0.007829913, 0.10427484, -809783.25, 30932.248, 0.0, 10.000578, 9.999069 
1.6050917e+3, 2.2421253e+2, -793595.06, -867335.9, -17617.049, 0.009850982, 0.0971921, -789602.44, -46877.51, 0.0, 10.000046, 9.999065 
1.6050771e+3, 2.3421112e+2, -764693.6, -801627.7, -6333.5376, 0.015145478, 0.047349576, -763637.7, -118899.77, 0.0, 9.999567, 9.999075 
1.6050628e+3, 2.4421026e+2, -710983.6, -674798.06, 3427.5696, 0.014364007, 0.034873027, -674476.25, -127729.97, 0.0, 9.999047, 9.999523 
1.6050482e+3, 2.5421017e+2, -692160.8, -608754.25, -6028.5576, 0.0065386146, 0.06719948, -608320.75, -159573.17, 0.0, 9.998478, 9.9995775 
1.6050337e+3, 2.6421016e+2, -657821.44, -509085.97, -25532.215, 0.006457621, 0.09770044, -504825.13, -154077.0, 0.0, 9.997903, 9.999865 
1.6050188e+3, 2.7421018e+2, -641686.9, -446890.75, -27651.566, 0.013941453, 0.107915655, -443041.63, -190293.28, 0.0, 9.997324, 9.999898 
1.6050042e+3, 2.8421003e+2, -613576.2, -342643.0, 8779.728, -0.0041115177, 0.08638117, -342358.78, -187608.53, 0.0, 9.996672, 10.000256 
1.6049895e+3, 2.942099e+2, -625963.6, -297479.2, 11576.088, -0.05420942, 0.042823706, -297071.72, -240320.4, 0.0, 9.995913, 10.000258 
1.6049752e+3, 3.0421126e+2, -608479.2, -174933.92, -16631.66, -0.017761575, 0.1241755, -174296.83, -174296.83, 0.0, 9.995316, 10.001053 
1.6049604e+3, 3.1421223e+2, -580942.6, -23454.04, 1434.8971, 0.02381375, 0.09803244, -23450.348, -23450.348, 0.0, 9.994908, 10.002289 
1.615242e+3, 1.2424363e+2, -1005214.8, -1757748.9, -2276.1086, 0.0593824, 0.092600636, -1005207.9, 717216.25, 0.028499784, 10.006726, 9.996463 
1.6152243e+3, 1.3424112e+2, -985318.56, -1613135.4, -54436.703, -0.12080427, 0.115966186, -980633.44, 643815.9, 0.017704587, 10.005733, 9.997268 
1.6152121e+3, 1.442384e+2, -977056.56, -1503337.6, -16758.438, 0.1836096, 0.09633989, -976523.44, 549952.56, 0.008256866, 10.004822, 9.997782 
1.6151962e+3, 1.5423664e+2, -977248.5, -1448064.4, -14350.498, 0.060445115, 0.13411695, -976811.5, 451681.47, 0.002402306, 10.004096, 9.997836 
1.6151807e+3, 1.6423468e+2, -935445.2, -1328553.1, -6659.8984, -0.022440217, 0.13676064, -935332.4, 395178.9, 0.00029381854, 10.003492, 9.998275 
1.6151664e+3, 1.742325e+2, -897603.6, -1254603.8, -5368.238, -0.0022164944, 0.08342907, -897522.9, 335008.22, 0.000004294035, 10.003057, 9.99832 
1.6151519e+3, 1.8423079e+2, -864855.0, -1164169.9, -30391.639, 0.009102712, 0.07289737, -861800.3, 272747.1, 0.0, 10.002503, 9.998535 
1.6151367e+3, 1.9422977e+2, -867327.6, -1112120.4, -34156.805, -0.0070143254, 0.11283756, -862650.94, 173907.55, 0.0, 10.001802, 9.998557 
1.6151217e+3, 2.0422857e+2, -833353.4, -996387.6, -42425.984, -0.007685978, 0.11863107, -822973.8, 115596.516, 0.0, 10.001152, 9.998994 
1.6151068e+3, 2.1422714e+2, -815217.2, -931307.7, -41988.504, 0.018794091, 0.06961445, -801622.5, 38960.223, 0.0, 10.00058, 9.999043 
1.6150919e+3, 2.2422613e+2, -772539.94, -824286.44, -35736.6, 0.019609233, 0.05345675, -754293.7, -11702.654, 0.0, 10.000047, 9.999362 
1.6150764e+3, 2.3422574e+2, -741733.1, -754490.4, -23475.537, -0.015813956, 0.0704833, -723785.06, -79191.2, 0.0, 9.999567, 9.9994 
1.6150613e+3, 2.4422508e+2, -723180.2, -699982.56, -17494.914, -0.03228234, 0.07001236, -690590.8, -143990.75, 0.0, 9.999044, 9.999352 
1.6150464e+3, 2.5422418e+2, -707550.1, -639884.0, -25711.898, -0.023528475, 0.042025425, -631222.6, -182612.77, 0.0, 9.998472, 9.999367 
1.6150314e+3, 2.6422393e+2, -654740.7, -502753.25, -46033.617, -0.00979758, 0.057244096, -489898.0, -139284.78, 0.0, 9.997901, 9.99991 
1.6150162e+3, 2.7422446e+2, -636222.8, -437222.16, -47336.133, 0.009650599, 0.111281216, -426536.16, -173927.34, 0.0, 9.997329, 9.999963 
1.6150008e+3, 2.8422466e+2, -599536.75, -314405.7, -18474.547, 0.0061866855, 0.11547078, -313213.66, -158606.8, 0.0, 9.996675, 10.000449 
1.6149858e+3, 2.9422474e+2, -610776.75, -266424.78, -15170.782, -0.026277065, 0.07067179, -265757.72, -209152.31, 0.0, 9.995913, 10.000472 
1.6149709e+3, 3.042258e+2, -608371.25, -175027.4, -31427.182, 0.009951997, 0.1058002, -172760.1, -172760.1, 0.0, 9.995316, 10.001053 
1.614955e+3, 3.1422666e+2, -604507.44, -72559.83, -17296.996, -0.009945489, 0.07682581, -71997.984, -71997.984, 0.0, 9.994908, 10.001952 
1.6252486e+3, 1.2425854e+2, -1061530.1, -1773333.5, 43746.04, 0.07050691, 0.094948635, -1058851.8, 663427.9, 0.030337887, 10.006289, 9.996566 
1.62523e+3, 1.3425635e+2, -988996.06, -1594420.6, -24278.645, -0.12862535, 0.13329726, -988024.0, 636276.94, 0.018912282, 10.005625, 9.99745 
1.6252169e+3, 1.4425384e+2, -954755.94, -1499162.4, 23108.479, 0.17050843, 0.12642333, -953776.8, 572548.5, 0.008871285, 10.005009, 9.99772 
1.6252005e+3, 1.5425174e+2, -918281.25, -1427948.5, 16551.867, 0.05737149, 0.1384666, -917744.25, 510601.34, 0.0026080192, 10.004543, 9.997758 
1.6251843e+3, 1.6424961e+2, -879660.3, -1303641.4, 18675.05, -0.022285758, 0.13113703, -878839.3, 451526.03, 0.00032473856, 10.003887, 9.998254 
1.6251694e+3, 1.7424752e+2, -910609.7, -1263017.1, 22520.205, -0.0064550135, 0.08812937, -909176.4, 323207.94, 0.000005034694, 10.002979, 9.998298 
1.6251543e+3, 1.8424582e+2, -898287.8, -1189369.6, 6400.5103, 0.008357265, 0.08406811, -898147.2, 236253.33, 0.0, 10.0023155, 9.998451 
1.6251387e+3, 1.9424473e+2, -848532.3, -1112926.6, 4168.7397, 0.004887601, 0.12565944, -848466.6, 187945.97, 0.0, 10.001976, 9.9984665 
1.6251232e+3, 2.042434e+2, -785821.25, -977758.75, -6383.174, 0.00496053, 0.12809761, -785609.2, 152816.3, 0.0, 10.001498, 9.998953 
1.6251075e+3, 2.1424183e+2, -782064.8, -919549.06, -9023.805, 0.014982303, 0.068183124, -781475.06, 58964.03, 0.0, 10.000827, 9.999003 
1.6250917e+3, 2.2424084e+2, -750562.9, -805411.06, -8467.88, 0.006668294, 0.050712932, -749285.3, -6837.995, 0.0, 10.000163, 9.999435 
1.6250758e+3, 2.3424064e+2, -743764.6, -746084.0, -14244.145, -0.028042212, 0.080148056, -730633.0, -86184.914, 0.0, 9.999515, 9.999482 
1.6250601e+3, 2.4424009e+2, -745229.4, -704042.56, -11323.788, -0.039520133, 0.08362361, -701134.56, -154681.45, 0.0, 9.998868, 9.999408 
1.6250448e+3, 2.5423917e+2, -740101.7, -650126.25, -2512.6963, -0.021678079, 0.048366778, -650056.2, -201593.14, 0.0, 9.998227, 9.9994135 
1.6250291e+3, 2.6423886e+2, -692693.8, -516902.03, -11122.1875, -0.0084713595, 0.05431864, -516201.13, -165734.38, 0.0, 9.997623, 9.999946 
1.6250132e+3, 2.7423933e+2, -673496.9, -450634.75, -15407.189, -0.0009478587, 0.097311005, -449574.66, -197111.73, 0.0, 9.997056, 10.000001 
1.6249973e+3, 2.8423962e+2, -618120.7, -307092.38, 7218.5264, -0.0034316774, 0.10305844, -306924.94, -152465.2, 0.0, 9.996479, 10.000591 
1.6249818e+3, 2.9424e+2, -602860.25, -245049.0, 3805.5422, -0.018436648, 0.07358334, -245008.53, -188553.52, 0.0, 9.9958935, 10.000626 
1.6249663e+3, 3.042408e+2, -581565.44, -157738.88, 529.29584, 0.021426195, 0.071527615, -157738.22, -157738.22, 0.0, 9.995481, 10.001092 
1.62495e+3, 3.1424192e+2, -560794.8, -60046.336, 11286.541, -0.022254243, 0.06811051, -59792.074, -59792.074, 0.0, 9.995241, 10.001879 
1.6352554e+3, 1.2427476e+2, -1048444.44, -1744981.4, 39617.72, 0.11493591, 0.15179394, -1046198.3, 675925.4, 0.03233734, 10.006298, 9.996757 
1.6352355e+3, 1.3427271e+2, -970842.8, -1557905.0, -49476.555, -0.13803712, 0.177412, -966702.25, 657440.1, 0.020233257, 10.005634, 9.997703 
1.6352215e+3, 1.4427018e+2, -967089.5, -1524069.3, 3363.92, 0.1344352, 0.16596949, -967069.2, 559096.56, 0.00954918, 10.005008, 9.997548 
1.6352049e+3, 1.5426737e+2, -932887.75, -1458082.5, -327.74057, 0.040431015, 0.12627035, -932887.56, 495305.38, 0.0028391, 10.00454, 9.997554 
1.6351882e+3, 1.6426505e+2, -879069.06, -1301817.0, -14640.195, -0.027642816, 0.108538814, -878562.6, 451652.0, 0.00036080825, 10.003883, 9.998269 
1.6351724e+3, 1.742634e+2, -907804.7, -1259395.9, -11267.431, -0.0121968, 0.10784712, -907443.94, 324785.25, 0.000005927034, 10.002987, 9.99832 
1.6351564e+3, 1.8426177e+2, -901392.7, -1197716.8, -8047.72, 0.005205254, 0.11248215, -901174.3, 233070.33, 0.0, 10.002322, 9.998391 
1.6351408e+3, 1.9426024e+2, -853099.94, -1122682.4, -7514.2383, 0.012805553, 0.11742272, -852890.7, 183369.97, 0.0, 10.001976, 9.998401 
1.6351247e+3, 2.0425883e+2, -790834.25, -987456.56, -30581.621, 0.004584123, 0.11659502, -786187.56, 152086.95, 0.0, 10.001493, 9.99889 
1.635108e+3, 2.1425761e+2, -787143.7, -929955.1, -33447.918, -0.020227399, 0.098762095, -779698.06, 60587.19, 0.0, 10.000825, 9.998935 
1.6350916e+3, 2.2425658e+2, -760468.6, -825890.44, -32949.105, -0.030694112, 0.08777191, -746750.6, -4456.34, 0.0, 10.000161, 9.999296 
1.6350755e+3, 2.3425584e+2, -754026.0, -767600.2, -37300.055, -0.0241079, 0.076617844, -722900.56, -78599.81, 0.0, 9.999514, 9.999335 
1.6350593e+3, 2.4425529e+2, -727268.2, -667115.3, -34605.46, -0.0113841705, 0.07717331, -651342.75, -105037.21, 0.0, 9.998867, 9.999662 
1.6350433e+3, 2.542551e+2, -719492.56, -608683.06, -24849.762, 0.009544968, 0.08604232, -603365.5, -155057.98, 0.0, 9.99823, 9.999698 
1.635027e+3, 2.6425493e+2, -690951.8, -513897.56, -31814.885, 0.008579026, 0.08806312, -508354.3, -158044.95, 0.0, 9.997624, 9.999968 
1.63501e+3, 2.742547e+2, -673411.9, -450814.5, -34975.957, -0.021811068, 0.06547625, -445448.22, -193136.98, 0.0, 9.997056, 10.000001 
1.6349936e+3, 2.8425482e+2, -612537.44, -296246.28, -13717.683, -0.03773221, 0.04886643, -295652.47, -141342.94, 0.0, 9.99648, 10.000667 
1.6349775e+3, 2.942556e+2, -596218.2, -233404.84, -15860.295, -0.035600062, 0.0522133, -232712.84, -176411.95, 0.0, 9.9959, 10.000704 
1.6349617e+3, 3.0425623e+2, -575081.0, -144848.48, -8385.453, 0.013184054, 0.022785218, -144685.11, -144685.11, 0.0, 9.9954815, 10.001181 
1.6349453e+3, 3.1425798e+2, -544653.7, -26692.764, -3389.0405, -0.01458374, 0.07371201, -26670.59, -26670.59, 0.0, 9.995241, 10.002108 
1.6452618e+3, 1.2429168e+2, -1004330.2, -1735009.8, 86857.78, 0.11618343, 0.20270805, -994147.1, 727812.44, 0.034504216, 10.006679, 9.996642 
1.6452414e+3, 1.3428906e+2, -957903.8, -1560593.5, -48974.496, -0.12477491, 0.18132246, -953950.06, 670033.5, 0.021670856, 10.005775, 9.997616 
1.6452266e+3, 1.4428654e+2, -972165.0, -1523826.9, 8034.76, 0.13317682, 0.17240044, -972048.0, 553958.7, 0.010292513, 10.004966, 9.997569 
1.645209e+3, 1.542837e+2, -956079.7, -1466407.4, 20450.305, 0.027026873, 0.13002859, -955261.5, 472771.75, 0.0030965644, 10.004371, 9.997578 
1.6451919e+3, 1.6428137e+2, -894935.2, -1321312.3, 5923.9517, -0.03849221, 0.11350798, -894852.9, 435202.22, 0.00040285336, 10.003826, 9.998162 
1.6451755e+3, 1.7427967e+2, -863600.44, -1250960.4, -2160.877, -0.00011186816, 0.12096996, -863588.4, 368482.34, 0.0000070009137, 10.003347, 9.998202 
1.6451591e+3, 1.84278e+2, -836661.5, -1155211.9, 4567.268, 0.021223513, 0.1230132, -836596.06, 297490.44, 0.0, 10.00272, 9.99849 
1.6451426e+3, 1.942764e+2, -858088.7, -1112456.5, 17048.102, 0.005528996, 0.10974891, -856951.2, 179150.84, 0.0, 10.001889, 9.998512 
1.6451257e+3, 2.0427503e+2, -837009.06, -1013540.06, 2630.7773, -0.011716021, 0.107213505, -836969.9, 101145.4, 0.0, 10.001195, 9.998854 
1.6451086e+3, 2.1427397e+2, -810989.4, -947154.1, -46.41275, -0.0269815, 0.11034081, -810989.4, 29135.695, 0.0, 10.000688, 9.998881 
1.6450916e+3, 2.2427289e+2, -770301.94, -846998.56, 1397.243, -0.02869209, 0.10470772, -770276.5, -28141.332, 0.0, 10.000165, 9.999148 
1.6450751e+3, 2.3427182e+2, -748890.5, -782892.2, -5981.106, -0.014884202, 0.078146264, -747869.06, -103723.734, 0.0, 9.999626, 9.999175 
1.6450584e+3, 2.4427123e+2, -704108.4, -642437.4, -12892.033, -0.0010566957, 0.077850066, -639850.8, -93700.195, 0.0, 9.998968, 9.999783 
1.6450416e+3, 2.5427136e+2, -722078.75, -594025.8, -15140.291, 0.012705016, 0.10450384, -592260.0, -144110.84, 0.0, 9.998145, 9.999838 
1.6450246e+3, 2.642713e+2, -702040.25, -503477.8, -15497.156, 0.011836223, 0.10451108, -502275.6, -152126.36, 0.0, 9.997482, 10.000105 
1.6450071e+3, 2.7427095e+2, -667308.9, -433152.0, -9616.213, -0.008866173, 0.055551395, -432757.75, -180606.17, 0.0, 9.997036, 10.00013 
1.6449901e+3, 2.842711e+2, -612745.44, -306941.13, 8090.5815, -0.027265703, 0.035267867, -306727.22, -152577.39, 0.0, 9.996525, 10.00057 
1.6449732e+3, 2.9427198e+2, -605114.4, -249697.81, -10468.392, -0.042486098, 0.06131189, -249389.75, -193248.95, 0.0, 9.995893, 10.000594 
1.6449569e+3, 3.042723e+2, -593084.5, -147911.81, -877.11884, -0.009332771, 0.010461056, -147910.08, -147910.08, 0.0, 9.995337, 10.001227 
1.6449404e+3, 3.142741e+2, -567782.7, 1193.2906, -7082.9277, -0.008623051, 0.060183614, 1281.4491, 1281.4491, 0.0, 9.994916, 10.002455 
1.6552682e+3, 1.2430921e+2, -1032198.25, -1790767.9, 73159.29, 0.08018452, 0.24029468, -1025206.94, 696581.2, 0.036834233, 10.006676, 9.996261 
1.6552475e+3, 1.3430549e+2, -985395.56, -1618105.0, -82537.82, -0.09195525, 0.1503111, -974805.6, 649018.25, 0.023222141, 10.005782, 9.997211 
1.6552319e+3, 1.4430293e+2, -959143.8, -1496288.5, -15599.609, 0.16027662, 0.1488527, -958691.1, 567156.44, 0.011100875, 10.004967, 9.997761 
1.6552134e+3, 1.5430073e+2, -939317.8, -1433420.9, -1206.0023, 0.013249503, 0.1472361, -939314.9, 488551.9, 0.0033805065, 10.004377, 9.997801 
1.6551955e+3, 1.6429852e+2, -909775.0, -1353376.0, -12569.145, -0.058230795, 0.14255564, -909419.2, 420468.06, 0.00045112576, 10.003829, 9.997941 
1.6551793e+3, 1.7429635e+2, -881441.8, -1288007.3, -18948.885, 0.027193379, 0.12810856, -880560.56, 351348.25, 0.000008273259, 10.0033455, 9.997951 
1.6551623e+3, 1.8429454e+2, -820295.9, -1120597.8, -25453.693, 0.052681107, 0.11709861, -818153.7, 315772.28, 0.0, 10.002715, 9.998731 
1.6551442e+3, 1.942932e+2, -838540.44, -1072808.8, -13617.412, -0.018022472, 0.102644145, -837751.56, 198185.53, 0.0, 10.001891, 9.998784 
1.6551267e+3, 2.0429195e+2, -836984.25, -1015012.6, -17473.33, -0.045309644, 0.10001366, -835285.5, 102662.664, 0.0, 10.0012, 9.998842 
1.6551095e+3, 2.1429086e+2, -813326.7, -952567.56, -18260.922, -0.008589355, 0.10367121, -810971.7, 28987.191, 0.0, 10.000688, 9.998845 
1.6550922e+3, 2.2428973e+2, -782447.94, -872255.3, -18785.549, 0.008287081, 0.102347426, -778676.8, -36706.547, 0.0, 10.000163, 9.998977 
1.6550748e+3, 2.3428857e+2, -761833.9, -809946.5, -24963.818, -0.002727238, 0.08449318, -751221.75, -107239.63, 0.0, 9.999625, 9.998991 
1.655057e+3, 2.4428791e+2, -705270.6, -644785.75, -42338.13, -0.01047406, 0.08506398, -622998.2, -77009.27, 0.0, 9.998966, 9.999769 
1.6550395e+3, 2.5428793e+2, -721915.1, -594254.8, -44386.004, -0.014281021, 0.10331518, -580339.2, -132350.84, 0.0, 9.998146, 9.999838 
1.6550219e+3, 2.64288e+2, -684816.2, -468824.72, -32030.27, -0.00096686673, 0.10446326, -464174.94, -114188.17, 0.0, 9.997484, 10.000343 
1.6550046e+3, 2.7428806e+2, -648620.1, -396680.84, -23884.238, 0.034312643, 0.06975408, -394436.6, -142452.36, 0.0, 9.997043, 10.000379 
1.6549872e+3, 2.842883e+2, -631688.2, -347456.34, -14368.269, 0.02511877, 0.06283133, -346731.84, -192750.66, 0.0, 9.996529, 10.000291 
1.6549692e+3, 2.9428896e+2, -626381.5, -294266.16, -33080.824, -0.04310687, 0.09862372, -291003.16, -235027.55, 0.0, 9.995893, 10.000289 
1.6549517e+3, 3.04289e+2, -593390.9, -148097.31, -16154.187, -0.050070643, 0.032278474, -147512.05, -147512.05, 0.0, 9.995333, 10.001228 
1.6549355e+3, 3.1429023e+2, -535728.25, 67588.04, -25813.137, -0.00891862, 0.0219511, 68690.445, 68690.445, 0.0, 9.994916, 10.002911 
1.6652748e+3, 1.2432672e+2, -1053078.3, -1804905.4, 92466.56, 0.07401318, 0.23957007, -1041872.8, 679743.75, 0.03931695, 10.00656, 9.99622 
1.6652533e+3, 1.3432288e+2, -979715.8, -1626026.5, -65757.86, -0.083105534, 0.14709446, -973093.25, 650561.06, 0.02488208, 10.005881, 9.9971075 
1.6652367e+3, 1.4432047e+2, -926171.56, -1477296.4, 15058.7705, 0.15134737, 0.16719836, -925760.44, 599916.1, 0.011973872, 10.005186, 9.9977865 
1.665218e+3, 1.5431821e+2, -907230.56, -1413242.3, 17174.055, 0.035263244, 0.1529323, -906648.4, 521047.78, 0.003691523, 10.004581, 9.997841 
1.6651997e+3, 1.6431595e+2, -895245.25, -1346212.4, 6765.8833, -0.03110122, 0.14116918, -895143.75, 434573.13, 0.0005057601, 10.00393, 9.997942 
1.6651826e+3, 1.7431378e+2, -901715.25, -1298437.6, 16675.676, 0.027547104, 0.12828547, -901015.5, 330723.03, 0.000009797576, 10.003209, 9.997944 
1.6651648e+3, 1.8431199e+2, -837721.1, -1125667.5, 11153.272, 0.042998333, 0.11833722, -837289.75, 296465.72, 0.0, 10.002582, 9.99876 
1.6651462e+3, 1.9431067e+2, -808765.4, -1054582.5, 4658.1665, -0.017850215, 0.102988146, -808677.2, 227088.84, 0.0, 10.002081, 9.9988165 
1.665128e+3, 2.0430942e+2, -800103.4, -1002633.56, -8205.434, -0.037098415, 0.09994616, -799771.5, 138005.63, 0.0, 10.001478, 9.998793 
1.6651103e+3, 2.1430828e+2, -810068.0, -957232.25, -11855.223, 0.0053202338, 0.10406968, -809119.06, 30669.62, 0.0, 10.000739, 9.998788 
1.6650926e+3, 2.2430715e+2, -800001.1, -876164.75, -4775.2544, 0.022359286, 0.105674595, -799702.9, -57902.76, 0.0, 10.000025, 9.999017 
1.6650744e+3, 2.343061e+2, -799877.7, -823274.1, 4738.3877, 0.0031594154, 0.0943452, -798954.44, -155143.48, 0.0, 9.999344, 9.999035 
1.665056e+3, 2.4430542e+2, -740393.9, -667563.2, -5739.642, -0.008917768, 0.09590175, -667113.6, -121295.836, 0.0, 9.998752, 9.999715 
1.6650376e+3, 2.5430533e+2, -706492.8, -594244.0, -14312.893, -0.012332177, 0.10901361, -592447.7, -144629.16, 0.0, 9.998285, 9.99977 
1.6650194e+3, 2.6430538e+2, -648574.2, -453501.66, -10041.127, -0.0042694365, 0.11413049, -452986.16, -103168.88, 0.0, 9.997744, 10.000323 
1.6650017e+3, 2.7430558e+2, -643231.4, -396435.47, -22821.342, 0.02031012, 0.09254051, -394342.9, -142528.95, 0.0, 9.997091, 10.000356 
1.6649835e+3, 2.843058e+2, -625250.44, -330837.63, -9804.6, 0.019977197, 0.08141015, -330511.47, -176700.64, 0.0, 9.996516, 10.00041 
1.6649653e+3, 2.943064e+2, -597518.75, -264922.84, 2166.4673, -0.017041096, 0.09560487, -264908.75, -209103.17, 0.0, 9.996026, 10.000425 
1.6649471e+3, 3.0430675e+2, -602947.94, -177143.45, 28606.973, -0.04901476, 0.06357326, -175230.14, -175230.14, 0.0, 9.995374, 10.001008 
1.66493e+3, 3.143076e+2, -587335.94, 43027.93, -6037.596, -0.018742392, 0.040436305, 43085.75, 43085.75, 0.0, 9.994563, 10.002912 
1.6752815e+3, 1.243442e+2, -1037699.75, -1767003.6, 84651.56, 0.09508767, 0.19802502, -1028003.0, 693441.94, 0.041940216, 10.006556, 9.996483 
1.675259e+3, 1.3434115e+2, -969497.8, -1604119.8, -91956.29, -0.09978266, 0.16786227, -956442.0, 667033.44, 0.026647247, 10.005887, 9.997259 
1.6752414e+3, 1.443391e+2, -935172.5, -1494769.5, -8849.872, 0.10593875, 0.22133745, -935032.56, 590462.06, 0.012913084, 10.005184, 9.997667 
1.6752231e+3, 1.5433611e+2, -916856.06, -1432561.1, -4266.1807, 0.089035526, 0.14814182, -916820.75, 510700.56, 0.00403158, 10.004578, 9.99771 
1.6752042e+3, 1.6433363e+2, -881581.8, -1317665.8, -20055.31, 0.036651444, 0.11206142, -880661.44, 448882.5, 0.0005671801, 10.003927, 9.998139 
1.6751854e+3, 1.743319e+2, -885674.94, -1267055.6, -10220.326, -0.000060215294, 0.12201292, -885401.25, 346159.16, 0.000011659807, 10.003216, 9.9981575 
1.675167e+3, 1.8433027e+2, -848548.06, -1149759.5, -8642.753, -0.007793639, 0.1258432, -848300.25, 285275.34, 0.0, 10.002587, 9.998593 
1.6751486e+3, 1.9432877e+2, -822794.3, -1083923.6, -13547.629, 0.0031974637, 0.110498644, -822093.3, 213495.72, 0.0, 10.00208, 9.998617 
1.67513e+3, 2.0432736e+2, -806850.2, -1016240.1, -35692.348, 0.008124712, 0.10688897, -800933.3, 136668.95, 0.0, 10.001475, 9.998702 
1.6751112e+3, 2.1432613e+2, -816379.0, -970315.75, -38813.95, 0.013049349, 0.11101417, -807146.1, 32468.652, 0.0, 10.000737, 9.9987 
1.6750924e+3, 2.243251e+2, -782816.5, -840704.0, -30236.043, 0.012357721, 0.11465122, -769903.8, -28278.762, 0.0, 10.000024, 9.999261 
1.6750737e+3, 2.3432434e+2, -780938.3, -784726.56, -19685.098, 0.0015230792, 0.10760653, -763056.4, -119424.23, 0.0, 9.999345, 9.9993 
1.6750549e+3, 2.4432379e+2, -747705.1, -683621.5, -23390.814, 0.0013023649, 0.11069508, -675992.06, -130354.4, 0.0, 9.998753, 9.999605 
1.6750361e+3, 2.5432357e+2, -716226.4, -615315.9, -30039.64, 0.014751612, 0.12230977, -607050.5, -159410.27, 0.0, 9.998286, 9.999626 
1.6750172e+3, 2.6432344e+2, -668394.4, -495292.13, -32884.824, -0.0013190897, 0.1327642, -489255.4, -139614.0, 0.0, 9.997745, 10.000037 
1.674998e+3, 2.7432343e+2, -663473.94, -439114.5, -45358.816, -0.053072758, 0.12182182, -430291.28, -178649.83, 0.0, 9.997092, 10.000063 
1.6749795e+3, 2.8432354e+2, -589418.6, -257229.14, -27127.283, -0.04484529, 0.09027726, -255028.45, -101389.15, 0.0, 9.996517, 10.0009165 
1.6749617e+3, 2.9432422e+2, -556098.4, -180670.05, -13841.51, 0.03140531, 0.056960527, -180160.42, -124529.73, 0.0, 9.996031, 10.001002 
1.6749428e+3, 3.0432546e+2, -634962.44, -245067.4, -943.44403, -0.009602162, 0.106610775, -245065.13, -245065.13, 0.0, 9.9953785, 10.000541 
1.6749243e+3, 3.1432608e+2, -623308.6, -31641.773, -30024.78, -0.043778494, 0.11585988, -30122.037, -30122.037, 0.0, 9.994563, 10.002399 
1.6852878e+3, 1.243625e+2, -1044101.3, -1751279.6, 116849.734, 0.08250362, 0.18017167, -1025293.94, 695971.44, 0.044693783, 10.006447, 9.996644 
1.685265e+3, 1.343596e+2, -979466.4, -1607953.6, -86367.13, -0.07706097, 0.16536604, -967813.75, 655480.8, 0.028516132, 10.005824, 9.997263 
1.6852465e+3, 1.4435779e+2, -940650.06, -1493637.8, -1733.2991, 0.09163954, 0.24085683, -940644.6, 584667.25, 0.013921591, 10.005135, 9.9977 
1.6852276e+3, 1.543547e+2, -929390.1, -1434543.9, 13606.705, 0.085558966, 0.15572332, -929023.9, 498315.84, 0.0044040056, 10.004476, 9.997746 
1.6852081e+3, 1.6435222e+2, -881248.5, -1316184.4, 1096.8538, 0.0366261, 0.116839275, -881245.75, 448116.75, 0.0006363534, 10.003924, 9.998152 
1.6851887e+3, 1.743506e+2, -842251.75, -1244684.0, -3836.3706, -0.0057561467, 0.13526696, -842215.2, 389162.6, 0.00001399049, 10.003509, 9.99817 
1.6851695e+3, 1.8434894e+2, -816190.44, -1152956.1, -14411.275, -0.008110894, 0.1430903, -815574.8, 317818.63, 0.0, 10.002891, 9.998425 
1.6851507e+3, 1.9434725e+2, -846702.94, -1116086.6, -19934.875, 0.021131625, 0.12754609, -845235.7, 190173.83, 0.0, 10.002005, 9.998433 
1.6851315e+3, 2.0434576e+2, -830216.44, -1016951.25, -32551.14, 0.026022974, 0.12185388, -824704.9, 112718.836, 0.0, 10.001269, 9.9987955 
1.6851118e+3, 2.1434459e+2, -808402.94, -953151.8, -21971.656, 0.006760939, 0.121585555, -805141.4, 34293.496, 0.0, 10.000736, 9.998817 
1.6850923e+3, 2.2434361e+2, -768846.6, -832764.4, -15710.044, 0.0014304806, 0.1243811, -765194.0, -23749.78, 0.0, 10.000116, 9.99927 
1.6850731e+3, 2.3434292e+2, -775121.5, -781773.94, -26181.898, 0.011192829, 0.12108222, -752055.4, -108604.18, 0.0, 9.999387, 9.999299 
1.6850537e+3, 2.4434233e+2, -750559.8, -679379.2, -28829.723, 0.017592054, 0.12085902, -669167.5, -123710.836, 0.0, 9.998712, 9.999654 
1.6850345e+3, 2.5434202e+2, -739728.25, -621185.0, -22257.213, 0.019328268, 0.11986314, -617143.9, -169684.36, 0.0, 9.998103, 9.999673 
1.6850148e+3, 2.643419e+2, -706351.5, -522474.34, -11823.033, -0.004941816, 0.12880002, -521717.25, -172256.31, 0.0, 9.997524, 9.999956 
1.6849948e+3, 2.7434188e+2, -685173.06, -459959.6, -10408.704, -0.05991162, 0.13066922, -459479.56, -208018.23, 0.0, 9.99699, 9.999969 
1.6849758e+3, 2.8434202e+2, -600732.4, -256232.1, 1301.1036, -0.04923565, 0.10075423, -256227.19, -102767.44, 0.0, 9.996413, 10.000973 
1.6849577e+3, 2.943426e+2, -591653.0, -188312.73, -25337.158, 0.0370673, 0.054365877, -186727.33, -131275.28, 0.0, 9.995748, 10.001086 
1.6849379e+3, 3.043445e+2, -659830.0, -231231.02, -10632.961, -0.027374836, 0.15275802, -230967.39, -230967.39, 0.0, 9.995098, 10.00077 
1.6849189e+3, 3.1434494e+2, -632301.3, -43224.37, 26388.639, -0.0416769, 0.12288711, -42044.613, -42044.613, 0.0, 9.994531, 10.0023365 
1.695294e+3, 1.2438147e+2, -1043293.94, -1744340.1, 103965.414, 0.041349154, 0.1751714, -1028200.75, 692878.4, 0.047575727, 10.006442, 9.996695 
1.6952714e+3, 1.3437827e+2, -989920.25, -1626992.5, -109352.85, -0.020551087, 0.14102949, -971672.56, 651439.06, 0.030489815, 10.005819, 9.997136 
1.6952518e+3, 1.4437658e+2, -931200.75, -1472544.5, -27051.83, 0.10188275, 0.22830345, -929852.25, 595275.8, 0.015002809, 10.005131, 9.99785 
1.6952315e+3, 1.5437397e+2, -916470.94, -1409671.5, -10785.585, 0.025507659, 0.1754482, -916235.2, 510916.5, 0.00481281, 10.004484, 9.997914 
1.6952114e+3, 1.6437168e+2, -891112.8, -1338055.4, -15654.017, -0.028884396, 0.15349537, -890565.2, 438607.78, 0.0007148902, 10.003928, 9.998 
1.6951923e+3, 1.7436984e+2, -854446.94, -1270155.3, -18632.604, 0.00785716, 0.16584465, -853613.5, 377577.25, 0.000016975888, 10.003508, 9.997996 
1.6951728e+3, 1.8436795e+2, -829405.0, -1179687.1, -46385.91, 0.03621502, 0.16927214, -823366.5, 309842.56, 0.0, 10.002886, 9.998245 
1.6951528e+3, 1.9436607e+2, -859336.7, -1142679.3, -52164.65, 0.03422562, 0.15363595, -850038.06, 185189.52, 0.0, 10.002004, 9.998252 
1.6951327e+3, 2.0436458e+2, -811252.6, -977715.56, -53007.02, 0.016301893, 0.14462137, -795806.75, 141434.8, 0.0, 10.001269, 9.999066 
1.6951123e+3, 2.1436363e+2, -787322.3, -909665.6, -41034.188, -0.014678717, 0.13549207, -774834.06, 64415.1, 0.0, 10.000735, 9.999117 
1.6950923e+3, 2.2436269e+2, -784479.6, -865343.3, -42697.938, -0.012815326, 0.13471873, -766108.0, -24849.947, 0.0, 10.000115, 9.999048 
1.6950727e+3, 2.3436174e+2, -793741.4, -820838.75, -52202.625, 0.029836522, 0.13458535, -753357.9, -110089.55, 0.0, 9.999387, 9.999032 
1.6950527e+3, 2.4436104e+2, -737002.1, -651252.56, -50936.367, 0.03766703, 0.12605406, -627548.4, -82273.21, 0.0, 9.99871, 9.999848 
1.6950323e+3, 2.543607e+2, -723487.44, -588053.2, -43319.945, 0.00036686938, 0.10193586, -575382.3, -128105.62, 0.0, 9.998104, 9.999902 
1.6950122e+3, 2.6436067e+2, -698035.3, -506197.84, -30978.096, -0.016307756, 0.102945864, -501319.53, -152043.17, 0.0, 9.997526, 10.000068 
1.6949925e+3, 2.7436095e+2, -677482.0, -445739.25, -28138.05, -0.0043712896, 0.1208831, -442371.7, -191097.75, 0.0, 9.996995, 10.000065 
1.6949728e+3, 2.8436115e+2, -629302.0, -316872.75, -22370.215, 0.0028969476, 0.11365999, -315279.16, -162006.39, 0.0, 9.996417, 10.000556 
1.6949531e+3, 2.9436147e+2, -622351.7, -251092.47, -48758.414, -0.0037384804, 0.0880653, -244795.7, -189525.33, 0.0, 9.995742, 10.000659 
1.6949323e+3, 3.0436373e+2, -593483.4, -93756.805, -31877.41, -0.106474586, 0.19766447, -91731.56, -91731.56, 0.0, 9.995096, 10.001717 
1.6949135e+3, 3.1436437e+2, -599640.56, 21484.357, 24084.814, -0.021909257, 0.08833254, 22416.873, 22416.873, 0.0, 9.994543, 10.002775 
1.7053002e+3, 1.24401145e+2, -1032117.9, -1710552.3, 122581.164, 0.029718285, 0.18968916, -1010649.0, 710238.4, 0.050591618, 10.006422, 9.996938 
1.7052774e+3, 1.3439786e+2, -1002214.4, -1624650.8, -86738.72, 0.0024358686, 0.13886358, -990353.0, 632566.9, 0.032571584, 10.005712, 9.997201 
1.7052564e+3, 1.443961e+2, -945207.44, -1491199.4, 1150.6422, 0.071657, 0.22217382, -945205.06, 579731.9, 0.01615968, 10.005094, 9.997738 
1.7052358e+3, 1.543936e+2, -895777.94, -1413277.5, -2565.0781, 0.0037417414, 0.19138917, -895765.25, 531195.2, 0.005261349, 10.004688, 9.997791 
1.7052153e+3, 1.6439131e+2, -861157.0, -1322756.1, -14464.821, -0.034560785, 0.17552626, -860704.2, 468278.0, 0.00080453476, 10.00413, 9.998009 
1.7051959e+3, 1.7438935e+2, -872344.75, -1277397.4, -6001.782, 0.027255822, 0.17558397, -872255.8, 358745.13, 0.000020835996, 10.003378, 9.99801 
1.705176e+3, 1.8438746e+2, -850991.75, -1177610.1, -21952.848, 0.058811318, 0.17473778, -849522.8, 283496.0, 0.0, 10.002685, 9.998356 
1.7051548e+3, 1.9438575e+2, -841341.06, -1120453.1, -7436.241, 0.03100372, 0.16388935, -841143.06, 193892.22, 0.0, 10.002071, 9.998371 
1.7051339e+3, 2.0438425e+2, -798321.5, -983754.06, -5096.562, 0.009434046, 0.15280467, -798181.56, 138867.73, 0.0, 10.001412, 9.998955 
1.7051132e+3, 2.1438307e+2, -804436.25, -932250.7, -25182.643, 0.0018096643, 0.13434106, -799653.6, 39405.934, 0.0, 10.000682, 9.998987 
1.7050925e+3, 2.2438207e+2, -793705.44, -866167.4, -34282.355, 0.005859566, 0.13522847, -780056.94, -38987.85, 0.0, 10.000038, 9.999079 
1.7050721e+3, 2.3438133e+2, -772924.8, -806121.9, -23324.652, 0.023786498, 0.15092796, -760895.56, -117818.13, 0.0, 9.999512, 9.999071 
1.7050512e+3, 2.443807e+2, -715084.94, -648567.5, -20619.633, 0.023682827, 0.14993805, -642694.25, -97610.44, 0.0, 9.998896, 9.999776 
1.7050304e+3, 2.5438023e+2, -720552.25, -595222.9, -37032.61, -0.00024531403, 0.12062043, -585098.3, -138011.38, 0.0, 9.998164, 9.999822 
1.7050096e+3, 2.6438016e+2, -699913.06, -488578.25, -33346.65, -0.011124485, 0.11358857, -483441.3, -134354.47, 0.0, 9.997436, 10.000231 
1.7049892e+3, 2.7438053e+2, -708217.0, -440684.03, -26143.377, -0.0023907435, 0.123267904, -438153.25, -187070.52, 0.0, 9.996701, 10.000241 
1.704969e+3, 2.8438082e+2, -687515.1, -359045.25, -3429.6482, 0.004415458, 0.124697044, -359009.44, -205929.05, 0.0, 9.996081, 10.000427 
1.7049487e+3, 2.9438123e+2, -647883.56, -279119.94, -8000.2744, 0.0013368917, 0.11780676, -278946.47, -223867.7, 0.0, 9.995637, 10.000517 
1.7049272e+3, 3.0438337e+2, -579961.3, -28943.436, -4484.671, -0.110406786, 0.19746244, -28906.938, -28906.938, 0.0, 9.99494, 10.002237 
1.7049079e+3, 3.1438434e+2, -697132.1, -23901.45, 33265.813, -0.01965195, 0.07294953, -22261.707, -22261.707, 0.0, 9.993872, 10.002785 
1.7153068e+3, 1.2442145e+2, -1009516.1, -1657169.5, 98549.14, 0.04403139, 0.21774171, -994852.56, 725838.06, 0.053744264, 10.0064125, 9.997328 
1.715283e+3, 1.3441834e+2, -985729.3, -1591040.3, -113187.04, -0.00943181, 0.15932536, -965256.94, 657462.8, 0.034763284, 10.005726, 9.997432 
1.7152609e+3, 1.4441633e+2, -968418.56, -1541124.0, -16274.188, -0.000111044195, 0.22439739, -967956.5, 556782.0, 0.017393874, 10.005104, 9.997387 
1.7152406e+3, 1.5441355e+2, -922803.75, -1469639.6, -16535.754, 0.015157837, 0.2014175, -922304.2, 504462.0, 0.0057517965, 10.004689, 9.997404 
1.7152199e+3, 1.6441107e+2, -851915.06, -1302733.0, -41354.344, 0.012113823, 0.18269634, -848152.94, 480637.1, 0.00090684457, 10.004125, 9.99815 
1.7151995e+3, 1.7440912e+2, -860412.44, -1252391.6, -33219.695, 0.049295317, 0.1667699, -857617.06, 373191.22, 0.000025810483, 10.003375, 9.998184 
1.7151785e+3, 1.8440749e+2, -824901.1, -1122571.5, -45550.188, 0.057688616, 0.161585, -818086.94, 314736.1, 0.0, 10.002679, 9.998738 
1.7151566e+3, 1.9440624e+2, -813636.94, -1063469.3, -30037.844, 0.010436699, 0.15817612, -810076.2, 224757.08, 0.0, 10.002071, 9.998763 
1.7151353e+3, 2.0440471e+2, -832094.6, -1054016.1, -32366.785, 0.003094276, 0.14678492, -827470.3, 109377.22, 0.0, 10.001411, 9.998474 
1.7151144e+3, 2.144029e+2, -842641.6, -1011829.1, -51429.51, 0.052962817, 0.11871343, -828234.9, 10631.376, 0.0, 10.00068, 9.998444 
1.715093e+3, 2.244018e+2, -775624.25, -828113.6, -54025.473, 0.05405049, 0.12613349, -741806.2, -928.6574, 0.0, 10.000035, 9.999342 
1.7150712e+3, 2.3440166e+2, -750402.8, -759884.8, -41794.914, -0.008040686, 0.16997053, -713080.9, -70201.93, 0.0, 9.999512, 9.99939 
1.7150497e+3, 2.4440125e+2, -739074.44, -698165.25, -46904.668, -0.025558675, 0.19184119, -667449.2, -122565.95, 0.0, 9.998894, 9.999437 
1.7150287e+3, 2.5440055e+2, -747787.7, -652149.2, -62617.01, 0.013847697, 0.1761854, -621180.3, -174289.58, 0.0, 9.998164, 9.999432 
1.7150073e+3, 2.6440027e+2, -685220.9, -459116.7, -59862.574, 0.0073876674, 0.16039567, -444245.75, -95352.67, 0.0, 9.997438, 10.000434 
1.7149854e+3, 2.7440053e+2, -691000.1, -405242.94, -52349.055, -0.05642296, 0.13770427, -395954.78, -145066.45, 0.0, 9.9967, 10.000486 
1.7149647e+3, 2.84401e+2, -676473.3, -335790.4, -19984.904, -0.04725666, 0.13390659, -334622.1, -181738.78, 0.0, 9.9960785, 10.000588 
1.714945e+3, 2.9440174e+2, -636804.6, -257825.92, -21234.287, 0.04905103, 0.14519048, -256639.88, -201762.23, 0.0, 9.995643, 10.000661 
1.7149228e+3, 3.0440322e+2, -576234.56, -24184.844, -43224.176, -0.042602476, 0.15128651, -20820.99, -20820.99, 0.0, 9.994949, 10.002267 
1.7149013e+3, 3.1440482e+2, -724930.9, -81247.19, 18933.004, -0.04854876, 0.08576895, -80690.78, -80690.78, 0.0, 9.993868, 10.002395 
1.7253129e+3, 1.2444234e+2, -1041072.2, -1676053.9, 132481.52, 0.034970008, 0.22911274, -1014540.06, 705946.8, 0.057034016, 10.006225, 9.997281 
1.725289e+3, 1.3443927e+2, -948923.2, -1591287.0, -104864.484, 0.004030985, 0.19350386, -932237.7, 690278.3, 0.037064873, 10.006085, 9.997256 
1.7252658e+3, 1.4443702e+2, -897292.25, -1501077.0, -15882.879, -0.0345459, 0.23924391, -896874.7, 627662.7, 0.018705279, 10.005586, 9.997433 
1.7252454e+3, 1.5443411e+2, -911005.56, -1457425.9, 13409.025, 0.030305184, 0.19955562, -910676.75, 515888.56, 0.0062850486, 10.004746, 9.99746 
1.7252243e+3, 1.6443168e+2, -876735.44, -1308132.4, -1722.3796, 0.040217184, 0.17859885, -876728.56, 451859.97, 0.0010231993, 10.003929, 9.998207 
1.7252026e+3, 1.7442988e+2, -892135.56, -1261590.6, -3362.5178, 0.042936385, 0.1749807, -892105.0, 338500.38, 0.00003215152, 10.003132, 9.998237 
1.7251809e+3, 1.8442832e+2, -852886.9, -1134270.3, -23702.094, 0.04173822, 0.17269246, -850904.3, 281715.28, 0.0, 10.00248, 9.998753 
1.7251587e+3, 1.9442703e+2, -823247.9, -1066980.1, -36617.613, 0.0146427415, 0.16434929, -817865.44, 216764.72, 0.0, 10.002001, 9.998773 
1.7251368e+3, 2.0442553e+2, -821365.9, -1044977.94, -39843.77, 0.014466548, 0.15332812, -814478.56, 122165.57, 0.0, 10.00147, 9.9985075 
1.7251152e+3, 2.1442379e+2, -812084.94, -992949.44, -18867.166, 0.055545397, 0.13041817, -810137.75, 28524.246, 0.0, 10.000875, 9.998478 
1.7250931e+3, 2.2442268e+2, -750283.6, -821559.4, -7967.0137, 0.051383644, 0.1374146, -749403.94, -8730.49, 0.0, 10.000235, 9.9992895 
1.7250706e+3, 2.3442243e+2, -752884.44, -766928.6, -24339.658, -0.012772977, 0.17588153, -734574.2, -91898.125, 0.0, 9.999523, 9.999334 
1.7250484e+3, 2.4442202e+2, -757023.3, -704867.9, -36913.77, -0.029261684, 0.19876182, -685749.6, -141069.16, 0.0, 9.998765, 9.999452 
1.7250267e+3, 2.5442138e+2, -777633.06, -664856.94, -24490.23, 0.016019115, 0.18880974, -659768.25, -213080.86, 0.0, 9.997954, 9.999444 
1.7250046e+3, 2.6442105e+2, -705373.0, -474971.97, -7333.969, 0.008835843, 0.1704152, -474738.75, -126048.32, 0.0, 9.997329, 10.000377 
1.7249821e+3, 2.7442122e+2, -661705.25, -397831.56, -23860.047, -0.065561466, 0.14172457, -395691.44, -145004.17, 0.0, 9.996933, 10.000423 
1.7249605e+3, 2.844218e+2, -637163.44, -305016.97, -8768.62, -0.06012165, 0.15303677, -304785.66, -152105.16, 0.0, 9.9963, 10.000692 
1.7249402e+3, 2.944229e+2, -669172.4, -263385.25, -14134.408, 0.047190342, 0.1861087, -262893.53, -208222.64, 0.0, 9.99538, 10.000749 
1.7249179e+3, 3.044235e+2, -625068.4, -71560.805, -50883.754, -0.013975816, 0.11348918, -66921.95, -66921.95, 0.0, 9.994719, 10.002053 
1.7248957e+3, 3.1442583e+2, -670177.44, -72896.586, 17202.916, -0.038312513, 0.13947275, -72401.516, -72401.516, 0.0, 9.994324, 10.002233 
1.7353189e+3, 1.2446382e+2, -1074195.0, -1743104.0, 116811.71, -0.0010231344, 0.22935323, -1054382.9, 665893.1, 0.060471304, 10.006227, 9.996811 
1.7352954e+3, 1.3446064e+2, -988354.5, -1670452.8, -110419.75, 0.03800341, 0.23674743, -970924.9, 651384.06, 0.039479565, 10.006077, 9.996715 
1.7352714e+3, 1.444581e+2, -873213.94, -1446340.9, -45242.688, -0.037891004, 0.2632697, -869664.44, 654669.1, 0.02009339, 10.00557, 9.997826 
1.7352504e+3, 1.544553e+2, -879732.44, -1392182.3, -16543.5, 0.045251112, 0.18940203, -879198.94, 547158.9, 0.0068608364, 10.0047455, 9.997911 
1.7352283e+3, 1.6445307e+2, -878147.6, -1311993.9, -32013.875, 0.04596971, 0.16697443, -875798.06, 452579.9, 0.0011544848, 10.003931, 9.99818 
1.7352055e+3, 1.7445159e+2, -894874.0, -1269755.4, -32584.297, 0.008166438, 0.1974483, -892062.9, 338330.0, 0.00004011834, 10.00314, 9.998178 
1.735183e+3, 1.8444993e+2, -875942.4, -1183847.5, -41775.13, 0.010028568, 0.20545001, -870375.2, 262033.9, 0.0, 10.002485, 9.998411 
1.735161e+3, 1.944481e+2, -848075.4, -1119331.0, -52956.633, 0.040269364, 0.18146814, -838103.3, 196322.61, 0.0, 10.002003, 9.998414 
1.7351384e+3, 2.0444667e+2, -785448.56, -969967.9, -61567.44, 0.039631523, 0.17155185, -766792.06, 169647.0, 0.0, 10.001466, 9.999025 
1.7351155e+3, 2.1444571e+2, -771938.6, -910376.94, -40141.164, 0.009064964, 0.16714527, -761141.5, 77305.914, 0.0, 10.000875, 9.999045 
1.7350927e+3, 2.2444466e+2, -776242.8, -874810.3, -34051.27, -0.002477295, 0.16759849, -765623.5, -25165.95, 0.0, 10.000231, 9.998927 
1.7350703e+3, 2.344436e+2, -783495.56, -829542.25, -49496.863, 0.006947719, 0.16947553, -751929.4, -109460.32, 0.0, 9.999517, 9.998909 
1.7350475e+3, 2.4444291e+2, -732911.5, -654164.3, -66415.2, 0.0091246525, 0.17164773, -616328.7, -71852.7, 0.0, 9.99876, 9.999804 
1.7350246e+3, 2.5444266e+2, -749308.2, -606684.7, -53383.406, 0.0042118365, 0.15833278, -588916.94, -142439.39, 0.0, 9.997955, 9.999845 
1.7350018e+3, 2.644424e+2, -728524.4, -523570.2, -21956.92, -0.008443472, 0.14342774, -521244.3, -172764.67, 0.0, 9.99733, 10.000043 
1.7349793e+3, 2.744424e+2, -687329.2, -453178.28, -36972.496, -0.0341138, 0.13685906, -447479.03, -196998.92, 0.0, 9.996941, 10.000041 
1.7349571e+3, 2.844432e+2, -632782.4, -298846.16, -41777.508, -0.03866484, 0.18237747, -293698.88, -141226.19, 0.0, 9.996309, 10.000731 
1.7349352e+3, 2.9444456e+2, -667766.44, -261649.8, -46323.91, -0.00882628, 0.23878999, -256432.86, -201973.33, 0.0, 9.995382, 10.000761 
1.7349125e+3, 3.0444416e+2, -658809.7, -141439.88, -66469.836, -0.028974298, 0.088622324, -133036.56, -133036.56, 0.0, 9.994717, 10.0015745 
1.7348902e+3, 3.144469e+2, -662132.94, -58354.69, 26455.281, 0.0019347649, 0.2012644, -57197.74, -57197.74, 0.0, 9.994333, 10.002327 
1.745325e+3, 1.2448586e+2, -1033033.3, -1727355.3, 122373.31, -0.01594554, 0.23622559, -1012096.5, 707963.56, 0.06407644, 10.0065775, 9.99675 
1.7453018e+3, 1.3448264e+2, -1024023.2, -1693613.4, -61228.367, 0.07854254, 0.24462911, -1018470.44, 603623.56, 0.042014636, 10.005863, 9.996654 
1.7452766e+3, 1.4447989e+2, -923349.56, -1456817.3, 5127.185, -0.04509681, 0.24994695, -923300.3, 600820.25, 0.021558484, 10.005169, 9.997945 
1.7452548e+3, 1.5447734e+2, -895430.4, -1385315.3, 10277.069, 0.037368774, 0.18931365, -895214.9, 530926.94, 0.0074781775, 10.00458, 9.998038 
1.7452322e+3, 1.6447526e+2, -867489.06, -1311691.9, -15020.25, 0.039998624, 0.17738998, -866981.75, 461178.66, 0.0013008647, 10.004027, 9.998136 
1.7452088e+3, 1.7447379e+2, -844328.5, -1251509.8, -16654.93, 0.0048191696, 0.2142011, -843648.4, 386527.34, 0.0000499099, 10.003516, 9.998121 
1.7451857e+3, 1.84472e+2, -819927.7, -1160035.9, -14031.942, 0.011071503, 0.21531981, -819349.75, 312843.4, 0.0000000000000006446772, 10.002886, 9.998381 
1.745163e+3, 1.9446993e+2, -834984.94, -1116496.3, -2876.131, 0.047329616, 0.16752252, -834955.56, 199256.78, 0.0, 10.0021105, 9.99838 
1.74514e+3, 2.0446847e+2, -789087.9, -968490.4, -13595.734, 0.041553304, 0.15805168, -788063.4, 148162.11, 0.0, 10.001429, 9.999051 
1.7451163e+3, 2.1446785e+2, -772284.75, -907016.4, -32649.566, -0.008965533, 0.18569705, -764789.7, 73441.266, 0.0, 10.00086, 9.999074 
1.7450927e+3, 2.2446689e+2, -785233.1, -870308.9, -40445.61, -0.01649704, 0.18991457, -769074.1, -28833.89, 0.0, 10.0001335, 9.999003 
1.7450698e+3, 2.3446561e+2, -822901.5, -839705.1, -20970.793, 0.026437478, 0.15993832, -808712.06, -166458.61, 0.0, 9.999211, 9.998985 
1.7450464e+3, 2.4446484e+2, -764280.7, -668389.25, -21517.5, 0.032531694, 0.15138061, -663782.2, -119521.48, 0.0, 9.998544, 9.999809 
1.7450225e+3, 2.5446475e+2, -715795.3, -590119.0, -38807.777, -0.0042957696, 0.15338011, -579101.4, -132840.63, 0.0, 9.998186, 9.9998455 
1.7449991e+3, 2.6446447e+2, -693067.75, -520367.75, -15639.568, -0.017317371, 0.14484313, -518962.88, -170699.9, 0.0, 9.997636, 9.999916 
1.7449765e+3, 2.744643e+2, -710772.2, -479589.5, -13400.792, -0.007531367, 0.1340633, -478815.3, -228549.48, 0.0, 9.996847, 9.999903 
1.7449535e+3, 2.8446504e+2, -654875.44, -309263.75, -15884.565, -0.023098001, 0.18364398, -308535.22, -156276.17, 0.0, 9.99616, 10.000731 
1.7449301e+3, 2.9446653e+2, -645336.75, -256117.88, -26662.71, -0.052969683, 0.25302133, -254299.88, -200055.34, 0.0, 9.995562, 10.000711 
1.7449072e+3, 3.0446577e+2, -669615.44, -189784.27, -39092.035, -0.018875347, 0.088971555, -186620.3, -186620.3, 0.0, 9.99483, 10.001187 
1.7448846e+3, 3.1446838e+2, -689364.9, -28694.451, 71800.06, 0.011379134, 0.22416027, -20981.441, -20981.441, 0.0, 9.993963, 10.002709 
1.7553316e+3, 1.24508426e+2, -1019532.94, -1688834.6, 79178.12, -0.014389475, 0.24851525, -1010293.75, 709545.2, 0.06786483, 10.006559, 9.99703 
1.7553079e+3, 1.3450523e+2, -1000127.1, -1641164.0, -86304.25, 0.12094812, 0.2225613, -988711.1, 633160.06, 0.0446763, 10.005872, 9.997013 
1.7552817e+3, 1.4450239e+2, -932664.3, -1476815.6, -17850.033, -0.061465293, 0.20664988, -932079.4, 591819.06, 0.023101034, 10.005178, 9.997801 
1.7552592e+3, 1.5450017e+2, -907437.5, -1410980.6, -10929.615, 0.0067526307, 0.19668046, -907200.4, 518717.5, 0.008135981, 10.004584, 9.997859 
1.755236e+3, 1.6449818e+2, -872576.75, -1322219.0, -34054.754, 0.02145166, 0.2058964, -870012.1, 457924.3, 0.0014620237, 10.004025, 9.998066 
1.7552124e+3, 1.7449646e+2, -848696.94, -1260799.3, -34755.94, 0.027834794, 0.22635414, -845786.25, 384167.7, 0.000061555744, 10.003515, 9.998059 
1.7551889e+3, 1.8449454e+2, -802618.1, -1123513.0, -42319.36, 0.038079336, 0.20453715, -797130.94, 334840.97, 0.0000000010737394, 10.002881, 9.998634 
1.755165e+3, 1.944924e+2, -816223.75, -1078138.6, -30887.016, 0.03477553, 0.12370325, -812630.6, 221359.23, 0.0, 10.0021105, 9.998645 
1.7551412e+3, 2.0449089e+2, -821299.0, -1035306.0, -34793.438, 0.020062588, 0.115128085, -815784.4, 120219.66, 0.0, 10.001427, 9.998595 
1.755117e+3, 2.144902e+2, -807788.56, -980144.75, -52222.67, -0.0015674193, 0.18689613, -793200.25, 44812.74, 0.0, 10.000855, 9.998576 
1.7550932e+3, 2.2448935e+2, -750770.6, -797979.4, -73600.266, 0.0050353813, 0.20382863, -697082.3, 42939.516, 0.0, 10.000128, 9.999504 
1.7550692e+3, 2.3448834e+2, -783529.2, -759287.4, -54129.684, 0.04332177, 0.1462616, -715938.1, -73908.234, 0.0, 9.999214, 9.9995365 
1.755045e+3, 2.444877e+2, -788445.2, -719252.94, -35459.316, 0.03886918, 0.13732456, -704308.6, -160273.28, 0.0, 9.998545, 9.99946 
1.7550206e+3, 2.5448754e+2, -743506.4, -648512.7, -50523.78, -0.012772627, 0.17486398, -626665.44, -180627.98, 0.0, 9.998188, 9.999444 
1.7549968e+3, 2.644872e+2, -687232.0, -509660.4, -43543.68, -0.02128994, 0.1752507, -499557.53, -151516.48, 0.0, 9.99764, 9.999989 
1.7549735e+3, 2.744868e+2, -703429.9, -465596.56, -40963.688, 0.01245052, 0.13280407, -458738.84, -208693.78, 0.0, 9.99685, 9.999998 
1.7549497e+3, 2.8448734e+2, -658311.44, -316931.03, -37757.563, -0.015334466, 0.15563177, -312804.8, -160764.45, 0.0, 9.9961605, 10.000679 
1.7549253e+3, 2.9448873e+2, -651572.5, -272754.9, -48160.813, -0.090574674, 0.22566965, -266727.88, -212700.86, 0.0, 9.995576, 10.00059 
1.7549023e+3, 3.044883e+2, -687595.94, -230407.56, -70736.695, 0.010330621, 0.11956364, -219713.25, -219713.25, 0.0, 9.994843, 10.000904 
1.7548783e+3, 3.144904e+2, -655698.6, 43515.797, 41073.023, -0.0117183095, 0.2231512, 45920.227, 45920.227, 0.0, 9.993952, 10.003211 
1.7653382e+3, 1.2453144e+2, -1059730.4, -1701539.3, 103443.33, -0.007551495, 0.21420789, -1043469.94, 676142.56, 0.071845256, 10.006262, 9.99708 
1.765314e+3, 1.3452864e+2, -959352.5, -1602823.3, -54512.93, 0.13397482, 0.21362717, -954767.0, 666873.7, 0.04746914, 10.006108, 9.997162 
1.7652866e+3, 1.4452586e+2, -878279.2, -1462072.8, -1523.153, -0.09353957, 0.20098439, -878275.2, 645392.5, 0.024720848, 10.005624, 9.99769 
1.7652638e+3, 1.5452364e+2, -882796.4, -1412868.6, 8716.062, 0.010354062, 0.20491448, -882653.1, 543034.75, 0.008832291, 10.004822, 9.99773 
1.7652401e+3, 1.6452153e+2, -867951.8, -1320123.6, -6106.148, 0.04142905, 0.20978554, -867869.4, 459838.4, 0.0016371566, 10.004063, 9.998059 
1.765216e+3, 1.7451952e+2, -872149.25, -1272098.1, -4157.6606, 0.03717225, 0.20214717, -872106.06, 357621.6, 0.00007487245, 10.003357, 9.998056 
1.7651916e+3, 1.8451767e+2, -824735.3, -1120708.6, -17804.506, 0.037396543, 0.18217185, -823668.1, 308076.53, 0.000000009428086, 10.002673, 9.998753 
1.765167e+3, 1.9451605e+2, -821119.7, -1066628.9, -18358.799, 0.024701532, 0.14105394, -819754.44, 214003.22, 0.0, 10.002019, 9.998767 
1.7651424e+3, 2.0451458e+2, -837773.4, -1048753.1, -10485.489, 0.012868335, 0.13208163, -837253.56, 98517.914, 0.0, 10.001339, 9.998545 
1.765118e+3, 2.1451333e+2, -845434.25, -1004639.4, 2663.6628, 0.00852886, 0.15486614, -845389.7, -7604.064, 0.0, 10.0006275, 9.998517 
1.7650932e+3, 2.2451244e+2, -759283.94, -799358.56, -18405.277, 0.015965415, 0.16905372, -752113.75, -12318.582, 0.0, 10.00006, 9.999526 
1.7650685e+3, 2.3451196e+2, -716876.8, -724344.9, -39119.313, 0.03453196, 0.16374925, -681313.75, -39515.2, 0.0, 9.999661, 9.999559 
1.7650437e+3, 2.445114e+2, -714964.75, -696379.06, -28407.908, 0.026698004, 0.16692981, -675782.7, -131979.11, 0.0, 9.9991045, 9.999347 
1.7650189e+3, 2.545108e+2, -726895.44, -653707.9, -23621.916, -0.008156046, 0.17218694, -646745.94, -200936.0, 0.0, 9.998361, 9.999325 
1.7649946e+3, 2.6451036e+2, -687704.06, -501150.1, -13828.227, -0.007282417, 0.16703506, -500130.66, -152316.47, 0.0, 9.997601, 10.000065 
1.7649704e+3, 2.7451023e+2, -701266.1, -454535.7, -13491.579, 0.025198715, 0.14209382, -453800.16, -203984.86, 0.0, 9.996825, 10.000086 
1.7649458e+3, 2.8451064e+2, -663293.06, -318247.0, -1405.2148, -0.017262528, 0.149195, -318241.28, -166429.89, 0.0, 9.996123, 10.000687 
1.7649205e+3, 2.945117e+2, -666797.3, -283404.63, -8149.45, -0.11527269, 0.18524899, -283231.47, -229430.17, 0.0, 9.995487, 10.000559 
1.7648976e+3, 3.0451185e+2, -699300.1, -254635.03, -25342.777, 0.052170884, 0.14646003, -253195.34, -253195.34, 0.0, 9.9948435, 10.000735 
1.7648719e+3, 3.145128e+2, -617262.56, 74914.76, 69950.414, -0.043064035, 0.15004991, 81913.086, 81913.086, 0.0, 9.9941635, 10.003323 
1.7753445e+3, 1.24554984e+2, -1074263.6, -1727761.8, 67663.414, 0.001037651, 0.14632195, -1067331.3, 652048.6, 0.07603394, 10.006263, 9.996895 
1.7753199e+3, 1.3455279e+2, -966696.6, -1613177.3, -59419.234, 0.116591714, 0.21499945, -961280.7, 660122.44, 0.050401524, 10.0061035, 9.997091 
1.7752917e+3, 1.4455019e+2, -885657.2, -1473444.4, -30210.35, -0.14306638, 0.2275684, -884108.56, 639320.3, 0.026418945, 10.005613, 9.997617 
1.7752689e+3, 1.5454774e+2, -887894.4, -1424583.1, -19370.875, 0.04219686, 0.2147019, -887196.1, 538255.6, 0.00956498, 10.0048275, 9.997648 
1.7752448e+3, 1.6454533e+2, -864269.2, -1314415.6, -32028.904, 0.09206155, 0.192263, -862001.7, 465472.7, 0.0018251968, 10.00407, 9.998096 
1.7752193e+3, 1.7454296e+2, -868934.75, -1266337.1, -29213.09, 0.031827126, 0.14410047, -866798.8, 362698.2, 0.000089597095, 10.00336, 9.9980955 
1.775194e+3, 1.8454136e+2, -826535.3, -1124586.9, -41657.766, 0.009344654, 0.1497866, -820822.44, 310689.38, 0.000000028818846, 10.002671, 9.998729 
1.7751688e+3, 1.945408e+2, -822650.5, -1070431.0, -41464.684, 0.015062486, 0.21564883, -815895.75, 217620.61, 0.0, 10.002019, 9.998742 
1.7751437e+3, 2.0453943e+2, -814544.75, -1000824.9, -36437.88, 0.016190063, 0.20396516, -807670.9, 127857.79, 0.0, 10.001338, 9.998875 
1.7751186e+3, 2.1453719e+2, -820659.44, -954347.3, -22613.852, 0.018511467, 0.08982864, -816937.8, 20611.877, 0.0, 10.000629, 9.998862 
1.7750932e+3, 2.2453609e+2, -790827.6, -865392.5, -33343.813, 0.014390323, 0.08879946, -778092.1, -38531.215, 0.0, 10.00006, 9.999074 
1.7750677e+3, 2.3453641e+2, -751613.06, -796740.56, -52363.168, -0.0006468575, 0.2126622, -717159.06, -75599.086, 0.0, 9.9996605, 9.999065 
1.7750424e+3, 2.4453588e+2, -706792.06, -679472.3, -54664.41, -0.0056330753, 0.23801613, -636786.9, -93220.98, 0.0, 9.999103, 9.999465 
1.7750174e+3, 2.5453442e+2, -716366.0, -633046.1, -49844.383, 0.007159983, 0.14282663, -609744.44, -164165.45, 0.0, 9.9983635, 9.999467 
1.7749923e+3, 2.645339e+2, -682364.4, -491222.8, -42230.99, 0.021956, 0.11937566, -482308.06, -134724.88, 0.0, 9.997603, 10.000133 
1.7749673e+3, 2.7453455e+2, -695291.25, -444031.0, -40715.27, 0.024743237, 0.16413665, -437598.03, -188021.1, 0.0, 9.996831, 10.000155 
1.7749417e+3, 2.8453493e+2, -657074.9, -307385.53, -24692.932, -0.034223184, 0.16505535, -305650.47, -154077.84, 0.0, 9.99613, 10.000759 
1.7749159e+3, 2.9453537e+2, -661526.44, -274439.44, -30483.73, -0.1262721, 0.12944187, -272053.5, -218485.44, 0.0, 9.995494, 10.000619 
1.774893e+3, 3.0453628e+2, -700711.0, -258237.52, -47632.08, 0.105802014, 0.16606896, -253168.03, -253168.03, 0.0, 9.994845, 10.0007105 
1.7748658e+3, 3.1453672e+2, -643203.3, 18941.152, 8501.385, -0.07196029, 0.12096955, 19050.285, 19050.285, 0.0, 9.994172, 10.002934 
1.7853506e+3, 1.2458015e+2, -1035461.56, -1713739.0, 77635.016, -0.021439902, 0.15919784, -1026689.0, 692444.25, 0.08045473, 10.006612, 9.996823 
1.7853262e+3, 1.3457772e+2, -977171.2, -1613949.0, -11294.553, 0.13398866, 0.20292948, -976970.9, 644187.25, 0.053484246, 10.006032, 9.997118 
1.7852972e+3, 1.4457507e+2, -910584.0, -1488027.9, 15302.422, -0.14402048, 0.211219, -910178.75, 613005.5, 0.028198881, 10.005463, 9.997584 
1.7852738e+3, 1.5457268e+2, -869319.4, -1419981.8, 27600.596, 0.03821039, 0.20930666, -867939.44, 557267.44, 0.010334347, 10.004983, 9.997603 
1.7852488e+3, 1.645703e+2, -828569.2, -1299086.4, 8999.587, 0.08632399, 0.19225289, -828397.1, 498832.4, 0.0020258033, 10.004327, 9.998077 
1.7852226e+3, 1.745679e+2, -856232.6, -1262176.9, 6423.575, 0.023066336, 0.14264347, -856131.0, 373121.38, 0.000105598076, 10.003458, 9.9980755 
1.7851965e+3, 1.8456624e+2, -829345.25, -1131892.9, -3761.377, 0.0034408092, 0.14678434, -829298.5, 301969.44, 0.0000000562377, 10.002682, 9.998672 
1.7851709e+3, 1.9456558e+2, -826123.2, -1078658.4, -7248.819, 0.01849827, 0.21168639, -825915.3, 207358.61, 0.0, 10.002027, 9.998679 
1.785145e+3, 2.0456432e+2, -791614.5, -966543.3, -7624.919, 0.02098374, 0.20232645, -791282.75, 144002.44, 0.0, 10.001397, 9.999081 
1.7851193e+3, 2.1456233e+2, -781091.6, -911043.2, -4578.792, 0.014822879, 0.09482533, -780930.5, 56371.895, 0.0, 10.000798, 9.999077 
1.7850934e+3, 2.2456124e+2, -787734.2, -884315.06, -5929.3306, 0.009390665, 0.092924215, -787371.5, -48058.2, 0.0, 10.00017, 9.998891 
1.7850673e+3, 2.3456128e+2, -788164.75, -836218.4, -4581.6094, 0.0010283741, 0.20655185, -787731.8, -146415.61, 0.0, 9.999506, 9.998867 
1.7850414e+3, 2.4456063e+2, -733499.6, -680271.4, -557.0546, -0.0044774204, 0.2263925, -680265.56, -136941.97, 0.0, 9.998869, 9.999571 
1.7850155e+3, 2.5455928e+2, -724435.25, -624197.7, 1025.2522, 0.0009631986, 0.13182203, -624187.2, -178852.03, 0.0, 9.998254, 9.99958 
1.7849898e+3, 2.6455897e+2, -686262.8, -495838.1, 2726.6475, 0.018915284, 0.1203139, -495799.06, -148461.36, 0.0, 9.997588, 10.000108 
1.784964e+3, 2.7455977e+2, -690882.44, -445326.6, -3973.2886, 0.034882896, 0.1859284, -445262.3, -195932.25, 0.0, 9.996876, 10.000125 
1.7849378e+3, 2.8456e+2, -660140.25, -312947.88, 5363.6465, -0.026433969, 0.17578515, -312865.06, -161537.81, 0.0, 9.996127, 10.000722 
1.7849113e+3, 2.9456005e+2, -684323.06, -285549.22, -10694.227, -0.1331891, 0.10674713, -285262.63, -231936.63, 0.0, 9.995338, 10.000617 
1.7848879e+3, 3.0456135e+2, -693796.1, -236020.98, -11046.896, 0.124980114, 0.17108604, -235754.56, -235754.56, 0.0, 9.994812, 10.000879 
1.78486e+3, 3.145616e+2, -629670.75, -19875.588, 6303.4097, -0.07251833, 0.09873506, -19810.438, -19810.438, 0.0, 9.994463, 10.002526 
1.7953567e+3, 1.2460679e+2, -1040256.0, -1712274.4, 22734.973, -0.07891165, 0.24113397, -1039487.75, 679386.0, 0.085124984, 10.00659, 9.996844 
1.7953326e+3, 1.346034e+2, -971482.2, -1599301.8, -30697.623, 0.18060914, 0.17830618, -969984.8, 650921.3, 0.056726657, 10.006039, 9.997223 
1.7953031e+3, 1.446005e+2, -912152.1, -1490689.0, -3086.7893, -0.1046976, 0.15725647, -912135.7, 610798.2, 0.03006698, 10.005468, 9.997564 
1.7952783e+3, 1.5459841e+2, -873019.0, -1425104.4, 11295.054, -0.0020316907, 0.19064057, -872788.0, 552165.9, 0.011144683, 10.004973, 9.997573 
1.7952526e+3, 1.6459633e+2, -835872.2, -1311939.4, -22384.395, 0.026221918, 0.20882621, -834822.0, 492152.16, 0.0022402888, 10.004315, 9.997995 
1.7952259e+3, 1.745942e+2, -861100.7, -1273789.4, -24741.684, 0.00972558, 0.19303648, -859622.7, 369372.25, 0.00012299663, 10.003463, 9.997994 
1.7951994e+3, 1.8459217e+2, -835302.94, -1146556.4, -27919.244, 0.014777455, 0.1700644, -832818.44, 298195.56, 0.000000085167756, 10.002688, 9.998569 
1.795173e+3, 1.945904e+2, -832773.4, -1094148.8, -29901.611, 0.03162091, 0.13394138, -829396.25, 203634.19, 0.0, 10.002031, 9.998572 
1.7951465e+3, 2.045892e+2, -786078.8, -955583.44, -29065.137, 0.025224267, 0.13352145, -781233.5, 153807.61, 0.0, 10.001397, 9.999157 
1.79512e+3, 2.1458872e+2, -775071.6, -899208.8, -25128.816, -0.0028909985, 0.16664127, -770177.75, 66866.75, 0.0, 10.000798, 9.99916 
1.7950934e+3, 2.2458781e+2, -782777.8, -874292.5, -29950.992, -0.0005638013, 0.17510739, -773847.0, -34793.625, 0.0, 10.000169, 9.9989605 
1.7950672e+3, 2.3458648e+2, -783031.8, -826431.6, -27902.354, 0.035335526, 0.14484374, -769384.5, -128316.445, 0.0, 9.999507, 9.998936 
1.7950405e+3, 2.445856e+2, -726998.7, -666957.4, -22851.787, 0.02618205, 0.13470043, -659249.5, -116172.34, 0.0, 9.998868, 9.999664 
1.7950134e+3, 2.545854e+2, -717485.4, -610480.94, -20397.676, -0.029513678, 0.14223419, -606724.5, -161645.8, 0.0, 9.998254, 9.999675 
1.794987e+3, 2.645854e+2, -693870.94, -513307.47, -22659.03, -0.01853709, 0.169223, -510507.38, -163429.11, 0.0, 9.997593, 9.999988 
1.7949612e+3, 2.7458572e+2, -699297.1, -465910.28, -28426.813, 0.054111183, 0.20148933, -462497.75, -213422.05, 0.0, 9.996887, 9.99998 
1.7949343e+3, 2.845857e+2, -670301.9, -335772.8, -23718.691, 0.004888695, 0.17933245, -334099.5, -183023.52, 0.0, 9.996134, 10.000563 
1.7949066e+3, 2.945858e+2, -689953.3, -297475.25, -38227.613, -0.14452344, 0.12536831, -293786.53, -240711.6, 0.0, 9.9953375, 10.000537 
1.7948824e+3, 3.045869e+2, -667610.75, -182773.86, -20786.355, 0.097145654, 0.15438338, -181884.33, -181884.33, 0.0, 9.994814, 10.001245 
1.7948551e+3, 3.145879e+2, -640911.44, -49905.023, -57359.938, -0.020713067, 0.12554309, -44389.445, -44389.445, 0.0, 9.994488, 10.002309 
1.8053631e+3, 1.246336e+2, -1060078.4, -1716692.9, 31004.34, -0.08239442, 0.25763032, -1058617.6, 659993.8, 0.09005145, 10.0064535, 9.996876 
1.8053389e+3, 1.346301e+2, -932667.0, -1569971.1, 11734.123, 0.18742283, 0.1753376, -932451.0, 688193.0, 0.060138028, 10.006298, 9.997311 
1.8053088e+3, 1.4462723e+2, -876101.7, -1474914.9, 26232.066, -0.09610138, 0.15388943, -874954.75, 647716.44, 0.032032266, 10.005745, 9.997541 
1.8052831e+3, 1.546251e+2, -906140.6, -1444739.6, 39544.625, -0.0062400727, 0.1857986, -903252.7, 521439.38, 0.012002506, 10.0047655, 9.997538 
1.8052566e+3, 1.64623e+2, -879601.3, -1335339.0, 12344.807, 0.023098888, 0.20622538, -879267.2, 447445.5, 0.0024711427, 10.00403, 9.99797 
1.8052293e+3, 1.746209e+2, -844640.1, -1268438.9, 12279.854, 0.018133217, 0.1981168, -844284.6, 384448.44, 0.00014217783, 10.003591, 9.997968 
1.8052022e+3, 1.8461886e+2, -791040.7, -1121192.0, 12741.382, 0.023943039, 0.1729836, -790549.7, 340202.6, 0.00000010953618, 10.002978, 9.998602 
1.8051751e+3, 1.9461699e+2, -810220.3, -1079075.5, 19504.904, 0.029279115, 0.12325895, -808812.6, 223956.61, 0.0, 10.0021715, 9.998607 
1.8051478e+3, 2.0461576e+2, -789568.44, -973151.1, 22672.828, 0.018760355, 0.12560359, -786809.8, 147970.63, 0.0, 10.001445, 9.999012 
1.8051206e+3, 2.1461535e+2, -784329.25, -919960.4, 8089.005, -0.0064505916, 0.18129103, -783848.56, 52935.637, 0.0, 10.000809, 9.99901 
1.8050934e+3, 2.246144e+2, -772176.44, -850886.2, -3065.245, -0.00200805, 0.18576261, -772057.25, -33263.81, 0.0, 10.000165, 9.999123 
1.8050666e+3, 2.3461287e+2, -770607.75, -801173.44, 5808.5806, 0.035854746, 0.12055327, -769541.2, -128732.63, 0.0, 9.99951, 9.999107 
1.8050395e+3, 2.4461208e+2, -728795.1, -665853.3, 13318.176, 0.0308569, 0.10840822, -663151.25, -120334.84, 0.0, 9.998846, 9.999682 
1.8050118e+3, 2.546122e+2, -728783.7, -614047.6, 8269.341, -0.020892967, 0.15216593, -613454.7, -168639.72, 0.0, 9.99817, 9.99969 
1.8049847e+3, 2.646123e+2, -696627.6, -514979.38, 8427.629, -0.019892083, 0.18140495, -514589.22, -167774.56, 0.0, 9.997577, 9.999983 
1.8049578e+3, 2.7461222e+2, -675482.56, -455961.06, 10950.758, 0.033617813, 0.1769446, -455416.16, -206600.17, 0.0, 9.997057, 9.999967 
1.8049304e+3, 2.8461227e+2, -643331.6, -322038.2, 18955.016, 0.0023642816, 0.16348325, -320923.78, -170108.16, 0.0, 9.996316, 10.000569 
1.8049023e+3, 2.9461288e+2, -680390.6, -286083.6, 16516.428, -0.098631024, 0.1648747, -285392.97, -232583.78, 0.0, 9.995376, 10.000596 
1.804877e+3, 3.046136e+2, -662947.9, -166699.78, 51200.54, 0.081022635, 0.14262614, -161472.22, -161472.22, 0.0, 9.994791, 10.001365 
1.8048498e+3, 3.1461528e+2, -642699.0, -53726.785, -48287.703, 0.0037355416, 0.17421664, -49794.11, -49794.11, 0.0, 9.994491, 10.002282 
1.8153699e+3, 1.2466068e+2, -1060482.8, -1711984.8, -12434.632, -0.050208326, 0.21998736, -1060245.6, 658100.2, 0.09523296, 10.006459, 9.99691 
1.8153447e+3, 1.3465776e+2, -933038.9, -1562894.1, 8048.4893, 0.15188995, 0.1915171, -932936.06, 687436.56, 0.063727625, 10.006284, 9.997372 
1.8153141e+3, 1.4465517e+2, -882388.6, -1481844.6, -8918.315, -0.120338954, 0.19507074, -882256.0, 640141.25, 0.034105252, 10.005728, 9.997502 
1.815288e+3, 1.5465266e+2, -908961.4, -1451749.4, 4329.0967, 0.02076253, 0.193188, -908926.9, 515495.16, 0.012914611, 10.004772, 9.997487 
1.8152611e+3, 1.6465025e+2, -876701.3, -1333021.5, -4392.24, 0.068084255, 0.18634911, -876659.06, 449786.44, 0.0027211884, 10.004044, 9.997981 
1.8152331e+3, 1.7464802e+2, -843154.0, -1266274.3, -2462.142, 0.043379925, 0.16193154, -843139.7, 385327.53, 0.00016371372, 10.003592, 9.997984 
1.8152052e+3, 1.8464626e+2, -781473.4, -1100533.6, -16338.648, 0.027784748, 0.15850376, -780638.9, 349844.3, 0.00000012908751, 10.002973, 9.998748 
1.815177e+3, 1.946452e+2, -798466.56, -1056621.8, -9604.409, 0.011341828, 0.17429312, -798109.7, 234381.95, 0.0, 10.002177, 9.998759 
1.815149e+3, 2.0464383e+2, -814454.1, -1026685.2, -1038.8264, 0.000166342, 0.17263119, -814449.0, 120055.51, 0.0, 10.001451, 9.998643 
1.8151213e+3, 2.1464215e+2, -811356.4, -976978.9, -14143.341, 0.00019957284, 0.14098202, -810157.25, 26364.693, 0.0, 10.00081, 9.99862 
1.8150936e+3, 2.2464097e+2, -754850.3, -814534.1, -26789.395, 0.0013530389, 0.12991448, -744589.7, -6056.012, 0.0, 10.000161, 9.999375 
1.8150657e+3, 2.3464039e+2, -750485.06, -760780.7, -16954.117, 0.002518515, 0.13320132, -737914.44, -97376.16, 0.0, 9.999513, 9.999384 
1.815038e+3, 2.4463993e+2, -733044.94, -675999.75, -11121.36, 0.009302937, 0.14367707, -673908.25, -131365.81, 0.0, 9.998849, 9.999613 
1.8150103e+3, 2.5463971e+2, -734116.44, -626787.44, -15293.487, 0.023444068, 0.15892115, -624650.75, -180105.97, 0.0, 9.998175, 9.999602 
1.8149824e+3, 2.6463947e+2, -688146.0, -498105.75, -10422.071, 0.01152431, 0.15590037, -497535.9, -150988.25, 0.0, 9.997579, 10.000099 
1.8149543e+3, 2.7463916e+2, -666506.7, -437645.66, -7273.507, -0.032713983, 0.11492673, -437414.75, -188863.56, 0.0, 9.997056, 10.000093 
1.8149263e+3, 2.8463966e+2, -629377.06, -296011.63, -14560.651, -0.038707335, 0.12951654, -295376.84, -144830.39, 0.0, 9.996324, 10.000747 
1.8148987e+3, 2.9464135e+2, -662166.2, -255395.47, -14550.651, 0.007041158, 0.22163962, -254875.64, -202346.28, 0.0, 9.995401, 10.000796 
1.8148719e+3, 3.046414e+2, -674429.2, -193175.81, 40108.418, 0.075237274, 0.13186459, -189856.02, -189856.02, 0.0, 9.994803, 10.001176 
1.8148436e+3, 3.146423e+2, -623768.7, -13665.51, -76026.22, -0.052618667, 0.10967363, -4334.4365, -4334.4365, 0.0, 9.994484, 10.0025625 
1.8253769e+3, 1.24688596e+2, -1014836.6, -1686440.0, -11235.972, -0.0076131993, 0.19002841, -1014648.7, 703422.6, 0.10065937, 10.006831, 9.996926 
1.8253507e+3, 1.34686e+2, -966221.0, -1574216.3, 39870.293, 0.13154322, 0.18889028, -963617.56, 656478.1, 0.06749747, 10.006046, 9.997403 
1.8253197e+3, 1.4468354e+2, -926968.94, -1505320.6, 17450.002, -0.12339113, 0.2071164, -926442.94, 595676.2, 0.036292758, 10.005435, 9.997476 
1.825293e+3, 1.5468079e+2, -870665.06, -1435910.3, 31529.377, 0.021322213, 0.1852245, -868911.8, 555234.4, 0.01388616, 10.005059, 9.997456 
1.8252653e+3, 1.6467835e+2, -815636.4, -1292677.1, 25450.521, 0.07077395, 0.17177124, -814282.44, 511887.4, 0.0029929073, 10.004422, 9.998075 
1.8252367e+3, 1.7467628e+2, -852428.8, -1259688.1, 31380.51, 0.042536944, 0.15781422, -850025.06, 378164.16, 0.0001881914, 10.003484, 9.998079 
1.825208e+3, 1.8467456e+2, -818911.3, -1134506.1, 14363.7295, 0.025432507, 0.15875313, -818258.94, 311946.13, 0.00000015151502, 10.002788, 9.998602 
1.8251792e+3, 1.9467333e+2, -781819.3, -1065572.3, -1856.2423, 0.009464782, 0.1730145, -781807.1, 250408.7, 0.0, 10.002368, 9.998605 
1.8251505e+3, 2.0467186e+2, -780392.25, -1013623.6, 486.38834, -0.00031640066, 0.17130442, -780391.25, 153838.81, 0.0, 10.0017, 9.9986105 
1.8251222e+3, 2.1467017e+2, -821904.0, -984685.9, 11851.2705, 0.001640574, 0.14110592, -821045.7, 15202.041, 0.0, 10.0007515, 9.998594 
1.8250938e+3, 2.2466901e+2, -770285.5, -822250.9, 14373.127, 0.0017012542, 0.13458082, -766575.0, -28315.682, 0.0, 10.000057, 9.999372 
1.8250653e+3, 2.3466852e+2, -731130.6, -750670.1, 2633.209, -0.0017051452, 0.14673935, -730782.0, -90518.836, 0.0, 9.999646, 9.999388 
1.8250369e+3, 2.4466808e+2, -702000.94, -650941.56, -5017.072, 0.0058960924, 0.15529811, -650453.25, -108186.42, 0.0, 9.9990225, 9.9997 
1.8250084e+3, 2.546678e+2, -732312.56, -616240.06, 2965.2322, 0.026539005, 0.15427151, -616164.3, -171894.92, 0.0, 9.998146, 9.999687 
1.82498e+3, 2.646675e+2, -718007.8, -507039.72, 18538.713, 0.012269706, 0.14389572, -505423.03, -159150.84, 0.0, 9.997351, 10.000147 
1.824951e+3, 2.7466732e+2, -724464.2, -460357.63, 13819.704, -0.040207006, 0.10911604, -459636.47, -211361.55, 0.0, 9.996639, 10.000137 
1.8249226e+3, 2.8466794e+2, -649440.1, -291608.94, 1319.3007, -0.029107388, 0.12793523, -291604.1, -141335.02, 0.0, 9.996127, 10.000871 
1.8248947e+3, 2.946697e+2, -596137.56, -207930.27, -3992.8433, 0.04970167, 0.21232477, -207889.2, -155637.89, 0.0, 9.995789, 10.000936 
1.8248661e+3, 3.0466977e+2, -648047.7, -191275.56, 50305.14, 0.023980113, 0.12347278, -185800.98, -185800.98, 0.0, 9.995033, 10.001077 
1.8248384e+3, 3.1467077e+2, -662471.2, 7661.7705, -47105.09, -0.0029457477, 0.122142404, 10956.688, 10956.688, 0.0, 9.994044, 10.002921 
1.835384e+3, 1.2471731e+2, -1023722.6, -1690731.1, -66349.266, 0.022690149, 0.16615196, -1017186.7, 700602.1, 0.106312625, 10.0068035, 9.996909 
1.8353565e+3, 1.3471474e+2, -968364.0, -1575886.5, 13618.362, 0.12306213, 0.17137513, -968058.9, 651754.44, 0.07144116, 10.006058, 9.997387 
1.8353254e+3, 1.4471233e+2, -926790.44, -1507372.0, 3282.5535, -0.110160075, 0.19529483, -926771.9, 595064.94, 0.038596805, 10.005456, 9.997453 
1.8352978e+3, 1.5470946e+2, -872523.56, -1438739.5, 19468.852, -0.00620512, 0.16293842, -871854.94, 552010.06, 0.014920668, 10.005056, 9.997438 
1.8352693e+3, 1.647072e+2, -806970.0, -1272195.8, -8592.928, 0.030689206, 0.16144805, -806811.4, 519075.06, 0.003288471, 10.00441, 9.998222 
1.8352398e+3, 1.7470564e+2, -840788.2, -1237573.5, -3054.7227, 0.01627043, 0.18221258, -840764.7, 387135.47, 0.0002162072, 10.00349, 9.998229 
1.8352106e+3, 1.847037e+2, -847189.75, -1196162.8, -1498.4335, 0.014802137, 0.17209654, -847183.3, 282735.44, 0.00000018976193, 10.002797, 9.998176 
1.8351817e+3, 1.9470137e+2, -812786.3, -1130922.5, -15589.151, 0.02032238, 0.123139545, -812024.25, 219917.56, 0.0, 10.002369, 9.9981575 
1.8351524e+3, 2.0469984e+2, -761068.6, -973223.7, -33218.31, 0.013685483, 0.12606302, -755989.06, 177967.86, 0.0, 10.001698, 9.998892 
1.8351229e+3, 2.1469928e+2, -799136.06, -939661.4, -21895.459, -0.003311113, 0.17830837, -795803.5, 40158.992, 0.0, 10.000758, 9.998901 
1.8350938e+3, 2.2469838e+2, -788018.9, -860584.1, -830.16595, -0.0023715508, 0.19414836, -788009.4, -50037.78, 0.0, 10.000062, 9.999107 
1.835065e+3, 2.3469716e+2, -750875.75, -792244.2, -10889.17, 0.019082129, 0.16063096, -748184.5, -108200.71, 0.0, 9.999646, 9.999104 
1.835036e+3, 2.4469644e+2, -685724.8, -616242.2, -36460.418, 0.017020313, 0.14452823, -600621.6, -58631.457, 0.0, 9.999017, 9.999942 
1.8350062e+3, 2.5469634e+2, -713293.3, -577346.44, -28061.69, -0.013966248, 0.13904528, -571781.8, -127792.46, 0.0, 9.998147, 9.999955 
1.834977e+3, 2.646964e+2, -720262.9, -513685.4, -7421.8325, -0.019060384, 0.14546168, -513419.1, -167430.17, 0.0, 9.997355, 10.000101 
1.834948e+3, 2.7469662e+2, -727836.06, -469986.22, -10773.781, 0.010115271, 0.15922418, -469536.84, -221548.77, 0.0, 9.996646, 10.00007 
1.8349193e+3, 2.84697e+2, -643381.25, -281362.44, -11055.698, 0.02871582, 0.15578648, -281025.13, -131040.46, 0.0, 9.996136, 10.000937 
1.83489e+3, 2.9469773e+2, -589683.9, -197196.47, -17251.314, 0.017866632, 0.13132843, -196439.67, -144463.14, 0.0, 9.995799, 10.001005 
1.8348601e+3, 3.046987e+2, -648512.0, -193920.38, 9888.289, -0.07559049, 0.12982032, -193705.39, -193705.39, 0.0, 9.995038, 10.001058 
1.8348332e+3, 3.1470034e+2, -648623.56, 30412.748, -39194.625, 0.0658481, 0.19327947, 32667.613, 32667.613, 0.0, 9.994062, 10.003073 
1.8453906e+3, 1.2474713e+2, -1051384.1, -1719933.6, -37781.996, 0.021726158, 0.15114221, -1049255.6, 668240.25, 0.11217451, 10.00671, 9.996734 
1.8453625e+3, 1.3474451e+2, -912646.4, -1563350.6, 55788.36, 0.08929864, 0.16767137, -907898.0, 711623.56, 0.07555407, 10.006569, 9.997232 
1.8453313e+3, 1.4474213e+2, -854153.0, -1473180.5, 32259.012, -0.082718074, 0.20410807, -852476.44, 669068.44, 0.041020792, 10.005997, 9.997436 
1.8453027e+3, 1.5473914e+2, -894285.94, -1451193.0, 46209.992, -0.00054338435, 0.1616245, -890477.6, 533096.5, 0.01602261, 10.00492, 9.997418 
1.8452734e+3, 1.6473679e+2, -850063.5, -1297904.6, 14604.001, 0.024643851, 0.15493953, -849587.75, 476008.56, 0.0036104703, 10.004138, 9.998175 
1.8452433e+3, 1.747352e+2, -815143.75, -1230454.4, 5663.3774, 0.0033003513, 0.17726745, -815066.56, 412543.7, 0.00024856807, 10.003692, 9.998179 
1.8452133e+3, 1.8473323e+2, -811824.6, -1179578.9, 15898.65, 0.0065844827, 0.16956714, -811138.56, 318490.44, 0.00000025167606, 10.003045, 9.998168 
1.845184e+3, 1.9473092e+2, -840894.56, -1144763.1, 31260.504, 0.03096297, 0.12321841, -837712.0, 193940.2, 0.0, 10.002181, 9.998151 
1.845154e+3, 2.0472938e+2, -785835.94, -986432.6, 19304.68, 0.0281678, 0.12545827, -783995.06, 149672.52, 0.0, 10.001535, 9.998878 
1.8451236e+3, 2.1472876e+2, -746134.25, -915209.7, 6728.3877, -0.002594333, 0.17483902, -745866.94, 89806.4, 0.0, 10.00113, 9.998889 
1.8450938e+3, 2.2472784e+2, -733993.8, -836507.94, 23609.242, -0.005759855, 0.19039713, -728817.9, 8864.679, 0.0, 10.000444, 9.999087 
1.8450648e+3, 2.3472661e+2, -782192.3, -810062.2, 31122.898, 0.023155903, 0.15888363, -762027.1, -122332.11, 0.0, 9.999445, 9.999077 
1.8450348e+3, 2.4472588e+2, -727462.0, -639555.25, 9321.722, 0.022412479, 0.14426343, -638577.6, -96875.79, 0.0, 9.998745, 9.999912 
1.8450044e+3, 2.5472575e+2, -682697.44, -564654.6, -5313.8076, -0.014400061, 0.13976063, -564415.9, -120714.24, 0.0, 9.99837, 9.999933 
1.8449743e+3, 2.6472583e+2, -661854.0, -475031.3, 1654.6678, -0.016822582, 0.1481669, -475016.66, -129316.14, 0.0, 9.997716, 10.00019 
1.844945e+3, 2.7472618e+2, -704104.94, -448703.8, 9627.181, 0.026250737, 0.16391051, -448341.44, -200643.61, 0.0, 9.99677, 10.0001545 
1.8449156e+3, 2.847265e+2, -655955.6, -295697.8, 25768.205, 0.043043308, 0.1532743, -293864.0, -144168.97, 0.0, 9.996087, 10.000861 
1.8448856e+3, 2.94727e+2, -624612.9, -222961.08, 2508.5076, 0.012726515, 0.113457434, -222945.4, -171255.4, 0.0, 9.995601, 10.000921 
1.844855e+3, 3.0472848e+2, -664612.5, -188443.31, 13410.736, -0.089332566, 0.16479973, -188065.92, -188065.92, 0.0, 9.994876, 10.00117 
1.8448272e+3, 3.147292e+2, -630873.7, 32170.549, 22928.482, 0.079329, 0.122852035, 32962.484, 32962.484, 0.0, 9.994214, 10.003011 
1.8553968e+3, 1.2477791e+2, -1073156.1, -1763866.6, -60265.723, -0.027047576, 0.14254934, -1067937.3, 649256.5, 0.11823581, 10.00672, 9.996431 
1.8553685e+3, 1.3477518e+2, -935495.44, -1600614.3, 52690.96, 0.027303481, 0.17312448, -931347.1, 687874.1, 0.07984249, 10.00655, 9.996967 
1.8553375e+3, 1.4477283e+2, -863178.25, -1481811.4, -5937.965, -0.048825596, 0.22779348, -863121.25, 658123.2, 0.04357526, 10.005964, 9.997392 
1.855308e+3, 1.5476973e+2, -898619.2, -1458841.5, 7127.5054, 0.032389652, 0.18013777, -898528.5, 524746.0, 0.017200183, 10.004917, 9.997368 
1.8552777e+3, 1.6476706e+2, -864714.1, -1330423.6, -2242.1406, 0.046345364, 0.15467307, -864703.3, 460596.7, 0.003962868, 10.004146, 9.997949 
1.8552469e+3, 1.7476493e+2, -831142.75, -1264060.9, -9203.886, 0.00036535176, 0.14581268, -830947.2, 396372.4, 0.00028647317, 10.003691, 9.997951 
1.8552163e+3, 1.8476316e+2, -786631.5, -1126966.3, -15284.695, -0.0020267868, 0.1520459, -785946.44, 343389.66, 0.0000003514084, 10.003041, 9.998533 
1.8551862e+3, 1.9476187e+2, -813141.2, -1089101.1, -10.345163, 0.039486602, 0.16855833, -813141.2, 218207.16, 0.0, 10.002187, 9.998531 
1.8551558e+3, 2.0476031e+2, -805762.5, -1029722.0, 3954.8184, 0.041002773, 0.1651812, -805692.7, 127670.7, 0.0, 10.001541, 9.998579 
1.8551248e+3, 2.1475857e+2, -769008.6, -962329.25, -6714.979, 0.00069997803, 0.13288137, -768775.7, 66605.11, 0.0, 10.001125, 9.998569 
1.8550943e+3, 2.2475737e+2, -720494.94, -807548.94, -12428.113, -0.010728599, 0.12721865, -718755.4, 18637.166, 0.0, 10.000438, 9.99929 
1.855064e+3, 2.3475681e+2, -766489.56, -778879.7, -4586.854, 0.009578638, 0.14119731, -764976.3, -125578.65, 0.0, 9.999449, 9.999291 
1.8550336e+3, 2.4475628e+2, -748788.3, -685586.2, -4714.98, 0.020654462, 0.15251406, -685236.4, -143833.45, 0.0, 9.99875, 9.999595 
1.8550031e+3, 2.547559e+2, -704991.7, -612550.7, -18073.256, 0.021326754, 0.15603845, -609142.8, -165735.58, 0.0, 9.998374, 9.999604 
1.8549724e+3, 2.647558e+2, -646220.25, -443530.3, -33166.57, 0.01644646, 0.15151909, -438241.22, -92833.26, 0.0, 9.997718, 10.000406 
1.8549415e+3, 2.7475595e+2, -687004.4, -414316.88, -23299.928, 0.00517253, 0.12336246, -412340.34, -164935.3, 0.0, 9.996773, 10.00039 
1.8549113e+3, 2.8475636e+2, -672006.44, -331809.22, 7733.272, 0.009671517, 0.12130105, -331633.53, -182232.4, 0.0, 9.996096, 10.000611 
1.8548813e+3, 2.9475737e+2, -640750.06, -260290.06, -18497.61, 0.028364182, 0.16073216, -259392.84, -207999.98, 0.0, 9.995613, 10.000662 
1.8548506e+3, 3.04759e+2, -643084.75, -147288.97, -15918.385, -0.010551409, 0.22497864, -146778.4, -146778.4, 0.0, 9.99489, 10.001447 
1.8548208e+3, 3.147591e+2, -658382.7, -30262.078, 38308.742, 0.014068555, 0.09165511, -27934.275, -27934.275, 0.0, 9.994235, 10.002573 
1.8654037e+3, 1.2480952e+2, -1001930.7, -1715747.3, -69228.08, -0.03400885, 0.1960507, -995278.75, 721607.25, 0.12450151, 10.007286, 9.99649 
1.8653746e+3, 1.3480635e+2, -980241.56, -1615327.1, 63624.043, 0.011322705, 0.17751126, -973930.3, 644986.4, 0.08432234, 10.006214, 9.99702 
1.8653437e+3, 1.4480399e+2, -946128.4, -1529237.0, 10992.882, 0.008402329, 0.23293741, -945921.2, 575018.3, 0.046275947, 10.005418, 9.997316 
1.8653128e+3, 1.5480092e+2, -906156.6, -1470920.8, 21717.229, 0.020977939, 0.19519001, -905322.75, 517646.75, 0.018463803, 10.004909, 9.997288 
1.8652816e+3, 1.6479814e+2, -844513.06, -1321351.3, 25982.59, 0.021070706, 0.16517483, -843101.44, 481894.3, 0.0043504126, 10.0042925, 9.997939 
1.8652506e+3, 1.7479579e+2, -851897.44, -1275295.0, 31955.39, 0.016282704, 0.1355982, -849499.25, 377517.78, 0.0003313123, 10.003555, 9.997938 
1.8652195e+3, 1.84794e+2, -805896.3, -1136417.8, 17989.719, 0.019836094, 0.13990626, -804920.06, 324113.63, 0.00000050835786, 10.002912, 9.998529 
1.8651883e+3, 1.9479288e+2, -785968.2, -1076001.5, 5298.6904, 0.029225152, 0.1757192, -785871.4, 245172.83, 0.0, 10.002376, 9.998529 
1.865157e+3, 2.0479137e+2, -783986.94, -1014919.75, 9177.286, 0.025892962, 0.17493652, -783622.8, 149436.13, 0.0, 10.001675, 9.998614 
1.8651259e+3, 2.147895e+2, -814130.5, -980088.44, 22086.03, 0.009861014, 0.12630187, -811241.5, 23835.885, 0.0, 10.000801, 9.998602 
1.8650946e+3, 2.2478823e+2, -761832.1, -824309.3, 21925.305, 0.0019826037, 0.112873085, -754905.7, -17816.172, 0.0, 10.000143, 9.999316 
1.8650633e+3, 2.3478772e+2, -725038.75, -755369.5, 14721.516, 0.00182096, 0.12956914, -719068.56, -79974.71, 0.0, 9.999722, 9.999319 
1.8650323e+3, 2.4478725e+2, -707584.44, -674486.6, 19510.715, 0.011473486, 0.14856918, -665451.7, -124352.805, 0.0, 9.999075, 9.999512 
1.8650015e+3, 2.5478694e+2, -740178.5, -640031.06, 22949.223, 0.03534863, 0.16420417, -635022.6, -191919.0, 0.0, 9.99818, 9.999507 
1.8649702e+3, 2.6478672e+2, -681217.06, -468677.75, 4032.7012, 0.03866573, 0.15906611, -468601.28, -123495.64, 0.0, 9.997517, 10.00033 
1.8649383e+3, 2.7478662e+2, -647533.7, -401956.3, -10486.071, 0.01176068, 0.117444, -401509.38, -154404.89, 0.0, 9.997076, 10.000327 
1.8649073e+3, 2.8478703e+2, -642137.94, -324131.25, 14334.004, -0.008452251, 0.11984879, -323486.47, -174385.89, 0.0, 9.996334, 10.000546 
1.8648764e+3, 2.9478815e+2, -689875.5, -291000.03, 1243.8822, -0.0018655559, 0.17933148, -290996.16, -239905.1, 0.0, 9.995311, 10.000594 
1.8648459e+3, 3.0478942e+2, -660526.2, -149419.6, 12909.014, 0.05128184, 0.20847307, -149093.77, -149093.77, 0.0, 9.994745, 10.001501 
1.8648148e+3, 3.1478962e+2, -628124.2, -44276.805, 59043.91, -0.034855414, 0.0815372, -38365.598, -38365.598, 0.0, 9.994568, 10.002315 
1.875411e+3, 1.2484175e+2, -992243.44, -1675668.9, -99213.7, -0.03284166, 0.28911468, -978131.8, 738442.1, 0.13099667, 10.007242, 9.996823 
1.875381e+3, 1.3483801e+2, -964481.6, -1575946.6, 27666.969, 0.032057684, 0.18382157, -963232.4, 655375.3, 0.08901792, 10.006213, 9.997316 
1.8753499e+3, 1.4483565e+2, -952775.0, -1542877.8, -7406.9536, 0.08074152, 0.22736835, -952682.06, 567947.6, 0.049140606, 10.005427, 9.997219 
1.875317e+3, 1.5483263e+2, -912932.8, -1484729.8, 4889.697, -0.03334464, 0.20572539, -912891.0, 509768.53, 0.019823613, 10.00491, 9.997193 
1.8752852e+3, 1.6482994e+2, -833936.56, -1298998.5, -1345.1656, -0.049265496, 0.18125424, -833932.7, 490751.9, 0.004777667, 10.00429, 9.998096 
1.8752544e+3, 1.7482768e+2, -840021.1, -1252301.3, 4842.723, 0.047716454, 0.14470051, -839964.25, 386739.47, 0.00038442243, 10.00356, 9.9980955 
1.8752228e+3, 1.8482566e+2, -829117.44, -1186238.9, -2211.0793, 0.06617212, 0.13486573, -829103.75, 299618.78, 0.000000733184, 10.002915, 9.998187 
1.8751903e+3, 1.9482398e+2, -811427.0, -1128534.4, -13337.987, -0.0010392731, 0.14863072, -810866.94, 219873.0, 0.0, 10.002371, 9.998173 
1.8751584e+3, 2.0482254e+2, -760535.2, -965968.6, -22548.05, -0.017112015, 0.15722223, -758089.44, 174664.72, 0.0, 10.001671, 9.998954 
1.8751267e+3, 2.1482146e+2, -789336.0, -929431.44, -9315.954, 0.023250014, 0.1528259, -788719.25, 46044.906, 0.0, 10.000802, 9.998951 
1.8750949e+3, 2.2482035e+2, -771659.3, -846083.8, 6189.8633, 0.029365838, 0.14435793, -771148.0, -34373.508, 0.0, 10.000146, 9.9991665 
1.875063e+3, 2.3481931e+2, -736087.5, -778624.8, 548.60144, -0.0032108263, 0.12418549, -736080.4, -97296.14, 0.0, 9.99972, 9.999162 
1.8750311e+3, 2.4481873e+2, -697843.4, -654779.9, -12911.191, -0.007061823, 0.13309577, -651205.56, -110415.266, 0.0, 9.999075, 9.999649 
1.8749996e+3, 2.5481868e+2, -730068.6, -621298.7, -8870.88, 0.025043016, 0.1644859, -620579.94, -177788.31, 0.0, 9.998188, 9.999634 
1.8749678e+3, 2.6481846e+2, -707500.6, -525833.75, -12163.42, 0.047544133, 0.1708399, -525022.94, -180228.53, 0.0, 9.997525, 9.999935 
1.8749358e+3, 2.7481815e+2, -672889.0, -458096.13, -26107.912, 0.04359679, 0.14583696, -454968.28, -208171.02, 0.0, 9.997088, 9.999937 
1.8749034e+3, 2.8481838e+2, -632230.2, -305692.78, -24877.824, -0.014865092, 0.15021421, -303808.3, -155013.88, 0.0, 9.996341, 10.000671 
1.874871e+3, 2.9481933e+2, -682159.6, -273753.16, -35153.645, -0.0847569, 0.17396432, -270749.38, -219964.19, 0.0, 9.995303, 10.000718 
1.874841e+3, 3.0481955e+2, -672329.7, -178656.05, 7355.9365, 0.094506055, 0.10161979, -178546.47, -178546.47, 0.0, 9.99476, 10.001296 
1.87481e+3, 3.1482092e+2, -607849.44, -14197.485, 20891.818, 0.025947165, 0.118772894, -13463.168, -13463.168, 0.0, 9.994618, 10.002497 
1.8854184e+3, 1.2487402e+2, -1040668.5, -1690737.1, -44112.406, 0.013036173, 0.27708757, -1037688.8, 678569.0, 0.13776916, 10.006875, 9.996879 
1.8853869e+3, 1.3487028e+2, -964726.8, -1581433.6, 45474.418, -0.0030881248, 0.17791216, -961391.7, 656900.1, 0.093961746, 10.006272, 9.997247 
1.8853554e+3, 1.4486805e+2, -915216.1, -1521217.0, 13376.814, 0.09618347, 0.24030426, -914920.94, 605391.2, 0.052186854, 10.005708, 9.9972315 
1.8853222e+3, 1.5486482e+2, -880704.2, -1467076.1, 31165.445, -0.025848482, 0.19580501, -879052.4, 543291.25, 0.021287272, 10.0051365, 9.997206 
1.8852895e+3, 1.648621e+2, -813561.6, -1300169.6, 14080.821, -0.049656868, 0.17123967, -813154.5, 511214.72, 0.0052480116, 10.00448, 9.997995 
1.885258e+3, 1.7485997e+2, -820649.9, -1254509.0, 825.8197, 0.033894055, 0.1596845, -820648.3, 405739.34, 0.00044692264, 10.003745, 9.997991 
1.8852256e+3, 1.8485788e+2, -820222.56, -1180780.4, -873.9419, 0.054266002, 0.14973822, -820220.44, 308186.7, 0.0000010252129, 10.0029745, 9.998195 
1.8851927e+3, 1.9485593e+2, -840084.56, -1141246.8, 12115.152, 0.0045534233, 0.13552743, -839597.94, 190828.69, 0.0, 10.0021715, 9.99818 
1.8851599e+3, 2.0485447e+2, -789467.75, -980814.25, 2696.6484, -0.008010452, 0.14289705, -789429.75, 143011.25, 0.0, 10.001479, 9.998943 
1.8851276e+3, 2.1485366e+2, -774705.4, -923305.2, -11647.187, 0.021106556, 0.16593231, -773798.0, 60650.977, 0.0, 10.000909, 9.99894 
1.8850951e+3, 2.2485264e+2, -751611.3, -829112.2, 3984.6355, 0.031120474, 0.16428919, -751407.0, -14948.45, 0.0, 10.000257, 9.9992285 
1.8850628e+3, 2.3485151e+2, -761205.8, -783692.6, 13329.264, 0.01758162, 0.12969187, -755011.25, -116542.37, 0.0, 9.99952, 9.999221 
1.8850303e+3, 2.4485092e+2, -728497.25, -667434.75, -1828.4551, 0.007764706, 0.13415936, -667380.0, -126905.15, 0.0, 9.9988575, 9.999665 
1.8849975e+3, 2.5485092e+2, -717598.1, -613635.44, -8338.386, 0.010302223, 0.16977833, -612970.9, -170495.19, 0.0, 9.998269, 9.999645 
1.8849652e+3, 2.6485068e+2, -698739.1, -525703.1, 3917.3455, 0.036420427, 0.17497131, -525614.5, -181135.61, 0.0, 9.997606, 9.999895 
1.8849328e+3, 2.748503e+2, -709616.9, -479533.0, 15552.741, 0.06308515, 0.14970106, -478486.47, -232003.95, 0.0, 9.996856, 9.999901 
1.8848996e+3, 2.8485063e+2, -660868.0, -304458.6, 20447.93, -0.0060350574, 0.15487504, -303289.28, -154810.39, 0.0, 9.996083, 10.000803 
1.884866e+3, 2.9485154e+2, -669148.2, -257256.28, 12105.405, -0.10270888, 0.16331016, -256900.81, -206431.78, 0.0, 9.995351, 10.000806 
1.8848361e+3, 3.0485138e+2, -683018.2, -221597.36, 63704.55, 0.12243888, 0.07003582, -212963.75, -212963.75, 0.0, 9.994849, 10.0009575 
1.8848039e+3, 3.1485334e+2, -657330.7, -9627.384, 9142.143, -0.0037529208, 0.1762375, -9498.371, -9498.371, 0.0, 9.994164, 10.002743 
1.8954258e+3, 1.2490632e+2, -1057509.0, -1718404.9, -43552.742, 0.06902079, 0.17074324, -1054651.3, 661286.6, 0.14487256, 10.00689, 9.996658 
1.8953922e+3, 1.3490304e+2, -993604.7, -1636308.5, 27162.12, -0.09064818, 0.15886594, -992458.8, 625510.94, 0.099186346, 10.006272, 9.996846 
1.8953608e+3, 1.449011e+2, -912543.6, -1509001.8, -7022.738, 0.057807192, 0.26355588, -912460.94, 607527.0, 0.055428855, 10.005694, 9.997328 
1.8953277e+3, 1.5489747e+2, -876389.9, -1454818.4, 10753.083, 0.03340301, 0.16945004, -876190.06, 545832.0, 0.022858959, 10.005129, 9.997294 
1.8952945e+3, 1.648946e+2, -838175.75, -1350144.1, -13090.831, 0.006412447, 0.14335024, -837841.25, 486208.28, 0.0057633165, 10.004474, 9.997657 
1.895261e+3, 1.7489262e+2, -845459.4, -1305614.4, -25133.86, -0.02439964, 0.18044052, -844090.6, 381978.44, 0.000519704, 10.00374, 9.997643 
1.8952279e+3, 1.8489061e+2, -797855.9, -1134232.6, -30139.273, -0.012877082, 0.1800845, -795176.75, 332911.2, 0.0000013718216, 10.002971, 9.998518 
1.8951952e+3, 1.9488867e+2, -816594.75, -1093346.1, -16720.326, 0.042468157, 0.1348625, -815588.25, 214516.9, 0.0, 10.002172, 9.99851 
1.8951619e+3, 2.0488712e+2, -813604.5, -1032435.3, -18241.832, 0.046994284, 0.13241848, -812094.25, 120026.01, 0.0, 10.001482, 9.9985895 
1.8951282e+3, 2.1488604e+2, -800672.4, -977449.7, -30996.58, 0.0008185732, 0.167154, -795394.9, 38737.438, 0.0, 10.000907, 9.998571 
1.8950951e+3, 2.2488506e+2, -732727.9, -790382.2, -22555.1, 0.006587242, 0.173672, -724952.6, 11189.5205, 0.0, 10.000255, 9.999496 
1.8950628e+3, 2.3488428e+2, -742378.1, -745524.25, -12561.932, 0.062028226, 0.14591049, -731291.2, -93142.77, 0.0, 9.999521, 9.999484 
1.8950294e+3, 2.4488376e+2, -735976.94, -684527.06, -23238.305, 0.05301032, 0.15201843, -675585.1, -135431.73, 0.0, 9.998862, 9.999548 
1.8949954e+3, 2.548836e+2, -724679.6, -630292.94, -28836.93, -0.011560098, 0.18004183, -622180.06, -180023.44, 0.0, 9.998275, 9.99953 
1.8949623e+3, 2.6488328e+2, -674409.25, -477892.03, -23390.8, 0.0030211452, 0.17008817, -475146.25, -130986.305, 0.0, 9.997614, 10.000221 
1.8949297e+3, 2.7488306e+2, -685184.6, -432367.47, -12483.047, 0.06537971, 0.12747274, -431752.6, -185591.56, 0.0, 9.996867, 10.00022 
1.8948959e+3, 2.8488362e+2, -650943.06, -285230.1, -6575.174, 0.016361324, 0.13246208, -285111.9, -136957.19, 0.0, 9.996087, 10.000934 
1.8948618e+3, 2.9488468e+2, -665725.5, -252232.36, -7553.57, -0.05232862, 0.14720002, -252094.4, -201951.23, 0.0, 9.9953575, 10.000839 
1.8948309e+3, 3.048849e+2, -717251.5, -298840.28, 43601.836, 0.12256975, 0.122013256, -294344.94, -294344.94, 0.0, 9.99487, 10.00042 
1.8947977e+3, 3.1488547e+2, -641105.4, 24070.502, -92923.266, -0.04429974, 0.13052854, 36807.73, 36807.73, 0.0, 9.994167, 10.002972 
1.905433e+3, 1.2494013e+2, -1009625.94, -1704490.3, -5855.074, 0.07471921, 0.16079931, -1009576.56, 706028.1, 0.15232356, 10.007391, 9.996523 
1.9053984e+3, 1.3493645e+2, -971250.25, -1663948.0, 39596.418, -0.11051814, 0.14564018, -968994.1, 648647.7, 0.104697935, 10.006653, 9.996474 
1.9053666e+3, 1.4493431e+2, -893289.2, -1497550.8, 3472.7205, 0.07362674, 0.2505221, -893269.25, 626393.0, 0.05886651, 10.005847, 9.997336 
1.9053328e+3, 1.5493076e+2, -903575.56, -1466321.4, 13547.598, 0.0369384, 0.16304603, -903249.6, 518445.47, 0.024537103, 10.00494, 9.997306 
1.9052988e+3, 1.6492787e+2, -883231.2, -1378715.3, 723.5183, 0.009191141, 0.13988724, -883230.1, 440492.5, 0.0063235997, 10.004197, 9.997593 
1.9052647e+3, 1.7492582e+2, -866416.8, -1322958.9, 6638.366, -0.016086942, 0.17447914, -866320.3, 359423.56, 0.00060333783, 10.00363, 9.997577 
1.9052309e+3, 1.8492381e+2, -794218.6, -1127980.0, -2012.74, -0.0070285928, 0.17789586, -794206.5, 333556.4, 0.0000017786746, 10.002978, 9.998556 
1.9051972e+3, 1.9492203e+2, -803599.3, -1082884.9, -10931.625, 0.03873743, 0.14418185, -803172.06, 226606.4, 0.0, 10.002246, 9.998546 
1.9051634e+3, 2.0492046e+2, -796297.25, -1019487.5, -1959.2723, 0.043380573, 0.13667741, -796280.06, 135513.36, 0.0, 10.001584, 9.998628 
1.9051291e+3, 2.149192e+2, -784597.7, -964861.25, 13246.072, 0.006146327, 0.14825968, -783629.5, 50177.29, 0.0, 10.000999, 9.998611 
1.9050953e+3, 2.249182e+2, -739291.7, -796262.44, 16538.115, 0.012465987, 0.15464124, -734838.8, 977.8632, 0.0, 10.000224, 9.99947 
1.905062e+3, 2.3491761e+2, -783447.9, -768512.06, 3412.9548, 0.059652276, 0.15081748, -767769.2, -129947.484, 0.0, 9.999255, 9.999454 
1.9050281e+3, 2.4491715e+2, -773603.8, -690021.44, 3957.6343, 0.048976813, 0.15780072, -689834.5, -150008.13, 0.0, 9.998552, 9.999658 
1.9049937e+3, 2.5491685e+2, -739280.9, -624676.44, 14761.341, -0.008529681, 0.16311581, -622805.7, -180975.53, 0.0, 9.998123, 9.9996395 
1.9049598e+3, 2.649167e+2, -683778.75, -465150.13, 11011.978, 0.0042819367, 0.15555814, -464596.88, -120764.96, 0.0, 9.997479, 10.000373 
1.9049263e+3, 2.749169e+2, -713248.06, -428218.97, 6708.4395, 0.05389669, 0.13894133, -428061.16, -182231.83, 0.0, 9.996602, 10.000376 
1.9048919e+3, 2.8491747e+2, -677613.75, -290886.4, 12028.959, 0.017345708, 0.13882776, -290512.6, -142689.88, 0.0, 9.995876, 10.000996 
1.9048576e+3, 2.949183e+2, -668979.4, -255793.19, 9740.097, -0.0048134746, 0.12289217, -255563.72, -205749.78, 0.0, 9.995347, 10.000818 
1.9048251e+3, 3.0491927e+2, -722846.1, -283340.13, 80333.79, 0.077676974, 0.16860135, -269116.84, -269116.84, 0.0, 9.994754, 10.000584 
1.9047916e+3, 3.149191e+2, -699488.0, 17494.514, -66041.42, -0.031213392, 0.08368561, 23526.85, 23526.85, 0.0, 9.99368, 10.003159 
1.9154398e+3, 1.2497517e+2, -1022668.4, -1714880.5, -1798.6614, 0.019764349, 0.2262519, -1022663.7, 692596.8, 0.16006589, 10.007373, 9.996448 
1.9154052e+3, 1.3497044e+2, -998998.8, -1716784.4, 16506.176, -0.07599906, 0.14031361, -998619.44, 618688.8, 0.110454515, 10.006642, 9.996117 
1.915373e+3, 1.4496775e+2, -900772.1, -1508417.4, -27962.467, 0.12832142, 0.21065116, -899488.06, 619846.44, 0.06247707, 10.005844, 9.997261 
1.9153371e+3, 1.5496461e+2, -907750.0, -1475937.0, -18318.5, -0.0127117615, 0.17334673, -907160.06, 514203.13, 0.026313074, 10.004949, 9.997237 
1.9153024e+3, 1.6496184e+2, -870182.3, -1353132.5, -19931.268, -0.037203625, 0.15403402, -869361.1, 454028.4, 0.006927091, 10.004204, 9.9977665 
1.9152689e+3, 1.7495948e+2, -854054.75, -1297855.9, -13149.143, 0.05097039, 0.14424784, -853665.5, 371747.13, 0.00069814024, 10.00363, 9.99775 
1.9152343e+3, 1.8495747e+2, -810977.8, -1163220.8, -28724.717, 0.060592256, 0.14888375, -808650.75, 318781.53, 0.0000023137907, 10.002977, 9.998317 
1.915199e+3, 1.9495593e+2, -820895.9, -1119550.1, -36786.313, -0.007342027, 0.16428146, -816431.56, 213015.5, 0.0, 10.002246, 9.998296 
1.9151643e+3, 2.049544e+2, -767804.44, -960834.94, -22652.305, -0.016340887, 0.15418012, -765181.8, 166279.23, 0.0, 10.001583, 9.999032 
1.9151303e+3, 2.1495299e+2, -756458.1, -905922.6, -7005.111, 0.03461411, 0.109674975, -756130.5, 77342.74, 0.0, 10.000994, 9.99902 
1.9150959e+3, 2.2495198e+2, -761820.3, -843097.6, -19105.033, 0.044630352, 0.108736455, -757553.5, -22070.36, 0.0, 10.000221, 9.999151 
1.9150607e+3, 2.3495148e+2, -805429.8, -815093.9, -31354.008, 0.008732106, 0.14512429, -778537.7, -141048.17, 0.0, 9.999257, 9.999135 
1.915026e+3, 2.4495101e+2, -749534.5, -641949.8, -11203.372, -0.0044691344, 0.15047662, -640795.5, -101300.984, 0.0, 9.998557, 9.999987 
1.914992e+3, 2.5495067e+2, -715197.75, -577182.9, 346.647, 0.01616486, 0.11856452, -577182.0, -135684.84, 0.0, 9.998131, 9.999964 
1.9149576e+3, 2.6495087e+2, -685098.4, -469728.6, -21154.697, 0.037181854, 0.13315979, -467670.34, -124174.99, 0.0, 9.997484, 10.00034 
1.9149224e+3, 2.7495173e+2, -713598.94, -431299.9, -25373.393, 0.025164166, 0.18664241, -429037.47, -183549.48, 0.0, 9.996609, 10.000353 
1.9148874e+3, 2.849522e+2, -676711.6, -292207.88, -7642.524, -0.0050557093, 0.17270902, -292056.03, -144572.11, 0.0, 9.995887, 10.000982 
1.9148535e+3, 2.9495224e+2, -672081.2, -267684.44, -4430.188, 0.037899993, 0.08288685, -267635.9, -218152.94, 0.0, 9.995368, 10.000729 
1.914819e+3, 3.049545e+2, -654334.06, -146071.5, 47959.89, -0.027317034, 0.2179778, -141585.58, -141585.58, 0.0, 9.99477, 10.00152 
1.9147857e+3, 3.1495607e+2, -706886.75, 5000.023, -116407.555, 0.011181487, 0.20444374, 23551.514, 23551.514, 0.0, 9.993668, 10.00308 
1.9254471e+3, 1.2500964e+2, -997069.1, -1684674.1, 14934.469, 0.018207649, 0.21036258, -996744.9, 718177.75, 0.16798088, 10.007565, 9.996602 
1.9254118e+3, 1.3500519e+2, -1024519.94, -1730466.0, 20953.686, -0.06648505, 0.15383057, -1023898.56, 593068.7, 0.11637785, 10.006486, 9.996097 
1.9253789e+3, 1.4500222e+2, -917040.5, -1518138.0, -22.13105, 0.13749793, 0.19988097, -917040.5, 601955.56, 0.066221565, 10.005761, 9.997229 
1.9253422e+3, 1.5499902e+2, -852830.56, -1452550.3, 10931.189, -0.01865944, 0.16147973, -852631.4, 568394.3, 0.028172657, 10.005363, 9.997197 
1.9253069e+3, 1.649963e+2, -798357.9, -1310997.3, 2365.4587, -0.040527098, 0.14613156, -798346.94, 524704.75, 0.007570379, 10.004675, 9.9978285 
1.9252726e+3, 1.749941e+2, -840456.94, -1284164.1, -694.6991, 0.06199517, 0.14529161, -840455.9, 384617.38, 0.00080436957, 10.003696, 9.99781 
1.9252375e+3, 1.8499212e+2, -822128.8, -1169729.1, -7532.1143, 0.0698156, 0.15240957, -821965.7, 305126.78, 0.0000031359323, 10.002909, 9.998303 
1.9252011e+3, 1.9499053e+2, -811600.8, -1116749.4, -209.75523, -0.015419005, 0.16367929, -811600.7, 217507.39, 0.0, 10.00232, 9.998278 
1.9251657e+3, 2.04989e+2, -764975.25, -950411.7, 7544.1953, -0.024909303, 0.15143071, -764668.8, 166453.14, 0.0, 10.001567, 9.999109 
1.9251312e+3, 2.1498765e+2, -801121.1, -918777.56, -2743.5715, 0.041761205, 0.107410826, -801057.2, 32075.924, 0.0, 10.000652, 9.999095 
1.9250959e+3, 2.2498666e+2, -792704.4, -861605.94, -11921.242, 0.049970824, 0.1060629, -790700.1, -55557.37, 0.0, 10.000029, 9.999115 
1.92506e+3, 2.3498608e+2, -743983.56, -789448.44, -3950.8474, -0.0041779745, 0.13892023, -743642.8, -106492.805, 0.0, 9.999698, 9.999098 
1.9250247e+3, 2.449856e+2, -692509.56, -603211.75, 10977.299, -0.013875357, 0.1400109, -601882.1, -62727.027, 0.0, 9.998903, 10.000085 
1.92499e+3, 2.5498533e+2, -780016.6, -597434.94, 3589.1802, 0.030475477, 0.10758556, -597364.4, -156207.78, 0.0, 9.997642, 10.00006 
1.9249548e+3, 2.6498568e+2, -770091.5, -511871.2, -13282.476, 0.03874631, 0.13234043, -511189.75, -168036.0, 0.0, 9.996909, 10.000326 
1.9249187e+3, 2.7498665e+2, -701056.7, -426271.28, -17438.754, -0.014188837, 0.19852988, -425168.97, -180022.78, 0.0, 9.996703, 10.00034 
1.9248833e+3, 2.8498712e+2, -640380.5, -262653.63, -3987.7644, -0.01584563, 0.18210925, -262611.53, -115469.234, 0.0, 9.996088, 10.001087 
1.9248492e+3, 2.949873e+2, -711616.6, -274591.97, 10832.211, 0.106285796, 0.095743, -274323.66, -225183.88, 0.0, 9.995048, 10.0008335 
1.9248126e+3, 3.049897e+2, -692638.6, -111598.875, 56935.19, -0.10433482, 0.21162963, -106072.445, -106072.445, 0.0, 9.994283, 10.001991 
1.9247799e+3, 3.1499165e+2, -725445.06, -30689.676, -124513.875, 0.07167651, 0.19084975, -9048.444, -9048.444, 0.0, 9.99366, 10.002836 
1.935455e+3, 1.2504376e+2, -982926.3, -1644552.3, 7677.833, 0.05138651, 0.13472725, -982837.25, 731751.6, 0.17595512, 10.007577, 9.996933 
1.9354182e+3, 1.3504063e+2, -1011977.06, -1692993.0, -13538.354, -0.08353688, 0.1839232, -1011708.06, 604911.25, 0.122395694, 10.006491, 9.996353 
1.9353841e+3, 1.4503758e+2, -920542.3, -1519893.0, -12863.324, 0.10300096, 0.21239942, -920266.4, 598381.94, 0.07006423, 10.005756, 9.99722 
1.9353478e+3, 1.5503396e+2, -856794.7, -1456092.6, -1542.7449, 0.010921022, 0.13107657, -856790.7, 563892.06, 0.030102475, 10.005351, 9.997179 
1.9353117e+3, 1.6503127e+2, -803732.7, -1320793.1, -33341.383, -0.011164863, 0.12265586, -801591.56, 521117.44, 0.008249928, 10.004667, 9.9977665 
1.935276e+3, 1.7502955e+2, -844270.8, -1293471.3, -35695.605, 0.019004444, 0.17531125, -841451.94, 383274.47, 0.0009225023, 10.003699, 9.997747 
1.9352397e+3, 1.8502764e+2, -808343.75, -1142275.4, -28426.773, 0.024564859, 0.18358473, -805941.2, 320803.47, 0.0000044945964, 10.002911, 9.998492 
1.9352037e+3, 1.9502571e+2, -798199.06, -1088754.1, -20421.2, 0.010591861, 0.14238602, -796770.8, 231991.67, 0.0, 10.002316, 9.998473 
1.9351676e+3, 2.0502415e+2, -783009.6, -988160.56, -25850.342, 0.011209549, 0.13037342, -779802.44, 150974.58, 0.0, 10.001565, 9.998854 
1.9351315e+3, 2.150231e+2, -818931.94, -956836.1, -34870.96, 0.025487676, 0.14165175, -810615.8, 22171.266, 0.0, 10.000654, 9.998835 
1.9350956e+3, 2.2502214e+2, -775279.3, -827114.44, -23098.791, 0.028233454, 0.14524673, -766479.8, -31683.504, 0.0, 10.000032, 9.9993515 
1.9350599e+3, 2.3502135e+2, -727343.44, -755275.9, -14318.849, 0.01776338, 0.132083, -721307.5, -84503.59, 0.0, 9.999697, 9.999333 
1.9350238e+3, 2.4502084e+2, -703088.44, -626274.6, -35696.645, 0.017628869, 0.12777297, -612247.4, -73438.52, 0.0, 9.998904, 9.999928 
1.9349876e+3, 2.5502077e+2, -789122.6, -618336.1, -42607.582, 0.03189563, 0.12966295, -608296.6, -167487.06, 0.0, 9.997647, 9.999916 
1.9349512e+3, 2.6502103e+2, -768892.06, -511469.63, -20439.445, 0.0069713774, 0.15083961, -509856.84, -167048.58, 0.0, 9.996916, 10.000327 
1.9349147e+3, 2.7502155e+2, -701258.9, -429129.97, -23625.86, -0.07066673, 0.17317952, -427094.03, -182288.81, 0.0, 9.996711, 10.000319 
1.9348793e+3, 2.8502223e+2, -622480.6, -229453.48, -43309.75, -0.018578399, 0.16796933, -224737.53, -77938.69, 0.0, 9.9961, 10.001311 
1.9348451e+3, 2.950235e+2, -686518.9, -228158.52, -26329.879, 0.20163046, 0.16703783, -226650.98, -177866.25, 0.0, 9.995067, 10.001146 
1.9348064e+3, 3.0502462e+2, -690540.06, -109965.484, 37062.668, -0.15498413, 0.13876559, -107609.04, -107609.04, 0.0, 9.994292, 10.001999 
1.9347729e+3, 3.1502652e+2, -729243.94, -44580.105, -56872.625, 0.0067257034, 0.11955381, -39888.05, -39888.05, 0.0, 9.99368, 10.002734 
1.945463e+3, 1.2507987e+2, -940058.94, -1615453.3, 49440.207, 0.080164276, 0.16211158, -936459.0, 777777.4, 0.18394475, 10.007974, 9.996989 
1.945425e+3, 1.3507658e+2, -965141.2, -1652706.5, -466.22577, -0.06765769, 0.1868694, -965140.9, 651126.1, 0.12847379, 10.006841, 9.99646 
1.9453898e+3, 1.4507324e+2, -898342.3, -1503521.1, 16387.096, 0.08598385, 0.1776342, -897898.94, 620399.6, 0.07398441, 10.005921, 9.997258 
1.945353e+3, 1.5507007e+2, -886321.7, -1465526.5, 28932.447, 0.016902734, 0.13852057, -884880.06, 535448.9, 0.032094084, 10.005134, 9.997218 
1.9453163e+3, 1.6506751e+2, -839056.06, -1335211.4, -3805.594, -0.003941566, 0.1416427, -839026.9, 483327.06, 0.008963391, 10.004421, 9.997783 
1.9452794e+3, 1.750656e+2, -826995.06, -1283030.3, -1555.1046, 0.0003637412, 0.17589073, -826989.75, 397383.1, 0.0010530156, 10.003813, 9.997762 
1.9452426e+3, 1.8506363e+2, -784025.8, -1128390.0, 4560.721, 0.006875883, 0.17419231, -783965.44, 342426.34, 0.0000066792695, 10.003072, 9.9985075 
1.945206e+3, 1.950617e+2, -814889.75, -1095004.1, -1499.6659, 0.02122511, 0.13164309, -814881.75, 213527.73, 0.0, 10.002197, 9.9984865 
1.9451691e+3, 2.0506018e+2, -793772.56, -1005142.94, -5352.113, 0.026582465, 0.12949014, -793637.1, 136786.73, 0.0, 10.001545, 9.998745 
1.9451323e+3, 2.1505922e+2, -759723.44, -940500.5, -5373.088, 0.020746566, 0.16139743, -759563.9, 72870.09, 0.0, 10.001116, 9.998722 
1.9450957e+3, 2.2505821e+2, -729720.3, -796988.75, 2824.238, 0.021710956, 0.16294104, -729601.94, 4841.76, 0.0, 10.000313, 9.999421 
1.9450593e+3, 2.3505723e+2, -802621.0, -783320.44, -1778.2533, 0.029497642, 0.12564692, -783158.0, -146705.66, 0.0, 9.999148, 9.999403 
1.9450225e+3, 2.4505673e+2, -776566.75, -663612.3, -24333.248, 0.023738317, 0.11958468, -658593.3, -120136.24, 0.0, 9.998413, 9.999907 
1.9449851e+3, 2.5505683e+2, -724759.25, -589756.75, -22159.941, 0.00575039, 0.14104544, -586212.4, -145755.81, 0.0, 9.998102, 9.99989 
1.9449481e+3, 2.6505706e+2, -692345.25, -462488.8, 13216.511, -0.023059957, 0.15735678, -461731.38, -119276.12, 0.0, 9.997392, 10.000433 
1.9449112e+3, 2.750574e+2, -757615.5, -445764.3, 16987.521, -0.06744836, 0.14955822, -444841.7, -200388.22, 0.0, 9.996282, 10.00041 
1.9448754e+3, 2.8505814e+2, -691226.3, -266855.25, -6129.748, 0.0060873386, 0.14919786, -266766.75, -120320.336, 0.0, 9.995651, 10.001269 
1.9448404e+3, 2.9505986e+2, -623834.06, -189696.77, -10771.824, 0.21210599, 0.1977333, -189429.67, -141001.38, 0.0, 9.995467, 10.001215 
1.9448005e+3, 3.050605e+2, -673030.4, -103413.63, 21277.662, -0.1808217, 0.11432211, -102619.92, -102619.92, 0.0, 9.994427, 10.001975 
1.9447662e+3, 3.150631e+2, -864624.7, -81879.52, 15656.916, 0.038615078, 0.17406051, -81566.47, -81566.47, 0.0, 9.992636, 10.002979 
1.955471e+3, 1.2511778e+2, -962776.25, -1643188.1, 30514.912, 0.09228404, 0.28417653, -961410.44, 752456.44, 0.19197412, 10.007946, 9.996776 
1.9554321e+3, 1.3511305e+2, -971216.56, -1657499.8, -34470.76, -0.026764505, 0.16696164, -969489.5, 646420.94, 0.1346195, 10.006843, 9.9964285 
1.9553956e+3, 1.451092e+2, -895029.56, -1495221.5, -9634.485, 0.07913451, 0.1053595, -894874.94, 623071.5, 0.07798116, 10.005937, 9.997315 
1.955358e+3, 1.5510724e+2, -882209.2, -1456087.9, 1218.7892, -0.0013561167, 0.1800358, -882206.56, 537758.6, 0.03414611, 10.005139, 9.99728 
1.9553205e+3, 1.6510488e+2, -833552.4, -1323886.6, -25826.04, -0.018775746, 0.1972257, -832195.9, 489791.9, 0.00970998, 10.004421, 9.997862 
1.9552831e+3, 1.7510223e+2, -821527.5, -1272352.0, -22725.514, 0.0021481474, 0.14895038, -820384.8, 403628.4, 0.0011959625, 10.003813, 9.997837 
1.9552456e+3, 1.8510002e+2, -794995.1, -1151879.8, -26929.418, 0.010310143, 0.12925048, -792974.56, 333059.7, 0.000009907366, 10.003072, 9.998348 
1.955208e+3, 1.9509837e+2, -825347.4, -1118841.0, -32039.338, 0.014635059, 0.13258958, -821890.5, 206159.13, 0.0, 10.002203, 9.998322 
1.9551706e+3, 2.0509697e+2, -792267.2, -1003986.44, -20103.93, 0.020812895, 0.14761376, -790375.1, 139688.39, 0.0, 10.00155, 9.998752 
1.9551334e+3, 2.1509589e+2, -759569.44, -939789.56, -19556.445, 0.025173917, 0.16648424, -757471.7, 74603.03, 0.0, 10.001111, 9.998731 
1.9550961e+3, 2.2509474e+2, -736752.06, -811842.3, -39875.285, 0.027364144, 0.15975733, -719527.9, 14558.018, 0.0, 10.00031, 9.999323 
1.9550583e+3, 2.3509365e+2, -808971.1, -797489.1, -43514.92, 0.028584432, 0.12036967, -759338.1, -123242.08, 0.0, 9.999149, 9.999308 
1.9550206e+3, 2.4509317e+2, -768715.44, -649357.6, -34994.945, 0.0020714363, 0.11535149, -639854.0, -101753.305, 0.0, 9.998419, 10.000003 
1.9549826e+3, 2.5509343e+2, -717361.4, -576826.7, -32299.094, -0.051941704, 0.14243926, -569758.9, -129660.32, 0.0, 9.99811, 9.999977 
1.954945e+3, 2.650937e+2, -677535.6, -434240.78, -28224.898, -0.053431913, 0.15329179, -431009.3, -88913.805, 0.0, 9.997398, 10.000626 
1.9549082e+3, 2.7509406e+2, -742740.4, -418641.44, -23379.967, -0.004635102, 0.12513852, -416963.53, -172871.34, 0.0, 9.996293, 10.000592 
1.9548714e+3, 2.850947e+2, -712576.75, -314639.72, -13366.243, 0.054826386, 0.12412199, -314191.28, -168105.06, 0.0, 9.995664, 10.0009365 
1.9548349e+3, 2.9509625e+2, -636355.7, -220463.9, -18150.768, 0.123145945, 0.18996477, -219673.27, -171601.61, 0.0, 9.995483, 10.000998 
1.9547948e+3, 3.050971e+2, -678331.3, -116003.734, -50771.418, -0.17675824, 0.13474143, -111456.45, -111456.45, 0.0, 9.994432, 10.001887 
1.9547592e+3, 3.1509876e+2, -818888.4, 4481.997, 31537.93, 0.064830974, 0.12317116, 5688.2417, 5688.2417, 0.0, 9.992661, 10.003567 
1.9654788e+3, 1.2515526e+2, -1013655.56, -1689416.4, 70415.97, 0.08776704, 0.2650691, -1006396.06, 707103.2, 0.2000744, 10.007708, 9.996499 
1.9654392e+3, 1.3515091e+2, -940782.2, -1640455.6, -3315.707, -0.010857954, 0.19121806, -940766.5, 674773.44, 0.14085698, 10.007139, 9.996399 
1.9654015e+3, 1.4514698e+2, -842236.06, -1470492.4, 19876.146, 0.055867728, 0.12591167, -841607.9, 675969.1, 0.08206751, 10.0063715, 9.997286 
1.9653632e+3, 1.551448e+2, -851241.94, -1443744.5, 22329.197, -0.0011973042, 0.18157157, -850401.6, 569196.06, 0.036262296, 10.005388, 9.997244 
1.965325e+3, 1.6514234e+2, -815740.0, -1310307.8, 54.121475, -0.008176719, 0.19105639, -815740.0, 505880.75, 0.010488942, 10.00453, 9.997902 
1.9652869e+3, 1.7513977e+2, -820442.0, -1266730.8, -1086.1378, 0.0058222674, 0.14495806, -820439.3, 403205.97, 0.0013504493, 10.003804, 9.997877 
1.9652486e+3, 1.8513757e+2, -787929.25, -1154862.6, -5421.2026, 0.0074516004, 0.1273907, -787849.2, 337817.03, 0.000014253208, 10.003153, 9.998286 
1.9652101e+3, 1.9513589e+2, -776381.4, -1101959.3, -4867.852, 0.00644934, 0.13484295, -776308.6, 251373.55, 0.0, 10.002574, 9.998256 
1.9651721e+3, 2.0513444e+2, -759269.7, -986196.2, 11277.107, 0.016437272, 0.14738776, -758710.6, 170985.89, 0.0, 10.001773, 9.998764 
1.9651344e+3, 2.1513323e+2, -809789.8, -962424.9, 10760.495, 0.03289918, 0.15562116, -809034.94, 22673.496, 0.0, 10.000763, 9.998741 
1.9650961e+3, 2.2513211e+2, -778531.2, -834441.4, -8616.158, 0.030015424, 0.1504313, -777233.5, -43513.83, 0.0, 10.000039, 9.999296 
1.9650576e+3, 2.351311e+2, -746891.56, -770477.9, -8816.148, 0.010391423, 0.12488619, -743960.5, -108231.195, 0.0, 9.999591, 9.999279 
1.965019e+3, 2.4513069e+2, -706143.0, -612977.5, 5170.2144, -0.014216983, 0.1260661, -612691.44, -74958.0, 0.0, 9.998823, 10.000055 
1.9649805e+3, 2.5513098e+2, -767279.4, -594441.7, 3608.0735, -0.045344878, 0.15187396, -594366.4, -154635.61, 0.0, 9.997745, 10.00003 
1.9649424e+3, 2.6513124e+2, -741936.8, -467968.3, -5491.911, -0.03751192, 0.15697278, -467858.25, -126130.28, 0.0, 9.996974, 10.000596 
1.9649047e+3, 2.7513146e+2, -718906.7, -410228.2, -18366.045, 0.012884972, 0.122933194, -409139.28, -165414.17, 0.0, 9.996476, 10.000559 
1.964867e+3, 2.8513202e+2, -712672.06, -326123.1, 901.4496, 0.051953424, 0.119660586, -326120.97, -180401.0, 0.0, 9.995715, 10.000831 
1.9648294e+3, 2.9513335e+2, -751719.7, -279984.28, 11741.67, 0.06598805, 0.17238611, -279692.22, -231984.19, 0.0, 9.994714, 10.000957 
1.9647895e+3, 3.051343e+2, -746682.6, -174993.38, -42061.12, -0.11547348, 0.14194153, -171915.36, -171915.36, 0.0, 9.99408, 10.001651 
1.9647516e+3, 3.1513566e+2, -648449.94, 89567.55, 65624.99, -0.0027556785, 0.12901683, 95357.54, 95357.54, 0.0, 9.993819, 10.0035925 
1.9754863e+3, 1.251924e+2, -1032596.5, -1725235.4, 57089.51, 0.066661194, 0.1275576, -1027922.56, 685210.3, 0.20824195, 10.007744, 9.996205 
1.9754462e+3, 1.3519005e+2, -949164.8, -1645034.8, -19838.135, -0.021684678, 0.25583774, -948599.75, 666557.06, 0.14719515, 10.00712, 9.996379 
1.9754073e+3, 1.4518644e+2, -856698.4, -1490298.8, -11356.2705, 0.012196695, 0.22779888, -856494.94, 660696.94, 0.08625303, 10.006348, 9.997152 
1.9753687e+3, 1.5518272e+2, -861313.4, -1464367.6, -10477.677, 0.012641916, 0.14769673, -861131.4, 558095.25, 0.03844571, 10.005392, 9.997102 
1.9753298e+3, 1.6517997e+2, -815601.2, -1312222.1, -25873.547, 0.020855226, 0.13243528, -814256.9, 506995.75, 0.011298633, 10.0045395, 9.997886 
1.9752906e+3, 1.7517813e+2, -821095.25, -1269460.1, -26098.178, 0.008719104, 0.16272627, -819581.25, 403688.63, 0.0015146579, 10.003808, 9.997858 
1.9752516e+3, 1.8517612e+2, -787035.25, -1153265.8, -25631.924, -0.0031832007, 0.16432564, -785250.0, 340038.94, 0.000019590076, 10.003151, 9.9983 
1.9752127e+3, 1.9517411e+2, -775747.7, -1100273.5, -24731.426, -0.0052364427, 0.13708495, -773873.8, 253434.31, 0.0, 10.002569, 9.998272 
1.9751738e+3, 2.0517245e+2, -758742.44, -985334.2, -25179.908, 0.01114756, 0.12911764, -755978.06, 173345.88, 0.0, 10.00177, 9.998774 
1.975135e+3, 2.151712e+2, -808874.3, -961706.44, -24365.42, 0.041141484, 0.13103537, -805083.9, 26251.857, 0.0, 10.000765, 9.998748 
1.975096e+3, 2.251702e+2, -776268.3, -831632.8, -24020.521, 0.026864046, 0.13639548, -767299.6, -33953.84, 0.0, 10.000043, 9.999314 
1.9750567e+3, 2.351695e+2, -745627.7, -768941.25, -23963.912, -0.027253794, 0.13860136, -730635.8, -95282.625, 0.0, 9.999592, 9.9992895 
1.9750176e+3, 2.4516921e+2, -705466.2, -613269.3, -34965.406, -0.026176544, 0.15187114, -601508.94, -64152.543, 0.0, 9.998827, 10.000054 
1.9749789e+3, 2.551694e+2, -766457.9, -595356.56, -35790.66, 0.022831827, 0.16883154, -588171.6, -148817.13, 0.0, 9.997751, 10.000022 
1.97494e+3, 2.6516944e+2, -759359.3, -506639.22, -24256.717, 0.021288928, 0.16767038, -504332.06, -162978.08, 0.0, 9.996982, 10.000328 
1.9749008e+3, 2.751695e+2, -735948.75, -449382.0, -37005.324, -0.01998472, 0.14333272, -444680.5, -201327.0, 0.0, 9.996489, 10.000286 
1.974862e+3, 2.8516996e+2, -702999.44, -308948.88, -38104.113, -0.007829489, 0.13685246, -305298.1, -159949.08, 0.0, 9.995725, 10.000946 
1.9748238e+3, 2.9517093e+2, -741531.75, -262980.47, -25365.94, 0.034339063, 0.14147545, -261639.7, -214300.56, 0.0, 9.994727, 10.00107 
1.9747847e+3, 3.0517197e+2, -777904.6, -244413.25, -56600.51, 0.010766041, 0.13887994, -238474.36, -238474.36, 0.0, 9.994097, 10.001166 
1.9747452e+3, 3.151737e+2, -696190.5, -22659.127, 13376.528, -0.023688754, 0.21278554, -22393.57, -22393.57, 0.0, 9.993868, 10.002801 
1.9854942e+3, 1.2523171e+2, -965391.25, -1691654.1, 73220.47, 0.05234568, 0.1228428, -958082.9, 754664.4, 0.21644332, 10.008434, 9.996131 
1.9854534e+3, 1.3522935e+2, -962890.06, -1640316.9, 3999.0112, 0.0026515962, 0.24201283, -962866.44, 651905.2, 0.15360852, 10.007009, 9.996464 
1.9854133e+3, 1.4522597e+2, -899422.06, -1519383.6, 29838.744, 0.0020604902, 0.23832059, -897989.25, 618815.56, 0.09052308, 10.006095, 9.997057 
1.9853741e+3, 1.5522209e+2, -845564.4, -1465559.5, 32722.379, 0.013947129, 0.15083957, -843842.1, 574999.6, 0.040689718, 10.005562, 9.997009 
1.9853345e+3, 1.6521925e+2, -778748.4, -1298059.9, 16370.483, 0.025000395, 0.13483548, -778232.8, 542635.75, 0.012135813, 10.004824, 9.997844 
1.9852944e+3, 1.7521743e+2, -808925.7, -1267988.5, 13345.028, 0.0036787891, 0.17318876, -808538.06, 414347.3, 0.0016864506, 10.003917, 9.997813 
1.9852546e+3, 1.8521541e+2, -803018.7, -1164996.1, 16298.965, -0.009142263, 0.17839175, -802286.25, 322618.25, 0.000025644316, 10.003062, 9.9982605 
1.985215e+3, 1.9521333e+2, -823412.06, -1127219.6, 12181.867, -0.004801756, 0.14887246, -822924.4, 204000.08, 0.0, 10.002262, 9.998233 
1.9851755e+3, 2.0521158e+2, -779272.0, -994107.1, 7719.513, 0.008463048, 0.13267791, -778995.0, 149946.05, 0.0, 10.001628, 9.99878 
1.9851358e+3, 2.152102e+2, -753254.5, -933840.0, 6172.539, 0.02652352, 0.121743694, -753043.8, 77909.6, 0.0, 10.001146, 9.998754 
1.985096e+3, 2.2520919e+2, -736362.25, -813939.2, 3633.0967, 0.013612096, 0.12923372, -736192.44, -3229.1643, 0.0, 10.000327, 9.999298 
1.985056e+3, 2.3520863e+2, -805504.2, -799134.8, 1207.5415, -0.025687195, 0.14789428, -798913.56, -163943.83, 0.0, 9.999191, 9.999273 
1.9850162e+3, 2.4520831e+2, -779130.5, -660481.94, -14312.812, -0.015545343, 0.16550304, -658779.75, -121806.4, 0.0, 9.998379, 9.999943 
1.9849767e+3, 2.5520828e+2, -757443.0, -603235.1, -23758.54, 0.03751884, 0.172236, -599657.7, -160684.02, 0.0, 9.99787, 9.999908 
1.984937e+3, 2.6520818e+2, -726014.44, -500298.6, -2262.686, 0.03347384, 0.16711803, -500275.9, -159301.11, 0.0, 9.997255, 10.000238 
1.9848973e+3, 2.752083e+2, -737999.44, -459676.6, -3650.093, -0.015482241, 0.15439096, -459628.72, -216654.05, 0.0, 9.99652, 10.000197 
1.9848576e+3, 2.852088e+2, -694164.8, -295204.66, -9672.129, -0.013239011, 0.15710175, -294970.3, -150001.05, 0.0, 9.9957485, 10.001026 
1.9848184e+3, 2.952097e+2, -711586.56, -245208.72, -627.3227, 0.020314302, 0.1478775, -245207.88, -198248.6, 0.0, 9.994925, 10.001094 
1.9847792e+3, 3.052105e+2, -788745.06, -270016.97, -11085.189, 0.04087356, 0.13343461, -269780.2, -269780.2, 0.0, 9.994113, 10.000981 
1.9847381e+3, 3.1521228e+2, -773313.1, -57637.33, 41272.926, -0.096370205, 0.22491217, -55264.99, -55264.99, 0.0, 9.993332, 10.002817 
1.9955023e+3, 1.2527281e+2, -976562.56, -1688030.0, 24962.121, 0.03243198, 0.21358642, -975687.8, 736658.2, 0.224644, 10.00837, 9.996197 
1.9954608e+3, 1.3526888e+2, -959264.25, -1621860.3, -37527.883, 0.05265924, 0.16175729, -957145.56, 657238.6, 0.1600551, 10.007016, 9.996591 
1.9954196e+3, 1.4526568e+2, -903140.8, -1527967.6, 12657.056, 0.016499093, 0.17517656, -902884.5, 613530.94, 0.0948467, 10.00612, 9.996988 
1.9953793e+3, 1.5526274e+2, -852067.9, -1475151.6, 14369.108, 0.0016489145, 0.18694559, -851736.7, 566707.75, 0.042980976, 10.005551, 9.99695 
1.995339e+3, 1.6526002e+2, -787855.5, -1312466.5, -16056.65, 0.0036519265, 0.19006586, -787364.5, 533105.9, 0.012997357, 10.004806, 9.997754 
1.9952981e+3, 1.752576e+2, -814991.0, -1281253.0, -18272.053, -0.0109279705, 0.17670658, -814276.0, 408216.75, 0.0018645518, 10.003917, 9.997724 
1.9952574e+3, 1.8525538e+2, -808712.4, -1179058.8, -12314.823, -0.013869823, 0.17215554, -808303.3, 316210.4, 0.000032100925, 10.003068, 9.998163 
1.9952174e+3, 1.9525348e+2, -829418.75, -1141927.5, -15041.395, 0.0047928724, 0.1707054, -828696.44, 197835.63, 0.0, 10.002268, 9.998131 
1.995177e+3, 2.0525168e+2, -780198.75, -997717.2, -9031.5, 0.0061018523, 0.15730159, -779824.4, 148724.38, 0.0, 10.001632, 9.998755 
1.9951366e+3, 2.1525009e+2, -755565.44, -938301.2, -10292.343, -0.012563324, 0.12666748, -754987.56, 75575.164, 0.0, 10.001142, 9.998727 
1.995096e+3, 2.2524899e+2, -739340.6, -820596.1, -38106.215, -0.010335481, 0.12813145, -724266.5, 8306.899, 0.0, 10.000325, 9.999255 
1.9950554e+3, 2.3524845e+2, -808658.2, -806748.7, -39178.47, 0.012163213, 0.15325546, -768513.3, -133933.48, 0.0, 9.999192, 9.999224 
1.9950147e+3, 2.4524795e+2, -794926.44, -695639.06, -32864.84, 0.013646821, 0.16699308, -685746.25, -149160.78, 0.0, 9.998384, 9.999701 
1.9949742e+3, 2.5524753e+2, -771935.94, -636855.56, -41595.613, -0.0054184245, 0.16050524, -625074.44, -186484.95, 0.0, 9.997882, 9.999674 
1.9949338e+3, 2.6524737e+2, -719084.44, -489663.47, -30347.322, -0.0017881097, 0.15607259, -485717.06, -145125.53, 0.0, 9.997268, 10.000307 
1.994894e+3, 2.7524766e+2, -731060.1, -450534.7, -31498.244, 0.024099126, 0.15671013, -447041.47, -204451.6, 0.0, 9.996538, 10.000254 
1.9948538e+3, 2.852484e+2, -689414.06, -289385.06, -41676.613, 0.033426598, 0.17969754, -285089.16, -140506.92, 0.0, 9.995764, 10.0010605 
1.9948132e+3, 2.9524955e+2, -714275.6, -255455.3, -32330.46, 0.019451547, 0.18788587, -253188.34, -206618.05, 0.0, 9.994941, 10.001017 
1.9947724e+3, 3.0524987e+2, -775633.1, -248196.66, -42241.06, -0.03656176, 0.1285093, -244835.11, -244835.11, 0.0, 9.994131, 10.001124 
1.9947316e+3, 3.1525174e+2, -721695.3, 49660.42, -36248.723, -0.065522656, 0.20450117, 51360.13, 51360.13, 0.0, 9.993333, 10.003552 
2.0055102e+3, 1.2531433e+2, -1056705.3, -1720146.5, 44276.965, 0.03474315, 0.24607493, -1053763.3, 658177.4, 0.23287328, 10.00769, 9.996262 
2.0054679e+3, 1.3531007e+2, -939909.5, -1610691.4, -14108.507, 0.051442545, 0.16508375, -939612.9, 674369.0, 0.16653597, 10.007236, 9.99656 
2.0054255e+3, 1.453071e+2, -862574.7, -1506066.6, 36108.773, -0.0073449183, 0.20408617, -860554.8, 655455.94, 0.09921549, 10.006462, 9.996976 
2.0053849e+3, 1.5530413e+2, -882269.06, -1491213.6, 38566.848, 0.015309905, 0.21618542, -879836.2, 538203.7, 0.045314185, 10.005354, 9.996934 
2.0053437e+3, 1.653013e+2, -833497.6, -1340390.6, 16091.667, 0.02052584, 0.21221423, -832987.25, 487079.66, 0.013882518, 10.004519, 9.997699 
2.0053019e+3, 1.7529866e+2, -815629.2, -1287799.0, 14903.621, -0.021679705, 0.1840081, -815159.25, 406931.94, 0.0020489471, 10.003944, 9.9976635 
2.0052604e+3, 1.8529633e+2, -782337.0, -1176353.8, 20594.459, -0.028555043, 0.17528819, -781263.44, 342849.72, 0.00003871262, 10.003298, 9.998069 
2.0052196e+3, 1.9529441e+2, -791309.9, -1133375.4, 16788.008, 0.006674161, 0.18079156, -790487.94, 235643.72, 0.0, 10.002578, 9.998037 
2.0051786e+3, 2.0529252e+2, -772719.7, -999292.4, 23214.494, 0.012889291, 0.16744325, -770365.56, 157783.4, 0.0, 10.00171, 9.998705 
2.0051375e+3, 2.1529078e+2, -822045.75, -976351.06, 18981.186, -0.010936335, 0.12924723, -819745.1, 10419.133, 0.0, 10.000714, 9.99867 
2.0050962e+3, 2.2528961e+2, -792894.9, -852018.4, -11785.25, -0.0064186254, 0.12885408, -790632.3, -58456.605, 0.0, 9.999986, 9.999202 
2.0050548e+3, 2.3528904e+2, -767437.5, -793104.94, -15487.184, 0.02536749, 0.15701245, -760157.56, -125975.27, 0.0, 9.999505, 9.999165 
2.0050134e+3, 2.452884e+2, -723081.7, -663378.1, 6511.8975, 0.02125464, 0.16377272, -662676.1, -126487.266, 0.0, 9.99889, 9.999678 
2.004972e+3, 2.5528786e+2, -735976.1, -621267.0, 13084.869, -0.015548218, 0.14397866, -619793.4, -181599.23, 0.0, 9.99814, 9.999655 
2.004931e+3, 2.6528776e+2, -727375.6, -493885.03, 19182.984, -0.012036894, 0.14715225, -492319.5, -152123.78, 0.0, 9.997217, 10.0002985 
2.0048904e+3, 2.752882e+2, -788248.4, -478190.13, 12551.265, 0.029661343, 0.17014773, -477682.88, -235490.44, 0.0, 9.996151, 10.000248 
2.0048495e+3, 2.8528893e+2, -732277.6, -303438.97, 11126.298, 0.04536524, 0.18646218, -303150.47, -158964.95, 0.0, 9.995445, 10.001115 
2.0048082e+3, 2.9528987e+2, -711129.8, -255870.66, 17483.443, 0.033431515, 0.17454588, -255200.22, -209024.83, 0.0, 9.994974, 10.000996 
2.004766e+3, 3.0529064e+2, -766737.9, -214695.48, 5579.432, -0.081262246, 0.14874406, -214639.11, -214639.11, 0.0, 9.994068, 10.001384 
2.0047252e+3, 3.152917e+2, -763670.5, 69129.67, 14597.182, 0.0014237687, 0.1113881, 69385.445, 69385.445, 0.0, 9.992887, 10.003896 
2.0155181e+3, 1.2535621e+2, -1061421.1, -1709465.8, 15657.905, 0.050597098, 0.22292392, -1061043.1, 650489.0, 0.24134226, 10.007671, 9.996344 
2.0154744e+3, 1.3535273e+2, -957846.44, -1635561.8, -26737.91, 0.0018744961, 0.23743856, -956793.2, 656773.2, 0.17317447, 10.007205, 9.996404 
2.0154312e+3, 1.4535001e+2, -869113.7, -1508416.1, 365.46112, -0.068779066, 0.30767384, -869113.44, 646479.4, 0.10368505, 10.006436, 9.996972 
2.0153905e+3, 1.5534624e+2, -883982.56, -1492863.9, 926.9963, 0.048258092, 0.24006902, -883981.1, 533647.7, 0.04770765, 10.005354, 9.996923 
2.0153487e+3, 1.6534309e+2, -835661.6, -1346907.0, -4482.5684, 0.06668773, 0.20841156, -835622.3, 484036.0, 0.014796254, 10.004528, 9.997652 
2.0153056e+3, 1.7534056e+2, -818947.0, -1296231.6, -4950.2993, -0.030896787, 0.19497506, -818895.7, 402785.97, 0.0022411097, 10.003948, 9.997606 
2.0152634e+3, 1.8533814e+2, -789398.7, -1191707.8, -5199.076, -0.054121535, 0.18627201, -789331.5, 334372.63, 0.000045408513, 10.003297, 9.997965 
2.015222e+3, 1.9533598e+2, -798069.3, -1148468.3, -8581.602, -0.0010388484, 0.180043, -797859.25, 227864.9, 0.0, 10.002579, 9.997935 
2.0151804e+3, 2.0533398e+2, -777333.44, -1010963.7, -12775.648, 0.026462507, 0.163582, -776636.9, 151105.83, 0.0, 10.001715, 9.998624 
2.0151384e+3, 2.1533222e+2, -827352.06, -988984.06, -15642.892, 0.027016524, 0.13042112, -825852.06, 3906.818, 0.0, 10.000717, 9.998584 
2.0150962e+3, 2.2533098e+2, -798526.0, -866050.25, -28644.773, 0.02119404, 0.13223109, -788011.7, -56240.688, 0.0, 9.999991, 9.9991045 
2.0150541e+3, 2.353303e+2, -772604.5, -805931.25, -32162.146, 0.011437145, 0.15921043, -753045.4, -119267.11, 0.0, 9.99951, 9.999076 
2.015012e+3, 2.4532962e+2, -708143.8, -635232.94, -21037.316, 0.006794141, 0.15637036, -629598.4, -93813.87, 0.0, 9.9988985, 9.999869 
2.0149702e+3, 2.553291e+2, -722190.2, -595843.56, -14784.78, 0.0044946396, 0.12231775, -594136.56, -156347.97, 0.0, 9.99815, 9.999826 
2.0149282e+3, 2.6532918e+2, -732932.0, -508099.34, -21318.367, -0.0006985762, 0.14014976, -506095.8, -166307.47, 0.0, 9.997225, 10.000199 
2.0148861e+3, 2.7532986e+2, -791068.7, -487958.84, -25002.867, -0.0052454947, 0.19284727, -485910.25, -244126.7, 0.0, 9.996164, 10.000176 
2.0148446e+3, 2.8533024e+2, -727039.1, -295519.06, -6754.2983, 0.020435523, 0.1754332, -295413.34, -151633.13, 0.0, 9.995455, 10.001167 
2.0148034e+3, 2.9533064e+2, -707769.3, -252955.4, -3509.873, 0.06213621, 0.10494617, -252928.31, -207152.58, 0.0, 9.9949875, 10.001012 
2.0147598e+3, 3.0533278e+2, -735071.4, -152867.25, -38725.758, -0.10329897, 0.19717796, -150302.67, -150302.67, 0.0, 9.994081, 10.001805 
2.0147182e+3, 3.153338e+2, -776846.2, 38578.3, 33516.965, 0.0131493, 0.109932624, 39953.652, 39953.652, 0.0, 9.992902, 10.003677 
2.0255254e+3, 1.2539911e+2, -1108533.5, -1709497.3, 22747.795, 0.053103946, 0.24770331, -1107673.6, 603439.2, 0.25048846, 10.007202, 9.996567 
2.0254818e+3, 1.353955e+2, -1000749.44, -1661053.6, -596.8236, 0.022282338, 0.25149602, -1000748.94, 612399.7, 0.1802331, 10.006908, 9.996368 
2.0254377e+3, 1.4539263e+2, -884489.44, -1511608.4, 14404.623, -0.060602397, 0.30867982, -884158.7, 631017.3, 0.108377025, 10.006332, 9.996997 
2.0253958e+3, 1.5538876e+2, -872560.4, -1484601.8, 15703.612, 0.041409317, 0.23179181, -872157.7, 545054.6, 0.05020359, 10.005443, 9.996936 
2.0253532e+3, 1.6538563e+2, -817939.3, -1344372.8, 24473.377, 0.063825935, 0.20413157, -816804.06, 502437.6, 0.015750522, 10.004687, 9.997589 
2.0253097e+3, 1.7538318e+2, -807784.7, -1297285.6, 21978.506, -0.012561313, 0.2062198, -806799.9, 414464.38, 0.0024441322, 10.004058, 9.997543 
2.0252669e+3, 1.8538068e+2, -782057.2, -1190902.8, 20320.957, -0.0306094, 0.19428, -781049.6, 342237.84, 0.000052349504, 10.003364, 9.997936 
2.0252246e+3, 1.9537827e+2, -794870.1, -1151330.8, 20116.629, 0.012343352, 0.16753623, -793738.44, 231571.27, 0.0, 10.002623, 9.997894 
2.0251821e+3, 2.0537625e+2, -765537.06, -1022125.8, 10055.172, 0.034621418, 0.15863262, -765143.6, 162185.23, 0.0, 10.001872, 9.99847 
2.0251393e+3, 2.1537465e+2, -780352.56, -982157.56, 234.12117, 0.035243493, 0.15761288, -780352.3, 48991.887, 0.0, 10.001113, 9.998438 
2.0250964e+3, 2.2537328e+2, -755672.2, -846265.94, -3678.0923, 0.023659881, 0.15608986, -755523.06, -24165.803, 0.0, 10.000293, 9.999093 
2.0250535e+3, 2.3537225e+2, -787334.3, -814200.1, -1323.4553, 0.0031379622, 0.14839336, -787269.3, -153902.06, 0.0, 9.999417, 9.999063 
2.0250107e+3, 2.4537154e+2, -758392.44, -660950.2, 940.2656, 0.0029142161, 0.14422934, -660941.1, -125567.37, 0.0, 9.998565, 9.99985 
2.0249681e+3, 2.5537127e+2, -783595.8, -627407.4, -9896.567, 0.018160323, 0.1393846, -626782.8, -189406.9, 0.0, 9.997741, 9.999805 
2.0249254e+3, 2.6537138e+2, -756484.94, -511367.34, -17718.643, 0.006773657, 0.15780991, -510093.16, -170717.94, 0.0, 9.997031, 10.00027 
2.0248821e+3, 2.7537182e+2, -752275.75, -461013.66, -9435.781, -0.021244306, 0.18266042, -460708.28, -219336.67, 0.0, 9.996398, 10.000247 
2.0248398e+3, 2.8537217e+2, -707197.2, -280591.94, 17342.701, 0.0040222267, 0.15361746, -279888.06, -136519.27, 0.0, 9.995572, 10.00121 
2.0247981e+3, 2.9537278e+2, -760983.56, -267485.94, 18089.57, 0.06058241, 0.10031709, -266823.75, -221461.03, 0.0, 9.994581, 10.001105 
2.0247538e+3, 3.0537537e+2, -761412.5, -175818.25, -30167.742, -0.07625426, 0.23155056, -174268.22, -174268.22, 0.0, 9.993945, 10.001712 
2.0247115e+3, 3.1537616e+2, -708168.25, 22257.19, 36974.06, 0.027859975, 0.13829912, 24124.041, 24124.041, 0.0, 9.993589, 10.003233 
2.0355323e+3, 1.2544298e+2, -1103515.1, -1681726.6, 1003.2925, 0.034001756, 0.31476182, -1103513.4, 607170.25, 0.26082063, 10.007197, 9.996828 
2.0354892e+3, 1.354384e+2, -1007736.06, -1660495.4, -7170.8867, 0.09494418, 0.22135207, -1007657.3, 605070.6, 0.18801808, 10.006889, 9.996383 
2.0354445e+3, 1.4543508e+2, -886796.7, -1507471.4, -13568.352, 0.00052726234, 0.22855535, -886500.2, 628259.3, 0.11343619, 10.006321, 9.997036 
2.0354006e+3, 1.5543169e+2, -870781.5, -1480499.1, -14030.75, -0.0028757714, 0.19427057, -870458.8, 546332.2, 0.05285659, 10.005452, 9.996962 
2.0353574e+3, 1.654288e+2, -822766.4, -1356747.9, 2338.328, 0.016465854, 0.19650078, -822756.1, 496061.72, 0.016763214, 10.004697, 9.997501 
2.0353141e+3, 1.7542647e+2, -813072.5, -1309239.5, 235.74742, 0.02868369, 0.21792263, -813072.4, 407767.47, 0.0026629227, 10.004059, 9.997462 
2.0352708e+3, 1.8542388e+2, -781050.3, -1189088.8, -6399.022, 0.033892717, 0.20041929, -780950.0, 341914.06, 0.00006006165, 10.003362, 9.9979515 
2.0352276e+3, 1.9542122e+2, -795072.06, -1152165.4, -5775.9897, 0.04229039, 0.14593138, -794978.6, 229910.22, 0.0, 10.002621, 9.99789 
2.0351839e+3, 2.0541921e+2, -781783.1, -1057285.6, -17260.252, 0.03562074, 0.15426978, -780706.0, 146202.13, 0.0, 10.001874, 9.99823 
2.0351401e+3, 2.1541795e+2, -795395.8, -1015049.0, -26109.697, 0.013130055, 0.20991294, -792334.9, 36586.465, 0.0, 10.001117, 9.998212 
2.0350964e+3, 2.254164e+2, -749592.0, -836108.3, -35341.645, 0.0004303578, 0.19885609, -736990.5, -6054.7046, 0.0, 10.000299, 9.999162 
2.0350528e+3, 2.3541477e+2, -782929.75, -806298.4, -32234.084, -0.0019231713, 0.124144256, -760327.6, -127377.39, 0.0, 9.999419, 9.999118 
2.0350093e+3, 2.4541405e+2, -774979.94, -697840.5, -29745.1, 0.0071927216, 0.12854609, -687703.0, -152745.56, 0.0, 9.998571, 9.999597 
2.0349659e+3, 2.5541425e+2, -798041.94, -660677.94, -39817.82, 0.02234434, 0.1960902, -649970.56, -213013.56, 0.0, 9.99775, 9.999575 
2.0349222e+3, 2.654142e+2, -738236.2, -476836.9, -41742.945, 0.008459755, 0.19947025, -470332.8, -131375.36, 0.0, 9.997042, 10.000504 
2.0348784e+3, 2.7541402e+2, -735467.56, -430804.22, -33337.01, -0.021872252, 0.13578153, -427199.06, -186240.95, 0.0, 9.996414, 10.000449 
2.0348352e+3, 2.854146e+2, -703991.75, -277132.7, -21428.611, -0.0064166947, 0.1224472, -276059.66, -133107.48, 0.0, 9.995583, 10.001231 
2.0347923e+3, 2.9541627e+2, -748028.5, -244300.48, -19050.963, 0.02496838, 0.17019896, -243581.0, -198644.52, 0.0, 9.994593, 10.001261 
2.0347485e+3, 3.0541798e+2, -805881.25, -271479.38, -44189.3, -0.0017095447, 0.2368019, -267850.03, -267850.03, 0.0, 9.993957, 10.001052 
2.0347045e+3, 3.1541812e+2, -708853.5, 7005.271, 43454.285, -0.025344782, 0.1553044, 9633.397, 9633.397, 0.0, 9.993639, 10.003109 
2.0455396e+3, 1.2548679e+2, -1072699.9, -1656840.9, 20240.29, 0.037455264, 0.27672905, -1071999.5, 638253.6, 0.27266097, 10.0075445, 9.996898 
2.045496e+3, 1.3548253e+2, -1047158.56, -1685552.0, 24502.95, 0.11016613, 0.22121353, -1046219.44, 566075.3, 0.19673288, 10.006632, 9.996333 
2.045451e+3, 1.4547901e+2, -920763.7, -1522573.1, 20247.76, 0.028106658, 0.21352674, -920083.2, 594245.1, 0.118968606, 10.006086, 9.997038 
2.0454063e+3, 1.554758e+2, -826646.0, -1458004.3, 16576.389, 0.005691937, 0.19841276, -826211.1, 590147.1, 0.055713747, 10.005792, 9.996951 
2.045362e+3, 1.6547285e+2, -770642.8, -1342853.5, 24510.117, 0.02108962, 0.19989927, -769594.8, 548791.2, 0.01785287, 10.00512, 9.997392 
2.0453182e+3, 1.754702e+2, -807348.7, -1318801.9, 19505.947, 0.046406854, 0.20193712, -806605.9, 413805.3, 0.0029034987, 10.004154, 9.99735 
2.0452742e+3, 1.8546759e+2, -789704.5, -1198128.3, 12316.639, 0.051547788, 0.19158368, -789333.44, 333102.38, 0.00006955834, 10.003325, 9.997906 
2.0452301e+3, 1.9546518e+2, -800654.7, -1158484.3, 7806.429, 0.04651609, 0.16706336, -800484.5, 223973.97, 0.0, 10.002603, 9.997853 
2.0451857e+3, 2.0546313e+2, -774371.44, -1052963.6, 5821.7964, 0.029413704, 0.16976796, -774249.8, 152228.53, 0.0, 10.001926, 9.998232 
2.0451412e+3, 2.1546149e+2, -770332.06, -1003318.9, 12770.753, -0.0007513384, 0.19016673, -769634.1, 58860.473, 0.0, 10.001292, 9.998207 
2.0450966e+3, 2.2545996e+2, -731464.1, -833413.6, -2455.1519, -0.006028473, 0.18483344, -731405.06, -896.0577, 0.0, 10.000455, 9.999104 
2.045052e+3, 2.3545864e+2, -783041.75, -812651.1, -9876.095, 0.0123925805, 0.14943859, -780049.94, -147529.2, 0.0, 9.999449, 9.999058 
2.0450078e+3, 2.4545783e+2, -773658.1, -716037.3, 974.23315, 0.01730928, 0.15578096, -716020.8, -181491.47, 0.0, 9.998664, 9.999426 
2.0449635e+3, 2.5545758e+2, -763019.06, -660465.94, -3423.483, 0.0077744005, 0.19422564, -660351.8, -223817.97, 0.0, 9.998066, 9.999422 
2.0449191e+3, 2.6545745e+2, -699643.56, -439899.63, -10027.03, -0.0055356156, 0.19096155, -439513.13, -100978.55, 0.0, 9.9972315, 10.000664 
2.0448747e+3, 2.754576e+2, -759018.5, -425679.06, -8087.5215, -0.012415362, 0.14429665, -425482.94, -184951.61, 0.0, 9.996186, 10.000591 
2.0448306e+3, 2.854582e+2, -729660.06, -301084.6, 2036.4972, -0.00825577, 0.13424252, -301074.9, -158550.08, 0.0, 9.99546, 10.001124 
2.0447865e+3, 2.9545954e+2, -694634.06, -225195.39, -8031.84, -0.021195484, 0.16006769, -225058.02, -180545.4, 0.0, 9.99499, 10.001199 
2.0447429e+3, 3.0546147e+2, -782458.75, -280341.25, -23603.201, 0.03415279, 0.2549965, -279234.16, -279234.16, 0.0, 9.994212, 10.000863 
2.0446976e+3, 3.1546217e+2, -762364.94, 9636.255, 84277.69, -0.06330911, 0.25968575, 18729.559, 18729.559, 0.0, 9.993155, 10.003358 
2.0555471e+3, 1.2553078e+2, -1088604.0, -1666943.3, -14196.199, 0.044959854, 0.17554736, -1088255.8, 621563.25, 0.28599378, 10.0075445, 9.99681 
2.0555022e+3, 1.3552764e+2, -1056728.5, -1697262.9, -350.36536, 0.073598735, 0.24115828, -1056728.3, 555122.9, 0.2063936, 10.006649, 9.996244 
2.0554568e+3, 1.4552417e+2, -926539.56, -1529382.9, 11161.652, 0.02543254, 0.24644567, -926332.94, 587552.1, 0.12500612, 10.006093, 9.99699 
2.0554124e+3, 1.5552099e+2, -834050.56, -1467585.9, 6644.374, 0.056504305, 0.23987544, -833980.9, 581934.3, 0.05880252, 10.005776, 9.996895 
2.0553677e+3, 1.655177e+2, -783489.9, -1366129.1, -9831.559, 0.06535952, 0.21639529, -783324.0, 534622.6, 0.019035012, 10.005106, 9.997241 
2.0553222e+3, 1.7551431e+2, -817182.75, -1341857.8, -14011.853, 0.039765812, 0.16177525, -816808.8, 403170.0, 0.003172103, 10.004163, 9.9971895 
2.0552771e+3, 1.8551175e+2, -794949.1, -1212829.6, -13019.492, 0.025389673, 0.16900975, -794543.9, 327459.47, 0.00008216845, 10.003338, 9.997801 
2.0552324e+3, 1.9551007e+2, -805353.5, -1170964.1, -16685.113, 0.026163695, 0.22660199, -804593.6, 219426.03, 0.0, 10.002611, 9.997766 
2.0551872e+3, 2.055078e+2, -758260.44, -1021477.5, -16432.664, 0.014946422, 0.20193633, -757238.5, 168802.27, 0.0, 10.001931, 9.998447 
2.0551424e+3, 2.1550518e+2, -757624.56, -976357.8, -9299.831, -0.009295192, 0.10242647, -757229.9, 70834.83, 0.0, 10.0012865, 9.998397 
2.0550972e+3, 2.2550386e+2, -745715.5, -863920.25, -38965.203, 0.0015731985, 0.11912593, -734026.8, -3949.3123, 0.0, 10.000454, 9.998897 
2.0550518e+3, 2.3550375e+2, -796214.06, -842140.06, -45316.65, 0.043367755, 0.22491547, -768374.56, -136294.78, 0.0, 9.9994545, 9.998855 
2.0550066e+3, 2.4550271e+2, -778769.2, -729591.06, -21384.041, 0.030990735, 0.22469218, -721593.3, -187502.63, 0.0, 9.998673, 9.99933 
2.0549612e+3, 2.5550103e+2, -767457.8, -672775.56, -25927.121, -0.02865838, 0.13072158, -666140.75, -230033.17, 0.0, 9.9980755, 9.999335 
2.054916e+3, 2.6550096e+2, -693532.6, -429802.6, -49999.703, -0.03741623, 0.13263582, -420641.53, -82533.91, 0.0, 9.997239, 10.000731 
2.054871e+3, 2.7550244e+2, -752529.06, -415247.8, -46607.06, 0.003549485, 0.21235603, -408925.94, -168833.9, 0.0, 9.996195, 10.000662 
2.0548259e+3, 2.8550285e+2, -745671.3, -338410.75, -15928.629, -0.005166307, 0.18861768, -337788.72, -195700.72, 0.0, 9.995473, 10.000863 
2.0547807e+3, 2.955023e+2, -710802.6, -267476.9, -26116.39, -0.08316222, 0.057082232, -265943.7, -221850.11, 0.0, 9.995024, 10.000895 
2.054737e+3, 3.055056e+2, -763115.7, -243178.98, -67913.66, 0.030669825, 0.29546243, -234454.55, -234454.55, 0.0, 9.994223, 10.001115 
2.0546909e+3, 3.1550604e+2, -759647.9, 14920.551, -24332.988, -0.01614877, 0.240597, 15684.216, 15684.216, 0.0, 9.993145, 10.003405 
2.0655547e+3, 1.2557612e+2, -1069251.9, -1667011.0, -10947.836, 0.043499388, 0.14999886, -1069051.4, 640321.94, 0.30049628, 10.00795, 9.99662 
2.065509e+3, 1.3557316e+2, -1013679.2, -1672895.1, 8303.443, 0.071446516, 0.24444117, -1013574.6, 597829.3, 0.21684225, 10.007121, 9.996183 
2.065463e+3, 1.4556949e+2, -906219.25, -1516440.4, 31064.639, 0.049707234, 0.22993115, -904641.94, 608798.44, 0.13150561, 10.006293, 9.996984 
2.0654182e+3, 1.5556638e+2, -875846.0, -1489745.0, 28786.861, 0.07387586, 0.23212658, -874499.06, 540970.94, 0.062126536, 10.005493, 9.996879 
2.0653726e+3, 1.6556312e+2, -815380.06, -1384833.9, 15512.116, 0.07074796, 0.21697716, -814957.8, 502543.28, 0.020318631, 10.004902, 9.9972105 
2.0653264e+3, 1.755598e+2, -776162.8, -1324636.8, 19536.451, 0.03208366, 0.17023377, -775467.8, 444065.3, 0.0034732225, 10.004461, 9.997163 
2.0652805e+3, 1.8555713e+2, -729423.7, -1184632.4, 24565.88, 0.016091967, 0.17135102, -728101.75, 393456.9, 0.0000990456, 10.003808, 9.9977665 
2.0652351e+3, 1.9555523e+2, -753603.06, -1149709.3, 23899.906, 0.022702787, 0.21234031, -752166.2, 271410.78, 0.0, 10.002984, 9.997731 
2.0651892e+3, 2.0555298e+2, -737031.44, -1004349.94, 18168.29, 0.013875156, 0.18947437, -735802.3, 189795.36, 0.0, 10.00205, 9.998507 
2.0651433e+3, 2.1555057e+2, -792356.94, -986966.44, 12072.241, -0.008910074, 0.10454552, -791610.9, 36008.402, 0.0, 10.001026, 9.998446 
2.0650974e+3, 2.2554918e+2, -771088.1, -897094.2, -14999.586, 0.00046951688, 0.122310385, -769327.2, -39694.07, 0.0, 10.000375, 9.998705 
2.0650515e+3, 2.355488e+2, -725320.56, -827152.1, -21484.197, 0.037902866, 0.22130872, -720973.5, -89334.57, 0.0, 10.000029, 9.998679 
2.0650053e+3, 2.4554771e+2, -693375.8, -669390.25, 5639.705, 0.0276449, 0.21770832, -668130.4, -134480.42, 0.0, 9.999181, 9.999496 
2.0649593e+3, 2.5554618e+2, -779736.3, -662205.75, 19839.291, -0.02444873, 0.12070379, -658947.25, -223282.8, 0.0, 9.997924, 9.999478 
2.064913e+3, 2.6554614e+2, -730068.7, -477605.3, -2913.804, -0.03730259, 0.13379744, -477571.7, -139907.16, 0.0, 9.997121, 10.000459 
2.0648672e+3, 2.7554756e+2, -699630.9, -417105.44, -27081.209, -0.0072021238, 0.23859687, -414533.03, -174882.27, 0.0, 9.996678, 10.000415 
2.0648216e+3, 2.855478e+2, -702842.7, -308893.34, 263.45966, -0.011952763, 0.20416692, -308893.16, -167244.48, 0.0, 9.995732, 10.000939 
2.0647754e+3, 2.9554692e+2, -807559.5, -308055.78, 13730.867, -0.07539833, 0.02933115, -307678.63, -264021.72, 0.0, 9.99434, 10.000942 
2.0647307e+3, 3.0555072e+2, -821189.8, -206842.25, 8579.141, 0.01793476, 0.29121006, -206722.47, -206722.47, 0.0, 9.993553, 10.001683 
2.0646843e+3, 3.155497e+2, -753192.56, -23643.521, 36352.273, -0.00581061, 0.033069838, -21836.621, -21836.621, 0.0, 9.993369, 10.003032 
2.0755625e+3, 1.2562269e+2, -1102463.5, -1698638.5, -34329.168, 0.024743075, 0.19415711, -1100493.3, 608423.7, 0.315683, 10.007886, 9.996344 
2.0755161e+3, 1.3561915e+2, -1025780.94, -1682174.1, -13778.781, 0.09008822, 0.23655868, -1025491.8, 585461.06, 0.22782694, 10.0071125, 9.996126 
2.0754698e+3, 1.4561501e+2, -908873.06, -1515276.5, 6174.231, 0.08811175, 0.17762378, -908810.2, 604183.4, 0.13837849, 10.006306, 9.996985 
2.0754233e+3, 1.556119e+2, -874630.1, -1488634.1, 3308.5847, 0.05928149, 0.18090029, -874612.25, 540410.75, 0.0656703, 10.005516, 9.996878 
2.075377e+3, 1.6560906e+2, -808805.1, -1373053.6, 765.0999, 0.040889207, 0.20106466, -808804.06, 508246.4, 0.021704774, 10.004913, 9.997288 
2.0753306e+3, 1.7560646e+2, -771623.75, -1313877.5, 4208.2344, 0.022049656, 0.22095808, -771591.06, 447484.6, 0.0038082756, 10.004453, 9.997243 
2.0752844e+3, 1.8560357e+2, -730560.25, -1184734.5, -5065.337, 0.01937596, 0.19500874, -730503.75, 390599.47, 0.00012082915, 10.003794, 9.997774 
2.0752381e+3, 1.9560063e+2, -755099.9, -1151637.5, -5220.98, 0.03170423, 0.13133359, -755031.1, 268099.78, 0.0, 10.002975, 9.997725 
2.0751914e+3, 2.0559862e+2, -743994.25, -1019936.3, -18963.953, 0.023301408, 0.13839532, -742697.06, 182452.53, 0.0, 10.002051, 9.998402 
2.0751444e+3, 2.155975e+2, -799474.56, -1003709.75, -23016.943, -0.0024082859, 0.19291733, -796912.75, 30247.121, 0.0, 10.001031, 9.998331 
2.0750974e+3, 2.2559574e+2, -782406.25, -923429.5, -26750.203, -0.011356073, 0.19008403, -777502.56, -48325.09, 0.0, 10.000383, 9.998522 
2.075051e+3, 2.3559368e+2, -735558.8, -849777.7, -34294.414, -0.0057417485, 0.13812745, -726052.94, -94853.695, 0.0, 10.0000305, 9.998525 
2.0750041e+3, 2.4559276e+2, -664131.2, -610192.1, -41379.664, 0.005916957, 0.1367775, -587769.06, -54561.11, 0.0, 9.999185, 9.999904 
2.0749573e+3, 2.5559288e+2, -754404.94, -611792.9, -25626.826, 0.017482663, 0.16664429, -607327.6, -172122.53, 0.0, 9.99793, 9.999825 
2.0749104e+3, 2.6559284e+2, -773978.6, -571888.6, -19834.309, -0.0065131877, 0.195532, -569960.4, -232754.0, 0.0, 9.99713, 9.999808 
2.0748633e+3, 2.7559283e+2, -737316.3, -501685.06, -44893.023, -0.047364347, 0.2201977, -493421.72, -254212.39, 0.0, 9.996702, 9.999825 
2.0748168e+3, 2.8559288e+2, -671338.6, -248678.34, -55127.14, -0.03133934, 0.17843042, -241606.5, -100397.89, 0.0, 9.995749, 10.001347 
2.0747705e+3, 2.9559317e+2, -778425.7, -248835.0, -40239.902, -0.0031999475, 0.08001942, -245794.9, -202591.48, 0.0, 9.99434, 10.001351 
2.0747238e+3, 3.0559668e+2, -755412.7, -69493.016, 32.545116, -0.0050797383, 0.2408271, -69493.01, -69493.01, 0.0, 9.993548, 10.00263 
2.0746775e+3, 3.155974e+2, -814466.7, -156625.69, 33654.24, -0.020149771, 0.063071415, -154908.47, -154908.47, 0.0, 9.993392, 10.002109 
2.0855702e+3, 1.256695e+2, -1172868.0, -1732502.8, -12571.81, 0.06139593, 0.19935223, -1172585.6, 535872.8, 0.33106378, 10.00729, 9.996367 
2.085523e+3, 1.3566603e+2, -1018205.4, -1646890.3, 20311.6, 0.063236274, 0.22472923, -1017549.8, 592943.25, 0.23909058, 10.007153, 9.996347 
2.0854758e+3, 1.456619e+2, -872268.9, -1505474.1, 38714.105, 0.06306028, 0.16624476, -869910.7, 642622.44, 0.14552478, 10.006697, 9.996871 
2.0854287e+3, 1.5565878e+2, -814541.3, -1467668.1, 32701.023, 0.034642216, 0.17801915, -812908.1, 601655.06, 0.0694054, 10.006026, 9.996774 
2.0853819e+3, 1.6565588e+2, -767714.56, -1350970.9, 27295.57, 0.025513195, 0.19906981, -766440.0, 550151.25, 0.023186468, 10.005205, 9.997297 
2.085335e+3, 1.756533e+2, -799073.0, -1326369.6, 23956.367, 0.025730263, 0.21849707, -797986.8, 420629.88, 0.004175734, 10.004262, 9.997249 
2.0852879e+3, 1.8565045e+2, -777659.7, -1204252.4, 11456.126, 0.031318206, 0.19662309, -777352.25, 343291.63, 0.00014761277, 10.003457, 9.997802 
2.085241e+3, 1.9564757e+2, -784918.2, -1162700.9, 11303.617, 0.042854816, 0.13740365, -784580.25, 238090.8, 0.0, 10.00276, 9.99775 
2.0851934e+3, 2.0564558e+2, -739526.2, -1027070.1, -1788.3267, 0.028489571, 0.14765126, -739515.06, 185174.92, 0.0, 10.002128, 9.998313 
2.0851456e+3, 2.1564439e+2, -730398.94, -979001.6, -5371.817, -0.0065606083, 0.2074265, -730282.94, 96418.086, 0.0, 10.001546, 9.998251 
2.0850979e+3, 2.2564255e+2, -732282.25, -886152.4, 6572.082, -0.01902266, 0.19360293, -732002.0, -3282.8438, 0.0, 10.000675, 9.998635 
2.0850505e+3, 2.356403e+2, -794137.3, -866195.2, 18539.863, -0.01225143, 0.114704914, -789647.0, -158905.3, 0.0, 9.999581, 9.998627 
2.085003e+3, 2.4563944e+2, -725406.9, -648439.56, -4210.4355, 0.0015067311, 0.120384365, -648209.9, -115460.11, 0.0, 9.998804, 9.999823 
2.0849553e+3, 2.5563988e+2, -709594.94, -597499.56, -25442.742, 0.01924808, 0.18821089, -591995.0, -157250.05, 0.0, 9.998272, 9.999755 
2.0849074e+3, 2.656398e+2, -741216.2, -549885.6, -2871.7087, 0.00067035423, 0.2138906, -549842.56, -213095.78, 0.0, 9.997333, 9.999861 
2.0848599e+3, 2.756394e+2, -825972.8, -539720.2, 24325.537, -0.03804288, 0.19936396, -537667.75, -298915.03, 0.0, 9.996078, 9.999863 
2.0848122e+3, 2.8563958e+2, -744272.56, -285632.16, 13951.094, -0.02355727, 0.16796769, -285208.2, -144456.98, 0.0, 9.995259, 10.001328 
2.0847648e+3, 2.956404e+2, -718135.4, -217632.72, -5814.4116, 0.008550916, 0.1276397, -217565.17, -174823.94, 0.0, 9.994745, 10.001371 
2.0847173e+3, 3.0564347e+2, -673596.44, 18030.63, 13328.281, -0.023407485, 0.2219002, 18287.385, 18287.385, 0.0, 9.993904, 10.00306 
2.0846707e+3, 3.156463e+2, -905619.1, -228808.25, 19571.242, 0.011751299, 0.21575372, -228242.78, -228242.78, 0.0, 9.992892, 10.001853 
2.0955782e+3, 1.2571655e+2, -1171220.9, -1698940.9, -10542.198, 0.12934586, 0.17097536, -1171010.3, 536987.56, 0.34628516, 10.007312, 9.996618 
2.0955293e+3, 1.3571364e+2, -1006458.7, -1594545.8, 15347.604, -0.004590875, 0.20878617, -1006058.44, 603967.3, 0.25045237, 10.007147, 9.996744 
2.0954818e+3, 1.4570998e+2, -892594.25, -1535886.4, 16526.959, -0.017309746, 0.18747759, -892169.94, 619891.4, 0.15287271, 10.006671, 9.996669 
2.0954344e+3, 1.5570682e+2, -830027.8, -1494647.8, 10547.1045, -0.0015392223, 0.21596427, -829860.5, 584231.6, 0.07330735, 10.006014, 9.996595 
2.095387e+3, 1.6570352e+2, -774998.3, -1363720.6, -5626.485, 0.019048924, 0.20893109, -774944.56, 541179.8, 0.024754945, 10.005197, 9.997216 
2.0953391e+3, 1.7570026e+2, -804337.44, -1338322.9, -8154.092, 0.038823392, 0.16986305, -804212.94, 413943.44, 0.0045728376, 10.004264, 9.997168 
2.0952915e+3, 1.8569772e+2, -773758.6, -1198988.5, -12898.441, 0.04903606, 0.18045358, -773367.75, 346813.38, 0.00017911443, 10.003466, 9.997836 
2.0952436e+3, 1.9569589e+2, -782319.1, -1159380.1, -12314.502, 0.053678583, 0.22351342, -781917.4, 240281.52, 0.0, 10.002765, 9.997772 
2.0951954e+3, 2.0569363e+2, -743784.25, -1037757.06, -22210.318, 0.02779914, 0.2110397, -742115.7, 182104.78, 0.0, 10.002131, 9.9982395 
2.0951468e+3, 2.1569118e+2, -734367.06, -986612.8, -25415.867, -0.023072155, 0.15087067, -731831.7, 94411.664, 0.0, 10.00154, 9.998203 
2.0950983e+3, 2.2568952e+2, -706730.6, -833351.56, -33100.348, -0.023705445, 0.13709614, -698599.9, 29658.914, 0.0, 10.000672, 9.999001 
2.0950504e+3, 2.3568857e+2, -772894.4, -823048.44, -19718.154, 0.014676704, 0.15141043, -766070.56, -135803.28, 0.0, 9.999582, 9.998924 
2.095002e+3, 2.4568766e+2, -764129.94, -731714.8, -24378.652, 0.011670186, 0.16887018, -718647.75, -186370.83, 0.0, 9.998813, 9.9992485 
2.094953e+3, 2.55687e+2, -741275.1, -667700.6, -47005.12, -0.023876248, 0.18471755, -644798.8, -210513.3, 0.0, 9.998287, 9.999269 
2.0949045e+3, 2.6568687e+2, -685189.44, -437812.16, -51865.176, -0.018549033, 0.18667078, -427378.2, -91091.19, 0.0, 9.997347, 10.000626 
2.0948562e+3, 2.7568725e+2, -777962.25, -442535.8, -21138.275, 0.020351114, 0.17233223, -441208.94, -202927.13, 0.0, 9.996083, 10.000528 
2.0948079e+3, 2.8568777e+2, -778525.6, -358070.78, -5429.454, 0.011061686, 0.17543182, -358000.7, -217723.8, 0.0, 9.995262, 10.000833 
2.094759e+3, 2.9568863e+2, -743926.1, -276878.38, -26435.361, -0.049184363, 0.18302195, -275386.88, -233116.45, 0.0, 9.994766, 10.000957 
2.0947109e+3, 3.0569082e+2, -682303.7, -7200.0405, -30343.518, -0.03946151, 0.21829242, -5838.9507, -5838.9507, 0.0, 9.99393, 10.002876 
2.0946638e+3, 3.156934e+2, -834282.44, -89289.83, -2354.8215, 0.029493298, 0.2094588, -89282.38, -89282.38, 0.0, 9.992924, 10.002798 
2.1055856e+3, 1.2576509e+2, -1114997.8, -1677654.4, 31688.938, 0.11929369, 0.17879994, -1113218.6, 594303.44, 0.36122066, 10.00813, 9.996449 
2.1055362e+3, 1.3576208e+2, -1013848.5, -1603512.5, 28116.232, -0.019539466, 0.218586, -1012510.9, 597040.3, 0.26184165, 10.00722, 9.996626 
2.105488e+3, 1.4575845e+2, -924020.2, -1545901.0, 23973.396, -0.018281765, 0.20607956, -923097.4, 588489.0, 0.16038778, 10.00644, 9.996711 
2.1054402e+3, 1.5575503e+2, -856181.4, -1501301.8, 30127.08, 0.010326107, 0.2027336, -854777.5, 558842.2, 0.07735906, 10.0058155, 9.996645 
2.105392e+3, 1.6575174e+2, -781738.75, -1362747.3, 19828.96, 0.027201254, 0.1936147, -781062.75, 534589.0, 0.026401503, 10.005141, 9.997249 
2.1053432e+3, 1.7574869e+2, -780284.8, -1323163.0, 25362.828, 0.031818915, 0.17402403, -779102.44, 438579.28, 0.004995922, 10.00442, 9.997194 
2.1052946e+3, 1.8574616e+2, -739297.6, -1189079.9, 26199.81, 0.032470506, 0.18852659, -737776.6, 381929.88, 0.00021470472, 10.0037365, 9.997771 
2.105246e+3, 1.957442e+2, -741032.44, -1145710.4, 18372.465, 0.030765818, 0.22500505, -740200.0, 281525.88, 0.0, 10.003078, 9.997714 
2.1051973e+3, 2.0574194e+2, -721160.9, -1017878.8, 8654.199, 0.015308238, 0.21207365, -720908.7, 202838.89, 0.0, 10.002252, 9.998317 
2.1051481e+3, 2.1573958e+2, -763740.4, -992020.4, 13408.66, -0.011279986, 0.15328227, -762955.44, 62814.324, 0.0, 10.001304, 9.998279 
2.1050988e+3, 2.2573803e+2, -727563.5, -835765.5, -5775.3145, -0.007851222, 0.14626859, -727256.1, 527.7639, 0.0, 10.000501, 9.999065 
2.1050498e+3, 2.3573728e+2, -737560.3, -798883.3, -14503.956, 0.02003791, 0.17413406, -734302.9, -104512.64, 0.0, 9.999798, 9.998984 
2.1050005e+3, 2.4573633e+2, -758780.3, -728950.94, -232.02992, 0.013926181, 0.18395305, -728949.1, -197148.86, 0.0, 9.998854, 9.999246 
2.104951e+3, 2.5573537e+2, -822856.44, -707188.94, 18484.762, -0.018354954, 0.17453393, -704306.7, -270495.16, 0.0, 9.997732, 9.999263 
2.1049017e+3, 2.6573524e+2, -728177.9, -445579.7, 2348.4094, -0.012840552, 0.16925175, -445560.2, -109747.195, 0.0, 9.996998, 10.000739 
2.1048525e+3, 2.7573577e+2, -704715.5, -396122.0, -17119.965, 0.023490353, 0.16174608, -395175.16, -157369.69, 0.0, 9.99654, 10.0006275 
2.1048032e+3, 2.8573644e+2, -719769.94, -351716.22, -2996.4412, 0.009538224, 0.18468933, -351691.8, -211892.22, 0.0, 9.995762, 10.000633 
2.1047537e+3, 2.957374e+2, -762892.44, -312222.1, -3980.7742, -0.04523802, 0.22358836, -312186.94, -270393.53, 0.0, 9.994752, 10.000719 
2.1047048e+3, 3.0573884e+2, -695304.7, -17533.813, -7309.341, -0.03266011, 0.19722943, -17454.994, -17454.994, 0.0, 9.993862, 10.002836 
2.104656e+3, 3.1574127e+2, -837028.25, -87412.86, 16553.084, -0.02604501, 0.17733732, -87047.516, -87047.516, 0.0, 9.992899, 10.002819 
2.115593e+3, 1.2581477e+2, -1151031.1, -1735974.4, 15615.429, 0.039611198, 0.20192115, -1150614.5, 556420.25, 0.3759374, 10.008126, 9.995941 
2.1155435e+3, 1.3581125e+2, -1049931.0, -1678877.3, 6091.275, 0.0032825675, 0.24782366, -1049872.0, 559198.2, 0.2732663, 10.007217, 9.9960985 
2.115495e+3, 1.4580736e+2, -919217.94, -1518233.0, 6132.282, 0.040192813, 0.22219494, -919155.2, 591953.06, 0.16804974, 10.006425, 9.996909 
2.1154465e+3, 1.5580341e+2, -846410.7, -1472059.9, 11002.153, 0.05921104, 0.14720754, -846217.25, 566928.6, 0.0815407, 10.005805, 9.996852 
2.1153972e+3, 1.658005e+2, -774175.4, -1344856.9, -4427.0054, 0.04474941, 0.15802726, -774141.06, 541033.1, 0.0281158, 10.005138, 9.997375 
2.1153474e+3, 1.7579843e+2, -771375.25, -1307250.5, 1151.5333, 0.0043200064, 0.22535318, -771372.8, 445821.63, 0.005440996, 10.004431, 9.9973 
2.1152979e+3, 1.8579563e+2, -749393.44, -1212632.5, 3237.6042, -0.016945127, 0.21642771, -749370.8, 369850.78, 0.00025362955, 10.003743, 9.997608 
2.1152486e+3, 1.9579247e+2, -750893.6, -1166117.5, -3916.8164, -0.024838436, 0.14862019, -750856.7, 270395.66, 0.00000000000010610821, 10.003074, 9.997579 
2.1151993e+3, 2.0579046e+2, -707898.6, -991001.4, -24913.686, -0.00872523, 0.15720446, -705722.9, 217548.97, 0.0, 10.00225, 9.998505 
2.1151496e+3, 2.1578944e+2, -753761.44, -970807.75, -19081.115, 0.024302676, 0.21415205, -752096.75, 73184.93, 0.0, 10.001298, 9.998429 
2.1150996e+3, 2.2578797e+2, -743405.94, -869515.6, -30869.965, 0.02456436, 0.21955065, -736254.94, -8958.955, 0.0, 10.0005, 9.998836 
2.1150494e+3, 2.3578633e+2, -748412.3, -823168.0, -40381.76, 0.0013266844, 0.18223827, -730764.8, -101453.1, 0.0, 9.999802, 9.998817 
2.1149993e+3, 2.4578533e+2, -719059.56, -649156.5, -42766.227, 0.007427063, 0.16417585, -628876.2, -97555.11, 0.0, 9.99886, 9.999792 
2.1149492e+3, 2.5578493e+2, -790562.75, -642413.94, -21891.422, 0.03439569, 0.15583858, -639246.9, -205922.66, 0.0, 9.997738, 9.999706 
2.1148989e+3, 2.657848e+2, -767317.0, -529332.3, -15144.559, 0.016268034, 0.16367997, -528372.44, -193046.77, 0.0, 9.997005, 10.000162 
2.1148483e+3, 2.7578494e+2, -735448.8, -466142.03, -36212.984, -0.038412515, 0.1733154, -461357.56, -224033.08, 0.0, 9.996563, 10.000137 
2.1147983e+3, 2.8578544e+2, -708163.25, -334584.1, -43637.42, -0.034405578, 0.19361603, -329554.56, -190233.7, 0.0, 9.995787, 10.000742 
2.114749e+3, 2.9578647e+2, -763425.3, -319842.75, -41679.65, 0.027111083, 0.2327155, -315960.47, -274647.8, 0.0, 9.994775, 10.000658 
2.1146987e+3, 3.057876e+2, -689191.06, -7147.6855, -41814.156, -0.004910701, 0.18115477, -4593.7407, -4593.7407, 0.0, 9.993871, 10.002905 
2.1146484e+3, 3.1579047e+2, -934533.0, -292444.4, -77848.74, -0.05325052, 0.18794337, -283140.63, -283140.63, 0.0, 9.992906, 10.0014105 
2.125601e+3, 1.2586494e+2, -1120890.1, -1697708.4, 23585.365, 0.032341305, 0.21116072, -1119927.4, 586615.3, 0.39055112, 10.008573, 9.996022 
2.1255508e+3, 1.3586108e+2, -1051229.1, -1676649.5, 33625.594, 0.027168605, 0.22613136, -1049426.5, 559155.2, 0.28473705, 10.007303, 9.996075 
2.1255015e+3, 1.4585732e+2, -928155.5, -1510912.3, 60531.676, 0.0546971, 0.21019688, -921934.44, 588684.06, 0.1758229, 10.006355, 9.996998 
2.1254522e+3, 1.558537e+2, -862523.1, -1470525.1, 64708.76, 0.057929646, 0.16082205, -855712.56, 556940.2, 0.0858206, 10.00567, 9.996929 
2.1254021e+3, 1.6585076e+2, -776886.3, -1350257.3, 46544.37, 0.037399624, 0.1694717, -773132.56, 541548.7, 0.029884372, 10.005151, 9.997329 
2.1253519e+3, 1.7584845e+2, -727990.0, -1290200.1, 38614.12, -0.0031393575, 0.21629642, -725350.25, 491353.88, 0.0059044324, 10.004752, 9.997261 
2.1253015e+3, 1.8584567e+2, -705167.44, -1181140.1, 35462.79, -0.022604631, 0.20676427, -702539.75, 416191.44, 0.00029529782, 10.004007, 9.997696 
2.1252514e+3, 1.9584268e+2, -755171.56, -1160044.1, 43476.508, -0.027286263, 0.1495108, -750555.56, 270204.5, 0.0000000000129771185, 10.003014, 9.997647 
2.1252012e+3, 2.0584065e+2, -738816.94, -1021257.5, 15038.783, -0.008138848, 0.16176128, -738018.44, 184761.5, 0.0, 10.002108, 9.998363 
2.1251509e+3, 2.1583949e+2, -768150.4, -991475.06, -3310.198, 0.028663946, 0.2211389, -768101.3, 56690.184, 0.0, 10.001263, 9.9983015 
2.1251e+3, 2.2583798e+2, -760737.9, -872484.4, -10058.767, 0.028765308, 0.22692835, -759839.6, -33033.3, 0.0, 10.000362, 9.998879 
2.1250488e+3, 2.3583633e+2, -800331.9, -842616.94, -1275.7964, 0.0017489928, 0.1848996, -800293.44, -171471.06, 0.0, 9.999424, 9.998864 
2.124998e+3, 2.4583541e+2, -727667.06, -634044.06, -11163.137, 0.011915161, 0.16450724, -632731.44, -101900.94, 0.0, 9.998721, 9.999962 
2.1249473e+3, 2.558352e+2, -716927.8, -590340.4, -18725.023, 0.052011546, 0.15881762, -587628.6, -154797.78, 0.0, 9.998175, 9.999852 
2.124896e+3, 2.6583505e+2, -726664.1, -525879.6, 581.68494, 0.02337458, 0.16850811, -525877.94, -191045.53, 0.0, 9.997358, 10.000014 
2.1248445e+3, 2.75835e+2, -776747.9, -498984.8, 9227.556, -0.06339613, 0.17417672, -498678.6, -261844.48, 0.0, 9.996341, 10.000016 
2.1247937e+3, 2.8583547e+2, -746470.44, -326004.75, 12901.41, -0.044125445, 0.18425609, -325609.25, -186778.38, 0.0, 9.995412, 10.000978 
2.1247442e+3, 2.958368e+2, -776898.06, -302782.9, 26217.178, 0.080480166, 0.22772309, -301337.6, -260518.1, 0.0, 9.994587, 10.000863 
2.1246922e+3, 3.058379e+2, -697204.7, -17533.46, 36941.313, -0.040623754, 0.17249832, -15531.533, -15531.533, 0.0, 9.993846, 10.002845 
2.1246415e+3, 3.1584135e+2, -941228.8, -279713.72, -16907.71, -0.023892127, 0.24231496, -279281.88, -279281.88, 0.0, 9.992791, 10.001553 
2.1356098e+3, 1.259156e+2, -1120212.3, -1658414.3, -1052.3221, 0.075881556, 0.20650835, -1120210.1, 585836.0, 0.40511554, 10.008501, 9.996511 
2.1355583e+3, 1.3591154e+2, -1041911.3, -1627447.4, 1402.8689, 0.046917744, 0.16536643, -1041907.94, 566178.1, 0.29622504, 10.0073185, 9.996402 
2.1355076e+3, 1.4590819e+2, -928708.25, -1507392.1, 39341.008, 0.028667128, 0.17610694, -926046.0, 584072.6, 0.18365365, 10.006393, 9.997002 
2.1354572e+3, 1.5590563e+2, -861867.2, -1471522.3, 43027.45, 0.011610864, 0.23273015, -858845.44, 553297.7, 0.09016358, 10.005704, 9.996905 
2.135407e+3, 1.6590235e+2, -791316.06, -1382718.5, 33451.305, 0.006409438, 0.21943618, -789430.0, 524745.4, 0.031695545, 10.005162, 9.997103 
2.1353565e+3, 1.7589869e+2, -742995.6, -1317967.8, 24499.576, 0.0049563614, 0.15373413, -741953.56, 474257.75, 0.0063843103, 10.004735, 9.997081 
2.1353059e+3, 1.8589619e+2, -687596.9, -1141289.9, -239.75264, 0.008639578, 0.16558987, -687596.75, 430639.03, 0.0003394727, 10.003989, 9.99798 
2.1352549e+3, 1.9589464e+2, -740394.7, -1128705.1, 8211.981, 0.016495556, 0.22380905, -740221.1, 280029.78, 0.0000000000136278775, 10.003007, 9.997868 
2.1352033e+3, 2.0589232e+2, -769672.5, -1086993.6, -15676.191, 0.012612939, 0.22152075, -768899.94, 153373.86, 0.0, 10.0021105, 9.997912 
2.1351516e+3, 2.1588966e+2, -794177.75, -1047794.4, -32388.555, 0.0008916999, 0.17478344, -790106.8, 34193.36, 0.0, 10.001268, 9.997915 
2.1351e+3, 2.2588801e+2, -739802.3, -831710.1, -43716.734, 0.004884639, 0.16937077, -722329.8, 3986.2932, 0.0, 10.000369, 9.999158 
2.1350484e+3, 2.358872e+2, -783824.25, -809722.8, -33599.684, 0.018540924, 0.18376218, -760764.9, -132441.6, 0.0, 9.999426, 9.999091 
2.1349967e+3, 2.458865e+2, -741686.4, -665829.2, -31634.516, 0.02476002, 0.1879069, -654368.25, -124038.734, 0.0, 9.998729, 9.999742 
2.1349451e+3, 2.558861e+2, -726325.4, -614631.9, -40467.016, 0.029324709, 0.18494304, -601511.7, -169178.98, 0.0, 9.998191, 9.99968 
2.1348931e+3, 2.6588592e+2, -703801.5, -483129.78, -39629.914, 0.0049453005, 0.18267618, -476228.56, -141893.9, 0.0, 9.997374, 10.000302 
2.1348408e+3, 2.7588588e+2, -756452.0, -460819.38, -30283.451, -0.05140596, 0.16023375, -457749.13, -221413.53, 0.0, 9.996353, 10.000275 
2.1347894e+3, 2.8588647e+2, -722300.1, -277626.88, -19947.271, -0.017887851, 0.15471068, -276733.88, -138403.19, 0.0, 9.995416, 10.00131 
2.134739e+3, 2.9588825e+2, -742353.44, -233814.64, -884.85034, 0.10883666, 0.20979494, -233813.1, -193498.58, 0.0, 9.994595, 10.001335 
2.1346848e+3, 3.058897e+2, -699752.4, -27269.535, 5533.0205, -0.15951793, 0.16415806, -27224.014, -27224.014, 0.0, 9.993858, 10.002774 
2.1346341e+3, 3.158925e+2, -771343.2, 65399.73, 47101.676, -0.04398393, 0.18384638, 68042.81, 68042.81, 0.0, 9.992824, 10.003906 
2.1456179e+3, 1.2596732e+2, -1198899.1, -1692049.3, 45017.355, 0.0783831, 0.1616627, -1194823.4, 510713.94, 0.41957605, 10.007752, 9.996481 
2.1455655e+3, 1.3596359e+2, -1012573.8, -1610612.5, 34103.652, 0.011545753, 0.16209246, -1010635.3, 596939.75, 0.30764323, 10.007741, 9.996317 
2.1455137e+3, 1.459601e+2, -836713.06, -1468815.9, 60189.465, -0.019331783, 0.17089666, -831032.8, 678576.5, 0.19146472, 10.007274, 9.996901 
2.1454631e+3, 1.5595755e+2, -768196.25, -1430145.3, 57588.17, 0.009809494, 0.23617484, -763223.56, 648410.56, 0.09452772, 10.006481, 9.996814 
2.1454121e+3, 1.6595417e+2, -751875.7, -1360485.6, 53104.45, 0.021612601, 0.22006133, -747276.8, 566390.1, 0.033536654, 10.0054455, 9.997117 
2.1453612e+3, 1.7595036e+2, -813270.7, -1352358.8, 59515.406, 0.013691508, 0.13839805, -806778.4, 408925.8, 0.0068792133, 10.004257, 9.997072 
2.1453093e+3, 1.8594787e+2, -774178.56, -1200527.6, 26382.734, 0.015075147, 0.159338, -772552.2, 345177.1, 0.00038610815, 10.003474, 9.997819 
2.1452577e+3, 1.9594644e+2, -756399.75, -1150784.9, 2568.1924, 0.024713634, 0.24772115, -756383.0, 263361.25, 0.000000000027357056, 10.002963, 9.997734 
2.1452056e+3, 2.0594409e+2, -727335.56, -1045840.44, -9694.069, 0.01467086, 0.23822974, -727040.8, 194726.31, 0.0, 10.002316, 9.998094 
2.1451528e+3, 2.1594122e+2, -740656.0, -1005625.9, 15779.942, -0.009505553, 0.15449613, -739719.56, 84074.49, 0.0, 10.001568, 9.998058 
2.1451004e+3, 2.259395e+2, -693955.1, -823723.94, 1977.5807, -0.0011211595, 0.14306758, -693925.0, 31885.455, 0.0, 10.000748, 9.999029 
2.1450481e+3, 2.3593876e+2, -727448.3, -794992.9, -17562.85, 0.030442901, 0.17597112, -723154.56, -95336.81, 0.0, 9.99987, 9.998976 
2.1449953e+3, 2.4593803e+2, -722851.1, -662031.75, -14918.177, 0.02894503, 0.18795347, -658569.6, -128745.06, 0.0, 9.998885, 9.99969 
2.1449426e+3, 2.5593755e+2, -781110.6, -643349.6, -12503.391, 0.006056584, 0.18229163, -642224.0, -210395.02, 0.0, 9.9978285, 9.999655 
2.1448898e+3, 2.659375e+2, -758684.1, -485838.7, -14335.623, -0.0077482415, 0.18485866, -485087.53, -151258.02, 0.0, 9.996898, 10.000512 
2.1448372e+3, 2.7593783e+2, -790187.0, -456402.47, -11672.509, -0.01803149, 0.17783028, -455994.78, -220168.13, 0.0, 9.996034, 10.000458 
2.144785e+3, 2.8593838e+2, -737596.4, -279948.03, -6285.3096, 0.00799059, 0.15940733, -279861.72, -142040.16, 0.0, 9.995292, 10.001353 
2.1447329e+3, 2.9593968e+2, -724194.25, -213255.45, -9316.836, 0.067764334, 0.16454802, -213085.63, -173276.31, 0.0, 9.99467, 10.001438 
2.1446782e+3, 3.0594188e+2, -725506.06, -47550.098, -35593.414, -0.16472507, 0.18862745, -45686.527, -45686.527, 0.0, 9.993716, 10.002703 
2.1446274e+3, 3.159443e+2, -781610.6, 136045.4, 97274.86, 0.056478, 0.1805567, 146243.56, 146243.56, 0.0, 9.992445, 10.004565 
2.1556252e+3, 1.2602004e+2, -1226928.3, -1751792.3, 42600.56, 0.048865914, 0.09119207, -1223493.1, 481524.53, 0.43373722, 10.007788, 9.99601 
2.155572e+3, 1.3601701e+2, -1044665.25, -1673672.9, 33342.582, -0.07370123, 0.20576023, -1042902.75, 564148.1, 0.31882736, 10.007714, 9.995898 
2.1555203e+3, 1.4601296e+2, -859699.5, -1496973.1, 37270.16, -0.09069592, 0.18814848, -857527.2, 651564.4, 0.1991455, 10.007232, 9.996684 
2.1554697e+3, 1.5600948e+2, -783913.0, -1455808.9, 31755.818, 0.04402209, 0.18213849, -782415.5, 628709.8, 0.09885935, 10.006462, 9.996647 
2.155418e+3, 1.6600628e+2, -739450.5, -1332147.6, 11114.903, 0.07389441, 0.18060899, -739242.2, 573913.8, 0.035392046, 10.0054455, 9.997313 
2.1553652e+3, 1.7600332e+2, -801262.7, -1333293.3, 19041.502, 0.0211538, 0.16632365, -800582.06, 414602.28, 0.00738756, 10.004282, 9.997192 
2.1553124e+3, 1.8600053e+2, -810548.3, -1282974.8, 8979.237, -0.0024869426, 0.18341164, -810377.7, 306835.6, 0.0004352489, 10.0035, 9.997243 
2.1552603e+3, 1.9599804e+2, -785131.6, -1215133.9, -13885.732, -0.0015802135, 0.2232256, -784683.7, 234556.75, 0.00000000007381513, 10.002979, 9.997288 
2.1552075e+3, 2.0599592e+2, -674885.25, -938664.4, -35650.04, -0.0017498295, 0.21405663, -670152.06, 251108.25, 0.0, 10.002319, 9.99883 
2.1551543e+3, 2.1599409e+2, -699156.56, -917788.94, -10705.719, -0.0052057463, 0.1618851, -698633.56, 124640.59, 0.0, 10.001556, 9.998669 
2.155101e+3, 2.2599232e+2, -732326.94, -902612.6, -29747.285, 0.008344254, 0.14908701, -727279.94, -1989.1797, 0.0, 10.00074, 9.998493 
2.1550478e+3, 2.3599082e+2, -759289.0, -863145.7, -49687.49, 0.03469596, 0.16054061, -739346.6, -112039.58, 0.0, 9.999875, 9.998508 
2.1549942e+3, 2.4598987e+2, -714170.25, -646655.5, -55438.383, 0.022155514, 0.16220371, -615505.44, -86188.46, 0.0, 9.998892, 9.999794 
2.1549402e+3, 2.5598943e+2, -772411.1, -627594.06, -51674.77, -0.021051172, 0.15001585, -611046.0, -179725.0, 0.0, 9.997834, 9.999763 
2.1548867e+3, 2.6598972e+2, -748466.06, -467268.88, -47718.055, -0.015471772, 0.17530829, -459391.94, -126073.85, 0.0, 9.996904, 10.000639 
2.1548335e+3, 2.7599075e+2, -781637.25, -441486.28, -44600.438, 0.03374744, 0.22708483, -435735.5, -200427.22, 0.0, 9.996041, 10.000559 
2.1547803e+3, 2.8599116e+2, -756429.0, -321211.7, -31455.96, 0.028447658, 0.20171452, -318949.94, -181645.56, 0.0, 9.995297, 10.001069 
2.1547264e+3, 2.9599106e+2, -743640.06, -259167.6, -33257.99, -0.051670074, 0.097671345, -256895.16, -217590.48, 0.0, 9.99469, 10.001116 
2.154673e+3, 3.0599418e+2, -736055.7, -75253.66, -90792.99, -0.041062817, 0.23634337, -63005.875, -63005.875, 0.0, 9.993733, 10.002508 
2.1546191e+3, 3.15997e+2, -911633.06, -141130.19, 112084.5, -0.0053950096, 0.29215002, -125156.49, -125156.49, 0.0, 9.992467, 10.002656 
2.1656333e+3, 1.260739e+2, -1182362.8, -1720917.4, 34708.99, 0.036418848, 0.1136532, -1180135.0, 524354.6, 0.4472134, 10.00856, 9.995842 
2.1655798e+3, 1.3607064e+2, -1079354.9, -1698575.4, 45631.445, -0.055684682, 0.2137428, -1076010.3, 530514.9, 0.32951134, 10.007476, 9.995845 
2.165527e+3, 1.460663e+2, -927535.06, -1535195.9, 64842.45, -0.08686704, 0.17050195, -920692.9, 587875.9, 0.20654637, 10.00671, 9.996661 
2.1654758e+3, 1.5606278e+2, -830057.75, -1483806.0, 70714.86, 0.040645827, 0.16452394, -822496.1, 588106.6, 0.10309643, 10.006155, 9.996604 
2.1654233e+3, 1.6605964e+2, -724985.5, -1338164.1, 39133.54, 0.06822956, 0.17971244, -722498.06, 590135.06, 0.03724596, 10.00562, 9.997185 
2.1653697e+3, 1.7605682e+2, -692755.1, -1293080.3, 26105.07, 0.0145502165, 0.19252087, -691622.1, 523038.63, 0.007908087, 10.005095, 9.997075 
2.1653163e+3, 1.8605381e+2, -687094.7, -1223628.5, 34130.184, -0.0053741573, 0.19524562, -684932.3, 431759.2, 0.00048686808, 10.004354, 9.997237 
2.1652634e+3, 1.960509e+2, -716802.5, -1183823.8, 47103.16, 0.0023545634, 0.19294687, -712099.06, 306623.1, 0.00000000020128568, 10.003459, 9.997269 
2.1652097e+3, 2.0604885e+2, -669641.6, -941550.56, -1400.7886, 0.007493813, 0.19721472, -669634.44, 251107.23, 0.0, 10.002382, 9.998778 
2.1651557e+3, 2.1604748e+2, -756251.94, -946994.06, -32568.357, 0.009081768, 0.19621433, -750844.3, 71907.93, 0.0, 10.001177, 9.99865 
2.1651016e+3, 2.2604577e+2, -789718.5, -911108.7, -36145.727, 0.011960391, 0.18071899, -779770.8, -55002.95, 0.0, 10.000269, 9.99866 
2.1650471e+3, 2.3604403e+2, -796621.44, -866567.3, -5817.539, 0.018988527, 0.15299405, -796140.9, -169355.88, 0.0, 9.999559, 9.998635 
2.1649927e+3, 2.4604295e+2, -723841.9, -669249.0, -3572.1194, 0.012175103, 0.14730674, -669016.25, -140220.23, 0.0, 9.998905, 9.999632 
2.164938e+3, 2.5604248e+2, -717787.94, -616074.25, -21003.361, -0.010684926, 0.14820877, -611907.9, -181106.45, 0.0, 9.998276, 9.999628 
2.1648838e+3, 2.6604277e+2, -670694.2, -429554.06, -33022.555, -0.0101875225, 0.17755166, -425113.6, -92314.484, 0.0, 9.997441, 10.000637 
2.1648295e+3, 2.760438e+2, -716972.06, -408207.44, -40088.9, 0.026835088, 0.22881632, -403087.34, -168298.0, 0.0, 9.996481, 10.000573 
2.1647751e+3, 2.8604436e+2, -719738.25, -289003.66, -10431.604, 0.009863208, 0.21735723, -288751.16, -151968.47, 0.0, 9.995492, 10.001194 
2.1647201e+3, 2.960446e+2, -790440.44, -279849.03, 14714.604, -0.10567507, 0.13081136, -279425.3, -240646.14, 0.0, 9.994368, 10.001126 
2.1646675e+3, 3.0604637e+2, -816224.44, -172531.8, -45930.996, 0.056530077, 0.16945572, -169270.89, -169270.89, 0.0, 9.993444, 10.001975 
2.1646103e+3, 3.1604806e+2, -857221.06, -167699.45, 124393.875, -0.1486959, 0.15688013, -145944.44, -145944.44, 0.0, 9.99307, 10.002182 
2.1756417e+3, 1.2612875e+2, -1200600.8, -1721597.8, 6129.2393, 0.031213673, 0.2106027, -1200528.6, 503425.53, 0.459496, 10.008453, 9.995878 
2.1755882e+3, 1.361245e+2, -1078251.3, -1665404.1, 20285.473, 0.042642023, 0.19203822, -1077551.3, 528446.25, 0.3393881, 10.007452, 9.9960785 
2.1755342e+3, 1.4612013e+2, -924930.2, -1519162.3, 48501.19, -0.026354803, 0.12630816, -920997.5, 587043.3, 0.21352707, 10.006724, 9.996763 
2.1754816e+3, 1.5611726e+2, -826382.0, -1476472.5, 53148.21, 0.0016688083, 0.17805986, -822065.5, 588002.8, 0.10719795, 10.006183, 9.996641 
2.1754283e+3, 1.661141e+2, -751813.06, -1398434.8, 21623.594, 0.010829031, 0.2114988, -751090.75, 561009.1, 0.039094277, 10.005636, 9.996765 
2.1753745e+3, 1.7611079e+2, -715627.9, -1341174.6, 8336.809, -0.0060384236, 0.2156283, -715516.8, 498617.16, 0.008442762, 10.005094, 9.996748 
2.1753208e+3, 1.8610767e+2, -655035.44, -1155770.0, 2808.6758, 0.0030124541, 0.19512707, -655019.7, 461144.9, 0.0005412164, 10.004344, 9.997709 
2.175267e+3, 1.9610487e+2, -695234.94, -1136979.1, 14337.434, 0.032304306, 0.15956278, -694770.1, 323420.78, 0.0000000009394869, 10.003447, 9.997599 
2.1752124e+3, 2.0610279e+2, -725201.44, -1057238.6, -45271.688, 0.03918264, 0.18959174, -719139.5, 201073.0, 0.0, 10.002379, 9.997989 
2.1751569e+3, 2.161013e+2, -797995.4, -1036956.4, -72984.58, 0.028955204, 0.25444686, -777467.56, 44761.72, 0.0, 10.001186, 9.99803 
2.1751015e+3, 2.2609973e+2, -729561.25, -789884.06, -61098.258, 0.0069812667, 0.23429357, -691585.25, 32657.53, 0.0, 10.000279, 9.999489 
2.1750462e+3, 2.3609827e+2, -747547.7, -766681.4, -30674.799, -0.019002348, 0.15433161, -724982.5, -98729.97, 0.0, 9.999563, 9.999321 
2.1749915e+3, 2.460972e+2, -754277.25, -734730.5, -27324.97, -0.0015287208, 0.14473654, -715483.7, -187220.88, 0.0, 9.998911, 9.999183 
2.1749368e+3, 2.5609663e+2, -743998.56, -675045.6, -46498.688, 0.034590278, 0.1772534, -651636.4, -221364.94, 0.0, 9.998291, 9.999218 
2.1748811e+3, 2.6609647e+2, -679481.06, -451885.13, -70823.39, 0.0047973436, 0.19140103, -431646.06, -99372.125, 0.0, 9.997455, 10.000479 
2.1748252e+3, 2.7609673e+2, -720060.4, -419966.6, -75261.9, -0.046317853, 0.18335906, -402149.2, -167877.86, 0.0, 9.9965, 10.000485 
2.1747701e+3, 2.8609794e+2, -677586.9, -208267.34, -55487.74, -0.053733014, 0.20322901, -201796.23, -65538.0, 0.0, 9.995515, 10.00174 
2.1747147e+3, 2.9610008e+2, -763739.0, -229143.06, -34056.01, -0.097723134, 0.25791508, -226982.28, -188747.83, 0.0, 9.994381, 10.0014715 
2.1746616e+3, 3.060984e+2, -884969.8, -315145.44, -67318.01, 0.13486895, -0.008112725, -307300.63, -307300.63, 0.0, 9.993443, 10.000998 
2.1746042e+3, 3.161007e+2, -724578.25, 98906.6, -14798.055, -0.07289229, 0.11532683, 99172.44, 99172.44, 0.0, 9.9930935, 10.004008 
2.185649e+3, 1.2618348e+2, -1289848.5, -1770380.3, 21897.473, -0.0040107537, 0.21108796, -1288852.6, 414566.0, 0.47026256, 10.00732, 9.996095 
2.1855955e+3, 1.3617954e+2, -1089893.3, -1632216.1, 52022.03, 0.069634914, 0.18539119, -1084948.1, 520509.75, 0.34831396, 10.00724, 9.996422 
2.1855412e+3, 1.4617525e+2, -894048.75, -1516536.9, 85762.2, -0.004928337, 0.12348307, -882449.2, 625050.75, 0.22006328, 10.00712, 9.996602 
2.1854877e+3, 1.561722e+2, -740108.7, -1447157.6, 76718.46, -0.013027996, 0.17400636, -731880.06, 677649.7, 0.11118136, 10.006954, 9.996472 
2.1854338e+3, 1.6616894e+2, -674674.9, -1365399.8, 38104.02, -0.00071202556, 0.2101232, -672579.25, 638983.56, 0.040951427, 10.006228, 9.996706 
2.1853794e+3, 1.7616561e+2, -719970.56, -1348511.0, 47251.21, 0.009923041, 0.21946359, -716438.25, 497159.3, 0.008997062, 10.005092, 9.996697 
2.1853249e+3, 1.8616258e+2, -688477.2, -1160114.6, 33100.883, 0.019493198, 0.20706029, -686165.4, 429461.53, 0.0005992296, 10.004068, 9.99781 
2.1852702e+3, 1.9615999e+2, -738327.9, -1150096.6, 18333.27, 0.033128653, 0.18112823, -737513.25, 280137.38, 0.00000000393543, 10.003122, 9.997663 
2.1852146e+3, 2.0615765e+2, -743231.3, -1094370.3, -26426.66, 0.037217885, 0.19948976, -741253.6, 178421.3, 0.0, 10.002383, 9.997729 
2.1851581e+3, 2.1615566e+2, -727278.0, -1026668.9, -18131.965, 0.03265392, 0.24085996, -726183.9, 95513.875, 0.0, 10.001779, 9.997813 
2.1851021e+3, 2.2615421e+2, -610860.0, -715018.5, -16979.361, 0.010725751, 0.2335102, -608162.0, 115548.48, 0.0, 10.001022, 9.999643 
2.185046e+3, 2.3615324e+2, -651827.06, -704532.4, -37297.645, -0.01866326, 0.1874854, -632511.56, -6796.6406, 0.0, 10.000155, 9.99946 
2.18499e+3, 2.4615224e+2, -737469.56, -723394.56, -36341.14, -0.0054228855, 0.17581296, -693415.75, -165691.52, 0.0, 9.999018, 9.999207 
2.1849346e+3, 2.561514e+2, -828584.1, -713796.2, -20645.436, 0.030019995, 0.18539128, -710195.94, -280461.38, 0.0, 9.997707, 9.999231 
2.1848781e+3, 2.661511e+2, -768832.0, -493839.38, -17084.852, 0.00039037652, 0.18312077, -492781.97, -161043.77, 0.0, 9.996841, 10.000484 
2.1848212e+3, 2.7615115e+2, -755921.25, -436857.16, -10609.898, -0.056480158, 0.15554363, -436504.75, -202767.58, 0.0, 9.996257, 10.000485 
2.1847652e+3, 2.8615233e+2, -690366.2, -210270.22, -21250.695, -0.062336225, 0.17454891, -209331.44, -73606.87, 0.0, 9.995415, 10.001773 
2.184709e+3, 2.961549e+2, -762465.1, -223591.16, -43541.707, -0.08049355, 0.2647381, -220095.6, -182397.61, 0.0, 9.994373, 10.001511 
2.1846545e+3, 3.0615348e+2, -896104.75, -330213.94, -27973.998, 0.1115343, 0.030117191, -328834.44, -328834.44, 0.0, 9.993411, 10.000909 
2.1845967e+3, 3.161569e+2, -758067.4, 175565.33, 22793.467, -0.08938702, 0.27640262, 176121.47, 176121.47, 0.0, 9.992467, 10.004836 
2.1956556e+3, 1.2623812e+2, -1284999.6, -1718193.1, 11905.66, -0.075482056, 0.12986773, -1284672.6, 418210.47, 0.4798171, 10.007305, 9.996457 
2.1956024e+3, 1.3623554e+2, -1072738.6, -1578806.6, 49570.992, 0.035268616, 0.1914106, -1067928.8, 536978.94, 0.35659084, 10.007286, 9.996846 
2.1955481e+3, 1.4623147e+2, -917230.9, -1574071.6, 82316.27, -0.019010212, 0.15483302, -907072.0, 599875.8, 0.2263814, 10.007155, 9.996189 
2.1954946e+3, 1.5622751e+2, -765890.7, -1499021.6, 71191.3, -0.009906953, 0.15459733, -759041.56, 649946.06, 0.11516399, 10.006944, 9.996122 
2.1954402e+3, 1.6622412e+2, -662519.3, -1333829.6, -936.3549, 0.02373616, 0.17984302, -662518.0, 648504.2, 0.042856347, 10.006213, 9.996931 
2.195385e+3, 1.7622119e+2, -707515.56, -1324627.4, 7841.122, 0.05580519, 0.20759831, -707416.0, 505636.66, 0.009579452, 10.0051, 9.996859 
2.195329e+3, 1.8621846e+2, -701870.44, -1194099.4, -871.4499, 0.04099509, 0.23198043, -701868.9, 413210.88, 0.00066254084, 10.00409, 9.997569 
2.1952729e+3, 1.9621608e+2, -747723.4, -1175831.9, -13470.111, 0.003677923, 0.2516134, -747299.94, 269802.66, 0.000000012004619, 10.003144, 9.9974785 
2.1952166e+3, 2.0621333e+2, -725605.94, -1062471.5, -47589.918, 0.0023179997, 0.22272378, -719011.9, 200118.31, 0.0, 10.0023985, 9.997943 
2.19516e+3, 2.162105e+2, -718002.25, -1008310.6, -39205.414, 0.020014035, 0.16007236, -712800.8, 108357.91, 0.0, 10.001778, 9.997942 
2.195103e+3, 2.262091e+2, -646614.1, -789847.4, -47914.043, 0.02231467, 0.18311079, -632064.06, 91107.75, 0.0, 10.00102, 9.999133 
2.1950461e+3, 2.362088e+2, -678762.3, -762720.8, -70357.9, 0.015456844, 0.25232035, -638811.75, -13638.286, 0.0, 10.000161, 9.999062 
2.194989e+3, 2.4620785e+2, -702894.9, -653699.9, -86719.4, -0.0036406522, 0.23925172, -588157.0, -60975.363, 0.0, 9.9990225, 9.999685 
2.1949314e+3, 2.5620675e+2, -797922.56, -651945.06, -67443.05, -0.030494543, 0.17323063, -625556.1, -196364.42, 0.0, 9.99771, 9.999657 
2.1948746e+3, 2.662065e+2, -756669.7, -470743.72, -40244.52, -0.025296483, 0.1513908, -465187.22, -133994.25, 0.0, 9.996846, 10.000644 
2.1948181e+3, 2.762069e+2, -748303.7, -424586.94, -34146.902, 0.0004270982, 0.14197169, -421024.22, -187836.33, 0.0, 9.996267, 10.000567 
2.194761e+3, 2.862075e+2, -728902.75, -293181.56, -62035.906, -0.0131458845, 0.12917462, -284521.3, -149338.44, 0.0, 9.995422, 10.001203 
2.1947034e+3, 2.962088e+2, -781222.9, -267429.2, -84292.13, -0.061436456, 0.15219626, -253953.77, -216782.1, 0.0, 9.99439, 10.0012045 
2.1946464e+3, 3.0621168e+2, -823280.5, -185411.44, -63783.99, -0.039094973, 0.2997375, -179095.88, -179095.88, 0.0, 9.993434, 10.001895 
2.1945891e+3, 3.1621197e+2, -836608.3, 12912.177, 30160.621, -0.08359383, 0.15994816, 13981.626, 13981.626, 0.0, 9.992471, 10.0037155 
2.2056626e+3, 1.2629439e+2, -1311077.8, -1727863.6, 42196.316, -0.068241894, 0.15317433, -1306848.6, 395484.1, 0.48928058, 10.007009, 9.996555 
2.2056101e+3, 1.362916e+2, -965570.6, -1513669.1, 73827.234, 0.050853916, 0.1802788, -955800.5, 648558.2, 0.36506835, 10.0084505, 9.99699 
2.2055559e+3, 1.4628781e+2, -790248.7, -1486859.3, 73731.9, -0.0018420235, 0.16069363, -782530.1, 723865.75, 0.23298158, 10.008305, 9.996254 
2.2055015e+3, 1.56284e+2, -778262.2, -1499367.0, 91365.805, -0.008836816, 0.17090768, -766866.06, 641568.4, 0.11935372, 10.006851, 9.996167 
2.205446e+3, 1.6628061e+2, -689609.8, -1338259.1, 28492.63, 0.014930423, 0.19026147, -688360.7, 622108.44, 0.04486384, 10.005994, 9.9970045 
2.2053899e+3, 1.7627761e+2, -647674.3, -1289357.0, 26940.86, 0.041424315, 0.2049408, -646545.25, 565954.7, 0.010198079, 10.005496, 9.996908 
2.2053333e+3, 1.862748e+2, -612831.0, -1166608.5, 16363.339, 0.029062325, 0.22844656, -612347.94, 502180.06, 0.00073271524, 10.004774, 9.997427 
2.2052762e+3, 1.9627234e+2, -642665.8, -1136068.5, 9009.361, -0.0019285379, 0.25426, -642501.4, 374050.9, 0.00000003063679, 10.003917, 9.997377 
2.205219e+3, 2.0626965e+2, -639743.6, -999198.94, -22249.158, 0.000048271697, 0.22841498, -638371.75, 280206.72, 0.0, 10.002898, 9.998135 
2.2051613e+3, 2.1626702e+2, -709413.25, -989500.25, -17244.64, 0.021223193, 0.16576451, -708355.5, 112248.52, 0.0, 10.001779, 9.998068 
2.2051038e+3, 2.2626543e+2, -710638.8, -861147.6, -20456.078, 0.027549177, 0.18506058, -707908.1, 14711.5, 0.0, 10.00076, 9.998766 
2.2050461e+3, 2.362647e+2, -750541.3, -828791.44, -33243.883, 0.025401132, 0.2503912, -738325.1, -113698.12, 0.0, 9.999809, 9.998775 
2.2049879e+3, 2.4626379e+2, -690516.9, -617239.5, -58298.465, -0.0024143285, 0.23844431, -585022.56, -58387.645, 0.0, 9.9989805, 9.999953 
2.204929e+3, 2.5626296e+2, -708988.56, -581567.7, -55006.418, -0.04578844, 0.17386556, -561107.3, -132466.14, 0.0, 9.998206, 9.999899 
2.2048713e+3, 2.6626295e+2, -707652.1, -433585.78, -31446.676, -0.03064746, 0.15859827, -430023.84, -99384.234, 0.0, 9.9971285, 10.00076 
2.2048143e+3, 2.7626362e+2, -806417.44, -442831.2, -30160.443, 0.022710614, 0.1627718, -440346.28, -207714.47, 0.0, 9.9958315, 10.0006485 
2.2047561e+3, 2.8626388e+2, -812615.75, -350636.63, -33866.54, 0.0034896717, 0.1262868, -348167.16, -213536.88, 0.0, 9.9949255, 10.001045 
2.2046976e+3, 2.962644e+2, -785190.4, -271782.22, -24707.84, -0.06452177, 0.08817519, -270595.9, -233968.1, 0.0, 9.994378, 10.001179 
2.2046396e+3, 3.0626914e+2, -788566.4, -141546.36, -39847.22, -0.05075595, 0.4058895, -139101.58, -139101.58, 0.0, 9.993557, 10.002135 
2.2045821e+3, 3.162676e+2, -897243.4, -29448.188, 27822.139, 0.010520236, 0.07163423, -28557.105, -28557.105, 0.0, 9.992118, 10.00359 
2.215619e+3, 1.363477e+2, -973513.25, -1520547.5, 109093.7, 0.09750368, 0.1542656, -952559.56, 651250.75, 0.3749634, 10.008518, 9.996893 
2.2155644e+3, 1.4634427e+2, -774195.44, -1438338.8, 34554.07, 0.032221783, 0.14649287, -772402.5, 733441.4, 0.24049115, 10.008294, 9.9967 
2.215508e+3, 1.5634151e+2, -757824.44, -1445296.5, 48388.21, -0.011235772, 0.21801169, -754435.3, 653436.4, 0.123979434, 10.006858, 9.996531 
2.2154516e+3, 1.6633819e+2, -692875.9, -1347108.4, 12369.019, -0.023668574, 0.23588853, -692642.1, 617263.1, 0.04702671, 10.00601, 9.996939 
2.2153945e+3, 1.7633474e+2, -649795.1, -1297030.9, 8757.292, -0.027729247, 0.2101992, -649676.6, 562263.8, 0.01085882, 10.005508, 9.996852 
2.2153375e+3, 1.8633153e+2, -616145.0, -1176104.9, -13983.746, -0.013831864, 0.19878198, -615796.0, 498176.4, 0.0008107624, 10.004781, 9.997361 
2.2152801e+3, 1.9632871e+2, -645017.75, -1142197.9, -21763.025, 0.013071509, 0.19626854, -644066.94, 371933.0, 0.00000006780769, 10.003918, 9.997337 
2.215222e+3, 2.063266e+2, -628443.8, -977610.44, -62611.598, 0.026484087, 0.22070031, -617556.0, 300464.4, 0.0, 10.002902, 9.998283 
2.2151631e+3, 2.1632506e+2, -701546.6, -975082.25, -56194.76, 0.030974705, 0.25319818, -690452.06, 129582.984, 0.0, 10.001781, 9.998168 
2.2151046e+3, 2.26323e+2, -726621.4, -896162.4, -55024.508, 0.023271294, 0.23446089, -710328.9, 11726.39, 0.0, 10.000764, 9.998527 
2.2150457e+3, 2.3632087e+2, -763545.06, -857962.25, -66899.23, 0.009228139, 0.18160631, -728874.75, -104798.055, 0.0, 9.999814, 9.998574 
2.2149865e+3, 2.4631993e+2, -686839.6, -611764.56, -87703.25, -0.0023176349, 0.17391159, -553903.3, -27818.105, 0.0, 9.998985, 9.99999 
2.2149275e+3, 2.563199e+2, -703261.06, -574670.5, -86184.0, -0.01649784, 0.18799478, -531441.06, -103357.0, 0.0, 9.998223, 9.999941 
2.2148684e+3, 2.663203e+2, -701379.56, -424691.6, -82389.68, -0.018249603, 0.20625274, -402016.6, -71937.414, 0.0, 9.997141, 10.000818 
2.2148095e+3, 2.7632114e+2, -800281.94, -432523.5, -79932.75, -0.00359108, 0.22324784, -415901.3, -183831.47, 0.0, 9.995836, 10.00072 
2.2147508e+3, 2.863214e+2, -792998.56, -310325.0, -57286.08, -0.019222155, 0.17016259, -303619.16, -169551.6, 0.0, 9.994925, 10.001325 
2.2146916e+3, 2.963216e+2, -765370.44, -233161.53, -41272.754, -0.079070576, 0.06973695, -229979.84, -193912.67, 0.0, 9.994385, 10.001443 
2.2146343e+3, 3.0632555e+2, -825011.8, -223487.45, -88915.8, 0.08336173, 0.32472035, -210619.42, -210619.42, 0.0, 9.993575, 10.001569 
2.214573e+3, 3.163255e+2, -811174.1, 140863.03, -17377.814, -0.10612314, 0.19360386, 141180.13, 141180.13, 0.0, 9.992147, 10.004749 
2.2256291e+3, 1.3640662e+2, -849840.7, -1536677.1, 178695.61, 0.17013514, 0.17527303, -806130.8, 797102.0, 0.38739863, 10.0106125, 9.995719 
2.2255713e+3, 1.4640227e+2, -746432.3, -1424760.1, 70700.64, -0.10391242, 0.13530071, -739141.7, 766135.5, 0.2493858, 10.008647, 9.996658 
2.2255151e+3, 1.5639979e+2, -706975.7, -1418114.8, 65377.973, -0.010445507, 0.23903243, -701015.2, 706286.4, 0.12918766, 10.007303, 9.996505 
2.225458e+3, 1.6639644e+2, -648636.56, -1329955.5, 49305.777, 0.009895927, 0.25763828, -645086.9, 664248.2, 0.049375348, 10.00637, 9.996883 
2.2254002e+3, 1.7639275e+2, -618745.75, -1284400.0, 45028.406, -0.020553095, 0.21605064, -615713.56, 595658.7, 0.011564905, 10.005742, 9.996825 
2.2253421e+3, 1.8638946e+2, -593303.25, -1155773.5, 17677.994, -0.02032017, 0.19443724, -592748.2, 520656.4, 0.0008973594, 10.004902, 9.997439 
2.2252837e+3, 1.9638667e+2, -638344.25, -1131114.5, 17394.549, 0.0013166683, 0.18529765, -637731.0, 377700.75, 0.00000012451628, 10.003935, 9.997403 
2.2252247e+3, 2.063846e+2, -624212.44, -983018.3, -32580.313, 0.018458731, 0.21874164, -621278.06, 296173.7, 0.0, 10.002969, 9.998212 
2.2251648e+3, 2.1638316e+2, -672759.3, -965453.8, -42705.055, 0.03160469, 0.27024886, -666655.75, 152810.11, 0.0, 10.002004, 9.998124 
2.2251052e+3, 2.263811e+2, -682792.8, -865708.7, -29841.594, 0.025068074, 0.24602892, -678047.5, 43438.97, 0.0, 10.00103, 9.998605 
2.2250454e+3, 2.363788e+2, -727162.4, -833473.44, -19728.963, 0.009242575, 0.17284591, -723619.25, -100110.34, 0.0, 10.00004, 9.998631 
2.2249857e+3, 2.4637783e+2, -713446.06, -635093.7, -38626.633, 0.010934676, 0.16554661, -619253.6, -93735.734, 0.0, 9.998855, 9.99989 
2.2249256e+3, 2.5637785e+2, -805824.2, -630437.9, -47091.54, 0.01910037, 0.19182754, -618593.56, -191076.64, 0.0, 9.997554, 9.999876 
2.2248654e+3, 2.663782e+2, -751597.2, -443480.16, -42438.47, 0.005646305, 0.21152732, -437741.78, -108229.375, 0.0, 9.996779, 10.00086 
2.2248054e+3, 2.7637908e+2, -727953.1, -388688.84, -44812.363, -0.008172099, 0.22837923, -382869.53, -151366.25, 0.0, 9.996299, 10.000796 
2.2247453e+3, 2.8637978e+2, -736015.75, -250179.55, -23643.828, -0.033626687, 0.19858302, -249031.61, -115535.195, 0.0, 9.99518, 10.001612 
2.2246853e+3, 2.9638043e+2, -867366.0, -268624.97, -6328.135, -0.100367114, 0.11705104, -268558.1, -233067.56, 0.0, 9.99363, 10.00156 
2.2246277e+3, 3.0638298e+2, -946762.3, -294362.34, -42343.598, 0.12221725, 0.24115883, -291625.53, -291625.53, 0.0, 9.9928, 10.0014515 
2.2245643e+3, 3.1638333e+2, -738293.5, 208678.08, 38740.242, -0.19259025, 0.14668085, 210260.28, 210260.28, 0.0, 9.992522, 10.005027 
2.2356404e+3, 1.3646777e+2, -975502.4, -1817670.5, 124565.58, 0.24986722, 0.23436444, -957464.1, 645167.8, 0.40277594, 10.010388, 9.993675 
2.2355771e+3, 1.4646156e+2, -779798.56, -1474073.3, 32245.031, -0.3747746, 0.12787151, -778304.2, 726393.94, 0.25975987, 10.008643, 9.996216 
2.2355223e+3, 1.5645872e+2, -729403.3, -1467695.8, 25791.268, -0.009290556, 0.2388978, -728503.44, 678221.5, 0.13499096, 10.00733, 9.996149 
2.235465e+3, 1.6645522e+2, -649583.1, -1336150.6, 29486.492, 0.09854585, 0.25984603, -648319.1, 660440.25, 0.051912624, 10.006399, 9.996828 
2.2354065e+3, 1.7645152e+2, -617344.56, -1286040.4, 22533.7, 0.04930667, 0.22194566, -616586.06, 594210.4, 0.012318618, 10.005761, 9.996807 
2.2353469e+3, 1.8644847e+2, -578176.4, -1127946.8, -17078.957, 0.0028729679, 0.21297783, -577646.3, 535179.7, 0.0009936491, 10.004913, 9.997627 
2.2352871e+3, 1.9644599e+2, -628710.2, -1113035.6, -17359.465, -0.038041394, 0.21686952, -628088.75, 386760.63, 0.00000020630898, 10.003938, 9.997528 
2.2352271e+3, 2.0644353e+2, -643989.6, -1025347.0, -67715.055, -0.02289157, 0.22082059, -632322.9, 284551.03, 0.0, 10.002969, 9.997924 
2.2351664e+3, 2.1644129e+2, -685958.2, -993925.06, -76197.97, 0.022166016, 0.220303, -668136.44, 150760.72, 0.0, 10.002004, 9.9979315 
2.235106e+3, 2.2643961e+2, -656764.4, -812768.8, -65325.94, 0.031295598, 0.22326827, -633022.7, 87891.12, 0.0, 10.001031, 9.99897 
2.2350454e+3, 2.3643841e+2, -706265.25, -792287.9, -57504.71, 0.02146665, 0.22393794, -677465.94, -54541.195, 0.0, 10.000045, 9.998914 
2.2349843e+3, 2.4643736e+2, -730556.8, -672380.06, -88853.055, 0.034762874, 0.2113711, -607975.1, -83040.95, 0.0, 9.9988575, 9.999636 
2.2349234e+3, 2.564366e+2, -818945.06, -659153.3, -92635.84, 0.056407653, 0.18470246, -616718.7, -189777.84, 0.0, 9.997555, 9.999681 
2.2348623e+3, 2.6643658e+2, -750563.25, -442802.03, -61292.324, 0.039514866, 0.17214158, -431044.5, -102103.9, 0.0, 9.996781, 10.000866 
2.2348018e+3, 2.7643728e+2, -719474.56, -376720.28, -67267.16, 0.011206793, 0.1712575, -363991.5, -133057.72, 0.0, 9.996319, 10.000872 
2.2347403e+3, 2.8643888e+2, -712258.1, -206349.66, -84549.305, -0.041863106, 0.20951308, -192593.52, -59675.645, 0.0, 9.995196, 10.001908 
2.2346783e+3, 2.9644096e+2, -871579.44, -278802.16, -62664.97, -0.14696588, 0.24303013, -272250.03, -237352.66, 0.0, 9.993629, 10.001493 
2.2346196e+3, 3.0644128e+2, -933872.4, -264211.2, -56458.473, 0.053933494, 0.15218024, -259484.61, -259484.61, 0.0, 9.992784, 10.001668 
2.2345579e+3, 3.1644326e+2, -827923.8, 15552.172, -42320.18, -0.07138894, 0.16938081, 17670.207, 17670.207, 0.0, 9.992538, 10.0037 
2.2456479e+3, 1.3652828e+2, -1119291.6, -1887735.5, 125447.15, 0.07609484, 0.25307256, -1099331.0, 502708.2, 0.42056432, 10.008777, 9.993971 
2.245587e+3, 1.4652169e+2, -774617.4, -1467055.8, 57749.4, -0.2452498, 0.09772956, -769834.1, 734274.06, 0.27132803, 10.008809, 9.9962015 
2.2455297e+3, 1.565189e+2, -652470.2, -1428319.6, 77662.375, -0.0049529164, 0.21765256, -644772.56, 761361.4, 0.14127655, 10.008015, 9.996094 
2.2454715e+3, 1.6651517e+2, -568217.75, -1325559.8, 94409.98, 0.06902741, 0.23545645, -556626.06, 751544.44, 0.05460637, 10.007146, 9.996543 
2.2454122e+3, 1.7651108e+2, -564883.8, -1286429.4, 71244.3, 0.040998638, 0.18874717, -557916.56, 652294.8, 0.013115035, 10.006248, 9.996568 
2.2453518e+3, 1.8650804e+2, -540131.2, -1111385.9, 7577.418, 0.009229077, 0.1942865, -540030.7, 572210.4, 0.001099965, 10.005189, 9.997606 
2.245291e+3, 1.965058e+2, -614260.6, -1106863.4, -8147.235, -0.0231403, 0.2253401, -614125.94, 400136.75, 0.0000003679055, 10.0040455, 9.997516 
2.2452298e+3, 2.065033e+2, -638061.2, -1015276.2, -45938.887, -0.01837258, 0.22241595, -632547.2, 283740.97, 0.0, 10.002984, 9.997982 
2.2451682e+3, 2.1650085e+2, -685601.25, -984671.75, -32033.768, 0.008088297, 0.1965931, -682208.56, 136105.22, 0.0, 10.001972, 9.998008 
2.245107e+3, 2.2649944e+2, -655502.94, -793077.94, -21374.203, 0.026387744, 0.21582104, -652258.7, 68069.23, 0.0, 10.000962, 9.999136 
2.2450455e+3, 2.364988e+2, -709220.56, -775191.9, -27961.748, 0.04112628, 0.2561983, -698963.75, -76630.164, 0.0, 9.99995, 9.999073 
2.2449835e+3, 2.4649781e+2, -684443.5, -641134.2, -48323.06, 0.04540622, 0.23710972, -609835.6, -85493.3, 0.0, 9.999141, 9.99971 
2.2449209e+3, 2.5649676e+2, -690186.6, -590179.3, -30254.031, 0.04118361, 0.17852497, -581739.25, -155388.17, 0.0, 9.998415, 9.999738 
2.2448589e+3, 2.6649663e+2, -734602.25, -440130.72, 892.0918, 0.0333857, 0.15928765, -440128.03, -111776.26, 0.0, 9.996921, 10.0008135 
2.2447973e+3, 2.7649733e+2, -910961.6, -470431.5, -7949.6343, 0.034533348, 0.16169085, -470288.1, -239942.48, 0.0, 9.995021, 10.000848 
2.244735e+3, 2.8649902e+2, -833496.5, -253065.53, -30434.424, -0.015062314, 0.20710562, -251474.1, -119145.1, 0.0, 9.994324, 10.002003 
2.2446722e+3, 2.9650137e+2, -783203.0, -226783.16, -28911.475, -0.13092741, 0.26121053, -225284.95, -190979.16, 0.0, 9.994205, 10.001569 
2.2446121e+3, 3.0650187e+2, -843217.4, -190165.22, 7946.9507, 0.008207474, 0.16990556, -190068.52, -190068.52, 0.0, 9.993282, 10.001931 
2.2445506e+3, 3.1650484e+2, -937840.6, -107612.0, -19182.646, -0.006222981, 0.25589183, -107169.016, -107169.016, 0.0, 9.992083, 10.003076 
2.2556531e+3, 1.3658854e+2, -1042826.94, -1603229.0, 142971.08, -0.27137423, 0.23930968, -1008459.5, 592991.0, 0.43974036, 10.008901, 9.995985 
2.2555998e+3, 1.4658259e+2, -785554.2, -1444114.8, 34185.605, 0.18568884, 0.05045147, -783784.4, 719723.56, 0.28357992, 10.008675, 9.996493 
2.2555377e+3, 1.5658018e+2, -646529.94, -1405738.9, 48863.305, -0.005621407, 0.17890322, -643397.94, 762132.2, 0.14783284, 10.008037, 9.996237 
2.255477e+3, 1.6657613e+2, -597324.5, -1396754.3, 60615.543, -0.058330435, 0.18859567, -592754.56, 714815.44, 0.057381287, 10.007193, 9.996031 
2.2554174e+3, 1.7657134e+2, -594332.06, -1353467.6, 36079.84, -0.035647053, 0.12288106, -592621.1, 616996.8, 0.013932192, 10.006269, 9.996099 
2.2553568e+3, 1.8656813e+2, -556212.1, -1145028.9, -34534.816, -0.0012651129, 0.14438917, -554193.56, 557457.0, 0.0012127038, 10.005185, 9.99738 
2.2552954e+3, 1.9656603e+2, -626573.75, -1128979.9, -47730.703, 0.037820835, 0.21250439, -622079.4, 391592.94, 0.0000006542754, 10.004025, 9.997376 
2.255233e+3, 2.0656382e+2, -614527.3, -965591.5, -81483.86, 0.02562656, 0.22341526, -596536.44, 319158.84, 0.0, 10.002976, 9.998329 
2.2551699e+3, 2.165617e+2, -664432.25, -942270.4, -67332.41, -0.013972104, 0.1969655, -648974.6, 168742.5, 0.0, 10.001974, 9.998301 
2.2551075e+3, 2.2656046e+2, -658440.9, -799819.4, -58140.03, 0.009015634, 0.22139728, -637602.9, 82127.37, 0.0, 10.00096, 9.999093 
2.2550455e+3, 2.3655984e+2, -706672.2, -771572.25, -63506.504, 0.06591866, 0.26899445, -667805.44, -46068.96, 0.0, 9.999953, 9.9991 
2.2549821e+3, 2.4655901e+2, -656865.8, -586089.8, -75397.79, 0.04040324, 0.24344212, -538188.3, -14445.0, 0.0, 9.999146, 10.000088 
2.2549185e+3, 2.5655824e+2, -667422.0, -548180.1, -64420.02, -0.03321123, 0.17410263, -520025.22, -94276.79, 0.0, 9.998433, 10.000019 
2.2548552e+3, 2.6655835e+2, -743612.0, -461014.1, -74620.26, -0.01742369, 0.17337668, -442520.75, -114773.984, 0.0, 9.996924, 10.000671 
2.2547925e+3, 2.7655914e+2, -926873.1, -498518.25, -70143.6, 0.057177573, 0.2033892, -487324.7, -257585.19, 0.0, 9.994994, 10.00067 
2.25473e+3, 2.865601e+2, -847326.1, -281112.44, -34696.63, 0.04887048, 0.19073397, -278994.22, -147262.9, 0.0, 9.994314, 10.001819 
2.254667e+3, 2.9656142e+2, -762246.7, -195868.42, -45075.76, -0.04420513, 0.16217677, -192303.47, -158584.52, 0.0, 9.994253, 10.001761 
2.254605e+3, 3.0656472e+2, -804666.5, -117194.5, -40736.516, -0.017689563, 0.30261675, -114789.055, -114789.055, 0.0, 9.99331, 10.00242 
2.2545415e+3, 3.1656572e+2, -876041.1, 23526.592, -24602.955, -0.09565045, 0.17767957, 24198.975, 24198.975, 0.0, 9.9920635, 10.003988 
2.2656643e+3, 1.3665006e+2, -935782.1, -1451968.5, 98258.76, -0.08191354, 0.23748294, -917710.7, 683137.5, 0.4591358, 10.009889, 9.9972315 
2.2656079e+3, 1.4664537e+2, -941193.4, -1557923.8, 74115.12, 0.21103561, 0.14023621, -932411.7, 570479.44, 0.29584622, 10.007441, 9.996165 
2.2655459e+3, 1.5664147e+2, -592651.75, -1405448.8, 49939.9, 0.0009554873, 0.15227275, -589594.8, 815333.7, 0.15433848, 10.008672, 9.99593 
2.2654846e+3, 1.6663712e+2, -463215.0, -1338845.5, 20233.725, -0.05556496, 0.15258487, -462747.72, 844224.1, 0.06010242, 10.008246, 9.995916 
2.2654241e+3, 1.7663267e+2, -501783.63, -1313658.9, 15359.268, -0.026399098, 0.13422239, -501493.16, 707523.6, 0.014721573, 10.006949, 9.996042 
2.2653618e+3, 1.8662961e+2, -516848.63, -1091178.5, -35146.91, 0.0038664432, 0.15519771, -514705.75, 596342.1, 0.001321599, 10.005314, 9.9976845 
2.2652991e+3, 1.9662754e+2, -682723.06, -1125010.6, -10681.978, 0.03474961, 0.19868913, -682465.25, 330603.6, 0.0000009424244, 10.003512, 9.997647 
2.2652356e+3, 2.0662557e+2, -665868.8, -978177.44, -17918.117, 0.025383746, 0.21737884, -664844.2, 250245.44, 0.0, 10.002576, 9.998433 
2.2651719e+3, 2.1662381e+2, -637821.6, -916821.4, -25219.428, -0.005764859, 0.2159486, -635560.3, 181548.1, 0.0, 10.002109, 9.998406 
2.2651082e+3, 2.2662254e+2, -640703.44, -779734.9, -30446.113, 0.011542824, 0.23007032, -634328.44, 84793.51, 0.0, 10.001039, 9.99919 
2.2650449e+3, 2.3662175e+2, -744316.2, -775486.4, -23951.314, 0.057252023, 0.24969648, -731325.75, -110195.31, 0.0, 9.999639, 9.999222 
2.264981e+3, 2.4662122e+2, -726785.6, -591472.4, -24827.49, 0.035973925, 0.23815592, -587060.8, -63926.586, 0.0, 9.998549, 10.000336 
2.2649163e+3, 2.5662103e+2, -769747.44, -574078.6, -27020.81, -0.026324498, 0.20540021, -570415.75, -145282.2, 0.0, 9.997637, 10.000222 
2.2648518e+3, 2.666212e+2, -743522.3, -461423.8, -49318.133, -0.020759486, 0.2025191, -453050.28, -125919.04, 0.0, 9.996933, 10.000661 
2.2647876e+3, 2.7662173e+2, -743228.0, -411648.38, -33906.863, 0.038340792, 0.20775066, -408216.63, -179090.3, 0.0, 9.996266, 10.000651 
2.2647244e+3, 2.8662243e+2, -772558.75, -247526.19, 28948.973, 0.054983266, 0.17608884, -245934.83, -114814.336, 0.0, 9.994844, 10.001791 
2.2646609e+3, 2.9662368e+2, -920232.44, -256632.02, 26572.543, 0.0012271461, 0.14007618, -255569.67, -222460.17, 0.0, 9.99311, 10.001892 
2.2645977e+3, 3.066278e+2, -932004.1, -156483.27, 10092.45, -0.01236355, 0.34120706, -156351.94, -156351.94, 0.0, 9.992352, 10.002607 
2.2645335e+3, 3.16628e+2, -840897.44, 112043.664, 8122.1055, -0.0952038, 0.13407063, 112112.89, 112112.89, 0.0, 9.992007, 10.004619 
2.2756797e+3, 1.367128e+2, -990276.4, -1430063.1, -62119.82, 0.47823817, 0.25486994, -981670.4, 618562.7, 0.4774448, 10.00912, 9.997951 
2.2756124e+3, 1.4670971e+2, -968124.75, -1669241.6, 108249.51, -0.08496985, 0.33505756, -951791.94, 550468.2, 0.30731675, 10.007685, 9.995302 
2.2755544e+3, 1.5670282e+2, -629749.8, -1503867.5, 75247.086, 0.014435471, 0.13403918, -623319.6, 781008.4, 0.16037409, 10.008755, 9.995222 
2.2754936e+3, 1.6669823e+2, -457135.8, -1313274.5, -24812.957, 0.048993517, 0.12818551, -456417.28, 849957.4, 0.06257935, 10.008209, 9.996114 
2.2754315e+3, 1.76695e+2, -493729.38, -1278805.6, -32720.32, 0.050983492, 0.21050614, -492368.03, 716040.44, 0.015413589, 10.006871, 9.996322 
2.2753672e+3, 1.8669233e+2, -471089.5, -988515.2, -100757.03, 0.019596273, 0.21608956, -452161.72, 658272.8, 0.0014123091, 10.005276, 9.998411 
2.2753018e+3, 1.9669022e+2, -639104.9, -1040171.6, -68533.62, -0.028828982, 0.18308768, -627717.3, 384736.44, 0.0000010825875, 10.003531, 9.998223 
2.2752376e+3, 2.0668843e+2, -672865.56, -996436.5, -33854.75, -0.015868416, 0.20627092, -669361.3, 245111.06, 0.0, 10.002587, 9.998305 
2.2751741e+3, 2.1668701e+2, -645181.94, -929362.75, -45234.2, 0.02825355, 0.2514653, -638155.56, 178333.28, 0.0, 10.002091, 9.998332 
2.2751094e+3, 2.2668558e+2, -628298.0, -751745.56, -81459.34, 0.02959866, 0.24093726, -587818.8, 130685.29, 0.0, 10.001024, 9.999392 
2.2750439e+3, 2.3668437e+2, -730493.06, -748124.1, -72652.09, 0.010960754, 0.19834211, -666123.6, -45607.18, 0.0, 9.9996395, 9.999412 
2.2749792e+3, 2.4668433e+2, -719287.0, -577879.3, -60514.168, 0.03094353, 0.2207821, -555518.7, -33002.445, 0.0, 9.998553, 10.000429 
2.2749145e+3, 2.5668508e+2, -761815.75, -559829.1, -59944.35, 0.062589735, 0.27249146, -543378.94, -118871.43, 0.0, 9.997641, 10.00032 
2.2748491e+3, 2.6668513e+2, -734431.4, -446319.9, -74459.54, 0.023875207, 0.24787024, -428214.38, -101708.14, 0.0, 9.996943, 10.000762 
2.2747833e+3, 2.76685e+2, -726824.4, -389567.06, -67052.41, -0.031672847, 0.17709684, -376724.94, -148218.05, 0.0, 9.996313, 10.000784 
2.2747184e+3, 2.86686e+2, -759467.0, -226514.63, -41886.133, -0.008671476, 0.16089094, -223242.77, -92745.37, 0.0, 9.994865, 10.001927 
2.2746538e+3, 2.96688e+2, -926098.75, -258085.83, -29960.344, -0.007819871, 0.18456852, -256744.8, -224266.14, 0.0, 9.993057, 10.00191 
2.2745903e+3, 3.0669114e+2, -955017.4, -199444.34, -1470.8043, 0.03735254, 0.30801415, -199441.48, -199441.48, 0.0, 9.992324, 10.002329 
2.274526e+3, 3.1669185e+2, -853403.4, 60515.063, -75118.086, -0.014379244, 0.16717811, 66648.12, 66648.12, 0.0, 9.992096, 10.004232 
2.2856721e+3, 1.3676873e+2, -1663362.1, -1605955.8, 236660.72, -0.6680865, -0.2296795, -1396264.0, 203416.27, 0.4932388, 9.999835, 10.000918 
2.2856225e+3, 1.4677177e+2, -558486.6, -1435679.6, 67209.9, -0.047721323, 0.35468492, -553366.94, 948285.3, 0.31715396, 10.012025, 9.994985 
2.285564e+3, 1.5676425e+2, -456586.6, -1412269.6, 54887.793, 0.018633848, 0.12165934, -453444.56, 950282.3, 0.165486, 10.010272, 9.995114 
2.2855015e+3, 1.6676024e+2, -430107.0, -1205143.8, -50410.348, 0.04358795, 0.12671976, -426841.94, 878926.0, 0.064603046, 10.007997, 9.997001 
2.2854373e+3, 1.767582e+2, -649962.4, -1268132.8, -11445.262, 0.047824997, 0.2406297, -649750.56, 558039.4, 0.015940877, 10.005414, 9.997093 
2.2853719e+3, 1.8675593e+2, -571231.25, -1008577.94, -48498.965, 0.022491202, 0.24196374, -565917.56, 543894.5, 0.0014742009, 10.004471, 9.998658 
2.2853057e+3, 1.9675381e+2, -496950.7, -941793.7, -52221.848, -0.020465098, 0.18577315, -490902.38, 520929.0, 0.0000011073804, 10.004387, 9.998484 
2.2852403e+3, 2.0675221e+2, -580083.3, -914564.44, -18288.066, -0.0129105775, 0.19806339, -579086.4, 334761.34, 0.0, 10.003071, 9.998631 
2.2851753e+3, 2.1675108e+2, -764996.56, -954621.25, 1424.1371, 0.02299697, 0.24052328, -764985.8, 50874.67, 0.0, 10.001134, 9.998617 
2.2851096e+3, 2.2674987e+2, -747720.8, -794842.5, -17252.621, 0.020655917, 0.23426735, -742079.5, -24205.896, 0.0, 10.000146, 9.9995165 
2.2850432e+3, 2.3674883e+2, -720960.9, -729345.3, -14876.402, -0.0002778809, 0.19815645, -709697.25, -89812.67, 0.0, 9.999649, 9.999533 
2.2849776e+3, 2.4674883e+2, -678071.06, -548038.2, -5265.0674, 0.024611937, 0.21896361, -547825.4, -25941.379, 0.0, 9.998798, 10.000514 
2.2849122e+3, 2.5674963e+2, -740642.5, -538705.9, -5812.403, 0.069251806, 0.2658426, -538538.7, -114663.414, 0.0, 9.997745, 10.000413 
2.2848457e+3, 2.667498e+2, -778706.94, -456921.25, -17788.371, 0.029617392, 0.24468046, -455940.88, -130067.766, 0.0, 9.996599, 10.000853 
2.2847788e+3, 2.7674985e+2, -850108.9, -439091.7, -15274.677, -0.03765705, 0.18362091, -438524.8, -210652.52, 0.0, 9.995429, 10.000867 
2.284713e+3, 2.86751e+2, -791352.3, -242929.95, -10320.634, -0.0070359977, 0.18251552, -242735.8, -112874.74, 0.0, 9.994657, 10.001913 
2.2846472e+3, 2.96753e+2, -796563.9, -204115.06, -10386.328, 0.017693765, 0.20856492, -203933.05, -172090.95, 0.0, 9.993989, 10.001828 
2.2845823e+3, 3.0675554e+2, -895246.75, -163854.97, 42952.69, 0.0015876946, 0.28120813, -161341.11, -161341.11, 0.0, 9.992713, 10.002381 
2.2845176e+3, 3.1675664e+2, -958692.8, -13014.255, -5508.1875, -0.028346036, 0.1630341, -12982.173, -12982.173, 0.0, 9.991482, 10.004017 
2.2956373e+3, 1.4683214e+2, -551924.8, -1418961.6, 30390.803, 0.22740988, 0.23985039, -550860.94, 950200.9, 0.3246474, 10.012129, 9.995112 
2.295574e+3, 1.5682586e+2, -451522.9, -1370231.4, 7318.042, 0.0071027046, 0.11564181, -451464.63, 951659.75, 0.16926198, 10.0101595, 9.995501 
2.2955082e+3, 1.6682306e+2, -350581.25, -1017913.5, -132853.2, -0.05588478, 0.14198995, -325105.28, 980047.5, 0.06600441, 10.0079, 9.998428 
2.295442e+3, 1.7682219e+2, -564905.75, -1100670.8, -85157.76, -0.025612822, 0.23267089, -551695.94, 655466.3, 0.016267046, 10.005454, 9.998239 
2.2953759e+3, 1.8682033e+2, -580823.06, -1034599.3, -45982.75, 0.012747778, 0.24014254, -576210.4, 532971.06, 0.0015060315, 10.004492, 9.998472 
2.2953105e+3, 1.9681825e+2, -506512.44, -949677.25, -61541.35, 0.04887285, 0.20325212, -498125.06, 513077.56, 0.0000011163818, 10.004329, 9.998461 
2.2952434e+3, 2.068168e+2, -535638.2, -814627.6, -88094.38, 0.026181139, 0.1900009, -510149.88, 403066.66, 0.0, 10.003033, 9.999338 
2.2951758e+3, 2.1681589e+2, -722460.9, -869005.75, -58980.23, -0.022869112, 0.18512622, -701672.06, 113552.51, 0.0, 10.00114, 9.999205 
2.2951092e+3, 2.2681527e+2, -744121.2, -790843.0, -33868.97, -0.0152649665, 0.21178077, -726338.0, -9106.288, 0.0, 10.000156, 9.999541 
2.295043e+3, 2.3681498e+2, -717197.3, -724327.56, -35899.523, 0.020164985, 0.24822597, -684686.3, -65450.098, 0.0, 9.999656, 9.999566 
2.2949761e+3, 2.4681467e+2, -672945.3, -539710.9, -45828.37, 0.013478149, 0.23143049, -525469.6, -4231.0234, 0.0, 9.998803, 10.000571 
2.2949088e+3, 2.5681457e+2, -733984.0, -528216.25, -47416.695, -0.01596898, 0.18368776, -517815.38, -94577.56, 0.0, 9.997753, 10.0004835 
2.2948416e+3, 2.6681507e+2, -773496.4, -447984.6, -64324.027, -0.0077232583, 0.18981972, -435734.6, -110501.65, 0.0, 9.996601, 10.000916 
2.2947747e+3, 2.7681613e+2, -850050.25, -438305.94, -55215.063, 0.02700388, 0.22517195, -431030.16, -203806.63, 0.0, 9.99542, 10.000879 
2.294708e+3, 2.868174e+2, -806527.9, -275668.72, -35188.598, 0.06559482, 0.24816377, -273346.38, -144134.69, 0.0, 9.994657, 10.001691 
2.2946416e+3, 2.968188e+2, -806328.75, -234578.66, -44636.527, 0.06941063, 0.23388024, -231114.88, -199915.94, 0.0, 9.994027, 10.001604 
2.2945732e+3, 3.068205e+2, -861960.5, -103680.79, -14942.01, -0.1325436, 0.21420808, -103386.47, -103386.47, 0.0, 9.9927435, 10.002784 
2.2945085e+3, 3.1682363e+2, -954851.7, -2012.1714, 20275.014, -0.060655344, 0.25631613, -1580.9443, -1580.9443, 0.0, 9.991473, 10.004094 
2.3056504e+3, 1.4689742e+2, -266067.75, -1284582.8, 100798.37, 0.20047358, 0.19536752, -256187.98, 1244235.5, 0.32902905, 10.015171, 9.995019 
2.3055832e+3, 1.5689184e+2, -639698.9, -1469032.3, 101535.18, 0.02371364, 0.15370414, -627448.9, 775030.6, 0.1713258, 10.008603, 9.995538 
2.3055154e+3, 1.6688922e+2, -505286.22, -1034785.94, 29332.709, -0.045112368, 0.16899803, -503666.25, 800839.0, 0.06667401, 10.006504, 9.998975 
2.3054475e+3, 1.7688833e+2, -365216.7, -953159.25, 26754.953, -0.049729478, 0.20652625, -364001.7, 842512.0, 0.016385047, 10.006632, 9.998698 
2.3053804e+3, 1.8688677e+2, -501593.56, -994858.94, 50709.63, -0.00044024727, 0.22618842, -496434.38, 612096.1, 0.0015111433, 10.005036, 9.998479 
2.305314e+3, 1.9688512e+2, -750820.56, -1060462.9, 48465.918, 0.069649234, 0.23240335, -743411.8, 267137.1, 0.0000010905918, 10.002626, 9.998516 
2.3052458e+3, 2.0688377e+2, -692972.0, -860484.0, 19321.668, 0.038915355, 0.21482658, -690772.2, 221789.25, 0.0, 10.001828, 9.9996 
2.305177e+3, 2.1688282e+2, -607169.56, -787441.3, 16121.531, -0.03853755, 0.1825948, -605739.2, 208829.67, 0.0, 10.001827, 9.99943 
2.3051092e+3, 2.2688223e+2, -634207.0, -733700.8, 31477.076, -0.033546537, 0.20432113, -625084.9, 91490.43, 0.0, 10.000898, 9.999573 
2.3050423e+3, 2.3688205e+2, -735875.3, -728630.7, 29654.93, 0.0137000615, 0.24891111, -702377.7, -83798.58, 0.0, 9.999513, 9.999603 
2.3049743e+3, 2.4688177e+2, -723200.56, -557997.9, 19208.818, 0.008338674, 0.23278178, -555793.75, -35212.547, 0.0, 9.998437, 10.000619 
2.304906e+3, 2.5688165e+2, -766376.5, -539073.1, 15114.584, -0.026156038, 0.18074286, -538072.44, -115491.86, 0.0, 9.997515, 10.000522 
2.3048382e+3, 2.668822e+2, -752338.94, -435523.06, -3946.79, -0.0128058605, 0.19020428, -435473.9, -110898.375, 0.0, 9.996741, 10.000932 
2.30477e+3, 2.7688333e+2, -763364.7, -395266.84, 1121.603, 0.038039595, 0.23316467, -395263.44, -168697.83, 0.0, 9.996015, 10.000886 
2.3047027e+3, 2.8688467e+2, -785389.56, -271579.8, 26656.477, 0.07327011, 0.2646768, -270200.56, -141646.98, 0.0, 9.994832, 10.001632 
2.304635e+3, 2.9688606e+2, -899095.44, -286925.0, 25460.627, 0.05823676, 0.26231992, -285867.9, -255327.31, 0.0, 9.993426, 10.001533 
2.3045659e+3, 3.068871e+2, -899947.2, -151326.72, 36329.73, -0.11381499, 0.19099241, -149567.8, -149567.8, 0.0, 9.992603, 10.002527 
2.3045005e+3, 3.1689042e+2, -918300.7, -348.74945, 22478.951, 0.002567985, 0.27838463, 201.38896, 201.38896, 0.0, 9.991803, 10.0039425 
2.3156627e+3, 1.469667e+2, -320138.97, -1333867.0, -63660.957, -0.08429282, 0.2073887, -316156.78, 1183589.8, 0.32940733, 10.014766, 9.994712 
2.315592e+3, 1.5696143e+2, -649881.3, -1506398.9, -60768.293, 0.06318833, 0.22837807, -645591.44, 756208.3, 0.1713502, 10.008654, 9.99525 
2.3155227e+3, 1.6695821e+2, -506348.34, -1055579.1, 41807.492, 0.050210394, 0.20556112, -503184.2, 800646.56, 0.066544995, 10.006583, 9.998786 
2.3154539e+3, 1.7695633e+2, -381990.16, -975802.8, 19935.799, -0.037053525, 0.16221336, -381321.6, 824525.9, 0.016295886, 10.006572, 9.998572 
2.315385e+3, 1.8695499e+2, -496324.28, -977451.06, -37653.46, -0.0207567, 0.20074311, -493395.3, 614466.56, 0.0014917157, 10.005003, 9.998618 
2.3153159e+3, 1.9695412e+2, -737409.44, -1045419.44, -22501.662, 0.04378238, 0.27317724, -735774.25, 274098.72, 0.0000009959217, 10.002676, 9.998599 
2.3152474e+3, 2.0695287e+2, -698082.75, -880591.8, 22553.285, 0.026772242, 0.27133605, -695337.06, 216547.88, 0.0, 10.0018635, 9.999448 
2.3151787e+3, 2.1695165e+2, -617458.06, -806518.0, 9747.371, -0.029053232, 0.22824995, -616956.9, 196938.4, 0.0, 10.001811, 9.99931 
2.3151098e+3, 2.2695062e+2, -635138.8, -733439.1, -19126.662, -0.03863584, 0.20935926, -631548.4, 84357.56, 0.0, 10.000884, 9.999585 
2.315041e+3, 2.369499e+2, -734021.1, -726001.94, -18479.158, -0.023224678, 0.19965184, -711102.4, -93187.984, 0.0, 9.999513, 9.999624 
2.3149727e+3, 2.4695006e+2, -721186.2, -556203.25, -16509.959, 0.0087464815, 0.22382124, -554567.3, -34654.55, 0.0, 9.998442, 10.000632 
2.314904e+3, 2.5695083e+2, -765378.0, -540889.8, -18807.72, 0.039804194, 0.2600811, -539325.0, -117420.71, 0.0, 9.997526, 10.000506 
2.3148347e+3, 2.669511e+2, -754070.44, -442860.8, -32240.664, 0.012049686, 0.24903013, -439555.84, -115654.57, 0.0, 9.996752, 10.000879 
2.3147655e+3, 2.7695137e+2, -760252.06, -394323.13, -30836.32, -0.021474188, 0.20793022, -391742.8, -165843.78, 0.0, 9.996033, 10.000887 
2.3146965e+3, 2.869526e+2, -775795.7, -254098.61, -27988.568, 0.007051906, 0.22277397, -252601.34, -124713.65, 0.0, 9.994838, 10.001752 
2.3146275e+3, 2.9695466e+2, -894237.56, -276390.9, -20078.121, -0.0059834337, 0.27455595, -275739.1, -245870.53, 0.0, 9.993419, 10.001613 
2.3145601e+3, 3.0695578e+2, -966023.25, -292943.2, 17513.027, 0.055579726, 0.25558296, -292487.8, -292487.8, 0.0, 9.992615, 10.0015545 
2.314492e+3, 3.1695738e+2, -915230.8, 7787.6426, -82582.76, -0.018199686, 0.28073683, 15118.131, 15118.131, 0.0, 9.991801, 10.003996 
2.325675e+3, 1.470386e+2, -693805.75, -1521712.3, -38549.37, -0.05988624, 0.23694487, -692014.7, 807030.3, 0.32530966, 10.010864, 9.99475 
2.3256008e+3, 1.5703349e+2, -478004.84, -1415356.5, -2233.6907, 0.043268338, 0.27387476, -477999.5, 923096.25, 0.16913576, 10.0101, 9.99517 
2.3255298e+3, 1.6702971e+2, -357508.03, -1049540.6, 150181.66, 0.044930287, 0.23995782, -326321.72, 976809.94, 0.065562494, 10.007982, 9.998151 
2.32546e+3, 1.7702697e+2, -598185.75, -1136610.8, 106208.05, -0.010725668, 0.17684525, -577992.8, 627163.5, 0.0159929, 10.005314, 9.998052 
2.3253897e+3, 1.8702522e+2, -581970.1, -1027745.06, 40499.414, -0.013253656, 0.20254971, -578320.56, 528853.7, 0.0014488031, 10.004459, 9.99853 
2.325319e+3, 1.9702415e+2, -487030.44, -935255.6, 39447.688, 0.011630537, 0.26570275, -483585.2, 525601.56, 0.0000009147046, 10.004449, 9.998497 
2.3252493e+3, 2.0702283e+2, -543039.7, -829182.2, 78634.71, 0.007576125, 0.2750678, -522854.1, 388345.8, 0.0, 10.003036, 9.999233 
2.3251799e+3, 2.1702161e+2, -746981.9, -883851.7, 61108.6, -0.010594687, 0.2532638, -723669.3, 89541.914, 0.0, 10.000992, 9.99917 
2.3251103e+3, 2.2702056e+2, -753373.0, -774786.94, 42614.824, -0.017711958, 0.23249894, -720140.7, -4918.8774, 0.0, 10.0000105, 9.999719 
2.3250405e+3, 2.3701984e+2, -724256.1, -708319.94, 51887.28, -0.015667258, 0.20940967, -663792.5, -46562.766, 0.0, 9.99953, 9.999734 
2.324971e+3, 2.4701999e+2, -677025.75, -536526.6, 56489.97, 0.007830009, 0.23280464, -516631.22, 2596.7583, 0.0, 9.998758, 10.000611 
2.3249014e+3, 2.570208e+2, -722383.44, -521447.4, 50932.586, 0.035639156, 0.27695164, -509274.63, -88055.27, 0.0, 9.997833, 10.000489 
2.3248313e+3, 2.6702103e+2, -753099.25, -440532.1, 40305.83, 0.003975422, 0.26038158, -435418.3, -112201.43, 0.0, 9.996757, 10.00089 
2.3247607e+3, 2.7702108e+2, -824236.56, -424061.78, 41350.426, -0.034086075, 0.20157096, -419833.7, -194617.75, 0.0, 9.995595, 10.000891 
2.3246911e+3, 2.870222e+2, -805951.9, -268861.3, 31148.826, -0.0012510973, 0.20783262, -267060.84, -139855.1, 0.0, 9.994638, 10.001743 
2.3246208e+3, 2.9702443e+2, -838313.9, -244884.88, 31918.896, -0.0054518576, 0.27625695, -243172.98, -213987.5, 0.0, 9.993791, 10.001644 
2.3245527e+3, 3.0702594e+2, -939815.44, -287476.3, 115610.164, 0.060977057, 0.30175596, -267593.44, -267593.44, 0.0, 9.992831, 10.001485 
2.3244824e+3, 3.1702676e+2, -919891.7, 41394.316, -22268.746, -0.11725712, 0.26241177, 41909.91, 41909.91, 0.0, 9.991626, 10.004306 
2.3357692e+3, 1.3711597e+2, -1230100.4, -1513170.8, -152457.9, 0.3762475, 0.21716769, -1163607.6, 432685.13, 0.49308994, 10.005866, 9.998427 
2.3356882e+3, 1.4711261e+2, -679194.25, -1490613.6, -61072.926, 0.17473793, 0.27880865, -674623.25, 823700.0, 0.31688154, 10.010766, 9.995033 
2.3356098e+3, 1.5710758e+2, -482638.66, -1416698.1, -39042.023, -0.03364442, 0.29384387, -481009.63, 919362.1, 0.16467199, 10.009992, 9.99522 
2.3355366e+3, 1.6710334e+2, -429183.84, -1192641.6, 54621.5, -0.045135897, 0.2731648, -425295.75, 877116.0, 0.06369641, 10.007934, 9.997124 
2.3354654e+3, 1.7709991e+2, -650126.5, -1259905.1, 28519.734, 0.026096271, 0.24269268, -648795.5, 555648.2, 0.0154638775, 10.005369, 9.997174 
2.335394e+3, 1.870972e+2, -597117.6, -1069076.9, 43858.613, 0.014982081, 0.2274831, -593076.5, 513393.5, 0.0013821695, 10.004496, 9.998232 
2.3353228e+3, 1.9709508e+2, -511826.8, -980488.1, 27296.59, -0.030696072, 0.21283846, -510242.3, 498249.34, 0.0000009556597, 10.004416, 9.998206 
2.3352517e+3, 2.0709355e+2, -566514.56, -874173.0, 2717.3206, -0.020232163, 0.23009881, -566490.56, 344016.88, 0.0, 10.003014, 9.998938 
2.335181e+3, 2.1709256e+2, -758388.8, -910768.1, -1195.7659, 0.013593626, 0.2591095, -758379.44, 54138.52, 0.0, 10.000999, 9.998984 
2.3351103e+3, 2.2709194e+2, -734264.5, -740045.6, 26408.365, 0.026790306, 0.27456987, -710588.94, 3935.1665, 0.0, 10.000026, 9.999952 
2.3350403e+3, 2.3709169e+2, -710556.4, -683182.4, 31376.914, 0.031612173, 0.27780288, -662637.1, -46110.8, 0.0, 9.999538, 9.999906 
2.3349692e+3, 2.4709144e+2, -680705.9, -546804.25, 20744.994, 0.0017077207, 0.25866547, -543663.94, -25136.004, 0.0, 9.998765, 10.000541 
2.3348983e+3, 2.5709143e+2, -723488.56, -526929.5, 13973.653, -0.046683557, 0.22798036, -525941.06, -105414.18, 0.0, 9.997841, 10.00045 
2.3348273e+3, 2.6709178e+2, -748800.06, -433347.0, -5318.28, -0.038802568, 0.22102977, -433257.38, -110734.22, 0.0, 9.996758, 10.000941 
2.3347566e+3, 2.770924e+2, -824741.44, -427174.9, -1140.3756, 0.0055096447, 0.21305689, -427171.63, -202654.73, 0.0, 9.995598, 10.000872 
2.334686e+3, 2.8709343e+2, -818075.56, -297267.6, -1332.6989, 0.050086815, 0.22471878, -297264.2, -170756.4, 0.0, 9.994647, 10.001548 
2.334615e+3, 2.9709527e+2, -836163.4, -248030.7, 771.41064, 0.047719937, 0.27667364, -248029.69, -219538.44, 0.0, 9.993817, 10.001614 
2.3345435e+3, 3.0709738e+2, -871203.56, -146574.64, 72242.49, -0.109476484, 0.30245897, -139442.56, -139442.56, 0.0, 9.992832, 10.002454 
2.3344746e+3, 3.1709796e+2, -932920.1, 2101.2478, -153401.52, -0.025020031, 0.14804836, 26625.383, 26625.383, 0.0, 9.991651, 10.00404 
2.3457688e+3, 1.3719375e+2, -1086422.8, -1646210.6, -63568.984, -0.38955006, 0.5472386, -1079294.6, 516238.25, 0.47315085, 10.008959, 9.995514 
2.3456973e+3, 1.4718567e+2, -794255.3, -1525537.4, -85741.555, 0.12949087, 0.22967266, -784336.75, 713271.56, 0.3044794, 10.009251, 9.9955225 
2.3456189e+3, 1.5718159e+2, -681478.3, -1499087.0, -63172.76, -0.013572612, 0.29446498, -676626.0, 723020.75, 0.15812708, 10.00816, 9.995536 
2.3455442e+3, 1.671773e+2, -539898.25, -1299234.5, 38173.313, -0.018989196, 0.28416196, -537984.0, 763703.5, 0.06098512, 10.007353, 9.996617 
2.3454712e+3, 1.7717333e+2, -497910.4, -1234990.5, 46637.93, 0.035495903, 0.24873915, -494971.16, 708754.1, 0.014703604, 10.006649, 9.996725 
2.3453987e+3, 1.8717028e+2, -514555.56, -1058466.6, 94028.75, 0.017463725, 0.23435381, -498759.06, 606996.0, 0.0012886446, 10.005198, 9.997963 
2.3453264e+3, 1.9716786e+2, -669159.4, -1080331.3, 74996.83, -0.03167069, 0.22091576, -655907.25, 351871.9, 0.0000011022485, 10.003446, 9.997984 
2.3452544e+3, 2.0716615e+2, -650561.94, -924797.3, 50745.688, -0.015747702, 0.23505206, -641473.0, 268323.56, 0.0, 10.002487, 9.99884 
2.3451823e+3, 2.1716501e+2, -637030.4, -862857.6, 62275.086, 0.02930371, 0.26172677, -620995.7, 190812.55, 0.0, 10.001886, 9.998882 
2.3451106e+3, 2.2716428e+2, -614306.4, -697793.75, 90815.35, 0.029057376, 0.27972102, -556100.25, 157715.34, 0.0, 10.000924, 9.999806 
2.3450392e+3, 2.3716393e+2, -681873.06, -680416.56, 66213.41, 0.011145304, 0.28756714, -614927.44, 891.56696, 0.0, 9.999789, 9.9998 
2.3449676e+3, 2.4716358e+2, -718165.2, -565114.25, 41574.66, -0.012866617, 0.26412028, -554550.1, -36728.34, 0.0, 9.998515, 10.000532 
2.3448955e+3, 2.571635e+2, -815223.7, -566107.75, 41501.11, -0.040537585, 0.2243387, -559375.9, -139553.83, 0.0, 9.997197, 10.000488 
2.3448238e+3, 2.6716396e+2, -760710.5, -420052.34, 41791.21, -0.025368964, 0.2249524, -415000.4, -93184.33, 0.0, 9.996603, 10.001103 
2.3447524e+3, 2.771649e+2, -717866.56, -362816.0, 49918.47, 0.017037705, 0.23501027, -355931.22, -132125.3, 0.0, 9.996284, 10.000978 
2.3446807e+3, 2.8716573e+2, -741303.2, -275162.25, 46537.32, 0.055537954, 0.23053151, -270561.6, -144762.75, 0.0, 9.995244, 10.001408 
2.3446086e+3, 2.9716706e+2, -839364.7, -263336.38, 49811.88, 0.06731985, 0.24261583, -259060.64, -231272.77, 0.0, 9.993861, 10.001484 
2.3445354e+3, 3.0716953e+2, -907659.94, -113275.44, 80304.586, -0.15762532, 0.29325813, -105238.73, -105238.73, 0.0, 9.992372, 10.0029 
2.3444673e+3, 3.1717134e+2, -1003850.94, 15440.0625, -126348.46, 0.12257031, 0.20329422, 30868.338, 30868.338, 0.0, 9.9909725, 10.004452 
2.3557827e+3, 1.3726579e+2, -1034760.8, -1587570.5, -1054.6396, 0.13735636, 0.43158743, -1034758.8, 560067.25, 0.44790936, 10.009115, 9.995849 
2.3557036e+3, 1.4725815e+2, -761333.5, -1459619.6, -116489.18, -0.13069789, 0.1121194, -742413.2, 754483.9, 0.2887814, 10.009125, 9.996113 
2.3556277e+3, 1.5725571e+2, -644078.3, -1425763.6, -94829.1, 0.085185975, 0.28151655, -632738.75, 766181.3, 0.14989066, 10.008152, 9.996054 
2.3555523e+3, 1.6725163e+2, -543946.7, -1315336.3, 13964.868, 0.09389306, 0.27738512, -543694.0, 757264.94, 0.057577495, 10.007351, 9.9965105 
2.3554774e+3, 1.7724717e+2, -510709.1, -1256295.8, 14011.391, 0.015713073, 0.20321682, -510445.88, 692555.9, 0.013738243, 10.006612, 9.996599 
2.3554033e+3, 1.872443e+2, -536163.56, -1100112.4, 28827.297, -0.003177425, 0.22620958, -534693.9, 570336.75, 0.0011677501, 10.005177, 9.997689 
2.3553301e+3, 1.9724232e+2, -680717.75, -1107921.6, 20380.863, 0.002479047, 0.28389564, -679747.6, 327303.56, 0.0000011902404, 10.003455, 9.997793 
2.3552568e+3, 2.0724045e+2, -642930.56, -914784.44, 30224.572, 0.016272524, 0.28561783, -639610.75, 269458.34, 0.0, 10.002507, 9.998902 
2.3551838e+3, 2.1723884e+2, -641089.44, -872968.5, 37953.67, 0.032233763, 0.2606025, -635035.3, 176048.31, 0.0, 10.001888, 9.998816 
2.3551108e+3, 2.2723746e+2, -651122.5, -774929.4, 49535.53, -0.012348633, 0.24877691, -633742.9, 79354.62, 0.0, 10.000921, 9.999281 
2.3550381e+3, 2.3723643e+2, -709596.6, -739231.06, 22380.768, -0.07985887, 0.23863345, -697572.6, -82463.92, 0.0, 9.999789, 9.999399 
2.3549655e+3, 2.4723628e+2, -715363.8, -561457.56, -10456.414, -0.035616398, 0.2508042, -560750.4, -43639.973, 0.0, 9.998519, 10.000558 
2.3548935e+3, 2.5723678e+2, -808066.56, -553794.2, -1200.4714, 0.052670795, 0.26910454, -553788.5, -134682.9, 0.0, 9.997202, 10.000573 
2.3548208e+3, 2.6723754e+2, -740719.5, -381899.66, 29383.12, 0.04357601, 0.2748008, -379509.44, -58413.063, 0.0, 9.996612, 10.001364 
2.3547481e+3, 2.7723858e+2, -699029.4, -330335.06, 29317.123, -0.00516574, 0.26804385, -328018.44, -104934.664, 0.0, 9.996307, 10.001193 
2.3546752e+3, 2.8723904e+2, -744253.75, -286126.56, -7463.4683, 0.00741497, 0.22180755, -286005.0, -160925.25, 0.0, 9.995259, 10.001328 
2.354602e+3, 2.9723957e+2, -856853.56, -304817.5, -2563.7446, 0.038755264, 0.16653642, -304805.6, -277729.22, 0.0, 9.993876, 10.001195 
2.3545286e+3, 3.0724224e+2, -925734.3, -151009.89, 16583.49, -0.05314646, 0.2759238, -150655.08, -150655.08, 0.0, 9.992366, 10.002647 
2.3544572e+3, 3.1724587e+2, -917028.1, 205052.84, 18267.514, 0.053416688, 0.35789, 205350.17, 205350.17, 0.0, 9.990939, 10.005766 
2.3657931e+3, 1.3733907e+2, -917277.8, -1510082.8, -1574.4368, 0.25436822, 0.32792595, -917273.6, 676832.75, 0.42004475, 10.009917, 9.996372 
2.3657116e+3, 1.4733282e+2, -888499.94, -1522090.0, -71624.52, -0.14610139, 0.11483894, -880504.0, 615661.0, 0.27119005, 10.007677, 9.996291 
2.3656358e+3, 1.5733057e+2, -639232.0, -1404703.6, -70471.64, 0.11384403, 0.28656182, -632798.25, 765388.94, 0.1406101, 10.008041, 9.996239 
2.3655596e+3, 1.6732676e+2, -551591.94, -1298329.1, 18734.863, 0.1089455, 0.29063287, -551122.2, 749101.5, 0.053716235, 10.007185, 9.996702 
2.3654832e+3, 1.7732258e+2, -608712.0, -1289111.1, 33475.81, -0.0072723683, 0.22818823, -607068.94, 595194.7, 0.012629744, 10.005866, 9.996729 
2.365408e+3, 1.873196e+2, -597006.06, -1144163.3, 51840.926, -0.013754305, 0.24521784, -592137.6, 512155.56, 0.0010270586, 10.004829, 9.99755 
2.3653337e+3, 1.9731735e+2, -624491.6, -1097277.8, 54729.063, 0.025688086, 0.29101542, -618238.94, 388077.22, 0.0000011264937, 10.003921, 9.997638 
2.3652595e+3, 2.073152e+2, -579378.6, -909647.3, 69517.0, 0.03567512, 0.28583074, -565342.75, 342994.1, 0.0, 10.00306, 9.998668 
2.3651858e+3, 2.173133e+2, -609586.3, -878748.56, 50183.28, 0.03300765, 0.2549273, -600534.44, 209819.83, 0.0, 10.002201, 9.998622 
2.3651116e+3, 2.2731179e+2, -680646.6, -798596.5, 58070.31, -0.017103001, 0.24318781, -656855.6, 55513.96, 0.0, 10.000766, 9.99919 
2.365037e+3, 2.3731065e+2, -813588.2, -797795.7, 67067.625, -0.082541525, 0.23625705, -738161.06, -123779.47, 0.0, 9.999119, 9.999316 
2.3649639e+3, 2.4731053e+2, -731813.06, -577852.06, 56519.504, -0.027041037, 0.2576586, -559331.5, -42948.016, 0.0, 9.99845, 10.000475 
2.3648912e+3, 2.5731108e+2, -676443.94, -498757.66, 55397.19, 0.07699742, 0.28816438, -482901.47, -64522.902, 0.0, 9.998149, 10.000491 
2.3648176e+3, 2.6731163e+2, -686005.4, -364305.0, 62482.402, 0.05664271, 0.28673247, -352595.53, -32224.377, 0.0, 9.997033, 10.001278 
2.364744e+3, 2.7731243e+2, -805830.7, -385503.8, 34402.56, -0.0076450054, 0.26450792, -382706.66, -160345.67, 0.0, 9.9956, 10.00115 
2.3646699e+3, 2.873129e+2, -792424.9, -297608.8, -5703.839, -0.004814629, 0.21694918, -297543.06, -173186.77, 0.0, 9.994888, 10.001424 
2.3645957e+3, 2.9731357e+2, -776624.9, -252044.44, 6331.0967, 0.0064280676, 0.16559035, -251968.05, -225617.08, 0.0, 9.994377, 10.001312 
2.3645218e+3, 3.0731636e+2, -825437.3, -117555.44, 38909.695, 0.008672852, 0.28785732, -115423.13, -115423.13, 0.0, 9.993124, 10.00251 
2.3644477e+3, 3.173184e+2, -855939.4, 124564.34, 92436.016, -0.009176119, 0.23582798, 133202.56, 133202.56, 0.0, 9.9918375, 10.004777 
2.3758012e+3, 1.3741365e+2, -866950.06, -1455955.0, -131868.75, 0.09661685, 0.24288538, -838774.56, 754598.94, 0.39320403, 10.009832, 9.9969845 
2.3757204e+3, 1.4740944e+2, -876801.56, -1548970.3, -60296.535, 0.0058541116, 0.21256293, -871435.5, 623978.94, 0.2536012, 10.0077505, 9.996068 
2.3756433e+3, 1.5740615e+2, -648268.0, -1429998.5, -68668.92, 0.08115112, 0.3038611, -642281.8, 755166.25, 0.13108897, 10.007963, 9.996105 
2.3755656e+3, 1.6740264e+2, -532785.5, -1249246.1, -26160.004, 0.04678693, 0.31897017, -531831.6, 767650.5, 0.04968404, 10.007105, 9.997098 
2.3754886e+3, 1.7739938e+2, -590717.56, -1248436.6, -10164.785, -0.033026215, 0.31127062, -590560.5, 610952.2, 0.011457356, 10.005843, 9.997022 
2.3754126e+3, 1.8739608e+2, -601035.5, -1153191.3, 18634.521, -0.017953685, 0.28663158, -600407.3, 503137.16, 0.0008794235, 10.004827, 9.997492 
2.3753373e+3, 1.9739291e+2, -637470.8, -1123452.9, 23157.664, 0.03507606, 0.24826181, -636369.8, 369205.2, 0.0000009265851, 10.003912, 9.997465 
2.3752624e+3, 2.0739035e+2, -616297.8, -986113.8, 39513.117, 0.041704252, 0.24132462, -612123.1, 295477.2, 0.0, 10.003054, 9.998149 
2.3751874e+3, 2.173883e+2, -634491.7, -928318.3, 14126.086, 0.028064918, 0.24585077, -633814.1, 175806.75, 0.0, 10.002186, 9.998292 
2.3751123e+3, 2.2738715e+2, -658791.8, -754527.1, -3897.1377, 0.012395297, 0.26376754, -658633.44, 52999.152, 0.0, 10.000766, 9.9994955 
2.3750369e+3, 2.3738655e+2, -799432.1, -770852.7, 17149.352, -0.0020542494, 0.28069443, -762819.9, -149181.19, 0.0, 9.999124, 9.999502 
2.3749624e+3, 2.4738617e+2, -744798.75, -608632.6, 45671.664, 0.009509344, 0.28387284, -594732.75, -79090.734, 0.0, 9.998462, 10.000261 
2.3748884e+3, 2.5738615e+2, -692792.94, -539581.2, 33966.316, 0.025217596, 0.2802611, -532388.6, -114746.84, 0.0, 9.998174, 10.000202 
2.374814e+3, 2.6738608e+2, -718818.25, -436158.06, 3803.8022, 0.008962718, 0.2574914, -436106.9, -116465.12, 0.0, 9.997043, 10.000783 
2.3747392e+3, 2.7738622e+2, -830933.6, -437613.5, -13390.823, -0.0010820354, 0.21663845, -437158.13, -215518.1, 0.0, 9.995594, 10.000798 
2.3746648e+3, 2.873872e+2, -774101.4, -261761.16, -26031.053, 0.021389225, 0.21943054, -260441.95, -136812.03, 0.0, 9.994891, 10.001671 
2.3745896e+3, 2.973891e+2, -732880.06, -170117.55, -26520.855, -0.012280639, 0.26481915, -168870.48, -143259.5, 0.0, 9.994409, 10.001863 
2.3745142e+3, 3.073916e+2, -814916.5, -101862.09, -16706.97, -0.015906746, 0.31000775, -101470.86, -101470.86, 0.0, 9.993145, 10.002609 
2.3744401e+3, 3.1739128e+2, -1045059.94, -289969.2, -50067.71, 0.08150499, 0.076426975, -286663.8, -286663.8, 0.0, 9.991909, 10.001907 
2.3858918e+3, 1.2749529e+2, -1439868.0, -1795173.9, -65654.22, 0.01499902, 0.40005535, -1428124.5, 262450.16, 0.4924011, 10.00497, 9.997116 
2.3858096e+3, 1.3749066e+2, -962201.2, -1513515.8, -97975.086, 0.049847145, 0.25077456, -945307.5, 647311.2, 0.36997092, 10.008518, 9.996928 
2.385729e+3, 1.4748715e+2, -775143.1, -1497007.0, -20539.463, 0.05995902, 0.29592264, -774559.2, 720094.2, 0.23754176, 10.008574, 9.996015 
2.3856498e+3, 1.574829e+2, -802824.7, -1523695.0, -16088.215, 0.0444604, 0.2969596, -802465.8, 594230.3, 0.122015245, 10.006719, 9.996053 
2.3855717e+3, 1.6747925e+2, -691183.1, -1321804.9, 25189.238, 0.026073536, 0.29943275, -690178.56, 608552.94, 0.045728453, 10.00592, 9.9971485 
2.3854941e+3, 1.7747624e+2, -628645.94, -1265744.6, 18303.33, 0.0034770868, 0.31348306, -628120.5, 572639.2, 0.010292607, 10.005575, 9.997028 
2.3854172e+3, 1.874729e+2, -611470.44, -1167308.3, 33697.14, 0.012224445, 0.29282296, -609435.0, 493356.88, 0.0007366279, 10.0048, 9.997404 
2.3853411e+3, 1.9746958e+2, -653470.0, -1140664.1, 34536.04, 0.035098676, 0.24824935, -651034.06, 353790.06, 0.00000064590364, 10.003849, 9.997375 
2.385265e+3, 2.0746692e+2, -670299.4, -1020855.7, 69134.9, 0.027159102, 0.24248378, -657157.6, 249692.92, 0.0, 10.0027275, 9.998064 
2.385189e+3, 2.1746485e+2, -730296.4, -980229.3, 70136.484, 0.0075109145, 0.25357053, -711959.9, 96911.836, 0.0, 10.001559, 9.998234 
2.3851128e+3, 2.2746377e+2, -645688.0, -744546.3, 45290.94, 0.02077876, 0.28220817, -628076.06, 82806.48, 0.0, 10.000846, 9.999522 
2.3850368e+3, 2.3746328e+2, -632600.8, -695403.9, 49865.914, 0.049261842, 0.3102208, -605073.0, 7814.2065, 0.0, 10.000297, 9.999453 
2.3849614e+3, 2.4746248e+2, -642517.5, -589491.6, 80867.93, 0.035947938, 0.2906109, -530901.3, -16006.782, 0.0, 9.999301, 9.999985 
2.384886e+3, 2.574618e+2, -714453.1, -572213.94, 59372.96, 0.002080502, 0.25161928, -550688.25, -133787.94, 0.0, 9.998129, 9.999995 
2.3848103e+3, 2.6746184e+2, -711622.75, -430655.28, 40649.105, -0.01799846, 0.24479556, -424892.56, -105992.64, 0.0, 9.997092, 10.0007925 
2.3847346e+3, 2.774623e+2, -763533.1, -407659.5, 63600.695, -0.01029552, 0.24125387, -396634.53, -175739.2, 0.0, 9.996074, 10.00077 
2.3846596e+3, 2.8746328e+2, -746820.7, -256180.6, 62040.59, 0.034300093, 0.25087228, -248457.25, -125571.93, 0.0, 9.995119, 10.0015955 
2.384584e+3, 2.9746497e+2, -760947.25, -183107.33, 26168.922, 0.019063048, 0.28363428, -181924.63, -157056.63, 0.0, 9.994224, 10.001858 
2.3845068e+3, 3.0746707e+2, -782149.75, -60178.848, -8882.228, -0.04392579, 0.27889785, -60069.59, -60069.59, 0.0, 9.993266, 10.002834 
2.3844317e+3, 3.1746948e+2, -969463.9, -215412.94, -3668.9114, 0.053390827, 0.3139185, -215395.1, -215395.1, 0.0, 9.992277, 10.002235 
2.3958972e+3, 1.2757215e+2, -1440060.3, -1873744.4, 10511.219, 0.0933907, 0.19226024, -1439805.6, 250012.44, 0.46969494, 10.005123, 9.996444 
2.3958181e+3, 1.3756956e+2, -986773.1, -1575382.9, -34371.94, 0.07315795, 0.32113254, -984772.8, 607073.7, 0.3507408, 10.008345, 9.996326 
2.395737e+3, 1.4756578e+2, -775985.75, -1503528.3, -76597.0, 0.040076062, 0.36011362, -768008.94, 725874.8, 0.22356173, 10.008422, 9.996061 
2.3956558e+3, 1.5756068e+2, -797746.94, -1528009.0, -66486.49, 0.0017261874, 0.27033994, -791743.06, 604189.94, 0.11374975, 10.006724, 9.996028 
2.3955774e+3, 1.6755655e+2, -702927.0, -1358232.6, 14821.636, 0.035006363, 0.24381888, -702591.94, 595380.56, 0.042010188, 10.0059395, 9.996893 
2.3955002e+3, 1.775532e+2, -649278.94, -1305871.5, 2565.538, 0.088012666, 0.25120434, -649268.94, 550735.44, 0.009186685, 10.00555, 9.996768 
2.3954223e+3, 1.8755008e+2, -623781.9, -1189085.9, 229.64369, 0.06892242, 0.2710044, -623781.75, 478253.84, 0.00060674775, 10.004778, 9.997269 
2.3953445e+3, 1.9754724e+2, -657616.2, -1147564.8, -180.04196, 0.023225544, 0.28601593, -657616.1, 346448.47, 0.00000036108204, 10.003837, 9.997335 
2.3952669e+3, 2.0754479e+2, -650109.56, -980456.4, 26195.996, -0.007298371, 0.28495044, -648045.1, 258043.6, 0.0, 10.0027275, 9.998344 
2.39519e+3, 2.1754277e+2, -719998.8, -959729.0, 34066.32, -0.030210549, 0.27646685, -715251.9, 92856.41, 0.0, 10.001557, 9.998379 
2.3951133e+3, 2.2754152e+2, -662191.06, -781756.7, 26454.088, 0.0071755066, 0.29832277, -656599.5, 53521.11, 0.0, 10.000854, 9.999267 
2.3950368e+3, 2.3754077e+2, -651789.25, -738463.0, 24494.303, 0.0660585, 0.3257794, -645346.06, -33217.887, 0.0, 10.000305, 9.999156 
2.3949605e+3, 2.4753934e+2, -666544.3, -643148.1, 34814.777, 0.05034264, 0.27819276, -618118.7, -103976.695, 0.0, 9.99931, 9.999616 
2.3948841e+3, 2.5753793e+2, -722479.1, -592287.44, 15346.758, 0.0035012013, 0.20070036, -590502.8, -174347.53, 0.0, 9.9981365, 9.999857 
2.3948072e+3, 2.6753882e+2, -672880.44, -353247.06, 1140.6042, -0.025449153, 0.25215068, -353243.0, -35097.137, 0.0, 9.9971, 10.001324 
2.3947302e+3, 2.7754086e+2, -737999.2, -362320.84, 26147.584, -0.03703365, 0.35312054, -360509.7, -140384.38, 0.0, 9.996101, 10.001071 
2.3946543e+3, 2.8754112e+2, -778988.25, -327026.9, 26448.064, 0.031064989, 0.30932507, -325484.47, -203361.86, 0.0, 9.995131, 10.001107 
2.3945786e+3, 2.975407e+2, -808880.4, -282350.63, -6276.609, 0.08997388, 0.18180794, -282275.8, -258149.14, 0.0, 9.994216, 10.0011835 
2.3944995e+3, 3.0754298e+2, -764485.44, -27741.809, -54651.61, -0.06604715, 0.22357717, -23709.82, -23709.82, 0.0, 9.993277, 10.003056 
2.3944229e+3, 3.1754705e+2, -889862.9, -69342.914, 66107.49, -0.026970318, 0.35870647, -64050.91, -64050.91, 0.0, 9.992355, 10.003202 
2.4059033e+3, 1.2765029e+2, -1231230.9, -1699677.1, 3792.0925, 0.08282304, 0.1859011, -1231200.3, 457852.16, 0.45094395, 10.007625, 9.996432 
2.4058253e+3, 1.3764761e+2, -1157658.6, -1704050.9, -17775.81, 0.09279315, 0.3101897, -1157081.0, 434000.75, 0.33452103, 10.006432, 9.996308 
2.4057442e+3, 1.476439e+2, -971000.4, -1597185.4, -78586.73, 0.05808994, 0.34032694, -961288.3, 531829.56, 0.21140234, 10.006492, 9.996345 
2.4056624e+3, 1.5763916e+2, -755128.0, -1485051.0, -52835.777, 0.014137214, 0.26258704, -751323.25, 643839.56, 0.106329456, 10.00692, 9.996225 
2.4055836e+3, 1.6763501e+2, -664201.94, -1351626.4, 34436.94, 0.051243223, 0.23216152, -662481.1, 634721.6, 0.038594965, 10.006255, 9.996784 
2.4055056e+3, 1.7763142e+2, -715522.75, -1347524.9, 31443.305, 0.111633696, 0.22754923, -713962.25, 485275.1, 0.0081687635, 10.00513, 9.996682 
2.4054268e+3, 1.8762839e+2, -690153.06, -1219262.1, 39621.727, 0.080809765, 0.26072046, -687202.5, 414065.7, 0.0004942807, 10.004319, 9.997279 
2.4053477e+3, 1.9762579e+2, -686776.8, -1157045.3, 44541.707, 0.017160939, 0.30175146, -682595.2, 320699.9, 0.00000014397028, 10.003623, 9.997371 
2.4052696e+3, 2.0762339e+2, -642016.94, -964061.56, 57760.65, -0.0029978487, 0.29905313, -631970.6, 273348.03, 0.0, 10.002736, 9.99845 
2.4051914e+3, 2.1762133e+2, -687709.0, -944765.2, 56199.22, -0.0044486425, 0.27655643, -675959.44, 131378.98, 0.0, 10.001787, 9.998367 
2.405114e+3, 2.2761977e+2, -660058.25, -818092.94, 54319.17, 0.012464932, 0.29152906, -643188.6, 66165.48, 0.0, 10.001036, 9.998926 
2.4050367e+3, 2.3761867e+2, -662742.4, -767008.94, 41507.47, 0.038529415, 0.3169687, -648236.7, -36870.895, 0.0, 10.000337, 9.998941 
2.4049592e+3, 2.476174e+2, -675033.25, -630228.0, 61050.555, 0.030360695, 0.28684697, -587599.5, -74221.67, 0.0, 9.999185, 9.999761 
2.4048816e+3, 2.5761634e+2, -757815.3, -601542.6, 80506.38, 0.006609212, 0.2301391, -567489.06, -152101.39, 0.0, 9.997867, 9.999921 
2.404804e+3, 2.67617e+2, -688733.9, -374738.47, 51638.344, -0.021556294, 0.26570228, -366464.28, -49083.793, 0.0, 9.997059, 10.001192 
2.4047261e+3, 2.7761865e+2, -700088.94, -356239.88, 24408.867, -0.037845444, 0.34526438, -354515.78, -135152.45, 0.0, 9.996424, 10.000953 
2.4046494e+3, 2.8761894e+2, -734134.06, -316574.06, 26073.375, 0.024412965, 0.31409806, -314952.28, -193591.47, 0.0, 9.995494, 10.001 
2.4045725e+3, 2.976184e+2, -785759.8, -287833.13, 26700.201, 0.07991485, 0.18863958, -286405.47, -263039.1, 0.0, 9.9944515, 10.001029 
2.4044931e+3, 3.0762058e+2, -668340.9, 13543.063, -419.32138, -0.03277324, 0.23524407, 13543.321, 13543.321, 0.0, 9.993963, 10.003006 
2.404416e+3, 3.1762224e+2, -856588.0, -153278.22, 76999.92, 0.028745908, 0.12646258, -144946.8, -144946.8, 0.0, 9.993024, 10.002299 
2.4159099e+3, 1.2772918e+2, -1205695.4, -1659681.4, -21589.262, 0.0006550026, 0.2993853, -1204671.0, 483610.63, 0.4343428, 10.007541, 9.996893 
2.4158312e+3, 1.3772514e+2, -1123207.6, -1642976.3, -33063.52, 0.104174934, 0.24333173, -1121112.9, 469208.3, 0.3201393, 10.006493, 9.996703 
2.4157508e+3, 1.4772178e+2, -933391.94, -1527529.9, -61723.313, 0.09814565, 0.26853463, -927047.44, 565305.8, 0.20053653, 10.006523, 9.996807 
2.4156697e+3, 1.577183e+2, -734220.44, -1435705.6, -47199.516, 0.06518937, 0.27157953, -731058.9, 663327.4, 0.099625245, 10.006862, 9.996594 
2.4155895e+3, 1.6771442e+2, -669089.0, -1356104.9, -5414.8843, 0.070589006, 0.2525468, -669046.4, 627377.75, 0.03548609, 10.006205, 9.99678 
2.41551e+3, 1.7771068e+2, -713938.1, -1343268.1, -4498.745, 0.08249217, 0.23132403, -713905.94, 484554.84, 0.0072520757, 10.005116, 9.996721 
2.4154304e+3, 1.8770769e+2, -683112.44, -1203656.6, 15498.921, 0.053612303, 0.25946948, -682651.4, 417839.72, 0.0004009213, 10.004309, 9.997395 
2.4153511e+3, 1.9770518e+2, -685762.06, -1150450.6, 18788.418, 0.013233586, 0.29925686, -685003.6, 317513.13, 0.00000003444413, 10.003598, 9.997431 
2.4152721e+3, 2.0770268e+2, -647705.94, -975769.1, 23039.01, 0.03512634, 0.28864786, -646095.8, 258445.28, 0.0, 10.00273, 9.998375 
2.4151939e+3, 2.177004e+2, -700038.75, -971818.8, 25090.342, 0.07500628, 0.25675994, -697741.9, 108820.91, 0.0, 10.001788, 9.998185 
2.415115e+3, 2.2769845e+2, -689609.7, -882091.5, 30198.797, 0.03162337, 0.26420286, -684983.0, 23600.625, 0.0, 10.001041, 9.998487 
2.415036e+3, 2.3769689e+2, -672374.44, -789269.56, 10237.781, -0.0362168, 0.28451186, -671484.56, -60883.57, 0.0, 10.00034, 9.99879 
2.4149576e+3, 2.4769661e+2, -628803.4, -535918.1, 9151.529, -0.0247885, 0.3176383, -535025.06, -22422.28, 0.0, 9.9991865, 10.00041 
2.4148794e+3, 2.5769696e+2, -740515.7, -568174.2, 36500.7, 0.006975192, 0.3448691, -560762.4, -146164.81, 0.0, 9.997872, 10.000151 
2.4148008e+3, 2.6769617e+2, -749095.2, -503464.03, 26628.684, -0.007777056, 0.28272843, -500610.4, -184005.5, 0.0, 9.9970665, 10.000308 
2.4147224e+3, 2.7769542e+2, -738535.8, -441676.75, -5319.622, -0.018346323, 0.20188472, -441581.44, -222968.9, 0.0, 9.996441, 10.000361 
2.4146444e+3, 2.8769654e+2, -708194.9, -267412.97, -16793.79, 0.0093104215, 0.26157296, -266774.03, -146172.4, 0.0, 9.995509, 10.001333 
2.4145657e+3, 2.9769823e+2, -750624.6, -222940.13, -5767.559, -0.018199258, 0.3273148, -222877.1, -200291.83, 0.0, 9.99448, 10.001464 
2.4144877e+3, 3.0769998e+2, -689633.8, -41136.05, -10707.891, 0.059523854, 0.31939694, -40959.293, -40959.293, 0.0, 9.994002, 10.002614 
2.4144082e+3, 3.177017e+2, -911137.6, -265283.5, -55506.527, -0.024772432, 0.2941749, -260547.84, -260547.84, 0.0, 9.993014, 10.001537 
2.425917e+3, 1.2780902e+2, -1191381.8, -1664855.5, 28462.375, 0.008074987, 0.33347583, -1189676.9, 497823.2, 0.41867644, 10.007598, 9.996792 
2.4258384e+3, 1.3780443e+2, -1020982.8, -1582256.0, 8244.869, 0.1298059, 0.23407015, -1020861.7, 568682.6, 0.30673903, 10.007422, 9.996683 
2.4257573e+3, 1.4780112e+2, -882884.3, -1468269.8, -19404.963, 0.11583523, 0.24645184, -882241.75, 609333.9, 0.19051097, 10.006734, 9.997135 
2.4256755e+3, 1.5779814e+2, -840515.4, -1464685.3, -11071.777, 0.07068445, 0.2686485, -840319.06, 553284.56, 0.09348236, 10.0058975, 9.996855 
2.425595e+3, 1.6779454e+2, -779527.2, -1406826.3, 18982.387, 0.06883862, 0.26784223, -778953.25, 516685.9, 0.03266038, 10.005389, 9.996822 
2.4255146e+3, 1.7779098e+2, -729430.7, -1338575.9, 21429.252, 0.074259736, 0.26071742, -728677.75, 468997.16, 0.0064394027, 10.00496, 9.996826 
2.4254343e+3, 1.8778796e+2, -697172.2, -1183350.8, 44186.652, 0.05558467, 0.26821482, -693188.9, 406515.88, 0.00032592812, 10.004101, 9.997631 
2.4253543e+3, 1.9778533e+2, -752776.44, -1172334.0, 55131.23, 0.03336058, 0.27629536, -745652.94, 256077.55, 0.000000003872902, 10.003097, 9.99752 
2.4252747e+3, 2.0778279e+2, -700648.56, -1034320.25, 55821.563, 0.045097306, 0.27782685, -691557.56, 212198.64, 0.0, 10.002514, 9.998075 
2.4251953e+3, 2.1778053e+2, -670546.44, -971126.56, 39621.066, 0.0667615, 0.2744744, -665411.5, 140367.77, 0.0, 10.002056, 9.998057 
2.4251154e+3, 2.2777864e+2, -676167.94, -840794.4, 72692.58, 0.025591876, 0.2769366, -648664.6, 59133.855, 0.0, 10.00099, 9.998793 
2.4250357e+3, 2.3777716e+2, -749919.5, -807951.5, 104392.3, -0.033092953, 0.27879703, -670585.7, -60771.957, 0.0, 9.999734, 9.998951 
2.4249563e+3, 2.477768e+2, -653529.5, -571479.3, 73994.336, -0.033706434, 0.31483933, -527898.1, -16081.368, 0.0, 9.999126, 10.000193 
2.424877e+3, 2.5777707e+2, -633153.75, -539378.5, 39605.02, -0.016068228, 0.35611933, -524890.2, -111076.7, 0.0, 9.998715, 9.999938 
2.4247979e+3, 2.6777607e+2, -653625.94, -483173.72, 50794.71, -0.007896799, 0.29579103, -469184.94, -153361.55, 0.0, 9.997838, 10.0000725 
2.424719e+3, 2.777749e+2, -703603.9, -443701.66, 61858.027, 0.0151350675, 0.20132557, -429730.2, -211895.16, 0.0, 9.996766, 10.000189 
2.4246396e+3, 2.87776e+2, -659168.3, -235407.97, 45454.56, 0.0075534703, 0.26251227, -230587.14, -110762.75, 0.0, 9.995815, 10.001403 
2.4245596e+3, 2.9777816e+2, -682514.7, -183951.38, 36826.465, -0.07460613, 0.36896393, -181245.86, -159442.38, 0.0, 9.99493, 10.001511 
2.4244817e+3, 3.077796e+2, -741705.25, -119905.234, 14620.351, 0.08293315, 0.35303625, -119561.66, -119561.66, 0.0, 9.993883, 10.002128 
2.4243999e+3, 3.177806e+2, -841109.06, -121788.055, -48301.676, -0.12735459, 0.31285396, -118559.14, -118559.14, 0.0, 9.993028, 10.002513 
2.435925e+3, 1.278898e+2, -1196157.1, -1723872.9, 24955.459, 0.06414513, 0.32517692, -1194979.6, 491728.78, 0.4032327, 10.007646, 9.996261 
2.4358457e+3, 1.3788505e+2, -1033491.6, -1633086.6, 1630.2699, 0.15880784, 0.26074228, -1033487.2, 555267.8, 0.2938135, 10.007356, 9.996347 
2.4357636e+3, 1.4788154e+2, -868445.56, -1446549.4, -44192.32, 0.11245646, 0.25222805, -865086.9, 625701.4, 0.18103753, 10.006694, 9.997337 
2.435681e+3, 1.5787855e+2, -825470.0, -1441729.3, -33490.254, 0.038276076, 0.25460157, -823655.4, 569160.5, 0.08778435, 10.005905, 9.997012 
2.4355999e+3, 1.6787535e+2, -774139.56, -1398095.0, 5920.997, 0.04799067, 0.28268522, -774083.4, 520764.9, 0.030089527, 10.005383, 9.996888 
2.4355192e+3, 1.7787226e+2, -723992.94, -1320803.0, 3101.598, 0.07877914, 0.31528312, -723976.9, 472903.5, 0.0057262904, 10.004924, 9.996967 
2.4354385e+3, 1.8786913e+2, -677049.0, -1139631.4, 7093.4014, 0.08005908, 0.2855028, -676940.25, 421969.97, 0.00026673343, 10.0040865, 9.997941 
2.4353574e+3, 1.9786619e+2, -746371.8, -1161739.9, 24427.67, 0.07077141, 0.23398592, -744940.2, 255997.28, 0.0000000002134854, 10.003102, 9.997593 
2.4352767e+3, 2.0786364e+2, -736261.1, -1110260.9, 40953.57, 0.026643818, 0.26763007, -731829.1, 171135.53, 0.0, 10.002517, 9.997555 
2.435196e+3, 2.1786155e+2, -679039.3, -986117.4, 17676.305, -0.02630744, 0.3263244, -678025.2, 126963.61, 0.0, 10.002039, 9.997966 
2.435116e+3, 2.2786024e+2, -606555.94, -696639.75, 25505.168, -0.0032038237, 0.32674995, -599836.0, 107163.75, 0.0, 10.000986, 9.999786 
2.4350359e+3, 2.3785938e+2, -721700.6, -751180.9, 65776.35, 0.041867524, 0.3017734, -669033.06, -60028.207, 0.0, 9.999736, 9.999343 
2.4349555e+3, 2.4785788e+2, -730424.1, -734589.4, 58188.742, -0.00036102618, 0.2779863, -674280.75, -163259.84, 0.0, 9.999135, 9.999071 
2.434875e+3, 2.578565e+2, -676343.56, -635996.7, 16846.541, -0.06901062, 0.25914603, -629887.56, -216850.31, 0.0, 9.998739, 9.999267 
2.4347953e+3, 2.678566e+2, -619130.8, -417399.88, 8115.7524, -0.022832194, 0.30815688, -417073.88, -102037.39, 0.0, 9.997858, 10.000518 
2.4347161e+3, 2.7785733e+2, -682638.0, -406186.03, 22517.11, 0.06552155, 0.36199358, -404364.03, -187334.92, 0.0, 9.996786, 10.00044 
2.4346353e+3, 2.8785732e+2, -677435.1, -279575.22, 11204.093, 0.017122606, 0.32051706, -279259.94, -160230.86, 0.0, 9.995835, 10.001093 
2.4345537e+3, 2.9785782e+2, -710693.44, -248737.75, 1050.4053, -0.10659574, 0.29176062, -248735.36, -227711.03, 0.0, 9.994951, 10.001059 
2.4344748e+3, 3.0785918e+2, -782496.7, -201628.86, -35502.75, 0.045220405, 0.3273107, -199466.97, -199466.97, 0.0, 9.993866, 10.001576 
2.434393e+3, 3.1785977e+2, -744410.9, 63447.36, -36460.457, -0.077010095, 0.25342247, 65089.563, 65089.563, 0.0, 9.993075, 10.003772 
2.445933e+3, 1.2797116e+2, -1099760.4, -1667825.1, 31926.105, 0.08614878, 0.2980454, -1097971.8, 587939.25, 0.38762867, 10.008575, 9.996268 
2.4458528e+3, 1.37967e+2, -1078805.6, -1675147.8, 39552.605, 0.18960425, 0.2925265, -1076193.8, 511758.2, 0.28108454, 10.006846, 9.996309 
2.44577e+3, 1.4796329e+2, -922817.25, -1488206.4, 5587.444, 0.12394155, 0.2774324, -922762.0, 567225.75, 0.17194316, 10.006262, 9.997189 
2.4456865e+3, 1.5795997e+2, -801107.25, -1433357.3, -1617.4413, 0.025360746, 0.2601599, -801103.1, 590916.44, 0.082444645, 10.006082, 9.996981 
2.4456048e+3, 1.6795687e+2, -765879.4, -1363021.9, 35592.266, 0.037262943, 0.28599185, -763765.44, 530285.1, 0.027740166, 10.005299, 9.997169 
2.4455237e+3, 1.7795408e+2, -797210.06, -1336549.6, 44729.633, 0.0787187, 0.32132503, -793525.6, 402553.78, 0.0051012905, 10.004332, 9.997144 
2.445442e+3, 1.8795101e+2, -724659.1, -1171354.6, 34051.223, 0.07675456, 0.30117306, -722078.3, 376030.6, 0.00022006013, 10.003801, 9.997858 
2.4453601e+3, 1.9794813e+2, -702859.5, -1135991.0, 25967.117, 0.061303504, 0.2615192, -701308.3, 298828.1, 0.00000000008671795, 10.00339, 9.997627 
2.4452788e+3, 2.0794573e+2, -731744.5, -1076860.1, 73346.51, 0.023165775, 0.2913157, -716803.25, 185358.48, 0.0, 10.002421, 9.997827 
2.4451976e+3, 2.1794376e+2, -775899.9, -1011934.5, 98472.42, -0.019564752, 0.33949906, -740213.25, 63970.48, 0.0, 10.001288, 9.998148 
2.4451165e+3, 2.2794236e+2, -653536.25, -721768.7, 64059.977, 0.0024892855, 0.3283261, -615074.25, 91120.97, 0.0, 10.000681, 9.999758 
2.4450356e+3, 2.3794138e+2, -652028.1, -720537.75, 37666.12, 0.04665101, 0.29312983, -635370.0, -27168.621, 0.0, 10.000234, 9.99931 
2.4449547e+3, 2.4793983e+2, -694031.8, -726755.1, 76291.46, 0.008893259, 0.27182838, -632367.25, -122149.01, 0.0, 9.999432, 9.99898 
2.4448733e+3, 2.5793836e+2, -714886.2, -660350.44, 103805.086, -0.0550522, 0.25825953, -580291.56, -168055.78, 0.0, 9.998504, 9.99921 
2.4447927e+3, 2.6793873e+2, -635499.7, -420383.3, 83045.83, -0.032324128, 0.33190095, -392054.16, -77821.17, 0.0, 9.997729, 10.000556 
2.4447122e+3, 2.7793977e+2, -654306.6, -393379.7, 65742.664, 0.029006632, 0.41470096, -377751.38, -161528.7, 0.0, 9.996991, 10.000425 
2.4446306e+3, 2.8793928e+2, -660563.6, -293981.7, 50721.32, -0.0061013494, 0.3387672, -287093.2, -168865.83, 0.0, 9.996053, 10.000887 
2.4445483e+3, 2.9793903e+2, -722580.8, -284439.22, 49426.664, -0.103490315, 0.26054624, -278932.63, -258702.95, 0.0, 9.994999, 10.000791 
2.4444687e+3, 3.079407e+2, -705965.44, -180288.48, 44925.69, 0.047312047, 0.3498407, -176476.66, -176476.66, 0.0, 9.994461, 10.001434 
2.4443865e+3, 3.179427e+2, -645022.3, 84236.15, 47871.17, -0.039122283, 0.42778337, 87365.164, 87365.164, 0.0, 9.993887, 10.003517 
2.4559411e+3, 1.2805301e+2, -1078494.6, -1631335.5, -10466.129, 0.0768231, 0.25232142, -1078296.6, 606812.1, 0.3717126, 10.008415, 9.996733 
2.4558596e+3, 1.3805017e+2, -1064096.3, -1651781.0, 2623.4678, 0.2122589, 0.33400932, -1064084.6, 523051.88, 0.26841173, 10.006814, 9.996479 
2.4557759e+3, 1.4804626e+2, -944509.0, -1558196.3, 1327.6727, 0.13901241, 0.32410792, -944506.1, 544669.44, 0.16311386, 10.006259, 9.996713 
2.4556921e+3, 1.5804222e+2, -815029.06, -1466190.9, -12930.838, 0.022984765, 0.2820051, -814772.4, 576443.44, 0.077387765, 10.006049, 9.996775 
2.4556096e+3, 1.6803905e+2, -739374.56, -1304487.6, 624.99854, 0.03170224, 0.2774431, -739373.9, 553873.0, 0.025573933, 10.005274, 9.997584 
2.4555276e+3, 1.7803633e+2, -786841.4, -1314191.1, 15868.251, 0.07241601, 0.28525022, -786364.3, 408908.84, 0.00454915, 10.004322, 9.997305 
2.4554451e+3, 1.880336e+2, -755345.4, -1234305.1, 21082.166, 0.04802195, 0.31727952, -754419.25, 342882.28, 0.00018291011, 10.003792, 9.997435 
2.4553628e+3, 1.9803108e+2, -707001.25, -1139270.3, 6446.7417, 0.0074815825, 0.3520122, -706905.1, 292422.84, 0.00000000016280782, 10.003362, 9.997622 
2.455281e+3, 2.0802894e+2, -665015.44, -937977.7, 31085.148, 0.03380797, 0.34419805, -661520.2, 239828.22, 0.0, 10.002415, 9.998786 
2.4551995e+3, 2.1802709e+2, -749543.56, -958793.1, 64488.71, 0.07544189, 0.3185646, -731265.4, 72099.86, 0.0, 10.001289, 9.998514 
2.4551173e+3, 2.2802494e+2, -724289.56, -872485.9, 49064.35, 0.036128648, 0.2859204, -709517.9, -4132.154, 0.0, 10.000691, 9.998721 
2.4550349e+3, 2.3802304e+2, -681354.3, -785533.1, 16453.541, -0.022516582, 0.25276566, -678817.5, -71413.21, 0.0, 10.000246, 9.99886 
2.4549536e+3, 2.4802259e+2, -626604.7, -590067.4, 39160.48, -0.0049370113, 0.297466, -565123.94, -55714.48, 0.0, 9.99944, 9.999917 
2.4548723e+3, 2.580228e+2, -676840.2, -583331.75, 69894.375, 0.025252238, 0.36203778, -545995.6, -134587.1, 0.0, 9.998507, 9.999742 
2.45479e+3, 2.6802233e+2, -664887.6, -483170.56, 54743.37, -0.041761085, 0.3645956, -467953.13, -154539.72, 0.0, 9.997731, 10.000127 
2.4547075e+3, 2.780219e+2, -674106.1, -438621.78, 35566.527, -0.11452935, 0.34165788, -433367.22, -217949.2, 0.0, 9.997004, 10.000112 
2.454626e+3, 2.880218e+2, -663525.2, -302758.94, 9205.907, -0.06357478, 0.31630942, -302524.2, -185104.77, 0.0, 9.996057, 10.000828 
2.4545437e+3, 2.9802215e+2, -722223.5, -286508.03, 16118.09, -0.040551867, 0.3059644, -285912.6, -266496.9, 0.0, 9.995004, 10.000778 
2.4544631e+3, 3.0802402e+2, -679982.8, -139777.94, 41829.95, 0.059585866, 0.39898255, -136558.1, -136558.1, 0.0, 9.994512, 10.001692 
2.4543793e+3, 3.180248e+2, -766286.44, -168139.1, -67257.3, -0.102602795, 0.3588273, -160669.77, -160669.77, 0.0, 9.993898, 10.001774 
2.4659488e+3, 1.2813614e+2, -1159464.9, -1663429.5, -3323.9526, 0.10286502, 0.272522, -1159443.0, 524851.8, 0.35549495, 10.007288, 9.99692 
2.4658658e+3, 1.381331e+2, -1034602.0, -1627199.6, 348.3293, 0.18850797, 0.31698, -1034601.75, 551722.2, 0.255728, 10.006952, 9.996579 
2.465782e+3, 1.4812922e+2, -937686.4, -1571734.0, 20818.426, 0.13356626, 0.31850502, -937003.56, 551359.7, 0.1544521, 10.006331, 9.996584 
2.465698e+3, 1.5812533e+2, -869776.1, -1499169.8, 21310.723, 0.057495274, 0.2994317, -869055.4, 521348.06, 0.07253323, 10.005637, 9.996745 
2.4656145e+3, 1.6812235e+2, -772742.7, -1296991.3, 22496.36, 0.044016052, 0.30404118, -771779.06, 520653.3, 0.023546975, 10.004932, 9.997797 
2.4655312e+3, 1.7811985e+2, -788875.1, -1295290.4, 29727.367, 0.04435501, 0.31470224, -787136.06, 407319.94, 0.0040534874, 10.00423, 9.997475 
2.4654482e+3, 1.8811707e+2, -796488.6, -1248886.0, 61352.49, 0.02636374, 0.33429232, -788315.9, 308168.88, 0.00015268162, 10.003493, 9.997475 
2.4653655e+3, 1.9811444e+2, -788392.8, -1169993.3, 70068.84, 0.008052573, 0.35437322, -775933.6, 222578.89, 0.00000000021615258, 10.002766, 9.997697 
2.465283e+3, 2.0811246e+2, -674580.5, -923008.94, 54964.605, 0.04250226, 0.35084236, -662962.94, 237568.23, 0.0, 10.002269, 9.998957 
2.4652007e+3, 2.1811086e+2, -664625.94, -904695.8, 36894.96, 0.08918968, 0.3333945, -659083.7, 143461.52, 0.0, 10.001825, 9.998624 
2.4651177e+3, 2.2810873e+2, -690055.1, -867571.6, 62127.2, 0.03805988, 0.30636206, -670472.2, 34093.97, 0.0, 10.000983, 9.998611 
2.4650344e+3, 2.3810676e+2, -716494.0, -801183.3, 90573.555, -0.03567139, 0.27770647, -658855.44, -52269.137, 0.0, 10.000005, 9.998867 
2.4649523e+3, 2.481065e+2, -661086.6, -574080.06, 86311.09, -0.0050471188, 0.32417744, -520928.63, -12339.675, 0.0, 9.999069, 10.000202 
2.4648707e+3, 2.5810695e+2, -714602.94, -578815.3, 73428.05, 0.046546884, 0.38786793, -546702.9, -136118.55, 0.0, 9.998157, 9.999937 
2.4647874e+3, 2.6810625e+2, -703552.75, -504377.2, 77164.38, -0.044103008, 0.36195123, -477980.56, -165389.31, 0.0, 9.997481, 10.0001 
2.4647039e+3, 2.7810547e+2, -697881.06, -451904.6, 83296.164, -0.14567275, 0.30788556, -426352.06, -211752.72, 0.0, 9.99685, 10.000093 
2.4646218e+3, 2.8810567e+2, -649732.44, -291407.88, 60746.36, -0.05152833, 0.31418705, -281389.7, -164791.95, 0.0, 9.996136, 10.000866 
2.4645391e+3, 2.9810634e+2, -663897.0, -246725.81, 75070.414, 0.00775772, 0.33349258, -233628.03, -215037.06, 0.0, 9.995363, 10.000873 
2.4644566e+3, 3.0810806e+2, -666741.2, -122520.67, 116262.47, -0.0012413688, 0.40174377, -98723.93, -98723.93, 0.0, 9.994565, 10.0017805 
2.4643733e+3, 3.181084e+2, -799295.25, -226975.88, -93507.35, -0.08515703, 0.32004073, -212085.75, -212085.75, 0.0, 9.99386, 10.001387 
2.4759562e+3, 1.282203e+2, -1145380.9, -1665894.1, -10117.743, 0.14367159, 0.33755034, -1145184.3, 538286.94, 0.33900476, 10.007319, 9.996868 
2.4758719e+3, 1.3821596e+2, -1025537.75, -1627989.8, -11187.556, 0.12288266, 0.25608462, -1025330.06, 560182.5, 0.24296181, 10.006948, 9.996577 
2.4757876e+3, 1.4821233e+2, -924694.6, -1555502.9, -1270.9829, 0.10983834, 0.27385554, -924692.06, 562857.75, 0.14585216, 10.00633, 9.996699 
2.4757038e+3, 1.5820915e+2, -861438.8, -1486706.8, -1010.37946, 0.118625276, 0.31581897, -861437.2, 528146.25, 0.06779724, 10.005631, 9.996836 
2.4756193e+3, 1.6820663e+2, -768715.06, -1291509.6, -1768.2126, 0.067655765, 0.36141592, -768709.06, 522899.28, 0.021615619, 10.0049305, 9.997839 
2.4755347e+3, 1.7820448e+2, -777317.56, -1272085.1, 4063.9526, -0.005432955, 0.39960724, -777284.2, 416344.88, 0.0035995827, 10.004226, 9.997639 
2.4754512e+3, 1.8820132e+2, -767300.75, -1190802.3, 33515.637, 0.009871253, 0.34960386, -764664.75, 330995.0, 0.00012732245, 10.003497, 9.997874 
2.4753684e+3, 1.9819814e+2, -781611.7, -1157256.5, 46616.285, 0.05228213, 0.27904657, -775913.2, 221777.72, 0.00000000023303823, 10.002767, 9.997787 
2.475285e+3, 2.0819624e+2, -714306.44, -1006083.5, 39800.61, 0.04559793, 0.31839028, -708974.75, 190735.78, 0.0, 10.002266, 9.998391 
2.4752016e+3, 2.1819496e+2, -676856.25, -927159.1, 16902.662, 0.023128692, 0.38293394, -675720.0, 126004.37, 0.0, 10.001806, 9.998482 
2.4751182e+3, 2.2819363e+2, -636311.5, -755725.56, 26303.969, 0.010623963, 0.38721025, -630774.1, 72963.15, 0.0, 10.000977, 9.999385 
2.4750346e+3, 2.3819245e+2, -688007.44, -743218.6, 54644.31, 0.0030817364, 0.36934388, -654391.56, -48643.54, 0.0, 10.000004, 9.999268 
2.4749511e+3, 2.481914e+2, -689018.2, -634042.56, 49972.883, 0.0048491284, 0.35044238, -604496.44, -96738.58, 0.0, 9.999072, 9.999792 
2.4748679e+3, 2.5819063e+2, -724160.8, -602276.0, 40940.355, 0.00049309456, 0.32920608, -589801.2, -180036.17, 0.0, 9.998166, 9.999775 
2.4747844e+3, 2.6819035e+2, -675758.9, -448297.97, 51398.246, -0.03648408, 0.3229087, -437223.0, -125455.47, 0.0, 9.997481, 10.000488 
2.4747011e+3, 2.781905e+2, -677020.25, -410613.66, 57882.402, -0.05063607, 0.32418504, -398580.97, -184815.02, 0.0, 9.996852, 10.00038 
2.4746184e+3, 2.881908e+2, -642765.9, -280259.63, 30993.521, 0.033065595, 0.3315612, -277628.84, -161866.03, 0.0, 9.996144, 10.000941 
2.4745342e+3, 2.981913e+2, -647532.7, -220238.78, 43708.17, 0.020195713, 0.32164457, -215813.67, -198055.48, 0.0, 9.995389, 10.001045 
2.4744494e+3, 3.0819303e+2, -670806.0, -127454.99, 86155.695, -0.13114457, 0.3795883, -114121.055, -114121.055, 0.0, 9.994546, 10.001758 
2.4743675e+3, 3.1819418e+2, -665088.8, 32262.123, -141225.27, -0.013394015, 0.3627625, 59776.977, 59776.977, 0.0, 9.993908, 10.003163 
2.4859639e+3, 1.2830473e+2, -1077557.1, -1665436.1, 15954.185, 0.18226604, 0.33439398, -1077124.4, 605520.4, 0.32215536, 10.008031, 9.996525 
2.4858779e+3, 1.3830027e+2, -989132.7, -1624582.1, 5068.037, 0.0726392, 0.27371493, -989092.25, 595596.44, 0.22999072, 10.007244, 9.996458 
2.4857932e+3, 1.4829691e+2, -890442.56, -1496955.5, 20590.225, 0.064836636, 0.2996694, -889744.4, 596978.44, 0.1372005, 10.006383, 9.997071 
2.485709e+3, 1.582941e+2, -858997.3, -1467310.3, 34657.824, 0.10965171, 0.34715316, -857029.1, 531722.8, 0.063104816, 10.005552, 9.9970045 
2.485624e+3, 1.6829133e+2, -789853.3, -1329826.6, 27864.7, 0.07329953, 0.38012064, -788419.25, 502360.44, 0.019744888, 10.004898, 9.997589 
2.4855386e+3, 1.782888e+2, -774032.0, -1281406.0, 13436.396, 0.0064687426, 0.402773, -773676.44, 419128.5, 0.0031765054, 10.004296, 9.99754 
2.4854545e+3, 1.8828581e+2, -739143.8, -1151509.3, 26271.666, 0.024995293, 0.3593361, -737476.8, 357356.8, 0.00010535065, 10.003586, 9.998099 
2.4853708e+3, 1.9828293e+2, -758458.2, -1123071.1, 29566.84, 0.070028104, 0.2980461, -756076.1, 240784.86, 0.00000000017417703, 10.002836, 9.997983 
2.4852866e+3, 2.082811e+2, -755153.94, -1016843.56, 56356.227, 0.040098462, 0.33103687, -743533.4, 155346.61, 0.0, 10.001954, 9.998464 
2.4852024e+3, 2.182798e+2, -781755.56, -965255.3, 71070.95, -0.009534894, 0.3886187, -757448.9, 43445.156, 0.0, 10.001037, 9.998589 
2.4851182e+3, 2.2827871e+2, -729111.44, -776864.4, 53639.316, -0.004611115, 0.40342975, -694274.56, 8630.123, 0.0, 10.000243, 9.99959 
2.4850342e+3, 2.382779e+2, -751416.25, -755960.56, 44611.863, 0.01901875, 0.39968264, -709018.7, -104106.42, 0.0, 9.999499, 9.99942 
2.48495e+3, 2.4827674e+2, -704582.0, -641055.7, 60224.844, 0.0107149165, 0.36497614, -604731.2, -97808.23, 0.0, 9.998968, 9.999791 
2.4848658e+3, 2.582757e+2, -679582.56, -576454.06, 77692.47, -0.012095729, 0.31940246, -534771.4, -125839.21, 0.0, 9.998459, 9.999808 
2.4847817e+3, 2.6827562e+2, -649838.75, -422365.66, 76284.79, -0.028455377, 0.3245228, -399151.94, -88219.25, 0.0, 9.997607, 10.000603 
2.484698e+3, 2.7827606e+2, -697171.06, -406176.28, 63596.227, -0.013805336, 0.3452013, -392884.6, -179956.58, 0.0, 9.99666, 10.000498 
2.4846143e+3, 2.8827637e+2, -643950.94, -266421.53, 40584.707, 0.05484377, 0.33783108, -262107.94, -147183.02, 0.0, 9.996079, 10.001064 
2.4845296e+3, 2.9827678e+2, -612676.2, -191506.47, 50233.84, 0.027222726, 0.31119907, -185597.86, -168677.31, 0.0, 9.99558, 10.00115 
2.4844433e+3, 3.0827868e+2, -658279.75, -108276.97, 77567.11, -0.18158513, 0.37716615, -97546.984, -97546.984, 0.0, 9.994586, 10.001866 
2.4843608e+3, 3.1827855e+2, -650595.0, 131310.89, -116998.02, -0.00032341277, 0.21844873, 148442.19, 148442.19, 0.0, 9.993624, 10.003974 
2.4959719e+3, 1.2838948e+2, -1092496.6, -1734680.9, -4897.434, 0.21210836, 0.2916997, -1092459.3, 589355.7, 0.30479717, 10.00797, 9.996024 
2.4958844e+3, 1.383858e+2, -992697.6, -1651948.5, -15376.347, 0.027175542, 0.3521853, -992339.1, 591514.75, 0.21669906, 10.0072, 9.996293 
2.4957986e+3, 1.4838272e+2, -855542.0, -1432826.9, -5345.413, -0.0011189621, 0.3782584, -855492.5, 630391.8, 0.12841944, 10.006361, 9.997579 
2.4957137e+3, 1.5837999e+2, -846189.75, -1442579.8, 6708.585, 0.0432693, 0.3877032, -846114.3, 541796.44, 0.058414083, 10.005536, 9.997184 
2.4956284e+3, 1.6837642e+2, -825156.5, -1404829.1, 6004.1704, 0.064419284, 0.3663495, -825094.3, 464852.56, 0.017918061, 10.004885, 9.997084 
2.4955432e+3, 1.783729e+2, -799066.25, -1331343.3, -8037.894, 0.06656227, 0.34043458, -798944.9, 393037.78, 0.0027787022, 10.004279, 9.997209 
2.4954583e+3, 1.8837056e+2, -736323.2, -1144343.5, 680.93604, 0.06371007, 0.36813733, -736322.06, 357683.8, 0.00008573884, 10.003574, 9.998157 
2.4953733e+3, 1.9836871e+2, -741303.6, -1085626.0, 1965.6704, 0.06117307, 0.40135995, -741292.4, 254731.16, 0.00000000005180779, 10.002823, 9.99825 
2.4952881e+3, 2.0836689e+2, -710789.8, -924935.1, 22582.885, 0.02698423, 0.38225248, -708434.2, 189606.39, 0.0, 10.001949, 9.9991 
2.4952029e+3, 2.1836527e+2, -761616.6, -923337.4, 40022.832, -0.015346865, 0.35052702, -752253.8, 47801.563, 0.0, 10.00103, 9.998883 
2.495118e+3, 2.2836393e+2, -755033.2, -832946.44, 26121.244, -0.011110999, 0.35714257, -747086.3, -45017.23, 0.0, 10.000247, 9.999206 
2.4950331e+3, 2.3836294e+2, -758326.0, -774259.1, 19857.938, 0.0076162475, 0.37012684, -744896.2, -140816.22, 0.0, 9.99951, 9.999292 
2.4949485e+3, 2.4836235e+2, -673979.9, -581158.5, 40147.168, 0.011644288, 0.3696912, -566203.5, -60118.52, 0.0, 9.998979, 10.0002 
2.494864e+3, 2.583621e+2, -662670.5, -545838.2, 52365.043, 0.0056716553, 0.363629, -525803.44, -117717.31, 0.0, 9.998472, 10.000015 
2.4947791e+3, 2.6836193e+2, -663395.94, -453186.34, 37334.766, -0.023598917, 0.369797, -446752.34, -136664.89, 0.0, 9.997613, 10.000391 
2.4946941e+3, 2.78362e+2, -701787.06, -418017.06, 30566.037, -0.044228896, 0.37116334, -414762.0, -202675.14, 0.0, 9.996664, 10.000418 
2.4946097e+3, 2.8836206e+2, -631221.44, -241951.03, 20719.842, 0.0026955532, 0.3302475, -240851.28, -126765.68, 0.0, 9.996081, 10.001235 
2.4945244e+3, 2.983626e+2, -610737.94, -191793.28, 24998.701, 0.014266648, 0.29847652, -190306.86, -174227.45, 0.0, 9.995592, 10.001145 
2.4944383e+3, 3.0836478e+2, -657433.6, -108550.414, 23983.717, -0.1143854, 0.40205902, -107504.43, -107504.43, 0.0, 9.994589, 10.001865 
2.4943547e+3, 3.1836504e+2, -727828.4, -32881.934, -84552.2, 0.048924662, 0.28800496, -22742.635, -22742.635, 0.0, 9.993635, 10.002842 
2.5059792e+3, 1.284757e+2, -1090350.3, -1719794.3, 8420.031, 0.20651697, 0.32748955, -1090237.6, 590735.25, 0.28687015, 10.007735, 9.99624 
2.505891e+3, 1.384721e+2, -1010879.8, -1660696.6, 26504.574, 0.022148479, 0.3791679, -1009800.56, 573209.56, 0.20306444, 10.006918, 9.996369 
2.5058043e+3, 1.4846885e+2, -890814.75, -1471478.9, 20359.473, -0.0034150064, 0.401161, -890101.8, 594940.3, 0.119503506, 10.006136, 9.997376 
2.5057188e+3, 1.5846588e+2, -869382.06, -1466162.4, -1833.6643, 0.043479506, 0.40659896, -869376.44, 517694.6, 0.053724118, 10.005399, 9.997085 
2.505633e+3, 1.6846228e+2, -849885.6, -1406315.8, 19208.918, 0.07116139, 0.3803753, -849223.3, 439883.72, 0.016134687, 10.004665, 9.997175 
2.505547e+3, 1.784588e+2, -843139.44, -1344336.9, 39763.195, 0.08146518, 0.34883326, -840004.4, 351137.78, 0.0024045412, 10.003946, 9.997274 
2.5054613e+3, 1.8845649e+2, -778188.5, -1163010.5, 54044.387, 0.062224858, 0.38071683, -770742.6, 322422.4, 0.00006792726, 10.003286, 9.998164 
2.5053754e+3, 1.9845475e+2, -763576.4, -1086239.9, 46594.27, 0.0395933, 0.42346954, -756982.7, 238199.38, 0.0000000000010010511, 10.002629, 9.998337 
2.5052896e+3, 2.08453e+2, -719084.3, -902949.56, 37709.035, 0.025121404, 0.39715788, -711651.06, 185546.67, 0.0, 10.001785, 9.999327 
2.5052038e+3, 2.1845146e+2, -766075.94, -903641.1, 30862.69, 0.012015269, 0.3508892, -759469.2, 39741.92, 0.0, 10.000914, 9.99907 
2.505118e+3, 2.2845018e+2, -737315.0, -816418.44, 44390.465, -0.0012507518, 0.35058466, -717412.06, -16188.07, 0.0, 10.00034, 9.999271 
2.505032e+3, 2.3844919e+2, -711085.75, -746833.9, 67810.59, -0.009029718, 0.360908, -658833.06, -55598.61, 0.0, 9.99982, 9.999328 
2.504947e+3, 2.4844868e+2, -677393.4, -585095.9, 67527.16, 0.004578448, 0.36990896, -549454.5, -44215.3, 0.0, 9.998971, 10.000174 
2.504862e+3, 2.5844854e+2, -725293.4, -573372.6, 47678.207, 0.018377362, 0.3773731, -559649.2, -152409.28, 0.0, 9.998036, 10.000032 
2.504776e+3, 2.684484e+2, -687486.56, -456231.66, 41644.496, -0.024853515, 0.38297123, -448960.88, -139720.28, 0.0, 9.9974165, 10.000463 
2.5046903e+3, 2.7844846e+2, -671531.3, -400913.06, 54369.38, -0.06615973, 0.3773636, -390398.38, -179158.47, 0.0, 9.996865, 10.000436 
2.5046054e+3, 2.8844833e+2, -623900.9, -249555.86, 37270.777, -0.00809458, 0.32458785, -245881.16, -132640.56, 0.0, 9.996184, 10.00113 
2.5045198e+3, 2.9844877e+2, -631825.44, -204541.28, 18699.445, 0.029077338, 0.28958535, -203724.5, -188488.67, 0.0, 9.995464, 10.001115 
2.5044328e+3, 3.0845162e+2, -604351.25, -62552.516, 22334.396, -0.08538354, 0.45385036, -61633.39, -61633.39, 0.0, 9.994867, 10.002045 
2.5043485e+3, 3.1845176e+2, -704159.4, -126502.875, 12172.05, 0.07209856, 0.32354712, -126246.51, -126246.51, 0.0, 9.994256, 10.001896 
2.5159863e+3, 1.2856302e+2, -1051755.0, -1641502.3, -14896.673, 0.16568103, 0.4130278, -1051379.0, 628742.1, 0.26847258, 10.007623, 9.996924 
2.5158978e+3, 1.3855907e+2, -992010.0, -1634867.5, 1118.2792, 0.0447565, 0.3688048, -992008.06, 590150.44, 0.18918182, 10.006903, 9.996552 
2.5158104e+3, 1.4855534e+2, -927981.25, -1576868.8, -4095.1152, 0.040047724, 0.3860411, -927955.4, 556240.7, 0.11051839, 10.006154, 9.996636 
2.515724e+3, 1.5855192e+2, -884155.3, -1508698.1, -24968.455, 0.09075598, 0.41188523, -883158.7, 503072.56, 0.049066603, 10.005412, 9.99679 
2.5156373e+3, 1.6854891e+2, -810857.75, -1328077.0, -4993.1904, 0.08647404, 0.41786367, -810809.56, 477450.84, 0.014404643, 10.00467, 9.997712 
2.5155506e+3, 1.7854619e+2, -819463.56, -1294917.1, 15449.563, 0.056580957, 0.4139367, -818962.06, 371324.06, 0.0020547607, 10.00394, 9.997621 
2.5154638e+3, 1.8854345e+2, -782980.0, -1172283.6, 30909.607, 0.026295435, 0.39357725, -780541.1, 311771.84, 0.000051899184, 10.003277, 9.998108 
2.5153774e+3, 1.9854102e+2, -772924.0, -1103302.4, 20785.402, 0.003681266, 0.3726416, -771621.44, 222715.58, 0.0, 10.002614, 9.998229 
2.515291e+3, 2.0853946e+2, -731297.6, -929335.06, 4991.2866, 0.032431956, 0.3813516, -731171.9, 165179.75, 0.0, 10.001784, 9.999148 
2.5152048e+3, 2.1853834e+2, -761837.6, -896153.9, 4340.6353, 0.06658762, 0.39094737, -761697.5, 36664.2, 0.0, 10.000913, 9.999125 
2.515118e+3, 2.2853734e+2, -701259.44, -744266.25, 26615.629, 0.022062248, 0.38360134, -688546.06, 11824.08, 0.0, 10.000347, 9.999767 
2.5150314e+3, 2.3853655e+2, -698791.94, -724437.6, 43494.27, -0.03589415, 0.36972994, -666269.7, -63893.137, 0.0, 9.999827, 9.999481 
2.5149456e+3, 2.485356e+2, -711891.94, -659159.2, 29864.959, -0.011844259, 0.36359727, -645687.1, -141300.47, 0.0, 9.998976, 9.999665 
2.5148597e+3, 2.5853488e+2, -738980.2, -603975.25, 15160.587, 0.022846945, 0.35872853, -602293.7, -195898.89, 0.0, 9.99804, 9.999824 
2.5147733e+3, 2.685349e+2, -662107.8, -405029.5, 19049.463, -0.03474039, 0.36029443, -403625.63, -95232.04, 0.0, 9.997417, 10.000816 
2.5146866e+3, 2.7853528e+2, -663495.0, -387865.28, 30352.463, -0.087862045, 0.3573792, -384562.44, -174174.02, 0.0, 9.996876, 10.000524 
2.5146013e+3, 2.885351e+2, -654445.44, -315444.47, 7282.864, 0.03018012, 0.32567188, -315288.1, -202897.52, 0.0, 9.996189, 10.000679 
2.5145155e+3, 2.9853532e+2, -633428.06, -209147.77, -8332.263, 0.09676772, 0.3084222, -208984.2, -194594.98, 0.0, 9.995464, 10.001087 
2.5144264e+3, 3.0853888e+2, -560847.25, 22791.639, -418.512, -0.15198201, 0.50030935, 22791.938, 22791.938, 0.0, 9.994883, 10.002626 
2.5143418e+3, 3.185379e+2, -742579.94, -212333.58, 62572.914, 0.010595774, 0.22583652, -205049.58, -205049.58, 0.0, 9.994289, 10.0012865 
2.5259927e+3, 1.2865071e+2, -1083847.4, -1644396.9, 12750.9, 0.10188389, 0.46115464, -1083557.5, 595706.7, 0.249797, 10.0070715, 9.997152 
2.5259045e+3, 1.3864665e+2, -977287.56, -1620475.0, 7475.803, 0.07812877, 0.38801655, -977200.7, 604100.9, 0.17520249, 10.006888, 9.996656 
2.5258166e+3, 1.4864273e+2, -913831.56, -1583878.3, 18418.865, 0.06952611, 0.38977548, -913325.6, 570015.2, 0.10155862, 10.006277, 9.996523 
2.5257292e+3, 1.586391e+2, -861179.25, -1497516.0, 28611.453, 0.09060789, 0.4063302, -859895.4, 525482.6, 0.044485737, 10.005563, 9.99679 
2.5256416e+3, 1.686363e+2, -787278.75, -1293404.5, 39809.44, 0.082335, 0.42171302, -784166.7, 503237.94, 0.012741931, 10.004733, 9.997917 
2.525554e+3, 1.7863391e+2, -818633.75, -1278721.1, 41007.805, 0.0557829, 0.4313605, -815007.25, 374419.5, 0.0017313114, 10.003882, 9.997756 
2.5254667e+3, 1.8863109e+2, -816971.7, -1188907.0, 54872.484, 0.021574242, 0.40089858, -809045.1, 282409.1, 0.00003798913, 10.003052, 9.998098 
2.5253794e+3, 1.9862846e+2, -827960.7, -1132881.1, 47072.77, -0.0059551466, 0.36273625, -820859.06, 172621.2, 0.0, 10.002255, 9.998196 
2.5252923e+3, 2.086269e+2, -752659.8, -951117.6, 37508.32, 0.023116538, 0.381396, -745807.4, 149687.86, 0.0, 10.001694, 9.99904 
2.5252056e+3, 2.1862586e+2, -726622.06, -883133.6, 39284.977, 0.06177079, 0.40882403, -717314.9, 80190.17, 0.0, 10.001178, 9.9990835 
2.5251183e+3, 2.2862476e+2, -679856.44, -725112.0, 39275.004, 0.024181724, 0.39060315, -657157.2, 42356.64, 0.0, 10.000463, 9.99984 
2.525031e+3, 2.3862387e+2, -717142.5, -729391.6, 25400.309, -0.026740514, 0.36022845, -697138.8, -95618.22, 0.0, 9.999692, 9.999509 
2.524944e+3, 2.4862295e+2, -717039.6, -671253.3, 26344.764, -0.008919837, 0.36416638, -659244.56, -155713.94, 0.0, 9.998988, 9.999574 
2.5248575e+3, 2.586223e+2, -706676.3, -592408.06, 40851.61, 0.018711055, 0.37285203, -579305.7, -173766.61, 0.0, 9.998286, 9.999781 
2.5247702e+3, 2.686222e+2, -646828.6, -393636.75, 34982.88, -0.030513545, 0.36315084, -388892.2, -81353.3, 0.0, 9.997511, 10.000845 
2.5246832e+3, 2.7862248e+2, -685833.1, -396885.78, 23930.406, -0.071711764, 0.34860992, -394917.28, -185382.92, 0.0, 9.996721, 10.000532 
2.524597e+3, 2.8862253e+2, -651223.1, -317689.97, 22935.096, 0.029084597, 0.34249464, -316120.25, -204585.89, 0.0, 9.996235, 10.000637 
2.5245106e+3, 2.9862282e+2, -593281.5, -193692.28, 27734.453, 0.07936506, 0.34005526, -191776.48, -178244.23, 0.0, 9.995765, 10.001043 
2.5244212e+3, 3.086253e+2, -610647.25, -15029.871, -16510.455, -0.12446452, 0.43297055, -14572.555, -14572.555, 0.0, 9.99461, 10.002493 
2.5243357e+3, 3.1862676e+2, -731384.5, -146038.42, 90283.85, 0.018429171, 0.40637517, -132429.44, -132429.44, 0.0, 9.99411, 10.001825 
2.5359982e+3, 1.2873885e+2, -1075420.9, -1654907.5, 7823.227, 0.016471026, 0.48754838, -1075315.3, 603086.75, 0.23106523, 10.00706, 9.997055 
2.5359115e+3, 1.3873485e+2, -970803.1, -1617135.9, -3842.501, 0.11565895, 0.4279853, -970780.25, 609658.9, 0.16128172, 10.006831, 9.996708 
2.5358227e+3, 1.487309e+2, -893710.7, -1542110.5, -6426.53, 0.08481087, 0.4062499, -893647.0, 588830.5, 0.09271798, 10.006233, 9.996834 
2.5357342e+3, 1.5872726e+2, -851813.75, -1474597.1, 1564.9484, 0.051027134, 0.3917278, -851809.8, 532703.7, 0.040026758, 10.005524, 9.996968 
2.5356457e+3, 1.687244e+2, -793442.7, -1306196.9, 8564.649, 0.062323634, 0.39944267, -793299.6, 493241.2, 0.011161717, 10.00472, 9.997838 
2.5355577e+3, 1.7872195e+2, -821326.75, -1286815.9, 9906.55, 0.07250128, 0.41172493, -821116.06, 367447.78, 0.0014369548, 10.003886, 9.997701 
2.5354695e+3, 1.8871936e+2, -814948.9, -1188569.6, 24595.713, 0.04125369, 0.40548414, -813336.7, 277252.47, 0.000026579513, 10.003062, 9.998097 
2.5353813e+3, 1.9871697e+2, -827766.44, -1134720.9, 21953.838, 0.0036382526, 0.39112222, -826204.25, 166408.58, 0.0, 10.00226, 9.998183 
2.5352934e+3, 2.0871525e+2, -755766.25, -959979.3, 19365.584, -0.0033225892, 0.39588135, -753946.0, 140683.44, 0.0, 10.0016985, 9.99898 
2.5352058e+3, 2.1871388e+2, -738522.94, -908631.8, 18553.824, -0.0020315936, 0.40176243, -736522.8, 60119.35, 0.0, 10.001176, 9.998913 
2.5351182e+3, 2.2871237e+2, -704751.44, -778667.7, 10892.585, 0.006450774, 0.37134808, -703179.7, -4523.934, 0.0, 10.000464, 9.999473 
2.5350308e+3, 2.387111e+2, -724657.25, -747209.75, -2758.7195, 0.015889758, 0.33501968, -724324.75, -123657.766, 0.0, 9.999696, 9.999388 
2.5349432e+3, 2.4871072e+2, -693708.3, -625045.6, -1293.2354, 0.011263914, 0.3739766, -625021.3, -122349.67, 0.0, 9.998993, 9.999891 
2.5348553e+3, 2.587107e+2, -698448.5, -579460.06, 12407.828, -0.0007292245, 0.42180482, -578180.0, -173506.88, 0.0, 9.998299, 9.9998665 
2.5347677e+3, 2.6871023e+2, -670814.1, -446062.53, 2224.3157, -0.010281737, 0.39445066, -446040.53, -139363.28, 0.0, 9.997517, 10.000486 
2.53468e+3, 2.7870995e+2, -691273.6, -410573.72, -3476.793, -0.010765539, 0.35583436, -410530.7, -201851.84, 0.0, 9.996725, 10.00044 
2.5345924e+3, 2.8871047e+2, -622775.1, -260855.84, 4082.8076, -0.026132764, 0.37368503, -260809.78, -150136.53, 0.0, 9.996239, 10.001029 
2.5345045e+3, 2.9871103e+2, -601282.56, -213937.45, -2299.1992, -0.06822651, 0.36597684, -213923.81, -201256.36, 0.0, 9.995775, 10.000902 
2.5344175e+3, 3.0871075e+2, -688448.7, -171482.9, -73370.55, 0.07332834, 0.2598611, -161271.47, -161271.47, 0.0, 9.994583, 10.001434 
2.5343287e+3, 3.1871456e+2, -592379.56, 111224.69, 153159.86, -0.055508878, 0.52457196, 143118.64, 143118.64, 0.0, 9.994202, 10.0035715 
2.5460052e+3, 1.2882681e+2, -1061474.0, -1678766.5, 24975.262, 0.0065695588, 0.44461405, -1060465.1, 617073.56, 0.21249026, 10.00718, 9.99679 
2.5459176e+3, 1.3882309e+2, -1012318.9, -1643417.6, 4282.2485, 0.1198676, 0.43381387, -1012289.8, 567285.3, 0.1475583, 10.006404, 9.996732 
2.5458282e+3, 1.4881958e+2, -928879.9, -1510674.9, 4158.217, 0.07812075, 0.4223253, -928850.2, 552759.0, 0.08407706, 10.005708, 9.997299 
2.5457388e+3, 1.5881632e+2, -898026.9, -1471636.4, 18990.586, 0.02944333, 0.40728855, -897398.8, 486241.9, 0.035728186, 10.005066, 9.997206 
2.5456497e+3, 1.6881333e+2, -831573.75, -1341447.1, 24321.545, 0.04302528, 0.40532616, -830416.2, 455253.5, 0.00967681, 10.004525, 9.997687 
2.545561e+3, 1.7881064e+2, -809045.1, -1285801.0, 18714.832, 0.061344694, 0.40713456, -808311.6, 379384.1, 0.0011741424, 10.003996, 9.997653 
2.545472e+3, 1.8880819e+2, -777613.2, -1156771.8, 35165.74, 0.04954372, 0.4073924, -774379.25, 315340.28, 0.000017841303, 10.003266, 9.998215 
2.5453836e+3, 1.9880597e+2, -791145.94, -1111006.1, 40401.43, 0.032208055, 0.40407136, -786121.75, 205619.05, 0.0, 10.002493, 9.998231 
2.545295e+3, 2.0880415e+2, -758192.56, -970525.56, 41214.492, 0.005644599, 0.40317237, -750473.3, 143284.95, 0.0, 10.001729, 9.998889 
2.5452062e+3, 2.1880259e+2, -775915.2, -939645.25, 36761.51, -0.01956574, 0.39883628, -768040.06, 27732.855, 0.0, 10.000982, 9.99879 
2.545118e+3, 2.288009e+2, -736246.9, -816229.2, 36739.723, -0.004882501, 0.3692679, -721932.44, -24143.51, 0.0, 10.000352, 9.999267 
2.54503e+3, 2.3879945e+2, -722692.06, -752631.94, 33860.76, 0.020355998, 0.33698732, -700639.75, -100837.32, 0.0, 9.999743, 9.999324 
2.5449416e+3, 2.4879918e+2, -660503.4, -589125.2, 30289.691, 0.01301998, 0.37676355, -578004.3, -76198.586, 0.0, 9.999142, 10.000063 
2.5448534e+3, 2.587993e+2, -663570.56, -555397.9, 31463.416, -0.003407549, 0.4266049, -546912.06, -143107.11, 0.0, 9.998514, 9.999925 
2.544765e+3, 2.6879883e+2, -637621.2, -446525.16, 28735.41, -0.0016793292, 0.40746906, -442297.7, -136488.23, 0.0, 9.997822, 10.000332 
2.5446767e+3, 2.7879846e+2, -644167.25, -398312.75, 37457.5, 0.009290803, 0.37456518, -392732.53, -184919.95, 0.0, 9.997101, 10.0003395 
2.544588e+3, 2.8879887e+2, -606211.9, -252002.02, 27537.148, -0.05250051, 0.3857345, -249873.98, -140065.61, 0.0, 9.996354, 10.001031 
2.5444993e+3, 2.987994e+2, -638572.9, -256960.72, -8563.918, -0.132466, 0.3800132, -256768.64, -244965.63, 0.0, 9.99563, 10.000675 
2.5444132e+3, 3.0879876e+2, -596858.4, -183974.63, -60918.875, 0.17328316, 0.28391957, -175173.94, -175173.94, 0.0, 9.995463, 10.000919 
2.5443217e+3, 3.1879944e+2, -585635.25, 158569.27, 185115.38, -0.13080192, 0.26081, 202072.34, 202072.34, 0.0, 9.994076, 10.003947 
2.5560123e+3, 1.2891488e+2, -1064494.8, -1728390.1, 2856.0325, 0.038577426, 0.35870457, -1064482.5, 612190.56, 0.19425434, 10.007206, 9.996432 
2.5559235e+3, 1.3891156e+2, -1008848.9, -1647579.6, -15194.378, 0.09408699, 0.41773227, -1008487.6, 570220.44, 0.13415143, 10.006363, 9.996725 
2.5558332e+3, 1.4890875e+2, -892346.7, -1438294.8, -16283.549, 0.052747607, 0.43951392, -891861.44, 588874.25, 0.07570474, 10.005676, 9.997839 
2.5557432e+3, 1.589062e+2, -882875.6, -1438714.3, -2483.2673, 0.019315686, 0.4458812, -882864.56, 499895.88, 0.031622835, 10.005038, 9.997449 
2.5556538e+3, 1.6890301e+2, -849567.3, -1376725.0, 6708.2007, 0.021947978, 0.4333514, -849481.94, 435309.97, 0.008297674, 10.004505, 9.997457 
2.5555643e+3, 1.7889993e+2, -815473.1, -1296755.3, -1431.5978, 0.024985265, 0.41576794, -815468.9, 371353.63, 0.00094401784, 10.00398, 9.997588 
2.5554752e+3, 1.8889749e+2, -763762.06, -1129242.4, 7813.885, 0.04800957, 0.40719792, -763595.06, 325250.47, 0.00001159609, 10.003265, 9.998407 
2.555386e+3, 1.9889542e+2, -785325.0, -1101280.3, 12782.1455, 0.074090496, 0.40136954, -784808.7, 206055.92, 0.0, 10.002497, 9.998299 
2.5552967e+3, 2.0889355e+2, -766301.4, -991387.7, 13420.877, 0.04530471, 0.4039274, -765503.94, 127378.195, 0.0, 10.001741, 9.998742 
2.555207e+3, 2.1889189e+2, -782522.56, -955866.44, 12329.568, 0.002754773, 0.40278497, -781649.94, 13247.705, 0.0, 10.000987, 9.998678 
2.555118e+3, 2.2889024e+2, -739944.25, -826363.2, 14795.966, -0.013065301, 0.38556656, -737481.2, -40567.293, 0.0, 10.000358, 9.999197 
2.555029e+3, 2.3888886e+2, -723673.8, -757998.94, 11191.631, -0.018562665, 0.36416808, -720347.25, -121419.56, 0.0, 9.999752, 9.999286 
2.5549403e+3, 2.4888822e+2, -659387.94, -590060.06, 5882.1807, -0.003804969, 0.36990604, -589564.5, -88630.766, 0.0, 9.999149, 10.000055 
2.5548515e+3, 2.58888e+2, -660642.06, -553389.8, 5600.4854, 0.00887592, 0.38294452, -553098.1, -150162.47, 0.0, 9.998526, 9.999936 
2.554762e+3, 2.688879e+2, -632114.9, -438410.8, 117.42297, -0.009893839, 0.40147218, -438410.75, -133474.67, 0.0, 9.997831, 10.000386 
2.554673e+3, 2.7888796e+2, -650373.3, -417044.56, 9587.009, -0.025712335, 0.40808663, -416651.3, -209715.86, 0.0, 9.99712, 10.000204 
2.554584e+3, 2.8888756e+2, -637723.44, -319898.06, -3304.5571, -0.03955291, 0.3761082, -319863.72, -210922.92, 0.0, 9.996359, 10.0005665 
2.5544947e+3, 2.9888776e+2, -662134.1, -305286.06, -27905.406, -0.08256817, 0.3811119, -303117.03, -292176.44, 0.0, 9.995623, 10.00035 
2.5544074e+3, 3.0888966e+2, -595822.06, -196472.63, -66315.11, 0.099131525, 0.5544876, -185748.47, -185748.47, 0.0, 9.995521, 10.000811 
2.5543162e+3, 3.1888646e+2, -637531.75, 71507.055, -18014.047, -0.051421966, 0.16398616, 71964.43, 71964.43, 0.0, 9.994, 10.003379 
2.5660196e+3, 1.2900469e+2, -984389.3, -1673515.9, 13424.538, 0.06725183, 0.35794777, -984127.94, 691665.0, 0.17651817, 10.007685, 9.996585 
2.565929e+3, 1.3900135e+2, -1022618.06, -1647737.5, 25125.633, 0.06523773, 0.40377262, -1021609.75, 556218.0, 0.12116846, 10.006138, 9.996832 
2.5658384e+3, 1.4899868e+2, -937180.9, -1459921.4, 21215.809, 0.038110886, 0.43415958, -936321.2, 543533.6, 0.06766375, 10.005304, 9.997854 
2.5657478e+3, 1.5899628e+2, -925337.6, -1448798.4, 11676.931, 0.0321432, 0.45396635, -925077.25, 456801.3, 0.027740523, 10.004677, 9.997552 
2.5656578e+3, 1.6899325e+2, -880699.8, -1366656.0, 41983.48, 0.02926001, 0.44069538, -877099.44, 406808.72, 0.007032675, 10.004181, 9.99768 
2.5655675e+3, 1.789903e+2, -847484.56, -1301425.1, 55568.945, 0.020616077, 0.41939312, -840781.06, 345155.8, 0.0007460108, 10.003718, 9.997679 
2.5654778e+3, 1.8898785e+2, -786164.7, -1152881.4, 49201.78, 0.039372284, 0.41647187, -779678.1, 308282.38, 0.000007363407, 10.003173, 9.998287 
2.565388e+3, 1.9898573e+2, -773352.94, -1101644.4, 34593.395, 0.065254815, 0.41629824, -769747.25, 220233.38, 0.0, 10.002611, 9.998239 
2.565298e+3, 2.0898369e+2, -721952.8, -967500.6, 39998.875, 0.046337575, 0.40418577, -715601.44, 176398.05, 0.0, 10.002042, 9.998759 
2.565208e+3, 2.1898188e+2, -716425.75, -923828.3, 46069.8, 0.01571559, 0.38848048, -706652.94, 87363.18, 0.0, 10.001447, 9.998674 
2.565118e+3, 2.2898042e+2, -708040.06, -815320.25, 50296.098, -0.0038193436, 0.3945789, -688148.1, 7882.646, 0.0, 10.000602, 9.999152 
2.5650284e+3, 2.3897925e+2, -731849.8, -767019.5, 51361.332, -0.015977798, 0.4007133, -695146.44, -97103.57, 0.0, 9.999726, 9.999233 
2.564939e+3, 2.489783e+2, -661850.44, -601282.7, 46271.336, -0.009751903, 0.3851848, -576266.06, -76214.43, 0.0, 9.999184, 9.999958 
2.5648496e+3, 2.5897768e+2, -643540.56, -554448.56, 35006.68, -0.0035564105, 0.36882254, -542339.4, -140282.28, 0.0, 9.998689, 9.999846 
2.5647599e+3, 2.6897764e+2, -613711.75, -437363.16, 15473.423, -0.02352533, 0.39868474, -436015.75, -131958.3, 0.0, 9.997997, 10.00031 
2.5646698e+3, 2.7897775e+2, -640147.0, -422177.22, 16563.063, -0.033721857, 0.42393988, -420925.8, -214869.58, 0.0, 9.997239, 10.000109 
2.5645804e+3, 2.8897712e+2, -610094.4, -319774.88, 24049.979, -0.022341946, 0.37725103, -317796.06, -209731.53, 0.0, 9.996613, 10.000441 
2.5644907e+3, 2.989771e+2, -611255.0, -280643.6, 28511.895, -0.04888031, 0.37569186, -278202.75, -268136.28, 0.0, 9.99598, 10.000342 
2.564402e+3, 3.0898008e+2, -651482.3, -213020.73, 17614.14, 0.05201138, 0.65046567, -212314.27, -212314.27, 0.0, 9.995097, 10.000899 
2.5643104e+3, 3.1897825e+2, -568518.2, 78480.414, -16491.39, 0.0028472282, 0.40710992, 78900.49, 78900.49, 0.0, 9.99459, 10.003141 
2.576027e+3, 1.290958e+2, -967165.75, -1622577.5, -35476.01, 0.08774574, 0.41122204, -965251.1, 709650.9, 0.15945117, 10.007462, 9.997105 
2.5759342e+3, 1.3909227e+2, -1011317.75, -1630420.6, -12714.967, 0.030212851, 0.39257634, -1011056.7, 565879.8, 0.10872293, 10.006095, 9.996972 
2.575843e+3, 1.4908926e+2, -954256.3, -1513702.8, 934.40594, 0.028282871, 0.41511726, -954254.75, 524712.4, 0.06001981, 10.005329, 9.997466 
2.5757524e+3, 1.5908661e+2, -918249.56, -1447446.4, -6427.4004, 0.060142428, 0.44003066, -918171.5, 462822.94, 0.024110714, 10.004715, 9.997546 
2.5756618e+3, 1.6908403e+2, -837688.44, -1284664.3, 25792.225, 0.057356782, 0.43148816, -836205.06, 446813.56, 0.005888349, 10.004205, 9.998234 
2.5755712e+3, 1.7908165e+2, -834024.4, -1275711.9, 35888.11, 0.038084965, 0.41772598, -831127.4, 353913.28, 0.00057858496, 10.003722, 9.997856 
2.5754803e+3, 1.8907915e+2, -814343.06, -1212153.5, 28257.322, 0.022168212, 0.4339451, -812345.94, 274719.75, 0.000004588243, 10.003171, 9.997884 
2.57539e+3, 1.9907682e+2, -787626.0, -1129946.9, 15460.02, 0.010916113, 0.4486507, -786929.2, 202160.06, 0.0, 10.002601, 9.998053 
2.5752994e+3, 2.090745e+2, -713062.3, -949037.6, 19647.57, 0.0127103515, 0.4049104, -711437.6, 179673.05, 0.0, 10.002036, 9.998891 
2.5752088e+3, 2.1907246e+2, -712350.0, -915029.4, 20886.361, 0.01572863, 0.35529226, -710220.06, 82908.88, 0.0, 10.00144, 9.99874 
2.5751185e+3, 2.2907133e+2, -710023.06, -821546.9, 16621.607, 0.021747677, 0.39613247, -707598.5, -12458.276, 0.0, 10.000605, 9.999111 
2.575028e+3, 2.3907055e+2, -738091.6, -781941.25, 23754.031, 0.025289332, 0.44683596, -727690.75, -130542.21, 0.0, 9.999729, 9.999132 
2.5749376e+3, 2.4906938e+2, -675771.75, -631845.2, 27315.67, -0.00760217, 0.42415792, -618758.06, -119598.3, 0.0, 9.9991865, 9.999749 
2.5748473e+3, 2.5906834e+2, -656201.94, -584771.25, 12323.44, -0.048481368, 0.38725471, -582704.94, -181535.45, 0.0, 9.998701, 9.999636 
2.574757e+3, 2.6906788e+2, -629541.7, -473521.97, -14912.854, -0.041985743, 0.39795813, -472109.34, -168934.86, 0.0, 9.998005, 10.000063 
2.574667e+3, 2.790677e+2, -642226.3, -429543.8, -10872.696, -0.013121752, 0.4149235, -428989.44, -223812.83, 0.0, 9.997248, 10.000057 
2.574577e+3, 2.8906745e+2, -591773.2, -285473.5, -187.7416, -0.007475293, 0.39166877, -285473.4, -178293.73, 0.0, 9.996623, 10.000673 
2.5744864e+3, 2.9906753e+2, -580904.1, -225369.98, 684.6711, -0.049134456, 0.3721871, -225368.67, -216189.52, 0.0, 9.996008, 10.000712 
2.5743967e+3, 3.090696e+2, -612316.56, -129269.125, -15606.936, 0.06316252, 0.50901407, -128765.4, -128765.4, 0.0, 9.99508, 10.001487 
2.5743043e+3, 3.1907025e+2, -655384.4, -116597.0, 3321.284, -0.034532905, 0.4886524, -116576.53, -116576.53, 0.0, 9.994642, 10.001782 
2.586033e+3, 1.2918764e+2, -1083389.8, -1638943.3, -2298.5203, 0.06648066, 0.43299544, -1083380.3, 590623.9, 0.1432172, 10.006186, 9.997583 
2.58594e+3, 1.3918467e+2, -1024470.2, -1623747.1, 24078.564, 0.043426435, 0.43171033, -1023504.25, 552527.1, 0.09692966, 10.005863, 9.997129 
2.5858483e+3, 1.4918119e+2, -948126.2, -1547705.5, 50738.81, 0.033350445, 0.42435786, -943862.8, 534203.8, 0.052838378, 10.005502, 9.9971485 
2.5857568e+3, 1.5917787e+2, -867792.25, -1440299.3, 42931.918, 0.05247129, 0.41515297, -864590.75, 515509.66, 0.02075973, 10.0051365, 9.99739 
2.585666e+3, 1.6917548e+2, -793364.0, -1256595.9, 48284.914, 0.05433079, 0.42709246, -788384.56, 493738.34, 0.0048686853, 10.004483, 9.998291 
2.5855744e+3, 1.7917342e+2, -822852.44, -1261263.9, 30351.42, 0.041748356, 0.4410839, -820761.2, 363380.6, 0.00043992983, 10.003764, 9.997933 
2.5854832e+3, 1.8917087e+2, -827950.3, -1207509.5, 41688.91, 0.019185096, 0.4417624, -823425.3, 262741.97, 0.0000027949502, 10.003035, 9.997979 
2.5853917e+3, 1.991684e+2, -826195.2, -1145345.1, 57197.438, 0.0003007286, 0.43644992, -816254.0, 171938.14, 0.0, 10.002327, 9.9980755 
2.5853008e+3, 2.0916621e+2, -764212.0, -983118.8, 57034.16, 0.00906647, 0.4134568, -750243.6, 139969.02, 0.0, 10.001732, 9.998801 
2.58521e+3, 2.1916433e+2, -754074.25, -938853.06, 42210.81, 0.022040859, 0.38816988, -744888.25, 47341.594, 0.0, 10.001177, 9.9987 
2.585119e+3, 2.2916298e+2, -687808.56, -809410.06, 35949.824, 0.016914682, 0.40835753, -677975.6, 16267.236, 0.0, 10.000759, 9.999116 
2.5850275e+3, 2.3916194e+2, -656774.5, -750571.75, 45390.645, 0.009096182, 0.4351403, -638406.06, -42152.9, 0.0, 10.000327, 9.999057 
2.5849366e+3, 2.4916075e+2, -641790.7, -636642.7, 49475.74, -0.011822974, 0.42846826, -589674.06, -91409.13, 0.0, 9.9995165, 9.999555 
2.5848457e+3, 2.5915974e+2, -675416.56, -606988.9, 35648.332, -0.03679675, 0.41143522, -591792.3, -191517.17, 0.0, 9.998632, 9.999513 
2.5847548e+3, 2.6915902e+2, -635867.56, -481805.0, 20321.53, -0.03190353, 0.40997398, -479169.6, -176887.31, 0.0, 9.997992, 10.000008 
2.584664e+3, 2.7915865e+2, -622347.0, -419012.47, 36958.676, -0.004780521, 0.41249153, -412503.13, -208216.78, 0.0, 9.997386, 10.00006 
2.5845733e+3, 2.891586e+2, -566942.3, -265606.38, 40075.83, -0.0068259262, 0.40425196, -260367.63, -154080.6, 0.0, 9.996764, 10.00074 
2.5844818e+3, 2.9915878e+2, -557932.4, -196807.9, 20575.025, -0.061288908, 0.38719928, -195639.42, -187354.39, 0.0, 9.996092, 10.000867 
2.5843915e+3, 3.0916035e+2, -547919.94, -62796.082, -22145.857, 0.08459073, 0.44451523, -61787.227, -61787.227, 0.0, 9.995377, 10.001797 
2.584298e+3, 3.19161e+2, -690581.5, -203441.03, 32461.867, -0.09212074, 0.40891433, -201287.38, -201287.38, 0.0, 9.994716, 10.001144 
2.5960383e+3, 1.2928016e+2, -1049458.6, -1582580.5, -13960.437, 0.008928077, 0.4392077, -1049093.3, 624006.1, 0.12793016, 10.006155, 9.998033 
2.5959462e+3, 1.3927825e+2, -1003941.7, -1601930.1, 8103.324, 0.086120225, 0.50362676, -1003831.9, 571283.4, 0.08587978, 10.005901, 9.997261 
2.5958532e+3, 1.4927414e+2, -961445.44, -1589393.3, 35368.348, 0.046344068, 0.45034796, -959459.6, 517696.28, 0.046174854, 10.005514, 9.996859 
2.595761e+3, 1.5926996e+2, -891468.4, -1486375.9, 24901.771, 0.013388782, 0.3819188, -890427.9, 488769.97, 0.017709095, 10.005099, 9.997094 
2.5956693e+3, 1.6926758e+2, -820845.4, -1308996.3, 23243.584, 0.025267493, 0.4280008, -819741.1, 461480.2, 0.003975497, 10.004454, 9.997948 
2.5955778e+3, 1.792657e+2, -825772.8, -1264511.8, 6045.6846, 0.03403446, 0.48635858, -825689.5, 357550.16, 0.00032790148, 10.003747, 9.997922 
2.5954857e+3, 1.89263e+2, -794416.6, -1139595.9, 15665.648, 0.02741782, 0.44147754, -793707.1, 291558.2, 0.0000016192165, 10.0030365, 9.998447 
2.5953937e+3, 1.9926043e+2, -813561.5, -1122029.9, 32478.535, 0.022304358, 0.38457584, -810178.94, 177110.9, 0.0, 10.002335, 9.998235 
2.5953022e+3, 2.0925876e+2, -782883.9, -1026177.25, 35788.04, 0.030165793, 0.4298436, -777728.75, 111577.46, 0.0, 10.001745, 9.998502 
2.595211e+3, 2.1925737e+2, -764738.75, -963004.1, 25252.002, 0.03244071, 0.48157042, -761573.06, 29746.816, 0.0, 10.001181, 9.998535 
2.5951186e+3, 2.2925527e+2, -686004.75, -806814.2, 22190.059, -0.01912221, 0.42984676, -682057.9, 11281.407, 0.0, 10.00076, 9.999135 
2.5950265e+3, 2.3925333e+2, -660947.4, -761298.7, 22821.734, -0.06922324, 0.36587593, -656001.1, -60643.805, 0.0, 10.000331, 9.998984 
2.594936e+3, 2.4925235e+2, -655263.8, -666798.9, 13963.354, -0.021503659, 0.39754355, -645923.75, -148556.1, 0.0, 9.99952, 9.99935 
2.5948447e+3, 2.5925174e+2, -678815.4, -616014.44, 5112.5825, 0.03222872, 0.44143867, -615600.94, -216226.3, 0.0, 9.998636, 9.999452 
2.5947526e+3, 2.6925114e+2, -626265.7, -462195.94, -3405.234, 0.004626053, 0.43663797, -462125.28, -160744.27, 0.0, 9.997989, 10.000146 
2.5946605e+3, 2.7925068e+2, -618638.1, -414360.4, 14405.927, -0.02074521, 0.42047083, -413349.5, -209964.23, 0.0, 9.997394, 10.000091 
2.5945693e+3, 2.8925055e+2, -575089.44, -285535.3, 15154.362, -0.019142894, 0.4149867, -284744.34, -179357.39, 0.0, 9.996771, 10.000604 
2.5944772e+3, 2.992508e+2, -564747.25, -212653.28, -6758.939, -0.07136032, 0.4205844, -212523.58, -205138.84, 0.0, 9.996094, 10.00076 
2.5943863e+3, 3.0925235e+2, -557712.06, -84551.21, -52009.54, 0.07528387, 0.48691615, -78901.805, -78901.805, 0.0, 9.995377, 10.001652 
2.5942922e+3, 3.1925288e+2, -587378.5, 3741.6702, 64670.91, -0.11452297, 0.42451885, 10734.209, 10734.209, 0.0, 9.994736, 10.0025625 
2.6060438e+3, 1.2937325e+2, -1050108.3, -1624218.6, 25539.297, -0.012549923, 0.4434885, -1048974.4, 623212.5, 0.11364113, 10.00625, 9.997655 
2.605952e+3, 1.3937084e+2, -938030.25, -1585025.9, -402.20212, 0.10128954, 0.49473342, -938030.0, 636178.9, 0.07562586, 10.006407, 9.997133 
2.6058587e+3, 1.4936703e+2, -931405.56, -1553547.1, 25783.791, 0.049144775, 0.461884, -930338.8, 545907.6, 0.04006532, 10.005619, 9.99705 
2.6057655e+3, 1.5936324e+2, -941402.5, -1497445.5, 40072.594, -0.002092576, 0.41490206, -938529.44, 439754.78, 0.0149728125, 10.004687, 9.997213 
2.605673e+3, 1.6936064e+2, -886816.94, -1339192.9, 61035.363, 0.013830198, 0.4358015, -878726.6, 401582.75, 0.0032079774, 10.003995, 9.997959 
2.6055807e+3, 1.7935845e+2, -880395.1, -1293321.3, 62061.777, 0.032132052, 0.4658781, -871269.06, 311061.38, 0.00023978736, 10.003388, 9.997894 
2.6054886e+3, 1.8935591e+2, -806322.8, -1153263.9, 49418.215, 0.03465508, 0.44378382, -799421.0, 284934.3, 0.00000086705097, 10.002996, 9.998369 
2.605396e+3, 1.9935353e+2, -771332.06, -1099780.0, 33423.03, 0.03759078, 0.41398773, -767965.44, 218413.11, 0.0, 10.0026245, 9.998244 
2.6053038e+3, 2.093518e+2, -738453.3, -993137.9, 50088.375, 0.035920434, 0.44400933, -728956.6, 159438.69, 0.0, 10.0020075, 9.998599 
2.6052117e+3, 2.193503e+2, -741242.56, -950827.9, 62162.402, 0.027430559, 0.47800773, -724192.44, 66217.2, 0.0, 10.001343, 9.998539 
2.6051188e+3, 2.2934812e+2, -709775.25, -831215.25, 57534.086, -0.022580743, 0.42997834, -686846.7, 5583.212, 0.0, 10.000657, 9.999016 
2.6050264e+3, 2.3934612e+2, -718001.06, -794120.9, 48037.59, -0.067668065, 0.37079823, -694773.4, -100324.55, 0.0, 9.9999695, 9.998929 
2.604935e+3, 2.4934511e+2, -671059.75, -674517.5, 46517.504, -0.018624594, 0.40248692, -626239.0, -129779.43, 0.0, 9.999419, 9.999341 
2.604843e+3, 2.5934452e+2, -646247.9, -601683.0, 50218.707, 0.038309537, 0.44851783, -569025.25, -170558.63, 0.0, 9.998872, 9.999434 
2.6047504e+3, 2.6934388e+2, -590282.75, -447240.63, 34651.977, 0.0060097123, 0.44816288, -439288.28, -138815.23, 0.0, 9.998252, 10.000119 
2.6046577e+3, 2.7934346e+2, -592925.7, -403839.22, 39635.633, -0.026632274, 0.43504474, -395867.06, -193389.64, 0.0, 9.997585, 10.000068 
2.6045656e+3, 2.8934336e+2, -562865.25, -281475.7, 41945.13, -0.02482787, 0.4384488, -275356.25, -170877.81, 0.0, 9.996872, 10.000579 
2.6044732e+3, 2.9934362e+2, -569259.0, -220261.38, 22376.361, -0.067249455, 0.4505764, -218832.53, -212356.78, 0.0, 9.996098, 10.000701 
2.6043805e+3, 3.0934447e+2, -600415.25, -117366.35, -24168.197, 0.015796516, 0.45709392, -116160.164, -116160.164, 0.0, 9.995148, 10.001531 
2.604287e+3, 3.193462e+2, -557353.3, 106202.664, 113209.4, -0.08268044, 0.51248336, 124985.66, 124985.66, 0.0, 9.994571, 10.003343 
2.6160496e+3, 1.2946679e+2, -1096108.8, -1747804.5, 31287.996, -0.012609739, 0.4418125, -1094610.1, 576658.0, 0.10036742, 10.006264, 9.996756 
2.615958e+3, 1.3946299e+2, -966677.8, -1636256.9, -8154.2334, 0.08807428, 0.4297989, -966578.5, 606728.56, 0.066186324, 10.0062895, 9.99684 
2.6158634e+3, 1.4946014e+2, -903233.56, -1488747.4, -8075.8794, 0.039837386, 0.46645936, -903122.2, 572213.44, 0.034521244, 10.005564, 9.997525 
2.6157698e+3, 1.5945758e+2, -912198.75, -1441657.3, 9855.638, -0.0012540644, 0.49864018, -912015.4, 465345.4, 0.012552266, 10.004697, 9.997595 
2.6156768e+3, 1.6945456e+2, -865778.1, -1301184.9, 36353.645, 0.014672155, 0.4472126, -862763.75, 416624.84, 0.002561147, 10.004012, 9.998215 
2.6155838e+3, 1.794517e+2, -885167.06, -1305755.4, 41646.51, 0.030194335, 0.3928756, -881082.9, 300331.88, 0.00017260529, 10.003394, 9.997809 
2.615491e+3, 1.8944955e+2, -843625.25, -1232094.9, 37163.004, 0.0391539, 0.449805, -840102.0, 243336.06, 0.00000042407203, 10.002997, 9.99783 
2.6153985e+3, 1.9944763e+2, -781932.3, -1119485.6, 17837.09, 0.046780612, 0.51147085, -780992.4, 204466.73, 0.0, 10.002609, 9.998119 
2.6153055e+3, 2.0944528e+2, -711332.5, -935047.44, 26497.803, 0.02689833, 0.45447865, -708236.9, 179243.33, 0.0, 10.001995, 9.999006 
2.6152125e+3, 2.1944308e+2, -734797.4, -935605.94, 38047.668, 0.0026523168, 0.38493288, -727830.1, 61669.03, 0.0, 10.00133, 9.998652 
2.6151195e+3, 2.2944152e+2, -727743.6, -870007.8, 31883.008, 0.0047190995, 0.41174147, -720925.1, -29410.117, 0.0, 10.000659, 9.998751 
2.6150268e+3, 2.3944025e+2, -721503.9, -804079.44, 24224.057, 0.010190085, 0.44820222, -714922.2, -121393.66, 0.0, 9.999975, 9.99886 
2.6149338e+3, 2.4943899e+2, -658695.4, -649924.5, 25249.045, -0.0072313724, 0.44271114, -628682.9, -133141.72, 0.0, 9.99942, 9.999512 
2.614841e+3, 2.5943792e+2, -644436.5, -602111.1, 27754.066, -0.029793257, 0.4312088, -588371.8, -190820.28, 0.0, 9.998884, 9.999428 
2.614748e+3, 2.6943725e+2, -605691.5, -482446.06, 8901.666, -0.029045578, 0.44303405, -481806.44, -182247.45, 0.0, 9.9982605, 9.999876 
2.614655e+3, 2.7943686e+2, -599293.44, -419873.97, 12942.51, -0.016887294, 0.45834556, -418945.16, -217381.75, 0.0, 9.997592, 9.999956 
2.614562e+3, 2.8943694e+2, -558931.4, -274541.66, 11257.477, -0.031604845, 0.47702, -274096.72, -170534.83, 0.0, 9.996872, 10.000629 
2.6144686e+3, 2.9943717e+2, -573152.3, -231258.95, -12801.334, -0.08428936, 0.47658676, -230780.3, -225221.4, 0.0, 9.996103, 10.000626 
2.6143748e+3, 3.0943632e+2, -614857.1, -145171.67, -64377.58, -0.048756946, 0.3364375, -136507.56, -136507.56, 0.0, 9.995132, 10.00135 
2.6142812e+3, 3.1943917e+2, -623325.25, -39934.375, 71286.53, -0.067849435, 0.5350652, -31349.945, -31349.945, 0.0, 9.994583, 10.002347 
2.626056e+3, 1.2956063e+2, -1055419.8, -1741747.8, 32593.857, 0.0515965, 0.45422003, -1053875.4, 616472.8, 0.088110544, 10.006553, 9.996662 
2.6259628e+3, 1.3955635e+2, -1061795.3, -1678974.1, 28029.838, 0.03079968, 0.39817703, -1060524.8, 511867.6, 0.05755066, 10.005518, 9.996916 
2.625868e+3, 1.4955387e+2, -950733.4, -1482629.5, 26872.86, 0.019944979, 0.45254865, -949379.2, 525038.3, 0.029528303, 10.005082, 9.997795 
2.6257744e+3, 1.595518e+2, -892748.6, -1413242.8, 30966.016, 0.039109945, 0.5106279, -890912.8, 485525.1, 0.010433895, 10.004749, 9.997761 
2.6256806e+3, 1.6954878e+2, -835004.7, -1281874.8, 42832.203, 0.03929, 0.4525634, -830936.3, 447529.2, 0.0020250853, 10.004211, 9.998246 
2.625587e+3, 1.7954583e+2, -848289.6, -1280839.6, 38482.535, 0.026408995, 0.38588986, -844892.6, 335599.7, 0.00012298183, 10.003625, 9.997865 
2.6254934e+3, 1.8954377e+2, -859752.7, -1231811.4, 63892.21, 0.026154386, 0.44626662, -849086.5, 233428.28, 0.00000019125741, 10.00286, 9.997895 
2.6254e+3, 1.9954197e+2, -853716.0, -1149028.6, 75743.125, 0.031962536, 0.51625645, -835422.3, 149112.5, 0.0, 10.0021, 9.998158 
2.6253065e+3, 2.0953959e+2, -768640.94, -962470.94, 68193.734, 0.02250837, 0.45752552, -747053.2, 139503.11, 0.0, 10.001606, 9.999002 
2.6252133e+3, 2.1953735e+2, -758708.2, -943718.2, 55482.68, 0.010540616, 0.3840052, -743345.25, 45230.67, 0.0, 10.00116, 9.998674 
2.62512e+3, 2.2953592e+2, -718498.0, -861860.8, 62122.47, 0.01571209, 0.42191997, -695324.7, -4733.8066, 0.0, 10.000712, 9.998777 
2.6250267e+3, 2.3953481e+2, -678801.44, -776143.0, 72570.27, 0.023856504, 0.47344938, -640092.06, -47488.93, 0.0, 10.000242, 9.998921 
2.6249328e+3, 2.4953352e+2, -622096.56, -620829.2, 71788.31, -0.005246967, 0.4591347, -549671.75, -55056.355, 0.0, 9.999626, 9.99961 
2.6248392e+3, 2.595324e+2, -633040.75, -594142.94, 68644.695, -0.041007526, 0.43301934, -542245.1, -145619.17, 0.0, 9.998958, 9.999444 
2.6247457e+3, 2.695316e+2, -606929.0, -493722.94, 55774.188, -0.045739084, 0.44298828, -470861.13, -172226.63, 0.0, 9.998304, 9.999775 
2.624652e+3, 2.7953115e+2, -599730.9, -427548.16, 66545.69, -0.030154191, 0.4618159, -404827.53, -204187.67, 0.0, 9.997628, 9.999884 
2.6245585e+3, 2.895313e+2, -552524.75, -276023.2, 58387.52, -0.025840448, 0.49315813, -264199.38, -161561.66, 0.0, 9.996941, 10.000583 
2.6244643e+3, 2.9953143e+2, -561510.94, -241740.75, 24502.941, -0.07321455, 0.49290484, -239874.06, -235238.77, 0.0, 9.996257, 10.000478 
2.6243693e+3, 3.095296e+2, -541879.0, -135184.84, -32701.074, -0.08676709, 0.27624142, -132572.23, -132572.23, 0.0, 9.995748, 10.00112 
2.6242754e+3, 3.1953236e+2, -619677.4, -92914.21, 126470.92, -0.076447256, 0.49440476, -64123.324, -64123.324, 0.0, 9.994855, 10.001847 
2.636063e+3, 1.2965493e+2, -1030268.5, -1683081.5, -6706.397, 0.14785267, 0.4775537, -1030199.56, 639225.6, 0.07685504, 10.006475, 9.997098 
2.6359668e+3, 1.3965076e+2, -1044078.2, -1640409.5, 1823.9589, -0.06285787, 0.3940576, -1044072.6, 527393.94, 0.0496918, 10.005478, 9.997201 
2.6358727e+3, 1.496482e+2, -943128.94, -1469734.6, 15134.893, -0.008315093, 0.4260646, -942694.3, 530798.2, 0.025059788, 10.005066, 9.997896 
2.6357794e+3, 1.5964608e+2, -896504.44, -1417766.9, 14082.718, 0.10623501, 0.46903437, -896124.25, 479389.97, 0.008596727, 10.004721, 9.997746 
2.635685e+3, 1.6964334e+2, -851053.8, -1308537.6, 22459.783, 0.079184555, 0.45358697, -849953.8, 427585.7, 0.0015873263, 10.004176, 9.998083 
2.63559e+3, 1.7964073e+2, -842864.8, -1262201.8, 15378.341, 0.018648528, 0.4296407, -842301.56, 337262.0, 0.00008731026, 10.003589, 9.9980135 
2.6354957e+3, 1.8963854e+2, -824407.3, -1157260.9, 34861.305, -0.0031946518, 0.43383855, -820795.3, 260790.36, 0.00000008629741, 10.00285, 9.998415 
2.6354015e+3, 1.9963656e+2, -844691.8, -1132164.0, 52162.316, -0.008294585, 0.4434658, -835519.56, 148086.2, 0.0, 10.002103, 9.998276 
2.635308e+3, 2.0963466e+2, -793105.3, -1016351.2, 51900.516, 0.02160981, 0.4565498, -781629.3, 103994.99, 0.0, 10.001615, 9.998631 
2.6352143e+3, 2.1963292e+2, -762967.8, -954434.1, 40339.418, 0.04634035, 0.4640585, -754815.9, 32825.27, 0.0, 10.001162, 9.998603 
2.6351202e+3, 2.2963123e+2, -698884.3, -821809.56, 46069.176, 0.008512184, 0.45647785, -683535.3, 6122.9517, 0.0, 10.000711, 9.999056 
2.635026e+3, 2.3962975e+2, -667073.3, -753136.0, 52220.754, -0.03129401, 0.44716138, -642438.5, -50765.36, 0.0, 10.000243, 9.999081 
2.634932e+3, 2.4962871e+2, -620912.7, -619924.1, 46150.656, -0.011418957, 0.4522492, -574265.1, -80582.38, 0.0, 9.999629, 9.999618 
2.6348382e+3, 2.596279e+2, -629760.25, -590637.75, 43033.504, 0.00489726, 0.4564679, -562928.25, -167238.19, 0.0, 9.998967, 9.999466 
2.6347435e+3, 2.6962695e+2, -603902.75, -489025.5, 29832.81, -0.04722883, 0.44809467, -481740.16, -184040.61, 0.0, 9.998306, 9.999808 
2.6346487e+3, 2.7962628e+2, -601603.0, -435147.1, 41266.85, -0.07979587, 0.44186372, -425478.06, -225771.25, 0.0, 9.99764, 9.999828 
2.6345554e+3, 2.8962633e+2, -563404.0, -299787.56, 32116.19, -0.000059440797, 0.48211285, -295931.28, -194225.17, 0.0, 9.996942, 10.0004225 
2.634461e+3, 2.996265e+2, -578416.4, -274482.6, 3110.9333, -0.0038551895, 0.50274134, -274450.75, -270746.28, 0.0, 9.996242, 10.000263 
2.634364e+3, 3.096245e+2, -556124.7, -177911.69, -48768.688, -0.14596863, 0.29289535, -171724.42, -171724.42, 0.0, 9.995794, 10.000808 
2.63427e+3, 3.1962678e+2, -574124.7, 1472.3422, 110549.34, -0.05234437, 0.4750211, 21974.236, 21974.236, 0.0, 9.994871, 10.00248 
2.6460692e+3, 1.2974977e+2, -1029896.94, -1637915.0, 2568.8186, 0.16552855, 0.48801184, -1029886.06, 638612.0, 0.066563375, 10.006203, 9.997555 
2.6459718e+3, 1.397462e+2, -1056854.5, -1624600.1, 23230.29, -0.063104495, 0.42693985, -1055905.6, 514626.25, 0.042578332, 10.005256, 9.997416 
2.6458773e+3, 1.4974357e+2, -981952.44, -1495386.5, 43039.71, -0.009484329, 0.44953156, -978369.5, 494189.3, 0.021089273, 10.004812, 9.997836 
2.6457834e+3, 1.5974125e+2, -931364.8, -1425937.5, 26836.51, 0.10915541, 0.47852707, -929912.8, 444669.9, 0.007019152, 10.004443, 9.99782 
2.6456884e+3, 1.6973874e+2, -908545.4, -1313162.4, 45418.516, 0.07308023, 0.46840942, -903509.8, 373096.13, 0.0012349515, 10.003687, 9.998283 
2.6455927e+3, 1.7973638e+2, -927155.5, -1284088.6, 59215.086, 0.005184163, 0.45161408, -917588.2, 261039.23, 0.00006223652, 10.002935, 9.998174 
2.645498e+3, 1.8973406e+2, -838619.25, -1149805.9, 64027.664, -0.00126707, 0.43328172, -825960.3, 254689.52, 0.000000036839044, 10.002698, 9.998535 
2.6454034e+3, 1.9973196e+2, -782077.44, -1090315.4, 56829.367, 0.008707455, 0.4189273, -771933.7, 210736.67, 0.0, 10.002492, 9.998371 
2.645309e+3, 2.0973028e+2, -763994.3, -997903.6, 73104.84, 0.02318799, 0.4490178, -743026.1, 141660.97, 0.0, 10.001802, 9.998664 
2.6452148e+3, 2.1972881e+2, -776130.7, -954805.06, 85176.12, 0.034999497, 0.48062682, -742033.25, 44668.66, 0.0, 10.001052, 9.99865 
2.6451203e+3, 2.2972707e+2, -728445.06, -828623.4, 83981.2, 0.011267728, 0.46666145, -680749.94, 7969.405, 0.0, 10.000481, 9.999118 
2.6450256e+3, 2.3972555e+2, -709663.06, -766720.75, 75022.73, -0.012458281, 0.44563428, -657927.94, -67193.09, 0.0, 9.9999275, 9.999137 
2.644931e+3, 2.4972457e+2, -651964.75, -631739.7, 66368.19, -0.0025958524, 0.45447725, -574718.06, -81974.35, 0.0, 9.999407, 9.99964 
2.6448366e+3, 2.597238e+2, -640669.0, -588157.9, 63048.793, 0.0042890613, 0.4643282, -546116.25, -151366.13, 0.0, 9.998864, 9.99953 
2.6447412e+3, 2.697229e+2, -602568.1, -476646.03, 53468.41, -0.044248335, 0.44757733, -457005.84, -160246.64, 0.0, 9.998269, 9.999909 
2.644646e+3, 2.7972212e+2, -602901.0, -436265.0, 68849.414, -0.069374666, 0.42927247, -411499.1, -212732.47, 0.0, 9.997635, 9.999822 
2.644552e+3, 2.8972208e+2, -562774.25, -314773.44, 61107.652, 0.007103945, 0.46506414, -300534.03, -199765.92, 0.0, 9.997017, 10.000279 
2.644457e+3, 2.997222e+2, -553967.5, -264609.0, 40204.95, -0.0079436395, 0.49562448, -259126.6, -256359.16, 0.0, 9.996425, 10.000239 
2.6443595e+3, 3.0972105e+2, -514280.75, -151431.02, 21846.734, -0.150732, 0.3690749, -150120.38, -150120.38, 0.0, 9.996057, 10.000862 
2.644265e+3, 3.197224e+2, -515229.9, 46908.902, 124672.8, -0.028263496, 0.45927027, 73318.47, 73318.47, 0.0, 9.995216, 10.002618 
2.6560748e+3, 1.2984519e+2, -1001539.3, -1575659.5, -32169.494, 0.12729536, 0.49286637, -999742.44, 667823.7, 0.057181764, 10.006132, 9.998037 
2.655977e+3, 1.3984254e+2, -1041418.94, -1601498.8, -1832.384, -0.0015119748, 0.4824891, -1041412.94, 528176.4, 0.03617457, 10.005265, 9.99757 
2.6558816e+3, 1.4983982e+2, -998047.4, -1529319.9, 32426.377, 0.0045081005, 0.5069238, -996075.56, 475542.0, 0.01758876, 10.004788, 9.997618 
2.6557872e+3, 1.5983725e+2, -932290.75, -1414123.8, 9317.295, 0.059015073, 0.52579975, -932110.6, 441533.63, 0.0056786877, 10.004374, 9.997937 
2.655691e+3, 1.6983491e+2, -880088.8, -1249052.6, 16242.632, 0.029891875, 0.4950537, -879375.1, 396290.03, 0.0009549422, 10.003659, 9.99874 
2.655595e+3, 1.7983271e+2, -917205.75, -1266589.1, 40875.348, -0.014752252, 0.4588558, -912487.4, 265196.84, 0.00004479405, 10.002944, 9.998292 
2.6555005e+3, 1.8983029e+2, -853950.25, -1183665.5, 59779.953, 0.025948232, 0.44239542, -843446.3, 236261.5, 0.000000014947995, 10.002702, 9.998303 
2.655406e+3, 1.9982804e+2, -779317.2, -1082030.6, 41652.625, 0.07102205, 0.42991182, -773690.5, 208039.25, 0.0, 10.002476, 9.998439 
2.6553106e+3, 2.098264e+2, -739510.8, -945516.4, 44653.24, 0.02414514, 0.43370605, -730248.3, 153496.66, 0.0, 10.001791, 9.999031 
2.655215e+3, 2.1982498e+2, -770084.44, -939337.0, 61359.438, -0.025050772, 0.4403737, -750180.4, 35577.824, 0.0, 10.001035, 9.998767 
2.6551205e+3, 2.2982346e+2, -739702.0, -852420.9, 64052.906, 0.024583051, 0.4553925, -710743.44, -22969.078, 0.0, 10.00048, 9.998957 
2.655026e+3, 2.3982212e+2, -712420.2, -775631.6, 54492.4, 0.0748927, 0.46758065, -681031.1, -91242.21, 0.0, 9.999936, 9.999074 
2.6549304e+3, 2.4982104e+2, -649467.25, -628351.44, 45147.094, 0.017420063, 0.4645308, -592544.2, -100745.23, 0.0, 9.99941, 9.999665 
2.6548344e+3, 2.5982013e+2, -632397.75, -573362.0, 40771.51, -0.050788317, 0.45598093, -552544.8, -158738.05, 0.0, 9.99887, 9.999631 
2.6547393e+3, 2.6981938e+2, -591069.6, -452999.63, 29244.43, -0.033679105, 0.44054395, -447060.84, -151247.06, 0.0, 9.998265, 10.000076 
2.6546437e+3, 2.798188e+2, -599954.4, -430328.88, 45567.75, 0.005917763, 0.42728522, -418862.75, -221043.63, 0.0, 9.997632, 9.9998665 
2.6545483e+3, 2.8981847e+2, -572037.5, -335588.16, 37535.453, -0.015455054, 0.4424907, -329772.6, -229949.06, 0.0, 9.997018, 10.000139 
2.6544517e+3, 2.9981852e+2, -535048.7, -231988.34, 23461.926, -0.11416103, 0.47179645, -230182.77, -228358.97, 0.0, 9.996448, 10.000455 
2.654356e+3, 3.098196e+2, -468933.0, -62142.938, 11624.725, -0.063060075, 0.52077556, -61811.01, -61811.01, 0.0, 9.996072, 10.0014715 
2.6542595e+3, 3.1981903e+2, -578610.94, -89458.9, 10055.181, -0.051030837, 0.3888632, -89252.28, -89252.28, 0.0, 9.995216, 10.001692 
2.6660797e+3, 1.2994157e+2, -1055151.9, -1609831.8, 7237.8467, 0.072687775, 0.5070201, -1055057.5, 611565.8, 0.048656538, 10.005728, 9.997981 
2.6659825e+3, 1.3993903e+2, -994979.1, -1566546.1, 7529.5176, 0.06803163, 0.5105232, -994879.94, 573765.7, 0.030436657, 10.005515, 9.997688 
2.665886e+3, 1.4993633e+2, -1018914.4, -1507585.1, 58259.26, 0.033022054, 0.515867, -1012064.7, 458607.6, 0.014521924, 10.004499, 9.997903 
2.6657903e+3, 1.5993382e+2, -1045252.75, -1449505.5, 64357.44, 0.030963933, 0.5145756, -1035254.25, 337443.25, 0.004548551, 10.003511, 9.998106 
2.665694e+3, 1.6993162e+2, -924105.3, -1265107.3, 59601.78, 0.027976489, 0.49328768, -913988.0, 360729.5, 0.00073369173, 10.003341, 9.998778 
2.6655978e+3, 1.7992961e+2, -870593.6, -1236178.5, 61615.652, 0.016145676, 0.4698397, -860488.25, 316247.56, 0.000032466538, 10.003237, 9.998357 
2.6655027e+3, 1.8992732e+2, -862178.94, -1178336.5, 93737.44, 0.039701905, 0.4617133, -836476.3, 242281.48, 0.0000000057994387, 10.002612, 9.998379 
2.6654077e+3, 1.9992518e+2, -852768.9, -1109207.4, 87051.57, 0.06737615, 0.45494056, -826010.25, 154768.03, 0.0, 10.001943, 9.998506 
2.6653117e+3, 2.099234e+2, -780702.3, -959137.1, 69482.914, 0.034048576, 0.4410752, -756837.3, 125957.31, 0.0, 10.001488, 9.999081 
2.6652154e+3, 2.1992184e+2, -764699.3, -930525.44, 67621.83, -0.0023106164, 0.42934877, -740620.4, 44188.742, 0.0, 10.001051, 9.998816 
2.6651204e+3, 2.2992043e+2, -733509.25, -846022.6, 80504.06, 0.025355943, 0.45099694, -691553.3, -4729.034, 0.0, 10.000512, 9.998982 
2.6650253e+3, 2.3991919e+2, -705091.94, -763535.9, 84181.43, 0.05857467, 0.47262627, -645204.8, -56367.11, 0.0, 9.999955, 9.999145 
2.6649293e+3, 2.499181e+2, -643767.75, -613782.6, 81311.69, 0.016165527, 0.4612685, -546092.9, -55245.32, 0.0, 9.999403, 9.999765 
2.664833e+3, 2.599172e+2, -635087.7, -568157.94, 78747.945, -0.033798847, 0.44424018, -516059.16, -123203.9, 0.0, 9.998828, 9.999685 
2.664737e+3, 2.699166e+2, -588426.44, -452617.9, 54610.496, -0.021448888, 0.4443023, -433382.66, -138521.5, 0.0, 9.998293, 10.000063 
2.664641e+3, 2.7991617e+2, -577450.3, -413683.8, 60796.254, 0.010007009, 0.4435776, -393581.5, -196715.97, 0.0, 9.997768, 9.999911 
2.664545e+3, 2.8991562e+2, -513917.94, -297998.7, 66399.516, -0.02549386, 0.43306476, -279213.78, -180342.52, 0.0, 9.997381, 10.000219 
2.6644477e+3, 2.9991552e+2, -477171.53, -208715.72, 53779.08, -0.12251062, 0.4439201, -198343.06, -197470.5, 0.0, 9.996868, 10.00041 
2.6643515e+3, 3.099172e+2, -533585.44, -110418.5, -17460.037, -0.048774183, 0.56476325, -109699.31, -109699.31, 0.0, 9.99571, 10.001309 
2.664254e+3, 3.1991595e+2, -505104.47, -68344.36, -2953.3044, -0.0769056, 0.37934998, -68324.39, -68324.39, 0.0, 9.995791, 10.0015545 
2.6760843e+3, 1.3003874e+2, -1086105.6, -1670182.4, 6402.6523, 0.004064495, 0.52745384, -1086035.4, 579636.3, 0.040943254, 10.005669, 9.997574 
2.6759884e+3, 1.4003584e+2, -990152.8, -1555095.0, -10041.883, 0.13665274, 0.5225879, -989974.4, 577724.9, 0.025314795, 10.005479, 9.9977865 
2.6758903e+3, 1.5003328e+2, -974969.2, -1419597.8, 17864.666, 0.067049496, 0.49186066, -974252.56, 495469.8, 0.011845427, 10.004498, 9.998514 
2.6757932e+3, 1.6003096e+2, -1031560.2, -1426153.6, 41760.01, 0.017896466, 0.4612616, -1027189.1, 344554.06, 0.0035988777, 10.003526, 9.998262 
2.6756972e+3, 1.7002887e+2, -944567.94, -1310562.0, 58361.13, 0.056998443, 0.46894386, -935487.0, 338276.84, 0.0005582592, 10.003348, 9.998466 
2.6756012e+3, 1.8002696e+2, -871089.5, -1235336.6, 48458.035, 0.08294514, 0.48099607, -864753.06, 311029.72, 0.000023528748, 10.003224, 9.998371 
2.675505e+3, 1.900251e+2, -841164.2, -1133103.9, 67625.766, 0.038816422, 0.49025995, -826260.06, 251540.16, 0.000000001728097, 10.0026, 9.998698 
2.6754087e+3, 2.0002332e+2, -853611.3, -1107793.5, 66203.79, 0.0041309926, 0.4943914, -837401.75, 142414.97, 0.0, 10.0019245, 9.998527 
2.675313e+3, 2.1002124e+2, -799730.94, -998886.44, 54279.34, 0.053201966, 0.4690394, -785898.0, 95938.75, 0.0, 10.001485, 9.998811 
2.675217e+3, 2.200193e+2, -766679.94, -935092.7, 50453.625, 0.09080146, 0.44217768, -752721.75, 31133.66, 0.0, 10.001048, 9.998788 
2.6751202e+3, 2.3001792e+2, -719313.4, -817560.4, 60082.773, 0.009213113, 0.4515589, -690828.5, -4958.8335, 0.0, 10.000512, 9.99918 
2.6750237e+3, 2.4001676e+2, -691926.2, -736713.8, 63358.773, -0.06528353, 0.4616752, -647120.2, -59238.74, 0.0, 9.999952, 9.999332 
2.674928e+3, 2.500158e+2, -632763.9, -591570.06, 59720.746, -0.003969879, 0.44447303, -548994.2, -59104.53, 0.0, 9.999402, 9.999921 
2.6748323e+3, 2.6001504e+2, -635490.25, -572330.9, 57394.16, 0.05244872, 0.43071067, -538402.06, -146506.22, 0.0, 9.998837, 9.999654 
2.6747352e+3, 2.7001455e+2, -604334.0, -487125.47, 32815.3, -0.013350144, 0.46141806, -478563.5, -184662.0, 0.0, 9.998294, 9.999827 
2.6746377e+3, 2.8001416e+2, -573455.5, -408389.06, 43377.92, -0.068588525, 0.4834336, -397684.0, -201777.84, 0.0, 9.997775, 9.999947 
2.674542e+3, 2.900135e+2, -488172.88, -249746.6, 51579.22, -0.018562734, 0.43676263, -239066.73, -141155.19, 0.0, 9.997398, 10.0005455 
2.6744452e+3, 3.0001312e+2, -504734.47, -271028.4, 20141.264, -0.024435919, 0.4068871, -269305.28, -269305.28, 0.0, 9.996885, 9.999977 
2.674346e+3, 3.100132e+2, -629487.4, -300086.8, -73914.266, -0.12464975, 0.4740475, -284261.47, -284261.47, 0.0, 9.995664, 10.000033 
2.67425e+3, 3.2001323e+2, -419575.66, 84805.35, 200798.31, -0.048245568, 0.48478097, 154981.13, 154981.13, 0.0, 9.99589, 10.002563 
2.6860893e+3, 1.3013652e+2, -1143371.3, -1714238.9, 67105.54, 0.029467717, 0.515016, -1135589.1, 529123.25, 0.03399648, 10.0052805, 9.997462 
2.685993e+3, 1.4013365e+2, -1019822.6, -1570984.1, 41136.297, 0.10687342, 0.5228655, -1016769.3, 549971.6, 0.020757651, 10.005253, 9.997785 
2.6858947e+3, 1.5013108e+2, -969960.06, -1407805.0, 27723.879, 0.07217891, 0.4862263, -968211.56, 500552.44, 0.009515126, 10.004488, 9.998597 
2.6857966e+3, 1.6012877e+2, -1005783.3, -1409622.4, 40415.71, 0.06004045, 0.45009965, -1001778.3, 369006.25, 0.0028013145, 10.003689, 9.998294 
2.6857e+3, 1.701268e+2, -957924.25, -1320400.1, 83078.63, 0.07249897, 0.47268677, -939790.06, 333014.16, 0.0004182017, 10.003276, 9.998429 
2.6856038e+3, 1.80125e+2, -912798.7, -1248871.5, 77955.016, 0.07080351, 0.49834856, -895596.8, 279225.56, 0.000016829097, 10.002915, 9.998424 
2.685507e+3, 1.9012308e+2, -861958.6, -1127897.1, 78195.61, 0.03352482, 0.49109513, -840670.4, 236169.88, 0.0000000002885943, 10.002398, 9.998828 
2.68541e+3, 2.0012125e+2, -855825.0, -1097389.8, 70144.91, 0.0074258302, 0.4784405, -836933.9, 141923.23, 0.0, 10.001864, 9.998623 
2.6853138e+3, 2.101193e+2, -813036.06, -1000020.6, 80189.81, 0.053120755, 0.46336064, -783356.9, 97519.01, 0.0, 10.001376, 9.998852 
2.685218e+3, 2.2011757e+2, -782818.6, -929774.7, 92681.66, 0.09154941, 0.44961968, -738021.94, 44871.03, 0.0, 10.000888, 9.9988985 
2.6851204e+3, 2.3011631e+2, -733418.4, -805510.1, 99197.164, 0.013769525, 0.4584133, -663921.0, 20984.594, 0.0, 10.0003395, 9.999343 
2.6850232e+3, 2.4011524e+2, -713206.75, -738031.9, 99092.84, -0.057567373, 0.46409106, -625752.1, -38835.97, 0.0, 9.999774, 9.999406 
2.684927e+3, 2.5011417e+2, -648819.3, -603851.75, 83176.36, 0.0034210468, 0.4403354, -540173.9, -51248.52, 0.0, 9.999317, 9.999874 
2.6848307e+3, 2.601133e+2, -635045.9, -575325.9, 68747.83, 0.062241282, 0.42174292, -530233.3, -139300.61, 0.0, 9.998861, 9.999618 
2.684733e+3, 2.7011284e+2, -588943.8, -482460.78, 55396.79, -0.011876756, 0.45882607, -458868.3, -165929.95, 0.0, 9.998418, 9.999797 
2.684635e+3, 2.8011248e+2, -555514.9, -402775.66, 76660.086, -0.07292223, 0.48796147, -370936.75, -175993.8, 0.0, 9.997916, 9.999915 
2.684539e+3, 2.9011193e+2, -498204.84, -258038.95, 61823.87, -0.026254846, 0.4544337, -243058.56, -146111.0, 0.0, 9.997352, 10.000507 
2.6844415e+3, 3.0011144e+2, -521670.22, -311444.38, 10115.147, -0.031465575, 0.42461124, -310958.78, -310958.78, 0.0, 9.996917, 9.99968 
2.6843423e+3, 3.1011033e+2, -438729.28, -268790.34, -38483.26, -0.07195164, 0.418407, -260481.88, -260481.88, 0.0, 9.997242, 9.999482 
2.6842454e+3, 3.20111e+2, -448851.03, 125654.5, 252544.17, -0.041212235, 0.52703124, 220884.03, 220884.03, 0.0, 9.9954605, 10.003047 
2.696095e+3, 1.3023487e+2, -1127266.1, -1697935.5, 68095.36, 0.10356307, 0.4816592, -1119253.1, 544493.06, 0.02776442, 10.005332, 9.997546 
2.6959965e+3, 1.4023228e+2, -1039041.06, -1593553.3, 25233.42, 0.0062774178, 0.51638335, -1037895.2, 527877.8, 0.016717639, 10.005153, 9.99768 
2.6958984e+3, 1.502296e+2, -994288.44, -1455390.0, -4505.406, 0.05745801, 0.49409154, -994244.44, 473554.22, 0.007492506, 10.00446, 9.998283 
2.6958007e+3, 1.6022716e+2, -1004015.25, -1415339.8, 19855.775, 0.13849387, 0.4694399, -1003058.94, 366762.66, 0.0021326884, 10.003722, 9.998241 
2.695703e+3, 1.7022537e+2, -944357.06, -1295113.3, 71720.055, 0.073449604, 0.49762562, -930258.94, 341579.94, 0.00030586205, 10.0032835, 9.998602 
2.6956055e+3, 1.8022369e+2, -913705.2, -1245338.3, 61937.297, -0.005323256, 0.5208575, -902515.06, 271339.97, 0.000011617903, 10.002887, 9.998464 
2.695509e+3, 1.9022126e+2, -869529.25, -1140056.1, 58649.066, 0.025107358, 0.46801043, -857361.7, 218516.2, 0.000000000007316074, 10.002378, 9.998755 
2.695412e+3, 2.0021902e+2, -847483.25, -1077412.4, 51683.21, 0.062217575, 0.41423786, -836400.2, 141498.77, 0.0, 10.001849, 9.99877 
2.6953146e+3, 2.1021767e+2, -791093.9, -953799.75, 62649.813, 0.032225054, 0.42873278, -769766.25, 110145.59, 0.0, 10.0013685, 9.999175 
2.6952174e+3, 2.2021657e+2, -770658.75, -901199.3, 73937.836, 0.0037727365, 0.45209527, -737303.4, 44618.87, 0.0, 10.000869, 9.999106 
2.6951206e+3, 2.3021555e+2, -727187.75, -792295.9, 78261.6, 0.040669598, 0.47132415, -674979.5, 8952.989, 0.0, 10.000336, 9.999436 
2.6950237e+3, 2.4021457e+2, -717210.5, -749445.44, 79590.45, 0.07271965, 0.48127872, -652122.0, -66179.836, 0.0, 9.9997835, 9.999326 
2.6949263e+3, 2.502132e+2, -666192.8, -641795.8, 64728.758, 0.032762114, 0.44932765, -588126.1, -100171.07, 0.0, 9.999321, 9.999614 
2.6948285e+3, 2.6021203e+2, -636699.06, -581247.0, 51168.71, -0.013335062, 0.41876486, -550775.3, -160809.02, 0.0, 9.998867, 9.999577 
2.6947308e+3, 2.7021146e+2, -576283.44, -457544.1, 37444.227, -0.015186189, 0.4328289, -446722.38, -154750.08, 0.0, 9.99842, 9.9999695 
2.6946333e+3, 2.8021112e+2, -564208.5, -424306.7, 56542.234, -0.004216845, 0.4556352, -404312.3, -210336.13, 0.0, 9.997927, 9.999764 
2.6945353e+3, 2.9021084e+2, -532948.94, -330890.78, 36768.613, -0.055181324, 0.49156544, -324407.97, -228428.13, 0.0, 9.997348, 10.000012 
2.694437e+3, 3.0021045e+2, -526854.1, -325790.53, 8214.693, -0.14960213, 0.5098465, -325455.47, -325455.47, 0.0, 9.996925, 9.999579 
2.694341e+3, 3.1020862e+2, -394715.72, -209069.13, -17010.162, 0.112843655, 0.41109717, -207523.42, -207523.42, 0.0, 9.997374, 9.999831 
2.6942393e+3, 3.2020906e+2, -492280.22, 59233.332, -127966.0, -0.14334336, 0.47873452, 87478.36, 87478.36, 0.0, 9.995337, 10.002661 
2.7060997e+3, 1.303337e+2, -1043267.44, -1642055.9, 46380.047, 0.08605496, 0.47917598, -1039696.3, 623080.8, 0.022205152, 10.005824, 9.997697 
2.706001e+3, 1.4033124e+2, -1171848.5, -1650483.8, 24406.521, 0.019070271, 0.5100177, -1170607.3, 394196.0, 0.0131594585, 10.004178, 9.997756 
2.7059022e+3, 1.5032874e+2, -1052705.9, -1486185.4, 25173.586, 0.06081624, 0.5063596, -1051248.9, 415578.63, 0.0057493006, 10.004066, 9.998258 
2.7058038e+3, 1.6032639e+2, -953969.7, -1390765.3, 54879.504, 0.13233061, 0.49521148, -947180.1, 421669.84, 0.001576224, 10.004068, 9.99824 
2.7057058e+3, 1.7032431e+2, -938327.1, -1290204.4, 92382.03, 0.07389464, 0.49399284, -915547.75, 355321.78, 0.00021599303, 10.003321, 9.998615 
2.7056077e+3, 1.803224e+2, -962764.75, -1259723.3, 76949.03, 0.0020518783, 0.4912672, -944009.9, 228877.67, 0.0000075416983, 10.002515, 9.998541 
2.7055106e+3, 1.9032031e+2, -922946.6, -1152716.5, 86313.766, 0.035025977, 0.46449572, -894135.3, 180772.0, 0.0, 10.00196, 9.998868 
2.7054134e+3, 2.0031844e+2, -896839.75, -1090437.0, 89221.4, 0.07507189, 0.4379793, -861993.25, 114932.04, 0.0, 10.00147, 9.99886 
2.7053154e+3, 2.1031708e+2, -828175.0, -964985.8, 85398.71, 0.03138958, 0.44718903, -787162.7, 91775.59, 0.0, 10.00109, 9.999229 
2.7052173e+3, 2.2031593e+2, -789816.7, -906874.7, 76781.94, -0.008281638, 0.46133056, -751799.8, 29149.398, 0.0, 10.000728, 9.999132 
2.7051204e+3, 2.3031479e+2, -724706.7, -793238.3, 71359.13, 0.043577842, 0.470761, -679812.75, 3147.8115, 0.0, 10.000366, 9.999413 
2.7050233e+3, 2.4031377e+2, -689052.25, -731919.44, 66931.47, 0.094342746, 0.47612253, -640206.25, -55235.457, 0.0, 9.999966, 9.999354 
2.704925e+3, 2.503127e+2, -654799.2, -628962.9, 70675.44, 0.03876333, 0.4685951, -570034.7, -83053.53, 0.0, 9.9993725, 9.999675 
2.7048266e+3, 2.6031172e+2, -648511.1, -584716.6, 79450.055, -0.021991825, 0.4560671, -530999.94, -142009.31, 0.0, 9.998782, 9.999591 
2.7047288e+3, 2.703109e+2, -562735.9, -455184.2, 57271.734, -0.012125732, 0.44737503, -430398.66, -139399.78, 0.0, 9.998537, 9.999925 
2.7046308e+3, 2.803103e+2, -518829.63, -410964.63, 60286.332, 0.011560543, 0.4495777, -384007.34, -191002.27, 0.0, 9.998284, 9.99968 
2.7045324e+3, 2.9031008e+2, -476465.34, -317359.88, 59058.516, -0.056090325, 0.5024907, -297834.13, -202825.27, 0.0, 9.997801, 9.999884 
2.7044332e+3, 3.003098e+2, -474186.88, -275888.84, 66801.4, -0.16023311, 0.538673, -255484.72, -255484.72, 0.0, 9.997186, 9.999795 
2.7043375e+3, 3.1030852e+2, -498206.13, -200019.64, 68597.97, 0.1156578, 0.44692865, -184995.61, -184995.61, 0.0, 9.996416, 10.000351 
2.704234e+3, 3.2030845e+2, -350445.06, 79677.1, -188317.2, -0.1760866, 0.44214296, 150473.75, 150473.75, 0.0, 9.996521, 10.002228 
2.7161044e+3, 1.3043304e+2, -1047513.4, -1619679.0, -22831.094, 0.008256547, 0.49778593, -1046603.75, 615201.0, 0.017303754, 10.005666, 9.997926 
2.7160057e+3, 1.4043052e+2, -1153209.1, -1620562.6, -4905.2593, 0.10582466, 0.5027538, -1153157.6, 410673.03, 0.010066052, 10.004205, 9.99795 
2.715906e+3, 1.5042841e+2, -1037022.3, -1461944.4, 31180.764, 0.071381144, 0.5212623, -1034746.44, 431104.63, 0.004269065, 10.004091, 9.998415 
2.715807e+3, 1.6042635e+2, -956406.1, -1392627.3, 41547.105, 0.06211704, 0.5256496, -952484.3, 415386.38, 0.001121228, 10.004047, 9.9982395 
2.7157086e+3, 1.704236e+2, -950423.5, -1312012.4, 61681.945, 0.07460027, 0.4677635, -940191.0, 329705.44, 0.00014545815, 10.003303, 9.998475 
2.7156106e+3, 1.8042116e+2, -957186.9, -1247025.4, 52951.266, 0.0716078, 0.42156613, -947816.06, 224103.16, 0.0000045032148, 10.002506, 9.998634 
2.7155122e+3, 1.9042017e+2, -902596.9, -1113729.9, 67886.43, 0.05706873, 0.4790444, -882653.0, 191276.14, 0.0, 10.001969, 9.999133 
2.7154142e+3, 2.0041928e+2, -895373.06, -1089611.6, 73202.82, 0.048802502, 0.53409606, -870874.9, 105063.11, 0.0, 10.001475, 9.998866 
2.715316e+3, 2.1041743e+2, -843074.0, -997825.2, 71968.44, 0.04843778, 0.51089334, -814778.25, 63177.816, 0.0, 10.001096, 9.999002 
2.7152184e+3, 2.2041564e+2, -801557.8, -931878.5, 63775.043, 0.04167666, 0.47877026, -775541.8, 4431.985, 0.0, 10.000727, 9.998962 
2.71512e+3, 2.3041405e+2, -733008.94, -812144.75, 57861.082, 0.019177325, 0.45780143, -702480.3, -20490.637, 0.0, 10.00037, 9.999283 
2.715022e+3, 2.4041282e+2, -679351.9, -712173.6, 48170.844, 0.004047387, 0.44911048, -644873.2, -60871.07, 0.0, 9.999963, 9.999494 
2.714924e+3, 2.5041264e+2, -629730.3, -576957.6, 46609.11, 0.022773998, 0.49834338, -549784.2, -63780.402, 0.0, 9.99937, 10.000034 
2.7148256e+3, 2.604125e+2, -644585.6, -580673.56, 63754.97, 0.03123138, 0.5405045, -541314.25, -153309.08, 0.0, 9.9987955, 9.999615 
2.714727e+3, 2.704112e+2, -581930.4, -498448.6, 47820.086, -0.00602229, 0.5075713, -476714.6, -186696.4, 0.0, 9.998547, 9.999626 
2.7146283e+3, 2.8041e+2, -515272.8, -408685.3, 45778.094, -0.030268861, 0.47151184, -391723.4, -199693.02, 0.0, 9.998301, 9.99969 
2.71453e+3, 2.9040954e+2, -453360.72, -274653.34, 38704.34, -0.025373768, 0.47999611, -266630.94, -172595.64, 0.0, 9.997819, 10.000171 
2.714431e+3, 3.0040956e+2, -431028.4, -189549.92, 39231.04, -0.07244965, 0.5067158, -183336.27, -183336.27, 0.0, 9.997195, 10.000386 
2.7143312e+3, 3.1041014e+2, -456440.0, -94116.55, 37946.5, -0.081762984, 0.5343513, -90185.03, -90185.03, 0.0, 9.996327, 10.001124 
2.7142313e+3, 3.2040963e+2, -373898.1, 2621.751, -9702.426, -0.0700129, 0.43875116, 2871.604, 2871.604, 0.0, 9.996652, 10.00163 
2.726109e+3, 1.3053319e+2, -1184697.6, -1691964.9, 3511.316, 0.0150158005, 0.506275, -1184673.4, 476150.13, 0.013066219, 10.004709, 9.997888 
2.7260095e+3, 1.4053053e+2, -1114484.9, -1592587.4, 22254.416, 0.12246214, 0.49915972, -1113451.3, 449399.72, 0.0074341805, 10.004427, 9.998033 
2.7259094e+3, 1.505285e+2, -1025874.25, -1439698.0, 70123.91, 0.06876325, 0.5141088, -1014314.4, 450555.72, 0.0030439857, 10.004096, 9.998562 
2.72581e+3, 1.6052656e+2, -997258.4, -1402373.5, 67375.37, 0.043866448, 0.51946265, -986346.94, 380541.34, 0.0007609693, 10.003728, 9.998323 
2.7257115e+3, 1.7052394e+2, -985754.7, -1326313.9, 85486.35, 0.076194786, 0.47194305, -965500.7, 303412.28, 0.00009222209, 10.003055, 9.998494 
2.7256128e+3, 1.8052159e+2, -971120.44, -1252483.3, 89910.64, 0.09430624, 0.4336481, -944843.25, 226091.92, 0.0000024128854, 10.002411, 9.99864 
2.725514e+3, 1.9052048e+2, -888540.94, -1109182.9, 94472.95, 0.06999147, 0.48267224, -853617.75, 219328.52, 0.0, 10.002082, 9.999107 
2.7254152e+3, 2.005195e+2, -853091.44, -1069227.0, 83102.93, 0.050933383, 0.5302159, -824833.4, 150122.89, 0.0, 10.00177, 9.998859 
2.725317e+3, 2.1051766e+2, -815939.2, -985614.6, 92696.336, 0.054726586, 0.5083609, -775118.44, 101855.96, 0.0, 10.001291, 9.99899 
2.7252185e+3, 2.2051585e+2, -793812.94, -928955.9, 98458.72, 0.05358065, 0.48005477, -741969.06, 37023.13, 0.0, 10.000789, 9.998951 
2.72512e+3, 2.3051435e+2, -744078.44, -819390.75, 100258.28, 0.014132846, 0.4701101, -674637.9, 6369.814, 0.0, 10.000307, 9.999261 
2.7250212e+3, 2.4051315e+2, -699292.8, -722868.94, 91341.7, -0.015106307, 0.46845183, -618981.7, -35961.508, 0.0, 9.999837, 9.999478 
2.7249226e+3, 2.5051287e+2, -615775.6, -574075.75, 62668.4, 0.012775127, 0.5123458, -528879.94, -43857.03, 0.0, 9.999489, 9.999993 
2.724824e+3, 2.6051265e+2, -597826.25, -560961.94, 60642.19, 0.033306397, 0.5523594, -516012.56, -128987.61, 0.0, 9.999138, 9.999581 
2.724725e+3, 2.7051145e+2, -548439.2, -484309.88, 62655.727, -0.014416845, 0.5298736, -445990.72, -156953.47, 0.0, 9.998793, 9.999601 
2.724626e+3, 2.8051025e+2, -503167.16, -397353.38, 70059.53, -0.041796077, 0.49606037, -362468.03, -171418.72, 0.0, 9.998365, 9.999734 
2.7245277e+3, 2.9050967e+2, -455500.9, -264374.34, 46235.438, -0.008370777, 0.48457786, -253777.11, -160722.05, 0.0, 9.997764, 10.000264 
2.724428e+3, 3.005097e+2, -415808.44, -159454.83, 24752.793, -0.04732251, 0.500639, -157086.64, -157086.64, 0.0, 9.997213, 10.000578 
2.724327e+3, 3.1051087e+2, -346251.56, -8911.388, -16525.664, -0.12786222, 0.5580253, -8103.7603, -8103.7603, 0.0, 9.996953, 10.001404 
2.724228e+3, 3.205105e+2, -402577.78, -72470.445, -2442.0278, -0.03386723, 0.46950746, -72452.38, -72452.38, 0.0, 9.996727, 10.001074 
2.7361137e+3, 1.3063402e+2, -1190747.9, -1718951.1, -7378.6714, 0.06650126, 0.5086061, -1190644.8, 469190.16, 0.00949925, 10.00476, 9.997676 
2.7360132e+3, 1.4063117e+2, -1116361.9, -1596283.9, 12691.527, 0.08668292, 0.49791694, -1116026.5, 445838.25, 0.0052629407, 10.004415, 9.998014 
2.7359128e+3, 1.5062901e+2, -1022385.1, -1426331.1, 58913.44, 0.057079196, 0.4906626, -1013968.25, 449916.56, 0.0020677757, 10.004061, 9.998673 
2.7358136e+3, 1.606271e+2, -995688.7, -1387164.0, 47712.34, 0.06040307, 0.4862192, -989957.5, 375945.0, 0.0004886333, 10.003673, 9.998457 
2.7357137e+3, 1.7062522e+2, -976828.5, -1308137.9, 59365.36, 0.07540963, 0.50088656, -966512.4, 301407.97, 0.000054314478, 10.003053, 9.998622 
2.7356145e+3, 1.806234e+2, -973291.5, -1264988.6, 72206.516, 0.07713822, 0.50877297, -956396.1, 213541.86, 0.0000011019603, 10.002442, 9.998541 
2.7355155e+3, 1.9062121e+2, -907161.2, -1151710.6, 84275.17, 0.07525315, 0.47484326, -880932.0, 191027.19, 0.0, 10.002095, 9.99881 
2.735417e+3, 2.0061924e+2, -856518.7, -1074619.1, 68594.2, 0.07279217, 0.44400036, -836739.1, 137239.45, 0.0, 10.00176, 9.99883 
2.7353176e+3, 2.106178e+2, -803553.8, -960537.56, 74067.46, 0.049409393, 0.4496749, -774124.6, 101868.055, 0.0, 10.00129, 9.999165 
2.7352184e+3, 2.2061658e+2, -787152.1, -913482.1, 80501.56, 0.026415443, 0.46444514, -747992.56, 30012.262, 0.0, 10.000777, 9.999064 
2.7351198e+3, 2.3061566e+2, -740442.06, -812677.8, 82477.47, 0.027794747, 0.505984, -686520.9, -6505.862, 0.0, 10.000308, 9.999309 
2.735021e+3, 2.4061476e+2, -712566.6, -754024.56, 75589.836, 0.028169317, 0.53773767, -654915.0, -72890.15, 0.0, 9.999848, 9.999261 
2.7349216e+3, 2.506134e+2, -646217.3, -640016.5, 48428.133, 0.005619085, 0.509995, -594589.6, -110550.75, 0.0, 9.999496, 9.999539 
2.7348223e+3, 2.606122e+2, -600833.44, -570741.44, 47289.914, -0.022526179, 0.48677674, -536161.7, -150110.84, 0.0, 9.999148, 9.999512 
2.734723e+3, 2.706116e+2, -529976.56, -447761.28, 48597.727, -0.039693058, 0.5099885, -425216.94, -137160.34, 0.0, 9.998796, 9.999852 
2.734624e+3, 2.8061116e+2, -498607.63, -390914.0, 49916.992, -0.0313379, 0.5294687, -371336.13, -181274.86, 0.0, 9.998375, 9.999776 
2.734525e+3, 2.906105e+2, -467934.0, -289814.97, 19981.637, -0.007599117, 0.52303016, -287600.94, -195532.78, 0.0, 9.997756, 10.000096 
2.7344242e+3, 3.006101e+2, -438990.2, -207314.31, 8877.944, -0.07454706, 0.51952916, -206974.61, -206974.61, 0.0, 9.997207, 10.000256 
2.7343243e+3, 3.1061012e+2, -368288.84, -65584.43, -28868.932, -0.02548638, 0.49755812, -62855.793, -62855.793, 0.0, 9.996997, 10.000995 
2.7342236e+3, 3.2061064e+2, -440446.9, -161963.14, -82968.086, -0.0779142, 0.55361676, -139118.61, -139118.61, 0.0, 9.99675, 10.000461 
2.7461183e+3, 1.307354e+2, -1138133.9, -1693552.1, 6348.4614, 0.08048562, 0.5134713, -1138061.4, 520780.56, 0.0065939315, 10.005108, 9.997685 
2.746017e+3, 1.4073242e+2, -1133554.3, -1599665.0, 38170.98, 0.078869395, 0.48941118, -1130449.0, 430423.16, 0.0035410405, 10.0042715, 9.998058 
2.7459162e+3, 1.507303e+2, -1092098.6, -1454877.1, 83418.55, 0.06003004, 0.48265785, -1073836.4, 389055.4, 0.0013268606, 10.003566, 9.998712 
2.7458164e+3, 1.6072842e+2, -1087110.4, -1422865.0, 71163.99, 0.07489722, 0.4800829, -1072649.9, 292259.2, 0.00029403114, 10.003014, 9.998528 
2.7457163e+3, 1.7072666e+2, -985800.2, -1304221.4, 82540.375, 0.074274965, 0.4979924, -965676.06, 301250.03, 0.000029276536, 10.002959, 9.998692 
2.7456164e+3, 1.807249e+2, -915314.56, -1242744.0, 88509.19, 0.062342953, 0.50951284, -892920.75, 276022.63, 0.00000039166414, 10.002869, 9.998486 
2.7455172e+3, 1.9072255e+2, -893807.0, -1163756.1, 103644.305, 0.06910601, 0.4743889, -858604.4, 212362.22, 0.0, 10.002273, 9.998639 
2.745418e+3, 2.0072043e+2, -873606.3, -1084233.6, 94320.5, 0.075855285, 0.44429374, -837543.44, 135444.19, 0.0, 10.001655, 9.998813 
2.7453184e+3, 2.1071917e+2, -808939.4, -953818.06, 94899.58, 0.044308238, 0.46257925, -761991.1, 113008.89, 0.0, 10.001219, 9.999243 
2.745219e+3, 2.2071809e+2, -778620.44, -907106.94, 95027.52, 0.017459312, 0.48506188, -728157.9, 48853.0, 0.0, 10.000832, 9.999079 
2.74512e+3, 2.3071699e+2, -713567.8, -806501.1, 90409.24, 0.03207601, 0.51458454, -658383.2, 20639.37, 0.0, 10.000527, 9.999243 
2.7450207e+3, 2.4071594e+2, -668312.75, -743907.25, 79758.14, 0.04411786, 0.5380216, -617849.06, -36815.14, 0.0, 10.000207, 9.999155 
2.7449206e+3, 2.5071445e+2, -615267.5, -641385.44, 71385.64, 0.004664389, 0.5149764, -555756.2, -72707.14, 0.0, 9.999784, 9.999389 
2.7448207e+3, 2.6071313e+2, -577133.7, -560964.75, 87050.13, -0.037601426, 0.4902054, -481624.5, -96561.875, 0.0, 9.999323, 9.999492 
2.7447215e+3, 2.707125e+2, -512616.5, -431890.06, 77129.15, -0.047726583, 0.50448096, -385201.03, -98132.34, 0.0, 9.998892, 9.999912 
2.744622e+3, 2.8071207e+2, -491322.47, -395214.22, 61924.094, -0.028918473, 0.5270968, -364886.0, -175813.19, 0.0, 9.998468, 9.999697 
2.744522e+3, 2.907116e+2, -430871.6, -293480.78, 26758.148, -0.009842241, 0.55816704, -288453.34, -197375.17, 0.0, 9.99811, 9.999897 
2.744421e+3, 3.007111e+2, -373737.2, -193183.14, 25829.291, -0.07825809, 0.56193703, -189560.78, -189560.78, 0.0, 9.997732, 10.000098 
2.7443218e+3, 3.107098e+2, -302287.28, -48691.035, 11789.861, 0.014926453, 0.42416474, -48144.094, -48144.094, 0.0, 9.997516, 10.000861 
2.74422e+3, 3.2071146e+2, -429682.84, -176695.06, -28048.89, -0.07545429, 0.6085246, -173622.58, -173622.58, 0.0, 9.996919, 10.000274 
2.756123e+3, 1.3083725e+2, -1142574.6, -1674659.4, -28426.373, 0.069173604, 0.51920146, -1141060.4, 516784.3, 0.004321086, 10.00498, 9.997874 
2.7560207e+3, 1.4083424e+2, -1129263.8, -1590571.8, 11503.947, 0.08429948, 0.47687936, -1128977.0, 430896.47, 0.0022387286, 10.004264, 9.998126 
2.7559194e+3, 1.508323e+2, -1089115.0, -1459694.9, 58406.633, 0.06897781, 0.4874003, -1080127.6, 381764.25, 0.00079511956, 10.003607, 9.998662 
2.755819e+3, 1.6083047e+2, -1080049.0, -1420694.8, 59742.383, 0.085024744, 0.49443308, -1069875.3, 294033.63, 0.00016352431, 10.003063, 9.99852 
2.7557188e+3, 1.7082828e+2, -985047.94, -1303415.3, 81819.2, 0.07278076, 0.46840367, -965251.6, 300678.25, 0.000014106576, 10.002959, 9.998698 
2.7556187e+3, 1.8082622e+2, -924575.4, -1252349.5, 73397.17, 0.04755423, 0.45086533, -908890.44, 259059.67, 0.00000009505926, 10.002825, 9.998442 
2.755519e+3, 1.9082446e+2, -901037.3, -1177276.5, 78874.55, 0.05115278, 0.48259994, -880102.8, 189865.78, 0.0, 10.002264, 9.998552 
2.755419e+3, 2.0082292e+2, -875125.7, -1089450.4, 75185.09, 0.05821335, 0.51691926, -851381.3, 120603.766, 0.0, 10.00166, 9.9987755 
2.7553192e+3, 2.1082166e+2, -809389.25, -957105.9, 79721.76, 0.03892839, 0.53738445, -774570.94, 99426.67, 0.0, 10.001225, 9.999219 
2.7552193e+3, 2.2082035e+2, -785874.06, -922868.5, 82379.34, 0.019251091, 0.54310554, -747234.8, 28775.693, 0.0, 10.000832, 9.998973 
2.7551195e+3, 2.3081836e+2, -724460.75, -831814.7, 79183.13, 0.025212537, 0.4975723, -682475.9, -4445.5796, 0.0, 10.000535, 9.999066 
2.7550203e+3, 2.4081667e+2, -667960.75, -743571.3, 65354.043, 0.029718265, 0.4686297, -630265.1, -50217.773, 0.0, 10.000204, 9.999161 
2.75492e+3, 2.508161e+2, -605967.44, -622500.6, 54801.863, 0.009921572, 0.52716345, -558812.2, -76758.734, 0.0, 9.9997835, 9.99952 
2.7548197e+3, 2.6081556e+2, -575283.75, -561489.1, 70397.06, -0.01689144, 0.5707749, -497652.28, -113592.81, 0.0, 9.999339, 9.999483 
2.75472e+3, 2.708141e+2, -522901.56, -455465.4, 59542.273, -0.03797383, 0.5145977, -420756.97, -134683.39, 0.0, 9.998896, 9.999751 
2.75462e+3, 2.8081292e+2, -504373.72, -424126.84, 47056.215, -0.03653904, 0.4807493, -402410.34, -214325.31, 0.0, 9.998472, 9.999498 
2.75452e+3, 2.9081303e+2, -446577.4, -327666.0, 13298.16, -0.019979144, 0.5883033, -326196.97, -236111.44, 0.0, 9.998115, 9.999661 
2.7544186e+3, 3.008128e+2, -367183.84, -183745.45, 15706.564, -0.07389293, 0.6365696, -182410.33, -182410.33, 0.0, 9.997746, 10.000157 
2.7543187e+3, 3.108101e+2, -282128.47, -15138.9795, 4289.321, 0.005732842, 0.338663, -15070.087, -15070.087, 0.0, 9.997544, 10.001082 
2.7542162e+3, 3.2081294e+2, -400538.78, -102991.77, 3429.7424, -0.10312122, 0.60827625, -102952.24, -102952.24, 0.0, 9.996885, 10.000784 
2.7661273e+3, 1.3093932e+2, -1239542.5, -1646255.5, -14754.077, 0.109577574, 0.5275091, -1239008.0, 417838.25, 0.0026321528, 10.003976, 9.998556 
2.7660245e+3, 1.4093688e+2, -1122903.1, -1571268.1, 34529.594, 0.07604783, 0.49162456, -1120259.5, 438607.94, 0.001308055, 10.004236, 9.998272 
2.7659225e+3, 1.509347e+2, -1068543.0, -1477474.9, 66972.54, 0.07160109, 0.49644542, -1057854.0, 403034.6, 0.00043684343, 10.00387, 9.998412 
2.765822e+3, 1.6093262e+2, -1036230.4, -1411994.3, 60450.676, 0.1017534, 0.49878883, -1026744.9, 336164.03, 0.000081928505, 10.003421, 9.998405 
2.7657214e+3, 1.7093042e+2, -1008240.94, -1317579.1, 81779.93, 0.08087991, 0.47737575, -987951.5, 276978.84, 0.000005757098, 10.00282, 9.998666 
2.7656206e+3, 1.809284e+2, -995388.25, -1274470.3, 73726.37, 0.044499934, 0.46444708, -977108.9, 189841.34, 0.00000000965895, 10.0022955, 9.998542 
2.7655202e+3, 1.9092683e+2, -910168.9, -1163893.0, 92788.45, 0.034807757, 0.5005462, -879856.9, 189109.67, 0.0, 10.002129, 9.998707 
2.76542e+3, 2.009254e+2, -835264.25, -1071829.8, 97290.95, 0.036762547, 0.5365371, -800392.4, 170589.36, 0.0, 10.001944, 9.998758 
2.76532e+3, 2.1092395e+2, -786774.2, -963688.94, 92629.76, 0.034126863, 0.55147433, -747149.6, 125846.59, 0.0, 10.001461, 9.999058 
2.7652198e+3, 2.2092248e+2, -768636.8, -921733.7, 92928.71, 0.026841952, 0.55443203, -724788.4, 50222.496, 0.0, 10.000987, 9.998903 
2.7651197e+3, 2.3092042e+2, -702763.8, -823677.94, 100506.99, 0.015624635, 0.50743675, -645931.9, 31099.207, 0.0, 10.0007, 9.999041 
2.7650198e+3, 2.4091865e+2, -641512.6, -730799.44, 90382.62, 0.011348749, 0.47408497, -585349.06, -6300.345, 0.0, 10.000391, 9.999156 
2.7649194e+3, 2.5091812e+2, -582610.7, -612765.4, 68003.11, 0.012572598, 0.53743875, -528033.56, -46979.27, 0.0, 9.999957, 9.9995 
2.764819e+3, 2.609176e+2, -555648.1, -559395.56, 74439.43, 0.0052104476, 0.58855706, -483058.84, -99998.98, 0.0, 9.999514, 9.999409 
2.7647185e+3, 2.70916e+2, -496273.28, -456974.16, 63461.375, -0.028055293, 0.5288462, -410189.9, -125114.05, 0.0, 9.999146, 9.999617 
2.7646178e+3, 2.8091463e+2, -463599.2, -409314.1, 58441.6, -0.041721355, 0.4887773, -372019.56, -184930.19, 0.0, 9.998776, 9.999451 
2.7645174e+3, 2.9091477e+2, -387077.1, -299331.56, 41235.496, -0.034860946, 0.60169315, -282994.8, -193905.7, 0.0, 9.998533, 9.99965 
2.7644157e+3, 3.009146e+2, -313304.0, -151360.75, 43643.734, -0.077194884, 0.65135926, -140347.7, -140347.7, 0.0, 9.998101, 10.000203 
2.7643156e+3, 3.109116e+2, -378169.06, -57559.207, 15686.939, 0.028529445, 0.32338214, -56793.5, -56793.5, 0.0, 9.996879, 10.001106 
2.7642122e+3, 3.209147e+2, -365396.75, -76415.9, 32228.418, -0.14940563, 0.6130472, -72865.266, -72865.266, 0.0, 9.997091, 10.000863 
2.7761313e+3, 1.3104166e+2, -1164751.0, -1501096.6, 4860.1006, 0.17501214, 0.5390612, -1164680.9, 491164.66, 0.0014586907, 10.004021, 9.99953 
2.776028e+3, 1.4104018e+2, -1116824.6, -1551936.4, 28475.365, 0.053817466, 0.52507687, -1114969.0, 442886.1, 0.0006892289, 10.004204, 9.998421 
2.775926e+3, 1.5103745e+2, -1100287.6, -1538491.6, 50338.258, 0.06948025, 0.50618696, -1094579.4, 365302.94, 0.00021373408, 10.003843, 9.998009 
2.7758253e+3, 1.610349e+2, -1052855.6, -1441721.6, 42092.137, 0.122377925, 0.49387017, -1048351.56, 313556.94, 0.000035174562, 10.003397, 9.998215 
2.775724e+3, 1.7103307e+2, -1010934.44, -1327265.0, 61394.305, 0.092960544, 0.5184236, -999436.75, 264490.3, 0.0000017161015, 10.002835, 9.998593 
2.7756226e+3, 1.8103138e+2, -977463.5, -1245344.1, 63563.57, 0.044102892, 0.5380661, -963146.1, 202797.9, 0.00000000000031198744, 10.002328, 9.998729 
2.775522e+3, 1.9102965e+2, -885578.94, -1114380.8, 88858.45, 0.01891602, 0.5245655, -855123.4, 212837.28, 0.0, 10.002132, 9.999047 
2.775421e+3, 2.0102794e+2, -840804.06, -1078574.8, 83250.57, 0.00967459, 0.511315, -814553.7, 155423.44, 0.0, 10.00192, 9.998725 
2.7753207e+3, 2.110261e+2, -807003.6, -1007145.3, 73162.836, 0.028347028, 0.51209116, -783110.9, 88884.55, 0.0, 10.001465, 9.998759 
2.7752203e+3, 2.2102445e+2, -771998.06, -929659.2, 79756.63, 0.03527662, 0.51998323, -738688.6, 35323.426, 0.0, 10.000988, 9.99885 
2.7751198e+3, 2.3102318e+2, -695022.06, -809044.3, 90853.13, 0.002268527, 0.5425764, -644773.9, 31251.33, 0.0, 10.000703, 9.999142 
2.7750194e+3, 2.4102195e+2, -644024.44, -738342.44, 75509.04, -0.019293677, 0.5576408, -602157.6, -24119.838, 0.0, 10.000399, 9.999103 
2.774919e+3, 2.5102052e+2, -594536.06, -639494.2, 49977.043, 0.011036816, 0.5460991, -562215.4, -82163.64, 0.0, 9.999962, 9.999317 
2.7748182e+3, 2.6101923e+2, -565552.25, -581701.4, 59197.434, 0.025619192, 0.5387214, -513881.22, -131816.69, 0.0, 9.999517, 9.999256 
2.7747172e+3, 2.7101815e+2, -505713.5, -476802.2, 48749.176, -0.019159924, 0.5479258, -440410.53, -156334.6, 0.0, 9.9991455, 9.999482 
2.7746162e+3, 2.810173e+2, -455034.28, -393901.13, 46889.38, -0.048773084, 0.5604018, -368495.13, -182409.73, 0.0, 9.998785, 9.999555 
2.7745152e+3, 2.9101682e+2, -369216.06, -267741.63, 30701.596, -0.056337994, 0.5930163, -259175.78, -171086.13, 0.0, 9.998551, 9.999862 
2.7744132e+3, 3.0101624e+2, -308177.0, -149845.19, 8252.797, -0.09391059, 0.59037817, -149416.19, -149416.19, 0.0, 9.998135, 10.000201 
2.7743125e+3, 3.1101447e+2, -405520.56, -98267.266, -36828.785, 0.08038253, 0.40004563, -93914.46, -93914.46, 0.0, 9.996808, 10.000861 
2.774209e+3, 3.2101652e+2, -403144.56, -175369.05, 103504.4, -0.11343899, 0.63019216, -135362.1, -135362.1, 0.0, 9.997136, 10.000186 
2.7861348e+3, 1.3114473e+2, -1162793.5, -1557230.1, 54296.906, 0.16440815, 0.53132087, -1155455.6, 499379.28, 0.00071423186, 10.0042715, 9.999025 
2.7860314e+3, 1.4114302e+2, -1181687.4, -1588870.1, 11848.922, 0.053309966, 0.532423, -1181342.9, 375506.0, 0.00031687476, 10.003781, 9.99837 
2.785929e+3, 1.511405e+2, -1146707.6, -1536077.0, 59199.1, 0.07589088, 0.5158931, -1137906.1, 320967.66, 0.000088819485, 10.003424, 9.998224 
2.7858278e+3, 1.611381e+2, -1084068.3, -1447261.0, 81123.016, 0.13230519, 0.50536233, -1066772.3, 294125.5, 0.000011727656, 10.003148, 9.998295 
2.7857262e+3, 1.7113632e+2, -994397.6, -1322984.1, 104527.27, 0.08477656, 0.5362183, -963964.8, 298951.28, 0.00000025139548, 10.002966, 9.998559 
2.7856243e+3, 1.8113463e+2, -924064.1, -1224615.9, 101356.49, 0.02507775, 0.5609617, -893077.8, 271855.5, 0.0, 10.002713, 9.998686 
2.7855235e+3, 1.911328e+2, -893842.5, -1123752.6, 102705.87, 0.019134281, 0.54340273, -854644.5, 212306.44, 0.0, 10.002105, 9.998994 
2.7854225e+3, 2.01131e+2, -885182.4, -1094014.0, 85616.6, 0.02335995, 0.5232134, -854569.06, 114399.07, 0.0, 10.001601, 9.998769 
2.7853218e+3, 2.1112905e+2, -780714.6, -987324.75, 98975.54, 0.026192462, 0.5074397, -740952.94, 130033.875, 0.0, 10.001621, 9.998817 
2.785221e+3, 2.2112732e+2, -692759.8, -895160.56, 116259.18, 0.025256872, 0.5043787, -639824.8, 133179.16, 0.0, 10.001551, 9.998814 
2.78512e+3, 2.3112619e+2, -675712.0, -811310.25, 110448.76, 0.00048671608, 0.5520148, -613913.06, 61103.125, 0.0, 10.00089, 9.999034 
2.7850193e+3, 2.4112506e+2, -665220.4, -750827.75, 88273.29, -0.015371931, 0.58706987, -609920.44, -32892.27, 0.0, 10.000269, 9.999076 
2.7849185e+3, 2.5112334e+2, -582792.2, -633569.25, 75900.86, 0.0078104017, 0.54886425, -528146.25, -49101.918, 0.0, 10.000046, 9.999314 
2.7848172e+3, 2.611218e+2, -531974.8, -570287.25, 94002.766, 0.02018649, 0.51755667, -455196.25, -74136.93, 0.0, 9.999772, 9.99921 
2.784716e+3, 2.7112085e+2, -497283.34, -481522.3, 84822.414, -0.018207403, 0.5463395, -404215.13, -121145.28, 0.0, 9.999249, 9.999396 
2.7846146e+3, 2.811201e+2, -464848.53, -396519.4, 85451.875, -0.03820963, 0.5777668, -338655.5, -153577.22, 0.0, 9.998719, 9.999563 
2.7845132e+3, 2.9111946e+2, -394684.22, -273357.6, 59558.97, -0.04791613, 0.5900009, -249007.33, -161923.36, 0.0, 9.998354, 9.999915 
2.784411e+3, 3.0111867e+2, -324535.97, -179581.72, 18747.51, -0.09529531, 0.57254386, -177196.28, -177196.28, 0.0, 9.99812, 10.000001 
2.7843094e+3, 3.1111702e+2, -193308.52, -33481.047, -47900.01, 0.07736081, 0.4270542, -20224.959, -20224.959, 0.0, 9.998435, 10.000518 
2.784207e+3, 3.2111838e+2, -368392.03, -209454.73, 144209.61, -0.04619705, 0.6246837, -124267.15, -124267.15, 0.0, 9.997601, 9.999723 
2.796138e+3, 1.312483e+2, -1267392.0, -1765670.4, 28931.719, 0.10364417, 0.5120761, -1265717.8, 388100.03, 0.00029785137, 10.004235, 9.997611 
2.7960348e+3, 1.4124568e+2, -1183808.8, -1603550.3, -285.28192, 0.06540332, 0.5241914, -1183808.5, 372037.0, 0.00012123356, 10.003824, 9.99825 
2.795932e+3, 1.5124388e+2, -1096317.4, -1440074.1, 48006.16, 0.08398567, 0.5285687, -1089739.1, 368122.88, 0.000028714292, 10.003457, 9.998869 
2.7958307e+3, 1.6124214e+2, -1068380.4, -1413943.3, 71095.516, 0.12641363, 0.5309242, -1054325.0, 305553.16, 0.0000024460635, 10.003142, 9.998527 
2.795728e+3, 1.7124009e+2, -999873.4, -1330232.6, 95980.97, 0.060353383, 0.53389955, -974012.0, 287886.78, 0.0000000042322403, 10.002945, 9.998522 
2.7956262e+3, 1.8123813e+2, -945423.9, -1262023.9, 81467.33, -0.0063328478, 0.5409928, -925690.7, 238228.22, 0.0, 10.002681, 9.998446 
2.7955252e+3, 1.912363e+2, -919991.8, -1179222.0, 78504.18, 0.03130237, 0.55915385, -898071.5, 167866.06, 0.0, 10.002108, 9.998612 
2.7954242e+3, 2.0123456e+2, -876640.75, -1079011.5, 79155.9, 0.06453676, 0.56714404, -849357.7, 118597.195, 0.0, 10.00161, 9.998868 
2.7953228e+3, 2.1123275e+2, -754740.9, -933492.5, 102222.1, 0.025518026, 0.53302205, -708332.3, 161638.6, 0.0, 10.001618, 9.999189 
2.7952218e+3, 2.2123104e+2, -700044.6, -905345.3, 100640.08, -0.007931386, 0.50928724, -658939.9, 113046.836, 0.0, 10.001528, 9.998756 
2.7951205e+3, 2.3122944e+2, -699163.7, -859804.25, 83387.08, 0.009301347, 0.5376038, -663705.06, 10299.049, 0.0, 10.000886, 9.998705 
2.7950194e+3, 2.4122797e+2, -666473.06, -753583.2, 73358.234, 0.020770485, 0.5607061, -624714.1, -48694.17, 0.0, 10.000266, 9.999061 
2.7949178e+3, 2.512266e+2, -571274.8, -610174.8, 68594.02, 0.00064309844, 0.543686, -519426.53, -41394.266, 0.0, 10.000047, 9.999476 
2.7948162e+3, 2.612253e+2, -526839.8, -563218.0, 78341.734, -0.021640714, 0.5268119, -464603.34, -84559.33, 0.0, 9.999785, 9.999253 
2.7947146e+3, 2.71224e+2, -500564.47, -489680.72, 63005.633, -0.027177941, 0.52165914, -431882.4, -149824.84, 0.0, 9.99925, 9.999342 
2.794613e+3, 2.8122297e+2, -473571.88, -415634.03, 69107.03, -0.013801477, 0.53211635, -369669.78, -185601.23, 0.0, 9.99872, 9.999433 
2.7945116e+3, 2.912227e+2, -408677.03, -297838.6, 44735.273, -0.004363206, 0.59679145, -282036.06, -195964.25, 0.0, 9.998333, 9.999758 
2.7944088e+3, 3.01222e+2, -361493.4, -249728.36, 22765.95, -0.07288975, 0.6100884, -245268.98, -245268.98, 0.0, 9.99809, 9.999536 
2.7943063e+3, 3.1121895e+2, -217431.22, -110353.41, -33662.684, -0.0121861715, 0.38347948, -100649.99, -100649.99, 0.0, 9.998543, 9.999942 
2.794204e+3, 3.2122022e+2, -391905.5, -252722.0, 41596.07, -0.018409045, 0.6188633, -241238.2, -241238.2, 0.0, 9.997596, 9.999419 
2.8061414e+3, 1.3135205e+2, -1288875.1, -1771164.8, 22338.588, 0.08623819, 0.52768666, -1287842.6, 364958.88, 0.000100037316, 10.0040655, 9.997656 
2.806038e+3, 1.4134954e+2, -1167218.3, -1593563.8, 41433.215, 0.08833432, 0.5481281, -1163229.0, 391600.38, 0.00003524401, 10.003929, 9.998269 
2.805935e+3, 1.513477e+2, -1100188.8, -1441704.4, 55433.49, 0.07409559, 0.5498636, -1091416.4, 365429.66, 0.000006022763, 10.003433, 9.998868 
2.8058326e+3, 1.613459e+2, -1094443.9, -1426349.6, 50599.023, 0.09418572, 0.54645133, -1086901.4, 271960.88, 0.00000016363987, 10.002963, 9.998529 
2.8057304e+3, 1.713437e+2, -1051260.6, -1355794.1, 78538.24, 0.060816865, 0.53343695, -1032199.0, 228685.28, 0.0, 10.002603, 9.998508 
2.8056285e+3, 1.8134163e+2, -992849.1, -1272168.1, 70910.586, 0.01987163, 0.5279325, -975878.2, 187026.83, 0.0, 10.002313, 9.9985485 
2.805527e+3, 1.9133997e+2, -900012.4, -1156638.9, 95482.61, 0.042797104, 0.55030143, -868384.4, 196537.4, 0.0, 10.0021925, 9.998725 
2.8054255e+3, 2.0133835e+2, -821533.8, -1052750.4, 116336.83, 0.06498812, 0.56613004, -773131.3, 193806.33, 0.0, 10.0019865, 9.998869 
2.8053236e+3, 2.1133666e+2, -794823.56, -959426.25, 113344.74, 0.019501477, 0.5468559, -737051.56, 131901.66, 0.0, 10.001374, 9.999127 
2.8052223e+3, 2.2133498e+2, -796324.6, -944770.25, 90709.16, -0.017654587, 0.5296023, -753341.75, 17627.182, 0.0, 10.000843, 9.998812 
2.805121e+3, 2.3133321e+2, -714334.75, -855523.94, 98572.125, 0.011731274, 0.5307696, -663685.56, 9301.945, 0.0, 10.000738, 9.998801 
2.8050196e+3, 2.4133159e+2, -616404.25, -724369.7, 114003.375, 0.035754807, 0.5339664, -544248.56, 30755.686, 0.0, 10.000592, 9.999102 
2.8049174e+3, 2.5133044e+2, -549261.9, -600242.7, 100049.625, -0.0013237038, 0.538457, -471506.53, 5507.9966, 0.0, 10.000205, 9.999465 
2.8048152e+3, 2.613293e+2, -520431.84, -556736.0, 97187.12, -0.03549446, 0.5375675, -439716.2, -60691.387, 0.0, 9.999822, 9.999277 
2.8047132e+3, 2.713278e+2, -445142.84, -460732.38, 84520.47, -0.030053258, 0.51139104, -368058.47, -87018.7, 0.0, 9.999622, 9.99936 
2.8046116e+3, 2.8132656e+2, -393701.7, -386354.25, 92165.96, -0.0043192077, 0.5061722, -297788.8, -114736.49, 0.0, 9.999306, 9.999353 
2.8045094e+3, 2.9132637e+2, -381015.66, -300304.8, 66192.43, 0.010963602, 0.5948251, -263136.03, -178080.98, 0.0, 9.998594, 9.999614 
2.8044066e+3, 3.0132568e+2, -376855.25, -278757.47, 74616.03, -0.057651926, 0.6246687, -238512.77, -238512.77, 0.0, 9.998084, 9.999336 
2.8043044e+3, 3.1132212e+2, -237313.78, -148246.88, 63375.176, -0.02935677, 0.36883226, -115322.98, -115322.98, 0.0, 9.9985285, 9.999688 
2.8042012e+3, 3.2132357e+2, -352860.28, -199590.38, 9859.389, -0.035561282, 0.6354434, -198958.75, -198958.75, 0.0, 9.997721, 9.99972 
2.816145e+3, 1.3145609e+2, -1230740.4, -1636676.8, 21214.578, 0.086825036, 0.56551456, -1229634.6, 422149.7, 0.000023984428, 10.004011, 9.998602 
2.8160417e+3, 1.4145428e+2, -1176445.4, -1594822.8, 25561.045, 0.11262914, 0.5916612, -1174889.4, 378914.16, 0.0000064487667, 10.003853, 9.998297 
2.8159377e+3, 1.5145189e+2, -1136703.0, -1515714.3, 35140.332, 0.05028487, 0.57643753, -1133472.5, 322353.94, 0.00000052844416, 10.003421, 9.998368 
2.8158346e+3, 1.6144952e+2, -1099348.6, -1444701.5, 36656.47, 0.044922605, 0.55589724, -1095500.8, 262347.97, 0.0000000005064632, 10.0029955, 9.998388 
2.8157327e+3, 1.7144726e+2, -1046078.8, -1349509.4, 68442.93, 0.077621676, 0.5358931, -1031355.0, 228515.84, 0.0, 10.00262, 9.998545 
2.8156307e+3, 1.8144524e+2, -970247.5, -1222876.0, 66512.34, 0.0816764, 0.5206531, -953806.06, 208084.47, 0.0, 10.002299, 9.998895 
2.8155285e+3, 1.9144382e+2, -868519.44, -1086489.5, 92660.04, 0.05093315, 0.52032435, -834453.4, 229450.03, 0.0, 10.00217, 9.99922 
2.8154266e+3, 2.0144244e+2, -835078.94, -1073071.9, 98806.97, 0.028297363, 0.5276154, -799404.8, 166511.6, 0.0, 10.001951, 9.998748 
2.8153244e+3, 2.1144074e+2, -828879.94, -1029023.7, 89107.96, 0.008580276, 0.55128205, -794957.0, 72976.74, 0.0, 10.001368, 9.998654 
2.8152227e+3, 2.2143908e+2, -786092.3, -922060.56, 80885.35, -0.009249547, 0.5622944, -748415.3, 21535.432, 0.0, 10.000834, 9.998974 
2.815121e+3, 2.3143741e+2, -678440.5, -782641.1, 96393.93, 0.005912733, 0.5295178, -620967.9, 50998.82, 0.0, 10.000743, 9.999301 
2.8150192e+3, 2.4143593e+2, -609861.9, -713525.3, 102850.586, 0.019005584, 0.5087776, -546520.8, 27460.0, 0.0, 10.000602, 9.999173 
2.814917e+3, 2.5143483e+2, -562619.44, -629294.75, 83642.914, 0.0014602308, 0.5357862, -505915.22, -29924.295, 0.0, 10.000207, 9.999268 
2.8148147e+3, 2.6143375e+2, -520888.8, -558846.25, 86995.77, -0.021671632, 0.5516386, -450825.66, -72824.1, 0.0, 9.999824, 9.999264 
2.8147125e+3, 2.7143222e+2, -437799.63, -447884.75, 77736.22, -0.028057303, 0.5170007, -364942.6, -84926.08, 0.0, 9.999632, 9.999445 
2.8146103e+3, 2.8143093e+2, -391375.28, -387073.47, 71512.71, -0.015721478, 0.5033289, -317679.3, -135650.27, 0.0, 9.999327, 9.999339 
2.8145072e+3, 2.9143056e+2, -390449.63, -320954.16, 37076.656, -0.010340709, 0.5798267, -304887.7, -220854.02, 0.0, 9.998594, 9.999475 
2.8144038e+3, 3.0142975e+2, -364377.66, -254867.13, 79183.734, -0.06474125, 0.60556257, -213350.89, -213350.89, 0.0, 9.99809, 9.999499 
2.8143033e+3, 3.11427e+2, -220036.36, -113921.36, 88083.15, 0.05660277, 0.40675932, -64150.17, -64150.17, 0.0, 9.998532, 9.999924 
2.8141978e+3, 3.2142854e+2, -274355.03, -29207.002, -134731.23, -0.08360199, 0.627839, 30364.242, 30364.242, 0.0, 9.997676, 10.000918 
2.8261483e+3, 1.3155995e+2, -1328678.3, -1668773.0, 43192.605, 0.09678622, 0.5539909, -1323278.4, 327488.3, 0.0000033281458, 10.003268, 9.998742 
2.8260446e+3, 1.415585e+2, -1248619.1, -1622370.1, 11813.319, 0.107186265, 0.601911, -1248246.1, 304536.8, 0.00000050691085, 10.003327, 9.99836 
2.8259405e+3, 1.5155603e+2, -1155635.4, -1525254.1, 46248.617, 0.05377001, 0.5794876, -1149936.4, 304870.44, 0.0000000023756648, 10.0033, 9.998358 
2.8258374e+3, 1.6155367e+2, -1064422.3, -1410390.8, 64240.55, 0.052684378, 0.55395395, -1052879.0, 303950.53, 0.0, 10.003166, 9.998539 
2.825735e+3, 1.7155169e+2, -1038735.7, -1324336.3, 100452.53, 0.07514767, 0.5449646, -1006943.25, 251905.2, 0.0, 10.002578, 9.998737 
2.8256324e+3, 1.8154989e+2, -1003336.9, -1229621.3, 105612.055, 0.07398506, 0.5398502, -961704.9, 199160.6, 0.0, 10.002029, 9.998981 
2.82553e+3, 1.9154853e+2, -936907.5, -1116503.8, 108377.82, 0.043113325, 0.5409393, -885959.56, 176918.5, 0.0, 10.001692, 9.999241 
2.8254274e+3, 2.0154709e+2, -909709.56, -1103167.6, 94702.625, 0.020282695, 0.54204595, -871068.4, 93823.125, 0.0, 10.001424, 9.998789 
2.825325e+3, 2.1154518e+2, -835344.56, -1030098.75, 112249.27, 0.008509907, 0.54096484, -784120.9, 82789.94, 0.0, 10.001321, 9.998666 
2.8252232e+3, 2.2154345e+2, -726973.8, -877875.44, 130017.13, 0.00024310402, 0.54059577, -652100.7, 116827.67, 0.0, 10.001176, 9.999112 
2.8251213e+3, 2.3154224e+2, -654808.2, -750020.2, 127545.445, 0.001070375, 0.5390575, -566273.94, 104665.51, 0.0, 10.000816, 9.999488 
2.8250194e+3, 2.4154109e+2, -625213.0, -717845.06, 115398.086, 0.0053072358, 0.53850377, -547183.2, 25767.064, 0.0, 10.000486, 9.999196 
2.824917e+3, 2.515397e+2, -547043.6, -630044.25, 101593.89, 0.00455958, 0.5407272, -478800.63, -3837.1594, 0.0, 10.000352, 9.999191 
2.8248143e+3, 2.6153836e+2, -482875.06, -544256.7, 107322.984, -0.004862308, 0.54052955, -401940.84, -24964.332, 0.0, 10.0001, 9.99923 
2.8247118e+3, 2.7153704e+2, -463993.0, -462368.06, 88755.02, -0.026091946, 0.5293749, -374421.78, -95432.23, 0.0, 9.999464, 9.999426 
2.824609e+3, 2.815359e+2, -440006.22, -405282.88, 81153.9, -0.021874905, 0.52681756, -339654.28, -158653.28, 0.0, 9.99898, 9.999378 
2.8245056e+3, 2.9153508e+2, -299493.84, -275163.63, 60371.008, -0.01867827, 0.5561911, -225744.25, -142735.1, 0.0, 9.999213, 9.99949 
2.824402e+3, 3.0153412e+2, -212717.4, -164220.8, 106156.71, -0.06971944, 0.56439644, -79578.21, -79578.21, 0.0, 9.999053, 9.99966 
2.824301e+3, 3.1153265e+2, -361372.0, -160000.61, 103833.336, 0.09151214, 0.4736189, -116052.38, -116052.38, 0.0, 9.997471, 10.000116 
2.8241947e+3, 3.215333e+2, -194878.95, 73364.74, -110693.49, -0.08434368, 0.5756732, 113144.35, 113144.35, 0.0, 9.997955, 10.001483 
2.836151e+3, 1.3166383e+2, -1347287.5, -1714440.0, 44008.566, 0.11641202, 0.5161787, -1342086.1, 307661.84, 0.00000016214108, 10.003304, 9.998409 
2.836047e+3, 1.4166251e+2, -1246747.3, -1607247.9, 14047.303, 0.07083379, 0.59571576, -1246200.8, 305563.38, 0.0000000020979667, 10.003279, 9.998487 
2.8359434e+3, 1.5166028e+2, -1139379.3, -1480644.4, 48443.313, 0.06724118, 0.5658804, -1132635.9, 321150.06, 0.0, 10.003249, 9.998691 
2.8358403e+3, 1.6165823e+2, -1051954.8, -1370358.1, 50644.824, 0.095667094, 0.54049, -1044093.44, 311712.1, 0.0, 10.003103, 9.998846 
2.8357366e+3, 1.7165682e+2, -1024319.44, -1287745.4, 77680.69, 0.057385728, 0.55957365, -1003118.7, 254699.94, 0.0, 10.002546, 9.999004 
2.8356332e+3, 1.8165545e+2, -1014211.25, -1250041.0, 89316.625, 0.013008266, 0.5828315, -984202.56, 175629.03, 0.0, 10.002019, 9.998847 
2.8355306e+3, 1.9165397e+2, -960682.3, -1167520.0, 97191.11, 0.021424111, 0.6034323, -922180.1, 139666.6, 0.0, 10.001698, 9.99889 
2.8354287e+3, 2.0165229e+2, -897740.6, -1077437.5, 89664.95, 0.030521048, 0.59869325, -860653.8, 103209.31, 0.0, 10.001418, 9.99897 
2.8353262e+3, 2.1164997e+2, -804491.25, -966287.6, 109827.22, 0.015735986, 0.5156828, -748983.6, 116900.84, 0.0, 10.001319, 9.999106 
2.835224e+3, 2.216481e+2, -722573.4, -866281.0, 120138.984, 0.00051935064, 0.47014976, -654440.25, 113461.52, 0.0, 10.001163, 9.999199 
2.8351215e+3, 2.3164776e+2, -664400.7, -769462.25, 113340.22, -0.0042613093, 0.5618016, -592009.5, 77896.25, 0.0, 10.000813, 9.999358 
2.835019e+3, 2.4164711e+2, -628197.8, -723443.56, 107405.195, -0.0049255504, 0.6223949, -558331.06, 13581.537, 0.0, 10.000482, 9.999162 
2.8349167e+3, 2.51645e+2, -544824.2, -627081.75, 96845.64, 0.0064257453, 0.55119354, -480735.78, -6803.23, 0.0, 10.000358, 9.999209 
2.834814e+3, 2.616432e+2, -483927.84, -551198.2, 87827.31, 0.003852929, 0.5026088, -423515.38, -47565.27, 0.0, 10.000118, 9.999176 
2.8347105e+3, 2.7164233e+2, -474481.3, -482492.06, 61576.355, -0.025893128, 0.55128324, -416780.22, -138821.36, 0.0, 9.999453, 9.999295 
2.834607e+3, 2.8164145e+2, -433258.88, -389693.72, 80251.27, -0.029568058, 0.57873636, -328321.34, -148353.3, 0.0, 9.998971, 9.999491 
2.8345042e+3, 2.9163995e+2, -281402.84, -244395.97, 73736.54, -0.013247217, 0.5223075, -186876.67, -104895.21, 0.0, 9.999242, 9.999688 
2.8344005e+3, 3.016389e+2, -197375.16, -139556.02, 66338.11, -0.0672602, 0.50254256, -96101.87, -96101.87, 0.0, 9.999082, 9.999817 
2.8342974e+3, 3.1163916e+2, -372085.1, -155377.97, 33924.082, 0.047120333, 0.572521, -150191.5, -150191.5, 0.0, 9.997351, 10.000208 
2.8341928e+3, 3.2163814e+2, -221239.31, 7735.872, 113926.68, -0.039114576, 0.5132044, 54762.047, 54762.047, 0.0, 9.998008, 10.001005 
2.8461543e+3, 1.317684e+2, -1302210.0, -1677653.9, 31856.914, 0.13725549, 0.5352275, -1299526.1, 349198.4, 0.00000000032983427, 10.003542, 9.9985485 
2.8460494e+3, 1.4176714e+2, -1321756.8, -1608162.5, 33118.324, 0.03892033, 0.6022151, -1317977.0, 232762.36, 0.0, 10.002611, 9.998803 
2.8459457e+3, 1.5176533e+2, -1241394.5, -1490636.4, 78146.516, 0.060429964, 0.5793214, -1218919.4, 233837.72, 0.0, 10.002381, 9.99904 
2.8458428e+3, 1.6176362e+2, -1162954.9, -1401839.5, 72676.76, 0.111712046, 0.5598377, -1142581.6, 212191.78, 0.0, 10.002247, 9.999042 
2.8457385e+3, 1.7176233e+2, -1079677.0, -1300906.8, 89506.484, 0.051968936, 0.57723486, -1047999.7, 208785.67, 0.0, 10.002113, 9.99912 
2.8456345e+3, 1.8176098e+2, -1024073.75, -1251413.1, 100453.51, -0.0072057615, 0.5946119, -986047.4, 172750.7, 0.0, 10.001945, 9.998868 
2.845532e+3, 1.917593e+2, -972271.3, -1179966.4, 124052.97, 0.026624553, 0.60222906, -914336.75, 146478.34, 0.0, 10.00165, 9.998826 
2.8454298e+3, 2.0175758e+2, -893648.56, -1060056.4, 131626.36, 0.05778438, 0.5935812, -821133.56, 141698.56, 0.0, 10.001378, 9.99911 
2.845327e+3, 2.1175563e+2, -812354.25, -944074.56, 140750.02, 0.02793357, 0.52738136, -722817.75, 142031.66, 0.0, 10.001155, 9.999337 
2.8452244e+3, 2.2175401e+2, -750005.06, -876040.75, 137977.8, -0.00023670387, 0.4911082, -661335.3, 105528.66, 0.0, 10.000964, 9.999226 
2.845122e+3, 2.3175345e+2, -662722.75, -779010.5, 130126.62, -0.00097119925, 0.5679142, -578340.7, 90529.6, 0.0, 10.000873, 9.999261 
2.8450194e+3, 2.4175264e+2, -600025.4, -708883.56, 125481.28, 0.003599223, 0.61972773, -517676.97, 53201.832, 0.0, 10.000674, 9.999167 
2.8449166e+3, 2.5175065e+2, -568657.0, -634568.0, 115532.62, 0.0022942268, 0.5556074, -481471.5, -8573.597, 0.0, 10.000179, 9.999243 
2.8448132e+3, 2.617489e+2, -530058.1, -566567.75, 110361.67, -0.004569353, 0.51162267, -436451.72, -61536.98, 0.0, 9.999778, 9.999232 
2.8447098e+3, 2.7174807e+2, -408147.0, -443841.9, 97040.83, -0.02564252, 0.55806565, -327326.06, -50403.316, 0.0, 9.999881, 9.999354 
2.8446063e+3, 2.8174713e+2, -321179.75, -346048.28, 121380.57, -0.023400923, 0.5814564, -211598.22, -32666.023, 0.0, 9.99978, 9.999405 
2.8445032e+3, 2.917454e+2, -321236.53, -281268.9, 88314.12, -0.0025283806, 0.5162686, -210705.86, -129757.41, 0.0, 9.999045, 9.99953 
2.844399e+3, 3.0174428e+2, -288940.1, -193784.55, 36764.453, -0.04774343, 0.50285405, -181235.2, -181235.2, 0.0, 9.9985075, 9.999716 
2.844295e+3, 3.1174502e+2, -181603.0, -76648.75, -20931.398, 0.043565493, 0.6296873, -72628.336, -72628.336, 0.0, 9.998725, 10.000084 
2.8441906e+3, 3.217431e+2, -182931.75, 2945.109, 163789.19, -0.026894782, 0.4971814, 98326.75, 98326.75, 0.0, 9.998369, 10.0008 
2.856157e+3, 1.3187346e+2, -1292521.5, -1625405.0, -8241.596, 0.13702917, 0.5866544, -1292317.6, 355379.9, 0.0, 10.003408, 9.998969 
2.856051e+3, 1.4187226e+2, -1297913.0, -1551452.8, 17625.568, 0.015118367, 0.6161145, -1296693.5, 253016.42, 0.0, 10.002581, 9.999207 
2.8559473e+3, 1.5187103e+2, -1218441.6, -1440906.6, 72762.47, 0.045669377, 0.61583173, -1196756.6, 254965.27, 0.0, 10.00237, 9.999388 
2.8558442e+3, 1.6186973e+2, -1157424.9, -1384608.8, 66950.67, 0.10627647, 0.6089252, -1139162.6, 214571.81, 0.0, 10.002221, 9.999173 
2.85574e+3, 1.7186816e+2, -1080048.1, -1298356.6, 84947.44, 0.050197866, 0.5946307, -1050888.6, 204860.39, 0.0, 10.002098, 9.9991455 
2.855636e+3, 1.8186651e+2, -1018268.25, -1235987.8, 91856.21, -0.0025507603, 0.57636124, -984692.06, 173072.33, 0.0, 10.001928, 9.998983 
2.8555334e+3, 1.9186464e+2, -962022.56, -1159287.9, 113736.02, 0.05260279, 0.5484952, -910108.6, 149674.05, 0.0, 10.001649, 9.998971 
2.8554308e+3, 2.0186302e+2, -888364.25, -1047842.1, 122933.94, 0.09448599, 0.53795326, -821573.1, 140225.13, 0.0, 10.001371, 9.999198 
2.855328e+3, 2.1186215e+2, -808975.3, -938829.8, 132382.25, 0.043546416, 0.57454044, -726455.56, 137350.55, 0.0, 10.001162, 9.999371 
2.855225e+3, 2.2186108e+2, -754137.1, -882865.4, 132895.23, -0.002175151, 0.59330857, -670839.9, 94976.12, 0.0, 10.000955, 9.999184 
2.8551224e+3, 2.318593e+2, -668306.0, -791267.8, 126773.06, 0.008451943, 0.5552773, -588892.25, 78941.09, 0.0, 10.000873, 9.999178 
2.8550196e+3, 2.4185771e+2, -595086.5, -702383.3, 110534.95, 0.014576216, 0.53211135, -525868.56, 43980.36, 0.0, 10.000689, 9.999207 
2.8549162e+3, 2.5185665e+2, -564555.0, -625369.1, 94528.81, -0.01087901, 0.55630344, -495663.13, -23803.766, 0.0, 10.000174, 9.99931 
2.854812e+3, 2.6185557e+2, -517467.53, -541065.1, 107842.72, -0.032465942, 0.56905675, -420780.06, -46910.31, 0.0, 9.999778, 9.999409 
2.854709e+3, 2.7185428e+2, -389560.4, -409805.22, 104023.86, -0.025409013, 0.5451776, -295167.63, -19286.477, 0.0, 9.999898, 9.999581 
2.8546056e+3, 2.81853e+2, -340181.13, -393827.0, 101548.92, -0.004333476, 0.53085774, -261972.39, -84079.01, 0.0, 9.999813, 9.999062 
2.8545016e+3, 2.918515e+2, -368879.66, -374057.13, 55521.043, 0.011189976, 0.5473877, -315887.03, -235977.25, 0.0, 9.999017, 9.998907 
2.854397e+3, 3.0185026e+2, -322560.1, -257271.95, 33701.684, -0.027326584, 0.57489747, -242996.53, -242996.53, 0.0, 9.99848, 9.999294 
2.8542936e+3, 3.1184977e+2, -195906.6, -129916.52, -8797.668, 0.09705071, 0.61944836, -128763.77, -128763.77, 0.0, 9.998826, 9.999672 
2.854188e+3, 3.2184798e+2, -177981.34, 15909.044, 59509.465, -0.062047936, 0.52799, 32716.86, 32716.86, 0.0, 9.998343, 10.000909 
2.866159e+3, 1.3197893e+2, -1408896.0, -1634971.4, 12460.208, 0.11636297, 0.5998747, -1408211.4, 238453.58, 0.0, 10.002402, 9.999392 
2.8660533e+3, 1.4197764e+2, -1358553.6, -1559435.5, 49430.496, 0.043692105, 0.5883849, -1347049.3, 201627.17, 0.0, 10.002071, 9.999396 
2.865949e+3, 1.519767e+2, -1276669.1, -1460703.8, 95005.734, 0.04397979, 0.60949445, -1236424.3, 214261.69, 0.0, 10.001939, 9.999456 
2.8658456e+3, 1.6197565e+2, -1208615.4, -1397012.4, 76658.766, 0.08710435, 0.6188906, -1181364.6, 171332.05, 0.0, 10.001819, 9.999279 
2.8657416e+3, 1.7197408e+2, -1136862.4, -1314147.5, 96721.1, 0.068160534, 0.5945938, -1094308.6, 160402.75, 0.0, 10.001659, 9.999248 
2.8656378e+3, 1.8197247e+2, -1060776.0, -1236136.1, 107767.73, 0.037853554, 0.5693997, -1009525.6, 147200.64, 0.0, 10.001547, 9.999167 
2.8655344e+3, 1.9197081e+2, -963615.4, -1136093.5, 134343.11, 0.051780827, 0.543289, -890213.44, 168528.53, 0.0, 10.001537, 9.999182 
2.8654316e+3, 2.0196936e+2, -870584.1, -1040795.3, 144069.9, 0.06532092, 0.53632534, -788360.4, 172395.44, 0.0, 10.001505, 9.999179 
2.8653285e+3, 2.1196853e+2, -789650.06, -945288.2, 139713.1, 0.038187858, 0.5883302, -707545.5, 155218.78, 0.0, 10.001367, 9.999226 
2.8652254e+3, 2.2196749e+2, -723539.44, -860097.25, 131689.0, 0.016221223, 0.6168066, -643480.9, 121293.62, 0.0, 10.001132, 9.999253 
2.8651226e+3, 2.3196559e+2, -696023.9, -788879.1, 139209.19, 0.020407954, 0.5542171, -595704.4, 71087.94, 0.0, 10.000617, 9.999318 
2.8650194e+3, 2.4196392e+2, -655512.2, -717735.1, 137817.84, 0.020306727, 0.5131459, -545337.8, 23470.043, 0.0, 10.000218, 9.999326 
2.8649154e+3, 2.519631e+2, -545308.94, -605882.94, 122516.37, -0.007411995, 0.55274147, -449391.47, 21424.23, 0.0, 10.000266, 9.999398 
2.8648117e+3, 2.6196218e+2, -461142.94, -521747.53, 134037.66, -0.02846107, 0.5771434, -354025.0, 18799.8, 0.0, 10.000198, 9.999339 
2.8647083e+3, 2.7196065e+2, -406852.53, -435504.8, 103505.445, -0.01899351, 0.5407673, -316686.5, -41847.152, 0.0, 9.999856, 9.999424 
2.8646046e+3, 2.819592e+2, -386286.72, -413747.56, 79719.5, 0.010021607, 0.5237698, -319123.84, -142270.78, 0.0, 9.9994955, 9.999074 
2.8645006e+3, 2.9195806e+2, -315766.75, -339704.72, 84413.3, 0.017665723, 0.5692774, -242478.13, -163612.63, 0.0, 9.999349, 9.998981 
2.8643954e+3, 3.019567e+2, -237176.16, -264277.8, 116449.086, -0.03237581, 0.6003901, -133492.13, -133492.13, 0.0, 9.999272, 9.998868 
2.8642923e+3, 3.1195483e+2, -161856.86, -189234.97, 63624.258, 0.099249914, 0.56865615, -110465.68, -110465.68, 0.0, 9.99939, 9.998993 
2.8641862e+3, 3.2195324e+2, -94634.65, 83306.664, 42773.723, -0.05258771, 0.5279017, 93054.65, 93054.65, 0.0, 9.99881, 10.001142 
2.8761607e+3, 1.3208473e+2, -1386144.0, -1570220.1, -2857.0737, 0.08864168, 0.59436476, -1386099.6, 259528.0, 0.0, 10.002333, 9.9998665 
2.8760552e+3, 1.4208326e+2, -1358257.5, -1553949.9, 42681.242, 0.09652386, 0.5315678, -1349353.6, 198285.6, 0.0, 10.002051, 9.999443 
2.8759503e+3, 1.5208238e+2, -1284509.5, -1480753.4, 90783.57, 0.04039422, 0.56836957, -1248954.4, 200694.7, 0.0, 10.001952, 9.999313 
2.8758463e+3, 1.6208144e+2, -1202350.9, -1388367.6, 71289.23, 0.052987278, 0.5962159, -1178172.6, 173486.88, 0.0, 10.001837, 9.9993305 
2.875743e+3, 1.7208011e+2, -1127843.9, -1295668.9, 91423.76, 0.103543624, 0.58461136, -1087661.3, 166010.83, 0.0, 10.0016575, 9.999376 
2.8756392e+3, 1.8207885e+2, -1047599.1, -1203426.8, 105958.45, 0.10531702, 0.5767123, -993992.0, 161691.88, 0.0, 10.001524, 9.999404 
2.8755352e+3, 1.9207774e+2, -944922.56, -1096431.8, 133488.0, 0.025213081, 0.57783216, -867191.6, 190502.44, 0.0, 10.001533, 9.999456 
2.8754318e+3, 2.0207648e+2, -882526.4, -1062292.3, 139226.05, -0.02369446, 0.5759402, -806690.2, 153016.03, 0.0, 10.00149, 9.99904 
2.875329e+3, 2.1207477e+2, -813290.5, -992313.7, 134583.19, 0.013368352, 0.5705865, -741169.94, 120553.88, 0.0, 10.001354, 9.998911 
2.8752264e+3, 2.2207327e+2, -714722.56, -835861.56, 116287.555, 0.040670775, 0.56773096, -644175.9, 119562.984, 0.0, 10.001105, 9.9994335 
2.8751227e+3, 2.3207232e+2, -671855.6, -737035.44, 119034.95, 0.033934254, 0.5655607, -581029.9, 84717.11, 0.0, 10.000609, 9.999678 
2.8750193e+3, 2.420713e+2, -642645.44, -691915.3, 134120.52, 0.024162149, 0.55868363, -530916.2, 36839.633, 0.0, 10.000221, 9.999502 
2.8749156e+3, 2.5207004e+2, -539181.25, -596067.5, 124944.34, 0.011474165, 0.5427544, -439483.44, 30283.666, 0.0, 10.000276, 9.999462 
2.874812e+3, 2.620687e+2, -482982.25, -573167.5, 124106.48, -0.0051391157, 0.5365213, -396030.3, -24250.373, 0.0, 10.000222, 9.998975 
2.874708e+3, 2.720671e+2, -448123.53, -519505.5, 86635.17, -0.010022262, 0.5489469, -390115.53, -116317.86, 0.0, 9.999847, 9.998851 
2.874604e+3, 2.820658e+2, -351187.13, -342358.44, 69259.375, 0.006160471, 0.56235284, -277372.88, -101561.36, 0.0, 9.999497, 9.999564 
2.8744993e+3, 2.9206517e+2, -247940.95, -205096.47, 85364.48, 0.012632229, 0.5757681, -138507.31, -60692.563, 0.0, 9.9993725, 9.999897 
2.8743938e+3, 3.0206394e+2, -263588.22, -327712.1, 120179.24, -0.059745517, 0.57114977, -171267.63, -171267.63, 0.0, 9.999312, 9.998412 
2.8742903e+3, 3.1206056e+2, -236059.39, -345153.97, 72987.06, 0.011700798, 0.49112794, -199488.52, -199488.52, 0.0, 9.999405, 9.997912 
2.8741854e+3, 3.2205936e+2, -59853.297, 162802.39, -6259.4604, 0.030841062, 0.53082186, 162978.22, 162978.22, 0.0, 9.998784, 10.001698 
2.886162e+3, 1.3219082e+2, -1478641.8, -1590709.0, 14354.23, 0.06778393, 0.5858976, -1476832.4, 167755.02, 0.0, 10.001586, 10.000089 
2.886057e+3, 1.4218955e+2, -1406449.9, -1574215.9, 51830.15, 0.1405508, 0.52816314, -1391729.0, 154867.48, 0.0, 10.001706, 9.999471 
2.8859517e+3, 1.521885e+2, -1311958.4, -1503266.0, 102931.01, 0.04891961, 0.55345637, -1267097.3, 181511.22, 0.0, 10.001804, 9.999229 
2.8858477e+3, 1.6218747e+2, -1201078.1, -1376325.0, 78448.44, 0.034618948, 0.57639396, -1171092.0, 179527.95, 0.0, 10.001796, 9.9994335 
2.885744e+3, 1.7218643e+2, -1144788.9, -1285617.0, 97939.984, 0.09658492, 0.5783763, -1094578.0, 158051.84, 0.0, 10.001463, 9.999538 
2.8856403e+3, 1.8218541e+2, -1088369.5, -1217132.5, 119042.41, 0.10965042, 0.5821344, -1017414.06, 137225.47, 0.0, 10.001219, 9.999454 
2.8855363e+3, 1.921844e+2, -983794.2, -1114270.8, 130868.414, 0.032408576, 0.59259677, -902804.6, 153844.67, 0.0, 10.001265, 9.999462 
2.8854325e+3, 2.0218322e+2, -912098.7, -1062139.8, 123565.805, -0.012140058, 0.5945905, -842562.7, 116098.19, 0.0, 10.001224, 9.999169 
2.8853297e+3, 2.1218148e+2, -870111.9, -999911.94, 146813.78, 0.022689594, 0.5685806, -774493.1, 86185.414, 0.0, 10.000879, 9.999088 
2.8852266e+3, 2.2218e+2, -782584.56, -863982.06, 148004.13, 0.046039797, 0.55585116, -669785.4, 92907.914, 0.0, 10.000622, 9.999473 
2.885123e+3, 2.3217928e+2, -668448.9, -736644.25, 123978.48, 0.030013593, 0.57934237, -573964.6, 90735.14, 0.0, 10.000641, 9.999664 
2.8850192e+3, 2.4217845e+2, -582569.44, -654211.1, 123584.96, 0.021807926, 0.58942384, -489718.72, 76988.45, 0.0, 10.000597, 9.999579 
2.8849155e+3, 2.5217712e+2, -519096.84, -576202.1, 115377.69, 0.02585581, 0.55541533, -428791.34, 39927.6, 0.0, 10.000373, 9.999549 
2.8848115e+3, 2.6217574e+2, -493850.1, -564895.1, 122310.93, 0.018839357, 0.53680694, -402007.75, -31275.951, 0.0, 10.000099, 9.999084 
2.8847072e+3, 2.7217433e+2, -462160.94, -518428.4, 125907.35, -0.01354096, 0.5577411, -361282.38, -88534.516, 0.0, 9.999725, 9.998912 
2.8846025e+3, 2.821731e+2, -363685.94, -330721.72, 137705.89, -0.012343191, 0.57421327, -208515.08, -33754.395, 0.0, 9.999339, 9.999718 
2.8844982e+3, 2.9217252e+2, -211674.1, -185128.7, 111276.15, 0.02140746, 0.5806818, -86336.484, -9573.528, 0.0, 9.999619, 9.999911 
2.884393e+3, 3.021712e+2, -168739.95, -288800.84, 102978.414, -0.04376192, 0.5708057, -109572.21, -109572.21, 0.0, 10.000001, 9.998346 
2.8842884e+3, 3.1216753e+2, -196087.28, -359861.16, 117751.16, -0.053949624, 0.4769454, -134548.97, -134548.97, 0.0, 9.999839, 9.99761 
2.884184e+3, 3.2216674e+2, 3941.3198, 221338.64, -20982.623, 0.07462501, 0.5840237, 223345.3, 223345.3, 0.0, 9.999093, 10.00197 
2.896163e+3, 1.322971e+2, -1471993.9, -1581121.8, 16094.013, 0.04475284, 0.57300586, -1469669.9, 173875.17, 0.0, 10.001614, 10.000137 
2.8960586e+3, 1.4229634e+2, -1407339.6, -1576206.0, 55342.875, 0.17613661, 0.5644198, -1390818.4, 154730.89, 0.0, 10.001708, 9.999455 
2.895953e+3, 1.5229498e+2, -1322073.6, -1514643.5, 105882.64, 0.06719235, 0.5614897, -1275243.5, 172321.02, 0.0, 10.001761, 9.999173 
2.8958488e+3, 1.6229375e+2, -1201518.9, -1361919.8, 69804.586, 0.027385354, 0.5622541, -1175395.4, 174182.6, 0.0, 10.001729, 9.999565 
2.8957444e+3, 1.7229296e+2, -1131289.1, -1257616.0, 83513.82, 0.052351635, 0.5705171, -1089742.6, 161842.67, 0.0, 10.001462, 9.999732 
2.8956404e+3, 1.8229207e+2, -1094137.9, -1234451.4, 115821.9, 0.05850609, 0.5801559, -1028881.6, 124712.305, 0.0, 10.001241, 9.999325 
2.895537e+3, 1.9229084e+2, -1000608.3, -1148756.1, 133471.61, 0.06840654, 0.5912761, -922033.56, 133573.38, 0.0, 10.001259, 9.999229 
2.8954342e+3, 2.0228969e+2, -890927.2, -1010419.3, 114877.3, 0.07767544, 0.59613, -821188.2, 136430.72, 0.0, 10.00119, 9.999541 
2.8953302e+3, 2.1228862e+2, -827050.25, -910827.8, 133018.06, 0.05948343, 0.5806167, -729481.25, 130147.39, 0.0, 10.00088, 9.9997 
2.8952265e+3, 2.2228755e+2, -791340.4, -882681.1, 144494.98, 0.032493114, 0.5744384, -685470.06, 76168.84, 0.0, 10.000623, 9.999345 
2.8951228e+3, 2.3228647e+2, -695559.56, -793573.94, 125318.84, 0.0056651705, 0.5961132, -610006.25, 53644.484, 0.0, 10.000642, 9.999273 
2.895019e+3, 2.4228542e+2, -583733.4, -657248.06, 116514.29, -0.0016726378, 0.6084171, -498315.94, 67345.88, 0.0, 10.000598, 9.999558 
2.8949156e+3, 2.5228432e+2, -511508.47, -559656.75, 105806.24, 0.03508187, 0.5917028, -427072.13, 40599.258, 0.0, 10.000371, 9.999665 
2.8948113e+3, 2.622833e+2, -447805.16, -471968.56, 111054.195, 0.039601527, 0.5767173, -348177.4, 21503.072, 0.0, 10.00011, 9.999718 
2.894706e+3, 2.7228233e+2, -410384.34, -411083.3, 108668.48, -0.033144142, 0.5658861, -302064.8, -30375.605, 0.0, 9.9997225, 9.99965 
2.894601e+3, 2.822812e+2, -383879.0, -376712.3, 133207.77, -0.04928131, 0.5576676, -247039.7, -73340.266, 0.0, 9.999352, 9.999396 
2.8944975e+3, 2.9227996e+2, -288508.66, -340720.22, 134172.25, 0.043884646, 0.5817808, -177926.11, -102214.78, 0.0, 9.999611, 9.998839 
2.894393e+3, 3.0227837e+2, -127434.35, -205932.02, 102381.805, -0.0013889258, 0.5922937, -57036.0, -57036.0, 0.0, 10.000019, 9.998903 
2.8942877e+3, 3.1227538e+2, -141369.72, -242043.05, 110165.414, -0.07082989, 0.4769328, -70585.8, -70585.8, 0.0, 9.999828, 9.998424 
2.8941825e+3, 3.22275e+2, -32556.568, 152803.4, -68615.164, 0.052780524, 0.61353207, 175438.73, 175438.73, 0.0, 9.999056, 10.001524 
2.906164e+3, 1.3240321e+2, -1463643.9, -1581981.5, 5656.6367, 0.026508637, 0.5627185, -1463374.1, 179130.92, 0.0, 10.001683, 10.000102 
2.9060593e+3, 1.4240278e+2, -1428319.8, -1574103.4, 38839.8, 0.16614807, 0.5855353, -1418617.6, 125889.0, 0.0, 10.001509, 9.999567 
2.905954e+3, 1.5240134e+2, -1412750.1, -1540997.6, 96486.19, 0.08021312, 0.5601139, -1361023.0, 85499.016, 0.0, 10.001063, 9.999329 
2.9058495e+3, 1.6240007e+2, -1331211.8, -1425776.9, 74418.586, 0.050589174, 0.5477105, -1290325.3, 58210.258, 0.0, 10.000843, 9.999553 
2.9057452e+3, 1.7239943e+2, -1162211.1, -1279541.4, 75959.65, 0.04671673, 0.57625556, -1124899.9, 125642.55, 0.0, 10.00128, 9.999669 
2.905641e+3, 1.8239865e+2, -1051124.4, -1202582.4, 94006.71, 0.037829593, 0.5960941, -1006138.25, 146412.31, 0.0, 10.001487, 9.999427 
2.9055378e+3, 1.9239739e+2, -1025229.94, -1143840.3, 130398.68, 0.06821597, 0.58863515, -941283.9, 113279.734, 0.0, 10.001016, 9.999381 
2.9054347e+3, 2.023963e+2, -947541.9, -1018139.44, 129007.61, 0.09111253, 0.5859956, -849091.0, 107483.586, 0.0, 10.000713, 9.999719 
2.905331e+3, 2.1239568e+2, -807618.06, -878589.44, 121681.9, 0.061646037, 0.5946492, -716353.1, 142227.25, 0.0, 10.000915, 9.999905 
2.905227e+3, 2.2239493e+2, -729499.4, -837728.7, 119219.47, 0.03159043, 0.60167426, -652687.8, 107899.89, 0.0, 10.00098, 9.999481 
2.905123e+3, 2.3239374e+2, -688016.56, -774717.25, 133629.34, 0.0153092565, 0.6012152, -590881.9, 71718.47, 0.0, 10.000627, 9.999411 
2.905019e+3, 2.423927e+2, -622890.56, -669711.7, 152363.9, 0.013352388, 0.6062205, -492149.2, 72462.15, 0.0, 10.000305, 9.999613 
2.904915e+3, 2.5239196e+2, -531458.4, -558796.8, 137528.64, 0.032441948, 0.61962783, -406921.34, 59697.17, 0.0, 10.000191, 9.999757 
2.904811e+3, 2.6239124e+2, -449324.16, -441779.22, 126066.11, 0.03094971, 0.61934054, -319429.13, 49196.074, 0.0, 9.999968, 9.999992 
2.9047054e+3, 2.723903e+2, -397685.0, -356525.06, 86950.17, -0.0153384935, 0.57909435, -287752.53, -17120.36, 0.0, 9.999603, 10.000079 
2.9046002e+3, 2.8238943e+2, -363820.16, -331835.9, 127372.875, -0.015413507, 0.55166376, -219455.14, -46815.348, 0.0, 9.999354, 9.999696 
2.9044953e+3, 2.9238868e+2, -436641.9, -346195.7, 194168.08, -0.0031344374, 0.58777845, -192053.88, -117406.79, 0.0, 9.998318, 9.999422 
2.9161647e+3, 1.3250926e+2, -1486950.3, -1599713.1, 999.5168, 0.005922454, 0.55980736, -1486941.4, 154524.8, 0.0, 10.001558, 10.000037 
2.91606e+3, 1.4250897e+2, -1420410.8, -1547308.0, 27420.148, 0.12154869, 0.5947466, -1414739.3, 128728.016, 0.0, 10.001466, 9.999771 
2.915955e+3, 1.5250762e+2, -1386516.9, -1495792.1, 77607.38, 0.087011956, 0.54833037, -1346243.1, 99237.45, 0.0, 10.001101, 9.999621 
2.9158503e+3, 1.6250645e+2, -1332576.8, -1441440.0, 82118.945, 0.09124407, 0.5319719, -1288487.6, 59005.19, 0.0, 10.000897, 9.99942 
2.915746e+3, 1.725059e+2, -1182205.6, -1318318.6, 95461.53, 0.07024243, 0.59514743, -1133024.9, 116475.39, 0.0, 10.0012665, 9.999411 
2.915642e+3, 1.825052e+2, -1039862.44, -1166194.0, 87018.22, 0.03751154, 0.62928057, -995501.06, 156007.28, 0.0, 10.0014305, 9.999703 
2.915538e+3, 1.9250399e+2, -993354.75, -1077297.8, 112171.62, 0.034492377, 0.58309084, -915559.5, 137959.94, 0.0, 10.001013, 9.99984 
2.9154342e+3, 2.0250301e+2, -947604.3, -1020748.2, 130482.21, 0.036616545, 0.5631102, -848665.7, 106862.984, 0.0, 10.000723, 9.999696 
2.9153308e+3, 2.1250264e+2, -819992.56, -902778.0, 130206.69, 0.03148778, 0.61271346, -724757.56, 132776.0, 0.0, 10.000906, 9.999743 
2.9152274e+3, 2.2250211e+2, -705655.44, -781054.56, 110997.4, 0.03274732, 0.6366928, -626130.1, 133409.27, 0.0, 10.000949, 9.9998865 
2.9151234e+3, 2.325011e+2, -643325.5, -680705.2, 119120.25, 0.058570582, 0.59316224, -541437.8, 120110.68, 0.0, 10.000621, 10.00006 
2.9150194e+3, 2.425003e+2, -613934.75, -653037.0, 145405.48, 0.06289437, 0.57991326, -486771.84, 76784.16, 0.0, 10.000313, 9.999723 
2.9149145e+3, 2.525001e+2, -529097.1, -552220.06, 133288.83, 0.0108678, 0.64108527, -406869.28, 58690.637, 0.0, 10.000184, 9.999803 
2.9148096e+3, 2.6249957e+2, -458064.4, -465991.66, 111755.72, -0.019888707, 0.6672667, -350202.03, 17363.916, 0.0, 9.999989, 9.999819 
2.914705e+3, 2.7249828e+2, -394685.88, -355187.63, 70702.4, 0.041437242, 0.5982671, -301527.9, -31949.725, 0.0, 9.999618, 10.000086 
2.9145998e+3, 2.824976e+2, -295837.56, -190945.58, 122227.93, 0.0717858, 0.55968654, -110386.88, 61196.5, 0.0, 9.999364, 10.000658 
2.914492e+3, 2.924987e+2, -275139.56, -7095.552, 112054.08, -0.13470879, 0.60188144, 33576.5, 107146.1, 0.0, 9.998313, 10.001755 
2.9261655e+3, 1.326155e+2, -1636598.3, -1673964.5, 7495.209, 0.059343055, 0.5834711, -1635150.9, 5274.171, 0.0, 10.000538, 10.000018 
2.92606e+3, 1.4261481e+2, -1484264.5, -1566442.8, 26167.514, 0.07617102, 0.57479894, -1476639.6, 65791.51, 0.0, 10.000974, 9.999878 
2.9259554e+3, 1.5261395e+2, -1350162.0, -1459123.1, 63195.78, 0.070928626, 0.56239927, -1321205.0, 123234.32, 0.0, 10.001267, 9.999794 
2.925851e+3, 1.6261311e+2, -1262978.4, -1391075.1, 68907.414, 0.10351977, 0.5636749, -1232950.0, 113497.836, 0.0, 10.001299, 9.999575 
2.9257467e+3, 1.7261246e+2, -1233556.9, -1326571.5, 105567.92, 0.08463847, 0.59926444, -1164706.0, 83750.19, 0.0, 10.000838, 9.999561 
2.9256424e+3, 1.8261175e+2, -1150692.3, -1203770.4, 111684.08, 0.047849234, 0.617929, -1062437.4, 88026.82, 0.0, 10.000594, 9.999851 
2.9255384e+3, 1.9261083e+2, -995920.9, -1062099.3, 118245.516, 0.028399955, 0.58652365, -906222.06, 146250.4, 0.0, 10.000921, 9.9999895 
2.9254347e+3, 2.0261005e+2, -898004.7, -990260.0, 124183.33, 0.024212053, 0.5750316, -811658.75, 142821.17, 0.0, 10.001033, 9.999757 
2.925331e+3, 2.1260962e+2, -871224.0, -924087.8, 134080.55, 0.031104993, 0.616185, -760994.9, 95490.875, 0.0, 10.000536, 9.999777 
2.9252276e+3, 2.2260918e+2, -800781.06, -805546.5, 121437.68, 0.04047098, 0.6391301, -681702.7, 76788.4, 0.0, 10.0002, 10.00008 
2.9251233e+3, 2.3260854e+2, -666793.1, -658048.1, 104148.24, 0.05862416, 0.60727966, -558180.6, 102315.59, 0.0, 10.00031, 10.000367 
2.925019e+3, 2.4260806e+2, -607026.8, -628486.44, 113106.8, 0.058693174, 0.5966153, -504142.03, 58358.61, 0.0, 10.000263, 9.99992 
2.924914e+3, 2.5260785e+2, -560268.44, -540008.9, 112939.32, 0.0066871922, 0.63916904, -436745.97, 27758.488, 0.0, 9.999846, 10.000053 
2.924809e+3, 2.6260754e+2, -513413.47, -481810.5, 117018.93, -0.019999007, 0.663922, -379531.0, -13021.934, 0.0, 9.999552, 9.999926 
2.924704e+3, 2.7260676e+2, -365457.06, -317314.97, 95952.664, 0.04795166, 0.6321196, -242460.13, 26057.139, 0.0, 9.999707, 10.000307 
2.9245988e+3, 2.8260648e+2, -243042.38, -133363.44, 132934.3, 0.088100456, 0.60576403, -44401.324, 126117.984, 0.0, 9.999567, 10.000973 
2.92449e+3, 2.926075e+2, -92922.945, 114810.68, -27965.055, -0.14233294, 0.6060511, 118509.47, 191015.86, 0.0, 9.99939, 10.002095 
2.9361665e+3, 1.3272181e+2, -1630315.0, -1668542.5, 22182.475, 0.15273875, 0.6193667, -1620147.4, 19235.893, 0.0, 10.000577, 10.000033 
2.93606e+3, 1.427204e+2, -1483528.5, -1561830.3, 40147.902, 0.027762407, 0.5361733, -1466602.3, 74795.09, 0.0, 10.000962, 9.999915 
2.9359555e+3, 1.5272033e+2, -1352148.4, -1450916.9, 72821.21, 0.03734931, 0.595594, -1313545.5, 129852.555, 0.0, 10.001213, 9.999877 
2.9358518e+3, 1.6272e+2, -1248011.8, -1343852.6, 56811.848, 0.0918388, 0.62750447, -1221608.9, 123792.69, 0.0, 10.001229, 9.999932 
2.9357472e+3, 1.7271902e+2, -1202200.3, -1261478.1, 86282.83, 0.08936137, 0.5873448, -1140607.6, 106803.49, 0.0, 10.000838, 10.000009 
2.9356426e+3, 1.8271825e+2, -1145085.4, -1197790.9, 115377.805, 0.06492827, 0.5706196, -1053089.0, 96329.86, 0.0, 10.000618, 9.999881 
2.935539e+3, 1.9271784e+2, -1004315.5, -1076477.6, 130112.24, 0.042818576, 0.59942895, -905374.2, 146049.17, 0.0, 10.000907, 9.999898 
2.9354352e+3, 2.0271733e+2, -894484.56, -972542.1, 111973.69, 0.039071452, 0.61436075, -814932.75, 138496.19, 0.0, 10.000988, 9.999901 
2.9353312e+3, 2.1271658e+2, -856822.4, -892803.5, 113163.695, 0.05655697, 0.60295147, -760228.1, 95209.32, 0.0, 10.000529, 9.999995 
2.9352272e+3, 2.2271611e+2, -801516.7, -807104.94, 120577.63, 0.05195289, 0.60973555, -683700.75, 73742.27, 0.0, 10.0002, 10.00007 
2.9351225e+3, 2.3271613e+2, -671071.1, -664068.7, 108016.695, 0.011630495, 0.6473552, -559496.5, 99946.75, 0.0, 10.000298, 10.000331 
2.935018e+3, 2.4271594e+2, -586123.6, -586125.8, 101197.78, -0.005231517, 0.6578866, -484926.94, 76518.414, 0.0, 10.000264, 10.000212 
2.9349133e+3, 2.5271526e+2, -526006.1, -472372.7, 96142.38, 0.022727292, 0.61133844, -399377.13, 64075.324, 0.0, 9.999857, 10.000516 
2.9348084e+3, 2.6271513e+2, -476640.78, -411796.06, 118198.53, 0.021221723, 0.6083505, -321653.75, 43800.527, 0.0, 9.999579, 10.000392 
2.9347026e+3, 2.7271593e+2, -329044.03, -247318.86, 103990.086, -0.011169918, 0.68637025, -176451.02, 90996.41, 0.0, 9.999734, 10.0007715 
2.934597e+3, 2.8271607e+2, -261320.9, -204036.84, 110901.65, 0.0053121382, 0.69697887, -118138.305, 51308.383, 0.0, 9.999693, 10.000434 
2.9344898e+3, 2.927154e+2, -187542.34, -94343.625, -20431.043, -0.023023907, 0.6471669, -90061.48, -18607.441, 0.0, 9.999441, 10.000633 
2.9461667e+3, 1.328272e+2, -1591476.1, -1644199.4, 922.046, 0.15657306, 0.6023578, -1591460.0, 46890.72, 0.0, 10.000808, 10.000098 
2.9460603e+3, 1.4282636e+2, -1511027.8, -1550937.5, 23306.85, 0.022096206, 0.5647536, -1500300.3, 40059.348, 0.0, 10.000669, 10.000132 
2.9459557e+3, 1.5282626e+2, -1444767.0, -1469383.4, 60395.855, 0.028363414, 0.595799, -1395437.9, 46922.867, 0.0, 10.000462, 10.000114 
2.9458517e+3, 1.6282594e+2, -1359899.0, -1381066.5, 45263.65, 0.080541275, 0.61025727, -1323998.1, 20365.775, 0.0, 10.000386, 10.000085 
2.9457474e+3, 1.7282525e+2, -1202383.1, -1243314.3, 59766.137, 0.07992002, 0.5822632, -1159675.6, 86694.94, 0.0, 10.000753, 10.000177 
2.9456428e+3, 1.8282469e+2, -1103316.9, -1169344.4, 77323.29, 0.056141235, 0.5721294, -1052254.4, 96121.72, 0.0, 10.000865, 9.999959 
2.945539e+3, 1.9282435e+2, -1069783.0, -1106582.3, 97415.2, 0.040325902, 0.6048786, -989045.0, 61335.18, 0.0, 10.000443, 9.999919 
2.9454353e+3, 2.0282397e+2, -993956.3, -1007978.0, 84098.55, 0.042740073, 0.6232607, -916576.9, 35808.03, 0.0, 10.00024, 10.000023 
2.9453313e+3, 2.1282329e+2, -854879.7, -874468.4, 77989.27, 0.0589905, 0.60338235, -786072.1, 68320.09, 0.0, 10.000459, 10.00016 
2.945227e+3, 2.228229e+2, -747165.06, -773630.4, 87368.84, 0.048633095, 0.6062958, -672032.5, 84364.266, 0.0, 10.000531, 10.000146 
2.945122e+3, 2.3282313e+2, -678530.06, -659707.06, 81935.195, -0.011199729, 0.65695715, -586644.6, 71750.62, 0.0, 10.000201, 10.000412 
2.9450172e+3, 2.4282311e+2, -624777.5, -589689.6, 77356.38, -0.030480053, 0.671513, -527912.7, 32483.428, 0.0, 9.9999275, 10.000352 
2.944913e+3, 2.5282246e+2, -489165.38, -435474.88, 53835.535, 0.025840282, 0.60995555, -402162.56, 60240.234, 0.0, 10.00002, 10.000695 
2.9448077e+3, 2.6282254e+2, -394471.9, -346630.03, 59607.96, 0.034696225, 0.6072256, -306322.3, 58080.08, 0.0, 10.00003, 10.0006275 
2.9447016e+3, 2.728238e+2, -291744.6, -214602.1, 29161.648, -0.03379794, 0.7156675, -204818.98, 61571.773, 0.0, 9.999913, 10.00092 
2.9445958e+3, 2.828239e+2, -261062.23, -227502.66, 22598.566, -0.021600338, 0.71712744, -216135.39, -47743.973, 0.0, 9.999793, 10.000219 
2.94449e+3, 2.928233e+2, -136721.19, -98457.99, -29453.984, 0.055324256, 0.70657825, -82467.586, -12068.744, 0.0, 9.999898, 10.000379 
2.9561663e+3, 1.3293199e+2, -1589468.9, -1627665.8, -3034.6277, 0.09942451, 0.5576641, -1589229.3, 48094.777, 0.0, 10.000762, 10.000232 
2.9560605e+3, 1.4293256e+2, -1493518.9, -1506148.3, 19266.832, 0.041474447, 0.64029366, -1479558.4, 59761.188, 0.0, 10.000633, 10.000456 
2.955956e+3, 1.5293185e+2, -1421198.1, -1420671.3, 50361.008, 0.03485072, 0.57600576, -1370573.0, 70753.32, 0.0, 10.000462, 10.00045 
2.9558516e+3, 1.6293125e+2, -1360137.0, -1381389.9, 51671.105, 0.06935364, 0.54323107, -1318010.9, 25321.355, 0.0, 10.000384, 10.000084 
2.9557472e+3, 1.7293124e+2, -1206775.9, -1247561.0, 74235.35, 0.057874367, 0.5870239, -1150183.1, 95150.04, 0.0, 10.000732, 10.000159 
2.955643e+3, 1.8293107e+2, -1100277.4, -1155982.9, 65415.973, 0.021193016, 0.61043406, -1057031.4, 90304.31, 0.0, 10.000835, 10.000066 
2.9555386e+3, 1.9293045e+2, -1060576.5, -1089228.4, 80993.63, 0.023957605, 0.6034354, -992651.6, 56690.395, 0.0, 10.000451, 10.000034 
2.955435e+3, 2.0293006e+2, -985445.25, -992655.8, 89069.5, 0.03758305, 0.6123288, -899908.06, 51438.14, 0.0, 10.00025, 10.000124 
2.955331e+3, 2.1292982e+2, -848003.4, -859520.56, 85129.49, 0.03748829, 0.6226703, -768437.94, 84911.52, 0.0, 10.000454, 10.000266 
2.955227e+3, 2.2292957e+2, -738918.25, -750377.1, 79748.51, 0.021478232, 0.6272864, -664693.6, 90658.63, 0.0, 10.0005045, 10.000319 
2.9551217e+3, 2.3292957e+2, -665099.3, -629513.5, 67531.43, -0.01045445, 0.6344875, -577470.25, 79882.016, 0.0, 10.000191, 10.000625 
2.9550168e+3, 2.4292956e+2, -621599.6, -585959.5, 75024.51, -0.020307405, 0.63860404, -526667.75, 32685.107, 0.0, 9.999937, 10.000374 
2.9549122e+3, 2.5292948e+2, -493774.84, -446543.4, 57685.38, 0.009625473, 0.6394887, -407826.9, 53528.22, 0.0, 10.000024, 10.000618 
2.954807e+3, 2.629298e+2, -391418.8, -346129.44, 54860.9, 0.012299166, 0.66620356, -309423.47, 53929.816, 0.0, 10.000053, 10.000621 
2.9547012e+3, 2.7293044e+2, -297185.72, -231998.9, 30393.555, -0.018375859, 0.7149159, -220026.66, 45321.504, 0.0, 9.999939, 10.000788 
2.9545954e+3, 2.8292996e+2, -232596.23, -183705.88, 14336.202, -0.010493045, 0.6585879, -179812.16, -12458.857, 0.0, 9.999849, 10.000497 
2.9544893e+3, 2.929302e+2, -59090.496, 47330.348, -10892.172, 0.033912987, 0.6814867, 48433.723, 117783.234, 0.0, 9.999962, 10.001351 
2.966166e+3, 1.3303746e+2, -1601288.0, -1643105.8, 3618.0369, 0.04675713, 0.5412666, -1600977.3, 35314.184, 0.0, 10.000725, 10.000141 
2.966061e+3, 1.4303812e+2, -1530968.1, -1533424.8, 18430.873, 0.067370236, 0.6439523, -1513724.8, 24560.963, 0.0, 10.000413, 10.00038 
2.965956e+3, 1.5303779e+2, -1428707.3, -1424361.8, 25719.803, 0.07209534, 0.61916465, -1400723.1, 39565.945, 0.0, 10.000407, 10.000453 
2.9658517e+3, 1.6303745e+2, -1367480.0, -1375391.1, 27753.123, 0.104851514, 0.6057487, -1343402.0, -1109.3175, 0.0, 10.000287, 10.000176 
2.9657474e+3, 1.730372e+2, -1265787.6, -1274672.6, 59917.52, 0.055012226, 0.62200576, -1210148.1, 34147.695, 0.0, 10.000313, 10.000179 
2.9656428e+3, 1.8303698e+2, -1143520.6, -1165292.4, 43213.63, 0.010200629, 0.6366691, -1109842.9, 36455.918, 0.0, 10.000477, 10.000181 
2.9655388e+3, 1.9303666e+2, -1000654.9, -1033301.44, 59520.07, 0.029497692, 0.6372842, -955260.4, 93041.88, 0.0, 10.000737, 10.000285 
2.965435e+3, 2.0303632e+2, -910821.0, -955447.2, 68465.695, 0.045365073, 0.6355476, -861124.2, 89182.01, 0.0, 10.0007515, 10.00014 
2.9653308e+3, 2.1303599e+2, -864039.4, -859618.0, 60061.383, 0.027476616, 0.6347025, -801726.6, 50583.37, 0.0, 10.000306, 10.000339 
2.9652262e+3, 2.2303581e+2, -791886.9, -757730.7, 58736.098, 0.012604011, 0.6345621, -713640.25, 40671.676, 0.0, 10.000058, 10.000485 
2.9651216e+3, 2.3303579e+2, -662568.75, -619687.2, 38363.105, 0.008387128, 0.6238488, -597179.9, 59132.16, 0.0, 10.000161, 10.000712 
2.9650167e+3, 2.4303587e+2, -582190.9, -552818.44, 46217.84, 0.0060189087, 0.62464184, -519009.56, 39301.96, 0.0, 10.0001335, 10.000516 
2.9649118e+3, 2.5303617e+2, -492257.06, -445547.84, 40892.207, 0.0045379126, 0.6582981, -421810.94, 38499.277, 0.0, 10.000018, 10.000637 
2.9648063e+3, 2.630366e+2, -403083.0, -350998.6, 40773.285, 0.0011227381, 0.6941494, -328660.47, 33647.04, 0.0, 9.999959, 10.00064 
2.9647008e+3, 2.730369e+2, -304279.84, -245051.27, 22452.926, 0.001568795, 0.70811224, -237501.86, 26803.816, 0.0, 9.99993, 10.000705 
2.964595e+3, 2.830362e+2, -194057.64, -157255.05, 9179.831, 0.004721011, 0.6316589, -155092.38, 11219.99, 0.0, 10.000088, 10.000572 
2.9644883e+3, 2.9303646e+2, 52713.402, 122625.28, -43803.19, -0.017322516, 0.6582903, 143710.73, 212017.92, 0.0, 10.000671, 10.001529 
2.9761657e+3, 1.3314334e+2, -1632043.0, -1694173.1, -26531.914, 0.002293325, 0.54180586, -1622254.9, 13000.363, 0.0, 10.000673, 9.999813 
2.976061e+3, 1.431431e+2, -1553410.6, -1582917.0, 16877.197, 0.09542921, 0.5919985, -1545747.4, -8490.094, 0.0, 10.000427, 10.000031 
2.9759565e+3, 1.5314373e+2, -1436328.6, -1452568.9, 21847.188, 0.12581417, 0.69033074, -1421141.3, 18110.574, 0.0, 10.000461, 10.000234 
2.9758522e+3, 1.6314399e+2, -1345777.3, -1346417.8, 23195.582, 0.16203478, 0.73885727, -1322899.8, 18350.143, 0.0, 10.000359, 10.00034 
2.975747e+3, 1.7314295e+2, -1256505.6, -1264895.3, 63608.016, 0.059696943, 0.6662897, -1196954.3, 46305.87, 0.0, 10.000356, 10.000224 
2.9756427e+3, 1.831425e+2, -1134882.6, -1150405.8, 53476.35, 0.018295445, 0.65384895, -1088607.5, 56657.285, 0.0, 10.00049, 10.000276 
2.9755393e+3, 1.9314288e+2, -976897.7, -982105.5, 66714.43, 0.04802679, 0.6945696, -912736.4, 134525.66, 0.0, 10.00073, 10.00064 
2.9754353e+3, 2.0314245e+2, -918717.6, -965684.75, 54373.992, 0.051666968, 0.6737974, -882972.75, 66294.16, 0.0, 10.000725, 10.000083 
2.9753307e+3, 2.1314175e+2, -859243.9, -847792.7, 42466.84, 0.028443038, 0.6307079, -810667.2, 40607.367, 0.0, 10.0002985, 10.000423 
2.975226e+3, 2.2314171e+2, -783037.0, -735037.5, 60041.47, 0.024013361, 0.6269469, -694376.9, 58898.59, 0.0, 10.000039, 10.000651 
2.9751214e+3, 2.3314185e+2, -663586.5, -622189.9, 42443.81, 0.04281725, 0.63060504, -595666.44, 59607.098, 0.0, 10.00016, 10.000697 
2.9750162e+3, 2.4314216e+2, -566291.06, -518543.16, 40664.973, 0.037917253, 0.6395231, -495262.0, 62008.8, 0.0, 10.000128, 10.000754 
2.974911e+3, 2.531426e+2, -484922.94, -432199.94, 39486.523, 0.00809675, 0.6695547, -411083.94, 48183.625, 0.0, 10.000027, 10.000724 
2.9748055e+3, 2.6314297e+2, -395384.5, -339228.88, 37378.918, -0.003759255, 0.6933881, -320556.84, 40707.844, 0.0, 9.999976, 10.000712 
2.9747003e+3, 2.7314323e+2, -300460.9, -240029.73, 24123.947, 0.020017596, 0.695313, -231580.78, 31681.87, 0.0, 9.999941, 10.000736 
2.9745945e+3, 2.8314278e+2, -201408.23, -181778.69, 24874.896, 0.0048247925, 0.647781, -164852.28, 414.69003, 0.0, 10.000143, 10.000374 
2.9744878e+3, 2.931423e+2, -3107.8428, -8073.0967, -9438.19, -0.084648386, 0.64526105, 4168.7764, 71439.24, 0.0, 10.000765, 10.000572 
2.9861692e+3, 1.332512e+2, -1410633.5, -1542753.9, -66514.12, 0.26486385, 0.7835492, -1382949.0, 251251.25, 0.0, 10.001982, 10.000239 
2.9860592e+3, 1.4324857e+2, -1591086.8, -1584717.9, 11157.049, -0.03584412, 0.5620842, -1576299.8, -40075.914, 0.0, 10.000101, 10.000177 
2.985954e+3, 1.5324804e+2, -1581549.9, -1523209.6, 60832.637, -0.079229444, 0.54258907, -1484914.9, -46684.586, 0.0, 9.999481, 10.000215 
2.9858494e+3, 1.632476e+2, -1496057.1, -1417212.1, 57854.043, -0.039958715, 0.5264586, -1386625.9, -46390.45, 0.0, 9.999342, 10.000333 
2.985746e+3, 1.7324728e+2, -1331006.8, -1283503.4, 102490.53, -0.013197909, 0.51446384, -1202048.3, 40190.05, 0.0, 9.999794, 10.000356 
2.985642e+3, 1.8324704e+2, -1172286.3, -1163606.8, 99897.4, -0.045689773, 0.51407015, -1067954.9, 76286.06, 0.0, 10.000238, 10.000295 
2.9855385e+3, 1.9324782e+2, -1083405.6, -1058702.1, 74846.3, 0.0012489075, 0.6146768, -995195.2, 51039.547, 0.0, 10.000121, 10.0004015 
2.985435e+3, 2.0324868e+2, -986900.4, -969055.0, 53611.875, 0.04668459, 0.719251, -923628.4, 24599.127, 0.0, 10.000135, 10.000344 
2.9853302e+3, 2.1324837e+2, -867162.56, -841584.06, 40256.09, 0.016556112, 0.70155424, -812134.5, 38096.258, 0.0, 10.000197, 10.000518 
2.985225e+3, 2.2324793e+2, -799706.44, -750059.56, 50031.633, -0.0091329785, 0.65997046, -719031.7, 33203.504, 0.0, 9.999946, 10.000597 
2.9851207e+3, 2.33248e+2, -659230.7, -607852.25, 45928.465, 0.009527149, 0.6515757, -580916.75, 73317.336, 0.0, 10.000137, 10.000807 
2.985016e+3, 2.4324825e+2, -512222.8, -501977.34, 27601.371, 0.021816866, 0.6556527, -479027.34, 77204.47, 0.0, 10.00054, 10.000669 
2.9849106e+3, 2.5324848e+2, -444197.88, -424813.28, 406.18256, -0.0028026963, 0.6724136, -424804.78, 33425.76, 0.0, 10.000357, 10.000617 
2.984805e+3, 2.6324874e+2, -364061.25, -320177.06, -2046.5233, -0.009684708, 0.6890378, -320081.84, 40146.69, 0.0, 10.000164, 10.00076 
2.9847e+3, 2.7324903e+2, -243888.3, -209822.14, -12530.007, 0.026697572, 0.68588233, -205709.84, 56515.93, 0.0, 10.000298, 10.000787 
2.984594e+3, 2.83249e+2, -161062.02, -144808.63, 2436.8145, 0.0034937481, 0.6707922, -144451.16, 19774.543, 0.0, 10.000339, 10.000561 
2.9844877e+3, 2.9324818e+2, -116144.57, -128260.664, 12325.012, -0.08706503, 0.63484234, -108469.234, -42235.652, 0.0, 10.000203, 10.000105 
2.996168e+3, 1.3335484e+2, -1752110.4, -1566469.6, 34772.703, 0.043161392, 0.6227639, -1560170.0, 73016.69, 0.0, 9.999062, 10.001469 
2.9960603e+3, 1.433548e+2, -1543915.9, -1504931.5, 46610.176, 0.1043937, 0.56186295, -1473901.9, 61280.86, 0.0, 10.00018, 10.000687 
2.995955e+3, 1.5335616e+2, -1277567.6, -1381223.4, -3149.9478, 0.15399578, 0.7235501, -1277472.0, 159699.16, 0.0, 10.001543, 10.0002165 
2.9958478e+3, 1.6335511e+2, -1207754.5, -1315893.4, -86748.65, -0.055749793, 0.6684522, -1159604.5, 179578.06, 0.0, 10.001418, 10.00006 
2.995746e+3, 1.7335528e+2, -1161989.5, -1200756.8, -57524.773, 0.09264506, 0.69937533, -1120670.4, 120510.125, 0.0, 10.000882, 10.00043 
2.9956427e+3, 1.8335558e+2, -1113866.1, -1159885.3, -87801.52, 0.038733143, 0.7387105, -1046109.25, 97068.86, 0.0, 10.000679, 10.00014 
2.995538e+3, 1.9335358e+2, -1015809.94, -1114458.9, -81294.04, 0.000056166482, 0.6087905, -970046.94, 75153.17, 0.0, 10.000912, 9.999662 
2.9954347e+3, 2.033538e+2, -889483.56, -882033.9, -59240.28, 0.067346655, 0.6549822, -826401.44, 120797.516, 0.0, 10.000589, 10.000742 
2.9953298e+3, 2.1335393e+2, -740517.6, -777610.9, 3247.424, 0.03458228, 0.65875345, -740235.5, 108961.57, 0.0, 10.001032, 10.000564 
2.9952243e+3, 2.2335394e+2, -650686.75, -713532.4, 9189.428, -0.027219336, 0.6817424, -649370.6, 101825.87, 0.0, 10.001114, 10.000287 
2.99512e+3, 2.3335461e+2, -681388.4, -594125.1, -10527.627, -0.013879461, 0.7262263, -592873.0, 60316.992, 0.0, 9.999877, 10.001026 
2.9950157e+3, 2.4335425e+2, -538395.44, -558766.3, 6754.815, -0.013155419, 0.67751604, -536359.1, 18834.96, 0.0, 10.00055, 10.000271 
2.9949102e+3, 2.5335395e+2, -458673.13, -457867.78, -11960.386, -0.025643427, 0.6685705, -446303.28, 10895.083, 0.0, 10.000372, 10.000377 
2.9948047e+3, 2.6335403e+2, -366498.2, -325050.88, 22.615078, -0.016574876, 0.68061525, -325050.88, 34147.36, 0.0, 10.000155, 10.000735 
2.9946995e+3, 2.733543e+2, -238534.0, -212842.34, -1062.833, 0.009397659, 0.67739654, -212798.45, 48397.207, 0.0, 10.000343, 10.000751 
2.9945934e+3, 2.8335476e+2, -129660.06, -57097.625, -8580.422, -0.024760976, 0.6883039, -56096.805, 107093.234, 0.0, 10.000288, 10.001164 
2.9944876e+3, 2.933555e+2, -100580.72, -33087.727, 37097.406, -0.04622172, 0.72703487, -16684.014, 48497.707, 0.0, 10.000002, 10.000826 
