coord_x,coord_y,stress_xx,stress_yy,tau_xy,velocity_x,velocity_y,stress_1,eps,damage,lx,ly
5.0015783e+0, 1.2370883e+2, -1386812.3, -1741773.9, 17372.707, 0.005346802, -0.17729805, -1385964.0, 341674.0, 0.0026787815, 10.00297, 9.998377 
5.00131e+0, 1.3370603e+2, -1402495.8, -1888355.4, 34733.17, -0.02301058, -0.18656181, -1400025.3, 229645.38, 0.0015884349, 10.003036, 9.99666 
5.001268e+0, 1.4370477e+2, -1195135.1, -1486067.6, 22182.266, -0.010897078, -0.07168062, -1193453.6, 338231.75, 0.00071072456, 10.002712, 9.998898 
5.0013363e+0, 1.537049e+2, -1222591.1, -1412128.4, -32576.512, 0.047046266, -0.017741835, -1217148.4, 216532.58, 0.00020845665, 10.001692, 9.999226 
5.001148e+0, 1.6370364e+2, -1269818.8, -1505355.5, -26548.88, 0.052280236, -0.017167775, -1266863.4, 68827.98, 0.000030560015, 10.001217, 9.998144 
5.0005275e+0, 1.7369922e+2, -1129477.6, -1414247.9, -17924.578, -0.030202528, -0.28807774, -1128353.9, 109380.35, 0.0000010193884, 10.001625, 9.997899 
5.000354e+0, 1.8369697e+2, -1038553.8, -1359841.5, -12367.659, -0.054614317, -0.2840518, -1038078.44, 101681.34, 0.0, 10.00176, 9.997533 
5.0008905e+0, 1.9369826e+2, -1003428.25, -1308778.5, -7588.5244, 0.017411299, 0.06704206, -1003239.75, 38517.383, 0.0, 10.001397, 9.997389 
5.0010467e+0, 2.0369768e+2, -845456.2, -1030247.25, 5579.1733, 0.044751093, 0.21565074, -845287.94, 98478.11, 0.0, 10.001162, 9.998736 
5.0005263e+0, 2.1369381e+2, -742524.6, -915253.75, -17985.42, -0.0058162445, -0.09356725, -740671.75, 105124.39, 0.0, 10.00113, 9.998869 
5.000194e+0, 2.236911e+2, -742835.9, -956116.0, -20264.447, -0.024959618, -0.21266904, -740927.56, 6891.2207, 0.0, 10.000852, 9.99805 
5.0001925e+0, 2.3369016e+2, -758520.56, -935184.6, 5745.62, 0.009172899, -0.13356814, -758333.9, -108503.414, 0.0, 10.000165, 9.997853 
4.9999723e+0, 2.4368991e+2, -646184.9, -661549.1, 25061.646, 0.019034462, -0.006033225, -627654.44, -75819.16, 0.0, 9.999533, 9.999364 
4.999408e+0, 2.5369042e+2, -613882.1, -583234.7, -9376.822, -0.012519128, 0.059802473, -580593.44, -126760.984, 0.0, 9.999028, 9.999473 
4.9990445e+0, 2.636906e+2, -504230.16, -372690.97, -7785.8965, -0.029817544, 0.09148661, -372231.72, -16400.299, 0.000000019594776, 9.998652, 10.000422 
4.9990144e+0, 2.7369052e+2, -426360.66, -272652.25, 5045.5493, -0.023706166, -0.00059567596, -272486.8, -14657.164, 0.00000068486895, 9.998462, 10.000526 
4.9990225e+0, 2.8369176e+2, -355349.88, -169974.1, 9227.537, -0.009825445, 0.0633417, -169515.9, -9699.895, 0.0000056407102, 9.998204, 10.000679 
4.9990195e+0, 2.936933e+2, -304544.44, -96948.734, -16445.137, 0.005495113, 0.11690199, -95654.07, -33853.66, 0.00003698917, 9.997878, 10.000667 
4.9989882e+0, 3.0369067e+2, -275647.9, -122693.984, -20006.424, -0.0043056156, -0.18847996, -120120.445, -120120.445, 0.00018828975, 9.998019, 10.00009 
4.9989852e+0, 3.1368965e+2, -34352.168, 222824.45, -47782.668, -0.038425326, -0.32707274, 231415.36, 231415.36, 0.00054298295, 9.998643, 10.002175 
1.5004665e+1, 1.2370981e+2, -1354964.8, -1636249.1, 4912.6777, 0.011143106, -0.11391679, -1354879.0, 372750.6, 0.0025798043, 10.002827, 9.999178 
1.5003939e+1, 1.3370721e+2, -1352852.4, -1768362.8, 42805.97, -0.06817563, -0.16035423, -1348488.4, 281166.8, 0.0015331571, 10.002981, 9.9975195 
1.5003805e+1, 1.4370528e+2, -1269743.4, -1618443.8, -15593.548, -0.030774789, -0.123323016, -1269047.5, 262627.28, 0.0006843046, 10.002627, 9.998038 
1.5004e+1, 1.5370311e+2, -1314822.8, -1583595.9, -63526.453, 0.14063895, -0.16887212, -1300564.3, 133132.63, 0.00019662829, 10.001618, 9.99809 
1.5003465e+1, 1.637018e+2, -1271533.0, -1487995.4, -22835.146, 0.15947098, -0.11634987, -1269150.4, 66560.805, 0.00002664921, 10.001134, 9.998311 
1.5001611e+1, 1.7370123e+2, -1109706.4, -1358935.6, 4803.9463, -0.08875913, -0.020975413, -1109613.8, 128105.02, 0.00000066228677, 10.001567, 9.998317 
1.500103e+1, 1.8369974e+2, -1025225.06, -1304970.3, -26678.41, -0.16539471, 0.0138022555, -1022703.56, 117033.05, 0.0, 10.001658, 9.997961 
1.5002675e+1, 1.9369672e+2, -987131.7, -1252513.9, -14044.522, 0.052620146, -0.09302102, -986390.5, 55380.336, 0.0, 10.001308, 9.997823 
1.5003116e+1, 2.0369492e+2, -885459.0, -1084061.0, -1573.1691, 0.13364768, -0.07655243, -885446.56, 58344.125, 0.0, 10.001054, 9.998422 
1.5001561e+1, 2.1369511e+2, -789424.56, -982951.7, -11017.242, -0.018247858, 0.077783905, -788799.4, 56988.01, 0.0, 10.001019, 9.998462 
1.5000564e+1, 2.236943e+2, -702837.0, -843913.44, -49878.297, -0.07468235, 0.13232829, -686983.8, 60809.85, 0.0, 10.000743, 9.998877 
1.5000555e+1, 2.3369181e+2, -703757.0, -792925.2, -13394.85, 0.026776964, -0.022091163, -701788.3, -51973.168, 0.0, 10.000058, 9.998884 
1.4999925e+1, 2.436898e+2, -695536.44, -744734.9, -677.7587, 0.05749516, -0.10703042, -695527.1, -143693.45, 0.0, 9.999456, 9.9988365 
1.499822e+1, 2.5368834e+2, -678982.0, -689522.4, -22239.8, -0.03786137, -0.15307973, -661396.5, -207547.28, 0.0, 9.998912, 9.998805 
1.4997137e+1, 2.636877e+2, -489006.53, -318898.1, -22541.467, -0.08955193, -0.18184829, -315961.75, 39892.574, 0.0000000045160005, 9.9985695, 10.000835 
1.4997062e+1, 2.7368882e+2, -404857.1, -202187.63, 2475.9563, -0.069704734, -0.19771121, -202157.38, 55681.918, 0.0000004592844, 9.998359, 10.001068 
1.4997038e+1, 2.8369042e+2, -395488.13, -230204.14, -7830.177, -0.031549808, -0.11027765, -229834.03, -70011.69, 0.00000436483, 9.998118, 10.000312 
1.4997056e+1, 2.9369152e+2, -356339.34, -172503.6, -17587.367, 0.015017638, -0.035821732, -170836.16, -109021.14, 0.000032381515, 9.997746, 10.000217 
1.4996976e+1, 3.0369034e+2, -329138.13, -200328.31, -2199.0066, -0.009555437, -0.14800754, -200290.78, -200290.78, 0.00017490126, 9.997913, 9.999614 
1.4996962e+1, 3.1369153e+2, -83841.195, 178042.5, -1483.0475, -0.11286365, 0.00806888, 178050.89, 178050.89, 0.0005127624, 9.9984255, 10.001981 
2.500762e+1, 1.2370986e+2, -1239096.9, -1557116.4, -46883.77, -0.0049164025, -0.062287588, -1232329.1, 495301.97, 0.002463855, 10.003522, 9.999383 
2.500704e+1, 1.337074e+2, -1395769.8, -1759161.5, -65339.715, -0.031055124, -0.12478273, -1384378.4, 245274.42, 0.0014644569, 10.002564, 9.997784 
2.50067e+1, 1.4370513e+2, -1352579.9, -1694021.0, -98135.69, 0.020615999, -0.124526635, -1326383.9, 205290.84, 0.00064927345, 10.002225, 9.997701 
2.500608e+1, 1.537018e+2, -1151223.4, -1558247.4, -99951.484, 0.12262785, -0.24751239, -1128003.4, 305705.56, 0.0001814002, 10.002979, 9.9976 
2.5005087e+1, 1.6370034e+2, -990368.44, -1329700.8, -17315.656, 0.11970595, -0.18751879, -989487.1, 346238.28, 0.000022322774, 10.002981, 9.998494 
2.5003493e+1, 1.7370144e+2, -1076574.4, -1309152.1, -4582.3677, -0.059526056, 0.037832327, -1076484.1, 161234.38, 0.00000035252413, 10.001671, 9.998592 
2.500296e+1, 1.8370068e+2, -1097037.5, -1311104.9, -14024.86, -0.104009956, 0.12126233, -1096122.5, 43606.234, 0.0, 10.001036, 9.998216 
2.500428e+1, 1.9369704e+2, -951756.06, -1203864.8, -15174.014, 0.07970495, -0.07897705, -950846.06, 90920.35, 0.0, 10.00142, 9.998094 
2.500435e+1, 2.0369484e+2, -849411.25, -1082229.4, 831.8105, 0.13932116, -0.113369636, -849408.3, 94381.0, 0.0, 10.001357, 9.998288 
2.5002366e+1, 2.1369493e+2, -890328.3, -1056256.6, 1063.8531, -0.0067410567, 0.044613484, -890321.44, -44532.406, 0.0, 10.000423, 9.998244 
2.5001037e+1, 2.2369438e+2, -788839.9, -847132.5, -12411.369, -0.06064949, 0.12368699, -786307.4, -38513.848, 0.0, 9.999974, 9.99922 
2.500085e+1, 2.3369277e+2, -643197.5, -720162.9, -22555.488, 0.04212008, 0.0071676285, -637074.5, 12731.065, 0.0, 10.000275, 9.999275 
2.5000036e+1, 2.43691e+2, -586005.94, -699577.0, -13379.121, 0.085848205, -0.07206419, -584451.06, -32630.205, 0.0, 10.00025, 9.9987545 
2.4998163e+1, 2.5368875e+2, -581031.1, -661724.7, -2174.8604, 0.030913886, -0.18403685, -580972.56, -127129.0, 0.0, 9.999671, 9.998622 
2.499658e+1, 2.6368767e+2, -430445.75, -320723.44, 23723.08, -0.026101757, -0.23546666, -315813.94, 40039.207, 0.00000000030772893, 9.99911, 10.000555 
2.4995525e+1, 2.7368876e+2, -388011.6, -226019.42, -21301.4, -0.06904421, -0.22646284, -223265.2, 34573.395, 0.000000332103, 9.998624, 10.000767 
2.4994953e+1, 2.8369e+2, -393862.25, -265074.1, -43857.426, -0.056302264, -0.14431557, -251557.52, -91732.04, 0.000003312623, 9.99828, 9.999991 
2.499524e+1, 2.9369062e+2, -330196.44, -194247.78, -47840.125, 0.04691187, -0.09490647, -179100.6, -117277.09, 0.000027299557, 9.998084, 9.999901 
2.4995348e+1, 3.0369028e+2, -375267.3, -276594.44, 12506.105, 0.046621505, -0.07797091, -275034.03, -275034.03, 0.00015832737, 9.997839, 9.999128 
2.4995176e+1, 3.1369084e+2, -234752.03, 95729.65, -11937.392, -0.07434154, 0.0527728, 96160.28, 96160.28, 0.0004751241, 9.997459, 10.001866 
3.5010356e+1, 1.2370882e+2, -1271177.9, -1600922.3, -99389.76, -0.11667273, -0.053879056, -1243537.3, 484106.34, 0.0023399154, 10.00344, 9.999119 
3.5010418e+1, 1.3370664e+2, -1404128.0, -1768362.9, -97610.67, 0.03304082, -0.06889284, -1379618.8, 250044.6, 0.0013870678, 10.002549, 9.997723 
3.500975e+1, 1.4370425e+2, -1337556.0, -1654707.9, -83678.97, 0.08374517, -0.089063965, -1316831.9, 214853.95, 0.00060858665, 10.002188, 9.997989 
3.5007384e+1, 1.5370096e+2, -1128000.8, -1502923.5, -63341.566, -0.06405805, -0.242979, -1117588.6, 316128.47, 0.00016439817, 10.0029545, 9.997989 
3.5005927e+1, 1.636993e+2, -972729.9, -1286615.3, -63923.023, -0.112057865, -0.24211946, -960211.2, 375523.03, 0.000017966355, 10.002949, 9.998812 
3.5006037e+1, 1.7369965e+2, -1059146.0, -1269618.8, -48408.54, 0.011020662, -0.11337845, -1048546.0, 189188.66, 0.00000014192928, 10.001654, 9.998878 
3.5005978e+1, 1.8369967e+2, -1089045.5, -1277661.9, -11866.557, 0.07881078, 0.019775573, -1088301.9, 51435.742, 0.0, 10.000969, 9.998474 
3.500554e+1, 1.936991e+2, -941596.44, -1170610.0, 7433.322, 0.046389177, 0.10791182, -941355.44, 100389.44, 0.0, 10.001366, 9.998349 
3.5004586e+1, 2.0369731e+2, -849004.5, -1056552.1, -35379.957, 0.01377479, 0.08680265, -843139.2, 100624.03, 0.0, 10.001262, 9.998508 
3.500279e+1, 2.1369325e+2, -888286.8, -1028918.3, -27817.55, -0.021877125, -0.18510273, -882984.3, -37183.066, 0.0, 10.000332, 9.998474 
3.500148e+1, 2.2369136e+2, -803467.9, -852068.7, -11981.844, -0.029379172, -0.25289813, -800674.5, -52855.9, 0.0, 9.999871, 9.999235 
3.5000905e+1, 2.3369305e+2, -656477.2, -723937.7, -4703.55, 0.0044465843, -0.033352263, -656150.8, -6349.494, 0.0, 10.000178, 9.999295 
3.500016e+1, 2.4369352e+2, -567413.4, -644033.56, -37573.836, 0.059582774, 0.09115848, -552062.94, -266.1, 0.0, 10.000176, 9.999173 
3.4999087e+1, 2.5369173e+2, -560051.75, -595556.44, -18017.004, 0.1401857, -0.01988609, -552510.7, -98695.48, 0.0, 9.999578, 9.999119 
3.4997275e+1, 2.6369053e+2, -495808.84, -448686.06, -1859.9258, 0.11773794, -0.0755125, -448612.75, -92785.54, 0.00000000006499392, 9.999072, 9.999699 
3.4994206e+1, 2.736904e+2, -471952.9, -382975.4, -32470.133, -0.08116149, -0.079958126, -372386.4, -114559.164, 0.0000002836276, 9.998546, 9.99973 
3.4992608e+1, 2.836905e+2, -414173.63, -289710.53, -59015.117, -0.13482982, -0.04339761, -266177.6, -106352.1, 0.000002745044, 9.998214, 9.999852 
3.499342e+1, 2.936905e+2, -343853.72, -203967.72, -48725.066, 0.038281202, -0.052121397, -188668.97, -126842.79, 0.000022379118, 9.998009, 9.999872 
3.4993884e+1, 3.0369034e+2, -401694.66, -331567.3, -5584.5586, 0.10123719, -0.00059578975, -331125.38, -331125.38, 0.00013928866, 9.997824, 9.998761 
3.4993306e+1, 3.136875e+2, -240808.69, 85464.17, -15374.251, -0.042718843, -0.16589439, 86187.016, 86187.016, 0.00043208257, 9.997427, 10.001821 
4.501363e+1, 1.237076e+2, -1447000.0, -1726669.6, -7838.9673, -0.067260794, -0.13688986, -1446780.5, 280871.25, 0.0022152015, 10.002434, 9.998727 
4.5013696e+1, 1.337057e+2, -1260749.4, -1732601.8, -56530.01, 0.058835227, -0.0945029, -1254071.3, 375600.5, 0.0013074038, 10.003689, 9.997417 
4.501283e+1, 1.4370343e+2, -1088191.5, -1494316.9, -58119.758, 0.104641944, -0.09925319, -1080037.8, 451656.72, 0.0005675109, 10.003718, 9.998365 
4.5009643e+1, 1.5370105e+2, -1262407.0, -1517042.3, -47070.156, -0.06888795, -0.20470525, -1253984.5, 179731.58, 0.00014805637, 10.0018015, 9.998461 
4.5007783e+1, 1.6369966e+2, -1245530.4, -1411391.8, -19760.234, -0.120371826, -0.20515394, -1243208.6, 92521.18, 0.000013959289, 10.00105, 9.998871 
4.5008236e+1, 1.7369922e+2, -970234.6, -1227678.9, -37452.48, 0.040081374, -0.15588082, -964896.8, 272840.63, 0.000000037538413, 10.002264, 9.998876 
4.500803e+1, 1.8369891e+2, -839655.75, -1125265.8, -13756.145, 0.11409767, -0.066407, -838994.7, 300748.0, 0.0, 10.002538, 9.998773 
4.500663e+1, 1.9369902e+2, -948923.4, -1134671.4, 195.53337, 0.035600867, 0.051835902, -948923.2, 92819.19, 0.0, 10.001148, 9.998703 
4.5005208e+1, 2.0369771e+2, -960174.06, -1100210.4, -21235.56, -0.0034128004, 0.05783394, -957024.6, -13269.015, 0.0, 10.000447, 9.998606 
4.5003852e+1, 2.1369392e+2, -815669.5, -988333.5, -35269.0, 0.03434704, -0.19421902, -808743.2, 37049.71, 0.0, 10.000798, 9.998531 
4.5002556e+1, 2.2369199e+2, -645625.06, -782752.4, -433.28452, 0.041378807, -0.26627108, -645623.7, 102188.164, 0.0, 10.00099, 9.999173 
4.500132e+1, 2.3369311e+2, -559812.0, -687663.1, -8608.976, -0.0019851632, -0.092596084, -559234.94, 90565.484, 0.0, 10.000892, 9.999203 
4.499992e+1, 2.4369377e+2, -513730.28, -576356.4, -66284.5, 0.014117217, 0.039255045, -471734.8, 80059.61, 0.0, 10.000372, 9.999539 
4.499822e+1, 2.536933e+2, -589371.8, -566512.56, -67790.93, 0.11951946, 0.018743634, -509194.47, -55394.176, 0.0, 9.999186, 9.99951 
4.4996047e+1, 2.6369277e+2, -588591.94, -510166.84, 4629.9805, 0.12024363, 0.016137678, -509894.47, -154088.53, 0.00000000016705606, 9.998514, 9.999542 
4.4993174e+1, 2.7369225e+2, -461075.0, -407244.5, 26658.871, -0.042790335, -0.0040154215, -396276.7, -138466.45, 0.00000025698242, 9.998749, 9.999469 
4.4991454e+1, 2.8369153e+2, -350356.1, -288486.7, 41827.977, -0.09413955, -0.025102139, -267397.0, -107580.6, 0.0000023157831, 9.998784, 9.99959 
4.4991547e+1, 2.9369038e+2, -289702.6, -210448.7, 17430.37, 0.029778408, -0.12193017, -206784.63, -144957.3, 0.000017842196, 9.9985285, 9.9995775 
4.4991794e+1, 3.036906e+2, -380271.13, -357003.94, 56521.25, 0.100589655, 0.0028334048, -310931.44, -310931.44, 0.0001190779, 9.998117, 9.998445 
4.4991654e+1, 3.136874e+2, -243983.86, 80454.52, 35670.184, 0.058529, -0.17115064, 84329.97, 84329.97, 0.00038609168, 9.9974165, 10.00179 
5.5016685e+1, 1.23706475e+2, -1479783.5, -1826928.0, 18653.908, -0.05597292, -0.29980892, -1478784.0, 248868.81, 0.0020889265, 10.002549, 9.997992 
5.5016625e+1, 1.3370457e+2, -1292584.8, -1818324.6, -3101.7654, -0.043193486, -0.19752744, -1292566.4, 337111.47, 0.0012257147, 10.003761, 9.996798 
5.501581e+1, 1.4370266e+2, -1051839.1, -1427496.4, -122964.3, 0.00488432, -0.15213424, -1015168.7, 516532.13, 0.00052635325, 10.003751, 9.99881 
5.5012584e+1, 1.5370212e+2, -1218141.3, -1429686.3, -113933.54, 0.02211175, -0.13139182, -1168451.0, 265254.56, 0.00013276051, 10.0018215, 9.999051 
5.5010295e+1, 1.637015e+2, -1263487.1, -1445287.1, 4522.7373, 0.0063017835, -0.078125946, -1263374.6, 72337.25, 0.0000106646075, 10.001038, 9.998644 
5.50098e+1, 1.7370005e+2, -995754.4, -1278320.8, 15727.706, -0.049620625, -0.09507987, -994881.6, 242846.25, 0.000000007551507, 10.002255, 9.998531 
5.500892e+1, 1.8369845e+2, -819151.56, -1074256.5, -60634.566, -0.06869758, -0.13388382, -805473.06, 334271.0, 0.0, 10.002502, 9.999139 
5.500731e+1, 1.936967e+2, -919859.2, -1068153.0, -48602.17, -0.031199768, -0.24601042, -905349.8, 136409.39, 0.0, 10.001124, 9.99917 
5.5006015e+1, 2.0369601e+2, -967496.4, -1101823.0, -21714.031, 0.016409807, -0.20392807, -964073.5, -20306.658, 0.0, 10.000392, 9.998619 
5.5005276e+1, 2.1369691e+2, -827646.2, -1000456.6, -15511.297, 0.07788821, 0.017354522, -826264.94, 19499.22, 0.0, 10.000747, 9.998471 
5.500399e+1, 2.2369626e+2, -661611.5, -804618.56, -8221.074, 0.06767304, 0.08184472, -661140.5, 86632.84, 0.0, 10.00094, 9.999046 
5.50019e+1, 2.3369306e+2, -576837.1, -711233.1, -6140.4463, -0.05079918, -0.16453682, -576557.2, 73244.64, 0.0, 10.000839, 9.999064 
5.4999083e+1, 2.4369179e+2, -499714.84, -539000.7, -110431.1, -0.1251731, -0.22921884, -407193.28, 144620.14, 0.0, 10.000336, 9.999815 
5.499521e+1, 2.5369352e+2, -577725.94, -520370.63, -107019.06, -0.12059128, -0.06526905, -438253.5, 15545.03, 0.0, 9.999094, 9.999868 
5.49926e+1, 2.6369455e+2, -558358.4, -437524.0, 388.69284, -0.093752675, 0.043861195, -437522.75, -81734.11, 0.00000000012003064, 9.998472, 10.000061 
5.4992235e+1, 2.736943e+2, -431127.56, -331504.88, 41925.348, -0.029636377, -0.0029038393, -316209.34, -58421.367, 0.00000017731924, 9.998688, 10.00002 
5.499127e+1, 2.83693e+2, -382336.03, -349632.06, 26877.063, -0.008421875, -0.09708364, -334523.53, -174724.48, 0.0000014956321, 9.998762, 9.999182 
5.498937e+1, 2.9369006e+2, -338155.25, -297544.56, 14804.183, -0.062339857, -0.31082156, -292720.8, -230892.92, 0.000012909044, 9.998465, 9.999013 
5.498883e+1, 3.0369103e+2, -399777.38, -382842.13, 27188.973, -0.025278835, -0.07562007, -362832.72, -362832.72, 0.00009809619, 9.998065, 9.998291 
5.498967e+1, 3.136905e+2, -253034.1, 78846.445, 31798.527, 0.08164402, 0.026597666, 81865.695, 81865.695, 0.00033776127, 9.997348, 10.001808 
6.502077e+1, 1.237064e+2, -1201572.0, -1667556.4, -44113.406, 0.017503513, -0.28984988, -1197432.6, 530222.75, 0.001962876, 10.004343, 9.998229 
6.501971e+1, 1.3370469e+2, -1511622.3, -1867269.3, -9062.605, -0.016610207, -0.21354356, -1511391.4, 118284.54, 0.0011414998, 10.002, 9.997314 
6.501847e+1, 1.4370273e+2, -1439188.4, -1626916.4, -60229.855, 0.031437635, -0.19873981, -1421526.3, 110172.5, 0.0004823892, 10.00116, 9.99868 
6.501539e+1, 1.5370262e+2, -1035864.44, -1366979.4, -120567.45, 0.0577868, -0.11190265, -996615.2, 437086.72, 0.00011742101, 10.003189, 9.998815 
6.50129e+1, 1.6370219e+2, -893513.6, -1263229.5, -38997.734, 0.041843366, -0.028168552, -889444.9, 446262.44, 0.000008467286, 10.003561, 9.998674 
6.50116e+1, 1.7370063e+2, -1160783.8, -1349543.5, -11263.048, -0.03121646, -0.064533755, -1160114.0, 77608.74, 0.000000004638606, 10.001093, 9.998597 
6.501017e+1, 1.8369877e+2, -1190026.4, -1242523.4, -51933.242, -0.059515554, -0.13481379, -1158085.1, -18344.547, 0.0, 9.999916, 9.999228 
6.5008414e+1, 1.9369653e+2, -948137.94, -1071036.4, -77116.67, -0.016503688, -0.30497965, -910981.94, 130779.28, 0.0, 10.00088, 9.99927 
6.5006936e+1, 2.036961e+2, -808059.1, -979636.56, -41083.87, 0.028547429, -0.2630306, -798729.06, 145037.9, 0.0, 10.00129, 9.999024 
6.50059e+1, 2.1369854e+2, -807602.06, -939913.56, -7707.412, 0.074135065, 0.06796392, -807154.6, 38594.273, 0.0, 10.000669, 9.998924 
6.5004385e+1, 2.2369866e+2, -786467.1, -843435.44, 31210.436, 0.066236496, 0.17696382, -772696.8, -24946.463, 0.0, 9.999987, 9.999245 
6.500212e+1, 2.3369494e+2, -804889.75, -803462.3, 41198.1, -0.025729185, -0.13696058, -762971.75, -113187.445, 0.0, 9.99919, 9.999233 
6.499897e+1, 2.4369328e+2, -689324.75, -622970.7, -39002.11, -0.09820793, -0.25122333, -604943.44, -53143.805, 0.0, 9.998989, 9.999901 
6.4994437e+1, 2.5369504e+2, -478105.97, -463586.0, -67409.48, -0.13311455, -0.09049693, -403046.7, 50737.13, 0.0, 9.999737, 9.99996 
6.499149e+1, 2.6369616e+2, -377762.16, -354174.63, 14029.337, -0.10908816, 0.025567766, -347640.4, 8132.3877, 0.00000000000043891748, 9.999722, 10.000038 
6.499126e+1, 2.7369604e+2, -464062.22, -348335.53, -1398.5305, 0.020100696, -0.005872403, -348318.63, -90547.33, 0.00000007111923, 9.998472, 10.000004 
6.4990133e+1, 2.836948e+2, -497179.78, -376346.16, 12444.252, 0.053141877, -0.105171114, -375077.9, -215296.11, 0.00000065443334, 9.997846, 9.999438 
6.498767e+1, 2.9369196e+2, -358871.94, -270289.4, 54307.434, -0.056463923, -0.3413545, -244502.05, -182693.25, 0.000008482825, 9.998163, 9.999343 
6.4986527e+1, 3.036935e+2, -387707.06, -324334.53, 108617.66, -0.047795285, -0.08996549, -242875.7, -242875.7, 0.00007932554, 9.99792, 9.998764 
6.4986753e+1, 3.136942e+2, -309343.22, 70494.97, 131323.23, 0.088679954, 0.09149135, 111476.4, 111476.4, 0.00029245962, 9.996874, 10.00199 
7.502543e+1, 1.2370722e+2, -1094504.8, -1461089.6, -147278.86, 0.006020722, -0.10647073, -1042664.9, 684996.0, 0.0018397092, 10.004408, 9.999618 
7.5022614e+1, 1.3370603e+2, -1388538.6, -1623825.1, -97466.47, 0.052537177, -0.14299166, -1353408.6, 276257.4, 0.0010576755, 10.002053, 9.99896 
7.5020456e+1, 1.4370365e+2, -1480716.4, -1722597.9, -11475.837, 0.09077416, -0.23399946, -1480173.1, 51515.047, 0.00043753645, 10.0012, 9.998006 
7.5017786e+1, 1.5370253e+2, -1107349.8, -1521211.5, -35477.04, -0.04304716, -0.14649647, -1104330.6, 329374.66, 0.00010224, 10.003212, 9.997748 
7.5015336e+1, 1.637018e+2, -874394.1, -1220618.1, -115776.08, -0.0904066, -0.04675799, -839247.0, 496468.72, 0.000007138289, 10.003548, 9.998975 
7.501343e+1, 1.7370097e+2, -1123485.1, -1275537.8, -100759.88, 0.020849826, -0.059505414, -1073287.3, 164434.86, 0.00000003688298, 10.001105, 9.999101 
7.501155e+1, 1.836999e+2, -1201765.6, -1267967.0, -37150.543, 0.068774484, -0.07239892, -1185108.8, -45376.176, 0.0, 9.999918, 9.999054 
7.500969e+1, 1.9369847e+2, -971477.8, -1115510.8, -33432.402, 0.004833045, -0.13479546, -964095.94, 77653.41, 0.0, 10.000862, 9.998977 
7.500772e+1, 2.0369795e+2, -760764.9, -869199.56, -61546.95, -0.03773273, -0.11735181, -732960.56, 210795.25, 0.0, 10.001242, 9.9998045 
7.500554e+1, 2.136988e+2, -748977.9, -806455.25, -25744.443, -0.04663685, -0.03991682, -739133.06, 106613.6, 0.0, 10.000616, 9.999866 
7.500349e+1, 2.2369918e+2, -759331.75, -775432.2, -2620.3833, -0.037035424, 0.019498067, -758916.06, -11173.326, 0.0, 9.999935, 9.999736 
7.500172e+1, 2.3369868e+2, -784672.25, -748726.2, 18593.045, -0.0005927038, -0.017872952, -740839.4, -91090.984, 0.0, 9.999129, 9.9996395 
7.4999243e+1, 2.4369825e+2, -706797.3, -645815.94, -23026.838, 0.01670134, -0.028025663, -638097.75, -86344.81, 0.0, 9.998936, 9.999764 
7.4995714e+1, 2.536979e+2, -502529.34, -501572.8, -32959.6, 0.0048741815, -0.059013825, -469088.0, -15331.876, 0.0, 9.999678, 9.999727 
7.49925e+1, 2.6369765e+2, -422051.72, -435462.97, -28193.006, 0.004632336, -0.039952215, -399777.84, -44019.754, 0.0, 9.999678, 9.9995 
7.498994e+1, 2.7369756e+2, -516634.44, -443246.9, -39995.555, 0.022119312, -0.013949701, -425662.88, -167903.17, 0.000000009748358, 9.998407, 9.999385 
7.4987745e+1, 2.8369698e+2, -433182.3, -235671.56, 12645.701, 0.011838369, -0.05051125, -234865.2, -75101.164, 0.00000018808618, 9.997812, 10.000419 
7.498621e+1, 2.9369605e+2, -283147.56, -99176.0, 72397.414, -0.037239913, -0.21993522, -74102.95, -12333.098, 0.000005696117, 9.998097, 10.000553 
7.498469e+1, 3.0369794e+2, -321471.38, -178364.19, 73973.1, -0.039883018, -0.046410087, -147000.66, -147000.66, 0.00006525944, 9.997887, 9.999778 
7.498246e+1, 3.136982e+2, -302836.22, 112031.66, 111358.18, -0.06029749, -0.0073279412, 140032.38, 140032.38, 0.00025509726, 9.996753, 10.00233 
8.5029906e+1, 1.23710215e+2, -1395383.0, -1628384.8, 89555.37, 0.11922864, -0.02268705, -1364939.6, 362694.84, 0.0017202923, 10.002444, 9.999406 
8.5025615e+1, 1.3370858e+2, -1106454.9, -1488573.5, -12222.525, 0.055692524, -0.098718196, -1106064.3, 523578.5, 0.000979446, 10.004006, 9.998942 
8.5022837e+1, 1.437055e+2, -1030223.4, -1534754.9, 53090.688, 0.05238049, -0.24761198, -1024697.3, 506973.47, 0.0003977733, 10.004412, 9.997753 
8.5020745e+1, 1.5370405e+2, -1158831.4, -1576338.3, 76789.19, -0.05210201, -0.16700433, -1145156.0, 288534.6, 0.000088897265, 10.002991, 9.997476 
8.501821e+1, 1.6370319e+2, -1077103.6, -1305589.3, -14396.282, -0.08035566, -0.067853175, -1076200.1, 259501.92, 0.000006071428, 10.002104, 9.999088 
8.5015076e+1, 1.7370261e+2, -965637.06, -1179143.1, -42265.01, 0.029487077, -0.072092935, -957574.9, 280131.63, 0.000000076650345, 10.0021, 9.999286 
8.501247e+1, 1.8370196e+2, -952549.4, -1169804.6, 54612.996, 0.08267042, -0.042830903, -939593.56, 200120.19, 0.0, 10.001728, 9.998857 
8.501084e+1, 1.937014e+2, -1011475.7, -1161030.3, 56585.7, 0.04605445, 0.008060919, -992478.9, 49245.06, 0.0, 10.000709, 9.9987335 
8.5008734e+1, 2.0370078e+2, -920635.6, -934194.7, 8316.046, 0.0016288835, 0.021995872, -916685.8, 27046.125, 0.0, 10.000081, 9.999925 
8.5005784e+1, 2.1369994e+2, -823617.5, -822925.25, -27666.133, -0.04860004, -0.08429567, -795603.06, 50133.957, 0.0, 10.000015, 10.000048 
8.500315e+1, 2.2369999e+2, -757822.2, -728516.1, -43151.0, -0.05194822, -0.08609573, -697598.1, 50137.08, 0.0, 9.999751, 10.000142 
8.500108e+1, 2.3370147e+2, -754659.75, -685163.5, -36975.336, 0.026589535, 0.032366868, -669171.06, -19448.947, 0.0, 9.999131, 10.00007 
8.4998673e+1, 2.437018e+2, -699313.06, -639928.6, -14706.577, 0.06758082, 0.07540717, -636486.06, -84767.04, 0.0, 9.998975, 9.9997835 
8.4995794e+1, 2.537003e+2, -520079.1, -511349.84, -14824.13, 0.05529484, -0.067426495, -500261.16, -46528.918, 0.0, 9.999573, 9.999704 
8.499251e+1, 2.6369953e+2, -404858.06, -452123.97, -27950.703, 0.031120915, -0.09566101, -391888.3, -36148.668, 0.0, 9.999892, 9.999289 
8.498868e+1, 2.7369973e+2, -349397.25, -389396.78, -33236.902, -0.002323494, -0.009561212, -330606.78, -72867.42, 0.0, 9.999662, 9.999155 
8.4985787e+1, 2.836996e+2, -266528.25, -158904.89, 21332.762, -0.017964315, 0.012260441, -154830.61, 4909.966, 0.000000024133003, 9.998963, 10.000398 
8.498447e+1, 2.936992e+2, -359326.13, -129662.65, -19766.477, 0.0117571065, -0.1026697, -127973.83, -66232.53, 0.0000041706858, 9.997548, 10.000608 
8.4982467e+1, 3.0370066e+2, -454595.22, -165703.94, -66414.95, 0.017661208, -0.012340582, -151166.9, -151166.9, 0.00005536609, 9.996631, 10.000474 
8.4978795e+1, 3.137007e+2, -362461.7, 72001.31, -67529.5, -0.074443184, -0.06959485, 82255.55, 82255.55, 0.00022562832, 9.996383, 10.002226 
9.503379e+1, 1.2371547e+2, -1523476.8, -1897420.9, 129449.35, 0.223236, -0.02449075, -1483038.0, 244537.05, 0.0016119159, 10.0024605, 9.997547 
9.502833e+1, 1.3371232e+2, -1221172.8, -1739376.9, 50086.68, -0.09192556, -0.081903145, -1216376.1, 413230.47, 0.0009129297, 10.004058, 9.997194 
9.50253e+1, 1.4370826e+2, -1013085.9, -1503002.8, 7947.217, -0.16070163, -0.2401936, -1012957.0, 518689.78, 0.00036647206, 10.00443, 9.99796 
9.502409e+1, 1.537071e+2, -1122007.8, -1504526.8, 28453.508, -0.038209725, -0.17530143, -1119902.9, 313755.3, 0.00007896108, 10.003012, 9.997956 
9.5021385e+1, 1.6370639e+2, -1084564.8, -1320801.0, -27881.354, 0.009284755, -0.08568021, -1081318.6, 254347.4, 0.000005121987, 10.0021, 9.998985 
9.501628e+1, 1.737055e+2, -977705.4, -1204973.9, -36976.875, -0.07741688, -0.10294874, -971840.5, 265835.72, 0.00000007826353, 10.002102, 9.999106 
9.50127e+1, 1.83705e+2, -973837.44, -1208436.0, 15864.006, -0.0810588, -0.039660256, -972769.56, 166914.34, 0.0, 10.001703, 9.998604 
9.501163e+1, 1.9370529e+2, -1031892.8, -1197533.4, 24475.791, 0.03514326, 0.11935098, -1028351.9, 13333.61, 0.0, 10.000684, 9.998494 
9.5009744e+1, 2.0370454e+2, -965039.6, -1016911.06, -4108.6855, 0.079021275, 0.15721019, -964716.2, -21020.77, 0.0, 10.000039, 9.999377 
9.5006394e+1, 2.1370183e+2, -871216.44, -913735.4, -21810.252, -0.006159955, -0.07666242, -862018.5, -16297.635, 0.0, 9.999976, 9.999445 
9.500312e+1, 2.2370099e+2, -749108.5, -696622.1, -68563.055, -0.045903996, -0.14476147, -649451.44, 98277.016, 0.0, 9.999693, 10.000388 
9.4999987e+1, 2.3370312e+2, -735351.4, -632721.4, -55150.355, -0.012836579, 0.00059347367, -608705.2, 41001.92, 0.0, 9.999074, 10.000458 
9.499705e+1, 2.4370387e+2, -694140.94, -613549.94, -3905.1213, -0.0063430686, 0.052390207, -613361.1, -61662.5, 0.0, 9.998913, 9.999991 
9.4994456e+1, 2.5370222e+2, -516469.9, -492169.2, 15503.541, -0.05247761, -0.123036034, -484622.06, -30909.547, 0.0, 9.999519, 9.999863 
9.499128e+1, 2.6370156e+2, -406156.94, -444552.25, -37648.57, -0.09451736, -0.14867413, -383093.9, -27375.635, 0.0, 9.99985, 9.999358 
9.498725e+1, 2.7370247e+2, -353526.88, -382364.72, -35150.457, -0.12766066, -0.0029085856, -329952.9, -72241.28, 0.0, 9.999594, 9.999236 
9.498406e+1, 2.8370264e+2, -342134.88, -306321.3, -32587.441, -0.10311719, 0.0814707, -287044.84, -127332.9, 0.000000004406078, 9.998926, 9.999399 
9.498217e+1, 2.937015e+2, -452809.5, -304932.16, -64091.957, 0.008723124, 0.009250497, -281020.38, -219297.2, 0.0000031909003, 9.997467, 9.999443 
9.497958e+1, 3.037017e+2, -429194.72, -105712.72, -83394.805, 0.049697496, 0.015949575, -85478.87, -85478.87, 0.000047523536, 9.9966, 10.000898 
9.4975203e+1, 3.1370178e+2, -421382.06, -23465.586, -51036.25, -0.108709335, -0.08769959, -17024.02, -17024.02, 0.00020078661, 9.996267, 10.001626 
1.05038546e+2, 1.23717844e+2, -1282423.9, -1888557.6, -7168.264, 0.35644758, -0.091008425, -1282339.1, 445210.6, 0.0015258732, 10.00455, 9.99661 
1.05032235e+2, 1.3371523e+2, -1285490.8, -1857175.1, -37861.64, -0.09686537, -0.017658155, -1282994.1, 346587.8, 0.00086255383, 10.003969, 9.996435 
1.0502877e+2, 1.4371127e+2, -1155576.0, -1518549.3, -69556.13, -0.19297037, -0.14286031, -1142703.6, 388919.25, 0.00034425873, 10.003232, 9.998426 
1.0502747e+2, 1.5370992e+2, -1171834.8, -1464322.0, -61028.14, 0.035260078, -0.1570404, -1159611.9, 274020.28, 0.00007295785, 10.002394, 9.998535 
1.0502424e+2, 1.6370906e+2, -1120474.9, -1359241.0, -60940.883, 0.09571132, -0.103623904, -1105820.3, 229818.98, 0.0000044141693, 10.001954, 9.998786 
1.05018124e+2, 1.7370829e+2, -996796.06, -1252756.1, -88999.97, -0.100930065, -0.080342025, -968891.9, 268758.4, 0.000000050630582, 10.002149, 9.998751 
1.0501383e+2, 1.8370755e+2, -899235.0, -1145686.6, -46009.78, -0.15514325, -0.029541096, -890925.6, 248734.33, 0.0, 10.002093, 9.998844 
1.0501243e+2, 1.9370712e+2, -895490.75, -1096536.8, -12151.165, 0.01244913, 0.023023658, -894759.0, 146906.45, 0.0, 10.001461, 9.998812 
1.0501025e+2, 2.0370637e+2, -870651.25, -976089.56, 21050.22, 0.09629767, 0.047420647, -866604.0, 77070.14, 0.0, 10.000719, 9.999325 
1.050068e+2, 2.1370496e+2, -914980.3, -945320.2, 27861.322, 0.05307752, -0.047957875, -898426.75, -52737.008, 0.0, 9.999733, 9.999339 
1.0500315e+2, 2.2370446e+2, -821293.44, -757464.9, 11461.136, 0.011021075, -0.06447605, -755469.3, -7773.7407, 0.0, 9.999305, 10.000164 
1.0499928e+2, 2.3370549e+2, -652256.8, -618830.7, -29751.006, -0.01974745, -0.00406161, -601419.7, 48265.434, 0.0, 9.999761, 10.000225 
1.049959e+2, 2.4370578e+2, -576472.9, -559978.5, -4758.5015, -0.050880287, 0.016745439, -558704.1, -7022.707, 0.0, 9.999735, 9.999963 
1.0499336e+2, 2.5370476e+2, -610490.6, -537192.5, -12320.215, -0.07807788, -0.09542515, -535177.1, -81487.25, 0.0, 9.99888, 9.999859 
1.04990266e+2, 2.6370436e+2, -563061.2, -492168.84, -42213.17, -0.117344886, -0.10711145, -472493.47, -116800.59, 0.0, 9.998656, 9.999603 
1.0498642e+2, 2.7370498e+2, -348739.94, -349491.4, -34949.96, -0.16103505, -0.01854579, -314163.7, -56476.555, 0.0, 9.999494, 9.999511 
1.0498298e+2, 2.8370485e+2, -286196.53, -330376.78, -49415.19, -0.12878641, 0.04401228, -254158.72, -94469.19, 0.0000000012345152, 9.999518, 9.998958 
1.0498011e+2, 2.9370344e+2, -377957.2, -323540.3, -58191.113, 0.024153827, -0.0073192394, -286510.88, -224805.52, 0.0000025074758, 9.998208, 9.998962 
1.0497645e+2, 3.0370355e+2, -352518.8, -56761.617, -17706.13, 0.059557136, 0.011715328, -55705.375, -55705.375, 0.000040782536, 9.997078, 10.00101 
1.0497142e+2, 3.137047e+2, -488573.4, -140736.3, -27742.629, -0.10287622, 0.00806576, -138537.52, -138537.52, 0.0001788825, 9.996175, 10.000871 
1.15043625e+2, 1.237172e+2, -1276040.4, -1891757.9, -49557.34, 0.36477098, -0.23113757, -1272077.1, 455482.47, 0.0014675308, 10.00462, 9.996555 
1.1503714e+2, 1.3371722e+2, -1263098.8, -1817050.8, -58750.95, -0.022657886, 0.0860596, -1256936.3, 372633.66, 0.0008305489, 10.004002, 9.996692 
1.15033105e+2, 1.4371456e+2, -1110028.1, -1423145.4, -106487.95, -0.10120729, 0.046487708, -1077245.1, 454354.22, 0.00033210375, 10.003224, 9.999087 
1.150305e+2, 1.5371248e+2, -1114766.9, -1353306.1, -83078.16, 0.07894876, -0.11370593, -1088684.4, 344927.75, 0.00007103606, 10.002429, 9.999277 
1.1502651e+2, 1.6371126e+2, -1144165.3, -1414659.5, -63585.348, 0.10946814, -0.12179219, -1129963.9, 205657.08, 0.0000041839003, 10.001971, 9.998404 
1.1502045e+2, 1.7371088e+2, -1029211.94, -1325359.8, -75536.6, -0.10259686, -0.007902952, -1011058.1, 226570.83, 0.000000024917117, 10.002169, 9.998244 
1.1501571e+2, 1.8370959e+2, -854837.3, -1043349.0, -69932.836, -0.19341572, -0.01542915, -831727.2, 307915.1, 0.0, 10.0020485, 9.999571 
1.1501297e+2, 1.9370688e+2, -834234.94, -963928.44, -31405.297, -0.09896387, -0.28055736, -827030.4, 214633.48, 0.0, 10.00144, 9.999732 
1.1501006e+2, 2.0370635e+2, -848639.5, -922608.44, -20959.393, -0.007929025, -0.30248514, -843113.44, 100554.25, 0.0, 10.00068, 9.999714 
1.1500675e+2, 2.1370926e+2, -898243.1, -899246.4, -4324.6943, 0.060642965, -0.0012200319, -894391.06, -48746.805, 0.0, 9.9996805, 9.999682 
1.1500306e+2, 2.2371037e+2, -879907.1, -866034.3, 16255.967, 0.05825244, 0.15580854, -855296.75, -107659.69, 0.0, 9.9992485, 9.999446 
1.1499873e+2, 2.337085e+2, -722385.25, -749296.94, -5550.652, -0.06677042, 0.011828402, -721285.4, -71628.51, 0.0, 9.999693, 9.999363 
1.1499502e+2, 2.437075e+2, -608098.0, -610208.56, -36633.684, -0.12676112, -0.03442917, -572504.4, -20836.635, 0.0, 9.999668, 9.999651 
1.1499227e+2, 2.537078e+2, -633747.3, -571780.5, -40925.465, -0.08955767, 0.008871106, -551432.94, -97767.805, 0.0, 9.998819, 9.999651 
1.14989296e+2, 2.6370776e+2, -537109.94, -432084.94, -24288.025, -0.094965786, 0.026814114, -426740.1, -71075.97, 0.0, 9.99863, 10.0000305 
1.14985965e+2, 2.7370718e+2, -323300.88, -283696.78, 4213.2676, -0.17221336, -0.056187473, -283253.53, -25587.21, 0.0, 9.9994335, 9.999996 
1.14982314e+2, 2.8370628e+2, -284813.1, -316397.88, -94130.87, -0.16159762, -0.10200599, -205159.06, -45485.53, 0.00000000007947066, 9.999477, 9.999071 
1.1497804e+2, 2.9370496e+2, -388443.97, -318052.1, -101603.16, -0.021006579, -0.14800127, -245721.5, -184033.34, 0.000001910546, 9.998097, 9.999052 
1.1497285e+2, 3.0370617e+2, -371649.16, -81901.67, -55264.125, -0.022258153, -0.01872188, -71718.89, -71718.89, 0.000034748213, 9.997028, 10.000854 
1.1496691e+2, 3.1370947e+2, -570967.94, -280135.84, -36312.85, -0.20611438, 0.21175359, -275670.44, -275670.44, 0.00015878698, 9.99605, 9.999969 
1.2504809e+2, 1.2371948e+2, -1221684.9, -1786836.0, 37483.656, 0.35052666, -0.21331993, -1219209.6, 508331.94, 0.0014351205, 10.00468, 9.997238 
1.2504141e+2, 1.3372038e+2, -1253594.1, -1708154.5, 53684.637, 0.029940633, 0.10071021, -1247340.0, 382200.5, 0.00081633194, 10.003622, 9.997624 
1.2503687e+2, 1.4371838e+2, -1165332.6, -1463766.9, 42886.324, -0.02411923, 0.0787198, -1159292.0, 372270.7, 0.00033045214, 10.002903, 9.998962 
1.2503323e+2, 1.5371633e+2, -1059473.9, -1363975.3, -25801.213, 0.08731823, -0.047630895, -1057303.1, 376274.63, 0.00007352079, 10.002962, 9.998947 
1.2502871e+2, 1.6371493e+2, -1049502.4, -1364644.8, -29968.133, 0.10311874, -0.056403086, -1046677.94, 288911.34, 0.0000047035833, 10.002598, 9.998448 
1.2502281e+2, 1.7371416e+2, -1125034.5, -1363596.4, -6344.7544, -0.04256575, 0.010313866, -1124865.9, 112733.86, 0.000000012759114, 10.001462, 9.998331 
1.2501778e+2, 1.837128e+2, -1046281.6, -1108477.6, 18204.29, -0.115283795, -0.018761097, -1041345.2, 98267.65, 0.0, 10.000627, 9.999805 
1.2501402e+2, 1.9371061e+2, -994010.5, -1016870.7, -4418.012, -0.07490618, -0.25232315, -993186.4, 48442.777, 0.0, 10.000242, 9.9999485 
1.2501028e+2, 2.0371033e+2, -903551.7, -929244.4, -12365.848, -0.027284903, -0.26976004, -898567.06, 45062.973, 0.0, 10.000217, 9.999887 
1.2500654e+2, 2.1371311e+2, -740560.8, -807289.8, -20322.314, 0.02564351, 0.0020948455, -734858.9, 110747.81, 0.0, 10.00069, 9.9998255 
1.2500267e+2, 2.2371401e+2, -686908.06, -794140.1, 23102.672, 0.028286759, 0.13773504, -682142.44, 65458.492, 0.0, 10.000664, 9.999253 
1.24998555e+2, 2.3371182e+2, -726754.0, -779551.7, 33424.44, -0.052537203, -0.0129464455, -710560.7, -60936.43, 0.0, 9.999788, 9.9991045 
1.24994874e+2, 2.4371086e+2, -652052.8, -625402.06, 50968.016, -0.08752038, -0.04350205, -586046.3, -34410.99, 0.0, 9.99934, 9.999705 
1.2499193e+2, 2.5371185e+2, -506238.7, -503362.34, 60584.824, -0.043625716, 0.059673652, -444198.63, 9428.136, 0.0, 9.999653, 9.999725 
1.249887e+2, 2.6371208e+2, -442754.1, -381057.53, 83761.664, -0.04591289, 0.09674661, -322644.22, 32979.504, 0.0, 9.999264, 10.000071 
1.2498509e+2, 2.7371097e+2, -563790.7, -392505.2, 62845.836, -0.115825884, -0.041034244, -371920.44, -114289.82, 0.0, 9.997771, 10.000038 
1.2498102e+2, 2.8370988e+2, -610059.2, -441427.8, -35909.457, -0.11486067, -0.12042676, -434099.5, -274460.34, 0.00000000021645001, 9.997111, 9.999349 
1.2497622e+2, 2.9370907e+2, -399937.47, -281930.34, -32466.154, 0.0054077636, -0.14712334, -273588.0, -211940.66, 0.0000014014497, 9.997845, 9.999417 
1.2497009e+2, 3.037107e+2, -266815.28, -70640.59, 5990.1533, -0.037688933, 0.01401521, -70457.86, -70457.86, 0.000028996776, 9.99789, 10.000533 
1.2496287e+2, 3.1371316e+2, -553549.0, -340572.16, -16769.305, -0.22493751, 0.20766449, -339259.88, -339259.88, 0.00013884061, 9.996453, 9.99937 
1.3505149e+2, 1.23724565e+2, -1128628.8, -1590180.1, -13024.202, 0.18470502, -0.04730642, -1128261.6, 599235.5, 0.0014284368, 10.004674, 9.9985895 
1.3504478e+2, 1.3372478e+2, -1128760.3, -1453912.6, 18608.336, -0.014323784, 0.031391583, -1127698.8, 501793.88, 0.000819765, 10.003658, 9.999345 
1.3503987e+2, 1.4372282e+2, -1230721.4, -1611656.1, 31718.229, -0.034943994, -0.03730393, -1228098.5, 303413.3, 0.00033887546, 10.002946, 9.997929 
1.350355e+2, 1.5372147e+2, -1159475.8, -1571398.5, -17228.563, -0.00037752555, 0.043301307, -1158756.5, 274772.4, 0.0000801792, 10.002959, 9.997524 
1.3503057e+2, 1.6372009e+2, -1024826.7, -1301653.5, -72249.88, 0.014253909, 0.097524814, -1007104.56, 328439.66, 0.0000062149566, 10.002553, 9.998899 
1.3502495e+2, 1.7371814e+2, -1075324.8, -1258114.0, -41011.29, 0.005699557, -0.023691317, -1066545.0, 171017.39, 0.000000017143847, 10.001464, 9.999048 
1.3501978e+2, 1.8371725e+2, -1069407.4, -1157705.3, -5847.461, 0.0038236864, -0.03144965, -1069021.9, 70548.9, 0.0, 10.000621, 9.999475 
1.3501526e+2, 1.937183e+2, -1027578.2, -1083054.9, -12094.219, 0.007905264, 0.10180816, -1025056.25, 16505.297, 0.0, 10.000225, 9.999502 
1.3501067e+2, 2.0371829e+2, -916662.25, -945570.5, -2766.2466, -0.023710614, 0.14206046, -916399.9, 27161.475, 0.0, 10.00017, 9.999801 
1.3500594e+2, 2.1371649e+2, -751800.56, -815044.3, 5528.8945, -0.12048221, -0.03945009, -751320.8, 94256.36, 0.0, 10.000627, 9.999803 
1.3500176e+2, 2.2371541e+2, -673920.75, -756337.6, -10413.052, -0.14390114, -0.114131, -672625.44, 74961.46, 0.0, 10.000611, 9.999541 
1.3499849e+2, 2.3371543e+2, -709119.6, -732219.0, 4805.0522, -0.05356193, -0.07970614, -708160.0, -58572.34, 0.0, 9.99974, 9.999453 
1.3499525e+2, 2.4371584e+2, -629614.9, -568540.5, 50918.836, 0.0011567324, -0.010019758, -539703.9, 11880.422, 0.0, 9.999296, 10.000117 
1.3499212e+2, 2.5371692e+2, -486475.06, -446566.72, 78772.09, -0.003617076, 0.05938293, -385260.75, 68313.57, 0.0, 9.999585, 10.000148 
1.3498828e+2, 2.637173e+2, -476790.16, -441324.1, 31148.12, -0.027913982, 0.1055892, -423214.9, -67643.97, 0.0, 9.999221, 9.999675 
1.349835e+2, 2.7371627e+2, -611579.44, -470827.4, 12714.6, -0.069438264, 0.027843233, -469688.1, -212107.33, 0.0, 9.9976845, 9.999541 
1.349789e+2, 2.8371555e+2, -578825.1, -366073.28, -25484.164, -0.05392573, -0.011477659, -363063.28, -203476.02, 0.000000004047862, 9.997069, 9.999887 
1.3497454e+2, 2.9371566e+2, -363284.75, -190518.66, 3552.5378, 0.034609605, -0.013993092, -190445.64, -128861.4, 0.0000011638989, 9.997776, 10.000082 
1.3496791e+2, 3.0371702e+2, -307628.06, -139608.36, -38859.754, -0.054963734, 0.10426428, -131056.15, -131056.15, 0.00002379093, 9.99783, 10.000083 
1.3495883e+2, 3.1371588e+2, -590601.44, -395607.78, -51133.72, -0.30739132, -0.0005131916, -383012.44, -383012.44, 0.00011909773, 9.996361, 9.999037 
1.450547e+2, 1.237296e+2, -1245767.4, -1659156.4, 90645.24, 0.08883526, -0.030652313, -1226764.8, 500682.7, 0.0014441258, 10.003911, 9.998488 
1.4504838e+2, 1.337294e+2, -1166034.5, -1464994.3, -33805.684, 0.00004879031, -0.0014310519, -1162259.5, 467187.25, 0.00083842565, 10.003359, 9.999415 
1.4504331e+2, 1.4372754e+2, -1267513.5, -1609130.0, -23049.457, 0.034719866, -0.07281273, -1265965.3, 265499.44, 0.00035495815, 10.002607, 9.998113 
1.4503764e+2, 1.5372643e+2, -1340669.0, -1635924.8, 36326.79, -0.008857663, 0.015012516, -1336265.3, 97213.984, 0.00008912459, 10.0016165, 9.997732 
1.4503196e+2, 1.6372526e+2, -1210862.0, -1366573.4, 61274.023, -0.027125511, 0.065733284, -1189641.9, 145850.64, 0.000008328298, 10.001172, 9.999116 
1.4502646e+2, 1.7372337e+2, -1052999.9, -1227344.5, 40372.223, 0.011567022, -0.068048134, -1044104.94, 193404.67, 0.0000000715251, 10.001523, 9.999232 
1.4502116e+2, 1.8372282e+2, -964551.9, -1122484.9, 62019.332, 0.044567905, -0.047351066, -943108.7, 196406.64, 0.0, 10.001409, 9.999337 
1.4501598e+2, 1.9372453e+2, -1001593.8, -1095019.6, 60783.152, 0.04986383, 0.1735308, -971647.2, 69854.35, 0.0, 10.0005, 9.999294 
1.4501084e+2, 2.0372444e+2, -992992.7, -1017874.06, 107443.086, -0.0027009344, 0.23070063, -897272.44, 46230.86, 0.0, 9.999805, 9.999476 
1.450056e+2, 2.1372136e+2, -951701.0, -952539.06, 82338.85, -0.15250704, -0.04352864, -869780.1, -24249.123, 0.0, 9.9994335, 9.999433 
1.4500132e+2, 2.2371973e+2, -835079.3, -818766.8, 54472.4, -0.1873789, -0.15789987, -771843.44, -24298.05, 0.0, 9.999448, 9.999671 
1.4499862e+2, 2.337204e+2, -643524.1, -679434.0, 45309.656, -0.027928079, -0.07545415, -612741.56, 36796.977, 0.0, 10.000102, 9.999644 
1.4499535e+2, 2.437211e+2, -539713.1, -512468.13, 67416.65, 0.056529514, 0.0065190317, -457311.44, 94220.31, 0.0, 9.99986, 10.000232 
1.4499108e+2, 2.5372183e+2, -686244.9, -525556.9, 55479.06, 0.009614692, 0.031244196, -508263.38, -54738.72, 0.0, 9.998156, 10.000287 
1.4498655e+2, 2.6372215e+2, -729832.2, -569559.94, 32549.014, -0.03208756, 0.062892206, -563201.9, -207679.63, 0.0, 9.9974985, 9.999632 
1.4498188e+2, 2.7372143e+2, -494218.2, -422921.72, 39477.96, -0.036042333, 0.024612535, -405378.72, -147848.7, 0.0, 9.998512, 9.999482 
1.4497705e+2, 2.83721e+2, -343472.16, -238068.95, 18652.033, -0.01915994, 0.013099739, -234865.66, -75331.11, 0.000000009906891, 9.998611, 10.00003 
1.4497171e+2, 2.9372156e+2, -425075.28, -199779.42, -2572.074, 0.0059789196, 0.03556374, -199750.06, -138221.72, 0.0000010398929, 9.997263, 10.000265 
1.4496481e+2, 3.0372292e+2, -475911.1, -185644.78, -41689.887, -0.076629676, 0.13236077, -179775.69, -179775.69, 0.000019274365, 9.996528, 10.000387 
1.4495699e+2, 3.1372088e+2, -497922.9, -234866.63, -3071.8818, -0.12701619, -0.10196692, -234830.75, -234830.75, 0.00010043125, 9.996507, 10.00006 
1.5505731e+2, 1.23734854e+2, -1344488.4, -1884411.9, 54677.34, -0.08351115, -0.14070854, -1339006.9, 388383.2, 0.0014664107, 10.003995, 9.996905 
1.55052e+2, 1.3373426e+2, -1272291.3, -1691860.1, -52561.67, 0.006438096, 0.009031607, -1265806.8, 363595.88, 0.0008607167, 10.003379, 9.997853 
1.5504687e+2, 1.4373249e+2, -1168177.1, -1400572.4, -65310.016, 0.111009635, -0.03054359, -1151080.8, 380341.1, 0.00037131715, 10.002598, 9.999549 
1.5503944e+2, 1.5373124e+2, -1207724.5, -1363634.8, 6750.5596, -0.010746359, -0.13509421, -1207432.8, 225995.86, 0.00009663115, 10.001635, 9.999591 
1.5503266e+2, 1.6373049e+2, -1216801.5, -1374164.5, 62326.223, -0.08860827, -0.14567874, -1195107.0, 140326.56, 0.000009881803, 10.001155, 9.999073 
1.550272e+2, 1.7372999e+2, -1077935.8, -1272467.0, 61178.72, -0.08499533, -0.11194223, -1060295.3, 177145.16, 0.00000020107916, 10.001498, 9.998935 
1.5502167e+2, 1.8372956e+2, -966830.25, -1123730.4, 28074.578, -0.061038647, -0.061994173, -961958.06, 177487.98, 0.0, 10.001391, 9.999338 
1.5501603e+2, 1.9372933e+2, -1004726.2, -1091956.0, 32513.125, -0.013416289, -0.03895614, -993941.06, 47508.246, 0.0, 10.000465, 9.999329 
1.5501057e+2, 2.037288e+2, -1040577.2, -1108745.4, 85626.46, -0.027175298, 0.00015905211, -982500.44, -39044.715, 0.0, 9.999766, 9.998875 
1.5500526e+2, 2.1372773e+2, -1006355.44, -1052340.8, 73849.484, -0.14653619, -0.006310905, -952002.06, -106533.87, 0.0, 9.999375, 9.9987755 
1.5500112e+2, 2.2372699e+2, -848071.56, -832436.44, 68781.484, -0.16772671, 0.009407825, -771029.7, -23553.648, 0.0, 9.99939, 9.999607 
1.5499882e+2, 2.3372674e+2, -649278.4, -681882.2, 77829.266, -0.032271706, -0.0012329386, -586062.06, 63415.055, 0.0, 10.000055, 9.999652 
1.5499493e+2, 2.4372661e+2, -557440.06, -540636.3, 8308.405, 0.014460869, 0.0046993606, -537222.06, 14255.736, 0.0, 9.999822, 10.000056 
1.5498853e+2, 2.5372654e+2, -712109.3, -563832.56, -2891.8752, -0.07733301, -0.029901449, -563776.2, -110297.52, 0.0, 9.998084, 10.000061 
1.549833e+2, 2.6372653e+2, -711590.6, -520811.66, 53092.703, -0.1225772, -0.03163301, -507031.63, -151553.06, 0.0, 9.997457, 9.999984 
1.5498008e+2, 2.7372637e+2, -477804.53, -371912.97, 85836.87, -0.08074347, -0.058368005, -324006.28, -66527.06, 0.0, 9.998439, 9.999868 
1.549752e+2, 2.8372625e+2, -365619.97, -274266.84, -25852.85, -0.07879497, -0.0490377, -267458.0, -107976.766, 0.000000005626964, 9.998572, 9.999796 
1.5496746e+2, 2.937267e+2, -460276.16, -256573.95, -42734.95, -0.16549292, -0.0046507474, -247971.8, -186491.48, 0.00000084127635, 9.997189, 9.999911 
1.5496054e+2, 3.0372846e+2, -407900.78, -26819.979, -50656.926, -0.16930664, 0.103029564, -20201.133, -20201.133, 0.000015268795, 9.996467, 10.001496 
1.54957e+2, 3.1372833e+2, -349421.72, 101047.88, 16713.201, 0.19128755, -0.07862995, 101667.12, 101667.12, 0.00008386637, 9.996402, 10.002409 
1.6506132e+2, 1.2374191e+2, -1303166.6, -1918964.9, 75326.61, -0.10067914, -0.13223937, -1294086.3, 433233.7, 0.0014745923, 10.004509, 9.996417 
1.650553e+2, 1.3374098e+2, -1402340.6, -1799507.5, 28434.639, 0.037825152, 0.025861848, -1400315.3, 229022.97, 0.00086981576, 10.002686, 9.997443 
1.6504957e+2, 1.437394e+2, -1295911.5, -1424847.5, 70447.33, 0.17735817, 0.013266289, -1264886.4, 266469.94, 0.00037795518, 10.001583, 9.999858 
1.6504177e+2, 1.5373808e+2, -1154630.6, -1296781.0, 25553.072, 0.054929964, -0.1384381, -1150176.8, 283185.6, 0.000098805474, 10.001832, 9.999948 
1.650347e+2, 1.637374e+2, -1116216.1, -1323403.4, 43723.363, -0.03114501, -0.16046385, -1107367.0, 227998.42, 0.000009884257, 10.0018215, 9.9991 
1.6502894e+2, 1.7373744e+2, -1112908.1, -1288524.3, 54509.84, -0.042633254, -0.07419483, -1097364.5, 140002.39, 0.0000002904704, 10.001249, 9.998941 
1.6502297e+2, 1.837369e+2, -1059920.0, -1197791.5, 26859.502, -0.041418422, -0.023421984, -1054872.3, 84501.51, 0.0, 10.000895, 9.99906 
1.6501659e+2, 1.9373548e+2, -967228.56, -1109788.1, -10231.04, -0.02083978, -0.08963651, -966498.06, 74890.95, 0.0, 10.000881, 9.9990015 
1.6501072e+2, 2.0373447e+2, -910600.7, -1057967.6, 59700.79, -0.030845279, -0.07659414, -889450.44, 53949.855, 0.0, 10.000714, 9.998764 
1.6500562e+2, 2.1373416e+2, -874827.5, -997501.56, 80199.91, -0.08914727, 0.004441088, -835197.94, 10206.991, 0.0, 10.000319, 9.998697 
1.6500124e+2, 2.2373375e+2, -811724.3, -807225.9, 118722.07, -0.10173606, 0.052766558, -690731.7, 56677.69, 0.0, 9.999612, 9.999669 
1.6499788e+2, 2.3373319e+2, -892159.25, -786205.3, 119131.414, -0.043893445, 0.0011431476, -708802.6, -59389.484, 0.0, 9.998349, 9.99975 
1.649934e+2, 2.4373272e+2, -857391.1, -720636.3, 55974.56, -0.022114495, -0.016086858, -700647.3, -149230.11, 0.0, 9.997916, 9.999739 
1.6498719e+2, 2.537324e+2, -629209.6, -564628.75, 20134.68, -0.051910497, -0.037327833, -558865.56, -105443.8, 0.0, 9.998828, 9.999697 
1.6498187e+2, 2.6373234e+2, -478857.1, -383287.03, 90527.93, -0.07916648, -0.034472276, -328706.47, 26716.152, 0.0, 9.9989395, 10.000215 
1.6497815e+2, 2.7373242e+2, -549013.1, -363546.3, 104191.98, -0.07831113, -0.072065964, -316796.9, -59377.242, 0.0, 9.997773, 10.000236 
1.6497274e+2, 2.8373256e+2, -571738.8, -331546.7, 1705.6626, -0.0969405, -0.07448316, -331534.56, -172116.63, 0.00000000009995645, 9.996977, 10.000171 
1.649645e+2, 2.9373327e+2, -490755.16, -227342.47, 21327.152, -0.15550476, -0.04262986, -225626.89, -164213.44, 0.00000051342266, 9.99679, 10.000306 
1.6495742e+2, 3.0373466e+2, -342236.88, -46256.176, 54238.008, -0.15476649, 0.030861089, -36630.203, -36630.203, 0.000011747977, 9.997124, 10.001058 
1.6495503e+2, 3.137354e+2, -69698.34, 254458.95, -41190.75, 0.27269194, -0.017539782, 259611.19, 259611.19, 0.00007014343, 9.998224, 10.002594 
1.7506628e+2, 1.23750634e+2, -1253363.1, -1817294.0, -4549.7266, -0.093675606, -0.020705922, -1253326.4, 473911.78, 0.0014575205, 10.00452, 9.997106 
1.7505802e+2, 1.3374962e+2, -1345597.0, -1687488.9, -38499.203, 0.026323887, 0.05214415, -1341315.4, 287937.63, 0.00085594546, 10.002713, 9.998196 
1.750513e+2, 1.437483e+2, -1352540.0, -1548495.1, 63937.754, 0.17562242, 0.06102871, -1333523.4, 197744.77, 0.0003688444, 10.001604, 9.999003 
1.7504446e+2, 1.5374683e+2, -1228930.1, -1452048.1, 44621.066, 0.11919387, 0.0007993308, -1220337.4, 212943.73, 0.00009401229, 10.001836, 9.998879 
1.750378e+2, 1.6374595e+2, -1109084.9, -1301963.1, 20489.324, 0.077917695, 0.013834848, -1106932.3, 228356.03, 0.000008393363, 10.001793, 9.999262 
1.7503151e+2, 1.7374581e+2, -1090862.9, -1240525.1, 38237.98, 0.06958924, 0.04885863, -1081659.3, 155629.66, 0.00000020811186, 10.0012455, 9.999271 
1.7502481e+2, 1.8374498e+2, -1098219.0, -1279177.3, 18827.004, 0.037883434, 0.07555759, -1096280.9, 43016.79, 0.0, 10.000892, 9.9985075 
1.7501742e+2, 1.9374304e+2, -1017208.3, -1208284.9, -3558.006, -0.04236692, 0.0259046, -1017142.1, 24178.154, 0.0, 10.000854, 9.998341 
1.7501111e+2, 2.0374152e+2, -891185.5, -1009088.4, 39972.17, -0.07810509, 0.00861593, -878911.6, 64424.633, 0.0, 10.000674, 9.99912 
1.7500657e+2, 2.1374063e+2, -847147.1, -931805.0, 71916.055, -0.043535173, -0.019561661, -806027.5, 39314.44, 0.0, 10.000281, 9.999167 
1.7500149e+2, 2.2374e+2, -806578.1, -783835.5, 69373.99, -0.05269033, -0.026315225, -724907.0, 22438.53, 0.0, 9.9995575, 9.999854 
1.7499554e+2, 2.3373966e+2, -890730.44, -771591.94, 78038.27, -0.12630577, -0.070589334, -732985.5, -83638.33, 0.0, 9.998293, 9.999879 
1.7499052e+2, 2.4373943e+2, -897462.25, -792244.75, 74184.12, -0.11533229, -0.052558064, -753908.7, -202558.63, 0.0, 9.997869, 9.999267 
1.7498693e+2, 2.537394e+2, -679702.6, -654110.56, 59858.97, 0.023207966, 0.008753961, -605695.2, -152340.72, 0.0, 9.998763, 9.999112 
1.7498222e+2, 2.637395e+2, -469799.5, -359801.06, 50125.742, 0.047653332, 0.05566564, -340385.88, 14969.023, 0.0, 9.998919, 10.000385 
1.7497589e+2, 2.7373958e+2, -537448.2, -330214.8, 65440.656, -0.09837521, -0.013080697, -311279.9, -53928.11, 0.0, 9.997727, 10.00049 
1.7496943e+2, 2.837399e+2, -502082.13, -182805.34, -18358.072, -0.14057407, -0.055315964, -181753.25, -22408.035, 0.0, 9.996959, 10.001201 
1.7496254e+2, 2.9374114e+2, -422237.53, -70202.64, 21991.502, -0.04517386, -0.08229974, -68834.16, -7505.4736, 0.00000027417164, 9.996728, 10.001414 
1.7495525e+2, 3.0374143e+2, -482971.5, -335442.13, 85696.46, -0.09690888, -0.09195023, -296135.56, -296135.56, 0.000009335192, 9.997109, 9.999081 
1.7495053e+2, 3.13742e+2, -224843.73, -44346.527, 20584.102, -0.033639695, 0.08221041, -42028.855, -42028.855, 0.000059812894, 9.998134, 10.000581 
1.8507086e+2, 1.2375922e+2, -1378727.9, -1809290.8, 53035.617, -0.023858333, -0.016458811, -1372291.3, 354864.28, 0.0014120473, 10.003349, 9.997729 
1.8506095e+2, 1.3375795e+2, -1161242.3, -1530564.0, -18807.428, 0.0009114106, -0.027488511, -1160287.0, 468881.47, 0.0008198657, 10.003683, 9.998807 
1.8505315e+2, 1.4375693e+2, -1140071.0, -1519030.6, 110306.54, 0.11732613, 0.0065854704, -1110301.9, 420877.72, 0.0003462985, 10.003363, 9.99836 
1.850464e+2, 1.5375558e+2, -1223356.0, -1538812.6, 100104.875, 0.11302525, 0.035197612, -1194271.0, 238924.72, 0.000084445885, 10.002252, 9.998088 
1.8503962e+2, 1.6375439e+2, -1165114.3, -1336751.0, 92818.2, 0.102640666, 0.06503836, -1124520.6, 210687.11, 0.000006352812, 10.001458, 9.999181 
1.85033e+2, 1.7375325e+2, -1096217.1, -1243956.8, 75008.5, 0.09863799, 0.0026784444, -1064811.0, 172405.16, 0.000000056960435, 10.001213, 9.999267 
1.85026e+2, 1.8375216e+2, -1088365.3, -1293438.9, 76813.3, 0.06253476, 0.011021169, -1062784.6, 76442.44, 0.0, 10.001043, 9.998335 
1.8501829e+2, 1.937512e+2, -1017114.7, -1229336.4, 78541.15, -0.041814413, 0.07760069, -991209.5, 50032.17, 0.0, 10.000949, 9.998149 
1.8501171e+2, 2.0374985e+2, -907663.25, -1028156.06, 121462.3, -0.07667091, 0.09149713, -832326.8, 110929.66, 0.0, 10.000606, 9.9990225 
1.8500704e+2, 2.1374787e+2, -915523.44, -972242.94, 97693.63, 0.00090515823, -0.0355616, -842156.5, 3114.4019, 0.0, 9.999839, 9.999102 
1.8500164e+2, 2.2374673e+2, -844558.44, -838849.0, 68177.375, 0.018291779, -0.07723701, -773466.56, -26187.096, 0.0, 9.99944, 9.999542 
1.8499525e+2, 2.3374684e+2, -722934.75, -728890.7, 28881.072, -0.046435334, -0.042257737, -696878.5, -47599.285, 0.0, 9.9995985, 9.999548 
1.8498977e+2, 2.4374671e+2, -682143.06, -678970.7, 52014.758, -0.046740074, 0.0026629898, -628517.94, -77236.29, 0.0, 9.999301, 9.999356 
1.8498573e+2, 2.5374624e+2, -741519.8, -664662.56, 81557.805, 0.0565365, 0.0020602855, -612933.4, -159645.0, 0.0, 9.998254, 9.999286 
1.8498065e+2, 2.637462e+2, -645101.0, -444319.0, 94440.92, 0.062220026, 0.026390467, -406878.8, -51589.723, 0.0, 9.997712, 10.000387 
1.8497409e+2, 2.7374673e+2, -496453.72, -311041.8, 77179.05, -0.06175212, 0.009326398, -283120.22, -25837.928, 0.0, 9.99801, 10.000488 
1.8496753e+2, 2.8374735e+2, -342477.03, -121589.375, -36094.105, -0.0808311, -0.0008913095, -115841.02, 43432.45, 0.0, 9.998119, 10.001063 
1.8496062e+2, 2.9374832e+2, -267900.13, -21656.56, -109225.26, 0.036204245, -0.03734737, 19809.416, 81068.18, 0.00000021710767, 9.997896, 10.001185 
1.8495256e+2, 3.0374727e+2, -440649.3, -355624.84, -18620.947, -0.09474768, -0.15203479, -351725.56, -351725.56, 0.0000079127085, 9.997565, 9.998722 
1.8494678e+2, 3.137475e+2, -420732.47, -188879.2, 50340.86, -0.15898962, 0.021642184, -178420.77, -178420.77, 0.00005116492, 9.996976, 10.000158 
1.9507469e+2, 1.2376761e+2, -1342584.4, -1726445.9, 47222.91, -0.011914727, -0.115259945, -1336860.4, 390212.0, 0.0013386316, 10.003332, 9.9983015 
1.9506383e+2, 1.3376592e+2, -1137019.4, -1466570.5, -6627.3237, -0.093302704, -0.2172856, -1136886.1, 492199.22, 0.0007673006, 10.003641, 9.999259 
1.95055e+2, 1.4376527e+2, -1168717.8, -1578270.1, 65601.46, -0.05616968, -0.1517375, -1158466.5, 372624.8, 0.00031672008, 10.003352, 9.997962 
1.9504738e+2, 1.5376435e+2, -1258634.0, -1612463.6, 63597.04, -0.030328585, -0.028948482, -1247550.3, 185555.33, 0.000073711046, 10.002252, 9.997582 
1.9504002e+2, 1.6376281e+2, -1189307.0, -1386505.6, 76187.945, -0.017863879, 0.0037651404, -1163301.3, 171821.63, 0.0000047225935, 10.00145, 9.998846 
1.9503328e+2, 1.737599e+2, -1118541.9, -1289828.4, 74881.27, -0.009556432, -0.20572849, -1090422.4, 146725.6, 0.0000000036456946, 10.001207, 9.998956 
1.9502635e+2, 1.8375854e+2, -1080329.3, -1271801.9, 66096.84, -0.022728646, -0.21074998, -1059728.9, 79432.33, 0.0, 10.001017, 9.998501 
1.9501898e+2, 1.9375984e+2, -1003792.2, -1196953.9, 81285.78, -0.082449056, 0.058590923, -974138.2, 67016.3, 0.0, 10.000925, 9.998386 
1.9501235e+2, 2.0375936e+2, -951404.1, -1105774.0, 90362.055, -0.09025443, 0.16956058, -909749.6, 33411.957, 0.0, 10.00055, 9.998513 
1.9500683e+2, 2.1375588e+2, -967656.2, -1066210.8, 75430.41, -0.01940297, -0.048517194, -926833.56, -81641.31, 0.0, 9.999779, 9.998485 
1.9500157e+2, 2.23754e+2, -910396.75, -960764.8, 63191.05, 0.0534951, -0.09386157, -867556.2, -120345.33, 0.0, 9.999381, 9.998732 
1.9499676e+2, 2.3375472e+2, -790242.75, -853888.94, 41242.023, 0.13135582, 0.086881526, -769973.44, -120763.99, 0.0, 9.999537, 9.998718 
1.9499095e+2, 2.4375458e+2, -643347.9, -587222.94, 12054.425, 0.12842749, 0.14649415, -584743.44, -33530.945, 0.0, 9.999252, 10.00001 
1.949834e+2, 2.537529e+2, -690024.3, -542247.56, 47830.637, -0.016786132, -0.06078311, -528117.44, -74893.7, 0.0, 9.998187, 10.000156 
1.9497696e+2, 2.637525e+2, -657983.06, -464490.13, 94103.45, -0.09179539, -0.11752825, -426272.38, -71047.63, 0.0, 9.9976845, 10.000264 
1.9497254e+2, 2.7375403e+2, -522418.3, -354343.2, 97218.39, -0.03255564, -0.005867693, -309875.0, -52664.137, 0.0, 9.997959, 10.000219 
1.9496685e+2, 2.8375491e+2, -443078.2, -323547.0, -46449.1, 0.024993451, 0.085181914, -307619.5, -148416.33, 0.0, 9.998093, 9.999688 
1.9495855e+2, 2.9375488e+2, -392755.1, -262987.56, -110009.5, 0.023536053, 0.102473706, -200152.9, -138949.33, 0.0000002787285, 9.997822, 9.999563 
1.9494914e+2, 3.0375215e+2, -350676.0, -158442.53, -43044.176, -0.20741963, -0.14389454, -149244.36, -149244.36, 0.000006930128, 9.997529, 10.00009 
1.9494335e+2, 3.1375208e+2, -335974.44, 9096.8545, 38163.918, -0.22928625, -0.18367763, 13267.274, 13267.274, 0.00004299831, 9.996893, 10.001553 
2.0507762e+2, 1.2377742e+2, -1375411.8, -1765042.3, 79304.6, -0.039754134, -0.07587366, -1359888.8, 367089.5, 0.0012410495, 10.00322, 9.998087 
2.0506735e+2, 1.337753e+2, -1194131.1, -1548691.6, -69753.07, -0.08876684, -0.17588215, -1180902.1, 448094.97, 0.0007023488, 10.003471, 9.998788 
2.0505852e+2, 1.437746e+2, -1171500.8, -1547859.1, -37712.71, -0.0259658, -0.10142108, -1167759.0, 363244.63, 0.0002832004, 10.00321, 9.998236 
2.0504996e+2, 1.537735e+2, -1210034.4, -1547389.8, -176.61491, -0.0012300621, -0.033208877, -1210034.3, 222982.55, 0.000063005726, 10.002409, 9.9979515 
2.0504186e+2, 1.6377185e+2, -1119825.4, -1397454.3, 96474.94, -0.009613378, -0.012865995, -1089592.9, 245441.06, 0.0000035155435, 10.00212, 9.998445 
2.0503476e+2, 1.7376912e+2, -943954.6, -1261679.6, 74028.32, -0.051382087, -0.15278237, -927553.06, 309506.16, 0.0000000004928599, 10.002654, 9.998449 
2.0502765e+2, 1.8376762e+2, -861797.8, -1189448.1, 35791.383, -0.069962166, -0.13780336, -857933.6, 281141.4, 0.0, 10.002617, 9.998295 
2.0502044e+2, 1.937681e+2, -910659.75, -1171243.9, 4391.015, -0.06031355, 0.06694497, -910585.75, 130489.78, 0.0, 10.001642, 9.998218 
2.0501351e+2, 2.037673e+2, -866264.8, -1047607.75, 35880.402, -0.049737632, 0.14819838, -859423.6, 83661.31, 0.0, 10.0010605, 9.99867 
2.0500703e+2, 2.1376431e+2, -768671.06, -949301.44, 70320.4, -0.036769718, -0.03997575, -744523.2, 100586.76, 0.0, 10.001054, 9.998675 
2.0500125e+2, 2.2376266e+2, -727776.94, -897129.0, 126290.484, 0.018946791, -0.061237894, -660402.56, 86723.52, 0.0, 10.000741, 9.99851 
2.0499668e+2, 2.3376323e+2, -752330.0, -867530.5, 134542.22, 0.15150385, 0.12988353, -663576.56, -14448.825, 0.0, 9.999935, 9.998432 
2.049905e+2, 2.4376298e+2, -635156.8, -585689.0, 106845.94, 0.1595946, 0.19668967, -500751.5, 50381.137, 0.0, 9.99932, 9.999985 
2.0498174e+2, 2.5376126e+2, -558935.0, -480508.5, 66000.06, -0.042393465, -0.011514565, -442951.4, 10192.636, 0.0, 9.999093, 10.000145 
2.0497456e+2, 2.637607e+2, -544284.4, -428852.88, 93349.97, -0.14089476, -0.08156267, -376817.4, -21670.383, 0.0, 9.998558, 10.000082 
2.049702e+2, 2.737617e+2, -598735.56, -412458.9, 84693.22, -0.038735185, -0.0020550939, -379709.63, -122571.875, 0.0, 9.997541, 10.000014 
2.0496455e+2, 2.8376228e+2, -619381.8, -449691.63, 4094.7966, 0.04134882, 0.0888294, -449592.88, -290459.28, 0.0, 9.99706, 9.999321 
2.0495617e+2, 2.9376233e+2, -470765.22, -340975.16, 25421.219, 0.025593756, 0.15130642, -336173.66, -275038.16, 0.00000036340376, 9.997466, 9.999197 
2.0494652e+2, 3.0376e+2, -265925.0, -14963.663, 127361.27, -0.22428878, -0.08011554, 38346.867, 38346.867, 0.000006339283, 9.997681, 10.001003 
2.0494118e+2, 3.1376046e+2, -232949.02, 137061.38, 110564.46, -0.14968935, -0.16923644, 167582.1, 167582.1, 0.00003635789, 9.997294, 10.002226 
2.150792e+2, 1.2378862e+2, -1446267.9, -1909960.1, 74674.07, -0.23734334, 0.0989681, -1434538.9, 292334.5, 0.0011229241, 10.003209, 9.9971 
2.1507137e+2, 1.3378623e+2, -1282414.9, -1737453.1, -55411.383, -0.052041065, 0.099921614, -1275764.5, 353138.25, 0.00062689814, 10.003495, 9.997481 
2.1506351e+2, 1.4378501e+2, -1112631.5, -1426735.6, -71675.72, 0.1329428, 0.1624861, -1097048.9, 433866.44, 0.0002465844, 10.003211, 9.999069 
2.150539e+2, 1.53783e+2, -1125115.4, -1374602.8, -24760.01, 0.1324873, 0.023794781, -1122681.9, 310247.3, 0.000052325075, 10.002422, 9.999132 
2.1504493e+2, 1.6378152e+2, -1154313.3, -1465242.3, 103808.88, 0.06859575, 0.015631577, -1122840.6, 212100.64, 0.000002586899, 10.002102, 9.99799 
2.150372e+2, 1.7378089e+2, -993262.56, -1360109.0, 101026.305, -0.08788934, 0.15117252, -967280.94, 269669.78, 0.000000000052014764, 10.002639, 9.99778 
2.1502969e+2, 1.8377925e+2, -908799.56, -1280321.8, 615.00653, -0.14136313, 0.21805426, -908798.5, 230171.4, 0.0, 10.0025835, 9.99769 
2.1502249e+2, 1.9377595e+2, -953650.4, -1255364.9, -26162.902, -0.035712924, 0.10241737, -951398.5, 89606.875, 0.0, 10.001619, 9.997652 
2.1501511e+2, 2.0377369e+2, -815327.4, -932988.6, 25308.438, -0.0108507415, 0.03496205, -810114.56, 132911.75, 0.0, 10.001022, 9.999475 
2.1500742e+2, 2.1377312e+2, -706233.06, -805543.94, 75272.64, -0.117610335, -0.011394604, -665712.94, 179311.5, 0.0, 10.000992, 9.999692 
2.150005e+2, 2.2377267e+2, -711107.94, -846246.2, 93361.64, -0.14469473, 0.012930773, -663429.56, 83596.47, 0.0, 10.000672, 9.998891 
2.1499476e+2, 2.3377235e+2, -743756.1, -829256.56, 112074.26, -0.045603976, 0.08487034, -666555.44, -17521.225, 0.0, 9.999849, 9.998734 
2.1498828e+2, 2.4377197e+2, -690992.7, -694392.75, 90017.53, -0.01016087, 0.15348613, -602659.2, -51617.18, 0.0, 9.999289, 9.999255 
2.1498059e+2, 2.5377148e+2, -630371.44, -611611.9, 63108.7, -0.08324152, 0.15520573, -557189.75, -104140.766, 0.0, 9.999019, 9.999281 
2.1497326e+2, 2.637708e+2, -570120.7, -475069.56, 53197.82, -0.14050461, 0.13914268, -451260.1, -96204.43, 0.0, 9.998526, 9.999779 
2.149668e+2, 2.7376965e+2, -626421.1, -455836.0, 53158.074, -0.14879437, 0.022683866, -440626.8, -183562.94, 0.0, 9.997478, 9.999747 
2.1496037e+2, 2.8376934e+2, -568222.6, -334162.97, 5879.2134, -0.09840489, 0.007860712, -334015.38, -174949.84, 0.0, 9.997024, 10.00013 
2.1495332e+2, 2.937707e+2, -412847.5, -210609.97, 47733.785, -0.02243083, 0.10321375, -199909.6, -138854.92, 0.0000004878426, 9.99742, 10.000115 
2.1494459e+2, 3.037707e+2, -241328.36, 36639.3, 116432.66, -0.19795926, 0.03976992, 78964.79, 78964.79, 0.0000063211505, 9.997672, 10.001365 
2.1493997e+2, 3.137728e+2, -258668.66, 93769.734, 98054.91, -0.032753665, 0.08290086, 119213.55, 119213.55, 0.0000317033, 9.997239, 10.001964 
2.2508278e+2, 1.2379825e+2, -1532471.6, -1948158.8, 54319.215, -0.16251823, 0.1688956, -1525490.8, 201290.81, 0.0009919159, 10.002587, 9.997144 
2.2507466e+2, 1.3379566e+2, -1472885.4, -1849652.3, -23795.178, -0.004642302, 0.16628982, -1471388.5, 157425.86, 0.00054572185, 10.002288, 9.997286 
2.2506642e+2, 1.4379425e+2, -1255160.3, -1490285.6, -6852.8467, 0.15778328, 0.21645227, -1254960.8, 275868.63, 0.00020902291, 10.002209, 9.99912 
2.2505638e+2, 1.5379187e+2, -1085827.0, -1346087.5, -48416.195, 0.13333504, 0.034407787, -1077112.0, 355732.4, 0.000042237294, 10.002647, 9.999225 
2.2504748e+2, 1.6379036e+2, -1046786.25, -1405910.1, 73299.57, 0.08133502, 0.013382748, -1032401.5, 302454.0, 0.0000020119714, 10.002801, 9.998063 
2.2504044e+2, 1.7379011e+2, -1026556.6, -1373993.3, 110095.19, -0.012666632, 0.18275528, -994607.75, 242253.38, 0.0, 10.00239, 9.997811 
2.2503279e+2, 1.8378848e+2, -992271.06, -1321602.0, 46950.133, -0.05791807, 0.24697918, -985708.56, 153171.75, 0.0, 10.002022, 9.997672 
2.2502415e+2, 1.9378456e+2, -948519.94, -1257435.1, 47053.42, -0.032048177, 0.07400404, -941511.8, 99409.414, 0.0, 10.001687, 9.9976015 
2.2501607e+2, 2.0378216e+2, -768017.2, -923788.7, 119598.39, -0.032322813, -0.00010520415, -703179.56, 239764.58, 0.0, 10.001402, 9.999359 
2.2500892e+2, 2.1378212e+2, -687727.25, -808973.6, 78480.2, -0.072228245, 0.020699296, -649182.3, 195756.08, 0.0, 10.00117, 9.999583 
2.2500151e+2, 2.2378169e+2, -678910.06, -797420.75, 35143.62, -0.1093019, 0.03845041, -669272.25, 77667.22, 0.0, 10.000751, 9.999189 
2.2499377e+2, 2.3378044e+2, -701626.0, -768405.8, 40255.797, -0.13218737, -0.018910643, -682714.7, -33761.605, 0.0, 9.999967, 9.999094 
2.2498658e+2, 2.4377993e+2, -677450.3, -740802.75, 70385.0, -0.122413345, 0.03819998, -631942.1, -80980.26, 0.0, 9.999609, 9.998786 
2.2498025e+2, 2.537806e+2, -532302.9, -628720.3, 57409.016, -0.061274238, 0.21327095, -505545.75, -52582.754, 0.0, 9.999965, 9.998712 
2.2497301e+2, 2.637804e+2, -405086.94, -392532.06, 42262.023, -0.07044959, 0.27581462, -356083.8, -1116.1501, 0.0, 9.999643, 9.999808 
2.249646e+2, 2.7377865e+2, -494826.7, -377841.0, 51510.984, -0.15489428, 0.08993313, -358392.88, -101413.63, 0.0, 9.998316, 9.999879 
2.2495732e+2, 2.8377798e+2, -504735.9, -282105.9, 53284.703, -0.117585324, 0.018891273, -270009.84, -111026.51, 0.00000000075483947, 9.997356, 10.000333 
2.2495124e+2, 2.9377925e+2, -467655.1, -218819.28, 29882.969, 0.053446174, 0.089734405, -215280.92, -154307.97, 0.00000073344995, 9.99696, 10.000285 
2.2494243e+2, 3.0378005e+2, -409621.47, -67290.62, 50614.484, -0.12121849, 0.106692955, -59963.945, -59963.945, 0.000007274646, 9.996611, 10.001159 
2.2493635e+2, 3.1378183e+2, -429617.75, -18966.68, -49712.258, -0.05793861, 0.13579218, -13034.353, -13034.353, 0.000030117351, 9.996185, 10.001699 
2.3508787e+2, 1.2380626e+2, -1453792.8, -1791782.5, 21362.938, 0.051308684, 0.12807496, -1452447.9, 274255.66, 0.00085996307, 10.0026245, 9.998198 
2.3507702e+2, 1.3380355e+2, -1405241.6, -1721758.1, -39496.4, -0.012141281, 0.027815692, -1400387.6, 228345.9, 0.0004646133, 10.002333, 9.998147 
2.3506702e+2, 1.4380212e+2, -1305615.3, -1587155.9, -2603.6785, -0.017137669, 0.057091735, -1305591.1, 225156.36, 0.00017252294, 10.002179, 9.998468 
2.3505728e+2, 1.5380011e+2, -1141862.6, -1468091.8, -24761.76, -0.061267156, -0.0044922065, -1139993.9, 292769.0, 0.000033446406, 10.00267, 9.998377 
2.3504932e+2, 1.6379832e+2, -1014717.94, -1332928.4, 54426.293, -0.03049443, -0.026527261, -1005666.44, 329110.75, 0.0000017722703, 10.002776, 9.998578 
2.3504429e+2, 1.7379679e+2, -974335.9, -1261971.9, 100094.625, 0.1180937, -0.05806845, -942932.44, 293858.38, 0.0000000001389195, 10.002375, 9.998588 
2.3503675e+2, 1.8379529e+2, -963955.25, -1250880.3, 27408.129, 0.120890185, -0.045408644, -961360.56, 177445.55, 0.0, 10.00197, 9.998184 
2.3502518e+2, 1.9379386e+2, -918668.9, -1188689.1, 38613.875, -0.11243802, -0.016453696, -913255.5, 127568.5, 0.0, 10.0016575, 9.998089 
2.3501615e+2, 2.0379257e+2, -845709.9, -1071128.1, 105002.016, -0.17584325, 0.036320634, -804377.56, 138461.72, 0.0, 10.001343, 9.998375 
2.3501132e+2, 2.1379136e+2, -779376.56, -986429.25, 76480.6, 0.033709105, 0.054796662, -754190.1, 90661.66, 0.0, 10.001112, 9.998394 
2.3500419e+2, 2.2378977e+2, -676980.5, -776284.3, 3371.785, 0.069622554, 0.015872225, -676866.2, 69999.875, 0.0, 10.000681, 9.999369 
2.3499346e+2, 2.3378749e+2, -686203.5, -719820.2, 16501.068, -0.17373125, -0.17559852, -679457.5, -30573.318, 0.0, 9.999895, 9.999464 
2.349851e+2, 2.4378678e+2, -696839.9, -769518.3, 72509.11, -0.24721788, -0.15120655, -652073.56, -101180.555, 0.0, 9.99956, 9.99861 
2.349805e+2, 2.5378856e+2, -561600.7, -673112.25, 77843.47, -0.04832297, 0.15811689, -521605.2, -68718.05, 0.0, 9.999894, 9.998441 
2.3497365e+2, 2.6378942e+2, -382551.22, -337550.97, -6245.415, 0.014199697, 0.32845604, -336700.28, 18182.947, 0.0, 9.99961, 10.000202 
2.3496336e+2, 2.7378872e+2, -468058.66, -308430.0, 8698.62, -0.12493739, 0.1964029, -307957.38, -51072.97, 0.0, 9.998254, 10.000388 
2.3495516e+2, 2.8378814e+2, -540649.25, -346920.34, 28472.002, -0.084092185, 0.12355219, -342822.56, -183935.27, 0.00000003119879, 9.997317, 9.999906 
2.349497e+2, 2.9378796e+2, -519531.97, -311431.84, 21983.123, 0.18659334, 0.106015764, -309134.97, -248243.81, 0.0000012360658, 9.99689, 9.999684 
2.3493984e+2, 3.03788e+2, -465250.1, -173824.89, 33002.227, -0.05573648, 0.114883415, -170134.31, -170134.31, 0.000009095323, 9.9965725, 10.000448 
2.3492983e+2, 3.1378752e+2, -460940.94, -68526.85, -67685.45, -0.3598374, -0.010622326, -57180.23, -57180.23, 0.00003154515, 9.996113, 10.0014 
2.4509175e+2, 1.23814486e+2, -1479276.1, -1764347.8, 49605.324, 0.20085233, 0.08892315, -1470891.0, 255732.28, 0.0007338172, 10.002276, 9.998557 
2.4507956e+2, 1.3381201e+2, -1390053.8, -1697882.8, -84688.37, 0.0108098285, -0.003081095, -1368293.0, 260357.16, 0.00038625268, 10.002368, 9.998297 
2.4506876e+2, 1.4381063e+2, -1275117.6, -1590225.6, -30803.79, -0.07198688, 0.02833001, -1272134.6, 258529.58, 0.00013762698, 10.002463, 9.998307 
2.4505985e+2, 1.5380903e+2, -1155701.1, -1497914.3, -17793.035, -0.06785811, 0.0269607, -1154778.4, 277898.8, 0.000025817635, 10.002688, 9.998158 
2.4505183e+2, 1.6380726e+2, -1041112.94, -1315637.4, 55561.41, -0.036540005, 0.008359541, -1030294.1, 304397.72, 0.0000016011192, 10.002468, 9.998843 
2.4504559e+2, 1.7380509e+2, -1087799.1, -1281722.4, 54535.773, 0.061745778, -0.11856716, -1073514.5, 163195.89, 0.0000000006420841, 10.001447, 9.9988985 
2.4503763e+2, 1.8380383e+2, -1068035.8, -1245347.5, 1493.961, 0.06449934, -0.1217208, -1068023.1, 70699.32, 0.0, 10.001014, 9.998681 
2.4502687e+2, 1.9380392e+2, -915010.06, -1129273.8, 6877.1177, -0.09333563, 0.005659912, -914789.56, 125935.234, 0.0, 10.001431, 9.998602 
2.4501804e+2, 2.0380327e+2, -846843.94, -1100783.1, 91275.97, -0.12472622, 0.10550034, -817440.3, 125294.28, 0.0, 10.001464, 9.998114 
2.4501246e+2, 2.1380143e+2, -859024.0, -1064796.0, 107989.734, 0.060328946, 0.098142974, -812754.6, 32001.473, 0.0, 10.00075, 9.99803 
2.4500482e+2, 2.2379966e+2, -721089.8, -806233.1, 77488.06, 0.08292543, 0.06869587, -675249.06, 71524.29, 0.0, 10.00041, 9.999295 
2.4499393e+2, 2.3379807e+2, -585198.75, -673557.7, 52770.875, -0.14740345, -0.054095827, -560555.3, 88229.02, 0.0, 10.000601, 9.999441 
2.4498512e+2, 2.4379726e+2, -606775.4, -717405.94, 105472.81, -0.22479503, -0.04303962, -542992.8, 7799.9224, 0.0, 10.000142, 9.99869 
2.4497974e+2, 2.5379768e+2, -729068.94, -743392.8, 122131.51, -0.05048317, 0.12172217, -613889.56, -161092.06, 0.0, 9.998703, 9.998532 
2.4497242e+2, 2.6379797e+2, -633685.4, -495282.53, 45642.684, 0.013785736, 0.24431795, -481585.88, -126786.945, 0.0, 9.998037, 9.999882 
2.4496226e+2, 2.7379808e+2, -447972.7, -338048.22, -15571.205, -0.07120059, 0.22780457, -335885.06, -79089.03, 0.0, 9.998568, 10.000031 
2.4495353e+2, 2.8379783e+2, -368264.25, -273733.34, -14068.977, -0.035701796, 0.21323374, -271683.88, -112886.4, 0.00000009388162, 9.998545, 9.999816 
2.4494654e+2, 2.9379722e+2, -415444.47, -263787.88, 2224.742, 0.14917365, 0.15570495, -263755.25, -202950.47, 0.0000018075962, 9.9976225, 9.999656 
2.4493645e+2, 3.0379707e+2, -365052.56, -145578.9, 100767.95, -0.08490215, 0.15990378, -106331.336, -106331.336, 0.000010445255, 9.9973545, 10.000263 
2.449278e+2, 3.137963e+2, -148364.83, 132385.16, -1538.3894, -0.26192367, 0.023633141, 132393.6, 132393.6, 0.00003251449, 9.998066, 10.001827 
2.55094e+2, 1.23823054e+2, -1497234.3, -1806761.5, 33352.492, 0.16242535, 0.060768645, -1493681.3, 232858.4, 0.00061503635, 10.002295, 9.998259 
2.5508207e+2, 1.3382103e+2, -1420523.8, -1764593.6, -78275.23, 0.010848134, 0.060042445, -1403553.3, 225011.55, 0.0003122467, 10.002385, 9.9978285 
2.5507152e+2, 1.4381972e+2, -1257792.5, -1555623.8, -29071.508, -0.06000527, 0.11694846, -1254981.3, 275598.22, 0.000105299376, 10.002466, 9.998544 
2.550637e+2, 1.5381855e+2, -1127829.1, -1442802.9, -2024.8772, 0.03376099, 0.11915695, -1127816.1, 304772.2, 0.000019009012, 10.002696, 9.998533 
2.5505474e+2, 1.6381706e+2, -1047378.0, -1319484.9, 17437.158, -0.008168775, 0.10926435, -1046265.2, 288335.47, 0.0000013062046, 10.002433, 9.998833 
2.5504413e+2, 1.7381506e+2, -1091680.3, -1288609.3, 22504.209, -0.24361143, 0.0052563054, -1089141.4, 147478.25, 0.000000000635992, 10.001447, 9.998848 
2.5503528e+2, 1.8381411e+2, -1039796.56, -1180671.3, 6066.775, -0.28617424, 0.015173065, -1039535.75, 99093.18, 0.0, 10.000986, 9.999141 
2.5502902e+2, 1.9381465e+2, -879857.8, -1050400.3, 28411.076, -0.038085952, 0.13223167, -875249.25, 165375.19, 0.0, 10.001403, 9.999158 
2.5502154e+2, 2.038142e+2, -829077.8, -1047368.5, 63245.945, 0.06644263, 0.20281082, -812077.4, 130553.06, 0.0, 10.001392, 9.998515 
2.5501215e+2, 2.1381214e+2, -837135.75, -1011189.06, 86760.85, -0.06268296, 0.13842225, -801275.94, 43377.086, 0.0, 10.0007105, 9.998417 
2.5500318e+2, 2.2381127e+2, -749850.0, -852027.25, 74361.42, -0.13458243, 0.18602003, -710718.5, 35944.516, 0.0, 10.00035, 9.999009 
2.5499496e+2, 2.338121e+2, -619472.0, -732401.7, 66479.71, -0.11807493, 0.3409026, -588714.0, 59940.207, 0.0, 10.000545, 9.999064 
2.5498655e+2, 2.4381132e+2, -591332.44, -675369.1, 52290.96, -0.11235071, 0.36302677, -566269.56, -15608.479, 0.0, 10.0001, 9.998997 
2.5497773e+2, 2.5380787e+2, -709665.25, -687139.1, 71438.086, -0.13485655, 0.10212993, -626081.7, -173387.2, 0.0, 9.9986315, 9.998954 
2.5496915e+2, 2.6380596e+2, -712471.6, -648386.1, 51754.684, -0.13044831, 0.02319839, -619557.8, -264842.6, 0.0, 9.997992, 9.998855 
2.5496107e+2, 2.7380645e+2, -542999.2, -522498.03, 12423.953, -0.062947065, 0.17296071, -516641.8, -259925.88, 0.0, 9.998505, 9.9988 
2.549522e+2, 2.838069e+2, -356279.34, -234668.63, -51005.47, -0.039768793, 0.2800885, -216108.7, -57393.367, 0.00000013919723, 9.998492, 10.000106 
2.549414e+2, 2.938069e+2, -390474.4, -191335.84, -28302.941, -0.14146204, 0.23827362, -187391.36, -126676.766, 0.0000021199414, 9.9975395, 10.000191 
2.54932e+2, 3.0380723e+2, -341852.2, -94952.11, 118654.58, -0.2808385, 0.23980431, -47174.75, -47174.75, 0.000010666905, 9.99734, 10.000619 
2.5492996e+2, 3.1380802e+2, -80711.086, 280151.47, 30433.588, 0.11030362, 0.22862996, 282700.13, 282700.13, 0.00003213242, 9.998027, 10.002868 
2.6509532e+2, 1.23831496e+2, -1778817.1, -1898905.0, 36811.023, 0.17940652, 0.07778692, -1768431.5, -41971.46, 0.0005068244, 10.00017, 9.998642 
2.650844e+2, 1.3383049e+2, -1445423.8, -1742245.3, -33556.93, 0.026421048, 0.14097312, -1441677.4, 186796.94, 0.00024645263, 10.002048, 9.99815 
2.6507407e+2, 1.4382921e+2, -1218813.5, -1500636.1, 19248.822, -0.053115588, 0.16893436, -1217504.9, 312983.2, 0.00007758306, 10.002585, 9.998863 
2.6506633e+2, 1.5382774e+2, -1288900.5, -1483257.8, 23175.568, 0.09135294, 0.11143321, -1286175.3, 146324.13, 0.000013419433, 10.001431, 9.998865 
2.6505712e+2, 1.6382654e+2, -1242541.9, -1422836.3, 68016.01, 0.05888247, 0.11424385, -1219761.3, 114748.51, 0.0000010267595, 10.001128, 9.998758 
2.650459e+2, 1.7382568e+2, -1008939.2, -1262431.3, 57979.766, -0.24026416, 0.13637011, -996307.25, 240212.31, 0.0000000012219834, 10.002071, 9.998729 
2.6503682e+2, 1.8382478e+2, -871495.8, -1125904.3, 16414.86, -0.29108068, 0.16935259, -870441.06, 268087.94, 0.0, 10.002256, 9.998904 
2.6503113e+2, 1.9382378e+2, -933691.9, -1106556.9, -34678.863, 0.048571333, 0.16112363, -926994.3, 113543.75, 0.0, 10.001164, 9.99889 
2.6502344e+2, 2.0382269e+2, -894528.7, -1052262.5, -12930.057, 0.15058497, 0.1710867, -893475.75, 49073.375, 0.0, 10.000839, 9.998741 
2.6501262e+2, 2.1382132e+2, -681796.2, -907342.56, -9908.17, -0.12682498, 0.14554024, -681361.75, 163202.5, 0.0, 10.001657, 9.998673 
2.6500297e+2, 2.238207e+2, -595207.25, -786856.56, -40702.93, -0.2452247, 0.20842206, -586920.94, 159650.58, 0.0, 10.0014515, 9.998927 
2.6499516e+2, 2.3382129e+2, -767644.9, -822059.75, -51240.703, -0.1026466, 0.35614973, -736836.3, -88270.22, 0.0, 9.999605, 9.998905 
2.6498663e+2, 2.4382046e+2, -772191.4, -724740.4, -30041.207, -0.040165037, 0.36771217, -710185.7, -159612.39, 0.0, 9.998697, 9.999334 
2.6497686e+2, 2.5381723e+2, -586266.5, -578694.0, -16592.828, -0.113864265, 0.08666531, -565460.94, -112859.19, 0.0, 9.999275, 9.999383 
2.6496756e+2, 2.6381546e+2, -556076.3, -569404.0, 9791.668, -0.13765001, -0.0047855154, -550896.06, -196276.22, 0.0, 9.99905, 9.998883 
2.649592e+2, 2.738162e+2, -675733.9, -588167.0, 48310.26, -0.05039219, 0.16925377, -566751.75, -310132.22, 0.0, 9.997607, 9.998777 
2.6494995e+2, 2.838166e+2, -558261.25, -348958.47, 51422.21, -0.04003025, 0.28705972, -337007.28, -178388.73, 0.00000017298198, 9.997172, 9.999957 
2.649387e+2, 2.9381615e+2, -299244.06, -159144.66, 14019.992, -0.19138858, 0.20802987, -157755.42, -97134.44, 0.0000022646286, 9.998207, 10.000092 
2.6492995e+2, 3.0381545e+2, -195686.81, -96385.93, 119924.31, -0.27706844, 0.14413829, -16240.352, -16240.352, 0.000010678338, 9.998644, 9.99999 
2.649293e+2, 3.1381747e+2, -95787.73, 232285.56, -77580.875, 0.24648254, 0.3259569, 249706.39, 249706.39, 0.000032089163, 9.998088, 10.002514 
2.7509546e+2, 1.23839654e+2, -1701094.0, -1747325.6, 76655.96, 0.13489869, 0.12524204, -1644144.4, 82241.63, 0.0004154287, 10.000208, 9.999664 
2.7508613e+2, 1.338404e+2, -1359021.4, -1570832.8, 36748.023, -0.021211734, 0.24717258, -1352827.0, 275551.3, 0.00019320652, 10.002082, 9.999307 
2.7507618e+2, 1.4383914e+2, -1192468.0, -1447229.8, -22578.516, -0.12217754, 0.19665419, -1190482.4, 339906.84, 0.000056136425, 10.002589, 9.999228 
2.750675e+2, 1.5383668e+2, -1268286.6, -1443096.6, -14397.202, 0.048634034, 0.01507927, -1267108.9, 165301.19, 0.000009372096, 10.001447, 9.999133 
2.7505893e+2, 1.6383572e+2, -1249008.4, -1437402.0, 87345.59, 0.106939554, 0.028813897, -1214743.9, 119674.96, 0.0000008660051, 10.001133, 9.9986515 
2.7505052e+2, 1.7383686e+2, -1024053.0, -1290246.8, 99537.375, -0.004937104, 0.26513946, -990949.8, 245461.36, 0.000000004874734, 10.00206, 9.99854 
2.7504194e+2, 1.8383579e+2, -947733.44, -1270307.8, -22908.488, -0.021553792, 0.337032, -946114.6, 192308.6, 0.0, 10.0022, 9.997939 
2.7503297e+2, 1.9383146e+2, -1010932.0, -1258651.5, -69469.54, 0.09830675, 0.097087376, -992780.3, 47684.543, 0.0, 10.001135, 9.997857 
2.750236e+2, 2.0382889e+2, -900112.2, -1055585.4, 4359.36, 0.071870424, 0.019965643, -899990.06, 42499.42, 0.0, 10.000798, 9.998743 
2.7501377e+2, 2.1382889e+2, -679568.56, -887999.1, 28248.484, -0.19491452, 0.116726615, -675807.9, 168681.86, 0.0, 10.001591, 9.998838 
2.7500397e+2, 2.2382793e+2, -606526.25, -790410.1, -105026.805, -0.30224156, 0.13547969, -558883.25, 187615.67, 0.0, 10.001366, 9.998947 
2.7499425e+2, 2.338255e+2, -777142.8, -824542.3, -116211.7, -0.16358559, -0.018799113, -682238.9, -33717.113, 0.0, 9.999529, 9.998927 
2.7498513e+2, 2.4382453e+2, -752348.25, -668243.2, -24505.715, -0.0682417, -0.041715186, -661623.9, -111093.1, 0.0, 9.998637, 9.999748 
2.7497688e+2, 2.538256e+2, -565496.6, -520344.88, 11737.823, -0.054996192, 0.063320346, -517475.78, -64955.33, 0.0, 9.999207, 9.999818 
2.7496746e+2, 2.6382646e+2, -486663.5, -412236.66, -44432.94, -0.065627664, 0.16154745, -391492.13, -36979.313, 0.0, 9.998998, 9.999988 
2.7495646e+2, 2.7382708e+2, -601259.2, -420763.38, 176.75917, -0.1042859, 0.20947848, -420763.2, -164255.4, 0.00000000009324417, 9.99755, 9.999956 
2.749467e+2, 2.8382692e+2, -602561.5, -432718.44, 75446.16, -0.101395, 0.22336233, -404045.13, -245536.44, 0.00000023612336, 9.997137, 9.999397 
2.749383e+2, 2.9382476e+2, -359711.4, -272751.13, 61018.05, -0.07694432, 0.055097405, -241306.47, -180781.22, 0.0000024951785, 9.998149, 9.99934 
2.7493006e+2, 3.038218e+2, -310240.16, -321719.06, 99759.195, -0.14622575, -0.12996854, -216055.45, -216055.45, 0.000011113361, 9.998605, 9.998453 
2.7492532e+2, 3.1382456e+2, -244526.11, -45800.76, -94690.89, 0.0052361977, 0.2973421, -7907.086, -7907.086, 0.000032683794, 9.997961, 10.000661 
2.8509673e+2, 1.238481e+2, -1293553.9, -1522290.3, 159002.16, 0.11527335, 0.110050924, -1212060.4, 514242.16, 0.00034201675, 10.002891, 9.999911 
2.850879e+2, 1.338491e+2, -1445500.3, -1562686.9, 43011.184, -0.0019393457, 0.2175286, -1431408.4, 196883.58, 0.00015211831, 10.001287, 9.999736 
2.8507793e+2, 1.4384791e+2, -1451142.9, -1574603.4, -41675.582, -0.10817546, 0.15178311, -1438391.8, 91910.695, 0.000040681283, 10.000822, 9.999209 
2.850692e+2, 1.5384632e+2, -1158519.4, -1398661.3, -72267.4, 0.039894573, 0.06335515, -1138449.0, 293867.3, 0.0000066741927, 10.002226, 9.99907 
2.8506085e+2, 1.6384539e+2, -1053931.5, -1367876.4, 13548.479, 0.11731265, 0.093746305, -1053347.9, 280977.47, 0.00000074756446, 10.002588, 9.998429 
2.850532e+2, 1.7384514e+2, -1141124.5, -1377560.5, 3054.3308, 0.09544973, 0.22207816, -1141085.0, 95245.04, 0.000000006090155, 10.001386, 9.998273 
2.850446e+2, 1.8384351e+2, -1117421.1, -1348688.0, -72590.91, 0.09141437, 0.24852014, -1096524.3, 41822.824, 0.0, 10.001026, 9.997963 
2.850345e+2, 1.9383974e+2, -889121.1, -1196123.8, -50983.18, 0.104276165, 0.061039444, -880875.9, 159506.98, 0.0, 10.001952, 9.997894 
2.850246e+2, 2.0383756e+2, -771493.06, -987944.1, 56738.887, 0.05173309, 0.017697914, -757521.75, 184881.9, 0.0, 10.001658, 9.998786 
2.8501508e+2, 2.1383774e+2, -997135.06, -1037100.44, 57468.945, -0.10784107, 0.1283472, -956273.75, -111871.18, 0.0, 9.999399, 9.998866 
2.8500515e+2, 2.2383665e+2, -1002731.6, -970328.2, -44890.145, -0.17621271, 0.12882209, -938805.44, -192392.45, 0.0, 9.998604, 9.999037 
2.8499466e+2, 2.3383358e+2, -690129.75, -770016.0, -58360.785, -0.09865824, -0.09990772, -659352.06, -10910.713, 0.0, 10.000076, 9.999034 
2.8498474e+2, 2.4383266e+2, -510676.5, -551717.4, 24327.219, -0.05086763, -0.123852886, -499370.8, 51079.12, 0.0, 10.000285, 9.999757 
2.8497577e+2, 2.5383502e+2, -661140.0, -566797.5, 11029.736, -0.049459167, 0.10904469, -565525.1, -113096.76, 0.0, 9.998551, 9.999816 
2.84966e+2, 2.6383623e+2, -613820.44, -459127.88, -65832.03, -0.060273793, 0.23824532, -434904.97, -80488.1, 0.0, 9.998061, 10.000115 
2.849553e+2, 2.7383578e+2, -316838.44, -263354.53, -109890.94, -0.06305643, 0.16028695, -176998.52, 79421.195, 0.0000000018932573, 9.999415, 10.000136 
2.8494576e+2, 2.8383514e+2, -218250.0, -272219.4, -46320.184, -0.038409702, 0.12759939, -191627.48, -33204.72, 0.00000028816427, 9.999879, 9.999186 
2.8493768e+2, 2.938336e+2, -244907.58, -237209.9, -29651.877, 0.008771091, 0.046735384, -211158.11, -150726.08, 0.0000027347362, 9.999029, 9.999162 
2.849295e+2, 3.0382964e+2, -289650.47, -339599.25, 83336.85, -0.0676604, -0.22290146, -227626.28, -227626.28, 0.000011990512, 9.998853, 9.998213 
2.8492346e+2, 3.138312e+2, -122525.734, -85757.01, -39657.56, -0.027887426, 0.11659765, -60429.74, -60429.74, 0.000033758955, 9.999229, 9.999768 
2.950986e+2, 1.23857036e+2, -1327759.6, -1608537.1, 68837.45, -0.034806225, 0.044699326, -1311791.1, 414417.38, 0.00028129522, 10.002942, 9.999301 
2.950896e+2, 1.3385667e+2, -1467103.0, -1621029.0, -17048.246, 0.014090634, 0.056676485, -1465237.5, 162977.08, 0.00011974083, 10.001342, 9.9993105 
2.9507926e+2, 1.4385551e+2, -1471429.8, -1626364.0, -13535.833, -0.080810234, 0.032846283, -1470256.0, 59971.95, 0.000029635712, 10.000856, 9.998841 
2.9507107e+2, 1.5385664e+2, -1185943.1, -1456035.5, -14663.081, -0.011460588, 0.25254598, -1185149.4, 247069.02, 0.0000047316526, 10.002227, 9.998675 
2.9506266e+2, 1.6385551e+2, -1083510.4, -1424430.8, -26308.047, 0.024886359, 0.3072957, -1081492.1, 252737.23, 0.00000054097734, 10.00257, 9.998047 
2.950538e+2, 1.7385077e+2, -1164119.1, -1425698.4, -33522.195, 0.00010753248, 0.017529795, -1159891.5, 76382.94, 0.0000000012704189, 10.001394, 9.997933 
2.9504478e+2, 1.8384808e+2, -1051466.9, -1209721.5, -52119.5, -0.011807999, -0.08581599, -1035844.1, 102455.06, 0.0, 10.001013, 9.998926 
2.9503554e+2, 1.9384858e+2, -816649.4, -1037754.5, -9178.428, -0.002046813, 0.04450249, -816269.0, 224023.64, 0.0, 10.001917, 9.998998 
2.9502615e+2, 2.038486e+2, -778317.0, -984860.0, -19679.5, 0.023294272, 0.15634072, -776458.6, 165833.98, 0.0, 10.001587, 9.99884 
2.9501632e+2, 2.1384777e+2, -1012752.1, -1050883.5, -21078.732, 0.061843116, 0.17490542, -1003395.75, -159092.33, 0.0, 9.999323, 9.998804 
2.9500633e+2, 2.2384681e+2, -1001595.25, -949267.3, -11357.1455, 0.06958085, 0.18123536, -946908.7, -200594.55, 0.0, 9.998524, 9.999222 
2.9499617e+2, 2.3384553e+2, -686969.5, -743742.1, 5223.4063, 0.03408432, 0.112544484, -686492.94, -38168.098, 0.0, 9.999995, 9.999252 
2.9498532e+2, 2.4384499e+2, -542731.2, -608928.5, -33627.438, -0.038981903, 0.12884218, -528645.9, 21683.71, 0.0, 10.00024, 9.999391 
2.9497322e+2, 2.538454e+2, -700863.6, -637953.8, -48996.656, -0.17152905, 0.21423194, -611184.3, -158857.98, 0.0, 9.998496, 9.99936 
2.949629e+2, 2.638446e+2, -677541.94, -582483.1, -32270.53, -0.18880479, 0.20685644, -572563.1, -218229.28, 0.0, 9.998023, 9.999288 
2.949554e+2, 2.738421e+2, -386881.88, -396597.44, -53854.67, -0.009557353, 0.011274159, -337666.34, -81309.4, 0.0000000016821552, 9.99936, 9.9992485 
2.9494697e+2, 2.838413e+2, -210122.22, -244894.53, -78314.48, 0.07951974, 0.0038796149, -147287.2, 11074.274, 0.00000022409213, 9.999838, 9.9993925 
2.949367e+2, 2.9384264e+2, -224540.83, -187014.34, -50789.273, -0.01663273, 0.17777716, -151633.25, -91291.13, 0.0000026529046, 9.998991, 9.999528 
2.9492804e+2, 3.0383897e+2, -217162.2, -182749.17, 90302.37, -0.11596012, -0.13763289, -108028.65, -108028.65, 0.000012335517, 9.998823, 9.999303 
2.9492313e+2, 3.1383696e+2, -120363.03, -75974.86, -2543.315, -0.026417201, -0.26265636, -75829.61, -75829.61, 0.000034800534, 9.999195, 9.999851 
3.0510002e+2, 1.2386598e+2, -1606851.1, -1837931.1, 86578.66, -0.100035496, -0.059384726, -1578011.9, 148101.44, 0.00022926969, 10.001443, 9.998451 
3.0509147e+2, 1.3386607e+2, -1403508.6, -1665308.9, -28751.816, 0.035265066, 0.06890522, -1400388.3, 227731.2, 0.00009406682, 10.00209, 9.998654 
3.0508113e+2, 1.438647e+2, -1270461.8, -1570034.1, 20224.063, -0.054759655, 0.07382244, -1269102.5, 261035.0, 0.00002163711, 10.002437, 9.99845 
3.0507323e+2, 1.5386474e+2, -1168928.8, -1493763.9, 2918.6538, -0.02798947, 0.2281787, -1168902.6, 263235.88, 0.0000030875526, 10.002554, 9.998249 
3.0506483e+2, 1.638632e+2, -1082102.1, -1410524.4, -29912.729, -0.008144909, 0.25592285, -1079399.9, 254753.66, 0.0000002653173, 10.002514, 9.998168 
3.0505535e+2, 1.7385894e+2, -1036832.44, -1338287.8, -14621.875, -0.015666297, -0.0038759103, -1036124.9, 200067.66, 0.0, 10.002157, 9.998161 
3.0504608e+2, 1.8385673e+2, -933257.25, -1132971.4, 7745.506, -0.013585502, -0.08215313, -932957.3, 205255.19, 0.0, 10.00174, 9.9991045 
3.0503717e+2, 1.9385757e+2, -907646.9, -1064202.9, -27354.799, 0.006406697, 0.06527644, -903004.8, 137198.73, 0.0, 10.001212, 9.999162 
3.0502757e+2, 2.038576e+2, -861817.94, -1030109.25, -105699.67, 0.042107403, 0.17332357, -810860.25, 131343.67, 0.0, 10.001031, 9.998805 
3.0501702e+2, 2.1385637e+2, -718631.56, -919217.75, -125495.125, 0.103057936, 0.15805942, -658276.8, 185942.3, 0.0, 10.001375, 9.998729 
3.0500662e+2, 2.2385553e+2, -594405.2, -741695.56, -62808.492, 0.11236448, 0.17781365, -571259.25, 174969.22, 0.0, 10.001267, 9.999326 
3.0499646e+2, 2.3385528e+2, -611815.5, -693128.9, -59293.82, 0.04310678, 0.19441873, -580578.4, 67650.76, 0.0, 10.00045, 9.999379 
3.049855e+2, 2.4385476e+2, -607236.75, -663159.06, -123493.13, -0.020864004, 0.21984743, -508578.88, 41654.02, 0.0, 9.999911, 9.999169 
3.049733e+2, 2.538539e+2, -515900.56, -573318.5, -138973.19, -0.07992877, 0.20025389, -402701.97, 49540.063, 0.0, 9.99989, 9.999123 
3.0496258e+2, 2.6385227e+2, -488002.25, -520686.2, -45696.91, -0.09242707, 0.13338454, -455813.13, -101555.984, 0.0, 9.99945, 9.999027 
3.049543e+2, 2.738496e+2, -544657.06, -503222.38, -27415.62, -0.0076460983, -0.052684713, -489576.6, -233295.67, 0.00000000014964384, 9.998407, 9.998979 
3.049457e+2, 2.8384882e+2, -471765.72, -362763.03, -25685.941, 0.06701466, -0.04765668, -357013.53, -198727.95, 0.00000013461268, 9.998013, 9.999456 
3.049365e+2, 2.9385075e+2, -279343.22, -200119.75, -30808.508, 0.091895334, 0.17598568, -189549.28, -129286.945, 0.0000024042524, 9.998575, 9.999628 
3.0492812e+2, 3.0384812e+2, -175881.06, -76124.78, 97322.58, 0.019621756, -0.07620226, -16643.365, -16643.365, 0.000011969342, 9.99873, 10.000084 
3.0492115e+2, 3.1384593e+2, -307603.6, -165702.78, -34532.676, -0.07103181, -0.30158705, -157745.23, -157745.23, 0.00003458678, 9.997893, 9.999875 
3.151008e+2, 1.23875074e+2, -1673090.9, -1984517.5, 67864.04, -0.20824915, -0.18774101, -1658945.0, 67071.1, 0.00018682136, 10.0014925, 9.997418 
3.1509322e+2, 1.338775e+2, -1461535.1, -1780767.4, -2750.7168, -0.012053317, 0.25699136, -1461511.4, 166493.58, 0.00007455782, 10.002088, 9.997857 
3.1508324e+2, 1.4387558e+2, -1308503.8, -1653242.8, 18305.365, -0.10777555, 0.27876538, -1307534.4, 222495.75, 0.000015951327, 10.002443, 9.997881 
3.1507546e+2, 1.5387073e+2, -1201874.5, -1570956.0, 14800.085, -0.08138817, -0.0062296274, -1201282.0, 230794.44, 0.00000170519, 10.002586, 9.997705 
3.1506717e+2, 1.6386837e+2, -1038458.94, -1318282.8, -52011.12, -0.042164225, -0.0576309, -1029104.25, 304994.1, 0.000000057148895, 10.002504, 9.998808 
3.1505767e+2, 1.7386962e+2, -985246.2, -1225487.3, -25499.604, -0.015744, 0.15559809, -982569.44, 253515.64, 0.0, 10.002134, 9.998946 
3.1504828e+2, 1.8386938e+2, -978059.8, -1222552.8, -18502.303, 0.016077617, 0.25810528, -976667.56, 161420.1, 0.0, 10.001719, 9.998502 
3.1503907e+2, 1.9386667e+2, -965963.5, -1174316.9, -40925.67, 0.057880364, 0.12518995, -958213.0, 81902.5, 0.0, 10.001164, 9.998428 
3.1502882e+2, 2.0386463e+2, -884190.25, -1058705.9, -103247.88, 0.046870288, 0.0741702, -836266.5, 105870.38, 0.0, 10.0009575, 9.998643 
3.15017e+2, 2.1386357e+2, -736889.3, -938443.2, -106143.39, -0.0496207, 0.085533015, -691302.25, 152846.66, 0.0, 10.001298, 9.998632 
3.1500575e+2, 2.2386292e+2, -599099.7, -737057.2, -94745.66, -0.11739651, 0.12578772, -550882.9, 195272.47, 0.0, 10.001205, 9.999389 
3.149952e+2, 2.3386273e+2, -615877.56, -686315.7, -83686.72, -0.14095312, 0.14481193, -560301.0, 87853.38, 0.0, 10.000384, 9.99946 
3.1498513e+2, 2.43862e+2, -614135.44, -671330.1, -135058.45, -0.06687967, 0.14341219, -504679.9, 45480.285, 0.0, 9.999884, 9.999126 
3.149757e+2, 2.5386047e+2, -527960.06, -583789.25, -136663.33, 0.15704763, 0.06419929, -416389.56, 35786.344, 0.0, 9.9998255, 9.999083 
3.1496483e+2, 2.6385924e+2, -466728.97, -469307.94, -86971.79, 0.17243694, 0.022481782, -381037.1, -26850.563, 0.0, 9.999417, 9.999398 
3.1495163e+2, 2.7385828e+2, -521328.44, -443040.66, -59497.14, -0.1301697, -0.03350314, -410965.5, -154774.02, 0.00000000001473293, 9.998353, 9.99942 
3.1494167e+2, 2.8385767e+2, -489370.75, -386394.0, -17915.303, -0.1506564, -0.029948642, -383366.22, -225171.3, 0.000000108201135, 9.997959, 9.999319 
3.149368e+2, 2.9385775e+2, -307574.72, -242821.86, -1484.3981, 0.24692288, 0.02965722, -242787.84, -182593.66, 0.0000022594174, 9.998501, 9.9993725 
3.1492952e+2, 3.0385694e+2, -145686.55, -2485.361, 70884.48, 0.27084282, -0.050090894, 26667.477, 26667.477, 0.00001165084, 9.998686, 10.000609 
3.14917e+2, 3.1385815e+2, -310202.63, -152220.75, -43772.13, -0.3101255, 0.000098299344, -140903.5, -140903.5, 0.000033846463, 9.99781, 10.000008 
3.2510164e+2, 1.2388288e+2, -1749624.5, -1992968.3, -121992.125, -0.23152845, -0.15073751, -1698999.8, 26940.596, 0.00015585474, 10.000828, 9.997686 
3.2509515e+2, 1.3388494e+2, -1405346.5, -1698326.0, -91772.94, -0.029757371, 0.20731767, -1378973.6, 248955.05, 0.00006148356, 10.002214, 9.998374 
3.2508573e+2, 1.4388303e+2, -1276109.5, -1632398.9, -24565.012, -0.105658844, 0.19990586, -1274423.9, 255527.5, 0.000012624215, 10.002631, 9.997939 
3.250781e+2, 1.53878e+2, -1305893.8, -1618122.4, -6619.91, -0.03735441, -0.10367357, -1305753.5, 126246.13, 0.0000008198343, 10.001857, 9.997736 
3.250697e+2, 1.6387595e+2, -1150774.1, -1333554.3, -31611.4, 0.013573878, -0.14333685, -1145461.4, 188557.66, 0.000000004124255, 10.001577, 9.9991455 
3.2505992e+2, 1.7387824e+2, -973133.25, -1183120.5, -47472.41, 0.0021910064, 0.13953994, -962899.75, 273096.0, 0.0, 10.002055, 9.999279 
3.2505015e+2, 1.8387832e+2, -961727.25, -1253737.6, -66263.12, 0.022036495, 0.2729087, -947394.3, 190601.75, 0.0, 10.00201, 9.998139 
3.250405e+2, 1.9387484e+2, -1002846.9, -1242656.1, -86360.82, 0.092862524, 0.10543582, -974983.75, 65050.234, 0.0, 10.001138, 9.997966 
3.2502982e+2, 2.0387246e+2, -913923.2, -1057279.1, -81968.72, 0.07191969, 0.038182065, -876713.1, 65346.43, 0.0, 10.000682, 9.998788 
3.2501763e+2, 2.1387184e+2, -795874.94, -940588.56, -67811.87, -0.088006675, 0.07145424, -769065.44, 75000.16, 0.0, 10.000783, 9.998866 
3.2500604e+2, 2.2387114e+2, -694289.7, -790570.3, -66593.56, -0.17156829, 0.09856557, -660258.25, 85813.07, 0.0, 10.000584, 9.999322 
3.249954e+2, 2.3387021e+2, -686928.8, -733328.8, -85563.86, -0.13355708, 0.05187043, -621475.44, 26602.305, 0.0, 9.999948, 9.99935 
3.249853e+2, 2.4386922e+2, -644022.25, -679947.3, -100488.766, -0.022092342, 0.029304113, -559903.25, -9816.744, 0.0, 9.999645, 9.999188 
3.2497603e+2, 2.5386822e+2, -503087.84, -562544.7, -96957.664, 0.20390444, -0.0037053942, -431403.4, 20694.38, 0.0, 9.999946, 9.999175 
3.2496497e+2, 2.6386777e+2, -325164.34, -366979.56, -49976.74, 0.20860015, 0.011068206, -291898.13, 62203.152, 0.0, 10.000254, 9.999692 
3.249511e+2, 2.7386773e+2, -177280.98, -241146.06, -47629.5, -0.12361415, 0.018121716, -151870.2, 104225.95, 0.00000000010851988, 10.000575, 9.999729 
3.2494065e+2, 2.8386697e+2, -197401.58, -293604.13, -11236.946, -0.15523848, 0.010431621, -196106.48, -38004.54, 0.00000014601811, 10.000161, 9.998899 
3.2493567e+2, 2.9386562e+2, -330818.2, -311131.4, -27838.447, 0.28552553, -0.027980465, -291447.34, -231328.17, 0.000002235968, 9.9985895, 9.99886 
3.249287e+2, 3.0386564e+2, -233143.64, -16592.598, 50013.605, 0.36476076, -0.0041910494, -5599.7275, -5599.7275, 0.000011376777, 9.997976, 10.000851 
3.2491595e+2, 3.138678e+2, -150956.83, -24758.36, -103246.125, -0.23287629, 0.10008205, 33143.543, 33143.543, 0.000032649332, 9.998715, 10.000434 
3.351021e+2, 1.2388937e+2, -1638659.5, -1770526.0, -120383.26, -0.30945763, 0.04399073, -1567336.4, 158549.58, 0.00013675529, 10.000867, 9.999191 
3.3509704e+2, 1.3388851e+2, -1274390.8, -1430050.8, -37822.44, -0.07942359, -0.06776003, -1265687.3, 362201.88, 0.000054931752, 10.002244, 10.000192 
3.3508846e+2, 1.4388715e+2, -1227785.5, -1530521.1, -57366.91, -0.113899976, -0.15468328, -1217279.4, 312620.9, 0.000011796083, 10.002626, 9.998638 
3.3508077e+2, 1.538867e+2, -1263907.4, -1528630.6, -30782.0, 0.029473811, -0.059184905, -1260375.3, 171531.94, 0.00000057438905, 10.001852, 9.998349 
3.3507216e+2, 1.6388597e+2, -1151990.4, -1334706.8, -24583.307, 0.086284414, 0.000025542218, -1148740.6, 185174.3, 0.00000000201948, 10.001568, 9.999145 
3.3506188e+2, 1.738849e+2, -979848.3, -1196181.8, -22465.398, -0.02434118, -0.04778331, -977540.0, 258383.5, 0.0, 10.0020485, 9.999195 
3.350515e+2, 1.8388362e+2, -983579.56, -1286378.4, -100922.9, -0.057739634, -0.03464211, -953025.1, 184912.08, 0.0, 10.001955, 9.997944 
3.3504128e+2, 1.9388196e+2, -1022838.44, -1274966.1, -113877.836, 0.041263074, 0.0015501645, -979019.25, 60940.56, 0.0, 10.001101, 9.997761 
3.3503047e+2, 2.0388101e+2, -886291.7, -988957.8, -89245.08, 0.05419281, 0.06722559, -834669.6, 107302.64, 0.0, 10.000636, 9.999278 
3.3501863e+2, 2.1388109e+2, -765361.44, -857664.3, -57673.895, -0.07574312, 0.11076891, -737646.56, 106323.195, 0.0, 10.000701, 9.999473 
3.3500737e+2, 2.2388017e+2, -720879.7, -829627.06, -94592.47, -0.11099903, 0.09149583, -666146.8, 79830.16, 0.0, 10.000512, 9.999089 
3.349968e+2, 2.3387766e+2, -719922.94, -784604.06, -105926.04, -0.0004569698, -0.08127339, -641510.44, 6489.13, 0.0, 9.999871, 9.999036 
3.349858e+2, 2.4387643e+2, -633521.25, -650305.0, -98671.625, 0.0465532, -0.11998569, -542885.25, 7126.3057, 0.0, 9.999611, 9.999408 
3.34974e+2, 2.5387722e+2, -490188.8, -525935.4, -79565.28, -0.007334887, -0.0043760804, -426514.0, 25493.1, 0.0, 9.999903, 9.999446 
3.3496287e+2, 2.6387784e+2, -318267.7, -348716.44, -43748.113, -0.042951457, 0.10015627, -287170.6, 66830.37, 0.0, 10.000236, 9.999827 
3.349525e+2, 2.7387786e+2, -174226.03, -223737.05, -29889.508, -0.05783211, 0.09890257, -160171.52, 95824.27, 0.000000000044508567, 10.0005245, 9.999874 
3.3494237e+2, 2.8387675e+2, -242995.63, -386149.72, -68833.805, -0.013525472, 0.06892898, -215268.27, -57261.46, 0.00000018850986, 10.000148, 9.998273 
3.349328e+2, 2.9387435e+2, -393157.6, -433553.5, -81559.22, 0.12076247, 0.0051701632, -329332.56, -269296.0, 0.0000021997091, 9.99855, 9.998043 
3.3492538e+2, 3.0387408e+2, -251465.02, -42898.945, 63413.035, 0.2224527, 0.05723896, -25132.137, -25132.137, 0.000010801098, 9.997931, 10.0006895 
3.3491758e+2, 3.138746e+2, -128024.875, 50627.734, -44779.81, 0.024023404, -0.004731206, 61223.5, 61223.5, 0.000030818417, 9.998598, 10.001009 
3.4510475e+2, 1.2389702e+2, -1296017.9, -1613135.6, 114613.66, -0.24152085, 0.041175663, -1258931.1, 466878.47, 0.00012662933, 10.003264, 9.999113 
3.450998e+2, 1.3389483e+2, -1228450.5, -1417713.3, 60205.246, -0.037749566, -0.19799493, -1210922.3, 416901.44, 0.000053448413, 10.002588, 10.000121 
3.4509104e+2, 1.4389376e+2, -1289192.5, -1524309.3, -54095.76, -0.087220386, -0.26323, -1277343.3, 252487.75, 0.0000131995685, 10.002061, 9.998948 
3.450825e+2, 1.538949e+2, -1213417.4, -1469731.0, -67308.54, 0.012367636, -0.045137953, -1196817.1, 235006.61, 0.00000089811203, 10.002047, 9.99866 
3.4507352e+2, 1.6389464e+2, -1133356.4, -1332177.9, -54958.285, 0.058760855, 0.047416244, -1119176.1, 214651.66, 0.0000000015154811, 10.001722, 9.999086 
3.4506324e+2, 1.7389241e+2, -1151435.5, -1285403.6, -68029.945, -0.031644028, -0.10696789, -1122947.4, 112900.664, 0.0, 10.00091, 9.9991255 
3.4505275e+2, 1.8389072e+2, -1125346.9, -1309015.5, -108172.34, -0.06828293, -0.15145576, -1075284.0, 62581.11, 0.0, 10.000775, 9.998362 
3.450422e+2, 1.9388974e+2, -916443.6, -1172371.8, -77845.05, 0.0021723753, -0.092965946, -894625.6, 145253.0, 0.0, 10.001597, 9.998234 
3.4503138e+2, 2.0388931e+2, -710953.56, -900950.3, -40995.984, 0.028883232, -0.0031932266, -702485.2, 239399.9, 0.0, 10.001819, 9.999314 
3.4502003e+2, 2.1388951e+2, -713969.2, -839351.8, -69655.59, -0.022019701, 0.05699167, -682947.6, 160935.06, 0.0, 10.001066, 9.999428 
3.4500882e+2, 2.2388877e+2, -693363.44, -805919.0, -106271.28, -0.019190261, 0.053706277, -629388.25, 116501.234, 0.0, 10.000661, 9.999179 
3.4499776e+2, 2.3388655e+2, -575965.2, -703074.9, -97782.28, 0.06792081, -0.098061234, -522898.47, 125011.87, 0.0, 10.000812, 9.999141 
3.4498602e+2, 2.4388567e+2, -463128.06, -551064.94, -61278.48, 0.05857686, -0.117029704, -431675.84, 118243.68, 0.0, 10.000714, 9.9995575 
3.4497315e+2, 2.5388673e+2, -438661.5, -486334.8, -63964.52, -0.093430124, 0.013846376, -394236.56, 57674.75, 0.0, 10.000193, 9.999581 
3.44962e+2, 2.6388714e+2, -416641.8, -434746.22, -35894.125, -0.12103081, 0.104074605, -388676.03, -34768.188, 0.0, 9.999726, 9.99948 
3.4495348e+2, 2.7388626e+2, -364570.7, -359831.75, -71668.195, 0.04841769, 0.05414981, -290493.88, -34579.707, 0.0, 9.999414, 9.999474 
3.4494334e+2, 2.8388506e+2, -350219.7, -423877.75, -121704.914, 0.11209942, 0.036676936, -259893.44, -101966.12, 0.00000016974016, 9.999369, 9.998383 
3.4493086e+2, 2.9388374e+2, -224244.42, -336664.5, -85465.42, 0.021376217, 0.060754076, -178161.22, -118214.15, 0.0000019719364, 9.999653, 9.998177 
3.4492272e+2, 3.0388367e+2, -126394.266, -24900.32, 111512.01, 0.11892549, 0.14761667, 46868.758, 46868.758, 0.000009630792, 9.998953, 10.000324 
3.4491733e+2, 3.1388247e+2, -372532.7, -48658.117, -23742.102, 0.23709187, -0.054726128, -46926.918, -46926.918, 0.000028581368, 9.99681, 10.001194 
3.5510918e+2, 1.2390585e+2, -1395138.0, -1846436.9, 44550.348, -0.17316754, -0.14250788, -1390782.3, 334929.34, 0.0001206742, 10.003369, 9.997466 
3.55103e+2, 1.3390388e+2, -1351382.9, -1676511.8, 38208.203, 0.008234039, -0.18257809, -1346953.1, 280779.4, 0.000054324108, 10.002607, 9.998333 
3.5509312e+2, 1.4390302e+2, -1296137.1, -1547280.3, -64637.652, -0.107441634, -0.12253181, -1280477.5, 249265.05, 0.000015580361, 10.002091, 9.99878 
3.5508317e+2, 1.5390266e+2, -1208430.1, -1467676.4, -61126.973, -0.14803693, -0.04921242, -1194740.0, 237008.42, 0.0000017221554, 10.002081, 9.998659 
3.5507354e+2, 1.6390194e+2, -1140367.9, -1345608.0, -91398.2, -0.12837835, 0.0023676674, -1105567.0, 228190.13, 0.000000007086625, 10.001715, 9.998998 
3.5506374e+2, 1.739007e+2, -1155671.9, -1297967.9, -91896.836, -0.08938524, -0.04541562, -1110600.0, 125169.766, 0.0, 10.00092, 9.999036 
3.550535e+2, 1.8389948e+2, -1059324.0, -1160587.0, -88490.93, -0.08152638, -0.084650986, -1008003.56, 129777.12, 0.0, 10.000731, 9.9994 
3.5504302e+2, 1.9389823e+2, -840809.94, -1003167.5, -39967.156, -0.08926022, -0.17125705, -831504.6, 208285.22, 0.0, 10.001549, 9.999416 
3.5503244e+2, 2.038974e+2, -752719.94, -973990.56, -68636.11, -0.060283657, -0.16515148, -733158.9, 208638.67, 0.0, 10.001756, 9.998845 
3.5502157e+2, 2.1389715e+2, -769511.6, -940212.0, -92666.44, 0.01181209, -0.086205415, -728878.8, 114925.0, 0.0, 10.001003, 9.998766 
3.550102e+2, 2.2389704e+2, -674252.6, -753030.4, -108733.61, 0.043849323, -0.008640024, -597993.4, 147814.44, 0.0, 10.000604, 9.99957 
3.5499814e+2, 2.33897e+2, -548575.0, -634322.5, -85033.99, 0.008147168, 0.0065148133, -496217.78, 151591.52, 0.0, 10.000759, 9.999639 
3.5498583e+2, 2.4389693e+2, -467680.38, -549572.5, -83817.39, -0.043441083, 0.04214201, -415342.28, 134467.78, 0.0, 10.000669, 9.999589 
3.5497323e+2, 2.538967e+2, -449606.1, -493319.1, -79300.78, -0.11830051, 0.045462407, -389204.94, 62605.973, 0.0, 10.000129, 9.999564 
3.549623e+2, 2.638956e+2, -481407.25, -559451.75, -52765.258, -0.081492096, 0.020670671, -454802.47, -100980.26, 0.0, 9.999685, 9.998642 
3.5495383e+2, 2.7389294e+2, -441296.75, -506756.38, -75365.24, 0.12621602, -0.11305773, -391861.13, -136010.3, 0.0, 9.999362, 9.998488 
3.549433e+2, 2.8389195e+2, -297093.63, -308405.16, -119014.04, 0.15642186, -0.08965651, -183601.03, -25737.074, 0.00000011654808, 9.999345, 9.999187 
3.5492963e+2, 2.9389358e+2, -154972.03, -185504.42, -68317.41, -0.082522035, 0.12733808, -100235.91, -40384.367, 0.0000016005947, 9.999618, 9.999231 
3.5492057e+2, 3.038944e+2, -161839.16, -90010.04, 37655.438, -0.007517389, 0.26149312, -73888.195, -73888.195, 0.000008029012, 9.99892, 9.999891 
3.549146e+2, 3.1389186e+2, -398231.03, -74219.8, -67085.68, 0.24913892, -0.016913427, -60879.16, -60879.16, 0.00002594716, 9.996701, 10.001065 
3.651137e+2, 1.23916276e+2, -1364782.1, -1888697.0, -43600.516, -0.07611076, -0.10578451, -1361178.4, 364429.56, 0.0001173425, 10.003828, 9.996953 
3.6510524e+2, 1.339138e+2, -1369238.9, -1763148.9, 30435.748, -0.029505996, -0.12557013, -1366901.1, 260735.67, 0.000055697445, 10.002826, 9.997625 
3.6509478e+2, 1.4391275e+2, -1283993.9, -1541901.0, 20786.998, -0.14924945, -0.044572346, -1282329.3, 247320.3, 0.000017764012, 10.002181, 9.998775 
3.6508527e+2, 1.5391147e+2, -1207121.3, -1455252.3, 19433.227, -0.13839184, -0.07212822, -1205608.5, 226053.92, 0.000002786188, 10.002038, 9.998769 
3.6507556e+2, 1.6391045e+2, -1115639.9, -1323758.8, 886.60754, -0.09837566, -0.060603734, -1115636.1, 218036.95, 0.00000008230677, 10.001841, 9.999089 
3.6506492e+2, 1.7390996e+2, -1052161.0, -1237266.9, -3831.7278, -0.093011275, -0.041482527, -1052081.6, 183597.16, 0.0, 10.001585, 9.999132 
3.6505437e+2, 1.8390937e+2, -920633.44, -1055045.9, 28864.428, -0.10369652, -0.036524497, -914697.1, 222986.28, 0.0, 10.001518, 9.999745 
3.650444e+2, 1.9390845e+2, -795400.56, -937565.9, 13048.0625, -0.112615705, -0.12782784, -794212.94, 245475.55, 0.0, 10.001675, 9.999807 
3.6503372e+2, 2.0390755e+2, -835766.4, -1021385.8, -75755.95, -0.07532097, -0.14914633, -808773.75, 132922.75, 0.0, 10.001225, 9.998775 
3.6502206e+2, 2.1390663e+2, -949350.94, -1041578.6, -81204.63, 0.023919234, -0.12188642, -902080.2, -58370.887, 0.0, 9.999843, 9.99863 
3.6501026e+2, 2.2390632e+2, -874566.6, -851498.0, -31947.281, 0.05843735, -0.053809732, -829066.6, -83351.09, 0.0, 9.999235, 9.999552 
3.6499825e+2, 2.3390682e+2, -695399.4, -706181.75, -51523.773, 0.0015645956, 0.014691762, -648985.5, -1272.766, 0.0, 9.999754, 9.999629 
3.6498603e+2, 2.4390689e+2, -555147.56, -594430.8, -82628.49, -0.057765525, 0.065354675, -489858.28, 59854.16, 0.0, 10.00007, 9.999574 
3.6497328e+2, 2.5390628e+2, -462001.1, -498004.9, -90449.53, -0.11691568, 0.029636081, -387779.44, 63937.15, 0.0, 10.000037, 9.999576 
3.6496207e+2, 2.6390502e+2, -456122.25, -556799.44, -29264.287, -0.0757538, -0.0042482936, -448233.94, -94504.52, 0.0, 9.9999, 9.998561 
3.6495325e+2, 2.739027e+2, -416918.2, -506717.72, 414.35367, 0.12554856, -0.09512193, -416916.25, -161159.28, 0.0, 9.999574, 9.998389 
3.6494264e+2, 2.8390202e+2, -270121.94, -238222.06, 8294.427, 0.16287299, -0.05875483, -236194.3, -78427.336, 0.000000055764154, 9.999276, 9.999706 
3.649293e+2, 2.939039e+2, -203303.47, -138504.03, 10429.292, -0.043245852, 0.12276089, -136866.83, -77118.06, 0.0000011854916, 9.998989, 9.999857 
3.6491957e+2, 3.0390462e+2, -231056.64, -136890.84, 70550.914, 0.027231898, 0.21820502, -99154.93, -99154.93, 0.000006614604, 9.998502, 9.999777 
3.649122e+2, 3.139025e+2, -265485.3, -21063.133, -16147.036, 0.29667115, 0.00820683, -20001.041, -20001.041, 0.000023524617, 9.997658, 10.00098 
3.7511757e+2, 1.2392846e+2, -1322425.1, -1806384.4, -127779.695, -0.11128245, 0.16923179, -1290759.4, 434737.28, 0.00011727098, 10.00385, 9.997504 
3.751065e+2, 1.3392475e+2, -1339108.0, -1713126.3, 40.630203, -0.2118337, -0.011929119, -1339108.0, 288427.13, 0.000057588015, 10.002877, 9.997942 
3.7509584e+2, 1.43923e+2, -1271300.3, -1515453.8, 2822.9958, -0.28074974, -0.026695242, -1271267.6, 258284.53, 0.000019793933, 10.002184, 9.998953 
3.7508848e+2, 1.539212e+2, -1189835.9, -1424730.0, 21453.146, -0.039399248, -0.12477206, -1187892.5, 243674.27, 0.000003853391, 10.002064, 9.998965 
3.7507927e+2, 1.639201e+2, -1099343.0, -1288770.4, -14331.606, 0.07024826, -0.14439245, -1098264.9, 235310.97, 0.00000020238203, 10.001836, 9.9993305 
3.7506652e+2, 1.7392024e+2, -1036993.2, -1207011.8, -6697.898, -0.10575721, -0.0846031, -1036729.75, 198844.8, 0.0, 10.001587, 9.999341 
3.750551e+2, 1.8392038e+2, -947744.75, -1100406.6, 27505.793, -0.19673456, -0.0061846343, -942940.1, 194633.55, 0.0, 10.001474, 9.999453 
3.7504598e+2, 1.9392036e+2, -828994.1, -991993.7, 25768.863, -0.13220982, 0.02839973, -825017.3, 214557.72, 0.0, 10.001615, 9.999458 
3.750351e+2, 2.0391968e+2, -824953.0, -987687.7, -127909.89, -0.07376732, 0.036838587, -754723.56, 186858.88, 0.0, 10.001172, 9.999034 
3.750213e+2, 2.1391796e+2, -932685.2, -994051.7, -126912.01, -0.049503863, -0.05093354, -832800.0, 10799.342, 0.0, 9.999784, 9.998984 
3.7500873e+2, 2.2391665e+2, -915417.44, -920832.0, -26187.582, -0.030666545, -0.07993487, -891797.56, -146184.95, 0.0, 9.999165, 9.999112 
3.74998e+2, 2.3391594e+2, -738824.56, -784352.2, -26262.102, -0.01329852, -0.082719, -726833.6, -79212.195, 0.0, 9.999697, 9.999122 
3.7498632e+2, 2.4391553e+2, -566743.7, -602689.8, -85569.055, -0.04354297, -0.05192391, -497280.5, 52346.258, 0.0, 10.000006, 9.999548 
3.749731e+2, 2.5391546e+2, -469299.5, -501536.8, -84158.43, -0.15386581, -0.032933485, -399730.03, 51897.92, 0.0, 9.999983, 9.999579 
3.7496126e+2, 2.639155e+2, -414912.9, -461171.75, -45593.08, -0.16281842, 0.030843468, -386917.97, -33288.508, 0.0, 9.999862, 9.999233 
3.7495148e+2, 2.739156e+2, -371316.22, -397760.84, -4363.1772, -0.023037083, 0.10380683, -370614.94, -114982.59, 0.0, 9.999514, 9.999167 
3.7494105e+2, 2.8391534e+2, -261310.78, -210426.66, -7203.2324, 0.0625016, 0.13440844, -209426.61, -51791.19, 0.00000003400916, 9.999233, 9.99992 
3.7492958e+2, 2.9391465e+2, -202045.14, -122839.3, 6815.4697, 0.06998088, 0.043317378, -122257.12, -62618.113, 0.0000008994765, 9.998925, 9.999999 
3.749195e+2, 3.0391425e+2, -229288.06, -112875.94, 36356.785, 0.15684363, 0.011642582, -102454.305, -102454.305, 0.000005653841, 9.99843, 9.999972 
3.7490958e+2, 3.1391436e+2, -283513.03, -27502.025, -17134.303, 0.23682386, 0.010179094, -26360.352, -26360.352, 0.000021891798, 9.9975395, 10.000988 
3.8512143e+2, 1.2393849e+2, -1470063.3, -1808137.5, -94481.516, -0.036357924, 0.14859676, -1445450.5, 279949.5, 0.00012051854, 10.0025425, 9.998124 
3.8510936e+2, 1.3393503e+2, -1400135.6, -1705133.1, 29002.078, -0.17883691, -0.043914698, -1397402.3, 230032.64, 0.00006024057, 10.002294, 9.998287 
3.8509887e+2, 1.4393361e+2, -1243979.9, -1489872.0, 68645.77, -0.19790147, -0.04777865, -1226114.1, 303333.97, 0.000021870095, 10.002312, 9.999068 
3.8509127e+2, 1.5393248e+2, -1104247.1, -1372098.3, 62513.38, 0.012965052, -0.089208394, -1090375.6, 341080.84, 0.000004862859, 10.002606, 9.999063 
3.8508177e+2, 1.6393147e+2, -1001886.1, -1256887.1, 6296.558, 0.10409638, -0.09927843, -1001730.75, 331733.84, 0.00000029520132, 10.002557, 9.999211 
3.8506842e+2, 1.7393078e+2, -994690.0, -1201357.3, -24247.102, -0.0884295, -0.10920426, -991883.4, 243587.53, 0.0, 10.001931, 9.999218 
3.8505638e+2, 1.8393064e+2, -1021258.44, -1161640.6, 8167.108, -0.19482194, -0.04309208, -1020784.9, 116688.77, 0.0, 10.001078, 9.999225 
3.8504666e+2, 1.9393107e+2, -1102489.1, -1155467.1, -749.25824, -0.13251802, 0.061149552, -1102478.5, -63005.086, 0.0, 9.999861, 9.9991865 
3.8503534e+2, 2.0393066e+2, -999909.1, -1033473.7, -110487.2, -0.09174559, 0.09670576, -904936.9, 36541.676, 0.0, 9.999802, 9.999379 
3.8502136e+2, 2.139289e+2, -659741.1, -818037.75, -111849.164, -0.1028906, -0.035534102, -601868.6, 241623.84, 0.0, 10.001456, 9.99939 
3.850087e+2, 2.2392756e+2, -513307.38, -749738.75, -749.16125, -0.08662564, -0.08442729, -513305.0, 232200.0, 0.0, 10.002024, 9.99891 
3.8499823e+2, 2.3392677e+2, -578819.5, -736771.4, 1581.9484, -0.02019662, -0.0652212, -578803.7, 68712.05, 0.0, 10.000933, 9.99885 
3.8498658e+2, 2.439262e+2, -588910.25, -616102.3, -46706.504, -0.010083201, -0.036590785, -553861.1, -4337.7935, 0.0, 9.999868, 9.999515 
3.8497308e+2, 2.5392577e+2, -639463.8, -587742.2, -60475.348, -0.09152302, -0.04955013, -547830.3, -96303.02, 0.0, 9.998834, 9.999537 
3.8496086e+2, 2.6392597e+2, -561193.2, -480296.94, 10499.11, -0.12267588, 0.013318007, -478956.53, -125430.59, 0.0, 9.998625, 9.9997 
3.8495055e+2, 2.7392706e+2, -320992.03, -310879.66, 23955.451, -0.06522508, 0.13070232, -291452.63, -35935.766, 0.0, 9.999593, 9.999722 
3.8493976e+2, 2.8392693e+2, -212704.92, -199047.52, -22854.545, -0.0038180377, 0.14670663, -182023.31, -24505.838, 0.000000026095549, 9.999617, 9.999815 
3.8492808e+2, 2.9392502e+2, -323457.6, -199369.86, -47142.664, 0.069990955, -0.047018364, -183491.52, -123958.625, 0.0000006696504, 9.998175, 9.99983 
3.8491756e+2, 3.039245e+2, -332714.0, -169008.61, 5582.6997, 0.16484016, -0.08187047, -168818.45, -168818.45, 0.0000049598348, 9.997741, 9.999917 
3.8490805e+2, 3.139256e+2, -136837.1, 24132.217, -79418.48, 0.28729928, 0.017547758, 56718.664, 56718.664, 0.000021460863, 9.998626, 10.000819 
3.951249e+2, 1.2394652e+2, -1428422.9, -1718415.3, -135322.45, 0.016678266, -0.14802234, -1375085.9, 350230.75, 0.00012411328, 10.002545, 9.998737 
3.9511353e+2, 1.3394453e+2, -1370939.0, -1648157.0, 25945.18, -0.008463176, -0.2295105, -1368531.8, 258805.33, 0.00006272597, 10.002319, 9.998663 
3.951035e+2, 1.4394452e+2, -1244575.8, -1495318.4, 71812.34, 0.014067242, -0.11074094, -1225465.3, 303872.8, 0.000023584134, 10.002317, 9.999034 
3.950934e+2, 1.5394531e+2, -1102610.1, -1377900.1, 80438.66, -0.05216846, 0.04380963, -1080829.5, 350502.0, 0.000005569423, 10.002636, 9.999012 
3.9508286e+2, 1.6394445e+2, -1035061.4, -1315763.3, -23714.715, -0.060273178, 0.07042148, -1033071.94, 300268.28, 0.00000035120044, 10.00252, 9.998823 
3.9507037e+2, 1.7394152e+2, -1026255.1, -1260693.6, -42035.188, -0.100624904, -0.12103022, -1018946.0, 216422.2, 0.0, 10.001909, 9.998821 
3.95058e+2, 1.839401e+2, -1042796.25, -1195103.4, -40592.36, -0.15157163, -0.15284255, -1032653.2, 104730.49, 0.0, 10.001026, 9.9990225 
3.9504623e+2, 1.9394065e+2, -1121488.4, -1181552.6, -40844.867, -0.17816922, -0.01744461, -1100823.0, -61440.316, 0.0, 9.999805, 9.999033 
3.950343e+2, 2.0394056e+2, -979581.56, -973039.1, -65599.21, -0.18858825, 0.03664759, -910629.6, 30754.672, 0.0, 9.999727, 9.999828 
3.9502198e+2, 2.1393946e+2, -636432.5, -744168.94, -41728.656, -0.19914995, -0.082393125, -622160.7, 221228.53, 0.0, 10.001356, 9.99994 
3.9501008e+2, 2.2393899e+2, -522980.1, -754790.3, -37269.754, -0.16479743, -0.07444161, -517135.34, 228257.5, 0.0, 10.001953, 9.998913 
3.9499873e+2, 2.3393926e+2, -591835.06, -748920.3, -33282.957, -0.07819674, 0.056878183, -585074.1, 62322.03, 0.0, 10.000865, 9.998801 
3.949865e+2, 2.4393877e+2, -602287.44, -630446.8, -91403.09, -0.0175744, 0.10287793, -523885.94, 25517.09, 0.0, 9.999812, 9.999444 
3.94973e+2, 2.5393713e+2, -652352.94, -600360.3, -92533.94, 0.0034268678, -0.030834734, -530240.4, -78824.79, 0.0, 9.998768, 9.999485 
3.9496073e+2, 2.6393646e+2, -552131.25, -444619.8, 35097.234, -0.010940689, -0.06295527, -434176.66, -80757.664, 0.0, 9.998555, 9.999977 
3.949503e+2, 2.7393708e+2, -306416.44, -268625.1, 68688.76, -0.068655364, -0.020294374, -216280.39, 39130.707, 0.0, 9.999538, 10.00004 
3.949385e+2, 2.839367e+2, -244200.22, -254439.97, -74240.77, -0.10421645, -0.031176059, -174902.98, -17489.123, 0.000000010243951, 9.9995775, 9.999453 
3.9492446e+2, 2.9393512e+2, -368113.84, -270441.38, -92896.48, -0.121281095, -0.14740999, -214326.52, -154896.4, 0.00000051187845, 9.998084, 9.999388 
3.9491364e+2, 3.0393544e+2, -360056.6, -214500.52, 28130.969, -0.017772358, -0.062020216, -209252.95, -209252.95, 0.0000058228006, 9.997693, 9.999625 
3.9490727e+2, 3.1393614e+2, -175236.34, -32385.338, -30275.076, 0.3154189, 0.030673245, -26233.895, -26233.895, 0.00002601799, 9.998538, 10.000466 
4.051277e+2, 1.2395718e+2, -1436869.9, -1681502.8, -93749.664, 0.06741438, -0.205668, -1405074.9, 320139.28, 0.000125019, 10.002298, 9.99911 
4.0511605e+2, 1.3395669e+2, -1267668.4, -1578699.3, 34741.81, -0.010727112, -0.162788, -1263835.0, 363384.5, 0.00006390436, 10.002936, 9.998844 
4.051065e+2, 1.4395687e+2, -1198436.3, -1497149.3, 57808.465, 0.06422024, -0.02572664, -1187639.1, 341579.53, 0.000024485202, 10.002742, 9.998815 
4.0509492e+2, 1.5395662e+2, -1327346.3, -1517367.4, 31660.45, -0.09095861, 0.050782222, -1322210.0, 109012.83, 0.000005781208, 10.001222, 9.998737 
4.0508366e+2, 1.6395558e+2, -1329478.1, -1423748.1, -29657.117, -0.11664254, 0.062186662, -1320924.3, 12309.578, 0.0000003430959, 10.000358, 9.99912 
4.0507162e+2, 1.7395379e+2, -1216307.3, -1313535.6, -6759.692, -0.088496245, -0.05292141, -1215839.5, 19412.008, 0.0, 10.000441, 9.999163 
4.0505937e+2, 1.8395266e+2, -1067865.5, -1201209.5, 46701.426, -0.105397105, -0.07414761, -1053136.1, 84126.95, 0.0, 10.000826, 9.999077 
4.0504718e+2, 1.9395228e+2, -862751.4, -1054780.0, 52960.418, -0.14766593, -0.035643052, -849113.7, 190155.08, 0.0, 10.001571, 9.999055 
4.050351e+2, 2.039517e+2, -713253.25, -848738.4, 46297.223, -0.16845113, -0.026239904, -698944.06, 242329.47, 0.0, 10.001575, 9.999792 
4.0502316e+2, 2.1395083e+2, -776736.6, -822392.4, 14158.191, -0.16531985, -0.11744546, -772702.5, 70575.055, 0.0, 10.000432, 9.999854 
4.050112e+2, 2.2395067e+2, -819474.1, -892689.2, -13951.639, -0.140858, -0.073089615, -816905.6, -71626.94, 0.0, 9.999908, 9.998943 
4.0499908e+2, 2.3395148e+2, -666716.7, -783998.6, -19029.973, -0.095594965, 0.108185835, -663706.2, -16428.969, 0.0, 10.000348, 9.998806 
4.049866e+2, 2.4395098e+2, -486032.75, -590593.94, -67194.52, -0.025007885, 0.15930338, -453176.03, 96108.02, 0.0, 10.000676, 9.999304 
4.049736e+2, 2.539487e+2, -360168.75, -469968.38, -88424.71, 0.087893076, -0.024564104, -310987.25, 140314.38, 0.0, 10.000834, 9.99938 
4.0496102e+2, 2.6394746e+2, -345042.1, -370151.16, 27615.68, 0.094152614, -0.09979198, -327261.16, 26048.572, 0.0, 10.000073, 9.9997635 
4.0494922e+2, 2.7394748e+2, -560423.3, -419367.16, 9917.646, -0.04463129, -0.093335554, -418673.28, -163366.28, 0.0, 9.997903, 9.999799 
4.0493658e+2, 2.8394696e+2, -631127.9, -439918.34, -121097.25, -0.1170366, -0.10688854, -381235.03, -223923.73, 0.0000000008315615, 9.996923, 9.999452 
4.049226e+2, 2.9394582e+2, -406046.13, -284142.0, -118374.9, -0.096646644, -0.18005206, -211948.39, -152624.66, 0.00000071034475, 9.997807, 9.99942 
4.0491155e+2, 3.039466e+2, -270802.3, -186716.88, 67122.87, -0.022209534, -0.04351594, -149556.89, -149556.89, 0.0000094188645, 9.998358, 9.999501 
4.0490526e+2, 3.1394652e+2, -199044.39, -25777.166, 271.15167, 0.28483936, -0.025924029, -25776.742, -25776.742, 0.00003801625, 9.998262, 10.000655 
4.151295e+2, 1.2397027e+2, -1416799.5, -1653284.6, -89039.016, -0.026638681, -0.04826625, -1387024.3, 338070.0, 0.00012209901, 10.00235, 9.999277 
4.1511676e+2, 1.339715e+2, -1253084.3, -1566661.1, 63403.293, -0.2534546, 0.15564062, -1240749.8, 386332.25, 0.000062719766, 10.002999, 9.9988985 
4.1510764e+2, 1.4397058e+2, -1226751.0, -1554928.1, 4399.1978, -0.117734075, 0.19858763, -1226692.0, 302398.25, 0.000024127196, 10.002748, 9.998414 
4.1509557e+2, 1.5396646e+2, -1357262.1, -1576442.8, -17100.074, -0.16273873, -0.067036994, -1355936.1, 75193.555, 0.0000053776757, 10.001218, 9.998331 
4.1508403e+2, 1.6396493e+2, -1270730.1, -1296034.0, -38235.523, -0.12951984, -0.12374456, -1243107.6, 90036.88, 0.0000002359893, 10.000331, 10.000009 
4.1507193e+2, 1.7396753e+2, -1139660.6, -1159207.9, 3915.2573, -0.119227186, 0.096773095, -1138905.5, 96215.07, 0.0, 10.000459, 10.000214 
4.1506013e+2, 1.8396822e+2, -1047883.5, -1155772.0, 66184.55, -0.12546562, 0.18431687, -1016444.06, 120669.07, 0.0, 10.000809, 9.999396 
4.1504923e+2, 1.9396593e+2, -851922.94, -1019911.94, 85978.37, -0.11466977, 0.0066956338, -815720.25, 223411.19, 0.0, 10.001522, 9.999315 
4.1503757e+2, 2.0396416e+2, -763158.6, -940808.06, 3745.3064, -0.09254079, -0.09114578, -763079.7, 178066.52, 0.0, 10.001516, 9.999194 
4.1502467e+2, 2.1396306e+2, -833579.2, -923544.94, -24472.16, -0.07239772, -0.13579625, -827353.2, 15803.495, 0.0, 10.000357, 9.999196 
4.1501182e+2, 2.239627e+2, -832368.7, -901813.6, -8693.074, -0.08235035, -0.076211385, -831297.0, -86135.04, 0.0, 9.999831, 9.9989195 
4.1499913e+2, 2.3396334e+2, -671097.4, -776992.7, 4647.68, -0.1425133, 0.08098061, -670893.75, -23733.76, 0.0, 10.000278, 9.998888 
4.1498667e+2, 2.4396276e+2, -507120.53, -621558.5, -65776.02, -0.10297746, 0.12996109, -477158.7, 72007.836, 0.0, 10.000625, 9.999113 
4.1497457e+2, 2.5396037e+2, -383187.4, -506716.28, -75434.55, 0.08665618, -0.042025056, -347457.13, 103729.375, 0.0, 10.000784, 9.999152 
4.1496158e+2, 2.6395884e+2, -396454.13, -467094.8, -51534.61, 0.12559347, -0.10646136, -369297.75, -16098.422, 0.0, 10.00004, 9.999109 
4.1494706e+2, 2.7395838e+2, -623998.9, -530032.75, -65541.31, -0.066273645, -0.079213485, -496374.16, -241170.67, 0.0, 9.997818, 9.999077 
4.149337e+2, 2.8395775e+2, -610961.1, -394433.9, -105520.09, -0.1103574, -0.0752119, -351517.16, -194308.23, 0.00000000001177225, 9.996899, 9.999779 
4.149222e+2, 2.9395717e+2, -383077.03, -225328.34, -76663.38, 0.06321403, -0.1404835, -194209.8, -134995.94, 0.0000013022876, 9.997751, 9.999854 
4.1491112e+2, 3.039581e+2, -261485.72, -163125.5, 64653.293, 0.08313618, -0.018414633, -131073.03, -131073.03, 0.000014524035, 9.998346, 9.999666 
4.1490155e+2, 3.1395686e+2, -159042.55, 88225.17, -308.07663, 0.0508561, -0.13660216, 88225.555, 88225.555, 0.000053920798, 9.998141, 10.0014925 
4.251321e+2, 1.23983294e+2, -1538293.3, -1746819.1, -17585.988, 0.042669054, 0.07097197, -1536820.6, 188149.64, 0.00011443259, 10.001649, 9.9989805 
4.251187e+2, 1.3398369e+2, -1361760.3, -1649245.9, 82782.84, -0.3205051, 0.21784864, -1339626.6, 287339.03, 0.00005866896, 10.002377, 9.998634 
4.2511052e+2, 1.4398195e+2, -1223195.4, -1520837.6, -13986.744, -0.094089165, 0.17886195, -1222539.5, 306441.5, 0.00002226237, 10.002627, 9.998706 
4.2509794e+2, 1.5397802e+2, -1244904.5, -1482763.9, -5958.4155, -0.07458103, -0.10212965, -1244755.3, 186260.64, 0.0000044458184, 10.00182, 9.998684 
4.2508587e+2, 1.6397676e+2, -1112092.0, -1242070.4, 34398.7, -0.03327921, -0.14131626, -1103549.9, 229477.97, 0.00000009724189, 10.0015135, 9.99981 
4.2507336e+2, 1.7397955e+2, -936069.56, -1089187.5, -25226.861, -0.09382766, 0.1242328, -932020.44, 302983.9, 0.0, 10.001974, 9.999967 
4.250614e+2, 1.8398045e+2, -872534.3, -1022992.4, -19751.563, -0.12701644, 0.22554883, -869984.6, 267010.53, 0.0, 10.001811, 9.999824 
4.2505056e+2, 1.9397828e+2, -941294.25, -1009689.75, 6066.683, -0.08359547, 0.013008267, -940760.3, 98249.234, 0.0, 10.000678, 9.99979 
4.2503873e+2, 2.039767e+2, -984544.9, -1079950.9, -51387.76, -0.053189132, -0.08108408, -962131.7, -21109.307, 0.0, 10.000143, 9.998893 
4.2502514e+2, 2.1397588e+2, -847151.7, -975284.94, -72548.76, -0.058061715, -0.059134685, -814430.7, 28603.225, 0.0, 10.000465, 9.998784 
4.2501202e+2, 2.2397526e+2, -712997.5, -785045.94, -6567.0903, -0.06812794, -0.02599366, -712403.8, 32637.424, 0.0, 10.000392, 9.999453 
4.2499956e+2, 2.3397496e+2, -712970.6, -725728.8, 36330.594, -0.08966837, -0.025420798, -682463.3, -35421.145, 0.0, 9.999681, 9.99953 
4.2498696e+2, 2.439743e+2, -720523.8, -743408.1, 7222.18, -0.060268056, -0.013531642, -718435.2, -169387.33, 0.0, 9.999231, 9.998953 
4.2497417e+2, 2.5397304e+2, -635108.25, -658011.44, -15225.96, 0.052615818, -0.049359586, -627508.1, -176446.28, 0.0, 9.999173, 9.998894 
4.249608e+2, 2.6397198e+2, -528231.25, -556622.25, -883.9619, 0.087868474, -0.036995225, -528203.75, -175131.19, 0.0, 9.999248, 9.99888 
4.249465e+2, 2.739712e+2, -386270.3, -437034.0, 4010.1792, 0.013953695, -0.021968221, -385955.47, -130875.375, 0.0, 9.999547, 9.998882 
4.249329e+2, 2.8397027e+2, -239477.17, -216321.0, 22661.541, -0.0048231524, -0.036124088, -202451.16, -45363.543, 0.0000000012455732, 9.999453, 9.999771 
4.249205e+2, 2.9396933e+2, -237519.61, -155018.98, 9492.706, 0.07415327, -0.13772668, -153940.83, -94846.5, 0.0000019825331, 9.998743, 9.999864 
4.2490864e+2, 3.039698e+2, -334481.7, -190293.23, 121293.805, 0.03178415, -0.064315654, -121285.49, -121285.49, 0.000019596095, 9.997822, 9.999734 
4.248983e+2, 3.139693e+2, -327682.03, 74793.33, 3085.0305, -0.008295994, -0.11443849, 74816.98, 74816.98, 0.00006922057, 9.996702, 10.002096 
4.3513498e+2, 1.23996355e+2, -1582189.9, -1840831.1, 11318.012, 0.12826756, 0.16303621, -1581695.5, 143145.61, 0.00010277845, 10.001686, 9.998312 
4.3512183e+2, 1.3399345e+2, -1397030.0, -1724621.9, 118789.69, -0.27003953, 0.03524123, -1358489.4, 268379.75, 0.000052240524, 10.002394, 9.998108 
4.351149e+2, 1.43991e+2, -1163739.4, -1392674.3, -39753.785, 0.06467255, -0.08380703, -1157032.8, 371857.8, 0.000019361623, 10.002603, 9.9996 
4.3510157e+2, 1.5399118e+2, -1164550.8, -1325994.3, -29253.674, 0.08779858, -0.062157784, -1159413.4, 271469.88, 0.0000034941986, 10.001855, 9.999747 
4.3508884e+2, 1.6399089e+2, -1199801.9, -1420732.0, 39515.375, 0.09395907, -0.007999077, -1192946.9, 139938.9, 0.000000032016867, 10.001504, 9.998586 
4.350757e+2, 1.7398997e+2, -1043119.75, -1306553.1, -568.8531, -0.07540026, 0.032493405, -1043118.5, 191783.27, 0.0, 10.001953, 9.998484 
4.3506283e+2, 1.8398945e+2, -847391.1, -954247.5, -61068.027, -0.17602101, 0.05299784, -819678.25, 317230.13, 0.0, 10.001743, 10.000327 
4.3505102e+2, 1.9398943e+2, -897655.1, -905248.3, -30113.635, -0.121598035, -0.0194673, -871099.7, 167802.67, 0.0, 10.000624, 10.000532 
4.3503845e+2, 2.039894e+2, -999193.8, -1093613.9, -51074.664, -0.10961281, 0.00439582, -976852.3, -35950.86, 0.0, 10.000072, 9.998833 
4.3502447e+2, 2.1398927e+2, -866765.8, -1000998.2, -54471.426, -0.18481262, 0.10915405, -847442.9, -4533.9526, 0.0, 10.000401, 9.998637 
4.350116e+2, 2.239884e+2, -655403.75, -641336.06, -36770.063, -0.16184253, 0.079969876, -610933.1, 133983.0, 0.0, 10.000292, 10.000488 
4.3500027e+2, 2.3398636e+2, -642261.7, -559289.5, 14470.733, 0.0013180078, -0.21077828, -556838.1, 90085.63, 0.0, 9.9995985, 10.000711 
4.3498737e+2, 2.4398561e+2, -740425.75, -770038.9, -4411.054, 0.0469489, -0.26622888, -739782.6, -190855.02, 0.0, 9.999169, 9.9988 
4.3497208e+2, 2.539867e+2, -666937.25, -706549.1, -12158.068, -0.08760118, -0.035690587, -663503.3, -212576.47, 0.0, 9.999099, 9.998596 
4.3495843e+2, 2.6398697e+2, -515670.63, -525272.7, 3592.2341, -0.08310644, 0.1120988, -514475.47, -161546.5, 0.0, 9.999223, 9.999108 
4.3494725e+2, 2.739859e+2, -370478.88, -397969.13, 23073.805, 0.12232344, 0.07400836, -357366.44, -102429.76, 0.0, 9.999515, 9.999169 
4.3493387e+2, 2.8398445e+2, -265712.7, -265804.3, -5290.387, 0.13073353, 0.004954574, -260467.9, -103520.38, 0.000000012355592, 9.999435, 9.999438 
4.3491724e+2, 2.939824e+2, -277601.22, -225936.83, -10729.756, -0.14372188, -0.17076397, -223797.08, -164832.66, 0.0000027659546, 9.9986925, 9.999402 
4.3490374e+2, 3.0398172e+2, -343266.06, -205926.67, 75427.07, -0.25170964, -0.17703933, -172592.6, -172592.6, 0.000024042205, 9.997804, 9.999637 
4.3489507e+2, 3.1398368e+2, -320653.47, 111165.25, -33762.92, -0.026828334, 0.024995614, 113789.15, 113789.15, 0.00008111006, 9.996613, 10.002386 
4.4513884e+2, 1.2400801e+2, -1199537.9, -1679228.6, -4325.452, 0.2182851, 0.16988413, -1199498.9, 525226.1, 0.00009059982, 10.004436, 9.998085 
4.4512483e+2, 1.3400447e+2, -1438900.3, -1744442.0, 78063.42, -0.18440446, -0.021321008, -1420111.1, 206648.2, 0.00004496908, 10.002118, 9.998104 
4.4511807e+2, 1.4400202e+2, -1367102.1, -1465325.3, -34525.063, 0.20367038, -0.15087919, -1356181.0, 172600.52, 0.00001621496, 10.0011, 9.999825 
4.4510326e+2, 1.5400368e+2, -1148492.8, -1287025.0, -98375.86, 0.079902366, -0.0077507403, -1097444.3, 333316.7, 0.0000027558995, 10.001834, 10.000022 
4.4508997e+2, 1.6400366e+2, -1134703.8, -1388297.1, -11235.497, 0.037949942, 0.05743465, -1134206.9, 198553.48, 0.000000035556127, 10.001938, 9.998605 
4.4507745e+2, 1.740012e+2, -1169616.6, -1366327.9, 43729.496, -0.047825377, -0.054546908, -1160333.5, 74455.36, 0.0, 10.001086, 9.998488 
4.4506454e+2, 1.840003e+2, -1017868.94, -1036233.25, 26548.406, -0.11568988, -0.07390562, -998959.6, 137839.64, 0.0, 10.000563, 10.000338 
4.450518e+2, 1.9400154e+2, -925537.9, -917235.1, -10708.958, -0.09373553, -0.019360038, -909901.06, 128883.53, 0.0, 10.000418, 10.000552 
4.450387e+2, 2.0400228e+2, -935437.94, -1013988.06, -6780.5854, -0.0991934, 0.06022967, -934856.9, 5920.6177, 0.0, 10.000305, 9.999264 
4.4502494e+2, 2.1400212e+2, -862957.56, -946572.7, 26116.193, -0.16581683, 0.11677808, -855470.8, -12687.912, 0.0, 10.000204, 9.999106 
4.4501182e+2, 2.240013e+2, -714531.25, -660342.0, 20829.371, -0.14041139, 0.06232558, -653260.9, 91527.37, 0.0, 9.99984, 10.000571 
4.4499975e+2, 2.3399943e+2, -720637.5, -595178.7, -28012.139, 0.020433955, -0.21495782, -589208.3, 57585.99, 0.0, 9.99905, 10.000729 
4.4498658e+2, 2.4399886e+2, -783220.75, -779471.1, -39343.29, 0.07075654, -0.260382, -741958.0, -193161.16, 0.0, 9.998826, 9.998898 
4.4497168e+2, 2.5400007e+2, -612263.2, -668130.56, -25259.69, -0.04914597, -0.030201312, -602536.0, -151740.52, 0.0, 9.999422, 9.998702 
4.4495824e+2, 2.640004e+2, -425474.97, -442636.38, 15058.614, -0.04360677, 0.10126924, -416723.9, -63926.99, 0.0, 9.999675, 9.999454 
4.4494706e+2, 2.739994e+2, -353059.88, -348947.34, 30010.125, 0.1564636, 0.031927098, -320923.13, -66120.16, 0.0, 9.99946, 9.999529 
4.4493333e+2, 2.839982e+2, -311970.75, -307511.66, 1347.482, 0.14847142, -0.024596458, -307136.1, -150325.03, 0.00000003062236, 9.999203, 9.999264 
4.4491586e+2, 2.9399642e+2, -277221.3, -245448.11, -9960.33, -0.14888862, -0.14520696, -242583.92, -183758.73, 0.0000032981313, 9.998792, 9.999213 
4.4490176e+2, 3.0399495e+2, -302278.22, -218967.33, 83473.29, -0.2462746, -0.20831642, -167333.08, -167333.08, 0.000027025699, 9.998219, 9.999344 
4.448921e+2, 3.1399706e+2, -233788.2, 105958.83, -79774.88, -0.015820589, 0.038393226, 123758.01, 123758.01, 0.00008860118, 9.99739, 10.001977 
4.5514336e+2, 1.2401825e+2, -1184393.9, -1653757.1, -59228.92, 0.1817674, 0.079561934, -1177035.1, 547587.0, 0.00008109601, 10.00446, 9.998246 
4.5512742e+2, 1.3401657e+2, -1400290.9, -1678358.9, -2382.4514, -0.1565865, 0.029719224, -1400270.5, 226367.92, 0.000038740534, 10.002172, 9.998532 
4.551198e+2, 1.4401473e+2, -1389427.1, -1519008.3, -19422.94, 0.24188715, -0.04294686, -1386578.5, 142077.84, 0.000013268856, 10.001134, 9.999438 
4.551029e+2, 1.5401557e+2, -1182103.4, -1356473.3, -60614.246, -0.1602754, 0.06552192, -1163103.1, 267545.06, 0.0000020825275, 10.001839, 9.999541 
4.5508915e+2, 1.640152e+2, -1046786.94, -1205694.9, -45650.676, -0.25761163, 0.06560651, -1034606.2, 298044.16, 0.00000004449902, 10.00193, 9.999865 
4.5507845e+2, 1.7401318e+2, -1065966.1, -1156685.5, 17406.174, -0.07415895, -0.14461495, -1062741.0, 171925.39, 0.0, 10.001101, 9.999925 
4.550663e+2, 1.8401283e+2, -1058709.1, -1108824.3, 12555.269, -0.010824048, -0.16598864, -1055739.6, 80929.914, 0.0, 10.000514, 9.99986 
4.5505255e+2, 1.9401467e+2, -984151.9, -1023894.0, -10079.426, -0.07379765, 0.015010689, -981741.7, 56914.434, 0.0, 10.000358, 9.999845 
4.5503917e+2, 2.0401536e+2, -883608.25, -887391.9, -19098.316, -0.09381616, 0.09015476, -866308.25, 74342.11, 0.0, 10.000221, 10.0001745 
4.550262e+2, 2.1401441e+2, -797947.6, -789799.5, 29001.125, -0.07126443, -0.043216165, -764587.7, 78068.38, 0.0, 10.00011, 10.000227 
4.550125e+2, 2.2401398e+2, -788995.6, -795149.5, -11876.334, -0.06870116, -0.08081592, -779804.1, -35146.703, 0.0, 9.999753, 9.99969 
4.5499775e+2, 2.3401424e+2, -805799.94, -757052.25, -51088.57, -0.100198574, -0.036915008, -724821.1, -78167.72, 0.0, 9.998986, 9.999647 
4.549843e+2, 2.4401404e+2, -766626.1, -730240.6, -27801.678, -0.052486, 0.00023716291, -715208.25, -166552.75, 0.0, 9.998766, 9.999266 
4.5497277e+2, 2.540131e+2, -584063.75, -591960.06, 3612.917, 0.10554032, -0.036652673, -582660.2, -131992.33, 0.0, 9.999347, 9.999261 
4.5496005e+2, 2.6401225e+2, -400875.47, -380894.38, 5544.1484, 0.15734588, -0.07237742, -379459.13, -26782.879, 0.0, 9.99963, 9.999899 
4.5494556e+2, 2.7401158e+2, -333106.2, -292794.7, 29908.283, 0.04577003, -0.15253836, -276884.4, -22205.309, 0.0, 9.999397, 9.999945 
4.5493096e+2, 2.8401145e+2, -317836.16, -309366.4, -18683.95, -0.019338882, -0.12746164, -294443.4, -137765.48, 0.000000022691747, 9.999154, 9.999276 
4.5491633e+2, 2.9401156e+2, -280471.03, -244523.1, -16462.469, -0.0020400116, -0.054823615, -238123.38, -179447.67, 0.0000033719941, 9.99875, 9.999245 
4.5490256e+2, 3.0400953e+2, -338979.97, -288160.34, 52427.875, -0.0023996972, -0.16144554, -255309.19, -255309.19, 0.000028147611, 9.9981985, 9.998874 
4.54889e+2, 3.1400937e+2, -323607.34, -57940.133, -105654.25, -0.09752188, -0.084644824, -21045.756, -21045.756, 0.00009108323, 9.997303, 10.000891 
4.651474e+2, 1.24028765e+2, -1310555.5, -1722803.6, 8784.766, 0.18938713, -0.0591644, -1310368.4, 414147.25, 0.00007490373, 10.003614, 9.998182 
4.6512938e+2, 1.3402827e+2, -1261347.9, -1598833.3, -35415.086, -0.21555156, -0.0022509107, -1257671.5, 368850.2, 0.000033935048, 10.003054, 9.998661 
4.6512142e+2, 1.4402707e+2, -1212867.5, -1452318.5, 11901.087, 0.23475005, -0.012030333, -1212277.4, 316257.84, 0.000010536622, 10.002421, 9.999277 
4.651049e+2, 1.5402755e+2, -1219549.4, -1395614.4, -20611.328, -0.12930594, 0.08051113, -1217168.6, 213364.06, 0.0000014175026, 10.001665, 9.999358 
4.6509087e+2, 1.6402736e+2, -1160294.5, -1190706.5, -23761.607, -0.21775024, 0.07773287, -1147289.9, 185243.67, 0.000000030371112, 10.000868, 10.000473 
4.650793e+2, 1.7402615e+2, -1169442.1, -1128640.0, -33207.047, -0.042278785, -0.12016507, -1110067.9, 124471.29, 0.0, 10.000061, 10.000618 
4.6506676e+2, 1.8402618e+2, -1170317.5, -1166538.1, -7835.192, 0.027791936, -0.14055628, -1160368.0, -23830.422, 0.0, 9.999766, 9.999823 
4.650533e+2, 1.9402778e+2, -1020290.9, -1057134.8, 5914.1543, -0.021190615, 0.028912788, -1019364.8, 19162.91, 0.0, 10.000173, 9.999711 
4.650399e+2, 2.0402834e+2, -865791.06, -835027.75, -799.97614, -0.032740775, 0.077558264, -835006.94, 105516.17, 0.0, 10.000147, 10.000572 
4.6502662e+2, 2.1402733e+2, -864123.75, -774521.2, -17936.271, -0.0018121705, -0.1048065, -771064.2, 71462.32, 0.0, 9.999445, 10.000654 
4.6501258e+2, 2.2402707e+2, -906687.44, -893967.25, -51816.29, -0.0012028653, -0.1315179, -848122.2, -103595.78, 0.0, 9.999135, 9.999305 
4.6499747e+2, 2.3402776e+2, -771994.3, -795876.8, -57912.58, -0.04589487, 0.0035548338, -724804.7, -78282.016, 0.0, 9.999457, 9.999153 
4.6498358e+2, 2.4402763e+2, -647034.6, -618088.06, 12326.728, -0.025151016, 0.052702438, -613550.2, -65025.406, 0.0, 9.999347, 9.999758 
4.649716e+2, 2.540262e+2, -648154.0, -557762.9, 37172.484, 0.091148846, -0.08955414, -544439.8, -93903.19, 0.0, 9.998621, 9.999848 
4.6495873e+2, 2.6402536e+2, -588106.4, -484409.13, 38089.777, 0.12838006, -0.15406276, -471921.8, -119377.98, 0.0, 9.998393, 9.999789 
4.6494457e+2, 2.7402532e+2, -430621.75, -360327.8, 2717.4556, 0.041201904, -0.15130435, -360222.9, -105678.45, 0.0, 9.998812, 9.999767 
4.6493012e+2, 2.8402564e+2, -365319.88, -315559.38, -72875.9, 0.0075399214, -0.08003488, -263433.63, -106892.49, 0.00000001636591, 9.998751, 9.99943 
4.6491554e+2, 2.9402593e+2, -360327.28, -254540.81, -71033.28, 0.08650247, -0.008629095, -218870.95, -160334.69, 0.0000038591365, 9.9980755, 9.999499 
4.64902e+2, 3.040237e+2, -329137.38, -285411.25, 59341.32, 0.12272529, -0.15118225, -244033.61, -244033.61, 0.00002953643, 9.998268, 9.998872 
4.6488723e+2, 3.1402287e+2, -55674.22, 6454.0884, -87970.4, -0.10046723, -0.13110237, 68683.945, 68683.945, 0.00009247593, 9.999424, 10.000319 
4.7515038e+2, 1.2403945e+2, -1326521.8, -1749783.4, 29977.703, 0.08481152, -0.24252425, -1324409.1, 399997.25, 0.00007128512, 10.003607, 9.997991 
4.751306e+2, 1.340397e+2, -1271578.9, -1612294.5, -50713.695, -0.41677356, -0.100732796, -1264190.6, 362217.5, 0.000030027664, 10.003037, 9.998566 
4.7512296e+2, 1.4403912e+2, -1204997.0, -1439129.6, -18184.809, 0.1222655, -0.047267813, -1203593.0, 324824.44, 0.000008160018, 10.002422, 9.999373 
4.751089e+2, 1.5403968e+2, -1203945.5, -1373857.6, -40785.543, 0.07974399, 0.03978506, -1194662.5, 235751.84, 0.0000009257674, 10.001704, 9.999493 
4.7509483e+2, 1.6404007e+2, -1161009.1, -1191906.5, -60605.93, 0.074746594, 0.08981468, -1113913.9, 218496.7, 0.000000014696447, 10.000868, 10.000465 
4.7507977e+2, 1.7404003e+2, -1170277.3, -1131715.0, -56211.242, -0.016097747, 0.012909936, -1091570.0, 142837.5, 0.0, 10.000071, 10.000591 
4.7506577e+2, 1.840403e+2, -1143071.5, -1103711.6, -1618.4019, -0.06377459, -0.0021226213, -1103645.3, 32758.309, 0.0, 9.999737, 10.000272 
4.7505376e+2, 1.940409e+2, -988688.75, -985799.3, 28482.244, -0.0055140574, 0.018908454, -958725.2, 79674.17, 0.0, 10.000145, 10.0002165 
4.750407e+2, 2.040412e+2, -885693.6, -860762.8, -29062.81, 0.01973017, 0.021228975, -841604.9, 98790.63, 0.0, 10.000082, 10.000425 
4.7502598e+2, 2.1404095e+2, -889941.3, -811238.06, -39269.793, -0.02404928, -0.061525494, -794995.9, 47397.55, 0.0, 9.999375, 10.000435 
4.750118e+2, 2.2404057e+2, -907608.56, -885450.56, -48977.145, -0.0040916125, -0.09280809, -846315.0, -101919.81, 0.0, 9.999082, 9.999393 
4.7499868e+2, 2.3403998e+2, -774629.0, -782598.06, -39272.645, 0.11892356, -0.09753371, -739139.25, -92736.9, 0.0, 9.999373, 9.999287 
4.7498423e+2, 2.4403962e+2, -612842.44, -535715.2, -16376.038, 0.08917153, -0.10683459, -532382.2, 16022.633, 0.0, 9.999294, 10.000349 
4.749678e+2, 2.540394e+2, -614240.56, -475502.4, 16827.803, -0.16315037, -0.19196427, -473490.5, -23088.393, 0.0, 9.998561, 10.000444 
4.7495404e+2, 2.640397e+2, -643193.44, -585710.25, 46378.28, -0.19659151, -0.14343193, -559889.7, -207489.92, 0.0, 9.998339, 9.999118 
4.7494385e+2, 2.7404064e+2, -493918.75, -479063.6, 26281.412, 0.07380472, 0.03480369, -459180.3, -204781.25, 0.0, 9.998758, 9.998976 
4.7493067e+2, 2.8404075e+2, -347486.47, -275870.06, -101448.305, 0.17006142, 0.116402075, -204095.81, -47694.9, 0.0000000367379, 9.9987335, 9.999713 
4.7491333e+2, 2.940394e+2, -341643.56, -204931.94, -88336.09, 0.038187467, -0.017377626, -161592.7, -103184.17, 0.000004901276, 9.998014, 9.999876 
4.7489965e+2, 3.040374e+2, -305614.63, -218387.83, 94438.81, 0.05310401, -0.18361771, -157978.08, -157978.08, 0.000032485186, 9.998195, 9.999364 
4.7488648e+2, 3.140375e+2, -61439.668, -1652.0242, -18024.861, -0.15702127, -0.108318426, 3361.6924, 3361.6924, 0.000096372605, 9.999407, 10.000268 
4.8515484e+2, 1.24053106e+2, -1206279.6, -1687661.8, 117949.22, 0.13676257, -0.20060296, -1178933.0, 545342.9, 0.000068549736, 10.004404, 9.998038 
4.8513317e+2, 1.3405384e+2, -1333323.9, -1635293.4, -42592.69, -0.42891762, -0.018177615, -1327431.1, 298841.9, 0.00002627803, 10.002561, 9.99865 
4.851245e+2, 1.4405344e+2, -1340257.3, -1484497.4, 51682.934, 0.09129869, 0.040920835, -1323650.6, 204629.13, 0.0000061262785, 10.001424, 9.999536 
4.851107e+2, 1.5405282e+2, -1238744.8, -1375405.8, 13336.004, 0.111972585, -0.005093335, -1237455.5, 192830.8, 0.0000005794279, 10.001407, 9.999624 
4.850964e+2, 1.6405292e+2, -1115118.0, -1205454.3, -6350.1104, 0.1285058, 0.022869196, -1114673.9, 217611.58, 0.0000000048834687, 10.001334, 10.00015 
4.8508057e+2, 1.7405385e+2, -1035523.56, -1107865.1, -35853.7, 0.0050101224, 0.078168966, -1020764.9, 213510.86, 0.0, 10.001174, 10.000221 
4.850659e+2, 1.8405433e+2, -989910.6, -989321.0, 16219.837, -0.06122244, 0.08905136, -973393.3, 162876.17, 0.0, 10.00061, 10.000632 
4.8505357e+2, 1.9405413e+2, -1067848.9, -972649.94, 32050.709, 0.00041253306, -0.015933735, -962865.1, 75403.75, 0.0, 9.999386, 10.000668 
4.850403e+2, 2.040543e+2, -1035180.1, -954465.06, 4327.337, 0.020404784, -0.043662816, -954233.75, -13968.584, 0.0, 9.999149, 10.0002365 
4.850257e+2, 2.140548e+2, -773088.94, -781522.25, -12724.398, -0.030282088, -0.026382834, -763900.7, 78357.82, 0.0, 10.000294, 10.000197 
4.850116e+2, 2.240547e+2, -676882.2, -744007.3, -27976.986, -0.0036408978, -0.029851342, -666750.9, 77507.57, 0.0, 10.000537, 9.999663 
4.849983e+2, 2.3405358e+2, -734876.75, -728502.4, -16937.064, 0.14232852, -0.11653593, -714455.2, -68186.5, 0.0, 9.999491, 9.999602 
4.8498365e+2, 2.4405308e+2, -665714.25, -578700.6, 6008.2935, 0.121096335, -0.14994164, -578287.75, -30015.703, 0.0, 9.999013, 10.000186 
4.8496696e+2, 2.5405338e+2, -516242.25, -448863.22, -38913.977, -0.13885154, -0.16469556, -431081.56, 19184.467, 0.0, 9.999337, 10.000247 
4.8495284e+2, 2.6405385e+2, -536922.56, -525275.7, -12731.7705, -0.17917067, -0.088089466, -517098.72, -164836.27, 0.0, 9.999031, 9.999197 
4.849424e+2, 2.7405447e+2, -620526.2, -527210.25, 24855.648, 0.102600016, 0.048049614, -521002.63, -266738.03, 0.0, 9.997831, 9.999092 
4.8492903e+2, 2.8405437e+2, -473225.47, -323109.47, -29634.219, 0.18286403, 0.099191904, -317471.2, -161202.63, 0.00000008825205, 9.997816, 9.999828 
4.8491168e+2, 2.940534e+2, -128699.79, -90411.55, -52857.906, 0.008882273, -0.00920917, -53337.734, 4936.0313, 0.0000056074396, 9.999438, 9.99997 
4.8489878e+2, 3.0405208e+2, -81596.33, -111622.516, 92915.96, 0.076570086, -0.10805524, -2488.3884, -2488.3884, 0.000034672463, 9.999735, 9.999342 
4.8488578e+2, 3.1405202e+2, -264931.75, -110279.23, -66271.375, -0.0917073, -0.054943096, -85766.18, -85766.18, 0.000099448036, 9.99805, 10.000163 
4.9516028e+2, 1.24069475e+2, -1183426.8, -1647386.4, 93617.6, 0.19722433, 0.043633536, -1165248.8, 558877.1, 0.00006320856, 10.004437, 9.998298 
4.9513674e+2, 1.340706e+2, -1310831.0, -1589490.8, -108732.695, -0.34321785, 0.23438703, -1273424.9, 352692.0, 0.000021712027, 10.002569, 9.998956 
4.951258e+2, 1.4406997e+2, -1331193.0, -1466988.3, 38913.266, 0.057312604, 0.24929951, -1320832.5, 207290.23, 0.000004231548, 10.001427, 9.999656 
4.9511024e+2, 1.5406696e+2, -1231108.8, -1358210.5, 19003.477, -0.09332786, -0.047147658, -1228328.4, 201820.28, 0.00000029436407, 10.001405, 9.999741 
4.9509555e+2, 1.6406593e+2, -1160036.5, -1293891.4, -18770.693, -0.107686274, -0.11143164, -1157454.1, 174703.48, 0.0000000005507737, 10.001309, 9.999555 
4.9508148e+2, 1.7406759e+2, -1081461.3, -1202903.9, -35865.305, -0.037890755, 0.079941146, -1071660.3, 162483.55, 0.0, 10.001173, 9.999567 
4.9506706e+2, 1.8406825e+2, -976033.75, -951132.8, -32124.205, -0.026353098, 0.13266447, -929130.7, 207005.0, 0.0, 10.000569, 10.000916 
4.950524e+2, 1.9406742e+2, -1043627.8, -916091.4, -10939.729, -0.067328066, -0.07567947, -915159.8, 122977.21, 0.0, 9.999356, 10.00107 
4.9503848e+2, 2.0406751e+2, -1054336.0, -981489.3, 32449.768, -0.08614356, -0.12191296, -969131.0, -28998.414, 0.0, 9.99909, 10.000083 
4.950256e+2, 2.1406893e+2, -797000.5, -817667.1, 36821.84, -0.08135171, 0.005687785, -769089.5, 73031.35, 0.0, 10.000229, 9.999986 
4.9501163e+2, 2.2406942e+2, -659728.2, -690006.4, -64392.668, -0.066796295, 0.054467008, -608718.94, 135397.33, 0.0, 10.00046, 10.00007 
4.9499607e+2, 2.340685e+2, -713905.44, -664956.2, -50180.08, -0.043290436, -0.061064724, -633600.25, 12522.195, 0.0, 9.999408, 10.000078 
4.9498162e+2, 2.4406803e+2, -736157.94, -716704.8, 9353.039, 0.003465346, -0.07743911, -712937.44, -164810.88, 0.0, 9.998975, 9.999258 
4.9496874e+2, 2.5406802e+2, -598693.25, -610325.06, -20139.744, 0.08969221, -0.012059987, -583546.5, -133417.48, 0.0, 9.99929, 9.999163 
4.94955e+2, 2.640677e+2, -484249.25, -404022.28, -59379.824, 0.120920844, 0.0053686337, -372476.47, -20343.418, 0.0, 9.998982, 10.0000515 
4.9493986e+2, 2.7406675e+2, -559476.6, -380573.28, -12685.55, 0.048686467, -0.12559512, -379678.25, -125536.11, 0.0, 9.997747, 10.000137 
4.9492484e+2, 2.8406665e+2, -489600.8, -343349.13, 18112.361, -0.03093843, -0.12729108, -341139.4, -184996.02, 0.00000018947561, 9.997758, 9.999718 
4.9491048e+2, 2.940679e+2, -145378.92, -125316.37, 20519.893, -0.07599771, 0.01589743, -112507.055, -54375.05, 0.000005616016, 9.999437, 9.999731 
4.948993e+2, 3.040678e+2, -116245.06, -187778.73, 36724.336, 0.13519949, 0.072615445, -100748.42, -100748.42, 0.000033520122, 9.999746, 9.998814 
4.9488455e+2, 3.1406626e+2, -289447.7, -141977.48, -89014.92, -0.056336805, 0.025320547, -100124.86, -100124.86, 0.000095768366, 9.997965, 9.999984 
5.051645e+2, 1.2408532e+2, -1273503.5, -1667551.0, 144487.8, 0.21728233, 0.17862573, -1226201.4, 497777.1, 0.000052775107, 10.003743, 9.998487 
5.051403e+2, 1.340854e+2, -1355397.5, -1603222.9, -159480.19, -0.21995358, 0.25759313, -1277349.1, 348628.28, 0.00001619087, 10.002221, 9.999041 
5.0512767e+2, 1.4408484e+2, -1360604.6, -1460075.0, 57306.92, 0.12346529, 0.26699653, -1334460.5, 193520.64, 0.0000026245807, 10.001144, 9.999836 
5.05111e+2, 1.5408264e+2, -1293981.9, -1369715.4, 27079.041, -0.12786824, 0.034461476, -1285295.9, 144702.83, 0.00000011750303, 10.000897, 9.999905 
5.050958e+2, 1.6408166e+2, -1240393.1, -1324463.9, 27946.1, -0.17903306, -0.036059, -1231951.3, 100054.47, 0.000000000026416515, 10.000719, 9.999628 
5.0508237e+2, 1.7408235e+2, -1165264.5, -1241145.1, 49345.387, -0.032263257, 0.057315595, -1140959.9, 93038.8, 0.0, 10.000578, 9.999597 
5.0506794e+2, 1.840825e+2, -1015139.44, -1012677.7, 55545.246, 0.019704064, 0.07249367, -958349.6, 177645.06, 0.0, 10.000494, 10.000527 
5.050525e+2, 1.940817e+2, -911405.56, -901141.0, 1520.1815, -0.044111054, -0.08222345, -900920.6, 137075.75, 0.0, 10.000487, 10.000625 
5.0503814e+2, 2.0408177e+2, -903562.0, -893198.56, 51402.45, -0.07681767, -0.1154628, -846717.3, 93275.305, 0.0, 10.00006, 10.000215 
5.0502527e+2, 2.1408296e+2, -970543.8, -881078.0, 71741.26, -0.06819093, -0.028129864, -841266.0, 716.2858, 0.0, 9.998958, 10.000157 
5.050113e+2, 2.2408344e+2, -903334.5, -821987.8, -17465.887, -0.059104335, 0.01700487, -818396.3, -74418.29, 0.0, 9.998848, 9.999942 
5.049957e+2, 2.340828e+2, -620143.2, -635944.25, -62005.688, -0.05046941, -0.054397624, -565536.75, 80446.19, 0.0, 10.000121, 9.999933 
5.049812e+2, 2.4408244e+2, -530853.06, -643460.1, -3672.294, -0.0032416862, -0.040260296, -530733.44, 17254.012, 0.0, 10.000504, 9.999025 
5.049685e+2, 2.540823e+2, -552410.4, -614814.44, 17500.06, 0.12022364, 0.036101554, -547837.9, -97844.94, 0.0, 9.999727, 9.998925 
5.049546e+2, 2.6408184e+2, -420316.3, -337390.0, -7132.5435, 0.16975473, 0.0379382, -336781.0, 15216.918, 0.0, 9.999266, 10.000375 
5.0493866e+2, 2.7408087e+2, -327254.53, -228074.81, -33012.31, 0.09032108, -0.1287615, -218091.47, 35912.383, 0.00000000061010413, 9.999172, 10.000496 
5.0492316e+2, 2.840808e+2, -337569.1, -278873.72, 25105.213, -0.01887806, -0.14256348, -269600.72, -113597.05, 0.00000027597625, 9.998843, 9.999635 
5.049089e+2, 2.9408222e+2, -347482.66, -238751.4, 24292.6, -0.10858637, 0.025366636, -233570.81, -175577.75, 0.0000049400037, 9.998126, 9.999585 
5.0489825e+2, 3.0408227e+2, -378386.13, -313147.66, 38808.1, 0.14896294, 0.111522265, -295070.9, -295070.9, 0.000029285811, 9.99795, 9.998827 
5.048839e+2, 3.140814e+2, -188965.27, -66942.67, -45090.313, 0.06031541, 0.12862404, -52088.86, -52088.86, 0.000085814645, 9.998534, 10.000241 
5.15167e+2, 1.2410074e+2, -1266785.4, -1655386.9, 124693.35, 0.055387598, 0.22032933, -1230215.5, 493617.3, 0.000039906383, 10.003753, 9.998562 
5.151437e+2, 1.3409853e+2, -1356239.1, -1612279.1, -208103.22, -0.11759739, 0.07205607, -1239931.4, 385920.66, 0.000011051034, 10.0022545, 9.99896 
5.1513e+2, 1.4409828e+2, -1342768.8, -1434867.1, 37884.195, 0.21778582, 0.11152058, -1329188.0, 198664.64, 0.0000014956554, 10.00119, 9.99999 
5.1511264e+2, 1.5409976e+2, -1277567.0, -1340820.5, 27029.129, -0.06709927, 0.22958429, -1267590.6, 162246.39, 0.00000003629146, 10.00092, 10.000093 
5.1509684e+2, 1.6409996e+2, -1198206.4, -1229691.6, 18128.617, -0.16024499, 0.23593995, -1189939.1, 141891.89, 0.0, 10.000692, 10.000288 
5.1508296e+2, 1.7409818e+2, -1115224.4, -1138339.8, 51475.055, -0.04610964, 0.008851954, -1074025.4, 159814.77, 0.0, 10.000585, 10.000296 
5.150685e+2, 1.8409716e+2, -1094611.6, -1173506.8, 47416.89, 0.0074773845, -0.081042044, -1072378.8, 63466.7, 0.0, 10.000476, 9.999429 
5.1505363e+2, 1.9409709e+2, -1004900.4, -1089501.0, 8734.238, 0.0031503835, -0.039122365, -1004008.06, 33838.082, 0.0, 10.000459, 9.999345 
5.1503897e+2, 2.0409702e+2, -893559.56, -854421.0, 8006.586, -0.014337234, -0.030932652, -852846.44, 86998.97, 0.0, 9.999981, 10.000519 
5.1502454e+2, 2.1409678e+2, -944289.3, -814502.1, 35173.793, -0.053113155, -0.13566154, -805582.6, 36261.28, 0.0, 9.9989, 10.000642 
5.150105e+2, 2.2409666e+2, -957307.7, -921514.7, 15179.347, -0.039105553, -0.14785527, -915944.25, -172099.45, 0.0, 9.998791, 9.999288 
5.1499695e+2, 2.3409657e+2, -683174.7, -750764.75, -9386.386, 0.048944015, -0.088718645, -681895.44, -36045.715, 0.0, 10.000054, 9.999177 
5.149822e+2, 2.4409643e+2, -502468.9, -576008.3, -32650.156, 0.034217946, -0.03096988, -490065.03, 57788.996, 0.0, 10.0004635, 9.999509 
5.1496595e+2, 2.5409615e+2, -517412.94, -528380.6, -2524.84, -0.1261771, -0.032264333, -516859.6, -67001.2, 0.0, 9.999665, 9.999549 
5.149512e+2, 2.6409632e+2, -446288.22, -381516.06, -18002.44, -0.102746435, 0.009373267, -376848.84, -24991.947, 0.0, 9.999228, 10.000091 
5.149387e+2, 2.740969e+2, -359696.13, -285119.7, -28184.023, 0.16179034, 0.04069251, -275666.6, -21816.86, 0.0000000018853024, 9.999127, 10.000128 
5.1492393e+2, 2.8409693e+2, -345903.1, -289926.97, -6733.306, 0.15674041, 0.057678692, -289128.44, -133278.92, 0.00000034894228, 9.998816, 9.999573 
5.149064e+2, 2.940962e+2, -358002.0, -251157.06, 5456.9067, -0.18269189, 0.011640201, -250879.08, -193020.98, 0.0000043002137, 9.998082, 9.99952 
5.148952e+2, 3.0409548e+2, -348971.1, -240218.69, 52039.355, 0.03698016, 0.0021481435, -219329.6, -219329.6, 0.00002546161, 9.997906, 9.999351 
5.148835e+2, 3.140974e+2, -153631.61, 34740.85, 34428.727, 0.14166084, 0.24525717, 40836.14, 40836.14, 0.00007750593, 9.998428, 10.000988 
5.2517e+2, 1.2411792e+2, -1472652.5, -1761321.1, 275580.8, 0.06370952, 0.2701174, -1305896.5, 417769.22, 0.000029892451, 10.002359, 9.998509 
5.2514684e+2, 1.3411479e+2, -1328494.5, -1625240.4, -139588.2, -0.03150906, 0.05370098, -1273153.5, 352540.03, 0.000007333963, 10.00255, 9.998731 
5.251317e+2, 1.4411417e+2, -1220122.9, -1416263.9, 108804.35, 0.22611631, 0.08515122, -1171714.0, 355984.0, 0.0000006896854, 10.002211, 9.999623 
5.2511436e+2, 1.5411589e+2, -1246360.9, -1367528.9, 40322.906, 0.004183787, 0.26391655, -1234168.9, 195512.58, 0.000000004981165, 10.001309, 9.999721 
5.2509844e+2, 1.641161e+2, -1165260.1, -1201182.5, 28652.865, -0.070652366, 0.2868823, -1149404.4, 182270.63, 0.0, 10.000857, 10.000415 
5.250843e+2, 1.7411405e+2, -1027500.94, -1075523.0, 10361.528, 0.0063443575, 0.014920622, -1025360.7, 208323.69, 0.0, 10.001096, 10.000488 
5.2506953e+2, 1.8411274e+2, -1061458.5, -1217774.9, 434.9833, 0.038908366, -0.085557036, -1061457.4, 74234.805, 0.0, 10.000964, 9.998893 
5.250542e+2, 1.9411248e+2, -1083040.6, -1193537.6, -5857.5103, 0.029748797, -0.004431698, -1082731.0, -45032.496, 0.0, 10.000215, 9.998747 
5.25039e+2, 2.0411217e+2, -951212.94, -887316.6, 9451.168, 0.018836005, 0.016400484, -885948.0, 53753.324, 0.0, 9.999607, 10.000474 
5.2502406e+2, 2.1411175e+2, -900687.3, -791109.6, -11724.205, 0.0019268325, -0.10721048, -789869.25, 51830.824, 0.0, 9.99919, 10.000662 
5.2501005e+2, 2.241116e+2, -900972.0, -885189.06, 41734.82, 0.026682274, -0.12532818, -850606.2, -106905.97, 0.0, 9.999149, 9.999359 
5.2499735e+2, 2.3411167e+2, -739732.5, -771806.9, 72098.53, 0.112626866, -0.056307133, -681909.06, -36204.91, 0.0, 9.999645, 9.999229 
5.249827e+2, 2.4411155e+2, -578736.44, -589304.5, 33144.566, 0.06549952, -0.008700587, -550457.3, -2749.3901, 0.0, 9.999837, 9.999718 
5.2496505e+2, 2.5411117e+2, -518335.38, -503718.34, 13830.555, -0.17094767, -0.04295439, -495384.0, -45672.285, 0.0, 9.999553, 9.999769 
5.249499e+2, 2.641113e+2, -427872.03, -415418.16, 16066.643, -0.17029066, 0.0006688925, -404413.97, -52703.88, 0.0, 9.999535, 9.999712 
5.2493817e+2, 2.7411202e+2, -275040.3, -289916.34, -4818.514, 0.16154805, 0.086176455, -273615.9, -19913.215, 0.00000000009174081, 9.999909, 9.999716 
5.249235e+2, 2.8411192e+2, -212296.6, -234216.67, -4104.6675, 0.19243044, 0.11722154, -211553.19, -55849.336, 0.00000033351301, 9.999776, 9.99949 
5.249051e+2, 2.9411063e+2, -258175.72, -215296.1, -19865.97, -0.16092746, 0.02005817, -207507.11, -149789.61, 0.0000041079616, 9.998817, 9.999413 
5.2489316e+2, 3.0410933e+2, -285996.63, -176749.5, 69132.42, 0.03934203, -0.054175764, -143265.02, -143265.02, 0.000024461535, 9.998196, 9.999644 
5.24882e+2, 3.1411177e+2, -199513.39, 25194.512, 37743.61, 0.1766268, 0.20445722, 31364.777, 31364.777, 0.000075222786, 9.998051, 10.001105 
5.351733e+2, 1.2413659e+2, -1473223.4, -1772893.3, 283561.22, 0.102717526, 0.3141566, -1302344.4, 421135.75, 0.000023284518, 10.002415, 9.9984 
5.351496e+2, 1.3413402e+2, -1357337.5, -1680942.0, -133496.88, -0.023025312, 0.19394834, -1309374.6, 316129.2, 0.0000047788913, 10.002536, 9.998359 
5.3513265e+2, 1.4413238e+2, -1279269.3, -1540460.5, 72486.92, 0.07629377, 0.1815003, -1260501.0, 267018.06, 0.00000023076352, 10.002212, 9.998771 
5.351161e+2, 1.5413107e+2, -1307997.5, -1499648.1, 13468.169, 0.022475561, 0.1455128, -1307055.8, 122476.07, 0.00000000000050979853, 10.001324, 9.998809 
5.351004e+2, 1.6413026e+2, -1194295.8, -1258665.1, 26207.484, 0.022949148, 0.13173072, -1184975.3, 146561.25, 0.0, 10.000848, 10.000025 
5.350861e+2, 1.7413e+2, -1051763.6, -1126346.5, 27743.396, 0.0646889, 0.07784162, -1042575.5, 190955.17, 0.0, 10.001097, 10.000142 
5.3507066e+2, 1.8412925e+2, -1065387.6, -1220874.6, -29588.787, 0.046119187, 0.053253092, -1059947.3, 75587.6, 0.0, 10.000942, 9.99888 
5.350539e+2, 1.9412778e+2, -1088392.3, -1198011.1, -26517.965, -0.030441977, 0.01108945, -1082314.3, -44760.133, 0.0, 10.000182, 9.998734 
5.350382e+2, 2.0412724e+2, -986119.25, -946466.6, -13110.651, -0.044972293, 0.02666439, -942523.8, -2963.3616, 0.0, 9.999553, 10.000092 
5.350237e+2, 2.1412799e+2, -939684.1, -857957.5, -21380.135, 0.033682115, 0.06307958, -852702.25, -11153.045, 0.0, 9.999129, 10.000233 
5.350098e+2, 2.2412838e+2, -857275.8, -782744.3, 51525.38, 0.07570851, 0.088993885, -756420.75, -12877.471, 0.0, 9.999093, 10.0000925 
5.3499675e+2, 2.3412812e+2, -687666.0, -649627.75, 97624.8, 0.072057, 0.035796974, -569186.7, 76359.67, 0.0, 9.999583, 10.000096 
5.3498226e+2, 2.441278e+2, -594774.44, -611517.94, 20322.238, 0.027630443, 0.020307446, -581167.1, -33617.61, 0.0, 9.999791, 9.999588 
5.349657e+2, 2.541273e+2, -540844.7, -540525.1, 10072.556, -0.07628117, -0.0006266844, -530611.1, -81057.53, 0.0, 9.999508, 9.99954 
5.349503e+2, 2.641268e+2, -460196.34, -475302.84, 23558.809, -0.094451934, 0.009746898, -443009.56, -91451.89, 0.0, 9.999503, 9.999314 
5.3493667e+2, 2.7412617e+2, -309389.75, -353082.2, 20135.193, 0.0016823778, -0.0008711024, -301526.0, -47962.715, 0.0, 9.99987, 9.999303 
5.3492165e+2, 2.8412575e+2, -226610.61, -259701.36, -41283.45, 0.008054501, 0.02920128, -198680.45, -43113.105, 0.00000019037492, 9.999759, 9.999324 
5.349047e+2, 2.9412547e+2, -276605.1, -239828.61, -47819.48, -0.095920295, 0.052422453, -206983.75, -149412.75, 0.0000040138116, 9.998758, 9.999273 
5.3489214e+2, 3.041238e+2, -292466.4, -182810.52, 59079.473, 0.09832104, -0.05405409, -157037.66, -157037.66, 0.000024849203, 9.99816, 9.999619 
5.348786e+2, 3.1412405e+2, -238551.14, -51364.965, 79474.7, -0.008395365, -0.0132854665, -22174.117, -22174.117, 0.00007616266, 9.998029, 10.000587 
5.451753e+2, 1.2415314e+2, -1523671.1, -1792396.0, 206113.38, 0.09229669, 0.29337016, -1411992.9, 311324.4, 0.00001758017, 10.002048, 9.998459 
5.451532e+2, 1.3415109e+2, -1404365.6, -1704569.5, -220996.55, 0.106465064, 0.23106183, -1287315.8, 338021.28, 0.0000030236752, 10.002219, 9.998353 
5.4513484e+2, 1.4414933e+2, -1319096.0, -1562550.1, 21519.521, 0.0968121, 0.20955507, -1317208.5, 210144.97, 0.000000048467673, 10.00195, 9.998746 
5.4511803e+2, 1.541475e+2, -1264814.8, -1477621.1, 6744.609, 0.078519166, 0.121277764, -1264601.3, 164768.58, 0.0, 10.00162, 9.998814 
5.4510194e+2, 1.6414629e+2, -1165813.3, -1295257.1, 84824.45, 0.07578711, 0.088638775, -1123838.9, 207539.94, 0.0, 10.001267, 9.999565 
5.4508716e+2, 1.7414586e+2, -1135909.9, -1220449.4, 64474.996, 0.080906704, 0.06672991, -1101083.9, 132294.27, 0.0, 10.000759, 9.999651 
5.4507154e+2, 1.841454e+2, -1100704.3, -1197867.0, 22531.385, 0.061837576, 0.07829306, -1095733.6, 39647.375, 0.0, 10.000512, 9.999255 
5.4505485e+2, 1.9414477e+2, -978920.44, -1091325.1, 45657.746, 0.028511804, 0.07597531, -962711.9, 74678.47, 0.0, 10.0006895, 9.999226 
5.450389e+2, 2.0414439e+2, -823502.44, -902856.2, 98007.18, 0.01602407, 0.09494829, -757445.44, 181949.11, 0.0, 10.000819, 9.999784 
5.4502374e+2, 2.1414427e+2, -714946.94, -789991.94, 84201.0, 0.040463988, 0.082181245, -660286.2, 181106.2, 0.0, 10.000849, 9.999871 
5.450092e+2, 2.2414443e+2, -647972.75, -669750.0, 147827.19, 0.041130666, 0.097627066, -510633.72, 232755.05, 0.0, 10.000477, 10.000202 
5.449957e+2, 2.3414473e+2, -679382.2, -631734.94, 126586.02, 0.011557481, 0.09044722, -526750.25, 118634.664, 0.0, 9.999573, 10.000229 
5.449816e+2, 2.4414447e+2, -681290.4, -679982.8, 40039.74, 0.014601553, 0.08561894, -640591.5, -93204.82, 0.0, 9.999309, 9.9993515 
5.449667e+2, 2.5414336e+2, -493471.94, -544755.7, 14583.023, 0.05633748, 0.028867623, -489615.16, -40218.344, 0.0, 9.999958, 9.99929 
5.449515e+2, 2.6414222e+2, -385803.97, -458854.0, 37643.383, 0.04531755, -0.003189478, -369878.03, -18471.104, 0.0, 10.000099, 9.999141 
5.44936e+2, 2.7414086e+2, -371865.44, -401546.2, 37786.867, -0.03146208, -0.06861509, -346109.2, -92690.43, 0.0, 9.9995165, 9.999145 
5.4492044e+2, 2.8414026e+2, -312676.16, -324336.47, -12706.678, -0.05725006, -0.038631547, -304525.94, -149101.31, 0.00000011177434, 9.999273, 9.999113 
5.449048e+2, 2.9414058e+2, -167422.11, -204528.9, -37351.184, 0.0054915794, 0.063171946, -144270.11, -86846.55, 0.0000045059896, 9.999599, 9.9991045 
5.4489154e+2, 3.041393e+2, -97482.21, -44855.82, 85491.53, 0.17594081, -0.014307053, 18280.33, 18280.33, 0.00002638034, 9.999306, 10.000012 
5.4487604e+2, 3.1413847e+2, -255916.44, -45344.574, 129728.195, -0.051449053, -0.1233218, 16445.918, 16445.918, 0.00007851539, 9.997853, 10.000708 
5.5517584e+2, 1.24167904e+2, -1496357.3, -1732050.6, 179587.92, -0.09140587, 0.24385439, -1399402.5, 323771.47, 0.000013321201, 10.002047, 9.998865 
5.551574e+2, 1.3416621e+2, -1381021.4, -1650407.8, -212460.45, 0.29087335, 0.1779928, -1264156.0, 361035.3, 0.0000021469425, 10.002204, 9.99873 
5.551382e+2, 1.4416516e+2, -1260527.9, -1446964.0, 1522.6024, 0.2154539, 0.17163669, -1260515.5, 266684.84, 0.00000001815401, 10.001969, 9.999534 
5.5512005e+2, 1.5416513e+2, -1203823.8, -1358241.6, 4034.1313, 0.10317897, 0.18451591, -1203718.5, 225477.64, 0.0, 10.001643, 9.999627 
5.551028e+2, 1.6416416e+2, -1200952.3, -1367000.8, 60849.832, 0.019280208, 0.15320964, -1181040.9, 150161.95, 0.0, 10.0012665, 9.999068 
5.550872e+2, 1.7416166e+2, -1183917.3, -1314455.4, 51929.324, -0.0039985976, -0.016002145, -1165779.4, 67447.27, 0.0, 10.000737, 9.999015 
5.5507183e+2, 1.8416122e+2, -1049126.5, -1081938.0, 22066.98, 0.03172652, -0.0048297117, -1038035.0, 97195.21, 0.0, 10.000474, 10.000071 
5.5505687e+2, 1.941635e+2, -920907.06, -962901.44, 59737.277, 0.14588669, 0.19423462, -878584.25, 158622.88, 0.0, 10.000649, 10.0001335 
5.55041e+2, 2.041636e+2, -841733.06, -928969.25, 94136.29, 0.1333965, 0.21810693, -781600.56, 157603.58, 0.0, 10.00077, 9.999627 
5.5502385e+2, 2.1416053e+2, -745824.56, -838510.8, 91788.52, -0.042911857, -0.060157992, -689343.44, 151886.67, 0.0, 10.000777, 9.999575 
5.5500805e+2, 2.2415963e+2, -699807.4, -757611.94, 111372.7, -0.13937406, -0.10857077, -613647.9, 129589.516, 0.0, 10.000397, 9.999635 
5.5499405e+2, 2.3416153e+2, -734397.1, -724734.8, 99911.77, -0.12645705, 0.103165686, -629537.44, 15682.302, 0.0, 9.999484, 9.999632 
5.549806e+2, 2.441617e+2, -714643.56, -736012.2, 55061.016, -0.035747536, 0.19098702, -669239.9, -122021.08, 0.0, 9.99925, 9.998997 
5.549678e+2, 2.541594e+2, -525640.1, -597559.6, 47564.297, 0.15901412, 0.045940857, -501972.13, -52730.44, 0.0, 9.999897, 9.998959 
5.5495316e+2, 2.641575e+2, -387247.34, -453346.72, 14182.406, 0.19361699, -0.043984797, -384332.84, -33074.117, 0.0, 10.000065, 9.999192 
5.54936e+2, 2.7415612e+2, -377855.06, -398896.56, 22640.586, 0.0019024635, -0.11763976, -363410.2, -110140.914, 0.0, 9.999455, 9.99919 
5.5491984e+2, 2.8415546e+2, -331663.25, -362982.6, -8030.6396, -0.059998993, -0.08540815, -329724.16, -174448.23, 0.00000024371042, 9.999261, 9.998858 
5.5490524e+2, 2.9415572e+2, -183887.25, -243717.98, -13863.684, 0.06311548, 0.040310133, -180830.94, -123553.9, 0.0000058589785, 9.999607, 9.998838 
5.5489117e+2, 3.0415568e+2, -42572.043, 74332.555, 34464.1, 0.1912792, 0.062313005, 83736.32, 83736.32, 0.000029983938, 9.999292, 10.00083 
5.548739e+2, 3.1415486e+2, -212795.02, 63114.223, 102044.57, -0.084840335, -0.13446096, 96753.81, 96753.81, 0.00008393316, 9.997773, 10.00149 
5.6517726e+2, 1.2418401e+2, -1581263.0, -1711235.8, 328743.47, -0.10505674, 0.12604266, -1311144.1, 411868.56, 0.000010135498, 10.00118, 9.999426 
5.6515986e+2, 1.3418359e+2, -1441700.8, -1610060.9, -50294.324, 0.36413747, 0.120176084, -1427820.6, 197197.1, 0.0000015955853, 10.0014715, 9.999357 
5.651394e+2, 1.4418319e+2, -1299575.1, -1463284.8, 158684.98, 0.16234683, 0.14658041, -1202877.0, 324143.5, 0.000000040166636, 10.001693, 9.999557 
5.65122e+2, 1.5418333e+2, -1136280.8, -1325611.1, 87139.28, 0.113444544, 0.18054007, -1102280.6, 326734.97, 0.0, 10.002111, 9.999626 
5.651047e+2, 1.6418254e+2, -1137603.8, -1346321.3, 106887.33, 0.06252461, 0.17247216, -1092578.3, 238443.7, 0.0, 10.001748, 9.998981 
5.6508833e+2, 1.7418016e+2, -1236199.5, -1347751.8, 118980.914, 0.056560874, 0.025918404, -1160570.0, 72476.36, 0.0, 10.000413, 9.998942 
5.650725e+2, 1.8417963e+2, -1110263.9, -1092654.1, 151156.8, 0.0755082, 0.022775436, -950046.0, 185004.52, 0.0, 9.999975, 10.000235 
5.650573e+2, 1.9418153e+2, -895957.5, -923434.2, 130673.8, 0.11759104, 0.1625211, -778301.8, 258725.45, 0.0, 10.0007105, 10.000367 
5.6504136e+2, 2.0418131e+2, -877699.44, -1023692.1, 104344.375, 0.09813393, 0.17546365, -823352.9, 115673.96, 0.0, 10.000863, 9.998929 
5.6502485e+2, 2.1417807e+2, -883490.0, -986949.25, 49541.89, 0.01420209, -0.04622652, -863593.1, -22534.422, 0.0, 10.000196, 9.998829 
5.65009e+2, 2.2417665e+2, -774081.9, -832115.7, 77174.96, -0.065216206, -0.08831063, -720649.06, 22423.422, 0.0, 10.000048, 9.999292 
5.6499404e+2, 2.341777e+2, -594502.8, -685491.1, 78796.76, -0.124794126, 0.064220496, -549009.9, 96052.125, 0.0, 10.00057, 9.999373 
5.649802e+2, 2.4417762e+2, -517589.63, -631141.94, 80628.44, -0.05797768, 0.13836347, -475753.03, 71309.734, 0.0, 10.000583, 9.999061 
5.6496793e+2, 2.541758e+2, -512322.63, -584263.6, 89685.27, 0.18371359, 0.036452424, -451663.28, -2582.0024, 0.0, 9.999964, 9.999014 
5.6495345e+2, 2.6417455e+2, -416219.06, -430695.97, 89500.7, 0.23074837, -0.0093260715, -333664.6, 17428.186, 0.0, 9.999717, 9.99951 
5.6493574e+2, 2.7417395e+2, -270818.75, -302053.88, 105944.164, 0.008499235, -0.043333765, -179347.23, 73748.35, 0.0, 10.000012, 9.999576 
5.6491953e+2, 2.841732e+2, -212190.97, -293697.22, 119975.875, -0.048401374, -0.043403126, -126235.66, 28866.418, 0.00000046127252, 10.000031, 9.9989605 
5.649055e+2, 2.9417244e+2, -163813.98, -223404.4, 130355.234, 0.13328068, -0.029405056, -59892.176, -2780.5017, 0.000007820285, 9.999704, 9.998929 
5.648907e+2, 3.041727e+2, -75381.195, 6243.8813, 123248.414, 0.21891353, 0.04230895, 95261.37, 95261.37, 0.000035959114, 9.999278, 10.0003805 
5.648717e+2, 3.1417218e+2, -126129.836, 85476.45, 62126.465, -0.10962311, -0.07939837, 102368.06, 102368.06, 0.000094359246, 9.998448, 10.001321 
5.751789e+2, 1.2420127e+2, -1524231.9, -1602667.6, 268793.38, -0.093495905, -0.07197667, -1291810.4, 431025.5, 0.0000065867107, 10.001221, 10.000147 
5.7516044e+2, 1.3420306e+2, -1382472.1, -1489944.3, -39740.06, 0.26125938, 0.06212769, -1369373.8, 255443.64, 0.0000010153158, 10.00148, 10.000175 
5.7513857e+2, 1.4420332e+2, -1348482.9, -1563093.4, 160998.81, -0.1138919, 0.14135756, -1262306.8, 264508.38, 0.000000032665035, 10.001688, 9.998873 
5.751236e+2, 1.542021e+2, -1197146.8, -1445504.1, 107979.54, 0.049022336, 0.118582435, -1156765.6, 272062.84, 0.0, 10.002089, 9.998815 
5.7510734e+2, 1.6420141e+2, -1113531.9, -1295156.5, 53697.82, 0.14088172, 0.14841883, -1098843.8, 231992.66, 0.0, 10.001736, 9.999339 
5.750903e+2, 1.7420131e+2, -1204230.3, -1285036.9, 74901.79, 0.19305581, 0.18432501, -1159529.5, 73308.73, 0.0, 10.000424, 9.999368 
5.7507306e+2, 1.8420061e+2, -1137203.9, -1147857.0, 167179.44, 0.12536205, 0.16030286, -975266.1, 159575.95, 0.0, 9.999975, 9.999855 
5.750557e+2, 1.9419895e+2, -934521.7, -993850.6, 164452.88, -0.121959485, -0.009935499, -797079.2, 239771.33, 0.0, 10.0006695, 9.999905 
5.7504e+2, 2.0419767e+2, -970931.6, -1203356.5, 76032.06, -0.14430307, -0.021750487, -948269.3, -9407.414, 0.0, 10.000801, 9.997726 
5.750265e+2, 2.1419683e+2, -983709.06, -1179649.4, 29913.967, 0.14485087, 0.12428514, -979243.94, -138365.39, 0.0, 10.000127, 9.997541 
5.750118e+2, 2.2419545e+2, -783924.3, -834746.25, 87732.29, 0.19976185, 0.15374576, -717997.06, 24897.736, 0.0, 9.999973, 9.999309 
5.749954e+2, 2.3419325e+2, -599604.3, -676801.75, 106412.305, -0.056909613, -0.027494542, -525006.56, 119904.82, 0.0, 10.000486, 9.999474 
5.749803e+2, 2.441922e+2, -490238.47, -571233.75, 54172.74, -0.122329816, -0.0772936, -463099.25, 83820.01, 0.0, 10.000558, 9.999491 
5.7496685e+2, 2.5419262e+2, -487289.72, -521288.4, 72370.8, 0.06608596, 0.00054346834, -429948.56, 18967.703, 0.0, 9.99991, 9.9994755 
5.7495195e+2, 2.6419333e+2, -375667.53, -342056.2, 93114.63, 0.099667035, 0.09957286, -264242.78, 86666.15, 0.0, 9.999691, 10.000134 
5.7493496e+2, 2.7419424e+2, -230479.67, -212120.4, 123462.93, -0.08416713, 0.15362206, -97496.32, 155401.6, 0.0, 9.999975, 10.000217 
5.749192e+2, 2.8419352e+2, -183039.38, -222205.78, 102533.74, -0.092573754, 0.09478102, -98235.46, 56667.266, 0.0000006054728, 9.999986, 9.9994755 
5.749055e+2, 2.9419068e+2, -138964.94, -160589.08, 127930.54, 0.14568926, -0.1459484, -21390.389, 35536.953, 0.000009307056, 9.999654, 9.999387 
5.748899e+2, 3.041903e+2, -197889.06, -241070.72, 94366.27, 0.19995667, -0.081837885, -122675.16, -122675.16, 0.00004067109, 9.999249, 9.998698 
5.748691e+2, 3.1419015e+2, -215900.67, -90928.54, 42665.254, -0.24978872, 0.01629913, -77751.984, -77751.984, 0.00010363106, 9.998402, 10.000137 
5.8518016e+2, 1.24221355e+2, -1556095.9, -1661235.1, 280747.66, -0.08135063, -0.049382318, -1323038.5, 399596.34, 0.0000034922246, 10.001181, 9.999763 
5.85162e+2, 1.3422248e+2, -1379930.6, -1525312.3, -74285.76, 0.26746228, 0.053430192, -1348687.1, 275936.38, 0.00000047432238, 10.001656, 9.999846 
5.8513916e+2, 1.4422219e+2, -1375538.8, -1585662.9, 104986.93, -0.20698003, 0.099748984, -1332073.8, 194553.23, 0.000000012437337, 10.001555, 9.998774 
5.8512527e+2, 1.5422049e+2, -1340557.5, -1522490.9, 88885.125, 0.05571954, 0.035190515, -1304341.3, 124304.06, 0.0, 10.00114, 9.998737 
5.8510923e+2, 1.6421974e+2, -1184594.8, -1351669.4, 55029.754, 0.1814629, 0.07102084, -1168098.4, 162556.05, 0.0, 10.001337, 9.999144 
5.8509153e+2, 1.7422017e+2, -934721.4, -1176935.5, 16444.465, 0.18996827, 0.1807155, -933610.06, 299041.5, 0.0, 10.002364, 9.999175 
5.850742e+2, 1.8421933e+2, -797533.3, -1028235.0, 93302.37, 0.115623035, 0.17050678, -764522.6, 370134.6, 0.0, 10.002504, 9.999455 
5.850571e+2, 1.942166e+2, -856705.6, -1002926.0, 79792.51, -0.08701043, -0.064550765, -821594.1, 215081.9, 0.0, 10.001407, 9.999488 
5.8504134e+2, 2.0421502e+2, -930267.7, -1174339.4, 58713.684, -0.09522217, -0.08893146, -916878.1, 21812.113, 0.0, 10.001036, 9.997814 
5.8502764e+2, 2.1421497e+2, -748311.4, -1048335.8, 107503.66, 0.17276776, 0.11972807, -713768.2, 126930.9, 0.0, 10.001667, 9.997701 
5.850128e+2, 2.2421382e+2, -578361.75, -771794.1, 211710.94, 0.23543757, 0.18047027, -442321.53, 300392.0, 0.0, 10.00155, 9.998985 
5.849966e+2, 2.3421103e+2, -643729.44, -742323.25, 179566.31, 0.025047414, -0.020696772, -506816.16, 137921.36, 0.0, 10.000372, 9.999086 
5.849811e+2, 2.442097e+2, -600181.6, -600410.0, 115744.58, -0.05435937, -0.086629175, -484551.2, 62196.91, 0.0, 9.999696, 9.999708 
5.849665e+2, 2.5421035e+2, -480705.88, -485598.38, 109021.39, 0.044906203, -0.014558724, -374103.3, 74637.305, 0.0, 9.999817, 9.999764 
5.8495116e+2, 2.642111e+2, -379760.28, -367288.5, 116136.73, 0.052843526, 0.08037787, -257220.36, 93512.5, 0.0, 9.999771, 9.999918 
5.849349e+2, 2.7421173e+2, -311193.03, -281448.7, 66800.59, -0.061378945, 0.13531086, -227884.75, 24842.242, 0.0, 9.999557, 9.99994 
5.849193e+2, 2.8421122e+2, -214846.11, -185888.9, 17001.857, -0.06716594, 0.092616014, -178036.06, -23305.861, 0.00000055145284, 9.999538, 9.999941 
5.849045e+2, 2.9420933e+2, -95800.72, -81836.51, 32223.582, 0.084664285, -0.10883256, -55847.277, 896.27716, 0.000008783807, 9.999703, 9.999901 
5.848886e+2, 3.0420884e+2, -169907.56, -298607.44, 37299.066, 0.123610884, -0.05362743, -159879.19, -159879.19, 0.000039664603, 9.999743, 9.998057 
5.8486885e+2, 3.1420818e+2, -58306.004, -36383.8, 44147.363, -0.16618843, 0.060017783, -1857.1504, -1857.1504, 0.00010367087, 9.999572, 9.999938 
5.951807e+2, 1.24244004e+2, -1643727.6, -1845221.0, 203040.23, -0.18893123, 0.17760868, -1517813.3, 204598.31, 0.0000015906305, 10.001203, 9.998486 
5.9516424e+2, 1.3424183e+2, -1479339.5, -1726538.1, -57164.12, 0.31315753, 0.08884814, -1466760.5, 157674.63, 0.00000018659624, 10.001646, 9.998467 
5.9514093e+2, 1.4423987e+2, -1342847.3, -1517830.0, 81495.54, -0.2019583, 0.019721616, -1310771.6, 215683.2, 0.000000014311821, 10.001551, 9.999243 
5.9512657e+2, 1.5423854e+2, -1297395.1, -1434923.0, 80241.51, 0.061630193, -0.06913216, -1260484.1, 167981.55, 0.0, 10.001146, 9.999336 
5.9511024e+2, 1.642376e+2, -1238084.5, -1456210.8, 81630.664, 0.12807207, -0.049580354, -1210918.6, 119556.31, 0.0, 10.001311, 9.99844 
5.950921e+2, 1.7423692e+2, -990248.3, -1291621.4, 61221.023, -0.010086242, 0.028926177, -978286.6, 254198.36, 0.0, 10.002363, 9.99839 
5.950755e+2, 1.8423592e+2, -829721.25, -1090176.8, 52116.844, -0.017185234, 0.063521996, -819679.8, 314814.84, 0.0, 10.002482, 9.9990425 
5.950609e+2, 1.9423442e+2, -890604.0, -1063477.6, 44746.34, 0.14491986, -0.009760419, -879708.6, 156795.92, 0.0, 10.001363, 9.999095 
5.9504515e+2, 2.0423329e+2, -837907.0, -968992.2, 71411.336, 0.17300208, -0.035502434, -806519.7, 131993.0, 0.0, 10.0009775, 9.999251 
5.9502804e+2, 2.1423253e+2, -646690.25, -823277.3, 138472.48, 0.030605642, -0.053356588, -570757.2, 269762.5, 0.0, 10.001607, 9.999276 
5.9501195e+2, 2.2423182e+2, -634382.25, -877563.06, 165751.3, -0.018825224, -0.00076726964, -550405.8, 192122.34, 0.0, 10.001498, 9.998286 
5.9499735e+2, 2.3423104e+2, -716693.75, -878604.4, 140757.67, 0.050975543, 0.08530321, -635271.5, 9268.976, 0.0, 10.000301, 9.998187 
5.9498227e+2, 2.4423008e+2, -603796.06, -599890.4, 110111.42, 0.07808087, 0.10497668, -491714.47, 54835.242, 0.0, 9.999656, 9.999734 
5.949665e+2, 2.5422892e+2, -480920.03, -471476.9, 119226.76, 0.049940966, -0.014378434, -356878.25, 91676.66, 0.0, 9.99975, 9.999895 
5.9495085e+2, 2.6422775e+2, -462912.44, -528032.8, 102693.055, 0.030245561, -0.06878268, -387741.34, -37176.453, 0.0, 9.9997225, 9.998838 
5.949353e+2, 2.7422625e+2, -403652.4, -460757.63, 66544.65, 0.008494105, -0.10929077, -359793.4, -107209.195, 0.0, 9.999501, 9.998736 
5.949192e+2, 2.842262e+2, -191134.55, -127261.69, 14718.823, -0.040415388, -0.058771614, -124033.086, 30552.625, 0.0000003359344, 9.999501, 10.000359 
5.949023e+2, 2.9422826e+2, -66636.46, -6235.224, 42988.54, -0.12407016, 0.07512914, 16100.733, 72662.34, 0.000006914508, 9.9996395, 10.000449 
5.9488654e+2, 3.0422822e+2, -145024.17, -238660.19, 27022.395, -0.06890907, 0.1260134, -137785.39, -137785.39, 0.000035630153, 9.999708, 9.998487 
5.9487057e+2, 3.1422624e+2, -9929.372, 80096.54, 52867.617, 0.009807494, 0.060784675, 104518.09, 104518.09, 0.0000986736, 9.999506, 10.000769 
6.051822e+2, 1.24262676e+2, -1764276.9, -1880500.4, 46404.844, -0.10319851, 0.17407566, -1748022.0, -25794.7, 0.0000006800237, 10.000257, 9.998717 
6.051661e+2, 1.342603e+2, -1550036.9, -1731403.8, -46252.1, 0.36594132, 0.040702265, -1538922.8, 85330.04, 0.00000008970361, 10.0010395, 9.998726 
6.051423e+2, 1.442586e+2, -1386353.5, -1538050.0, 122452.92, -0.20083927, -0.014739706, -1318161.1, 208108.45, 0.0000000031309833, 10.001249, 9.999252 
6.051282e+2, 1.5425788e+2, -1308012.3, -1442258.9, 58452.05, 0.120054096, -0.039473344, -1286129.0, 142145.52, 0.0, 10.001083, 9.999319 
6.0511196e+2, 1.6425686e+2, -1261170.6, -1481173.0, 107309.055, 0.17440458, -0.023077842, -1217498.5, 112785.64, 0.0, 10.001209, 9.998317 
6.050935e+2, 1.7425522e+2, -1101613.6, -1360671.9, 126665.33, -0.06863952, -0.025991395, -1049974.6, 182327.61, 0.0, 10.001665, 9.998253 
6.0507697e+2, 1.8425384e+2, -960787.4, -1209887.5, 101578.18, -0.08162141, 0.0019018572, -924617.7, 209699.03, 0.0, 10.001823, 9.998538 
6.050629e+2, 1.9425268e+2, -899172.9, -1124188.9, 67092.23, 0.20308442, 0.015514052, -880686.9, 155640.19, 0.0, 10.001553, 9.998582 
6.05047e+2, 2.0425157e+2, -765840.7, -919678.56, 89999.85, 0.23833399, 0.012060665, -724368.3, 213967.86, 0.0, 10.00141, 9.999386 
6.050286e+2, 2.1425031e+2, -675524.56, -818073.56, 44311.73, -0.04846618, -0.07360164, -662873.0, 177472.45, 0.0, 10.001319, 9.999455 
6.050122e+2, 2.2424956e+2, -687409.8, -901069.75, 17579.645, -0.118720025, -0.03532798, -685973.0, 56380.23, 0.0, 10.00113, 9.998298 
6.0499835e+2, 2.3424938e+2, -636995.9, -835286.0, 43855.215, 0.09955613, 0.11139445, -627729.6, 16630.926, 0.0, 10.000841, 9.998216 
6.0498327e+2, 2.442486e+2, -465731.4, -533159.6, 86829.97, 0.17356612, 0.14590947, -406300.0, 140068.34, 0.0, 10.000621, 9.999719 
6.0496664e+2, 2.542469e+2, -374556.9, -423607.84, 74601.78, 0.057315096, -0.023342552, -320552.6, 127825.14, 0.0, 10.000504, 9.999858 
6.0495067e+2, 2.6424533e+2, -384241.78, -503027.8, 87565.086, 0.015157521, -0.1091163, -337827.56, 12563.15, 0.0, 10.000304, 9.998737 
6.049356e+2, 2.742438e+2, -339572.38, -443466.5, 118817.66, 0.0711265, -0.14222223, -261842.4, -9432.232, 0.0, 9.999984, 9.998632 
6.049193e+2, 2.8424364e+2, -190298.53, -165672.3, 106442.375, 0.014568759, -0.07950379, -70833.22, 83579.64, 0.00000016006682, 9.999675, 10.000012 
6.0490125e+2, 2.9424545e+2, -129603.67, -77929.32, 50382.07, -0.17503427, 0.067222506, -47145.715, 9246.332, 0.0000052467194, 9.999382, 10.000081 
6.0488546e+2, 3.0424446e+2, -168352.75, -201802.81, 15818.434, -0.12344378, 0.023960505, -162057.14, -162057.14, 0.000031327, 9.9993515, 9.998915 
6.0487115e+2, 3.1424308e+2, 28381.076, 135331.13, 8257.691, 0.119797505, -0.025142752, 135964.95, 135964.95, 0.00009198692, 9.999615, 10.00111 
6.151841e+2, 1.2427781e+2, -1644201.1, -1625115.4, -28542.723, 0.029013883, -0.031650145, -1604562.5, 117515.25, 0.000000219429, 10.0002365, 10.000474 
6.151672e+2, 1.3427809e+2, -1425037.8, -1469715.8, -14328.267, 0.35875142, -0.074908696, -1420837.5, 203236.77, 0.000000013707101, 10.001041, 10.000516 
6.1514306e+2, 1.4427838e+2, -1416922.4, -1610516.5, 102503.16, -0.2694211, -0.0026641362, -1372735.1, 153336.33, 0.0, 10.001276, 9.998747 
6.151299e+2, 1.5427837e+2, -1345130.8, -1533958.9, 56746.434, 0.15910032, 0.10853794, -1329389.6, 98683.11, 0.0, 10.001133, 9.99867 
6.15114e+2, 1.6427737e+2, -1233350.1, -1417143.1, 116630.06, 0.24403667, 0.14022836, -1176762.5, 153320.06, 0.0, 10.001189, 9.998765 
6.150955e+2, 1.7427495e+2, -1065630.4, -1288485.0, 150060.19, -0.04555377, 0.006663749, -990151.06, 241953.8, 0.0, 10.001672, 9.998748 
6.1507833e+2, 1.8427297e+2, -1010693.06, -1298190.6, 85832.12, -0.13956088, -0.022722837, -987017.6, 147107.06, 0.0, 10.001762, 9.997956 
6.1506283e+2, 1.9427149e+2, -953529.4, -1227978.1, 63103.26, 0.020953251, 0.019807402, -939715.5, 96427.53, 0.0, 10.0015135, 9.997888 
6.150465e+2, 2.0426995e+2, -854416.06, -1089913.0, 79604.33, 0.03908925, 0.06593916, -830032.4, 108127.7, 0.0, 10.00135, 9.998244 
6.150293e+2, 2.142683e+2, -768374.94, -995472.7, 45849.96, -0.124175005, 0.05800722, -759467.44, 80708.914, 0.0, 10.00125, 9.998271 
6.150134e+2, 2.2426704e+2, -644514.56, -796942.5, 1889.4596, -0.120102115, 0.07202602, -644491.1, 97697.695, 0.0, 10.001061, 9.999047 
6.149994e+2, 2.3426615e+2, -583569.2, -707519.56, 40474.598, 0.10635972, 0.058083147, -571523.3, 72673.99, 0.0, 10.000767, 9.999129 
6.14984e+2, 2.4426524e+2, -480838.2, -554541.3, 74612.04, 0.16504404, 0.03768063, -434473.2, 111730.89, 0.0, 10.000575, 9.999595 
6.149667e+2, 2.5426418e+2, -397967.94, -461801.97, 74907.87, -0.00000077651936, -0.04939829, -348460.84, 99749.21, 0.0, 10.000455, 9.9996195 
6.149504e+2, 2.6426387e+2, -326172.75, -374168.34, 70374.53, -0.05222839, -0.04053954, -275816.88, 74393.555, 0.0, 10.00027, 9.999638 
6.1493546e+2, 2.7426443e+2, -279606.4, -302450.03, 115272.35, 0.04654779, 0.0379149, -175191.39, 77012.76, 0.0, 9.999915, 9.999631 
6.1491925e+2, 2.8426364e+2, -277227.4, -337749.03, 88872.08, 0.028978415, 0.0364204, -213605.52, -59394.984, 0.00000012615395, 9.999636, 9.998849 
6.149011e+2, 2.942609e+2, -233239.23, -275183.75, 45555.504, -0.14297348, -0.14266543, -204060.33, -147825.36, 0.000004351736, 9.999308, 9.998759 
6.1488515e+2, 3.0425757e+2, -150640.89, -156354.45, 20505.342, -0.10446439, -0.3632298, -132794.28, -132794.28, 0.000027327762, 9.999313, 9.999252 
6.148701e+2, 3.1425864e+2, 7086.7544, 110674.83, 31935.572, 0.01816879, -0.20697172, 119728.984, 119728.984, 0.00008366508, 9.999536, 10.000982 
6.2518394e+2, 1.2429393e+2, -1957477.1, -1756124.8, -5682.9785, 0.11440374, -0.15966947, -1755964.5, -34048.504, 0.00000003049168, 9.997998, 10.000661 
6.251682e+2, 1.3429575e+2, -1445612.5, -1468288.8, -61751.137, 0.3780766, -0.058202643, -1394167.3, 229732.89, 0.000000000001578113, 10.000844, 10.000628 
6.2514484e+2, 1.4429663e+2, -1296306.6, -1536971.5, -46612.445, -0.2526206, 0.05937693, -1287594.0, 238298.33, 0.0, 10.002044, 9.998877 
6.2513113e+2, 1.5429598e+2, -1261063.0, -1476623.4, -50555.836, 0.14729011, 0.09294125, -1249795.0, 178103.06, 0.0, 10.001656, 9.998802 
6.2511516e+2, 1.6429472e+2, -1212941.4, -1405461.8, 49162.586, 0.24426717, 0.09153091, -1201113.6, 128795.9, 0.0, 10.001317, 9.998788 
6.250975e+2, 1.742926e+2, -1181260.9, -1335405.6, 29922.334, 0.03028543, -0.017856745, -1175656.3, 56273.164, 0.0, 10.000855, 9.998813 
6.2508035e+2, 1.8429083e+2, -1123839.9, -1360830.3, -10307.253, -0.07492472, -0.026688602, -1123392.4, 10555.6, 0.0, 10.001004, 9.9979 
6.2506366e+2, 1.9428945e+2, -904433.06, -1211171.1, 2600.2817, -0.054734826, 0.032958064, -904411.06, 131555.86, 0.0, 10.001869, 9.997837 
6.2504727e+2, 2.04288e+2, -753589.8, -1066050.4, 67106.945, -0.05608367, 0.10172472, -739787.06, 198197.36, 0.0, 10.00215, 9.998023 
6.2503123e+2, 2.1428636e+2, -728342.3, -998215.8, 88871.76, -0.07301667, 0.118060715, -701705.2, 138296.44, 0.0, 10.00163, 9.998065 
6.250154e+2, 2.2428477e+2, -617820.1, -790413.25, 67962.07, -0.037453067, 0.11341253, -594271.6, 147745.47, 0.0, 10.001267, 9.998994 
6.2499994e+2, 2.3428307e+2, -543864.2, -696653.94, 23900.395, 0.07342499, 0.024236387, -540212.8, 103819.14, 0.0, 10.001063, 9.999067 
6.2498397e+2, 2.4428196e+2, -475996.7, -578279.4, 26605.457, 0.104030535, -0.0050432654, -469490.1, 76551.12, 0.0, 10.00071, 9.9993725 
6.249673e+2, 2.5428146e+2, -447688.28, -510026.84, 11553.242, 0.029297862, -0.011762096, -445616.0, 2428.252, 0.0, 10.0002165, 9.999405 
6.2495095e+2, 2.6428148e+2, -350586.22, -354096.7, 1038.5181, -0.01077312, 0.030119048, -350302.0, -260.53, 0.0, 9.999958, 9.999928 
6.2493485e+2, 2.742821e+2, -247956.88, -247959.89, -16952.758, -0.00330339, 0.07729039, -231005.63, 21026.234, 0.0, 9.999961, 9.999982 
6.249186e+2, 2.8428116e+2, -263624.2, -359268.25, -25499.367, -0.0059451815, 0.05225243, -257250.61, -103212.37, 0.000000116905284, 9.999848, 9.998601 
6.249018e+2, 2.9427785e+2, -207151.73, -299713.88, -7813.2793, -0.013397358, -0.15328698, -206496.84, -150428.22, 0.000004287332, 9.999627, 9.998448 
6.2488586e+2, 3.0427417e+2, -100586.84, -139240.5, 33075.586, 0.029507304, -0.38857204, -81605.44, -81605.44, 0.000025839543, 9.999692, 9.999179 
6.248689e+2, 3.1427518e+2, 49966.242, 76126.836, -21821.916, -0.06498761, -0.23671839, 88488.44, 88488.44, 0.00007841617, 10.000068, 10.000476 
6.3518137e+2, 1.24310926e+2, -2030535.6, -1937453.6, 6547.3525, 0.021118104, -0.22038789, -1936995.3, -215252.17, 0.0000000061075784, 9.998125, 9.999359 
6.351691e+2, 1.3431318e+2, -1548350.8, -1684416.4, 44346.492, 0.3647354, 0.072765, -1535173.5, 88557.5, 0.0, 10.000854, 9.999144 
6.351474e+2, 1.4431338e+2, -1251624.9, -1432097.8, -64995.176, -0.21626486, 0.16804843, -1230654.4, 295077.1, 0.0, 10.001994, 9.999621 
6.351317e+2, 1.543108e+2, -1195521.9, -1346165.6, -56089.457, 0.02619066, -0.08160922, -1176932.0, 250817.67, 0.0, 10.001676, 9.999691 
6.3511527e+2, 1.64309e+2, -1239790.5, -1457129.5, 23142.176, 0.110706896, -0.17010377, -1237353.8, 92410.86, 0.0, 10.001303, 9.998439 
6.350992e+2, 1.743081e+2, -1210814.1, -1401735.5, 17843.336, 0.09469362, -0.10811654, -1209160.8, 22615.377, 0.0, 10.000871, 9.998354 
6.3508266e+2, 1.8430732e+2, -1094728.0, -1291866.1, 13376.738, 0.042299572, -0.018347248, -1093824.4, 39962.844, 0.0, 10.000974, 9.9983835 
6.350654e+2, 1.9430657e+2, -873112.6, -1134184.6, 40850.72, -0.088897154, 0.04861446, -866869.8, 168929.05, 0.0, 10.00182, 9.998387 
6.35049e+2, 2.0430571e+2, -718527.44, -972383.6, 43552.063, -0.10413848, 0.11448397, -711263.4, 226546.19, 0.0, 10.002059, 9.998709 
6.3503414e+2, 2.1430455e+2, -692324.6, -901978.56, 75585.39, 0.03788752, 0.1084164, -667915.94, 171904.92, 0.0, 10.001536, 9.99877 
6.3501775e+2, 2.2430283e+2, -692679.6, -925298.0, 53533.61, 0.06381926, 0.093636066, -680951.06, 60887.063, 0.0, 10.001179, 9.998111 
6.349997e+2, 2.343002e+2, -625095.4, -847599.1, 24015.87, -0.067897104, 0.007963621, -622532.75, 21331.96, 0.0, 10.000985, 9.998069 
6.34983e+2, 2.4429877e+2, -505673.34, -629480.44, 3257.9512, -0.07487161, 0.016484823, -505587.7, 40291.805, 0.0, 10.000665, 9.999044 
6.3496816e+2, 2.5429878e+2, -476475.47, -556037.9, -1257.8514, 0.08351817, 0.089899644, -476455.56, -28575.35, 0.0, 10.000153, 9.999123 
6.349519e+2, 2.6429823e+2, -382959.94, -404402.6, -7167.411, 0.08047866, 0.10385143, -380784.78, -30900.6, 0.0, 9.999894, 9.999609 
6.349336e+2, 2.7429682e+2, -284817.6, -301937.44, -9930.866, -0.1447696, -0.021376811, -280266.66, -28372.855, 0.0, 9.999871, 9.999652 
6.3491714e+2, 2.8429615e+2, -215724.56, -254432.34, -43087.08, -0.15303601, -0.032380573, -187844.25, -33947.582, 0.0000001448745, 9.999824, 9.999337 
6.349031e+2, 2.9429638e+2, -161510.39, -186851.33, -9048.033, 0.13426076, 0.04287395, -158611.4, -102719.39, 0.000005079309, 9.999561, 9.999253 
6.348874e+2, 3.042945e+2, -142560.9, -228851.92, 41648.09, 0.19557083, -0.029716125, -125738.945, -125738.945, 0.000027818513, 9.999692, 9.998567 
6.3486713e+2, 3.142929e+2, -44324.76, -88495.54, 10889.767, -0.28973794, -0.069133595, -41785.95, -41785.95, 0.00008105603, 9.999938, 9.999406 
6.4518124e+2, 1.2432839e+2, -1549486.6, -1743368.9, -78323.86, 0.020610755, -0.13983704, -1521799.5, 199773.53, 0.0000000021671396, 10.001584, 9.9990225 
6.451697e+2, 1.3432917e+2, -1691433.8, -1800147.1, 65164.49, 0.3842681, 0.046788394, -1660931.4, -37357.86, 0.0, 10.000091, 9.998704 
6.451492e+2, 1.4432853e+2, -1568095.5, -1589987.6, -12660.065, -0.12425337, 0.08524705, -1562305.6, -36723.957, 0.0, 9.999844, 9.9995775 
6.4513296e+2, 1.5432607e+2, -1244396.1, -1369339.9, -83166.086, 0.002192832, -0.15160082, -1202852.0, 224747.81, 0.0, 10.001337, 9.999696 
6.451163e+2, 1.6432464e+2, -1120774.5, -1386277.1, -42543.754, 0.048419964, -0.20765094, -1114123.9, 215488.05, 0.0, 10.002056, 9.998564 
6.451004e+2, 1.7432456e+2, -1064875.1, -1317081.9, -19569.979, 0.09285902, -0.079441994, -1063365.6, 168251.17, 0.0, 10.001804, 9.99849 
6.4508426e+2, 1.8432416e+2, -1009465.4, -1205661.9, 22932.512, 0.096477665, 0.022345075, -1006820.56, 126802.914, 0.0, 10.001361, 9.998792 
6.450676e+2, 1.9432317e+2, -1020608.8, -1156253.1, 28495.8, 0.018104024, 0.024703758, -1014865.6, 20768.861, 0.0, 10.000599, 9.998823 
6.4505136e+2, 2.0432228e+2, -963304.2, -1083349.8, 14777.271, 0.011559442, 0.059433784, -961511.9, -23867.045, 0.0, 10.000346, 9.99877 
6.4503586e+2, 2.1432135e+2, -813539.8, -961709.8, -19677.121, 0.11309861, 0.07368665, -810971.25, 28684.668, 0.0, 10.000702, 9.998765 
6.450191e+2, 2.2432002e+2, -714923.2, -897713.06, -16452.205, 0.10065339, 0.08270107, -713454.2, 28215.623, 0.0, 10.0008545, 9.998459 
6.450006e+2, 2.3431803e+2, -637001.06, -808727.7, 39182.344, -0.06324766, 0.02364173, -628483.44, 15205.263, 0.0, 10.000715, 9.998463 
6.4498353e+2, 2.4431688e+2, -522977.16, -673951.7, 87560.23, -0.08964698, 0.05417973, -482856.8, 62844.402, 0.0, 10.000705, 9.99872 
6.449685e+2, 2.543167e+2, -396270.38, -557215.06, 67486.64, 0.070140526, 0.1447845, -371717.75, 75988.69, 0.0, 10.000878, 9.998765 
6.44952e+2, 2.6431558e+2, -318128.38, -412038.63, 60437.902, 0.07927072, 0.13962916, -288549.03, 61167.895, 0.0, 10.000501, 9.999269 
6.4493364e+2, 2.7431318e+2, -369459.84, -381515.94, 41696.27, -0.1001638, -0.05176506, -333358.16, -81622.35, 0.000000000000000000046744374, 9.99945, 9.999313 
6.4491725e+2, 2.8431246e+2, -266581.2, -264461.03, 37113.625, -0.09655762, -0.056912355, -228392.36, -74652.836, 0.00000034821963, 9.9994135, 9.999464 
6.4490336e+2, 2.943138e+2, 7883.1973, -87562.19, 10161.516, 0.15909071, 0.108843714, 8953.043, 64678.703, 0.0000068469953, 10.000639, 9.999418 
6.4488757e+2, 3.0431297e+2, -52295.39, -182413.19, 26143.242, 0.21957774, 0.13490386, -47239.176, -47239.176, 0.00003363737, 10.000305, 9.998583 
6.448666e+2, 3.1431088e+2, -310860.1, -215501.94, 24820.568, -0.23639582, 0.043349512, -209428.3, -209428.3, 0.000093360155, 9.998086, 9.999427 
6.551827e+2, 1.2434628e+2, -1506098.9, -1651880.0, -201571.69, -0.016789736, 0.065472044, -1364643.5, 356761.75, 0.0000000012982254, 10.001574, 9.999658 
6.551697e+2, 1.3434383e+2, -1643277.9, -1714612.8, 11176.528, 0.3617305, -0.12610699, -1641567.9, -18141.27, 0.0, 10.0001545, 9.999258 
6.5514994e+2, 1.4434217e+2, -1614061.5, -1700423.1, 25262.713, -0.045081925, -0.18359616, -1607214.4, -81772.125, 0.0, 9.999903, 9.998796 
6.5513444e+2, 1.5434173e+2, -1306937.4, -1500528.4, -19924.94, 0.0044695428, -0.12756275, -1304907.9, 122541.16, 0.0, 10.001336, 9.9988 
6.551179e+2, 1.6434163e+2, -1086368.6, -1303695.4, -54336.477, -0.014176759, -0.03003504, -1073540.5, 255911.61, 0.0, 10.002009, 9.999149 
6.5510106e+2, 1.7434193e+2, -1018320.94, -1219305.8, -21538.113, -0.03843602, 0.06783145, -1016038.75, 215412.05, 0.0, 10.001799, 9.999163 
6.5508515e+2, 1.8434131e+2, -988876.4, -1154170.1, -12033.772, 0.02900881, 0.09342864, -988004.9, 145451.8, 0.0, 10.001324, 9.999163 
6.550701e+2, 1.9433929e+2, -1000917.9, -1103481.4, 6838.087, 0.19650099, -0.04328736, -1000464.0, 35009.527, 0.0, 10.000552, 9.999206 
6.55054e+2, 2.0433779e+2, -1017738.4, -1180217.1, 18910.127, 0.2247649, -0.060443744, -1015566.56, -78076.87, 0.0, 10.000277, 9.998141 
6.550364e+2, 2.1433677e+2, -872273.4, -1065061.6, 914.0064, 0.078450814, 0.012911239, -872269.0, -32762.24, 0.0, 10.000625, 9.998092 
6.5501916e+2, 2.2433637e+2, -620502.8, -680092.9, -27845.02, 0.007461544, 0.07879829, -609516.8, 131995.31, 0.0, 10.000768, 9.999991 
6.5500224e+2, 2.3433663e+2, -532995.8, -568509.6, 39930.496, 0.023315627, 0.075313024, -507052.03, 136451.9, 0.0, 10.000617, 10.0001545 
6.549852e+2, 2.4433632e+2, -554215.25, -720528.9, 85526.86, -0.0023368108, 0.113983564, -518082.9, 27423.354, 0.0, 10.000628, 9.998435 
6.5496796e+2, 2.5433517e+2, -434924.03, -621339.06, 81163.016, -0.084500365, 0.14859194, -404539.16, 42984.11, 0.0, 10.000817, 9.998349 
6.549511e+2, 2.6433358e+2, -341474.06, -460312.6, 15890.218, -0.074682005, 0.13284186, -339386.03, 10153.578, 0.0, 10.000491, 9.998946 
6.549348e+2, 2.7433142e+2, -400546.47, -433365.4, 9873.514, 0.054716296, 0.0004173648, -397805.03, -146249.14, 0.0000000002377775, 9.99939, 9.998989 
6.5491855e+2, 2.8433025e+2, -307517.1, -336859.7, 71976.86, 0.08182992, -0.010381425, -248731.5, -95166.32, 0.0000008000927, 9.999365, 9.998986 
6.5490234e+2, 2.9433012e+2, -34757.605, -158294.72, 64834.176, -0.027778218, 0.054205026, -6978.27, 48590.043, 0.000010270006, 10.000574, 9.998958 
6.548861e+2, 3.043297e+2, 1083.9457, -78760.72, -55393.766, 0.025215423, 0.10969218, 29442.373, 29442.373, 0.00004390313, 10.000325, 9.999295 
6.5486705e+2, 3.143293e+2, -241768.06, -52559.1, -24948.227, -0.03601224, 0.114700325, -49324.83, -49324.83, 0.000113456364, 9.998004, 10.00059 
6.6518414e+2, 1.24363326e+2, -1762302.3, -1749651.9, -170945.22, 0.07110515, 0.15952757, -1584914.9, 136328.66, 0.00000000035571668, 9.999698, 9.999888 
6.6517025e+2, 1.3436043e+2, -1327211.6, -1543991.3, 21954.625, 0.29982892, -0.095668375, -1325010.5, 298255.38, 0.0, 10.0022335, 9.999433 
6.651514e+2, 1.4435852e+2, -1259452.6, -1558579.3, 15846.789, -0.013460943, -0.17621852, -1258615.5, 266667.9, 0.0, 10.0024805, 9.998517 
6.6513586e+2, 1.5435869e+2, -1491464.6, -1625128.5, -5255.798, 0.07122666, -0.028589627, -1491258.3, -63971.336, 0.0, 10.000235, 9.998471 
6.651193e+2, 1.6435875e+2, -1442778.9, -1428030.8, 20106.611, 0.06042772, 0.08362337, -1413988.6, -84700.22, 0.0, 9.999361, 9.999573 
6.651024e+2, 1.743586e+2, -1224512.1, -1261452.1, 25490.178, 0.0070378985, 0.08764432, -1211503.6, 19784.47, 0.0, 10.000141, 9.999666 
6.6508627e+2, 1.843577e+2, -1072933.0, -1198702.4, 12039.952, 0.043286197, 0.060503136, -1071790.9, 61504.45, 0.0, 10.000774, 9.999119 
6.650707e+2, 1.9435564e+2, -909386.7, -1071936.9, -18287.4, 0.17447962, -0.070772864, -907354.7, 127958.8, 0.0, 10.001229, 9.999099 
6.650543e+2, 2.0435432e+2, -856711.1, -1081975.1, 20005.895, 0.18844855, -0.07455823, -854948.2, 82379.81, 0.0, 10.001292, 9.998328 
6.6503686e+2, 2.1435373e+2, -832423.3, -1023117.1, 55041.855, 0.05928022, 0.024087086, -817676.44, 21662.97, 0.0, 10.000805, 9.998292 
6.650198e+2, 2.2435334e+2, -680664.56, -713104.25, 11554.119, 0.022032792, 0.08294698, -676970.06, 64374.14, 0.0, 10.000372, 9.999956 
6.6500324e+2, 2.3435313e+2, -633523.75, -626463.2, -64820.83, 0.09775007, 0.03760407, -565076.56, 78264.914, 0.0, 9.99996, 10.00008 
6.649859e+2, 2.4435288e+2, -666877.6, -739935.3, -41338.69, 0.059704326, 0.07090137, -648240.9, -102897.53, 0.0, 9.999692, 9.998759 
6.649677e+2, 2.5435242e+2, -591050.25, -662678.75, -5649.775, -0.123949796, 0.14162065, -590607.3, -143254.34, 0.0, 9.9995775, 9.998673 
6.6495085e+2, 2.6435116e+2, -437583.38, -512929.53, -26574.748, -0.116853796, 0.14258379, -429153.56, -79787.484, 0.0, 9.999859, 9.998888 
6.649355e+2, 2.7434883e+2, -217819.2, -353717.5, -28589.271, 0.13404697, -0.00032667068, -212049.73, 39334.67, 0.0000000023427176, 10.000681, 9.998911 
6.649193e+2, 2.8434733e+2, -124342.14, -266265.47, 82758.47, 0.15956275, -0.029381657, -86287.65, 67109.414, 0.0000014418595, 10.0007, 9.998825 
6.6490173e+2, 2.943467e+2, -172636.69, -238848.69, 82842.39, -0.09648126, 0.0008469501, -116530.19, -61124.563, 0.000014823799, 9.999688, 9.998829 
6.648854e+2, 3.043462e+2, -108658.766, -127807.61, -65775.484, -0.039908245, 0.05256605, -51764.52, -51764.52, 0.000057815294, 9.999567, 9.999322 
6.648676e+2, 3.1434685e+2, 152585.78, 178526.39, -103879.33, 0.102550626, 0.16549586, 270242.0, 270242.0, 0.0001407211, 10.000549, 10.000952 
6.75185e+2, 1.2437967e+2, -1769571.8, -1773780.8, -112640.516, 0.15224248, 0.14566809, -1659016.1, 62070.906, 0.0000000023126079, 9.999744, 9.999697 
6.7517096e+2, 1.3437892e+2, -1341574.3, -1568869.6, 117878.43, 0.13490273, 0.12179662, -1291481.0, 331610.97, 0.0, 10.002222, 9.999264 
6.7515326e+2, 1.4437757e+2, -1249390.6, -1537017.9, -67788.72, -0.099543035, 0.099368334, -1234214.8, 290890.06, 0.0, 10.00247, 9.998674 
6.7513674e+2, 1.5437698e+2, -1468614.9, -1593239.1, -80993.54, 0.116296865, 0.1545892, -1428737.1, -1624.2207, 0.0, 10.000294, 9.998666 
6.751202e+2, 1.6437604e+2, -1413970.5, -1377240.3, 34900.18, 0.19372633, 0.138871, -1356168.1, -27047.344, 0.0, 9.999399, 9.999903 
6.751043e+2, 1.7437461e+2, -1200377.3, -1211339.1, 61433.12, 0.16470039, -0.019882161, -1144181.0, 86947.516, 0.0, 10.000142, 10.00001 
6.7508745e+2, 1.8437338e+2, -1110056.9, -1271696.5, 21542.49, 0.07068771, -0.073500074, -1107235.0, 25903.756, 0.0, 10.000751, 9.9986315 
6.7506915e+2, 1.943723e+2, -956112.1, -1154394.1, 5369.3794, -0.11966531, -0.053892896, -955966.8, 79186.836, 0.0, 10.001167, 9.998563 
6.750522e+2, 2.0437191e+2, -802231.44, -950060.8, -2532.2527, -0.15901881, 0.022826571, -802188.06, 134970.89, 0.0, 10.001208, 9.999276 
6.7503715e+2, 2.1437228e+2, -768468.94, -872164.8, 43211.887, -0.00411274, 0.11064513, -752822.56, 86330.94, 0.0, 10.000727, 9.999366 
6.7502093e+2, 2.2437103e+2, -806050.9, -951074.44, -9664.754, 0.08734908, 0.10040051, -805409.6, -64244.168, 0.0, 10.000278, 9.998367 
6.7500323e+2, 2.3436762e+2, -770778.6, -888419.94, -71026.87, 0.090526454, -0.08795344, -737378.44, -94178.02, 0.0, 9.999868, 9.9983225 
6.749854e+2, 2.4436668e+2, -615571.6, -618424.9, -52011.08, 0.028860806, -0.07346572, -564967.56, -19756.209, 0.0, 9.999628, 9.999621 
6.749675e+2, 2.5436863e+2, -530417.5, -518501.9, -4566.182, -0.11433285, 0.13595095, -516953.34, -69759.51, 0.0, 9.999498, 9.999699 
6.7495084e+2, 2.6436844e+2, -432343.06, -489578.75, -4259.2764, -0.11082812, 0.17863642, -432027.84, -82832.766, 0.0, 9.9998045, 9.999075 
6.749357e+2, 2.7436537e+2, -213821.55, -334197.44, 10470.342, 0.06267789, -0.05113435, -212917.63, 38303.516, 0.0000000015372758, 10.000638, 9.999064 
6.749193e+2, 2.8436372e+2, -107192.984, -237532.0, 41141.9, 0.07267346, -0.11506044, -95292.91, 57942.258, 0.0000017821444, 10.000721, 9.999017 
6.7490137e+2, 2.9436365e+2, -170190.72, -217593.84, 50367.348, -0.11977693, -0.04311308, -138226.9, -82990.516, 0.000019076204, 9.999616, 9.999011 
6.748849e+2, 3.043625e+2, -171468.88, -243431.1, -37480.723, -0.055789392, -0.030115655, -155493.8, -155493.8, 0.000073988194, 9.999505, 9.998552 
6.7486763e+2, 3.1436315e+2, 105371.94, 92236.625, -35283.684, 0.010471137, 0.16222945, 134694.02, 134694.02, 0.00017623325, 10.000505, 10.000372 
6.851858e+2, 1.2439504e+2, -1652064.0, -1746984.6, -63538.19, 0.21650282, 0.049007833, -1620217.4, 100715.97, 0.0000000036242784, 10.000671, 9.999439 
6.851716e+2, 1.3439535e+2, -1554626.9, -1685536.1, 147011.73, 0.05881765, 0.14547503, -1459156.8, 163775.67, 0.0, 10.000833, 9.999127 
6.851551e+2, 1.4439444e+2, -1396636.3, -1549612.3, -75962.38, -0.090194166, 0.15069635, -1365324.9, 159617.1, 0.0, 10.0012, 9.999201 
6.851382e+2, 1.5439399e+2, -1167097.4, -1383272.5, -76241.3, 0.15306768, 0.16045626, -1142913.8, 284032.03, 0.0, 10.002081, 9.999248 
6.851213e+2, 1.6439289e+2, -1043242.4, -1244691.0, 59559.504, 0.23545478, 0.117354564, -1026950.8, 302003.22, 0.0, 10.00214, 9.999496 
6.85105e+2, 1.7439096e+2, -1094202.4, -1215709.9, 12768.735, 0.17920215, -0.04200754, -1092875.1, 138092.63, 0.0, 10.001104, 9.999521 
6.8508804e+2, 1.8438974e+2, -1190148.6, -1320905.9, -29527.63, 0.08329099, -0.06494398, -1183789.9, -50810.305, 0.0, 10.000251, 9.998533 
6.850698e+2, 1.9438916e+2, -1188205.9, -1272747.3, -23147.732, -0.083854824, 0.012956769, -1182282.9, -147291.27, 0.0, 9.999605, 9.9985 
6.8505305e+2, 2.0438895e+2, -984937.7, -982743.3, -2305.8733, -0.120579906, 0.08453633, -981286.9, -44292.473, 0.0, 9.99972, 9.999762 
6.8503803e+2, 2.1438904e+2, -723593.44, -793739.3, -9737.727, 0.009646942, 0.092534475, -722266.75, 116720.164, 0.0, 10.000785, 9.999876 
6.850215e+2, 2.2438762e+2, -729709.8, -975726.7, -65909.25, 0.08818025, 0.06316006, -713165.06, 27834.475, 0.0, 10.001055, 9.99783 
6.850033e+2, 2.3438416e+2, -754341.6, -950472.6, -56230.863, 0.097656354, -0.06904821, -739364.0, -96324.92, 0.0, 10.000267, 9.997711 
6.849854e+2, 2.4438287e+2, -583632.7, -582778.06, 15043.902, 0.0635726, -0.06326981, -568155.4, -23101.307, 0.0, 9.999762, 9.9998 
6.849679e+2, 2.5438422e+2, -489692.03, -471994.72, -8263.564, -0.027606025, 0.06079752, -468736.16, -21696.719, 0.0, 9.999669, 9.999933 
6.8495125e+2, 2.643842e+2, -418977.88, -465251.4, -163.89864, -0.05199817, 0.102861285, -418977.28, -69938.96, 0.0, 9.999822, 9.999231 
6.8493557e+2, 2.7438235e+2, -259623.84, -341480.03, 575.5441, 0.009517419, -0.020596435, -259619.8, -8564.155, 0.00000000039754933, 10.000253, 9.999204 
6.84919e+2, 2.8438136e+2, -158490.36, -223333.11, -4891.2817, -0.0017385773, -0.044432998, -158123.48, -5059.407, 0.000001935021, 10.000205, 9.999363 
6.8490106e+2, 2.943811e+2, -142557.92, -165548.69, -466.08438, -0.10407763, -0.020400465, -142548.47, -87484.055, 0.000022833043, 9.999635, 9.999363 
6.8488467e+2, 3.0437925e+2, -156499.86, -273020.2, 13532.511, -0.033382926, -0.08468936, -154948.86, -154948.86, 0.00009092674, 9.999756, 9.998226 
6.848682e+2, 3.1438023e+2, 61695.535, 2468.2695, 44457.016, 0.03177333, 0.17526574, 85499.07, 85499.07, 0.00021661, 10.000471, 9.999778 
6.95186e+2, 1.2440961e+2, -1660237.5, -1778855.9, -72858.78, 0.13287851, -0.12098255, -1625600.0, 95181.57, 0.00000000017840025, 10.000747, 9.999176 
6.9517213e+2, 1.3440989e+2, -1564255.6, -1703637.9, 156242.31, 0.005821269, -0.013275971, -1462866.4, 159919.27, 0.0, 10.000831, 9.998999 
6.951569e+2, 1.4440924e+2, -1335486.3, -1419727.5, -50880.08, -0.049699653, -0.01978268, -1311554.4, 213239.56, 0.0, 10.001184, 10.000102 
6.951401e+2, 1.5440969e+2, -1096460.3, -1244671.5, -33865.234, 0.117618546, -0.013481894, -1089089.0, 337696.72, 0.0, 10.002108, 10.000191 
6.951224e+2, 1.644093e+2, -1125286.1, -1411751.1, 17382.525, 0.11969656, 0.017712278, -1124235.3, 204552.89, 0.0, 10.0021305, 9.998352 
6.951044e+2, 1.7440781e+2, -1186390.1, -1403243.6, -18631.584, -0.0072098905, 0.029670637, -1184801.0, 46003.266, 0.0, 10.001087, 9.998243 
6.950878e+2, 1.8440683e+2, -1173795.6, -1279380.4, -59108.004, 0.017685784, 0.08345042, -1147336.6, -14519.736, 0.0, 10.000219, 9.998833 
6.950726e+2, 1.9440629e+2, -1166790.9, -1218838.3, -39536.766, 0.21267253, 0.1244346, -1145481.9, -110654.72, 0.0, 9.999568, 9.998887 
6.950564e+2, 2.0440538e+2, -993698.2, -986452.94, 27159.11, 0.23091169, 0.10821495, -962675.9, -25841.193, 0.0, 9.999656, 9.999768 
6.9503915e+2, 2.1440396e+2, -737092.8, -802791.06, 36492.793, 0.032725368, -0.031671777, -720842.1, 117997.57, 0.0, 10.000705, 9.999853 
6.950215e+2, 2.2440311e+2, -706883.4, -907203.25, -97665.055, -0.033689056, -0.028858678, -667148.8, 73697.695, 0.0, 10.000967, 9.998341 
6.950033e+2, 2.3440276e+2, -729390.1, -875932.0, -79197.78, 0.059445873, 0.09513926, -694768.0, -51910.754, 0.0, 10.000176, 9.998261 
6.9498575e+2, 2.4440156e+2, -626489.1, -657972.0, 4161.489, 0.10203927, 0.105363585, -625948.4, -81077.52, 0.0, 9.999701, 9.999316 
6.9496876e+2, 2.5439918e+2, -534534.44, -553487.3, -4278.661, 0.075088486, -0.08880423, -533613.25, -86723.72, 0.0, 9.999618, 9.9994 
6.949518e+2, 2.643985e+2, -419139.16, -455559.5, 10072.961, 0.008646643, -0.089584745, -416538.88, -67643.17, 0.0, 9.999782, 9.999316 
6.9493496e+2, 2.7439985e+2, -262068.73, -330997.1, 24764.46, -0.095108144, 0.09868691, -254094.03, -3206.9236, 0.0000000054780975, 10.000189, 9.999306 
6.94918e+2, 2.8440028e+2, -131311.78, -157290.66, -29706.727, -0.14146677, 0.19041826, -111878.766, 41004.438, 0.000002364329, 10.000161, 9.999837 
6.949005e+2, 2.9439917e+2, -112474.64, -92298.87, -9752.761, -0.14113365, 0.07389628, -88355.3, -33466.32, 0.000027093956, 9.999589, 9.9998865 
6.948845e+2, 3.0439645e+2, -151530.45, -257475.89, 35327.934, -0.040705707, -0.109948814, -140830.8, -140830.8, 0.00010798756, 9.99974, 9.99834 
6.948692e+2, 3.1439796e+2, 5838.3975, -87018.54, 104765.99, 0.05007138, 0.19900039, 74002.75, 74002.75, 0.00025660693, 10.000373, 9.999207 
7.05187e+2, 1.2442565e+2, -1480706.4, -1699561.4, -53992.625, 0.102011874, -0.17525747, -1468111.0, 252511.58, 0.0, 10.001996, 9.999133 
7.05173e+2, 1.344264e+2, -1629378.6, -1719989.6, 154303.0, 0.04795599, -0.030924734, -1513867.4, 108754.25, 0.0, 10.000307, 9.9991455 
7.0515865e+2, 1.4442573e+2, -1562679.4, -1549206.8, 3690.2056, 0.08665143, -0.039129447, -1548262.3, -23631.768, 0.0, 9.999711, 9.999924 
7.051414e+2, 1.5442586e+2, -1293531.1, -1356483.4, -71775.45, 0.102740236, -0.046905633, -1246633.4, 179992.6, 0.0, 10.000845, 10.000022 
7.0512336e+2, 1.6442542e+2, -1259506.0, -1480643.5, -77284.34, 0.046909716, -0.010021682, -1235173.6, 93456.0, 0.0, 10.001234, 9.998305 
7.0510507e+2, 1.744241e+2, -1259353.5, -1438972.1, -40393.05, -0.023463055, 0.022839202, -1250687.9, -20043.129, 0.0, 10.000599, 9.998225 
7.050884e+2, 1.8442322e+2, -1141153.0, -1267183.5, -4056.625, 0.052309312, 0.08829997, -1141022.5, -8366.149, 0.0, 10.000456, 9.998803 
7.0507354e+2, 1.944226e+2, -973857.2, -1130303.5, -26527.54, 0.2948211, 0.12709166, -969481.5, 65184.414, 0.0, 10.000903, 9.998855 
7.0505726e+2, 2.044214e+2, -873173.8, -943158.9, 30577.635, 0.3125348, 0.08859332, -861696.25, 74979.586, 0.0, 10.000548, 9.999639 
7.050392e+2, 2.1441938e+2, -976895.3, -933167.3, 19209.637, 0.052494038, -0.09926854, -925927.3, -87240.01, 0.0, 9.999123, 9.999722 
7.0502126e+2, 2.2441867e+2, -970378.9, -993596.3, -94488.914, -0.04973939, -0.09054089, -886788.25, -146095.34, 0.0, 9.998987, 9.998696 
7.050034e+2, 2.3441947e+2, -656818.6, -797680.1, -98690.34, 0.03959485, 0.10811206, -606004.7, 36688.184, 0.0, 10.00049, 9.998647 
7.049861e+2, 2.4441862e+2, -448568.94, -597165.56, -24909.281, 0.109948665, 0.14224212, -444504.56, 100198.57, 0.0, 10.001033, 9.999087 
7.0496947e+2, 2.5441557e+2, -442677.53, -538112.2, -25819.73, 0.15197921, -0.09417291, -436139.88, 10588.085, 0.0, 10.000376, 9.999137 
7.0495236e+2, 2.6441458e+2, -423574.84, -452918.0, 19854.395, 0.08866702, -0.111518845, -413559.34, -64822.645, 0.0, 9.999736, 9.999356 
7.049346e+2, 2.7441618e+2, -415561.5, -393538.75, 15158.038, -0.090497635, 0.09228869, -385814.7, -135088.75, 0.000000016182126, 9.999094, 9.999398 
7.0491755e+2, 2.844167e+2, -288963.06, -271865.6, -41420.344, -0.14787106, 0.20487171, -238121.0, -85399.0, 0.0000030357212, 9.999236, 9.999499 
7.049011e+2, 2.9441562e+2, -27946.754, -88878.25, -97505.13, -0.07109487, 0.12357563, 43741.367, 98471.05, 0.000031540207, 10.000324, 9.999558 
7.048851e+2, 3.0441293e+2, 45388.25, -89929.164, -57260.977, 0.0039664446, -0.070515245, 66366.555, 66366.555, 0.00012311795, 10.000777, 9.998993 
7.048696e+2, 3.1441376e+2, -6820.8193, -74625.16, 32058.814, 0.07267958, 0.10130147, 5936.68, 5936.68, 0.00029058926, 10.000206, 9.999372 
7.151882e+2, 1.24443e+2, -1454855.6, -1654997.5, -107806.484, -0.007054734, -0.12032535, -1407833.3, 312624.25, 0.0, 10.002036, 9.999417 
7.151742e+2, 1.344447e+2, -1583167.6, -1652930.9, 91503.29, 0.11504458, 0.072880775, -1520122.9, 102319.766, 0.0, 10.000422, 9.999555 
7.1516e+2, 1.4444381e+2, -1636267.4, -1718209.8, 28966.338, 0.24146132, 0.078821175, -1627062.0, -102609.49, 0.0, 9.999788, 9.998721 
7.1514183e+2, 1.5444247e+2, -1385570.8, -1546815.5, -21537.385, 0.04334136, 0.05338068, -1382743.5, 43722.95, 0.0, 10.00084, 9.998718 
7.151238e+2, 1.6444118e+2, -1192957.6, -1330609.3, -101915.71, -0.04447975, 0.025717115, -1138804.5, 189673.98, 0.0, 10.001188, 9.999354 
7.1510667e+2, 1.7443983e+2, -1175784.0, -1269285.6, -57388.26, 0.06578966, -0.06316808, -1148514.1, 81975.375, 0.0, 10.000616, 9.999383 
7.150897e+2, 1.8443887e+2, -1165381.4, -1315337.5, 4548.353, 0.12111459, -0.050842356, -1165243.6, -32744.723, 0.0, 10.000447, 9.998475 
7.1507263e+2, 1.9443825e+2, -1012447.8, -1194802.0, -2034.6055, 0.099310584, 0.026682325, -1012425.1, 22082.219, 0.0, 10.000839, 9.998442 
7.1505547e+2, 2.0443715e+2, -905101.56, -987760.6, -25194.252, 0.0646829, 0.032923177, -898027.8, 38489.04, 0.0, 10.000461, 9.999371 
7.15038e+2, 2.1443531e+2, -1010631.75, -979797.6, -30196.777, 0.011167047, -0.11072152, -961309.94, -122780.52, 0.0, 9.99903, 9.999441 
7.150207e+2, 2.2443435e+2, -964816.7, -965606.75, -50814.637, -0.019737396, -0.122642525, -914395.56, -173856.83, 0.0, 9.998912, 9.998928 
7.150034e+2, 2.3443435e+2, -648237.1, -764533.4, -35118.066, -0.026087303, -0.026898203, -638455.3, 4090.1301, 0.0, 10.0004225, 9.998907 
7.149864e+2, 2.4443412e+2, -455223.4, -597700.6, -52067.01, 0.02332471, 0.052706704, -438224.2, 106326.06, 0.0, 10.000975, 9.999115 
7.149698e+2, 2.544334e+2, -450900.56, -540846.9, -45132.887, 0.13695136, 0.05016734, -432159.03, 14395.478, 0.0, 10.000316, 9.999148 
7.1495247e+2, 2.644325e+2, -426126.03, -452463.44, -10896.239, 0.1204141, 0.038348377, -422202.56, -73641.305, 0.0, 9.999707, 9.999374 
7.1493423e+2, 2.744312e+2, -425328.0, -397910.44, -304.77808, -0.051692657, -0.045987528, -397907.06, -147334.31, 0.000000020828322, 9.999022, 9.999405 
7.149176e+2, 2.8443047e+2, -374556.03, -439990.5, -10373.096, -0.08182121, -0.005771773, -372951.0, -220369.7, 0.0000037854625, 9.999199, 9.998363 
7.149027e+2, 2.9443032e+2, -124142.66, -274814.8, -46299.48, 0.038844757, 0.13038245, -111052.68, -56465.363, 0.000035842306, 10.000272, 9.998305 
7.148863e+2, 3.0442858e+2, 132039.0, 89509.28, -79140.32, 0.025368763, 0.03662588, 192721.6, 192721.6, 0.00013552581, 10.000774, 10.000229 
7.148688e+2, 3.144277e+2, 45406.758, 54544.105, 20134.252, -0.07429516, -0.10270983, 70621.516, 70621.516, 0.00031572883, 10.000115, 10.000303 
7.2519064e+2, 1.2446095e+2, -1566025.1, -1764436.1, -61399.086, 0.062046606, -0.016842512, -1548561.9, 171723.58, 0.0, 10.001477, 9.99896 
7.2517556e+2, 1.3446188e+2, -1223983.5, -1505250.9, 34173.5, 0.07869514, 0.13110442, -1219891.1, 402385.6, 0.0, 10.003013, 9.999315 
7.251613e+2, 1.4446048e+2, -1213206.0, -1546735.3, -27261.71, 0.23727502, 0.110435106, -1210992.4, 313298.06, 0.0, 10.002828, 9.998438 
7.251426e+2, 1.5445839e+2, -1440089.1, -1601911.5, -17661.297, 0.055908844, 0.039092295, -1438184.0, -11873.227, 0.0, 10.000587, 9.998463 
7.251246e+2, 1.6445702e+2, -1374124.6, -1409870.3, -44365.887, -0.012105849, 0.0120625235, -1344166.8, -15843.189, 0.0, 9.99989, 9.999447 
7.25108e+2, 1.7445637e+2, -1098221.8, -1215706.3, -88356.12, 0.11869824, -0.017775603, -1050862.9, 179465.63, 0.0, 10.001074, 9.999532 
7.2509074e+2, 1.8445542e+2, -1015235.06, -1244477.0, -59242.188, 0.1428894, -0.012503517, -1000830.44, 131506.72, 0.0, 10.001475, 9.998471 
7.250727e+2, 1.9445392e+2, -1008618.4, -1194029.1, -48870.613, 0.025420276, -0.021136763, -996525.75, 37826.41, 0.0, 10.000864, 9.998439 
7.25055e+2, 2.0445265e+2, -899185.2, -1011348.94, -59495.72, -0.029337851, -0.022770138, -873505.75, 62857.95, 0.0, 10.0006075, 9.9991455 
7.250377e+2, 2.1445142e+2, -774494.0, -895199.1, -74921.336, -0.0042973054, -0.07878342, -738640.3, 99732.836, 0.0, 10.000764, 9.999196 
7.2502065e+2, 2.244506e+2, -704688.3, -835419.94, -43613.5, 0.0000261102, -0.065024, -691474.06, 48908.01, 0.0, 10.000678, 9.998971 
7.250037e+2, 2.344502e+2, -661816.5, -766364.3, -55337.0, -0.01628211, -0.0160617, -637967.2, 4424.218, 0.0, 10.000307, 9.998954 
7.2498685e+2, 2.4444991e+2, -580744.2, -671982.1, -101013.38, 0.017968362, 0.06139424, -515526.38, 28870.121, 0.0, 10.000175, 9.998987 
7.2496974e+2, 2.5444964e+2, -452762.13, -557683.56, -119789.055, 0.10047017, 0.116784595, -374449.97, 71947.586, 0.0, 10.000369, 9.999007 
7.249522e+2, 2.6444846e+2, -334338.25, -447403.6, -94232.59, 0.08638143, 0.101874, -280981.3, 67425.4, 0.0, 10.000515, 9.999016 
7.249342e+2, 2.7444598e+2, -214927.05, -336312.2, -128936.4, -0.026679821, -0.06556459, -133112.83, 117314.98, 0.000000011844985, 10.000643, 9.999045 
7.249177e+2, 2.844445e+2, -228444.08, -371315.22, -86835.82, -0.029967522, -0.08245667, -187436.33, -34993.707, 0.000004675658, 10.000224, 9.998334 
7.249028e+2, 2.944441e+2, -290579.28, -356844.72, -46278.17, 0.082651444, 0.03258662, -266795.88, -212345.22, 0.000040333267, 9.999144, 9.998282 
7.248862e+2, 3.0444336e+2, -96306.54, 6657.6133, -42736.336, 0.028286884, 0.029337466, 22084.42, 22084.42, 0.00014552723, 9.999094, 10.000466 
7.2486895e+2, 3.144426e+2, 75958.41, 101055.99, -67935.1, -0.061120797, -0.12477796, 157591.56, 157591.56, 0.0003309744, 10.000173, 10.000601 
7.3519367e+2, 1.2447942e+2, -1634974.0, -1909848.6, 3742.6301, 0.19271803, 0.13718657, -1634923.1, 85184.2, 0.0, 10.001505, 9.997938 
7.3517674e+2, 1.3447802e+2, -1294944.0, -1647228.6, 92463.67, -0.114245005, 0.1459243, -1272150.0, 349973.22, 0.0, 10.002986, 9.998354 
7.3516214e+2, 1.4447567e+2, -1179820.9, -1459156.6, -110170.67, 0.018718952, 0.048564073, -1141599.3, 382545.53, 0.0, 10.002758, 9.999065 
7.351435e+2, 1.5447356e+2, -1387887.8, -1503875.9, -92248.484, 0.06853518, -0.094611265, -1336918.1, 89241.42, 0.0, 10.000633, 9.999111 
7.351255e+2, 1.6447285e+2, -1422568.5, -1521086.9, -14646.918, 0.07387141, -0.05142663, -1420437.0, -92271.625, 0.0, 9.999937, 9.998657 
7.3510885e+2, 1.7447375e+2, -1159223.5, -1341462.3, -36432.016, 0.078044675, 0.15693352, -1152210.1, 77951.13, 0.0, 10.001069, 9.998672 
7.350916e+2, 1.8447287e+2, -999990.44, -1202773.5, -83206.49, 0.06152343, 0.20059587, -970219.6, 161951.69, 0.0, 10.001433, 9.998776 
7.3507357e+2, 1.9446966e+2, -991528.3, -1144162.4, -65027.727, 0.0076957145, -0.015911898, -967581.2, 66618.9, 0.0, 10.000808, 9.998805 
7.350557e+2, 2.0446792e+2, -917899.2, -1037331.25, -61113.613, -0.034596518, -0.074414395, -892170.06, 44045.813, 0.0, 10.000548, 9.998996 
7.35038e+2, 2.1446784e+2, -794953.0, -921646.06, -61552.63, -0.06554645, -0.0023095936, -769973.4, 68244.07, 0.0, 10.000696, 9.999043 
7.350209e+2, 2.244676e+2, -729557.06, -869624.56, -63784.113, -0.051883046, 0.08729117, -704864.2, 35357.414, 0.0, 10.000602, 9.998774 
7.350045e+2, 2.3446701e+2, -687649.56, -799124.56, -62453.86, 0.010821274, 0.13520871, -659678.3, -17447.498, 0.0, 10.0002165, 9.998773 
7.3498726e+2, 2.44466e+2, -608385.6, -714940.75, -100244.03, 0.026583197, 0.16302305, -548140.6, -3898.6675, 0.0, 10.0001135, 9.998721 
7.349691e+2, 2.5446433e+2, -483887.63, -604100.25, -105634.17, -0.019283997, 0.10507139, -422456.5, 23800.592, 0.0, 10.000294, 9.998723 
7.349514e+2, 2.644626e+2, -394218.84, -561214.4, -94476.28, -0.062435035, 0.08596077, -351630.75, -3358.197, 0.0, 10.000469, 9.998257 
7.349344e+2, 2.7446055e+2, -276688.2, -455110.72, -114391.67, -0.09091786, 0.04223711, -220833.58, 29457.375, 0.000000051096855, 10.000603, 9.998251 
7.349177e+2, 2.8445867e+2, -146005.6, -202026.86, -132470.33, -0.07320031, -0.025930772, -38616.875, 113689.73, 0.0000058850314, 10.000229, 9.999494 
7.349011e+2, 2.94457e+2, -214965.36, -182870.08, -76580.05, -0.025819711, -0.16911224, -120674.32, -66355.3, 0.000044056193, 9.999069, 9.999512 
7.348845e+2, 3.044573e+2, -165587.4, -130451.27, -5775.012, -0.060688157, -0.0859091, -129526.43, -129526.43, 0.00015023218, 9.999059, 9.999543 
7.348699e+2, 3.1445855e+2, 24721.213, 14358.189, -14622.209, -0.026378999, 0.061721034, 35052.824, 35052.824, 0.0003328002, 10.000088, 10.000045 
7.45196e+2, 1.24495536e+2, -1474081.6, -1811029.0, -29112.506, 0.23003809, 0.1589984, -1471584.8, 248366.05, 0.0, 10.00253, 9.998109 
7.4517864e+2, 1.3449407e+2, -1609639.1, -1767141.8, 89863.24, -0.10177622, 0.13521215, -1568903.4, 53063.547, 0.0, 10.000706, 9.998622 
7.4516374e+2, 1.4449203e+2, -1497629.5, -1572275.5, -62770.31, 0.035401806, 0.03937289, -1461924.3, 62059.676, 0.0, 10.000398, 9.999427 
7.4514484e+2, 1.5449008e+2, -1145874.1, -1343689.5, -84656.86, 0.07418556, -0.12592106, -1114591.5, 311403.56, 0.0, 10.002112, 9.999493 
7.451268e+2, 1.6448925e+2, -1054459.1, -1383344.4, 22820.457, 0.073930316, -0.09698605, -1052883.3, 275117.94, 0.0, 10.002632, 9.99831 
7.4511015e+2, 1.7448965e+2, -1093234.8, -1351882.1, 23405.61, 0.0809874, 0.10051855, -1091133.8, 138869.14, 0.0, 10.001697, 9.998302 
7.450928e+2, 1.844888e+2, -1050335.5, -1222664.3, -19937.586, 0.068557575, 0.16461207, -1048058.9, 83954.87, 0.0, 10.001075, 9.998813 
7.450744e+2, 1.9448619e+2, -981974.2, -1134727.6, -38335.805, 0.016516432, 0.0025776594, -972893.1, 61145.004, 0.0, 10.000849, 9.998852 
7.450564e+2, 2.0448469e+2, -922578.5, -1054968.5, -21865.197, -0.014343024, -0.029765291, -919060.75, 16992.205, 0.0, 10.000588, 9.998849 
7.450389e+2, 2.1448442e+2, -866562.8, -976114.25, -34482.9, -0.014727633, 0.044147845, -856612.56, -18555.314, 0.0, 10.000292, 9.998864 
7.4502194e+2, 2.2448397e+2, -768101.75, -890243.94, -14150.222, 0.0059284996, 0.12228096, -766483.9, -26420.885, 0.0, 10.000349, 9.998754 
7.450052e+2, 2.3448311e+2, -601505.7, -758159.8, -14637.652, 0.04102943, 0.14347695, -600149.7, 41922.523, 0.0, 10.000807, 9.998771 
7.4498785e+2, 2.4448158e+2, -498987.06, -710163.6, -33728.105, 0.0340918, 0.13980624, -493731.0, 50356.67, 0.0, 10.001069, 9.998297 
7.449697e+2, 2.544791e+2, -385560.13, -607393.06, -66815.18, -0.018820561, 0.0478839, -366990.2, 79121.96, 0.0, 10.0011835, 9.998276 
7.4495214e+2, 2.6447725e+2, -316341.38, -520134.84, -32559.955, -0.05229504, 0.042510077, -311265.72, 36863.664, 0.0, 10.000983, 9.998294 
7.449352e+2, 2.7447608e+2, -298377.6, -457477.6, -1851.7123, -0.04981495, 0.07654898, -298356.03, -48216.24, 0.00000017449423, 10.000418, 9.998323 
7.449183e+2, 2.8447443e+2, -146698.14, -191539.23, -21276.375, -0.03417995, 0.021103434, -138209.7, 13942.972, 0.0000070145306, 10.000182, 9.999587 
7.449008e+2, 2.9447213e+2, -11463.453, -71349.72, -68949.04, -0.014986946, -0.19309817, 33763.625, 87932.38, 0.00004543542, 10.000412, 9.999628 
7.4488413e+2, 3.0447224e+2, -59867.625, -178393.8, -2962.0833, -0.05714783, -0.09597002, -59793.645, -59793.645, 0.00014809403, 10.000215, 9.998661 
7.448698e+2, 3.1447348e+2, -125114.15, -106847.58, -37768.0, 0.010521953, 0.14862518, -77124.22, -77124.22, 0.00032277982, 9.999276, 9.999603 
7.551972e+2, 1.24509454e+2, -1387555.4, -1629748.3, -84697.07, 0.060465813, 0.04912301, -1360875.1, 358939.4, 0.0, 10.002529, 9.9993515 
7.551809e+2, 1.3450995e+2, -1510276.3, -1569774.0, 23925.535, 0.03864486, 0.08644191, -1501848.9, 119959.7, 0.0, 10.000748, 9.999952 
7.551661e+2, 1.4450946e+2, -1487020.3, -1557991.5, -14815.399, 0.21488935, 0.072778605, -1484051.6, 39757.957, 0.0, 10.000427, 9.999514 
7.5514644e+2, 1.5450798e+2, -1142664.6, -1333670.1, -13038.958, 0.0027449417, -0.049817238, -1141778.6, 284038.53, 0.0, 10.002096, 9.999572 
7.55128e+2, 1.6450627e+2, -1051371.8, -1370373.8, -15666.865, -0.07276855, -0.121048555, -1050604.1, 277226.66, 0.0, 10.002604, 9.998412 
7.551119e+2, 1.745042e+2, -1090523.4, -1344909.5, -6331.9224, 0.06605494, -0.17548014, -1090365.9, 139486.6, 0.0, 10.001694, 9.998351 
7.5509435e+2, 1.845033e+2, -1066434.6, -1253323.6, -37755.254, 0.09756359, -0.10849249, -1059095.5, 72768.586, 0.0, 10.0010605, 9.99861 
7.550751e+2, 1.9450353e+2, -1005029.56, -1168685.1, -40099.64, -0.0176199, 0.034943696, -995732.4, 38133.684, 0.0, 10.000792, 9.998645 
7.550569e+2, 2.0450291e+2, -945016.8, -1089361.9, -39949.74, -0.028460722, 0.1134279, -934697.75, 1176.8981, 0.0, 10.00053, 9.998645 
7.550404e+2, 2.1450119e+2, -893059.6, -1008564.6, -39105.645, 0.08975944, 0.059595343, -881065.4, -43172.914, 0.0, 10.000199, 9.998685 
7.5502336e+2, 2.2449978e+2, -770245.0, -873419.3, -2949.9685, 0.11210608, 0.0424408, -770160.75, -30255.049, 0.0, 10.0002575, 9.998914 
7.550058e+2, 2.3449855e+2, -601934.94, -739980.5, 11794.601, 0.008150208, 0.013570032, -600934.44, 40980.49, 0.0, 10.000729, 9.998933 
7.549885e+2, 2.4449673e+2, -548517.7, -803705.9, -35441.348, -0.025068305, 0.001631946, -543686.9, 245.70242, 0.0, 10.001027, 9.997674 
7.5497156e+2, 2.5449395e+2, -437852.97, -705973.5, -55920.99, 0.029198408, -0.056668095, -426657.2, 19305.664, 0.0, 10.001138, 9.997622 
7.549542e+2, 2.6449254e+2, -259002.61, -392054.25, -57161.285, 0.045662075, -0.029048963, -237818.13, 110158.9, 0.0, 10.00095, 9.999187 
7.549366e+2, 2.7449268e+2, -243570.19, -324742.5, -12742.283, 0.024727909, 0.041175477, -241616.92, 8356.576, 0.0000002213921, 10.00034, 9.999271 
7.549192e+2, 2.844918e+2, -223336.22, -344029.66, -18932.857, 0.028701283, 0.06730253, -220435.95, -68456.3, 0.000006961638, 10.000148, 9.99856 
7.5490206e+2, 2.944896e+2, -95615.97, -238246.69, -50781.645, 0.04525122, -0.025671061, -79383.305, -25383.945, 0.00004401986, 10.00037, 9.998509 
7.5488466e+2, 3.0448806e+2, -124955.234, -298817.5, -38051.023, -0.03925483, 0.005501677, -116992.2, -116992.2, 0.0001416952, 10.000164, 9.997851 
7.548683e+2, 3.144872e+2, -163635.53, -163391.56, -62214.99, -0.09896683, 0.11342355, -101298.445, -101298.445, 0.00030697437, 9.999185, 9.999255 
7.652001e+2, 1.2452573e+2, -1369401.9, -1650565.5, 65357.01, 0.094461925, -0.039458677, -1354952.1, 364698.47, 0.00000000032551553, 10.00274, 9.999116 
7.6518273e+2, 1.3452627e+2, -1327129.9, -1515559.6, 4179.333, 0.08489165, 0.026488101, -1327037.3, 294609.13, 0.0, 10.002122, 9.99967 
7.651674e+2, 1.445262e+2, -1353637.0, -1512778.5, -14925.086, 0.25833637, 0.07788704, -1352249.3, 171395.72, 0.0, 10.001424, 9.999343 
7.651482e+2, 1.5452495e+2, -1316275.3, -1439935.4, -42741.04, 0.033154212, -0.004521342, -1302940.5, 122711.83, 0.0, 10.000991, 9.999382 
7.651299e+2, 1.6452307e+2, -1273760.6, -1473367.5, -68121.484, -0.061814778, -0.08434125, -1252728.4, 74939.53, 0.0, 10.001063, 9.998446 
7.651133e+2, 1.7452034e+2, -1082290.4, -1333701.3, -75957.195, 0.041900113, -0.21119067, -1061123.9, 168570.53, 0.0, 10.001724, 9.998412 
7.650957e+2, 1.8451926e+2, -949221.3, -1212757.5, -97690.65, 0.08781872, -0.16086762, -916958.06, 214749.55, 0.0, 10.001933, 9.998467 
7.650768e+2, 1.945199e+2, -901427.6, -1137302.3, -108437.89, 0.04909036, 0.041220322, -859152.6, 174554.31, 0.0, 10.001575, 9.9984865 
7.6505876e+2, 2.0451955e+2, -823974.06, -1007081.1, -77294.35, 0.066793814, 0.14423963, -795709.1, 140003.48, 0.0, 10.001264, 9.998857 
7.650416e+2, 2.145178e+2, -758820.25, -921038.3, -60153.36, 0.15500371, 0.06461568, -738948.6, 98779.625, 0.0, 10.001014, 9.9988985 
7.6502436e+2, 2.2451594e+2, -702225.3, -885545.7, 5094.804, 0.15153834, 0.010429198, -702083.8, 37661.01, 0.0, 10.000926, 9.998506 
7.6500684e+2, 2.3451386e+2, -586426.56, -781613.2, -39549.83, 0.030079605, -0.06048817, -578717.25, 63046.21, 0.0, 10.001052, 9.998487 
7.649897e+2, 2.44512e+2, -527793.9, -773331.6, -78619.16, -0.0035688751, -0.061167598, -504778.13, 39004.117, 0.0, 10.001084, 9.997856 
7.64973e+2, 2.5451028e+2, -445224.7, -682669.56, -46172.188, 0.06913372, -0.03474423, -436562.3, 9240.206, 0.0, 10.000982, 9.997853 
7.6495534e+2, 2.6450932e+2, -312717.97, -410531.34, -56956.67, 0.08328573, 0.020362044, -286551.84, 61261.082, 0.0, 10.00055, 9.999255 
7.649367e+2, 2.745091e+2, -330644.6, -357682.22, -97676.81, 0.04175131, 0.05011915, -245555.5, 4257.4272, 0.00000016204108, 9.999707, 9.999349 
7.649191e+2, 2.845082e+2, -339150.63, -433708.16, -56176.438, 0.04601798, 0.08318459, -313005.47, -161185.58, 0.000006290961, 9.999494, 9.9982605 
7.6490265e+2, 2.9450628e+2, -172252.11, -306885.0, -37194.543, 0.0928779, 0.050048817, -162659.92, -108822.336, 0.000041719115, 9.999984, 9.9982195 
7.648849e+2, 3.04504e+2, -153360.72, -265699.97, 17505.318, -0.00614178, 0.00335224, -150696.14, -150696.14, 0.00013461517, 9.999767, 9.998269 
7.648668e+2, 3.1450284e+2, -238741.69, -147693.5, 51455.39, -0.12798126, 0.0382622, -124514.6, -124514.6, 0.00029000925, 9.998452, 9.999709 
7.7520406e+2, 1.2454422e+2, -1485869.0, -1879431.1, 39262.047, 0.175439, -0.110359505, -1481990.4, 237470.38, 0.00000000045588486, 10.002691, 9.997568 
7.75184e+2, 1.3454302e+2, -1443599.8, -1762357.1, -18959.629, -0.025167631, -0.04231256, -1442476.0, 179003.84, 0.0, 10.002146, 9.997964 
7.751675e+2, 1.4454235e+2, -1378206.6, -1572051.8, -41281.004, 0.106350794, 0.054633997, -1369781.8, 153707.47, 0.0, 10.001455, 9.998925 
7.7515e+2, 1.5454112e+2, -1337002.3, -1494416.1, -51179.79, 0.09664639, 0.016859157, -1321825.4, 103673.7, 0.0, 10.001036, 9.998989 
7.751321e+2, 1.6453977e+2, -1273032.8, -1472376.8, -51875.625, 0.03554204, 0.011514056, -1260341.1, 67170.22, 0.0, 10.001067, 9.99845 
7.7511424e+2, 1.7453806e+2, -1079296.5, -1326236.0, -41827.85, -0.05157222, -0.018569188, -1072403.9, 157124.47, 0.0, 10.0017185, 9.998466 
7.7509665e+2, 1.8453665e+2, -960943.3, -1227779.8, -114206.88, -0.020184433, 0.0015674721, -918737.94, 212806.0, 0.0, 10.00189, 9.998388 
7.750796e+2, 1.9453548e+2, -916305.44, -1153521.0, -114440.63, 0.14834552, 0.029508024, -870096.75, 163462.52, 0.0, 10.001512, 9.998406 
7.7506155e+2, 2.0453474e+2, -795183.6, -928617.1, -94231.56, 0.20365605, 0.06934457, -746441.7, 189124.16, 0.0, 10.001182, 9.999436 
7.7504236e+2, 2.1453431e+2, -728452.9, -837884.56, -63272.457, 0.11840113, 0.06389279, -699519.3, 138044.7, 0.0, 10.000931, 9.999508 
7.750245e+2, 2.2453253e+2, -785847.9, -1037387.0, 1487.9742, 0.06028297, 0.033784922, -785839.1, -46259.188, 0.0, 10.000833, 9.997509 
7.7500814e+2, 2.3452891e+2, -674074.9, -942480.8, -28347.463, 0.038073327, -0.08502212, -671113.6, -29494.668, 0.0, 10.000961, 9.997427 
7.749913e+2, 2.4452733e+2, -467006.2, -630274.1, -89950.97, 0.031248698, -0.051274374, -427168.84, 116468.27, 0.0, 10.001014, 9.998874 
7.7497375e+2, 2.545281e+2, -375760.5, -525018.1, -42316.633, 0.039206166, 0.11451142, -364597.97, 81033.195, 0.0, 10.000925, 9.998964 
7.749552e+2, 2.6452756e+2, -373565.28, -529616.1, -92797.766, 0.004334794, 0.19187316, -330349.66, 17287.4, 0.0, 10.000515, 9.998456 
7.7493536e+2, 2.745252e+2, -399958.56, -490770.6, -122385.195, -0.075346015, 0.10052582, -314827.84, -65168.62, 0.00000014054619, 9.999654, 9.998465 
7.7491766e+2, 2.8452343e+2, -311132.88, -361879.3, -45844.363, -0.063483514, 0.06346621, -284108.53, -132433.86, 0.0000059856334, 9.999439, 9.998776 
7.749024e+2, 2.9452202e+2, -135088.16, -224344.55, -9726.655, 0.051231936, 0.019510377, -134040.5, -80355.32, 0.0000396548, 9.999958, 9.998799 
7.7488464e+2, 3.0451998e+2, -38466.547, -19787.09, -29311.781, -0.020806089, -0.110692374, 1636.9762, 1636.9762, 0.00012692052, 9.999735, 9.999974 
7.748647e+2, 3.1452045e+2, -159864.67, 33882.8, 20275.121, -0.22540729, -0.08557972, 35981.797, 35981.797, 0.00027213217, 9.998364, 10.001006 
7.8520656e+2, 1.2456234e+2, -1608851.1, -1943035.8, -27511.016, 0.20870286, -0.05650011, -1606601.5, 112682.35, 0.0000000009851104, 10.001877, 9.9975195 
7.851863e+2, 1.3456048e+2, -1380683.0, -1753764.1, -24860.549, -0.023871336, -0.034845788, -1379033.8, 242275.94, 0.0, 10.002687, 9.997755 
7.851693e+2, 1.445596e+2, -1204985.4, -1534425.6, 4560.315, 0.07395093, 0.06965894, -1204922.3, 318400.16, 0.0, 10.002844, 9.998513 
7.8515154e+2, 1.545581e+2, -1177213.1, -1465659.9, -21801.076, 0.085002065, 0.04899172, -1175574.6, 249762.22, 0.0, 10.00235, 9.998549 
7.8513384e+2, 1.6455692e+2, -1115737.4, -1389666.0, 20978.64, 0.05382437, 0.08039199, -1114140.1, 213208.61, 0.0, 10.002122, 9.998503 
7.851167e+2, 1.7455585e+2, -1014298.56, -1285930.1, 17810.26, 0.0057495143, 0.10565289, -1013135.8, 216223.89, 0.0, 10.002132, 9.998535 
7.8509897e+2, 1.8455443e+2, -963324.9, -1215642.9, -65249.574, 0.030456102, 0.11533827, -947450.06, 183924.22, 0.0, 10.00182, 9.998504 
7.850807e+2, 1.945524e+2, -975441.7, -1167271.0, -64803.746, 0.13717891, 0.04819062, -955601.7, 77793.555, 0.0, 10.001051, 9.998531 
7.8506225e+2, 2.045511e+2, -814884.56, -970644.25, -16437.041, 0.17060848, 0.038415737, -813168.9, 122237.35, 0.0, 10.001191, 9.999139 
7.8504384e+2, 2.1455047e+2, -555894.56, -790947.6, -66814.03, 0.11408833, 0.04367797, -538230.06, 299176.94, 0.0, 10.002276, 9.999179 
7.85026e+2, 2.2454888e+2, -600875.4, -921443.4, -27641.248, 0.07850518, 0.038326826, -598509.44, 140912.03, 0.0, 10.00198, 9.997755 
7.8500885e+2, 2.3454596e+2, -793395.6, -970041.56, 27901.34, 0.070177495, -0.036215425, -789093.4, -147639.44, 0.0, 10.0000105, 9.997698 
7.8499156e+2, 2.4454479e+2, -704711.3, -696249.6, 51840.188, 0.05978058, 0.0035467884, -648467.94, -105000.29, 0.0, 9.999179, 9.999296 
7.8497404e+2, 2.545455e+2, -521794.22, -548928.75, 33614.5, 0.04400632, 0.123402566, -499112.28, -53652.086, 0.0, 9.999719, 9.999377 
7.849555e+2, 2.6454467e+2, -415959.44, -584260.9, -23013.467, -0.00031424707, 0.16476153, -412869.3, -65401.25, 0.0, 10.000373, 9.99815 
7.849357e+2, 2.7454174e+2, -202788.06, -433940.28, -25462.078, -0.07399907, 0.049873415, -200016.56, 49479.47, 0.0000001311964, 10.001172, 9.998124 
7.8491783e+2, 2.8453985e+2, -100085.0, -244749.47, 51751.62, -0.050007436, 0.012440746, -83478.03, 68034.77, 0.0000058891046, 10.000823, 9.998917 
7.849023e+2, 2.94539e+2, -260902.19, -264796.75, 39952.402, 0.09539059, 0.014707166, -222849.64, -169332.06, 0.000037489564, 9.999017, 9.998974 
7.848843e+2, 3.0453724e+2, -196504.34, -75631.25, -19899.648, 0.037957147, -0.11173562, -72439.4, -72439.4, 0.00011865352, 9.998539, 10.000172 
7.848642e+2, 3.1453723e+2, -12383.531, 83166.67, -116757.49, -0.15646194, -0.15942605, 161545.33, 161545.33, 0.0002544846, 9.999452, 10.000824 
7.952073e+2, 1.2458031e+2, -1514861.8, -1757160.5, -1925.1014, 0.06003627, 0.11210919, -1514846.5, 204270.53, 0.0000000034592607, 10.00192, 9.9987755 
7.951895e+2, 1.3457872e+2, -1291520.4, -1573977.5, 7945.0625, 0.012213386, 0.04209053, -1291297.1, 329838.2, 0.0, 10.002715, 9.998973 
7.9517245e+2, 1.4457794e+2, -1235417.3, -1596737.9, -21751.98, 0.08324787, 0.115638554, -1234112.5, 289032.25, 0.0, 10.002839, 9.998088 
7.9515254e+2, 1.5457588e+2, -1205115.5, -1531133.0, -31001.295, -0.0692636, 0.081325084, -1202193.8, 222972.13, 0.0, 10.002378, 9.998085 
7.9513496e+2, 1.6457449e+2, -1114629.8, -1384741.5, 14619.09, -0.06835126, 0.116418265, -1113840.9, 213339.25, 0.0, 10.002108, 9.998547 
7.951204e+2, 1.7457375e+2, -1008328.4, -1275741.5, 24561.096, 0.14787601, 0.16745152, -1006091.25, 223096.61, 0.0, 10.002136, 9.998606 
7.951023e+2, 1.8457256e+2, -949841.6, -1175913.8, -100174.66, 0.16817679, 0.18183658, -911840.9, 219357.86, 0.0, 10.001768, 9.998801 
7.9507995e+2, 1.9457065e+2, -956180.56, -1121175.3, -86820.53, -0.057755917, 0.09229367, -918913.06, 114302.3, 0.0, 10.001024, 9.998858 
7.9506093e+2, 2.0456861e+2, -907411.6, -1145093.9, 13946.582, -0.09600094, 0.047052268, -906596.06, 28638.205, 0.0, 10.001116, 9.997978 
7.95046e+2, 2.1456616e+2, -653315.06, -974295.9, -18742.336, 0.08423696, -0.005930273, -652224.4, 185033.56, 0.0, 10.002195, 9.997959 
7.950287e+2, 2.2456495e+2, -511810.2, -712512.2, -102071.734, 0.14343482, 0.020670708, -469021.53, 270247.8, 0.0, 10.001876, 9.999239 
7.9500884e+2, 2.3456508e+2, -691368.2, -741641.7, -38029.664, 0.058118977, 0.08948359, -670918.6, -29651.1, 0.0, 9.999934, 9.999304 
7.949904e+2, 2.4456438e+2, -728441.56, -730774.4, 60853.24, 0.013091366, 0.102599, -668743.56, -125470.26, 0.0, 9.999115, 9.99909 
7.949736e+2, 2.545625e+2, -554070.25, -597860.44, 60093.543, 0.0149687845, -0.009960388, -512007.3, -66717.23, 0.0, 9.99964, 9.99908 
7.94956e+2, 2.6456064e+2, -405563.88, -555230.6, 991.3316, 0.0018823005, -0.06544162, -405557.3, -58250.93, 0.0, 10.000336, 9.998368 
7.9493755e+2, 2.7455866e+2, -190624.66, -405623.0, 15797.857, -0.02504656, -0.111361586, -189470.05, 59853.824, 0.000000103459534, 10.001154, 9.99833 
7.949196e+2, 2.8455752e+2, -121327.625, -285423.0, -16478.43, 0.024388373, -0.06632919, -119689.23, 31644.21, 0.0000054454867, 10.000809, 9.998644 
7.9490197e+2, 2.9455736e+2, -292317.88, -313142.38, -15454.676, 0.14583226, 0.034668826, -284095.16, -230761.08, 0.00003447301, 9.99894, 9.998681 
7.9488355e+2, 3.0455568e+2, -300062.28, -277910.1, 10083.377, 0.09397502, -0.0057202945, -274007.75, -274007.75, 0.0001104858, 9.9984865, 9.998805 
7.9486495e+2, 3.1455287e+2, -151781.23, -196285.81, -62504.617, -0.06812398, -0.18708713, -107686.016, -107686.016, 0.000240168, 9.999407, 9.998926 
8.0520946e+2, 1.2459733e+2, -1568056.5, -1751150.9, 124517.13, 0.1157877, 0.078906864, -1505054.6, 213896.5, 0.0000000057252847, 10.001428, 9.9990635 
8.0519235e+2, 1.3459633e+2, -1397247.4, -1614867.3, 28062.8, 0.06747568, 0.05840916, -1393686.8, 227276.5, 0.0, 10.001938, 9.9990835 
8.0517536e+2, 1.4459585e+2, -1282039.1, -1610283.1, -28049.03, 0.11791219, 0.15174955, -1279659.5, 243310.48, 0.0, 10.002487, 9.998163 
8.05156e+2, 1.5459381e+2, -1076902.0, -1466259.4, -21322.396, 0.0040598772, 0.11691917, -1075737.8, 349253.5, 0.0, 10.003247, 9.998115 
8.0513823e+2, 1.6459225e+2, -989292.94, -1332488.1, 22541.291, 0.013346829, 0.1369137, -987818.7, 339188.66, 0.0, 10.003001, 9.998481 
8.051227e+2, 1.7459114e+2, -1106175.9, -1332319.4, 7138.1953, 0.19742171, 0.16188893, -1105950.8, 123067.875, 0.0, 10.001511, 9.998523 
8.051041e+2, 1.8458979e+2, -1016019.56, -1221466.8, -89326.02, 0.19324897, 0.169943, -982613.5, 148417.83, 0.0, 10.001377, 9.998673 
8.0508184e+2, 1.9458795e+2, -719975.7, -1027786.56, -122624.28, -0.04867602, 0.10306978, -677098.0, 355949.75, 0.0, 10.002733, 9.998681 
8.050628e+2, 2.0458607e+2, -655575.5, -992553.3, -135.9829, -0.101760946, 0.071306884, -655575.44, 279490.03, 0.0, 10.00271, 9.998259 
8.050474e+2, 2.1458392e+2, -809022.75, -1016244.4, 62520.816, 0.07196983, 0.017946692, -791620.94, 45465.99, 0.0, 10.000987, 9.998253 
8.0502975e+2, 2.2458307e+2, -684309.25, -757483.94, 2429.3186, 0.12984209, 0.048004054, -684228.7, 54865.598, 0.0, 10.000528, 9.999576 
8.050094e+2, 2.3458363e+2, -442165.66, -583175.44, -41429.605, 0.04436422, 0.12687226, -430894.3, 210191.89, 0.0, 10.001486, 9.99964 
8.049906e+2, 2.4458289e+2, -390651.88, -598406.7, 30201.926, 0.0030948818, 0.13095216, -386350.4, 156741.3, 0.0, 10.001556, 9.99883 
8.049737e+2, 2.5458038e+2, -436718.34, -573909.25, 16377.408, 0.018685544, -0.016038695, -434790.38, 10325.06, 0.0, 10.00058, 9.998799 
8.049566e+2, 2.6457843e+2, -428136.22, -529919.56, -2067.657, 0.044861514, -0.07985447, -428094.22, -80962.21, 0.0, 10.000022, 9.998692 
8.0493927e+2, 2.7457702e+2, -338102.34, -434265.78, 9540.421, 0.09230505, -0.10708662, -337164.97, -88022.82, 0.00000004701224, 9.999955, 9.998708 
8.049209e+2, 2.84576e+2, -311126.0, -427114.94, -62009.914, 0.13360251, -0.050512347, -284217.06, -133065.89, 0.000004093495, 9.999724, 9.998191 
8.049012e+2, 2.9457542e+2, -261447.2, -350321.53, -95848.89, 0.159468, 0.0532936, -200235.56, -147076.2, 0.000029631305, 9.999379, 9.998209 
8.048824e+2, 3.04574e+2, -259110.89, -271983.22, 23063.4, 0.11781532, 0.07224801, -241602.44, -241602.44, 0.00010221737, 9.998837, 9.998686 
8.048651e+2, 3.1457028e+2, -385080.63, -309312.3, 32139.664, 0.09439199, -0.18640104, -297515.8, -297515.8, 0.00023173615, 9.997829, 9.998914 
8.152123e+2, 1.24613725e+2, -1606002.5, -1847966.4, 124943.414, 0.21600604, -0.12627466, -1553066.4, 165717.52, 0.000000004999778, 10.001512, 9.998356 
8.151945e+2, 1.3461344e+2, -1450236.8, -1734272.9, 50139.02, 0.06718551, 0.0069376105, -1441645.9, 179147.16, 0.0, 10.0019865, 9.998234 
8.151779e+2, 1.4461343e+2, -1254416.0, -1553397.4, -7771.731, 0.11022518, 0.17515153, -1254214.1, 268582.84, 0.0, 10.002486, 9.998558 
8.151617e+2, 1.5461197e+2, -1044287.0, -1397294.5, 15915.39, 0.22533019, 0.15298606, -1043570.94, 381241.72, 0.0, 10.003239, 9.998594 
8.151434e+2, 1.646102e+2, -1009402.0, -1366864.9, -39104.758, 0.21724793, 0.13980043, -1005174.1, 321656.38, 0.0, 10.002969, 9.9982605 
8.151233e+2, 1.7460804e+2, -1119959.6, -1363730.1, -41790.48, 0.08847896, 0.07911725, -1112994.4, 115857.71, 0.0, 10.001519, 9.998302 
8.151041e+2, 1.8460615e+2, -1063716.3, -1312864.9, -46476.32, 0.046738517, 0.075986415, -1055328.9, 75542.73, 0.0, 10.001343, 9.998064 
8.150861e+2, 1.946044e+2, -770061.75, -1122550.5, -61888.785, 0.09264225, 0.07866275, -759511.3, 273380.13, 0.0, 10.002688, 9.998053 
8.150674e+2, 2.0460358e+2, -558603.6, -765214.06, -67014.09, 0.082115, 0.10953738, -538771.3, 396127.75, 0.0, 10.002599, 9.999875 
8.1504786e+2, 2.1460372e+2, -699821.8, -770518.6, 4542.914, 0.010865284, 0.11361632, -699531.06, 137362.89, 0.0, 10.000901, 9.999982 
8.150287e+2, 2.2460315e+2, -757043.7, -882636.2, 26905.172, -0.030062106, 0.12024129, -751522.56, -12625.839, 0.0, 10.000421, 9.998769 
8.1501013e+2, 2.3460153e+2, -518680.25, -721695.0, 1767.4783, -0.042871784, 0.07019329, -518664.84, 122245.945, 0.0, 10.0014, 9.998731 
8.149919e+2, 2.4460022e+2, -420039.28, -647223.56, -11011.893, -0.039721675, 0.081242315, -419506.78, 123416.7, 0.0, 10.001499, 9.998525 
8.149741e+2, 2.5459915e+2, -463427.56, -620776.94, -13941.211, -0.010738493, 0.10999812, -462201.9, -17265.96, 0.0, 10.000536, 9.998503 
8.1495696e+2, 2.6459813e+2, -399837.44, -459059.3, -11675.197, 0.06654039, 0.12728208, -397618.88, -50674.395, 0.0, 9.999977, 9.999198 
8.1494045e+2, 2.7459693e+2, -317263.97, -364454.06, 16191.978, 0.20079337, 0.068138264, -312242.47, -63292.01, 0.000000004527389, 9.999849, 9.999236 
8.1492144e+2, 2.8459525e+2, -361117.03, -526789.1, -82003.6, 0.2026138, 0.061038457, -327392.38, -176425.77, 0.0000024308686, 9.999694, 9.997527 
8.1489974e+2, 2.94593e+2, -318736.06, -468850.2, -100729.88, 0.053123746, 0.07431422, -268174.34, -215179.72, 0.00002455122, 9.999367, 9.997408 
8.148805e+2, 3.0459216e+2, -173744.73, -88292.68, -16330.733, 0.035149362, 0.13256976, -85278.06, -85278.06, 0.00009685274, 9.99882, 9.999946 
8.148641e+2, 3.1458944e+2, -282115.63, -57469.234, 14410.422, 0.1741665, -0.16731194, -56548.62, -56548.62, 0.00023258898, 9.997673, 10.000715 
8.2521474e+2, 1.2463163e+2, -1337127.3, -1742420.5, 51227.996, 0.22437684, -0.042950664, -1330752.4, 387859.06, 0.0000000017683296, 10.003437, 9.998149 
8.2519704e+2, 1.3463011e+2, -1289979.3, -1699764.5, -14195.239, 0.07215557, -0.0008576064, -1289488.1, 331142.94, 0.0, 10.003254, 9.997862 
8.251803e+2, 1.4462969e+2, -1243576.8, -1503416.0, -52929.023, 0.11026907, 0.12516968, -1233208.8, 289429.38, 0.0, 10.002375, 9.998951 
8.251642e+2, 1.54629e+2, -1366602.6, -1506668.8, -48661.297, 0.28284305, 0.14054838, -1351356.4, 73289.555, 0.0, 10.000836, 9.998994 
8.2514584e+2, 1.6462778e+2, -1289036.3, -1468952.9, -49446.855, 0.27032807, 0.14231174, -1276342.3, 50316.49, 0.0, 10.000915, 9.99854 
8.2512516e+2, 1.746258e+2, -910324.8, -1237365.5, -31386.244, 0.068682455, 0.07553855, -907339.9, 321338.44, 0.0, 10.002846, 9.998529 
8.2510597e+2, 1.8462417e+2, -813333.5, -1182958.1, 307.31946, 0.016727854, 0.082036465, -813333.25, 317362.84, 0.0, 10.003034, 9.9981365 
8.250884e+2, 1.9462271e+2, -993310.06, -1220688.5, 18059.678, 0.12886365, 0.10974806, -991884.6, 40829.594, 0.0, 10.001133, 9.998119 
8.2506937e+2, 2.0462224e+2, -869114.75, -914674.4, -11225.907, 0.13699839, 0.17077774, -866498.9, 68221.08, 0.0, 10.000464, 9.999871 
8.25049e+2, 2.1462284e+2, -666259.6, -755735.94, -82327.92, 0.030949455, 0.22075588, -617299.4, 219412.75, 0.0, 10.001141, 9.999966 
8.250297e+2, 2.24622e+2, -617669.3, -820542.1, -53194.848, -0.02412056, 0.20405522, -604567.3, 134149.66, 0.0, 10.001393, 9.998732 
8.250115e+2, 2.3461924e+2, -569705.4, -751198.44, -27434.813, -0.022535145, 0.04680955, -565648.94, 75090.36, 0.0, 10.001068, 9.9986925 
8.249931e+2, 2.4461761e+2, -559547.8, -718131.9, -24059.918, -0.011594444, 0.027889831, -555977.9, -13223.859, 0.0, 10.000568, 9.998482 
8.249746e+2, 2.5461715e+2, -552035.25, -663053.7, -24277.324, 0.015927663, 0.11867739, -546958.44, -102197.45, 0.0, 9.999946, 9.998489 
8.2495683e+2, 2.6461655e+2, -422702.2, -445548.8, 20395.238, 0.07372287, 0.166842, -410749.06, -63983.246, 0.0, 9.999711, 9.999422 
8.2493997e+2, 2.7461544e+2, -293709.53, -325819.25, 12247.057, 0.17110069, 0.09697151, -289571.6, -40800.77, 0.0, 9.999891, 9.999482 
8.2492083e+2, 2.8461382e+2, -308495.56, -462710.06, -55120.824, 0.17064644, 0.066784896, -290819.75, -140033.47, 0.000001518397, 9.999892, 9.99787 
8.248993e+2, 2.946115e+2, -257383.58, -400265.2, -6559.213, 0.070391096, 0.037013363, -257083.11, -204268.61, 0.000022026383, 9.999622, 9.997755 
8.248801e+2, 3.0461115e+2, -98924.15, -25424.592, 81732.555, 0.10052402, 0.11700288, 27440.12, 27440.12, 0.00009707927, 9.999212, 10.000179 
8.2486296e+2, 3.1460935e+2, -86102.24, 133890.33, -7057.0693, 0.26451594, -0.12322554, 134116.48, 134116.48, 0.00024342752, 9.998592, 10.001572 
8.3521646e+2, 1.246509e+2, -1318957.4, -1706458.3, 25092.768, 0.016272357, 0.29357186, -1317339.3, 401095.25, 0.000000000051048894, 10.003446, 9.998391 
8.3519995e+2, 1.346465e+2, -1271609.4, -1666769.6, -12415.389, 0.018138347, 0.028798519, -1271219.6, 349256.03, 0.0, 10.003279, 9.998075 
8.351822e+2, 1.4464487e+2, -1221502.4, -1461576.9, -115313.23, 0.04232908, 0.008964735, -1175088.1, 347403.03, 0.0, 10.00239, 9.999229 
8.351635e+2, 1.5464509e+2, -1336357.3, -1453415.3, -97775.26, 0.10746033, 0.079398625, -1280931.8, 143558.19, 0.0, 10.000878, 9.999337 
8.351454e+2, 1.6464497e+2, -1238104.3, -1363141.9, 13104.85, 0.1174596, 0.14006713, -1236745.6, 89746.055, 0.0, 10.000915, 9.9992695 
8.351283e+2, 1.7464447e+2, -859416.9, -1129008.4, 51243.434, 0.07805842, 0.14909896, -850005.2, 378491.66, 0.0, 10.002835, 9.999278 
8.3510935e+2, 1.846438e+2, -773599.7, -1090480.9, -73984.48, 0.038038816, 0.18376704, -757177.1, 373327.47, 0.0, 10.002986, 9.998799 
8.3508825e+2, 1.9464274e+2, -947701.0, -1120288.5, -46378.086, -0.009905781, 0.18096006, -936027.75, 96489.88, 0.0, 10.001103, 9.998826 
8.350685e+2, 2.046419e+2, -992769.94, -1153955.0, 3671.526, -0.0040136506, 0.24544355, -992686.4, -58156.855, 0.0, 10.000389, 9.998264 
8.350506e+2, 2.1464117e+2, -795551.06, -1007250.44, -48490.52, 0.06422934, 0.33279762, -784972.75, 51568.85, 0.0, 10.001069, 9.99827 
8.350322e+2, 2.2463962e+2, -580048.94, -721165.25, -72317.08, 0.084587336, 0.29623365, -549571.4, 188983.3, 0.0, 10.001297, 9.999463 
8.3501333e+2, 2.3463692e+2, -521644.34, -636716.0, -31968.684, 0.03822908, 0.06029253, -513359.44, 127211.28, 0.0, 10.000998, 9.999516 
8.3499414e+2, 2.4463515e+2, -553834.3, -691879.6, -53853.8, 0.020051992, -0.025433982, -535310.6, 7271.8394, 0.0, 10.0005045, 9.998693 
8.349748e+2, 2.5463423e+2, -550562.6, -644862.0, -38827.65, 0.034963768, 0.0023140882, -536633.0, -92041.82, 0.0, 9.999875, 9.9986515 
8.3495593e+2, 2.6463345e+2, -432394.5, -454361.1, 21991.959, 0.0036226383, 0.026974738, -418795.72, -72198.09, 0.0, 9.999662, 9.999385 
8.349376e+2, 2.7463257e+2, -307002.34, -341131.8, 28984.08, -0.07545229, -0.016051296, -290432.53, -41829.105, 0.0, 9.999836, 9.999406 
8.349188e+2, 2.846318e+2, -213418.22, -254871.14, -70406.125, -0.03551173, -0.02729197, -160751.16, -10141.416, 0.0000012583888, 9.999853, 9.999314 
8.348998e+2, 2.9463086e+2, -165628.92, -190965.38, -5891.5933, 0.14095303, -0.06685321, -164325.94, -111707.17, 0.000022671806, 9.999545, 9.999229 
8.34881e+2, 3.0463096e+2, -162616.14, -148440.81, 60106.008, 0.25129676, 0.02103308, -95006.02, -95006.02, 0.0001036696, 9.999174, 9.999355 
8.3486146e+2, 3.1463012e+2, -112841.27, 88949.36, -3416.5706, 0.20969291, -0.02622262, 89007.19, 89007.19, 0.00026236358, 9.998553, 10.001285 
8.4522015e+2, 1.2466853e+2, -1243041.9, -1606907.0, 100693.195, 0.03206651, 0.33610827, -1217035.5, 501230.66, 0.0, 10.00371, 9.998948 
8.4520346e+2, 1.3466471e+2, -1397674.6, -1675906.3, 58029.426, 0.09997832, 0.086213134, -1386056.9, 234242.97, 0.0, 10.002201, 9.998531 
8.451847e+2, 1.4466299e+2, -1303577.3, -1510275.4, -4898.479, 0.08308799, 0.03993453, -1303461.3, 218853.7, 0.0, 10.001873, 9.999139 
8.451647e+2, 1.5466292e+2, -1011159.5, -1313179.4, -34490.57, 0.035993382, 0.09351571, -1007270.75, 417045.2, 0.0, 10.003181, 9.999193 
8.4514636e+2, 1.646627e+2, -939292.5, -1201903.5, 50856.01, 0.030568233, 0.1434122, -929787.94, 396530.75, 0.0, 10.002889, 9.999429 
8.451301e+2, 1.7466234e+2, -1170889.8, -1260173.1, 32769.688, 0.08967413, 0.15108457, -1160153.4, 68169.83, 0.0, 10.000622, 9.999445 
8.4511137e+2, 1.8466213e+2, -1108900.4, -1185632.9, -93059.89, 0.082302146, 0.19340183, -1046608.25, 83718.18, 0.0, 10.000396, 9.99939 
8.4509e+2, 1.9466192e+2, -712384.3, -943163.8, -85106.516, -0.011648964, 0.21585923, -684393.75, 347936.5, 0.0, 10.002441, 9.999399 
8.4507e+2, 2.046612e+2, -639288.94, -1014951.5, 6276.644, -0.02173509, 0.27678603, -639184.1, 295156.47, 0.0, 10.00295, 9.997992 
8.4505194e+2, 2.1465972e+2, -747409.7, -1023367.0, 40619.297, 0.07185289, 0.3212916, -741554.94, 94805.51, 0.0, 10.001563, 9.997929 
8.450337e+2, 2.2465807e+2, -637046.2, -748536.5, 68182.12, 0.12222171, 0.29517633, -604721.4, 133654.31, 0.0, 10.000923, 9.999442 
8.4501505e+2, 2.3465614e+2, -504746.47, -627414.2, 25446.416, 0.116428845, 0.13732362, -499677.3, 140709.0, 0.0, 10.001131, 9.999504 
8.449955e+2, 2.4465455e+2, -453574.4, -603118.94, -28932.213, 0.082611084, 0.055417582, -448172.06, 94223.77, 0.0, 10.001014, 9.999058 
8.449748e+2, 2.5465316e+2, -434887.38, -541582.4, -14924.307, 0.01823869, -0.0059100795, -432839.13, 11567.353, 0.0, 10.000468, 9.999065 
8.449552e+2, 2.6465228e+2, -446296.47, -472460.34, 71294.6, -0.031999853, -0.008395533, -386893.53, -40480.27, 0.0, 9.99962, 9.999278 
8.449369e+2, 2.746518e+2, -514196.88, -451444.3, 61347.258, -0.052231196, 0.0027099112, -413915.16, -165498.2, 0.0000000050987805, 9.998464, 9.999307 
8.4491825e+2, 2.846512e+2, -405219.78, -312922.56, -35223.95, 0.0003715059, -0.00074886123, -301015.84, -150594.5, 0.0000017149706, 9.9983835, 9.999624 
8.4489924e+2, 2.9465002e+2, -157761.11, -141859.89, -76077.54, 0.14774942, -0.100819096, -73318.64, -20888.83, 0.0000255943, 9.999408, 9.999627 
8.4488034e+2, 3.0464956e+2, -93149.3, -206395.98, -53657.45, 0.2413312, -0.05270999, -71764.15, -71764.15, 0.000114907256, 10.000032, 9.998557 
8.448605e+2, 3.146499e+2, 86047.336, 121907.23, -133756.05, 0.18268809, 0.10245125, 238929.73, 238929.73, 0.00028673265, 10.000166, 10.000751 
8.55225e+2, 1.2468508e+2, -1199514.4, -1512316.9, 20072.217, 0.111852266, 0.13716622, -1198231.6, 519870.03, 0.0, 10.003692, 9.999606 
8.552072e+2, 1.3468474e+2, -1355371.1, -1584600.4, 3255.629, 0.24586125, 0.1722596, -1355324.9, 264779.25, 0.0, 10.002201, 9.99915 
8.5518754e+2, 1.4468393e+2, -1328724.8, -1575984.9, 33258.586, 0.16989644, 0.20800848, -1324329.4, 197781.64, 0.0, 10.001914, 9.998677 
8.551677e+2, 1.5468238e+2, -1043910.44, -1386703.3, 27541.686, -0.0077678664, 0.16664678, -1041711.7, 382413.63, 0.0, 10.003197, 9.998683 
8.551485e+2, 1.6468099e+2, -977776.94, -1271635.0, -36418.383, -0.061316885, 0.14969237, -973330.8, 352808.84, 0.0, 10.002847, 9.998969 
8.551303e+2, 1.7467946e+2, -1197792.5, -1318057.0, -44867.438, 0.03779093, 0.079530634, -1182898.3, 45258.63, 0.0, 10.000631, 9.999042 
8.5511196e+2, 1.8467921e+2, -1077784.0, -1117223.6, -26047.504, 0.081207246, 0.113506295, -1064833.5, 65327.496, 0.0, 10.000374, 9.999873 
8.550932e+2, 1.9468029e+2, -678433.44, -869783.9, -455.16412, 0.05112245, 0.21520768, -678432.4, 353719.4, 0.0, 10.002421, 9.999914 
8.550735e+2, 2.0468019e+2, -581193.44, -876811.7, -50289.563, 0.020631265, 0.2646619, -572872.56, 361280.25, 0.0, 10.002871, 9.9989805 
8.5505277e+2, 2.1467853e+2, -685769.7, -874834.56, -4236.0024, -0.013803605, 0.1874183, -685674.8, 150493.31, 0.0, 10.001472, 9.998992 
8.5503376e+2, 2.2467737e+2, -714337.06, -883808.5, 67544.83, 0.023151318, 0.19716547, -690710.25, 47469.535, 0.0, 10.000813, 9.9985695 
8.550166e+2, 2.3467675e+2, -580310.44, -768214.56, 42258.02, 0.14206024, 0.26386726, -571244.44, 68943.24, 0.0, 10.001058, 9.998574 
8.5499686e+2, 2.4467574e+2, -425346.38, -529418.1, -56199.94, 0.10895112, 0.259773, -400791.34, 141404.2, 0.0, 10.00095, 9.999596 
8.5497427e+2, 2.5467396e+2, -404228.56, -462026.75, -29401.578, -0.09337388, 0.10264877, -391901.3, 52305.21, 0.0, 10.000397, 9.999649 
8.549545e+2, 2.6467302e+2, -462466.5, -493948.7, 20654.408, -0.07652037, 0.07367103, -452238.63, -106026.41, 0.0, 9.999566, 9.999159 
8.549378e+2, 2.746731e+2, -538232.4, -481678.88, 27074.922, 0.17965204, 0.15111552, -470806.84, -222594.92, 0.0000001292932, 9.998381, 9.999141 
8.549189e+2, 2.8467196e+2, -469993.4, -434162.66, -3122.434, 0.2132401, 0.145515, -433892.6, -283670.97, 0.0000031613251, 9.998324, 9.998819 
8.548974e+2, 2.9466897e+2, -221745.52, -266527.2, -29976.238, 0.0021599163, -0.053317226, -206720.78, -154472.7, 0.000030116835, 9.999367, 9.998794 
8.5487807e+2, 3.0466685e+2, -150614.11, -312462.94, -52706.168, -0.0108920215, -0.09449936, -134963.67, -134963.67, 0.0001273879, 9.999992, 9.997842 
8.548596e+2, 3.1466836e+2, 10127.354, -2262.0754, -105881.25, 0.04927206, 0.25657198, 109994.95, 109994.95, 0.00031292182, 10.000045, 9.9999485 
8.6522835e+2, 1.247039e+2, -1494978.9, -1727456.0, 122337.555, 0.17311068, 0.008746006, -1442463.6, 275446.53, 0.00000000000000000000885557, 10.001979, 9.998949 
8.6520904e+2, 1.347042e+2, -1367576.0, -1665409.8, -2212.2026, 0.2082042, 0.17287152, -1367559.6, 252351.73, 0.0, 10.00242, 9.998496 
8.6518914e+2, 1.4470333e+2, -1272706.4, -1544904.6, 46833.94, 0.120771006, 0.23080353, -1264873.5, 257047.47, 0.0, 10.002295, 9.998701 
8.651706e+2, 1.547013e+2, -1261508.0, -1489599.3, 63506.445, 0.046360668, 0.1417002, -1245018.3, 178919.72, 0.0, 10.0017, 9.998698 
8.651514e+2, 1.6469966e+2, -1183264.3, -1403517.4, -2597.817, 0.021862105, 0.112972595, -1183233.6, 142720.97, 0.0, 10.001573, 9.998673 
8.6513186e+2, 1.7469817e+2, -1027761.7, -1274103.5, -20211.826, 0.06379435, 0.079549015, -1026114.4, 201858.52, 0.0, 10.001951, 9.998709 
8.6511296e+2, 1.846978e+2, -890027.56, -1052734.8, 44596.93, 0.08484477, 0.12919511, -878605.7, 251373.98, 0.0, 10.001781, 9.999634 
8.65095e+2, 1.9469857e+2, -912297.94, -1010326.8, 5136.774, 0.07533944, 0.22628254, -912029.5, 119944.98, 0.0, 10.000945, 9.999656 
8.650756e+2, 2.0469847e+2, -833439.25, -911184.06, -106937.55, 0.05246552, 0.25161642, -758528.06, 175446.4, 0.0, 10.000772, 9.999745 
8.650543e+2, 2.1469717e+2, -661153.0, -775615.0, -98172.016, 0.009108533, 0.12997454, -604748.06, 231234.5, 0.0, 10.001273, 9.999764 
8.650346e+2, 2.2469644e+2, -673908.2, -861132.4, 12837.027, 0.021014728, 0.14115839, -673032.1, 64957.074, 0.0, 10.001073, 9.998602 
8.6501664e+2, 2.3469627e+2, -725585.3, -837885.06, 45636.84, 0.099492095, 0.25242668, -709378.25, -69383.07, 0.0, 10.000056, 9.998577 
8.64997e+2, 2.4469559e+2, -609316.56, -637596.75, -15223.631, 0.09406374, 0.28951803, -602679.2, -60676.926, 0.0, 9.999778, 9.999413 
8.649754e+2, 2.54694e+2, -419777.06, -490831.88, -62853.574, -0.010934303, 0.17321013, -383104.97, 60908.4, 0.0, 10.000386, 9.999455 
8.649555e+2, 2.6469305e+2, -304018.13, -425085.25, -49435.234, 0.022785781, 0.15365492, -286397.0, 59623.51, 0.0000000005766255, 10.000683, 9.999091 
8.649376e+2, 2.7469274e+2, -212285.95, -330574.94, -53036.766, 0.21875817, 0.19940422, -191988.83, 56034.844, 0.000000514823, 10.000637, 9.999089 
8.649183e+2, 2.8469166e+2, -151925.08, -290831.72, 2597.3967, 0.21794729, 0.20207618, -151876.53, -1843.7046, 0.0000054394536, 10.00055, 9.998734 
8.648973e+2, 2.9468912e+2, -65713.21, -195597.3, 21477.936, 0.009575998, 0.05752564, -62253.71, -10199.625, 0.000035908153, 10.000456, 9.99876 
8.6487794e+2, 3.0468634e+2, -84081.13, -243604.88, 59683.39, -0.026426261, -0.0655439, -64223.414, -64223.414, 0.00014004746, 10.0002775, 9.998175 
8.6485875e+2, 3.146876e+2, -36020.086, -28747.117, 65369.582, -0.018622506, 0.22520916, 33087.05, 33087.05, 0.0003371157, 9.999741, 9.999903 
8.7522966e+2, 1.2472494e+2, -1618007.6, -1995311.0, 108116.984, 0.07324132, -0.04479331, -1589222.6, 128469.67, 0.0000000055054987, 10.002024, 9.997091 
8.7520885e+2, 1.3472329e+2, -1485159.3, -1912371.5, 17761.217, -0.067068584, 0.09331437, -1484422.1, 135298.27, 0.0, 10.002435, 9.99679 
8.751892e+2, 1.4472142e+2, -1245655.1, -1494672.8, 17040.816, -0.121805094, 0.12469566, -1244494.4, 277248.16, 0.0, 10.002317, 9.999037 
8.751733e+2, 1.5471976e+2, -1228624.9, -1420432.0, 47778.184, 0.12885375, 0.025756309, -1217382.5, 206370.84, 0.0, 10.001704, 9.9991665 
8.7515503e+2, 1.6471873e+2, -1192967.3, -1425537.8, 1778.7528, 0.20566405, 0.040482894, -1192953.6, 132809.61, 0.0, 10.001573, 9.998528 
8.7513435e+2, 1.7471844e+2, -1038626.2, -1301202.8, 469.68607, 0.10183718, 0.14546458, -1038625.3, 189146.55, 0.0, 10.001964, 9.99852 
8.751144e+2, 1.8471792e+2, -964502.2, -1196925.1, 7931.8896, 0.031283896, 0.24068, -964231.8, 165550.36, 0.0, 10.001739, 9.998663 
8.750953e+2, 1.9471683e+2, -986126.1, -1152372.8, -17810.625, -0.0040435684, 0.24478011, -984239.4, 47558.56, 0.0, 10.000896, 9.998702 
8.7507606e+2, 2.0471609e+2, -814779.3, -849671.2, -95106.59, 0.011199933, 0.22947802, -735531.8, 198273.39, 0.0, 10.000674, 10.0002165 
8.750564e+2, 2.1471566e+2, -636545.5, -707081.9, -72400.625, 0.0790493, 0.14653859, -591279.8, 244523.75, 0.0, 10.001198, 10.000271 
8.7503606e+2, 2.247153e+2, -618791.25, -730603.94, -30962.102, 0.05517583, 0.12497932, -610790.1, 127013.67, 0.0, 10.0009985, 9.999535 
8.7501514e+2, 2.3471484e+2, -670629.94, -703711.8, 14567.474, -0.070800096, 0.10814971, -665129.7, -25321.705, 0.0, 9.999966, 9.999542 
8.749957e+2, 2.4471423e+2, -687550.44, -783416.25, -1126.8846, -0.027860053, 0.15062982, -687537.2, -145722.08, 0.0, 9.999702, 9.998448 
8.7497795e+2, 2.5471333e+2, -503915.47, -646187.44, -31927.129, 0.19635479, 0.20245184, -497079.22, -53252.0, 0.0, 10.000303, 9.998427 
8.749582e+2, 2.647122e+2, -309709.84, -431994.56, -55977.207, 0.20751382, 0.22290649, -287955.66, 57883.65, 0.0000000691861, 10.000655, 9.999061 
8.7493604e+2, 2.7471074e+2, -219065.58, -332592.16, -47011.33, -0.019777024, 0.15247424, -202125.84, 45726.918, 0.000001269736, 10.000584, 9.999104 
8.749162e+2, 2.847103e+2, -102606.65, -185522.17, -9144.168, -0.060105816, 0.18144664, -101610.17, 48244.25, 0.000008255043, 10.000535, 9.999469 
8.7489897e+2, 2.9471046e+2, -18347.55, -87028.15, 27412.37, 0.11120642, 0.23268498, -8748.186, 43099.543, 0.000042714033, 10.00041, 9.999531 
8.748801e+2, 3.0470794e+2, 8911.201, -36531.56, 42003.133, 0.14343902, 0.027836027, 33944.656, 33944.656, 0.00015286829, 10.000221, 9.99962 
8.7485737e+2, 3.1470728e+2, 330.3377, 62742.824, 72471.82, -0.1763367, -0.018488504, 110441.55, 110441.55, 0.0003572186, 9.999676, 10.000562 
8.8523144e+2, 1.2474413e+2, -1583050.9, -1970890.8, -54667.76, 0.042187788, -0.0037507731, -1575492.6, 142012.36, 0.00000006865043, 10.002232, 9.997162 
8.8521135e+2, 1.3474205e+2, -1330473.9, -1823610.3, -28937.578, -0.104530394, 0.07605591, -1328781.6, 290753.75, 0.0, 10.00343, 9.996926 
8.8519174e+2, 1.4473982e+2, -1124296.6, -1460813.0, -29348.97, -0.1403646, 0.076622, -1121756.1, 399804.9, 0.0, 10.0032625, 9.998811 
8.851751e+2, 1.5473816e+2, -1229817.8, -1451030.9, -67168.98, 0.1435558, 0.003075204, -1211020.0, 212553.9, 0.0, 10.001819, 9.998902 
8.8515663e+2, 1.6473754e+2, -1210356.8, -1365838.1, -48929.094, 0.23506585, 0.04172417, -1196240.6, 129339.47, 0.0, 10.001177, 9.9991255 
8.851362e+2, 1.7473815e+2, -1072648.4, -1247722.5, -6731.017, 0.121008486, 0.17921245, -1072390.0, 155187.4, 0.0, 10.001444, 9.999136 
8.8511604e+2, 1.8473776e+2, -1036595.6, -1228595.0, 37668.246, 0.052073203, 0.2525328, -1029470.0, 100115.0, 0.0, 10.001228, 9.9986925 
8.8509625e+2, 1.9473588e+2, -1055441.6, -1184415.0, 64795.023, 0.028269794, 0.18076712, -1028512.06, 3095.2283, 0.0, 10.000419, 9.998712 
8.850765e+2, 2.0473497e+2, -907501.25, -923632.8, 57277.99, 0.029340101, 0.16012898, -857723.94, 75893.16, 0.0, 10.000155, 9.999963 
8.8505703e+2, 2.1473503e+2, -764312.5, -797680.4, 13429.825, 0.0630457, 0.15234911, -759578.8, 76034.76, 0.0, 10.00044, 10.000019 
8.850367e+2, 2.2473477e+2, -646978.4, -720098.94, -16985.707, 0.031312022, 0.1444916, -643225.25, 94388.32, 0.0, 10.000708, 9.9997425 
8.850154e+2, 2.3473397e+2, -510014.72, -602515.75, -46640.777, -0.07760913, 0.07420723, -490580.6, 149039.08, 0.0, 10.00097, 9.999753 
8.84996e+2, 2.4473341e+2, -518174.84, -688218.6, -23046.236, -0.022169705, 0.10551205, -515106.72, 26519.064, 0.0, 10.000807, 9.9985695 
8.849784e+2, 2.5473294e+2, -509693.38, -636134.0, 17843.998, 0.21770343, 0.18795316, -507223.38, -63589.37, 0.00000000006372724, 10.0002, 9.998548 
8.849585e+2, 2.6473185e+2, -421770.06, -504475.56, 49839.61, 0.21309552, 0.2114076, -398361.44, -52714.9, 0.00000025387644, 9.999971, 9.998887 
8.849359e+2, 2.747299e+2, -285857.28, -383800.66, 29045.316, -0.06365479, 0.11223327, -277891.66, -30226.488, 0.0000021793016, 10.000213, 9.998926 
8.84916e+2, 2.847296e+2, -176247.97, -159722.98, 39754.367, -0.09220821, 0.1396101, -127381.555, 22283.357, 0.000011106664, 9.999779, 10.000002 
8.8489896e+2, 2.9473072e+2, -241718.98, -129498.53, 44524.47, 0.16892317, 0.23353428, -113979.25, -62331.953, 0.000049522223, 9.998602, 10.000103 
8.8488036e+2, 3.0472878e+2, -146767.56, -107074.8, 68246.36, 0.21175693, 0.05042946, -55847.664, -55847.664, 0.00016466355, 9.999128, 9.999674 
8.848578e+2, 3.1472746e+2, 195509.8, 98166.836, -27053.174, -0.17124104, -0.056027696, 202523.03, 202523.03, 0.00037254568, 10.001269, 10.000053 
8.95233e+2, 1.24761514e+2, -1462564.4, -1709774.9, -36838.934, -0.06363343, 0.111543514, -1457191.5, 260155.06, 0.00000033567557, 10.002198, 9.998964 
8.9521617e+2, 1.3476065e+2, -1205863.6, -1550898.5, 20252.201, 0.023094483, 0.12873156, -1204678.9, 414675.34, 0.00000000007521531, 10.003387, 9.998812 
8.9519644e+2, 1.4475873e+2, -1183040.1, -1578562.6, -90071.38, -0.018691052, 0.10037379, -1163494.3, 357880.13, 0.0, 10.003235, 9.998022 
8.95176e+2, 1.5475665e+2, -1290317.9, -1579717.5, -109522.97, 0.026428858, 0.07277991, -1253542.4, 169855.95, 0.0, 10.001827, 9.998018 
8.9515615e+2, 1.647562e+2, -1121042.5, -1183895.8, -44968.977, 0.049249385, 0.11647169, -1097607.1, 227796.05, 0.0, 10.001187, 10.000369 
8.951372e+2, 1.7475739e+2, -981913.2, -1055732.0, 12910.463, 0.06658449, 0.17470884, -979720.4, 247668.52, 0.0, 10.001427, 10.000463 
8.951177e+2, 1.8475732e+2, -978300.2, -1095555.8, 1068.9014, 0.08538436, 0.1669691, -978290.44, 151097.42, 0.0, 10.001173, 9.999634 
8.9509755e+2, 1.9475573e+2, -997362.7, -1055527.3, 40124.61, 0.10064459, 0.03252065, -976889.3, 54513.83, 0.0, 10.000379, 9.999618 
8.9507693e+2, 2.0475511e+2, -983572.44, -1066021.9, 58953.89, 0.039256774, 0.041791927, -952859.44, -19448.564, 0.0, 10.000091, 9.999016 
8.950559e+2, 2.1475533e+2, -846975.2, -946688.44, 31601.875, -0.10218786, 0.14669086, -837803.3, -2391.141, 0.0, 10.000347, 9.999037 
8.950361e+2, 2.2475494e+2, -702584.56, -815026.9, -14059.339, -0.112096004, 0.20435838, -700853.3, 36564.598, 0.0, 10.000612, 9.999141 
8.9501745e+2, 2.3475374e+2, -561920.1, -692887.2, -29348.928, 0.010891571, 0.15201497, -555643.94, 83786.14, 0.0, 10.000892, 9.999171 
8.9499754e+2, 2.4475312e+2, -439698.4, -515334.4, -52450.684, 0.045456056, 0.14871019, -412853.63, 128580.96, 0.0, 10.000761, 9.999782 
8.949764e+2, 2.5475296e+2, -433815.4, -459100.0, 2781.6594, -0.018810023, 0.13645576, -433513.0, 9919.817, 0.0000000002378373, 10.000117, 9.9998045 
8.9495623e+2, 2.6475215e+2, -451698.9, -553878.44, 52089.68, -0.027233139, 0.13560516, -429826.38, -84386.18, 0.00000030747992, 9.999917, 9.998574 
8.9493716e+2, 2.747503e+2, -323543.44, -444440.75, 47926.066, 0.02096247, 0.08549628, -306849.72, -59389.914, 0.0000026197797, 10.000141, 9.998544 
8.949174e+2, 2.8474957e+2, -163173.88, -125818.875, -9313.544, 0.059037995, 0.07807177, -123625.555, 25838.684, 0.000013171274, 9.999742, 10.000254 
8.9489704e+2, 2.9474986e+2, -225470.33, -87932.21, 9013.508, 0.092125535, 0.0568771, -87344.03, -35890.363, 0.000055655084, 9.99856, 10.000411 
8.948785e+2, 3.0474868e+2, -253734.45, -312455.7, 142059.28, 0.10072255, 0.0024002448, -138033.4, -138033.4, 0.00017577781, 9.999068, 9.998287 
8.9485973e+2, 3.1474757e+2, 60916.17, -161359.44, 76720.93, -0.13474569, 0.05718472, 84825.44, 84825.44, 0.0003866523, 10.001196, 9.998298 
9.052348e+2, 1.2477974e+2, -1391682.6, -1580340.4, 101588.21, -0.08862943, 0.13285457, -1347382.1, 369787.66, 0.0000010657902, 10.002266, 9.999828 
9.052192e+2, 1.3477926e+2, -1482136.4, -1580319.0, 72193.17, 0.10945437, 0.09681005, -1443924.8, 175245.03, 0.000000007369457, 10.001037, 9.999747 
9.0519935e+2, 1.44778e+2, -1493468.3, -1675215.6, -12556.1, 0.07790309, 0.06386523, -1492605.0, 28576.637, 0.0, 10.00088, 9.998486 
9.0517735e+2, 1.5477686e+2, -1226034.4, -1498482.1, 43613.797, -0.017103905, 0.0835381, -1219223.0, 203973.66, 0.0, 10.002057, 9.998462 
9.0515673e+2, 1.647764e+2, -1035741.8, -1180823.6, 98105.81, -0.037461773, 0.121086955, -986270.7, 338931.47, 0.0, 10.001936, 10.000031 
9.051378e+2, 1.7477645e+2, -1161114.0, -1179520.1, 17591.877, 0.04192469, 0.1014083, -1150463.4, 76736.35, 0.0, 10.0003605, 10.000122 
9.051183e+2, 1.8477623e+2, -1116037.3, -1139000.3, -34168.45, 0.086453535, 0.08483466, -1091472.9, 37727.438, 0.0, 10.000126, 9.999839 
9.050982e+2, 1.9477561e+2, -831851.6, -951709.9, -55173.242, 0.086097576, 0.023916773, -810321.6, 220883.75, 0.0, 10.001399, 9.999843 
9.050776e+2, 2.0477532e+2, -755980.56, -977198.56, -38026.926, 0.016973954, 0.064218, -749626.3, 183584.0, 0.0, 10.001743, 9.998827 
9.0505636e+2, 2.1477515e+2, -758996.4, -929747.6, -27448.07, -0.1242864, 0.15113728, -754692.6, 80524.68, 0.0, 10.001055, 9.998816 
9.050366e+2, 2.2477467e+2, -718028.1, -814370.7, 502.32153, -0.10487331, 0.20864724, -718025.5, 19199.006, 0.0, 10.000475, 9.99921 
9.050186e+2, 2.3477371e+2, -676980.6, -741793.3, 20691.05, 0.0837263, 0.17456156, -670938.4, -31704.617, 0.0, 10.000073, 9.999229 
9.0499854e+2, 2.4477305e+2, -537285.56, -575576.7, -11529.623, 0.09933056, 0.1696764, -534082.0, 7156.5786, 0.0, 10.000157, 9.999651 
9.049761e+2, 2.5477257e+2, -343264.56, -429715.66, -78394.84, -0.07862747, 0.1396961, -296968.03, 146271.73, 0.0, 10.000805, 9.999671 
9.049559e+2, 2.6477164e+2, -338220.3, -460673.13, -61315.63, -0.07104472, 0.11966059, -312796.38, 32450.352, 0.0000002007212, 10.000539, 9.998914 
9.0493804e+2, 2.7476993e+2, -420425.1, -452500.9, -28192.53, 0.14680173, 0.045947336, -404027.94, -156765.42, 0.0000025589381, 9.999307, 9.998892 
9.0491843e+2, 2.8476882e+2, -183800.58, -224357.8, -32927.99, 0.17894195, 0.022794416, -165407.83, -16136.533, 0.000014749117, 9.999981, 9.999465 
9.048968e+2, 2.9476836e+2, 314420.0, 83185.3, -114338.07, 0.017918728, 0.010822176, 361408.2, 412680.5, 0.00006245814, 10.002664, 9.99961 
9.048785e+2, 3.0476776e+2, 272085.06, -40564.78, 2904.685, 0.025757104, 0.04265282, 272112.06, 272112.06, 0.00018870574, 10.002602, 9.998454 
9.048612e+2, 3.147667e+2, -202274.77, -271790.06, 38551.05, -0.005927561, 0.08908593, -185125.98, -185125.98, 0.00040376265, 9.999307, 9.998456 
9.152364e+2, 1.2479912e+2, -1387714.6, -1576475.1, 31169.643, -0.19711006, 0.097364426, -1382700.9, 334271.9, 0.000002613721, 10.002288, 9.999843 
9.152202e+2, 1.3479795e+2, -1476689.0, -1565460.1, 29810.56, 0.09136003, -0.019385086, -1467607.3, 151374.4, 0.00000007607973, 10.00102, 9.999856 
9.1520035e+2, 1.4479755e+2, -1384241.3, -1444861.5, 20026.855, 0.07605687, -0.04794839, -1378222.6, 142760.95, 0.0, 10.000861, 10.000077 
9.1517913e+2, 1.5479873e+2, -1109831.3, -1257774.5, 94779.57, -0.06088095, 0.039958857, -1063574.0, 359396.16, 0.0, 10.002058, 10.000113 
9.151582e+2, 1.6479813e+2, -1166488.3, -1451783.5, 29255.477, -0.098806866, 0.06777075, -1163519.3, 161458.52, 0.0, 10.001931, 9.998175 
9.1513765e+2, 1.7479542e+2, -1297380.9, -1463737.1, -35902.16, -0.02061724, -0.03039998, -1289963.4, -62954.227, 0.0, 10.000363, 9.998171 
9.151176e+2, 1.8479457e+2, -1148422.3, -1202803.6, 5308.2603, -0.009774824, 0.009604937, -1147908.9, -18887.963, 0.0, 10.000109, 9.999412 
9.1509813e+2, 1.9479553e+2, -869859.1, -1015158.8, 2915.3613, -0.07639612, 0.14660272, -869800.7, 161212.7, 0.0, 10.001332, 9.999441 
9.150782e+2, 2.0479564e+2, -736637.06, -913159.6, -68135.87, -0.10055679, 0.22408903, -713397.0, 219617.56, 0.0, 10.001639, 9.999317 
9.1505796e+2, 2.1479462e+2, -738268.5, -863258.2, -45426.957, -0.072731145, 0.1746501, -723502.7, 111524.89, 0.0, 10.000955, 9.999319 
9.1503805e+2, 2.2479406e+2, -679027.8, -717533.0, -22399.244, -0.019368414, 0.16372094, -668744.2, 68288.5, 0.0, 10.000402, 9.999911 
9.150186e+2, 2.3479393e+2, -640038.4, -644856.4, 13037.0205, 0.0710076, 0.1421602, -629189.7, 9840.708, 0.0, 9.999989, 9.999935 
9.149985e+2, 2.447933e+2, -649914.44, -797510.06, 6764.407, 0.067735605, 0.17470567, -649605.06, -108568.45, 0.0, 10.000101, 9.998158 
9.1497755e+2, 2.5479183e+2, -460586.97, -660616.94, -45032.535, -0.033962086, 0.20395128, -450916.38, -7861.929, 0.0, 10.000746, 9.998117 
9.1495746e+2, 2.6479042e+2, -272144.34, -317134.03, -112750.37, 0.016603598, 0.1641845, -179666.73, 165399.66, 0.00000011562638, 10.00051, 9.999914 
9.149384e+2, 2.7478877e+2, -352178.28, -300605.53, -66144.69, 0.23511322, -0.01225843, -255398.53, -8324.373, 0.0000025826089, 9.99926, 9.99996 
9.149187e+2, 2.8478736e+2, -319480.66, -500997.13, 58903.207, 0.19092725, -0.025470776, -302041.66, -152955.16, 0.000017159802, 9.999955, 9.997581 
9.148983e+2, 2.9478624e+2, 175426.88, -208509.58, -2465.5503, -0.12808715, 0.09356967, 175442.7, 226546.8, 0.00007135739, 10.002669, 9.997606 
9.148802e+2, 3.047859e+2, 390921.38, 214425.61, -122092.18, -0.07935178, 0.17307751, 453319.4, 453319.4, 0.00020552066, 10.002573, 10.000217 
9.148616e+2, 3.1478435e+2, -66999.32, 41024.0, -56019.273, 0.06931968, -0.022266556, 64828.906, 64828.906, 0.00042645857, 9.999177, 10.000661 
9.2523855e+2, 1.24817885e+2, -1616812.5, -1726051.3, 18962.797, -0.1289793, 0.0058791405, -1613614.4, 103167.82, 0.0000053718704, 10.000874, 9.999495 
9.2522055e+2, 1.348169e+2, -1536822.6, -1623824.0, -31359.242, 0.046280354, -0.07041247, -1526697.8, 92094.57, 0.00000033393198, 10.000728, 9.9995985 
9.252007e+2, 1.4481677e+2, -1390061.1, -1408892.1, -27344.021, 0.03927151, -0.07626621, -1370556.9, 150235.52, 0.0, 10.000655, 10.000428 
9.2518115e+2, 1.5481816e+2, -1261908.3, -1290927.4, -62945.875, -0.0003621259, -0.00203487, -1211821.3, 210954.72, 0.0, 10.000839, 10.000474 
9.2516047e+2, 1.6481768e+2, -1269735.9, -1530303.8, -139600.7, -0.032077864, 0.030325746, -1209068.9, 115713.69, 0.0, 10.001349, 9.997912 
9.2513853e+2, 1.7481503e+2, -1040594.0, -1371746.8, -99788.86, -0.055003606, -0.035679128, -1012848.44, 213966.25, 0.0, 10.002265, 9.997886 
9.251179e+2, 1.8481395e+2, -907061.1, -1113028.3, 24084.713, -0.07272947, 0.009323759, -904282.25, 224547.08, 0.0, 10.001884, 9.99917 
9.2509866e+2, 1.948144e+2, -1072789.1, -1137038.3, 12751.414, -0.08931039, 0.118048556, -1070350.9, -39524.125, 0.0, 10.000053, 9.999213 
9.250791e+2, 2.0481434e+2, -1032132.3, -1030045.0, -31854.44, -0.06422992, 0.1793833, -999217.1, -66388.05, 0.0, 9.999495, 9.999552 
9.250594e+2, 2.1481356e+2, -811397.56, -868953.75, -38093.98, 0.0118627185, 0.1286758, -792433.3, 42405.32, 0.0, 10.000321, 9.999587 
9.250393e+2, 2.2481316e+2, -633981.4, -722492.0, -50507.15, 0.050699066, 0.12983319, -611083.8, 125758.57, 0.0, 10.00083, 9.999671 
9.2501885e+2, 2.3481303e+2, -510049.3, -610704.3, -101993.62, 0.051280357, 0.13500921, -446642.25, 192198.75, 0.0, 10.0009985, 9.999685 
9.2499864e+2, 2.4481212e+2, -546060.75, -760945.2, -71105.55, 0.038332224, 0.15820748, -524662.6, 16187.885, 0.0, 10.000872, 9.998042 
9.2497855e+2, 2.548101e+2, -503182.25, -691005.7, -28729.547, 0.012897012, 0.14022131, -498886.03, -56012.168, 0.0, 10.0005, 9.998027 
9.249584e+2, 2.648087e+2, -260352.61, -320292.06, -83101.35, 0.060236834, 0.11417491, -201981.98, 142903.9, 0.00000007319143, 10.00062, 9.999845 
9.2493814e+2, 2.7480778e+2, -70186.16, -169495.38, -134356.53, 0.19473612, 0.014002003, 23397.701, 270285.53, 0.0000027897247, 10.001214, 9.999919 
9.2491835e+2, 2.8480658e+2, -209580.63, -412723.44, 73966.92, 0.13890535, 0.007755863, -185502.3, -36604.266, 0.000020180585, 10.000566, 9.997887 
9.2489904e+2, 2.9480517e+2, -393401.7, -451034.25, 168686.47, -0.108714476, 0.06629466, -251087.89, -200170.73, 0.00008284934, 9.998626, 9.997887 
9.248814e+2, 3.0480474e+2, -188907.05, -86597.58, 38051.22, -0.013244475, 0.13351966, -73997.3, -73997.3, 0.00022869528, 9.998657, 10.000038 
9.248623e+2, 3.1480303e+2, 159146.83, 173827.2, -74714.664, 0.15848298, -0.06111443, 241561.38, 241561.38, 0.0004606453, 10.000617, 10.000882 
9.352406e+2, 1.24835856e+2, -1666277.1, -1819491.1, -11216.822, -0.04407195, -0.17353888, -1665460.4, 51139.793, 0.000009857008, 10.000845, 9.998864 
9.3522e+2, 1.3483623e+2, -1562768.3, -1695387.8, -31811.596, -0.09352477, -0.059237026, -1555532.4, 63067.97, 0.0000009955157, 10.000813, 9.999063 
9.3520015e+2, 1.4483589e+2, -1441431.8, -1533921.4, -28946.762, -0.10070025, -0.01493954, -1433119.3, 87486.62, 0.00000000002439963, 10.000728, 9.999539 
9.351831e+2, 1.548354e+2, -1328076.6, -1422175.6, -46511.74, 0.09197987, -0.03923353, -1308967.3, 113643.91, 0.0, 10.000813, 9.999589 
9.3516314e+2, 1.648352e+2, -1185307.9, -1344909.9, -113856.21, 0.08588908, 0.004873097, -1126071.4, 198543.13, 0.0, 10.001304, 9.9992075 
9.3514025e+2, 1.7483523e+2, -949039.7, -1178387.8, -57179.152, -0.12703893, 0.07353977, -935574.8, 291041.66, 0.0, 10.002251, 9.999221 
9.35119e+2, 1.8483436e+2, -923613.5, -1136995.1, -48783.523, -0.1701131, 0.07818837, -912989.5, 215636.17, 0.0, 10.001841, 9.99903 
9.3509936e+2, 1.9483225e+2, -1092000.4, -1165898.9, -48705.02, -0.034758136, -0.05183038, -1067815.1, -37169.785, 0.0, 10.000007, 9.99904 
9.350799e+2, 2.0483147e+2, -1032003.0, -1021617.1, -11542.89, 0.04671516, -0.057938777, -1014152.9, -81499.37, 0.0, 9.999456, 9.999629 
9.3506044e+2, 2.1483198e+2, -819515.1, -867963.44, -379.4313, 0.07020213, 0.016173583, -819512.2, 15138.4375, 0.0, 10.000238, 9.999638 
9.3504024e+2, 2.2483194e+2, -729958.44, -898328.7, -49551.004, 0.044368785, 0.10750383, -716458.2, 20195.469, 0.0, 10.0007305, 9.998509 
9.3501914e+2, 2.3483106e+2, -608883.06, -793916.6, -87143.164, -0.030137388, 0.1552888, -574304.25, 64361.113, 0.0, 10.000903, 9.998475 
9.349987e+2, 2.4482955e+2, -465983.0, -580008.94, -91838.74, -0.053761307, 0.11955185, -414899.56, 125780.44, 0.0, 10.000809, 9.999312 
9.349791e+2, 2.5482723e+2, -419846.16, -507033.88, -35511.133, -0.0045368904, -0.059771623, -407213.13, 35485.91, 0.0, 10.000447, 9.999319 
9.349586e+2, 2.648265e+2, -340962.03, -478675.03, -65295.63, -0.0021967075, -0.03439463, -314925.22, 29780.477, 0.00000003612581, 10.000581, 9.998775 
9.349372e+2, 2.7482715e+2, -159750.25, -341595.53, -101586.31, -0.045259774, 0.13825086, -114339.82, 132362.4, 0.0000027030533, 10.001157, 9.998764 
9.349172e+2, 2.8482667e+2, -35695.004, -41815.516, -3926.3987, -0.048913162, 0.13458909, -33777.13, 114927.12, 0.000022488803, 10.000524, 10.000454 
9.3489885e+2, 2.948251e+2, -221021.45, -78420.19, 107481.45, -0.00052686175, -0.08749422, -20740.035, 29970.947, 0.000095232324, 9.998561, 10.000477 
9.3488175e+2, 3.0482417e+2, -357816.0, -425429.4, 110742.14, 0.1496159, -0.087315336, -275835.34, -275835.34, 0.0002574787, 9.998605, 9.997738 
9.3486273e+2, 3.1482223e+2, 19027.748, -100694.6, 34670.566, 0.102207534, -0.06977529, 28343.22, 28343.22, 0.0005076133, 10.00055, 9.999024 
9.45242e+2, 1.24855086e+2, -1503366.8, -1733430.9, 9530.984, -0.036853656, -0.21570802, -1502972.6, 213437.69, 0.000016753027, 10.001918, 9.998947 
9.452217e+2, 1.3485591e+2, -1325984.8, -1575847.9, 5927.8315, -0.07831305, -0.0611237, -1325844.3, 292560.75, 0.000002343361, 10.00241, 9.999121 
9.4520175e+2, 1.4485544e+2, -1298033.3, -1524987.6, 29119.938, -0.070814036, -0.004253941, -1294356.5, 226055.58, 0.0000000053592455, 10.001981, 9.998988 
9.4518375e+2, 1.5485398e+2, -1374193.6, -1512138.6, 16880.418, 0.08974018, -0.06979831, -1372158.0, 50270.516, 0.0, 10.000783, 9.998985 
9.4516367e+2, 1.6485354e+2, -1301313.5, -1353926.9, -8682.655, 0.07035349, -0.03929339, -1299917.6, 24516.82, 0.0, 10.000305, 9.999626 
9.4514155e+2, 1.7485413e+2, -1161231.8, -1230879.4, -33561.69, -0.13280448, 0.039798576, -1147691.5, 78738.47, 0.0, 10.00058, 9.999663 
9.4512045e+2, 1.848536e+2, -1042131.8, -1161466.6, -77823.63, -0.15009393, 0.041505624, -1003734.4, 124699.81, 0.0, 10.00089, 9.999313 
9.451006e+2, 1.9485164e+2, -886019.7, -1036591.2, -56160.906, 0.025249632, -0.10049138, -867380.0, 163070.42, 0.0, 10.001289, 9.999309 
9.450806e+2, 2.0485073e+2, -812792.8, -962645.3, 23284.545, 0.09272069, -0.112405464, -809258.1, 123201.48, 0.0, 10.001173, 9.999201 
9.4506055e+2, 2.1485087e+2, -813083.44, -909002.94, -19868.375, 0.052891392, -0.034701165, -809130.9, 25331.049, 0.0, 10.000485, 9.999227 
9.4504035e+2, 2.2485046e+2, -823433.9, -966629.8, -33614.22, 0.016539, 0.052334685, -815935.8, -79466.57, 0.0, 10.000188, 9.998303 
9.450199e+2, 2.348493e+2, -705244.4, -858301.2, -11246.99, -0.012283383, 0.090927854, -704422.4, -65938.47, 0.0, 10.000323, 9.998307 
9.4499975e+2, 2.4484786e+2, -510684.78, -569998.1, -11672.872, -0.00019983576, 0.05839698, -508470.25, 32027.51, 0.0, 10.000357, 9.999603 
9.449801e+2, 2.5484607e+2, -424526.25, -469598.72, -42614.477, 0.071009584, -0.10234147, -398855.88, 43655.813, 0.0, 10.000244, 9.999671 
9.449591e+2, 2.648458e+2, -428770.56, -516862.16, -45773.016, 0.032552358, -0.05127583, -409293.13, -64778.508, 0.000000027783642, 9.999963, 9.99881 
9.4493675e+2, 2.748468e+2, -394650.28, -449350.3, -9417.662, -0.11343553, 0.15842256, -393074.25, -146565.27, 0.000002329391, 9.999523, 9.998812 
9.4491667e+2, 2.8484645e+2, -164354.98, -81574.17, 28981.797, -0.10102101, 0.15869874, -72436.266, 76073.64, 0.000023981273, 9.999537, 10.000663 
9.4489896e+2, 2.9484475e+2, -10010.097, 49497.496, -59165.234, 0.09200369, -0.10056513, 85969.17, 136486.16, 0.000106754764, 9.999898, 10.000713 
9.4488204e+2, 3.0484357e+2, -155627.03, -339929.38, 18492.988, 0.24229254, -0.13452767, -153789.75, -153789.75, 0.00028782972, 10.000059, 9.997629 
9.448626e+2, 3.1484225e+2, -46394.973, -116184.695, 102381.15, 0.07511964, -0.042533457, 26874.633, 26874.633, 0.00056174357, 10.000027, 9.9991865 
9.55242e+2, 1.2487572e+2, -1459117.6, -1643606.9, 9818.838, -0.26659405, -0.11709401, -1458596.5, 257614.38, 0.00002677623, 10.001941, 9.999542 
9.552252e+2, 1.3487604e+2, -1295911.8, -1494009.3, 27595.959, 0.019006751, -0.07528064, -1292139.4, 326065.8, 0.0000047533053, 10.002338, 9.999707 
9.5520514e+2, 1.4487535e+2, -1325767.4, -1570837.0, -24954.059, 0.0491467, -0.056239825, -1323252.3, 196959.6, 0.000000046136613, 10.001923, 9.998706 
9.5518297e+2, 1.5487383e+2, -1385245.3, -1548719.6, -21067.451, -0.084269784, -0.09704201, -1382573.9, 39655.387, 0.0, 10.00084, 9.998709 
9.55162e+2, 1.648727e+2, -1324075.6, -1413577.0, -6778.883, -0.14725417, -0.09932125, -1323565.1, 677.71155, 0.0, 10.000356, 9.999194 
9.551422e+2, 1.7487182e+2, -1192563.6, -1295155.9, -15553.733, -0.1367274, -0.12621252, -1190257.4, 35996.586, 0.0, 10.000574, 9.999226 
9.551222e+2, 1.848718e+2, -992854.6, -1055177.6, -70085.71, -0.084258586, -0.08783198, -947315.1, 180938.31, 0.0, 10.000869, 10.000055 
9.551019e+2, 1.9487254e+2, -839316.3, -929505.4, -34479.74, 0.01507917, -0.033973075, -827644.94, 202597.4, 0.0, 10.001246, 10.000064 
9.550811e+2, 2.0487207e+2, -885669.0, -1101460.8, -10695.753, 0.0134914955, 0.0043920935, -885140.1, 47107.88, 0.0, 10.001116, 9.998279 
9.5505965e+2, 2.1487015e+2, -895345.3, -1057314.0, -38393.254, -0.09870112, -0.027924553, -886705.4, -52432.383, 0.0, 10.000386, 9.9982605 
9.550395e+2, 2.2486873e+2, -781064.7, -857182.25, -36053.918, -0.093056396, -0.031661864, -766698.7, -30409.723, 0.0, 10.000096, 9.999097 
9.5502084e+2, 2.3486763e+2, -662692.4, -752035.8, 1597.1262, 0.040481552, -0.06616371, -662663.8, -24366.014, 0.0, 10.000239, 9.999083 
9.5500153e+2, 2.4486697e+2, -563835.6, -660848.25, -21656.88, 0.12787297, -0.03142484, -559220.56, -18915.842, 0.0, 10.000282, 9.99901 
9.549815e+2, 2.5486663e+2, -479514.25, -570660.75, -39406.445, 0.17430383, 0.017287644, -464839.78, -22528.365, 0.0, 10.000186, 9.999005 
9.5496e+2, 2.6486656e+2, -358118.72, -352993.03, -68101.08, 0.10806705, 0.06703602, -287406.56, 56905.953, 0.000000030362223, 9.999896, 9.999964 
9.5493674e+2, 2.748666e+2, -324608.56, -285495.63, -15495.214, -0.08042428, 0.061890416, -280101.0, -33791.496, 0.000002140531, 9.999448, 9.999971 
9.549164e+2, 2.848659e+2, -326673.6, -402772.28, 37100.066, -0.088140555, 0.069725096, -311580.03, -163263.31, 0.000025889522, 9.999472, 9.998485 
9.548992e+2, 2.9486424e+2, -174229.25, -281744.22, -38248.066, 0.101426825, 0.039999977, -162011.13, -111675.875, 0.000117742304, 9.999855, 9.998457 
9.548818e+2, 3.0486307e+2, -5656.3057, -18876.172, 14711.805, 0.2041521, 0.014176694, 3862.258, 3862.258, 0.00031737162, 10.00002, 9.999854 
9.5486164e+2, 3.1486323e+2, 111589.5, 228255.64, 135110.98, -0.060275607, 0.024298497, 317088.22, 317088.22, 0.0006187058, 9.99996, 10.001586 
9.652438e+2, 1.2489666e+2, -1469855.6, -1678544.8, 43873.508, -0.2663975, -0.026637439, -1461007.1, 255000.45, 0.000040530904, 10.001988, 9.999282 
9.65227e+2, 1.3489562e+2, -1486329.4, -1610576.5, -24393.121, 0.034607258, -0.09771249, -1481712.0, 136301.83, 0.000008656152, 10.001132, 9.99949 
9.652067e+2, 1.4489467e+2, -1467007.9, -1619943.6, -65469.25, 0.06884789, -0.10293381, -1442810.3, 77212.266, 0.00000019058375, 10.000883, 9.998865 
9.6518344e+2, 1.5489388e+2, -1282522.4, -1478382.9, -48422.633, -0.15263738, -0.08762243, -1271204.8, 150827.83, 0.0, 10.001474, 9.998879 
9.6516246e+2, 1.6489291e+2, -1172921.4, -1357623.5, 7054.497, -0.18532246, -0.07494065, -1172652.3, 151392.06, 0.0, 10.001473, 9.999035 
9.6514404e+2, 1.7489158e+2, -1158542.3, -1299966.9, 3570.2852, -0.025086965, -0.12935024, -1158452.1, 67607.586, 0.0, 10.000896, 9.999038 
9.651241e+2, 1.8489136e+2, -1039031.25, -1094897.1, -44336.895, 0.037796646, -0.09319255, -1014561.8, 113499.88, 0.0, 10.000624, 9.999907 
9.651027e+2, 1.9489218e+2, -934431.4, -992812.6, -89151.88, 0.004049969, -0.017037991, -869812.9, 160238.17, 0.0, 10.000662, 9.999917 
9.6508163e+2, 2.0489182e+2, -942248.6, -1136307.4, -69698.19, -0.022506434, 0.043884605, -919810.3, 12246.011, 0.0, 10.000776, 9.998195 
9.6506083e+2, 2.1489006e+2, -806705.06, -1023025.75, -50491.375, -0.044509225, 0.035338007, -795500.25, 38579.457, 0.0, 10.001039, 9.998175 
9.650407e+2, 2.2488849e+2, -628971.06, -750371.4, -13311.182, -0.022712324, 0.0055849333, -627528.7, 108567.836, 0.0, 10.000995, 9.999402 
9.6502143e+2, 2.3488697e+2, -582357.4, -671543.94, -24244.56, 0.05848873, -0.10170512, -576192.8, 61914.965, 0.0, 10.00062, 9.999448 
9.650017e+2, 2.4488659e+2, -561004.3, -664955.44, -31985.963, 0.12219626, -0.058035307, -551950.7, -11838.619, 0.0, 10.000322, 9.998965 
9.649817e+2, 2.5488722e+2, -492536.88, -580471.75, -20075.238, 0.18150327, 0.09715776, -488170.56, -46060.23, 0.0, 10.000123, 9.998965 
9.649603e+2, 2.648871e+2, -333053.53, -333342.22, -54768.14, 0.15416448, 0.13626042, -278429.53, 65682.266, 0.000000012060779, 10.000021, 10.000044 
9.649375e+2, 2.7488586e+2, -246281.78, -239202.31, -98470.12, 0.034812648, -0.0059468723, -144208.33, 101910.32, 0.0000023356135, 9.999935, 10.000058 
9.6491694e+2, 2.8488475e+2, -303035.0, -456807.25, 5407.4946, 0.00195432, -0.008843549, -302845.06, -154715.14, 0.000028869204, 9.999921, 9.997893 
9.648987e+2, 2.948838e+2, -200150.4, -362694.72, 34684.93, 0.072769254, 0.08695732, -193058.5, -142912.03, 0.00012890252, 9.999981, 9.997839 
9.64881e+2, 3.048827e+2, -58915.887, 12955.967, 66174.39, 0.16219887, 0.07573109, 52322.367, 52322.367, 0.00034520676, 9.999397, 10.000372 
9.6486163e+2, 3.148834e+2, -161524.38, 144886.42, 29533.865, 0.05616293, 0.08845044, 147707.11, 147707.11, 0.0006746552, 9.9978895, 10.001996 
9.752469e+2, 1.2491772e+2, -1534271.3, -1812118.3, -12666.4375, -0.2027407, 0.04473448, -1533695.0, 182107.28, 0.000058506626, 10.001987, 9.9983635 
9.7522694e+2, 1.349148e+2, -1541130.3, -1732368.9, -54024.508, -0.099917114, -0.12811558, -1526923.8, 90905.82, 0.00001444443, 10.001169, 9.998632 
9.7520626e+2, 1.449136e+2, -1426015.6, -1543704.0, -50686.285, -0.08049009, -0.14002205, -1407195.5, 112645.84, 0.0000005546723, 10.000918, 9.999375 
9.751848e+2, 1.5491416e+2, -1251192.8, -1406867.8, -17956.139, -0.1774121, -0.041695815, -1249148.5, 172689.14, 0.0, 10.001446, 9.999386 
9.7516483e+2, 1.6491409e+2, -1171479.4, -1345402.1, -24840.85, -0.112486854, 0.030827183, -1168001.0, 155838.53, 0.0, 10.0014305, 9.999144 
9.7514665e+2, 1.749133e+2, -1149255.4, -1283718.3, -13684.415, 0.13476403, 0.022485761, -1147876.9, 77971.39, 0.0, 10.000909, 9.9991455 
9.7512597e+2, 1.8491223e+2, -1108432.0, -1238969.0, -48446.72, 0.15077554, 0.016158571, -1092416.8, 35442.8, 0.0, 10.000624, 9.998919 
9.751027e+2, 1.9491066e+2, -1011949.56, -1143080.8, -79172.06, -0.07102016, -0.046449933, -974718.94, 55156.58, 0.0, 10.000617, 9.998906 
9.75082e+2, 2.0491016e+2, -900423.5, -1039611.25, -67365.27, -0.076456666, 0.016686445, -873159.8, 58722.977, 0.0, 10.000726, 9.998887 
9.7506386e+2, 2.1491052e+2, -767964.8, -926760.7, -33955.418, 0.14066932, 0.15160942, -761008.8, 72874.15, 0.0, 10.000965, 9.998876 
9.750436e+2, 2.2490963e+2, -647943.06, -770000.94, -35228.215, 0.15390544, 0.15846634, -638505.3, 97387.63, 0.0, 10.00091, 9.999305 
9.7502124e+2, 2.3490728e+2, -607283.25, -698813.1, -32122.164, -0.03632265, -0.022404436, -597135.2, 40779.348, 0.0, 10.000514, 9.999311 
9.7500014e+2, 2.4490671e+2, -532596.1, -593041.6, -47207.816, -0.081932165, -0.0152965775, -506765.4, 33154.28, 0.0, 10.000262, 9.999491 
9.749803e+2, 2.549078e+2, -460824.66, -507376.0, -19958.219, 0.01990624, 0.12819812, -453439.5, -11529.805, 0.0, 10.000084, 9.99949 
9.749599e+2, 2.6490712e+2, -409238.34, -476540.88, -63896.027, 0.10306878, 0.13744879, -370673.88, -26759.2, 0.0000000034767167, 9.999963, 9.999084 
9.749389e+2, 2.749045e+2, -323973.0, -385935.97, -92849.8, 0.16541491, -0.04872291, -257072.23, -11135.209, 0.0000028342504, 9.999876, 9.999077 
9.7491807e+2, 2.8490323e+2, -237538.7, -310590.5, 2358.8674, 0.107616864, -0.07036396, -237462.61, -89513.58, 0.000032313746, 9.99988, 9.998919 
9.748973e+2, 2.9490328e+2, -132301.0, -212073.92, 50097.105, -0.081248894, 0.027671792, -108151.15, -58199.758, 0.00013997531, 9.999942, 9.998892 
9.7487926e+2, 3.0490217e+2, -170756.81, -199105.84, 5527.428, 0.03935281, 0.031492777, -169717.22, -169717.22, 0.00037147623, 9.9993105, 9.998956 
9.748621e+2, 3.1490266e+2, -302416.13, -116380.07, -2922.106, 0.28294423, 0.15775803, -116334.18, -116334.18, 0.00072747667, 9.997758, 10.0002575 
9.852501e+2, 1.249377e+2, -1604704.1, -1806229.5, -44330.617, -0.03303535, 0.06736959, -1595383.5, 120227.83, 0.00008108169, 10.00133, 9.998725 
9.85228e+2, 1.3493547e+2, -1435871.4, -1646321.1, -26941.906, -0.1310431, -0.06849436, -1432477.0, 185153.56, 0.000022462764, 10.001728, 9.998961 
9.852071e+2, 1.4493439e+2, -1382316.5, -1538012.9, 9241.941, -0.10124975, -0.07835852, -1381769.9, 137870.95, 0.0000013019285, 10.001277, 9.99924 
9.8518676e+2, 1.549345e+2, -1445066.1, -1515396.3, -21482.463, -0.054872602, -0.01356778, -1439023.5, -17381.727, 0.0, 10.0001745, 9.999249 
9.851668e+2, 1.6493435e+2, -1364621.3, -1413472.3, -10637.023, 0.017610759, 0.047715545, -1362405.6, -38762.1, 0.0, 10.000004, 9.999358 
9.851475e+2, 1.7493387e+2, -1151869.5, -1258358.1, -6911.221, 0.1336101, 0.04855014, -1151422.8, 74224.53, 0.0, 10.000787, 9.9993725 
9.8512655e+2, 1.8493271e+2, -1036997.6, -1241362.1, -4494.17, 0.11790476, 0.037389047, -1036898.8, 90760.38, 0.0, 10.001272, 9.998589 
9.8510396e+2, 1.9493063e+2, -917574.0, -1134597.9, -819.1039, -0.045285914, -0.04221844, -917570.9, 112110.5, 0.0, 10.001426, 9.998575 
9.850834e+2, 2.0492983e+2, -799067.75, -960672.7, 29665.158, -0.03437302, -0.0043571675, -793794.3, 137896.83, 0.0, 10.001282, 9.999169 
9.8506486e+2, 2.1493015e+2, -775347.8, -896498.75, 18443.0, 0.16103308, 0.09468785, -772602.44, 61087.477, 0.0, 10.000768, 9.999182 
9.8504436e+2, 2.2492976e+2, -724890.6, -835503.44, 8435.944, 0.17045622, 0.15048338, -724250.94, 11445.128, 0.0, 10.000498, 9.999057 
9.8502195e+2, 2.3492858e+2, -631798.5, -738317.56, -11763.711, -0.0035433532, 0.1101918, -630514.8, 7196.4224, 0.0, 10.00046, 9.999067 
9.850005e+2, 2.4492797e+2, -493760.44, -547138.5, -22234.174, -0.0727548, 0.11659331, -485712.4, 54004.434, 0.0, 10.000425, 9.999722 
9.8498e+2, 2.549278e+2, -392884.88, -448852.28, -34432.496, -0.03266038, 0.114740245, -376498.72, 65215.85, 0.0, 10.000443, 9.999717 
9.849598e+2, 2.649266e+2, -357364.94, -501296.47, -55371.13, 0.06954192, 0.07785035, -338528.53, 5195.02, 0.00000001775074, 10.000527, 9.998651 
9.849399e+2, 2.7492413e+2, -246349.14, -398917.03, -59218.887, 0.24694614, -0.0460213, -226061.27, 19684.197, 0.000003544514, 10.00062, 9.998637 
9.84919e+2, 2.8492308e+2, -180041.02, -258382.52, 22409.246, 0.2011382, -0.036306918, -174083.92, -26328.29, 0.00003520851, 10.00016, 9.999147 
9.8489684e+2, 2.9492328e+2, -235213.58, -237705.45, -6508.446, -0.075871155, 0.054312054, -229832.88, -180077.39, 0.00014919741, 9.999121, 9.999117 
9.8487806e+2, 3.0492193e+2, -278065.5, -266641.97, -24345.027, 0.027434058, 0.030293336, -247347.63, -247347.63, 0.00039500848, 9.998642, 9.998811 
9.848613e+2, 3.1492218e+2, -210894.42, -122617.82, 41098.863, 0.39552316, 0.15140605, -106446.03, -106446.03, 0.00077431643, 9.998577, 9.999834 
9.952531e+2, 1.2495682e+2, -1496832.1, -1592862.9, -45730.83, 0.092104666, 0.055541925, -1478539.3, 236892.8, 0.000108580556, 10.001381, 10.000164 
9.9522996e+2, 1.3495758e+2, -1338414.6, -1437561.5, -7677.3677, -0.11844492, 0.07475114, -1337823.6, 279593.66, 0.000033028722, 10.001707, 10.000402 
9.952089e+2, 1.4495695e+2, -1435637.0, -1646985.5, -43299.855, -0.065536395, 0.07423287, -1427110.1, 92311.37, 0.0000026281716, 10.001261, 9.998504 
9.9518895e+2, 1.5495493e+2, -1484226.8, -1613922.9, -54658.344, 0.13256088, -0.0006087878, -1464264.4, -42820.047, 0.00000000019976186, 10.000242, 9.998544 
9.951681e+2, 1.649538e+2, -1337492.0, -1366555.3, 11888.92, 0.12808831, -0.020119553, -1333248.3, -9792.876, 0.0, 10.000046, 9.999659 
9.951463e+2, 1.7495333e+2, -1129185.5, -1213680.6, 29067.41, -0.07510069, -0.04794672, -1120151.8, 105304.74, 0.0, 10.000794, 9.999676 
9.951256e+2, 1.8495277e+2, -1020741.2, -1201183.9, -7319.8457, -0.114781834, -0.02851208, -1020444.7, 107016.27, 0.0, 10.001243, 9.998879 
9.951061e+2, 1.9495197e+2, -899841.25, -1090885.6, 10115.17, 0.011877848, -0.0112898, -899307.2, 130162.96, 0.0, 10.001393, 9.998891 
9.950855e+2, 2.0495076e+2, -818475.2, -980357.06, 430.15103, 0.036441147, -0.024560764, -818474.06, 113008.55, 0.0, 10.001197, 9.999074 
9.950637e+2, 2.1494894e+2, -798477.1, -917382.0, 5530.499, -0.040965967, -0.12744007, -798220.44, 35279.824, 0.0, 10.000653, 9.999093 
9.9504304e+2, 2.2494902e+2, -768523.1, -897096.25, 146.27675, -0.02348452, -0.0042254017, -768523.0, -33018.13, 0.0, 10.000376, 9.99869 
9.950234e+2, 2.3495086e+2, -672335.9, -797460.0, -6601.434, 0.08860537, 0.2949205, -671988.56, -34490.914, 0.0, 10.000359, 9.998706 
9.950026e+2, 2.4495035e+2, -509804.97, -568180.44, -29578.23, 0.08264082, 0.33348498, -497438.0, 42065.875, 0.0, 10.000365, 9.999608 
9.9498045e+2, 2.549473e+2, -408594.16, -468150.6, -26333.857, -0.042259045, 0.052479208, -398620.47, 42904.91, 0.0, 10.00038, 9.999618 
9.9495965e+2, 2.6494554e+2, -362660.97, -496526.44, -57525.867, -0.0051280055, -0.03790275, -341337.16, 2200.8018, 0.000000028595345, 10.000463, 9.9987135 
9.949401e+2, 2.749448e+2, -252814.78, -394309.28, -46299.117, 0.19114746, 0.007561754, -239011.56, 6531.8813, 0.000003781716, 10.000548, 9.998702 
9.949193e+2, 2.8494427e+2, -228806.73, -346287.9, -23755.723, 0.2050347, 0.094389215, -224184.94, -76634.805, 0.000036350866, 10.000099, 9.998575 
9.948971e+2, 2.9494378e+2, -279379.25, -316926.84, -36750.023, 0.029861815, 0.17163053, -256885.38, -207326.69, 0.00015454051, 9.999071, 9.998593 
9.9487734e+2, 3.0494207e+2, -205469.95, -105393.65, -28346.365, 0.078184344, 0.0780163, -97922.38, -97922.38, 0.00041140616, 9.9986, 9.999939 
9.9485856e+2, 3.1494215e+2, -169751.3, 7277.8857, 61825.258, 0.23074183, 0.068847254, 26731.787, 26731.787, 0.00080724823, 9.998406, 10.0008 
1.0052554e+3, 1.2497817e+2, -1375220.9, -1550832.8, 88531.78, 0.15103003, 0.061462767, -1338336.3, 376886.66, 0.00014134821, 10.002304, 9.999998 
1.005231e+3, 1.3497889e+2, -1497163.1, -1532161.1, -10304.618, -0.12528703, 0.09395221, -1494354.5, 122855.375, 0.000046426092, 10.000708, 10.000226 
1.00521e+3, 1.4497823e+2, -1519047.6, -1669506.3, -13976.747, -0.0474425, 0.09201242, -1517760.3, 1454.0856, 0.00000474816, 10.000638, 9.998639 
1.0051905e+3, 1.5497628e+2, -1190837.9, -1461014.0, 12362.695, 0.17408219, 0.014689744, -1190273.4, 230962.03, 0.000000004412824, 10.002217, 9.998641 
1.00516945e+3, 1.649748e+2, -1048201.8, -1302565.1, 65870.04, 0.14346771, -0.00949794, -1032156.25, 291094.2, 0.0, 10.002348, 9.998999 
1.0051465e+3, 1.7497365e+2, -1142159.3, -1292152.0, -1230.8835, -0.14285232, -0.039533596, -1142149.3, 83111.67, 0.0, 10.001017, 9.999034 
1.0051258e+3, 1.8497312e+2, -1129624.5, -1228298.4, -43819.117, -0.175968, 0.0058503873, -1112974.8, 14291.291, 0.0, 10.000392, 9.999102 
1.0051074e+3, 1.9497308e+2, -1021602.5, -1125835.8, -46900.324, 0.05030984, 0.077458695, -1003606.5, 25660.871, 0.0, 10.000462, 9.999099 
1.0050865e+3, 2.0497191e+2, -935661.5, -1019892.0, -59145.633, 0.07555241, 0.048223335, -905168.9, 26109.682, 0.0, 10.000314, 9.999223 
1.0050632e+3, 2.1496943e+2, -899244.94, -951189.4, -52870.875, -0.10646437, -0.13858283, -866311.44, -33010.023, 0.0, 9.999893, 9.999225 
1.0050425e+3, 2.2496945e+2, -802577.25, -882024.0, 19542.648, -0.09384252, -0.039190628, -798030.3, -62725.273, 0.0, 10.00001, 9.998973 
1.00502424e+3, 2.3497185e+2, -610758.8, -739851.0, 44735.39, 0.11753191, 0.28930962, -596771.75, 40519.625, 0.0, 10.000654, 9.998965 
1.005004e+3, 2.4497144e+2, -451327.16, -573697.6, 37417.242, 0.16160998, 0.33967993, -440792.9, 98503.59, 0.0, 10.000906, 9.999311 
1.00498185e+3, 2.5496808e+2, -374492.5, -483019.44, 10620.986, 0.03868346, 0.05761466, -373462.84, 67858.92, 0.0, 10.000755, 9.999331 
1.0049605e+3, 2.6496622e+2, -315155.63, -471219.97, -9589.368, 0.028608672, -0.02726215, -314568.6, 28767.008, 0.000000017098808, 10.00079, 9.998722 
1.0049402e+3, 2.7496564e+2, -191442.66, -364260.44, -19280.508, 0.13025093, 0.030690573, -189317.73, 56022.46, 0.000003428396, 10.000972, 9.998699 
1.004919e+3, 2.8496486e+2, -155363.64, -318414.06, -2895.4382, 0.15202211, 0.09949833, -155312.23, -7963.5654, 0.00003625069, 10.000631, 9.998509 
1.0048972e+3, 2.9496378e+2, -193760.5, -286984.4, 5078.931, 0.1049121, 0.12400068, -193484.61, -144122.33, 0.00015742959, 9.999688, 9.998508 
1.0048765e+3, 3.0496264e+2, -129529.875, -13824.614, 38964.973, 0.13540731, 0.067588985, -1926.2871, -1926.2871, 0.00042159262, 9.99888, 10.000434 
1.00485615e+3, 3.149637e+2, -194887.56, 16931.555, 45638.71, 0.16906732, 0.110084176, 26346.436, 26346.436, 0.0008274677, 9.998112, 10.001019 
1.0152567e+3, 1.2500167e+2, -1488689.6, -1792421.8, -1087.7788, 0.008921191, 0.0850366, -1488685.6, 226299.88, 0.0001798155, 10.002316, 9.998337 
1.01523094e+3, 1.3499951e+2, -1598584.9, -1765817.5, -65368.008, -0.22268581, -0.0076109217, -1576066.1, 40941.28, 0.000062927356, 10.000795, 9.998582 
1.0152101e+3, 1.4499839e+2, -1452985.1, -1547447.1, 37614.145, -0.12020087, -0.014887845, -1439837.4, 79180.56, 0.000007860604, 10.000699, 9.999449 
1.0151914e+3, 1.5499851e+2, -1139341.1, -1348450.9, 78423.01, 0.017682731, 0.035482492, -1113198.3, 307816.7, 0.000000028517778, 10.002195, 9.999424 
1.0151705e+3, 1.6499735e+2, -1158776.0, -1529237.8, 6662.946, 0.0065899016, 0.08322194, -1158656.3, 164372.52, 0.0, 10.002329, 9.997454 
1.0151477e+3, 1.7499483e+2, -1244855.9, -1515241.5, -42970.055, -0.13611025, 0.066493236, -1238191.3, -13130.981, 0.0, 10.001051, 9.997489 
1.0151267e+3, 1.8499379e+2, -1120387.5, -1209252.1, -46445.13, -0.1361924, 0.1313916, -1100544.0, 26530.14, 0.0, 10.000391, 9.999233 
1.0151075e+3, 1.9499402e+2, -1019576.25, -1110427.6, -35300.33, 0.004974368, 0.2171137, -1007472.75, 21599.785, 0.0, 10.000409, 9.999231 
1.0150864e+3, 2.0499331e+2, -923429.94, -973510.0, -80417.7, 0.014956095, 0.20830725, -864244.0, 66834.63, 0.0, 10.000227, 9.999582 
1.0150633e+3, 2.1499148e+2, -882434.5, -902315.4, -62221.277, -0.105889715, 0.052557454, -829364.6, 3729.2803, 0.0, 9.999835, 9.999586 
1.01504244e+3, 2.2499098e+2, -754282.06, -758877.3, 35880.39, -0.106923044, 0.034755405, -720625.8, 14471.883, 0.0, 9.999914, 9.999864 
1.01502396e+3, 2.3499161e+2, -562018.8, -614965.0, 77044.24, 0.012753459, 0.09654519, -507026.34, 130065.484, 0.0, 10.000553, 9.999869 
1.0150044e+3, 2.4499138e+2, -504287.7, -658554.3, 23973.424, 0.09731235, 0.14614382, -500648.03, 38445.23, 0.0, 10.000803, 9.998776 
1.0149837e+3, 2.549901e+2, -422663.88, -566678.5, 12878.989, 0.14178267, 0.12671915, -421521.2, 19582.504, 0.0, 10.000689, 9.998788 
1.0149622e+3, 2.6498854e+2, -325297.22, -481926.97, -8046.1157, 0.10800597, 0.10330076, -324884.97, 18232.402, 0.000000011022683, 10.000739, 9.998676 
1.01494e+3, 2.7498657e+2, -198159.88, -367474.88, -1033.2705, -0.0036558993, 0.022868732, -198153.58, 46982.0, 0.0000031084232, 10.000923, 9.9987 
1.0149182e+3, 2.8498492e+2, -134451.11, -262624.63, -43887.402, -0.017541027, -0.018630857, -120864.08, 26286.637, 0.000035475467, 10.000583, 9.998913 
1.0148966e+3, 2.9498342e+2, -182653.19, -235614.86, -17920.547, 0.063883334, -0.07642968, -177159.34, -127994.97, 0.00015859005, 9.999581, 9.998904 
1.0148754e+3, 3.0498374e+2, -153443.77, -52241.617, 8475.373, 0.11280848, 0.0063699824, -51536.74, -51536.74, 0.00042792628, 9.998823, 10.000201 
1.0148535e+3, 3.1498715e+2, -249218.42, -63239.83, 39971.535, 0.06374704, 0.30553532, -55012.855, -55012.855, 0.0008405054, 9.997981, 10.000525 
1.02525845e+3, 1.2502255e+2, -1595169.3, -1826654.1, -137540.78, -0.0034104958, 0.04982603, -1531151.4, 183631.34, 0.00022439056, 10.001508, 9.998495 
1.0252325e+3, 1.3502105e+2, -1272119.0, -1597293.5, -95513.8, -0.24295309, 0.011519244, -1246139.4, 370659.16, 0.0000828242, 10.00298, 9.998693 
1.0252118e+3, 1.4502001e+2, -1174512.5, -1429505.0, 43978.473, -0.11077124, 0.014212452, -1167140.6, 351667.9, 0.000012107546, 10.002673, 9.99931 
1.0251924e+3, 1.550199e+2, -1353350.0, -1464340.1, 4669.2085, -0.02103459, 0.051082544, -1353153.9, 67654.54, 0.00000009714164, 10.000773, 9.999311 
1.0251715e+3, 1.6501898e+2, -1416157.4, -1591859.6, -1071.3826, -0.016523387, 0.10061384, -1416150.9, -93332.04, 0.0, 10.000309, 9.997992 
1.0251495e+3, 1.750172e+2, -1163325.4, -1414743.0, 83058.766, -0.071205735, 0.107254624, -1138364.3, 86476.39, 0.0, 10.001353, 9.998031 
1.02512844e+3, 1.8501607e+2, -962947.94, -1157729.1, 147723.64, -0.060890954, 0.14738052, -883400.1, 243454.8, 0.0, 10.0015745, 9.999017 
1.0251082e+3, 1.9501542e+2, -952122.56, -1099121.8, 119886.78, 0.001804986, 0.16567516, -884998.44, 143865.14, 0.0, 10.00097, 9.999034 
1.0250866e+3, 2.0501497e+2, -830177.25, -935397.6, 73132.08, -0.013047534, 0.19935459, -792697.9, 138170.39, 0.0, 10.000901, 9.999522 
1.02506384e+3, 2.1501462e+2, -667775.2, -807163.06, 44973.75, -0.09684478, 0.19985022, -654524.06, 178346.25, 0.0, 10.0013485, 9.999515 
1.025043e+3, 2.2501375e+2, -576840.8, -671522.0, 101300.78, -0.09695448, 0.14925565, -512364.7, 222511.1, 0.0, 10.0011215, 9.999881 
1.0250239e+3, 2.3501225e+2, -623270.2, -642902.44, 61130.152, -0.015181599, -0.0008934062, -571173.06, 65712.83, 0.0, 10.000134, 9.999879 
1.0250044e+3, 2.4501164e+2, -612182.75, -686134.7, 31408.467, 0.067067124, -0.0013841758, -600643.6, -61754.313, 0.0, 9.999967, 9.998984 
1.0249843e+3, 2.5501168e+2, -431985.47, -550478.0, 57620.523, 0.14523037, 0.08910182, -408586.44, 32301.826, 0.0, 10.000537, 9.998971 
1.0249629e+3, 2.650105e+2, -369457.88, -538834.3, 57361.19, 0.118889496, 0.113049544, -351860.22, -8960.043, 0.00000001218603, 10.000581, 9.9983635 
1.02494046e+3, 2.7500802e+2, -344941.1, -470269.34, 27391.242, -0.003982264, 0.011995688, -339216.1, -94289.805, 0.0000027111198, 10.000055, 9.998411 
1.0249178e+3, 2.8500646e+2, -218021.05, -219170.83, -19464.855, -0.05057543, -0.042435426, -199122.6, -52182.367, 0.00003356273, 9.999664, 9.999646 
1.0248952e+3, 2.9500562e+2, -165250.42, -146703.78, 9637.2295, -0.02239381, -0.10868465, -142602.84, -93658.43, 0.00015687123, 9.999358, 9.99962 
1.0248734e+3, 3.050061e+2, -147647.3, -104828.14, 63732.168, 0.03057447, -0.020556452, -59005.59, -59005.59, 0.0004299211, 9.999115, 9.999695 
1.024852e+3, 3.1500834e+2, -174863.11, -98113.61, 40318.25, 0.09179527, 0.214473, -80827.04, -80827.04, 0.000848036, 9.998791, 9.999897 
1.03526e+3, 1.2504117e+2, -1472585.1, -1575251.8, -109716.42, -0.03450373, -0.031980194, -1402787.1, 311823.0, 0.00027553758, 10.001527, 10.000208 
1.0352356e+3, 1.3504353e+2, -1167814.3, -1362634.0, -34211.895, -0.25225946, 0.14987588, -1161981.1, 454601.44, 0.000106410545, 10.002916, 10.000331 
1.0352148e+3, 1.4504306e+2, -1241022.1, -1569357.0, -36416.055, -0.098893836, 0.17779784, -1237031.8, 281554.88, 0.000017580353, 10.002673, 9.998353 
1.03519335e+3, 1.5504041e+2, -1411764.0, -1594771.1, -57696.074, -0.014040409, 0.05683591, -1395092.9, 25522.344, 0.00000023822265, 10.000809, 9.998404 
1.0351723e+3, 1.6503975e+2, -1237062.5, -1225175.1, 29287.986, 0.0023048175, 0.047246788, -1201233.8, 121385.79, 0.0, 10.000332, 10.000495 
1.0351516e+3, 1.7504077e+2, -995718.56, -1059284.1, 127991.36, -0.014573856, 0.08605926, -895622.9, 328979.2, 0.0, 10.001323, 10.000485 
1.0351305e+3, 1.8503997e+2, -1008951.56, -1243377.9, 114647.484, -0.020878807, 0.065590665, -962204.44, 164404.55, 0.0, 10.001532, 9.998449 
1.035109e+3, 1.950372e+2, -997471.06, -1183503.9, 100536.08, -0.023977613, -0.07056786, -953521.94, 75119.42, 0.0, 10.000928, 9.998475 
1.035087e+3, 2.0503688e+2, -873770.25, -1011373.44, 79770.1, -0.065995164, 0.026920956, -837229.9, 93418.18, 0.0, 10.0008335, 9.999035 
1.0350649e+3, 2.1503876e+2, -710562.44, -880404.94, 69394.5, -0.14276648, 0.29674152, -685815.0, 146816.45, 0.0, 10.001276, 9.999047 
1.035044e+3, 2.2503772e+2, -656299.75, -809398.8, 56382.074, -0.12910444, 0.2968823, -637776.8, 96863.164, 0.0, 10.001007, 9.998989 
1.0350239e+3, 2.3503372e+2, -695939.56, -775590.06, 31592.06, -0.03519493, -0.01656647, -684930.7, -48256.26, 0.0, 10.000054, 9.999005 
1.0350038e+3, 2.4503212e+2, -562848.56, -561019.3, 46537.28, 0.00011318532, -0.11572794, -515387.66, 23297.996, 0.0, 9.999871, 9.999891 
1.03498325e+3, 2.5503272e+2, -375019.88, -421345.38, 88475.52, -0.017163863, -0.05979206, -306725.34, 133950.48, 0.0, 10.000486, 9.999885 
1.0349624e+3, 2.650321e+2, -418458.84, -625031.3, 30420.441, -0.0011450674, 0.00077406334, -414072.22, -71388.305, 0.00000000560088, 10.000521, 9.997798 
1.03494115e+3, 2.7503008e+2, -402258.63, -562786.3, 17858.354, 0.05043512, 0.0032863638, -400295.9, -155584.22, 0.0000022721786, 9.999952, 9.997821 
1.0349178e+3, 2.8502953e+2, -155808.73, -75140.49, -36200.867, -0.0253778, 0.03073122, -61277.34, 85439.914, 0.000031159278, 9.999596, 10.00067 
1.0348927e+3, 2.9503047e+2, -100740.48, 639.4761, 12945.58, -0.22990113, 0.03991039, 2266.435, 50967.33, 0.00015252481, 9.999304, 10.000658 
1.0348705e+3, 3.0502972e+2, -212381.0, -235353.28, 49057.32, -0.182426, -0.0025283657, -173483.1, -173483.1, 0.00042681675, 9.9991, 9.998804 
1.0348512e+3, 3.1502733e+2, -258723.27, -229725.72, 52332.094, 0.08839689, -0.14810868, -189921.06, -189921.06, 0.0008482349, 9.998631, 9.99906 
1.045262e+3, 1.250646e+2, -1542422.5, -1643728.3, 148738.13, 0.0388014, 0.02412425, -1435948.9, 278431.72, 0.0003338259, 10.001177, 9.999919 
1.0452384e+3, 1.3506639e+2, -1447033.8, -1534870.9, 80567.66, -0.16003948, 0.18409958, -1399191.9, 217168.34, 0.00013404706, 10.00114, 10.000012 
1.0452177e+3, 1.4506559e+2, -1435427.3, -1664299.6, 21510.467, -0.0030558358, 0.19620878, -1433423.1, 84944.97, 0.000024406929, 10.00135, 9.998339 
1.0451948e+3, 1.5506314e+2, -1241375.9, -1511450.4, 44760.4, -0.0038038804, 0.09534782, -1234150.9, 186244.47, 0.0000004785213, 10.001981, 9.998407 
1.0451731e+3, 1.6506235e+2, -1021288.7, -1085316.9, 118201.195, 0.00075459614, 0.05990771, -930842.9, 391556.5, 0.0, 10.001657, 10.000818 
1.04515284e+3, 1.7506301e+2, -1100284.8, -1071117.8, 48152.914, 0.033648472, 0.029520506, -1035388.44, 188994.34, 0.0, 10.000438, 10.000826 
1.04513146e+3, 1.850625e+2, -1196112.8, -1316793.4, 6693.741, 0.0016912383, 0.012419787, -1195742.5, -69356.79, 0.0, 10.000176, 9.998599 
1.045109e+3, 1.9506067e+2, -997693.75, -1169483.6, 29695.164, -0.096436374, -0.04377738, -992705.56, 35703.81, 0.0, 10.000861, 9.998609 
1.0450873e+3, 2.0506011e+2, -840288.75, -1005742.56, 65694.055, -0.1339221, 0.02719416, -817377.4, 113040.7, 0.0, 10.001117, 9.998934 
1.0450663e+3, 2.1506055e+2, -768154.9, -919441.9, 66249.68, -0.11136205, 0.16582385, -743245.1, 89169.08, 0.0, 10.000938, 9.9989395 
1.0450452e+3, 2.2505945e+2, -672881.4, -815302.06, 91487.15, -0.08672326, 0.16320428, -628157.2, 106265.77, 0.0, 10.000879, 9.999012 
1.045024e+3, 2.3505667e+2, -568949.2, -716567.25, 117499.09, -0.06610378, -0.027106792, -504000.13, 132445.4, 0.0, 10.000923, 9.999 
1.0450035e+3, 2.4505529e+2, -489221.97, -557361.4, 148829.95, -0.03973214, -0.09102723, -370611.94, 167844.2, 0.0, 10.0005, 9.999619 
1.0449835e+3, 2.5505513e+2, -518907.44, -516718.44, 87276.08, -0.00093295315, -0.084441915, -430530.0, 9925.932, 0.0, 9.999612, 9.999648 
1.0449624e+3, 2.6505473e+2, -566320.25, -586237.75, 43300.51, 0.018479152, -0.041741513, -531848.0, -189386.69, 0.0000000009945924, 9.99904, 9.998776 
1.0449402e+3, 2.7505374e+2, -520117.6, -514328.13, 130965.836, 0.024647938, -0.03168992, -386225.03, -141749.5, 0.0000020282196, 9.998678, 9.998772 
1.0449167e+3, 2.8505367e+2, -282255.66, -207255.58, 120979.83, -0.06046137, 0.030857272, -118097.14, 28379.75, 0.00002862002, 9.999021, 10.000048 
1.0448922e+3, 2.9505458e+2, -40614.457, -38350.5, 23836.658, -0.23297586, 0.09903902, -15618.957, 32846.535, 0.00014590684, 9.999995, 10.000065 
1.0448704e+3, 3.050536e+2, 17726.523, -112564.93, 36254.484, -0.17337878, 0.054265875, 27135.16, 27135.16, 0.0004167961, 10.000632, 9.998905 
1.0448511e+3, 3.1504992e+2, 69067.84, -59709.957, 81830.266, 0.112926066, -0.22033645, 108804.46, 108804.46, 0.0008355391, 10.000807, 9.999191 
1.05526365e+3, 1.250924e+2, -1675308.3, -1924141.8, 94921.98, 0.05094635, 0.20916864, -1643233.1, 70866.21, 0.00039971265, 10.001211, 9.997967 
1.05524085e+3, 1.3508964e+2, -1590929.6, -1831958.4, 84282.52, -0.043643877, 0.120214745, -1564381.9, 51749.65, 0.00016604259, 10.0011425, 9.997967 
1.0552202e+3, 1.4508784e+2, -1374304.0, -1543852.4, 35529.453, 0.09710371, 0.0922033, -1367159.8, 150991.5, 0.000032768716, 10.001372, 9.999156 
1.0551964e+3, 1.5508798e+2, -1189454.6, -1402667.6, 75236.84, -0.05498155, 0.1699486, -1165579.3, 254569.89, 0.0000008393984, 10.001969, 9.999164 
1.0551741e+3, 1.6508673e+2, -1144201.5, -1332161.5, 65136.176, -0.091724075, 0.13564037, -1123835.8, 198323.38, 0.0, 10.001625, 9.999135 
1.05515316e+3, 1.75084e+2, -1212502.3, -1310955.5, 10450.444, 0.010667528, -0.06677079, -1211405.3, 12776.635, 0.0, 10.000468, 9.999164 
1.05513126e+3, 1.850838e+2, -1138657.4, -1196406.4, 25340.082, -0.053924866, -0.011623332, -1129115.0, -2931.4617, 0.0, 10.000173, 9.999427 
1.05510816e+3, 1.9508587e+2, -947182.8, -1053423.4, 63558.617, -0.28456056, 0.23617958, -917469.1, 110697.58, 0.0, 10.0008135, 9.999427 
1.055087e+3, 2.0508465e+2, -837589.6, -981848.4, 51012.297, -0.28320834, 0.19340311, -821373.6, 108804.14, 0.0, 10.001034, 9.99914 
1.0550678e+3, 2.1508013e+2, -764344.2, -893684.44, 66559.74, -0.06010392, -0.18756895, -736211.1, 96006.24, 0.0, 10.000858, 9.999156 
1.0550468e+3, 2.2507907e+2, -626582.1, -697177.0, 87223.05, -0.02770895, -0.23944254, -567785.1, 166438.31, 0.0, 10.00078, 9.999871 
1.05502404e+3, 2.3508118e+2, -519298.16, -595692.1, 126667.484, -0.17785496, -0.030767888, -425193.75, 211005.11, 0.0, 10.000844, 9.9998665 
1.0550033e+3, 2.4508117e+2, -601820.3, -773361.06, 107364.5, -0.123507015, 0.07390918, -550172.7, -11972.607, 0.0, 10.000422, 9.998175 
1.0549845e+3, 2.5507897e+2, -628487.2, -730173.0, 60352.285, 0.12750058, 0.019332595, -600416.25, -160188.28, 0.0, 9.999547, 9.998215 
1.0549624e+3, 2.6507834e+2, -402254.22, -224477.7, 24435.803, 0.11495844, -0.016812319, -221180.11, 121052.68, 0.000000000012280949, 9.998956, 10.001297 
1.0549372e+3, 2.7507904e+2, -356645.53, -156067.08, 130239.09, -0.15407182, -0.09156963, -91978.234, 152238.73, 0.0000016155456, 9.998604, 10.001266 
1.0549143e+3, 2.8507897e+2, -451949.44, -552312.8, 152919.56, -0.22614326, -0.036966763, -341188.3, -194970.06, 0.000025303238, 9.998986, 9.997697 
1.05489366e+3, 2.9507798e+2, -214407.84, -386276.28, 73127.73, -0.101104476, 0.07556593, -187504.33, -139266.39, 0.000137169, 9.99994, 9.9977045 
1.05487265e+3, 3.0507764e+2, 91599.27, 50093.164, 41269.348, -0.016801627, 0.16088526, 117039.81, 117039.81, 0.00040068463, 10.000591, 10.000043 
1.05485134e+3, 3.150766e+2, 139886.05, 106500.336, 111460.93, 0.016923448, 0.033576775, 235897.19, 235897.19, 0.00081052736, 10.000733, 10.000368 
1.0652648e+3, 1.2511605e+2, -1495663.8, -1839569.4, -78004.38, -0.018197345, 0.19585559, -1478798.0, 235066.22, 0.00047318285, 10.002449, 9.9979515 
1.0652423e+3, 1.351128e+2, -1494591.6, -1792776.6, 51477.066, -0.043653913, 0.06900851, -1485955.1, 129946.25, 0.00020250746, 10.001842, 9.997892 
1.06522195e+3, 1.4511111e+2, -1368363.9, -1488390.3, 88184.25, 0.14124681, 0.030637398, -1321709.3, 196210.55, 0.000042863663, 10.00119, 9.999625 
1.0651981e+3, 1.5511194e+2, -1359138.0, -1430811.4, 82876.555, -0.008011325, 0.13121392, -1304681.9, 115228.26, 0.0000013547858, 10.000581, 9.999638 
1.0651753e+3, 1.6511096e+2, -1275874.3, -1437071.8, 130618.92, -0.087091185, 0.11967732, -1202988.6, 118929.945, 0.0, 10.000893, 9.998774 
1.0651538e+3, 1.7510815e+2, -1005721.6, -1251881.0, 155367.5, -0.058914468, -0.051856298, -930590.1, 293354.94, 0.0, 10.002064, 9.998808 
1.0651319e+3, 1.851078e+2, -872800.94, -1048384.6, 191814.11, -0.09848844, -0.002237715, -749642.44, 376306.25, 0.0, 10.001908, 9.999607 
1.0651094e+3, 1.9510964e+2, -981547.6, -1050970.0, 167657.16, -0.21906622, 0.20615679, -845046.1, 182885.83, 0.0, 10.000491, 9.999601 
1.0650883e+3, 2.0510854e+2, -968282.06, -1024786.4, 165541.69, -0.20854299, 0.1569245, -828599.0, 101341.91, 0.0, 10.000054, 9.999314 
1.0650684e+3, 2.1510448e+2, -798533.8, -891826.44, 161107.72, -0.06892552, -0.19213152, -677455.44, 154520.67, 0.0, 10.000549, 9.999315 
1.0650472e+3, 2.251034e+2, -656855.3, -751042.56, 141222.89, -0.050403878, -0.23639236, -555080.8, 178902.6, 0.0, 10.000742, 9.999521 
1.065025e+3, 2.3510502e+2, -578069.0, -660086.7, 75994.51, -0.1486459, -0.04042963, -532724.56, 103240.73, 0.0, 10.000604, 9.9995365 
1.065004e+3, 2.4510497e+2, -609522.8, -740734.0, 64897.586, -0.0800847, 0.05745635, -582847.4, -44880.58, 0.0, 10.000217, 9.998495 
1.0649843e+3, 2.5510305e+2, -600628.44, -684510.1, 133000.89, 0.14559108, 0.002771113, -503112.22, -63122.684, 0.0, 9.999597, 9.998509 
1.0649618e+3, 2.651023e+2, -309986.97, -250347.77, 98866.05, 0.1198042, -0.02459095, -176902.16, 165093.0, 0.0, 9.999876, 10.000683 
1.06493704e+3, 2.7510265e+2, -58230.727, -76508.63, -50193.875, -0.14128648, -0.07798905, -16350.608, 227634.2, 0.00000091217555, 10.000922, 10.000698 
1.06491454e+3, 2.8510186e+2, -179634.73, -429144.0, -53099.723, -0.18741715, -0.064935856, -168804.33, -22811.182, 0.000020741376, 10.000903, 9.997614 
1.0648944e+3, 2.9509977e+2, -224203.8, -398894.47, 22346.21, -0.01972209, -0.053447682, -221390.6, -173368.38, 0.0001251533, 9.999908, 9.997627 
1.0648733e+3, 3.050999e+2, -49378.617, -22043.162, 59309.5, 0.040738672, 0.08618792, 25153.086, 25153.086, 0.0003777452, 9.999632, 10.0000105 
1.0648514e+3, 3.151005e+2, 24093.775, 58235.945, 8394.404, 0.007581398, 0.12021832, 60188.215, 60188.215, 0.00077367935, 9.999887, 10.000446 
1.07526466e+3, 1.2513591e+2, -1378479.3, -1580349.1, -150669.22, -0.30669808, -0.0033370329, -1298060.8, 415610.03, 0.00055371417, 10.002399, 9.999745 
1.0752425e+3, 1.3513601e+2, -1386575.0, -1551695.0, 32721.098, -0.21646678, 0.030003686, -1380327.3, 235341.73, 0.00024334127, 10.001785, 9.999565 
1.0752226e+3, 1.4513536e+2, -1358568.0, -1471396.4, 53263.316, 0.06751576, 0.009565953, -1337396.5, 180278.27, 0.00005483326, 10.001191, 9.999747 
1.0751996e+3, 1.55135e+2, -1343863.5, -1407047.9, 67644.08, 0.06114037, -0.021220943, -1300797.9, 118880.375, 0.000002073113, 10.0006075, 9.99979 
1.0751767e+3, 1.651351e+2, -1215606.6, -1310533.9, 165183.92, -0.05460595, 0.021881083, -1091202.5, 230474.63, 0.0000000000166348, 10.000888, 9.999643 
1.0751542e+3, 1.7513534e+2, -947648.75, -1129107.0, 203839.1, -0.23244345, 0.06533239, -815258.75, 408415.16, 0.0, 10.002049, 9.999657 
1.0751329e+3, 1.8513435e+2, -913635.7, -1118510.4, 128975.09, -0.19503206, 0.03325667, -851367.3, 274315.4, 0.0, 10.001849, 9.999153 
1.0751125e+3, 1.9513206e+2, -1017724.94, -1116226.8, 121460.48, 0.02971782, -0.12550811, -935909.8, 91794.445, 0.0, 10.000452, 9.999169 
1.0750907e+3, 2.0513187e+2, -971679.4, -1018816.75, 174867.67, 0.02146271, -0.06772918, -818799.25, 110907.15, 0.0, 9.999996, 9.999385 
1.0750676e+3, 2.1513347e+2, -806085.8, -887708.8, 186377.08, -0.20312572, 0.13896853, -656104.25, 175587.45, 0.0, 10.0004635, 9.999385 
1.07504636e+3, 2.2513224e+2, -778721.1, -980979.4, 129032.01, -0.2170634, 0.15680124, -715910.1, 17794.277, 0.0, 10.000642, 9.997991 
1.07502684e+3, 2.3512824e+2, -694491.5, -881550.4, 79055.47, -0.03419242, -0.05982196, -665556.56, -29812.16, 0.0, 10.00052, 9.998055 
1.0750054e+3, 2.451267e+2, -480595.53, -456375.78, 37214.656, 0.031124594, -0.13834779, -429350.25, 108405.24, 0.0, 10.000143, 10.000484 
1.0749823e+3, 2.5512728e+2, -470092.56, -404277.06, 120252.38, -0.015219117, -0.1445877, -312511.03, 127230.2, 0.0, 9.999553, 10.000456 
1.07496046e+3, 2.651266e+2, -584999.4, -805692.94, 131549.73, -0.023131074, -0.071793854, -523643.66, -181894.52, 0.000000000031670343, 9.99981, 9.996902 
1.07493944e+3, 2.7512452e+2, -328498.16, -624327.5, -2986.18, 0.0020641405, 0.01332813, -328468.03, -84688.27, 0.00000057346807, 10.000864, 9.996965 
1.0749174e+3, 2.8512236e+2, -25135.373, -100253.086, -100736.52, -0.011381661, -0.038218696, 44816.3, 190618.2, 0.000016659129, 10.000869, 9.999887 
1.0748941e+3, 2.9512003e+2, -72922.56, -73715.25, -2549.2864, -0.06373217, -0.28194308, -70738.99, -22921.418, 0.00011189467, 9.999861, 9.999885 
1.07487194e+3, 3.0512038e+2, -147101.23, -213588.28, 68824.875, -0.07705413, -0.16903049, -103911.81, -103911.81, 0.00035149738, 9.999585, 9.998716 
1.0748509e+3, 3.1512138e+2, -81635.07, -133190.88, 41106.703, -0.06292353, 0.03443709, -58892.242, -58892.242, 0.00073250505, 9.999769, 9.999189 
1.0852661e+3, 1.2515879e+2, -1562777.1, -1613308.8, -53573.19, -0.30729523, -0.07599339, -1528810.8, 184635.36, 0.00064071716, 10.000874, 10.000274 
1.08524404e+3, 1.3515948e+2, -1527154.9, -1569149.8, 46980.6, -0.17296834, -0.025867742, -1496692.9, 118742.94, 0.00028839763, 10.000588, 10.000037 
1.0852234e+3, 1.4515926e+2, -1453234.9, -1503692.8, 54873.438, 0.07083076, -0.033390723, -1418068.5, 99368.31, 0.00006873226, 10.000508, 9.999841 
1.0852001e+3, 1.5515888e+2, -1329745.0, -1392287.9, 42137.344, 0.049984813, -0.07610688, -1308543.0, 110898.445, 0.0000030594845, 10.000677, 9.999852 
1.0851772e+3, 1.6515934e+2, -1248678.9, -1276023.3, 152758.63, -0.055892993, -0.019723112, -1108981.9, 212455.02, 0.000000000186287, 10.000447, 10.00009 
1.0851553e+3, 1.7516048e+2, -1230510.9, -1217269.8, 143299.03, -0.21151623, 0.06958935, -1080438.4, 142986.77, 0.0, 9.999906, 10.000084 
1.08513415e+3, 1.8515962e+2, -1164027.4, -1227016.3, 68758.555, -0.15904507, 0.022879574, -1119893.5, 5538.388, 0.0, 10.000075, 9.999263 
1.08511366e+3, 1.9515675e+2, -946987.8, -1071373.9, 86146.12, 0.07985876, -0.20424752, -902930.56, 124526.695, 0.0, 10.000897, 9.999262 
1.0850917e+3, 2.051565e+2, -835234.44, -1009574.7, 166449.86, 0.063187145, -0.12957843, -734510.5, 194950.06, 0.0, 10.001174, 9.9988785 
1.08506836e+3, 2.1515852e+2, -773863.8, -931234.7, 117188.945, -0.19618547, 0.169464, -711394.56, 120050.56, 0.0, 10.000931, 9.998862 
1.08504735e+3, 2.2515726e+2, -736622.75, -972415.3, 106485.65, -0.19342421, 0.21236049, -695652.0, 37808.05, 0.0, 10.000997, 9.997877 
1.0850287e+3, 2.3515269e+2, -578916.8, -841027.9, 140932.66, 0.0567682, -0.04310225, -517520.84, 117984.36, 0.0, 10.001384, 9.997919 
1.0850068e+3, 2.4515067e+2, -319917.47, -436758.53, 46238.73, 0.101630665, -0.1364979, -303833.13, 233688.03, 0.0, 10.001494, 9.999972 
1.0849823e+3, 2.5515088e+2, -256302.05, -358484.9, -73065.62, -0.048298348, -0.12535544, -218236.77, 221273.75, 0.0, 10.001275, 9.999942 
1.0849605e+3, 2.6514974e+2, -471065.53, -804436.0, 11847.167, -0.04571123, -0.04990533, -470645.03, -129121.164, 0.000000020287489, 10.000821, 9.99642 
1.08494096e+3, 2.7514708e+2, -472787.34, -749039.1, 107510.67, 0.101129524, 0.024039602, -435878.1, -192315.94, 0.0000009638229, 10.000107, 9.996471 
1.0849187e+3, 2.8514493e+2, -136957.38, -152232.86, 46554.043, 0.088659376, -0.006024911, -97418.695, 48165.566, 0.000015514439, 10.000089, 9.999909 
1.0848942e+3, 2.9514316e+2, 43283.055, -11834.8545, -48749.85, -0.06568482, -0.19405964, 71724.49, 119316.3, 0.00010321646, 10.000637, 9.999937 
1.084872e+3, 3.0514294e+2, 13263.65, -180522.52, 1399.7872, -0.08424407, -0.1222479, 13273.761, 13273.761, 0.0003319706, 10.000893, 9.998312 
1.0848521e+3, 3.1514212e+2, 33318.08, -118729.43, 5672.2036, 0.025593258, -0.05334537, 33529.39, 33529.39, 0.0007041168, 10.000761, 9.998799 
1.0952688e+3, 1.2518454e+2, -1608021.0, -1700695.9, -106808.08, -0.16179354, -0.028250325, -1537932.0, 175259.92, 0.000734217, 10.000842, 9.999691 
1.09524645e+3, 1.3518348e+2, -1565228.9, -1651603.6, 44234.598, -0.0039707283, -0.09502373, -1546595.1, 68604.63, 0.00033773432, 10.0006075, 9.99946 
1.095224e+3, 1.4518303e+2, -1452296.5, -1508801.5, 55568.984, 0.068159856, -0.09526584, -1418210.3, 98993.12, 0.0000845864, 10.000537, 9.999791 
1.09519936e+3, 1.5518346e+2, -1338869.3, -1402691.9, 57450.855, -0.09841671, -0.046888936, -1305062.0, 114137.766, 0.0000043925156, 10.000648, 9.999793 
1.09517686e+3, 1.6518377e+2, -1246681.3, -1273839.9, 123616.234, -0.14757712, -0.0077350643, -1135900.8, 185296.45, 0.0000000006358386, 10.000447, 10.00011 
1.0951569e+3, 1.7518367e+2, -1221298.3, -1209187.0, 132884.64, -0.06468718, -0.043240912, -1082220.1, 140977.72, 0.0, 9.999945, 10.000124 
1.09513536e+3, 1.8518372e+2, -1120257.4, -1136517.3, 91432.055, -0.061376438, -0.032888405, -1036594.56, 88600.336, 0.0, 10.000079, 9.999881 
1.09511256e+3, 1.9518366e+2, -912625.7, -988236.2, 123797.07, -0.123203054, -0.039122537, -820990.0, 206200.6, 0.0, 10.000849, 9.999853 
1.09509096e+3, 2.0518239e+2, -920573.1, -1173932.6, 146889.25, -0.1357454, -0.042455092, -853283.3, 75920.766, 0.0, 10.001113, 9.997785 
1.0950703e+3, 2.1517982e+2, -858790.9, -1088543.1, 114443.59, -0.10625609, -0.093031496, -811513.2, 19721.824, 0.0, 10.000847, 9.997826 
1.0950499e+3, 2.2517858e+2, -670631.7, -812722.0, 113636.57, -0.044587206, -0.053107068, -607659.4, 125589.09, 0.0, 10.000899, 9.999018 
1.09503e+3, 2.3517835e+2, -518421.84, -691993.25, 163450.88, 0.052084442, 0.006680612, -420145.53, 215102.61, 0.0, 10.001283, 9.998989 
1.095008e+3, 2.4517679e+2, -545056.75, -880914.75, 30010.908, 0.059514105, 0.060782127, -542396.2, -5131.3784, 0.0, 10.001394, 9.99697 
1.0949841e+3, 2.551739e+2, -468173.63, -784435.5, -72643.45, -0.014485341, 0.055611424, -452285.97, -12987.947, 0.0, 10.001215, 9.997045 
1.09496176e+3, 2.6517186e+2, -283997.8, -399743.56, -20439.203, -0.0039651217, 0.04246931, -280494.56, 60824.5, 0.00000010014453, 10.000751, 9.999232 
1.0949409e+3, 2.751704e+2, -286071.75, -350521.66, 94237.76, 0.078536965, -0.047154568, -218701.52, 24629.752, 0.0000018004142, 10.000059, 9.99923 
1.0949185e+3, 2.8516942e+2, -305120.84, -494624.94, 60625.746, 0.04050131, 0.027929058, -287385.4, -142045.13, 0.000016749296, 10.000053, 9.997577 
1.0948946e+3, 2.9516897e+2, -122898.99, -352743.56, -17028.54, -0.101823136, 0.19996415, -121644.24, -74297.35, 0.000099959936, 10.000609, 9.997614 
1.0948734e+3, 3.0516744e+2, 36700.152, -116592.45, -8630.094, -0.052553482, 0.23519, 37184.48, 37184.48, 0.00032156563, 10.000834, 9.998777 
1.09485425e+3, 3.151627e+2, 52172.832, -68237.53, 18528.549, 0.13897142, -0.1378673, 54959.484, 54959.484, 0.0006902331, 10.000706, 9.999179 
1.1052702e+3, 1.2521064e+2, -1727874.8, -1760582.1, -43335.0, -0.044027586, 0.01429801, -1697910.4, 15024.276, 0.00083503575, 10.000037, 9.999651 
1.1052482e+3, 1.3520949e+2, -1436125.8, -1592734.5, 132687.77, 0.07410214, -0.065752715, -1360360.0, 254583.5, 0.0003918232, 10.001492, 9.999439 
1.10522464e+3, 1.4520878e+2, -1366893.5, -1506732.9, 119568.61, 0.0432568, -0.07344077, -1298301.8, 218647.98, 0.000102570426, 10.001293, 9.999443 
1.1051993e+3, 1.552085e+2, -1505884.0, -1520746.6, 85651.76, -0.107999876, -0.06161702, -1427341.8, -8388.506, 0.0000061708192, 9.9996605, 9.999458 
1.105177e+3, 1.652082e+2, -1410823.1, -1376500.8, 192412.48, -0.13363831, -0.052874636, -1200485.6, 120470.34, 0.0000000015512864, 9.999436, 9.999882 
1.1051576e+3, 1.7520775e+2, -1141194.9, -1193646.8, 163787.97, -0.0177976, -0.10317266, -1001546.44, 221413.02, 0.0, 10.0006075, 9.999901 
1.105136e+3, 1.8520775e+2, -993043.06, -1125349.9, 90177.25, -0.048156008, -0.06292173, -947356.4, 177601.4, 0.0, 10.00117, 9.999436 
1.1051126e+3, 1.9520797e+2, -894304.1, -1026667.06, 30675.83, -0.22129044, -0.00022304156, -887540.44, 139412.8, 0.0, 10.00118, 9.999433 
1.1050914e+3, 2.0520629e+2, -918546.8, -1166856.6, 56415.676, -0.19294128, -0.025183832, -906330.3, 22640.008, 0.0, 10.001104, 9.997837 
1.1050724e+3, 2.1520272e+2, -831022.3, -1070148.8, 89865.22, 0.02108993, -0.17939307, -801015.75, 29992.783, 0.0, 10.001016, 9.99787 
1.10505216e+3, 2.2520147e+2, -643892.3, -787821.4, 118303.47, 0.083211526, -0.14810301, -577384.44, 155636.75, 0.0, 10.001028, 9.9991255 
1.1050308e+3, 2.352022e+2, -538456.0, -691075.7, 75567.36, 0.007708143, -0.0036475991, -507371.2, 127640.96, 0.0, 10.001101, 9.999083 
1.1050088e+3, 2.4520071e+2, -589275.6, -951607.4, 15294.153, 0.009777772, 0.07622168, -588631.2, -51601.723, 0.0, 10.001309, 9.996521 
1.10498644e+3, 2.5519705e+2, -437111.28, -819322.4, 81514.72, 0.08388053, 0.041783784, -420452.6, 18619.988, 0.0, 10.001647, 9.996593 
1.1049639e+3, 2.6519504e+2, -149502.3, -309001.63, 112289.66, 0.09113076, 0.04281137, -91524.055, 249569.34, 0.00000018749917, 10.001568, 9.999462 
1.1049411e+3, 2.7519438e+2, -129650.74, -252977.33, 12800.119, 0.037592094, 0.014981367, -128336.22, 114759.21, 0.0000025324416, 10.001048, 9.999425 
1.1049186e+3, 2.8519306e+2, -209222.92, -543116.44, 2797.9497, -0.0036837931, 0.08416982, -209199.48, -64090.727, 0.000018771152, 10.001136, 9.996716 
1.1048965e+3, 2.9519108e+2, -24073.902, -399188.47, 13838.326, -0.022647586, 0.19365865, -23564.088, 23568.816, 0.00010053436, 10.001712, 9.996754 
1.1048752e+3, 3.05189e+2, 62605.277, -117867.695, 15734.823, 0.049788684, 0.22549786, 63966.87, 63966.87, 0.00031863083, 10.001042, 9.998678 
1.10485464e+3, 3.1518483e+2, -206383.44, -191970.3, -33295.348, 0.19977908, -0.08757998, -165110.53, -165110.53, 0.00068517454, 9.998936, 9.999171 
1.1152704e+3, 1.2523705e+2, -1701711.6, -1701320.9, -9600.904, -0.080202624, 0.025555572, -1691913.3, 20761.234, 0.000944546, 10.000035, 10.0000515 
1.11524925e+3, 1.352375e+2, -1419907.5, -1532461.5, 190343.47, 0.020856379, 0.06353511, -1277695.9, 336971.13, 0.00045159098, 10.001395, 9.999894 
1.11522496e+3, 1.452365e+2, -1408154.0, -1592085.0, 44309.785, -0.06731615, 0.036451872, -1398036.1, 118639.59, 0.00012308804, 10.001281, 9.998869 
1.11519955e+3, 1.5523407e+2, -1535931.5, -1598638.3, 32991.02, -0.059039164, -0.11257359, -1521771.9, -103071.18, 0.000008505592, 9.999722, 9.9988985 
1.115177e+3, 1.6523285e+2, -1436295.0, -1445560.6, 224920.22, -0.095118456, -0.14299908, -1215959.9, 104751.74, 0.0000000033697685, 9.999502, 9.999381 
1.1151572e+3, 1.752327e+2, -1176709.1, -1271366.9, 211256.23, -0.12310275, -0.110873386, -1007545.06, 215165.44, 0.0, 10.00062, 9.999367 
1.115136e+3, 1.8523169e+2, -1093456.0, -1332655.9, 80510.38, -0.18171631, -0.07072745, -1068882.3, 55838.633, 0.0, 10.0011635, 9.998016 
1.1151133e+3, 1.9522978e+2, -997832.94, -1229897.0, 36821.035, -0.281349, -0.079409435, -992130.75, 34612.652, 0.0, 10.00113, 9.998061 
1.1150928e+3, 2.0522834e+2, -848144.25, -1008504.1, 43299.633, -0.1781997, -0.07016458, -837199.6, 91558.05, 0.0, 10.001048, 9.998949 
1.1150746e+3, 2.152271e+2, -770936.6, -922845.4, 95377.62, 0.11786863, -0.10494818, -724964.94, 105801.8, 0.0, 10.0009165, 9.998929 
1.11505374e+3, 2.2522578e+2, -720395.44, -924236.0, 114063.766, 0.12048397, -0.0881642, -669350.7, 63428.832, 0.0, 10.000934, 9.998234 
1.1150305e+3, 2.3522428e+2, -608396.94, -816613.9, 86603.88, -0.13514225, -0.077758335, -577084.56, 57712.223, 0.0, 10.001016, 9.998261 
1.11500904e+3, 2.4522251e+2, -461580.97, -666287.0, 22146.69, -0.10904208, -0.08812575, -459212.38, 77602.07, 0.0, 10.001222, 9.998522 
1.11498915e+3, 2.552203e+2, -311717.28, -546756.1, 104381.27, 0.17571032, -0.17586976, -272054.44, 166779.94, 0.0, 10.001594, 9.99849 
1.1149663e+3, 2.6521924e+2, -325488.06, -665678.8, 84565.62, 0.16891877, -0.050198566, -305626.13, 35221.258, 0.00000020790911, 10.001527, 9.997032 
1.11494094e+3, 2.7521902e+2, -302924.4, -599539.0, 5225.166, -0.09900323, 0.20516653, -302832.38, -59976.82, 0.0000030041272, 10.000988, 9.997074 
1.1149188e+3, 2.8521568e+2, -182137.66, -465274.22, 19045.781, -0.112644464, 0.15984507, -180862.25, -35972.188, 0.000021469468, 10.001047, 9.997291 
1.1148997e+3, 2.952093e+2, 12353.842, -319373.7, 50144.832, 0.101954885, -0.2310276, 19768.156, 66718.91, 0.00010455908, 10.001696, 9.997309 
1.11487746e+3, 3.0520755e+2, 11375.12, -219448.69, -68574.85, 0.15696059, -0.1620147, 30210.816, 30210.816, 0.00032151054, 10.001021, 9.997991 
1.1148523e+3, 3.1520826e+2, -268023.6, -295644.6, -91507.77, 0.0392101, 0.08268156, -189290.05, -189290.05, 0.0006861148, 9.998825, 9.998516 
1.1252716e+3, 1.252612e+2, -1524455.0, -1601413.8, -107923.08, -0.006539062, -0.022991471, -1448356.6, 264079.78, 0.0010643419, 10.001175, 10.0002 
1.1252498e+3, 1.352619e+2, -1754624.5, -1670650.6, 37159.477, 0.06273843, 0.015236918, -1656568.6, -42141.633, 0.00051804923, 9.99899, 10.000106 
1.12522475e+3, 1.4526135e+2, -1689071.4, -1711819.1, -27740.445, -0.10922376, 0.014982785, -1670463.6, -154032.33, 0.00014661087, 9.999296, 9.998997 
1.12520106e+3, 1.5525949e+2, -1203169.1, -1427732.0, -14886.137, -0.0012231848, -0.09033487, -1202186.6, 216263.45, 0.00001150662, 10.001964, 9.99899 
1.12517856e+3, 1.6525804e+2, -1052668.4, -1354776.6, 181406.1, -0.031302158, -0.10465748, -967660.0, 352803.94, 0.0000000061074554, 10.002534, 9.998548 
1.12515785e+3, 1.7525691e+2, -1132608.6, -1337308.9, 131753.94, -0.15571561, -0.08847547, -1068121.6, 154352.45, 0.0, 10.001296, 9.998589 
1.12513684e+3, 1.8525527e+2, -1169433.5, -1389014.4, 58590.78, -0.19410549, -0.06686769, -1154777.9, -30286.385, 0.0, 10.000732, 9.997831 
1.1251154e+3, 1.9525295e+2, -1048261.06, -1275847.6, 88519.32, -0.16946222, -0.097866766, -1017885.8, 8632.314, 0.0, 10.000866, 9.997875 
1.1250948e+3, 2.0525168e+2, -831436.2, -949136.44, 125615.28, -0.06901533, -0.08433522, -751568.8, 176960.69, 0.0, 10.0009575, 9.999395 
1.1250753e+3, 2.1525118e+2, -719747.0, -844836.75, 108458.1, 0.10676517, -0.09109185, -657092.0, 173437.05, 0.0, 10.001055, 9.999391 
1.12505406e+3, 2.252499e+2, -742348.8, -966197.25, 139872.83, 0.07545362, -0.07753157, -675132.2, 57408.72, 0.0, 10.00091, 9.997962 
1.12503126e+3, 2.3524787e+2, -685833.56, -880211.1, 143957.13, -0.1393216, -0.09287438, -609329.2, 25235.676, 0.0, 10.000594, 9.998028 
1.12501e+3, 2.4524601e+2, -500376.9, -650110.7, 75230.195, -0.10450812, -0.1184945, -469108.8, 67474.63, 0.0, 10.000807, 9.998832 
1.12499036e+3, 2.552441e+2, -306785.7, -513513.72, 15950.427, 0.15616761, -0.20786494, -305562.25, 133036.69, 0.0, 10.001492, 9.99877 
1.1249678e+3, 2.652428e+2, -322632.1, -720711.8, -1751.1068, 0.156633, -0.09262783, -322624.4, 17989.625, 0.00000016860811, 10.0018, 9.996521 
1.1249424e+3, 2.7524182e+2, -221866.77, -615807.44, 40637.824, -0.07614711, 0.1412869, -217718.38, 24912.32, 0.0000038179373, 10.001789, 9.9965725 
1.1249203e+3, 2.8523847e+2, -100613.74, -424430.56, 133170.22, -0.07986324, 0.116459884, -52882.844, 91784.305, 0.000026281929, 10.001592, 9.997312 
1.12490125e+3, 2.952327e+2, -67725.35, -353758.5, 99263.74, 0.12643513, -0.21014263, -36652.777, 10070.57, 0.00011344339, 10.001125, 9.997347 
1.12487845e+3, 3.0523136e+2, -5542.033, -205245.25, -33630.23, 0.1622238, -0.118151985, -30.763329, -30.763329, 0.00033238306, 10.000828, 9.998178 
1.1248517e+3, 3.1523243e+2, -9956.326, -162317.2, -22842.799, 0.023339951, 0.15520371, -6605.307, -6605.307, 0.0006975335, 10.000546, 9.998617 
1.13527365e+3, 1.2528327e+2, -1526819.8, -1589512.4, -178336.66, 0.051338535, -0.13876338, -1377095.5, 335123.1, 0.0011953667, 10.001125, 10.0002985 
1.1352495e+3, 1.3528314e+2, -1742047.4, -1648996.4, -36064.594, 0.11408601, -0.19297023, -1636655.3, -22436.574, 0.00059164723, 9.999017, 10.000241 
1.13522366e+3, 1.4528368e+2, -1631015.0, -1601783.3, 63007.88, -0.16708727, -0.12867054, -1551718.3, -35505.793, 0.00017336896, 9.999339, 9.999736 
1.1352031e+3, 1.5528488e+2, -1160642.6, -1332261.9, 89589.52, 0.0039008092, 0.002236637, -1122397.5, 295802.88, 0.000015247707, 10.001931, 9.999663 
1.1351814e+3, 1.6528383e+2, -1136125.8, -1517309.9, 124008.125, -0.020235822, 0.049978107, -1099334.1, 220878.44, 0.000000009421829, 10.002488, 9.997452 
1.1351589e+3, 1.7528059e+2, -1206501.8, -1490053.1, 93347.49, -0.19095257, -0.03720324, -1178530.3, 43717.95, 0.0, 10.001294, 9.9975395 
1.13513805e+3, 1.8527856e+2, -1096145.9, -1243346.1, 54261.82, -0.15992348, -0.05317025, -1078305.8, 45963.027, 0.0, 10.000755, 9.998822 
1.1351184e+3, 1.9527747e+2, -989045.8, -1141277.0, 99686.09, 0.043856993, -0.061157156, -939738.5, 86539.125, 0.0, 10.000812, 9.998827 
1.1350973e+3, 2.0527631e+2, -857722.94, -992099.2, 119994.055, 0.0630395, -0.06896213, -787387.2, 140898.75, 0.0, 10.000903, 9.999127 
1.1350747e+3, 2.1527494e+2, -750285.4, -888792.2, 116170.42, -0.06897363, -0.13338357, -684292.4, 146002.69, 0.0, 10.000965, 9.999135 
1.1350532e+3, 2.2527389e+2, -729824.0, -915318.7, 117780.695, -0.11194122, -0.105806686, -672656.8, 59647.957, 0.0, 10.000806, 9.998359 
1.1350326e+3, 2.3527296e+2, -678701.8, -841217.0, 141030.72, -0.07008248, -0.05018474, -597194.4, 37122.223, 0.0, 10.000492, 9.998344 
1.1350115e+3, 2.4527115e+2, -606126.25, -854170.56, 92383.54, -0.051230386, -0.013935396, -575499.75, -39162.813, 0.0, 10.000738, 9.997465 
1.13499e+3, 2.5526842e+2, -403594.34, -701391.8, 48019.32, -0.041673634, -0.050168313, -396042.8, 42323.21, 0.0, 10.001434, 9.997509 
1.134968e+3, 2.652657e+2, -232346.31, -522027.7, -6628.6646, -0.008847948, -0.08724344, -232194.72, 108198.484, 0.00000020663475, 10.001747, 9.997914 
1.1349455e+3, 2.7526274e+2, -136380.47, -430286.72, 54546.82, 0.0400054, -0.18965067, -126583.55, 115837.805, 0.0000055002247, 10.001752, 9.997868 
1.1349231e+3, 2.852614e+2, -148706.13, -512067.9, 106185.41, 0.01965818, -0.047082298, -119951.08, 24489.227, 0.00003348711, 10.001544, 9.99673 
1.1349009e+3, 2.9526144e+2, -116001.984, -433597.97, 91033.85, -0.039652128, 0.26084054, -91759.09, -45308.066, 0.00012779766, 10.001038, 9.99684 
1.1348776e+3, 3.052605e+2, 55632.75, -51888.355, -46047.445, -0.013728079, 0.36476985, 72657.54, 72657.54, 0.00035402225, 10.00072, 9.99928 
1.13485254e+3, 3.1525737e+2, 47324.816, -24141.316, -7161.256, 0.013943323, 0.10956012, 48035.344, 48035.344, 0.0007264602, 10.000473, 9.999596 
1.1452737e+3, 1.2530676e+2, -1906980.4, -1804262.1, -103680.92, 0.0823442, -0.11457051, -1739917.0, -27927.06, 0.0013373722, 9.998626, 10.000051 
1.1452495e+3, 1.3530649e+2, -1472233.3, -1546894.1, -59023.496, 0.12651013, -0.15622053, -1439725.8, 174266.66, 0.000672049, 10.000961, 10.000027 
1.1452234e+3, 1.4530686e+2, -1348804.4, -1447924.6, 41201.367, -0.22004619, -0.108929686, -1333914.9, 182073.34, 0.0002032588, 10.001197, 9.999897 
1.1452037e+3, 1.553082e+2, -1472673.9, -1464773.5, 4830.8916, -0.010296376, 0.020596825, -1462483.4, -44509.586, 0.000019742625, 9.999714, 9.999821 
1.14518285e+3, 1.6530736e+2, -1525952.4, -1679945.0, 71406.7, 0.017580511, 0.07075904, -1497937.5, -177954.03, 0.000000013934886, 9.999704, 9.997677 
1.1451609e+3, 1.7530435e+2, -1231559.6, -1478583.9, 120366.42, -0.0990518, -0.015968475, -1182609.3, 39407.742, 0.0, 10.001016, 9.997754 
1.1451398e+3, 1.8530257e+2, -980124.4, -1152315.3, 108222.445, -0.09096803, -0.0332707, -927928.4, 196105.84, 0.0, 10.0014105, 9.999128 
1.14511915e+3, 1.9530176e+2, -928583.9, -1073150.9, 86314.86, 0.018079482, -0.04344527, -888283.4, 137754.88, 0.0, 10.001075, 9.999158 
1.14509776e+3, 2.0530052e+2, -867124.2, -1032589.8, 107495.51, 0.021014996, -0.059969217, -814210.44, 113836.766, 0.0, 10.00099, 9.998814 
1.1450758e+3, 2.1529877e+2, -743566.2, -916424.0, 87866.9, -0.060166374, -0.13303885, -706745.1, 123316.54, 0.0, 10.001148, 9.9988575 
1.1450545e+3, 2.2529767e+2, -660498.6, -872743.06, 81202.25, -0.07959221, -0.10126484, -632995.5, 99076.83, 0.0, 10.001239, 9.998445 
1.1450337e+3, 2.3529695e+2, -560962.2, -775820.9, 65899.84, -0.041357476, -0.032725636, -542360.4, 91721.195, 0.0, 10.001251, 9.998432 
1.1450126e+3, 2.4529523e+2, -591920.1, -881886.25, 74940.05, -0.02731287, 0.023121009, -573697.5, -37595.527, 0.0, 10.000994, 9.997147 
1.1449911e+3, 2.5529248e+2, -546565.44, -796549.3, 91353.49, -0.027203364, 0.0135643855, -516739.94, -78606.336, 0.0, 10.000589, 9.99725 
1.1449694e+3, 2.6528972e+2, -330566.53, -513224.13, 60511.34, -0.0025487721, -0.038112488, -312339.1, 27822.18, 0.00000038376965, 10.00082, 9.998424 
1.1449471e+3, 2.7528682e+2, -126052.086, -368503.94, 41217.094, 0.041155484, -0.18955563, -119236.71, 122951.11, 0.0000075917305, 10.001567, 9.998383 
1.1449243e+3, 2.8528604e+2, -106730.81, -448611.7, 92580.91, -0.0033038377, -0.035010077, -83269.97, 60930.2, 0.0000412879, 10.001637, 9.997127 
1.1449012e+3, 2.952872e+2, -91380.81, -378874.25, 132292.92, -0.101685636, 0.34621415, -39770.07, 6429.1616, 0.00014478626, 10.001019, 9.997229 
1.1448779e+3, 3.0528614e+2, 108406.75, -62310.504, 20441.043, -0.061512582, 0.43380487, 110820.164, 110820.164, 0.00038253577, 10.001214, 9.998976 
1.1448539e+3, 3.1528208e+2, 237041.38, 32413.045, -84429.2, 0.040442176, 0.10918449, 267378.94, 267378.94, 0.00077112904, 10.001929, 9.999276 
1.15527175e+3, 1.2533134e+2, -1937720.1, -1863668.4, 28627.316, -0.009145246, 0.018715918, -1853892.1, -142138.98, 0.001489488, 9.998623, 9.999633 
1.1552496e+3, 1.3533191e+2, -1507895.5, -1614437.8, 30519.219, 0.033646766, 0.105503306, -1499772.5, 113975.86, 0.00075867696, 10.000936, 9.999568 
1.1552236e+3, 1.4533086e+2, -1382057.1, -1517096.0, -22588.127, -0.33750406, 0.05720559, -1378379.0, 137379.13, 0.0002361324, 10.001186, 9.9994335 
1.15520254e+3, 1.5532959e+2, -1491832.9, -1515909.4, -39298.09, -0.11945372, -0.031204898, -1462770.6, -45002.25, 0.000024990082, 9.999754, 9.9994545 
1.15518264e+3, 1.653288e+2, -1415597.6, -1456779.8, 111598.34, 0.0035575104, -0.037975613, -1322706.6, -2931.665, 0.000000023716384, 9.999733, 9.999192 
1.1551637e+3, 1.7532827e+2, -1136417.4, -1270349.3, 172752.42, 0.05527163, -0.027519926, -1018105.56, 203674.53, 0.0, 10.000976, 9.999199 
1.15514174e+3, 1.8532734e+2, -1013572.2, -1216142.9, 85604.33, -0.05372626, -0.0071539963, -982242.25, 141545.53, 0.0, 10.001381, 9.998706 
1.1551171e+3, 1.953259e+2, -963075.7, -1137223.5, 79279.14, -0.30872577, -0.040119123, -932391.2, 93408.28, 0.0, 10.001035, 9.998741 
1.1550961e+3, 2.0532437e+2, -892583.56, -1074672.4, 99584.75, -0.2588512, -0.051815275, -848697.6, 79115.22, 0.0, 10.000942, 9.998546 
1.1550783e+3, 2.1532257e+2, -778265.0, -966635.7, 100200.43, 0.065043114, -0.1014712, -734933.06, 94896.22, 0.0, 10.001046, 9.998565 
1.1550576e+3, 2.2532114e+2, -693733.44, -914050.3, 73333.61, 0.10059451, -0.07756347, -671556.3, 60287.99, 0.0, 10.001124, 9.998213 
1.1550343e+3, 2.3531985e+2, -589648.1, -812024.6, 73619.37, -0.11814434, -0.04343245, -567484.8, 66374.53, 0.0, 10.001157, 9.998227 
1.1550131e+3, 2.4531822e+2, -553917.44, -782180.44, 49061.133, -0.09529921, -0.005527032, -543819.4, -7940.996, 0.0, 10.000904, 9.997873 
1.15499355e+3, 2.5531614e+2, -512624.13, -706549.75, 84560.47, 0.13931978, -0.018990245, -480931.34, -43029.434, 0.0, 10.000504, 9.997908 
1.1549714e+3, 2.653148e+2, -365541.3, -570469.5, 80923.836, 0.11260038, 0.05423551, -337439.13, 2479.6387, 0.0000005356376, 10.000753, 9.998063 
1.1549469e+3, 2.753139e+2, -152913.08, -405223.84, 77131.76, -0.14984365, 0.13939139, -131202.0, 110729.305, 0.000008957139, 10.001488, 9.998168 
1.15492396e+3, 2.8531238e+2, -15204.634, -236649.81, 63474.215, -0.22450839, 0.14782485, 1699.0593, 145646.0, 0.00004724257, 10.001545, 9.998626 
1.1549021e+3, 2.9531e+2, -3528.3442, -190618.22, 127770.2, -0.13535216, 0.03094413, 61280.375, 107247.984, 0.0001595295, 10.000985, 9.998542 
1.15487926e+3, 3.0530807e+2, -38501.996, -346126.1, 44981.18, -0.058894172, 0.07262123, -32059.709, -32059.709, 0.000411773, 10.001137, 9.997055 
1.1548552e+3, 3.1530613e+2, 89567.016, -247473.31, -35426.65, -0.057135586, 0.14738935, 93250.49, 93250.49, 0.0008237991, 10.001819, 9.997403 
1.1652701e+3, 1.2535386e+2, -1768984.1, -1729561.1, 95093.48, -0.07146918, 0.014942848, -1652157.6, 59375.098, 0.0016512593, 9.999559, 10.000085 
1.16525024e+3, 1.3535509e+2, -1764004.9, -1704439.3, 58954.047, 0.09946741, 0.13349853, -1668172.1, -54651.918, 0.0008513687, 9.999037, 9.999861 
1.1652252e+3, 1.4535381e+2, -1675402.9, -1691067.8, 19159.205, -0.19361305, 0.064536795, -1662537.0, -147004.47, 0.00027198074, 9.999324, 9.999131 
1.16520315e+3, 1.5535203e+2, -1421766.9, -1512760.1, -3253.4631, -0.06009031, -0.04506269, -1421650.6, -4100.7793, 0.00003101119, 10.000371, 9.999176 
1.1651829e+3, 1.6535121e+2, -1276857.6, -1335840.0, 142518.89, 0.02465572, -0.06450931, -1160810.6, 158746.06, 0.00000004774233, 10.000458, 9.999673 
1.1651642e+3, 1.753511e+2, -1279454.4, -1287812.3, 112245.8, 0.07809915, -0.056297705, -1171309.8, 50245.758, 0.0, 9.999771, 9.999663 
1.1651427e+3, 1.8535042e+2, -1207834.9, -1316879.9, 27593.682, -0.01738455, -0.032763608, -1201250.0, -77689.625, 0.0, 10.000069, 9.99865 
1.1651187e+3, 1.9534911e+2, -936279.44, -1130305.1, 33500.35, -0.2539207, -0.04886062, -930658.1, 94913.664, 0.0, 10.001242, 9.998691 
1.1650975e+3, 2.0534751e+2, -848711.44, -1086752.6, 54423.684, -0.21685928, -0.04896697, -836858.7, 90728.336, 0.0, 10.001392, 9.99824 
1.16507925e+3, 2.1534552e+2, -852305.44, -1028767.56, 32711.28, 0.07071497, -0.090056606, -846436.8, -16830.049, 0.0, 10.000662, 9.998316 
1.16505824e+3, 2.2534399e+2, -770458.7, -928381.1, 58519.598, 0.0862325, -0.075267166, -751137.56, -19514.666, 0.0, 10.0005, 9.998416 
1.16503514e+3, 2.3534262e+2, -621972.06, -800356.2, 75911.91, -0.13151287, -0.0707577, -594040.94, 39597.09, 0.0, 10.000822, 9.998466 
1.16501376e+3, 2.453415e+2, -458435.72, -649503.3, 78252.81, -0.109178, -0.035162896, -430477.78, 105172.69, 0.0, 10.001178, 9.998655 
1.16499424e+3, 2.553404e+2, -310979.13, -530527.75, 102381.14, 0.11869981, -0.02546778, -270645.84, 167016.16, 0.0, 10.001527, 9.998634 
1.16497226e+3, 2.653396e+2, -287841.44, -574971.1, 124236.11, 0.09470295, 0.08569365, -241549.81, 98125.23, 0.00000056359414, 10.001479, 9.997677 
1.1649481e+3, 2.753388e+2, -236893.02, -487297.4, 93245.91, -0.1475387, 0.22363256, -205985.03, 35706.063, 0.00000928475, 10.001096, 9.997795 
1.1649252e+3, 2.85337e+2, -33560.68, -163150.86, 46803.41, -0.21288826, 0.18750238, -18424.78, 125283.61, 0.000050363375, 10.001061, 9.999362 
1.16490334e+3, 2.9533416e+2, 94586.94, -57212.902, 34259.258, -0.12122417, -0.05232132, 101960.63, 147688.64, 0.00017032117, 10.001301, 9.999297 
1.16488084e+3, 3.0533218e+2, 59531.83, -304454.84, 58912.074, -0.037227012, -0.05372093, 68829.39, 68829.39, 0.0004381968, 10.001829, 9.997019 
1.1648578e+3, 3.1533116e+2, 156096.88, -220751.2, 93784.48, 0.005439182, 0.12327925, 178146.45, 178146.45, 0.0008746987, 10.002297, 9.997368 
1.1752687e+3, 1.2537459e+2, -1688290.0, -1556445.3, 108347.43, -0.21332502, -0.11949337, -1495541.4, 215784.89, 0.0018234614, 9.999542, 10.001283 
1.17525086e+3, 1.3537623e+2, -1701143.1, -1571523.5, 43217.355, 0.24733622, -0.05452752, -1558435.5, 54870.484, 0.0009506097, 9.999022, 10.000783 
1.1752279e+3, 1.4537583e+2, -1689181.5, -1712351.9, 48154.754, 0.12727632, -0.073879205, -1651238.0, -135927.44, 0.00031097958, 9.999292, 9.999 
1.1752052e+3, 1.5537545e+2, -1433667.8, -1537525.8, 41721.098, 0.088418044, -0.029307552, -1418983.9, -1664.905, 0.00003785508, 10.000374, 9.999002 
1.1751832e+3, 1.6537453e+2, -1314104.6, -1417912.5, 108275.516, 0.004274823, -0.020770622, -1245935.3, 73393.92, 0.00000010132158, 10.000476, 9.999101 
1.1751625e+3, 1.7537299e+2, -1314452.9, -1362007.1, 96592.92, -0.084933996, -0.10499282, -1238753.6, -17411.441, 0.0, 9.999776, 9.999151 
1.1751427e+3, 1.8537202e+2, -1184809.9, -1267920.9, 63005.766, -0.044475313, -0.10179302, -1150889.6, -27539.633, 0.0, 10.000066, 9.998986 
1.1751237e+3, 1.953714e+2, -923348.5, -1091741.4, 84333.67, 0.101068996, -0.08191933, -888376.1, 136978.64, 0.0, 10.001188, 9.998982 
1.1751019e+3, 2.0536998e+2, -885255.3, -1144107.9, 18281.982, 0.064806536, -0.05911102, -883970.5, 43398.598, 0.0, 10.001314, 9.997885 
1.17507815e+3, 2.153677e+2, -888141.5, -1083685.4, 14056.003, -0.112354316, -0.0942421, -887136.25, -57743.215, 0.0, 10.000572, 9.997985 
1.1750562e+3, 2.2536619e+2, -737923.94, -835518.44, 61828.01, -0.17723972, -0.09592741, -707956.5, 23451.982, 0.0, 10.000392, 9.999106 
1.1750359e+3, 2.3536526e+2, -588915.7, -704469.2, 97220.05, -0.15065517, -0.11878193, -533600.06, 99817.484, 0.0, 10.000709, 9.999178 
1.17501475e+3, 2.4536502e+2, -416476.5, -539540.5, 83544.41, -0.14727917, -0.06777235, -374249.88, 161168.5, 0.0, 10.001076, 9.999462 
1.17499314e+3, 2.5536525e+2, -261847.23, -415480.66, 123424.305, -0.15986747, -0.0112117035, -193287.31, 244126.45, 0.0, 10.00147, 9.999451 
1.1749718e+3, 2.6536408e+2, -333160.72, -654982.8, 100981.34, -0.11323564, 0.050906148, -304099.16, 35331.273, 0.0000005132723, 10.001416, 9.997159 
1.1749507e+3, 2.7536145e+2, -284065.38, -569845.2, 90113.47, -0.025632782, 0.052941587, -258023.44, -16555.498, 0.000009286575, 10.001032, 9.997258 
1.17492825e+3, 2.8536e+2, -50373.844, -185579.45, 48830.52, -0.039930403, 0.0881527, -34582.65, 108901.64, 0.00005131962, 10.001003, 9.999238 
1.1749046e+3, 2.9535958e+2, 97400.89, -52298.008, 53540.598, -0.13737735, 0.09681187, 114578.805, 160061.16, 0.00017691198, 10.00129, 9.999342 
1.1748826e+3, 3.053583e+2, 193534.33, -3132.8599, 74075.28, -0.0643446, 0.048749086, 218313.05, 218313.05, 0.00045575172, 10.001745, 9.999124 
1.1748611e+3, 3.153574e+2, 281709.88, 64009.77, 135405.17, 0.074416436, 0.03267633, 346592.06, 346592.06, 0.00090608484, 10.002208, 9.999362 
1.1852689e+3, 1.2539665e+2, -1695628.3, -1516793.9, 112393.59, -0.11914431, -0.11900488, -1462587.4, 248522.55, 0.0020081834, 9.999311, 10.001665 
1.1852489e+3, 1.3539812e+2, -1863359.1, -1632754.5, -50183.82, 0.21137509, -0.09092868, -1622306.9, -9216.704, 0.0010574218, 9.997827, 10.000948 
1.1852274e+3, 1.4539807e+2, -1822465.4, -1739958.4, 60310.855, 0.20865591, -0.099378645, -1708141.8, -193050.61, 0.00035351914, 9.998229, 9.999316 
1.18520565e+3, 1.5539819e+2, -1426293.5, -1498786.3, 59138.066, 0.11113269, -0.036911782, -1393177.8, 23918.027, 0.00004562391, 10.0002775, 9.999311 
1.18518375e+3, 1.6539767e+2, -1251823.5, -1408680.3, 97100.72, -0.01845925, 0.006323325, -1205433.8, 113669.64, 0.00000019883093, 10.000989, 9.99892 
1.185162e+3, 1.7539646e+2, -1201645.8, -1321058.9, 99771.91, -0.14365683, -0.030281613, -1145079.8, 76035.17, 0.0, 10.00061, 9.999028 
1.18514255e+3, 1.8539546e+2, -1117809.1, -1200317.4, 133314.86, -0.07319556, -0.039508887, -1019511.25, 103612.08, 0.0, 10.000384, 9.999294 
1.1851249e+3, 1.9539456e+2, -1021201.0, -1097185.8, 130464.38, 0.15472563, -0.07947031, -923309.7, 101820.43, 0.0, 10.000351, 9.999342 
1.18510336e+3, 2.0539357e+2, -940452.25, -1098073.4, 99351.484, 0.12096528, -0.06409795, -892448.7, 34689.95, 0.0, 10.000617, 9.998543 
1.18507884e+3, 2.1539229e+2, -764371.75, -952692.0, 159239.3, -0.123542, -0.064649954, -673536.5, 155614.53, 0.0, 10.001118, 9.998623 
1.18505664e+3, 2.2539091e+2, -645156.6, -828280.8, 222155.27, -0.2010886, -0.06448658, -496434.34, 234730.73, 0.0, 10.00119, 9.998768 
1.1850366e+3, 2.3538937e+2, -584967.4, -739013.2, 161211.92, -0.14181432, -0.11377648, -483323.53, 149858.03, 0.0, 10.000887, 9.998856 
1.18501574e+3, 2.4538879e+2, -476263.56, -580199.94, 100374.0, -0.13184397, -0.07792699, -415202.4, 119984.11, 0.0, 10.000717, 9.999357 
1.1849941e+3, 2.5538883e+2, -379199.5, -484178.1, 52296.633, -0.16029222, -0.027770901, -357593.8, 79589.805, 0.0, 10.000713, 9.999348 
1.1849729e+3, 2.653877e+2, -367841.13, -600199.6, 47559.973, -0.10882098, 0.013195365, -358483.25, -19285.117, 0.0000005059796, 10.00088, 9.99779 
1.1849519e+3, 2.753854e+2, -222689.44, -475253.88, 102159.945, 0.0018681326, -0.015890522, -186540.58, 54689.44, 0.000009353779, 10.001181, 9.997833 
1.1849297e+3, 2.8538427e+2, -23354.693, -212223.83, 119278.39, -0.0047562895, 0.043612015, 34346.277, 177589.88, 0.000051335024, 10.001381, 9.998863 
1.1849064e+3, 2.9538426e+2, 98199.336, -87744.11, 82058.78, -0.09369363, 0.13459934, 129233.195, 174473.88, 0.00017968877, 10.001475, 9.999 
1.1848843e+3, 3.0538288e+2, 167579.06, 46811.27, 31138.416, -0.03453143, 0.06414042, 175134.95, 175134.95, 0.00045955076, 10.00127, 9.999702 
1.18486255e+3, 3.1538254e+2, 92305.195, 42703.766, -57953.73, 0.09340028, 0.04464718, 130541.85, 130541.85, 0.0009064869, 10.000569, 10.000013 
1.19527005e+3, 1.2541996e+2, -1725281.5, -1563604.8, 15085.893, 0.024826366, -0.0028168838, -1562209.1, 148675.38, 0.0022081332, 9.999249, 10.001369 
1.19524404e+3, 1.3542072e+2, -1886624.6, -1687227.3, -93767.055, -0.069455095, -0.002529862, -1650060.6, -37188.58, 0.0011730703, 9.997855, 10.000557 
1.1952236e+3, 1.454206e+2, -1773527.0, -1647936.3, 130676.375, -0.005878976, -0.034506287, -1565750.4, -50877.156, 0.00040013902, 9.998266, 9.999932 
1.19520456e+3, 1.554204e+2, -1387317.5, -1414391.0, 140533.14, -0.0365185, -0.06427526, -1259670.6, 157208.1, 0.00005450229, 10.000255, 9.999906 
1.195184e+3, 1.6542074e+2, -1238971.4, -1373535.6, 69828.59, -0.104426295, 0.02482937, -1209284.9, 109593.484, 0.00000035173326, 10.00095, 9.999182 
1.1951626e+3, 1.7542145e+2, -1191273.4, -1289472.9, 91520.3, -0.16084036, 0.15630372, -1136513.9, 84360.36, 0.0, 10.000566, 9.999269 
1.1951421e+3, 1.8542066e+2, -1103371.6, -1166717.9, 122793.73, -0.17306149, 0.14391594, -1008232.0, 114648.98, 0.0, 10.000366, 9.999535 
1.1951223e+3, 1.954185e+2, -1009111.06, -1060543.4, 137071.63, -0.15029737, -0.045343317, -895364.1, 129534.22, 0.0, 10.000295, 9.999625 
1.1951018e+3, 2.0541817e+2, -833036.2, -854546.5, 106679.35, -0.10377031, -0.069322355, -736571.25, 190325.83, 0.0, 10.000532, 10.000253 
1.19508095e+3, 2.1541919e+2, -671398.0, -730410.5, 181578.28, -0.03211998, -0.010461325, -516944.22, 311937.34, 0.0, 10.000996, 10.000205 
1.1950594e+3, 2.2541808e+2, -756947.5, -1035501.75, 200684.0, -0.060655076, 0.011231658, -651945.75, 78947.734, 0.0, 10.001079, 9.9974 
1.1950374e+3, 2.3541504e+2, -691089.25, -940033.25, 156662.67, -0.17167032, -0.051894363, -615470.06, 17459.703, 0.0, 10.000804, 9.997515 
1.1950166e+3, 2.4541286e+2, -558375.2, -735340.7, 91220.695, -0.13073435, -0.059210647, -519773.7, 15180.85, 0.0, 10.000648, 9.998329 
1.194997e+3, 2.5541124e+2, -455329.22, -622519.94, 60611.44, 0.040822595, -0.07300386, -435667.94, 1303.0746, 0.0, 10.000629, 9.998438 
1.1949754e+3, 2.654106e+2, -261299.2, -362429.38, 52083.22, 0.030692182, -0.024172822, -239273.05, 99704.25, 0.0000006389743, 10.000803, 9.999464 
1.19495176e+3, 2.7541074e+2, -116032.305, -239874.4, 124290.27, -0.14002503, 0.020318534, -39092.668, 201884.03, 0.000009301616, 10.0011215, 9.999477 
1.1949295e+3, 2.8540987e+2, -79242.53, -318530.56, 115252.81, -0.17250505, 0.06250516, -32760.387, 110225.31, 0.000051838055, 10.001331, 9.99816 
1.1949082e+3, 2.9540807e+2, 40901.73, -200308.98, 97955.695, -0.07705076, 0.042293806, 75670.02, 120674.336, 0.00018142357, 10.001437, 9.998248 
1.19488575e+3, 3.0540577e+2, 66982.25, -129868.94, -5.986931, -0.03028329, -0.0187569, 66982.25, 66982.25, 0.00045547623, 10.001145, 9.998541 
1.1948616e+3, 3.1540644e+2, 10614.149, -78752.53, -62657.516, -0.09252773, 0.16700242, 42889.016, 42889.016, 0.0008857679, 10.00038, 9.999259 
1.20526955e+3, 1.2544249e+2, -1958147.6, -1690958.0, -56709.477, 0.1334195, 0.10914735, -1679420.0, 31246.629, 0.0024257244, 9.99771, 10.001247 
1.2052426e+3, 1.3544218e+2, -1622686.8, -1555647.5, -110034.02, -0.08669587, 0.005220277, -1474140.9, 138524.52, 0.0012988481, 9.999657, 10.000588 
1.2052231e+3, 1.4544229e+2, -1533000.4, -1506842.6, 131763.14, 0.047701158, -0.01839004, -1387510.9, 127152.61, 0.00045139206, 9.999799, 10.000168 
1.2052034e+3, 1.5544239e+2, -1659519.4, -1513253.1, 94537.055, -0.07883318, -0.046176918, -1466863.5, -50199.0, 0.00006471426, 9.998248, 10.000196 
1.20518334e+3, 1.6544315e+2, -1615642.5, -1489727.6, 52446.5, -0.11674609, 0.04006591, -1470744.4, -152085.17, 0.00000057087306, 9.998095, 9.999752 
1.2051637e+3, 1.7544433e+2, -1334279.4, -1293842.1, 76747.57, -0.035209913, 0.16313745, -1234694.6, -14044.466, 0.0, 9.999314, 9.999835 
1.205143e+3, 1.8544392e+2, -1211621.1, -1203660.5, 106619.125, -0.06165131, 0.1513816, -1100947.4, 21706.035, 0.0, 9.999558, 9.999665 
1.2051214e+3, 1.9544195e+2, -1185306.0, -1126239.8, 100789.48, -0.18980038, -0.034314822, -1050745.6, -26076.621, 0.0, 9.999004, 9.999788 
1.20510094e+3, 2.0544174e+2, -1066409.8, -931112.25, 50012.555, -0.1471424, -0.06908156, -914632.44, 12033.643, 0.0, 9.998771, 10.000575 
1.2050816e+3, 2.1544288e+2, -965711.56, -838854.44, 6009.529, 0.045859296, -0.03179141, -838570.4, -9921.222, 0.0, 9.998816, 10.000516 
1.2050609e+3, 2.2544213e+2, -951294.0, -1119082.3, 67432.27, 0.052975234, 0.0039349296, -927552.94, -196895.22, 0.0, 9.999706, 9.997488 
1.2050391e+3, 2.3543955e+2, -610240.8, -893516.8, 112812.02, -0.09656887, -0.016995654, -570804.56, 61884.957, 0.0, 10.00133, 9.997581 
1.20501846e+3, 2.4543735e+2, -391677.28, -679365.56, 111835.87, -0.06312701, -0.019185117, -353317.16, 181398.31, 0.0, 10.001902, 9.998101 
1.2049988e+3, 2.5543523e+2, -329561.06, -584182.06, 125190.86, 0.115039974, -0.060813982, -278319.84, 158418.22, 0.00000000020898414, 10.001589, 9.998235 
1.2049768e+3, 2.6543465e+2, -150678.98, -274828.4, 116279.66, 0.070153855, -0.01544714, -80942.37, 257800.7, 0.00000074892756, 10.001417, 9.999763 
1.20495275e+3, 2.7543524e+2, -60256.133, -181326.6, 64645.16, -0.16271886, 0.04679369, -32227.768, 208507.03, 0.000009032264, 10.001364, 9.999757 
1.20493054e+3, 2.8543425e+2, -84218.99, -346470.78, 39682.1, -0.19287811, 0.07075473, -78346.09, 64398.44, 0.000052112464, 10.001401, 9.997941 
1.2049099e+3, 2.9543173e+2, 22027.613, -237814.56, 34568.914, -0.04632419, 0.0043521863, 26547.959, 71319.21, 0.00018285186, 10.001425, 9.998001 
1.2048872e+3, 3.0542877e+2, 101785.33, -177527.45, -13411.11, -0.010988308, -0.0799332, 102427.78, 102427.78, 0.00045304873, 10.001671, 9.997953 
1.2048628e+3, 3.1542957e+2, 198788.92, -14904.84, -72624.266, -0.07428401, 0.18347582, 221133.92, 221133.92, 0.00086639443, 10.001806, 9.999003 
1.21526584e+3, 1.2546389e+2, -1962059.5, -1692071.0, -95021.56, -0.023916522, 0.1564666, -1661981.9, 48478.176, 0.0026624324, 9.997688, 10.001247 
1.21524416e+3, 1.3546275e+2, -1610597.6, -1521133.4, -32410.734, 0.09764586, -0.054778855, -1510625.9, 101841.62, 0.0014356553, 9.999622, 10.000841 
1.2152256e+3, 1.4546333e+2, -1530929.1, -1498060.3, 66748.84, 0.2871061, -0.048118424, -1445752.4, 68707.945, 0.0005075534, 9.9997835, 10.000233 
1.2152017e+3, 1.5546423e+2, -1656361.3, -1508072.3, 50598.01, -0.09351545, 0.0041248943, -1492452.9, -76000.664, 0.000076397075, 9.998253, 10.000232 
1.2151814e+3, 1.6546492e+2, -1556112.6, -1369968.4, 89732.46, -0.13704403, 0.039253782, -1333756.6, -15311.194, 0.0000008702971, 9.998111, 10.000565 
1.2151652e+3, 1.754653e+2, -1284100.4, -1184276.9, 126255.07, 0.16742349, 0.0011153804, -1098425.9, 122015.31, 0.0, 9.999287, 10.000603 
1.2151453e+3, 1.8546535e+2, -1206119.3, -1186736.1, 75499.18, 0.18880379, -0.00811394, -1120309.0, 2130.4116, 0.0, 9.999536, 9.999792 
1.21512204e+3, 1.9546492e+2, -1189119.9, -1124092.3, 87832.516, -0.04592686, -0.04900156, -1062948.8, -38507.207, 0.0, 9.99896, 9.999826 
1.21510044e+3, 2.0546438e+2, -1147847.9, -1084220.6, 41289.516, -0.08978034, -0.06542915, -1063910.1, -137464.89, 0.0, 9.998705, 9.999553 
1.2150805e+3, 2.1546361e+2, -1044131.2, -977618.5, 16969.334, 0.03921407, -0.118569106, -973539.3, -145087.89, 0.0, 9.998714, 9.999608 
1.21506095e+3, 2.2546321e+2, -862223.4, -913895.7, 117991.08, 0.073797785, -0.07931938, -767272.94, -36816.87, 0.0, 9.999614, 9.998945 
1.2150417e+3, 2.3546301e+2, -523572.5, -690953.25, 178303.92, 0.025075652, -0.012839998, -410294.97, 222165.48, 0.0, 10.001232, 9.999021 
1.2150211e+3, 2.454623e+2, -367973.84, -604170.6, 93740.84, -0.0013158274, 0.037179165, -335292.34, 199176.88, 0.0, 10.001793, 9.998667 
1.21499926e+3, 2.5546092e+2, -304674.6, -517561.7, 122539.72, -0.0021170664, 0.013514305, -248803.0, 187680.92, 0.00000000018849695, 10.001529, 9.998719 
1.21497706e+3, 2.6545984e+2, -236216.22, -441055.88, 106811.02, -0.054362014, 0.041338775, -190654.9, 147840.42, 0.00000061447383, 10.001363, 9.998651 
1.2149545e+3, 2.754588e+2, -141159.64, -338452.75, 71916.37, -0.14404076, 0.05412194, -117727.92, 122777.58, 0.000008322687, 10.00131, 9.998706 
1.2149325e+3, 2.8545728e+2, -86699.67, -325191.94, 32787.004, -0.14923277, 0.065370575, -82274.35, 60246.426, 0.000050693892, 10.001294, 9.9981365 
1.2149111e+3, 2.9545522e+2, 30439.426, -207903.66, 50655.555, -0.085070066, 0.02466728, 40758.586, 85299.74, 0.00018217303, 10.001374, 9.998228 
1.2148887e+3, 3.054518e+2, 79466.27, -205652.17, -12222.13, -0.04387724, -0.11212665, 79989.234, 79989.234, 0.00045205725, 10.001596, 9.997795 
1.21486574e+3, 3.1545162e+2, 202138.05, 23606.275, -42893.707, 0.0028731849, 0.06643091, 211908.86, 211908.86, 0.00085648143, 10.001686, 9.999317 
1.2252641e+3, 1.2548509e+2, -1992887.8, -1771724.9, -4287.7236, 0.023832386, 0.057202715, -1771641.8, -61393.26, 0.0029179724, 9.997715, 10.000704 
1.2252438e+3, 1.3548495e+2, -1762172.0, -1624115.9, 71960.93, 0.15309504, -0.026721997, -1593428.1, 18822.191, 0.0015834377, 9.9987, 10.000581 
1.2252249e+3, 1.4548577e+2, -1634140.4, -1546042.6, 83882.01, 0.28474393, 0.016300566, -1495347.1, 18895.064, 0.00056846405, 9.999077, 10.000238 
1.2252007e+3, 1.5548617e+2, -1551091.9, -1450660.5, 44963.945, -0.036386263, 0.0131368525, -1433471.6, -17233.506, 0.00008951281, 9.998956, 10.0002775 
1.2251803e+3, 1.654866e+2, -1469496.8, -1323547.8, 118815.14, -0.08336163, 0.017455054, -1257086.5, 61146.402, 0.0000012652538, 9.998661, 10.000634 
1.2251638e+3, 1.7548701e+2, -1429887.8, -1244701.6, 93619.125, 0.15533057, -0.026613906, -1205620.8, 14606.726, 0.0, 9.99823, 10.000707 
1.2251443e+3, 1.854872e+2, -1379271.8, -1268740.1, 18892.48, 0.20084585, -0.0288284, -1265600.3, -143375.53, 0.0, 9.99834, 9.999811 
1.2251221e+3, 1.9548696e+2, -1188347.3, -1120214.6, 5974.013, 0.06571199, -0.051979184, -1119694.8, -95468.87, 0.0, 9.998954, 9.999859 
1.2251006e+3, 2.0548645e+2, -1004903.8, -1057967.0, 20240.178, 0.0000753546, -0.049745917, -998064.94, -71833.84, 0.0, 9.999863, 9.999177 
1.2250798e+3, 2.154855e+2, -738108.94, -866484.0, 28806.096, 0.0049331225, -0.082554094, -731941.44, 96299.75, 0.0, 10.000971, 9.999285 
1.2250607e+3, 2.254852e+2, -629813.25, -726176.06, 126301.266, 0.034772173, -0.053904153, -542815.3, 187429.13, 0.0, 10.00088, 9.999621 
1.2250427e+3, 2.3548529e+2, -683331.2, -695486.75, 107059.586, 0.0741184, -0.02668142, -582177.0, 50066.164, 0.0, 9.999812, 9.999676 
1.2250224e+3, 2.4548511e+2, -617745.0, -704153.2, 2942.3472, 0.038044628, 0.034688387, -617644.94, -83399.14, 0.0, 9.999985, 9.998859 
1.2250001e+3, 2.5548452e+2, -338294.47, -513398.6, -12560.657, -0.05651614, 0.07127217, -337398.06, 98855.25, 0.0, 10.001214, 9.998901 
1.2249781e+3, 2.6548308e+2, -239058.44, -494694.72, -25211.67, -0.08227497, 0.08173843, -236595.7, 101673.164, 0.0000003685213, 10.00157, 9.998185 
1.2249565e+3, 2.7548084e+2, -197581.9, -413971.03, -29744.443, -0.053843, 0.017297747, -193567.75, 46724.918, 0.0000073761885, 10.001143, 9.998267 
1.2249345e+3, 2.854795e+2, -67386.98, -276194.8, -6017.7314, -0.060630657, 0.05129557, -67213.695, 75092.22, 0.00004908337, 10.001244, 9.998494 
1.2249125e+3, 2.9547888e+2, 92792.664, -143875.81, 4214.783, -0.0934196, 0.11445879, 92867.7, 137179.22, 0.00018062291, 10.001654, 9.998533 
1.2248905e+3, 3.0547535e+2, 130904.836, -219501.08, -43028.375, -0.042764045, -0.029713063, 136111.19, 136111.19, 0.00044944658, 10.002102, 9.997467 
1.22486904e+3, 3.1547308e+2, 298675.03, 67526.94, -122971.195, 0.14132404, -0.02550131, 351859.03, 351859.03, 0.0008490022, 10.002312, 9.999344 
1.2352632e+3, 1.2550592e+2, -2042441.1, -1878250.9, -32572.906, 0.13264896, -0.20177902, -1872025.0, -161990.33, 0.0031899144, 9.997735, 9.999959 
1.2352414e+3, 1.3550876e+2, -1808580.8, -1718295.6, 109678.79, 0.024052875, 0.07869369, -1644832.6, -32818.063, 0.0017411282, 9.9986925, 9.999934 
1.2352211e+3, 1.4550953e+2, -1641149.6, -1563375.1, 71077.09, -0.02450294, 0.15320946, -1521242.9, -7232.7607, 0.0006337289, 9.99908, 10.000124 
1.2352005e+3, 1.555081e+2, -1554713.5, -1470159.0, 45048.867, 0.027601164, -0.017162263, -1450656.3, -34633.047, 0.00010392506, 9.998988, 10.000138 
1.2351797e+3, 1.6550818e+2, -1498824.5, -1383464.4, 89778.664, -0.021076167, -0.022831302, -1334433.6, -16411.557, 0.0000017603737, 9.998664, 10.0002165 
1.23515934e+3, 1.7550948e+2, -1460572.6, -1308987.9, 84351.17, -0.1250888, 0.06538342, -1271380.0, -51370.87, 0.0, 9.998232, 10.000263 
1.23514004e+3, 1.8550943e+2, -1388330.8, -1287434.3, 33035.74, -0.07955294, 0.070666604, -1277580.0, -155570.73, 0.0, 9.998341, 9.999682 
1.23512134e+3, 1.9550811e+2, -1200188.0, -1137929.0, 38312.637, 0.08256457, -0.04920884, -1119693.5, -95671.63, 0.0, 9.998922, 9.999755 
1.2351012e+3, 2.0550793e+2, -994654.6, -1017532.5, 50482.688, 0.05686656, -0.023691768, -954331.1, -28307.35, 0.0, 9.9997835, 9.999492 
1.2350797e+3, 2.155086e+2, -734089.56, -834755.8, 72528.01, -0.11862944, 0.072390296, -696140.56, 131877.67, 0.0, 10.000868, 9.999553 
1.2350601e+3, 2.255081e+2, -654128.7, -751014.06, 76761.54, -0.13288875, 0.07540249, -611802.3, 118220.43, 0.0, 10.000769, 9.999506 
1.2350418e+3, 2.3550647e+2, -708403.7, -724804.1, 79424.38, -0.016034534, -0.056507386, -636757.3, -4720.087, 0.0, 9.999715, 9.999521 
1.2350219e+3, 2.4550585e+2, -641644.4, -735831.7, 40952.363, -0.020284101, -0.018370332, -626328.8, -92284.484, 0.0, 9.9999075, 9.998678 
1.2350009e+3, 2.5550598e+2, -355950.4, -538965.4, 38936.926, -0.117496274, 0.10246828, -348010.88, 88035.78, 0.0, 10.001158, 9.998756 
1.23497985e+3, 2.6550436e+2, -245779.48, -483546.6, -48116.695, -0.08607864, 0.09447092, -236411.28, 101653.35, 0.00000016286783, 10.001468, 9.998308 
1.23495884e+3, 2.7550122e+2, -197149.14, -398150.75, -32474.63, 0.04256411, -0.07056109, -192032.66, 48064.254, 0.000006622681, 10.001081, 9.998404 
1.23493664e+3, 2.8550082e+2, -45686.145, -208586.92, 4169.3203, 0.0046012877, 0.022186581, -45579.504, 96521.36, 0.0000487502, 10.001153, 9.999001 
1.2349137e+3, 2.9550245e+2, 115603.08, -83996.734, 32669.525, -0.15339091, 0.26233086, 120814.21, 164897.95, 0.00018150224, 10.001597, 9.998974 
1.2348921e+3, 3.054992e+2, 79435.68, -306290.63, -36139.39, -0.09863504, 0.15646896, 82792.43, 82792.43, 0.00045012333, 10.002016, 9.996913 
1.23487204e+3, 3.1549397e+2, 273592.8, 39431.145, -87030.38, 0.18557777, -0.087571606, 302396.22, 302396.22, 0.0008459935, 10.002213, 9.999195 
1.24526076e+3, 1.2552744e+2, -1940206.0, -1817589.5, -109281.87, 0.09564063, -0.2002218, -1753593.3, -43769.6, 0.003475539, 9.99841, 10.000043 
1.24524035e+3, 1.3553001e+2, -1876020.9, -1753577.8, 30155.855, 0.091339864, 0.054863323, -1746553.8, -134748.81, 0.0019075654, 9.998242, 9.999916 
1.2452187e+3, 1.4553048e+2, -1787336.6, -1647695.5, 18585.037, -0.1228528, 0.10802051, -1645264.4, -131460.66, 0.0007030745, 9.998132, 10.000006 
1.2451994e+3, 1.5552971e+2, -1652560.3, -1528486.3, -22494.307, 0.04555921, 0.012088242, -1524534.0, -108721.95, 0.00011956255, 9.998373, 10.000034 
1.2451788e+3, 1.6552968e+2, -1505079.9, -1426474.0, 41554.945, 0.02158818, 0.01991465, -1408579.6, -90766.59, 0.0000023468863, 9.9988, 9.999851 
1.2451577e+3, 1.7553018e+2, -1321958.4, -1278256.9, 21942.074, -0.16528834, 0.06570362, -1269141.4, -49332.82, 0.0, 9.99935, 9.999927 
1.2451382e+3, 1.8553019e+2, -1206244.8, -1190225.3, 4112.5605, -0.14076585, 0.08550231, -1189231.1, -67422.61, 0.0, 9.999539, 9.999772 
1.24512024e+3, 1.9552954e+2, -1120924.3, -1091959.1, 13017.866, 0.06506231, 0.022316912, -1086968.4, -63153.855, 0.0, 9.999421, 9.999832 
1.2451008e+3, 2.0552936e+2, -1065211.9, -1050955.6, 48126.477, 0.07669112, 0.043587767, -1009432.25, -83615.85, 0.0, 9.9992895, 9.999504 
1.2450802e+3, 2.1552949e+2, -985250.2, -949769.7, 30446.271, -0.0676848, 0.08265124, -932272.3, -104456.516, 0.0, 9.999117, 9.999607 
1.2450606e+3, 2.2552907e+2, -829272.25, -825265.4, 29634.38, -0.0898421, 0.08611406, -797566.8, -67747.484, 0.0, 9.999528, 9.999591 
1.2450417e+3, 2.3552796e+2, -598868.94, -659503.7, 31659.15, -0.011104912, -0.0030229648, -585352.0, 46476.703, 0.0, 10.000417, 9.999628 
1.2450221e+3, 2.455273e+2, -485031.2, -632858.25, 62465.28, -0.029154716, 0.009004079, -462171.16, 71664.875, 0.0, 10.000862, 9.998926 
1.2450017e+3, 2.555269e+2, -375454.2, -520973.03, 73773.83, -0.1234817, 0.055746477, -344596.47, 91245.8, 0.0, 10.00091, 9.998995 
1.2449811e+3, 2.655258e+2, -271261.03, -488926.2, -8114.6606, -0.09417416, 0.082260005, -270958.94, 66896.9, 0.000000050542315, 10.001252, 9.998375 
1.24496005e+3, 2.7552393e+2, -90942.73, -347441.3, -16182.984, 0.034013934, 0.04132134, -89925.75, 149951.31, 0.0000061370592, 10.001794, 9.998417 
1.2449384e+3, 2.8552306e+2, 28769.383, -228163.03, -5736.651, 0.033671163, 0.11446153, 28897.404, 170783.72, 0.000049450737, 10.001908, 9.998506 
1.2449162e+3, 2.9552278e+2, 89723.89, -145594.16, -73984.95, -0.06184902, 0.21174735, 111051.984, 154940.16, 0.00018681613, 10.001643, 9.998526 
1.24489464e+3, 3.0552006e+2, 119474.15, -276213.63, -104959.9, -0.04783805, 0.17218325, 145591.83, 145591.83, 0.00046226173, 10.002228, 9.997022 
1.2448745e+3, 3.155157e+2, 468826.7, 164727.48, -135415.36, 0.15724906, 0.0037669989, 520385.53, 520385.53, 0.0008624877, 10.003423, 9.999474 
1.2552574e+3, 1.255502e+2, -1876945.6, -1694684.6, -53308.125, -0.10609262, 0.087296054, -1680238.1, 29371.242, 0.0037739007, 9.998441, 10.000871 
1.2552407e+3, 1.3554892e+2, -1835164.6, -1682850.4, 25313.37, 0.28757912, -0.09844933, -1678753.6, -67134.41, 0.0020822603, 9.998285, 10.000387 
1.2552173e+3, 1.4554894e+2, -1788602.0, -1653711.6, 15382.034, -0.08223839, -0.10707742, -1651979.8, -138359.47, 0.0007764397, 9.998148, 9.999954 
1.255197e+3, 1.5555105e+2, -1650376.9, -1532669.0, -5285.59, -0.04373934, 0.08797495, -1532432.1, -116828.414, 0.00013646827, 9.998405, 9.999991 
1.2551774e+3, 1.6555104e+2, -1533196.1, -1485209.1, 51819.434, -0.0135369385, 0.122665584, -1452098.0, -134491.88, 0.0000030208696, 9.998802, 9.999447 
1.2551586e+3, 1.7554927e+2, -1349051.5, -1332601.9, 46809.273, -0.031480223, -0.021056212, -1293300.4, -73675.95, 0.0, 9.999337, 9.999561 
1.2551388e+3, 1.8554953e+2, -1181199.9, -1133536.5, -10159.422, -0.053748466, 0.021434855, -1131461.4, -9839.636, 0.0, 9.999517, 10.000174 
1.2551187e+3, 1.9555128e+2, -1099306.3, -1040125.56, 15017.364, -0.05814299, 0.15625168, -1036532.94, -12929.01, 0.0, 9.999387, 10.000205 
1.2550995e+3, 2.0555073e+2, -1095130.5, -1093077.9, 32223.285, -0.002015904, 0.13750522, -1061864.6, -136255.67, 0.0, 9.999208, 9.999254 
1.255081e+3, 2.1554828e+2, -1015397.7, -991079.44, 33538.688, 0.091099374, -0.05405082, -967563.8, -139930.69, 0.0, 9.999026, 9.99937 
1.2550619e+3, 2.2554816e+2, -824485.9, -791174.4, 54064.42, 0.08788288, -0.02331896, -751258.25, -21624.172, 0.0, 9.999423, 9.999876 
1.2550426e+3, 2.355498e+2, -587538.9, -619343.4, 71208.32, 0.019937534, 0.12940228, -530478.8, 101139.055, 0.0, 10.0003395, 9.999945 
1.2550229e+3, 2.455494e+2, -451694.7, -540317.5, 56108.59, -0.054178804, 0.11752229, -424510.13, 109110.67, 0.0, 10.000761, 9.99961 
1.2550026e+3, 2.5554726e+2, -345085.22, -439374.63, 85640.61, -0.1373754, -0.078127295, -294470.3, 141170.34, 0.0, 10.000826, 9.999597 
1.2549818e+3, 2.6554725e+2, -290952.88, -503639.56, 4946.986, -0.1690472, 0.036030132, -290837.88, 46805.65, 0.00000007625481, 10.001145, 9.998324 
1.2549601e+3, 2.755489e+2, -112770.63, -369647.88, 13938.253, -0.1573164, 0.35138178, -112016.555, 127617.016, 0.0000061507535, 10.001701, 9.998307 
1.2549396e+3, 2.8554624e+2, -88137.56, -460861.34, -22964.508, -0.05804513, 0.32998663, -86727.99, 54934.406, 0.000051587293, 10.001855, 9.996935 
1.2549196e+3, 2.9553974e+2, -16281.663, -361877.97, -68958.164, 0.1121262, -0.039555676, -3030.2793, 40695.08, 0.0001993085, 10.001615, 9.997056 
1.254898e+3, 3.0553767e+2, 163886.72, -170198.64, -66269.12, 0.04074867, 0.016213378, 176551.73, 176551.73, 0.00049473415, 10.002174, 9.997771 
1.2548757e+3, 3.155381e+2, 485799.56, 238498.19, -68069.94, -0.107131675, 0.25338438, 503297.75, 503297.75, 0.0009169739, 10.0032625, 10.000057 
1.2652564e+3, 1.2556998e+2, -1880730.8, -1668140.3, 26208.73, -0.05002899, 0.14232165, -1664956.9, 44463.016, 0.004085261, 9.998307, 10.001111 
1.2652394e+3, 1.3556843e+2, -1813623.3, -1670760.6, -74763.336, 0.32594064, -0.06966332, -1638789.9, -27358.453, 0.0022650692, 9.998441, 10.000382 
1.2652151e+3, 1.4556836e+2, -1754434.0, -1648539.4, -69717.164, -0.1378236, -0.081007026, -1613943.0, -100510.06, 0.00085386867, 9.998431, 9.999855 
1.2651946e+3, 1.555706e+2, -1609650.1, -1516515.3, -108931.8, -0.13117233, 0.1349592, -1444614.8, -29198.865, 0.00015477135, 9.998709, 9.999951 
1.265176e+3, 1.6557078e+2, -1523644.1, -1443340.6, -9207.922, -0.037124064, 0.17106178, -1442298.3, -124882.37, 0.0000038088367, 9.998699, 9.999783 
1.2651584e+3, 1.7556919e+2, -1446934.9, -1342986.8, 24438.404, 0.06519755, 0.010794635, -1337527.9, -118096.9, 0.0, 9.998506, 9.999891 
1.2651388e+3, 1.855695e+2, -1300426.9, -1178668.4, -5173.7866, 0.045361426, 0.035383902, -1178449.0, -57021.574, 0.0, 9.998651, 10.000279 
1.265118e+3, 1.9557115e+2, -1140476.6, -1046527.25, -19484.447, -0.051627453, 0.15385444, -1042646.6, -19236.344, 0.0, 9.999059, 10.000316 
1.2650988e+3, 2.0557085e+2, -1010993.1, -1033025.4, 27170.92, -0.01152382, 0.14323178, -992690.06, -67277.4, 0.0, 9.999702, 9.999425 
1.265081e+3, 2.155688e+2, -792475.4, -867152.6, 42579.086, 0.12684558, -0.02537856, -773182.3, 54250.047, 0.0, 10.000487, 9.999513 
1.2650621e+3, 2.2556858e+2, -698368.94, -756649.8, 65237.133, 0.12759234, -0.0016880411, -656059.75, 73374.984, 0.0, 10.000396, 9.999649 
1.2650426e+3, 2.3556973e+2, -718053.44, -701769.5, 28672.545, 0.029507853, 0.12870762, -680105.3, -48681.688, 0.0, 9.999532, 9.999767 
1.2650228e+3, 2.4556945e+2, -647645.9, -606654.94, -3977.58, -0.057321094, 0.12361699, -606272.5, -72847.15, 0.0, 9.999298, 9.999856 
1.2650028e+3, 2.5556782e+2, -512659.34, -494601.75, -22547.078, -0.13452917, -0.04609669, -479342.9, -43903.277, 0.0, 9.999566, 9.999822 
1.2649827e+3, 2.6556784e+2, -400249.66, -573137.25, -75393.92, -0.14653279, 0.06704594, -371990.47, -34548.2, 0.00000015326442, 10.000458, 9.998185 
1.2649623e+3, 2.755691e+2, -109974.99, -380607.88, -94378.82, -0.10613355, 0.35759428, -80312.945, 159123.61, 0.0000068361555, 10.001766, 9.998204 
1.2649418e+3, 2.8556615e+2, 2441.6787, -403101.66, -79642.945, -0.035954803, 0.30621102, 17521.676, 158988.89, 0.00005543398, 10.002426, 9.997046 
1.2649214e+3, 2.955595e+2, 143806.73, -279910.5, -16755.285, 0.06755723, -0.0890916, 144468.27, 187998.16, 0.00021874357, 10.002701, 9.997089 
1.2649001e+3, 3.055578e+2, 334991.5, -168874.67, 40972.48, -0.021048913, 0.041521836, 338301.47, 338301.47, 0.0005474256, 10.003713, 9.997035 
1.2648799e+3, 3.1555787e+2, 685844.1, 223544.67, -111420.83, -0.08878165, 0.31189486, 711296.8, 711296.8, 0.0010137463, 10.005126, 9.999054 
1.275257e+3, 1.255875e+2, -1898556.3, -1709387.8, 128483.93, 0.15727194, 0.024699079, -1644427.9, 64821.164, 0.0044096503, 9.998335, 10.000809 
1.2752362e+3, 1.3558851e+2, -1848345.4, -1746350.8, -73277.625, 0.14389022, 0.12327922, -1708071.3, -96830.164, 0.0024558255, 9.998442, 9.999872 
1.2752116e+3, 1.455887e+2, -1766237.8, -1666886.0, -71014.08, -0.3511105, 0.16484453, -1629897.6, -116655.68, 0.00093550276, 9.998411, 9.999734 
1.2751919e+3, 1.555885e+2, -1615803.6, -1530669.8, -89396.8, -0.27702454, 0.1493162, -1474222.9, -58975.87, 0.00017466526, 9.998714, 9.99985 
1.275174e+3, 1.6558895e+2, -1440382.5, -1280268.6, -25319.555, -0.11734245, 0.16126426, -1276360.1, 40881.61, 0.0000047674703, 9.998734, 10.000889 
1.275157e+3, 1.7558993e+2, -1368073.4, -1188224.9, 23517.22, 0.06141864, 0.14715584, -1185200.5, 34028.027, 0.0, 9.998539, 10.00094 
1.2751381e+3, 1.8559001e+2, -1316037.8, -1212138.9, 1844.3079, 0.08991517, 0.112508774, -1212106.1, -90880.19, 0.0, 9.998653, 10.000049 
1.2751178e+3, 1.9558927e+2, -1156572.6, -1075906.6, 3781.1526, 0.014775696, 0.012413074, -1075729.9, -52497.035, 0.0, 9.999036, 10.000126 
1.2750985e+3, 2.0558977e+2, -982836.0, -956229.8, 46423.695, -0.019806338, 0.061379563, -921240.75, 3986.489, 0.0, 9.999624, 9.99999 
1.2750801e+3, 2.1559106e+2, -772574.0, -799782.56, 74358.56, -0.025009215, 0.16880822, -710585.5, 116628.086, 0.0, 10.000375, 10.000029 
1.275061e+3, 2.255903e+2, -764941.7, -864422.56, 23672.4, -0.032755263, 0.15028945, -759595.9, -30374.8, 0.0, 10.000269, 9.998968 
1.2750416e+3, 2.3558782e+2, -779757.5, -808416.44, 7829.803, -0.042776372, -0.016246414, -777757.9, -146511.61, 0.0, 9.999438, 9.999079 
1.2750217e+3, 2.4558744e+2, -681281.06, -651977.7, -1930.9706, -0.09949726, 0.017306866, -651851.0, -118600.586, 0.0, 9.999193, 9.999594 
1.2750019e+3, 2.5558865e+2, -539996.4, -531542.44, -1230.5284, -0.19066618, 0.15224545, -531366.94, -96127.96, 0.0, 9.999482, 9.999606 
1.2749836e+3, 2.6558763e+2, -425487.2, -610047.75, -33644.82, -0.10165224, 0.17921616, -419545.13, -82293.414, 0.00000020123079, 10.000389, 9.997964 
1.2749664e+3, 2.755846e+2, -131225.4, -404634.63, -36373.4, 0.118293785, 0.061382867, -126469.164, 112816.54, 0.0000077157165, 10.001685, 9.998075 
1.2749451e+3, 2.8558293e+2, 116854.8, -152862.25, -79235.37, 0.030832332, 0.051837012, 138409.39, 279709.88, 0.000060402712, 10.002369, 9.998794 
1.2749207e+3, 2.9558206e+2, 237163.6, -65022.223, 10216.167, -0.28807727, 0.060959194, 237508.6, 280810.25, 0.00024154171, 10.002613, 9.998608 
1.2749012e+3, 3.055804e+2, 158853.25, -523325.25, 90469.75, -0.31772012, 0.2556506, 170647.34, 170647.34, 0.0006104457, 10.003658, 9.994628 
1.274887e+3, 3.1557512e+2, 474200.1, -186572.63, -35161.8, 0.07090931, 0.2258641, 476065.88, 476065.88, 0.0011368401, 10.005014, 9.996278 
1.2852564e+3, 1.2560529e+2, -1879738.5, -1700926.5, 111926.33, 0.25835344, 0.063946426, -1647081.1, 61997.633, 0.0047468157, 9.998456, 10.000814 
1.2852326e+3, 1.3560706e+2, -1978000.9, -1792781.9, -153119.78, -0.006408126, 0.2350522, -1706443.9, -95378.984, 0.0026545508, 9.99749, 10.000008 
1.2852098e+3, 1.4560755e+2, -1834164.0, -1611851.4, -29063.637, -0.31398416, 0.2546412, -1608114.6, -95053.914, 0.0010215283, 9.997563, 10.000523 
1.2851913e+3, 1.5560639e+2, -1551914.1, -1415352.6, 2047.7983, -0.20733528, 0.06677106, -1415322.0, -251.91281, 0.00019628371, 9.998791, 10.000604 
1.2851736e+3, 1.6560712e+2, -1354200.0, -1246357.0, 38537.605, -0.05876528, 0.07523815, -1234001.3, 83059.98, 0.0000059623408, 9.999362, 10.000825 
1.285156e+3, 1.7560937e+2, -1248727.9, -1139185.1, -14010.009, 0.07510477, 0.19543746, -1137421.6, 81616.55, 0.0, 9.999395, 10.000871 
1.2851368e+3, 1.8560955e+2, -1250170.1, -1187346.8, -51113.29, 0.08786039, 0.17855586, -1158764.6, -37728.98, 0.0, 9.999141, 9.999981 
1.2851165e+3, 1.9560796e+2, -1204997.3, -1105484.1, -52333.004, 0.014397689, 0.0004230335, -1083029.5, -59978.992, 0.0, 9.998738, 10.000065 
1.2850976e+3, 2.0560828e+2, -1089215.1, -1006136.5, 11877.23, -0.022080023, 0.03419583, -1004471.9, -79425.17, 0.0, 9.998884, 10.000007 
1.28508e+3, 2.1560997e+2, -913491.9, -865169.56, -18990.973, -0.028488792, 0.17957997, -858599.4, -31570.033, 0.0, 9.999393, 10.000054 
1.285061e+3, 2.2560929e+2, -805650.25, -877955.4, -71343.055, -0.051797867, 0.16323872, -761822.56, -32786.56, 0.0, 9.999964, 9.999021 
1.285041e+3, 2.3560657e+2, -610658.6, -721425.75, -51040.64, -0.08647115, -0.030189637, -590726.3, 40336.69, 0.0, 10.000581, 9.999123 
1.2850216e+3, 2.4560618e+2, -439304.13, -567176.0, -5836.387, -0.115074016, 0.014660926, -439038.28, 94029.24, 0.0, 10.000977, 9.999326 
1.2850027e+3, 2.5560755e+2, -316678.53, -453674.16, -23662.834, -0.13539515, 0.19355842, -312706.47, 122349.055, 0.0, 10.001132, 9.999356 
1.2849848e+3, 2.656062e+2, -305786.4, -521658.72, -10678.418, -0.054502904, 0.18803877, -305259.47, 31810.656, 0.00000014147287, 10.001087, 9.998226 
1.2849675e+3, 2.7560255e+2, -215848.8, -417848.72, 470.9712, 0.10243616, -0.021369953, -215847.69, 23260.04, 0.000007879153, 10.000985, 9.998317 
1.284947e+3, 2.856012e+2, 17899.621, -192725.73, -72266.08, 0.033148747, -0.0118434, 40309.87, 181429.11, 0.00006525831, 10.001655, 9.998869 
1.2849241e+3, 2.9560146e+2, 276362.7, -37923.523, -134736.47, -0.20558415, 0.10102336, 326216.84, 369328.75, 0.00026775803, 10.00284, 9.998688 
1.2849052e+3, 3.056001e+2, 128397.04, -510431.0, 22796.898, -0.2586915, 0.30661544, 129209.52, 129209.52, 0.0006827303, 10.003332, 9.994873 
1.2848912e+3, 3.1559438e+2, 209074.67, -347708.8, 65522.07, 0.080984876, 0.21144092, 216681.36, 216681.36, 0.0012767545, 10.003304, 9.99601 
1.2952527e+3, 1.2562282e+2, -1865494.5, -1663753.5, 61721.984, 0.0041094455, 0.19239636, -1646368.1, 62545.53, 0.0050962004, 9.998426, 10.001082 
1.2952283e+3, 1.3562416e+2, -1930415.3, -1695034.1, -181064.77, -0.19189227, 0.26030743, -1596772.1, 14129.889, 0.0028611089, 9.997498, 10.000674 
1.2952095e+3, 1.4562497e+2, -1711492.9, -1365995.3, 5538.758, -0.109625466, 0.19089417, -1365906.4, 146982.7, 0.00111182, 9.997598, 10.002195 
1.2951922e+3, 1.5562446e+2, -1444957.8, -1198201.1, 51923.574, -0.004716327, -0.09740454, -1187720.4, 227163.73, 0.000219555, 9.998803, 10.002091 
1.2951742e+3, 1.656254e+2, -1440089.5, -1419229.3, 26850.006, 0.052382708, -0.07776592, -1400854.6, -83980.59, 0.0000074533, 9.999339, 9.999647 
1.2951553e+3, 1.7562759e+2, -1328624.4, -1302299.6, -8553.17, 0.046697065, 0.154649, -1299764.8, -80905.766, 0.0, 9.999383, 9.999753 
1.2951352e+3, 1.856282e+2, -1247470.3, -1181505.6, -74346.89, -0.01853353, 0.22919689, -1133153.5, -12298.396, 0.0, 9.999135, 10.000028 
1.2951142e+3, 1.9562727e+2, -1203065.8, -1102526.1, -57017.715, -0.11369819, 0.11272132, -1076782.4, -53919.508, 0.0, 9.998738, 10.000087 
1.2950961e+3, 2.0562641e+2, -1133524.8, -1085581.1, 23453.813, -0.08088677, 0.055133402, -1076016.0, -151145.25, 0.0, 9.998834, 9.999483 
1.2950802e+3, 2.1562558e+2, -959992.3, -939072.75, 7643.219, 0.04928523, -0.0011502126, -936577.75, -109698.625, 0.0, 9.999298, 9.999592 
1.2950616e+3, 2.2562554e+2, -772840.25, -782635.6, -55730.68, 0.0028769285, 0.03503042, -721792.44, 7086.5103, 0.0, 9.9998455, 9.999733 
1.2950408e+3, 2.3562604e+2, -578069.8, -629717.1, -18308.23, -0.17870697, 0.08624348, -572238.25, 58635.14, 0.0, 10.000475, 9.999804 
1.295022e+3, 2.456257e+2, -477800.28, -615452.1, -8627.128, -0.17809536, 0.117377855, -477261.72, 55615.06, 0.0, 10.000848, 9.999053 
1.295005e+3, 2.556246e+2, -349313.22, -492976.63, -9041.353, -0.036233567, 0.07814909, -348746.47, 86142.27, 0.0, 10.001021, 9.999135 
1.294986e+3, 2.6562372e+2, -267910.78, -431980.34, -22926.36, -0.06765468, 0.09712705, -264767.38, 72129.36, 0.000000052302592, 10.001026, 9.998879 
1.2949653e+3, 2.7562305e+2, -188994.6, -342497.53, 10939.078, -0.23805432, 0.117370844, -188218.95, 50682.848, 0.000007172051, 10.000897, 9.998879 
1.2949474e+3, 2.856211e+2, -113042.52, -444935.56, -34527.78, -0.11385396, 0.12739512, -109488.555, 31434.326, 0.000069658236, 10.001563, 9.997182 
1.2949316e+3, 2.9561776e+2, 163268.56, -254647.97, -80751.28, 0.2422954, 0.048570175, 178328.88, 221288.81, 0.0002984911, 10.002763, 9.997233 
1.2949121e+3, 3.0561686e+2, 320533.56, -92412.83, 11153.27, 0.0917839, 0.21614626, 320834.6, 320834.6, 0.0007671863, 10.003261, 9.997776 
1.294892e+3, 3.156158e+2, 344310.53, -6102.266, 97149.516, -0.20432001, 0.29289502, 369442.13, 369442.13, 0.001436353, 10.003073, 9.998454 
1.3052508e+3, 1.2564123e+2, -1993386.4, -1689058.9, 147657.47, 0.03758785, 0.24783073, -1629193.0, 79539.664, 0.0054552136, 9.997383, 10.001417 
1.305226e+3, 1.3564147e+2, -1734414.5, -1533457.1, -70408.875, -0.22182035, 0.1472259, -1511243.6, 99485.66, 0.003073975, 9.998555, 10.001272 
1.3052095e+3, 1.456427e+2, -1560966.5, -1329441.3, 67690.836, 0.080836415, 0.10745402, -1311103.1, 201609.52, 0.0012055306, 9.998782, 10.001877 
1.3051912e+3, 1.5564352e+2, -1537956.5, -1275823.3, -45821.168, 0.025015289, -0.014163091, -1268044.5, 146653.08, 0.000244213, 9.998311, 10.001795 
1.3051723e+3, 1.656443e+2, -1602868.0, -1465365.4, -70285.01, 0.010385759, -0.010833964, -1435797.1, -119107.81, 0.000009295233, 9.998092, 9.999928 
1.3051537e+3, 1.7564519e+2, -1489257.8, -1348311.0, -17401.184, 0.017077094, 0.061728045, -1346194.5, -127509.125, 0.0, 9.998157, 10.000025 
1.305134e+3, 1.8564592e+2, -1260182.0, -1182109.1, -4818.147, -0.031819135, 0.13389878, -1181812.9, -61133.227, 0.0, 9.999019, 10.000081 
1.3051136e+3, 1.9564627e+2, -952899.5, -980168.94, -6677.2734, -0.12849322, 0.14079137, -951352.25, 71323.26, 0.0, 10.000444, 10.000107 
1.3050957e+3, 2.0564544e+2, -875609.75, -997586.8, 76949.25, -0.099234335, 0.10410991, -838410.75, 86273.266, 0.0, 10.000768, 9.999154 
1.3050798e+3, 2.1564369e+2, -845700.25, -914643.8, 60237.625, 0.028759977, -0.010762934, -810768.3, 15934.407, 0.0, 10.000231, 9.999307 
1.3050614e+3, 2.2564371e+2, -736843.4, -752785.25, 7947.107, -0.0044610957, 0.036205977, -733558.5, -4855.708, 0.0, 10.000036, 9.999844 
1.3050413e+3, 2.3564492e+2, -634787.3, -648435.0, -18614.148, -0.16244288, 0.15097184, -621785.6, 8904.442, 0.0, 10.000047, 9.99988 
1.3050231e+3, 2.4564432e+2, -589829.94, -699475.25, -15914.429, -0.13396609, 0.16391096, -587566.75, -54870.86, 0.0, 10.00021, 9.998779 
1.3050064e+3, 2.556421e+2, -440354.3, -567132.3, -33475.926, 0.042062853, 0.040846586, -432057.88, 2660.0642, 0.0, 10.000516, 9.998871 
1.3049877e+3, 2.6564112e+2, -232859.5, -407389.22, -48535.074, -0.00048118396, 0.05749238, -220270.42, 116455.84, 0.000000026393016, 10.001245, 9.99894 
1.304967e+3, 2.75641e+2, 20097.318, -242078.66, -83358.22, -0.22263421, 0.12961099, 44356.21, 283081.3, 0.0000066700077, 10.00233, 9.998886 
1.3049494e+3, 2.8563908e+2, 24527.158, -416798.44, -71627.47, -0.12246851, 0.16313663, 35861.266, 176608.22, 0.00007501981, 10.002678, 9.996835 
1.3049342e+3, 2.9563555e+2, 111634.67, -309634.72, -39703.164, 0.23749606, 0.10207985, 115343.9, 158132.66, 0.00033195864, 10.002533, 9.99697 
1.304915e+3, 3.0563438e+2, 337030.78, 61481.434, 37832.535, 0.08565851, 0.18061468, 342130.75, 342130.75, 0.00085839094, 10.002726, 9.999101 
1.3048954e+3, 3.156342e+2, 422188.66, 138429.2, -25003.213, -0.16464718, 0.21907455, 424374.94, 424374.94, 0.0016111253, 10.003105, 9.999456 
1.3152482e+3, 1.256603e+2, -1956576.5, -1621447.8, 53883.297, -0.0045784516, 0.20709458, -1612997.3, 95541.305, 0.005819013, 9.997402, 10.001882 
1.3152252e+3, 1.3565908e+2, -1705792.3, -1471482.0, -23311.445, -0.16162452, -0.0923175, -1469185.3, 141360.77, 0.0032902497, 9.998544, 10.001704 
1.3152094e+3, 1.4566083e+2, -1710471.6, -1637427.9, 37193.145, 0.17237552, 0.0054351077, -1621823.1, -109292.55, 0.0013013786, 9.998778, 9.999762 
1.3151878e+3, 1.5566358e+2, -1673158.6, -1558453.9, -54119.797, -0.16341919, 0.29396498, -1536950.5, -122440.65, 0.00026992275, 9.998321, 9.999851 
1.3151681e+3, 1.6566384e+2, -1487382.5, -1232441.3, -75488.016, -0.23040254, 0.25227782, -1211766.0, 104740.5, 0.00001153221, 9.998112, 10.001522 
1.3151512e+3, 1.756622e+2, -1376349.8, -1125261.4, -4559.693, -0.06600283, -0.08826918, -1125178.5, 93338.1, 0.0, 9.998195, 10.00154 
1.3151331e+3, 1.8566279e+2, -1263634.8, -1182377.5, 39386.766, -0.025964068, -0.101001464, -1166419.9, -45911.145, 0.0, 9.998994, 10.00009 
1.3151145e+3, 1.9566493e+2, -959348.94, -984052.75, 47758.51, -0.09563756, 0.081527375, -922370.9, 100118.03, 0.0, 10.000402, 10.0001 
1.315096e+3, 2.0566534e+2, -897049.5, -1022751.94, 47374.043, -0.1410512, 0.17330183, -881195.06, 43292.11, 0.0, 10.000685, 9.999022 
1.3150783e+3, 2.1566427e+2, -870138.06, -946125.5, 49740.26, -0.1537172, 0.1423706, -845540.9, -19040.309, 0.0, 10.000141, 9.999137 
1.3150601e+3, 2.2566366e+2, -788611.06, -830600.8, 904.2107, -0.14252451, 0.16149677, -788591.6, -60083.395, 0.0, 9.999914, 9.999367 
1.315042e+3, 2.3566328e+2, -684294.9, -725544.1, -7392.5137, -0.11088066, 0.16452867, -683010.06, -52497.355, 0.0, 9.999942, 9.9994 
1.3150242e+3, 2.4566206e+2, -626012.8, -750075.75, -12556.962, -0.055912692, 0.15716246, -624754.6, -92230.29, 0.0, 10.0001, 9.998487 
1.3150069e+3, 2.556602e+2, -476696.88, -616797.2, -10625.5205, 0.024931593, 0.09605942, -475895.6, -41353.94, 0.0, 10.000404, 9.998584 
1.3149898e+3, 2.656584e+2, -290650.78, -505163.2, -15936.03, 0.070912555, 0.077350855, -289473.38, 47084.965, 0.000000066602475, 10.001147, 9.998317 
1.3149723e+3, 2.7565643e+2, -31452.951, -323413.0, -32834.066, 0.07839209, 0.024296446, -27805.96, 210771.22, 0.0000067822207, 10.002234, 9.998365 
1.3149528e+3, 2.856553e+2, 89802.7, -278086.97, -85359.62, -0.061849445, 0.112229176, 108643.39, 249233.34, 0.00008157081, 10.002648, 9.997812 
1.3149314e+3, 2.9565486e+2, 162173.28, -182474.36, -29143.482, -0.31106427, 0.25733277, 164620.28, 207218.36, 0.0003645955, 10.00243, 9.9979 
1.3149133e+3, 3.0565256e+2, 294919.63, 2966.869, 49641.88, -0.37166372, 0.19842638, 303129.56, 303129.56, 0.0009459137, 10.002612, 9.998746 
1.3149008e+3, 3.1564963e+2, 363236.66, 72952.0, 28113.62, 0.053539272, -0.002364072, 365934.34, 365934.34, 0.0017802492, 10.0028925, 9.999094 
1.3252458e+3, 1.2567785e+2, -1944456.4, -1660800.9, -22689.13, 0.023889516, 0.062690884, -1658997.5, 49362.89, 0.006183249, 9.997646, 10.001508 
1.3252242e+3, 1.3567798e+2, -1751015.1, -1522135.0, -87513.125, -0.110071935, -0.07008768, -1492508.8, 117849.484, 0.0035072896, 9.998387, 10.001414 
1.3252085e+3, 1.4567974e+2, -1717621.9, -1636391.1, 442.15668, 0.21218689, 0.04249918, -1636388.8, -124045.516, 0.0013982238, 9.998711, 9.999803 
1.3251857e+3, 1.5568158e+2, -1620846.4, -1533547.3, 50499.4, -0.19108945, 0.23603892, -1510447.4, -96117.1, 0.00029637254, 9.998678, 9.999852 
1.3251664e+3, 1.6568187e+2, -1385450.5, -1209053.6, 58381.965, -0.2611, 0.21088862, -1191481.5, 124845.98, 0.000014169166, 9.998931, 10.001279 
1.32515e+3, 1.7568095e+2, -1215528.8, -1075913.8, -21862.822, -0.055642, -0.030761648, -1072570.3, 145762.25, 0.0, 9.999424, 10.001284 
1.3251327e+3, 1.8568136e+2, -1177228.3, -1136271.8, -7657.752, -0.0044804844, -0.05285686, -1134886.9, -14559.67, 0.0, 9.999571, 10.000124 
1.3251145e+3, 1.9568264e+2, -1088637.1, -1038313.56, -16346.139, -0.087330416, 0.041565094, -1033470.1, -11155.165, 0.0, 9.99949, 10.000161 
1.3250962e+3, 2.0568323e+2, -1021161.6, -1032035.3, -5511.821, -0.14039503, 0.12485947, -1018856.4, -94546.03, 0.0, 9.999606, 9.99948 
1.3250782e+3, 2.1568313e+2, -888151.25, -913011.2, 24872.666, -0.16157128, 0.1458642, -872775.6, -46462.727, 0.0, 9.99983, 9.999517 
1.3250604e+3, 2.256825e+2, -788217.9, -903685.2, 19209.992, -0.119454466, 0.17862913, -785105.8, -56783.875, 0.0, 10.000244, 9.998704 
1.3250431e+3, 2.3568131e+2, -595646.7, -747655.06, -19569.473, -0.027434357, 0.16523618, -593167.75, 37169.574, 0.0, 10.000839, 9.998814 
1.3250256e+3, 2.4567991e+2, -457625.2, -657194.8, 2222.6624, 0.02200132, 0.16207308, -457600.44, 74750.19, 0.0, 10.001202, 9.998597 
1.325008e+3, 2.5567833e+2, -332120.6, -536720.75, 14801.479, 0.036147505, 0.11898912, -331055.34, 103307.65, 0.0, 10.001355, 9.998675 
1.3249911e+3, 2.656763e+2, -283668.72, -536634.94, 60233.504, 0.08164198, 0.08751143, -270058.8, 66322.766, 0.0000000978673, 10.001346, 9.998004 
1.3249747e+3, 2.7567363e+2, -195903.1, -436110.56, 45582.785, 0.13957183, -0.0008749485, -187544.0, 50863.875, 0.000006920427, 10.001235, 9.998081 
1.3249554e+3, 2.856724e+2, -20160.197, -291279.47, -6807.1665, -0.025725007, 0.07145305, -19989.393, 120431.234, 0.00008668865, 10.001737, 9.998152 
1.3249335e+3, 2.9567233e+2, 243406.02, -110782.26, -28698.156, -0.3637846, 0.22026236, 245716.22, 288138.94, 0.00038909205, 10.00285, 9.998185 
1.3249156e+3, 3.0566946e+2, 275596.94, -86363.9, 11595.218, -0.3994871, 0.13153164, 275968.0, 275968.0, 0.0010147934, 10.002833, 9.998025 
1.3249046e+3, 3.1566665e+2, 189305.78, -64625.96, -58914.46, 0.18310273, 0.012670989, 202308.64, 202308.64, 0.0019149169, 10.00191, 9.998627 
1.3352428e+3, 1.2569426e+2, -2022039.3, -1814337.3, -81715.19, -0.089488074, -0.17155623, -1786042.9, -77848.26, 0.0065457188, 9.997613, 10.000471 
1.3352227e+3, 1.3569812e+2, -1822279.1, -1671462.1, -57334.156, -0.11547294, 0.189963, -1652141.3, -41976.027, 0.0037237175, 9.998399, 10.000379 
1.3352066e+3, 1.4569937e+2, -1567000.5, -1332292.1, -9519.302, 0.13156153, 0.18938951, -1331906.6, 180244.64, 0.0014951822, 9.998737, 10.001884 
1.3351853e+3, 1.5569775e+2, -1488816.6, -1266650.3, 57216.33, -0.13089035, -0.17023674, -1252780.8, 161376.97, 0.00032323142, 9.998699, 10.001678 
1.3351665e+3, 1.656986e+2, -1534294.3, -1513805.0, 64727.69, -0.16268085, -0.11345173, -1458516.3, -142365.33, 0.000017128494, 9.998914, 9.999196 
1.33515e+3, 1.7570136e+2, -1350593.1, -1356445.8, 2489.3801, -0.016191565, 0.2170751, -1349677.5, -131543.75, 0.00000000003443261, 9.999423, 9.999358 
1.3351321e+3, 1.857015e+2, -1175511.4, -1132477.4, -19254.021, -0.033657797, 0.25675565, -1125120.5, -4985.1587, 0.0, 9.999567, 10.0001545 
1.3351133e+3, 1.9569947e+2, -1084680.3, -1025863.0, -10613.323, -0.16406345, 0.014574962, -1024006.5, -1853.3473, 0.0, 9.999464, 10.000262 
1.3350958e+3, 2.056993e+2, -961811.94, -888773.1, -6562.4727, -0.16346727, -0.037176225, -888188.1, 35964.203, 0.0, 9.999522, 10.000504 
1.3350789e+3, 2.1570042e+2, -841569.94, -794215.56, 41454.785, -0.061147675, 0.0030148705, -770152.75, 55986.145, 0.0, 9.999729, 10.000385 
1.335062e+3, 2.2570021e+2, -860604.3, -1030727.44, 35323.418, -0.009110575, 0.0836171, -853561.5, -125417.24, 0.0, 10.000139, 9.997883 
1.3350445e+3, 2.3569894e+2, -659045.56, -861207.1, 12037.536, 0.015940623, 0.1460228, -658331.3, -28166.992, 0.0, 10.000755, 9.998076 
1.3350269e+3, 2.4569778e+2, -436935.72, -592457.4, -342.13702, 0.01472549, 0.1718956, -436934.97, 95240.555, 0.0, 10.001109, 9.999084 
1.335009e+3, 2.5569654e+2, -312917.5, -478973.63, 28052.582, -0.0046049347, 0.11449802, -308306.5, 125875.0, 0.0, 10.001281, 9.9991045 
1.3349913e+3, 2.656948e+2, -295275.53, -549118.7, 48363.777, -0.045860246, 0.09742819, -286373.16, 49822.457, 0.00000008871969, 10.001288, 9.997951 
1.3349736e+3, 2.7569252e+2, -213519.2, -449504.97, 56641.96, -0.11218361, 0.05221303, -200628.05, 37589.484, 0.000006673535, 10.001137, 9.998036 
1.3349566e+3, 2.8569028e+2, -57170.074, -354571.8, 24511.465, -0.09416209, 0.043195445, -55163.41, 85076.19, 0.00008850924, 10.00167, 9.997751 
1.3349402e+3, 2.9568797e+2, 195053.36, -184416.64, 22009.236, 0.010723864, 0.0073651685, 196325.63, 238587.77, 0.00040084837, 10.002734, 9.997736 
1.3349219e+3, 3.0568534e+2, 191801.11, -239803.19, -26513.549, -0.0765347, 0.014555145, 193423.75, 193423.75, 0.0010550291, 10.00275, 9.997005 
1.3349056e+3, 3.1568494e+2, 114190.42, -161843.36, -49857.727, 0.077517375, 0.24141385, 122919.76, 122919.76, 0.0019990124, 10.001674, 9.998068 
1.34524e+3, 1.2571193e+2, -2179746.3, -1867336.5, -81749.95, -0.062156044, -0.18219888, -1847237.6, -139217.27, 0.0069055543, 9.996447, 10.000663 
1.3452213e+3, 1.3571586e+2, -1744571.6, -1639804.6, 18084.045, -0.11274996, 0.18611544, -1636770.9, -26781.11, 0.0039389143, 9.998959, 10.00033 
1.3452044e+3, 1.4571679e+2, -1464603.1, -1285742.9, -43099.906, 0.008904032, 0.16114353, -1275898.9, 236079.81, 0.0015916337, 9.999466, 10.0018425 
1.3451841e+3, 1.5571491e+2, -1485726.5, -1266242.6, -145597.48, -0.10253467, -0.22286707, -1193660.9, 220326.52, 0.0003501717, 9.998743, 10.001649 
1.345166e+3, 1.6571572e+2, -1563528.8, -1538833.6, -71877.695, -0.098412395, -0.16421115, -1478250.6, -162269.17, 0.000020254476, 9.998762, 9.9991 
1.3451491e+3, 1.7571858e+2, -1375766.1, -1375335.0, -13022.5625, -0.030173542, 0.18734702, -1362526.3, -144561.89, 0.0000000014653116, 9.9992895, 9.999292 
1.3451314e+3, 1.8571898e+2, -1208055.1, -1119056.5, 20059.154, -0.04308938, 0.24175319, -1114744.4, 5219.144, 0.0, 9.999216, 10.000418 
1.3451129e+3, 1.957173e+2, -1176392.8, -1043002.44, 32008.238, -0.10774724, 0.009978267, -1035719.44, -13742.417, 0.0, 9.998719, 10.0005045 
1.3450956e+3, 2.057172e+2, -1003153.25, -914120.56, 54178.934, -0.093040496, -0.040978268, -888515.1, 35460.277, 0.0, 9.999265, 10.00045 
1.3450795e+3, 2.1571825e+2, -716735.6, -729075.9, 3508.6465, -0.02075965, -0.007386188, -715807.75, 110155.27, 0.0, 10.0005865, 10.000404 
1.3450626e+3, 2.2571796e+2, -706719.3, -944182.3, 3159.0828, 0.0030258908, 0.054957677, -706677.3, 21290.932, 0.0, 10.00113, 9.998007 
1.3450451e+3, 2.357165e+2, -608902.94, -826773.75, 37606.066, -0.0016694275, 0.08721621, -602594.5, 27393.396, 0.0, 10.001051, 9.998175 
1.345028e+3, 2.4571513e+2, -413268.94, -625924.6, 42052.914, 0.0008313239, 0.10940844, -405254.94, 126746.32, 0.0, 10.001486, 9.998669 
1.3450108e+3, 2.5571364e+2, -187913.48, -460402.72, -16016.111, 0.0063010063, 0.07001228, -186975.34, 247035.78, 0.0, 10.002334, 9.998725 
1.3449931e+3, 2.65712e+2, -146332.45, -468609.63, -36071.977, -0.04157608, 0.07598613, -142344.33, 193680.47, 0.000000062099474, 10.002285, 9.998017 
1.3449746e+3, 2.7571002e+2, -137529.81, -406975.84, -37590.387, -0.13691854, 0.051836662, -132383.86, 105659.6, 0.0000065347235, 10.0016365, 9.998081 
1.3449585e+3, 2.8570735e+2, -55533.09, -391868.6, 4385.277, -0.064671144, 0.018019248, -55475.92, 84593.695, 0.00008965579, 10.001843, 9.997415 
1.3449442e+3, 2.9570428e+2, 173761.58, -220861.77, -23206.463, 0.14666745, -0.06484242, 175121.58, 217221.89, 0.0004062936, 10.002701, 9.9975 
1.3449256e+3, 3.0570173e+2, 221066.7, -243992.55, -64399.51, 0.02049777, -0.029082661, 229819.75, 229819.75, 0.0010727071, 10.003008, 9.996869 
1.3449074e+3, 3.1570202e+2, 306998.9, -31361.396, -35396.56, 0.040801827, 0.279091, 310662.16, 310662.16, 0.0020364497, 10.0028305, 9.998409 
1.3552384e+3, 1.2573048e+2, -2086064.6, -1685548.3, 45885.504, 0.10820405, -0.034504447, -1680358.6, 27482.459, 0.0072628423, 9.996514, 10.001876 
1.3552198e+3, 1.3573144e+2, -1686858.4, -1513664.1, 105671.09, -0.1637682, -0.076660365, -1463639.8, 146190.19, 0.004152666, 9.998938, 10.001207 
1.3552019e+3, 1.4573231e+2, -1620650.6, -1601550.1, -79920.55, -0.22156805, -0.025291728, -1530611.3, -18788.682, 0.0016872559, 9.999428, 9.999694 
1.3551825e+3, 1.5573306e+2, -1605160.1, -1523940.3, -158202.98, -0.17373529, 0.05620402, -1401218.1, 12600.52, 0.0003769789, 9.998778, 9.999865 
1.3551645e+3, 1.6573317e+2, -1433653.0, -1280732.5, -59272.004, -0.13479723, 0.031699605, -1260449.1, 55369.855, 0.000023370363, 9.998802, 10.000857 
1.3551475e+3, 1.7573272e+2, -1261604.1, -1138572.4, 11590.681, -0.15014516, -0.121472076, -1137490.0, 80333.336, 0.0000000068048798, 9.999278, 10.000929 
1.3551301e+3, 1.8573388e+2, -1179173.3, -1053167.3, -8227.648, -0.106584325, -0.088009916, -1052632.3, 67178.52, 0.0, 9.999192, 10.000878 
1.355113e+3, 1.9573611e+2, -1150916.4, -991306.3, 25757.08, 0.005398446, 0.022635268, -987252.7, 34534.516, 0.0, 9.998719, 10.000861 
1.3550961e+3, 2.057369e+2, -1084835.3, -1073766.0, 94352.45, -0.002835322, 0.10107208, -984785.94, -61005.78, 0.0, 9.999223, 9.999374 
1.3550794e+3, 2.1573657e+2, -794072.2, -870730.1, 55692.254, -0.10161246, 0.1054348, -764793.94, 60992.063, 0.0, 10.000498, 9.999477 
1.3550624e+3, 2.257356e+2, -650202.3, -794175.9, -11599.702, -0.14256805, 0.0868595, -649273.75, 78521.164, 0.0, 10.000995, 9.9991 
1.355045e+3, 2.3573406e+2, -559515.56, -700815.2, 43510.43, -0.14065768, -0.0023237644, -547192.2, 82615.336, 0.0, 10.000953, 9.999084 
1.3550287e+3, 2.4573204e+2, -517544.03, -821823.56, 66034.49, -0.08466948, -0.014891033, -503831.28, 27995.654, 0.0, 10.001391, 9.997372 
1.3550133e+3, 2.557296e+2, -285119.9, -640211.0, 21552.791, 0.0077928053, -0.020474661, -283816.53, 150035.83, 0.0, 10.002241, 9.997536 
1.3549963e+3, 2.6572773e+2, -145984.31, -454621.94, -69677.7, 0.02739782, 0.009183524, -130983.08, 204887.75, 0.000000036385206, 10.002222, 9.998147 
1.3549778e+3, 2.7572605e+2, -146655.34, -401717.84, -47607.344, -0.001838347, 0.0040085968, -138059.16, 99826.78, 0.0000068750182, 10.001533, 9.998169 
1.354961e+3, 2.8572372e+2, -87983.09, -440468.5, 29031.934, -0.024237316, 0.014738968, -85607.93, 54301.86, 0.000091050126, 10.001763, 9.997118 
1.3549452e+3, 2.9572088e+2, 143467.83, -263648.8, 19423.111, -0.043506846, -0.009339728, 144392.38, 186332.47, 0.0004082825, 10.002611, 9.997252 
1.3549267e+3, 3.0571836e+2, 264666.3, -126419.06, -79957.88, -0.1943185, -0.004520353, 280382.25, 280382.25, 0.001072397, 10.002908, 9.997718 
1.3549092e+3, 3.1571752e+2, 355286.97, 125567.13, 6175.4033, -0.08860225, 0.10331285, 355452.88, 355452.88, 0.0020302255, 10.002608, 9.999588 
1.3652366e+3, 1.2574892e+2, -1618958.8, -1469126.0, 158185.69, 0.11580025, 0.03903259, -1369013.3, 338646.9, 0.0076198755, 9.999739, 10.001821 
1.3652182e+3, 1.3574816e+2, -1885545.3, -1629278.1, 49206.07, -0.16446513, -0.16239753, -1620154.8, -10490.889, 0.004366158, 9.997631, 10.001051 
1.3652001e+3, 1.4574905e+2, -1892277.5, -1731870.8, -40960.234, -0.24088714, -0.10149078, -1722016.9, -210359.9, 0.0017823466, 9.997563, 9.999698 
1.365182e+3, 1.5575121e+2, -1492799.3, -1466796.9, 15033.841, -0.14185241, 0.121365786, -1459922.3, -46280.797, 0.0004035849, 9.999542, 9.999887 
1.3651642e+3, 1.6575153e+2, -1289520.1, -1195587.9, 91098.625, -0.08824684, 0.10894928, -1140061.3, 175578.61, 0.000026350568, 9.999725, 10.00099 
1.3651465e+3, 1.7575043e+2, -1356891.1, -1169000.1, 31092.006, -0.12653546, -0.12441063, -1163988.6, 53660.023, 0.000000016360648, 9.998565, 10.001056 
1.3651294e+3, 1.8575133e+2, -1210473.3, -1095881.5, -10518.757, -0.08847661, -0.11088102, -1094923.9, 24714.13, 0.0, 9.999098, 10.000631 
1.365113e+3, 1.9575363e+2, -846907.94, -867983.5, -46804.652, 0.030364582, 0.02969166, -809469.5, 212144.44, 0.0, 10.000919, 10.000642 
1.3650964e+3, 2.0575407e+2, -831481.3, -996699.1, 24132.158, 0.0212401, 0.10338859, -828028.6, 95581.95, 0.0, 10.001154, 9.998978 
1.3650799e+3, 2.1575303e+2, -860620.9, -943961.0, 25196.777, -0.089757666, 0.07864134, -853595.2, -27971.46, 0.0, 10.000217, 9.999116 
1.3650632e+3, 2.25752e+2, -672797.9, -774763.7, -18317.271, -0.13554704, 0.054468904, -669607.2, 58025.258, 0.0, 10.000716, 9.999358 
1.3650465e+3, 2.3575085e+2, -356828.06, -578598.5, -47344.37, -0.13336495, -0.019439332, -347143.72, 282495.06, 0.0, 10.002241, 9.9993 
1.3650307e+3, 2.4574885e+2, -365981.78, -762464.6, -9714.299, -0.07872487, -0.036878202, -365743.9, 165914.47, 0.0, 10.002487, 9.997252 
1.3650152e+3, 2.55746e+2, -357170.06, -689179.7, 16140.155, 0.007596533, -0.07036643, -356387.28, 77302.16, 0.0, 10.001794, 9.9974165 
1.3649984e+3, 2.6574403e+2, -186611.3, -481770.63, -27233.18, 0.041864984, -0.038932636, -184119.63, 151590.1, 0.000000033203506, 10.001981, 9.998077 
1.3649803e+3, 2.7574262e+2, 43129.008, -311506.75, -39767.188, 0.03964241, -0.013722019, 47533.61, 285256.4, 0.0000069323874, 10.002845, 9.998156 
1.3649634e+3, 2.8574067e+2, 102738.55, -326363.7, 79498.16, -0.009901594, 0.025686288, 116993.33, 256735.67, 0.00008927096, 10.003, 9.997298 
1.3649474e+3, 2.957383e+2, 175714.84, -224732.05, 90074.83, -0.09248137, 0.02754627, 195043.0, 236810.1, 0.00039892914, 10.002753, 9.997442 
1.3649294e+3, 3.057356e+2, 287735.22, -157700.36, -21336.475, -0.22479275, 0.024801496, 288754.9, 288754.9, 0.0010452198, 10.003231, 9.997355 
1.364913e+3, 3.1573272e+2, 555965.8, 194088.81, -50637.91, -0.05134459, -0.030549, 562918.06, 562918.06, 0.0019747745, 10.004063, 9.999385 
1.3752355e+3, 1.2576717e+2, -1725726.5, -1659447.4, 92056.01, -0.011739674, 0.034764577, -1594747.6, 112731.234, 0.0079810945, 9.999634, 10.000545 
1.3752155e+3, 1.3576597e+2, -1953223.3, -1774446.0, -22659.475, -0.2063971, -0.08255199, -1771618.8, -162126.72, 0.0045821774, 9.997653, 10.000043 
1.375199e+3, 1.4576697e+2, -1747710.1, -1441267.0, 17903.95, -0.12686974, -0.07317705, -1440224.5, 71257.38, 0.0018779465, 9.997599, 10.0016775 
1.3751823e+3, 1.5576932e+2, -1376615.9, -1221903.0, 88006.6, -0.07640491, -0.026185678, -1182087.9, 231369.23, 0.00043006244, 9.999527, 10.001575 
1.3751647e+3, 1.6577078e+2, -1383603.6, -1394647.4, 33315.574, -0.03551103, 0.07375129, -1355355.5, -39910.58, 0.000029160963, 9.999732, 9.999626 
1.375146e+3, 1.757716e+2, -1442372.6, -1357138.0, 692.784, -0.035693265, 0.16656019, -1357132.4, -139690.7, 0.000000027808229, 9.998597, 9.999757 
1.3751289e+3, 1.8577121e+2, -1270699.9, -1224856.9, 47240.688, -0.06353681, 0.15824188, -1195270.5, -75824.34, 0.0, 9.999117, 9.999739 
1.3751128e+3, 1.9576977e+2, -915043.2, -995134.6, 18550.871, -0.08962166, 0.019781977, -910955.06, 110502.516, 0.0, 10.000854, 9.999805 
1.3750967e+3, 2.0576869e+2, -821589.7, -953996.3, -20314.99, -0.08776469, -0.03897331, -818542.9, 104923.99, 0.0, 10.0010605, 9.999314 
1.3750805e+3, 2.1576773e+2, -856928.4, -914075.0, 5497.308, -0.063189894, -0.08893212, -856404.4, -30928.893, 0.0, 10.000122, 9.999367 
1.3750648e+3, 2.257672e+2, -733255.25, -871668.8, 32704.84, -0.054210972, -0.039855815, -725916.7, 1563.0468, 0.0, 10.000593, 9.998753 
1.3750497e+3, 2.3576692e+2, -407479.78, -655460.75, 12702.849, -0.053772807, 0.031660818, -406830.78, 222650.75, 0.0, 10.002123, 9.998827 
1.3750334e+3, 2.4576543e+2, -311344.06, -624729.4, -47046.047, -0.05459788, 0.0362049, -304433.8, 227062.34, 0.0, 10.002378, 9.998253 
1.3750164e+3, 2.5576293e+2, -307579.66, -561476.0, 1386.2451, -0.055358462, -0.066374436, -307572.1, 125949.36, 0.0, 10.001686, 9.998347 
1.3749994e+3, 2.6576114e+2, -218573.64, -526548.94, -2321.0493, -0.06580722, -0.047264002, -218556.14, 116983.69, 0.000000022673568, 10.001889, 9.997813 
1.374982e+3, 2.7575967e+2, 12353.446, -348117.9, -855.8103, -0.08492903, 0.00073583977, 12355.478, 249910.33, 0.000006624494, 10.00274, 9.997951 
1.3749658e+3, 2.8575814e+2, 148677.45, -221753.42, 59974.05, -0.090755984, 0.05262633, 158145.47, 297713.7, 0.00008435929, 10.002954, 9.998042 
1.3749504e+3, 2.9575655e+2, 197974.23, -149123.67, 98552.69, -0.07596332, 0.059366222, 224004.52, 265584.94, 0.00037578115, 10.0026245, 9.998028 
1.3749334e+3, 3.0575338e+2, 156680.89, -403182.53, 8822.002, -0.15421215, 0.068627946, 156819.88, 156819.88, 0.0009853418, 10.003119, 9.995717 
1.3749178e+3, 3.1574714e+2, 406188.78, -64910.484, 15619.012, -0.0037289157, -0.15621471, 406706.03, 406706.03, 0.0018645666, 10.003865, 9.997684 
1.3852338e+3, 1.2578449e+2, -2114536.5, -1854798.4, 31021.723, 0.013653031, 0.034748964, -1851144.6, -143835.58, 0.008351057, 9.996995, 10.000474 
1.3852134e+3, 1.3578393e+2, -1768347.0, -1671074.1, -6359.7427, -0.22207285, -0.028833535, -1670660.1, -61344.367, 0.004803759, 9.998858, 10.0001745 
1.3851985e+3, 1.457849e+2, -1539778.8, -1341066.3, 40649.594, 0.003402517, -0.029376319, -1333072.4, 178232.86, 0.0019753822, 9.999026, 10.0016775 
1.385182e+3, 1.5578614e+2, -1558973.4, -1315384.4, -48302.348, 0.02238258, -0.09117376, -1306155.9, 107134.8, 0.00045665295, 9.998295, 10.001532 
1.3851644e+3, 1.6578743e+2, -1530984.6, -1486067.1, -106348.61, 0.024429398, 0.0030853946, -1399831.8, -84552.07, 0.00003186285, 9.998829, 9.999428 
1.385146e+3, 1.7578886e+2, -1201164.6, -1261890.4, -76197.164, -0.005360777, 0.17714931, -1149503.6, 67766.28, 0.000000039188958, 10.000365, 9.99955 
1.3851288e+3, 1.8578821e+2, -1156333.9, -1225157.1, 36599.305, -0.031846315, 0.17701235, -1140509.4, -21231.928, 0.0, 10.000141, 9.999244 
1.3851129e+3, 1.957859e+2, -1253410.8, -1204469.9, 25610.5, -0.054441005, -0.0037936203, -1193518.6, -172219.78, 0.0, 9.998737, 9.999383 
1.3850974e+3, 2.0578443e+2, -1095289.1, -1087384.5, 15679.6045, -0.036503065, -0.079989955, -1075166.8, -151855.39, 0.0, 9.999185, 9.999301 
1.3850819e+3, 2.157835e+2, -727797.1, -853672.6, -1135.5043, 0.015629606, -0.12716348, -727786.9, 97531.44, 0.0, 10.00101, 9.999354 
1.3850662e+3, 2.2578274e+2, -626224.8, -861901.75, 47103.32, -0.0039800955, -0.08514239, -617159.3, 110166.08, 0.0, 10.001486, 9.998405 
1.385051e+3, 2.3578191e+2, -583659.3, -776488.0, 28729.096, -0.07609331, -0.029991122, -579470.06, 49863.816, 0.0, 10.001045, 9.998529 
1.3850352e+3, 2.4578086e+2, -503419.06, -674531.56, -59044.11, -0.044602383, 0.012283653, -485023.03, 46322.12, 0.0, 10.000896, 9.9986105 
1.385019e+3, 2.5577956e+2, -374878.66, -552565.44, -78509.32, 0.05707847, -0.00540186, -345160.44, 88198.414, 0.0, 10.001065, 9.998693 
1.385002e+3, 2.657778e+2, -237796.63, -538571.8, -34447.656, 0.00940515, 0.000693733, -233901.78, 101474.54, 0.0000000049794013, 10.001773, 9.997782 
1.3849843e+3, 2.7577546e+2, 40760.246, -340340.66, -32897.56, -0.14720486, -0.037473373, 43579.19, 280977.97, 0.0000064646365, 10.002947, 9.997907 
1.3849686e+3, 2.8577352e+2, 216294.42, -199791.94, -22322.178, -0.12719293, -0.016755389, 217488.53, 356903.84, 0.00007935542, 10.003463, 9.997952 
1.3849545e+3, 2.9577196e+2, 330315.5, -86466.61, -69007.1, 0.023938322, -0.004715282, 341443.97, 382871.44, 0.00034767005, 10.003537, 9.998016 
1.3849378e+3, 3.0576923e+2, 235589.28, -360121.7, -72372.73, -0.045070603, 0.04631414, 244255.73, 244255.73, 0.0009104193, 10.003653, 9.99575 
1.3849212e+3, 3.157626e+2, 377845.13, -110503.93, 42278.02, -0.036088046, -0.21700674, 381478.25, 381478.25, 0.0017264709, 10.003802, 9.997397 
1.3952312e+3, 1.2580061e+2, -2043245.9, -1698978.1, -7363.6265, 0.012992774, 0.00056186866, -1698820.8, 8332.9, 0.008733579, 9.996965, 10.001556 
1.395212e+3, 1.3580203e+2, -1686493.9, -1495745.1, 57117.574, -0.28662235, -0.0051194592, -1479949.9, 129185.234, 0.005033633, 9.998836, 10.0013895 
1.3951986e+3, 1.4580299e+2, -1666914.1, -1606026.6, -5214.1934, 0.08235724, 0.029977918, -1605583.3, -94457.445, 0.002076125, 9.999025, 9.999862 
1.395181e+3, 1.558019e+2, -1673620.3, -1553921.5, -59458.258, 0.070798494, -0.07844902, -1529407.3, -116267.555, 0.00048381835, 9.998296, 9.999895 
1.3951634e+3, 1.6580175e+2, -1467955.8, -1363490.8, -57219.73, 0.0049168305, -0.09911042, -1338248.5, -23107.352, 0.000034571214, 9.998857, 10.000261 
1.3951455e+3, 1.7580234e+2, -1154643.8, -1158251.5, -20789.422, -0.08807701, -0.09006123, -1135580.1, 81552.56, 0.00000005013657, 10.000329, 10.000284 
1.395129e+3, 1.8580244e+2, -1155077.3, -1223780.4, -29122.355, -0.060279965, -0.04682686, -1144393.9, -25262.61, 0.0, 10.000142, 9.999253 
1.3951129e+3, 1.95802e+2, -1257018.5, -1211370.0, -11818.75, 0.06194003, -0.039515175, -1208491.6, -187354.39, 0.0, 9.998727, 9.999346 
1.395098e+3, 2.0580128e+2, -1124178.3, -1136044.5, 75488.15, 0.100029126, -0.022398954, -1054390.4, -131246.17, 0.0, 9.999139, 9.998988 
1.3950835e+3, 2.1580034e+2, -766766.2, -907746.0, 66756.71, 0.0771956, -0.03822056, -740172.2, 84980.26, 0.0, 10.000898, 9.999035 
1.3950674e+3, 2.2579852e+2, -642728.06, -875557.0, 20891.293, -0.057245266, -0.08076578, -640868.4, 86301.22, 0.0, 10.0013895, 9.99836 
1.3950503e+3, 2.3579597e+2, -603032.56, -793744.44, 21827.14, -0.26319337, -0.19877599, -600566.3, 28628.184, 0.0, 10.000943, 9.998461 
1.3950354e+3, 2.4579531e+2, -539257.6, -728508.44, -60976.66, -0.12055723, -0.09697235, -521312.53, 9890.851, 0.0, 10.000806, 9.998284 
1.3950223e+3, 2.557959e+2, -413664.16, -606951.5, -60515.73, 0.27489072, 0.10707233, -396280.84, 36921.04, 0.0, 10.000959, 9.998369 
1.3950057e+3, 2.6579395e+2, -232869.16, -513899.7, 1936.6583, 0.19821091, 0.10069844, -232855.81, 102364.35, 0.0000000011462398, 10.001705, 9.997987 
1.3949865e+3, 2.7579007e+2, 32401.762, -329699.94, 19100.457, -0.2175083, -0.11579983, 33406.504, 270660.16, 0.000006299897, 10.002825, 9.99804 
1.3949715e+3, 2.8578702e+2, 131212.1, -351715.94, -27937.422, -0.20130318, -0.15919533, 132822.9, 272104.84, 0.00007482128, 10.003356, 9.99696 
1.3949592e+3, 2.9578432e+2, 256982.17, -215981.6, -53697.246, 0.12856583, -0.15558356, 263002.0, 304311.3, 0.00032370954, 10.003444, 9.997171 
1.3949421e+3, 3.05783e+2, 358936.16, -91843.51, -75169.1, 0.017250575, -0.025582004, 371140.47, 371140.47, 0.00084908167, 10.003598, 9.99762 
1.3949229e+3, 3.157795e+2, 423313.72, 43214.855, 79070.234, -0.28586283, -0.164011, 439106.2, 439106.2, 0.0016133434, 10.003554, 9.998574 
1.4052294e+3, 1.2581745e+2, -1828384.8, -1569771.0, -21654.066, 0.07251288, 0.018359464, -1567970.5, 139018.7, 0.009133226, 9.998314, 10.0018 
1.405211e+3, 1.3581857e+2, -1816033.0, -1498333.4, 33976.254, -0.20095651, -0.08077236, -1494740.4, 114230.305, 0.005275387, 9.997685, 10.001927 
1.4051977e+3, 1.4581974e+2, -1853896.4, -1747114.0, 3692.8716, 0.14871612, -0.027006805, -1746986.4, -236026.86, 0.0021822979, 9.997964, 9.999399 
1.4051795e+3, 1.5581913e+2, -1615021.8, -1577642.4, 25544.281, 0.05886966, -0.039236248, -1564680.6, -151709.52, 0.00051218417, 9.998924, 9.999425 
1.4051619e+3, 1.6581845e+2, -1432286.4, -1354459.6, 70135.76, -0.026766837, -0.085277244, -1313165.4, 1811.9027, 0.000037386584, 9.999142, 10.00018 
1.4051452e+3, 1.7581771e+2, -1347741.6, -1258949.6, 23409.756, -0.07945561, -0.20325877, -1253155.8, -36176.61, 0.00000006103049, 9.999031, 10.0002165 
1.4051291e+3, 1.858176e+2, -1221972.9, -1274613.3, -21281.867, -0.019113462, -0.17230217, -1214445.3, -95465.375, 0.0, 9.999766, 9.999084 
1.4051133e+3, 1.958178e+2, -911151.3, -1059340.9, -31397.79, 0.11338733, -0.08561714, -904773.4, 116207.5, 0.0, 10.001165, 9.999211 
1.4050986e+3, 2.0581755e+2, -805757.2, -1000037.9, 94482.23, 0.14965974, -0.009119033, -767386.9, 155598.06, 0.0, 10.001398, 9.998837 
1.4050847e+3, 2.1581689e+2, -781317.5, -929023.7, 84552.0, 0.11549969, 0.017306292, -742906.06, 82085.9, 0.0, 10.000861, 9.998907 
1.405069e+3, 2.2581495e+2, -713644.5, -932563.25, 38369.28, -0.015676944, -0.018068127, -707114.4, 19897.053, 0.0, 10.001031, 9.998128 
1.405052e+3, 2.35812e+2, -498797.34, -760384.44, 5685.2603, -0.21611257, -0.1538678, -498673.84, 130367.25, 0.0, 10.001757, 9.998286 
1.405037e+3, 2.4581094e+2, -342408.44, -647506.2, -54785.113, -0.103331216, -0.07721734, -332869.16, 198184.64, 0.0, 10.002212, 9.998168 
1.4050235e+3, 2.5581115e+2, -190339.67, -507444.88, -51008.797, 0.2293201, 0.10042798, -182336.5, 250719.05, 0.0, 10.002521, 9.998305 
1.4050075e+3, 2.658094e+2, -104504.11, -412253.47, 48258.53, 0.18543282, 0.09700755, -97114.086, 237956.72, 0.0000000047036606, 10.002413, 9.998344 
1.4049898e+3, 2.7580628e+2, -53894.676, -333524.47, 51365.867, -0.13134402, -0.07773546, -44757.707, 192337.5, 0.000006310048, 10.002071, 9.998376 
1.4049749e+3, 2.8580305e+2, -34257.746, -462884.7, 61573.15, -0.13992555, -0.14214928, -25587.998, 113537.555, 0.00007120588, 10.002365, 9.996664 
1.404962e+3, 2.9579937e+2, 195835.9, -269288.03, 70841.4, 0.07614984, -0.20553823, 206386.2, 247549.95, 0.00031037428, 10.003136, 9.996947 
1.4049454e+3, 3.0579826e+2, 425899.16, 27841.484, 36244.59, -0.010911275, -0.085271984, 429172.44, 429172.44, 0.0008184522, 10.00367, 9.998418 
1.4049268e+3, 3.1579664e+2, 515907.06, 133035.61, 73943.86, -0.25544533, -0.116504304, 529691.56, 529691.56, 0.0015564455, 10.003988, 9.998987 
1.4152268e+3, 1.2583484e+2, -1875845.5, -1655522.1, -159676.3, -0.063465975, 0.036931723, -1571693.9, 135123.86, 0.009556688, 9.998256, 10.0012455 
1.4152105e+3, 1.358338e+2, -1831807.4, -1516342.1, 27010.121, -0.033326063, -0.25501713, -1514046.1, 94773.55, 0.0055341963, 9.997637, 10.001822 
1.4151955e+3, 1.4583528e+2, -1796963.1, -1637850.6, 28364.549, 0.09968709, -0.20673701, -1632945.4, -122140.55, 0.0022969088, 9.997994, 10.000139 
1.4151773e+3, 1.5583785e+2, -1574141.3, -1493677.1, 63214.65, -0.07429081, 0.028013531, -1458977.8, -46192.848, 0.0005425403, 9.998927, 10.000002 
1.4151601e+3, 1.6583759e+2, -1490188.3, -1479009.6, 51243.645, -0.13486297, 0.045479156, -1433051.4, -118263.67, 0.000040406845, 9.999159, 9.99932 
1.4151448e+3, 1.7583507e+2, -1408348.1, -1377830.8, 29964.563, -0.048408967, -0.16443516, -1359463.5, -142654.55, 0.00000007226826, 9.999001, 9.999416 
1.4151295e+3, 1.8583377e+2, -1246299.3, -1323934.0, 21730.36, 0.013017702, -0.19634628, -1240630.8, -121808.68, 0.0, 9.999761, 9.998748 
1.415114e+3, 1.9583333e+2, -941201.9, -1110273.5, 21478.504, 0.03421603, -0.13940106, -938515.94, 82313.63, 0.0, 10.001119, 9.998883 
1.4150992e+3, 2.0583321e+2, -807057.3, -990495.44, 60576.957, 0.04940168, -0.038138308, -788858.44, 133975.1, 0.0, 10.001339, 9.998933 
1.4150853e+3, 2.1583319e+2, -796438.25, -932334.56, 73896.24, 0.073812746, 0.042235773, -763999.1, 60837.293, 0.0, 10.000735, 9.998948 
1.4150707e+3, 2.2583202e+2, -761452.1, -1002569.9, 55490.113, 0.052473277, 0.10174191, -749294.8, -22443.992, 0.0, 10.000904, 9.997707 
1.415056e+3, 2.3582995e+2, -547808.06, -829789.8, 40665.11, -0.0066222777, 0.10171799, -542060.8, 86813.08, 0.0, 10.001624, 9.9978695 
1.4150396e+3, 2.4582781e+2, -343141.8, -633465.3, -50933.0, -0.07550032, 0.07998249, -334465.66, 196430.56, 0.0, 10.002134, 9.998304 
1.4150225e+3, 2.558254e+2, -190938.53, -489278.0, -31811.146, -0.14602539, -0.02014385, -187584.3, 245335.03, 0.0, 10.002431, 9.998475 
1.4150073e+3, 2.6582426e+2, -87426.55, -354233.44, 28137.91, -0.09450951, 0.0058802017, -84491.37, 250435.8, 0.000000079284355, 10.002317, 9.998785 
1.4149937e+3, 2.7582398e+2, -39682.605, -281626.78, 53814.793, 0.041321147, 0.07155046, -28252.738, 208671.77, 0.000007370017, 10.001982, 9.998773 
1.4149785e+3, 2.8582144e+2, -3574.5488, -393932.38, 83991.195, -0.023446301, 0.034754463, 13730.252, 152677.36, 0.00007169882, 10.002329, 9.997161 
1.4149623e+3, 2.9581702e+2, 209781.9, -221801.72, 114307.95, -0.21840128, -0.15563175, 238187.6, 279178.34, 0.00031191297, 10.003036, 9.997333 
1.4149472e+3, 3.0581492e+2, 372422.94, -40330.664, 44313.715, -0.22110662, -0.12783417, 377126.9, 377126.9, 0.00082090637, 10.0035095, 9.998011 
1.4149329e+3, 3.1581396e+2, 433534.75, 20381.248, 105534.86, -0.081028424, -0.05761961, 458931.2, 458931.2, 0.001557212, 10.003767, 9.998301 
1.4252248e+3, 1.2585129e+2, -2085121.1, -1739166.6, -187990.67, 0.010000936, 0.011065848, -1656680.4, 49979.445, 0.010011913, 9.996747, 10.001399 
1.4252087e+3, 1.3585168e+2, -1854307.8, -1527985.5, 10183.375, 0.04965228, -0.13971414, -1527668.1, 80980.055, 0.0058154534, 9.997493, 10.001811 
1.4251925e+3, 1.458525e+2, -1779645.8, -1622019.9, 32935.867, 0.010174821, -0.15512763, -1615414.8, -104776.19, 0.002423067, 9.998106, 10.000187 
1.425177e+3, 1.5585457e+2, -1593963.3, -1499863.4, -3326.8572, 0.029957155, 0.019733366, -1499745.9, -87124.18, 0.00057589856, 9.998784, 10.000027 
1.4251608e+3, 1.6585426e+2, -1502556.4, -1529952.4, -18900.396, 0.009600365, 0.05456659, -1492912.1, -178287.02, 0.00004378684, 9.999254, 9.998927 
1.4251447e+3, 1.7585212e+2, -1336357.0, -1380080.0, -22194.729, 0.009144565, -0.081907086, -1327065.1, -110420.3, 0.00000008454083, 9.999652, 9.999086 
1.4251292e+3, 1.8585084e+2, -1232498.0, -1307479.5, 40189.383, 0.012198026, -0.10114211, -1215027.4, -96369.164, 0.0, 9.999822, 9.998826 
1.425114e+3, 1.9585018e+2, -1111998.3, -1189201.1, 52277.754, -0.0057281745, -0.07466566, -1085614.8, -64947.402, 0.0, 9.999933, 9.998913 
1.4250997e+3, 2.0584974e+2, -1001942.6, -1121877.6, 75286.195, 0.017994782, 0.012248466, -965659.9, -42984.344, 0.0, 10.000168, 9.998591 
1.425086e+3, 2.158493e+2, -838702.7, -980158.6, 39119.26, 0.07990595, 0.08426073, -828605.1, -3920.6277, 0.0, 10.000562, 9.9987 
1.425072e+3, 2.2584845e+2, -758369.44, -938562.3, 78476.234, 0.091880366, 0.15554258, -728984.1, -2289.1143, 0.0, 10.000651, 9.998269 
1.4250576e+3, 2.3584725e+2, -664927.0, -832621.8, 121066.18, 0.055820495, 0.18538296, -601508.0, 27199.184, 0.0, 10.000574, 9.998363 
1.4250416e+3, 2.4584496e+2, -547801.06, -757011.1, 67955.4, -0.0459125, 0.14083925, -527665.75, 3064.114, 0.0, 10.000846, 9.998076 
1.425024e+3, 2.5584173e+2, -343559.56, -585890.6, 35675.875, -0.19437589, -0.019136624, -338416.53, 94344.945, 0.00000000006254562, 10.001483, 9.998269 
1.425009e+3, 2.6584035e+2, -143114.55, -428488.88, 54335.543, -0.14655954, 0.017470883, -133119.11, 201653.45, 0.00000036239143, 10.002141, 9.998364 
1.4249961e+3, 2.7584034e+2, 54516.23, -278202.1, 1954.9761, 0.04468105, 0.14934765, 54527.715, 291296.94, 0.000010082052, 10.002805, 9.998401 
1.4249815e+3, 2.858381e+2, 54911.06, -363763.72, 1361.8531, 0.028673392, 0.1602123, 54915.49, 193704.83, 0.000078412035, 10.00272, 9.997185 
1.4249657e+3, 2.9583415e+2, 95088.02, -272065.8, -32018.129, -0.12973557, 0.014466411, 97859.29, 138687.33, 0.00032778483, 10.002231, 9.997375 
1.4249511e+3, 3.0583087e+2, 260147.58, -129751.51, -59070.87, -0.1399374, -0.06397284, 268900.5, 268900.5, 0.00085219153, 10.002867, 9.997715 
1.424937e+3, 3.1582898e+2, 480725.66, 12574.394, -20115.795, -0.06801842, -0.06286404, 481588.4, 481588.4, 0.0016105835, 10.004198, 9.998052 
1.4352232e+3, 1.2586725e+2, -2014297.4, -1595759.6, -110186.55, 0.13884403, -0.041422993, -1568523.6, 137987.0, 0.010506618, 9.996751, 10.002384 
1.4352058e+3, 1.3587238e+2, -1859255.5, -1528049.1, 44279.336, -0.008514707, 0.25903985, -1522231.6, 86222.4, 0.006123269, 9.997456, 10.00182 
1.4351887e+3, 1.4587156e+2, -1813281.9, -1705383.5, 45550.93, -0.19516078, 0.11750165, -1688725.4, -178266.3, 0.002563054, 9.998152, 9.999602 
1.4351785e+3, 1.5586944e+2, -1627297.6, -1568915.0, 29701.65, 0.29117733, -0.06977403, -1556461.1, -143981.45, 0.0006133788, 9.998779, 9.99956 
1.4351633e+3, 1.6586877e+2, -1499186.0, -1525173.5, -14232.789, 0.3107118, -0.053676832, -1492907.8, -178420.89, 0.000047750204, 9.999262, 9.998958 
1.4351445e+3, 1.7586891e+2, -1332141.9, -1373599.6, -1550.2869, 0.021409817, 0.036095504, -1332084.0, -115597.47, 0.00000010052836, 9.999657, 9.99913 
1.4351282e+3, 1.8586877e+2, -1197421.1, -1233949.6, 32066.525, -0.0874323, 0.102490164, -1178782.3, -60293.15, 0.0, 9.999819, 9.999334 
1.4351134e+3, 1.9586836e+2, -1092899.4, -1136075.6, 63386.945, -0.07354957, 0.1042106, -1047525.25, -27030.953, 0.0, 9.999876, 9.999307 
1.4350995e+3, 2.0586719e+2, -1063515.1, -1238470.3, 79555.25, -0.02566621, 0.13999552, -1032749.9, -110239.59, 0.0, 10.0001135, 9.99782 
1.4350864e+3, 2.1586531e+2, -897960.4, -1077875.9, 59981.9, 0.058845095, 0.14753014, -879796.8, -55261.58, 0.0, 10.000451, 9.998084 
1.4350721e+3, 2.2586432e+2, -669254.44, -725824.0, 66510.15, 0.026883002, 0.15176553, -625264.56, 101279.086, 0.0, 10.000532, 9.999787 
1.4350569e+3, 2.3586391e+2, -589559.94, -644854.44, 126948.47, -0.09027735, 0.10724437, -487283.03, 141257.47, 0.0, 10.000444, 9.999714 
1.4350422e+3, 2.4586241e+2, -606386.9, -854783.56, 80883.85, -0.08555553, 0.11372419, -582371.06, -51816.105, 0.0, 10.000735, 9.997463 
1.4350276e+3, 2.5586003e+2, -407847.47, -694906.75, 67649.47, 0.010288175, 0.102746755, -392703.84, 39879.15, 0.000000006122379, 10.00138, 9.997571 
1.4350124e+3, 2.6585773e+2, -233067.45, -603997.7, 71453.45, -0.040738642, 0.14118026, -219779.19, 114827.84, 0.0000008787704, 10.002083, 9.997192 
1.4349967e+3, 2.7585536e+2, -36451.777, -448891.78, 35428.75, -0.19730318, 0.16230702, -33430.566, 203198.42, 0.000014138208, 10.002719, 9.997277 
1.4349835e+3, 2.8585306e+2, 3653.708, -450018.47, -26347.855, -0.06797688, 0.2428498, 5178.7817, 143830.89, 0.00009033198, 10.00263, 9.996634 
1.434972e+3, 2.9585055e+2, 39061.84, -366341.22, -33174.293, 0.26356098, 0.29727873, 41758.566, 82436.54, 0.00035666508, 10.002135, 9.996773 
1.4349571e+3, 3.058459e+2, 248685.9, -133956.08, -16242.704, 0.15407047, 0.11093083, 249374.16, 249374.16, 0.00091448583, 10.00279, 9.997721 
1.4349385e+3, 3.1584165e+2, 470508.47, 41805.953, 50331.336, -0.35848415, -0.1237871, 476338.28, 476338.28, 0.0017228749, 10.003985, 9.998358 
1.4452201e+3, 1.2588358e+2, -1987392.9, -1611910.4, -12275.372, 0.14000154, 0.01943714, -1611509.5, 94842.76, 0.011047917, 9.997061, 10.00212 
1.445204e+3, 1.3588768e+2, -1884973.8, -1642292.5, -66702.97, 0.059767228, 0.3052699, -1625167.1, -16857.229, 0.00646129, 9.997699, 10.000922 
1.4451866e+3, 1.4588663e+2, -1791312.1, -1663086.9, -42340.82, -0.23012727, 0.17018075, -1650367.4, -140049.53, 0.0027186894, 9.998175, 9.999868 
1.4451772e+3, 1.5588488e+2, -1603483.6, -1521332.9, -20384.62, 0.26797998, -0.014012164, -1516552.8, -104220.15, 0.0006559602, 9.998794, 9.999871 
1.4451626e+3, 1.658842e+2, -1483485.8, -1503990.9, -21772.96, 0.31390908, -0.019167501, -1469672.3, -155333.38, 0.000052490832, 9.999334, 9.999058 
1.4451446e+3, 1.7588416e+2, -1276731.1, -1336127.5, -21833.941, 0.038005136, 0.04276922, -1269568.8, -53228.465, 0.00000012546444, 10.000002, 9.999216 
1.4451283e+3, 1.8588421e+2, -1163381.6, -1219205.6, -13361.55, -0.057306822, 0.1253185, -1160348.4, -42007.004, 0.0, 10.000047, 9.99933 
1.4451136e+3, 1.958843e+2, -1118578.8, -1141395.8, -33182.938, -0.03293691, 0.17590272, -1094898.0, -74555.48, 0.0, 9.99967, 9.999367 
1.4450999e+3, 2.058832e+2, -1040788.0, -1194412.0, 58222.504, -0.00365703, 0.20160612, -1021215.6, -98859.03, 0.0, 10.000133, 9.99811 
1.4450869e+3, 2.1588114e+2, -764007.9, -980507.7, 96491.555, 0.03725794, 0.15747571, -727245.2, 97136.3, 0.0, 10.001232, 9.998374 
1.4450724e+3, 2.2587997e+2, -574904.94, -672097.5, 54216.566, -0.0065052356, 0.12901418, -550693.0, 175696.9, 0.0, 10.001141, 9.999865 
1.445057e+3, 2.3587942e+2, -614465.5, -649902.5, -2361.5955, -0.11522766, 0.059800476, -614308.8, 14078.62, 0.0, 10.000234, 9.999781 
1.4450434e+3, 2.4587819e+2, -591583.1, -872264.94, 2040.6058, -0.04177456, 0.10043383, -591568.3, -61168.57, 0.0, 10.00095, 9.997233 
1.445031e+3, 2.5587633e+2, -203392.06, -628462.0, -109.69568, 0.15558466, 0.16458371, -203392.03, 229031.95, 0.000000012932129, 10.002909, 9.997296 
1.4450161e+3, 2.6587346e+2, -79170.67, -582061.25, 20714.537, 0.06501964, 0.18856779, -78318.87, 256135.31, 0.0000016431604, 10.00337, 9.996716 
1.4449991e+3, 2.7586994e+2, -45303.527, -497419.13, 13495.717, -0.2283057, 0.13250646, -44901.04, 191587.83, 0.00001933506, 10.002856, 9.996867 
1.4449862e+3, 2.8586727e+2, 61914.563, -432010.56, 15916.011, -0.07894777, 0.20222974, 62426.9, 200941.89, 0.000106984284, 10.0030775, 9.996537 
1.4449762e+3, 2.958651e+2, 267852.6, -272246.56, 34224.637, 0.38885495, 0.29649556, 270012.7, 310549.5, 0.00040085675, 10.003771, 9.996627 
1.4449613e+3, 3.058601e+2, 335399.75, -163662.7, 73659.555, 0.26481432, 0.122844845, 346044.53, 346044.53, 0.0010133042, 10.003695, 9.997087 
1.4449418e+3, 3.1585592e+2, 344666.16, -20558.344, 47881.68, -0.3780348, -0.050113197, 350839.22, 350839.22, 0.0019010013, 10.003138, 9.99833 
1.4552166e+3, 1.2590107e+2, -2090728.3, -1828305.5, 136313.28, 0.03864772, 0.24913095, -1770314.0, -64136.402, 0.011640448, 9.997087, 10.00061 
1.455203e+3, 1.3589801e+2, -2009635.5, -1890748.8, -39450.477, 0.17529577, 0.013802318, -1878848.9, -270637.03, 0.0068325973, 9.997657, 9.999238 
1.4551854e+3, 1.4589816e+2, -1723879.9, -1519454.0, -27572.193, -0.18551509, 0.023259608, -1515800.5, -5590.222, 0.0028915813, 9.998155, 10.000864 
1.4551723e+3, 1.559009e+2, -1540219.5, -1382623.9, 8682.926, -0.09959784, 0.18197758, -1382146.9, 30033.24, 0.00070428615, 9.998766, 10.0008335 
1.4551586e+3, 1.6590054e+2, -1463067.4, -1470363.4, -8884.434, -0.03799357, 0.15366024, -1457111.1, -142929.9, 0.000058062662, 9.999364, 9.999277 
1.4551443e+3, 1.7589794e+2, -1270119.9, -1316670.1, 9435.175, 0.0010753805, -0.060646247, -1268280.3, -52075.14, 0.00000016567238, 9.999975, 9.999364 
1.4551294e+3, 1.8589735e+2, -1197945.4, -1291927.3, -36504.766, 0.025019063, -0.02250233, -1185432.1, -67218.914, 0.0, 10.000051, 9.998829 
1.455114e+3, 1.9589815e+2, -1146230.9, -1196840.4, -36081.055, 0.04147778, 0.15020664, -1127465.5, -107254.98, 0.0, 9.999659, 9.998995 
1.4551002e+3, 2.0589784e+2, -956721.0, -1004196.0, 90436.51, 0.007009301, 0.2001332, -886958.56, 35256.04, 0.0, 10.000069, 9.999444 
1.4550874e+3, 2.1589667e+2, -703644.56, -825166.9, 136933.69, -0.053761408, 0.11197419, -614596.7, 209627.47, 0.0, 10.001107, 9.999499 
1.455073e+3, 2.2589539e+2, -678500.3, -859845.56, 9583.1875, -0.083491124, 0.085174665, -677995.3, 48239.24, 0.0, 10.001023, 9.9986315 
1.4550576e+3, 2.3589396e+2, -716747.9, -826839.25, -18752.592, -0.09079098, 0.05629404, -713641.25, -85394.98, 0.0, 10.000092, 9.998631 
1.4550449e+3, 2.4589239e+2, -590252.06, -856530.8, 68258.73, 0.005009692, 0.108834006, -573774.1, -43511.105, 0.0, 10.000878, 9.997382 
1.4550343e+3, 2.5589064e+2, -204029.39, -610230.2, 74445.195, 0.17205784, 0.16756782, -190815.53, 241468.42, 0.000000017460069, 10.002821, 9.997464 
1.45502e+3, 2.658877e+2, -80721.016, -564578.5, -6601.9565, 0.09908155, 0.16373993, -80630.95, 253682.64, 0.000002726617, 10.003276, 9.996884 
1.455003e+3, 2.7588385e+2, -49200.355, -476087.97, 7375.647, -0.13387878, 0.05989454, -49072.96, 187277.1, 0.0000251694, 10.002737, 9.997067 
1.4549893e+3, 2.8588066e+2, 85240.414, -365106.16, 35393.918, -0.07903237, 0.0397262, 88005.14, 226384.14, 0.00012713004, 10.00299, 9.9970455 
1.454978e+3, 2.958778e+2, 282081.66, -224125.97, 68240.29, 0.17015342, 0.018253282, 291119.53, 331523.38, 0.00045719108, 10.003684, 9.997005 
1.4549637e+3, 3.0587372e+2, 221936.13, -368149.5, 45199.656, 0.11629914, -0.0117107015, 225378.27, 225378.27, 0.0011417216, 10.003566, 9.99574 
1.4549462e+3, 3.158717e+2, 264819.72, -129684.625, 44675.203, -0.269452, 0.16346906, 269815.63, 269815.63, 0.0021348703, 10.002908, 9.997684 
1.4652134e+3, 1.2591353e+2, -2046882.8, -1809505.1, 95111.1, 0.011217234, 0.19214663, -1776098.1, -70045.31, 0.012283002, 9.997387, 10.000599 
1.4652005e+3, 1.3591094e+2, -1983862.1, -1845699.8, -39915.95, 0.15530795, -0.021178834, -1834997.0, -226912.53, 0.00723705, 9.99769, 9.999534 
1.4651844e+3, 1.4591222e+2, -1735489.1, -1523182.8, 43600.332, -0.08061421, 0.084572576, -1514577.5, -4503.99, 0.0030819494, 9.998055, 10.000894 
1.4651704e+3, 1.5591444e+2, -1509863.4, -1360362.6, -11457.517, -0.1705137, 0.18884599, -1359489.6, 52560.27, 0.0007585455, 9.998918, 10.000924 
1.465157e+3, 1.6591442e+2, -1456202.6, -1397119.0, -42609.168, -0.11490405, 0.15420757, -1374812.4, -60765.266, 0.00006440502, 9.9991045, 9.999908 
1.465144e+3, 1.7591277e+2, -1375153.4, -1307749.6, -11744.8955, 0.036983352, -0.028315423, -1305761.6, -89702.05, 0.00000022299002, 9.998993, 9.999901 
1.46513e+3, 1.8591203e+2, -1239750.6, -1366398.3, -9254.818, 0.086965226, -0.0006672961, -1239077.9, -121008.695, 0.0, 10.000015, 9.998326 
1.4651151e+3, 1.959119e+2, -841998.9, -1097047.0, -28026.342, 0.06441301, 0.125297, -838955.44, 181121.95, 0.0, 10.001954, 9.998566 
1.465101e+3, 2.0591138e+2, -726935.3, -892370.4, 20481.848, 0.0076408004, 0.17255701, -724437.25, 197646.19, 0.0, 10.001636, 9.999461 
1.4650877e+3, 2.1591058e+2, -891149.94, -913627.44, -39218.62, -0.06923463, 0.11929391, -861591.5, -37503.445, 0.0, 9.999811, 9.99952 
1.4650737e+3, 2.2590938e+2, -798809.25, -949619.94, -116831.24, -0.07746038, 0.1143923, -735162.44, -9063.906, 0.0, 10.000345, 9.998343 
1.4650594e+3, 2.3590772e+2, -368100.88, -686050.44, -92562.04, -0.03680436, 0.0908791, -343117.22, 284997.47, 0.0, 10.002601, 9.998393 
1.4650467e+3, 2.4590592e+2, -328776.25, -705908.94, 27169.879, 0.02917399, 0.12008152, -326828.9, 203304.14, 0.0, 10.002585, 9.997588 
1.4650355e+3, 2.55904e+2, -439752.63, -697112.6, 18823.016, 0.106920734, 0.14016332, -438383.22, -6229.904, 0.000000044837254, 10.001098, 9.997692 
1.4650221e+3, 2.6590124e+2, -346273.28, -661029.0, -33081.477, 0.08442985, 0.13285568, -342833.94, -8654.03, 0.0000038968087, 10.0013275, 9.997154 
1.4650069e+3, 2.758979e+2, -26472.816, -441650.78, -24775.28, -0.011002305, 0.055020113, -24999.607, 211212.13, 0.000030512307, 10.002786, 9.997285 
1.4649934e+3, 2.8589475e+2, 147206.94, -336694.34, -1770.7845, -0.012715679, 0.032202296, 147213.42, 285453.78, 0.00014596309, 10.003427, 9.997029 
1.4649802e+3, 2.9589182e+2, 261157.73, -235844.69, -41913.164, 0.042379055, 0.0048498395, 264667.56, 304933.72, 0.0005129789, 10.003559, 9.996981 
1.4649665e+3, 3.0588806e+2, 287145.9, -378428.47, -28338.855, 0.029135589, 0.025970804, 288350.34, 288350.34, 0.0012767037, 10.0041895, 9.995363 
1.4649516e+3, 3.1588537e+2, 575800.3, 14040.604, 12546.947, -0.11945991, 0.17963496, 576080.4, 576080.4, 0.0023888082, 10.005034, 9.9976635 
1.4752106e+3, 1.2592055e+2, -1961694.5, -1620981.1, 90646.516, -0.047571138, -0.18931203, -1598365.8, 107615.91, 0.012969953, 9.997349, 10.001908 
1.4751957e+3, 1.3592637e+2, -1834135.9, -1526229.1, -29298.234, -0.09960033, 0.1940834, -1523466.1, 84463.05, 0.0076708426, 9.997657, 10.00174 
1.4751837e+3, 1.4592865e+2, -1781748.0, -1632445.4, 58565.16, -0.002254704, 0.33611548, -1612214.3, -102304.55, 0.0032881629, 9.998103, 10.000126 
1.475171e+3, 1.5592586e+2, -1568309.4, -1466390.4, 25200.59, -0.023908446, 0.027115164, -1460499.8, -48561.06, 0.00081847684, 9.998857, 10.000225 
1.4751573e+3, 1.6592616e+2, -1385168.6, -1256718.3, -58821.047, -0.009866764, 0.005912848, -1233852.8, 80080.65, 0.000071419374, 9.999125, 10.000865 
1.4751436e+3, 1.759287e+2, -1318658.0, -1187494.3, -4470.5054, 0.065870956, 0.14319476, -1187342.0, 28561.43, 0.0000002932695, 9.9989805, 10.000732 
1.4751299e+3, 1.8592823e+2, -1268394.9, -1432797.4, 53436.438, 0.054420207, 0.18486902, -1252552.8, -134642.81, 0.0, 10.000037, 9.997865 
1.4751162e+3, 1.959255e+2, -889134.06, -1180433.9, 38711.473, -0.027683148, 0.10076897, -884077.4, 135866.17, 0.0, 10.001889, 9.998029 
1.475102e+3, 2.059239e+2, -820015.44, -1069545.5, -60649.727, -0.07432426, 0.12682734, -806055.2, 115907.36, 0.0, 10.001566, 9.998278 
1.4750874e+3, 2.1592304e+2, -981925.56, -1076724.4, -88695.914, -0.08471039, 0.18717614, -928758.2, -104786.49, 0.0, 9.999707, 9.998447 
1.4750743e+3, 2.2592203e+2, -771261.9, -871111.6, -39847.887, -0.061498087, 0.21991028, -757309.2, -31328.107, 0.0, 10.000244, 9.998934 
1.475062e+3, 2.3592079e+2, -343553.63, -609408.0, -11113.172, -0.02325817, 0.17549942, -343089.88, 284901.63, 0.0, 10.002486, 9.998976 
1.4750487e+3, 2.4591883e+2, -324869.34, -678734.75, -38903.77, -0.049143564, 0.14885812, -320642.78, 209366.25, 0.0, 10.002497, 9.99782 
1.4750347e+3, 2.5591627e+2, -439495.38, -671243.1, -19019.486, -0.10874109, 0.08578461, -437944.8, -5912.536, 0.000000082863835, 10.00099, 9.997922 
1.4750221e+3, 2.659141e+2, -332164.34, -612256.9, 16631.756, -0.0571452, 0.10410189, -331180.22, 2872.8933, 0.0000048986644, 10.001239, 9.997532 
1.4750108e+3, 2.7591214e+2, -20893.582, -405911.53, 38044.504, 0.06578603, 0.119970955, -17170.322, 218903.0, 0.00003489618, 10.002685, 9.997575 
1.4749973e+3, 2.8590968e+2, 81405.22, -454927.3, -6731.462, 0.039110605, 0.1926863, 81489.69, 219587.84, 0.0001611451, 10.003336, 9.996265 
1.4749826e+3, 2.9590693e+2, 201705.72, -333769.28, -24137.389, -0.08941179, 0.25697333, 202791.55, 242917.17, 0.0005625148, 10.00345, 9.996358 
1.4749698e+3, 3.0590287e+2, 315389.1, -290130.84, -691.60864, -0.08652492, 0.2397496, 315389.88, 315389.88, 0.0014021061, 10.004066, 9.996025 
1.4749575e+3, 3.158968e+2, 592742.06, 110748.58, 65378.52, -0.07296651, -0.017059887, 601452.7, 601452.7, 0.0026234936, 10.004793, 9.998434 
1.4852075e+3, 1.259316e+2, -2156301.5, -1687464.3, 151884.42, -0.020006154, -0.24239768, -1642560.5, 63310.574, 0.013700781, 9.995884, 10.002171 
1.4851922e+3, 1.3593844e+2, -1767529.3, -1405225.3, -58690.695, -0.21514778, 0.16170667, -1395954.9, 211852.16, 0.00813248, 9.997705, 10.002569 
1.4851826e+3, 1.4594099e+2, -1762266.1, -1620473.4, 6032.0713, 0.091395944, 0.29159373, -1620217.3, -110431.734, 0.0035089266, 9.998252, 10.000127 
1.4851701e+3, 1.5593849e+2, -1650111.4, -1502812.4, 12683.834, 0.046452597, 0.007820644, -1501728.1, -89914.125, 0.0008836724, 9.998294, 10.000238 
1.4851566e+3, 1.6593905e+2, -1442694.6, -1291567.3, -66197.234, 0.024266211, 0.015227614, -1266672.3, 47135.62, 0.00007901186, 9.998784, 10.000778 
1.4851429e+3, 1.759417e+2, -1208543.0, -1137547.4, -104532.12, 0.06436221, 0.17482124, -1062650.1, 153127.5, 0.00000037325287, 9.999761, 10.000693 
1.4851297e+3, 1.8594122e+2, -1265762.0, -1412602.8, -17639.33, 0.048540387, 0.20622244, -1263672.8, -145888.8, 0.0, 9.999971, 9.99804 
1.4851171e+3, 1.9593848e+2, -1173105.0, -1295185.6, -5267.8374, -0.032674965, 0.09969948, -1172878.0, -153061.67, 0.0, 9.999845, 9.998229 
1.485103e+3, 2.0593682e+2, -970282.2, -1144796.3, -57578.465, -0.07666611, 0.11334465, -952997.06, -31161.578, 0.0, 10.000554, 9.998245 
1.4850883e+3, 2.1593586e+2, -668688.56, -929374.6, -12853.286, -0.08288586, 0.16731203, -668056.3, 155789.58, 0.0, 10.001869, 9.998418 
1.4850754e+3, 2.2593492e+2, -602489.7, -806438.94, 79626.16, -0.048758626, 0.21772115, -575084.5, 150770.7, 0.0, 10.001476, 9.99878 
1.4850636e+3, 2.3593399e+2, -716119.5, -801215.5, 31360.79, -0.0023362217, 0.21920222, -705810.8, -77947.1, 0.0, 9.999983, 9.998861 
1.4850503e+3, 2.4593183e+2, -612085.6, -801836.7, -16428.91, -0.040937174, 0.17098638, -610673.75, -80791.45, 0.0, 10.000451, 9.997966 
1.4850359e+3, 2.5592875e+2, -238201.48, -558953.44, -15624.113, -0.13451405, 0.03968985, -237442.22, 194466.45, 0.00000011463164, 10.002298, 9.998069 
1.485024e+3, 2.6592678e+2, -119046.125, -513482.03, 23993.166, -0.06971505, 0.07452513, -117592.01, 216335.8, 0.000005857849, 10.002726, 9.997495 
1.4850134e+3, 2.7592558e+2, -84550.25, -443495.94, -9613.607, 0.0987595, 0.1735111, -84292.95, 151649.8, 0.0000392753, 10.002272, 9.997521 
1.4850007e+3, 2.8592297e+2, 17930.828, -481657.22, -7629.8594, 0.07351052, 0.23634364, 18047.326, 156016.2, 0.0001765315, 10.002906, 9.996276 
1.4849865e+3, 2.9591948e+2, 327942.38, -273616.8, 9610.081, -0.089517735, 0.2271971, 328095.88, 368098.44, 0.00061170605, 10.00432, 9.996354 
1.4849742e+3, 3.0591574e+2, 395245.25, -231585.84, 29530.91, -0.073350675, 0.23496555, 396633.44, 396633.44, 0.00151585, 10.004525, 9.996214 
1.4849626e+3, 3.15909e+2, 452599.84, 40201.55, 12175.23, 0.00995615, -0.107680194, 452959.0, 452959.0, 0.0028186254, 10.003839, 9.998409 
1.4952026e+3, 1.2594643e+2, -2170854.5, -1736490.6, 59468.547, -0.1399374, 0.00036053214, -1728496.0, -22772.207, 0.014485426, 9.995962, 10.001791 
1.4951895e+3, 1.3594788e+2, -1817968.8, -1484299.1, 6239.559, -0.2654206, -0.07070752, -1484182.5, 123528.555, 0.008627366, 9.997616, 10.002056 
1.4951815e+3, 1.4594966e+2, -1709635.3, -1522249.1, -10165.796, 0.122199744, -0.030956283, -1521699.3, -12002.154, 0.0037456865, 9.998275, 10.000799 
1.4951679e+3, 1.5595236e+2, -1612912.8, -1422420.1, 23310.02, -0.04139223, 0.13176568, -1419609.3, -7933.741, 0.0009542572, 9.998277, 10.000803 
1.4951544e+3, 1.659531e+2, -1505183.6, -1435945.6, -42030.76, -0.097592466, 0.18647881, -1416112.3, -102442.28, 0.00008722728, 9.998843, 9.99976 
1.4951418e+3, 1.7595199e+2, -1278970.5, -1271965.6, -66991.164, -0.024878893, 0.07555809, -1208385.4, 7294.9263, 0.0000004647829, 9.999717, 9.999789 
1.4951295e+3, 1.8595128e+2, -1204118.0, -1293260.1, -34108.48, -0.0038445282, 0.08181202, -1192564.5, -74875.914, 0.0, 9.999999, 9.998849 
1.4951171e+3, 1.959509e+2, -1120402.6, -1179066.3, 389.94397, -0.034238473, 0.12967452, -1120400.0, -100704.96, 0.0, 9.999812, 9.999043 
1.4951037e+3, 2.0595014e+2, -898190.3, -983754.2, -17329.408, -0.08114396, 0.13513876, -894813.8, 26888.4, 0.0, 10.0005, 9.999376 
1.4950897e+3, 2.1594901e+2, -620531.3, -799198.8, 31942.965, -0.12639728, 0.0587725, -614992.1, 208718.67, 0.0, 10.001744, 9.999368 
1.4950764e+3, 2.2594813e+2, -681829.75, -952475.1, 11059.363, -0.10538108, 0.12072811, -681378.56, 44341.92, 0.0, 10.001384, 9.997828 
1.4950633e+3, 2.3594727e+2, -791208.5, -934143.5, -7542.0474, -0.044811234, 0.22515023, -790811.7, -163079.89, 0.0, 9.999882, 9.998 
1.4950511e+3, 2.459449e+2, -621269.3, -797333.1, 46043.58, -0.027524725, 0.19014914, -609955.2, -80202.04, 0.0, 10.000345, 9.998049 
1.4950393e+3, 2.5594136e+2, -252569.89, -564115.1, 55339.586, -0.04001543, 0.0018998936, -243031.95, 188750.77, 0.00000015644366, 10.002194, 9.998082 
1.4950272e+3, 2.659393e+2, -171881.63, -602562.56, -1509.3152, -0.02581426, 0.05603393, -171876.34, 161927.47, 0.000006865855, 10.002632, 9.996929 
1.495015e+3, 2.759382e+2, -131484.17, -516688.66, -10220.41, 0.011560371, 0.22365254, -131213.19, 104606.73, 0.00004412312, 10.002171, 9.9970665 
1.4950031e+3, 2.8593466e+2, 55483.297, -385159.75, 39354.1, 0.002823846, 0.17329958, 58970.44, 196823.14, 0.0001927378, 10.002816, 9.996986 
1.4949916e+3, 2.9592943e+2, 355561.13, -190507.88, 71405.32, -0.041189145, -0.08482322, 364743.8, 404641.0, 0.00065815035, 10.0042095, 9.996979 
1.4949794e+3, 3.0592677e+2, 344509.13, -301911.44, -2908.3718, -0.02310144, 0.023873141, 344522.22, 344522.22, 0.0016072463, 10.004383, 9.995793 
1.4949661e+3, 3.1592184e+2, 354040.88, -115519.2, 16436.049, -0.046988208, -0.09278653, 354615.5, 354615.5, 0.0029541696, 10.00364, 9.997427 
1.5051995e+3, 1.2595882e+2, -1919519.8, -1648049.0, -35342.473, -0.14218916, 0.07033457, -1643523.3, 62080.453, 0.015336173, 9.997848, 10.001479 
1.5051876e+3, 1.3595903e+2, -1949244.4, -1611301.9, -29833.906, -0.17409849, -0.070997834, -1608688.4, -1085.6533, 0.0091627855, 9.9969845, 10.001485 
1.5051793e+3, 1.4596039e+2, -1870340.6, -1539702.4, -33778.473, 0.14346348, -0.070065625, -1536286.8, -26694.867, 0.0040015904, 9.996936, 10.001313 
1.5051651e+3, 1.5596423e+2, -1626859.6, -1368793.4, -30957.28, -0.1035411, 0.14651904, -1365131.8, 46426.188, 0.001031135, 9.997923, 10.001338 
1.5051526e+3, 1.6596512e+2, -1542478.8, -1473601.0, -31758.766, -0.15910962, 0.20151454, -1461192.8, -147641.55, 0.000096309515, 9.998665, 9.999595 
1.5051413e+3, 1.7596345e+2, -1323981.6, -1304120.0, -12582.706, -0.041541755, 0.049038734, -1298021.3, -82452.625, 0.000000575819, 9.999436, 9.99971 
1.5051293e+3, 1.8596292e+2, -1180895.4, -1213900.6, 30976.074, -0.0032094205, 0.044996765, -1162300.3, -44725.977, 0.0, 9.999886, 9.999433 
1.505117e+3, 1.9596334e+2, -1020173.3, -1069172.5, 35337.85, -0.040101167, 0.112821594, -1001672.94, 17897.443, 0.0, 10.00025, 9.999573 
1.5051042e+3, 2.0596297e+2, -943561.75, -1029627.56, -13664.54, -0.07477413, 0.14492351, -941444.3, -19870.09, 0.0, 10.0003, 9.999162 
1.5050909e+3, 2.1596195e+2, -853622.3, -932525.4, -83370.86, -0.1030058, 0.10094703, -800839.75, 22744.963, 0.0, 10.00023, 9.999189 
1.5050778e+3, 2.2596076e+2, -728452.9, -951010.44, -101708.31, -0.08139034, 0.13231838, -688975.06, 36621.934, 0.0, 10.000983, 9.998021 
1.5050645e+3, 2.3595941e+2, -420352.25, -734911.3, -52444.445, -0.033689376, 0.16793232, -411838.9, 215771.97, 0.0, 10.002346, 9.998177 
1.5050527e+3, 2.4595718e+2, -268095.63, -608535.75, 83442.7, 0.0003506796, 0.13129093, -248743.64, 280886.3, 0.0, 10.002709, 9.998195 
1.5050422e+3, 2.5595433e+2, -210378.36, -531863.94, 72249.24, 0.019247595, -0.0042547537, -194887.78, 236765.13, 0.00000020302433, 10.002443, 9.998174 
1.5050304e+3, 2.659521e+2, -172561.17, -650350.75, 19508.453, 0.01701166, 0.056170546, -171765.95, 161909.9, 0.0000077496, 10.002835, 9.9965 
1.5050179e+3, 2.7595034e+2, 71493.08, -457882.72, 6319.213, 0.0010899083, 0.19841371, 71568.5, 307268.1, 0.0000484326, 10.003724, 9.996725 
1.5050064e+3, 2.8594664e+2, 195571.81, -273165.63, 66428.31, 0.02211169, 0.12523353, 204804.03, 342537.7, 0.00020691432, 10.003596, 9.997378 
1.5049961e+3, 2.9594162e+2, 185151.7, -226246.3, 44873.395, 0.065832034, -0.14937954, 189989.39, 229764.0, 0.0006962151, 10.002851, 9.99738 
1.5049842e+3, 3.0593964e+2, 256440.42, -329255.4, 16527.496, 0.05890619, -0.000036909554, 256906.44, 256906.44, 0.0016682101, 10.00368, 9.995965 
1.5049703e+3, 3.159356e+2, 578803.7, -62982.06, 52363.992, -0.06593301, -0.0325973, 583048.06, 583048.06, 0.0030198593, 10.005392, 9.996972 
1.5151969e+3, 1.2597033e+2, -1930325.3, -1687942.0, -133556.22, -0.24155141, 0.077366635, -1628787.6, 76707.625, 0.016257107, 9.997909, 10.001188 
1.5151863e+3, 1.35972e+2, -2004710.5, -1716790.9, -45919.965, -0.0277511, 0.1440457, -1709644.5, -102163.914, 0.009740974, 9.99696, 10.000768 
1.5151756e+3, 1.4597343e+2, -1838201.5, -1499246.4, -10781.637, 0.0506284, 0.18150134, -1498903.8, 10563.409, 0.0042781597, 9.997032, 10.001551 
1.5151623e+3, 1.5597436e+2, -1604671.3, -1309933.9, 12824.636, -0.21433055, 0.072633594, -1309376.9, 102081.44, 0.0011151112, 9.997875, 10.0017605 
1.5151507e+3, 1.6597544e+2, -1485314.0, -1366914.1, -14371.171, -0.23813915, 0.08447585, -1365194.8, -51746.336, 0.000106548556, 9.998703, 10.000312 
1.5151407e+3, 1.7597619e+2, -1276090.5, -1203895.3, 21393.268, -0.061520606, 0.09852873, -1198032.0, 17409.773, 0.0000007145684, 9.99943, 10.0004015 
1.5151292e+3, 1.8597624e+2, -1150369.9, -1158881.6, 35205.516, -0.029650418, 0.10095045, -1119163.9, -1723.6775, 0.0, 9.999914, 9.999802 
1.5151165e+3, 1.9597585e+2, -1016706.75, -1047408.1, 51859.965, -0.1154203, 0.055430956, -977973.25, 41468.523, 0.0, 10.000191, 9.999751 
1.515104e+3, 2.059754e+2, -1059891.4, -1259586.8, -28976.627, -0.12713577, 0.15522239, -1055771.8, -134320.97, 0.0, 10.000242, 9.997615 
1.5150915e+3, 2.1597475e+2, -956987.7, -1122168.9, -74604.26, -0.08005142, 0.29980114, -928281.4, -104815.305, 0.0, 10.000121, 9.997941 
1.5150791e+3, 2.2597302e+2, -657202.75, -772319.44, -58265.453, -0.051839042, 0.2617983, -632859.75, 92622.79, 0.0, 10.000848, 9.999316 
1.5150669e+3, 2.3597048e+2, -356574.38, -572151.75, 1960.1713, -0.03918639, 0.052362975, -356556.56, 270943.6, 0.0, 10.002218, 9.999355 
1.5150553e+3, 2.4596879e+2, -274681.8, -599030.1, 62983.332, -0.030455125, 0.0073982626, -262880.78, 266630.84, 0.0, 10.002601, 9.998319 
1.5150443e+3, 2.559676e+2, -219094.4, -526020.44, 73911.625, -0.022730274, 0.027544338, -202222.97, 229296.44, 0.00000026346208, 10.002337, 9.998268 
1.5150331e+3, 2.6596522e+2, -206975.31, -697862.1, 46108.71, -0.016149953, 0.07827362, -202681.89, 130862.78, 0.0000083363275, 10.002728, 9.996227 
1.5150215e+3, 2.7596197e+2, 36373.31, -501136.4, 45435.848, -0.011070041, 0.10014697, 40186.953, 275769.1, 0.000050839903, 10.003606, 9.996483 
1.5150104e+3, 2.8595892e+2, 179595.86, -288930.16, 28899.643, 0.044521227, 0.107709475, 181371.72, 318983.16, 0.00021853887, 10.003507, 9.997317 
1.5149999e+3, 2.9595602e+2, 171392.22, -230945.45, 39993.984, 0.14515303, 0.045836322, 175329.25, 214964.27, 0.0007285583, 10.002745, 9.997397 
1.5149882e+3, 3.0595428e+2, 286481.28, -222994.63, 74656.88, 0.08566554, 0.17769475, 297195.94, 297195.94, 0.001707875, 10.003516, 9.996763 
1.5149747e+3, 3.1595033e+2, 551796.56, -45356.797, 137133.86, -0.19994944, 0.070664965, 581783.0, 581783.0, 0.0030336862, 10.005125, 9.9972 
1.5251945e+3, 1.2598203e+2, -1956346.5, -1702948.9, -38201.906, -0.25735644, 0.0266855, -1697314.9, 8062.894, 0.017244658, 9.997756, 10.001148 
1.5251859e+3, 1.3598336e+2, -1697597.4, -1571216.6, 46332.367, 0.13468572, 0.054637678, -1556050.6, 51313.78, 0.010359608, 9.99906, 10.000763 
1.5251736e+3, 1.459848e+2, -1642388.5, -1429883.4, 106134.875, 0.07546781, 0.105426766, -1385955.3, 123395.414, 0.0045741852, 9.998503, 10.001314 
1.52516e+3, 1.5598553e+2, -1698504.4, -1378658.3, 76684.945, -0.18654534, -0.0012777926, -1361223.0, 50120.734, 0.0012060112, 9.997319, 10.001564 
1.5251493e+3, 1.6598663e+2, -1614742.5, -1409445.4, 73620.875, -0.17673029, 0.016118122, -1385773.9, -72439.805, 0.000118081814, 9.997764, 10.000462 
1.525141e+3, 1.7598787e+2, -1246696.3, -1172112.9, 40006.008, 0.024998588, 0.066356674, -1154713.1, 60610.39, 0.0000008766353, 9.999578, 10.000544 
1.5251298e+3, 1.8598813e+2, -1163814.9, -1165626.1, -16168.753, 0.040823504, 0.08398238, -1148526.5, -31206.064, 0.0, 9.999822, 9.999802 
1.5251164e+3, 1.9598773e+2, -1170407.8, -1127402.9, -39753.883, -0.09494912, 0.03744058, -1103708.9, -84386.36, 0.0, 9.999141, 9.999719 
1.5251042e+3, 2.0598704e+2, -1144131.4, -1290826.5, -16343.082, -0.10340139, 0.11144024, -1142332.6, -220999.52, 0.0, 9.99962, 9.997695 
1.5250926e+3, 2.159861e+2, -834687.75, -1056929.8, 37600.45, -0.027559808, 0.21941495, -828498.6, -5148.6504, 0.0, 10.000926, 9.997997 
1.5250805e+3, 2.259844e+2, -631406.75, -772466.0, 47609.02, -0.012803304, 0.18641227, -616842.06, 108524.734, 0.0, 10.001071, 9.99921 
1.525068e+3, 2.359821e+2, -624859.2, -711296.5, -9155.292, -0.045569763, 0.010628004, -623900.06, 3483.7583, 0.0, 10.000412, 9.999272 
1.5250573e+3, 2.4598071e+2, -499290.78, -692645.3, 33788.297, -0.016582418, -0.005277113, -493556.4, 35836.777, 0.0, 10.001006, 9.998434 
1.5250474e+3, 2.559799e+2, -184468.06, -496342.56, 26502.46, 0.049820073, 0.04091117, -182231.97, 249165.86, 0.0000003530132, 10.002517, 9.998383 
1.5250367e+3, 2.659773e+2, -97468.875, -627923.6, 35128.016, 0.03756688, 0.05545948, -95152.73, 238270.84, 0.00000861748, 10.003411, 9.996378 
1.525025e+3, 2.7597338e+2, 86094.516, -465527.38, 41379.33, -0.032659706, -0.00217308, 89181.27, 324645.56, 0.000051572304, 10.0039015, 9.996581 
1.5250139e+3, 2.8597045e+2, 243187.78, -309040.94, 2780.2922, 0.0065476596, 0.037037045, 243201.78, 380695.44, 0.00023012148, 10.004169, 9.99686 
1.5250032e+3, 2.959682e+2, 375431.03, -180980.0, -34705.117, 0.121506624, 0.09033136, 377587.34, 417102.53, 0.0007602401, 10.004343, 9.996983 
1.5249927e+3, 3.0596617e+2, 437765.16, -121192.33, 22297.936, 0.14012969, 0.19198889, 438653.25, 438653.25, 0.0017408838, 10.004425, 9.997031 
1.5249811e+3, 3.159627e+2, 433509.3, -107814.78, 5205.607, -0.027226837, 0.113134556, 433559.38, 433559.38, 0.0030320457, 10.0042925, 9.997188 
1.5351923e+3, 1.2599356e+2, -1964896.0, -1718824.4, 80551.21, -0.29781273, -0.10980168, -1694801.4, 10453.233, 0.018294634, 9.997748, 10.00104 
1.535186e+3, 1.3599358e+2, -1658515.1, -1468126.5, 81149.586, 0.22983594, -0.29352736, -1438232.0, 169018.8, 0.011016667, 9.998976, 10.0015135 
1.5351729e+3, 1.4599499e+2, -1680272.1, -1526782.1, 44028.54, 0.13219033, -0.24333178, -1515049.4, -5811.6733, 0.0048880493, 9.9985695, 10.000624 
1.5351583e+3, 1.5599795e+2, -1752919.9, -1480701.0, 48848.184, -0.102745466, -0.056790292, -1472200.9, -60988.28, 0.0013030368, 9.997288, 10.000876 
1.5351486e+3, 1.6599897e+2, -1638724.5, -1480359.9, 130730.7, -0.06068997, 0.013810998, -1406701.3, -93495.2, 0.00013086536, 9.997837, 9.999948 
1.5351419e+3, 1.7599869e+2, -1286398.3, -1246850.6, 106382.13, 0.151452, -0.036721002, -1158420.3, 56791.906, 0.0000010420176, 9.999547, 10.000045 
1.5351306e+3, 1.859988e+2, -1186246.3, -1221676.5, -51520.574, 0.12585123, 0.009343079, -1149480.3, -32267.318, 0.0, 9.999856, 9.999403 
1.5351163e+3, 1.9599903e+2, -1182996.5, -1152224.5, -51745.78, -0.05257741, 0.06321876, -1113625.8, -94414.43, 0.0, 9.999135, 9.999551 
1.535104e+3, 2.0599799e+2, -1038150.5, -1057918.5, 24825.822, -0.08364452, 0.020050054, -1021313.44, -100093.29, 0.0, 9.999566, 9.999318 
1.5350936e+3, 2.1599604e+2, -760307.7, -874897.4, 85751.76, -0.017322797, -0.13266662, -714471.25, 108764.98, 0.0, 10.000812, 9.999299 
1.5350814e+3, 2.2599488e+2, -753178.8, -997854.4, 12936.094, -0.03970342, -0.08619113, -752496.8, -27247.123, 0.0, 10.000944, 9.997727 
1.5350679e+3, 2.3599418e+2, -727172.75, -906469.0, -16792.914, -0.114432365, 0.039303865, -725613.5, -98351.28, 0.0, 10.000333, 9.997973 
1.5350582e+3, 2.459929e+2, -512559.88, -690861.5, 83028.16, -0.03408178, 0.08897425, -479884.8, 49390.16, 0.0, 10.000884, 9.998504 
1.5350512e+3, 2.5599125e+2, -193973.02, -488214.44, 88862.086, 0.15953124, 0.043025702, -169218.84, 262068.94, 0.0000004707298, 10.002405, 9.998488 
1.5350407e+3, 2.6598844e+2, -70927.46, -554524.5, 42579.848, 0.094051905, 0.0009852187, -67207.0, 266105.03, 0.000008627056, 10.003324, 9.996929 
1.5350279e+3, 2.7598464e+2, 102695.695, -410582.03, 66381.82, -0.14554743, -0.09844299, 111141.82, 346487.3, 0.00005249674, 10.003814, 9.997003 
1.5350163e+3, 2.859812e+2, 160590.0, -456831.2, 758.5885, -0.18222357, -0.07978223, 160590.94, 297971.9, 0.00024287593, 10.004059, 9.995905 
1.5350056e+3, 2.959781e+2, 296728.22, -319270.88, -14822.937, -0.087283045, -0.021781832, 297084.7, 336501.28, 0.0007925894, 10.004233, 9.996085 
1.5349972e+3, 3.0597514e+2, 393310.34, -175425.72, 8228.441, 0.13746695, 0.050300103, 393429.34, 393429.34, 0.0017781468, 10.004272, 9.996725 
1.5349889e+3, 3.1597272e+2, 382810.13, -135151.16, 28660.588, 0.29535255, 0.097623125, 384391.2, 384391.2, 0.003049982, 10.003991, 9.9971285 
1.5451908e+3, 1.2600522e+2, -1995360.4, -1732324.6, 136703.88, -0.1942752, -0.18580715, -1674145.6, 30990.604, 0.019406972, 9.99755, 10.001034 
1.5451829e+3, 1.3600613e+2, -1917961.3, -1583663.8, -11701.987, 0.117596544, -0.28667602, -1583254.6, 23869.965, 0.0117135905, 9.997143, 10.001595 
1.5451704e+3, 1.4600688e+2, -1815205.1, -1610948.8, -24737.602, 0.078844756, -0.3021802, -1607995.5, -98878.17, 0.0052204016, 9.9977255, 10.000454 
1.5451573e+3, 1.5600961e+2, -1428559.3, -1355020.1, -165.08675, -0.055714622, -0.11314303, -1355019.8, 56072.6, 0.0014059248, 9.999617, 10.000632 
1.5451477e+3, 1.6601028e+2, -1387811.0, -1395062.0, 125988.02, -0.029394228, -0.05127315, -1265396.4, 47692.676, 0.00014487762, 9.999717, 9.9996195 
1.5451404e+3, 1.7600946e+2, -1419888.4, -1348812.1, 97542.8, 0.09688315, -0.12502454, -1280535.3, -65434.336, 0.000001197513, 9.99877, 9.999724 
1.5451299e+3, 1.8600939e+2, -1274919.5, -1269089.0, -19120.281, 0.106312685, -0.07640963, -1252663.0, -135559.03, 0.0, 9.999286, 9.999347 
1.545117e+3, 1.9600989e+2, -913637.1, -1022331.75, -10807.65, 0.030110149, 0.008918802, -912572.94, 106527.89, 0.0, 10.0009985, 9.999541 
1.5451054e+3, 2.0600893e+2, -754884.4, -894081.1, 24358.695, 0.004907962, -0.04002517, -750744.9, 170363.19, 0.0, 10.001407, 9.999555 
1.5450947e+3, 2.1600698e+2, -730975.06, -841072.1, -31844.766, 0.011573502, -0.21639039, -722427.8, 100694.42, 0.0, 10.00094, 9.99947 
1.5450828e+3, 2.2600591e+2, -682044.2, -1002870.2, -80306.22, -0.021249477, -0.14761758, -663065.4, 62070.797, 0.0, 10.0016165, 9.997363 
1.5450698e+3, 2.360054e+2, -355052.63, -766004.7, -51988.016, -0.08725085, 0.03696742, -348577.8, 278572.6, 0.0, 10.003074, 9.99761 
1.5450604e+3, 2.460041e+2, -159041.95, -565346.7, 80807.04, -0.02358892, 0.12159737, -143560.7, 385605.03, 0.000000000009610117, 10.003492, 9.99812 
1.5450536e+3, 2.5600222e+2, -103574.5, -476955.16, 37972.19, 0.12904026, 0.09277019, -99751.92, 331430.06, 0.0000005675007, 10.00316, 9.998212 
1.5450439e+3, 2.659992e+2, -54945.766, -467175.44, -7995.7163, 0.09105538, 0.007985994, -54790.734, 278415.25, 0.000008574752, 10.003101, 9.997632 
1.545032e+3, 2.759953e+2, 67101.02, -367190.75, 6498.179, -0.09071129, -0.1722757, 67198.234, 302434.97, 0.000054083346, 10.003301, 9.997554 
1.545021e+3, 2.8599203e+2, 146797.61, -502992.1, -1541.6549, -0.14013907, -0.14148088, 146801.27, 284071.72, 0.00025576144, 10.0041485, 9.99553 
1.54501e+3, 2.9598922e+2, 441940.5, -294521.0, -1285.0642, -0.11555467, -0.0103722615, 441942.75, 481248.25, 0.00082651264, 10.005432, 9.995672 
1.545002e+3, 3.0598533e+2, 552266.06, -124037.07, 21439.14, 0.1413781, -0.0045572673, 552945.0, 552945.0, 0.0018295939, 10.005458, 9.996516 
1.5449941e+3, 3.1598207e+2, 463898.25, -94818.75, 7309.757, 0.39928883, -0.015023321, 463993.84, 463993.84, 0.0031101918, 10.004502, 9.997178 
1.5551907e+3, 1.2601733e+2, -1967609.8, -1692438.5, 118374.78, -0.01113393, -0.1655946, -1648523.8, 56494.73, 0.020587768, 9.997617, 10.001284 
1.5551761e+3, 1.3602105e+2, -1957959.5, -1652100.6, -25871.336, -0.28098577, 0.07576896, -1649927.8, -42942.99, 0.012455585, 9.997094, 10.001145 
1.555166e+3, 1.460203e+2, -1779722.9, -1553572.9, 31970.223, -0.16167538, -0.093306944, -1549140.3, -40150.035, 0.0055746003, 9.997782, 10.000825 
1.5551563e+3, 1.5602082e+2, -1418398.4, -1324371.5, 69995.57, -0.12274278, -0.15578806, -1287066.3, 123913.84, 0.001515748, 9.999587, 10.00085 
1.5551464e+3, 1.6602086e+2, -1389780.9, -1415813.1, 78119.02, -0.16269013, -0.15237577, -1323601.0, -10621.361, 0.00016035176, 9.999776, 9.9994545 
1.5551366e+3, 1.7602026e+2, -1428096.5, -1361835.4, 73942.67, -0.18551446, -0.18909611, -1313940.3, -98951.27, 0.0000013687348, 9.998755, 9.999642 
1.5551275e+3, 1.8602014e+2, -1252483.6, -1228954.5, 35938.555, -0.08123503, -0.15985698, -1202903.9, -85911.89, 0.0, 9.999311, 9.999609 
1.5551187e+3, 1.960204e+2, -915912.5, -1012365.0, 51825.332, 0.08378192, -0.12229164, -893345.8, 125644.48, 0.0, 10.00094, 9.999635 
1.5551078e+3, 2.060199e+2, -841452.5, -1062878.5, -2620.8782, 0.086295225, -0.064921536, -841421.5, 79574.69, 0.0, 10.001347, 9.998432 
1.5550958e+3, 2.1601884e+2, -807514.75, -983097.7, -34401.508, -0.005681812, -0.042875785, -801015.1, 21992.67, 0.0, 10.000856, 9.998541 
1.5550843e+3, 2.2601745e+2, -655131.9, -920712.94, -32482.783, -0.04093374, -0.0017445148, -651216.7, 73809.086, 0.0, 10.001501, 9.997983 
1.5550736e+3, 2.3601578e+2, -337869.3, -707885.75, 5894.342, -0.038387693, 0.0055067185, -337775.44, 289273.0, 0.0, 10.002974, 9.998059 
1.5550636e+3, 2.4601428e+2, -234774.38, -693779.06, 61758.68, -0.068618864, 0.09563423, -226610.02, 302455.75, 0.0, 10.0033655, 9.9973 
1.5550546e+3, 2.560128e+2, -164048.61, -578160.5, 36722.504, -0.108473435, 0.18742225, -160817.36, 270262.9, 0.0000005355393, 10.003055, 9.997568 
1.5550457e+3, 2.6600963e+2, -17492.516, -365549.7, -4997.2607, -0.056205858, 0.07227987, -17420.781, 315684.72, 0.000008556659, 10.0029955, 9.99838 
1.555037e+3, 2.760053e+2, 100603.125, -276341.44, 30904.459, 0.06220118, -0.22685762, 103120.07, 338258.13, 0.00005618316, 10.003211, 9.998216 
1.555027e+3, 2.8600287e+2, 139697.7, -493703.94, 40937.133, 0.053583305, -0.14671908, 142332.53, 279495.0, 0.0002701419, 10.004042, 9.995646 
1.5550163e+3, 2.960016e+2, 436605.94, -278850.6, 51945.855, -0.047789373, 0.12328196, 440357.8, 479539.97, 0.00086634123, 10.0053215, 9.99583 
1.5550067e+3, 3.0599672e+2, 502125.8, -178216.73, -20022.322, 0.053421374, 0.034632396, 502714.53, 502714.53, 0.0019048685, 10.005266, 9.996227 
1.5549962e+3, 3.159906e+2, 436028.16, -74012.02, -364.84628, 0.13070475, -0.24327207, 436028.44, 436028.44, 0.0032272364, 10.004207, 9.997442 
1.565189e+3, 1.2602855e+2, -2115134.5, -1764126.8, 102598.89, 0.13264327, -0.18251482, -1736337.4, -31429.7, 0.021849003, 9.996604, 10.001284 
1.565173e+3, 1.3603245e+2, -1710033.6, -1576255.3, -19822.688, -0.3975091, 0.11317506, -1573379.9, 33493.566, 0.013250772, 9.998947, 10.000796 
1.5651648e+3, 1.4603135e+2, -1550301.8, -1466761.0, 20068.465, -0.14126118, -0.061824303, -1462190.3, 46691.777, 0.0059556314, 9.999488, 10.000589 
1.565156e+3, 1.5603082e+2, -1561072.3, -1422380.5, -5460.8, -0.05822758, -0.20264764, -1422165.9, -11284.438, 0.0016345053, 9.998744, 10.000578 
1.5651459e+3, 1.6603073e+2, -1519583.1, -1496367.9, -9534.7705, -0.1339084, -0.1937178, -1492953.9, -180071.69, 0.00017771397, 9.998969, 9.999293 
1.5651357e+3, 1.7603065e+2, -1235631.8, -1285061.4, -25657.951, -0.20825735, -0.16067107, -1224721.4, -9834.898, 0.0000016137079, 10.000145, 9.9995 
1.5651271e+3, 1.8603043e+2, -1120041.0, -1190925.4, -52917.594, -0.10347157, -0.12543735, -1091793.1, 25097.914, 0.0, 10.000325, 9.999385 
1.5651189e+3, 1.9603013e+2, -1073574.6, -1108858.9, -87097.25, 0.06904575, -0.121483706, -1002350.7, 16544.74, 0.0, 9.999933, 9.999464 
1.5651083e+3, 2.0602953e+2, -1008046.44, -1104739.0, -98901.5, 0.068838544, -0.08270357, -946306.94, -25405.182, 0.0, 10.000044, 9.998765 
1.5650961e+3, 2.1602876e+2, -816173.3, -948086.7, -36823.27, -0.036336638, -0.06685738, -806590.3, 16319.355, 0.0, 10.000639, 9.998877 
1.5650855e+3, 2.2602777e+2, -649113.7, -896095.25, 44232.09, -0.054866634, -0.011354364, -641431.06, 83491.75, 0.0, 10.001441, 9.998181 
1.5650763e+3, 2.3602659e+2, -414393.1, -723733.3, 34223.195, -0.021225749, 0.02156114, -410652.13, 216287.94, 0.0, 10.002345, 9.998253 
1.5650666e+3, 2.460246e+2, -340972.22, -745296.1, 80892.305, -0.06353068, 0.055457875, -325388.84, 203572.38, 0.0, 10.002637, 9.997298 
1.5650567e+3, 2.5602207e+2, -236609.3, -612832.7, 99700.93, -0.16277024, 0.04227868, -211821.28, 219163.86, 0.00000039469393, 10.002559, 9.997565 
1.5650484e+3, 2.6601928e+2, -26860.604, -398740.97, 74910.125, -0.088729106, -0.02088292, -12338.124, 320669.88, 0.000008163994, 10.003058, 9.998123 
1.565041e+3, 2.760162e+2, 191024.47, -251788.4, 18352.854, 0.102411285, -0.16682297, 191783.83, 426814.8, 0.00005803459, 10.003916, 9.998046 
1.5650319e+3, 2.860138e+2, 233514.97, -381908.03, 45209.063, 0.11143373, -0.106377564, 236818.31, 373872.66, 0.00028587584, 10.004399, 9.996253 
1.5650217e+3, 2.9601187e+2, 378613.28, -248830.9, 59516.086, -0.012648461, 0.03964593, 384208.78, 423286.63, 0.00091190235, 10.004669, 9.996362 
1.5650119e+3, 3.0600744e+2, 474980.94, -202784.45, -4436.7163, 0.05836344, -0.01903975, 475009.97, 475009.97, 0.0020017158, 10.005112, 9.996134 
1.5650007e+3, 3.1600186e+2, 651829.5, 42895.125, -10420.24, 0.10125631, -0.23086677, 652007.75, 652007.75, 0.0033978785, 10.005601, 9.997594 
1.5751852e+3, 1.2603949e+2, -2127579.0, -1797028.3, 52491.758, 0.035690006, -0.18348226, -1788892.8, -84094.914, 0.023204513, 9.99662, 10.001057 
1.5751727e+3, 1.3604097e+2, -1735888.8, -1609879.3, 65378.406, -0.3322141, -0.11883134, -1582087.9, 24696.662, 0.014108494, 9.998885, 10.000582 
1.5751664e+3, 1.4604071e+2, -1597015.6, -1589336.4, -19351.854, 0.04741563, -0.15420179, -1573446.9, -64659.957, 0.0063687824, 9.999577, 9.999718 
1.5751563e+3, 1.5603977e+2, -1615978.0, -1536774.9, -23218.746, 0.07359806, -0.24675505, -1530470.1, -119675.05, 0.00176415, 9.998742, 9.9998 
1.5751462e+3, 1.6603994e+2, -1520706.6, -1508448.8, 24302.074, -0.027105972, -0.16997753, -1489514.6, -176719.31, 0.00019721544, 9.999007, 9.999193 
1.5751375e+3, 1.7604074e+2, -1256342.8, -1318353.5, 21447.445, -0.050154947, -0.038549263, -1249647.6, -34855.723, 0.0000019795527, 10.000109, 9.999288 
1.5751281e+3, 1.8604036e+2, -1161059.9, -1285713.4, -73713.94, -0.04589884, 0.028562868, -1126854.9, -10055.366, 0.0, 10.00036, 9.99872 
1.5751176e+3, 1.9603918e+2, -1108923.5, -1174226.9, -90148.99, -0.07667888, 0.010214951, -1045695.2, -26880.543, 0.0, 9.999897, 9.999035 
1.5751067e+3, 2.0603803e+2, -894723.2, -862217.6, -82844.38, -0.11923481, -0.083685, -794046.8, 126776.13, 0.0, 10.000008, 10.000449 
1.5750957e+3, 2.1603681e+2, -727512.2, -741221.1, -6299.52, -0.14592323, -0.27729943, -725057.1, 97770.21, 0.0, 10.000543, 10.000343 
1.5750864e+3, 2.2603688e+2, -675400.1, -925313.44, 71959.21, -0.1357567, -0.17303284, -656161.5, 68666.164, 0.0, 10.001329, 9.9980345 
1.5750779e+3, 2.3603775e+2, -440918.13, -744371.8, 71620.07, -0.1041166, 0.07974044, -424863.94, 201962.05, 0.0, 10.002198, 9.998183 
1.5750691e+3, 2.4603511e+2, -311495.03, -648226.1, 69447.125, -0.093070105, 0.010593908, -297734.66, 231117.05, 0.0, 10.0024805, 9.998037 
1.57506e+3, 2.5603008e+2, -213375.7, -545603.0, 107028.59, -0.09382441, -0.32750353, -181881.5, 249014.61, 0.00000029448665, 10.002474, 9.998066 
1.5750517e+3, 2.660281e+2, -130647.97, -594186.7, 101000.46, -0.07275819, -0.26133665, -109596.98, 223316.98, 0.000007127328, 10.002971, 9.996824 
1.5750435e+3, 2.7602795e+2, 103790.08, -408267.13, 59478.65, -0.043295935, 0.008881691, 110608.12, 345524.03, 0.000058416226, 10.003814, 9.997018 
1.5750349e+3, 2.8602478e+2, 285385.84, -255171.31, 47583.06, -0.05547061, -0.012145081, 289542.44, 426488.63, 0.00029913426, 10.004307, 9.997172 
1.5750258e+3, 2.9601982e+2, 420268.38, -141285.13, 86691.15, -0.087048806, -0.26065814, 433346.94, 472340.25, 0.0009578061, 10.00457, 9.997152 
1.5750173e+3, 3.0601737e+2, 456968.94, -196109.06, 10156.365, 0.054091353, -0.16477624, 457126.84, 457126.84, 0.0021087986, 10.004944, 9.996246 
1.5750071e+3, 3.1601563e+2, 625676.56, 56608.99, 29725.88, 0.14880265, -0.009530199, 627225.06, 627225.06, 0.003597592, 10.005331, 9.997802 
1.5851821e+3, 1.2604931e+2, -1943549.4, -1656564.4, -99720.33, 0.021382075, -0.098864436, -1625316.4, 79389.09, 0.024665277, 9.997683, 10.001508 
1.5851717e+3, 1.3604984e+2, -1902794.5, -1641630.8, 10673.497, -0.2480901, -0.1796054, -1641195.3, -34498.027, 0.0150364665, 9.997544, 10.001002 
1.5851657e+3, 1.4604993e+2, -1796240.9, -1715136.9, -46815.445, 0.08756903, -0.18441278, -1693752.1, -185055.98, 0.0068181083, 9.998351, 9.999434 
1.5851559e+3, 1.5604937e+2, -1490190.1, -1502490.5, -32456.803, 0.112685114, -0.20748354, -1463306.0, -52602.84, 0.0019058621, 9.999717, 9.99956 
1.5851463e+3, 1.6604953e+2, -1356152.9, -1398549.0, 66835.36, 0.04058587, -0.13857286, -1307234.4, 5469.142, 0.0002187055, 10.000012, 9.999456 
1.5851386e+3, 1.7605004e+2, -1287117.0, -1299451.3, 75072.06, 0.048908424, -0.06531977, -1217959.1, -3258.343, 0.000002466339, 9.999754, 9.999584 
1.5851288e+3, 1.8604974e+2, -1221575.9, -1271189.1, 38739.34, 0.017651545, -0.022171292, -1200381.4, -83675.57, 0.0, 9.999761, 9.999108 
1.5851171e+3, 1.9604896e+2, -1050820.6, -1108952.1, 87567.02, -0.10447496, -0.038809005, -987621.56, 31094.09, 0.0, 10.000136, 9.999364 
1.585107e+3, 2.060481e+2, -777579.5, -858302.75, 81179.64, -0.13925934, -0.09409932, -727281.4, 193441.19, 0.0, 10.0010395, 9.999983 
1.5850978e+3, 2.1604703e+2, -492230.38, -673767.25, -18349.79, -0.08691975, -0.22472821, -490394.16, 332334.5, 0.0, 10.002336, 9.999955 
1.5850885e+3, 2.2604683e+2, -579912.94, -837314.0, -8710.111, -0.07318318, -0.1496193, -579618.56, 145112.33, 0.0, 10.001818, 9.998406 
1.5850793e+3, 2.3604724e+2, -700303.44, -833045.4, 17088.674, -0.096406646, 0.023936566, -698138.8, -71408.46, 0.0, 10.000265, 9.998511 
1.5850712e+3, 2.4604483e+2, -478273.7, -738045.7, 69156.945, -0.07616729, -0.031250827, -461009.94, 67743.73, 0.0, 10.00139, 9.997936 
1.5850641e+3, 2.5604048e+2, 47080.516, -435877.28, 20612.438, -0.02965052, -0.28748232, 47958.65, 478751.97, 0.00000023115544, 10.004329, 9.997924 
1.585056e+3, 2.6603833e+2, 157608.44, -476356.9, 4312.1094, -0.03715149, -0.22108454, 157637.77, 490451.66, 0.0000061293663, 10.00505, 9.996624 
1.5850471e+3, 2.760375e+2, 172349.86, -390507.94, 22216.113, -0.08694515, 0.0035231144, 173225.38, 408047.8, 0.000059467606, 10.004362, 9.996869 
1.5850383e+3, 2.8603408e+2, 255362.63, -244701.64, 25058.232, -0.101912074, -0.05066211, 256615.16, 393469.94, 0.00031125094, 10.004005, 9.997379 
1.5850298e+3, 2.9602906e+2, 324350.88, -160072.9, -12743.812, -0.09893017, -0.32682693, 324685.9, 363587.16, 0.001001983, 10.003802, 9.997379 
1.5850222e+3, 3.060276e+2, 431502.13, -203474.78, -54201.023, 0.08512602, -0.14459606, 436095.44, 436095.44, 0.0022137568, 10.004709, 9.996335 
1.5850137e+3, 3.1602645e+2, 748178.6, 103611.31, -88499.195, 0.230659, 0.06520203, 760108.75, 760108.75, 0.0037903949, 10.006223, 9.997705 
1.5951787e+3, 1.2605798e+2, -1863709.5, -1527741.9, -167128.7, -0.12125922, 0.025655866, -1458764.6, 245865.73, 0.026239868, 9.997794, 10.002379 
1.59517e+3, 1.3605925e+2, -1840860.1, -1510055.9, 27574.982, -0.18521574, -0.08045545, -1507773.0, 98836.14, 0.016040104, 9.997522, 10.001925 
1.5951625e+3, 1.4605905e+2, -1770652.8, -1682892.4, -4230.8843, -0.09962378, -0.16457272, -1682688.9, -174079.83, 0.0073062, 9.998423, 9.999628 
1.5951546e+3, 1.5605982e+2, -1478498.3, -1475272.8, 19626.484, -0.004751163, -0.07817344, -1457192.9, -46588.734, 0.002060233, 9.999699, 9.99976 
1.595146e+3, 1.6605966e+2, -1308865.4, -1306983.0, 45579.313, -0.0045412527, -0.07966448, -1262335.3, 50269.74, 0.00024185247, 10.000036, 10.000074 
1.5951383e+3, 1.7605865e+2, -1243844.8, -1200161.3, 73267.5, 0.03751352, -0.21958518, -1145549.1, 69062.92, 0.0000030340082, 9.999714, 10.000285 
1.5951288e+3, 1.8605871e+2, -1117158.9, -1059002.9, 41262.535, 0.01856355, -0.2551776, -1037601.9, 79006.984, 0.0, 9.999777, 10.000555 
1.5951177e+3, 1.9605954e+2, -990258.8, -968289.1, 111091.36, -0.081896596, -0.25360814, -867640.8, 150957.5, 0.0, 10.00008, 10.000354 
1.595109e+3, 2.0605972e+2, -965324.8, -1234616.8, 121356.04, -0.06440184, -0.10458707, -918706.25, 1894.9541, 0.0, 10.000979, 9.997428 
1.5951017e+3, 2.1605937e+2, -669280.3, -1001994.25, 26046.764, 0.063318245, 0.08683502, -667253.56, 155360.39, 0.0, 10.002174, 9.997775 
1.5950917e+3, 2.2605772e+2, -539342.44, -726813.94, -75177.35, 0.047270086, 0.06859254, -512919.84, 211711.28, 0.0, 10.001693, 9.9992285 
1.5950799e+3, 2.3605518e+2, -669506.56, -750684.8, -14190.677, -0.07040354, -0.13708623, -667097.44, -40445.703, 0.0, 10.00018, 9.99912 
1.5950724e+3, 2.4605383e+2, -564065.75, -890691.6, 176007.92, -0.094333015, -0.059236877, -487274.75, 41391.473, 0.0, 10.001282, 9.996939 
1.5950684e+3, 2.5605318e+2, -29125.89, -559521.1, 127226.24, -0.046887975, 0.1516734, -186.98586, 430490.4, 0.00000009760233, 10.004189, 9.997136 
1.595061e+3, 2.6604998e+2, 196077.42, -371566.97, -29572.506, -0.053702414, 0.10466252, 197613.9, 530321.1, 0.0000054247644, 10.004931, 9.997404 
1.5950516e+3, 2.76045e+2, 202794.45, -307934.7, 10652.414, -0.102542065, -0.17147622, 203016.55, 437766.56, 0.00006233866, 10.004268, 9.997485 
1.5950423e+3, 2.8604153e+2, 197151.22, -334074.66, 9912.283, -0.122948, -0.22307104, 197336.11, 334117.6, 0.00032281963, 10.003872, 9.996829 
1.5950334e+3, 2.9603913e+2, 276102.5, -235348.72, 511.77457, -0.13341925, -0.18610157, 276103.0, 314908.44, 0.0010344483, 10.00369, 9.99692 
1.5950269e+3, 3.0603787e+2, 402413.47, -214701.81, -5200.8105, 0.061520983, 0.038653236, 402457.28, 402457.28, 0.0022884877, 10.004523, 9.996338 
1.5950198e+3, 3.160342e+2, 665302.06, -3841.2566, -8998.7, 0.20259036, 0.00005080767, 665423.06, 665423.06, 0.0039245356, 10.005968, 9.997082 
1.6051759e+3, 1.2606667e+2, -1840321.8, -1563677.4, -15944.679, -0.20171256, -0.0042848354, -1562761.4, 141784.83, 0.027939666, 9.998166, 10.001936 
1.6051695e+3, 1.3606797e+2, -1811867.5, -1583755.0, -2816.7246, -0.020963803, -0.015936652, -1583720.3, 22807.2, 0.01712635, 9.99811, 10.0011215 
1.6051608e+3, 1.460678e+2, -1785895.1, -1630743.0, -29730.895, -0.085270554, -0.087213285, -1625240.9, -116713.38, 0.007836914, 9.998089, 10.000131 
1.605154e+3, 1.5606864e+2, -1614938.8, -1481377.1, -5704.873, 0.025911942, -0.047575746, -1481133.9, -70613.34, 0.0022287087, 9.998508, 10.000285 
1.6051458e+3, 1.6606878e+2, -1497434.3, -1350913.3, 8216.073, 0.03738899, -0.068653494, -1350454.0, -37936.723, 0.00026665046, 9.99855, 10.000485 
1.6051373e+3, 1.760682e+2, -1376205.9, -1221256.6, 7509.28, 0.022706209, -0.20485435, -1220893.5, -6374.873, 0.0000036433328, 9.998624, 10.000665 
1.6051282e+3, 1.8606846e+2, -1193736.3, -1101638.6, -53849.164, 0.014299269, -0.23416759, -1076833.9, 39679.26, 0.0, 9.999273, 10.000506 
1.6051187e+3, 1.9606926e+2, -942280.0, -950472.4, -108383.914, -0.015480245, -0.23392375, -837914.9, 180588.55, 0.0, 10.000412, 10.00032 
1.6051102e+3, 2.0606922e+2, -1050754.4, -1273906.0, -28052.238, 0.0042797066, -0.1062077, -1047282.0, -126774.17, 0.0, 10.000387, 9.997445 
1.6051026e+3, 2.1606864e+2, -1027687.56, -1174117.8, 46078.22, 0.06294449, 0.061135698, -1014394.5, -191873.06, 0.0, 9.999719, 9.997772 
1.6050929e+3, 2.2606663e+2, -668123.9, -833658.9, -9944.675, 0.03710348, 0.02958591, -667528.56, 57013.367, 0.0, 10.001011, 9.998813 
1.6050819e+3, 2.3606367e+2, -190817.34, -556539.25, -55278.45, -0.05400279, -0.17612839, -182644.7, 443922.3, 0.0, 10.003637, 9.998772 
1.605075e+3, 2.460623e+2, -210502.08, -725887.1, 158056.28, -0.088138044, -0.08593006, -165891.4, 362691.16, 0.0, 10.003729, 9.996902 
1.6050713e+3, 2.560619e+2, -326925.88, -700590.56, 162720.6, -0.07630106, 0.1594705, -265999.63, 164592.14, 0.000000007673713, 10.002132, 9.997169 
1.6050643e+3, 2.6605904e+2, -200431.77, -503800.16, 17227.99, -0.065001026, 0.11832351, -199456.53, 133161.47, 0.0000049768487, 10.00196, 9.997929 
1.6050553e+3, 2.7605444e+2, 7247.3965, -356660.34, 12905.591, -0.058032386, -0.16509709, 7704.505, 242360.84, 0.00006447964, 10.002722, 9.997903 
1.6050467e+3, 2.8605106e+2, 177099.19, -374841.72, 57749.473, -0.057710372, -0.21613935, 183076.77, 319764.53, 0.00032949253, 10.003853, 9.996561 
1.6050385e+3, 2.9604855e+2, 490200.63, -153906.08, 43425.93, -0.06957445, -0.16041909, 493115.25, 531828.7, 0.0010457985, 10.005258, 9.996724 
1.6050318e+3, 3.0604705e+2, 552611.1, -128579.64, 72564.26, 0.07437489, 0.038025353, 560255.3, 560255.3, 0.002311939, 10.005495, 9.996456 
1.6050248e+3, 3.1604287e+2, 476405.13, -138761.72, 28999.873, 0.16829543, -0.059467584, 477769.2, 477769.2, 0.003966988, 10.004826, 9.996708 
1.6151735e+3, 1.2607592e+2, -1928599.5, -1772407.5, 81799.69, -0.2944458, -0.13681553, -1737409.9, -32961.457, 0.02978273, 9.998282, 10.000423 
1.6151695e+3, 1.3607651e+2, -1986603.6, -1944940.9, -3504.228, 0.16872528, 0.046451863, -1944648.3, -338201.0, 0.018308382, 9.998104, 9.998646 
1.6151603e+3, 1.4607644e+2, -1721804.8, -1514541.8, -19978.3, 0.028910628, 0.06444762, -1512633.6, -4185.018, 0.008418617, 9.998151, 10.000903 
1.6151537e+3, 1.5607601e+2, -1561806.6, -1365234.0, 16304.375, 0.13231166, -0.10501671, -1363890.9, 46559.91, 0.0024150687, 9.998489, 10.00109 
1.6151452e+3, 1.6607694e+2, -1465842.6, -1310444.6, -836.6743, 0.09027236, -0.09843206, -1310440.1, 1999.4288, 0.0002938315, 9.998642, 10.000725 
1.6151352e+3, 1.7607863e+2, -1372837.1, -1218336.4, 20677.682, -0.05837047, -0.031098876, -1215616.9, -1196.2417, 0.000004294035, 9.998632, 10.000686 
1.615127e+3, 1.860789e+2, -1292346.4, -1314403.8, -17971.967, -0.066395774, 0.023358619, -1282289.0, -165869.83, 0.0, 9.99931, 9.999026 
1.6151196e+3, 1.9607817e+2, -1022451.94, -1108077.4, -64222.906, 0.028372176, 0.017233424, -988079.75, 30349.963, 0.0, 10.000377, 9.999255 
1.6151106e+3, 2.0607679e+2, -886376.4, -917886.7, -65803.94, -0.014951157, -0.0799751, -834467.75, 85972.305, 0.0, 10.000323, 9.999919 
1.6151004e+3, 2.1607496e+2, -897054.25, -885163.1, 38094.39, -0.14200667, -0.28373754, -852553.1, -30102.87, 0.0, 9.999642, 9.999792 
1.615092e+3, 2.2607361e+2, -804451.2, -1082093.9, 79350.26, -0.16533893, -0.24875249, -783373.06, -58909.973, 0.0, 10.000869, 9.997173 
1.615085e+3, 2.3607258e+2, -308849.94, -765842.5, 36407.05, -0.12014648, -0.099874996, -305967.7, 320510.1, 0.0, 10.00349, 9.997402 
1.6150784e+3, 2.4607013e+2, -167838.66, -606168.0, 88787.65, -0.13843986, -0.10282211, -150536.83, 377966.53, 0.0, 10.00359, 9.997793 
1.6150723e+3, 2.560668e+2, -286718.16, -589630.7, 121874.02, -0.19329764, -0.25153023, -243772.06, 186763.63, 0.00000000987263, 10.002016, 9.997982 
1.6150655e+3, 2.6606554e+2, -213268.77, -495967.4, 37594.44, -0.1490299, -0.17335698, -208354.72, 124191.984, 0.000004852571, 10.001814, 9.998051 
1.6150585e+3, 2.760656e+2, -3243.4438, -346007.25, 58307.453, -0.036147423, -0.0053033927, 6403.6997, 240948.6, 0.000064250504, 10.0026, 9.998027 
1.6150515e+3, 2.8606248e+2, 155571.11, -392094.28, 100891.03, 0.007934363, -0.028683916, 173566.0, 310140.97, 0.00032939267, 10.00373, 9.996503 
1.6150446e+3, 2.9605737e+2, 471570.7, -164575.27, 103843.195, -0.0027360497, -0.23602785, 488092.72, 526717.9, 0.0010398526, 10.005134, 9.996712 
1.615037e+3, 3.0605486e+2, 539702.75, -106272.77, 36567.547, 0.023078403, -0.15042274, 541766.2, 541766.2, 0.002292016, 10.005311, 9.996683 
1.6150278e+3, 3.1605247e+2, 422483.2, -165474.94, 31529.348, -0.047817964, -0.0924218, 424169.13, 424169.13, 0.003923475, 10.004512, 9.996649 
1.6251723e+3, 1.2608443e+2, -1999684.5, -1791697.4, 17626.139, -0.20914696, -0.084543325, -1790214.3, -85849.88, 0.03179242, 9.997741, 10.000542 
1.6251676e+3, 1.3608366e+2, -1926587.0, -1880016.5, 13307.131, 0.1523735, -0.07291793, -1876482.4, -270106.3, 0.019603958, 9.998345, 9.99898 
1.6251586e+3, 1.460847e+2, -1751321.8, -1528784.8, 86947.61, 0.05576698, 0.041849777, -1498842.1, 9524.401, 0.009062119, 9.997959, 10.000896 
1.6251527e+3, 1.5608439e+2, -1635695.4, -1395806.8, 57302.367, 0.21804407, -0.119868584, -1382821.8, 27546.281, 0.002624408, 9.997972, 10.001125 
1.6251445e+3, 1.6608532e+2, -1485290.4, -1336427.6, 23947.459, 0.16933145, -0.10630007, -1332670.0, -20312.297, 0.00032476612, 9.998592, 10.000564 
1.6251343e+3, 1.7608707e+2, -1249755.4, -1181541.0, -15.722553, -0.05872787, -0.018248629, -1181541.0, 32798.777, 0.000005034694, 9.99958, 10.000475 
1.6251265e+3, 1.8608713e+2, -1232849.1, -1356874.3, 10101.491, -0.07500548, 0.061527207, -1232031.9, -115689.734, 0.0, 10.000028, 9.998392 
1.6251202e+3, 1.9608611e+2, -1075805.6, -1183385.1, 10025.126, 0.05968421, 0.08556893, -1074879.4, -56521.703, 0.0, 10.000243, 9.9987955 
1.6251114e+3, 2.0608464e+2, -791370.25, -824058.8, -58911.785, 0.009858596, -0.023352517, -746577.5, 173789.6, 0.0, 10.000778, 10.0003395 
1.6251007e+3, 2.1608283e+2, -594464.56, -701254.2, -113114.66, -0.16346982, -0.2658519, -522775.7, 299597.44, 0.0, 10.001558, 10.0001335 
1.6250932e+3, 2.2608131e+2, -688047.25, -1060900.0, -21265.373, -0.17619523, -0.24504252, -686838.3, 37549.035, 0.0, 10.001802, 9.996875 
1.6250877e+3, 2.3607999e+2, -586278.1, -925485.2, 7870.0947, -0.094081864, -0.09505264, -586095.6, 40311.56, 0.0, 10.001681, 9.997186 
1.6250816e+3, 2.4607772e+2, -371608.34, -635548.94, 40435.03, -0.08921782, -0.1045342, -365552.75, 162877.47, 0.0, 10.001893, 9.998404 
1.6250749e+3, 2.5607476e+2, -197307.4, -489202.6, 34733.613, -0.14876775, -0.272886, -193231.25, 237224.58, 0.000000011745934, 10.002364, 9.998509 
1.6250682e+3, 2.6607355e+2, -56300.91, -404156.06, 533.6744, -0.11748086, -0.22332887, -56300.09, 276165.2, 0.0000048598445, 10.002823, 9.998195 
1.6250613e+3, 2.7607346e+2, 106897.76, -278730.94, 137.89914, -0.027058417, -0.08050165, 106897.805, 341362.25, 0.00006262461, 10.003285, 9.998158 
1.6250555e+3, 2.8607097e+2, 138462.95, -380770.72, 78376.49, 0.055808846, -0.058204133, 150035.67, 286524.8, 0.00032550952, 10.003534, 9.996676 
1.6250502e+3, 2.9606685e+2, 276003.25, -241591.42, 61745.355, 0.11539421, -0.17851149, 283267.1, 321797.88, 0.001026055, 10.003701, 9.99688 
1.6250426e+3, 3.0606356e+2, 463517.84, -115260.23, 13049.642, 0.09246955, -0.19323295, 463811.94, 463811.94, 0.0022469277, 10.004649, 9.996958 
1.6250329e+3, 3.160609e+2, 662413.4, -44579.676, -32797.98, -0.0638395, -0.17839111, 663931.6, 663931.6, 0.0038180887, 10.006078, 9.996771 
1.6351722e+3, 1.2609233e+2, -1901673.5, -1590207.4, 97391.95, -0.03652145, 0.14530961, -1562261.5, 142030.66, 0.03398967, 9.997748, 10.001942 
1.6351633e+3, 1.3608943e+2, -1723054.8, -1458874.6, 17775.342, -0.12706299, -0.3690516, -1457684.0, 148630.31, 0.02102759, 9.998346, 10.001886 
1.6351555e+3, 1.4609262e+2, -1781144.1, -1616642.1, 61481.67, -0.07415945, -0.13851231, -1596203.1, -87921.57, 0.009775217, 9.998057, 10.00025 
1.6351506e+3, 1.5609384e+2, -1682192.3, -1492098.9, 68670.24, 0.20500575, -0.08300854, -1469887.4, -59615.953, 0.002860367, 9.997971, 10.0004635 
1.6351436e+3, 1.6609396e+2, -1519753.1, -1420064.5, 53511.09, 0.19439524, -0.088326305, -1396779.5, -84508.375, 0.00036087315, 9.998637, 9.999973 
1.6351342e+3, 1.7609356e+2, -1289879.9, -1260458.6, 36507.406, -0.040153086, -0.15068468, -1235809.5, -21533.826, 0.000005927034, 9.999562, 9.999944 
1.6351266e+3, 1.8609327e+2, -1206956.6, -1312710.9, 7947.5796, -0.08379545, -0.099442065, -1206362.6, -90081.484, 0.0, 10.000062, 9.998682 
1.63512e+3, 1.9609298e+2, -1072314.3, -1171062.3, 26535.793, 0.014130203, -0.03160697, -1065635.3, -47347.094, 0.0, 10.000219, 9.998895 
1.6351122e+3, 2.060926e+2, -906884.94, -1048540.7, -37243.21, 0.003542124, 0.047235355, -897690.0, 22601.012, 0.0, 10.000713, 9.998829 
1.6351032e+3, 2.1609208e+2, -698243.56, -895771.44, -76862.32, -0.07497658, 0.08786478, -671859.06, 150432.47, 0.0, 10.001464, 9.998846 
1.635096e+3, 2.2608966e+2, -648616.6, -940955.0, -30552.086, -0.08986361, 0.025915457, -645457.8, 78857.52, 0.0, 10.00164, 9.997774 
1.6350901e+3, 2.3608598e+2, -543557.4, -809893.0, 14995.753, -0.04863993, -0.15474983, -542715.75, 83638.6, 0.0, 10.001564, 9.9980345 
1.6350843e+3, 2.4608497e+2, -377038.38, -609237.25, 49858.06, -0.025378738, -0.08999475, -366785.5, 161577.95, 0.0, 10.001736, 9.998658 
1.6350788e+3, 2.5608572e+2, -193501.4, -455986.38, 61158.977, -0.019202575, 0.08741549, -179950.9, 250402.13, 0.000000006263202, 10.002266, 9.998779 
1.6350718e+3, 2.6608315e+2, -62108.06, -395689.56, 9640.411, -0.054872118, -0.019302668, -61829.684, 270543.0, 0.000005059976, 10.002725, 9.998305 
1.635064e+3, 2.7607828e+2, 99749.47, -267742.28, 30146.531, -0.11372137, -0.37273622, 102206.06, 336619.25, 0.00006071332, 10.00317, 9.998292 
1.6350585e+3, 2.8607658e+2, 135060.8, -353154.13, 74864.79, -0.010747138, -0.2913499, 146282.9, 282712.94, 0.00031809925, 10.003392, 9.996932 
1.635055e+3, 2.9607698e+2, 273121.56, -213043.61, 88629.36, 0.19338386, 0.016282031, 288774.94, 327205.84, 0.0010038153, 10.003565, 9.997137 
1.6350484e+3, 3.060732e+2, 448615.9, -93976.5, 55223.605, 0.18301119, -0.07199933, 454179.34, 454179.34, 0.00218318, 10.0044365, 9.997199 
1.6350394e+3, 3.1606814e+2, 656710.94, 17560.166, 47363.89, -0.04311018, -0.33203253, 660201.75, 660201.75, 0.0036759577, 10.005785, 9.997322 
1.6451706e+3, 1.2609804e+2, -2100841.0, -1714173.9, 193558.05, 0.090812534, 0.086093105, -1633933.6, 70303.45, 0.036383986, 9.996532, 10.001666 
1.6451606e+3, 1.3609746e+2, -1778442.1, -1398651.1, -95480.91, -0.18351632, -0.26541433, -1375998.0, 230241.47, 0.022584815, 9.997586, 10.002684 
1.6451542e+3, 1.461009e+2, -1741674.0, -1555911.3, -71468.75, -0.009331044, -0.07419679, -1531597.4, -23393.078, 0.010560797, 9.998149, 10.000626 
1.645148e+3, 1.5610209e+2, -1512950.9, -1387012.6, -5454.977, 0.089550436, -0.05107345, -1386776.8, 23415.193, 0.0031241647, 9.999013, 10.000689 
1.6451414e+3, 1.6610213e+2, -1495344.6, -1458854.4, 23943.643, 0.09914205, -0.05116548, -1446996.6, -134803.94, 0.0004029895, 9.999027, 9.999519 
1.645134e+3, 1.761015e+2, -1457481.8, -1384054.4, 6272.484, 0.02473573, -0.089386955, -1383522.4, -169321.34, 0.0000070009137, 9.998597, 9.999564 
1.645127e+3, 1.8610074e+2, -1303602.4, -1328440.8, 16685.08, -0.010585736, -0.08273904, -1295221.8, -179012.1, 0.0, 9.999282, 9.998938 
1.6451202e+3, 1.9609983e+2, -971709.75, -1105047.5, 9755.578, -0.024210954, -0.10125996, -970999.75, 47219.215, 0.0, 10.000836, 9.999045 
1.6451132e+3, 2.0609918e+2, -837453.3, -1086370.1, -15641.505, -0.008859271, -0.020677889, -836474.25, 83750.766, 0.0, 10.00148, 9.998205 
1.6451058e+3, 2.1609874e+2, -716462.25, -953534.56, -5638.508, 0.022896212, 0.083726786, -716328.25, 105900.45, 0.0, 10.001555, 9.998396 
1.6450989e+3, 2.2609685e+2, -609228.06, -863821.7, 54236.98, 0.032925718, 0.06418804, -598155.3, 126091.805, 0.0, 10.001658, 9.998302 
1.6450924e+3, 2.3609391e+2, -484667.72, -735952.25, 59159.875, 0.029776355, -0.09146191, -471436.4, 154839.86, 0.0, 10.001773, 9.998449 
1.6450869e+3, 2.4609269e+2, -297840.0, -622298.7, 94425.49, 0.028510911, -0.038596515, -272360.72, 255926.98, 0.0, 10.002506, 9.998197 
1.645082e+3, 2.5609258e+2, -23070.223, -426932.88, 28732.174, 0.0112877805, 0.10328093, -21036.36, 409251.66, 0.000000005166704, 10.003663, 9.998314 
1.6450752e+3, 2.6608974e+2, 56424.047, -345943.7, -75224.164, -0.02409947, -0.0021917585, 70027.57, 402338.6, 0.000005473011, 10.00357, 9.998234 
1.6450673e+3, 2.7608505e+2, 39037.613, -296815.56, -94970.77, -0.076827705, -0.33324572, 64032.734, 298382.72, 0.00005878461, 10.002754, 9.998286 
1.645062e+3, 2.8608337e+2, 87492.21, -300847.28, 2708.681, 0.029341264, -0.28355855, 87511.11, 223875.38, 0.0003059286, 10.002755, 9.997592 
1.6450585e+3, 2.960839e+2, 255819.56, -158435.08, 23034.244, 0.24055772, -0.027772464, 257096.42, 295457.28, 0.0009707779, 10.003196, 9.997679 
1.6450529e+3, 3.0608013e+2, 369909.03, -141572.38, 39959.77, 0.2248744, -0.13295604, 373012.1, 373012.1, 0.002108377, 10.003888, 9.997146 
1.6450451e+3, 3.1607586e+2, 511862.44, -8407.757, -42809.887, 0.026237944, -0.31718606, 515361.47, 515361.47, 0.0035314728, 10.004579, 9.997715 
1.6551669e+3, 1.2610075e+2, -2186839.0, -1923263.3, 120286.04, 0.019513765, -0.32411906, -1876622.5, -172414.8, 0.03897044, 9.996664, 10.00015 
1.655159e+3, 1.3610807e+2, -1861768.1, -1559725.8, -61124.68, -0.114749506, 0.25555182, -1547824.8, 58323.1, 0.024272982, 9.997544, 10.0015745 
1.6551542e+3, 1.4610952e+2, -1650202.6, -1368271.4, -53094.8, 0.16952357, 0.21761194, -1358603.8, 149529.78, 0.0114189135, 9.998149, 10.001925 
1.6551444e+3, 1.5610935e+2, -1448778.3, -1245819.0, 28113.063, -0.18535967, -0.012122417, -1241996.9, 168130.39, 0.0034161112, 9.998982, 10.001676 
1.6551377e+3, 1.6611001e+2, -1500737.8, -1492961.0, -2432.4885, -0.20134723, 0.024664821, -1492262.9, -180142.67, 0.00045137366, 9.99911, 9.99925 
1.655133e+3, 1.7611088e+2, -1467882.6, -1407040.5, 3498.7278, 0.06739828, 0.15609841, -1406839.9, -192724.02, 0.000008273259, 9.998603, 9.999403 
1.6551273e+3, 1.8610947e+2, -1286776.6, -1306855.5, 69119.28, 0.07173069, 0.09515012, -1226971.5, -110843.25, 0.0, 9.999329, 9.999067 
1.6551204e+3, 1.9610661e+2, -969896.44, -1094100.8, 67919.695, -0.11899333, -0.12696998, -939967.25, 78183.37, 0.0, 10.000796, 9.9991455 
1.6551137e+3, 2.0610452e+2, -830865.06, -1053285.5, -19678.266, -0.10607057, -0.20854372, -829137.5, 91030.94, 0.0, 10.0014, 9.998468 
1.6551077e+3, 2.1610285e+2, -710322.4, -921095.44, 2989.6406, 0.061909754, -0.25563076, -710280.0, 111903.97, 0.0, 10.001469, 9.99866 
1.6551015e+3, 2.2610272e+2, -610655.1, -841929.4, 47844.344, 0.108290896, -0.122845866, -601148.25, 123036.06, 0.0, 10.00155, 9.9985075 
1.6550948e+3, 2.3610355e+2, -499162.13, -740614.25, 77355.76, 0.07184135, 0.081931256, -476505.16, 149669.89, 0.0, 10.001662, 9.998474 
1.6550893e+3, 2.4610068e+2, -406408.25, -813424.0, 133666.67, -0.015754158, 0.036929216, -366436.72, 161768.11, 0.0, 10.002359, 9.996954 
1.6550843e+3, 2.5609538e+2, -123108.39, -600237.44, 74957.35, -0.120225355, -0.2220427, -111609.65, 318650.63, 0.00000000856411, 10.003529, 9.99718 
1.6550782e+3, 2.6609343e+2, 12312.396, -414166.7, -113314.64, -0.09438251, -0.16622522, 40550.203, 372829.97, 0.0000057188686, 10.00346, 9.997825 
1.6550711e+3, 2.760936e+2, 13310.72, -329118.72, -107243.43, 0.008446624, 0.030401213, 44124.793, 278401.1, 0.00005715205, 10.002662, 9.998111 
1.6550656e+3, 2.8609133e+2, 138913.7, -162314.58, 10987.296, 0.085743256, -0.033532962, 139313.94, 275606.63, 0.00029385844, 10.002613, 9.998614 
1.6550612e+3, 2.9608744e+2, 301395.44, -42055.52, 58332.457, 0.16067804, -0.3234684, 311032.38, 349354.78, 0.0009394719, 10.003097, 9.998528 
1.6550557e+3, 3.0608416e+2, 301275.78, -224139.05, 56863.5, 0.11486343, -0.3908741, 307359.44, 307359.44, 0.0020505372, 10.003653, 9.996684 
1.65505e+3, 3.1608385e+2, 475532.84, -11153.523, 29740.125, 0.012181128, -0.13926831, 477343.47, 477343.47, 0.0034352662, 10.004272, 9.997841 
1.6651642e+3, 1.2610896e+2, -2133218.5, -1867668.9, 139156.42, 0.09219922, -0.2947315, -1808106.4, -103975.984, 0.041736465, 9.996862, 10.000456 
1.6651565e+3, 1.361163e+2, -1933125.6, -1648530.8, 101721.234, -0.107818134, 0.33221385, -1615911.8, -9841.655, 0.026087236, 9.997272, 10.001096 
1.6651528e+3, 1.4611636e+2, -1729138.9, -1428152.0, 74463.54, 0.23658772, 0.19262625, -1410737.4, 97331.49, 0.012349877, 9.997716, 10.001711 
1.6651429e+3, 1.5611637e+2, -1608800.1, -1337950.3, 45460.387, -0.1701704, -0.0042384025, -1330523.6, 79536.86, 0.003737191, 9.99796, 10.001526 
1.6651364e+3, 1.6611706e+2, -1578631.0, -1540372.0, -5619.721, -0.21625555, 0.047696944, -1539563.6, -227510.69, 0.00050616945, 9.998637, 9.999142 
1.6651322e+3, 1.761176e+2, -1291851.3, -1334283.5, -8175.902, 0.05697802, 0.15551424, -1290330.4, -76278.805, 0.000009797576, 9.999851, 9.999301 
1.6651273e+3, 1.8611619e+2, -1182498.3, -1252445.8, 79638.76, 0.115689814, 0.09999164, -1130492.1, -14428.921, 0.0, 10.000039, 9.999091 
1.6651216e+3, 1.9611375e+2, -1117159.6, -1156095.0, 59524.742, -0.014032853, -0.08550633, -1074000.0, -55919.074, 0.0, 9.999772, 9.999195 
1.6651152e+3, 2.0611162e+2, -942541.75, -1123304.8, -20894.717, -0.06496649, -0.16860904, -940157.94, -20058.33, 0.0, 10.000704, 9.998323 
1.6651087e+3, 2.1610959e+2, -578393.06, -871178.75, -44327.492, -0.042256717, -0.23585977, -571829.06, 250290.7, 0.0, 10.002432, 9.998544 
1.6651028e+3, 2.2610907e+2, -394349.16, -717975.75, -32318.717, 0.037876837, -0.14395113, -391153.25, 332968.97, 0.0, 10.002963, 9.998666 
1.6650975e+3, 2.3610951e+2, -334878.94, -643653.8, -24362.879, 0.14040576, 0.0033304896, -332968.5, 293145.06, 0.0, 10.002723, 9.998612 
1.6650923e+3, 2.4610664e+2, -405990.66, -852718.75, 104815.92, 0.058030754, -0.033064455, -382620.3, 145523.48, 0.0, 10.002509, 9.996627 
1.665087e+3, 2.561015e+2, -314002.97, -725669.8, 99061.1, -0.1386441, -0.23979299, -291405.88, 138794.34, 0.0000000057748837, 10.002348, 9.996897 
1.6650814e+3, 2.6609984e+2, -67625.23, -457036.63, -40888.19, -0.09080151, -0.13843746, -63378.29, 268840.63, 0.0000055479773, 10.002937, 9.997779 
1.6650751e+3, 2.7610043e+2, 207352.06, -251430.8, -35286.89, 0.0972006, 0.10852447, 210050.25, 444263.34, 0.000055344583, 10.004043, 9.997992 
1.6650696e+3, 2.860978e+2, 374400.34, -49831.91, 58315.64, 0.1524417, 0.01718213, 382270.5, 518503.5, 0.0002837419, 10.004225, 9.998611 
1.6650642e+3, 2.960932e+2, 399586.8, 5144.3354, -1611.9807, 0.122343905, -0.34199077, 399593.4, 437862.25, 0.0009168636, 10.003782, 9.998518 
1.665059e+3, 3.060907e+2, 325048.44, -202078.0, 31680.2, 0.0743809, -0.33935297, 326945.56, 326945.56, 0.0020212461, 10.003771, 9.996778 
1.6650543e+3, 3.1609166e+2, 426773.44, 5650.559, -2514.891, 0.058259152, 0.034316547, 426788.47, 426788.47, 0.0034056075, 10.003782, 9.998189 
1.6751616e+3, 1.2612334e+2, -1973326.1, -1534688.3, 2482.028, 0.09179852, 0.24093214, -1534674.3, 169323.44, 0.044670317, 9.99682, 10.002814 
1.6751528e+3, 1.361223e+2, -1940148.8, -1655501.1, 127441.13, -0.21210016, -0.009827998, -1606782.3, -777.38995, 0.028026333, 9.997254, 10.001051 
1.6751496e+3, 1.4612165e+2, -1821397.0, -1639209.9, 77853.234, 0.11153545, -0.12526505, -1610473.8, -102465.09, 0.013357116, 9.997796, 10.000219 
1.6751432e+3, 1.5612324e+2, -1696625.3, -1522908.0, 65472.645, 0.051669378, -0.02480308, -1500995.9, -91004.67, 0.004090086, 9.997964, 10.000258 
1.675137e+3, 1.6612317e+2, -1572651.9, -1537369.4, 29639.793, -0.039952602, 0.008759527, -1520518.3, -208526.34, 0.0005678562, 9.998677, 9.999144 
1.675131e+3, 1.7612183e+2, -1302355.0, -1342868.3, 35928.848, -0.061184116, -0.06719499, -1281365.9, -67359.44, 0.000011659807, 9.999804, 9.999264 
1.675127e+3, 1.8612123e+2, -1177669.5, -1254146.5, 59874.996, 0.046093747, -0.03962376, -1144864.4, -28852.443, 0.0, 10.000077, 9.999069 
1.6751237e+3, 1.9612117e+2, -1125273.9, -1171059.0, 62422.082, 0.20862925, 0.017329343, -1081679.0, -63668.09, 0.0, 9.999759, 9.999104 
1.675117e+3, 2.0612028e+2, -979421.4, -1191937.8, 34734.68, 0.033233546, 0.08984118, -973888.2, -53867.97, 0.0, 10.000669, 9.9978695 
1.6751082e+3, 2.1611877e+2, -627334.4, -945514.2, 19679.105, -0.34756556, 0.12163025, -626121.9, 195915.53, 0.0, 10.002308, 9.998095 
1.6751032e+3, 2.261158e+2, -416429.84, -722916.0, -47268.777, -0.24868928, -0.014738044, -409305.28, 314756.44, 0.0, 10.002786, 9.998715 
1.6751008e+3, 2.361119e+2, -343230.2, -636539.56, -26450.637, 0.16624668, -0.30922318, -340863.97, 285226.78, 0.0, 10.002616, 9.998713 
1.675096e+3, 2.4611054e+2, -381373.34, -773698.0, 87818.125, 0.163508, -0.22871718, -362613.2, 165491.31, 0.0, 10.002387, 9.997228 
1.6750899e+3, 2.5611088e+2, -291504.53, -649727.9, 106784.9, -0.11481664, 0.048681647, -262088.0, 168020.53, 0.0000000017385277, 10.002224, 9.997475 
1.6750845e+3, 2.6610893e+2, -73976.11, -439415.44, -7041.3066, -0.09983599, 0.080349855, -73840.49, 258288.94, 0.0000048816705, 10.002796, 9.9979725 
1.6750796e+3, 2.7610534e+2, 194782.78, -254237.88, 14719.295, 0.110794626, -0.105645604, 195264.78, 429427.1, 0.000051549086, 10.003939, 9.998024 
1.6750738e+3, 2.8610274e+2, 269330.47, -231810.0, 34295.395, 0.13503826, -0.1288367, 271666.6, 407852.6, 0.00027036015, 10.004066, 9.99744 
1.6750674e+3, 2.9610097e+2, 325771.75, -130221.414, 3328.641, 0.03593301, -0.09462748, 325796.06, 363998.16, 0.0008905688, 10.003687, 9.997641 
1.6750622e+3, 3.060994e+2, 322943.0, -144408.2, 24412.314, -0.008249658, 0.010806639, 324214.72, 324214.72, 0.0019956143, 10.003522, 9.997286 
1.6750576e+3, 3.1609866e+2, 432393.66, 66771.555, 34044.46, -0.04150224, 0.16031395, 435536.63, 435536.63, 0.003402899, 10.003585, 9.998693 
1.6851579e+3, 1.2613124e+2, -2062581.3, -1523189.8, -94648.46, 0.08986277, 0.3110423, -1507063.6, 196858.6, 0.04776628, 9.9959955, 10.003285 
1.6851512e+3, 1.361292e+2, -1812849.8, -1596677.3, 22726.594, -0.14810959, -0.05188722, -1594313.9, 11621.634, 0.030093629, 9.998165, 10.001001 
1.6851474e+3, 1.4612897e+2, -1686842.1, -1659111.0, -24698.543, 0.051806174, -0.08062538, -1644652.1, -136717.05, 0.0144471, 9.999081, 9.999463 
1.685142e+3, 1.5612924e+2, -1610465.5, -1550903.9, -12520.361, 0.08933428, -0.03627061, -1548379.0, -138446.56, 0.004479329, 9.998855, 9.999639 
1.6851364e+3, 1.661286e+2, -1514931.0, -1490630.5, 29290.82, 0.023013549, -0.042139303, -1471069.9, -159131.89, 0.0006375465, 9.999, 9.999309 
1.6851309e+3, 1.7612742e+2, -1307351.5, -1325891.4, 39325.746, -0.04938019, -0.12260999, -1276217.9, -62269.95, 0.00001399049, 9.9997, 9.99942 
1.685127e+3, 1.861269e+2, -1169201.1, -1307883.0, 36800.234, 0.041212995, -0.06682984, -1160040.9, -44087.0, 0.0, 10.000391, 9.998545 
1.6851242e+3, 1.9612671e+2, -948272.7, -1137052.3, -6384.917, 0.20183389, 0.031000597, -948057.0, 69901.12, 0.0, 10.001175, 9.998667 
1.6851182e+3, 2.0612606e+2, -894150.4, -1095342.3, 11964.799, 0.06992671, 0.12050534, -893441.4, 26524.232, 0.0, 10.001019, 9.998364 
1.6851105e+3, 2.161252e+2, -895692.75, -1026232.25, 51350.53, -0.24400742, 0.16644716, -877914.2, -55939.637, 0.0, 10.00027, 9.998518 
1.6851056e+3, 2.2612205e+2, -691124.6, -922960.94, 19590.88, -0.19313517, 0.02524294, -689480.8, 34520.797, 0.0, 10.001174, 9.998132 
1.6851027e+3, 2.361174e+2, -300598.66, -667390.3, -23288.752, 0.086648285, -0.2838244, -299125.88, 326914.78, 0.0, 10.003122, 9.998269 
1.6850983e+3, 2.4611618e+2, -181453.48, -590547.3, 45746.523, 0.10921308, -0.21240397, -176400.34, 351651.56, 0.0, 10.003392, 9.997991 
1.6850927e+3, 2.5611717e+2, -190791.42, -530721.8, 59119.81, -0.047715534, 0.054007594, -180802.97, 249242.81, 0.0000000018399801, 10.00259, 9.998121 
1.685088e+3, 2.6611546e+2, -129088.945, -443850.8, 4492.0786, 0.0014133569, 0.0745414, -129024.84, 203037.81, 0.0000039092515, 10.002331, 9.998161 
1.6850835e+3, 2.7611193e+2, -3196.7488, -333240.84, 841.55853, 0.18070471, -0.125083, -3194.6028, 230900.7, 0.00004640097, 10.002534, 9.998144 
1.6850775e+3, 2.8610918e+2, 65616.914, -412870.0, 41708.973, 0.15092522, -0.1299215, 69225.414, 205348.55, 0.00025559173, 10.003021, 9.996705 
1.6850704e+3, 2.9610717e+2, 280663.3, -216868.11, 14739.165, -0.022696266, -0.041244425, 281099.56, 319244.66, 0.0008589537, 10.003662, 9.997058 
1.6850655e+3, 3.0610582e+2, 411985.78, -66708.805, 60712.684, -0.036721434, 0.088316925, 419565.9, 419565.9, 0.0019576051, 10.003951, 9.997631 
1.6850615e+3, 3.1610405e+2, 470235.9, 69425.02, 8606.316, -0.009941774, 0.121055484, 470420.63, 470420.63, 0.0033846132, 10.003851, 9.998626 
1.6951527e+3, 1.261326e+2, -2162132.8, -1745242.6, 11445.888, -0.07868602, -0.118118085, -1744928.6, -41023.6, 0.051028147, 9.996085, 10.00166 
1.695151e+3, 1.3613687e+2, -1830782.5, -1614148.5, 106344.48, 0.006241066, 0.17573833, -1570670.5, 35192.227, 0.032295942, 9.9980755, 10.000931 
1.695146e+3, 1.4613813e+2, -1690079.3, -1669369.5, -35965.85, -0.029612705, 0.2973139, -1642297.6, -134448.31, 0.015627254, 9.999089, 9.999392 
1.6951391e+3, 1.5613467e+2, -1616731.1, -1568239.1, -12672.226, -0.11759534, -0.018031627, -1565127.3, -155245.47, 0.004910431, 9.998872, 9.999514 
1.6951343e+3, 1.661335e+2, -1471391.0, -1418314.6, 43237.76, -0.10426581, -0.09437194, -1394120.4, -82230.65, 0.0007170378, 9.99907, 9.999773 
1.6951315e+3, 1.7613436e+2, -1287664.9, -1286020.8, 70057.06, 0.022851557, -0.015718114, -1216780.9, -2904.417, 0.000016975888, 9.999699, 9.999698 
1.6951275e+3, 1.8613316e+2, -1235737.9, -1454182.9, 55974.168, 0.016308684, 0.0164102, -1222230.4, -106340.445, 0.0, 10.00042, 9.997528 
1.6951226e+3, 1.9613042e+2, -1012354.6, -1251618.1, 21245.95, -0.09743875, -0.040767185, -1010482.7, 7439.5854, 0.0, 10.001098, 9.997915 
1.6951184e+3, 2.061292e+2, -813132.4, -901745.5, -26634.775, -0.024656337, -0.05498161, -805742.9, 114190.586, 0.0, 10.000908, 9.999748 
1.6951151e+3, 2.1612896e+2, -829246.7, -872298.6, 40100.9, 0.1819193, -0.08206801, -805259.44, 16671.078, 0.0, 10.000196, 9.99961 
1.6951099e+3, 2.2612779e+2, -784554.2, -1091818.4, 84180.83, 0.102410845, -0.013246956, -763002.9, -39060.67, 0.0, 10.001066, 9.997024 
1.6951033e+3, 2.361259e+2, -387070.5, -810204.75, 50432.418, -0.166902, 0.06345309, -381142.6, 244821.72, 0.0, 10.002964, 9.997364 
1.695099e+3, 2.4612333e+2, -153762.11, -484447.1, 9211.42, -0.17638306, -0.0076904856, -153505.72, 374482.06, 0.0, 10.003183, 9.998823 
1.6950959e+3, 2.5612035e+2, -157803.55, -429092.5, 42562.582, -0.003483368, -0.2160072, -151282.64, 278728.9, 0.0000000033657745, 10.002455, 9.998884 
1.6950917e+3, 2.6611957e+2, -141802.1, -439257.03, 4887.351, 0.123556994, -0.14536443, -141721.81, 190296.02, 0.0000030031388, 10.002195, 9.998259 
1.6950867e+3, 2.761201e+2, -15192.286, -332225.34, 22238.645, 0.22642922, 0.044185456, -13639.932, 220373.69, 0.000041424442, 10.002427, 9.998201 
1.6950803e+3, 2.861169e+2, 19073.77, -476888.13, 54047.227, 0.11029695, 0.014004601, 24895.21, 160941.55, 0.00024223694, 10.002878, 9.996337 
1.695073e+3, 2.9611152e+2, 242334.77, -268608.75, 48473.58, -0.14591548, -0.19937296, 246892.83, 284994.2, 0.00082569366, 10.003536, 9.996766 
1.6950688e+3, 3.061095e+2, 379426.13, -68253.85, 48745.867, -0.1185512, -0.13008006, 384672.34, 384672.34, 0.001900443, 10.003686, 9.997739 
1.6950655e+3, 3.1610832e+2, 401000.9, 6606.765, 28500.42, -0.015335235, -0.05016988, 403049.8, 403049.8, 0.0033183347, 10.003535, 9.998325 
1.7051497e+3, 1.2613653e+2, -2138467.8, -1819252.1, -26905.164, 0.0024258199, -0.10449383, -1817000.3, -113136.016, 0.054460447, 9.996587, 10.000929 
1.7051487e+3, 1.3613968e+2, -2019333.4, -1705617.5, 12906.519, 0.04215997, 0.090202235, -1705087.4, -99253.39, 0.034638863, 9.996761, 10.000945 
1.7051443e+3, 1.4614119e+2, -1844736.0, -1704518.1, -99970.83, -0.033814628, 0.21515524, -1652522.9, -144704.39, 0.016903277, 9.997888, 9.999725 
1.7051385e+3, 1.5613903e+2, -1455743.3, -1463440.4, -70576.25, -0.097542346, 0.00331549, -1388910.8, 20927.121, 0.00538814, 9.99987, 9.999746 
1.7051342e+3, 1.6613798e+2, -1321657.5, -1393017.1, -49825.117, -0.08946724, -0.049586598, -1296054.4, 15791.24, 0.0008082668, 10.000284, 9.999369 
1.705131e+3, 1.761382e+2, -1295741.3, -1321864.8, -95271.27, 0.00037974404, 0.004072939, -1212640.5, 1199.9458, 0.000020835996, 9.999764, 9.999433 
1.7051272e+3, 1.8613693e+2, -1325192.6, -1420586.3, -33648.01, -0.0005092445, 0.004024896, -1314518.4, -198664.75, 0.0, 9.9994755, 9.998221 
1.7051229e+3, 1.9613451e+2, -1198327.4, -1272608.8, 40456.055, -0.084402256, -0.09060099, -1180548.9, -162668.4, 0.0, 9.99952, 9.998539 
1.7051193e+3, 2.0613343e+2, -893405.9, -935992.8, -4632.021, 0.007037298, -0.11911228, -892907.94, 26981.398, 0.0, 10.000346, 9.999773 
1.7051163e+3, 2.161333e+2, -601644.0, -764009.6, -50876.56, 0.20964447, -0.1354496, -587019.4, 234866.22, 0.0, 10.001765, 9.999598 
1.7051117e+3, 2.261326e+2, -605473.3, -992193.06, 36187.574, 0.12373773, -0.024160765, -602116.2, 121777.97, 0.0, 10.002239, 9.99714 
1.705106e+3, 2.3613141e+2, -507579.7, -853308.6, 63954.316, -0.15231036, 0.109824024, -496128.47, 129783.29, 0.0, 10.002072, 9.997494 
1.7051017e+3, 2.4612883e+2, -357715.63, -575401.25, -6259.818, -0.15369634, 0.02873954, -357535.75, 170399.53, 0.0, 10.00175, 9.998892 
1.705098e+3, 2.5612536e+2, -310976.38, -492428.38, -40784.285, 0.015299572, -0.23525573, -302230.94, 127731.47, 0.0000000026261497, 10.001367, 9.998968 
1.7050937e+3, 2.6612446e+2, -163433.55, -455163.22, -42946.86, 0.11116792, -0.17925513, -157242.52, 174726.75, 0.0000021613648, 10.002069, 9.998212 
1.7050888e+3, 2.7612513e+2, 137434.19, -265747.63, -59614.41, 0.15318961, 0.033560064, 146064.05, 380027.44, 0.000036573332, 10.003501, 9.998147 
1.7050833e+3, 2.8612214e+2, 176124.67, -387249.9, -10301.425, 0.078719325, 0.02020639, 176312.98, 312306.8, 0.00022753773, 10.003902, 9.996454 
1.7050773e+3, 2.9611677e+2, 260530.77, -255429.44, -6475.96, -0.07924186, -0.19873023, 260612.05, 298660.2, 0.0007845272, 10.003636, 9.996813 
1.7050734e+3, 3.061142e+2, 440972.8, -53714.723, 25892.531, -0.045862027, -0.17942145, 442324.38, 442324.38, 0.0018118409, 10.004163, 9.997605 
1.7050701e+3, 3.161126e+2, 602896.4, 47564.77, -75950.95, 0.0062371106, -0.12341156, 613096.6, 613096.6, 0.0031807558, 10.00515, 9.997825 
1.715149e+3, 1.2614235e+2, -2123012.3, -1773725.9, 5914.329, 0.22585252, 0.27956313, -1773625.8, -69819.49, 0.058051143, 9.996545, 10.00125 
1.715144e+3, 1.361384e+2, -2020394.1, -1694851.9, 31305.904, -0.12301722, -0.2405528, -1691868.6, -86026.97, 0.037118543, 9.996724, 10.001028 
1.7151423e+3, 1.461386e+2, -1779683.4, -1597930.8, -33439.14, -0.048421245, -0.28873745, -1591973.8, -84135.49, 0.018276531, 9.997985, 10.000422 
1.7151402e+3, 1.5614228e+2, -1424624.4, -1395375.1, 1836.2272, 0.062234513, 0.012561012, -1395260.3, 14541.803, 0.005915651, 9.9998455, 10.000231 
1.7151354e+3, 1.6614209e+2, -1404522.3, -1564409.5, -80293.02, -0.018427778, 0.08942733, -1371161.1, -59355.508, 0.0009130136, 10.000286, 9.998187 
1.715129e+3, 1.7613927e+2, -1358992.0, -1440991.0, -106205.75, -0.17999212, -0.045911983, -1286146.8, -72310.305, 0.000025810483, 9.999722, 9.99863 
1.715126e+3, 1.8613845e+2, -1161479.5, -1084945.3, -39949.535, -0.08760702, -0.09128944, -1067892.0, 47950.375, 0.0, 9.999484, 10.000524 
1.715125e+3, 1.96139e+2, -1067743.4, -997561.25, 54034.01, 0.15858717, -0.12169071, -968223.6, 49608.52, 0.0, 9.999499, 10.000438 
1.7151207e+3, 2.0613879e+2, -994693.7, -1137282.5, 40983.125, 0.07389677, -0.06984091, -983753.6, -63920.945, 0.0, 10.000305, 9.998413 
1.715114e+3, 2.1613811e+2, -693625.0, -924926.06, 3823.5854, -0.21077493, -0.010398249, -693561.8, 128278.72, 0.0, 10.001635, 9.998555 
1.7151111e+3, 2.261364e+2, -546180.2, -826567.4, 23192.285, -0.18277264, -0.02228873, -544274.8, 179583.27, 0.0, 10.002052, 9.99837 
1.7151102e+3, 2.3613405e+2, -454236.66, -713633.25, 64847.145, 0.04889166, -0.12534097, -438928.72, 186953.08, 0.0, 10.0019455, 9.998515 
1.7151058e+3, 2.4613272e+2, -426500.75, -682929.8, -29533.025, 0.06416348, -0.08968448, -423143.38, 104750.92, 0.0, 10.0016, 9.998223 
1.7150988e+3, 2.5613198e+2, -369555.44, -590985.0, -37052.39, -0.060656738, -0.017348474, -363519.88, 66380.31, 0.0000000000058928205, 10.0012665, 9.998339 
1.7150937e+3, 2.6612988e+2, -199369.81, -497569.4, 1340.4951, -0.11135518, -0.03695157, -199363.78, 132555.16, 0.0000014626683, 10.001937, 9.997985 
1.7150898e+3, 2.76127e+2, 106646.586, -291381.2, -1592.8241, -0.11160523, -0.1551677, 106652.96, 340597.88, 0.000032081512, 10.003344, 9.998043 
1.7150863e+3, 2.8612483e+2, 184979.17, -330359.75, -28097.81, -0.03859717, -0.11390284, 186506.63, 322472.78, 0.00021186807, 10.003729, 9.996933 
1.7150827e+3, 2.9612294e+2, 270152.28, -206607.55, 7385.691, 0.07693255, -0.038543552, 270266.66, 308252.4, 0.0007360712, 10.00351, 9.997208 
1.715079e+3, 3.061198e+2, 360733.5, -158292.06, 52953.414, 0.07405864, -0.05805197, 366080.97, 366080.97, 0.001699961, 10.003915, 9.997001 
1.7150746e+3, 3.1611636e+2, 508145.22, -50295.12, -20404.488, -0.09501187, -0.13543695, 508889.78, 508889.78, 0.002993277, 10.004763, 9.997322 
1.725147e+3, 1.2614343e+2, -2015778.5, -1701625.0, 2958.4697, 0.35571274, 0.20669973, -1701597.1, 2196.0044, 0.06177432, 9.997188, 10.001436 
1.7251405e+3, 1.3614017e+2, -1871946.8, -1605843.9, 38698.16, -0.17960222, -0.26609614, -1600330.5, 5492.0654, 0.039721623, 9.997664, 10.001179 
1.7251408e+3, 1.4614081e+2, -1716004.4, -1542290.4, 6513.691, -0.01683712, -0.28967205, -1542046.5, -34231.04, 0.019743169, 9.998305, 10.000647 
1.72514e+3, 1.5614459e+2, -1538939.0, -1422982.9, -15848.4795, 0.10813858, -0.004846506, -1420855.8, -11076.867, 0.006494274, 9.998919, 10.000498 
1.7251356e+3, 1.6614464e+2, -1571544.3, -1648992.5, -87685.64, 0.034270883, 0.08563856, -1514412.6, -202630.89, 0.001032908, 9.999168, 9.998144 
1.7251292e+3, 1.7614195e+2, -1403616.6, -1463807.9, -49767.016, -0.1207156, -0.031167591, -1375553.0, -161739.73, 0.00003215152, 9.999425, 9.998612 
1.7251262e+3, 1.8614142e+2, -1149958.5, -1059681.9, -22458.855, -0.007961769, -0.05837122, -1054403.3, 61413.465, 0.0, 9.999483, 10.000692 
1.7251253e+3, 1.9614244e+2, -1043029.1, -963426.7, -94729.75, 0.24403588, -0.05642358, -900476.44, 117324.02, 0.0, 9.999581, 10.000626 
1.7251211e+3, 2.061423e+2, -1001555.3, -1124984.5, -52593.63, 0.10688551, -0.015495423, -982184.9, -62385.08, 0.0, 10.000184, 9.998566 
1.7251147e+3, 2.1614131e+2, -752961.0, -934401.94, -1781.3656, -0.27163684, -0.00020266783, -752943.5, 68866.85, 0.0, 10.00114, 9.998734 
1.7251125e+3, 2.261396e+2, -628632.9, -819027.3, -6403.081, -0.20682855, -0.042252965, -628417.75, 95409.77, 0.0, 10.001306, 9.99877 
1.7251125e+3, 2.3613751e+2, -564515.7, -725313.2, -41434.543, 0.12967356, -0.15651442, -554466.75, 71381.31, 0.0, 10.001028, 9.998869 
1.7251082e+3, 2.4613677e+2, -363530.7, -629788.2, -77053.07, 0.13546307, -0.09125903, -342839.94, 185014.31, 0.0, 10.001942, 9.998416 
1.725101e+3, 2.5613675e+2, -21196.639, -407135.06, -39328.23, -0.08058529, 0.03589319, -17229.754, 412622.28, 0.0000000000049057277, 10.003604, 9.9984665 
1.7250963e+3, 2.6613408e+2, 48857.14, -419401.03, 23573.615, -0.13400535, -0.025760267, 50040.918, 381917.4, 0.0000011502509, 10.003817, 9.997614 
1.7250933e+3, 2.7612975e+2, 47588.203, -353975.16, -10866.765, -0.083323054, -0.25553527, 47882.055, 281799.78, 0.000029088935, 10.003068, 9.997748 
1.7250901e+3, 2.861279e+2, 166572.66, -279231.38, -20273.498, 0.003695162, -0.19307756, 167492.72, 303427.47, 0.00020043374, 10.003356, 9.997457 
1.7250867e+3, 2.9612756e+2, 422026.47, -89717.36, -16213.53, 0.091412246, -0.0132142985, 422539.63, 460477.16, 0.00069488265, 10.004382, 9.9975815 
1.7250834e+3, 3.06124e+2, 468215.53, -170660.5, 59570.668, 0.09228781, -0.065134026, 473722.6, 473722.6, 0.0016017806, 10.004907, 9.996461 
1.7250802e+3, 3.1612003e+2, 508167.0, -101774.66, -65747.32, -0.004860665, -0.12943774, 515173.6, 515173.6, 0.002826692, 10.004935, 9.9969225 
1.7351434e+3, 1.2614086e+2, -1999683.4, -1682286.8, -112967.805, 0.20791979, -0.21625824, -1646185.5, 57628.367, 0.06561491, 9.997231, 10.001573 
1.735138e+3, 1.3614461e+2, -1870692.6, -1589789.9, 65395.473, -0.2150547, -0.023210902, -1575311.8, 30468.215, 0.042436883, 9.997603, 10.001327 
1.7351392e+3, 1.4614739e+2, -1730252.8, -1571494.4, 21037.025, -0.031332962, 0.17844594, -1568754.1, -61000.215, 0.021297567, 9.998307, 10.00044 
1.7351377e+3, 1.5614617e+2, -1539926.9, -1413105.0, 9853.832, -0.03712085, -0.03359792, -1412344.0, -2577.529, 0.0071235094, 9.998875, 10.00058 
1.7351346e+3, 1.6614589e+2, -1491289.5, -1496273.3, -87592.75, -0.017241433, -0.03930118, -1406153.1, -94381.76, 0.0011691477, 9.99921, 9.999179 
1.735131e+3, 1.7614616e+2, -1354020.9, -1368034.8, -35024.117, 0.10623831, 0.041073304, -1325309.8, -111537.68, 0.00004011834, 9.999443, 9.999267 
1.7351276e+3, 1.8614571e+2, -1278162.6, -1335501.3, -31246.38, 0.15277462, 0.09880026, -1264426.0, -148648.47, 0.0, 9.999524, 9.998779 
1.7351238e+3, 1.9614479e+2, -1160446.8, -1190235.3, -80961.51, 0.113753356, 0.09659593, -1093020.9, -75234.86, 0.0, 9.99951, 9.999102 
1.7351207e+3, 2.0614396e+2, -900341.56, -896385.8, -24863.094, 0.030861381, 0.04632049, -873422.06, 46368.45, 0.0, 10.000101, 10.0001745 
1.7351182e+3, 2.161431e+2, -673033.5, -743708.0, 35790.813, -0.063398205, -0.087199464, -658074.6, 163718.8, 0.0, 10.00103, 10.000097 
1.7351153e+3, 2.2614229e+2, -684445.7, -900894.3, -26263.422, -0.05774051, -0.07187532, -681304.5, 42497.086, 0.0, 10.001158, 9.998279 
1.7351125e+3, 2.361416e+2, -600730.56, -775266.7, -35036.28, 0.01765849, -0.0022621253, -593960.0, 31852.37, 0.0, 10.000915, 9.99858 
1.7351088e+3, 2.4614072e+2, -318987.63, -494861.25, -21944.365, -0.016691806, 0.006135134, -316290.9, 211526.3, 0.0, 10.001765, 9.999428 
1.7351043e+3, 2.5613967e+2, 15302.405, -291594.38, 23636.094, -0.12336464, -0.07072751, 17112.102, 446930.3, 0.000000000000012544113, 10.003443, 9.999333 
1.735101e+3, 2.66137e+2, -15321.251, -511988.4, -12033.43, -0.052393507, -0.14363852, -15029.872, 316812.78, 0.0000010511417, 10.003638, 9.997066 
1.7350987e+3, 2.7613327e+2, -4290.3003, -427594.78, -19790.51, 0.13954288, -0.25920722, -3367.0596, 230514.89, 0.000028849088, 10.002926, 9.997308 
1.7350946e+3, 2.8613132e+2, 167848.42, -238414.73, 5409.4653, 0.09859011, -0.20965955, 167920.44, 303820.66, 0.00019664556, 10.003191, 9.997816 
1.7350891e+3, 2.9613033e+2, 412558.47, -65758.625, 32403.371, -0.11823946, -0.13303916, 414743.63, 452650.34, 0.0006730319, 10.004201, 9.99783 
1.7350866e+3, 3.0612636e+2, 390039.25, -270418.8, 48589.875, -0.11056549, -0.20431337, 393594.84, 393594.84, 0.0015497978, 10.004647, 9.995893 
1.7350864e+3, 3.1612274e+2, 441145.88, -148855.06, -38393.77, 0.08569303, -0.19345097, 443633.8, 443633.8, 0.0027471662, 10.004563, 9.996764 
1.7451407e+3, 1.2614265e+2, -2011858.0, -1752109.3, -93212.71, 0.22062087, -0.23539771, -1722121.4, -18325.338, 0.06957688, 9.997452, 10.000962 
1.745137e+3, 1.3614659e+2, -1724522.6, -1543352.1, 65445.89, -0.13341688, 0.0045055253, -1522183.8, 83577.55, 0.045260757, 9.998706, 10.00113 
1.7451371e+3, 1.4614974e+2, -1725037.1, -1587684.8, -1977.3738, -0.07032611, 0.25962576, -1587656.3, -79922.94, 0.022935338, 9.998429, 10.000269 
1.7451358e+3, 1.561481e+2, -1770170.8, -1526508.5, -36165.746, -0.03652938, 0.019116461, -1521253.9, -111502.5, 0.0078018596, 9.9973135, 10.000548 
1.7451337e+3, 1.66148e+2, -1618655.8, -1489672.4, -91162.516, 0.040695883, -0.001272249, -1442495.9, -130742.1, 0.0013223152, 9.99804, 9.999792 
1.7451318e+3, 1.7614898e+2, -1209750.1, -1245872.1, -86806.01, 0.19465043, 0.0902714, -1139146.1, 74599.52, 0.000049909977, 10.000201, 9.999747 
1.7451282e+3, 1.861484e+2, -1117017.4, -1300843.6, -59082.18, 0.19789907, 0.13734931, -1099666.0, 16085.92, 0.0000000000000006446772, 10.000827, 9.9983835 
1.7451233e+3, 1.9614674e+2, -1049513.0, -1177669.4, -14645.989, 0.07242593, 0.09879667, -1047860.56, -30092.275, 0.0, 10.000447, 9.998732 
1.7451209e+3, 2.0614564e+2, -917003.1, -911328.2, 43397.313, 0.050175074, 0.04143555, -870675.7, 49100.527, 0.0, 10.000017, 10.000108 
1.74512e+3, 2.1614495e+2, -867263.9, -834328.25, -34385.188, 0.09601324, -0.071307406, -812670.9, 9107.354, 0.0, 9.999686, 10.000117 
1.7451175e+3, 2.2614458e+2, -744624.3, -886439.3, -74472.01, 0.06632876, -0.03567006, -712702.06, 11079.443, 0.0, 10.000544, 9.998685 
1.7451137e+3, 2.3614444e+2, -399301.63, -638850.25, -36185.668, -0.013743912, 0.051074922, -393954.8, 231830.63, 0.0, 10.002124, 9.998941 
1.7451105e+3, 2.4614325e+2, -235998.25, -450259.16, -34637.953, -0.043654393, 0.0122002205, -230537.75, 297254.6, 0.0, 10.002316, 9.999467 
1.7451075e+3, 2.5614136e+2, -241450.4, -410505.5, -85467.34, -0.053740986, -0.15639314, -205771.58, 224030.03, 0.0, 10.001647, 9.999389 
1.7451043e+3, 2.661394e+2, -274762.22, -589818.56, -110662.125, 0.017230194, -0.18475403, -239777.45, 92042.01, 0.0000010008785, 10.001655, 9.997487 
1.745101e+3, 2.7613732e+2, -83629.91, -429421.63, -65261.496, 0.13235278, -0.16865276, -71723.055, 162119.84, 0.00002996529, 10.002221, 9.997636 
1.7450978e+3, 2.8613523e+2, 159645.3, -265562.38, 22558.615, 0.10011462, -0.13687277, 160838.75, 296701.28, 0.00019663884, 10.003244, 9.997599 
1.745094e+3, 2.961328e+2, 428748.5, -93352.37, -27693.521, -0.043876346, -0.17549162, 430213.34, 468095.44, 0.000670063, 10.004452, 9.997527 
1.7450918e+3, 3.0612868e+2, 494114.9, -218379.1, -2812.689, -0.075351015, -0.24125844, 494126.0, 494126.0, 0.0015537874, 10.005339, 9.99592 
1.745092e+3, 3.161258e+2, 726775.06, 32647.727, -102908.59, 0.12051993, -0.17037421, 741710.5, 741710.5, 0.002779603, 10.00633, 9.99715 
1.7551382e+3, 1.2614782e+2, -2124871.8, -1973453.6, -73370.625, 0.18226582, 0.04669282, -1943734.5, -239986.17, 0.07366958, 9.997407, 9.99946 
1.7551371e+3, 1.361465e+2, -1775843.6, -1632853.4, 108957.24, -0.009784835, -0.1608468, -1574028.8, 31734.656, 0.048192136, 9.998651, 10.000524 
1.7551343e+3, 1.4614844e+2, -1731098.4, -1604284.4, -54231.24, -0.22988822, 0.00689447, -1584255.9, -76507.83, 0.024652572, 9.998444, 10.000151 
1.755134e+3, 1.5615043e+2, -1784877.1, -1554882.6, -57954.996, 0.033293333, 0.15113178, -1541104.4, -131371.22, 0.008527423, 9.997303, 10.0003605 
1.7551328e+3, 1.6615088e+2, -1604998.5, -1465701.5, -22894.398, 0.12519535, 0.18441738, -1462035.1, -150304.84, 0.0014925194, 9.998057, 9.999949 
1.755131e+3, 1.7615044e+2, -1197454.5, -1205158.1, -8035.9, 0.082426235, 0.115205206, -1192395.0, 21338.863, 0.00006156021, 10.000139, 10.000055 
1.7551278e+3, 1.8614963e+2, -1045517.8, -1146109.3, -79485.4, 0.051953457, 0.065249234, -1001751.9, 113987.08, 0.0000000010737394, 10.0008, 9.999457 
1.7551236e+3, 1.9614841e+2, -1004634.44, -1074887.8, -22097.863, 0.040051464, -0.035515964, -998261.75, 19485.016, 0.0, 10.000407, 9.999456 
1.7551214e+3, 2.0614739e+2, -1042573.56, -1161852.5, 19642.34, 0.073877975, -0.020946808, -1039422.25, -119665.46, 0.0, 9.999969, 9.998413 
1.7551203e+3, 2.1614665e+2, -971875.7, -1034713.6, -31655.924, 0.142059, 0.028869962, -958693.6, -136927.02, 0.0, 9.999608, 9.998782 
1.7551184e+3, 2.2614628e+2, -674784.8, -712290.75, -20845.45, 0.0914711, 0.053924788, -665498.4, 58270.348, 0.0, 10.00042, 9.99994 
1.7551157e+3, 2.3614612e+2, -350732.75, -506341.3, 23960.023, -0.042248465, 0.013932362, -347127.03, 278639.28, 0.0, 10.0019865, 9.999918 
1.7551129e+3, 2.4614441e+2, -331561.66, -608258.5, -66974.625, -0.050275274, -0.06519512, -316202.94, 211576.39, 0.0, 10.002138, 9.99847 
1.7551102e+3, 2.5614175e+2, -308938.2, -522118.88, -96768.79, 0.043027718, -0.21324427, -271564.3, 158237.53, 0.0, 10.001528, 9.998677 
1.755106e+3, 2.6614112e+2, -202090.31, -419841.9, -99582.914, -0.010905826, -0.14451143, -163417.16, 168390.23, 0.00000094846536, 10.001566, 9.998698 
1.7551005e+3, 2.7614182e+2, -30034.123, -286039.3, -30468.254, -0.17921047, 0.019636529, -26457.926, 207343.3, 0.000030532858, 10.002094, 9.998673 
1.7550993e+3, 2.8613946e+2, 79399.56, -402987.38, 59139.207, -0.08497188, 0.024537547, 86544.04, 222366.8, 0.00019885889, 10.003107, 9.996726 
1.7551012e+3, 2.961349e+2, 348140.8, -223576.28, 29455.46, 0.19853114, -0.1422242, 349654.4, 387518.66, 0.0006867096, 10.004291, 9.996711 
1.7550987e+3, 3.0613115e+2, 478059.1, -187794.98, 16266.114, 0.053579822, -0.1469559, 478456.22, 478456.22, 0.0016097877, 10.005074, 9.996251 
1.7550969e+3, 3.1612962e+2, 693735.5, 64576.402, -18446.13, -0.0622289, 0.005465342, 694275.8, 694275.8, 0.0028993015, 10.005923, 9.997554 
1.7651357e+3, 1.2615028e+2, -1812232.3, -1829970.1, 8230.991, 0.09976842, 0.096455105, -1809001.4, -105273.97, 0.07790593, 9.999554, 9.9994135 
1.7651372e+3, 1.3614866e+2, -1860498.0, -1717175.4, 88299.4, 0.16134702, -0.100882776, -1675117.3, -69374.1, 0.05123237, 9.998232, 10.000147 
1.765132e+3, 1.4614937e+2, -1891549.4, -1711311.1, -51085.96, -0.24141365, -0.026288327, -1697838.6, -190099.13, 0.026445003, 9.997475, 9.999885 
1.7651318e+3, 1.5615085e+2, -1629131.4, -1506306.9, -67810.53, 0.033780523, 0.096005104, -1476232.9, -66502.82, 0.009296644, 9.998493, 10.000122 
1.7651314e+3, 1.6615143e+2, -1445790.1, -1356718.6, 27030.416, 0.13412258, 0.14051811, -1349157.5, -37432.496, 0.0016790463, 9.99903, 10.000217 
1.7651302e+3, 1.7615144e+2, -1336982.6, -1240172.1, 21685.309, 0.043879412, 0.08781405, -1235536.6, -21813.793, 0.000074904594, 9.999051, 10.00033 
1.7651275e+3, 1.8615101e+2, -1208355.9, -1185607.3, -88417.45, 0.018780783, 0.04322235, -1107835.5, 7888.2935, 0.000000009428086, 9.999504, 9.99982 
1.7651242e+3, 1.9615026e+2, -967911.06, -1022182.8, -97483.33, 0.057111043, -0.044753972, -893857.25, 123869.79, 0.0, 10.000503, 9.999783 
1.7651221e+3, 2.0614932e+2, -869454.3, -1103196.4, 649.93195, 0.09280363, -0.02365273, -869452.5, 50284.16, 0.0, 10.001272, 9.998183 
1.7651208e+3, 2.1614835e+2, -658822.56, -911559.56, 39197.344, 0.116884634, 0.027138058, -652882.94, 168866.58, 0.0, 10.001886, 9.998527 
1.7651193e+3, 2.2614771e+2, -538468.4, -679393.0, 39039.84, 0.09294037, 0.05291112, -528376.06, 195378.98, 0.0, 10.001508, 9.999632 
1.7651176e+3, 2.3614727e+2, -578172.94, -645022.06, -49035.19, 0.027413292, 0.013969868, -552254.0, 73502.1, 0.0, 10.000558, 9.999645 
1.7651153e+3, 2.4614559e+2, -547135.4, -726388.9, -135837.06, 0.039685186, -0.042962003, -474021.03, 53748.785, 0.0, 10.000715, 9.99835 
1.7651123e+3, 2.5614315e+2, -305411.78, -535787.75, -114628.914, 0.10500118, -0.15342183, -258094.19, 171697.3, 0.0, 10.0016165, 9.998545 
1.7651083e+3, 2.6614237e+2, -23273.797, -348313.13, -109626.664, 0.0034212293, -0.08326233, 10243.9, 342042.6, 0.0000007067664, 10.002871, 9.998557 
1.7651032e+3, 2.7614257e+2, 288611.53, -149481.6, -166835.72, -0.22880353, 0.0500562, 344911.22, 578708.3, 0.00002910251, 10.004349, 9.998536 
1.765103e+3, 2.861401e+2, 304294.0, -260019.38, -75321.484, -0.096405625, 0.035336718, 314174.5, 449993.06, 0.00020251243, 10.004504, 9.997034 
1.7651062e+3, 2.961359e+2, 318477.1, -212439.3, -52723.26, 0.2913538, -0.12307568, 323662.2, 361517.22, 0.00071675656, 10.003971, 9.99694 
1.765104e+3, 3.061323e+2, 357845.0, -254279.8, -1672.0178, 0.115928985, -0.12256148, 357849.56, 357849.56, 0.0016880729, 10.004279, 9.99618 
1.7651026e+3, 3.1612936e+2, 539939.7, -40556.973, -89363.16, -0.045461085, -0.09138303, 553385.06, 553385.06, 0.0030289602, 10.004976, 9.997304 
1.7751336e+3, 1.2615071e+2, -1707348.8, -1608366.5, 110665.43, -0.11320387, -0.025844857, -1536629.8, 167096.83, 0.08231803, 9.999537, 10.001012 
1.775137e+3, 1.3615307e+2, -1869581.3, -1732973.4, 22874.22, 0.29257187, 0.1750653, -1729245.0, -123544.03, 0.054393712, 9.998211, 10.0000515 
1.7751302e+3, 1.4615211e+2, -1920268.1, -1771967.6, -37406.14, -0.19712363, 0.11761947, -1763066.8, -255355.28, 0.02831169, 9.997474, 9.999471 
1.775129e+3, 1.5614943e+2, -1653568.3, -1548237.3, -20711.576, -0.114930406, -0.14070773, -1544311.0, -134569.86, 0.010105246, 9.998459, 9.999848 
1.7751291e+3, 1.6614991e+2, -1422740.9, -1313077.8, 21727.182, -0.014831799, -0.11339919, -1308930.0, 2806.1362, 0.0018804772, 9.999045, 10.000509 
1.7751288e+3, 1.76152e+2, -1327902.0, -1214232.5, 30673.066, 0.0075675966, 0.014657694, -1206483.8, 7229.023, 0.00008970714, 9.999024, 10.000519 
1.7751272e+3, 1.8615255e+2, -1224691.3, -1227553.0, -60855.473, 0.012915853, 0.076064676, -1165249.9, -49543.164, 0.000000028818846, 9.999533, 9.999519 
1.7751248e+3, 1.9615223e+2, -981035.9, -1041864.3, -53816.758, 0.04717338, 0.06011516, -949633.7, 68076.3, 0.0, 10.000465, 9.999667 
1.7751229e+3, 2.0615134e+2, -798682.94, -939213.2, 15427.678, 0.020221889, 0.02647592, -797009.2, 122707.82, 0.0, 10.001205, 9.999334 
1.7751212e+3, 2.1615e+2, -628569.2, -811064.6, 59822.145, -0.046715252, -0.07347001, -610707.6, 211019.84, 0.0, 10.001734, 9.999281 
1.77512e+3, 2.2614881e+2, -691182.0, -964394.4, -5815.2646, -0.0020724058, -0.029097158, -691058.3, 32682.344, 0.0, 10.00136, 9.997751 
1.7751193e+3, 2.361478e+2, -697600.75, -875427.44, -67121.04, 0.123754576, 0.0561482, -675110.25, -49355.2, 0.0, 10.000475, 9.998109 
1.775117e+3, 2.4614662e+2, -515892.28, -634591.2, -110468.28, 0.13790894, 0.07663342, -449839.97, 77925.21, 0.0, 10.0006, 9.999035 
1.7751138e+3, 2.5614542e+2, -295149.5, -483510.7, -70301.14, 0.07293091, 0.022562819, -271804.66, 157966.89, 0.0, 10.001492, 9.998959 
1.7751111e+3, 2.6614302e+2, -151834.7, -582853.6, -60236.19, -0.014340631, -0.0006584196, -143574.81, 188219.61, 0.00000032366296, 10.002725, 9.99702 
1.7751087e+3, 2.761398e+2, 174484.97, -338475.72, -106645.27, -0.11396703, -0.06123368, 195773.2, 429602.13, 0.00002512301, 10.004155, 9.997326 
1.7751083e+3, 2.8613746e+2, 362268.4, -101555.3, -106481.74, -0.047643345, -0.07521826, 385545.63, 521393.3, 0.00020058491, 10.004328, 9.998215 
1.7751089e+3, 2.9613578e+2, 373238.2, -65532.836, -54740.566, 0.14358328, -0.10824951, 379964.44, 417819.5, 0.0007353983, 10.003827, 9.99802 
1.7751072e+3, 3.0613193e+2, 290288.75, -335175.97, 15967.341, -0.004215969, -0.16159444, 290696.1, 290696.1, 0.001730273, 10.004036, 9.995736 
1.7751083e+3, 3.1612673e+2, 412059.88, -182894.64, 7701.8325, 0.009189875, -0.30240506, 412159.56, 412159.56, 0.0030651924, 10.004498, 9.996531 
1.7851318e+3, 1.2615056e+2, -2103666.5, -1670333.3, 129745.33, -0.0763533, -0.010092429, -1634456.3, 69273.664, 0.08696164, 9.996303, 10.002086 
1.7851342e+3, 1.3615319e+2, -1869430.5, -1687532.6, -109869.73, 0.20184219, 0.17468098, -1635852.5, -30152.42, 0.057701517, 9.998032, 10.0004425 
1.7851284e+3, 1.4615262e+2, -1793613.0, -1700570.5, -85689.94, -0.15345393, 0.13281609, -1649588.0, -141881.36, 0.030258754, 9.9983, 9.999563 
1.7851277e+3, 1.5615025e+2, -1644412.0, -1536404.8, -48658.383, -0.09057591, -0.09864871, -1517717.0, -107983.01, 0.0109521225, 9.998485, 9.999919 
1.785128e+3, 1.6615076e+2, -1445186.1, -1296742.0, 7362.4863, -0.022160018, -0.08793453, -1296377.8, 15350.041, 0.0020959692, 9.998763, 10.000759 
1.7851281e+3, 1.7615262e+2, -1291297.1, -1177315.0, -3943.455, 0.009616003, -0.009327441, -1177178.8, 36526.004, 0.000105867584, 9.999184, 10.000698 
1.7851269e+3, 1.8615301e+2, -1249488.6, -1275274.5, -64377.184, 0.041754637, 0.050274666, -1196726.0, -81025.98, 0.0000000562377, 9.99953, 9.999192 
1.7851253e+3, 1.9615273e+2, -1075948.0, -1118854.3, -74887.84, 0.07890278, 0.06674297, -1019501.0, -1796.1196, 0.0, 9.999953, 9.999382 
1.7851236e+3, 2.0615174e+2, -977286.0, -1046202.94, -67897.85, 0.040140793, 0.04504778, -935603.1, -15888.804, 0.0, 10.00007, 9.999158 
1.785122e+3, 2.1615022e+2, -874153.06, -943438.0, -134201.83, -0.047763187, -0.05118355, -770194.56, 51532.945, 0.0, 10.000105, 9.999168 
1.7851214e+3, 2.2614911e+2, -745617.7, -957065.94, -128570.27, 0.029036839, -0.011635583, -684884.9, 38854.188, 0.0, 10.00084, 9.998057 
1.7851214e+3, 2.3614831e+2, -459635.9, -736849.94, -53746.59, 0.20756245, 0.06754961, -449580.22, 176168.84, 0.0, 10.0020075, 9.998325 
1.7851193e+3, 2.4614698e+2, -228375.52, -539136.1, -52282.047, 0.20726453, 0.08601271, -219815.42, 307945.16, 0.0, 10.002764, 9.998645 
1.7851162e+3, 2.5614527e+2, -58903.453, -417219.47, -108646.57, 0.07736325, 0.02160026, -28534.213, 401239.1, 0.0, 10.003304, 9.998548 
1.7851146e+3, 2.661424e+2, -116620.89, -583709.56, -63215.273, 0.03956474, -0.023725761, -108216.62, 223584.58, 0.00000018370703, 10.003039, 9.996863 
1.7851135e+3, 2.7613863e+2, -93455.6, -488013.72, -32518.88, 0.04729783, -0.11785131, -90793.41, 143046.66, 0.000020759246, 10.00237, 9.997169 
1.7851129e+3, 2.861364e+2, 159730.97, -179040.7, -13285.165, 0.060540833, -0.12145241, 160251.17, 296109.63, 0.00019242667, 10.002884, 9.99836 
1.7851126e+3, 2.961354e+2, 453708.7, -4545.4253, -68684.16, 0.09854173, -0.094228715, 463781.78, 501642.47, 0.00073228433, 10.004307, 9.998198 
1.7851116e+3, 3.061321e+2, 427677.16, -197163.3, 22369.453, 0.01151185, -0.13613342, 428476.97, 428476.97, 0.0017135036, 10.004666, 9.996379 
1.7851143e+3, 3.1612775e+2, 365714.94, -194968.81, 59436.0, 0.19061634, -0.24534228, 371946.28, 371946.28, 0.0029749586, 10.004092, 9.996659 
1.7951304e+3, 1.2614979e+2, -2070672.3, -1616593.0, 210869.86, 0.09273517, 0.11786205, -1533772.9, 169965.28, 0.09190124, 9.996327, 10.002512 
1.7951283e+3, 1.3614924e+2, -1811878.4, -1570226.9, -61112.465, -0.20751403, -0.089971155, -1555651.0, 50087.21, 0.06119029, 9.998017, 10.00128 
1.7951266e+3, 1.4615121e+2, -1760064.0, -1631122.4, -102174.01, -0.18738236, 0.04945208, -1574779.3, -67057.734, 0.03230053, 9.9983, 10.000041 
1.7951275e+3, 1.5615329e+2, -1626184.0, -1485788.3, -33386.258, 0.030019261, 0.22275199, -1478253.4, -68544.61, 0.011841973, 9.998439, 10.000283 
1.7951274e+3, 1.6615385e+2, -1422829.6, -1259814.3, 12487.595, 0.023035688, 0.21245614, -1258863.3, 52837.883, 0.0023264778, 9.998789, 10.001007 
1.7951271e+3, 1.7615321e+2, -1276305.9, -1147174.1, 15378.038, -0.017586753, 0.016297534, -1145368.0, 68331.23, 0.00012352158, 9.999181, 10.000911 
1.7951265e+3, 1.8615255e+2, -1271803.4, -1324026.9, -57664.23, 0.021368343, -0.02595521, -1234614.4, -118910.98, 0.000000085167756, 9.999543, 9.998849 
1.7951253e+3, 1.9615182e+2, -1119810.5, -1198742.1, -55062.773, 0.08099844, -0.012854836, -1091530.8, -73819.38, 0.0, 9.999906, 9.998857 
1.7951241e+3, 2.0615064e+2, -1083528.3, -1257906.4, -75087.17, 0.0682149, 0.048804916, -1055652.0, -135924.73, 0.0, 10.000027, 9.997726 
1.795123e+3, 2.1614915e+2, -952832.06, -1092370.8, -118511.13, 0.038301248, 0.09461157, -885078.1, -63330.08, 0.0, 10.000038, 9.998181 
1.795123e+3, 2.2614855e+2, -604923.8, -637208.56, -90641.07, 0.10207379, 0.10207716, -528998.94, 194751.5, 0.0, 10.000724, 10.000309 
1.7951235e+3, 2.3614858e+2, -357126.2, -484107.88, -5684.0054, 0.21308629, 0.03982058, -356872.28, 268867.97, 0.0, 10.001843, 10.000135 
1.7951219e+3, 2.4614647e+2, -356691.16, -765006.44, -39345.617, 0.17182031, -0.017479839, -352934.34, 174823.66, 0.0, 10.002585, 9.997183 
1.7951192e+3, 2.5614288e+2, -161123.1, -594099.8, -83287.88, 0.044657145, -0.12602802, -145654.39, 284140.38, 0.0, 10.00316, 9.997398 
1.795118e+3, 2.661405e+2, -58999.91, -436075.16, -96615.96, 0.07160412, -0.1290357, -35685.984, 296131.88, 0.00000013255313, 10.002911, 9.997943 
1.7951173e+3, 2.76139e+2, -53472.605, -367864.2, -40890.81, 0.17210622, -0.116287366, -48241.258, 185590.4, 0.0000188634, 10.002221, 9.998059 
1.7951167e+3, 2.8613696e+2, 69831.914, -333699.22, 26791.578, 0.12793067, -0.0827515, 71602.914, 207453.69, 0.00018750537, 10.002731, 9.997377 
1.7951165e+3, 2.9613492e+2, 377473.5, -113137.516, -3793.8691, 0.05133416, -0.06833755, 377502.84, 415373.9, 0.00072388566, 10.0041, 9.997548 
1.7951167e+3, 3.0613282e+2, 481518.97, -25960.188, -9991.482, 0.033091955, -0.032926038, 481715.63, 481715.63, 0.0016682546, 10.004401, 9.997688 
1.7951196e+3, 3.1613207e+2, 409896.72, -20513.719, 104219.4, 0.28200957, 0.072151974, 433804.38, 433804.38, 0.00282097, 10.003766, 9.997996 
1.8051279e+3, 1.2614705e+2, -2013733.9, -1532509.0, 181804.0, 0.22426519, 0.09503231, -1471547.1, 232218.78, 0.097200245, 9.996452, 10.003082 
1.8051237e+3, 1.3614717e+2, -1938672.9, -1558502.6, -82597.695, -0.39915413, -0.10741005, -1541332.5, 64427.51, 0.06490086, 9.996828, 10.001948 
1.8051252e+3, 1.4615004e+2, -1787438.5, -1572493.5, -115621.984, -0.12109863, 0.05033008, -1522109.1, -14375.391, 0.034457777, 9.9978075, 10.000672 
1.8051271e+3, 1.56153e+2, -1535165.3, -1396992.4, -56447.188, 0.12229849, 0.25612172, -1376864.3, 32846.414, 0.0127833225, 9.998866, 10.000686 
1.8051268e+3, 1.661535e+2, -1417006.0, -1295999.4, -32272.762, 0.07831013, 0.24464624, -1287930.3, 23774.406, 0.0025744103, 9.999027, 10.000636 
1.8051265e+3, 1.7615242e+2, -1334396.5, -1196404.5, -87744.66, 0.031506818, 0.03910265, -1153778.0, 59931.37, 0.00014305822, 9.998905, 10.000693 
1.8051265e+3, 1.8615155e+2, -1222889.9, -1259629.4, -105376.62, 0.08205914, -0.0346114, -1134293.9, -18579.934, 0.00000010953618, 9.999676, 9.999236 
1.8051262e+3, 1.9615081e+2, -931619.1, -1073264.9, -66104.54, 0.11471688, -0.06543936, -905562.25, 112156.38, 0.0, 10.001041, 9.99917 
1.8051253e+3, 2.0614965e+2, -850886.5, -1192526.3, -21742.44, 0.09559826, 0.009076711, -849508.3, 70225.33, 0.0, 10.00181, 9.997325 
1.8051246e+3, 2.1614824e+2, -654985.56, -988265.75, -6712.356, 0.07892885, 0.101772755, -654850.44, 166905.14, 0.0, 10.002243, 9.997835 
1.8051246e+3, 2.2614723e+2, -445908.13, -550251.4, -41112.984, 0.124745466, 0.07892047, -431655.7, 292106.16, 0.0, 10.001791, 10.0003805 
1.8051246e+3, 2.3614648e+2, -500742.84, -551596.94, -127820.62, 0.1901601, -0.06262591, -395844.75, 229913.28, 0.0, 10.000848, 10.000151 
1.805124e+3, 2.4614465e+2, -537051.8, -839901.0, -110931.11, 0.18918982, -0.098092034, -500766.2, 27007.654, 0.0, 10.001294, 9.997295 
1.8051232e+3, 2.561421e+2, -229375.03, -617270.4, -69619.195, 0.14931613, -0.10930155, -217258.31, 212543.95, 0.0, 10.002634, 9.997505 
1.8051219e+3, 2.661401e+2, -39580.047, -401988.7, -111436.61, 0.16254036, -0.09311501, -8056.5522, 323765.66, 0.00000007008213, 10.002949, 9.998157 
1.8051198e+3, 2.7613842e+2, 21478.889, -319450.34, -136505.17, 0.17416824, -0.108861014, 69398.91, 303235.38, 0.000018211342, 10.002684, 9.998177 
1.8051197e+3, 2.8613648e+2, 64290.117, -367549.7, 76.05427, 0.15328291, -0.058039226, 64290.133, 200146.42, 0.00018362651, 10.00281, 9.997116 
1.8051212e+3, 2.9613456e+2, 246620.3, -206995.92, -11238.951, 0.15582079, 0.002933314, 246898.58, 284776.34, 0.0007097157, 10.003304, 9.997302 
1.8051219e+3, 3.061317e+2, 395730.38, -67110.79, -67674.77, 0.16168672, -0.027766732, 405422.56, 405422.56, 0.0016129982, 10.003811, 9.997688 
1.8051232e+3, 3.1613135e+2, 464332.8, 6571.041, -95075.086, 0.25313112, 0.13304976, 483294.06, 483294.06, 0.0026760024, 10.00407, 9.998076 
1.8151237e+3, 1.2614223e+2, -1966570.4, -1455713.1, 8328.9375, 0.10419936, -0.09193146, -1455577.4, 248236.78, 0.10291468, 9.996478, 10.003649 
1.81512e+3, 1.361469e+2, -1904678.9, -1479307.4, -45482.086, -0.469388, 0.11552106, -1474498.6, 131267.31, 0.06887483, 9.99678, 10.002546 
1.8151242e+3, 1.4614908e+2, -1723560.6, -1450639.0, -82529.625, -0.050879195, 0.12459858, -1427623.5, 80120.055, 0.036753505, 9.99783, 10.001526 
1.815126e+3, 1.5614949e+2, -1496437.4, -1324288.1, -14565.352, 0.110897906, 0.0081861615, -1323064.4, 86674.77, 0.01378539, 9.998885, 10.001188 
1.8151258e+3, 1.6614993e+2, -1483236.8, -1442169.3, -48849.44, 0.043631926, 0.025801102, -1409713.4, -97977.25, 0.002842686, 9.999063, 9.999617 
1.8151264e+3, 1.7615025e+2, -1387947.5, -1309550.4, -77384.63, 0.09798328, 0.059256975, -1262002.6, -48267.813, 0.00016504708, 9.998903, 9.999922 
1.8151271e+3, 1.8615009e+2, -1142453.0, -1091634.9, -59655.71, 0.14988433, 0.02407904, -1052202.5, 63529.24, 0.00000012908751, 9.999673, 10.000391 
1.8151273e+3, 1.9614962e+2, -858004.8, -915616.06, -12035.182, 0.107266895, -0.09133459, -855591.7, 162135.31, 0.0, 10.001021, 10.000263 
1.8151268e+3, 2.0614868e+2, -819047.75, -1113074.0, -13879.555, 0.04368804, -0.07741916, -818394.06, 101340.91, 0.0, 10.001755, 9.997895 
1.8151264e+3, 2.1614736e+2, -656694.6, -960656.5, 9996.376, 0.013535336, -0.031424835, -656366.25, 165385.58, 0.0, 10.0021105, 9.998088 
1.8151255e+3, 2.2614515e+2, -613244.3, -863914.0, -85594.78, 0.030061845, -0.0721388, -586805.4, 136968.69, 0.0, 10.001638, 9.998305 
1.8151243e+3, 2.361423e+2, -631698.3, -802495.6, -142397.78, 0.06470239, -0.21849419, -551054.6, 74745.5, 0.0, 10.000755, 9.998473 
1.8151252e+3, 2.4614172e+2, -452911.72, -636800.75, -66477.414, 0.16541177, -0.13267812, -431396.8, 96409.32, 0.0, 10.001168, 9.99875 
1.8151276e+3, 2.5614277e+2, -160665.05, -441768.75, -16856.54, 0.3193845, 0.058710013, -159657.84, 270140.28, 0.0, 10.002494, 9.998775 
1.8151256e+3, 2.661409e+2, -112625.94, -517364.34, -130692.31, 0.23108065, 0.073175244, -74093.14, 257723.55, 0.0000000874347, 10.002786, 9.997445 
1.8151206e+3, 2.7613705e+2, -45542.402, -420602.03, -129655.08, -0.02128864, -0.0906704, -5085.6606, 228768.08, 0.00001648955, 10.002529, 9.997551 
1.8151213e+3, 2.8613505e+2, 56867.277, -350413.8, 10108.685, 0.027190965, -0.027564757, 57118.02, 192991.6, 0.00017232615, 10.00266, 9.997308 
1.8151261e+3, 2.961343e+2, 234330.53, -202873.95, 22971.502, 0.2984233, 0.119573034, 235534.19, 273415.28, 0.0006746177, 10.003173, 9.997391 
1.8151271e+3, 3.0612886e+2, 251015.75, -310852.2, -66602.27, 0.2655166, -0.09558638, 258802.67, 258802.67, 0.0015412994, 10.003573, 9.996126 
1.8151231e+3, 3.1612355e+2, 340160.97, -129962.63, -47709.11, -0.18447646, -0.28194436, 344953.75, 344953.75, 0.0025647236, 10.003598, 9.997338 
1.8251194e+3, 1.2614216e+2, -1760981.5, -1417911.8, 77072.945, -0.040063802, -0.04996011, -1401392.3, 302421.3, 0.10907774, 9.998121, 10.003161 
1.8251184e+3, 1.3614605e+2, -1884880.4, -1554345.5, 43963.043, -0.32772368, 0.16172376, -1548598.1, 57176.758, 0.07313931, 9.997277, 10.001763 
1.825123e+3, 1.4614742e+2, -1684467.3, -1390843.0, -4964.016, 0.052121144, 0.10518304, -1390759.1, 117000.03, 0.039204508, 9.997933, 10.00189 
1.8251242e+3, 1.5614754e+2, -1437878.3, -1265657.3, 4348.339, 0.021270359, -0.076517716, -1265547.5, 144207.11, 0.014855209, 9.999163, 10.001461 
1.8251242e+3, 1.6614808e+2, -1392976.5, -1427839.5, -22434.438, -0.05550223, -0.04292033, -1381997.4, -70246.88, 0.0031336718, 9.999794, 9.999364 
1.825126e+3, 1.7614892e+2, -1215709.1, -1249957.0, -3711.2502, 0.114607826, 0.06270185, -1215311.6, -1565.0419, 0.00019006866, 10.000184, 9.999711 
1.8251278e+3, 1.8614875e+2, -1007858.25, -1043547.94, 20050.057, 0.18399177, 0.045321222, -998862.0, 116882.32, 0.00000015151502, 10.000687, 10.000224 
1.825128e+3, 1.9614793e+2, -815784.6, -903385.25, -48244.574, 0.06643782, -0.08800975, -794423.56, 223319.45, 0.0, 10.001372, 10.000168 
1.8251283e+3, 2.0614691e+2, -844185.3, -1071027.6, -114695.39, 0.037248842, -0.10409046, -796301.2, 123449.05, 0.0, 10.001362, 9.998361 
1.8251286e+3, 2.1614562e+2, -806832.8, -995253.7, -112025.53, 0.10365973, -0.10190368, -754669.3, 67095.06, 0.0, 10.000925, 9.998413 
1.8251279e+3, 2.2614343e+2, -675261.44, -978852.94, -125690.664, 0.121393666, -0.112637766, -629978.3, 93809.7, 0.0, 10.001563, 9.997559 
1.8251263e+3, 2.361407e+2, -363557.44, -739018.8, -103686.07, 0.082860805, -0.17385218, -336826.9, 288990.16, 0.0, 10.002882, 9.997885 
1.825127e+3, 2.4614029e+2, -207041.17, -483838.7, -27499.543, 0.15125881, -0.066319756, -204335.56, 323487.22, 0.0, 10.0027075, 9.999055 
1.8251294e+3, 2.5614136e+2, -275055.34, -465837.44, -79876.2, 0.29510003, 0.09984136, -246029.11, 183784.31, 0.0, 10.001574, 9.999047 
1.8251282e+3, 2.661395e+2, -256889.44, -568497.2, -168024.83, 0.2651374, 0.09464587, -183548.84, 148282.66, 0.00000011582431, 10.001731, 9.997596 
1.8251245e+3, 2.7613568e+2, -3155.428, -394126.06, -132604.2, 0.10978734, -0.0783643, 37576.074, 271444.53, 0.000015405387, 10.002782, 9.997617 
1.8251255e+3, 2.8613347e+2, 138895.6, -355261.84, 29733.281, 0.13787177, -0.016130783, 140678.2, 276569.34, 0.0001600689, 10.003428, 9.9969015 
1.8251294e+3, 2.9613245e+2, 303583.34, -219303.88, -35375.816, 0.27692387, 0.15339005, 305965.84, 343868.63, 0.0006309656, 10.003862, 9.996949 
1.8251312e+3, 3.061268e+2, 287829.7, -314356.88, -77588.94, 0.30094498, -0.045975737, 297666.0, 297666.0, 0.0014656942, 10.003922, 9.995929 
1.8251275e+3, 3.161205e+2, 392952.03, -84588.28, -54325.004, -0.11166642, -0.30336308, 399054.06, 399054.06, 0.002489003, 10.003826, 9.997569 
1.8351145e+3, 1.2614645e+2, -1870563.4, -1618207.0, -29821.441, -0.39338973, 0.17743102, -1614730.9, 89037.016, 0.11569034, 9.998087, 10.001643 
1.8351188e+3, 1.3614485e+2, -2024433.8, -1840341.4, 42437.402, -0.043905478, 0.042797145, -1831029.6, -225245.11, 0.07769921, 9.9972925, 9.999754 
1.8351214e+3, 1.4614531e+2, -1695015.5, -1422521.3, 38277.043, 0.07410844, 0.0062679187, -1417246.6, 90531.74, 0.04181763, 9.997977, 10.001647 
1.835121e+3, 1.5614706e+2, -1438877.1, -1268771.6, 54567.527, -0.22171034, -0.0032490115, -1252772.0, 156985.6, 0.015997248, 9.99916, 10.001445 
1.8351218e+3, 1.6614789e+2, -1354346.4, -1349150.6, -20720.135, -0.28992453, 0.028669946, -1330866.1, -19117.322, 0.0034491862, 9.999802, 9.999901 
1.8351254e+3, 1.7614824e+2, -1195273.8, -1209335.8, 15381.827, 0.018440086, 0.03591567, -1185392.1, 28354.604, 0.00021871291, 10.000186, 9.999992 
1.8351276e+3, 1.8614735e+2, -1111167.8, -1255818.9, 37739.98, 0.09084719, 0.016712254, -1101913.4, 13840.553, 0.00000018976193, 10.000679, 9.99877 
1.8351282e+3, 1.9614565e+2, -913239.6, -1092493.6, -17793.514, -0.07430761, -0.059565347, -911490.44, 106276.63, 0.0, 10.001312, 9.998899 
1.8351294e+3, 2.0614429e+2, -826296.8, -1019433.25, -137731.78, -0.000009748493, -0.07720103, -754652.5, 165127.19, 0.0, 10.001296, 9.998748 
1.8351313e+3, 2.1614307e+2, -793398.5, -944157.4, -114609.53, 0.26724166, -0.10410644, -731601.4, 90190.875, 0.0, 10.000827, 9.998811 
1.8351315e+3, 2.2614215e+2, -659868.94, -912986.56, -81485.88, 0.30206934, -0.032905344, -635905.06, 87897.82, 0.0, 10.001415, 9.998083 
1.8351302e+3, 2.3614141e+2, -355727.44, -689346.6, -54027.484, 0.17428572, 0.050135676, -347196.2, 278616.0, 0.0, 10.00274, 9.998295 
1.8351291e+3, 2.4614002e+2, -285438.72, -608784.0, -78462.88, 0.07749117, 0.08361889, -267404.75, 260422.33, 0.0, 10.00254, 9.998283 
1.8351282e+3, 2.5613812e+2, -341466.5, -570890.6, -102101.31, 0.011428413, 0.036082506, -302609.25, 127236.97, 0.0, 10.001438, 9.998392 
1.835129e+3, 2.661362e+2, -220930.73, -467442.53, -135212.05, 0.16806218, 0.013043593, -161226.77, 170636.97, 0.000000090536304, 10.001608, 9.998352 
1.835131e+3, 2.761342e+2, 21732.545, -313079.75, -82742.62, 0.46318287, -0.060352903, 41064.605, 274945.78, 0.00001528185, 10.002655, 9.998233 
1.8351315e+3, 2.8613156e+2, 39946.39, -529567.5, 30525.701, 0.37219462, -0.007924912, 41577.883, 177488.05, 0.00015262204, 10.003281, 9.995781 
1.8351308e+3, 2.961288e+2, 212474.38, -359872.22, -4609.179, 0.0094879335, 0.09603276, 212511.48, 250454.98, 0.000595642, 10.003665, 9.996071 
1.8351339e+3, 3.0612564e+2, 303455.4, -223324.92, -90843.87, 0.15277775, 0.14367417, 318681.44, 318681.44, 0.0014012378, 10.003667, 9.996677 
1.8351339e+3, 3.161228e+2, 396495.0, 4668.457, -67197.28, 0.12171267, 0.13087188, 407698.8, 407698.8, 0.0024329247, 10.003491, 9.998334 
1.8451117e+3, 1.2614606e+2, -1980917.8, -1666761.9, -105317.12, -0.42662266, 0.10931307, -1634723.0, 69043.38, 0.12272786, 9.99733, 10.001663 
1.8451178e+3, 1.3614424e+2, -1786262.8, -1767385.4, 62829.117, 0.043187547, -0.023364395, -1713289.9, -107506.125, 0.08254445, 9.999134, 9.99936 
1.8451196e+3, 1.461432e+2, -1512292.6, -1447707.9, 92722.65, 0.024013555, -0.12704001, -1381815.3, 125977.57, 0.04459436, 9.99972, 10.000645 
1.8451203e+3, 1.5614545e+2, -1449360.1, -1356554.9, 32658.355, -0.2151755, 0.00010722812, -1346214.4, 63555.05, 0.017215712, 9.999448, 10.000698 
1.8451218e+3, 1.6614613e+2, -1408252.0, -1375372.0, -73691.11, -0.24759778, 0.048757274, -1316309.4, -4546.806, 0.0037916328, 9.999443, 9.999892 
1.8451251e+3, 1.761456e+2, -1248807.3, -1235568.4, -92431.586, -0.0004103293, -0.030209053, -1149519.5, 64248.78, 0.00025177147, 9.999828, 9.999984 
1.8451282e+3, 1.8614475e+2, -1190359.6, -1282169.3, 186.74867, 0.10408712, -0.049217816, -1190359.3, -74583.74, 0.00000025167606, 10.000081, 9.998876 
1.8451302e+3, 1.9614378e+2, -1046594.6, -1149876.6, 41088.35, 0.05065192, -0.06610246, -1032242.8, -14459.671, 0.0, 10.000355, 9.998971 
1.8451315e+3, 2.0614235e+2, -907161.5, -1096254.9, -60751.5, 0.09407754, -0.07444063, -889325.7, 30472.107, 0.0, 10.000895, 9.998423 
1.8451321e+3, 2.1614063e+2, -680297.25, -919696.6, -100300.78, 0.21531351, -0.12048581, -643829.5, 177987.34, 0.0, 10.00173, 9.99855 
1.8451329e+3, 2.2613995e+2, -545586.8, -832473.3, -64849.074, 0.264135, -0.024814319, -531609.06, 192216.0, 0.0, 10.002106, 9.998293 
1.8451333e+3, 2.3613985e+2, -421807.66, -708731.3, -84747.55, 0.24603754, 0.10134281, -398645.8, 227181.64, 0.0, 10.002234, 9.9984 
1.845132e+3, 2.4613771e+2, -388257.94, -713195.4, -141241.14, 0.13952596, 0.0826594, -335447.44, 192402.11, 0.0, 10.002089, 9.997773 
1.8451294e+3, 2.5613427e+2, -316767.1, -604592.1, -160027.14, -0.031553958, -0.066653594, -245459.95, 184423.97, 0.0, 10.001807, 9.99798 
1.8451305e+3, 2.6613277e+2, -149799.39, -401047.8, -133685.33, 0.13871437, -0.047119156, -91975.484, 239922.14, 0.00000009817215, 10.001963, 9.998634 
1.845134e+3, 2.7613243e+2, 6443.5664, -290608.38, -137250.14, 0.5238675, 0.0221398, 60149.063, 294047.9, 0.000013983738, 10.002428, 9.998492 
1.845135e+3, 2.8612974e+2, -18171.938, -510396.38, 26137.135, 0.4399902, 0.033217244, -16787.945, 119140.086, 0.0001420209, 10.002696, 9.996188 
1.8451339e+3, 2.961258e+2, 124369.85, -356748.63, 59987.438, 0.016356936, -0.017721314, 131736.48, 169708.3, 0.0005571277, 10.002849, 9.996501 
1.8451379e+3, 3.0612394e+2, 314814.72, -171483.34, 46948.42, 0.20923969, 0.11772734, 319305.78, 319305.78, 0.0013278592, 10.0035515, 9.997095 
1.8451391e+3, 3.1612167e+2, 605547.6, 94536.8, -71808.57, 0.22836919, 0.13920234, 615446.56, 615446.56, 0.0023466824, 10.004967, 9.998241 
1.8551113e+3, 1.2614085e+2, -1875724.4, -1493610.0, 18869.201, -0.26370484, -0.2844139, -1492680.5, 211129.86, 0.13014582, 9.997406, 10.002973 
1.8551153e+3, 1.3614413e+2, -1717896.1, -1623588.1, 119862.72, -0.12587318, -0.0499369, -1541937.8, 63835.7, 0.08765755, 9.99912, 10.000381 
1.8551175e+3, 1.4614098e+2, -1627692.1, -1690303.3, 76899.63, -0.18538739, -0.31396654, -1575970.1, -68165.68, 0.04753598, 9.999733, 9.998948 
1.8551217e+3, 1.5614268e+2, -1548820.3, -1569845.1, 30421.623, -0.051025786, -0.07668866, -1527145.9, -117355.305, 0.01851746, 9.999477, 9.999215 
1.8551235e+3, 1.6614287e+2, -1437246.3, -1446090.1, -67969.13, -0.03722043, 0.013056842, -1373555.4, -61764.242, 0.0041650403, 9.999483, 9.999389 
1.855125e+3, 1.7614108e+2, -1272059.8, -1284350.9, -68905.94, -0.013057061, -0.13651668, -1209025.9, 4784.2476, 0.00029041685, 9.999821, 9.999658 
1.8551289e+3, 1.8614094e+2, -1078064.3, -1050388.5, 1504.4957, 0.1420439, -0.15925369, -1050307.0, 65502.383, 0.0000003514084, 10.000087, 10.000465 
1.8551338e+3, 1.9614224e+2, -962199.9, -964068.0, 56642.668, 0.35253692, -0.105083935, -906483.56, 111308.48, 0.0, 10.000307, 10.000271 
1.8551339e+3, 2.0614105e+2, -986381.56, -1244941.5, -38645.91, 0.22826985, -0.0897973, -980728.9, -60923.484, 0.0, 10.000826, 9.9974375 
1.8551308e+3, 2.1613814e+2, -758325.2, -1055975.9, -64529.508, -0.09507399, -0.15523638, -744937.56, 76901.984, 0.0, 10.001619, 9.997669 
1.855132e+3, 2.261367e+2, -569394.5, -851068.9, -66115.81, -0.051249564, -0.094117, -554647.56, 169208.33, 0.0, 10.001967, 9.998236 
1.8551356e+3, 2.361362e+2, -450890.47, -738405.44, -71795.92, 0.22479467, 0.0020131215, -433959.22, 191901.84, 0.0, 10.002097, 9.998265 
1.8551353e+3, 2.4613364e+2, -433945.47, -772776.8, -158808.52, 0.2402012, -0.03204644, -371150.44, 156737.03, 0.0, 10.001932, 9.997442 
1.8551326e+3, 2.561298e+2, -352835.0, -648833.1, -157234.06, 0.09072904, -0.19563307, -284902.88, 145024.23, 0.0, 10.001682, 9.997732 
1.8551323e+3, 2.661291e+2, -176149.78, -431237.44, -124844.484, 0.1092433, -0.07632063, -125217.914, 206716.5, 0.00000008466028, 10.001852, 9.998486 
1.8551338e+3, 2.7613038e+2, -18900.37, -300027.22, -105976.71, 0.23437062, 0.16730115, 16573.533, 250495.4, 0.000011475633, 10.002251, 9.99851 
1.8551362e+3, 2.861279e+2, 65724.17, -292644.5, 19567.88, 0.25414363, 0.116534024, 66789.46, 202734.44, 0.00012583715, 10.002499, 9.997784 
1.8551387e+3, 2.9612333e+2, 204116.11, -144647.81, 81245.15, 0.18844767, -0.16754347, 222113.58, 260102.0, 0.0005096421, 10.002656, 9.998048 
1.855143e+3, 3.0612174e+2, 274013.53, -207995.25, 79057.68, 0.32918, -0.073363915, 286649.13, 286649.13, 0.0012369246, 10.003338, 9.996948 
1.8551439e+3, 3.1611913e+2, 466173.84, -83062.25, -40521.445, 0.16837777, -0.056614943, 469147.34, 469147.34, 0.0022135882, 10.004509, 9.9972315 
1.8651105e+3, 1.2613788e+2, -1748325.3, -1563737.8, 59129.9, -0.13465539, -0.35530907, -1546420.9, 157413.28, 0.1378835, 9.998908, 10.001703 
1.865115e+3, 1.3614202e+2, -1481576.4, -1543304.9, -25661.625, -0.16008209, 0.0032021499, -1472301.8, 133491.14, 0.09301642, 10.000959, 10.000064 
1.8651171e+3, 1.4613761e+2, -1408849.5, -1553027.0, -91031.36, -0.2770671, -0.38677067, -1364819.9, 143016.27, 0.050644647, 10.001172, 9.999192 
1.8651222e+3, 1.5613978e+2, -1396317.8, -1474835.3, -25255.969, 0.0077378587, -0.13056177, -1388895.5, 20919.682, 0.01991141, 10.000449, 9.999391 
1.8651244e+3, 1.6613986e+2, -1367808.4, -1446152.0, -24656.664, 0.07095574, -0.039295122, -1360694.3, -48878.445, 0.0045744055, 10.000113, 9.999079 
1.8651253e+3, 1.7613739e+2, -1257554.6, -1307489.6, -25713.246, 0.017894892, -0.22886965, -1246681.5, -32839.09, 0.0003360051, 10.000067, 9.999367 
1.865129e+3, 1.8613727e+2, -1105965.5, -1086219.0, -11528.832, 0.1578962, -0.22441441, -1080913.5, 34930.082, 0.00000050835786, 9.999997, 10.000261 
1.8651344e+3, 1.9613925e+2, -1010203.8, -1003385.2, -93959.35, 0.39445823, -0.08273717, -912773.3, 105049.25, 0.0, 10.000055, 10.000123 
1.8651348e+3, 2.0613854e+2, -1011608.0, -1222588.5, -145660.23, 0.2651563, -0.030299721, -937250.8, -17418.85, 0.0, 10.000523, 9.997725 
1.8651322e+3, 2.1613581e+2, -779219.1, -1035348.56, -98994.86, -0.105640955, -0.107385814, -745418.0, 76445.6, 0.0, 10.001346, 9.997937 
1.8651333e+3, 2.2613408e+2, -636907.25, -869228.9, -74194.21, -0.07285221, -0.09615681, -615234.4, 108647.44, 0.0, 10.001442, 9.998369 
1.8651368e+3, 2.3613311e+2, -585321.7, -785181.56, -75541.61, 0.20754251, -0.059154924, -559981.8, 65908.29, 0.0, 10.001099, 9.99843 
1.8651372e+3, 2.4613106e+2, -444850.44, -756945.75, -93341.47, 0.25386012, -0.060002152, -419064.38, 108846.37, 0.0, 10.001757, 9.997638 
1.8651354e+3, 2.561282e+2, -145240.72, -540697.75, -72815.945, 0.13812342, -0.1435319, -132259.19, 297681.25, 0.0, 10.00306, 9.997816 
1.865135e+3, 2.6612687e+2, -37116.117, -412264.06, -48700.27, 0.13379802, -0.06921543, -30897.129, 301056.94, 0.000000065173005, 10.003023, 9.998046 
1.8651356e+3, 2.7612647e+2, -51204.504, -358670.44, -76663.35, 0.19750203, 0.054752573, -33149.535, 200807.9, 0.000009431519, 10.002198, 9.998141 
1.8651383e+3, 2.8612435e+2, 27769.563, -278493.6, 27835.813, 0.2507623, 0.039080545, 30278.959, 166256.45, 0.00011328213, 10.002109, 9.998057 
1.8651421e+3, 2.9612133e+2, 223437.5, -92583.195, -39404.04, 0.26994312, -0.11544075, 228276.63, 266282.94, 0.00047190647, 10.002609, 9.99841 
1.8651462e+3, 3.0611953e+2, 307896.63, -77412.39, 14948.658, 0.33610955, -0.11465265, 308475.72, 308475.72, 0.0011580472, 10.0030775, 9.997962 
1.8651477e+3, 3.1611723e+2, 380065.7, -88390.734, -98850.766, 0.13414666, -0.17030354, 400070.3, 400070.3, 0.0020773846, 10.00372, 9.99758 
1.8751094e+3, 1.2613781e+2, -2012179.6, -2101924.8, 85602.85, -0.19628379, -0.049452994, -1960401.4, -256570.16, 0.14588223, 9.99895, 9.997835 
1.8751165e+3, 1.3613804e+2, -1583381.8, -1758093.4, 40265.184, -0.14141071, 0.12578171, -1574548.5, 31291.99, 0.0986057, 10.00092, 9.998567 
1.8751179e+3, 1.4613338e+2, -1273333.3, -1269170.3, -120006.38, -0.34701905, -0.34373474, -1151227.4, 356657.63, 0.053927336, 10.001164, 10.001229 
1.8751217e+3, 1.561367e+2, -1277427.6, -1227870.8, -36621.28, -0.11076626, -0.16434139, -1208432.9, 201410.1, 0.021407956, 10.000443, 10.00112 
1.875124e+3, 1.661371e+2, -1372783.1, -1461596.0, -34631.17, -0.0034835574, -0.114337884, -1360875.8, -49038.766, 0.0050250688, 10.000133, 9.998963 
1.8751255e+3, 1.7613441e+2, -1280318.4, -1355787.8, -21229.484, 0.014284266, -0.30970368, -1274756.4, -60890.402, 0.00038988978, 10.000064, 9.99904 
1.8751281e+3, 1.8613371e+2, -1232068.9, -1352992.0, -18006.629, 0.057766866, -0.24744532, -1229444.5, -113566.18, 0.000000733184, 10.00002, 9.998422 
1.8751319e+3, 1.9613487e+2, -1118459.6, -1221204.8, -79632.586, 0.1256834, -0.0018593577, -1075066.8, -57192.8, 0.0, 10.000026, 9.998645 
1.8751343e+3, 2.0613477e+2, -909023.25, -1003326.75, -122309.01, 0.12962237, 0.09206281, -825091.94, 94785.93, 0.0, 10.000487, 9.999251 
1.8751356e+3, 2.1613365e+2, -702796.25, -849672.25, -64838.277, 0.092098236, 0.026952945, -678269.25, 143619.64, 0.0, 10.001222, 9.999277 
1.8751366e+3, 2.2613208e+2, -637971.44, -835959.2, -94237.42, 0.09438737, -0.018663837, -600288.75, 123613.8, 0.0, 10.001282, 9.998677 
1.8751374e+3, 2.361304e+2, -577914.9, -738657.25, -71792.766, 0.1263044, -0.08818242, -550519.06, 75397.336, 0.0, 10.000966, 9.99881 
1.8751375e+3, 2.461296e+2, -418036.44, -663917.3, -50300.086, 0.10470291, -0.021942126, -408144.47, 119778.625, 0.0, 10.0015955, 9.998356 
1.8751375e+3, 2.5612932e+2, -135808.03, -475859.38, -21908.738, 0.03909476, 0.08439121, -134402.31, 295523.3, 0.0, 10.002874, 9.998349 
1.8751381e+3, 2.6612604e+2, -116719.234, -544556.06, -89448.016, 0.12549679, -0.012166134, -98771.234, 233185.0, 0.00000004605578, 10.002865, 9.997222 
1.875139e+3, 2.761209e+2, -128465.83, -485081.84, -89499.71, 0.31261715, -0.2826003, -107264.58, 126739.66, 0.000008317367, 10.002052, 9.997345 
1.8751413e+3, 2.8611925e+2, -62015.84, -436379.28, 34899.867, 0.307941, -0.16115516, -58790.11, 77233.72, 0.00010640216, 10.001977, 9.997045 
1.8751441e+3, 2.9611975e+2, 133622.73, -221595.86, -1726.8522, 0.1861652, 0.13834397, 133631.13, 171657.66, 0.00044874792, 10.002373, 9.997639 
1.875147e+3, 3.0611727e+2, 423671.2, 218943.81, 22474.965, 0.10121941, -0.008169448, 426109.47, 426109.47, 0.001101345, 10.002832, 10.000121 
1.8751514e+3, 3.161146e+2, 427209.16, 130082.03, -32866.535, 0.10715469, -0.31828046, 430801.25, 430801.25, 0.001964711, 10.003228, 9.999314 
1.8851097e+3, 1.2613323e+2, -1524023.5, -1964608.5, -20836.102, -0.23862138, -0.07112761, -1523040.3, 180834.13, 0.15411249, 10.003014, 9.996817 
1.8851179e+3, 1.361338e+2, -1830445.4, -1822706.0, 95561.38, 0.026794268, 0.08902656, -1730936.0, -125054.12, 0.10442951, 9.998965, 9.99906 
1.8851177e+3, 1.4613074e+2, -1672946.0, -1447985.9, -18298.154, -0.30858815, -0.25330627, -1446507.3, 61403.93, 0.057399224, 9.998285, 10.001319 
1.8851216e+3, 1.5613313e+2, -1315535.9, -1226840.5, -76560.3, -0.14230351, -0.17988327, -1182711.1, 227166.69, 0.023018045, 10.000111, 10.001278 
1.8851244e+3, 1.6613375e+2, -1266331.8, -1390651.9, -119917.12, 0.0027901912, -0.1259235, -1193421.5, 118448.46, 0.005521801, 10.000782, 9.99914 
1.8851262e+3, 1.7613225e+2, -1174766.5, -1290504.8, -98834.984, 0.051551208, -0.22094731, -1118105.4, 95782.9, 0.0004532519, 10.000721, 9.99918 
1.8851285e+3, 1.8613145e+2, -1117863.1, -1305504.8, 18747.707, 0.04728011, -0.16841228, -1116008.4, -107.776726, 0.0000010252129, 10.000831, 9.998356 
1.8851314e+3, 1.9613154e+2, -945652.7, -1141051.9, 74168.36, 0.029515319, -0.028321046, -920689.5, 97215.64, 0.0, 10.001222, 9.998613 
1.8851343e+3, 2.0613128e+2, -858795.06, -973570.8, 23369.328, 0.07834076, 0.047835756, -854219.3, 65690.97, 0.0, 10.0008135, 9.999297 
1.8851368e+3, 2.1613067e+2, -868309.3, -914774.8, -38501.574, 0.15276754, 0.02853256, -846573.94, -24657.137, 0.0, 10.000037, 9.9993925 
1.8851382e+3, 2.2612941e+2, -759159.0, -853470.0, -80899.81, 0.17669001, -0.012505039, -712674.7, 11252.116, 0.0, 10.000286, 9.999025 
1.8851386e+3, 2.3612766e+2, -518294.88, -681368.1, -71700.055, 0.16649017, -0.12070568, -491253.78, 134686.13, 0.0, 10.001242, 9.999072 
1.8851393e+3, 2.4612682e+2, -433657.47, -669835.7, -58712.15, 0.12156478, -0.068773516, -419867.25, 108079.24, 0.0, 10.001492, 9.998361 
1.8851396e+3, 2.5612658e+2, -358023.97, -586545.9, -104094.375, 0.040007908, 0.042906325, -317717.13, 112231.63, 0.0, 10.00136, 9.998319 
1.8851407e+3, 2.661232e+2, -236418.36, -618996.6, -152987.27, 0.14692271, -0.055182256, -182765.38, 149215.55, 0.000000017635879, 10.002126, 9.997061 
1.8851422e+3, 2.7611786e+2, 80692.21, -401873.25, -129649.75, 0.3550741, -0.3325546, 113318.98, 347350.75, 0.000007212163, 10.003578, 9.997172 
1.8851441e+3, 2.8611615e+2, 107669.24, -400378.66, 38754.375, 0.33222336, -0.18480498, 110608.46, 246661.38, 0.00009812263, 10.0033655, 9.996613 
1.8851463e+3, 2.961166e+2, 80781.98, -298776.4, 19110.188, 0.19253732, 0.1549927, 81741.72, 119798.7, 0.00042173456, 10.002226, 9.997184 
1.885149e+3, 3.0611327e+2, 268877.3, 149275.45, 10998.838, 0.073151425, -0.057760585, 269880.38, 269880.38, 0.0010400804, 10.001728, 10.000189 
1.885155e+3, 3.16112e+2, 224667.22, 112016.91, -228705.27, 0.24716865, -0.24033533, 403881.06, 403881.06, 0.0018543331, 10.001477, 10.000035 
1.8951109e+3, 1.2612434e+2, -1422312.1, -1725697.3, -155715.98, -0.46857357, -0.43931204, -1356615.5, 347346.8, 0.16258536, 10.003062, 9.998507 
1.8951192e+3, 1.3612933e+2, -1675039.9, -1509197.1, -26748.814, 0.2439451, -0.10687834, -1504989.6, 100927.945, 0.110513955, 9.998943, 10.001314 
1.8951169e+3, 1.4612962e+2, -1792488.9, -1684814.9, 37695.918, -0.25995448, -0.11912647, -1672929.6, -165014.05, 0.06108175, 9.998261, 9.999678 
1.8951216e+3, 1.5612912e+2, -1416076.1, -1428169.3, -5809.6304, -0.1582694, -0.1774837, -1413737.4, -3818.1094, 0.024752133, 10.00008, 9.999882 
1.8951255e+3, 1.661298e+2, -1227517.0, -1319004.8, -126318.8, -0.0035284332, -0.080285706, -1138914.5, 173000.36, 0.0060684755, 10.000815, 9.9996195 
1.8951271e+3, 1.7613077e+2, -1135357.1, -1203237.8, -92255.23, 0.064948365, 0.025792928, -1070997.0, 142912.72, 0.0005270964, 10.000694, 9.999794 
1.8951295e+3, 1.8613037e+2, -1000144.75, -1058533.1, 25740.928, 0.045186494, -0.004501973, -990417.25, 125494.484, 0.0000013718216, 10.000823, 10.000051 
1.8951328e+3, 1.9612935e+2, -862789.9, -950432.06, 87777.2, 0.016070686, -0.14454463, -808503.25, 209412.61, 0.0, 10.001148, 9.999951 
1.8951347e+3, 2.0612818e+2, -959204.06, -1178651.1, -15309.253, 0.016611863, -0.14203647, -958141.2, -38212.32, 0.0, 10.000784, 9.9979105 
1.8951356e+3, 2.1612687e+2, -960370.56, -1090672.1, -53976.95, 0.019328844, -0.094830796, -940915.56, -118967.836, 0.0, 9.999963, 9.998226 
1.8951379e+3, 2.2612579e+2, -752992.44, -811782.5, -52387.668, 0.10737031, -0.08639719, -722316.4, 1640.9786, 0.0, 10.000159, 9.999374 
1.8951409e+3, 2.3612489e+2, -526332.1, -658892.3, -31427.86, 0.24286647, -0.14375202, -519258.56, 106701.945, 0.0, 10.001081, 9.999299 
1.8951419e+3, 2.4612291e+2, -507593.44, -790639.2, -73525.69, 0.20734762, -0.17574617, -489633.53, 38345.563, 0.0, 10.001335, 9.997614 
1.8951413e+3, 2.561202e+2, -421972.78, -684683.25, -93167.47, 0.06875512, -0.24083611, -392286.5, 37721.426, 0.0, 10.001212, 9.997717 
1.8951428e+3, 2.661183e+2, -225274.48, -566088.44, -105116.84, 0.11503571, -0.18623951, -195461.36, 136567.05, 0.0000000071100716, 10.001992, 9.997491 
1.8951449e+3, 2.7611697e+2, 79671.14, -354454.7, -73009.76, 0.24828522, -0.10395177, 91620.74, 325663.44, 0.0000064261117, 10.003377, 9.997589 
1.8951467e+3, 2.8611484e+2, 92375.49, -397049.94, -18172.303, 0.21950838, -0.026920341, 93049.305, 229115.4, 0.00008727804, 10.003195, 9.996724 
1.8951486e+3, 2.9611185e+2, 28539.496, -355266.53, 1405.1282, 0.17608446, -0.042894274, 28544.64, 66643.35, 0.00038336558, 10.001996, 9.996911 
1.8951511e+3, 3.0610755e+2, 89563.75, -161538.58, -5261.4346, 0.08033104, -0.22114131, 89673.945, 89673.945, 0.00096103176, 10.001481, 9.998161 
1.8951581e+3, 3.1610915e+2, 74337.12, -69909.086, -125127.16, 0.3821635, 0.07025635, 146638.89, 146638.89, 0.0017327515, 10.000968, 9.999014 
1.9051132e+3, 1.261219e+2, -1720324.1, -1770816.9, -38377.46, -0.4105415, -0.32562384, -1699633.5, 4358.8003, 0.1713416, 10.000135, 9.999538 
1.9051196e+3, 1.3612485e+2, -1362777.1, -1349916.8, -125910.27, 0.257452, -0.2364837, -1230272.6, 375688.72, 0.11689223, 10.001254, 10.001435 
1.9051164e+3, 1.4612752e+2, -1446807.5, -1559168.6, -14123.121, -0.23918809, 0.015615472, -1445059.5, 62874.883, 0.06499328, 10.000842, 9.999297 
1.9051227e+3, 1.5612496e+2, -1459293.3, -1465065.9, 24945.031, -0.048864905, -0.22952895, -1437068.1, -27108.707, 0.026617203, 9.999837, 9.999752 
1.9051264e+3, 1.661252e+2, -1420451.1, -1401491.4, -60134.43, 0.080331184, -0.17983514, -1350094.3, -38134.59, 0.0066676727, 9.999436, 9.999717 
1.905127e+3, 1.7612733e+2, -1260142.5, -1245142.9, -65032.688, 0.03037007, 0.032616075, -1187179.0, 26763.37, 0.0006122247, 9.999765, 9.999947 
1.9051297e+3, 1.8612717e+2, -1116481.0, -1076745.9, -914.4345, 0.034877487, -0.002184522, -1076724.9, 39215.58, 0.0000017786746, 9.999867, 10.000386 
1.9051342e+3, 1.9612543e+2, -1018275.3, -995657.8, -53318.56, 0.11059148, -0.24284004, -952461.94, 65487.137, 0.0, 9.999945, 10.000231 
1.9051361e+3, 2.0612425e+2, -1005763.06, -1177315.6, -121591.586, 0.10451616, -0.2601381, -942737.2, -22776.361, 0.0, 10.000388, 9.9980955 
1.9051363e+3, 2.1612345e+2, -775515.9, -992232.3, -65601.51, 0.02347989, -0.18151224, -757205.0, 64769.777, 0.0, 10.001195, 9.998302 
1.9051383e+3, 2.2612245e+2, -623576.3, -795978.1, -30783.31, 0.0847398, -0.14448424, -618244.7, 105740.18, 0.0, 10.001241, 9.998965 
1.9051416e+3, 2.3612143e+2, -589892.5, -732269.6, -81996.87, 0.22772367, -0.17410108, -552493.3, 73498.164, 0.0, 10.000818, 9.998928 
1.9051431e+3, 2.4611928e+2, -565554.94, -800167.2, -92189.93, 0.22652024, -0.21475866, -533664.2, -5651.604, 0.0, 10.00088, 9.997754 
1.9051433e+3, 2.5611624e+2, -384076.8, -647883.2, -66715.54, 0.12503567, -0.32788378, -368164.53, 61879.934, 0.0, 10.001397, 9.997873 
1.9051452e+3, 2.6611498e+2, -242534.31, -547217.0, -19716.625, 0.16525908, -0.22702886, -241263.7, 90795.49, 0.000000016068412, 10.001764, 9.997725 
1.9051477e+3, 2.761151e+2, -87625.336, -417948.38, -31607.615, 0.26069278, -0.02313347, -84628.09, 149433.2, 0.000006012962, 10.002127, 9.997766 
1.9051494e+3, 2.8611282e+2, -8762.804, -426185.28, -2079.9614, 0.2315587, 0.023786748, -8752.44, 127332.734, 0.000076659555, 10.002414, 9.996903 
1.9051512e+3, 2.9610884e+2, 153032.7, -283872.34, -9974.751, 0.19665897, -0.1070697, 153260.33, 191385.13, 0.00034009657, 10.002802, 9.997008 
1.9051534e+3, 3.061044e+2, 161895.88, -237766.1, 60805.367, 0.12590632, -0.2505365, 170942.16, 170942.16, 0.00087139563, 10.002466, 9.997166 
1.9051607e+3, 3.1610486e+2, 124717.17, -104454.11, -2555.8562, 0.5224028, 0.030307189, 124745.67, 124745.67, 0.0016054219, 10.001514, 9.998539 
1.9151154e+3, 1.2612566e+2, -1688819.4, -1665803.3, 74386.35, -0.22926992, 0.2527569, -1602040.0, 101926.09, 0.18042894, 10.000015, 10.000385 
1.9151181e+3, 1.3612024e+2, -1496483.6, -1615930.9, -101625.66, -0.016356755, -0.3180122, -1438331.5, 167682.47, 0.12358676, 10.00121, 9.999431 
1.9151168e+3, 1.4612427e+2, -1383246.6, -1437065.5, -56363.496, -0.32870594, 0.13246025, -1347698.4, 160270.7, 0.069141634, 10.000904, 10.000142 
1.9151242e+3, 1.5612064e+2, -1385933.0, -1312683.5, -1983.398, 0.10092998, -0.33532557, -1312629.8, 97369.36, 0.028615344, 9.9998255, 10.000826 
1.9151269e+3, 1.6612004e+2, -1426795.5, -1424096.1, -58859.07, 0.15253517, -0.40815, -1366571.3, -54567.566, 0.0073205116, 9.999478, 9.999538 
1.9151255e+3, 1.761222e+2, -1284078.8, -1291912.6, -46949.992, -0.12162329, -0.17301495, -1240882.6, -26898.498, 0.00070924795, 9.999756, 9.999627 
1.9151288e+3, 1.86122e+2, -1178564.8, -1215676.4, -3484.6018, -0.0638062, -0.14264351, -1178240.4, -62255.133, 0.0000023137907, 9.999907, 9.999418 
1.9151357e+3, 1.9611996e+2, -1073687.8, -1100380.8, -38064.3, 0.24584195, -0.31134024, -1046697.94, -28695.299, 0.0, 9.9999, 9.999536 
1.9151384e+3, 2.0611957e+2, -902077.56, -954629.8, -96360.4, 0.2599215, -0.30819303, -828474.94, 91530.695, 0.0, 10.000345, 9.999647 
1.9151382e+3, 2.1612038e+2, -703526.7, -816039.9, -33772.97, 0.08214314, -0.22291234, -694167.6, 127830.195, 0.0, 10.001079, 9.999568 
1.9151391e+3, 2.2611946e+2, -726634.06, -970700.75, -51651.785, 0.027967652, -0.17352116, -716153.1, 7855.343, 0.0, 10.001069, 9.997851 
1.9151409e+3, 2.361174e+2, -676153.44, -871710.7, -82796.85, 0.058887266, -0.19410321, -645807.2, -19775.934, 0.0, 10.000658, 9.998045 
1.9151428e+3, 2.4611576e+2, -521540.56, -677548.25, -79434.81, 0.08960311, -0.19229196, -488213.88, 39834.14, 0.0, 10.000737, 9.998668 
1.9151446e+3, 2.5611445e+2, -345608.03, -534498.9, -38825.047, 0.12273299, -0.22475797, -337939.2, 92121.17, 0.0, 10.001261, 9.9987135 
1.9151475e+3, 2.6611337e+2, -258850.4, -555835.25, -17811.014, 0.20348965, -0.14888403, -257786.05, 74286.875, 0.000000038925435, 10.001645, 9.997728 
1.9151504e+3, 2.7611232e+2, -109566.07, -430036.16, -8487.586, 0.29533786, -0.06130627, -109341.43, 124745.305, 0.000005437274, 10.001988, 9.997748 
1.9151522e+3, 2.8611013e+2, -20635.102, -421843.66, -163.41147, 0.24125145, -0.006335349, -20635.035, 115474.68, 0.00006527873, 10.002283, 9.996999 
1.9151537e+3, 2.961073e+2, 127189.18, -284415.25, 14759.183, 0.15206674, -0.035540335, 127717.734, 165855.92, 0.00029241332, 10.002582, 9.997109 
1.9151558e+3, 3.0610383e+2, 135333.44, -249890.13, 9959.404, 0.08276116, -0.090390414, 135590.75, 135590.75, 0.0007692978, 10.002266, 9.997175 
1.9151595e+3, 3.1610173e+2, 74460.445, -105169.81, 27912.422, 0.22383861, -0.082965225, 78697.75, 78697.75, 0.0014580134, 10.001093, 9.998717 
1.9251153e+3, 1.2612332e+2, -1856837.9, -1718062.9, 57265.734, -0.17313956, 0.37323752, -1697483.8, 6504.7695, 0.18987963, 9.998686, 10.000599 
1.925118e+3, 1.361162e+2, -1622940.1, -1601705.9, -13463.417, -0.07865334, -0.444838, -1595177.0, 10874.306, 0.13060497, 9.999865, 10.000152 
1.9251189e+3, 1.4612222e+2, -1466133.4, -1498173.3, 69459.26, -0.17753945, 0.17641696, -1410870.5, 97116.98, 0.07352615, 10.000397, 9.999953 
1.9251244e+3, 1.5611877e+2, -1317742.9, -1292018.8, 16049.191, 0.11488302, -0.25621122, -1284313.6, 125704.33, 0.030745408, 10.000374, 10.000705 
1.9251265e+3, 1.6611741e+2, -1260653.8, -1315319.3, -19089.299, 0.122477904, -0.41240317, -1254647.6, 57380.207, 0.008026891, 10.00052, 9.999775 
1.9251262e+3, 1.7611861e+2, -1077085.0, -1178234.3, 8920.501, -0.0948961, -0.29861555, -1076304.4, 137708.78, 0.0008187495, 10.001125, 9.999747 
1.9251297e+3, 1.861183e+2, -1035387.06, -1222464.5, 76923.9, -0.024983356, -0.24655718, -1007819.3, 108196.62, 0.0000031359323, 10.001217, 9.998739 
1.925136e+3, 1.9611652e+2, -938809.2, -1097858.4, 54924.316, 0.23075937, -0.32757866, -921685.75, 96349.48, 0.0, 10.001094, 9.998973 
1.925139e+3, 2.0611617e+2, -808735.44, -899984.1, -29076.762, 0.26665398, -0.3004282, -800257.6, 119781.39, 0.0, 10.000946, 9.999735 
1.9251397e+3, 2.1611701e+2, -715894.25, -808385.9, -88679.55, 0.15001726, -0.22070728, -662126.4, 159904.14, 0.0, 10.000943, 9.999684 
1.9251406e+3, 2.2611625e+2, -721210.06, -934462.7, -91090.484, 0.08221572, -0.17704558, -687598.56, 36440.22, 0.0, 10.000978, 9.998138 
1.9251414e+3, 2.3611423e+2, -603084.5, -810523.5, -36542.465, 0.034413062, -0.21933551, -596835.44, 29224.793, 0.0, 10.001043, 9.998283 
1.9251437e+3, 2.461127e+2, -434289.94, -638694.94, 6000.1143, 0.08182158, -0.21746886, -434113.97, 93961.99, 0.0, 10.0013485, 9.99864 
1.9251469e+3, 2.561117e+2, -250753.56, -500104.3, -38949.785, 0.17818236, -0.21088374, -244811.03, 185274.78, 0.0, 10.001941, 9.998635 
1.9251497e+3, 2.661105e+2, -142758.38, -504410.03, -32816.49, 0.23643383, -0.13992424, -139804.72, 192295.2, 0.000000047147957, 10.002471, 9.997681 
1.9251522e+3, 2.7610895e+2, 37682.246, -356689.25, -54159.836, 0.23738497, -0.09820178, 44984.902, 279103.66, 0.0000043683804, 10.002998, 9.997763 
1.9251543e+3, 2.8610665e+2, 17741.287, -387416.16, -51349.984, 0.2244285, -0.06431781, 24148.115, 160290.95, 0.000052619915, 10.002508, 9.997112 
1.9251566e+3, 2.961042e+2, -15649.603, -344060.3, -60693.785, 0.24486871, -0.059797253, -4791.7295, 33375.535, 0.00024219825, 10.001548, 9.997203 
1.9251586e+3, 3.0610117e+2, 91154.49, -200266.48, -1251.1647, 0.1930185, -0.10632192, 91159.87, 91159.87, 0.0006583745, 10.001651, 9.997819 
1.9251606e+3, 3.1609955e+2, 264420.28, -11593.285, -7981.2554, 0.16603972, -0.10467139, 264650.88, 264650.88, 0.001285051, 10.002346, 9.998784 
1.9351123e+3, 1.261137e+2, -1909460.0, -1843894.8, -12529.821, -0.39433098, -0.07667209, -1841581.8, -137509.8, 0.1997211, 9.99875, 9.999701 
1.9351184e+3, 1.3611272e+2, -1417199.8, -1170992.5, 25539.4, -0.04543861, -0.6132988, -1168371.1, 437703.34, 0.13795441, 9.999821, 10.003601 
1.9351223e+3, 1.4612168e+2, -1536355.6, -1651040.9, 68584.14, 0.100749664, 0.17787069, -1504300.5, 3686.9395, 0.07814733, 10.000398, 9.998883 
1.935123e+3, 1.561194e+2, -1408009.8, -1480844.5, 25695.928, -0.07565081, 0.009861782, -1399857.0, 10158.275, 0.033007, 10.000365, 9.999392 
1.9351251e+3, 1.6611712e+2, -1213244.8, -1221122.6, -5120.2383, -0.09725069, -0.21424495, -1210723.6, 101310.125, 0.008786739, 10.000536, 10.000422 
1.9351287e+3, 1.7611639e+2, -1044321.5, -1105945.8, 35910.742, 0.03989958, -0.35065463, -1027815.9, 186214.95, 0.00094156526, 10.001101, 10.000261 
1.9351321e+3, 1.861159e+2, -1057923.8, -1268803.3, 67038.25, 0.061834082, -0.32112694, -1038416.8, 77617.38, 0.0000044945964, 10.001215, 9.99842 
1.9351348e+3, 1.9611499e+2, -977729.6, -1164744.6, 58704.563, 0.0010727032, -0.2838822, -960829.4, 57217.996, 0.0, 10.001035, 9.998542 
1.935138e+3, 2.06114e+2, -904769.5, -1091134.8, -36309.46, 0.04275923, -0.23122734, -897945.2, 22116.38, 0.0, 10.000904, 9.998446 
1.935141e+3, 2.1611327e+2, -801796.0, -962092.8, -79364.62, 0.15924959, -0.17743552, -769150.3, 52922.902, 0.0, 10.000835, 9.998684 
1.9351424e+3, 2.2611259e+2, -634560.5, -716268.3, -93429.61, 0.15301609, -0.1662936, -573443.1, 150634.84, 0.0, 10.000818, 9.99971 
1.9351429e+3, 2.3611183e+2, -532345.0, -627251.2, -24241.51, 0.06464685, -0.24171181, -526511.6, 99567.98, 0.0, 10.000898, 9.999603 
1.9351454e+3, 2.4611019e+2, -520569.44, -788293.2, 18158.219, 0.09952975, -0.25768757, -519343.5, 8752.278, 0.0, 10.001213, 9.997684 
1.9351493e+3, 2.5610808e+2, -331351.88, -634281.4, -7939.4385, 0.21647343, -0.2693466, -331143.9, 98976.37, 0.0, 10.001804, 9.997778 
1.9351518e+3, 2.6610646e+2, -180128.14, -539478.7, -20965.174, 0.17585942, -0.19240238, -178909.13, 153230.84, 0.00000001782158, 10.0022955, 9.997521 
1.9351532e+3, 2.7610502e+2, -2963.8298, -383703.97, -30285.13, 0.01495148, -0.12524274, -569.9181, 233587.81, 0.0000032439186, 10.002776, 9.997671 
1.9351557e+3, 2.8610253e+2, 1955.3684, -394368.13, -104395.0, 0.088744156, -0.107441515, 27772.18, 163955.2, 0.000042492127, 10.002375, 9.997139 
1.9351594e+3, 2.9609957e+2, -22943.975, -326867.3, -74814.586, 0.35348192, -0.16188335, -5525.6836, 32686.123, 0.00020128557, 10.001414, 9.997384 
1.9351618e+3, 3.0609667e+2, 133532.44, -68939.68, 16158.142, 0.31716874, -0.25967044, 134813.81, 134813.81, 0.00056117197, 10.001462, 9.998814 
1.9351621e+3, 3.1609687e+2, 195940.06, -43065.266, 7024.457, 0.04576891, -0.1803167, 196146.34, 196146.34, 0.0011168965, 10.001916, 9.998753 
1.9451132e+3, 1.2610792e+2, -1762366.6, -1897545.4, 75852.84, -0.23161793, -0.31502026, -1728358.9, -24236.709, 0.20999403, 10.0002985, 9.998582 
1.9451185e+3, 1.3611077e+2, -1434307.3, -1096115.1, -35862.83, 0.0038148898, -0.53291905, -1092353.9, 513736.22, 0.14565058, 9.999245, 10.0045185 
1.9451228e+3, 1.4611864e+2, -1702400.1, -1666301.1, -10792.085, 0.18401739, 0.06256647, -1663320.8, -155306.9, 0.083007626, 9.998961, 9.99948 
1.9451225e+3, 1.5611725e+2, -1525602.3, -1504682.1, 60031.563, -0.119642496, -0.056695558, -1454206.1, -44174.56, 0.03539992, 9.999406, 9.999694 
1.9451247e+3, 1.6611543e+2, -1328903.1, -1308509.0, 74205.34, -0.14107206, -0.23157582, -1243803.4, 68242.61, 0.009600047, 9.999861, 10.000153 
1.94513e+3, 1.7611462e+2, -1154473.4, -1178438.3, 39070.52, 0.094344, -0.35285497, -1125589.1, 88456.62, 0.0010784023, 10.000426, 10.000084 
1.9451335e+3, 1.8611415e+2, -1150850.9, -1297659.4, 54930.715, 0.13077141, -0.3234595, -1132573.3, -16523.527, 0.0000066792873, 10.000508, 9.998561 
1.9451356e+3, 1.9611342e+2, -1058051.3, -1191285.4, 69344.82, -0.0024990335, -0.28349236, -1028509.4, -10448.129, 0.0, 10.000438, 9.998645 
1.9451384e+3, 2.0611235e+2, -935199.2, -1128083.9, 64447.3, 0.013229236, -0.23084074, -915647.7, 4428.4893, 0.0, 10.000798, 9.99824 
1.9451419e+3, 2.1611123e+2, -713671.2, -942656.6, 83825.8, 0.13113117, -0.19421543, -686264.8, 135827.11, 0.0, 10.001532, 9.998485 
1.9451438e+3, 2.2611035e+2, -518186.16, -662096.4, 34160.39, 0.1716607, -0.19473031, -510489.1, 213609.06, 0.0, 10.001615, 9.999699 
1.9451448e+3, 2.3610955e+2, -467763.34, -601081.1, -20813.162, 0.15164243, -0.27125782, -464589.63, 161509.42, 0.0, 10.00135, 9.999574 
1.9451475e+3, 2.4610789e+2, -503563.75, -796651.6, 45284.98, 0.17453443, -0.27800557, -496726.28, 31388.98, 0.0, 10.001418, 9.997527 
1.945151e+3, 2.5610566e+2, -340927.78, -657259.0, 53273.816, 0.20833568, -0.28604418, -332196.84, 97944.984, 0.0, 10.001812, 9.997621 
1.9451533e+3, 2.6610386e+2, -281963.25, -580270.56, 69248.8, 0.14452945, -0.22237481, -266671.75, 65491.47, 0.000000002142629, 10.001546, 9.997607 
1.9451548e+3, 2.7610245e+2, -266603.84, -513206.28, 57224.6, 0.0034776465, -0.15815784, -253971.81, -19790.938, 0.0000029419668, 10.000927, 9.997699 
1.9451578e+3, 2.8610003e+2, -109159.93, -424281.53, 29923.516, 0.11173938, -0.14292465, -106343.6, 29861.658, 0.000037529444, 10.001511, 9.997353 
1.9451618e+3, 2.960973e+2, 221507.36, -178686.36, 35571.227, 0.3895995, -0.1930858, 224644.52, 262875.66, 0.00017698373, 10.0029545, 9.997663 
1.9451642e+3, 3.0609438e+2, 296998.03, 14816.739, 90236.56, 0.35392034, -0.3134777, 323386.38, 323386.38, 0.00049046375, 10.002584, 9.998834 
1.9451642e+3, 3.1609517e+2, 69172.94, -143581.98, -64129.37, 0.12220765, -0.15297426, 87007.96, 87007.96, 0.000970849, 10.001186, 9.998419 
1.9551171e+3, 1.2610629e+2, -1808518.3, -2036234.5, -29404.576, 0.05496789, -0.31779948, -1804782.6, -100646.53, 0.22070916, 10.000441, 9.99758 
1.9551179e+3, 1.3611047e+2, -1522522.0, -1293789.6, -52405.293, 0.011419942, -0.20306396, -1282354.6, 323742.06, 0.15369554, 9.999291, 10.002938 
1.9551198e+3, 1.4611301e+2, -1540801.3, -1358428.4, -3905.6582, -0.025676671, -0.18868454, -1358344.8, 149723.17, 0.08810495, 9.999016, 10.001664 
1.9551222e+3, 1.561123e+2, -1401262.8, -1253391.6, 81283.875, -0.103416026, -0.44950175, -1217447.5, 192619.97, 0.037922986, 9.999413, 10.001461 
1.9551252e+3, 1.6611247e+2, -1395326.4, -1459644.9, 88768.086, -0.11018376, -0.44545454, -1333071.6, -21007.678, 0.010466628, 9.999912, 9.999088 
1.9551298e+3, 1.7611328e+2, -1215305.6, -1310832.4, 62889.043, 0.0030214435, -0.30323926, -1184098.3, 29959.82, 0.0012294218, 10.000442, 9.99917 
1.955134e+3, 1.8611288e+2, -1105892.0, -1208019.4, 45311.688, 0.09305372, -0.25790468, -1088686.8, 27377.262, 0.000009908067, 10.000531, 9.999162 
1.9551376e+3, 1.9611174e+2, -1020834.6, -1103325.5, 74853.555, 0.14159839, -0.31688175, -976615.25, 41461.844, 0.0, 10.000395, 9.9992695 
1.9551401e+3, 2.0611104e+2, -893463.8, -1019200.7, 82911.19, 0.090321995, -0.29744822, -852280.8, 67804.05, 0.0, 10.000704, 9.999034 
1.955142e+3, 2.1611069e+2, -695332.6, -868877.4, 113665.34, -0.0053503686, -0.26415417, -639104.06, 182984.61, 0.0, 10.001386, 9.999058 
1.9551444e+3, 2.2610934e+2, -642717.56, -886110.0, 18362.607, 0.054995544, -0.2570818, -641340.0, 82761.11, 0.0, 10.001459, 9.998238 
1.955147e+3, 2.3610744e+2, -577240.9, -792607.1, -20259.076, 0.21697973, -0.30110925, -575351.75, 50766.52, 0.0, 10.001208, 9.998321 
1.9551493e+3, 2.4610579e+2, -491447.78, -737497.1, 52467.332, 0.20479734, -0.2771063, -480726.84, 47408.215, 0.0, 10.001268, 9.998005 
1.9551516e+3, 2.561043e+2, -329171.1, -596164.8, 73279.57, 0.08315154, -0.25989535, -310381.03, 119770.914, 0.0, 10.001667, 9.998102 
1.9551542e+3, 2.6610282e+2, -281870.44, -552616.7, 36322.836, 0.059774406, -0.2017639, -277082.1, 55087.08, 0.00000003752054, 10.001416, 9.997866 
1.9551569e+3, 2.7610123e+2, -265488.63, -483073.34, 53703.26, 0.10290152, -0.18112086, -252955.72, -18767.354, 0.0000033154865, 10.000812, 9.997959 
1.9551602e+3, 2.8609926e+2, -122916.5, -409331.38, 71062.38, 0.17368199, -0.14787754, -106254.516, 29954.078, 0.00003554113, 10.001324, 9.997545 
1.955164e+3, 2.9609752e+2, 205950.1, -159170.66, 91449.15, 0.2787277, -0.12553772, 227574.03, 265799.06, 0.00016173386, 10.002747, 9.9978895 
1.9551654e+3, 3.0609435e+2, 200242.06, -145172.45, 17612.172, 0.18849789, -0.22953291, 201137.77, 201137.77, 0.0004325806, 10.002388, 9.99784 
1.9551682e+3, 3.1609377e+2, -23443.506, -258201.77, -105350.38, 0.366065, -0.10130635, 16900.422, 16900.422, 0.00082958135, 10.000882, 9.9977665 
1.9651191e+3, 1.2610666e+2, -1643131.5, -1914393.9, 106399.42, 0.1659251, -0.2545534, -1606377.5, 97755.67, 0.23177752, 10.001671, 9.997817 
1.9651175e+3, 1.3610885e+2, -1559849.1, -1449633.1, 11432.433, 0.018791832, -0.19530667, -1448459.8, 157653.61, 0.1620495, 9.999731, 10.001457 
1.9651176e+3, 1.4610986e+2, -1536338.4, -1341692.5, 69843.805, -0.15596212, -0.2611725, -1319224.4, 188873.94, 0.093428105, 9.99901, 10.00179 
1.9651227e+3, 1.5610957e+2, -1285133.1, -1166653.0, 17980.357, -0.028508611, -0.5099033, -1163984.5, 246107.22, 0.04057487, 10.000121, 10.001723 
1.9651264e+3, 1.6611026e+2, -1332146.1, -1435717.8, 7065.487, -0.0020642083, -0.46577817, -1331666.4, -19582.5, 0.011385711, 10.000381, 9.999024 
1.9651294e+3, 1.7611142e+2, -1282756.5, -1348623.0, 38183.65, -0.05129557, -0.28091285, -1265265.6, -51188.645, 0.0013940044, 10.000012, 9.999117 
1.9651335e+3, 1.8611102e+2, -1186688.4, -1244301.8, 38073.86, 0.03758944, -0.23532613, -1167751.5, -51668.02, 0.000014255441, 9.9999485, 9.999204 
1.9651386e+3, 1.961097e+2, -1041047.6, -1105221.0, 16804.455, 0.206644, -0.31637958, -1036913.5, -18815.664, 0.0, 10.000212, 9.999349 
1.9651413e+3, 2.0610927e+2, -911802.2, -981485.94, 17816.148, 0.15945111, -0.2992895, -907511.4, 12590.518, 0.0, 10.000365, 9.999458 
1.9651426e+3, 2.1610937e+2, -801144.4, -883634.75, 5653.4463, -0.032705296, -0.26524135, -800758.75, 21340.926, 0.0, 10.000487, 9.999393 
1.9651455e+3, 2.2610778e+2, -734226.25, -983364.25, -47389.234, 0.03415354, -0.2702673, -725516.7, -1402.5155, 0.0, 10.001065, 9.997765 
1.9651487e+3, 2.3610505e+2, -483485.47, -798130.75, -32365.563, 0.2501399, -0.34207487, -480190.72, 145949.48, 0.0, 10.002051, 9.997889 
1.9651511e+3, 2.4610329e+2, -367646.1, -655974.75, 53137.332, 0.23033687, -0.32170898, -358164.94, 169993.23, 0.0, 10.00201, 9.998211 
1.9651528e+3, 2.5610223e+2, -367991.1, -596544.5, 34607.035, 0.0482398, -0.2768374, -362865.9, 67304.0, 0.0, 10.001308, 9.998278 
1.9651555e+3, 2.6610094e+2, -287166.9, -529396.94, 6759.842, 0.053654883, -0.2202274, -286978.4, 45206.254, 0.00000006167767, 10.0012865, 9.998081 
1.9651589e+3, 2.760993e+2, -109559.43, -383320.5, -1212.0795, 0.16377483, -0.22364733, -109554.06, 124649.07, 0.000003603985, 10.001798, 9.998158 
1.9651622e+3, 2.8609726e+2, -20669.057, -342195.56, 59519.188, 0.2250847, -0.2165381, -10004.898, 126219.22, 0.00003406456, 10.001953, 9.997699 
1.965166e+3, 2.960955e+2, 89538.12, -209780.4, 44266.723, 0.25751823, -0.20198523, 95947.555, 134188.56, 0.0001486936, 10.001914, 9.997951 
1.9651671e+3, 3.0609372e+2, 175465.17, -186460.73, -21787.04, 0.13186578, -0.15695633, 176771.98, 176771.98, 0.00038063264, 10.00234, 9.997584 
1.9651705e+3, 3.1609228e+2, 288291.03, -106687.49, -135989.78, 0.41559735, -0.08230615, 330583.4, 330583.4, 0.00069817615, 10.002974, 9.997826 
1.9751196e+3, 1.2611014e+2, -1566760.4, -1724240.5, 201313.81, -0.0151812, -0.04127708, -1429335.6, 274766.75, 0.24301729, 10.001729, 9.999269 
1.9751169e+3, 1.3610575e+2, -1658798.0, -1654771.4, -60880.18, -0.032570794, -0.5242255, -1595871.3, 10270.131, 0.17062773, 9.999772, 9.99984 
1.9751154e+3, 1.4610928e+2, -1652354.5, -1584257.9, 102152.15, -0.31153944, -0.1445408, -1510629.1, -2525.2224, 0.09895461, 9.999068, 9.999981 
1.9751236e+3, 1.5610893e+2, -1364413.5, -1337272.1, 61610.42, 0.029678011, -0.25203848, -1287755.5, 122349.77, 0.04335473, 10.00014, 10.000502 
1.975128e+3, 1.6610858e+2, -1260344.1, -1293130.4, -12057.676, 0.09664387, -0.3087285, -1256387.3, 55720.152, 0.012356995, 10.0004225, 9.999982 
1.9751288e+3, 1.7610896e+2, -1229031.1, -1232252.4, 33266.066, -0.13393576, -0.29217753, -1197336.8, 16766.404, 0.0015709848, 10.000001, 9.999919 
1.9751322e+3, 1.8610847e+2, -1219902.4, -1314452.3, 40882.63, -0.11262892, -0.26221776, -1204676.9, -88567.62, 0.000019593592, 9.999952, 9.998723 
1.975138e+3, 1.9610727e+2, -1078666.1, -1169605.5, 35448.598, 0.11773099, -0.2851253, -1066480.9, -48356.855, 0.0, 10.000157, 9.998931 
1.9751416e+3, 2.0610695e+2, -921559.44, -981460.4, 18288.107, 0.12756981, -0.24017526, -916417.4, 3710.269, 0.0, 10.000281, 9.999497 
1.9751434e+3, 2.1610732e+2, -815798.1, -883271.5, 20135.943, -0.02320887, -0.1802546, -810245.9, 11877.308, 0.0, 10.000357, 9.999457 
1.9751465e+3, 2.261056e+2, -729681.5, -937302.0, -18474.553, 0.017316556, -0.22480246, -728050.4, -3912.9436, 0.0, 10.000902, 9.998158 
1.9751506e+3, 2.3610242e+2, -479568.53, -757933.6, 7889.9297, 0.19257906, -0.387133, -479345.06, 146819.92, 0.0, 10.001913, 9.998229 
1.9751528e+3, 2.4610052e+2, -400934.4, -689717.5, 20198.04, 0.17348306, -0.3896218, -399528.56, 128655.17, 0.0, 10.001853, 9.998057 
1.975154e+3, 2.5609955e+2, -394710.63, -619536.2, 21780.139, 0.027633976, -0.32251415, -392620.13, 37575.414, 0.0, 10.001173, 9.998184 
1.9751567e+3, 2.6609823e+2, -307801.28, -530920.5, 16158.88, 0.022890251, -0.2676835, -306637.1, 25572.541, 0.000000055759365, 10.001109, 9.998154 
1.9751602e+3, 2.760967e+2, -125664.78, -379053.2, 26502.043, 0.11587787, -0.27341035, -122922.586, 111302.625, 0.0000036492006, 10.001647, 9.998253 
1.975164e+3, 2.8609428e+2, -40481.53, -351526.97, 45040.66, 0.1764902, -0.31089908, -34090.76, 102158.94, 0.00003270161, 10.001806, 9.997713 
1.9751678e+3, 2.9609132e+2, 72642.13, -211736.2, 63348.484, 0.22672664, -0.41695735, 86115.39, 124394.914, 0.00013867494, 10.001772, 9.998007 
1.9751689e+3, 3.0609253e+2, 129498.97, -200597.81, -14298.234, 0.042671002, -0.079273306, 130117.14, 130117.14, 0.0003432849, 10.002011, 9.997642 
1.9751734e+3, 3.1609052e+2, 284468.13, -17426.252, 5056.94, 0.3647115, -0.080535054, 284552.8, 284552.8, 0.0006047334, 10.002588, 9.998611 
1.98512e+3, 1.261105e+2, -1788480.5, -1709448.3, 179088.83, -0.018247848, 0.07148759, -1565567.8, 138532.97, 0.25424254, 9.999318, 10.000541 
1.9851178e+3, 1.3610412e+2, -1475600.9, -1595299.4, -144780.89, 0.006439319, -0.6020775, -1378786.6, 227369.0, 0.17932345, 10.001402, 9.999559 
1.985116e+3, 1.4610884e+2, -1417360.4, -1564543.6, 111941.125, -0.2502878, -0.038693063, -1356987.3, 151119.9, 0.104643695, 10.00119, 9.999126 
1.9851238e+3, 1.5610737e+2, -1422815.1, -1437637.9, 120596.99, 0.04335811, -0.18146272, -1309402.0, 100720.94, 0.046255346, 10.000063, 9.999844 
1.9851282e+3, 1.6610628e+2, -1358017.5, -1333532.8, 43148.33, 0.121616215, -0.28867516, -1300923.6, 11209.656, 0.013380272, 9.999709, 10.000048 
1.985129e+3, 1.7610653e+2, -1214990.6, -1215892.8, 14233.503, -0.10336649, -0.2915356, -1201201.0, 12928.945, 0.0017591557, 10.000041, 10.000018 
1.9851322e+3, 1.8610641e+2, -1162107.6, -1238149.8, 57251.59, -0.10961247, -0.25340396, -1131402.1, -15271.696, 0.0000256483, 10.000142, 9.999148 
1.9851378e+3, 1.9610563e+2, -1044867.56, -1121950.0, 99767.09, 0.07214227, -0.2758859, -976456.0, 41681.99, 0.0, 10.000239, 9.999221 
1.9851415e+3, 2.0610495e+2, -973174.9, -1073133.9, 91809.21, 0.0980709, -0.24692331, -918622.7, 1522.8739, 0.0, 10.000218, 9.9988985 
1.9851439e+3, 2.161045e+2, -867618.6, -962209.8, 35676.26, -0.006281817, -0.20799059, -855671.75, -33520.32, 0.0, 10.000239, 9.998971 
1.9851473e+3, 2.261029e+2, -729372.8, -873706.3, 27401.953, 0.026562992, -0.25029948, -724345.6, -181.1141, 0.0, 10.000628, 9.998727 
1.9851516e+3, 2.3610044e+2, -540461.06, -729068.6, 42635.28, 0.15348002, -0.3985141, -531271.06, 94912.43, 0.0, 10.001247, 9.998741 
1.9851543e+3, 2.4609882e+2, -489049.16, -731345.4, 35540.96, 0.16951928, -0.39315686, -483943.47, 44255.547, 0.0, 10.00127, 9.998038 
1.9851556e+3, 2.5609773e+2, -420199.44, -637496.9, 32480.686, 0.09388609, -0.33398825, -415448.25, 14764.423, 0.0, 10.00103, 9.998126 
1.9851583e+3, 2.6609617e+2, -282320.66, -536389.56, 71631.17, 0.07163383, -0.29455838, -263516.94, 68712.16, 0.00000004684117, 10.001355, 9.997999 
1.9851616e+3, 2.7609438e+2, -80756.15, -380255.6, 38718.332, 0.08061607, -0.3057124, -75831.734, 158414.47, 0.000003631824, 10.00203, 9.998069 
1.9851653e+3, 2.860919e+2, -17715.727, -338806.7, 38714.72, 0.1286631, -0.33852944, -13113.756, 123157.82, 0.000030883682, 10.001963, 9.997723 
1.985169e+3, 2.9608878e+2, 27164.084, -237862.22, 29631.053, 0.19608939, -0.4599219, 30436.553, 68740.695, 0.00012816787, 10.001491, 9.997958 
1.9851708e+3, 3.0608997e+2, 68128.62, -216932.05, -9358.572, 0.09445187, -0.12494661, 68435.53, 68435.53, 0.00031301912, 10.0015135, 9.9977665 
1.9851758e+3, 3.1608847e+2, 208521.47, 19445.646, 27939.111, 0.39572644, -0.08812137, 212563.53, 212563.53, 0.0005440033, 10.00172, 9.999286 
1.99512e+3, 1.2610695e+2, -1727496.5, -1595719.9, 188743.05, 0.015235695, 0.01583714, -1461695.1, 242440.52, 0.26535824, 9.999342, 10.001507 
1.9951196e+3, 1.3610382e+2, -1404607.0, -1452192.1, -98503.57, 0.025076369, -0.43944055, -1327063.3, 279094.28, 0.18805622, 10.001431, 10.000666 
1.9951195e+3, 1.4610833e+2, -1403974.3, -1548838.8, 59155.18, -0.060283326, 0.03890299, -1382887.6, 125222.664, 0.11045076, 10.001248, 9.999192 
1.995123e+3, 1.5610479e+2, -1432244.3, -1459009.1, 89440.4, -0.059071194, -0.29771385, -1355190.6, 54954.79, 0.04926506, 10.000067, 9.999688 
1.995127e+3, 1.6610323e+2, -1405219.8, -1437524.5, 45772.004, -0.008400835, -0.40513673, -1372833.8, -60670.934, 0.014456319, 9.99973, 9.999325 
1.99513e+3, 1.761041e+2, -1250979.4, -1289107.1, 29028.385, -0.029310267, -0.27613994, -1235314.6, -21157.215, 0.0019582892, 10.00003, 9.99952 
1.9951333e+3, 1.8610471e+2, -1073634.0, -1056387.5, 55200.94, -0.0378556, -0.2134833, -1009140.3, 107007.76, 0.000032105352, 10.0001545, 10.00039 
1.9951375e+3, 1.9610465e+2, -982607.94, -979645.75, 107969.95, 0.0062329057, -0.28498706, -873146.75, 144994.89, 0.0, 10.000194, 10.000216 
1.9951409e+3, 2.0610313e+2, -1067766.1, -1255134.8, 82559.66, -0.0028545575, -0.3179569, -1036579.1, -116422.086, 0.0, 10.000152, 9.997684 
1.9951437e+3, 2.1610086e+2, -951568.56, -1115365.0, 47418.348, -0.053574942, -0.34241796, -938831.6, -116646.63, 0.0, 10.000147, 9.997965 
1.9951476e+3, 2.2609967e+2, -699442.06, -781411.5, 48623.31, -0.028040214, -0.33881608, -676834.56, 47360.94, 0.0, 10.000494, 9.999425 
1.9951521e+3, 2.360991e+2, -517664.5, -648679.1, 73456.92, 0.060030513, -0.3674371, -484748.6, 141446.84, 0.0, 10.001101, 9.999364 
1.9951552e+3, 2.4609801e+2, -516198.97, -744946.2, 16521.158, 0.1199118, -0.3380455, -515011.88, 13194.156, 0.0, 10.001082, 9.998038 
1.9951576e+3, 2.560967e+2, -438262.97, -647153.2, 33065.19, 0.17110917, -0.3081474, -433154.03, -2931.245, 0.0, 10.000912, 9.998115 
1.9951603e+3, 2.6609465e+2, -336201.38, -612493.0, 88956.54, 0.114365436, -0.2903413, -310037.94, 22205.922, 0.000000042002604, 10.001205, 9.997549 
1.9951628e+3, 2.760922e+2, -133827.9, -451006.63, 70172.695, -0.019206176, -0.32162187, -118996.41, 115271.04, 0.0000035134383, 10.001873, 9.997654 
1.995166e+3, 2.8608993e+2, -59292.348, -382463.6, 9253.76, -0.032177813, -0.30394, -59027.59, 77263.94, 0.00002820436, 10.001779, 9.997512 
1.9951694e+3, 2.960876e+2, -13284.846, -285220.72, 29611.193, 0.06141789, -0.33620778, -10097.823, 28219.73, 0.00011358975, 10.001328, 9.99771 
1.9951734e+3, 3.06086e+2, 17090.91, -243386.11, -15288.577, 0.15647143, -0.264965, 17985.195, 17985.195, 0.00027751442, 10.00119, 9.99773 
1.9951762e+3, 3.1608647e+2, 168387.23, 26127.254, 134344.78, 0.23267989, -0.054262083, 249270.39, 249270.39, 0.0004885508, 10.001367, 9.999483 
2.0051193e+3, 1.2610282e+2, -1730047.4, -1600874.1, 123198.83, 0.007460456, -0.10199537, -1526358.6, 177812.6, 0.27641812, 9.999252, 10.001457 
2.0051207e+3, 1.3610116e+2, -1585278.0, -1507034.4, -119665.69, 0.06609693, -0.4387481, -1420257.9, 185924.63, 0.1968332, 9.9997835, 10.001042 
2.0051214e+3, 1.4610614e+2, -1545054.4, -1603866.9, -35546.996, 0.087774314, 0.04979848, -1528326.9, -20194.42, 0.11636926, 10.000113, 9.999342 
2.005123e+3, 1.5610234e+2, -1522502.5, -1511650.8, -18111.188, -0.026058896, -0.30869594, -1498170.1, -87998.97, 0.05238356, 9.999471, 9.99961 
2.0051263e+3, 1.6610093e+2, -1477191.6, -1451056.4, 30896.54, -0.019396646, -0.40348074, -1430577.6, -118390.766, 0.015589432, 9.999152, 9.999512 
2.00513e+3, 1.7610244e+2, -1325374.1, -1305137.9, 66818.61, 0.001865513, -0.23163539, -1247675.6, -33501.16, 0.0021699998, 9.999437, 9.999695 
2.005134e+3, 1.8610302e+2, -1115075.4, -1072896.4, 79633.26, 0.026176454, -0.18439946, -1011607.3, 104557.39, 0.00003871999, 9.999864, 10.000413 
2.0051382e+3, 1.961024e+2, -935315.06, -958138.44, 29853.9, 0.06033442, -0.31080303, -914766.1, 103396.04, 0.0, 10.000533, 10.000196 
2.0051417e+3, 2.0610067e+2, -959515.7, -1203075.9, 24410.691, 0.031797696, -0.3632171, -957093.2, -36914.74, 0.0, 10.0008955, 9.997682 
2.0051444e+3, 2.1609844e+2, -809576.44, -1047089.4, 61592.938, -0.05163589, -0.3846046, -794554.0, 27651.115, 0.0, 10.001117, 9.997969 
2.0051482e+3, 2.2609757e+2, -668530.1, -771370.7, 67744.64, -0.026811512, -0.34753874, -634901.1, 89312.81, 0.0, 10.000741, 9.999373 
2.0051526e+3, 2.360974e+2, -674326.1, -727786.56, 22378.348, 0.06247162, -0.32602608, -666195.25, -39982.598, 0.0, 10.000059, 9.999318 
2.0051561e+3, 2.4609645e+2, -582219.5, -779041.7, -19173.227, 0.1278296, -0.28108278, -580369.1, -52146.348, 0.0, 10.000609, 9.998045 
2.005159e+3, 2.56095e+2, -294277.72, -583799.75, -19596.055, 0.16868623, -0.25897643, -292957.4, 137282.78, 0.0, 10.001903, 9.998082 
2.0051621e+3, 2.6609278e+2, -201491.14, -561571.4, 50566.637, 0.13069928, -0.25400084, -194524.77, 137738.69, 0.000000029896977, 10.002198, 9.997411 
2.0051652e+3, 2.7608988e+2, -130383.0, -465111.72, 31798.93, 0.030916277, -0.3172141, -127388.914, 106903.08, 0.0000031274246, 10.001965, 9.997507 
2.005168e+3, 2.8608805e+2, -47388.03, -369159.84, -7533.316, 0.020277772, -0.25123888, -47211.758, 89100.414, 0.000025154262, 10.001824, 9.997583 
2.0051707e+3, 2.9608694e+2, 20878.299, -271701.9, -2495.9648, 0.059970193, -0.1587218, 20899.59, 59226.473, 0.00009776422, 10.001578, 9.997683 
2.0051761e+3, 3.0608317e+2, 133775.0, -192679.77, 18321.037, 0.281126, -0.30057508, 134799.97, 134799.97, 0.00024033496, 10.00199, 9.997715 
2.0051779e+3, 3.160829e+2, 384386.66, 125871.336, 92024.34, 0.19447653, -0.15738408, 413798.53, 413798.53, 0.00043298, 10.002829, 9.999495 
2.0151165e+3, 1.260977e+2, -1793589.4, -1725876.8, -128849.32, -0.24872136, -0.32881838, -1626510.0, 77702.08, 0.28771394, 9.999286, 10.000389 
2.0151204e+3, 1.3609622e+2, -1600959.3, -1536970.0, -83631.77, 0.051449567, -0.5909072, -1479421.8, 126807.67, 0.20582092, 9.9997635, 10.000796 
2.015122e+3, 1.4610226e+2, -1528581.5, -1573255.5, -58971.258, 0.11102757, -0.007831395, -1487858.6, 20315.256, 0.12247417, 10.000133, 9.999553 
2.0151237e+3, 1.5609996e+2, -1515728.5, -1498256.1, -34125.17, 0.061668932, -0.2172712, -1471766.6, -61566.402, 0.055639356, 9.999473, 9.999699 
2.0151259e+3, 1.6609949e+2, -1397689.9, -1298782.3, 33749.164, -0.0073102056, -0.28295395, -1288363.8, 23841.094, 0.016791714, 9.999205, 10.000536 
2.0151289e+3, 1.7610146e+2, -1269773.6, -1188122.1, 85756.63, -0.065798245, -0.16155598, -1133969.3, 80213.45, 0.0023981123, 9.9994335, 10.000501 
2.0151338e+3, 1.8610121e+2, -1190155.3, -1239043.4, 94548.016, 0.0037014124, -0.16940504, -1116942.5, -761.37317, 0.000045425786, 9.9999, 9.99926 
2.01514e+3, 1.9609897e+2, -1004383.9, -1095733.3, 58804.164, 0.15271422, -0.3428867, -975599.8, 42598.86, 0.0, 10.000505, 9.999269 
2.0151435e+3, 2.060977e+2, -890127.4, -1039437.2, 26346.525, 0.10156998, -0.37274894, -885614.75, 34593.867, 0.0, 10.000815, 9.998842 
2.0151456e+3, 2.1609722e+2, -768745.4, -926047.5, 72759.35, -0.066706724, -0.32809138, -740252.1, 81960.26, 0.0, 10.000971, 9.998868 
2.0151488e+3, 2.2609635e+2, -749905.6, -907489.5, 33070.145, -0.05462852, -0.28040922, -743246.94, -19024.668, 0.0, 10.000587, 9.998517 
2.015153e+3, 2.3609518e+2, -734345.6, -841182.5, 12388.432, 0.08587281, -0.27715182, -732927.94, -106691.28, 0.0, 9.999993, 9.99858 
2.0151564e+3, 2.4609396e+2, -605134.0, -787585.75, 25964.555, 0.09374668, -0.22729942, -601510.94, -73260.12, 0.0, 10.000453, 9.998056 
2.0151594e+3, 2.5609273e+2, -319725.2, -593678.7, 30988.293, 0.01795967, -0.18477163, -316263.7, 114001.234, 0.0, 10.001736, 9.998087 
2.0151635e+3, 2.6609036e+2, -222686.34, -566403.7, 34129.598, 0.03419374, -0.19379932, -219330.2, 112959.19, 0.0000000091701935, 10.002026, 9.997465 
2.0151685e+3, 2.7608728e+2, -144088.73, -458229.97, 36521.31, 0.1386024, -0.28524944, -139898.75, 94421.766, 0.0000023642951, 10.001814, 9.997628 
2.0151713e+3, 2.860863e+2, -66949.695, -361998.34, -28388.11, 0.15160453, -0.1505191, -64243.16, 72089.766, 0.000021595964, 10.001627, 9.997721 
2.0151728e+3, 2.960865e+2, 10761.097, -272999.4, 1686.9451, 0.088136666, 0.054726522, 10771.125, 49106.668, 0.000083873885, 10.00148, 9.997725 
2.0151787e+3, 3.060809e+2, 85385.38, -231997.03, 41526.29, 0.3099988, -0.26000798, 90728.72, 90728.72, 0.00020822513, 10.001752, 9.997546 
2.015179e+3, 3.160799e+2, 314165.94, 106728.28, 45764.613, -0.008491115, -0.18423305, 323813.75, 323813.75, 0.00038286584, 10.002336, 9.999575 
2.0251152e+3, 1.260952e+2, -1910303.6, -1883536.4, -85911.83, -0.26670316, -0.43525124, -1809971.9, -105742.56, 0.29983783, 9.998915, 9.999344 
2.0251219e+3, 1.36095e+2, -1630025.1, -1543377.9, 54581.414, 0.24174134, -0.5560631, -1517016.0, 89222.28, 0.21537028, 9.999516, 10.000844 
2.0251215e+3, 1.4609984e+2, -1528299.3, -1525090.9, 86864.875, 0.04862872, -0.126827, -1439815.4, 68380.02, 0.12892798, 9.999938, 10.000008 
2.0251238e+3, 1.5609919e+2, -1428562.9, -1440238.5, 112674.27, 0.105318554, -0.20027748, -1321575.3, 88629.84, 0.05909158, 10.000015, 9.999854 
2.0251264e+3, 1.6609858e+2, -1272961.6, -1292454.1, 158892.67, 0.06860587, -0.2539292, -1123516.5, 188693.13, 0.018083457, 10.000308, 10.000051 
2.0251292e+3, 1.7609908e+2, -1094966.8, -1164025.4, 93146.16, -0.046320803, -0.23368952, -1030155.8, 184045.03, 0.0026487417, 10.000911, 9.999948 
2.0251344e+3, 1.8609805e+2, -1057291.8, -1270528.5, 83551.375, 0.00702148, -0.24561954, -1028454.2, 87755.01, 0.000052423693, 10.001219, 9.998405 
2.025141e+3, 1.9609565e+2, -909234.9, -1129539.6, 54715.023, 0.15626314, -0.3539905, -896394.2, 121838.42, 0.0, 10.001487, 9.998565 
2.0251448e+3, 2.0609453e+2, -794273.9, -932437.5, -1657.5059, 0.14365812, -0.36920863, -794254.0, 125986.766, 0.0, 10.001215, 9.999379 
2.0251471e+3, 2.1609426e+2, -776154.3, -886533.2, -12251.69, 0.011176403, -0.3566427, -774810.75, 47428.188, 0.0, 10.000728, 9.999253 
2.0251499e+3, 2.2609319e+2, -737506.6, -959398.4, -29354.645, -0.011209807, -0.31695578, -733688.9, -9437.619, 0.0, 10.000931, 9.997987 
2.0251533e+3, 2.3609164e+2, -528053.56, -787463.44, -40597.973, 0.0334206, -0.2983664, -521848.38, 104424.0, 0.0, 10.001618, 9.998157 
2.0251569e+3, 2.4609044e+2, -439454.5, -670668.7, 13005.874, 0.035148352, -0.24775085, -438725.22, 89560.91, 0.0, 10.00144, 9.998379 
2.0251603e+3, 2.560893e+2, -440398.66, -619648.1, 27879.55, -0.007537159, -0.22573335, -436162.53, -5865.9688, 0.0, 10.00077, 9.998371 
2.0251651e+3, 2.660871e+2, -372471.9, -615296.3, 58965.2, 0.061992027, -0.2427741, -358910.72, -26592.26, 0.000000001074916, 10.000884, 9.9976845 
2.0251708e+3, 2.7608433e+2, -189686.28, -462480.66, 50338.207, 0.21052884, -0.32199067, -180693.89, 53653.066, 0.0000018159459, 10.00142, 9.997791 
2.0251739e+3, 2.860832e+2, -13076.075, -368758.13, -5462.2666, 0.20901883, -0.19656074, -12992.21, 123369.64, 0.000018189116, 10.002117, 9.997445 
2.0251746e+3, 2.960829e+2, 213299.38, -185408.28, -29661.309, 0.06299837, -0.007856356, 215493.92, 253863.45, 0.000072171526, 10.002928, 9.997618 
2.0251812e+3, 3.060783e+2, 346844.97, -124786.28, 45456.66, 0.3182011, -0.22087984, 351186.22, 351186.22, 0.00017992141, 10.003569, 9.997435 
2.0251825e+3, 3.160766e+2, 465192.97, 125082.37, -142466.02, 0.071855895, -0.18607943, 516983.03, 516983.03, 0.00033497292, 10.003575, 9.999112 
2.035115e+3, 1.2609513e+2, -1987431.6, -2073522.0, 5778.3394, -0.24388167, -0.46818078, -1987045.6, -282820.16, 0.3135409, 9.999025, 9.997994 
2.0351246e+3, 1.3609734e+2, -1611990.6, -1512433.8, 87076.22, 0.54539317, -0.34294125, -1461911.8, 144298.48, 0.22593072, 9.9995365, 10.001128 
2.0351191e+3, 1.4609864e+2, -1474645.3, -1438028.6, 73804.3, -0.2118907, -0.31638733, -1380295.6, 127904.07, 0.13594478, 10.000028, 10.000614 
2.0351233e+3, 1.5609981e+2, -1411339.4, -1406407.0, 115763.836, 0.040153183, -0.25617692, -1293083.0, 117104.86, 0.06282382, 10.000029, 10.000087 
2.0351274e+3, 1.6609824e+2, -1398914.4, -1568800.0, 169632.72, 0.117491305, -0.31073418, -1294145.4, 18056.674, 0.019494196, 10.00036, 9.99812 
2.0351306e+3, 1.7609534e+2, -1215114.0, -1418802.4, 119864.98, -0.017867588, -0.4419365, -1159669.1, 54559.77, 0.0029308582, 10.000923, 9.998195 
2.0351352e+3, 1.8609357e+2, -1096078.1, -1356010.5, 90865.55, -0.057660643, -0.41880086, -1067463.9, 48784.754, 0.00006041413, 10.001242, 9.997811 
2.0351411e+3, 1.9609238e+2, -953985.4, -1208562.0, 69731.49, 0.009700572, -0.344442, -936136.56, 82128.375, 0.0, 10.0014305, 9.998052 
2.0351455e+3, 2.06091e+2, -804591.56, -941294.8, -27650.975, 0.06062709, -0.35890028, -799210.44, 121066.02, 0.0, 10.001161, 9.999345 
2.0351487e+3, 2.1608959e+2, -792469.8, -896767.56, -17702.727, 0.10238738, -0.46029314, -789547.0, 32737.4, 0.0, 10.000624, 9.999235 
2.0351513e+3, 2.260882e+2, -778422.75, -1001471.75, -6268.7207, 0.007200503, -0.4414694, -778246.75, -53947.137, 0.0, 10.000752, 9.997782 
2.035153e+3, 2.360868e+2, -562520.5, -824216.2, -7280.7617, -0.15762456, -0.384405, -562318.06, 64001.773, 0.0, 10.001475, 9.997972 
2.0351568e+3, 2.4608567e+2, -420869.44, -597538.8, -17153.178, -0.1362049, -0.34814015, -419219.4, 109111.42, 0.0, 10.001288, 9.998957 
2.0351616e+3, 2.5608468e+2, -409406.34, -541484.6, 16404.627, 0.013370339, -0.37205532, -407399.3, 22936.602, 0.0, 10.0007, 9.998948 
2.0351666e+3, 2.66083e+2, -376539.78, -583544.5, 73437.64, 0.09606387, -0.38257626, -353133.4, -20782.037, 0.000000023664393, 10.000727, 9.997972 
2.0351718e+3, 2.7608076e+2, -198447.39, -450626.47, 82489.81, 0.16005093, -0.4392711, -173861.31, 60513.133, 0.0000019634658, 10.001292, 9.997933 
2.0351751e+3, 2.8607842e+2, -92266.59, -483612.5, 13096.682, 0.101319924, -0.39949676, -91828.8, 44572.973, 0.000016146072, 10.001912, 9.996752 
2.0351765e+3, 2.960763e+2, 166334.45, -253237.42, 16740.445, -0.08359672, -0.33469388, 167001.31, 205430.3, 0.00006227005, 10.002785, 9.99723 
2.0351832e+3, 3.060753e+2, 266523.06, -186318.11, 43265.664, 0.12982373, -0.16318274, 270619.72, 270619.72, 0.0001542965, 10.003156, 9.997189 
2.0351894e+3, 3.1607026e+2, 341981.94, -31910.79, -192266.95, 0.36424363, -0.4308835, 423206.28, 423206.28, 0.0002896245, 10.003185, 9.998202 
2.0451158e+3, 1.2609343e+2, -1630009.8, -1821177.4, 43472.387, -0.18241404, -0.54040444, -1620588.3, 83651.96, 0.3294151, 10.001473, 9.998565 
2.0451246e+3, 1.360964e+2, -1726029.6, -1607135.4, -51371.17, 0.61761075, -0.29940712, -1588014.3, 18200.94, 0.23787552, 9.998944, 10.000591 
2.045117e+3, 1.4609568e+2, -1742671.9, -1646304.4, -71419.51, -0.34410784, -0.40117955, -1608334.6, -100109.76, 0.14372098, 9.998519, 9.999825 
2.0451236e+3, 1.560967e+2, -1330631.0, -1434518.9, -131490.67, 0.019433422, -0.28648257, -1241196.1, 169020.16, 0.06692591, 10.000909, 9.99947 
2.0451291e+3, 1.6609505e+2, -1239155.5, -1498177.4, -66421.01, 0.18962103, -0.3187579, -1223116.4, 89115.5, 0.021061258, 10.001506, 9.998046 
2.0451324e+3, 1.7609169e+2, -1230228.0, -1430432.9, -4770.88, 0.067818515, -0.48807773, -1230114.4, -15851.6, 0.003256253, 10.000844, 9.998146 
2.0451365e+3, 1.8609013e+2, -1148531.4, -1356556.0, 78350.57, -0.023866037, -0.45293373, -1122323.1, -6042.6826, 0.00007088071, 10.00078, 9.998031 
2.0451419e+3, 1.960897e+2, -969970.4, -1194683.1, 99822.32, -0.049291823, -0.32383326, -932032.2, 86257.664, 0.0, 10.001237, 9.998237 
2.0451464e+3, 2.060885e+2, -815993.2, -960484.75, 9724.781, 0.03708554, -0.32237655, -815341.6, 104959.38, 0.0, 10.001136, 9.999233 
2.0451503e+3, 2.1608688e+2, -770137.3, -886405.8, 2491.2893, 0.17887545, -0.43394297, -770083.94, 52228.46, 0.0, 10.000792, 9.999222 
2.0451528e+3, 2.2608562e+2, -730944.06, -954741.0, 78875.17, 0.08387897, -0.41699505, -705939.06, 18386.566, 0.0, 10.000962, 9.998007 
2.0451544e+3, 2.3608437e+2, -549394.8, -800627.25, 94120.08, -0.17127377, -0.36926705, -518045.97, 108296.07, 0.0, 10.001483, 9.998128 
2.0451581e+3, 2.4608271e+2, -361839.53, -620341.5, 46622.707, -0.14841694, -0.36843008, -353687.84, 174669.64, 0.0, 10.001909, 9.998501 
2.0451632e+3, 2.5608087e+2, -211025.73, -484038.16, -8935.384, 0.04287957, -0.4322175, -210733.6, 219638.03, 0.0, 10.002236, 9.998595 
2.0451683e+3, 2.660794e+2, -154852.53, -447862.44, 38298.12, 0.12434396, -0.41696882, -149929.45, 182455.36, 0.00000011200642, 10.002114, 9.9982395 
2.0451732e+3, 2.7607813e+2, -120311.58, -385682.75, 30073.533, 0.15779592, -0.40287375, -116946.14, 117452.44, 0.000002326167, 10.001718, 9.998172 
2.0451775e+3, 2.8607565e+2, -23997.715, -450292.6, 44498.3, 0.13634354, -0.38592073, -19402.348, 117023.836, 0.000014696717, 10.002368, 9.996766 
2.0451805e+3, 2.960727e+2, 277499.75, -194211.66, 58480.367, 0.012761945, -0.40058932, 284641.72, 323102.16, 0.00005375532, 10.003532, 9.997274 
2.0451854e+3, 3.0607182e+2, 360449.4, -130001.46, 98222.73, 0.030174933, -0.23214814, 379389.13, 379389.13, 0.00013235425, 10.003744, 9.997291 
2.0451935e+3, 3.160675e+2, 449203.53, 40337.746, -190600.39, 0.4206343, -0.42284518, 524272.56, 524272.56, 0.0002522823, 10.003796, 9.998413 
2.0551182e+3, 1.2609148e+2, -1504301.9, -1514083.1, 113981.26, -0.13608311, -0.5266103, -1395106.4, 309153.9, 0.3476065, 10.0014715, 10.001345 
2.0551214e+3, 1.3609247e+2, -1814361.1, -1795387.6, -155884.88, 0.37531978, -0.40981945, -1648701.1, -42450.88, 0.2513395, 9.998985, 9.999244 
2.0551148e+3, 1.4609098e+2, -1885772.8, -1951338.9, 833.10284, -0.4621076, -0.38618666, -1885762.1, -377492.38, 0.15236652, 9.99855, 9.997719 
2.055124e+3, 1.5609005e+2, -1413887.6, -1621301.4, -43720.95, -0.05322713, -0.29378256, -1405048.4, 5239.109, 0.071473114, 10.000913, 9.99816 
2.0551309e+3, 1.6608919e+2, -1126603.9, -1272468.5, -92408.58, 0.19100022, -0.2803767, -1081814.3, 230482.36, 0.022826005, 10.00155, 9.999588 
2.055134e+3, 1.7608806e+2, -1130794.0, -1223875.5, -20223.688, 0.14617322, -0.3745401, -1126589.9, 87712.93, 0.0036400491, 10.00084, 9.999572 
2.0551379e+3, 1.8608752e+2, -1071513.0, -1204170.9, 87974.76, 0.01131088, -0.35598087, -1027664.44, 88642.73, 0.00008593674, 10.000804, 9.999066 
2.0551425e+3, 1.9608746e+2, -909658.5, -1066261.3, 118820.05, -0.10664458, -0.29418674, -845659.8, 172649.52, 0.0, 10.001215, 9.999133 
2.0551473e+3, 2.0608684e+2, -838097.44, -995691.4, -11199.237, -0.02361952, -0.26341283, -837305.56, 83010.56, 0.0, 10.001089, 9.999012 
2.0551512e+3, 2.1608585e+2, -794301.25, -914595.9, -1399.6644, 0.17438854, -0.2915885, -794284.94, 28041.01, 0.0, 10.000691, 9.999078 
2.0551543e+3, 2.2608493e+2, -708340.75, -868654.9, 90529.34, 0.11664132, -0.27013242, -667581.6, 56752.48, 0.0, 10.000803, 9.998671 
2.0551567e+3, 2.3608398e+2, -536755.0, -742280.5, 118212.305, -0.09427151, -0.25721326, -482883.34, 143458.53, 0.0, 10.001349, 9.998592 
2.0551607e+3, 2.4608131e+2, -492893.88, -840624.7, 50042.152, -0.10734143, -0.30246907, -485835.56, 42532.52, 0.0, 10.0016985, 9.997086 
2.0551653e+3, 2.5607753e+2, -322541.78, -680061.2, 9062.004, 0.008099272, -0.41995648, -322312.22, 108093.92, 0.0, 10.002092, 9.997315 
2.05517e+3, 2.660761e+2, -162665.81, -425428.6, 15725.881, 0.063476324, -0.36008158, -161727.98, 170693.34, 0.00000017468948, 10.001948, 9.998473 
2.0551749e+3, 2.7607614e+2, -112931.37, -353521.66, 34013.39, 0.113676414, -0.23193343, -108215.19, 126206.555, 0.0000023499456, 10.001634, 9.998437 
2.0551804e+3, 2.8607455e+2, -29970.438, -399594.75, 79278.61, 0.18288973, -0.16705346, -13684.034, 122754.54, 0.000012296112, 10.002118, 9.997226 
2.0551863e+3, 2.9607168e+2, 279641.66, -155498.06, 108101.63, 0.22493258, -0.22892906, 305017.5, 343485.4, 0.000044415407, 10.003389, 9.997605 
2.055188e+3, 3.0606666e+2, 318618.72, -128550.5, 65627.57, -0.12739447, -0.49592775, 328051.4, 328051.4, 0.00011223961, 10.003391, 9.997459 
2.0551944e+3, 3.1606767e+2, 438480.6, 128198.945, -82767.59, 0.08610205, -0.19185385, 459178.2, 459178.2, 0.00022222151, 10.003326, 9.999244 
2.0651177e+3, 1.2608793e+2, -1970443.6, -1554147.0, 89317.836, -0.08363435, -0.4516566, -1535792.8, 168504.17, 0.36771804, 9.996593, 10.003357 
2.0651203e+3, 1.3608794e+2, -1620610.1, -1755237.5, -246964.83, 0.306834, -0.41240257, -1431949.6, 174344.7, 0.26616043, 10.000792, 9.998805 
2.0651162e+3, 1.4608636e+2, -1413682.0, -1710729.5, 29428.652, -0.31968865, -0.37626618, -1410794.5, 97518.78, 0.1618756, 10.001896, 9.997757 
2.065126e+3, 1.5608428e+2, -1425805.3, -1607772.0, 104339.02, 0.063750744, -0.41562, -1378352.4, 31988.748, 0.07651462, 10.00077, 9.998322 
2.0651321e+3, 1.66084e+2, -1272990.0, -1328968.6, 35404.05, 0.22761483, -0.36083162, -1255847.9, 56497.36, 0.024829434, 10.000451, 9.999724 
2.0651343e+3, 1.7608446e+2, -1120775.5, -1201137.3, 763.6834, 0.084195085, -0.31027648, -1120768.3, 93569.84, 0.0041003036, 10.000831, 9.99973 
2.0651384e+3, 1.8608403e+2, -1061867.5, -1162397.3, 64365.594, -0.0034395952, -0.3074425, -1030465.44, 85875.84, 0.000108260756, 10.000726, 9.999382 
2.0651445e+3, 1.9608316e+2, -997784.4, -1074096.4, 28156.52, -0.006511472, -0.35849407, -988520.25, 29829.514, 0.0, 10.000477, 9.999426 
2.065149e+3, 2.0608275e+2, -907957.6, -1063391.1, -111958.74, 0.05776085, -0.30348086, -849385.5, 70970.266, 0.0, 10.000764, 9.9987 
2.065152e+3, 2.1608254e+2, -700524.5, -901080.5, -122606.36, 0.13499223, -0.21952243, -642410.6, 179950.5, 0.0, 10.001479, 9.998789 
2.0651552e+3, 2.2608149e+2, -561857.06, -787485.06, -38854.594, 0.10193941, -0.20223482, -555353.5, 169017.0, 0.0, 10.001757, 9.998776 
2.0651594e+3, 2.3607989e+2, -472597.13, -698152.44, -66533.07, 0.007746967, -0.26483372, -454434.16, 171948.39, 0.0, 10.001733, 9.998715 
2.0651636e+3, 2.4607727e+2, -457129.72, -802052.5, -66643.65, 0.00961966, -0.32012975, -444701.13, 83705.69, 0.0, 10.001846, 9.997282 
2.0651677e+3, 2.560739e+2, -318536.25, -660869.44, -10226.01, 0.05148005, -0.41498038, -318231.06, 112208.914, 0.0, 10.002046, 9.997468 
2.0651723e+3, 2.660722e+2, -117922.89, -446269.2, 26979.11, 0.087533854, -0.36832228, -115720.875, 216736.64, 0.00000012472299, 10.002438, 9.998093 
2.0651773e+3, 2.760716e+2, 60040.434, -301319.88, -14858.588, 0.13534568, -0.26866218, 60650.367, 295115.1, 0.0000018192295, 10.002966, 9.998147 
2.0651835e+3, 2.8607023e+2, 174631.06, -267712.06, 48012.97, 0.21832675, -0.18531497, 179782.52, 316261.6, 0.000008845643, 10.003373, 9.99753 
2.0651902e+3, 2.9606798e+2, 312477.56, -120316.734, 22255.605, 0.2626315, -0.20768893, 313619.0, 352120.9, 0.000033872344, 10.003546, 9.997766 
2.0651911e+3, 3.0606243e+2, 408760.28, -68563.21, -19263.107, -0.15492517, -0.53791904, 409536.4, 409536.4, 0.00009224371, 10.00389, 9.997663 
2.0651984e+3, 3.1606376e+2, 604200.94, 204885.56, -137090.58, 0.12207736, -0.22622344, 646735.4, 646735.4, 0.00019318692, 10.004445, 9.999257 
2.0751128e+3, 1.2608208e+2, -1883448.9, -1458818.1, 50435.67, -0.28657103, -0.3866038, -1452909.8, 251447.47, 0.38886976, 9.996647, 10.004433 
2.0751214e+3, 1.360826e+2, -1563673.5, -1654015.8, -109487.34, 0.27236468, -0.3288126, -1490405.1, 115944.37, 0.28190908, 10.000821, 9.999423 
2.0751216e+3, 1.4608184e+2, -1292106.1, -1431594.9, -17634.229, -0.018497482, -0.36234286, -1289911.3, 218443.77, 0.17213808, 10.001939, 9.999766 
2.0751292e+3, 1.560792e+2, -1320785.6, -1387550.6, 67538.36, 0.2824408, -0.6415685, -1278830.1, 131548.73, 0.08207624, 10.000797, 9.99984 
2.0751326e+3, 1.6607925e+2, -1342409.8, -1482380.3, 37209.46, 0.19438231, -0.5571483, -1333132.9, -20752.645, 0.027111659, 10.00048, 9.998658 
2.0751326e+3, 1.7608084e+2, -1185850.4, -1337091.1, 17272.773, -0.18502621, -0.29067203, -1183902.8, 30466.531, 0.0046569863, 10.0008335, 9.9987955 
2.075138e+3, 1.860797e+2, -1080958.5, -1215341.8, 49655.91, -0.1460492, -0.2991587, -1064601.3, 51781.3, 0.00014131474, 10.000784, 9.99899 
2.075147e+3, 1.960768e+2, -1031260.75, -1138929.1, 28594.56, 0.1818437, -0.5119608, -1024137.8, -5726.616, 0.0000000002137382, 10.000457, 9.998992 
2.075151e+3, 2.0607616e+2, -942896.44, -1125915.3, -92662.664, 0.18898278, -0.43847892, -904173.94, 16246.754, 0.0, 10.000717, 9.998292 
2.0751518e+3, 2.1607693e+2, -745683.56, -969672.44, -90747.07, -0.012602396, -0.2182295, -713533.0, 108885.48, 0.0, 10.001368, 9.998371 
2.0751558e+3, 2.2607534e+2, -619373.3, -863393.2, -41713.305, -0.036781117, -0.21306731, -612439.75, 111994.7, 0.0, 10.001581, 9.998332 
2.075162e+3, 2.3607217e+2, -509479.44, -743466.25, -54664.617, 0.064764276, -0.38743275, -497338.5, 129124.06, 0.0, 10.001606, 9.998461 
2.0751666e+3, 2.460705e+2, -361962.1, -566863.44, -63635.887, 0.099596575, -0.42753795, -343807.34, 184666.81, 0.0, 10.00169, 9.998968 
2.0751704e+3, 2.5606984e+2, -236324.36, -461994.88, 5495.0996, 0.08927032, -0.42191204, -236190.64, 194284.38, 0.0, 10.001927, 9.998887 
2.075175e+3, 2.6606762e+2, -219123.27, -608051.8, 35954.316, 0.0964568, -0.43360347, -215827.4, 116667.67, 0.000000021824269, 10.002237, 9.997076 
2.0751804e+3, 2.7606434e+2, -21634.805, -438034.88, 15095.637, 0.13748668, -0.50670254, -21088.266, 213440.61, 0.00000084431264, 10.002831, 9.9972725 
2.075186e+3, 2.860624e+2, 144094.66, -273457.56, 42109.25, 0.11893844, -0.44929937, 148298.95, 284849.84, 0.000005133315, 10.003132, 9.997603 
2.0751916e+3, 2.9606137e+2, 280359.4, -151923.61, 40120.645, 0.029678008, -0.3507812, 284051.53, 322616.3, 0.000023723636, 10.003376, 9.997635 
2.0751949e+3, 3.0605903e+2, 333809.1, -92582.89, -19493.697, -0.19840135, -0.34895873, 334698.47, 334698.47, 0.00007269625, 10.003378, 9.997719 
2.0752044e+3, 3.1605774e+2, 434300.4, 1230.501, 20343.816, 0.2161775, -0.3303689, 435253.97, 435253.97, 0.00016039563, 10.003877, 9.9981 
2.0851116e+3, 1.2607776e+2, -1650693.0, -1386972.9, 33405.8, -0.17243268, -0.3315949, -1382807.1, 321590.5, 0.40993002, 9.9984665, 10.004476 
2.0851207e+3, 1.3607542e+2, -1906538.0, -1869568.0, 2541.9104, 0.25194576, -0.50995386, -1869394.0, -262974.84, 0.29801235, 9.99847, 9.998977 
2.085123e+3, 1.4607643e+2, -1507103.1, -1454505.0, -31077.414, 0.047559246, -0.39494115, -1440092.3, 68315.03, 0.18298064, 9.999772, 10.000622 
2.0851308e+3, 1.5607584e+2, -1248061.6, -1281853.5, -40599.3, 0.36800644, -0.5504034, -1220982.9, 189428.02, 0.088167645, 10.001021, 10.0005245 
2.0851338e+3, 1.6607562e+2, -1237449.0, -1430089.9, -45066.15, 0.23136874, -0.5183723, -1227427.5, 84986.21, 0.029713616, 10.001223, 9.998658 
2.0851333e+3, 1.7607571e+2, -1158980.9, -1329012.1, -7754.7427, -0.20825647, -0.40290424, -1158628.0, 55788.023, 0.005333032, 10.001038, 9.9987545 
2.0851389e+3, 1.8607464e+2, -1067513.3, -1267478.5, 57879.02, -0.1484065, -0.37387362, -1051968.8, 64461.008, 0.00018960002, 10.00112, 9.99848 
2.0851484e+3, 1.9607276e+2, -901844.6, -1131238.8, 19611.209, 0.21858914, -0.4351119, -900180.1, 118271.7, 0.000000020895914, 10.001569, 9.998516 
2.0851526e+3, 2.0607163e+2, -812530.75, -1070035.3, -68837.22, 0.22886856, -0.38299742, -795284.0, 125182.164, 0.0, 10.001661, 9.998219 
2.0851536e+3, 2.1607096e+2, -708029.3, -956879.56, -60616.496, 0.007971985, -0.29432234, -694049.4, 128426.43, 0.0, 10.00166, 9.998313 
2.0851575e+3, 2.2606936e+2, -582894.9, -851197.9, 20388.346, -0.03148283, -0.2878307, -581354.4, 143137.8, 0.0, 10.001837, 9.998306 
2.0851633e+3, 2.3606706e+2, -432675.6, -706567.2, 24831.246, 0.043933183, -0.37474716, -430442.6, 196070.92, 0.0, 10.002119, 9.998477 
2.0851685e+3, 2.4606574e+2, -282774.8, -520357.2, -25166.693, 0.10963986, -0.38933438, -280138.22, 248384.05, 0.0, 10.002193, 9.999047 
2.0851731e+3, 2.5606495e+2, -192525.75, -438175.8, -84586.28, 0.15900351, -0.3982378, -166217.19, 264306.56, 0.0, 10.002206, 9.998924 
2.0851777e+3, 2.6606235e+2, -181488.95, -594219.2, -30380.877, 0.14382686, -0.44543618, -179264.63, 153281.2, 0.0, 10.00252, 9.997034 
2.0851827e+3, 2.7605852e+2, 128.51166, -437494.88, -9383.12, 0.079426, -0.56387496, 329.60355, 234911.89, 0.000000115745564, 10.003031, 9.997178 
2.0851882e+3, 2.8605628e+2, 24557.9, -373968.03, 4884.659, 0.05916419, -0.51166385, 24617.762, 161225.55, 0.0000020138657, 10.002478, 9.997232 
2.0851938e+3, 2.9605523e+2, -65168.76, -347260.13, -46036.45, 0.033537846, -0.37860817, -57845.85, -19221.443, 0.000014504671, 10.00114, 9.997367 
2.0851989e+3, 3.0605394e+2, 199568.34, -159534.7, -623.85046, -0.055795215, -0.2654872, 199569.44, 199569.44, 0.000053401804, 10.002417, 9.997739 
2.0852083e+3, 3.1605178e+2, 611026.0, 49351.258, -42947.234, 0.17363581, -0.31731412, 614290.94, 614290.94, 0.00012544217, 10.005177, 9.997827 
2.0951125e+3, 1.2607516e+2, -1729695.0, -1495255.5, -168185.92, 0.021125289, -0.2594905, -1407470.4, 296945.84, 0.42994058, 9.998509, 10.003418 
2.0951185e+3, 1.3606651e+2, -2006476.8, -2075536.6, 35636.88, 0.15701829, -0.9399665, -1991385.1, -384883.13, 0.31401625, 9.998484, 9.997554 
2.0951204e+3, 1.4607024e+2, -1515709.3, -1489099.5, 6654.008, -0.22819652, -0.46178606, -1487528.4, 20940.963, 0.19429262, 9.999837, 10.000311 
2.0951308e+3, 1.5607402e+2, -1247291.5, -1288991.3, 2869.6814, 0.23702791, -0.15701598, -1247095.0, 163342.83, 0.094824284, 10.00106, 10.000464 
2.0951353e+3, 1.6607298e+2, -1164227.5, -1292085.4, -58985.805, 0.23551565, -0.2597102, -1141172.4, 171273.94, 0.032688897, 10.001297, 9.999575 
2.095136e+3, 1.7606914e+2, -1104949.8, -1219052.8, -10004.279, -0.06907299, -0.62830347, -1104079.3, 110398.1, 0.0061590113, 10.001048, 9.999504 
2.0951407e+3, 1.8606889e+2, -1105148.3, -1352909.3, 65264.168, -0.10723911, -0.5151843, -1089008.0, 27474.861, 0.00026052183, 10.001148, 9.99788 
2.0951483e+3, 1.9607088e+2, -941844.44, -1207157.3, 40190.496, 0.03596759, -0.13112609, -935889.9, 82583.15, 0.00000016154512, 10.001536, 9.998011 
2.0951533e+3, 2.0606902e+2, -812658.2, -1052909.1, -77210.92, 0.10032861, -0.14064494, -789984.3, 130509.39, 0.0, 10.001588, 9.998368 
2.0951565e+3, 2.1606463e+2, -714752.25, -942975.25, -51772.094, 0.120366685, -0.43888193, -703557.0, 118977.07, 0.0, 10.001543, 9.998463 
2.0951602e+3, 2.2606342e+2, -579367.9, -805166.44, 24951.004, 0.029192274, -0.42166612, -576643.6, 147902.08, 0.0, 10.001669, 9.998704 
2.0951638e+3, 2.360643e+2, -443326.63, -686615.75, 42337.766, -0.12861514, -0.23074424, -436169.44, 190368.66, 0.0, 10.001942, 9.998698 
2.0951691e+3, 2.4606265e+2, -416209.3, -745920.5, -31834.049, -0.054476134, -0.20844561, -413163.84, 115389.9, 0.0, 10.001971, 9.997606 
2.0951758e+3, 2.5605917e+2, -295253.5, -626524.3, -72376.45, 0.18493733, -0.34068525, -280130.94, 150455.1, 0.0, 10.002097, 9.9976845 
2.0951805e+3, 2.660563e+2, -150225.75, -491128.34, -18135.273, 0.121439695, -0.40716204, -149263.72, 183346.47, 0.0, 10.002363, 9.997813 
2.0951839e+3, 2.7605382e+2, 19517.984, -364010.4, 13623.297, -0.12350251, -0.46693268, 20001.29, 254629.98, 0.0, 10.00289, 9.997749 
2.0951897e+3, 2.8605163e+2, -78786.516, -516787.1, -57177.72, -0.07077844, -0.38649893, -71445.43, 65207.117, 0.00000039293647, 10.002179, 9.996392 
2.0951965e+3, 2.9604957e+2, -119808.0, -431728.1, -62337.22, 0.17749174, -0.28117597, -107811.31, -69130.7, 0.000007667558, 10.001017, 9.996847 
2.095203e+3, 3.0604583e+2, 114026.17, -214150.11, 97079.07, 0.06495706, -0.38783816, 140592.86, 140592.86, 0.000037309004, 10.00194, 9.997572 
2.095211e+3, 3.16044e+2, 572657.5, 158128.67, 38376.52, -0.11561249, -0.36916003, 576180.44, 576180.44, 0.000096027696, 10.004447, 9.998895 
2.1051124e+3, 1.2607014e+2, -1816582.5, -1622412.4, -255298.88, 0.1477884, -0.25357163, -1446361.9, 258102.06, 0.44859928, 9.998587, 10.002276 
2.1051174e+3, 1.3606079e+2, -1717705.3, -1918192.1, 56588.65, 0.1341101, -1.038923, -1702835.6, -96278.48, 0.3298663, 10.000366, 9.99774 
2.1051197e+3, 1.4606652e+2, -1464026.4, -1498970.8, 63883.27, -0.2911225, -0.34230056, -1415269.0, 93236.945, 0.20615475, 10.000478, 9.999947 
2.1051297e+3, 1.5606925e+2, -1398615.5, -1381463.9, 40952.48, 0.08183833, -0.12243252, -1348198.9, 62287.42, 0.10215144, 10.000032, 10.00025 
2.1051353e+3, 1.6606769e+2, -1299682.1, -1355194.3, -42166.656, 0.16646881, -0.27076334, -1276956.3, 35543.906, 0.036114734, 10.000323, 9.999605 
2.1051385e+3, 1.7606454e+2, -1072422.6, -1199819.1, -66617.05, 0.0655092, -0.5768839, -1043951.0, 170572.94, 0.007176738, 10.001259, 9.999535 
2.105143e+3, 1.8606405e+2, -1109745.1, -1363569.3, 174.71756, 0.017372176, -0.48154062, -1109745.0, 6785.585, 0.0003661867, 10.001168, 9.997791 
2.1051487e+3, 1.9606481e+2, -1089671.4, -1281089.0, -2946.8423, -0.02212802, -0.20793965, -1089626.0, -71094.59, 0.00000091193453, 10.000556, 9.997967 
2.1051538e+3, 2.0606305e+2, -886190.8, -1050963.1, -63858.906, 0.029941568, -0.22528593, -864339.56, 56209.9, 0.0, 10.000881, 9.998735 
2.1051584e+3, 2.1605971e+2, -643237.06, -875859.6, -35984.992, 0.13844948, -0.4608191, -637797.7, 184780.47, 0.0, 10.001869, 9.998777 
2.1051626e+3, 2.2605877e+2, -591504.6, -841136.44, 6462.369, 0.10447105, -0.41343474, -591337.44, 133249.88, 0.0, 10.001736, 9.998407 
2.1051663e+3, 2.3605919e+2, -604343.4, -798473.44, -40536.0, -0.0417053, -0.23838505, -596219.1, 30366.785, 0.0, 10.000991, 9.998374 
2.1051714e+3, 2.4605718e+2, -526281.75, -844172.06, -47403.203, 0.00048687856, -0.21388501, -519363.63, 9242.815, 0.0, 10.001411, 9.997202 
2.1051778e+3, 2.5605354e+2, -254262.7, -646696.1, -29423.209, 0.1531343, -0.32422176, -252068.92, 178572.92, 0.0, 10.002567, 9.997313 
2.1051829e+3, 2.6605043e+2, -64694.633, -484245.7, 15543.715, 0.111592524, -0.38068336, -64119.55, 268549.16, 0.0, 10.003068, 9.997536 
2.1051875e+3, 2.7604762e+2, 32457.041, -389008.97, -46642.04, -0.06116514, -0.4431501, 37557.027, 272247.5, 0.0, 10.003094, 9.997487 
2.1051933e+3, 2.860451e+2, 141449.47, -419158.28, -105925.25, 0.002513948, -0.37770784, 160796.1, 297512.84, 0.00000006547354, 10.003743, 9.996299 
2.1051997e+3, 2.960426e+2, 428787.78, -177787.55, -98854.97, 0.19178565, -0.29985607, 444491.8, 483239.8, 0.000004738257, 10.004842, 9.996744 
2.1052058e+3, 3.0603898e+2, 420639.7, -47384.41, 116510.664, 0.07340709, -0.4043159, 448039.9, 448039.9, 0.00002905632, 10.003913, 9.997788 
2.1052143e+3, 3.1603706e+2, 161658.9, 16128.219, -5987.42, -0.04997435, -0.41215146, 161904.83, 161904.83, 0.00007989996, 10.00132, 9.999445 
2.115111e+3, 1.2606163e+2, -1850676.9, -1713486.4, -49413.22, 0.12034319, -0.4452202, -1697541.9, 7008.9106, 0.46656317, 9.998674, 10.000657 
2.1151176e+3, 1.3605812e+2, -1607450.9, -1667616.5, 87301.57, 0.07271242, -0.82268256, -1545194.4, 61391.355, 0.34608045, 10.000417, 9.999504 
2.1151209e+3, 1.4606494e+2, -1491313.3, -1582357.8, 51477.918, -0.2565827, -0.06410801, -1468116.9, 40403.723, 0.21890919, 10.000559, 9.99929 
2.1151274e+3, 1.5606153e+2, -1409463.1, -1421497.6, 32271.025, -0.18346393, -0.42499897, -1382653.1, 27903.363, 0.110347085, 10.000106, 9.999919 
2.1151336e+3, 1.660599e+2, -1339344.8, -1453600.8, -15038.814, -0.07490493, -0.5298213, -1337398.5, -24824.457, 0.040102176, 10.000383, 9.998899 
2.1151404e+3, 1.7606172e+2, -1114705.8, -1292110.6, -31477.291, 0.1249232, -0.2628543, -1109286.3, 105270.5, 0.008443992, 10.001267, 9.998899 
2.1151455e+3, 1.8605989e+2, -1084930.6, -1317497.0, -30660.098, 0.12789054, -0.29420456, -1080956.5, 35618.605, 0.00052604213, 10.001195, 9.998092 
2.1151493e+3, 1.9605467e+2, -1072271.4, -1239495.5, -11949.12, -0.032941457, -0.64794177, -1071421.9, -52795.5, 0.0000034897541, 10.000535, 9.9982605 
2.1151538e+3, 2.0605376e+2, -853089.2, -963925.94, -31404.014, -0.07623617, -0.62634665, -844809.75, 75824.09, 0.0, 10.000805, 9.999371 
2.1151589e+3, 2.1605608e+2, -629745.9, -816170.1, -892.173, -0.005696269, -0.35806802, -629741.6, 192867.14, 0.0, 10.001743, 9.999245 
2.1151643e+3, 2.2605516e+2, -686070.25, -999361.6, -27433.713, 0.097761795, -0.2762101, -683686.1, 40933.168, 0.0, 10.001567, 9.997403 
2.1151699e+3, 2.3605177e+2, -678594.0, -931799.3, -51697.617, 0.21910831, -0.38026372, -668445.5, -41789.004, 0.0, 10.000899, 9.997505 
2.1151745e+3, 2.4604936e+2, -509747.4, -773266.9, -8938.226, 0.15586953, -0.38720018, -509444.56, 19235.771, 0.0, 10.001257, 9.997758 
2.1151787e+3, 2.560477e+2, -243346.2, -601603.56, 17052.281, -0.0074743223, -0.3580656, -242536.38, 188158.17, 0.0, 10.002472, 9.997665 
2.1151851e+3, 2.660445e+2, -180635.05, -677695.75, 10959.843, 0.013007074, -0.37052983, -180393.52, 152330.69, 0.0, 10.0028715, 9.996298 
2.1151929e+3, 2.7604002e+2, -55160.164, -547984.94, -28154.61, 0.16063702, -0.48050967, -53556.934, 181209.89, 0.0, 10.002991, 9.996447 
2.1151985e+3, 2.8603643e+2, 130293.07, -386614.56, -71414.66, 0.10928326, -0.4953797, 139978.08, 276781.16, 0.00000005479561, 10.0035095, 9.996632 
2.1152027e+3, 2.960339e+2, 409428.1, -178539.56, -45587.65, -0.025885124, -0.45968047, 412941.7, 451772.94, 0.0000044706885, 10.004655, 9.996834 
2.115207e+3, 3.0603302e+2, 364101.6, -4930.0825, 5466.2983, -0.23732212, -0.3097169, 364182.53, 364182.53, 0.000027145721, 10.0032835, 9.998351 
2.1152182e+3, 3.1603134e+2, 15233.931, -134823.05, -2433.1199, 0.16424696, -0.38566452, 15273.373, 15273.373, 0.00007497601, 10.000715, 9.998678 
2.125113e+3, 1.2605359e+2, -1502449.4, -1581244.4, 50875.82, 0.2362255, -0.4765783, -1477500.1, 227131.55, 0.48543465, 10.002396, 10.00053 
2.1251175e+3, 1.3605398e+2, -1674828.9, -1637606.8, -51482.75, 0.054371048, -0.6041911, -1601474.4, 5158.4307, 0.3637423, 9.999575, 10.0000305 
2.1251209e+3, 1.4606027e+2, -1652632.0, -1633269.3, -40366.18, -0.25688314, 0.062352132, -1601439.8, -92869.62, 0.23315269, 9.999248, 9.999567 
2.1251279e+3, 1.560544e+2, -1402171.4, -1391803.4, -35077.895, -0.13864677, -0.57121843, -1361528.5, 49094.14, 0.1197026, 10.000021, 10.000199 
2.1251343e+3, 1.6605285e+2, -1358312.3, -1498149.3, -26474.963, -0.040525515, -0.66646236, -1353467.6, -40827.613, 0.044803485, 10.000397, 9.998595 
2.1251409e+3, 1.7605607e+2, -1183388.8, -1354527.5, -28507.555, 0.050619252, -0.22136228, -1178765.0, 35849.73, 0.01004214, 10.00091, 9.998645 
2.1251462e+3, 1.8605484e+2, -1032527.06, -1205006.1, -18011.014, 0.08893488, -0.22622779, -1030666.4, 85959.99, 0.0007722133, 10.001158, 9.998883 
2.1251512e+3, 1.9604976e+2, -914519.3, -1090082.8, 28452.703, 0.06547962, -0.64812595, -910023.25, 108647.914, 0.000010944595, 10.001287, 9.998924 
2.1251558e+3, 2.0604877e+2, -795233.9, -988294.7, 19319.225, 0.010960751, -0.6386086, -793319.6, 127359.37, 0.0, 10.001454, 9.998878 
2.12516e+3, 2.1605068e+2, -654464.44, -882505.5, -51674.5, -0.07200796, -0.35692847, -643301.4, 179359.1, 0.0, 10.001822, 9.998744 
2.1251658e+3, 2.2604895e+2, -599763.8, -995540.1, -89561.2, 0.05220624, -0.31506166, -580440.25, 144238.69, 0.0, 10.002315, 9.997074 
2.1251723e+3, 2.360446e+2, -414675.47, -835577.2, -76494.13, 0.28512964, -0.48298398, -401204.66, 225519.08, 0.0, 10.002852, 9.997223 
2.1251775e+3, 2.4604224e+2, -234579.31, -650981.3, -2638.7427, 0.2194557, -0.4699644, -234562.6, 294184.8, 0.0, 10.003193, 9.997667 
2.1251811e+3, 2.5604117e+2, -107225.31, -547744.06, -41358.527, -0.04856726, -0.36510143, -103375.96, 327381.22, 0.0, 10.003453, 9.997568 
2.125188e+3, 2.6603806e+2, -83873.59, -638008.1, -26208.88, -0.020540962, -0.36349297, -82636.75, 250150.58, 0.0, 10.003582, 9.996222 
2.1251963e+3, 2.7603316e+2, 22455.807, -509019.4, -7306.5005, 0.18281704, -0.5006455, 22556.234, 257390.84, 0.0, 10.003548, 9.996435 
2.1252021e+3, 2.8602988e+2, 139049.73, -346963.53, 16634.41, 0.14951068, -0.5079213, 139618.4, 276485.5, 0.000000117451826, 10.003396, 9.996977 
2.1252066e+3, 2.9602805e+2, 209169.17, -244527.33, 11524.273, -0.018379701, -0.42806324, 209461.72, 248347.22, 0.0000050467984, 10.003159, 9.997095 
2.1252105e+3, 3.060266e+2, 341974.75, -115500.484, -12226.174, -0.2150777, -0.30653706, 342301.25, 342301.25, 0.00002697455, 10.003493, 9.997535 
2.1252212e+3, 3.1602526e+2, 385171.63, -33357.906, -149359.52, 0.25616997, -0.24862818, 433006.06, 433006.06, 0.00007155191, 10.003519, 9.998067 
2.1351168e+3, 1.3604836e+2, -1725928.6, -1719900.4, -145014.66, 0.011573835, -0.34253114, -1577868.5, 28829.588, 0.38411817, 9.999525, 9.999524 
2.1351188e+3, 1.4605261e+2, -1560435.4, -1471935.9, -9510.836, -0.40899062, 0.060650676, -1470925.4, 37728.016, 0.24951555, 9.999323, 10.000718 
2.1351306e+3, 1.5604778e+2, -1342213.8, -1273680.9, -9712.293, 0.12419423, -0.56957716, -1272331.0, 138355.03, 0.13052814, 10.000041, 10.001112 
2.135137e+3, 1.6604628e+2, -1348988.9, -1494868.4, -18931.484, 0.1659362, -0.70149094, -1346572.0, -33871.207, 0.050404422, 10.000459, 9.998589 
2.1351391e+3, 1.7604758e+2, -1178072.1, -1344594.4, -6624.624, -0.22401372, -0.446742, -1177809.0, 36888.887, 0.012084308, 10.000915, 9.99871 
2.135145e+3, 1.8604887e+2, -937905.75, -1018578.56, -18806.83, -0.18551907, -0.27125746, -933736.9, 182947.92, 0.001155736, 10.001196, 10.000148 
2.135154e+3, 1.9604973e+2, -847445.75, -948391.9, 36179.863, 0.1919717, -0.2244921, -835818.0, 182851.06, 0.000030850606, 10.001268, 9.999911 
2.135159e+3, 2.060476e+2, -919021.9, -1223561.0, 20677.69, 0.17379685, -0.28750432, -917624.3, 3064.958, 0.0, 10.001363, 9.997308 
2.1351613e+3, 2.1604347e+2, -768467.6, -1092750.6, -30067.092, -0.12644674, -0.45374122, -765703.44, 57030.324, 0.0, 10.001708, 9.997357 
2.1351665e+3, 2.2604027e+2, -603438.0, -960149.56, -71207.664, -0.12363251, -0.5143894, -589748.7, 135016.39, 0.0, 10.002137, 9.997398 
2.1351735e+3, 2.3603757e+2, -416811.1, -820745.6, -48915.434, 0.10029119, -0.54854876, -410971.97, 215817.03, 0.0, 10.002767, 9.997369 
2.1351795e+3, 2.4603549e+2, -311029.88, -773833.2, -1090.0807, 0.0963894, -0.46813133, -311027.28, 217783.33, 0.0, 10.003041, 9.996895 
2.1351849e+3, 2.5603384e+2, -165661.83, -640527.0, -24462.445, -0.04990412, -0.35070795, -164404.98, 266425.88, 0.0, 10.003325, 9.996992 
2.135191e+3, 2.6603082e+2, -53251.08, -522420.44, -33504.9, -0.09418859, -0.36266768, -50870.465, 281989.88, 0.0, 10.003371, 9.997111 
2.1351978e+3, 2.7602664e+2, 54927.793, -408981.66, 2232.5918, -0.06002176, -0.5214011, 54938.535, 289837.0, 0.00000000014169585, 10.003405, 9.997193 
2.1352041e+3, 2.8602463e+2, 116893.555, -320771.66, -2033.6636, -0.014678037, -0.44695628, 116903.0, 253819.27, 0.000000256191, 10.003107, 9.99728 
2.135211e+3, 2.9602447e+2, 194653.03, -242454.36, 28192.244, 0.10335924, -0.23940305, 196463.84, 235380.53, 0.0000052967753, 10.003004, 9.997187 
2.1352154e+3, 3.060184e+2, 101153.85, -468281.5, -8548.946, -0.114572324, -0.46616587, 101282.17, 101282.17, 0.000025200057, 10.002927, 9.995353 
2.1352214e+3, 3.1601548e+2, 219167.67, -164359.33, -221.7257, -0.12251387, -0.35898447, 219167.8, 219167.8, 0.00006359445, 10.002671, 9.997544 
2.1451145e+3, 1.360406e+2, -2139923.0, -1852574.0, -30145.549, 0.01278858, -0.22158618, -1849445.5, -242669.02, 0.40760165, 9.99633, 10.00009 
2.1451195e+3, 1.4604217e+2, -1535790.0, -1424106.3, -52784.117, -0.27976522, -0.14587618, -1403107.5, 105650.086, 0.26811564, 9.999293, 10.001203 
2.1451306e+3, 1.5604058e+2, -1487153.0, -1302886.0, -98646.51, 0.16539532, -0.4935586, -1260039.1, 150720.34, 0.14296411, 9.998805, 10.001512 
2.1451375e+3, 1.6604006e+2, -1465310.8, -1497410.4, -78164.89, 0.22008973, -0.56982344, -1401564.9, -88801.55, 0.057087187, 9.999443, 9.999062 
2.1451406e+3, 1.7604037e+2, -1196892.9, -1301909.8, -48475.676, -0.1363095, -0.46535462, -1177937.8, 36830.42, 0.014719365, 10.000582, 9.999164 
2.1451464e+3, 1.8604138e+2, -973662.25, -1019665.4, -106938.41, -0.14800544, -0.34305924, -887279.6, 229477.28, 0.0017550356, 10.0008955, 10.000285 
2.1451543e+3, 1.9604273e+2, -881792.44, -953276.3, -145024.88, 0.11872146, -0.25672236, -768170.06, 250566.47, 0.00008036648, 10.000992, 10.000011 
2.1451601e+3, 2.060409e+2, -911593.8, -1219284.3, -99208.34, 0.15637441, -0.2928277, -882379.94, 38374.633, 0.000000018813253, 10.001399, 9.997322 
2.1451646e+3, 2.1603698e+2, -702934.25, -1059211.9, -48374.66, 0.00056103885, -0.44238356, -696482.9, 126315.09, 0.0, 10.002139, 9.997379 
2.14517e+3, 2.2603388e+2, -455804.53, -887639.3, -34064.695, -0.03862017, -0.4958144, -453133.9, 271694.72, 0.0, 10.003143, 9.997416 
2.1451761e+3, 2.3603114e+2, -189432.86, -712159.25, -51349.87, 0.00043449702, -0.5293429, -184436.28, 442416.34, 0.0, 10.004338, 9.997361 
2.1451822e+3, 2.46029e+2, -200450.7, -738382.4, -23662.17, 0.010595762, -0.44658592, -199411.88, 329463.53, 0.0, 10.003879, 9.996738 
2.145188e+3, 2.5602722e+2, -319394.88, -722739.94, -16018.729, -0.012630321, -0.3254821, -318759.7, 112138.234, 0.0, 10.002306, 9.996919 
2.1451941e+3, 2.6602453e+2, -203154.14, -526010.1, 27310.572, -0.040447574, -0.33397684, -200860.23, 132062.94, 0.0, 10.002031, 9.997737 
2.1452004e+3, 2.7602112e+2, -18365.04, -382578.3, 20339.654, -0.07710179, -0.47889057, -17232.684, 217719.39, 0.00000000016893417, 10.002633, 9.997743 
2.1452072e+3, 2.8601912e+2, 84117.81, -371077.22, -6603.0547, -0.0046544024, -0.41937837, 84213.57, 221182.89, 0.0000002738674, 10.003002, 9.996995 
2.1452145e+3, 2.960179e+2, 200620.92, -250878.77, -47766.266, 0.15244831, -0.2822385, 205619.02, 244599.28, 0.0000047479944, 10.003102, 9.997076 
2.1452197e+3, 3.060119e+2, 140169.69, -410379.1, 26446.441, 0.0462731, -0.5310985, 141437.17, 141437.17, 0.000021563434, 10.002943, 9.99578 
2.1452244e+3, 3.1600922e+2, 161292.95, -153735.02, 113647.766, -0.05496427, -0.42709363, 198012.0, 198012.0, 0.000054127435, 10.002083, 9.997891 
2.1551101e+3, 1.3603109e+2, -2030354.4, -1669038.0, 268068.38, -0.10911057, -0.20361648, -1526434.6, 80430.54, 0.43279883, 9.996442, 10.00162 
2.1551216e+3, 1.4602889e+2, -1543669.8, -1447536.4, -105009.55, -0.039911043, -0.57125145, -1380115.4, 128768.7, 0.28823382, 9.999378, 10.001032 
2.155127e+3, 1.5603286e+2, -1490337.1, -1323263.1, -100303.234, -0.085216425, -0.34309152, -1276265.9, 134576.13, 0.15688464, 9.998868, 10.001338 
2.1551353e+3, 1.660344e+2, -1386729.8, -1359708.4, -37820.1, 0.017783744, -0.25450885, -1333058.1, -20232.314, 0.06501248, 9.999556, 9.9999485 
2.155145e+3, 1.7603426e+2, -1144836.1, -1192594.8, -9477.284, 0.20891614, -0.2848763, -1143024.1, 71802.96, 0.018139776, 10.0005865, 9.9999075 
2.1551499e+3, 1.8603233e+2, -1034862.6, -1160799.0, -113837.3, 0.088569865, -0.4376256, -967738.8, 149104.6, 0.0026903055, 10.000949, 9.999291 
2.1551521e+3, 1.9602911e+2, -927886.25, -1050716.9, -132627.23, -0.22106646, -0.71693826, -843144.7, 175725.61, 0.00019736934, 10.001, 9.999334 
2.155159e+3, 2.0602903e+2, -818127.06, -1014193.0, -77276.77, -0.13349602, -0.6297241, -791331.5, 129539.836, 0.0000007869328, 10.0013485, 9.998755 
2.155169e+3, 2.16031e+2, -629863.4, -885745.56, -13520.649, 0.21908864, -0.33141327, -629150.94, 193704.47, 0.0, 10.002036, 9.998622 
2.1551755e+3, 2.2602938e+2, -505822.63, -945467.0, 4743.659, 0.18693958, -0.27787042, -505771.47, 219101.94, 0.0, 10.002946, 9.997111 
2.1551797e+3, 2.3602515e+2, -226147.66, -753717.9, -8904.88, -0.096404895, -0.43301514, -225997.39, 400918.66, 0.0, 10.004184, 9.9971485 
2.1551846e+3, 2.460226e+2, -208129.72, -697303.2, -87990.555, -0.13796017, -0.40803406, -192783.75, 336159.38, 0.0, 10.003644, 9.997127 
2.1551904e+3, 2.5602105e+2, -309266.0, -679614.6, -58623.125, -0.007225682, -0.29791546, -300208.0, 130752.555, 0.0, 10.002211, 9.997261 
2.155197e+3, 2.6601887e+2, -205532.77, -491529.13, 43983.09, 0.031076878, -0.2904702, -198921.48, 134057.75, 0.0, 10.001866, 9.998052 
2.1552044e+3, 2.7601618e+2, -22143.809, -360947.06, 50303.566, 0.034440096, -0.3956045, -14832.787, 220166.88, 0.0, 10.002501, 9.997958 
2.155211e+3, 2.8601262e+2, -24277.549, -518552.63, -11128.579, 0.048526045, -0.44652387, -24027.115, 113005.08, 0.000000100631844, 10.0027, 9.996114 
2.1552168e+3, 2.9600823e+2, 124958.445, -356024.88, -24669.67, 0.04466618, -0.5444823, 126220.445, 165296.75, 0.0000031808167, 10.002874, 9.996466 
2.1552224e+3, 3.060058e+2, 232942.02, -57131.64, -10747.238, -0.0089692185, -0.5488146, 233339.66, 233339.66, 0.000016664693, 10.002302, 9.998486 
2.1552286e+3, 3.1600788e+2, 70391.55, -220675.75, 66315.23, 0.09823399, -0.26245457, 84788.35, 84788.35, 0.00004561872, 10.001571, 9.997672 
2.1651079e+3, 1.3602167e+2, -1425480.6, -1385860.5, 169220.19, -0.19248538, -0.24546441, -1235294.8, 371661.44, 0.45757636, 10.001317, 10.002148 
2.1651219e+3, 1.4601928e+2, -1774843.5, -1557738.0, -94013.57, 0.13944031, -0.63518184, -1522686.3, -13710.003, 0.3088363, 9.997831, 10.000755 
2.1651259e+3, 1.5602425e+2, -1379511.0, -1300457.1, -80648.02, -0.122499205, -0.2745459, -1250170.5, 160760.53, 0.17204043, 9.999811, 10.001047 
2.1651345e+3, 1.6602619e+2, -1224870.4, -1206890.9, -28155.783, -0.032703467, -0.17621252, -1186324.5, 126585.81, 0.07433442, 10.000352, 10.000675 
2.165146e+3, 1.7602573e+2, -1111232.6, -1112050.6, -23159.857, 0.26960957, -0.31013322, -1088478.1, 126431.17, 0.022589553, 10.000517, 10.000517 
2.1651517e+3, 1.860238e+2, -1056017.0, -1219866.0, -105736.57, 0.16602932, -0.4644657, -1004181.06, 112745.5, 0.00413868, 10.001027, 9.998846 
2.1651536e+3, 1.9602092e+2, -813276.94, -1037256.75, -112042.96, -0.21952102, -0.6609209, -766851.7, 252103.97, 0.00045452762, 10.001973, 9.998961 
2.1651603e+3, 2.0602109e+2, -679152.2, -866178.7, -77620.86, -0.14054458, -0.57149464, -651134.7, 269819.25, 0.000007502901, 10.001951, 9.999479 
2.1651709e+3, 2.160232e+2, -673446.44, -833512.8, -76294.305, 0.22956067, -0.32713637, -642907.75, 180024.86, 0.0, 10.001434, 9.999268 
2.1651779e+3, 2.2602212e+2, -709773.3, -1017855.1, -19339.537, 0.22558564, -0.25781175, -708564.0, 16381.402, 0.0, 10.001447, 9.997329 
2.1651831e+3, 2.3601879e+2, -542943.5, -876059.56, -19241.69, -0.039843187, -0.3481963, -541835.75, 85146.46, 0.0, 10.001883, 9.997411 
2.1651882e+3, 2.4601647e+2, -357917.28, -709562.8, -106319.22, -0.07761233, -0.3402372, -328271.25, 200734.53, 0.0, 10.002342, 9.997673 
2.1651931e+3, 2.5601467e+2, -185609.02, -560783.56, -72117.46, 0.015600347, -0.31062683, -172223.88, 258797.95, 0.0, 10.002824, 9.997768 
2.1652e+3, 2.6601252e+2, -120393.305, -490860.3, 34790.836, 0.08299827, -0.3067245, -117154.39, 215886.31, 0.0, 10.00264, 9.997673 
2.1652077e+3, 2.760099e+2, -114787.76, -436686.8, -24639.875, 0.14709537, -0.3610772, -112912.61, 122150.89, 0.0, 10.002025, 9.997653 
2.1652144e+3, 2.860062e+2, -111043.055, -518173.97, -30529.197, 0.17642057, -0.4384989, -108766.516, 28331.584, 0.0000000029805467, 10.001901, 9.996509 
2.1652195e+3, 2.9600164e+2, 25042.059, -341860.38, 17578.643, 0.09225145, -0.5840447, 25882.344, 65024.88, 0.000001345268, 10.001942, 9.997004 
2.1652244e+3, 3.0600145e+2, 315627.7, 74825.2, 23956.268, -0.026774725, -0.44858822, 317987.84, 317987.84, 0.000010778314, 10.0024395, 9.999334 
2.1652313e+3, 3.1600195e+2, 363746.38, -83005.5, -137713.33, 0.1185477, -0.3784677, 402785.7, 402785.7, 0.00003608632, 10.003594, 9.9976425 
2.1751086e+3, 1.3601312e+2, -1429298.9, -1434161.6, -98874.67, -0.3357585, -0.2903827, -1332825.6, 274216.4, 0.48078975, 10.001806, 10.001336 
2.1751204e+3, 1.4601369e+2, -1802934.8, -1647462.6, 936.67944, 0.14172511, -0.32902464, -1647457.0, -138425.7, 0.32934, 9.997982, 10.00006 
2.175127e+3, 1.560148e+2, -1415636.0, -1373018.8, -22818.527, -0.02878326, -0.28326437, -1363106.5, 47919.586, 0.18832743, 9.999796, 10.000452 
2.175135e+3, 1.6601528e+2, -1177681.5, -1130024.4, -29498.014, -0.054511324, -0.33150485, -1115932.9, 197085.56, 0.0852701, 10.000446, 10.001216 
2.1751441e+3, 1.7601496e+2, -1062880.3, -1026557.8, -6151.109, -0.01967114, -0.52168906, -1025544.44, 189468.66, 0.028395085, 10.000586, 10.001089 
2.1751514e+3, 1.8601584e+2, -1057815.9, -1239828.6, -78121.43, -0.0046097063, -0.41503507, -1028884.25, 88121.87, 0.006367479, 10.001096, 9.998675 
2.1751583e+3, 1.9601761e+2, -829479.0, -1066445.9, -77091.16, 0.024041906, -0.1261614, -806607.0, 212390.53, 0.0009868387, 10.001953, 9.998768 
2.1751644e+3, 2.0601662e+2, -686618.6, -868523.3, -105007.27, 0.010237593, -0.14728628, -638650.6, 282356.0, 0.000047582707, 10.001888, 9.999497 
2.1751699e+3, 2.1601355e+2, -682176.94, -826312.2, -86338.55, -0.02128427, -0.42572698, -641780.9, 181248.92, 0.00000000032497088, 10.001322, 9.999373 
2.1751775e+3, 2.2601213e+2, -695722.94, -940254.3, -7695.7075, 0.0068593463, -0.4301342, -695481.0, 29563.475, 0.0, 10.001245, 9.997956 
2.1751866e+3, 2.3601179e+2, -523700.9, -795420.2, 5083.6895, 0.08572032, -0.28305614, -523605.8, 103447.77, 0.0, 10.001715, 9.998042 
2.1751921e+3, 2.4601032e+2, -342382.25, -616626.4, -96860.52, 0.065512575, -0.26209372, -311622.13, 217444.55, 0.0, 10.00209, 9.998427 
2.1751958e+3, 2.560079e+2, -167460.97, -486209.66, -52916.863, -0.02056586, -0.37140343, -158905.64, 272178.2, 0.0, 10.00267, 9.998351 
2.1752019e+3, 2.660053e+2, -228324.95, -661888.3, 2680.6877, 0.01608602, -0.37771422, -228308.39, 104800.92, 0.0, 10.002421, 9.9966 
2.1752103e+3, 2.7600226e+2, -194285.7, -570422.2, -32075.324, 0.1728947, -0.36913326, -191570.06, 43573.68, 0.0, 10.001897, 9.996793 
2.1752173e+3, 2.8599948e+2, -48335.39, -314287.34, -35188.676, 0.22546884, -0.40176198, -43758.273, 93412.15, 0.0, 10.001604, 9.998043 
2.1752225e+3, 2.9599735e+2, 95304.266, -164486.75, 31428.586, 0.15255809, -0.46569237, 99052.31, 138239.05, 0.00000028754212, 10.0018015, 9.998288 
2.1752256e+3, 3.0599728e+2, 161853.47, -123761.27, 38656.273, -0.20397785, -0.30302486, 166992.89, 166992.89, 0.0000061263827, 10.001982, 9.998163 
2.1752337e+3, 3.1599233e+2, 266441.78, -120414.53, -5761.0796, -0.057163563, -0.6755283, 266527.56, 266527.56, 0.000027574106, 10.002914, 9.9977045 
2.1851191e+3, 1.460074e+2, -1458249.4, -1537627.5, -67779.664, 0.08836749, -0.200537, -1419393.5, 89700.84, 0.34983045, 10.000827, 9.999522 
2.1851282e+3, 1.5600684e+2, -1373056.0, -1344486.8, 77244.99, 0.10290563, -0.32002643, -1280216.8, 130885.52, 0.2059314, 10.000097, 10.000591 
2.1851355e+3, 1.6600658e+2, -1273966.8, -1240868.4, 82478.49, -0.0385764, -0.41277072, -1173295.1, 139806.53, 0.09816949, 10.000066, 10.000585 
2.185144e+3, 1.7600615e+2, -980472.1, -1037159.5, 10946.29, -0.115625426, -0.5487633, -978431.8, 236667.61, 0.036017943, 10.001458, 10.000588 
2.1851516e+3, 1.8600751e+2, -963093.8, -1176144.4, -92013.05, -0.09470639, -0.38410386, -928856.75, 188232.02, 0.009796201, 10.001658, 9.998847 
2.1851599e+3, 1.9600995e+2, -945264.0, -1117462.1, -75806.75, 0.049727187, -0.04255007, -916647.25, 102426.41, 0.0020521113, 10.001122, 9.9988165 
2.1851665e+3, 2.0600861e+2, -823805.25, -979675.56, -103787.65, 0.09579952, -0.07558173, -771949.1, 149138.1, 0.00020967671, 10.001153, 9.999092 
2.1851718e+3, 2.160046e+2, -647885.2, -840639.44, -137408.08, 0.03615882, -0.41160342, -576424.5, 246696.84, 0.00000086887735, 10.001689, 9.9991045 
2.185179e+3, 2.2600323e+2, -632425.1, -849366.3, -63839.695, 0.039181177, -0.42603132, -615033.2, 110101.45, 0.0, 10.001402, 9.998517 
2.1851875e+3, 2.3600367e+2, -640303.7, -783987.3, -61375.5, 0.09043684, -0.25814697, -617656.4, 9477.81, 0.0, 10.000637, 9.998637 
2.185194e+3, 2.4600235e+2, -458524.03, -622419.9, -126356.055, 0.104180954, -0.27242133, -389868.78, 139275.36, 0.0, 10.001071, 9.998881 
2.1851993e+3, 2.5599968e+2, -188167.52, -453783.25, -129829.3, 0.06943463, -0.4511844, -135250.92, 295911.88, 0.0, 10.002323, 9.9987545 
2.185205e+3, 2.6599783e+2, -200788.38, -624836.94, -65203.38, 0.09392661, -0.41437456, -190988.9, 142192.97, 0.0, 10.002478, 9.996845 
2.185212e+3, 2.7599612e+2, -162669.84, -529081.06, -21338.854, 0.16811277, -0.28947857, -161431.31, 73774.05, 0.0, 10.001977, 9.997057 
2.1852188e+3, 2.859938e+2, 26623.172, -229653.31, 7845.0225, 0.21274737, -0.31392947, 26863.096, 164090.64, 0.0, 10.001885, 9.998499 
2.1852246e+3, 2.9599142e+2, 163001.64, -105109.08, -31120.426, 0.17238763, -0.43686077, 166566.48, 205812.34, 0.000000027227998, 10.002142, 9.998539 
2.1852288e+3, 3.0599123e+2, 247397.69, -170613.61, 717.25806, -0.11058555, -0.26340428, 247398.92, 247398.92, 0.0000044959556, 10.002897, 9.997432 
2.185236e+3, 3.1598613e+2, 425006.47, 63066.105, -47974.883, -0.11526606, -0.5635363, 431257.53, 431257.53, 0.000025056477, 10.003449, 9.998754 
2.1951167e+3, 1.4599954e+2, -1514172.8, -1575296.0, -373474.63, -0.2904846, -0.24966694, -1170011.5, 339162.78, 0.371045, 10.000803, 9.999824 
2.1951291e+3, 1.5599999e+2, -1311022.9, -1232061.3, 49910.434, 0.18167965, -0.37835157, -1207904.1, 203259.38, 0.22535217, 10.00017, 10.001553 
2.1951352e+3, 1.66e+2, -1381301.4, -1482925.0, 117513.66, -0.09049601, -0.398099, -1304084.8, 9076.257, 0.113554515, 10.000137, 9.998828 
2.1951458e+3, 1.7599891e+2, -1100505.9, -1275027.8, 62344.74, -0.093396306, -0.4091906, -1080522.5, 134649.53, 0.046104282, 10.001415, 9.998932 
2.1951526e+3, 1.8599844e+2, -921996.4, -1088219.4, -112675.52, -0.19643383, -0.38777283, -865096.1, 252082.0, 0.015073848, 10.0016575, 9.999456 
2.1951587e+3, 1.959982e+2, -920217.3, -1059329.6, -86302.375, -0.19721703, -0.37044567, -878930.5, 140251.63, 0.004138987, 10.001105, 9.999224 
2.195167e+3, 2.0599732e+2, -895807.8, -1120690.6, -89552.41, 0.012384232, -0.32110903, -864503.94, 56689.793, 0.00072646124, 10.001115, 9.998141 
2.1951763e+3, 2.1599613e+2, -714827.5, -953738.75, -116454.37, 0.2947283, -0.28756535, -667456.1, 155752.95, 0.000022642807, 10.00158, 9.998376 
2.1951824e+3, 2.2599524e+2, -619606.44, -781606.2, -97435.414, 0.20577836, -0.25574076, -573899.4, 151318.52, 0.000000000011542125, 10.00122, 9.999068 
2.1951865e+3, 2.3599438e+2, -617428.5, -717214.6, -74080.96, -0.09553243, -0.27584678, -578005.8, 49218.477, 0.0, 10.0005455, 9.999139 
2.1951936e+3, 2.4599257e+2, -488715.47, -627800.56, -86181.27, -0.06735786, -0.3659821, -447517.88, 81720.18, 0.0, 10.000836, 9.998951 
2.1952029e+3, 2.5599e+2, -197365.81, -437177.4, -81470.69, 0.19104716, -0.5446324, -172306.53, 258951.73, 0.0, 10.002175, 9.998936 
2.1952087e+3, 2.659898e+2, -149707.84, -448160.3, -92172.984, 0.1906532, -0.4238098, -123536.45, 209724.17, 0.0, 10.002194, 9.998182 
2.1952128e+3, 2.7599093e+2, -103556.89, -364426.88, -29697.578, 0.04195532, -0.15398628, -100218.82, 135034.72, 0.0, 10.001815, 9.998254 
2.1952188e+3, 2.8598863e+2, -54890.98, -343738.34, 5875.422, 0.0008449247, -0.20087494, -54771.52, 82504.79, 0.0, 10.001662, 9.997818 
2.1952257e+3, 2.95984e+2, 78840.56, -239182.16, -1084.3818, 0.056995243, -0.47391537, 78844.26, 118162.78, 0.000000020729713, 10.001967, 9.997702 
2.1952331e+3, 3.059828e+2, 139560.95, -268980.28, 27628.098, -0.0050038137, -0.33007127, 141420.86, 141420.86, 0.0000055230016, 10.002397, 9.996966 
2.1952388e+3, 3.1598037e+2, 331813.47, 63872.938, 82702.88, -0.22925545, -0.34919307, 355284.63, 355284.63, 0.000029811183, 10.002694, 9.99908 
2.2051167e+3, 1.4599104e+2, -1620003.6, -1606465.8, -206891.63, -0.29742894, -0.41452494, -1406232.4, 103023.4, 0.39437363, 9.999559, 9.999819 
2.2051297e+3, 1.5599206e+2, -1217798.4, -1266298.4, -71192.77, 0.14158148, -0.370668, -1166838.9, 244399.14, 0.24751917, 10.001466, 10.000669 
2.2051352e+3, 1.6599186e+2, -1405653.8, -1540717.1, -26564.127, -0.11080987, -0.35990402, -1400617.0, -87378.19, 0.13222682, 10.000142, 9.998441 
2.2051474e+3, 1.7599002e+2, -1326409.4, -1461304.6, 34597.543, 0.012558779, -0.3828181, -1318053.5, -102793.63, 0.059555795, 10.000082, 9.998328 
2.2051546e+3, 1.8598865e+2, -1070163.5, -1130403.4, -134076.55, -0.10430478, -0.4329865, -962865.3, 154408.48, 0.023171267, 10.0005045, 9.99973 
2.2051592e+3, 1.9598778e+2, -941760.0, -1036285.5, -146244.7, -0.24808875, -0.51140195, -835330.56, 183950.6, 0.008108057, 10.000811, 9.999539 
2.2051677e+3, 2.0598754e+2, -880742.44, -1112660.1, -75121.29, -0.03350711, -0.41111153, -858535.94, 62750.516, 0.0021629941, 10.001211, 9.998154 
2.2051787e+3, 2.1598773e+2, -652785.2, -924832.5, -52972.96, 0.34043664, -0.23861429, -642834.3, 180456.28, 0.00023583506, 10.002001, 9.998375 
2.2051845e+3, 2.2598663e+2, -519977.94, -725861.4, -66597.18, 0.2823261, -0.22837102, -500313.84, 224987.73, 0.0000019906881, 10.00187, 9.999139 
2.2051875e+3, 2.3598479e+2, -532813.3, -670574.0, -92351.336, -0.061403647, -0.35396162, -486484.0, 140832.13, 0.0, 10.0010805, 9.999216 
2.2051948e+3, 2.4598332e+2, -457419.66, -594190.0, -44192.867, -0.024134276, -0.41784996, -444382.84, 84943.836, 0.0, 10.0009575, 9.999131 
2.2052051e+3, 2.5598216e+2, -294313.3, -445677.06, -51421.54, 0.24414556, -0.48065558, -278496.97, 152837.4, 0.0, 10.001392, 9.9992285 
2.2052114e+3, 2.6598176e+2, -169194.5, -421320.72, -113083.12, 0.25203025, -0.4155572, -125906.79, 207431.2, 0.0, 10.001888, 9.998523 
2.2052154e+3, 2.759815e+2, 15875.447, -276266.13, -133742.64, 0.08728648, -0.3186902, 67854.57, 303197.34, 0.0, 10.002486, 9.998543 
2.2052215e+3, 2.8598e+2, 84630.54, -259173.81, -82905.4, 0.057346776, -0.30471486, 103578.21, 240936.06, 0.0, 10.002562, 9.99796 
2.2052282e+3, 2.959773e+2, 156828.11, -187450.8, -66165.18, 0.10025384, -0.3863106, 169106.19, 208490.06, 0.00000007580395, 10.002446, 9.9978285 
2.2052361e+3, 3.0597442e+2, 31265.12, -326437.2, 27201.635, 0.09935185, -0.42204997, 33321.855, 33321.855, 0.0000083740215, 10.00164, 9.996955 
2.2052419e+3, 3.1597418e+2, 68905.08, 55397.57, 41838.273, -0.052662745, -0.20410483, 104531.2, 104531.2, 0.000042885644, 10.000332, 10.00017 
2.2151218e+3, 1.4598362e+2, -1665842.6, -1634747.6, 381147.47, 0.19821511, -0.49690256, -1268830.6, 240491.9, 0.4221777, 9.99955, 9.999998 
2.2151291e+3, 1.5598276e+2, -1378530.0, -1624854.5, -88813.24, -0.06240062, -0.31158948, -1349847.9, 61481.023, 0.27423543, 10.001396, 9.997937 
2.2151345e+3, 1.6598183e+2, -1334367.3, -1387093.5, -70080.45, -0.2241808, -0.30020598, -1285855.3, 27482.713, 0.15564767, 10.000144, 9.999499 
2.2151487e+3, 1.7597954e+2, -1290006.9, -1381948.0, 44042.223, 0.111990884, -0.45231956, -1272314.1, -56952.445, 0.07778218, 10.000067, 9.998877 
2.2151573e+3, 1.859782e+2, -1075652.4, -1152562.1, -120277.8, 0.077114165, -0.505925, -987831.7, 129543.484, 0.035576556, 10.000549, 9.999564 
2.2151606e+3, 1.9597845e+2, -940437.8, -1018699.3, -130444.43, -0.1820652, -0.4700383, -843381.3, 175991.16, 0.0154146915, 10.000756, 9.999689 
2.215168e+3, 2.05979e+2, -824344.1, -978871.7, -52055.53, -0.1409929, -0.35730952, -808444.2, 112924.07, 0.005714695, 10.001141, 9.999106 
2.2151785e+3, 2.159792e+2, -619666.25, -828545.3, -21123.324, 0.10930864, -0.2689776, -617551.56, 205816.72, 0.0013616167, 10.001881, 9.999094 
2.2151856e+3, 2.259775e+2, -590988.9, -820696.3, -102789.87, 0.16665155, -0.32050768, -551709.1, 173676.16, 0.00013056793, 10.001645, 9.998598 
2.2151904e+3, 2.3597471e+2, -576211.06, -735029.4, -110360.89, 0.10521622, -0.49410802, -519659.38, 107752.12, 0.0000045921656, 10.000965, 9.998831 
2.2151972e+3, 2.4597438e+2, -479546.75, -575927.4, -38849.69, 0.10747384, -0.43958476, -465837.1, 63574.996, 0.000000030624218, 10.0007, 9.9993725 
2.2152059e+3, 2.559757e+2, -305842.0, -426089.56, -28767.078, 0.15863532, -0.2832508, -299314.34, 132081.17, 0.0, 10.001211, 9.999447 
2.2152126e+3, 2.659732e+2, -251454.73, -524282.34, -103543.766, 0.1771698, -0.40532959, -216608.4, 116810.125, 0.0, 10.001615, 9.997939 
2.2152193e+3, 2.7596793e+2, -52287.51, -363561.4, -106254.1, 0.20190151, -0.75600475, -19476.076, 215994.44, 0.0, 10.002264, 9.998043 
2.2152255e+3, 2.8596798e+2, 73479.72, -193626.23, -97516.266, 0.20802958, -0.5984772, 105292.45, 242763.98, 0.0, 10.002201, 9.99857 
2.2152317e+3, 2.9597077e+2, 172838.42, -110649.29, -60857.785, 0.1900059, -0.20337968, 185350.81, 224797.53, 0.00000027397763, 10.002277, 9.998424 
2.215237e+3, 3.059657e+2, 17889.777, -272556.2, -31257.955, 0.0066530188, -0.51643056, 21215.69, 21215.69, 0.000015050563, 10.001334, 9.997446 
2.2152424e+3, 3.1596673e+2, 41778.645, 163755.2, 52228.816, -0.07094769, -0.23714274, 183062.75, 183062.75, 0.00007034586, 9.999684, 10.0012 
2.2251192e+3, 1.4597172e+2, -1089726.6, -1124014.1, 286803.97, -0.26208472, -0.3200087, -819554.44, 689882.1, 0.45833316, 10.00385, 10.003018 
2.2251296e+3, 1.5596955e+2, -1597068.0, -1669181.0, -246137.23, -0.050143603, -0.46704555, -1384360.4, 27099.344, 0.30885017, 9.999486, 9.998562 
2.2251357e+3, 1.659716e+2, -1195998.4, -1251333.6, -72367.84, -0.14472517, -0.22135119, -1146189.6, 167250.88, 0.18666483, 10.00095, 10.000124 
2.2251494e+3, 1.7596948e+2, -1183655.1, -1245328.0, -15574.972, 0.15421711, -0.42864633, -1179945.0, 35516.234, 0.103338934, 10.000493, 9.999598 
2.2251579e+3, 1.8596864e+2, -1144197.1, -1165422.5, -114353.875, 0.1421839, -0.47845507, -1039964.56, 77504.92, 0.054786276, 9.999966, 9.999772 
2.2251618e+3, 1.9596954e+2, -915390.25, -978990.56, -113397.36, -0.1428221, -0.40114075, -829418.56, 190042.02, 0.028543482, 10.000786, 9.999958 
2.225169e+3, 2.0596994e+2, -810303.7, -912388.06, -48013.563, -0.1505671, -0.34816557, -791270.2, 130185.44, 0.013685946, 10.000996, 9.999628 
2.225179e+3, 2.159696e+2, -795717.44, -868451.3, -67288.055, 0.035930634, -0.3599107, -755597.56, 67859.62, 0.005262215, 10.000491, 9.999489 
2.2251862e+3, 2.2596799e+2, -718770.8, -930024.94, -134018.81, 0.13077834, -0.39751148, -653757.56, 71716.375, 0.001420654, 10.000952, 9.998188 
2.2251923e+3, 2.3596571e+2, -444077.4, -707647.25, -148942.31, 0.14958261, -0.48016238, -376987.8, 250510.97, 0.0002619265, 10.002022, 9.998516 
2.2251992e+3, 2.4596547e+2, -312317.78, -496138.3, -88921.836, 0.17115438, -0.40231782, -276342.97, 253157.27, 0.000035642544, 10.001833, 9.999387 
2.2252071e+3, 2.5596663e+2, -334524.9, -433529.94, -99277.98, 0.17848405, -0.26489842, -273092.25, 158393.3, 0.0000011567587, 10.000942, 9.999551 
2.2252138e+3, 2.6596418e+2, -385333.44, -520335.78, -106394.34, 0.20084141, -0.4182568, -326833.94, 6673.212, 0.0, 10.000404, 9.998548 
2.2252207e+3, 2.7595925e+2, -280017.63, -402273.94, -50575.734, 0.22832684, -0.78949463, -261807.55, -26253.879, 0.0, 10.000423, 9.998657 
2.2252274e+3, 2.8596008e+2, -95392.15, -268551.72, -5553.3145, 0.23039705, -0.59222376, -95214.234, 42332.72, 0.0, 10.000994, 9.998656 
2.2252339e+3, 2.9596338e+2, 168210.25, -105126.46, -34745.895, 0.16382402, -0.13594402, 172557.9, 212075.52, 0.00000073017384, 10.002223, 9.998486 
2.225239e+3, 3.059568e+2, 267936.38, -100556.73, -58919.457, -0.0056112665, -0.64356494, 277127.9, 277127.9, 0.00002755439, 10.002796, 9.9979515 
2.2252442e+3, 3.159565e+2, 453172.9, 295884.44, -44142.832, -0.024064224, -0.5028519, 464714.63, 464714.63, 0.000118261974, 10.002732, 10.00068 
2.2351307e+3, 1.5595314e+2, -1390131.8, -1194153.8, -178834.55, 0.062291946, -0.7404182, -1088222.1, 323401.38, 0.35698506, 9.999164, 10.002814 
2.2351392e+3, 1.6596098e+2, -1211357.6, -1262050.4, -48681.97, 0.03581493, -0.14364782, -1181818.9, 131729.25, 0.23053116, 10.00088, 10.0000925 
2.2351494e+3, 1.7595948e+2, -1153736.6, -1157587.0, -37435.19, 0.07432943, -0.33985972, -1118177.3, 97384.71, 0.14104874, 10.000388, 10.000316 
2.2351567e+3, 1.8595959e+2, -1110257.1, -1082550.9, -99572.336, -0.017657435, -0.3742117, -995872.56, 121687.53, 0.08532412, 9.999915, 10.000393 
2.2351624e+3, 1.9596088e+2, -893349.8, -914927.44, -74655.06, -0.20502165, -0.30987868, -828708.0, 190838.63, 0.05187056, 10.000723, 10.000452 
2.2351699e+3, 2.0596054e+2, -822901.7, -913572.9, -67684.625, -0.17225547, -0.3556984, -786772.4, 134774.17, 0.030293982, 10.000902, 9.999669 
2.2351794e+3, 2.1595885e+2, -808460.8, -869004.75, -75038.734, 0.036168955, -0.5101954, -757818.0, 65739.85, 0.015773455, 10.00038, 9.999541 
2.2351867e+3, 2.2595789e+2, -779418.75, -991149.4, -98327.984, 0.06576572, -0.4684152, -740799.25, -15229.703, 0.0069356123, 10.000685, 9.997888 
2.2351931e+3, 2.3595749e+2, -482194.8, -754038.06, -106725.94, -0.004375816, -0.34238043, -445301.2, 182279.61, 0.002541045, 10.001882, 9.998259 
2.2352e+3, 2.4595645e+2, -376242.28, -557046.5, -133776.22, 0.05723138, -0.3130487, -305186.6, 224405.56, 0.00075579167, 10.001538, 9.999103 
2.2352085e+3, 2.5595513e+2, -363614.22, -447125.88, -121527.8, 0.2072729, -0.41291982, -276868.84, 154733.13, 0.00014769337, 10.000742, 9.99955 
2.2352144e+3, 2.659547e+2, -341176.16, -336059.97, -124582.58, 0.18068141, -0.4410808, -214009.23, 119593.625, 0.000007045108, 10.0000305, 9.999978 
2.23522e+3, 2.7595493e+2, -211320.78, -218900.16, -39337.34, 0.08323873, -0.45745546, -175591.0, 60006.555, 0.00000000065814787, 10.0002575, 9.999984 
2.2352263e+3, 2.859555e+2, -183430.75, -368396.7, 16545.887, 0.0021927254, -0.324585, -181962.31, -44370.727, 0.0, 10.0006695, 9.998106 
2.2352336e+3, 2.9595515e+2, 63756.152, -232400.4, 18770.941, -0.087745205, -0.18184082, 64941.145, 104537.6, 0.0000012574419, 10.001866, 9.997764 
2.2352408e+3, 3.0594715e+2, 163427.52, -156843.72, -77021.69, -0.15707135, -0.7903159, 180987.58, 180987.58, 0.000044073433, 10.002152, 9.9978485 
2.2352481e+3, 3.15947e+2, 129873.94, -165969.94, 95056.65, 0.059832003, -0.62542105, 157783.36, 157783.36, 0.00018419352, 10.0019245, 9.99786 
2.2451282e+3, 1.5594855e+2, -1787201.1, -1554162.0, 245792.73, -0.022229921, -0.27721617, -1398669.0, 12992.754, 0.42759266, 9.997354, 10.000261 
2.2451408e+3, 1.6594875e+2, -1234800.6, -1231948.9, 9308.502, 0.17206427, -0.3340233, -1223957.6, 89706.92, 0.29616648, 10.000476, 10.000629 
2.2451487e+3, 1.759498e+2, -1187124.3, -1117658.6, 6645.803, 0.019441448, -0.34158102, -1117028.5, 98625.19, 0.19952731, 9.999837, 10.000949 
2.245156e+3, 1.8595076e+2, -1095126.4, -1062211.3, -13309.745, -0.06282528, -0.333822, -1057502.8, 60141.66, 0.13536815, 9.999934, 10.000538 
2.2451636e+3, 1.9595152e+2, -903210.44, -915160.56, -36661.207, -0.14030546, -0.32884744, -872040.56, 147596.81, 0.09319166, 10.00065, 10.000536 
2.2451718e+3, 2.0595108e+2, -811005.5, -908732.4, -59735.434, -0.06619666, -0.39273518, -782694.1, 138944.0, 0.06306426, 10.000963, 9.999718 
2.2451809e+3, 2.1594928e+2, -726090.0, -828598.06, -85548.83, 0.12123205, -0.5547353, -677616.5, 146032.81, 0.0400799, 10.000929, 9.999592 
2.245188e+3, 2.2594847e+2, -731363.56, -946396.2, -46871.695, 0.10101432, -0.50703174, -721590.9, 4068.8347, 0.023131557, 10.0009, 9.998105 
2.2451936e+3, 2.359486e+2, -645583.56, -810450.3, -49977.016, -0.06512038, -0.35081995, -631616.94, -3949.9463, 0.011994159, 10.000651, 9.998468 
2.2452004e+3, 2.4594755e+2, -551327.75, -644699.7, -74100.95, 0.017146004, -0.32834437, -510432.16, 19247.26, 0.0054928027, 10.000324, 9.999091 
2.2452089e+3, 2.559461e+2, -465369.3, -482485.4, -59135.176, 0.24321452, -0.44785312, -414176.13, 17515.256, 0.002050329, 9.9999895, 9.999666 
2.2452146e+3, 2.659463e+2, -340212.75, -342110.44, -74328.75, 0.22022156, -0.41451523, -266826.78, 66860.57, 0.0004876709, 10.00004, 9.999946 
2.24522e+3, 2.7594742e+2, -85182.7, -150040.08, -93201.11, 0.029163623, -0.33583373, -18929.748, 216744.38, 0.000047167257, 10.001076, 10.000073 
2.2452271e+3, 2.8594744e+2, -127921.96, -287863.06, -50707.867, 0.0057193725, -0.2894586, -113200.5, 24472.121, 0.00000034188096, 10.000812, 9.998593 
2.2452359e+3, 2.9594576e+2, -111076.16, -275019.78, -1192.7716, 0.02735401, -0.3056041, -111067.48, -71378.8, 0.0000013302117, 10.000458, 9.998169 
2.2452441e+3, 3.0594042e+2, 82407.88, -146173.56, 17142.535, 0.026074665, -0.71030957, 83686.34, 83686.34, 0.0000584347, 10.001336, 9.998323 
2.245251e+3, 3.1594118e+2, 169880.38, -180499.9, 58138.324, 0.1574019, -0.462538, 179275.31, 179275.31, 0.00025945, 10.002248, 9.997609 
2.2551411e+3, 1.6593502e+2, -1275444.0, -1227124.4, -30256.361, 0.061483815, -0.7557873, -1212565.4, 101223.664, 0.39765337, 9.999905, 10.001088 
2.255148e+3, 1.7594028e+2, -1169490.8, -1074936.0, -19986.797, -0.095342495, -0.43243793, -1070884.9, 144853.4, 0.29298013, 9.999746, 10.001523 
2.2551562e+3, 1.859419e+2, -1157739.8, -1144783.5, -15433.148, -0.104633674, -0.3589499, -1134524.0, -16799.252, 0.21888196, 9.999745, 9.99999 
2.2551656e+3, 1.9594109e+2, -965031.06, -990514.2, -16413.705, -0.044191256, -0.47310558, -956993.8, 62742.926, 0.16615056, 10.000436, 10.000077 
2.255174e+3, 2.0594108e+2, -843104.44, -918374.4, -61420.13, 0.025799118, -0.48507193, -808705.94, 113029.0, 0.12546477, 10.000753, 9.999752 
2.2551826e+3, 2.1594052e+2, -744845.2, -834159.8, -77649.15, 0.18025626, -0.52857786, -699927.56, 123807.25, 0.0914258, 10.000822, 9.999603 
2.2551893e+3, 2.2593968e+2, -731113.0, -891257.56, -57508.06, 0.11295302, -0.51203763, -712601.6, 13143.034, 0.062582165, 10.00067, 9.998597 
2.255194e+3, 2.3593906e+2, -631117.2, -741109.6, -52639.207, -0.09869834, -0.49454516, -609985.44, 17771.984, 0.039919913, 10.000465, 9.999043 
2.2552001e+3, 2.4593873e+2, -624366.6, -668791.94, -102649.76, -0.07635446, -0.42723837, -541553.7, -11791.263, 0.023601582, 9.999796, 9.999169 
2.2552088e+3, 2.559392e+2, -486630.47, -475166.53, -63886.664, 0.18771206, -0.38978347, -416755.22, 15001.535, 0.012405956, 9.999782, 9.999806 
2.2552146e+3, 2.6593846e+2, -498120.38, -590116.56, -67457.305, 0.18673836, -0.3623327, -462470.97, -128706.25, 0.005154125, 9.999718, 9.998391 
2.2552204e+3, 2.7593702e+2, -211786.6, -328659.38, -53498.094, -0.047433935, -0.42031235, -190996.36, 44784.633, 0.0013586987, 10.00073, 9.999004 
2.2552288e+3, 2.859362e+2, -146330.39, -175460.11, -98302.68, 0.05970337, -0.4691292, -61519.438, 76268.39, 0.00015517221, 10.00021, 9.999633 
2.25524e+3, 2.9593536e+2, -74863.42, -107403.76, 6707.5044, 0.38614276, -0.50662506, -73535.04, -33741.965, 0.0000026982873, 10.000135, 9.999435 
2.2552486e+3, 3.0593637e+2, 67752.1, -65476.48, 51601.848, 0.29079154, -0.40277782, 85400.586, 85400.586, 0.000065484004, 10.0009, 9.99907 
2.2552507e+3, 3.1593585e+2, 201261.33, 32515.654, 51345.195, -0.14477327, -0.3217231, 215656.42, 215656.42, 0.00034262822, 10.001666, 9.999341 
2.2651426e+3, 1.7592296e+2, -1167503.4, -955411.1, -27902.072, -0.5300267, -1.045503, -951801.9, 264102.78, 0.44342524, 9.998316, 10.004194 
2.2651608e+3, 1.8593714e+2, -956779.25, -1081514.6, -32584.906, 0.28207633, 0.029549312, -948780.0, 168988.88, 0.3585124, 10.001857, 9.999578 
2.2651675e+3, 1.9593287e+2, -1158336.9, -1099131.1, -83130.5, 0.18733805, -0.37190163, -1040489.94, -20673.494, 0.29413474, 9.999122, 9.999885 
2.2651744e+3, 2.0593135e+2, -1045408.94, -1013289.2, -37050.14, 0.052634463, -0.53271145, -988967.94, -67136.61, 0.24160613, 9.999191, 9.999841 
2.265181e+3, 2.159317e+2, -744500.8, -842056.6, -78992.16, -0.084069364, -0.47248507, -700439.94, 123384.16, 0.1940874, 10.000904, 9.999557 
2.265188e+3, 2.2593138e+2, -689160.3, -826860.3, -111435.69, -0.082330555, -0.43197396, -627020.9, 98807.58, 0.14888066, 10.000801, 9.999024 
2.2651951e+3, 2.3593071e+2, -817445.9, -782567.4, -151969.19, 0.03229559, -0.4454816, -647040.1, -19200.242, 0.108788945, 9.998965, 9.999493 
2.2652009e+3, 2.4593093e+2, -649315.6, -600365.5, -98364.18, 0.06989004, -0.37881294, -523477.2, 6361.0933, 0.07581198, 9.999181, 9.999976 
2.2652073e+3, 2.559323e+2, -303707.16, -344579.44, -41718.5, 0.02824653, -0.3195423, -277688.25, 154134.36, 0.048806984, 10.000774, 10.000323 
2.2652128e+3, 2.6593086e+2, -385063.1, -652004.0, -28087.207, -0.010687292, -0.31833297, -382139.8, -48301.004, 0.026684597, 10.0009165, 9.997415 
2.2652212e+3, 2.7592802e+2, -226222.61, -402341.72, 12005.248, -0.03768094, -0.44471875, -225408.03, 10463.768, 0.010897145, 10.000844, 9.998474 
2.2652297e+3, 2.859274e+2, -182028.2, -158360.44, -58584.543, 0.18560652, -0.46530786, -110426.52, 27450.777, 0.002788968, 9.9997835, 9.999974 
2.2652417e+3, 2.9592788e+2, 102448.09, 17421.629, 27279.352, 0.4856814, -0.39336088, 110447.61, 150316.38, 0.0003034348, 10.001192, 9.999788 
2.2652505e+3, 3.0592957e+2, 182196.64, 33879.43, 27995.844, 0.35950544, -0.2978164, 187305.1, 187305.1, 0.000074942734, 10.001555, 9.999432 
2.265254e+3, 3.1592634e+2, 105431.18, -2525.6736, -77571.555, 0.025216287, -0.3780503, 145956.81, 145956.81, 0.00045627946, 10.000862, 9.999569 
2.2751741e+3, 2.0592304e+2, -950402.75, -1050876.9, 30665.19, 0.045994975, -0.3935269, -941783.06, -19867.404, 0.4526298, 10.00022, 9.99905 
2.2751796e+3, 2.1592243e+2, -582125.56, -760740.75, 16645.89, -0.31049985, -0.41622156, -580587.5, 243333.06, 0.38963944, 10.003043, 9.999275 
2.275189e+3, 2.2592248e+2, -600937.25, -771520.56, -87518.08, -0.11141825, -0.35329005, -564023.8, 161897.45, 0.32267725, 10.001807, 9.998936 
2.275198e+3, 2.3592173e+2, -829503.2, -768541.1, -148354.81, 0.4004147, -0.4056506, -647568.4, -19636.602, 0.25840095, 9.998817, 9.999615 
2.2752029e+3, 2.4592261e+2, -692764.5, -547552.2, -23253.25, 0.26584184, -0.30999416, -543919.44, -13997.95, 0.20062341, 9.998592, 10.000589 
2.2752051e+3, 2.5592524e+2, -337839.84, -276043.66, 21020.13, -0.30202317, -0.2751993, -269571.47, 162319.34, 0.14660953, 10.000197, 10.001184 
2.2752094e+3, 2.65924e+2, -654255.44, -912849.75, -69046.71, -0.47846842, -0.23307377, -636974.25, -303069.47, 0.09444842, 9.999672, 9.996188 
2.2752224e+3, 2.7592084e+2, -303186.3, -446279.8, 3843.582, -0.02636547, -0.37822282, -303083.13, -67140.54, 0.04983968, 10.000381, 9.998357 
2.2752303e+3, 2.8592098e+2, -336142.06, -291552.38, -108804.61, 0.22308333, -0.2943612, -202781.9, -64839.957, 0.019500945, 9.9990225, 9.999399 
2.27524e+3, 2.9592356e+2, -3014.1282, -94069.18, 80641.13, 0.18288022, 0.010194774, 44063.68, 83977.76, 0.004786881, 10.000776, 9.999195 
2.2752485e+3, 3.059209e+2, 35721.63, -73114.73, -57330.1, -0.010098941, -0.31569582, 60348.24, 60348.24, 0.0007184054, 10.000789, 9.999028 
2.2752576e+3, 3.1591463e+2, -177992.92, -342356.44, 79793.22, 0.2663971, -0.5836727, -145628.63, -145628.63, 0.0007782504, 9.999989, 9.997562 
2.2852051e+3, 2.4592382e+2, -125331.3, -621877.7, 160159.34, 0.12015327, -0.48834363, -78154.67, 451740.94, 0.45869297, 10.006343, 9.996997 
2.2852106e+3, 2.5592068e+2, -870412.56, -1262747.8, 52774.76, 0.26192415, -0.22733146, -863437.6, -431508.94, 0.36361384, 9.999608, 9.994626 
2.2852173e+3, 2.6590687e+2, -632523.94, -755730.94, -6143.0645, 0.3220712, -1.1875484, -632218.44, -298149.94, 0.26167566, 9.999002, 9.997657 
2.2852278e+3, 2.75913e+2, 127973.445, -179807.42, 161705.06, 0.33245984, -0.49310857, 197311.14, 433324.78, 0.1640845, 10.003524, 9.998872 
2.2852315e+3, 2.8591493e+2, 112293.03, -204526.6, -48955.223, 0.24847272, -0.14540194, 119685.16, 257681.95, 0.0825175, 10.002746, 9.998261 
2.2852424e+3, 2.9591388e+2, 465657.63, 82956.32, 251957.22, 0.1821865, -0.15382983, 590688.9, 630695.2, 0.030766618, 10.004217, 9.998843 
2.2852542e+3, 3.0590934e+2, 544991.1, 60613.34, -19369.44, 0.27126843, -0.59226125, 545764.44, 545764.44, 0.009050262, 10.004685, 9.998113 
2.2852588e+3, 3.1590652e+2, 228797.64, -20588.172, -29498.512, 0.26572633, -0.42710784, 232239.38, 232239.38, 0.0039634435, 10.002183, 9.9987135 
2.2952244e+3, 2.7590513e+2, 538.7636, -106132.44, 41279.957, -0.37344348, -0.73372453, 14647.369, 250727.16, 0.434636, 10.002686, 10.00029 
2.2952305e+3, 2.859103e+2, -1017659.8, -1141258.1, -348112.4, -0.18587455, 0.0019745766, -725903.6, -587872.25, 0.25417686, 9.99656, 9.994742 
2.2952485e+3, 2.9590192e+2, 228982.17, -43555.15, 303132.9, 0.31970787, -0.769401, 425066.8, 465183.2, 0.1217568, 10.003008, 9.998537 
2.295266e+3, 3.058968e+2, -367040.06, -720106.3, -145129.19, 0.8613689, -1.1182208, -315042.2, -315042.2, 0.0539192, 9.999998, 9.994905 
2.2952595e+3, 3.1590042e+2, 218506.34, 296027.28, -209395.64, 0.015176153, -0.22834428, 470219.63, 470219.63, 0.031158585, 10.000986, 10.001392 
2.3052527e+3, 2.958831e+2, -1025289.9, 428387.47, 440323.56, 0.79148096, -1.068929, 551360.1, 591655.2, 0.3606443, 9.987754, 10.011664 
2.3052604e+3, 3.059112e+2, 2025680.4, 1451111.5, -432175.4, -0.9251308, 0.6120003, 2257344.8, 2257344.8, 0.21348122, 10.014913, 10.005514 
2.305262e+3, 3.1588835e+2, -1014107.8, -933825.75, 512289.72, 0.4239806, -1.2286549, -460106.8, -460106.8, 0.16440405, 9.994455, 9.99667 
2.3525451e+3, 2.7604067e+2, -136105.39, -330151.0, 397953.38, 0.7046913, -0.844994, 176481.75, 411293.25, 0.44910976, 10.0019, 9.99857 
2.3521553e+3, 2.8605193e+2, 240838.47, -416920.4, -451107.75, -1.0260428, 1.0892221, 470224.1, 606927.06, 0.35174698, 10.005654, 9.99539 
2.3518254e+3, 2.9604387e+2, -501867.5, 76654.23, 553545.4, 1.5839142, 0.43780926, 411960.66, 450747.88, 0.2743113, 9.995233, 10.003649 
2.3514485e+3, 3.0602196e+2, -685479.44, 624468.2, -716610.44, -1.5467635, -1.3462344, 940329.7, 940329.7, 0.21971558, 9.991857, 10.0098715 
2.3661223e+3, 1.7648809e+2, -2391440.0, -1556649.9, 240424.39, -0.055986464, 1.0439962, -1492357.8, -281896.3, 0.43640727, 9.99038, 10.001614 
2.3657636e+3, 1.8646571e+2, -892109.8, -1096757.5, 43983.6, 0.080390476, -0.48190978, -883057.1, 229621.2, 0.3775988, 10.00266, 9.998185 
2.3653945e+3, 1.9646837e+2, -847262.25, -1032418.5, 22338.824, -0.38800964, 0.46663776, -844605.25, 170046.61, 0.33353588, 10.00183, 9.998329 
2.3650339e+3, 2.0646736e+2, -67591.1, -554894.5, -137691.47, -0.48845258, 1.1525509, -31376.592, 885284.9, 0.30097756, 10.008196, 9.998889 
2.364676e+3, 2.1645135e+2, -1944710.3, -1414424.9, 102071.555, -0.27490124, 0.21936889, -1395456.3, -576638.2, 0.27814138, 9.991844, 9.999267 
2.364325e+3, 2.2644718e+2, -1626459.5, -1170608.0, -66240.52, 0.75762755, 0.47799304, -1161177.5, -440314.0, 0.26103863, 9.993293, 9.999513 
2.3639534e+3, 2.3644109e+2, -1905221.9, -1104482.9, -332178.0, -0.27070737, 0.42184538, -984623.7, -361692.06, 0.24561478, 9.990013, 10.000916 
2.3635955e+3, 2.4644339e+2, -1801271.4, -1006578.5, 226317.52, -0.36398482, 1.1565012, -946646.25, -421742.13, 0.23008043, 9.989983, 10.00096 
2.363253e+3, 2.5643447e+2, -1240654.6, -579093.4, 459271.13, 0.4513745, 0.79340935, -343883.03, 83094.53, 0.20982568, 9.992631, 10.002094 
2.3628934e+3, 2.6642284e+2, -229400.1, -202484.66, -107323.695, 0.56159174, 0.03175154, -107778.22, 221302.86, 0.17455374, 9.999585, 10.000824 
2.3625337e+3, 2.7641284e+2, -926639.56, -1415127.4, 71331.586, 0.08936114, -0.10488166, -916436.5, -685265.2, 0.124720834, 9.9984045, 9.99206 
2.3621657e+3, 2.864015e+2, 202271.94, -532031.1, -634363.3, 0.09753873, 0.05917696, 568071.4, 701358.1, 0.08170111, 10.004454, 9.994698 
2.3618035e+3, 2.963955e+2, -111861.484, -128275.11, 108797.72, 0.23394234, 0.081980325, -10961.494, 24396.111, 0.054969992, 9.999585, 9.999337 
2.3614533e+3, 3.0639657e+2, -295730.47, -297662.03, -33243.766, 0.21353903, 1.1435612, -263438.47, -263438.47, 0.039179284, 9.998989, 9.9985485 
2.3768425e+3, 1.5684873e+2, -1022797.4, -1462120.4, 363855.7, 0.73895127, -0.15699126, -817438.75, 585471.3, 0.40916014, 10.005273, 9.9971485 
2.376467e+3, 1.6684687e+2, -510709.88, -907116.1, 84526.6, -0.96657056, 0.43079913, -493438.6, 811496.44, 0.31914034, 10.007471, 9.999782 
2.3761204e+3, 1.7684393e+2, -1152757.0, -1188509.0, -16402.285, 0.34816495, 0.74021465, -1146372.3, 60593.37, 0.25440004, 10.000012, 9.999608 
2.3757625e+3, 1.8683451e+2, -1170740.5, -1136694.6, -95341.27, 0.6728805, 0.4927256, -1056868.5, 52189.766, 0.20803122, 9.999129, 9.9997 
2.3753984e+3, 1.9682597e+2, -815960.25, -963144.0, -48804.973, 0.48466063, 0.28575167, -801247.6, 209894.53, 0.17323056, 10.001251, 9.999285 
2.3750362e+3, 2.0681942e+2, -703338.8, -915984.0, 1610.3451, 0.20203896, 0.3806565, -703326.6, 209883.08, 0.14628343, 10.001601, 9.998671 
2.374675e+3, 2.1681361e+2, -524754.44, -716050.7, -40734.066, 0.09490908, 0.5274595, -516441.88, 298829.25, 0.1255341, 10.001877, 9.999341 
2.3743188e+3, 2.2680634e+2, -75967.0, -410769.66, 59127.668, 0.36668202, 0.47444862, -65831.61, 651512.6, 0.10829949, 10.004393, 9.999695 
2.3739631e+3, 2.3679641e+2, 496460.47, -57159.758, 12739.603, 0.6353802, 0.16944382, 496753.47, 1116196.0, 0.09199208, 10.00778, 9.999951 
2.3736015e+3, 2.4679054e+2, 450664.4, 77591.516, -65474.04, 0.41376844, 0.14016865, 461821.38, 983318.0, 0.07586676, 10.006034, 10.001021 
2.373243e+3, 2.567863e+2, -281356.78, -488590.75, -132473.47, 0.09438578, 0.37493712, -216790.23, 206741.98, 0.059159193, 10.001159, 9.998427 
2.3728833e+3, 2.6678014e+2, -106376.83, -263952.9, -345384.16, 0.17627409, 0.44596526, 169091.8, 494682.78, 0.040411934, 10.00121, 9.9993515 
2.3725295e+3, 2.767711e+2, -406119.22, -763809.44, 54681.617, 0.34858826, 0.34974048, -397946.53, -170266.27, 0.021717625, 10.000444, 9.99543 
2.3721631e+3, 2.8676158e+2, 36776.297, -397530.8, -350365.94, 0.14196476, 0.46153587, 231826.52, 361602.34, 0.00948756, 10.002489, 9.996218 
2.3717971e+3, 2.967542e+2, 389119.3, 179961.38, 174377.94, -0.085687004, 0.39436588, 487873.63, 519726.06, 0.004338411, 10.003016, 9.999548 
2.371448e+3, 3.0674717e+2, 67489.35, -184666.97, 116542.31, 0.17664999, 0.6751827, 113102.234, 113102.234, 0.0025596083, 10.001719, 9.997655 
2.3871897e+3, 1.472237e+2, -1110141.8, -1788315.6, 79385.375, 0.5257606, 0.01991965, -1100973.0, 396254.13, 0.38967893, 10.006556, 9.994249 
2.3868328e+3, 1.5721354e+2, -1697665.0, -2107359.5, 89117.414, 0.07224196, 0.13613169, -1679119.6, -279781.2, 0.2783623, 9.999889, 9.994694 
2.3864715e+3, 1.6720478e+2, -1529917.1, -1377279.0, -49232.273, -0.12720452, 0.1207947, -1362777.4, -61350.56, 0.19862524, 9.997904, 9.999884 
2.3861074e+3, 1.7719983e+2, -1412683.1, -1381317.0, -27287.176, -0.288172, 0.24065542, -1365527.1, -162052.69, 0.1461588, 9.998439, 9.998985 
2.3857461e+3, 1.871924e+2, -1169601.5, -1280762.0, 57211.613, -0.322403, 0.29227915, -1145417.5, -39869.563, 0.11113541, 9.999774, 9.998334 
2.3853873e+3, 1.9718257e+2, -886707.56, -1089496.3, -31160.145, -0.18072721, 0.07096329, -882027.56, 125617.92, 0.08556882, 10.001001, 9.998454 
2.3850287e+3, 2.0717695e+2, -796449.44, -884942.44, 4416.692, -0.054404393, 0.22581956, -796229.56, 113473.53, 0.065839775, 10.000473, 9.999405 
2.3846684e+3, 2.1717289e+2, -882102.25, -924636.0, 34426.906, -0.0724853, 0.49779266, -862903.2, -51156.477, 0.050802168, 9.999335, 9.999024 
2.384312e+3, 2.2716719e+2, -747609.56, -759100.8, 143235.2, 0.034309994, 0.61862636, -610004.75, 103801.12, 0.038884565, 9.999433, 9.999424 
2.383959e+3, 2.3716003e+2, -680044.0, -831952.7, -22863.094, 0.30805477, 0.64576626, -676677.56, -60799.37, 0.028499383, 9.999883, 9.998049 
2.3835969e+3, 2.4715047e+2, -515439.8, -641941.2, -147733.5, 0.20179528, 0.45773286, -417986.3, 99985.016, 0.019239577, 10.0001135, 9.9985485 
2.3832355e+3, 2.571385e+2, -836908.2, -954573.2, -6646.0283, -0.062690146, 0.15100938, -836534.0, -416446.9, 0.011432521, 9.998208, 9.996617 
2.3828779e+3, 2.6713416e+2, -266547.66, -93037.61, -84592.85, 0.2036968, 0.37299073, -58621.742, 263510.6, 0.005416997, 9.999121, 10.001414 
2.3825252e+3, 2.771316e+2, -535832.2, -408660.72, 120244.89, 0.54155415, 0.6174908, -336224.47, -112062.13, 0.001679893, 9.997773, 9.999165 
2.3821574e+3, 2.8712317e+2, -91075.98, -251462.17, -173919.2, 0.010600901, 0.59136224, 20248.084, 146494.56, 0.00032890253, 10.000678, 9.998122 
2.3817919e+3, 2.971181e+2, -1750.6208, -141084.73, 135238.47, -0.33041078, 0.67869556, 80710.37, 109006.06, 0.000101577105, 10.00076, 9.998531 
2.3814426e+3, 3.0710223e+2, -305105.66, -336996.16, 175233.23, 0.001856051, 0.12796037, -145093.69, -145093.69, 0.00014331771, 9.998931, 9.998034 
2.3975408e+3, 1.3758363e+2, -1544165.3, -1207582.4, 135681.66, -0.62286466, 0.5141783, -1159699.1, 432022.22, 0.4278238, 9.997449, 10.005197 
2.3971878e+3, 1.4758217e+2, -890236.25, -1129977.6, -139800.73, 0.26808313, 0.677805, -825951.5, 667786.44, 0.2998544, 10.005003, 10.000646 
2.396823e+3, 1.5757775e+2, -1361190.6, -1376023.4, -56758.51, -0.31155464, 0.82679766, -1311366.0, 84418.4, 0.19614406, 9.999736, 9.999895 
2.3964629e+3, 1.6757104e+2, -1333370.0, -1152793.5, -73240.13, -0.19671756, 0.70331055, -1126823.0, 171021.48, 0.12585048, 9.998502, 10.001362 
2.3961042e+3, 1.7756346e+2, -1283228.3, -1239661.4, -17291.951, 0.15155311, 0.45142722, -1233632.4, -33722.184, 0.083471425, 9.998923, 9.999755 
2.3957446e+3, 1.8755351e+2, -1186345.6, -1463844.1, 92277.375, 0.15689361, 0.30680484, -1158462.1, -56454.258, 0.057587944, 10.0003605, 9.99682 
2.395385e+3, 1.9754262e+2, -810179.56, -1141072.8, 15333.051, 0.048532255, 0.14568974, -809470.56, 194647.13, 0.03970386, 10.001866, 9.997675 
2.3950244e+3, 2.0753646e+2, -599853.06, -638043.56, -53733.957, 0.037012964, 0.18768612, -561922.3, 344253.22, 0.026570952, 10.001169, 10.000788 
2.3946631e+3, 2.1753186e+2, -783142.5, -831077.1, 44993.676, 0.04317741, 0.31197983, -756130.75, 52086.133, 0.017417854, 9.999842, 9.999409 
2.3943062e+3, 2.2752471e+2, -837483.3, -1104578.3, 151351.78, 0.083493546, 0.44800273, -769183.56, -58885.43, 0.011141793, 10.000113, 9.99671 
2.3939517e+3, 2.3751554e+2, -605662.1, -949933.9, -7118.062, 0.15178749, 0.5393217, -605515.0, 6888.8823, 0.0065593217, 10.00107, 9.996633 
2.39359e+3, 2.4750893e+2, -278872.38, -317125.7, -171496.34, 0.10706847, 0.5867354, -125439.41, 389032.53, 0.0032030866, 10.000841, 10.000401 
2.3932293e+3, 2.5750276e+2, -545727.7, -552231.0, 51192.695, 0.04666558, 0.6536251, -497683.47, -81152.77, 0.0011282732, 9.999108, 9.998901 
2.3928714e+3, 2.674976e+2, -378715.56, -101680.78, 41715.305, 0.2952546, 0.7084846, -95535.69, 223043.11, 0.00023273825, 9.998215, 10.001751 
2.3925158e+3, 2.7749202e+2, -609536.4, -231007.11, 183673.56, 0.5219681, 0.59232986, -156534.98, 64096.008, 0.000018051116, 9.99639, 10.000994 
2.3921506e+3, 2.8748375e+2, -382543.53, -350996.72, 36133.844, 0.030942045, 0.49202698, -327343.53, -204628.2, 0.000004039042, 9.998525, 9.998431 
2.3917888e+3, 2.9748082e+2, 81283.85, -162191.34, 193058.23, -0.11876873, 0.8846884, 187781.94, 212531.45, 0.00001362104, 10.001517, 9.998022 
2.391437e+3, 3.074671e+2, 97433.555, 212054.14, -38323.645, 0.17678632, 0.4946385, 223687.1, 223687.1, 0.000054133918, 10.000108, 10.001278 
2.4078996e+3, 1.2795569e+2, -1645940.4, -2229240.3, 6594.6504, 0.13975455, 0.21942192, -1645865.9, 40202.574, 0.49043465, 10.002914, 9.994126 
2.4075429e+3, 1.379451e+2, -1686714.5, -2103088.5, 201287.06, 0.18045309, 0.3138682, -1605318.5, -17143.729, 0.36336103, 10.000922, 9.995495 
2.4071811e+3, 1.4793938e+2, -1438733.6, -1356160.8, 59245.508, 0.052189823, 0.45825127, -1325235.0, 165000.23, 0.24041095, 9.999543, 10.000846 
2.4068159e+3, 1.5793575e+2, -1587032.9, -1406418.3, -42826.516, -0.27450845, 0.6468921, -1396778.0, -4503.4717, 0.14389461, 9.99791, 10.000416 
2.4064563e+3, 1.6793022e+2, -1338032.0, -1164051.4, -41040.137, -0.08469066, 0.63734245, -1154856.5, 139467.16, 0.08188297, 9.998603, 10.001157 
2.4060991e+3, 1.7792295e+2, -1196947.1, -1210529.6, -81872.63, 0.34181574, 0.44380906, -1121584.6, 74801.95, 0.047678713, 9.999588, 9.999672 
2.4057397e+3, 1.879138e+2, -1302376.8, -1434709.6, 77910.68, 0.3179184, 0.32166597, -1266327.4, -167851.13, 0.028905774, 9.9992485, 9.997534 
2.4053794e+3, 1.9790438e+2, -1357639.4, -1407885.1, 100298.0, 0.1289296, 0.254809, -1279365.8, -278794.06, 0.017015342, 9.998102, 9.997657 
2.4050185e+3, 2.0789738e+2, -862003.8, -814293.1, -12338.112, 0.063471116, 0.25425085, -811291.3, 91346.26, 0.00915297, 9.999592, 10.000294 
2.4046579e+3, 2.1789114e+2, -627699.2, -850848.2, -58755.43, 0.114358746, 0.26502016, -613174.25, 191520.55, 0.0045936005, 10.001384, 9.99853 
2.4043003e+3, 2.2788331e+2, -788691.6, -1154811.3, 148374.13, 0.0715514, 0.39197838, -736112.4, -29328.678, 0.0022051786, 10.000794, 9.996033 
2.4039441e+3, 2.3787352e+2, -925516.6, -1142410.5, 149470.17, -0.014486854, 0.48315305, -849296.06, -240398.48, 0.0009056362, 9.999072, 9.9962845 
2.4035835e+3, 2.4786855e+2, -274167.5, -207587.7, -71287.914, 0.020223862, 0.64997447, -162199.88, 348751.28, 0.00023937336, 10.000499, 10.001267 
2.4032238e+3, 2.5786504e+2, -250361.45, -350791.13, -37287.355, 0.13259323, 0.8634687, -238031.3, 174953.7, 0.000025130046, 10.0009, 9.999434 
2.4028638e+3, 2.6785928e+2, 27802.424, 35828.37, -122603.95, 0.24257827, 0.8756903, 154485.02, 469523.2, 0.00000030344088, 10.001321, 10.001179 
2.4025048e+3, 2.7785265e+2, -173735.33, 9833.75, -98705.03, 0.29045966, 0.62964046, 52834.54, 269933.38, 0.000000006555133, 9.999238, 10.001313 
2.4021445e+3, 2.8784555e+2, -70251.47, -96053.15, -28358.002, 0.1231491, 0.51947755, -51997.73, 67175.3, 0.00000087941476, 10.000245, 9.999356 
2.4017869e+3, 2.97842e+2, -251486.58, -447433.3, 124821.16, 0.08795796, 0.8721616, -190780.7, -169565.56, 0.0000072209577, 9.999807, 9.996889 
2.4014312e+3, 3.0783314e+2, 214634.34, 387639.56, -112645.31, 0.08216941, 0.90990376, 443163.94, 443163.94, 0.00003484927, 10.000427, 10.002286 
2.4178933e+3, 1.2831475e+2, -1458587.8, -1288789.4, -30070.547, -0.122935526, 0.6406517, -1283621.4, 398934.44, 0.44509998, 10.000294, 10.004143 
2.4175332e+3, 1.3830565e+2, -1475716.4, -1426948.9, 85035.07, -0.3039424, 0.009287892, -1362870.6, 221759.84, 0.31930807, 10.000005, 10.001138 
2.4171722e+3, 1.4829859e+2, -1610983.3, -1720256.4, -23220.277, -0.18846042, 0.02071031, -1606253.6, -119551.47, 0.20041417, 9.999608, 9.998035 
2.4168098e+3, 1.5829162e+2, -1612045.5, -1650228.3, -51112.58, -0.08658176, 0.15226951, -1576575.3, -187797.66, 0.110025235, 9.998755, 9.9983225 
2.4164502e+3, 1.6828547e+2, -1287454.8, -1248342.8, -3730.308, 0.05059282, 0.21242645, -1247990.1, 42846.85, 0.054970514, 9.999456, 10.000085 
2.4160916e+3, 1.7827916e+2, -1105659.3, -1175666.6, -45324.84, 0.20431097, 0.21115197, -1083395.1, 109500.2, 0.027314784, 10.00025, 9.999579 
2.415731e+3, 1.8827312e+2, -1087620.4, -1102285.5, 28389.582, 0.11361549, 0.2685696, -1065631.6, 29322.707, 0.013986388, 9.999705, 9.999614 
2.4153699e+3, 1.9826663e+2, -1215920.6, -1252625.0, 101597.8, -0.076859444, 0.3233546, -1131030.8, -134011.66, 0.006556314, 9.998662, 9.99846 
2.4150115e+3, 2.0825844e+2, -964692.1, -1147224.5, 57669.71, 0.00006556284, 0.33719903, -947998.56, -48895.594, 0.002469395, 10.000098, 9.997773 
2.414654e+3, 2.1824975e+2, -553661.6, -916732.8, -1396.7697, 0.13281493, 0.3450082, -553656.25, 247535.42, 0.00078321603, 10.002273, 9.997663 
2.4142946e+3, 2.2824332e+2, -538035.4, -748259.2, 84475.98, 0.012163755, 0.47791705, -508296.63, 194961.86, 0.00023610769, 10.001254, 9.998605 
2.4139355e+3, 2.3823647e+2, -770679.3, -885659.3, 172332.47, -0.1850535, 0.6196729, -646500.44, -41170.465, 0.000047296035, 9.999322, 9.99792 
2.4135771e+3, 2.4822733e+2, -443351.13, -521054.0, 27088.834, -0.03911435, 0.45958325, -434839.72, 72581.8, 0.0000020598873, 10.000327, 9.999208 
2.4132197e+3, 2.5821793e+2, -236092.8, -482193.16, -923.1675, 0.18146786, 0.26988053, -236089.34, 173425.56, 0.0, 10.001581, 9.998186 
2.4128579e+3, 2.6821324e+2, -88482.36, -293498.1, -149383.05, 0.077566095, 0.5949787, -9818.601, 301748.4, 0.0, 10.001741, 9.9986925 
2.4124956e+3, 2.782099e+2, 27561.936, -8535.077, -188342.73, -0.12663576, 0.92654634, 198718.97, 412325.38, 0.0, 10.001047, 10.000333 
2.4121395e+3, 2.882021e+2, 191747.36, 252086.03, -157146.81, 0.16140054, 0.6449626, 381933.28, 497615.28, 0.0000001537889, 10.00099, 10.001454 
2.4117869e+3, 2.9819578e+2, 35533.81, -221519.3, 21666.102, 0.6083115, 0.559344, 37347.176, 55089.254, 0.000003139397, 10.001288, 9.99775 
2.4114218e+3, 3.0818513e+2, 275320.56, 49712.414, -195460.13, -0.3560926, 0.5681304, 388191.97, 388191.97, 0.000017281642, 10.002285, 9.999115 
2.4278848e+3, 1.2867372e+2, -1643241.0, -1379777.0, 82519.945, -0.22076, 0.5347382, -1356065.0, 322978.75, 0.4141129, 9.997906, 10.004015 
2.427525e+3, 1.3866855e+2, -1865069.8, -1554427.0, -73291.56, -0.27311724, 0.27118272, -1538003.3, 43080.156, 0.28877336, 9.996855, 10.00138 
2.4271655e+3, 1.4866138e+2, -1689495.9, -1665496.8, -79467.44, -0.1077065, 0.19114107, -1597128.0, -113977.945, 0.17287979, 9.998612, 9.998925 
2.4268049e+3, 1.5865336e+2, -1296565.5, -1520710.3, 28298.371, 0.07275315, 0.15350421, -1293048.0, 92180.23, 0.08747846, 10.00098, 9.998201 
2.4264438e+3, 1.6864601e+2, -1091051.9, -1316281.0, 72559.84, -0.012397387, 0.19834597, -1069700.1, 217602.11, 0.038149297, 10.001553, 9.99861 
2.426083e+3, 1.7863905e+2, -1023770.6, -1250755.8, -15749.412, -0.09834058, 0.27896813, -1022683.06, 166689.17, 0.01570925, 10.001323, 9.998543 
2.4257234e+3, 1.8863276e+2, -893401.3, -1013624.44, -70596.93, -0.037785612, 0.33675718, -860791.1, 230644.38, 0.0064830934, 10.001071, 9.999566 
2.4253643e+3, 1.9862638e+2, -1000569.06, -1189234.6, -98264.02, 0.043647185, 0.39843982, -958686.94, 34812.293, 0.0021827125, 10.000354, 9.998074 
2.4250063e+3, 2.0861822e+2, -801115.3, -1142886.1, 15958.497, 0.026960332, 0.44659108, -800371.75, 95211.9, 0.00044835047, 10.001567, 9.997083 
2.424649e+3, 2.1860936e+2, -562445.2, -949962.25, 22321.71, 0.022978768, 0.48493245, -561163.6, 236511.86, 0.000068581576, 10.002399, 9.99737 
2.4242888e+3, 2.2860286e+2, -448563.2, -566101.06, -51862.28, -0.07415313, 0.540351, -428951.75, 270785.72, 0.0000096515805, 10.001389, 9.999748 
2.423929e+3, 2.3859641e+2, -778234.56, -856205.25, -41747.785, -0.16445501, 0.59063196, -760099.56, -158302.48, 0.00000040342232, 9.999206, 9.998172 
2.423571e+3, 2.4858585e+2, -510525.88, -679526.2, -24717.67, -0.042420015, 0.3341702, -506984.9, -3084.61, 0.0, 10.000461, 9.998038 
2.4232146e+3, 2.5857416e+2, -401767.47, -714842.94, -34228.98, 0.12945268, 0.010379063, -398068.84, 7947.4766, 0.0, 10.001149, 9.996815 
2.4228524e+3, 2.6856905e+2, -207398.39, -531828.44, -115501.94, -0.02417304, 0.4218854, -170479.27, 137598.6, 0.0, 10.001754, 9.997017 
2.4224891e+3, 2.7856588e+2, -203445.44, -367029.72, -117319.95, -0.25419804, 0.97147644, -142220.36, 67901.53, 0.0, 10.000554, 9.998121 
2.4221335e+3, 2.885575e+2, 74441.95, 210623.3, -131795.6, 0.108113326, 0.71798337, 290878.25, 403079.1, 0.0000000009564638, 10.000192, 10.001519 
2.4217832e+3, 2.985489e+2, -445311.44, -434772.88, 672.67285, 0.7249466, 0.34718734, -434730.13, -420452.53, 0.0000004799063, 9.997974, 9.997891 
2.4214122e+3, 3.0853912e+2, 96761.57, -301095.88, -218894.97, -1.0431745, 0.42403138, 193615.95, 193615.95, 0.0000055147566, 10.002211, 9.996756 
2.4378738e+3, 1.2903632e+2, -1717093.0, -1670230.5, 24126.545, -0.5631666, 0.6387879, -1660029.8, 15467.185, 0.39271495, 9.999204, 9.999987 
2.4375178e+3, 1.3903137e+2, -1702089.1, -1596163.6, -73224.234, -0.12730266, 0.75878125, -1558755.8, 18789.295, 0.26710206, 9.998574, 10.000177 
2.4371597e+3, 1.4902471e+2, -1339771.5, -1212753.5, -24553.713, 0.040096927, 0.5665236, -1208172.3, 271426.78, 0.15331793, 9.999797, 10.001805 
2.4368003e+3, 1.590174e+2, -1202191.0, -1361365.0, 41094.953, 0.08584367, 0.34845126, -1192207.5, 189451.66, 0.07196278, 10.001187, 9.999208 
2.436437e+3, 1.6900948e+2, -1186268.5, -1569308.4, 37042.496, -0.22886308, 0.43362767, -1182719.3, 101022.12, 0.027363949, 10.001733, 9.996796 
2.436074e+3, 1.7900123e+2, -1102651.1, -1467737.4, -24660.799, -0.56395006, 0.5599746, -1100992.9, 84837.11, 0.009079448, 10.001558, 9.996921 
2.4357176e+3, 1.889924e+2, -978632.7, -1234571.5, -96940.0, -0.11617606, 0.5328096, -946060.7, 141860.67, 0.002868925, 10.001275, 9.997937 
2.4353623e+3, 1.9898355e+2, -951076.3, -1200193.1, -70215.81, 0.39218587, 0.49126458, -932648.5, 57363.18, 0.00059867656, 10.000826, 9.997772 
2.4350025e+3, 2.0897691e+2, -664971.75, -929205.4, 74106.29, 0.09617675, 0.61383927, -645607.2, 246470.33, 0.000045539302, 10.001835, 9.998431 
2.4346423e+3, 2.1897009e+2, -442359.47, -810030.4, 41839.258, -0.31945735, 0.7389582, -437658.47, 356486.03, 0.0000022398012, 10.002842, 9.998106 
2.4342832e+3, 2.2896034e+2, -480892.94, -680356.75, -118874.97, -0.15457593, 0.5178238, -425454.9, 270782.25, 0.000000052409952, 10.001589, 9.998871 
2.4339251e+3, 2.3895036e+2, -666037.7, -776981.94, -65213.688, 0.092604354, 0.28364426, -635894.5, -37562.906, 0.0, 9.999844, 9.998405 
2.4335662e+3, 2.4894376e+2, -456408.47, -589672.0, 18763.09, 0.0145024825, 0.38258225, -453817.06, 46578.676, 0.0, 10.000518, 9.9986515 
2.4332075e+3, 2.5893724e+2, -286210.1, -561831.4, -2300.7366, -0.1202613, 0.5165426, -286190.9, 116269.46, 0.0, 10.001471, 9.997707 
2.4328487e+3, 2.6892775e+2, -186129.75, -530255.7, -113456.445, 0.057864387, 0.47263378, -152090.72, 152468.6, 0.0, 10.001852, 9.99702 
2.4324895e+3, 2.7891856e+2, -41235.43, -346627.88, -91914.95, 0.26050955, 0.45821008, -15705.685, 190951.47, 0.0, 10.001821, 9.997667 
2.4321264e+3, 2.8891313e+2, 47921.742, -48881.56, -118553.3, -0.032945596, 0.66470945, 127573.22, 236287.84, 0.0, 10.000965, 9.99941 
2.4317673e+3, 2.989082e+2, -130332.56, -204865.84, 84788.85, -0.2064848, 0.828735, -74981.98, -64217.605, 0.000000008678429, 9.999715, 9.998647 
2.4314182e+3, 3.088999e+2, 432920.4, 119058.66, -132139.72, -0.08299418, 0.8505603, 481143.66, 481143.66, 0.0000009202062, 10.003193, 9.999277 
2.4482238e+3, 1.194013e+2, -1921141.6, -2590429.5, -78840.52, -0.86207545, 0.32403335, -1911979.9, -142076.67, 0.4945417, 10.001804, 9.993033 
2.4478696e+3, 1.2939414e+2, -1559727.4, -1751597.0, -30507.121, -0.42927393, 0.52790165, -1554993.5, 116997.09, 0.3775347, 10.0017, 9.998194 
2.4475148e+3, 1.3938816e+2, -1223539.3, -1449707.4, -68289.95, 0.06423741, 0.7029907, -1204519.1, 369532.06, 0.25111946, 10.00309, 9.99927 
2.4471542e+3, 1.4938149e+2, -1035800.3, -1115840.1, -148747.31, 0.012505822, 0.56176764, -921783.3, 554323.1, 0.13882844, 10.002444, 10.001275 
2.4467932e+3, 1.5937434e+2, -1234086.0, -1373151.0, -226008.4, -0.06963858, 0.38647175, -1067155.9, 311009.28, 0.060861234, 10.000973, 9.999248 
2.4464324e+3, 1.6936702e+2, -1237447.4, -1499289.4, -156213.1, -0.19525707, 0.44296107, -1164547.8, 115692.1, 0.02025213, 10.001061, 9.997551 
2.4460714e+3, 1.7935923e+2, -1160987.3, -1487196.5, -111043.305, -0.31968477, 0.54632634, -1126775.6, 55546.926, 0.0052852775, 10.001133, 9.996986 
2.4457134e+3, 1.8935062e+2, -1007941.6, -1319889.8, -105862.09, -0.037272297, 0.5685729, -975409.25, 109002.99, 0.0012089658, 10.001393, 9.997289 
2.4453564e+3, 1.993418e+2, -904086.0, -1182237.4, -24549.68, 0.34136328, 0.5838769, -901935.8, 84567.03, 0.00012403581, 10.001217, 9.997695 
2.4449964e+3, 2.0933484e+2, -894300.5, -935787.25, 100998.7, 0.030299788, 0.60402703, -811937.0, 76631.85, 0.000001917801, 9.999869, 9.999295 
2.4446362e+3, 2.193279e+2, -1132227.0, -1142803.9, 29235.951, -0.36077383, 0.64183366, -1107805.0, -317171.06, 0.000000018702426, 9.99815, 9.998066 
2.4442776e+3, 2.2931807e+2, -781569.8, -898359.06, -99961.25, -0.14933857, 0.4499934, -724196.6, -31466.545, 0.0, 9.999842, 9.998201 
2.44392e+3, 2.3930776e+2, -537765.9, -759273.8, -19672.219, 0.17752485, 0.22965387, -536032.3, 58798.652, 0.0, 10.000957, 9.997988 
2.4435608e+3, 2.4930306e+2, -268006.53, -434009.97, 85388.45, 0.009545548, 0.48723432, -231926.47, 264949.25, 0.0, 10.001619, 9.999147 
2.4432017e+3, 2.5929883e+2, -339118.6, -611534.56, 25531.486, -0.2269447, 0.8072497, -336746.38, 62170.094, 0.0, 10.001249, 9.997476 
2.4428442e+3, 2.692867e+2, -311207.0, -609593.94, -92094.836, 0.104449436, 0.5112191, -285071.78, 15966.219, 0.0, 10.001084, 9.996846 
2.4424873e+3, 2.7927372e+2, -365179.25, -602411.4, -81466.3, 0.5231385, 0.13754216, -339897.7, -136728.64, 0.0, 10.000054, 9.996786 
2.4421206e+3, 2.8926972e+2, 73023.484, -214743.63, -82282.62, -0.12770148, 0.6049484, 94889.46, 200107.03, 0.0, 10.001967, 9.997767 
2.4417554e+3, 2.9926726e+2, -35689.6, -195004.81, 139427.72, -0.8805955, 1.1552669, 45231.188, 52481.38, 0.0, 10.000569, 9.99832 
2.4414212e+3, 3.0925646e+2, -366630.7, 57205.266, 213431.17, 0.6034084, 0.68524706, 146056.47, 146056.47, 0.00000009984614, 9.996573, 10.00192 
2.4582234e+3, 1.19759835e+2, -1740152.9, -1783438.4, -169124.53, -0.51648283, 0.6121093, -1591291.9, 175107.8, 0.48539782, 10.000487, 9.999715 
2.4578685e+3, 1.2974882e+2, -1548846.9, -1761637.5, 18363.83, -0.11674141, 0.2591486, -1547273.8, 121238.96, 0.36593348, 10.001857, 9.998036 
2.4575128e+3, 1.3974278e+2, -1298932.6, -1579549.6, -30588.129, 0.11278824, 0.47027245, -1295637.1, 274935.06, 0.23856215, 10.002908, 9.998163 
2.4571489e+3, 1.4973556e+2, -1156263.8, -1365479.0, -158910.7, -0.16204122, 0.44945726, -1070620.6, 402017.72, 0.1275105, 10.002418, 9.999264 
2.4567854e+3, 1.5972787e+2, -1190620.8, -1351702.6, -194103.22, -0.37938744, 0.37755138, -1061011.9, 313696.06, 0.052560914, 10.001284, 9.999212 
2.4564292e+3, 1.6972083e+2, -1051342.4, -1165349.5, -126077.484, -0.018716222, 0.30925554, -969980.75, 306794.66, 0.01541553, 10.001279, 9.999747 
2.4560727e+3, 1.7971377e+2, -1051620.9, -1284028.9, -104900.51, 0.29717976, 0.2949084, -1011276.25, 167568.1, 0.0031067657, 10.001228, 9.998333 
2.4557094e+3, 1.8970747e+2, -974940.56, -1273755.1, -96598.79, 0.065668255, 0.49736977, -946432.5, 134476.75, 0.00048131414, 10.001477, 9.997568 
2.4553467e+3, 1.9970053e+2, -834044.75, -1086744.4, -33325.637, -0.18038614, 0.66570395, -829723.7, 153256.2, 0.000015932997, 10.001417, 9.998239 
2.4549885e+3, 2.0969093e+2, -851152.2, -873199.6, 27226.69, -0.14605007, 0.3862068, -832802.2, 52266.438, 0.0000000054715246, 9.999975, 9.999678 
2.454631e+3, 2.1968149e+2, -1038524.8, -1032425.5, 21167.584, -0.11163091, 0.14056692, -1014089.0, -226933.11, 0.0, 9.998479, 9.998672 
2.4542718e+3, 2.2967596e+2, -771330.4, -901130.44, -23543.215, -0.086485475, 0.37345004, -767192.06, -77976.1, 0.0, 9.999898, 9.998186 
2.4539131e+3, 2.3967028e+2, -426178.1, -659838.9, 33236.316, -0.046425804, 0.6231453, -421542.47, 169735.17, 0.0, 10.001467, 9.998434 
2.4535559e+3, 2.496631e+2, -205482.6, -379948.22, 95049.06, -0.05284345, 0.615428, -163704.22, 329640.9, 0.0, 10.001913, 9.999403 
2.4531987e+3, 2.596556e+2, -213726.77, -513414.16, 484.40073, -0.08968443, 0.595468, -213725.98, 181689.22, 0.0, 10.001867, 9.99787 
2.4528389e+3, 2.6964504e+2, -362720.5, -675263.44, -144060.83, 0.095324926, 0.47113383, -306449.5, -8928.785, 0.0, 10.000817, 9.996569 
2.4524793e+3, 2.7963415e+2, -358713.53, -636788.0, -60119.676, 0.3190573, 0.34622777, -346272.28, -146641.05, 0.0, 10.000174, 9.99651 
2.4521184e+3, 2.8962636e+2, 115075.71, -326935.16, -7952.6133, 0.012479809, 0.5249858, 115218.74, 216934.64, 0.0, 10.002732, 9.99666 
2.4517585e+3, 2.9961914e+2, 438261.44, -30364.99, -45639.688, -0.32083312, 0.7183197, 442664.94, 446458.63, 0.0, 10.003951, 9.997838 
2.4514093e+3, 3.0960974e+2, -531084.06, 55886.008, -156805.23, 0.48925263, 0.45020664, 95149.15, 95149.15, 0.000000000000427524, 9.99494, 10.002728 
2.4682182e+3, 1.201178e+2, -1832742.4, -1610841.9, 38536.04, -0.29408658, 0.6571865, -1604340.0, 158558.34, 0.47722325, 9.997755, 10.00273 
2.4678648e+3, 1.301069e+2, -1594690.4, -1732705.0, 80723.68, 0.0011051439, 0.20163041, -1557498.3, 107501.54, 0.3557266, 10.001032, 9.9987335 
2.4675073e+3, 1.4010116e+2, -1455514.9, -1668918.1, 26030.977, 0.01183363, 0.4083724, -1452385.5, 114668.336, 0.22774403, 10.001386, 9.998303 
2.4671438e+3, 1.5009414e+2, -1277962.8, -1467528.4, -48155.61, -0.22393383, 0.43856972, -1266431.1, 202689.95, 0.11809006, 10.00166, 9.998827 
2.4667807e+3, 1.6008656e+2, -1196451.0, -1443274.8, -31782.523, -0.3443106, 0.45105234, -1192424.1, 178769.34, 0.04605504, 10.001604, 9.998404 
2.4664241e+3, 1.7007847e+2, -1230540.1, -1369175.5, -92947.89, 0.016462637, 0.38696274, -1183908.5, 89363.33, 0.012013259, 10.000537, 9.998709 
2.4660674e+3, 1.8007046e+2, -1329689.4, -1404519.9, -194085.34, 0.38094965, 0.34541032, -1169445.8, 5903.06, 0.0018483637, 9.999266, 9.998457 
2.4657038e+3, 1.9006346e+2, -1156336.3, -1237023.1, -140615.5, 0.09403541, 0.37336898, -1050391.3, 27023.324, 0.00018026956, 9.999686, 9.998695 
2.4653406e+3, 2.0005637e+2, -1051340.3, -1171742.5, -50652.33, -0.22314698, 0.43842414, -1032865.9, -53384.555, 0.0000007906511, 9.999885, 9.998397 
2.4649824e+3, 2.1004735e+2, -820090.5, -924328.44, -55144.086, -0.15569018, 0.24192797, -796332.9, 85233.82, 0.0, 10.000505, 9.999067 
2.4646252e+3, 2.2003818e+2, -783180.5, -979043.6, -93943.766, -0.012408984, 0.07053095, -745406.44, 38247.73, 0.0, 10.000584, 9.99802 
2.4642661e+3, 2.3003307e+2, -583115.25, -821947.6, -102242.766, -0.072681986, 0.34778455, -545325.1, 140386.02, 0.0, 10.001332, 9.997991 
2.4639075e+3, 2.4002835e+2, -489270.72, -731492.8, -84201.87, -0.12446621, 0.69535553, -462876.38, 124888.18, 0.0, 10.0012665, 9.998034 
2.4635507e+3, 2.5002006e+2, -388245.03, -487661.84, -53509.03, -0.071319394, 0.5694521, -364918.22, 124925.195, 0.0, 10.000725, 9.999247 
2.4631943e+3, 2.6001096e+2, -582779.0, -734799.25, -160162.8, 0.008236422, 0.3928121, -481505.0, -89575.805, 0.0, 9.999549, 9.99748 
2.4628337e+3, 2.70002e+2, -243303.55, -593007.2, -233195.92, 0.115334764, 0.39898512, -126687.55, 167330.92, 0.0, 10.001582, 9.996732 
2.4624732e+3, 2.799935e+2, -71869.51, -526100.75, -50911.297, 0.21645851, 0.49440435, -66233.195, 129872.11, 0.0, 10.0023365, 9.996218 
2.462115e+3, 2.899838e+2, -175896.56, -504645.03, 132061.11, 0.048628174, 0.49266458, -129417.71, -31211.04, 0.0, 10.000925, 9.996308 
2.4617597e+3, 2.9997182e+2, -625822.06, -791341.2, 16587.53, 0.17253354, 0.33713153, -624176.06, -623847.3, 0.0, 9.99783, 9.995561 
2.4613976e+3, 3.0996266e+2, 102474.266, 264811.75, -225823.11, 0.23023042, 0.2616142, 423610.6, 423610.6, 0.0, 9.999988, 10.001623 
2.4782129e+3, 1.2047692e+2, -1481945.5, -1345091.8, 216565.81, -0.1356304, 0.76824594, -1186399.8, 572982.75, 0.4678463, 10.001033, 10.00445 
2.4778594e+3, 1.3046657e+2, -1484070.3, -1598714.4, 71618.66, -0.053529225, 0.2824417, -1449658.8, 211812.22, 0.34520847, 10.001823, 9.999374 
2.4775007e+3, 1.4046054e+2, -1489125.4, -1646297.5, 7375.666, -0.19327098, 0.40024006, -1488780.0, 74745.234, 0.21743059, 10.000896, 9.99868 
2.477139e+3, 1.5045431e+2, -1256077.0, -1418067.3, -60542.184, -0.25362647, 0.47395843, -1235950.6, 229635.53, 0.109704144, 10.001669, 9.999169 
2.4767776e+3, 1.6044743e+2, -1237529.6, -1609670.4, -67370.69, -0.23587537, 0.563945, -1225708.6, 141945.66, 0.040704507, 10.001949, 9.997088 
2.4764173e+3, 1.7043775e+2, -1370609.1, -1752009.9, -139504.72, -0.10366001, 0.5915911, -1325029.6, -55278.117, 0.00953522, 10.000915, 9.995912 
2.4760571e+3, 1.8042776e+2, -1273708.5, -1389340.5, -180155.14, 0.023982406, 0.56613344, -1142319.4, 29530.031, 0.0011160366, 9.999692, 9.998359 
2.4756975e+3, 1.904181e+2, -977607.94, -934479.6, -114378.29, 0.09032808, 0.18726937, -839650.44, 234281.77, 0.00006263998, 9.999971, 10.000641 
2.4753377e+3, 2.0040935e+2, -982988.7, -1093793.8, -25905.623, 0.0806516, -0.06315415, -977231.25, -1223.4474, 0.0000000031066179, 10.000166, 9.998789 
2.4749778e+3, 2.1040407e+2, -881243.6, -1112420.4, -35334.527, -0.049852297, 0.22566995, -875963.5, 2100.8079, 0.0, 10.000748, 9.9976845 
2.4746187e+3, 2.2039789e+2, -732531.3, -1018522.25, -67256.57, -0.16277844, 0.4809467, -717504.2, 62626.242, 0.0, 10.001168, 9.99748 
2.4742612e+3, 2.303878e+2, -550044.94, -838607.44, -89247.44, -0.11584553, 0.3082947, -524673.06, 157557.78, 0.0, 10.00166, 9.997746 
2.4739037e+3, 2.4037819e+2, -381533.97, -666310.9, -111216.42, -0.06791733, 0.18817998, -343247.13, 241079.66, 0.0, 10.001887, 9.9981985 
2.4735457e+3, 2.503714e+2, -403733.63, -529429.56, -127774.75, -0.034296256, 0.23563042, -324186.88, 162208.16, 0.0, 10.00072, 9.99899 
2.473188e+3, 2.603645e+2, -464110.94, -584932.2, -150072.3, 0.02046507, 0.28959715, -362746.6, 25717.17, 0.0, 9.999897, 9.998348 
2.4728301e+3, 2.70357e+2, -18953.572, -334501.7, -142064.78, 0.18137494, 0.324463, 35581.24, 326119.75, 0.0, 10.002424, 9.998126 
2.4724711e+3, 2.8035054e+2, 408800.47, -8578.493, -88237.03, 0.23877035, 0.46374038, 426687.84, 619292.1, 0.0, 10.0043545, 9.9988 
2.4721086e+3, 2.9034463e+2, -24408.59, -139050.27, -6120.795, 0.0003742158, 0.579369, -24082.723, 70583.164, 0.0, 10.00057, 9.9990635 
2.4717532e+3, 3.0033514e+2, -551205.56, -724061.6, 227323.67, 0.31857127, 0.4890956, -394434.4, -394434.4, 0.0, 9.998046, 9.995975 
2.4713938e+3, 3.1032163e+2, 1012181.06, 437182.28, 201746.38, -0.055986572, 0.20237043, 1075904.5, 1075904.5, 0.0, 10.007108, 9.999505 
2.4882136e+3, 1.20833e+2, -1140150.5, -1306854.8, 241554.83, 0.039451722, 0.4511491, -967971.2, 787912.25, 0.45571515, 10.006205, 10.002335 
2.4878548e+3, 1.3082558e+2, -1390237.9, -1620512.1, -49125.12, -0.16199139, 0.37562495, -1380195.8, 277753.72, 0.33319858, 10.003125, 9.998523 
2.487495e+3, 1.408193e+2, -1654845.5, -1769027.6, -116263.414, -0.15062848, 0.5275788, -1582412.3, -22402.402, 0.20679392, 9.999754, 9.998409 
2.4871355e+3, 1.508116e+2, -1309076.9, -1488641.3, -140188.5, -0.12040581, 0.47607335, -1232384.9, 229697.52, 0.10179194, 10.0014105, 9.998859 
2.4867758e+3, 1.6080338e+2, -1123572.6, -1545522.8, -214274.11, -0.0019389454, 0.44466433, -1033842.06, 330318.72, 0.036105353, 10.002725, 9.997169 
2.4864128e+3, 1.7079343e+2, -1190748.6, -1633018.9, -188499.98, -0.03554186, 0.40702796, -1121310.3, 144947.4, 0.0076701324, 10.0020275, 9.996182 
2.4860506e+3, 1.8078339e+2, -1111432.3, -1359622.0, -77443.42, -0.04586618, 0.3810668, -1089249.9, 79105.12, 0.000687035, 10.001038, 9.997898 
2.4856912e+3, 1.9077425e+2, -921831.3, -998981.9, -133679.95, 0.059854988, 0.122614495, -821272.2, 249165.45, 0.000019881356, 10.000787, 9.999772 
2.4853323e+3, 2.0076564e+2, -996092.0, -1146858.6, -164490.58, 0.16163866, -0.05225934, -890533.9, 81981.695, 0.0, 10.000316, 9.998334 
2.4849725e+3, 2.1076065e+2, -907258.3, -1125481.5, -84948.49, -0.0112132225, 0.2550733, -878089.06, -3520.2522, 0.0, 10.000622, 9.997619 
2.4846132e+3, 2.207549e+2, -876170.06, -1107602.6, -40622.473, -0.14970887, 0.56258464, -869246.9, -92616.78, 0.0, 10.000299, 9.997277 
2.484256e+3, 2.3074342e+2, -824828.6, -976302.5, -28898.605, -0.06366801, 0.24885342, -819502.56, -140759.92, 0.0, 9.999796, 9.997703 
2.483899e+3, 2.4073215e+2, -824618.1, -906674.75, -32356.316, 0.030688202, -0.023353016, -813394.6, -232541.47, 0.0, 9.999016, 9.997923 
2.4835397e+3, 2.50726e+2, -505243.5, -591703.6, -40627.387, -0.027101103, 0.10127687, -489148.8, -6231.6855, 0.0, 10.000128, 9.998817 
2.4831817e+3, 2.6072028e+2, -402398.94, -506412.9, -15684.703, 0.00023302324, 0.27697894, -400085.22, -15108.312, 0.0, 10.000184, 9.998743 
2.4828257e+3, 2.7071384e+2, -274705.53, -303806.75, 34555.027, 0.18954886, 0.29678258, -251762.53, 35276.684, 0.0, 10.0000515, 9.999463 
2.4824673e+3, 2.80708e+2, -244766.92, -221837.66, -27450.754, 0.20290929, 0.39102846, -203553.64, -14457.468, 0.0, 9.999465, 9.999696 
2.482102e+3, 2.9070365e+2, 50342.723, 94359.414, -152853.28, -0.10150674, 0.5116607, 226780.64, 317922.25, 0.0, 10.000364, 10.000701 
2.4817464e+3, 3.0069786e+2, -314854.1, -572074.0, 205079.02, 0.32943124, 0.64458054, -201393.97, -201393.97, 0.0, 9.999624, 9.996234 
2.4813928e+3, 3.1068456e+2, 95051.97, -83798.25, 413641.66, -0.19334596, 0.3585808, 428824.53, 428824.53, 0.0, 10.001197, 9.998778 
2.4982138e+3, 1.211893e+2, -1416093.3, -1587303.5, 197819.44, -0.007913637, 0.23626325, -1286150.8, 466229.13, 0.43991756, 10.00385, 9.9998255 
2.4978504e+3, 1.3118401e+2, -1475463.9, -1787997.9, -177682.72, -0.26481307, 0.48905978, -1395107.8, 259326.66, 0.31901658, 10.002803, 9.9975395 
2.4974893e+3, 1.411774e+2, -1555626.5, -1811176.1, -106178.47, -0.10361222, 0.70430493, -1517268.0, 39234.918, 0.19536594, 10.000926, 9.997545 
2.4971323e+3, 1.5116702e+2, -1289371.3, -1540340.5, -49122.207, 0.055023897, 0.45309117, -1280099.1, 178498.5, 0.094030365, 10.001819, 9.998262 
2.4967746e+3, 1.6115643e+2, -1077461.9, -1408654.1, -192353.77, 0.2014373, 0.20203477, -989243.0, 371450.78, 0.032013185, 10.002564, 9.99817 
2.4964102e+3, 1.711468e+2, -1043581.2, -1317019.5, -215138.64, 0.10614794, -0.000965207, -925394.94, 337386.03, 0.0062260167, 10.001994, 9.998352 
2.4960457e+3, 1.8113782e+2, -1149832.0, -1451239.3, -89913.56, -0.03155842, -0.05466143, -1125047.6, 39817.574, 0.00043419475, 10.001089, 9.9972315 
2.4956848e+3, 1.9113134e+2, -1075653.1, -1391815.1, -130862.03, -0.053235456, 0.19478929, -1028516.0, 38421.605, 0.0000058323185, 10.001083, 9.996935 
2.4953248e+3, 2.0112436e+2, -939329.56, -1143733.3, -151073.13, -0.06236338, 0.39919838, -859135.44, 109876.66, 0.000000000090419006, 10.000785, 9.998124 
2.4949668e+3, 2.1111627e+2, -755760.2, -891470.25, -69778.41, -0.048350506, 0.28930053, -726284.2, 144802.84, 0.0, 10.000923, 9.999081 
2.494609e+3, 2.2110824e+2, -722981.9, -909293.1, -59350.277, -0.04308516, 0.23213212, -705681.94, 67480.7, 0.0, 10.000782, 9.998393 
2.4942513e+3, 2.3110045e+2, -768896.0, -892375.44, -56207.64, 0.07298704, 0.22877793, -747142.7, -71900.29, 0.0, 9.999906, 9.998235 
2.493893e+3, 2.4109262e+2, -734017.44, -797388.06, -2428.5525, 0.118353084, 0.25562814, -733924.5, -156601.9, 0.0, 9.999314, 9.998518 
2.4935336e+3, 2.5108626e+2, -465672.38, -566342.94, 20337.918, -0.05055801, 0.34113786, -461718.88, 17669.637, 0.0, 10.000306, 9.998923 
2.4931751e+3, 2.6107997e+2, -185177.38, -249866.2, -10040.199, -0.14575574, 0.41995457, -183654.89, 197797.06, 0.0, 10.00096, 10.000131 
2.492818e+3, 2.7107352e+2, -192408.0, -73305.6, 25304.814, 0.070137285, 0.28720883, -68152.25, 215354.77, 0.0, 9.999744, 10.001213 
2.4924593e+3, 2.810668e+2, -339174.34, -323594.16, 41400.46, 0.12690789, 0.19911271, -289257.25, -103689.93, 0.0, 9.998951, 9.999266 
2.492095e+3, 2.9105914e+2, -29335.738, -200662.42, -88345.04, -0.23805301, 0.1992072, 8058.0396, 95706.33, 0.0, 10.000837, 9.998487 
2.49174e+3, 3.010526e+2, 155843.73, -184897.55, 140408.94, 0.13813835, 0.36261117, 206246.34, 206246.34, 0.0, 10.0021105, 9.997688 
2.4913916e+3, 3.1104586e+2, -25284.924, 140667.0, 262277.75, 0.34277713, 0.5160525, 332781.28, 332781.28, 0.0, 9.999012, 10.001409 
2.5082043e+3, 1.2154372e+2, -1876050.8, -1802772.3, 121645.766, -0.4344237, 0.20965609, -1712367.6, 36531.605, 0.42027465, 9.998757, 10.000119 
2.5078475e+3, 1.315386e+2, -1464945.6, -1626928.1, -190835.23, -0.10885473, 0.34029812, -1338626.4, 312323.38, 0.30251706, 10.002022, 9.999219 
2.5074878e+3, 1.415329e+2, -1139525.4, -1565510.8, -79397.21, 0.088767014, 0.54559636, -1125208.1, 427799.47, 0.18302314, 10.004256, 9.997665 
2.5071287e+3, 1.515223e+2, -1197321.8, -1585072.4, -64623.367, 0.06571668, 0.32270664, -1186835.0, 268274.34, 0.08629053, 10.002839, 9.997469 
2.5067687e+3, 1.6151176e+2, -1264837.3, -1501739.6, -230980.3, 0.09501403, 0.12700023, -1123706.9, 233502.53, 0.028287582, 10.001218, 9.998184 
2.5064045e+3, 1.7150308e+2, -1174510.8, -1339573.0, -331913.25, 0.06915287, -0.028215725, -915021.7, 344268.3, 0.0050760456, 10.000876, 9.998758 
2.5060406e+3, 1.8149509e+2, -1216961.0, -1455725.5, -209804.1, 0.0109444335, -0.029545086, -1094951.8, 66414.78, 0.00028139996, 10.000554, 9.997468 
2.505679e+3, 1.9148976e+2, -1030225.4, -1352628.9, -81836.05, -0.1058108, 0.31610832, -1010642.3, 52786.156, 0.0000014559199, 10.001429, 9.997021 
2.5053185e+3, 2.0148332e+2, -823439.9, -1084706.8, 7517.146, -0.15141642, 0.5852627, -823223.75, 142274.8, 0.0, 10.001592, 9.998153 
2.504961e+3, 2.1147326e+2, -916064.75, -927480.44, 8232.452, -0.0451367, 0.25715855, -911754.94, -44165.7, 0.0, 9.999713, 9.999408 
2.5046033e+3, 2.21464e+2, -1116028.8, -1084550.9, -31579.105, 0.06567875, 0.061921716, -1065005.9, -295332.3, 0.0, 9.998062, 9.998508 
2.5042447e+3, 2.3145822e+2, -868942.5, -903354.06, -32913.863, 0.09719663, 0.22563075, -849008.5, -177273.97, 0.0, 9.999077, 9.998547 
2.503886e+3, 2.4145234e+2, -733501.2, -809789.06, 23946.703, 0.09688039, 0.4253854, -726607.3, -152810.16, 0.0, 9.999389, 9.99841 
2.5035274e+3, 2.514453e+2, -573361.75, -617331.9, 50158.887, -0.06444786, 0.4357008, -540581.4, -64712.125, 0.0, 9.999608, 9.998896 
2.5031686e+3, 2.614384e+2, -402647.0, -340213.97, -50055.156, -0.18422386, 0.4518411, -312439.03, 65498.01, 0.0, 9.999447, 10.000246 
2.5028104e+3, 2.7143195e+2, -168636.39, -8432.798, -145189.02, -0.04105315, 0.2604379, 77285.03, 357275.3, 0.0, 9.999711, 10.001683 
2.5024515e+3, 2.8142488e+2, -357960.9, -443328.75, -144990.75, 0.057617545, 0.12146616, -249501.73, -67449.13, 0.0, 9.999382, 9.998222 
2.5020897e+3, 2.9141542e+2, -156740.95, -442486.13, -115115.88, -0.22770528, 0.053459197, -116135.36, -31984.361, 0.0, 10.000788, 9.996828 
2.5017333e+3, 3.0140728e+2, -14544.323, -178583.31, 51655.184, -0.10672801, 0.14099987, 366.34082, 366.34082, 0.0, 10.000632, 9.998431 
2.5013876e+3, 3.1140435e+2, -303832.5, 149817.31, 69976.64, 0.62017363, 0.4139259, 160366.11, 160366.11, 0.0, 9.996633, 10.002552 
2.5181958e+3, 1.2189662e+2, -1701278.3, -1607031.8, 95992.25, -0.6312714, 0.2228675, -1547220.0, 198214.92, 0.39734322, 9.9994955, 10.001587 
2.5178453e+3, 1.3189106e+2, -1352267.8, -1347562.5, -83003.28, 0.058227308, 0.068115525, -1266878.5, 380604.72, 0.28406283, 10.001759, 10.001758 
2.5174874e+3, 1.4188656e+2, -1248879.6, -1601840.5, -101396.08, 0.2392062, 0.2257061, -1221825.1, 327700.03, 0.16993596, 10.003207, 9.997903 
2.5171244e+3, 1.5187716e+2, -1291091.8, -1700048.6, -118281.88, -0.057929818, 0.16324319, -1259345.6, 192278.02, 0.078587286, 10.002441, 9.996853 
2.5167608e+3, 1.6186793e+2, -1283407.9, -1567450.9, -245983.03, -0.25024495, 0.16021697, -1141391.1, 212328.9, 0.024857625, 10.001332, 9.99767 
2.5163978e+3, 1.7186074e+2, -1159934.6, -1377278.8, -305725.22, -0.08946193, 0.20327954, -944141.7, 311653.25, 0.0041356636, 10.001167, 9.998358 
2.5160348e+3, 1.8185386e+2, -1052020.0, -1207759.0, -165636.44, -0.013148558, 0.29751012, -946862.0, 211003.19, 0.00018434241, 10.0009575, 9.998963 
2.515674e+3, 1.918486e+2, -820408.56, -991805.6, -26601.553, -0.14044711, 0.43656796, -816374.8, 243542.55, 0.00000026313862, 10.001722, 9.999365 
2.5153136e+3, 2.0184195e+2, -754326.0, -995870.7, -30252.56, -0.2166511, 0.51336884, -750594.6, 211387.03, 0.0, 10.001826, 9.998642 
2.5149545e+3, 2.1183126e+2, -942944.6, -1031966.2, -64705.617, -0.03425163, 0.19318813, -908918.6, -44839.375, 0.0, 9.999907, 9.998614 
2.5145957e+3, 2.2182168e+2, -1037020.44, -1045256.56, -20372.08, 0.074939094, 0.026325464, -1020354.3, -254186.53, 0.0, 9.998536, 9.9985695 
2.514236e+3, 2.3181632e+2, -817010.2, -860502.2, 6110.171, -0.04252323, 0.22378087, -816168.06, -147945.02, 0.0, 9.999301, 9.998758 
2.5138775e+3, 2.4181038e+2, -627622.7, -738068.5, 39730.45, -0.12511137, 0.40272376, -614815.6, -44531.727, 0.0, 9.999984, 9.998616 
2.513521e+3, 2.518016e+2, -539142.1, -628229.6, 47743.336, -0.056650523, 0.26417103, -518389.84, -46018.977, 0.0, 9.999892, 9.998717 
2.513164e+3, 2.6179352e+2, -437138.56, -497735.0, -63722.97, -0.011341394, 0.21353008, -396877.6, -22426.254, 0.0, 9.999753, 9.999037 
2.5128043e+3, 2.7178758e+2, -296194.47, -330345.7, -184422.5, 0.010239779, 0.29400682, -128058.76, 148450.95, 0.0, 9.999887, 9.999429 
2.5124452e+3, 2.817811e+2, -194509.55, -341479.84, -180461.48, 0.018600116, 0.36484075, -73144.98, 105427.91, 0.0, 10.000333, 9.998477 
2.5120866e+3, 2.917729e+2, 23384.498, -240708.53, -121421.67, -0.026587898, 0.31830576, 70724.45, 151377.83, 0.0, 10.0014105, 9.997958 
2.5117305e+3, 3.0176464e+2, 87190.59, -91229.086, -77749.3, 0.12632298, 0.3015015, 116316.5, 116316.5, 0.0, 10.001072, 9.99884 
2.5113767e+3, 3.1175593e+2, -321788.38, 8720.556, -154615.25, 0.4855497, 0.059979, 69773.22, 69773.22, 0.0, 9.996921, 10.001498 
2.528192e+3, 1.2225322e+2, -1542992.1, -1626960.6, 1832.2322, -0.49405518, 0.23293273, -1542952.1, 198982.75, 0.3720952, 10.001736, 10.000204 
2.5278383e+3, 1.3224475e+2, -1510741.0, -1535258.6, -101249.9, -0.10554927, -0.0748872, -1421010.5, 223001.67, 0.26429757, 10.000793, 10.000416 
2.5274822e+3, 1.4223917e+2, -1567279.9, -1678434.0, -221733.3, 0.19039343, 0.0138510605, -1394264.6, 151800.95, 0.15642525, 10.000274, 9.998819 
2.5271198e+3, 1.5223289e+2, -1433636.5, -1614139.6, -172286.9, 0.0058112945, 0.11175037, -1329393.6, 118742.35, 0.071005836, 10.000761, 9.998254 
2.5267568e+3, 1.6222648e+2, -1225628.5, -1407559.6, -191445.84, -0.107061595, 0.2680513, -1104635.9, 245571.3, 0.021693112, 10.001198, 9.99884 
2.5263926e+3, 1.7222081e+2, -1035254.3, -1198365.8, -179024.95, -0.084692486, 0.37531778, -920083.6, 332185.7, 0.00335279, 10.001615, 9.999354 
2.5260296e+3, 1.8221472e+2, -911953.25, -1113913.6, 18244.121, -0.054776732, 0.4915526, -910318.4, 244014.6, 0.00011963712, 10.00178, 9.999223 
2.5256696e+3, 1.9220759e+2, -773992.94, -963543.9, 35227.93, -0.13973176, 0.43307737, -767657.56, 288741.8, 0.00000002568285, 10.001959, 9.99946 
2.52531e+3, 2.021999e+2, -809896.44, -1106438.5, -108268.305, -0.14822151, 0.4175648, -774574.6, 183896.72, 0.0, 10.001775, 9.997916 
2.5249496e+3, 2.1218994e+2, -827221.56, -1089999.4, -178892.17, 0.04272069, 0.24084945, -736652.25, 123913.875, 0.0, 10.001147, 9.997625 
2.5245896e+3, 2.2218059e+2, -800076.1, -969830.8, -60241.2, 0.15263025, 0.16539438, -780870.94, -18215.908, 0.0, 10.0004015, 9.998163 
2.52423e+3, 2.3217389e+2, -572809.2, -742584.3, -24215.182, -0.06704258, 0.2118404, -569422.94, 95296.73, 0.0, 10.001022, 9.998725 
2.523871e+3, 2.4216694e+2, -498921.38, -673840.1, -17962.533, -0.19393085, 0.2891107, -497095.84, 69691.1, 0.0, 10.000927, 9.998591 
2.5235152e+3, 2.5215837e+2, -519601.47, -596573.0, 10908.294, -0.032613922, 0.1373417, -518085.4, -49215.92, 0.0, 10.000003, 9.998863 
2.5231585e+3, 2.621503e+2, -605571.94, -723122.1, -32752.727, 0.098038934, 0.13141923, -597062.2, -226112.44, 0.0, 9.999274, 9.997703 
2.5227985e+3, 2.7214414e+2, -346005.3, -535385.1, -59587.55, 0.052172404, 0.32754147, -328816.47, -55799.03, 0.0, 10.000381, 9.997742 
2.522439e+3, 2.8213742e+2, -154996.44, -320528.25, -16899.063, -0.00023845998, 0.4970759, -153288.84, 21798.705, 0.0, 10.000665, 9.99845 
2.522082e+3, 2.921297e+2, -141035.28, -196709.47, 17014.402, 0.037871618, 0.41005766, -136247.33, -59088.156, 0.0, 9.999819, 9.999006 
2.5217265e+3, 3.0212227e+2, -301013.3, -280029.0, -53252.4, 0.30110806, 0.4123213, -236244.97, -236244.97, 0.0, 9.998511, 9.9987545 
2.5213623e+3, 3.1210738e+2, -415628.9, -98693.2, -24879.793, -0.08267102, -0.41676426, -96752.0, -96752.0, 0.0, 9.996738, 10.000782 
2.538188e+3, 1.2261061e+2, -1561122.5, -1868220.4, -108202.55, -0.5196761, 0.22312215, -1526828.3, 211600.16, 0.34545994, 10.002756, 9.997642 
2.5378302e+3, 1.3259906e+2, -1514541.1, -1778967.0, -55014.395, -0.3765307, -0.14693101, -1503552.0, 136986.63, 0.24384509, 10.001931, 9.997925 
2.5374743e+3, 1.4259152e+2, -1417582.1, -1478236.0, -124282.69, -0.01628818, -0.12643813, -1319979.8, 222633.45, 0.14280653, 10.000847, 9.999911 
2.5371158e+3, 1.5258893e+2, -1232895.3, -1247329.5, -91394.15, 0.12948698, 0.12862319, -1148433.8, 296213.9, 0.06363834, 10.001035, 10.000695 
2.536755e+3, 1.6258591e+2, -1084096.3, -1128009.1, -169108.22, 0.17611124, 0.40452236, -935525.0, 411160.25, 0.0187796, 10.001265, 10.000735 
2.536388e+3, 1.7258178e+2, -886324.56, -945446.6, -169285.19, -0.056023225, 0.4949403, -744038.75, 504692.2, 0.0026956536, 10.001813, 10.00101 
2.5360236e+3, 1.825759e+2, -910078.0, -1161531.0, 12661.069, -0.21296763, 0.5481659, -909442.06, 241348.64, 0.00007576087, 10.002023, 9.998759 
2.5356656e+3, 1.92566e+2, -835030.06, -1140313.4, 36766.484, -0.14304164, 0.33989856, -830664.5, 222218.94, 0.00000000011876218, 10.002165, 9.998146 
2.5353065e+3, 2.0255682e+2, -832067.8, -1204987.6, -127388.82, -0.03797711, 0.29410776, -792706.56, 162265.38, 0.0, 10.001987, 9.997127 
2.534946e+3, 2.1254945e+2, -828342.94, -1170117.1, -192565.72, 0.16678366, 0.45902327, -741773.3, 115275.79, 0.0, 10.001456, 9.996927 
2.5345853e+3, 2.2254096e+2, -701327.5, -928127.56, -43062.1, 0.23991077, 0.51377434, -693426.56, 65707.19, 0.0, 10.001068, 9.998131 
2.5342262e+3, 2.325301e+2, -498246.13, -726060.4, 231.37433, 0.0391719, 0.17308773, -498245.9, 162987.81, 0.0, 10.001562, 9.998603 
2.533867e+3, 2.4252112e+2, -338495.25, -494145.4, -54803.77, -0.092844635, 0.021112742, -321135.28, 242180.8, 0.0, 10.001523, 9.999552 
2.533509e+3, 2.5251642e+2, -403235.28, -428114.75, -30042.697, 0.004646208, 0.16767712, -383158.72, 82199.516, 0.0, 10.0002775, 9.999903 
2.5331515e+3, 2.625106e+2, -483812.72, -598415.44, 10541.894, 0.06706122, 0.30473518, -482851.06, -115436.87, 0.0, 9.999783, 9.998319 
2.5327933e+3, 2.72502e+2, -231941.02, -469950.88, 32436.48, 0.07432646, 0.25518116, -227599.69, 41903.785, 0.0, 10.001051, 9.997891 
2.5324345e+3, 2.8249365e+2, 4987.279, -163881.25, 8185.0913, 0.03331806, 0.23058274, 5383.084, 176971.7, 0.0, 10.001396, 9.999162 
2.532074e+3, 2.9248616e+2, -156668.0, -156000.66, 330.66257, -0.08707352, 0.13956487, -155864.58, -82205.0, 0.0, 9.999457, 9.999486 
2.5317168e+3, 3.0248055e+2, -219186.19, -38436.824, -17880.996, 0.16438131, 0.23960027, -36684.89, -36684.89, 0.0, 9.998138, 10.000627 
2.5313577e+3, 3.1247646e+2, -37705.973, 311913.84, 66901.44, 0.3177166, 0.33789605, 324278.47, 324278.47, 0.0, 9.9981985, 10.00299 
2.548192e+3, 1.2296979e+2, -1200032.1, -1546653.8, -19314.273, 0.023929017, 0.21358359, -1198959.3, 535954.6, 0.31815657, 10.005646, 9.998938 
2.5478283e+3, 1.3296048e+2, -1203746.6, -1597036.4, 15979.429, -0.30758324, 0.051296595, -1203098.5, 433901.2, 0.22319712, 10.004648, 9.997897 
2.54747e+3, 1.4295146e+2, -1076842.3, -1317269.8, 6911.846, -0.048933342, -0.0585988, -1076643.8, 462442.84, 0.12934339, 10.003469, 9.999913 
2.5471103e+3, 1.529475e+2, -1152098.9, -1229295.8, -39672.613, 0.088200755, 0.08890094, -1135346.1, 305784.9, 0.05657354, 10.00165, 10.000571 
2.5467488e+3, 1.6294363e+2, -1259554.9, -1306245.4, -161287.47, 0.15729891, 0.32707697, -1119931.9, 223244.23, 0.016116831, 10.000442, 9.999882 
2.546383e+3, 1.7293906e+2, -1004520.06, -1135622.5, -292966.66, -0.07734938, 0.46326774, -769860.7, 475369.66, 0.0021455006, 10.001542, 9.99983 
2.5460196e+3, 1.8293284e+2, -906057.7, -1175519.4, -193664.73, -0.20984365, 0.5394296, -804868.2, 342426.88, 0.000046550977, 10.002134, 9.998614 
2.545662e+3, 1.929228e+2, -852453.0, -1127734.3, -109479.04, -0.10025959, 0.27331972, -814222.6, 235163.66, 0.0, 10.001978, 9.998326 
2.5453028e+3, 2.0291375e+2, -855799.4, -1192209.0, -179956.73, 0.03320441, 0.21696799, -777676.56, 173795.7, 0.0, 10.00178, 9.997297 
2.544941e+3, 2.1290722e+2, -730517.44, -1100069.9, -177907.75, 0.14745839, 0.43081695, -658791.4, 194751.28, 0.0, 10.002073, 9.997097 
2.54458e+3, 2.2289932e+2, -615460.3, -895988.9, 33518.95, 0.2075871, 0.5478886, -611510.94, 144111.98, 0.0, 10.001734, 9.998035 
2.5442216e+3, 2.3288815e+2, -645266.94, -800839.9, 83170.055, 0.08898371, 0.17872995, -609176.3, 48549.668, 0.0, 10.000643, 9.998512 
2.543863e+3, 2.4287908e+2, -570909.9, -603508.5, 1918.8206, 0.020905808, 0.034987863, -570797.3, -10988.725, 0.0, 9.999995, 9.999513 
2.5435036e+3, 2.5287497e+2, -353261.47, -381735.06, -44837.74, 0.022486275, 0.21348572, -320454.6, 141388.97, 0.0, 10.000572, 10.0000515 
2.5431448e+3, 2.6286927e+2, -395481.94, -567117.94, -18849.28, 0.019187113, 0.35775948, -393436.25, -29538.965, 0.0, 10.000484, 9.998192 
2.5427875e+3, 2.728593e+2, -402388.84, -541544.7, 3934.9585, 0.03561695, 0.14352149, -402277.7, -136279.83, 0.0, 9.999879, 9.997961 
2.542429e+3, 2.8285074e+2, -318425.78, -288458.53, -89810.08, 0.04128221, 0.076969355, -212390.75, -44307.54, 0.0, 9.999103, 9.999407 
2.5420666e+3, 2.9284415e+2, -250972.98, -139244.4, -82945.86, -0.11193695, -0.0016968976, -95104.52, -24959.947, 0.0, 9.998629, 9.999968 
2.5417078e+3, 3.0283833e+2, -215160.98, 12290.021, -83202.945, 0.06419905, 0.042618107, 39476.62, 39476.62, 0.0, 9.998046, 10.000995 
2.541352e+3, 3.1284162e+2, 118.91904, 590740.75, -144743.55, 0.54635555, 0.76627713, 624305.5, 624305.5, 0.0, 9.997435, 10.005252 
2.5581914e+3, 1.2333037e+2, -1350914.6, -1621413.3, -150466.73, -0.018663311, 0.31918493, -1283845.9, 447541.25, 0.29081753, 10.004039, 9.9989 
2.5578284e+3, 1.3332368e+2, -1158665.9, -1487346.5, 8294.49, -0.17198345, 0.32812348, -1158456.8, 474987.66, 0.2027681, 10.004455, 9.998924 
2.557467e+3, 1.4331372e+2, -1079641.1, -1363483.4, -62353.77, -0.13556865, 0.08354718, -1066547.5, 468989.84, 0.11625642, 10.003649, 9.999416 
2.5571036e+3, 1.5330677e+2, -1174048.6, -1335433.3, -101449.51, -0.09196497, 0.01032778, -1125113.5, 312492.47, 0.04988728, 10.001931, 9.999634 
2.556741e+3, 1.6330011e+2, -1348937.5, -1616607.3, -132860.5, -0.0722834, 0.1321749, -1294189.0, 45488.52, 0.013707004, 10.000973, 9.997493 
2.556378e+3, 1.7329362e+2, -1107714.3, -1477057.5, -205024.1, -0.13295068, 0.35207972, -1016453.8, 225304.23, 0.0016894786, 10.002082, 9.997234 
2.5560164e+3, 1.8328662e+2, -776910.3, -1014379.1, -149126.8, -0.16047826, 0.47251916, -705022.94, 438810.84, 0.000027889511, 10.002593, 9.99949 
2.555658e+3, 1.9327834e+2, -710551.25, -886831.6, -85120.89, -0.06635739, 0.24042176, -676158.75, 369745.03, 0.0, 10.0022135, 9.999861 
2.5552982e+3, 2.0327021e+2, -715829.9, -974982.56, -169159.22, -0.018779913, 0.13878433, -632322.06, 315654.16, 0.0, 10.0020685, 9.998654 
2.554935e+3, 2.1326254e+2, -590302.56, -897081.0, -148884.52, -0.05682475, 0.12192747, -529928.25, 320124.34, 0.0, 10.002409, 9.998343 
2.5545734e+3, 2.2325559e+2, -507236.28, -775507.5, 19816.574, -0.040198542, 0.23155808, -505780.38, 246341.58, 0.0, 10.002156, 9.998665 
2.5542158e+3, 2.332497e+2, -586988.5, -754928.94, 61566.375, 0.06340852, 0.3813344, -566836.6, 87342.875, 0.0, 10.000936, 9.998698 
2.5538576e+3, 2.4324244e+2, -545625.0, -664148.4, 33038.215, 0.09129668, 0.43406892, -537037.8, 19211.22, 0.0, 10.000433, 9.9988985 
2.553498e+3, 2.5323305e+2, -361198.0, -519052.78, -10649.984, -0.011614481, 0.204784, -360482.72, 97854.87, 0.0, 10.001031, 9.998913 
2.5531384e+3, 2.6322442e+2, -306642.4, -527866.3, -52519.594, -0.09467859, 0.13000736, -294807.2, 65613.36, 0.0, 10.001051, 9.998214 
2.5527796e+3, 2.7321693e+2, -401183.75, -545864.7, -48151.113, -0.0901649, 0.17689784, -386623.84, -124127.25, 0.0, 9.999846, 9.997987 
2.552421e+3, 2.8320995e+2, -243881.03, -131484.64, -108129.73, 0.00020179707, 0.22318484, -65821.13, 98741.25, 0.0, 9.999018, 10.00055 
2.5520617e+3, 2.932034e+2, -134973.45, 19004.91, -90002.37, 0.15911895, 0.063326076, 60454.574, 127069.734, 0.0, 9.998908, 10.000956 
2.551703e+3, 3.031947e+2, -228392.55, -236544.9, -120722.266, 0.3489727, -0.15702696, -111677.664, -111677.664, 0.0, 9.998906, 9.998907 
2.5513357e+3, 3.131889e+2, -216322.28, -33589.305, -323738.25, -0.23993072, 0.00184493, 211428.34, 211428.34, 0.0, 9.998041, 10.000714 
2.5681886e+3, 1.2368886e+2, -1514998.0, -1621802.5, 8899.498, 0.08261688, 0.1458589, -1514261.5, 213606.6, 0.26403108, 10.001857, 9.999956 
2.5678274e+3, 1.3368337e+2, -1255865.1, -1549075.5, -5502.6797, -0.020077955, 0.29180238, -1255761.9, 374159.06, 0.18292536, 10.003598, 9.998831 
2.5674647e+3, 1.4367473e+2, -1057230.8, -1405895.6, -153043.48, -0.089219, 0.20535384, -999584.56, 532420.3, 0.1037245, 10.003972, 9.998931 
2.5670996e+3, 1.5366693e+2, -1072116.8, -1398224.3, -224626.67, -0.1226178, 0.10695742, -957603.06, 476478.25, 0.043632858, 10.003062, 9.998689 
2.5667363e+3, 1.636593e+2, -1095651.6, -1486467.0, -96026.766, -0.09016442, 0.17870285, -1073331.8, 262829.0, 0.011545959, 10.002733, 9.997509 
2.566375e+3, 1.7365207e+2, -856424.25, -1356490.3, -32520.313, -0.06094506, 0.3133007, -854318.3, 383926.28, 0.0013158798, 10.00386, 9.997171 
2.5660142e+3, 1.8364455e+2, -642785.75, -981204.75, 11354.542, -0.043671995, 0.41677505, -642405.25, 497919.03, 0.000016496271, 10.003685, 9.999186 
2.565654e+3, 1.9363655e+2, -879073.2, -1024585.2, -54470.38, -0.03773919, 0.2617671, -860942.1, 181453.22, 0.0, 10.001295, 9.999377 
2.5652927e+3, 2.0362875e+2, -948708.3, -1023012.56, -136372.58, -0.02627954, 0.20818666, -844517.75, 99947.56, 0.0, 10.000234, 9.999213 
2.56493e+3, 2.1362111e+2, -677753.0, -857815.44, -146604.28, -0.082710885, 0.115594655, -595742.25, 250794.39, 0.0, 10.001501, 9.999054 
2.5645688e+3, 2.236141e+2, -610233.8, -868743.7, -86060.52, -0.060562864, 0.19726324, -584204.3, 164399.81, 0.0, 10.001679, 9.998232 
2.5642097e+3, 2.3360847e+2, -802837.7, -926394.56, -115646.58, 0.048406772, 0.40375358, -733502.8, -82841.12, 0.0, 9.999767, 9.998072 
2.5638512e+3, 2.4360134e+2, -827801.44, -883275.94, -74901.28, 0.08195309, 0.5262791, -775666.56, -222933.11, 0.0, 9.998913, 9.998104 
2.5634915e+3, 2.5359067e+2, -598756.3, -731959.75, -72756.055, -0.08141171, 0.22562379, -566721.2, -111883.26, 0.0, 9.999874, 9.997996 
2.5631323e+3, 2.6358166e+2, -451962.88, -558596.7, -116593.305, -0.13618335, 0.14722824, -377074.1, -20148.64, 0.0, 9.999967, 9.998477 
2.562773e+3, 2.7357548e+2, -478475.28, -524790.94, -59691.242, -0.075080365, 0.24983513, -437607.13, -178622.38, 0.0, 9.999129, 9.998441 
2.562414e+3, 2.835688e+2, -279814.16, -99648.234, -73356.74, 0.04163582, 0.28371668, -73558.26, 87486.13, 0.0, 9.998606, 10.000949 
2.5620556e+3, 2.935616e+2, -85914.51, 78839.234, -85382.83, 0.283892, 0.005295909, 115105.42, 178205.08, 0.0, 9.999126, 10.00124 
2.5616974e+3, 3.035527e+2, -334604.38, -541966.1, -142797.92, 0.52998424, -0.15374957, -261817.2, -261817.2, 0.0, 9.999375, 9.996529 
2.5613275e+3, 3.1354475e+2, -377739.7, -346617.03, -151759.33, -0.2899854, 0.021153653, -209623.28, -209623.28, 0.0, 9.998124, 9.998446 
2.5781834e+3, 1.2404637e+2, -1596118.1, -1809815.4, 130799.54, -0.053216975, -0.07564494, -1534072.9, 190283.23, 0.23823552, 10.0018015, 9.998484 
2.5778258e+3, 1.3404162e+2, -1348831.0, -1611495.8, 43937.023, 0.07135694, 0.15300035, -1341676.4, 284734.63, 0.16394834, 10.002848, 9.998625 
2.5774628e+3, 1.4403512e+2, -1183521.5, -1530618.9, -157853.45, -0.04126119, 0.319632, -1122470.9, 406009.7, 0.09188186, 10.003283, 9.998333 
2.5770965e+3, 1.5402722e+2, -1065467.3, -1455788.4, -213246.31, -0.107978515, 0.2839255, -971557.5, 459002.38, 0.03784501, 10.003372, 9.998135 
2.5767332e+3, 1.6401967e+2, -931106.9, -1248076.4, -41912.875, -0.077427395, 0.339102, -925658.4, 406977.5, 0.009625426, 10.0032215, 9.998894 
2.576374e+3, 1.7401253e+2, -761244.2, -1127623.6, 22294.979, 0.0353392, 0.32946733, -759892.5, 474816.03, 0.0010124295, 10.003733, 9.998794 
2.5760126e+3, 1.8400496e+2, -761906.94, -1168353.5, -74090.336, 0.046208482, 0.39055973, -748822.4, 387963.25, 0.000009793076, 10.003433, 9.998011 
2.5756487e+3, 1.9399664e+2, -972120.0, -1250327.6, -118694.7, -0.048264634, 0.37838683, -928362.4, 110507.26, 0.0, 10.001426, 9.997764 
2.5752866e+3, 2.0398916e+2, -885080.6, -980559.5, -88609.11, -0.04868718, 0.43792552, -832169.06, 108771.914, 0.0, 10.000575, 9.999348 
2.5749272e+3, 2.1398288e+2, -590128.06, -794173.25, -70918.78, 0.084197275, 0.46957025, -567900.56, 275094.7, 0.0, 10.001963, 9.999285 
2.574566e+3, 2.2397412e+2, -623008.06, -990264.5, -139658.75, 0.09553417, 0.40939927, -575933.2, 169143.98, 0.0, 10.002049, 9.9972105 
2.574203e+3, 2.33962e+2, -845651.6, -1095776.3, -186079.8, -0.027949478, 0.10295324, -746512.5, -99315.87, 0.0, 10.00005, 9.996783 
2.573842e+3, 2.4395332e+2, -773629.44, -850313.8, -54301.34, -0.10857637, 0.13609034, -745497.9, -196212.52, 0.0, 9.999214, 9.998195 
2.5734845e+3, 2.5394887e+2, -539692.56, -694958.8, -31011.18, -0.15226114, 0.46312004, -533727.9, -82391.58, 0.0, 10.000178, 9.998132 
2.573127e+3, 2.639425e+2, -258738.34, -249181.33, -138156.9, -0.079329684, 0.5560355, -115720.31, 237677.27, 0.0, 10.000319, 10.000431 
2.5727686e+3, 2.7393368e+2, -320125.8, -237957.44, -78183.73, 0.1922784, 0.21745601, -190720.58, 64751.848, 0.0, 9.999249, 10.000367 
2.5724092e+3, 2.8392616e+2, -239301.81, -108920.69, -28588.65, 0.30179283, 0.06659777, -102927.54, 54611.17, 0.0, 9.998951, 10.000728 
2.5720483e+3, 2.9392067e+2, -35884.723, 7819.2925, -47601.625, 0.21944958, 0.050677747, 38345.0, 97934.19, 0.0, 9.9998045, 10.000449 
2.571688e+3, 3.0391416e+2, -183407.6, -329018.3, -129988.81, 0.2678062, 0.12735939, -107223.984, -107223.984, 0.0, 9.999738, 9.997838 
2.5713256e+3, 3.1390598e+2, -101839.01, 72593.71, -88802.164, 0.32468814, 0.15598996, 109846.3, 109846.3, 0.0, 9.998649, 10.001117 
2.5881815e+3, 1.2440525e+2, -1585526.0, -1680010.0, 22334.768, 0.20155779, -0.07776407, -1580512.4, 140327.3, 0.21373183, 10.001136, 9.9997 
2.5878212e+3, 1.3440217e+2, -1513374.6, -1638298.3, 28018.191, 0.07663544, 0.21897209, -1507378.5, 115499.33, 0.14603193, 10.0011015, 9.999291 
2.587459e+3, 1.4439589e+2, -1349516.8, -1617219.9, -89210.66, -0.0067157336, 0.37230298, -1322511.9, 202433.5, 0.080827504, 10.002049, 9.998284 
2.5870952e+3, 1.5438768e+2, -888121.94, -1386560.5, -124235.56, 0.0069592455, 0.32111165, -858872.7, 568155.94, 0.032553293, 10.004743, 9.997908 
2.586732e+3, 1.6437973e+2, -746357.7, -1227739.4, -75474.15, 0.031938393, 0.37649083, -734801.8, 594308.1, 0.007938516, 10.004789, 9.998267 
2.5863704e+3, 1.7437215e+2, -1165881.9, -1412284.8, -146776.1, 0.062438853, 0.3797474, -1097454.0, 133734.28, 0.00076767127, 10.001323, 9.998013 
2.586008e+3, 1.8436442e+2, -1167214.0, -1287871.6, -175458.19, 0.062115926, 0.42256168, -1042002.7, 91261.48, 0.000005913737, 10.000332, 9.9986725 
2.5856444e+3, 1.9435623e+2, -839847.06, -1116705.6, -88720.86, -0.010220865, 0.33291647, -813855.94, 221485.67, 0.0, 10.002062, 9.998351 
2.5852823e+3, 2.0434889e+2, -604426.4, -886574.4, 42573.79, 0.012072189, 0.4014173, -598142.25, 339267.6, 0.0, 10.002713, 9.99895 
2.5849232e+3, 2.1434261e+2, -658487.94, -882457.06, 12359.962, 0.1467392, 0.47112542, -657807.94, 181657.3, 0.0, 10.00174, 9.998782 
2.5845617e+3, 2.243329e+2, -758543.56, -1126634.5, -84937.27, 0.13980423, 0.38708675, -739889.56, 1667.7611, 0.0, 10.001512, 9.996517 
2.584197e+3, 2.3431838e+2, -630675.94, -1068994.6, -94732.14, -0.069370486, -0.094061814, -611078.06, 32622.889, 0.0, 10.001945, 9.9960375 
2.5838357e+3, 2.4430946e+2, -414173.28, -649682.94, 114637.96, -0.151619, -0.042474102, -367586.8, 178206.2, 0.0, 10.001609, 9.998398 
2.5834793e+3, 2.5430784e+2, -521582.4, -668826.8, 144026.3, -0.10640877, 0.5393254, -433452.3, 14365.868, 0.0, 10.000273, 9.998247 
2.5831217e+3, 2.643023e+2, -354177.25, -215304.06, -38346.2, 0.02812254, 0.69338095, -205419.33, 144452.17, 0.0, 9.99934, 10.001144 
2.5827625e+3, 2.7429175e+2, -348830.1, -163945.25, -76413.71, 0.30826178, 0.08682085, -136451.63, 115508.79, 0.0, 9.998731, 10.001109 
2.5824025e+3, 2.8428477e+2, -364102.25, -190264.06, -8167.2935, 0.4012951, -0.034474105, -189881.19, -35858.7, 0.0, 9.9982395, 10.00049 
2.5820404e+3, 2.9428172e+2, -373071.16, -202299.44, 22929.89, 0.15024367, 0.20760661, -199274.19, -143215.94, 0.0, 9.997746, 9.999981 
2.5816774e+3, 3.0427608e+2, -354151.03, -252665.19, -92260.38, -0.040340483, 0.34214845, -198114.14, -198114.14, 0.0, 9.997935, 9.999214 
2.5813165e+3, 3.142707e+2, 32005.387, 317323.44, -67689.53, 0.12573028, 0.48064545, 332567.78, 332567.78, 0.0, 9.998865, 10.002693 
2.598178e+3, 1.24766625e+2, -1527287.6, -1573659.1, -37550.26, 0.31697875, 0.14899102, -1506341.8, 210958.77, 0.19077104, 10.001251, 10.00053 
2.5978154e+3, 1.3476336e+2, -1424546.6, -1506147.8, 40213.117, 0.020645699, 0.35352013, -1408060.4, 211277.25, 0.12932456, 10.001383, 10.000179 
2.5974545e+3, 1.447564e+2, -1348073.1, -1594302.0, -14468.958, -0.03231198, 0.39119205, -1347225.8, 174184.0, 0.07062259, 10.001964, 9.998469 
2.597095e+3, 1.5474772e+2, -1001523.1, -1423897.4, -13340.942, 0.1169114, 0.284917, -1001102.2, 422395.38, 0.027766839, 10.003844, 9.998072 
2.5967315e+3, 1.6473922e+2, -964042.06, -1515265.8, -181823.03, 0.10920333, 0.3570054, -909469.9, 416118.2, 0.0064744665, 10.004066, 9.996639 
2.5963646e+3, 1.7473087e+2, -1223086.4, -1632938.3, -227925.13, -0.013787267, 0.4677595, -1121508.6, 106173.34, 0.0005723583, 10.001737, 9.996312 
2.5960013e+3, 1.847229e+2, -907441.8, -883457.4, -88959.09, -0.036155093, 0.45530415, -805685.8, 324070.9, 0.0000035552432, 10.000909, 10.001173 
2.5956407e+3, 1.9471507e+2, -610451.56, -719368.56, 1707.0042, 0.028300269, 0.15729712, -610424.8, 421389.3, 0.0, 10.002374, 10.000941 
2.5952795e+3, 2.0470734e+2, -613744.5, -960214.1, 20511.428, 0.04324665, 0.08250089, -612534.4, 321344.84, 0.0, 10.002936, 9.998344 
2.594918e+3, 2.1469979e+2, -647514.56, -974463.44, -2507.8525, 0.031263407, 0.1283245, -647495.3, 188456.14, 0.0, 10.002185, 9.997967 
2.594556e+3, 2.246906e+2, -668422.0, -1050239.1, -52560.586, 0.013390135, 0.12797032, -661318.7, 76723.46, 0.0, 10.001971, 9.996819 
2.5941932e+3, 2.3467925e+2, -495854.6, -968055.7, -32184.557, -0.034304414, -0.05491269, -493671.03, 146486.17, 0.0, 10.002671, 9.996392 
2.5938332e+3, 2.4467087e+2, -249545.52, -488129.84, 95448.625, -0.008077378, -0.004586295, -216059.88, 326182.06, 0.0, 10.00233, 9.999177 
2.593476e+3, 2.5466615e+2, -414230.63, -546534.44, 126572.74, 0.117925785, 0.2230211, -337565.38, 106724.73, 0.0, 10.000639, 9.998932 
2.593116e+3, 2.6465955e+2, -394223.72, -336798.63, -28029.816, 0.1579398, 0.271105, -325385.38, 20969.605, 0.0, 9.999498, 10.000226 
2.5927538e+3, 2.7465048e+2, -370224.56, -301131.3, -74297.37, 0.15784521, -0.039497275, -253741.56, -5300.8555, 0.0, 9.999087, 10.000008 
2.592392e+3, 2.8464538e+2, -279741.84, -56682.445, -42562.645, 0.106931575, 0.03887018, -48836.887, 101653.695, 0.0, 9.9984, 10.001333 
2.5920293e+3, 2.9464453e+2, -382594.03, -107683.02, -18684.88, -0.07888802, 0.43948448, -106418.88, -53915.793, 0.0, 9.997211, 10.000902 
2.59167e+3, 3.0463827e+2, -379391.13, -294418.72, -29306.723, 0.08120119, 0.4775805, -285291.34, -285291.34, 0.0, 9.997839, 9.998991 
2.59131e+3, 3.1462315e+2, 285527.72, 499313.44, 347679.97, 0.13032597, -0.31278974, 756161.44, 756161.44, 0.0, 10.00026, 10.003298 
2.6081705e+3, 1.2512474e+2, -1456950.6, -1722198.4, 16875.73, -0.02037042, -0.08840982, -1455881.4, 257903.11, 0.16949528, 10.002719, 9.998589 
2.607811e+3, 1.3512126e+2, -1299618.5, -1545396.8, -14716.228, -0.0022323886, 0.19477083, -1298740.5, 317086.6, 0.11391173, 10.002806, 9.999176 
2.6074505e+3, 1.4511482e+2, -1357007.4, -1568628.3, -96269.76, 0.004986998, 0.31126612, -1319766.4, 198129.61, 0.061296463, 10.001738, 9.9987545 
2.6070896e+3, 1.5510683e+2, -1549678.3, -1677472.8, -99886.945, 0.086442165, 0.2312368, -1494999.6, -75021.555, 0.023481611, 9.999908, 9.99823 
2.606726e+3, 1.6509883e+2, -1406537.8, -1669118.6, -149847.23, 0.0501997, 0.31551597, -1338601.3, -16539.223, 0.005220199, 10.000719, 9.997237 
2.6063603e+3, 1.750908e+2, -915955.75, -1440725.4, -95812.72, -0.073476486, 0.41135705, -899009.44, 325139.94, 0.00041937284, 10.003646, 9.996742 
2.605997e+3, 1.8508257e+2, -491015.38, -769855.5, -4013.709, -0.08034672, 0.39616686, -490957.63, 635269.56, 0.0000020172258, 10.004117, 10.000423 
2.6056364e+3, 1.950741e+2, -739900.6, -879379.56, -130874.78, 0.024520041, 0.10907896, -661343.75, 366950.66, 0.0, 10.001896, 10.000084 
2.605275e+3, 2.0506597e+2, -867461.6, -1060890.6, -158081.47, 0.032180116, 0.013099183, -778856.25, 151507.03, 0.0, 10.001156, 9.998482 
2.6049122e+3, 2.1505794e+2, -779902.7, -1031924.06, -115017.875, -0.0510377, -0.028224766, -735303.25, 97133.82, 0.0, 10.0013275, 9.9979515 
2.6045504e+3, 2.2504954e+2, -686359.8, -1042967.9, -88113.125, -0.07454614, 0.041445926, -665776.3, 68744.16, 0.0, 10.001776, 9.996968 
2.6041895e+3, 2.350405e+2, -611943.7, -1014231.75, -76003.83, -0.02774429, 0.048238643, -598063.3, 38552.11, 0.0, 10.0018425, 9.996473 
2.6038292e+3, 2.4503233e+2, -431047.9, -545793.9, -36864.848, 0.07381944, 0.09411122, -420225.0, 118471.68, 0.0, 10.001009, 9.999404 
2.6034704e+3, 2.550251e+2, -663693.5, -657364.4, -42868.324, 0.2180712, 0.031953942, -617543.94, -176780.05, 0.0, 9.998939, 9.99898 
2.6031092e+3, 2.6501787e+2, -625283.06, -567722.9, -130598.414, 0.20650889, 0.058055863, -462771.0, -119935.52, 0.0, 9.998471, 9.999131 
2.6027453e+3, 2.7501014e+2, -485520.72, -502877.3, -138610.3, 0.06420665, -0.029067928, -355317.3, -110401.41, 0.0, 9.998966, 9.99868 
2.6023823e+3, 2.8500527e+2, -214588.39, -40294.652, -166144.39, -0.07106574, 0.14567459, 60171.203, 207137.72, 0.0, 9.998932, 10.001188 
2.6020187e+3, 2.950041e+2, -290868.56, -96821.79, -224244.31, -0.26127428, 0.4974624, 50488.71, 99468.86, 0.0, 9.998027, 10.000581 
2.6016632e+3, 3.0499756e+2, -397973.44, -354798.6, -128604.39, 0.21941029, 0.5374102, -245982.39, -245982.39, 0.0, 9.998002, 9.998467 
2.6013026e+3, 3.1498107e+2, -390358.56, -161980.64, 103927.79, 0.0032157945, -0.37069413, -121767.19, -121767.19, 0.0, 9.9972, 10.000174 
2.6181644e+3, 1.2548278e+2, -1504755.3, -1776773.9, 35556.234, -0.31864402, -0.33126304, -1500184.4, 210083.9, 0.14988405, 10.002411, 9.998348 
2.6178074e+3, 1.3547817e+2, -1429182.9, -1777999.1, 3077.8337, -0.045934014, -0.014095627, -1429155.8, 183170.67, 0.09979621, 10.002516, 9.997654 
2.617446e+3, 1.454723e+2, -1316909.9, -1488950.4, -139600.58, -0.0069755455, 0.20967142, -1238955.1, 275437.13, 0.05285716, 10.001783, 9.999281 
2.6170817e+3, 1.5546535e+2, -1415767.6, -1578913.5, -138754.64, -0.084117785, 0.19889516, -1336384.1, 80081.27, 0.019694533, 10.000687, 9.998542 
2.616719e+3, 1.6545832e+2, -1187457.3, -1340349.5, -40651.492, -0.1352836, 0.2649475, -1177320.8, 141214.22, 0.004163879, 10.00128, 9.999202 
2.616357e+3, 1.7545111e+2, -829906.8, -1200948.8, 20918.627, -0.18977687, 0.25219303, -828731.2, 391872.6, 0.00030229846, 10.003399, 9.998484 
2.6159942e+3, 1.8544264e+2, -737246.3, -1230622.3, -82515.125, -0.15904398, 0.28324243, -723811.8, 398876.25, 0.0000010444409, 10.003878, 9.997376 
2.6156312e+3, 1.9543307e+2, -901439.06, -1302397.1, -178367.17, -0.0623892, 0.2079501, -833577.44, 191207.02, 0.0, 10.002212, 9.997045 
2.615269e+3, 2.0542455e+2, -729460.2, -848838.1, -132220.03, -0.06454109, 0.15392764, -644080.5, 282780.97, 0.0, 10.001452, 9.999793 
2.6149067e+3, 2.1541677e+2, -623799.1, -827229.1, -85260.46, -0.15822072, 0.022766763, -592791.5, 236133.19, 0.0, 10.001809, 9.999121 
2.6145455e+3, 2.2540918e+2, -595003.4, -955243.1, -75555.29, -0.16027156, 0.09646134, -579798.5, 151200.19, 0.0, 10.002172, 9.997398 
2.614185e+3, 2.3540163e+2, -505262.66, -913888.25, -57879.227, -0.07379172, 0.23424558, -497222.63, 135859.45, 0.0, 10.002289, 9.996974 
2.6138234e+3, 2.4539357e+2, -428491.28, -577170.3, -117088.02, 0.013238447, 0.27480513, -364137.0, 171026.33, 0.0, 10.001149, 9.999125 
2.6134616e+3, 2.5538513e+2, -662181.6, -701642.3, -120070.28, 0.08788591, 0.14722805, -560231.44, -122989.03, 0.0, 9.999101, 9.998613 
2.6131007e+3, 2.6537782e+2, -593454.3, -572415.6, -105290.77, 0.15287991, 0.19067793, -477120.03, -137805.39, 0.0, 9.998723, 9.999001 
2.6127398e+3, 2.7537134e+2, -405895.6, -485190.6, -108045.94, 0.21618897, 0.27106994, -330452.5, -89069.69, 0.0, 9.999525, 9.998559 
2.6123768e+3, 2.853637e+2, -256035.86, -281541.66, -191457.34, 0.10868823, 0.2637418, -76907.16, 66552.13, 0.0, 9.999561, 9.999237 
2.6120117e+3, 2.953558e+2, -268062.16, -298909.16, -268476.5, -0.18602538, 0.16552868, -14566.501, 30969.61, 0.0, 9.999049, 9.998719 
2.6116544e+3, 3.0535102e+2, -224903.56, -53446.793, -176744.98, 0.18694143, 0.36124426, 57263.473, 57263.473, 0.0, 9.998184, 10.000472 
2.6112953e+3, 3.1534246e+2, -364596.66, -14922.552, -447204.47, 0.27902284, 0.074691415, 290406.84, 290406.84, 0.0, 9.996724, 10.001416 
2.6281616e+3, 1.258463e+2, -1510152.3, -1788888.0, -19456.947, -0.20697008, 0.06403365, -1508800.6, 197920.23, 0.13183974, 10.002334, 9.998303 
2.627803e+3, 1.358391e+2, -1522223.6, -1840041.9, -32742.518, -0.02385212, 0.12813017, -1518885.5, 89911.83, 0.08692972, 10.00183, 9.997571 
2.6274413e+3, 1.4583212e+2, -1244883.5, -1521459.5, -112570.375, -0.026299445, 0.2701258, -1204858.1, 306013.44, 0.045284748, 10.002505, 9.998752 
2.6270777e+3, 1.5582499e+2, -973963.44, -1408255.1, -159706.66, -0.10521533, 0.29536235, -921556.8, 491389.84, 0.01638905, 10.003909, 9.998206 
2.6267147e+3, 1.658178e+2, -889264.75, -1077077.6, -129021.51, -0.13890153, 0.29405212, -823593.7, 491420.16, 0.0032885466, 10.00284, 10.000253 
2.6263523e+3, 1.758104e+2, -1288525.6, -1334397.6, -113006.52, -0.14417592, 0.15053493, -1196151.0, 20926.412, 0.00021471751, 9.999857, 9.999289 
2.62599e+3, 1.8580265e+2, -1329594.6, -1575185.4, -108654.445, -0.1107697, 0.23412158, -1288425.1, -169269.88, 0.00000047553752, 10.000108, 9.99681 
2.6256275e+3, 1.9579454e+2, -964689.6, -1416803.4, -75364.375, -0.038745638, 0.36759132, -952457.8, 68786.9, 0.0, 10.002205, 9.996245 
2.6252645e+3, 2.0578542e+2, -605781.8, -842694.8, -37593.598, -0.05700711, 0.32994148, -599959.5, 323371.22, 0.0, 10.002513, 9.999341 
2.624902e+3, 2.1577588e+2, -804929.75, -964438.44, -107227.03, -0.13739364, 0.05564737, -751048.8, 74362.06, 0.0, 10.000796, 9.998673 
2.6245406e+3, 2.2576843e+2, -814944.44, -963769.4, -90924.86, -0.1112911, 0.117559016, -771864.2, -44381.86, 0.0, 10.000305, 9.99821 
2.6241803e+3, 2.3576224e+2, -832676.06, -1003969.44, -52206.73, 0.0005993922, 0.30148312, -818018.75, -188467.75, 0.0, 9.999816, 9.997531 
2.623818e+3, 2.4575451e+2, -606953.2, -663435.8, -102264.41, 0.020136446, 0.34942314, -529102.2, 2525.4712, 0.0, 9.999962, 9.999089 
2.6234537e+3, 2.5574547e+2, -618605.75, -721443.8, -71859.375, -0.019015715, 0.1678295, -581663.7, -147951.69, 0.0, 9.9995985, 9.99824 
2.623093e+3, 2.657382e+2, -443091.03, -528006.2, 23361.256, 0.09728346, 0.25462106, -437088.38, -101303.65, 0.0, 9.999922, 9.998698 
2.6227343e+3, 2.7573237e+2, -350192.9, -524980.25, 1978.0962, 0.30932474, 0.42260945, -350170.53, -112322.96, 0.0, 10.00025, 9.997916 
2.6223713e+3, 2.8572288e+2, -253780.27, -374200.84, -71098.06, 0.20586441, 0.31408754, -220822.89, -80881.43, 0.0, 10.00004, 9.998352 
2.622005e+3, 2.9571027e+2, -379809.88, -464217.25, -28391.877, -0.12625478, -0.15942141, -371148.53, -329086.47, 0.0, 9.99881, 9.997696 
2.6216465e+3, 3.0570814e+2, -149580.84, 162620.67, 14597.567, 0.21251118, 0.2936227, 163301.73, 163301.73, 0.0, 9.997984, 10.002041 
2.621288e+3, 3.1570336e+2, -531271.9, -462852.5, -94151.48, 0.474635, 0.24505009, -396888.3, -396888.3, 0.0, 9.997217, 9.998115 
2.6381603e+3, 1.2621163e+2, -1352351.1, -1663332.4, -2362.6497, -0.030776126, 0.6870182, -1352333.1, 350827.6, 0.11528717, 10.003374, 9.99868 
2.6377988e+3, 1.3620101e+2, -1411504.6, -1758236.3, 2926.2222, -0.056698356, 0.3630435, -1411479.9, 193781.88, 0.07524967, 10.002534, 9.997791 
2.637437e+3, 1.4619255e+2, -1269397.1, -1607548.9, -27795.018, -0.101183206, 0.39097044, -1267127.6, 240219.17, 0.038529176, 10.00267, 9.998052 
2.6370755e+3, 1.5618503e+2, -1065380.1, -1495868.8, -79197.89, -0.11810845, 0.44903308, -1051272.4, 358153.44, 0.013527696, 10.003488, 9.997784 
2.6367116e+3, 1.6617708e+2, -865061.2, -995475.2, -214650.39, -0.093745574, 0.3568721, -705932.0, 605565.56, 0.0025719018, 10.002699, 10.000891 
2.6363468e+3, 1.7616893e+2, -1175766.6, -1205016.0, -181898.7, -0.06282049, 0.08246052, -1007905.6, 205658.55, 0.00015054179, 10.000287, 9.999974 
2.6359847e+3, 1.8616278e+2, -1198316.6, -1388697.6, -25317.602, -0.03250004, 0.23708113, -1195007.3, -79382.56, 0.0000001940375, 10.000487, 9.997902 
2.6356238e+3, 1.9615762e+2, -862400.44, -1264638.0, 13624.025, -0.019998353, 0.5651755, -861939.5, 155744.77, 0.0, 10.002431, 9.997189 
2.6352614e+3, 2.0614779e+2, -714118.4, -1079351.3, -84402.14, -0.0060932306, 0.49913454, -695557.06, 224223.11, 0.0, 10.00257, 9.997678 
2.6348978e+3, 2.1613525e+2, -823991.4, -1116746.9, -130945.414, -0.017995609, 0.09972473, -773968.6, 47927.254, 0.0, 10.001246, 9.997415 
2.6345363e+3, 2.2612707e+2, -678483.56, -751911.3, -86030.6, 0.05386113, 0.074933246, -621660.4, 102312.8, 0.0, 10.000577, 9.99955 
2.634176e+3, 2.3612168e+2, -651351.4, -751847.2, -44002.316, 0.16786082, 0.21775244, -634808.1, -8781.514, 0.0, 10.000302, 9.999035 
2.6338124e+3, 2.4611464e+2, -512679.0, -534809.9, -81649.51, 0.11951414, 0.22328079, -441348.53, 86742.97, 0.0, 10.0002165, 9.999858 
2.633447e+3, 2.5610647e+2, -470099.75, -557494.1, -26167.86, -0.035208497, 0.063220605, -462863.66, -32699.361, 0.0, 10.000175, 9.999087 
2.6330858e+3, 2.6609892e+2, -391461.88, -567424.9, 76988.664, 0.0015634734, 0.115286745, -362533.2, -30292.314, 0.0, 10.000509, 9.998164 
2.6327276e+3, 2.7609193e+2, -240676.38, -481525.66, 46750.6, 0.17316876, 0.2428742, -231920.08, 2397.6545, 0.0, 10.000975, 9.997884 
2.6323655e+3, 2.8608394e+2, -28623.145, -23522.62, -57206.297, 0.2276782, 0.16642505, 31190.23, 167586.23, 0.0, 10.000467, 10.000583 
2.6320007e+3, 2.9607505e+2, -168718.27, -116939.62, 43750.684, 0.17045422, -0.13088249, -91992.15, -53514.42, 0.0, 9.99913, 9.999949 
2.631638e+3, 3.0607307e+2, -177968.44, -24288.9, 97443.875, 0.19348027, 0.319248, 22966.695, 22966.695, 0.0, 9.998477, 10.000548 
2.631277e+3, 3.1606776e+2, -274037.2, 1160.9465, -149376.02, 0.27815488, 0.39716312, 66654.7, 66654.7, 0.0, 9.997419, 10.001227 
2.64816e+3, 1.2657313e+2, -995762.5, -1562073.9, 37663.02, 0.039849285, 0.5992809, -993268.7, 706348.2, 0.10016987, 10.006385, 9.998004 
2.6477972e+3, 1.3656156e+2, -1162402.6, -1685212.1, -3839.5645, 0.036882404, 0.2633503, -1162374.4, 439351.66, 0.064692505, 10.004618, 9.99727 
2.6474342e+3, 1.4655292e+2, -1232858.3, -1633469.4, 5875.9546, -0.03585255, 0.3153332, -1232772.0, 271040.22, 0.032530583, 10.003146, 9.997616 
2.6470712e+3, 1.5654552e+2, -1389159.0, -1720570.1, -42798.004, -0.11100761, 0.43550438, -1383721.4, 22168.297, 0.011066901, 10.001534, 9.997167 
2.6467073e+3, 1.6653714e+2, -1110686.9, -1293975.4, -209922.16, -0.07926986, 0.41419184, -973276.56, 334692.7, 0.0019930317, 10.001752, 9.999304 
2.6463425e+3, 1.765284e+2, -973223.8, -1257523.5, -297724.22, -0.002545325, 0.23193596, -785455.06, 424592.66, 0.00010503105, 10.002317, 9.998653 
2.6459792e+3, 1.8652149e+2, -921118.9, -1094937.8, -142094.02, -0.048941642, 0.2727679, -841463.1, 270649.06, 0.00000008640195, 10.001744, 9.999291 
2.6456174e+3, 1.965157e+2, -1146176.4, -1294470.4, -106422.15, -0.14070992, 0.39124668, -1090618.1, -76449.01, 0.0, 10.00006, 9.998119 
2.645256e+3, 2.0650692e+2, -1024553.3, -1264560.3, -129613.414, -0.064098574, 0.39604437, -967920.25, -51664.41, 0.0, 10.000625, 9.99734 
2.6448944e+3, 2.1649604e+2, -804517.4, -1169485.1, -102377.03, 0.102975115, 0.20149307, -777761.2, 40601.52, 0.0, 10.001656, 9.996877 
2.644532e+3, 2.2648755e+2, -534780.5, -659803.5, -91161.66, 0.15649284, 0.1545407, -486756.3, 233687.17, 0.0, 10.001458, 9.99976 
2.6441696e+3, 2.3648092e+2, -745190.9, -789807.75, -128990.46, 0.16416766, 0.14013347, -636594.0, -14089.323, 0.0, 9.999652, 9.999097 
2.6438063e+3, 2.4647415e+2, -453408.75, -470934.16, -162993.1, 0.12661698, 0.13819395, -298942.97, 225621.55, 0.0, 10.0005, 10.000145 
2.6434422e+3, 2.5646707e+2, -276652.2, -470841.0, -153181.78, 0.030016162, 0.034268275, -192385.11, 234240.94, 0.0, 10.001574, 9.999006 
2.6430798e+3, 2.664593e+2, -414339.38, -593613.5, -76008.37, -0.032710277, 0.06438629, -386451.63, -57746.27, 0.0, 10.000473, 9.99797 
2.642719e+3, 2.7645114e+2, -766579.44, -756281.2, -59900.914, -0.025672756, 0.071791284, -701308.5, -470513.47, 0.0, 9.997517, 9.997649 
2.6423582e+3, 2.8644493e+2, -400282.66, 1176.4785, -180213.67, 0.20480628, 0.07348232, 70204.81, 203059.45, 0.0, 9.997136, 10.002311 
2.6419953e+3, 2.9644004e+2, -361425.34, -80809.48, -124724.805, 0.42528394, -0.021977995, -33387.3, 1508.0153, 0.0, 9.9973345, 10.001038 
2.6416278e+3, 3.064368e+2, -371346.22, -268740.2, -31457.09, -0.013155722, 0.30812034, -259863.9, -259863.9, 0.0, 9.997843, 9.999145 
2.6412633e+3, 3.164229e+2, -305635.16, 72065.18, -153890.7, -0.2042528, -0.3743253, 126826.86, 126826.86, 0.0, 9.996885, 10.001958 
2.6581594e+3, 1.2693357e+2, -1266056.6, -1792896.4, -55816.92, -0.010403379, 0.32525104, -1260208.0, 435869.06, 0.08642939, 10.004757, 9.997075 
2.6577964e+3, 1.3692193e+2, -1178611.5, -1790292.6, -42068.37, 0.12257348, 0.06736363, -1175731.9, 422456.1, 0.05519947, 10.00488, 9.996423 
2.6574314e+3, 1.4691332e+2, -1162072.8, -1624380.4, -31990.342, 0.018347926, 0.17151596, -1159869.6, 340403.66, 0.027235242, 10.003772, 9.997369 
2.6570663e+3, 1.5690613e+2, -1352821.1, -1771877.8, -48383.957, -0.17019013, 0.34929162, -1347307.4, 55039.824, 0.0089680515, 10.002085, 9.996547 
2.656702e+3, 1.668976e+2, -1237848.5, -1641342.8, -141275.95, -0.13272098, 0.49033588, -1193301.5, 111133.87, 0.0015322798, 10.002163, 9.9966955 
2.6563385e+3, 1.7688832e+2, -1056150.1, -1495794.3, -209927.88, -0.030760793, 0.5207161, -972012.56, 234517.97, 0.00007382683, 10.002601, 9.996876 
2.6559737e+3, 1.8687883e+2, -779798.5, -854252.8, -151696.67, -0.17782003, 0.28881553, -660827.9, 447786.94, 0.000000036839044, 10.001949, 10.0008545 
2.6556084e+3, 1.9686948e+2, -984143.0, -1046591.44, -111452.07, -0.45020348, -0.09301985, -899623.9, 111068.4, 0.0, 10.000409, 9.999656 
2.6552483e+3, 2.0686322e+2, -935743.75, -1134765.8, -61524.098, -0.24936995, 0.057189282, -918260.5, -5506.0127, 0.0, 10.000869, 9.998099 
2.6548907e+3, 2.1685807e+2, -661071.9, -1026534.6, -43661.43, 0.14229333, 0.36725062, -655928.1, 158884.36, 0.0, 10.002288, 9.997553 
2.6545268e+3, 2.2684947e+2, -551612.5, -768903.56, -138303.1, 0.11367638, 0.33061534, -484384.2, 232512.27, 0.0, 10.001744, 9.998886 
2.6541606e+3, 2.3683959e+2, -694717.25, -839352.1, -144752.17, -0.10339562, 0.08542064, -605223.06, 13766.13, 0.0, 10.000247, 9.998486 
2.6537997e+3, 2.468324e+2, -412839.4, -493422.1, -90288.78, 0.0063887215, 0.09043848, -354259.84, 166795.8, 0.0, 10.000926, 9.999807 
2.6534402e+3, 2.568265e+2, -135167.97, -399661.72, -121469.125, 0.23463675, 0.15161487, -87848.74, 335260.88, 0.0, 10.002488, 9.99906 
2.6530746e+3, 2.668189e+2, -340271.06, -479644.13, -217765.36, 0.039697606, 0.15885577, -181313.84, 143874.6, 0.0, 10.00062, 9.998686 
2.652707e+3, 2.768106e+2, -753631.4, -631084.4, -175967.53, -0.2749004, 0.08638198, -506027.47, -278748.38, 0.0, 9.997038, 9.99875 
2.652346e+3, 2.8680527e+2, -482636.25, -38985.535, -166160.53, -0.0004839614, 0.121246465, 16345.765, 145676.27, 0.0, 9.996532, 10.002352 
2.6519862e+3, 2.9680178e+2, -305983.94, -11861.411, -156071.67, 0.4048815, 0.17916566, 55519.355, 86878.016, 0.0, 9.997478, 10.001449 
2.651619e+3, 3.067975e+2, -351853.44, -159031.36, -98789.87, -0.025056114, 0.33010828, -117404.266, -117404.266, 0.0, 9.997495, 10.00009 
2.6512557e+3, 3.167876e+2, -182430.25, 197603.66, -141461.56, -0.049011957, -0.027978638, 244478.7, 244478.7, 0.0, 9.99734, 10.002637 
2.668155e+3, 1.272925e+2, -1460480.5, -1784141.9, -85863.04, -0.115161665, 0.19392389, -1439112.8, 253445.22, 0.07399921, 10.002715, 9.998114 
2.6677948e+3, 1.3728498e+2, -950053.56, -1609861.8, -67148.055, 0.06929499, 0.24053493, -943289.3, 651339.44, 0.04671133, 10.006157, 9.997064 
2.6674294e+3, 1.4727558e+2, -814104.44, -1443599.5, -116744.6, -0.034583464, 0.22854029, -793150.75, 703567.9, 0.022592485, 10.006121, 9.997519 
2.667063e+3, 1.5726593e+2, -1015906.75, -1594607.9, -113767.875, -0.20739642, 0.1462517, -994344.4, 404467.75, 0.0071954923, 10.004324, 9.996717 
2.6666987e+3, 1.6725723e+2, -992116.4, -1478443.3, -39243.695, -0.11778809, 0.24078944, -988970.0, 311929.94, 0.001170623, 10.003663, 9.99709 
2.6663357e+3, 1.7724876e+2, -1019717.5, -1472300.4, 34819.902, 0.08593724, 0.33391932, -1017054.25, 185932.95, 0.00005271245, 10.002852, 9.996906 
2.6659703e+3, 1.8723932e+2, -832822.5, -983765.1, 25445.77, -0.04848409, 0.18209156, -828648.3, 276425.34, 0.000000014947995, 10.002052, 9.999918 
2.665604e+3, 1.972296e+2, -1023197.9, -1144730.1, -64023.887, -0.2905133, -0.13302965, -995694.1, 11463.109, 0.0, 10.000528, 9.998923 
2.6652429e+3, 2.0722307e+2, -998777.9, -1093479.5, 5217.9507, -0.20197536, -0.019098086, -998491.25, -89267.96, 0.0, 10.000163, 9.998694 
2.6648843e+3, 2.1721831e+2, -1070550.5, -1193677.1, -2854.0486, 0.065502346, 0.27128914, -1070484.4, -259206.05, 0.0, 9.999424, 9.997761 
2.6645207e+3, 2.2721007e+2, -729708.5, -888322.4, -75561.74, 0.041874107, 0.28084037, -699474.7, 13884.88, 0.0, 10.00075, 9.998499 
2.664155e+3, 2.3719999e+2, -544666.25, -826416.0, -62249.34, -0.11542626, 0.057350602, -531525.8, 83929.11, 0.0, 10.00161, 9.997903 
2.663794e+3, 2.4719265e+2, -512847.1, -567924.2, 12655.973, 0.013614905, 0.091569416, -510078.13, 7447.479, 0.0, 10.000399, 9.999539 
2.6634347e+3, 2.5718662e+2, -862495.9, -798945.44, -28420.334, 0.2637523, 0.17685495, -788089.94, -368505.44, 0.0, 9.997749, 9.998606 
2.663068e+3, 2.6717976e+2, -644183.2, -545735.8, -166282.53, 0.042379595, 0.23410292, -421544.22, -99886.7, 0.0, 9.998223, 9.999371 
2.6626974e+3, 2.7717242e+2, -499358.53, -472363.56, -114903.36, -0.36046362, 0.19293354, -370167.63, -146430.0, 0.0, 9.99868, 9.999048 
2.6623356e+3, 2.8716704e+2, -261451.33, 22113.264, -75394.61, -0.099927165, 0.23472476, 40912.93, 166702.58, 0.0, 9.998286, 10.001909 
2.6619762e+3, 2.9716304e+2, -461031.6, -142827.0, -95430.56, 0.3081739, 0.27827892, -116401.586, -88576.87, 0.0, 9.996709, 10.000917 
2.6616102e+3, 3.0715805e+2, -387712.25, -37996.484, -58209.44, 0.006824553, 0.31071246, -28562.16, -28562.16, 0.0, 9.996719, 10.00126 
2.6612496e+3, 3.1715426e+2, -299286.53, 137426.36, -103361.555, 0.22636224, 0.43737862, 160654.56, 160654.56, 0.0, 9.996666, 10.002523 
2.6781502e+3, 1.2765113e+2, -1363413.1, -1550875.3, 64351.492, -0.3327446, 0.13482042, -1343448.9, 345594.34, 0.06277893, 10.002638, 9.999784 
2.6777932e+3, 1.3764852e+2, -1013860.44, -1515572.1, 23516.115, -0.11106608, 0.5179248, -1012760.56, 578305.5, 0.039145917, 10.005109, 9.998237 
2.6774278e+3, 1.4763802e+2, -942529.0, -1461838.0, -165568.55, -0.17130777, 0.326077, -894233.2, 598930.06, 0.01854353, 10.005045, 9.99789 
2.6770598e+3, 1.576249e+2, -1042241.5, -1513887.6, -137185.77, -0.30120307, -0.1376804, -1005241.44, 390043.3, 0.005710664, 10.003736, 9.997551 
2.6766962e+3, 1.6761635e+2, -861165.5, -1180221.0, -51771.12, -0.102551, -0.19405088, -852975.2, 444388.9, 0.0008890518, 10.003546, 9.999187 
2.6763338e+3, 1.7760941e+2, -879754.4, -1282666.3, 10836.471, 0.1872594, -0.14168441, -879463.2, 319965.84, 0.000037964888, 10.003281, 9.99799 
2.6759687e+3, 1.8760209e+2, -965484.6, -1331401.1, -17339.209, 0.2361231, 0.034019276, -964664.8, 136837.75, 0.0000000057994387, 10.002365, 9.997383 
2.6756033e+3, 1.9759454e+2, -1073404.0, -1353514.8, -69193.7, 0.16068168, 0.18809398, -1057243.9, -53664.973, 0.0, 10.000953, 9.997288 
2.6752388e+3, 2.0758559e+2, -918503.1, -983384.94, 13084.802, -0.017392255, 0.08542578, -915963.7, -10294.157, 0.0, 10.000393, 9.999349 
2.674875e+3, 2.1757641e+2, -915584.5, -1040662.56, 25312.613, -0.2139183, -0.11877204, -910656.06, -102893.41, 0.0, 10.000088, 9.998504 
2.6745144e+3, 2.2756933e+2, -670309.2, -849190.94, 990.47614, -0.051893804, -0.028727217, -670303.7, 39528.605, 0.0, 10.001078, 9.998627 
2.674154e+3, 2.3756273e+2, -407048.9, -731713.6, -17615.324, 0.20418385, 0.09803374, -406095.97, 205799.69, 0.0, 10.00238, 9.998194 
2.6737893e+3, 2.475552e+2, -487738.44, -558649.94, -80422.94, 0.14199625, 0.10333178, -435302.47, 78668.695, 0.0, 10.000542, 9.99955 
2.673423e+3, 2.5754765e+2, -853192.4, -741100.75, -61696.445, -0.024979897, 0.043128043, -713794.4, -297746.44, 0.0, 9.997508, 9.99914 
2.6730585e+3, 2.6754287e+2, -593697.25, -443580.8, -48778.633, -0.03525803, 0.25049457, -429123.16, -111023.164, 0.0, 9.998165, 10.000135 
2.6726946e+3, 2.7753884e+2, -251622.73, -277983.25, -29497.447, 0.027817214, 0.48378274, -232494.81, -12349.059, 0.0, 9.999999, 9.999755 
2.6723307e+3, 2.8753176e+2, -222752.05, -77864.58, -99754.08, 0.1604602, 0.39463052, -27024.21, 95188.67, 0.0, 9.999037, 10.000882 
2.6719657e+3, 2.9752392e+2, -422625.22, -141734.1, -102396.9, 0.22002517, 0.17262278, -108369.18, -84085.13, 0.0, 9.9969635, 10.000834 
2.6715988e+3, 3.0751887e+2, -240977.3, 239270.2, 21532.545, -0.13244419, 0.09501856, 240233.7, 240233.7, 0.0, 9.996802, 10.00315 
2.6712385e+3, 3.1751624e+2, -322068.4, -49755.555, -48305.563, 0.07252176, 0.2166404, -41440.53, -41440.53, 0.0, 9.997141, 10.00104 
2.688147e+3, 1.2801172e+2, -1308776.4, -1582838.9, 151277.08, -0.29960778, 0.0486566, -1241694.1, 443804.94, 0.052671097, 10.003153, 9.999368 
2.68779e+3, 1.3800731e+2, -1329743.5, -1675801.1, 4441.614, -0.1533959, 0.2910428, -1329686.5, 257857.42, 0.032423306, 10.002843, 9.998207 
2.6874232e+3, 1.4799838e+2, -1311953.1, -1590598.5, -217382.83, -0.25485808, 0.2201404, -1193078.0, 296551.3, 0.015032757, 10.002211, 9.998362 
2.687055e+3, 1.5798762e+2, -1382399.0, -1629515.3, -176475.55, -0.353676, -0.061053578, -1290526.8, 101204.016, 0.0044764117, 10.001188, 9.997981 
2.686692e+3, 1.6797964e+2, -987144.94, -1216339.0, -90155.82, -0.1478535, -0.09396485, -955932.0, 337871.7, 0.00066900725, 10.002582, 9.999418 
2.6863307e+3, 1.7797269e+2, -739750.5, -1200269.9, -156943.9, 0.15373404, -0.07972109, -691351.06, 504515.53, 0.000027210404, 10.004181, 9.998142 
2.6859653e+3, 1.8796456e+2, -787028.1, -1244909.9, -169073.44, 0.23503244, -0.005665016, -731364.44, 366582.7, 0.000000001728097, 10.003596, 9.997385 
2.6855987e+3, 1.979565e+2, -1020074.8, -1354653.9, -62093.844, 0.25472134, 0.098384134, -1008922.6, -8892.683, 0.0, 10.001446, 9.997049 
2.6852342e+3, 2.0794858e+2, -787738.75, -952069.8, 59807.56, 0.07671539, 0.12796459, -768276.9, 133836.34, 0.0, 10.00144, 9.999061 
2.6848698e+3, 2.1794039e+2, -798836.1, -1015327.3, 9768.336, -0.15893745, 0.049105722, -798396.25, 5802.438, 0.0, 10.001071, 9.998203 
2.6845092e+3, 2.279324e+2, -718868.06, -845776.06, -3861.876, -0.02778248, 0.03493586, -718750.6, -12475.322, 0.0, 10.000648, 9.998849 
2.6841494e+3, 2.3792505e+2, -857344.0, -958455.9, -31098.363, 0.2622218, 0.0634383, -848545.0, -240200.95, 0.0, 9.999372, 9.998085 
2.6837826e+3, 2.4791794e+2, -548895.0, -569961.7, -117531.96, 0.12766074, 0.092772216, -441425.34, 68990.92, 0.0, 10.000105, 9.999634 
2.683414e+3, 2.5791097e+2, -493580.88, -577760.7, -76808.695, -0.16543593, 0.07279286, -448085.75, -35596.87, 0.0, 10.000096, 9.998987 
2.6830506e+3, 2.679065e+2, -425822.84, -304583.88, -15475.196, -0.041504376, 0.27667248, -302639.78, 11895.375, 0.0, 9.999142, 10.000579 
2.6826897e+3, 2.7790284e+2, -658681.6, -495535.6, -36106.83, 0.25636387, 0.50101334, -487901.78, -271329.0, 0.0, 9.997353, 9.999529 
2.682324e+3, 2.8789467e+2, -438550.94, -291964.25, -152232.02, 0.2864322, 0.36376345, -196300.48, -77649.88, 0.0, 9.998051, 9.99987 
2.6819557e+3, 2.9788512e+2, -308887.9, -172835.0, -136653.16, 0.12779684, 0.06165793, -88212.56, -67473.21, 0.0, 9.998184, 10.000013 
2.6815882e+3, 3.0788025e+2, -87139.82, 375713.84, -93328.04, -0.24922702, -0.014493522, 393823.6, 393823.6, 0.0, 9.997661, 10.003629 
2.6812264e+3, 3.178758e+2, -638219.94, -460485.0, -206060.28, -0.18259524, -0.114943735, -324946.0, -324946.0, 0.0, 9.996225, 9.998618 
2.6981446e+3, 1.2837239e+2, -1428541.4, -1728256.8, 142215.63, -0.2760917, -0.07502243, -1371801.4, 310151.16, 0.043612212, 10.0027485, 9.998473 
2.6977858e+3, 1.3836451e+2, -1445853.6, -1769246.4, 17135.176, -0.2242579, -0.11062456, -1444948.3, 139087.92, 0.026484963, 10.0022135, 9.997844 
2.6974183e+3, 1.4835839e+2, -1296108.1, -1518401.3, -213037.67, -0.34702015, 0.074853934, -1166966.1, 319134.25, 0.012009427, 10.002059, 9.9989195 
2.697049e+3, 1.5835236e+2, -1296083.4, -1568446.4, -142578.08, -0.45113972, 0.22232185, -1235100.1, 153062.2, 0.003455713, 10.001702, 9.998139 
2.6966873e+3, 1.6834496e+2, -1001871.6, -1307682.0, 17959.354, -0.25895712, 0.28501067, -1000820.5, 289412.13, 0.00049606664, 10.002813, 9.998679 
2.696327e+3, 1.7833716e+2, -735507.25, -1197973.1, -85410.04, -0.027036559, 0.28451133, -720237.56, 472067.53, 0.00001910138, 10.004187, 9.998153 
2.69596e+3, 1.8832634e+2, -661091.3, -981099.1, -213812.39, 0.0057104058, -0.028578233, -554042.8, 540363.5, 0.0000000002885943, 10.00357, 9.999202 
2.6955914e+3, 1.9831558e+2, -873055.0, -1170994.5, -76936.41, -0.020222113, -0.35735935, -854360.8, 142147.6, 0.0, 10.001929, 9.998073 
2.6952294e+3, 2.083123e+2, -811884.56, -1085577.5, 85631.914, 0.08477871, 0.16889909, -787300.6, 111251.91, 0.0, 10.001733, 9.998029 
2.6948687e+3, 2.1831033e+2, -722851.8, -1024572.6, 22087.492, 0.17990287, 0.81630826, -721243.5, 79342.73, 0.0, 10.001738, 9.997821 
2.6945043e+3, 2.2829899e+2, -648113.1, -764639.6, -29140.953, 0.04325311, 0.4538209, -641231.9, 61460.652, 0.0, 10.00089, 9.999304 
2.694139e+3, 2.3828603e+2, -728636.56, -796402.75, -30022.158, -0.11247248, -0.12529191, -717249.44, -112439.22, 0.0, 9.9997835, 9.998996 
2.693775e+3, 2.4828121e+2, -470773.22, -485513.34, -53622.563, -0.04623406, 0.076324284, -424016.6, 82841.88, 0.0, 10.000411, 10.000082 
2.6934105e+3, 2.5827807e+2, -263397.06, -403524.2, -48860.72, 0.03574594, 0.41554663, -248042.39, 160850.38, 0.0, 10.00134, 9.999593 
2.6930445e+3, 2.6826957e+2, -333627.53, -248695.69, -85927.07, 0.039451554, 0.19331738, -195313.73, 115656.13, 0.0, 9.9996805, 10.000722 
2.6926786e+3, 2.7826017e+2, -661100.8, -498550.9, -57895.305, 0.064822264, -0.15341036, -480038.66, -266984.34, 0.0, 9.997279, 9.999546 
2.6923138e+3, 2.882533e+2, -481498.3, -411367.25, -73355.78, 0.120079756, -0.10117077, -365126.78, -250003.38, 0.0, 9.998111, 9.999032 
2.691948e+3, 2.9824722e+2, -187541.19, -279306.3, -105755.98, 0.11213654, 0.039475787, -118143.51, -100956.66, 0.0, 9.999664, 9.998564 
2.6915812e+3, 3.082418e+2, -256964.72, -143519.16, -227207.47, -0.101839416, 0.21375406, 33938.992, 33938.992, 0.0, 9.9983, 9.99979 
2.6912192e+3, 3.1823397e+2, -407015.25, -183899.95, -139718.61, 0.057563834, 0.09188478, -116666.11, -116666.11, 0.0, 9.996979, 10.000183 
2.7081415e+3, 1.2873599e+2, -1384271.3, -1667687.9, 122533.94, -0.2733817, -0.022501644, -1338640.9, 339753.16, 0.035544284, 10.002849, 9.998845 
2.707782e+3, 1.3872987e+2, -1558822.3, -1822967.9, 40804.137, -0.11701296, 0.11129349, -1552662.8, 27795.576, 0.02126901, 10.001351, 9.997932 
2.7074152e+3, 1.4872217e+2, -1282260.9, -1537368.9, -136866.61, -0.16318743, 0.15129372, -1222725.3, 259809.84, 0.0094155185, 10.002239, 9.998722 
2.7070478e+3, 1.5871435e+2, -1056305.4, -1459296.3, -98265.55, -0.19437353, 0.14724687, -1033621.06, 350991.25, 0.0026134893, 10.003368, 9.998094 
2.706685e+3, 1.6870701e+2, -954689.56, -1252593.9, 65866.52, -0.10644022, 0.1943164, -940776.3, 345906.3, 0.0003600524, 10.00299, 9.998958 
2.7063236e+3, 1.7869966e+2, -1090341.0, -1355023.0, -691.98047, -0.0065810895, 0.2203274, -1090339.3, 98413.22, 0.000012952271, 10.001716, 9.998251 
2.7059552e+3, 1.8869023e+2, -845073.7, -1057165.4, -186172.6, -0.08992694, 0.036325004, -736862.75, 353981.0, 0.000000000007316074, 10.002269, 9.999296 
2.7055857e+3, 1.9868045e+2, -781169.1, -1120873.5, -126147.734, -0.18121932, -0.20611711, -739448.6, 253490.17, 0.0, 10.002551, 9.998131 
2.7052248e+3, 2.0867611e+2, -714669.4, -998015.3, 80930.81, 0.04727876, 0.1779296, -693182.9, 201805.52, 0.0, 10.00224, 9.998384 
2.7048653e+3, 2.1867333e+2, -820783.94, -1055252.5, 110433.14, 0.3237029, 0.71765465, -776961.25, 20063.771, 0.0, 10.001025, 9.997956 
2.7044994e+3, 2.2866297e+2, -580448.4, -664128.06, 81177.26, 0.1354013, 0.40978974, -530962.9, 168159.27, 0.0, 10.001124, 9.9998455 
2.7041322e+3, 2.3865083e+2, -645108.75, -778330.75, 86089.414, -0.16367239, -0.12296863, -602869.3, -1636.35, 0.0, 10.000498, 9.998769 
2.7037677e+3, 2.4864575e+2, -564809.1, -603859.7, 7124.12, -0.114318125, 0.10292231, -563550.06, -60264.457, 0.0, 10.000076, 9.999426 
2.7034044e+3, 2.5864252e+2, -695971.5, -688631.25, -93816.125, 0.05413246, 0.48438084, -598413.5, -193091.66, 0.0, 9.998768, 9.998859 
2.7030373e+3, 2.686325e+2, -449018.75, -307346.25, -199598.58, 0.05140479, 0.12774555, -166386.94, 141023.4, 0.0, 9.998967, 10.000635 
2.7026692e+3, 2.7862096e+2, -537320.25, -489118.44, -146699.83, -0.003230528, -0.4322797, -364552.97, -155041.6, 0.0, 9.998421, 9.999051 
2.702305e+3, 2.8861472e+2, -413248.28, -425876.63, -56918.336, 0.03870664, -0.28446794, -362294.94, -250718.73, 0.0, 9.998845, 9.998551 
2.7019405e+3, 2.9861003e+2, -447910.38, -563459.56, -65893.39, 0.054311067, 0.058327485, -418050.25, -404420.28, 0.0, 9.998615, 9.997118 
2.7015743e+3, 3.086036e+2, -470810.25, -526955.6, -116477.695, 0.019483574, 0.33902225, -379070.06, -379070.06, 0.0, 9.9981, 9.997232 
2.7012116e+3, 3.185931e+2, -384783.97, 122756.6, 330662.38, 0.21174383, 0.13278522, 285803.97, 285803.97, 0.0, 9.995957, 10.002779 
2.7181378e+3, 1.291011e+2, -1404779.0, -1589694.3, 86270.484, -0.3013966, 0.15337537, -1370781.0, 304044.1, 0.028410181, 10.002334, 9.999623 
2.7177784e+3, 1.3909787e+2, -1402056.8, -1725903.8, 51064.188, -0.033496596, 0.50530916, -1394195.8, 182661.77, 0.01671261, 10.002393, 9.998077 
2.717414e+3, 1.4908701e+2, -1199017.3, -1550554.8, -52182.938, 0.0766847, 0.26424348, -1191434.8, 287524.63, 0.007198081, 10.003081, 9.998202 
2.7170485e+3, 1.5907504e+2, -1002807.5, -1425367.9, -38139.24, 0.15183999, -0.11023876, -999392.75, 381678.34, 0.0019202423, 10.00371, 9.998156 
2.7166843e+3, 1.690675e+2, -916365.25, -1139604.5, 49603.39, 0.13631219, -0.13856511, -905839.75, 377302.53, 0.00025324232, 10.002865, 9.99979 
2.71632e+3, 1.7906116e+2, -1096931.9, -1333735.5, -13304.259, 0.056809768, -0.07542636, -1096186.8, 89016.98, 0.000008369746, 10.001544, 9.998486 
2.7159503e+3, 1.8905582e+2, -922914.75, -1203266.4, -140096.42, -0.13051923, 0.21492767, -864908.2, 222356.31, 0.0, 10.002201, 9.998331 
2.7155808e+3, 1.990501e+2, -718814.6, -1062368.6, -84962.44, -0.31508905, 0.45663807, -698951.44, 290377.56, 0.0, 10.002845, 9.998393 
2.7152196e+3, 2.0903917e+2, -570695.94, -741976.0, 74674.32, -0.06796533, 0.067828715, -542711.75, 348715.94, 0.0, 10.002421, 10.000067 
2.7148592e+3, 2.1902852e+2, -607535.9, -763291.4, 106969.1, 0.22776565, -0.33867988, -553098.3, 240423.69, 0.0, 10.001638, 9.999673 
2.714496e+3, 2.2902448e+2, -476120.88, -527400.9, 107718.75, 0.28199428, -0.10998708, -391032.66, 304527.94, 0.0, 10.00144, 10.000659 
2.7141306e+3, 2.3902084e+2, -537410.0, -749608.0, 100937.09, 0.21329056, 0.16582036, -497066.9, 100530.64, 0.0, 10.00128, 9.998595 
2.7137616e+3, 2.4901128e+2, -688599.1, -911578.9, -16135.236, -0.08426809, 0.11196881, -687437.6, -187738.39, 0.0, 10.000253, 9.99725 
2.7133927e+3, 2.590015e+2, -741500.56, -830597.4, -109637.22, -0.34540123, 0.046531357, -667706.75, -265903.06, 0.0, 9.99893, 9.997804 
2.713029e+3, 2.689957e+2, -462119.7, -382261.7, -180320.83, -0.029094549, 0.18356211, -237501.95, 66357.63, 0.0, 9.999132, 10.000063 
2.7126655e+3, 2.7899012e+2, -351832.94, -367785.2, -143469.86, 0.35287207, 0.27624097, -216117.66, -10206.884, 0.0, 9.999524, 9.999344 
2.7122992e+3, 2.889821e+2, -262020.9, -246883.36, -61453.273, 0.20749192, 0.18276659, -192534.53, -84545.69, 0.0, 9.999427, 9.9995 
2.7119318e+3, 2.989739e+2, -244539.78, -241835.0, -54916.844, -0.070760734, 0.07077509, -188253.89, -178184.22, 0.0, 9.998987, 9.999151 
2.7115673e+3, 3.0896646e+2, -220410.05, -74999.125, -32063.938, 0.14369653, -0.0034235893, -68242.77, -68242.77, 0.0, 9.998346, 10.000246 
2.7112028e+3, 3.189603e+2, -414995.56, 148340.83, 211843.11, 0.40154353, 0.011211615, 219113.36, 219113.36, 0.0, 9.995511, 10.003184 
2.728136e+3, 1.2946616e+2, -1365094.8, -1560002.4, 226485.31, -0.118609056, 0.1550017, -1215986.5, 455257.44, 0.022187881, 10.00245, 9.99983 
2.7277747e+3, 1.3945922e+2, -940329.2, -1505923.5, 97561.52, -0.16382949, 0.14275554, -923973.4, 649335.4, 0.012784076, 10.005535, 9.998124 
2.7274114e+3, 1.4945039e+2, -807527.9, -1374518.6, -10145.902, 0.03411034, 0.107345186, -807346.4, 668046.94, 0.00532732, 10.0057955, 9.998148 
2.7270475e+3, 1.5944095e+2, -859865.2, -1380272.1, -16644.414, 0.28025618, 0.008077001, -859333.44, 518150.6, 0.0013580795, 10.004804, 9.997958 
2.7266803e+3, 1.6943252e+2, -1080874.5, -1253319.9, -39044.973, 0.16652791, -0.07972939, -1072446.0, 207120.31, 0.00016970174, 10.001944, 9.99945 
2.726313e+3, 1.7942503e+2, -1508675.4, -1555453.4, -84552.37, 0.0008115116, -0.09563921, -1444336.8, -262695.75, 0.0000049540654, 9.998863, 9.99826 
2.7259454e+3, 1.8942034e+2, -1118165.9, -1284021.5, -70806.95, -0.10124348, 0.24705409, -1092049.5, -8353.116, 0.0, 10.000818, 9.998437 
2.7255785e+3, 1.9941558e+2, -735480.4, -1044688.75, -4266.1025, -0.15304632, 0.57694113, -735421.5, 250330.36, 0.0, 10.00266, 9.998589 
2.7252156e+3, 2.0940357e+2, -582452.4, -669679.56, 44434.734, -0.01058922, 0.020267542, -563803.7, 324052.44, 0.0, 10.002067, 10.000696 
2.7248535e+3, 2.1939121e+2, -792470.7, -813632.3, 25467.08, 0.18589973, -0.62076473, -775473.9, 14487.371, 0.0, 10.000258, 9.999983 
2.7244905e+3, 2.2938944e+2, -667250.5, -574273.94, 8323.298, 0.3294423, -0.21610035, -573534.75, 118445.234, 0.0, 9.999985, 10.001015 
2.7241266e+3, 2.3938893e+2, -899700.5, -956818.44, -12393.5625, 0.4075643, 0.34440374, -897127.25, -303136.94, 0.0, 9.999022, 9.99824 
2.7237552e+3, 2.4937737e+2, -858604.6, -1035168.6, -10335.621, -0.052805927, 0.11493521, -858001.6, -361892.22, 0.0, 9.999353, 9.996791 
2.723384e+3, 2.5936458e+2, -801472.8, -976302.5, 42719.21, -0.51447934, -0.18292019, -791592.8, -393351.6, 0.0, 9.999069, 9.996743 
2.7230215e+3, 2.6936018e+2, -433958.13, -479245.13, -7986.741, -0.051081717, 0.19656663, -432590.88, -132301.25, 0.0, 9.999829, 9.999049 
2.7226606e+3, 2.7935722e+2, -397372.84, -455383.28, -28073.361, 0.54301727, 0.65050465, -386012.03, -183689.34, 0.0, 9.999528, 9.998754 
2.7222925e+3, 2.8934866e+2, -410383.44, -227616.25, -1784.3236, 0.28772494, 0.45323756, -227598.83, -123193.55, 0.0, 9.998025, 10.000307 
2.7219224e+3, 2.993391e+2, -632671.2, -301334.78, -9287.509, -0.18589191, 0.118147954, -301074.66, -294579.22, 0.0, 9.995821, 10.000266 
2.721559e+3, 3.0933106e+2, -149660.34, 220838.97, -67507.03, 0.18430634, -0.2254814, 232755.83, 232755.83, 0.0, 9.997741, 10.002534 
2.7211916e+3, 3.1932905e+2, -167923.23, 171460.38, -237149.84, 0.29134768, 0.008917427, 293376.8, 293376.8, 0.0, 9.997727, 10.002231 
2.7381337e+3, 1.298306e+2, -1335530.6, -1560724.0, 296073.78, -0.006443147, 0.08307484, -1131366.1, 536299.1, 0.016851254, 10.002781, 9.999623 
2.7377713e+3, 1.3981855e+2, -1133394.1, -1598652.4, 122246.06, -0.44412503, -0.44884118, -1103229.9, 466546.7, 0.009467015, 10.004212, 9.9981 
2.7374086e+3, 1.4981386e+2, -977060.7, -1421922.1, -21315.479, -0.15890428, -0.09125997, -976041.7, 495784.47, 0.0037924978, 10.004501, 9.998422 
2.7370453e+3, 1.5980935e+2, -1006803.5, -1474878.1, -66534.734, 0.20740257, 0.2910626, -997529.6, 376345.97, 0.0009170214, 10.003921, 9.99771 
2.7366742e+3, 1.697999e+2, -1135098.5, -1378554.0, -125589.52, 0.032827564, 0.1781515, -1081925.3, 194047.03, 0.0001065257, 10.00203, 9.998532 
2.7363035e+3, 1.7979036e+2, -1362946.4, -1479178.9, -59606.203, -0.20452204, 0.040098894, -1337813.6, -159744.28, 0.0000025959862, 9.999834, 9.998307 
2.7359408e+3, 1.8978377e+2, -974482.94, -1114185.4, 63756.656, -0.029230587, 0.1296439, -949760.9, 130377.625, 0.0, 10.001346, 9.999367 
2.7355787e+3, 1.9977772e+2, -629445.56, -921936.2, 45886.855, 0.16181333, 0.25324056, -622415.6, 359785.38, 0.0, 10.003049, 9.999239 
2.7352127e+3, 2.0976973e+2, -574393.25, -693148.56, 15467.388, 0.12925571, 0.09832871, -572411.75, 311859.44, 0.0, 10.002207, 10.000476 
2.734847e+3, 2.1976179e+2, -685948.7, -760714.06, 11105.541, 0.07605326, -0.07198914, -684334.0, 102006.09, 0.0, 10.00094, 10.000016 
2.7344826e+3, 2.2975758e+2, -639017.3, -579525.9, 1839.9808, 0.19710013, 0.101529986, -579469.06, 108916.24, 0.0, 10.000221, 10.000876 
2.734118e+3, 2.3975381e+2, -736017.56, -743752.25, -18258.46, 0.29532203, 0.32973093, -721221.4, -130794.66, 0.0, 9.999521, 9.999459 
2.7337492e+3, 2.4974488e+2, -646681.3, -673231.8, 23555.662, 0.025996294, 0.17085443, -632917.7, -140409.75, 0.0, 9.999643, 9.999153 
2.7333796e+3, 2.5973502e+2, -609176.6, -775784.56, 107624.4, -0.25329044, -0.027588286, -556383.0, -161784.03, 0.0, 9.999878, 9.997724 
2.7330154e+3, 2.6972595e+2, -460436.06, -668545.44, 62361.563, -0.014915137, -0.01425757, -443179.84, -146486.7, 0.0, 10.000365, 9.997509 
2.732652e+3, 2.7971795e+2, -280713.25, -427292.47, -13786.871, 0.3224563, 0.07408416, -279427.75, -80649.16, 0.0, 10.000352, 9.998573 
2.732283e+3, 2.8971314e+2, -400806.97, -162645.47, -60358.03, 0.22437748, 0.22953285, -148222.22, -47391.94, 0.0, 9.997737, 10.000943 
2.731912e+3, 2.997085e+2, -709724.4, -328332.6, 43328.613, -0.06867087, 0.35109845, -323472.13, -320593.75, 0.0, 9.995195, 10.000386 
2.7315468e+3, 3.0970117e+2, -217788.1, 40798.74, 66403.19, -0.18245012, 0.17545003, 56853.77, 56853.77, 0.0, 9.997849, 10.001265 
2.7311835e+3, 3.1969568e+2, 180016.34, 296939.88, -408526.25, 0.21684982, 0.1881873, 651166.2, 651166.2, 0.0, 10.000188, 10.001934 
2.7481335e+3, 1.301951e+2, -1186430.4, -1597691.4, 178786.28, 0.22314762, 0.19629595, -1119575.1, 544523.56, 0.012355002, 10.004239, 9.9986515 
2.7477694e+3, 1.4018431e+2, -1488363.3, -1719217.1, -36941.164, -0.24096978, -0.14461696, -1482596.0, 83606.516, 0.006744432, 10.001523, 9.998547 
2.747404e+3, 1.5017907e+2, -1379862.3, -1433113.6, -108021.32, -0.15313505, 0.0033299327, -1295233.5, 173020.66, 0.002584989, 10.000899, 10.000074 
2.7470392e+3, 1.6017446e+2, -1409220.3, -1561677.3, -77437.836, 0.061442096, 0.22296247, -1376786.9, -6485.978, 0.0005889778, 10.000662, 9.998679 
2.7466694e+3, 1.701666e+2, -960391.25, -1276973.8, -59062.105, -0.032268003, 0.21661517, -949731.5, 322649.5, 0.00006228534, 10.003082, 9.998738 
2.7463e+3, 1.8015817e+2, -649325.7, -1155485.8, 60832.777, -0.15229066, 0.18798886, -642117.2, 532349.7, 0.0000011486238, 10.0048065, 9.998136 
2.745937e+3, 1.9015016e+2, -628172.94, -952796.25, 136872.92, -0.0042701107, 0.14431646, -578165.8, 498382.97, 0.0, 10.003768, 9.99928 
2.7455744e+3, 2.0014288e+2, -801844.1, -986730.44, 60385.37, 0.1699026, 0.14410125, -783869.3, 194752.86, 0.0, 10.00183, 9.999374 
2.7452075e+3, 2.1013711e+2, -727062.44, -723643.06, 30639.703, 0.11227192, 0.17380606, -694665.4, 186007.47, 0.0, 10.000985, 10.000852 
2.7448404e+3, 2.2013152e+2, -891641.2, -903286.94, 88160.445, 0.043577664, 0.22832595, -809111.5, -26388.746, 0.0, 9.999768, 9.999591 
2.7444756e+3, 2.3012534e+2, -662554.0, -674656.3, 52005.57, 0.10793642, 0.26964444, -616248.7, 68540.12, 0.0, 10.000473, 10.000076 
2.7441105e+3, 2.4011914e+2, -591247.0, -674976.06, -9675.542, 0.17492895, 0.32135844, -590143.5, -3289.954, 0.0, 10.0005665, 9.999425 
2.743743e+3, 2.501116e+2, -338061.1, -350607.0, -25764.99, 0.06126055, 0.17090319, -317816.44, 171096.89, 0.0, 10.001043, 10.000679 
2.7433753e+3, 2.601036e+2, -490740.56, -678286.25, 703.4332, -0.069647916, 0.023277937, -490737.9, -99759.64, 0.0, 10.000575, 9.998047 
2.7430087e+3, 2.700927e+2, -677626.3, -800672.3, 48579.004, -0.0025602607, -0.16567273, -660759.3, -367669.2, 0.0, 9.999019, 9.997233 
2.7426428e+3, 2.8008237e+2, -765535.06, -670737.2, 59366.684, 0.11789383, -0.27974686, -642168.6, -446969.88, 0.0, 9.997153, 9.998421 
2.7422735e+3, 2.900798e+2, -379057.66, -75430.52, -5486.4365, 0.15504962, 0.053276636, -75331.42, 21899.404, 0.0, 9.997666, 10.001528 
2.7419025e+3, 3.000781e+2, -458111.8, -281795.06, 171710.67, -0.0031067843, 0.45454475, -176934.13, -176934.13, 0.0, 9.997343, 9.999651 
2.741535e+3, 3.1007156e+2, -400145.47, -201303.56, 281179.66, -0.45146155, 0.47404814, -2485.474, -2485.474, 0.0, 9.997347, 9.999803 
2.7411786e+3, 3.200613e+2, -246715.25, 68186.96, -339736.22, 0.42571467, 0.12715004, 285184.2, 285184.2, 0.0, 9.997446, 10.001661 
2.7581334e+3, 1.3055977e+2, -1246447.4, -1745046.5, 141674.75, 0.36455858, 0.37170878, -1209003.1, 451531.25, 0.008682063, 10.004389, 9.997549 
2.7577674e+3, 1.4055233e+2, -1429050.6, -1604470.8, -8437.6045, 0.04006725, 0.4293599, -1428645.8, 133967.97, 0.0045920215, 10.001592, 9.9992895 
2.7573988e+3, 1.5054497e+2, -1161428.1, -1076614.4, -53687.57, -0.11869144, 0.18236394, -1050605.6, 414073.94, 0.0016781735, 10.001348, 10.002302 
2.7570313e+3, 1.6053823e+2, -1201483.6, -1292174.4, -3588.9387, -0.17739226, -0.0046656155, -1201341.8, 165397.56, 0.0003582281, 10.001366, 10.000186 
2.7566656e+3, 1.7053309e+2, -877523.8, -1138154.9, 51782.31, -0.07158628, 0.16420057, -867612.56, 401176.7, 0.000033741435, 10.003226, 9.999616 
2.7563e+3, 1.8052755e+2, -651706.4, -1129921.1, 76789.99, -0.018734878, 0.35381553, -639678.25, 531166.6, 0.00000040337267, 10.0046625, 9.998371 
2.7559337e+3, 1.9051869e+2, -700068.6, -1060399.8, 91345.86, -0.09487862, 0.27026144, -678234.94, 394701.63, 0.0, 10.003576, 9.998631 
2.755567e+3, 2.005104e+2, -726279.75, -902585.06, 21668.717, -0.15010735, 0.20921476, -723655.6, 251365.55, 0.0, 10.002109, 9.999829 
2.7552006e+3, 2.1050532e+2, -618739.75, -557587.75, 18853.027, -0.040665377, 0.22438905, -552242.6, 324822.16, 0.0, 10.001185, 10.001931 
2.7548343e+3, 2.2050029e+2, -816603.75, -874317.0, 106019.5, 0.051517628, 0.26568586, -735583.94, 43525.31, 0.0, 10.000305, 9.999522 
2.754469e+3, 2.304928e+2, -714934.6, -867709.44, 105158.39, 0.036705498, 0.30686784, -661347.75, 19840.717, 0.0, 10.000815, 9.998602 
2.7541035e+3, 2.40485e+2, -475780.75, -637689.9, 24140.332, 0.009775534, 0.31710368, -472258.13, 111010.31, 0.0, 10.001371, 9.9993105 
2.7537373e+3, 2.504764e+2, -237742.94, -276836.03, -4651.3613, 0.0065366174, 0.059803933, -237197.13, 248141.2, 0.0, 10.001578, 10.0009575 
2.7533704e+3, 2.604683e+2, -251848.88, -354726.4, -47066.395, -0.0043023266, -0.15398757, -233565.39, 153838.67, 0.0, 10.001259, 9.9999485 
2.7530015e+3, 2.70462e+2, -489416.34, -402845.13, -17649.82, 0.017158024, -0.117847346, -399385.03, -109917.2, 0.0, 9.998955, 10.000012 
2.7526322e+3, 2.804559e+2, -667378.25, -402192.84, 101944.52, 0.059584513, -0.055957094, -367532.7, -176001.25, 0.0, 9.99686, 10.000397 
2.7522635e+3, 2.9045078e+2, -294599.44, 12931.949, 108735.45, 0.043036062, -0.034947675, 47493.86, 141075.47, 0.0, 9.998059, 10.001945 
2.7518943e+3, 3.0044603e+2, -204506.73, -170886.58, 234265.28, -0.043175057, 0.054427486, 47170.973, 47170.973, 0.0, 9.999066, 9.999608 
2.751532e+3, 3.104401e+2, -405963.16, -304054.9, 292623.97, 0.12140703, 0.21964316, -57981.895, -57981.895, 0.0, 9.997627, 9.999032 
2.7511686e+3, 3.2043108e+2, -382609.25, -24054.459, -201632.67, 0.45843422, 0.075109676, 66475.71, 66475.71, 0.0, 9.996498, 10.001515 
2.768128e+3, 1.3092539e+2, -1056465.6, -1685528.9, 181475.72, -0.045035843, 0.09280664, -1007867.0, 649076.7, 0.005818818, 10.005777, 9.997337 
2.7677643e+3, 1.4092018e+2, -1298235.0, -1569613.8, 132388.19, 0.17277266, 0.43891478, -1244350.5, 314656.06, 0.0029688533, 10.002603, 9.999063 
2.7673954e+3, 1.5091336e+2, -908054.5, -1002858.5, 77234.88, -0.029228408, 0.29515743, -864835.44, 596233.5, 0.0010278919, 10.003314, 10.001862 
2.767028e+3, 1.6090624e+2, -870566.06, -1197044.5, 23428.09, -0.15301426, 0.12984179, -868893.44, 494239.22, 0.0002033788, 10.003906, 9.9996395 
2.7666634e+3, 1.7089884e+2, -892842.06, -1190702.5, 138.00186, 0.010588977, 0.114537865, -892842.0, 372361.06, 0.000016580547, 10.003306, 9.99924 
2.7662984e+3, 1.8089205e+2, -1008580.9, -1282602.8, -48120.027, 0.12773155, 0.19515194, -1000376.4, 166893.3, 0.00000009587778, 10.002159, 9.998532 
2.7659294e+3, 1.9088502e+2, -1003939.6, -1154796.3, -28102.367, -0.07608852, 0.23941782, -998874.6, 70470.5, 0.0, 10.001281, 9.999099 
2.7655607e+3, 2.0087811e+2, -984778.44, -1029535.94, -13147.211, -0.2326962, 0.2902376, -981202.25, -9784.765, 0.0, 10.000367, 9.999804 
2.765195e+3, 2.108726e+2, -613422.7, -563760.1, -70194.57, -0.052489363, 0.25166014, -514134.22, 359331.06, 0.0, 10.0012865, 10.00183 
2.764829e+3, 2.20867e+2, -694895.44, -862887.06, -39394.996, 0.11808272, 0.24628767, -686115.94, 89398.97, 0.0, 10.001373, 9.999091 
2.7644628e+3, 2.3085873e+2, -823446.0, -950582.94, 41166.957, 0.03641637, 0.21433939, -811280.25, -133681.0, 0.0, 10.000221, 9.998312 
2.7640966e+3, 2.4085042e+2, -900084.2, -857102.5, 55138.05, -0.03694226, 0.19929212, -819415.1, -239732.67, 0.0, 9.99859, 9.999125 
2.763731e+3, 2.5084233e+2, -675354.6, -452570.47, 50574.973, 0.003205946, -0.04164157, -441626.84, 40122.836, 0.0, 9.998467, 10.001225 
2.7633643e+3, 2.6083505e+2, -694928.4, -497480.8, -41195.53, 0.04519209, -0.20544635, -489230.5, -105420.39, 0.0, 9.997988, 10.000538 
2.7629933e+3, 2.7083135e+2, -543140.75, -256512.13, -155173.42, 0.026831925, -0.0498968, -188597.22, 97250.11, 0.0, 9.997927, 10.001493 
2.7626222e+3, 2.808274e+2, -580514.56, -332246.88, -68101.31, 0.00966142, 0.101813525, -314793.3, -126906.22, 0.0, 9.997383, 10.000626 
2.762254e+3, 2.9081985e+2, -162866.19, 33218.98, -55646.832, -0.092836745, -0.13757297, 47910.234, 137866.33, 0.0, 9.999162, 10.001554 
2.761886e+3, 3.008129e+2, -128323.695, -176648.03, -21652.617, -0.12082907, -0.24835768, -120041.35, -120041.35, 0.0, 9.999847, 9.99917 
2.7615285e+3, 3.1080812e+2, -294759.2, -250194.6, 60680.2, 0.6568303, 0.0068787085, -207834.89, -207834.89, 0.0, 9.998461, 9.998959 
2.7611542e+3, 3.208006e+2, -222995.28, 49032.996, -165539.05, -0.00998362, -0.010580854, 127268.766, 127268.766, 0.0, 9.997787, 10.0013275 
2.7781218e+3, 1.3129176e+2, -1109769.3, -1706735.9, 18191.3, -0.59890777, -0.25986677, -1109215.4, 544124.75, 0.0036858066, 10.005452, 9.997297 
2.7777606e+3, 1.4128794e+2, -1335639.4, -1681083.3, 118878.5, 0.19797346, 0.23207217, -1298683.0, 256710.39, 0.0018034311, 10.002784, 9.998185 
2.7773932e+3, 1.5128279e+2, -1006165.6, -1227932.8, 152291.11, 0.03265886, 0.39252663, -928667.25, 528775.94, 0.00058551726, 10.003416, 10.000248 
2.777026e+3, 1.6127594e+2, -956853.94, -1380735.0, 50420.355, -0.086686075, 0.41008142, -950939.0, 408568.72, 0.00010501939, 10.003916, 9.99837 
2.776661e+3, 1.712639e+2, -965368.94, -1324774.8, 16074.751, 0.10059902, 0.03080091, -964651.44, 296970.94, 0.0000068884756, 10.00322, 9.998367 
2.776295e+3, 1.8125367e+2, -971118.94, -1208741.3, -45970.984, 0.20517364, -0.17683972, -962535.3, 201186.36, 0.00000000965895, 10.002185, 9.999019 
2.7759248e+3, 1.9125006e+2, -913404.2, -980186.06, -20349.9, -0.010369538, 0.110649526, -907691.8, 158074.14, 0.0, 10.001324, 10.000287 
2.7755556e+3, 2.012461e+2, -940764.25, -996249.9, 19124.262, -0.17973828, 0.37332973, -934811.3, 32999.73, 0.0, 10.000621, 9.999891 
2.7751905e+3, 2.1123885e+2, -666539.56, -716693.8, -2014.6447, 0.011045057, 0.25925815, -666458.75, 203416.73, 0.0, 10.001488, 10.000672 
2.774825e+3, 2.2123134e+2, -568147.25, -746700.9, -43519.92, 0.16435269, 0.14010607, -558104.7, 213837.73, 0.0, 10.001968, 9.999614 
2.7744573e+3, 2.3122281e+2, -689385.5, -734391.9, 3870.5247, 0.102454774, -0.021644522, -689055.06, -15031.405, 0.0, 10.00044, 9.999726 
2.77409e+3, 2.4121518e+2, -759263.0, -631436.2, 49637.355, 0.030666107, -0.10690156, -614425.0, -38328.75, 0.0, 9.998861, 10.000533 
2.773723e+3, 2.512104e+2, -642587.75, -381861.6, 71331.11, 0.047464494, -0.07636558, -363622.3, 114515.57, 0.0, 9.998436, 10.001743 
2.7733558e+3, 2.612054e+2, -688606.6, -523444.38, -22496.658, 0.059314393, -0.020370074, -520434.97, -140252.75, 0.0, 9.998113, 10.000308 
2.7729845e+3, 2.711994e+2, -579906.7, -407000.97, -148117.48, 0.008407683, 0.015595517, -321951.97, -39708.04, 0.0, 9.998195, 10.000361 
2.7726135e+3, 2.8119287e+2, -489842.72, -415036.44, -42590.63, -0.05134286, 0.02683864, -395756.63, -211446.84, 0.0, 9.998486, 9.999528 
2.7722457e+3, 2.9118413e+2, -123503.055, -145342.25, -45826.066, -0.23832913, -0.17274019, -87313.56, -920.79803, 0.0, 10.000175, 9.999872 
2.7718788e+3, 3.0117688e+2, 129127.17, 46325.887, -115234.04, -0.2919326, -0.23025312, 210172.02, 210172.02, 0.0, 10.001118, 10.000088 
2.7715206e+3, 3.1117454e+2, -36627.04, 128453.16, -72432.7, 0.6179364, 0.061688118, 155728.19, 155728.19, 0.0, 9.999084, 10.001259 
2.7711445e+3, 3.2116723e+2, 137941.61, 230046.58, 18164.814, -0.26309195, -0.08015076, 233499.56, 233499.56, 0.0, 10.000145, 10.001438 
2.788124e+3, 1.3166417e+2, -1043690.75, -1771741.4, -40898.914, -0.30197212, -0.12803976, -1041400.44, 608281.5, 0.0021695544, 10.006281, 9.9964485 
2.787758e+3, 1.416555e+2, -1174052.6, -1677880.6, 103047.94, 0.23575306, -0.042215794, -1153791.1, 397990.03, 0.0010069753, 10.004149, 9.997573 
2.7873904e+3, 1.5164931e+2, -976682.3, -1310439.0, 200044.34, 0.061379224, 0.08362189, -883049.4, 570791.1, 0.0003005769, 10.00395, 9.999467 
2.7870238e+3, 1.6164231e+2, -1058506.0, -1469930.1, 111076.61, -0.027314678, 0.16414216, -1030432.94, 325474.34, 0.000046417692, 10.003401, 9.99801 
2.7866566e+3, 1.7163171e+2, -1108472.8, -1404769.5, 85629.23, 0.08146688, -0.05018812, -1085506.1, 172504.94, 0.0000020738605, 10.00232, 9.998242 
2.7862895e+3, 1.8162219e+2, -1143255.3, -1316812.4, 66991.06, 0.14727291, -0.15500212, -1120405.6, 39700.57, 0.00000000000031198744, 10.001121, 9.998783 
2.7859196e+3, 1.9161774e+2, -966119.9, -1011699.3, 25793.969, 0.033500455, 0.060344152, -954490.1, 107668.46, 0.0, 10.001017, 10.000194 
2.785551e+3, 2.0161326e+2, -924219.0, -1006977.5, 74082.37, -0.05128674, 0.2844415, -880742.9, 83465.05, 0.0, 10.000862, 9.999693 
2.7851856e+3, 2.1160558e+2, -605226.6, -707016.44, 129207.555, 0.020187045, 0.14016378, -517251.5, 349024.28, 0.0, 10.002037, 10.0004635 
2.7848202e+3, 2.215977e+2, -574960.7, -764413.4, 65585.414, 0.12245214, 0.02277461, -554471.94, 213874.4, 0.0, 10.002026, 9.999446 
2.7844515e+3, 2.3158994e+2, -691792.25, -691206.8, -10250.792, 0.16855545, -0.08754034, -681244.56, -10823.047, 0.0, 10.000289, 10.000059 
2.7840832e+3, 2.4158305e+2, -852879.75, -677395.2, 5096.241, 0.17492329, -0.12103299, -677247.3, -104759.445, 0.0, 9.998265, 10.000507 
2.7837157e+3, 2.5157893e+2, -698669.56, -401990.84, -2065.1782, 0.12556857, -0.038316954, -401976.47, 72550.234, 0.0, 9.998065, 10.001777 
2.7833474e+3, 2.6157466e+2, -812066.6, -624515.0, -89578.586, 0.09237776, 0.09271592, -588605.7, -212037.98, 0.0, 9.997516, 9.999878 
2.782976e+3, 2.7156776e+2, -636387.0, -469623.22, -122320.98, 0.05958245, 0.06079751, -404968.1, -126331.38, 0.0, 9.998018, 9.999988 
2.7826056e+3, 2.8156003e+2, -638199.6, -600148.7, 88142.516, -0.015387451, 0.018909695, -529001.7, -348287.94, 0.0, 9.9980345, 9.998458 
2.7822384e+3, 2.9155007e+2, -429403.66, -422784.5, 151955.19, -0.26974323, -0.1868886, -274102.84, -191292.0, 0.0, 9.998701, 9.998643 
2.7818716e+3, 3.0154234e+2, -202366.36, -89870.04, 16700.963, -0.4088595, -0.19491912, -87443.016, -87443.016, 0.0, 9.998824, 10.000244 
2.781511e+3, 3.1154132e+2, -66885.21, 274921.63, -112111.94, 0.42362085, 0.10504298, 308412.6, 308412.6, 0.0, 9.998274, 10.002639 
2.7811366e+3, 3.215334e+2, -352203.63, -3809.0615, 178212.14, -0.3774501, -0.1796826, 71200.92, 71200.92, 0.0, 9.996834, 10.001444 
2.7981278e+3, 1.3203783e+2, -1280299.8, -1995687.1, -156681.42, 0.12030523, 0.08879574, -1247488.9, 398524.63, 0.001166225, 10.005165, 9.995435 
2.7977553e+3, 1.420233e+2, -1265475.3, -1786735.4, 91278.164, 0.19793388, -0.3192392, -1249953.6, 298212.8, 0.0005045797, 10.003833, 9.9969635 
2.7973878e+3, 1.5201503e+2, -1066931.3, -1377652.0, 215156.19, 0.042123694, -0.37202686, -956906.94, 493336.6, 0.0001343589, 10.003475, 9.999215 
2.7970207e+3, 1.6200775e+2, -1109890.6, -1493109.8, 79581.61, -0.028978495, -0.2978771, -1094021.4, 258291.47, 0.00001642319, 10.003048, 9.998019 
2.796651e+3, 1.720015e+2, -1098348.8, -1382191.0, 70479.22, -0.04709943, -0.08499023, -1081811.9, 172567.45, 0.0000003300107, 10.002315, 9.9984045 
2.7962822e+3, 1.8199483e+2, -1112148.6, -1346829.3, 70419.71, -0.059298832, 0.09952506, -1092639.8, 63810.76, 0.0, 10.001492, 9.998411 
2.795914e+3, 1.9198678e+2, -996904.8, -1131490.6, 49744.867, 0.023016768, 0.049269777, -980514.44, 78021.69, 0.0, 10.001234, 9.999288 
2.7955467e+3, 2.0197947e+2, -827101.94, -895012.06, 116986.12, 0.048774138, 0.038905457, -739242.8, 221367.53, 0.0, 10.001248, 10.000266 
2.7951804e+3, 2.1197277e+2, -513604.78, -561598.2, 199989.48, -0.070421234, -0.08321727, -336177.47, 526489.0, 0.0, 10.002233, 10.001373 
2.794814e+3, 2.219664e+2, -506608.0, -768445.1, 44038.16, -0.087499544, -0.09121999, -499399.7, 265324.03, 0.0, 10.0026, 9.999144 
2.7944458e+3, 2.3196068e+2, -712518.75, -826465.8, -66235.8, 0.19420841, 0.105376214, -682124.3, -15334.911, 0.0, 10.000627, 9.998975 
2.7940774e+3, 2.4195468e+2, -782523.7, -690959.1, -14780.528, 0.37069678, 0.24493955, -688632.3, -119777.33, 0.0, 9.998907, 10.000111 
2.793708e+3, 2.5194746e+2, -673235.8, -456830.63, 735.65234, 0.23285452, 0.08527702, -456828.13, 14095.723, 0.0, 9.998454, 10.001252 
2.7933395e+3, 2.619413e+2, -640091.4, -411680.72, -78064.78, 0.15485469, 0.026367597, -387549.63, -14568.602, 0.0, 9.998071, 10.00108 
2.79297e+3, 2.719372e+2, -460915.13, -216605.6, -76506.375, 0.2826634, 0.13300443, -194624.97, 80391.414, 0.0, 9.998435, 10.001542 
2.792601e+3, 2.8193152e+2, -490236.63, -431773.3, 157195.7, 0.32644585, 0.17358957, -301114.44, -124045.805, 0.0, 9.998619, 9.999315 
2.7922335e+3, 2.9192102e+2, -418867.44, -385165.94, 231303.16, 0.033043142, -0.105574116, -170100.53, -90928.336, 0.0, 9.998607, 9.998944 
2.7918652e+3, 3.0191213e+2, -310862.75, -288533.9, 103435.59, -0.25528985, -0.20111847, -195661.95, -195661.95, 0.0, 9.998628, 9.998994 
2.7914986e+3, 3.1190878e+2, -124801.32, -44409.098, -90057.125, -0.01608503, 0.12559654, 14015.343, 14015.343, 0.0, 9.999033, 10.000132 
2.7911285e+3, 3.2189885e+2, -510746.88, 84605.1, -160692.31, -0.088504896, -0.23590416, 125208.6, 125208.6, 0.0, 9.994925, 10.003005 
2.8081247e+3, 1.3240775e+2, -1425408.4, -1998135.3, -213573.23, 0.05491231, 0.045706753, -1354535.9, 287854.34, 0.00056518096, 10.003805, 9.996109 
2.807753e+3, 1.4239551e+2, -1271310.9, -1841078.9, 68456.25, 0.26618263, -0.16424724, -1263201.5, 281318.34, 0.00022532094, 10.003997, 9.996523 
2.807384e+3, 1.5238573e+2, -1232888.0, -1574335.9, 139282.38, 0.052012343, -0.2787644, -1183279.9, 263334.13, 0.000052747473, 10.002816, 9.998196 
2.8070164e+3, 1.6237745e+2, -1232721.9, -1478078.6, 31077.01, -0.03689812, -0.26622903, -1228846.8, 119846.41, 0.0000047753, 10.00191, 9.998637 
2.8066468e+3, 1.7237216e+2, -972531.56, -1191263.4, 68585.39, -0.03187817, -0.08472307, -952805.06, 297939.84, 0.00000002399446, 10.002603, 9.999551 
2.806278e+3, 1.8236598e+2, -962303.1, -1317173.1, 107571.38, -0.03954706, 0.09022555, -932241.7, 220565.95, 0.0, 10.002758, 9.997985 
2.8059086e+3, 1.9235648e+2, -920862.94, -1205651.6, 68961.47, -0.015793502, -0.017647648, -905042.75, 149864.8, 0.0, 10.0022545, 9.9982815 
2.8055412e+3, 2.023479e+2, -844832.5, -936251.0, 156458.16, 0.008673731, -0.07435254, -727543.3, 229450.34, 0.0, 10.001266, 9.999983 
2.8051752e+3, 2.1234173e+2, -809894.6, -685025.5, 178194.31, -0.04788327, -0.16615516, -558644.56, 300400.2, 0.0, 10.000106, 10.001542 
2.8048083e+3, 2.2233593e+2, -1037007.2, -1050405.1, -972.61194, -0.05184456, -0.11716469, -1036936.94, -275839.63, 0.0, 9.999148, 9.998862 
2.804439e+3, 2.3233046e+2, -842767.06, -920841.8, -66921.15, 0.17295156, 0.12547056, -804329.56, -141166.16, 0.0, 9.999913, 9.998681 
2.80407e+3, 2.4232449e+2, -670786.7, -674490.44, 61550.24, 0.34525317, 0.31427297, -611060.44, -45829.242, 0.0, 9.999914, 9.999721 
2.8037006e+3, 2.523164e+2, -550716.9, -421670.78, 82818.02, 0.24419647, 0.08656004, -381207.9, 86101.21, 0.0, 9.999491, 10.00095 
2.8033316e+3, 2.6230952e+2, -493838.9, -352910.6, 22761.64, 0.1905063, -0.004703406, -349325.53, 20047.219, 0.0, 9.999182, 10.000935 
2.8029633e+3, 2.7230585e+2, -52573.977, 17333.398, -72075.086, 0.36217645, 0.10645803, 62483.26, 333884.63, 0.0, 10.001107, 10.001853 
2.8025958e+3, 2.823009e+2, -107592.44, -262966.16, 25435.105, 0.4643366, 0.20586301, -103534.62, 69910.125, 0.0, 10.001357, 9.99916 
2.8022283e+3, 2.9229102e+2, -387854.03, -346873.3, 59088.313, 0.26364872, -0.04805517, -304823.4, -229278.78, 0.0, 9.998779, 9.999122 
2.8018585e+3, 3.0228218e+2, -615978.5, -528584.3, 12305.162, -0.1017725, -0.12904035, -526884.8, -526884.8, 0.0, 9.997026, 9.998081 
2.801487e+3, 3.1227693e+2, -316442.25, -278821.63, 39651.77, -0.39430732, 0.11186389, -253744.69, -253744.69, 0.0, 9.998422, 9.998762 
2.8011206e+3, 3.222655e+2, -92783.555, 387794.78, -332218.75, 0.22557917, -0.33239084, 557515.6, 557515.6, 0.0, 9.99757, 10.003729 
2.8181195e+3, 1.3277732e+2, -1541691.9, -1914943.1, -187847.28, -0.18759462, 0.0043259854, -1463523.8, 175249.44, 0.00024881825, 10.00246, 9.997308 
2.817751e+3, 1.4276923e+2, -1330984.9, -1916200.6, 43081.168, 0.2870666, 0.14010566, -1327830.4, 213031.84, 0.000091161615, 10.003827, 9.996074 
2.81738e+3, 1.5275863e+2, -1341562.3, -1756110.5, 118165.85, 0.016406326, 0.045442358, -1310245.3, 132724.47, 0.000018145423, 10.002647, 9.9970255 
2.817011e+3, 1.6274934e+2, -1141891.0, -1292833.9, 53665.492, -0.10837012, -0.01701894, -1124756.1, 220303.36, 0.000001252134, 10.001923, 9.99991 
2.8166437e+3, 1.7274329e+2, -846560.4, -926807.8, 109495.17, 0.015567716, -0.07586121, -770068.9, 477039.38, 0.0000000065346386, 10.002591, 10.001381 
2.8162748e+3, 1.8273646e+2, -971584.2, -1342842.5, 75233.43, 0.02888619, -0.064890765, -956917.94, 192252.7, 0.0, 10.002815, 9.997757 
2.815903e+3, 1.9272672e+2, -979368.75, -1346267.4, 62697.375, -0.15057789, -0.097300574, -968950.56, 82323.195, 0.0, 10.002337, 9.997275 
2.815534e+3, 2.0271827e+2, -821622.94, -947430.8, 128941.88, -0.18592064, -0.07237797, -741059.4, 212300.67, 0.0, 10.001508, 9.9997835 
2.81517e+3, 2.127125e+2, -811274.44, -730663.6, 160429.69, 0.060799785, -0.07823759, -605553.75, 249855.89, 0.0, 10.000257, 10.001167 
2.8148034e+3, 2.2270636e+2, -916502.94, -916519.8, 14551.031, 0.16800869, -0.060885612, -901960.4, -144494.0, 0.0, 9.999629, 9.999551 
2.814431e+3, 2.326988e+2, -704973.3, -763654.06, 161.14073, 0.011831409, -0.094792075, -704972.9, -45426.156, 0.0, 10.000424, 9.99953 
2.8140602e+3, 2.4269196e+2, -509150.3, -547496.1, 89169.64, -0.043533172, -0.060314924, -437115.63, 124502.266, 0.0, 10.000771, 10.00018 
2.8136924e+3, 2.5268632e+2, -460382.44, -385203.38, 98069.055, 0.08396045, -0.031253822, -317766.66, 145904.86, 0.0, 10.000102, 10.000921 
2.8133243e+3, 2.6267987e+2, -436780.75, -493851.22, 108903.62, 0.1512202, -0.01963165, -352736.0, 12996.321, 0.0, 10.000232, 9.999487 
2.8129563e+3, 2.7267158e+2, -19665.105, -229419.34, 15641.532, 0.11410273, -0.13352709, -18505.12, 249306.28, 0.0, 10.00238, 9.999592 
2.8125885e+3, 2.826642e+2, 84001.266, -221389.5, -64953.36, 0.17017066, -0.12157813, 97242.08, 267126.2, 0.0, 10.002814, 9.99877 
2.8122213e+3, 2.9265776e+2, -294924.06, -318868.44, -96399.125, 0.3366063, -0.0017511955, -209756.53, -137801.77, 0.0, 9.999414, 9.999047 
2.8118518e+3, 3.0265203e+2, -318510.47, 25547.512, 26645.482, 0.20387988, 0.090224706, 27598.834, 27598.834, 0.0, 9.997263, 10.001771 
2.8114805e+3, 3.12648e+2, 70239.52, 402203.84, 201811.36, -0.2355973, 0.0332055, 497522.1, 497522.1, 0.0, 9.998883, 10.003242 
2.8111133e+3, 3.2263783e+2, 72250.23, -99779.54, -206232.14, 0.18604983, -0.36809048, 209686.14, 209686.14, 0.0, 10.001018, 9.998754 
2.8281152e+3, 1.3314617e+2, -1674936.5, -1849390.1, -45542.89, -0.04518394, -0.053847358, -1663762.8, -28604.605, 0.00010674912, 10.00101, 9.998438 
2.827746e+3, 1.4313824e+2, -1244139.9, -1842642.4, 9517.415, 0.06032552, 0.04730421, -1243988.5, 293252.7, 0.000035052908, 10.004297, 9.996335 
2.8273758e+3, 1.5312888e+2, -1308297.8, -1753625.5, 55052.953, -0.018647233, 0.079923525, -1301592.9, 137747.8, 0.000005530722, 10.002965, 9.99687 
2.8270072e+3, 1.631202e+2, -1174017.0, -1369074.5, 54091.676, -0.0248774, 0.10801195, -1160021.0, 181407.11, 0.0000002527922, 10.001995, 9.999353 
2.8266394e+3, 1.7311294e+2, -966343.4, -1067035.3, -15378.605, 0.015038887, -0.0030882615, -964047.0, 279444.22, 0.0, 10.002171, 10.000631 
2.8262702e+3, 1.8310556e+2, -1037082.06, -1348002.3, -114427.56, -0.01870935, -0.022472018, -999509.75, 146049.19, 0.0, 10.002235, 9.998016 
2.8258985e+3, 1.9309695e+2, -942528.75, -1265014.3, -57809.926, -0.17560615, -0.028230421, -932478.75, 115168.16, 0.0, 10.002304, 9.997857 
2.825529e+3, 2.0308913e+2, -855656.7, -969832.5, 39765.918, -0.1653714, 0.015999433, -843171.94, 106552.484, 0.0, 10.001348, 9.999682 
2.825164e+3, 2.1308266e+2, -1040597.6, -880408.56, 45039.863, 0.15957578, -0.04650083, -868613.4, -16832.0, 0.0, 9.998893, 10.000776 
2.8247967e+3, 2.2307599e+2, -1167057.4, -1003437.6, 11320.289, 0.27833122, -0.06779279, -1002658.2, -248815.33, 0.0, 9.997823, 9.999797 
2.8244242e+3, 2.3306783e+2, -738804.75, -700353.3, 8698.725, -0.031114614, -0.24380441, -698477.0, -42552.55, 0.0, 9.999919, 10.000174 
2.824053e+3, 2.4306081e+2, -538114.3, -618126.8, 13653.467, -0.1787195, -0.24825877, -535848.6, 22145.959, 0.0, 10.000889, 9.999627 
2.8236857e+3, 2.5305587e+2, -505412.47, -482026.28, -47215.113, 0.07026616, -0.099864975, -445077.88, 14964.638, 0.0, 10.000163, 10.000217 
2.8233182e+3, 2.6304933e+2, -635241.3, -738841.94, 40181.203, 0.17314588, -0.007221667, -621484.0, -259377.48, 0.0, 9.999594, 9.998083 
2.82295e+3, 2.7303833e+2, -437095.7, -578106.8, 61918.543, -0.039226085, -0.2830097, -413766.6, -149551.4, 0.0, 10.000219, 9.998206 
2.8225815e+3, 2.8302968e+2, -335893.44, -463779.03, -75422.56, -0.06347416, -0.2927162, -300956.28, -134652.52, 0.0, 10.000193, 9.998335 
2.822214e+3, 2.930253e+2, -294850.34, -306540.25, -119443.93, 0.3323374, 0.02078741, -181108.45, -112753.45, 0.0, 9.999423, 9.999104 
2.8218445e+3, 3.0302134e+2, -61815.73, 376924.28, 32180.877, 0.35273805, 0.21306594, 379272.13, 379272.13, 0.0, 9.998098, 10.003775 
2.8214735e+3, 3.130176e+2, -27489.81, 669565.94, -9312.766, -0.13217075, -0.11056858, 669690.3, 669690.3, 0.0, 9.996896, 10.006029 
2.8211057e+3, 3.230091e+2, -573434.8, -881348.3, -344154.16, 0.04819893, -0.37789533, -350370.66, -350370.66, 0.0, 9.998744, 9.99444 
2.8381112e+3, 1.3351436e+2, -1483161.4, -1644818.4, 109669.305, 0.06343067, -0.12833859, -1427752.5, 203794.84, 0.00005031309, 10.00185, 9.999437 
2.8377402e+3, 1.4350569e+2, -1253523.5, -1790971.0, -20360.455, -0.2764855, -0.18006524, -1252753.3, 280879.1, 0.000015382977, 10.004022, 9.996806 
2.8373715e+3, 1.5349826e+2, -1298681.9, -1715538.8, 12465.448, -0.083298855, 0.009374316, -1298309.5, 137406.17, 0.0000020566958, 10.002915, 9.997143 
2.8370035e+3, 1.6349043e+2, -1263789.3, -1579531.3, 56544.05, 0.04925211, 0.16715017, -1253968.6, 83831.11, 0.00000005936716, 10.002101, 9.99785 
2.836634e+3, 1.7348154e+2, -1143470.3, -1400441.5, 37466.18, -0.084071405, 0.100660644, -1138119.3, 101768.78, 0.0, 10.002002, 9.99843 
2.8362644e+3, 1.8347375e+2, -951653.0, -1160424.1, -75073.08, -0.17600614, 0.119893454, -927460.56, 214502.69, 0.0, 10.002154, 9.999362 
2.8358945e+3, 1.9346717e+2, -799966.94, -984992.56, -12502.698, -0.1462958, 0.13747267, -799125.9, 244898.67, 0.0, 10.002342, 9.999779 
2.8355253e+3, 2.0346019e+2, -793994.3, -888473.56, -19538.25, -0.03595154, 0.13604636, -790113.25, 155975.05, 0.0, 10.001549, 10.000146 
2.8351566e+3, 2.1345215e+2, -1018953.9, -900291.06, -18871.883, 0.17548573, -0.05304665, -897362.0, -49202.02, 0.0, 9.999148, 10.000535 
2.834788e+3, 2.234447e+2, -1055282.1, -885832.5, 76835.64, 0.25176352, -0.15777023, -856180.7, -105952.695, 0.0, 9.99829, 10.00039 
2.8344187e+3, 2.3343775e+2, -644277.75, -609294.44, 109997.99, 0.07786981, -0.24640629, -515406.06, 136889.4, 0.0, 10.000329, 10.0006275 
2.8340495e+3, 2.4343105e+2, -521736.75, -709193.44, 7791.9824, 0.038165808, -0.20841822, -521413.44, 32949.24, 0.0, 10.0013895, 9.998771 
2.8336817e+3, 2.5342458e+2, -530628.0, -666155.9, -65354.637, 0.2753679, -0.057855576, -504247.47, -47816.3, 0.0, 10.000667, 9.998737 
2.8333133e+3, 2.6341733e+2, -512458.38, -612650.3, 54492.105, 0.33238518, 0.023521483, -488534.1, -130028.35, 0.0, 10.000113, 9.9987 
2.832944e+3, 2.7340794e+2, -395829.22, -483559.6, 84149.7, 0.045635402, -0.14566846, -344798.0, -84199.13, 0.0, 10.000156, 9.998896 
2.8325748e+3, 2.8340003e+2, -276076.88, -320528.88, -41396.973, -0.049848285, -0.16406184, -251316.67, -88639.41, 0.0, 10.000072, 9.999388 
2.8322056e+3, 2.9339457e+2, -157698.06, -180851.48, -69583.69, 0.16168872, -0.00986533, -98734.64, -34003.504, 0.0, 10.000054, 9.999681 
2.831834e+3, 3.033881e+2, -162884.42, -86093.555, -11147.866, 0.09257259, 0.047830924, -84507.945, -84507.945, 0.0, 9.999118, 10.000121 
2.8314626e+3, 3.133797e+2, -426711.28, -107843.484, -233586.34, -0.20327412, -0.23853576, 15533.059, 15533.059, 0.0, 9.996588, 10.000867 
2.831099e+3, 3.2337353e+2, -315534.1, -337471.6, -210922.44, 0.21800734, -0.12585165, -115295.38, -115295.38, 0.0, 9.9986, 9.99829 
2.8481063e+3, 1.3388097e+2, -1067385.4, -1398164.4, 93360.3, -0.12719758, -0.21771275, -1042854.25, 585101.0, 0.000026684296, 10.004399, 9.999961 
2.8477395e+3, 1.4387394e+2, -1176114.9, -1642629.8, -105453.77, -0.077498265, -0.17385519, -1153385.0, 376636.16, 0.000008259573, 10.004065, 9.99781 
2.8473678e+3, 1.5386692e+2, -1108876.5, -1533978.6, -68916.41, -0.13019475, -0.03542804, -1097983.1, 334118.75, 0.0000013335809, 10.003803, 9.997973 
2.8469977e+3, 1.6385964e+2, -1101557.3, -1421129.0, 36209.105, -0.089632906, 0.09723629, -1097505.9, 236674.31, 0.000000073245815, 10.002903, 9.998528 
2.8466287e+3, 1.7385142e+2, -1242592.8, -1404030.6, 124617.54, -0.09605533, 0.050862014, -1174835.8, 61424.688, 0.0, 10.001146, 9.998803 
2.8462592e+3, 1.8384378e+2, -1163650.5, -1176290.8, 143668.02, -0.12920561, 0.048922025, -1026163.6, 112168.55, 0.0, 10.000373, 10.000103 
2.8458896e+3, 1.9383684e+2, -904209.44, -957228.7, 133486.95, -0.12796703, -0.032149646, -794625.25, 245767.11, 0.0, 10.001314, 10.0004635 
2.8455204e+3, 2.0382974e+2, -764239.8, -947435.56, 40110.004, -0.03742644, -0.04521314, -755842.8, 186613.98, 0.0, 10.002106, 9.999462 
2.8451505e+3, 2.138216e+2, -589236.4, -801137.25, -28159.195, 0.14498258, -0.15967405, -585558.2, 258976.33, 0.0, 10.002616, 9.99953 
2.844781e+3, 2.2381416e+2, -556815.3, -717711.25, 72006.375, 0.22281252, -0.17494278, -529296.6, 217309.95, 0.0, 10.00204, 9.999745 
2.8444132e+3, 2.3380764e+2, -670642.7, -686131.94, 32057.758, 0.1361108, -0.18759039, -645407.3, 3264.3735, 0.0, 10.000443, 10.000054 
2.8440446e+3, 2.43801e+2, -740102.0, -855525.9, -72532.555, 0.13748176, -0.100870684, -705122.9, -154383.23, 0.0, 10.000096, 9.998384 
2.8436762e+3, 2.5379354e+2, -485174.13, -688662.6, -57464.934, 0.33274415, -0.040085327, -470067.56, -17248.555, 0.0, 10.001226, 9.998292 
2.8433073e+3, 2.637863e+2, -377160.44, -512077.72, 96740.24, 0.35166264, 0.06499894, -326681.22, 28213.537, 0.0, 10.00096, 9.998956 
2.8429377e+3, 2.7377862e+2, -533685.4, -504425.5, 91094.13, 0.09014897, 0.0051947497, -426793.97, -169822.58, 0.0, 9.99908, 9.999242 
2.842568e+3, 2.8377128e+2, -510027.16, -399345.84, -31487.264, -0.04157638, 0.016993506, -391015.2, -231972.98, 0.0, 9.998363, 9.999651 
2.842197e+3, 2.9376408e+2, -243232.98, -197359.27, -80448.38, 0.025434848, -0.05153541, -136641.83, -75534.61, 0.0, 9.999399, 9.999873 
2.8418246e+3, 3.0375552e+2, -331342.2, -551711.94, -47548.453, -0.12338965, -0.06631876, -321520.56, -321520.56, 0.0, 9.999708, 9.996609 
2.841453e+3, 3.1374383e+2, -402834.8, -579665.44, -106636.17, -0.26070476, -0.27580863, -352727.4, -352727.4, 0.0, 9.998924, 9.996466 
2.8410918e+3, 3.2374007e+2, -44565.242, 283042.34, 301930.1, 0.23337945, 0.13117465, 462740.3, 462740.3, 0.0, 9.998476, 10.002545 
2.8581014e+3, 1.3424823e+2, -1231078.9, -1411352.6, 117650.74, -0.4109952, -0.22845921, -1173005.3, 451352.78, 0.000013311809, 10.003002, 10.000548 
2.8577396e+3, 1.4424263e+2, -1390970.3, -1619975.5, -65852.28, 0.22131725, -0.10452577, -1373384.4, 153023.33, 0.0000038169696, 10.002053, 9.998925 
2.8573635e+3, 1.5423556e+2, -1208536.1, -1470235.3, -1012.8181, -0.25274304, -0.078474596, -1208532.1, 219957.38, 0.0000005153316, 10.002638, 9.998972 
2.8569916e+3, 1.6422889e+2, -1020429.0, -1167124.4, 16975.537, -0.349667, -0.022481596, -1018490.25, 312068.6, 0.00000002542409, 10.002526, 10.000454 
2.8566232e+3, 1.7422256e+2, -1103281.4, -1132040.1, 94682.6, -0.08629885, -0.06101739, -1021892.44, 210721.02, 0.0, 10.001221, 10.000635 
2.8562543e+3, 1.8421514e+2, -1087088.1, -1106757.5, 178152.48, -0.022304218, -0.15221728, -918499.06, 216177.86, 0.0, 10.000762, 10.000381 
2.855884e+3, 1.9420612e+2, -880921.44, -951777.94, 197261.78, -0.19739681, -0.43107882, -715931.7, 320821.97, 0.0, 10.001482, 10.0004225 
2.8555143e+3, 2.041982e+2, -827302.25, -1129321.6, 67651.69, -0.19855225, -0.45880973, -812840.9, 125987.01, 0.0, 10.002284, 9.998131 
2.8551453e+3, 2.141911e+2, -653122.3, -1001635.7, 16204.843, 0.021596426, -0.31305158, -652370.44, 188534.83, 0.0, 10.002854, 9.99805 
2.854776e+3, 2.2418424e+2, -576601.1, -874762.8, 35538.566, 0.13113756, -0.1298592, -572423.75, 170556.6, 0.0, 10.002519, 9.998434 
2.8544065e+3, 2.3417744e+2, -703419.9, -868456.3, -7460.6826, 0.068838485, -0.009073494, -703083.3, -58027.67, 0.0, 10.000877, 9.998608 
2.8540376e+3, 2.4417047e+2, -578901.9, -625402.5, -24727.285, 0.054523442, 0.05996356, -568210.8, -21081.512, 0.0, 10.000498, 9.999783 
2.8536692e+3, 2.5416303e+2, -265013.75, -398315.38, 28801.652, 0.11572521, -0.021493658, -259056.94, 190147.28, 0.0, 10.001882, 9.999988 
2.8533e+3, 2.641566e+2, -263421.13, -429650.22, 56973.914, 0.12752242, 0.06209024, -245768.33, 105500.51, 0.0, 10.001575, 9.999246 
2.8529298e+3, 2.7415115e+2, -500798.53, -482161.25, 35901.887, 0.028834555, 0.2515106, -454388.34, -201064.58, 0.0, 9.999226, 9.999347 
2.8525597e+3, 2.8414384e+2, -511000.88, -433259.94, 24643.873, 0.010627018, 0.2676175, -426106.16, -270710.4, 0.0, 9.998429, 9.999416 
2.8521907e+3, 2.94134e+2, -199079.56, -217520.06, -20041.709, 0.08558658, -0.0032023075, -186238.92, -128748.695, 0.0, 9.999838, 9.999545 
2.8518194e+3, 3.041259e+2, -75865.266, -296532.22, 14107.456, -0.021156007, -0.0026542307, -74967.016, -74967.016, 0.0, 10.000832, 9.997849 
2.8514484e+3, 3.1411937e+2, 50139.527, -216628.95, 54207.027, -0.08028339, 0.19726388, 60733.61, 60733.61, 0.0, 10.001365, 9.997811 
2.8510815e+3, 3.2411295e+2, 4095.0637, 201426.95, 259145.45, -0.048396118, 0.32845357, 380053.88, 380053.88, 0.0, 9.999105, 10.001753 
2.8680962e+3, 1.3462351e+2, -1555085.3, -1532595.0, 55854.297, -0.44745314, 0.19527318, -1486865.1, 133821.88, 0.000005962988, 10.000607, 10.000877 
2.867732e+3, 1.446109e+2, -1893977.1, -1727366.6, 100290.8, 0.2302188, -0.44127366, -1680295.5, -157497.27, 0.0000015122073, 9.998021, 10.000138 
2.8673583e+3, 1.5460804e+2, -1551660.5, -1507332.5, 181106.97, -0.16824701, -0.10352984, -1347038.4, 77797.484, 0.0000000966577, 9.999713, 10.000136 
2.8669876e+3, 1.6460282e+2, -1237423.4, -1278069.4, 137809.67, -0.22406875, 0.048661895, -1118446.3, 208442.42, 0.00000000026919006, 10.001054, 10.00042 
2.8666195e+3, 1.7459528e+2, -1026637.3, -1122938.3, 99115.6, 0.03367872, -0.09036017, -964595.4, 264358.78, 0.0, 10.001824, 10.000432 
2.8662497e+3, 1.8458709e+2, -952401.44, -1103649.1, 130073.87, 0.047951974, -0.22183293, -877565.4, 253460.25, 0.0, 10.00201, 9.999769 
2.865879e+3, 1.9457762e+2, -943495.44, -1054552.6, 96288.7, -0.18043149, -0.49654487, -887871.25, 145237.81, 0.0, 10.001434, 9.999703 
2.865509e+3, 2.0456924e+2, -957817.94, -1259463.5, 22812.959, -0.23671179, -0.5117005, -956102.44, -20912.484, 0.0, 10.001699, 9.997512 
2.8651404e+3, 2.145618e+2, -703414.94, -1095576.1, 30986.615, -0.06923099, -0.35944122, -700981.6, 136289.81, 0.0, 10.002825, 9.997412 
2.864771e+3, 2.2455494e+2, -583835.06, -913497.0, 57173.457, 0.009203112, -0.1290246, -574201.0, 165147.22, 0.0, 10.002659, 9.998068 
2.8643999e+3, 2.3454818e+2, -766061.2, -957852.6, 75374.94, -0.019392217, 0.03181073, -739984.1, -98559.46, 0.0, 10.000768, 9.998002 
2.8640297e+3, 2.4454126e+2, -708203.6, -662576.25, 150020.75, -0.058722723, 0.14515339, -533644.44, 9854.983, 0.0, 9.999586, 9.999918 
2.863661e+3, 2.545336e+2, -657176.94, -590570.2, 73643.66, -0.08467403, 0.015580442, -543049.7, -97472.92, 0.0, 9.999249, 9.999914 
2.863292e+3, 2.6452708e+2, -567081.6, -564655.7, -18659.219, -0.051794037, 0.0912646, -547170.06, -199529.11, 0.0, 9.999501, 9.99929 
2.8629223e+3, 2.745217e+2, -403280.0, -443578.47, -21537.363, 0.03324513, 0.2582803, -393936.03, -144243.42, 0.0, 9.99997, 9.999244 
2.8625527e+3, 2.8451437e+2, -357420.53, -389325.28, 48890.633, 0.07527046, 0.2999265, -321945.56, -170180.58, 0.0, 9.999682, 9.999091 
2.8621835e+3, 2.9450396e+2, -401507.25, -373827.84, 26378.865, 0.0745306, -0.005561555, -357878.6, -304009.16, 0.0, 9.998753, 9.998983 
2.8618136e+3, 3.0449703e+2, -240626.44, -204580.45, 64261.137, 0.019097617, 0.07649173, -155862.73, -155862.73, 0.0, 9.999034, 9.999311 
2.861445e+3, 3.1449467e+2, -55989.848, -115748.21, 107727.43, 0.10630606, 0.5128165, 25925.266, 25925.266, 0.0, 10.000042, 9.99912 
2.8610718e+3, 3.2448456e+2, -110059.85, 18684.033, 111569.96, -0.27359983, 0.24622309, 83120.484, 83120.484, 0.0, 9.998964, 10.000537 
2.8780898e+3, 1.3499981e+2, -1470347.0, -1452020.3, -153312.22, -0.48012373, 0.58944374, -1307597.8, 309408.5, 0.0000021473002, 10.001026, 10.001227 
2.8777227e+3, 1.4497994e+2, -1595198.3, -1434109.4, 184256.8, 0.115359776, -0.84540683, -1313561.9, 205619.05, 0.00000043033984, 9.999427, 10.0014715 
2.8773528e+3, 1.5498263e+2, -1390364.1, -1288567.1, 237378.19, -0.048258126, -0.08075152, -1096692.0, 324468.16, 0.000000019645139, 10.000207, 10.001405 
2.8769845e+3, 1.6497876e+2, -1311984.1, -1431683.1, 136379.73, 0.014438834, 0.19519971, -1222899.4, 100298.16, 0.0, 10.001053, 9.999361 
2.8766158e+3, 1.7496872e+2, -1145620.5, -1316983.1, 143940.75, 0.13228609, -0.07138995, -1063789.9, 161499.78, 0.0, 10.001594, 9.9992075 
2.8762457e+3, 1.849595e+2, -1028331.4, -1249377.0, 116668.63, 0.065029405, -0.19741032, -978146.75, 149229.6, 0.0, 10.001913, 9.998834 
2.8758743e+3, 1.949506e+2, -1004038.7, -1203187.5, 105431.555, -0.15013207, -0.30536854, -958592.8, 70869.56, 0.0, 10.001491, 9.998679 
2.8755045e+3, 2.0494199e+2, -882966.7, -1146897.1, 83612.47, -0.23283389, -0.31752115, -858708.1, 72839.2, 0.0, 10.001904, 9.998171 
2.8751355e+3, 2.1493347e+2, -613977.8, -984438.1, 110297.37, -0.21268153, -0.31964836, -583625.7, 250008.67, 0.0, 10.00313, 9.998032 
2.8747648e+3, 2.2492637e+2, -452560.56, -718858.2, 10113.819, -0.19591013, -0.20406033, -452177.0, 283531.06, 0.0, 10.002971, 9.999257 
2.8743923e+3, 2.3492038e+2, -621895.1, -764221.9, 44037.156, -0.19837134, -0.05801938, -609371.6, 28399.838, 0.0, 10.001177, 9.999148 
2.8740215e+3, 2.4491364e+2, -769208.56, -890425.56, 165573.69, -0.21966739, 0.09902329, -653499.06, -113654.234, 0.0, 9.999967, 9.998203 
2.873652e+3, 2.5490573e+2, -756777.7, -851872.6, 82508.664, -0.27648246, 0.16307451, -709096.8, -267165.53, 0.0, 9.999408, 9.998082 
2.873284e+3, 2.6489693e+2, -480679.1, -442725.06, 47749.74, -0.16010182, 0.06338392, -410319.53, -66302.18, 0.0, 9.999696, 10.000049 
2.8729174e+3, 2.7488726e+2, -197134.56, -261667.86, 52338.176, 0.12144602, -0.24523641, -167916.08, 78186.92, 0.0, 10.000972, 10.000025 
2.8725472e+3, 2.8488016e+2, -206872.16, -301532.28, 27976.373, 0.1395424, -0.22956204, -199222.11, -51050.89, 0.0, 10.000624, 9.999247 
2.8721735e+3, 2.948748e+2, -358626.0, -341756.6, 16962.115, -0.13609964, -0.022898147, -331247.75, -281017.8, 0.0, 9.9989395, 9.999128 
2.8718042e+3, 3.048689e+2, -127244.64, 22296.17, 178015.69, -0.12428285, 0.077217914, 140606.56, 140606.56, 0.0, 9.998997, 10.000913 
2.8714412e+3, 3.1486338e+2, 196495.63, 188268.97, 205493.86, 0.36122394, 0.07116518, 397917.3, 397917.3, 0.0, 10.0009, 10.00083 
2.871071e+3, 3.248545e+2, -48053.023, -136241.25, 18287.32, 0.34239247, -0.07520236, -44411.227, -44411.227, 0.0, 10.000087, 9.998951 
2.8880882e+3, 1.3537115e+2, -996431.9, -1140914.9, -98255.71, -0.23811, 0.25803468, -946718.4, 666645.6, 0.0000003382392, 10.003862, 10.001997 
2.887719e+3, 1.453571e+2, -1089127.4, -1400541.8, 201629.27, 0.19740038, -0.5229023, -990081.56, 525402.94, 0.000000039050374, 10.003766, 9.999615 
2.887347e+3, 1.5535542e+2, -1165764.8, -1395007.4, 101931.234, -0.12545452, -0.0064342073, -1126997.6, 290511.7, 0.0000000006124831, 10.002645, 9.9995165 
2.886978e+3, 1.6534953e+2, -1184121.4, -1307454.6, -1372.1748, -0.07977778, 0.114242114, -1184106.1, 135459.0, 0.0, 10.001682, 9.999879 
2.8866097e+3, 1.7533939e+2, -1244630.9, -1329179.1, 68886.1, 0.11859019, -0.23249835, -1206081.8, 15572.412, 0.0, 10.000764, 9.999512 
2.8862402e+3, 1.8533109e+2, -1259600.8, -1426707.9, 116235.59, 0.088118196, -0.25212452, -1200004.4, -76269.03, 0.0, 10.000659, 9.99822 
2.8858697e+3, 1.9532403e+2, -1117926.1, -1328586.9, 108135.53, -0.06336826, -0.12327074, -1072300.3, -46487.703, 0.0, 10.001042, 9.998045 
2.8854996e+3, 2.0531619e+2, -942688.7, -1028116.06, 151464.67, -0.20113838, -0.090176605, -828030.2, 99859.46, 0.0, 10.000911, 9.999471 
2.8851297e+3, 2.1530744e+2, -964552.6, -1033232.1, 214030.55, -0.30978987, -0.23874243, -782124.5, 47845.504, 0.0, 10.000262, 9.999078 
2.8847584e+3, 2.2529987e+2, -812453.44, -910477.0, 70229.21, -0.3255054, -0.19738011, -775824.7, -43779.676, 0.0, 10.000641, 9.999057 
2.8843865e+3, 2.3529336e+2, -616510.5, -797664.94, -6267.4175, -0.24715379, -0.09049316, -616293.94, 17819.596, 0.0, 10.001451, 9.998783 
2.8840154e+3, 2.4528597e+2, -615329.44, -898511.75, 123338.66, -0.22666511, 0.05797181, -569142.9, -32950.184, 0.0, 10.001402, 9.997459 
2.8836453e+3, 2.5527748e+2, -726169.9, -938060.4, 142703.13, -0.2573927, 0.13019352, -654383.4, -216098.06, 0.0, 10.000117, 9.997141 
2.8832772e+3, 2.652681e+2, -458238.8, -419755.47, 191001.19, -0.14791863, 0.025150156, -247029.17, 93348.34, 0.0, 9.999872, 10.000101 
2.8829116e+3, 2.7525717e+2, -338960.78, -344286.63, 129467.266, 0.15046456, -0.42142648, -212129.05, 30346.24, 0.0, 10.000133, 9.9998455 
2.8825408e+3, 2.8525016e+2, -201640.19, -282097.88, 5366.06, 0.10860668, -0.39269885, -201283.89, -56742.047, 0.0, 10.000633, 9.999356 
2.8821647e+3, 2.952465e+2, -162102.92, -264285.13, 11972.883, -0.2702853, -0.0332803, -160718.78, -114136.24, 0.0, 10.000414, 9.998941 
2.881796e+3, 3.0524054e+2, 6251.56, 128515.4, 164452.78, -0.21919538, 0.052832313, 242830.98, 242830.98, 0.0, 9.999845, 10.001206 
2.881436e+3, 3.1523234e+2, -134045.22, 17675.48, 76214.39, 0.44044992, -0.26041734, 49348.504, 49348.504, 0.0, 9.998773, 10.0006695 
2.8810686e+3, 3.2522458e+2, -144409.08, -329125.06, -173680.3, 0.7291247, -0.28528896, -40057.027, -40057.027, 0.0, 10.000272, 9.99744 
2.8980878e+3, 1.3574287e+2, -1173153.1, -1172430.8, -106748.36, 0.0438391, -0.10239404, -1066043.0, 543672.1, 0.0000000028010363, 10.00244, 10.0024605 
2.8977165e+3, 1.4573634e+2, -1355249.0, -1853224.8, 145687.2, 0.24515939, 0.0033114639, -1315758.6, 196009.89, 0.0, 10.003359, 9.996687 
2.897341e+3, 1.5572691e+2, -1383227.1, -1798201.9, 110633.92, -0.35772938, 0.041845594, -1355574.4, 58300.234, 0.0, 10.002433, 9.99685 
2.8969705e+3, 1.6571794e+2, -1072244.4, -1098598.9, 6189.701, -0.35513294, -0.09531807, -1070863.0, 245095.69, 0.0, 10.001776, 10.001267 
2.896603e+3, 1.7570886e+2, -1114408.1, -1128843.8, 61719.746, -0.015569974, -0.46156356, -1059485.6, 158545.53, 0.0, 10.001061, 10.000743 
2.896234e+3, 1.8570241e+2, -1229475.3, -1444900.3, 131804.11, 0.064117186, -0.337654, -1166969.3, -46871.664, 0.0, 10.000977, 9.997948 
2.8958648e+3, 1.9569789e+2, -1102857.9, -1330287.6, 135649.11, -0.02208679, 0.09144792, -1039565.0, -17405.213, 0.0, 10.001142, 9.998 
2.895494e+3, 2.0569146e+2, -780447.7, -736670.1, 134218.25, -0.17698254, 0.15890794, -622567.5, 301652.84, 0.0, 10.001051, 10.001423 
2.8951222e+3, 2.1568327e+2, -796277.1, -753842.25, 215766.44, -0.41934055, -0.117148176, -558252.5, 268030.8, 0.0, 10.000504, 10.000899 
2.894752e+3, 2.2567497e+2, -882449.5, -1133069.4, 116758.23, -0.3977059, -0.14399858, -836484.6, -108120.43, 0.0, 10.000938, 9.997394 
2.894382e+3, 2.356667e+2, -629315.4, -964785.1, 49253.703, -0.20853302, -0.034581665, -622233.44, 8223.399, 0.0, 10.001986, 9.997397 
2.8940123e+3, 2.4565788e+2, -448719.5, -675724.6, 95585.13, -0.048962943, -0.038439363, -413832.88, 118714.42, 0.0, 10.001879, 9.998769 
2.8936422e+3, 2.5564837e+2, -526025.1, -685516.2, 143594.42, 0.05379139, -0.18390983, -441518.72, -6879.052, 0.0, 10.0007515, 9.998578 
2.893273e+3, 2.656419e+2, -447030.13, -528975.9, 246822.23, 0.0583326, -0.0113082295, -237803.1, 98903.85, 0.0, 10.000413, 9.999103 
2.892904e+3, 2.7563715e+2, -299780.4, -424181.06, 179876.9, 0.0013765272, 0.28394735, -171653.16, 67107.234, 0.0, 10.000784, 9.998986 
2.8925338e+3, 2.8562927e+2, -83144.234, -190701.06, 63121.59, -0.025762336, 0.2545791, -53998.266, 86837.836, 0.0, 10.001232, 9.999711 
2.8921616e+3, 2.9561946e+2, 71480.766, -113101.14, 79611.67, -0.07889146, -0.023888094, 101073.516, 143999.61, 0.0, 10.001798, 9.999318 
2.8917897e+3, 3.0561146e+2, -98457.15, -314381.6, 113951.99, -0.22884573, 0.02523043, -49445.18, -49445.18, 0.0, 10.000814, 9.997719 
2.8914213e+3, 3.1560427e+2, -381202.5, -483070.1, -54264.332, -0.21077624, 0.19835487, -357712.72, -357712.72, 0.0, 9.998674, 9.9973345 
2.8910577e+3, 3.255916e+2, 216406.1, -114887.625, -35319.11, 0.14820398, -0.1299819, 220129.6, 220129.6, 0.0, 10.002459, 9.997978 
2.9080826e+3, 1.3611405e+2, -1554857.4, -1607310.8, 13153.422, 0.047958903, -0.30877045, -1551743.8, 54327.516, 0.00000000011876347, 10.000877, 10.000259 
2.907711e+3, 1.4610995e+2, -1271853.3, -1724636.1, 64734.555, 0.012445644, 0.09280063, -1262780.0, 245329.39, 0.0, 10.003578, 9.99747 
2.9073375e+3, 1.560991e+2, -1315278.4, -1700364.6, 168883.75, -0.2750668, -0.080942966, -1251707.1, 158515.52, 0.0, 10.00264, 9.9974165 
2.906967e+3, 1.6609022e+2, -1050763.1, -1235953.0, 98485.46, -0.2465796, -0.15334941, -1008179.6, 304129.16, 0.0, 10.00257, 9.999942 
2.906598e+3, 1.7608248e+2, -978681.2, -1194152.5, 27290.73, -0.050802436, -0.26469547, -975278.44, 239099.34, 0.0, 10.002577, 9.99957 
2.906228e+3, 1.8607606e+2, -1054388.8, -1273989.1, 75533.71, -0.028769806, -0.12810898, -1030916.94, 85527.35, 0.0, 10.001826, 9.998694 
2.9058582e+3, 1.9607069e+2, -1166406.3, -1280801.5, 142609.23, -0.073016465, 0.12744385, -1069951.8, -51442.625, 0.0, 10.000379, 9.998677 
2.9054877e+3, 2.0606393e+2, -897905.44, -768382.2, 128801.266, -0.17483932, 0.11108872, -688977.8, 231591.56, 0.0, 10.0001545, 10.001598 
2.905117e+3, 2.1605581e+2, -822906.3, -774890.8, 84403.664, -0.32290417, -0.19748865, -711146.94, 111482.875, 0.0, 10.00037, 10.000803 
2.9047468e+3, 2.2604764e+2, -929694.1, -1179821.4, 42210.445, -0.3136966, -0.20789473, -922762.94, -198053.52, 0.0, 10.000778, 9.997117 
2.9043773e+3, 2.360392e+2, -834270.9, -1113855.4, 77196.195, -0.1627335, -0.1008062, -814372.44, -187567.69, 0.0, 10.000845, 9.996903 
2.9040074e+3, 2.4603018e+2, -464078.4, -606980.2, 98629.12, 0.00017499652, -0.13159381, -413738.75, 115155.79, 0.0, 10.001543, 9.999344 
2.903638e+3, 2.5602052e+2, -357874.38, -569025.94, 77521.555, 0.1746961, -0.36636797, -332469.84, 98513.42, 0.0, 10.001833, 9.998824 
2.9032674e+3, 2.6601535e+2, -365878.84, -555499.5, 187555.44, 0.103291266, -0.05305914, -250531.98, 82508.3, 0.0, 10.00129, 9.998473 
2.9028964e+3, 2.7601323e+2, -555464.4, -651732.9, 160097.16, -0.14115451, 0.549344, -436422.06, -201345.39, 0.0, 9.999503, 9.998045 
2.9025263e+3, 2.86005e+2, -376475.6, -291443.28, 70429.45, -0.14309667, 0.51581043, -251692.02, -114536.22, 0.0, 9.999154, 9.999987 
2.902157e+3, 2.9599217e+2, -342554.7, -344978.4, 87095.695, 0.038864966, -0.08101902, -256662.4, -217393.73, 0.0, 9.99921, 9.998936 
2.90179e+3, 3.059803e+2, 56550.176, -467771.22, 201488.45, 0.308263, -0.30267757, 125034.04, 125034.04, 0.0, 10.002958, 9.995544 
2.9014233e+3, 3.1597036e+2, 605366.0, -410942.25, 228040.78, 0.5260693, -0.14904897, 654188.75, 654188.75, 0.0, 10.00733, 9.993585 
2.9010567e+3, 3.2595515e+2, 447097.1, -161819.31, 339435.97, 0.33277008, -0.4719363, 598612.1, 598612.1, 0.0, 10.004889, 9.996352 
2.918075e+3, 1.364847e+2, -1711344.8, -1923836.6, 175281.52, -0.17968825, -0.43055654, -1612622.9, -10187.504, 0.0000000000007792345, 10.00088, 9.998084 
2.9177046e+3, 1.4648166e+2, -1224705.1, -1455597.6, -1273.533, -0.27960506, 0.05084023, -1224698.1, 279770.78, 0.0, 10.0028515, 9.999666 
2.9173353e+3, 1.5647161e+2, -1311973.0, -1530118.0, 114265.33, -0.11195493, -0.25380653, -1263079.1, 143483.5, 0.0, 10.001927, 9.998936 
2.916965e+3, 1.664643e+2, -1288661.3, -1613623.8, 81050.27, -0.04073713, -0.11421925, -1269568.0, 39071.957, 0.0, 10.002074, 9.997578 
2.9165933e+3, 1.7645833e+2, -1147360.0, -1486477.3, 38219.09, -0.12467337, 0.19507505, -1143106.0, 67603.02, 0.0, 10.0022955, 9.99771 
2.9162213e+3, 1.8645075e+2, -953073.1, -1041313.25, 33987.56, -0.20090772, 0.20091122, -941500.0, 171284.02, 0.0, 10.001714, 10.000346 
2.91585e+3, 1.9644235e+2, -1067544.0, -1079990.3, 110947.414, -0.2745859, 0.002584818, -962645.4, 52217.0, 0.0, 10.000362, 10.0000725 
2.9154813e+3, 2.0643392e+2, -953044.94, -928991.44, 139404.36, -0.20032938, -0.17686154, -801096.0, 115839.96, 0.0, 10.000296, 10.000452 
2.9151136e+3, 2.164253e+2, -826701.25, -864805.5, 100785.65, -0.09504963, -0.4133097, -743182.75, 75825.4, 0.0, 10.0006695, 10.000062 
2.914743e+3, 2.2641782e+2, -796059.6, -956576.44, 50481.797, -0.09975301, -0.3953399, -781503.3, -60422.797, 0.0, 10.000973, 9.998578 
2.9143712e+3, 2.3641077e+2, -679932.3, -885361.5, 106828.42, -0.17496216, -0.27528256, -634449.06, -11292.656, 0.0, 10.001166, 9.998342 
2.9140013e+3, 2.4640296e+2, -457057.25, -663374.9, 139086.4, -0.15582669, -0.22550249, -387049.2, 138184.25, 0.0, 10.001782, 9.998857 
2.9136312e+3, 2.5639457e+2, -248031.3, -536868.0, 103499.39, -0.09075934, -0.27467343, -214773.6, 212538.83, 0.0, 10.002579, 9.99871 
2.9132605e+3, 2.6638657e+2, -298172.38, -480591.53, 120955.21, -0.11016565, -0.26458332, -237891.52, 91502.2, 0.0, 10.00151, 9.998906 
2.9128885e+3, 2.7637923e+2, -516847.88, -553684.8, 116050.19, -0.22124471, -0.2122881, -417763.63, -186291.1, 0.0, 9.999368, 9.998795 
2.9125175e+3, 2.863726e+2, -407982.66, -311388.9, 135453.25, -0.21459752, -0.12476323, -215879.77, -82343.23, 0.0, 9.998905, 9.999995 
2.9121488e+3, 2.963651e+2, -357290.2, -262375.38, 190327.53, 0.019749196, -0.17946406, -113677.81, -78075.1, 0.0, 9.99862, 9.999804 
2.9280698e+3, 1.3685586e+2, -1517411.6, -1759157.5, 166821.14, -0.19942829, -0.21368669, -1432275.9, 166534.16, 0.0, 10.00189, 9.998726 
2.9277033e+3, 1.4685418e+2, -1277788.5, -1357410.3, -119270.805, 0.031662732, 0.29785353, -1191859.9, 308967.03, 0.0, 10.001928, 10.000793 
2.9273295e+3, 1.5684214e+2, -1439830.1, -1482470.8, -49441.383, -0.099733144, -0.32516956, -1407308.0, -4375.1216, 0.0, 10.000569, 9.999919 
2.9269588e+3, 1.6683535e+2, -1469623.5, -1639101.1, 40441.914, -0.100470975, -0.21596558, -1460467.6, -155465.14, 0.0, 10.00058, 9.998123 
2.9265878e+3, 1.7683086e+2, -1299577.5, -1513422.0, 115799.03, -0.13509959, 0.19127722, -1248886.9, -41829.66, 0.0, 10.0010605, 9.998125 
2.9262164e+3, 1.8682319e+2, -1073400.8, -1108344.9, 67267.62, -0.15243241, 0.17600968, -1021373.1, 87758.984, 0.0, 10.000933, 10.000254 
2.9258454e+3, 1.9681375e+2, -1141477.9, -1151242.6, 55403.746, -0.09027173, -0.12422909, -1090741.8, -79523.57, 0.0, 10.000007, 9.999767 
2.925476e+3, 2.068056e+2, -1004225.3, -1048085.8, 120908.52, -0.09493762, -0.21898812, -903274.3, 10018.567, 0.0, 10.000423, 9.999553 
2.9251075e+3, 2.1679784e+2, -866349.44, -975848.8, 81800.38, -0.1052915, -0.29159603, -822667.25, -7303.0225, 0.0, 10.00085, 9.999205 
2.924738e+3, 2.2679031e+2, -688208.06, -822036.9, 6393.802, -0.08869103, -0.29228163, -687903.25, 29533.678, 0.0, 10.00137, 9.9993 
2.924367e+3, 2.3678304e+2, -617587.25, -793151.06, 14127.87, -0.08330459, -0.2905475, -616457.6, 3051.9373, 0.0, 10.001364, 9.998874 
2.9239956e+3, 2.467761e+2, -539639.06, -665693.4, 79686.31, -0.18245333, -0.20511991, -501067.34, 20508.654, 0.0, 10.00112, 9.999143 
2.9236242e+3, 2.5676903e+2, -598335.8, -687411.1, 102460.164, -0.274511, -0.16629387, -531152.0, -107510.05, 0.0, 10.000182, 9.998811 
2.9232538e+3, 2.6675957e+2, -412487.47, -498119.5, 86995.7, -0.21472219, -0.32240435, -358342.34, -32608.404, 0.0, 10.000673, 9.999139 
2.9228824e+3, 2.7674907e+2, -287596.94, -399046.63, 70337.375, -0.13581906, -0.635552, -253585.48, -25748.027, 0.0, 10.000832, 9.99913 
2.9225105e+3, 2.867435e+2, -68653.305, -94753.54, 143421.78, -0.21960126, -0.49468192, 62310.86, 192200.19, 0.0, 10.001105, 10.000365 
2.9221413e+3, 2.9673922e+2, -148138.77, -32598.709, 226269.03, 0.02069556, -0.32230017, 143158.67, 175085.3, 0.0, 9.999575, 10.000915 
2.938067e+3, 1.372281e+2, -1524679.9, -1610060.9, 255260.44, -0.07580352, 0.16076002, -1308564.8, 286612.28, 0.0, 10.00121, 10.000072 
2.9377022e+3, 1.4722653e+2, -1378043.9, -1320753.3, -96321.086, 0.42009407, 0.58653057, -1248908.3, 248279.31, 0.0, 10.000858, 10.001568 
2.937322e+3, 1.5721188e+2, -1366154.9, -1345653.5, -31963.924, -0.2603766, -0.36874413, -1322336.8, 76978.88, 0.0, 10.000622, 10.000841 
2.936951e+3, 1.6720514e+2, -1294149.0, -1339917.3, 82912.97, -0.2873701, -0.4039961, -1231020.1, 70357.62, 0.0, 10.0008335, 10.000063 
2.936582e+3, 1.7720166e+2, -1204115.8, -1307661.1, 135926.16, -0.18024734, -0.08012403, -1110436.3, 92977.09, 0.0, 10.000994, 9.999583 
2.9362124e+3, 1.871944e+2, -1139081.6, -1262886.9, 34247.68, 0.01902867, -0.047058906, -1130239.3, -24754.605, 0.0, 10.000984, 9.999182 
2.935843e+3, 1.9718537e+2, -1157877.8, -1259605.6, 48533.81, 0.26863492, -0.19285442, -1138437.6, -130864.58, 0.0, 10.000296, 9.998893 
2.9354712e+3, 2.0717886e+2, -1020856.7, -1127546.3, 144996.86, 0.026828712, -0.049675662, -919703.06, -10062.756, 0.0, 10.000622, 9.998911 
2.9350987e+3, 2.1717319e+2, -841627.94, -1015659.06, 100875.27, -0.44604796, 0.16121686, -795423.6, 16277.035, 0.0, 10.001182, 9.998789 
2.9347306e+3, 2.2716506e+2, -640893.8, -805000.2, 8302.364, -0.28442496, 0.11864079, -640474.9, 73305.266, 0.0, 10.001626, 9.999338 
2.9343638e+3, 2.37156e+2, -493915.56, -666604.9, 279.27066, 0.084089786, -0.058062762, -493915.1, 121951.62, 0.0, 10.001814, 9.999569 
2.9339916e+3, 2.4714956e+2, -413857.28, -442073.6, 25864.201, -0.037453935, -0.046513937, -398503.66, 119421.664, 0.0, 10.00121, 10.000672 
2.9336172e+3, 2.5714394e+2, -482780.8, -487575.25, 68277.484, -0.34223992, 0.0013807379, -416858.47, 3116.0928, 0.0, 10.00026, 10.000176 
2.933249e+3, 2.67136e+2, -430956.16, -557314.2, 108121.88, -0.10151489, -0.03572008, -368907.66, -46857.11, 0.0, 10.000679, 9.998761 
2.9328817e+3, 2.7712703e+2, -106660.0, -285561.56, 60293.605, 0.29517257, -0.16266452, -88236.96, 135901.3, 0.0, 10.001833, 9.999466 
2.9325086e+3, 2.8711963e+2, 117765.82, 91143.625, 83071.84, 0.0662254, -0.28164795, 188586.27, 314789.22, 0.0, 10.001817, 10.001382 
2.9321346e+3, 2.9711252e+2, 117963.945, 128.9311, 127297.94, -0.08856172, -0.46222666, 199317.73, 227581.05, 0.0, 10.001575, 10.00026 
2.9480615e+3, 1.3760218e+2, -1578408.6, -1598897.3, 198847.63, -0.045335516, 0.1035825, -1389541.6, 201960.25, 0.0, 10.000614, 10.000469 
2.947692e+3, 1.4759798e+2, -1661410.4, -1522455.0, 179692.34, 0.122754596, 0.30733833, -1399276.3, 94264.805, 0.0, 9.999186, 10.001002 
2.9473186e+3, 1.5758726e+2, -1172044.0, -1294154.9, 154091.42, -0.0890845, -0.18555856, -1067352.9, 328284.5, 0.0, 10.002134, 10.000479 
2.9469475e+3, 1.6757992e+2, -1111528.0, -1238085.0, 129392.0, -0.11559224, -0.25944537, -1030770.2, 266934.22, 0.0, 10.002043, 10.000182 
2.9465768e+3, 1.7757404e+2, -1262340.8, -1339071.3, 104071.74, -0.13532408, -0.19143009, -1189788.0, 9971.503, 0.0, 10.000625, 9.99953 
2.9462063e+3, 1.875666e+2, -1119517.1, -1293634.4, 51645.63, -0.018916335, -0.15880558, -1105350.9, -3518.3481, 0.0, 10.001311, 9.998804 
2.9458368e+3, 1.9755825e+2, -894694.6, -1192987.6, 98954.445, 0.23032607, -0.19382046, -864853.25, 139062.6, 0.0, 10.002378, 9.998346 
2.945466e+3, 2.0755146e+2, -800759.8, -1070545.8, 204744.0, 0.01749846, -0.03930905, -690466.7, 215522.6, 0.0, 10.00234, 9.9984665 
2.9450938e+3, 2.1754538e+2, -883589.6, -1092352.9, 172069.02, -0.3889487, 0.18466456, -786717.0, 21340.53, 0.0, 10.001161, 9.998278 
2.9447255e+3, 2.2753789e+2, -720576.56, -773950.3, 134007.73, -0.25037223, 0.19133323, -610624.3, 99505.95, 0.0, 10.000859, 9.999876 
2.9443586e+3, 2.375295e+2, -729770.75, -750231.75, 147573.83, 0.12792814, 0.030918194, -592073.25, 20134.904, 0.0, 10.000157, 9.999758 
2.943986e+3, 2.475226e+2, -518939.97, -466336.75, 91898.13, 0.0121484175, -0.010387417, -397050.47, 117220.31, 0.0, 10.000467, 10.000821 
2.9436114e+3, 2.5751665e+2, -463089.8, -465715.03, 35103.62, -0.26832736, -0.024761582, -429274.28, -12950.349, 0.0, 10.000435, 10.000232 
2.943244e+3, 2.6751012e+2, -443840.3, -525049.5, 128050.1, 0.009000085, 0.04901685, -350111.13, -31725.531, 0.0, 10.000462, 9.999087 
2.9428783e+3, 2.775029e+2, -400016.78, -402861.94, 147800.27, 0.48527437, 0.06813692, -253632.25, -33177.734, 0.0, 9.999783, 9.999639 
2.942504e+3, 2.874942e+2, -125930.64, 43446.316, 118082.2, 0.17147078, -0.2189674, 104069.73, 226600.28, 0.0, 9.999938, 10.001926 
2.9421276e+3, 2.974854e+2, -361977.22, -400554.13, 161783.1, -0.2379902, -0.57492995, -218336.8, -193729.16, 0.0, 9.999203, 9.99859 
2.9580528e+3, 1.3797574e+2, -1725866.0, -1644095.1, -217445.0, -0.29193395, -0.16087027, -1463725.3, 124098.766, 0.0, 9.999486, 10.0007105 
2.9576793e+3, 1.4796962e+2, -1712653.5, -1663928.0, 232405.9, -0.38615105, -0.10836095, -1454611.5, 35275.863, 0.0, 9.999342, 9.999952 
2.9573166e+3, 1.5796526e+2, -1385920.4, -1521238.6, 186093.14, 0.15980527, 0.14571531, -1255568.4, 136362.9, 0.0, 10.001179, 9.9993925 
2.9569456e+3, 1.6795665e+2, -1260465.0, -1392991.3, 51036.0, 0.16548665, 0.024418708, -1243089.3, 50923.375, 0.0, 10.001348, 9.999461 
2.9565707e+3, 1.77947e+2, -1317972.4, -1413217.9, 66835.0, -0.15576899, -0.21005516, -1283529.0, -87426.28, 0.0, 10.000415, 9.999129 
2.9561988e+3, 1.8793918e+2, -1117329.4, -1278664.3, 89167.31, -0.24581628, -0.21499132, -1077755.3, 20423.748, 0.0, 10.001237, 9.998948 
2.955829e+3, 1.9793174e+2, -883100.56, -1180310.1, 130914.31, -0.20418647, -0.1666016, -833660.06, 166593.22, 0.0, 10.002374, 9.99845 
2.9554608e+3, 2.079232e+2, -788349.75, -1088455.1, 165417.34, -0.08066045, -0.17752679, -715067.06, 187275.3, 0.0, 10.002427, 9.998345 
2.9550925e+3, 2.1791461e+2, -772520.0, -978780.7, 127526.07, -0.021311836, -0.19808397, -711641.94, 92791.06, 0.0, 10.001594, 9.998869 
2.9547217e+3, 2.2790897e+2, -619908.0, -602917.6, 109082.414, -0.052217968, -0.09849282, -502000.13, 204484.3, 0.0, 10.001018, 10.000979 
2.9543504e+3, 2.3790377e+2, -621646.4, -643166.0, 130500.35, -0.09202, -0.029956298, -501463.03, 107065.25, 0.0, 10.000587, 10.000298 
2.9539794e+3, 2.4789493e+2, -600909.0, -726102.9, 96602.81, -0.043101467, -0.16717663, -548395.2, -37782.875, 0.0, 10.000747, 9.998959 
2.953609e+3, 2.5788525e+2, -386431.06, -506460.2, 16737.002, 0.01825872, -0.36885813, -384140.9, 28564.506, 0.0, 10.001179, 9.999641 
2.9532385e+3, 2.6787943e+2, -238855.64, -208426.22, 79473.21, 0.07759671, -0.33300394, -142724.44, 172033.7, 0.0, 10.00085, 10.001114 
2.952868e+3, 2.778746e+2, -217428.19, -162751.42, 124408.17, 0.10729181, -0.25552633, -62713.27, 154087.48, 0.0, 10.000269, 10.001091 
2.952494e+3, 2.878665e+2, -160797.03, -75060.27, 98476.2, -0.09462551, -0.4840973, -10526.328, 108351.516, 0.0, 10.000008, 10.001134 
2.9521227e+3, 2.9786247e+2, -268118.0, -322488.4, 26440.291, 0.016520854, -0.27085328, -257380.6, -236461.17, 0.0, 9.999487, 9.999043 
2.9680476e+3, 1.3834774e+2, -1826256.9, -1658083.5, -266803.75, -0.009628347, -0.11677501, -1462429.6, 121741.53, 0.0, 9.998694, 10.000978 
2.9676726e+3, 1.4833781e+2, -1543417.3, -1500541.4, 95013.6, -0.38654515, -0.5156155, -1424577.3, 61691.844, 0.0, 10.000192, 10.000659 
2.9673097e+3, 1.5833756e+2, -1734903.3, -1666880.0, 115391.39, 0.16580613, 0.08619738, -1580592.1, -192321.7, 0.0, 9.998672, 9.999615 
2.966939e+3, 1.6832897e+2, -1638884.3, -1634068.0, 15772.862, 0.19992894, -0.012724798, -1620520.5, -330165.28, 0.0, 9.998989, 9.998955 
2.9665646e+3, 1.7831819e+2, -1435157.9, -1472657.9, 54390.875, -0.059789672, -0.3279549, -1396375.9, -203915.06, 0.0, 9.999636, 9.999105 
2.9661927e+3, 1.8831141e+2, -1208381.9, -1206288.6, 122069.32, -0.2538842, -0.29833686, -1085261.4, 9265.435, 0.0, 10.000155, 9.99996 
2.9658225e+3, 1.983053e+2, -1184112.4, -1274172.0, 213266.36, -0.28013575, -0.20045647, -1011173.75, -14587.036, 0.0, 10.000147, 9.99887 
2.965456e+3, 2.082971e+2, -953334.94, -1162245.4, 254837.27, -0.07273606, -0.18737833, -782376.06, 116296.445, 0.0, 10.0013485, 9.998333 
2.9650897e+3, 2.1828808e+2, -724385.75, -991636.1, 197058.23, 0.16278061, -0.24380986, -619919.25, 180848.08, 0.0, 10.002134, 9.998512 
2.9647174e+3, 2.2828163e+2, -435456.0, -573829.0, 80740.52, 0.030257458, -0.17840016, -398313.75, 304513.38, 0.0, 10.0025625, 10.000433 
2.9643443e+3, 2.3827618e+2, -446276.2, -632784.0, -10506.253, -0.15745847, -0.097701006, -445686.22, 159187.88, 0.0, 10.002151, 9.999628 
2.9639736e+3, 2.4826694e+2, -510356.6, -721930.94, 24738.193, -0.06040441, -0.24234049, -507502.6, -539.6303, 0.0, 10.001598, 9.998544 
2.9636043e+3, 2.5825647e+2, -530719.25, -613680.8, 66965.14, 0.14295223, -0.4882946, -493428.28, -84363.11, 0.0, 10.000427, 9.999232 
2.9632327e+3, 2.6825094e+2, -183193.06, -84359.555, 72080.48, 0.069836125, -0.47012877, -46382.883, 264731.25, 0.0, 10.00084, 10.001941 
2.9628593e+3, 2.7824682e+2, -157081.64, -127153.0, 18295.133, -0.13944001, -0.41224173, -118481.695, 94666.88, 0.0, 10.000751, 10.001076 
2.9624864e+3, 2.882394e+2, -126243.85, -148227.61, -19776.137, -0.23876512, -0.5420917, -114610.15, 615.02, 0.0, 10.000735, 10.000223 
2.9621184e+3, 2.9823884e+2, -227807.69, -247937.66, -188524.08, 0.28758186, 0.059023507, -49080.113, -31839.125, 0.0, 9.999668, 9.99942 
2.978043e+3, 1.3871871e+2, -1912195.0, -1683533.4, -46975.727, 0.3098134, -0.016142897, -1674258.9, -93727.48, 0.0, 9.998089, 10.001074 
2.9776672e+3, 1.487047e+2, -1479543.8, -1326316.0, 13768.603, -0.26559418, -0.9084457, -1325088.6, 157575.08, 0.0, 10.00003, 10.001921 
2.9772997e+3, 1.587073e+2, -1584809.1, -1516645.5, 22353.246, -0.020453257, -0.13949573, -1509969.0, -125338.69, 0.0, 9.999371, 10.000303 
2.97693e+3, 1.6869934e+2, -1601516.5, -1654615.9, 354.06122, 0.0955173, -0.17956913, -1601514.3, -314800.88, 0.0, 9.999414, 9.998614 
2.9765588e+3, 1.7868863e+2, -1380531.4, -1405991.5, 35156.582, 0.012297974, -0.45555162, -1355871.0, -167045.73, 0.0, 9.999805, 9.999494 
2.9761875e+3, 1.8868342e+2, -1067088.9, -967821.8, 85896.734, -0.122413374, -0.3922304, -918249.8, 172625.63, 0.0, 10.000314, 10.001557 
2.975817e+3, 1.986793e+2, -1052033.3, -1086723.1, 193009.34, -0.20855096, -0.24985954, -875591.06, 117322.93, 0.0, 10.000442, 10.000045 
2.975451e+3, 2.0867282e+2, -941387.1, -1169597.6, 268498.97, -0.07107271, -0.0897059, -763753.25, 131230.72, 0.0, 10.001458, 9.998252 
2.9750845e+3, 2.186655e+2, -697670.94, -1044426.1, 196500.84, 0.06989555, 0.041513823, -608994.4, 188069.47, 0.0, 10.002504, 9.998008 
2.9747137e+3, 2.2865589e+2, -533641.2, -888099.5, 68123.74, 0.027159395, -0.042110406, -520999.28, 178159.81, 0.0, 10.0029, 9.998178 
2.974341e+3, 2.3864622e+2, -373528.8, -685981.94, -46705.387, -0.07883377, -0.175065, -366696.7, 234555.89, 0.0, 10.002939, 9.998915 
2.9739684e+3, 2.4863917e+2, -317857.53, -451431.56, -32762.855, -0.088394575, -0.1886167, -310254.3, 193065.95, 0.0, 10.002058, 10.0002165 
2.9735968e+3, 2.5863242e+2, -354473.94, -427014.5, 31367.883, -0.04437869, -0.20926854, -342791.34, 62593.773, 0.0, 10.001068, 10.000238 
2.9732266e+3, 2.6862666e+2, -190865.31, -221951.08, 68803.19, 0.026954709, -0.16410731, -135871.25, 171568.6, 0.0, 10.001282, 10.000846 
2.9728556e+3, 2.7862117e+2, -46427.79, -165961.47, -20524.014, 0.010067485, -0.1084784, -43001.984, 166490.0, 0.0, 10.001776, 10.000375 
2.972483e+3, 2.8861472e+2, -43478.63, -159429.27, -80556.01, 0.00069795037, -0.08940966, -2204.7249, 109356.74, 0.0, 10.001439, 9.999869 
2.9721102e+3, 2.986104e+2, -78120.19, -188147.89, -336168.28, 0.1301657, 0.19408798, 207506.0, 221120.98, 0.0, 10.000693, 9.9993725 
2.9880327e+3, 1.3908747e+2, -2091596.4, -1893325.5, 103267.24, 0.16787736, -0.10426243, -1849310.9, -272402.03, 0.0, 9.9973, 10.0000515 
2.9876608e+3, 1.4907403e+2, -1439121.8, -1423863.8, -28937.814, -0.3007587, -0.84083825, -1401566.1, 77471.77, 0.0, 10.00074, 10.000942 
2.9872954e+3, 1.590724e+2, -1139466.8, -1357950.8, -143254.08, 0.06604712, -0.43510467, -1068554.5, 312493.34, 0.0, 10.002653, 9.999827 
2.986924e+3, 1.6906625e+2, -1239491.4, -1434851.1, -205643.75, 0.092457026, -0.32275748, -1109507.8, 173607.39, 0.0, 10.001717, 9.999021 
2.9865518e+3, 1.790584e+2, -1326790.3, -1350838.8, -109030.54, -0.0041835806, -0.35939008, -1229122.9, -43921.734, 0.0, 10.000051, 9.999771 
2.9861814e+3, 1.8905428e+2, -1074478.9, -883350.9, -86139.89, -0.07758097, -0.26638976, -850258.1, 236981.63, 0.0, 9.999888, 10.002349 
2.9858115e+3, 1.9905105e+2, -1110727.4, -1037102.2, -4122.7617, -0.12778808, -0.14825818, -1036872.06, -47604.324, 0.0, 9.999721, 10.000731 
2.985445e+3, 2.0904347e+2, -960290.56, -1166309.8, 107847.39, -0.13032581, -0.16010535, -914162.5, -22816.9, 0.0, 10.001232, 9.9984045 
2.985079e+3, 2.1903585e+2, -731074.06, -1025203.25, 49395.133, -0.05950158, -0.113621145, -723000.44, 70425.17, 0.0, 10.002173, 9.998297 
2.9847082e+3, 2.290275e+2, -617116.2, -874643.8, 46663.758, -0.086637594, -0.12887168, -608921.5, 86587.4, 0.0, 10.0022, 9.9985695 
2.9843363e+3, 2.3901807e+2, -574397.75, -780922.8, 98697.51, -0.13533127, -0.24580084, -534816.44, 62785.83, 0.0, 10.001617, 9.998885 
2.9839638e+3, 2.490122e+2, -220005.1, -324390.5, 65934.52, -0.09860662, -0.1755374, -188105.95, 311556.22, 0.0, 10.002474, 10.000863 
2.9835922e+3, 2.5900736e+2, -144309.22, -352086.25, 59645.867, 0.013866623, -0.04035227, -128404.36, 273307.47, 0.0, 10.002712, 9.999956 
2.983222e+3, 2.6900092e+2, -98314.69, -222366.72, 131130.27, 0.077329494, -0.02883631, -15280.809, 288494.6, 0.0, 10.002154, 10.000409 
2.9828507e+3, 2.7899447e+2, -279036.72, -351639.97, 103819.945, 0.05520195, -0.02665241, -205354.77, 484.66202, 0.0, 10.000594, 9.999656 
2.9824778e+3, 2.8898978e+2, -250948.23, -282523.75, 33579.723, 0.04381375, 0.21278612, -229630.05, -121736.41, 0.0, 10.000227, 9.999583 
2.9821008e+3, 2.9897997e+2, -128728.66, -152432.94, -180961.7, -0.19704284, -0.02127659, 40768.613, 50768.176, 0.0, 10.000259, 9.999788 
2.9980206e+3, 1.3945465e+2, -2037212.9, -1950646.5, 184242.48, -0.19128127, -0.23482673, -1804671.4, -231370.03, 0.0, 9.998106, 9.999272 
2.9976535e+3, 1.4944284e+2, -1570598.4, -1636834.9, -4146.7095, -0.41264096, -0.696647, -1570339.8, -94920.164, 0.0, 10.000517, 9.999592 
2.9972926e+3, 1.5943511e+2, -1305956.1, -1500128.1, -105439.81, 0.19155318, -0.77579254, -1259712.9, 117781.65, 0.0, 10.001775, 9.999282 
2.9969195e+3, 1.6943067e+2, -1339248.8, -1397739.4, -239661.2, 0.15254647, -0.5235194, -1127055.0, 152490.97, 0.0, 10.000659, 9.999795 
2.9965442e+3, 1.7942719e+2, -1359505.9, -1241216.3, -99340.56, -0.14668189, -0.20475768, -1184746.9, -3157.9773, 0.0, 9.9993105, 10.000867 
2.9961735e+3, 1.8942378e+2, -1038796.4, -812875.06, -58259.996, -0.201056, -0.099213265, -798736.0, 284883.72, 0.0, 9.999938, 10.002795 
2.9958048e+3, 1.9941984e+2, -1077549.9, -975557.7, 3988.9756, -0.12247581, -0.06886334, -975401.94, 10251.806, 0.0, 9.99974, 10.001136 
2.9954395e+3, 2.0941038e+2, -903602.3, -1016797.8, 167120.75, -0.15997444, -0.34878087, -783755.6, 103988.06, 0.0, 10.001104, 9.999484 
2.9950726e+3, 2.1939984e+2, -520697.6, -718559.1, 62641.016, -0.32449666, -0.69511634, -502533.56, 287311.34, 0.0, 10.002687, 10.000155 
2.9947e+3, 2.2939517e+2, -395385.97, -460610.5, 8626.7295, -0.45127627, -0.58497566, -394264.25, 297623.3, 0.0, 10.002315, 10.001403 
2.9943287e+3, 2.39392e+2, -366477.06, -487943.7, 108796.65, -0.43410257, -0.3423501, -302610.03, 291307.16, 0.0, 10.002155, 10.00065 
2.9939616e+3, 2.4938637e+2, -170851.78, -419336.8, 97933.09, 0.028044349, -0.22430821, -136894.77, 359088.13, 0.0, 10.003263, 9.999874 
2.9935935e+3, 2.5937998e+2, 30209.729, -248584.14, 52920.023, 0.44669047, -0.15604208, 39916.9, 437973.4, 0.0, 10.003735, 10.000226 
2.993219e+3, 2.693728e+2, 26350.262, -37409.965, 90025.94, 0.23390993, -0.29343936, 89974.13, 390099.78, 0.0, 10.002421, 10.001604 
2.9928425e+3, 2.7936593e+2, -166247.84, -221327.72, 87437.0, -0.15022898, -0.42366564, -102116.21, 100074.38, 0.0, 10.000961, 10.000428 
2.9924667e+3, 2.8936213e+2, -267456.97, -332001.44, 50132.86, -0.36466974, -0.07927543, -240107.06, -135874.53, 0.0, 10.000201, 9.999369 
2.9920962e+3, 2.9935122e+2, 128846.984, 171252.47, 137800.53, -0.057478234, -0.39913782, 289471.9, 295816.84, 0.0, 10.000957, 10.001845 
3.008017e+3, 1.3981327e+2, -1461681.6, -1321294.6, -24749.914, 0.0104860235, -0.5680193, -1317059.0, 252731.53, 0.0, 10.000397, 10.002532 
3.0076483e+3, 1.4981155e+2, -1201666.8, -1123209.4, -34475.027, -0.3441547, -0.37229368, -1110213.4, 361597.34, 0.0, 10.00159, 10.002575 
3.007288e+3, 1.5981112e+2, -1329209.9, -1224911.6, -77402.42, 0.29736793, 0.0025438103, -1183729.9, 190087.27, 0.0, 10.00029, 10.001881 
3.0069104e+3, 1.698056e+2, -1508364.6, -1187030.9, -148044.13, 0.033100445, -0.12439646, -1129223.8, 146648.23, 0.0, 9.998138, 10.002442 
3.0065346e+3, 1.7979895e+2, -1824248.4, -1550488.1, 186152.84, -0.18200669, -0.32071394, -1456307.5, -278369.3, 0.0, 9.996386, 10.0001745 
3.006168e+3, 1.8979025e+2, -1538322.1, -1537835.4, 58785.973, -0.028433127, -0.4322521, -1479292.3, -399269.7, 0.0, 9.998482, 9.998518 
3.005802e+3, 1.9977881e+2, -938257.4, -1106385.5, -87630.26, 0.16202083, -0.77113783, -900889.0, 81243.53, 0.0, 10.00146, 9.999408 
3.0054364e+3, 2.0977677e+2, -800940.94, -568606.9, 129278.51, 0.101475194, -0.5479012, -510970.25, 373175.28, 0.0, 10.000093, 10.002975 
3.0050695e+3, 2.19774e+2, -1036913.75, -884876.0, 133626.78, -0.06279772, -0.38392356, -807158.1, -20991.527, 0.0, 9.998772, 10.00086 
3.0046993e+3, 2.2976564e+2, -593576.7, -631783.1, -78835.68, 0.027313488, -0.62826556, -531562.7, 156685.02, 0.0, 10.001262, 10.000666 
3.0043295e+3, 2.3976003e+2, -496293.2, -570193.06, -220974.3, 0.1456053, -0.64741206, -309200.88, 281103.53, 0.0, 10.001365, 10.000419 
3.003954e+3, 2.4975604e+2, -923116.8, -777077.06, -193846.66, -0.15514521, -0.42477736, -642953.44, -150595.13, 0.0, 9.998133, 9.999782 
3.0035782e+3, 2.597513e+2, -1147499.6, -747259.9, -55327.184, -0.42446935, -0.2555799, -739752.5, -345333.1, 0.0, 9.995401, 10.000751 
3.0032095e+3, 2.697473e+2, 40315.07, 148000.84, 107298.94, -0.2514857, -0.24182865, 214208.44, 510662.03, 0.0, 10.001838, 10.003052 
3.002838e+3, 2.7974325e+2, 792887.1, 254430.19, 45474.996, -0.30871558, -0.21651624, 796700.7, 995186.06, 0.0, 10.00755, 10.000469 
3.0024603e+3, 2.8973678e+2, -10831.599, -283950.4, -79715.52, -0.36939242, -0.115851946, 10732.479, 111280.75, 0.0, 10.002415, 9.998517 
3.002097e+3, 2.9972476e+2, -419948.75, -39333.62, 262762.47, 0.73901916, -0.5368422, 94798.45, 97463.47, 0.0, 9.997176, 10.002077 
