coord_x,coord_y,stress_xx,stress_yy,tau_xy,velocity_x,velocity_y,stress_1,eps,damage,lx,ly
5.001298e+0, 1.24528974e+2, -1495444.1, -1774970.1, 92698.37, 0.01948479, 0.24969392, -1467497.0, 252130.14, 0.0027102246, 10.002026, 9.998604 
5.000495e+0, 1.3452913e+2, -1310960.9, -1367591.3, 41119.89, -0.031950083, 0.06194765, -1289350.1, 332268.34, 0.0016001622, 10.001536, 10.000954 
5.0003636e+0, 1.4452843e+2, -1385640.1, -1582838.1, 49169.254, -0.036992688, 0.008259305, -1374060.4, 149562.73, 0.00071385584, 10.001363, 9.998869 
5.000833e+0, 1.5452863e+2, -1258091.9, -1480222.6, 33852.023, -0.001716575, 0.06772722, -1253047.5, 172577.34, 0.00020880907, 10.00161, 9.998784 
5.000789e+0, 1.6452865e+2, -1150680.4, -1284924.3, 25780.412, 0.010554037, 0.1588447, -1145899.8, 181724.8, 0.00003056022, 10.001283, 9.99961 
5.000083e+0, 1.7452748e+2, -1212744.0, -1275336.0, 12156.466, -0.0075303335, 0.014823182, -1210465.9, 19165.4, 0.0000010193884, 10.000232, 9.999511 
4.999745e+0, 1.8452659e+2, -1170994.0, -1169102.9, 38295.492, -0.015433491, -0.033982143, -1131741.3, -105.43076, 0.0, 9.999706, 9.999816 
4.9998277e+0, 1.9452576e+2, -1066260.3, -1083130.8, 6349.3438, -0.012188905, -0.1620532, -1064137.8, -30497.396, 0.0, 9.999815, 9.999686 
4.9998552e+0, 2.0452534e+2, -1022305.44, -1089024.4, 20361.518, -0.00796288, -0.13195094, -1016582.3, -80938.086, 0.0, 9.999784, 9.9989805 
4.999753e+0, 2.145248e+2, -959333.94, -1024933.56, 39130.96, -0.009710586, -0.1422937, -941074.4, -103421.055, 0.0, 9.999617, 9.998831 
4.9997824e+0, 2.2452478e+2, -783846.6, -780813.8, 58510.547, -0.009807619, -0.066080965, -723800.0, 15853.052, 0.0, 9.999685, 9.999802 
5.000008e+0, 2.34525e+2, -638982.06, -662820.56, -7728.1997, -0.004444449, -0.0970017, -636695.9, 4949.326, 0.0, 10.000014, 9.999781 
5.0002337e+0, 2.445243e+2, -697302.06, -948486.4, 1545.6128, 0.0062079583, -0.0062433626, -697292.56, -153640.31, 0.0, 10.000265, 9.9970255 
5.0004596e+0, 2.5452194e+2, -603296.3, -890979.2, 56041.57, 0.021564575, 0.008306221, -592764.75, -147081.45, 0.000000000017365094, 10.0004, 9.996688 
5.0003177e+0, 2.6451987e+2, -363753.84, -461268.84, 76167.65, 0.015759302, 0.029282335, -322074.6, 25630.428, 0.000000288742, 10.000239, 9.999033 
4.9997395e+0, 2.745181e+2, -338657.88, -391112.94, 13789.259, -0.016043285, -0.12616369, -335253.88, -85538.31, 0.0000033591298, 9.999705, 9.999099 
4.999411e+0, 2.8451777e+2, -277483.44, -246367.36, -17211.027, -0.021949707, -0.09459106, -238724.72, -87009.97, 0.000018802597, 9.999177, 9.999668 
4.9992877e+0, 2.945174e+2, -229596.33, -149581.22, -59846.055, -0.012800937, -0.1721713, -117601.586, -63884.457, 0.000081046455, 9.998711, 9.99989 
4.999389e+0, 3.045192e+2, -279822.88, -308873.0, -54556.867, -0.0015748161, 0.07455237, -237890.63, -237890.63, 0.0003038914, 9.998714, 9.99846 
4.999755e+0, 3.1451464e+2, -27858.65, 131171.95, -57163.29, 0.015869742, -0.26946396, 149586.86, 149586.86, 0.00078894256, 9.998976, 10.001382 
1.5003859e+1, 1.2452741e+2, -1580389.3, -1852773.8, 27850.549, 0.05919376, -0.17248, -1577570.8, 142060.61, 0.0026043395, 10.001666, 9.998264 
1.5001571e+1, 1.3452956e+2, -1386758.9, -1469378.4, 38030.918, -0.08256276, -0.03305601, -1371918.4, 249690.38, 0.0015429672, 10.001349, 10.000368 
1.5001073e+1, 1.4452955e+2, -1414319.6, -1578884.4, 43314.215, -0.110723376, 0.006358599, -1403615.4, 119993.555, 0.0006869522, 10.001119, 9.999029 
1.5002489e+1, 1.5452833e+2, -1279323.0, -1472194.1, 60387.832, -0.0048629087, -0.051901713, -1261975.9, 163647.38, 0.0001968844, 10.001415, 9.998946 
1.5002373e+1, 1.6452803e+2, -1174625.0, -1274533.6, -25440.611, 0.035168394, -0.012332158, -1168519.9, 159106.66, 0.000026649353, 10.001059, 9.999802 
1.5000284e+1, 1.7452833e+2, -1225846.0, -1252656.0, -12595.871, -0.018224804, 0.008533517, -1220856.8, 8764.65, 0.00000066228677, 10.00004, 9.999774 
1.49992e+1, 1.8452792e+2, -1234166.1, -1233283.0, 26362.031, -0.046266813, 0.0056039332, -1207358.9, -75734.62, 0.0, 9.999459, 9.999501 
1.4999476e+1, 1.9452643e+2, -1126352.6, -1146700.5, 26604.336, -0.033895146, -0.11728798, -1108043.3, -74404.9, 0.0, 9.999585, 9.999372 
1.4999542e+1, 2.0452632e+2, -992539.0, -965708.8, 2324.6355, -0.024754532, -0.08645393, -965508.9, -29870.188, 0.0, 9.999554, 9.999948 
1.499924e+1, 2.1452768e+2, -920325.75, -884871.06, 48871.816, -0.030423993, 0.022012485, -850610.75, -12986.644, 0.0, 9.999392, 9.99991 
1.4999337e+1, 2.2452718e+2, -898196.8, -957088.7, 53958.83, -0.026101762, 0.043082457, -866172.3, -126544.53, 0.0, 9.999459, 9.998712 
1.4999992e+1, 2.3452434e+2, -763344.6, -855846.56, 20261.586, -0.013170885, -0.13217647, -759101.2, -117446.66, 0.0, 9.999771, 9.99858 
1.5000708e+1, 2.4452266e+2, -607435.3, -709071.0, -7597.37, 0.021078726, -0.16127741, -606870.56, -63201.15, 0.0, 10.00007, 9.9987755 
1.500137e+1, 2.5452214e+2, -499980.1, -610177.5, 74219.33, 0.06706144, -0.11941251, -462643.0, -16970.578, 0.0, 10.000148, 9.998748 
1.5000954e+1, 2.6452103e+2, -462548.9, -613183.1, 43758.09, 0.049077425, -0.07129629, -450760.13, -103077.33, 0.00000013049092, 10.000047, 9.998095 
1.4999233e+1, 2.745191e+2, -459477.97, -578706.44, 4633.6167, -0.045820665, -0.09945917, -459298.16, -209595.22, 0.0000024373799, 9.999461, 9.997941 
1.4998196e+1, 2.8451732e+2, -357674.03, -361933.16, -47646.254, -0.06697368, -0.11492601, -312109.78, -160388.84, 0.000015368285, 9.998993, 9.998979 
1.4997843e+1, 2.9451504e+2, -318711.13, -262916.6, -54406.72, -0.040851984, -0.2792423, -229671.83, -175928.72, 0.000069496324, 9.998424, 9.999267 
1.4998247e+1, 3.0451787e+2, -295719.84, -264088.34, -57179.37, 0.0114583485, 0.08605768, -220577.72, -220577.72, 0.00026841622, 9.998469, 9.998906 
1.4999212e+1, 3.1451553e+2, -137363.0, 40391.43, 9222.782, 0.052633513, -0.022408718, 40868.67, 40868.67, 0.0007052667, 9.998481, 10.001018 
2.5006172e+1, 1.24529354e+2, -1596404.4, -1865164.8, 20488.42, 0.1441093, -0.15130782, -1594851.4, 124759.99, 0.0024837567, 10.00161, 9.998175 
2.5003693e+1, 1.3453092e+2, -1315968.5, -1502148.4, 2140.4077, -0.03165863, -0.030087067, -1315943.9, 305652.38, 0.0014731403, 10.002166, 9.999728 
2.500288e+1, 1.4453071e+2, -1300360.5, -1497627.6, 48900.367, -0.06519154, 0.011800101, -1288904.0, 234693.92, 0.00065158884, 10.001821, 9.999228 
2.5003773e+1, 1.5452932e+2, -1392834.6, -1503484.4, 50938.605, 0.03526055, -0.09849059, -1372955.9, 52655.188, 0.0001815959, 10.000559, 9.999128 
2.5003257e+1, 1.6452892e+2, -1321430.4, -1377390.8, 16250.874, 0.070926055, -0.061457556, -1317053.5, 10561.321, 0.000022322774, 10.0001955, 9.999498 
2.5001118e+1, 1.7452928e+2, -1125673.0, -1234777.6, -24440.04, 0.02907351, -0.01631456, -1120448.5, 109163.07, 0.00000035252413, 10.00088, 9.999474 
2.4999823e+1, 1.8452908e+2, -1029668.25, -1172221.9, 35695.87, 0.0014979513, 0.034208965, -1021229.44, 110384.94, 0.0, 10.001014, 9.999164 
2.4999693e+1, 1.9452804e+2, -1039264.6, -1139144.6, 22880.537, 0.0018513915, -0.023312658, -1034272.7, -646.6978, 0.0, 10.000332, 9.999047 
2.4999501e+1, 2.0452787e+2, -922631.75, -932231.0, 21066.813, -0.00016548981, 0.017459765, -905824.75, 29801.854, 0.0, 10.000039, 9.999936 
2.499917e+1, 2.1452846e+2, -811181.6, -835662.7, -23620.133, -0.0066394685, 0.041652117, -796818.75, 40797.805, 0.0, 10.00016, 9.999871 
2.4999453e+1, 2.2452755e+2, -828876.9, -971597.0, 10575.2, 0.012890679, 0.04573923, -828097.56, -88473.85, 0.0, 10.000138, 9.998265 
2.5000542e+1, 2.3452465e+2, -781990.06, -923262.8, 21890.31, 0.066907614, -0.102276884, -778675.9, -137022.33, 0.0, 9.999883, 9.998052 
2.500118e+1, 2.4452285e+2, -607097.56, -641763.9, 30198.871, 0.082232326, -0.14363267, -589611.06, -45941.977, 0.0, 9.9998045, 9.999345 
2.500118e+1, 2.5452211e+2, -485136.75, -533688.75, -2791.839, 0.052496634, -0.19702502, -484976.75, -39306.855, 0.0, 9.999961, 9.999344 
2.5000575e+1, 2.6452127e+2, -503992.6, -653252.3, -39620.04, 0.024337195, -0.14260145, -494127.72, -146451.34, 0.00000003137998, 9.9998665, 9.997893 
2.4999207e+1, 2.745201e+2, -473679.5, -613179.7, -29451.87, 0.013079061, -0.072002016, -467716.4, -218025.0, 0.0000016497497, 9.999497, 9.997679 
2.49979e+1, 2.8451794e+2, -344693.1, -411717.3, 17365.914, -0.0033443335, -0.08929345, -340460.84, -188745.95, 0.000012071121, 9.999338, 9.998456 
2.4996743e+1, 2.9451427e+2, -232895.47, -288442.66, 2347.8335, -0.026060415, -0.3521454, -232796.4, -179045.47, 0.00005739791, 9.999335, 9.998635 
2.4996847e+1, 3.0451727e+2, -203195.64, -167543.67, 52873.777, 0.020481844, 0.045256644, -129571.78, -129571.78, 0.00023072664, 9.998895, 9.999365 
2.4997681e+1, 3.1451637e+2, -261695.0, -62267.492, 88704.125, 0.1104736, -0.0026245485, -28522.436, -28522.436, 0.000617959, 9.997839, 10.000597 
3.500784e+1, 1.2453463e+2, -1602234.9, -1825863.4, -10311.766, 0.078392036, 0.23743656, -1601760.5, 117808.43, 0.0023583595, 10.0014105, 9.998536 
3.5006425e+1, 1.3453318e+2, -1342350.1, -1531884.4, 32990.188, -0.01214319, 0.09955299, -1336772.1, 284808.9, 0.0013953737, 10.002082, 9.999556 
3.500536e+1, 1.4453174e+2, -1284344.6, -1429856.6, -13918.304, -0.042541936, -0.0005285233, -1283025.3, 240566.5, 0.0006105934, 10.001678, 9.999758 
3.5004258e+1, 1.5453148e+2, -1361519.4, -1414893.6, 19149.418, -0.01089437, -0.048969775, -1355359.9, 70229.35, 0.00016453842, 10.000473, 9.999771 
3.5003173e+1, 1.6453117e+2, -1367666.4, -1448699.0, 20857.49, 0.006120319, -0.018690985, -1362612.9, -35022.234, 0.000017966355, 10.000084, 9.999071 
3.500224e+1, 1.745301e+2, -1173399.4, -1317229.9, 17472.486, 0.01670665, -0.05841488, -1171307.3, 58296.57, 0.00000014192928, 10.000807, 9.998948 
3.5001266e+1, 1.8452987e+2, -1053362.3, -1182984.5, -2175.7795, 0.01165317, 0.018690756, -1053325.8, 78282.55, 0.0, 10.000858, 9.99916 
3.500012e+1, 1.9453056e+2, -1056419.5, -1141558.5, 12039.184, -0.022443078, 0.13718054, -1054749.9, -21146.54, 0.0, 10.000197, 9.999094 
3.4999412e+1, 2.0452988e+2, -995741.56, -1044499.56, 7192.493, -0.041799355, 0.15789324, -994702.7, -59094.023, 0.0, 9.999878, 9.999244 
3.4999233e+1, 2.1452719e+2, -885976.1, -950404.7, -4052.415, -0.04705209, -0.065432996, -885722.25, -48091.965, 0.0, 9.999992, 9.999164 
3.4999803e+1, 2.2452587e+2, -822412.56, -907170.1, -8693.043, 0.0038860112, -0.0911415, -821530.1, -81888.72, 0.0, 9.999934, 9.998801 
3.5001287e+1, 2.3452607e+2, -767018.25, -841596.5, 27145.512, 0.120018415, 0.018129952, -758184.1, -116542.97, 0.0, 9.999681, 9.998703 
3.5001335e+1, 2.445249e+2, -657768.7, -714116.1, 22017.234, 0.08833754, 0.026345363, -650186.0, -106535.08, 0.0, 9.999661, 9.998921 
3.4999576e+1, 2.5452188e+2, -544956.06, -616077.2, 18552.818, -0.13582858, -0.20150693, -540407.25, -94732.23, 0.0, 9.999786, 9.998863 
3.4998855e+1, 2.6452067e+2, -461937.06, -543528.6, -65356.58, -0.16355918, -0.19618334, -425688.84, -78004.07, 0.0000000045955626, 9.99977, 9.998692 
3.499923e+1, 2.7452138e+2, -430543.47, -488950.28, -25463.914, 0.03136134, -0.021802153, -421000.9, -171321.4, 0.0000011896407, 9.99935, 9.9986 
3.4998223e+1, 2.8451973e+2, -364132.75, -428964.0, 3671.9514, 0.06215651, -0.030142523, -363925.44, -212229.3, 0.000009641755, 9.9992485, 9.998381 
3.4995592e+1, 2.945151e+2, -277000.97, -343129.7, 16073.431, -0.114406325, -0.37008414, -273301.13, -219560.11, 0.0000464018, 9.9991865, 9.998333 
3.4994674e+1, 3.045172e+2, -149327.95, -47503.6, 3073.5898, -0.11628484, -0.07861945, -47410.906, -47410.906, 0.00019513248, 9.998838, 10.000213 
3.4994376e+1, 3.1451762e+2, -294345.78, -111340.4, 95508.42, -0.077236354, -0.09468603, -70575.93, -70575.93, 0.00053834624, 9.997738, 10.000307 
4.501004e+1, 1.2453622e+2, -1625445.3, -1781390.3, 57371.953, 0.20733677, 0.26002744, -1606612.5, 112941.19, 0.0022337737, 10.001036, 9.999005 
4.5008302e+1, 1.3453467e+2, -1506332.8, -1634844.0, 30862.47, 0.040170707, 0.12885283, -1499305.3, 122262.52, 0.0013153872, 10.001068, 9.999331 
4.5007068e+1, 1.4453292e+2, -1361189.0, -1477607.1, -19530.578, 0.0040959446, 0.01568554, -1357999.9, 165582.02, 0.00056916923, 10.001177, 9.999689 
4.500553e+1, 1.5453263e+2, -1214433.9, -1357355.4, -74553.76, 0.032646336, -0.02295477, -1182623.6, 242955.72, 0.00014812649, 10.001521, 9.999682 
4.5004383e+1, 1.6453224e+2, -1153048.4, -1361902.6, -30190.584, 0.054670896, 0.012223973, -1148771.8, 178809.64, 0.000013959289, 10.001645, 9.998911 
4.5003867e+1, 1.7453094e+2, -1078140.9, -1291058.6, -39156.91, 0.074122354, -0.031271454, -1071168.0, 158428.72, 0.000000037538413, 10.001551, 9.998773 
4.500279e+1, 1.8453038e+2, -989325.94, -1173709.8, -49485.563, 0.06439636, 0.032314267, -976884.4, 154719.95, 0.0, 10.001392, 9.998977 
4.5000884e+1, 1.9453068e+2, -950626.56, -1112807.1, -78688.77, 0.005580879, 0.13264684, -918723.25, 114879.15, 0.0, 10.001018, 9.998903 
4.499982e+1, 2.0452954e+2, -900036.06, -1027137.4, -32681.129, -0.015282479, 0.1306189, -892125.25, 43486.71, 0.0, 10.000646, 9.999 
4.4999766e+1, 2.1452639e+2, -878048.25, -974077.94, -36265.3, 0.012283778, -0.11646051, -865891.75, -28253.383, 0.0, 10.000157, 9.998926 
4.500031e+1, 2.245252e+2, -789140.94, -863884.2, 8885.659, 0.06857069, -0.12859759, -788099.1, -48451.004, 0.0, 10.000036, 9.999061 
4.5001605e+1, 2.3452622e+2, -656716.75, -760106.0, -5861.9927, 0.16434291, 0.037626743, -656385.5, -14745.939, 0.0, 10.000315, 9.998973 
4.5001462e+1, 2.4452543e+2, -601229.44, -702138.0, 3352.7644, 0.123867035, 0.079049796, -601118.2, -57472.06, 0.0, 10.00012, 9.998778 
4.4999495e+1, 2.5452214e+2, -617705.44, -675179.1, -4973.4053, -0.09164624, -0.15757433, -617278.25, -171603.55, 0.0, 9.999379, 9.998654 
4.4998446e+1, 2.6452088e+2, -521718.53, -507448.94, -45355.848, -0.136711, -0.17519338, -468670.16, -120984.75, 0.000000013083459, 9.999087, 9.999264 
4.4998592e+1, 2.7452192e+2, -369263.38, -393071.0, -51454.273, 0.038316183, -0.032854833, -328353.9, -78678.12, 0.0000010541644, 9.999485, 9.999197 
4.499768e+1, 2.8452095e+2, -297446.7, -366983.34, 1473.3756, 0.0782991, -0.01374598, -297415.47, -145730.81, 0.000008106713, 9.999577, 9.998656 
4.4995353e+1, 2.945175e+2, -248598.08, -307895.8, 12974.96, -0.04885387, -0.25891137, -245883.31, -192165.27, 0.000037622078, 9.999285, 9.998534 
4.499384e+1, 3.045184e+2, -141601.66, -20267.709, 10010.437, -0.06808753, -0.10576379, -19447.363, -19447.363, 0.00016443121, 9.99879, 10.000413 
4.4992217e+1, 3.145191e+2, -280216.44, -133113.05, 2300.5872, -0.06217148, -0.12112724, -133077.08, -133077.08, 0.00047154687, 9.997957, 10.000044 
5.501128e+1, 1.2453439e+2, -1595652.5, -1736982.6, 7030.278, 0.13228533, -0.083810784, -1595303.6, 124259.8, 0.0021078985, 10.001082, 9.999297 
5.500878e+1, 1.3453531e+2, -1515049.0, -1675819.4, 47197.19, -0.07157482, 0.061578594, -1502217.5, 119339.34, 0.0012334009, 10.001148, 9.999016 
5.50076e+1, 1.4453425e+2, -1407421.5, -1573848.1, -29632.545, -0.11534981, 0.060868, -1402302.9, 121265.25, 0.00052778376, 10.001174, 9.999031 
5.500708e+1, 1.5453286e+2, -1266315.9, -1466388.8, -45789.016, -0.008795655, -0.013911802, -1256334.5, 169245.84, 0.00013278752, 10.00152, 9.998936 
5.500622e+1, 1.6453223e+2, -1164452.9, -1366795.8, -48449.938, 0.033305082, 0.035157226, -1153450.1, 174135.92, 0.0000106646075, 10.001568, 9.998909 
5.500541e+1, 1.7453179e+2, -1076493.0, -1277846.8, -28164.135, 0.0321071, 0.067570254, -1072627.8, 156962.72, 0.000000007551507, 10.001513, 9.998875 
5.5003935e+1, 1.845306e+2, -1026891.06, -1230216.0, -79543.83, 0.0030933407, 0.07572831, -999470.3, 132131.92, 0.0, 10.001297, 9.998637 
5.500152e+1, 1.9452837e+2, -987983.44, -1170400.5, -80274.04, -0.07022328, -0.036991812, -957689.2, 75934.43, 0.0, 10.000934, 9.998549 
5.5000216e+1, 2.045269e+2, -906782.94, -1002056.1, -62965.516, -0.071074136, -0.06698254, -875464.5, 60171.652, 0.0, 10.000488, 9.999244 
5.500026e+1, 2.1452603e+2, -878459.4, -943391.8, -40337.21, 0.011034573, -0.10869215, -859145.8, -21505.002, 0.0, 10.000026, 9.999198 
5.500049e+1, 2.2452553e+2, -808816.56, -873598.2, 5519.5996, 0.05012621, -0.067594774, -808349.6, -68705.766, 0.0, 9.999906, 9.999056 
5.500107e+1, 2.3452523e+2, -678717.25, -774982.6, 19852.033, 0.046512716, -0.029555611, -674784.06, -33136.887, 0.0, 10.000182, 9.998934 
5.500101e+1, 2.4452451e+2, -608032.7, -692802.75, -33710.543, 0.032712046, 0.012287546, -596261.5, -52607.137, 0.0, 10.000025, 9.998885 
5.500033e+1, 2.5452298e+2, -634006.44, -662721.56, -19038.021, 0.016111698, -0.06162362, -624518.94, -178850.17, 0.0, 9.999198, 9.998818 
5.4998964e+1, 2.6452202e+2, -505825.66, -466577.28, -46556.816, -0.031158207, -0.072259165, -435677.75, -88000.195, 0.000000016276152, 9.999041, 9.999575 
5.4996914e+1, 2.745216e+2, -361268.44, -356846.78, -21154.195, -0.11600139, -0.10678609, -337788.2, -88107.24, 0.00000094951764, 9.999389, 9.9995 
5.4995716e+1, 2.8452152e+2, -257030.05, -271649.47, -22203.443, -0.11185805, -0.048998572, -240964.02, -89282.75, 0.0000068871877, 9.999534, 9.999327 
5.4995465e+1, 2.9452148e+2, -213493.78, -211143.88, 17154.002, -0.010292102, -0.01753735, -195124.64, -141442.58, 0.00003070153, 9.999177, 9.99925 
5.499389e+1, 3.0452085e+2, -173885.48, -69018.33, -28396.566, 0.023790026, -0.043731496, -61822.67, -61822.67, 0.00013855331, 9.998724, 10.000113 
5.499033e+1, 3.1452057e+2, -316454.75, -172031.06, 15628.09, -0.119197085, -0.11120173, -170359.31, -170359.31, 0.0004144919, 9.997817, 9.999841 
6.501275e+1, 1.2453471e+2, -1504140.4, -1684901.5, -14120.895, 0.1659278, -0.15915658, -1503043.9, 216514.5, 0.0019834668, 10.001638, 9.99941 
6.50104e+1, 1.3453592e+2, -1466786.5, -1689172.1, -20906.713, -0.031432427, 0.05195805, -1464838.1, 156711.06, 0.001149572, 10.001611, 9.998718 
6.5009534e+1, 1.445346e+2, -1379180.1, -1577623.8, -32273.451, -0.040217914, 0.04942451, -1374063.4, 149500.33, 0.00048384682, 10.001463, 9.9988575 
6.500915e+1, 1.545333e+2, -1280163.8, -1489030.4, -47262.434, 0.05975793, -0.0008837461, -1269967.0, 155609.97, 0.00011744106, 10.001523, 9.998761 
6.500816e+1, 1.6453262e+2, -1162474.3, -1356643.9, -3144.2444, 0.08434434, 0.05033749, -1162423.4, 165159.72, 0.000008467286, 10.0015335, 9.998999 
6.500671e+1, 1.7453201e+2, -1103173.6, -1283035.9, -10212.142, 0.03229168, 0.05633817, -1102595.6, 126991.81, 0.000000004638606, 10.001295, 9.998946 
6.500502e+1, 1.8453059e+2, -1054439.1, -1257229.1, -28099.48, -0.0005638911, 0.045688577, -1050617.6, 80982.83, 0.0, 10.001177, 9.998502 
6.5002924e+1, 1.9452803e+2, -966657.9, -1178501.5, -44445.516, -0.023255438, -0.08686998, -957710.9, 75914.36, 0.0, 10.001161, 9.998384 
6.500155e+1, 2.0452665e+2, -831419.2, -982433.8, -13578.739, -0.00538357, -0.09180995, -830207.94, 105429.664, 0.0, 10.001069, 9.999097 
6.5001017e+1, 2.1452647e+2, -789444.25, -913428.2, -46602.332, 0.060443465, -0.05119884, -773881.2, 63755.55, 0.0, 10.0007, 9.999072 
6.500083e+1, 2.2452575e+2, -739694.2, -844665.6, 22894.883, 0.07999344, -0.023017185, -734918.0, 4723.6, 0.0, 10.000387, 9.999026 
6.5001154e+1, 2.3452422e+2, -689176.25, -779273.9, 10887.342, 0.050661705, -0.112167776, -687879.25, -46224.1, 0.0, 10.000097, 9.998944 
6.500089e+1, 2.4452347e+2, -629501.06, -682697.4, -31791.766, 0.04192496, -0.08189983, -614648.3, -70985.695, 0.0, 9.999766, 9.9991045 
6.5000045e+1, 2.545235e+2, -593802.8, -618790.2, -38136.125, 0.07212484, -0.022408755, -566166.0, -120501.31, 0.0, 9.999345, 9.999073 
6.499842e+1, 2.6452294e+2, -546750.4, -469183.75, -26585.006, 0.037898004, -0.009147074, -460946.78, -113276.48, 0.00000000394634, 9.998692, 9.999729 
6.499594e+1, 2.7452168e+2, -564481.25, -432059.47, -39620.89, -0.06747386, -0.141588, -421110.16, -171429.45, 0.0000007712445, 9.997914, 9.999685 
6.4994466e+1, 2.8452185e+2, -494466.94, -350717.75, -18473.002, -0.08941352, -0.08415579, -348381.78, -196703.44, 0.000006042053, 9.997753, 9.9996395 
6.499424e+1, 2.945233e+2, -325761.2, -216506.31, -37177.3, 0.011098539, 0.06153418, -205055.7, -151390.22, 0.000026519589, 9.998218, 9.999665 
6.4992625e+1, 3.045222e+2, -168419.69, -107498.28, -66081.766, 0.02880323, -0.022508137, -65194.617, -65194.617, 0.00012024143, 9.998928, 9.999758 
6.4989763e+1, 3.1452182e+2, -55794.273, -73366.414, -75423.625, -0.031166997, -0.048137, 11353.299, 11353.299, 0.00036921015, 9.999689, 9.999644 
7.501358e+1, 1.2453696e+2, -1484159.3, -1650843.9, -75513.5, -0.001244999, 0.035833616, -1455037.1, 264503.75, 0.0018629195, 10.001679, 9.999619 
7.501253e+1, 1.3453633e+2, -1477339.0, -1721386.9, -15712.084, -0.025361706, 0.083554246, -1476331.5, 145214.72, 0.0010666472, 10.001655, 9.998476 
7.501207e+1, 1.4453398e+2, -1366545.0, -1539282.8, -47715.74, 0.02021533, -0.023507508, -1354240.8, 169327.95, 0.0004391749, 10.001412, 9.9991455 
7.501128e+1, 1.5453377e+2, -1254578.9, -1447972.0, -27538.734, 0.074986845, 0.005139824, -1250733.8, 174836.92, 0.00010226521, 10.001561, 9.999032 
7.500971e+1, 1.6453332e+2, -1160004.4, -1335523.0, -27645.055, 0.048126176, 0.054153927, -1155753.0, 171820.78, 0.000007138289, 10.001472, 9.999169 
7.500735e+1, 1.7453164e+2, -1099861.4, -1266442.6, -6828.116, -0.07255412, -0.06365183, -1099581.9, 130005.35, 0.00000003688298, 10.001253, 9.999081 
7.500559e+1, 1.8453033e+2, -1066519.9, -1265021.8, -42999.016, -0.09665153, -0.067105085, -1057605.8, 73993.32, 0.0, 10.001095, 9.998495 
7.500463e+1, 1.9452947e+2, -971476.06, -1178931.5, -31322.6, -0.005935685, -0.029993255, -966850.0, 66759.055, 0.0, 10.001116, 9.998406 
7.500338e+1, 2.0452869e+2, -882199.5, -1062834.5, -38992.004, 0.03770861, 0.046914276, -874142.06, 61475.223, 0.0, 10.000963, 9.998595 
7.5001615e+1, 2.1452765e+2, -843075.4, -999831.25, -47276.72, 0.015332019, 0.049074028, -829920.9, 7705.844, 0.0, 10.000585, 9.998537 
7.5000876e+1, 2.2452587e+2, -760486.5, -856994.94, -212.63904, 0.014702978, -0.00025460022, -760486.0, -20844.484, 0.0, 10.000257, 9.999003 
7.500144e+1, 2.3452304e+2, -711361.56, -792464.0, 16055.677, 0.03635246, -0.2176201, -708298.7, -66634.28, 0.0, 9.9999485, 9.998929 
7.500061e+1, 2.4452232e+2, -620294.3, -640377.3, -59842.67, 0.007900886, -0.20059155, -569656.5, -25985.57, 0.0, 9.999668, 9.999437 
7.4998206e+1, 2.5452378e+2, -592966.0, -584938.8, -39930.87, -0.07964211, -0.031065773, -548820.3, -103159.15, 0.0, 9.999201, 9.999375 
7.499626e+1, 2.6452386e+2, -563174.5, -477122.56, -68328.17, -0.07798177, 0.029648954, -439402.2, -91740.555, 0.00000000015133415, 9.99859, 9.999719 
7.499512e+1, 2.7452222e+2, -587848.2, -448486.53, -50884.832, 0.02182535, -0.13824409, -431884.78, -182210.2, 0.00000065427645, 9.997781, 9.999634 
7.499354e+1, 2.8452203e+2, -497501.34, -349558.75, -15286.819, 0.0068804487, -0.11721091, -347995.7, -196320.02, 0.0000058927376, 9.997714, 9.99967 
7.49912e+1, 2.9452294e+2, -334341.97, -212548.45, -1932.9806, -0.15759188, -0.02750764, -212517.78, -158849.25, 0.000025865007, 9.998106, 9.999757 
7.498946e+1, 3.045223e+2, -212849.7, -178968.7, -40682.49, -0.21437486, -0.04765402, -151840.56, -151840.56, 0.00011203884, 9.998853, 9.999291 
7.4989563e+1, 3.1452268e+2, -86641.875, -97583.71, -668.7288, -0.090328835, 0.048798, -86601.16, -86601.16, 0.00034091447, 9.999525, 9.999548 
8.5015506e+1, 1.2453811e+2, -1480889.8, -1611718.4, -52105.582, 0.04566062, 0.13584198, -1462673.8, 256859.2, 0.0017451695, 10.00156, 9.999933 
8.501481e+1, 1.3453673e+2, -1462524.9, -1695259.0, -25206.607, 0.05295024, 0.09795093, -1459826.3, 161716.23, 0.0009891815, 10.0016985, 9.998622 
8.50144e+1, 1.445337e+2, -1320405.9, -1499065.1, -10950.201, 0.11573728, -0.09470183, -1319737.3, 203832.69, 0.000399723, 10.001626, 9.999333 
8.501323e+1, 1.5453404e+2, -1258313.4, -1430538.6, -30331.01, 0.13105266, -0.026666572, -1253127.8, 172438.69, 0.00008899464, 10.001449, 9.999209 
8.501134e+1, 1.6453399e+2, -1173682.9, -1325861.8, -12372.14, 0.08140033, 0.046430998, -1172683.5, 154882.23, 0.000006071428, 10.001315, 9.99931 
8.500873e+1, 1.7453243e+2, -1113084.1, -1252321.3, -23325.938, -0.039737903, -0.072102286, -1109280.3, 120297.664, 0.000000076650345, 10.001086, 9.999252 
8.500691e+1, 1.8453117e+2, -1067663.9, -1258675.3, -18585.518, -0.06073951, -0.082574785, -1065872.3, 65716.805, 0.0, 10.001049, 9.998565 
8.5006166e+1, 1.9453037e+2, -969080.06, -1171433.1, -27690.158, 0.045803018, -0.045687225, -965359.3, 68238.89, 0.0, 10.0011, 9.998466 
8.500503e+1, 2.0452943e+2, -862549.25, -1097430.3, -9091.867, 0.098083384, 0.032319915, -862197.9, 73410.695, 0.0, 10.001297, 9.998196 
8.5003245e+1, 2.1452802e+2, -722116.2, -991732.75, -41617.51, 0.07634341, 0.04574691, -715838.4, 121785.08, 0.0, 10.0016365, 9.998089 
8.500198e+1, 2.2452617e+2, -629342.75, -781070.6, 3133.983, 0.06577645, 0.0067321565, -629278.0, 110362.24, 0.0, 10.001117, 9.999103 
8.500148e+1, 2.3452365e+2, -768434.6, -802644.7, -1156.6759, 0.07699836, -0.19119404, -768395.56, -126735.4, 0.0, 9.999501, 9.999064 
8.4999895e+1, 2.4452297e+2, -753581.1, -692615.75, -23437.088, 0.02564821, -0.18061237, -684647.3, -140981.19, 0.0, 9.998698, 9.999536 
8.499704e+1, 2.5452435e+2, -626798.4, -586478.0, -47542.848, -0.09147797, -0.03195336, -554997.56, -109340.37, 0.0, 9.99892, 9.999486 
8.499516e+1, 2.6452458e+2, -443375.56, -435192.94, -55099.54, -0.07964963, 0.040593613, -384033.03, -36376.77, 0.0000000019213902, 9.999439, 9.999613 
8.499477e+1, 2.745232e+2, -263314.34, -305926.56, -72674.56, 0.10588503, -0.09144974, -208887.1, 40779.848, 0.0000006294421, 10.000034, 9.999541 
8.499307e+1, 2.8452253e+2, -213469.95, -236682.33, -26347.932, 0.09730287, -0.10372122, -196285.22, -44612.38, 0.0000062489003, 9.9997635, 9.999457 
8.498966e+1, 2.945224e+2, -248242.42, -191241.63, -60267.19, -0.1422703, -0.09867301, -153075.64, -99399.49, 0.000027811611, 9.998788, 9.999569 
8.498769e+1, 3.0452287e+2, -244090.98, -189101.89, -33333.656, -0.24980395, 0.0022342731, -173386.69, -173386.69, 0.00011222166, 9.9985895, 9.999365 
8.4989136e+1, 3.1452268e+2, -183435.64, -86163.766, 1132.2233, -0.020960402, 0.028626075, -86150.586, -86150.586, 0.00032900518, 9.998606, 10.000062 
9.501754e+1, 1.2453833e+2, -1461033.1, -1562673.8, -93924.45, 0.013997868, 0.15360689, -1405061.5, 314471.13, 0.0016362383, 10.001523, 10.000288 
9.501665e+1, 1.3453704e+2, -1417334.8, -1629152.9, -7518.3296, 0.023810908, 0.083734095, -1417068.1, 204470.05, 0.0009229167, 10.001802, 9.999029 
9.5016104e+1, 1.4453374e+2, -1314924.1, -1483032.5, -32249.936, 0.07962611, -0.16719325, -1308949.6, 214617.72, 0.00036888671, 10.001611, 9.999448 
9.5014554e+1, 1.545342e+2, -1255059.1, -1425611.3, -20754.326, 0.07794289, -0.092342965, -1252570.0, 172993.42, 0.00007923838, 10.001453, 9.999241 
9.501267e+1, 1.6453473e+2, -1173807.3, -1314422.5, -33079.99, 0.048697587, 0.033987753, -1166413.9, 161143.9, 0.0000051224774, 10.001259, 9.999417 
9.501036e+1, 1.7453445e+2, -1104037.6, -1234753.8, -15503.532, -0.024583412, 0.030161733, -1102224.0, 127334.625, 0.00000007826353, 10.001085, 9.999375 
9.50085e+1, 1.8453318e+2, -1071023.1, -1249945.8, -29829.508, -0.039862987, 0.006117002, -1066181.1, 65388.535, 0.0, 10.000979, 9.998657 
9.5007104e+1, 1.9453071e+2, -973275.25, -1163737.5, -10934.26, -0.0064694863, -0.13665798, -972649.56, 60942.98, 0.0, 10.001025, 9.998553 
9.500607e+1, 2.0452891e+2, -908535.44, -1166015.5, -10187.522, 0.04159522, -0.13094184, -908133.0, 27478.125, 0.0, 10.001174, 9.997786 
9.5005417e+1, 2.1452755e+2, -770033.8, -1063550.6, -12648.492, 0.096679434, -0.073692, -769489.75, 68138.26, 0.0, 10.001512, 9.997659 
9.5003676e+1, 2.2452654e+2, -634947.3, -764350.44, -65327.02, 0.090132736, -0.011371157, -607703.7, 131935.3, 0.0, 10.000994, 9.999274 
9.500076e+1, 2.3452578e+2, -771952.44, -786136.06, -49717.62, 0.020628957, -0.05488966, -728823.4, -87178.39, 0.0, 9.999388, 9.999235 
9.499825e+1, 2.445253e+2, -776166.1, -714124.94, -31680.742, -0.03989165, -0.030881742, -700806.5, -157156.92, 0.0, 9.998588, 9.999442 
9.4996154e+1, 2.5452498e+2, -646883.3, -611254.4, -20606.08, -0.10845901, -0.043162834, -601829.8, -156175.39, 0.0, 9.998834, 9.999364 
9.4994736e+1, 2.645248e+2, -466699.2, -459212.56, -46276.023, -0.09667002, -0.0005304364, -416528.7, -68871.8, 0.0000000017799018, 9.99935, 9.999483 
9.4994336e+1, 2.745244e+2, -293756.4, -336245.78, -37663.293, 0.025074026, -0.020563032, -271759.22, -22099.693, 0.0000005677249, 9.999898, 9.999394 
9.4992584e+1, 2.845233e+2, -256714.9, -313986.66, -76231.97, 0.0365064, -0.039491218, -203917.83, -52247.87, 0.0000064583187, 9.999708, 9.99895 
9.4989145e+1, 2.945215e+2, -308288.44, -287146.53, -72372.68, -0.114832014, -0.15355434, -224576.86, -170887.64, 0.000029725905, 9.998658, 9.998973 
9.498686e+1, 3.0452383e+2, -199993.61, -82129.85, -38198.49, -0.22334693, 0.12683642, -70832.88, -70832.88, 0.0001135958, 9.998528, 10.00012 
9.498748e+1, 3.1452197e+2, -132915.11, 51589.215, 36631.84, -0.12049472, -0.098750204, 58596.07, 58596.07, 0.00032168903, 9.998462, 10.001077 
1.0501999e+2, 1.2453865e+2, -1422886.6, -1555816.0, 20285.371, 0.11167415, 0.056774776, -1419859.9, 299667.13, 0.0015480418, 10.001813, 10.000202 
1.05018266e+2, 1.3453825e+2, -1513171.5, -1661815.9, 26033.527, 0.054540675, 0.06833062, -1508743.9, 112781.11, 0.00087241904, 10.001083, 9.999154 
1.0501743e+2, 1.4453533e+2, -1436762.1, -1548667.3, 33289.76, 0.101494834, -0.14782777, -1427607.9, 95943.17, 0.0003471946, 10.000822, 9.999366 
1.0501568e+2, 1.5453562e+2, -1289234.3, -1464032.1, -666.4097, 0.064695925, -0.07472176, -1289231.6, 136318.03, 0.000073446034, 10.001313, 9.999047 
1.0501379e+2, 1.645359e+2, -1181825.5, -1327563.5, -17236.03, 0.044658713, 0.04075105, -1179814.9, 147732.38, 0.000004420773, 10.001254, 9.999321 
1.0501196e+2, 1.7453542e+2, -1193907.9, -1292566.9, -46966.902, 0.06326845, 0.028290037, -1175125.1, 54425.496, 0.000000050630582, 10.000539, 9.999237 
1.05010085e+2, 1.845343e+2, -1117656.8, -1227687.6, -6037.406, 0.05352779, 0.0054387175, -1117326.4, 14233.616, 0.0, 10.000478, 9.999045 
1.0500806e+2, 1.9453233e+2, -950837.2, -1104106.1, 4913.667, -0.0012338996, -0.12741797, -950679.8, 82897.016, 0.0, 10.000986, 9.998972 
1.0500685e+2, 2.045308e+2, -873658.56, -1086470.1, 69399.18, 0.012886149, -0.14205241, -853027.2, 82563.914, 0.0, 10.001144, 9.998348 
1.0500667e+2, 2.1452951e+2, -844803.94, -1033266.9, 112108.79, 0.120716766, -0.13403527, -792584.2, 45021.016, 0.0, 10.000715, 9.998249 
1.050047e+2, 2.2452883e+2, -722883.06, -863859.06, 78881.78, 0.11974848, -0.046029788, -687584.06, 52030.37, 0.0, 10.0006275, 9.998783 
1.05000675e+2, 2.3452878e+2, -584907.2, -755745.0, 9769.614, 0.0041035432, 0.038667582, -584350.3, 57268.91, 0.0, 10.000936, 9.998707 
1.0499776e+2, 2.4452823e+2, -461077.16, -558845.06, 43417.99, -0.047027305, 0.082864806, -444579.47, 99046.62, 0.0, 10.000743, 9.999471 
1.0499632e+2, 2.545269e+2, -489337.56, -525646.3, 41101.902, -0.020062214, -0.03481295, -462559.22, -16921.957, 0.0, 9.999894, 9.9994335 
1.0499478e+2, 2.645265e+2, -497169.38, -487372.56, 60459.68, -0.011418511, -0.010390342, -431613.2, -83972.61, 0.00000000014537505, 9.999215, 9.999349 
1.04993396e+2, 2.7452683e+2, -464229.9, -435228.66, 39250.008, 0.0039973073, 0.057182733, -407886.34, -158248.53, 0.00000042821608, 9.998816, 9.999232 
1.0499154e+2, 2.8452554e+2, -367167.25, -381930.72, 34622.773, 0.005543302, 0.031118408, -339148.06, -187497.16, 0.0000059800022, 9.998993, 9.99884 
1.0498914e+2, 2.9452258e+2, -162675.78, -236516.31, 36129.273, -0.022358263, -0.18729922, -147939.2, -94258.68, 0.000029321069, 9.999725, 9.998817 
1.0498685e+2, 3.045256e+2, -105779.87, -37902.39, 60879.26, -0.098011665, 0.17115435, -2140.8982, -2140.8982, 0.000109980174, 9.999192, 10.0001 
1.04985744e+2, 3.1452307e+2, -315133.22, -12062.535, 13237.46, -0.0580804, -0.12255563, -11485.45, -11485.45, 0.0003078243, 9.997112, 10.001288 
1.1502192e+2, 1.24538854e+2, -1454949.4, -1640129.6, -52781.633, 0.039801605, -0.16380416, -1440961.6, 278556.47, 0.0014882531, 10.001875, 9.999599 
1.15019195e+2, 1.345402e+2, -1518123.8, -1683508.6, 7045.255, -0.00041256167, 0.044785533, -1517824.1, 103679.68, 0.000840427, 10.001126, 9.998985 
1.1501803e+2, 1.4453837e+2, -1468409.3, -1598318.0, 32214.324, 0.03810775, -0.04170649, -1460859.6, 62662.707, 0.00033535642, 10.0007515, 9.999061 
1.1501592e+2, 1.5453824e+2, -1310542.5, -1507576.5, 36542.793, -0.08373792, 0.01988235, -1303983.5, 121542.414, 0.0000716502, 10.001321, 9.998738 
1.1501421e+2, 1.6453747e+2, -1211017.5, -1384330.0, -54981.074, -0.07678723, 0.06664643, -1195047.1, 132486.98, 0.0000041980056, 10.001228, 9.99895 
1.1501319e+2, 1.7453529e+2, -1219279.0, -1341366.1, -60220.098, 0.09464403, -0.08464127, -1194574.3, 34980.14, 0.000000024917117, 10.000523, 9.99891 
1.1501139e+2, 1.8453449e+2, -1091494.4, -1144277.6, -2651.0542, 0.1049985, -0.08670186, -1091361.5, 40199.203, 0.0, 10.000355, 9.99968 
1.15008526e+2, 1.9453515e+2, -912232.4, -1008158.5, 38601.117, -0.09183389, -0.023328023, -898628.4, 134923.45, 0.0, 10.000918, 9.999664 
1.1500688e+2, 2.045351e+2, -785752.6, -878675.6, 39832.227, -0.12947753, 0.0020828822, -771015.44, 164533.47, 0.0, 10.00103, 9.999832 
1.15006596e+2, 2.1453384e+2, -755862.0, -820092.06, 107529.06, 0.01106922, -0.14337154, -675754.56, 161801.83, 0.0, 10.000586, 9.999779 
1.1500465e+2, 2.2453302e+2, -825787.2, -1043363.75, 75529.58, 0.026125306, -0.09161518, -802138.3, -62571.3, 0.0, 10.000487, 9.997615 
1.1500074e+2, 2.3453256e+2, -694893.44, -953141.44, 36745.617, -0.11368816, 0.08015046, -689766.75, -48183.195, 0.0, 10.000795, 9.99742 
1.1499807e+2, 2.4453168e+2, -469419.88, -546488.0, -145.88966, -0.12165799, 0.15101509, -469419.6, 74176.65, 0.0, 10.000625, 9.999609 
1.1499701e+2, 2.5453007e+2, -494760.53, -504564.94, 19888.621, 0.026756577, -0.014468397, -479178.88, -33572.715, 0.0, 9.999758, 9.999643 
1.14994876e+2, 2.645297e+2, -517851.22, -514016.66, 32598.379, 0.046555344, 0.0115476465, -483279.22, -135671.77, 0.0, 9.999143, 9.9992075 
1.1499149e+2, 2.7453047e+2, -493119.06, -468127.63, 42756.94, -0.100452624, 0.14015056, -436077.88, -186475.75, 0.0000002594802, 9.99869, 9.999076 
1.1498949e+2, 2.8452912e+2, -360060.4, -345199.94, 49716.754, -0.13166964, 0.10223304, -302361.25, -150745.1, 0.000005001763, 9.998908, 9.999133 
1.1498918e+2, 2.945256e+2, -173400.69, -220760.5, 78551.0, -0.031256467, -0.20076291, -115037.94, -61387.492, 0.000026475647, 9.999568, 9.999003 
1.1498721e+2, 3.0452812e+2, -171398.81, -152437.52, -15220.073, -0.011870472, 0.14313027, -143986.81, -143986.81, 0.000100772006, 9.99912, 9.999341 
1.14983e+2, 3.145259e+2, -375612.28, -102010.86, -29542.535, -0.11617395, -0.050654445, -98857.305, -98857.305, 0.00028477798, 9.996971, 10.000736 
1.2502438e+2, 1.2454169e+2, -1537930.3, -1697795.8, -24212.781, 0.13508472, -0.13429675, -1534343.6, 185146.22, 0.0014562852, 10.00141, 9.9994135 
1.250203e+2, 1.3454276e+2, -1475804.0, -1667102.1, -5994.367, -0.0027950518, 0.050654642, -1475616.4, 145862.83, 0.0008261713, 10.001437, 9.998948 
1.250189e+2, 1.4454116e+2, -1409035.0, -1578297.9, 91881.484, 0.04188195, -0.009461617, -1368747.6, 154748.22, 0.00033346904, 10.001196, 9.998981 
1.2501757e+2, 1.5454069e+2, -1363361.1, -1542465.1, 77301.47, -0.025348376, 0.029659556, -1334612.4, 90889.51, 0.00007407354, 10.000999, 9.998649 
1.2501599e+2, 1.6453966e+2, -1250974.3, -1416595.6, 14980.366, -0.0032946316, 0.057123255, -1249630.3, 77882.41, 0.000004716059, 10.000993, 9.998856 
1.2501417e+2, 1.7453738e+2, -1148429.4, -1321784.8, 2299.6113, 0.12440325, -0.09262013, -1148398.9, 81135.516, 0.000000012759114, 10.001045, 9.99881 
1.2501213e+2, 1.8453659e+2, -992522.9, -1094713.0, 97134.42, 0.12209274, -0.08654462, -933864.56, 197676.33, 0.0, 10.001022, 9.999692 
1.2500985e+2, 1.9453761e+2, -924076.56, -1015446.06, 59115.496, -0.037596557, 0.0101397, -895050.25, 138479.06, 0.0, 10.000836, 9.999654 
1.2500809e+2, 2.0453778e+2, -843436.2, -865255.75, -7891.265, -0.0747488, 0.041834556, -840881.4, 94642.914, 0.0, 10.000466, 10.000188 
1.2500691e+2, 2.1453668e+2, -847964.6, -821787.4, -58120.473, 0.033731967, -0.12110471, -775300.0, 62229.44, 0.0, 9.999778, 10.000148 
1.2500489e+2, 2.2453597e+2, -905116.5, -1039898.06, -13902.646, 0.045702063, -0.09955719, -903697.4, -164159.44, 0.0, 9.999758, 9.997983 
1.2500189e+2, 2.3453556e+2, -707928.3, -913846.56, 46426.42, -0.05392131, 0.038848974, -697945.0, -56393.227, 0.0, 10.000527, 9.997805 
1.2499934e+2, 2.4453457e+2, -479118.56, -611633.25, 37735.598, -0.057757385, 0.10415994, -469126.25, 74438.89, 0.0, 10.00081, 9.999076 
1.249975e+2, 2.545327e+2, -424690.8, -540374.7, -30329.031, 0.07203469, -0.028618766, -417221.66, 28358.338, 0.0, 10.00052, 9.999041 
1.24994874e+2, 2.6453212e+2, -374436.3, -459024.38, -14775.368, 0.088001564, 0.01215374, -371929.72, -24344.846, 0.0, 10.000195, 9.999066 
1.2499137e+2, 2.7453268e+2, -330185.47, -399330.53, -30175.846, -0.029905101, 0.13300103, -318868.53, -69287.0, 0.00000012209664, 9.999873, 9.998961 
1.2498899e+2, 2.8453156e+2, -317934.88, -327469.9, 4349.441, -0.07602695, 0.12401045, -316248.97, -164655.03, 0.000003888246, 9.999223, 9.999096 
1.2498824e+2, 2.9452872e+2, -377067.6, -316440.28, -20683.572, 0.00034363463, -0.1080396, -310056.16, -256434.17, 0.00002250982, 9.998175, 9.999007 
1.24986425e+2, 3.045302e+2, -282931.38, -221886.08, -61412.016, 0.048793983, 0.13679218, -183829.8, -183829.8, 0.000088219014, 9.998371, 9.999256 
1.2498217e+2, 3.1452847e+2, 29469.068, 83374.5, -84933.59, -0.02002197, -0.0050845267, 145529.38, 145529.38, 0.00025421134, 9.9997835, 10.000666 
1.3502648e+2, 1.24547005e+2, -1535714.6, -1685287.3, -77047.58, 0.12856467, 0.12924859, -1503126.3, 216317.1, 0.0014504807, 10.001373, 9.999517 
1.35021e+2, 1.3454594e+2, -1458028.8, -1637191.8, 5503.675, -0.11639434, 0.0819695, -1457859.8, 163591.17, 0.0008289551, 10.001476, 9.999128 
1.3501954e+2, 1.4454378e+2, -1401742.9, -1572884.3, 65577.125, -0.057981443, -0.043378778, -1379505.0, 143965.53, 0.0003411424, 10.001222, 9.999012 
1.3502024e+2, 1.5454297e+2, -1363027.0, -1538639.0, 83849.79, 0.106198765, -0.044661514, -1329421.9, 96056.19, 0.00008049032, 10.000976, 9.9986925 
1.3501862e+2, 1.6454239e+2, -1254721.4, -1391762.6, 651.85565, 0.13035879, 0.017156534, -1254718.3, 72765.086, 0.0000062176173, 10.000866, 9.999081 
1.3501428e+2, 1.7454162e+2, -1141871.3, -1293704.3, 21462.541, -0.004381982, -0.0007114208, -1138895.8, 90594.92, 0.000000017143847, 10.000999, 9.999017 
1.3501178e+2, 1.8454076e+2, -1045304.0, -1194352.1, 77673.766, -0.053945955, 0.016268918, -1012184.9, 119314.01, 0.0, 10.000963, 9.999042 
1.3501145e+2, 1.9453968e+2, -981928.6, -1119715.8, 68221.35, -0.00017637081, -0.03154351, -953866.1, 79643.11, 0.0, 10.000761, 9.998976 
1.3501e+2, 2.0453887e+2, -916730.0, -992359.8, -48590.26, 0.039471135, -0.024424229, -892974.0, 42543.184, 0.0, 10.000352, 9.999375 
1.3500713e+2, 2.1453805e+2, -925283.5, -949714.4, -68133.65, 0.04262132, -0.07803542, -868278.94, -30754.066, 0.0, 9.999634, 9.999341 
1.3500495e+2, 2.2453769e+2, -790668.4, -776531.75, -1966.1576, 0.04505339, -0.06706718, -776263.44, -36736.38, 0.0, 9.999637, 9.999851 
1.350036e+2, 2.3453766e+2, -585822.94, -630487.94, 89926.33, 0.030817257, -0.09308843, -515497.56, 126027.055, 0.0, 10.000391, 9.999816 
1.3500111e+2, 2.4453679e+2, -577326.6, -792465.3, 15832.756, 0.008205092, -0.06541121, -576167.7, -32633.78, 0.0, 10.00071, 9.997882 
1.3499735e+2, 2.5453472e+2, -540270.06, -747265.94, -24995.033, -0.026520625, -0.081921324, -537294.6, -91735.66, 0.0, 10.000378, 9.997686 
1.349944e+2, 2.6453364e+2, -400139.6, -492637.88, -40498.688, -0.011486583, -0.009699827, -384914.13, -37341.07, 0.0, 10.0001135, 9.998872 
1.3499247e+2, 2.7453336e+2, -358373.4, -424887.16, -28594.314, 0.057416093, 0.034749813, -347770.78, -98193.51, 0.000000046518082, 9.999736, 9.998848 
1.3498965e+2, 2.8453273e+2, -343039.88, -373588.5, -47106.688, 0.032674614, 0.09300242, -308793.03, -157207.56, 0.0000029362805, 9.99919, 9.9987955 
1.3498586e+2, 2.9453173e+2, -408440.75, -361077.2, -43367.36, -0.09610537, 0.07389654, -335346.88, -281749.34, 0.000019015239, 9.998074, 9.998754 
1.3498397e+2, 3.0453175e+2, -247151.56, -124626.49, -21514.182, -0.05915767, 0.14834255, -120958.62, -120958.62, 0.000075927965, 9.998289, 9.999954 
1.3498236e+2, 3.145306e+2, 33244.145, 125486.81, 10519.277, -0.052105054, 0.004332933, 126671.21, 126671.21, 0.0002226974, 9.999642, 10.00102 
1.4502731e+2, 1.2454933e+2, -1777379.3, -1776441.0, -58055.508, 0.1822869, 0.15811905, -1718852.8, 570.7175, 0.0014659849, 9.999616, 9.999739 
1.4502256e+2, 1.3454822e+2, -1498273.1, -1638964.0, -37303.637, -0.078559555, 0.08959439, -1488994.3, 132436.97, 0.0008466132, 10.00113, 9.999275 
1.4502145e+2, 1.445465e+2, -1368157.8, -1545757.6, 10850.852, 0.010158153, -0.004041754, -1367497.3, 155948.23, 0.00035647568, 10.001402, 9.999115 
1.4502138e+2, 1.545453e+2, -1447078.0, -1564158.4, 2686.0024, 0.16425835, -0.05321463, -1447016.4, -21561.414, 0.00008921642, 10.00033, 9.998832 
1.4501947e+2, 1.6454464e+2, -1359410.5, -1442739.8, -9495.129, 0.1776956, -0.009016832, -1358342.3, -30881.44, 0.000008328298, 10.000151, 9.99907 
1.4501564e+2, 1.7454423e+2, -1142047.3, -1295975.8, -36622.973, 0.03914761, 0.008005196, -1133778.0, 95687.625, 0.0000000715251, 10.001004, 9.998997 
1.4501303e+2, 1.8454352e+2, -1031448.5, -1178639.9, 21854.24, -0.019344963, 0.03656091, -1028272.25, 103200.54, 0.0, 10.001025, 9.99913 
1.450118e+2, 1.945422e+2, -1087206.0, -1164856.0, 37997.742, 0.006889282, -0.03781373, -1071706.0, -38221.516, 0.0, 10.000004, 9.99905 
1.450102e+2, 2.0454127e+2, -1001812.5, -1076165.9, 24200.482, 0.052295458, -0.027390523, -994629.7, -59135.13, 0.0, 9.999953, 9.998988 
1.4500812e+2, 2.1454057e+2, -757597.75, -915636.44, 4799.329, 0.120943464, -0.029098896, -757452.1, 80052.2, 0.0, 10.000993, 9.998917 
1.45006e+2, 2.2454028e+2, -553057.3, -612644.5, 50840.313, 0.12200608, -0.010079552, -523923.84, 215582.31, 0.0, 10.00107, 10.000285 
1.4500386e+2, 2.3454021e+2, -608440.9, -592782.5, -6330.201, 0.04562623, -0.083384514, -590543.56, 50957.227, 0.0, 10.000026, 10.0002575 
1.450012e+2, 2.4453945e+2, -731314.44, -853846.25, -61721.973, 0.009356272, -0.07121898, -705614.2, -162106.73, 0.0, 9.999595, 9.998002 
1.4499794e+2, 2.545377e+2, -598561.6, -761383.25, -21614.541, 0.027258899, -0.068323545, -595741.2, -150210.83, 0.0, 9.999922, 9.997808 
1.4499499e+2, 2.6453647e+2, -428998.28, -530102.5, 39508.902, 0.050701376, -0.0064039147, -415390.66, -67844.47, 0.0, 10.000009, 9.998674 
1.4499241e+2, 2.7453563e+2, -359052.6, -454080.2, 15577.483, 0.08442567, 0.0062312414, -356564.22, -107008.13, 0.00000002138944, 9.999836, 9.998619 
1.4498913e+2, 2.845349e+2, -259045.63, -335092.8, 24198.463, 0.04248909, 0.07029419, -251998.61, -100433.96, 0.0000023054517, 9.999766, 9.998785 
1.4498515e+2, 2.9453447e+2, -135943.83, -217578.63, 14986.952, -0.055714972, 0.10571975, -133279.4, -79709.17, 0.000016570593, 9.999898, 9.998851 
1.4498337e+2, 3.0453387e+2, -96438.88, -66796.55, 70593.34, 0.009065724, 0.115873344, -9485.284, -9485.284, 0.0000664134, 9.999412, 9.999798 
1.449816e+2, 3.1453314e+2, -238218.19, -36818.035, -13324.422, 0.010197327, 0.037054088, -35940.332, -35940.332, 0.0001967113, 9.99793, 10.000727 
1.5502611e+2, 1.24549106e+2, -1743755.0, -1735043.6, -45315.977, 0.017924136, -0.0077681695, -1693874.4, 25551.455, 0.0014879738, 9.999717, 9.999988 
1.5502456e+2, 1.3454968e+2, -1492792.3, -1632770.0, 26400.05, -0.030102827, 0.08984095, -1487978.8, 133440.25, 0.0008684092, 10.0011425, 9.999322 
1.5502405e+2, 1.445493e+2, -1355529.0, -1504997.3, -44101.66, 0.08997039, 0.11494692, -1343486.6, 179933.97, 0.00037251608, 10.001348, 9.999415 
1.5502037e+2, 1.5454784e+2, -1431711.5, -1519061.5, -22085.361, -0.009334296, 0.004629721, -1426445.0, -1013.0517, 0.00009664872, 10.000286, 9.999154 
1.550182e+2, 1.645466e+2, -1386259.8, -1485460.3, 5419.912, -0.0017604346, -0.012202214, -1385964.5, -58521.227, 0.000009881803, 10.00009, 9.998814 
1.5501787e+2, 1.7454535e+2, -1172515.5, -1342004.0, 12050.295, 0.12835146, -0.049730815, -1171663.1, 57794.86, 0.00000020107916, 10.00093, 9.99872 
1.5501544e+2, 1.8454488e+2, -990461.3, -1074107.6, -27997.234, 0.08930107, -0.016329352, -981955.4, 149506.56, 0.0, 10.000938, 9.999891 
1.5501043e+2, 1.9454513e+2, -1044530.75, -1053480.3, 15992.078, -0.15995239, -0.01602489, -1032399.2, 1056.0813, 0.0, 9.999914, 9.999854 
1.550083e+2, 2.04545e+2, -1016806.0, -1083031.3, 47547.94, -0.16577029, 0.034698434, -991976.8, -56520.7, 0.0, 9.999841, 9.9990015 
1.550094e+2, 2.1454428e+2, -779799.94, -926516.94, 58537.676, 0.11663651, 0.0320872, -759306.8, 78160.695, 0.0, 10.000842, 9.998916 
1.5500759e+2, 2.2454375e+2, -648630.0, -785580.9, 1128.2728, 0.1432886, 0.07930851, -648620.7, 90854.375, 0.0, 10.00095, 9.999159 
1.5500231e+2, 2.3454317e+2, -710005.75, -775315.7, -30552.373, -0.14323448, 0.072346784, -697941.6, -56461.05, 0.0, 9.999894, 9.999071 
1.5499918e+2, 2.4454252e+2, -642837.4, -648129.06, -66276.17, -0.1827801, 0.08734431, -579154.25, -35668.11, 0.0, 9.999498, 9.99946 
1.5499876e+2, 2.5454152e+2, -509361.1, -544718.7, 7383.6416, 0.0844671, 0.0061989827, -507881.16, -62386.418, 0.0, 9.999778, 9.99937 
1.5499616e+2, 2.6454058e+2, -456376.13, -567216.9, 20870.826, 0.1342643, 0.025942676, -452576.5, -105072.2, 0.0, 9.999928, 9.998454 
1.5499079e+2, 2.7453944e+2, -405741.47, -520355.4, 26783.135, -0.091800496, 0.037597615, -399791.63, -150273.08, 0.000000019825112, 9.9997015, 9.998228 
1.5498705e+2, 2.845381e+2, -247915.27, -301250.4, 17140.463, -0.17707154, 0.04990291, -242881.83, -91349.79, 0.0000019865888, 9.999717, 9.9990425 
1.5498562e+2, 2.9453683e+2, -123610.35, -170031.98, 37883.305, -0.04338762, -0.026220487, -102392.72, -48851.008, 0.000014949104, 9.999794, 9.999233 
1.5498416e+2, 3.0453655e+2, -179496.03, -214769.08, 7880.1665, 0.11805456, 0.041304, -177815.61, -177815.61, 0.000059797247, 9.999333, 9.998801 
1.5497889e+2, 3.1453598e+2, -335685.5, -189839.52, -25554.494, -0.11935113, 0.087091215, -185491.6, -185491.6, 0.00017773658, 9.997744, 9.999747 
1.6502662e+2, 1.24551326e+2, -1466575.5, -1598870.1, 98950.39, 0.017801307, -0.045699507, -1413699.1, 305702.1, 0.0014964563, 10.0016165, 9.999996 
1.6502564e+2, 1.345516e+2, -1522905.4, -1685048.9, 90688.664, -0.02080709, 0.04745384, -1482334.0, 139064.95, 0.0008776996, 10.0010805, 9.998999 
1.6502552e+2, 1.4455132e+2, -1440473.3, -1535719.0, 1424.5969, 0.14181003, 0.09664761, -1440452.0, 82948.914, 0.00037921302, 10.000744, 9.999487 
1.6502129e+2, 1.5455034e+2, -1318500.6, -1456141.9, -28948.588, 0.028329138, 0.027355282, -1312660.0, 112748.18, 0.00009882513, 10.001032, 9.999227 
1.6501886e+2, 1.6454926e+2, -1267966.9, -1426042.9, 47431.047, 0.025830757, 0.022412175, -1254827.3, 72591.45, 0.000009884257, 10.000886, 9.998834 
1.650185e+2, 1.745479e+2, -1284096.0, -1392955.0, 46390.95, 0.14661598, -0.031441454, -1267008.5, -37573.563, 0.0000002904704, 10.00014, 9.99875 
1.6501608e+2, 1.8454733e+2, -1106578.9, -1121187.4, 21555.717, 0.10970673, -0.012461287, -1091123.5, 40316.313, 0.0, 10.000118, 9.999942 
1.6501123e+2, 1.9454753e+2, -887301.25, -968015.8, -18445.46, -0.11529462, -0.026741503, -883285.75, 150147.39, 0.0, 10.00096, 9.999916 
1.6500892e+2, 2.0454754e+2, -867106.7, -997427.3, 15791.731, -0.12880468, 0.027419994, -865220.4, 70211.84, 0.0, 10.000832, 9.999107 
1.6500951e+2, 2.1454719e+2, -958097.3, -1000954.6, 5933.808, 0.11695525, 0.051504567, -957290.94, -119851.44, 0.0, 9.999572, 9.999018 
1.6500749e+2, 2.2454655e+2, -939336.1, -965952.1, 3437.2747, 0.13733396, 0.10369856, -938899.44, -199450.88, 0.0, 9.999128, 9.998799 
1.6500223e+2, 2.3454553e+2, -774946.9, -844699.5, 2705.5098, -0.11743427, 0.08950554, -774842.1, -133381.42, 0.0, 9.999621, 9.998723 
1.6499908e+2, 2.4454501e+2, -565773.2, -545525.75, 7137.5864, -0.14580216, 0.109402664, -543262.6, 202.78008, 0.0, 9.999753, 10.000039 
1.649986e+2, 2.5454497e+2, -504101.5, -465360.38, -22769.324, 0.114923276, 0.062170204, -454836.78, -9374.261, 0.0, 9.999498, 10.000039 
1.6499591e+2, 2.645445e+2, -501710.84, -581331.7, -1404.9379, 0.14524879, 0.086057976, -501686.06, -154219.63, 0.0, 9.99956, 9.998541 
1.649905e+2, 2.74543e+2, -348824.13, -476635.0, 3808.0056, -0.09805784, 0.05475465, -348710.78, -99227.8, 0.000000024295247, 10.000023, 9.99836 
1.6498673e+2, 2.845413e+2, -222033.47, -295239.88, 22320.547, -0.17983553, 0.02878267, -215764.75, -64265.063, 0.0000019697127, 9.999933, 9.99898 
1.6498567e+2, 2.9453987e+2, -192683.88, -202808.0, -16271.264, 0.016545743, -0.061558302, -180705.44, -127193.45, 0.000013995548, 9.999315, 9.999246 
1.6498405e+2, 3.0454037e+2, -253928.75, -265107.56, -18658.643, 0.21354426, 0.088488184, -240040.31, -240040.31, 0.000055183133, 9.998836, 9.998716 
1.6497745e+2, 3.1453857e+2, -206533.95, -101971.1, -10029.827, -0.054128356, 0.02114899, -101017.72, -101017.72, 0.00016346599, 9.998467, 10.00002 
1.7502786e+2, 1.2455601e+2, -1485409.5, -1634831.5, 39918.79, -0.095913425, 0.0435598, -1475413.8, 243935.45, 0.0014785845, 10.0016, 9.999752 
1.7502524e+2, 1.3455407e+2, -1576787.5, -1780924.8, 77910.96, -0.20470852, -0.028947623, -1550450.0, 70919.91, 0.00086354057, 10.001031, 9.99835 
1.7502543e+2, 1.4455266e+2, -1462323.8, -1574858.0, -6360.885, 0.018806577, -0.045152508, -1461965.4, 61419.57, 0.00037008742, 10.000701, 9.999247 
1.7502369e+2, 1.5455283e+2, -1333087.1, -1481279.4, -1136.5449, 0.12756267, 0.016168823, -1333078.4, 92305.46, 0.000094032526, 10.001008, 9.999065 
1.75021e+2, 1.6455269e+2, -1248738.6, -1380256.8, 6351.456, 0.116206184, 0.098185256, -1248432.6, 78953.77, 0.000008393363, 10.000848, 9.999173 
1.7501704e+2, 1.7455192e+2, -1265383.1, -1343147.9, 33140.164, -0.04739884, 0.07145857, -1253176.3, -23780.287, 0.00000020811186, 10.000094, 9.999114 
1.7501453e+2, 1.8455099e+2, -1159512.3, -1216155.5, 37927.29, -0.09159323, 0.060526025, -1140499.0, -9093.61, 0.0, 10.000045, 9.9993305 
1.7501368e+2, 1.9454955e+2, -948601.56, -1068121.3, 27762.885, -0.0018062694, -0.0525824, -942467.44, 90949.47, 0.0, 10.000845, 9.999286 
1.7501158e+2, 2.0454894e+2, -873515.1, -984585.5, -45551.586, 0.026723327, -0.03369084, -857223.44, 78198.53, 0.0, 10.0007105, 9.999256 
1.7500803e+2, 2.1454912e+2, -966846.25, -987623.44, -27194.623, -0.017974455, 0.026273908, -948123.5, -110702.055, 0.0, 9.999437, 9.999173 
1.7500521e+2, 2.2454867e+2, -924951.8, -908696.44, 4636.067, -0.030492332, 0.0646942, -907467.2, -168040.25, 0.0, 9.999005, 9.999251 
1.7500316e+2, 2.3454718e+2, -762797.8, -788313.44, 35467.5, -0.016686939, -0.040993944, -737863.4, -96421.35, 0.0, 9.999481, 9.999179 
1.7500046e+2, 2.4454692e+2, -604537.0, -604866.06, -15202.5, -0.012171051, -0.0043213083, -589498.1, -46053.113, 0.0, 9.999662, 9.999673 
1.7499708e+2, 2.54548e+2, -556444.25, -539477.9, -19023.107, -0.01986506, 0.1016738, -527132.2, -81697.8, 0.0, 9.9993515, 9.9996 
1.7499405e+2, 2.645481e+2, -469011.75, -508398.25, -354.50455, -0.030303957, 0.17910717, -469008.56, -121575.16, 0.0, 9.999528, 9.999059 
1.749911e+2, 2.7454636e+2, -321436.13, -400321.8, 34531.273, -0.0750605, 0.066711076, -308456.22, -59006.742, 0.000000035492793, 9.999929, 9.998935 
1.7498772e+2, 2.8454465e+2, -251032.27, -348666.97, -14721.523, -0.10898677, 0.023918372, -248860.83, -97393.76, 0.0000021240596, 9.999908, 9.998618 
1.7498456e+2, 2.945435e+2, -240414.14, -270785.75, -23221.453, -0.06266587, 0.007244024, -227853.86, -174373.08, 0.000013429294, 9.999196, 9.998826 
1.7498265e+2, 3.0454528e+2, -190240.17, -128086.43, -42954.89, 0.15963855, 0.25535375, -106145.43, -106145.43, 0.000050919698, 9.998813, 9.999671 
1.7497642e+2, 3.145413e+2, -110801.51, 134577.42, 62001.0, -0.074667744, -0.12627707, 149353.7, 149353.7, 0.00014908816, 9.998336, 10.001694 
1.8502943e+2, 1.24558344e+2, -1740456.6, -1760553.6, -23846.791, 0.0013115505, 0.042041577, -1724627.6, -5302.7397, 0.0014297328, 9.999854, 9.99973 
1.8502624e+2, 1.3455641e+2, -1596552.3, -1805478.1, -14266.777, -0.19101515, -0.014548846, -1595582.5, 25763.9, 0.00082590414, 10.000961, 9.998213 
1.8502636e+2, 1.445546e+2, -1401942.6, -1530745.3, -42541.895, 0.035876043, -0.07131909, -1389160.1, 134205.9, 0.00034715154, 10.001038, 9.999384 
1.8502441e+2, 1.545551e+2, -1445731.3, -1516390.3, -42681.027, 0.15237054, 0.005746461, -1425654.6, -292.58984, 0.0000844504, 10.000134, 9.999249 
1.8502145e+2, 1.6455546e+2, -1384292.0, -1391292.3, 14456.05, 0.14031252, 0.10409648, -1372918.4, -45559.23, 0.000006352812, 9.999718, 9.999624 
1.8501723e+2, 1.7455527e+2, -1247400.4, -1283714.5, 21734.426, -0.027138777, 0.08696948, -1237236.6, -7875.2505, 0.000000056960435, 10.000013, 9.999552 
1.8501493e+2, 1.845545e+2, -1166101.5, -1246812.4, 90319.55, -0.050963372, 0.08348248, -1107531.8, 23837.555, 0.0, 10.000132, 9.999075 
1.8501484e+2, 1.9455293e+2, -1099215.3, -1172287.9, 78554.836, 0.08357007, -0.014101027, -1049115.8, -15730.529, 0.0, 9.999952, 9.999003 
1.8501261e+2, 2.0455213e+2, -962704.1, -1024212.4, 17717.174, 0.09820603, -0.0038043486, -957965.75, -22572.58, 0.0, 10.00007, 9.999295 
1.8500775e+2, 2.1455203e+2, -805043.4, -904405.5, -908.4182, -0.033611692, 0.023089085, -805035.06, 32358.6, 0.0, 10.000505, 9.999235 
1.8500462e+2, 2.2455151e+2, -705339.0, -779547.94, 55266.035, -0.054500524, 0.04262737, -675877.1, 63521.1, 0.0, 10.000419, 9.999457 
1.850034e+2, 2.3455027e+2, -714709.8, -742576.7, 39328.418, 0.05640605, -0.06138791, -686919.56, -45509.59, 0.0, 9.999715, 9.99938 
1.850008e+2, 2.4454984e+2, -645965.4, -668500.5, 14024.562, 0.06834859, -0.031622924, -639242.75, -95828.12, 0.0, 9.999559, 9.999288 
1.8499668e+2, 2.545503e+2, -484610.44, -549271.75, -15517.832, -0.019887246, 0.05117213, -481079.22, -35667.574, 0.0, 10.000022, 9.999212 
1.8499352e+2, 2.6455042e+2, -410561.03, -435649.6, 11071.233, -0.04166318, 0.13497747, -406374.16, -58963.477, 0.0, 9.999769, 9.999434 
1.849912e+2, 2.7454954e+2, -451598.06, -414809.22, 4110.761, 0.005263787, 0.07035176, -414355.47, -164938.19, 0.000000044067633, 9.998847, 9.999355 
1.8498784e+2, 2.84548e+2, -403103.38, -422323.2, 811.0342, -0.02681432, 0.02110744, -403069.22, -251636.02, 0.000002141611, 9.9988365, 9.998641 
1.8498385e+2, 2.9454634e+2, -161320.38, -237209.08, -13522.766, -0.07048475, -0.04770852, -158982.73, -105529.3, 0.000012353572, 9.999731, 9.998813 
1.849817e+2, 3.0454907e+2, -49321.613, -30954.31, -36906.28, 0.15380646, 0.2872281, -2106.2256, -2106.2256, 0.00004451732, 9.999646, 9.999938 
1.849757e+2, 3.1454512e+2, -51268.77, 173443.86, 6207.149, 0.017535193, -0.11590762, 173615.19, 173615.19, 0.00012893318, 9.998636, 10.001851 
1.9503047e+2, 1.2455851e+2, -1740571.5, -1739871.9, -22983.715, 0.042589333, -0.024771921, -1717235.4, 2090.9968, 0.0013506947, 9.99978, 9.999905 
1.9502826e+2, 1.3455863e+2, -1582714.4, -1761369.4, 34984.33, -0.11890197, 0.092817254, -1576108.0, 45220.133, 0.00077082973, 10.0009165, 9.99853 
1.9502781e+2, 1.4455712e+2, -1368410.1, -1448752.5, -91350.69, 0.034291733, 0.021470238, -1308788.1, 214556.25, 0.0003170448, 10.000978, 9.999979 
1.9502303e+2, 1.5455736e+2, -1408853.1, -1430378.1, -63988.54, -0.03704549, 0.009677242, -1354728.4, 70612.82, 0.000073711046, 10.000096, 9.999858 
1.9501978e+2, 1.6455778e+2, -1351752.4, -1316569.6, 11562.075, -0.03140656, 0.057300884, -1313110.1, 14225.146, 0.0000047225935, 9.999671, 10.000169 
1.9501862e+2, 1.7455798e+2, -1215630.3, -1205996.8, 49751.99, 0.074521594, 0.022698177, -1160828.9, 68501.836, 0.0000000036456946, 9.999958, 10.000116 
1.9501689e+2, 1.8455796e+2, -1172709.9, -1241399.5, 70108.21, 0.09956215, 0.062194757, -1128985.9, 2345.4658, 0.0, 10.000043, 9.999162 
1.9501437e+2, 1.9455762e+2, -1109994.1, -1173009.9, 86088.19, 0.00944789, 0.083249815, -1049829.0, -16490.11, 0.0, 9.999854, 9.999051 
1.9501153e+2, 2.0455706e+2, -986602.7, -1037126.6, 21622.613, -0.044981953, 0.1187485, -978612.56, -43266.56, 0.0, 9.999917, 9.999275 
1.9500831e+2, 2.1455595e+2, -827721.4, -916482.7, 29727.318, -0.060581066, 0.045783825, -818685.2, 18670.389, 0.0, 10.000356, 9.999224 
1.9500528e+2, 2.2455524e+2, -735767.7, -805385.1, 15809.044, -0.056130193, 0.049607527, -732345.9, 7015.462, 0.0, 10.000266, 9.999351 
1.950025e+2, 2.345548e+2, -745326.7, -765844.06, 26272.61, -0.03376399, 0.03721775, -727380.94, -86016.625, 0.0, 9.99955, 9.999295 
1.9499974e+2, 2.4455379e+2, -687310.94, -727812.44, 16227.649, -0.022270132, 0.029051797, -681611.2, -138237.03, 0.0, 9.999445, 9.998936 
1.9499694e+2, 2.5455195e+2, -533120.06, -612923.8, 15407.186, -0.027912924, -0.08245217, -530248.8, -84855.414, 0.0, 9.999866, 9.998849 
1.9499387e+2, 2.6455164e+2, -405908.5, -415241.56, -36281.29, -0.013795207, -0.030152818, -373994.88, -26598.277, 0.0, 9.999716, 9.999606 
1.9499035e+2, 2.745525e+2, -453163.97, -400036.9, -12206.216, 0.004099204, 0.062625885, -397366.7, -147979.94, 0.000000036761158, 9.99876, 9.999507 
1.9498672e+2, 2.845512e+2, -386907.0, -373931.84, 20340.639, -0.054744992, 0.014862264, -359069.25, -207669.78, 0.0000018181237, 9.998776, 9.9990015 
1.9498317e+2, 2.945483e+2, -155891.66, -191095.05, 35516.887, -0.15146385, -0.21673258, -133854.13, -80424.58, 0.000010151812, 9.999591, 9.999193 
1.9498082e+2, 3.045518e+2, -84032.74, -89336.16, -86238.2, 0.06686068, 0.19420107, -405.4892, -405.4892, 0.00003534469, 9.999602, 9.99955 
1.9497442e+2, 3.1455034e+2, -147318.98, 17275.021, 54970.24, -0.039591484, 0.075316444, 33945.305, 33945.305, 0.000103030594, 9.998487, 10.000828 
2.0503159e+2, 1.2455994e+2, -1563460.4, -1615847.0, 101081.84, 0.14062265, -0.065032594, -1485233.3, 234079.58, 0.0012481128, 10.000845, 10.000244 
2.0502904e+2, 1.3456112e+2, -1683102.1, -1734044.4, 118638.98, -0.06678007, 0.090522155, -1587230.9, 34071.21, 0.0007037624, 9.999885, 9.999235 
2.0502846e+2, 1.4455973e+2, -1578037.9, -1524175.3, 25048.65, 0.0886059, -0.013728397, -1514327.1, 8988.705, 0.00028324383, 9.999444, 10.000199 
2.0502268e+2, 1.5456025e+2, -1407798.4, -1407779.1, -18257.746, -0.067383245, -0.012836028, -1389531.0, 35778.563, 0.000063005726, 10.000017, 10.000049 
2.0501938e+2, 1.6456042e+2, -1257280.9, -1308156.8, 52806.76, -0.07115446, 0.01435723, -1224104.5, 103201.86, 0.0000035155435, 10.000483, 9.999839 
2.0501924e+2, 1.7455968e+2, -1135433.1, -1210670.1, -8745.545, 0.11480602, -0.072705574, -1134430.0, 94881.4, 0.0000000004928599, 10.000691, 9.999739 
2.050176e+2, 1.8455967e+2, -1117827.3, -1189181.3, -21246.602, 0.15969564, -0.023608066, -1111980.0, 19332.348, 0.0, 10.000305, 9.999391 
2.0501398e+2, 1.945605e+2, -1183410.3, -1182030.8, -21502.236, 0.025736632, 0.08760068, -1161207.3, -127898.125, 0.0, 9.9992285, 9.999289 
2.0501095e+2, 2.0456041e+2, -1094400.0, -1072824.9, 5770.827, -0.044706356, 0.14823298, -1071378.3, -136066.58, 0.0, 9.999107, 9.999421 
2.0500873e+2, 2.1455896e+2, -865659.94, -917626.6, 2778.243, -0.02840267, 0.028642505, -865511.8, -28188.105, 0.0, 10.00003, 9.999371 
2.0500585e+2, 2.2455816e+2, -737764.2, -836666.56, -26401.658, -0.023525603, 0.030785717, -731157.7, 8172.9414, 0.0, 10.000374, 9.999084 
2.0500226e+2, 2.3455791e+2, -701599.1, -780483.1, -59743.047, -0.026791286, 0.06475668, -669452.7, -28118.988, 0.0, 9.999988, 9.99899 
2.049992e+2, 2.4455692e+2, -640527.56, -675420.2, -7047.7803, -0.023703584, 0.061097313, -639157.8, -95814.18, 0.0, 9.999643, 9.999196 
2.0499669e+2, 2.5455493e+2, -579847.5, -603768.1, 12968.693, -0.007362164, -0.09337171, -574165.94, -128803.266, 0.0, 9.999419, 9.999125 
2.0499367e+2, 2.645546e+2, -438546.3, -449166.38, -8461.609, 0.012072478, -0.04785853, -433866.6, -86500.82, 0.0, 9.999563, 9.999446 
2.0498995e+2, 2.7455565e+2, -271170.03, -330789.06, -44616.9, 0.030151213, 0.078947365, -247320.67, 2035.2273, 0.00000002096579, 10.000092, 9.999334 
2.0498617e+2, 2.845543e+2, -193124.17, -253895.77, 13594.294, -0.037192594, 0.022833647, -190221.8, -38852.664, 0.0000012828043, 10.000013, 9.999224 
2.0498247e+2, 2.9455107e+2, -173481.53, -168841.28, -8874.532, -0.15628357, -0.2627701, -161988.61, -108589.33, 0.000007381431, 9.999347, 9.99946 
2.0497973e+2, 3.0455476e+2, -144171.17, -159007.89, -113898.016, 0.024447495, 0.16309991, -37450.18, -37450.18, 0.00002618385, 9.999365, 9.999198 
2.0497446e+2, 3.1455332e+2, 18256.541, 4463.6265, 4907.157, 0.050921876, 0.09100712, 19824.203, 19824.203, 0.000078949044, 10.000054, 9.999981 
2.1503174e+2, 1.2456256e+2, -1537741.3, -1551199.9, 35128.31, -0.0015179693, -0.08031894, -1508703.5, 210581.42, 0.0011286415, 10.000787, 10.000721 
2.1502823e+2, 1.3456394e+2, -1596441.5, -1566200.1, 94805.58, -0.1712664, -0.018280812, -1485317.0, 135950.19, 0.00062779407, 9.999927, 10.000369 
2.150279e+2, 1.445626e+2, -1601401.6, -1567104.5, 25423.207, 0.045213215, -0.16171841, -1553586.9, -30308.537, 0.00024660726, 9.999415, 9.999917 
2.1502297e+2, 1.5456392e+2, -1427883.6, -1454311.4, 19210.844, -0.07923378, -0.052500404, -1417780.9, 7485.1016, 0.000052325075, 10.0000305, 9.999723 
2.1501973e+2, 1.645634e+2, -1357522.0, -1500105.1, 47438.25, -0.11484342, -0.015490193, -1343181.4, -15909.06, 0.000002586899, 10.000413, 9.998552 
2.1501869e+2, 1.7456034e+2, -1237049.9, -1404121.1, 14762.293, -0.041677523, -0.20795493, -1235755.5, -6451.674, 0.000000000052014764, 10.000623, 9.998437 
2.1501659e+2, 1.8455963e+2, -1109823.9, -1150337.1, -72238.07, -0.0016494159, -0.17622249, -1055056.0, 76256.53, 0.0, 10.000201, 9.99971 
2.1501328e+2, 1.9456151e+2, -1160652.6, -1122782.0, -46318.39, -0.0022567497, -0.002621269, -1091677.9, -58381.598, 0.0, 9.999168, 9.999725 
2.1501054e+2, 2.045621e+2, -1086985.4, -1031592.44, 23323.371, -0.025866902, 0.087525785, -1023080.2, -87789.69, 0.0, 9.998996, 9.999758 
2.150086e+2, 2.1456094e+2, -861561.25, -877167.9, 49440.93, -0.07534012, -0.036781453, -819311.6, 17987.336, 0.0, 9.99989, 9.999715 
2.1500587e+2, 2.2456019e+2, -792984.8, -910781.06, -52266.62, -0.08410225, -0.028867764, -773137.9, -33830.63, 0.0, 10.000206, 9.9986515 
2.1500225e+2, 2.3455966e+2, -760741.2, -858904.0, -58588.11, -0.055435292, 0.02258773, -733392.56, -92074.91, 0.0, 9.999803, 9.998535 
2.1499878e+2, 2.4455935e+2, -597708.56, -564811.4, -29760.693, -0.058004215, 0.072906286, -547256.2, -3934.28, 0.0, 9.999547, 10.000005 
2.1499555e+2, 2.5455925e+2, -538375.8, -484800.25, 20138.117, -0.09611856, 0.021393424, -478074.9, -32755.533, 0.0, 9.999278, 10.0000105 
2.1499252e+2, 2.645593e+2, -485966.63, -527828.06, -3482.0156, -0.09109888, 0.08387331, -485678.97, -138360.77, 0.0, 9.999479, 9.998941 
2.1498951e+2, 2.7455893e+2, -332573.38, -426638.38, -9246.351, -0.05590642, 0.12244437, -331673.1, -82347.664, 0.00000000626477, 9.999954, 9.99874 
2.1498582e+2, 2.8455716e+2, -184060.95, -226284.63, -24620.719, -0.10822467, 0.046335936, -172739.94, -21397.04, 0.00000075455597, 9.999977, 9.99943 
2.149815e+2, 2.9455474e+2, -175335.28, -154509.05, -18968.953, -0.2285202, -0.18135835, -143282.98, -89920.74, 0.0000049684672, 9.999269, 9.999598 
2.1497819e+2, 3.0455783e+2, -175567.92, -226430.19, -101817.86, -0.09582203, 0.20584045, -96053.26, -96053.26, 0.000019575336, 9.999368, 9.998738 
2.1497503e+2, 3.1455398e+2, -59855.703, -137549.77, 98148.87, 0.034100976, -0.06065146, 6854.322, 6854.322, 0.00006230811, 9.999965, 9.999054 
2.2503234e+2, 1.2456582e+2, -1675412.5, -1644745.6, 107369.695, 0.038404856, -0.07422717, -1551620.0, 167630.89, 0.0009987325, 9.999942, 10.000486 
2.2502823e+2, 1.3456702e+2, -1609373.4, -1539743.8, 13160.194, -0.14059031, -0.06071441, -1537339.5, 83894.64, 0.0005469882, 9.999714, 10.000638 
2.25028e+2, 1.4456572e+2, -1565172.8, -1593183.4, -8083.1563, 0.10079645, -0.19627744, -1563007.5, -39762.74, 0.00020906689, 9.999856, 9.999533 
2.2502367e+2, 1.5456662e+2, -1369439.3, -1472848.3, -49005.8, -0.032728177, -0.084447175, -1349905.3, 75332.1, 0.000042237294, 10.000642, 9.999307 
2.2502053e+2, 1.6456601e+2, -1329002.3, -1521733.1, 7107.3516, -0.087177195, -0.018384894, -1328740.5, -1494.9948, 0.0000020119714, 10.000763, 9.998225 
2.250188e+2, 1.7456321e+2, -1342501.6, -1493619.5, 14245.524, -0.058509436, -0.15175961, -1341170.5, -111894.27, 0.0, 10.000069, 9.998081 
2.2501642e+2, 1.8456212e+2, -1143396.5, -1186879.0, -24494.346, -0.023338242, -0.13314019, -1132386.4, -1097.3971, 0.0, 10.000058, 9.999529 
2.2501336e+2, 1.9456291e+2, -951721.9, -1041872.06, -73426.51, 0.0197631, -0.049830753, -910638.9, 122642.99, 0.0, 10.000703, 9.999542 
2.2501066e+2, 2.0456308e+2, -854906.4, -910691.1, -9281.432, 0.01580018, 0.0061415564, -853402.7, 81876.195, 0.0, 10.000541, 9.999856 
2.2500849e+2, 2.1456228e+2, -939649.75, -904135.8, -23503.547, -0.038202662, -0.091997676, -892435.56, -55152.22, 0.0, 9.999301, 9.999823 
2.2500582e+2, 2.2456186e+2, -942587.94, -954142.25, -68626.195, -0.046111353, -0.07026052, -879496.2, -140207.84, 0.0, 9.999046, 9.998917 
2.2500262e+2, 2.3456158e+2, -728563.56, -811693.8, -49010.215, 0.0042759995, -0.019877424, -705866.25, -64569.81, 0.0, 9.99989, 9.998816 
2.249991e+2, 2.4456151e+2, -526336.1, -533576.9, -18239.756, 0.0019280299, 0.040551044, -511360.9, 31937.781, 0.0, 10.000046, 9.999979 
2.2499521e+2, 2.545615e+2, -520982.3, -485020.9, -67113.32, -0.05581565, 0.003001734, -433521.38, 11774.186, 0.0, 9.999415, 9.999949 
2.2499186e+2, 2.6456162e+2, -531579.94, -548642.25, -47863.25, -0.08288994, 0.07059434, -491493.5, -144198.75, 0.0, 9.999168, 9.998945 
2.2498909e+2, 2.745613e+2, -393623.9, -453174.4, -37767.367, -0.06293416, 0.11345248, -375306.13, -126004.03, 0.00000000006385136, 9.999522, 9.998766 
2.2498591e+2, 2.845597e+2, -240249.38, -268551.75, -42942.703, -0.06944494, 0.05804304, -209186.28, -57867.984, 0.00000032397858, 9.999647, 9.999302 
2.2498211e+2, 2.9455748e+2, -165984.0, -172897.81, -98269.68, -0.09006263, -0.13573481, -71110.445, -17774.828, 0.000003287384, 9.999439, 9.999382 
2.2497787e+2, 3.0455965e+2, -145414.1, -222784.81, -108756.04, -0.06545715, 0.18149774, -68667.94, -68667.94, 0.00001601569, 9.999621, 9.998635 
2.2497478e+2, 3.1455556e+2, -16526.691, -91482.27, 94185.016, 0.020633591, -0.121103026, 47363.17, 47363.17, 0.000054019332, 10.000142, 9.999284 
2.3503274e+2, 1.2456962e+2, -1746700.5, -1791682.4, 77346.09, 0.006450922, -0.06521941, -1688641.8, 30570.072, 0.0008678289, 9.999941, 9.999483 
2.350285e+2, 1.3457023e+2, -1649337.1, -1636212.8, 6309.715, -0.1182488, -0.033854317, -1633671.4, -12467.283, 0.00046623294, 9.999755, 9.999969 
2.3502818e+2, 1.4456883e+2, -1607494.6, -1655565.5, 2850.5903, 0.10004055, -0.1274462, -1607326.1, -84108.75, 0.00017258529, 9.999755, 9.999154 
2.350244e+2, 1.5456824e+2, -1402011.4, -1534083.8, -1905.3834, -0.059830643, -0.12185453, -1401983.9, 23240.68, 0.000033446406, 10.000615, 9.998902 
2.3502134e+2, 1.6456811e+2, -1305238.8, -1450660.6, -32695.488, -0.117331974, -0.010071946, -1298226.0, 29001.785, 0.0000017722703, 10.000675, 9.998757 
2.3501919e+2, 1.7456815e+2, -1305265.3, -1404099.1, 2239.563, -0.05826317, 0.08078674, -1305214.5, -75984.26, 0.0000000001389195, 10.000014, 9.998726 
2.3501669e+2, 1.845671e+2, -1214533.0, -1305410.8, -15516.267, -0.031695485, 0.104863025, -1211956.9, -80714.72, 0.0, 9.999939, 9.998774 
2.3501372e+2, 1.9456458e+2, -1021115.4, -1169030.5, -35968.246, -0.044868913, -0.057034906, -1012832.8, 20433.895, 0.0, 10.0006275, 9.998708 
2.3501079e+2, 2.0456323e+2, -885877.06, -935376.4, -66655.12, -0.050133735, -0.10522153, -839525.06, 95753.14, 0.0, 10.000377, 9.999762 
2.3500796e+2, 2.1456297e+2, -967840.0, -923651.06, -53923.203, -0.05089887, -0.14611521, -887471.4, -50194.14, 0.0, 9.999132, 9.999769 
2.3500529e+2, 2.2456318e+2, -903156.0, -832642.7, -50418.305, -0.02929186, -0.10069168, -806376.7, -67102.89, 0.0, 9.99888, 9.999832 
2.3500293e+2, 2.3456371e+2, -681009.2, -682409.6, -795.47906, 0.014549504, -0.06289952, -680649.6, -39379.72, 0.0, 9.999757, 9.999772 
2.349996e+2, 2.4456331e+2, -600019.6, -664824.56, -53523.688, 0.015994797, -0.04320898, -569854.5, -26579.525, 0.0, 9.999949, 9.999125 
2.3499516e+2, 2.545617e+2, -607773.44, -629945.4, -77466.695, -0.03516866, -0.14984299, -540603.5, -95311.664, 0.0, 9.999263, 9.999027 
2.3499127e+2, 2.645616e+2, -508348.84, -479675.22, -50858.734, -0.0870587, -0.080278575, -441171.2, -93876.49, 0.0, 9.999083, 9.999462 
2.349883e+2, 2.7456272e+2, -370071.06, -376288.25, -7238.7207, -0.12828983, 0.05203678, -365301.7, -116015.52, 0.0, 9.999397, 9.999358 
2.3498596e+2, 2.8456193e+2, -277690.7, -333403.28, -62133.625, -0.06421058, 0.066304624, -237454.69, -86159.82, 0.00000009734078, 9.999593, 9.998881 
2.349839e+2, 2.945593e+2, -223334.38, -270237.78, -90373.79, 0.101361215, -0.120191984, -153419.05, -100099.32, 0.0000024854203, 9.999334, 9.998773 
2.3497824e+2, 3.0456027e+2, -116632.04, -156092.52, -98723.26, -0.021093972, 0.092429705, -35686.74, -35686.74, 0.000014818684, 9.9995985, 9.999104 
2.3497288e+2, 3.1455818e+2, 74483.41, 114911.37, 156293.03, -0.2530041, -0.0670073, 252292.17, 252292.17, 0.00005156838, 10.000061, 10.000747 
2.450338e+2, 1.245729e+2, -1558913.6, -1781133.1, 97645.58, 0.04972729, -0.060131688, -1522104.4, 197073.86, 0.00074233726, 10.001614, 9.998738 
2.4502958e+2, 1.3457282e+2, -1482628.0, -1640285.9, -57702.375, -0.049938727, -0.021638548, -1463765.8, 157414.48, 0.00038816038, 10.001281, 9.999204 
2.4502885e+2, 1.4457154e+2, -1445375.4, -1579690.9, 6784.6055, 0.14536923, -0.06246216, -1445033.5, 78159.92, 0.00013769997, 10.000866, 9.999135 
2.4502496e+2, 1.5457053e+2, -1405156.1, -1535390.9, 241.79478, -0.053709883, -0.10161413, -1405155.8, 20047.893, 0.000025817635, 10.000605, 9.998887 
2.4502192e+2, 1.6457027e+2, -1308564.6, -1431211.9, -16212.08, -0.109935395, -0.0117798885, -1306457.9, 20749.242, 0.0000016011192, 10.000552, 9.998963 
2.4502029e+2, 1.7457058e+2, -1204657.4, -1329489.3, -38570.277, 0.028474351, 0.084554546, -1193701.6, 35504.11, 0.0000000006420841, 10.000593, 9.998965 
2.4501777e+2, 1.8456961e+2, -1149905.4, -1294448.1, -6502.213, 0.063388005, 0.11386053, -1149613.5, -18396.902, 0.0, 10.000478, 9.998583 
2.4501419e+2, 1.945669e+2, -1117334.8, -1238258.5, -6164.959, -0.024881024, -0.046456918, -1117021.3, -83777.12, 0.0, 10.00008, 9.998487 
2.4501078e+2, 2.0456558e+2, -943781.6, -959727.75, -8555.014, -0.060278703, -0.08313423, -940060.3, -4803.876, 0.0, 9.999971, 9.999782 
2.4500777e+2, 2.1456565e+2, -832786.06, -854066.3, -21934.709, -0.018133083, -0.09515665, -819047.0, 18205.8, 0.0, 10.000052, 9.999796 
2.4500503e+2, 2.2456583e+2, -749810.25, -740376.75, 9690.599, 0.013826489, -0.0610271, -734315.94, 4933.056, 0.0, 9.999857, 9.999994 
2.4500263e+2, 2.3456596e+2, -734277.44, -686341.5, -21883.139, 0.040195547, -0.07936824, -677854.4, -36607.438, 0.0, 9.999309, 9.999958 
2.4499938e+2, 2.4456543e+2, -713815.8, -732416.6, -58067.758, 0.042300507, -0.07811432, -664308.4, -121055.484, 0.0, 9.99922, 9.9990225 
2.4499509e+2, 2.5456393e+2, -557545.2, -615066.7, -48392.91, 0.020599391, -0.16056612, -530011.56, -84741.87, 0.0, 9.999659, 9.998941 
2.4499118e+2, 2.6456377e+2, -388712.88, -399767.22, 31739.52, -0.033420246, -0.10025845, -362022.88, -14750.106, 0.0, 9.999788, 9.9996805 
2.4498801e+2, 2.7456495e+2, -330062.06, -325920.1, 22057.768, -0.09419997, 0.009637097, -305836.3, -56574.168, 0.0, 9.999541, 9.999635 
2.4498597e+2, 2.845645e+2, -273508.06, -354757.7, 2570.972, -0.01895771, 0.051361725, -273426.78, -122159.08, 0.00000009803459, 9.999716, 9.998683 
2.4498454e+2, 2.9456207e+2, -82529.75, -225877.44, -35810.117, 0.1878069, -0.094000444, -74081.78, -20789.24, 0.0000023443192, 10.000402, 9.998563 
2.44978e+2, 3.045617e+2, -33298.56, -120979.4, -34765.2, -0.022711273, 0.0030223303, -21187.201, -21187.201, 0.000014153015, 10.000195, 9.99906 
2.4497265e+2, 3.145607e+2, -92543.49, 108848.02, 101197.25, -0.19499566, -0.046550784, 150912.63, 150912.63, 0.00004937861, 9.998626, 10.001383 
2.5503457e+2, 1.2457584e+2, -1602070.4, -1863866.1, 65998.37, -0.10699992, -0.050773762, -1586373.4, 132775.16, 0.00062344765, 10.00158, 9.998191 
2.5503114e+2, 1.3457468e+2, -1533628.6, -1743689.6, -60763.094, -0.054109607, -0.04140907, -1517318.5, 103845.2, 0.0003143659, 10.001276, 9.998496 
2.5502977e+2, 1.4457381e+2, -1436150.1, -1546041.1, -22639.287, 0.107149735, -0.017689833, -1431668.9, 91504.695, 0.00010539114, 10.000808, 9.999389 
2.5502473e+2, 1.5457344e+2, -1388586.9, -1489182.9, 3516.6807, -0.17128651, -0.026541008, -1388464.0, 36711.54, 0.000019009012, 10.000559, 9.999221 
2.5502184e+2, 1.6457248e+2, -1325352.0, -1445784.6, -30155.346, -0.20319301, -0.02233446, -1318223.4, 8960.487, 0.0000013062046, 10.000465, 9.998904 
2.5502157e+2, 1.7457059e+2, -1217748.0, -1346732.4, -20747.508, 0.0649692, -0.1349371, -1214492.9, 14708.867, 0.000000000635992, 10.000552, 9.998866 
2.5501922e+2, 1.8456973e+2, -1136237.1, -1245654.3, -32357.268, 0.12834746, -0.10506429, -1127384.6, 3827.137, 0.0, 10.000385, 9.998963 
2.550143e+2, 1.9456981e+2, -1099704.3, -1181066.5, -5704.963, -0.056475803, -0.031569153, -1099306.1, -66090.98, 0.0, 9.999985, 9.998925 
2.550103e+2, 2.0457001e+2, -968476.56, -968952.56, -17703.135, -0.13129011, 0.060174514, -951009.8, -15795.163, 0.0, 9.999796, 9.999802 
2.5500754e+2, 2.1457013e+2, -852586.25, -861433.5, -5276.184, -0.0769821, 0.05243983, -850124.6, -12913.108, 0.0, 9.99991, 9.999812 
2.5500453e+2, 2.2456966e+2, -807348.7, -828555.2, -24534.84, -0.04835986, 0.04686412, -791223.9, -52008.938, 0.0, 9.999722, 9.9994545 
2.5500128e+2, 2.3456824e+2, -795347.75, -778685.06, -28004.264, -0.05441387, -0.07376071, -757799.1, -116570.51, 0.0, 9.999157, 9.999398 
2.5499803e+2, 2.4456775e+2, -684428.1, -644913.4, -57491.39, -0.042882632, -0.07147085, -603879.2, -60645.617, 0.0, 9.999112, 9.999673 
2.549946e+2, 2.5456804e+2, -531443.7, -526362.7, -20049.467, -0.024103334, -0.04333517, -508693.4, -63462.39, 0.0, 9.999508, 9.999623 
2.5499108e+2, 2.6456815e+2, -406921.16, -410456.75, 8612.246, -0.050227214, 0.008322598, -399897.16, -52667.387, 0.0, 9.999682, 9.999655 
2.549878e+2, 2.745678e+2, -352106.44, -342898.47, 27899.22, -0.10142358, -0.023366379, -319225.9, -69994.086, 0.0, 9.9994135, 9.999584 
2.5498554e+2, 2.8456718e+2, -281132.2, -351756.8, 12445.24, -0.064029776, 0.0021766173, -279003.3, -127764.88, 0.00000013920514, 9.999644, 9.9987335 
2.5498348e+2, 2.9456568e+2, -102343.72, -227561.81, 4127.903, 0.0071753813, -0.057981934, -102207.79, -48952.645, 0.0000022917138, 10.00024, 9.998627 
2.5497663e+2, 3.0456385e+2, -77908.0, -201732.83, -97256.664, -0.20805591, -0.09054462, -24529.455, -24529.455, 0.0000129202135, 10.000146, 9.998523 
2.5497314e+2, 3.1456265e+2, -136271.48, 38292.39, 56216.535, -0.0785539, -0.09383578, 54829.695, 54829.695, 0.000045825393, 9.998539, 10.000941 
2.650359e+2, 1.2457791e+2, -1636830.6, -1835544.4, 69429.08, -0.09129076, -0.059076406, -1614976.1, 104153.33, 0.00051409315, 10.001096, 9.9986315 
2.650328e+2, 1.3457683e+2, -1495348.5, -1714150.3, -61147.055, -0.006352216, -0.06295915, -1479419.8, 141722.13, 0.0002486299, 10.001444, 9.998633 
2.6503086e+2, 1.4457616e+2, -1393233.9, -1546884.1, 22883.986, 0.12703705, -0.017247265, -1389898.1, 133251.4, 0.00007773356, 10.001204, 9.999192 
2.6502594e+2, 1.5457542e+2, -1354657.5, -1499997.0, -23750.352, -0.11381527, -0.041114338, -1350874.9, 74281.766, 0.000013419433, 10.00089, 9.999 
2.6502293e+2, 1.6457434e+2, -1273918.0, -1377816.5, -21589.867, -0.14125639, -0.055786792, -1269610.4, 57555.785, 0.0000010267595, 10.000638, 9.999281 
2.6502213e+2, 1.7457274e+2, -1209805.6, -1298074.8, -6169.138, 0.07930139, -0.18302652, -1209376.6, 19802.94, 0.0000000012219834, 10.000413, 9.999259 
2.6501942e+2, 1.8457225e+2, -1134059.3, -1218901.4, 15778.605, 0.12095862, -0.14761789, -1131219.9, -34.50525, 0.0, 10.000299, 9.99919 
2.6501447e+2, 1.945729e+2, -1055621.3, -1136501.6, -5493.9683, -0.03893026, -0.037440922, -1055249.8, -22065.32, 0.0, 10.00019, 9.999137 
2.650105e+2, 2.0457335e+2, -929271.56, -963606.94, 7207.779, -0.09780477, 0.07424286, -927819.9, 7362.5376, 0.0, 10.000112, 9.999694 
2.650078e+2, 2.1457343e+2, -860079.2, -881711.44, -17342.498, -0.035538238, 0.0766061, -850456.4, -13275.274, 0.0, 9.999926, 9.999672 
2.6500458e+2, 2.2457287e+2, -804728.06, -844400.4, -10154.63, -0.012780288, 0.07693995, -802279.94, -63093.527, 0.0, 9.999801, 9.999312 
2.6500085e+2, 2.3457138e+2, -725269.3, -764485.1, -16270.765, -0.031084195, -0.035005588, -719397.7, -78196.57, 0.0, 9.999711, 9.999234 
2.649974e+2, 2.44571e+2, -599220.9, -579249.1, -103.04091, -0.03129904, -0.0207945, -579248.56, -36043.94, 0.0, 9.999604, 9.999881 
2.649941e+2, 2.545717e+2, -512358.63, -490131.56, -21773.254, -0.016108088, 0.02546854, -476799.56, -31602.541, 0.0, 9.999534, 9.999853 
2.6499072e+2, 2.645716e+2, -443510.2, -444847.4, 2834.5662, -0.03737607, 0.050914247, -441266.44, -94069.36, 0.0, 9.999499, 9.999506 
2.6498768e+2, 2.7457052e+2, -343707.13, -349318.72, -17934.438, -0.053652953, -0.040426835, -328360.34, -79154.44, 0.0, 9.999535, 9.999471 
2.649854e+2, 2.8457004e+2, -323031.84, -314845.03, 7383.656, -0.005809685, -0.018353466, -310496.03, -159285.77, 0.00000017298198, 9.9991045, 9.999246 
2.6498297e+2, 2.9456958e+2, -358501.13, -281093.63, 10792.887, 0.044108275, -0.033440504, -279616.97, -226400.56, 0.000002277503, 9.99817, 9.99926 
2.649758e+2, 3.0456814e+2, -304303.3, -299893.9, -5556.7715, -0.21092471, -0.063433446, -296120.44, -296120.44, 0.000011809922, 9.998519, 9.998653 
2.64973e+2, 3.1456676e+2, 22422.467, 121808.984, 121672.8, 0.020275204, -0.089580126, 203545.14, 203545.14, 0.000042458643, 9.999558, 10.00104 
2.7503717e+2, 1.2457914e+2, -1534033.6, -1624405.4, 45574.824, -0.1512756, -0.08947522, -1515041.4, 204079.34, 0.00042131313, 10.001093, 10.000088 
2.750339e+2, 1.3457945e+2, -1418287.9, -1556519.9, -43765.74, -0.079934835, -0.0633056, -1405596.4, 215516.78, 0.0001952308, 10.001453, 9.999709 
2.7503157e+2, 1.4457875e+2, -1444352.9, -1643963.3, -10188.072, 0.03501257, -0.044280145, -1443834.3, 79285.72, 0.000056360343, 10.001164, 9.998548 
2.7502823e+2, 1.5457666e+2, -1410313.4, -1603978.1, -18131.047, -0.009616181, -0.13239576, -1408630.5, 16514.855, 0.000009372096, 10.000849, 9.998304 
2.7502483e+2, 1.6457604e+2, -1223434.3, -1260335.9, -43340.633, -0.04854547, -0.104953684, -1194780.5, 132371.97, 0.0000008660051, 10.000583, 10.000112 
2.7502137e+2, 1.74577e+2, -1157933.6, -1175583.3, 84.183334, -0.07449926, -0.063783884, -1157933.3, 71206.234, 0.000000004874734, 10.000354, 10.000127 
2.750179e+2, 1.8457709e+2, -1151667.1, -1228404.6, -2962.817, -0.090210885, -0.014320334, -1151552.9, -20414.424, 0.0, 10.000184, 9.999179 
2.7501428e+2, 1.9457604e+2, -1071947.5, -1147463.3, 7280.3027, -0.10811864, -0.069695786, -1071252.0, -38099.27, 0.0, 10.000097, 9.999103 
2.7501097e+2, 2.045756e+2, -965033.44, -1007474.1, -13613.158, -0.08847364, -0.034265812, -961042.25, -25882.553, 0.0, 9.999983, 9.999454 
2.7500805e+2, 2.145755e+2, -901886.1, -926333.0, -9585.909, -0.0300966, -0.024801457, -898575.7, -61414.004, 0.0, 9.999748, 9.999447 
2.7500477e+2, 2.2457546e+2, -818255.75, -831880.94, -27251.898, -0.0028939904, 0.029083865, -796977.8, -57814.715, 0.0, 9.999625, 9.999486 
2.7500093e+2, 2.3457523e+2, -735953.8, -748694.4, -6545.725, -0.022919564, 0.024370303, -733190.25, -92024.21, 0.0, 9.999543, 9.999427 
2.7499712e+2, 2.445751e+2, -631264.5, -617786.6, -15672.819, -0.04998683, 0.0643053, -607465.4, -64298.254, 0.0, 9.999487, 9.999671 
2.7499312e+2, 2.5457478e+2, -547924.8, -535491.2, -8818.999, -0.099421665, 0.03104278, -530918.0, -85748.98, 0.0, 9.999402, 9.999609 
2.749897e+2, 2.6457402e+2, -477734.22, -490843.1, -13144.56, -0.12298702, 0.01994659, -469600.56, -122425.125, 0.0, 9.999402, 9.999232 
2.7498716e+2, 2.745728e+2, -387451.97, -407787.7, -3769.757, -0.09019564, -0.059487965, -386775.63, -137588.64, 0.00000000009324417, 9.999397, 9.999136 
2.7498516e+2, 2.8457275e+2, -258045.77, -165312.13, -42804.48, 0.027063008, -0.025275275, -148575.02, 2611.588, 0.00000023612336, 9.999043, 10.0002985 
2.7498248e+2, 2.9457358e+2, -288541.13, -116458.91, -3198.4946, 0.13544889, -0.025024557, -116399.48, -63221.625, 0.0000024951785, 9.998075, 10.00044 
2.7497494e+2, 3.0457476e+2, -244419.2, -151882.0, 27630.043, -0.17443173, 0.09125595, -144259.95, -144259.95, 0.0000116764495, 9.998449, 9.999685 
2.7497137e+2, 3.1457344e+2, 31626.56, 197079.06, 169343.4, -0.17090051, -0.022998467, 302822.5, 302822.5, 0.000040637482, 9.999343, 10.001652 
2.8504008e+2, 1.245817e+2, -1396982.3, -1524267.0, 142686.83, 0.003334055, -0.08318276, -1304388.0, 414709.5, 0.00034670465, 10.001929, 10.000351 
2.850355e+2, 1.3458213e+2, -1437184.5, -1547176.3, -74982.09, -0.041451912, -0.058583904, -1399191.9, 221896.42, 0.00015383656, 10.001277, 9.999841 
2.8503197e+2, 1.4458135e+2, -1485756.1, -1635893.5, -6208.204, -0.006078512, -0.0664128, -1485499.9, 37595.844, 0.00004093297, 10.000759, 9.998797 
2.850297e+2, 1.5457997e+2, -1407783.4, -1568507.4, 27925.373, 0.07475484, -0.11115842, -1403069.6, 22044.389, 0.0000066741927, 10.000713, 9.998614 
2.850263e+2, 1.6457975e+2, -1224054.1, -1265011.3, 41035.53, 0.049412128, -0.059885226, -1198671.1, 128446.836, 0.00000074756446, 10.000605, 10.000075 
2.8502157e+2, 1.7458065e+2, -1144012.0, -1179701.0, -15067.322, -0.086369984, -0.01301816, -1138501.6, 90605.2, 0.000000006090155, 10.000486, 10.000048 
2.8501773e+2, 1.8458083e+2, -1097721.8, -1176688.3, -9561.828, -0.12806211, 0.037296325, -1096580.5, 34524.492, 0.0, 10.000447, 9.999403 
2.8501487e+2, 1.9457993e+2, -1004242.4, -1090715.3, -6600.6494, -0.06813627, -0.0253522, -1003741.44, 29374.607, 0.0, 10.000449, 9.999323 
2.8501183e+2, 2.045793e+2, -911518.5, -995316.6, 5257.7983, -0.016604606, -0.014298028, -911189.94, 23934.422, 0.0, 10.000423, 9.999315 
2.8500855e+2, 2.1457872e+2, -841099.25, -915326.8, -14112.983, 0.029560786, -0.037929494, -838506.5, -1374.4755, 0.0, 10.000247, 9.999282 
2.850049e+2, 2.2457874e+2, -716038.06, -743825.56, 13766.199, 0.032456424, 0.01701158, -710373.06, 28759.463, 0.0, 10.000176, 9.999818 
2.850008e+2, 2.3457934e+2, -607840.25, -644547.2, 17870.684, -0.017919248, 0.060740113, -600577.06, 40548.6, 0.0, 10.000257, 9.99979 
2.849969e+2, 2.4457924e+2, -555456.7, -625162.44, 33149.56, -0.04741531, 0.100763924, -542209.5, 916.8671, 0.0, 10.000178, 9.999288 
2.849932e+2, 2.5457814e+2, -501530.06, -554434.6, -2960.8623, -0.05044348, 0.027567457, -501364.88, -56227.707, 0.0, 9.999909, 9.999227 
2.8498968e+2, 2.6457727e+2, -441780.75, -458962.84, 30680.748, -0.06308953, 0.016772382, -418510.94, -71366.09, 0.0, 9.999577, 9.999374 
2.849869e+2, 2.7457643e+2, -414993.2, -402919.84, 45850.383, -0.028301984, -0.03931103, -362710.47, -113559.234, 0.0000000018932573, 9.9991045, 9.99932 
2.8498444e+2, 2.8457618e+2, -291378.22, -190483.84, 18418.086, 0.0659789, -0.03497344, -187226.8, -36074.223, 0.00000028816427, 9.9988575, 10.0002165 
2.8498104e+2, 2.9457647e+2, -135425.44, -42839.22, -61119.88, 0.14368968, -0.07539692, -12459.7, 40689.32, 0.0000027347362, 9.999148, 10.000417 
2.8497404e+2, 3.0457863e+2, -100575.5, -119811.88, -74200.45, -0.15107526, 0.15035902, -35372.46, -35372.46, 0.000012525966, 9.999572, 9.999371 
2.849713e+2, 3.145767e+2, -12711.662, 151040.27, -100881.19, -0.08393317, 0.0073532974, 199090.0, 199090.0, 0.00004059471, 9.999137, 10.001429 
2.9504344e+2, 1.2458583e+2, -1459729.8, -1668657.8, 55013.31, 0.060981363, -0.018003274, -1446129.4, 272928.22, 0.00028489743, 10.001975, 9.999342 
2.9503727e+2, 1.3458483e+2, -1499648.4, -1682608.1, -91361.516, -0.032955647, -0.05372031, -1461839.9, 159227.98, 0.000121053716, 10.001302, 9.998899 
2.9503182e+2, 1.4458384e+2, -1402548.9, -1464369.8, -31142.6, -0.14520635, -0.0872551, -1389580.9, 133496.78, 0.000029834508, 10.000752, 9.999983 
2.9502994e+2, 1.5458527e+2, -1322516.1, -1384335.9, 38358.21, -0.0134807415, 0.01782363, -1304163.8, 120899.766, 0.000004731658, 10.000683, 9.999893 
2.9502684e+2, 1.645854e+2, -1298545.0, -1400340.4, 23639.625, 0.00911479, 0.08441895, -1293323.1, 33739.81, 0.00000054097734, 10.000534, 9.999173 
2.9502228e+2, 1.745839e+2, -1220727.0, -1322150.0, -1354.598, -0.09878469, -0.016561715, -1220708.9, 8370.739, 0.0000000012704189, 10.000431, 9.999086 
2.9501855e+2, 1.8458363e+2, -1079671.3, -1121853.3, -24683.389, -0.12447668, 0.019603655, -1068295.4, 62787.93, 0.0, 10.000364, 9.9998255 
2.9501572e+2, 1.9458453e+2, -984733.25, -1026888.8, 6972.1494, -0.06363101, 0.089498155, -983610.06, 49464.695, 0.0, 10.00035, 9.99981 
2.9501253e+2, 2.0458442e+2, -938154.1, -1013433.4, -14402.701, -0.015152115, 0.12978049, -935492.7, -415.80795, 0.0, 10.000263, 9.999268 
2.9500878e+2, 2.1458296e+2, -873287.6, -939369.44, -4661.4727, 0.0007079073, 0.026650239, -872960.44, -35867.23, 0.0, 10.000065, 9.999203 
2.9500467e+2, 2.2458272e+2, -709954.3, -688039.1, 1502.3481, -0.03914964, 0.036290415, -687936.6, 51158.09, 0.0, 9.999995, 10.000285 
2.9500005e+2, 2.345837e+2, -599440.3, -585841.25, 36608.203, -0.14457041, 0.06903093, -555406.44, 85674.15, 0.0, 10.000085, 10.000275 
2.9499647e+2, 2.4458346e+2, -606216.5, -706978.0, 7777.1104, -0.13801073, 0.09535762, -605619.75, -62537.82, 0.0, 10.0000725, 9.998781 
2.949938e+2, 2.5458163e+2, -559477.44, -646797.44, -282.13895, -0.014933064, 0.007853808, -559476.56, -114373.9, 0.0, 9.9997835, 9.99866 
2.9499033e+2, 2.6458102e+2, -407093.44, -367910.06, 1015.8789, 0.0116866985, 0.022298208, -367883.75, -20776.12, 0.0, 9.999498, 10.000035 
2.949864e+2, 2.7458143e+2, -384477.34, -305422.2, 41354.574, -0.0272721, 0.015718466, -287742.88, -38644.31, 0.0000000016821552, 9.998964, 10.000055 
2.949827e+2, 2.8458044e+2, -380940.38, -369326.66, 12678.823, -0.027878663, -0.032318793, -361188.2, -210081.95, 0.00000022409213, 9.99882, 9.999011 
2.9497826e+2, 2.945782e+2, -245545.53, -259003.39, -22969.86, -0.094832234, -0.1946685, -228339.28, -175208.48, 0.0000026534976, 9.999075, 9.9989805 
2.9497266e+2, 3.0457953e+2, -216803.22, -344796.38, -89993.31, -0.28162917, 0.10243128, -170371.72, -170371.72, 0.00001292508, 9.999512, 9.997847 
2.9497173e+2, 3.145763e+2, -104183.51, -15614.489, -73065.625, -0.030815324, -0.026082108, 25539.305, 25539.305, 0.000040888393, 9.999036, 10.000329 
3.0504584e+2, 1.2459028e+2, -1481968.4, -1743240.0, 76834.016, 0.11487198, 0.028188603, -1461048.3, 257967.58, 0.00023189843, 10.002111, 9.998768 
3.0503914e+2, 1.3458924e+2, -1508708.8, -1724374.4, -60862.44, 0.030550573, 0.02492412, -1492718.5, 128310.414, 0.000094942065, 10.001394, 9.998572 
3.0503267e+2, 1.44588e+2, -1367460.3, -1427334.1, 50320.484, -0.13333826, -0.025773112, -1338844.9, 184196.92, 0.000021738364, 10.000934, 10.000136 
3.0503103e+2, 1.5458958e+2, -1236071.3, -1325438.4, -2326.551, 0.013647669, 0.0804253, -1236010.6, 189013.8, 0.0000030875526, 10.001204, 10.000042 
3.0502796e+2, 1.6458957e+2, -1223077.8, -1394565.4, -18390.625, 0.047683902, 0.13504787, -1221127.6, 105897.34, 0.0000002653173, 10.001157, 9.998919 
3.0502313e+2, 1.7458752e+2, -1209261.0, -1347201.0, -21505.19, -0.056735866, 0.0088867415, -1205986.0, 23061.77, 0.0, 10.000623, 9.99883 
3.050192e+2, 1.8458706e+2, -1077296.6, -1112682.6, 9835.526, -0.085668795, 0.03348707, -1074746.6, 56306.902, 0.0, 10.000344, 9.999901 
3.0501622e+2, 1.945881e+2, -992847.6, -1030449.9, -18998.525, -0.035189375, 0.11140876, -984920.0, 48122.7, 0.0, 10.00027, 9.999839 
3.050129e+2, 2.0458816e+2, -936082.7, -988411.7, -20010.834, 0.008897401, 0.15753919, -929307.6, 5734.559, 0.0, 10.000171, 9.999489 
3.0500922e+2, 2.1458699e+2, -861344.8, -913219.9, -20009.424, 0.045922108, 0.060843397, -854523.6, -17468.723, 0.0, 10.000048, 9.999397 
3.050049e+2, 2.2458659e+2, -721686.06, -718567.75, 10824.568, -0.0073557915, 0.05649541, -709190.6, 29866.531, 0.0, 10.000011, 10.000074 
3.0499992e+2, 2.3458694e+2, -619225.0, -621296.2, -35022.816, -0.15543878, 0.04690402, -585222.44, 55826.77, 0.0, 10.0000515, 10.000053 
3.049963e+2, 2.4458645e+2, -627421.1, -711548.06, -51734.266, -0.14544241, 0.06013304, -602808.0, -59755.293, 0.0, 9.99994, 9.9988 
3.0499408e+2, 2.5458485e+2, -544747.9, -630851.25, -44910.797, 0.04127258, -0.009303995, -525586.8, -80515.5, 0.0, 9.999875, 9.998714 
3.049905e+2, 2.6458442e+2, -389466.16, -359890.9, -26507.143, 0.081493974, 0.016609272, -344325.56, 2748.983, 0.0, 9.999622, 10.00003 
3.049857e+2, 2.745849e+2, -342686.56, -285082.7, -69027.82, 0.0020487404, 0.022693265, -239088.97, 9975.001, 0.00000000014964384, 9.999255, 10.000051 
3.0498162e+2, 2.845838e+2, -337492.1, -388412.94, -35495.074, -0.029941104, -0.020336578, -319270.3, -168197.08, 0.00000013461268, 9.9993105, 9.998636 
3.049776e+2, 2.9458123e+2, -182164.97, -269765.44, -28682.89, -0.09364555, -0.17576648, -173609.03, -120507.26, 0.0000024184974, 9.9997225, 9.998576 
3.0497217e+2, 3.0458206e+2, -227046.22, -343077.78, -10691.395, -0.2616522, 0.09084216, -226069.31, -226069.31, 0.00001259153, 9.9993925, 9.997936 
3.0497077e+2, 3.145787e+2, -302671.13, -114650.77, 79376.555, 0.051626977, -0.06548702, -85622.13, -85622.13, 0.000039642433, 9.997661, 10.000339 
3.1504667e+2, 1.24595195e+2, -1486683.8, -1754647.5, -37987.45, -0.09129724, 0.07376181, -1481402.6, 237568.47, 0.0001887222, 10.002123, 9.99868 
3.150405e+2, 1.3459557e+2, -1499478.3, -1688174.9, -79081.5, -0.0022660415, 0.18829449, -1470719.0, 150250.77, 0.00007509751, 10.001342, 9.99884 
3.1503397e+2, 1.4459391e+2, -1441996.5, -1575903.8, 40248.863, -0.14169507, 0.13028929, -1430829.9, 92157.28, 0.00001598166, 10.000897, 9.999134 
3.150326e+2, 1.5459289e+2, -1313382.5, -1482054.4, 23704.322, 0.008906666, 0.07713684, -1310114.5, 114882.93, 0.00000170519, 10.001189, 9.998971 
3.150294e+2, 1.6459216e+2, -1203066.5, -1341672.3, -58160.496, 0.04113603, 0.098506, -1181895.5, 145109.45, 0.000000057148895, 10.001101, 9.999314 
3.1502378e+2, 1.7459153e+2, -1183113.6, -1280210.9, -30872.518, -0.09098295, 0.0658268, -1174129.0, 54882.6, 0.0, 10.0005665, 9.999317 
3.1501916e+2, 1.8459114e+2, -1113855.1, -1164276.9, -8116.4307, -0.15162241, 0.08795882, -1112580.8, 18434.477, 0.0, 10.0002365, 9.999599 
3.150159e+2, 1.945907e+2, -1028969.4, -1080229.0, -6513.1724, -0.12712605, 0.048321873, -1028154.75, 4864.323, 0.0, 10.000165, 9.999545 
3.1501257e+2, 2.0459066e+2, -931815.3, -938648.7, -39466.13, -0.06819322, 0.08019765, -895618.25, 39400.555, 0.0, 10.0, 9.999913 
3.1500933e+2, 2.1459089e+2, -854446.1, -856880.5, -8932.756, 0.026225526, 0.07926482, -846648.0, -9632.106, 0.0, 9.999871, 9.999867 
3.1500515e+2, 2.2459051e+2, -799453.7, -846028.5, -1317.6132, -0.008965011, 0.08844546, -799416.44, -60397.676, 0.0, 9.999864, 9.999275 
3.1499982e+2, 2.3458916e+2, -702740.0, -757549.5, -18370.303, -0.19693597, -0.0014588855, -697152.5, -56121.867, 0.0, 9.99989, 9.999201 
3.1499594e+2, 2.4458823e+2, -604421.06, -646896.8, -67837.28, -0.20992664, -0.011825902, -554574.9, -11536.025, 0.0, 9.999861, 9.999283 
3.149936e+2, 2.5458768e+2, -527811.5, -561896.4, -35295.297, -0.02407592, -0.028665103, -505659.5, -60615.695, 0.0, 9.999724, 9.999263 
3.149898e+2, 2.6458737e+2, -443313.0, -454756.5, -54142.574, 0.019030966, 0.011132696, -394590.7, -47545.215, 0.0, 9.999549, 9.999415 
3.1498447e+2, 2.7458686e+2, -404708.6, -391788.28, -67650.17, -0.07826058, -0.017729549, -330290.5, -81242.52, 0.00000000001473293, 9.999152, 9.9993725 
3.1498078e+2, 2.8458616e+2, -315236.78, -327212.88, -35850.496, -0.07735288, -0.006904997, -284877.7, -133823.14, 0.000000108201135, 9.99925, 9.999081 
3.1497833e+2, 2.9458535e+2, -168403.78, -214113.52, 6316.8115, -0.034540933, -0.03311144, -167546.9, -114482.32, 0.0000023186144, 9.9995985, 9.999021 
3.149721e+2, 3.0458608e+2, -103748.14, -77298.68, -79808.484, -0.236237, 0.11239835, -9626.643, -9626.643, 0.000012381474, 9.99935, 9.99978 
3.1496763e+2, 3.145836e+2, -220679.75, 67127.69, 73201.83, -0.10122909, -0.15485503, 84676.09, 84676.09, 0.000038038284, 9.997605, 10.001614 
3.250482e+2, 1.245996e+2, -1634502.5, -1802188.3, -65236.094, -0.07716839, 0.09993114, -1612112.8, 106816.45, 0.0001575099, 10.000977, 9.998914 
3.2504296e+2, 1.3459976e+2, -1381666.9, -1589688.8, -113043.414, 0.09515465, 0.1519165, -1332064.4, 288863.63, 0.00006189271, 10.001934, 9.999243 
3.250362e+2, 1.4459823e+2, -1324271.5, -1568397.1, 64192.215, -0.048410457, 0.10632749, -1308421.4, 214522.73, 0.000012633238, 10.001898, 9.998717 
3.2503352e+2, 1.5459678e+2, -1339904.0, -1542120.9, 65778.69, -0.008792761, 0.053256687, -1320390.1, 104570.375, 0.0000008198343, 10.001193, 9.998567 
3.2502997e+2, 1.6459613e+2, -1235686.0, -1330686.9, 35446.563, 0.012593148, 0.09344901, -1223918.0, 103049.76, 0.000000004124255, 10.000794, 9.999525 
3.2502505e+2, 1.7459622e+2, -1137369.6, -1236679.8, 9667.284, -0.021063637, 0.114011414, -1136437.4, 92529.36, 0.0, 10.000798, 9.999503 
3.2502043e+2, 1.8459581e+2, -1066919.6, -1153958.8, 52683.066, -0.0595928, 0.13039929, -1042105.75, 88864.34, 0.0, 10.000615, 9.999478 
3.2501623e+2, 1.9459464e+2, -1047387.5, -1098938.8, 34323.703, -0.09616914, 0.028917924, -1030238.8, 2741.708, 0.0, 10.000105, 9.999432 
3.2501248e+2, 2.0459437e+2, -942469.6, -935276.3, 32185.043, -0.06088448, 0.03817546, -906487.56, 28494.285, 0.0, 9.999869, 10.000005 
3.2500938e+2, 2.1459502e+2, -859319.75, -846368.44, 10607.12, 0.054823894, 0.064893745, -840416.5, -3441.9307, 0.0, 9.999776, 9.999988 
3.2500544e+2, 2.245948e+2, -810673.6, -860477.5, 68613.375, 0.041977964, 0.08974099, -762583.1, -23607.24, 0.0, 9.9998255, 9.999189 
3.2500055e+2, 2.3459336e+2, -682007.0, -757180.3, 81860.18, -0.114868335, -0.00288226, -629516.75, 11472.884, 0.0, 10.000074, 9.999107 
3.2499665e+2, 2.4459238e+2, -548303.6, -636064.7, 67839.43, -0.13689448, -0.008640957, -511390.03, 31608.828, 0.0, 10.000292, 9.999162 
3.2499388e+2, 2.5459176e+2, -405798.78, -515440.72, 30042.684, -0.0019731189, -0.021887086, -398106.53, 46897.38, 0.0, 10.0005865, 9.999173 
3.2498965e+2, 2.6459128e+2, -350065.7, -454881.9, -921.12604, 0.017595835, 0.023051865, -350057.6, -3049.3137, 0.0, 10.000384, 9.999016 
3.2498398e+2, 2.7459043e+2, -361021.47, -414041.03, -25439.844, -0.05865716, 0.005001291, -350789.53, -101773.28, 0.00000000010851988, 9.999645, 9.998979 
3.2498023e+2, 2.8458962e+2, -332911.47, -325622.94, 54431.645, -0.04044994, 0.023687247, -274713.7, -123689.4, 0.00000014604628, 9.999067, 9.999191 
3.2497814e+2, 2.9458904e+2, -291632.22, -252574.66, 43866.32, 0.045981977, 0.0013965793, -224086.48, -171056.0, 0.0000023415487, 9.998658, 9.999213 
3.2497144e+2, 3.0458984e+2, -132116.84, -21944.719, -86616.58, -0.20275296, 0.11038097, 25618.65, 25618.65, 0.000012312151, 9.998902, 10.000353 
3.2496667e+2, 3.14588e+2, 22546.908, 154982.44, -108420.72, -0.032641843, -0.14495757, 215807.36, 215807.36, 0.000036624067, 9.9994545, 10.001299 
3.3504942e+2, 1.2460349e+2, -1609147.8, -1729900.1, -121051.53, -0.12877434, 0.114711955, -1534251.0, 184639.55, 0.00013854062, 10.000909, 9.999434 
3.3504605e+2, 1.34602e+2, -1351140.5, -1508986.8, -74683.805, 0.17381845, -0.0562885, -1321405.8, 299496.7, 0.000055370125, 10.00189, 9.999801 
3.3503896e+2, 1.4460106e+2, -1312419.0, -1530859.5, 17143.49, -0.0014618062, -0.08319177, -1311081.8, 211829.97, 0.000011804474, 10.0018425, 9.999002 
3.3503336e+2, 1.5460148e+2, -1319092.4, -1490805.3, 53635.24, -0.1787387, 0.022531047, -1303716.1, 121195.15, 0.00000057438905, 10.001163, 9.998933 
3.350292e+2, 1.646017e+2, -1249209.4, -1348371.3, 20179.814, -0.17739813, 0.13034055, -1245260.0, 81651.555, 0.00000000201948, 10.000745, 9.999431 
3.3502662e+2, 1.7460153e+2, -1151182.1, -1259626.3, 26626.564, 0.01545174, 0.1381946, -1144997.1, 83916.9, 0.0, 10.000768, 9.999363 
3.350225e+2, 1.8460096e+2, -1086553.8, -1164644.3, 17140.303, 0.053264517, 0.14793135, -1082957.1, 47961.766, 0.0, 10.000486, 9.999469 
3.3501682e+2, 1.9459969e+2, -1061794.3, -1104587.5, 28608.605, -0.08079478, 0.035615284, -1047465.94, -14536.76, 0.0, 10.000003, 9.999441 
3.350122e+2, 2.0459914e+2, -977386.94, -971627.94, 12837.57, -0.10135825, 0.024527444, -961350.9, -26417.832, 0.0, 9.999719, 9.999827 
3.3500886e+2, 2.145992e+2, -898086.4, -883160.3, 21584.686, -0.0020164584, 0.011675941, -867784.9, -30852.979, 0.0, 9.999591, 9.999825 
3.350053e+2, 2.2459938e+2, -793798.4, -785522.7, 62526.0, 0.020809792, 0.05558694, -726997.75, 11931.559, 0.0, 9.99966, 9.999783 
3.3500165e+2, 2.3459952e+2, -665429.56, -675207.44, 102678.836, -0.038179625, 0.05531713, -567523.3, 73403.37, 0.0, 9.99988, 9.999761 
3.349981e+2, 2.4459888e+2, -598718.9, -725259.9, 64553.184, -0.050503258, 0.077447236, -571599.9, -28666.996, 0.0, 10.000217, 9.998587 
3.3499455e+2, 2.5459716e+2, -471288.7, -618880.06, 54267.563, -0.022697773, 0.013251035, -453483.22, -8532.096, 0.0, 10.000448, 9.9985285 
3.349898e+2, 2.645962e+2, -377339.75, -495680.25, -42389.77, -0.038993817, 0.058564205, -363722.53, -16760.518, 0.0, 10.00032, 9.998763 
3.3498368e+2, 2.7459565e+2, -398015.5, -457399.1, -38817.41, -0.087279126, 0.09147048, -378836.1, -129867.055, 0.000000000044508567, 9.999504, 9.998747 
3.349795e+2, 2.8459433e+2, -342833.7, -340558.8, 24537.725, -0.05224015, 0.07305206, -317132.16, -166150.4, 0.00000018851506, 9.999029, 9.999112 
3.3497664e+2, 2.9459244e+2, -306120.1, -272085.1, 47899.29, -0.012224948, -0.070705086, -238270.14, -185271.98, 0.0000023038672, 9.998593, 9.999121 
3.3496964e+2, 3.045931e+2, -202031.94, -157707.19, -73959.234, -0.3025639, 0.072846696, -102661.15, -102661.15, 0.000011796056, 9.998868, 9.9994335 
3.3496693e+2, 3.1459168e+2, -140424.4, -154360.78, -74897.734, -0.025321938, -0.037662413, -72171.414, -72171.414, 0.000034748333, 9.99932, 9.999247 
3.4505096e+2, 1.2460673e+2, -1730419.9, -1725097.9, -77264.44, 0.008130431, 0.048882198, -1650448.6, 68410.94, 0.00012841672, 9.999813, 9.999994 
3.4504712e+2, 1.3460599e+2, -1516092.9, -1548694.0, -65111.285, 0.17520823, -0.08573358, -1465272.8, 155590.14, 0.00005393956, 10.00056, 10.000191 
3.4504047e+2, 1.4460596e+2, -1400952.6, -1519893.6, 38113.535, 0.016874557, -0.06578461, -1389787.6, 133075.3, 0.00001321429, 10.001022, 9.999461 
3.4503463e+2, 1.5460658e+2, -1241989.5, -1409560.0, 39110.574, -0.17362523, 0.01769992, -1233310.6, 191549.8, 0.00000089811203, 10.001511, 9.999316 
3.4503025e+2, 1.6460685e+2, -1135152.6, -1297519.8, 31892.64, -0.17615607, 0.114623025, -1129112.9, 197747.1, 0.0000000015154811, 10.001529, 9.999407 
3.4502733e+2, 1.7460667e+2, -1131221.5, -1250273.6, 18635.033, 0.012761897, 0.12025521, -1128372.8, 100489.555, 0.0, 10.00091, 9.999357 
3.4502327e+2, 1.8460606e+2, -1064756.1, -1169291.5, 44476.58, 0.08200683, 0.1323731, -1048393.8, 82473.78, 0.0, 10.000694, 9.999343 
3.450182e+2, 1.9460462e+2, -944691.75, -1067422.1, 19916.602, 0.025670744, 0.01945097, -941540.6, 91339.22, 0.0, 10.000873, 9.999288 
3.4501335e+2, 2.0460397e+2, -856028.1, -936968.6, 13037.706, 0.0011567743, 0.01736554, -853979.9, 80905.5, 0.0, 10.000662, 9.999604 
3.450086e+2, 2.14604e+2, -864481.1, -894391.3, -14189.332, 0.0065640905, 0.023976678, -858820.9, -21935.34, 0.0, 9.999941, 9.999576 
3.4500477e+2, 2.2460414e+2, -796981.9, -772952.0, 53514.617, 0.013103832, 0.070542865, -730120.1, 8763.473, 0.0, 9.999572, 9.999917 
3.4500203e+2, 2.3460421e+2, -696492.25, -674277.7, 31107.03, 0.03435402, 0.050419427, -652354.4, -11473.159, 0.0, 9.999582, 9.999919 
3.449987e+2, 2.4460381e+2, -674806.1, -719592.8, 32030.246, 0.027230177, 0.069256134, -658117.5, -115232.875, 0.0, 9.999527, 9.998955 
3.4499452e+2, 2.5460255e+2, -589339.06, -639895.25, 66577.3, -0.017422399, 0.018611241, -543402.56, -98504.78, 0.0, 9.9994755, 9.998859 
3.4498942e+2, 2.6460177e+2, -516553.0, -574464.06, 23185.715, -0.053944923, 0.07482729, -508414.06, -161507.13, 0.0, 9.999423, 9.998652 
3.4498346e+2, 2.746012e+2, -422511.38, -479675.72, 4767.172, -0.04468777, 0.11955478, -422116.53, -173201.17, 0.0, 9.999393, 9.998647 
3.4497923e+2, 2.8459984e+2, -292690.4, -293613.56, 116808.0, 0.013406847, 0.09127346, -176343.06, -25414.285, 0.00000016974016, 9.99931, 9.999284 
3.4497622e+2, 2.9459783e+2, -187864.77, -193864.33, 130601.445, 0.058674276, -0.08083045, -60228.656, -7283.439, 0.0000020169734, 9.999334, 9.999292 
3.4496915e+2, 3.0459854e+2, -129272.09, -190757.25, 88770.14, -0.2597691, 0.09210381, -66071.9, -66071.9, 0.0000103175025, 9.999628, 9.9988575 
3.4496737e+2, 3.1459686e+2, -153894.4, -238345.4, 33922.324, 0.094427474, 0.006681509, -141956.11, -141956.11, 0.000031962787, 9.99954, 9.998563 
3.5505193e+2, 1.24609284e+2, -1694954.8, -1647630.4, -124892.21, 0.038715888, -0.0989411, -1544178.6, 174658.16, 0.00012227354, 9.999795, 10.000533 
3.550457e+2, 1.3461176e+2, -1486181.1, -1487948.0, -24211.928, -0.05757554, 0.056029618, -1462836.5, 157972.89, 0.00005490219, 10.000582, 10.000588 
3.550402e+2, 1.4461307e+2, -1370267.6, -1458909.6, 38844.73, -0.15875928, 0.16468136, -1355654.3, 167141.89, 0.000015641235, 10.001025, 9.999886 
3.5503688e+2, 1.5461199e+2, -1216090.6, -1361933.3, 71974.97, -0.13889065, 0.04281594, -1186552.6, 238256.13, 0.0000017221555, 10.00153, 9.99964 
3.5503262e+2, 1.6461156e+2, -1135641.8, -1279519.3, -7994.133, -0.12834999, 0.04624712, -1135199.0, 191614.39, 0.000000007086625, 10.001448, 9.999568 
3.550267e+2, 1.7461164e+2, -1125834.4, -1227251.8, 10730.573, -0.17202689, 0.06425885, -1124711.5, 104099.63, 0.0, 10.000856, 9.999541 
3.5502234e+2, 1.8461111e+2, -1100894.1, -1216606.9, 38644.55, -0.11387852, 0.08383892, -1089175.0, 41640.84, 0.0, 10.000575, 9.999075 
3.5502005e+2, 1.9460963e+2, -981101.94, -1116595.3, 42491.438, 0.08972136, -0.0043061767, -968879.0, 63951.52, 0.0, 10.000758, 9.999005 
3.5501555e+2, 2.0460908e+2, -902813.75, -998329.0, -27016.75, 0.12657623, 0.035254043, -895701.56, 39135.117, 0.0, 10.0005045, 9.999262 
3.5500833e+2, 2.146094e+2, -911792.94, -955586.25, -26117.926, -0.04373469, 0.10519997, -899607.2, -62772.11, 0.0, 9.99978, 9.999235 
3.5500342e+2, 2.2460903e+2, -841000.75, -829694.4, 41871.586, -0.10275918, 0.13495807, -793096.06, -54257.242, 0.0, 9.999425, 9.999596 
3.550012e+2, 2.346076e+2, -746082.06, -736008.06, 45988.43, -0.031480074, -0.0035239155, -694781.6, -53930.113, 0.0, 9.999409, 9.9995775 
3.5499787e+2, 2.4460725e+2, -609853.06, -552575.75, 17836.086, -0.035295684, -0.017924188, -547475.7, -4622.689, 0.0, 9.999396, 10.00016 
3.549932e+2, 2.5460792e+2, -523238.88, -467000.8, 78946.914, -0.12713613, -0.0034198465, -411314.75, 33529.31, 0.0, 9.9993305, 10.000114 
3.5498816e+2, 2.646081e+2, -519645.84, -567054.0, 9970.843, -0.15054122, 0.07620778, -517634.13, -170791.61, 0.0, 9.999358, 9.998735 
3.5498288e+2, 2.746073e+2, -438783.66, -488871.5, 20982.105, -0.07549981, 0.09474206, -431155.78, -182302.08, 0.0, 9.999285, 9.998636 
3.5497898e+2, 2.8460616e+2, -277173.97, -249774.13, 104369.37, 0.02534874, 0.07775506, -158209.36, -7344.1323, 0.00000011654808, 9.999262, 9.999609 
3.5497636e+2, 2.9460505e+2, -181835.42, -156662.56, 153333.47, 0.0946101, -0.043519758, -15399.808, 37473.434, 0.0000016052002, 9.999232, 9.999598 
3.5496956e+2, 3.046062e+2, -126502.92, -186947.6, 80871.945, -0.21231739, 0.15759766, -70390.67, -70390.67, 0.000008325357, 9.999624, 9.998892 
3.5496694e+2, 3.1460455e+2, -123499.63, -153963.3, 21979.367, 0.02042742, 0.06843167, -111990.086, -111990.086, 0.000028551576, 9.999439, 9.999199 
3.6505395e+2, 1.2461528e+2, -1372446.3, -1499086.9, -1635.6641, 0.1679566, -0.039977342, -1372425.1, 346355.84, 0.000118926524, 10.002022, 10.000495 
3.650458e+2, 1.3461758e+2, -1421191.6, -1484478.4, 4737.0796, -0.123928316, 0.12569684, -1420839.1, 199916.77, 0.000056465244, 10.001144, 10.000342 
3.6504108e+2, 1.4461865e+2, -1438041.1, -1476400.4, 78082.35, -0.13550732, 0.21632935, -1376817.4, 145926.86, 0.00001794202, 10.000487, 10.00003 
3.6503842e+2, 1.5461749e+2, -1391684.5, -1425476.0, 65548.805, -0.06429583, 0.06879804, -1340888.9, 83867.03, 0.000002788093, 10.000232, 9.999834 
3.6503425e+2, 1.646169e+2, -1279194.9, -1327740.3, 12409.286, -0.0461969, 0.039073065, -1276206.6, 50554.137, 0.00000008230677, 10.000379, 9.999751 
3.6502764e+2, 1.746168e+2, -1106742.9, -1195726.1, -4761.193, -0.15517491, 0.020373622, -1106488.8, 122270.59, 0.0, 10.000897, 9.999735 
3.6502293e+2, 1.8461646e+2, -1042763.8, -1184345.0, 56178.277, -0.12271389, 0.047125466, -1023181.25, 107580.94, 0.0, 10.000964, 9.999109 
3.650207e+2, 1.9461554e+2, -1027298.1, -1134150.5, 56227.344, 0.10298776, 0.013725421, -1003162.25, 29610.262, 0.0, 10.000429, 9.9990425 
3.6501613e+2, 2.0461506e+2, -941674.44, -1026503.2, 37272.51, 0.15744565, 0.06159346, -927624.44, 7153.849, 0.0, 10.000273, 9.999185 
3.650089e+2, 2.1461482e+2, -813425.3, -916601.8, 26191.46, 0.0072413655, 0.08404786, -807157.3, 29624.133, 0.0, 10.000487, 9.999165 
3.6500365e+2, 2.2461425e+2, -722679.44, -787545.1, 136659.44, -0.061386105, 0.10176352, -614657.0, 124130.25, 0.0, 10.000302, 9.999465 
3.6500078e+2, 2.34613e+2, -720081.5, -737446.6, 127237.48, -0.017976783, -0.0030185576, -601230.7, 39567.9, 0.0, 9.99965, 9.999451 
3.6499733e+2, 2.4461274e+2, -621359.7, -551388.2, 103213.98, -0.014452639, -0.0067747156, -477391.7, 65408.02, 0.0, 9.999265, 10.000248 
3.6499304e+2, 2.5461346e+2, -543133.25, -458077.72, 50876.887, -0.055282235, 0.003247841, -434295.1, 10495.129, 0.0, 9.999114, 10.000281 
3.6498803e+2, 2.6461363e+2, -512852.4, -542734.0, -18506.348, -0.0877862, 0.060983643, -504008.5, -157220.17, 0.0, 9.999331, 9.998905 
3.649824e+2, 2.7461255e+2, -317157.94, -410271.53, -25620.818, -0.07913501, 0.03972033, -310573.75, -61773.465, 0.0, 10.000045, 9.998806 
3.649784e+2, 2.846116e+2, -201695.69, -266193.0, 40749.37, 0.012935058, 0.05309261, -181978.14, -31167.418, 0.000000055764154, 9.999979, 9.999164 
3.6497596e+2, 2.9461116e+2, -260853.47, -248847.98, 135.36517, 0.15813345, 0.04143735, -248846.45, -196030.75, 0.0000011855267, 9.998917, 9.999118 
3.6497003e+2, 3.046115e+2, -194409.2, -183288.03, -22017.371, -0.0861887, 0.17388469, -166139.92, -166139.92, 0.0000067298934, 9.999033, 9.9991865 
3.64967e+2, 3.146099e+2, 41798.836, 20853.838, -148557.11, 0.0573658, 0.055259746, 180252.11, 180252.11, 0.00002565761, 10.000192, 10.000033 
3.750559e+2, 1.24624945e+2, -1408428.9, -1575724.1, -58685.207, 0.0856422, 0.27636892, -1389895.9, 328794.28, 0.0001191897, 10.002025, 9.999961 
3.7504676e+2, 1.3462347e+2, -1475099.5, -1598566.0, -19467.111, -0.17925107, 0.13425744, -1472102.8, 148599.34, 0.00005856906, 10.001153, 9.999549 
3.7504262e+2, 1.4462279e+2, -1450433.5, -1485892.5, 48064.973, -0.07362107, 0.09129807, -1416932.4, 105774.42, 0.000020069963, 10.000421, 9.999995 
3.7503874e+2, 1.5462308e+2, -1387432.0, -1420649.3, 73491.53, -0.09308743, 0.09162093, -1328695.8, 96006.49, 0.0000038584762, 10.000246, 9.999862 
3.7503472e+2, 1.646229e+2, -1278355.4, -1312453.0, 17445.156, -0.068227544, 0.0932536, -1271011.6, 55690.363, 0.00000020238203, 10.000321, 9.999881 
3.7502968e+2, 1.746222e+2, -1107595.6, -1187091.5, 30472.854, -0.07391127, 0.00032602105, -1097258.8, 131447.8, 0.0, 10.000848, 9.99982 
3.750246e+2, 1.8462205e+2, -1032824.8, -1136617.1, 23478.682, -0.08233706, 0.025263218, -1027760.8, 102946.47, 0.0, 10.000847, 9.999492 
3.7501967e+2, 1.9462223e+2, -1017058.44, -1084091.9, 52287.164, -0.0702329, 0.061331302, -988467.8, 44238.89, 0.0, 10.000308, 9.999441 
3.750148e+2, 2.0462176e+2, -952958.5, -1016079.5, 31134.129, -0.032419845, 0.08335191, -940186.2, -5474.9014, 0.0, 10.000125, 9.99933 
3.7500975e+2, 2.1462029e+2, -830900.44, -908143.56, 47453.574, 0.017080864, -0.031188691, -808338.1, 28386.262, 0.0, 10.000299, 9.9993105 
3.7500492e+2, 2.246198e+2, -740507.44, -790755.06, 96023.0, 0.012168111, -0.013625285, -666375.9, 72352.375, 0.0, 10.000146, 9.999522 
3.750003e+2, 2.3462023e+2, -736885.94, -740524.75, 115428.266, -0.059793342, 0.040409468, -623262.75, 17461.281, 0.0, 9.999502, 9.999505 
3.7499657e+2, 2.4462014e+2, -703705.8, -697110.94, 83631.85, -0.039765805, 0.09938231, -616711.5, -73986.28, 0.0, 9.999157, 9.999299 
3.749936e+2, 2.546192e+2, -635306.56, -617710.25, 60749.785, 0.057049632, 0.043221742, -565124.8, -120389.09, 0.0, 9.998973, 9.999255 
3.7498862e+2, 2.646182e+2, -505918.94, -512548.38, -5684.1167, 0.0068088938, 0.02763517, -502653.66, -155908.31, 0.0, 9.999261, 9.999147 
3.7498158e+2, 2.7461678e+2, -307744.2, -370243.16, 18202.797, -0.20121075, -0.06096225, -302829.16, -54072.26, 0.0, 9.999951, 9.999128 
3.7497687e+2, 2.846161e+2, -284232.44, -427980.88, -8517.637, -0.17045015, 0.014753701, -283729.5, -132963.9, 0.00000003400916, 9.999934, 9.998076 
3.749745e+2, 2.9461622e+2, -364209.13, -439619.47, -22118.4, 0.07989453, 0.18072581, -358200.4, -305428.66, 0.000000899484, 9.998805, 9.997868 
3.7496993e+2, 3.0461445e+2, -169945.64, -117455.65, 14605.158, -0.026435724, 0.14666992, -113665.49, -113665.49, 0.000005766145, 9.998975, 9.999665 
3.7496653e+2, 3.146123e+2, 84854.78, 132686.75, -78494.484, -0.07672146, -0.08752544, 190827.8, 190827.8, 0.000023929499, 10.000093, 10.000851 
3.8505715e+2, 1.2463164e+2, -1592288.4, -1765840.0, 72966.96, 0.065312505, 0.22745986, -1565687.8, 152931.36, 0.00012316402, 10.001218, 9.999042 
3.850484e+2, 1.3462955e+2, -1432525.1, -1690714.8, -3612.2258, -0.15652284, 0.12227506, -1432474.6, 188167.83, 0.000061385945, 10.001917, 9.998559 
3.8504496e+2, 1.4462824e+2, -1258344.4, -1399736.5, 72050.33, 0.061361182, 0.07125617, -1228099.0, 294556.5, 0.000022093489, 10.001777, 9.999926 
3.8503954e+2, 1.5462896e+2, -1313158.1, -1386383.6, 49109.895, -0.055581894, 0.11676716, -1288515.1, 136130.08, 0.000004863891, 10.00078, 9.999829 
3.8503516e+2, 1.6462882e+2, -1295000.3, -1322686.9, 42691.9, -0.043688137, 0.12285999, -1263963.3, 62680.508, 0.00000029520132, 10.000193, 9.999887 
3.8503107e+2, 1.7462777e+2, -1226101.5, -1240508.1, 25946.836, 0.0273342, -0.0073410417, -1206376.8, 22275.033, 0.0, 10.000006, 9.999866 
3.850258e+2, 1.846277e+2, -1127736.3, -1152889.8, 32808.42, -0.0017583673, 0.010343384, -1105176.6, 25474.756, 0.0, 10.000059, 9.999762 
3.850195e+2, 1.9462831e+2, -990857.5, -1045581.44, 19561.357, -0.11279237, 0.060498897, -984584.3, 48061.555, 0.0, 10.000355, 9.99969 
3.850146e+2, 2.04628e+2, -873084.3, -972710.0, 33088.277, -0.08297541, 0.083130196, -863096.2, 71552.234, 0.0, 10.000653, 9.999373 
3.850111e+2, 2.146264e+2, -738924.7, -864729.3, 17484.47, 0.10010922, -0.045586906, -736539.9, 100122.63, 0.0, 10.00092, 9.999321 
3.8500643e+2, 2.2462577e+2, -659787.4, -778163.94, 55152.332, 0.1269216, -0.032974157, -638074.25, 100593.9, 0.0, 10.00082, 9.999275 
3.850005e+2, 2.3462607e+2, -631859.6, -716224.56, 19508.893, -0.026895646, 0.03238487, -627566.75, 13098.974, 0.0, 10.000347, 9.999256 
3.8499603e+2, 2.4462585e+2, -610415.94, -697630.94, 35273.04, -0.04505492, 0.107982375, -597936.0, -55266.637, 0.0, 10.000014, 9.998861 
3.8499317e+2, 2.5462466e+2, -534546.9, -625594.25, 23099.822, 0.08104094, 0.0707938, -529021.44, -84337.79, 0.0, 9.999904, 9.998748 
3.849886e+2, 2.6462325e+2, -420719.78, -496321.4, 13606.921, 0.0539837, 0.05451647, -418345.38, -71647.57, 0.0, 9.999941, 9.998941 
3.849823e+2, 2.7462155e+2, -290570.94, -380074.94, -28338.73, -0.122266926, -0.048150595, -282352.9, -33640.367, 0.0, 10.000148, 9.998966 
3.849772e+2, 2.8462085e+2, -251679.17, -403952.0, -44722.113, -0.12890303, 0.031517018, -239515.97, -88795.06, 0.000000026095549, 10.000132, 9.998142 
3.8497317e+2, 2.9462102e+2, -211967.0, -353654.84, 5696.569, 0.030120315, 0.19788966, -211738.34, -159013.13, 0.00000066980994, 9.999805, 9.997971 
3.8496947e+2, 3.0461863e+2, -93566.0, -83753.16, 154547.27, 0.018016519, 0.0934904, 65965.555, 65965.555, 0.000005131084, 9.999505, 9.999641 
3.849667e+2, 3.1461748e+2, -86506.16, 44215.07, -37614.344, 0.004246771, -0.038894903, 54265.656, 54265.656, 0.000023471404, 9.998949, 10.000789 
3.950572e+2, 1.2463564e+2, -1706651.3, -1975314.6, 113029.46, -0.13139835, -0.17346421, -1665424.8, 53140.637, 0.0001272644, 10.001137, 9.997636 
3.9505026e+2, 1.3463591e+2, -1529133.4, -1872089.8, 36518.83, -0.19516695, 0.08341523, -1525287.9, 95288.39, 0.00006380605, 10.001865, 9.997333 
3.950476e+2, 1.4463507e+2, -1287041.6, -1447138.4, 19315.348, 0.10648968, 0.15987755, -1284744.3, 237845.22, 0.000023677207, 10.001709, 9.999638 
3.9504015e+2, 1.5463503e+2, -1329072.9, -1419431.1, 25919.098, -0.10902535, 0.14682788, -1322166.0, 102419.69, 0.000005569423, 10.000775, 9.999605 
3.9503506e+2, 1.6463447e+2, -1302488.1, -1320366.6, 15939.148, -0.10640671, 0.12125039, -1293152.6, 33435.29, 0.00000035120044, 10.000124, 9.999936 
3.9503133e+2, 1.7463344e+2, -1233393.0, -1233996.5, 34284.848, 0.024788283, -0.008916743, -1199408.5, 29187.031, 0.0, 9.999922, 9.999949 
3.9502615e+2, 1.8463331e+2, -1136413.6, -1145434.1, 29303.824, -0.0003863333, -0.007590668, -1111275.0, 19320.332, 0.0, 9.999942, 9.999875 
3.9501968e+2, 1.9463387e+2, -1000758.25, -1032209.7, 44120.527, -0.16362983, 0.026647208, -969644.7, 62944.586, 0.0, 10.000214, 9.999848 
3.9501512e+2, 2.0463389e+2, -896849.1, -981974.56, 27954.41, -0.12208282, 0.07447162, -888490.0, 46098.59, 0.0, 10.000483, 9.9993925 
3.950125e+2, 2.1463317e+2, -768232.0, -874994.3, 44626.9, 0.12383726, 0.031566244, -752035.06, 84561.0, 0.0, 10.0007105, 9.999347 
3.950079e+2, 2.2463216e+2, -720416.8, -868240.44, 26686.83, 0.16152687, 0.03064696, -715746.56, 22860.15, 0.0, 10.000662, 9.998736 
3.9500087e+2, 2.346305e+2, -694920.7, -809025.44, 18522.357, -0.050739363, -0.03915446, -691989.3, -51365.38, 0.0, 10.000184, 9.998698 
3.949953e+2, 2.4462976e+2, -622554.1, -698205.2, 17409.469, -0.152143, 0.01242786, -618740.0, -76107.37, 0.0, 9.999905, 9.998918 
3.949913e+2, 2.5462976e+2, -545252.25, -618669.9, 34048.492, -0.1286534, 0.086219855, -531892.75, -87258.15, 0.0, 9.999773, 9.998863 
3.9498758e+2, 2.646289e+2, -477485.4, -597358.7, 7955.3125, -0.070577525, 0.14668931, -476959.75, -130314.65, 0.0, 9.999863, 9.99829 
3.949842e+2, 2.746268e+2, -356162.7, -493414.53, -4955.924, 0.019029787, 0.08052704, -355983.97, -107316.62, 0.0, 10.000039, 9.998247 
3.94979e+2, 2.8462577e+2, -173425.45, -219067.97, -69480.22, 0.0074611767, 0.09924746, -123114.57, 27562.86, 0.000000010243951, 10.00005, 9.999446 
3.9497158e+2, 2.9462558e+2, -132704.47, -151543.19, 13558.756, -0.14910151, 0.09582235, -125614.305, -72938.04, 0.0000005130985, 9.999657, 9.999429 
3.9496827e+2, 3.04624e+2, -129963.016, -155171.11, 125983.35, -0.08609315, 0.016203988, -15954.79, -15954.79, 0.0000059963604, 9.999481, 9.999164 
3.9496657e+2, 3.1462508e+2, -171430.02, -101267.6, 3458.155, 0.03107671, 0.17229818, -101097.57, -101097.57, 0.000027747768, 9.998823, 9.999848 
4.0505898e+2, 1.24640875e+2, -1539109.0, -1879004.8, 48479.26, -0.09581961, -0.2278808, -1532329.6, 186183.48, 0.0001282802, 10.002183, 9.997805 
4.0505192e+2, 1.3464217e+2, -1601351.9, -1864097.6, -38580.07, -0.16286424, 0.08848455, -1595804.1, 24708.818, 0.00006493345, 10.00117, 9.997727 
4.0504897e+2, 1.4464143e+2, -1447534.9, -1543776.1, 49114.063, 0.13691615, 0.1625829, -1426896.6, 95627.76, 0.00002457309, 10.000684, 9.999472 
4.0504113e+2, 1.5464038e+2, -1338356.9, -1447385.8, 24731.16, -0.081571, 0.06870319, -1333009.4, 91520.04, 0.000005781208, 10.000791, 9.999415 
4.0503588e+2, 1.6463952e+2, -1219577.3, -1326197.9, 49366.016, -0.06533837, 0.042275313, -1200230.9, 126304.72, 0.0000003430959, 10.000892, 9.999519 
4.0503213e+2, 1.7463894e+2, -1100507.4, -1220556.3, -3501.7756, 0.06397069, -0.0014881609, -1100405.3, 128136.61, 0.0, 10.0010395, 9.999502 
4.0502688e+2, 1.8463881e+2, -1009478.7, -1073657.0, -8854.227, 0.04661467, 0.01801269, -1008279.56, 122262.73, 0.0, 10.000785, 9.999955 
4.0502042e+2, 1.9463877e+2, -1024276.4, -1034039.56, -18748.313, -0.08987201, -0.012350029, -1009784.56, 22755.049, 0.0, 10.000019, 9.999931 
4.050157e+2, 2.0463872e+2, -1009164.9, -1059823.8, 1381.1897, -0.06735041, 0.031346653, -1009127.25, -74587.195, 0.0, 9.999817, 9.999171 
4.0501285e+2, 2.146384e+2, -850081.06, -942511.8, -32140.53, 0.1178002, 0.051082656, -840003.7, -3457.4924, 0.0, 10.000268, 9.999091 
4.0500817e+2, 2.2463754e+2, -753080.06, -880699.6, -36558.125, 0.14394745, 0.07795884, -743349.5, -4792.861, 0.0, 10.000425, 9.998765 
4.0500137e+2, 2.3463577e+2, -686872.75, -807733.6, -26852.83, -0.012916085, -0.0060829576, -681175.2, -40600.336, 0.0, 10.000237, 9.998689 
4.049958e+2, 2.4463482e+2, -577047.2, -681752.75, 35589.383, -0.101100475, 0.027914066, -566095.8, -23510.844, 0.0, 10.0002365, 9.998872 
4.0499154e+2, 2.5463468e+2, -441920.0, -564473.2, 18450.604, -0.10811915, 0.09081065, -439202.47, 5384.6543, 0.0, 10.000489, 9.99888 
4.0498766e+2, 2.6463398e+2, -418376.9, -559703.7, 27936.215, -0.05728862, 0.15824619, -413055.13, -66459.28, 0.0, 10.000218, 9.99837 
4.0498418e+2, 2.7463222e+2, -460990.97, -538266.44, 47790.566, 0.05982823, 0.11271056, -438172.94, -189557.66, 0.0, 9.999277, 9.998304 
4.0497887e+2, 2.8463107e+2, -302233.47, -269037.25, 25937.604, 0.050436668, 0.11658178, -254841.58, -104216.62, 0.0000000008315615, 9.999097, 9.999564 
4.049719e+2, 2.9463044e+2, -92873.625, -109400.97, -16543.7, -0.08069609, 0.04599781, -82644.53, -30018.197, 0.0000007104038, 9.999817, 9.999638 
4.0496892e+2, 3.0462894e+2, -85063.43, -152542.5, 59009.83, 0.022508183, -0.028260931, -50828.586, -50828.586, 0.000009515816, 9.999867, 9.999 
4.049654e+2, 3.146306e+2, -158276.78, -119283.39, -33212.04, 0.039169796, 0.20639424, -100268.26, -100268.26, 0.000039448827, 9.998973, 9.999666 
4.150617e+2, 1.2464703e+2, -1401330.8, -1606591.4, 43398.055, -0.12518477, 0.043157797, -1392532.3, 325932.97, 0.00012596608, 10.002222, 9.999654 
4.150529e+2, 1.3464837e+2, -1443650.9, -1559302.4, -67151.14, -0.22487874, 0.15005201, -1412859.0, 207593.36, 0.00006410072, 10.001236, 9.999792 
4.1504866e+2, 1.4464727e+2, -1452064.6, -1540743.1, 36773.06, -0.007816593, 0.080112696, -1438799.8, 83660.555, 0.00002430965, 10.000648, 9.999506 
4.1504207e+2, 1.5464517e+2, -1350089.5, -1453270.9, 46022.453, -0.10043116, -0.11448501, -1332545.1, 91930.336, 0.0000053776803, 10.00073, 9.999399 
4.1503724e+2, 1.6464409e+2, -1302030.5, -1476009.6, 40341.17, -0.055091824, -0.11225778, -1293131.6, 33354.4, 0.0000002359893, 10.000799, 9.998536 
4.150329e+2, 1.7464441e+2, -1181234.0, -1370983.6, 18177.984, -0.0016208357, 0.032285903, -1179508.3, 48981.008, 0.0, 10.000968, 9.998503 
4.1502747e+2, 1.8464424e+2, -1018241.3, -1068830.3, -51290.633, -0.008530444, 0.095437564, -986347.1, 144144.53, 0.0, 10.000689, 10.0000305 
4.1502127e+2, 1.946431e+2, -1033252.4, -1024140.4, -34400.18, -0.037298813, -0.059650015, -993995.8, 38500.94, 0.0, 9.999907, 10.000046 
4.1501603e+2, 2.0464244e+2, -1064736.9, -1148700.0, 3206.3528, -0.048291784, -0.053825118, -1064614.6, -130111.73, 0.0, 9.999689, 9.9986315 
4.1501164e+2, 2.1464214e+2, -914776.4, -1030522.44, -2324.3494, -0.05844994, 0.021717211, -914729.75, -78217.18, 0.0, 10.000069, 9.998584 
4.1500688e+2, 2.2464201e+2, -740537.6, -811829.3, -56349.492, -0.056683432, 0.12128909, -709505.94, 29011.281, 0.0, 10.000242, 9.999328 
4.150015e+2, 2.3464182e+2, -666913.0, -729308.94, -19055.945, -0.051924355, 0.13256131, -661553.6, -21034.482, 0.0, 10.000081, 9.999303 
4.1499698e+2, 2.4464102e+2, -597649.1, -700464.8, 33042.87, -0.03750717, 0.15302758, -587945.56, -45418.984, 0.0, 10.000131, 9.998793 
4.1499338e+2, 2.546393e+2, -466907.0, -588326.56, 44019.61, -0.0070578163, 0.06715005, -452627.44, -8084.4023, 0.0, 10.000364, 9.998777 
4.1498843e+2, 2.6463827e+2, -369764.2, -434390.47, -17597.469, -0.034344558, 0.0671191, -365283.2, -18730.97, 0.0, 10.000126, 9.9992695 
4.1498172e+2, 2.746378e+2, -415404.53, -410444.9, 27130.877, -0.15079531, 0.056228645, -385680.75, -137125.13, 0.0, 9.999151, 9.999234 
4.149765e+2, 2.8463697e+2, -375811.63, -425971.6, 34881.91, -0.13623142, 0.09331629, -357929.38, -207366.92, 0.00000000001177225, 9.999096, 9.998497 
4.1497344e+2, 2.9463556e+2, -186228.75, -281663.06, 25364.72, 0.049699187, 0.060783345, -179906.14, -127330.94, 0.0000013022876, 9.999713, 9.998511 
4.149708e+2, 3.046334e+2, -67460.19, -104959.18, 18100.969, 0.19290864, -0.034842182, -60148.438, -60148.438, 0.000014575742, 9.999833, 9.999334 
4.149623e+2, 3.1463468e+2, -129133.164, -17578.01, 41636.125, -0.24160118, 0.11570561, -3751.6716, -3751.6716, 0.000055427667, 9.998821, 10.000424 
4.2506364e+2, 1.2465281e+2, -1583400.1, -1642595.3, 182702.97, -0.06701884, 0.1711866, -1427912.9, 290499.78, 0.00012015749, 10.000741, 10.00012 
4.2505467e+2, 1.3465312e+2, -1539432.9, -1546336.9, -144603.66, -0.11269318, 0.11984513, -1398240.0, 222165.2, 0.00006079175, 10.000322, 10.000315 
4.250491e+2, 1.4465216e+2, -1467297.1, -1527821.8, -22455.287, -0.008940458, 0.025695276, -1459876.0, 62534.223, 0.00002257458, 10.000457, 9.999684 
4.2504326e+2, 1.5465088e+2, -1309947.4, -1411920.4, -40512.367, -0.055745132, -0.10625461, -1295811.9, 128606.28, 0.0000044461326, 10.000917, 9.999587 
4.250385e+2, 1.646501e+2, -1285985.1, -1474481.9, 12495.618, -0.0058867796, -0.0794907, -1285160.4, 41265.832, 0.00000009724189, 10.000953, 9.9984665 
4.2503375e+2, 1.7464991e+2, -1254583.6, -1412723.4, 31577.543, 0.020512031, 0.023372423, -1248511.3, -20077.223, 0.0, 10.0005045, 9.998438 
4.250282e+2, 1.8464945e+2, -1050689.5, -1127302.4, 15051.951, 0.008128934, 0.0806463, -1047838.4, 82601.4, 0.0, 10.000635, 9.999665 
4.2502216e+2, 1.9464833e+2, -843339.25, -977545.75, -31612.6, -0.005155139, -0.036410913, -836265.7, 196181.25, 0.0, 10.001384, 9.999662 
4.2501676e+2, 2.046476e+2, -807193.56, -1005322.8, 30372.254, -0.018970028, -0.027887713, -802642.2, 131811.78, 0.0, 10.001383, 9.9987955 
4.2501187e+2, 2.1464707e+2, -845996.2, -981767.44, 50885.344, -0.053492885, 0.010628089, -829042.1, 7421.8135, 0.0, 10.000472, 9.998729 
4.25007e+2, 2.2464693e+2, -754989.4, -815008.2, 43105.63, -0.05223588, 0.10022276, -732475.8, 5992.384, 0.0, 10.000135, 9.99935 
4.25002e+2, 2.346471e+2, -614794.75, -698388.7, 3848.254, -0.020034345, 0.14725997, -614617.94, 25849.535, 0.0, 10.000426, 9.999342 
4.2499754e+2, 2.4464644e+2, -573422.56, -676074.0, 55486.95, 0.0072292285, 0.17371635, -549163.06, -6689.037, 0.0, 10.000237, 9.998915 
4.2499372e+2, 2.5464448e+2, -580643.56, -633536.5, 54485.285, 0.04130805, 0.05454046, -546525.5, -102033.45, 0.0, 9.999529, 9.998878 
4.2498854e+2, 2.646433e+2, -462222.9, -458007.4, 3318.8643, 0.0093287155, 0.026822483, -456183.56, -109681.92, 0.0, 9.999394, 9.999475 
4.2498162e+2, 2.746428e+2, -294358.13, -327837.66, -33314.758, -0.10137311, -0.0056761038, -273813.97, -25310.012, 0.0, 9.999877, 9.999462 
4.2497647e+2, 2.8464207e+2, -201324.6, -368442.6, 38225.086, -0.10556659, 0.039932385, -192996.36, -42486.91, 0.0000000012455732, 10.000443, 9.998224 
4.249739e+2, 2.9464075e+2, -5276.909, -229103.72, 56953.676, 0.0649682, 0.049811885, 8381.703, 60903.53, 0.0000019825331, 10.001114, 9.998195 
4.2497087e+2, 3.0463824e+2, 29318.9, -69566.22, 23733.313, 0.19459979, -0.06476907, 34720.09, 34720.09, 0.000019679212, 10.00055, 9.999234 
4.2496192e+2, 3.1463918e+2, -174678.8, -64727.67, 4632.7764, -0.13478589, 0.06917672, -64532.816, -64532.816, 0.00007104561, 9.998603, 10.000215 
4.3506408e+2, 1.24658234e+2, -1650210.4, -1763444.8, 151181.92, -0.1702717, 0.15296742, -1545391.9, 172963.77, 0.00011272219, 10.000695, 9.999306 
4.3505695e+2, 1.3465655e+2, -1606239.8, -1683926.1, -142324.56, 0.042765282, -0.0013533705, -1497553.0, 122817.805, 0.00005585788, 10.000336, 9.999362 
4.350498e+2, 1.44656e+2, -1453715.8, -1494528.3, -17291.566, -0.028092355, -0.013778557, -1447374.9, 74999.65, 0.000019900395, 10.000424, 9.999933 
4.3504402e+2, 1.5465745e+2, -1283604.8, -1363437.1, -7616.9663, -0.111048706, 0.096045405, -1282884.5, 141473.5, 0.0000034951138, 10.000932, 9.999918 
4.3503916e+2, 1.6465738e+2, -1237649.3, -1353265.6, -18760.293, -0.06761102, 0.13281327, -1234681.4, 91676.07, 0.000000032016867, 10.00087, 9.999334 
4.3503428e+2, 1.7465541e+2, -1203947.4, -1288861.9, 29120.707, -0.011774099, -0.032086253, -1194920.4, 33456.09, 0.0, 10.000428, 9.999321 
4.3502864e+2, 1.8465449e+2, -1126120.9, -1255149.0, 27752.107, -0.04085132, -0.027412098, -1120405.0, 9981.603, 0.0, 10.000513, 9.998847 
4.3502265e+2, 1.9465455e+2, -922681.5, -1110796.9, 12065.417, -0.12744966, 0.06248686, -921910.8, 110478.35, 0.0, 10.001253, 9.998811 
4.350175e+2, 2.046542e+2, -774422.1, -900031.5, -16622.064, -0.11284957, 0.114495285, -772259.7, 162133.13, 0.0, 10.001221, 9.999595 
4.350131e+2, 2.1465312e+2, -810800.1, -870954.4, 30242.266, -0.007620896, 0.0088609345, -798224.9, 38175.934, 0.0, 10.00031, 9.999565 
4.350081e+2, 2.2465235e+2, -818041.44, -908466.5, 39273.836, 0.019389825, 0.018998198, -803365.7, -64956.81, 0.0, 9.999974, 9.998786 
4.3500242e+2, 2.3465164e+2, -680592.06, -796856.3, 29629.543, -0.050325867, 0.03869604, -673476.56, -33056.617, 0.0, 10.00026, 9.998745 
4.3499705e+2, 2.4465106e+2, -575658.9, -650226.75, 16052.28, -0.09119878, 0.09353151, -572350.06, -29922.813, 0.0, 10.000114, 9.999145 
4.349921e+2, 2.5465035e+2, -582882.4, -604543.6, 42368.887, -0.10603749, 0.06851062, -549981.75, -105548.57, 0.0, 9.999392, 9.999136 
4.3498755e+2, 2.646492e+2, -502209.94, -529709.06, 8362.079, -0.057110097, 0.0530534, -499866.8, -153424.19, 0.0, 9.999339, 9.999011 
4.3498337e+2, 2.7464727e+2, -339481.8, -401822.88, 2184.691, 0.051213495, -0.073683456, -339405.34, -90946.21, 0.0, 9.999784, 9.999001 
4.349783e+2, 2.8464633e+2, -178514.83, -305685.88, 51948.92, -0.0027939477, -0.047999665, -159991.83, -9526.109, 0.000000012355592, 10.00039, 9.998675 
4.349729e+2, 2.9464614e+2, 9407.431, -174151.7, 97692.44, -0.18991137, 0.025136357, 51670.027, 104134.64, 0.0000027662056, 10.0010195, 9.998614 
4.3496865e+2, 3.0464336e+2, -14943.178, -162277.14, -58742.688, -0.11134879, -0.104905404, 5610.474, 5610.474, 0.000024180765, 10.000545, 9.998603 
4.3496323e+2, 3.1464395e+2, -286429.56, -268097.7, 18723.86, 0.06384457, 0.055624068, -256416.63, -256416.63, 0.00008333817, 9.998484, 9.998874 
4.4506514e+2, 1.24662764e+2, -1653694.1, -1782605.0, 170977.14, -0.11754724, 0.06940312, -1535426.6, 182879.98, 0.00010688196, 10.000797, 9.99911 
4.4505927e+2, 1.3466127e+2, -1434158.4, -1626377.9, -118633.58, 0.19251677, -0.04088204, -1377588.8, 242733.45, 0.000051033883, 10.001652, 9.9991255 
4.4505036e+2, 1.4466088e+2, -1285899.8, -1434971.1, 38725.695, -0.06613688, -0.014038208, -1276439.9, 245886.25, 0.000017295639, 10.001664, 9.999742 
4.45045e+2, 1.5466218e+2, -1360154.0, -1420035.4, -30051.365, -0.07234611, 0.09418245, -1347673.9, 76638.98, 0.0000027656245, 10.000486, 9.9997425 
4.4504017e+2, 1.6466229e+2, -1292324.1, -1303200.3, -14881.309, -0.008246214, 0.124879114, -1281918.4, 44391.176, 0.000000035556127, 10.000134, 10.00005 
4.4503477e+2, 1.7466092e+2, -1106384.6, -1160456.9, -3116.0183, -0.011656635, -0.054699037, -1106205.6, 122113.68, 0.0, 10.000728, 10.00007 
4.450291e+2, 1.8466032e+2, -1108816.3, -1258397.1, 41792.684, -0.046387967, -0.051821616, -1097931.5, 32394.373, 0.0, 10.000704, 9.998719 
4.4502372e+2, 1.9466023e+2, -1134573.4, -1231673.3, 46448.93, -0.06785939, 0.040911898, -1115932.6, -83600.59, 0.0, 9.999892, 9.998627 
4.4501862e+2, 2.0465982e+2, -966811.75, -981299.2, 45946.645, -0.045420803, 0.09363949, -927541.3, 6795.698, 0.0, 9.999876, 9.999674 
4.4501376e+2, 2.1465878e+2, -739925.06, -824002.9, 5122.231, 0.013114198, -0.014174835, -739614.1, 96729.234, 0.0, 10.000754, 9.999664 
4.4500843e+2, 2.246579e+2, -714906.2, -881935.5, 12689.908, 0.021124654, -0.010398497, -713947.6, 24404.707, 0.0, 10.000782, 9.998577 
4.4500262e+2, 2.346569e+2, -763004.1, -864699.6, 3051.1235, -0.023422409, 0.0031379543, -762912.7, -122545.44, 0.0, 9.999813, 9.998494 
4.4499707e+2, 2.4465634e+2, -655973.75, -683277.0, 31459.951, -0.063604966, 0.068781056, -635331.1, -92956.25, 0.0, 9.999532, 9.999201 
4.4499183e+2, 2.5465605e+2, -491234.84, -551223.4, 15645.928, -0.09549842, 0.07919774, -487399.38, -43022.99, 0.0, 9.99998, 9.999218 
4.4498757e+2, 2.6465502e+2, -406591.75, -513925.38, 19184.178, -0.02024329, 0.08343916, -403265.94, -56880.75, 0.0, 10.000137, 9.998725 
4.4498435e+2, 2.746529e+2, -322048.22, -428767.8, -4220.964, 0.16629554, -0.033930168, -321881.53, -73476.41, 0.0, 10.000062, 9.998677 
4.449795e+2, 2.8465158e+2, -245689.11, -339201.53, 59724.99, 0.11094316, -0.023457052, -216595.34, -66179.875, 0.00000003062236, 9.999918, 9.998682 
4.4497347e+2, 2.9465097e+2, -211047.28, -269103.16, 34094.29, -0.14365014, 0.005646187, -195297.53, -142879.53, 0.0000032986038, 9.99947, 9.998704 
4.4496784e+2, 3.0464882e+2, -165885.88, -223806.33, -100800.06, -0.17811488, -0.078220755, -89968.33, -89968.33, 0.000027227657, 9.999458, 9.998692 
4.449635e+2, 3.1464905e+2, -74797.61, -196954.84, 7144.154, 0.17858236, 0.038906783, -74381.21, -74381.21, 0.000091368296, 10.000084, 9.998576 
4.5506585e+2, 1.2466638e+2, -1632792.3, -1743223.8, 111364.266, -0.20746517, -0.094337665, -1563706.8, 154559.08, 0.000102696926, 10.000806, 9.999378 
4.5506105e+2, 1.3466722e+2, -1400753.5, -1571915.9, -68935.21, 0.16502967, -0.005985968, -1376442.9, 243816.94, 0.000047349753, 10.0016985, 9.999482 
4.5505026e+2, 1.4466663e+2, -1336002.3, -1525934.8, -11752.282, -0.28614444, 0.011683694, -1335277.9, 186988.94, 0.000015080613, 10.0016165, 9.999138 
4.5504585e+2, 1.5466495e+2, -1411083.5, -1517008.8, -57394.785, -0.07605704, -0.1111234, -1385948.8, 38334.633, 0.0000021144335, 10.000458, 9.999087 
4.5504105e+2, 1.6466485e+2, -1255179.3, -1213840.1, -11932.213, 0.033020638, -0.098776974, -1210643.3, 115639.266, 0.00000004449902, 10.000074, 10.000692 
4.550348e+2, 1.7466648e+2, -1062732.0, -1065142.8, 35259.996, -0.114763066, -0.04839534, -1028656.8, 199605.89, 0.0, 10.0007, 10.000739 
4.550292e+2, 1.8466687e+2, -1090473.4, -1195540.9, -1332.021, -0.14070939, -0.0032536767, -1090456.5, 39801.445, 0.0, 10.0006, 9.999197 
4.5502487e+2, 1.9466543e+2, -1125248.1, -1175381.5, 27841.621, 0.027323412, -0.094316676, -1112851.5, -80576.65, 0.0, 9.99974, 9.999081 
4.5501965e+2, 2.0466456e+2, -1037584.4, -1091308.8, 61980.742, 0.044108678, -0.078507535, -996895.2, -62609.676, 0.0, 9.999713, 9.998999 
4.5501333e+2, 2.1466412e+2, -817218.56, -935299.6, 52697.406, -0.131015, -0.05589539, -797121.25, 39169.582, 0.0, 10.000547, 9.998997 
4.5500752e+2, 2.2466367e+2, -731550.2, -879677.8, -34426.47, -0.17372176, 0.020476442, -723940.06, 14357.649, 0.0, 10.000615, 9.998679 
4.5500216e+2, 2.346629e+2, -773296.7, -852869.9, -17941.832, -0.08100619, 0.040784553, -769438.4, -129128.96, 0.0, 9.999664, 9.99865 
4.549971e+2, 2.4466231e+2, -682339.44, -703404.8, 34200.605, -0.040179167, 0.09989589, -657086.4, -114769.79, 0.0, 9.999392, 9.999134 
4.5499247e+2, 2.546616e+2, -516024.56, -567967.7, 48650.01, -0.057228047, 0.07803458, -486847.72, -42525.75, 0.0, 9.999832, 9.99918 
4.549882e+2, 2.6466072e+2, -436883.34, -553821.94, 5887.062, -0.0013275734, 0.109521225, -436587.72, -90257.56, 0.0, 10.000043, 9.998491 
4.5498416e+2, 2.7465948e+2, -358875.1, -477772.25, 12240.804, 0.10788817, 0.10411945, -357627.94, -109284.81, 0.0, 9.999948, 9.99839 
4.549797e+2, 2.8465787e+2, -279597.72, -401479.1, 30502.477, 0.10576668, 0.11659121, -272390.28, -122031.68, 0.000000022691747, 9.999872, 9.9982815 
4.5497522e+2, 2.9465523e+2, -240105.84, -321566.97, 33404.332, 0.039804507, -0.012013587, -228159.77, -175777.69, 0.0000033720132, 9.999413, 9.998382 
4.549679e+2, 3.0465436e+2, -112116.94, -99038.3, -86135.02, -0.15250947, 0.0018477689, -19194.72, -19194.72, 0.000028360193, 9.999417, 9.999558 
4.5496193e+2, 3.1465417e+2, -39898.51, -101473.375, 69054.234, -0.06011654, -0.012783472, 4920.626, 4920.626, 0.00009465621, 9.999987, 9.999274 
4.650666e+2, 1.24671884e+2, -1756715.8, -1784184.1, 112867.586, -0.15117899, -0.12097916, -1656749.9, 61460.3, 0.00009773488, 9.999832, 9.999565 
4.650625e+2, 1.346734e+2, -1559567.4, -1627769.4, -27063.873, 0.21737164, 0.005875578, -1550133.0, 70065.08, 0.000043477085, 10.000474, 9.9997 
4.6505073e+2, 1.4467283e+2, -1444198.4, -1578812.3, 41265.09, -0.3555247, 0.01291083, -1432555.8, 89648.87, 0.000012657647, 10.000878, 9.999133 
4.6504694e+2, 1.5467048e+2, -1331425.1, -1478376.0, 4473.894, -0.027763579, -0.17462824, -1331289.1, 92937.23, 0.0000014631825, 10.001008, 9.99909 
4.6504205e+2, 1.6467023e+2, -1191738.9, -1212182.9, 89307.37, 0.10682172, -0.16506985, -1112070.5, 214156.78, 0.000000030371112, 10.000654, 10.000414 
4.6503514e+2, 1.7467219e+2, -1224096.5, -1173689.1, 31712.158, -0.096452, -0.053225443, -1158385.0, 69821.52, 0.0, 9.999738, 10.000452 
4.6502936e+2, 1.8467274e+2, -1188253.4, -1200477.3, -9721.156, -0.13030033, 0.0040346486, -1182882.4, -52682.137, 0.0, 9.999721, 9.999603 
4.6502537e+2, 1.9467138e+2, -960338.94, -1048512.44, -8384.207, 0.068169504, -0.12289231, -959548.75, 72665.375, 0.0, 10.00064, 9.9995365 
4.6502018e+2, 2.046706e+2, -900679.4, -1057432.3, 71706.914, 0.07826127, -0.110036224, -872826.1, 61397.59, 0.0, 10.000776, 9.998724 
4.6501344e+2, 2.146702e+2, -915944.75, -1023203.94, 59397.926, -0.13842212, -0.050982516, -889547.8, -53316.793, 0.0, 10.000029, 9.9986515 
4.650077e+2, 2.2466981e+2, -813813.06, -909566.75, 10070.638, -0.18174963, 0.047115795, -812765.3, -74527.5, 0.0, 10.000025, 9.998744 
4.6500286e+2, 2.346692e+2, -587841.56, -754230.4, -9275.608, -0.031758886, 0.0749944, -587326.06, 52920.625, 0.0, 10.000914, 9.998716 
4.649979e+2, 2.4466817e+2, -471282.22, -645405.25, 51421.082, 0.026366455, 0.10586038, -457230.75, 85026.875, 0.0, 10.0010195, 9.998742 
4.6499288e+2, 2.5466642e+2, -487960.34, -601736.3, 11694.476, -0.009701869, 0.02153715, -486770.78, -42497.18, 0.0, 10.000222, 9.9987545 
4.6498832e+2, 2.6466542e+2, -436220.1, -553726.44, 1686.9235, 0.013608821, 0.06304871, -436195.88, -89912.164, 0.0, 10.000026, 9.998514 
4.6498403e+2, 2.746651e+2, -291143.97, -440765.9, 5617.682, 0.088821515, 0.14272325, -290933.34, -42644.17, 0.0, 10.0003805, 9.998446 
4.6497977e+2, 2.846638e+2, -244885.83, -373447.84, 58653.105, 0.1275586, 0.17939459, -222148.25, -71845.805, 0.00000001636591, 10.00007, 9.998373 
4.64976e+2, 2.9466093e+2, -270517.75, -313086.28, 52875.61, 0.202115, 0.012496871, -234803.33, -182474.23, 0.0000038591365, 9.999118, 9.9985695 
4.6496776e+2, 3.0466062e+2, -169042.44, -131070.555, -799.59045, -0.07644936, 0.07703175, -131053.73, -131053.73, 0.000029778155, 9.999004, 9.999572 
4.649617e+2, 3.1465948e+2, -64772.88, -56140.645, 21811.838, -0.04249856, -0.02556782, -38221.99, -38221.99, 0.00009717631, 9.999549, 9.999819 
4.7506633e+2, 1.2467916e+2, -1759729.5, -1753064.8, -33647.883, -0.24254487, -0.009222421, -1722584.6, -4444.096, 0.00009217974, 9.999705, 9.9998255 
4.7506323e+2, 1.346798e+2, -1544314.6, -1585901.1, 15944.174, 0.20545465, 0.0025333047, -1538905.3, 81231.8, 0.00003847725, 10.000459, 9.999978 
4.7505116e+2, 1.4467949e+2, -1403275.6, -1493405.4, 29583.69, -0.44570827, -0.004456712, -1394432.9, 127706.516, 0.000009911169, 10.000857, 9.999739 
4.750478e+2, 1.546787e+2, -1279602.8, -1380230.4, 23869.064, -0.08161546, -0.10319185, -1274228.0, 149914.33, 0.0000009593812, 10.001034, 9.999759 
4.750428e+2, 1.646783e+2, -1285697.8, -1392516.5, 41677.133, 0.081007004, -0.085442156, -1271361.0, 54784.14, 0.000000014696447, 10.000592, 9.99921 
4.7503528e+2, 1.7467797e+2, -1323104.8, -1365464.3, 13725.119, -0.086933814, -0.06840782, -1319046.4, -90894.88, 0.0, 9.999681, 9.9991665 
4.7502908e+2, 1.8467796e+2, -1171648.8, -1145241.9, 10000.785, -0.15947552, -0.019962538, -1141881.9, -11729.513, 0.0, 9.999626, 10.0000305 
4.750248e+2, 1.9467808e+2, -940692.0, -985903.0, 42291.46, -0.08371145, -0.04719624, -915343.6, 116805.92, 0.0, 10.000541, 10.000018 
4.7501972e+2, 2.0467788e+2, -917426.4, -1056181.3, 32328.842, -0.07204038, -0.003241299, -910263.75, 23888.172, 0.0, 10.000627, 9.9988 
4.7501367e+2, 2.1467705e+2, -937726.3, -1023989.1, 46927.652, -0.15017416, 0.0034253765, -917119.8, -80956.53, 0.0, 9.9998455, 9.998729 
4.7500846e+2, 2.2467634e+2, -835322.75, -926094.25, 27876.516, -0.1374555, 0.06638309, -827445.3, -89272.97, 0.0, 9.999889, 9.998704 
4.7500426e+2, 2.346756e+2, -613071.9, -770751.1, 39332.477, -0.01520648, 0.086650915, -603805.2, 36375.434, 0.0, 10.000752, 9.998684 
4.7499895e+2, 2.4467377e+2, -541027.3, -763703.25, 11269.6875, 0.0006515379, 0.074058026, -540458.4, 1740.9949, 0.0, 10.000899, 9.997991 
4.7499254e+2, 2.546704e+2, -562895.44, -732524.0, -2112.5903, -0.09938943, -0.09575203, -562869.1, -118636.17, 0.0, 10.000101, 9.99792 
4.7498742e+2, 2.6466912e+2, -425999.25, -505969.03, -35.843086, -0.10765517, -0.05868418, -425999.22, -79752.13, 0.0, 9.999922, 9.998886 
4.7498348e+2, 2.7466974e+2, -276139.4, -381575.72, 35762.65, -0.03732522, 0.07655062, -265153.78, -16910.684, 0.0, 10.000272, 9.9989 
4.7497934e+2, 2.846693e+2, -215154.31, -307211.9, 8870.19, 0.043347325, 0.1552496, -214307.42, -64059.883, 0.0000000367379, 10.00004, 9.998846 
4.7497535e+2, 2.9466766e+2, -254577.83, -260224.75, 33645.32, 0.18043599, 0.058217555, -223637.7, -171375.44, 0.000004901276, 9.999012, 9.998994 
4.7496694e+2, 3.046674e+2, -236815.6, -244969.05, 5167.611, -0.081667244, 0.1447855, -234310.23, -234310.23, 0.000032907166, 9.998908, 9.998827 
4.7496188e+2, 3.1466496e+2, -50095.93, -2712.7988, 45183.793, -0.054372158, -0.011414228, 24613.922, 24613.922, 0.00010232853, 9.999467, 10.000215 
4.850672e+2, 1.246862e+2, -1851400.8, -1777378.5, -57587.36, -0.072308026, 0.03330885, -1745934.4, -27861.643, 0.00008688649, 9.99899, 10.000019 
4.8506385e+2, 1.346863e+2, -1558408.0, -1579455.0, 50811.86, 0.24327105, -0.014281439, -1517041.4, 103032.35, 0.000032757685, 10.000297, 10.00012 
4.8505235e+2, 1.446863e+2, -1387147.4, -1471974.9, 51040.707, -0.40735653, -0.0037612282, -1363197.9, 158874.94, 0.000007215262, 10.000919, 9.999847 
4.850492e+2, 1.546863e+2, -1265767.4, -1366434.9, -34493.793, -0.03740351, -0.03397194, -1255082.3, 168986.23, 0.00000059770906, 10.001096, 9.999823 
4.8504397e+2, 1.6468571e+2, -1248138.8, -1415674.0, -3019.523, 0.12764053, -0.020009149, -1248084.3, 77988.91, 0.0000000048834687, 10.001039, 9.99883 
4.8503605e+2, 1.7468415e+2, -1198453.4, -1345233.8, 8738.526, -0.023323799, -0.08874029, -1197935.0, 30156.535, 0.0, 10.0007305, 9.998786 
4.8502952e+2, 1.8468376e+2, -1067292.0, -1111909.0, 79635.6, -0.11222966, -0.053143505, -1006899.25, 123196.98, 0.0, 10.00044, 9.999849 
4.8502487e+2, 1.9468445e+2, -1013012.56, -1034132.1, 37548.844, -0.099157766, -0.010854686, -984566.94, 47521.176, 0.0, 10.000128, 9.999864 
4.8501986e+2, 2.0468424e+2, -980531.25, -1086175.9, 9252.01, -0.08875328, 0.040892042, -979727.1, -45637.266, 0.0, 10.000176, 9.998828 
4.850145e+2, 2.1468279e+2, -846226.25, -971910.2, -1746.657, -0.0736144, -0.018645355, -846202.0, -10096.218, 0.0, 10.000434, 9.998813 
4.8500946e+2, 2.246817e+2, -765443.8, -905454.5, 20668.408, -0.043513916, 0.0073334896, -762456.5, -24338.713, 0.0, 10.0004225, 9.998594 
4.850048e+2, 2.3468076e+2, -717569.94, -839512.6, -3383.5813, 0.0076475698, 0.023762034, -717476.1, -77347.914, 0.0, 10.000094, 9.998539 
4.8499948e+2, 2.4467908e+2, -655565.75, -820745.3, 4120.885, 0.01038548, 0.03516322, -655463.0, -113316.93, 0.0, 10.000122, 9.997974 
4.849934e+2, 2.546764e+2, -505134.53, -703257.25, 15259.365, -0.03616259, -0.06389915, -503966.16, -59792.156, 0.0, 10.000507, 9.997923 
4.8498803e+2, 2.6467514e+2, -374443.97, -492324.1, 58725.605, -0.049380973, -0.016956279, -350181.7, -3993.6191, 0.0, 10.000322, 9.998786 
4.8498338e+2, 2.74675e+2, -396092.4, -452803.28, 23429.285, -0.027422307, 0.0553897, -387665.22, -139473.81, 0.0, 9.9994955, 9.99879 
4.8497888e+2, 2.8467444e+2, -310063.13, -322859.03, -1311.5334, 0.0408799, 0.1080044, -309930.06, -159732.86, 0.00000008825205, 9.999249, 9.999121 
4.8497483e+2, 2.946735e+2, -147024.61, -180236.42, -27554.412, 0.2074997, 0.054600853, -131459.08, -79255.01, 0.0000056092463, 9.999626, 9.999247 
4.849664e+2, 3.046728e+2, -128749.7, -219102.52, 13418.685, -0.055519752, 0.09662062, -126798.95, -126798.95, 0.000035389916, 9.999756, 9.9985895 
4.8496255e+2, 3.146707e+2, -31706.932, 23027.945, 12827.527, 0.079140715, 0.0012826466, 25885.035, 25885.035, 0.00010599746, 9.999507, 10.000372 
4.950677e+2, 1.2469291e+2, -1835277.1, -1758419.3, -193138.92, -0.0044757496, 0.0113853365, -1599923.3, 118084.27, 0.00007926606, 9.999046, 10.000124 
4.9506375e+2, 1.3469294e+2, -1551411.8, -1570536.6, 111484.1, 0.17322455, -0.05251938, -1449080.8, 170927.28, 0.000026309035, 10.000317, 10.00017 
4.9505377e+2, 1.4469329e+2, -1432222.5, -1548438.1, 41686.85, -0.39790624, 0.013798448, -1418815.9, 103188.98, 0.0000047383246, 10.000849, 9.999356 
4.9505064e+2, 1.5469338e+2, -1308586.0, -1445213.4, -11807.089, -0.043165334, 0.04552345, -1307573.3, 116430.47, 0.0000002991547, 10.00106, 9.999296 
4.950451e+2, 1.6469264e+2, -1220181.1, -1346880.0, -29397.012, 0.10226315, 0.047247194, -1213692.8, 112317.195, 0.0000000005507737, 10.000986, 9.9993305 
4.9503702e+2, 1.7469071e+2, -1167550.1, -1270166.5, 9517.467, -0.031364422, -0.11368472, -1166674.9, 61351.926, 0.0, 10.00068, 9.999327 
4.9503028e+2, 1.8469e+2, -1135775.5, -1230122.8, 55061.06, -0.10986853, -0.09956786, -1110443.5, 19589.69, 0.0, 10.0003395, 9.999084 
4.9502516e+2, 1.9469035e+2, -1085212.5, -1160053.9, 38709.86, -0.119020686, -0.008656464, -1068793.0, -36762.16, 0.0, 10.000023, 9.999051 
4.950202e+2, 2.0468965e+2, -995860.9, -1084946.3, 2723.2202, -0.09847076, 0.028213307, -995777.75, -61739.957, 0.0, 10.000026, 9.998913 
4.950155e+2, 2.1468747e+2, -860328.94, -970687.9, 23394.344, -0.045519784, -0.11353874, -855574.56, -19516.92, 0.0, 10.000289, 9.998897 
4.9501017e+2, 2.2468583e+2, -809517.56, -956659.75, -2625.5498, -0.041570786, -0.13227312, -809470.75, -71396.25, 0.0, 10.0002575, 9.998317 
4.9500415e+2, 2.3468459e+2, -762420.56, -891197.7, 2067.5378, -0.09981706, -0.12311735, -762387.4, -122296.97, 0.0, 9.999918, 9.998266 
4.9499902e+2, 2.4468414e+2, -627300.56, -728295.94, 4612.148, -0.07955551, -0.008194836, -627090.4, -84993.03, 0.0, 9.999986, 9.9986725 
4.9499494e+2, 2.5468424e+2, -470539.66, -605257.9, 46630.074, 0.032852124, 0.102374926, -455974.34, -11876.554, 0.0, 10.000394, 9.998651 
4.9498975e+2, 2.646833e+2, -432038.0, -585913.56, 13562.804, 0.057278827, 0.17235062, -430851.7, -84742.91, 0.0, 10.000221, 9.998186 
4.949832e+2, 2.746809e+2, -466452.34, -559522.8, 8780.447, -0.02764425, 0.07761193, -465631.22, -217496.64, 0.0, 9.999339, 9.998126 
4.9497783e+2, 2.846793e+2, -313012.53, -310771.44, -81.9971, -0.022002136, 0.05752095, -310768.44, -160618.94, 0.00000018947561, 9.999175, 9.999237 
4.94974e+2, 2.9467845e+2, -149306.0, -169065.94, 5962.7505, 0.11994882, 0.0014981279, -147646.11, -95491.94, 0.000005650319, 9.999564, 9.999349 
4.949658e+2, 3.046768e+2, -107185.64, -177537.55, -2378.9414, -0.124335535, -0.07032098, -107105.29, -107105.29, 0.00003451672, 9.99976, 9.998875 
4.9496263e+2, 3.1467667e+2, -48197.81, 9096.927, 28580.008, 0.061188754, -0.008271749, 20915.453, 20915.453, 0.00010176044, 9.999416, 10.000317 
5.050681e+2, 1.2470003e+2, -1790774.3, -1738571.9, -162343.33, 0.13346131, -0.022234555, -1600244.9, 117690.69, 0.000066640154, 9.999387, 10.000077 
5.050635e+2, 1.3469994e+2, -1553938.0, -1595873.1, 149251.28, 0.1228702, -0.07810007, -1424188.6, 195748.14, 0.0000195532, 10.000402, 9.999951 
5.0505567e+2, 1.4470018e+2, -1497845.0, -1588633.5, 74845.33, -0.26153663, -0.0047290376, -1455703.8, 66231.17, 0.0000028130235, 10.000449, 9.999268 
5.050512e+2, 1.5470006e+2, -1486480.3, -1536493.8, 15943.966, -0.023679346, 0.013581349, -1481829.8, -57892.45, 0.00000011765629, 9.999879, 9.999233 
5.0504535e+2, 1.6469942e+2, -1357754.1, -1400803.3, 49603.113, 0.08593227, 0.023681225, -1325206.8, 735.91046, 0.000000000026416515, 9.999977, 9.99945 
5.0503826e+2, 1.7469792e+2, -1143748.0, -1246263.4, 29578.322, 0.027761249, -0.105288595, -1135826.0, 92128.29, 0.0, 10.0007715, 9.999453 
5.050317e+2, 1.8469705e+2, -1066252.6, -1228105.1, 81639.055, -0.02573296, -0.101062395, -1032226.75, 97735.02, 0.0, 10.000939, 9.99882 
5.050258e+2, 1.9469662e+2, -1056728.9, -1177454.9, 79556.26, -0.06250746, -0.05686264, -1017227.56, 14739.497, 0.0, 10.000346, 9.998784 
5.0502056e+2, 2.0469566e+2, -981098.0, -1077759.6, 108871.516, -0.061040178, -0.030799668, -910311.8, 23664.719, 0.0, 10.000154, 9.99888 
5.05016e+2, 2.146938e+2, -861472.6, -973348.75, 84052.65, -0.0092854565, -0.13777162, -816445.8, 19547.486, 0.0, 10.000317, 9.998849 
5.050108e+2, 2.2469227e+2, -787781.7, -959098.6, 74924.305, -0.0033498856, -0.13647662, -759637.56, -21628.064, 0.0, 10.000456, 9.998211 
5.0500476e+2, 2.3469096e+2, -696197.1, -864103.1, 60404.445, -0.043377563, -0.121899694, -676724.8, -36698.14, 0.0, 10.000418, 9.998202 
5.049996e+2, 2.4469058e+2, -565908.4, -694631.6, 90816.23, -0.028518323, -0.00081263034, -518959.6, 23073.813, 0.0, 10.000381, 9.998715 
5.049955e+2, 2.5469086e+2, -469327.94, -596974.8, 55115.414, 0.0650199, 0.1181577, -448823.78, -4791.7695, 0.0, 10.000368, 9.998719 
5.0499016e+2, 2.646897e+2, -419709.78, -594467.56, 22720.273, 0.07938808, 0.1716998, -416804.25, -70759.98, 0.0, 10.000351, 9.998079 
5.049832e+2, 2.7468678e+2, -344573.44, -514763.63, 21560.197, 0.0042706914, 0.0376634, -341884.63, -93810.24, 0.00000000061010413, 10.000219, 9.998017 
5.0497776e+2, 2.8468505e+2, -211936.94, -286412.47, 73014.25, 0.024590168, 0.019542411, -167212.94, -17121.92, 0.00000027597625, 9.999976, 9.999023 
5.0497407e+2, 2.9468444e+2, -158542.27, -202657.9, 17371.406, 0.17508695, 0.011361352, -152523.17, -100428.266, 0.0000049916057, 9.999626, 9.999097 
5.0496566e+2, 3.046827e+2, -110176.26, -155733.67, 23482.37, -0.096467674, -0.06491538, -100239.664, -100239.664, 0.000030276777, 9.999648, 9.999077 
5.049624e+2, 3.1468287e+2, -32163.873, -11446.181, -35496.992, 0.09546669, 0.0013558707, 15172.563, 15172.563, 0.000090633286, 9.99965, 10.000063 
5.150673e+2, 1.24707684e+2, -1803998.1, -1780304.1, -217456.9, 0.026581468, -0.0546407, -1574371.8, 143483.97, 0.000052165007, 9.999432, 9.999774 
5.150625e+2, 1.3470736e+2, -1583801.9, -1669175.0, 200046.69, -0.049837604, -0.0892917, -1421938.1, 197921.19, 0.000013925394, 10.000444, 9.999431 
5.1505756e+2, 1.4470702e+2, -1480185.8, -1549294.1, 33541.234, -0.16147554, -0.05919825, -1466583.9, 55278.867, 0.000001645238, 10.000431, 9.999552 
5.150505e+2, 1.5470625e+2, -1469133.1, -1493303.6, 10823.641, -0.11452366, -0.13556671, -1464994.8, -41124.71, 0.00000003629146, 9.999847, 9.999548 
5.150443e+2, 1.6470599e+2, -1389052.3, -1445849.8, 65266.313, -0.05363799, -0.09256505, -1346273.9, -20401.44, 0.0, 9.999895, 9.999175 
5.150392e+2, 1.747059e+2, -1176291.9, -1296500.8, 74768.75, 0.00840572, -0.056881376, -1140464.5, 87409.01, 0.0, 10.000707, 9.999133 
5.150332e+2, 1.8470511e+2, -1061087.5, -1195365.0, 46384.664, -0.0005026107, -0.039951283, -1046622.7, 83257.52, 0.0, 10.000841, 9.999089 
5.150264e+2, 1.9470331e+2, -1046454.7, -1141191.5, 72614.73, -0.07471993, -0.16466075, -1007124.4, 24771.771, 0.0, 10.000272, 9.999068 
5.1502055e+2, 2.047022e+2, -1028020.0, -1137029.0, 99599.625, -0.10776605, -0.15203522, -968986.75, -35079.707, 0.0, 9.9999895, 9.998553 
5.150158e+2, 2.1470158e+2, -906182.0, -1029461.9, 103772.19, -0.09691978, -0.104245275, -847123.4, -11208.637, 0.0, 10.0001545, 9.998543 
5.1501113e+2, 2.2470085e+2, -800587.8, -956941.25, 57251.723, -0.04813527, -0.013215813, -781865.9, -43941.375, 0.0, 10.000321, 9.998298 
5.1500624e+2, 2.3469979e+2, -709295.4, -862122.9, 74024.93, 0.029286798, 0.01674704, -679319.5, -39380.984, 0.0, 10.000283, 9.998287 
5.150008e+2, 2.446983e+2, -617945.4, -778045.2, 76490.03, 0.018281631, 0.05126207, -587276.2, -45320.996, 0.0, 10.000278, 9.99819 
5.149947e+2, 2.546961e+2, -528207.7, -687522.8, 71058.22, -0.09404399, -0.025462693, -501119.78, -57142.188, 0.0, 10.000225, 9.998168 
5.149888e+2, 2.6469436e+2, -408101.03, -545872.2, 4145.865, -0.12486983, -0.023386447, -407976.38, -61981.434, 0.0, 10.000253, 9.998462 
5.1498306e+2, 2.7469268e+2, -329191.97, -462300.88, 38007.254, -0.06627949, -0.069290444, -319104.1, -71092.7, 0.0000000018853024, 10.000124, 9.998429 
5.149783e+2, 2.8469172e+2, -259061.63, -374543.06, 45220.617, 0.04074811, -0.0025343667, -243461.39, -93439.43, 0.00000034894228, 9.99994, 9.998431 
5.1497436e+2, 2.9469144e+2, -219380.92, -307490.84, 26353.266, 0.19764736, 0.0835268, -212100.38, -160073.31, 0.000004315403, 9.99953, 9.998422 
5.1496536e+2, 3.0469045e+2, -107914.055, -134571.95, 18480.533, -0.12584905, 0.10855557, -98457.24, -98457.24, 0.000026122347, 9.999597, 9.999245 
5.149609e+2, 3.1468898e+2, -83582.17, -84505.805, -13107.491, -0.09120353, 0.0029555212, -70928.37, -70928.37, 0.000081293096, 9.999526, 9.999619 
5.250678e+2, 1.2471439e+2, -1594356.3, -1685646.0, -218421.75, 0.08078723, -0.106471956, -1416861.0, 300926.06, 0.000041919076, 10.000896, 9.999712 
5.2506214e+2, 1.3471393e+2, -1621871.8, -1707487.6, 139831.4, -0.11242291, -0.13422896, -1518442.4, 101348.77, 0.000010470756, 10.000275, 9.999243 
5.2506006e+2, 1.4471333e+2, -1527023.6, -1578379.8, 17026.102, 0.068867184, -0.11839834, -1521891.8, -94.44197, 0.0000009776196, 10.000136, 9.999495 
5.2505136e+2, 1.5471274e+2, -1295063.0, -1414146.3, -64783.234, -0.06298785, -0.17392607, -1266615.5, 157188.58, 0.000000005050013, 10.001057, 9.999506 
5.250444e+2, 1.6471253e+2, -1221517.0, -1381522.6, 3884.6072, -0.08354622, -0.11498444, -1221422.8, 104384.1, 0.0, 10.001111, 9.99904 
5.250396e+2, 1.747124e+2, -1258613.4, -1353148.9, -7774.407, 0.016300999, -0.06622699, -1257978.3, -30169.645, 0.0, 10.000196, 9.9990015 
5.25034e+2, 1.8471155e+2, -1170757.3, -1258908.0, -9462.072, 0.04038266, -0.044334516, -1169753.0, -39936.293, 0.0, 10.000142, 9.998995 
5.250275e+2, 1.9470964e+2, -961462.1, -1107839.3, -45022.313, -0.011765368, -0.16553265, -948722.94, 83111.34, 0.0, 10.000916, 9.998986 
5.250217e+2, 2.0470856e+2, -861385.6, -1055243.8, 495.90686, -0.045020774, -0.1466187, -861384.4, 72460.875, 0.0, 10.001113, 9.998577 
5.250165e+2, 2.1470807e+2, -839182.4, -997808.8, 5972.67, -0.05796451, -0.08745824, -838957.8, -3106.1387, 0.0, 10.000601, 9.99855 
5.250116e+2, 2.2470748e+2, -773254.7, -909027.3, 14420.421, -0.026796293, 0.002490946, -771740.0, -33880.69, 0.0, 10.000386, 9.998576 
5.2500683e+2, 2.3470643e+2, -650350.7, -805555.56, 13024.73, 0.054260887, 0.007979072, -649265.25, -9393.654, 0.0, 10.000571, 9.998533 
5.2500135e+2, 2.4470483e+2, -579383.7, -760182.6, 57442.65, 0.04209471, 0.0178561, -562677.06, -20788.525, 0.0, 10.000541, 9.998195 
5.24995e+2, 2.5470248e+2, -528290.4, -686570.25, 64109.85, -0.06963569, -0.07284081, -505581.4, -61669.285, 0.0, 10.000226, 9.998177 
5.2498895e+2, 2.6470074e+2, -444819.7, -550665.5, 40501.254, -0.10547444, -0.07663324, -431100.38, -85171.15, 0.0, 9.999949, 9.998565 
5.249832e+2, 2.7469933e+2, -383739.22, -466009.03, 19614.254, -0.030049976, -0.11015832, -379302.22, -131359.48, 0.00000000009174081, 9.999685, 9.998592 
5.249784e+2, 2.846985e+2, -295672.44, -398027.28, 76907.05, 0.07545717, -0.03825834, -254471.17, -104518.9, 0.00000033351301, 9.999718, 9.998372 
5.249741e+2, 2.9469815e+2, -145370.75, -277215.6, 67140.49, 0.20435932, 0.045196153, -117199.54, -65240.586, 0.0000041082662, 10.000064, 9.998366 
5.249652e+2, 3.0469772e+2, -24018.986, -107124.0, 100454.56, -0.11265922, 0.13449535, 43137.887, 43137.887, 0.000024723933, 10.000216, 9.999146 
5.2496076e+2, 3.1469554e+2, -89725.67, -92418.945, -53654.105, -0.03682849, -0.02714977, -37401.31, -37401.31, 0.00007789345, 9.9994955, 9.99959 
5.3506875e+2, 1.24720044e+2, -1565678.4, -1638381.1, -219263.67, -0.0077246875, -0.18610276, -1379773.1, 337957.03, 0.000035694404, 10.000958, 10.000004 
5.3506184e+2, 1.3471974e+2, -1621176.6, -1698639.5, 120591.14, -0.19915275, -0.20348158, -1533249.8, 86481.414, 0.000008273398, 10.000244, 9.999325 
5.3506255e+2, 1.4471923e+2, -1562222.8, -1638051.8, 32440.031, 0.26309958, -0.166369, -1550238.8, -28501.227, 0.00000061502607, 10.000076, 9.999108 
5.350533e+2, 1.5471958e+2, -1331303.3, -1482469.3, -14916.388, -0.01335701, -0.090908095, -1329845.5, 93893.32, 0.00000000036285042, 10.001025, 9.999049 
5.3504527e+2, 1.6471906e+2, -1231425.8, -1389033.9, -46107.613, -0.13801788, -0.038712863, -1218928.1, 106817.57, 0.0, 10.001054, 9.999017 
5.3503925e+2, 1.747174e+2, -1264436.9, -1357875.1, -26926.29, -0.07772158, -0.1395459, -1257233.0, -29472.498, 0.0, 10.000162, 9.99899 
5.350337e+2, 1.8471633e+2, -1218317.9, -1338804.9, 4684.33, -0.036948513, -0.11443839, -1218136.1, -88364.555, 0.0, 10.000061, 9.998484 
5.3502876e+2, 1.9471556e+2, -1015912.75, -1199548.4, -43.125374, -0.008220399, -0.06987263, -1015912.75, 15869.26, 0.0, 10.000816, 9.998407 
5.350234e+2, 2.0471472e+2, -856708.2, -1002664.4, -30219.06, -0.008210163, -0.017634952, -850698.94, 83092.25, 0.0, 10.0009365, 9.999018 
5.350176e+2, 2.1471353e+2, -832537.8, -942777.06, 31.889324, -0.029613893, -0.07669327, -832537.8, 3263.7588, 0.0, 10.000425, 9.999009 
5.350118e+2, 2.2471234e+2, -771820.94, -872556.94, 7001.292, -0.062291548, -0.085904896, -771336.6, -33524.21, 0.0, 10.000235, 9.998903 
5.3500605e+2, 2.3471092e+2, -650923.44, -764625.7, 35483.996, -0.10864608, -0.15450692, -640758.44, -932.2891, 0.0, 10.000389, 9.998899 
5.350009e+2, 2.4471012e+2, -562393.6, -693768.75, 33106.98, -0.08166743, -0.109940656, -554522.2, -12688.062, 0.0, 10.000414, 9.998709 
5.3499633e+2, 2.5470975e+2, -510426.34, -622179.2, 69404.12, 0.003164986, -0.0508922, -477201.1, -33363.11, 0.0, 10.00011, 9.998673 
5.3499043e+2, 2.6470876e+2, -463827.94, -571417.9, 14940.658, 0.013972354, 0.0017715803, -461791.72, -115943.53, 0.0, 9.999869, 9.998462 
5.349831e+2, 2.7470666e+2, -408821.66, -494954.25, 26390.58, -0.045906845, -0.08917911, -401378.88, -153509.31, 0.0, 9.999575, 9.998456 
5.349775e+2, 2.847052e+2, -264774.84, -321793.8, 77521.84, -0.018978879, -0.100676745, -210686.33, -60802.066, 0.00000019037492, 9.999671, 9.998915 
5.349731e+2, 2.9470435e+2, -122987.68, -209062.72, 105744.97, 0.048905786, -0.11986493, -51857.656, 34.68679, 0.0000040138116, 9.999969, 9.998884 
5.349649e+2, 3.0470428e+2, -59288.332, -178420.9, 71060.7, -0.19802354, 0.0063141403, -26130.48, -26130.48, 0.000024880646, 10.000203, 9.99866 
5.3496087e+2, 3.1470233e+2, -70050.15, -57932.29, -63115.69, -0.05603867, -0.089767605, -585.37427, -585.37427, 0.00007745561, 9.999503, 9.999828 
5.450706e+2, 1.2472643e+2, -1482431.5, -1629743.6, -89480.69, 0.06324772, -0.21533923, -1440191.0, 277476.66, 0.00003031358, 10.001655, 9.999765 
5.4506165e+2, 1.3472633e+2, -1560859.9, -1681647.1, 53591.09, -0.25424662, -0.19178866, -1540510.8, 79155.16, 0.000006366235, 10.000718, 9.99922 
5.4506356e+2, 1.4472555e+2, -1591996.4, -1670988.6, 62014.016, 0.3710772, -0.16559544, -1557969.1, -36294.348, 0.00000037085837, 9.999952, 9.99895 
5.450543e+2, 1.5472579e+2, -1474020.8, -1565390.9, 1895.6951, 0.048893865, -0.08591525, -1473981.4, -50303.344, 0.00000000007720086, 10.000102, 9.998929 
5.4504645e+2, 1.647252e+2, -1283745.3, -1395391.1, 6723.0825, -0.093994305, -0.04151564, -1283341.8, 42343.97, 0.0, 10.000648, 9.999151 
5.4504067e+2, 1.7472358e+2, -1050624.5, -1234914.6, 1518.3728, -0.01616291, -0.15069903, -1050612.0, 177087.52, 0.0, 10.001582, 9.999134 
5.450349e+2, 1.8472263e+2, -986739.8, -1228686.9, 82025.445, 0.011169655, -0.122288525, -961553.25, 168156.11, 0.0, 10.001638, 9.998489 
5.450294e+2, 1.9472213e+2, -1023807.0, -1198543.1, 90606.445, -0.0071100746, -0.054012228, -985307.25, 46410.18, 0.0, 10.000728, 9.998459 
5.4502404e+2, 2.0472133e+2, -945655.6, -1051593.4, 91387.27, -0.0005973998, 0.0015837662, -892996.25, 40730.324, 0.0, 10.000349, 9.998975 
5.450188e+2, 2.1471983e+2, -838762.8, -944752.1, 56981.098, 0.04906064, -0.08056615, -813941.75, 21798.184, 0.0, 10.000394, 9.999008 
5.450129e+2, 2.2471856e+2, -754246.6, -871150.8, 65516.86, 0.016672282, -0.09654374, -724897.2, 12854.589, 0.0, 10.00037, 9.998854 
5.4500633e+2, 2.3471719e+2, -677150.8, -788334.94, 33963.992, -0.10392615, -0.15088175, -667596.7, -27831.697, 0.0, 10.000245, 9.9988165 
5.4500103e+2, 2.4471648e+2, -589744.1, -675681.9, 26857.627, -0.08831897, -0.107772484, -582040.94, -40269.242, 0.0, 10.000092, 9.998987 
5.44997e+2, 2.5471622e+2, -518910.94, -595188.0, 11812.666, 0.06863189, -0.067805745, -517123.44, -73349.93, 0.0, 9.999919, 9.998953 
5.449911e+2, 2.647155e+2, -431876.44, -555396.9, -570.6458, 0.09406038, -0.002840872, -431873.8, -86092.44, 0.0, 10.0000925, 9.998459 
5.449836e+2, 2.747138e+2, -243399.5, -413779.8, -11699.534, 0.0020931554, -0.05352317, -242599.88, 5200.4707, 0.0, 10.000708, 9.9984665 
5.449774e+2, 2.8471243e+2, -125872.08, -216336.39, 45208.32, -0.022201806, -0.07290107, -107153.16, 42660.387, 0.00000011177434, 10.000465, 9.999262 
5.449721e+2, 2.947114e+2, -198803.34, -198185.27, 30291.111, 0.0031734107, -0.14456092, -168201.61, -116381.75, 0.0000045059896, 9.999271, 9.999283 
5.44965e+2, 3.0471095e+2, -158793.5, -267739.4, 68585.72, -0.16869302, -0.058790457, -125680.47, -125680.47, 0.000026381855, 9.999697, 9.9982815 
5.449625e+2, 3.1470904e+2, 178476.25, 65838.016, -141560.77, 0.084623024, -0.11750056, 274509.66, 274509.66, 0.00007890932, 10.001214, 9.999834 
5.550726e+2, 1.24733835e+2, -1521506.6, -1708981.3, -31190.371, 0.03333828, -0.1501062, -1516453.6, 201143.1, 0.000026661766, 10.001653, 9.999218 
5.5506104e+2, 1.3473369e+2, -1587700.1, -1739288.9, 20353.277, -0.417228, -0.091808744, -1585015.0, 34580.484, 0.0000052899522, 10.000716, 9.998834 
5.550628e+2, 1.4473218e+2, -1587763.1, -1646194.9, 44518.54, 0.2530693, -0.1269993, -1563729.9, -42119.48, 0.00000021782215, 9.999898, 9.999141 
5.550542e+2, 1.5473138e+2, -1467210.1, -1541772.8, 26185.744, -0.009786737, -0.16504773, -1458932.8, -35311.04, 0.00000000000011946363, 10.000066, 9.999111 
5.5504745e+2, 1.6473106e+2, -1270855.1, -1363701.5, 25688.953, -0.09345469, -0.116512045, -1264221.4, 61404.754, 0.0, 10.000622, 9.999382 
5.5504334e+2, 1.7473088e+2, -1045362.94, -1210457.5, 49289.797, 0.066726424, -0.10370953, -1031766.9, 195859.58, 0.0, 10.00152, 9.999336 
5.550374e+2, 1.847304e+2, -959315.3, -1144969.4, 34462.566, 0.06070612, -0.06897541, -953124.56, 176505.95, 0.0, 10.001523, 9.999123 
5.5502915e+2, 1.9472928e+2, -994890.9, -1117117.5, 71415.64, -0.13844915, -0.12207201, -962009.3, 69631.875, 0.0, 10.0006275, 9.999073 
5.550231e+2, 2.0472826e+2, -1000028.6, -1128311.5, 78194.21, -0.15514773, -0.09818452, -963034.25, -29381.885, 0.0, 10.000201, 9.998515 
5.550193e+2, 2.1472695e+2, -899743.75, -1031057.2, 73643.92, 0.039304655, -0.11139079, -866738.25, -31071.16, 0.0, 10.0002165, 9.998502 
5.5501413e+2, 2.2472602e+2, -814992.44, -954851.94, 46784.656, 0.079645395, -0.04350328, -800785.56, -63107.023, 0.0, 10.00019, 9.998367 
5.550073e+2, 2.3472524e+2, -739725.2, -870311.4, 44812.92, -0.06558451, 0.007856199, -725826.2, -86137.65, 0.0, 10.000043, 9.998348 
5.5500126e+2, 2.4472395e+2, -608881.44, -686082.56, 8037.962, -0.10096312, 0.021304928, -608053.44, -66352.47, 0.0, 9.999956, 9.998989 
5.549962e+2, 2.5472185e+2, -535790.7, -598800.0, 23215.238, -0.022404518, -0.12591118, -528161.1, -84442.11, 0.0, 9.999777, 9.9990015 
5.549906e+2, 2.6472083e+2, -437441.63, -545161.3, 7843.4717, 0.003914913, -0.10003136, -436873.5, -91143.914, 0.0, 10.000004, 9.998569 
5.549844e+2, 2.747206e+2, -255289.98, -415464.5, 27500.563, -0.025994876, -0.011197201, -250699.92, -2963.42, 0.0, 10.0006075, 9.998506 
5.549779e+2, 2.8472003e+2, -119937.19, -193547.69, -14162.625, -0.051181313, 0.043123804, -117306.336, 32435.16, 0.00000024371042, 10.000416, 9.999446 
5.549707e+2, 2.9471913e+2, -194409.16, -176218.97, 5400.6113, -0.11094452, -0.040805735, -174736.39, -122992.26, 0.0000058589785, 9.999202, 9.9994755 
5.5496496e+2, 3.047176e+2, -183943.2, -299229.56, 117057.01, -0.17824385, -0.06286142, -111106.195, -111106.195, 0.000029984647, 9.999623, 9.998092 
5.549648e+2, 3.1471545e+2, 138591.53, 11165.368, -66915.83, 0.11891131, -0.12486181, 167274.8, 167274.8, 0.00008416486, 10.00109, 9.99952 
5.6507427e+2, 1.24740675e+2, -1522880.3, -1735880.5, 53777.844, 0.046845526, -0.05562071, -1510072.6, 207459.67, 0.000022362967, 10.001754, 9.998967 
5.650623e+2, 1.3473974e+2, -1536411.1, -1714851.0, -71503.664, -0.37052235, -0.07796837, -1511294.0, 108243.78, 0.000004259607, 10.001078, 9.998805 
5.6506306e+2, 1.4473793e+2, -1473722.1, -1604558.1, 35654.97, 0.26705375, -0.13933186, -1464636.4, 56918.59, 0.00000013010742, 10.000706, 9.999054 
5.6505525e+2, 1.547373e+2, -1329430.0, -1478518.6, -27825.623, 0.049226716, -0.15579139, -1324405.9, 99158.35, 0.0, 10.001015, 9.999095 
5.650486e+2, 1.6473705e+2, -1255109.6, -1356994.5, -17097.008, -0.040251598, -0.097468056, -1252317.1, 73250.75, 0.0, 10.000715, 9.9993925 
5.650439e+2, 1.7473681e+2, -1283555.6, -1319990.0, -35045.637, 0.06856284, -0.09652482, -1262275.3, -34705.668, 0.0, 9.999846, 9.999391 
5.65038e+2, 1.8473642e+2, -1168072.4, -1212074.8, -36650.37, 0.0653224, -0.069731414, -1147326.6, -17754.283, 0.0, 9.999957, 9.999402 
5.650306e+2, 1.9473565e+2, -918568.44, -1042131.94, -50793.965, -0.071451664, -0.123070665, -900368.8, 131209.69, 0.0, 10.001003, 9.999389 
5.6502455e+2, 2.047347e+2, -845546.9, -1066950.5, -25586.51, -0.08089909, -0.10227203, -842628.44, 90960.164, 0.0, 10.001325, 9.998389 
5.6502014e+2, 2.1473332e+2, -826601.25, -1007907.75, -31056.45, 0.074817345, -0.10943205, -821429.06, 14175.98, 0.0, 10.000782, 9.998383 
5.650147e+2, 2.2473252e+2, -745569.1, -895202.06, 21579.264, 0.105634496, -0.034597263, -742519.25, -4904.1284, 0.0, 10.000565, 9.998592 
5.6500816e+2, 2.3473197e+2, -634396.75, -791768.1, 44927.254, 0.00046077676, 0.019777188, -622474.0, 17147.176, 0.0, 10.000652, 9.9985895 
5.65002e+2, 2.4473068e+2, -537624.5, -660467.3, 52343.652, -0.03957297, 0.02245491, -518346.2, 23287.572, 0.0, 10.000508, 9.998879 
5.649963e+2, 2.5472817e+2, -484718.44, -589685.6, 21314.697, -0.0039508813, -0.15086581, -480555.38, -36898.51, 0.0, 10.000207, 9.998845 
5.649906e+2, 2.6472712e+2, -425956.06, -532354.56, 48615.734, 0.012773089, -0.12381101, -407088.34, -61420.008, 0.0, 10.000046, 9.998637 
5.6498504e+2, 2.747274e+2, -334835.28, -439657.66, 39962.215, 0.018742764, 0.006488198, -321338.13, -73668.68, 0.0, 10.000009, 9.99862 
5.649786e+2, 2.847268e+2, -172319.4, -255028.8, -6694.0356, -0.002626155, 0.064668514, -171781.14, -22106.52, 0.00000046127252, 10.000186, 9.999142 
5.6497097e+2, 2.947252e+2, -11230.761, -127590.99, -52716.895, -0.06462068, -0.053697065, 9100.25, 60784.13, 0.000007820285, 10.000612, 9.999138 
5.6496626e+2, 3.0472338e+2, -49135.58, -228635.23, 110328.29, -0.041780546, -0.095244534, 3337.529, 3337.529, 0.00003595913, 10.000511, 9.998157 
5.6496584e+2, 3.147216e+2, -101170.65, -95648.05, -118299.06, 0.21251333, -0.13180241, 19921.936, 19921.936, 0.000094486146, 9.999397, 9.999604 
5.7507527e+2, 1.24746636e+2, -1520224.3, -1716102.0, 105968.82, -0.10920706, 0.03108277, -1473866.9, 243610.83, 0.000015098279, 10.001704, 9.999117 
5.7506466e+2, 1.3474439e+2, -1522191.8, -1681277.4, -94049.53, -0.27396455, -0.1509623, -1478558.4, 140935.83, 0.0000026568694, 10.001058, 9.999043 
5.750641e+2, 1.4474273e+2, -1492944.5, -1634583.8, 23211.936, 0.26405233, -0.1992306, -1489237.5, 32271.883, 0.000000050157187, 10.000669, 9.998864 
5.75057e+2, 1.5474346e+2, -1353581.8, -1516867.9, -1273.1316, 0.090241745, -0.05400297, -1353571.8, 69934.4, 0.0, 10.000966, 9.998858 
5.750494e+2, 1.6474316e+2, -1269848.1, -1370354.8, -66851.45, -0.06684182, 0.011670834, -1236468.3, 89043.07, 0.0, 10.00064, 9.999334 
5.75042e+2, 1.7474137e+2, -1296691.9, -1336983.1, -53214.85, -0.14895856, -0.13366838, -1259937.0, -32408.594, 0.0, 9.999798, 9.999299 
5.750366e+2, 1.8474081e+2, -1179722.3, -1215656.1, -11718.311, -0.10775395, -0.11999895, -1176238.6, -46704.92, 0.0, 9.999872, 9.999417 
5.750331e+2, 1.9474122e+2, -936658.4, -1047261.3, 3476.5942, 0.05165012, -0.054517306, -936549.2, 94980.07, 0.0, 10.000868, 9.999417 
5.750279e+2, 2.0474072e+2, -855244.44, -1044123.0, -60792.227, 0.099562325, -0.002327744, -837369.56, 96165.05, 0.0, 10.001138, 9.998636 
5.750206e+2, 2.1473901e+2, -839037.7, -988079.7, -37410.78, 0.016758982, -0.0681131, -830174.3, 5378.5747, 0.0, 10.000586, 9.998612 
5.750142e+2, 2.2473802e+2, -699494.56, -762987.0, 10030.651, -0.035732582, -0.06918687, -697947.6, 39613.777, 0.0, 10.000399, 9.999583 
5.750086e+2, 2.3473752e+2, -587855.6, -655898.5, 64485.4, -0.056814183, -0.11352032, -548967.3, 90594.86, 0.0, 10.00048, 9.999607 
5.750028e+2, 2.4473666e+2, -574966.6, -717973.75, 25831.191, -0.046170246, -0.10214169, -570443.8, -28873.941, 0.0, 10.000407, 9.998542 
5.7499677e+2, 2.547351e+2, -529629.44, -653667.5, 27430.781, -0.014748149, -0.14414747, -523833.97, -80245.74, 0.0, 10.000071, 9.998478 
5.7499087e+2, 2.6473433e+2, -427178.4, -523014.44, 32346.223, -0.002313759, -0.07558807, -417282.8, -71685.08, 0.0, 9.999983, 9.998738 
5.74985e+2, 2.747341e+2, -334105.75, -425327.22, 51689.324, -0.0168437, -0.007934673, -310780.8, -63180.25, 0.0, 9.999934, 9.998764 
5.7497895e+2, 2.8473267e+2, -229635.53, -357782.8, -6432.0225, -0.01940252, -0.009073398, -229313.5, -79699.76, 0.0000006054728, 10.000119, 9.998469 
5.749724e+2, 2.947297e+2, -77335.49, -242697.14, -15524.718, -0.022300325, -0.19251749, -75890.61, -24250.648, 0.000009307056, 10.000521, 9.998391 
5.7496864e+2, 3.0472833e+2, -34102.29, -183068.95, 63064.066, 0.11162367, -0.16082075, -10990.318, -10990.318, 0.000040671366, 10.000458, 9.998498 
5.749649e+2, 3.1472707e+2, -89712.66, -46213.176, -105670.95, 0.10659166, -0.18181881, 39923.14, 39923.14, 0.000103750725, 9.999289, 10.000001 
5.85077e+2, 1.24751635e+2, -1657158.9, -1755667.3, 200032.94, -0.037060246, 0.03195707, -1500405.4, 217024.53, 0.000008007214, 10.000615, 9.999389 
5.8506775e+2, 1.3474962e+2, -1452036.8, -1606413.6, -115803.06, -0.07402927, -0.15893327, -1390054.8, 229389.13, 0.0000012151539, 10.001352, 9.999423 
5.850647e+2, 1.4474843e+2, -1401146.6, -1559832.9, 57078.324, 0.23868528, -0.19071041, -1382748.9, 138705.17, 0.000000012980553, 10.001206, 9.99909 
5.850575e+2, 1.5474936e+2, -1391756.3, -1504452.5, 27590.33, 0.0722728, -0.053613637, -1385364.1, 38084.03, 0.0, 10.000596, 9.999095 
5.850499e+2, 1.6474912e+2, -1284192.5, -1404503.3, 12941.518, -0.062896535, 0.017845433, -1282816.1, 42636.71, 0.0, 10.000653, 9.999097 
5.8504295e+2, 1.7474739e+2, -1069641.0, -1251507.4, -13426.262, -0.10475215, -0.09867941, -1068655.1, 158816.03, 0.0, 10.001456, 9.999087 
5.850377e+2, 1.8474671e+2, -960522.8, -1118493.5, 47901.207, -0.04682238, -0.08016367, -947132.75, 182345.56, 0.0, 10.001406, 9.999355 
5.850343e+2, 1.9474685e+2, -1018530.25, -1098297.8, 27320.682, 0.112343155, -0.03387114, -1010070.1, 21406.967, 0.0, 10.000338, 9.999339 
5.850289e+2, 2.0474644e+2, -963001.5, -1039136.75, 5147.9814, 0.13742766, 0.005633772, -962655.0, -29174.563, 0.0, 10.000143, 9.999148 
5.850213e+2, 2.1474522e+2, -752282.6, -891280.56, 22747.197, 0.017554738, -0.0646896, -748654.7, 86836.586, 0.0, 10.000929, 9.999119 
5.850147e+2, 2.2474426e+2, -622606.9, -732521.3, 54769.55, -0.03954143, -0.08750578, -599975.44, 137523.4, 0.0, 10.000964, 9.999522 
5.8500904e+2, 2.3474322e+2, -639058.7, -694115.1, -6690.161, -0.031269692, -0.17397358, -638257.4, 1248.6563, 0.0, 10.00018, 9.999497 
5.8500326e+2, 2.4474265e+2, -623920.44, -718472.2, -20374.225, -0.013875037, -0.13828893, -619717.06, -78205.07, 0.0, 9.999975, 9.998736 
5.849972e+2, 2.5474232e+2, -445931.22, -586785.75, -5886.8247, 0.008829847, -0.08071343, -445685.6, -2166.6858, 0.0, 10.000541, 9.998696 
5.849914e+2, 2.647417e+2, -309788.78, -448099.56, 49218.098, 0.021738106, -0.014051019, -294062.56, 51463.164, 0.0, 10.000728, 9.998887 
5.849858e+2, 2.7474052e+2, -233809.23, -357520.03, 41143.785, 0.036118064, -0.058067545, -221375.33, 26159.777, 0.0, 10.000565, 9.998916 
5.849797e+2, 2.8473872e+2, -196374.94, -408727.16, 30858.951, 0.028829025, -0.07320876, -191981.42, -42428.938, 0.00000055145284, 10.000639, 9.997861 
5.849734e+2, 2.94736e+2, -82067.37, -315263.1, -6698.2036, 0.019171704, -0.17001751, -81875.13, -30293.898, 0.000008783807, 10.000789, 9.997759 
5.8497006e+2, 3.0473468e+2, -14852.329, -141820.72, 65386.68, 0.22008947, -0.11676865, 12798.874, 12798.874, 0.000039667964, 10.000449, 9.998779 
5.8496433e+2, 3.1473377e+2, -34464.777, 39222.09, -135438.67, 0.13070224, -0.13947536, 142739.17, 142739.17, 0.00010388018, 9.99942, 10.000512 
5.9507906e+2, 1.2475571e+2, -1606252.1, -1652646.1, 197898.0, 0.026175935, -0.03952823, -1430196.3, 287192.7, 0.0000033727015, 10.000646, 10.0000725 
5.950711e+2, 1.3475545e+2, -1418168.8, -1531982.6, -82329.445, 0.09197817, -0.107371196, -1374993.0, 244394.2, 0.00000044999516, 10.001342, 9.999939 
5.950644e+2, 1.4475499e+2, -1361227.9, -1466469.5, 13869.364, 0.038469825, -0.12545066, -1359430.8, 161958.92, 0.000000014541682, 10.001162, 9.999749 
5.9505624e+2, 1.5475494e+2, -1353408.9, -1417396.9, 18672.436, -0.15015413, -0.15207541, -1348358.6, 75031.95, 0.0, 10.000562, 9.99971 
5.950499e+2, 1.6475503e+2, -1318363.0, -1458602.9, 26095.963, -0.16252437, -0.061909, -1313664.5, 11727.333, 0.0, 10.000593, 9.998749 
5.950465e+2, 1.7475487e+2, -1104827.8, -1306506.4, 31741.195, 0.06799202, 0.015699312, -1099950.1, 127447.16, 0.0, 10.001388, 9.998739 
5.950411e+2, 1.847541e+2, -986685.25, -1149628.6, -7797.3003, 0.114528604, 0.050208952, -986312.94, 143093.7, 0.0, 10.001305, 9.999191 
5.950334e+2, 1.9475244e+2, -1051230.8, -1131384.6, 928.81696, -0.04335536, -0.06921983, -1051220.0, -19797.105, 0.0, 10.000194, 9.999179 
5.9502685e+2, 2.0475185e+2, -927698.56, -929693.1, 19013.826, -0.10410086, -0.0809264, -909655.9, 23770.494, 0.0, 9.999985, 9.999978 
5.950218e+2, 2.147521e+2, -718096.3, -778260.4, 67682.6, -0.05384736, -0.090173654, -674111.75, 161307.47, 0.0, 10.000751, 9.99998 
5.95016e+2, 2.2475131e+2, -724031.06, -912538.1, 10398.776, -0.034514397, -0.08115442, -723459.2, 13967.286, 0.0, 10.000821, 9.998363 
5.9500915e+2, 2.3474906e+2, -751498.06, -887028.44, -20653.432, -0.06262798, -0.16561426, -748420.56, -108967.63, 0.0, 10.0, 9.998266 
5.950029e+2, 2.4474859e+2, -588739.1, -619584.94, -14106.748, -0.08106299, -0.09310641, -583260.7, -41800.324, 0.0, 9.999858, 9.999476 
5.949971e+2, 2.547498e+2, -407191.1, -476309.28, 28349.797, -0.08802607, 0.039522495, -397050.72, 46398.355, 0.0, 10.000409, 9.999519 
5.949917e+2, 2.6474932e+2, -305645.25, -421998.53, 27382.674, -0.048108533, 0.06390529, -299523.13, 45928.684, 0.0, 10.000654, 9.9991045 
5.949866e+2, 2.7474666e+2, -237368.64, -341607.9, 52979.207, 0.02877598, -0.145942, -215169.69, 32303.31, 0.0, 10.000464, 9.999076 
5.9498054e+2, 2.8474498e+2, -245860.63, -492967.5, 24292.625, 0.008329054, -0.13097857, -243495.1, -94004.13, 0.0000003359344, 10.000565, 9.997315 
5.949733e+2, 2.94744e+2, -135693.88, -396139.7, 15132.342, -0.11097942, 0.005263695, -134817.6, -83309.05, 0.000006914508, 10.000669, 9.997255 
5.949701e+2, 3.047423e+2, -3479.5068, -112517.93, 17036.766, 0.14739807, 0.033121746, -879.5812, -879.5812, 0.000035638073, 10.000412, 9.999003 
5.949631e+2, 3.1474158e+2, 6044.771, 143174.78, -78350.055, -0.019636754, 0.004625084, 178724.58, 178724.58, 0.00009897654, 9.999336, 10.001264 
6.050804e+2, 1.2476042e+2, -1607586.3, -1637914.6, 257664.13, 0.12418355, -0.11675174, -1364640.4, 352699.28, 0.0000011596172, 10.000568, 10.000221 
6.0507333e+2, 1.3476133e+2, -1547335.5, -1573747.6, -77886.36, 0.24344501, -0.07675793, -1481543.5, 137786.1, 0.00000014603442, 10.00039, 10.000099 
6.0506403e+2, 1.4476134e+2, -1460427.5, -1497354.8, 16177.784, -0.05930917, -0.06526626, -1454342.6, 66986.195, 0.0000000031309833, 10.000379, 9.99994 
6.050569e+2, 1.5476097e+2, -1269512.3, -1355099.4, -49893.34, -0.15460458, -0.14044727, -1246574.3, 176757.78, 0.0, 10.001029, 9.99993 
6.0505134e+2, 1.6476093e+2, -1219546.0, -1383285.0, 931.14636, -0.10205306, -0.085721545, -1219540.8, 105792.48, 0.0, 10.001127, 9.999026 
6.0504824e+2, 1.7476092e+2, -1208885.6, -1325229.9, 27709.848, 0.15561134, -0.02083822, -1202623.1, 24712.28, 0.0, 10.000524, 9.999038 
6.050425e+2, 1.8476029e+2, -1111362.1, -1207965.1, 33731.43, 0.18224552, 0.010119896, -1100749.8, 28593.373, 0.0, 10.000461, 9.999188 
6.050339e+2, 1.9475867e+2, -932093.75, -1073414.6, 21445.586, -0.0454111, -0.103113055, -928911.0, 102448.8, 0.0, 10.001022, 9.999174 
6.0502714e+2, 2.0475818e+2, -778087.7, -861101.3, 55625.414, -0.118365176, -0.10124461, -750189.9, 183173.3, 0.0, 10.00103, 9.999954 
6.0502267e+2, 2.1475855e+2, -779311.5, -813569.25, 7883.546, -0.015597268, -0.0929788, -777584.4, 57771.395, 0.0, 10.000348, 9.999942 
6.05017e+2, 2.2475798e+2, -824303.3, -967045.2, -21981.002, 0.030074695, -0.055902235, -820995.1, -83633.086, 0.0, 10.00018, 9.99828 
6.050101e+2, 2.3475613e+2, -665027.7, -846510.0, 1484.4761, 0.006516967, -0.09590511, -665015.56, -25629.55, 0.0, 10.0006275, 9.99822 
6.050036e+2, 2.4475557e+2, -464177.97, -540170.6, 71897.8, -0.027310418, -0.036826193, -420853.88, 120540.086, 0.0, 10.000645, 9.999641 
6.049976e+2, 2.5475615e+2, -425250.66, -468242.38, 38974.723, -0.0639101, 0.02019402, -402236.97, 41149.953, 0.0, 10.000219, 9.999672 
6.049923e+2, 2.647556e+2, -364818.16, -435915.56, 37677.94, -0.028830051, 0.025281351, -348565.9, -3176.3337, 0.0, 10.000181, 9.999239 
6.0498756e+2, 2.747535e+2, -217549.94, -319145.13, 25362.861, 0.083494954, -0.14189456, -211570.16, 35835.895, 0.0, 10.000527, 9.999207 
6.049816e+2, 2.8475222e+2, -200457.17, -437040.03, 59613.254, 0.06161234, -0.10681458, -186285.02, -36864.832, 0.00000016006682, 10.000735, 9.997622 
6.0497427e+2, 2.9475158e+2, -87901.62, -334763.6, 83751.445, -0.081439905, 0.031019766, -62169.895, -10735.557, 0.0000052467194, 10.000832, 9.997604 
6.049707e+2, 3.0474967e+2, 31784.498, -95402.29, 107404.76, 0.1725068, 0.017705752, 93010.586, 93010.586, 0.000031333126, 10.000669, 9.998996 
6.049627e+2, 3.1474984e+2, 67125.76, 131790.52, -21983.186, -0.003344556, 0.09497951, 138556.0, 138556.0, 0.00009226463, 9.999918, 10.000925 
6.150806e+2, 1.2476574e+2, -1619154.6, -1656291.1, 123701.85, 0.0014084339, -0.19244544, -1512635.1, 204647.67, 0.000000319301, 10.000553, 10.000093 
6.15074e+2, 1.3476731e+2, -1569550.6, -1618419.1, -74134.15, 0.23729508, -0.060238987, -1515927.9, 103343.4, 0.000000018009526, 10.000392, 9.99979 
6.1506337e+2, 1.4476752e+2, -1478916.3, -1541795.8, 14075.792, -0.21321729, 0.0046655927, -1475909.1, 45362.117, 0.0, 10.000397, 9.999626 
6.15059e+2, 1.547673e+2, -1287752.9, -1400781.9, -13483.0, -0.08096566, -0.024255635, -1286166.8, 137106.86, 0.0, 10.001044, 9.999617 
6.150536e+2, 1.6476676e+2, -1159561.5, -1244043.6, -36183.07, -0.01937065, -0.053811748, -1146183.1, 179094.27, 0.0, 10.001066, 10.0000105 
6.150478e+2, 1.7476554e+2, -1147798.6, -1189961.0, 20201.016, 0.024142427, -0.21021579, -1139682.3, 87603.25, 0.0, 10.00048, 9.99999 
6.150417e+2, 1.8476526e+2, -1118736.6, -1197177.9, 40501.49, 0.024190936, -0.19940464, -1101577.9, 27709.826, 0.0, 10.000349, 9.999313 
6.1503536e+2, 1.9476566e+2, -939896.06, -1068693.6, 59771.918, -0.027480109, -0.12216178, -916432.0, 114854.57, 0.0, 10.000929, 9.999253 
6.150292e+2, 2.0476557e+2, -860351.56, -997748.94, 16826.021, -0.0417771, -0.039737187, -858321.06, 74968.42, 0.0, 10.000884, 9.999084 
6.150234e+2, 2.1476464e+2, -870347.75, -959498.6, -3451.5159, -0.003960787, -0.074579656, -870214.3, -34913.855, 0.0, 10.000161, 9.99903 
6.150174e+2, 2.2476432e+2, -781162.75, -836943.75, -17163.055, 0.021408197, -0.014138579, -776305.0, -38999.96, 0.0, 10.000008, 9.999255 
6.150112e+2, 2.3476444e+2, -620543.7, -709304.4, 34484.348, 0.03184877, 0.03939362, -608720.94, 30583.965, 0.0, 10.000437, 9.999252 
6.150049e+2, 2.447636e+2, -510116.97, -608934.0, 39702.87, 0.0076488173, 0.035932977, -496141.6, 45171.242, 0.0, 10.000526, 9.999228 
6.149981e+2, 2.547614e+2, -477673.16, -549698.44, 37839.35, -0.06419961, -0.14251205, -461448.6, -18116.1, 0.0, 10.000095, 9.999176 
6.1499244e+2, 2.647606e+2, -376369.6, -440142.13, 36279.24, -0.054900967, -0.13537042, -359955.6, -14616.572, 0.0, 10.000096, 9.999249 
6.1498797e+2, 2.7476108e+2, -235543.11, -324683.6, 55883.156, 0.041884415, -0.048216674, -208633.05, 38701.023, 0.0, 10.000392, 9.999229 
6.149825e+2, 2.8476056e+2, -128281.95, -274917.1, 47619.543, 0.04486169, 0.006131696, -114174.77, 35164.676, 0.00000012615395, 10.000676, 9.998763 
6.1497563e+2, 2.947589e+2, -15473.642, -161880.7, 106739.59, -0.068777926, -0.086872935, 40752.727, 92109.87, 0.000004351736, 10.00074, 9.99883 
6.149716e+2, 3.0475673e+2, 4612.9517, -152397.69, 69481.58, 0.15464772, -0.16699618, 30944.531, 30944.531, 0.000027327982, 10.000661, 9.998622 
6.1496216e+2, 3.1475884e+2, -46294.85, -77684.57, 44082.938, -0.12841573, 0.15845373, -15196.186, -15196.186, 0.00008384043, 9.99981, 9.999542 
6.250812e+2, 1.2477183e+2, -1817240.0, -1760628.0, 95082.23, 0.09199619, -0.20726447, -1689727.9, 27493.402, 0.00000004128188, 9.999224, 10.0000305 
6.2507486e+2, 1.3477322e+2, -1472172.4, -1575116.8, -42715.76, 0.2661643, -0.08801289, -1456756.5, 162455.67, 0.000000000001578113, 10.001057, 9.999782 
6.250635e+2, 1.4477316e+2, -1340629.3, -1464380.8, 80533.37, -0.2778875, -0.05162108, -1300946.0, 220268.64, 0.0, 10.001301, 9.999723 
6.2506056e+2, 1.5477331e+2, -1363104.0, -1414122.6, 59709.04, 0.009872907, -0.058429122, -1323683.4, 99529.164, 0.0, 10.000457, 9.999792 
6.2505525e+2, 1.6477297e+2, -1252159.1, -1264113.5, 60669.17, 0.0878251, -0.085631214, -1197173.4, 128040.516, 0.0, 10.000354, 10.000199 
6.250482e+2, 1.7477183e+2, -1064736.8, -1122315.0, 15809.484, 0.006805436, -0.2555034, -1060681.5, 166540.58, 0.0, 10.000969, 10.000202 
6.250421e+2, 1.8477178e+2, -993411.9, -1143691.9, 36642.1, -0.011413122, -0.22906086, -984953.6, 144268.77, 0.0, 10.001202, 9.999287 
6.250367e+2, 1.9477259e+2, -943906.6, -1070611.0, 22473.842, 0.027354483, -0.11010679, -940038.5, 91179.01, 0.0, 10.000879, 9.9992695 
6.2503064e+2, 2.0477247e+2, -919297.56, -1067800.3, 2193.183, 0.035215236, -0.015200254, -919265.1, 13956.844, 0.0, 10.000648, 9.998724 
6.250239e+2, 2.1477099e+2, -842238.7, -979508.56, -7391.5166, 0.027532937, -0.06772363, -841841.9, -6601.4624, 0.0, 10.0005045, 9.998723 
6.2501764e+2, 2.2477058e+2, -689688.0, -748558.5, 29915.994, 0.034026958, -0.021775844, -677154.2, 60091.184, 0.0, 10.000437, 9.999662 
6.250119e+2, 2.3477101e+2, -591872.4, -653708.44, 11164.125, 0.06490091, 0.025438858, -589918.5, 49320.336, 0.0, 10.000435, 9.999652 
6.250057e+2, 2.4477014e+2, -541280.25, -661768.06, 11995.15, 0.052574676, 0.016004218, -540097.7, 1148.5594, 0.0, 10.000461, 9.998905 
6.249989e+2, 2.547676e+2, -428387.56, -560917.44, -14207.422, -0.009040731, -0.1636287, -426881.6, 16389.627, 0.0, 10.00058, 9.998865 
6.249931e+2, 2.647668e+2, -306852.88, -411651.03, 23688.033, -0.014240448, -0.13997543, -301747.3, 43532.027, 0.0, 10.000578, 9.999217 
6.249884e+2, 2.7476758e+2, -242006.52, -332544.47, 7205.5537, 0.052597232, -0.01991297, -241436.64, 5835.9966, 0.0, 10.000353, 9.9992 
6.249829e+2, 2.8476733e+2, -164266.89, -223312.39, 9706.936, 0.053375307, 0.03392645, -162712.05, -13437.18, 0.000000116905284, 10.000135, 9.99938 
6.2497646e+2, 2.9476583e+2, -90563.16, -136525.16, -8820.88, -0.012472142, -0.09651443, -88928.42, -37640.434, 0.000004287332, 9.999934, 9.99941 
6.24972e+2, 3.0476424e+2, -64519.668, -149310.95, -19234.6, 0.17779866, -0.16706717, -60360.395, -60360.395, 0.000025852014, 10.000053, 9.998919 
6.2496245e+2, 3.1476575e+2, 20479.342, -51356.105, -13892.955, -0.086080976, 0.062177125, 23072.62, 23072.62, 0.00007870898, 10.000313, 9.999467 
6.350813e+2, 1.24778755e+2, -1804819.6, -1754318.3, -16853.594, 0.103916824, -0.14698838, -1749210.4, -32055.91, 0.000000010756334, 9.999301, 10.000043 
6.350755e+2, 1.3477893e+2, -1461679.9, -1555398.8, 26406.377, 0.18999237, -0.16254115, -1454751.8, 164402.28, 0.0, 10.001058, 9.999924 
6.3506395e+2, 1.4477831e+2, -1299200.3, -1360905.0, 26837.238, -0.39867795, -0.22598411, -1289161.3, 231997.84, 0.0, 10.001232, 10.0004635 
6.3506114e+2, 1.5477906e+2, -1315854.4, -1314479.9, 46001.758, -0.012785558, -0.24466406, -1269160.3, 153987.94, 0.0, 10.000448, 10.000483 
6.35056e+2, 1.6477957e+2, -1306828.3, -1370237.9, 65440.43, 0.09273475, -0.18877442, -1265816.9, 59326.31, 0.0, 10.000316, 9.999493 
6.350492e+2, 1.747796e+2, -1121339.3, -1234173.4, 53866.727, -0.027541107, -0.1672447, -1099753.0, 127393.766, 0.0, 10.000933, 9.999459 
6.35043e+2, 1.8477963e+2, -1013138.4, -1159002.0, 9309.924, -0.061336026, -0.09038843, -1012546.56, 116602.67, 0.0, 10.001098, 9.9992285 
6.350374e+2, 1.947793e+2, -966516.75, -1089441.3, 22977.395, -0.021687228, -0.07947467, -962362.1, 68791.98, 0.0, 10.000758, 9.999199 
6.35031e+2, 2.0477875e+2, -934187.2, -1058571.8, -18773.61, -0.019027168, -0.03269663, -931415.44, 1746.4026, 0.0, 10.000473, 9.998869 
6.350239e+2, 2.1477757e+2, -858499.56, -968508.06, 3032.8188, -0.058423493, -0.0720734, -858416.06, -23240.314, 0.0, 10.00031, 9.998892 
6.350174e+2, 2.2477672e+2, -727121.44, -783041.2, 15915.698, -0.06241362, -0.07147944, -722908.9, 14274.463, 0.0, 10.000255, 9.99951 
6.350116e+2, 2.3477584e+2, -632708.8, -692645.1, 28412.553, -0.03475623, -0.14369164, -621380.9, 17807.121, 0.0, 10.00024, 9.9994755 
6.3500565e+2, 2.4477525e+2, -581843.44, -714196.06, 3230.2356, -0.026620798, -0.100998215, -581764.6, -40570.81, 0.0, 10.000328, 9.998606 
6.349995e+2, 2.5477475e+2, -471596.7, -615190.06, 4673.629, -0.039567616, -0.04429562, -471444.72, -28241.492, 0.0, 10.00043, 9.998566 
6.349938e+2, 2.647742e+2, -325972.2, -426551.2, -577.10187, -0.034886777, 0.018874388, -325968.9, 19241.871, 0.0, 10.000478, 9.99916 
6.3498837e+2, 2.7477306e+2, -264624.47, -350004.4, 15996.732, -0.027085092, -0.04755355, -261725.73, -14504.73, 0.0, 10.00023, 9.999136 
6.3498235e+2, 2.8477252e+2, -166378.08, -210604.08, -14640.621, -0.04755358, -0.027119612, -161970.67, -12744.319, 0.0000001448745, 10.000069, 9.999501 
6.349761e+2, 2.9477268e+2, -111005.61, -140539.27, 5595.031, -0.08864894, 0.00094957824, -109981.19, -58755.957, 0.000005079309, 9.99979, 9.999445 
6.3497144e+2, 3.0477247e+2, -8609.881, -40948.316, -16360.268, 0.076728545, 0.03304162, -1776.8821, -1776.8821, 0.000027855136, 10.000053, 9.999678 
6.349625e+2, 3.1477055e+2, 71377.52, 74165.12, 69427.375, -0.1896488, -0.17347181, 142212.69, 142212.69, 0.00008149468, 10.000213, 10.000383 
6.450814e+2, 1.24785304e+2, -1653285.4, -1662083.9, -64857.81, 0.15620202, -0.09183591, -1592677.8, 124416.766, 0.0000000047013002, 10.000262, 10.000209 
6.450761e+2, 1.3478558e+2, -1534801.9, -1546059.1, 34446.754, 0.19641224, -0.13081521, -1505526.9, 113562.94, 0.0, 10.000395, 10.000289 
6.450655e+2, 1.4478503e+2, -1438216.8, -1433229.8, 4529.5938, -0.30981344, -0.20521185, -1430552.8, 90540.23, 0.0, 10.000303, 10.000413 
6.450623e+2, 1.5478548e+2, -1339734.9, -1334018.8, -73107.11, 0.07156071, -0.24833277, -1263713.9, 159371.88, 0.0, 10.000306, 10.000421 
6.4505684e+2, 1.64786e+2, -1325092.6, -1399320.5, -5380.865, 0.15582928, -0.1779396, -1324704.6, 377.14243, 0.0, 10.000278, 9.999314 
6.450499e+2, 1.7478643e+2, -1234239.4, -1306058.6, -949.71124, -0.0051291273, -0.09598599, -1234226.9, -7143.8535, 0.0, 10.000236, 9.999301 
6.4504373e+2, 1.8478659e+2, -1105705.1, -1168137.4, 5278.4443, -0.055581886, -0.015878461, -1105262.0, 23822.521, 0.0, 10.0003195, 9.999536 
6.450381e+2, 1.9478607e+2, -990142.7, -1061870.4, 11703.764, 0.00011744733, -0.056841422, -988281.25, 42808.43, 0.0, 10.00045, 9.999527 
6.4503187e+2, 2.047855e+2, -893881.5, -1014953.25, 22948.418, 0.015522452, -0.038370267, -889677.7, 43418.04, 0.0, 10.000655, 9.999073 
6.450249e+2, 2.147845e+2, -767857.06, -906336.8, 13937.441, -0.0048083207, -0.079779975, -766468.25, 68637.984, 0.0, 10.000853, 9.999053 
6.450184e+2, 2.2478345e+2, -641895.5, -777277.56, 51785.156, -0.013747639, -0.09218452, -624358.7, 112756.586, 0.0, 10.000962, 9.999216 
6.4501244e+2, 2.3478203e+2, -542696.06, -679111.94, 21459.424, -0.0040869256, -0.19446777, -539399.94, 99726.15, 0.0, 10.000971, 9.999214 
6.450064e+2, 2.447814e+2, -499375.47, -682164.9, 34896.555, -0.011131769, -0.13694786, -492939.9, 48193.05, 0.0, 10.000946, 9.99853 
6.450003e+2, 2.5478142e+2, -406796.75, -588349.5, 27550.963, -0.021542564, -0.017325079, -402707.9, 40429.98, 0.0, 10.000907, 9.998519 
6.4499444e+2, 2.6478082e+2, -292155.22, -407475.63, 55298.586, -0.019863024, 0.04474386, -269924.06, 75221.805, 0.0, 10.000706, 9.999179 
6.449889e+2, 2.747791e+2, -239812.98, -335489.8, 39520.242, 0.00979675, -0.08169896, -225600.1, 21561.314, 0.000000000000000000046744374, 10.000396, 9.999159 
6.449828e+2, 2.8477848e+2, -155261.47, -209743.02, 38007.47, -0.007113584, -0.0704894, -135740.86, 13426.504, 0.00000034821963, 10.000156, 9.999463 
6.44976e+2, 2.9477897e+2, -109175.36, -153216.84, 10433.554, -0.0652004, -0.0060855653, -106828.664, -55665.32, 0.0000068469953, 9.999847, 9.9993305 
6.449714e+2, 3.047789e+2, -27395.318, -92239.96, 13392.225, 0.076843776, 0.07123285, -24738.322, -24738.322, 0.00003364889, 10.0001335, 9.999267 
6.4496386e+2, 3.1477636e+2, 199825.84, 143242.9, -40479.66, -0.10396264, -0.16252199, 220920.7, 220920.7, 0.000093661416, 10.001072, 10.000431 
6.5508026e+2, 1.2479135e+2, -1618053.3, -1592107.4, -185267.19, -0.060999684, -0.05867135, -1419359.5, 297683.2, 0.000000001405694, 10.000276, 10.00068 
6.550762e+2, 1.347933e+2, -1484244.5, -1445783.9, 46810.434, 0.12919657, 0.003249892, -1414407.8, 204610.92, 0.0, 10.00042, 10.0009575 
6.550677e+2, 1.447934e+2, -1507883.1, -1571820.0, -16276.219, -0.16035229, 0.0059539825, -1503978.3, 17037.375, 0.0, 10.000273, 9.999483 
6.5506345e+2, 1.5479259e+2, -1412014.1, -1478524.0, -57356.914, 0.11867413, -0.0671276, -1378969.0, 44055.902, 0.0, 10.000277, 9.999451 
6.5505725e+2, 1.6479227e+2, -1302760.6, -1339548.9, -24095.654, 0.13049085, -0.052061383, -1290840.6, 34189.09, 0.0, 10.000219, 9.99975 
6.550498e+2, 1.7479236e+2, -1208347.4, -1242899.9, 13227.733, -0.075256824, -0.0507415, -1203864.9, 23165.977, 0.0, 10.000196, 9.99975 
6.5504366e+2, 1.8479271e+2, -1073604.0, -1079203.9, -5790.5713, -0.12884086, -0.005075732, -1069972.0, 59055.68, 0.0, 10.000223, 10.000194 
6.550385e+2, 1.9479294e+2, -956916.8, -967587.9, 33780.35, -0.045052562, -0.04022499, -928053.25, 102970.12, 0.0, 10.000342, 10.000227 
6.5503275e+2, 2.0479271e+2, -902404.56, -998788.25, 14883.224, 0.011781052, -0.032404225, -900158.7, 32865.324, 0.0, 10.000508, 9.999259 
6.5502656e+2, 2.1479163e+2, -784089.5, -892219.2, 35959.15, 0.044691637, -0.09756216, -773223.06, 61810.3, 0.0, 10.000652, 9.999247 
6.550203e+2, 2.2479072e+2, -700377.8, -849951.94, 37884.36, 0.052563984, -0.08716447, -691329.75, 45711.875, 0.0, 10.000758, 9.998812 
6.550139e+2, 2.347896e+2, -600798.44, -752924.8, 36251.7, 0.013151502, -0.115503, -592601.3, 46451.254, 0.0, 10.000775, 9.998798 
6.550073e+2, 2.4478865e+2, -506425.16, -664866.9, 16725.016, -0.037295576, -0.079043604, -504678.94, 36384.094, 0.0, 10.000811, 9.998712 
6.550007e+2, 2.547876e+2, -414804.3, -568096.9, 42938.773, -0.10754593, -0.09155489, -403596.22, 39479.48, 0.0, 10.000753, 9.998727 
6.5499467e+2, 2.6478675e+2, -298155.5, -406247.56, 28495.965, -0.10035571, -0.067471884, -291103.3, 53981.266, 0.0, 10.000638, 9.999224 
6.5498954e+2, 2.747858e+2, -250320.16, -338992.25, 48602.043, 0.00011995796, -0.11722716, -228869.86, 18222.719, 0.0000000002377775, 10.000305, 9.999183 
6.549834e+2, 2.8478527e+2, -181983.53, -240401.92, 11739.134, 0.0049120677, -0.08718005, -179712.81, -30615.953, 0.0000008000927, 10.000062, 9.9992895 
6.5497583e+2, 2.9478475e+2, -144773.05, -191880.52, 15760.769, -0.11046156, -0.110437796, -139986.36, -88884.98, 0.000010270006, 9.999707, 9.9991255 
6.5497136e+2, 3.0478373e+2, -146727.69, -340755.34, 38073.773, 0.026321473, -0.035377175, -139523.98, -139523.98, 0.00004390313, 10.000125, 9.997571 
6.549657e+2, 3.1478256e+2, 125625.95, 10109.362, 58822.094, -0.10616939, 0.036716964, 150305.88, 150305.88, 0.00011355634, 10.000984, 9.99956 
6.6508085e+2, 1.24798685e+2, -1547046.0, -1604566.8, -88231.805, -0.046567887, -0.024228763, -1483005.5, 233966.48, 0.00000000035571668, 10.00097, 10.00025 
6.650768e+2, 1.3479985e+2, -1448940.4, -1491775.1, 38771.168, 0.1359598, 0.006315269, -1426064.3, 192892.7, 0.0, 10.000912, 10.000418 
6.6506994e+2, 1.4479983e+2, -1451311.4, -1561197.9, 17.169998, 0.02412847, 0.032623913, -1451311.4, 69644.39, 0.0, 10.000742, 9.999323 
6.650641e+2, 1.54799e+2, -1310704.8, -1445104.9, -15695.443, 0.1254044, -0.029803798, -1308896.1, 114069.266, 0.0, 10.001053, 9.999295 
6.6505724e+2, 1.647987e+2, -1182546.4, -1264474.0, 59348.156, 0.08232964, -0.012358945, -1151397.5, 173571.83, 0.0, 10.00097, 9.999904 
6.650503e+2, 1.7479879e+2, -1176463.1, -1210796.8, 40604.668, -0.036500037, -0.028268965, -1149545.5, 77423.625, 0.0, 10.000332, 9.999907 
6.6504437e+2, 1.84799e+2, -1110597.0, -1106213.5, 30907.768, -0.05691716, -0.00033051864, -1077419.9, 51546.72, 0.0, 10.000026, 10.000099 
6.6503906e+2, 1.9479895e+2, -1003876.4, -1006174.94, -20222.766, 0.002508723, -0.051551383, -984770.25, 46195.47, 0.0, 10.000083, 10.00009 
6.6503364e+2, 2.0479874e+2, -895150.2, -971074.4, -28271.385, 0.059109006, -0.045323573, -885779.5, 47186.523, 0.0, 10.000448, 9.999488 
6.6502815e+2, 2.1479805e+2, -706080.0, -830136.8, -35316.242, 0.12850375, -0.09246911, -696730.8, 138239.69, 0.0, 10.001078, 9.999477 
6.6502184e+2, 2.2479738e+2, -654470.56, -841198.7, -16955.848, 0.12377556, -0.064232476, -652943.4, 84033.57, 0.0, 10.001146, 9.998689 
6.650146e+2, 2.347964e+2, -639141.56, -788493.94, -27289.42, 0.028746985, -0.06072964, -634311.5, 4676.9604, 0.0, 10.000599, 9.998645 
6.650078e+2, 2.4479547e+2, -550707.56, -655341.44, 6494.8696, -0.03740624, -0.028990753, -550306.0, -9307.44, 0.0, 10.00034, 9.999014 
6.6500145e+2, 2.5479427e+2, -458419.2, -559456.25, 5189.796, -0.06679597, -0.087136656, -458153.3, -15143.099, 0.0, 10.000291, 9.9990225 
6.649956e+2, 2.647933e+2, -362870.22, -465873.84, 10471.243, -0.04691641, -0.078617446, -361816.5, -16796.969, 0.0, 10.00031, 9.998976 
6.6499025e+2, 2.747924e+2, -249988.6, -361754.06, -23767.523, 0.040923003, -0.100463204, -245144.28, 1883.7327, 0.0000000023427176, 10.000423, 9.99896 
6.64984e+2, 2.8479168e+2, -116346.914, -261234.17, -36505.082, 0.03988369, -0.05481777, -107669.03, 41365.508, 0.0000014418595, 10.000726, 9.998836 
6.6497666e+2, 2.9479057e+2, 29003.992, -150359.58, -89024.96, -0.05252475, -0.09476565, 65687.81, 116732.516, 0.000014823799, 10.001085, 9.998746 
6.6497207e+2, 3.0478883e+2, -72367.26, -315742.66, 8824.213, 0.066371515, -0.06763134, -72047.73, -72047.73, 0.000057815294, 10.000678, 9.997478 
6.6496664e+2, 3.1478828e+2, -163668.22, -157236.8, 97797.31, -0.0051572025, 0.08213779, -62602.344, -62602.344, 0.00014076945, 9.999101, 9.999324 
6.750822e+2, 1.24807455e+2, -1652261.1, -1822097.1, -142160.02, -0.08144718, 0.0101875095, -1571587.6, 145293.58, 0.0000000023126079, 10.000976, 9.998753 
6.750775e+2, 1.3480525e+2, -1571478.3, -1743360.8, 44318.99, 0.07927264, -0.12515065, -1560723.6, 58181.06, 0.0, 10.000911, 9.998689 
6.750717e+2, 1.4480445e+2, -1416310.3, -1475482.6, -9661.494, 0.08432331, -0.11969989, -1414772.8, 106139.82, 0.0, 10.000689, 9.999935 
6.750636e+2, 1.548049e+2, -1261851.9, -1341574.6, 13759.067, -0.068160355, -0.11573492, -1259544.1, 163361.52, 0.0, 10.00105, 10.000004 
6.7505646e+2, 1.6480549e+2, -1194781.6, -1283521.0, 19868.385, -0.12470194, -0.042539798, -1190536.3, 134362.77, 0.0, 10.000936, 9.999794 
6.750512e+2, 1.7480588e+2, -1192024.6, -1230150.1, 31208.555, -0.020015, -0.017607218, -1174517.5, 52378.535, 0.0, 10.000278, 9.999798 
6.7504555e+2, 1.8480554e+2, -1184688.5, -1239911.9, 13311.924, 0.028026044, 0.004388713, -1181647.1, -52746.49, 0.0, 9.999935, 9.999229 
6.7503935e+2, 1.9480422e+2, -1088622.5, -1144166.8, -3611.661, -0.005213758, -0.082128614, -1088388.6, -57472.895, 0.0, 9.999927, 9.999218 
6.750339e+2, 2.0480372e+2, -904381.0, -956017.94, -19522.623, 0.021706587, -0.06604265, -897830.9, 35089.56, 0.0, 10.000286, 9.999676 
6.750293e+2, 2.1480384e+2, -716538.9, -808585.94, 2488.2598, 0.10864572, -0.058030404, -716471.6, 118445.445, 0.0, 10.000889, 9.999717 
6.750228e+2, 2.2480352e+2, -672280.75, -835392.8, -52024.375, 0.076079905, -0.012017608, -657100.44, 79819.82, 0.0, 10.000961, 9.998819 
6.7501426e+2, 2.3480241e+2, -659460.06, -781968.56, -30433.928, -0.09616712, -0.0355986, -652316.2, -13382.611, 0.0, 10.000392, 9.998788 
6.7500746e+2, 2.448019e+2, -549103.2, -613060.5, -7745.104, -0.13699257, 0.010655487, -548178.6, -7239.6636, 0.0, 10.000177, 9.99938 
6.7500234e+2, 2.548016e+2, -458329.53, -523391.16, 19730.625, -0.045821298, 0.005882939, -452813.66, -9873.561, 0.0, 10.0001335, 9.999347 
6.7499673e+2, 2.6480064e+2, -419029.4, -551834.25, -1737.1172, 0.0016987299, 0.025992272, -419006.7, -74057.54, 0.0, 10.000184, 9.998444 
6.7499053e+2, 2.7479878e+2, -304324.06, -449350.13, -1735.8527, -0.0076776654, -0.035935644, -304303.28, -57334.74, 0.0000000015372758, 10.000314, 9.998414 
6.7498446e+2, 2.8479758e+2, -168306.42, -357065.94, -37151.277, -0.024912523, 0.020409238, -161257.61, -12276.707, 0.0000017821444, 10.000677, 9.998198 
6.74978e+2, 2.9479656e+2, -30793.297, -245151.16, -53308.813, -0.06918585, 0.056155942, -18267.79, 32723.123, 0.000019076204, 10.00096, 9.998154 
6.7497265e+2, 3.0479413e+2, 13883.709, -116704.7, -58231.203, 0.026984407, -0.028783545, 36077.824, 36077.824, 0.000073988194, 10.000602, 9.998878 
6.7496544e+2, 3.147935e+2, -145094.0, -82514.17, 94544.44, -0.107393295, -0.025227401, -14216.387, -14216.387, 0.00017626988, 9.998961, 9.999895 
6.850847e+2, 1.2481518e+2, -1513052.4, -1801514.6, -154709.9, 0.034867395, 0.023620626, -1445770.4, 271034.34, 0.0000000036242784, 10.002101, 9.99837 
6.8507826e+2, 1.348123e+2, -1524537.3, -1782694.0, 22901.625, 0.052233253, -0.1174413, -1522521.3, 96315.48, 0.0, 10.001522, 9.998114 
6.8507326e+2, 1.4481135e+2, -1361055.3, -1429548.8, 57919.68, 0.16955997, -0.10672829, -1328015.0, 192831.16, 0.0, 10.0009775, 10.000116 
6.8506455e+2, 1.5481187e+2, -1281825.9, -1332323.4, 15922.062, -0.05130014, -0.11327773, -1277224.8, 145611.97, 0.0, 10.000815, 10.000195 
6.850573e+2, 1.6481225e+2, -1225678.9, -1333734.4, 15653.014, -0.1196856, -0.05603001, -1223457.1, 101374.39, 0.0, 10.00087, 9.999486 
6.8505216e+2, 1.7481215e+2, -1092877.0, -1225245.5, -20835.846, 0.01735699, -0.046926923, -1089674.8, 137158.95, 0.0, 10.001131, 9.9994335 
6.8504643e+2, 1.8481165e+2, -1038039.94, -1178067.6, 10787.5, 0.08194089, -0.017250037, -1037213.75, 91626.42, 0.0, 10.00097, 9.999153 
6.850399e+2, 1.948104e+2, -1045087.6, -1129665.0, 26175.977, 0.04798754, -0.09167173, -1037641.9, -6787.3896, 0.0, 10.000241, 9.999162 
6.850344e+2, 2.0481008e+2, -927269.7, -953928.44, 101047.15, 0.058356, -0.062298473, -838676.56, 94181.484, 0.0, 10.000116, 9.999743 
6.8503004e+2, 2.1481042e+2, -736661.06, -812942.75, 80708.875, 0.11333587, -0.039270498, -685534.6, 149319.02, 0.0, 10.00074, 9.999745 
6.850234e+2, 2.248101e+2, -665708.9, -813312.44, 10202.547, 0.061339438, -0.0033796178, -665007.0, 71849.68, 0.0, 10.000907, 9.998999 
6.8501455e+2, 2.3480883e+2, -625886.44, -747272.75, 3469.6855, -0.104049325, -0.057790443, -625787.3, 13082.783, 0.0, 10.000522, 9.998968 
6.8500787e+2, 2.448082e+2, -505270.8, -609307.6, 67378.13, -0.12037769, -0.024890386, -472167.38, 68708.805, 0.0, 10.00057, 9.999204 
6.850035e+2, 2.548079e+2, -314423.53, -469254.94, 24988.807, 0.0201197, -0.011929662, -310490.4, 132386.95, 0.0, 10.001217, 9.999179 
6.8499804e+2, 2.6480687e+2, -255483.33, -490143.06, 13100.716, 0.06641477, 0.01723213, -254754.19, 90133.055, 0.0, 10.0013685, 9.998299 
6.849914e+2, 2.7480477e+2, -240405.73, -435711.3, 9701.971, 0.03310849, -0.054668494, -239924.95, 6984.3687, 0.00000000039754933, 10.000808, 9.998275 
6.849853e+2, 2.8480345e+2, -212635.03, -380833.03, 55593.813, 0.017613763, -0.005850044, -195920.77, -46997.32, 0.000001935021, 10.000381, 9.998174 
6.849795e+2, 2.948024e+2, -123018.58, -289154.72, 52212.49, 0.020182697, 0.035202295, -107972.18, -57038.445, 0.000022833043, 10.000311, 9.998166 
6.849732e+2, 3.0480045e+2, -58724.496, -108717.766, 13621.655, 0.06656573, -0.023322877, -55253.938, -55253.938, 0.00009092674, 9.999928, 9.999253 
6.849646e+2, 3.1479904e+2, -195574.4, -93386.805, 49220.46, -0.052198887, -0.12372052, -73535.34, -73535.34, 0.00021663251, 9.998529, 10.000046 
6.9508773e+2, 1.24822006e+2, -1451969.0, -1675514.4, -159250.92, 0.038561553, 0.028130367, -1369180.6, 347560.13, 0.00000000017840025, 10.002123, 9.99921 
6.9507873e+2, 1.3482106e+2, -1486791.0, -1705453.5, 11328.124, -0.08748962, 0.029390575, -1486205.6, 132546.53, 0.0, 10.001533, 9.998633 
6.9507426e+2, 1.4482042e+2, -1379405.1, -1463520.1, 34385.258, 0.13087425, 0.053417396, -1367137.9, 153619.88, 0.0, 10.000954, 9.999897 
6.950667e+2, 1.5481982e+2, -1302500.5, -1378423.1, 27415.85, 0.04175342, -0.042502854, -1293635.6, 129124.125, 0.0, 10.000816, 9.999884 
6.9505924e+2, 1.6481897e+2, -1274454.5, -1417723.4, 11011.044, -0.046776995, -0.06270847, -1273613.3, 51153.742, 0.0, 10.000807, 9.998933 
6.9505286e+2, 1.7481777e+2, -1142679.8, -1310758.3, 8955.688, -0.062412906, -0.1057344, -1142203.9, 84576.516, 0.0, 10.001059, 9.998879 
6.9504654e+2, 1.8481746e+2, -1001851.06, -1075591.8, -28213.313, -0.032006957, -0.06717127, -992294.94, 136488.83, 0.0, 10.000855, 9.999907 
6.950402e+2, 1.9481769e+2, -1011640.3, -1029222.8, 13247.841, 0.025098162, -0.07390439, -1004532.1, 26248.41, 0.0, 10.00012, 9.999902 
6.950346e+2, 2.0481785e+2, -954622.3, -983522.4, 106572.555, 0.037194073, -0.02819377, -861524.6, 71254.05, 0.0, 9.999988, 9.999606 
6.9503e+2, 2.1481764e+2, -776292.75, -849354.06, 118421.75, 0.0040323734, -0.040269073, -688895.2, 145885.66, 0.0, 10.000542, 9.99959 
6.9502354e+2, 2.2481707e+2, -677707.5, -794012.9, -18397.844, -0.048130732, -0.034114115, -674866.6, 61919.41, 0.0, 10.000715, 9.999222 
6.95015e+2, 2.3481569e+2, -636294.4, -726675.1, 2428.6804, -0.13266128, -0.12746541, -636229.1, 2568.861, 0.0, 10.000343, 9.99919 
6.9500875e+2, 2.4481449e+2, -569367.56, -717217.2, 77236.73, -0.122668006, -0.12771283, -536379.4, 4429.8027, 0.0, 10.000454, 9.99852 
6.9500476e+2, 2.5481313e+2, -378386.78, -576581.3, 66777.266, -0.01373485, -0.15114641, -357987.28, 84835.23, 0.0, 10.001098, 9.998502 
6.9499934e+2, 2.6481193e+2, -255873.33, -463763.1, -19406.861, 0.026647542, -0.11889686, -254077.19, 90757.6, 0.0, 10.001258, 9.998529 
6.9499224e+2, 2.7481043e+2, -244123.3, -412817.9, 5010.324, 0.0012858352, -0.15547328, -243974.63, 2875.426, 0.0000000054780975, 10.000681, 9.998489 
6.9498605e+2, 2.8480923e+2, -183074.44, -303557.53, 35462.38, 0.017101934, -0.12944396, -173411.6, -24549.508, 0.000002364329, 10.000314, 9.998734 
6.949804e+2, 2.9480818e+2, -100207.6, -214055.25, 73400.08, 0.038199067, -0.15577261, -64244.97, -13372.057, 0.000027093956, 10.000196, 9.998734 
6.9497323e+2, 3.0480775e+2, -110240.99, -208122.16, -42850.29, 0.044499304, -0.05571869, -94132.914, -94132.914, 0.00010798756, 9.999888, 9.998588 
6.949634e+2, 3.1480557e+2, -237659.22, -157370.22, 62585.88, -0.10179085, -0.16765536, -123160.34, -123160.34, 0.00025661878, 9.998427, 9.999652 
7.050897e+2, 1.24829106e+2, -1475845.5, -1654585.8, -23670.355, 0.058023404, -0.052008253, -1472764.0, 243905.73, 0.0, 10.001791, 9.999533 
7.0508e+2, 1.3482891e+2, -1603316.9, -1739012.4, 12014.132, -0.056975886, 0.004435196, -1602261.4, 16410.76, 0.0, 10.0006075, 9.998858 
7.050757e+2, 1.448281e+2, -1535684.4, -1588006.6, 101788.836, 0.23055243, 0.021586092, -1456748.5, 63931.168, 0.0, 10.000096, 9.999449 
7.0506823e+2, 1.5482725e+2, -1315776.9, -1428802.9, 47701.18, 0.11718979, -0.052738007, -1298336.4, 124350.57, 0.0, 10.0009365, 9.999461 
7.050606e+2, 1.6482635e+2, -1223969.0, -1372356.6, 67676.055, 0.0047804713, -0.06554097, -1197739.8, 126955.555, 0.0, 10.001072, 9.999107 
7.050538e+2, 1.7482515e+2, -1240587.1, -1330684.3, 87258.28, -0.023875972, -0.12897368, -1187435.0, 39272.25, 0.0, 10.000281, 9.999103 
7.050474e+2, 1.8482481e+2, -1096022.6, -1133766.1, 87355.35, 0.006635241, -0.10239137, -1025523.75, 103186.19, 0.0, 10.000264, 9.999794 
7.0504135e+2, 1.9482489e+2, -878141.9, -980780.4, 32838.5, 0.08490296, -0.1074375, -868534.7, 162172.78, 0.0, 10.001093, 9.999776 
7.050354e+2, 2.0482485e+2, -795303.8, -934807.25, 116620.2, 0.067132555, -0.062787995, -729167.44, 203540.42, 0.0, 10.001176, 9.999381 
7.050298e+2, 2.1482445e+2, -817064.8, -893275.1, 94558.94, -0.049390793, -0.07451677, -753221.94, 81491.51, 0.0, 10.000346, 9.9993925 
7.0502377e+2, 2.2482397e+2, -737082.75, -817653.1, -9272.285, -0.07397332, -0.050160546, -736029.44, 688.8498, 0.0, 10.000302, 9.9992485 
7.050169e+2, 2.3482305e+2, -509743.63, -660248.06, -33764.04, -0.0154494, -0.10136483, -502516.1, 136209.61, 0.0, 10.001202, 9.999227 
7.050108e+2, 2.448217e+2, -474371.9, -696143.56, 61266.54, 0.0027935768, -0.10636321, -458572.06, 82166.13, 0.0, 10.001206, 9.998311 
7.0500535e+2, 2.548196e+2, -523408.47, -669529.3, 57193.957, -0.010539993, -0.18337134, -503684.34, -60925.2, 0.0, 10.0001955, 9.998307 
7.0499945e+2, 2.6481834e+2, -428933.6, -520606.3, 26090.414, -0.0064415922, -0.15775579, -422028.3, -77256.414, 0.0, 9.999951, 9.998774 
7.0499307e+2, 2.748176e+2, -244817.97, -380828.06, 17601.006, 0.029171076, -0.14328122, -242577.14, 4202.3223, 0.000000016182126, 10.000542, 9.998773 
7.049869e+2, 2.8481677e+2, -131960.98, -277185.8, 51305.656, 0.066479765, -0.09874526, -115664.266, 33124.473, 0.0000030357212, 10.000642, 9.998769 
7.049809e+2, 2.948156e+2, -124597.62, -223947.33, 16099.086, 0.08663661, -0.13352811, -122053.97, -71252.52, 0.000031540207, 10.000006, 9.998768 
7.04973e+2, 3.0481514e+2, -104457.375, -232618.78, -68370.87, 0.039735302, -0.027580773, -74831.555, -74831.555, 0.00012311795, 10.000049, 9.998336 
7.049634e+2, 3.148135e+2, 104475.805, 50489.1, 14003.891, -0.04314906, -0.06878238, 107892.15, 107892.15, 0.0002906225, 10.000611, 10.0000105 
7.1509004e+2, 1.2483646e+2, -1468242.6, -1640220.9, -57930.55, -0.1613075, -0.19440396, -1450549.3, 266042.66, 0.0, 10.0018, 9.999621 
7.150816e+2, 1.348357e+2, -1592792.8, -1734918.4, -26095.846, -0.0004051152, -0.19989482, -1588152.8, 30444.896, 0.0, 10.000671, 9.99886 
7.1507704e+2, 1.4483438e+2, -1578924.9, -1679734.1, 110701.92, 0.30854988, -0.20298095, -1507692.6, 12919.462, 0.0, 10.000113, 9.998805 
7.150687e+2, 1.548343e+2, -1364381.9, -1525754.4, 96290.89, 0.033099305, -0.1376774, -1319440.9, 103176.49, 0.0, 10.000918, 9.998803 
7.15061e+2, 1.6483438e+2, -1171037.9, -1242110.1, 22956.943, -0.095029466, -0.065278396, -1164267.5, 160349.56, 0.0, 10.000994, 10.000035 
7.150547e+2, 1.7483424e+2, -1184666.6, -1200583.0, 70700.77, 0.0011839095, -0.118127085, -1121477.6, 105137.266, 0.0, 10.000231, 10.000017 
7.150486e+2, 1.8483359e+2, -1173415.0, -1278169.6, 101268.38, 0.06417145, -0.12088016, -1111780.6, 16839.023, 0.0, 10.000193, 9.998842 
7.1504277e+2, 1.9483207e+2, -969047.06, -1133549.1, 80743.09, 0.08682197, -0.18645222, -936038.9, 94595.78, 0.0, 10.000943, 9.998802 
7.1503633e+2, 2.0483129e+2, -842716.4, -986671.4, 72751.414, 0.009806869, -0.15499075, -812353.56, 120290.44, 0.0, 10.000987, 9.999112 
7.150291e+2, 2.148309e+2, -872499.3, -949284.6, 76450.89, -0.1771756, -0.13845307, -825342.3, 9308.179, 0.0, 10.00011, 9.999115 
7.150236e+2, 2.2483091e+2, -773252.56, -856400.94, 6033.7217, -0.14566673, -0.04103956, -772817.0, -36164.676, 0.0, 10.000138, 9.999066 
7.1501964e+2, 2.3483099e+2, -550322.56, -701076.5, 14839.106, 0.10938737, 0.027671037, -548875.8, 89776.445, 0.0, 10.001012, 9.999041 
7.150135e+2, 2.4482991e+2, -482851.63, -674024.94, 8867.668, 0.12673539, 0.046578277, -482441.2, 58221.44, 0.0, 10.001037, 9.998547 
7.150048e+2, 2.5482726e+2, -531593.6, -646536.5, 34489.938, -0.116826996, -0.10856131, -522038.78, -79351.35, 0.0, 10.000034, 9.998541 
7.149981e+2, 2.6482615e+2, -415634.94, -483521.44, 30359.816, -0.17177941, -0.091962084, -404038.5, -59340.26, 0.0, 9.999903, 9.999057 
7.149934e+2, 2.7482632e+2, -241632.92, -348193.3, 57940.375, -0.026854727, -0.015987631, -216199.3, 30498.35, 0.000000020828322, 10.000425, 9.999059 
7.1498764e+2, 2.8482598e+2, -176543.42, -346299.13, 14310.2705, 0.04110064, 0.08506524, -175345.53, -26641.725, 0.0000037854625, 10.000553, 9.998331 
7.149804e+2, 2.948248e+2, -180646.55, -307434.06, 15202.38, -0.009635422, 0.09462708, -178849.19, -128129.53, 0.000035842306, 9.999883, 9.998245 
7.149719e+2, 3.048229e+2, -95974.94, -219644.94, -57923.516, -0.1082107, 0.07941017, -73082.73, -73082.73, 0.000135526, 10.000054, 9.998431 
7.1496356e+2, 3.1482196e+2, 148636.95, 164681.06, 80873.15, -0.16452494, 0.095686264, 237929.05, 237929.05, 0.00031586387, 10.0005, 10.000863 
7.2509193e+2, 1.24844976e+2, -1538587.6, -1702373.4, 3123.6414, -0.112786874, -0.19265969, -1538528.1, 177980.6, 0.0, 10.001407, 9.999413 
7.2508335e+2, 1.3484435e+2, -1292665.6, -1579926.6, -76117.19, 0.025119543, -0.1845298, -1273742.9, 344770.3, 0.0, 10.002712, 9.998935 
7.2507805e+2, 1.448428e+2, -1236039.8, -1524597.5, 100718.92, 0.2879593, -0.20878479, -1204362.1, 316167.53, 0.0, 10.002495, 9.99874 
7.2506964e+2, 1.548429e+2, -1374070.8, -1534201.8, 100787.78, 0.048852872, -0.11785779, -1325416.9, 97116.41, 0.0, 10.000856, 9.998787 
7.250621e+2, 1.6484302e+2, -1263766.6, -1308092.4, 60671.92, -0.050714824, -0.030730564, -1221336.4, 103196.79, 0.0, 10.000412, 9.9998865 
7.250559e+2, 1.7484282e+2, -1051836.0, -1150541.9, -1770.6089, 0.05091307, -0.07499511, -1051804.3, 174728.28, 0.0, 10.001185, 9.999913 
7.250497e+2, 1.8484202e+2, -1006304.25, -1212862.8, 54320.75, 0.102104954, -0.08098582, -992890.1, 135648.72, 0.0, 10.001401, 9.998706 
7.250436e+2, 1.9484022e+2, -973256.6, -1147842.9, 64920.027, 0.08308515, -0.16293804, -951762.3, 78793.664, 0.0, 10.000965, 9.99869 
7.25037e+2, 2.0483916e+2, -901018.75, -1045935.2, 95469.336, 0.005316303, -0.13941115, -853624.6, 78942.96, 0.0, 10.000735, 9.998831 
7.250299e+2, 2.1483846e+2, -809061.8, -953169.25, 70046.72, -0.12750067, -0.12405743, -780625.4, 53951.754, 0.0, 10.000692, 9.998815 
7.250245e+2, 2.2483811e+2, -695941.94, -849190.75, 65781.34, -0.09094866, -0.032655116, -671578.8, 65003.836, 0.0, 10.000796, 9.998807 
7.250209e+2, 2.3483784e+2, -562079.94, -736636.44, 36533.676, 0.1377504, 0.028966324, -554742.1, 83844.67, 0.0, 10.001054, 9.998786 
7.250147e+2, 2.4483693e+2, -470655.8, -634445.9, 18141.434, 0.16209176, 0.06354535, -468670.53, 71925.07, 0.0, 10.00099, 9.99883 
7.250058e+2, 2.5483498e+2, -412695.34, -558856.6, 17057.365, -0.046990495, -0.048484966, -410731.1, 31881.762, 0.0, 10.000716, 9.998812 
7.249987e+2, 2.6483393e+2, -349540.28, -464341.7, 58673.426, -0.119281545, -0.0350887, -324859.25, 19763.973, 0.0, 10.000432, 9.998923 
7.2499365e+2, 2.7483347e+2, -283225.44, -385178.28, 18535.771, -0.019382188, -0.008940649, -279960.1, -33330.44, 0.000000011844985, 10.000209, 9.998911 
7.249879e+2, 2.8483316e+2, -230558.77, -358452.97, 1529.279, 0.047320936, 0.09708074, -230540.47, -81904.625, 0.000004675658, 10.000142, 9.998437 
7.24981e+2, 2.9483262e+2, -117018.805, -263400.97, 5378.4463, 0.056461256, 0.16085319, -116821.45, -66176.19, 0.000040333267, 10.000273, 9.998356 
7.24972e+2, 3.0482993e+2, -83212.71, -188043.73, 3637.5999, -0.094625, 0.05393289, -83086.64, -83086.64, 0.00014552829, 10.000037, 9.998666 
7.249641e+2, 3.148296e+2, -61840.543, 60073.688, 73645.34, -0.06881237, 0.10505422, 94716.81, 94716.81, 0.00033116215, 9.99907, 10.000836 
7.350949e+2, 1.2485476e+2, -1568989.3, -1758806.5, 35537.605, -0.0261924, -0.028934576, -1562554.1, 153865.1, 0.0, 10.0013895, 9.999024 
7.35085e+2, 1.3485473e+2, -1303005.8, -1599495.9, -22664.006, -0.11753216, 0.048398662, -1301283.4, 317135.75, 0.0, 10.002693, 9.998814 
7.350781e+2, 1.4485306e+2, -1211488.0, -1447403.3, 19671.654, 0.010737589, -0.012769947, -1209858.9, 310576.13, 0.0, 10.002395, 9.999307 
7.3507065e+2, 1.548528e+2, -1342050.1, -1464860.6, 57060.383, 0.021400915, -0.014701509, -1319631.3, 102805.91, 0.0, 10.000845, 9.999267 
7.350633e+2, 1.6485223e+2, -1342157.4, -1467833.5, 70494.945, -0.000491226, 0.03400583, -1310559.5, 13884.453, 0.0, 10.0004, 9.998794 
7.350568e+2, 1.7485107e+2, -1141292.0, -1319978.8, 44658.02, -0.0019028306, 0.0039996644, -1130752.5, 95705.82, 0.0, 10.001112, 9.998788 
7.3505026e+2, 1.8485025e+2, -983917.4, -1131242.6, 24497.223, -0.015056433, 0.022723543, -979950.8, 148515.44, 0.0, 10.001257, 9.9993305 
7.350434e+2, 1.9484945e+2, -950970.0, -1064238.5, 61600.64, -0.061313245, -0.026460115, -923925.9, 106544.54, 0.0, 10.000817, 9.999328 
7.350372e+2, 2.0484856e+2, -940751.9, -1096236.8, 76566.73, -0.0706926, -0.0014175713, -909378.1, 23099.502, 0.0, 10.000591, 9.998555 
7.3503166e+2, 2.1484728e+2, -856928.56, -1003991.25, 83360.58, -0.04733082, -0.018825665, -819303.06, 15188.319, 0.0, 10.000485, 9.998561 
7.35026e+2, 2.2484575e+2, -753267.8, -918391.6, 59537.914, -0.042083643, -0.014516905, -734039.6, 2467.7234, 0.0, 10.000585, 9.998433 
7.3502016e+2, 2.3484363e+2, -620375.94, -804774.4, 62879.125, -0.064615294, -0.10200536, -600975.56, 37553.375, 0.0, 10.000835, 9.998418 
7.3501414e+2, 2.448428e+2, -461515.7, -590199.94, -6425.617, -0.026835246, -0.057341818, -461195.63, 79341.2, 0.0, 10.000874, 9.999191 
7.3500794e+2, 2.5484297e+2, -413131.1, -518557.16, 21664.297, 0.067075536, 0.0043633804, -408852.88, 33681.168, 0.0, 10.000539, 9.999175 
7.3500097e+2, 2.6484194e+2, -409915.9, -561838.1, 37748.89, 0.036198847, 0.031640988, -401053.28, -56508.617, 0.0, 10.000312, 9.99831 
7.3499334e+2, 2.7483916e+2, -344828.5, -487892.1, 32459.883, -0.108956195, -0.108731754, -337808.13, -91234.17, 0.000000051096855, 10.000103, 9.998256 
7.3498726e+2, 2.8483835e+2, -180244.92, -259315.2, -8606.411, -0.073390104, -0.053947225, -179319.0, -30735.107, 0.0000058850314, 10.000152, 9.999117 
7.349823e+2, 2.9483917e+2, -81308.63, -173002.69, 33320.836, 0.11531413, 0.072470166, -70479.14, -19901.768, 0.000044056193, 10.000194, 9.999018 
7.349727e+2, 3.0483636e+2, -67176.73, -148942.2, -37825.902, -0.062744364, -0.09502303, -52362.09, -52362.09, 0.00015023243, 10.0000105, 9.998945 
7.3496366e+2, 3.1483585e+2, -144351.8, -82378.89, 65872.445, -0.10169747, -0.082789004, -40568.777, -40568.777, 0.0003329124, 9.998945, 9.999916 
7.4509656e+2, 1.24862485e+2, -1672999.0, -1792097.8, 34607.01, 0.05450697, 0.049474187, -1663673.4, 52675.02, 0.0, 10.000629, 9.999139 
7.4508715e+2, 1.3486268e+2, -1535175.6, -1658480.5, -57875.727, -0.06306574, 0.10182532, -1512266.8, 106077.69, 0.0, 10.000896, 9.99926 
7.450793e+2, 1.4486115e+2, -1416096.3, -1546253.5, -31246.326, -0.03216989, 0.03261952, -1408983.8, 111374.164, 0.0, 10.000995, 9.999295 
7.4507165e+2, 1.5486048e+2, -1293387.4, -1436352.1, -77540.57, 0.032941125, -0.010381688, -1259407.6, 162955.8, 0.0, 10.001177, 9.999285 
7.450643e+2, 1.6485982e+2, -1268572.1, -1461848.3, 13018.925, 0.040030897, 0.038905658, -1267699.1, 56672.535, 0.0, 10.001038, 9.998527 
7.45058e+2, 1.7485876e+2, -1233845.1, -1390940.3, 19038.59, 0.040715635, 0.04614213, -1231570.8, -5184.2905, 0.0, 10.000589, 9.998551 
7.4505126e+2, 1.8485798e+2, -1089119.6, -1184594.3, 33846.56, 0.009514341, 0.07994386, -1078338.3, 50056.258, 0.0, 10.000534, 9.999321 
7.45044e+2, 1.9485705e+2, -947686.0, -1068925.5, -4898.0586, -0.07274066, 0.020412514, -947488.44, 82911.03, 0.0, 10.000847, 9.999291 
7.4503803e+2, 2.0485601e+2, -864684.7, -1064566.9, 30253.139, -0.06773439, 0.032370683, -860206.06, 72201.41, 0.0, 10.001129, 9.9985 
7.450333e+2, 2.1485454e+2, -728867.0, -952621.1, 18518.078, 0.028424574, 0.0027891786, -727344.8, 107076.98, 0.0, 10.0014, 9.99847 
7.4502754e+2, 2.2485283e+2, -675208.6, -861765.6, 34676.563, 0.033474766, -0.015963813, -668971.6, 67466.82, 0.0, 10.001044, 9.99859 
7.4502045e+2, 2.348505e+2, -730527.7, -844607.75, 43765.152, -0.06664893, -0.14223535, -715672.3, -77211.23, 0.0, 10.000001, 9.998551 
7.4501425e+2, 2.4484959e+2, -631370.0, -688012.56, 31863.844, -0.04088648, -0.1041748, -617060.3, -76590.516, 0.0, 9.999774, 9.999057 
7.4500895e+2, 2.548499e+2, -415100.9, -531846.44, -11185.822, 0.12127123, -0.013975781, -414038.8, 28428.084, 0.0, 10.000574, 9.999069 
7.4500215e+2, 2.6484895e+2, -316035.06, -522889.22, 25718.246, 0.09819425, 0.026256982, -312885.44, 31592.174, 0.0, 10.00099, 9.99825 
7.449939e+2, 2.748462e+2, -218323.19, -424235.72, 30699.396, -0.097384065, -0.108213104, -213843.67, 32662.605, 0.00000017449423, 10.000988, 9.998252 
7.449874e+2, 2.8484523e+2, -128582.96, -247613.98, 4714.197, -0.08408284, -0.055260047, -128396.555, 20120.896, 0.0000070145306, 10.000567, 9.998998 
7.449824e+2, 2.9484588e+2, -148703.52, -211214.45, -50592.617, 0.13511503, 0.060807876, -120490.37, -69976.31, 0.00004543542, 9.999754, 9.998969 
7.4497277e+2, 3.0484384e+2, -34860.95, -85959.4, -88928.12, -0.044860084, -0.04743079, 32115.352, 32115.352, 0.00014809403, 10.000028, 9.999367 
7.4496514e+2, 3.1484297e+2, 136900.2, 39470.113, -63267.332, 0.06321198, -0.11599913, 168034.47, 168034.47, 0.00032280377, 10.000947, 9.999776 
7.5509614e+2, 1.2486801e+2, -1631763.9, -1698315.8, -6712.5117, -0.12475809, 0.005055035, -1631093.5, 85204.414, 0.0, 10.000596, 9.9998 
7.550895e+2, 1.3486819e+2, -1467670.4, -1524179.8, -34508.582, 0.04915556, -0.03541051, -1451325.0, 166964.2, 0.0, 10.000912, 10.000181 
7.550812e+2, 1.4486714e+2, -1462543.9, -1631475.0, -44301.176, 0.015318942, -0.07378815, -1451631.1, 68666.44, 0.0, 10.000953, 9.998729 
7.550722e+2, 1.548662e+2, -1342679.3, -1524595.5, -55797.438, -0.06630524, -0.08224318, -1326928.6, 95381.23, 0.0, 10.001121, 9.99871 
7.550646e+2, 1.6486585e+2, -1232868.5, -1374869.3, -21997.9, -0.070863925, -0.0060069486, -1229538.8, 94777.17, 0.0, 10.000978, 9.999152 
7.550589e+2, 1.7486592e+2, -1199096.8, -1307075.3, 17494.35, 0.039042264, 0.053743128, -1196333.1, 29983.69, 0.0, 10.000541, 9.99915 
7.5505245e+2, 1.8486519e+2, -1139874.4, -1271345.0, 27777.953, 0.039812725, 0.09176915, -1134246.3, -5922.25, 0.0, 10.000452, 9.998768 
7.5504506e+2, 1.9486316e+2, -1005403.9, -1155743.3, 22874.934, -0.08866817, -0.019531803, -1002000.44, 28341.678, 0.0, 10.00071, 9.998761 
7.55039e+2, 2.0486161e+2, -884516.9, -1066348.9, 25418.809, -0.11339761, -0.034925636, -881030.3, 51325.57, 0.0, 10.000955, 9.998579 
7.550344e+2, 2.148603e+2, -755236.9, -951248.5, 43678.645, -0.032606993, -0.0565002, -745944.25, 88423.5, 0.0, 10.001171, 9.998588 
7.5502855e+2, 2.2485943e+2, -654564.44, -776043.06, -17858.316, 0.009040925, -0.03132792, -651993.5, 84381.58, 0.0, 10.000855, 9.999273 
7.5502133e+2, 2.3485863e+2, -713993.94, -758809.94, 20933.281, 0.000659997, -0.07097789, -705737.3, -67355.89, 0.0, 9.999785, 9.999244 
7.550146e+2, 2.4485758e+2, -697841.94, -794433.3, 46182.13, -0.01304019, -0.05250401, -679315.0, -138922.94, 0.0, 9.999634, 9.998392 
7.550082e+2, 2.5485578e+2, -481946.5, -642460.06, 34418.457, -0.036411725, -0.10527398, -474877.56, -32465.76, 0.0, 10.000453, 9.998368 
7.550017e+2, 2.6485485e+2, -286104.0, -445708.13, 11337.865, -0.07598766, -0.049847588, -285302.6, 59119.8, 0.0, 10.000926, 9.99881 
7.54995e+2, 2.748545e+2, -198602.34, -353748.84, 48724.086, -0.12511751, 0.00065436907, -184569.67, 61856.66, 0.0000002213921, 10.000859, 9.998799 
7.54988e+2, 2.8485394e+2, -203953.6, -389082.22, -38801.145, -0.10815181, 0.105827, -196150.17, -47714.164, 0.000006961638, 10.000496, 9.998065 
7.549806e+2, 2.948527e+2, -223877.8, -351390.22, -56653.465, -0.059774872, 0.13293853, -202343.5, -151887.69, 0.00004401986, 9.999673, 9.998053 
7.549715e+2, 3.048522e+2, -4890.493, -960.32434, -61508.47, -0.20359053, 0.18752812, 58614.44, 58614.44, 0.0001416952, 9.999951, 9.999973 
7.5496733e+2, 3.1485212e+2, 157573.75, 117047.53, -26513.184, 0.11221642, 0.13909538, 170680.42, 170680.42, 0.0003069929, 10.000814, 10.000362 
7.6509714e+2, 1.24875665e+2, -1465827.6, -1603424.8, 94912.89, -0.11747929, 0.050650842, -1417401.3, 298823.72, 0.00000000032551553, 10.001615, 9.999973 
7.6509154e+2, 1.3487536e+2, -1401677.3, -1465203.4, -25956.42, 0.15580362, -0.066991664, -1392420.5, 225799.6, 0.0, 10.001229, 10.000432 
7.650827e+2, 1.4487465e+2, -1485018.4, -1646950.9, 15465.337, 0.09063849, -0.083741195, -1483554.6, 36669.848, 0.0, 10.000787, 9.99872 
7.650735e+2, 1.5487368e+2, -1380481.0, -1544025.3, 17847.037, -0.02502325, -0.09649911, -1378556.1, 43680.77, 0.0, 10.000835, 9.998731 
7.650657e+2, 1.6487326e+2, -1215414.3, -1359179.6, 89766.445, -0.0483033, -0.032184932, -1172296.4, 151946.58, 0.0, 10.001079, 9.999204 
7.6506e+2, 1.7487313e+2, -1055824.8, -1233056.0, 55284.04, 0.056650992, 0.0018806526, -1039993.94, 186250.8, 0.0, 10.001507, 9.999189 
7.650537e+2, 1.848724e+2, -978999.7, -1213733.4, 91364.08, 0.07372539, 0.04706625, -947630.6, 180621.44, 0.0, 10.001655, 9.998575 
7.650468e+2, 1.948706e+2, -903278.06, -1131597.4, 80283.336, -0.017187959, -0.022003274, -877874.7, 152395.14, 0.0, 10.0015135, 9.998541 
7.650406e+2, 2.048691e+2, -841006.2, -1030258.3, 121452.59, -0.049402416, -0.027666036, -781668.56, 150615.22, 0.0, 10.001201, 9.998708 
7.650353e+2, 2.1486755e+2, -812856.4, -970553.0, 114784.75, -0.025613973, -0.0862661, -752447.4, 81850.195, 0.0, 10.000722, 9.998683 
7.6502925e+2, 2.2486694e+2, -710971.56, -811582.25, 40421.977, 0.017119233, -0.03431551, -696743.5, 39559.535, 0.0, 10.000518, 9.999191 
7.650222e+2, 2.3486705e+2, -593036.94, -706129.94, -12215.959, 0.07352903, 0.024778387, -591732.44, 46570.008, 0.0, 10.000654, 9.999177 
7.6501536e+2, 2.44866e+2, -529566.56, -707865.75, 73598.734, 0.055080928, 0.0444048, -503111.53, 37201.715, 0.0, 10.000765, 9.998443 
7.6500875e+2, 2.548634e+2, -431569.88, -612667.9, 90924.09, -0.043598842, -0.092504896, -393797.75, 48541.363, 0.0, 10.000774, 9.998419 
7.6500225e+2, 2.6486242e+2, -312807.94, -423873.56, 92053.77, -0.09282997, -0.05938462, -260833.58, 83515.56, 0.0, 10.000598, 9.999121 
7.6499593e+2, 2.7486283e+2, -271848.75, -354627.84, 73686.59, -0.07300192, 0.03348017, -228723.17, 17622.31, 0.00000016204108, 10.000209, 9.999112 
7.6498884e+2, 2.848624e+2, -232052.7, -396446.25, 52174.32, -0.058541525, 0.13467038, -216892.05, -68539.27, 0.000006290961, 10.00028, 9.998109 
7.649807e+2, 2.948608e+2, -61678.723, -257679.06, 76265.234, -0.06885179, 0.12122447, -35499.914, 14874.177, 0.000041719115, 10.000755, 9.99815 
7.649719e+2, 3.0486026e+2, 83346.75, -54034.586, 103200.25, -0.18968458, 0.21010154, 138626.64, 138626.64, 0.00013461517, 10.000952, 9.999141 
7.6496875e+2, 3.1485933e+2, 40033.867, 19470.791, -59412.688, 0.2137883, 0.16351941, 90048.08, 90048.08, 0.00029005748, 10.000162, 10.000026 
7.750986e+2, 1.2488537e+2, -1493413.1, -1641469.4, -16584.89, -0.21853296, 0.17977645, -1491578.0, 224552.06, 0.0000000023621072, 10.00154, 9.999751 
7.750926e+2, 1.3488403e+2, -1436668.6, -1532080.8, -36104.93, 0.10239882, 0.010105028, -1424546.4, 193591.75, 0.0, 10.001211, 9.999985 
7.750833e+2, 1.4488351e+2, -1431128.8, -1532783.5, -6719.5073, 0.026867162, -0.0069320747, -1430686.5, 89453.37, 0.0, 10.0007715, 9.999512 
7.750751e+2, 1.5488297e+2, -1328092.8, -1434102.0, 37440.977, 0.0086001875, -0.05257229, -1316202.8, 105941.195, 0.0, 10.00083, 9.999488 
7.7506745e+2, 1.6488212e+2, -1257802.3, -1432903.9, 87700.234, -0.02579095, -0.042128667, -1221431.8, 102720.29, 0.0, 10.001022, 9.998725 
7.750609e+2, 1.7488052e+2, -1096718.8, -1302543.6, 89091.3, -0.03974481, -0.10694718, -1063512.8, 162656.19, 0.0, 10.001447, 9.998739 
7.7505475e+2, 1.8487975e+2, -985800.2, -1205581.9, 71862.75, -0.024884485, -0.0504946, -964388.9, 163788.88, 0.0, 10.001547, 9.9986925 
7.7504885e+2, 1.9487952e+2, -914676.2, -1123582.4, 90771.53, 0.003468224, 0.026603572, -880746.0, 149435.2, 0.0, 10.001372, 9.998668 
7.750424e+2, 2.0487854e+2, -857587.5, -1018995.3, 87391.37, -0.016913908, 0.059270196, -819336.06, 112854.46, 0.0, 10.001009, 9.998875 
7.750357e+2, 2.1487644e+2, -833037.7, -959912.25, 109963.33, -0.08235065, -0.07025012, -769525.3, 64684.4, 0.0, 10.000506, 9.998855 
7.750291e+2, 2.2487558e+2, -802491.8, -956218.06, 28316.408, -0.07304582, -0.008677975, -797441.9, -61221.555, 0.0, 10.000319, 9.998301 
7.750225e+2, 2.3487562e+2, -682053.5, -850210.5, 8051.4844, 0.009071199, 0.13484408, -681668.9, -43443.336, 0.0, 10.000474, 9.99828 
7.750161e+2, 2.4487484e+2, -497214.9, -600270.3, 58839.598, 0.02648338, 0.18499757, -470530.06, 69703.92, 0.0, 10.000599, 9.999261 
7.7500993e+2, 2.548729e+2, -398342.44, -500704.53, 108116.07, -0.03037209, 0.03014761, -329905.0, 112343.14, 0.0, 10.000599, 9.9992695 
7.750034e+2, 2.6487175e+2, -327254.13, -431781.2, 63490.977, -0.07064666, 0.0016251627, -297282.75, 46974.438, 0.0, 10.000502, 9.999116 
7.749963e+2, 2.7487084e+2, -287981.9, -364303.3, 75936.2, -0.09532255, -0.026090898, -241157.05, 5108.7935, 0.00000014054619, 10.000102, 9.999103 
7.749892e+2, 2.8487036e+2, -171596.88, -247953.1, 55487.7, -0.08588092, 0.015612915, -142421.8, 5847.9116, 0.0000059856334, 10.000188, 9.999168 
7.7498204e+2, 2.9487e+2, -177.61627, -114612.76, 116337.81, -0.051419705, 0.014605506, 72251.79, 122522.59, 0.0000396548, 10.000685, 9.9991665 
7.7497375e+2, 3.0486807e+2, -79124.84, -372167.78, 67501.164, -0.13162911, 0.0219399, -64323.816, -64323.816, 0.00012692052, 10.000881, 9.996989 
7.749684e+2, 3.1486452e+2, -84439.53, -204879.3, -60968.81, 0.08768214, -0.06615843, -58964.43, -58964.43, 0.00027215088, 10.000014, 9.998562 
7.8510016e+2, 1.2489291e+2, -1748424.6, -1758990.5, -20244.883, -0.11068706, 0.1233304, -1732784.8, -16730.66, 0.0000000040597263, 9.999815, 9.999752 
7.850934e+2, 1.3489215e+2, -1572565.6, -1621959.8, -55720.8, 0.12209863, 0.035986118, -1536314.0, 81745.81, 0.0, 10.000418, 9.999729 
7.850841e+2, 1.4489202e+2, -1403520.1, -1500283.8, 5108.2866, 0.032998756, 0.063424736, -1403251.3, 116807.74, 0.0, 10.000892, 9.999671 
7.850768e+2, 1.548914e+2, -1224540.6, -1367648.4, -33751.496, 0.07738688, -0.003454045, -1216979.9, 205082.94, 0.0, 10.001482, 9.999624 
7.8506935e+2, 1.6489042e+2, -1189061.1, -1420719.8, 27427.518, 0.048180457, -0.004053172, -1185858.1, 138214.08, 0.0, 10.001579, 9.998536 
7.8506213e+2, 1.7488869e+2, -1169691.8, -1358538.6, 12887.958, -0.029428007, -0.06338753, -1168816.3, 57274.707, 0.0, 10.001041, 9.998545 
7.850559e+2, 1.8488781e+2, -1067334.9, -1233076.6, 40008.438, -0.029728932, -0.011504755, -1058182.6, 69918.195, 0.0, 10.000945, 9.998788 
7.850503e+2, 1.9488752e+2, -940162.8, -1122057.8, 26366.465, 0.034947075, 0.047601707, -936418.0, 93686.56, 0.0, 10.001158, 9.998771 
7.850438e+2, 2.0488673e+2, -831379.44, -996717.75, 36270.066, 0.021784062, 0.089362286, -823772.9, 108339.23, 0.0, 10.001135, 9.998974 
7.8503644e+2, 2.1488512e+2, -793835.6, -928213.94, 23790.158, -0.06518936, -0.0007762811, -789748.2, 44378.953, 0.0, 10.00072, 9.998972 
7.8502965e+2, 2.2488414e+2, -717667.6, -912881.3, 38146.96, -0.06836034, 0.04157315, -710478.06, 25660.693, 0.0, 10.000887, 9.99832 
7.8502345e+2, 2.3488347e+2, -515789.84, -770478.7, 56073.258, 0.00972079, 0.11251948, -503991.13, 134159.1, 0.0, 10.001617, 9.99828 
7.850172e+2, 2.448827e+2, -342296.38, -508959.34, 116199.7, 0.037983518, 0.160265, -282636.56, 257521.23, 0.0, 10.001596, 9.9994 
7.8501093e+2, 2.548815e+2, -361157.88, -469277.3, 79244.08, 0.01086973, 0.065460354, -319290.13, 122874.31, 0.0, 10.000787, 9.999394 
7.8500426e+2, 2.6488045e+2, -348276.3, -444542.8, 45141.605, -0.011710702, 0.043125104, -330420.38, 13751.704, 0.0, 10.000376, 9.999085 
7.849971e+2, 2.7487913e+2, -249058.78, -348585.13, 25028.066, -0.02057586, -0.029244382, -243119.38, 3065.6218, 0.0000001311964, 10.000386, 9.999068 
7.849902e+2, 2.8487825e+2, -125970.93, -218342.1, 19035.932, -0.011862507, -0.02517346, -122201.78, 25989.287, 0.0000058891046, 10.0004635, 9.999248 
7.8498334e+2, 2.948778e+2, -27577.19, -124670.76, -30853.951, 0.027714295, -0.038804736, -18602.184, 31588.6, 0.000037489564, 10.000472, 9.999212 
7.849754e+2, 3.048752e+2, -94096.45, -391493.47, -14508.488, -0.035771336, -0.09890464, -93390.336, -93390.336, 0.00011865352, 10.00081, 9.996892 
7.8496873e+2, 3.1487265e+2, 78836.88, -127526.71, -64760.902, 0.08183992, -0.08376018, 97476.5, 97476.5, 0.00025448482, 10.001124, 9.998554 
7.951006e+2, 1.2489891e+2, -1723266.3, -1736510.3, -78383.31, -0.12658373, -0.07987818, -1651225.8, 64764.836, 0.0000000034592607, 9.999923, 9.999864 
7.9509366e+2, 1.348998e+2, -1566938.3, -1629993.0, -23295.668, 0.053143725, 0.006574791, -1559265.4, 58718.918, 0.0, 10.000489, 9.999643 
7.9508466e+2, 1.4490025e+2, -1446531.0, -1579293.1, 4175.177, -0.04513191, 0.123989224, -1446399.8, 73581.33, 0.0, 10.000856, 9.99914 
7.950782e+2, 1.5489903e+2, -1261580.8, -1438988.4, 7036.1475, 0.035749137, 0.04228479, -1261302.1, 160691.27, 0.0, 10.001466, 9.999136 
7.950711e+2, 1.6489822e+2, -1186799.6, -1411790.5, -9235.998, 0.025603153, 0.08052873, -1186421.1, 137581.34, 0.0, 10.001549, 9.99862 
7.950633e+2, 1.7489766e+2, -1162725.9, -1347144.3, 8150.694, -0.057822812, 0.1286656, -1162366.3, 63644.1, 0.0, 10.00104, 9.998628 
7.950566e+2, 1.8489659e+2, -1084760.6, -1239800.8, 32414.346, -0.08409913, 0.15641263, -1078256.5, 49764.98, 0.0, 10.000825, 9.9987955 
7.9505074e+2, 1.9489458e+2, -953068.4, -1121470.1, 49194.887, -0.069919206, 0.04001248, -939750.44, 90289.625, 0.0, 10.001045, 9.998824 
7.950442e+2, 2.048937e+2, -849936.94, -994767.1, 4025.2395, -0.07399274, 0.061010018, -849825.2, 82223.23, 0.0, 10.000961, 9.999071 
7.95037e+2, 2.1489352e+2, -816674.9, -930621.1, 23718.047, -0.10868084, 0.10540374, -811935.06, 22115.207, 0.0, 10.000525, 9.999049 
7.950305e+2, 2.2489263e+2, -687527.8, -799145.06, 52780.59, -0.10113911, 0.109730594, -666522.4, 69535.87, 0.0, 10.000668, 9.999207 
7.950247e+2, 2.3489067e+2, -477974.3, -652055.25, 101537.33, -0.05727423, -0.03672884, -431276.72, 206798.9, 0.0, 10.001442, 9.999178 
7.9501826e+2, 2.4488968e+2, -405569.44, -601592.8, 71117.92, -0.047270764, -0.03125727, -382485.9, 157598.5, 0.0, 10.001433, 9.998842 
7.9501116e+2, 2.5488925e+2, -427584.3, -568534.4, 64982.207, -0.07530777, 0.010528533, -402197.88, 39890.535, 0.0, 10.000622, 9.998794 
7.950044e+2, 2.6488867e+2, -360564.72, -451858.06, 31634.57, -0.060791478, 0.06642956, -350674.34, -6580.823, 0.0, 10.00029, 9.999077 
7.949981e+2, 2.7488765e+2, -265860.4, -362804.53, 47767.715, 0.0044602226, 0.026428226, -246278.84, -176.23082, 0.000000103459534, 10.000293, 9.999017 
7.949913e+2, 2.8488624e+2, -198779.61, -355605.75, 6608.825, 0.02895218, 0.024393754, -198501.61, -50386.047, 0.0000054454867, 10.000403, 9.998334 
7.949838e+2, 2.9488418e+2, -108938.78, -267264.75, -6420.1743, -0.014317118, -0.055931278, -108678.87, -58544.39, 0.00003447301, 10.000356, 9.998291 
7.949763e+2, 3.048817e+2, 30880.736, -112709.8, -6177.1064, -0.06300517, -0.15760802, 31145.979, 31145.979, 0.0001104858, 10.000728, 9.998842 
7.94969e+2, 3.1488207e+2, 149810.0, 52039.27, -9111.825, -0.08871878, -0.045165308, 150651.94, 150651.94, 0.000240168, 10.000986, 9.999852 
8.0510116e+2, 1.2490683e+2, -1787369.5, -1778762.5, -6058.2803, -0.034961637, -0.122407205, -1775634.8, -59724.734, 0.0000000057252847, 9.999545, 9.99977 
8.050946e+2, 1.3490728e+2, -1522690.4, -1649540.0, -1846.6847, 0.09276868, -0.04314054, -1522663.5, 95245.8, 0.0, 10.000956, 9.999309 
8.0508614e+2, 1.4490739e+2, -1397532.5, -1589562.1, 35690.594, 0.0038412027, 0.07350849, -1391113.6, 128797.41, 0.0, 10.001348, 9.998833 
8.050792e+2, 1.5490642e+2, -1348224.8, -1522570.4, 8552.564, 0.017628092, 0.0526641, -1347806.1, 74116.65, 0.0, 10.001045, 9.998773 
8.050721e+2, 1.6490583e+2, -1257283.4, -1419931.6, 26157.988, 0.018626766, 0.12173227, -1253180.0, 70750.64, 0.0, 10.000978, 9.998837 
8.050653e+2, 1.749055e+2, -1125362.4, -1309870.9, 17270.656, 0.028876882, 0.17676221, -1123759.8, 102176.57, 0.0, 10.001226, 9.998801 
8.050583e+2, 1.8490444e+2, -1026325.9, -1184338.5, 80164.04, 0.003037606, 0.18587285, -992778.8, 135167.94, 0.0, 10.001123, 9.999029 
8.050514e+2, 1.9490224e+2, -1012423.2, -1131588.6, 75093.75, -0.077191375, 0.033309262, -976145.75, 53820.3, 0.0, 10.000562, 9.998997 
8.0504465e+2, 2.0490138e+2, -905874.1, -1006647.94, 70851.13, -0.0906519, 0.045226626, -869320.1, 62653.574, 0.0, 10.000511, 9.999208 
8.0503833e+2, 2.1490155e+2, -755978.1, -885514.7, 58637.25, -0.035562634, 0.10986239, -733377.9, 100594.92, 0.0, 10.000878, 9.999186 
8.0503196e+2, 2.2490095e+2, -648969.8, -740183.94, 101506.66, -0.012250267, 0.11677131, -583295.2, 152682.17, 0.0, 10.000762, 9.999558 
8.0502564e+2, 2.3489922e+2, -654519.25, -695611.94, 80023.45, -0.030989435, -0.042837393, -592446.56, 45543.99, 0.0, 10.000063, 9.999534 
8.0501896e+2, 2.4489827e+2, -607526.06, -705942.44, 75604.72, -0.04226614, -0.047723066, -566526.06, -26527.791, 0.0, 10.000057, 9.998798 
8.050122e+2, 2.548977e+2, -414647.13, -567261.94, 78160.125, -0.03412179, -0.014930752, -381721.63, 60282.777, 0.0, 10.000721, 9.998762 
8.0500555e+2, 2.648971e+2, -284561.5, -455164.03, 83919.16, -0.0061396365, 0.053070854, -250201.86, 93809.27, 0.0, 10.000971, 9.998736 
8.049991e+2, 2.74896e+2, -214889.92, -372432.47, 45871.902, 0.055277616, 0.03753466, -202506.67, 43515.207, 0.00000004701224, 10.0007715, 9.998728 
8.049921e+2, 2.8489456e+2, -186409.56, -358255.22, 59464.785, 0.06200445, 0.050515316, -167839.36, -19803.26, 0.000004093495, 10.000521, 9.998261 
8.049843e+2, 2.9489246e+2, -117196.24, -275078.16, 74472.52, 0.0050686104, -0.031111829, -87611.48, -37554.49, 0.000029631305, 10.000319, 9.998255 
8.049772e+2, 3.048907e+2, 35280.273, 6353.497, 114550.734, -0.007392637, -0.105360724, 136277.1, 136277.1, 0.00010221737, 10.000248, 9.999908 
8.049698e+2, 3.148918e+2, 28227.004, 64506.17, -1502.9624, -0.037541285, -0.02968569, 64568.332, 64568.332, 0.00023173698, 9.999847, 10.000498 
8.1510043e+2, 1.24916956e+2, -1805416.6, -1837446.8, -17225.986, -0.14356825, 0.018859573, -1797911.1, -82101.38, 0.000000004999778, 9.999628, 9.9993305 
8.150958e+2, 1.3491476e+2, -1554867.4, -1725961.6, 61056.117, 0.07640811, -0.11298065, -1535313.8, 82519.32, 0.0, 10.001005, 9.9987545 
8.15088e+2, 1.4491366e+2, -1409619.4, -1622757.8, 2909.734, 0.005830519, -0.075549744, -1409579.6, 110266.8, 0.0, 10.001373, 9.998598 
8.150792e+2, 1.5491371e+2, -1360857.0, -1548604.5, 12693.414, -0.1277108, 0.028713105, -1360002.8, 61847.19, 0.0, 10.001042, 9.998597 
8.150721e+2, 1.6491336e+2, -1252178.9, -1395041.4, 17976.168, -0.113870576, 0.11871327, -1249951.6, 73904.33, 0.0, 10.000917, 9.999035 
8.1506735e+2, 1.7491226e+2, -1114768.4, -1275176.4, 43327.813, 0.08204729, 0.073231556, -1103813.3, 122054.7, 0.0, 10.001179, 9.999056 
8.1506056e+2, 1.8491146e+2, -1015567.1, -1144977.6, 44946.707, 0.08572706, 0.07688372, -1001488.0, 126387.59, 0.0, 10.001038, 9.999346 
8.150516e+2, 1.9491056e+2, -1005532.4, -1094589.4, 71386.82, -0.13646995, 0.02186417, -965924.9, 63957.117, 0.0, 10.000455, 9.999302 
8.150448e+2, 2.0490994e+2, -930226.75, -1012777.0, 67882.24, -0.15854953, 0.041111372, -892056.1, 39830.97, 0.0, 10.0003195, 9.999261 
8.1504005e+2, 2.1490929e+2, -779300.5, -886085.9, 88675.93, 0.021421636, 0.015562217, -729183.75, 104710.33, 0.0, 10.000672, 9.99928 
8.1503373e+2, 2.2490911e+2, -692134.3, -777016.06, 57984.098, 0.060425993, 0.06912284, -662718.5, 73177.125, 0.0, 10.000538, 9.999414 
8.150257e+2, 2.3490904e+2, -697066.94, -732073.6, 68909.9, -0.060600594, 0.08853373, -643472.1, -5576.73, 0.0, 9.999841, 9.999389 
8.150189e+2, 2.4490845e+2, -602884.8, -651781.44, 84082.57, -0.08203085, 0.10246124, -539768.25, 131.55228, 0.0, 9.9998665, 9.999264 
8.150136e+2, 2.5490698e+2, -407309.7, -513497.7, 119174.2, 0.0014180357, -0.0029550954, -329937.34, 111974.78, 0.0, 10.000555, 9.999213 
8.150071e+2, 2.6490566e+2, -340919.8, -543401.4, 61762.17, 0.025312245, 0.0048467717, -323567.75, 20357.26, 0.0, 10.000855, 9.998182 
8.149994e+2, 2.7490413e+2, -286038.38, -471586.16, 57829.9, -0.02144523, 0.0034309323, -269490.3, -23547.623, 0.000000004527389, 10.000575, 9.998137 
8.149917e+2, 2.8490317e+2, -144391.6, -254403.98, 36480.61, -0.058209524, 0.055958364, -133393.88, 14559.138, 0.0000024308686, 10.00044, 9.999017 
8.1498414e+2, 2.9490268e+2, -88651.12, -185631.23, 91044.23, -0.083989136, 0.06064403, -33989.168, 15968.176, 0.00002455122, 10.000189, 9.998933 
8.149777e+2, 3.0490217e+2, 45010.367, 35282.996, 89744.82, -0.013126019, 0.06737651, 130023.195, 130023.195, 0.00009685274, 10.00022, 10.0001135 
8.1496966e+2, 3.1490123e+2, -1224.6715, 62520.832, 56421.97, -0.10492011, -0.07851765, 95450.17, 95450.17, 0.00023260372, 9.999619, 10.000589 
8.251013e+2, 1.2492422e+2, -1779356.1, -1793001.6, -83882.836, 0.0049446076, 0.076544516, -1702019.0, 13723.393, 0.0000000017683296, 9.999662, 9.999617 
8.2509613e+2, 1.3492224e+2, -1539419.4, -1699816.9, 677.53217, 0.023812726, -0.055851337, -1539416.5, 78344.74, 0.0, 10.001014, 9.998937 
8.250889e+2, 1.449209e+2, -1416645.9, -1585175.6, -34340.184, -0.013598883, -0.071446754, -1409917.3, 109858.234, 0.0, 10.001157, 9.998955 
8.2508045e+2, 1.5492111e+2, -1436267.8, -1547892.4, -24203.555, -0.06348316, 0.016161354, -1431245.6, -9469.433, 0.0, 10.000376, 9.998914 
8.2507336e+2, 1.6492078e+2, -1336518.1, -1421539.5, 65452.77, -0.04024374, 0.08358188, -1300982.5, 22798.78, 0.0, 10.000253, 9.999178 
8.250682e+2, 1.7491958e+2, -1178969.8, -1297739.4, 51110.28, 0.088404, 0.012041584, -1160004.0, 65790.13, 0.0, 10.00067, 9.999157 
8.250615e+2, 1.8491906e+2, -1042102.06, -1151700.3, 45219.656, 0.09651958, 0.03736383, -1025853.56, 101945.61, 0.0, 10.000823, 9.999402 
8.2505304e+2, 1.9491884e+2, -970416.7, -1073029.1, 17582.6, -0.045477696, 0.045460425, -967487.56, 62312.707, 0.0, 10.000671, 9.999343 
8.2504594e+2, 2.0491834e+2, -886134.44, -977601.0, 57864.074, -0.07342824, 0.06547786, -858112.8, 73691.81, 0.0, 10.000565, 9.999373 
8.250405e+2, 2.1491724e+2, -804014.3, -890016.2, 46787.836, 0.023176402, -0.013099064, -783468.56, 50346.6, 0.0, 10.0004635, 9.999356 
8.2503414e+2, 2.2491705e+2, -699775.1, -785716.6, 39428.234, 0.05541307, 0.036215745, -684427.2, 51389.668, 0.0, 10.000486, 9.999395 
8.2502663e+2, 2.3491736e+2, -586688.56, -684434.0, 26299.361, 0.01882572, 0.098225705, -580061.75, 57751.867, 0.0, 10.000604, 9.999363 
8.2502e+2, 2.4491683e+2, -513117.97, -610096.94, 78361.164, 0.02146808, 0.121130705, -469457.03, 70360.734, 0.0, 10.000494, 9.999244 
8.250145e+2, 2.5491512e+2, -458863.66, -536711.56, 43570.992, 0.06511479, -0.008179255, -439362.4, 2470.1716, 0.0, 10.000206, 9.999217 
8.2500786e+2, 2.6491383e+2, -413631.78, -579209.94, 18016.68, 0.05014383, -0.0014627062, -411694.06, -67848.414, 0.0, 10.0003605, 9.998172 
8.2500005e+2, 2.7491248e+2, -234587.69, -445894.53, 22600.664, -0.019611392, 0.014376588, -232197.44, 13664.253, 0.0, 10.000927, 9.998138 
8.2499236e+2, 2.8491163e+2, -90911.56, -218795.48, 8969.444, -0.046071984, 0.075128525, -90285.53, 57585.496, 0.000001518397, 10.000774, 9.9991 
8.249848e+2, 2.9491103e+2, -133542.83, -196437.11, -24898.242, -0.006297053, 0.062838115, -124879.555, -75003.36, 0.000022026383, 9.99982, 9.999039 
8.249787e+2, 3.0491075e+2, -58377.58, -63247.18, -2344.8152, 0.10324426, 0.11025887, -57432.082, -57432.082, 0.00009707927, 9.999732, 9.999661 
8.249702e+2, 3.1490865e+2, 111409.62, 106367.8, -119448.7, -0.0333853, -0.11877023, 228364.0, 228364.0, 0.00024343749, 10.000419, 10.000497 
8.351027e+2, 1.24929264e+2, -1717569.4, -1656285.3, -75675.08, 0.09669696, 0.10215315, -1605283.9, 110417.65, 0.000000000051048894, 9.999633, 10.000568 
8.350952e+2, 1.3492993e+2, -1456798.9, -1529540.5, 66690.94, -0.20343852, 0.12725218, -1417205.8, 200486.08, 0.0, 10.001028, 10.000093 
8.3508855e+2, 1.4492917e+2, -1370991.6, -1484532.1, -84466.234, -0.21225949, 0.07504707, -1325990.5, 193706.78, 0.0, 10.001129, 9.999659 
8.3508235e+2, 1.5492864e+2, -1383197.5, -1436784.4, -38728.25, 0.04529357, 0.009909101, -1362897.9, 58803.82, 0.0, 10.000371, 9.999674 
8.3507526e+2, 1.6492811e+2, -1340784.5, -1412117.8, 62768.887, 0.08849742, 0.014839709, -1304256.6, 19450.146, 0.0, 10.000175, 9.999283 
8.350676e+2, 1.7492755e+2, -1179140.4, -1283055.6, 84072.664, -0.07845729, -0.0003140559, -1132265.8, 93447.49, 0.0, 10.000615, 9.99928 
8.3506083e+2, 1.8492736e+2, -1074526.6, -1199370.4, 21890.34, -0.0864397, 0.0683244, -1070799.6, 56916.87, 0.0, 10.000734, 9.999123 
8.35055e+2, 1.9492708e+2, -1006307.5, -1112521.0, 27177.469, 0.052250303, 0.09384999, -999757.4, 29963.799, 0.0, 10.000527, 9.999139 
8.350478e+2, 2.0492657e+2, -904129.44, -974628.5, 37272.42, 0.025090639, 0.11648592, -888078.25, 43648.113, 0.0, 10.000382, 9.999486 
8.350393e+2, 2.1492547e+2, -823508.0, -884814.4, 59608.383, -0.17771737, 0.023327116, -787133.0, 46602.37, 0.0, 10.000266, 9.999484 
8.3503264e+2, 2.249248e+2, -722450.2, -788067.8, 27457.607, -0.16193825, 0.015413495, -712476.56, 23263.688, 0.0, 10.000286, 9.999478 
8.3502793e+2, 2.3492424e+2, -609615.94, -689124.0, 48535.39, 0.06611587, -0.018247379, -586631.9, 51112.445, 0.0, 10.000409, 9.999428 
8.3502185e+2, 2.4492355e+2, -571489.3, -694489.2, 52643.54, 0.124385856, 0.009444598, -552035.06, -12284.106, 0.0, 10.00033, 9.998744 
8.3501446e+2, 2.5492227e+2, -517267.97, -626090.4, 51116.727, 0.008497469, -0.026638517, -497023.28, -55258.84, 0.0, 10.000061, 9.998674 
8.3500737e+2, 2.6492158e+2, -391552.3, -507609.88, 25154.854, -0.062794596, 0.042200495, -386334.7, -42562.516, 0.0, 10.000247, 9.99872 
8.3500063e+2, 2.749211e+2, -216088.08, -376060.03, 64591.344, -0.09729103, 0.08736215, -193264.53, 52513.293, 0.0, 10.000791, 9.998686 
8.349934e+2, 2.8491995e+2, -139247.23, -298586.38, -42292.402, -0.050987966, 0.1166114, -128717.65, 19071.947, 0.0000012583888, 10.000689, 9.998592 
8.349859e+2, 2.949177e+2, -197935.36, -290702.94, -41119.6, 0.07505989, -0.007826551, -182333.05, -132520.97, 0.000022671806, 9.999653, 9.998475 
8.349796e+2, 3.0491656e+2, -141059.0, -216792.92, 16768.695, 0.1905116, 0.03378134, -137512.23, -137512.23, 0.0001036696, 9.999658, 9.99864 
8.349703e+2, 3.1491604e+2, 56910.05, 38914.168, -11910.702, -0.14845917, 0.06875251, 62839.523, 62839.523, 0.00026239955, 10.000237, 10.000115 
8.451034e+2, 1.2493496e+2, -1568561.0, -1581056.5, 56067.504, 0.17580171, 0.08864181, -1518394.1, 197252.06, 0.0, 10.000627, 10.000606 
8.4509546e+2, 1.3493612e+2, -1691038.1, -1624232.0, 55932.766, -0.18833704, 0.14250971, -1592487.3, 25145.867, 0.0, 9.99934, 10.000258 
8.45089e+2, 1.4493577e+2, -1620288.8, -1551869.8, -85628.5, -0.17402002, 0.100136645, -1493870.1, 25764.58, 0.0, 9.999191, 10.00013 
8.4508294e+2, 1.5493564e+2, -1316099.0, -1358011.3, -96573.41, 0.06747743, 0.029825421, -1238234.1, 183400.13, 0.0, 10.000626, 10.0001 
8.450757e+2, 1.6493548e+2, -1204538.5, -1308978.8, 17134.914, 0.09146625, 0.034347516, -1201799.1, 121835.87, 0.0, 10.00097, 9.999599 
8.4506756e+2, 1.7493518e+2, -1241466.1, -1281499.4, 16785.955, -0.10323558, 0.0185479, -1235359.4, -9721.45, 0.0, 10.000067, 9.999553 
8.4506106e+2, 1.8493502e+2, -1182034.8, -1237798.3, 19551.705, -0.09280163, 0.06823539, -1175862.8, -48222.15, 0.0, 9.999947, 9.999231 
8.450561e+2, 1.9493447e+2, -993709.5, -1102874.8, 19700.225, 0.11446389, 0.05928823, -990263.1, 39384.74, 0.0, 10.000589, 9.999181 
8.45049e+2, 2.049341e+2, -836925.5, -929357.3, 54391.473, 0.096246734, 0.090862095, -811766.75, 119884.9, 0.0, 10.000798, 9.999595 
8.450398e+2, 2.1493359e+2, -792949.25, -862678.94, 38468.098, -0.15427569, 0.0488842, -775897.3, 57757.9, 0.0, 10.000449, 9.999549 
8.4503293e+2, 2.2493294e+2, -726211.3, -785408.1, 44751.785, -0.15370303, 0.038147245, -702155.4, 33504.676, 0.0, 10.00026, 9.9994955 
8.450285e+2, 2.3493196e+2, -640263.0, -696136.06, 23549.602, 0.1016301, -0.041353296, -631661.44, 6006.6987, 0.0, 10.000196, 9.999466 
8.4502244e+2, 2.4493116e+2, -549184.7, -716981.4, 75603.95, 0.14389165, -0.00949291, -520145.5, 19530.822, 0.0, 10.000627, 9.998451 
8.450148e+2, 2.5493014e+2, -327617.13, -562378.5, 56993.875, -0.024089824, 0.008969203, -314512.1, 127176.914, 0.0, 10.001497, 9.998414 
8.450078e+2, 2.6492938e+2, -240570.39, -416953.1, 31137.938, -0.0850807, 0.07429061, -235234.81, 108462.58, 0.0, 10.001194, 9.998886 
8.450014e+2, 2.7492854e+2, -361895.25, -429135.8, 8436.307, -0.03059804, 0.06843545, -360852.97, -115148.09, 0.0000000050987805, 9.999695, 9.9988575 
8.449945e+2, 2.8492734e+2, -269586.94, -381510.75, -31105.986, 0.04024592, 0.092369445, -261522.92, -113806.28, 0.0000017149706, 9.999869, 9.998413 
8.4498703e+2, 2.9492536e+2, 85074.47, -163081.75, -41078.414, 0.13849518, 0.0044048075, 91697.6, 141435.02, 0.0000255943, 10.001643, 9.99838 
8.449804e+2, 3.0492377e+2, 151751.64, -129872.52, 62912.09, 0.20754217, 0.028534276, 165166.58, 165166.58, 0.000114914044, 10.001881, 9.998179 
8.449712e+2, 3.1492314e+2, 29524.48, 51.1391, 46534.17, -0.06320904, 0.09935976, 63599.68, 63599.68, 0.00028702893, 10.000114, 9.999924 
8.5510266e+2, 1.24941126e+2, -1649618.4, -1734171.4, -23283.99, -0.041852683, 0.002345985, -1643630.5, 71948.27, 0.0, 10.000578, 9.999574 
8.55096e+2, 1.3494095e+2, -1747937.1, -1728603.0, 17125.92, -0.097895175, -0.0015826807, -1718604.1, -101020.336, 0.0, 9.999311, 9.999538 
8.550897e+2, 1.4494096e+2, -1603516.3, -1521115.6, -51339.793, -0.06185819, 0.015559844, -1496488.6, 23096.773, 0.0, 9.999192, 10.000352 
8.55082e+2, 1.5494227e+2, -1297134.3, -1318660.4, -20706.57, -0.13611154, 0.069553174, -1284560.5, 137011.92, 0.0, 10.000627, 10.000371 
8.550746e+2, 1.6494295e+2, -1189251.4, -1264241.3, -34023.133, -0.1596816, 0.12910363, -1176115.9, 147449.17, 0.0, 10.000913, 9.999936 
8.550677e+2, 1.7494254e+2, -1219592.1, -1225543.5, -2372.346, -0.12974617, 0.0612678, -1218762.3, 6805.3193, 0.0, 10.000026, 9.999952 
8.550615e+2, 1.8494208e+2, -1163836.6, -1183285.1, 27612.277, -0.0759568, 0.04077759, -1144286.3, -16715.424, 0.0, 9.999858, 9.999657 
8.550558e+2, 1.9494124e+2, -974103.7, -1043282.9, 58849.445, -0.0071392376, -0.04221565, -940431.3, 89147.08, 0.0, 10.000499, 9.999635 
8.550492e+2, 2.0494123e+2, -863626.5, -946840.4, 23842.205, 0.008712536, 0.0039849803, -857279.4, 74298.99, 0.0, 10.000632, 9.999559 
8.550416e+2, 2.1494162e+2, -823918.06, -874892.8, 41289.176, -0.041494783, 0.054409593, -800883.25, 32691.824, 0.0, 10.000228, 9.99957 
8.550345e+2, 2.2494145e+2, -763453.1, -814750.0, 25647.463, -0.050849102, 0.09491202, -752829.9, -17253.238, 0.0, 10.000047, 9.999402 
8.550278e+2, 2.3494044e+2, -672236.6, -721882.6, 39012.652, -0.01942748, 0.021427933, -650819.3, -13233.598, 0.0, 10.000015, 9.99938 
8.550213e+2, 2.4493968e+2, -582342.1, -743658.1, 92371.32, -0.057478257, 0.065825045, -540369.9, -775.854, 0.0, 10.00045, 9.998352 
8.550152e+2, 2.5493866e+2, -361836.8, -589831.75, 106203.89, -0.16522181, 0.09417362, -320030.9, 121575.67, 0.0, 10.00131, 9.998317 
8.5500884e+2, 2.6493707e+2, -272501.22, -453052.22, -41930.156, -0.12877476, 0.09045697, -263238.78, 80383.72, 0.0, 10.00106, 9.998709 
8.5500216e+2, 2.7493462e+2, -394294.47, -466881.38, -27385.922, 0.03775799, -0.05591216, -385121.44, -139477.19, 0.0000001292932, 9.999571, 9.998661 
8.5499513e+2, 2.8493384e+2, -265493.1, -353961.13, 23351.69, 0.08239886, 0.004288273, -259707.63, -112055.77, 0.0000031613251, 9.999785, 9.998643 
8.5498774e+2, 2.9493392e+2, 86822.86, -140149.98, 47005.637, -0.0022542255, 0.10424188, 96172.5, 145824.95, 0.000030116835, 10.001547, 9.998589 
8.549805e+2, 3.049322e+2, 146274.13, -104092.52, -11862.82, 0.0041992795, 0.09237088, 146834.95, 146834.95, 0.00012742863, 10.001754, 9.998405 
8.549722e+2, 3.1493005e+2, -22413.348, -54614.027, 47955.145, -0.057783328, -0.0031051824, 12072.051, 12072.051, 0.00031382052, 9.999913, 9.999639 
8.651029e+2, 1.2494775e+2, -1741289.9, -1768828.0, -575.05927, -0.02034473, -0.039356515, -1741277.9, -25765.434, 0.00000000000000000000885557, 9.999896, 9.999667 
8.6509633e+2, 1.3494788e+2, -1654733.6, -1676549.4, 41110.348, -0.015260673, -0.027944112, -1623108.6, -5594.162, 0.0, 9.999881, 9.9996395 
8.6509e+2, 1.4494815e+2, -1540692.5, -1487746.1, 87448.36, 0.03665613, 0.008996678, -1422851.6, 96662.09, 0.0, 9.999615, 10.000373 
8.650817e+2, 1.5494944e+2, -1470379.8, -1413352.6, 59991.082, -0.15293972, 0.06514425, -1375443.6, 46057.94, 0.0, 9.999464, 10.000295 
8.650744e+2, 1.6495e+2, -1382677.4, -1366862.9, 26752.791, -0.19379874, 0.119384475, -1346873.3, -23377.264, 0.0, 9.999622, 9.999848 
8.650682e+2, 1.7494942e+2, -1211667.1, -1237531.9, -10877.905, -0.08211582, 0.045264743, -1207700.5, 17799.785, 0.0, 10.0001335, 9.99982 
8.6506206e+2, 1.8494906e+2, -1086753.0, -1111221.8, 39477.84, -0.009572513, 0.02532863, -1057657.3, 69845.01, 0.0, 10.000264, 9.999944 
8.6505616e+2, 1.9494863e+2, -1029798.1, -1039757.94, 28773.72, 0.009610102, -0.042133298, -1005576.56, 23928.068, 0.0, 10.000006, 9.999888 
8.650495e+2, 2.0494868e+2, -969922.8, -987079.8, 4902.5327, 0.023313187, -0.0055858227, -968620.75, -37117.504, 0.0, 9.999863, 9.999648 
8.650421e+2, 2.1494883e+2, -893739.0, -905845.4, -6681.5054, 0.019901391, 0.011237064, -890776.44, -57274.156, 0.0, 9.999729, 9.999601 
8.6503506e+2, 2.249486e+2, -767737.2, -844869.0, 33312.074, 0.004852243, 0.05786377, -755342.06, -19836.943, 0.0, 10.000157, 9.999137 
8.6502826e+2, 2.3494774e+2, -521082.7, -679356.9, -2166.0796, -0.020080457, 0.027773118, -521053.03, 116461.2, 0.0, 10.001194, 9.9991 
8.6502206e+2, 2.4494714e+2, -477310.9, -663651.6, 60655.504, -0.050117444, 0.08639948, -459306.6, 80215.12, 0.0, 10.001052, 9.998605 
8.650164e+2, 2.549463e+2, -569707.25, -662675.56, 68007.484, -0.084565625, 0.11128231, -533815.44, -92283.67, 0.0, 9.999769, 9.99856 
8.6500984e+2, 2.6494476e+2, -477111.47, -531166.06, -20140.023, -0.05319506, 0.091947906, -470432.75, -126886.49, 0.0000000005766255, 9.999584, 9.998873 
8.650022e+2, 2.7494213e+2, -237393.66, -373708.88, -21264.69, 0.049688943, -0.08791291, -234153.45, 11414.972, 0.000000514823, 10.000584, 9.998806 
8.649951e+2, 2.8494123e+2, -124665.07, -292120.53, 95234.93, 0.06197549, -0.04166678, -81585.766, 65990.664, 0.0000054394536, 10.000787, 9.998593 
8.649885e+2, 2.949415e+2, -121097.48, -240675.66, 63309.277, 0.0027774773, 0.08543939, -93807.29, -44231.98, 0.000035908153, 10.0001335, 9.998584 
8.649813e+2, 3.0493993e+2, -37553.41, -192453.7, -7267.6816, -0.0077302568, 0.081590414, -37213.168, -37213.168, 0.00014009468, 10.000466, 9.998425 
8.649738e+2, 3.149381e+2, 155205.11, 23659.795, -16548.162, 0.062932014, 0.019683927, 157254.9, 157254.9, 0.00033844914, 10.001188, 9.999551 
8.751032e+2, 1.2495514e+2, -1662180.9, -1603097.5, -32807.586, -0.060685206, -0.0022181007, -1588491.1, 126952.76, 0.0000000055054987, 9.999888, 10.000806 
8.7509596e+2, 1.3495693e+2, -1578436.8, -1501183.1, 53046.813, -0.07490202, 0.052483775, -1474189.9, 143235.02, 0.0, 9.99983, 10.000854 
8.7508947e+2, 1.4495742e+2, -1574162.6, -1554021.6, 60933.336, -0.027099676, 0.075338036, -1502332.3, 17087.03, 0.0, 9.999592, 9.999932 
8.750817e+2, 1.549573e+2, -1498712.5, -1465849.1, 69908.71, -0.13461177, 0.02425059, -1410467.0, 10953.895, 0.0, 9.999447, 9.999936 
8.750746e+2, 1.649569e+2, -1422765.9, -1445830.3, 27984.613, -0.16374741, 0.026344528, -1404030.5, -80605.234, 0.0, 9.999591, 9.999328 
8.750685e+2, 1.749561e+2, -1254071.4, -1317495.8, 23090.17, -0.096023425, -0.015315902, -1246555.8, -21122.191, 0.0, 10.000096, 9.999289 
8.750625e+2, 1.849562e+2, -1094695.9, -1107283.3, 14293.736, -0.026839525, 0.035463292, -1085371.6, 42060.742, 0.0, 10.000175, 10.000014 
8.750566e+2, 1.9495665e+2, -1041713.25, -1030162.5, 36981.586, 0.029314205, 0.04659337, -998508.0, 30918.383, 0.0, 9.999864, 10.000019 
8.750494e+2, 2.0495653e+2, -985553.3, -980473.6, -15128.552, 0.00573045, 0.04894815, -967673.2, -36247.156, 0.0, 9.999687, 9.999783 
8.750408e+2, 2.1495551e+2, -911738.7, -899885.94, 2361.1987, -0.10723007, -0.06354222, -899432.9, -65998.56, 0.0, 9.999539, 9.999735 
8.750342e+2, 2.2495472e+2, -833788.75, -937226.0, 55099.656, -0.11553723, -0.04969954, -809937.6, -74495.21, 0.0, 9.999959, 9.998601 
8.750296e+2, 2.349539e+2, -592476.56, -772578.6, 54389.39, -0.030158872, -0.02579306, -577325.9, 60127.793, 0.0, 10.000957, 9.998573 
8.750243e+2, 2.4495344e+2, -457922.28, -587768.4, -3590.9978, 0.035987366, 0.047191825, -457823.03, 81636.875, 0.0, 10.000886, 9.99921 
8.75018e+2, 2.5495315e+2, -551188.1, -585808.06, 37608.285, 0.07175478, 0.06212781, -527097.44, -85633.6, 0.0, 9.999602, 9.9991665 
8.750103e+2, 2.649525e+2, -458954.97, -481484.56, 1475.9083, 0.008111977, 0.0857324, -458858.7, -115390.74, 0.0000000691861, 9.999517, 9.999252 
8.7500113e+2, 2.7495104e+2, -228271.34, -325004.72, 35072.832, -0.1529209, -0.020520968, -216893.23, 28584.03, 0.000001269736, 10.00045, 9.999206 
8.749941e+2, 2.8494972e+2, -156927.66, -343112.1, 55392.992, -0.15148993, -0.024657585, -141693.77, 5795.104, 0.000008255043, 10.0007105, 9.998286 
8.749891e+2, 2.9494792e+2, -154113.66, -291942.9, 61802.863, 0.002027046, -0.07072712, -130460.36, -80952.57, 0.000042714033, 10.000051, 9.998277 
8.7498254e+2, 3.0494675e+2, -62908.17, -221175.95, 13891.93, 0.03809062, -0.010014729, -61698.063, -61698.063, 0.00015288098, 10.000368, 9.998268 
8.749752e+2, 3.1494543e+2, 127329.07, -15569.607, 48086.367, 0.004727272, -0.0044337865, 142003.52, 142003.52, 0.00035815634, 10.001095, 9.9993305 
8.851038e+2, 1.2496353e+2, -1597427.5, -1587412.5, 65935.555, 0.00538514, 0.03259467, -1526294.6, 189068.8, 0.00000006865043, 10.000409, 10.000667 
8.850953e+2, 1.349649e+2, -1673571.0, -1576719.0, -26672.65, -0.08330776, 0.07299794, -1569859.3, 47489.336, 0.0, 9.999296, 10.000604 
8.850886e+2, 1.4496522e+2, -1659132.8, -1588873.3, 27618.459, -0.029503485, 0.08722741, -1579316.5, -59972.46, 0.0, 9.999018, 9.999954 
8.85082e+2, 1.5496486e+2, -1405964.6, -1419588.9, 28182.123, -0.06941375, 0.015048309, -1383783.0, 37562.23, 0.0, 10.000097, 9.999926 
8.8507557e+2, 1.6496421e+2, -1307656.8, -1409435.3, 32659.873, -0.068035096, 0.0018917406, -1298078.0, 25273.064, 0.0, 10.000471, 9.99915 
8.850692e+2, 1.7496322e+2, -1268028.8, -1346208.0, 19499.305, -0.0251435, -0.03958088, -1263435.3, -38073.227, 0.0, 10.000097, 9.999095 
8.850628e+2, 1.8496326e+2, -1170104.4, -1154609.0, 31572.025, 0.020159936, 0.019174958, -1129847.9, -2485.887, 0.0, 9.999699, 9.999918 
8.850563e+2, 1.9496374e+2, -1136476.3, -1090024.3, 5659.735, 0.05232395, 0.043575168, -1089344.6, -59988.215, 0.0, 9.999266, 9.999899 
8.850492e+2, 2.0496356e+2, -995560.94, -1002931.1, 2358.0134, 0.021228869, 0.05333196, -994871.1, -63513.85, 0.0, 9.999696, 9.999624 
8.8504136e+2, 2.1496242e+2, -709297.7, -821604.2, -30223.072, -0.07013768, -0.052716274, -701680.9, 131686.2, 0.0, 10.001013, 9.999568 
8.8503516e+2, 2.2496156e+2, -659026.6, -843649.7, 41160.98, -0.07067481, -0.043066073, -650265.7, 85110.22, 0.0, 10.001113, 9.998679 
8.850304e+2, 2.3496063e+2, -730616.2, -835315.6, 48720.723, 0.013511059, -0.03629005, -711452.25, -74064.96, 0.0, 9.999976, 9.998615 
8.850248e+2, 2.4496023e+2, -633244.8, -635518.75, 22906.951, 0.075024635, 0.024026174, -611446.6, -72054.586, 0.0, 9.999531, 9.999526 
8.85018e+2, 2.5496e+2, -482816.47, -519047.2, 6667.6475, 0.10276554, 0.011204345, -481628.34, -40234.41, 0.00000000006372724, 9.999906, 9.999477 
8.850105e+2, 2.6495957e+2, -369199.34, -444858.03, 15974.033, 0.04893928, 0.042819776, -365964.97, -22569.12, 0.00000025387644, 10.000168, 9.999185 
8.8500226e+2, 2.7495855e+2, -235178.63, -333772.28, -21918.639, -0.076577045, -0.013659423, -230525.45, 14876.517, 0.0000021793016, 10.000425, 9.999154 
8.8499546e+2, 2.8495693e+2, -173098.69, -373762.1, -5246.0933, -0.07139761, -0.030180532, -172961.64, -25545.32, 0.000011106664, 10.000717, 9.998052 
8.849902e+2, 2.9495433e+2, -17617.26, -253808.8, -31133.273, 0.0673681, -0.13496856, -13582.397, 35860.754, 0.000049522223, 10.001114, 9.998018 
8.8498366e+2, 3.0495304e+2, 104126.49, -161727.81, -17630.846, 0.062180173, -0.063248806, 105290.63, 105290.63, 0.00016467013, 10.001602, 9.998089 
8.849769e+2, 3.1495237e+2, 213806.77, 26505.762, -57981.152, 0.050603993, 0.030535206, 230302.66, 230302.66, 0.00037312726, 10.001693, 9.999341 
8.9510375e+2, 1.24972865e+2, -1713967.0, -1806480.8, -15563.712, -0.11762817, 0.06553529, -1711418.9, 3852.5273, 0.00000033567557, 10.000333, 9.999187 
8.9509386e+2, 1.3497221e+2, -1783608.0, -1804364.5, -60919.707, -0.18380983, 0.06356153, -1732188.9, -114906.73, 0.00000000007521531, 9.999306, 9.999028 
8.950869e+2, 1.4497197e+2, -1631832.8, -1531962.1, 47671.977, -0.14151654, 0.07966317, -1512860.1, 6423.198, 0.0, 9.999017, 10.000347 
8.9508224e+2, 1.5497236e+2, -1385737.0, -1368293.9, 89204.28, -0.09848686, 0.046908084, -1287385.9, 133886.64, 0.0, 10.000062, 10.000293 
8.950765e+2, 1.6497207e+2, -1310175.0, -1402442.5, 888.98114, -0.055536676, 0.04678141, -1310166.5, 13105.983, 0.0, 10.000419, 9.999223 
8.950699e+2, 1.7497079e+2, -1271779.4, -1333763.1, 22845.768, 0.00078359613, -0.034007147, -1264268.9, -38983.535, 0.0, 10.000018, 9.999214 
8.950626e+2, 1.8497029e+2, -1205310.9, -1205760.3, -930.5489, -0.0009680263, -0.021632927, -1204578.3, -77287.5, 0.0, 9.999594, 9.999621 
8.9505476e+2, 1.949701e+2, -1181071.0, -1145082.4, 3613.9036, -0.06880414, -0.034207832, -1144723.0, -115430.34, 0.0, 9.999106, 9.999595 
8.9504826e+2, 2.0496999e+2, -1047870.3, -1077189.6, 35476.355, -0.07007275, 0.020779314, -1024144.06, -92849.32, 0.0, 9.999539, 9.999193 
8.9504325e+2, 2.149696e+2, -768840.7, -893878.94, 38421.98, -0.0078106686, 0.031461913, -757978.0, 75322.29, 0.0, 10.000796, 9.999173 
8.9503735e+2, 2.2496912e+2, -646934.1, -773357.8, -15914.024, 0.010874602, 0.068423845, -644961.7, 90343.65, 0.0, 10.000906, 9.9992695 
8.9503026e+2, 2.349682e+2, -716050.6, -756777.06, 21347.115, -0.030252676, 0.014155776, -706911.94, -69598.89, 0.0, 9.999766, 9.999256 
8.950231e+2, 2.4496765e+2, -652103.8, -641327.56, 19102.146, -0.07189036, 0.023629317, -626868.2, -87551.44, 0.0, 9.999382, 9.999564 
8.9501595e+2, 2.5496703e+2, -510266.84, -529403.7, 37531.1, -0.123936325, -0.029702954, -481103.66, -39782.902, 0.0000000002378373, 9.999705, 9.999509 
8.9500993e+2, 2.649662e+2, -420314.97, -524022.7, 11423.662, -0.056426417, -0.018153144, -419071.53, -75743.914, 0.00000030747992, 10.000052, 9.998696 
8.9500505e+2, 2.749647e+2, -294865.25, -424282.38, 9813.951, 0.13180487, -0.06539232, -294125.28, -48783.664, 0.0000026197797, 10.00029, 9.998597 
8.9499885e+2, 2.8496286e+2, -197011.45, -415977.3, -6486.799, 0.15416145, -0.0606284, -196819.45, -49459.945, 0.000013171274, 10.0006695, 9.99779 
8.949913e+2, 2.949605e+2, -48506.953, -294495.22, 2827.3005, 0.011132102, -0.120061204, -48474.465, 909.04865, 0.000055655084, 10.001, 9.997796 
8.949842e+2, 3.049587e+2, 67822.38, -194381.3, -25730.152, -0.07549702, -0.08073058, 70323.44, 70323.44, 0.00017580122, 10.001448, 9.997929 
8.949779e+2, 3.1495708e+2, 199162.67, 63813.676, -28088.053, -0.09193158, -0.06626822, 204760.11, 204760.11, 0.00038747952, 10.001441, 9.999699 
9.051039e+2, 1.2498132e+2, -1956187.6, -1935016.5, -41760.117, -0.02610065, 0.13956495, -1902521.3, -187329.95, 0.0000010657902, 9.9986725, 9.99912 
9.050943e+2, 1.3498014e+2, -1539998.9, -1708077.3, -41316.953, -0.14450617, 0.098935135, -1530391.5, 86814.04, 0.000000007369457, 10.001049, 9.998849 
9.0508753e+2, 1.4497948e+2, -1298789.4, -1406328.6, 103059.266, -0.094494276, 0.094388105, -1236316.3, 282894.06, 0.0, 10.001418, 10.000062 
9.0508306e+2, 1.5497933e+2, -1415416.0, -1416687.9, 56750.508, -0.004681799, 0.031679522, -1359297.9, 61907.37, 0.0, 9.999971, 10.000019 
9.050771e+2, 1.6497897e+2, -1444874.6, -1425872.8, -1472.0018, 0.02611572, 0.023574684, -1425759.4, -102554.766, 0.0, 9.999315, 9.999603 
9.0506965e+2, 1.7497802e+2, -1323341.0, -1315345.8, 2994.0698, 0.013687277, -0.06434536, -1314348.9, -89136.57, 0.0, 9.999474, 9.999606 
9.050624e+2, 1.8497749e+2, -1142042.1, -1192445.9, 42778.25, -0.0030085985, -0.065495156, -1117594.1, 9622.637, 0.0, 10.0000925, 9.9994755 
9.050551e+2, 1.9497705e+2, -885742.44, -1026012.8, 29716.572, -0.03825667, -0.08825767, -879706.6, 149515.13, 0.0, 10.001201, 9.999418 
9.05049e+2, 2.0497699e+2, -816167.06, -972587.3, 101608.02, -0.026793903, -0.013145296, -766154.7, 165069.33, 0.0, 10.001172, 9.999114 
9.0504396e+2, 2.1497697e+2, -886003.2, -961377.6, 89810.74, 0.027117519, 0.040489003, -826292.8, 6934.642, 0.0, 10.000037, 9.999073 
9.050379e+2, 2.2497661e+2, -786534.75, -811621.56, 58235.39, 0.040115934, 0.08362422, -739507.25, -4276.0566, 0.0, 9.9998455, 9.999513 
9.050307e+2, 2.3497564e+2, -563182.06, -658093.4, 36639.332, 0.00092798274, 0.0040353592, -550683.75, 86554.53, 0.0, 10.000719, 9.9994755 
9.050235e+2, 2.4497472e+2, -451156.88, -584068.94, 39654.316, -0.04282119, -0.014407066, -440225.13, 99019.914, 0.0, 10.000944, 9.999194 
9.050163e+2, 2.5497353e+2, -414464.03, -521364.06, -8155.4697, -0.090433784, -0.0867733, -413845.44, 27409.26, 0.0, 10.000545, 9.999147 
9.050107e+2, 2.6497254e+2, -346587.84, -522482.13, 10813.653, -0.012753195, -0.05650977, -345925.56, -2660.9263, 0.0000002007212, 10.000723, 9.998383 
9.050065e+2, 2.7497128e+2, -139674.33, -379410.88, -9785.442, 0.19948533, -0.051292203, -139275.56, 106003.58, 0.0000025589381, 10.001499, 9.998317 
9.050005e+2, 2.8496963e+2, -26043.176, -314424.47, 22412.436, 0.2068126, -0.022654772, -24311.72, 122984.23, 0.000014749117, 10.001751, 9.99798 
9.049925e+2, 2.949675e+2, 24231.375, -231542.67, 28809.977, 0.024830338, -0.07489304, 27436.326, 76752.484, 0.00006245814, 10.001392, 9.998041 
9.049856e+2, 3.0496556e+2, 28841.055, -212668.27, 55736.94, -0.04784308, -0.06576064, 41083.742, 41083.742, 0.00018874744, 10.00116, 9.997957 
9.0497917e+2, 3.1496444e+2, 75960.625, -8404.601, -5494.1875, -0.044130977, 0.0032219368, 76316.92, 76316.92, 0.0004049675, 10.000593, 9.999648 
9.1510326e+2, 1.2498926e+2, -1860767.1, -1732694.9, -3341.1533, -0.03689454, 0.27232692, -1732607.8, -17488.318, 0.000002613721, 9.998681, 10.000494 
9.1509604e+2, 1.3498867e+2, -1458225.4, -1526175.5, 59964.145, -0.112420216, 0.16334951, -1423280.3, 193839.25, 0.00000007607973, 10.001009, 10.000112 
9.150898e+2, 1.449875e+2, -1376366.5, -1546921.5, 27242.3, -0.055580318, 0.09499969, -1372120.9, 147006.61, 0.0, 10.001333, 9.999136 
9.1508406e+2, 1.5498589e+2, -1482658.0, -1548288.5, 19482.719, 0.058251068, -0.022199323, -1477310.3, -56168.13, 0.0, 9.999947, 9.999123 
9.150768e+2, 1.6498524e+2, -1401595.0, -1335519.3, -15237.336, 0.02628272, -0.04623461, -1332174.8, -9029.837, 0.0, 9.999308, 10.000228 
9.1506803e+2, 1.7498516e+2, -1285187.5, -1228502.6, 25526.387, -0.13017519, -0.11088364, -1218702.0, 6437.9, 0.0, 9.999439, 10.000218 
9.1506153e+2, 1.8498504e+2, -1152572.3, -1195507.8, 69035.16, -0.1327686, -0.101722576, -1101743.9, 25394.373, 0.0, 10.000008, 9.999497 
9.1505706e+2, 1.9498464e+2, -909579.4, -1035817.5, 88936.086, 0.006278736, -0.120231934, -863640.44, 165502.45, 0.0, 10.001036, 9.999429 
9.1505086e+2, 2.049847e+2, -831835.9, -963786.94, 44035.395, 0.012619249, -0.045024313, -818490.0, 112654.06, 0.0, 10.000991, 9.999262 
9.15043e+2, 2.149847e+2, -908363.1, -956640.06, 61176.91, -0.10551991, -0.0019902084, -866734.75, -33588.465, 0.0, 9.999821, 9.999207 
9.150364e+2, 2.249842e+2, -819770.44, -844663.7, 73022.02, -0.12207997, 0.024164101, -758141.9, -22990.076, 0.0, 9.999677, 9.999374 
9.150313e+2, 2.3498291e+2, -603300.6, -693741.1, 87430.984, -0.035872165, -0.072476074, -550087.94, 87075.07, 0.0, 10.000513, 9.999329 
9.150254e+2, 2.4498157e+2, -530924.2, -713691.1, 8995.041, 0.022340395, -0.08701685, -530482.5, 8693.119, 0.0, 10.000781, 9.998386 
9.150186e+2, 2.549797e+2, -494048.5, -653472.5, -6443.6763, 0.053189613, -0.14632776, -493788.5, -52594.15, 0.0, 10.000393, 9.998319 
9.150121e+2, 2.6497874e+2, -368386.94, -542769.7, 23879.023, 0.03829966, -0.06643421, -365176.22, -21970.025, 0.00000011562638, 10.00062, 9.998292 
9.1500616e+2, 2.7497828e+2, -163788.3, -397898.2, 39061.914, -0.023191376, 0.029080559, -157442.7, 87772.1, 0.0000025826089, 10.001366, 9.998256 
9.15e+2, 2.8497726e+2, 4927.989, -222157.52, -7889.9688, -0.052444465, 0.08811059, 5201.7915, 152427.05, 0.000017159802, 10.00164, 9.998663 
9.149935e+2, 2.9497546e+2, 49651.996, -151252.72, 37518.973, -0.05237424, -0.000048648773, 56429.996, 105669.91, 0.00007135739, 10.00128, 9.998646 
9.149875e+2, 3.0497357e+2, 20537.395, -201862.22, 26423.855, -0.0056192996, -0.017676251, 23633.77, 23633.77, 0.00020564985, 10.001049, 9.998075 
9.1497976e+2, 3.1497446e+2, 36150.125, -30635.154, 31993.154, -0.119562574, 0.2294573, 49002.813, 49002.813, 0.00042848263, 10.000365, 9.999583 
9.2510355e+2, 1.2499577e+2, -1536758.1, -1552573.0, 82190.64, 0.029655052, 0.21566667, -1462095.4, 252956.8, 0.0000053718704, 10.000788, 10.00073 
9.2509687e+2, 1.349952e+2, -1695981.4, -1613296.6, 15522.058, -0.025164576, 0.08553951, -1610478.8, 6571.5293, 0.00000033393198, 9.999247, 10.000388 
9.2509055e+2, 1.4499424e+2, -1736416.9, -1725536.9, 5994.4766, 0.0220706, 0.02791745, -1722882.0, -203824.4, 0.0, 9.998898, 9.999081 
9.250843e+2, 1.549934e+2, -1456175.5, -1545666.1, 20889.816, 0.084828466, -0.006967981, -1451539.4, -30470.488, 0.0, 10.000179, 9.999023 
9.250769e+2, 1.64993e+2, -1192283.4, -1226064.4, 33735.64, 0.04873887, -0.0064866515, -1171446.1, 151624.42, 0.0, 10.000703, 10.000301 
9.250684e+2, 1.7499277e+2, -1128064.3, -1147763.8, -2624.0486, -0.0854398, -0.09072162, -1127720.6, 97344.914, 0.0, 10.000491, 10.000268 
9.2506206e+2, 1.8499257e+2, -1121852.5, -1191473.4, 62390.45, -0.08027245, -0.087821744, -1085218.3, 41846.137, 0.0, 10.000279, 9.99939 
9.25058e+2, 1.9499202e+2, -1067036.4, -1120205.4, 35931.67, 0.057075746, -0.11312263, -1048923.9, -19853.139, 0.0, 10.000001, 9.999341 
9.2505145e+2, 2.0499182e+2, -988307.8, -1013015.44, -15564.329, 0.04535835, -0.06801429, -980790.44, -49717.402, 0.0, 9.999807, 9.999499 
9.250427e+2, 2.1499163e+2, -895629.75, -920940.75, -16828.854, -0.10651773, -0.068054296, -887228.8, -54153.906, 0.0, 9.999781, 9.999474 
9.2503625e+2, 2.249911e+2, -795013.06, -869242.6, 70639.19, -0.110355504, -0.039089333, -752331.8, -17251.186, 0.0, 9.999993, 9.999052 
9.250324e+2, 2.3499005e+2, -642894.3, -753574.06, 34493.766, 0.03065961, -0.08193349, -633024.4, 4068.4243, 0.0, 10.000395, 9.998981 
9.25027e+2, 2.4498884e+2, -521151.2, -715981.5, -8377.353, 0.10856973, -0.06109164, -520791.66, 18314.205, 0.0, 10.00088, 9.998332 
9.250202e+2, 2.5498712e+2, -329738.28, -578670.25, -1935.595, 0.12235608, -0.09864075, -329723.25, 111400.445, 0.0, 10.001546, 9.998282 
9.250136e+2, 2.6498607e+2, -212889.81, -479525.6, 92342.88, 0.07258126, -0.020920452, -184032.28, 159104.0, 0.00000007319143, 10.001708, 9.998213 
9.250074e+2, 2.7498525e+2, -173248.5, -412401.63, 77360.16, -0.024346106, 0.043456774, -150406.14, 94741.61, 0.0000027897247, 10.001313, 9.998189 
9.250012e+2, 2.849842e+2, -66176.05, -249413.58, 31956.64, -0.054727256, 0.09921529, -60762.727, 86395.94, 0.000020180585, 10.001122, 9.998721 
9.2499506e+2, 2.9498267e+2, 38769.168, -152473.92, -8651.356, -0.008135664, 0.03481211, 39159.734, 88331.195, 0.00008285034, 10.001175, 9.998687 
9.24989e+2, 3.0498078e+2, 70777.164, -127334.19, -5852.1123, 0.05222287, -0.0101794945, 70949.88, 70949.88, 0.0002292469, 10.001134, 9.998554 
9.249805e+2, 3.1498152e+2, 79468.72, -7401.7227, -17451.924, -0.07380982, 0.17139594, 82843.625, 82843.625, 0.0004645645, 10.0006075, 9.999638 
9.351036e+2, 1.2500061e+2, -1605262.9, -1661412.0, -24737.543, -0.1177549, -0.054295328, -1595919.1, 119072.77, 0.000009857008, 10.000675, 10.000026 
9.350964e+2, 1.3500006e+2, -1731269.6, -1690499.1, -30820.842, -0.03634544, -0.12989257, -1673931.9, -56936.164, 0.0000009955157, 9.999289, 9.9998255 
9.3508947e+2, 1.4500001e+2, -1684669.3, -1629393.8, 35162.99, -0.022286372, -0.09728476, -1612307.0, -93308.805, 0.00000000002439963, 9.998943, 9.9997225 
9.3508345e+2, 1.5500185e+2, -1414937.3, -1446756.1, 85760.89, -0.06039469, 0.07049318, -1343622.6, 77363.164, 0.0, 10.000125, 9.999727 
9.35077e+2, 1.6500221e+2, -1233457.8, -1295434.8, 5452.859, -0.04286558, 0.13157149, -1232981.6, 90000.445, 0.0, 10.000627, 9.999867 
9.350702e+2, 1.7500094e+2, -1161159.4, -1213130.3, 6520.836, 0.012004848, -0.011738601, -1160353.6, 64635.227, 0.0, 10.000472, 9.999832 
9.350636e+2, 1.8500012e+2, -1155599.1, -1245158.1, 39045.35, 0.012501003, -0.030218042, -1140967.0, -13972.606, 0.0, 10.000211, 9.999058 
9.350574e+2, 1.9499922e+2, -1110185.1, -1179400.3, 40950.89, -0.034970876, -0.0574977, -1091176.9, -62172.51, 0.0, 9.999872, 9.999001 
9.350504e+2, 2.0499851e+2, -978133.9, -960362.1, -33087.926, -0.07074535, -0.0696417, -934987.7, -3977.8997, 0.0, 9.999663, 9.999931 
9.3504274e+2, 2.149977e+2, -893190.6, -877801.25, -335.07663, -0.10417312, -0.17055584, -877793.94, -44780.61, 0.0, 9.999605, 9.99986 
9.350371e+2, 2.2499737e+2, -865224.25, -966310.1, 70735.28, -0.05733478, -0.11447873, -828830.06, -93812.21, 0.0, 9.999785, 9.998486 
9.350334e+2, 2.3499712e+2, -712341.25, -849305.3, 64552.6, 0.06610723, -0.021464728, -686712.56, -49685.613, 0.0, 10.000187, 9.998426 
9.3502784e+2, 2.4499667e+2, -498276.97, -629944.8, -390.64676, 0.07522032, 0.06840443, -498275.78, 40758.79, 0.0, 10.000713, 9.999003 
9.350205e+2, 2.549957e+2, -308408.03, -497512.63, 40846.254, -0.02675345, 0.039733797, -299962.5, 141081.44, 0.0, 10.001378, 9.998927 
9.3501455e+2, 2.649944e+2, -236091.89, -487912.16, 64830.28, -0.033392202, 0.061329164, -220381.66, 122674.73, 0.00000003612581, 10.001547, 9.998227 
9.3500984e+2, 2.7499235e+2, -200439.1, -427483.44, 82939.875, 0.05159424, 0.001263309, -173368.58, 71708.01, 0.0000027030533, 10.00115, 9.998158 
9.350038e+2, 2.8499067e+2, -119699.87, -342942.2, 19402.83, 0.059457056, 0.025323456, -118026.04, 29068.018, 0.000022488803, 10.001036, 9.998123 
9.3499666e+2, 2.9498923e+2, -16661.457, -247998.92, 16686.611, -0.017684106, 0.025296038, -15464.032, 33646.02, 0.00009525127, 10.001083, 9.9980755 
9.349897e+2, 3.049872e+2, 115785.74, -11261.793, -34992.496, -0.021956705, -0.043606386, 124786.07, 124786.07, 0.00025879213, 10.001052, 9.999388 
9.349806e+2, 3.1498662e+2, 73127.42, 26641.14, 37178.203, -0.20277984, -0.08074487, 93730.18, 93730.18, 0.0005142612, 10.000425, 9.999951 
9.45104e+2, 1.2500629e+2, -1871015.8, -1799468.0, -28802.633, -0.03560456, -0.17450424, -1789314.1, -74382.44, 0.000016753027, 9.998871, 9.999954 
9.4509625e+2, 1.3500682e+2, -1513257.0, -1600316.8, -55329.63, -0.039118286, -0.13157511, -1486386.4, 130541.52, 0.000002343361, 10.000833, 9.9997 
9.450891e+2, 1.4500733e+2, -1396489.0, -1426798.5, 41590.22, -0.031515695, -0.0691326, -1367378.5, 151547.1, 0.0000000053592455, 10.000631, 10.000306 
9.4508284e+2, 1.5500931e+2, -1593162.4, -1478837.3, 46961.08, -0.04533388, 0.05851623, -1462020.8, -41111.152, 0.0, 9.998639, 10.000244 
9.4507706e+2, 1.650098e+2, -1497313.3, -1435453.9, 69934.16, -0.00239996, 0.114705935, -1389915.0, -67010.055, 0.0, 9.99888, 9.999739 
9.4507164e+2, 1.7500862e+2, -1041229.1, -1171336.1, 57041.62, 0.07429536, -0.005315596, -1019762.7, 205150.72, 0.0, 10.00137, 9.9996805 
9.4506514e+2, 1.8500783e+2, -915848.9, -1132103.8, 64665.758, 0.06872624, -0.012890691, -897987.4, 228932.48, 0.0, 10.00189, 9.999009 
9.4505775e+2, 1.9500692e+2, -1019034.75, -1139027.1, 56478.12, -0.009792524, -0.035150785, -996633.6, 32295.705, 0.0, 10.000536, 9.998943 
9.4505066e+2, 2.0500602e+2, -875067.94, -944802.2, 50679.07, -0.04797995, -0.04985691, -848420.1, 82516.625, 0.0, 10.000508, 9.999632 
9.4504386e+2, 2.1500486e+2, -614589.06, -774360.0, -2354.2217, -0.043935116, -0.15698746, -614554.4, 218390.02, 0.0, 10.001651, 9.99958 
9.450383e+2, 2.2500433e+2, -589976.1, -822077.75, 68389.516, 0.0016950609, -0.11055328, -571323.9, 163626.75, 0.0, 10.001648, 9.9985695 
9.450339e+2, 2.3500405e+2, -648486.4, -807876.0, 77744.05, 0.092709996, -0.026849002, -616846.56, 20112.625, 0.0, 10.000597, 9.998507 
9.4502836e+2, 2.450038e+2, -516860.7, -636915.5, 86765.45, 0.070543654, 0.078162245, -471382.0, 67583.086, 0.0, 10.000576, 9.999016 
9.450217e+2, 2.5500327e+2, -279052.72, -475633.94, 48191.047, -0.05102964, 0.0897623, -267874.53, 173096.73, 0.0, 10.001551, 9.99898 
9.4501615e+2, 2.6500195e+2, -172882.06, -444982.25, 39234.188, -0.03243086, 0.098488905, -167337.84, 175645.86, 0.000000027783642, 10.001919, 9.998348 
9.45012e+2, 2.749994e+2, -125628.8, -380456.88, 29430.047, 0.13733664, -0.018190425, -122274.086, 122732.92, 0.000002329391, 10.001603, 9.998274 
9.450058e+2, 2.849977e+2, -94678.79, -341426.34, 32060.482, 0.15029946, 0.006175642, -90581.14, 56443.215, 0.000023981273, 10.001264, 9.998026 
9.449978e+2, 2.949967e+2, -64597.46, -283845.72, 28127.145, 0.0136718815, 0.062297862, -61046.566, -12009.075, 0.00010679835, 10.000811, 9.997971 
9.449906e+2, 3.0499476e+2, 87352.7, -39463.266, 5437.895, -0.020558385, 0.014084324, 87585.45, 87585.45, 0.00028981623, 10.000947, 9.999245 
9.449824e+2, 3.149926e+2, 198280.97, 61924.438, -41760.207, -0.09522494, -0.1563961, 210053.88, 210053.88, 0.00057081727, 10.0014105, 9.999724 
9.551036e+2, 1.2501293e+2, -1851986.8, -1744862.9, -5501.562, -0.039853603, -0.14166377, -1744581.1, -29711.592, 0.00002677623, 9.99884, 10.00032 
9.550961e+2, 1.3501555e+2, -1502067.3, -1551607.9, 30536.027, -0.16876142, 0.06968407, -1487518.1, 129328.12, 0.0000047533053, 10.00075, 10.000054 
9.550889e+2, 1.4501607e+2, -1374744.5, -1366482.1, -56365.473, -0.15708372, 0.09387611, -1314096.6, 204744.1, 0.000000046136613, 10.000555, 10.000763 
9.5508206e+2, 1.5501595e+2, -1554429.4, -1408240.4, -12205.966, -0.029855957, -0.036990378, -1407228.3, 13610.632, 0.0, 9.998682, 10.000707 
9.550765e+2, 1.6501604e+2, -1489471.8, -1423201.6, 146546.61, 0.013832687, -0.046032697, -1306090.8, 16746.021, 0.0, 9.998893, 9.999819 
9.5507234e+2, 1.7501599e+2, -1042405.75, -1161576.4, 165242.05, -0.027385753, -0.064365715, -926334.2, 298503.7, 0.0, 10.001316, 9.999774 
9.5506626e+2, 1.8501581e+2, -911769.2, -1107884.4, -2848.59, -0.037364975, -0.027312515, -911727.8, 215111.98, 0.0, 10.001808, 9.999222 
9.550585e+2, 1.9501504e+2, -1016772.4, -1114514.4, 21031.486, -0.018599678, -0.055438485, -1012439.06, 16407.47, 0.0, 10.000441, 9.999161 
9.550517e+2, 2.0501429e+2, -966930.4, -1099248.1, 75785.805, -0.020879198, -0.017505197, -932488.6, -1633.9016, 0.0, 10.000353, 9.998649 
9.5504564e+2, 2.1501313e+2, -717877.1, -935204.6, 55518.094, -0.054936178, -0.026885014, -704516.0, 128351.84, 0.0, 10.00142, 9.9985895 
9.550396e+2, 2.2501208e+2, -571466.6, -732287.94, 12508.563, -0.055801928, -0.018142408, -570499.56, 164378.89, 0.0, 10.001426, 9.999293 
9.5503366e+2, 2.350108e+2, -631185.44, -723155.2, 56849.1, -0.026563726, -0.105676375, -604051.06, 32839.008, 0.0, 10.000384, 9.999192 
9.550281e+2, 2.4501018e+2, -588179.75, -736067.5, 109790.57, -0.04054509, -0.04222697, -529754.2, 9143.659, 0.0, 10.000376, 9.998425 
9.5502305e+2, 2.5500986e+2, -347085.0, -577613.4, 102962.266, -0.10012794, 0.048828095, -307794.78, 133110.7, 0.0, 10.001388, 9.998353 
9.550181e+2, 2.6500872e+2, -181753.84, -428353.06, 11194.439, -0.056180984, 0.10102775, -181246.72, 161671.14, 0.000000030362223, 10.001775, 9.998529 
9.550132e+2, 2.7500644e+2, -134309.73, -360918.7, 38226.156, 0.07511876, -0.015415606, -128035.19, 116903.96, 0.000002140531, 10.0014515, 9.998474 
9.550066e+2, 2.850053e+2, -84182.85, -293253.2, -704.9122, 0.07269728, 0.037320547, -84180.48, 62769.793, 0.000025889522, 10.001149, 9.998412 
9.549982e+2, 2.9500523e+2, -55037.23, -236822.75, 35109.055, -0.07090967, 0.14518864, -48492.113, 461.00717, 0.00011778403, 10.000696, 9.998344 
9.549913e+2, 3.0500367e+2, -10228.348, -217344.05, 18726.73, -0.074867606, 0.17726573, -8548.758, -8548.758, 0.00031950467, 10.000841, 9.998075 
9.549848e+2, 3.1499958e+2, 111341.164, -78747.266, 38201.797, -0.07028248, -0.075212754, 118731.22, 118731.22, 0.00062882464, 10.001243, 9.9988365 
9.651033e+2, 1.250207e+2, -1673958.8, -1652992.5, 67811.73, 0.009973925, -0.043534834, -1594858.4, 119936.875, 0.000040530904, 9.999989, 10.000426 
9.650959e+2, 1.3502252e+2, -1750672.3, -1652033.5, 42288.418, -0.15859383, 0.07453581, -1636385.9, -19608.467, 0.000008656152, 9.998934, 10.000263 
9.6508896e+2, 1.4502247e+2, -1615384.8, -1486184.5, -43303.297, -0.11031475, 0.034406155, -1473013.5, 45762.28, 0.00000019058375, 9.998962, 10.000681 
9.650821e+2, 1.5502194e+2, -1298735.9, -1294884.8, -83731.65, 0.023017887, -0.12479832, -1213056.5, 207720.03, 0.0, 10.000521, 10.000578 
9.650766e+2, 1.6502209e+2, -1246548.3, -1298292.4, 109781.82, 0.055365097, -0.12437691, -1159631.1, 163143.16, 0.0, 10.000552, 9.999867 
9.6507263e+2, 1.7502256e+2, -1359716.3, -1312924.0, 88764.26, -0.008952021, -0.09557393, -1244524.3, -19751.707, 0.0, 9.99914, 9.999779 
9.65067e+2, 1.8502274e+2, -1228014.3, -1230636.9, -53083.98, -0.02306916, -0.03602177, -1176225.4, -49453.8, 0.0, 9.999485, 9.999514 
9.650597e+2, 1.9502226e+2, -837470.56, -1000018.94, -53601.95, 0.0049470277, -0.06388586, -821386.4, 207388.61, 0.0, 10.001529, 9.999439 
9.6505296e+2, 2.050216e+2, -778014.94, -1029785.3, 42256.707, 0.010549703, -0.016013704, -771111.94, 159670.52, 0.0, 10.001778, 9.998423 
9.65047e+2, 2.1502045e+2, -896979.9, -1046476.44, 40153.277, -0.00046165046, -0.0053191516, -886877.75, -54080.348, 0.0, 10.000318, 9.998343 
9.650409e+2, 2.2501935e+2, -727709.1, -816014.94, 47442.313, -0.01271039, 0.013448694, -707052.7, 27756.232, 0.0, 10.000378, 9.9992285 
9.650348e+2, 2.3501796e+2, -407593.75, -615937.75, 1431.5591, -0.017075991, -0.07898087, -407583.9, 229236.47, 0.0, 10.001917, 9.999187 
9.650294e+2, 2.4501687e+2, -352061.2, -658899.44, 56991.883, -0.028652025, -0.04686917, -341817.53, 197014.53, 0.0, 10.002134, 9.998123 
9.6502477e+2, 2.5501588e+2, -424819.38, -652975.7, 40480.105, -0.037263595, 0.009993129, -417850.2, 22996.27, 0.0, 10.001006, 9.998035 
9.650199e+2, 2.650147e+2, -322410.38, -486017.25, -1775.7565, 0.0049604154, 0.069785915, -322391.13, 20468.428, 0.000000012060779, 10.000761, 9.998618 
9.650147e+2, 2.7501294e+2, -149072.84, -363293.2, -21520.967, 0.090738945, 0.00028525293, -146932.2, 97943.92, 0.0000023356135, 10.001322, 9.998521 
9.65008e+2, 2.850119e+2, 6042.73, -227065.56, -45745.223, 0.08136614, 0.04665829, 14698.386, 161584.44, 0.000028869204, 10.00168, 9.998593 
9.6499985e+2, 2.9501146e+2, 119772.73, -134044.8, -72225.83, -0.015801728, 0.10246885, 138885.89, 187776.38, 0.00012892728, 10.001832, 9.998488 
9.6499306e+2, 3.0501014e+2, 145794.88, -189589.61, -15211.796, -0.025571836, 0.16949458, 146483.4, 146483.4, 0.00034703137, 10.002084, 9.997673 
9.649874e+2, 3.1500632e+2, 196275.83, -42221.17, 3263.2102, 0.05354699, -0.018893007, 196320.47, 196320.47, 0.0006841425, 10.0018215, 9.998808 
9.7510225e+2, 1.2502922e+2, -1673486.5, -1633318.0, -32287.885, -0.17827035, 0.099507056, -1615377.4, 99334.914, 0.000058506626, 9.999919, 10.00059 
9.750951e+2, 1.35028e+2, -1727240.0, -1606288.3, 12515.384, -0.16178872, -0.113268726, -1605006.9, 11712.39, 0.00001444443, 9.998958, 10.00056 
9.750889e+2, 1.4502692e+2, -1669481.1, -1603065.4, -1209.1488, -0.070054114, -0.23202258, -1603043.4, -84316.484, 0.0000005546723, 9.9989805, 9.999874 
9.750825e+2, 1.5502751e+2, -1359642.5, -1412179.6, -5039.411, -0.018275524, -0.20028591, -1359163.5, 61557.113, 0.0, 10.000485, 9.999787 
9.750769e+2, 1.6502807e+2, -1254989.1, -1308507.9, 36987.32, -0.0058365217, -0.118679486, -1236096.3, 86620.36, 0.0, 10.000511, 9.999822 
9.7507215e+2, 1.7502834e+2, -1363969.9, -1319895.5, 49660.62, -0.005866964, -0.10383392, -1287602.1, -62884.78, 0.0, 9.999126, 9.999741 
9.750668e+2, 1.8502867e+2, -1214652.0, -1183641.1, 10346.499, -0.025418794, -0.043628033, -1180506.0, -53791.152, 0.0, 9.999401, 9.999877 
9.750607e+2, 1.9502872e+2, -831996.7, -953297.25, 40306.395, -0.07469262, -0.060050197, -819824.9, 208888.14, 0.0, 10.001381, 9.999826 
9.750542e+2, 2.050282e+2, -775301.56, -984364.6, -30740.742, -0.07391963, -0.03518902, -770875.1, 159842.7, 0.0, 10.001595, 9.998831 
9.7504735e+2, 2.1502684e+2, -895209.56, -1000804.8, 455.60574, -0.024022162, -0.085456856, -895207.56, -62474.633, 0.0, 10.000132, 9.998752 
9.750415e+2, 2.2502606e+2, -811260.7, -943378.1, 86792.805, -0.010406677, -0.015731407, -768247.2, -33504.652, 0.0, 10.000177, 9.998448 
9.7503686e+2, 2.3502551e+2, -499104.63, -747127.06, 73029.914, -0.02969956, 0.052105132, -479198.66, 157551.64, 0.0, 10.001671, 9.9984 
9.7503185e+2, 2.4502403e+2, -377967.2, -674512.25, -2676.0635, -0.027261052, 0.08524233, -377943.06, 160823.4, 0.0, 10.001963, 9.998105 
9.7502637e+2, 2.5502127e+2, -446200.84, -662756.75, 16724.148, -0.008765667, -0.030948432, -444916.88, -4122.5313, 0.0, 10.0008545, 9.998042 
9.7502106e+2, 2.6501974e+2, -342046.88, -500512.16, 3840.4368, 0.01354431, -0.010091061, -341953.88, 856.17114, 0.0000000034767167, 10.000643, 9.998576 
9.750158e+2, 2.75019e+2, -167351.22, -374709.47, 20983.004, 0.03468689, 0.024751903, -165249.22, 79568.35, 0.0000028342504, 10.001204, 9.998499 
9.7500956e+2, 2.850176e+2, -15605.623, -248452.0, -53163.074, 0.03035089, 0.04342968, -4041.8145, 142788.28, 0.000032313746, 10.001583, 9.998494 
9.7500217e+2, 2.950154e+2, 92660.05, -160084.8, -38773.723, -0.012561992, -0.070350446, 98474.58, 147324.88, 0.0001399921, 10.001707, 9.998369 
9.749953e+2, 3.050139e+2, 147420.06, -153840.31, -34837.523, -0.04014261, -0.023108799, 151396.17, 151396.17, 0.00037284024, 10.001949, 9.997982 
9.74989e+2, 3.1501192e+2, 220027.42, 53111.496, 47821.176, -0.047237646, -0.06273634, 232757.28, 232757.28, 0.00073526404, 10.001633, 9.999547 
9.851023e+2, 1.2503639e+2, -1858542.6, -1719185.0, 12287.362, -0.080573365, 0.09050209, -1718110.0, -3468.905, 0.00008108169, 9.9986315, 10.000618 
9.85095e+2, 1.3503492e+2, -1618594.3, -1560036.8, -17052.473, -0.08993445, -0.14702502, -1555432.9, 61217.188, 0.000022462764, 9.999704, 10.0005245 
9.85089e+2, 1.450339e+2, -1532620.5, -1554061.9, 45584.066, 0.0038071442, -0.25072142, -1496513.4, 22144.15, 0.0000013019285, 9.999971, 9.999739 
9.850828e+2, 1.550348e+2, -1464960.0, -1479761.3, 49880.375, 0.007592507, -0.17737068, -1421934.3, -1285.0137, 0.0, 9.999818, 9.999648 
9.8507726e+2, 1.650353e+2, -1329617.6, -1364705.8, 117769.42, 0.014638536, -0.08321186, -1228092.6, 94553.49, 0.0, 10.000084, 9.999643 
9.8507243e+2, 1.7503524e+2, -1128551.0, -1223166.8, 88336.664, 0.03442233, -0.0830405, -1075652.0, 148998.23, 0.0, 10.000826, 9.999581 
9.850672e+2, 1.8503533e+2, -1020523.9, -1096735.0, 87899.43, 0.01254045, -0.03569874, -962825.75, 163824.67, 0.0, 10.000781, 9.999799 
9.8506135e+2, 1.950352e+2, -1063073.8, -1076984.1, 46119.457, -0.065991804, -0.05851511, -1023387.94, 5262.5664, 0.0, 9.99986, 9.999707 
9.850552e+2, 2.0503469e+2, -941886.8, -1048568.9, -30375.518, -0.062379885, -0.039292045, -933844.3, -3188.8206, 0.0, 10.000359, 9.998994 
9.8504883e+2, 2.150334e+2, -589124.06, -835394.56, -47700.88, 0.017116139, -0.09640449, -580207.56, 252461.13, 0.0, 10.002149, 9.99892 
9.850433e+2, 2.250326e+2, -506626.2, -841886.4, 76633.914, 0.037733395, -0.019862045, -489939.7, 244739.33, 0.0, 10.00245, 9.998057 
9.8503864e+2, 2.3503189e+2, -587242.8, -835295.56, 63779.176, 0.006998847, 0.072743066, -571804.75, 64885.07, 0.0, 10.001251, 9.998005 
9.8503363e+2, 2.4503046e+2, -495354.56, -696681.8, 34588.676, 0.011644439, 0.116819896, -489577.88, 49127.324, 0.0, 10.001037, 9.998383 
9.8502815e+2, 2.5502786e+2, -284879.2, -556795.0, 36639.293, 0.0397135, -0.012803158, -280028.75, 160701.05, 0.0, 10.001845, 9.998288 
9.8502266e+2, 2.6502615e+2, -173322.25, -433885.06, 62110.098, 0.05054096, -0.011849077, -159274.48, 183471.6, 0.00000001775074, 10.001879, 9.998442 
9.850172e+2, 2.7502507e+2, -182208.31, -398778.7, 31876.05, 0.059260026, 0.00855134, -177614.08, 67142.84, 0.000003544514, 10.001175, 9.998356 
9.8501116e+2, 2.850235e+2, -74415.266, -306411.4, 582.86475, 0.05704122, 0.028508577, -74413.805, 72357.47, 0.00003520851, 10.001282, 9.998267 
9.850046e+2, 2.9502112e+2, 131817.69, -170111.19, -27964.703, 0.04777148, -0.074468076, 134385.94, 183178.47, 0.00014922032, 10.002073, 9.998144 
9.8499775e+2, 3.0501914e+2, 181888.06, -160695.7, -35744.566, 0.0068811667, -0.055491652, 185577.86, 185577.86, 0.00039592202, 10.002309, 9.997746 
9.849916e+2, 3.150175e+2, 216144.81, 46172.43, -66283.65, 0.06483737, -0.039213944, 238936.98, 238936.98, 0.0007798097, 10.001642, 9.999488 
9.9510235e+2, 1.2504224e+2, -1880024.0, -1756144.1, -2954.681, -0.01850943, -0.064803705, -1756073.8, -41493.035, 0.000108580556, 9.998612, 10.000362 
9.9509525e+2, 1.3504326e+2, -1644831.1, -1602909.5, 34067.58, -0.07143329, -0.029801145, -1583870.9, 32698.936, 0.000033028722, 9.99967, 10.000236 
9.950891e+2, 1.450433e+2, -1499372.3, -1485394.6, 15083.505, -0.029951036, -0.035483744, -1475759.5, 42808.72, 0.0000026281716, 9.999964, 10.000222 
9.950825e+2, 1.5504375e+2, -1422396.4, -1397797.0, 58435.56, -0.042882793, -0.056797728, -1350380.6, 70182.016, 0.00000000019976186, 9.99984, 10.000205 
9.950772e+2, 1.6504388e+2, -1355855.3, -1407785.0, 127690.766, -0.03711639, -0.015521491, -1251516.3, 71046.13, 0.0, 10.000045, 9.999361 
9.950732e+2, 1.7504333e+2, -1153902.5, -1266180.9, 132301.64, -0.012823727, -0.034826063, -1066322.1, 158248.8, 0.0, 10.000787, 9.999304 
9.950678e+2, 1.8504266e+2, -1079460.9, -1196884.1, 35189.855, -0.03956758, -0.018158766, -1069722.8, 56856.203, 0.0, 10.000688, 9.999157 
9.950611e+2, 1.9504158e+2, -1122394.8, -1172250.1, 28070.338, -0.1105296, -0.07388934, -1109781.4, -81192.12, 0.0, 9.9997425, 9.999109 
9.950555e+2, 2.0504084e+2, -975657.2, -1070119.4, 18612.348, -0.09689973, -0.041846372, -972122.2, -41525.438, 0.0, 10.000159, 9.998937 
9.9505097e+2, 2.1504012e+2, -625509.4, -854317.6, 33849.707, -0.007237651, -0.040083744, -620606.75, 211998.25, 0.0, 10.001916, 9.998895 
9.950457e+2, 2.2503904e+2, -538835.75, -851363.94, 15003.978, 0.012151711, 0.0075821304, -538117.1, 196500.25, 0.0, 10.002206, 9.998109 
9.950396e+2, 2.3503724e+2, -617199.0, -842843.5, 36282.586, -0.0431373, -0.01476956, -611508.44, 25128.87, 0.0, 10.001023, 9.99806 
9.950343e+2, 2.4503623e+2, -487101.84, -641890.2, 49144.613, -0.05320896, 0.044810567, -472816.94, 65830.69, 0.0, 10.000867, 9.998842 
9.950296e+2, 2.5503558e+2, -278441.66, -499865.03, 84235.47, -0.025648117, 0.064543486, -250039.39, 190613.11, 0.0, 10.001653, 9.998773 
9.9502414e+2, 2.6503402e+2, -223884.4, -499217.8, 20294.955, -0.008751577, 0.074835755, -222396.5, 120270.164, 0.000000028595345, 10.001716, 9.998069 
9.9501806e+2, 2.7503118e+2, -232300.06, -467157.84, 26323.443, 0.00165614, -0.044520687, -229385.83, 15308.403, 0.000003781716, 10.001033, 9.997952 
9.950123e+2, 2.8502944e+2, -109960.51, -356202.8, 16222.64, 0.0074162083, -0.002618178, -108896.34, 37814.215, 0.000036350866, 10.001177, 9.997973 
9.950067e+2, 2.9502875e+2, 100910.11, -209685.16, 26516.193, 0.0035466373, 0.08672138, 103157.586, 151874.56, 0.00015456251, 10.001969, 9.997919 
9.9500006e+2, 3.05026e+2, 100851.5, -304977.03, -67666.6, -0.023142658, 0.084083624, 111836.67, 111836.67, 0.00041193186, 10.002214, 9.996799 
9.949939e+2, 3.1502238e+2, 122497.08, -92268.23, -49297.023, 0.05024867, -0.0004619316, 133272.08, 133272.08, 0.0008105773, 10.001417, 9.998639 
1.0051019e+3, 1.2504819e+2, -1844737.5, -1718791.4, -4764.0913, 0.08368316, -0.13450764, -1718611.5, -4090.407, 0.00014134821, 9.998766, 10.000548 
1.0050947e+3, 1.350502e+2, -1687831.3, -1605346.1, 17703.117, -0.054236036, -0.015810795, -1601707.3, 14793.434, 0.000046426092, 9.999298, 10.000396 
1.0050892e+3, 1.4505057e+2, -1549650.5, -1510376.5, 23617.549, 0.007279134, 0.005752978, -1499298.6, 19197.83, 0.00000474816, 9.999658, 10.000177 
1.00508325e+3, 1.5505065e+2, -1364039.4, -1378450.8, -20903.615, 0.028023759, -0.04477083, -1349134.4, 71361.26, 0.000000004412824, 10.000293, 10.000116 
1.005078e+3, 1.6505061e+2, -1296839.5, -1390174.8, 65709.48, 0.022094605, -0.010653812, -1262911.9, 59585.54, 0.0, 10.000475, 9.999288 
1.00507356e+3, 1.7505014e+2, -1247115.9, -1318764.6, 53573.797, -0.011070255, -0.017135598, -1218492.4, 6012.874, 0.0, 10.000164, 9.999249 
1.0050682e+3, 1.850495e+2, -1098448.1, -1195837.6, 20442.816, -0.045934964, 0.00052766263, -1094331.0, 32181.428, 0.0, 10.000519, 9.999241 
1.00506194e+3, 1.9504836e+2, -850437.3, -1032896.1, 32363.068, -0.07760854, -0.06826769, -844867.06, 183655.3, 0.0, 10.001579, 9.999175 
1.0050567e+3, 2.0504764e+2, -775659.8, -1005975.25, 86476.23, -0.055541705, -0.02636751, -746805.56, 183724.61, 0.0, 10.00166, 9.998658 
1.0050524e+3, 2.1504693e+2, -820648.25, -987228.0, 48808.316, 0.01068039, 0.0068517365, -807400.75, 25139.04, 0.0, 10.000714, 9.998577 
1.0050471e+3, 2.2504559e+2, -733976.94, -907466.94, 44598.895, 0.016210223, 0.03134997, -723183.44, 11370.262, 0.0, 10.000725, 9.998433 
1.0050409e+3, 2.3504329e+2, -492152.53, -749962.2, 45164.95, -0.042147614, -0.07026254, -484469.2, 152106.39, 0.0, 10.001747, 9.998351 
1.0050356e+3, 2.4504216e+2, -345981.6, -600467.6, 80652.83, -0.05499409, -0.023596656, -322573.8, 216012.45, 0.0, 10.001952, 9.998604 
1.0050311e+3, 2.5504193e+2, -336521.63, -546417.75, 28180.447, -0.017825147, 0.057884384, -332804.0, 107784.48, 0.0, 10.001359, 9.998581 
1.0050258e+3, 2.6504043e+2, -269841.34, -520339.56, -17867.885, 0.008871752, 0.08230048, -268573.25, 74028.56, 0.000000017098808, 10.00139, 9.998078 
1.0050197e+3, 2.750372e+2, -102367.76, -396740.06, -15197.394, 0.02750951, -0.07865066, -101585.25, 143045.77, 0.000003428396, 10.001893, 9.998013 
1.005014e+3, 2.8503528e+2, 8244.114, -321140.06, 48808.027, 0.032559175, -0.0526856, 15324.281, 161973.27, 0.00003625069, 10.002101, 9.997754 
1.0050089e+3, 2.9503444e+2, 82122.836, -244335.56, 20615.031, 0.042378124, 0.04467621, 83419.48, 132077.23, 0.00015744341, 10.001948, 9.997687 
1.00500256e+3, 3.0503133e+2, 90878.516, -336862.2, -29266.584, 0.02133465, 0.032091796, 92871.69, 92871.69, 0.00042211023, 10.00223, 9.996603 
1.0049969e+3, 3.150282e+2, 272168.47, -58478.96, -19849.588, 0.16962846, 0.024930038, 273355.8, 273355.8, 0.0008305699, 10.002557, 9.998366 
1.0151e+3, 1.250543e+2, -1806903.3, -1621677.9, -51481.066, -0.057012305, -0.12480545, -1608331.1, 106130.1, 0.0001798155, 9.998707, 10.001232 
1.015093e+3, 1.3505588e+2, -1641225.0, -1509616.0, 50586.84, -0.19377275, -0.11459625, -1492419.0, 124022.4, 0.000062927356, 9.9993105, 10.0010395 
1.01508856e+3, 1.4505582e+2, -1603673.6, -1617577.9, 23649.912, -0.07186185, -0.13379578, -1585975.3, -67533.92, 0.000007860604, 9.999638, 9.99945 
1.0150844e+3, 1.550556e+2, -1419561.6, -1488376.4, 19174.713, 0.07762585, -0.13833854, -1414579.5, 5867.227, 0.000000028517778, 10.000277, 9.999364 
1.01507924e+3, 1.6505566e+2, -1290591.0, -1371474.3, 35996.914, 0.05979693, -0.06414385, -1276891.1, 45558.387, 0.0, 10.000446, 9.999431 
1.0150732e+3, 1.7505574e+2, -1236768.0, -1296513.8, 57138.188, -0.0992112, -0.033380095, -1202164.8, 22287.617, 0.0, 10.000156, 9.999408 
1.015068e+3, 1.850559e+2, -1059150.5, -1092908.6, 41741.035, -0.15055963, 0.018155405, -1031004.94, 95445.805, 0.0, 10.000427, 9.999991 
1.0150636e+3, 1.950557e+2, -818523.7, -932659.3, 85832.01, -0.10394769, -0.032324415, -772519.4, 255929.31, 0.0, 10.001435, 9.99993 
1.01505846e+3, 2.0505515e+2, -837731.56, -1096518.0, 32921.73, -0.07737263, 0.017650846, -833609.06, 96845.62, 0.0, 10.001494, 9.9981165 
1.0150526e+3, 2.1505393e+2, -884090.7, -1073176.3, 27043.12, -0.06978846, 0.05114941, -880299.0, -47827.23, 0.0, 10.000525, 9.998072 
1.01504706e+3, 2.2505242e+2, -734933.56, -858347.94, 64199.53, -0.08606878, 0.05973793, -707593.8, 26892.81, 0.0, 10.0005045, 9.998877 
1.0150421e+3, 2.3505022e+2, -492090.6, -696618.44, 98204.34, -0.13021003, -0.07936813, -452573.0, 183930.2, 0.0, 10.001522, 9.998823 
1.0150371e+3, 2.4504846e+2, -440107.53, -750923.3, 38741.613, -0.12703447, -0.07100456, -435351.38, 103167.86, 0.0, 10.001757, 9.997668 
1.01503216e+3, 2.550468e+2, -424097.6, -694036.56, 21767.37, -0.0810111, -0.036395583, -422353.6, 18184.496, 0.0, 10.001205, 9.997645 
1.015027e+3, 2.650452e+2, -255024.34, -455981.47, -12000.275, -0.036458317, -0.0024533486, -254310.28, 88242.26, 0.000000011022683, 10.001249, 9.998587 
1.0150216e+3, 2.7504325e+2, -86680.01, -328319.13, 26438.63, -0.0060295067, -0.090513214, -83821.086, 160745.36, 0.0000031084232, 10.001742, 9.998552 
1.01501614e+3, 2.8504094e+2, -26080.932, -365522.4, 26739.992, 0.0026679498, -0.115894884, -23987.363, 122599.07, 0.000035475467, 10.001988, 9.997501 
1.0150108e+3, 2.9503804e+2, 37325.863, -296839.16, 37074.465, -0.013247281, -0.19637601, 41389.727, 90005.03, 0.00015874387, 10.001783, 9.997401 
1.0150047e+3, 3.0503508e+2, 113561.64, -262394.44, -25659.238, -0.020038394, -0.20937487, 115304.81, 115304.81, 0.00042931808, 10.002117, 9.997164 
1.0149995e+3, 3.1503493e+2, 256143.08, -18099.404, 36241.27, 0.11133007, 0.019363465, 260851.53, 260851.53, 0.00084597926, 10.002268, 9.998767 
1.025099e+3, 1.2506026e+2, -1886007.4, -1659024.4, -6874.4067, 0.016059844, -0.10779676, -1658816.4, 55587.02, 0.00022439056, 9.998143, 10.001258 
1.0250929e+3, 1.3506155e+2, -1566336.0, -1476096.3, 786.3356, -0.1564735, -0.12044623, -1476089.5, 140297.17, 0.0000828242, 9.999837, 10.001023 
1.0250887e+3, 1.4506151e+2, -1505027.5, -1594849.1, -22383.135, -0.04356183, -0.12813781, -1499758.8, 18628.057, 0.000012107546, 10.000388, 9.999269 
1.0250847e+3, 1.5506126e+2, -1454249.3, -1527065.0, -21068.27, 0.103769444, -0.1191711, -1448592.9, -28199.936, 0.00000009714164, 10.000107, 9.999195 
1.0250797e+3, 1.6506125e+2, -1336101.0, -1367016.1, 50274.793, 0.09041383, -0.053969823, -1298961.1, 23434.832, 0.0, 10.000058, 9.999624 
1.02507375e+3, 1.7506126e+2, -1192978.3, -1250181.3, 36368.434, -0.06750978, -0.04769947, -1175311.9, 49086.234, 0.0, 10.000384, 9.999597 
1.0250686e+3, 1.8506153e+2, -1053898.1, -1074695.0, 41671.742, -0.11717449, -0.001287893, -1021347.0, 105047.56, 0.0, 10.000378, 10.000146 
1.02506444e+3, 1.9506171e+2, -1020503.9, -1014449.8, 12416.872, -0.08411918, -0.030167645, -1004696.3, 23692.643, 0.0, 9.999969, 10.000085 
1.0250596e+3, 2.0506118e+2, -974279.3, -1135148.6, -8978.001, -0.057317458, 0.004064267, -973779.8, -43385.965, 0.0, 10.000463, 9.998347 
1.0250539e+3, 2.1505964e+2, -679990.75, -952179.7, 4260.379, -0.03316055, -0.012732147, -679924.06, 152488.25, 0.0, 10.00185, 9.998265 
1.0250486e+3, 2.2505818e+2, -509942.5, -778202.06, 71270.55, -0.059688997, 0.006227535, -492183.2, 242243.19, 0.0, 10.002164, 9.998625 
1.0250432e+3, 2.350565e+2, -539518.5, -748831.25, 22878.553, -0.14832056, -0.05636621, -537046.94, 99392.51, 0.0, 10.001323, 9.998559 
1.0250384e+3, 2.4505447e+2, -523482.5, -790055.75, -1924.5205, -0.13333647, -0.063345626, -523468.63, 14989.427, 0.0, 10.001202, 9.997651 
1.0250342e+3, 2.5505173e+2, -347654.0, -663326.9, 9745.85, -0.018254712, -0.13346541, -347353.4, 93132.32, 0.0, 10.001761, 9.997587 
1.0250292e+3, 2.6504982e+2, -150253.77, -422752.63, 25551.086, 0.025436524, -0.11950478, -147878.66, 194624.25, 0.00000001218603, 10.002043, 9.998432 
1.0250235e+3, 2.7504832e+2, -57075.28, -328286.9, -22750.117, 0.007874329, -0.14478517, -55180.17, 189332.83, 0.0000027111198, 10.002015, 9.998419 
1.0250183e+3, 2.8504628e+2, -6614.6636, -356402.0, -10533.093, 0.016202657, -0.1393288, -6297.7695, 140233.73, 0.00003356842, 10.002116, 9.997511 
1.0250133e+3, 2.950433e+2, 102697.17, -264446.2, -20105.457, 0.05275917, -0.22511159, 103794.9, 152356.81, 0.00015737157, 10.002223, 9.997421 
1.0250073e+3, 3.050403e+2, 202359.98, -162200.48, -24639.066, 0.025268035, -0.26817328, 204017.7, 204017.7, 0.00043278775, 10.0025015, 9.997647 
1.02500185e+3, 3.1504017e+2, 323957.38, 39626.023, -40377.81, 0.11016292, -0.08861314, 329580.22, 329580.22, 0.00085735595, 10.002609, 9.998992 
1.0350977e+3, 1.2506588e+2, -1921289.1, -1745661.3, -8764.086, -0.014162396, -0.10123175, -1745225.0, -30875.582, 0.00027553758, 9.9981985, 10.000636 
1.0350937e+3, 1.3506731e+2, -1617806.9, -1580892.4, 71724.305, -0.090847276, -0.032750025, -1525288.6, 91047.086, 0.000106410545, 9.999827, 10.00031 
1.03508934e+3, 1.4506768e+2, -1477579.6, -1533589.0, -55664.25, -0.07046103, 0.018235462, -1443272.4, 75060.18, 0.000017580353, 10.000375, 9.999695 
1.0350838e+3, 1.5506762e+2, -1419175.3, -1457016.4, -15034.44, -0.036205705, 0.0011775423, -1413929.3, 6404.698, 0.00000023822265, 10.000114, 9.999675 
1.03507884e+3, 1.6506739e+2, -1333677.0, -1349692.1, 41788.336, -0.039054234, 0.010730224, -1299135.9, 23200.547, 0.0, 10.000013, 9.999762 
1.03507474e+3, 1.750667e+2, -1193730.4, -1235786.1, 63849.3, -0.04514117, -0.06608763, -1147535.4, 76806.914, 0.0, 10.000321, 9.999723 
1.0350697e+3, 1.8506652e+2, -1095942.9, -1140716.3, 6422.2246, -0.08179714, -0.048484735, -1095039.9, 31303.037, 0.0, 10.000286, 9.999738 
1.03506394e+3, 1.9506648e+2, -1064680.0, -1081724.5, 9255.471, -0.15260568, -0.06061241, -1060620.8, -32278.508, 0.0, 9.999859, 9.999679 
1.03505954e+3, 2.0506579e+2, -942167.44, -1024354.3, 24939.691, -0.12833738, -0.06774685, -935191.56, -4844.2207, 0.0, 10.000269, 9.999202 
1.0350564e+3, 2.1506397e+2, -642269.1, -838004.8, 74025.13, -0.0026825953, -0.1958284, -617426.6, 214935.47, 0.0, 10.001685, 9.999131 
1.0350511e+3, 2.2506286e+2, -605900.0, -924716.9, 23189.44, -0.041143466, -0.14323513, -604222.1, 130151.45, 0.0, 10.001945, 9.997722 
1.0350438e+3, 2.3506212e+2, -632826.4, -892096.0, 7138.1987, -0.23959741, -0.022300549, -632630.0, 3754.601, 0.0, 10.001109, 9.997676 
1.03503905e+3, 2.4506015e+2, -504713.13, -700025.4, 6836.7954, -0.21623684, -0.01500169, -504474.1, 33928.77, 0.0, 10.000986, 9.998373 
1.03503674e+3, 2.5505668e+2, -321988.72, -567057.4, 50941.246, 0.026933653, -0.23462039, -311821.63, 128609.62, 0.0, 10.001583, 9.99833 
1.035032e+3, 2.650543e+2, -227288.58, -550940.06, 8054.902, 0.06956288, -0.26301366, -227088.23, 115363.83, 0.00000000560088, 10.001907, 9.997616 
1.03502505e+3, 2.7505252e+2, -139773.73, -458913.72, -4584.16, -0.081832655, -0.23648778, -139707.9, 104762.195, 0.0000022721786, 10.001849, 9.997597 
1.03501976e+3, 2.8505126e+2, -3749.3162, -322517.72, -21816.064, -0.0719914, -0.12276949, -2263.1836, 144220.67, 0.000031172072, 10.001995, 9.997803 
1.03501625e+3, 2.950504e+2, 99368.12, -234251.39, 10574.103, 0.07693622, -0.028257621, 99702.93, 148198.06, 0.00015322318, 10.002066, 9.9977045 
1.03501e+3, 3.0504707e+2, 205436.6, -125838.55, -28805.408, 0.016440963, -0.13534419, 207922.66, 207922.66, 0.00043103905, 10.002381, 9.997951 
1.03500254e+3, 3.1504425e+2, 287780.16, 37122.34, 12864.154, -0.14611527, -0.25414777, 288438.66, 288438.66, 0.00086192216, 10.002332, 9.999093 
1.0450968e+3, 1.2507217e+2, -1797501.0, -1728211.3, 37531.03, 0.048232306, -0.03419067, -1711779.3, 2508.5286, 0.0003338259, 9.999204, 10.000283 
1.045094e+3, 1.3507266e+2, -1819621.9, -1721617.3, 101896.67, 0.029116327, -0.021447586, -1657552.5, -41268.492, 0.00013404706, 9.998597, 9.999947 
1.0450895e+3, 1.4507285e+2, -1690291.8, -1593111.0, 33715.51, 0.0057384046, 0.008898454, -1582559.5, -64277.33, 0.000024406929, 9.998754, 10.00005 
1.045084e+3, 1.5507297e+2, -1411314.3, -1405686.9, 23275.295, -0.010996165, -0.025998125, -1385055.9, 35224.11, 0.0000004785213, 10.000001, 10.000062 
1.0450792e+3, 1.6507275e+2, -1273238.9, -1348504.0, 81854.98, -0.018829513, -0.021790266, -1220780.1, 101501.1, 0.0, 10.000526, 9.999541 
1.0450754e+3, 1.7507188e+2, -1195870.9, -1263606.6, 46903.25, 0.0039171088, -0.094753146, -1171886.0, 52403.008, 0.0, 10.0004015, 9.999509 
1.0450706e+3, 1.8507148e+2, -1107239.8, -1173251.0, 6488.706, -0.02261441, -0.07658525, -1106607.9, 19684.605, 0.0, 10.000341, 9.999482 
1.04506455e+3, 1.9507119e+2, -1003002.06, -1078713.8, -18116.402, -0.10142725, -0.086000435, -998890.44, 29405.139, 0.0, 10.000408, 9.99943 
1.0450603e+3, 2.0507048e+2, -865511.06, -956670.8, 54493.715, -0.09498943, -0.09598295, -840048.06, 90252.4, 0.0, 10.000661, 9.999472 
1.0450576e+3, 2.1506895e+2, -722613.25, -841634.3, 25578.064, -0.0023337302, -0.22726217, -717349.2, 114961.71, 0.0, 10.000997, 9.999426 
1.04505286e+3, 2.2506796e+2, -704615.7, -984550.94, -30991.27, -0.022605944, -0.17165457, -701225.7, 33095.26, 0.0, 10.0013075, 9.997629 
1.045046e+3, 2.3506711e+2, -569148.3, -873844.1, -22028.35, -0.15426798, -0.048919197, -567564.0, 68770.16, 0.0, 10.001578, 9.997587 
1.0450412e+3, 2.4506527e+2, -396288.38, -651579.44, 35338.12, -0.12197112, -0.022735044, -391487.06, 146864.78, 0.0, 10.001731, 9.99836 
1.04503885e+3, 2.550622e+2, -296144.72, -553822.2, -8739.089, 0.0768339, -0.20253155, -295848.66, 144528.06, 0.0, 10.001755, 9.9983425 
1.0450339e+3, 2.6505974e+2, -249320.25, -576349.94, -35401.914, 0.09186573, -0.23232315, -245531.78, 96866.67, 0.0000000009945924, 10.001802, 9.99751 
1.04502685e+3, 2.7505735e+2, -158196.89, -487348.72, -28430.941, -0.066335775, -0.25159407, -155759.19, 88663.43, 0.0000020282196, 10.001761, 9.997468 
1.04502186e+3, 2.8505617e+2, -22979.705, -316004.1, 16583.81, -0.053166013, -0.13238674, -22044.127, 124392.35, 0.00002862313, 10.0018, 9.997937 
1.0450186e+3, 2.950561e+2, 83720.82, -217437.25, -4294.877, 0.12947753, 0.023576774, 83782.055, 132223.2, 0.00014660136, 10.001871, 9.997903 
1.0450125e+3, 3.0505314e+2, 164578.44, -120640.63, -16278.082, 0.06013852, -0.06732234, 165504.45, 165504.45, 0.00042212423, 10.00198, 9.99818 
1.0450045e+3, 3.1505004e+2, 205584.38, 1292.4701, -46249.793, -0.13319972, -0.23445405, 215567.1, 215567.1, 0.00085377786, 10.001705, 9.999165 
1.0550955e+3, 1.2507898e+2, -1792522.4, -1718062.4, -36584.305, -0.087724306, 0.062554486, -1703095.8, 11124.471, 0.00039971265, 9.999217, 10.000338 
1.05509326e+3, 1.350778e+2, -1818202.0, -1714982.1, 94802.69, 0.059558827, -0.09269866, -1658651.6, -42421.52, 0.00016604259, 9.99859, 9.999992 
1.055089e+3, 1.4507729e+2, -1678093.0, -1567733.1, 57207.246, 0.02208179, -0.14335568, -1543430.5, -25197.22, 0.000032768716, 9.99875, 10.000227 
1.05508484e+3, 1.5507744e+2, -1404599.1, -1389410.6, 83368.195, 0.037425563, -0.195581, -1313291.5, 106938.06, 0.0000008393984, 9.999983, 10.000186 
1.0550803e+3, 1.6507746e+2, -1313722.4, -1423316.4, 57841.227, -0.0011195877, -0.14597513, -1288843.0, 33386.38, 0.0, 10.000487, 9.9990425 
1.0550755e+3, 1.7507699e+2, -1233517.3, -1337449.8, 57282.656, -0.061708007, -0.13203278, -1208141.4, 16095.008, 0.0, 10.0003805, 9.999011 
1.0550707e+3, 1.8507656e+2, -1135206.9, -1206947.4, -11313.992, -0.082240574, -0.083423086, -1133464.9, -7223.135, 0.0, 10.000236, 9.999302 
1.05506554e+3, 1.9507587e+2, -1030431.5, -1111955.8, 612.6065, -0.06868014, -0.11817955, -1030426.94, -2178.491, 0.0, 10.000299, 9.999256 
1.0550613e+3, 2.0507535e+2, -912787.56, -1015122.9, 48269.29, -0.090791576, -0.08356118, -893612.8, 36639.723, 0.0, 10.000489, 9.999157 
1.0550575e+3, 2.1507458e+2, -773611.44, -904389.1, 52765.59, -0.14916281, -0.10770974, -754977.06, 77281.42, 0.0, 10.000801, 9.999096 
1.0550533e+3, 2.2507343e+2, -693782.06, -907356.94, -35916.99, -0.12766641, -0.08263671, -687903.7, 46365.31, 0.0, 10.001077, 9.998263 
1.0550491e+3, 2.3507154e+2, -553558.2, -793282.44, 4351.5635, -0.02595327, -0.1333436, -553479.25, 82808.484, 0.0, 10.001375, 9.998234 
1.0550445e+3, 2.4506997e+2, -477017.4, -774505.44, 18545.688, 0.012294414, -0.07554448, -475865.72, 62438.348, 0.0, 10.00154, 9.997605 
1.0550399e+3, 2.5506836e+2, -375537.72, -676455.94, 5933.419, -0.009498773, -0.032382306, -375420.78, 64900.707, 0.0, 10.001574, 9.997585 
1.0550347e+3, 2.6506612e+2, -234419.42, -505565.94, -52165.746, -0.041111875, -0.029246904, -224729.56, 117612.586, 0.000000000012280949, 10.001637, 9.998068 
1.05502866e+3, 2.7506295e+2, -141327.47, -414114.34, -7676.587, -0.089939654, -0.18807623, -141111.61, 103257.53, 0.0000016155456, 10.001602, 9.998041 
1.0550238e+3, 2.8506124e+2, -43892.957, -329929.88, 4869.7505, -0.06335964, -0.15069659, -43810.074, 102576.516, 0.000025306648, 10.001675, 9.997904 
1.05502e+3, 2.9506046e+2, 59136.895, -237028.9, 24991.436, 0.044965986, -0.060151406, 61230.945, 109629.98, 0.00013793015, 10.001737, 9.997838 
1.0550141e+3, 3.0505848e+2, 162652.86, -100290.22, -33003.375, -0.0033665914, -0.060309973, 166732.0, 166732.0, 0.00040720604, 10.001873, 9.99837 
1.0550067e+3, 3.150577e+2, 167953.44, -17738.002, -4686.7295, -0.1613916, -0.013112635, 168071.64, 168071.64, 0.0008331317, 10.001454, 9.999154 
1.065096e+3, 1.2508373e+2, -1618165.3, -1659758.0, -36428.414, 0.0007812239, 0.0066223764, -1597015.0, 117156.43, 0.00047318285, 10.000556, 10.00009 
1.0650933e+3, 1.350826e+2, -1580986.3, -1617693.1, -1205.2639, 0.13160129, -0.12199177, -1580946.8, 35235.39, 0.00020250746, 10.000321, 9.999819 
1.0650883e+3, 1.4508212e+2, -1519857.9, -1531055.9, 14457.013, 0.030757714, -0.14210297, -1509953.5, 8232.7, 0.000042863663, 9.999991, 9.999894 
1.06508546e+3, 1.5508206e+2, -1427869.4, -1435081.6, -37536.26, 0.10733482, -0.18277526, -1393766.4, 26419.967, 0.0000013547858, 9.999965, 9.9998865 
1.0650809e+3, 1.6508216e+2, -1357430.3, -1404496.8, -28206.143, 0.053353805, -0.1307626, -1344229.3, -22043.838, 0.0, 10.0000105, 9.999407 
1.0650753e+3, 1.7508204e+2, -1246821.0, -1302796.3, -3185.8137, -0.09523993, -0.11148325, -1246640.4, -22453.34, 0.0, 10.000114, 9.999383 
1.0650707e+3, 1.8508162e+2, -1084079.3, -1198444.1, 17991.063, -0.112219185, -0.07455141, -1081315.8, 44875.47, 0.0, 10.000645, 9.999166 
1.06506705e+3, 1.9508055e+2, -845999.9, -1039556.56, -612.1721, -0.011558957, -0.13308436, -845997.94, 182203.44, 0.0, 10.001626, 9.999116 
1.0650629e+3, 2.0507991e+2, -766086.56, -978287.0, 48515.02, -0.027357664, -0.08849243, -755520.75, 174686.92, 0.0, 10.00165, 9.998844 
1.0650581e+3, 2.1507937e+2, -796392.7, -945579.6, 16870.719, -0.15054141, -0.05876578, -794508.7, 37704.7, 0.0, 10.000788, 9.998812 
1.0650542e+3, 2.2507815e+2, -697689.5, -851199.44, -9678.93, -0.12722571, -0.052729756, -697081.6, 37141.98, 0.0, 10.000792, 9.998789 
1.06505126e+3, 2.3507594e+2, -484173.72, -698159.8, -7027.277, 0.04677937, -0.1870035, -483943.22, 152298.52, 0.0, 10.00159, 9.998778 
1.065047e+3, 2.4507447e+2, -454507.34, -786419.7, 24615.08, 0.09516825, -0.13824144, -452691.78, 85565.14, 0.0, 10.001783, 9.997409 
1.06504165e+3, 2.5507328e+2, -419184.56, -726013.56, 19584.41, 0.018111357, -0.029457001, -417939.56, 22333.83, 0.0, 10.001374, 9.9973545 
1.0650361e+3, 2.6507133e+2, -241644.13, -469732.2, 20097.85, -0.031213712, -0.005422052, -239886.77, 102405.39, 0.0, 10.001417, 9.998413 
1.0650308e+3, 2.750684e+2, -91002.92, -344213.97, 2715.6584, -0.0461688, -0.17626359, -90973.805, 153341.34, 0.00000091217555, 10.001771, 9.998428 
1.0650256e+3, 2.8506643e+2, -17145.404, -350362.88, 30704.887, -0.048334643, -0.16764508, -14339.675, 131994.45, 0.000020761427, 10.0019865, 9.997622 
1.0650211e+3, 2.9506484e+2, 88632.55, -255888.86, -3456.7236, -0.025150144, -0.12649907, 88667.23, 137021.86, 0.00012637535, 10.002051, 9.997564 
1.0650159e+3, 3.0506316e+2, 227449.61, -75715.93, -40439.125, -0.025989527, -0.08092384, 232751.06, 232751.06, 0.00038601994, 10.002348, 9.998302 
1.06501035e+3, 3.1506336e+2, 324308.0, 52232.418, -93084.586, 0.012541851, 0.06144961, 353106.56, 353106.56, 0.0008001297, 10.002564, 9.999083 
1.07509814e+3, 1.2508623e+2, -1664652.1, -1744658.5, -50229.06, 0.065101646, -0.22506851, -1640443.1, 73700.3, 0.00055371417, 10.00053, 9.999507 
1.0750935e+3, 1.350871e+2, -1622303.5, -1693474.3, -3446.4119, 0.08709311, -0.106222145, -1622137.0, -5997.4775, 0.00024334127, 10.000292, 9.999306 
1.0750872e+3, 1.4508738e+2, -1570572.0, -1643359.0, -12929.02, -0.13587566, 0.012729265, -1568343.6, -50202.777, 0.00005483326, 10.000006, 9.999124 
1.0750853e+3, 1.5508685e+2, -1475617.6, -1541287.8, -21912.355, 0.0529969, 0.0015595475, -1468977.5, -48827.7, 0.000002073113, 9.999984, 9.999154 
1.0750809e+3, 1.6508685e+2, -1282848.8, -1235998.4, -44138.297, 0.0121241985, 0.024270924, -1209454.4, 112694.01, 0.0000000000166348, 9.999961, 10.000582 
1.07507445e+3, 1.7508708e+2, -1171297.8, -1132471.5, 17512.986, -0.22054589, -0.046640735, -1125739.4, 98400.74, 0.0, 10.000061, 10.000573 
1.0750703e+3, 1.850867e+2, -1110269.5, -1224705.5, 37336.36, -0.2444097, -0.05721917, -1099165.4, 26975.184, 0.0, 10.00053, 9.99904 
1.0750685e+3, 1.9508529e+2, -876614.6, -1064121.9, 49887.83, -0.0686256, -0.13762978, -864167.8, 163986.14, 0.0, 10.001468, 9.999019 
1.0750647e+3, 2.0508425e+2, -818343.2, -1047191.2, -4822.094, -0.03431029, -0.1082385, -818241.6, 111923.2, 0.0, 10.001474, 9.998461 
1.0750593e+3, 2.1508326e+2, -848798.06, -1009428.25, -304.6349, -0.1402454, -0.089405745, -848797.5, -16621.098, 0.0, 10.000588, 9.998473 
1.0750551e+3, 2.2508211e+2, -697984.5, -795244.06, 5736.5654, -0.14816143, -0.08500112, -697647.3, 36538.01, 0.0, 10.000552, 9.999289 
1.075052e+3, 2.3508047e+2, -483419.38, -642691.75, 42569.367, -0.064163655, -0.213937, -472755.66, 163439.55, 0.0, 10.001361, 9.99927 
1.0750481e+3, 2.4507885e+2, -471402.7, -766912.0, -4496.3745, -0.0032691222, -0.21274556, -471334.28, 66875.586, 0.0, 10.001556, 9.997645 
1.07504345e+3, 2.5507692e+2, -422505.3, -694450.0, 23423.896, 0.030733075, -0.20792495, -420502.44, 19730.293, 0.0, 10.001211, 9.997644 
1.07503824e+3, 2.650753e+2, -265746.13, -475762.78, 17025.262, 0.004597914, -0.16861992, -264374.9, 77873.6, 0.000000000031670343, 10.001235, 9.998462 
1.0750325e+3, 2.750736e+2, -113191.13, -355608.16, 38574.23, -0.081132255, -0.22369623, -107201.08, 137060.28, 0.00000057346807, 10.001623, 9.998427 
1.07502684e+3, 2.8507176e+2, -65056.54, -423787.72, 15661.569, -0.16071543, -0.17576073, -64374.08, 81905.5, 0.000016841232, 10.001877, 9.997165 
1.0750215e+3, 2.950695e+2, 36512.87, -327524.34, 23991.244, -0.23577368, -0.16067141, 38087.164, 86393.125, 0.000114238224, 10.001897, 9.997145 
1.0750173e+3, 3.050674e+2, 183509.92, -144851.02, -36994.25, -0.15059805, -0.11571551, 187626.22, 187626.22, 0.0003625103, 10.002251, 9.997874 
1.0750144e+3, 3.1506678e+2, 260015.19, -39292.06, -23864.605, 0.08333761, -0.015158409, 261906.03, 261906.03, 0.00076317973, 10.002378, 9.9985485 
1.0850986e+3, 1.2509012e+2, -1723362.0, -1816328.1, -5068.3438, 0.101009026, -0.24821173, -1723086.5, -8979.725, 0.00064071716, 10.000261, 9.999167 
1.0850938e+3, 1.3509156e+2, -1594972.3, -1713435.9, -54309.887, 0.09428486, -0.044006906, -1573842.6, 42256.48, 0.00028839763, 10.000589, 9.99904 
1.0850871e+3, 1.4509192e+2, -1500436.6, -1603873.5, 19734.809, -0.14975245, 0.09640687, -1496799.4, 21300.969, 0.00006873226, 10.000511, 9.999123 
1.0850857e+3, 1.5509132e+2, -1399511.3, -1504946.4, 20412.336, 0.07753791, 0.07828097, -1395697.4, 24412.297, 0.0000030594845, 10.000535, 9.999124 
1.0850817e+3, 1.6509107e+2, -1217614.8, -1220738.0, 8523.097, 0.07189536, 0.08165697, -1210511.4, 111599.086, 0.000000000186287, 10.000467, 10.000445 
1.0850753e+3, 1.7509088e+2, -1138374.4, -1135130.4, -64201.027, -0.14487688, -0.017032454, -1072530.9, 151575.36, 0.0, 10.000352, 10.000418 
1.0850712e+3, 1.8509044e+2, -1123981.0, -1206758.5, -25510.121, -0.19243728, -0.035907507, -1116750.9, 9355.964, 0.0, 10.000327, 9.9992695 
1.0850691e+3, 1.9508943e+2, -1024414.5, -1109088.8, -21341.316, -0.08151447, -0.0969683, -1019339.75, 8775.805, 0.0, 10.000353, 9.99925 
1.0850658e+3, 2.0508854e+2, -932490.2, -1059681.0, -31136.188, -0.023310566, -0.08272223, -925277.2, 4846.533, 0.0, 10.000519, 9.998827 
1.08506106e+3, 2.1508735e+2, -791015.06, -944509.3, -11196.912, -0.02099227, -0.11657655, -790202.6, 41932.613, 0.0, 10.000834, 9.998797 
1.0850569e+3, 2.2508632e+2, -635984.4, -787321.9, 53521.97, -0.038206343, -0.107382976, -618968.94, 115174.9, 0.0, 10.001074, 9.999096 
1.0850531e+3, 2.3508507e+2, -516845.38, -681672.44, -2631.2454, -0.07464601, -0.17353679, -516803.38, 119349.33, 0.0, 10.001226, 9.999076 
1.0850492e+3, 2.4508362e+2, -445957.53, -689771.0, -49297.277, -0.032363713, -0.17774254, -436367.22, 101798.336, 0.0, 10.001433, 9.998254 
1.0850453e+3, 2.5508162e+2, -333295.63, -583654.5, -25798.914, 0.0882276, -0.23692852, -330664.75, 109520.71, 0.0, 10.001533, 9.9982605 
1.0850404e+3, 2.650801e+2, -211469.77, -481769.38, 19673.959, 0.07655183, -0.2018238, -210045.28, 132154.56, 0.000000020287489, 10.001741, 9.998169 
1.08503446e+3, 2.7507865e+2, -67407.79, -367395.47, -23752.762, -0.05993193, -0.2043194, -65538.71, 178674.42, 0.0000009682407, 10.002071, 9.998127 
1.08502895e+3, 2.850768e+2, 9215.677, -386698.44, -13043.551, -0.15492967, -0.14294054, 9644.937, 155876.36, 0.000016002106, 10.002392, 9.997168 
1.085024e+3, 2.9507437e+2, 131757.31, -273438.88, -17012.21, -0.18995985, -0.1474734, 132470.33, 180727.2, 0.00010691048, 10.002532, 9.997205 
1.08502e+3, 3.0507162e+2, 180482.94, -173480.53, -24308.215, -0.094792336, -0.15421487, 182144.48, 182144.48, 0.00034615427, 10.002354, 9.997648 
1.0850169e+3, 3.1506994e+2, 125666.73, -135535.1, -56461.05, 0.14075036, -0.12837516, 137348.8, 137348.8, 0.00073994894, 10.001606, 9.998272 
1.0950978e+3, 1.250953e+2, -1717928.1, -1798155.6, 30034.053, -0.08784039, -0.08101019, -1707930.4, 6132.021, 0.000734217, 10.000231, 9.99931 
1.09509386e+3, 1.3509625e+2, -1583858.3, -1699897.9, -33075.82, 0.008966052, 0.06378927, -1575092.5, 40965.723, 0.00033773432, 10.000615, 9.999126 
1.0950879e+3, 1.4509591e+2, -1463682.6, -1518948.6, -3034.2788, -0.17286812, 0.10153602, -1463516.5, 54546.76, 0.0000845864, 10.000481, 9.999719 
1.0950862e+3, 1.5509543e+2, -1368462.8, -1424080.0, 37902.51, 0.036837388, 0.038648464, -1349261.6, 70804.75, 0.0000043925156, 10.000477, 9.999702 
1.0950826e+3, 1.650948e+2, -1318389.4, -1427855.4, -16539.629, 0.085839264, 0.04422103, -1315944.9, 6127.0293, 0.0000000006358386, 10.000448, 9.999038 
1.09507754e+3, 1.7509347e+2, -1236024.9, -1338460.9, -51306.73, -0.0036726885, -0.025884913, -1214746.9, 9337.986, 0.0, 10.000343, 9.99903 
1.0950728e+3, 1.8509303e+2, -1096310.6, -1131644.0, -43944.69, -0.096552856, -0.0037369656, -1066614.4, 59473.668, 0.0, 10.000256, 9.999816 
1.09506875e+3, 1.9509314e+2, -1004400.75, -1033422.7, -2811.6619, -0.18415768, -0.011405489, -1004130.9, 23953.738, 0.0, 10.000212, 9.999833 
1.09506555e+3, 2.0509279e+2, -885503.56, -928052.56, -37033.438, -0.12597567, -0.022098668, -864068.8, 66015.49, 0.0, 10.0003605, 9.999812 
1.0950631e+3, 2.1509166e+2, -748025.8, -814696.7, 16580.627, 0.06998362, -0.15007183, -744129.94, 87960.51, 0.0, 10.000651, 9.99978 
1.0950592e+3, 2.2509073e+2, -742265.9, -954472.0, 40430.023, 0.06700371, -0.12623347, -734824.0, -724.1699, 0.0, 10.000847, 9.998056 
1.0950541e+3, 2.3508956e+2, -621434.0, -845003.4, 19426.754, -0.1276277, -0.0838317, -619758.5, 16357.897, 0.0, 10.000994, 9.998065 
1.0950499e+3, 2.4508858e+2, -407774.2, -554111.4, -62289.51, -0.13169295, -0.043455075, -384851.0, 153274.72, 0.0, 10.0012, 9.999293 
1.0950468e+3, 2.550874e+2, -291318.84, -448813.88, -3028.5383, 0.05310558, -0.12489699, -291260.63, 148870.75, 0.0, 10.001333, 9.99928 
1.0950422e+3, 2.6508594e+2, -288289.7, -594491.5, 19435.326, 0.054405853, -0.10189903, -287061.0, 55083.52, 0.00000010014453, 10.001546, 9.997487 
1.0950363e+3, 2.750837e+2, -135186.4, -474287.66, 13303.783, -0.12713651, -0.11437105, -134665.27, 109504.41, 0.0000018117424, 10.0019245, 9.997466 
1.0950315e+3, 2.8508145e+2, 15032.103, -340812.72, -24199.414, -0.17312422, -0.0784111, 16670.254, 162861.56, 0.000017402066, 10.002251, 9.997545 
1.0950282e+3, 2.9507908e+2, 136654.03, -230717.11, 9410.693, -0.066405214, -0.12099076, 136894.94, 185106.27, 0.00010435712, 10.00239, 9.997564 
1.09502345e+3, 3.050757e+2, 152836.77, -195494.4, -67355.625, -0.01741789, -0.20160428, 165407.44, 165407.44, 0.00033796718, 10.002215, 9.997558 
1.09501675e+3, 3.150727e+2, 78843.32, -180920.5, -31568.145, -0.10349035, -0.2987532, 82624.64, 82624.64, 0.00073108607, 10.001383, 9.998071 
1.1050985e+3, 1.2509942e+2, -1663630.3, -1719663.6, 64091.824, -0.027958322, 0.06505774, -1621699.1, 92328.81, 0.00083503575, 10.000417, 9.999716 
1.1050939e+3, 1.3509963e+2, -1651446.4, -1689119.3, -97494.01, -0.0137687335, 0.09423131, -1570985.9, 45041.99, 0.0003918232, 9.999984, 9.999484 
1.1050889e+3, 1.4509891e+2, -1525533.4, -1537331.1, -15475.346, -0.08183694, 0.064604186, -1514870.8, 3163.4585, 0.000102570426, 9.999959, 9.999867 
1.1050869e+3, 1.550985e+2, -1342795.3, -1398540.3, -39770.418, 0.0729124, -0.0051770136, -1322102.8, 97932.23, 0.0000061708192, 10.000556, 9.999858 
1.1050836e+3, 1.6509794e+2, -1286151.0, -1435109.9, -35361.85, 0.12620544, 0.011482235, -1278182.6, 43857.3, 0.0000000015512864, 10.000786, 9.998811 
1.1050791e+3, 1.750968e+2, -1171793.4, -1325694.9, -22294.506, 0.103548326, -0.021205237, -1168628.9, 55424.195, 0.0, 10.00089, 9.998837 
1.10507436e+3, 1.8509649e+2, -1006840.94, -1056206.3, 42830.24, 0.01336588, 0.007925092, -982090.2, 143965.4, 0.0, 10.000737, 10.000097 
1.1050692e+3, 1.9509657e+2, -967564.25, -984006.56, 27367.51, -0.14701718, -0.029607685, -947209.75, 80841.97, 0.0, 10.000326, 10.000115 
1.105066e+3, 2.0509653e+2, -859841.8, -899172.8, 16304.547, -0.10726583, -0.03149673, -853961.9, 76086.44, 0.0, 10.000463, 9.999966 
1.10506445e+3, 2.1509601e+2, -656912.4, -754873.7, -28147.066, 0.119717464, -0.11169793, -649400.9, 182647.75, 0.0, 10.001197, 9.999932 
1.1050608e+3, 2.2509523e+2, -695443.4, -929673.25, 7814.952, 0.132544, -0.08053305, -695182.94, 38874.086, 0.0, 10.001163, 9.998066 
1.1050553e+3, 2.3509388e+2, -709780.9, -884818.44, 32169.451, -0.05978583, -0.059783604, -704055.9, -67979.266, 0.0, 10.000385, 9.998077 
1.1050511e+3, 2.4509303e+2, -474810.84, -572065.6, 27021.078, -0.08726435, -0.010377889, -467807.66, 70277.125, 0.0, 10.000691, 9.9994 
1.10504836e+3, 2.5509238e+2, -176975.47, -379258.0, -27273.648, 0.053242385, -0.051311556, -173362.7, 266722.38, 0.0, 10.002066, 9.999389 
1.105044e+3, 2.6509097e+2, -172923.61, -549256.8, -20174.66, 0.064049944, -0.025633598, -171845.16, 170252.9, 0.00000018749917, 10.002372, 9.997414 
1.1050387e+3, 2.7508837e+2, -199683.95, -510600.75, -18299.166, -0.046244707, -0.061758086, -198610.66, 45516.605, 0.0000025365616, 10.001511, 9.99742 
1.1050343e+3, 2.850861e+2, -83494.58, -344383.72, 31311.717, -0.06909479, -0.050396193, -79789.195, 66359.95, 0.000019295574, 10.001372, 9.997961 
1.10503115e+3, 2.9508385e+2, 81868.16, -214969.78, 26012.873, 0.025384825, -0.1111694, 84130.51, 132296.4, 0.00010487227, 10.001826, 9.997957 
1.10502616e+3, 3.0508083e+2, 175658.92, -173909.92, -24320.56, 0.036341194, -0.18445851, 177342.88, 177342.88, 0.00033641586, 10.002286, 9.997673 
1.1050187e+3, 3.150783e+2, 212620.67, -91333.3, -31180.37, -0.064475514, -0.2582051, 215786.25, 215786.25, 0.0007307893, 10.0021925, 9.998277 
1.1150997e+3, 1.2510301e+2, -1622451.5, -1636194.1, 11775.256, -0.03675774, 0.19685972, -1615689.4, 98308.984, 0.000944546, 10.000431, 10.000286 
1.11509316e+3, 1.351018e+2, -1621075.4, -1631816.0, -98331.3, -0.11334763, 0.048919894, -1527967.9, 88039.14, 0.00045159098, 10.0, 9.999878 
1.1150897e+3, 1.4510092e+2, -1529789.8, -1546029.8, -17967.236, -0.04054714, -0.013511113, -1518192.9, -179.66705, 0.00012308804, 9.999968, 9.999801 
1.1150875e+3, 1.551008e+2, -1352004.0, -1414843.9, -3041.6675, 0.04436622, -0.045853436, -1351857.1, 68155.52, 0.000008505592, 10.000549, 9.999747 
1.115084e+3, 1.6510078e+2, -1228214.4, -1310805.9, -53405.11, 0.049900007, -0.009091451, -1202001.4, 120010.4, 0.0000000033697685, 10.000758, 9.999687 
1.11507975e+3, 1.7510088e+2, -1113532.5, -1198592.8, -2854.916, 0.042094547, -0.005746733, -1113436.8, 110573.836, 0.0, 10.00085, 9.999741 
1.1150752e+3, 1.851007e+2, -1016082.25, -1058899.6, 8510.907, -0.0060364646, -0.0075479015, -1014452.56, 111557.984, 0.0, 10.000663, 10.000115 
1.1150702e+3, 1.9509986e+2, -989267.9, -997018.7, 26240.83, -0.112356804, -0.13953036, -966617.8, 61398.195, 0.0, 10.000193, 10.000089 
1.1150668e+3, 2.050999e+2, -929077.25, -1008708.94, 21189.62, -0.11025557, -0.09478799, -923789.8, 6224.4595, 0.0, 10.000315, 9.999281 
1.1150647e+3, 2.151004e+2, -737569.2, -869400.1, 15561.075, -0.004288836, -0.01210598, -735757.3, 96252.61, 0.0, 10.000971, 9.999252 
1.1150612e+3, 2.2509989e+2, -652381.06, -789187.56, -38068.105, 0.026495283, 0.026431479, -642501.56, 91513.39, 0.0, 10.000947, 9.999134 
1.1150565e+3, 2.3509814e+2, -667974.94, -746226.3, 20231.518, -0.0026057176, -0.09575394, -663053.6, -27021.713, 0.0, 10.000167, 9.999134 
1.1150527e+3, 2.4509712e+2, -566511.2, -717539.6, 63564.71, -0.033297073, -0.07202794, -543319.44, -5277.8184, 0.0, 10.000494, 9.998498 
1.1150496e+3, 2.5509644e+2, -266510.22, -525262.94, 43048.656, -0.061691996, -0.029394396, -259536.19, 180511.67, 0.0, 10.001886, 9.998474 
1.1150458e+3, 2.6509503e+2, -162536.13, -487274.22, -69909.29, -0.04220466, 0.020804262, -148125.6, 193936.39, 0.00000020790911, 10.002199, 9.997919 
1.1150412e+3, 2.750926e+2, -182799.42, -441765.8, -28499.02, 0.02391169, -0.056696106, -179700.22, 64387.242, 0.0000030041283, 10.001361, 9.997963 
1.11503676e+3, 2.8509074e+2, -79547.14, -292186.75, 32818.59, 0.0155038, -0.051832106, -74597.18, 71507.42, 0.000021785861, 10.001196, 9.998399 
1.11503236e+3, 2.9508898e+2, 87323.08, -164711.31, 72912.6, -0.07854815, -0.11108092, 106896.336, 155014.83, 0.00010887074, 10.001664, 9.998379 
1.1150276e+3, 3.0508712e+2, 173491.05, -145308.39, -34992.633, -0.077372655, -0.101486556, 177286.78, 177286.78, 0.00034133886, 10.002148, 9.997933 
1.1150217e+3, 3.150863e+2, 200443.31, -69249.875, 32604.48, -0.054459516, -0.027771872, 204329.05, 204329.05, 0.0007375019, 10.001986, 9.998529 
1.1251013e+3, 1.2510534e+2, -1672383.1, -1642613.3, 60640.402, 0.11015103, 0.1553523, -1595057.6, 118916.6, 0.0010643419, 10.000006, 10.000466 
1.1250934e+3, 1.3510416e+2, -1471419.9, -1540863.1, -91362.93, -0.123906426, -0.0028891359, -1408403.3, 207579.4, 0.00051804923, 10.000948, 10.0000515 
1.1250913e+3, 1.4510371e+2, -1351699.0, -1475036.5, 32073.61, 0.06561475, -0.0250342, -1343857.0, 174128.45, 0.00014661087, 10.001263, 9.999657 
1.12508826e+3, 1.5510377e+2, -1257511.0, -1380271.5, -311.6905, 0.033089157, -0.02883729, -1257510.3, 162474.34, 0.00001150662, 10.001262, 9.999629 
1.1250842e+3, 1.6510396e+2, -1193378.6, -1245983.4, -49852.84, 0.0087927235, 0.011728515, -1163315.1, 158666.61, 0.0000000061074554, 10.00079, 10.000117 
1.12508e+3, 1.7510416e+2, -1210758.6, -1195781.4, -68358.805, 0.03728936, -0.017358469, -1134502.3, 89476.0, 0.0, 9.999971, 10.000181 
1.1250757e+3, 1.8510427e+2, -1122502.9, -1124879.6, -23251.852, 0.021955978, -0.0090331845, -1100409.0, 25566.504, 0.0, 9.999993, 9.999989 
1.1250713e+3, 1.9510375e+2, -894171.3, -973166.25, -48438.516, -0.057314012, -0.093841486, -871168.06, 156810.86, 0.0, 10.000904, 9.999928 
1.1250678e+3, 2.0510368e+2, -831919.5, -961724.06, -3681.3274, -0.07064369, -0.05094819, -831815.2, 98163.98, 0.0, 10.001002, 9.999264 
1.1250652e+3, 2.1510367e+2, -809997.56, -899398.7, -635.28436, -0.014877112, -0.014734335, -809993.06, 21987.063, 0.0, 10.000472, 9.999277 
1.1250617e+3, 2.2510318e+2, -665029.4, -751759.44, -21114.55, 0.018442065, 0.0021089239, -660162.1, 73821.82, 0.0, 10.000653, 9.999545 
1.1250577e+3, 2.3510198e+2, -425589.34, -583208.1, -45357.344, 0.0384379, -0.10546066, -413469.03, 222523.77, 0.0, 10.001614, 9.999561 
1.1250543e+3, 2.4510099e+2, -385680.88, -659631.94, 46204.664, 0.020278763, -0.088831924, -378097.88, 159904.45, 0.0, 10.00187, 9.998235 
1.1250515e+3, 2.5509983e+2, -349397.88, -594585.56, 39951.406, -0.031282473, -0.06004972, -343052.34, 96963.25, 0.0, 10.001458, 9.998211 
1.1250476e+3, 2.650985e+2, -254340.61, -484858.16, -47785.88, -0.023196498, -0.011374933, -244827.28, 97202.38, 0.00000016860811, 10.001381, 9.998324 
1.1250428e+3, 2.7509654e+2, -116683.37, -366223.53, -57819.926, 0.045001518, -0.07981653, -103937.2, 140111.6, 0.0000038179373, 10.001636, 9.998343 
1.1250382e+3, 2.8509519e+2, -2660.0286, -225835.86, 38779.6, 0.03689852, -0.055380482, 3886.388, 149947.42, 0.000026510976, 10.001589, 9.998661 
1.12503394e+3, 2.9509407e+2, 20639.69, -161461.7, 22785.818, -0.04615679, -0.079152614, 23447.518, 71517.914, 0.00011807009, 10.001062, 9.998678 
1.1250297e+3, 3.0509275e+2, 90037.32, -164053.27, -30943.64, -0.030636257, -0.04240447, 93751.41, 93751.41, 0.0003550206, 10.001505, 9.9981165 
1.125025e+3, 3.1509247e+2, 287923.28, -15181.851, -31498.633, 0.06267354, 0.079476565, 291162.0, 291162.0, 0.0007557848, 10.002527, 9.998659 
1.1351002e+3, 1.2510617e+2, -1689765.5, -1674550.6, -38648.15, -0.074174784, -0.08435477, -1642768.3, 71190.195, 0.0011953667, 10.000005, 10.000238 
1.1350939e+3, 1.351068e+2, -1472202.6, -1533174.0, -45094.19, -0.21201313, -0.066930346, -1448256.1, 167698.16, 0.00059164723, 10.000923, 10.000111 
1.13509305e+3, 1.4510752e+2, -1361678.4, -1495095.1, 12611.35, 0.06526792, 0.032635543, -1360496.8, 157451.89, 0.00017336896, 10.001259, 9.999524 
1.13508865e+3, 1.5510768e+2, -1269621.5, -1401469.4, 19920.91, -0.096464366, 0.054563772, -1266677.4, 153270.78, 0.000015247707, 10.001243, 9.9994955 
1.1350839e+3, 1.6510761e+2, -1199285.4, -1252480.0, -100719.78, -0.1515946, 0.074067615, -1121710.4, 200238.2, 0.000000009421829, 10.000764, 10.000083 
1.13507934e+3, 1.7510685e+2, -1217591.3, -1206918.5, -84911.7, -0.052593004, -0.045227986, -1127175.6, 96778.36, 0.0, 9.99996, 10.000108 
1.1350755e+3, 1.8510725e+2, -1145150.3, -1160908.5, -9139.939, -0.03936864, 0.0060509285, -1140962.0, -15012.367, 0.0, 9.99994, 9.999772 
1.1350718e+3, 1.9510831e+2, -932924.3, -1012463.6, 2548.1765, -0.11938137, 0.10195281, -932842.75, 95096.74, 0.0, 10.000725, 9.999748 
1.13506846e+3, 2.0510797e+2, -821656.56, -899067.94, -42733.133, -0.12329245, 0.09969719, -802705.94, 127235.52, 0.0, 10.000821, 9.9997835 
1.1350657e+3, 2.1510595e+2, -809110.56, -842305.9, -6746.4863, -0.037535217, -0.11517416, -807791.8, 24166.566, 0.0, 10.000238, 9.999783 
1.1350623e+3, 2.2510524e+2, -709473.4, -796040.7, -4742.4736, -0.023378221, -0.13500239, -709214.4, 24748.555, 0.0, 10.000441, 9.999343 
1.1350585e+3, 2.3510538e+2, -477523.03, -634239.7, 7195.494, -0.078726076, -0.092191495, -477193.34, 158765.98, 0.0, 10.001366, 9.999331 
1.1350556e+3, 2.451046e+2, -394595.22, -627014.06, 14080.773, -0.07413548, -0.057020687, -393745.28, 144221.66, 0.0, 10.001649, 9.998564 
1.13505356e+3, 2.5510266e+2, -350993.16, -555113.6, 42275.152, 0.0062640314, -0.14300455, -342584.03, 97403.78, 0.0, 10.001271, 9.998571 
1.1350493e+3, 2.651014e+2, -258061.2, -459619.06, -51899.508, -0.010909331, -0.11967344, -245482.52, 96517.99, 0.00000020663475, 10.001234, 9.998573 
1.13504305e+3, 2.751002e+2, -123421.766, -350161.34, -24758.102, -0.1281635, -0.13368055, -120749.87, 123261.15, 0.0000055002247, 10.001498, 9.998526 
1.13503836e+3, 2.8509936e+2, -21406.035, -225986.86, 719.032, -0.15036894, -0.06931467, -21403.508, 124615.586, 0.000033703815, 10.001433, 9.998729 
1.1350354e+3, 2.9509884e+2, 2461.0073, -159714.48, 25356.883, -0.056782812, -0.041788664, 6333.217, 54358.617, 0.00013271971, 10.000891, 9.998773 
1.13503195e+3, 3.0509743e+2, 67696.6, -163109.73, -4551.3047, 0.019680813, -0.021098707, 67786.31, 67786.31, 0.00037893685, 10.001312, 9.998214 
1.1350273e+3, 3.1509677e+2, 262108.31, -10286.516, 57771.77, -0.03532961, 0.049868867, 273854.53, 273854.53, 0.00079122034, 10.002284, 9.998808 
1.1451014e+3, 1.2510906e+2, -1793897.0, -1796142.4, -55596.742, 0.09099053, -0.10673837, -1739411.6, -25482.705, 0.0013373722, 9.9995575, 9.999641 
1.1450947e+3, 1.3511007e+2, -1512945.3, -1596717.0, -57839.168, -0.19425255, -0.016835408, -1483418.3, 132507.27, 0.000672049, 10.0007925, 9.999757 
1.14509374e+3, 1.4511113e+2, -1393518.4, -1452603.8, -8728.864, 0.04772283, 0.10741231, -1392255.8, 125661.8, 0.0002032588, 10.000802, 10.00003 
1.1450891e+3, 1.551115e+2, -1438783.8, -1428686.4, -3512.2346, -0.090841815, 0.10616395, -1427584.9, -7672.197, 0.000019742625, 9.999853, 9.999978 
1.14508435e+3, 1.6511132e+2, -1348161.6, -1356151.9, -47689.836, -0.124919504, 0.10706754, -1304299.9, 17613.66, 0.000000013934886, 9.999891, 9.99979 
1.1450801e+3, 1.7511019e+2, -1083830.0, -1170953.8, -80106.42, -0.019508038, -0.023157313, -1036207.06, 187716.47, 0.0, 10.001014, 9.999842 
1.1450763e+3, 1.8511035e+2, -986137.7, -1059048.8, 25036.045, 0.015023191, 0.009341384, -978368.7, 147552.39, 0.0, 10.000932, 9.999985 
1.1450727e+3, 1.9511144e+2, -1067623.0, -1040719.5, 27675.658, -0.04133583, 0.0817673, -1023399.6, 4510.0093, 0.0, 9.9996805, 10.000031 
1.1450693e+3, 2.0511135e+2, -977983.0, -955526.2, 41881.477, -0.052613568, 0.079731494, -923394.06, 6514.2866, 0.0, 9.999633, 9.999986 
1.1450664e+3, 2.1510977e+2, -718464.25, -776402.4, 27893.39, -0.0050008823, -0.11460785, -707218.3, 124702.35, 0.0, 10.0007305, 10.000014 
1.1450631e+3, 2.2510917e+2, -648134.0, -772635.8, 55714.152, -0.005432419, -0.12887129, -626843.06, 107081.06, 0.0, 10.000917, 9.999263 
1.1450595e+3, 2.3510915e+2, -635351.25, -712685.1, 37327.535, -0.05948013, -0.09510876, -620273.6, 15649.292, 0.0, 10.000312, 9.999292 
1.1450566e+3, 2.4510847e+2, -584226.75, -711310.6, 71150.79, -0.047492582, -0.051507305, -552374.7, -14444.68, 0.0, 10.0003, 9.998639 
1.1450548e+3, 2.5510696e+2, -394688.75, -560846.25, 47371.496, 0.04006297, -0.10588884, -382132.06, 57815.145, 0.0, 10.000908, 9.998701 
1.1450509e+3, 2.6510575e+2, -217122.42, -431680.03, -17700.973, 0.017892377, -0.08917829, -215671.89, 126287.03, 0.00000038376965, 10.001466, 9.998658 
1.14504494e+3, 2.751043e+2, -51279.34, -301852.88, -36185.574, -0.109314576, -0.13528946, -46158.402, 197811.69, 0.0000075917305, 10.001933, 9.998649 
1.1450403e+3, 2.8510332e+2, 36681.94, -250307.25, -18176.07, -0.12120496, -0.06910768, 37828.516, 183808.72, 0.000041535674, 10.00205, 9.998272 
1.1450373e+3, 2.9510275e+2, 88188.75, -166711.28, -72326.914, 0.019933796, -0.0008460104, 107281.18, 155270.8, 0.00014998692, 10.001691, 9.99834 
1.1450343e+3, 3.0510095e+2, 195538.27, -90491.555, -28347.867, 0.09428418, -0.005215931, 198320.7, 198320.7, 0.00040888134, 10.002108, 9.998336 
1.1450302e+3, 3.1509992e+2, 348416.16, 55820.008, -32366.586, 0.013345171, 0.01112189, 351953.72, 351953.72, 0.0008408799, 10.002782, 9.999008 
1.15510195e+3, 1.2511325e+2, -1845620.9, -1900248.0, -136832.23, 0.10811231, 0.002329256, -1733402.8, -19509.963, 0.001489488, 9.999549, 9.998925 
1.15509555e+3, 1.3511416e+2, -1560840.8, -1688690.9, 4668.0874, -0.21847446, 0.14900714, -1560670.5, 55223.38, 0.00075867696, 10.000772, 9.999123 
1.1550932e+3, 1.4511451e+2, -1327894.0, -1321786.5, -63657.855, -0.15343958, 0.1875379, -1261109.3, 256782.78, 0.0002361324, 10.000806, 10.000939 
1.1550892e+3, 1.551152e+2, -1366701.9, -1288093.4, -23161.137, -0.10474553, 0.120142356, -1281776.9, 138102.05, 0.000024990082, 9.999878, 10.000938 
1.1550852e+3, 1.6511516e+2, -1378215.0, -1415601.4, -24922.309, -0.07157454, 0.10796379, -1365754.5, -43878.117, 0.000000023716384, 9.9998865, 9.99938 
1.1550817e+3, 1.7511421e+2, -1124015.4, -1236518.5, -21079.148, 0.0023752667, 0.039075136, -1120195.5, 103690.6, 0.0, 10.000948, 9.999417 
1.1550779e+3, 1.8511373e+2, -963108.5, -992247.6, -40569.53, 0.04063982, 0.002099022, -934571.7, 191317.03, 0.0, 10.00085, 10.000482 
1.15507334e+3, 1.951132e+2, -1049843.4, -976550.0, -6235.8228, 0.026193067, -0.14001946, -976023.25, 51865.598, 0.0, 9.999561, 10.000529 
1.1550697e+3, 2.0511383e+2, -991462.2, -949628.4, 58839.625, -0.009195905, -0.10064225, -908098.3, 21781.525, 0.0, 9.999482, 10.000099 
1.15506686e+3, 2.1511519e+2, -745888.0, -781210.06, 83553.58, -0.052290265, -0.01108748, -678149.3, 153716.9, 0.0, 10.000497, 10.000096 
1.1550637e+3, 2.2511506e+2, -683771.9, -794285.0, 14917.989, -0.05892812, 0.019188067, -681793.5, 52073.42, 0.0, 10.000693, 9.999221 
1.1550603e+3, 2.3511323e+2, -671219.1, -737246.4, 31327.64, -0.03239449, -0.12280237, -658721.0, -22836.797, 0.0, 10.000101, 9.999226 
1.1550574e+3, 2.4511257e+2, -619746.1, -738946.0, 72743.91, -0.03121332, -0.06989929, -585304.44, -47412.313, 0.0, 10.000098, 9.998547 
1.1550551e+3, 2.5511268e+2, -430462.66, -594393.1, 85571.04, -0.062473662, 0.047324628, -393934.4, 45959.883, 0.0, 10.000722, 9.998564 
1.15505174e+3, 2.6511145e+2, -248146.67, -449726.56, -14838.367, -0.07051754, 0.07364064, -247060.27, 94845.375, 0.0000005356376, 10.001273, 9.99862 
1.1550477e+3, 2.7510864e+2, -74907.055, -310178.84, 2225.7498, -0.05848734, -0.11161089, -74886.01, 169042.81, 0.000008957139, 10.001759, 9.998672 
1.1550435e+3, 2.8510705e+2, -49855.438, -388885.13, -46307.117, -0.028503967, -0.06823971, -43644.27, 102300.99, 0.000047577858, 10.001876, 9.997402 
1.1550393e+3, 2.9510602e+2, 8142.621, -314803.66, -55961.094, 0.008505903, 0.045267142, 17564.826, 65525.82, 0.00016516355, 10.001597, 9.997375 
1.155036e+3, 3.0510333e+2, 164111.0, -106800.87, -13041.752, 0.029898115, 0.005170562, 164737.38, 164737.38, 0.00043860512, 10.001919, 9.998301 
1.1550324e+3, 3.1510141e+2, 313194.53, 43332.84, 50227.51, -0.123648725, -0.06680404, 322239.84, 322239.84, 0.0008954558, 10.002524, 9.99904 
1.1651023e+3, 1.2511799e+2, -1633558.0, -1770959.0, -46491.55, 0.13807188, 0.075588234, -1619305.4, 94543.49, 0.0016512593, 10.000896, 9.999151 
1.1650967e+3, 1.3511848e+2, -1694826.6, -1753165.6, 99244.5, -0.13431011, 0.18448421, -1620553.8, -4701.3247, 0.0008513687, 9.999874, 9.999106 
1.1650925e+3, 1.4511818e+2, -1522008.3, -1415162.3, 50566.703, -0.21800618, 0.16064632, -1395025.6, 122830.266, 0.00027198074, 9.999491, 10.000918 
1.1650894e+3, 1.5511882e+2, -1359236.1, -1287861.6, -20292.055, -0.06845142, 0.08912342, -1282495.9, 137347.22, 0.00003101119, 9.99995, 10.000899 
1.16508596e+3, 1.65119e+2, -1311726.6, -1362150.9, 28772.203, 0.004255259, 0.09051272, -1298683.3, 23154.809, 0.00000004774233, 10.000231, 9.99959 
1.16508275e+3, 1.751185e+2, -1191702.9, -1252770.5, 41893.457, 0.0476767, 0.04882629, -1170396.8, 53445.992, 0.0, 10.000378, 9.9996 
1.1650787e+3, 1.8511792e+2, -1041585.1, -1070274.8, 8685.253, 0.07296982, 0.012770016, -1039160.7, 86685.8, 0.0, 10.000485, 10.000119 
1.16507374e+3, 1.9511689e+2, -907579.6, -948492.1, -51480.434, 0.052367542, -0.14196819, -872640.06, 155212.72, 0.0, 10.00071, 10.000174 
1.1650698e+3, 2.0511746e+2, -822385.75, -861972.06, 45977.684, 0.010460129, -0.09451795, -792121.8, 137723.8, 0.0, 10.000645, 10.000126 
1.16506726e+3, 2.1511917e+2, -769786.0, -781265.3, 20339.072, -0.04473947, 0.024330296, -754392.2, 77436.64, 0.0, 10.000318, 10.000165 
1.1650644e+3, 2.251193e+2, -718078.9, -799790.9, -22613.533, -0.03555269, 0.06978981, -712238.1, 21589.133, 0.0, 10.000391, 9.999338 
1.1650614e+3, 2.3511751e+2, -554343.7, -667499.1, -21863.348, 0.040745683, -0.07841261, -550266.3, 85577.766, 0.0, 10.000832, 9.999362 
1.1650587e+3, 2.4511677e+2, -440358.72, -634274.9, 93557.52, 0.03443585, -0.048189037, -402580.47, 135271.27, 0.0, 10.001252, 9.998708 
1.16505615e+3, 2.551167e+2, -279426.72, -503521.34, 88854.63, -0.05658265, 0.03647517, -248471.42, 191382.23, 0.0, 10.001677, 9.998729 
1.16505325e+3, 2.651155e+2, -212456.45, -446698.13, 4201.4316, -0.05580767, 0.063725546, -212381.13, 129483.586, 0.00000056359414, 10.001584, 9.998489 
1.1650499e+3, 2.75113e+2, -206077.1, -389021.97, -26118.39, 0.042371836, -0.07627005, -202421.31, 41465.6, 0.00000928475, 10.00094, 9.998526 
1.1650459e+3, 2.8511113e+2, -150661.58, -454349.47, -580.4608, 0.06878888, -0.046178978, -150660.47, -4754.3936, 0.000050789153, 10.001234, 9.997267 
1.1650414e+3, 2.951094e+2, 100272.55, -281728.53, 1866.6016, 0.02828753, 0.01141442, 100281.664, 148208.45, 0.00017624088, 10.002287, 9.997263 
1.16503805e+3, 3.0510646e+2, 213685.53, -106298.16, 89341.445, 0.03760366, -0.038676593, 236940.19, 236940.19, 0.00046429865, 10.002339, 9.998119 
1.1650348e+3, 3.1510484e+2, 72549.22, -72333.73, 85412.64, -0.033250008, -0.056616556, 112103.664, 112103.664, 0.00094360544, 10.000852, 9.999072 
1.17510304e+3, 1.251234e+2, -1565654.4, -1599191.4, -55779.16, 0.03753664, 0.111956574, -1524177.8, 189618.39, 0.0018234614, 10.000799, 10.000371 
1.1750975e+3, 1.3512304e+2, -1658824.4, -1677987.1, 74192.04, -0.061148487, 0.08822472, -1593597.6, 22203.084, 0.0009506097, 9.999886, 9.999616 
1.1750914e+3, 1.451222e+2, -1589802.6, -1550355.0, 49190.125, -0.3137542, 0.029853826, -1517081.6, 726.9703, 0.00031097958, 9.999473, 9.999994 
1.17508925e+3, 1.5512243e+2, -1426958.6, -1427806.8, 15624.285, -0.1222107, 0.012682217, -1411752.6, 8052.141, 0.00003785508, 9.999948, 9.999937 
1.17508605e+3, 1.6512278e+2, -1264805.4, -1259744.3, 14980.423, -0.043006513, 0.044306397, -1247082.1, 74716.875, 0.00000010132158, 10.00021, 10.0003 
1.1750828e+3, 1.7512304e+2, -1148479.3, -1147674.1, 63772.582, -0.014919305, -0.002993914, -1084302.9, 139490.78, 0.0, 10.000312, 10.000351 
1.1750786e+3, 1.851231e+2, -1133306.8, -1242362.5, -2565.8528, -0.027929133, 0.045804407, -1133246.5, -7453.318, 0.0, 10.000407, 9.998977 
1.1750732e+3, 1.951226e+2, -1005445.2, -1125251.1, -23226.791, -0.0938839, 0.059668094, -1001099.8, 26701.299, 0.0, 10.000592, 9.999021 
1.1750694e+3, 2.0512225e+2, -856739.25, -895776.4, 14759.306, -0.13069253, 0.082655534, -851787.2, 78017.766, 0.0, 10.000486, 9.999968 
1.1750671e+3, 2.1512175e+2, -811061.7, -820678.4, 23835.334, -0.12084108, -0.005832453, -791554.5, 40253.426, 0.0, 10.000112, 9.999997 
1.1750647e+3, 2.2512177e+2, -726006.9, -758828.25, -25749.867, -0.07177258, 0.018206242, -711882.9, 21923.227, 0.0, 10.000149, 9.999735 
1.1750621e+3, 2.3512203e+2, -561062.56, -620421.8, 12058.183, 0.008712026, 0.031350706, -558706.56, 77095.67, 0.0, 10.00058, 9.9998 
1.1750599e+3, 2.4512118e+2, -449293.38, -601910.9, 91809.87, 0.0035489004, 0.013294316, -406220.06, 131588.06, 0.0, 10.001026, 9.999043 
1.1750579e+3, 2.55119e+2, -276795.0, -456248.4, 120655.49, -0.0830022, -0.15301421, -216160.05, 223666.25, 0.0, 10.001495, 9.999139 
1.17505506e+3, 2.6511785e+2, -259367.38, -506279.13, -38241.656, -0.05778438, -0.12468179, -253580.16, 88256.84, 0.0000005132723, 10.001415, 9.998168 
1.17505126e+3, 2.7511725e+2, -245748.81, -445747.75, -29187.014, 0.04736049, -0.04114574, -241576.42, 2268.7588, 0.000009286575, 10.000822, 9.998197 
1.1750471e+3, 2.8511554e+2, -141079.17, -395720.63, 23962.055, 0.031384077, -0.00015828322, -138843.94, 7018.6797, 0.000051726838, 10.001074, 9.997745 
1.17504284e+3, 2.9511255e+2, 126651.734, -200543.19, 62437.348, -0.08940629, -0.12603399, 138161.53, 186052.31, 0.00018255804, 10.002165, 9.997881 
1.17504e+3, 3.0510998e+2, 169902.86, -146257.95, 24468.45, -0.024898589, -0.16741006, 171785.31, 171785.31, 0.0004800074, 10.002144, 9.99793 
1.17503665e+3, 3.151103e+2, 45437.293, -56838.492, 74116.07, -0.00001669779, 0.02905138, 84345.37, 84345.37, 0.0009690312, 10.000567, 9.999302 
1.18510194e+3, 1.2512666e+2, -1661319.1, -1596511.6, -49989.695, -0.08643014, 0.059982654, -1569342.1, 144421.38, 0.0020081834, 9.999892, 10.00084 
1.1850985e+3, 1.3512692e+2, -1706063.3, -1677853.6, -79026.91, 0.08702202, 0.06446656, -1611682.6, 4076.8706, 0.0010574218, 9.999432, 9.999849 
1.18509226e+3, 1.4512637e+2, -1590414.9, -1593968.3, 8281.72, -0.18109025, 0.042529393, -1583721.4, -65957.28, 0.00035351914, 9.999632, 9.999631 
1.1850891e+3, 1.5512568e+2, -1334145.4, -1416604.6, -22339.277, -0.14788316, -0.031974677, -1328482.3, 91288.45, 0.00004562391, 10.000727, 9.999645 
1.1850861e+3, 1.651259e+2, -1189949.9, -1210571.8, -27552.607, -0.083838105, -0.0024770787, -1170842.1, 150924.98, 0.00000019883093, 10.000681, 10.00041 
1.18508324e+3, 1.7512669e+2, -1231027.9, -1168660.8, -63276.914, 0.03816455, -0.0093079945, -1129300.9, 94455.984, 0.0, 9.99968, 10.000502 
1.1850791e+3, 1.8512703e+2, -1220817.0, -1281592.9, -33244.406, 0.029107004, 0.056293275, -1206164.8, -80410.84, 0.0, 9.999783, 9.999014 
1.1850737e+3, 1.9512655e+2, -950907.8, -1092500.5, -4987.3613, -0.11952474, 0.0675491, -950732.3, 77029.27, 0.0, 10.000931, 9.999084 
1.18507e+3, 2.0512594e+2, -798108.9, -902510.6, 60851.438, -0.14276536, 0.077912524, -770136.0, 159632.02, 0.0, 10.001032, 9.999672 
1.1850681e+3, 2.1512489e+2, -821504.9, -852205.7, 32216.861, -0.027792858, -0.033029236, -801168.3, 30608.217, 0.0, 10.00016, 9.999758 
1.1850658e+3, 2.2512479e+2, -732739.4, -765280.2, 41077.26, 0.03006888, -0.008412777, -704827.56, 28948.717, 0.0, 10.000119, 9.999699 
1.1850629e+3, 2.3512521e+2, -525317.6, -608720.25, 5702.1797, 0.025524413, 0.024704248, -524929.56, 110841.73, 0.0, 10.000843, 9.999753 
1.1850609e+3, 2.4512435e+2, -464250.0, -602207.56, 68456.21, 0.016570495, 0.0027464041, -436046.88, 101730.5, 0.0, 10.000901, 9.999101 
1.18505955e+3, 2.5512192e+2, -443448.47, -540113.56, 39800.805, 0.0020250534, -0.18772532, -429170.0, 10627.457, 0.0, 10.00036, 9.999121 
1.1850568e+3, 2.651209e+2, -370208.56, -547951.5, -75459.91, 0.015223012, -0.15319587, -342493.84, -686.1667, 0.0000005059796, 10.000624, 9.998253 
1.18505225e+3, 2.7512074e+2, -120218.984, -380090.78, -80614.11, 0.03132171, -0.029741863, -97243.234, 146569.33, 0.000009353779, 10.001671, 9.998236 
1.1850482e+3, 2.8511924e+2, 9320.364, -279125.72, 23412.36, -0.0018740153, 0.013358146, 11208.323, 157035.64, 0.000051580555, 10.001941, 9.998114 
1.185045e+3, 2.9511636e+2, 45193.754, -202587.47, 11730.989, -0.04906971, -0.13441843, 45747.906, 93600.59, 0.00018437536, 10.001461, 9.998199 
1.1850423e+3, 3.0511385e+2, 78798.78, -192789.69, -32643.145, 0.036566418, -0.18338028, 82667.17, 82667.17, 0.00048100852, 10.001501, 9.99793 
1.1850381e+3, 3.151142e+2, 213065.48, 34737.547, -40800.73, 0.045392312, 0.01581266, 221957.17, 221957.17, 0.00096257555, 10.001632, 9.999434 
1.1951001e+3, 1.2512754e+2, -1682107.6, -1632065.0, -42599.36, -0.3412036, -0.1139021, -1607682.1, 106071.25, 0.0022081332, 9.9998665, 10.000599 
1.1950989e+3, 1.3512994e+2, -1692265.4, -1654266.5, -85341.484, 0.1460746, 0.088276386, -1585835.1, 29895.053, 0.0011730703, 9.999445, 10.000002 
1.1950942e+3, 1.4513056e+2, -1577553.5, -1565027.5, 27460.324, 0.0033367816, 0.16548766, -1543125.0, -25401.77, 0.00040013902, 9.999627, 9.99983 
1.195089e+3, 1.5512866e+2, -1320423.6, -1390123.4, 34875.035, -0.27288905, -0.04805447, -1305970.5, 113769.13, 0.00005450229, 10.00073, 9.999828 
1.19508535e+3, 1.6512848e+2, -1223093.4, -1277730.5, -87036.445, -0.2564036, -0.047965225, -1159188.9, 162552.19, 0.00000035173326, 10.000668, 9.99996 
1.1950836e+3, 1.751296e+2, -1269588.5, -1242833.0, -84214.2, 0.07336219, 0.027489757, -1170940.6, 52790.598, 0.0, 9.999647, 10.000015 
1.19508e+3, 1.8512979e+2, -1150243.9, -1118363.5, -8162.5137, 0.09705939, 0.045486566, -1116395.1, 9332.927, 0.0, 9.999716, 10.000163 
1.1950745e+3, 1.9512878e+2, -891695.9, -937287.2, 52642.496, -0.16717151, -0.11182855, -857125.4, 170608.67, 0.0, 10.000792, 10.000216 
1.19507104e+3, 2.0512857e+2, -847045.8, -961996.7, 7159.9453, -0.16601636, -0.10409105, -846601.56, 83133.19, 0.0, 10.000855, 9.999345 
1.1950697e+3, 2.1512873e+2, -876789.1, -917176.44, 16397.604, 0.09404013, -0.05977791, -870970.0, -39236.41, 0.0, 9.999947, 9.999414 
1.1950672e+3, 2.2512838e+2, -804411.4, -860355.56, 48988.914, 0.13075933, -0.0142386565, -775971.1, -42233.37, 0.0, 9.999888, 9.999157 
1.1950634e+3, 2.3512726e+2, -594065.8, -696664.1, 45520.063, -0.04157727, -0.08745799, -576781.56, 58968.203, 0.0, 10.000614, 9.999253 
1.1950613e+3, 2.4512647e+2, -516219.2, -659287.94, 29516.61, -0.0632438, -0.06353218, -510368.8, 27389.045, 0.0, 10.000682, 9.99882 
1.1950607e+3, 2.5512564e+2, -489930.0, -586830.5, 38489.676, 0.049740795, -0.06391975, -476502.28, -36736.78, 0.0, 10.000153, 9.998897 
1.1950577e+3, 2.6512474e+2, -377798.6, -520135.44, -51899.41, 0.021991704, -0.020075688, -360884.72, -19109.797, 0.0000006389743, 10.000432, 9.998541 
1.1950525e+3, 2.751234e+2, -119333.69, -337351.75, -21444.273, -0.1423482, -0.048993174, -117244.445, 126544.61, 0.000009301616, 10.001503, 9.998609 
1.19504884e+3, 2.8512225e+2, 1115.6938, -264432.5, -8513.898, -0.1566164, 0.0004943753, 1388.383, 147188.3, 0.00005191434, 10.001798, 9.998289 
1.1950471e+3, 2.951208e+2, 33525.977, -194927.47, 19674.291, -0.019340841, -0.021206668, 35207.934, 83020.375, 0.00018470343, 10.001313, 9.998328 
1.19504444e+3, 3.0511817e+2, 43054.86, -210655.89, -35533.848, 0.070477694, -0.08808816, 47937.637, 47937.637, 0.00047307427, 10.001277, 9.997904 
1.1950381e+3, 3.1511652e+2, 171300.7, 22898.914, 13957.229, -0.18558663, -0.09285293, 172601.98, 172601.98, 0.0009340092, 10.00133, 9.999485 
1.2051001e+3, 1.2513064e+2, -2036820.5, -1806724.6, 5454.624, -0.180236, -0.013724926, -1806595.4, -92870.445, 0.0024257244, 9.99746, 10.0005665 
1.205098e+3, 1.3513216e+2, -1607859.0, -1559050.6, -86115.9, 0.10123365, 0.061198592, -1493947.8, 121761.19, 0.0012988481, 9.999813, 10.000471 
1.2050948e+3, 1.4513288e+2, -1482907.6, -1502341.5, 44386.54, 0.08499641, 0.11848827, -1447186.9, 70512.95, 0.00045139206, 10.000189, 9.999993 
1.2050895e+3, 1.5513152e+2, -1546822.4, -1478073.9, 4172.5996, -0.20482838, -0.063233085, -1477821.5, -58110.754, 0.00006471426, 9.999077, 10.000022 
1.20508544e+3, 1.6513152e+2, -1461831.6, -1408935.3, -60068.832, -0.21807018, -0.045394022, -1369749.9, -48039.07, 0.00000057087306, 9.999106, 9.999803 
1.20508336e+3, 1.7513253e+2, -1172925.3, -1207076.8, -68979.57, 0.052378614, 0.031578705, -1118939.3, 104764.234, 0.0, 10.000371, 9.999902 
1.2050801e+3, 1.8513277e+2, -1008305.5, -1012131.3, 25357.887, 0.102537476, 0.0431616, -984788.44, 140911.06, 0.0, 10.00054, 10.000488 
1.2050757e+3, 1.9513191e+2, -1019710.56, -957591.4, -7421.1626, -0.058774754, -0.13384466, -956717.06, 70985.22, 0.0, 9.999748, 10.000569 
1.2050725e+3, 2.0513181e+2, -968828.9, -1022233.2, -31193.69, -0.056224953, -0.13196675, -954469.44, -24768.744, 0.0, 10.0, 9.999349 
1.2050703e+3, 2.1513203e+2, -688169.8, -830177.7, -34857.773, 0.10288331, -0.0841691, -680074.94, 151624.03, 0.0, 10.001225, 9.999406 
1.2050676e+3, 2.251315e+2, -602145.4, -819879.8, 45495.94, 0.114357494, -0.03137995, -593021.25, 140684.89, 0.0, 10.001522, 9.998654 
1.20506436e+3, 2.3512992e+2, -577414.25, -748706.44, 11431.331, -0.008427277, -0.09228804, -576654.75, 59070.145, 0.0, 10.00098, 9.99873 
1.20506234e+3, 2.4512933e+2, -489743.4, -635257.1, 28689.986, -0.01602368, -0.026477769, -484291.1, 53441.656, 0.0, 10.000833, 9.99889 
1.2050614e+3, 2.551293e+2, -354066.75, -515716.6, 22575.707, 0.06371391, 0.04176698, -350973.1, 88761.03, 0.00000000020898414, 10.001069, 9.99893 
1.2050586e+3, 2.651283e+2, -281272.9, -464445.1, -12221.558, 0.048406232, 0.07300531, -280461.06, 61282.594, 0.00000074892756, 10.0010395, 9.998632 
1.2050543e+3, 2.751262e+2, -225712.6, -379949.38, -34181.117, -0.053987492, -0.0439988, -218476.98, 25286.604, 0.000009032264, 10.0007105, 9.998698 
1.2050509e+3, 2.8512502e+2, -152899.56, -325617.06, -18242.57, -0.069527954, -0.009350354, -150993.8, -5218.995, 0.000052136886, 10.000683, 9.998412 
1.20504834e+3, 2.9512435e+2, -30682.389, -209846.6, -39242.117, -0.0026090278, 0.037132222, -22464.2, 25317.697, 0.0001849306, 10.000824, 9.998457 
1.20504566e+3, 3.0512214e+2, 76429.586, -201658.39, -28929.924, 0.0718808, 0.009800355, 79407.33, 79407.33, 0.0004665325, 10.001535, 9.997838 
1.20504014e+3, 3.1511998e+2, 303249.06, 93541.23, -53566.223, -0.13641845, -0.036983263, 316139.3, 316139.3, 0.00090609276, 10.002235, 9.999523 
1.2151002e+3, 1.2513481e+2, -2011154.8, -1749049.1, -35681.96, 0.009236215, 0.23640005, -1744278.4, -30588.813, 0.0026624324, 9.997465, 10.000953 
1.2150954e+3, 1.351337e+2, -1564205.9, -1463875.3, 8644.938, -0.16888183, -0.013431266, -1463135.9, 152558.55, 0.0014356553, 9.999799, 10.001132 
1.215094e+3, 1.4513354e+2, -1465754.4, -1464032.9, -19871.64, -0.074363895, -0.094823435, -1445003.4, 72688.984, 0.0005075534, 10.00018, 10.000258 
1.2150901e+3, 1.5513425e+2, -1532593.8, -1452286.3, -15987.373, -0.08324501, -0.09063967, -1449220.6, -29536.61, 0.000076397075, 9.999088, 10.000197 
1.2150859e+3, 1.6513498e+2, -1450713.4, -1385181.4, -29448.273, -0.12870419, -0.014895405, -1373892.8, -52215.883, 0.0000008702971, 9.999111, 9.999956 
1.215082e+3, 1.7513546e+2, -1174448.0, -1193405.5, -5075.24, -0.15408894, -0.0025740704, -1173174.9, 50498.89, 0.0, 10.0003, 10.00003 
1.215079e+3, 1.851359e+2, -1046755.2, -1072603.6, -22772.48, -0.09072224, 0.04052128, -1033495.06, 92173.836, 0.0, 10.000458, 10.0001135 
1.21507704e+3, 1.951359e+2, -1064260.6, -1024407.9, -18126.186, 0.058501292, -0.01045428, -1017396.94, 10269.17, 0.0, 9.999638, 10.000165 
1.2150738e+3, 2.0513567e+2, -972131.4, -989976.06, -4608.471, 0.041186173, -0.017109664, -971011.5, -41345.355, 0.0, 9.999833, 9.999647 
1.21506944e+3, 2.1513492e+2, -701858.0, -798029.3, 24544.408, -0.13598178, -0.101086766, -695956.06, 135715.28, 0.0, 10.000967, 9.999746 
1.21506676e+3, 2.2513427e+2, -672149.5, -909866.06, 5459.935, -0.14765722, -0.05447682, -672024.1, 61655.89, 0.0, 10.001277, 9.998158 
1.21506564e+3, 2.3513335e+2, -641379.2, -830689.3, 9572.381, -0.0023088634, 0.0010313416, -640896.44, -5201.1, 0.0, 10.000761, 9.998273 
1.21506386e+3, 2.4513303e+2, -507583.25, -613041.25, 22949.209, 0.0136092715, 0.10153535, -502805.63, 34895.97, 0.0, 10.00058, 9.999163 
1.21506125e+3, 2.5513288e+2, -364008.38, -490697.7, 47513.05, -0.087170295, 0.12877315, -348169.47, 91533.48, 0.00000000018849695, 10.000873, 9.999192 
1.2150591e+3, 2.651317e+2, -317426.56, -494810.66, -41640.066, -0.037888095, 0.13263431, -308138.13, 33575.215, 0.00000061447383, 10.000842, 9.998524 
1.2150574e+3, 2.7512908e+2, -254022.63, -404515.34, -26216.623, 0.15127383, -0.019188987, -249586.33, -5849.9497, 0.000008322687, 10.000554, 9.998611 
1.2150536e+3, 2.8512758e+2, -193018.13, -349504.56, -28378.146, 0.10403162, -0.010579233, -188030.83, -42279.277, 0.000050710027, 10.000447, 9.998353 
1.215048e+3, 2.9512694e+2, -55245.56, -222026.72, -7905.3774, -0.1586244, 0.039509848, -54871.684, -7110.5513, 0.00018357177, 10.000667, 9.998443 
1.2150459e+3, 3.0512562e+2, 37742.344, -243872.94, -13335.926, -0.09783136, 0.11399976, 38372.457, 38372.457, 0.00046227945, 10.001373, 9.99763 
1.2150436e+3, 3.1512427e+2, 261743.39, 77686.0, 12850.9, -0.09318947, 0.1663916, 262636.3, 262636.3, 0.0008888424, 10.001941, 9.999556 
1.2251002e+3, 1.2513816e+2, -1653230.1, -1577590.6, 110749.99, 0.16047417, 0.20692079, -1498380.9, 215274.14, 0.0029179724, 9.999906, 10.000956 
1.2250949e+3, 1.3513733e+2, -1778596.6, -1577170.9, 97476.89, -0.115488976, -0.008238729, -1537723.8, 77933.91, 0.0015834377, 9.998364, 10.001047 
1.2250936e+3, 1.4513713e+2, -1713239.3, -1575340.6, 78225.09, -0.029033644, -0.09203503, -1540015.4, -22358.6, 0.00056846405, 9.998472, 10.00031 
1.2250905e+3, 1.5513845e+2, -1326414.4, -1331962.1, 24324.895, -0.01432699, -0.037383616, -1304705.8, 114937.734, 0.00008951281, 10.000457, 10.0003395 
1.22508645e+3, 1.6513906e+2, -1210532.8, -1280536.8, 27060.959, -0.06483765, 0.022615135, -1201291.9, 120345.01, 0.0000012652538, 10.000762, 9.99991 
1.22508205e+3, 1.7513873e+2, -1283977.5, -1246534.3, 8079.4907, -0.1364671, -0.044539124, -1244865.3, -21225.557, 0.0, 9.999526, 10.000052 
1.2250791e+3, 1.8513893e+2, -1183182.8, -1192516.4, 32542.328, -0.07551402, -0.0029585331, -1154974.4, -29336.906, 0.0, 9.999732, 9.999651 
1.2250777e+3, 1.951392e+2, -849558.7, -974397.2, -4775.8057, 0.1025025, 0.020456456, -849376.25, 178258.44, 0.0, 10.001327, 9.999708 
1.2250748e+3, 2.0513883e+2, -740021.5, -907514.3, 10421.658, 0.08781112, 0.03890005, -739375.56, 190262.1, 0.0, 10.001574, 9.999367 
1.2250703e+3, 2.151376e+2, -783483.06, -865395.9, -39874.652, -0.113898985, -0.06481429, -767278.1, 64370.336, 0.0, 10.000554, 9.999471 
1.2250676e+3, 2.25137e+2, -768721.4, -906110.2, -12143.174, -0.12632988, -0.023724195, -767656.3, -34000.34, 0.0, 10.000382, 9.998615 
1.2250668e+3, 2.351366e+2, -581374.0, -756329.06, 20844.834, 0.031097272, 0.03627519, -578924.75, 56739.297, 0.0, 10.000956, 9.998697 
1.2250649e+3, 2.4513614e+2, -458386.56, -627383.0, 78672.55, 0.047187243, 0.11985736, -427432.13, 110238.914, 0.0, 10.001055, 9.998857 
1.22506216e+3, 2.5513536e+2, -404658.22, -542088.3, 29554.904, -0.06898066, 0.113732584, -398571.84, 41108.152, 0.0, 10.00072, 9.998927 
1.22506015e+3, 2.6513407e+2, -333686.0, -486753.22, -37217.96, 0.0057963706, 0.11490794, -325116.3, 16575.193, 0.0000003685213, 10.000689, 9.998636 
1.2250591e+3, 2.7513194e+2, -199809.58, -363447.3, -48792.18, 0.24859482, -0.0016081557, -186365.63, 57343.645, 0.0000073761885, 10.000908, 9.998701 
1.2250551e+3, 2.8513047e+2, -106044.85, -348174.97, -11855.543, 0.1861581, 0.021265656, -105465.75, 40258.973, 0.000049087277, 10.001183, 9.998013 
1.225049e+3, 2.9512942e+2, 17744.7, -233158.2, -46472.395, -0.14479333, 0.069602914, 26075.72, 73815.51, 0.00018153466, 10.001333, 9.998059 
1.2250473e+3, 3.0512828e+2, 78695.664, -223092.86, -5317.397, -0.08486284, 0.17775503, 78789.33, 78789.33, 0.00045750884, 10.001661, 9.997621 
1.2250464e+3, 3.1512648e+2, 233416.81, 44634.207, -47841.254, 0.02087742, 0.1894069, 244848.5, 244848.5, 0.0008772591, 10.001786, 9.999408 
1.2350984e+3, 1.2514111e+2, -1662245.5, -1618491.0, -36706.16, -0.10247983, -0.068919584, -1597637.0, 115980.766, 0.0031899144, 9.999971, 10.00065 
1.23509556e+3, 1.3514298e+2, -1826253.0, -1694830.5, 48140.082, 0.085630976, 0.061506726, -1679083.5, -63484.09, 0.0017411282, 9.998422, 10.0002165 
1.2350932e+3, 1.4514343e+2, -1718008.8, -1603452.9, 129036.664, 0.027749687, 0.097088456, -1519552.8, -1957.6111, 0.0006337289, 9.998539, 10.000093 
1.2350902e+3, 1.5514389e+2, -1336470.8, -1360815.1, 108205.41, -0.12995347, 0.089205526, -1239755.1, 179836.42, 0.00010392506, 10.00047, 10.00015 
1.23508655e+3, 1.6514361e+2, -1208707.9, -1275665.1, -45754.68, -0.1618095, 0.064542845, -1185491.6, 136101.05, 0.0000017603737, 10.000756, 9.999943 
1.23508275e+3, 1.7514229e+2, -1285061.6, -1252040.6, -23891.975, -0.044603508, -0.10379722, -1239509.4, -15907.547, 0.0, 9.999527, 10.000018 
1.23507984e+3, 1.851418e+2, -1231905.1, -1281111.6, 74767.91, -0.0091471495, -0.09818531, -1177796.5, -52190.58, 0.0, 9.99968, 9.999066 
1.23507775e+3, 1.9514185e+2, -906929.3, -1063520.1, 70599.94, -0.061990768, -0.04262789, -879799.3, 147808.4, 0.0, 10.001196, 9.999157 
1.2350753e+3, 2.0514141e+2, -826427.1, -1044194.4, -48789.695, -0.046334453, 0.035863813, -815995.7, 113619.03, 0.0, 10.001389, 9.998519 
1.2350726e+3, 2.1514013e+2, -872630.75, -1003652.7, -60350.363, 0.03513338, 0.016184753, -849069.56, -17439.43, 0.0, 10.000348, 9.998623 
1.2350699e+3, 2.251397e+2, -706234.9, -728325.94, -5899.621, 0.036209106, 0.051582936, -704758.06, 28875.975, 0.0, 10.000169, 9.999944 
1.23506725e+3, 2.3513974e+2, -523525.8, -585043.56, 61886.18, -0.041031472, 0.0203878, -485176.03, 150454.3, 0.0, 10.0007305, 9.999986 
1.2350651e+3, 2.4513882e+2, -551188.9, -763632.5, 50028.82, -0.06454328, 0.037563376, -539997.06, -2357.2278, 0.0, 10.0008135, 9.998036 
1.2350636e+3, 2.5513673e+2, -488980.34, -670549.3, 37024.332, -0.022523139, -0.018360496, -481720.84, -42055.953, 0.0, 10.000512, 9.998148 
1.2350614e+3, 2.651354e+2, -357421.8, -475112.4, -43115.766, 0.03466305, 0.007959217, -343316.88, -1638.7493, 0.00000016286783, 10.000435, 9.998837 
1.2350588e+3, 2.7513453e+2, -215585.0, -351784.25, -18687.324, 0.10161929, -0.0044141887, -213067.53, 30616.21, 0.000006622681, 10.000723, 9.998868 
1.2350552e+3, 2.851334e+2, -173757.38, -441886.28, -17290.338, 0.036440283, 0.07544689, -172647.0, -26950.818, 0.000048750662, 10.000987, 9.997464 
1.2350508e+3, 2.9513174e+2, -42606.258, -322227.4, -14073.866, -0.1367003, 0.11524999, -41899.68, 5818.7485, 0.00018217463, 10.00117, 9.997531 
1.2350496e+3, 3.0512998e+2, 52765.08, -232044.27, -6127.337, -0.060644932, 0.18730111, 52896.84, 52896.84, 0.00045752534, 10.001474, 9.997649 
1.2350479e+3, 3.151265e+2, 163162.5, -26932.71, -5092.2715, -0.084770694, 0.024711743, 163298.81, 163298.81, 0.00087459444, 10.001481, 9.999057 
1.24509715e+3, 1.2514466e+2, -1943491.1, -1761404.0, -106365.9, -0.117963664, -0.08527582, -1712438.1, 1144.4387, 0.003475539, 9.998113, 10.000547 
1.24509506e+3, 1.351462e+2, -1667940.3, -1648811.5, -73732.09, 0.1452411, 0.03874001, -1584026.1, 31541.352, 0.0019075654, 9.999639, 9.999951 
1.24509215e+3, 1.4514662e+2, -1533857.4, -1531633.1, 96985.336, 0.010719111, 0.09316025, -1435753.5, 81810.41, 0.0007030745, 9.999875, 9.999937 
1.24509044e+3, 1.55147e+2, -1520097.9, -1473367.5, 39787.42, -0.08249483, 0.09303042, -1450591.9, -31030.209, 0.00011956255, 9.999292, 9.999949 
1.2450873e+3, 1.6514674e+2, -1421485.5, -1378999.9, -113230.19, -0.08471616, 0.08097796, -1285037.1, 36526.07, 0.0000023468863, 9.999324, 9.999908 
1.24508314e+3, 1.751456e+2, -1209082.6, -1216147.8, -133145.52, 0.021475399, -0.06521079, -1079422.9, 144147.9, 0.0, 10.000075, 9.999988 
1.2450802e+3, 1.8514507e+2, -1121110.1, -1221793.9, 56242.5, 0.025631225, -0.06672424, -1095970.1, 29604.986, 0.0, 10.00042, 9.999113 
1.2450784e+3, 1.9514473e+2, -1020378.1, -1115894.9, 64518.39, -0.078717105, -0.05333076, -987865.2, 39714.7, 0.0, 10.0004015, 9.99918 
1.2450763e+3, 2.0514421e+2, -926225.9, -1086762.8, -849.7529, -0.047098096, 0.014073299, -926221.4, 3365.782, 0.0, 10.000673, 9.99857 
1.2450741e+3, 2.1514317e+2, -749598.3, -937704.75, 18544.643, 0.12044922, 0.0106200585, -747787.5, 83812.52, 0.0, 10.001155, 9.99869 
1.24507144e+3, 2.2514275e+2, -586248.25, -686311.0, 91928.7, 0.13174212, 0.050909765, -531618.1, 201985.77, 0.0, 10.001096, 9.999768 
1.2450681e+3, 2.3514254e+2, -562365.4, -616010.9, 10508.693, -0.010601134, 0.012538773, -560380.3, 75222.62, 0.0, 10.000552, 9.999838 
1.2450659e+3, 2.4514149e+2, -591864.7, -772257.0, 16917.584, -0.041728295, 0.019015262, -590291.8, -52678.387, 0.0, 10.000492, 9.998125 
1.24506466e+3, 2.551394e+2, -434223.8, -630564.9, 35271.434, 0.035368994, -0.044983972, -428079.78, 11557.587, 0.0, 10.000844, 9.998249 
1.24506265e+3, 2.6513815e+2, -241053.53, -447081.0, 19342.79, 0.068575926, -0.00898332, -239253.27, 102397.22, 0.000000050542315, 10.001321, 9.998613 
1.24505945e+3, 2.751373e+2, -66251.87, -310487.78, -20365.797, 0.056144662, 0.0072628325, -64565.293, 179091.64, 0.0000061370592, 10.001841, 9.998634 
1.24505624e+3, 2.8513598e+2, -46283.477, -397803.38, 2812.5447, 0.0076571302, 0.088853315, -46260.977, 99410.414, 0.000049451548, 10.001955, 9.997294 
1.2450529e+3, 2.9513392e+2, 21297.813, -301048.03, -9920.656, -0.0641012, 0.102496736, 21602.846, 69299.7, 0.00018750013, 10.001685, 9.997411 
1.2450518e+3, 3.051321e+2, 90955.52, -197169.55, 65513.82, 0.020775354, 0.16547349, 105152.5, 105152.5, 0.000470274, 10.001634, 9.99783 
1.2450499e+3, 3.151285e+2, 162830.39, -59952.477, 6021.3594, -0.02372617, -0.019485176, 162993.02, 162993.02, 0.0008945071, 10.001608, 9.998784 
1.2550974e+3, 1.2514879e+2, -1929308.4, -1755638.1, 21387.38, 0.01958406, 0.14081566, -1753043.1, -39494.063, 0.0037739007, 9.998202, 10.000547 
1.255093e+3, 1.3514727e+2, -1640702.4, -1601142.3, -4846.158, -0.048126444, -0.07341078, -1600557.3, 15001.579, 0.0020822603, 9.999672, 10.000265 
1.2550902e+3, 1.4514703e+2, -1537018.4, -1544037.0, 55598.117, -0.21958108, -0.09823494, -1484819.0, 32740.736, 0.0007764397, 9.999897, 9.99984 
1.2550907e+3, 1.5514801e+2, -1523961.5, -1486061.5, 35397.902, -0.027600914, -0.029011374, -1464860.4, -45308.51, 0.00013646827, 9.999313, 9.99985 
1.2550882e+3, 1.6514862e+2, -1433875.3, -1413093.8, -105563.85, 0.023633715, 0.06436954, -1317410.5, 4136.2915, 0.0000030208696, 9.9993515, 9.999666 
1.2550828e+3, 1.7514879e+2, -1223517.1, -1244484.8, -90227.625, -0.056365073, 0.070214294, -1143166.3, 80378.8, 0.0, 10.000062, 9.999801 
1.2550798e+3, 1.8514867e+2, -1078406.3, -1121461.4, 36035.195, -0.0916111, 0.082529046, -1057957.9, 67587.28, 0.0, 10.000365, 9.999832 
1.2550789e+3, 1.9514784e+2, -983866.75, -1018827.75, 80541.74, -0.08402227, -0.023578316, -918930.4, 108620.93, 0.0, 10.000304, 9.999895 
1.2550771e+3, 2.0514731e+2, -889677.1, -967594.7, -788.81805, -0.05065303, -0.038581494, -889669.1, 39885.445, 0.0, 10.000487, 9.999483 
1.2550744e+3, 2.151468e+2, -722088.7, -827905.8, 52803.23, 0.0069429805, -0.08012055, -700247.7, 131309.84, 0.0, 10.000926, 9.999559 
1.2550716e+3, 2.2514607e+2, -740891.25, -946632.6, 53867.79, 0.014757496, -0.024824407, -727640.8, 5925.248, 0.0, 10.000839, 9.9981 
1.2550688e+3, 2.3514488e+2, -707532.1, -869106.8, 8965.475, -0.013702337, 0.0030471203, -707036.1, -71453.17, 0.0, 10.000343, 9.998201 
1.2550668e+3, 2.4514405e+2, -553648.5, -640852.9, 13223.855, -0.029190974, 0.059472166, -551687.3, -14094.59, 0.0, 10.000266, 9.999136 
1.2550652e+3, 2.5514325e+2, -399031.94, -512251.16, 65795.266, -0.032787036, 0.025437124, -368844.84, 70754.11, 0.0, 10.00064, 9.999164 
1.2550631e+3, 2.6514208e+2, -315965.28, -549126.4, 20928.219, -0.038080994, 0.055618014, -314101.7, 27508.791, 0.00000007625481, 10.001096, 9.998018 
1.2550607e+3, 2.7514023e+2, -134202.36, -405518.88, 19970.81, -0.039410427, 0.02894161, -132740.25, 110889.46, 0.0000061507535, 10.001643, 9.998076 
1.2550579e+3, 2.8513828e+2, -65317.66, -395076.2, -21602.414, -0.057252657, 0.06788948, -63908.51, 81741.73, 0.000051588533, 10.001776, 9.997395 
1.2550548e+3, 2.9513583e+2, 7384.6475, -297196.63, 1823.0275, -0.079671904, 0.028418778, 7395.5586, 55071.58, 0.00020006, 10.001544, 9.997502 
1.2550537e+3, 3.0513436e+2, 93905.445, -161366.98, 51925.0, 0.010623368, 0.11040354, 104063.31, 104063.31, 0.0005036429, 10.001504, 9.998135 
1.2550512e+3, 3.1513247e+2, 98424.48, -126143.805, 45786.535, -0.12719001, 0.05487023, 107400.94, 107400.94, 0.0009532297, 10.001315, 9.998469 
1.2650968e+3, 1.2515134e+2, -1843064.0, -1699944.1, 154690.0, 0.13267718, 0.17982537, -1601064.0, 112462.84, 0.004085261, 9.998742, 10.00069 
1.2650923e+3, 1.3515002e+2, -1662108.9, -1567959.8, 26264.992, -0.061506107, -0.037322283, -1561128.3, 54405.176, 0.0022650692, 9.9993725, 10.000628 
1.2650907e+3, 1.4514966e+2, -1570591.9, -1559461.0, 89893.84, -0.1327401, -0.09100507, -1474960.5, 42573.99, 0.00085386867, 9.999665, 9.999851 
1.2650904e+3, 1.5515034e+2, -1421618.4, -1433076.6, 38423.023, -0.019651271, -0.048914142, -1388499.8, 31029.854, 0.00015477135, 10.000018, 9.999874 
1.2650879e+3, 1.6515097e+2, -1306164.0, -1349111.1, -26668.225, 0.030570365, 0.04466516, -1293398.6, 28125.883, 0.0000038088367, 10.0002365, 9.999667 
1.2650836e+3, 1.7515135e+2, -1151460.8, -1213182.0, -32178.564, -0.011913816, 0.07313055, -1137736.3, 85784.805, 0.0, 10.000578, 9.999767 
1.2650807e+3, 1.8515141e+2, -1052639.4, -1087407.3, 83807.53, -0.037691657, 0.096176356, -984431.8, 141087.45, 0.0, 10.000447, 10.000025 
1.2650794e+3, 1.9515084e+2, -1034359.44, -1019206.1, 52527.668, -0.052223127, -0.005040586, -973711.5, 53811.266, 0.0, 9.999868, 10.000097 
1.2650774e+3, 2.0515057e+2, -926099.0, -942060.7, 5692.5464, -0.042238202, -0.020692134, -924276.8, 5245.7197, 0.0, 10.000053, 9.999863 
1.265075e+3, 2.1515034e+2, -694519.44, -771697.75, -17359.791, -0.015545096, -0.0738699, -690794.44, 140727.36, 0.0, 10.000933, 9.999934 
1.2650725e+3, 2.2514954e+2, -699520.2, -975387.8, 11310.538, 0.011396542, -0.026432618, -699057.25, 34474.145, 0.0, 10.001312, 9.997688 
1.2650701e+3, 2.3514795e+2, -613875.2, -868346.3, 28110.973, 0.04798498, 0.0050942674, -610806.8, 24746.32, 0.0, 10.0011635, 9.997821 
1.265068e+3, 2.4514697e+2, -429592.13, -584783.44, 90090.8, 0.0488716, 0.064952604, -388286.8, 149277.97, 0.0, 10.001119, 9.999124 
1.2650666e+3, 2.5514624e+2, -321255.25, -477363.9, 36747.695, 0.018520169, 0.03999494, -313037.5, 126532.76, 0.0, 10.001169, 9.999161 
1.2650645e+3, 2.651451e+2, -306612.03, -555268.4, 12836.837, -0.0080347, 0.08037886, -305951.1, 35630.95, 0.00000015326442, 10.001217, 9.997917 
1.2650621e+3, 2.751432e+2, -200018.52, -441580.34, 5136.8457, -0.031007756, 0.0638451, -199909.33, 43693.457, 0.0000068361555, 10.001225, 9.998018 
1.2650594e+3, 2.851413e+2, -105214.234, -386192.25, 13711.633, -0.042859204, 0.0931444, -104546.695, 41075.957, 0.000055437977, 10.00136, 9.997668 
1.2650569e+3, 2.9513893e+2, 56544.914, -246914.98, 12518.004, -0.027509252, 0.04007902, 57060.418, 104705.76, 0.00021969865, 10.001746, 9.997766 
1.2650557e+3, 3.0513716e+2, 135611.98, -115802.734, 79700.805, 0.060304888, 0.06585464, 158748.69, 158748.69, 0.00055763865, 10.0016985, 9.998346 
1.265053e+3, 3.1513587e+2, 24245.18, -171968.8, -13908.905, -0.03964943, 0.053417295, 25226.229, 25226.229, 0.001054668, 10.000872, 9.998362 
1.2750947e+3, 1.2515289e+2, -1790002.6, -1611676.1, 59409.242, -0.039486565, 0.09564327, -1593696.8, 119813.55, 0.0044096503, 9.998832, 10.001247 
1.275092e+3, 1.351544e+2, -1645185.9, -1534814.9, 57605.18, -0.058612693, 0.1382804, -1510227.0, 105264.02, 0.0024558255, 9.9993725, 10.000858 
1.275093e+3, 1.4515449e+2, -1553677.4, -1538468.3, 82723.75, 0.07791312, 0.10788083, -1463000.3, 54488.434, 0.00093550276, 9.999718, 9.99997 
1.2750891e+3, 1.5515412e+2, -1410283.6, -1417027.6, 68634.305, -0.18576467, 0.030564055, -1344938.5, 74555.24, 0.00017466526, 10.000042, 9.999974 
1.2750863e+3, 1.6515376e+2, -1284799.9, -1317567.1, -33317.273, -0.1992248, 0.011488784, -1264055.9, 57440.688, 0.0000047674703, 10.000281, 9.999866 
1.2750848e+3, 1.7515324e+2, -1138771.5, -1187339.8, -2793.3416, 0.02144071, -0.07180947, -1138611.4, 84887.625, 0.0, 10.000571, 9.9999485 
1.2750822e+3, 1.8515334e+2, -1091454.5, -1148965.6, 46776.293, 0.0392039, -0.034989223, -1065301.9, 60195.19, 0.0, 10.000371, 9.999634 
1.2750788e+3, 1.9515368e+2, -1074859.4, -1080366.8, 49671.773, -0.12343613, -0.0058513833, -1027865.06, -370.98044, 0.0, 9.99977, 9.999722 
1.2750766e+3, 2.0515396e+2, -960629.56, -975705.8, 19956.578, -0.1629529, 0.05594673, -946834.9, -17343.283, 0.0, 9.999891, 9.99971 
1.2750755e+3, 2.1515383e+2, -739995.6, -810950.3, 30559.004, -0.08121418, 0.029294528, -728648.94, 102843.95, 0.0, 10.000694, 9.999782 
1.2750739e+3, 2.2515316e+2, -675351.0, -864505.9, -11365.924, -0.014670018, 0.053138282, -674670.5, 58828.965, 0.0, 10.001057, 9.9985695 
1.2750715e+3, 2.3515166e+2, -590668.7, -765264.8, 40094.492, 0.037044354, 0.005141931, -581901.56, 53612.832, 0.0, 10.000929, 9.998641 
1.2750696e+3, 2.4515013e+2, -537163.0, -751272.94, 77498.97, 0.051472396, 0.024127476, -512055.72, 25475.197, 0.0, 10.00088, 9.99809 
1.2750682e+3, 2.5514835e+2, -420381.88, -631566.7, 58997.297, 0.040315498, -0.007118, -405017.94, 34532.957, 0.0, 10.000951, 9.998205 
1.2750661e+3, 2.6514727e+2, -319435.1, -528119.2, -1895.3602, 0.0066168495, 0.06937878, -319417.88, 22146.3, 0.00000020123079, 10.00099, 9.998211 
1.2750633e+3, 2.751463e+2, -210863.7, -416623.9, 26791.17, -0.058477316, 0.109610155, -207432.56, 36143.61, 0.0000077157165, 10.001027, 9.998283 
1.2750606e+3, 2.8514498e+2, -99935.31, -340163.63, 10421.632, -0.09088366, 0.16973385, -99484.05, 46105.19, 0.000060411407, 10.001205, 9.998057 
1.2750585e+3, 2.9514322e+2, 53435.895, -203390.27, 52451.055, -0.07919795, 0.13361229, 63734.863, 111339.51, 0.00024271311, 10.0015335, 9.998164 
1.2750572e+3, 3.0514038e+2, 98355.875, -150034.42, 39887.816, 0.018351486, 0.041082658, 104604.09, 104604.09, 0.0006225909, 10.001518, 9.998195 
1.2750545e+3, 3.1513909e+2, -38357.355, -214487.47, -2485.3604, -0.025793413, 0.037881926, -38322.293, -38322.293, 0.0011840118, 10.000525, 9.998222 
1.2850952e+3, 1.2515455e+2, -1727297.0, -1565563.0, 41107.95, 0.12799917, 0.01866509, -1555714.4, 157778.63, 0.0047468157, 9.999155, 10.001411 
1.2850915e+3, 1.3515697e+2, -1652240.9, -1538971.8, 38937.113, -0.02849165, 0.1498583, -1526878.1, 88587.85, 0.0026545508, 9.9993, 10.00086 
1.285093e+3, 1.4515767e+2, -1654591.6, -1558076.3, 85451.52, 0.15091303, 0.16556112, -1508197.5, 9260.638, 0.0010215283, 9.998931, 10.000209 
1.285089e+3, 1.5515724e+2, -1581440.4, -1466291.8, 42326.574, -0.12108799, 0.059672996, -1452407.4, -32943.7, 0.00019628371, 9.99874, 10.000257 
1.2850864e+3, 1.6515686e+2, -1430284.6, -1365265.4, 5771.055, -0.14245948, 0.013620158, -1364757.1, -43290.918, 0.0000059623408, 9.999162, 10.000095 
1.2850854e+3, 1.7515644e+2, -1177033.9, -1177853.6, 2190.3103, 0.045608815, -0.08045895, -1175215.4, 48251.344, 0.0, 10.00018, 10.00021 
1.2850828e+3, 1.8515643e+2, -1075349.3, -1162867.4, 59108.37, 0.060139626, -0.054196928, -1045564.75, 79900.516, 0.0, 10.000598, 9.999423 
1.2850794e+3, 1.9515647e+2, -963225.9, -1048852.5, 38870.773, -0.09008231, -0.035717525, -948212.6, 79252.85, 0.0, 10.000656, 9.999508 
1.285077e+3, 2.0515655e+2, -907607.5, -1002368.1, 52538.51, -0.124979645, 0.044471636, -884240.44, 45225.96, 0.0, 10.000479, 9.999247 
1.2850761e+3, 2.1515644e+2, -861839.1, -913660.25, 9304.387, -0.05194423, 0.06325927, -860219.2, -28748.217, 0.0, 10.00006, 9.999378 
1.2850747e+3, 2.251559e+2, -719795.4, -804650.4, -6597.8867, 0.010258004, 0.082830496, -719285.4, 14190.5, 0.0, 10.000398, 9.999299 
1.2850729e+3, 2.3515467e+2, -467656.8, -622438.9, -2106.1726, 0.06293879, -0.010427214, -467628.16, 167856.28, 0.0, 10.001422, 9.999379 
1.2850711e+3, 2.4515331e+2, -430599.03, -725020.56, 74163.55, 0.07566908, -0.0001716075, -412972.78, 124525.555, 0.0, 10.001726, 9.997858 
1.2850694e+3, 2.5515157e+2, -385723.44, -638764.7, 74034.984, 0.059190832, -0.0020623938, -365654.0, 73865.54, 0.0, 10.001303, 9.997979 
1.2850673e+3, 2.6515046e+2, -261514.08, -470609.53, 85149.19, 0.02742511, 0.06689116, -231226.31, 110307.0, 0.00000014147287, 10.001242, 9.99849 
1.285065e+3, 2.7514943e+2, -108859.875, -337211.03, 76468.16, -0.022837296, 0.07549737, -85618.414, 157926.06, 0.000007879153, 10.001583, 9.998569 
1.2850624e+3, 2.8514844e+2, -6609.25, -278597.34, 87554.02, -0.05663136, 0.14655624, 19137.508, 164691.63, 0.00006527563, 10.001787, 9.998197 
1.2850602e+3, 2.9514712e+2, 100454.875, -163538.34, 63763.266, -0.064364634, 0.14500476, 115049.055, 162614.31, 0.000269289, 10.001783, 9.998315 
1.285059e+3, 3.0514374e+2, 219908.52, -103154.95, 84862.195, 0.0108975265, -0.005328978, 240843.48, 240843.48, 0.0006978728, 10.002381, 9.998118 
1.2850572e+3, 3.1514284e+2, 397175.78, 10350.299, -25664.988, 0.058350645, 0.04111762, 398871.16, 398871.16, 0.0013327203, 10.003388, 9.998413 
1.2950942e+3, 1.251567e+2, -1751854.3, -1604550.5, -88815.89, 0.03942699, -0.035790216, -1562821.0, 150649.94, 0.0050962004, 9.999122, 10.001159 
1.2950908e+3, 1.3515796e+2, -1680595.8, -1581789.0, 55051.188, -0.07618681, 0.0035588143, -1557224.0, 58231.543, 0.0028611089, 9.999247, 10.000591 
1.2950903e+3, 1.4515932e+2, -1634275.6, -1517028.8, 53538.168, -0.058394056, 0.090664804, -1496260.5, 21180.953, 0.00111182, 9.9989395, 10.000484 
1.2950896e+3, 1.5515977e+2, -1564450.1, -1427488.4, 55173.39, 0.034033805, 0.04362275, -1408027.6, 11410.952, 0.000219555, 9.998727, 10.000532 
1.2950878e+3, 1.6516034e+2, -1405765.9, -1315772.8, 23006.158, 0.037836492, 0.0596166, -1310232.5, 11200.111, 0.0000074533, 9.999165, 10.00043 
1.2950847e+3, 1.7516099e+2, -1160259.5, -1139223.4, 54302.934, -0.074569926, 0.040887795, -1094429.3, 128994.4, 0.0, 10.00016, 10.000484 
1.295082e+3, 1.8516077e+2, -1087182.4, -1184392.5, 41850.793, -0.122070335, 0.03615901, -1071647.4, 53776.227, 0.0, 10.000578, 9.999287 
1.2950803e+3, 1.951592e+2, -986563.1, -1078873.0, 55271.402, -0.084351346, -0.09199229, -960709.7, 66726.85, 0.0, 10.000564, 9.999349 
1.2950784e+3, 2.0515838e+2, -985840.4, -1122022.5, 17549.314, -0.06850879, -0.05633506, -983615.2, -54168.316, 0.0, 10.000301, 9.998506 
1.2950763e+3, 2.1515805e+2, -944323.25, -1032290.1, 8771.597, -0.07138709, 0.013661832, -943457.1, -111999.984, 0.0, 9.999837, 9.998667 
1.2950747e+3, 2.2515766e+2, -717516.56, -739037.56, 15704.912, -0.05547781, 0.053463366, -709239.44, 24222.19, 0.0, 10.000137, 9.999875 
1.2950738e+3, 2.3515698e+2, -462241.6, -554178.0, 55723.637, -0.018161362, -0.04490852, -435972.7, 199490.53, 0.0, 10.001174, 9.999968 
1.295072e+3, 2.4515651e+2, -441564.97, -674505.06, 40441.426, -0.02280558, -0.0001715957, -434743.56, 102723.57, 0.0, 10.001428, 9.998341 
1.2950698e+3, 2.551558e+2, -390562.03, -585945.5, 76830.375, -0.06133447, 0.05085967, -363969.5, 75507.836, 0.0, 10.00105, 9.998455 
1.2950678e+3, 2.6515457e+2, -270727.16, -452086.63, 79657.62, -0.07748032, 0.077431634, -240708.3, 100781.84, 0.000000052302592, 10.001066, 9.99871 
1.2950663e+3, 2.751527e+2, -123059.16, -317442.47, 107819.14, -0.071971245, -0.024307484, -75091.64, 168415.16, 0.000007172051, 10.001365, 9.998812 
1.2950642e+3, 2.851516e+2, -53418.637, -321783.6, 70895.2, -0.09592116, 0.033314258, -35841.215, 109675.85, 0.00006969282, 10.001552, 9.9980135 
1.2950616e+3, 2.9515073e+2, 51576.83, -212140.66, 89706.305, -0.14371121, 0.08856187, 79198.33, 126724.85, 0.0003009035, 10.001559, 9.998088 
1.2950604e+3, 3.0514726e+2, 196933.11, -119583.7, 108294.2, -0.11213559, -0.052790232, 230438.52, 230438.52, 0.0007869782, 10.002246, 9.998072 
1.2950602e+3, 3.1514752e+2, 387884.97, 76395.67, 59351.918, -0.0629983, 0.10290644, 398810.8, 398810.8, 0.0015032826, 10.003036, 9.999033 
1.3050927e+3, 1.2516044e+2, -1898737.5, -1719418.5, -5805.73, 0.038980428, 0.07200824, -1719230.8, -5798.2085, 0.0054552136, 9.998314, 10.000751 
1.3050906e+3, 1.3515969e+2, -1682795.0, -1610526.0, 39683.742, 0.0040641767, -0.060099106, -1592990.3, 22447.7, 0.003073975, 9.999365, 10.00033 
1.3050887e+3, 1.4516082e+2, -1572991.1, -1462480.0, 55448.33, -0.10235895, 0.0045301695, -1439456.0, 77969.71, 0.0012055306, 9.999227, 10.000726 
1.3050885e+3, 1.5516213e+2, -1534146.9, -1382498.9, 22924.404, 0.06555796, 0.012668491, -1379109.1, 40303.83, 0.000244213, 9.99879, 10.000811 
1.3050872e+3, 1.6516311e+2, -1458887.9, -1363533.6, 54924.008, 0.090799846, 0.070953645, -1338480.0, -17076.432, 0.000009295233, 9.998941, 10.000196 
1.3050844e+3, 1.7516376e+2, -1212729.6, -1183465.4, 6021.7725, -0.08949184, 0.07504424, -1182274.6, 41123.434, 0.0, 9.999924, 10.00028 
1.3050823e+3, 1.8516351e+2, -1110240.0, -1193329.9, -21999.21, -0.13083123, 0.078527644, -1104774.9, 20624.404, 0.0, 10.000388, 9.99933 
1.3050812e+3, 1.9516207e+2, -1019616.0, -1085026.9, -28093.348, -0.021301864, -0.041819878, -1009206.7, 18203.549, 0.0, 10.000295, 9.999438 
1.3050795e+3, 2.0516114e+2, -961354.8, -1103396.3, 8063.889, 0.01318064, -0.027160535, -960898.44, -31477.744, 0.0, 10.000432, 9.998574 
1.3050771e+3, 2.1516038e+2, -803400.8, -957060.5, 22064.697, -0.026024647, -0.0041640857, -800295.2, 31138.154, 0.0, 10.000772, 9.998736 
1.3050754e+3, 2.2516009e+2, -615401.1, -713684.25, 79165.27, -0.03152401, 0.051975124, -571365.25, 162072.69, 0.0, 10.00093, 9.999664 
1.3050748e+3, 2.3515993e+2, -525252.56, -608091.0, 23348.15, -0.0009697255, 0.024742272, -519125.1, 116312.83, 0.0, 10.00083, 9.999763 
1.3050735e+3, 2.4515961e+2, -446268.63, -642347.06, -130.87802, -0.0063540773, 0.07742133, -446268.53, 91172.2, 0.0, 10.001222, 9.998672 
1.3050714e+3, 2.551588e+2, -213227.0, -467239.47, -7464.6255, -0.0443141, 0.08584065, -213007.83, 226441.88, 0.0, 10.002101, 9.998777 
1.3050696e+3, 2.6515743e+2, -115758.305, -392462.25, -6506.1675, -0.057819504, 0.09159099, -115605.41, 225857.22, 0.000000026393016, 10.002199, 9.998575 
1.3050678e+3, 2.751553e+2, -102811.7, -328441.16, -46821.47, -0.05390629, -0.021874964, -93481.38, 150000.77, 0.0000066700077, 10.001574, 9.998648 
1.3050659e+3, 2.8515407e+2, -41472.984, -294367.56, -26409.969, -0.06366564, 0.020883732, -38744.41, 106748.94, 0.00007506801, 10.001542, 9.998197 
1.3050638e+3, 2.9515332e+2, 156702.13, -141375.11, -22161.54, -0.08045352, 0.06970823, 158340.78, 205841.53, 0.00033561388, 10.002192, 9.99826 
1.3050628e+3, 3.0514985e+2, 204430.53, -134200.1, 44268.688, -0.095113814, -0.07397784, 210122.05, 210122.05, 0.0008838956, 10.0023775, 9.997908 
1.3050628e+3, 3.1514987e+2, 275712.7, 71540.94, -80532.57, -0.032870032, 0.080638625, 303653.8, 303653.8, 0.0016899819, 10.002035, 9.9994955 
1.3150905e+3, 1.251642e+2, -1928202.8, -1795725.9, 137317.1, -0.100550964, 0.1777132, -1709506.1, 3886.6653, 0.005819013, 9.998374, 10.0002 
1.3150911e+3, 1.351621e+2, -1703952.1, -1660181.1, 86024.97, 0.0600675, -0.052639898, -1593301.4, 22111.986, 0.0032902497, 9.999377, 9.999989 
1.3150878e+3, 1.4516215e+2, -1545258.6, -1406294.4, 7952.8413, -0.16215783, -0.09926092, -1405840.6, 111570.4, 0.0013013786, 9.999244, 10.0011015 
1.3150856e+3, 1.5516447e+2, -1516096.1, -1340454.9, 18654.83, -0.14970808, -0.023547994, -1338495.4, 80889.96, 0.00026992275, 9.998773, 10.00111 
1.3150845e+3, 1.651653e+2, -1513987.0, -1490913.6, 70508.2, -0.111576885, 0.05029407, -1431004.5, -109625.945, 0.00001153221, 9.998982, 9.999309 
1.3150844e+3, 1.7516464e+2, -1271342.0, -1306672.1, 57526.188, -0.122470744, 0.009019646, -1228829.8, -5438.704, 0.0, 9.999918, 9.999439 
1.3150832e+3, 1.8516468e+2, -1101521.5, -1154472.5, -44583.434, -0.10461468, 0.06565516, -1076144.9, 49247.723, 0.0, 10.000309, 9.999629 
1.3150817e+3, 1.9516502e+2, -1015709.8, -1049494.5, -18069.908, -0.03879158, 0.0945677, -1007866.1, 19521.217, 0.0, 10.000181, 9.999736 
1.3150798e+3, 2.0516473e+2, -928420.94, -995723.6, 5824.8325, -0.018986877, 0.11740889, -927920.5, 1467.9335, 0.0, 10.000266, 9.999392 
1.3150778e+3, 2.1516347e+2, -780142.2, -864537.4, 52592.637, -0.04568305, 0.008649551, -754911.1, 76488.23, 0.0, 10.000573, 9.999471 
1.3150764e+3, 2.2516313e+2, -724070.75, -874032.75, 57657.73, -0.056806877, 0.07460462, -704465.44, 28939.96, 0.0, 10.000663, 9.998688 
1.3150756e+3, 2.3516335e+2, -630924.0, -767558.25, 39197.836, -0.031158643, 0.18289258, -620477.56, 14932.358, 0.0, 10.00058, 9.998786 
1.3150749e+3, 2.4516258e+2, -470232.16, -631719.4, 14604.932, -0.02278157, 0.2318377, -468921.9, 68497.43, 0.0, 10.000961, 9.998872 
1.315074e+3, 2.5516075e+2, -234934.08, -456449.25, 43074.297, -0.03386524, 0.115354925, -226852.95, 212581.94, 0.0, 10.001856, 9.998973 
1.315072e+3, 2.651591e+2, -188607.86, -487603.84, -45882.15, -0.06282389, 0.10801941, -181725.48, 159725.05, 0.000000066602475, 10.001964, 9.998032 
1.315069e+3, 2.751572e+2, -174802.94, -420630.84, -44763.91, -0.113471135, 0.07524931, -166905.39, 76564.79, 0.0000067822207, 10.001346, 9.9981165 
1.3150674e+3, 2.8515598e+2, -27834.643, -234947.25, -16288.845, -0.10411912, 0.12045563, -26561.398, 118919.45, 0.000081610815, 10.001394, 9.998684 
1.315067e+3, 2.95155e+2, 151309.63, -92105.18, 25895.809, -0.03279219, 0.09326417, 154034.08, 201520.63, 0.00036944333, 10.001927, 9.998732 
1.3150656e+3, 3.051515e+2, 148127.31, -205882.55, 21667.568, -0.09237278, -0.05554344, 149448.56, 149448.56, 0.000976967, 10.002187, 9.997502 
1.3150643e+3, 3.1514972e+2, 240922.9, 91830.04, -29806.355, -0.14400616, -0.043423615, 246660.89, 246660.89, 0.0018699723, 10.001659, 9.999807 
1.3250898e+3, 1.2516484e+2, -1869908.0, -1790430.8, 145057.19, -0.002774061, 0.089999914, -1679767.4, 33615.203, 0.006183249, 9.998834, 10.000033 
1.3250896e+3, 1.3516372e+2, -1878941.0, -1738323.4, 965.5814, 0.05442763, -0.038490612, -1738316.8, -122921.02, 0.0035072896, 9.998164, 10.000028 
1.3250872e+3, 1.4516377e+2, -1710258.4, -1497222.8, -25080.06, -0.08218638, -0.0847546, -1494310.0, 23084.387, 0.0013982238, 9.9981575, 10.0009985 
1.3250844e+3, 1.5516564e+2, -1415266.4, -1299985.9, -75799.6, -0.16147637, -0.044076458, -1262400.3, 156972.17, 0.00029637254, 9.999501, 10.001031 
1.3250837e+3, 1.6516645e+2, -1385666.5, -1419676.9, 26694.094, -0.12475649, 0.023525232, -1371021.3, -49655.33, 0.000014169166, 9.999818, 9.99939 
1.3250843e+3, 1.7516604e+2, -1365307.0, -1350237.4, 47584.746, -0.075384974, 0.0016882563, -1309594.6, -86218.41, 0.0, 9.999242, 9.999474 
1.3250837e+3, 1.8516621e+2, -1220211.0, -1202806.6, 12501.187, -0.03947353, 0.0671838, -1196277.0, -70899.73, 0.0, 9.999458, 9.999708 
1.3250823e+3, 1.9516662e+2, -957358.4, -1014915.25, -11773.602, 0.0060681207, 0.09363439, -955043.1, 72329.59, 0.0, 10.000543, 9.999802 
1.3250807e+3, 2.0516632e+2, -811437.8, -905650.06, -3084.1475, 0.010829008, 0.098164, -811336.94, 118036.02, 0.0, 10.000945, 9.999676 
1.3250785e+3, 2.1516511e+2, -737233.3, -809871.9, -25869.896, -0.034717757, -0.03336358, -728961.75, 102418.57, 0.0, 10.000744, 9.999757 
1.325077e+3, 2.2516479e+2, -747199.1, -915254.2, 18797.22, -0.05836, 0.03458198, -745122.25, -11736.139, 0.0, 10.000643, 9.998416 
1.325076e+3, 2.3516506e+2, -637368.56, -793691.4, 17580.35, -0.039381415, 0.17576215, -635415.8, -23.056028, 0.0, 10.000652, 9.998569 
1.3250758e+3, 2.4516433e+2, -472505.06, -612027.25, 79980.234, -0.007015375, 0.23067293, -436136.78, 101265.61, 0.0, 10.000867, 9.999043 
1.3250759e+3, 2.551624e+2, -308941.72, -470221.1, 68503.586, 0.02729938, 0.08851881, -283772.63, 155644.97, 0.0, 10.0012665, 9.99915 
1.3250744e+3, 2.651609e+2, -216886.39, -517538.56, 5492.2236, -0.000655281, 0.092923924, -216786.1, 124646.03, 0.0000000978673, 10.001851, 9.99787 
1.3250712e+3, 2.7515936e+2, 6897.9624, -346994.9, -5249.5313, -0.09160986, 0.1103256, 6975.815, 250425.7, 0.000006920427, 10.002662, 9.99798 
1.3250697e+3, 2.8515795e+2, 139477.14, -179816.27, 42884.86, -0.07811161, 0.15809657, 145136.77, 290599.94, 0.000086783395, 10.002684, 9.998437 
1.3250695e+3, 2.9515636e+2, 161626.17, -115226.73, -18019.695, 0.041936044, 0.101363905, 162794.11, 210269.61, 0.0003950438, 10.002128, 9.998476 
1.3250682e+3, 3.0515313e+2, 130298.305, -227974.55, 11028.291, -0.032320496, -0.0019027614, 130637.45, 130637.45, 0.0010503886, 10.002145, 9.997363 
1.3250673e+3, 3.1515074e+2, 382580.28, 181459.8, -78761.66, -0.051216047, -0.03792083, 409753.22, 409753.22, 0.0020140882, 10.002541, 9.999996 
1.3350895e+3, 1.2516278e+2, -1834505.3, -1714302.0, 5834.7427, 0.0017869304, -0.14921077, -1714019.5, -621.7371, 0.0065457188, 9.998823, 10.00056 
1.335086e+3, 1.351646e+2, -1856197.3, -1689271.1, -23312.754, -0.15512936, -0.021631889, -1686076.5, -70691.586, 0.0037237175, 9.998157, 10.000367 
1.3350865e+3, 1.4516553e+2, -1727520.3, -1549342.1, 1558.4863, -0.024300734, 0.02131489, -1549328.5, -31951.121, 0.0014951822, 9.998213, 10.000623 
1.3350849e+3, 1.5516582e+2, -1440002.6, -1355040.3, -9289.718, -0.11366874, -0.054293204, -1354036.4, 65336.508, 0.00032323142, 9.999504, 10.000657 
1.3350843e+3, 1.6516672e+2, -1325351.3, -1287143.3, -15820.273, -0.1025453, -0.004711455, -1281443.1, 39921.168, 0.000017128494, 9.999788, 10.000313 
1.3350837e+3, 1.7516808e+2, -1310367.8, -1220530.9, 41162.957, -0.08309523, 0.053961344, -1204522.8, 18830.209, 0.00000000003443261, 9.99918, 10.00039 
1.3350832e+3, 1.8516831e+2, -1240455.0, -1235311.1, 34472.027, -0.072064534, 0.08976856, -1203315.3, -77963.33, 0.0, 9.999407, 9.999518 
1.335083e+3, 1.9516705e+2, -986319.0, -1051030.5, 43664.156, -0.019112509, -0.030687902, -964329.1, 63035.813, 0.0, 10.000427, 9.999616 
1.3350816e+3, 2.0516609e+2, -853950.0, -951241.56, -29556.232, -0.03143724, -0.071568236, -845674.94, 83697.66, 0.0, 10.000762, 9.999453 
1.3350786e+3, 2.1516523e+2, -785850.9, -860254.25, -15876.934, -0.12189987, -0.14558741, -782604.56, 48772.75, 0.0, 10.000522, 9.999524 
1.3350767e+3, 2.2516498e+2, -751209.9, -869625.44, 6470.9814, -0.17647211, -0.07876973, -750857.3, -17476.227, 0.0, 10.000408, 9.998838 
1.3350756e+3, 2.351651e+2, -640632.4, -751528.2, 37437.137, -0.167496, 0.003015849, -629177.3, 6208.6313, 0.0, 10.000436, 9.998961 
1.335076e+3, 2.4516483e+2, -496299.13, -607347.9, 78227.86, -0.11230546, 0.07495471, -455893.56, 81496.64, 0.0, 10.000643, 9.999177 
1.3350771e+3, 2.551638e+2, -332745.4, -469264.94, 101622.14, -0.013840947, 0.0067504607, -278586.0, 160811.88, 0.0, 10.001054, 9.999255 
1.3350764e+3, 2.6516283e+2, -236125.11, -510804.0, 17793.57, -0.01923245, 0.056935877, -234977.25, 106430.19, 0.00000008871969, 10.001648, 9.998015 
1.3350737e+3, 2.7516165e+2, -20104.736, -340304.6, 43713.453, -0.13008253, 0.09045493, -14244.268, 229177.31, 0.000006673535, 10.002402, 9.998146 
1.335072e+3, 2.8515995e+2, 37701.75, -346731.22, 1630.5072, -0.13741048, 0.14944866, 37708.668, 183149.72, 0.00008871381, 10.002486, 9.997387 
1.3350715e+3, 2.9515743e+2, 53940.473, -284200.72, -13697.813, -0.028649334, 0.10398556, 54494.45, 101962.32, 0.00040777776, 10.00189, 9.997434 
1.3350701e+3, 3.051549e+2, 116378.7, -216030.67, 16492.31, -0.08829466, 0.11420812, 117194.95, 117194.95, 0.0010944809, 10.00197, 9.997524 
1.3350704e+3, 3.1515244e+2, 320791.66, 145174.89, 21511.123, -0.04636727, 0.054659702, 323388.13, 323388.13, 0.002108087, 10.002144, 9.999941 
1.3450885e+3, 1.2516281e+2, -1938757.3, -1710969.4, -70740.305, 0.075220205, -0.12804489, -1690788.6, 22612.19, 0.0069055543, 9.997891, 10.001021 
1.3450846e+3, 1.3516535e+2, -1684938.9, -1556799.9, -58408.055, -0.14307736, 0.026941845, -1534172.3, 81206.92, 0.0039389143, 9.999138, 10.000796 
1.345086e+3, 1.4516643e+2, -1600614.6, -1491624.0, 16413.184, 0.053658687, 0.06572486, -1489206.0, 28163.3, 0.0015916337, 9.999108, 10.000588 
1.3450845e+3, 1.5516606e+2, -1585078.0, -1429048.6, -4498.855, -0.046627726, -0.06931623, -1428919.0, -9547.778, 0.0003501717, 9.998532, 10.00062 
1.3450837e+3, 1.6516691e+2, -1479489.9, -1306710.8, 9815.663, -0.05629756, -0.047198165, -1306154.9, 15206.801, 0.000020254476, 9.998487, 10.000811 
1.3450828e+3, 1.7516874e+2, -1312119.1, -1164157.9, -2906.468, -0.06774223, 0.009608363, -1164100.8, 59242.363, 0.0000000014653116, 9.998927, 10.000898 
1.3450827e+3, 1.8516922e+2, -1263737.3, -1238705.6, 42228.848, -0.047730263, 0.04105406, -1207176.9, -81837.914, 0.0, 9.999209, 9.999584 
1.3450834e+3, 1.9516806e+2, -1125624.0, -1109821.4, 36067.293, 0.028982835, -0.07646335, -1080800.1, -53447.87, 0.0, 9.999438, 9.999682 
1.3450824e+3, 2.0516744e+2, -974477.56, -1026753.2, -1114.3828, 0.02383601, -0.07870871, -974453.8, -45095.4, 0.0, 9.99999, 9.999309 
1.3450797e+3, 2.1516718e+2, -744682.4, -848997.9, -19296.29, -0.076218046, -0.08412303, -741227.4, 90132.516, 0.0, 10.000836, 9.999441 
1.3450778e+3, 2.2516659e+2, -618683.7, -808493.0, 15707.956, -0.14366172, -0.046002414, -617392.56, 115973.6, 0.0, 10.001335, 9.998816 
1.3450767e+3, 2.3516546e+2, -480391.84, -672177.2, -16383.939, -0.15960774, -0.08415167, -479002.25, 156377.25, 0.0, 10.001541, 9.998971 
1.3450772e+3, 2.4516496e+2, -341133.56, -541974.5, 41215.184, -0.10062133, -0.031777807, -333004.7, 204380.19, 0.0, 10.001749, 9.9991045 
1.345079e+3, 2.5516468e+2, -206926.64, -413520.16, 15574.603, 0.026207281, -0.013947136, -205759.11, 233626.77, 0.0, 10.00195, 9.999213 
1.3450786e+3, 2.6516393e+2, -187546.19, -485669.56, -43986.64, 0.022288837, 0.059952915, -181191.63, 160202.19, 0.000000062099474, 10.001983, 9.998024 
1.3450761e+3, 2.751623e+2, -88812.01, -376414.03, -71920.97, -0.10246167, 0.048743878, -71829.445, 171583.03, 0.0000065347235, 10.001925, 9.998133 
1.3450746e+3, 2.8516027e+2, -18355.979, -414020.88, -62002.207, -0.11249018, 0.094586544, -8867.538, 136568.52, 0.00008986311, 10.002255, 9.997043 
1.345074e+3, 2.951579e+2, 192865.92, -242240.17, -72174.14, -0.010085957, 0.09411149, 204525.52, 251989.05, 0.00041373618, 10.002957, 9.997203 
1.3450727e+3, 3.0515602e+2, 302610.0, -143723.47, 14992.423, -0.070482716, 0.1877802, 303113.03, 303113.03, 0.001115336, 10.003285, 9.997402 
1.345074e+3, 3.151537e+2, 429492.3, 150759.72, -50988.652, 0.065790296, 0.14671685, 438526.88, 438526.88, 0.0021558118, 10.003087, 9.999511 
1.3550837e+3, 1.2516464e+2, -1914758.4, -1656787.8, -164146.69, -0.26810613, 0.08978491, -1577011.5, 136382.58, 0.0072628423, 9.997889, 10.001399 
1.3550854e+3, 1.3516614e+2, -1659175.3, -1495278.5, -3757.8186, -0.025931275, 0.09837034, -1495192.4, 120184.32, 0.004152666, 9.999114, 10.00123 
1.3550848e+3, 1.4516656e+2, -1595302.8, -1469785.8, -30096.865, -0.014626081, 0.048132516, -1462942.1, 54427.19, 0.0016872559, 9.9990635, 10.000757 
1.3550828e+3, 1.551664e+2, -1569849.8, -1398300.8, -8024.256, -0.09797953, -0.09168389, -1397926.3, 21441.207, 0.0003769789, 9.998532, 10.000832 
1.355082e+3, 1.6516697e+2, -1471169.8, -1291189.9, 5916.3145, -0.12050158, -0.114399135, -1290995.5, 30363.492, 0.000023370363, 9.998491, 10.000917 
1.3550813e+3, 1.7516795e+2, -1314234.6, -1156264.5, 28411.242, -0.14757295, -0.15123986, -1151310.1, 72037.586, 0.0000000068048798, 9.99887, 10.000982 
1.3550816e+3, 1.8516894e+2, -1256990.6, -1201983.9, 32343.453, -0.1109391, -0.08833321, -1187031.0, -61692.188, 0.0, 9.99912, 9.999875 
1.355083e+3, 1.9516961e+2, -1123165.3, -1077314.9, 62590.555, 0.014429152, -0.0514811, -1033583.1, -6248.137, 0.0, 9.999322, 9.99996 
1.3550827e+3, 2.0517033e+2, -1004290.4, -1049890.0, 10848.05, 0.038140472, 0.06863547, -1001841.2, -72510.195, 0.0, 9.999825, 9.999228 
1.3550812e+3, 2.151708e+2, -786337.75, -880488.7, 25553.027, -0.03003687, 0.14581923, -779849.6, 51479.594, 0.0, 10.000596, 9.999342 
1.3550799e+3, 2.2516944e+2, -689186.3, -888477.06, 1801.7495, -0.09521816, 0.13251474, -689170.0, 44172.99, 0.0, 10.001055, 9.998399 
1.3550785e+3, 2.351661e+2, -545081.75, -749277.75, 7885.408, -0.15182255, -0.08767926, -544777.7, 90596.15, 0.0, 10.0013, 9.998554 
1.355079e+3, 2.451648e+2, -394890.06, -597095.06, 31155.69, -0.11216501, -0.07898566, -390198.44, 147186.98, 0.0, 10.001506, 9.998845 
1.3550809e+3, 2.5516513e+2, -258376.48, -464169.53, 42062.56, 0.0071962806, 0.020502264, -250111.17, 189270.42, 0.0, 10.001712, 9.9989805 
1.3550805e+3, 2.6516408e+2, -231681.23, -529162.56, -63118.09, -0.016643059, 0.0841067, -218843.2, 122549.82, 0.000000036385206, 10.00177, 9.997831 
1.3550778e+3, 2.7516133e+2, -140106.19, -426537.4, -50482.742, -0.1583882, -0.016813498, -131469.17, 111953.5, 0.0000068750182, 10.001686, 9.997905 
1.3550766e+3, 2.8515917e+2, -25410.547, -380256.88, -53004.016, -0.1729332, 0.013280883, -17662.426, 127784.03, 0.00009120505, 10.002051, 9.99737 
1.3550767e+3, 2.9515752e+2, 174504.58, -217507.83, -21783.178, -0.07691314, 0.05226584, 175711.3, 223176.64, 0.00041573873, 10.0026865, 9.997504 
1.3550757e+3, 3.0515632e+2, 235936.52, -215673.6, -7684.78, -0.1264916, 0.2155554, 236067.25, 236067.25, 0.0011165407, 10.003022, 9.997026 
1.3550767e+3, 3.1515387e+2, 288746.88, -33930.49, 9662.763, -0.03956357, 0.20642024, 289035.97, 289035.97, 0.0021572434, 10.002651, 9.998441 
1.3650803e+3, 1.2516573e+2, -1915683.4, -1659569.1, 44687.27, -0.37472907, 0.09543899, -1651996.0, 61386.934, 0.0076198755, 9.997858, 10.001401 
1.3650846e+3, 1.3516693e+2, -1764119.9, -1573148.0, 59328.313, 0.055751998, 0.08980351, -1556217.6, 59150.7, 0.004366158, 9.998459, 10.001031 
1.3650829e+3, 1.4516738e+2, -1694860.0, -1513257.5, 9839.596, -0.060645, 0.04995924, -1512726.0, 4635.216, 0.0017823466, 9.998361, 10.000789 
1.3650817e+3, 1.5516755e+2, -1572461.1, -1393716.8, -10322.133, -0.06354737, -0.059624083, -1393122.6, 26233.605, 0.0004035849, 9.998499, 10.000867 
1.3650814e+3, 1.65168e+2, -1458563.3, -1323760.3, 37721.15, -0.04434306, -0.08171878, -1313922.9, 7426.9507, 0.000026350568, 9.9987335, 10.000584 
1.3650808e+3, 1.7516841e+2, -1304243.6, -1184472.0, -10009.324, -0.09215238, -0.14270043, -1183641.3, 39703.418, 0.000000016360648, 9.999081, 10.000691 
1.3650814e+3, 1.851692e+2, -1183571.5, -1156804.8, 14490.851, -0.07037134, -0.08629446, -1150462.5, -25124.904, 0.0, 9.999599, 9.999948 
1.365083e+3, 1.951701e+2, -967910.4, -986178.0, -7136.1006, 0.0386626, -0.038762607, -965453.25, 61877.973, 0.0, 10.000347, 10.000079 
1.3650833e+3, 2.05171e+2, -894291.1, -986822.2, -36513.24, 0.06866742, 0.088862754, -881618.4, 47706.977, 0.0, 10.000523, 9.999334 
1.365082e+3, 2.1517166e+2, -841248.44, -896331.5, -40093.258, 0.019382935, 0.17654556, -820148.4, 11174.314, 0.0, 10.00016, 9.9994545 
1.3650812e+3, 2.2517048e+2, -722295.7, -884584.9, 29178.98, -0.033053674, 0.16495629, -717208.9, 16125.002, 0.0, 10.000741, 9.998574 
1.3650808e+3, 2.3516728e+2, -404336.34, -669206.56, 37430.355, -0.09371311, -0.05761639, -399148.47, 236212.3, 0.0, 10.002197, 9.998681 
1.3650812e+3, 2.4516559e+2, -316279.97, -618939.4, 56867.563, -0.07135553, -0.06663452, -305947.7, 231428.36, 0.0, 10.002306, 9.998304 
1.3650824e+3, 2.55165e+2, -365722.03, -574148.2, 6594.2827, 0.015777083, -0.0021992147, -365513.63, 73869.58, 0.0, 10.001223, 9.998459 
1.365082e+3, 2.651637e+2, -302667.4, -558615.06, -25397.191, -0.015162249, 0.05640348, -300171.63, 41226.297, 0.000000033203506, 10.001265, 9.997874 
1.3650797e+3, 2.7516136e+2, -21034.035, -356253.97, -31825.6, -0.15419684, -0.012518957, -18039.285, 225383.53, 0.0000069323874, 10.002458, 9.998011 
1.3650791e+3, 2.8515926e+2, 113480.09, -297537.03, 1017.1529, -0.15583707, 0.012731053, 113482.61, 258926.94, 0.00008948749, 10.002973, 9.99748 
1.36508e+3, 2.9515734e+2, 231674.56, -170803.8, -23593.703, -0.018732607, 0.016120113, 233052.92, 280516.78, 0.00040625758, 10.003014, 9.99766 
1.3650793e+3, 3.0515587e+2, 233948.72, -198700.58, 26891.898, -0.050862655, 0.13652174, 235613.81, 235613.81, 0.0010893871, 10.0029335, 9.9972 
1.3650799e+3, 3.1515378e+2, 242113.45, -92500.34, 29725.158, 0.023855058, 0.1605995, 244733.55, 244733.55, 0.00210587, 10.00244, 9.998184 
1.3750812e+3, 1.2516575e+2, -1951244.5, -1722761.9, 214938.66, -0.14898029, -0.13984512, -1593590.5, 119779.89, 0.0079810945, 9.997845, 10.0009575 
1.3750823e+3, 1.3516769e+2, -1814550.9, -1677073.4, 82644.234, -0.07520168, -0.002383196, -1638317.5, -22962.857, 0.0045821774, 9.998456, 10.00031 
1.3750799e+3, 1.4516889e+2, -1701331.6, -1531915.9, -15700.028, -0.24031849, 0.07486149, -1530473.3, -13128.849, 0.0018779465, 9.998376, 10.000659 
1.3750805e+3, 1.5516952e+2, -1582649.5, -1418187.1, 11490.719, -0.07344064, 0.021750396, -1417388.1, 1949.7162, 0.00043006244, 9.998505, 10.000701 
1.3750811e+3, 1.6516995e+2, -1511022.3, -1431175.9, 29113.135, 0.019197168, 0.04814029, -1421688.1, -100354.03, 0.000029160963, 9.998723, 9.999855 
1.3750806e+3, 1.7517015e+2, -1356925.9, -1287801.3, 20177.133, -0.038747787, 0.036106225, -1282342.6, -59009.023, 0.000000027808229, 9.999044, 10.000005 
1.3750812e+3, 1.8517008e+2, -1200630.0, -1178479.9, 23898.908, -0.07004286, 0.045556806, -1163214.6, -37879.57, 0.0, 9.999548, 9.999821 
1.3750829e+3, 1.9516934e+2, -1000627.8, -1020900.06, 33309.965, -0.030526763, -0.05345371, -975945.94, 51396.348, 0.0, 10.000204, 9.999912 
1.375083e+3, 2.051694e+2, -892618.9, -941946.06, -67408.125, -0.03341842, -0.02259972, -845504.0, 83838.51, 0.0, 10.000344, 9.99973 
1.3750815e+3, 2.1516995e+2, -849043.9, -859214.0, -34166.992, -0.07025907, 0.016012583, -819585.6, 11752.868, 0.0, 9.999928, 9.999824 
1.3750815e+3, 2.2516994e+2, -714471.75, -802403.06, 67762.46, -0.103803776, 0.068749, -677661.6, 55675.023, 0.0, 10.000465, 9.999269 
1.3750829e+3, 2.3516905e+2, -402123.16, -592931.0, 109296.01, -0.13035917, 0.009682199, -352449.44, 282890.3, 0.0, 10.001902, 9.99934 
1.3750832e+3, 2.4516729e+2, -415149.66, -767192.75, -5833.775, -0.12189493, 0.0050390097, -415053.0, 122304.28, 0.0, 10.00205, 9.997415 
1.3750829e+3, 2.5516447e+2, -458853.22, -716996.6, -16634.08, -0.07734114, -0.06763221, -457785.78, -18395.838, 0.0, 10.001002, 9.997587 
1.3750826e+3, 2.6516297e+2, -305920.0, -523960.28, 3793.339, -0.11508218, 0.00055894797, -305854.0, 35553.18, 0.000000022673568, 10.001081, 9.998199 
1.3750817e+3, 2.7516225e+2, -32703.654, -324994.2, 32513.207, -0.23312798, 0.06015807, -29130.693, 214283.45, 0.0000066245593, 10.002227, 9.998332 
1.375082e+3, 2.8516042e+2, 87902.414, -316583.03, -16658.963, -0.20329042, 0.097147115, 88587.36, 234018.44, 0.00008473701, 10.002812, 9.99743 
1.3750833e+3, 2.951575e+2, 190812.33, -194734.61, 2841.4063, -0.013792344, 0.002348291, 190833.28, 238291.44, 0.00038290335, 10.0027485, 9.997626 
1.3750827e+3, 3.0515474e+2, 246258.22, -124549.805, 793.4396, -0.02389342, -0.035794154, 246259.92, 246259.92, 0.0010283956, 10.002729, 9.997797 
1.3750818e+3, 3.1515294e+2, 201165.13, -55042.918, 84114.68, -0.07251742, -0.041916758, 226312.28, 226312.28, 0.0019973381, 10.001952, 9.9986515 
1.3850798e+3, 1.2516569e+2, -1969087.1, -1742663.9, 152618.92, -0.05774331, -0.16239259, -1665850.8, 47516.574, 0.008351057, 9.997782, 10.000853 
1.3850799e+3, 1.3516739e+2, -1840484.0, -1676475.6, -35191.375, -0.119211994, -0.05368432, -1669243.5, -53887.95, 0.004803759, 9.998235, 10.000429 
1.3850792e+3, 1.4516889e+2, -1717626.3, -1537494.6, -55136.453, -0.13490918, 0.04634732, -1521957.9, -4614.1636, 0.0019753822, 9.998248, 10.000692 
1.3850792e+3, 1.5517001e+2, -1541813.6, -1391890.6, -53790.434, -0.051563498, 0.040104993, -1374588.1, 44745.32, 0.00045665295, 9.99876, 10.000764 
1.3850799e+3, 1.6517065e+2, -1476941.8, -1421156.3, 33286.32, 0.03338191, 0.08800136, -1405621.1, -84292.54, 0.00003186285, 9.999024, 9.99976 
1.3850807e+3, 1.7517073e+2, -1350745.9, -1293149.1, 28592.69, 0.04919964, 0.071606554, -1281365.6, -58035.914, 0.000000039188958, 9.999145, 9.999909 
1.3850814e+3, 1.8517052e+2, -1270925.3, -1227248.4, 93807.016, 0.020604711, 0.07632103, -1152771.4, -27438.559, 0.0, 9.999099, 9.999722 
1.3850825e+3, 1.9516972e+2, -1162359.1, -1102778.5, 82379.62, -0.03230294, -0.020850029, -1044968.2, -17627.8, 0.0, 9.999092, 9.999894 
1.3850826e+3, 2.051694e+2, -1001460.6, -1011171.2, 5013.4243, -0.063097246, -0.021489616, -999336.75, -69993.18, 0.0, 9.999683, 9.999562 
1.3850819e+3, 2.151692e+2, -706903.6, -803410.94, -39112.51, -0.07053443, -0.043062422, -693042.9, 138302.28, 0.0, 10.000969, 9.999696 
1.3850825e+3, 2.2516914e+2, -599095.75, -748789.25, 52045.445, -0.0790688, 0.009989444, -582779.1, 150564.56, 0.0, 10.001241, 9.999274 
1.3850845e+3, 2.351689e+2, -572162.6, -673659.06, 12078.251, -0.09099499, 0.012926071, -570745.1, 64597.28, 0.0, 10.000705, 9.999373 
1.385085e+3, 2.4516752e+2, -582167.94, -821606.0, -66115.48, -0.08228647, 0.035896458, -565124.75, -27768.566, 0.0, 10.000797, 9.997637 
1.3850842e+3, 2.551649e+2, -361713.3, -646794.56, -37342.902, -0.06562389, -0.0395129, -356902.94, 82483.18, 0.0, 10.001557, 9.9978 
1.3850841e+3, 2.651633e+2, -162822.47, -461327.56, 73884.94, -0.09523841, 0.009411601, -145535.81, 195868.0, 0.0000000049794013, 10.002091, 9.998146 
1.3850845e+3, 2.7516222e+2, 8759.421, -313599.47, 37386.066, -0.17223173, 0.04162702, 13038.525, 256452.36, 0.0000064670485, 10.0025215, 9.998282 
1.3850853e+3, 2.8516042e+2, 63527.625, -317636.34, -16074.147, -0.12914072, 0.08032217, 64204.29, 209634.03, 0.00007994395, 10.0025835, 9.997552 
1.3850863e+3, 2.951578e+2, 167125.83, -182307.52, -25338.006, 0.037280403, -0.00098763, 168953.58, 216406.72, 0.00035496187, 10.002469, 9.997852 
1.385086e+3, 3.0515444e+2, 267193.84, -140920.78, -7752.292, 0.034146093, -0.09967477, 267341.03, 267341.03, 0.00095268304, 10.002979, 9.997565 
1.3850853e+3, 3.1515238e+2, 473393.56, 66147.03, -39362.727, -0.0036382885, -0.10740488, 477163.3, 477163.3, 0.001860375, 10.00383, 9.998586 
1.3950765e+3, 1.2516446e+2, -1957357.9, -1709241.8, -39136.906, -0.23554175, -0.06166881, -1703214.9, 10168.992, 0.008733579, 9.997762, 10.0010805 
1.3950776e+3, 1.3516593e+2, -1773032.3, -1531026.5, -18975.945, -0.22708626, -0.08187269, -1529547.6, 85824.38, 0.005033633, 9.998217, 10.001432 
1.3950804e+3, 1.4516748e+2, -1696618.8, -1500940.3, -64777.883, 0.0989444, -0.039385952, -1481439.4, 35918.664, 0.002076125, 9.998277, 10.000931 
1.3950773e+3, 1.5516916e+2, -1529381.8, -1361399.3, -16681.158, -0.15571564, -0.011765086, -1359758.8, 59583.285, 0.00048381835, 9.998739, 10.000983 
1.3950774e+3, 1.6517001e+2, -1447909.5, -1361250.5, 15758.472, -0.15935956, 0.02572551, -1358473.9, -37139.875, 0.000034571214, 9.999025, 10.000172 
1.3950801e+3, 1.751699e+2, -1338698.8, -1248098.3, 45462.594, 0.052581567, -0.045626458, -1229219.4, -5883.86, 0.00000005013657, 9.999062, 10.000259 
1.3950811e+3, 1.8517047e+2, -1262589.4, -1200966.6, 70513.2, 0.056462772, 0.012183483, -1154827.0, -29495.777, 0.0, 9.99906, 9.99992 
1.395081e+3, 1.9517139e+2, -1170899.0, -1092254.0, 97009.62, -0.106601715, 0.06645547, -1026900.2, 424.17712, 0.0, 9.998965, 10.000032 
1.3950817e+3, 2.0517103e+2, -1073114.4, -1124932.3, 34262.484, -0.16505268, 0.09552127, -1056067.6, -126739.6, 0.0, 9.999531, 9.998853 
1.3950826e+3, 2.151693e+2, -795492.56, -928204.0, 22610.365, -0.12243857, -0.009578941, -791746.1, 39597.555, 0.0, 10.000719, 9.998957 
1.3950837e+3, 2.2516805e+2, -667084.7, -843949.8, 15907.623, -0.109539226, -0.010916273, -665665.3, 67690.21, 0.0, 10.001026, 9.998727 
1.3950852e+3, 2.3516704e+2, -640458.7, -766873.94, 13164.893, -0.10872709, -0.03437438, -639102.25, -3736.1907, 0.0, 10.000485, 9.998841 
1.3950859e+3, 2.4516658e+2, -530409.7, -657387.6, -54011.742, -0.1002773, 0.042009078, -510543.3, 26826.922, 0.0, 10.000557, 9.998879 
1.3950859e+3, 2.5516626e+2, -320920.94, -494748.88, 9272.186, -0.079325244, 0.07606698, -320427.75, 118944.53, 0.0, 10.00128, 9.998972 
1.3950866e+3, 2.6516458e+2, -228248.9, -548756.1, 72791.664, -0.08563178, 0.086208105, -212491.58, 128897.22, 0.0000000011462398, 10.001877, 9.997652 
1.395088e+3, 2.7516145e+2, -61351.016, -401356.22, 73892.836, -0.108186096, -0.04572327, -45986.316, 197434.2, 0.0000063015364, 10.002269, 9.997804 
1.3950886e+3, 2.851595e+2, 45018.055, -299676.56, -38518.406, -0.08935044, -0.008778167, 49269.902, 194708.25, 0.000075522126, 10.002346, 9.997786 
1.3950884e+3, 2.9515818e+2, 137404.11, -177618.84, -4882.8477, -0.027216546, 0.02456125, 137479.78, 184927.94, 0.00033164787, 10.002193, 9.9980135 
1.3950887e+3, 3.0515492e+2, 168187.88, -299305.06, 7155.5215, -0.025738467, -0.02404691, 168297.38, 168297.38, 0.0008920203, 10.002771, 9.996578 
1.3950892e+3, 3.1515267e+2, 363311.75, -39255.348, 47291.79, -0.052646488, 0.039927755, 368792.75, 368792.75, 0.0017485601, 10.003325, 9.9980955 
1.4050762e+3, 1.251651e+2, -2019643.5, -1744549.1, 94907.8, -0.0030192148, -0.009950883, -1714983.4, -1603.3435, 0.009133226, 9.997321, 10.001055 
1.4050762e+3, 1.351663e+2, -1757478.3, -1512772.9, 92929.82, -0.16183037, -0.07017764, -1481482.6, 133885.56, 0.005275387, 9.998247, 10.001552 
1.4050789e+3, 1.4516744e+2, -1640211.6, -1500292.8, 38091.008, 0.12688251, -0.06824383, -1490595.1, 26762.785, 0.0021822979, 9.998795, 10.000676 
1.4050762e+3, 1.5516897e+2, -1455918.9, -1358081.1, 3638.6165, -0.15678968, -0.025472004, -1357946.0, 61398.28, 0.00051218417, 9.999391, 10.000688 
1.4050764e+3, 1.6516978e+2, -1394883.1, -1326010.8, 21517.42, -0.16787139, 0.017324526, -1319840.9, 1495.807, 0.000037386584, 9.9993305, 10.000271 
1.4050794e+3, 1.7516975e+2, -1338193.9, -1228722.9, -1394.0289, 0.08246157, -0.06331588, -1228705.1, -5368.9805, 0.00000006103049, 9.998975, 10.000433 
1.4050807e+3, 1.8517047e+2, -1253293.3, -1221928.9, 62481.734, 0.09909929, 0.011650058, -1173191.4, -47860.566, 0.0, 9.9992485, 9.999678 
1.4050807e+3, 1.9517161e+2, -998294.8, -1031199.2, 20180.686, -0.100946456, 0.11081059, -988709.8, 38613.88, 0.0, 10.000253, 9.999827 
1.4050816e+3, 2.0517133e+2, -915107.06, -1041360.2, 10209.544, -0.15690339, 0.15137877, -914286.8, 15040.118, 0.0, 10.000578, 9.998933 
1.4050835e+3, 2.1516946e+2, -822863.7, -924953.8, 24835.146, -0.087999955, 0.023671448, -817142.7, 14199.437, 0.0, 10.000463, 9.999105 
1.405085e+3, 2.2516795e+2, -765987.7, -926268.5, 68715.28, -0.059148353, 0.0050467923, -740561.7, -7204.8647, 0.0, 10.000514, 9.998404 
1.4050864e+3, 2.3516648e+2, -619423.9, -782307.6, 45569.484, -0.06051758, -0.03166284, -607541.8, 27831.654, 0.0, 10.000753, 9.998598 
1.4050871e+3, 2.451659e+2, -415680.44, -582074.1, 16137.083, -0.060121257, 0.03309757, -414129.9, 123248.93, 0.0, 10.001252, 9.999065 
1.4050876e+3, 2.551658e+2, -191785.1, -405483.0, -28327.186, -0.06979128, 0.06800523, -188093.89, 251282.88, 0.0, 10.002055, 9.99921 
1.4050888e+3, 2.651642e+2, -190624.42, -542870.94, 22347.756, -0.070392035, 0.08271456, -189212.27, 152179.8, 0.0000000047036606, 10.002192, 9.9975395 
1.4050904e+3, 2.751612e+2, -140414.89, -444964.9, 4783.227, -0.054472573, -0.023014074, -140339.78, 103084.16, 0.000006310061, 10.00177, 9.997737 
1.4050911e+3, 2.851592e+2, 9899.857, -315017.72, -46071.1, -0.040709596, 0.011001344, 16306.117, 161748.55, 0.00007178299, 10.002094, 9.997796 
1.4050911e+3, 2.9515752e+2, 259443.64, -123584.06, -61743.61, -0.027691234, 0.0069914837, 269150.63, 316605.72, 0.0003183702, 10.003047, 9.997978 
1.4050919e+3, 3.0515444e+2, 245713.42, -292443.25, 6867.0674, 0.0022252123, -0.0041104574, 245801.05, 245801.05, 0.0008620041, 10.003437, 9.996302 
1.4050932e+3, 3.1515247e+2, 378075.72, -12632.925, 23976.215, 0.031886335, 0.109831035, 379541.56, 379541.56, 0.0016920328, 10.003323, 9.998289 
1.4150734e+3, 1.2516744e+2, -2015917.1, -1748790.5, -5441.619, -0.09969393, -0.046178784, -1748679.8, -35322.5, 0.009556688, 9.997359, 10.001019 
1.415076e+3, 1.3516872e+2, -1817022.6, -1625034.9, 141294.88, -0.052457783, -0.020183502, -1550210.0, 65132.62, 0.0055341963, 9.998209, 10.000797 
1.4150748e+3, 1.4516866e+2, -1692315.3, -1617262.3, 35168.02, -0.23195587, -0.06005814, -1603358.9, -86014.88, 0.0022969088, 9.998829, 9.999857 
1.4150757e+3, 1.5516934e+2, -1523053.0, -1492613.6, 38971.168, -0.18770964, -0.009836427, -1465995.6, -46654.633, 0.0005425403, 9.99937, 9.999775 
1.4150766e+3, 1.6517001e+2, -1389115.5, -1320566.1, -17114.313, -0.13606296, 0.06368671, -1316530.9, 4804.692, 0.000040406845, 9.999353, 10.000304 
1.4150779e+3, 1.7517047e+2, -1347680.0, -1231964.1, 1789.5762, 0.0034679286, 0.030568082, -1231936.5, -8606.808, 0.00000007226826, 9.998902, 10.000453 
1.4150794e+3, 1.8517068e+2, -1307647.9, -1321901.6, 81865.234, -0.000019810113, 0.087760724, -1232599.9, -107269.89, 0.0, 9.999197, 9.999013 
1.4150809e+3, 1.9517039e+2, -1067364.3, -1143511.6, 71505.17, -0.14800774, 0.113237284, -1024428.06, 2910.6497, 0.0, 10.000119, 9.999121 
1.4150824e+3, 2.0517017e+2, -870220.5, -913127.75, -17017.78, -0.18051544, 0.1464914, -864290.5, 65050.535, 0.0, 10.00042, 9.99989 
1.4150842e+3, 2.1516971e+2, -795978.7, -813611.56, 36160.684, -0.08950942, 0.06614648, -767575.2, 63764.996, 0.0, 10.000215, 9.999995 
1.4150856e+3, 2.2516872e+2, -807559.9, -952890.06, 57398.652, -0.059627637, 0.059001, -787624.6, -54276.316, 0.0, 10.00026, 9.998339 
1.415087e+3, 2.3516704e+2, -669811.3, -822559.6, 70259.02, -0.07807679, 0.010050508, -642410.06, -7043.2783, 0.0, 10.000484, 9.998448 
1.4150882e+3, 2.4516545e+2, -495595.34, -702490.3, 31657.273, -0.12044779, 0.020795971, -490859.8, 46522.316, 0.0, 10.001045, 9.99834 
1.4150888e+3, 2.551636e+2, -269939.34, -523876.97, 20888.809, -0.18151629, -0.049298666, -268232.5, 171165.53, 0.0, 10.001859, 9.998492 
1.41509e+3, 2.651623e+2, -210380.11, -533473.3, -11563.305, -0.18817694, 0.017671958, -209966.78, 131445.3, 0.000000079284355, 10.001979, 9.997705 
1.4150916e+3, 2.751613e+2, -170345.9, -447436.66, 12832.712, -0.14996003, 0.098718934, -169752.88, 73673.125, 0.000007370644, 10.001517, 9.997842 
1.4150926e+3, 2.851593e+2, -22723.158, -337043.63, -25823.666, -0.1424173, 0.13091408, -20615.691, 124828.92, 0.00007207351, 10.001895, 9.99774 
1.4150934e+3, 2.9515573e+2, 210869.19, -162171.6, -847.38983, -0.1257627, -0.057502083, 210871.11, 258345.16, 0.00031938194, 10.002772, 9.997848 
1.4150952e+3, 3.0515286e+2, 216741.03, -282850.75, -7346.0947, -0.046902727, -0.049385574, 216849.02, 216849.02, 0.00086451345, 10.003163, 9.996481 
1.4150967e+3, 3.1515175e+2, 336896.06, 30029.652, 69125.3, -0.015871422, 0.12444519, 351748.5, 351748.5, 0.0016914787, 10.002816, 9.998801 
1.4250714e+3, 1.2516819e+2, -1817996.0, -1681487.8, -32534.46, -0.099068135, -0.020494238, -1674130.3, 39222.69, 0.010011913, 9.998877, 10.000748 
1.4250754e+3, 1.3516918e+2, -1816880.9, -1684666.9, -24346.158, 0.072597064, 0.040649373, -1680326.3, -64985.145, 0.0058154534, 9.998506, 10.000237 
1.4250724e+3, 1.451686e+2, -1774287.3, -1648228.9, -41440.48, -0.30487466, -0.025698408, -1635826.0, -118479.63, 0.002423067, 9.998235, 9.999928 
1.4250751e+3, 1.5516879e+2, -1708140.1, -1573146.0, -9277.353, -0.112788305, -0.032548, -1572511.4, -153165.55, 0.00057589856, 9.998069, 9.99984 
1.4250761e+3, 1.6516925e+2, -1511002.4, -1411369.1, 12243.28, -0.059521846, 0.03016446, -1409886.6, -88545.02, 0.00004378684, 9.998654, 10.000009 
1.4250769e+3, 1.751698e+2, -1173823.6, -1176069.4, -30329.246, -0.040597387, 0.029193364, -1144596.5, 78739.164, 0.00000008454083, 10.000211, 10.000197 
1.4250787e+3, 1.8516971e+2, -1147018.9, -1243613.4, 76047.836, -0.033888828, 0.067417994, -1105227.9, 20110.365, 0.0, 10.000283, 9.999031 
1.425081e+3, 1.951689e+2, -1207471.9, -1202512.1, 88771.49, -0.07257348, 0.035903256, -1116185.9, -88835.46, 0.0, 9.999122, 9.999195 
1.4250831e+3, 2.0516875e+2, -1053986.5, -1011951.25, 51249.51, -0.073243774, 0.07870519, -977577.06, -48224.426, 0.0, 9.999199, 9.999797 
1.425085e+3, 2.1516886e+2, -753578.2, -803623.7, -8838.355, -0.025061438, 0.064271495, -752063.1, 79286.11, 0.0, 10.000531, 9.999914 
1.4250867e+3, 2.2516826e+2, -666497.06, -863363.1, 4217.16, -0.02119742, 0.08854464, -666406.75, 66947.625, 0.0, 10.001131, 9.998543 
1.4250879e+3, 2.351668e+2, -553196.56, -741593.06, 6039.8867, -0.06627035, 0.043954708, -553003.2, 82365.88, 0.0, 10.001168, 9.998687 
1.4250892e+3, 2.451651e+2, -497021.5, -725202.94, 44153.94, -0.112208076, 0.040680274, -488775.53, 48609.746, 0.0, 10.001142, 9.998136 
1.4250904e+3, 2.551628e+2, -378404.7, -598174.8, 32170.309, -0.1599895, -0.053772572, -373792.34, 65613.99, 0.00000000006254562, 10.001206, 9.998299 
1.425092e+3, 2.6516128e+2, -268118.22, -568947.7, 34010.7, -0.15459745, 0.006634973, -264321.03, 77101.29, 0.00000036239143, 10.001606, 9.997638 
1.4250939e+3, 2.7516043e+2, -54320.246, -394039.47, 9815.034, -0.1052693, 0.104048535, -54036.91, 189397.56, 0.000010087366, 10.002314, 9.997822 
1.4250952e+3, 2.8515834e+2, 96666.625, -293710.88, 23315.33, -0.10081549, 0.1302654, 98054.2, 243508.77, 0.00007872079, 10.002769, 9.997628 
1.4250965e+3, 2.9515448e+2, 269430.6, -141926.39, -9997.57, -0.10694696, -0.074169666, 269673.44, 317161.2, 0.00033516844, 10.0032015, 9.997783 
1.4250988e+3, 3.0515206e+2, 269702.22, -250215.95, -3524.2502, -0.01332621, -0.020919286, 269726.13, 269726.13, 0.0008965645, 10.003455, 9.99659 
1.4251e+3, 3.1515053e+2, 413787.63, 75140.56, 4275.146, 0.015851632, 0.09732025, 413841.6, 413841.6, 0.0017444047, 10.003268, 9.998918 
1.4350726e+3, 1.2516859e+2, -1848950.3, -1757482.4, 222498.67, 0.034357715, 0.17688587, -1576066.0, 137288.77, 0.010506618, 9.998917, 10.000209 
1.435074e+3, 1.3516785e+2, -1855250.9, -1758915.0, -18066.477, 0.07052534, 0.11755424, -1755638.3, -140276.28, 0.006123269, 9.998483, 9.999731 
1.4350717e+3, 1.4516746e+2, -1687241.5, -1481327.5, -68087.27, -0.26049227, 0.032868415, -1460850.3, 56512.707, 0.002563054, 9.998284, 10.001059 
1.4350739e+3, 1.551676e+2, -1640522.1, -1426439.1, 2116.0295, -0.07560196, -0.08713544, -1426418.3, -7061.8755, 0.0006133788, 9.998036, 10.00087 
1.435075e+3, 1.6516766e+2, -1557650.1, -1505203.1, 47231.563, -0.098228335, -0.079804026, -1477403.5, -156049.94, 0.000047750204, 9.998644, 9.999371 
1.435076e+3, 1.7516752e+2, -1225818.9, -1275175.4, 39502.36, -0.18415092, -0.080881655, -1203919.8, 19436.273, 0.00000010052836, 10.000167, 9.999543 
1.4350781e+3, 1.8516746e+2, -1098650.0, -1126093.1, 9793.777, -0.14536606, -0.04905832, -1095513.4, 29843.244, 0.0, 10.000213, 9.99987 
1.435081e+3, 1.951672e+2, -1171857.4, -1097944.9, 61603.074, -0.016624104, -0.10829299, -1063063.1, -35704.973, 0.0, 9.998991, 9.999976 
1.4350834e+3, 2.0516716e+2, -1150861.1, -1178213.8, 80727.14, 0.0049857777, -0.041800074, -1082660.0, -153298.8, 0.0, 9.999045, 9.998729 
1.4350857e+3, 2.1516699e+2, -867667.56, -983912.7, 56760.434, -0.03801097, 0.022738785, -844549.9, -13181.168, 0.0, 10.000284, 9.9987955 
1.4350875e+3, 2.2516665e+2, -671537.7, -809210.44, -10953.87, -0.091210805, 0.104839094, -670671.6, 62702.41, 0.0, 10.00086, 9.999041 
1.4350884e+3, 2.3516592e+2, -561020.1, -688434.0, 26214.195, -0.15409324, 0.08185122, -555837.6, 79541.54, 0.0, 10.000883, 9.999183 
1.4350902e+3, 2.451648e+2, -514479.56, -704890.5, 25904.414, -0.1731536, 0.09936845, -511018.3, 26370.393, 0.0, 10.000893, 9.998398 
1.4350921e+3, 2.5516307e+2, -404031.4, -585590.0, 52138.305, -0.14197356, 0.037547152, -390124.1, 49280.297, 0.000000006122379, 10.000929, 9.998518 
1.4350943e+3, 2.651611e+2, -306176.66, -603616.7, 44345.1, -0.109902635, 0.05059479, -299706.03, 41717.57, 0.0000008787704, 10.001408, 9.997501 
1.4350969e+3, 2.7515867e+2, -97223.875, -434743.5, 56679.184, -0.06755676, 0.0058878395, -87960.08, 155488.83, 0.000014147242, 10.002103, 9.997652 
1.4350986e+3, 2.8515628e+2, 49716.94, -343954.94, 20607.098, -0.07574317, 0.025398143, 50792.7, 196264.86, 0.000090681104, 10.002563, 9.997379 
1.4350998e+3, 2.951535e+2, 199300.2, -220359.13, 30213.547, -0.13176219, -0.04731219, 201464.28, 248962.36, 0.0003647409, 10.002905, 9.997392 
1.435102e+3, 3.0515197e+2, 249220.9, -224499.56, -26334.209, -0.06297368, 0.10214987, 250680.33, 250680.33, 0.0009617202, 10.003188, 9.996883 
1.4351022e+3, 3.1514904e+2, 336963.13, 31581.781, 45300.063, -0.14916575, 0.049645603, 343541.2, 343541.2, 0.001861219, 10.002787, 9.998849 
1.4450707e+3, 1.2516586e+2, -1907791.0, -1764289.3, 260424.45, 0.014010689, 0.18440643, -1565912.3, 147469.25, 0.011047917, 9.998393, 10.000418 
1.4450711e+3, 1.3516556e+2, -1908006.8, -1736072.0, -50545.977, -0.03695963, 0.11516949, -1722313.4, -106927.7, 0.00646129, 9.997882, 10.000181 
1.445072e+3, 1.4516577e+2, -1690788.9, -1464793.3, -40065.95, -0.040082633, 0.06196061, -1457900.4, 59481.15, 0.0027186894, 9.998199, 10.001195 
1.4450732e+3, 1.5516646e+2, -1468119.3, -1322704.4, -89062.4, 0.021357056, -0.020679906, -1280440.3, 138929.6, 0.0006559602, 9.999132, 10.00105 
1.4450741e+3, 1.6516656e+2, -1454851.9, -1432305.9, 8950.535, -0.06646215, -0.030539215, -1429184.6, -107818.45, 0.000052490832, 9.999254, 9.9995775 
1.4450757e+3, 1.7516595e+2, -1372706.5, -1314064.4, 32942.344, -0.16766769, -0.10101036, -1299284.1, -75912.59, 0.00000012546444, 9.9990425, 9.99981 
1.4450781e+3, 1.8516591e+2, -1209755.9, -1161878.1, 18623.982, -0.11997154, -0.09158002, -1155486.8, -30116.145, 0.0, 9.999354, 10.000047 
1.445081e+3, 1.951661e+2, -982745.4, -983512.44, -12333.933, 0.018854583, -0.12813038, -970789.0, 56577.715, 0.0, 10.000176, 10.00019 
1.4450833e+3, 2.0516619e+2, -955863.44, -1095151.0, 80577.73, 0.035061713, -0.053678, -919003.56, 10364.873, 0.0, 10.000446, 9.998624 
1.445086e+3, 2.1516591e+2, -867128.94, -985590.4, 92251.75, -0.03378826, 0.012234968, -816730.0, 14647.931, 0.0, 10.0003195, 9.998761 
1.445088e+3, 2.2516546e+2, -732100.6, -839266.8, 66511.46, -0.08033243, 0.08567464, -700273.44, 33111.207, 0.0, 10.00044, 9.999042 
1.4450896e+3, 2.3516452e+2, -571776.6, -693822.56, 33836.816, -0.115962565, 0.03927266, -563023.3, 72368.4, 0.0, 10.000793, 9.999192 
1.4450915e+3, 2.4516347e+2, -466391.75, -696353.4, 45682.223, -0.12120534, 0.06915973, -457649.25, 79751.79, 0.0, 10.0012865, 9.998265 
1.4450939e+3, 2.5516203e+2, -244302.38, -525470.06, 9959.504, -0.10068726, 0.050885957, -243950.03, 195465.13, 0.000000012932129, 10.002072, 9.99839 
1.4450967e+3, 2.6516002e+2, -153124.2, -546939.56, 28389.182, -0.07483363, 0.07231851, -151088.22, 190346.88, 0.0000016431604, 10.002542, 9.997343 
1.4450994e+3, 2.7515718e+2, 5426.581, -398406.25, -4064.7227, -0.04269935, 0.008402836, 5467.4897, 248930.39, 0.000019343763, 10.0028715, 9.997525 
1.4451015e+3, 2.851546e+2, 99356.055, -339376.63, -10512.22, -0.05393976, 0.019995915, 99607.79, 245096.52, 0.00010742439, 10.002997, 9.997193 
1.4451028e+3, 2.9515198e+2, 185008.28, -239718.8, -26927.535, -0.096087895, -0.021501584, 186708.67, 234223.38, 0.0004102239, 10.002873, 9.997258 
1.4451055e+3, 3.0515057e+2, 285154.16, -174542.6, -16593.95, -0.023443542, 0.13243501, 285752.38, 285752.38, 0.001066146, 10.003287, 9.997188 
1.4451058e+3, 3.1514734e+2, 530300.56, 116068.71, -38408.023, -0.111745425, 0.016257102, 533831.7, 533831.7, 0.0020519032, 10.004164, 9.998759 
1.4550689e+3, 1.2515955e+2, -1837371.5, -1639800.9, 24249.217, -0.10615903, -0.076511994, -1636868.1, 76569.89, 0.011640448, 9.99847, 10.00124 
1.4550658e+3, 1.3516252e+2, -1820282.6, -1537557.3, -42470.703, -0.38948396, 0.031375855, -1531315.1, 84095.3, 0.0068325973, 9.99781, 10.001585 
1.4550729e+3, 1.4516374e+2, -1754319.0, -1599395.8, -20973.293, 0.1750671, 0.06364346, -1596606.6, -79206.24, 0.0028915813, 9.998211, 10.000263 
1.4550729e+3, 1.5516533e+2, -1527513.9, -1437741.8, -40291.156, 0.025569964, 0.15151283, -1422310.9, -2923.6692, 0.00070428615, 9.9991, 10.000274 
1.4550732e+3, 1.6516595e+2, -1368363.5, -1259522.5, -25099.14, -0.11619418, 0.17218803, -1254013.4, 67366.055, 0.000058062662, 9.999279, 10.000754 
1.4550754e+3, 1.751652e+2, -1303662.8, -1156959.9, 42098.305, -0.12663436, -0.027022792, -1145737.6, 77643.42, 0.00000016567238, 9.998983, 10.000919 
1.455078e+3, 1.8516512e+2, -1245025.3, -1223018.6, 30569.088, -0.10765855, -0.058189437, -1201532.9, -76153.195, 0.0, 9.999301, 9.999657 
1.4550802e+3, 1.9516549e+2, -1032676.06, -1056078.5, 33430.414, -0.09820157, -0.030153444, -1008958.2, 18418.252, 0.0, 10.000037, 9.999767 
1.4550826e+3, 2.0516571e+2, -927911.0, -988708.3, 55429.055, -0.12263113, 0.0394702, -895092.1, 34282.96, 0.0, 10.000247, 9.999447 
1.4550854e+3, 2.151655e+2, -849806.25, -886831.5, 103876.04, -0.14565636, 0.026774334, -762806.06, 68572.24, 0.0, 10.000056, 9.999565 
1.4550883e+3, 2.2516452e+2, -795278.25, -909637.44, 60924.473, -0.1350261, 0.025677009, -768903.7, -35515.42, 0.0, 10.000178, 9.998684 
1.4550908e+3, 2.3516265e+2, -646296.5, -774340.1, 65353.023, -0.09523871, -0.076080725, -618831.6, 16574.637, 0.0, 10.000484, 9.998786 
1.4550933e+3, 2.4516119e+2, -536142.44, -785393.94, 60240.184, -0.112372786, -0.03901309, -522346.88, 15074.598, 0.0, 10.001037, 9.997778 
1.4550956e+3, 2.5515988e+2, -311156.53, -613215.9, 59539.523, -0.1708566, 0.0042026383, -299844.22, 139592.45, 0.000000017460069, 10.00185, 9.997899 
1.4550982e+3, 2.651582e+2, -200546.67, -596996.9, 24777.656, -0.19635105, 0.093749925, -199004.1, 142450.8, 0.000002726617, 10.002331, 9.997099 
1.4551012e+3, 2.751559e+2, -53674.863, -455333.16, 29201.307, -0.18432309, 0.10367159, -51562.977, 191915.1, 0.000025176965, 10.002596, 9.99726 
1.4551036e+3, 2.851532e+2, 64128.527, -349473.53, -31713.61, -0.17697346, 0.115715906, 66546.086, 212051.17, 0.00012773139, 10.002729, 9.997252 
1.4551055e+3, 2.9514986e+2, 156819.4, -242472.89, -5403.67, -0.16380116, -0.0044704266, 156892.53, 204430.42, 0.00046808438, 10.002631, 9.99736 
1.4551088e+3, 3.0514795e+2, 264899.22, -162857.69, 3462.1758, -0.052963868, 0.08090122, 264927.25, 264927.25, 0.00120209, 10.003055, 9.99738 
1.4551102e+3, 3.1514505e+2, 420885.13, -2802.8572, 36189.78, -0.15544437, -0.01826517, 423954.1, 423954.1, 0.0023053363, 10.003694, 9.99817 
1.4650683e+3, 1.2515692e+2, -2137578.5, -1751189.5, -5821.3315, 0.12371002, -0.07316069, -1751101.8, -37637.824, 0.012283002, 9.996295, 10.001513 
1.4650638e+3, 1.3516022e+2, -1753322.0, -1464151.9, -53791.297, -0.37213683, 0.030946344, -1454469.8, 160963.25, 0.00723705, 9.998118, 10.001931 
1.465072e+3, 1.4516117e+2, -1737053.3, -1603197.4, 2446.0518, 0.267707, 0.028923202, -1603152.8, -85726.97, 0.0030819494, 9.998359, 10.000183 
1.4650716e+3, 1.5516293e+2, -1656411.1, -1490814.9, 5829.381, 0.04643659, 0.13100183, -1490609.9, -71198.625, 0.0007585455, 9.998158, 10.000373 
1.4650723e+3, 1.6516401e+2, -1514058.1, -1322234.9, 43815.03, -0.06697189, 0.18446648, -1312700.8, 8699.1875, 0.00006440502, 9.9982395, 10.000824 
1.4650753e+3, 1.7516379e+2, -1322279.0, -1162066.9, -6535.2397, -0.027087715, 0.03184898, -1161800.8, 61596.68, 0.00000022299002, 9.9988165, 10.000969 
1.4650777e+3, 1.851638e+2, -1298438.3, -1246854.9, 1089.388, -0.028742382, 0.012374257, -1246831.9, -121436.516, 0.0, 9.998968, 9.999632 
1.4650796e+3, 1.95164e+2, -1181999.8, -1121417.5, -5165.059, -0.09953245, 0.02097575, -1120980.3, -93586.33, 0.0, 9.999017, 9.999792 
1.465082e+3, 2.0516403e+2, -1063269.1, -1019721.4, 38558.254, -0.13246776, 0.05432896, -997213.8, -67820.836, 0.0, 9.999157, 9.999767 
1.4650854e+3, 2.1516365e+2, -907925.6, -874430.06, 22120.799, -0.113154724, -0.009415368, -863432.25, -32037.256, 0.0, 9.99948, 9.999928 
1.4650886e+3, 2.2516288e+2, -815669.94, -917173.8, 29636.104, -0.09049852, -0.010981793, -807650.7, -74248.4, 0.0, 10.000035, 9.998697 
1.4650917e+3, 2.3516142e+2, -576287.7, -738351.94, 24945.049, -0.0708213, -0.07138654, -572535.0, 62882.133, 0.0, 10.000943, 9.998814 
1.4650947e+3, 2.4515997e+2, -474183.28, -785502.8, 80392.85, -0.08565691, -0.022289414, -454648.94, 82784.21, 0.0, 10.001599, 9.997505 
1.4650978e+3, 2.5515836e+2, -288750.47, -624835.94, 59075.066, -0.139354, 0.015994243, -278669.03, 160782.88, 0.000000044837254, 10.002118, 9.99768 
1.4651008e+3, 2.651563e+2, -183889.61, -578196.0, 61538.67, -0.16464886, 0.07641104, -174508.56, 166964.3, 0.0000038968087, 10.002398, 9.997199 
1.4651039e+3, 2.751536e+2, -61978.047, -450270.88, 61047.438, -0.16239311, 0.039154094, -52606.355, 190892.02, 0.000030518888, 10.002481, 9.997359 
1.4651066e+3, 2.851511e+2, 77831.74, -351820.6, 51172.21, -0.14937034, 0.072008915, 83842.34, 229366.1, 0.00014669454, 10.002857, 9.997179 
1.4651088e+3, 2.9514876e+2, 283440.44, -183928.45, 10206.292, -0.11939266, 0.06243589, 283663.22, 331212.3, 0.00052534003, 10.003525, 9.997326 
1.4651124e+3, 3.0514646e+2, 350735.16, -107099.03, 41739.215, 0.0001061452, 0.10218509, 354509.25, 354509.25, 0.0013448142, 10.003596, 9.997486 
1.4651145e+3, 3.1514332e+2, 289439.06, -81658.016, -2034.9207, -0.038724095, -0.023007838, 289450.22, 289450.22, 0.0025808995, 10.00285, 9.998027 
1.4750645e+3, 1.2515748e+2, -2138798.5, -1767369.8, -167210.36, 0.014363035, 0.15252997, -1703186.0, 10278.031, 0.012969953, 9.996361, 10.001359 
1.4750645e+3, 1.3515866e+2, -1819092.6, -1584212.4, 9006.222, -0.15462062, 0.12102249, -1583867.5, 31585.6, 0.0076708426, 9.998065, 10.001115 
1.4750688e+3, 1.4515801e+2, -1656278.3, -1460020.5, -35775.313, 0.056010723, -0.045799363, -1453702.5, 63755.676, 0.0032881629, 9.998442, 10.001136 
1.4750691e+3, 1.551595e+2, -1592964.8, -1354557.3, 13894.823, -0.0594034, -0.0689572, -1353750.1, 65690.125, 0.00081847684, 9.998133, 10.001326 
1.475071e+3, 1.6516092e+2, -1576023.0, -1461492.0, 44308.875, -0.08008194, 0.022073094, -1446351.6, -124925.62, 0.000071419374, 9.998278, 9.999848 
1.4750746e+3, 1.751619e+2, -1401743.5, -1309978.9, 29831.023, -0.011685918, 0.084581174, -1301133.9, -77714.97, 0.0000002932695, 9.99875, 9.99998 
1.4750771e+3, 1.8516217e+2, -1278507.5, -1207922.9, -17763.121, -0.030483201, 0.12790778, -1203704.8, -78288.414, 0.0, 9.998961, 9.99991 
1.4750788e+3, 1.951616e+2, -1175699.1, -1087592.6, 12608.368, -0.12837133, 0.029437732, -1085823.9, -58403.688, 0.0, 9.998916, 10.000079 
1.4750814e+3, 2.0516112e+2, -1088019.0, -1035521.9, 28966.947, -0.15164696, -0.0023339782, -1022679.9, -93256.98, 0.0, 9.999002, 9.999729 
1.4750855e+3, 2.1516049e+2, -948668.6, -901808.2, 47785.223, -0.087746866, -0.08665301, -872018.06, -40591.297, 0.0, 9.999239, 9.999854 
1.4750889e+3, 2.2516054e+2, -823713.8, -884606.75, 44086.313, -0.09556536, -0.017529765, -800582.4, -67156.33, 0.0, 9.999807, 9.99904 
1.4750917e+3, 2.3516087e+2, -583290.4, -704168.7, 75491.88, -0.17691109, 0.063240774, -547024.2, 88400.0, 0.0, 10.000724, 9.999161 
1.4750955e+3, 2.4515979e+2, -510374.78, -809341.4, 79025.22, -0.19823441, 0.13441885, -490771.6, 46664.56, 0.0, 10.001376, 9.997449 
1.4751e+3, 2.551572e+2, -331765.66, -654779.9, 93886.83, -0.15250626, 0.08022759, -306459.28, 133003.67, 0.000000082863835, 10.001861, 9.997599 
1.475104e+3, 2.6515418e+2, -185863.16, -524784.4, 50259.832, -0.1314019, 0.02178808, -178567.02, 162923.88, 0.0000048986644, 10.002145, 9.997685 
1.4751069e+3, 2.7515033e+2, -61507.395, -393892.13, 90274.88, -0.13307999, -0.18494122, -38571.613, 204952.02, 0.00003489947, 10.002244, 9.997855 
1.4751099e+3, 2.8514847e+2, 9103.654, -440541.94, 57308.293, -0.14147618, -0.08988463, 16292.776, 161836.28, 0.00016199093, 10.00262, 9.996685 
1.4751126e+3, 2.9514843e+2, 208799.23, -271128.3, 56640.44, -0.1481373, 0.17445323, 215393.27, 262944.22, 0.0005773318, 10.003233, 9.996865 
1.475116e+3, 3.051458e+2, 316707.03, -111387.08, -845.56024, -0.033269297, 0.19858047, 316708.72, 316708.72, 0.0014793195, 10.0033045, 9.997598 
1.4751175e+3, 3.1514183e+2, 243900.63, -66724.85, 20183.844, -0.07740275, -0.029499803, 245206.66, 245206.66, 0.0028372656, 10.00238, 9.998354 
1.4850613e+3, 1.2515578e+2, -2065743.0, -1728648.0, -114228.555, 0.057590373, 0.12606977, -1693587.0, 19894.38, 0.013700781, 9.9968195, 10.001416 
1.4850633e+3, 1.3515733e+2, -2041660.3, -1718540.1, 58779.27, 0.005375191, 0.159413, -1708179.8, -92713.31, 0.00813248, 9.9966135, 10.00091 
1.4850657e+3, 1.4515674e+2, -1922384.1, -1588112.6, 55530.25, 0.0028905813, 0.010755115, -1579129.1, -61658.9, 0.0035089266, 9.996662, 10.001092 
1.4850676e+3, 1.5515743e+2, -1555576.4, -1335852.9, -10454.183, -0.023497635, -0.09222995, -1335356.6, 84102.76, 0.0008836724, 9.998409, 10.001306 
1.4850703e+3, 1.6515853e+2, -1475869.8, -1423667.1, 33175.855, -0.008087947, -0.024691865, -1407555.8, -86107.31, 0.00007901186, 9.999057, 9.999722 
1.4850736e+3, 1.7515965e+2, -1382958.9, -1311749.4, 42362.617, 0.01045143, 0.06848571, -1292016.1, -68575.6, 0.00000037325287, 9.998953, 9.999868 
1.4850764e+3, 1.8515994e+2, -1241210.0, -1191530.6, 63336.87, -0.0009038669, 0.1194241, -1148336.8, -22898.52, 0.0, 9.999217, 9.999903 
1.485079e+3, 1.9515933e+2, -1006912.7, -1003977.9, 36011.688, -0.050190173, 0.014838597, -969403.7, 58038.695, 0.0, 10.00006, 10.000103 
1.4850819e+3, 2.051588e+2, -899523.06, -976794.94, 56475.633, -0.06792938, -0.006336215, -869732.2, 59713.93, 0.0, 10.000453, 9.999426 
1.4850856e+3, 2.151582e+2, -788119.75, -853317.5, 20524.05, -0.04875295, -0.05952736, -782196.94, 49254.18, 0.0, 10.00047, 9.99959 
1.485089e+3, 2.2515805e+2, -718049.94, -846807.56, 46568.766, -0.08429779, 0.011079639, -702972.6, 30480.0, 0.0, 10.000591, 9.998915 
1.4850923e+3, 2.3515822e+2, -558930.25, -703098.0, 7587.3853, -0.1898199, 0.08961488, -558532.06, 76920.41, 0.0, 10.000943, 9.999059 
1.485097e+3, 2.4515712e+2, -491186.72, -752686.7, 37161.617, -0.18368633, 0.14101648, -486008.25, 51455.21, 0.0, 10.001298, 9.997881 
1.4851025e+3, 2.5515464e+2, -330826.8, -603987.25, 51698.906, -0.06467177, 0.05724366, -321369.6, 118117.1, 0.00000011463164, 10.001652, 9.99805 
1.485107e+3, 2.6515192e+2, -186049.13, -497731.53, 41127.547, -0.02726244, -0.0056050294, -180713.55, 160797.42, 0.000005857849, 10.002042, 9.997911 
1.4851099e+3, 2.751486e+2, -9084.34, -345714.1, 12079.651, -0.077673614, -0.17820482, -8651.429, 234887.98, 0.000039275426, 10.002517, 9.998051 
1.4851126e+3, 2.8514677e+2, 39534.297, -413462.78, 32859.81, -0.12587847, -0.09288227, 41905.492, 187463.94, 0.00017769585, 10.002773, 9.996798 
1.4851153e+3, 2.951463e+2, 151835.94, -291525.7, 35994.598, -0.15954526, 0.121080376, 154739.17, 202308.27, 0.0006303682, 10.00279, 9.996955 
1.485119e+3, 3.0514342e+2, 262290.8, -141896.55, 11491.248, -0.03390704, 0.11801124, 262617.25, 262617.25, 0.0016042597, 10.002926, 9.997582 
1.4851214e+3, 3.1514052e+2, 356490.16, 31021.496, -70669.02, 0.050764795, 0.0008065049, 371172.2, 371172.2, 0.003054721, 10.002958, 9.998748 
1.4950578e+3, 1.2515242e+2, -2005477.6, -1622112.5, -31396.152, -0.07057892, -0.08434955, -1619558.3, 93952.22, 0.014485426, 9.996905, 10.002103 
1.4950596e+3, 1.3515674e+2, -2019326.1, -1659205.3, 47069.344, -0.053220503, 0.17901754, -1653154.8, -37686.645, 0.008627366, 9.996572, 10.00133 
1.4950623e+3, 1.4515762e+2, -1974454.8, -1734573.4, 87780.35, -0.06341056, 0.20880617, -1705883.1, -188423.58, 0.0037456865, 9.996801, 10.0000305 
1.4950666e+3, 1.551569e+2, -1635995.4, -1502523.4, 68754.734, 0.002087322, 0.075574964, -1473442.4, -53975.445, 0.0009542572, 9.998399, 10.000174 
1.4950697e+3, 1.6515692e+2, -1417534.6, -1317030.1, 7790.6685, -0.020112457, 0.05747311, -1316429.9, 5035.8643, 0.00008722728, 9.999109, 10.000427 
1.495072e+3, 1.7515709e+2, -1342836.8, -1216273.3, 52260.902, -0.09061397, -0.015829323, -1197483.3, 25979.309, 0.0000004647829, 9.998904, 10.000543 
1.4950752e+3, 1.8515724e+2, -1260349.4, -1232776.1, 73263.33, -0.09142986, -0.0000790615, -1172013.6, -46553.285, 0.0, 9.999213, 9.999627 
1.4950795e+3, 1.9515726e+2, -1048778.0, -1060612.3, 80502.2, -0.017098306, -0.011517442, -973975.75, 53484.395, 0.0, 9.9999275, 9.999781 
1.495083e+3, 2.0515716e+2, -959781.94, -1064386.6, 37262.477, -0.031706333, 0.052853614, -947865.7, -18403.764, 0.0, 10.000287, 9.998906 
1.4950857e+3, 2.1515669e+2, -858262.7, -945673.44, 36247.344, -0.114085935, 0.06494148, -845187.56, -13719.39, 0.0, 10.000246, 9.999061 
1.495089e+3, 2.251555e+2, -795716.44, -954861.94, 41002.938, -0.18649481, 0.08580655, -785773.44, -52292.348, 0.0, 10.000353, 9.998293 
1.495093e+3, 2.3515347e+2, -636515.44, -807138.94, 38539.223, -0.25212574, 0.0039684176, -628214.3, 7287.5522, 0.0, 10.000695, 9.998466 
1.4950983e+3, 2.4515201e+2, -466402.66, -642114.7, 37224.49, -0.19558458, 0.0042392686, -458842.0, 78672.52, 0.0, 10.0010395, 9.998765 
1.495105e+3, 2.551507e+2, -304114.1, -497445.44, 86497.21, -0.014558644, -0.053151343, -271064.63, 168458.28, 0.00000015644366, 10.001424, 9.998896 
1.4951095e+3, 2.6514947e+2, -241550.98, -548277.25, 41290.473, 0.0011021006, 0.003761238, -236089.83, 105443.664, 0.000006865855, 10.001772, 9.99769 
1.4951119e+3, 2.7514812e+2, -65114.066, -396042.13, 50122.64, -0.14545138, 0.04973721, -57689.043, 185858.95, 0.00004412461, 10.002246, 9.997831 
1.4951144e+3, 2.8514582e+2, 52450.344, -328215.78, 16543.158, -0.26141828, 0.060084775, 53167.934, 198738.64, 0.00019465707, 10.002517, 9.99751 
1.4951168e+3, 2.9514232e+2, 164059.97, -205041.88, 67531.82, -0.3270172, -0.10083574, 176027.72, 223631.19, 0.0006807664, 10.002522, 9.997681 
1.4951207e+3, 3.0513933e+2, 189201.58, -219358.33, -659.5079, -0.18211359, -0.13146274, 189202.64, 189202.64, 0.0017053906, 10.00262, 9.997191 
1.4951247e+3, 3.1513906e+2, 297122.97, 8604.153, -19894.316, 0.022004295, 0.052429125, 298488.28, 298488.28, 0.0032076885, 10.002529, 9.998798 
1.5050542e+3, 1.2514928e+2, -2214581.3, -1752821.5, -21937.89, -0.03698868, -0.10052365, -1751781.6, -38242.523, 0.015336173, 9.99561, 10.00183 
1.5050568e+3, 1.3515332e+2, -1791964.3, -1526475.6, -77937.33, -0.049097132, 0.105391905, -1505287.3, 110211.875, 0.0091627855, 9.997994, 10.001583 
1.5050602e+3, 1.451543e+2, -1710109.9, -1627983.4, 9964.572, -0.03766469, 0.14270529, -1626791.6, -109301.805, 0.0040015904, 9.998727, 9.99983 
1.5050653e+3, 1.551539e+2, -1680729.8, -1539879.3, 19303.508, 0.056860402, 0.061642274, -1537281.6, -117786.8, 0.001031135, 9.998176, 10.000022 
1.5050687e+3, 1.6515404e+2, -1560134.4, -1388614.8, -2115.849, 0.033538785, 0.062074494, -1388588.6, -67095.36, 0.000096309515, 9.9981165, 10.000426 
1.505071e+3, 1.7515412e+2, -1343454.0, -1212901.1, -44361.754, -0.052590463, -0.021326385, -1199253.8, 24237.334, 0.000000575819, 9.998861, 10.000592 
1.5050748e+3, 1.8515429e+2, -1251406.9, -1225273.0, 11582.55, -0.042191204, -0.0076395147, -1220878.6, -95389.516, 0.0, 9.999278, 9.999631 
1.5050797e+3, 1.951544e+2, -1087035.0, -1073899.8, 6434.1787, 0.026018908, -0.011523596, -1071273.1, -43784.63, 0.0, 9.999652, 9.999807 
1.5050834e+3, 2.0515443e+2, -991077.44, -1085036.5, 19495.465, 0.0026262573, 0.06488888, -987192.94, -57703.305, 0.0, 10.0001, 9.9988575 
1.5050861e+3, 2.1515413e+2, -792167.8, -922085.4, 14666.393, -0.10275628, 0.102833, -790532.7, 40961.996, 0.0, 10.000729, 9.998998 
1.5050898e+3, 2.2515287e+2, -701224.25, -897816.9, 90572.5, -0.16278651, 0.11687241, -665858.5, 67649.555, 0.0, 10.000978, 9.99837 
1.5050942e+3, 2.3515052e+2, -600540.56, -779614.3, 99110.055, -0.19234267, -0.0053385445, -556512.25, 79018.53, 0.0, 10.000914, 9.99854 
1.5051001e+3, 2.4514881e+2, -431533.1, -613031.94, 140340.67, -0.12300683, -0.037275832, -355156.9, 182388.14, 0.0, 10.001241, 9.998862 
1.505107e+3, 2.5514746e+2, -213502.31, -440408.0, 90777.58, 0.030896623, -0.107061274, -181655.08, 257898.55, 0.00000020302433, 10.002001, 9.9990015 
1.5051118e+3, 2.6514664e+2, -157912.0, -497926.63, 53374.598, 0.02597178, -0.020707421, -149730.27, 191830.88, 0.0000077496, 10.00229, 9.997792 
1.5051141e+3, 2.7514607e+2, -69085.54, -388482.9, 55415.086, -0.12885992, 0.093652695, -59744.28, 183825.4, 0.000048509926, 10.002147, 9.997946 
1.5051168e+3, 2.8514388e+2, 29140.602, -280204.97, 63520.14, -0.23083863, 0.08594014, 41675.707, 187266.13, 0.00020995413, 10.002119, 9.99802 
1.5051198e+3, 2.9514003e+2, 175499.8, -134113.3, 42211.938, -0.27200663, -0.16642, 181151.7, 228775.69, 0.0007220719, 10.002361, 9.998215 
1.5051238e+3, 3.0513728e+2, 250784.39, -245815.89, 26494.906, -0.16392866, -0.17517805, 252193.95, 252193.95, 0.0017709631, 10.003265, 9.9967165 
1.505128e+3, 3.1513673e+2, 537768.94, 97196.42, -60238.01, 0.03191464, 0.039624356, 545856.6, 545856.6, 0.0032780797, 10.004287, 9.998589 
1.5150516e+3, 1.2514682e+2, -2269424.8, -1914231.0, -39763.574, 0.038573556, 0.093855955, -1909833.9, -196271.28, 0.016257107, 9.995803, 10.000638 
1.5150543e+3, 1.351474e+2, -1812243.1, -1540377.4, 40802.094, -0.12841219, -0.049253054, -1534385.8, 81170.29, 0.009740974, 9.997898, 10.001524 
1.5150589e+3, 1.4514722e+2, -1648096.5, -1534088.4, -36075.043, -0.110384606, -0.15393783, -1523632.3, -6075.517, 0.0042781597, 9.998853, 10.000421 
1.5150632e+3, 1.5514849e+2, -1633481.5, -1450646.4, 13408.712, -0.00542307, -0.12802805, -1449668.3, -30125.44, 0.0011151112, 9.998205, 10.000622 
1.5150669e+3, 1.6514988e+2, -1587825.4, -1468463.5, 1807.432, -0.0127550755, -0.0042181816, -1468436.1, -146905.48, 0.000106548556, 9.998202, 9.999838 
1.5150706e+3, 1.7515084e+2, -1389537.6, -1303601.5, -1940.2423, -0.0071543255, 0.05503756, -1303557.8, -80032.53, 0.0000007145684, 9.99883, 9.999989 
1.5150748e+3, 1.851512e+2, -1228783.0, -1176966.8, 7173.1587, -0.009868814, 0.100263886, -1175992.1, -50468.633, 0.0, 9.999272, 9.999967 
1.5150788e+3, 1.951508e+2, -1082849.4, -1036475.94, 34996.742, -0.056026865, 0.01197354, -1017681.75, 9845.36, 0.0, 9.999534, 10.000121 
1.5150827e+3, 2.051507e+2, -991605.75, -1046416.0, 22580.41, -0.112582006, 0.0432118, -983501.5, -53973.28, 0.0, 9.999926, 9.999209 
1.5150866e+3, 2.1515068e+2, -803283.0, -884239.56, 53537.414, -0.1546692, 0.07273978, -776643.9, 54885.105, 0.0, 10.000465, 9.999385 
1.515091e+3, 2.2515027e+2, -692406.56, -816255.0, 70774.33, -0.1689241, 0.117967345, -660290.25, 73241.92, 0.0, 10.000701, 9.999068 
1.5150958e+3, 2.3514926e+2, -589727.3, -701682.56, 114163.03, -0.14888509, 0.06303841, -518556.66, 116983.34, 0.0, 10.000675, 9.999191 
1.5151016e+3, 2.4514747e+2, -519051.63, -740664.7, 149044.11, -0.12140454, 0.026791753, -444137.3, 93418.41, 0.0, 10.000996, 9.998109 
1.5151083e+3, 2.5514472e+2, -298707.56, -562362.1, 136955.25, -0.07708341, -0.11060662, -240442.3, 199138.47, 0.00000026346208, 10.001755, 9.998286 
1.515113e+3, 2.6514316e+2, -162609.61, -440842.28, 33722.934, -0.101099536, -0.08884362, -158580.6, 183015.5, 0.000008336701, 10.00201, 9.998319 
1.5151161e+3, 2.7514252e+2, -73354.195, -331261.16, 74395.05, -0.18067594, -0.035027232, -53433.152, 190170.69, 0.00005112129, 10.001879, 9.9984665 
1.5151195e+3, 2.851412e+2, 527.44653, -280988.03, 53304.23, -0.21247563, 0.01422785, 10282.438, 155898.11, 0.00022272031, 10.001861, 9.998138 
1.5151234e+3, 2.9513907e+2, 142548.17, -142674.25, 75906.586, -0.18249863, -0.08177497, 161491.19, 209124.19, 0.0007570033, 10.002102, 9.998278 
1.5151274e+3, 3.0513677e+2, 168435.16, -337200.47, 51023.27, -0.15302163, -0.02303406, 173532.48, 173532.48, 0.001811775, 10.002951, 9.996229 
1.5151305e+3, 3.1513345e+2, 444157.78, 28379.387, 45785.375, -0.2102621, -0.048012774, 449139.94, 449139.94, 0.0032877466, 10.003789, 9.998335 
1.5250485e+3, 1.2514228e+2, -2199154.3, -1964446.0, 30130.086, 0.13656063, 0.101581894, -1960639.9, -247032.89, 0.017244658, 9.996677, 9.999856 
1.5250526e+3, 1.3514253e+2, -1877653.1, -1544565.0, 69373.73, -0.049912624, -0.099327125, -1530693.9, 84910.66, 0.010359608, 9.997354, 10.001742 
1.5250577e+3, 1.4514306e+2, -1808356.4, -1603862.0, -13325.097, -0.03415664, -0.14098027, -1602997.4, -85398.875, 0.0045741852, 9.997741, 10.000466 
1.5250617e+3, 1.5514438e+2, -1519123.5, -1379167.3, -46106.38, -0.009280644, -0.12662683, -1365343.5, 54240.67, 0.0012060112, 9.99891, 10.0007715 
1.5250656e+3, 1.6514571e+2, -1446109.5, -1376892.8, -10012.14, -0.009192547, -0.02381834, -1375473.6, -53901.426, 0.000118081814, 9.999114, 10.000017 
1.5250698e+3, 1.7514695e+2, -1366616.6, -1265239.9, 5926.9243, 0.03323253, 0.046992257, -1264894.6, -41331.313, 0.0000008766353, 9.998902, 10.000206 
1.5250744e+3, 1.8514758e+2, -1251821.1, -1184148.4, 75070.42, 0.03712345, 0.10796375, -1135641.1, -10082.13, 0.0, 9.999089, 10.000019 
1.5250787e+3, 1.9514742e+2, -1027565.44, -1007357.56, 47467.957, -0.03485267, 0.044120003, -968930.1, 58631.06, 0.0, 9.999887, 10.000167 
1.5250832e+3, 2.0514725e+2, -920300.7, -1001387.8, 43766.867, -0.06859848, 0.060851473, -901184.2, 28378.848, 0.0, 10.000346, 9.999318 
1.525088e+3, 2.151469e+2, -785098.0, -863603.06, 22470.566, -0.06631472, 0.040468402, -779121.25, 52444.88, 0.0, 10.000516, 9.999505 
1.5250927e+3, 2.2514652e+2, -693080.2, -808259.9, 31643.117, -0.065931424, 0.077401444, -684959.5, 48609.496, 0.0, 10.000648, 9.999158 
1.5250973e+3, 2.3514591e+2, -569526.5, -681128.7, -2384.0703, -0.07444678, 0.054667834, -569475.56, 66097.95, 0.0, 10.000755, 9.9993 
1.5251032e+3, 2.4514465e+2, -485467.5, -687065.2, 109555.94, -0.06500323, 0.05232383, -437394.22, 100190.25, 0.0, 10.001097, 9.998408 
1.5251103e+3, 2.5514263e+2, -280552.7, -516111.28, 136235.11, -0.03887263, -0.04158437, -218243.2, 221359.78, 0.0000003530132, 10.001741, 9.998593 
1.525115e+3, 2.6514107e+2, -139637.61, -437214.8, 57601.367, -0.090445265, -0.032222297, -128876.95, 212741.45, 0.000008619123, 10.002177, 9.998271 
1.5251176e+3, 2.7513984e+2, -1615.0432, -293368.84, 15089.435, -0.22382452, -0.03819888, -836.69794, 242795.63, 0.000051931653, 10.002365, 9.998481 
1.5251218e+3, 2.851385e+2, 130274.11, -244756.67, 18376.818, -0.21191442, 0.017230015, 131172.44, 276817.4, 0.00023518385, 10.002852, 9.997928 
1.5251274e+3, 2.9513684e+2, 344883.0, -78791.37, -21755.393, -0.04935248, -0.00061706576, 345997.2, 393655.97, 0.000791527, 10.003597, 9.998035 
1.5251318e+3, 3.0513486e+2, 335302.7, -233997.13, 11715.205, -0.03732974, 0.09442029, 335543.66, 335543.66, 0.0018473114, 10.003982, 9.996456 
1.5251338e+3, 3.151304e+2, 443914.1, 14713.545, -19332.244, -0.23362745, -0.06390612, 444783.13, 444783.13, 0.0032831845, 10.003815, 9.998242 
1.535045e+3, 1.251366e+2, -2218173.8, -2034919.1, 59045.047, 0.034752436, 0.0040468555, -2017542.4, -303879.78, 0.018294634, 9.9967985, 9.999315 
1.5350512e+3, 1.3513887e+2, -1846755.9, -1483548.4, 97512.58, 0.035827838, -0.036377445, -1459024.4, 156618.23, 0.011016667, 9.997367, 10.002159 
1.5350564e+3, 1.4514211e+2, -1814956.8, -1658064.0, -587.7818, -0.00396402, 0.19766888, -1658061.8, -140449.2, 0.0048880493, 9.997903, 10.000025 
1.5350601e+3, 1.551417e+2, -1553341.3, -1431327.6, 9111.746, -0.099034205, 0.07757357, -1430651.0, -11033.523, 0.0013030368, 9.998838, 10.000449 
1.5350641e+3, 1.6514176e+2, -1375356.1, -1248042.9, -42013.05, -0.10496463, 0.025245039, -1235428.5, 86186.91, 0.00013086536, 9.999177, 10.000876 
1.5350682e+3, 1.7514247e+2, -1313693.4, -1146574.3, 10490.529, -0.06456597, -0.04119415, -1145918.4, 77686.56, 0.0000010420176, 9.998865, 10.001039 
1.5350729e+3, 1.8514344e+2, -1269063.0, -1225022.1, 81329.625, -0.055771057, 0.029036617, -1162784.5, -37188.934, 0.0, 9.999103, 9.999735 
1.5350787e+3, 1.951443e+2, -1055699.6, -1046043.9, 89333.875, -0.04908207, 0.08701139, -961407.5, 66183.62, 0.0, 9.999797, 9.999947 
1.5350844e+3, 2.0514409e+2, -954527.25, -1027483.3, 32093.074, -0.020755095, 0.11477021, -942419.1, -12824.704, 0.0, 10.0001545, 9.9992285 
1.5350896e+3, 2.1514273e+2, -833153.06, -901892.44, 43891.625, 0.02204531, 0.004947317, -811775.56, 19831.107, 0.0, 10.0002575, 9.999362 
1.5350941e+3, 2.251416e+2, -768582.94, -900335.8, 18324.791, -0.011538431, 0.0006875861, -766081.75, -32463.688, 0.0, 10.000364, 9.998662 
1.535098e+3, 2.3514046e+2, -633083.0, -760265.2, 21591.715, -0.101455204, -0.031567477, -629517.4, 6113.554, 0.0, 10.000522, 9.998872 
1.535104e+3, 2.4514031e+2, -443896.78, -528068.75, 118308.4, -0.103726424, 0.03529084, -360411.66, 177219.97, 0.0, 10.000796, 9.999638 
1.5351127e+3, 2.5514102e+2, -238814.94, -365954.84, 178826.17, 0.00058860774, 0.089102834, -112595.695, 327026.25, 0.0000004707298, 10.001484, 9.9997425 
1.5351175e+3, 2.6514027e+2, -215213.13, -536227.25, 43522.832, -0.10866906, 0.1507477, -209416.98, 132212.53, 0.0000086272985, 10.001925, 9.997711 
1.5351184e+3, 2.7513787e+2, -72052.89, -391488.63, 36841.586, -0.41901213, 0.08745301, -67858.9, 175797.11, 0.000052741245, 10.002157, 9.997907 
1.5351231e+3, 2.8513554e+2, 55562.11, -345081.84, 29094.074, -0.38981238, 0.09885963, 57663.844, 203343.84, 0.00024875673, 10.002609, 9.997361 
1.5351315e+3, 2.951332e+2, 265629.94, -179035.66, 34907.06, -0.037116256, 0.06696937, 268353.53, 316055.16, 0.00082812813, 10.003321, 9.9974785 
1.5351366e+3, 3.0513158e+2, 345101.8, -146928.77, -10244.855, 0.006394596, 0.18719931, 345315.03, 345315.03, 0.001892961, 10.003701, 9.997184 
1.5351371e+3, 3.1512746e+2, 371454.13, -7894.7036, 34364.992, -0.36634985, -0.019685505, 374542.1, 374542.1, 0.003309207, 10.003289, 9.998327 
1.5450428e+3, 1.2513226e+2, -2225185.5, -1991183.9, 135209.64, 0.16496882, 0.027048454, -1929380.9, -215674.4, 0.019406972, 9.996551, 9.99973 
1.5450488e+3, 1.3513398e+2, -1702246.5, -1442017.6, 67111.64, 0.024566252, -0.05251532, -1425729.4, 189962.47, 0.0117135905, 9.998435, 10.001943 
1.5450545e+3, 1.4513853e+2, -1790267.4, -1641849.3, -19561.54, 0.011491049, 0.32538489, -1639314.4, -121665.36, 0.0052204016, 9.998072, 10.000054 
1.545059e+3, 1.5513755e+2, -1737284.8, -1509530.6, -5262.1865, -0.022278158, 0.1397315, -1509409.0, -89749.23, 0.0014059248, 9.997518, 10.000559 
1.5450634e+3, 1.6513716e+2, -1564216.5, -1331676.5, -16682.98, -0.019659512, 0.032015726, -1330485.8, -8823.744, 0.00014487762, 9.997858, 10.00093 
1.545067e+3, 1.7513762e+2, -1256092.6, -1116564.8, -62098.08, -0.06334555, -0.067230314, -1092930.8, 130722.32, 0.000001197513, 9.999235, 10.001069 
1.5450722e+3, 1.8513861e+2, -1164418.4, -1158866.1, 28600.62, -0.07109513, -0.0019631137, -1132907.3, -7264.1426, 0.0, 9.999777, 9.999852 
1.5450788e+3, 1.9513987e+2, -1040099.75, -1021476.56, 30274.93, -0.028596226, 0.08545329, -999113.56, 28520.723, 0.0, 9.999849, 10.000084 
1.5450849e+3, 2.0514005e+2, -953635.94, -1004686.5, 22591.904, 0.026903115, 0.13490441, -945074.06, -15439.881, 0.0, 10.000082, 9.999418 
1.5450905e+3, 2.1513906e+2, -777843.0, -855730.6, 18555.613, 0.07571409, 0.04746004, -773648.3, 57995.055, 0.0, 10.000561, 9.9995365 
1.5450953e+3, 2.2513792e+2, -684006.3, -878072.3, 51938.445, 0.054883108, 0.0430076, -670980.2, 62675.367, 0.0, 10.001052, 9.998467 
1.5450996e+3, 2.3513646e+2, -479114.66, -700470.8, 31545.9, -0.03638733, -0.0023677747, -474706.78, 160965.38, 0.0, 10.001678, 9.998705 
1.5451059e+3, 2.4513625e+2, -320072.34, -465766.5, 108950.586, -0.046186544, 0.06332865, -261858.64, 275815.44, 0.000000000009610117, 10.001603, 9.999701 
1.545114e+3, 2.551371e+2, -324746.63, -402714.56, 58289.344, 0.029037906, 0.12888822, -293606.44, 146057.05, 0.0000005675007, 10.00084, 9.999826 
1.5451191e+3, 2.6513657e+2, -305668.97, -549110.75, -17599.611, -0.08599727, 0.19825065, -304403.2, 37265.055, 0.000008574752, 10.001196, 9.9979725 
1.5451209e+3, 2.7513438e+2, 20917.258, -328571.0, -2687.4167, -0.39781445, 0.13836753, 20937.922, 264629.22, 0.00005426492, 10.002706, 9.998089 
1.5451264e+3, 2.851318e+2, 147758.33, -327141.06, 39543.086, -0.3488874, 0.12716544, 151028.4, 296746.06, 0.00026286932, 10.003388, 9.997077 
1.5451354e+3, 2.9512885e+2, 241332.34, -221124.47, 16217.4375, 0.021375936, 0.06114338, 241900.36, 289646.88, 0.0008685198, 10.003311, 9.997167 
1.5451407e+3, 3.0512708e+2, 376035.3, -108366.35, 3234.316, 0.064890765, 0.1707975, 376056.9, 376056.9, 0.001959959, 10.003802, 9.997406 
1.5451415e+3, 3.1512403e+2, 541502.44, 21921.133, -71772.85, -0.30257535, 0.05977934, 551234.56, 551234.56, 0.0033944726, 10.004667, 9.997876 
1.5550397e+3, 1.2512866e+2, -2074419.3, -1715251.4, 64200.137, 0.10078774, 0.12728888, -1704120.8, 9623.48, 0.020587768, 9.99672, 10.00154 
1.5550448e+3, 1.3512807e+2, -1765924.9, -1551619.8, 109279.51, -0.26185295, -0.1104455, -1505724.4, 110025.77, 0.012455585, 9.998361, 10.001223 
1.5550514e+3, 1.451324e+2, -1734819.8, -1548077.4, -75641.734, -0.15614066, 0.24812108, -1521282.6, -3574.7732, 0.0055746003, 9.99815, 10.000666 
1.5550576e+3, 1.5513216e+2, -1699270.1, -1427864.4, -7774.5566, 0.06949123, 0.075284034, -1427641.8, -7931.824, 0.001515748, 9.997516, 10.001118 
1.5550627e+3, 1.651322e+2, -1595636.4, -1421763.5, 16295.216, 0.0795563, 0.019914575, -1420249.5, -98539.95, 0.00016035176, 9.997956, 10.00027 
1.5550663e+3, 1.751325e+2, -1310457.3, -1215752.6, 515.9881, -0.09318572, -0.024088837, -1215749.9, 7956.8193, 0.0000013687348, 9.999179, 10.000416 
1.5550715e+3, 1.8513328e+2, -1136661.1, -1087882.4, 11250.869, -0.15504517, 0.023831503, -1085412.4, 40286.867, 0.0, 9.999723, 10.000364 
1.555078e+3, 1.951343e+2, -1033331.6, -966972.2, 49307.223, -0.112245195, 0.03956392, -940720.5, 86969.336, 0.0, 9.999688, 10.000532 
1.5550843e+3, 2.051352e+2, -944622.25, -958350.7, 21383.594, -0.076088786, 0.122998476, -929028.2, 653.70886, 0.0, 9.999945, 9.999813 
1.5550902e+3, 2.1513593e+2, -778239.44, -810001.44, 52971.137, -0.031999722, 0.16643132, -738819.94, 92856.23, 0.0, 10.000347, 9.999962 
1.5550959e+3, 2.2513552e+2, -724363.9, -899969.94, 57095.11, -0.020599402, 0.21347809, -707432.8, 26248.324, 0.0, 10.000783, 9.998446 
1.5551017e+3, 2.3513372e+2, -517077.28, -733011.44, 69937.89, -0.02343555, 0.14012018, -496404.53, 139294.55, 0.0, 10.00147, 9.998588 
1.5551077e+3, 2.4513228e+2, -424475.9, -623615.5, 65530.777, -0.058202002, 0.13714743, -404846.6, 132867.02, 0.0, 10.0013485, 9.998739 
1.555114e+3, 2.55131e+2, -420047.94, -549830.1, 48107.64, -0.096091025, 0.0835383, -404160.34, 35566.0, 0.0000005355393, 10.000622, 9.99892 
1.5551196e+3, 2.6513013e+2, -276565.47, -431148.44, 25866.754, -0.17724612, 0.11297406, -272351.97, 69381.836, 0.000008556659, 10.00095, 9.998898 
1.5551248e+3, 2.7512947e+2, 44185.406, -216634.28, 77135.086, -0.2989349, 0.10497206, 65289.75, 309027.7, 0.000056489618, 10.002438, 9.9989805 
1.5551312e+3, 2.8512728e+2, 90012.65, -377919.03, 20726.098, -0.2516491, 0.10650791, 90928.875, 236687.05, 0.00027893353, 10.003097, 9.996864 
1.5551384e+3, 2.9512364e+2, 188897.56, -259256.11, 35727.633, -0.040344853, -0.017506083, 191727.95, 239522.61, 0.0009153457, 10.003021, 9.997037 
1.5551439e+3, 3.051213e+2, 300174.34, -194695.84, 18470.418, -0.028475897, 0.06507621, 300862.78, 300862.78, 0.0020538478, 10.003511, 9.996946 
1.5551464e+3, 3.1511968e+2, 383151.4, -159941.88, 3715.0947, -0.33963022, 0.14064464, 383176.8, 383176.8, 0.0035487453, 10.004073, 9.996895 
1.565037e+3, 1.2512363e+2, -1892437.9, -1577962.9, 18604.314, 0.12723814, 0.17515339, -1576866.1, 136928.81, 0.021849003, 9.997745, 10.002022 
1.5650435e+3, 1.3512243e+2, -1965814.4, -1677250.9, 50158.38, -0.1554303, -0.08302498, -1668781.0, -52975.152, 0.013250772, 9.997116, 10.000963 
1.5650496e+3, 1.4512552e+2, -1809885.5, -1539664.0, -74191.74, -0.10779348, 0.13723257, -1520634.1, -2859.434, 0.0059556314, 9.997446, 10.00106 
1.565056e+3, 1.5512608e+2, -1508648.3, -1305795.1, -68731.3, 0.10732495, 0.013878013, -1284700.9, 135066.98, 0.0016345053, 9.99869, 10.001387 
1.5650614e+3, 1.6512683e+2, -1466884.8, -1380110.1, 7536.1426, 0.106181316, 0.02219859, -1379460.5, -57699.37, 0.00017771397, 9.998918, 10.000103 
1.5650658e+3, 1.7512763e+2, -1380229.6, -1266388.3, 4860.0605, -0.027370844, 0.043809865, -1266181.1, -42425.63, 0.0000016137079, 9.998751, 10.000286 
1.5650713e+3, 1.851282e+2, -1242222.1, -1136410.4, 45100.84, -0.07821132, 0.07633063, -1119795.6, 5954.3657, 0.0, 9.99898, 10.000392 
1.5650778e+3, 1.951284e+2, -1019091.06, -961566.7, 18123.178, -0.09421519, 0.0053043966, -956333.1, 71413.91, 0.0, 9.999766, 10.000539 
1.5650842e+3, 2.051291e+2, -941687.75, -957431.75, -15818.118, -0.07945409, 0.07137937, -931891.1, -2150.2065, 0.0, 10.000021, 9.999756 
1.5650903e+3, 2.1513028e+2, -815533.25, -823112.3, -56784.387, -0.031065999, 0.16323479, -762412.06, 69319.88, 0.0, 10.000124, 9.999952 
1.5650968e+3, 2.2513007e+2, -701498.9, -858781.3, 1711.918, 0.0036979956, 0.21577807, -701480.25, 32254.34, 0.0, 10.000782, 9.998744 
1.5651038e+3, 2.3512833e+2, -425337.97, -648522.8, 15568.455, 0.025581535, 0.115240455, -424257.22, 211492.72, 0.0, 10.001918, 9.99895 
1.5651098e+3, 2.4512678e+2, -335528.97, -630402.1, 17079.752, -0.007149441, 0.10538736, -334542.97, 203222.27, 0.0, 10.002161, 9.998302 
1.5651149e+3, 2.5512522e+2, -315933.28, -543830.9, 4216.8384, -0.092265986, 0.066322155, -315855.28, 123927.15, 0.00000039469393, 10.00153, 9.998516 
1.5651213e+3, 2.6512408e+2, -204366.53, -391575.56, 53687.47, -0.13848138, 0.088116504, -190062.98, 151729.83, 0.000008163994, 10.001419, 9.998946 
1.5651283e+3, 2.7512318e+2, -55472.867, -258756.0, -115.21299, -0.15585491, 0.054490432, -55472.8, 188325.97, 0.000058543963, 10.001723, 9.999036 
1.565135e+3, 2.8512132e+2, -2268.8125, -397045.5, -47936.016, -0.123158716, 0.0704253, 3468.4695, 149284.6, 0.00029613846, 10.002342, 9.997122 
1.5651415e+3, 2.9511842e+2, 256925.42, -197674.31, -46734.883, -0.038887907, 0.0073762136, 261680.25, 309525.34, 0.00096601876, 10.003347, 9.997325 
1.5651475e+3, 3.0511567e+2, 366868.94, -146121.33, 13170.249, -0.027541056, 0.02402273, 367206.84, 367206.84, 0.002166349, 10.003879, 9.997105 
1.5651517e+3, 3.1511477e+2, 346766.03, -185901.66, -34306.586, -0.18495958, 0.16298969, 348966.47, 348966.47, 0.0037552535, 10.003787, 9.996878 
1.5750326e+3, 1.2511636e+2, -1935457.3, -1691725.6, -33914.094, -0.17217416, 0.103891835, -1687094.6, 26771.904, 0.023204513, 9.997842, 10.001186 
1.5750442e+3, 1.3511743e+2, -1944844.1, -1634619.6, 44595.477, 0.17373551, 0.065103196, -1628336.3, -12480.603, 0.014108494, 9.997125, 10.0012455 
1.5750484e+3, 1.4511822e+2, -1767648.9, -1490582.6, -47258.047, -0.009560395, 0.016069956, -1482743.9, 35102.81, 0.0063687824, 9.997605, 10.001325 
1.5750538e+3, 1.5511937e+2, -1522618.8, -1322079.0, -14589.769, -0.028545866, -0.039576285, -1321023.1, 98810.42, 0.00176415, 9.998644, 10.001295 
1.5750587e+3, 1.6512103e+2, -1428033.9, -1313308.5, -23229.34, -0.09248319, 0.045251586, -1308783.6, 13033.513, 0.00019721544, 9.998968, 10.000538 
1.5750653e+3, 1.7512304e+2, -1353221.0, -1203629.4, 14323.685, -0.007559312, 0.13808344, -1202270.3, 21528.875, 0.0000019795527, 9.998723, 10.000729 
1.5750717e+3, 1.8512355e+2, -1263893.6, -1187891.4, 56450.055, 0.0008920026, 0.15971413, -1157843.3, -32049.11, 0.0, 9.998998, 10.000032 
1.5750776e+3, 1.9512248e+2, -1068580.3, -1028965.56, 60070.086, -0.11341323, 0.0022168558, -985521.5, 42281.996, 0.0, 9.999617, 10.000148 
1.5750839e+3, 2.0512202e+2, -1007754.1, -1058766.4, -32285.688, -0.14518048, 0.0006840011, -992115.06, -62306.11, 0.0, 9.999853, 9.999145 
1.5750903e+3, 2.1512201e+2, -893097.56, -933819.9, -39448.82, -0.063925244, 0.036464028, -869065.2, -37252.973, 0.0, 9.999904, 9.999302 
1.5750976e+3, 2.2512148e+2, -679907.06, -757653.56, 31268.184, -0.027056156, 0.05064261, -668892.1, 64924.625, 0.0, 10.000541, 9.999553 
1.5751055e+3, 2.3512033e+2, -410404.72, -554438.75, 71380.9, -0.02488401, -0.073072486, -381023.1, 254801.11, 0.0, 10.001647, 9.999726 
1.5751117e+3, 2.4511978e+2, -379022.5, -648572.3, -24423.592, -0.046508692, -0.02250603, -376827.38, 161001.45, 0.0, 10.001848, 9.998326 
1.5751168e+3, 2.5511965e+2, -351646.9, -564332.9, -4068.3435, -0.08675471, 0.07514664, -351569.13, 88263.46, 0.00000029448665, 10.001295, 9.998486 
1.5751232e+3, 2.651184e+2, -303169.44, -541046.44, 47507.016, -0.107144356, 0.13151467, -294032.63, 47813.543, 0.000007127328, 10.001178, 9.998039 
1.5751307e+3, 2.7511564e+2, -144458.33, -394066.47, 31828.395, -0.11579482, -0.00043294876, -140463.7, 103409.53, 0.000059012113, 10.001514, 9.998208 
1.5751375e+3, 2.8511384e+2, 9565.233, -327941.13, -28483.057, -0.13016959, 0.03468504, 11952.113, 157843.16, 0.00030982727, 10.002142, 9.997693 
1.5751442e+3, 2.9511327e+2, 249868.55, -140044.45, 18364.625, -0.13815784, 0.13888115, 250731.6, 298628.7, 0.0010139579, 10.003038, 9.997869 
1.5751508e+3, 3.0511013e+2, 366149.2, -64570.03, -4226.5146, -0.112153396, 0.05913231, 366190.66, 366190.66, 0.002282176, 10.003548, 9.997806 
1.5751565e+3, 3.1510907e+2, 322633.8, -84539.055, 14401.349, -0.15162371, 0.094251245, 323142.53, 323142.53, 0.0039772037, 10.0031805, 9.997837 
1.5850294e+3, 1.2510823e+2, -2004700.5, -1761859.1, 20593.553, -0.2610003, 0.009021571, -1760125.1, -46180.477, 0.024665277, 9.997535, 10.000827 
1.5850416e+3, 1.3511114e+2, -1919439.5, -1559117.9, 14065.353, 0.22339314, 0.10013406, -1558569.6, 57346.598, 0.0150364665, 9.997013, 10.001816 
1.5850468e+3, 1.4511205e+2, -1817374.1, -1508630.8, -732.93695, 0.0888766, 0.023683919, -1508629.0, 9277.588, 0.0068181083, 9.997235, 10.001378 
1.5850522e+3, 1.5511312e+2, -1625124.8, -1380465.8, -11057.276, -0.0111578815, -0.029791635, -1379967.0, 39927.125, 0.0019058621, 9.99796, 10.001228 
1.5850574e+3, 1.651145e+2, -1499735.0, -1357191.6, -25759.947, -0.092068054, 0.03598057, -1352679.3, -30798.87, 0.0002187055, 9.99853, 10.0004425 
1.5850647e+3, 1.75116e+2, -1264948.4, -1165727.9, -66527.555, 0.04732863, 0.084935606, -1132349.6, 91517.664, 0.000002466339, 9.999365, 10.000675 
1.5850717e+3, 1.851166e+2, -1214449.3, -1175555.4, -10729.915, 0.088318855, 0.124319054, -1172791.6, -46929.71, 0.0, 9.999396, 9.999922 
1.5850773e+3, 1.9511619e+2, -1162578.6, -1083958.9, -19806.14, -0.057769757, 0.044774324, -1079251.1, -51385.31, 0.0, 9.999014, 10.000056 
1.5850838e+3, 2.0511566e+2, -1087093.6, -1089800.5, -24034.754, -0.09666597, 0.03371791, -1064374.3, -134502.77, 0.0, 9.999241, 9.999244 
1.5850909e+3, 2.1511483e+2, -841019.56, -899709.8, -3661.5552, -0.0016055555, -0.023269678, -840792.0, -8911.426, 0.0, 10.000173, 9.999423 
1.5850987e+3, 2.2511427e+2, -701977.9, -781690.7, 89992.984, 0.03132763, -0.013246986, -643410.4, 90475.55, 0.0, 10.000477, 9.999419 
1.5851066e+3, 2.3511383e+2, -598404.5, -667040.44, 25556.457, -0.012071024, -0.043018945, -589934.0, 45954.99, 0.0, 10.0004425, 9.999554 
1.5851134e+3, 2.4511333e+2, -512737.47, -692861.8, -83664.914, -0.012979792, 0.015299945, -479872.78, 58020.625, 0.0, 10.000865, 9.998487 
1.5851192e+3, 2.5511274e+2, -270327.25, -513218.97, -93797.11, 0.01433812, 0.057798702, -238322.8, 201576.8, 0.00000023115544, 10.001806, 9.998596 
1.5851259e+3, 2.651112e+2, -165060.28, -497550.16, 23471.637, -0.0026816726, 0.094610885, -163411.52, 178503.88, 0.0000061293663, 10.002236, 9.997817 
1.585133e+3, 2.7510843e+2, -35693.164, -361421.9, 14971.909, -0.07284333, -0.019860314, -35006.438, 208937.39, 0.000060026516, 10.002364, 9.998008 
1.5851402e+3, 2.8510696e+2, 101899.27, -275823.94, 8743.133, -0.10550564, 0.05450135, 102101.54, 248060.5, 0.0003212461, 10.002752, 9.997744 
1.5851475e+3, 2.9510692e+2, 298444.2, -111247.74, -29570.3, -0.09924671, 0.20967335, 300567.47, 348527.63, 0.0010570007, 10.003333, 9.997917 
1.5851547e+3, 3.051031e+2, 391642.22, -48967.31, -79916.234, -0.07310173, 0.052632254, 405689.3, 405689.3, 0.0023874303, 10.0036745, 9.997876 
1.585161e+3, 3.1510112e+2, 422870.3, 32272.621, -191450.27, -0.0320987, 0.0034339165, 501057.9, 501057.9, 0.0041717323, 10.00355, 9.9984865 
1.5950292e+3, 1.2510015e+2, -1975352.8, -1756875.9, 70698.13, -0.10427163, -0.06376621, -1735994.1, -21973.867, 0.026239868, 9.997737, 10.000779 
1.5950356e+3, 1.3510375e+2, -1875117.8, -1468251.9, 27573.1, -0.106953435, 0.017495409, -1466391.8, 149594.39, 0.016040104, 9.997019, 10.002442 
1.5950438e+3, 1.4510675e+2, -1806105.9, -1530497.6, 6100.758, 0.0027470484, 0.1390482, -1530362.6, -12405.922, 0.0073062, 9.997411, 10.001151 
1.5950507e+3, 1.5510756e+2, -1621329.8, -1384328.4, 27429.488, 0.0108746225, 0.060173083, -1381195.3, 38752.31, 0.002060233, 9.998001, 10.001187 
1.5950568e+3, 1.6510767e+2, -1531170.1, -1444114.8, -18123.27, -0.049467012, 0.030605717, -1440492.5, -118545.58, 0.00024185247, 9.998617, 9.999805 
1.5950641e+3, 1.7510675e+2, -1320748.3, -1270793.9, -22116.914, 0.019615367, -0.09302489, -1262409.1, -38451.49, 0.0000030340082, 9.99932, 9.999974 
1.5950708e+3, 1.8510742e+2, -1203516.5, -1153945.4, -43380.848, 0.029801052, -0.02142568, -1128768.8, -2815.886, 0.0, 9.999396, 10.00007 
1.5950766e+3, 1.9510952e+2, -1172800.4, -1072109.8, -17461.031, -0.06439517, 0.13447131, -1069167.8, -41233.65, 0.0, 9.998881, 10.000198 
1.5950835e+3, 2.0511009e+2, -1046929.25, -970935.3, -4637.6885, -0.082148165, 0.18347633, -970653.3, -40725.773, 0.0, 9.999089, 10.00013 
1.5950915e+3, 2.1510896e+2, -820958.3, -791808.8, 44808.22, 0.01932108, 0.004606991, -759264.56, 72670.45, 0.0, 9.999898, 10.000292 
1.5950993e+3, 2.251086e+2, -817901.25, -967061.25, 71685.66, 0.024351958, 0.049221385, -789035.56, -55095.656, 0.0, 10.000226, 9.998269 
1.5951067e+3, 2.3510884e+2, -716424.7, -854966.2, 46047.69, -0.06949923, 0.19796567, -702516.0, -66572.164, 0.0, 10.000193, 9.998384 
1.5951142e+3, 2.4510755e+2, -543715.7, -692800.75, -59089.773, -0.06120484, 0.22729468, -523136.22, 14821.258, 0.0, 10.000592, 9.998614 
1.5951218e+3, 2.5510454e+2, -299494.34, -505150.63, -40367.33, 0.06838117, 0.013625642, -291854.63, 148128.16, 0.00000009760233, 10.001531, 9.998773 
1.5951286e+3, 2.651026e+2, -178418.3, -472942.3, 13417.442, 0.03272566, -0.015774583, -177808.31, 164191.55, 0.0000054247644, 10.002001, 9.998103 
1.5951347e+3, 2.751015e+2, -54272.54, -343693.38, 42382.484, -0.1660967, 0.0046140105, -48193.766, 195816.66, 0.0000627863, 10.002113, 9.998252 
1.5951422e+3, 2.8510043e+2, 18551.266, -370916.38, 12846.462, -0.20871569, 0.1323489, 18974.541, 164996.33, 0.0003316825, 10.002427, 9.997244 
1.5951514e+3, 2.9509902e+2, 217716.56, -200154.95, 20486.357, -0.09792391, 0.2011065, 218718.52, 266755.88, 0.0010854213, 10.003006, 9.997462 
1.5951584e+3, 3.0509436e+2, 293386.22, -168274.69, -100157.0, -0.0921966, 0.012616896, 314178.75, 314178.75, 0.002452494, 10.003332, 9.997214 
1.5951641e+3, 3.1509125e+2, 350190.4, 20851.973, -141867.02, -0.122523576, -0.08794435, 402873.9, 402873.9, 0.0042833127, 10.002988, 9.998667 
1.6050278e+3, 1.2509334e+2, -2068796.0, -1758121.5, 119877.04, 0.03971653, -0.06175878, -1717244.1, -3159.8735, 0.027939666, 9.996943, 10.001161 
1.6050322e+3, 1.3509615e+2, -1815641.3, -1454077.3, -15185.778, -0.15871488, -0.042736277, -1453440.5, 162617.83, 0.01712635, 9.997515, 10.002303 
1.6050416e+3, 1.4509948e+2, -1792605.5, -1531032.5, 571.2661, 0.04682237, 0.12854947, -1531031.3, -13004.851, 0.007836914, 9.997565, 10.001058 
1.6050489e+3, 1.5510044e+2, -1589577.6, -1360491.9, -19082.236, 0.035010375, 0.059702072, -1358913.3, 61103.24, 0.0022287087, 9.998201, 10.001243 
1.6050556e+3, 1.6510057e+2, -1560545.6, -1451088.6, -4345.5874, -0.004219144, 0.027520658, -1450916.4, -128900.77, 0.00026665046, 9.998403, 9.999848 
1.605063e+3, 1.7509963e+2, -1405756.4, -1304254.9, 10786.461, 0.0099987695, -0.101478904, -1303121.3, -79095.15, 0.0000036433328, 9.998716, 10.000027 
1.6050698e+3, 1.8510027e+2, -1242842.1, -1162971.4, 28979.85, 0.015919652, -0.040581483, -1153564.4, -27543.195, 0.0, 9.999072, 10.000167 
1.6050762e+3, 1.9510217e+2, -1034279.56, -992884.25, 18990.852, -0.033096448, 0.08179939, -985491.94, 42512.016, 0.0, 9.999751, 10.000329 
1.6050835e+3, 2.0510279e+2, -902944.2, -913301.7, 43093.75, -0.031463943, 0.13509116, -864719.1, 65278.05, 0.0, 10.000149, 10.000012 
1.6050917e+3, 2.1510208e+2, -739518.75, -760077.0, -18197.05, 0.025846638, 0.011922577, -728898.25, 103103.08, 0.0, 10.000512, 10.000206 
1.6050997e+3, 2.251018e+2, -735030.44, -925634.9, 31205.596, 0.028104344, 0.0684633, -730051.56, 3954.313, 0.0, 10.000781, 9.998281 
1.6051075e+3, 2.3510185e+2, -586139.25, -777842.0, 58052.008, -0.035614114, 0.19410364, -569930.25, 66081.06, 0.0, 10.001039, 9.998483 
1.6051155e+3, 2.451005e+2, -415285.7, -642244.7, 46510.902, -0.02148323, 0.2155045, -406124.0, 131901.8, 0.0, 10.001525, 9.998516 
1.6051237e+3, 2.5509748e+2, -191073.05, -465443.4, 15778.812, 0.08173733, 0.016754324, -190168.6, 249883.11, 0.000000007673713, 10.002317, 9.9986725 
1.605131e+3, 2.650955e+2, -72977.91, -425217.66, 52523.203, 0.03901611, -0.011421828, -65312.855, 276756.75, 0.0000049768487, 10.002735, 9.998084 
1.6051371e+3, 2.750945e+2, 35524.42, -307982.9, 8205.456, -0.15414476, 0.029491032, 35720.316, 279799.84, 0.00006482946, 10.00275, 9.998211 
1.6051452e+3, 2.8509304e+2, 101070.01, -313068.6, 51167.457, -0.16862464, 0.11224068, 107298.16, 253392.05, 0.00033743004, 10.002869, 9.997452 
1.6051552e+3, 2.9509082e+2, 257612.97, -155226.89, 64147.535, -0.014775467, 0.07899404, 267350.63, 315466.22, 0.0010902435, 10.003149, 9.997714 
1.6051623e+3, 3.0508688e+2, 323352.22, -189206.28, 20309.31, -0.0330697, -0.035849825, 324155.7, 324155.7, 0.0024557733, 10.003689, 9.996895 
1.6051683e+3, 3.1508416e+2, 554298.94, 125617.4, -82744.26, -0.06263054, -0.055180967, 569715.8, 569715.8, 0.004282769, 10.004327, 9.998758 
1.6150233e+3, 1.2508745e+2, -1973244.0, -1644785.8, -79911.46, -0.20699188, -0.023381256, -1626375.8, 87764.36, 0.02978273, 9.997268, 10.001815 
1.615031e+3, 1.3508874e+2, -1873751.4, -1581953.3, -2964.0735, -0.06637383, -0.057546277, -1581923.1, 34206.027, 0.018308382, 9.99755, 10.001399 
1.6150394e+3, 1.450908e+2, -1773326.0, -1517770.4, 2452.4941, 0.021342888, 0.034483775, -1517746.9, 363.09143, 0.008418617, 9.99767, 10.001102 
1.6150464e+3, 1.5509178e+2, -1585447.3, -1355375.0, 21536.36, -0.07915419, -0.033810955, -1353376.4, 66724.125, 0.0024150687, 9.998218, 10.001271 
1.6150534e+3, 1.6509311e+2, -1487123.4, -1339540.8, -16359.152, -0.11895868, 0.015255626, -1337749.1, -15661.48, 0.0002938315, 9.998562, 10.000541 
1.6150607e+3, 1.7509459e+2, -1357943.4, -1207271.8, 34033.965, -0.105604865, 0.057251718, -1199940.8, 24132.297, 0.000004294035, 9.99871, 10.000702 
1.6150682e+3, 1.8509503e+2, -1239012.0, -1152898.3, 36265.566, -0.10723871, 0.06257238, -1139660.5, -13592.437, 0.0, 9.999065, 10.000236 
1.6150756e+3, 1.950942e+2, -1047344.3, -994488.94, 58118.17, -0.096266404, -0.09875056, -957071.94, 71003.04, 0.0, 9.999641, 10.000371 
1.6150832e+3, 2.0509392e+2, -1009773.0, -1091748.4, 35406.977, -0.1010012, -0.08040067, -996597.56, -66518.77, 0.0, 9.999963, 9.998876 
1.6150911e+3, 2.1509412e+2, -853195.44, -943509.3, 9405.232, -0.10475463, 0.000997799, -852226.4, -20146.322, 0.0, 10.000291, 9.999052 
1.6150996e+3, 2.2509384e+2, -698480.7, -777893.75, 24080.113, -0.09174856, 0.056525487, -691749.56, 42334.188, 0.0, 10.000482, 9.999435 
1.6151087e+3, 2.3509288e+2, -547223.75, -630437.75, 85270.1, -0.056553844, -0.037003063, -493951.16, 142140.56, 0.0, 10.000763, 9.999624 
1.6151169e+3, 2.4509211e+2, -475823.34, -712556.5, 57666.773, -0.058468025, 0.0056750183, -462523.28, 75576.164, 0.0, 10.001272, 9.998158 
1.6151248e+3, 2.5509143e+2, -255359.95, -537262.2, 65638.04, -0.08280692, 0.06453415, -240826.13, 199281.63, 0.00000000987263, 10.002048, 9.998308 
1.6151324e+3, 2.6508984e+2, -155209.88, -520203.47, 35112.957, -0.13476361, 0.11974219, -151862.66, 190262.39, 0.000004852571, 10.002418, 9.997577 
1.6151397e+3, 2.7508712e+2, -34376.547, -392933.94, 32057.4, -0.20119362, 0.033685774, -31532.955, 212620.73, 0.00006465758, 10.002508, 9.997732 
1.6151485e+3, 2.850847e+2, 118277.46, -216621.73, 41873.49, -0.16319361, 0.003517704, 123433.65, 269609.72, 0.0003366383, 10.002606, 9.998241 
1.6151585e+3, 2.9508248e+2, 270042.9, -59287.85, 99644.58, -0.028467176, -0.11932011, 297845.0, 346037.8, 0.0010768002, 10.002843, 9.998522 
1.6151659e+3, 3.0508032e+2, 260514.44, -229952.84, 21823.418, -0.080883935, -0.08680688, 261483.56, 261483.56, 0.0024103401, 10.003329, 9.996767 
1.6151719e+3, 3.150799e+2, 462631.66, 94143.38, 9799.272, -0.18511619, 0.12285254, 462892.06, 462892.06, 0.004188166, 10.003707, 9.998802 
1.625021e+3, 1.2508023e+2, -2038916.4, -1659235.4, -139683.31, -0.12223483, -0.00008425382, -1613383.6, 100828.984, 0.03179242, 9.996752, 10.001933 
1.6250296e+3, 1.3508122e+2, -1937961.1, -1677487.6, -74671.8, 0.05399361, -0.020168524, -1657599.5, -41394.53, 0.019603958, 9.997365, 10.000818 
1.6250367e+3, 1.4508255e+2, -1855220.8, -1545541.1, 658.2038, 0.03033744, 0.02351161, -1545539.8, -27346.998, 0.009062119, 9.997089, 10.001175 
1.6250443e+3, 1.550836e+2, -1649768.4, -1367615.0, -443.64688, -0.06466044, -0.05121969, -1367614.3, 52567.496, 0.002624408, 9.997712, 10.001418 
1.6250522e+3, 1.650851e+2, -1523413.8, -1325737.6, -26058.896, -0.07408403, -0.004647861, -1322360.0, -193.6871, 0.00032476612, 9.9981785, 10.000826 
1.62506e+3, 1.7508705e+2, -1350083.0, -1164262.5, -42019.273, -0.049342338, 0.051970977, -1155202.5, 68943.945, 0.000005034694, 9.998602, 10.001043 
1.6250674e+3, 1.8508759e+2, -1300640.3, -1206058.1, -23207.822, -0.047310617, 0.060845006, -1200670.5, -74529.99, 0.0, 9.998748, 10.0000305 
1.6250752e+3, 1.9508657e+2, -1161329.5, -1059241.3, -52590.418, -0.058823194, -0.09945059, -1036996.56, -8847.095, 0.0, 9.998933, 10.00026 
1.6250832e+3, 2.0508626e+2, -1070607.6, -1126069.6, 1749.5286, -0.06658716, -0.07872499, -1070552.5, -140398.86, 0.0, 9.999546, 9.998848 
1.6250917e+3, 2.1508643e+2, -804284.25, -926611.4, 29014.713, -0.07277092, 0.0026415447, -797751.2, 34403.902, 0.0, 10.000628, 9.999018 
1.6251005e+3, 2.2508594e+2, -612107.6, -725749.6, 48519.336, -0.0585531, 0.03541003, -594210.8, 139949.31, 0.0, 10.0010195, 9.999536 
1.6251093e+3, 2.3508462e+2, -540890.9, -620463.2, -4893.233, -0.039123815, -0.10023355, -540591.06, 95579.414, 0.0, 10.00076, 9.999702 
1.6251181e+3, 2.4508399e+2, -513259.4, -707534.06, 4758.075, -0.03756442, -0.05864306, -513142.94, 25033.984, 0.0, 10.000915, 9.998366 
1.6251265e+3, 2.550839e+2, -315158.97, -545184.25, 12039.365, -0.06892354, 0.040262915, -314530.56, 125649.96, 0.000000011745934, 10.001535, 9.998505 
1.6251348e+3, 2.6508263e+2, -199281.13, -550451.94, 40932.34, -0.10844405, 0.12430904, -194573.19, 147622.44, 0.0000048598445, 10.002157, 9.997497 
1.6251428e+3, 2.7508e+2, 6434.8447, -385617.78, 27522.182, -0.14541048, 0.059098724, 8357.4795, 252582.3, 0.00006306325, 10.00283, 9.997627 
1.6251518e+3, 2.8507763e+2, 199445.89, -167311.52, 53379.277, -0.099011555, 0.040677916, 207056.97, 353303.72, 0.00033149842, 10.003143, 9.998308 
1.6251618e+3, 2.950756e+2, 320109.88, -31943.023, -2577.2297, 0.0060444013, -0.06755735, 320128.75, 368390.84, 0.0010554205, 10.003182, 9.99854 
1.6251694e+3, 3.0507377e+2, 347538.88, -190271.44, -24762.574, -0.06682435, -0.005154527, 348676.63, 348676.63, 0.002340937, 10.003916, 9.996774 
1.6251768e+3, 3.1507275e+2, 664198.3, 146843.38, -100737.17, -0.11463851, 0.1600025, 683121.3, 683121.3, 0.0040345965, 10.005223, 9.998472 
1.6350187e+3, 1.2507169e+2, -2031520.4, -1669270.0, -39239.688, -0.102172665, -0.012356435, -1665068.1, 49233.324, 0.03398967, 9.99687, 10.001791 
1.6350271e+3, 1.3507348e+2, -1956606.3, -1721065.0, -65188.66, 0.030446455, 0.061986703, -1704227.0, -87940.36, 0.02102759, 9.997389, 10.000506 
1.6350333e+3, 1.4507458e+2, -1815841.4, -1513006.9, -14659.192, -0.07875689, 0.095519565, -1512299.0, 5976.8735, 0.009775217, 9.997274, 10.001324 
1.6350424e+3, 1.5507595e+2, -1630001.4, -1333659.5, 34112.973, -0.074081354, 0.029316472, -1329783.3, 90476.19, 0.002860367, 9.997735, 10.001648 
1.6350512e+3, 1.6507669e+2, -1515700.9, -1325640.6, -30745.854, -0.040357847, -0.012882844, -1320790.6, 1459.7556, 0.00036087315, 9.99824, 10.000798 
1.6350599e+3, 1.7507696e+2, -1362251.4, -1182683.6, -16941.607, 0.045454986, -0.111648105, -1181099.3, 43147.227, 0.000005927034, 9.998573, 10.00093 
1.6350675e+3, 1.8507788e+2, -1320730.3, -1256655.6, -37527.324, 0.04140902, -0.043090828, -1239350.4, -113111.92, 0.0, 9.99878, 9.999672 
1.6350746e+3, 1.9507912e+2, -1200177.0, -1119491.3, -31508.42, -0.05112498, 0.060829137, -1108645.0, -80416.38, 0.0, 9.99884, 9.999896 
1.6350831e+3, 2.0507951e+2, -1018805.7, -979292.2, 26620.516, -0.07379479, 0.11497829, -965898.06, -35673.656, 0.0, 9.999374, 9.999942 
1.6350932e+3, 2.1507885e+2, -759173.1, -786010.0, 86986.08, -0.014718821, 0.0031172861, -684576.6, 147651.25, 0.0, 10.00042, 10.000088 
1.635102e+3, 2.2507805e+2, -731535.94, -900119.75, 23706.4, -0.038829662, 0.0059651355, -728265.75, 5969.724, 0.0, 10.000709, 9.998485 
1.6351098e+3, 2.3507704e+2, -650097.75, -785454.0, 2452.5923, -0.114789344, 0.0005102794, -650053.3, -13805.379, 0.0, 10.000502, 9.998688 
1.6351187e+3, 2.4507606e+2, -513183.9, -635335.0, 11006.655, -0.10693745, 0.02373001, -512200.06, 26058.57, 0.0, 10.000612, 9.999003 
1.6351289e+3, 2.550749e+2, -302339.28, -461412.47, 54696.945, -0.02342272, -0.04595941, -285347.0, 154922.31, 0.000000006263202, 10.001307, 9.999183 
1.635138e+3, 2.6507404e+2, -213923.17, -533519.75, 48705.727, -0.04127166, 0.031653594, -206665.36, 135614.03, 0.000005059976, 10.001935, 9.997726 
1.635146e+3, 2.750732e+2, -10475.589, -367382.66, 79485.44, -0.1360278, 0.11691539, 6425.936, 250717.25, 0.000060994436, 10.002588, 9.997872 
1.6351548e+3, 2.8507188e+2, 95528.47, -307649.47, 37016.07, -0.15390912, 0.22245389, 98898.77, 245205.25, 0.0003219481, 10.002837, 9.997482 
1.6351643e+3, 2.9506987e+2, 214178.53, -174317.23, 28325.752, -0.09011329, 0.20988047, 216232.94, 264558.25, 0.0010251604, 10.002872, 9.997701 
1.6351727e+3, 3.0506697e+2, 294077.3, -216806.64, 4544.7524, -0.17056493, 0.20887558, 294117.75, 294117.75, 0.002256329, 10.003559, 9.996762 
1.6351825e+3, 3.1506294e+2, 544569.44, 37359.945, 25660.244, -0.13252641, 0.05594196, 545864.3, 545864.3, 0.0038522382, 10.004644, 9.997988 
1.6450158e+3, 1.2506412e+2, -2179929.3, -1728264.1, 101364.68, -0.037654176, 0.017277082, -1706558.5, 7820.7856, 0.036383986, 9.995847, 10.001867 
1.6450241e+3, 1.35066e+2, -1921371.5, -1689556.0, 13261.726, 0.0076079867, 0.089160204, -1688799.8, -72438.125, 0.022584815, 9.997578, 10.000636 
1.6450317e+3, 1.4506651e+2, -1684130.8, -1474182.0, 76692.82, -0.008414119, 0.066345006, -1449151.0, 69205.01, 0.010560797, 9.998271, 10.0011215 
1.6450408e+3, 1.5506817e+2, -1594465.0, -1340604.5, 59782.87, -0.010511604, 0.047368072, -1327230.5, 93106.96, 0.0031241647, 9.998066, 10.001446 
1.6450496e+3, 1.6506907e+2, -1551250.5, -1364461.3, 21393.666, 0.0001318411, 0.03950528, -1362042.4, -39714.863, 0.0004029895, 9.998102, 10.000599 
1.6450582e+3, 1.750693e+2, -1350124.3, -1204764.8, -7350.902, 0.034585223, -0.038856868, -1204394.0, 19930.943, 0.0000070009137, 9.998775, 10.000692 
1.6450666e+3, 1.8506998e+2, -1247207.8, -1220397.6, 4004.0466, 0.060968213, 0.02010796, -1219812.4, -93493.55, 0.0, 9.999299, 9.999652 
1.6450748e+3, 1.9507083e+2, -1044551.2, -1046550.8, -1335.8191, 0.050897542, 0.084160894, -1043882.44, -15570.893, 0.0, 9.999929, 9.999857 
1.6450837e+3, 2.0507093e+2, -889541.1, -914757.4, 71330.7, 0.025791848, 0.11160164, -829712.8, 100596.56, 0.0, 10.000263, 9.999946 
1.6450936e+3, 2.1507017e+2, -760082.4, -777286.6, 15964.813, -0.025315821, -0.0123265935, -750549.7, 81763.63, 0.0, 10.000399, 10.000138 
1.6451024e+3, 2.250696e+2, -705094.06, -893134.6, -24109.857, -0.06797994, 0.009594587, -702052.0, 32267.201, 0.0, 10.000904, 9.998452 
1.645111e+3, 2.3506899e+2, -468460.3, -704126.56, -3940.8354, -0.09621498, 0.050235998, -468394.44, 167934.4, 0.0, 10.001768, 9.998651 
1.6451204e+3, 2.4506818e+2, -306910.2, -534763.8, 46169.18, -0.053752456, 0.0940539, -297910.56, 240427.56, 0.0, 10.002022, 9.999015 
1.6451307e+3, 2.5506693e+2, -240062.38, -437185.78, 4500.0195, 0.026944513, 0.019155229, -239959.7, 200389.83, 0.000000005166704, 10.001748, 9.999144 
1.6451402e+3, 2.650658e+2, -198084.1, -498781.53, 22264.938, 0.014362424, 0.059939705, -196444.44, 145916.81, 0.000005473011, 10.001944, 9.997948 
1.645149e+3, 2.7506456e+2, 27388.428, -316993.16, -519.26, -0.097134575, 0.08153692, 27389.21, 271764.25, 0.000058881178, 10.002746, 9.998122 
1.6451582e+3, 2.8506306e+2, 166179.64, -331878.97, -3556.5303, -0.12381077, 0.18551652, 166205.05, 312596.53, 0.0003079229, 10.003562, 9.996988 
1.645168e+3, 2.9506117e+2, 365310.5, -160868.47, -34720.38, -0.056071885, 0.23851833, 367591.7, 416003.06, 0.0009851817, 10.004159, 9.997188 
1.6451773e+3, 3.0505776e+2, 495403.56, -126055.36, 30019.566, -0.11975812, 0.216278, 496850.28, 496850.28, 0.0021653366, 10.004935, 9.996736 
1.6451885e+3, 3.1505325e+2, 661133.9, 49749.777, -43614.598, -0.03510779, 0.020273346, 664229.5, 664229.5, 0.003678166, 10.005644, 9.9975815 
1.6550127e+3, 1.250582e+2, -2142560.0, -1706407.5, -12311.32, -0.012213085, 0.15892597, -1706060.3, 8378.922, 0.03897044, 9.996055, 10.001936 
1.6550206e+3, 1.3505927e+2, -1878991.1, -1599714.0, 98834.5, -0.15058419, 0.1069903, -1568276.0, 48149.26, 0.024272982, 9.997564, 10.001272 
1.6550313e+3, 1.4505847e+2, -1702710.3, -1533125.3, 46487.633, 0.06461816, -0.061125357, -1521217.9, -2785.9424, 0.0114189135, 9.998363, 10.000667 
1.6550392e+3, 1.5506034e+2, -1637306.6, -1435183.0, 64472.992, -0.015849326, 0.0055987122, -1416368.9, 4046.3342, 0.0034161112, 9.998097, 10.00078 
1.6550471e+3, 1.6506234e+2, -1559207.1, -1409668.4, 23284.34, -0.11451891, 0.16230899, -1406126.6, -83729.64, 0.00045137366, 9.998214, 10.000239 
1.655055e+3, 1.7506412e+2, -1373359.4, -1243909.8, 30371.982, -0.20354456, 0.2646677, -1237138.0, -12756.9375, 0.000008273259, 9.998739, 10.000437 
1.6550645e+3, 1.8506391e+2, -1229328.1, -1190040.1, 12374.4795, -0.12908316, 0.23820107, -1186467.4, -60085.953, 0.0, 9.999315, 9.999859 
1.6550757e+3, 1.950617e+2, -1045883.6, -1028645.3, 33969.016, 0.11094678, -0.024318624, -1002219.0, 26179.52, 0.0, 9.99983, 10.000033 
1.6550848e+3, 2.0506059e+2, -990620.56, -1082425.5, 60485.6, 0.06945239, -0.07125877, -960591.9, -30183.914, 0.0, 10.000084, 9.99888 
1.6550921e+3, 2.150604e+2, -864961.1, -941977.1, 36053.242, -0.22590739, -0.037715483, -850717.75, -18305.982, 0.0, 10.000173, 9.999116 
1.6551015e+3, 2.2506034e+2, -677159.3, -771299.06, -9667.701, -0.29105043, 0.040108252, -676176.75, 58236.68, 0.0, 10.00063, 9.999422 
1.6551125e+3, 2.350603e+2, -439967.0, -582925.7, 47078.816, -0.12634023, 0.041920718, -425856.0, 210558.4, 0.0, 10.001503, 9.999613 
1.6551226e+3, 2.4506025e+2, -399269.2, -657205.3, 23456.613, -0.0545157, 0.14994858, -397153.4, 141262.84, 0.0, 10.001724, 9.998316 
1.655132e+3, 2.5505996e+2, -324997.03, -553671.44, 11957.474, -0.04797638, 0.23062414, -324373.47, 116048.195, 0.00000000856411, 10.001503, 9.998452 
1.6551416e+3, 2.650578e+2, -233773.55, -520531.06, 34283.61, -0.0817024, 0.20744197, -229731.7, 112710.39, 0.0000057188686, 10.001709, 9.997915 
1.6551514e+3, 2.7505377e+2, -2318.8098, -327881.16, 52217.574, -0.16780321, -0.05010653, 5851.4297, 250329.27, 0.00005720022, 10.002516, 9.998161 
1.6551615e+3, 2.850511e+2, 104829.01, -381291.75, -2050.6978, -0.17339058, -0.059112057, 104837.66, 251340.52, 0.0002952708, 10.003224, 9.996812 
1.6551724e+3, 2.9504937e+2, 313693.3, -208394.2, 18885.19, -0.07276649, 0.022292629, 314375.53, 362896.47, 0.00095047243, 10.003891, 9.996994 
1.6551824e+3, 3.0504593e+2, 413874.84, -192992.47, 38514.766, -0.12834048, 0.021124765, 416309.4, 416309.4, 0.0020977312, 10.004523, 9.996463 
1.6551939e+3, 3.1504285e+2, 532001.06, -78274.54, 52937.016, -0.123803414, -0.007200817, 536558.94, 536558.94, 0.0035625517, 10.005038, 9.996993 
1.6650103e+3, 1.2505038e+2, -2096656.3, -1735813.0, -36685.84, 0.14203233, 0.22637339, -1732121.0, -17603.637, 0.041736465, 9.996573, 10.00149 
1.6650186e+3, 1.3505062e+2, -1832171.4, -1585078.5, 7243.5913, -0.099874526, 0.09764431, -1584866.4, 31644.916, 0.026087236, 9.9979, 10.001214 
1.6650294e+3, 1.4504997e+2, -1823070.9, -1609169.0, -80665.54, 0.09302143, -0.041128453, -1582159.4, -63642.215, 0.012349877, 9.997648, 10.000469 
1.6650373e+3, 1.5505223e+2, -1641091.0, -1446800.3, -55284.36, -0.01308255, 0.07842146, -1432170.9, -11673.441, 0.003737191, 9.998136, 10.000667 
1.6650456e+3, 1.6505408e+2, -1506154.1, -1391024.9, -11430.797, -0.086867824, 0.22894877, -1389901.0, -67420.46, 0.00050616945, 9.998629, 10.000155 
1.6650541e+3, 1.750548e+2, -1313481.3, -1227559.8, -24903.758, -0.18063214, 0.23386437, -1220863.5, 3609.3408, 0.000009797576, 9.999196, 10.000328 
1.665064e+3, 1.8505426e+2, -1223489.5, -1179698.6, -15789.059, -0.10507609, 0.17660317, -1174599.5, -48123.957, 0.0, 9.999339, 9.99991 
1.6650754e+3, 1.9505256e+2, -1081568.3, -1035582.44, -36428.45, 0.12447663, -0.0403501, -1015497.44, 12989.895, 0.0, 9.999552, 10.000109 
1.6650851e+3, 2.0505169e+2, -995693.1, -1100554.1, 56892.867, 0.09496707, -0.06217163, -970755.94, -40261.19, 0.0, 10.000119, 9.998742 
1.665093e+3, 2.1505147e+2, -736292.06, -897893.94, 67856.805, -0.19016038, -0.014234677, -711578.4, 120921.37, 0.0, 10.001125, 9.998964 
1.6651028e+3, 2.2505125e+2, -574323.9, -721483.6, 35360.24, -0.24697001, 0.05569734, -566268.3, 168234.92, 0.0, 10.001347, 9.999402 
1.665114e+3, 2.3505098e+2, -528903.0, -623027.56, -18746.316, -0.09368499, 0.03185601, -525306.8, 111199.33, 0.0, 10.000886, 9.999616 
1.6651244e+3, 2.4505062e+2, -457512.13, -712857.75, -14376.904, -0.025459345, 0.118605435, -456705.22, 81805.23, 0.0, 10.00142, 9.998104 
1.6651341e+3, 2.5504997e+2, -131323.67, -484569.0, -21975.855, -0.03951385, 0.19330876, -129961.78, 310556.56, 0.0000000057748837, 10.002925, 9.9982605 
1.6651443e+3, 2.650477e+2, -16837.742, -432652.8, 28006.48, -0.052373704, 0.17470464, -14959.8955, 327579.9, 0.0000055479773, 10.003269, 9.9977665 
1.6651545e+3, 2.7504373e+2, -16573.621, -368264.66, -9365.476, -0.090220794, -0.055861257, -16324.396, 228250.97, 0.000055377644, 10.00253, 9.997896 
1.6651654e+3, 2.8504086e+2, 68124.27, -389163.16, 13688.955, -0.08702614, -0.07200587, 68533.69, 215135.97, 0.00028510438, 10.002929, 9.996879 
1.6651766e+3, 2.9503894e+2, 389872.9, -157853.19, -8025.2144, -0.046793133, -0.014669252, 389990.47, 438612.22, 0.000926934, 10.004398, 9.997066 
1.6651873e+3, 3.0503523e+2, 478090.22, -162337.52, 39436.707, -0.0999357, -0.04866292, 480509.56, 480509.56, 0.002063516, 10.004945, 9.996473 
1.6651994e+3, 3.150334e+2, 406272.9, -122548.03, -3720.745, 0.0020137313, 0.051199295, 406299.1, 406299.1, 0.003520728, 10.004091, 9.99714 
1.675006e+3, 1.2504093e+2, -2128312.3, -1830552.3, 41223.227, -0.04253529, 0.21349417, -1824950.5, -110339.33, 0.044670317, 9.996698, 10.000776 
1.6750184e+3, 1.3504018e+2, -1885336.0, -1712639.0, 27500.352, 0.04305696, 0.05071789, -1708365.5, -91746.836, 0.028026333, 9.997967, 10.000305 
1.6750255e+3, 1.4504106e+2, -1805030.5, -1593327.1, -98088.61, -0.11954956, 0.11904681, -1554866.8, -36255.918, 0.013357116, 9.997734, 10.000539 
1.6750345e+3, 1.5504397e+2, -1614699.6, -1395317.3, -18907.813, -0.1440614, 0.26916197, -1393699.5, 26884.0, 0.004090086, 9.998141, 10.001022 
1.6750449e+3, 1.6504425e+2, -1478030.9, -1356865.8, -7392.1123, -0.07878156, 0.23350045, -1356416.5, -33838.184, 0.0005678562, 9.998726, 10.000346 
1.675055e+3, 1.7504153e+2, -1311493.8, -1213142.8, 6036.9014, -0.03226121, -0.118605934, -1212773.6, 11825.21, 0.000011659807, 9.999153, 10.000448 
1.6750644e+3, 1.8504126e+2, -1230189.9, -1198401.5, -28119.871, -0.034897693, -0.1453542, -1181994.8, -55396.09, 0.0, 9.999348, 9.999785 
1.6750738e+3, 1.9504341e+2, -1105780.1, -1059083.6, -16017.087, -0.035698473, 0.034576792, -1054117.8, -25539.525, 0.0, 9.9994335, 10.00001 
1.6750841e+3, 2.0504417e+2, -961117.1, -998530.94, 77558.01, -0.041897297, 0.13897033, -900041.9, 30528.951, 0.0, 9.999978, 9.999515 
1.6750957e+3, 2.150433e+2, -718480.3, -809983.2, 121845.234, -0.0639365, 0.050413083, -634080.06, 198498.1, 0.0, 10.000895, 9.999685 
1.6751058e+3, 2.2504231e+2, -693416.6, -894459.8, 2931.633, -0.105143555, 0.058027633, -693373.9, 41214.75, 0.0, 10.001027, 9.998365 
1.6751148e+3, 2.3504104e+2, -636976.2, -793666.5, -21155.434, -0.13258015, 0.03679703, -634170.2, 2433.4675, 0.0, 10.000653, 9.998554 
1.675125e+3, 2.4503934e+2, -483243.56, -696681.56, 23771.963, -0.12470804, 0.031058557, -480628.0, 57991.844, 0.0, 10.001124, 9.998353 
1.6751368e+3, 2.5503716e+2, -154018.56, -462799.38, 55380.316, -0.08868363, -0.07549173, -144386.48, 296251.6, 0.0000000017385277, 10.002632, 9.998545 
1.6751479e+3, 2.6503554e+2, -90685.67, -512878.13, -16654.914, -0.061325192, -0.026795574, -90029.68, 252623.95, 0.0000048816705, 10.002948, 9.9973755 
1.6751581e+3, 2.7503413e+2, -76448.62, -447480.47, -12576.997, -0.020753192, 0.037973255, -76022.77, 168647.22, 0.000051551386, 10.002322, 9.997459 
1.6751689e+3, 2.85032e+2, 19800.504, -407602.38, 54171.6, -0.05667857, 0.121930696, 26559.645, 173251.66, 0.0002714196, 10.002584, 9.996918 
1.6751803e+3, 2.950294e+2, 355518.7, -158120.22, 76849.83, -0.15375291, 0.09482517, 366770.34, 415488.66, 0.0008994481, 10.004075, 9.997227 
1.6751912e+3, 3.050252e+2, 423724.3, -152464.97, -10665.958, -0.22272556, -0.021070527, 423921.7, 423921.7, 0.0020333908, 10.004445, 9.996772 
1.675204e+3, 3.1502423e+2, 394822.75, -34250.445, 27644.057, -0.0030366064, 0.13845056, 396596.47, 396596.47, 0.0035087757, 10.0036335, 9.997955 
1.6850035e+3, 1.2503016e+2, -2027187.1, -1713601.3, 50542.12, 0.03569428, 0.20091528, -1705656.4, 9060.701, 0.04776628, 9.997128, 10.001349 
1.6850156e+3, 1.3502994e+2, -2048591.9, -1763563.0, -23516.246, 0.038126417, 0.056780342, -1761635.9, -144915.19, 0.030093629, 9.996748, 10.000529 
1.6850236e+3, 1.4503184e+2, -1897655.6, -1592160.5, -20234.486, -0.040546585, 0.19415729, -1590826.0, -72124.414, 0.0144471, 9.996881, 10.00097 
1.6850327e+3, 1.550339e+2, -1591757.1, -1333011.8, 41347.71, -0.114780836, 0.21367836, -1326564.9, 94114.43, 0.004479329, 9.998069, 10.001496 
1.6850437e+3, 1.6503376e+2, -1481443.8, -1399363.1, 66920.336, -0.06389189, 0.130186, -1361900.9, -39223.387, 0.0006375465, 9.998873, 9.9999895 
1.685055e+3, 1.7503124e+2, -1251838.0, -1219312.6, 15585.688, 0.034071714, -0.16667444, -1213050.1, 11647.322, 0.00001399049, 9.999712, 10.0001335 
1.6850649e+3, 1.8503118e+2, -1139656.1, -1186045.5, -32750.256, 0.045263655, -0.14823604, -1122718.9, 3978.3203, 0.0, 10.000106, 9.9995 
1.6850735e+3, 1.9503336e+2, -1006882.7, -1047851.4, -63008.324, -0.02745312, 0.063572325, -961112.56, 67565.72, 0.0, 10.000258, 9.999692 
1.6850843e+3, 2.0503405e+2, -905756.4, -955710.44, 38785.926, -0.042740576, 0.1720139, -884601.0, 46071.07, 0.0, 10.000295, 9.999654 
1.6850966e+3, 2.1503325e+2, -802268.44, -828177.06, 64.81108, -0.015638879, 0.07422584, -802268.25, 30409.965, 0.0, 10.00024, 9.9998665 
1.6851074e+3, 2.2503215e+2, -753946.9, -962906.4, -82352.4, -0.027631827, 0.077716716, -725393.0, 9296.445, 0.0, 10.000751, 9.9980545 
1.6851164e+3, 2.3503052e+2, -498715.1, -765324.5, -79001.484, -0.083160155, 0.058927063, -477063.72, 159644.1, 0.0, 10.001747, 9.998249 
1.685127e+3, 2.4502851e+2, -331858.44, -620565.44, 30844.744, -0.087927215, 0.03587439, -328599.84, 210126.8, 0.0, 10.002149, 9.998367 
1.6851392e+3, 2.5502595e+2, -241543.5, -512131.84, -495.40704, -0.062422942, -0.11235288, -241542.6, 199204.78, 0.0000000018399801, 10.002035, 9.998496 
1.6851506e+3, 2.6502427e+2, -180285.89, -572995.3, -58029.145, -0.034260962, -0.05785921, -171890.63, 170872.89, 0.0000039092515, 10.0023985, 9.9972315 
1.685161e+3, 2.7502325e+2, 63931.656, -380404.34, -75618.02, 0.00009488514, 0.06319327, 76447.92, 321224.84, 0.000046409757, 10.003334, 9.997411 
1.6851723e+3, 2.8502142e+2, 179605.42, -338673.2, 58040.18, -0.0122982, 0.17667659, 186025.6, 332823.2, 0.00025645504, 10.00369, 9.996886 
1.6851848e+3, 2.9501888e+2, 243165.17, -217301.89, 26755.77, -0.06729213, 0.16461354, 244714.63, 293538.7, 0.0008664291, 10.003303, 9.997214 
1.6851959e+3, 3.050146e+2, 341270.5, -170871.6, -33945.977, -0.15369748, 0.032902036, 343510.72, 343510.72, 0.0019906864, 10.003735, 9.997021 
1.6852085e+3, 3.1501305e+2, 596533.7, 124195.54, -76320.91, 0.038211744, 0.13222276, 608559.5, 608559.5, 0.003481908, 10.00469, 9.998596 
1.6950025e+3, 1.2501681e+2, -1886811.5, -1469606.9, 17701.54, 0.118638925, 0.07652025, -1468857.1, 245990.33, 0.051028147, 9.997268, 10.003048 
1.6950089e+3, 1.350196e+2, -1946706.4, -1553209.0, -35094.227, -0.33243108, 0.10600688, -1550103.6, 66716.26, 0.032295942, 9.9967375, 10.001997 
1.6950233e+3, 1.4502217e+2, -1815405.1, -1452655.4, 1602.1599, 0.18975203, 0.17434625, -1452648.4, 66142.734, 0.015627254, 9.997002, 10.00188 
1.6950317e+3, 1.5502219e+2, -1549835.9, -1255264.4, 96358.59, -0.060010627, -0.06597788, -1226544.3, 194239.3, 0.004910431, 9.99811, 10.002013 
1.6950415e+3, 1.650227e+2, -1521079.5, -1501835.1, 76774.66, -0.21595469, -0.06819706, -1434082.0, -111304.94, 0.0007170378, 9.998956, 9.999245 
1.6950537e+3, 1.7502406e+2, -1306147.3, -1325473.9, 62090.836, -0.10823759, 0.08981615, -1252972.3, -28204.164, 0.000016975888, 9.999684, 9.999415 
1.6950648e+3, 1.8502404e+2, -1168510.1, -1254740.1, -46108.047, -0.02006493, 0.17181139, -1148499.5, -21728.543, 0.0, 10.000134, 9.999018 
1.6950744e+3, 1.9502237e+2, -1056348.4, -1126909.6, -47551.543, -0.00044894984, 0.048731335, -1032418.6, -3630.8198, 0.0, 10.0001545, 9.999197 
1.6950846e+3, 2.0502149e+2, -973218.1, -1047654.0, 17031.62, -0.06449767, 0.051547576, -969506.2, -38709.04, 0.0, 10.000083, 9.99913 
1.6950956e+3, 2.1502128e+2, -868814.7, -922873.3, 14235.666, -0.17902674, 0.06782165, -865295.06, -32495.078, 0.0, 10.000037, 9.999323 
1.6951068e+3, 2.2502065e+2, -765612.94, -908041.25, -60794.39, -0.18447816, 0.118212484, -743192.6, -8385.877, 0.0, 10.000426, 9.99858 
1.6951182e+3, 2.3501939e+2, -508586.44, -711245.5, -20099.566, -0.08410074, 0.08221743, -506612.22, 130207.21, 0.0, 10.001439, 9.998761 
1.6951297e+3, 2.4501789e+2, -409109.94, -695378.7, 12993.691, -0.06743939, 0.10194608, -408521.38, 130311.61, 0.0, 10.001785, 9.998032 
1.6951412e+3, 2.5501606e+2, -301603.03, -579910.3, 15942.514, -0.09728306, 0.06409845, -300692.75, 140155.86, 0.0000000033657745, 10.001792, 9.998151 
1.6951522e+3, 2.6501375e+2, -223009.11, -587085.2, -37765.766, -0.1412635, 0.07436943, -219132.92, 123737.234, 0.0000030031388, 10.002087, 9.997278 
1.695163e+3, 2.75011e+2, 30283.857, -387836.7, -18296.273, -0.17065953, 0.009796295, 31082.945, 275980.84, 0.000041455987, 10.003072, 9.99748 
1.6951753e+3, 2.8500885e+2, 120776.52, -378165.8, 22888.521, -0.11760088, 0.08772275, 121824.31, 268745.72, 0.00024337543, 10.003337, 9.996785 
1.6951895e+3, 2.9500702e+2, 197524.33, -254907.19, 37120.105, 0.027158309, 0.16247267, 200549.64, 249492.38, 0.0008331997, 10.003038, 9.997093 
1.6952005e+3, 3.050032e+2, 270410.72, -195537.8, -13498.695, -0.09860181, 0.08247448, 270801.47, 270801.47, 0.0019313671, 10.003248, 9.997066 
1.6952115e+3, 3.1500074e+2, 552625.8, 195779.0, 21911.182, -0.19304143, 0.066282615, 553966.1, 553966.1, 0.0034096786, 10.0040245, 9.999385 
1.705e+3, 1.2500526e+2, -2029641.6, -1517434.1, 116020.0, 0.2242236, -0.008586421, -1492380.0, 222576.94, 0.054460447, 9.996221, 10.003224 
1.7050049e+3, 1.3500874e+2, -1908364.9, -1557711.9, -47777.99, -0.422562, 0.12297325, -1551318.4, 65606.76, 0.034638863, 9.9971075, 10.001794 
1.7050217e+3, 1.4501081e+2, -1655102.3, -1390562.5, -70648.805, 0.29255745, 0.15648434, -1372877.1, 146025.27, 0.016903277, 9.998199, 10.00173 
1.705031e+3, 1.5501064e+2, -1475110.0, -1246758.0, -78984.97, 0.03495125, -0.07980031, -1222100.4, 198796.7, 0.00538814, 9.998762, 10.001746 
1.705041e+3, 1.6501133e+2, -1510079.3, -1478811.4, -74528.95, -0.15934393, -0.05636278, -1418294.3, -95405.086, 0.0008082668, 9.998954, 9.999398 
1.7050532e+3, 1.7501335e+2, -1369020.6, -1331497.8, -52982.03, -0.10376504, 0.14955033, -1294053.4, -69179.0, 0.000020835996, 9.999146, 9.999636 
1.7050646e+3, 1.8501335e+2, -1252899.8, -1291071.0, -74445.29, -0.016917221, 0.22190112, -1195132.5, -68256.05, 0.0, 9.99954, 9.999066 
1.7050748e+3, 1.9501105e+2, -1021662.9, -1109803.3, -66693.02, 0.015178689, 0.035016395, -985794.7, 43103.473, 0.0, 10.000385, 9.999222 
1.7050852e+3, 2.0500983e+2, -917115.5, -1054613.3, 35369.4, -0.023801818, 0.019935755, -908550.75, 22360.105, 0.0, 10.000623, 9.998807 
1.7050962e+3, 2.1500969e+2, -842479.44, -947026.9, 12234.149, -0.13103575, 0.0730289, -841066.9, -8152.237, 0.0, 10.000396, 9.998972 
1.7051078e+3, 2.250091e+2, -695458.8, -867676.3, 2473.9414, -0.13473618, 0.1413893, -695423.3, 39498.13, 0.0, 10.000875, 9.998635 
1.7051204e+3, 2.3500785e+2, -423777.66, -658959.1, -29389.232, -0.043802, 0.09979029, -420160.7, 216772.11, 0.0, 10.001978, 9.998848 
1.7051323e+3, 2.4500646e+2, -321817.94, -686337.06, -15657.254, -0.013980766, 0.13796808, -321146.66, 217799.39, 0.0, 10.002529, 9.997741 
1.7051437e+3, 2.5500473e+2, -209618.25, -557782.4, -41890.44, -0.052606594, 0.1400924, -204649.0, 236313.53, 0.0000000026261497, 10.002547, 9.997927 
1.705155e+3, 2.6500234e+2, -108578.52, -507218.97, -25904.1, -0.10079594, 0.13901836, -106902.29, 236082.6, 0.0000021613648, 10.00275, 9.99752 
1.705166e+3, 2.7499923e+2, 46113.918, -359076.9, -31198.693, -0.15861887, 0.019287169, 48502.063, 293515.88, 0.000036656253, 10.003068, 9.997697 
1.7051788e+3, 2.8499693e+2, 112330.49, -357571.5, 38060.258, -0.0745863, 0.06182669, 115393.26, 262430.72, 0.00022921336, 10.0031805, 9.996991 
1.7051934e+3, 2.9499504e+2, 215580.88, -224149.19, 25901.303, 0.13156867, 0.116029926, 217101.28, 266159.9, 0.00079328316, 10.003095, 9.997262 
1.7052045e+3, 3.0499175e+2, 308079.9, -194892.88, 60099.457, -0.0032048798, 0.088059746, 315161.38, 315161.38, 0.001843639, 10.003568, 9.996902 
1.705216e+3, 3.1498882e+2, 581807.0, 209909.75, -18250.24, -0.1285613, 0.042482592, 582700.44, 582700.44, 0.003269799, 10.004249, 9.999333 
1.7149958e+3, 1.2499538e+2, -2089041.0, -1677134.0, -71929.5, 0.07271765, -0.09666831, -1664934.6, 50112.336, 0.058051143, 9.996376, 10.002007 
1.7150033e+3, 1.3499792e+2, -2059838.6, -1861613.8, 33670.97, -0.31499034, 0.1484388, -1856050.5, -239019.98, 0.037118543, 9.997084, 9.999701 
1.7150182e+3, 1.4499797e+2, -1714377.5, -1552419.4, -60172.16, 0.053043276, 0.14998078, -1532510.9, -13477.245, 0.018276531, 9.998358, 10.000532 
1.71503e+3, 1.5499908e+2, -1549009.8, -1406004.6, -41567.047, 0.016654696, 0.1516761, -1394800.3, 26220.984, 0.005915651, 9.998781, 10.000641 
1.7150415e+3, 1.6499966e+2, -1424950.0, -1315894.1, -89579.05, -0.046138577, 0.16336043, -1265552.1, 57461.49, 0.0009130136, 9.999018, 10.000482 
1.7150527e+3, 1.7499937e+2, -1301118.4, -1176560.1, -33651.543, -0.08494999, 0.028531378, -1168050.0, 56964.06, 0.000025810483, 9.999097, 10.000718 
1.7150636e+3, 1.8499935e+2, -1214848.1, -1211544.8, -59185.52, -0.11118079, 0.017756354, -1153987.9, -26975.691, 0.0, 9.999533, 9.999618 
1.715074e+3, 1.9499944e+2, -994733.44, -1033686.2, -20393.227, -0.11463193, 0.013735249, -986010.3, 42998.766, 0.0, 10.000296, 9.999787 
1.7150855e+3, 2.0499909e+2, -956153.0, -1096749.8, 9763.985, -0.08802419, 0.06696888, -955478.1, -24465.027, 0.0, 10.000456, 9.9986 
1.7150979e+3, 2.1499825e+2, -893440.06, -991657.0, 17376.959, -0.016966248, 0.07051849, -890456.3, -57431.54, 0.0, 10.000136, 9.998791 
1.7151101e+3, 2.2499724e+2, -767338.1, -947320.44, 28833.207, -0.025567984, 0.12493551, -762831.9, -27795.703, 0.0, 10.0005665, 9.998244 
1.715122e+3, 2.349959e+2, -486361.2, -738418.8, 28510.027, -0.099445716, 0.11588825, -483176.66, 153872.22, 0.0, 10.001748, 9.998421 
1.7151341e+3, 2.4499418e+2, -386887.25, -736785.3, -32789.86, -0.11594171, 0.15216513, -383840.94, 155225.4, 0.0, 10.002179, 9.997555 
1.7151463e+3, 2.5499183e+2, -267321.3, -611066.4, -22866.787, -0.06705534, 0.1118865, -265806.84, 175283.86, 0.0000000000058928205, 10.002263, 9.997697 
1.7151582e+3, 2.6498967e+2, -124638.31, -468365.63, -30792.775, -0.07608339, 0.124010146, -121901.53, 221209.36, 0.0000014626683, 10.002443, 9.997934 
1.7151697e+3, 2.7498767e+2, 36286.64, -315838.8, 49.783653, -0.12631132, 0.07394146, 36286.645, 281413.6, 0.000032258973, 10.002791, 9.998127 
1.7151824e+3, 2.8498545e+2, 83665.94, -335029.8, 15501.329, -0.07610985, 0.085970804, 84239.055, 231386.34, 0.00021422842, 10.002825, 9.997321 
1.7151962e+3, 2.949827e+2, 203374.8, -188637.53, 52855.074, 0.06698007, 0.012102163, 210376.22, 259550.14, 0.0007461243, 10.002824, 9.997639 
1.715208e+3, 3.0497983e+2, 193433.98, -318416.56, 67644.516, -0.054161172, 0.035328016, 202222.75, 202222.75, 0.0017331638, 10.003112, 9.996261 
1.7152214e+3, 3.149766e+2, 418912.2, 52064.28, 61436.848, -0.08868824, 0.017593108, 428927.7, 428927.7, 0.003082063, 10.003523, 9.998574 
1.7249918e+3, 1.2498394e+2, -2080598.8, -1668215.4, -234440.56, 0.06507391, -0.05344401, -1562193.4, 152967.97, 0.06177432, 9.996388, 10.00209 
1.7250022e+3, 1.3498624e+2, -1864386.0, -1782058.1, 11411.817, -0.18906727, 0.15183535, -1780505.6, -163359.88, 0.039721623, 9.998476, 9.999557 
1.7250162e+3, 1.4498621e+2, -1703955.5, -1624385.8, 14227.308, 0.016561888, 0.19294786, -1621918.4, -102768.67, 0.019743169, 9.99874, 9.999867 
1.7250288e+3, 1.5498675e+2, -1538324.4, -1447858.1, 36655.96, 0.021984005, 0.18887606, -1434870.3, -13725.287, 0.006494274, 9.999027, 10.00026 
1.7250413e+3, 1.6498716e+2, -1412327.9, -1303724.5, 6809.543, 0.03248168, 0.1990528, -1303299.1, 19840.22, 0.001032908, 9.99907, 10.00055 
1.7250523e+3, 1.7498656e+2, -1267791.8, -1155271.0, -46127.316, -0.023421595, 0.025055142, -1138778.6, 86362.945, 0.00003215152, 9.9992895, 10.000775 
1.7250636e+3, 1.8498644e+2, -1180423.1, -1179126.6, -65999.25, -0.06602296, -0.004117402, -1113772.5, 13367.147, 0.0, 9.999698, 9.999758 
1.7250746e+3, 1.94987e+2, -926941.75, -980108.0, -91296.45, -0.101304725, 0.024338191, -858437.0, 170694.8, 0.0, 10.00068, 9.999965 
1.7250866e+3, 2.0498686e+2, -858931.6, -1056696.3, -77656.03, -0.059382424, 0.092665285, -832083.4, 99049.77, 0.0, 10.00115, 9.998549 
1.7250992e+3, 2.1498576e+2, -725264.4, -920687.1, -87096.05, 0.049527273, 0.08067059, -692081.75, 141064.47, 0.0, 10.00132, 9.99872 
1.7251119e+3, 2.249844e+2, -628371.4, -881306.1, 5414.7524, 0.061773963, 0.10786962, -628255.5, 106904.75, 0.0, 10.001561, 9.9981985 
1.7251244e+3, 2.3498279e+2, -457302.2, -729851.75, -9286.852, -0.04072333, 0.07644841, -456986.1, 180189.06, 0.0, 10.002001, 9.998342 
1.7251366e+3, 2.4498098e+2, -363933.75, -718594.8, -41613.707, -0.08163561, 0.1046148, -359116.5, 180076.92, 0.0, 10.002279, 9.997634 
1.7251486e+3, 2.5497887e+2, -252163.03, -591224.9, -38992.977, -0.07223097, 0.07431451, -247736.53, 193479.69, 0.0000000000049057277, 10.002298, 9.997813 
1.725161e+3, 2.6497698e+2, -115379.62, -431844.66, 2457.687, -0.044831336, 0.09457321, -115360.53, 227873.08, 0.0000011502509, 10.002385, 9.998202 
1.7251736e+3, 2.749752e+2, 17248.451, -300865.16, -19378.055, 0.0072316057, 0.047086056, 18424.527, 263671.4, 0.000029351942, 10.002557, 9.998344 
1.7251864e+3, 2.8497303e+2, 122637.984, -318110.06, 23068.564, 0.04210409, 0.05680405, 123842.09, 271108.63, 0.00020332959, 10.003124, 9.997274 
1.7251992e+3, 2.9497012e+2, 391832.1, -102996.75, -29135.098, 0.032257, -0.024810929, 393541.63, 442836.66, 0.0007057303, 10.004173, 9.997556 
1.7252116e+3, 3.0496773e+2, 412770.63, -244752.3, 15547.1, -0.07130575, 0.06624649, 413138.03, 413138.03, 0.0016357172, 10.0047, 9.996038 
1.7252274e+3, 3.149648e+2, 499910.78, -5298.939, -40064.434, 0.1329502, 0.11313473, 503068.28, 503068.28, 0.0029146082, 10.004385, 9.997832 
1.7349876e+3, 1.24971494e+2, -1999198.4, -1520765.1, -71619.35, -0.08501086, 0.1616372, -1510274.1, 205020.67, 0.06561491, 9.99647, 10.003083 
1.7350009e+3, 1.3497335e+2, -1742207.0, -1539085.3, 48353.066, -0.20074369, 0.114542305, -1528162.3, 89111.445, 0.042436883, 9.9985, 10.001242 
1.7350154e+3, 1.4497511e+2, -1698665.9, -1631218.3, -9933.284, -0.002535419, 0.27065754, -1629785.8, -110531.05, 0.021297567, 9.99882, 9.999776 
1.735027e+3, 1.5497369e+2, -1516508.6, -1405110.4, 58743.7, -0.09951228, 0.039147478, -1379857.5, 41410.656, 0.0071235094, 9.999042, 10.000545 
1.7350395e+3, 1.6497393e+2, -1450890.4, -1420103.9, -4231.326, -0.098650366, 0.060806446, -1419533.0, -96267.234, 0.0011691477, 9.999211, 9.999688 
1.7350519e+3, 1.7497481e+2, -1333221.4, -1298908.6, -26587.738, -0.045895915, 0.13072827, -1284422.5, -59164.945, 0.00004011834, 9.9993105, 9.999784 
1.7350638e+3, 1.8497464e+2, -1201087.5, -1223052.1, -51018.316, -0.052979928, 0.1633093, -1159882.9, -32624.135, 0.0, 9.999703, 9.999452 
1.7350759e+3, 1.9497368e+2, -970598.9, -1034109.0, -42712.344, -0.089370236, 0.06511937, -949130.56, 80136.33, 0.0, 10.00052, 9.99967 
1.7350876e+3, 2.0497306e+2, -879471.44, -1055019.4, -88005.086, -0.09998971, 0.09347905, -842950.75, 88321.2, 0.0, 10.000954, 9.998655 
1.7350996e+3, 2.1497242e+2, -747964.44, -923949.56, -64929.223, -0.072356194, 0.11380479, -726602.1, 106675.375, 0.0, 10.001127, 9.998788 
1.7351127e+3, 2.2497083e+2, -658988.9, -878363.9, 6639.575, -0.051100116, 0.10613192, -658788.1, 76503.49, 0.0, 10.001276, 9.998354 
1.735127e+3, 2.3496827e+2, -480792.94, -720915.0, 25509.168, -0.015786031, -0.037397463, -478112.9, 159201.25, 0.0, 10.001745, 9.998528 
1.7351393e+3, 2.4496664e+2, -384866.13, -677775.5, -53437.867, -0.07134819, -0.023689765, -375421.56, 163908.02, 0.0, 10.001929, 9.998081 
1.7351496e+3, 2.549658e+2, -261169.77, -542648.8, -15921.237, -0.2137599, 0.030269574, -260272.08, 181066.83, 0.000000000000012544113, 10.002018, 9.99828 
1.7351623e+3, 2.6496422e+2, -166527.02, -454399.2, -6698.3477, -0.17051072, 0.05446279, -166371.23, 176982.28, 0.0000010511417, 10.002032, 9.998213 
1.7351772e+3, 2.749619e+2, -21676.443, -314728.38, 10334.428, 0.08208612, -0.056760907, -21312.453, 224060.86, 0.000029114979, 10.002288, 9.998366 
1.7351905e+3, 2.8495955e+2, 26649.578, -447799.47, 39607.004, 0.098114386, -0.026194248, 29933.244, 177329.56, 0.00019954766, 10.00282, 9.996534 
1.735202e+3, 2.9495686e+2, 282119.28, -239642.19, 37091.59, -0.14797181, -0.02309331, 284742.9, 334169.1, 0.0006841952, 10.003781, 9.996805 
1.7352147e+3, 3.0495518e+2, 340062.2, -269101.47, -18285.416, -0.26357365, 0.17402105, 340610.56, 340610.56, 0.0015848171, 10.004187, 9.9960985 
1.7352328e+3, 3.149524e+2, 354815.0, -110733.13, 12298.404, 0.16969565, 0.20945129, 355139.66, 355139.66, 0.0028349068, 10.00361, 9.997443 
1.7449848e+3, 1.2495903e+2, -2166869.5, -1670192.0, 35833.1, 0.050926466, 0.2921007, -1667620.1, 47799.793, 0.06957688, 9.995703, 10.002352 
1.7449996e+3, 1.3495961e+2, -1842593.1, -1471406.4, 62484.785, -0.106996976, 0.028049845, -1461170.1, 156237.72, 0.045260757, 9.997312, 10.002307 
1.7450142e+3, 1.449623e+2, -1673693.4, -1633753.1, -867.5934, -0.004728359, 0.2237948, -1633734.3, -114355.54, 0.022935338, 9.999067, 9.999619 
1.7450263e+3, 1.549611e+2, -1466491.9, -1405541.3, -20820.846, -0.09622038, 0.0318856, -1399107.9, 22283.402, 0.0078018596, 9.999501, 10.000293 
1.745039e+3, 1.6496113e+2, -1442733.8, -1454482.3, -59627.547, -0.08196635, 0.06220684, -1388691.8, -65300.484, 0.0013223152, 9.999434, 9.999352 
1.7450517e+3, 1.7496179e+2, -1312433.6, -1319539.5, -65270.445, 0.010307737, 0.14266826, -1250619.5, -25234.057, 0.000049909977, 9.999592, 9.999516 
1.7450643e+3, 1.8496156e+2, -1206483.1, -1232300.3, -5775.1997, 0.025849948, 0.1857339, -1205250.1, -77862.53, 0.0000000000000006446772, 9.999712, 9.999371 
1.7450763e+3, 1.9496047e+2, -1055422.5, -1083258.0, -17192.69, -0.048574474, 0.082305536, -1047220.25, -17822.625, 0.0, 9.999986, 9.999572 
1.7450887e+3, 2.0495965e+2, -913836.7, -1045708.94, -15306.823, -0.058441952, 0.08251432, -912083.3, 19320.424, 0.0, 10.000588, 9.998903 
1.7451015e+3, 2.1495888e+2, -650301.06, -844218.25, -15672.039, -0.0074468763, 0.06463311, -649042.7, 184365.02, 0.0, 10.001653, 9.999086 
1.7451148e+3, 2.249572e+2, -565136.94, -865079.7, 58434.742, 0.0068436605, 0.045010634, -554154.8, 181267.45, 0.0, 10.002031, 9.998099 
1.7451285e+3, 2.3495457e+2, -503790.94, -759736.9, 18384.377, -0.023014186, -0.07947439, -502477.16, 134970.63, 0.0, 10.001701, 9.998288 
1.745141e+3, 2.4495313e+2, -405278.03, -629745.7, -48708.1, -0.062177595, -0.05852678, -395164.34, 144296.77, 0.0, 10.001581, 9.998564 
1.7451523e+3, 2.5495267e+2, -280017.34, -497925.47, -52355.87, -0.12775299, -0.008522107, -268090.78, 173373.45, 0.0, 10.001696, 9.998733 
1.7451653e+3, 2.6495123e+2, -136585.86, -497484.6, -2008.5912, -0.07812408, 0.030969784, -136574.67, 206903.47, 0.0000010008785, 10.002462, 9.997716 
1.74518e+3, 2.7494866e+2, 185883.28, -274408.0, -60276.008, 0.07564358, -0.047726557, 193645.64, 439149.1, 0.000030147008, 10.003942, 9.997853 
1.7451939e+3, 2.8494626e+2, 258855.16, -325807.28, -7625.274, 0.10207597, -0.0049852612, 258954.6, 406482.84, 0.00019898178, 10.004342, 9.996653 
1.7452067e+3, 2.949435e+2, 249443.02, -258541.1, -3057.2024, -0.029413981, -0.013608833, 249461.42, 299018.47, 0.00068108423, 10.003513, 9.996833 
1.7452194e+3, 3.0494148e+2, 286529.25, -231022.05, 53424.457, -0.15744686, 0.12174549, 291986.47, 291986.47, 0.0015910988, 10.003521, 9.996699 
1.7452368e+3, 3.1493932e+2, 546062.94, 5784.796, 30555.572, 0.17649506, 0.16236624, 547785.56, 547785.56, 0.0028724326, 10.004773, 9.997701 
1.7549807e+3, 1.24944754e+2, -2301402.8, -1984799.8, -267130.25, -0.030266372, 0.19422776, -1832588.9, -117034.57, 0.07366958, 9.995843, 10.000114 
1.7549972e+3, 1.349449e+2, -1804194.6, -1391254.6, 167877.19, -0.123230375, -0.12138884, -1331618.3, 285931.28, 0.048192136, 9.9973, 10.002897 
1.7550123e+3, 1.4494823e+2, -1660679.4, -1643296.5, 11438.964, -0.16011609, 0.08645299, -1637621.6, -118104.29, 0.024652572, 9.999215, 9.999489 
1.7550261e+3, 1.5494895e+2, -1519083.9, -1528250.3, 3773.0818, -0.098308995, 0.16915376, -1517730.6, -96216.195, 0.008527423, 9.999545, 9.99944 
1.7550386e+3, 1.649485e+2, -1418157.1, -1414423.4, -86735.66, -0.095579155, 0.18619385, -1329534.5, -6015.3013, 0.0014925194, 9.999492, 9.999598 
1.7550516e+3, 1.7494741e+2, -1292298.3, -1262804.4, -45196.305, 0.0054497127, 0.056056324, -1230010.0, -4483.9214, 0.00006156021, 9.999539, 9.999925 
1.7550643e+3, 1.8494722e+2, -1195642.0, -1209510.4, -12779.463, 0.013049047, 0.07029112, -1188036.6, -60510.58, 0.0000000010737394, 9.999709, 9.999528 
1.7550759e+3, 1.9494739e+2, -1063787.6, -1082357.1, 4968.6216, -0.11683447, 0.08350128, -1062541.8, -33017.418, 0.0, 9.999903, 9.9996195 
1.7550892e+3, 2.0494658e+2, -913970.0, -1007552.6, 6701.2397, -0.100827985, 0.06770955, -913492.56, 18036.527, 0.0, 10.0004225, 9.999244 
1.7551047e+3, 2.1494485e+2, -657003.4, -803777.6, 36725.445, 0.107710205, -0.08564088, -648326.9, 185212.75, 0.0, 10.001415, 9.999479 
1.7551178e+3, 2.2494328e+2, -654969.3, -979718.75, 29923.879, 0.07740313, -0.08248929, -652235.0, 83319.39, 0.0, 10.001723, 9.997461 
1.7551287e+3, 2.3494165e+2, -585299.7, -873757.06, 23355.438, -0.20068435, -0.04412213, -583420.94, 54154.49, 0.0, 10.001458, 9.997625 
1.7551412e+3, 2.4494034e+2, -429076.1, -605375.56, -57088.25, -0.23431163, 0.005624859, -412204.7, 127383.78, 0.0, 10.001265, 9.998884 
1.7551558e+3, 2.549392e+2, -290068.72, -464608.34, -30338.082, 0.018789764, -0.049227096, -284945.78, 156648.84, 0.0, 10.001462, 9.999072 
1.7551695e+3, 2.6493755e+2, -251852.05, -674835.75, 32854.0, 0.051810704, 0.008415216, -249315.42, 94296.03, 0.00000094846536, 10.00219, 9.9966345 
1.755182e+3, 2.7493542e+2, 67394.67, -445058.5, 16792.34, -0.15086232, 0.07460225, 67944.34, 313582.7, 0.000030605133, 10.003626, 9.99683 
1.7551965e+3, 2.8493312e+2, 265198.8, -228869.33, -53025.227, -0.12268279, 0.13234416, 270825.6, 418487.9, 0.0002004244, 10.003981, 9.997492 
1.7552125e+3, 2.949301e+2, 248949.19, -169325.69, -10991.012, 0.16682637, 0.011792126, 249237.8, 298925.66, 0.000696978, 10.003137, 9.997621 
1.7552249e+3, 3.0492696e+2, 268060.8, -156995.14, 67343.03, 0.0012304586, -0.03635377, 278475.03, 278475.03, 0.0016497362, 10.003052, 9.997422 
1.755239e+3, 3.1492606e+2, 452979.63, 20496.91, 150904.77, -0.14997584, 0.02815537, 500428.56, 500428.56, 0.0030018906, 10.003938, 9.998175 
1.7649767e+3, 1.2493066e+2, -2158377.0, -1989021.1, -272399.56, -0.06422768, 0.11822681, -1788441.5, -72748.3, 0.07790593, 9.997109, 9.999477 
1.7649955e+3, 1.3493241e+2, -1785524.4, -1406930.1, 180052.81, -0.01349635, -0.008101079, -1334975.6, 282699.2, 0.05123237, 9.997519, 10.0026865 
1.7650104e+3, 1.4493495e+2, -1838012.1, -1698253.6, 359.46994, -0.19078203, 0.111737214, -1698252.6, -178602.17, 0.026445003, 9.997864, 9.999778 
1.7650259e+3, 1.5493582e+2, -1645601.0, -1562585.1, 18139.096, -0.020329947, 0.19274098, -1558794.8, -137150.61, 0.009296644, 9.998591, 9.999665 
1.765039e+3, 1.6493547e+2, -1451809.1, -1422270.1, -3809.4597, -0.000022901831, 0.20526294, -1421786.8, -98140.12, 0.0016790463, 9.999236, 9.999654 
1.7650515e+3, 1.749341e+2, -1224944.0, -1229116.0, -23014.588, 0.025104012, 0.037272748, -1203921.1, 21734.682, 0.000074904594, 9.999989, 9.999933 
1.7650642e+3, 1.8493368e+2, -1144250.4, -1212849.4, -555.3447, 0.02690593, 0.039482515, -1144245.9, -16587.625, 0.000000009428086, 10.000178, 9.999288 
1.7650764e+3, 1.9493385e+2, -1033445.3, -1090554.5, -39028.344, -0.06553095, 0.08060747, -1013641.1, 16016.256, 0.0, 10.000212, 9.999426 
1.7650904e+3, 2.0493318e+2, -902681.1, -998701.06, -4880.569, -0.025858544, 0.08915852, -902433.7, 29228.344, 0.0, 10.000504, 9.999259 
1.7651063e+3, 2.1493167e+2, -702562.5, -824588.56, -32687.078, 0.16924325, -0.040973127, -694358.25, 139313.84, 0.0, 10.001116, 9.999475 
1.7651199e+3, 2.2493045e+2, -676416.4, -948437.06, -24054.133, 0.13815643, -0.019264761, -674305.7, 61377.92, 0.0, 10.00141, 9.997817 
1.7651305e+3, 2.349294e+2, -554000.06, -815562.2, 1794.2972, -0.14995901, 0.043942086, -553987.75, 83710.33, 0.0, 10.001502, 9.997995 
1.7651433e+3, 2.4492784e+2, -339444.5, -621310.5, -14538.948, -0.16775177, 0.07535033, -338696.56, 201016.27, 0.0, 10.002086, 9.998402 
1.7651586e+3, 2.5492567e+2, -81504.61, -423336.03, -73328.6, 0.09507118, -0.034381203, -66438.43, 375290.47, 0.0, 10.003111, 9.99858 
1.7651728e+3, 2.6492354e+2, -76979.516, -593492.1, 29927.01, 0.10807963, 0.003909716, -75251.31, 268498.6, 0.0000007067664, 10.00342, 9.9965925 
1.7651851e+3, 2.7492145e+2, -26146.385, -494016.44, 41536.258, -0.16108155, 0.07840716, -22487.52, 223288.97, 0.000029110019, 10.003007, 9.996787 
1.7651999e+3, 2.8491923e+2, 125419.26, -277033.44, -10580.978, -0.116724685, 0.1413386, 125697.25, 273496.88, 0.00020337792, 10.00296, 9.997649 
1.7652167e+3, 2.949165e+2, 297941.47, -134144.64, -76026.64, 0.27007404, 0.048179034, 310928.22, 360750.72, 0.0007256054, 10.003447, 9.997711 
1.765229e+3, 3.0491284e+2, 366681.25, -102568.41, 26536.66, 0.09567315, -0.060532775, 368177.16, 368177.16, 0.0017291429, 10.003666, 9.997509 
1.7652425e+3, 3.1491193e+2, 370401.1, -10883.127, -13407.934, -0.13206306, 0.006570003, 370872.0, 370872.0, 0.0031413306, 10.003263, 9.99831 
1.7749745e+3, 1.2491831e+2, -2075901.8, -1869855.9, -170052.64, -0.08390232, 0.18563074, -1774053.3, -58231.97, 0.08231803, 9.997294, 10.000223 
1.7749952e+3, 1.3492262e+2, -1859701.1, -1565984.1, 207138.5, 0.1534827, 0.39518273, -1458925.8, 158853.5, 0.054393712, 9.997552, 10.001541 
1.7750075e+3, 1.4492203e+2, -1779975.3, -1597450.5, 2653.402, -0.3163844, 0.25065044, -1597411.9, -77629.25, 0.02831169, 9.997945, 10.000431 
1.7750248e+3, 1.5492171e+2, -1553577.1, -1378483.3, 57995.535, -0.023020985, 0.09298839, -1361016.1, 60764.62, 0.010105246, 9.998609, 10.000928 
1.7750391e+3, 1.6492212e+2, -1454695.6, -1441536.3, 6201.2056, 0.050864793, 0.11758138, -1439074.5, -115301.09, 0.0018804772, 9.99929, 9.9994955 
1.7750509e+3, 1.7492177e+2, -1253635.9, -1282298.5, 18202.455, -0.06429753, 0.086681195, -1244800.1, -19025.146, 0.00008970714, 9.999964, 9.999579 
1.7750636e+3, 1.8492085e+2, -1188615.1, -1306522.1, -17528.777, -0.10156219, 0.091879785, -1186064.4, -58279.95, 0.000000028818846, 10.000184, 9.998642 
1.7750773e+3, 1.9491976e+2, -1086638.9, -1180421.0, -21734.379, -0.039378595, 0.064513505, -1081846.6, -52048.863, 0.0, 10.000122, 9.998854 
1.7750916e+3, 2.0491932e+2, -951828.75, -1061725.9, 915.3057, 0.006624427, 0.13967046, -951821.1, -20017.32, 0.0, 10.000341, 9.9988985 
1.7751066e+3, 2.1491916e+2, -768291.06, -903508.56, 4677.454, 0.05185141, 0.1812122, -768129.5, 65676.414, 0.0, 10.0008745, 9.9990425 
1.7751205e+3, 2.2491856e+2, -637277.44, -806374.94, -34024.938, 0.037073817, 0.23280804, -630687.94, 105122.85, 0.0, 10.001137, 9.998926 
1.7751336e+3, 2.3491749e+2, -496490.84, -659616.2, 22577.363, -0.016720444, 0.1722101, -493423.7, 144395.14, 0.0, 10.001327, 9.999156 
1.775147e+3, 2.449153e+2, -463999.25, -807986.9, 5742.5864, -0.034425173, 0.13915281, -463903.4, 75934.06, 0.0, 10.001787, 9.997257 
1.7751609e+3, 2.54912e+2, -201468.67, -612421.2, -16464.95, -0.017260974, 0.030199556, -200810.05, 241057.13, 0.0, 10.002862, 9.997397 
1.7751747e+3, 2.649092e+2, -70231.805, -501213.28, 1803.4271, -0.052676044, 0.019784244, -70224.26, 273669.0, 0.00000032366296, 10.003093, 9.99738 
1.7751887e+3, 2.7490684e+2, -21783.586, -399193.84, 48514.273, -0.12895861, -0.012086963, -15647.085, 230270.0, 0.00002512301, 10.002663, 9.997592 
1.7752035e+3, 2.8490466e+2, 18964.908, -417898.47, -17419.02, -0.0825794, 0.058354393, 19658.354, 167598.05, 0.00020098852, 10.002606, 9.996855 
1.7752188e+3, 2.9490268e+2, 199136.53, -262333.47, -32584.752, 0.11286873, 0.101408765, 201426.0, 251387.47, 0.00074255146, 10.003119, 9.996983 
1.7752315e+3, 3.0489904e+2, 257550.7, -223784.98, -3954.3223, -0.0615477, 0.058996197, 257583.19, 257583.19, 0.0017709951, 10.003227, 9.9968815 
1.7752469e+3, 3.1489873e+2, 238948.02, -69952.34, 57276.664, -0.09502111, 0.25054556, 249226.33, 249226.33, 0.0031864115, 10.002419, 9.998276 
1.7849731e+3, 1.2490557e+2, -1938506.3, -1770242.4, -163944.9, 0.022660263, 0.31553173, -1670102.4, 45846.824, 0.08696164, 9.998139, 10.000495 
1.7849928e+3, 1.3490942e+2, -1877109.6, -1630667.9, 119488.64, 0.16642164, 0.5363516, -1582246.9, 35664.43, 0.057701517, 9.9977455, 10.000944 
1.7850061e+3, 1.4490657e+2, -1872698.1, -1586226.9, 18697.766, -0.1970058, 0.17789479, -1585011.8, -65075.99, 0.030258754, 9.997077, 10.000923 
1.7850235e+3, 1.5490732e+2, -1602972.8, -1334376.9, -1778.7914, 0.036288496, 0.06287462, -1334365.1, 87556.195, 0.0109521225, 9.997969, 10.001539 
1.7850383e+3, 1.6490853e+2, -1551322.3, -1474119.1, -43758.598, 0.09121779, 0.12746058, -1454369.3, -130463.8, 0.0020959692, 9.998573, 9.999612 
1.785051e+3, 1.7490825e+2, -1373265.5, -1324907.9, -41893.473, -0.012809017, 0.092990935, -1300716.5, -74809.5, 0.000105867584, 9.999102, 9.999692 
1.7850643e+3, 1.8490724e+2, -1229175.3, -1337411.4, -1705.0367, -0.019344822, 0.09010502, -1229148.4, -101230.44, 0.0000000562377, 9.999948, 9.998552 
1.7850788e+3, 1.9490607e+2, -903247.06, -1099475.1, 5575.866, 0.055685997, 0.059102446, -903088.75, 126843.94, 0.0, 10.001396, 9.998798 
1.785093e+3, 2.0490572e+2, -760053.0, -990335.56, 53732.344, 0.0511991, 0.15562548, -748132.56, 183806.2, 0.0, 10.001748, 9.998713 
1.7851065e+3, 2.1490581e+2, -737384.0, -907990.0, 37572.293, -0.04203413, 0.24079935, -729476.06, 104463.875, 0.0, 10.001166, 9.998873 
1.785121e+3, 2.2490504e+2, -596624.75, -795283.56, 26308.154, -0.040673517, 0.2896253, -593199.8, 142747.17, 0.0, 10.001467, 9.998848 
1.7851363e+3, 2.3490345e+2, -301960.88, -574858.3, -42757.316, 0.059688322, 0.19002609, -295418.56, 342541.03, 0.0, 10.002721, 9.999069 
1.7851508e+3, 2.4490115e+2, -241398.55, -711219.2, -48836.16, 0.08249507, 0.15787825, -236375.9, 303603.63, 0.0, 10.003381, 9.997145 
1.7851642e+3, 2.5489807e+2, -123608.04, -587795.75, -31497.982, 0.0029584547, 0.084766515, -121480.46, 320527.28, 0.0, 10.003471, 9.997262 
1.785178e+3, 2.6489532e+2, -41337.22, -450808.0, -7437.079, -0.036010094, 0.06771106, -41202.188, 302830.34, 0.00000018370703, 10.003105, 9.997736 
1.7851917e+3, 2.748926e+2, -51503.26, -386296.72, -27505.924, -0.055952918, -0.030117756, -49258.484, 196798.38, 0.000020759246, 10.002288, 9.997891 
1.7852066e+3, 2.848904e+2, 6184.601, -422047.25, 23354.97, -0.0032619992, 0.02353535, 7454.5713, 155533.39, 0.0001926232, 10.002523, 9.996855 
1.7852226e+3, 2.9488888e+2, 320304.94, -209337.75, 9799.071, 0.14006996, 0.11963866, 320486.2, 370583.16, 0.00073852757, 10.003967, 9.996937 
1.7852354e+3, 3.0488518e+2, 440076.56, -136928.77, 71733.57, -0.03231701, 0.07500021, 448860.78, 448860.78, 0.0017552006, 10.004503, 9.996855 
1.7852505e+3, 3.1488368e+2, 447679.66, 27982.295, 78821.82, -0.01143826, 0.16494869, 461994.66, 461994.66, 0.0031055089, 10.003829, 9.998295 
1.7949721e+3, 1.2488983e+2, -1933587.9, -1805531.1, -280724.03, 0.008237722, 0.2334175, -1581626.1, 134476.53, 0.09190124, 9.998342, 10.000199 
1.7949873e+3, 1.3489273e+2, -1854295.1, -1621624.5, 78103.66, -0.19918361, 0.39505413, -1597838.1, 20234.113, 0.06119029, 9.997875, 10.0009575 
1.7950058e+3, 1.448887e+2, -1849302.0, -1546337.0, 18519.166, 0.014865149, -0.10899047, -1545209.3, -25100.598, 0.03230053, 9.997126, 10.001169 
1.7950219e+3, 1.5489273e+2, -1614480.9, -1351186.5, 46536.207, 0.03230424, 0.11107262, -1343203.5, 78861.58, 0.011841973, 9.997951, 10.001428 
1.795036e+3, 1.6489464e+2, -1513247.3, -1417330.8, -44718.89, -0.04104679, 0.23979478, -1399716.4, -75673.016, 0.0023264778, 9.998655, 9.9999695 
1.795051e+3, 1.7489333e+2, -1335894.5, -1252196.0, -12743.758, 0.049374986, 0.056743104, -1250298.6, -24244.754, 0.00012352158, 9.999111, 10.000195 
1.795066e+3, 1.8489262e+2, -1190078.8, -1259820.5, 32458.799, 0.10850294, 0.028863141, -1177309.9, -49248.996, 0.000000085167756, 9.999968, 9.99907 
1.7950808e+3, 1.9489264e+2, -890471.1, -1045672.3, 69142.67, 0.079925165, 0.07042248, -864136.4, 165926.55, 0.0, 10.001282, 9.99922 
1.7950939e+3, 2.0489238e+2, -784832.9, -1001396.44, 12646.462, -0.056679014, 0.15536895, -784096.9, 147969.8, 0.0, 10.001566, 9.998729 
1.7951058e+3, 2.1489167e+2, -763307.06, -916878.2, 28993.844, -0.2476325, 0.15727167, -758015.44, 76058.42, 0.0, 10.000964, 9.998917 
1.7951205e+3, 2.2488992e+2, -733791.2, -1010688.3, 55904.16, -0.24753387, 0.17049062, -722930.4, 13161.901, 0.0, 10.001171, 9.997511 
1.7951381e+3, 2.3488718e+2, -438824.22, -792872.7, 22425.756, -0.04534365, 0.0892351, -437409.4, 200712.08, 0.0, 10.0024395, 9.9977045 
1.7951539e+3, 2.4488519e+2, -239624.86, -628846.7, -55921.918, 0.031165756, 0.12017857, -231749.56, 308391.16, 0.0, 10.003041, 9.997874 
1.7951679e+3, 2.5488386e+2, -108500.68, -492095.75, -9851.784, 0.0062298765, 0.14368407, -108247.83, 333903.16, 0.0, 10.003202, 9.998043 
1.7951815e+3, 2.6488164e+2, -94635.57, -488652.3, -53541.547, -0.021713452, 0.14991082, -87489.6, 256680.1, 0.00000013255313, 10.00279, 9.99763 
1.795194e+3, 2.748786e+2, -96115.72, -409818.94, -39980.742, -0.090722136, 0.01968506, -91100.445, 155096.39, 0.0000188634, 10.002011, 9.997853 
1.795209e+3, 2.848765e+2, -2334.0808, -364457.5, 56066.723, -0.057803903, 0.054076135, 6147.9243, 154364.0, 0.00018772867, 10.0021925, 9.997414 
1.795227e+3, 2.9487532e+2, 299904.75, -143849.92, 94694.95, 0.14687857, 0.12604296, 319267.3, 369495.1, 0.00073078944, 10.003523, 9.997591 
1.79524e+3, 3.048714e+2, 370616.16, -166414.63, 25542.555, -0.04833505, 0.023673758, 371828.3, 371828.3, 0.0017135299, 10.003988, 9.996911 
1.7952527e+3, 3.1486732e+2, 382699.63, 60004.76, 130945.375, -0.24920568, -0.17108686, 429149.44, 429149.44, 0.0029601206, 10.003158, 9.998812 
1.8049718e+3, 1.24874696e+2, -1916328.4, -1795177.0, -114057.78, 0.15135188, 0.122928225, -1726607.0, -10359.581, 0.097200245, 9.9984865, 10.000127 
1.8049847e+3, 1.3487738e+2, -1895801.4, -1664844.8, 78748.31, -0.22755675, 0.2993387, -1640549.9, -22331.004, 0.06490086, 9.997717, 10.000719 
1.805004e+3, 1.4487389e+2, -1840887.0, -1597083.9, 82619.25, 0.13311818, -0.12409563, -1571724.0, -51472.746, 0.034457777, 9.997397, 10.000695 
1.8050207e+3, 1.5487775e+2, -1596955.6, -1402591.9, 48263.24, 0.12812349, 0.13013862, -1391267.3, 30944.967, 0.0127833225, 9.99832, 10.0008955 
1.8050353e+3, 1.648794e+2, -1460091.0, -1366734.4, -33923.69, 0.018769179, 0.2510311, -1355709.3, -31514.992, 0.0025744103, 9.998915, 10.000195 
1.8050505e+3, 1.7487837e+2, -1259296.1, -1181510.4, -50721.273, 0.09029765, 0.06786166, -1156486.9, 69715.26, 0.00014305822, 9.999495, 10.000486 
1.8050662e+3, 1.8487807e+2, -1191082.8, -1232650.4, 15998.654, 0.14308152, 0.051582478, -1185638.3, -57433.676, 0.00000010953618, 9.99984, 9.99932 
1.8050812e+3, 1.9487846e+2, -1042026.44, -1088268.1, 4682.909, 0.064742826, 0.10718272, -1041557.0, -11355.017, 0.0, 10.000123, 9.999484 
1.8050948e+3, 2.0487806e+2, -912972.9, -1062121.5, -48920.992, -0.06432934, 0.16570565, -898358.6, 33847.688, 0.0, 10.000673, 9.998758 
1.8051074e+3, 2.1487679e+2, -665794.44, -865655.5, -64141.85, -0.20831999, 0.1087389, -646980.3, 187238.52, 0.0, 10.001614, 9.998962 
1.8051226e+3, 2.2487497e+2, -593872.06, -933461.56, 58454.4, -0.19539729, 0.109212935, -584091.9, 152145.63, 0.0, 10.002093, 9.997586 
1.8051404e+3, 2.3487261e+2, -464668.13, -798821.0, 95605.83, -0.043362398, 0.062346067, -439247.78, 199015.03, 0.0, 10.002236, 9.997754 
1.8051565e+3, 2.4487105e+2, -289579.63, -625860.2, 66688.42, 0.01926854, 0.119449675, -276837.34, 263440.97, 0.0, 10.002561, 9.99815 
1.8051708e+3, 2.548701e+2, -119225.13, -474991.72, 42402.95, -0.0038887642, 0.1606875, -114241.055, 328044.97, 0.0, 10.003, 9.99829 
1.8051846e+3, 2.6486802e+2, -16981.896, -476160.22, -9712.945, 0.0013678924, 0.18064037, -16776.533, 327527.72, 0.00000007008213, 10.003446, 9.99739 
1.8051976e+3, 2.7486476e+2, 173011.1, -319242.53, -55611.973, -0.017984407, 0.06575658, 179215.61, 425549.4, 0.000018211349, 10.004019, 9.997516 
1.8052126e+3, 2.8486228e+2, 222251.84, -250117.16, 57649.316, 0.029719029, 0.075377844, 229185.75, 377542.75, 0.00018396281, 10.003696, 9.997479 
1.8052302e+3, 2.9486045e+2, 175108.56, -201536.94, 9515.282, 0.1873977, 0.08392144, 175348.8, 225723.25, 0.0007176876, 10.002633, 9.997634 
1.8052442e+3, 3.0485705e+2, 227425.34, -199098.73, -16130.318, 0.04063172, 0.014078417, 228034.5, 228034.5, 0.0016608945, 10.002869, 9.997211 
1.8052575e+3, 3.148537e+2, 535982.56, 135402.1, -1347.1104, -0.09902339, -0.10754225, 535987.1, 535987.1, 0.0028188718, 10.004099, 9.998929 
1.8149701e+3, 1.2486218e+2, -1883486.6, -1771079.1, 26403.533, 0.04071787, 0.18308757, -1765186.1, -48822.137, 0.10291468, 9.99865, 10.000226 
1.8149847e+3, 1.3486315e+2, -1940036.8, -1756986.8, 52719.332, -0.036550198, 0.24363257, -1742889.0, -124535.72, 0.06887483, 9.997717, 10.00009 
1.8150003e+3, 1.4486176e+2, -1895540.0, -1726120.6, 87355.72, -0.028540622, 0.11125631, -1689147.3, -168780.13, 0.036753505, 9.997461, 9.999782 
1.8150198e+3, 1.5486214e+2, -1650064.9, -1522495.8, 96229.29, 0.17452522, 0.105356954, -1470831.0, -48466.15, 0.01378539, 9.998354, 10.000059 
1.8150355e+3, 1.648628e+2, -1438123.1, -1340653.9, -31672.309, 0.09324878, 0.15637502, -1331266.3, -6907.716, 0.002842686, 9.998997, 10.000333 
1.8150495e+3, 1.748634e+2, -1259130.6, -1182702.3, -15560.232, -0.010019881, 0.13096604, -1179655.8, 46695.67, 0.00016504708, 9.999491, 10.0004835 
1.8150644e+3, 1.8486366e+2, -1189873.0, -1230463.6, 7814.2573, -0.059384454, 0.17391638, -1188420.6, -60072.438, 0.00000012908751, 9.999838, 9.999337 
1.8150799e+3, 1.9486359e+2, -1045633.4, -1081938.9, 27796.123, -0.11638938, 0.17637384, -1030587.56, -238.41699, 0.0, 10.000057, 9.999562 
1.8150951e+3, 2.0486276e+2, -940552.3, -1074854.1, -28925.36, -0.13124898, 0.18599357, -934587.44, -2229.7725, 0.0, 10.000488, 9.998755 
1.8151107e+3, 2.14861e+2, -705159.7, -887731.8, -12323.711, -0.056792255, 0.08356323, -704331.56, 130044.1, 0.0, 10.001358, 9.998932 
1.8151265e+3, 2.2486e+2, -550882.9, -763583.44, 49823.41, -0.040468413, 0.09903654, -539790.6, 196593.8, 0.0, 10.001747, 9.998919 
1.8151426e+3, 2.3485972e+2, -410910.25, -623694.56, 116678.52, -0.07603201, 0.12420344, -359400.0, 278984.1, 0.0, 10.001963, 9.999087 
1.8151578e+3, 2.4485855e+2, -357612.3, -693177.94, 69082.97, -0.12581146, 0.17017296, -343946.72, 196447.63, 0.0, 10.002243, 9.997834 
1.8151724e+3, 2.5485647e+2, -172573.2, -524975.9, 75863.945, -0.16265146, 0.120789126, -156935.42, 285479.94, 0.0, 10.002745, 9.99806 
1.8151872e+3, 2.6485413e+2, -109664.6, -590915.06, -5636.6123, -0.1190816, 0.14991786, -109598.586, 234840.08, 0.0000000874347, 10.003106, 9.996768 
1.8152021e+3, 2.7485114e+2, 80703.586, -430900.63, -12390.714, 0.0037967016, 0.11847166, 81003.5, 327470.94, 0.00001648955, 10.00369, 9.996898 
1.815217e+3, 2.8484792e+2, 129806.39, -369421.47, -1626.7853, 0.05544655, 0.122287855, 129811.69, 278311.1, 0.00017264257, 10.00337, 9.996821 
1.8152322e+3, 2.9484445e+2, 99139.05, -298240.53, -3163.047, 0.07372093, 0.013619921, 99164.23, 149698.66, 0.00068283465, 10.002364, 9.997098 
1.8152471e+3, 3.0484217e+2, 174476.19, -211095.22, 8289.251, 0.002520804, 0.07202583, 174654.31, 174654.31, 0.0015899244, 10.0024605, 9.997321 
1.8152629e+3, 3.1484038e+2, 428407.28, 132604.1, 88440.01, -0.05298608, 0.08106892, 452832.47, 452832.47, 0.0027098581, 10.003232, 9.999283 
1.8249688e+3, 1.2484677e+2, -1961049.3, -1826242.9, 92306.734, 0.08434578, 0.13155167, -1779349.4, -62842.676, 0.10907774, 9.998175, 10.000075 
1.8249837e+3, 1.3484609e+2, -1766899.1, -1703203.4, -89959.836, 0.04209692, 0.046401598, -1639620.3, -21105.018, 0.07313931, 9.998979, 9.999867 
1.8249987e+3, 1.4484766e+2, -1727565.5, -1630063.4, 68701.24, 0.015617396, 0.21329716, -1594573.6, -74072.09, 0.039204508, 9.998585, 9.9998865 
1.8250188e+3, 1.5484652e+2, -1612374.8, -1499850.6, 109816.195, 0.22607113, 0.05368137, -1432723.0, -10208.895, 0.014855209, 9.998627, 10.00007 
1.8250348e+3, 1.6484654e+2, -1460135.0, -1390079.3, 34720.375, 0.13684426, 0.061029777, -1375787.1, -51271.805, 0.0031336718, 9.999013, 9.99998 
1.8250488e+3, 1.7484806e+2, -1230386.3, -1204646.4, -11651.376, -0.023877084, 0.16113593, -1200155.6, 26346.207, 0.00019006866, 9.999856, 10.0001545 
1.8250643e+3, 1.8484852e+2, -1155913.5, -1198769.4, 7697.7813, -0.055140972, 0.23328617, -1154572.8, -26075.22, 0.00000015151502, 10.000002, 9.9994755 
1.8250802e+3, 1.9484764e+2, -1095720.9, -1086173.9, 696.15485, -0.05849175, 0.14235234, -1086123.4, -55618.71, 0.0, 9.999655, 9.999719 
1.825096e+3, 2.0484677e+2, -1045014.7, -1105258.1, 8595.838, -0.031212471, 0.13059534, -1043812.2, -111299.32, 0.0, 9.999695, 9.998908 
1.8251124e+3, 2.148457e+2, -859479.56, -940658.56, 8242.601, 0.046763368, 0.07679312, -858651.06, -24126.723, 0.0, 10.000221, 9.999093 
1.8251286e+3, 2.2484511e+2, -662986.0, -771400.1, 66211.445, 0.05619565, 0.10233368, -631622.25, 104906.1, 0.0, 10.000752, 9.99936 
1.8251446e+3, 2.3484492e+2, -476938.1, -600095.4, 37548.934, -0.027234636, 0.09132825, -466392.88, 172132.44, 0.0, 10.001264, 9.999594 
1.82516e+3, 2.4484363e+2, -419206.84, -742891.56, 6160.077, -0.10570907, 0.105422646, -419089.66, 121446.664, 0.0, 10.0019, 9.997654 
1.825175e+3, 2.548411e+2, -199733.05, -561223.2, -15224.568, -0.17544708, 0.03142822, -199092.98, 243469.77, 0.0, 10.002649, 9.9978485 
1.8251905e+3, 2.6483878e+2, -78257.47, -569074.25, -45324.324, -0.104240395, 0.07479744, -74107.1, 270479.38, 0.00000011582431, 10.003306, 9.996817 
1.8252067e+3, 2.7483642e+2, 116164.52, -414803.28, -52248.277, 0.085535556, 0.10653213, 121257.01, 367867.6, 0.000015405387, 10.003927, 9.996902 
1.8252216e+3, 2.8483322e+2, 217616.5, -379630.88, -9766.326, 0.1463601, 0.13838352, 217776.16, 366419.88, 0.00016033727, 10.004224, 9.996331 
1.8252352e+3, 2.948293e+2, 327899.5, -256930.06, -58402.008, 0.066786855, 0.04918352, 333674.6, 384359.47, 0.0006397898, 10.004229, 9.9964905 
1.8252508e+3, 3.0482686e+2, 421859.2, -101139.516, 24881.273, 0.06277523, 0.12640537, 423040.22, 423040.22, 0.0015189088, 10.004185, 9.997256 
1.8252681e+3, 3.1482503e+2, 533387.25, 142827.13, -49952.63, 0.14224619, 0.15599288, 539674.94, 539674.94, 0.00264817, 10.004052, 9.999014 
1.8349676e+3, 1.248283e+2, -1976780.1, -1886758.6, 180873.52, 0.061327893, -0.045061503, -1745379.5, -28702.014, 0.11569034, 9.998286, 9.999607 
1.8349811e+3, 1.3482618e+2, -1726978.5, -1642340.1, -75678.445, -0.14078236, -0.28678843, -1597952.1, 20752.197, 0.07769921, 9.999057, 10.00026 
1.8349983e+3, 1.448317e+2, -1637119.6, -1473796.9, 35649.93, 0.064414516, 0.18956475, -1466354.4, 54298.527, 0.04181763, 9.998704, 10.0009165 
1.8350169e+3, 1.5483078e+2, -1554897.9, -1395171.3, 124886.79, 0.13756005, -0.025348807, -1326795.4, 95865.62, 0.015997248, 9.9986725, 10.000778 
1.8350329e+3, 1.648305e+2, -1501145.1, -1497751.6, 46390.11, -0.0073471586, -0.04096596, -1453027.3, -128361.03, 0.0034491862, 9.999106, 9.999199 
1.8350485e+3, 1.748321e+2, -1272267.1, -1302592.4, 29828.146, -0.08405986, 0.13809162, -1253969.0, -27312.63, 0.00021871291, 9.999888, 9.999471 
1.8350649e+3, 1.8483229e+2, -1143956.8, -1168977.8, -23481.87, -0.025958609, 0.2055824, -1129860.6, -1204.7958, 0.00000018976193, 9.999989, 9.999683 
1.8350817e+3, 1.9483043e+2, -1098402.3, -1072103.3, -907.03503, 0.09580979, -0.001975154, -1072072.0, -41401.55, 0.0, 9.999569, 9.999856 
1.8350972e+3, 2.0482989e+2, -1041563.3, -1061973.6, 10910.786, 0.07754511, -0.0074411086, -1036828.94, -104154.67, 0.0, 9.999535, 9.999284 
1.8351121e+3, 2.1483077e+2, -861767.5, -897170.8, 38636.004, -0.032849412, 0.09669158, -836971.06, -2305.0022, 0.0, 10.000011, 9.999493 
1.8351284e+3, 2.2483025e+2, -732436.56, -847539.6, 71363.875, -0.067001045, 0.13036396, -698309.44, 38360.3, 0.0, 10.000457, 9.998983 
1.8351461e+3, 2.348281e+2, -535944.56, -669403.1, 72265.71, -0.024249498, -0.043105476, -504311.6, 134376.1, 0.0, 10.001032, 9.999236 
1.8351625e+3, 2.4482612e+2, -470457.88, -772088.4, 16953.2, -0.07149343, -0.07630962, -469508.0, 71197.62, 0.0, 10.001564, 9.997621 
1.8351775e+3, 2.5482416e+2, -252432.23, -597364.6, 31926.418, -0.18650079, -0.08256294, -249502.06, 193223.34, 0.0, 10.002341, 9.997751 
1.8351938e+3, 2.648224e+2, -96174.07, -536737.06, -35313.508, -0.14227591, 0.0022209208, -93361.46, 251382.47, 0.000000090536304, 10.002996, 9.997192 
1.8352106e+3, 2.7482063e+2, 114514.87, -359430.03, -6009.983, 0.069156185, 0.042797636, 114591.06, 361354.1, 0.00001528185, 10.003673, 9.997404 
1.8352258e+3, 2.84818e+2, 131756.84, -482431.3, -34188.03, 0.113266535, 0.12935282, 133654.03, 282445.78, 0.00015301339, 10.003889, 9.99579 
1.8352391e+3, 2.948147e+2, 237424.7, -359285.34, -28533.848, -0.015711525, 0.15251555, 238786.05, 289615.25, 0.00060731446, 10.003867, 9.9959545 
1.8352547e+3, 3.0481124e+2, 297911.53, -241966.27, 1035.5253, -0.000009434097, 0.19998123, 297913.5, 297913.5, 0.0014671806, 10.003695, 9.99652 
1.8352714e+3, 3.1480837e+2, 353832.9, -70067.086, -19111.67, 0.0009848579, 0.16755953, 354692.8, 354692.8, 0.0026244964, 10.003399, 9.997843 
1.8449663e+3, 1.248101e+2, -2189895.0, -1932851.5, 162821.88, 0.1991042, -0.06637333, -1853939.4, -137082.98, 0.12272786, 9.99662, 10.000091 
1.8449794e+3, 1.3480759e+2, -1900117.0, -1597704.6, -90819.805, -0.13289873, -0.4507959, -1572526.1, 46359.63, 0.08254445, 9.997371, 10.001375 
1.8449971e+3, 1.4481631e+2, -1690254.8, -1508017.8, 4645.641, 0.10607363, 0.29458338, -1507899.5, 12903.241, 0.04459436, 9.998355, 10.00085 
1.845015e+3, 1.5481457e+2, -1571451.4, -1409255.0, -1220.3406, 0.091837265, 0.0032033785, -1409245.8, 13574.013, 0.017215712, 9.998577, 10.000723 
1.8450315e+3, 1.6481398e+2, -1553762.4, -1498056.3, -15827.812, -0.016082477, -0.052312903, -1493873.3, -169045.0, 0.0037916328, 9.998655, 9.999417 
1.8450485e+3, 1.7481562e+2, -1365111.3, -1319507.3, 2927.6213, -0.014675197, 0.11236504, -1319320.1, -92502.89, 0.00025177147, 9.999152, 9.999709 
1.8450654e+3, 1.8481591e+2, -1212165.1, -1197244.6, -18566.701, 0.054490056, 0.17621656, -1184695.4, -55879.977, 0.00000025167606, 9.9995, 9.999722 
1.8450813e+3, 1.9481425e+2, -1042632.1, -1042675.4, -35365.51, 0.10216088, -0.016912844, -1007288.2, 23540.266, 0.0, 9.999932, 9.999881 
1.8450971e+3, 2.0481381e+2, -915195.1, -979181.5, 11684.854, 0.079906985, -0.021748073, -913128.1, 19702.604, 0.0, 10.000315, 9.999483 
1.8451129e+3, 2.1481477e+2, -720407.6, -808108.1, -6935.17, 0.004535619, 0.074563265, -719862.56, 114957.99, 0.0, 10.000903, 9.999684 
1.8451297e+3, 2.2481413e+2, -670880.8, -905956.06, 30241.068, -0.0041122204, 0.12505648, -667052.8, 69774.23, 0.0, 10.001269, 9.9981785 
1.8451476e+3, 2.3481153e+2, -531138.94, -762386.2, -32520.39, 0.017731722, -0.01015879, -526652.6, 112201.41, 0.0, 10.001469, 9.998374 
1.8451647e+3, 2.4480954e+2, -395922.63, -665152.1, -44675.934, -0.0029903082, -0.034873582, -388702.72, 152170.11, 0.0, 10.001794, 9.998225 
1.8451808e+3, 2.5480813e+2, -211453.3, -510285.7, -19313.662, -0.075677894, -0.04761855, -210210.22, 232673.67, 0.0, 10.002327, 9.998352 
1.8451974e+3, 2.6480645e+2, -115317.25, -532883.94, -36840.48, -0.055970404, 0.009875858, -112091.85, 232808.03, 0.00000009817215, 10.002815, 9.997306 
1.8452138e+3, 2.7480435e+2, 64290.41, -376575.28, -69068.305, 0.038767308, 0.017292112, 74857.71, 321780.25, 0.000013983738, 10.003303, 9.997462 
1.8452291e+3, 2.8480187e+2, 140944.83, -431709.56, -59274.273, 0.0739409, 0.09717854, 147015.81, 295965.38, 0.00014297603, 10.003751, 9.996209 
1.8452433e+3, 2.9479933e+2, 317168.25, -266908.94, -44246.797, 0.025889862, 0.15417302, 320501.16, 371479.44, 0.00057426473, 10.00418, 9.996444 
1.8452598e+3, 3.0479544e+2, 405070.34, -250631.53, 81522.97, 0.09476741, 0.15666582, 415054.03, 415054.03, 0.0014122091, 10.004679, 9.9959955 
1.8452759e+3, 3.147919e+2, 590575.06, -26375.465, -62798.1, 0.0405122, 0.13185668, 596902.25, 596902.25, 0.0025791223, 10.005302, 9.9972315 
1.8549632e+3, 1.2479379e+2, -2073035.1, -1759024.3, -12230.888, 0.13985997, 0.2134915, -1758548.6, -41520.92, 0.13014582, 9.996858, 10.001195 
1.8549776e+3, 1.3479018e+2, -1787282.5, -1387478.8, -18730.666, -0.088341355, -0.46587572, -1386603.1, 232457.77, 0.08765755, 9.997376, 10.002949 
1.8549947e+3, 1.4480141e+2, -1743311.3, -1648985.1, 2067.8877, -0.024007406, 0.5111022, -1648939.9, -127988.055, 0.04753598, 9.998488, 9.999819 
1.8550125e+3, 1.5479785e+2, -1617932.0, -1523949.5, 16956.814, -0.055742044, 0.1275523, -1520983.8, -97992.85, 0.01851746, 9.9986515, 9.999902 
1.85503e+3, 1.6479692e+2, -1462026.5, -1325969.4, -23140.166, -0.07840129, 0.019118348, -1322141.5, 2860.5469, 0.0041650403, 9.9987335, 10.00056 
1.8550487e+3, 1.7479858e+2, -1292290.9, -1166666.4, 34860.492, 0.051724643, 0.07484739, -1157641.0, 69343.91, 0.00029041685, 9.999135, 10.000769 
1.8550651e+3, 1.8479928e+2, -1219302.9, -1209676.9, -22394.445, 0.030871507, 0.1325324, -1191584.1, -62606.703, 0.0000003514084, 9.999493, 9.999642 
1.8550788e+3, 1.9479902e+2, -1062596.5, -1059564.3, -9411.17, -0.16598395, 0.091244996, -1051547.9, -20568.682, 0.0, 9.999825, 9.999819 
1.8550952e+3, 2.0479852e+2, -948262.9, -1004409.4, 15664.884, -0.18139939, 0.08798879, -944188.06, -11205.483, 0.0, 10.000129, 9.999399 
1.8551143e+3, 2.1479768e+2, -759808.1, -837199.4, 28460.28, 0.034154203, 0.00882469, -750469.0, 84519.31, 0.0, 10.000679, 9.999591 
1.8551323e+3, 2.2479664e+2, -791467.06, -1092467.6, 23126.402, 0.08574444, 0.078952104, -789700.6, -52699.305, 0.0, 10.000985, 9.997041 
1.8551488e+3, 2.3479523e+2, -649151.75, -954578.6, -7370.4785, -0.039297033, 0.18326338, -648973.94, -9949.988, 0.0, 10.001236, 9.997171 
1.8551661e+3, 2.4479395e+2, -368633.16, -536450.2, -36749.035, -0.06823424, 0.24341886, -360938.56, 180098.17, 0.0, 10.001483, 9.999257 
1.8551846e+3, 2.5479278e+2, -169771.64, -358807.06, 17982.965, 0.025401521, 0.13756214, -168076.13, 274963.13, 0.0, 10.002058, 9.999515 
1.855201e+3, 2.6479077e+2, -175141.7, -582001.25, -38114.35, 0.003047009, 0.109834485, -171601.97, 173453.66, 0.00000008466028, 10.002496, 9.997122 
1.8552154e+3, 2.747876e+2, 2603.9902, -432865.66, -27900.691, -0.1409604, 0.026286513, 4384.319, 251474.13, 0.000011476472, 10.003004, 9.997215 
1.8552311e+3, 2.8478494e+2, 156597.66, -314710.66, -63874.38, -0.1466722, 0.056447163, 165100.86, 314217.2, 0.00012753508, 10.003382, 9.997195 
1.8552476e+3, 2.9478317e+2, 353148.56, -110589.07, -6309.083, 0.010399368, 0.0810293, 353234.4, 404366.5, 0.00053210376, 10.003835, 9.997684 
1.855265e+3, 3.0477938e+2, 299576.16, -363116.53, 75740.914, 0.10970686, 0.047038555, 308122.56, 308122.56, 0.0013364962, 10.004223, 9.995438 
1.8552817e+3, 3.1477717e+2, 469842.56, -89208.13, -19808.127, 0.033511132, 0.2175372, 470543.53, 470543.53, 0.0024730514, 10.004532, 9.997149 
1.86496e+3, 1.24778025e+2, -2138305.8, -1771524.1, 90867.4, 0.18876624, 0.37839755, -1750246.8, -33059.832, 0.1378835, 9.996375, 10.001313 
1.8649748e+3, 1.347735e+2, -1566649.1, -1303986.8, 21293.887, -0.17461951, -0.39612687, -1302271.8, 316957.0, 0.09301642, 9.999015, 10.002787 
1.8649945e+3, 1.4478469e+2, -1633122.1, -1605158.3, -16252.825, 0.072231114, 0.59202373, -1597700.8, -76581.375, 0.050644647, 9.999304, 9.999719 
1.8650112e+3, 1.5478045e+2, -1614534.5, -1528504.5, 13387.13, -0.05377217, 0.14581844, -1526469.5, -103304.94, 0.01991141, 9.9987135, 9.999841 
1.8650286e+3, 1.6477942e+2, -1489419.0, -1319237.3, 22714.723, -0.072247274, 0.02414004, -1316257.6, 8918.289, 0.0045744055, 9.998448, 10.000737 
1.8650478e+3, 1.7478153e+2, -1333909.3, -1159537.6, -14204.078, 0.08616281, 0.09903803, -1158388.3, 68765.58, 0.0003360051, 9.998742, 10.000992 
1.8650647e+3, 1.8478258e+2, -1269797.5, -1220860.5, -55888.16, 0.07374715, 0.17230108, -1184319.3, -55176.4, 0.00000050835786, 9.9990835, 9.999765 
1.8650787e+3, 1.9478256e+2, -1058404.9, -1044674.0, -60086.527, -0.16571477, 0.14108269, -991062.0, 40081.3, 0.0, 9.999788, 9.999947 
1.8650955e+3, 2.04782e+2, -945632.25, -1056033.0, -6755.389, -0.16799806, 0.14706852, -945220.44, -12072.283, 0.0, 10.000363, 9.998936 
1.8651153e+3, 2.1478063e+2, -750523.56, -889067.44, -51948.832, 0.07187742, 0.064967215, -733208.7, 101951.516, 0.0, 10.000964, 9.999102 
1.8651338e+3, 2.2477937e+2, -686923.94, -994662.8, 4569.345, 0.121729486, 0.118281744, -686856.1, 50318.453, 0.0, 10.0015135, 9.997462 
1.8651502e+3, 2.3477821e+2, -494083.44, -829469.6, 53351.586, -0.05835173, 0.20900442, -485801.06, 153390.92, 0.0, 10.002102, 9.997619 
1.8651679e+3, 2.4477705e+2, -262780.25, -515090.9, 57634.527, -0.066622704, 0.27182764, -250238.42, 290964.66, 0.0, 10.002326, 9.999005 
1.8651873e+3, 2.547758e+2, -178454.77, -396779.13, -16022.58, 0.09642766, 0.18616247, -177285.16, 265923.6, 0.0, 10.002141, 9.999218 
1.8652043e+3, 2.6477364e+2, -161381.42, -535860.6, -55361.164, 0.08314684, 0.14292826, -153368.55, 191858.22, 0.000000065173005, 10.00242, 9.997476 
1.8652186e+3, 2.747704e+2, 66801.766, -363187.1, -48242.71, -0.14026563, 0.025584515, 72147.9, 319407.06, 0.000009433609, 10.003274, 9.997569 
1.8652347e+3, 2.8476813e+2, 245332.84, -250482.69, -60936.176, -0.13286991, 0.05931095, 252712.13, 401993.94, 0.00011541226, 10.003909, 9.997369 
1.8652526e+3, 2.9476675e+2, 440468.13, -53816.21, -119622.46, 0.09901302, 0.116657384, 467896.13, 519190.3, 0.00049646525, 10.004375, 9.997806 
1.8652695e+3, 3.0476257e+2, 432774.1, -270535.56, 3879.083, 0.12683621, 0.024165686, 432795.47, 432795.47, 0.0012602888, 10.004996, 9.995699 
1.8652861e+3, 3.1476125e+2, 692463.94, 61600.883, -148615.39, -0.021949694, 0.26110193, 725720.8, 725720.8, 0.0023313037, 10.005823, 9.997575 
1.8749568e+3, 1.2476068e+2, -2183978.5, -1884390.4, 55809.97, 0.13033913, 0.15111037, -1874331.4, -156976.48, 0.14588223, 9.996469, 10.000489 
1.8749706e+3, 1.347576e+2, -1702750.3, -1580804.1, 93074.52, -0.51799977, -0.25803605, -1530509.1, 88879.22, 0.0986057, 9.999067, 10.000695 
1.8749955e+3, 1.447662e+2, -1564923.6, -1491405.0, -58403.23, 0.19108935, 0.53657794, -1459155.8, 62149.2, 0.053927336, 9.999408, 10.000471 
1.8750103e+3, 1.5476224e+2, -1560754.8, -1424950.5, 8184.31, -0.045404192, 0.048114385, -1424459.0, -1116.8351, 0.021407956, 9.998737, 10.000545 
1.8750267e+3, 1.6476147e+2, -1521123.3, -1402596.6, 18183.15, -0.15693262, -0.051655594, -1399869.9, -74519.766, 0.0050250688, 9.9985285, 10.000129 
1.8750456e+3, 1.7476445e+2, -1381015.8, -1255947.5, 9742.438, -0.04975632, 0.17948805, -1255193.1, -27869.455, 0.00038988978, 9.998727, 10.000347 
1.8750633e+3, 1.847656e+2, -1247952.5, -1170879.5, -50479.45, -0.009047354, 0.27865836, -1145908.3, -16594.686, 0.000000733184, 9.999067, 10.000117 
1.87508e+3, 1.947648e+2, -1052389.1, -1004529.2, -21982.232, -0.036177598, 0.13449903, -995965.1, 35355.895, 0.0, 9.999676, 10.0002775 
1.8750975e+3, 2.0476416e+2, -1018657.1, -1179179.6, -3973.3704, -0.045952376, 0.15634015, -1018558.9, -85230.84, 0.0, 10.000231, 9.99816 
1.8751158e+3, 2.1476369e+2, -840282.7, -1025230.9, -16268.386, -0.017212886, 0.24551241, -838862.6, -3527.0947, 0.0, 10.000747, 9.998273 
1.8751337e+3, 2.2476245e+2, -612875.1, -770316.56, 9735.826, -0.06238972, 0.2601736, -612275.3, 125070.67, 0.0, 10.001197, 9.999159 
1.8751514e+3, 2.3476034e+2, -407837.7, -586279.2, 88939.01, -0.17157723, 0.07479571, -371080.3, 268279.6, 0.0, 10.001825, 9.999418 
1.8751697e+3, 2.4475862e+2, -413824.5, -752138.0, 33462.813, -0.15734743, 0.057918888, -410546.44, 130828.5, 0.0, 10.001991, 9.997545 
1.8751886e+3, 2.5475708e+2, -326308.47, -636618.06, -4502.8613, -0.0016721783, 0.09762189, -326243.13, 117149.97, 0.0, 10.00186, 9.997706 
1.8752062e+3, 2.6475516e+2, -156225.2, -460589.03, -39019.32, 0.015238323, 0.120115295, -151302.55, 194109.55, 0.00000004605578, 10.002127, 9.998143 
1.8752223e+3, 2.747529e+2, 79244.34, -272589.06, 5968.495, -0.11864461, 0.025545577, 79345.57, 326776.13, 0.000008319171, 10.002989, 9.998334 
1.8752393e+3, 2.8475133e+2, 144534.3, -378117.22, -61297.97, -0.10274531, 0.124637224, 151627.23, 301073.88, 0.00010877432, 10.003555, 9.996667 
1.8752575e+3, 2.9474983e+2, 321248.03, -204787.77, -71087.81, 0.11596743, 0.24303322, 330685.44, 382151.97, 0.00047256332, 10.003969, 9.996963 
1.8752728e+3, 3.047447e+2, 422671.97, -172963.66, 10531.611, -0.080212995, 0.05950136, 422858.13, 422858.13, 0.0011937204, 10.004506, 9.996599 
1.8752904e+3, 3.1474343e+2, 626087.8, 131660.48, -61048.2, -0.25760558, 0.20118673, 633514.06, 633514.06, 0.002184031, 10.004987, 9.998439 
1.8849556e+3, 1.2474382e+2, -1794952.8, -1731604.4, -16848.898, 0.24702509, 0.13430277, -1727401.9, -9879.908, 0.15411249, 9.999207, 10.000248 
1.8849696e+3, 1.347425e+2, -1968139.0, -1821157.5, 74681.945, -0.45429495, -0.0065021073, -1789870.9, -170330.81, 0.10442951, 9.997693, 9.999676 
1.8849955e+3, 1.4474602e+2, -1757434.4, -1577908.3, -45588.992, 0.32858026, 0.3311105, -1566994.9, -45487.746, 0.057399224, 9.998099, 10.000464 
1.8850091e+3, 1.5474461e+2, -1516562.5, -1391349.0, -67998.766, -0.031190133, 0.090031706, -1361525.0, 61993.535, 0.023018045, 9.999037, 10.000606 
1.8850252e+3, 1.647446e+2, -1467187.0, -1392791.3, -45239.66, -0.17430167, 0.06786666, -1371420.3, -45901.844, 0.005521801, 9.998959, 9.9999895 
1.8850443e+3, 1.7474623e+2, -1442351.5, -1300891.1, -43130.836, -0.023783008, 0.17581002, -1288777.9, -61273.22, 0.0004532519, 9.998358, 10.000222 
1.8850628e+3, 1.8474711e+2, -1332642.9, -1230953.3, -21613.031, 0.060289655, 0.2617477, -1226550.3, -97052.805, 0.0000010252129, 9.998567, 9.999938 
1.8850805e+3, 1.9474706e+2, -1012721.1, -1000969.7, -52035.914, 0.03516854, 0.20760113, -954478.8, 77019.836, 0.0, 10.000013, 10.000126 
1.8850982e+3, 2.0474659e+2, -937235.56, -1126766.0, -19712.05, 0.011890134, 0.24529034, -935207.1, -1702.966, 0.0, 10.000741, 9.99827 
1.8851164e+3, 2.1474546e+2, -813076.94, -999765.75, 1203.6938, -0.020410087, 0.26183766, -813069.2, 22447.37, 0.0, 10.000875, 9.99839 
1.8851347e+3, 2.2474402e+2, -634103.5, -742683.8, 44026.85, -0.04541263, 0.23341197, -618495.3, 119031.99, 0.0, 10.00091, 9.999468 
1.8851535e+3, 2.347421e+2, -510034.47, -606091.06, -13251.283, -0.092264116, 0.041011557, -508239.94, 131297.25, 0.0, 10.001001, 9.999674 
1.885172e+3, 2.447405e+2, -511576.97, -815969.3, -50432.13, -0.08079848, 0.032442816, -503438.88, 38112.34, 0.0, 10.001409, 9.997376 
1.8851903e+3, 2.5473905e+2, -289972.9, -645784.3, -38176.66, -0.030356377, 0.10181935, -285922.84, 157648.52, 0.0, 10.002222, 9.997467 
1.8852083e+3, 2.6473716e+2, -52531.855, -390489.56, -2554.4246, -0.0043073646, 0.1333903, -52512.55, 293077.88, 0.000000017635879, 10.002782, 9.998292 
1.8852259e+3, 2.7473497e+2, 120127.46, -225236.73, -34765.668, -0.044811614, 0.030853923, 123592.34, 371198.56, 0.000007223604, 10.003191, 9.998536 
1.8852437e+3, 2.8473356e+2, 128408.45, -410392.44, -70303.25, -0.008239264, 0.1447425, 137430.61, 287051.63, 0.00010058898, 10.003569, 9.996431 
1.8852617e+3, 2.947321e+2, 313562.53, -244425.39, -93950.79, 0.153719, 0.2931576, 328956.72, 380599.34, 0.0004433926, 10.004058, 9.996651 
1.8852769e+3, 3.047271e+2, 496450.28, -92135.37, 45213.227, -0.11615809, 0.12139083, 499903.16, 499903.16, 0.001117687, 10.004764, 9.997069 
1.8852973e+3, 3.1472492e+2, 656927.3, 129385.62, -144933.94, -0.052405335, 0.12391895, 694123.06, 694123.06, 0.002030098, 10.005226, 9.998339 
1.8949541e+3, 1.2472644e+2, -1759498.4, -1741491.6, -29264.164, 0.07601906, 0.24137005, -1719877.1, -2179.263, 0.16258536, 9.999519, 10.00006 
1.8949704e+3, 1.347285e+2, -1941278.9, -1768398.3, 69634.54, -0.17296776, 0.4018259, -1743839.0, -124158.09, 0.110513955, 9.997693, 10.0000515 
1.8949941e+3, 1.4472409e+2, -1795863.0, -1663149.0, -17029.258, 0.30531457, -0.042267535, -1660998.8, -139272.31, 0.06108175, 9.998133, 9.999859 
1.8950075e+3, 1.5472744e+2, -1566197.5, -1494277.9, -21604.223, -0.14372377, 0.26507816, -1488287.1, -64592.176, 0.024752133, 9.999041, 9.999889 
1.8950233e+3, 1.6472863e+2, -1416467.4, -1321423.6, -88256.125, -0.309265, 0.37843415, -1268708.4, 56974.3, 0.0060684755, 9.999096, 10.000417 
1.8950434e+3, 1.7472675e+2, -1406861.6, -1231611.9, -56183.063, 0.028359285, 0.088603124, -1215147.1, 12550.524, 0.0005270964, 9.998373, 10.000691 
1.8950623e+3, 1.8472695e+2, -1364990.5, -1303816.6, 13002.055, 0.12375508, 0.10681852, -1301167.8, -171471.95, 0.0000013718216, 9.998602, 9.999414 
1.8950795e+3, 1.9472957e+2, -1069546.6, -1093188.3, 11731.759, -0.09192275, 0.37429485, -1064713.1, -33038.816, 0.0, 9.99991, 9.9995365 
1.8950976e+3, 2.0472941e+2, -898031.94, -1011799.9, -28647.854, -0.17049739, 0.43009847, -891225.4, 42449.98, 0.0, 10.000584, 9.999144 
1.895117e+3, 2.1472605e+2, -776775.56, -877433.5, 21153.678, -0.06382054, 0.1281964, -772510.75, 63192.117, 0.0, 10.000667, 9.999335 
1.8951365e+3, 2.2472404e+2, -752889.75, -917446.8, 29808.086, 0.0075931633, 0.047514085, -747656.7, -9937.708, 0.0, 10.000601, 9.998416 
1.8951559e+3, 2.347236e+2, -625005.94, -784234.25, 9825.296, 0.025428623, 0.108641095, -624401.94, 15320.364, 0.0, 10.000743, 9.998571 
1.8951744e+3, 2.4472286e+2, -499813.4, -724675.8, -36390.086, -0.021955777, 0.20453915, -494070.97, 47659.043, 0.0, 10.001103, 9.998158 
1.895192e+3, 2.547216e+2, -269407.4, -540909.6, 8671.1455, -0.119264185, 0.20795035, -269130.75, 174613.39, 0.0, 10.001953, 9.998319 
1.8952101e+3, 2.6471946e+2, -123676.14, -467241.97, -4890.1777, -0.13062277, 0.19073902, -123606.555, 222157.44, 0.0000000071100716, 10.002474, 9.997913 
1.895229e+3, 2.747165e+2, 47549.145, -299134.1, -1227.8206, -0.071510345, 0.041088246, 47553.492, 295341.9, 0.0000064443307, 10.002871, 9.998178 
1.8952473e+3, 2.847147e+2, 87091.07, -416027.1, -76060.23, -0.046686344, 0.12840383, 98338.25, 248144.61, 0.0000894982, 10.003213, 9.996567 
1.8952648e+3, 2.9471338e+2, 257247.6, -274676.75, -46266.81, 0.03219059, 0.27552307, 261241.89, 313066.8, 0.00040206578, 10.003679, 9.996631 
1.8952808e+3, 3.047097e+2, 424622.88, -124548.695, 48430.066, -0.24844599, 0.24190547, 428861.1, 428861.1, 0.0010249043, 10.004293, 9.997054 
1.895306e+3, 3.1470582e+2, 423652.34, -125382.09, -9947.269, 0.23508495, 0.060762286, 423832.53, 423832.53, 0.0018721758, 10.004322, 9.9969845 
1.9049518e+3, 1.24705344e+2, -2049183.0, -1830885.8, -46130.58, 0.00052436703, 0.10998538, -1821537.8, -103626.76, 0.1713416, 9.997409, 10.000415 
1.9049689e+3, 1.3471247e+2, -1816990.9, -1636981.4, -15808.633, -0.1108064, 0.6879181, -1635603.6, -15760.53, 0.11689223, 9.998311, 10.000614 
1.904992e+3, 1.4470468e+2, -1771179.3, -1676803.1, -30306.006, 0.2976431, -0.10010907, -1667909.4, -145988.44, 0.06499328, 9.998366, 9.999681 
1.9050068e+3, 1.547091e+2, -1637094.8, -1515789.1, -12471.316, -0.06302508, 0.30283093, -1514520.3, -90641.84, 0.026617203, 9.998443, 10.000064 
1.905023e+3, 1.6471097e+2, -1508178.0, -1385857.3, -45639.938, -0.2110767, 0.48504022, -1370705.1, -44846.16, 0.0066676727, 9.99857, 10.000227 
1.905042e+3, 1.7470855e+2, -1274441.9, -1186252.6, -94666.16, 0.00375539, 0.16051327, -1125915.4, 101963.8, 0.0006122247, 9.999386, 10.000505 
1.9050612e+3, 1.8470797e+2, -1210735.6, -1229725.3, 14065.826, 0.094168544, 0.1113664, -1203259.9, -73376.305, 0.0000017786746, 9.999672, 9.9994135 
1.90508e+3, 1.9470981e+2, -1094609.1, -1107701.3, 23695.596, -0.021941518, 0.30996445, -1076572.0, -44705.26, 0.0, 9.999751, 9.999531 
1.9050987e+3, 2.0470963e+2, -977775.9, -1032777.25, -4310.325, -0.06648443, 0.36190447, -977440.1, -43573.117, 0.0, 9.999995, 9.99926 
1.905118e+3, 2.14707e+2, -762465.56, -857491.7, -51814.242, -0.0404053, 0.120131455, -739677.75, 96210.84, 0.0, 10.000733, 9.999422 
1.9051374e+3, 2.247053e+2, -695456.4, -911600.3, -28282.922, 0.031030566, 0.0728198, -691816.8, 46086.305, 0.0, 10.001063, 9.998245 
1.9051576e+3, 2.3470464e+2, -599998.25, -798055.25, -12189.743, 0.12759377, 0.13170494, -599250.8, 40658.668, 0.0, 10.000993, 9.99837 
1.9051766e+3, 2.4470395e+2, -457556.47, -652474.6, 22036.447, 0.101690605, 0.21977872, -455096.2, 86819.67, 0.0, 10.001197, 9.998595 
1.9051942e+3, 2.5470287e+2, -241989.03, -471881.1, 6170.9077, -0.07012483, 0.19450705, -241823.5, 202101.9, 0.0, 10.001916, 9.9988 
1.9052127e+3, 2.6470068e+2, -149486.0, -525989.2, 727.0101, -0.12032619, 0.16823001, -149484.6, 196460.45, 0.000000016068412, 10.002468, 9.997521 
1.9052318e+3, 2.746975e+2, 23844.742, -370558.13, -40207.582, -0.08149769, 0.044256832, 27901.986, 275876.2, 0.000006020835, 10.0029, 9.9977 
1.9052507e+3, 2.8469515e+2, 163262.78, -368882.47, -62099.656, -0.02455582, 0.09796588, 170413.52, 320411.0, 0.00007835106, 10.003677, 9.9966755 
1.9052698e+3, 2.946932e+2, 464044.5, -153293.78, -82201.4, 0.108076096, 0.16880114, 474802.53, 526822.4, 0.0003554172, 10.005015, 9.996814 
1.9052863e+3, 3.0469072e+2, 609817.6, -18233.625, 30259.91, -0.1717308, 0.23246676, 611272.2, 611272.2, 0.00092399935, 10.005502, 9.997207 
1.9053122e+3, 3.1468573e+2, 483201.66, -151320.34, -87492.49, 0.42139906, -0.057456985, 495044.72, 495044.72, 0.0017200904, 10.004878, 9.996582 
1.9149491e+3, 1.2468378e+2, -2006936.8, -1749911.6, -104634.43, -0.09599236, 0.039261967, -1712702.0, 5427.028, 0.18042894, 9.997448, 10.000949 
1.914965e+3, 1.346938e+2, -1780218.3, -1572093.1, 13671.046, -0.358735, 0.8039795, -1571199.0, 48833.473, 0.12358676, 9.998337, 10.00109 
1.9149889e+3, 1.4468747e+2, -1716496.6, -1608972.9, -54542.348, 0.085625894, 0.15463798, -1586150.0, -64056.52, 0.069141634, 9.998556, 10.000058 
1.9150068e+3, 1.5468958e+2, -1550193.4, -1341775.9, -1464.3403, 0.04683477, 0.21271905, -1341765.5, 82303.516, 0.028615344, 9.998462, 10.001264 
1.9150236e+3, 1.6469176e+2, -1547550.0, -1494109.8, -37269.8, -0.05315261, 0.39684108, -1474971.4, -148925.19, 0.0073205116, 9.998681, 9.99943 
1.9150394e+3, 1.7469163e+2, -1346797.3, -1330279.1, -54481.875, -0.23317635, 0.396854, -1283433.9, -55385.082, 0.00070924795, 9.999361, 9.999524 
1.9150583e+3, 1.8469015e+2, -1175485.1, -1166537.6, -3845.8708, -0.19771074, 0.29174364, -1165111.8, -35051.406, 0.0000023137907, 9.999705, 9.999838 
1.9150813e+3, 1.9468792e+2, -1072153.0, -1035872.4, 37545.9, 0.11207588, 0.029422859, -1012314.2, 19760.877, 0.0, 9.99964, 10.000079 
1.9151013e+3, 2.0468728e+2, -1053769.4, -1156559.0, 6536.367, 0.15341237, 0.043206736, -1053355.4, -119275.94, 0.0, 9.999839, 9.998488 
1.9151184e+3, 2.146882e+2, -849509.9, -988749.3, -12110.042, -0.08865574, 0.23569626, -848464.5, -12389.545, 0.0, 10.000514, 9.998626 
1.9151373e+3, 2.2468762e+2, -693613.06, -834601.75, -43041.117, -0.12460899, 0.30721667, -681512.06, 56568.6, 0.0, 10.000745, 9.998931 
1.9151585e+3, 2.3468536e+2, -588733.1, -709200.94, -59.034534, 0.09213421, 0.13415967, -588733.1, 51364.637, 0.0, 10.000726, 9.999106 
1.9151783e+3, 2.4468373e+2, -497888.9, -665654.75, 31577.49, 0.12273078, 0.09241257, -492142.16, 49967.234, 0.0, 10.000888, 9.998657 
1.9151966e+3, 2.5468278e+2, -275386.44, -477153.47, 49627.19, -0.042252887, 0.070507154, -263840.7, 180274.86, 0.0, 10.001643, 9.998893 
1.9152151e+3, 2.64681e+2, -230711.66, -620575.7, -3187.2515, -0.15784328, 0.10022918, -230685.61, 115446.72, 0.000000038925435, 10.002142, 9.997036 
1.9152336e+3, 2.7467817e+2, -54866.824, -466976.13, -6865.7046, -0.2289598, 0.061450478, -54752.477, 193410.08, 0.0000054500297, 10.002622, 9.997169 
1.9152537e+3, 2.846751e+2, 113636.51, -398962.3, -33944.22, -0.13999787, 0.071617685, 115874.516, 266068.38, 0.00006657065, 10.003362, 9.996623 
1.9152759e+3, 2.9467157e+2, 397318.47, -188593.67, -5870.4683, 0.18205306, -0.010780605, 397377.28, 449604.72, 0.00030457575, 10.0045805, 9.996779 
1.9152926e+3, 3.0467024e+2, 546667.7, -37859.7, -17733.533, -0.11860736, 0.17035845, 547205.2, 547205.2, 0.00081304624, 10.005024, 9.997292 
1.9153132e+3, 3.1466642e+2, 391681.34, -120504.16, -8012.932, -0.035545465, -0.04297352, 391806.7, 391806.7, 0.0015562491, 10.004003, 9.997174 
1.924948e+3, 1.2466676e+2, -2059041.0, -1737064.4, 55689.69, 0.084870204, 0.27972263, -1727704.4, -9409.542, 0.18987963, 9.996913, 10.001302 
1.9249648e+3, 1.3467276e+2, -1796136.5, -1593920.6, 48637.324, -0.19619039, 0.62873375, -1582830.5, 37405.63, 0.13060497, 9.998267, 10.000978 
1.924986e+3, 1.4466862e+2, -1798870.9, -1659589.0, -12161.557, -0.025040235, 0.22142254, -1658535.1, -136259.69, 0.07352615, 9.998071, 9.999924 
1.925006e+3, 1.5467018e+2, -1501561.1, -1297581.8, -65040.863, 0.1282521, 0.20977712, -1278607.8, 145649.16, 0.030745408, 9.99873, 10.001433 
1.9250241e+3, 1.6467172e+2, -1515745.8, -1505849.6, -91340.78, 0.11191766, 0.33221453, -1419323.0, -93081.87, 0.008026891, 9.9990225, 9.999176 
1.925039e+3, 1.7467171e+2, -1383796.6, -1380872.3, -87991.664, -0.18330579, 0.37008035, -1294330.6, -66087.58, 0.0008187495, 9.999246, 9.999234 
1.925058e+3, 1.8467036e+2, -1218223.6, -1196790.9, 3597.2498, -0.16884276, 0.2948349, -1196203.3, -65949.95, 0.0000031359323, 9.999421, 9.999772 
1.9250816e+3, 1.9466794e+2, -1016041.1, -1010766.94, -23633.434, 0.17077737, 0.012650312, -989623.94, 42644.906, 0.0, 9.999997, 10.000078 
1.9251022e+3, 2.0466723e+2, -994335.56, -1145197.8, -18457.166, 0.23978111, 0.02055072, -992110.25, -57836.027, 0.0, 10.000317, 9.998342 
1.9251195e+3, 2.1466817e+2, -840597.06, -1002979.2, -17331.283, -0.014933367, 0.23351981, -838767.9, -2496.9263, 0.0, 10.000652, 9.998468 
1.9251387e+3, 2.2466761e+2, -629377.56, -781004.2, -16584.678, -0.062110957, 0.30778733, -627584.75, 110691.72, 0.0, 10.0011215, 9.999105 
1.9251598e+3, 2.3466524e+2, -408134.88, -598964.8, -48758.117, 0.1004866, 0.10815747, -396398.7, 243894.45, 0.0, 10.001882, 9.999303 
1.9251798e+3, 2.4466336e+2, -329701.94, -604372.7, -21254.588, 0.13662054, 0.037062686, -328066.97, 214239.4, 0.0, 10.002103, 9.998498 
1.9251987e+3, 2.546621e+2, -262401.13, -501917.75, -53554.06, 0.0015129191, 0.008462458, -250972.19, 193342.9, 0.0, 10.00183, 9.9986515 
1.925218e+3, 2.646604e+2, -224770.97, -621664.0, -44014.938, -0.08183783, 0.061282936, -219948.36, 126383.51, 0.000000047147957, 10.002219, 9.996984 
1.9252372e+3, 2.746579e+2, 61416.12, -415782.2, -54916.723, -0.15059014, 0.06277501, 67654.47, 316015.3, 0.0000044268, 10.00345, 9.99712 
1.9252577e+3, 2.8465486e+2, 241230.3, -310772.34, -24868.602, -0.082869336, 0.06776444, 242348.39, 392739.88, 0.000054025306, 10.004145, 9.996837 
1.9252801e+3, 2.9465133e+2, 396949.0, -175852.66, -28667.223, 0.15673813, -0.03202259, 398380.13, 450802.6, 0.0002523606, 10.004499, 9.996909 
1.9252978e+3, 3.0464903e+2, 491169.16, -107639.516, -27140.518, -0.06669279, 0.06175486, 492396.75, 492396.75, 0.00069503323, 10.004811, 9.996923 
1.9253185e+3, 3.1464723e+2, 546287.5, -31078.594, -122765.945, 0.08178125, 0.103968546, 571307.2, 571307.2, 0.001369864, 10.004899, 9.997408 
1.934943e+3, 1.2464897e+2, -2022009.0, -1696430.8, -18543.725, -0.17285003, 0.29483452, -1695378.0, 23081.525, 0.1997211, 9.99703, 10.00157 
1.9349667e+3, 1.3464929e+2, -1847331.8, -1687464.3, 57076.113, 0.119909644, 0.15205845, -1669178.5, -48724.12, 0.13795441, 9.9982395, 10.000311 
1.9349827e+3, 1.4464842e+2, -1820392.5, -1746242.3, -16002.799, -0.21852435, 0.12398153, -1742936.1, -220472.64, 0.07814733, 9.998237, 9.999256 
1.9350044e+3, 1.5465099e+2, -1560242.3, -1432225.3, -30242.4, 0.057978656, 0.30357653, -1425440.4, -998.72815, 0.033007, 9.998784, 10.000463 
1.9350234e+3, 1.6465072e+2, -1474775.5, -1448073.6, -100881.21, 0.09275547, 0.28607798, -1359663.8, -33218.668, 0.008786739, 9.999128, 9.999529 
1.9350407e+3, 1.746487e+2, -1348084.8, -1314153.0, -70116.57, 0.014701412, 0.07874709, -1258978.9, -30515.73, 0.00094156526, 9.999267, 9.99969 
1.9350597e+3, 1.8464854e+2, -1240163.3, -1251351.4, 6518.039, -0.002440859, 0.114806615, -1237167.9, -106704.95, 0.0000044945964, 9.999461, 9.999378 
1.9350804e+3, 1.9464998e+2, -1069111.5, -1096357.8, 10298.874, 0.025854608, 0.2670307, -1065656.8, -33209.5, 0.0, 9.999887, 9.999548 
1.9351007e+3, 2.0464951e+2, -987662.8, -1092670.6, -24043.83, 0.027700964, 0.30786386, -982419.3, -47968.375, 0.0, 10.000147, 9.998786 
1.935121e+3, 2.14647e+2, -844872.5, -954087.8, 7797.603, 0.04190297, 0.12935697, -844318.6, -7843.08, 0.0, 10.000406, 9.998921 
1.9351411e+3, 2.246452e+2, -706880.9, -859697.75, -3950.0166, 0.034873195, 0.07620491, -706778.8, 31712.17, 0.0, 10.00077, 9.9987335 
1.9351609e+3, 2.3464419e+2, -473479.3, -673169.3, -4450.8477, 0.008028479, 0.05001145, -473380.16, 167116.48, 0.0, 10.001618, 9.998918 
1.9351806e+3, 2.4464278e+2, -406050.97, -690107.06, -48320.5, -0.034065597, 0.065689355, -398056.25, 144450.97, 0.0, 10.001785, 9.998068 
1.9352001e+3, 2.5464082e+2, -327978.1, -581396.56, -48883.703, -0.07009633, 0.009973716, -318875.53, 125648.62, 0.0, 10.001593, 9.99822 
1.9352207e+3, 2.646388e+2, -260295.67, -612521.9, -18362.137, -0.05925852, 0.044993296, -259341.02, 87203.445, 0.00000001782158, 10.001874, 9.997208 
1.9352423e+3, 2.7463666e+2, 26759.281, -395946.78, 8210.964, -0.009635144, 0.052938182, 26918.717, 275488.4, 0.0000033385966, 10.003084, 9.997418 
1.9352627e+3, 2.846346e+2, 210423.03, -294283.1, -39540.836, -0.052613113, 0.12534294, 213502.05, 364091.56, 0.00004416703, 10.003785, 9.997131 
1.9352818e+3, 2.9463232e+2, 371419.63, -140762.22, 4124.165, -0.15084873, 0.11535018, 371452.84, 424058.8, 0.00021030588, 10.004133, 9.997321 
1.9353016e+3, 3.0462727e+2, 353646.4, -288085.47, -47325.324, -0.23123342, -0.045322325, 357117.7, 357117.7, 0.0005915282, 10.004362, 9.995899 
1.9353256e+3, 3.1462625e+2, 399094.44, -110059.17, -40071.734, 0.24760404, 0.18000089, 402228.88, 402228.88, 0.0011873686, 10.004003, 9.997259 
1.944938e+3, 1.24627195e+2, -1956534.3, -1642427.6, -73974.64, -0.37475276, 0.1284173, -1625878.0, 92789.64, 0.20999403, 9.997314, 10.001927 
1.9449647e+3, 1.3462636e+2, -1987598.6, -1739102.3, -57024.13, 0.17459425, -0.12632395, -1726641.4, -105970.04, 0.14565058, 9.997177, 10.000491 
1.9449815e+3, 1.4462863e+2, -1830918.6, -1759828.3, -25743.854, -0.13591708, 0.13948834, -1751484.9, -228835.45, 0.083007626, 9.99817, 9.999218 
1.9450033e+3, 1.5463004e+2, -1629273.8, -1512824.1, -45909.62, 0.093571626, 0.23990193, -1496901.6, -72259.69, 0.03539992, 9.998496, 10.000058 
1.9450226e+3, 1.646291e+2, -1518532.1, -1463474.9, -58234.97, 0.118697375, 0.17351142, -1426589.8, -99936.33, 0.009600047, 9.998803, 9.999585 
1.9450413e+3, 1.7462789e+2, -1210329.9, -1235442.5, -81244.984, 0.111228004, 0.037240136, -1140676.6, 87986.664, 0.0010784023, 10.000159, 9.999801 
1.9450608e+3, 1.8462814e+2, -1122167.6, -1244798.4, -26765.217, 0.13038899, 0.12936506, -1116580.5, 14079.9375, 0.0000066792873, 10.000509, 9.998914 
1.9450808e+3, 1.946291e+2, -1092705.8, -1159017.4, -55076.668, 0.077463664, 0.28679207, -1061575.1, -28923.066, 0.0, 9.999986, 9.999059 
1.945101e+3, 2.0462835e+2, -1000067.2, -1070886.8, -44730.082, 0.057597768, 0.31209734, -978427.56, -43768.336, 0.0, 9.999951, 9.999029 
1.9451219e+3, 2.1462569e+2, -776169.6, -887598.75, -56397.293, 0.08680133, 0.09541865, -752607.7, 84075.336, 0.0, 10.000743, 9.999214 
1.9451424e+3, 2.2462396e+2, -651337.75, -863228.0, -39672.387, 0.0884239, 0.046403, -644153.44, 94544.195, 0.0, 10.001262, 9.998473 
1.9451626e+3, 2.3462315e+2, -500690.75, -722624.5, -59756.055, 0.030941144, 0.071318544, -485624.16, 155079.36, 0.0, 10.001566, 9.998614 
1.9451825e+3, 2.4462174e+2, -387875.13, -685636.56, -65624.32, -0.019723883, 0.105157964, -374053.6, 168661.73, 0.0, 10.001957, 9.998011 
1.9452019e+3, 2.5461945e+2, -181391.94, -520083.53, -77071.586, -0.08396911, 0.024959087, -164678.53, 280056.94, 0.0, 10.002647, 9.998131 
1.945223e+3, 2.6461723e+2, -92762.15, -514368.66, 4108.964, -0.052263964, 0.038854077, -92722.1, 254034.63, 0.000000002142629, 10.002922, 9.997386 
1.9452457e+3, 2.7461535e+2, -7614.493, -403251.8, -9671.164, 0.051999018, 0.056798875, -7378.2275, 241399.69, 0.0000030022966, 10.002758, 9.997552 
1.9452667e+3, 2.846133e+2, 106759.05, -348541.8, -26408.62, 0.026652329, 0.12970275, 108285.695, 259082.34, 0.00003904193, 10.00308, 9.997106 
1.9452858e+3, 2.94611e+2, 366949.38, -142267.52, -56761.3, -0.14708696, 0.11898617, 373199.72, 426013.88, 0.00018459432, 10.004074, 9.997353 
1.9453064e+3, 3.0460483e+2, 370535.1, -279514.7, -75510.72, -0.16394944, -0.1525181, 379191.25, 379191.25, 0.00051477127, 10.004503, 9.995869 
1.94533e+3, 3.1460497e+2, 476281.34, -59534.79, -99150.055, 0.30304402, 0.21670215, 494039.97, 494039.97, 0.0010271419, 10.00442, 9.997421 
1.9549385e+3, 1.2460525e+2, -1863820.8, -1569043.3, 49527.38, -0.16904466, 0.14766166, -1560944.4, 157937.1, 0.22070916, 9.997663, 10.002439 
1.954959e+3, 1.346041e+2, -1891635.4, -1581160.4, -5580.169, -0.15144041, -0.20194848, -1581060.1, 39825.22, 0.15369554, 9.997302, 10.001574 
1.954982e+3, 1.4460932e+2, -1763508.4, -1662355.4, -10643.722, 0.026848294, 0.25948113, -1661247.5, -138414.67, 0.08810495, 9.998355, 9.999795 
1.9550021e+3, 1.5460731e+2, -1615441.3, -1496546.4, -25664.625, 0.08341138, 0.0049744984, -1491243.0, -66385.08, 0.037922986, 9.998543, 10.000152 
1.9550207e+3, 1.6460685e+2, -1515521.6, -1490763.3, -35307.27, 0.000960818, -0.008523562, -1465727.9, -138862.02, 0.010466628, 9.998942, 9.999333 
1.9550404e+3, 1.7460927e+2, -1226727.0, -1280772.1, -18681.59, -0.017093332, 0.24799329, -1220898.1, 7945.4487, 0.0012294218, 10.000197, 9.9994755 
1.9550611e+3, 1.8460906e+2, -1150235.0, -1316761.8, -57724.016, 0.058293134, 0.3380815, -1132182.8, -1336.2117, 0.000009908067, 10.000572, 9.998386 
1.9550821e+3, 1.9460537e+2, -1143777.9, -1244407.4, -64167.19, 0.18270041, 0.08530176, -1112551.3, -79668.01, 0.0, 9.999901, 9.998512 
1.9551022e+3, 2.0460357e+2, -1024237.7, -1079947.8, -33980.387, 0.15227811, 0.03363115, -1008154.44, -73253.63, 0.0, 9.99977, 9.999054 
1.9551218e+3, 2.1460406e+2, -803517.6, -891570.06, -12724.693, -0.01716208, 0.124556415, -801715.6, 35179.324, 0.0, 10.00052, 9.9992895 
1.9551425e+3, 2.2460368e+2, -705966.0, -906242.3, -41215.813, -0.07013325, 0.20960204, -697815.7, 41082.484, 0.0, 10.000951, 9.998332 
1.9551644e+3, 2.346021e+2, -551418.3, -762648.4, -33688.754, 0.026214264, 0.17157398, -546175.5, 94738.28, 0.0, 10.001298, 9.998463 
1.9551848e+3, 2.4460022e+2, -431996.63, -692665.1, -53796.465, -0.014509925, 0.1619508, -421330.63, 121599.94, 0.0, 10.001594, 9.9981365 
1.9552037e+3, 2.5459784e+2, -211803.72, -513326.13, -32997.21, -0.1859932, 0.053755928, -208234.89, 236715.25, 0.0, 10.002357, 9.998308 
1.9552244e+3, 2.6459584e+2, -135872.75, -527265.56, -19078.205, -0.22819577, 0.06752586, -134945.0, 212022.67, 0.00000003752054, 10.002584, 9.997465 
1.9552472e+3, 2.7459404e+2, -39171.914, -409851.53, 2141.529, -0.104361154, 0.088634685, -39159.543, 209825.16, 0.0000033251551, 10.002512, 9.997622 
1.9552694e+3, 2.8459132e+2, 13367.237, -449515.7, -10502.25, -0.04392453, 0.11218395, 13605.398, 164615.44, 0.000036409245, 10.0026865, 9.996598 
1.9552913e+3, 2.9458773e+2, 277411.0, -222130.86, 8679.8, -0.031707563, 0.022945806, 277561.78, 330604.03, 0.00016708692, 10.003638, 9.997004 
1.9553117e+3, 3.0458206e+2, 344061.06, -226580.45, -106217.59, -0.1142488, -0.21497004, 363190.8, 363190.8, 0.00045041088, 10.004016, 9.996481 
1.9553329e+3, 3.1458315e+2, 419695.34, -8767.087, -71493.5, 0.07987796, 0.17548369, 431309.94, 431309.94, 0.0008724613, 10.003749, 9.99807 
1.964938e+3, 1.2458491e+2, -1888513.5, -1573819.9, 103610.914, 0.0606079, 0.27026913, -1542770.1, 176306.92, 0.23177752, 9.997559, 10.002433 
1.9649556e+3, 1.3458161e+2, -1907014.0, -1578171.0, -19763.8, -0.19062625, -0.28127038, -1576987.4, 44115.43, 0.1620495, 9.997246, 10.0015745 
1.9649807e+3, 1.445882e+2, -1900189.9, -1696301.5, -34311.043, 0.13068604, 0.30147257, -1690682.4, -167645.45, 0.093428105, 9.997306, 10.000042 
1.9650008e+3, 1.545857e+2, -1569880.9, -1449602.1, -87911.24, 0.09467373, -0.0243232, -1403228.0, 21837.93, 0.04057487, 9.998767, 10.000343 
1.96502e+3, 1.6458508e+2, -1400594.6, -1432632.3, -45014.805, 0.016720533, -0.07024047, -1368833.4, -41758.41, 0.011385711, 9.999728, 9.99935 
1.9650404e+3, 1.7458777e+2, -1199545.0, -1265289.4, -33032.92, -0.036275573, 0.21423751, -1185815.0, 43234.74, 0.0013940044, 10.000389, 9.999483 
1.9650614e+3, 1.845876e+2, -1128213.8, -1305796.6, -53817.766, 0.035883434, 0.30627576, -1113177.1, 17875.416, 0.000014255441, 10.000722, 9.998391 
1.9650826e+3, 1.9458361e+2, -976128.9, -1165582.5, -51754.45, 0.19525257, 0.02253709, -962912.7, 70180.16, 0.0, 10.001054, 9.998502 
1.9651033e+3, 2.0458175e+2, -821244.75, -1028104.5, 37856.074, 0.21011092, -0.012802893, -814534.6, 120577.54, 0.0, 10.001348, 9.998651 
1.9651234e+3, 2.1458249e+2, -666086.56, -877390.44, -4071.381, 0.050045777, 0.14336614, -666008.2, 171098.19, 0.0, 10.001657, 9.998847 
1.9651443e+3, 2.2458217e+2, -594438.8, -855071.6, -33765.297, -0.007556639, 0.25851133, -590135.56, 148975.14, 0.0, 10.001733, 9.99831 
1.9651656e+3, 2.345804e+2, -485526.84, -736382.5, -55011.813, 0.0071673323, 0.20743333, -473993.22, 167135.58, 0.0, 10.001755, 9.998432 
1.9651864e+3, 2.4457847e+2, -391459.7, -665130.6, -33788.117, -0.003070047, 0.18911093, -387349.8, 155796.69, 0.0, 10.00179, 9.998257 
1.9652069e+3, 2.5457644e+2, -289060.88, -542972.6, -49113.797, -0.059167195, 0.10959705, -279891.97, 165270.58, 0.0, 10.001765, 9.998414 
1.9652282e+3, 2.6457432e+2, -180387.9, -538674.7, 3658.4944, -0.092817895, 0.105708346, -180350.55, 166829.48, 0.00000006167767, 10.00226, 9.997536 
1.9652498e+3, 2.745717e+2, 99616.164, -337675.03, -23907.34, -0.12968548, 0.041981094, 100919.33, 350122.03, 0.000003603985, 10.003466, 9.997645 
1.9652721e+3, 2.8456864e+2, 184353.98, -360751.5, 6309.142, -0.0817772, 0.032998074, 184427.0, 335657.44, 0.00003430298, 10.003836, 9.996657 
1.9652955e+3, 2.9456574e+2, 228552.39, -252005.2, 13599.057, 0.059557825, 0.017488819, 228936.92, 282195.06, 0.00015136057, 10.003318, 9.99697 
1.9653164e+3, 3.0456156e+2, 301758.38, -183668.36, -50065.24, -0.008228249, -0.09870973, 306868.16, 306868.16, 0.00039140965, 10.00343, 9.997075 
1.9653359e+3, 3.1456015e+2, 500899.66, 108338.234, -169486.06, 0.015234348, -0.0028106822, 563948.1, 563948.1, 0.0007269925, 10.003911, 9.9988365 
1.974934e+3, 1.2456405e+2, -1882471.4, -1633885.9, -123437.84, -0.22086817, 0.26263905, -1583005.6, 136269.48, 0.24301729, 9.997923, 10.001772 
1.9749548e+3, 1.3455883e+2, -1962667.8, -1729732.6, -34895.41, -0.06170482, -0.36250898, -1724617.4, -103293.19, 0.17062773, 9.997409, 10.00041 
1.9749768e+3, 1.4456506e+2, -1876447.6, -1677447.0, -11145.7705, -0.048887588, 0.24116334, -1676824.8, -153560.78, 0.09895461, 9.997428, 10.000118 
1.9749987e+3, 1.5456522e+2, -1544172.0, -1404451.3, -22076.31, -0.015174796, 0.15619884, -1401046.1, 24220.06, 0.04335473, 9.9988, 10.000644 
1.9750202e+3, 1.6456378e+2, -1352152.4, -1363345.1, -36643.76, 0.00015730647, -0.0044068447, -1320680.1, 6600.8755, 0.012356995, 9.999869, 9.999757 
1.9750407e+3, 1.7456342e+2, -1173942.6, -1212505.4, 1104.2197, -0.078350194, -0.057639953, -1173911.0, 55371.047, 0.0015709848, 10.000397, 9.999841 
1.9750611e+3, 1.8456362e+2, -1087577.8, -1233348.5, -60457.523, -0.1035312, 0.03409523, -1065766.8, 65512.977, 0.000019593592, 10.000762, 9.998878 
1.9750817e+3, 1.9456354e+2, -950446.1, -1092548.3, -27417.756, -0.02667347, 0.0894733, -945339.56, 87944.01, 0.0, 10.000969, 9.999045 
1.9751035e+3, 2.0456265e+2, -907835.0, -1162651.9, 36781.08, 0.056348782, 0.16074775, -902632.2, 32663.734, 0.0, 10.001154, 9.997819 
1.9751264e+3, 2.1456107e+2, -763631.3, -1024057.8, 20367.424, 0.1514068, 0.17213187, -762048.0, 75267.96, 0.0, 10.001416, 9.997955 
1.9751473e+3, 2.2455963e+2, -650414.44, -892365.56, -47353.813, 0.08627895, 0.22535577, -641476.7, 97856.11, 0.0, 10.001384, 9.998225 
1.975166e+3, 2.3455805e+2, -519827.97, -756075.5, -33027.21, -0.1474902, 0.19024736, -515297.66, 126051.125, 0.0, 10.001525, 9.998409 
1.975187e+3, 2.4455653e+2, -436196.88, -686812.2, -50330.633, -0.14920385, 0.21376656, -426466.8, 116895.77, 0.0, 10.001477, 9.9982605 
1.9752109e+3, 2.5455526e+2, -311625.6, -548710.0, -33958.402, 0.14162344, 0.20508379, -306857.5, 138515.03, 0.0, 10.001584, 9.998461 
1.975233e+3, 2.6455265e+2, -237094.84, -585997.9, 29732.498, 0.14389014, 0.1594192, -234579.27, 112815.02, 0.000000055759365, 10.001956, 9.9973545 
1.9752531e+3, 2.7454835e+2, 49294.32, -371376.2, 42799.703, -0.1787877, -0.06684718, 53604.668, 303035.8, 0.0000036492006, 10.003167, 9.997548 
1.9752745e+3, 2.8454554e+2, 156311.89, -340209.38, -31095.592, -0.26896948, -0.068418406, 158251.73, 309707.84, 0.00003270768, 10.003484, 9.996976 
1.9752982e+3, 2.9454473e+2, 212136.83, -223584.7, 25288.672, -0.044977307, 0.08449465, 213599.64, 267064.47, 0.00013942833, 10.003045, 9.997298 
1.9753194e+3, 3.0454296e+2, 217608.67, -221187.08, -53364.64, -0.09573221, 0.19904721, 224005.42, 224005.42, 0.00034788318, 10.002876, 9.997069 
1.9753407e+3, 3.1453636e+2, 457018.34, 221394.64, -114632.97, 0.03426388, -0.254645, 503585.16, 503585.16, 0.0006200003, 10.003097, 9.999972 
1.9849311e+3, 1.2454e+2, -2142404.3, -1641233.6, -156809.92, -0.17154938, -0.001816761, -1596213.9, 123293.56, 0.25424254, 9.99558, 10.002891 
1.9849533e+3, 1.3453773e+2, -1887727.3, -1794797.5, -60768.688, 0.026929764, -0.24253374, -1764765.1, -143235.63, 0.17932345, 9.998329, 9.999544 
1.9849753e+3, 1.4454098e+2, -1723515.1, -1596228.3, 5454.1216, 0.01686587, 0.108329006, -1595995.0, -72496.234, 0.104643695, 9.998456, 10.000186 
1.9849977e+3, 1.5454282e+2, -1526289.1, -1374470.1, -24956.38, 0.0041759373, 0.17224388, -1370473.0, 55010.414, 0.046255346, 9.998828, 10.000857 
1.9850196e+3, 1.645418e+2, -1453531.9, -1400047.1, -39092.58, 0.018001499, 0.035146907, -1379425.1, -51931.613, 0.013380272, 9.999127, 9.999855 
1.9850409e+3, 1.7454016e+2, -1306643.9, -1267857.3, -51632.73, -0.04124401, -0.15386681, -1232095.9, -2588.9844, 0.0017591557, 9.99945, 9.999915 
1.9850619e+3, 1.8454039e+2, -1188112.9, -1254141.6, -92124.93, -0.056090437, -0.077557206, -1123265.4, 8239.273, 0.0000256483, 9.999939, 9.999129 
1.9850826e+3, 1.9454174e+2, -923529.4, -1051538.5, -105259.08, -0.024420617, 0.09071132, -864342.8, 169151.75, 0.0, 10.000999, 9.999318 
1.9851045e+3, 2.0454122e+2, -854658.1, -1132196.4, -8505.542, 0.041581437, 0.1836015, -854397.7, 81105.484, 0.0, 10.001505, 9.997861 
1.9851275e+3, 2.1453892e+2, -726332.56, -1003034.75, 7110.143, 0.112372674, 0.12358653, -726150.0, 111380.09, 0.0, 10.001671, 9.997975 
1.9851485e+3, 2.2453728e+2, -595890.7, -830756.94, 3635.2412, 0.07607364, 0.14166701, -595834.44, 143713.53, 0.0, 10.001602, 9.99854 
1.9851677e+3, 2.3453622e+2, -541780.8, -732577.94, 11952.741, -0.0951345, 0.12731975, -541034.94, 100522.555, 0.0, 10.001229, 9.998708 
1.9851893e+3, 2.445349e+2, -438776.9, -708681.6, 60389.87, -0.06157123, 0.16665, -425881.13, 117688.26, 0.0, 10.001598, 9.998024 
1.9852135e+3, 2.5453323e+2, -120607.84, -488600.2, 20796.146, 0.17329748, 0.14749137, -119436.336, 326148.84, 0.0, 10.003059, 9.998151 
1.9852363e+3, 2.6453066e+2, 25718.75, -461803.47, 95128.875, 0.18109037, 0.123571075, 43623.42, 391231.6, 0.00000004684117, 10.003776, 9.997326 
1.9852571e+3, 2.7452707e+2, 112960.7, -346470.84, 73692.07, -0.09717308, -0.02254509, 124491.4, 374130.5, 0.000003631824, 10.0036335, 9.997489 
1.9852789e+3, 2.845245e+2, 165123.56, -289706.9, 3693.431, -0.15353364, -0.01428218, 165153.55, 316814.94, 0.000030883682, 10.00337, 9.997362 
1.9853018e+3, 2.9452288e+2, 214059.7, -183431.8, 1791.0323, 0.043185823, 0.026572693, 214067.78, 267743.47, 0.00012822116, 10.002932, 9.997607 
1.9853227e+3, 3.0452082e+2, 259294.39, -221168.47, 5782.584, -0.042973157, 0.101746365, 259363.97, 259363.97, 0.0003141248, 10.003204, 9.99692 
1.9853453e+3, 3.1451565e+2, 589939.56, 238850.45, -166177.0, 0.16728404, -0.18341328, 656119.44, 656119.44, 0.00054966006, 10.00414, 9.99961 
1.9949277e+3, 1.2451717e+2, -1932423.1, -1364684.4, -78693.0, -0.16327204, -0.05496043, -1353978.8, 365752.38, 0.26535824, 9.995849, 10.005287 
1.9949505e+3, 1.3451819e+2, -1908593.5, -1857910.4, -3913.5059, -0.1157622, 0.07716726, -1857609.9, -235889.98, 0.18805622, 9.998402, 9.999079 
1.9949758e+3, 1.4451587e+2, -1690166.1, -1569550.1, -20293.652, 0.16391516, -0.11112082, -1566227.3, -42484.563, 0.11045076, 9.998639, 10.000283 
1.9949971e+3, 1.5451832e+2, -1514257.6, -1353380.9, 113.05333, 0.023719404, 0.00983473, -1353380.8, 72338.625, 0.04926506, 9.998852, 10.000995 
1.9950181e+3, 1.6451891e+2, -1448478.3, -1412957.5, -40357.95, -0.10012622, 0.03281175, -1386624.8, -58910.14, 0.014456319, 9.999226, 9.999719 
1.9950405e+3, 1.7451791e+2, -1315921.1, -1285544.4, -32248.805, -0.053667173, -0.07858534, -1265086.3, -35360.867, 0.0019582892, 9.999451, 9.999788 
1.995063e+3, 1.8451773e+2, -1180665.3, -1247051.3, -69614.16, 0.014835219, -0.037179373, -1136735.6, -5007.17, 0.000032105352, 9.999976, 9.99916 
1.9950849e+3, 1.9451821e+2, -935747.1, -1048942.9, -55332.25, 0.07202584, 0.03829426, -913193.4, 120532.04, 0.0, 10.00089, 9.999383 
1.9951059e+3, 2.0451766e+2, -825923.94, -1033229.75, -20853.633, 0.000559247, 0.08770389, -823847.0, 111884.766, 0.0, 10.001327, 9.998628 
1.9951263e+3, 2.145159e+2, -700311.5, -899796.06, 26174.951, -0.18899427, -0.0013193985, -696934.2, 140815.66, 0.0, 10.001456, 9.998786 
1.9951478e+3, 2.2451495e+2, -598780.44, -760954.94, -22767.512, -0.20194215, 0.009725877, -595644.75, 144113.25, 0.0, 10.001272, 9.999179 
1.9951704e+3, 2.3451488e+2, -528209.06, -655314.9, 13746.013, 0.017175956, 0.029819975, -526739.44, 115015.94, 0.0, 10.001012, 9.999344 
1.9951926e+3, 2.4451342e+2, -531582.44, -824374.1, 93837.836, 0.065535076, 0.04887189, -504089.6, 39679.098, 0.0, 10.001264, 9.997394 
1.9952144e+3, 2.545103e+2, -203518.23, -601664.9, 92000.84, -0.067117825, -0.052013118, -183287.33, 262514.1, 0.0, 10.002802, 9.997498 
1.9952373e+3, 2.645082e+2, -39237.406, -506967.25, 75840.62, -0.117733724, 0.009745283, -27247.494, 320575.7, 0.000000042002604, 10.003396, 9.997197 
1.9952615e+3, 2.7450746e+2, 61175.965, -378294.94, 86349.31, -0.043243825, 0.1569753, 77533.445, 327363.72, 0.0000035134383, 10.003322, 9.997414 
1.9952844e+3, 2.84505e+2, 114662.516, -308763.13, -35153.316, 0.02806444, 0.17739996, 117561.14, 269412.53, 0.00002820436, 10.002997, 9.997412 
1.995306e+3, 2.9449993e+2, 173091.92, -193380.05, 4689.3154, 0.12066061, -0.14882047, 173151.9, 227046.11, 0.00011358975, 10.002598, 9.9977 
1.9953258e+3, 3.0449516e+2, 139374.8, -321302.7, 14963.712, -0.089996316, -0.33430886, 139860.33, 139860.33, 0.00027761882, 10.002604, 9.996503 
1.9953483e+3, 3.1449762e+2, 323340.94, -126411.65, -23363.947, -0.013837257, 0.17135152, 324551.4, 324551.4, 0.0004902181, 10.0033865, 9.99743 
2.0049249e+3, 1.24494255e+2, -1823557.0, -1338255.8, -45764.664, -0.0703831, -0.07547388, -1333977.8, 385975.66, 0.27641812, 9.996643, 10.005168 
2.0049496e+3, 1.344967e+2, -1943009.4, -1883102.4, 34616.55, -0.028026162, 0.19163346, -1867279.0, -245350.44, 0.1968332, 9.998205, 9.998984 
2.0049731e+3, 1.444923e+2, -1749987.0, -1602472.9, 6020.6304, 0.06690776, -0.2043649, -1602227.6, -78255.47, 0.11636926, 9.998244, 10.000242 
2.0049958e+3, 1.5449469e+2, -1600339.8, -1408275.9, -302.41098, 0.044601843, -0.08419803, -1408275.4, 17673.725, 0.05238356, 9.9983015, 10.000873 
2.0050177e+3, 1.64496e+2, -1534706.5, -1455702.3, 5738.9033, -0.02934648, 0.01723568, -1455287.5, -127349.96, 0.015589432, 9.998603, 9.999741 
2.0050406e+3, 1.74496e+2, -1286523.9, -1270050.6, 10.474749, 0.0071432223, -0.003524111, -1270050.6, -40111.086, 0.0021699998, 9.999597, 9.999845 
2.0050636e+3, 1.8449573e+2, -1166654.0, -1245177.4, 634.2695, 0.0869987, 0.027131561, -1166648.9, -34705.0, 0.00003871999, 10.000124, 9.99909 
2.0050858e+3, 1.9449517e+2, -968072.75, -1078246.3, -28039.984, 0.09921837, 0.013564149, -961347.0, 72603.62, 0.0, 10.0007515, 9.999247 
2.0051071e+3, 2.0449443e+2, -885875.9, -1007937.94, -24281.553, 0.018886717, 0.028237332, -881222.94, 54734.684, 0.0, 10.000702, 9.9991 
2.0051272e+3, 2.1449333e+2, -869999.25, -927476.06, -29715.932, -0.16370976, -0.040834557, -857398.44, -19431.916, 0.0, 10.000063, 9.999273 
2.005149e+3, 2.244925e+2, -738156.56, -837365.2, -60750.3, -0.14521216, -0.034165416, -709331.4, 30640.977, 0.0, 10.000381, 9.999074 
2.0051724e+3, 2.34492e+2, -390319.56, -599664.7, -117959.81, 0.070165865, -0.03897392, -337287.16, 304687.7, 0.0, 10.002048, 9.999213 
2.005195e+3, 2.4449049e+2, -296578.66, -715797.8, -23169.957, 0.1182182, -0.016364496, -295301.97, 248687.17, 0.0, 10.002862, 9.997383 
2.0052171e+3, 2.5448766e+2, -240178.75, -620644.9, -10658.243, -0.05267043, -0.08357428, -239880.4, 206138.42, 0.0, 10.002544, 9.997491 
2.0052402e+3, 2.6448575e+2, -173181.69, -547468.9, 19822.36, -0.094752364, -0.017016482, -172134.83, 175904.4, 0.000000029896977, 10.002348, 9.997431 
2.0052648e+3, 2.744846e+2, -56763.277, -418000.38, 20995.146, 0.0052463436, 0.07264395, -55547.13, 194503.86, 0.0000031274246, 10.002394, 9.99761 
2.0052882e+3, 2.8448245e+2, 89181.59, -325503.7, -44745.105, 0.13038354, 0.11273485, 93954.71, 246024.92, 0.000025154262, 10.002826, 9.997389 
2.0053102e+3, 2.9447857e+2, 323054.88, -133439.92, -75761.125, 0.23997977, -0.08058039, 335299.94, 389402.7, 0.00009776422, 10.003673, 9.997598 
2.0053303e+3, 3.0447328e+2, 406712.44, -140160.8, 7150.4453, 0.05260137, -0.33277774, 406805.94, 406805.94, 0.00024035286, 10.004189, 9.997007 
2.0053533e+3, 3.144749e+2, 379320.8, -206874.27, -14999.179, 0.1175105, 0.058788788, 379704.34, 379704.34, 0.000433908, 10.00418, 9.996536 
2.0149213e+3, 1.2447079e+2, -2016072.4, -1656539.4, -163768.6, -0.1888603, -0.17631175, -1593126.6, 127051.695, 0.28771394, 9.996796, 10.002209 
2.0149504e+3, 1.3447323e+2, -1932781.0, -1887178.5, 74747.37, 0.1944367, 0.07657954, -1831832.0, -209675.95, 0.20582092, 9.998298, 9.998922 
2.0149666e+3, 1.4447007e+2, -1741222.1, -1623118.4, -21672.975, -0.47446737, -0.17866868, -1619266.9, -95077.83, 0.12247417, 9.998405, 10.000027 
2.0149931e+3, 1.5447181e+2, -1614646.5, -1436592.6, 8156.765, -0.07928841, -0.10137129, -1436219.8, -10046.489, 0.055639356, 9.998304, 10.000668 
2.0150176e+3, 1.6447318e+2, -1499368.8, -1404206.8, 24278.307, 0.05502224, 0.0021269685, -1398370.8, -70209.66, 0.016791714, 9.998697, 10.000053 
2.0150407e+3, 1.7447452e+2, -1266785.6, -1220764.3, 47292.195, 0.027687225, 0.08608722, -1191181.8, 38966.676, 0.0023981123, 9.99957, 10.000196 
2.0150633e+3, 1.8447448e+2, -1174653.3, -1281653.4, 977.27277, -0.0058135735, 0.13212012, -1174644.4, -42494.29, 0.000045425786, 10.000194, 9.998815 
2.015085e+3, 1.9447257e+2, -1004705.5, -1135999.5, 3662.3455, -0.07743787, 0.018078871, -1004603.44, 29567.57, 0.0, 10.0006695, 9.998892 
2.0151071e+3, 2.0447147e+2, -899527.94, -998109.5, -61962.918, -0.079077095, 0.0082751075, -869641.8, 66539.305, 0.0, 10.000531, 9.999252 
2.0151295e+3, 2.1447118e+2, -891787.1, -922029.2, -40772.164, 0.045145415, 0.004961343, -863422.4, -25242.166, 0.0, 9.999845, 9.999417 
2.0151517e+3, 2.2446992e+2, -852331.06, -1005682.7, -16542.096, 0.056929555, 0.006424794, -850567.0, -110375.68, 0.0, 10.000073, 9.998072 
2.0151733e+3, 2.3446742e+2, -491276.47, -764998.8, -38839.027, -0.050120614, -0.093023896, -485872.22, 156344.8, 0.0, 10.001838, 9.998185 
2.0151962e+3, 2.444658e+2, -316012.3, -670834.7, -42096.547, -0.066373646, -0.051737763, -311086.3, 233147.05, 0.0, 10.002505, 9.99786 
2.015221e+3, 2.5446513e+2, -238050.6, -555572.25, -7771.999, 0.056665644, 0.04013468, -237860.47, 208378.75, 0.0, 10.002291, 9.998059 
2.0152442e+3, 2.6446295e+2, -185167.19, -494249.38, 4981.7954, 0.043610502, 0.026563387, -185086.92, 163172.78, 0.0000000091701935, 10.002015, 9.997958 
2.0152664e+3, 2.7445883e+2, -60473.96, -354704.44, 43152.836, -0.093038596, -0.24012026, -54275.598, 196022.97, 0.0000023642951, 10.002099, 9.998182 
2.0152897e+3, 2.8445727e+2, -41.409966, -410202.0, -35446.723, -0.046516582, -0.15321584, 2999.408, 155313.2, 0.000021595964, 10.002404, 9.9970045 
2.015314e+3, 2.944583e+2, 248903.22, -224809.38, -18905.07, 0.22227503, 0.18440199, 249656.48, 303962.03, 0.000083873885, 10.003383, 9.997118 
2.0153356e+3, 3.0445433e+2, 389172.7, -42395.992, -15344.145, 0.11468337, 0.046118405, 389717.56, 389717.56, 0.00020823602, 10.003651, 9.997914 
2.0153575e+3, 3.1445017e+2, 262090.94, -193017.38, 95050.625, 0.05421167, -0.26254246, 281144.78, 281144.78, 0.00038362973, 10.003164, 9.997076 
2.0249192e+3, 1.2444822e+2, -1698780.4, -1612182.6, -78529.43, -0.19503085, -0.11089591, -1565806.1, 154590.56, 0.29983783, 9.999542, 10.001196 
2.0249483e+3, 1.3444935e+2, -2086855.0, -1916732.9, 32585.67, 0.23689602, -0.047624864, -1910704.9, -288317.56, 0.21537028, 9.997078, 9.999287 
2.0249653e+3, 1.4444827e+2, -1846053.8, -1688250.5, 22687.814, -0.38752452, -0.10935149, -1685053.4, -160653.84, 0.12892798, 9.997741, 9.999902 
2.0249917e+3, 1.544492e+2, -1574424.3, -1440873.1, 8235.658, -0.05498096, -0.09480961, -1440367.1, -13975.194, 0.05909158, 9.998693, 10.000445 
2.0250165e+3, 1.644498e+2, -1450174.1, -1374273.0, 55012.98, 0.0825745, -0.053233866, -1345390.4, -17003.752, 0.018083457, 9.999053, 10.000063 
2.0250405e+3, 1.74451e+2, -1205772.0, -1185029.5, 30383.143, 0.04429573, 0.011598687, -1163296.3, 67078.57, 0.0026487417, 10.000011, 10.000205 
2.0250636e+3, 1.84451e+2, -1161920.9, -1299612.4, -24364.854, 0.0020684395, 0.07187563, -1157736.6, -25360.438, 0.000052423693, 10.000377, 9.998598 
2.0250852e+3, 1.9444905e+2, -1073936.3, -1203543.5, -42625.285, -0.108263165, -0.020549964, -1061174.3, -26775.36, 0.0, 10.000319, 9.998599 
2.0251076e+3, 2.0444794e+2, -894168.1, -1004033.5, -84903.2, -0.06314204, -0.0151008135, -847976.4, 88433.56, 0.0, 10.000608, 9.999165 
2.0251313e+3, 2.144477e+2, -644227.3, -814894.7, -114250.44, 0.1467596, -0.0045060012, -586960.2, 251447.94, 0.0, 10.001589, 9.999305 
2.0251538e+3, 2.2444624e+2, -596103.8, -921777.06, -25010.686, 0.17784885, -0.0013832451, -594194.25, 146227.14, 0.0, 10.002001, 9.997714 
2.0251752e+3, 2.3444334e+2, -515263.3, -817314.44, -24180.62, -0.034799892, -0.105346575, -513339.78, 129112.76, 0.0, 10.001851, 9.99781 
2.0251983e+3, 2.4444175e+2, -367165.6, -632991.6, 1298.3772, -0.072131485, -0.07025528, -367159.25, 177309.38, 0.0, 10.001901, 9.998399 
2.0252232e+3, 2.5444147e+2, -194351.92, -475319.2, 5347.6807, 0.07280148, 0.008304989, -194250.17, 252218.45, 0.0, 10.002338, 9.998585 
2.025247e+3, 2.6443952e+2, -103438.31, -430802.44, 29211.076, 0.10937532, -0.01696971, -100852.2, 247633.81, 0.000000001074916, 10.002482, 9.998166 
2.0252693e+3, 2.7443567e+2, -30661.93, -316331.0, -573.27277, -0.0049626916, -0.27502403, -30660.78, 219863.0, 0.0000018159459, 10.002229, 9.998371 
2.0252927e+3, 2.8443438e+2, 51245.85, -348455.72, 2276.6306, 0.014357591, -0.18409462, 51258.82, 203795.75, 0.000018189116, 10.00257, 9.9973545 
2.0253167e+3, 2.9443583e+2, 303680.4, -142051.92, 33996.664, 0.15589868, 0.15830384, 306258.47, 360783.3, 0.000072171526, 10.00353, 9.9976015 
2.0253402e+3, 3.044327e+2, 447760.78, -67894.664, 36373.88, 0.20631553, 0.09216946, 450313.94, 450313.94, 0.00017993047, 10.004206, 9.997512 
2.0253612e+3, 3.144287e+2, 408459.22, -83739.06, -79553.27, 0.11484371, -0.13517988, 420997.88, 420997.88, 0.00033599298, 10.003914, 9.997499 
2.0349197e+3, 1.24424376e+2, -1632950.9, -1539408.1, 94756.02, -0.21043488, -0.11328191, -1480508.9, 240120.81, 0.3135409, 9.999818, 10.001826 
2.0349428e+3, 1.3442484e+2, -2000190.8, -1771800.6, 9849.494, -0.069347605, -0.18823841, -1771376.6, -148752.39, 0.22593072, 9.997216, 10.00022 
2.034969e+3, 1.444268e+2, -1807347.5, -1667721.4, 64853.91, 0.12684485, -0.00093839306, -1642245.9, -117640.766, 0.13594478, 9.997992, 9.999922 
2.0349912e+3, 1.5442681e+2, -1576030.8, -1461923.9, 43568.27, -0.012875276, -0.065284275, -1447191.0, -20585.684, 0.06282382, 9.998769, 10.000258 
2.0350142e+3, 1.6442578e+2, -1460822.3, -1421974.5, 60114.277, -0.13017921, -0.16155042, -1378223.9, -49608.45, 0.019494196, 9.999162, 9.999681 
2.0350397e+3, 1.7442535e+2, -1221992.8, -1226221.9, 78552.2, -0.07783687, -0.22590442, -1145526.6, 85092.6, 0.0029308582, 10.000039, 9.999907 
2.0350637e+3, 1.8442526e+2, -1169730.5, -1321969.4, -38100.297, -0.0673196, -0.15748587, -1160727.8, -28105.156, 0.00006041413, 10.000403, 9.998434 
2.0350856e+3, 1.944247e+2, -1101051.9, -1234909.8, -34438.535, -0.12510371, -0.090075195, -1092711.3, -58077.285, 0.0, 10.0002165, 9.998432 
2.0351082e+3, 2.0442389e+2, -943916.2, -1064483.8, -67227.72, -0.117226206, -0.029642623, -913902.1, 22741.69, 0.0, 10.000431, 9.998834 
2.0351318e+3, 2.1442287e+2, -699510.4, -875968.4, -63870.836, 0.022726817, -0.06609874, -678818.1, 159832.45, 0.0, 10.001362, 9.998995 
2.0351548e+3, 2.2442153e+2, -630268.5, -906954.56, -40028.703, 0.050779555, -0.04673071, -624593.8, 116068.73, 0.0, 10.001647, 9.997978 
2.0351774e+3, 2.3441969e+2, -539044.56, -800142.0, -10909.062, -0.025084106, -0.072685644, -538589.56, 104092.555, 0.0, 10.001576, 9.998055 
2.0352004e+3, 2.444181e+2, -381797.2, -585927.44, 1141.043, -0.093034, -0.070766956, -381790.8, 162906.06, 0.0, 10.001568, 9.998882 
2.0352238e+3, 2.544167e+2, -191157.78, -416161.72, 33699.86, -0.12544292, -0.15684402, -186218.83, 260487.78, 0.0, 10.002108, 9.9991045 
2.035248e+3, 2.644155e+2, -178343.73, -497056.38, 4367.405, -0.07802249, -0.12644127, -178283.9, 170434.48, 0.000000023664393, 10.002112, 9.997881 
2.035273e+3, 2.744144e+2, -87895.19, -380347.78, 7593.723, 0.10266604, -0.08455839, -87698.14, 163035.05, 0.0000019634658, 10.0019865, 9.998047 
2.0352964e+3, 2.844131e+2, 56617.715, -233129.08, 13396.859, 0.0995744, -0.026772423, 57235.82, 209982.13, 0.000016146072, 10.002144, 9.998343 
2.0353179e+3, 2.9441136e+2, 332686.88, 5869.8755, 91109.09, -0.11458034, -0.1142085, 356369.8, 411129.2, 0.00006227005, 10.003144, 9.998809 
2.0353432e+3, 3.0440837e+2, 215533.03, -375402.53, 4754.443, 0.038433474, -0.14455338, 215571.28, 215571.28, 0.00015437642, 10.003497, 9.995716 
2.0353656e+3, 3.1440794e+2, 330206.25, -48554.38, -63372.73, 0.073372446, 0.16648811, 340528.22, 340528.22, 0.00029131802, 10.003132, 9.998084 
2.0449197e+3, 1.2439939e+2, -1978468.1, -1554194.8, 180880.88, 0.008577906, -0.14225338, -1487548.6, 233325.47, 0.3294151, 9.996492, 10.00348 
2.0449397e+3, 1.3439937e+2, -1960550.0, -1731147.9, -123177.14, -0.08828655, -0.25661933, -1677536.9, -54664.938, 0.23787552, 9.997437, 10.000397 
2.0449685e+3, 1.4440219e+2, -1740704.3, -1603147.6, -18871.002, 0.2767974, -0.0013016367, -1600605.8, -75762.46, 0.14372098, 9.998316, 10.000206 
2.0449908e+3, 1.5440218e+2, -1511220.8, -1401869.3, -69110.016, 0.06374025, -0.09668606, -1368422.3, 58420.867, 0.06692591, 9.999083, 10.000544 
2.0450136e+3, 1.6440108e+2, -1486214.5, -1469918.9, -21779.127, -0.08172182, -0.20260417, -1454813.4, -125958.445, 0.021061258, 9.999118, 9.999386 
2.0450388e+3, 1.744005e+2, -1410949.0, -1359862.6, -32905.59, -0.09813716, -0.24527441, -1343749.8, -112886.5, 0.003256253, 9.998913, 9.99954 
2.0450632e+3, 1.8440065e+2, -1301876.4, -1320867.6, -92098.32, -0.082402684, -0.15638207, -1218785.5, -85921.03, 0.00007088071, 9.99923, 9.999005 
2.0450862e+3, 1.944008e+2, -997890.2, -1109687.0, -57461.03, -0.095052, -0.083776146, -973623.75, 61242.04, 0.0, 10.000622, 9.999087 
2.0451096e+3, 2.0440003e+2, -813589.25, -1047533.44, -29136.568, -0.06366253, -0.032134365, -810015.0, 126859.33, 0.0, 10.001502, 9.998449 
2.0451333e+3, 2.1439835e+2, -635753.2, -885513.44, -62373.453, 0.024212983, -0.09288126, -621042.8, 217846.92, 0.0, 10.00198, 9.998631 
2.0451568e+3, 2.2439702e+2, -540761.5, -836597.3, -47072.35, 0.06740408, -0.06778487, -533452.1, 207450.36, 0.0, 10.002123, 9.998249 
2.0451798e+3, 2.3439573e+2, -465300.22, -731012.94, -44058.484, 0.04020054, -0.06910532, -458185.28, 184730.5, 0.0, 10.00192, 9.998375 
2.0452027e+3, 2.4439424e+2, -362344.97, -589694.56, -4707.291, -0.013361494, -0.067854755, -362247.53, 182682.16, 0.0, 10.001748, 9.998779 
2.0452257e+3, 2.5439256e+2, -264305.16, -461366.38, -48089.996, -0.123478755, -0.16702956, -253195.77, 193748.38, 0.0, 10.001653, 9.999012 
2.04525e+3, 2.643917e+2, -206833.8, -494438.8, -55134.863, -0.07264744, -0.10415351, -196626.52, 152326.92, 0.00000011200642, 10.001821, 9.998042 
2.0452757e+3, 2.7439168e+2, -15087.114, -331267.16, -57341.063, 0.1762638, 0.03657309, -5009.2075, 245947.95, 0.000002326167, 10.002413, 9.998179 
2.0452993e+3, 2.8439015e+2, 135447.31, -199875.08, -29175.658, 0.16324046, 0.061397396, 137966.89, 290939.4, 0.000014696717, 10.002682, 9.99832 
2.0453197e+3, 2.943865e+2, 222060.34, -46988.754, -81139.69, -0.19175738, -0.20121324, 244636.08, 299639.4, 0.00005375532, 10.002392, 9.998806 
2.0453465e+3, 3.043843e+2, 202687.38, -348211.75, -68225.07, 0.059607193, -0.17160639, 211010.83, 211010.83, 0.00013254509, 10.0032425, 9.996025 
2.0453708e+3, 3.1438422e+2, 702738.0, 155984.45, -193944.25, 0.19175276, 0.16324265, 764546.6, 764546.6, 0.00025431596, 10.00551, 9.998365 
2.0549168e+3, 1.2437344e+2, -1715761.3, -1257596.1, 18382.654, -0.047276054, -0.13578983, -1256859.8, 464267.94, 0.3476065, 9.996823, 10.006359 
2.0549382e+3, 1.343732e+2, -1963311.9, -1760272.3, -65608.69, -0.018686065, -0.21075432, -1740917.1, -117789.46, 0.2513395, 9.997526, 10.000157 
2.0549631e+3, 1.443742e+2, -1682733.6, -1519755.5, -4858.144, -0.16131985, -0.14900377, -1519610.8, 5505.8657, 0.15236652, 9.998471, 10.000709 
2.0549898e+3, 1.5437534e+2, -1451202.6, -1299955.9, -27083.313, 0.020223057, -0.19153474, -1295252.4, 131852.14, 0.071473114, 9.999145, 10.001258 
2.0550144e+3, 1.6437575e+2, -1486167.5, -1513437.3, -48950.137, 0.035332274, -0.16862987, -1448988.8, -119884.47, 0.022826005, 9.999293, 9.999009 
2.0550376e+3, 1.7437638e+2, -1440754.4, -1428364.9, -32850.4, -0.15191807, -0.04345693, -1401130.3, -170023.33, 0.0036400491, 9.998934, 9.9990635 
2.0550615e+3, 1.8437698e+2, -1206744.1, -1142295.8, -60593.977, -0.23183233, 0.061818123, -1105890.4, 27213.348, 0.00008593674, 9.999297, 10.000206 
2.0550865e+3, 1.9437705e+2, -904420.56, -905066.8, 3053.6985, -0.15905114, -0.014664951, -901672.94, 133424.3, 0.0, 10.000563, 10.000526 
2.0551111e+3, 2.0437615e+2, -873233.5, -1125096.6, -25489.629, -0.0870735, -0.03704229, -870679.7, 66424.305, 0.0, 10.001303, 9.998013 
2.0551352e+3, 2.14374e+2, -713189.25, -985915.3, -31661.117, 0.0045406567, -0.0898288, -709561.94, 129565.625, 0.0, 10.001717, 9.998068 
2.0551589e+3, 2.243724e+2, -577982.9, -824325.1, -68597.555, 0.03957037, -0.07429578, -560169.06, 180975.38, 0.0, 10.001744, 9.998513 
2.0551817e+3, 2.343713e+2, -477840.34, -696175.2, -36384.08, 0.025043387, -0.09038238, -471936.78, 171217.95, 0.0, 10.00166, 9.99874 
2.0552048e+3, 2.4437007e+2, -460584.88, -710255.25, -22383.7, -0.015362708, -0.053886183, -458594.0, 86573.68, 0.0, 10.0014, 9.998114 
2.055228e+3, 2.543687e+2, -355184.22, -587460.0, -31920.826, -0.06812569, -0.055135917, -350877.3, 96306.88, 0.0, 10.001394, 9.998266 
2.0552522e+3, 2.6436785e+2, -229606.63, -454016.1, -48419.37, -0.059349794, 0.029865516, -219605.23, 129588.41, 0.00000017468948, 10.001452, 9.998491 
2.0552774e+3, 2.743675e+2, -19401.07, -281665.6, -15693.288, 0.072381586, 0.0877395, -18465.36, 232730.89, 0.0000023499456, 10.002154, 9.998649 
2.0553005e+3, 2.8436542e+2, -18774.762, -403764.63, -50767.85, -0.0031699573, 0.08967085, -12192.638, 141023.56, 0.000012296112, 10.002207, 9.997136 
2.0553215e+3, 2.9436097e+2, 83847.01, -256718.55, -63636.45, -0.28283998, -0.14659812, 95349.33, 150608.11, 0.000044415407, 10.002065, 9.997516 
2.0553493e+3, 3.0435935e+2, 236674.56, -119608.16, -13425.685, -0.0066511547, -0.07824262, 237179.77, 237179.77, 0.00011238728, 10.002608, 9.997879 
2.0553762e+3, 3.1435734e+2, 511970.56, 9454.833, -167837.55, 0.117104374, -0.15591796, 562871.5, 562871.5, 0.00022372513, 10.00449, 9.997827 
2.0649143e+3, 1.2434822e+2, -1697139.4, -1246041.6, 20805.043, 0.042507898, -0.18644916, -1245084.1, 476290.72, 0.36771804, 9.996928, 10.00655 
2.0649382e+3, 1.3434754e+2, -1735937.0, -1713187.9, 44359.023, 0.15846783, -0.26003703, -1678768.4, -55388.684, 0.26616043, 9.99933, 9.999595 
2.0649604e+3, 1.44349e+2, -1718524.6, -1579822.9, 82717.24, -0.25358182, -0.11294176, -1541230.8, -15865.649, 0.1618756, 9.9983835, 10.000344 
2.0649888e+3, 1.5434948e+2, -1447249.5, -1315207.4, -13146.693, 0.0093488535, -0.20498742, -1313911.1, 113449.24, 0.07651462, 9.999233, 10.001112 
2.0650144e+3, 1.6435029e+2, -1417712.5, -1454921.9, -47130.516, 0.09301823, -0.1465494, -1385647.5, -56291.254, 0.024829434, 9.9996805, 9.999206 
2.065037e+3, 1.743515e+2, -1367009.0, -1373467.0, -19929.246, -0.099172994, 0.021864457, -1350048.9, -118696.31, 0.0041003036, 9.999375, 9.999213 
2.0650613e+3, 1.843519e+2, -1210220.3, -1141873.4, 14683.811, -0.17181282, 0.100876436, -1138852.3, -5502.2134, 0.000108260756, 9.999274, 10.000207 
2.0650871e+3, 1.9435132e+2, -963675.3, -927060.8, -49628.613, -0.12618662, -0.04608634, -892470.5, 142877.73, 0.0, 10.000129, 10.00058 
2.0651123e+3, 2.0435041e+2, -967517.0, -1113399.3, -109781.45, -0.050077617, -0.09281582, -908653.8, 28700.031, 0.0, 10.000415, 9.998511 
2.0651364e+3, 2.1434902e+2, -897830.7, -1021361.3, -72206.58, 0.027654268, -0.1178518, -864576.3, -25206.232, 0.0, 10.000229, 9.998541 
2.0651601e+3, 2.2434795e+2, -726903.2, -853025.4, -21776.62, 0.06718018, -0.0899754, -723249.0, 18132.777, 0.0, 10.000532, 9.998901 
2.0651834e+3, 2.3434718e+2, -476015.13, -651134.0, -18936.004, 0.041312434, -0.11128504, -473990.9, 169397.73, 0.0, 10.0014925, 9.999124 
2.0652068e+3, 2.4434629e+2, -361366.53, -687647.4, 26396.3, 0.023527797, -0.050642803, -359244.84, 186153.97, 0.0, 10.002189, 9.997889 
2.0652305e+3, 2.5434506e+2, -199790.8, -537921.1, 14853.465, -0.012777036, -0.010424474, -199139.56, 248275.67, 0.0, 10.002577, 9.99803 
2.0652546e+3, 2.6434362e+2, -76059.805, -403840.8, 24452.463, -0.009092822, 0.035896897, -74245.695, 275184.78, 0.00000012472299, 10.00259, 9.998302 
2.065279e+3, 2.7434197e+2, -24636.12, -295269.03, -23136.908, 0.040173285, -0.017553402, -22672.352, 228771.97, 0.0000018192295, 10.002172, 9.998545 
2.065303e+3, 2.8434005e+2, -19668.547, -401228.8, -5727.0825, 0.034028832, 0.0046183732, -19582.604, 133879.5, 0.000008845643, 10.0021715, 9.997186 
2.065326e+3, 2.9433727e+2, 152512.5, -226818.92, 13125.752, -0.067366265, -0.05851506, 152966.13, 208456.11, 0.000033872344, 10.002554, 9.997489 
2.0653528e+3, 3.0433503e+2, 359864.78, 21404.889, 154610.81, 0.06589755, -0.092430264, 419858.03, 419858.03, 0.00009226976, 10.003018, 9.998695 
2.06538e+3, 3.1433287e+2, 349041.6, -47488.36, -240098.08, 0.13661459, -0.2587581, 462154.34, 462154.34, 0.0001939828, 10.003213, 9.998085 
2.0749107e+3, 1.2432664e+2, -1892775.3, -1555995.3, -172463.58, -0.128705, -0.06860107, -1483348.1, 238238.72, 0.38886976, 9.997231, 10.003265 
2.074939e+3, 1.343221e+2, -1808546.1, -1894489.9, 42188.457, 0.26079977, -0.44526273, -1791298.0, -167667.03, 0.28190908, 9.999451, 9.998301 
2.07496e+3, 1.4432663e+2, -1771031.9, -1727000.4, 49533.582, -0.20147957, 0.14024, -1694810.4, -169222.33, 0.17213808, 9.998548, 9.999258 
2.074987e+3, 1.5432443e+2, -1499642.9, -1424905.6, 32311.516, -0.117559455, -0.13067223, -1412873.4, 14738.205, 0.08207624, 9.99928, 10.0002775 
2.0750126e+3, 1.6432443e+2, -1340952.0, -1330195.4, -66575.734, -0.0957275, -0.14690816, -1268781.0, 60831.973, 0.027111659, 9.999829, 9.999997 
2.075037e+3, 1.7432584e+2, -1307180.3, -1253269.9, -25378.113, -0.07086693, -0.04319012, -1243203.0, -11602.737, 0.0046569863, 9.9994, 10.000022 
2.075062e+3, 1.8432556e+2, -1283244.4, -1314240.3, 24537.209, -0.0755986, -0.019549932, -1269720.6, -136118.19, 0.00014131474, 9.999363, 9.998982 
2.0750874e+3, 1.943236e+2, -1070601.5, -1133268.0, -8767.455, -0.1242952, -0.16675463, -1069398.0, -33779.3, 0.0000000002137382, 10.000059, 9.999199 
2.0751123e+3, 2.0432279e+2, -899924.7, -936766.25, -132903.77, -0.13058501, -0.19262557, -784171.2, 153453.34, 0.0, 10.000248, 9.999807 
2.0751363e+3, 2.1432327e+2, -822456.2, -817149.8, -65620.86, -0.044900645, -0.18041335, -754128.56, 85490.36, 0.0, 10.000017, 10.000044 
2.0751601e+3, 2.2432347e+2, -751979.9, -818743.44, 570.0334, -0.016311036, -0.12648594, -751975.0, -10358.613, 0.0, 10.000173, 9.999303 
2.0751841e+3, 2.3432323e+2, -496972.66, -622854.5, 31112.738, -0.042176124, -0.13037123, -489702.75, 153916.13, 0.0, 10.001201, 9.999451 
2.0752083e+3, 2.4432266e+2, -411757.75, -698170.1, 26711.547, -0.07816667, -0.06284664, -409287.88, 136337.9, 0.0, 10.00179, 9.998005 
2.0752324e+3, 2.5432146e+2, -229554.45, -541396.56, 41727.277, -0.09615096, -0.029994275, -224067.52, 223572.89, 0.0, 10.002332, 9.99812 
2.0752566e+3, 2.6431894e+2, -189314.33, -543946.56, -10173.355, -0.10826804, -0.059045892, -189022.72, 160642.81, 0.000000021824269, 10.002195, 9.997526 
2.0752805e+3, 2.743149e+2, -119782.89, -424182.8, -23273.361, -0.07385243, -0.2751017, -118013.77, 133689.77, 0.00000084431264, 10.001892, 9.997792 
2.0753057e+3, 2.843136e+2, -18873.473, -291450.06, -17576.086, 0.04012767, -0.20240803, -17744.818, 135971.05, 0.000005133315, 10.001726, 9.998144 
2.0753321e+3, 2.9431492e+2, 168198.9, -125859.91, 46685.23, 0.25574276, 0.040446404, 175432.77, 231136.03, 0.000023723636, 10.002243, 9.998336 
2.0753556e+3, 3.0431104e+2, 225573.78, -70579.03, 132830.25, 0.022148285, -0.17630072, 276420.72, 276420.72, 0.00007270888, 10.002284, 9.998383 
2.0753807e+3, 3.143116e+2, 237643.67, -19449.96, -164188.81, -0.19341436, -0.076751105, 317620.84, 317620.84, 0.00016093491, 10.002206, 9.998711 
2.0849085e+3, 1.2430385e+2, -1722604.4, -1637344.6, -157520.08, -0.17327267, 0.10593611, -1516787.9, 205023.33, 0.40993002, 9.999544, 10.001316 
2.0849377e+3, 1.3429874e+2, -1905229.1, -1981966.5, -75820.78, 0.22446004, -0.3049943, -1858621.6, -234759.44, 0.29801235, 9.9989605, 9.997934 
2.0849602e+3, 1.4430119e+2, -1698547.8, -1688947.8, 62788.113, -0.041703295, 0.09011521, -1630776.5, -104936.945, 0.18298064, 9.999068, 9.999252 
2.0849866e+3, 1.5429954e+2, -1528794.0, -1465977.3, 77822.48, -0.09074704, -0.10765387, -1413464.0, 14393.089, 0.088167645, 9.999197, 10.00004 
2.0850125e+3, 1.6429973e+2, -1431572.5, -1392643.5, -9323.8, -0.06602432, -0.082971014, -1390525.5, -60669.79, 0.029713616, 9.999263, 9.999857 
2.0850374e+3, 1.7430027e+2, -1206515.8, -1214419.0, -69878.914, 0.0033913977, -0.059312105, -1140476.8, 91372.91, 0.005333032, 10.000106, 9.999972 
2.0850627e+3, 1.8429935e+2, -1165957.3, -1292558.1, 9347.543, 0.02601388, -0.08278695, -1165270.9, -31413.303, 0.00018960002, 10.000327, 9.9986725 
2.0850883e+3, 1.9429713e+2, -1057008.3, -1167568.1, 26866.068, -0.056691874, -0.21501856, -1050825.5, -14948.028, 0.000000020895914, 10.000348, 9.998818 
2.0851131e+3, 2.0429653e+2, -892565.44, -894152.44, -87503.71, -0.064000584, -0.21544923, -805851.6, 132030.56, 0.0, 10.00017, 10.00012 
2.0851365e+3, 2.1429768e+2, -791581.1, -759207.06, -138696.58, 0.005763303, -0.17142513, -635756.1, 204113.61, 0.0, 10.000061, 10.000408 
2.0851606e+3, 2.2429818e+2, -722698.75, -783927.0, -62247.918, 0.03372586, -0.1162681, -683944.06, 57919.926, 0.0, 10.000263, 9.999511 
2.0851853e+3, 2.3429774e+2, -516376.84, -610411.9, -67570.484, -0.024955178, -0.15708978, -481075.38, 162792.19, 0.0, 10.000949, 9.999669 
2.08521e+3, 2.4429709e+2, -432979.28, -694745.9, -55465.65, -0.049956255, -0.11581581, -421711.7, 124162.836, 0.0, 10.001576, 9.998132 
2.0852348e+3, 2.5429592e+2, -238348.7, -537683.06, -70024.37, -0.05455919, -0.083259, -222777.64, 225110.67, 0.0, 10.002226, 9.998199 
2.0852593e+3, 2.6429367e+2, -134317.61, -525096.6, -93827.9, -0.046177343, -0.09010282, -112956.72, 236954.73, 0.0, 10.0026045, 9.997461 
2.085283e+3, 2.7428997e+2, -22448.848, -389970.3, -95454.445, -0.04425672, -0.26025966, 864.21747, 252811.1, 0.000000115745564, 10.002612, 9.997681 
2.0853081e+3, 2.842883e+2, 125899.05, -219042.6, -48537.695, 0.09558063, -0.21606055, 132598.8, 286561.8, 0.0000020138657, 10.002679, 9.99819 
2.0853353e+3, 2.942889e+2, 239478.02, -73568.64, -99209.695, 0.35181424, -0.04415368, 268270.94, 324228.6, 0.000014504671, 10.002668, 9.9984865 
2.0853576e+3, 3.0428687e+2, 315474.8, -27488.703, 22573.867, -0.026814466, -0.094584845, 316954.25, 316954.25, 0.000053405533, 10.002839, 9.998441 
2.0853835e+3, 3.142875e+2, 333440.28, -58042.215, -307404.7, -0.14889568, 0.039685387, 502133.22, 502133.22, 0.000125829, 10.003095, 9.998075 
2.0949085e+3, 1.24274865e+2, -1742133.9, -1683513.6, 191065.88, -0.24952099, -0.15003948, -1519522.8, 202573.95, 0.42994058, 9.999676, 10.000936 
2.0949343e+3, 1.3427754e+2, -1836400.8, -1859524.8, -71502.47, -0.067641474, 0.18644354, -1775531.5, -151459.48, 0.31401625, 9.999059, 9.998729 
2.0949602e+3, 1.4427248e+2, -1601209.5, -1537152.5, 51983.66, -0.016951775, -0.27360284, -1508122.6, 17999.31, 0.19429262, 9.999265, 10.000229 
2.0949863e+3, 1.5427472e+2, -1496630.4, -1418005.9, 84178.83, -0.0762435, -0.12895222, -1364412.1, 63686.21, 0.094824284, 9.9992695, 10.000361 
2.095013e+3, 1.6427614e+2, -1476700.1, -1528835.8, -5585.303, -0.012055511, 0.05654625, -1476108.5, -146023.75, 0.032688897, 9.999439, 9.998839 
2.0950378e+3, 1.7427483e+2, -1263910.9, -1341031.0, -30871.3, -0.0078076175, -0.011482842, -1253075.4, -20975.35, 0.0061590113, 10.0001335, 9.99909 
2.0950627e+3, 1.842733e+2, -1113445.3, -1205588.3, -6126.367, -0.054704875, -0.0769411, -1113039.8, 21075.15, 0.00026052183, 10.000417, 9.999228 
2.0950888e+3, 1.9427197e+2, -1025913.94, -1089027.0, 36255.617, -0.06402381, -0.1813555, -1009405.06, 26719.283, 0.00000016154512, 10.000286, 9.999389 
2.0951138e+3, 2.0427157e+2, -973317.1, -1018902.75, -105805.7, -0.032102954, -0.1554897, -887877.06, 50249.95, 0.0, 9.999985, 9.9993515 
2.0951372e+3, 2.1427217e+2, -887729.3, -901600.56, -130250.17, 0.046953943, -0.08275746, -764230.25, 75893.01, 0.0, 9.999825, 9.999538 
2.0951614e+3, 2.24272e+2, -767893.1, -803834.6, -50148.55, 0.0364494, -0.050736655, -732592.6, 9532.264, 0.0, 9.999945, 9.999526 
2.095186e+3, 2.3427074e+2, -545637.4, -614075.06, -25238.809, -0.059033327, -0.18382181, -537336.5, 106797.695, 0.0, 10.000703, 9.999762 
2.0952117e+3, 2.4426965e+2, -484503.06, -712156.1, -44332.074, -0.09461182, -0.19420289, -476174.75, 69969.484, 0.0, 10.001191, 9.998197 
2.0952378e+3, 2.542686e+2, -269013.63, -544839.5, -29243.443, -0.030503057, -0.15988877, -265947.28, 182210.23, 0.0, 10.001977, 9.998271 
2.0952624e+3, 2.6426768e+2, -158750.13, -482549.6, -107963.04, -0.025840566, -0.06412652, -126054.016, 224114.42, 0.0, 10.002217, 9.997934 
2.095286e+3, 2.7426666e+2, -37187.566, -350405.47, -76661.6, -0.03880393, -0.012676147, -19430.908, 232747.42, 0.0, 10.0023155, 9.998091 
2.0953102e+3, 2.8426397e+2, -14456.668, -383705.78, -66656.47, 0.006384571, -0.047430724, -2792.3772, 151412.84, 0.00000039293647, 10.002147, 9.9973135 
2.0953354e+3, 2.9425964e+2, 143036.16, -190493.23, -68571.164, 0.07497547, -0.2874689, 156583.61, 212832.58, 0.000007667558, 10.00231, 9.997858 
2.0953572e+3, 3.0426124e+2, 200867.4, -64676.066, 11304.641, -0.3802526, 0.04051395, 201347.8, 201347.8, 0.000037309022, 10.002043, 9.99854 
2.0953885e+3, 3.1426036e+2, 97408.336, -284498.47, -68894.05, -0.034655187, 0.029276526, 109456.39, 109456.39, 0.0000961441, 10.002062, 9.996972 
2.1049102e+3, 1.2424357e+2, -1772017.8, -1787142.9, 197765.08, -0.02177766, -0.2316363, -1581670.6, 140732.34, 0.44859928, 9.999955, 9.999851 
2.1049336e+3, 1.3425188e+2, -1790089.0, -1597938.0, -189915.75, 0.0248118, 0.38526097, -1481179.1, 143145.05, 0.3298663, 9.99828, 10.001265 
2.1049583e+3, 1.4424479e+2, -1714718.5, -1580807.4, 3080.4526, -0.07301995, -0.40629765, -1580736.5, -54342.645, 0.20615475, 9.99845, 10.00029 
2.1049854e+3, 1.5424867e+2, -1476254.0, -1387548.4, -36846.926, -0.07024231, -0.11425799, -1374239.5, 54114.582, 0.10215144, 9.999342, 10.000517 
2.1050127e+3, 1.6425024e+2, -1467573.4, -1519635.0, -60902.01, 0.0317538, 0.07612101, -1427372.4, -97033.484, 0.036114734, 9.999502, 9.998851 
2.105038e+3, 1.7424853e+2, -1307863.6, -1357817.1, -40628.2, 0.045659132, -0.03549282, -1285148.8, -52790.695, 0.007176738, 9.999815, 9.999115 
2.1050635e+3, 1.8424746e+2, -1173622.0, -1188735.0, 15877.341, 0.017701281, -0.07879226, -1163594.8, -29226.229, 0.0003661867, 9.999802, 9.999642 
2.1050888e+3, 1.9424699e+2, -1073450.5, -1061574.8, 16500.158, -0.04903954, -0.13949403, -1049976.6, -13607.217, 0.00000091193453, 9.9997425, 9.999839 
2.1051137e+3, 2.0424673e+2, -963479.56, -1037162.6, -61612.91, -0.027853033, -0.1174386, -928533.56, 9836.987, 0.0, 10.000104, 9.999194 
2.105138e+3, 2.1424651e+2, -691701.4, -839779.9, -62536.953, 0.062395923, -0.10424073, -668824.75, 171549.81, 0.0, 10.001257, 9.999305 
2.1051626e+3, 2.2424601e+2, -528679.06, -731943.94, 49533.777, 0.09326851, -0.07013851, -517250.7, 225129.22, 0.0, 10.001801, 9.999111 
2.1051879e+3, 2.3424505e+2, -408376.47, -595404.2, 370.3119, 0.012500718, -0.12961966, -408375.75, 236012.83, 0.0, 10.001873, 9.9993105 
2.1052139e+3, 2.4424382e+2, -363274.13, -636947.25, -15876.222, -0.009430149, -0.13589029, -362356.2, 184044.36, 0.0, 10.001925, 9.998377 
2.1052398e+3, 2.5424218e+2, -276056.28, -525276.3, -18450.057, -0.0024066973, -0.17794292, -274697.8, 173720.03, 0.0, 10.001819, 9.998495 
2.1052647e+3, 2.6424155e+2, -181000.89, -427563.78, -65954.89, 0.00046988152, -0.09166024, -164466.89, 185957.72, 0.0, 10.001763, 9.998538 
2.105288e+3, 2.7424183e+2, -70525.484, -300939.03, -59901.375, -0.0040169815, 0.034099143, -55883.21, 196537.77, 0.0, 10.001795, 9.998687 
2.1053128e+3, 2.842396e+2, -38842.465, -417459.06, 24583.54, 0.040267754, 0.022420948, -37252.934, 117191.32, 0.00000006547354, 10.002118, 9.997066 
2.1053377e+3, 2.9423428e+2, 183856.4, -217744.75, -1792.8298, 0.046584338, -0.27270374, 183864.42, 240364.83, 0.000004738257, 10.002837, 9.997395 
2.1053608e+3, 3.0423564e+2, 341754.16, -61174.96, 85529.3, -0.26227194, 0.083634, 359157.66, 359157.66, 0.00002905632, 10.003252, 9.997989 
2.1053919e+3, 3.1423324e+2, 318854.2, -46436.008, -78637.45, 0.05787018, -0.022142699, 335063.53, 335063.53, 0.00007991688, 10.002983, 9.998169 
2.1149091e+3, 1.2420722e+2, -1931765.9, -2243306.3, -2825.3518, -0.24082856, -0.41176665, -1931740.3, -208983.39, 0.46656317, 10.000194, 9.996224 
2.1149348e+3, 1.3422112e+2, -1500926.0, -1137601.0, -163135.48, 0.26063427, 0.2481478, -1075102.8, 549521.94, 0.34608045, 9.9984, 10.005779 
2.1149541e+3, 1.442181e+2, -1736868.8, -1689560.5, 38822.156, -0.40509042, -0.3152866, -1667753.9, -141097.9, 0.21890919, 9.998709, 9.999423 
2.114984e+3, 1.5422143e+2, -1453591.0, -1379502.0, -3239.5532, -0.21562248, -0.05672994, -1379360.6, 49263.625, 0.110347085, 9.999494, 10.000504 
2.1150109e+3, 1.6422184e+2, -1366689.3, -1351104.1, -72704.61, -0.13216375, -0.041726105, -1285775.6, 44844.746, 0.040102176, 9.999673, 9.999935 
2.115038e+3, 1.7422129e+2, -1239581.5, -1228019.6, -19918.201, 0.026322719, -0.13020699, -1213060.5, 19564.443, 0.008443992, 9.999852, 9.999993 
2.1150643e+3, 1.8422167e+2, -1147006.9, -1145387.1, -5623.229, 0.055742852, -0.08849988, -1140515.8, -5895.7246, 0.00052604213, 9.999851, 9.999914 
2.115088e+3, 1.942221e+2, -1068341.1, -1027257.75, 21271.469, -0.14505169, -0.0853338, -1018228.56, 18385.18, 0.0000034897541, 9.999645, 10.000115 
2.1151122e+3, 2.0422183e+2, -969214.3, -995086.5, -38865.234, -0.22853781, -0.09910486, -941188.8, -2574.3591, 0.0, 9.999876, 9.999592 
2.1151379e+3, 2.1422072e+2, -703473.0, -797705.06, -9808.017, -0.0829533, -0.21311295, -702462.94, 138160.48, 0.0, 10.000996, 9.999711 
2.1151638e+3, 2.2422028e+2, -649881.44, -899624.4, 40212.0, 0.0114167305, -0.15438707, -643566.44, 99062.57, 0.0, 10.001433, 9.998138 
2.1151906e+3, 2.3422036e+2, -521060.0, -774535.3, 18088.832, 0.053653475, 0.0019098059, -519775.63, 124857.88, 0.0, 10.00163, 9.998199 
2.1152163e+3, 2.4421923e+2, -404397.25, -631340.8, -31569.793, 0.006987598, 0.051282752, -400087.47, 146559.2, 0.0, 10.001539, 9.998593 
2.1152407e+3, 2.5421637e+2, -286813.88, -493664.84, -7775.083, -0.10644857, -0.15211454, -286522.03, 162150.22, 0.0, 10.001593, 9.998811 
2.1152651e+3, 2.6421505e+2, -200088.4, -367866.44, -77488.87, -0.15207438, -0.17473172, -169776.31, 180905.84, 0.0, 10.00135, 9.999139 
2.1152893e+3, 2.742156e+2, -48955.363, -204378.9, -39336.598, -0.09323705, -0.09938588, -39566.69, 213107.08, 0.0, 10.001573, 9.999452 
2.1153142e+3, 2.8421468e+2, -107280.37, -460792.6, 28040.8, -0.060925674, -0.026881611, -105069.98, 49615.19, 0.00000005479561, 10.001693, 9.996975 
2.1153408e+3, 2.9421178e+2, 104273.66, -317083.84, 53710.793, 0.04156248, -0.06870348, 111012.445, 167734.67, 0.0000044706885, 10.002532, 9.996867 
2.1153669e+3, 3.042094e+2, 97334.266, -328757.94, 48497.95, -0.0264931, 0.033102438, 102784.6, 102784.6, 0.000027145721, 10.002298, 9.996573 
2.1153933e+3, 3.142062e+2, 320197.9, 219408.83, 29385.623, -0.16890447, -0.07443938, 328139.66, 328139.66, 0.00007500438, 10.001935, 10.000467 
2.1249062e+3, 1.2418228e+2, -2191280.0, -2220778.8, 63230.375, -0.44687322, -0.27109918, -2141101.5, -418100.1, 0.48543465, 9.997646, 9.997634 
2.1249336e+3, 1.3419285e+2, -1368452.0, -1091594.8, -76382.06, 0.23938441, 0.129519, -1071919.9, 552982.9, 0.3637423, 9.999953, 10.005644 
2.1249531e+3, 1.4419173e+2, -1700164.8, -1680210.9, 89418.82, -0.37833104, -0.2305891, -1600214.1, -73297.95, 0.23315269, 9.998986, 9.999355 
2.1249834e+3, 1.5419452e+2, -1504512.8, -1399693.1, 37866.39, -0.18136118, -0.027105374, -1387445.0, 41445.477, 0.1197026, 9.999097, 10.000574 
2.1250108e+3, 1.6419487e+2, -1396993.3, -1305735.6, -31260.258, -0.091013476, -0.04796346, -1296054.5, 34832.24, 0.044803485, 9.99918, 10.000505 
2.1250379e+3, 1.7419502e+2, -1250935.9, -1175403.8, -32476.54, 0.046793435, -0.118319064, -1163360.3, 69522.67, 0.01004214, 9.999522, 10.000524 
2.125064e+3, 1.8419583e+2, -1183992.3, -1142117.1, -20214.78, 0.093308, -0.06718024, -1133951.1, 921.6497, 0.0007722133, 9.999501, 10.0001 
2.1250878e+3, 1.9419627e+2, -1056830.1, -1008022.7, -28141.53, -0.11076762, -0.08153464, -995177.4, 41689.617, 0.000010944595, 9.999644, 10.000259 
2.1251126e+3, 2.0419605e+2, -947629.8, -990417.7, -48008.64, -0.18324217, -0.09327689, -916464.0, 22403.523, 0.0, 10.00007, 9.999516 
2.1251386e+3, 2.1419507e+2, -682164.25, -794175.8, -83895.43, -0.08951599, -0.18745919, -637298.4, 203576.89, 0.0, 10.001196, 9.999616 
2.1251653e+3, 2.2419441e+2, -626259.8, -912746.7, -39852.203, 0.016403154, -0.13374646, -620819.44, 122063.805, 0.0, 10.00169, 9.997928 
2.1251921e+3, 2.3419404e+2, -577945.25, -824431.3, -27375.477, 0.07137867, 0.00017581558, -574941.44, 69951.79, 0.0, 10.001337, 9.997998 
2.1252178e+3, 2.44193e+2, -429329.4, -599760.94, -6877.4883, 0.050347187, 0.05290814, -429052.3, 117852.98, 0.0, 10.001211, 9.998956 
2.1252425e+3, 2.541909e+2, -279713.97, -446877.78, -14609.134, -0.08683326, -0.106709994, -278446.8, 170475.17, 0.0, 10.001482, 9.999183 
2.1252671e+3, 2.6418945e+2, -134866.38, -368723.22, -78057.05, -0.11371886, -0.14796205, -111206.18, 239726.7, 0.0, 10.001945, 9.998841 
2.1252915e+3, 2.7418858e+2, 60378.883, -193733.16, -157262.55, -0.068634495, -0.17089827, 135497.89, 388437.72, 0.0, 10.002527, 9.99906 
2.1253164e+3, 2.8418788e+2, 93428.29, -327174.4, -88265.445, -0.043431092, -0.065405734, 111200.27, 266149.4, 0.000000117451826, 10.002867, 9.997358 
2.1253431e+3, 2.941872e+2, 174183.1, -236425.23, -67928.67, 0.019887613, 0.07767187, 185129.03, 242093.75, 0.0000050467984, 10.0027895, 9.997311 
2.1253714e+3, 3.0418348e+2, 233160.69, -310802.6, 52033.484, 0.1578094, 0.037633114, 238093.28, 238093.28, 0.00002697455, 10.003316, 9.996279 
2.1253978e+3, 3.141815e+2, 571366.6, 352798.28, -66084.26, 0.030227665, 0.11488743, 589793.7, 589793.7, 0.00007158717, 10.003472, 10.000729 
2.1349299e+3, 1.3416827e+2, -1603080.5, -1561991.3, -113896.44, -0.15524614, 0.1849306, -1466801.4, 158345.55, 0.38411817, 10.00002, 10.000657 
2.1349543e+3, 1.4416526e+2, -1637003.0, -1596431.9, 35241.254, -0.22891591, -0.16509287, -1576054.9, -48876.535, 0.24951555, 9.999183, 9.99983 
2.1349834e+3, 1.5416774e+2, -1471824.1, -1365114.9, 47763.297, -0.115954, -0.024644881, -1346859.1, 82295.54, 0.13052814, 9.999218, 10.000786 
2.135011e+3, 1.6416931e+2, -1359343.5, -1277999.9, -35304.797, -0.041109826, 0.056408472, -1264814.3, 66324.23, 0.050404422, 9.999389, 10.000606 
2.1350372e+3, 1.7416967e+2, -1236649.4, -1152417.1, -13082.857, -0.028265292, -0.005810256, -1150431.9, 82700.46, 0.012084308, 9.999549, 10.000669 
2.1350625e+3, 1.8416987e+2, -1169751.0, -1133382.5, -30325.66, -0.056575663, -0.02783254, -1116207.0, 18921.03, 0.001155736, 9.999587, 10.000119 
2.1350878e+3, 1.9416952e+2, -1066149.4, -1017084.8, -13255.076, -0.086865164, -0.11913056, -1013732.9, 23396.303, 0.000030850606, 9.999593, 10.000224 
2.1351138e+3, 2.0416933e+2, -1017243.6, -1084884.9, -23992.695, -0.103185214, -0.10124665, -1009597.56, -70467.14, 0.0, 9.999858, 9.998968 
2.1351404e+3, 2.1416923e+2, -761087.6, -895745.44, -28962.555, -0.081071556, -0.04533571, -755122.5, 86010.164, 0.0, 10.000934, 9.9990425 
2.1351665e+3, 2.2416842e+2, -649700.44, -862377.0, -58477.137, -0.07468085, -0.0052527497, -634682.2, 108460.445, 0.0, 10.00128, 9.998464 
2.1351925e+3, 2.3416625e+2, -573590.56, -759937.75, -27100.365, -0.063103, -0.11213558, -569729.4, 75437.02, 0.0, 10.0011015, 9.998555 
2.1352181e+3, 2.4416518e+2, -461680.25, -584307.75, -13121.006, -0.07926857, -0.10540002, -460292.03, 86884.8, 0.0, 10.000862, 9.999227 
2.1352442e+3, 2.541655e+2, -290032.53, -419395.56, 9569.253, -0.08376775, -0.053133506, -289328.5, 159841.34, 0.0, 10.001269, 9.99947 
2.1352695e+3, 2.641642e+2, -286990.6, -591382.5, -70728.19, -0.087475665, -0.037961036, -271359.0, 79822.586, 0.0, 10.00156, 9.997491 
2.1352942e+3, 2.7416041e+2, -86019.01, -442588.7, -115517.766, -0.08278727, -0.20572627, -51866.004, 201356.0, 0.00000000014169585, 10.002285, 9.997469 
2.1353187e+3, 2.8415886e+2, 55923.86, -275663.13, -104888.4, -0.15863551, -0.124840684, 86316.65, 241557.17, 0.000000256191, 10.002348, 9.997939 
2.1353443e+3, 2.941603e+2, 201483.88, -108059.56, -34686.25, -0.17936045, 0.13990414, 205323.06, 262552.9, 0.0000052967753, 10.002477, 9.998337 
2.135373e+3, 3.0415675e+2, 140311.61, -274234.88, 53210.72, -0.04936442, 0.018309142, 147032.7, 147032.7, 0.000025200057, 10.002421, 9.996919 
2.1354021e+3, 3.1415504e+2, 268395.66, 59093.223, -31195.543, 0.04813252, 0.06922746, 272946.28, 272946.28, 0.00006359548, 10.0021515, 9.999288 
2.1449287e+3, 1.3414182e+2, -2001687.8, -1903310.4, -81846.74, -0.13657989, 0.14079146, -1857008.6, -231603.45, 0.40760165, 9.997789, 9.998962 
2.1449547e+3, 1.4413856e+2, -1601387.6, -1563366.1, 47647.746, -0.11566064, -0.15498394, -1531076.6, -3637.6978, 0.26811564, 9.999362, 9.999969 
2.1449831e+3, 1.5414089e+2, -1454492.6, -1346467.3, 41348.477, -0.05543203, -0.04613979, -1332457.4, 96958.58, 0.14296411, 9.999297, 10.000895 
2.1450113e+3, 1.6414276e+2, -1400705.3, -1319030.6, -20598.588, 0.055178214, 0.072998226, -1314129.6, 17267.473, 0.057087187, 9.999227, 10.000381 
2.1450369e+3, 1.7414285e+2, -1218123.8, -1162283.5, -53472.99, -0.00027943554, 0.0015276495, -1129880.4, 103514.95, 0.014719365, 9.999793, 10.000474 
2.1450622e+3, 1.8414266e+2, -1137795.3, -1149237.1, -81072.38, -0.040422685, -0.03378235, -1062242.1, 73153.66, 0.0017550356, 9.999947, 9.999838 
2.1450883e+3, 1.941422e+2, -1002601.9, -1015007.3, -109193.44, -0.022460425, -0.11135398, -899435.1, 137963.58, 0.00008036648, 10.000167, 9.999951 
2.1451147e+3, 2.0414196e+2, -958332.75, -1052408.6, -63430.688, 0.0020590539, -0.08285539, -926402.2, 12998.335, 0.000000018813253, 10.000248, 9.999008 
2.1451414e+3, 2.1414188e+2, -822438.3, -919190.44, -44593.33, -0.017554222, -0.033145193, -805020.75, 36382.34, 0.0, 10.000471, 9.999116 
2.1451677e+3, 2.2414118e+2, -698968.6, -837309.44, -48671.414, -0.03516981, -0.005138299, -683560.94, 59850.58, 0.0, 10.000728, 9.99891 
2.145193e+3, 2.3413938e+2, -528289.25, -683292.2, -56632.727, -0.08775083, -0.11467365, -509802.47, 135627.84, 0.0, 10.0011835, 9.999046 
2.145219e+3, 2.4413861e+2, -389278.88, -559770.75, -32788.246, -0.079994895, -0.10007147, -383190.6, 164246.84, 0.0, 10.001391, 9.999149 
2.1452458e+3, 2.5413907e+2, -297782.0, -439577.75, -66210.79, -0.013089975, -0.01913938, -271672.78, 177757.3, 0.0, 10.001276, 9.999332 
2.145272e+3, 2.641377e+2, -285165.7, -606197.0, -74373.49, 0.0035079843, 0.0016825093, -268772.63, 82670.39, 0.0, 10.001616, 9.997375 
2.1452962e+3, 2.741337e+2, -51051.23, -434840.16, -56794.324, -0.09646204, -0.16735607, -42823.03, 210662.03, 0.00000000016893417, 10.002566, 9.997387 
2.145321e+3, 2.8413197e+2, 156557.63, -251237.47, -8416.693, -0.16282311, -0.09557806, 156731.27, 312235.94, 0.0000002738674, 10.003097, 9.997761 
2.1453471e+3, 2.941327e+2, 275956.28, -73839.5, -59221.473, -0.1447848, 0.123009816, 285710.66, 343210.1, 0.0000047479944, 10.003002, 9.998313 
2.1453759e+3, 3.0412954e+2, 343127.25, -80429.52, 45979.668, -0.0029013245, -0.020158244, 348061.16, 348061.16, 0.000021563434, 10.003291, 9.997875 
2.1454057e+3, 3.1412846e+2, 380075.0, 23007.236, -161753.78, 0.1904446, 0.022515971, 442453.2, 442453.2, 0.000054127682, 10.003217, 9.99854 
2.1549292e+3, 1.3411301e+2, -1877407.9, -1687223.4, 30440.54, 0.012198616, -0.025159845, -1682470.0, -56787.73, 0.43279883, 9.997993, 10.000332 
2.1549524e+3, 1.4411128e+2, -1549951.3, -1555349.5, 4583.999, -0.37517965, -0.24607751, -1547330.8, -19629.709, 0.28823382, 9.999763, 9.999837 
2.154982e+3, 1.5411396e+2, -1446151.5, -1360863.8, 41584.484, -0.1546966, -0.09182527, -1343944.4, 85729.68, 0.15688464, 9.999431, 10.000726 
2.1550103e+3, 1.6411522e+2, -1416655.1, -1399972.5, -18851.02, -0.013990546, -0.002121276, -1387699.8, -56037.105, 0.06501248, 9.999443, 9.999711 
2.155037e+3, 1.7411448e+2, -1262767.1, -1254455.4, -30664.395, -0.01935278, -0.087706365, -1227666.5, 6006.006, 0.018139776, 9.999802, 9.999822 
2.1550627e+3, 1.8411413e+2, -1162969.4, -1221091.6, -90699.56, -0.049195316, -0.08034932, -1096789.0, 38888.38, 0.0026903055, 10.000022, 9.999313 
2.1550886e+3, 1.9411425e+2, -1044217.7, -1085515.8, -91881.78, -0.061583843, -0.04897086, -970693.25, 66982.41, 0.00019736934, 10.000104, 9.9994955 
2.1551147e+3, 2.0411398e+2, -943121.8, -984402.6, -71784.26, -0.06299257, -0.028326983, -889069.5, 50608.348, 0.0000007869328, 10.000084, 9.999556 
2.1551418e+3, 2.1411288e+2, -806055.25, -841635.2, -27040.86, -0.04149835, -0.1429682, -791477.2, 50210.145, 0.0, 10.000275, 9.999745 
2.1551685e+3, 2.2411259e+2, -730127.3, -821878.9, -46887.855, -0.07163525, -0.12269364, -710405.4, 33285.53, 0.0, 10.000379, 9.999183 
2.1551938e+3, 2.341132e+2, -542834.6, -657511.9, -25515.357, -0.14946471, -0.022752488, -537413.8, 108273.74, 0.0, 10.000938, 9.99934 
2.1552202e+3, 2.4411306e+2, -481816.6, -656599.06, -49410.85, -0.14568591, 0.057153318, -468815.28, 78874.586, 0.0, 10.000996, 9.998669 
2.1552476e+3, 2.5411147e+2, -368009.47, -539432.44, -56579.066, -0.0031323137, -0.0066811186, -351019.22, 98683.93, 0.0, 10.001077, 9.998743 
2.1552734e+3, 2.641098e+2, -275732.7, -500840.13, -52476.504, -0.041166715, -0.028187556, -264100.6, 87617.53, 0.0, 10.001254, 9.998267 
2.1552974e+3, 2.7410796e+2, -12747.278, -296399.63, -6893.976, -0.2584665, -0.09149534, -12579.824, 241155.2, 0.0, 10.002306, 9.9984665 
2.1553232e+3, 2.841063e+2, 7488.3496, -424871.72, -27857.098, -0.28786698, -0.027369283, 9275.802, 165027.88, 0.000000100631844, 10.002552, 9.996812 
2.1553513e+3, 2.9410428e+2, 129214.39, -281435.4, -29396.16, -0.073166154, 0.023235878, 131308.03, 189083.67, 0.0000031808167, 10.00259, 9.997084 
2.1553786e+3, 3.0410072e+2, 255827.69, -24594.05, 24826.883, -0.12541814, -0.12516075, 258008.75, 258008.75, 0.000016664693, 10.00234, 9.998682 
2.1554077e+3, 3.1410286e+2, 172400.7, -184742.17, 4529.406, -0.04149578, 0.10736778, 172458.14, 172458.14, 0.000045618737, 10.002295, 9.997539 
2.164927e+3, 1.3408288e+2, -1837893.0, -1607150.1, 20589.238, 0.03302273, -0.19342592, -1605327.4, 20650.047, 0.45757636, 9.997987, 10.001068 
2.1649522e+3, 1.4408375e+2, -1713979.9, -1557639.9, -85138.88, -0.27914217, -0.18497214, -1520228.0, 7742.413, 0.3088363, 9.998319, 10.000545 
2.1649815e+3, 1.5408593e+2, -1395632.3, -1306172.5, -27747.336, -0.1532582, -0.13840093, -1298265.1, 131681.39, 0.17204043, 9.999646, 10.001066 
2.1650098e+3, 1.6408685e+2, -1385319.1, -1426460.6, -69017.805, -0.020153701, -0.077811696, -1333871.8, -1933.4711, 0.07433442, 9.999803, 9.999369 
2.1650368e+3, 1.740865e+2, -1261759.6, -1289787.4, -66102.72, 0.0072670174, -0.09723191, -1208201.6, 25745.238, 0.022589553, 9.999923, 9.999547 
2.1650632e+3, 1.8408634e+2, -1159889.6, -1211077.9, -62899.746, 0.008394215, -0.056752313, -1117576.1, 18375.035, 0.00413868, 10.000044, 9.999363 
2.1650888e+3, 1.9408624e+2, -962179.0, -1047840.44, -63031.285, -0.048550226, -0.0444043, -928803.3, 109147.83, 0.00045452762, 10.000691, 9.999478 
2.1651152e+3, 2.0408586e+2, -839337.2, -931468.8, -35449.83, -0.046587925, -0.032918144, -827276.0, 112678.1, 0.000007502901, 10.000761, 9.999596 
2.1651423e+3, 2.1408504e+2, -786909.3, -826848.94, -61355.836, -0.025690882, -0.12569298, -742355.25, 99606.28, 0.0, 10.000382, 9.999795 
2.165169e+3, 2.2408497e+2, -741149.56, -819468.0, -65716.39, -0.031851634, -0.0831346, -703809.8, 40153.035, 0.0, 10.000287, 9.999232 
2.165195e+3, 2.3408577e+2, -561547.06, -664661.56, -88827.38, -0.10280827, 0.028212678, -510398.63, 135559.23, 0.0, 10.000802, 9.999353 
2.1652219e+3, 2.4408537e+2, -432753.8, -639114.4, -92897.76, -0.07743256, 0.0870107, -397095.47, 150866.86, 0.0, 10.00134, 9.998629 
2.1652493e+3, 2.5408313e+2, -246249.03, -472263.0, -89913.07, 0.026068227, -0.04269979, -214843.63, 235137.94, 0.0, 10.001903, 9.998791 
2.1652754e+3, 2.6408154e+2, -137593.64, -430555.7, -62094.77, 0.00020671188, -0.059483793, -124975.79, 227019.34, 0.0, 10.002173, 9.998313 
2.1653003e+3, 2.740805e+2, -45319.105, -309250.66, -115593.05, -0.18848172, -0.04239087, -1851.9362, 252153.22, 0.0, 10.002071, 9.998491 
2.1653266e+3, 2.840785e+2, -27420.26, -434498.6, -117041.05, -0.16671072, -0.017870488, 3831.5437, 159856.6, 0.0000000029805467, 10.002255, 9.996899 
2.1653545e+3, 2.9407525e+2, 153737.9, -256995.75, -83856.586, 0.010750192, -0.08218474, 170198.63, 228257.72, 0.000001345268, 10.002716, 9.997183 
2.165382e+3, 3.04074e+2, 398458.22, 58885.777, 41382.395, -0.031080838, -0.02688927, 403428.56, 403428.56, 0.000010778314, 10.003238, 9.998826 
2.1654108e+3, 3.1407368e+2, 392158.5, -155146.97, -115537.16, -0.022553235, -0.021727445, 415548.94, 415548.94, 0.00003608632, 10.004139, 9.996853 
2.1749236e+3, 1.3405336e+2, -1842364.8, -1641317.0, -162537.13, -0.19783041, -0.13871226, -1550730.0, 75542.125, 0.48078975, 9.998373, 10.000744 
2.1749538e+3, 1.4405671e+2, -1605417.9, -1448539.0, -9795.537, -0.044931665, 0.029595619, -1447929.8, 80310.51, 0.32934, 9.998678, 10.001363 
2.174981e+3, 1.5405695e+2, -1362378.8, -1252302.6, 10792.043, -0.1840046, -0.16774593, -1251254.5, 178977.4, 0.18832743, 9.999714, 10.001507 
2.1750085e+3, 1.640575e+2, -1360166.4, -1419729.6, -79922.46, -0.18957633, -0.1550022, -1304657.0, 27568.676, 0.0852701, 9.999998, 9.999324 
2.1750364e+3, 1.7405899e+2, -1231559.6, -1244500.6, -48156.535, -0.07158159, -0.01899966, -1189440.8, 44776.94, 0.028395085, 9.999996, 9.999816 
2.175063e+3, 1.8405932e+2, -1126703.4, -1162893.9, -56500.32, -0.058446128, 0.040334433, -1085471.4, 50745.61, 0.006367479, 10.0001335, 9.999647 
2.1750891e+3, 1.9405799e+2, -952685.44, -1013397.9, -31541.863, -0.12251522, -0.102629706, -939265.1, 98961.97, 0.0009868387, 10.000632, 9.999736 
2.1751155e+3, 2.0405747e+2, -898841.44, -1016459.6, -60991.996, -0.15173419, -0.09606496, -872924.3, 67307.12, 0.000047582707, 10.000583, 9.9991045 
2.175142e+3, 2.1405815e+2, -851853.4, -910097.4, -66268.055, -0.10267219, 0.010760967, -808590.6, 33636.68, 0.00000000032497088, 10.000155, 9.999333 
2.175169e+3, 2.2405815e+2, -820745.0, -891578.75, -61403.332, -0.09004376, 0.096930996, -785276.56, -41046.97, 0.0, 9.999894, 9.998925 
2.1751963e+3, 2.3405685e+2, -621534.0, -725670.75, -55248.207, -0.08858379, 0.026214978, -597684.8, 48559.01, 0.0, 10.000539, 9.999055 
2.1752234e+3, 2.4405535e+2, -477890.47, -622342.06, -85753.63, -0.087179266, -0.023592345, -437999.13, 110257.88, 0.0, 10.000878, 9.998957 
2.1752505e+3, 2.5405368e+2, -256065.66, -427718.94, -55314.94, -0.05653221, -0.13981335, -239784.73, 210483.3, 0.0, 10.001626, 9.999226 
2.1752773e+3, 2.6405263e+2, -261807.08, -573935.8, -79092.1, -0.065262906, -0.09492451, -242909.6, 109367.49, 0.0, 10.001709, 9.9975395 
2.175304e+3, 2.7405143e+2, -154154.77, -464460.4, -98454.28, -0.054186147, -0.007639458, -125553.29, 128740.336, 0.0, 10.001793, 9.997546 
2.1753305e+3, 2.840486e+2, -43772.875, -349453.06, -114663.09, -0.061100744, -0.051261663, -5543.036, 150780.14, 0.0, 10.001767, 9.997707 
2.1753564e+3, 2.940453e+2, 166813.75, -149647.95, -49207.35, -0.10280258, -0.23742679, 174288.56, 232642.36, 0.00000028754212, 10.002373, 9.99808 
2.1753858e+3, 3.0404767e+2, 209911.16, -133887.05, 35333.668, -0.049413648, 0.19559649, 213504.98, 213504.98, 0.0000061263827, 10.00245, 9.997845 
2.175416e+3, 3.1404382e+2, 202555.22, -281085.28, 55656.324, -0.0016537237, -0.0844378, 208877.39, 208877.39, 0.000027574106, 10.003036, 9.996493 
2.1849534e+3, 1.4402981e+2, -1889782.8, -1623793.3, -76410.08, 0.14429098, 0.18002571, -1603405.8, -74899.03, 0.34983045, 9.996976, 10.000697 
2.1849798e+3, 1.5402834e+2, -1390871.1, -1273374.8, -10722.699, -0.24982056, -0.14309825, -1272404.3, 158110.42, 0.2059314, 9.999473, 10.0015 
2.1850088e+3, 1.6402876e+2, -1493556.4, -1460276.8, -95254.19, -0.10125577, -0.15834019, -1380219.9, -47710.867, 0.09816949, 9.998994, 9.9995165 
2.1850364e+3, 1.7403078e+2, -1277419.9, -1247353.5, -86517.43, -0.045924228, 0.02025604, -1174572.9, 59922.176, 0.036017943, 9.999659, 9.999943 
2.1850628e+3, 1.8403123e+2, -1146631.9, -1179512.6, -92750.57, -0.08117731, 0.08366661, -1068875.9, 67617.05, 0.009796201, 9.999979, 9.999625 
2.1850893e+3, 1.9402964e+2, -1066513.0, -1071958.5, -112301.43, -0.105584286, -0.08370627, -956901.3, 81604.47, 0.0020521113, 9.999824, 9.99973 
2.1851163e+3, 2.0402902e+2, -1015648.56, -1079585.5, -103870.42, -0.07646719, -0.082841694, -938938.4, 1573.0292, 0.00020967671, 9.999833, 9.999029 
2.1851428e+3, 2.1402965e+2, -777129.44, -884047.2, -113102.67, -0.07347544, 0.02750141, -705488.1, 137020.03, 0.00000086887735, 10.000716, 9.999247 
2.1851696e+3, 2.2402942e+2, -652203.2, -821369.1, -60265.68, -0.06278374, 0.10152279, -632929.4, 111582.63, 0.0, 10.001073, 9.998852 
2.1851973e+3, 2.3402788e+2, -582546.4, -708005.6, -61991.76, -0.051329855, 0.014785473, -557083.1, 89444.06, 0.0, 10.000819, 9.99904 
2.1852246e+3, 2.4402632e+2, -484073.0, -621990.25, -52625.766, -0.028080687, -0.044634458, -466286.25, 82254.516, 0.0, 10.000809, 9.999001 
2.185252e+3, 2.5402468e+2, -310168.44, -453254.63, -80628.48, -0.033210672, -0.1583619, -273918.38, 176634.44, 0.0, 10.001229, 9.999252 
2.1852793e+3, 2.6402402e+2, -266786.1, -571904.75, -83103.34, -0.017331721, -0.0818354, -245620.03, 106939.21, 0.0, 10.001622, 9.997613 
2.1853061e+3, 2.7402353e+2, -95352.28, -430284.56, -67444.914, -0.0043863086, 0.081389256, -82281.1, 172288.3, 0.0, 10.0021515, 9.997623 
2.185333e+3, 2.8402093e+2, 69177.68, -277613.6, -41912.42, 0.0039470433, 0.043520965, 74171.22, 230767.9, 0.0, 10.002434, 9.9979 
2.1853594e+3, 2.940166e+2, 158643.55, -157148.25, -85570.71, -0.03819557, -0.24561344, 180340.14, 238976.83, 0.000000027227998, 10.002305, 9.998078 
2.1853897e+3, 3.0401906e+2, 207938.89, -190607.95, 43679.523, 0.114757344, 0.21539716, 212669.88, 212669.88, 0.0000044959556, 10.00259, 9.997434 
2.1854195e+3, 3.1401488e+2, 325119.88, -11323.443, -40638.402, 0.06906239, -0.03229539, 329958.9, 329958.9, 0.000025056477, 10.002834, 9.998518 
2.1949494e+3, 1.4400095e+2, -1905471.1, -1679772.3, -286153.78, -0.035974454, 0.2569547, -1485019.8, 43771.527, 0.371045, 9.997121, 10.000345 
2.1949771e+3, 1.539994e+2, -1374900.9, -1269140.9, -4025.2866, -0.5271738, -0.06699187, -1268987.9, 161814.05, 0.22535217, 9.999626, 10.001503 
2.1950097e+3, 1.6400048e+2, -1436934.9, -1375596.5, -118364.99, 0.034778103, -0.07669705, -1283991.9, 48797.688, 0.113554515, 9.999147, 10.000049 
2.1950364e+3, 1.7400156e+2, -1291388.6, -1274013.4, -50964.633, -0.042807028, 0.019203238, -1231001.1, 3780.7969, 0.046104282, 9.999652, 9.999755 
2.1950616e+3, 1.8400158e+2, -1146217.8, -1194537.3, -102458.22, -0.24996072, 0.058761805, -1065109.4, 71674.23, 0.015073848, 10.000049, 9.999494 
2.1950893e+3, 1.9400124e+2, -1078285.3, -1083251.9, -113736.7, -0.13515772, 0.025284044, -967004.7, 71782.516, 0.004138987, 9.999772, 9.99968 
2.1951169e+3, 2.0400064e+2, -1029809.8, -1066838.0, -95735.49, -0.0376834, 0.021682814, -950814.6, -10021.408, 0.00072646124, 9.999656, 9.999199 
2.1951436e+3, 2.1399942e+2, -804548.9, -876910.5, -71162.2, -0.09020167, -0.07192094, -760897.94, 81907.21, 0.000022642807, 10.00045, 9.999415 
2.1951702e+3, 2.2399879e+2, -699796.8, -824938.2, -78369.38, -0.1475654, -0.058782265, -662083.6, 82727.125, 0.000000000011542125, 10.000662, 9.999023 
2.1951975e+3, 2.3399879e+2, -601990.75, -695165.7, -59010.805, -0.13035166, -0.01185814, -573394.0, 73415.13, 0.0, 10.000588, 9.999237 
2.195225e+3, 2.4399813e+2, -576203.0, -703909.25, -54927.797, -0.11492381, 0.022571055, -555828.5, -7013.365, 0.0, 10.000355, 9.998649 
2.1952532e+3, 2.53996e+2, -375683.63, -533033.3, -51747.06, -0.056130007, -0.102253415, -360191.13, 90645.625, 0.0, 10.000989, 9.998819 
2.1952805e+3, 2.639953e+2, -294755.75, -513534.6, -79905.48, -0.07742843, -0.03237528, -268679.56, 84165.55, 0.0, 10.001145, 9.998226 
2.1953069e+3, 2.7399623e+2, -87674.375, -332631.16, -31333.01, -0.18200041, 0.19052543, -83730.01, 171108.1, 0.0, 10.001826, 9.99843 
2.195334e+3, 2.839947e+2, -43870.082, -390099.25, -63537.477, -0.19393477, 0.2288867, -32578.404, 124276.31, 0.0, 10.001936, 9.9973545 
2.1953626e+3, 2.9398924e+2, 46184.8, -308516.8, -64282.074, 0.023607004, -0.09868555, 57475.17, 116382.8, 0.000000020729713, 10.001962, 9.997199 
2.1953925e+3, 3.0398765e+2, 79021.46, -266401.6, 51741.883, 0.09377315, 0.030061886, 86605.51, 86605.51, 0.0000055230016, 10.00182, 9.99725 
2.1954207e+3, 3.1398493e+2, 301273.7, 232443.69, -8314.039, -0.1549537, -0.11034474, 302263.7, 302263.7, 0.000029811183, 10.001676, 10.000698 
2.2049482e+3, 1.4396952e+2, -1580100.3, -1586156.0, -125882.89, 0.002383248, -0.09408096, -1457208.8, 71888.914, 0.39437363, 9.999777, 9.99973 
2.2049773e+3, 1.5397125e+2, -1517240.0, -1369429.5, 51290.977, -0.40286252, 0.019639716, -1353375.0, 77704.26, 0.24751917, 9.998789, 10.001051 
2.2050095e+3, 1.6397122e+2, -1329502.0, -1318101.0, -105779.78, 0.08238555, -0.09539289, -1217868.3, 115210.23, 0.13222682, 9.9998665, 10.000156 
2.2050357e+3, 1.7397164e+2, -1243662.0, -1290949.6, -65812.3, -0.06832893, -0.042289216, -1197375.3, 37699.426, 0.059555795, 10.00009, 9.999474 
2.2050618e+3, 1.8397155e+2, -1205284.6, -1235169.6, -108000.914, -0.21224855, 0.009997527, -1111197.4, 25879.385, 0.023171267, 9.999682, 9.999404 
2.2050893e+3, 1.9397183e+2, -1104275.0, -1101107.1, -148399.1, -0.072280206, 0.043098547, -954283.56, 84793.51, 0.008108057, 9.999613, 9.999659 
2.2051169e+3, 2.0397165e+2, -1014129.3, -1035904.06, -76370.734, 0.034177598, 0.07433698, -947873.8, -6793.907, 0.0021629941, 9.999658, 9.99942 
2.205144e+3, 2.1397033e+2, -821174.0, -864164.4, -68542.836, -0.04940895, -0.047487125, -770834.94, 72256.24, 0.00023583506, 10.000222, 9.999622 
2.2051711e+3, 2.2396947e+2, -704327.7, -793423.8, -73624.15, -0.097068146, -0.08037254, -662823.2, 82274.33, 0.0000019906881, 10.000483, 9.999333 
2.205198e+3, 2.3396955e+2, -598054.94, -662279.06, -83939.82, -0.10665156, -0.054635026, -540294.44, 106799.26, 0.0, 10.000469, 9.999537 
2.2052255e+3, 2.4396904e+2, -564742.1, -732250.5, -28628.746, -0.06891303, -0.0047574164, -559984.3, -10885.936, 0.0, 10.000566, 9.99836 
2.2052544e+3, 2.5396743e+2, -406349.38, -572669.56, -51152.223, -0.0200237, -0.04638316, -391876.75, 59240.547, 0.0, 10.000943, 9.998546 
2.2052823e+3, 2.6396653e+2, -252096.02, -470549.2, -61602.582, -0.028256228, 0.0078074858, -235921.95, 117206.11, 0.0, 10.001327, 9.998443 
2.2053088e+3, 2.7396625e+2, -64450.566, -305131.72, -73514.27, -0.15495047, 0.08889807, -43772.69, 211357.88, 0.0, 10.001871, 9.998618 
2.2053364e+3, 2.8396502e+2, 1374.8411, -353054.22, -92681.79, -0.12201527, 0.14278218, 24147.572, 181290.33, 0.0, 10.002179, 9.997492 
2.2053654e+3, 2.9396102e+2, 133690.8, -248540.86, -96951.66, 0.10290497, -0.036062986, 156875.89, 216058.61, 0.00000007580395, 10.002492, 9.997358 
2.2053945e+3, 3.0395818e+2, 183011.81, -235336.72, 112938.555, 0.11861158, -0.0482375, 211553.75, 211553.75, 0.0000083740215, 10.002567, 9.997133 
2.2054243e+3, 3.1395635e+2, 407340.84, 317782.28, -99824.16, 0.06269128, -0.050229568, 471969.25, 471969.25, 0.000042885644, 10.002196, 10.00104 
2.2149502e+3, 1.4393987e+2, -1626762.5, -1702580.5, -138411.2, 0.111054555, -0.42573068, -1521162.8, 8221.081, 0.4221777, 9.999771, 9.998803 
2.2149807e+3, 1.5394343e+2, -1606134.5, -1522933.0, 131592.0, 0.024279984, 0.09722816, -1426522.6, 4828.3906, 0.27423543, 9.9987545, 9.999869 
2.2150075e+3, 1.6394076e+2, -1315888.5, -1334255.3, -98793.52, -0.18714342, -0.19886963, -1225852.5, 107525.23, 0.15564767, 10.000082, 9.999933 
2.2150342e+3, 1.7394103e+2, -1252325.9, -1312389.5, -60680.707, -0.28021428, -0.1542273, -1214652.0, 20720.908, 0.07778218, 10.000112, 9.999304 
2.2150622e+3, 1.8394116e+2, -1210757.5, -1257156.0, -132656.4, -0.16968997, -0.061088216, -1099287.0, 38085.367, 0.035576556, 9.999727, 9.999236 
2.2150896e+3, 1.9394137e+2, -1127725.5, -1119935.0, -140599.67, -0.050873015, -0.022007838, -983176.6, 56198.848, 0.0154146915, 9.999494, 9.999581 
2.2151162e+3, 2.0394188e+2, -1022578.44, -1012674.94, -66406.85, -0.05775032, 0.06701152, -951035.5, -9662.375, 0.005714695, 9.999475, 9.999667 
2.215144e+3, 2.1394221e+2, -834405.1, -840444.06, -34427.555, -0.10304602, 0.0828897, -802864.9, 40503.3, 0.0013616167, 10.000001, 9.999889 
2.2151715e+3, 2.2394165e+2, -751983.5, -791446.4, -87393.31, -0.13203627, 0.057130862, -682121.9, 63249.023, 0.00013056793, 10.0000515, 9.999554 
2.2151984e+3, 2.3393996e+2, -613258.25, -637298.56, -71481.984, -0.123174235, -0.12417506, -552792.8, 94590.16, 0.0000045921656, 10.000221, 9.999828 
2.2152263e+3, 2.4393894e+2, -654930.9, -807684.06, -38078.41, -0.10920254, -0.125523, -645964.94, -96573.18, 0.000000030624218, 10.000109, 9.998051 
2.2152552e+3, 2.539387e+2, -468962.84, -637951.94, -25356.36, -0.061523862, -0.0005326347, -465240.2, -13842.843, 0.0, 10.000681, 9.998215 
2.2152835e+3, 2.6393718e+2, -336172.66, -536248.7, -61768.734, -0.07018889, 0.024843436, -318639.47, 34773.773, 0.0, 10.000883, 9.998196 
2.2153115e+3, 2.7393374e+2, -130364.29, -357183.75, -41468.004, -0.09029774, -0.19588585, -123020.71, 132424.06, 0.0, 10.001528, 9.998413 
2.2153398e+3, 2.8393224e+2, -64668.773, -343833.72, -101013.46, -0.05917636, -0.17427462, -31952.129, 125506.67, 0.0, 10.001577, 9.997829 
2.2153674e+3, 2.939316e+2, 123195.07, -183606.11, -62525.24, 0.028803999, -0.07194052, 135448.17, 194914.25, 0.00000027397763, 10.002141, 9.997959 
2.2153956e+3, 3.0392998e+2, 92494.08, -269310.03, 80861.164, -0.12046977, -0.013022519, 109743.69, 109743.69, 0.000015050563, 10.001954, 9.997166 
2.2154275e+3, 3.1392735e+2, 92656.06, -64950.418, 56942.74, 0.07999879, -0.08805512, 111076.414, 111076.414, 0.00007034586, 10.0011015, 9.998906 
2.2249392e+3, 1.4391391e+2, -1995102.4, -1374520.9, 28021.705, -0.74140984, 0.11846841, -1373258.1, 156374.67, 0.45833316, 9.994441, 10.004443 
2.2249824e+3, 1.5391374e+2, -1427691.9, -1573058.5, 123662.984, 0.24528238, 0.004941435, -1356933.9, 74708.56, 0.30885017, 10.000765, 9.9985695 
2.2250064e+3, 1.6391246e+2, -1208163.8, -1299476.1, -96115.01, -0.3299127, -0.048780724, -1147412.4, 186245.97, 0.18666483, 10.001026, 9.999741 
2.2250344e+3, 1.7391223e+2, -1186667.1, -1208231.3, -73889.555, -0.2638972, -0.106751844, -1122777.1, 112879.28, 0.103338934, 10.000302, 9.999951 
2.2250633e+3, 1.8391232e+2, -1228899.3, -1257732.4, -66661.49, -0.016608711, -0.06171414, -1175113.3, -37458.742, 0.054786276, 9.999542, 9.999328 
2.2250889e+3, 1.9391234e+2, -1041378.4, -1079114.8, -82533.53, -0.07445469, -0.045245398, -975583.75, 64074.926, 0.028543482, 10.000068, 9.999584 
2.225115e+3, 2.0391257e+2, -927567.1, -967661.44, 7797.7783, -0.13309877, 0.012321283, -926103.94, 15554.471, 0.013685946, 10.000133, 9.99966 
2.225144e+3, 2.1391295e+2, -887834.75, -868325.06, -14125.8125, -0.07481906, 0.037383404, -860913.2, -17260.26, 0.005262215, 9.999652, 9.999871 
2.2251724e+3, 2.2391249e+2, -799466.8, -866450.94, -42420.813, -0.02968698, 0.042041935, -778910.4, -33254.69, 0.001420654, 9.999916, 9.999114 
2.2251995e+3, 2.3391084e+2, -482756.25, -626453.0, -97536.28, -0.0896325, -0.08748088, -433462.06, 214207.55, 0.0002619265, 10.001313, 9.999388 
2.2252274e+3, 2.439096e+2, -373884.44, -683732.56, -80265.97, -0.08645701, -0.0797815, -354326.16, 195355.34, 0.000035642544, 10.002081, 9.997959 
2.2252569e+3, 2.5390887e+2, -245087.39, -536444.7, -69778.9, -0.021800753, 0.0003225932, -229237.83, 222452.81, 0.0000011567587, 10.002197, 9.998208 
2.2252852e+3, 2.639071e+2, -201015.34, -467597.16, -78496.81, -0.00018541017, 0.0024319482, -179618.78, 174089.53, 0.0, 10.001781, 9.998247 
2.225313e+3, 2.73904e+2, -201913.36, -373988.8, -82150.93, -0.066574685, -0.18866552, -168991.98, 86745.21, 0.0, 10.000995, 9.998554 
2.2253413e+3, 2.839028e+2, -127829.305, -337601.5, -65540.4, -0.020820154, -0.1587093, -109035.83, 48712.223, 0.0, 10.000963, 9.998188 
2.2253704e+3, 2.939022e+2, 222691.11, -93795.78, -64699.477, 0.08975134, -0.075605646, 235406.75, 295161.7, 0.00000073017384, 10.002653, 9.998328 
2.2253995e+3, 3.0390173e+2, 324948.97, -159195.1, 27724.803, 0.02690877, 0.05864311, 326531.47, 326531.47, 0.00002755439, 10.003531, 9.997189 
2.2254285e+3, 3.1389716e+2, 286379.8, -22830.213, -126213.85, -0.0043182652, -0.13459362, 331356.0, 331356.0, 0.000118261974, 10.002585, 9.998532 
2.234982e+3, 1.5388298e+2, -1567969.6, -1818105.8, 122038.42, 0.06942559, -0.15906228, -1518293.9, -86348.03, 0.35698506, 10.000464, 9.996923 
2.2350061e+3, 1.6388549e+2, -1241918.9, -1363066.8, -128812.28, -0.56130433, 0.27876356, -1160148.9, 173780.17, 0.23053116, 10.001038, 9.999317 
2.2350362e+3, 1.7388493e+2, -1115882.6, -1040613.9, -94819.305, -0.1586592, 0.07778562, -976233.3, 259694.81, 0.14104874, 10.00021, 10.001323 
2.2350639e+3, 1.8388495e+2, -1207841.5, -1207311.9, -72339.02, 0.024448926, 0.0025181496, -1135237.3, 2686.9458, 0.08532412, 9.999516, 9.999686 
2.2350872e+3, 1.9388461e+2, -1053297.6, -1075246.6, -55222.15, -0.2785964, -0.024351815, -1007970.0, 31957.732, 0.05187056, 9.999944, 9.999673 
2.2351131e+3, 2.0388383e+2, -985029.9, -1032802.6, -22006.154, -0.39502934, -0.056011707, -976438.1, -34503.098, 0.030293982, 9.9999, 9.999324 
2.2351435e+3, 2.1388243e+2, -937283.2, -922561.44, -24523.21, -0.101995446, -0.18026072, -904318.2, -60371.09, 0.015773455, 9.999441, 9.9996 
2.2351731e+3, 2.2388181e+2, -935937.7, -1044272.5, -9741.934, 0.00708234, -0.1302504, -935068.6, -189114.86, 0.0069356123, 9.999477, 9.998094 
2.2352004e+3, 2.3388213e+2, -594801.44, -799727.7, -28635.662, -0.16037779, 0.03728173, -590875.2, 57079.223, 0.002541045, 10.00106, 9.998311 
2.2352286e+3, 2.4388103e+2, -454103.84, -728832.6, -87790.86, -0.22190642, 0.12782978, -428446.1, 121521.18, 0.00075579167, 10.001576, 9.997882 
2.235259e+3, 2.5387806e+2, -279299.6, -523612.56, -51493.797, -0.05457905, -0.044046316, -268889.78, 183106.05, 0.00014769337, 10.0018425, 9.998459 
2.2352868e+3, 2.6387632e+2, -291429.94, -509323.47, -131354.13, -0.0504268, -0.05402485, -229721.2, 124291.76, 0.000007045108, 10.0011835, 9.998231 
2.2353125e+3, 2.7387643e+2, -235615.95, -377163.22, -99728.52, -0.22956493, 0.06420691, -184100.23, 71912.195, 0.00000000065814787, 10.000718, 9.998651 
2.2353406e+3, 2.8387582e+2, -200476.53, -352982.7, -47315.92, -0.23228507, 0.1300007, -186989.27, -28970.6, 0.0, 10.000428, 9.998316 
2.2353731e+3, 2.9387262e+2, 128702.26, -145174.7, 17600.572, 0.073034294, -0.06774936, 129828.72, 189878.5, 0.0000012574419, 10.002077, 9.998226 
2.235405e+3, 3.0387253e+2, 110081.55, -362182.16, -21412.574, 0.19138362, 0.16251527, 111050.414, 111050.414, 0.000044073433, 10.0025425, 9.996246 
2.235428e+3, 3.138687e+2, 131264.83, -24767.355, -65540.555, -0.35152948, 0.11074914, 155141.2, 155141.2, 0.00018419352, 10.001319, 9.999092 
2.2449824e+3, 1.5385196e+2, -1663308.1, -1429549.0, 29980.613, 0.1560928, -0.108595915, -1425765.0, 6484.1533, 0.42759266, 9.997897, 10.000722 
2.2450078e+3, 1.6385666e+2, -1212583.1, -1277712.8, -10823.293, -0.4480823, 0.24832581, -1210831.6, 123379.43, 0.29616648, 10.00101, 9.999991 
2.2450364e+3, 1.7385626e+2, -1169918.0, -1117627.6, -117215.445, -0.11551964, 0.095524095, -1023676.9, 212534.52, 0.19952731, 10.000065, 10.000875 
2.2450632e+3, 1.8385614e+2, -1218108.4, -1169546.3, -114055.75, 0.051150877, 0.016737029, -1077215.6, 60993.875, 0.13536815, 9.999274, 10.000089 
2.2450876e+3, 1.9385639e+2, -1022263.4, -1006694.6, -89152.484, -0.20838763, -0.0059047407, -924987.3, 115217.55, 0.09319166, 9.999925, 10.000205 
2.2451143e+3, 2.0385581e+2, -924781.56, -1076051.9, -30241.244, -0.2689415, -0.019125769, -918959.94, 23248.902, 0.06306426, 10.000582, 9.998733 
2.2451448e+3, 2.1385366e+2, -720977.4, -906431.56, -96374.4, -0.0062673776, -0.13498247, -679964.6, 164264.89, 0.0400799, 10.001325, 9.998834 
2.245174e+3, 2.2385226e+2, -630301.2, -913970.3, -38898.77, 0.08473944, -0.10554847, -625063.8, 121180.46, 0.023131557, 10.00164, 9.997968 
2.2452019e+3, 2.338523e+2, -579238.25, -789097.56, -21529.398, -0.10595641, 0.032699183, -577052.3, 71195.375, 0.011994159, 10.001155, 9.998347 
2.2452302e+3, 2.4385108e+2, -537392.94, -763505.9, -23067.666, -0.1465492, 0.108884424, -535063.6, 15197.572, 0.0054928027, 10.000909, 9.997997 
2.2452605e+3, 2.538484e+2, -409550.53, -562994.44, -15969.362, -0.014665374, -0.049478855, -407906.16, 44379.313, 0.002050329, 10.000822, 9.998696 
2.2452886e+3, 2.638469e+2, -349559.22, -575773.1, -71577.36, 0.02874956, -0.026987553, -328813.66, 25486.643, 0.0004876709, 10.000928, 9.99791 
2.2453152e+3, 2.7384707e+2, 10124.204, -284938.38, -76548.055, -0.09351113, 0.12770006, 28800.875, 285102.3, 0.000047167257, 10.002503, 9.998439 
2.2453433e+3, 2.8384632e+2, 116736.195, -214178.45, -43398.508, -0.08315156, 0.18809359, 122333.12, 280643.56, 0.00000034188096, 10.002645, 9.998215 
2.245375e+3, 2.938424e+2, 101571.64, -203415.14, -44409.555, 0.061701294, -0.034393895, 107906.59, 168255.03, 0.0000013302117, 10.00203, 9.997881 
2.245407e+3, 3.0384168e+2, -3545.3586, -396503.44, -22783.656, 0.1948613, 0.124027245, -2228.7764, -2228.7764, 0.0000584347, 10.00161, 9.99647 
2.245431e+3, 3.1383932e+2, 254867.55, 211558.66, -127153.97, -0.1802577, 0.22796355, 362197.78, 362197.78, 0.00025945, 10.001288, 10.00074 
2.255011e+3, 1.6382708e+2, -1230836.5, -1223279.0, -27220.256, -0.34577075, -0.0173278, -1199576.4, 134917.31, 0.39765337, 10.000554, 10.000898 
2.2550353e+3, 1.7382604e+2, -1323597.4, -1423982.8, -184237.06, -0.28242564, -0.056975305, -1182838.3, 53669.586, 0.29298013, 10.000044, 9.9986 
2.2550616e+3, 1.8382558e+2, -1261304.1, -1186776.4, -143196.44, -0.16088364, -0.04084139, -1076074.8, 62438.805, 0.21888196, 9.998975, 10.000133 
2.2550899e+3, 1.9382717e+2, -1006256.5, -917269.9, -58762.824, -0.027766345, -0.018194726, -888056.1, 152438.66, 0.16615056, 9.999633, 10.0010605 
2.2551182e+3, 2.0382822e+2, -1040940.4, -1235778.4, -14425.608, 0.005455883, 0.10140391, -1039878.06, -97394.99, 0.12546477, 10.00023, 9.997782 
2.255147e+3, 2.1382636e+2, -847016.25, -1114027.4, -58311.734, 0.039389502, 0.13240424, -834837.25, 9665.422, 0.0914258, 10.001069, 9.997501 
2.2551753e+3, 2.2382383e+2, -682450.0, -902281.7, -61458.273, -0.014271369, 0.11008952, -666434.9, 80092.53, 0.062582165, 10.001146, 9.998286 
2.2552039e+3, 2.3382126e+2, -560373.0, -684068.6, -27458.475, -0.05529937, -0.09627428, -554551.6, 93999.22, 0.039919913, 10.000885, 9.9992 
2.2552319e+3, 2.4381961e+2, -637264.94, -791723.25, -51785.785, -0.095672324, -0.11399891, -621509.6, -70944.69, 0.023601582, 10.000172, 9.998141 
2.255261e+3, 2.5381973e+2, -449575.0, -549694.25, -13903.542, -0.06401035, -0.026206084, -447680.06, 4881.237, 0.012405956, 10.000437, 9.998953 
2.2552896e+3, 2.6381856e+2, -502300.34, -741739.06, -60915.363, 0.007005752, 0.06864921, -487693.94, -133120.5, 0.005154125, 10.000315, 9.997051 
2.2553203e+3, 2.7381605e+2, -107126.96, -393720.75, -5904.38, 0.13293247, -0.0068324856, -107005.375, 149598.38, 0.0013586987, 10.00196, 9.997934 
2.2553484e+3, 2.8381437e+2, -71303.22, -400365.66, -104101.875, 0.120570876, 0.025686702, -41135.38, 117488.02, 0.00015517221, 10.001815, 9.997312 
2.2553755e+3, 2.938119e+2, -24751.895, -333845.63, -39881.332, -0.11047744, 0.038237777, -19689.066, 40958.586, 0.0000026982873, 10.001542, 9.997177 
2.2554043e+3, 3.0380952e+2, -55744.633, -321863.5, -59243.53, -0.29392448, 0.00927409, -43151.707, -43151.707, 0.000065484004, 10.000888, 9.997303 
2.255433e+3, 3.1380597e+2, 220240.22, 419244.78, 71931.85, -0.16325003, -0.0907632, 442522.38, 442522.38, 0.00034262822, 10.000173, 10.002684 
2.2650379e+3, 1.7380045e+2, -1203233.8, -1636469.0, -6112.924, -0.123120554, -0.117468834, -1203147.6, 33600.547, 0.44342524, 10.001439, 9.996591 
2.2650598e+3, 1.8380173e+2, -1156503.0, -1537487.4, 191608.36, -0.3764127, 0.06929827, -1076808.1, 61936.004, 0.3585124, 10.001446, 9.99654 
2.2650889e+3, 1.9379893e+2, -1145566.3, -1356343.4, -100812.51, -0.118312694, 0.06075589, -1105112.8, -64340.535, 0.29413474, 10.0003195, 9.997488 
2.2651175e+3, 2.0379639e+2, -1001796.2, -1183478.5, -127287.28, -0.09333813, -0.004641039, -936259.06, 6538.754, 0.24160613, 10.0002165, 9.998214 
2.2651438e+3, 2.137945e+2, -776917.44, -987223.44, -45865.88, -0.38084787, -0.044256777, -767349.75, 77466.29, 0.1940874, 10.00121, 9.998357 
2.2651729e+3, 2.2379299e+2, -502532.7, -799173.06, 30824.416, -0.41406697, -0.02275619, -499363.53, 247467.03, 0.14888066, 10.0025835, 9.998333 
2.2652048e+3, 2.3379226e+2, -300896.22, -583864.4, -46212.613, -0.12823384, 0.004099703, -293540.28, 355296.4, 0.108788945, 10.00308, 9.998899 
2.2652346e+3, 2.4379075e+2, -282321.63, -617213.9, -118806.164, 0.032184687, 0.027367573, -244455.52, 306394.4, 0.07581198, 10.00269, 9.998172 
2.2652622e+3, 2.5378907e+2, -318533.84, -487153.25, -132482.2, -0.013077505, -0.07375867, -245809.6, 207053.38, 0.048806984, 10.001272, 9.999071 
2.2652896e+3, 2.6378706e+2, -438524.1, -707144.9, -69050.44, -0.033709865, -0.06852749, -421813.8, -66931.086, 0.026684597, 10.000632, 9.997181 
2.265321e+3, 2.737851e+2, -35328.27, -353588.75, 14474.248, 0.01765616, -0.08805366, -34671.348, 222234.81, 0.010897145, 10.00234, 9.99808 
2.2653496e+3, 2.8378388e+2, -36030.297, -361839.16, -84898.9, 0.081240125, -0.022796081, -15234.766, 143686.3, 0.002788968, 10.001914, 9.997563 
2.2653787e+3, 2.9378244e+2, 245322.6, -152853.72, 77478.086, -0.011974242, 0.06865462, 259867.17, 320802.22, 0.0003034348, 10.0032, 9.997635 
2.2654073e+3, 3.0377945e+2, 252748.19, -217352.48, 41822.07, -0.19851281, -0.072100766, 256439.86, 256439.86, 0.000074942734, 10.003238, 9.996912 
2.2654353e+3, 3.137753e+2, 196741.13, 157759.22, -36724.496, -0.00039623538, 0.00086327223, 218826.44, 218826.44, 0.00045627946, 10.000932, 10.00064 
2.275118e+3, 2.0376389e+2, -846134.4, -1092598.6, 8937.834, -0.14297758, 0.07040029, -845810.7, 97307.164, 0.4526298, 10.001964, 9.997925 
2.2751473e+3, 2.137631e+2, -780765.5, -735863.4, -51616.574, -0.18759023, -0.144374, -702026.6, 143094.22, 0.38963944, 10.000058, 10.001005 
2.2751804e+3, 2.237643e+2, -1264173.5, -1298437.1, -188067.13, 0.015198923, -0.008170152, -1092459.5, -345350.84, 0.32267725, 9.997586, 9.997251 
2.2752102e+3, 2.3376542e+2, -888625.7, -1034978.2, -91139.22, 0.061674666, 0.3131646, -844921.2, -195817.08, 0.25840095, 9.999473, 9.997408 
2.2752377e+3, 2.4376291e+2, -580067.06, -910305.1, -158418.33, -0.027830733, 0.38909692, -516361.56, 34769.223, 0.20062341, 10.001192, 9.996838 
2.2752641e+3, 2.537562e+2, -470994.84, -565661.1, -158270.81, -0.0022652387, -0.2523906, -353130.9, 100060.72, 0.14660953, 10.000308, 9.998966 
2.2752881e+3, 2.6375285e+2, -725192.3, -861129.94, -66594.62, -0.30479845, -0.37566653, -698005.44, -342783.5, 0.09444842, 9.998782, 9.996968 
2.2753184e+3, 2.7375513e+2, -95744.734, -305984.8, 80541.75, -0.539069, -0.06953977, -68436.695, 188764.31, 0.04983968, 10.001693, 9.998674 
2.2753471e+3, 2.8375533e+2, -170597.47, -359729.6, -164669.47, -0.41847032, 0.09072467, -75272.055, 83927.016, 0.019500945, 10.0007715, 9.998095 
2.2753829e+3, 2.9375383e+2, 207449.36, -31382.438, 135633.7, 0.06414697, 0.010954699, 268745.0, 329957.63, 0.004786881, 10.002411, 9.998812 
2.2754128e+3, 3.0375093e+2, -110557.7, -634090.2, -102652.24, 0.00046976053, -0.12892558, -91149.53, -91149.53, 0.0007184054, 10.0019045, 9.994636 
2.275435e+3, 3.1374812e+2, -519949.63, -859993.44, 10000.431, -0.18253845, 0.36546028, -519655.75, -519655.75, 0.0007782504, 9.999148, 9.994398 
2.285241e+3, 2.4372837e+2, -288073.1, -160616.61, 102160.76, 0.068917744, -0.35049573, -103936.766, 447526.9, 0.45869297, 10.000054, 10.005403 
2.2852571e+3, 2.5373054e+2, -1119377.0, -950129.7, -227857.55, -0.5210034, 0.1587983, -791689.1, -338246.44, 0.36361384, 9.995999, 9.998513 
2.2852969e+3, 2.637321e+2, -746885.6, -710565.25, 159323.78, 0.6846635, 0.47867963, -568370.06, -212943.14, 0.26167566, 9.99766, 9.99864 
2.2853284e+3, 2.737304e+2, 222562.17, -58008.15, 304136.0, 0.22050424, 0.30723274, 417207.78, 674649.3, 0.1640845, 10.003918, 9.999695 
2.2853518e+3, 2.837265e+2, 218760.48, -219711.1, -72571.0, -0.1481141, 0.059493497, 230459.5, 389938.88, 0.0825175, 10.003796, 9.997672 
2.2853857e+3, 2.937251e+2, 495874.97, 58882.086, 209175.77, 0.009101075, 0.04485953, 579860.25, 641355.44, 0.030766634, 10.004514, 9.998553 
2.2854179e+3, 3.037249e+2, 491478.78, 71545.4, -83670.375, 0.23466834, 0.039920036, 507535.84, 507535.84, 0.009050476, 10.004054, 9.998547 
2.285434e+3, 3.1372297e+2, -192196.78, -94603.98, 98719.94, -0.18772514, 0.22828388, -33279.016, -33279.016, 0.003967307, 9.998716, 9.999852 
2.295326e+3, 2.7369633e+2, -576665.0, -319887.7, -713703.1, -0.43426105, -0.35894096, 276882.78, 534655.25, 0.43463713, 9.997825, 10.002029 
2.2953613e+3, 2.8369507e+2, -1275719.4, -1558936.1, -451949.1, 0.3190545, -0.36532936, -943713.0, -783928.7, 0.25419968, 9.9960165, 9.992122 
2.295387e+3, 2.9369998e+2, 120279.586, -311914.1, 339474.75, -0.39582467, 0.20980485, 306601.63, 368347.03, 0.12185034, 10.003078, 9.996586 
2.2954224e+3, 3.0370516e+2, -257141.22, 30687.48, -250344.4, 0.09827859, 0.7593523, 175535.42, 175535.42, 0.05422057, 9.997692, 10.00123 
2.2954343e+3, 3.1369865e+2, 225898.0, 1541556.8, -349406.06, -0.22054107, -0.835919, 1628592.5, 1628592.5, 0.031926688, 9.995623, 10.012716 
2.3053896e+3, 2.9368144e+2, -264245.0, 432737.13, -407311.8, -0.5582202, 0.40704465, 620295.44, 682220.1, 0.36320078, 9.994669, 10.008522 
2.3054393e+3, 3.036783e+2, 35472.215, -203470.4, 484135.88, 1.1005932, -0.93743134, 414660.03, 414660.03, 0.2180377, 10.001228, 9.998344 
2.3054336e+3, 3.1368774e+2, -119823.77, -1626732.0, 164740.92, -0.58653307, 0.8960047, -102023.92, -102023.92, 0.1714048, 10.005058, 9.987103 
2.3443745e+3, 2.887183e+2, -554777.56, -115841.96, -775266.2, -0.15876098, 0.8316109, 470422.03, 581035.8, 0.4756192, 9.996282, 10.003186 
2.3577203e+3, 1.7906737e+2, -657375.4, -408545.28, 185563.05, -0.64071614, -0.8408529, -309548.72, 875619.8, 0.43657976, 10.001619, 10.008062 
2.3574243e+3, 1.890734e+2, -937954.1, -1268639.4, -72847.16, -0.37507716, 0.1754163, -922617.8, 164493.95, 0.3777243, 10.002635, 9.996801 
2.3571247e+3, 1.9907491e+2, -481428.72, -1126558.0, 529812.94, 0.29475704, 0.9354456, -183711.39, 805391.6, 0.33363226, 10.006841, 9.99585 
2.3568149e+3, 2.0905787e+2, -296726.88, -604545.56, 160789.97, -0.52098686, -0.07136971, -228057.03, 663208.5, 0.30109635, 10.005513, 9.999416 
2.3565191e+3, 2.1905318e+2, -954122.06, -974360.5, -149076.11, 0.26633805, -0.19290788, -814822.1, -21518.07, 0.27833784, 9.998397, 9.999152 
2.3562102e+3, 2.2905694e+2, -419859.3, -639380.25, -261413.39, -0.057731666, 0.6498914, -246098.5, 449172.0, 0.26131082, 10.002229, 9.999194 
2.3559e+3, 2.3904903e+2, -1549421.1, -1055507.9, -153771.77, -0.63838327, 0.17402837, -1011546.44, -414192.72, 0.24582496, 9.992425, 10.000203 
2.355607e+3, 2.4904773e+2, -794336.94, -352781.16, 57799.555, 0.31375816, 0.28716677, -345340.6, 154024.25, 0.2302187, 9.9958935, 10.002782 
2.3553038e+3, 2.5904503e+2, -1034164.3, -756288.5, -136025.0, 0.044941433, 0.16507883, -700787.4, -299398.5, 0.21018532, 9.994889, 9.999692 
2.354994e+3, 2.6904017e+2, 185805.2, -195340.64, -147485.83, -0.066192016, 0.17739159, 236209.69, 539653.4, 0.17674802, 10.003883, 9.998726 
2.3546968e+3, 2.790304e+2, 45576.074, -1168709.5, 336588.75, 0.27547106, 0.07002344, 132633.8, 338180.78, 0.13579474, 10.00607, 9.99022 
2.3543788e+3, 2.8902486e+2, 1082321.0, 483612.22, 40411.926, -0.42109716, 0.43465847, 1085036.4, 1192630.9, 0.12677544, 10.008662, 10.000156 
2.3540701e+3, 2.990298e+2, -685806.75, -185533.6, 592622.9, -1.251758, 0.76379085, 207579.53, 217117.17, 0.18566068, 9.994315, 10.001913 
2.3537914e+3, 3.0902523e+2, 354133.84, -274811.6, -774253.06, 1.156245, 1.1004095, 875341.0, 875341.0, 0.3098818, 10.00694, 9.995788 
2.3683017e+3, 1.5938781e+2, -587524.9, 20161.51, -404821.16, -0.74875593, 0.39835966, 222481.17, 1600519.6, 0.4091793, 10.0007925, 10.015501 
2.3680176e+3, 1.6939111e+2, -1203173.4, -1660331.3, 96865.56, 0.5946776, 1.007682, -1183495.9, 96497.45, 0.31914386, 10.002269, 9.995766 
2.367727e+3, 1.793893e+2, -1897546.5, -1798910.9, 209697.88, 0.6138678, 1.5480552, -1632809.5, -450800.84, 0.25440213, 9.995602, 9.997507 
2.3674244e+3, 1.8937907e+2, -1170387.3, -694961.7, -50591.98, 0.24248743, 0.8137946, -689637.56, 394476.94, 0.20803183, 9.996755, 10.004424 
2.3671192e+3, 1.9937098e+2, -945905.56, -886762.1, -224871.22, -0.06983888, 0.01697432, -689526.56, 296672.47, 0.17323136, 9.999384, 10.000843 
2.366813e+3, 2.0936717e+2, -1075699.1, -1259783.3, -101499.914, -0.3634823, 0.2574898, -1030723.06, -142488.34, 0.14628568, 9.999436, 9.997246 
2.3665096e+3, 2.1936409e+2, -905565.9, -1016804.75, 2639.696, -0.19020204, 0.60833156, -905503.25, -115240.07, 0.12553912, 9.999278, 9.99841 
2.3662058e+3, 2.2935934e+2, -384079.16, -402216.7, 6502.1465, 0.038974654, 0.5664207, -381989.06, 310325.72, 0.108313076, 10.001112, 10.001239 
2.3658986e+3, 2.3935214e+2, -166964.81, -330393.03, 12819.167, -0.025179667, 0.18547598, -165965.39, 428425.28, 0.092006706, 10.002272, 10.000511 
2.3655947e+3, 2.4935192e+2, 22487.246, 126214.71, 82728.72, -0.15200827, 0.39673224, 171992.61, 668382.3, 0.07587349, 10.001622, 10.00342 
2.365297e+3, 2.593521e+2, -336936.8, -531554.6, 102721.93, 0.014270461, 0.6972678, -292750.78, 105633.336, 0.059167173, 10.000624, 9.998365 
2.3649938e+3, 2.6935056e+2, 5058.3945, 14451.595, -38630.71, 0.09754919, 1.009844, 48670.156, 349070.66, 0.040480368, 10.001033, 10.00122 
2.3646943e+3, 2.793465e+2, -431153.75, -633101.8, 129247.62, 0.07688115, 0.99508834, -368113.44, -165671.6, 0.022792675, 9.999553, 9.996701 
2.3643796e+3, 2.8933084e+2, -39154.203, -254934.34, -283182.88, -0.39801198, 0.11015938, 155995.02, 260580.45, 0.018047795, 10.001196, 9.997699 
2.3640674e+3, 2.9931656e+2, -429888.97, -511005.97, 235484.78, -0.7987729, -1.0286133, -231495.44, -224779.38, 0.038619705, 9.998368, 9.997101 
2.363783e+3, 3.093161e+2, -65417.34, -191786.0, 39635.16, 0.44964027, -0.29558185, -54014.77, -54014.77, 0.08553234, 10.000619, 9.998041 
2.378612e+3, 1.4967914e+2, -2835494.3, -2046905.5, 163195.7, -0.36947218, 0.30586544, -2014467.0, -541275.7, 0.38968346, 9.989979, 10.000291 
2.3783094e+3, 1.596745e+2, -1232029.9, -1247631.9, -314794.97, 0.16249365, 0.033897817, -924939.25, 450289.3, 0.27836236, 10.000728, 10.000698 
2.3780096e+3, 1.6967125e+2, -1021396.4, -657064.0, 11300.621, 0.01571759, -0.2293073, -656713.8, 620533.1, 0.19862524, 9.999263, 10.00509 
2.3777105e+3, 1.7967106e+2, -1782981.5, -1319654.1, 90615.0, -0.31433812, -0.38123754, -1302562.6, -123324.125, 0.1461588, 9.994793, 10.001113 
2.3774126e+3, 1.8967386e+2, -1603940.1, -1311501.3, 46165.816, -0.28617805, 0.33960986, -1304386.4, -223159.77, 0.11113541, 9.996079, 9.999762 
2.377115e+3, 1.9967434e+2, -1298566.5, -1067513.0, -162662.3, -0.07291545, 0.722807, -983526.75, -288.4063, 0.08556882, 9.997065, 10.000445 
2.3768122e+3, 2.0967074e+2, -907329.75, -517207.2, -105314.67, 0.0034444598, 0.5355816, -490592.84, 394672.4, 0.065839775, 9.997801, 10.003243 
2.3765056e+3, 2.1966593e+2, -1141774.4, -943777.6, 21300.406, -0.20516557, 0.17625703, -941512.06, -154210.06, 0.050802168, 9.997016, 9.99996 
2.3762004e+3, 2.296636e+2, -779575.56, -695788.56, 29313.994, -0.24989033, 0.3988849, -686551.06, 2779.33, 0.03888462, 9.998885, 9.999972 
2.3758985e+3, 2.3966077e+2, -695519.5, -787773.06, 1616.612, -0.019092564, 0.5706635, -695491.2, -104126.77, 0.028499532, 9.999461, 9.99851 
2.3755942e+3, 2.4965526e+2, -228749.02, -142343.67, 306.26892, -0.07421576, 0.38646033, -142342.6, 351068.97, 0.019239584, 10.00057, 10.00168 
2.3752928e+3, 2.5964835e+2, -624804.7, -715127.3, 30946.977, -0.15406996, 0.061095696, -615218.75, -219747.27, 0.01143259, 9.999, 9.997827 
2.3749912e+3, 2.696453e+2, -194096.88, -183558.48, -142036.2, 0.10789682, 0.25771043, -46693.76, 250808.47, 0.005417436, 10.000288, 10.000048 
2.3746914e+3, 2.7964172e+2, -576299.5, -620455.9, -66601.234, 0.2083744, 0.29945347, -528212.4, -328673.06, 0.0017240121, 9.998298, 9.997391 
2.3743804e+3, 2.8963476e+2, 57999.336, -76698.47, -336459.94, -0.07238644, 0.23039399, 333784.75, 435388.7, 0.0009965353, 10.00129, 9.998908 
2.3740749e+3, 2.9963237e+2, -128692.555, -344100.75, 126008.195, -0.06051946, 0.24543263, -70631.05, -67007.53, 0.0037784507, 10.000306, 9.997386 
2.37378e+3, 3.09622e+2, 488358.63, 108774.59, 291638.38, -0.27203512, 0.116352156, 646523.44, 646523.44, 0.011109915, 10.004245, 9.998507 
2.3889148e+3, 1.3999437e+2, -1534013.3, -1510440.8, 39067.18, -0.021889549, 0.9966246, -1481420.6, 86661.32, 0.427829, 9.999738, 10.000123 
2.3886131e+3, 1.4998591e+2, -1467483.8, -1681115.0, -249067.53, 0.32522514, 0.71302545, -1303293.4, 166880.64, 0.29985446, 10.000936, 9.997781 
2.3883057e+3, 1.5997738e+2, -1224233.8, -1349346.4, -38095.637, 0.043399893, 0.4284927, -1213546.9, 158720.13, 0.19614406, 10.000904, 9.999472 
2.3880036e+3, 1.6997257e+2, -982143.3, -673980.2, -4423.001, -0.15945598, 0.07689296, -673916.75, 600388.1, 0.12585048, 9.999562, 10.004503 
2.3877034e+3, 1.7996958e+2, -1277581.9, -985300.4, -102989.766, -0.32005018, -0.25783896, -952656.3, 223668.13, 0.083471425, 9.997677, 10.002207 
2.3874058e+3, 1.899719e+2, -1314350.1, -1004985.25, 13518.88, -0.22469877, 0.24686307, -1004395.6, 73915.2, 0.057587944, 9.997246, 10.001373 
2.3871082e+3, 1.9997366e+2, -1195093.3, -858670.5, 10110.691, -0.10407573, 0.6695442, -858366.94, 121936.234, 0.03970386, 9.996903, 10.002033 
2.3868044e+3, 2.0997061e+2, -790677.75, -316049.1, -120473.47, -0.1557257, 0.4033342, -287220.7, 595101.8, 0.026570952, 9.997885, 10.004575 
2.3864995e+3, 2.1996687e+2, -749667.56, -610822.44, -147562.67, -0.23562722, 0.06023178, -517167.63, 267179.94, 0.017417854, 9.9990015, 10.001333 
2.3861969e+3, 2.2996578e+2, -632082.06, -607319.6, -105907.83, -0.122024596, 0.34436896, -513071.78, 173291.66, 0.011141793, 9.999823, 10.000156 
2.3858956e+3, 2.3996347e+2, -526192.3, -676040.8, -27209.525, 0.06412123, 0.5845075, -521404.53, 66987.69, 0.0065593217, 10.000485, 9.998762 
2.3855913e+3, 2.4995624e+2, -242880.98, -278954.44, -31495.246, -0.040422343, 0.29654756, -224623.45, 265833.78, 0.0032030866, 10.000955, 10.0005245 
2.385289e+3, 2.5994813e+2, -372443.28, -544610.8, 34154.063, -0.14874, -0.062346715, -365915.4, 26614.22, 0.0011282732, 10.000475, 9.9982605 
2.3849878e+3, 2.6994374e+2, -69843.59, -173010.56, -59651.35, 0.083672374, 0.011153328, -42565.56, 252005.53, 0.00023273825, 10.001275, 9.999674 
2.3846878e+3, 2.7993926e+2, -149818.58, -337539.25, -11675.926, 0.2870093, 0.0112728635, -149095.16, 47520.06, 0.000018977813, 10.000756, 9.998158 
2.3843794e+3, 2.8993598e+2, 235245.81, -14147.291, -266361.06, 0.09205396, 0.2719959, 404653.72, 503304.13, 0.000039610317, 10.002547, 9.998719 
2.3840767e+3, 2.9993826e+2, 98402.61, -326226.75, -22610.98, 0.43258932, 0.9075242, 99603.23, 100232.53, 0.00031053094, 10.0022, 9.996561 
2.3837776e+3, 3.099236e+2, -182638.6, -20815.395, -115944.53, -0.22479655, 0.29141694, 39658.37, 39658.37, 0.0010092406, 9.9989605, 9.999923 
2.39922e+3, 1.3027535e+2, -1199679.6, -1049025.4, 63133.566, 0.11103519, -0.26654127, -1026067.1, 637252.25, 0.49043837, 10.003028, 10.005883 
2.3989138e+3, 1.4027795e+2, -1599374.3, -1459646.6, -140913.98, 0.13164005, -0.3211805, -1372228.3, 193064.0, 0.36336115, 9.998926, 10.001272 
2.3986067e+3, 1.5028194e+2, -1361869.4, -1303861.4, -54087.42, 0.033193346, 0.4022269, -1271492.1, 195779.58, 0.24041095, 10.000255, 10.000725 
2.3982996e+3, 1.6028419e+2, -1337979.8, -1402133.0, 6929.231, -0.20032129, 0.9340658, -1337239.9, 32027.44, 0.14389461, 10.000129, 9.999306 
2.3979993e+3, 1.7027959e+2, -1252522.6, -1116082.8, 41695.24, -0.12885948, 0.8475642, -1104349.9, 166959.78, 0.08188297, 9.999214, 10.001066 
2.3977e+3, 1.8027376e+2, -1438952.5, -1120408.9, -46257.742, -0.009312585, 0.51512504, -1113827.5, 59533.56, 0.047678713, 9.996958, 10.001534 
2.3973998e+3, 1.9027288e+2, -1158210.6, -565196.2, 63593.855, -0.09152732, 0.46540457, -558453.2, 516912.9, 0.028905774, 9.9968195, 10.004632 
2.3970996e+3, 2.0027284e+2, -1364537.5, -885525.9, 12125.099, -0.20329511, 0.43152025, -885219.1, 92143.59, 0.017015342, 9.99572, 10.002359 
2.3967966e+3, 2.102701e+2, -1013766.5, -530802.4, -81586.05, -0.24636745, 0.27657193, -517392.56, 361986.3, 0.00915297, 9.997047, 10.003355 
2.3964946e+3, 2.2026663e+2, -1066245.5, -833157.1, -133054.28, -0.15968084, 0.058246218, -772822.9, 8580.652, 0.0045936005, 9.997315, 10.000584 
2.3961927e+3, 2.3026504e+2, -708753.75, -520850.94, -91996.56, -0.06823731, 0.21174678, -483310.03, 200113.22, 0.0022051786, 9.998871, 10.001168 
2.3958907e+3, 2.4026217e+2, -779364.9, -805740.2, -43004.305, -0.046273846, 0.29125667, -747571.6, -162115.16, 0.0009056362, 9.998891, 9.998638 
2.3955879e+3, 2.502578e+2, -375251.38, -350261.88, -57225.05, -0.036987215, 0.28782794, -304183.38, 183315.1, 0.00023937336, 10.000302, 10.000229 
2.3952866e+3, 2.6025254e+2, -577364.94, -675570.06, -2119.0515, -0.024895024, 0.19959873, -577319.25, -187772.19, 0.000025130046, 9.999307, 9.997927 
2.3949839e+3, 2.7024797e+2, -25041.22, -72400.49, -34338.27, -0.014875796, 0.217588, -7009.444, 284577.63, 0.00000030344088, 10.001336, 10.000304 
2.3946816e+3, 2.8024328e+2, -272635.28, -458639.66, -17477.748, -0.0834924, 0.11326131, -271007.25, -77377.695, 0.0000000068303647, 10.000241, 9.997599 
2.3943745e+3, 2.9023606e+2, 78894.44, -307700.38, -162547.98, -0.26185644, 0.12632482, 138155.4, 233864.05, 0.0000039429096, 10.002512, 9.996688 
2.394071e+3, 3.0023205e+2, -145552.34, -656344.6, -25127.537, -0.30785713, 0.42260787, -144319.22, -144319.22, 0.00006190627, 10.001501, 9.994613 
2.3937783e+3, 3.1022286e+2, -4529.92, 313612.06, 53643.203, 0.023476643, 0.20112053, 322413.56, 322413.56, 0.0002690841, 9.998872, 10.002295 
2.409214e+3, 1.3059023e+2, -1969449.0, -1601171.3, 165250.13, -0.08891104, -0.037354466, -1537894.0, 122333.234, 0.44510007, 9.996389, 10.002222 
2.408908e+3, 1.4058726e+2, -1790284.5, -1697821.4, 140509.45, 0.058698617, -0.14824675, -1596133.1, -33870.44, 0.31930807, 9.998023, 9.999725 
2.4086022e+3, 1.5058732e+2, -1283068.0, -1298134.4, 143514.63, -0.08698472, 0.27294683, -1146889.0, 317384.2, 0.20041417, 10.000934, 10.000444 
2.4082966e+3, 1.6058628e+2, -1056576.3, -1307175.9, 134669.02, -0.32371035, 0.559716, -997931.0, 368362.97, 0.110025235, 10.002396, 9.99894 
2.4079949e+3, 1.7058176e+2, -1112610.3, -1185289.3, 131970.38, -0.16014116, 0.5991771, -1012067.56, 256272.02, 0.054970514, 10.000793, 9.999808 
2.4076942e+3, 1.8057686e+2, -1232518.1, -1055189.1, 168646.16, -0.016283229, 0.5093257, -953320.4, 217065.78, 0.027314784, 9.99839, 10.001336 
2.407393e+3, 1.9057517e+2, -967002.25, -516384.72, 196617.2, -0.12754601, 0.41993526, -442657.78, 629737.7, 0.013986388, 9.998236, 10.004306 
2.4070923e+3, 2.005734e+2, -1053960.4, -799854.56, 62880.363, -0.27091578, 0.30177456, -785145.75, 189259.81, 0.006556314, 9.998021, 10.001863 
2.4067914e+3, 2.1056978e+2, -892176.25, -644913.94, -68275.68, -0.1375943, 0.19287209, -627313.94, 249122.75, 0.002469395, 9.998634, 10.0018015 
2.4064907e+3, 2.2056593e+2, -777415.25, -700448.6, -118578.6, -0.011416303, 0.09255515, -614265.0, 164205.77, 0.00078321603, 9.999166, 10.000639 
2.4061875e+3, 2.3056367e+2, -650533.25, -467855.28, -135760.2, -0.04116944, 0.1371924, -395567.72, 284926.78, 0.00023610769, 9.998933, 10.001586 
2.4058853e+3, 2.4056083e+2, -719445.94, -664547.1, -66626.25, -0.089457974, 0.17185262, -619937.3, -37412.94, 0.000047296035, 9.998611, 9.99979 
2.405584e+3, 2.505577e+2, -373792.2, -299483.56, -40076.566, -0.026206985, 0.22830796, -281988.3, 202567.16, 0.0000020598873, 10.000024, 10.000758 
2.4052837e+3, 2.605541e+2, -254484.95, -371593.06, 30798.39, 0.04842046, 0.25027218, -246879.22, 139710.66, 0.0, 10.000791, 9.999305 
2.4049807e+3, 2.7055025e+2, -138650.4, -101258.234, -37143.45, -0.009692094, 0.29230103, -78370.914, 210252.16, 0.0, 10.000411, 10.0005665 
2.4046773e+3, 2.8054595e+2, -351000.9, -438830.8, -66917.67, -0.11306756, 0.23219046, -314875.25, -124213.45, 0.0, 9.999334, 9.998188 
2.4043714e+3, 2.9053697e+2, -190157.81, -434705.53, -61686.23, -0.32465857, 0.031762213, -175478.81, -82722.41, 0.00000028208012, 10.000528, 9.996828 
2.4040686e+3, 3.0053082e+2, -313913.72, -661937.1, 227108.52, -0.26653942, 0.15050714, -201816.45, -201816.45, 0.000017512673, 9.999876, 9.995405 
2.4037793e+3, 3.1052256e+2, 290740.25, 497553.4, 26900.799, 0.5138297, -0.00084417505, 500995.2, 500995.2, 0.0001005609, 10.000675, 10.002757 
2.4192041e+3, 1.309041e+2, -2255353.5, -2052110.6, -13482.201, -0.26577458, 0.28470114, -2051220.3, -394069.78, 0.41411307, 9.996035, 9.998621 
2.418902e+3, 1.4090067e+2, -1897224.9, -2053191.3, -17794.018, 0.08560239, 0.37860972, -1895220.5, -336024.5, 0.28877336, 9.998636, 9.9969635 
2.4185991e+3, 1.5089402e+2, -1394985.4, -1416068.1, 131219.17, -0.061749503, 0.20508794, -1273884.9, 187376.06, 0.17287979, 10.000297, 9.999804 
2.4182954e+3, 1.6088702e+2, -1383671.1, -1640306.3, 34623.285, -0.24570942, -0.030748056, -1379082.1, -15753.039, 0.08747846, 10.000553, 9.997553 
2.4179912e+3, 1.7088297e+2, -1222039.8, -1286982.8, 3205.4844, -0.15504047, 0.11160811, -1221881.9, 43490.29, 0.038149297, 10.000287, 9.999251 
2.4176878e+3, 1.808797e+2, -1364798.9, -1268145.1, 94648.01, -0.03698993, 0.23806173, -1210200.0, -42794.29, 0.01570925, 9.998264, 9.999839 
2.4173868e+3, 1.908775e+2, -1111217.4, -763062.75, 168091.73, -0.15788975, 0.23558663, -695153.0, 374266.16, 0.0064830934, 9.9981, 10.002566 
2.4170864e+3, 2.008745e+2, -1421194.3, -1263523.9, 40396.555, -0.20346892, 0.17252709, -1253776.5, -282334.5, 0.0021827125, 9.996837, 9.999221 
2.4167871e+3, 2.1086942e+2, -1094533.3, -976494.0, -33700.75, 0.013653611, 0.12216154, -967550.0, -94053.305, 0.00044835047, 9.998287, 9.999663 
2.416487e+3, 2.2086462e+2, -1060382.4, -971697.5, -108529.57, 0.17939277, 0.08073656, -898801.25, -123253.48, 0.000068581576, 9.9979515, 9.999332 
2.4161823e+3, 2.3086278e+2, -706440.7, -436076.4, -149581.34, -0.0026838332, 0.16352631, -369643.1, 307921.38, 0.0000096515805, 9.998555, 10.001869 
2.4158792e+3, 2.4086048e+2, -890810.3, -705041.3, -67281.46, -0.122896634, 0.19051589, -683233.5, -103648.195, 0.00000040342232, 9.997456, 10.000026 
2.4155791e+3, 2.5085744e+2, -355047.13, -158179.63, 9859.991, -0.09136278, 0.15077338, -157687.02, 323926.47, 0.0, 9.999692, 10.001838 
2.4152793e+3, 2.6085424e+2, -467557.25, -490148.72, -13841.848, -0.07422552, 0.104854286, -460987.1, -77342.914, 0.0, 9.999511, 9.999115 
2.4149768e+3, 2.7085158e+2, -276645.7, -206936.38, -76729.39, -0.000174002, 0.2738765, -157516.2, 128154.766, 0.0, 9.999764, 10.000081 
2.414674e+3, 2.8084794e+2, -566828.3, -545252.3, -76898.96, -0.00651633, 0.3151777, -478388.3, -290682.2, 0.0, 9.99796, 9.998119 
2.4143694e+3, 2.9084003e+2, -81682.836, -52939.58, -8533.541, -0.16666915, 0.020393098, -50596.99, 39181.18, 0.0000000009564638, 10.000017, 9.999624 
2.4140689e+3, 3.008339e+2, -503436.06, -706903.4, 293514.84, -0.12506315, -0.10186334, -294524.1, -294524.1, 0.0000015325257, 9.998521, 9.995734 
2.413774e+3, 3.1082794e+2, 13607.682, -25395.645, 55200.152, 0.027118158, 0.024368528, 52649.777, 52649.777, 0.000021924814, 10.000422, 9.999314 
2.4292e+3, 1.312022e+2, -1785709.9, -1598588.8, -215440.52, -0.094352916, 0.34702665, -1457270.3, 196973.95, 0.3927152, 9.99815, 10.001383 
2.4288972e+3, 1.4120099e+2, -1320134.8, -1474600.5, -127872.51, -0.17973086, 0.4721981, -1247981.3, 308281.22, 0.26710206, 10.00187, 9.999609 
2.4285954e+3, 1.5119587e+2, -1264476.5, -1253378.9, -95078.94, -0.08740833, 0.29578856, -1163687.0, 294621.53, 0.15331793, 10.000684, 10.000963 
2.428293e+3, 1.6119033e+2, -1527018.6, -1534328.6, -108350.18, -0.06460232, 0.107371196, -1422261.8, -61903.457, 0.07196278, 9.998707, 9.999209 
2.4279878e+3, 1.7118675e+2, -1114763.0, -1156519.4, -80326.555, -0.13971688, 0.18724419, -1052645.8, 209746.33, 0.027363949, 10.000646, 10.00002 
2.4276829e+3, 1.8118279e+2, -895786.3, -1074419.0, 8634.691, -0.23462558, 0.2186267, -895369.94, 269058.88, 0.009079448, 10.001556, 9.999575 
2.4273811e+3, 1.9117798e+2, -980732.8, -878438.1, 14531.751, -0.23695092, 0.08321466, -876413.9, 190054.83, 0.002868925, 9.999682, 10.001026 
2.4270803e+3, 2.0117353e+2, -1223281.6, -1124901.9, 3301.6282, -0.20827359, -0.009437159, -1124791.3, -156284.39, 0.00059867656, 9.997851, 9.999723 
2.4267818e+3, 2.1117035e+2, -877997.2, -804722.2, 98258.31, -0.011014168, 0.06395676, -736493.06, 134048.58, 0.000045539302, 9.999283, 10.000463 
2.4264821e+3, 2.2116709e+2, -639276.1, -691058.94, 119007.55, 0.120271035, 0.13775794, -543376.06, 229201.08, 0.0000022398012, 10.000381, 10.000102 
2.4261777e+3, 2.3116389e+2, -378439.63, -313786.2, 45387.676, -0.029412381, 0.11967896, -290389.84, 384216.25, 0.000000052409952, 10.000916, 10.001604 
2.4258748e+3, 2.4116077e+2, -349276.66, -396933.72, 88595.46, -0.13454299, 0.114131846, -281361.22, 295273.97, 0.0, 10.000901, 10.000474 
2.4255753e+3, 2.5115782e+2, -333742.8, -209233.56, 49741.164, -0.05101508, 0.12693764, -191802.42, 286864.75, 0.0, 10.000022, 10.001367 
2.4252756e+3, 2.611547e+2, -460934.94, -414093.06, -73557.16, 0.017975649, 0.14315888, -360318.2, 20381.877, 0.0, 9.999078, 9.999871 
2.4249727e+3, 2.7115163e+2, -216739.03, -170544.81, -127627.25, 0.025839869, 0.2315514, -63941.54, 218791.22, 0.0, 9.999976, 10.00029 
2.4246705e+3, 2.811483e+2, -76626.31, -138625.95, -48855.023, 0.08578722, 0.28130662, -49765.938, 134999.2, 0.0, 10.000443, 9.999736 
2.424368e+3, 2.9114258e+2, 370795.72, 337567.47, -37686.867, 0.010996657, 0.046468403, 395368.13, 482179.3, 0.0, 10.002194, 10.001345 
2.4240682e+3, 3.0113736e+2, 151940.06, -246023.52, 165568.89, 0.083150126, -0.13143644, 211815.0, 211815.0, 0.000000086511356, 10.002212, 9.997175 
2.4237718e+3, 3.1113368e+2, 82235.71, -142980.47, -281986.7, 0.12734655, 0.28734297, 273267.3, 273267.3, 0.0000026170453, 10.001315, 9.998182 
2.4394919e+3, 1.2150117e+2, -2173669.8, -2174514.3, -507598.9, -0.3444754, 0.7005802, -1666492.9, 82829.11, 0.49455464, 9.997887, 9.9978695 
2.4391973e+3, 1.314974e+2, -1550634.8, -1246091.1, 56871.36, 0.1890333, 0.3292585, -1235817.4, 415548.84, 0.3775347, 9.998575, 10.004644 
2.4388929e+3, 1.4149861e+2, -1506608.6, -1398765.6, -54194.066, -0.3113139, 0.44559994, -1376237.6, 177116.83, 0.25111946, 9.999306, 10.001465 
2.4385919e+3, 1.5149689e+2, -1321115.0, -1161205.4, -128222.51, -0.029701797, 0.46506366, -1090051.6, 365315.1, 0.13882844, 9.999734, 10.002047 
2.4382903e+3, 1.6149418e+2, -1492221.0, -1404073.9, -117135.516, 0.2481365, 0.45137596, -1322994.8, 34392.84, 0.060861234, 9.998596, 10.000116 
2.4379846e+3, 1.7149064e+2, -1068570.8, -998402.2, -42343.105, -0.06919011, 0.38877684, -978496.94, 280917.75, 0.02025213, 10.000445, 10.001176 
2.4376787e+3, 1.8148579e+2, -1122837.8, -1294835.8, -62936.457, -0.34248683, 0.2722831, -1102268.4, 59186.8, 0.0052852775, 10.000549, 9.998554 
2.4373758e+3, 1.9147804e+2, -1166753.3, -1133800.6, -91252.92, -0.28958514, -0.032154486, -1057548.5, 5977.222, 0.0012089658, 9.999223, 9.999473 
2.4370742e+3, 2.0147215e+2, -1318698.6, -1087773.9, 8857.824, -0.15394707, -0.1906802, -1087434.6, -121855.81, 0.00012403581, 9.997029, 10.000328 
2.4367756e+3, 2.1147297e+2, -808199.7, -479746.2, 134961.69, -0.08994449, 0.04280645, -431405.1, 436163.3, 0.000001917801, 9.998705, 10.00285 
2.4364765e+3, 2.2147243e+2, -904183.3, -857455.6, 106708.12, -0.038922288, 0.21659827, -771583.5, -2011.4498, 0.000000018702426, 9.998876, 9.999627 
2.4361734e+3, 2.3146676e+2, -530789.8, -488341.1, 39912.1, -0.13294467, 0.010429764, -464360.94, 207264.56, 0.0, 10.00035, 10.00062 
2.4358709e+3, 2.414614e+2, -717606.56, -815101.9, 45021.848, -0.16586128, -0.11579919, -699996.9, -126317.95, 0.0, 9.999508, 9.998262 
2.435572e+3, 2.514591e+2, -553063.8, -520623.28, 2155.245, 0.06113781, 0.14175233, -520480.72, -44767.77, 0.0, 9.999553, 9.999397 
2.4352722e+3, 2.6145622e+2, -715222.2, -663657.44, -80045.4, 0.18151894, 0.3325286, -605344.6, -227593.86, 0.0, 9.998021, 9.998651 
2.434968e+3, 2.714513e+2, -235963.61, -104802.81, -98273.15, -0.035606097, 0.19724567, -52237.535, 227562.0, 0.0, 9.99962, 10.0008745 
2.4346653e+3, 2.814469e+2, -245140.06, -221285.34, -30345.914, -0.12607636, 0.07778924, -200606.94, -18765.844, 0.0, 9.999405, 9.999673 
2.4343665e+3, 2.914442e+2, 258172.45, 264356.44, 19720.436, 0.034223266, 0.11852049, 281225.8, 365087.44, 0.0, 10.001603, 10.001099 
2.4340671e+3, 3.0144107e+2, -118372.484, -342770.22, 144741.44, -0.041021153, 0.17744292, -47435.695, -47435.695, 0.0, 10.000345, 9.997399 
2.4337691e+3, 3.114347e+2, 81860.09, 83409.77, 66486.67, -0.12765647, 0.05710795, 149126.11, 149126.11, 0.00000012758136, 10.000518, 10.0000305 
2.449488e+3, 1.2180367e+2, -1741264.0, -1768348.1, -222146.4, -0.41011208, 0.27657396, -1532247.3, 214096.86, 0.48540926, 10.000109, 10.000136 
2.4491929e+3, 1.3179885e+2, -1616930.3, -1425318.0, 230845.08, 0.22973993, -0.027126199, -1271187.6, 377211.13, 0.3659335, 9.999053, 10.002639 
2.4488874e+3, 1.4180207e+2, -1756743.0, -1597093.4, 106884.87, -0.35341418, 0.5028571, -1543515.1, 6855.1836, 0.23856215, 9.997905, 10.000472 
2.448586e+3, 1.5179819e+2, -1367012.9, -1272075.3, -16784.877, -0.19315177, 0.4173001, -1269195.0, 183213.23, 0.1275105, 9.999725, 10.001187 
2.4482846e+3, 1.6179381e+2, -1181529.6, -1259648.8, -46705.484, 0.0053032557, 0.31600186, -1159703.6, 194745.48, 0.052560914, 10.00072, 10.000123 
2.4479817e+3, 1.7179027e+2, -955613.0, -972215.8, -43437.574, -0.044377133, 0.2785971, -919690.7, 336786.75, 0.01541553, 10.001204, 10.001056 
2.4476776e+3, 1.8178615e+2, -1031878.94, -1151908.0, -139044.06, -0.16931526, 0.23341534, -940450.44, 218061.13, 0.0031067657, 10.000641, 9.999526 
2.4473718e+3, 1.9178046e+2, -1028002.7, -1006426.25, -112927.2, -0.20293689, 0.0717947, -903773.1, 156789.52, 0.00048131414, 9.99983, 10.000116 
2.4470685e+3, 2.0177528e+2, -1003033.7, -874933.44, 94143.414, -0.1880767, -0.04840709, -825117.9, 137490.53, 0.000015932997, 9.998846, 10.000911 
2.4467702e+3, 2.1177384e+2, -797447.06, -494876.47, 96181.484, -0.10736323, -0.023176253, -466890.7, 397726.16, 0.0000000054715246, 9.998834, 10.0027 
2.4464715e+3, 2.2177203e+2, -845406.06, -763257.25, -21885.926, -0.07689844, 0.029334985, -757790.25, 8840.335, 0.0, 9.998846, 10.000321 
2.4461687e+3, 2.317674e+2, -673255.56, -576434.7, -65287.42, -0.159622, -0.08199437, -543567.7, 125108.46, 0.0, 9.999316, 10.000592 
2.4458668e+3, 2.4176277e+2, -644624.4, -714874.2, -23368.855, -0.17490537, -0.12828453, -637560.8, -66837.13, 0.0, 9.999517, 9.999007 
2.4455678e+3, 2.517598e+2, -462435.5, -480687.47, 60272.043, 0.095906384, 0.05202089, -410602.44, 62159.664, 0.0, 9.999983, 9.999586 
2.4452683e+3, 2.6175693e+2, -332881.06, -409662.56, 107257.05, 0.24061984, 0.24549803, -257351.11, 117448.164, 0.0, 10.000193, 9.99939 
2.444964e+3, 2.7175254e+2, -56344.65, -57495.58, 43611.438, -0.033737022, 0.18868978, -13304.879, 263540.16, 0.0, 10.000916, 10.00063 
2.4446614e+3, 2.817482e+2, 32656.527, -112500.79, 32928.74, -0.16214624, 0.12863661, 39777.074, 218665.72, 0.0, 10.001237, 9.999574 
2.4443638e+3, 2.9174483e+2, 134130.97, 99543.4, -27167.62, 0.038867086, 0.18507363, 149042.06, 229961.44, 0.0, 10.001012, 10.000324 
2.4440657e+3, 3.017417e+2, -23010.746, -189965.53, 75989.87, 0.06929218, 0.28282997, 6396.474, 6396.474, 0.0, 10.000322, 9.998503 
2.443767e+3, 3.1173617e+2, 641423.8, 603824.2, 11792.27, -0.17638735, 0.17747724, 644816.1, 644816.1, 0.000000000000427524, 10.00306, 10.002433 
2.4594842e+3, 1.2210733e+2, -1946968.0, -1850692.0, -445062.7, -0.34574956, -0.20066904, -1451171.5, 292178.6, 0.47723737, 9.998616, 10.000656 
2.4591887e+3, 1.3210215e+2, -1663938.9, -1645555.6, 143358.27, 0.32118416, -0.3406794, -1511094.6, 134314.58, 0.3557266, 9.999827, 9.999975 
2.4588826e+3, 1.4210673e+2, -1692143.0, -1787689.5, 59147.74, -0.25158852, 0.58326167, -1663885.1, -116513.86, 0.22774403, 9.999401, 9.998417 
2.4585798e+3, 1.5209933e+2, -1499153.1, -1464755.3, -11653.113, -0.31819618, 0.27733213, -1461179.3, -11731.11, 0.11809006, 9.999523, 9.999725 
2.4582785e+3, 1.6209246e+2, -1527270.6, -1559157.3, -51237.836, -0.20614439, 0.066179626, -1489552.9, -138035.42, 0.04605504, 9.9989605, 9.998857 
2.4579793e+3, 1.7208925e+2, -1173571.0, -1133538.0, -38692.695, 0.052156955, 0.10552503, -1109991.0, 143554.94, 0.012013259, 10.00004, 10.000439 
2.4576773e+3, 1.8208657e+2, -1194435.4, -1185435.8, -174690.89, 0.19638096, 0.22126333, -1015186.7, 140381.83, 0.0018483637, 9.999448, 9.999846 
2.4573687e+3, 1.9208424e+2, -1012195.56, -853004.25, -177728.23, -0.042895902, 0.25569582, -737862.2, 319725.06, 0.00018026956, 9.999361, 10.001359 
2.457063e+3, 2.020805e+2, -1249366.8, -1132447.8, 42777.37, -0.17697439, 0.22459137, -1118468.3, -158849.52, 0.0000007906511, 9.997885, 9.999599 
2.4567649e+3, 2.1207355e+2, -995474.6, -786605.0, 75345.67, -0.07954317, -0.15344729, -762262.44, 99416.88, 0.0, 9.998418, 10.000892 
2.4564666e+3, 2.2206804e+2, -1108847.6, -957649.44, -36338.566, -0.010959812, -0.33207157, -949369.4, -185640.52, 0.0, 9.997551, 9.999584 
2.4561638e+3, 2.3206715e+2, -746669.1, -530984.0, -68556.22, -0.121890426, -0.12150714, -511037.75, 154704.1, 0.0, 9.998739, 10.00107 
2.455862e+3, 2.4206538e+2, -801544.94, -694919.2, -32060.6, -0.15417162, 0.047456056, -686021.56, -118259.36, 0.0, 9.998216, 9.999729 
2.4555625e+3, 2.5206056e+2, -427348.13, -271259.7, 50595.58, 0.019511607, -0.13981123, -256294.16, 213514.27, 0.0, 9.99946, 10.001238 
2.455263e+3, 2.6205683e+2, -610728.06, -631349.5, 95818.15, 0.10934489, -0.12824893, -524667.5, -152820.61, 0.0, 9.998788, 9.998518 
2.454961e+3, 2.720557e+2, -222610.05, -261850.45, 71156.234, -0.017160159, 0.22097778, -168418.58, 105448.42, 0.0, 10.000424, 9.999407 
2.4546595e+3, 2.8205281e+2, -334269.94, -552121.8, 39683.57, -0.121248946, 0.4755496, -327266.4, -151364.73, 0.0, 10.000013, 9.997119 
2.4543591e+3, 2.920444e+2, -136096.25, -259383.33, -38819.18, -0.12804754, 0.20135345, -124891.63, -46907.742, 0.0, 10.000259, 9.998175 
2.4540627e+3, 3.0203632e+2, -493701.84, -611485.25, 110672.94, 0.050127074, 0.031496022, -427227.16, -427227.16, 0.0, 9.998131, 9.996627 
2.4537674e+3, 3.120351e+2, 372385.56, 569025.9, 233354.38, -0.26049915, 0.32739553, 723927.2, 723927.2, 0.0, 10.001118, 10.00301 
2.4694797e+3, 1.2241104e+2, -1833099.3, -1709196.6, -394568.16, -0.34319764, -0.0063110394, -1371745.9, 368634.66, 0.4678526, 9.999024, 10.001664 
2.4691845e+3, 1.3240567e+2, -1406831.8, -1528300.9, 91360.41, 0.14104533, -0.1500213, -1357860.4, 284574.63, 0.34520847, 10.002267, 9.999756 
2.4688801e+3, 1.4240643e+2, -1298431.9, -1608771.6, -52241.05, -0.33917654, 0.42033768, -1289873.9, 254556.4, 0.21743059, 10.002671, 9.998093 
2.4685761e+3, 1.5239935e+2, -1488238.5, -1531552.6, -139408.89, -0.27723926, 0.2055053, -1368814.5, 77689.7, 0.109704144, 9.9999275, 9.999098 
2.4682742e+3, 1.6239327e+2, -1627767.0, -1494250.0, -33593.97, -0.13379924, 0.08477197, -1486273.9, -137707.89, 0.040704507, 9.997719, 9.999905 
2.4679752e+3, 1.7239043e+2, -1240179.6, -1080134.4, 37022.563, 0.09434836, 0.09139354, -1071985.0, 178604.89, 0.00953522, 9.9991455, 10.001295 
2.4676728e+3, 1.8238777e+2, -1137981.5, -1126601.3, -120470.51, 0.16167028, 0.17806868, -1011686.56, 140926.77, 0.0011160366, 9.999616, 10.000187 
2.4673633e+3, 1.9238487e+2, -1039418.44, -933926.94, -220299.44, -0.078787796, 0.21770257, -760146.9, 294495.53, 0.00006263998, 9.999395, 10.000832 
2.4670571e+3, 2.0238124e+2, -1051113.0, -977397.7, -8281.03, -0.24427855, 0.22923243, -976478.9, -19802.924, 0.0000000031066179, 9.998884, 10.000209 
2.4667595e+3, 2.1237507e+2, -831553.7, -715787.8, 98039.63, -0.1108353, -0.07098072, -659819.06, 198909.11, 0.0, 9.999449, 10.0009575 
2.4664614e+3, 2.2236994e+2, -775560.3, -780524.3, 40475.08, -0.02381641, -0.19426498, -737491.2, 23283.525, 0.0, 9.999626, 9.999842 
2.4661602e+3, 2.3236892e+2, -603180.94, -526726.44, -41747.504, -0.013426457, 0.05914382, -508348.22, 154444.11, 0.0, 9.999873, 10.000632 
2.4658586e+3, 2.42367e+2, -475323.97, -461676.38, -68851.5, -0.03090076, 0.24193776, -399311.34, 165503.58, 0.0, 10.000011, 10.000483 
2.4655572e+3, 2.523615e+2, -315502.3, -190037.64, -104822.445, -0.09371155, -0.040235817, -130609.87, 336252.16, 0.0, 10.000008, 10.001574 
2.4652566e+3, 2.6235697e+2, -377037.25, -483274.66, -89993.29, -0.106053114, -0.13524398, -325655.3, 43248.41, 0.0, 10.000049, 9.998963 
2.4649583e+3, 2.7235574e+2, -120373.16, -270180.5, -87196.72, 0.036575306, 0.22713467, -80325.414, 190598.61, 0.0, 10.001217, 9.999036 
2.4646585e+3, 2.8235292e+2, -41159.02, -397338.94, -81507.78, 0.06043017, 0.5152034, -23393.033, 149564.55, 0.0, 10.00185, 9.997315 
2.4643555e+3, 2.9234278e+2, 124976.07, -210890.92, -75710.83, -0.18460722, 0.12821402, 141253.83, 216308.89, 0.0, 10.002262, 9.997624 
2.4640603e+3, 3.0233273e+2, 50174.8, -368123.4, 235091.67, 0.12006619, -0.15557596, 155686.53, 155686.53, 0.0, 10.001759, 9.996611 
2.4637654e+3, 3.1233045e+2, 296735.3, 440940.1, 185841.75, -0.2460754, 0.1589108, 568176.4, 568176.4, 0.0, 10.000644, 10.002504 
2.4794766e+3, 1.2271608e+2, -1867729.0, -1701073.9, -243990.97, -0.15975344, 0.39375135, -1526573.9, 210826.8, 0.45571712, 9.99828, 10.001605 
2.4791808e+3, 1.3270831e+2, -1572296.4, -1647984.1, 159119.86, -0.010265768, 0.010658225, -1446582.0, 192890.14, 0.33319858, 10.00084, 9.99945 
2.4788786e+3, 1.4270492e+2, -1532350.9, -1776218.6, -124547.164, -0.3009142, 0.19793288, -1479986.6, 61516.805, 0.20679392, 10.000926, 9.99777 
2.478573e+3, 1.5269962e+2, -1490351.9, -1561842.6, -212180.97, -0.1292325, 0.16699605, -1310926.4, 132632.6, 0.10179194, 10.000081, 9.998847 
2.4782702e+3, 1.62695e+2, -1554455.8, -1382008.5, 14392.416, 0.12650117, 0.18565969, -1380815.6, -35210.395, 0.036105353, 9.998027, 10.000501 
2.4779703e+3, 1.7269246e+2, -1251724.8, -951165.0, 75536.09, 0.16036421, 0.09751555, -933249.3, 314375.16, 0.0076701324, 9.9986315, 10.002371 
2.4776672e+3, 1.826893e+2, -1409010.4, -1397884.3, -146249.66, 0.10496002, 0.11953396, -1257091.9, -107438.586, 0.000687035, 9.998494, 9.998826 
2.4773574e+3, 1.9268455e+2, -1148800.8, -1134969.9, -245309.55, -0.1463787, 0.08887174, -896478.3, 155228.66, 0.000019881356, 9.999425, 9.999362 
2.4770515e+3, 2.0268047e+2, -1093111.5, -1001857.7, -5655.946, -0.2500446, 0.14439757, -1001508.5, -47758.973, 0.0, 9.998745, 10.000048 
2.4767542e+3, 2.1267831e+2, -843934.9, -615558.75, 88142.64, -0.15313362, 0.14321445, -585496.9, 270265.84, 0.0, 9.999038, 10.001734 
2.4764563e+3, 2.2267576e+2, -1068569.0, -1062715.5, 9719.303, -0.021241378, 0.263617, -1055491.9, -297706.66, 0.0, 9.998334, 9.99848 
2.476157e+3, 2.32672e+2, -760551.6, -748032.44, -55292.133, 0.1350444, 0.34881368, -698646.7, -38814.35, 0.0, 9.999455, 9.999282 
2.475856e+3, 2.4266794e+2, -782126.44, -773139.06, -88582.305, 0.13016093, 0.44302854, -688936.5, -127058.836, 0.0, 9.998772, 9.998906 
2.4755508e+3, 2.526628e+2, -471729.4, -356302.94, -114358.734, -0.27629665, 0.26522484, -285919.6, 178000.55, 0.0, 9.99948, 10.000593 
2.4752493e+3, 2.6265752e+2, -653266.56, -715347.75, -68005.55, -0.42567268, 0.18607792, -609552.44, -243585.8, 0.0, 9.998754, 9.997968 
2.474955e+3, 2.7265245e+2, -235572.11, -319857.0, -47184.89, 0.026824323, 0.1593154, -214450.03, 53568.55, 0.0, 10.000547, 9.998975 
2.4746577e+3, 2.8264722e+2, -223193.47, -460003.34, -92514.0, 0.18030071, 0.20260255, -191336.73, -21267.84, 0.0, 10.000601, 9.997479 
2.4743535e+3, 2.9263934e+2, 112103.984, -56267.8, -58057.305, -0.22982681, -0.098112516, 130182.04, 202318.98, 0.0, 10.001634, 9.998921 
2.4740586e+3, 3.026322e+2, -336085.84, -729727.0, 189137.56, 0.073269136, -0.12678541, -259938.75, -259938.75, 0.0, 10.000017, 9.994945 
2.4737617e+3, 3.1262675e+2, -192942.78, -47998.223, 125223.71, -0.39922968, 0.0023675254, 24212.63, 24212.63, 0.0, 9.998481, 10.000174 
2.4894707e+3, 1.23016e+2, -1920871.1, -1773444.5, -138559.64, -0.28951448, 0.33112833, -1690210.6, 44245.566, 0.43991777, 9.998063, 10.000595 
2.4891773e+3, 1.3300934e+2, -1741404.9, -1706545.3, 203845.66, 0.012346667, 0.032991227, -1519385.6, 117134.47, 0.31901658, 9.999293, 9.999772 
2.488875e+3, 1.430047e+2, -1623730.6, -1622774.8, -92071.45, -0.29448393, 0.02008038, -1531180.0, 7383.303, 0.19536594, 9.999246, 9.999656 
2.4885693e+3, 1.5300207e+2, -1224030.5, -1222754.5, -76001.12, -0.14058326, 0.082004525, -1147388.6, 293198.78, 0.094030365, 10.000956, 10.000917 
2.488266e+3, 1.6299859e+2, -1178070.8, -1244072.5, 112011.03, 0.045068048, 0.12482275, -1094300.4, 248320.27, 0.032013185, 10.000767, 10.000151 
2.4879643e+3, 1.7299403e+2, -1340458.9, -1165559.6, 74644.445, 0.100868054, -0.008124634, -1138034.4, 106629.64, 0.0062260167, 9.998695, 10.000879 
2.4876614e+3, 1.829899e+2, -1471726.3, -1427699.8, -96806.94, 0.06478716, 0.020019043, -1350434.8, -203729.05, 0.00043419475, 9.997944, 9.998901 
2.487355e+3, 1.9298618e+2, -879081.1, -1022887.1, -123282.625, -0.013651002, 0.10925525, -808265.3, 240484.33, 0.0000058323185, 10.001231, 9.999308 
2.4870507e+3, 2.0298219e+2, -581584.25, -831026.44, 35049.023, -0.08399992, 0.22663006, -576753.1, 374039.2, 0.000000000090419006, 10.002485, 9.999424 
2.486751e+3, 2.1297821e+2, -671155.0, -689786.6, -5991.844, -0.08871002, 0.18342069, -669394.44, 183432.14, 0.0, 10.0007715, 10.000439 
2.4864517e+3, 2.2297424e+2, -820482.06, -910479.94, -86652.66, -0.050551914, 0.2348137, -767840.94, -12977.188, 0.0, 9.99977, 9.998836 
2.4861535e+3, 2.3296978e+2, -498926.13, -643277.1, -67977.28, 0.16052245, 0.2552919, -471954.2, 184959.52, 0.0, 10.0012245, 9.999211 
2.4858536e+3, 2.4296527e+2, -264837.78, -497631.56, -80488.195, 0.2001078, 0.32410872, -239719.36, 319241.28, 0.0, 10.002089, 9.999203 
2.4855486e+3, 2.5296083e+2, -148899.31, -283078.78, -111432.16, -0.17018187, 0.268073, -85919.22, 375079.5, 0.0, 10.001894, 10.000001 
2.4852464e+3, 2.629555e+2, -223681.36, -484262.38, -39758.836, -0.33980668, 0.23468104, -217750.06, 145296.94, 0.0, 10.001431, 9.998294 
2.4849512e+3, 2.729487e+2, -157352.06, -311011.4, -23658.18, -0.02233636, 0.05829076, -153792.0, 111321.27, 0.0, 10.00103, 9.998886 
2.4846543e+3, 2.8294238e+2, -122877.57, -338172.0, -75644.63, 0.12884441, -0.009285129, -98957.19, 68215.52, 0.0, 10.000787, 9.998273 
2.4843518e+3, 2.9293662e+2, 158750.58, 2664.3013, -144252.39, -0.14733934, -0.13051552, 244718.06, 313939.5, 0.0, 10.001628, 9.9994 
2.4840567e+3, 3.029312e+2, -57336.67, -512876.5, 78652.09, 0.15064493, -0.043089397, -44139.19, -44139.19, 0.0, 10.001496, 9.995714 
2.4837583e+3, 3.1292397e+2, -95927.64, -83819.02, 17774.941, -0.28543335, -0.022137785, -71095.6, -71095.6, 0.0, 9.999246, 9.9996605 
2.4994662e+3, 1.2331413e+2, -1910092.5, -1911394.5, -3907.9917, -0.15128413, 0.13586958, -1906781.6, -175254.16, 0.42027465, 9.998833, 9.999135 
2.4991739e+3, 1.333108e+2, -1791337.0, -1634128.4, 150164.05, 0.18351246, 0.107328966, -1543239.6, 90323.61, 0.30251706, 9.998561, 10.000604 
2.4988708e+3, 1.4330551e+2, -1756925.0, -1492212.3, -86852.44, -0.16298674, -0.072602965, -1466260.3, 69353.02, 0.18302314, 9.997449, 10.001509 
2.4985656e+3, 1.5330519e+2, -1296570.6, -1026747.6, -111593.43, -0.13688022, -0.03845973, -986575.7, 451033.25, 0.08629053, 9.999301, 10.003171 
2.4982615e+3, 1.633027e+2, -1480570.0, -1582147.3, -43505.684, 0.000095982374, 0.03591606, -1464483.9, -124853.65, 0.028287582, 9.99953, 9.9983835 
2.4979582e+3, 1.7329559e+2, -1391866.4, -1472947.9, -66449.89, 0.06131396, -0.16015838, -1354566.6, -112861.984, 0.0050760456, 9.999519, 9.998367 
2.4976557e+3, 1.8329038e+2, -1392033.5, -1431992.3, -37988.867, 0.13530459, -0.07567143, -1369090.5, -225329.7, 0.00028139996, 9.998843, 9.998395 
2.4973543e+3, 1.9328901e+2, -899688.1, -964686.1, -39113.098, 0.22409539, 0.1904529, -881334.25, 164444.78, 0.0000014559199, 10.000977, 9.999768 
2.497052e+3, 2.0328501e+2, -929651.75, -1253210.5, -17331.738, 0.24361183, 0.3719533, -928726.06, 19095.598, 0.0, 10.001339, 9.997062 
2.4967486e+3, 2.132763e+2, -905529.75, -1046736.1, -68669.81, 0.03657599, 0.06739901, -877642.56, -27735.8, 0.0, 10.000418, 9.998098 
2.4964473e+3, 2.2326922e+2, -977543.44, -1032482.94, -48559.12, -0.040027793, -0.026650473, -949222.7, -197248.6, 0.0, 9.999045, 9.9983425 
2.4961498e+3, 2.3326465e+2, -551317.9, -587961.8, -6434.297, 0.10890948, -0.08801035, -550220.94, 103794.484, 0.0, 10.000635, 9.999833 
2.495851e+3, 2.432605e+2, -541401.4, -699028.56, -90816.02, 0.1990459, -0.004527824, -499968.84, 56084.754, 0.0, 10.000581, 9.998535 
2.4955489e+3, 2.5325656e+2, -316131.72, -397943.1, -122621.484, 0.12473986, 0.0069555026, -227772.92, 230317.9, 0.0, 10.001014, 9.999592 
2.4952468e+3, 2.6325187e+2, -478527.56, -678408.0, -60643.918, -0.02052136, 0.0933955, -461567.28, -101431.34, 0.0, 10.000132, 9.997559 
2.4949466e+3, 2.7324525e+2, -258204.05, -384083.84, -20695.744, -0.17961246, -0.06538998, -254888.8, 7313.0557, 0.0, 10.000502, 9.998624 
2.4946477e+3, 2.8323942e+2, -394282.78, -605059.6, -75806.25, -0.21895581, -0.010218945, -369850.9, -205590.13, 0.0, 9.999657, 9.99695 
2.4943493e+3, 2.932352e+2, -40375.92, -205621.2, -100388.9, -0.14739963, 0.09539789, 7018.481, 73323.78, 0.0, 10.00084, 9.9983015 
2.4940534e+3, 3.0323014e+2, -157997.75, -352547.78, -8225.461, 0.028676866, 0.21498986, -157650.6, -157650.6, 0.0, 10.000088, 9.997452 
2.4937554e+3, 3.1322238e+2, -264659.34, 18181.43, 76840.695, -0.24214661, -0.11295599, 37708.918, 37708.918, 0.0, 9.997606, 10.001053 
2.509466e+3, 1.2360766e+2, -1798906.9, -2085247.6, -60218.54, 0.043644868, -0.28252247, -1786758.1, -58110.016, 0.39734322, 10.000475, 9.997152 
2.509167e+3, 1.336124e+2, -1622194.4, -1369285.3, 50913.984, 0.03932395, 0.27362856, -1359420.4, 271187.75, 0.28406283, 9.998432, 10.003026 
2.5088653e+3, 1.4360681e+2, -1952159.9, -1569635.0, -82542.734, -0.05528925, -0.06709123, -1552583.6, -19920.389, 0.16993596, 9.996048, 10.001547 
2.5085607e+3, 1.5360638e+2, -1623104.0, -1241777.1, -164286.22, -0.005815515, 0.013726105, -1180761.3, 253900.69, 0.078587286, 9.997219, 10.002592 
2.5082576e+3, 1.6360398e+2, -1543651.8, -1553072.1, -99219.18, 0.042595807, 0.108179934, -1449031.0, -112348.336, 0.024857625, 9.998778, 9.998951 
2.5079557e+3, 1.7359751e+2, -901575.94, -1176709.6, -17150.111, 0.058357883, -0.062000345, -900511.0, 338237.5, 0.0041356636, 10.002592, 9.998952 
2.5076532e+3, 1.835922e+2, -625741.5, -1008031.5, -47572.305, 0.050751965, -0.03020369, -619910.5, 520893.13, 0.00018434241, 10.003791, 9.998938 
2.5073507e+3, 1.9358954e+2, -745567.0, -913885.94, -55453.613, 0.12751132, 0.13545442, -728940.0, 313892.72, 0.00000026313862, 10.002038, 9.999669 
2.507048e+3, 2.0358497e+2, -906256.1, -1235279.0, -8954.202, 0.098783776, 0.28087315, -906012.6, 38867.137, 0.0, 10.001376, 9.997196 
2.5067452e+3, 2.1357661e+2, -559555.6, -956013.94, 17524.693, -0.075742856, 0.087390184, -558782.5, 288180.2, 0.0, 10.0030155, 9.997548 
2.5064445e+3, 2.2356921e+2, -291754.88, -684943.2, 61268.875, -0.092297055, 0.005065056, -282428.8, 466604.7, 0.0, 10.003473, 9.998667 
2.506148e+3, 2.3356351e+2, -384024.78, -545904.8, 40265.0, 0.18372889, -0.12886198, -374562.63, 276520.16, 0.0, 10.001756, 9.999669 
2.505849e+3, 2.4355853e+2, -508362.44, -694006.3, -49920.617, 0.28767937, -0.09884788, -495789.97, 57337.82, 0.0, 10.000747, 9.998511 
2.5055462e+3, 2.5355393e+2, -287984.78, -458482.22, -108283.09, 0.13840832, -0.07040406, -235419.97, 219754.02, 0.0, 10.001423, 9.999038 
2.5052443e+3, 2.635491e+2, -224118.77, -505676.34, -66604.65, 0.027811086, 0.025800692, -209157.89, 148065.0, 0.0, 10.00156, 9.998083 
2.5049442e+3, 2.7354327e+2, -221637.28, -372432.16, -51448.61, -0.045222122, -0.031495366, -205756.39, 53525.434, 0.0, 10.0007, 9.998671 
2.5046447e+3, 2.8353792e+2, -292513.2, -554442.8, -14986.768, -0.11518603, 0.08588457, -291658.47, -130319.9, 0.0, 10.000188, 9.997074 
2.504346e+3, 2.9353344e+2, -65031.273, -308585.47, -22845.273, -0.17014174, 0.22413214, -62906.926, 483.70074, 0.0, 10.000816, 9.997707 
2.5040498e+3, 3.0352896e+2, 4758.659, -134446.48, 27740.523, 0.025102632, 0.39772716, 10083.083, 10083.083, 0.0, 10.000419, 9.998828 
2.5037545e+3, 3.1352237e+2, -28497.225, 228446.45, -60548.992, 0.27781942, 0.05519777, 241999.94, 241999.94, 0.0, 9.998543, 10.0021 
2.5194612e+3, 1.2390854e+2, -2097125.9, -2306291.8, -18672.723, -0.088498026, -0.105506085, -2095472.0, -369772.78, 0.3720952, 9.998821, 9.996387 
2.5191587e+3, 1.3391407e+2, -1528120.4, -1170654.1, -4678.739, -0.20150408, 0.35480884, -1170592.9, 457060.38, 0.26429757, 9.99848, 10.004752 
2.51886e+3, 1.439091e+2, -1870286.9, -1634636.0, -95207.234, 0.24017565, 0.026279686, -1600977.9, -71273.12, 0.15642525, 9.997234, 10.000433 
2.5185558e+3, 1.5390754e+2, -1571546.3, -1360788.4, -153169.97, 0.21867245, 0.10476001, -1280248.6, 151469.95, 0.071005836, 9.998445, 10.001007 
2.518254e+3, 1.6390479e+2, -1483297.6, -1450502.3, 23186.031, 0.23422879, 0.24474984, -1438501.4, -104757.85, 0.021693112, 9.999042, 9.999497 
2.5179547e+3, 1.7389978e+2, -1032658.7, -1056017.8, 62365.938, 0.12745136, 0.076851726, -980888.1, 254902.86, 0.00335279, 10.001129, 10.000423 
2.5176522e+3, 1.8389483e+2, -965046.2, -1236506.3, -143155.86, 0.037586715, 0.08757662, -903504.2, 234334.89, 0.00011963712, 10.001805, 9.998298 
2.517346e+3, 1.9388944e+2, -847288.9, -1023957.56, -172991.05, -0.06757002, -0.00632973, -741384.0, 298509.4, 0.00000002568285, 10.001627, 9.9990635 
2.5170425e+3, 2.0388426e+2, -1008521.75, -1336021.5, 10033.39, -0.15509191, 0.12160032, -1008214.7, -66269.44, 0.0, 10.000955, 9.996689 
2.5167415e+3, 2.1387841e+2, -707459.44, -1018371.4, 36282.418, -0.28186467, 0.14360845, -703281.5, 140721.61, 0.0, 10.001987, 9.997582 
2.5164428e+3, 2.2387221e+2, -666728.06, -974162.2, -5299.7827, -0.14449073, 0.22071101, -666636.75, 79425.5, 0.0, 10.001543, 9.997546 
2.5161466e+3, 2.3386532e+2, -560266.7, -710982.4, -44183.684, 0.33181298, 0.014066809, -548268.94, 99855.67, 0.0, 10.001033, 9.998825 
2.5158468e+3, 2.4385895e+2, -773112.44, -985671.5, -63564.848, 0.41553268, 0.024576742, -755554.06, -205368.86, 0.0, 9.999786, 9.996947 
2.5155407e+3, 2.5385267e+2, -479100.28, -661594.44, -85972.266, -0.1027591, -0.038970508, -444978.88, 7270.981, 0.0, 10.000707, 9.997953 
2.515239e+3, 2.6384735e+2, -465477.66, -678863.56, -105849.92, -0.22221589, 0.10165406, -421878.9, -67573.516, 0.0, 10.000311, 9.997447 
2.514944e+3, 2.7384278e+2, -342038.97, -417722.8, -81816.16, 0.2711657, 0.13126902, -289737.16, -33382.61, 0.0, 9.999971, 9.998628 
2.5146452e+3, 2.8383732e+2, -454475.7, -618153.5, -15869.9, 0.29586276, 0.23644027, -452951.2, -294538.53, 0.0, 9.999206, 9.997058 
2.5143415e+3, 2.9383093e+2, -134987.78, -291641.53, 35104.87, -0.30937356, 0.13463737, -127480.79, -67000.38, 0.0, 10.0002775, 9.998026 
2.514044e+3, 3.038278e+2, -156317.48, -262558.7, -31248.299, -0.2530945, 0.45018366, -147808.11, -147808.11, 0.0, 9.999696, 9.998244 
2.5137484e+3, 3.1382212e+2, -244759.08, 53939.277, 6603.5454, 0.026242683, 0.22928055, 54085.195, 54085.195, 0.0, 9.997565, 10.001305 
2.5294575e+3, 1.24215916e+2, -2085021.5, -1863493.1, 24230.605, 0.042433232, 0.026408589, -1860873.9, -138182.44, 0.34545994, 9.996993, 10.000322 
2.5291526e+3, 1.3421592e+2, -1659125.9, -1463421.9, 84494.1, -0.29026946, 0.21605718, -1431990.3, 192706.98, 0.24384509, 9.998699, 10.001945 
2.5288555e+3, 1.4421158e+2, -1616539.5, -1594234.6, -38709.664, 0.21916327, 0.1544928, -1565102.9, -38360.957, 0.14280653, 9.999295, 9.999718 
2.528552e+3, 1.5420817e+2, -1181219.6, -1243636.9, -53022.703, 0.16339523, 0.13977772, -1150902.8, 277870.0, 0.06363834, 10.001501, 10.000379 
2.5282502e+3, 1.6420417e+2, -1157214.8, -1349484.4, 6496.332, 0.14999774, 0.21615978, -1156995.5, 173816.33, 0.0187796, 10.00142, 9.9990835 
2.5279498e+3, 1.7419863e+2, -1360853.0, -1303548.6, -27085.97, 0.079452276, 0.07409907, -1292772.4, -59904.285, 0.0026956536, 9.999067, 9.999795 
2.527648e+3, 1.8419392e+2, -1383506.5, -1453267.9, -194400.16, -0.025989257, 0.15012664, -1220882.5, -85965.99, 0.00007576087, 9.99894, 9.99819 
2.5273442e+3, 1.9418955e+2, -713421.1, -1023239.94, -227245.33, -0.09047503, 0.2187248, -593308.06, 443654.84, 0.00000000011876218, 10.002716, 9.998585 
2.5270417e+3, 2.0418409e+2, -533111.06, -983094.5, -156131.52, -0.121969365, 0.2925622, -484244.53, 454770.9, 0.0, 10.003589, 9.99785 
2.5267404e+3, 2.14177e+2, -782848.7, -985795.7, -103278.67, -0.12304657, 0.12915184, -739534.9, 101543.92, 0.0, 10.001021, 9.99833 
2.526441e+3, 2.2417064e+2, -805538.56, -1013777.5, -54724.297, -0.03473816, 0.13562022, -792033.1, -48895.168, 0.0, 10.000373, 9.997839 
2.5261435e+3, 2.3416469e+2, -313143.34, -659612.1, -78728.92, 0.24674049, 0.08843525, -296092.7, 349103.34, 0.0, 10.002881, 9.998353 
2.5258434e+3, 2.4415873e+2, -147500.11, -586878.9, -104423.266, 0.27584937, 0.13227578, -123945.484, 423308.72, 0.0, 10.003512, 9.997915 
2.525538e+3, 2.541527e+2, -286237.22, -534471.25, -52265.33, -0.1045672, 0.071187235, -275681.7, 173632.44, 0.0, 10.001751, 9.99837 
2.5252363e+3, 2.641473e+2, -370084.5, -614611.06, 2378.5952, -0.1721107, 0.18587348, -370061.38, -18691.262, 0.0, 10.000716, 9.997736 
2.5249407e+3, 2.741423e+2, -245988.0, -416312.88, -32350.45, 0.31624886, 0.23547722, -240050.53, 13374.88, 0.0, 10.000656, 9.998368 
2.524642e+3, 2.8413668e+2, -198067.05, -369862.7, 76518.195, 0.39364222, 0.29961684, -168928.05, -13443.934, 0.0, 10.000379, 9.998179 
2.5243387e+3, 2.9412985e+2, -95214.96, -195238.05, 94428.35, -0.22069323, 0.09455379, -38372.08, 19179.23, 0.0, 10.000162, 9.998765 
2.5240406e+3, 3.0412614e+2, -143927.98, -334118.63, 29108.305, -0.18187732, 0.36507612, -139572.75, -139572.75, 0.0, 10.000038, 9.997622 
2.523745e+3, 3.1412393e+2, -21843.469, 42420.293, -55027.656, 0.24859776, 0.6466596, 74010.47, 74010.47, 0.0, 9.999471, 10.000401 
2.5394496e+3, 1.2452405e+2, -2002281.3, -1666571.4, -11777.673, -0.029825857, 0.29027933, -1666158.6, 53516.78, 0.31815657, 9.996952, 10.001794 
2.5391486e+3, 1.3451797e+2, -1834942.4, -1831593.4, 27975.883, -0.08373914, 0.10595592, -1805241.9, -183502.95, 0.22319712, 9.998968, 9.998863 
2.53885e+3, 1.445136e+2, -1592043.1, -1663283.0, -610.8713, 0.17954345, 0.24087575, -1592037.9, -68255.664, 0.12934339, 9.999847, 9.998978 
2.5385487e+3, 1.545087e+2, -1294193.1, -1374365.0, -37162.33, 0.10615363, 0.11723623, -1279617.1, 146209.36, 0.05657354, 10.00101, 9.999689 
2.538247e+3, 1.6450346e+2, -1383018.8, -1610666.4, -86326.5, 0.11501111, 0.185087, -1353985.5, -26106.008, 0.016116831, 10.000605, 9.99764 
2.5379443e+3, 1.7449695e+2, -1370109.8, -1459558.0, -136807.19, 0.043579236, 0.042738456, -1270901.8, -40950.797, 0.0021455006, 9.999697, 9.998388 
2.5376427e+3, 1.844926e+2, -1393161.5, -1565337.4, -58373.094, 0.0038685608, 0.27724528, -1375237.1, -243236.44, 0.000046550977, 9.999404, 9.997191 
2.5373435e+3, 1.9449021e+2, -896038.2, -1190808.6, -71306.31, 0.020895336, 0.59209305, -879695.0, 154335.89, 0.0, 10.00186, 9.997845 
2.537043e+3, 2.044844e+2, -735843.06, -998436.1, -210776.39, 0.124654904, 0.6550663, -618814.25, 317270.28, 0.0, 10.002004, 9.998439 
2.5367406e+3, 2.1447398e+2, -833132.75, -881528.5, -205468.03, 0.23647168, 0.01753868, -650442.6, 187729.45, 0.0, 10.000273, 9.999337 
2.5364396e+3, 2.2446668e+2, -994728.56, -1165192.1, 21097.994, 0.20004517, -0.08745319, -992156.1, -251917.3, 0.0, 9.999479, 9.997198 
2.5361395e+3, 2.344625e+2, -526613.5, -788809.6, 26938.326, -0.036730364, 0.049044386, -523874.47, 118412.13, 0.0, 10.001681, 9.997983 
2.5358385e+3, 2.4445862e+2, -337653.0, -566330.25, -165322.1, -0.06337892, 0.28390807, -250982.39, 293343.5, 0.0, 10.001905, 9.998767 
2.5355366e+3, 2.5445405e+2, -334526.3, -402493.63, -111231.31, 0.049984436, 0.20412643, -252203.1, 194162.28, 0.0, 10.000861, 9.999649 
2.535235e+3, 2.6444876e+2, -608201.3, -818788.06, -14701.944, 0.04382043, 0.3098448, -607179.9, -258761.31, 0.0, 9.999627, 9.996809 
2.534934e+3, 2.7444243e+2, -416679.97, -568014.5, -18176.176, -0.005723064, 0.25745738, -414527.5, -164038.17, 0.0, 9.999899, 9.997656 
2.5346348e+3, 2.8443688e+2, -314536.9, -388159.9, 55057.008, -0.0018286972, 0.36070663, -285118.8, -132573.94, 0.0, 9.999528, 9.998448 
2.534337e+3, 2.944306e+2, -139614.69, -128172.516, 117979.65, -0.03714966, 0.11194441, -15775.314, 38822.64, 0.0, 9.999568, 9.999489 
2.5340393e+3, 3.0442384e+2, -374543.0, -561477.94, 25257.607, 0.06453015, 0.10069488, -371190.47, -371190.47, 0.0, 9.999113, 9.996461 
2.5337407e+3, 3.1442156e+2, -151907.55, 9327.968, 37117.91, 0.14606212, 0.4666442, 17462.46, 17462.46, 0.0, 9.998564, 10.00059 
2.5494432e+3, 1.24818295e+2, -1918785.6, -1775682.9, 315388.0, -0.23926896, -0.20933534, -1523831.8, 192956.94, 0.29081753, 9.99821, 10.00067 
2.5491473e+3, 1.3481836e+2, -1497694.4, -1570990.3, 80557.01, 0.105809346, 0.12519903, -1445840.9, 172950.9, 0.2027681, 10.000997, 9.999807 
2.5488454e+3, 1.4481391e+2, -1339472.0, -1581445.9, -30089.973, -0.09841333, 0.23147695, -1335786.4, 185051.28, 0.11625642, 10.0019, 9.9985695 
2.5485444e+3, 1.5480776e+2, -1382879.1, -1505037.3, -64965.348, 0.008912954, 0.05860781, -1354789.0, 68108.914, 0.04988728, 10.000633, 9.998998 
2.5482434e+3, 1.6480239e+2, -1389513.8, -1625297.1, -62216.3, 0.05117617, 0.16188668, -1374103.8, -49149.09, 0.013707004, 10.000591, 9.997554 
2.5479418e+3, 1.7479707e+2, -911264.0, -1289368.6, -57380.492, 0.01621969, 0.20196587, -902747.9, 324267.8, 0.0016894786, 10.003032, 9.997976 
2.5476405e+3, 1.8479246e+2, -726754.2, -1077353.6, -754.03784, -0.04819444, 0.36818293, -726752.56, 402311.47, 0.000027889511, 10.003194, 9.998725 
2.5473398e+3, 1.9478849e+2, -928252.7, -1086531.6, 76753.74, -0.09572447, 0.43607914, -897146.1, 133954.77, 0.0, 10.001054, 9.998987 
2.547039e+3, 2.0478259e+2, -965973.06, -1142735.8, -54762.26, -0.010382613, 0.45784938, -950382.44, -17226.68, 0.0, 10.000466, 9.998209 
2.5467375e+3, 2.1477358e+2, -638537.56, -889255.7, -129148.71, 0.20136547, 0.07269563, -583912.5, 251326.69, 0.0, 10.001901, 9.998551 
2.5464362e+3, 2.2476707e+2, -573914.56, -809251.2, 67059.91, 0.20438328, 0.02451516, -556147.06, 181154.3, 0.0, 10.001632, 9.998628 
2.546136e+3, 2.3476312e+2, -745848.25, -806691.8, 135412.53, -0.029875055, 0.124376096, -637482.3, 1861.3577, 0.0, 9.999702, 9.998865 
2.5458354e+3, 2.4475926e+2, -580261.94, -614500.25, -22767.137, -0.06990214, 0.29250374, -568895.9, -27514.7, 0.0, 9.999762, 9.99955 
2.5455344e+3, 2.547548e+2, -171472.66, -318134.2, -63647.066, 0.105300315, 0.23701955, -147703.73, 295715.84, 0.0, 10.001749, 9.999909 
2.5452322e+3, 2.647493e+2, -205935.83, -560540.3, -3751.6384, 0.09199072, 0.2853451, -205896.14, 139577.55, 0.0, 10.002026, 9.997465 
2.544929e+3, 2.7474248e+2, -295511.16, -521100.7, 7111.5415, -0.11157063, 0.21539336, -295287.22, -47740.098, 0.0, 10.000675, 9.997678 
2.5446293e+3, 2.8473693e+2, -161740.48, -240299.94, 157074.3, -0.12709296, 0.29069185, -39109.023, 110492.27, 0.0, 10.000081, 9.999269 
2.544333e+3, 2.9473165e+2, 8141.674, -29724.127, 123471.03, 0.02265117, 0.13599415, 114122.945, 165766.77, 0.0, 10.000331, 9.999877 
2.5440365e+3, 3.0472517e+2, -156420.75, -346586.0, 60456.844, 0.27213106, 0.084445484, -138828.02, -138828.02, 0.0, 9.999959, 9.99761 
2.5437325e+3, 3.1471977e+2, -325653.94, -228896.2, 19229.898, -0.09727325, 0.11901171, -225214.5, -225214.5, 0.0, 9.9978, 9.99942 
2.5594407e+3, 1.2512001e+2, -1966880.8, -1643721.4, -244642.28, 0.0861628, 0.03634452, -1512115.4, 201713.39, 0.26403108, 9.997295, 10.001994 
2.5591448e+3, 1.351186e+2, -1622265.9, -1563439.0, 74842.91, 0.19620909, 0.13491145, -1512437.1, 103409.09, 0.18292536, 9.999771, 10.000445 
2.5588417e+3, 1.4511424e+2, -1614115.8, -1800646.0, -148865.47, -0.19428053, 0.2702718, -1531712.6, -13819.419, 0.1037245, 10.00025, 9.9978285 
2.5585404e+3, 1.5510681e+2, -1491179.8, -1651807.5, -188776.4, -0.021277156, 0.0011685512, -1366342.9, 53628.098, 0.043632858, 10.000324, 9.998118 
2.5582397e+3, 1.6510165e+2, -1423361.9, -1644294.8, 6759.462, 0.07825526, 0.17518009, -1423155.3, -101127.445, 0.011545959, 10.0005045, 9.997406 
2.5579408e+3, 1.7509799e+2, -1105627.4, -1407459.5, 4332.601, 0.051849704, 0.3730486, -1105565.1, 118506.52, 0.0013158798, 10.001915, 9.997655 
2.557639e+3, 1.8509282e+2, -819230.1, -921729.44, -97075.625, -0.06260159, 0.41641542, -760706.4, 365411.78, 0.000016496271, 10.001863, 10.000393 
2.5573346e+3, 1.950856e+2, -929430.25, -921343.06, -76984.18, -0.27492878, -0.03215101, -848296.3, 179876.75, 0.0, 10.000444, 10.000398 
2.5570327e+3, 2.0508005e+2, -1206248.1, -1442536.9, -65881.86, -0.23714976, 0.05236158, -1189120.5, -258893.67, 0.0, 9.999773, 9.996452 
2.5567326e+3, 2.150752e+2, -976088.3, -1242799.1, -100300.086, -0.016080005, 0.2219663, -942579.2, -110292.07, 0.0, 10.000562, 9.996736 
2.5564328e+3, 2.250706e+2, -690490.6, -715168.44, -10323.977, 0.13854127, 0.40344688, -686741.25, 47593.773, 0.0, 10.000317, 9.999854 
2.5561333e+3, 2.3506555e+2, -801014.06, -678820.1, 42191.96, 0.17722486, 0.21153663, -665667.5, -29289.09, 0.0, 9.998761, 10.000148 
2.555833e+3, 2.4506065e+2, -808638.2, -812945.9, 24767.666, 0.1511323, 0.2548788, -785930.9, -247507.86, 0.0, 9.998715, 9.998634 
2.5555307e+3, 2.5505504e+2, -400285.44, -533807.25, 3873.8247, 0.018611256, 0.13098802, -400173.13, 40303.33, 0.0, 10.000763, 9.998858 
2.5552285e+3, 2.6504925e+2, -361712.44, -581990.94, -71613.77, -0.048786044, 0.20076303, -340477.47, 2054.3928, 0.0, 10.000912, 9.9977665 
2.5549257e+3, 2.7504224e+2, -363343.34, -504470.2, -21484.414, -0.07304454, 0.019454194, -360145.16, -115544.82, 0.0, 10.000112, 9.9980135 
2.5546256e+3, 2.8503668e+2, -288018.25, -341972.47, 148182.0, -0.13742602, 0.10206208, -164377.73, -17722.963, 0.0, 9.999519, 9.998786 
2.5543272e+3, 2.9503277e+2, -123604.43, -177217.05, 142689.52, -0.23981409, 0.11166786, -5225.0684, 43467.723, 0.0, 9.999862, 9.999046 
2.5540313e+3, 3.050301e+2, -146949.98, -194097.48, -48905.19, 0.13612133, 0.43847352, -116233.41, -116233.41, 0.0, 9.999591, 9.998727 
2.553729e+3, 3.150212e+2, -363827.1, -178219.11, 89564.76, 0.07335362, -0.05786001, -142048.58, -142048.58, 0.0, 9.997475, 9.999822 
2.5694352e+3, 1.2541527e+2, -2037926.9, -1850887.3, 133946.88, 0.10515707, -0.03851647, -1781043.3, -70098.65, 0.23823552, 9.997475, 10.000163 
2.5691378e+3, 1.3541435e+2, -1924150.9, -1726982.9, -48102.746, 0.039741684, 0.14298107, -1715873.4, -102917.28, 0.16394834, 9.997718, 10.000214 
2.568838e+3, 1.4541054e+2, -1837963.5, -1766458.5, -202310.2, -0.106011316, 0.27103114, -1596766.0, -81768.734, 0.09188186, 9.998058, 9.999142 
2.568538e+3, 1.5540674e+2, -1350445.8, -1481463.5, -162466.45, 0.061790664, 0.27578822, -1240778.3, 176261.03, 0.03784501, 10.000779, 9.999132 
2.5682372e+3, 1.6540205e+2, -1203447.0, -1419834.8, -32430.871, 0.05296145, 0.38724554, -1198691.0, 120397.11, 0.009625426, 10.001466, 9.998497 
2.5679362e+3, 1.7539614e+2, -1257993.3, -1413707.8, 23234.453, -0.15072495, 0.30825007, -1254600.4, -33452.926, 0.0010124295, 10.000487, 9.998344 
2.5676343e+3, 1.8539028e+2, -1087212.6, -1148101.3, -148767.84, -0.2522788, 0.29394287, -965805.94, 157394.84, 0.000009793076, 10.00036, 9.999594 
2.5673318e+3, 1.9538367e+2, -881385.6, -1018343.25, -226307.92, -0.23532408, 0.033859473, -713422.9, 311832.44, 0.0, 10.0011635, 9.999438 
2.5670302e+3, 2.0537856e+2, -901931.94, -1126008.4, -229965.1, -0.13546729, 0.10705911, -758164.56, 169141.05, 0.0, 10.001012, 9.998066 
2.5667298e+3, 2.153745e+2, -925274.94, -1099958.8, -121496.37, 0.06890751, 0.26244393, -862984.06, -33628.6, 0.0, 10.000251, 9.997933 
2.566429e+3, 2.2537047e+2, -642363.06, -635130.1, -14505.918, 0.13016316, 0.4052961, -623796.6, 107599.984, 0.0, 10.0002365, 10.00049 
2.5661284e+3, 2.3536572e+2, -492961.3, -531978.6, -38605.535, 0.10158455, 0.24669686, -469215.2, 164221.55, 0.0, 10.000672, 10.000318 
2.565828e+3, 2.4536052e+2, -486003.5, -653558.06, -35766.215, 0.06276507, 0.24423951, -478688.22, 56796.445, 0.0, 10.000844, 9.998702 
2.565527e+3, 2.5535455e+2, -383277.78, -569591.75, -59962.613, -0.027412936, 0.14203502, -365647.84, 71895.25, 0.0, 10.000965, 9.998545 
2.5652257e+3, 2.653488e+2, -288206.88, -451393.3, -159748.16, -0.03668586, 0.16902225, -190420.81, 149176.58, 0.0, 10.000877, 9.998687 
2.5649235e+3, 2.753422e+2, -216055.98, -370268.72, -139681.64, 0.069820896, -0.010837248, -133611.89, 108045.56, 0.0, 10.0007305, 9.998632 
2.5646225e+3, 2.8533688e+2, -197926.48, -290576.0, 69523.98, -0.007122771, 0.042304557, -160707.44, -16998.945, 0.0, 10.000029, 9.998886 
2.5643227e+3, 2.953329e+2, -296551.06, -307242.16, 59366.07, -0.21842742, 0.0951095, -242290.36, -196541.45, 0.0, 9.998765, 9.9987 
2.5640255e+3, 3.053305e+2, -177381.16, -172524.69, -68017.664, 0.06345831, 0.4388592, -106891.93, -106891.93, 0.0, 9.999067, 9.999179 
2.5637236e+3, 3.1532466e+2, 50815.86, 57607.977, 43370.86, 0.02241059, 0.26705894, 97715.54, 97715.54, 0.0, 9.999912, 10.000339 
2.57943e+3, 1.2571429e+2, -1994942.8, -1823460.9, -15004.57, 0.13252273, 0.495059, -1822157.9, -114133.3, 0.21373183, 9.997764, 10.0001545 
2.5791314e+3, 1.3570923e+2, -1773986.8, -1640548.0, -96930.555, -0.0051684882, 0.17169867, -1589594.1, 20481.896, 0.14603193, 9.998672, 10.000353 
2.578834e+3, 1.4570624e+2, -1650002.8, -1499358.6, -97812.445, 0.11453479, 0.29241198, -1451227.5, 60880.453, 0.080827504, 9.998684, 10.000664 
2.5785363e+3, 1.5570699e+2, -1426900.9, -1389728.6, -109126.78, 0.24686962, 0.5999672, -1297616.5, 116487.68, 0.032553293, 9.999774, 10.00021 
2.5782344e+3, 1.6570261e+2, -1300318.0, -1362671.6, -77484.09, 0.076183245, 0.6480997, -1247973.8, 68171.43, 0.007938516, 10.000418, 9.999333 
2.5779298e+3, 1.7569344e+2, -1296259.8, -1374448.3, -63670.66, -0.37558392, 0.12045541, -1260639.1, -42410.242, 0.00076767127, 10.000048, 9.998774 
2.5776288e+3, 1.8568717e+2, -1276610.6, -1471553.6, -124346.29, -0.3729348, 0.1626607, -1216086.3, -95796.38, 0.000005913737, 10.000186, 9.997399 
2.5773305e+3, 1.9568266e+2, -1168441.5, -1380700.1, -188830.64, -0.02660178, 0.29472, -1057959.5, -35622.305, 0.0, 10.000319, 9.997288 
2.57703e+3, 2.0567797e+2, -877723.25, -865931.8, -226110.72, 0.20135583, 0.40924242, -645639.94, 278742.84, 0.0, 10.000204, 10.000195 
2.576728e+3, 2.1567243e+2, -931256.9, -882997.25, -152736.56, 0.31871536, 0.15110458, -752496.2, 73938.84, 0.0, 9.999338, 9.999829 
2.576425e+3, 2.2566848e+2, -859539.3, -786733.6, -8293.906, 0.16828793, 0.24201636, -785800.75, -57328.273, 0.0, 9.999187, 9.999876 
2.5761217e+3, 2.3566484e+2, -741589.8, -735536.3, -29189.104, -0.1821083, 0.2267761, -709217.44, -78710.7, 0.0, 9.999536, 9.999403 
2.5758216e+3, 2.4566008e+2, -662311.94, -762933.1, -37869.547, -0.24018337, 0.3394031, -649652.25, -117099.31, 0.0, 9.999902, 9.998347 
2.5755233e+3, 2.5565362e+2, -574526.75, -710865.5, -46068.875, -0.09793764, 0.18173195, -560419.75, -125803.47, 0.0, 9.9999895, 9.998008 
2.5752228e+3, 2.6564834e+2, -406047.63, -455980.13, -173680.8, 0.053553388, 0.2647837, -255547.83, 81117.86, 0.0, 9.999953, 9.999083 
2.5749213e+3, 2.756434e+2, -350649.28, -414648.6, -128139.98, 0.2128377, 0.17898162, -250573.84, -11864.579, 0.0, 9.999836, 9.9987335 
2.5746202e+3, 2.8563786e+2, -275874.72, -267180.6, 25326.338, 0.16343029, 0.18754695, -245830.95, -105072.086, 0.0, 9.999349, 9.999333 
2.574319e+3, 2.9563105e+2, -384995.88, -331913.9, 67145.12, -0.09531988, -0.11310549, -286254.56, -243433.47, 0.0, 9.998169, 9.998803 
2.5740194e+3, 3.056262e+2, -262866.66, -230284.44, 8918.8955, -0.052114278, 0.0025417854, -228002.8, -228002.8, 0.0, 9.998662, 9.9989395 
2.57372e+3, 3.156207e+2, 131335.88, 351342.75, 96529.33, -0.07196825, -0.14147642, 387690.5, 387690.5, 0.0, 9.999498, 10.002537 
2.589423e+3, 1.2600857e+2, -1716584.5, -1542931.5, 18049.145, -0.16272657, 0.315907, -1541075.4, 164066.63, 0.19077115, 9.998858, 10.00184 
2.5891283e+3, 1.3600612e+2, -1469015.8, -1456871.6, 14784.257, 0.070517905, 0.25184515, -1446961.0, 160205.39, 0.12932457, 10.000629, 10.000856 
2.5888303e+3, 1.4600258e+2, -1397043.0, -1303660.3, -91387.266, 0.123647295, 0.25615406, -1247727.5, 261473.73, 0.07062259, 10.000056, 10.001455 
2.5885293e+3, 1.5600154e+2, -1526052.5, -1377962.4, -74778.59, 0.034234524, 0.35257146, -1346771.9, 64439.43, 0.027766839, 9.99874, 10.00082 
2.5882283e+3, 1.6599788e+2, -1430741.3, -1387872.4, -48091.85, -0.13365558, 0.42232186, -1356654.6, -43408.477, 0.0064744665, 9.999252, 9.999769 
2.587927e+3, 1.759914e+2, -1143334.1, -1271817.0, -48595.95, -0.33157864, 0.1616393, -1127024.3, 88283.06, 0.0005723583, 10.000819, 9.9991665 
2.5876266e+3, 1.8598618e+2, -1027150.3, -1215570.8, -118576.68, -0.2737365, 0.2168989, -969914.2, 147444.4, 0.0000035552432, 10.001237, 9.998672 
2.587327e+3, 1.9598149e+2, -1025544.44, -1213165.4, -30088.56, -0.03187419, 0.26667637, -1020837.25, -1430.367, 0.0, 10.000712, 9.998309 
2.5870255e+3, 2.0597677e+2, -784588.25, -789188.25, -88128.67, 0.09467571, 0.3168421, -698729.56, 222723.16, 0.0, 10.00063, 10.000555 
2.5867227e+3, 2.1597165e+2, -675633.44, -756175.8, -109860.13, 0.1621229, 0.1425995, -598896.0, 224604.19, 0.0, 10.000931, 10.000005 
2.5864202e+3, 2.2596763e+2, -597283.94, -687739.3, -9012.763, 0.057407837, 0.22409236, -596394.7, 129144.86, 0.0, 10.001003, 9.999705 
2.5861183e+3, 2.3596403e+2, -539262.3, -685936.0, -20906.217, -0.1806425, 0.28749534, -536340.7, 91235.97, 0.0, 10.001005, 9.999082 
2.5858185e+3, 2.4595894e+2, -415646.75, -557571.1, -20242.191, -0.17414854, 0.33171305, -412816.13, 116809.305, 0.0, 10.001104, 9.99922 
2.585521e+3, 2.5595227e+2, -350811.66, -533653.4, -2749.103, 0.027603045, 0.12717466, -350770.34, 80917.53, 0.0, 10.00112, 9.998714 
2.58522e+3, 2.659475e+2, -188394.31, -302046.3, -103228.27, 0.10206391, 0.19833477, -127384.54, 206348.06, 0.0, 10.001136, 9.999603 
2.584917e+3, 2.759436e+2, -141635.45, -294543.84, -96140.914, 0.14955766, 0.238891, -95255.13, 140512.8, 0.0, 10.001039, 9.999055 
2.5846162e+3, 2.8593832e+2, -5220.196, -46777.38, 21113.344, 0.15869634, 0.20773472, 3624.2305, 141437.7, 0.0, 10.0007105, 10.000232 
2.5843152e+3, 2.959311e+2, -92440.06, -152730.45, 5352.514, 0.036333915, -0.17278868, -91968.555, -52092.832, 0.0, 9.999872, 9.999268 
2.5840148e+3, 3.059247e+2, -183843.31, -198794.22, -14713.341, 0.013920283, -0.22817418, -174815.28, -174815.28, 0.0, 9.999233, 9.998891 
2.583719e+3, 3.1592324e+2, -127325.37, 327096.16, -131768.19, 0.35427552, 0.089880615, 362540.28, 362540.28, 0.0, 9.997165, 10.003556 
2.5994188e+3, 1.2630531e+2, -1592586.8, -1610023.9, 156668.92, -0.17064439, 0.17798224, -1444394.0, 257838.97, 0.16949552, 10.000639, 10.000429 
2.599126e+3, 1.3630359e+2, -1603030.9, -1596761.4, 74182.73, 0.23347229, 0.24044791, -1525647.3, 78601.7, 0.11391175, 10.000005, 10.000083 
2.5988263e+3, 1.4629951e+2, -1438366.8, -1262300.6, -70030.24, 0.14880553, 0.20516758, -1237843.4, 268442.44, 0.061296463, 9.999623, 10.001854 
2.5985214e+3, 1.5629503e+2, -1440499.0, -1355934.9, -86691.125, -0.22030163, -0.09065272, -1301764.3, 106561.49, 0.023481611, 9.999517, 10.000547 
2.598222e+3, 1.6629247e+2, -1349855.1, -1335903.1, 51740.082, -0.2552208, 0.11105845, -1290670.9, 19681.006, 0.005220199, 9.999811, 9.999862 
2.5979263e+3, 1.762905e+2, -1286442.4, -1347676.6, 22041.307, -0.07510834, 0.28682512, -1279333.9, -66958.23, 0.00041937284, 9.9999275, 9.999086 
2.597626e+3, 1.8628632e+2, -1041387.75, -994108.0, -94999.555, -0.045493465, 0.34126297, -919851.2, 194564.38, 0.0000020172258, 10.000234, 10.00063 
2.5973225e+3, 1.9628023e+2, -1095924.3, -1101886.1, -65655.53, -0.10550295, 0.03354782, -1033182.06, -16710.951, 0.0, 9.999696, 9.999525 
2.5970194e+3, 2.0627575e+2, -971273.06, -985363.4, -85667.99, -0.13399039, 0.11442331, -892361.06, 26153.877, 0.0, 9.999952, 9.99948 
2.5967157e+3, 2.1627176e+2, -974979.5, -1047175.4, -94386.95, -0.14044513, 0.13435428, -910023.2, -89466.96, 0.0, 9.999669, 9.998563 
2.5964153e+3, 2.2626784e+2, -768348.94, -825641.94, -656.67096, -0.09403209, 0.3298265, -768341.44, -45743.555, 0.0, 10.000176, 9.999118 
2.5961164e+3, 2.3626332e+2, -773870.25, -878102.75, -19858.547, -0.0069133886, 0.32866874, -770214.94, -145569.02, 0.0, 9.999844, 9.998285 
2.5958183e+3, 2.4625778e+2, -513398.88, -489402.53, -21288.637, 0.12093915, 0.31487778, -476963.8, 49732.223, 0.0, 10.000061, 10.000151 
2.59552e+3, 2.5625092e+2, -516585.56, -557902.5, -396.8247, 0.25175816, -0.03644031, -516581.75, -87827.2, 0.0, 9.999827, 9.999157 
2.595216e+3, 2.6624602e+2, -347940.06, -396288.8, -119197.8, 0.054081604, 0.02650935, -250489.95, 80310.23, 0.0, 10.000256, 9.999333 
2.5949097e+3, 2.7624175e+2, -304408.03, -434551.8, -89806.32, -0.28653976, 0.021883693, -258576.69, -25732.902, 0.0, 10.000265, 9.998458 
2.5946096e+3, 2.862378e+2, -113138.99, -105031.48, -34171.895, -0.1613852, 0.16187182, -74673.734, 60203.36, 0.0, 10.000107, 10.000094 
2.5943118e+3, 2.962336e+2, -264396.2, -299914.8, -45722.168, 0.07648668, 0.07844737, -233105.4, -196196.69, 0.0, 9.999101, 9.9986 
2.594011e+3, 3.0622306e+2, -351991.7, -407396.0, -116016.875, 0.12505162, -0.29618484, -260415.5, -260415.5, 0.0, 9.9987955, 9.997597 
2.5937033e+3, 3.16221e+2, -453834.03, -103377.3, -127588.414, -0.6126558, 0.055664115, -61848.234, -61848.234, 0.0, 9.996273, 10.000976 
2.609417e+3, 1.2660912e+2, -1343437.0, -1528252.0, 127714.336, -0.30134654, 0.26575503, -1278205.4, 421045.4, 0.14988421, 10.002718, 10.000061 
2.609122e+3, 1.3660395e+2, -1752126.4, -1795524.6, 146692.08, 0.20125099, 0.12461576, -1625537.1, -24235.186, 0.09979623, 9.999394, 9.999034 
2.608821e+3, 1.4659981e+2, -1494727.0, -1327506.4, 105582.266, 0.064402774, 0.15611069, -1276438.3, 226902.75, 0.05285716, 9.999374, 10.001513 
2.6085174e+3, 1.5659547e+2, -1116433.1, -1246865.3, 79544.86, -0.3804833, -0.033289757, -1078787.5, 326593.0, 0.019694533, 10.001869, 10.00023 
2.608218e+3, 1.665929e+2, -984628.94, -1026593.1, 104120.49, -0.40178552, 0.11139739, -899397.44, 408007.28, 0.004163879, 10.001705, 10.001074 
2.607921e+3, 1.7659111e+2, -1245859.6, -1226089.4, 138649.1, -0.19247484, 0.2270675, -1096973.5, 112449.26, 0.00030229846, 9.999714, 10.0000305 
2.607621e+3, 1.8658683e+2, -1128255.1, -1056541.8, 22255.469, -0.10206122, 0.24653444, -1050196.5, 61267.406, 0.0000010444409, 9.999616, 10.00055 
2.6073188e+3, 1.9658063e+2, -996849.4, -1071202.4, -19287.328, -0.109949805, -0.01822229, -992143.94, 21378.658, 0.0, 10.000281, 9.999513 
2.607016e+3, 2.0657648e+2, -795903.0, -906784.4, -60987.96, -0.11150362, 0.082411714, -768922.8, 146641.81, 0.0, 10.001023, 9.999552 
2.606713e+3, 2.1657301e+2, -689783.06, -930254.7, -21285.078, -0.112952106, 0.19037831, -687913.56, 129688.18, 0.0, 10.001517, 9.998525 
2.6064125e+3, 2.2656801e+2, -540548.4, -765030.1, 72178.96, -0.091324605, 0.2963502, -519343.3, 200310.55, 0.0, 10.001798, 9.998814 
2.6061133e+3, 2.3656198e+2, -499311.3, -778496.94, 50525.746, -0.027619287, 0.22390613, -490448.72, 131267.47, 0.0, 10.001673, 9.998153 
2.6058146e+3, 2.4655686e+2, -358879.4, -371670.06, 11553.66, 0.12764503, 0.23079072, -352069.16, 171694.2, 0.0, 10.000873, 10.000573 
2.6055163e+3, 2.5655162e+2, -467803.6, -523123.9, -30411.305, 0.31244966, 0.05650152, -454354.97, -28547.064, 0.0, 9.999957, 9.999381 
2.6052123e+3, 2.6654643e+2, -353289.53, -425909.3, -122077.336, 0.07680889, 0.079022, -262236.63, 65621.59, 0.0, 10.000195, 9.999228 
2.6049057e+3, 2.7654108e+2, -225980.33, -405884.66, -130561.12, -0.3370414, 0.022765208, -157384.08, 72529.516, 0.0, 10.000714, 9.998482 
2.6046053e+3, 2.8653714e+2, -23559.115, -41910.17, -64870.81, -0.20695718, 0.14228043, 32781.86, 164727.5, 0.0, 10.00059, 10.000299 
2.6043075e+3, 2.9653397e+2, -156961.58, -257733.31, -67705.25, 0.15094177, 0.19603306, -122951.13, -88985.73, 0.0, 9.999773, 9.998596 
2.604007e+3, 3.065228e+2, -149812.67, -314904.53, -25461.94, 0.20578279, -0.24994028, -145974.92, -145974.92, 0.0, 9.999967, 9.997739 
2.6037103e+3, 3.16521e+2, -125581.0, -192036.31, -16522.318, 0.70497924, 0.17801535, -121699.84, -121699.84, 0.0, 9.999451, 9.998835 
2.6194152e+3, 1.2691209e+2, -1584428.3, -1693106.3, -10215.206, -0.30907837, 0.23811658, -1583476.5, 112801.23, 0.13183987, 10.001217, 9.999338 
2.6191175e+3, 1.3690558e+2, -1512636.0, -1776479.8, -28455.86, 0.19986303, 0.01574731, -1509601.9, 88742.05, 0.08692974, 10.001696, 9.997979 
2.6188168e+3, 1.4690161e+2, -1323764.3, -1354165.6, 143743.83, 0.057002187, 0.15820366, -1194419.6, 305963.63, 0.045284748, 10.001046, 10.000528 
2.618515e+3, 1.568984e+2, -1428273.9, -1475676.3, 95878.08, -0.3796763, 0.15676197, -1353211.0, 49203.145, 0.01638905, 10.000059, 9.999528 
2.6182145e+3, 1.6689548e+2, -1144407.3, -967817.7, 36488.95, -0.46713647, 0.2218908, -960575.0, 343862.78, 0.0032885466, 10.000107, 10.002221 
2.617915e+3, 1.7689233e+2, -1277655.5, -1191460.3, 42493.535, -0.34755096, 0.07942243, -1174034.4, 32427.719, 0.00021471751, 9.999334, 10.000455 
2.6176155e+3, 1.8688773e+2, -1190949.5, -1199574.1, 18294.633, -0.17185822, 0.103662305, -1176465.9, -67958.53, 0.00000047553752, 9.999728, 9.999489 
2.617316e+3, 1.9688223e+2, -1187751.9, -1298127.9, -29399.688, 0.013612005, -0.0071212635, -1180409.5, -169844.94, 0.0, 9.9996605, 9.998236 
2.6170143e+3, 2.0687841e+2, -866324.5, -913005.75, -64911.113, 0.075921275, 0.169328, -820685.1, 91919.49, 0.0, 10.000516, 9.999714 
2.616712e+3, 2.1687497e+2, -920497.9, -1070863.4, -44284.156, 0.08498688, 0.23644345, -908425.06, -93784.516, 0.0, 10.000182, 9.998181 
2.6164103e+3, 2.2686858e+2, -715341.94, -864805.0, 52028.563, -0.026667628, 0.23564424, -699014.3, 17689.998, 0.0, 10.000833, 9.99853 
2.616109e+3, 2.3686063e+2, -792337.3, -985891.25, 38374.504, -0.19678228, -0.02498608, -785006.7, -166223.36, 0.0, 10.000122, 9.997432 
2.615809e+3, 2.4685672e+2, -533803.0, -520885.1, -15156.649, -0.09891218, 0.16734317, -510868.53, 9954.52, 0.0, 10.00009, 9.999862 
2.6155102e+3, 2.5685427e+2, -728838.0, -777275.8, -51601.92, 0.13506874, 0.324316, -696054.2, -273205.97, 0.0, 9.998854, 9.998126 
2.6152083e+3, 2.6684907e+2, -481479.47, -526052.75, -103279.59, 0.08758649, 0.42291895, -398109.28, -73207.94, 0.0, 9.999574, 9.998777 
2.6149043e+3, 2.7684218e+2, -392244.4, -551171.56, -100543.38, -0.123724364, 0.21861948, -343554.06, -116582.6, 0.0, 9.999949, 9.997809 
2.6146027e+3, 2.868366e+2, -51992.293, 31781.627, -91402.016, -0.113078795, 0.16148654, 90437.42, 219454.66, 0.0, 10.000162, 10.000953 
2.6143026e+3, 2.9683164e+2, -221097.78, -236706.97, -49492.66, 0.010481058, -0.054416977, -178798.13, -147745.63, 0.0, 9.999208, 9.998999 
2.6140013e+3, 3.068282e+2, -112737.984, -94848.99, -9813.124, 0.05750272, 0.14830743, -90515.63, -90515.63, 0.0, 9.99943, 9.999494 
2.6136962e+3, 3.1683037e+2, -312533.72, -453598.47, 35485.31, -0.38657996, 0.81582534, -304110.28, -304110.28, 0.0, 9.999044, 9.997229 
2.6294148e+3, 1.2721166e+2, -1792092.3, -1838320.3, 25243.742, -0.1317255, 0.19331494, -1780979.0, -87631.1, 0.11528824, 9.999817, 9.99902 
2.6291153e+3, 1.3720737e+2, -939337.25, -1491714.1, 11453.631, -0.16027422, 0.2134479, -939099.9, 656294.7, 0.07524984, 10.005849, 9.998033 
2.628813e+3, 1.4720397e+2, -931177.3, -1118809.1, -54214.434, -0.22226927, 0.3713921, -916639.0, 580788.8, 0.038529176, 10.00358, 10.001017 
2.6285106e+3, 1.5720052e+2, -1702733.0, -1543677.9, 5295.9214, -0.29197863, 0.31333628, -1543501.8, -144042.11, 0.013527696, 9.997801, 10.000191 
2.628211e+3, 1.6719635e+2, -1425333.4, -1104961.5, 77383.33, -0.2848783, 0.21843003, -1087249.4, 214243.33, 0.0025719018, 9.998086, 10.002307 
2.6279125e+3, 1.7719182e+2, -1070150.9, -1087853.3, 47340.87, -0.25156233, -0.048650485, -1030840.9, 172686.2, 0.00015054179, 10.000607, 10.000605 
2.6276124e+3, 1.8718776e+2, -937722.3, -1132756.0, -48626.617, -0.18179694, 0.040205646, -926270.9, 179296.83, 0.0000001940375, 10.0016, 9.999084 
2.6273113e+3, 1.9718347e+2, -958985.5, -1220678.0, -55706.016, -0.12544386, 0.108650036, -947620.94, 59994.297, 0.0, 10.001205, 9.998078 
2.6270095e+3, 2.0717871e+2, -816416.25, -942048.25, -116234.99, -0.08224838, 0.21499567, -747109.5, 162555.22, 0.0, 10.001039, 9.9992895 
2.6267073e+3, 2.1717364e+2, -765960.75, -976600.75, -109414.41, -0.062394463, 0.18155384, -719413.0, 92302.805, 0.0, 10.001034, 9.998453 
2.6264063e+3, 2.2716828e+2, -581609.2, -661747.2, 3513.797, -0.10080982, 0.17723148, -581455.44, 132310.66, 0.0, 10.001045, 9.999859 
2.6261058e+3, 2.3716243e+2, -578788.8, -762403.5, 65612.4, -0.18328068, 0.031790458, -557753.0, 58066.996, 0.0, 10.0008955, 9.99864 
2.6258057e+3, 2.4715775e+2, -362987.28, -531391.25, 38603.06, -0.10652124, 0.13776991, -354560.06, 163307.08, 0.0, 10.001526, 9.999156 
2.6255062e+3, 2.571538e+2, -227637.44, -551392.44, 2968.403, 0.049789306, 0.24317665, -227610.23, 192298.95, 0.0, 10.002214, 9.998103 
2.6252043e+3, 2.6714948e+2, -125040.97, -303162.7, -5459.374, 0.0440356, 0.3966794, -124873.805, 197081.14, 0.0, 10.0016985, 9.999326 
2.6249012e+3, 2.7714437e+2, -276380.88, -439822.72, 32617.023, -0.03462212, 0.36883876, -270112.13, -46104.43, 0.0, 10.000353, 9.998429 
2.6245993e+3, 2.8713754e+2, -133245.0, -88455.38, -20772.615, -0.036995146, 0.19717768, -80304.664, 45764.32, 0.0, 9.999815, 10.000347 
2.6242977e+3, 2.9713035e+2, -188400.98, -194657.98, -102265.25, 0.007253421, -0.1619042, -89216.39, -61086.543, 0.0, 9.999216, 9.999319 
2.6239964e+3, 3.0713058e+2, -85296.3, 19021.186, -109222.5, 0.053777013, 0.31428277, 87899.99, 87899.99, 0.0, 9.999095, 10.000483 
2.623694e+3, 3.1712323e+2, -357201.16, -260855.81, -23857.475, -0.009071271, -0.017166829, -255271.75, -255271.75, 0.0, 9.997619, 9.9993105 
2.6394138e+3, 1.2751175e+2, -1556723.3, -1737085.8, 255492.8, 0.13151397, 0.21889472, -1375963.1, 314450.94, 0.10017185, 10.001634, 9.998951 
2.639113e+3, 1.375097e+2, -1451701.3, -1737344.6, 132399.13, -0.44729924, 0.46207592, -1399773.0, 192666.88, 0.06469282, 10.00206, 9.9981165 
2.63881e+3, 1.4750667e+2, -1198253.5, -1179585.4, -179653.52, -0.39448398, 0.6061599, -1009023.6, 485445.63, 0.032530583, 10.001437, 10.001546 
2.6385066e+3, 1.5750234e+2, -1521165.8, -1453765.6, -116091.64, -0.074007206, 0.40207225, -1366581.6, 29926.986, 0.011066901, 9.999121, 10.000133 
2.638208e+3, 1.6749692e+2, -1279317.0, -1070420.8, 184921.38, 0.020138891, 0.19522806, -962488.7, 336063.3, 0.0019930317, 9.9993, 10.001908 
2.637911e+3, 1.7749108e+2, -1279825.8, -1293014.4, 107537.77, 0.004523164, -0.16529894, -1178680.3, 21917.148, 0.00010503105, 9.999662, 9.999645 
2.6376098e+3, 1.8748787e+2, -1083929.1, -1188513.3, -32614.611, -0.13536583, 0.04016042, -1074591.9, 28038.684, 0.00000008640195, 10.000738, 9.999002 
2.6373065e+3, 1.9748524e+2, -1108682.3, -1370799.1, -63220.28, -0.303981, 0.27112752, -1094230.9, -89567.79, 0.0, 10.000684, 9.997241 
2.6370034e+3, 2.0747876e+2, -891960.5, -1069590.9, -87950.68, -0.34872636, 0.28667244, -855781.8, 50947.363, 0.0, 10.000961, 9.998434 
2.6367012e+3, 2.1747085e+2, -1015653.1, -1162817.3, -89772.11, -0.32245606, 0.032543674, -973160.44, -164353.34, 0.0, 9.999677, 9.997834 
2.636402e+3, 2.2746803e+2, -566723.8, -423746.44, 7012.442, -0.20163013, 0.17446768, -423403.3, 287425.0, 0.0, 10.000245, 10.001828 
2.6361036e+3, 2.374667e+2, -740116.94, -754145.9, 53794.516, -0.045320395, 0.26487923, -692881.5, -80048.77, 0.0, 9.9995165, 9.999348 
2.6358038e+3, 2.4745968e+2, -530736.25, -690761.1, 47862.777, -0.009239286, 0.15782437, -517513.3, -2614.3467, 0.0, 10.0008135, 9.998367 
2.635503e+3, 2.574506e+2, -487957.22, -747149.44, 5928.3945, -0.031995773, -0.19970961, -487821.7, -70833.48, 0.0, 10.000832, 9.997418 
2.6352003e+3, 2.6744816e+2, -159242.02, -162449.56, -64979.406, -0.09073922, 0.07511183, -95846.59, 223168.27, 0.0, 10.000932, 10.000606 
2.6348963e+3, 2.7744767e+2, -468085.56, -546218.25, 743.00574, -0.16443244, 0.3756483, -468078.5, -247055.94, 0.0, 9.999219, 9.998236 
2.634594e+3, 2.874401e+2, -423341.97, -509285.2, -48362.945, -0.07754618, 0.29801154, -401617.88, -278518.88, 0.0, 9.999128, 9.997754 
2.6342925e+3, 2.974301e+2, -485644.16, -573166.3, -122492.96, -0.02074149, -0.11163522, -399330.03, -374131.84, 0.0, 9.9982815, 9.99716 
2.6339918e+3, 3.0742678e+2, -132100.0, 31255.121, -147644.06, 0.12887311, 0.05738581, 118308.086, 118308.086, 0.0, 9.998745, 10.0006695 
2.6336873e+3, 3.174212e+2, -287197.63, -11154.856, 91962.016, -0.11456147, -0.1696909, 16675.848, 16675.848, 0.0, 9.997289, 10.001144 
2.6494086e+3, 1.2781587e+2, -1166892.0, -1315041.1, 102238.39, -0.41870487, 0.38681147, -1114713.9, 572718.7, 0.08643013, 10.003365, 10.001212 
2.6491112e+3, 1.3781154e+2, -2032230.9, -1871926.8, 200637.1, -0.16954525, 0.22795118, -1736024.1, -146554.47, 0.055199515, 9.997212, 9.999588 
2.6488078e+3, 1.4780824e+2, -1630487.3, -1507258.0, 42340.33, -0.15923527, 0.360319, -1494112.6, -2608.5774, 0.027235242, 9.998859, 10.000494 
2.6485038e+3, 1.578043e+2, -1017690.44, -1297670.1, 44695.71, -0.16804297, 0.32042244, -1010728.4, 382818.16, 0.0089680515, 10.002859, 9.9994335 
2.6482046e+3, 1.6779996e+2, -932361.75, -979993.94, 171564.64, -0.051476173, 0.29284292, -782968.06, 512616.06, 0.0015322798, 10.002048, 10.001189 
2.647907e+3, 1.7779516e+2, -1380746.6, -1360639.6, 125318.37, 0.033867124, 0.128256, -1244972.1, -47348.785, 0.00007382683, 9.998962, 9.999534 
2.6476067e+3, 1.8779096e+2, -1104887.9, -1135122.1, 95525.625, -0.085250095, 0.2071206, -1023290.6, 76373.945, 0.000000036839044, 10.000258, 9.999638 
2.6473048e+3, 1.9778699e+2, -728128.94, -1096022.9, 76725.51, -0.30704108, 0.27497435, -712768.9, 288937.75, 0.0, 10.002778, 9.998147 
2.647002e+3, 2.0778026e+2, -658873.6, -955240.6, -16325.217, -0.25734594, 0.23205216, -657977.1, 245795.23, 0.0, 10.0024605, 9.998528 
2.6466992e+3, 2.1777256e+2, -843380.56, -1066035.8, 57783.938, -0.1535291, 0.027113697, -829277.6, -23431.34, 0.0, 10.000674, 9.998048 
2.6463994e+3, 2.2776839e+2, -521318.94, -543721.6, 90486.67, -0.0906004, 0.10661288, -441342.94, 266538.06, 0.0, 10.001053, 10.000677 
2.6461008e+3, 2.3776554e+2, -364224.97, -613485.1, -32246.297, -0.028489018, 0.17782311, -360120.88, 249780.03, 0.0, 10.002097, 9.999132 
2.6458004e+3, 2.4775839e+2, -426077.94, -612866.94, -69065.46, -0.019049475, 0.028292444, -403314.9, 108652.31, 0.0, 10.001257, 9.998772 
2.6454994e+3, 2.577495e+2, -593116.2, -727111.5, -60869.266, -0.046403967, -0.31671482, -569594.5, -155542.22, 0.0, 9.999598, 9.998218 
2.6451957e+3, 2.6774698e+2, -360446.56, -229389.16, -161266.45, -0.1093729, -0.11225439, -120846.38, 195231.69, 0.0, 9.999292, 10.000975 
2.6448917e+3, 2.7774677e+2, -406441.97, -461983.38, -163243.1, -0.11014102, 0.19512665, -268624.28, -50541.656, 0.0, 9.9992485, 9.998832 
2.6445904e+3, 2.8774017e+2, -280847.38, -522656.2, -75713.17, -0.026587114, 0.21828806, -259097.11, -138943.98, 0.0, 10.000341, 9.99711 
2.644288e+3, 2.9773122e+2, -83511.97, -433254.6, -39251.023, -0.016441492, 0.01448519, -79161.02, -56912.914, 0.0, 10.001107, 9.996789 
2.6439875e+3, 3.077257e+2, 28779.473, 40154.05, -139310.77, 0.21526848, 0.011058837, 173893.58, 173893.58, 0.0, 10.000029, 10.000159 
2.643683e+3, 3.1772268e+2, 14442.51, 406009.1, 77625.31, 0.054132022, 0.07316198, 420836.3, 420836.3, 0.0, 9.998005, 10.00371 
2.6594043e+3, 1.2812053e+2, -1255885.0, -1135921.4, -43885.11, -0.7734827, 0.5034453, -1121581.4, 562860.5, 0.073999934, 10.001658, 10.003243 
2.6591092e+3, 1.3811386e+2, -1790798.3, -1707198.6, 7614.5815, 0.31102604, -0.11297089, -1706510.8, -120020.24, 0.04671151, 9.998694, 9.999975 
2.658806e+3, 1.4811024e+2, -1587341.4, -1618469.9, 159658.27, 0.1810817, 0.058953904, -1442490.5, 46040.37, 0.022592498, 9.999891, 9.999199 
2.6585016e+3, 1.5810715e+2, -1291306.0, -1589785.1, 83750.34, -0.23192836, 0.23222785, -1269412.4, 121160.19, 0.0071954923, 10.001773, 9.997943 
2.6582012e+3, 1.6810407e+2, -1089283.0, -1178934.4, 58663.473, -0.1363511, 0.44838056, -1060279.5, 232324.45, 0.001170623, 10.001549, 10.000047 
2.6579025e+3, 1.7810076e+2, -1453834.0, -1486261.8, 53922.105, 0.118035614, 0.5274653, -1413740.9, -219106.92, 0.00005271245, 9.998986, 9.998634 
2.6576036e+3, 1.8809488e+2, -1064219.5, -1030524.75, 173607.95, 0.030236254, 0.41001424, -872948.6, 223740.83, 0.000000014947995, 10.000239, 10.00034 
2.6573047e+3, 1.9808848e+2, -997874.6, -1212461.8, 79124.125, -0.11462094, 0.16136456, -971854.5, 26895.594, 0.0, 10.000984, 9.998205 
2.6570028e+3, 2.0808281e+2, -754386.1, -924973.56, -121762.086, 0.04224918, 0.16796604, -691015.7, 209786.2, 0.0, 10.001675, 9.998999 
2.6566997e+3, 2.1807687e+2, -1069745.1, -1306209.4, -21945.176, 0.2750655, 0.088729985, -1067725.8, -264869.9, 0.0, 9.999884, 9.996709 
2.656398e+3, 2.2806896e+2, -767522.8, -992679.75, 116776.66, 0.12766129, 0.027199801, -717895.56, -12965.795, 0.0, 10.000939, 9.997553 
2.6560977e+3, 2.3806077e+2, -740896.8, -1054719.4, -26710.21, -0.11083251, -0.16495414, -738639.6, -131633.23, 0.0, 10.000786, 9.996692 
2.6557964e+3, 2.4805547e+2, -472455.97, -502546.84, -138853.61, -0.11228879, -0.12872043, -347835.06, 161219.94, 0.0, 10.000489, 9.999843 
2.6554942e+3, 2.5805068e+2, -837652.5, -830929.6, -104075.68, -0.082239546, -0.18416497, -730161.1, -319062.5, 0.0, 9.998024, 9.998222 
2.655191e+3, 2.680461e+2, -527520.94, -351857.63, -153134.14, -0.06776526, -0.15969093, -263154.7, 49988.48, 0.0, 9.998535, 10.000398 
2.6548883e+3, 2.7804172e+2, -604670.56, -601590.0, -118210.44, -0.023554673, -0.23143348, -484909.8, -269722.72, 0.0, 9.998256, 9.9983015 
2.6545867e+3, 2.8803816e+2, -215301.25, -291529.44, -23606.633, -0.012910235, -0.0069525526, -208582.8, -91355.08, 0.0, 10.000103, 9.998723 
2.6542842e+3, 2.9803476e+2, -195517.94, -499243.53, -9432.523, -0.17436224, 0.19193093, -195225.28, -175956.86, 0.0, 10.00055, 9.996566 
2.653982e+3, 3.080289e+2, -212237.25, -365738.34, -230917.72, 0.08178366, 0.32537392, -45649.27, -45649.27, 0.0, 9.999732, 9.997445 
2.6536793e+3, 3.1802145e+2, -385059.03, -176981.03, 91057.63, 0.19970953, 0.1878277, -142760.84, -142760.84, 0.0, 9.997077, 10.000112 
2.6694053e+3, 1.2842187e+2, -1612211.3, -1451033.0, -68266.75, -0.43187287, 0.10527344, -1426005.1, 255468.16, 0.062782116, 9.999675, 10.001869 
2.6691025e+3, 1.3841735e+2, -1499581.9, -1659791.0, -25134.455, -0.029003914, -0.12662531, -1495731.3, 87776.47, 0.039146993, 10.001071, 9.999194 
2.6688007e+3, 1.484128e+2, -1395500.3, -1538876.1, 134320.13, -0.04666358, -0.022639865, -1314935.0, 170620.77, 0.018543638, 10.001306, 9.999065 
2.6684996e+3, 1.5840818e+2, -1424437.1, -1676620.4, 116733.54, -0.20202583, 0.03929549, -1378698.0, 8910.385, 0.005710664, 10.000874, 9.997806 
2.6681986e+3, 1.6840342e+2, -1101295.3, -1286636.4, 59937.047, -0.1526545, 0.14134035, -1083601.5, 206055.13, 0.0008890518, 10.001787, 9.999226 
2.6678985e+3, 1.7839874e+2, -993460.75, -1322690.1, 70046.65, -0.06623336, 0.17624167, -979177.4, 212524.95, 0.000037964888, 10.002265, 9.998191 
2.6675993e+3, 1.8839344e+2, -990545.56, -1085038.0, 113898.74, -0.07505166, 0.18147731, -914482.7, 179273.63, 0.0000000057994387, 10.001019, 9.999648 
2.667301e+3, 1.9838786e+2, -1275990.1, -1347602.4, -7458.1313, -0.1100939, 0.089189656, -1275221.6, -279408.38, 0.0, 9.99892, 9.998316 
2.6670006e+3, 2.0838313e+2, -735697.3, -895194.3, -167180.39, 0.086938344, 0.16592284, -630218.6, 267640.38, 0.0, 10.001661, 9.999253 
2.6666993e+3, 2.1837808e+2, -223881.94, -855452.9, -119239.11, 0.3049124, 0.17343904, -202119.73, 597786.94, 0.0, 10.005334, 9.9972315 
2.666397e+3, 2.2836997e+2, -287448.4, -838710.8, 33893.996, 0.13988966, 0.105735585, -285372.28, 416612.03, 0.0, 10.0044565, 9.99698 
2.6660955e+3, 2.3836112e+2, -496342.94, -920067.25, -1176.2052, -0.122089654, -0.06481813, -496339.66, 107729.44, 0.0, 10.0022335, 9.99696 
2.6657927e+3, 2.4835615e+2, -400176.28, -393549.88, -128552.375, -0.09020911, -0.045210704, -268268.0, 237845.52, 0.0, 10.00059, 10.000559 
2.6654896e+3, 2.5835237e+2, -600451.6, -624311.94, -91220.81, -0.005071685, -0.047032174, -520384.16, -112238.055, 0.0, 9.999134, 9.999118 
2.6651868e+3, 2.6834702e+2, -252867.72, -307377.2, -73023.984, -0.017100573, -0.0832981, -202178.1, 108019.516, 0.0, 10.000648, 9.999761 
2.6648846e+3, 2.7834105e+2, 48163.613, -245817.52, -86047.32, 0.017382415, -0.23413973, 71497.35, 283753.56, 0.0, 10.002419, 9.998785 
2.6645833e+3, 2.883377e+2, 13608.18, -65381.7, -57338.793, 0.009922621, -0.07976201, 43737.855, 158029.69, 0.0, 10.001063, 9.9999075 
2.6642802e+3, 2.9833528e+2, -410683.4, -531920.0, -91333.83, -0.11246252, 0.14332938, -361682.16, -345362.78, 0.0, 9.998615, 9.997336 
2.6639757e+3, 3.0833042e+2, -168276.94, -502479.97, -206376.9, -0.121992804, 0.43808514, -69833.086, -69833.086, 0.0, 10.000658, 9.996093 
2.6636764e+3, 3.1832108e+2, 200598.81, -28741.43, 163909.73, 0.3837863, 0.29187402, 285967.78, 285967.78, 0.0, 10.001506, 9.999047 
2.6794067e+3, 1.287229e+2, -1734481.3, -1710099.1, -124031.664, 0.15435337, -0.23172691, -1597660.9, 80848.6, 0.05267765, 9.999786, 9.999944 
2.679096e+3, 1.387209e+2, -1551777.0, -1826302.0, -111483.14, -0.38382897, -0.061591845, -1512207.8, 68320.18, 0.03242507, 10.001407, 9.997839 
2.6787952e+3, 1.4871535e+2, -1327209.1, -1490922.8, 69285.75, -0.3010451, -0.051260848, -1301822.9, 180759.33, 0.015032841, 10.001716, 9.999138 
2.6784977e+3, 1.5870863e+2, -1486427.8, -1767482.9, 66804.12, -0.019361759, -0.218015, -1471357.1, -86708.72, 0.0044764117, 10.000789, 9.99719 
2.6781964e+3, 1.6870154e+2, -1177768.3, -1391947.4, 61301.523, -0.09941876, -0.2869468, -1161463.9, 125254.12, 0.00066900725, 10.001692, 9.998501 
2.6778945e+3, 1.7869483e+2, -1212458.0, -1555451.0, 28692.943, -0.23875254, -0.38733727, -1210074.4, -21289.838, 0.000027210404, 10.001428, 9.996986 
2.6775944e+3, 1.8869081e+2, -1126566.5, -1281868.4, 27103.848, -0.21519086, -0.14372359, -1121972.1, -31140.209, 0.000000001728097, 10.000763, 9.998377 
2.6772955e+3, 1.986874e+2, -1479461.5, -1586750.1, -10980.955, -0.11546268, 0.102028504, -1478349.1, -485474.16, 0.0, 9.998273, 9.996957 
2.6769972e+3, 2.0868294e+2, -826404.25, -949707.56, -4438.204, 0.03516472, 0.24049728, -826244.75, 68679.44, 0.0, 10.0011425, 9.999095 
2.676699e+3, 2.1867804e+2, -580304.6, -1063368.0, -42856.58, 0.1857243, 0.27312186, -576531.9, 220443.78, 0.0, 10.0031395, 9.99686 
2.6763964e+3, 2.2867177e+2, -408525.28, -806731.0, -42437.53, 0.07135896, 0.32359433, -404052.88, 294983.94, 0.0, 10.0032835, 9.997728 
2.6760936e+3, 2.3866521e+2, -777908.1, -1062366.8, -72595.72, -0.07714598, 0.29887503, -760452.4, -159352.8, 0.0, 10.000459, 9.996818 
2.6757896e+3, 2.486596e+2, -499941.1, -404644.66, -180410.66, -0.0081335, 0.22468406, -265696.1, 237453.45, 0.0, 9.999913, 10.000701 
2.675485e+3, 2.5865445e+2, -856838.8, -833868.25, -94686.336, 0.07762141, 0.061208606, -749973.2, -344778.66, 0.0, 9.997889, 9.998241 
2.6751828e+3, 2.6865e+2, -396964.78, -475959.28, 868.1036, -0.041295107, 0.18799068, -396955.25, -89717.05, 0.0, 10.000169, 9.998788 
2.6748812e+3, 2.7864525e+2, -175986.97, -465322.94, -75322.39, -0.15315075, 0.23137707, -157552.88, 51733.074, 0.0, 10.001444, 9.997745 
2.6745796e+3, 2.886381e+2, -38482.758, -37274.805, -178839.13, -0.033308703, 0.000055971796, 140961.38, 252313.81, 0.0, 10.000546, 10.000311 
2.674276e+3, 2.9863128e+2, -568285.5, -600854.06, -128947.19, -0.0135172345, -0.2688787, -454598.4, -441182.5, 0.0, 9.997605, 9.997338 
2.6739687e+3, 3.0862975e+2, -154160.98, -434866.4, -88018.98, -0.45189232, 0.30825314, -128844.68, -128844.68, 0.0, 10.000586, 9.996551 
2.6736727e+3, 3.186196e+2, 234655.89, 186187.95, 77421.71, 0.12992911, -0.0012098178, 291547.78, 291547.78, 0.0, 10.001063, 10.000699 
2.6894033e+3, 1.2902284e+2, -1667120.9, -1670329.1, -288230.75, 0.089002326, -0.044693083, -1380489.9, 295088.25, 0.043619167, 10.000255, 9.999975 
2.6890934e+3, 1.3901952e+2, -1428232.8, -1691858.1, -191059.5, -0.4866137, -0.038024258, -1327928.5, 249680.58, 0.02648621, 10.001891, 9.998548 
2.6887938e+3, 1.4901528e+2, -1149969.3, -1296118.0, -41393.844, -0.26923257, 0.00008047752, -1139059.6, 340588.22, 0.012009438, 10.002387, 10.000209 
2.688498e+3, 1.5901032e+2, -1226841.3, -1555168.5, -7175.599, 0.14394559, -0.08532869, -1226684.5, 155009.31, 0.003455713, 10.00207, 9.998057 
2.688196e+3, 1.6900401e+2, -1066151.5, -1375924.0, 13473.522, 0.022596283, -0.1001102, -1065566.6, 218189.98, 0.00049606664, 10.002479, 9.998292 
2.687893e+3, 1.7899762e+2, -1054720.5, -1479282.0, -7639.3403, -0.26168004, -0.14091833, -1054583.0, 131238.23, 0.00001910138, 10.002355, 9.9971075 
2.6875916e+3, 1.8899196e+2, -912023.4, -1173811.8, -20333.473, -0.24198142, -0.07315327, -910453.5, 177428.1, 0.0000000002885943, 10.002076, 9.998539 
2.6872912e+3, 1.9898713e+2, -1010184.1, -1311157.9, 35070.984, -0.16358429, 0.025528891, -1006151.5, -16216.407, 0.0, 10.001152, 9.997476 
2.6869932e+3, 2.0898283e+2, -846593.1, -967325.1, 114043.06, -0.05611385, 0.1740292, -777924.75, 114058.45, 0.0, 10.000949, 9.999102 
2.6866952e+3, 2.1897848e+2, -860683.2, -1093514.0, 57853.77, 0.03260717, 0.2708523, -847100.1, -53069.387, 0.0, 10.000638, 9.997873 
2.6863933e+3, 2.2897281e+2, -714769.7, -812115.7, 20684.021, 0.006542108, 0.27275503, -710557.06, -14471.897, 0.0, 10.000435, 9.999144 
2.6860905e+3, 2.3896712e+2, -727576.56, -918109.7, 30156.46, -0.033496704, 0.2372996, -722917.5, -124778.97, 0.0, 10.000128, 9.998015 
2.6857865e+3, 2.4896136e+2, -331121.63, -497295.0, -96044.73, 0.05173581, 0.21819478, -287212.3, 212981.3, 0.0, 10.001653, 9.999333 
2.6854825e+3, 2.5895554e+2, -86412.49, -506528.5, -112468.36, 0.13102318, 0.14430587, -58198.6, 344050.66, 0.0, 10.003176, 9.998001 
2.6851794e+3, 2.68951e+2, -210731.44, -376580.75, -3045.1228, -0.04297839, 0.2612575, -210675.55, 93618.09, 0.0, 10.001302, 9.998983 
2.684877e+3, 2.7894652e+2, -537394.1, -575520.44, -13359.607, -0.20718913, 0.34602344, -533178.94, -326841.84, 0.0, 9.99857, 9.99838 
2.684575e+3, 2.88939e+2, -112858.38, -47103.063, -104764.81, -0.061869368, 0.03716418, 29821.86, 138228.27, 0.0, 9.999818, 10.0006075 
2.684272e+3, 2.989314e+2, -26973.682, -305664.4, -57062.36, 0.05953574, -0.31431362, -15742.675, -5266.993, 0.0, 10.001065, 9.997692 
2.683965e+3, 3.0892977e+2, -91945.94, -411486.1, -17324.516, -0.47773394, 0.25102717, -91009.4, -91009.4, 0.0, 10.000945, 9.996565 
2.6836696e+3, 3.1891856e+2, 155178.17, 442541.63, -162038.25, 0.17741214, -0.20880683, 515425.9, 515425.9, 0.0, 9.999128, 10.003399 
2.6993993e+3, 1.2932338e+2, -1507495.5, -1555945.8, -110727.27, 0.015124243, 0.22723982, -1418374.4, 254269.39, 0.03555016, 10.001231, 10.000251 
2.699092e+3, 1.3931803e+2, -1496649.1, -1693860.9, -79110.805, -0.3482857, 0.0042440677, -1468836.5, 105855.93, 0.021269776, 10.001279, 9.9988365 
2.698794e+3, 1.4931512e+2, -1137411.8, -1170585.4, 2082.2603, -0.06751863, 0.08317019, -1137281.5, 339435.22, 0.009415533, 10.001988, 10.001263 
2.698498e+3, 1.5931226e+2, -1309040.3, -1559094.0, -20153.75, 0.39884496, 0.1259661, -1307426.4, 71314.74, 0.0026134893, 10.001436, 9.9983225 
2.698196e+3, 1.693077e+2, -1118344.8, -1386008.8, 8904.799, 0.18531233, 0.25911632, -1118048.8, 162740.23, 0.0003600524, 10.002157, 9.998312 
2.697892e+3, 1.793024e+2, -1228752.9, -1570825.8, -6566.139, -0.15068217, 0.32976198, -1228626.9, -45782.055, 0.000012952271, 10.0013275, 9.996934 
2.6975897e+3, 1.8929464e+2, -894785.44, -1083668.1, -36866.676, -0.17332622, 0.12734884, -887844.75, 197075.27, 0.000000000007316074, 10.001993, 9.999128 
2.6972887e+3, 1.9928713e+2, -1088534.4, -1361006.9, 10376.837, -0.1328257, -0.08858984, -1088139.8, -101147.4, 0.0, 10.000761, 9.997326 
2.696989e+3, 2.09283e+2, -914160.44, -1000775.1, 85729.05, -0.13134526, 0.0632323, -861420.94, 27616.063, 0.0, 10.000573, 9.999017 
2.69669e+3, 2.1927932e+2, -1126653.1, -1204147.0, 39053.125, -0.114652835, 0.22146708, -1110386.8, -319309.6, 0.0, 9.998897, 9.997916 
2.6963887e+3, 2.2927374e+2, -711385.25, -602435.2, -4334.486, -0.046767972, 0.0847085, -602263.06, 90864.57, 0.0, 9.9997635, 10.00079 
2.6960865e+3, 2.39268e+2, -967326.5, -1117898.8, 32712.613, 0.020060685, -0.086318135, -960526.56, -365347.38, 0.0, 9.998988, 9.997161 
2.695784e+3, 2.4926208e+2, -585436.44, -903351.75, -44095.598, 0.07912926, 0.06632161, -579433.6, -82191.53, 0.0, 10.001237, 9.996685 
2.6954812e+3, 2.592562e+2, -461379.75, -865688.44, -116709.53, 0.11784819, 0.2105323, -430108.53, -30803.498, 0.0, 10.00154, 9.996281 
2.6951763e+3, 2.6925048e+2, -257771.36, -268932.5, -109736.13, -0.054369334, 0.16505828, -153473.98, 147885.13, 0.0, 10.000559, 10.000004 
2.694871e+3, 2.792452e+2, -688506.5, -599703.6, -30659.453, -0.26241425, 0.056571327, -590146.8, -386739.5, 0.0, 9.997483, 9.99871 
2.6945698e+3, 2.8924167e+2, -168665.67, -32927.523, -18242.336, -0.14906113, 0.11102436, -30518.62, 74922.55, 0.0, 9.999432, 10.000826 
2.694268e+3, 2.9923788e+2, -202045.95, -494221.75, -5100.721, -0.07429421, 0.14944403, -201956.94, -194479.11, 0.0, 10.00045, 9.996678 
2.6939636e+3, 3.0923066e+2, -241208.36, -610693.3, -47545.21, -0.2702435, 0.25031924, -235188.33, -235188.33, 0.0, 10.000567, 9.995356 
2.693664e+3, 3.1922048e+2, 162292.7, 731092.56, -244945.22, 0.066892155, -0.080171235, 822034.44, 822034.44, 0.0, 9.99812, 10.005861 
2.709395e+3, 1.2962532e+2, -1318417.1, -1401212.9, -78110.85, -0.33003283, 0.12443865, -1271412.0, 398270.75, 0.028415078, 10.00223, 10.0008955 
2.7090928e+3, 1.396222e+2, -1504683.6, -1725826.4, 78655.086, -0.06527838, 0.1138663, -1479561.8, 92146.375, 0.016713178, 10.001292, 9.998627 
2.7087924e+3, 1.4961675e+2, -1253173.9, -1397373.9, 121886.73, -0.000014224826, 0.06269241, -1183659.0, 290099.66, 0.0071980846, 10.001845, 9.999801 
2.7084932e+3, 1.5961102e+2, -1230284.6, -1528738.8, 30256.74, 0.0643758, -0.04537176, -1227248.1, 148564.53, 0.0019202423, 10.001926, 9.99832 
2.7081925e+3, 1.6960666e+2, -1034410.4, -1218235.6, 71088.59, 0.04729824, 0.03396126, -1010126.94, 267729.25, 0.00025324232, 10.002166, 9.999492 
2.7078912e+3, 1.7960238e+2, -1109501.8, -1436001.3, 93332.02, -0.05359733, 0.13182786, -1084705.4, 95194.516, 0.000008369746, 10.001732, 9.997676 
2.7075893e+3, 1.8959601e+2, -830024.0, -1137922.9, 39045.836, -0.06773388, 0.110022105, -825149.6, 256815.86, 0.0, 10.002781, 9.998391 
2.7072877e+3, 1.995895e+2, -685568.94, -1146714.5, -3700.447, -0.08762157, 0.06570791, -685539.25, 298492.6, 0.0, 10.003321, 9.997596 
2.7069864e+3, 2.0958407e+2, -748555.56, -903196.0, 16236.826, -0.095750935, 0.073034406, -746869.1, 139217.55, 0.0, 10.00147, 9.999347 
2.706685e+3, 2.1957931e+2, -1005184.8, -1052809.3, 22847.26, -0.12651703, 0.09635289, -995996.75, -207862.05, 0.0, 9.999177, 9.998861 
2.7063838e+3, 2.2957501e+2, -566781.56, -551790.7, -26149.492, -0.12491602, 0.07908568, -532083.56, 158091.45, 0.0, 10.000732, 10.000742 
2.7060825e+3, 2.3957042e+2, -386008.75, -791451.75, -94382.41, -0.103154786, 0.037686534, -365114.4, 227103.69, 0.0, 10.002634, 9.997665 
2.705781e+3, 2.4956363e+2, -476035.6, -860040.4, -85864.33, 0.027556159, 0.09542451, -457710.6, 36577.613, 0.0, 10.0019455, 9.996684 
2.7054787e+3, 2.595569e+2, -534823.1, -809402.4, -45167.324, 0.15349582, 0.166816, -527584.06, -131225.52, 0.0, 10.000552, 9.997136 
2.705173e+3, 2.6955107e+2, -258895.56, -242420.11, -95452.65, 0.010172447, 0.07066525, -154850.38, 143561.89, 0.0, 10.000331, 10.000331 
2.7048668e+3, 2.795456e+2, -269508.06, -349606.5, -46237.59, -0.12638333, -0.065854006, -248386.6, -47925.11, 0.0, 10.000016, 9.999223 
2.7045664e+3, 2.8954333e+2, -4869.7495, -6668.0444, -26747.357, -0.05180873, 0.14117897, 20993.568, 123479.44, 0.0, 10.000728, 10.00043 
2.704265e+3, 2.995411e+2, -85486.31, -384941.03, -89344.586, -0.027404374, 0.3694588, -60855.6, -56344.406, 0.0, 10.00089, 9.997261 
2.7039605e+3, 3.0953258e+2, -240762.36, -500867.28, -35442.22, -0.1841373, 0.26795542, -236019.44, -236019.44, 0.0, 9.999996, 9.996445 
2.7036583e+3, 3.1952465e+2, 191553.75, 756884.94, -205547.34, 0.12886302, 0.104754746, 823718.3, 823718.3, 0.0, 9.99816, 10.006045 
2.7193922e+3, 1.2992778e+2, -1295776.4, -1329255.8, -45656.996, -0.42355943, -0.05556421, -1263887.1, 402826.16, 0.02219124, 10.002219, 10.00136 
2.7190945e+3, 1.399274e+2, -1391149.9, -1803359.0, 32692.773, 0.3642886, 0.20160285, -1388573.0, 180137.94, 0.01278431, 10.002678, 9.997435 
2.718791e+3, 1.4991894e+2, -1237380.9, -1609046.1, 126028.72, 0.06957774, 0.014141233, -1198676.1, 272117.16, 0.00532732, 10.002999, 9.99776 
2.7184877e+3, 1.5990968e+2, -1289583.8, -1629395.9, 37430.27, -0.24749689, -0.27328852, -1285509.6, 87374.42, 0.0013580795, 10.001953, 9.9976015 
2.718189e+3, 1.6990498e+2, -965534.0, -1032572.2, 37866.258, -0.059485618, -0.3274627, -948482.5, 326444.22, 0.00016970174, 10.002077, 10.0007715 
2.7178904e+3, 1.7990133e+2, -1265373.6, -1554650.0, 61531.34, 0.14981689, -0.259936, -1252829.4, -75868.59, 0.0000049540654, 10.0009365, 9.997241 
2.717589e+3, 1.8989728e+2, -966066.06, -1347738.4, 53689.45, 0.08324474, 0.029850803, -958657.44, 120353.32, 0.0, 10.002504, 9.997043 
2.7172875e+3, 1.9989271e+2, -946098.0, -1377356.4, -22921.268, 0.031709686, 0.30013236, -944883.2, 36182.383, 0.0, 10.002134, 9.996536 
2.7169845e+3, 2.098859e+2, -830697.4, -862971.25, -79974.3, 0.0339752, 0.13117191, -765248.25, 117883.12, 0.0, 10.000765, 9.999861 
2.716681e+3, 2.1987954e+2, -1301801.5, -1294787.1, 13806.276, 0.01904709, -0.02981508, -1284049.5, -498857.63, 0.0, 9.997713, 9.9978895 
2.7163795e+3, 2.298768e+2, -756025.0, -776986.0, 72448.44, -0.18298401, 0.20565481, -693302.94, -6080.1626, 0.0, 10.000113, 9.999448 
2.7160782e+3, 2.3987402e+2, -711090.8, -990997.9, -52823.703, -0.35328922, 0.45290762, -701453.75, -112199.99, 0.0, 10.0007715, 9.997144 
2.715777e+3, 2.4986601e+2, -483081.2, -646878.7, -121824.805, -0.10563238, 0.23499987, -418185.22, 73144.49, 0.0, 10.001103, 9.998476 
2.715475e+3, 2.5985786e+2, -734129.5, -893009.5, -72512.39, 0.15770122, 0.014839208, -706011.3, -312605.0, 0.0, 9.999235, 9.997208 
2.7151698e+3, 2.698529e+2, -380892.94, -348633.97, -99597.61, 0.12230368, 0.019105496, -263868.22, 31582.885, 0.0, 9.999819, 9.999812 
2.714865e+3, 2.7984828e+2, -533048.9, -654279.2, -39646.816, 0.06477486, 0.03996133, -521234.28, -323740.4, 0.0, 9.999074, 9.997583 
2.7145645e+3, 2.8984332e+2, -171888.19, -267842.94, -22182.73, 0.11175308, 0.11405388, -167008.19, -67461.26, 0.0, 10.00041, 9.9987545 
2.714262e+3, 2.998392e+2, -163598.7, -329968.8, -129097.22, -0.044789225, 0.2520694, -93206.914, -91615.19, 0.0, 10.000068, 9.998005 
2.7139544e+3, 3.09836e+2, -18230.377, 114542.125, -98425.77, -0.35009503, 0.3068132, 166877.25, 166877.25, 0.0, 9.999434, 10.000868 
2.713652e+3, 3.1982696e+2, -409992.88, -316228.53, -132778.48, 0.0122537315, -0.16153629, -222298.56, -222298.56, 0.0, 9.997567, 9.998885 
2.7293947e+3, 1.3023156e+2, -1339904.4, -1563256.5, -10310.756, -0.14451003, -0.16482347, -1339429.4, 324298.2, 0.016854309, 10.002838, 9.999394 
2.7290928e+3, 1.402292e+2, -1049680.9, -1773630.4, 19847.576, 0.050526954, 0.08185994, -1049137.1, 516614.6, 0.009467287, 10.005581, 9.996248 
2.7287903e+3, 1.5022169e+2, -1006969.5, -1576355.8, 78962.3, -0.025045497, 0.073837794, -996221.9, 471608.2, 0.0037924994, 10.004936, 9.997038 
2.7284887e+3, 1.602136e+2, -1120497.9, -1590520.6, 24975.13, -0.10843907, -0.021047039, -1119174.5, 250738.83, 0.0009170214, 10.003247, 9.997235 
2.7281877e+3, 1.7020823e+2, -914748.1, -1083288.4, -18354.8, -0.03331643, -0.07393078, -912772.4, 359191.16, 0.0001065257, 10.002673, 10.000157 
2.7278873e+3, 1.8020377e+2, -1061903.1, -1386837.6, -27406.441, 0.02356877, -0.055061553, -1059607.8, 114397.75, 0.0000025959862, 10.001925, 9.997932 
2.727587e+3, 1.901991e+2, -845809.1, -1181296.3, 64187.527, 0.0069789137, 0.092808135, -833947.75, 242109.53, 0.0, 10.002725, 9.99817 
2.727286e+3, 2.0019445e+2, -756636.56, -1149920.5, -2733.309, -0.019017609, 0.25577703, -756617.56, 221491.98, 0.0, 10.002733, 9.997828 
2.7269813e+3, 2.1018842e+2, -738198.2, -827047.8, -102236.65, 0.050259262, 0.1516327, -671151.5, 209015.8, 0.0, 10.001337, 9.999889 
2.7266768e+3, 2.2018261e+2, -937493.3, -1066284.4, 41355.06, 0.07284742, 0.061702777, -925357.6, -143135.25, 0.0, 9.999845, 9.9984455 
2.7263758e+3, 2.3017879e+2, -836854.0, -833766.94, 188196.61, -0.12056296, 0.19537999, -647107.5, 37155.23, 0.0, 9.999531, 9.999367 
2.726075e+3, 2.4017513e+2, -840995.94, -968723.56, 84622.266, -0.27878952, 0.36588734, -798843.1, -212541.27, 0.0, 9.999383, 9.997981 
2.7257738e+3, 2.501677e+2, -481450.03, -593238.0, -30418.982, -0.06621497, 0.17576489, -473708.7, 14664.072, 0.0, 10.000758, 9.999083 
2.7254716e+3, 2.6016027e+2, -263012.03, -565575.4, -59239.254, 0.18295191, -0.01430408, -251826.98, 138615.08, 0.0, 10.001884, 9.998205 
2.7251667e+3, 2.701563e+2, -122602.0, -247858.53, -79943.84, 0.17212611, 0.08731024, -83675.766, 208801.98, 0.0, 10.001591, 9.999712 
2.724862e+3, 2.8015196e+2, -289289.16, -540820.75, 21968.531, 0.18339789, 0.18217227, -287384.88, -92867.74, 0.0, 10.000629, 9.9976425 
2.7245605e+3, 2.901438e+2, -293288.06, -423830.88, 88654.78, 0.13220383, 0.0039593014, -248468.47, -151867.64, 0.0, 9.999853, 9.997999 
2.7242574e+3, 3.0013746e+2, -236614.33, -226395.0, 1377.8867, -0.05747586, -0.03195058, -226212.48, -226212.48, 0.0, 9.998843, 9.999319 
2.7239498e+3, 3.101399e+2, 142910.55, 426739.4, -140268.77, -0.29234886, 0.39678612, 484362.0, 484362.0, 0.0, 9.999362, 10.003145 
2.723647e+3, 3.201303e+2, -255323.86, -675229.25, -170508.05, 0.06927727, -0.17126949, -194808.2, -194808.2, 0.0, 10.000243, 9.995228 
2.7393982e+3, 1.3053548e+2, -1396270.3, -1809488.0, 49746.09, 0.30563745, -0.19049834, -1390365.9, 270376.6, 0.012358647, 10.003463, 9.997335 
2.739091e+3, 1.4053014e+2, -1359972.4, -2077573.4, -10468.587, -0.24896078, -0.053192277, -1359819.8, 202983.2, 0.0067449408, 10.004157, 9.994794 
2.7387902e+3, 1.505247e+2, -1042368.3, -1624771.8, 10388.537, -0.080379255, 0.16647498, -1042183.06, 422682.66, 0.0025850076, 10.004811, 9.996733 
2.738491e+3, 1.6051906e+2, -1133092.4, -1701991.5, -8863.374, 0.22154923, 0.35717106, -1132954.4, 233975.11, 0.0005889778, 10.003667, 9.996245 
2.7381873e+3, 1.7051297e+2, -984907.56, -1268239.1, -33854.918, 0.075004, 0.3301035, -980918.5, 288071.38, 0.00006228534, 10.002862, 9.998789 
2.7378836e+3, 1.8050714e+2, -1215314.4, -1461660.9, -1139.2683, -0.09705055, 0.32833672, -1215309.1, -44262.79, 0.0000011486238, 10.000985, 9.997848 
2.737584e+3, 1.905014e+2, -880978.44, -959621.94, 100575.74, -0.087993175, 0.18321949, -812310.94, 260790.06, 0.0, 10.001595, 10.000149 
2.737284e+3, 2.0049615e+2, -1011700.1, -1228544.8, -25094.973, -0.03992069, 0.12917475, -1008833.8, -33682.453, 0.0, 10.000935, 9.998116 
2.7369776e+3, 2.1049173e+2, -850772.94, -929005.7, -169310.22, 0.042411033, 0.17571376, -716119.25, 161075.66, 0.0, 10.000806, 9.99941 
2.7366725e+3, 2.2048712e+2, -1141758.5, -1223469.9, 16643.113, 0.10126361, 0.2545936, -1138498.6, -359259.1, 0.0, 9.998802, 9.997847 
2.7363724e+3, 2.3048067e+2, -890417.0, -796870.94, 162448.45, 0.03708855, 0.06546631, -674595.94, 6704.094, 0.0, 9.999013, 9.999806 
2.7360728e+3, 2.4047448e+2, -1111248.5, -1177154.9, 92925.46, -0.016562546, -0.029915702, -1045606.3, -462247.22, 0.0, 9.997979, 9.997208 
2.7357712e+3, 2.5046903e+2, -608609.7, -687864.44, 21419.08, 0.06286687, -0.013115988, -603191.5, -117775.766, 0.0, 10.000129, 9.998675 
2.7354687e+3, 2.604643e+2, -530118.94, -762700.75, -51238.992, 0.118607946, 0.101547375, -519331.1, -131866.45, 0.0, 10.000493, 9.997479 
2.735163e+3, 2.704612e+2, -208537.84, -272929.0, -103109.8, 0.08484623, 0.26163366, -132714.05, 156777.69, 0.0, 10.001002, 9.999773 
2.7348572e+3, 2.8045672e+2, -479771.6, -679669.3, -1482.8002, 0.037804734, 0.34527424, -479760.6, -288228.97, 0.0, 9.999683, 9.9971075 
2.7345544e+3, 2.9044482e+2, -338275.9, -404932.28, 67905.83, -0.04582022, -0.2444394, -295960.4, -202314.22, 0.0, 9.999501, 9.99825 
2.7342507e+3, 3.0043614e+2, -424170.22, -398845.06, -782.15283, -0.21322441, -0.51223075, -398820.9, -398820.9, 0.0, 9.998044, 9.998498 
2.733946e+3, 3.1044498e+2, 2119.2612, 253180.52, -112599.48, -0.14984503, 0.6133371, 296281.38, 296281.38, 0.0, 9.998993, 10.002044 
2.7336448e+3, 3.204338e+2, -98821.12, -283050.1, 45892.906, 0.1388967, -0.111833915, -88021.87, -88021.87, 0.0, 10.000126, 9.9979105 
2.749396e+3, 1.3083729e+2, -1138649.4, -1549845.3, -162582.88, -0.06671673, 0.000821465, -1082133.4, 575661.8, 0.008685479, 10.00454, 9.998681 
2.7490917e+3, 1.4083135e+2, -1377266.6, -1907271.1, -13200.431, -0.20064344, -0.05284577, -1376938.1, 182916.27, 0.0045926278, 10.003179, 9.996456 
2.7487904e+3, 1.508263e+2, -908165.94, -1424829.0, 106295.66, -0.18703277, 0.0697273, -887151.9, 574755.94, 0.0016782226, 10.00505, 9.998058 
2.7484897e+3, 1.608209e+2, -789654.06, -1498399.9, 39331.277, -0.079776615, 0.20444211, -787478.06, 576487.56, 0.0003582281, 10.0058155, 9.996607 
2.7481854e+3, 1.7081451e+2, -937952.3, -1358098.6, -25772.018, -0.030424453, 0.23028499, -936377.3, 329655.8, 0.000033741435, 10.00366, 9.997791 
2.7478814e+3, 1.8080857e+2, -1175454.1, -1376421.1, 40496.08, -0.05704886, 0.2895037, -1167600.8, 493.4115, 0.00000040337267, 10.000912, 9.998464 
2.747581e+3, 1.9080356e+2, -1048904.5, -943317.6, 135630.78, -0.035264585, 0.14523895, -850567.75, 219571.45, 0.0, 9.999937, 10.001086 
2.7472806e+3, 2.0079891e+2, -1188445.0, -1266811.1, -21210.52, -0.0013647557, 0.08716931, -1183072.5, -210891.38, 0.0, 9.999389, 9.998622 
2.746975e+3, 2.1079424e+2, -812783.1, -974894.7, -139970.05, 0.104384474, 0.1537416, -732093.25, 142136.36, 0.0, 10.001201, 9.998968 
2.7466702e+3, 2.2078952e+2, -555608.1, -878395.4, -901.6749, 0.16280958, 0.24075966, -555605.6, 220671.88, 0.0, 10.002405, 9.998525 
2.746368e+3, 2.3078337e+2, -542473.1, -608125.7, 110852.83, 0.0143878, 0.07566646, -459688.34, 218644.42, 0.0, 10.00115, 10.000177 
2.7460667e+3, 2.4077743e+2, -745483.5, -859578.06, 83031.29, -0.10747869, -0.039409406, -701790.56, -121403.984, 0.0, 9.999736, 9.998572 
2.745766e+3, 2.5077257e+2, -604338.7, -627567.3, 82830.75, -0.015911883, -0.018488616, -532311.94, -49875.176, 0.0, 9.999804, 9.999319 
2.7454647e+3, 2.6076832e+2, -525518.7, -688305.5, 42378.746, 0.07311033, 0.11343878, -515146.94, -130665.86, 0.0, 10.000078, 9.998221 
2.7451593e+3, 2.707647e+2, -184520.14, -311048.84, -61308.07, 0.048596438, 0.26042882, -159687.63, 126827.734, 0.0, 10.001259, 9.999432 
2.7448538e+3, 2.8075987e+2, -107368.37, -416473.9, -16800.455, 0.024869539, 0.32129994, -106457.914, 82102.74, 0.0, 10.001765, 9.997926 
2.7445504e+3, 2.907482e+2, -97925.9, -209632.78, 39263.2, -0.03844034, -0.2926155, -85506.31, 5164.318, 0.0, 10.000767, 9.999021 
2.7442458e+3, 3.007397e+2, -219295.45, -307565.34, 26690.156, -0.1448423, -0.56955856, -211852.7, -211852.7, 0.0, 9.999387, 9.998508 
2.7439424e+3, 3.107493e+2, 52570.54, 118159.45, -95767.47, -0.02482245, 0.7534015, 186591.89, 186591.89, 0.0, 9.999923, 10.000724 
2.7436426e+3, 3.2073578e+2, -89121.97, -34496.965, 82752.38, 0.3225649, -0.14801438, 25333.686, 25333.686, 0.0, 9.999013, 10.0001545 
2.7593935e+3, 1.3113973e+2, -1162809.9, -1344790.5, -68517.65, -0.32246956, 0.23865715, -1139897.1, 514945.72, 0.0058229333, 10.003536, 10.000494 
2.7590927e+3, 1.4113389e+2, -1272191.0, -1708667.3, 32696.14, 0.025051612, 0.02667449, -1269755.4, 287137.44, 0.0029696852, 10.003381, 9.997687 
2.75879e+3, 1.5112817e+2, -961353.0, -1254601.6, 183007.02, -0.24934465, -0.081741266, -873477.25, 585468.06, 0.0010279784, 10.003987, 9.999672 
2.7584875e+3, 1.6112226e+2, -1162294.6, -1709450.3, 17375.68, -0.39466894, -0.094146416, -1161743.4, 199259.44, 0.0002033788, 10.003434, 9.996311 
2.7581835e+3, 1.711157e+2, -1092776.0, -1544411.9, -91249.195, -0.121099554, -0.020489028, -1075036.6, 188039.02, 0.000016580547, 10.003085, 9.996787 
2.7578798e+3, 1.8110988e+2, -1172752.0, -1410322.3, 35754.527, 0.1287772, 0.13163102, -1167487.5, -2348.794, 0.00000009587778, 10.001199, 9.998074 
2.7575785e+3, 1.9110589e+2, -956585.8, -855060.8, 97280.74, 0.1346956, 0.05271516, -796094.6, 271078.34, 0.0, 10.000481, 10.001404 
2.757277e+3, 2.0110194e+2, -1280960.8, -1386401.1, 3858.653, 0.14429256, 0.07684591, -1280819.8, -311612.13, 0.0, 9.999183, 9.997891 
2.7569735e+3, 2.1109627e+2, -896368.75, -1060825.0, -72672.7, 0.2557145, 0.0701872, -868857.25, 2411.4695, 0.0, 10.0009365, 9.998459 
2.7566692e+3, 2.21091e+2, -823868.7, -1044566.56, 6836.3833, 0.29603162, 0.14997625, -823657.1, -50332.734, 0.0, 10.000937, 9.99803 
2.7563632e+3, 2.3108698e+2, -633989.0, -621596.2, 54173.055, -0.12275856, 0.15853226, -573266.3, 102092.49, 0.0, 10.000549, 10.000303 
2.7560586e+3, 2.4108309e+2, -927015.1, -919150.8, 51639.676, -0.4582247, 0.23966938, -871293.8, -293902.3, 0.0, 9.998559, 9.998676 
2.755759e+3, 2.510776e+2, -616816.44, -508724.44, 77726.29, -0.24921377, 0.06679236, -468100.75, 11341.338, 0.0, 9.999268, 10.0003395 
2.7554592e+3, 2.6107204e+2, -769693.4, -889688.25, 62771.15, -0.0418738, 0.014236353, -742858.1, -361363.3, 0.0, 9.998894, 9.9973955 
2.755156e+3, 2.7106678e+2, -368027.6, -507103.47, -27732.45, 0.022913096, 0.07287062, -362701.56, -79152.03, 0.0, 10.000629, 9.998342 
2.754852e+3, 2.810614e+2, -291554.7, -525544.5, -49422.227, 0.07574928, 0.17085397, -281544.22, -95940.195, 0.0, 10.000721, 9.997662 
2.7545476e+3, 2.9105455e+2, -108756.59, -110444.92, -17345.582, 0.06334199, -0.063444115, -92234.65, -4566.052, 0.0, 10.000293, 9.999914 
2.7542427e+3, 3.010493e+2, -405303.1, -506860.2, -7440.6084, -0.029768543, -0.043613736, -404760.84, -404760.84, 0.0, 9.998697, 9.997453 
2.753939e+3, 3.110513e+2, -138823.05, -174425.06, -86922.38, 0.07375746, 0.66204375, -67897.64, -67897.64, 0.0, 9.999553, 9.998868 
2.7536362e+3, 3.2103708e+2, -267547.84, -120380.54, 76638.836, 0.13399951, -0.18961746, -87718.88, -87718.88, 0.0, 9.997993, 9.9999895 
2.7693942e+3, 1.3144422e+2, -1426406.9, -1660991.9, 76475.11, -0.25620106, 0.1302621, -1403678.0, 248176.8, 0.0036893368, 10.00253, 9.998779 
2.7690896e+3, 1.4143828e+2, -1166575.0, -1669162.9, 96777.195, -0.3601829, 0.04815244, -1148583.9, 405328.0, 0.001804221, 10.004168, 9.997556 
2.768788e+3, 1.5143332e+2, -1191247.4, -1334729.9, 162200.2, -0.35401356, -0.00194383, -1085631.0, 370324.34, 0.00058557204, 10.002273, 9.999935 
2.7684864e+3, 1.6142796e+2, -1481601.0, -1751366.9, 18443.928, -0.28755364, -0.002266101, -1480345.9, -122340.945, 0.00010501939, 10.000675, 9.997368 
2.7681828e+3, 1.7142129e+2, -1022657.9, -1395604.8, 36660.523, -0.053012863, -0.034258872, -1019088.3, 240986.9, 0.0000068884756, 10.002947, 9.9979515 
2.767879e+3, 1.814152e+2, -733542.4, -1227564.6, 149042.77, 0.112532355, 0.038279038, -692060.44, 470078.97, 0.00000000965895, 10.00426, 9.997875 
2.7675754e+3, 1.9141023e+2, -654617.75, -911960.06, 134660.03, 0.022697603, 0.032404486, -597037.5, 467149.7, 0.0, 10.003335, 9.999696 
2.7672723e+3, 2.0140548e+2, -826073.1, -1140795.8, -195.59709, -0.039599907, 0.09496244, -826073.0, 140160.14, 0.0, 10.002099, 9.998192 
2.7669698e+3, 2.1139999e+2, -687459.75, -913972.4, -3805.1875, 0.15956049, 0.089608766, -687395.8, 180895.6, 0.0, 10.002083, 9.998982 
2.7666664e+3, 2.2139467e+2, -645115.3, -933050.5, 56687.363, 0.2649883, 0.13801658, -634356.94, 135989.53, 0.0, 10.001935, 9.998341 
2.7663612e+3, 2.3138937e+2, -504238.16, -667697.25, 45378.008, -0.035792638, 0.11207687, -492485.72, 179906.97, 0.0, 10.001759, 9.999483 
2.7660567e+3, 2.413844e+2, -467221.34, -681609.7, 3037.4077, -0.30563983, 0.14357637, -467178.3, 107257.41, 0.0, 10.001489, 9.99894 
2.7657557e+3, 2.5137895e+2, -295887.63, -378920.94, -38880.527, -0.2197551, 0.014781003, -280524.34, 195960.66, 0.0, 10.001468, 10.000226 
2.7654546e+3, 2.6137358e+2, -379322.94, -631498.5, -116032.36, -0.101841256, -0.034629524, -334058.34, 44477.17, 0.0, 10.001201, 9.998053 
2.7651513e+3, 2.713681e+2, -314526.88, -486942.06, -137039.61, -0.077410966, 0.0013721056, -238834.48, 41758.594, 0.0, 10.000929, 9.998397 
2.7648476e+3, 2.8136274e+2, -290967.22, -472232.53, -112716.31, -0.002689054, 0.08870917, -236965.0, -54316.426, 0.0, 10.000347, 9.998232 
2.7645436e+3, 2.9135773e+2, -137990.69, -150075.83, -182953.83, 0.09432985, 0.03631744, 39020.324, 123716.35, 0.0, 9.99997, 9.999889 
2.7642387e+3, 3.0135357e+2, -305123.8, -460066.38, -156976.02, 0.09881984, 0.15984368, -207542.9, -207542.9, 0.0, 9.999274, 9.997494 
2.7639347e+3, 3.1135106e+2, -106660.414, -226108.4, -141436.94, 0.1187567, 0.4566568, -12854.729, -12854.729, 0.0, 10.000008, 9.998285 
2.7636304e+3, 3.2133943e+2, -19098.697, 61868.76, -65764.305, 0.08670343, -0.112095036, 98611.164, 98611.164, 0.0, 9.999337, 10.000573 
2.7793947e+3, 1.3174877e+2, -1637325.5, -1975165.5, 114655.58, -0.05397361, 0.0018988748, -1602089.1, 46775.734, 0.00217142, 10.002065, 9.996815 
2.7790865e+3, 1.4174263e+2, -1224728.8, -1811300.4, 16580.652, -0.6672831, 0.04198395, -1224260.4, 326670.5, 0.0010072395, 10.0042095, 9.996606 
2.7787858e+3, 1.5173906e+2, -1127490.3, -1322465.0, 18711.598, -0.350117, 0.12922652, -1125710.8, 327249.72, 0.00030058212, 10.002719, 9.999864 
2.7784863e+3, 1.6173474e+2, -1430070.1, -1615838.1, 11002.923, 0.03283928, 0.21477312, -1429420.6, -74422.79, 0.000046417692, 10.000625, 9.998319 
2.7781832e+3, 1.7172815e+2, -981827.1, -1173658.1, 42365.816, 0.12754844, 0.0009985298, -972887.3, 284175.34, 0.0000020738605, 10.002447, 9.999685 
2.777879e+3, 1.8172184e+2, -1020132.75, -1506696.5, 94098.34, 0.103052214, -0.016514838, -1002568.75, 156557.39, 0.00000000000031198744, 10.002998, 9.996534 
2.7775726e+3, 1.9171552e+2, -883853.8, -1275981.1, 55654.28, -0.15479527, 0.021542434, -876107.9, 185084.64, 0.0, 10.002962, 9.997315 
2.7772677e+3, 2.0170978e+2, -949326.0, -1286081.1, -5075.722, -0.27622494, 0.17385197, -949249.5, 14003.367, 0.0, 10.001763, 9.997317 
2.7769652e+3, 2.1170475e+2, -690267.6, -830135.6, -27258.969, -0.021311183, 0.14220397, -685142.9, 180161.14, 0.0, 10.001821, 9.999634 
2.7766633e+3, 2.2169927e+2, -922844.6, -1204219.0, 35107.24, 0.21436617, 0.18170021, -918530.4, -151173.03, 0.0, 10.000714, 9.997037 
2.776361e+3, 2.3169072e+2, -705194.75, -920619.25, 30601.74, 0.23592418, -0.06653477, -700932.0, -31497.508, 0.0, 10.001144, 9.997984 
2.7760583e+3, 2.4168323e+2, -771729.9, -1007015.8, 8049.665, 0.18476778, -0.13250758, -771454.75, -199952.47, 0.0, 10.000332, 9.997225 
2.7757546e+3, 2.516781e+2, -501578.0, -602740.0, -34877.0, -0.007553925, -0.1273716, -490719.25, -17167.723, 0.0, 10.000728, 9.99901 
2.7754506e+3, 2.616734e+2, -619926.1, -759804.9, -123890.055, -0.1882137, -0.007340052, -547597.2, -171999.5, 0.0, 9.999773, 9.997799 
2.775145e+3, 2.716686e+2, -356433.13, -387196.75, -141916.4, -0.3305492, -0.016543122, -229067.38, 48578.918, 0.0, 10.000231, 9.999359 
2.7748403e+3, 2.8166357e+2, -490734.9, -620667.8, -140712.05, -0.35397348, 0.053110693, -400715.8, -221018.56, 0.0, 9.999359, 9.99765 
2.774538e+3, 2.916567e+2, -315381.97, -329040.5, -197908.67, -0.027949335, -0.11955969, -124184.77, -42421.34, 0.0, 9.999324, 9.998898 
2.7742335e+3, 3.0165118e+2, -432108.6, -509181.03, -159900.4, 0.047010724, -0.056150515, -306166.3, -306166.3, 0.0, 9.998525, 9.997481 
2.7739277e+3, 3.1164807e+2, -135994.75, -114811.37, -111471.836, -0.16016401, 0.066336885, -13429.159, -13429.159, 0.0, 9.999389, 9.999323 
2.7736282e+3, 3.2164276e+2, -198390.14, -57983.703, -161945.95, 0.28400424, 0.09911127, 48320.824, 48320.824, 0.0, 9.998425, 10.000184 
2.7893916e+3, 1.3205096e+2, -1577061.9, -1827717.5, 122773.35, -0.27861333, 0.09123516, -1526946.4, 118960.484, 0.0011689387, 10.001877, 9.997981 
2.7890912e+3, 1.4204483e+2, -956326.0, -1568349.0, -58541.97, -0.37708548, 0.049186066, -950776.56, 597192.06, 0.0005049565, 10.005522, 9.997658 
2.788786e+3, 1.5204097e+2, -931003.94, -1150906.8, -88897.95, -0.25969565, 0.031214107, -899561.7, 550436.6, 0.00013439951, 10.003703, 10.000591 
2.7884832e+3, 1.6203654e+2, -1253380.6, -1523266.9, -44305.438, -0.053570163, 0.064917244, -1246293.4, 105742.18, 0.000016423304, 10.001743, 9.998427 
2.78818e+3, 1.7203003e+2, -1082043.6, -1268833.8, -40592.12, 0.040692773, -0.09746617, -1073603.8, 180496.67, 0.0000003300107, 10.00189, 9.999325 
2.7878767e+3, 1.8202429e+2, -1046747.06, -1376262.8, -48153.996, 0.014795258, -0.096950226, -1039854.2, 116303.945, 0.0, 10.002084, 9.997914 
2.787572e+3, 1.9201933e+2, -685118.94, -1046471.94, 68387.04, -0.13947253, -0.033380587, -672609.56, 385599.97, 0.0, 10.003592, 9.998692 
2.7872673e+3, 2.0201442e+2, -585741.6, -1077188.4, 39505.402, -0.2251383, 0.120018944, -582586.2, 377675.25, 0.0, 10.004067, 9.99763 
2.786963e+3, 2.120091e+2, -604362.2, -913025.0, -44905.875, -0.057159334, 0.17476194, -597961.75, 264357.53, 0.0, 10.002898, 9.998567 
2.78666e+3, 2.2200313e+2, -654807.3, -1004769.2, 18521.365, 0.10177051, 0.21332374, -653829.8, 110549.6, 0.0, 10.002106, 9.997767 
2.7863583e+3, 2.3199445e+2, -379554.25, -705507.06, 126113.75, 0.15952876, -0.09005104, -336457.9, 329996.97, 0.0, 10.002966, 9.998653 
2.7860564e+3, 2.419866e+2, -354899.5, -800304.7, 140400.3, 0.17153183, -0.2225498, -314336.66, 254188.05, 0.0, 10.003091, 9.9973135 
2.7857518e+3, 2.5198054e+2, -444165.2, -690811.4, 84509.74, 0.03229871, -0.18623179, -417987.5, 52598.01, 0.0, 10.0015335, 9.998051 
2.7854472e+3, 2.6197514e+2, -514100.47, -670297.4, 23296.38, -0.12674277, -0.0723413, -510699.9, -138059.78, 0.0, 10.000185, 9.998257 
2.7851415e+3, 2.7197027e+2, -312881.34, -354245.78, -31856.588, -0.30414358, -0.07480219, -295582.03, -20894.19, 0.0, 10.0003, 9.999638 
2.7848363e+3, 2.8196523e+2, -319987.56, -498422.97, -50838.57, -0.31153414, -0.020442247, -306519.53, -129782.086, 0.0, 10.00028, 9.998039 
2.7845347e+3, 2.9195842e+2, -69991.586, -249566.55, -88050.38, 0.055234585, -0.13482714, -34022.715, 44782.4, 0.0, 10.001111, 9.9985895 
2.78423e+3, 3.0195212e+2, -7686.698, -264859.2, -27502.389, 0.13476624, -0.13665819, -4778.443, -4778.443, 0.0, 10.001101, 9.99796 
2.783921e+3, 3.119472e+2, -34335.37, -57636.99, -73482.32, -0.33425155, -0.18850486, 28414.04, 28414.04, 0.0, 9.9998455, 9.999597 
2.7836254e+3, 3.219456e+2, -88591.52, -53093.625, -203578.1, 0.5549771, 0.24362937, 133507.78, 133507.78, 0.0, 9.999206, 9.999905 
2.799389e+3, 1.3235328e+2, -1388158.8, -1579999.1, 349031.25, -0.32792616, 0.2561267, -1122107.3, 520841.34, 0.0005685035, 10.002505, 9.999346 
2.7990967e+3, 1.4234693e+2, -1299308.1, -1650276.3, -60023.242, 0.121947914, 0.04923382, -1289326.6, 255679.72, 0.00022583413, 10.002889, 9.998304 
2.7987868e+3, 1.5234207e+2, -1001583.56, -1126007.8, -192794.81, -0.09536102, -0.14434212, -861211.9, 585831.7, 0.00005282333, 10.003021, 10.0010395 
2.7984798e+3, 1.623369e+2, -1298391.3, -1620984.0, -70142.945, -0.138062, -0.18237194, -1283799.8, 65287.42, 0.000004777361, 10.001896, 9.997598 
2.7981767e+3, 1.723306e+2, -1151145.1, -1406208.3, -25460.963, -0.043851998, -0.2591518, -1148628.4, 102523.375, 0.00000002399446, 10.001942, 9.998286 
2.7978745e+3, 1.8232557e+2, -1040672.4, -1228991.5, 34073.51, 0.02178727, -0.15252538, -1034696.9, 118505.984, 0.0, 10.001642, 9.999084 
2.7975726e+3, 1.9232284e+2, -649086.25, -726092.0, 85117.59, 0.022061167, -0.13574249, -594168.1, 461060.1, 0.0, 10.002659, 10.001283 
2.7972692e+3, 2.0231946e+2, -898464.9, -1345297.9, -29902.602, 0.026499664, 0.04981467, -896472.6, 60790.902, 0.0, 10.002506, 9.996522 
2.796962e+3, 2.1231306e+2, -867993.4, -1253635.9, -113145.69, 0.022733327, 0.13994808, -837248.06, 22090.65, 0.0, 10.002052, 9.996609 
2.7966562e+3, 2.2230677e+2, -820753.8, -1013507.0, 51993.62, -0.0041570812, 0.2591486, -807623.4, -46217.64, 0.0, 10.000869, 9.998239 
2.796354e+3, 2.3229992e+2, -428151.38, -507007.13, 138461.9, -0.11116561, -0.056845862, -323613.1, 339846.16, 0.0, 10.001848, 10.0005045 
2.7960515e+3, 2.422931e+2, -656134.2, -1027435.5, 75979.74, -0.15182728, -0.15837094, -641188.06, -75671.57, 0.0, 10.001517, 9.996474 
2.7957484e+3, 2.522853e+2, -666630.56, -917821.44, 14267.4795, -0.03958525, -0.22650054, -665822.8, -198226.53, 0.0, 10.000627, 9.996885 
2.7954444e+3, 2.622786e+2, -774171.06, -887128.56, 2472.7446, 0.0064151385, -0.13292284, -774116.94, -404452.4, 0.0, 9.99894, 9.997332 
2.7951396e+3, 2.72273e+2, -468625.13, -470869.2, -16934.955, -0.061685, -0.19228914, -452775.06, -181057.23, 0.0, 9.999532, 9.999164 
2.7948356e+3, 2.822681e+2, -477727.38, -621186.6, -38179.754, -0.03362776, -0.06739295, -468199.2, -294433.0, 0.0, 9.999526, 9.997525 
2.7945337e+3, 2.9226312e+2, -123950.55, -251307.3, -52058.594, 0.24741149, -0.03243597, -105379.11, -29559.78, 0.0, 10.000731, 9.998735 
2.7942276e+3, 3.0225742e+2, -165319.63, -409053.84, -85306.28, 0.15270378, 0.04541062, -138429.38, -138429.38, 0.0, 10.0004835, 9.997192 
2.793915e+3, 3.1224927e+2, -229391.13, -234747.38, -122284.234, -0.5243501, -0.27005982, -109755.695, -109755.695, 0.0, 9.999007, 9.998704 
2.7936175e+3, 3.2224572e+2, -251203.22, -214141.27, 18173.773, 0.14939141, 0.037842836, -206716.84, -206716.84, 0.0, 9.998725, 9.998905 
2.8093883e+3, 1.3265477e+2, -1272408.8, -1511274.3, 165553.02, -0.4556265, 0.2097532, -1187704.3, 452288.3, 0.00025074874, 10.003122, 9.999594 
2.809094e+3, 1.4264843e+2, -1707003.5, -1773768.1, -92740.49, 0.1079465, -0.025615916, -1641820.3, -99770.76, 0.00009142473, 9.999748, 9.998988 
2.808787e+3, 1.526445e+2, -1150078.9, -1200265.3, -132824.48, 0.07741608, -0.12939, -1039998.06, 404085.2, 0.000018191195, 10.001939, 10.001107 
2.808481e+3, 1.6264023e+2, -967174.8, -1275749.5, -71405.95, 0.036532566, -0.13520591, -951452.2, 394668.03, 0.000001253609, 10.003294, 9.999311 
2.8081748e+3, 1.726358e+2, -880570.5, -1090797.5, 73048.59, -0.105354, -0.17639928, -857680.3, 390478.75, 0.0000000065346386, 10.002902, 10.000039 
2.8078705e+3, 1.8263124e+2, -1015987.4, -1266525.1, 133930.17, -0.20009509, -0.096580185, -957872.56, 192329.45, 0.0, 10.00199, 9.998649 
2.8075686e+3, 1.9262567e+2, -953979.2, -1074559.3, 48775.08, -0.14233053, -0.17271535, -936719.9, 115540.16, 0.0, 10.00137, 9.999537 
2.8072658e+3, 2.0262069e+2, -1028857.44, -1299210.1, -178680.58, -0.0821769, -0.0861391, -939981.56, 14331.918, 0.0, 10.001053, 9.99754 
2.806959e+3, 2.1261542e+2, -790927.2, -1086876.3, -115301.36, -0.088382974, 0.012279242, -751309.44, 105063.484, 0.0, 10.001905, 9.99787 
2.806653e+3, 2.2261024e+2, -644208.0, -957937.3, 81271.89, -0.10718208, 0.17391145, -624404.5, 134024.5, 0.0, 10.002115, 9.998047 
2.8063512e+3, 2.3260435e+2, -613791.0, -750017.5, 17915.932, -0.1056068, 0.10235759, -611474.2, 49008.953, 0.0, 10.001107, 9.999247 
2.806049e+3, 2.4259813e+2, -718786.5, -968384.25, -128389.07, -0.10887617, 0.088300675, -664536.44, -101996.0, 0.0, 10.000545, 9.997381 
2.8057447e+3, 2.5259057e+2, -469457.53, -735365.06, -87484.88, -0.09230605, -0.03507541, -443256.3, 21357.764, 0.0, 10.001438, 9.997818 
2.80544e+3, 2.625837e+2, -232670.77, -550211.3, 12716.118, -0.059160676, -0.045166582, -232162.36, 134517.47, 0.0, 10.002181, 9.9981365 
2.8051367e+3, 2.7257732e+2, -13060.975, -254672.48, 17564.492, -0.006314047, -0.17248894, -11790.763, 256947.03, 0.0, 10.00251, 9.999287 
2.8048334e+3, 2.8257212e+2, -72983.195, -350723.6, 22828.727, 0.09239107, -0.10761008, -71119.305, 99667.805, 0.0, 10.001816, 9.998345 
2.8045294e+3, 2.9256862e+2, -239369.17, -285864.84, 3331.3457, 0.23769881, 0.069495976, -239131.7, -166304.1, 0.0, 9.999672, 9.999105 
2.8042224e+3, 3.0256385e+2, -392052.38, -453860.38, 31825.033, 0.1079523, 0.21059386, -378595.47, -378595.47, 0.0, 9.998576, 9.997802 
2.8039113e+3, 3.1255513e+2, 42933.836, -105321.34, 32233.008, -0.41469333, -0.14753622, 49638.58, 49638.58, 0.0, 10.000774, 9.998787 
2.8036115e+3, 3.225503e+2, -69700.89, -146709.77, 203017.16, 0.017350726, 0.050354082, 98430.96, 98430.96, 0.0, 9.999891, 9.998867 
2.8193873e+3, 1.329561e+2, -1405464.3, -1519948.6, 38883.54, -0.42368492, 0.10372409, -1393506.8, 243531.03, 0.00010745089, 10.002165, 9.999912 
2.8190896e+3, 1.4295039e+2, -1746538.3, -1781552.6, -40774.94, 0.15545417, -0.06372479, -1719670.9, -180582.72, 0.00003510944, 9.999552, 9.998978 
2.8187865e+3, 1.5294763e+2, -1295567.9, -1258161.6, -34555.195, 0.3220392, -0.07290576, -1237572.6, 203545.4, 0.0000055355054, 10.001016, 10.001105 
2.8184825e+3, 1.6294496e+2, -1090963.5, -1146773.9, -33302.586, 0.3486546, 0.029371351, -1075420.3, 267721.56, 0.0000002527922, 10.001743, 10.000936 
2.8181735e+3, 1.7294262e+2, -809073.25, -789361.94, -11390.765, -0.08662286, -0.039697926, -784154.94, 460995.97, 0.0, 10.002371, 10.00236 
2.817866e+3, 1.8293838e+2, -1199861.9, -1593692.4, 56161.64, -0.3932303, 0.017362492, -1192009.6, -44822.773, 0.0, 10.001837, 9.996465 
2.8175634e+3, 1.929284e+2, -1252599.5, -1595815.0, 34172.61, -0.3399899, -0.20495059, -1249230.1, -199933.94, 0.0, 10.000987, 9.996145 
2.8172606e+3, 2.0292078e+2, -1107837.6, -1223054.1, -105744.88, -0.2669637, -0.19299549, -1045027.06, -93648.48, 0.0, 10.000189, 9.998409 
2.8169543e+3, 2.1291724e+2, -720062.7, -762914.44, -86019.81, -0.2332611, -0.19267134, -652840.5, 200571.13, 0.0, 10.001297, 10.000316 
2.8166503e+3, 2.2291361e+2, -929547.5, -1339127.8, 55827.977, -0.1536312, 0.076022714, -922074.2, -166623.08, 0.0, 10.001348, 9.995749 
2.81635e+3, 2.3290797e+2, -944472.7, -1241036.9, -5854.061, 0.09238276, 0.29138577, -944357.2, -286835.78, 0.0, 10.000428, 9.996129 
2.8160477e+3, 2.4290262e+2, -821771.2, -908332.94, -86677.38, 0.13184139, 0.53033257, -768169.7, -208588.4, 0.0, 9.999532, 9.998229 
2.81574e+3, 2.5289622e+2, -449280.56, -457038.2, -40727.914, -0.20008652, 0.27201238, -412247.2, 49389.184, 0.0, 10.000535, 10.000117 
2.815435e+3, 2.6289004e+2, -380136.16, -553646.1, 25116.203, -0.37443522, 0.18445937, -376573.66, -12885.129, 0.0, 10.00106, 9.998584 
2.8151327e+3, 2.72883e+2, -101174.62, -238020.61, 41797.56, -0.20343958, -0.08780068, -89418.17, 176330.23, 0.0, 10.001793, 9.99968 
2.8148288e+3, 2.8287786e+2, -187757.97, -363859.94, -62236.145, -0.11110603, -0.040656112, -167983.56, -188.58667, 0.0, 10.00104, 9.998561 
2.814521e+3, 2.928752e+2, -327431.97, -242617.17, -75128.43, -0.14568919, 0.13105609, -198753.67, -128925.875, 0.0, 9.998854, 9.999732 
2.8142136e+3, 3.028721e+2, -452280.7, -393133.38, 84116.54, -0.21224341, 0.38001895, -333543.2, -333543.2, 0.0, 9.997867, 9.998547 
2.8139123e+3, 3.128666e+2, 19553.236, 10471.361, 157367.22, -0.0075031067, 0.21287666, 172445.02, 172445.02, 0.0, 10.000131, 9.999875 
2.8136066e+3, 3.2286108e+2, -145373.39, -40880.74, 100997.03, -0.13981219, 0.2233475, 20583.441, 20583.441, 0.0, 9.998975, 9.999957 
2.8293857e+3, 1.3326156e+2, -1481467.9, -1441988.5, -60711.36, -0.43006483, 0.20792611, -1397888.4, 236160.75, 0.000050640916, 10.00106, 10.00102 
2.829088e+3, 1.4325556e+2, -1613033.8, -1629132.5, 8677.138, 0.35004333, -0.040351216, -1609247.4, -73147.984, 0.00001538915, 10.000079, 9.9997635 
2.8287795e+3, 1.532537e+2, -1525486.9, -1388900.0, 65419.77, -0.00055803277, 0.052575823, -1362622.0, 75497.39, 0.0000020566958, 9.999469, 10.000984 
2.828474e+3, 1.6325064e+2, -1452717.4, -1435456.1, 45659.598, -0.15169017, 0.1680866, -1397618.6, -57470.21, 0.00000005936716, 9.999699, 9.999953 
2.8281713e+3, 1.732449e+2, -961663.75, -1076351.5, -35832.1, -0.11761516, -0.055453673, -951389.1, 290807.5, 0.0, 10.002169, 10.000521 
2.8278673e+3, 1.8323986e+2, -853356.75, -1229538.8, -130900.08, -0.1456149, -0.053810496, -812290.44, 331951.78, 0.0, 10.003269, 9.998317 
2.8275624e+3, 1.9323431e+2, -999737.5, -1249024.5, 48153.156, -0.18923266, -0.037723918, -990759.4, 55544.082, 0.0, 10.001653, 9.998253 
2.8272575e+3, 2.0322882e+2, -936040.44, -1081540.3, 93862.14, -0.2218797, 0.045225807, -890035.75, 58325.645, 0.0, 10.001006, 9.999043 
2.826952e+3, 2.1322331e+2, -521404.66, -730255.6, 46276.523, -0.28060994, -0.06758631, -511610.2, 338802.8, 0.0, 10.002794, 9.999894 
2.826648e+3, 2.2321813e+2, -512137.66, -1051288.9, 68515.18, -0.22626866, 0.035096504, -503567.0, 248899.33, 0.0, 10.003721, 9.99662 
2.8263468e+3, 2.3321213e+2, -586836.06, -1061152.8, 156723.48, 0.02424115, 0.21155794, -539729.9, 114808.39, 0.0, 10.002676, 9.996359 
2.8260437e+3, 2.4320678e+2, -467615.94, -641830.4, 179819.11, 0.116569705, 0.4151285, -354916.78, 201681.38, 0.0, 10.001454, 9.99917 
2.8257376e+3, 2.532013e+2, -456262.84, -455555.1, 119419.44, -0.101783365, 0.27206215, -336489.0, 122157.64, 0.0, 10.000319, 10.000307 
2.825432e+3, 2.631958e+2, -511006.94, -510213.6, 131725.73, -0.25739193, 0.20419611, -378883.94, -18190.604, 0.0, 9.999636, 9.999571 
2.825129e+3, 2.731894e+2, -332141.9, -325188.38, 117258.51, -0.27019313, -0.017674712, -211355.11, 51391.313, 0.0, 10.000041, 9.999945 
2.824824e+3, 2.831841e+2, -231058.0, -345691.2, -29454.738, -0.2399528, -0.017613903, -223932.58, -59138.863, 0.0, 10.000474, 9.998969 
2.824515e+3, 2.9318023e+2, -2205.9885, -147372.0, -136684.7, -0.2662169, 0.07486417, 79972.12, 146810.08, 0.0, 10.001198, 9.999297 
2.824208e+3, 3.0317703e+2, 25662.684, -55069.03, 40381.22, -0.24039578, 0.28865534, 42393.633, 42393.633, 0.0, 10.000593, 9.999575 
2.8239104e+3, 3.1317398e+2, -181006.72, -51589.156, 48303.84, 0.29777285, 0.31055132, -35548.402, -35548.402, 0.0, 9.998475, 10.000283 
2.823601e+3, 3.2316774e+2, 53061.8, 68688.79, -119756.91, -0.1850258, 0.20040557, 180886.83, 180886.83, 0.0, 10.000112, 10.000231 
2.8393844e+3, 1.3356778e+2, -1487353.1, -1390902.6, -31972.139, -0.2377458, 0.31128526, -1381266.9, 249785.67, 0.000026719768, 10.000696, 10.001594 
2.8390864e+3, 1.4356168e+2, -1479904.6, -1548954.9, -10883.174, 0.62224615, 0.023992777, -1478230.0, 54871.734, 0.000008259606, 10.000937, 9.999884 
2.838771e+3, 1.5356052e+2, -1386642.9, -1337561.3, -7993.0073, -0.36238128, 0.18021253, -1336292.4, 98819.85, 0.0000013335809, 10.000495, 10.000827 
2.8384638e+3, 1.6355631e+2, -1564150.5, -1747151.4, 106900.45, -0.69429576, 0.28797093, -1514938.3, -177784.4, 0.000000073245815, 10.000164, 9.997537 
2.8381696e+3, 1.735456e+2, -1286733.4, -1575182.8, 79426.51, -0.027960379, -0.15806264, -1266308.9, -27048.389, 0.0, 10.001492, 9.997388 
2.8378704e+3, 1.8353994e+2, -882397.06, -922616.44, -99699.016, 0.3202637, -0.14335151, -800799.9, 340515.75, 0.0, 10.001808, 10.0010605 
2.8375626e+3, 1.9354145e+2, -881166.0, -763726.8, -44273.465, 0.13550968, 0.16205676, -748906.44, 294391.97, 0.0, 10.000721, 10.001973 
2.8372556e+3, 2.0353965e+2, -1077571.8, -1223516.8, 102842.53, -0.053125143, 0.42495295, -1024442.75, -79127.63, 0.0, 10.0004635, 9.998289 
2.8369504e+3, 2.1353112e+2, -796244.56, -1060339.3, 86170.766, -0.23715161, 0.13092119, -770615.3, 76784.37, 0.0, 10.001887, 9.998013 
2.836646e+3, 2.2352366e+2, -623011.06, -933375.06, 42683.727, -0.3140812, 0.06525841, -617247.9, 132224.98, 0.0, 10.0023575, 9.99805 
2.8363422e+3, 2.3351677e+2, -631204.94, -850062.56, 99352.2, -0.2091259, -0.099701904, -592831.44, 58708.13, 0.0, 10.001476, 9.998361 
2.8360388e+3, 2.4351108e+2, -683352.5, -844843.8, 122601.01, -0.07470336, -0.000039933395, -617296.0, -63700.008, 0.0, 10.000521, 9.998208 
2.835736e+3, 2.53506e+2, -700783.7, -755061.44, 63854.17, 0.1616941, 0.0060030976, -658540.5, -202892.44, 0.0, 9.999547, 9.998601 
2.8354314e+3, 2.635014e+2, -659900.56, -574805.44, 123813.61, 0.13557848, 0.13718554, -486432.75, -128741.14, 0.0, 9.99875, 9.999489 
2.835124e+3, 2.7349618e+2, -455707.03, -368174.78, 137558.28, -0.28385395, -0.029022198, -267588.03, -7853.328, 0.0, 9.999252, 9.999977 
2.834818e+3, 2.8349057e+2, -408984.78, -535648.0, -13040.54, -0.4289389, -0.013113852, -407656.16, -245870.5, 0.0, 9.999838, 9.997926 
2.834513e+3, 2.934832e+2, -182782.88, -380969.8, -92418.18, -0.1779189, -0.18406059, -146374.92, -82513.12, 0.0, 10.000708, 9.997905 
2.8342062e+3, 3.0347788e+2, -61442.49, -102063.8, -46330.06, -0.092009656, -0.090715535, -31166.613, -31166.613, 0.0, 10.000186, 9.999391 
2.8339034e+3, 3.1347448e+2, -411868.22, -199830.19, -45198.656, 0.19202392, -0.115559, -190597.53, -190597.53, 0.0, 9.997206, 9.999829 
2.8335962e+3, 3.2346845e+2, -98871.3, -123553.07, 300783.84, -0.37130812, -0.19048774, 189824.7, 189824.7, 0.0, 9.999798, 9.998955 
2.8493828e+3, 1.3387266e+2, -1586874.6, -1629798.3, 36626.41, -0.14867859, 0.122921586, -1565885.3, 62171.098, 0.000013315561, 10.000726, 10.000012 
2.849082e+3, 1.4386645e+2, -1251898.1, -1509591.3, -36148.563, 0.34483817, -0.021075416, -1246923.4, 283191.94, 0.0000038169696, 10.002736, 9.99931 
2.8487703e+3, 1.5386435e+2, -1145602.5, -1358503.8, -31114.053, -0.24176711, 0.13659962, -1141148.6, 290986.44, 0.0000005153316, 10.002639, 9.999689 
2.8484645e+3, 1.6385995e+2, -1186032.9, -1445565.0, 82811.59, -0.39364663, 0.23821555, -1161860.6, 172317.64, 0.00000002542409, 10.002176, 9.998648 
2.8481677e+3, 1.7385136e+2, -1285381.0, -1463696.5, 222632.94, 0.044600893, -0.08921653, -1134716.9, 101547.79, 0.0, 10.000936, 9.998453 
2.8478664e+3, 1.8384609e+2, -1096403.1, -1028432.25, 48774.36, 0.23575328, -0.08808473, -1002970.7, 135345.55, 0.0, 10.000259, 10.001101 
2.847558e+3, 1.938455e+2, -939411.44, -849462.06, -34893.67, 0.038684994, 0.08712538, -837513.25, 202805.17, 0.0, 10.000421, 10.0015745 
2.847252e+3, 2.0384295e+2, -979643.6, -1130097.8, 44701.3, -0.1018717, 0.2681244, -967364.6, -25023.42, 0.0, 10.000848, 9.998772 
2.846949e+3, 2.1383561e+2, -814169.4, -1038518.94, 117025.46, -0.1634522, 0.08122722, -764238.8, 80174.63, 0.0, 10.001491, 9.998405 
2.846645e+3, 2.2382884e+2, -643439.25, -838808.2, 35103.668, -0.19930854, 0.0155039495, -637323.3, 109155.31, 0.0, 10.001721, 9.999003 
2.8463393e+3, 2.3382223e+2, -578923.5, -746568.7, 8858.825, -0.24305303, -0.15345256, -578456.7, 70082.79, 0.0, 10.001386, 9.9991455 
2.8460348e+3, 2.438166e+2, -521519.94, -762599.06, 3243.873, -0.14320563, -0.11733336, -521476.28, 29117.287, 0.0, 10.001473, 9.998366 
2.8457326e+3, 2.538118e+2, -361450.5, -630123.7, 4526.871, 0.17589563, -0.023766328, -361374.25, 91270.31, 0.0, 10.001901, 9.998383 
2.8454283e+3, 2.638069e+2, -281100.1, -433721.6, 76726.664, 0.21331339, 0.09180202, -249196.66, 105497.13, 0.0, 10.001428, 9.999218 
2.8451204e+3, 2.7380112e+2, -340767.47, -377674.03, 3991.3708, -0.22084546, -0.031039534, -340340.75, -83593.88, 0.0, 10.000194, 9.999527 
2.8448144e+3, 2.8379524e+2, -364890.34, -496988.3, -106895.44, -0.37179464, -0.045696437, -305284.63, -146481.77, 0.0, 9.999957, 9.998183 
2.84451e+3, 2.9378787e+2, -112551.81, -336954.8, -112251.15, -0.10641304, -0.1952492, -66041.32, -5164.147, 0.0, 10.001078, 9.998056 
2.8442034e+3, 3.0378202e+2, 109254.85, 11710.146, -93919.445, -0.013826661, -0.19205996, 166310.69, 166310.69, 0.0, 10.001084, 9.999798 
2.843897e+3, 3.1377804e+2, -96424.74, -56897.793, -127404.336, 0.14900704, -0.25721845, 52266.85, 52266.85, 0.0, 9.999281, 9.999883 
2.8435907e+3, 3.2377288e+2, -568660.94, -444030.8, 471339.3, -0.35977232, -0.20994796, -30905.123, -30905.123, 0.0, 9.996731, 9.998346 
2.8593817e+3, 1.3417715e+2, -1708023.1, -1893545.0, 178463.4, 0.046252266, -0.09887388, -1599652.8, 25410.643, 0.0000059672575, 10.000915, 9.998064 
2.8590778e+3, 1.4417133e+2, -1281316.6, -1621746.9, -25411.39, 0.064153016, -0.042850662, -1279430.3, 247697.5, 0.0000015122073, 10.003046, 9.998353 
2.8587717e+3, 1.5416753e+2, -1327977.9, -1576206.8, -28461.338, 0.10606421, 0.030322855, -1324756.4, 104407.664, 0.0000000966577, 10.002014, 9.998466 
2.8584683e+3, 1.6416337e+2, -1202190.6, -1245009.5, 88305.25, 0.1820178, 0.14350824, -1132736.5, 198467.86, 0.00000000026919006, 10.001225, 10.000479 
2.8581652e+3, 1.741588e+2, -1238162.0, -1223157.0, 143131.73, 0.15703483, -0.0089167105, -1087331.3, 145917.89, 0.0, 10.000376, 10.000362 
2.85786e+3, 1.8415418e+2, -1234276.4, -1265465.4, 17720.945, 0.026367329, 0.028432645, -1226265.4, -90972.08, 0.0, 10.000194, 9.999471 
2.8575522e+3, 1.9414856e+2, -1087317.9, -1171424.6, -66041.84, -0.14046971, -0.11439884, -1051076.9, -13730.513, 0.0, 10.000637, 9.999222 
2.857248e+3, 2.0414394e+2, -934953.94, -1034520.1, 67795.67, -0.1491938, -0.03156337, -900626.4, 38763.04, 0.0, 10.00091, 9.999378 
2.8569478e+3, 2.1413894e+2, -914055.3, -1009776.75, 102028.195, 0.03362928, -0.11029195, -849219.94, -7784.324, 0.0, 10.00052, 9.999078 
2.8566444e+3, 2.2413394e+2, -859192.2, -977723.6, -165.97244, 0.05323844, -0.017498285, -859192.0, -115708.94, 0.0, 10.000516, 9.998551 
2.856337e+3, 2.3412809e+2, -792317.0, -932025.8, -31352.158, -0.12402744, -0.10327406, -785603.8, -140063.77, 0.0, 10.000444, 9.998245 
2.8560314e+3, 2.4412325e+2, -653338.2, -768852.4, 2677.8125, -0.18168235, 0.044945393, -653276.2, -105688.14, 0.0, 10.000542, 9.998636 
2.8557277e+3, 2.5411844e+2, -547561.56, -706108.25, 16384.93, -0.055466518, 0.04948278, -545886.0, -96249.125, 0.0, 10.000721, 9.998332 
2.8554228e+3, 2.6411253e+2, -521553.3, -724466.06, 28440.32, -0.008296093, 0.14278203, -517642.47, -165944.95, 0.0, 10.000622, 9.997563 
2.8551173e+3, 2.741041e+2, -615799.56, -744087.94, -34468.715, -0.09111011, -0.103934914, -607125.0, -353341.47, 0.0, 9.999361, 9.997398 
2.854812e+3, 2.8409827e+2, -418697.97, -412519.7, -86490.31, -0.14945324, -0.028486608, -329063.38, -173219.67, 0.0, 9.999299, 9.999004 
2.854506e+3, 2.940945e+2, -168305.17, -263568.53, -58297.82, -0.20192559, 0.038280766, -140654.63, -82770.26, 0.0, 10.000393, 9.998841 
2.854198e+3, 3.040903e+2, 35171.62, 34139.32, -168510.16, -0.25118044, 0.14638618, 203166.4, 203166.4, 0.0, 10.000498, 10.0001545 
2.8538898e+3, 3.1408584e+2, -285623.84, -166579.27, -174928.0, -0.07996612, -0.028065706, -41324.105, -41324.105, 0.0, 9.998224, 9.999575 
2.8535846e+3, 3.2408154e+2, -698601.44, -304034.75, 413464.7, -0.24974063, 0.029163409, -43198.29, -43198.29, 0.0, 9.995173, 9.99999 
2.8693792e+3, 1.3448212e+2, -1607435.5, -1855878.1, 295429.0, -0.0349267, -0.1390469, -1411174.0, 210900.23, 0.0000021514043, 10.001508, 9.998112 
2.8690746e+3, 1.4447892e+2, -1058251.8, -1394373.1, -76753.94, -0.21446516, 0.13835292, -1041554.25, 482559.97, 0.00000043033984, 10.00398, 9.999496 
2.8687683e+3, 1.5447335e+2, -1373759.0, -1520662.6, -1143.2595, -0.021891119, -0.032863125, -1373750.1, 52414.844, 0.000000019645139, 10.001277, 9.999244 
2.8684646e+3, 1.6446878e+2, -1390121.1, -1403361.3, 142567.0, 0.1697847, 0.03030725, -1254020.6, 74189.71, 0.0, 10.0002, 9.999896 
2.8681612e+3, 1.7446537e+2, -1293234.3, -1350283.6, 113896.73, 0.09006138, 0.11362441, -1204344.6, 25904.504, 0.0, 10.000356, 9.999534 
2.8678563e+3, 1.8446074e+2, -1043574.1, -1242641.0, -23221.963, -0.033536397, 0.19814527, -1040901.06, 91395.06, 0.0, 10.001647, 9.999001 
2.8675506e+3, 1.9445346e+2, -685216.0, -1073422.4, -6781.2515, -0.15125348, -0.0132587785, -685097.56, 349266.97, 0.0, 10.00361, 9.998559 
2.867247e+3, 2.0444779e+2, -514476.66, -815116.2, -97.27711, -0.10458706, -0.013938273, -514476.63, 421940.75, 0.0, 10.003703, 9.999538 
2.8669456e+3, 2.1444318e+2, -790637.4, -947332.2, -17006.736, 0.09124164, -0.019948289, -788812.8, 49647.03, 0.0, 10.001259, 9.999179 
2.8666416e+3, 2.2443797e+2, -813431.2, -929920.06, -79251.05, 0.111800686, 0.018229367, -773323.44, -32815.082, 0.0, 10.000535, 9.998946 
2.8663346e+3, 2.3443168e+2, -576969.2, -799716.56, -63525.41, -0.082444504, -0.10354535, -560125.94, 82441.73, 0.0, 10.0016, 9.998677 
2.8660282e+3, 2.4442685e+2, -426060.06, -577216.3, -58293.047, -0.17888474, -0.029067893, -406191.2, 138423.45, 0.0, 10.001616, 9.999474 
2.8657228e+3, 2.5442278e+2, -498230.72, -603965.56, -56507.31, -0.16188872, 0.015717927, -473715.72, -27059.607, 0.0, 10.000582, 9.999143 
2.8654182e+3, 2.6441768e+2, -518697.28, -652448.1, 31159.207, -0.09297132, 0.100523986, -511794.53, -163085.98, 0.0, 10.000169, 9.998346 
2.8651145e+3, 2.7441028e+2, -437435.3, -612846.4, 103118.38, 0.040579755, -0.052873574, -389768.53, -138983.61, 0.0, 10.000202, 9.997959 
2.864809e+3, 2.8440502e+2, -352447.22, -287427.38, 151088.8, 0.04490675, 0.018890454, -165390.48, -12549.476, 0.0, 9.999293, 9.999877 
2.8645012e+3, 2.9440197e+2, -497183.47, -345933.47, 114191.43, -0.16909124, 0.13723166, -284595.63, -229719.9, 0.0, 9.997698, 9.999614 
2.8641924e+3, 3.0439857e+2, -214766.6, -144407.38, -11204.433, -0.33645302, 0.31038055, -142666.2, -142666.2, 0.0, 9.998933, 9.999729 
2.863884e+3, 3.1439447e+2, 387043.34, 90731.53, -149914.13, -0.24589844, 0.28776306, 449658.44, 449658.44, 0.0, 10.002988, 9.999112 
2.86358e+3, 3.243876e+2, 145872.94, 118456.66, 46045.465, -0.09097144, 0.11087328, 180207.47, 180207.47, 0.0, 10.000766, 10.000229 
2.879376e+3, 1.3478768e+2, -1535831.6, -1739480.4, 471910.1, -0.098118044, -0.092054926, -1154885.5, 464196.06, 0.00000033823923, 10.00172, 9.99876 
2.8790724e+3, 1.4478692e+2, -1263763.8, -1339458.8, -175169.77, -0.31167293, 0.3426507, -1122399.4, 398697.03, 0.000000039050374, 10.001985, 10.000795 
2.878764e+3, 1.5478009e+2, -1325421.6, -1401408.9, -145712.64, -0.14471272, -0.07439396, -1212830.8, 210325.9, 0.0000000006124831, 10.001241, 10.000077 
2.8784594e+3, 1.647751e+2, -1413434.0, -1606639.4, 129177.516, 0.050745487, -0.013104139, -1348732.9, -23524.803, 0.0, 10.00096, 9.998062 
2.878157e+3, 1.7477155e+2, -1383195.4, -1640221.5, 101086.516, 0.070607774, 0.2113208, -1348202.8, -120947.08, 0.0, 10.000872, 9.99725 
2.877854e+3, 1.8476668e+2, -1084609.1, -1255696.9, 72363.086, 0.017790802, 0.39170736, -1058107.6, 71200.24, 0.0, 10.001519, 9.998891 
2.877551e+3, 1.9475941e+2, -924089.4, -1226826.4, 77948.195, -0.012943199, 0.15962104, -905198.25, 126176.484, 0.0, 10.002286, 9.998099 
2.877247e+3, 2.0475347e+2, -783426.2, -1025147.0, -30568.322, 0.015258803, 0.19980647, -779620.4, 153810.06, 0.0, 10.002345, 9.998704 
2.8769425e+3, 2.1474805e+2, -991597.2, -1178392.5, -67565.734, 0.12293493, 0.17491245, -969720.1, -134237.22, 0.0, 10.000614, 9.997859 
2.8766376e+3, 2.2474173e+2, -851321.7, -854383.2, -5524.75, 0.09768051, 0.13856092, -847119.56, -109578.24, 0.0, 10.000049, 9.999639 
2.8763318e+3, 2.3473406e+2, -808752.4, -892692.3, -5670.3022, -0.04587136, -0.21693435, -808371.06, -168761.06, 0.0, 10.000105, 9.998717 
2.8760257e+3, 2.4472891e+2, -571203.1, -578433.94, -75839.914, -0.14053799, -0.19219945, -498892.5, 42765.645, 0.0, 10.000433, 10.000024 
2.8757188e+3, 2.547257e+2, -686962.56, -689751.56, -76977.375, -0.17940417, -0.130157, -611367.06, -167674.7, 0.0, 9.999379, 9.999134 
2.8754136e+3, 2.647231e+2, -485938.2, -350375.94, 37827.945, -0.11477469, 0.08523268, -340534.7, 5183.8696, 0.0, 9.999309, 10.00078 
2.8751105e+3, 2.7471995e+2, -487949.3, -409522.4, 119134.59, 0.083751865, 0.082026854, -323313.6, -75565.56, 0.0, 9.999012, 9.999892 
2.8748047e+3, 2.8471577e+2, -442169.72, -310921.1, 89059.266, 0.109095596, 0.14846909, -265919.44, -116128.48, 0.0, 9.99866, 9.9999895 
2.8744954e+3, 2.947099e+2, -684341.1, -501911.84, 81720.266, -0.09159414, -0.035129067, -470658.88, -418805.1, 0.0, 9.996763, 9.998992 
2.8741872e+3, 3.047059e+2, -483974.06, -541626.06, 137164.81, -0.3064426, 0.2292302, -372639.0, -372639.0, 0.0, 9.998392, 9.997231 
2.8738827e+3, 3.1470272e+2, 6390.9526, -498978.94, 32052.154, -0.3393382, 0.55765224, 8415.689, 8415.689, 0.0, 10.002243, 9.995416 
2.873575e+3, 3.2468903e+2, -186174.25, -301975.78, -231119.75, -0.33614802, -0.083968475, -5812.895, -5812.895, 0.0, 9.999923, 9.99761 
2.889373e+3, 1.3509445e+2, -1508315.8, -1665213.9, 204781.19, -0.30644742, 0.10068264, -1367471.4, 248607.08, 0.0000000032251708, 10.001555, 9.999396 
2.889073e+3, 1.4508903e+2, -1634641.3, -1518262.5, -169532.58, 0.08443817, 0.0402435, -1397211.0, 120925.04, 0.0, 9.9994, 10.000826 
2.888761e+3, 1.5508656e+2, -1272082.9, -1396936.4, -134285.48, -0.2297676, 0.0859483, -1186422.9, 233735.3, 0.0, 10.001581, 9.999995 
2.888455e+3, 1.6508225e+2, -1054537.3, -1405492.9, 94453.305, -0.24145474, 0.18805394, -1030731.6, 291472.0, 0.0, 10.003203, 9.9984 
2.8881538e+3, 1.7507638e+2, -929067.9, -1389325.6, 150638.08, -0.16030361, 0.17837246, -884149.25, 340120.53, 0.0, 10.0037155, 9.997653 
2.8878516e+3, 1.8507114e+2, -761403.0, -984353.3, 96413.96, -0.07927321, 0.24270943, -725493.06, 400830.03, 0.0, 10.0031185, 10.000028 
2.8875485e+3, 1.9506605e+2, -1048024.9, -1160496.4, 162247.83, -0.0012353075, 0.16851765, -932543.4, 95824.445, 0.0, 10.000764, 9.999334 
2.8872445e+3, 2.0506093e+2, -974401.0, -1087833.1, 147800.84, 0.023478163, 0.2146055, -872807.9, 57607.85, 0.0, 10.000759, 9.9990835 
2.8869388e+3, 2.1505523e+2, -613040.25, -942805.3, 194098.92, -0.03726603, 0.17256527, -523245.28, 309226.56, 0.0, 10.002807, 9.998474 
2.8866333e+3, 2.2504939e+2, -465161.53, -691671.9, 169745.11, -0.047552865, 0.17052324, -374357.56, 360170.8, 0.0, 10.002676, 9.999543 
2.8863278e+3, 2.3504306e+2, -785619.75, -863544.9, 143457.67, -0.05364805, 0.020068526, -675927.75, -39339.344, 0.0, 10.000004, 9.999031 
2.8860217e+3, 2.450377e+2, -753090.56, -641282.7, 98158.7, -0.052644257, -0.008643345, -584224.75, -45585.246, 0.0, 9.99899, 10.000336 
2.885715e+3, 2.5503272e+2, -625877.25, -613948.1, 73593.09, -0.07171401, -0.0950486, -546078.25, -105390.09, 0.0, 9.999439, 9.999693 
2.88541e+3, 2.6502982e+2, -346445.9, -213670.92, 139762.17, -0.033360682, 0.03582533, -125330.38, 217385.42, 0.0, 9.999939, 10.001414 
2.885106e+3, 2.7502835e+2, -172479.06, -171260.72, 58973.535, 0.048318103, 0.18417564, -112893.2, 131835.11, 0.0, 10.000721, 10.000728 
2.8847998e+3, 2.8502443e+2, -135047.77, -254158.3, -105207.27, 0.08493825, 0.2561744, -73708.86, 73060.555, 0.0, 10.00097, 9.999337 
2.884491e+3, 2.9501766e+2, -168106.33, -297828.72, -156355.55, 0.045387577, 0.050976492, -63692.51, -14849.445, 0.0, 10.00033, 9.998733 
2.884184e+3, 3.0501288e+2, -200380.89, -313904.06, 179279.77, -0.086808726, 0.19010839, -69091.65, -69091.65, 0.0, 9.99989, 9.998135 
2.883882e+3, 3.1500977e+2, -354276.53, -560004.56, 335785.25, -0.115568414, 0.504883, -105952.93, -105952.93, 0.0, 9.999176, 9.996575 
2.8835708e+3, 3.2499972e+2, -339378.56, -270795.0, -65444.355, -0.2689125, 0.23013754, -231202.48, -231202.48, 0.0, 9.998183, 9.998897 
2.899371e+3, 1.3539991e+2, -1481333.9, -1627335.6, 21351.596, -0.2539291, 0.12686019, -1478275.4, 134813.44, 0.000000008553674, 10.001645, 9.999635 
2.8990725e+3, 1.4539105e+2, -1474264.4, -1494097.0, -48673.195, 0.54441375, -0.2698032, -1434507.6, 80669.45, 0.0, 10.000793, 10.000311 
2.8987578e+3, 1.5539293e+2, -1374078.1, -1517433.6, -37220.855, -0.2079193, 0.25236458, -1364990.3, 52172.438, 0.0, 10.001277, 9.9992895 
2.8984517e+3, 1.6538937e+2, -1152131.8, -1350820.1, 144507.7, -0.4433132, 0.4243744, -1076114.1, 243085.84, 0.0, 10.002224, 9.999192 
2.8981513e+3, 1.7538077e+2, -1125073.4, -1426037.0, 175322.84, -0.31361306, 0.04638245, -1044507.8, 176778.19, 0.0, 10.002209, 9.998112 
2.897849e+3, 1.8537572e+2, -846048.06, -893169.9, 23668.18, -0.16106792, 0.046594825, -836212.9, 287120.38, 0.0, 10.002032, 10.001133 
2.8975454e+3, 1.9537328e+2, -1059457.1, -1060796.1, 49205.176, 0.06912663, 0.09094704, -1010916.9, 14434.307, 0.0, 10.000319, 10.000178 
2.8972405e+3, 2.0536935e+2, -977419.6, -1000751.56, 188075.83, 0.022102993, 0.16426232, -800648.3, 126738.57, 0.0, 10.000459, 9.999758 
2.8969347e+3, 2.1536349e+2, -851430.06, -1025831.94, 220874.56, -0.21922135, 0.010061078, -701166.1, 128278.29, 0.0, 10.001155, 9.998649 
2.8966293e+3, 2.253596e+2, -742495.8, -880710.7, 54367.23, -0.23536524, 0.2120955, -723673.56, 7813.182, 0.0, 10.001191, 9.998865 
2.896323e+3, 2.3535673e+2, -1088178.1, -1142634.3, 38375.51, -0.060351755, 0.4491274, -1068352.5, -434830.2, 0.0, 9.998621, 9.997741 
2.8960174e+3, 2.4535117e+2, -865528.2, -687831.9, 108760.13, 0.052549403, 0.45910475, -636242.3, -100665.18, 0.0, 9.998357, 10.000213 
2.8957117e+3, 2.5534266e+2, -859920.75, -787407.4, 88578.1, 0.12606636, -0.002982893, -727952.9, -290297.97, 0.0, 9.998259, 9.998997 
2.8954062e+3, 2.653374e+2, -557117.7, -477638.75, 176514.16, 0.053695317, -0.0023454418, -336446.0, 3259.4436, 0.0, 9.999308, 9.999851 
2.8951007e+3, 2.753346e+2, -457574.56, -544263.5, 101218.57, -0.1398984, 0.14157723, -390810.25, -149074.86, 0.0, 9.99987, 9.998564 
2.894794e+3, 2.8533056e+2, -287057.88, -437712.6, -146681.56, -0.12934262, 0.3596779, -197492.27, -53709.656, 0.0, 10.000559, 9.998226 
2.8944874e+3, 2.9532465e+2, -387582.22, -578717.75, -162280.19, 0.054381102, 0.34986174, -294820.3, -248967.77, 0.0, 9.99972, 9.997056 
2.8941807e+3, 3.0532125e+2, 283190.34, 622920.2, 141266.03, -0.010157643, 0.3619343, 673985.5, 673985.5, 0.0, 10.000412, 10.004106 
2.8938752e+3, 3.1532088e+2, -149062.63, -38431.367, 375021.06, -0.27411434, 0.3586853, 285331.66, 285331.66, 0.0, 9.998981, 10.000118 
2.8935662e+3, 3.2531938e+2, -521125.66, 235043.14, 104.84495, -0.1346656, 0.3616131, 235043.16, 235043.16, 0.0, 9.994832, 10.003627 
2.9093716e+3, 1.3570571e+2, -1328522.8, -1422072.3, 22135.516, -0.084382705, 0.031832322, -1323549.4, 286551.9, 0.000000011355019, 10.001995, 10.000942 
2.9090655e+3, 1.4570327e+2, -1240221.6, -1474234.9, -24091.158, 0.04458941, 0.26997235, -1237767.1, 274353.44, 0.0, 10.002706, 9.999575 
2.9087558e+3, 1.5569788e+2, -1371160.5, -1585971.3, 5020.9634, -0.17735925, 0.15600635, -1371043.1, 43133.24, 0.0, 10.001496, 9.998755 
2.9084516e+3, 1.6569272e+2, -1289245.8, -1352774.1, 163156.33, -0.19597593, 0.15647231, -1154790.4, 161437.03, 0.0, 10.000942, 9.999823 
2.90815e+3, 1.756869e+2, -1342222.1, -1453841.5, 200306.16, -0.19513088, 0.017422192, -1190096.0, 28186.8, 0.0, 10.000252, 9.998911 
2.9078466e+3, 1.8568248e+2, -1039521.44, -1073367.5, 14087.062, -0.11108567, 0.07552657, -1034425.5, 85899.45, 0.0, 10.000975, 10.000452 
2.9075426e+3, 1.9567944e+2, -833049.4, -1000913.2, -19239.002, 0.031503372, 0.14644611, -830872.6, 191481.33, 0.0, 10.001955, 9.999845 
2.9072377e+3, 2.0567533e+2, -761879.75, -872183.2, 6029.5977, 0.025523081, 0.18944576, -761551.1, 162841.47, 0.0, 10.001686, 10.000101 
2.906932e+3, 2.1567003e+2, -989498.5, -1014396.3, 15121.099, -0.16756597, 0.066412225, -982361.1, -155917.88, 0.0, 9.999723, 9.999459 
2.9066253e+3, 2.2566637e+2, -986194.4, -891290.1, -130594.64, -0.18146978, 0.18632, -799793.8, -71311.65, 0.0, 9.998963, 9.999908 
2.9063174e+3, 2.3566358e+2, -927401.9, -922325.5, -54149.453, -0.08322394, 0.35044143, -870654.75, -240138.22, 0.0, 9.998939, 9.999152 
2.9060122e+3, 2.4565905e+2, -553327.6, -554349.0, 138741.36, 0.024645152, 0.3971644, -415096.03, 117465.75, 0.0, 10.0003805, 10.000226 
2.9057083e+3, 2.5565264e+2, -145450.17, -393571.5, 111358.15, 0.12722948, 0.16251737, -102802.45, 331818.03, 0.0, 10.002738, 9.99959 
2.9054025e+3, 2.6564708e+2, -185741.16, -324109.88, 165959.5, 0.056701843, 0.10466386, -75122.76, 261551.05, 0.0, 10.001731, 9.999832 
2.905095e+3, 2.7564245e+2, -717046.44, -641165.2, 189289.6, -0.17196289, 0.09279754, -486051.28, -247329.67, 0.0, 9.997777, 9.998963 
2.904788e+3, 2.8563833e+2, -579150.56, -500965.44, 198428.3, -0.23944901, 0.2617316, -337815.5, -197046.69, 0.0, 9.998174, 9.998954 
2.9044816e+3, 2.9563442e+2, -140868.31, -292334.88, 186308.08, -0.11300443, 0.4346071, -15489.1045, 27328.898, 0.0, 10.000475, 9.998681 
2.919371e+3, 1.3601317e+2, -1281746.5, -1259672.8, 28455.16, 0.083325826, 0.09886179, -1240189.0, 366908.66, 0.00000000463828, 10.001798, 10.002087 
2.9190582e+3, 1.460169e+2, -1368240.5, -1619587.8, -84926.125, -0.4737811, 0.91925526, -1342235.8, 166815.14, 0.0, 10.002248, 9.99874 
2.9187548e+3, 1.5600242e+2, -1444563.9, -1723090.3, -49565.844, 0.023310896, -0.025215466, -1436006.3, -24812.84, 0.0, 10.00149, 9.997795 
2.918452e+3, 1.6599566e+2, -1248948.1, -1290181.0, 142807.94, 0.20274591, -0.17109051, -1125276.1, 187981.08, 0.0, 10.00104, 10.000206 
2.9181486e+3, 1.7599358e+2, -1446035.1, -1500019.1, 174305.77, 0.09185249, 0.015127325, -1296643.9, -81370.44, 0.0, 9.99961, 9.998892 
2.9178444e+3, 1.8599004e+2, -1215088.6, -1283345.4, 87887.484, 0.014509697, 0.2070765, -1154935.8, -37625.27, 0.0, 10.000457, 9.999174 
2.9175404e+3, 1.9598497e+2, -1075014.3, -1321584.9, 51875.94, 0.05786454, 0.19491738, -1064544.6, -45178.246, 0.0, 10.001231, 9.997987 
2.9172355e+3, 2.0598036e+2, -845919.9, -899195.3, -5358.479, 0.07475978, 0.2666377, -845386.25, 76025.914, 0.0, 10.001189, 10.00011 
2.916929e+3, 2.1597572e+2, -1188374.5, -1136821.8, -14216.725, 0.058633808, 0.19555584, -1133161.1, -309706.7, 0.0, 9.998597, 9.999149 
2.916621e+3, 2.259709e+2, -943348.2, -667662.94, -102157.47, -0.018889325, 0.10759493, -633934.2, 91566.54, 0.0, 9.99849, 10.00162 
2.9163113e+3, 2.3596562e+2, -1004368.9, -831429.0, -42951.406, -0.1173715, -0.16992408, -821349.06, -193795.94, 0.0, 9.998014, 10.000178 
2.9160064e+3, 2.4596334e+2, -645310.06, -581739.4, 222245.5, -0.11509244, 0.033501677, -389017.78, 140559.25, 0.0, 9.999814, 10.000239 
2.9157048e+3, 2.5596267e+2, -393571.6, -546690.4, 188566.83, -0.053941492, 0.34013885, -266614.9, 164970.6, 0.0, 10.001304, 9.999202 
2.9153985e+3, 2.6595876e+2, -228778.33, -150838.84, 15355.32, -0.050413195, 0.3627113, -147922.72, 185699.98, 0.0, 10.000814, 10.00134 
2.9150885e+3, 2.759523e+2, -833746.5, -567020.2, 85090.03, -0.14635123, -0.009357374, -542187.1, -306504.03, 0.0, 9.996554, 10.000019 
2.91478e+3, 2.8594837e+2, -483452.47, -184386.06, 343044.44, -0.41080382, -0.0109393895, 40299.47, 178020.47, 0.0, 9.997802, 10.001236 
2.914476e+3, 2.9594836e+2, -123354.88, 64484.867, -97797.29, -0.29599142, 0.23170099, 106157.22, 145879.16, 0.0, 9.999264, 10.001676 
2.9293662e+3, 1.3631703e+2, -1344401.1, -1279127.0, -141445.8, -0.24126199, 0.058303766, -1166601.8, 437522.38, 0.0, 10.001223, 10.002275 
2.9290578e+3, 1.4632088e+2, -1392218.1, -1570919.5, -163507.98, -0.31639728, 0.84610164, -1295240.0, 210836.44, 0.0, 10.001696, 9.999405 
2.9287538e+3, 1.5630913e+2, -1302033.3, -1566178.0, -71336.48, 0.07305054, 0.12613146, -1283998.9, 124194.63, 0.0, 10.001957, 9.9987 
2.9284498e+3, 1.6630371e+2, -1076806.5, -1071004.9, 91442.125, 0.21708079, -0.0023671102, -982417.56, 327823.84, 0.0, 10.001561, 10.001496 
2.9281437e+3, 1.7630202e+2, -1293318.9, -1271293.8, 183081.44, -0.0142632015, 0.11909277, -1098894.0, 113354.945, 0.0, 9.999869, 10.000379 
2.9278395e+3, 1.8629788e+2, -1181226.3, -1269591.9, 207934.56, -0.107566, 0.18782791, -1012832.25, 101458.305, 0.0, 10.000604, 9.99924 
2.927537e+3, 1.962919e+2, -910458.94, -1176959.1, 216553.22, -0.08706429, 0.10947373, -789443.6, 226912.7, 0.0, 10.001963, 9.998656 
2.9272315e+3, 2.0628749e+2, -686363.9, -745435.0, 90718.48, -0.0399992, 0.14064343, -620494.06, 297906.0, 0.0, 10.001889, 10.000867 
2.926924e+3, 2.1628375e+2, -874417.44, -894952.0, 134746.61, -0.049753476, 0.12725605, -749547.5, 70885.67, 0.0, 10.000161, 10.000124 
2.9266164e+3, 2.2627935e+2, -608636.7, -596421.5, 97739.94, -0.037652757, 0.09627799, -504598.5, 217878.83, 0.0, 10.00092, 10.001087 
2.9263082e+3, 2.3627436e+2, -263902.28, -458368.72, 52663.555, -0.06840791, -0.062658265, -250556.33, 373973.22, 0.0, 10.002763, 10.000567 
2.9260033e+3, 2.4627188e+2, -217077.3, -305519.9, 231703.13, -0.14338705, 0.058390677, -25413.342, 501142.2, 0.0, 10.002307, 10.001011 
2.9257e+3, 2.5627092e+2, -441150.38, -448683.5, 198368.8, -0.22710644, 0.29752687, -246512.39, 182053.53, 0.0, 10.000259, 10.000452 
2.9253936e+3, 2.6626843e+2, -405312.1, -198251.55, -43546.086, -0.10223849, 0.38646725, -189466.28, 141122.34, 0.0, 9.999304, 10.001806 
2.9250845e+3, 2.7626413e+2, -350039.56, -226932.3, -50725.043, 0.08080485, 0.19646396, -208724.55, 23902.582, 0.0, 9.999208, 10.001134 
2.9247752e+3, 2.862591e+2, -260236.13, -74455.15, 206319.6, -0.32033855, 0.021190701, 58920.613, 193594.19, 0.0, 9.999068, 10.001518 
2.924476e+3, 2.9625854e+2, -75930.66, 81924.83, -688493.94, 0.25199038, 0.18872799, 696000.3, 732677.94, 0.0, 9.9993, 10.00189 
2.939362e+3, 1.3662039e+2, -1453128.9, -1343406.4, -70172.35, -0.355963, 0.023569938, -1309195.1, 291958.06, 0.0, 10.000566, 10.002148 
2.9390582e+3, 1.466228e+2, -1306897.0, -1398962.6, -76447.99, 0.022309968, 0.60781306, -1263692.5, 239428.55, 0.0, 10.00186, 10.000452 
2.9387525e+3, 1.5661682e+2, -1363912.6, -1489926.8, -36343.004, 0.21218719, 0.36114717, -1354182.5, 51001.418, 0.0, 10.001198, 9.999558 
2.9384464e+3, 1.666133e+2, -1038260.6, -899318.2, 47491.184, 0.17971045, 0.30695957, -884636.75, 422574.22, 0.0, 10.00128, 10.002752 
2.9381382e+3, 1.7661083e+2, -1194584.8, -1134508.9, 98451.55, -0.11915801, 0.20877038, -1061614.9, 147606.52, 0.0, 10.000277, 10.001062 
2.9378346e+3, 1.8660599e+2, -1167431.1, -1220045.5, 215258.3, -0.24819164, 0.14655173, -976878.5, 134388.94, 0.0, 10.000606, 9.99954 
2.9375336e+3, 1.9659957e+2, -1148664.4, -1265430.8, 200586.22, -0.16553926, -0.023449134, -998137.5, 15198.247, 0.0, 10.000351, 9.998795 
2.9372272e+3, 2.0659564e+2, -800958.25, -686805.7, -12002.673, -0.18121004, -0.03948397, -685557.3, 229816.14, 0.0, 10.000733, 10.001757 
2.9369172e+3, 2.1659268e+2, -1079364.1, -1030824.3, 41440.082, -0.23487097, -0.062314082, -1007070.2, -189671.77, 0.0, 9.999026, 9.999724 
2.9366118e+3, 2.2659011e+2, -821024.25, -873542.3, 151019.19, -0.11491426, 0.18269303, -693998.1, 25431.7, 0.0, 10.0004015, 9.99931 
2.936308e+3, 2.3658755e+2, -633618.94, -841261.1, 110745.38, 0.077848725, 0.4048916, -585639.7, 35826.9, 0.0, 10.0013, 9.998563 
2.9360014e+3, 2.4658301e+2, -321525.06, -236296.67, 151490.14, -0.11590341, 0.33745533, -121541.14, 401970.53, 0.0, 10.001277, 10.001886 
2.9356933e+3, 2.5657755e+2, -680255.2, -526247.5, 123005.64, -0.45605594, 0.021871246, -458130.78, -32570.918, 0.0, 9.998661, 10.000645 
2.935388e+3, 2.665767e+2, -534338.3, -315714.66, -55678.855, -0.14604537, 0.28281483, -302351.25, 25215.088, 0.0, 9.998746, 10.001252 
2.935083e+3, 2.765776e+2, -630073.7, -483466.94, -33273.89, 0.4215886, 0.6534822, -476268.53, -246711.19, 0.0, 9.997963, 9.999948 
2.9347724e+3, 2.8656977e+2, -478767.8, -385963.22, 180536.16, -0.051446587, 0.3430253, -245961.45, -114324.59, 0.0, 9.998661, 9.999485 
2.9344678e+3, 2.965614e+2, -357694.25, -320037.78, -185748.86, -0.12673478, -0.04445208, -152165.34, -118440.76, 0.0, 9.998832, 9.999238 
2.9493603e+3, 1.3692969e+2, -1479047.8, -1309596.0, 145922.16, -0.24215305, 0.31314087, -1225586.1, 372524.75, 0.0, 10.000098, 10.002652 
2.9490528e+3, 1.4692432e+2, -1223850.6, -1345477.8, -88558.12, -0.33540294, 0.0916222, -1177235.9, 322919.13, 0.0, 10.0023365, 10.000625 
2.9487497e+3, 1.5692204e+2, -1472046.8, -1531960.8, -40512.563, 0.22836274, 0.22562572, -1451618.3, -49436.133, 0.0, 10.000294, 9.999766 
2.9484442e+3, 1.6691864e+2, -1132989.0, -1107778.1, 37644.84, 0.2460463, 0.25311676, -1080684.4, 223529.3, 0.0, 10.001185, 10.001443 
2.948135e+3, 1.7691492e+2, -873057.2, -1055203.0, -14310.758, -0.24424854, 0.16839147, -871939.7, 334304.78, 0.0, 10.002667, 10.000504 
2.9478312e+3, 1.8691114e+2, -950310.06, -1034972.06, -6503.034, -0.3026095, 0.17436661, -949813.44, 158469.5, 0.0, 10.001632, 10.0003605 
2.9475296e+3, 1.9690704e+2, -1297231.1, -1219675.9, 10728.845, -0.13602974, 0.16314375, -1218219.1, -207891.19, 0.0, 9.998666, 9.999965 
2.9472235e+3, 2.0690382e+2, -942688.7, -706936.5, -137045.13, -0.08810431, 0.13307376, -644047.2, 268309.94, 0.0, 9.999376, 10.00236 
2.9469144e+3, 2.1690081e+2, -662828.56, -721232.25, -109371.74, -0.16013187, 0.05544996, -578827.4, 235553.48, 0.0, 10.001234, 10.000837 
2.9466087e+3, 2.2689818e+2, -607507.2, -786470.7, 32820.51, -0.12531957, 0.24415061, -601678.06, 114735.21, 0.0, 10.00184, 9.999266 
2.946304e+3, 2.3689574e+2, -544867.94, -743266.56, 34953.953, -0.05117774, 0.4992094, -538889.9, 79559.9, 0.0, 10.001504, 9.99918 
2.945997e+3, 2.4689151e+2, -451254.9, -319521.47, 19853.473, -0.18797415, 0.4421694, -316594.4, 203897.44, 0.0, 10.000272, 10.0019245 
2.9456884e+3, 2.5688595e+2, -594945.2, -434101.16, -45330.984, -0.40737024, 0.13235994, -422205.25, 335.3767, 0.0, 9.998799, 10.001302 
2.945383e+3, 2.6688325e+2, -313964.13, -218958.23, -118685.69, -0.14900747, 0.16690318, -138622.13, 185940.06, 0.0, 10.000153, 10.001306 
2.9450774e+3, 2.7688232e+2, 78410.94, -127466.06, -92055.875, 0.27898517, 0.3758569, 113568.84, 340135.56, 0.0, 10.002602, 10.00021 
2.9447708e+3, 2.868768e+2, -60062.285, -281653.84, 131673.86, 0.18461218, 0.32322696, 1228.2816, 129853.31, 0.0, 10.00178, 9.99881 
2.9444608e+3, 2.9686922e+2, -326047.22, -391005.8, 173254.33, -0.35678312, 0.15331838, -182254.1, -151544.13, 0.0, 9.999075, 9.998749 
2.959359e+3, 1.3723727e+2, -1465186.3, -1279106.4, 339536.9, 0.010693832, 0.39979082, -1020092.7, 574991.44, 0.00000000001490612, 10.000181, 10.002816 
2.9590464e+3, 1.4722586e+2, -1426043.1, -1435012.6, -140699.83, -0.72292686, -0.43595687, -1289756.6, 207430.64, 0.0, 10.000987, 10.000642 
2.9587466e+3, 1.572262e+2, -1522153.8, -1622742.9, -50372.613, 0.35303083, -0.025482262, -1501265.9, -102078.23, 0.0, 10.000303, 9.999122 
2.9584423e+3, 1.6722247e+2, -1300700.8, -1403043.0, 146136.72, 0.3759617, 0.103911415, -1197035.1, 104194.33, 0.0, 10.001035, 9.999453 
2.9581335e+3, 1.772172e+2, -1192137.6, -1377455.5, 91994.74, -0.2227108, 0.05237444, -1154225.9, 49060.86, 0.0, 10.001292, 9.998939 
2.957828e+3, 1.8721521e+2, -1008639.56, -938179.2, -30918.615, -0.27298692, 0.22124672, -926535.8, 178775.75, 0.0, 10.000827, 10.001344 
2.9575256e+3, 1.9721413e+2, -1394748.1, -1243121.1, 14489.662, 0.061234582, 0.4277376, -1241748.9, -234421.6, 0.0, 9.998021, 10.000091 
2.9572207e+3, 2.0721175e+2, -942182.75, -651460.2, 3933.5815, 0.14767978, 0.44182274, -651406.94, 257940.2, 0.0, 9.99933, 10.00267 
2.9569137e+3, 2.1720847e+2, -812755.0, -804818.4, -1454.6538, 0.10564484, 0.29555055, -804560.1, 6812.047, 0.0, 10.000459, 10.0005665 
2.956606e+3, 2.2720434e+2, -660069.9, -728788.0, 47634.19, -0.106339805, 0.28789905, -635696.0, 77721.46, 0.0, 10.001221, 9.999906 
2.956298e+3, 2.372003e+2, -843113.25, -891028.25, 24186.855, -0.3432547, 0.30769557, -833027.1, -217560.58, 0.0, 9.999608, 9.999064 
2.9559913e+3, 2.4719818e+2, -577314.6, -412390.56, -31566.484, -0.32235205, 0.4634833, -406555.2, 110934.19, 0.0, 9.999672, 10.0015 
2.955685e+3, 2.571961e+2, -815245.56, -636275.0, -44577.117, -0.17144176, 0.5305897, -625786.6, -206278.94, 0.0, 9.997866, 10.000307 
2.955377e+3, 2.671881e+2, -381160.22, -215310.2, -10922.391, -0.25207663, 0.04362254, -214593.98, 106980.08, 0.0, 9.999674, 10.001469 
2.9550678e+3, 2.7717847e+2, -138627.55, -266169.75, -38691.004, -0.5057736, -0.6426873, -127808.12, 95844.75, 0.0, 10.001428, 9.999769 
2.9547694e+3, 2.8718182e+2, -55459.543, -153077.47, 36573.594, 0.33224738, 0.1100858, -43277.176, 82343.58, 0.0, 10.001428, 9.999772 
2.9544628e+3, 2.971778e+2, -492093.8, -421144.53, -80328.58, 0.30480307, 0.17385687, -368806.16, -341135.13, 0.0, 9.9979, 9.9990635 
2.9693553e+3, 1.3753971e+2, -1559352.9, -1492967.5, 11914.028, -0.086010665, -0.021515716, -1490894.0, 101226.14, 0.00000010737005, 10.000183, 10.001371 
2.969041e+3, 1.4753346e+2, -1631757.9, -1418118.0, -71607.055, -0.7702538, -0.359523, -1396337.5, 97840.48, 0.0, 9.99901, 10.001737 
2.9687414e+3, 1.575343e+2, -1282787.0, -1408029.1, 28957.361, 0.093243554, 0.014135714, -1276415.9, 119751.66, 0.0, 10.001419, 10.000087 
2.9684386e+3, 1.6753052e+2, -1210607.3, -1391605.6, 223314.19, 0.29137734, 0.11316941, -1060151.4, 238057.06, 0.0, 10.001683, 9.999277 
2.9681328e+3, 1.7752458e+2, -1245849.6, -1372811.0, 208182.53, -0.034434732, 0.04054026, -1091684.4, 108588.57, 0.0, 10.000654, 9.999315 
2.967826e+3, 1.875218e+2, -967715.2, -802996.0, 85504.28, -0.11338773, 0.066720344, -766637.1, 335664.56, 0.0, 10.000463, 10.002516 
2.96752e+3, 1.975201e+2, -1014786.06, -915277.25, 168769.1, -0.04463121, 0.11725677, -789081.4, 215237.0, 0.0, 9.99982, 10.001527 
2.9672152e+3, 2.07518e+2, -676040.2, -590735.0, 242767.88, -0.02717803, 0.16442579, -386901.3, 519436.0, 0.0, 10.001347, 10.0021715 
2.9669103e+3, 2.175156e+2, -381812.88, -578669.94, 170553.81, -0.0788213, 0.17771764, -283323.2, 525034.56, 0.0, 10.003167, 10.000874 
2.966603e+3, 2.2751087e+2, -580577.7, -703593.1, 77440.63, -0.12594426, 0.12589252, -543190.25, 167218.63, 0.0, 10.001652, 9.999965 
2.9662943e+3, 2.3750547e+2, -903508.5, -839703.2, 56726.684, -0.2316135, 0.027724896, -806523.6, -194054.2, 0.0, 9.998675, 9.999905 
2.9659885e+3, 2.4750459e+2, -429144.1, -287285.4, 135060.86, -0.15755151, 0.2611932, -205661.78, 308818.47, 0.0, 10.000334, 10.002088 
2.965684e+3, 2.5750512e+2, 93434.28, -110360.164, 125532.4, 0.014084461, 0.56792164, 153220.17, 569694.94, 0.0, 10.003551, 10.001206 
2.9653752e+3, 2.674971e+2, 88931.125, -36144.082, 140800.92, -0.16564764, 0.08814459, 180457.95, 499000.3, 0.0, 10.002919, 10.001246 
2.9650643e+3, 2.7748585e+2, -200122.19, -269782.4, 95628.25, -0.57260704, -0.6939315, -133178.53, 87458.836, 0.0, 10.000673, 10.000188 
2.964766e+3, 2.8749177e+2, -153785.78, -141973.3, 71595.67, 0.34874928, 0.28124765, -76040.67, 46537.37, 0.0, 10.000393, 10.000416 
2.9644555e+3, 2.9748335e+2, -166111.7, -165824.52, -306608.84, 0.14691468, -0.10316056, 140640.77, 165307.86, 0.0, 9.999578, 10.000058 
2.979352e+3, 1.3784562e+2, -1919010.5, -1818606.9, -183744.98, -0.02042637, -0.119423844, -1678329.1, -89203.86, 0.00000019973128, 9.998444, 9.999982 
2.9790375e+3, 1.4784338e+2, -1285991.1, -1134806.6, 61925.445, -0.6512663, -0.05572784, -1112680.1, 378468.56, 0.000000000008976791, 10.000962, 10.00274 
2.9787365e+3, 1.5784396e+2, -1090598.9, -1244098.5, 64896.504, -0.11395114, 0.17857406, -1066839.5, 326295.3, 0.0, 10.00251, 10.000709 
2.9784352e+3, 1.6784006e+2, -1120521.9, -1297117.0, 147995.17, 0.22041017, 0.20641907, -1036485.4, 258688.38, 0.0, 10.002205, 9.999645 
2.9781327e+3, 1.7783375e+2, -1383328.3, -1454855.0, 158738.95, 0.31782252, 0.071152575, -1256373.9, -59134.78, 0.0, 9.999887, 9.999131 
2.9778242e+3, 1.8782943e+2, -985707.8, -700380.7, 23167.516, 0.10365208, -0.11859676, -698511.8, 400765.0, 0.0, 9.999976, 10.003437 
2.9775143e+3, 1.9782633e+2, -1108795.6, -920621.06, 98600.68, -0.1678923, -0.32332814, -878420.0, 122880.4, 0.0, 9.999137, 10.001804 
2.977209e+3, 2.0782377e+2, -863684.9, -802333.8, 235109.23, -0.330195, -0.29427406, -595907.4, 307418.47, 0.0, 10.000588, 10.001087 
2.976906e+3, 2.1782233e+2, -841653.0, -928892.6, 126239.51, -0.3395846, -0.10781891, -751709.7, 53633.145, 0.0, 10.000689, 9.999657 
2.9766002e+3, 2.2781801e+2, -790930.44, -811890.56, -78581.85, -0.08645296, -0.09274274, -722132.9, -14743.236, 0.0, 10.00043, 9.999739 
2.9762927e+3, 2.3781171e+2, -1114907.1, -997005.1, -5639.536, 0.19194683, -0.24185874, -996736.0, -387279.7, 0.0, 9.997644, 9.999295 
2.9759878e+3, 2.4781127e+2, -475372.22, -168971.11, 236596.95, 0.18670577, -0.040726457, -40305.51, 471156.4, 0.0, 9.999611, 10.003193 
2.975684e+3, 2.5781316e+2, -246289.14, -303914.2, 182839.08, 0.13191304, 0.3264208, -90006.31, 323437.2, 0.0, 10.00151, 10.000845 
2.9753762e+3, 2.6780984e+2, -83810.25, -148607.17, 40989.43, 0.10479945, 0.33279118, -63961.285, 251511.33, 0.0, 10.002052, 10.00082 
2.975066e+3, 2.778042e+2, -493800.8, -527759.4, 41595.96, -0.0459783, 0.14794964, -465852.16, -248328.83, 0.0, 9.999364, 9.999021 
2.9747587e+3, 2.8780472e+2, -326602.78, -272145.06, 61895.16, 0.02250389, 0.65116626, -231754.23, -112238.66, 0.0, 9.999588, 9.999878 
2.9744467e+3, 2.9779264e+2, -237251.27, -36451.92, -242486.97, -0.29740772, -0.090112, 125598.44, 147231.45, 0.0, 9.998697, 10.001304 
2.9893497e+3, 1.3816597e+2, -2273795.3, -2097444.8, 349943.03, 0.29925564, 0.8500287, -1824739.1, -238760.31, 0.000000019519112, 9.996459, 9.999109 
2.989038e+3, 1.4815556e+2, -1107903.4, -1291562.3, 160694.86, -0.48668104, 0.30137852, -1014650.44, 473437.4, 0.0, 10.003249, 10.000633 
2.9887357e+3, 1.5815188e+2, -908305.44, -1321692.1, 35293.61, -0.29265112, 0.33404645, -905313.8, 484804.28, 0.0, 10.004426, 9.999282 
2.9884315e+3, 1.6814524e+2, -1029608.2, -1219048.0, -61482.05, -0.050101634, 0.1292038, -1011403.75, 280778.47, 0.0, 10.002682, 9.999967 
2.9881254e+3, 1.7813887e+2, -1362443.6, -1362586.3, -22477.367, -0.0800656, -0.053000096, -1340037.4, -145792.11, 0.0, 9.9996395, 9.999896 
2.987816e+3, 1.8813725e+2, -1034762.8, -841308.5, -100052.88, -0.32915065, 0.074473254, -798871.25, 297387.88, 0.0, 10.000092, 10.002485 
2.9875067e+3, 1.9813709e+2, -1042899.6, -962165.6, -149580.33, -0.52053565, 0.27764714, -847601.1, 150656.8, 0.0, 9.999816, 10.001229 
2.9872057e+3, 2.081348e+2, -1102539.5, -949609.6, -49911.68, -0.25794497, 0.3764388, -934761.56, -34479.367, 0.0, 9.999046, 10.000865 
2.9869047e+3, 2.1813092e+2, -1174309.9, -1040890.1, -143722.61, -0.017421292, 0.34950367, -949150.0, -146826.45, 0.0, 9.998014, 10.000232 
2.986597e+3, 2.281259e+2, -689673.5, -642656.3, -250389.08, 0.008516159, 0.20560102, -414674.66, 289698.84, 0.0, 10.000454, 10.000993 
2.9862884e+3, 2.3812173e+2, -99015.61, -356198.97, -142225.52, 0.03281094, 0.13696472, -35868.105, 570546.5, 0.0, 10.003797, 10.000816 
2.985981e+3, 2.4811871e+2, -253069.39, -151707.44, -33291.74, -0.11995913, 0.087192215, -141750.97, 366694.4, 0.0, 10.001434, 10.002512 
2.985675e+3, 2.581156e+2, -815507.9, -518805.34, -142374.89, -0.3102023, 0.002497047, -461538.75, -51061.848, 0.0, 9.9971485, 10.001558 
2.9853705e+3, 2.6811334e+2, -363567.6, -144970.02, -150977.92, -0.05378174, 0.02288447, -67880.61, 244617.89, 0.0, 9.999444, 10.002228 
2.9850647e+3, 2.7811202e+2, 196493.72, 31901.127, -95935.29, 0.16063976, 0.14431868, 240594.66, 455105.25, 0.0, 10.00294, 10.00129 
2.9847512e+3, 2.8810656e+2, -107156.47, 43487.92, 38478.953, -0.22778933, -0.14436224, 52747.42, 169307.73, 0.0, 10.00006, 10.002052 
2.9844418e+3, 2.9809982e+2, -400494.38, 47521.766, 35598.816, -0.10354749, -0.47343975, 50332.766, 68953.72, 0.0, 9.996542, 10.003219 
2.9993385e+3, 1.3846241e+2, -1426660.8, -1931144.5, -162967.5, -0.2780015, -0.22628896, -1378595.5, 204473.0, 0.000000013810121, 10.003092, 9.9971075 
2.9990366e+3, 1.4845721e+2, -1129652.3, -1425402.4, -212161.47, -0.4242854, -0.23134005, -1018916.5, 466213.1, 0.0, 10.003658, 9.999411 
2.998741e+3, 1.5845452e+2, -1494912.9, -1745536.4, 4517.1504, 0.27926505, -0.010039321, -1494831.5, -107678.66, 0.0, 10.000909, 9.998009 
2.9984316e+3, 1.684519e+2, -1342774.6, -1263415.3, 106504.27, 0.23999919, 0.12090848, -1189439.1, 99734.76, 0.0, 10.000054, 10.000772 
2.9981214e+3, 1.7844728e+2, -1456018.3, -1501040.4, 392274.5, -0.024527673, 0.046149828, -1085609.5, 105606.086, 0.0, 9.999302, 9.999087 
2.997816e+3, 1.8844251e+2, -1497747.9, -1333024.3, 232946.39, 0.14526904, -0.0033406995, -1168308.1, -75040.74, 0.0, 9.9980345, 9.999985 
2.997509e+3, 1.9843683e+2, -1580776.4, -1599821.4, 35156.367, 0.11121904, -0.033976253, -1553875.6, -558545.9, 0.0, 9.9977, 9.997826 
2.9972017e+3, 2.0843409e+2, -807102.25, -783062.0, 159093.03, -0.12507005, 0.077505305, -635535.7, 261824.5, 0.0, 10.001046, 10.000869 
2.9968977e+3, 2.1843125e+2, -473315.94, -791495.94, 121693.18, -0.17022417, 0.20473371, -432109.03, 367281.56, 0.0, 10.003229, 9.999365 
2.9965928e+3, 2.2842517e+2, -460151.78, -337211.0, 74184.74, -0.0053597456, -0.16760617, -302338.34, 399107.8, 0.0, 10.001288, 10.002498 
2.9962873e+3, 2.3842584e+2, -822505.0, -723110.25, 122154.97, 0.0032208792, 0.08351314, -640930.2, -37495.473, 0.0, 9.998961, 10.000525 
2.9959828e+3, 2.4842638e+2, -460960.66, -495273.53, 176630.22, 0.38765842, 0.48896462, -300655.6, 204776.6, 0.0, 10.00114, 10.000092 
2.9956725e+3, 2.5841933e+2, -970677.5, -695951.7, 884.9072, 0.15490949, 0.18345617, -695948.9, -288443.16, 0.0, 9.996658, 10.000437 
2.995366e+3, 2.6841307e+2, -65257.21, 306305.63, 247851.86, -0.03356306, -0.40172026, 430274.56, 739840.06, 0.0, 10.000368, 10.004641 
2.9950625e+3, 2.7841708e+2, -214924.25, 106994.11, -65052.15, 0.05807872, -0.0019588338, 119642.65, 331165.7, 0.0, 9.99904, 10.003575 
2.9947463e+3, 2.8842407e+2, -33584.188, 561123.25, 46730.574, -0.20207338, 0.52211946, 564772.8, 678222.94, 0.0, 9.998785, 10.005973 
2.994438e+3, 2.984204e+2, -347152.3, 151499.92, -296979.4, 0.3428747, 0.14285585, 289936.97, 305416.88, 0.0, 9.996924, 10.0035095 
