coord_x,coord_y,stress_xx,stress_yy,tau_xy,velocity_x,velocity_y,stress_1,eps,damage,lx,ly
4.9990278e+0, 1.2582238e+2, -1826737.0, -1642733.5, 68682.664, -0.030536842, 0.09766807, -1619924.0, 87028.96, 0.0027102246, 9.998497, 10.001215 
4.999343e+0, 1.3582359e+2, -1666163.8, -1473028.3, 14712.54, -0.01103886, -0.042968858, -1471914.0, 137023.47, 0.0016001622, 9.998818, 10.001538 
4.9994573e+0, 1.4582776e+2, -1615926.9, -1494757.5, -15901.555, -0.0057084505, 0.2754408, -1492705.4, 18189.85, 0.00071385584, 9.99893, 10.000647 
4.9992394e+0, 1.5582734e+2, -1525451.8, -1406086.8, -66162.6, -0.02570394, 0.09333401, -1376665.4, 36234.004, 0.00020880907, 9.998906, 10.000597 
4.999444e+0, 1.6582721e+2, -1465308.4, -1410744.0, -47020.383, -0.010368927, 0.06469631, -1383664.1, -68764.5, 0.00003056022, 9.999017, 9.999841 
4.9999362e+0, 1.7582682e+2, -1350931.4, -1322388.5, -30721.268, 0.02944242, -0.01687896, -1302785.5, -85884.34, 0.0000010193884, 9.999204, 9.999685 
4.9998975e+0, 1.858274e+2, -1259033.1, -1257174.3, 1218.0095, 0.020285007, 0.095072456, -1256571.6, -137674.52, 0.0, 9.999304, 9.999407 
4.999453e+0, 1.9582835e+2, -1154886.6, -1157831.8, 3606.9253, -0.026139043, 0.18913592, -1152463.3, -131570.89, 0.0, 9.999351, 9.999398 
4.9996048e+0, 2.0582874e+2, -973986.1, -889053.56, 10191.428, -0.011614989, 0.23099035, -887847.75, 35038.727, 0.0, 9.999363, 10.000557 
5.000142e+0, 2.1582828e+2, -890222.4, -820890.4, -23576.371, 0.042102206, 0.06886376, -813632.94, 11251.008, 0.0, 9.999362, 10.000355 
5.000137e+0, 2.2582754e+2, -860283.9, -898805.75, 57.49724, 0.034254193, 0.037536923, -860283.8, -133393.8, 0.0, 9.9995165, 9.999073 
4.9997646e+0, 2.3582634e+2, -724499.56, -781335.44, 9110.962, -0.016003717, -0.055217497, -723074.8, -94169.43, 0.0, 9.999766, 9.999087 
4.9998528e+0, 2.4582691e+2, -534613.3, -550312.5, 14448.958, -0.018867929, 0.05687096, -526019.44, 4880.8687, 0.0, 10.000011, 9.999884 
5.0002754e+0, 2.5582835e+2, -419378.56, -471231.25, -22993.557, 0.011338052, 0.15501879, -410651.22, 22233.713, 0.000000000017365094, 10.000241, 9.999647 
5.000353e+0, 2.6582748e+2, -340459.94, -470789.1, -18502.08, 0.0069238227, 0.15580936, -337884.22, -2992.3394, 0.000000288742, 10.000493, 9.998848 
5.000177e+0, 2.758249e+2, -207584.22, -358881.34, -33161.934, -0.023785321, -0.049585164, -200634.84, 36280.688, 0.0000033591298, 10.000743, 9.998823 
5.000086e+0, 2.858231e+2, -140827.11, -287375.3, -29466.98, -0.024475506, -0.103849344, -135124.03, 3809.642, 0.000018802597, 10.000582, 9.998712 
4.9999818e+0, 2.9582042e+2, -78678.55, -172595.5, -25132.469, -0.01558449, -0.31379712, -72375.97, -31413.648, 0.000081046455, 10.000165, 9.999034 
5.000117e+0, 3.058265e+2, 53870.324, -22557.88, 5851.2813, -0.016376156, 0.3410664, 54315.695, 54315.695, 0.0003038914, 10.000472, 9.99958 
5.0003177e+0, 3.158235e+2, 86009.24, -96602.91, -8232.457, -0.0280343, 0.056203686, 86379.625, 86379.625, 0.00078894256, 10.000988, 9.998845 
1.4997058e+1, 1.2582405e+2, -1927602.1, -1759404.6, 37679.863, -0.09037309, 0.1053053, -1751349.4, -44416.563, 0.0026043395, 9.998161, 10.000595 
1.4998111e+1, 1.3582395e+2, -1745205.4, -1585911.1, 39545.35, -0.021168495, -0.035261873, -1576634.1, 32298.13, 0.0015429672, 9.998648, 10.000868 
1.4998358e+1, 1.4582685e+2, -1707616.0, -1624274.9, -30452.354, -0.016399512, 0.23018338, -1614333.6, -103428.44, 0.0006869522, 9.998697, 9.999886 
1.4997706e+1, 1.5582569e+2, -1602999.6, -1517314.6, -50610.855, -0.07655202, 0.090349026, -1493847.8, -80927.85, 0.0001968844, 9.99872, 9.999936 
1.4998342e+1, 1.6582581e+2, -1434406.1, -1291309.4, -52786.332, -0.027740259, 0.069483206, -1273944.5, 40972.918, 0.000026649353, 9.998809, 10.0007715 
1.4999849e+1, 1.7582677e+2, -1311476.8, -1195030.8, -10262.515, 0.09286577, 0.062429383, -1194133.3, 22770.236, 0.00000066228677, 9.999027, 10.000659 
1.4999662e+1, 1.858268e+2, -1256495.5, -1190537.6, -10470.038, 0.060603302, 0.03802861, -1188915.5, -70015.016, 0.0, 9.999075, 9.999982 
1.499836e+1, 1.9582587e+2, -1153972.4, -1100689.9, 20128.348, -0.07565321, -0.075437374, -1093940.9, -73033.04, 0.0, 9.999141, 9.999903 
1.4998792e+1, 2.058258e+2, -1038717.2, -965163.25, -967.55676, -0.035563678, -0.08152223, -965150.5, -42243.406, 0.0, 9.999143, 10.000149 
1.500041e+1, 2.1582617e+2, -943626.8, -876730.0, -7016.175, 0.12536635, -0.08716569, -876002.06, -51100.242, 0.0, 9.999152, 10.000082 
1.5000395e+1, 2.2582676e+2, -841142.9, -801352.9, -5068.6353, 0.105015755, -0.022301367, -800717.4, -73821.195, 0.0, 9.999302, 9.999854 
1.4999264e+1, 2.3582733e+2, -714253.75, -700135.0, 32905.65, -0.048155334, 0.025922652, -673540.0, -44648.438, 0.0, 9.999542, 9.99976 
1.4999563e+1, 2.458267e+2, -605334.9, -648390.5, 9377.458, -0.054451603, 0.015580625, -603381.2, -72483.72, 0.0, 9.99983, 9.999308 
1.5000819e+1, 2.5582495e+2, -484060.84, -544477.75, -2193.9485, 0.036089584, -0.117536575, -483981.28, -51068.082, 0.0, 10.000008, 9.999267 
1.500106e+1, 2.658247e+2, -359052.63, -460712.53, -21415.348, 0.02207384, -0.053181753, -354725.53, -19808.012, 0.00000013049092, 10.000316, 9.999014 
1.5000552e+1, 2.7582547e+2, -234996.75, -358742.4, -15025.069, -0.068634436, 0.09869974, -233198.56, 3715.3628, 0.0000024373799, 10.000522, 9.998944 
1.5000212e+1, 2.858249e+2, -135734.92, -228340.17, -57236.08, -0.07548122, 0.13532525, -108417.57, 30503.664, 0.000015368285, 10.000407, 9.999215 
1.4999929e+1, 2.9582247e+2, -82769.48, -116226.83, -15862.82, -0.04895103, -0.062318545, -76444.35, -35499.75, 0.000069496324, 9.999906, 9.999562 
1.5000416e+1, 3.058256e+2, 39393.97, 18859.115, 16092.124, -0.035001356, 0.25766405, 48215.19, 48215.19, 0.00026841622, 10.000247, 9.999993 
1.500088e+1, 3.158224e+2, 70466.445, 93.65635, 44699.33, -0.08178631, -0.0370986, 92166.89, 92166.89, 0.0007052667, 10.000521, 9.999754 
2.4995898e+1, 1.2582465e+2, -1900087.4, -1745083.4, -689.4406, -0.016816316, 0.15545565, -1745080.3, -38153.523, 0.0024837567, 9.998379, 10.000558 
2.4997324e+1, 1.3582394e+2, -1750973.9, -1610703.6, 8835.886, 0.044475894, -0.046541046, -1610149.3, -1217.5905, 0.0014731403, 9.998742, 10.000634 
2.4997644e+1, 1.4582613e+2, -1669192.4, -1629427.0, 27933.27, 0.03437623, 0.17210086, -1615022.9, -104111.734, 0.00065158884, 9.999091, 9.999639 
2.499673e+1, 1.5582521e+2, -1505091.1, -1499747.5, 29783.994, -0.07722325, 0.07032327, -1472515.6, -59592.27, 0.0001815959, 9.99954, 9.999644 
2.499745e+1, 1.6582546e+2, -1375770.4, -1294500.1, 27035.4, -0.01595398, 0.09199302, -1286328.3, 28592.64, 0.000022322774, 9.999355, 10.000474 
2.4999443e+1, 1.7582642e+2, -1377764.9, -1246547.4, -36021.953, 0.17641471, 0.101331726, -1237309.0, -20400.162, 0.00000035252413, 9.998679, 10.000455 
2.4999271e+1, 1.8582633e+2, -1291760.6, -1152020.0, -22033.223, 0.14705978, 0.048539434, -1148628.3, -29723.03, 0.0, 9.998585, 10.000476 
2.4997634e+1, 1.958253e+2, -1172645.8, -1060322.3, -9395.666, -0.036507625, -0.13972005, -1059541.8, -38631.945, 0.0, 9.998802, 10.000328 
2.4997969e+1, 2.0582512e+2, -1086029.5, -1049792.5, 6259.954, -0.021868488, -0.14467998, -1048741.6, -125831.32, 0.0, 9.999087, 9.999588 
2.4999702e+1, 2.1582538e+2, -948484.9, -939677.06, -24222.252, 0.13525103, -0.11400516, -919461.6, -94551.96, 0.0, 9.999385, 9.99953 
2.5000012e+1, 2.25826e+2, -778846.25, -772502.5, -14813.48, 0.1219455, -0.01834081, -760525.1, -33620.867, 0.0, 9.999725, 9.999835 
2.4999353e+1, 2.3582666e+2, -644956.5, -676253.4, -46299.625, -0.011831067, 0.028631113, -611732.4, 17164.826, 0.0, 10.000044, 9.999674 
2.4999782e+1, 2.458257e+2, -564290.6, -646448.5, -40610.773, -0.026948992, 0.000021656388, -547605.25, -16699.537, 0.0, 10.000203, 9.9991255 
2.5000957e+1, 2.5582334e+2, -459544.5, -551055.1, -40622.754, 0.045377333, -0.18803333, -444113.56, -11185.627, 0.0, 10.000262, 9.999083 
2.5001192e+1, 2.6582325e+2, -375342.06, -457311.8, -16633.0, 0.018943312, -0.10159313, -372095.53, -37164.215, 0.00000003137998, 10.000175, 9.999091 
2.5000733e+1, 2.7582476e+2, -307207.22, -383854.16, -29864.383, -0.06776209, 0.10891076, -296945.0, -60023.246, 0.0000016497497, 10.0, 9.999011 
2.5000414e+1, 2.858247e+2, -161928.16, -222253.13, -43587.285, -0.07423828, 0.1852893, -139084.73, -161.34952, 0.000012071121, 10.000154, 9.999369 
2.5000277e+1, 2.9582295e+2, -2694.957, -75262.87, -42435.395, -0.021521043, 0.027112842, 16853.768, 57792.086, 0.00005739791, 10.000477, 9.999552 
2.5001058e+1, 3.058236e+2, 52610.76, -53095.21, -10380.434, -0.0021494722, 0.14971207, 53620.49, 53620.49, 0.00023072664, 10.0006895, 9.999285 
2.5002015e+1, 3.1582072e+2, 99365.64, 16830.85, -107272.67, -0.0059733274, -0.07969178, 173034.86, 173034.86, 0.000617959, 10.000726, 9.999751 
3.4995192e+1, 1.2582405e+2, -1878122.3, -1652144.4, -33197.094, 0.006636324, 0.1782791, -1647368.5, 59567.91, 0.0023583595, 9.998195, 10.001284 
3.4996554e+1, 1.3582352e+2, -1714665.6, -1512036.8, 31821.623, 0.05855984, -0.052085645, -1507156.9, 101778.86, 0.0013953737, 9.998666, 10.001342 
3.499692e+1, 1.4582545e+2, -1649876.9, -1558408.3, 28563.771, 0.010896239, 0.077429354, -1550221.3, -39306.645, 0.0006105934, 9.998962, 10.000185 
3.4995914e+1, 1.5582588e+2, -1484024.4, -1433701.5, 58376.906, -0.15028296, 0.057673726, -1395294.4, 17616.037, 0.00016453842, 9.99946, 10.000131 
3.4996518e+1, 1.6582602e+2, -1472489.3, -1473983.8, -15814.107, -0.08021993, 0.10727428, -1457404.8, -142493.69, 0.000017966355, 9.999255, 9.999299 
3.499839e+1, 1.7582555e+2, -1461319.0, -1406796.6, -44003.965, 0.16839118, 0.10147195, -1382293.8, -165374.61, 0.00000014192928, 9.998617, 9.999392 
3.499839e+1, 1.8582582e+2, -1260912.4, -1051493.1, -27276.59, 0.16906907, 0.09510308, -1047998.75, 70914.57, 0.0, 9.998438, 10.001232 
3.4996933e+1, 1.958265e+2, -1143741.0, -969835.3, 13146.49, -0.018897567, 0.01001605, -968847.1, 52051.688, 0.0, 9.998677, 10.001008 
3.4996825e+1, 2.0582657e+2, -1139768.5, -1123043.0, 1294.534, -0.072728306, 0.019897584, -1122943.4, -200046.38, 0.0, 9.998931, 9.99916 
3.4997723e+1, 2.1582589e+2, -1001295.9, -1010441.06, 1105.6984, -0.03073318, 0.005214373, -1001164.06, -176256.52, 0.0, 9.999224, 9.999122 
3.499868e+1, 2.2582519e+2, -842305.2, -856545.25, -12465.992, -0.012690685, 0.017027419, -835069.2, -108154.07, 0.0, 9.999534, 9.999346 
3.4999683e+1, 2.3582442e+2, -699155.7, -741815.56, -20848.043, -0.014602013, -0.026225913, -690659.4, -61737.945, 0.0, 9.999856, 9.999309 
3.5000238e+1, 2.4582398e+2, -556207.25, -599656.56, -50444.57, -0.030000363, -0.008219395, -523008.2, 7916.602, 0.0, 10.000071, 9.999516 
3.5000405e+1, 2.5582352e+2, -456763.47, -508437.13, -23701.365, -0.06669882, -0.033921964, -447538.97, -14610.659, 0.0, 10.000106, 9.999453 
3.500045e+1, 2.658232e+2, -371737.3, -429214.8, -35015.24, -0.10123586, -0.0015085716, -355177.25, -20244.797, 0.0000000045955626, 10.000087, 9.999324 
3.500032e+1, 2.7582285e+2, -308750.53, -354778.6, -18342.45, -0.14202307, 0.0009365551, -302335.13, -65397.14, 0.0000011896407, 9.999862, 9.999276 
3.5000402e+1, 2.8582254e+2, -167036.61, -211533.67, -43973.832, -0.122570746, 0.03480486, -140003.34, -1063.5923, 0.000009641755, 10.000072, 9.99948 
3.5000655e+1, 2.958218e+2, -38350.195, -116501.52, -18005.916, -0.06905801, -0.024919197, -34401.207, 6542.439, 0.0000464018, 10.000344, 9.999334 
3.5001576e+1, 3.0582035e+2, -56554.805, -271075.16, -18780.059, -0.048136316, -0.015045986, -54923.125, -54923.125, 0.00019513248, 10.000636, 9.997809 
3.5003012e+1, 3.158189e+2, 37805.367, -92733.72, -69820.766, -0.04855663, 0.03411668, 68113.3, 68113.3, 0.00053834624, 10.000631, 9.9990425 
4.4994223e+1, 1.258231e+2, -1923697.1, -1662373.1, 73192.93, 0.13668205, 0.13316427, -1643269.5, 63674.72, 0.0022337737, 9.997862, 10.001352 
4.4995406e+1, 1.3582347e+2, -1724485.9, -1516327.0, 15089.5205, 0.10162392, -0.007924074, -1515238.9, 93696.65, 0.0013153872, 9.998607, 10.001333 
4.499626e+1, 1.4582466e+2, -1608898.9, -1515557.8, 13573.349, 0.05726738, 0.03813841, -1513624.0, -2703.3022, 0.00056916923, 9.999127, 10.000419 
4.4995812e+1, 1.5582508e+2, -1460741.0, -1406148.8, -21516.486, -0.095419206, 0.0012765138, -1398688.0, 14226.944, 0.00014812649, 9.99953, 10.000308 
4.4996163e+1, 1.6582537e+2, -1437567.9, -1455701.9, -57090.207, -0.04061679, 0.05770732, -1388829.3, -73915.516, 0.000013959289, 9.999503, 9.9993 
4.4997227e+1, 1.7582503e+2, -1378120.5, -1372025.5, -23767.58, 0.17186536, 0.06749941, -1351110.9, -134190.1, 0.000000037538413, 9.999217, 9.999341 
4.4997334e+1, 1.8582515e+2, -1192534.8, -1088892.9, 23657.518, 0.19327202, 0.082767986, -1083748.1, 35170.61, 0.0, 9.999212, 10.000611 
4.499664e+1, 1.9582556e+2, -1092566.1, -1007677.6, -62607.336, 0.06499363, 0.03307633, -974483.3, 46427.14, 0.0, 9.999299, 10.000455 
4.4996682e+1, 2.0582573e+2, -1026237.4, -1045681.75, -54732.105, -0.0026226265, 0.068162434, -980370.7, -57462.254, 0.0, 9.999597, 9.999379 
4.4997293e+1, 2.1582545e+2, -880096.9, -930670.75, -34306.875, -0.019941049, 0.073793575, -862764.7, -37851.195, 0.0, 9.999952, 9.999323 
4.4998384e+1, 2.2582456e+2, -760227.06, -822152.56, 17499.67, -0.013156762, 0.057530478, -755623.94, -28702.01, 0.0, 10.000116, 9.9993105 
4.4999814e+1, 2.3582308e+2, -667351.44, -732905.6, 16118.341, 0.012412268, -0.050369132, -663602.7, -34668.445, 0.0, 10.000105, 9.999262 
4.5000398e+1, 2.4582279e+2, -591118.7, -614050.3, -1628.1573, 0.0026799913, -0.014334887, -591003.7, -60067.387, 0.0, 9.999827, 9.999527 
4.5000303e+1, 2.5582305e+2, -563760.6, -562068.0, -28082.986, -0.04156653, 0.028408837, -534818.56, -101884.43, 0.0, 9.999374, 9.999435 
4.500039e+1, 2.658225e+2, -440238.03, -449077.34, -12827.375, -0.079890534, 0.034175184, -431090.25, -96151.17, 0.000000013083459, 9.999566, 9.999437 
4.5000705e+1, 2.7582133e+2, -236195.9, -312993.97, -30247.363, -0.1015108, -0.05507712, -225713.58, 11236.012, 0.0000010541644, 10.000333, 9.999341 
4.5001233e+1, 2.858205e+2, -99842.49, -222747.36, -57435.242, -0.06788637, -0.052199475, -77180.664, 61774.867, 0.000008106713, 10.000718, 9.999101 
4.5001808e+1, 2.9581952e+2, -2916.5928, -152264.0, -96008.44, 0.00040879002, -0.09329624, 44039.395, 85001.98, 0.000037622078, 10.000807, 9.998875 
4.5002693e+1, 3.058176e+2, -14062.922, -301880.47, -20294.979, -0.012657693, -0.08648581, -12638.901, -12638.901, 0.00016443121, 10.001142, 9.997349 
4.5004544e+1, 3.158171e+2, 185784.81, -12974.6, -50317.945, 0.00795022, 0.085540146, 197797.31, 197797.31, 0.00047154687, 10.00161, 9.999113 
5.4991525e+1, 1.2582208e+2, -1975332.9, -1789584.8, 56622.152, -0.012514389, 0.02097512, -1773685.4, -66738.13, 0.0021078985, 9.997919, 10.000461 
5.49934e+1, 1.3582377e+2, -1763974.4, -1622686.4, 57900.035, -0.010628776, 0.09187297, -1601990.4, 6940.2227, 0.0012334009, 9.998693, 10.0005665 
5.499528e+1, 1.4582379e+2, -1614874.4, -1529612.6, 8003.4863, -0.005952808, 0.05751267, -1528867.9, -17938.494, 0.00052778376, 9.999132, 10.00032 
5.499592e+1, 1.5582292e+2, -1464225.1, -1415188.9, 6229.1934, -0.08026742, -0.09469161, -1414409.9, -1474.013, 0.00013278752, 9.999534, 10.000246 
5.499574e+1, 1.658236e+2, -1371920.3, -1303993.1, -82699.7, -0.072763294, -0.054038115, -1248554.5, 66373.21, 0.0000106646075, 9.999437, 10.00037 
5.4995394e+1, 1.7582482e+2, -1319448.9, -1244882.5, -20105.953, 0.026749909, -0.00030829842, -1239806.8, -22892.484, 0.000000007551507, 9.999194, 10.000221 
5.499567e+1, 1.8582428e+2, -1341787.6, -1378897.3, 11450.288, 0.070671745, 0.010570533, -1338539.0, -219617.17, 0.0, 9.999127, 9.998662 
5.499629e+1, 1.9582237e+2, -1224099.3, -1262593.1, -46153.797, 0.06375035, -0.07216948, -1193340.0, -172394.6, 0.0, 9.999224, 9.998741 
5.4997045e+1, 2.0582262e+2, -984895.06, -924245.2, -52459.113, 0.043292057, -0.0024525353, -893976.7, 28967.486, 0.0, 9.999451, 10.000279 
5.4997915e+1, 2.1582413e+2, -836541.7, -813697.4, -8697.614, 0.013610074, 0.09351985, -810762.9, 14164.704, 0.0, 9.99984, 10.000179 
5.4998654e+1, 2.258241e+2, -748064.25, -768028.06, 4959.7466, -0.029222049, 0.09997538, -746899.94, -19975.021, 0.0, 9.999995, 9.999739 
5.4999346e+1, 2.3582277e+2, -660722.4, -691641.8, 28799.643, -0.07576991, -0.0332048, -643495.4, -14560.974, 0.0, 9.999988, 9.999601 
5.499975e+1, 2.4582215e+2, -631592.75, -677806.2, -29076.76, -0.07802188, -0.023385316, -617559.5, -86619.195, 0.0, 9.999746, 9.999125 
5.5000055e+1, 2.5582182e+2, -611795.9, -620342.4, -28745.998, -0.039805528, 0.0001045323, -587007.25, -154061.55, 0.0, 9.999212, 9.9991045 
5.5000633e+1, 2.658212e+2, -446427.56, -456143.9, 2547.538, -0.04733852, 0.01188238, -445800.16, -110849.31, 0.000000016276152, 9.99953, 9.999413 
5.5001533e+1, 2.7582014e+2, -254826.28, -335819.5, 10774.999, -0.087841965, -0.062645845, -253417.33, -16459.904, 0.00000094951764, 10.000252, 9.999231 
5.500239e+1, 2.8581855e+2, -163861.9, -344606.5, -66840.305, -0.0577129, -0.087558284, -141829.69, -2857.8704, 0.0000068871877, 10.00068, 9.998277 
5.500321e+1, 2.9581624e+2, -66496.79, -260459.81, -77359.38, 0.017638275, -0.1778449, -39422.313, 1572.8795, 0.00003070153, 10.000702, 9.99818 
5.500395e+1, 3.0581537e+2, 25022.787, -202686.14, -8792.693, -0.033735882, -0.07073253, 25361.803, 25361.803, 0.00013855331, 10.001077, 9.998062 
5.5005753e+1, 3.1581497e+2, 229276.81, 106843.234, 619.9744, -0.102042355, 0.04769935, 229279.95, 229279.95, 0.0004144919, 10.001496, 9.999987 
6.499002e+1, 1.2582009e+2, -1814421.3, -1760494.6, -38079.83, 0.003345295, -0.020394849, -1740798.5, -33832.96, 0.0019834668, 9.999193, 10.000072 
6.4992493e+1, 1.3582252e+2, -1688843.4, -1602511.9, -35557.05, 0.016274968, 0.14935772, -1589752.8, 19190.572, 0.001149572, 9.999255, 10.00045 
6.499479e+1, 1.458221e+2, -1683663.4, -1544624.8, -38577.473, 0.07138354, 0.06563419, -1534638.4, -23691.164, 0.00048384682, 9.998598, 10.000467 
6.4995176e+1, 1.5582153e+2, -1730420.6, -1521832.6, -54121.895, 0.00018802768, -0.068549536, -1508625.9, -95674.79, 0.00011744106, 9.997638, 10.000411 
6.499492e+1, 1.6582231e+2, -1528326.5, -1336709.5, -99657.484, -0.024437983, -0.04459079, -1294275.9, 20664.445, 0.000008467286, 9.998182, 10.0007515 
6.4994514e+1, 1.7582338e+2, -1226869.8, -1166495.5, -121438.46, 0.00396872, -0.04340099, -1071548.5, 145377.42, 0.000000004638606, 9.999696, 10.000515 
6.499503e+1, 1.8582296e+2, -1219957.9, -1365864.9, -48612.035, 0.05376363, -0.008566526, -1205245.3, -86312.46, 0.0, 10.000166, 9.998246 
6.499615e+1, 1.9582143e+2, -1166207.9, -1279044.0, -19348.46, 0.10829415, -0.014662386, -1162982.3, -142026.45, 0.0, 9.999811, 9.998345 
6.499703e+1, 2.0582128e+2, -953281.75, -917892.3, 16754.549, 0.09494549, 0.038541228, -911218.7, 11740.213, 0.0, 9.999698, 10.000208 
6.499775e+1, 2.1582188e+2, -871357.75, -833220.06, -35234.473, 0.033326674, 0.05080477, -812225.4, 12724.106, 0.0, 9.999617, 10.000151 
6.499859e+1, 2.2582193e+2, -785150.25, -757587.4, -40288.242, -0.0062859356, 0.0516944, -728788.7, -1842.8938, 0.0, 9.99961, 10.0 
6.499956e+1, 2.3582141e+2, -691955.3, -677926.8, -53127.594, -0.025964526, -0.030015346, -631352.44, -2404.8547, 0.0, 9.9996395, 9.999862 
6.500005e+1, 2.458209e+2, -594489.44, -682976.75, -76817.53, -0.030003583, -0.011181973, -550085.3, -19132.488, 0.0, 10.000088, 9.998946 
6.500026e+1, 2.5582024e+2, -385253.3, -530896.25, -87424.61, -0.011254966, -0.0018486455, -344294.16, 88667.96, 0.0, 10.000842, 9.998954 
6.5001243e+1, 2.658194e+2, -283845.72, -399834.97, -34288.45, 0.008733093, 0.009274799, -274467.7, 60501.39, 0.00000000394634, 10.000744, 9.999218 
6.500285e+1, 2.758183e+2, -285623.72, -364834.1, -61309.25, 0.03562937, -0.050028473, -252239.9, -15264.397, 0.0000007712445, 10.000123, 9.999083 
6.500367e+1, 2.8581652e+2, -232276.92, -400605.16, -77116.4, 0.031452622, -0.0756588, -202289.66, -63297.55, 0.000006042053, 10.000315, 9.998065 
6.5004e+1, 2.95814e+2, -31758.088, -248800.8, -73025.805, 0.024925841, -0.16980748, -9475.569, 31543.375, 0.000026519589, 10.00099, 9.99811 
6.500483e+1, 3.0581382e+2, 50967.645, -139581.78, 24039.922, -0.037767198, -0.02025682, 53953.75, 53953.75, 0.00012024143, 10.001025, 9.9985285 
6.500713e+1, 3.1581238e+2, 92678.016, 64442.184, -32820.45, -0.042032015, -0.039811846, 114288.2, 114288.2, 0.00036921015, 10.000427, 10.0002365 
7.498888e+1, 1.2581688e+2, -1780678.4, -1699178.8, -90759.13, -0.112842, 0.014587512, -1640441.1, 66560.35, 0.0018629195, 9.99924, 10.000465 
7.499204e+1, 1.3581957e+2, -1643371.4, -1519398.6, -29885.188, 0.0021454424, 0.15022016, -1512570.5, 96404.28, 0.0010666472, 9.999301, 10.000999 
7.4994e+1, 1.4581953e+2, -1662838.9, -1490063.8, -90767.87, 0.08725657, 0.05880825, -1451145.1, 59829.457, 0.0004391749, 9.99855, 10.000865 
7.499316e+1, 1.5582085e+2, -1703488.8, -1478164.6, -66432.23, -0.007632843, 0.07323044, -1460036.9, -47075.633, 0.00010226521, 9.997678, 10.0007 
7.4993217e+1, 1.658215e+2, -1561495.3, -1390668.4, -57521.9, -0.04884008, 0.08761252, -1373105.0, -58152.62, 0.000007138289, 9.998125, 10.000403 
7.4994165e+1, 1.7582072e+2, -1250283.8, -1206929.5, -58958.797, -0.038101137, -0.060228303, -1165789.1, 51166.633, 0.00000003688298, 9.99966, 10.000255 
7.4994993e+1, 1.8582118e+2, -1157133.8, -1218355.0, -76015.586, -0.0001538218, 0.017004196, -1105797.0, 13155.3545, 0.0, 10.000086, 9.999302 
7.499577e+1, 1.9582257e+2, -1108023.0, -1148239.9, -19589.775, 0.0536451, 0.19583954, -1100058.3, -79114.8, 0.0, 9.999766, 9.999267 
7.499624e+1, 2.0582163e+2, -1037953.94, -1071174.6, 1968.7823, 0.014628458, 0.18463257, -1037837.6, -114884.45, 0.0, 9.999601, 9.999201 
7.4996376e+1, 2.158187e+2, -951045.0, -975430.0, -25550.137, -0.098713666, -0.06039731, -934927.3, -109947.61, 0.0, 9.999509, 9.999229 
7.4997747e+1, 2.2581805e+2, -794802.44, -748951.2, -50182.62, -0.080901965, -0.09339871, -716705.44, 10279.02, 0.0, 9.999488, 10.000116 
7.500007e+1, 2.3581892e+2, -705577.1, -675693.06, -34680.74, 0.029218275, -0.048042182, -652872.44, -23897.85, 0.0, 9.999502, 9.999947 
7.5000817e+1, 2.4581905e+2, -603943.5, -683351.94, -60358.3, 0.009455413, 0.027248716, -571401.25, -40427.48, 0.0, 10.000007, 9.998978 
7.5000495e+1, 2.5581834e+2, -405726.97, -546010.06, -49813.313, -0.10360814, 0.027685069, -389838.28, 43144.074, 0.0, 10.000717, 9.998911 
7.5001687e+1, 2.6581725e+2, -322499.2, -457063.28, -69769.31, -0.050691627, 0.0382948, -292855.34, 42136.813, 0.00000000015133415, 10.000656, 9.998863 
7.5004125e+1, 2.7581584e+2, -325420.1, -417936.88, -63355.62, 0.114459276, -0.01864708, -293232.5, -56229.043, 0.00000065427645, 10.0, 9.998775 
7.5004685e+1, 2.8581452e+2, -203896.42, -336350.47, -62959.906, 0.06663869, -0.0135865975, -178745.28, -39729.12, 0.0000058927376, 10.000284, 9.998524 
7.500373e+1, 2.9581276e+2, -8385.024, -184163.94, -35185.008, -0.1408737, -0.07662047, -1603.7813, 39430.56, 0.000025865007, 10.0009, 9.998608 
7.5004816e+1, 3.0581275e+2, 51968.188, -116011.82, -1422.6501, -0.1740445, 0.055989794, 51980.234, 51980.234, 0.00011203884, 10.000953, 9.998713 
7.5007766e+1, 3.1580907e+2, 49223.49, 16607.725, -4228.3047, -0.08795673, -0.2007284, 49762.73, 49762.73, 0.00034091447, 10.000257, 9.999978 
8.498848e+1, 1.2581493e+2, -1816635.0, -1701622.3, 48522.586, -0.046266045, 0.016788496, -1683886.1, 23134.182, 0.0017451695, 9.998946, 10.000576 
8.499129e+1, 1.358176e+2, -1787613.1, -1550543.6, 33489.27, 0.0703626, 0.1204025, -1545903.6, 63089.4, 0.0009891815, 9.998167, 10.001318 
8.499295e+1, 1.4581743e+2, -1716690.4, -1529373.4, -9604.612, 0.15792057, 0.0034185185, -1528882.3, -17887.99, 0.000399723, 9.998215, 10.00077 
8.4991735e+1, 1.5581931e+2, -1525411.9, -1407978.9, -48305.574, 0.028047666, 0.08778457, -1390662.1, 22313.566, 0.00008899464, 9.998965, 10.000562 
8.4992236e+1, 1.6581975e+2, -1384221.6, -1361877.4, 3849.6687, -0.023207864, 0.11605389, -1361232.6, -46262.848, 0.000006071428, 9.999578, 9.999907 
8.4994245e+1, 1.7581815e+2, -1234874.3, -1243409.9, -38770.44, 0.00032099194, -0.065418504, -1200137.5, 16845.395, 0.000000076650345, 9.999952, 9.999866 
8.4995323e+1, 1.8581845e+2, -1117029.0, -1142028.5, -96882.49, 0.032875206, -0.013162858, -1031843.2, 87136.68, 0.0, 10.000106, 9.999822 
8.4995735e+1, 1.9582029e+2, -1039596.06, -1063039.1, -106463.18, 0.07121201, 0.15909235, -944211.06, 76752.95, 0.0, 10.000004, 9.99974 
8.4996116e+1, 2.0581973e+2, -979924.06, -1032456.9, -30253.652, 0.032556262, 0.15857571, -966125.4, -43155.89, 0.0, 9.999967, 9.999286 
8.4996337e+1, 2.1581714e+2, -884961.44, -938566.4, -6751.587, -0.06679384, -0.056483835, -884124.1, -59130.64, 0.0, 9.999951, 9.9992695 
8.499775e+1, 2.2581649e+2, -768869.5, -766548.6, 4428.382, -0.037079502, -0.074621454, -763131.2, -36131.617, 0.0, 9.999807, 9.999834 
8.5000145e+1, 2.3581718e+2, -719068.5, -707387.4, -33838.37, 0.09355583, -0.017555635, -678889.25, -49896.035, 0.0, 9.999533, 9.999705 
8.500142e+1, 2.4581718e+2, -582554.3, -655320.4, -3285.1936, 0.07388047, 0.047688514, -582406.25, -51412.926, 0.0, 10.000066, 9.999136 
8.500192e+1, 2.5581646e+2, -323061.9, -489234.0, -12776.155, -0.046985574, 0.031266905, -322085.34, 110914.86, 0.0, 10.001218, 9.999049 
8.5003054e+1, 2.6581532e+2, -247868.0, -451650.9, -53076.176, -0.00083827286, 0.03869541, -234872.77, 100138.45, 0.0000000019213902, 10.001259, 9.998626 
8.5004824e+1, 2.758137e+2, -290553.13, -426714.8, -61199.688, 0.17857371, -0.017820325, -267089.44, -30062.717, 0.0000006294421, 10.000313, 9.99858 
8.500517e+1, 2.8581265e+2, -218602.72, -330383.13, 4842.9478, 0.10547005, 0.019727137, -218393.3, -79355.89, 0.0000062489003, 10.000122, 9.998644 
8.50044e+1, 2.958117e+2, -22116.422, -171152.61, -22384.785, -0.14296132, 0.025492366, -18826.9, 22220.777, 0.000027811611, 10.000727, 9.9987755 
8.5005933e+1, 3.058115e+2, 16932.252, -148416.38, -30717.52, -0.134176, 0.13543041, 22454.355, 22454.355, 0.00011222166, 10.000749, 9.998608 
8.500893e+1, 3.1580725e+2, -67616.16, -111103.56, -93325.44, 0.04614315, -0.1641444, 6465.1157, 6465.1157, 0.00032900518, 9.999753, 9.999342 
9.498789e+1, 1.2581438e+2, -1838902.0, -1738178.4, -20382.273, -0.07560682, -0.0038890082, -1734210.3, -27189.396, 0.0016362383, 9.998905, 10.000342 
9.498966e+1, 1.3581656e+2, -1774070.5, -1548328.4, 20269.064, 0.04837544, 0.047986213, -1546523.0, 62475.754, 0.0009229167, 9.998267, 10.001287 
9.499125e+1, 1.4581573e+2, -1757446.8, -1611637.6, 3822.4797, 0.12419187, -0.104965985, -1611537.5, -100530.99, 0.00036888671, 9.998208, 10.000207 
9.499045e+1, 1.5581697e+2, -1567774.5, -1499161.8, -6155.7705, -0.036803935, -0.024665317, -1498613.9, -85619.65, 0.00007923838, 9.998976, 9.999931 
9.4991595e+1, 1.6581719e+2, -1435878.5, -1457591.8, 6199.7725, -0.07782023, 0.04558373, -1434233.0, -119240.88, 0.0000051224774, 9.999525, 9.999277 
9.499428e+1, 1.7581573e+2, -1274775.8, -1327017.3, -10867.505, -0.02846848, -0.06086707, -1272605.3, -55598.797, 0.00000007826353, 9.999952, 9.999292 
9.499555e+1, 1.8581492e+2, -1131418.0, -1157229.1, -111765.91, 0.014011157, -0.09244431, -1031815.0, 87199.555, 0.0, 10.00004, 9.999747 
9.4995666e+1, 1.9581462e+2, -1047594.0, -1066007.9, -95292.53, 0.029232942, -0.12805285, -961064.7, 59952.496, 0.0, 9.99994, 9.999749 
9.499626e+1, 2.0581557e+2, -922853.8, -888445.5, -42887.27, 0.0205148, -0.036488842, -859440.4, 63567.004, 0.0, 9.99985, 10.000333 
9.499717e+1, 2.1581703e+2, -837434.7, -815578.1, 7624.6357, -0.010163406, 0.04850155, -813181.2, 11810.785, 0.0, 9.999841, 10.00017 
9.4998145e+1, 2.2581708e+2, -836994.94, -881640.94, -16118.689, -0.0097472, 0.09799823, -831783.8, -104791.42, 0.0, 9.999694, 9.999097 
9.499929e+1, 2.3581591e+2, -780373.7, -813158.6, -27581.28, 0.021998238, 0.04084743, -764681.25, -135675.33, 0.0, 9.999431, 9.999031 
9.5001405e+1, 2.4581514e+2, -574051.1, -613796.4, 27746.586, 0.035059877, 0.041548178, -559794.7, -28781.695, 0.0, 9.999965, 9.999469 
9.500417e+1, 2.5581446e+2, -313163.53, -453557.6, 41743.125, 0.021622883, -0.007076038, -301689.8, 131327.36, 0.0, 10.001141, 9.999336 
9.5004976e+1, 2.658133e+2, -265200.9, -466697.4, -101443.63, 0.035568617, -0.009093885, -222977.06, 112051.51, 0.0000000017799018, 10.001182, 9.998552 
9.5004463e+1, 2.758116e+2, -315988.16, -449472.66, -80716.53, 0.07741353, -0.065726995, -277994.13, -40947.063, 0.0000005677249, 10.000186, 9.99848 
9.500471e+1, 2.8581095e+2, -244280.8, -370691.97, 13096.443, 0.013991793, 0.027185636, -242938.25, -103882.37, 0.0000064583187, 10.000068, 9.99839 
9.5005524e+1, 2.958108e+2, -60824.73, -224565.08, 20181.414, -0.1424181, 0.13365494, -58374.0, -17314.26, 0.000029725905, 10.000605, 9.998468 
9.5007735e+1, 3.0581003e+2, -11774.208, -191256.9, -72188.125, -0.058452267, 0.21860185, 13656.643, 13656.643, 0.0001135958, 10.000682, 9.998336 
9.500972e+1, 3.1580707e+2, -165537.25, -282286.78, -82481.695, 0.080327414, 0.07500366, -122863.3, -122863.3, 0.00032168903, 9.999615, 9.998229 
1.0498724e+2, 1.2581307e+2, -2034504.8, -1867035.9, -34263.98, 0.04947239, -0.015212543, -1860296.6, -153264.44, 0.0015480418, 9.9976845, 10.000059 
1.0498807e+2, 1.3581535e+2, -1627011.1, -1496243.8, -65373.29, 0.021290513, 0.06738053, -1469168.3, 139841.88, 0.00087241904, 9.999347, 10.001132 
1.0499007e+2, 1.4581448e+2, -1528451.6, -1539197.3, -48461.824, 0.10799209, -0.06685886, -1485065.8, 25953.166, 0.0003471946, 9.999964, 9.9998455 
1.0499041e+2, 1.5581495e+2, -1454409.1, -1492826.9, -75264.98, 0.025219027, -0.018914856, -1395940.5, 17073.94, 0.000073446034, 9.999962, 9.999502 
1.0499168e+2, 1.6581511e+2, -1433241.3, -1433673.4, -12112.81, -0.008641026, 0.0555435, -1421342.6, -106329.445, 0.000004420773, 9.999467, 9.999454 
1.0499391e+2, 1.7581424e+2, -1461043.5, -1400680.3, 2931.1526, 0.014139477, -0.009326718, -1400538.3, -183515.98, 0.000000050630582, 9.99862, 9.99942 
1.0499533e+2, 1.8581325e+2, -1266033.1, -1208193.9, -12466.717, 0.043605626, -0.06937481, -1205621.3, -86590.27, 0.0, 9.999066, 9.999863 
1.0499606e+2, 1.9581227e+2, -992917.75, -1026168.3, -16184.771, 0.067864984, -0.18634279, -986340.75, 34697.586, 0.0, 10.000276, 9.999851 
1.0499693e+2, 2.058132e+2, -830141.7, -859827.8, -10708.518, 0.07551279, -0.09130637, -826682.0, 96346.63, 0.0, 10.00056, 10.000186 
1.0499794e+2, 2.1581525e+2, -815184.94, -818438.2, -76215.555, 0.08052861, 0.06461477, -740578.6, 84430.695, 0.0, 10.000059, 10.00004 
1.0499872e+2, 2.2581518e+2, -752504.1, -861568.56, -69704.625, 0.05381086, 0.11779099, -718534.94, 8476.01, 0.0, 10.000354, 9.998932 
1.04999475e+2, 2.3581342e+2, -533233.25, -711107.6, -65236.824, 0.016895266, 0.023464713, -511872.34, 117156.75, 0.0, 10.001206, 9.998884 
1.050018e+2, 2.458124e+2, -446595.88, -571929.06, 3260.3823, 0.037520465, 0.01586343, -446511.13, 84528.02, 0.0, 10.000927, 9.999294 
1.0500537e+2, 2.558117e+2, -522846.8, -567548.5, -45217.266, 0.10265448, -0.01793808, -494757.97, -61712.703, 0.0, 9.999775, 9.999205 
1.05006054e+2, 2.6581094e+2, -430100.63, -517117.28, -164619.97, 0.09571282, 0.011730994, -303336.5, 31717.57, 0.00000000014537505, 9.999946, 9.998794 
1.0500482e+2, 2.7580994e+2, -162755.13, -348895.2, -149072.19, 0.055838324, 0.0027401412, -80085.16, 156981.48, 0.00000042821608, 10.001143, 9.998706 
1.0500518e+2, 2.858093e+2, -58510.426, -255221.64, -5466.974, 0.0054301955, 0.0752821, -58358.605, 80715.85, 0.0000059800022, 10.001207, 9.998647 
1.0500674e+2, 2.9580873e+2, -80358.52, -209296.64, 9163.309, -0.057625476, 0.11566494, -79710.56, -38630.355, 0.000029321069, 10.000347, 9.998707 
1.05009e+2, 3.0580795e+2, -5737.84, -139462.36, -1456.6705, 0.018410087, 0.16336496, -5721.974, -5721.974, 0.000109980174, 10.000523, 9.998762 
1.05010636e+2, 3.1580648e+2, 87016.5, -168296.48, 5832.695, 0.13623695, 0.12587684, 87149.68, 87149.68, 0.0003078243, 10.001387, 9.998156 
1.14985675e+2, 1.2581071e+2, -2056387.8, -1924021.3, -7956.968, 0.04526971, -0.030585377, -1923544.6, -216487.69, 0.0014882531, 9.997727, 9.999652 
1.14986084e+2, 1.3581386e+2, -1640030.1, -1531947.3, 489.48273, -0.14865395, 0.17046604, -1531945.0, 77083.45, 0.000840427, 9.999384, 10.000868 
1.1498909e+2, 1.4581357e+2, -1552262.9, -1573374.3, -64606.547, -0.026077967, 0.11503191, -1497355.4, 13677.123, 0.00033535642, 9.999895, 9.999646 
1.14990994e+2, 1.5581323e+2, -1461086.8, -1507062.0, -59632.38, 0.04804393, 0.102020845, -1420164.6, -7128.543, 0.0000716502, 9.999974, 9.9993925 
1.14992075e+2, 1.6581352e+2, -1373141.6, -1307486.1, -56218.11, 0.04653944, 0.1487146, -1275212.9, 39819.67, 0.0000041980056, 9.999451, 10.000335 
1.1499281e+2, 1.7581359e+2, -1400058.1, -1272930.8, -9995.163, 0.006916393, 0.08422064, -1272149.8, -55118.965, 0.000000024917117, 9.998614, 10.000299 
1.1499439e+2, 1.8581344e+2, -1264302.4, -1177969.0, 20415.316, 0.015065093, 0.055680316, -1173384.9, -54355.605, 0.0, 9.998952, 10.00013 
1.14996456e+2, 1.9581312e+2, -990959.56, -1009607.7, 37623.67, 0.042479284, -0.021252703, -961521.8, 59506.57, 0.0, 10.000219, 9.999994 
1.1499766e+2, 2.0581259e+2, -942513.44, -1068260.9, -43624.27, 0.06400723, -0.003919266, -928861.5, -5827.613, 0.0, 10.00045, 9.99881 
1.1499822e+2, 2.1581163e+2, -919050.3, -1006346.1, -80060.46, 0.074424535, -0.01470095, -871512.56, -46465.668, 0.0, 9.999934, 9.998813 
1.1499911e+2, 2.258107e+2, -744211.06, -812933.6, -49712.297, 0.031331338, -0.010375848, -718140.5, 8915.361, 0.0, 10.000223, 9.999326 
1.1500027e+2, 2.3580965e+2, -528053.0, -672427.94, -24381.201, -0.055054445, -0.079139404, -524046.8, 105016.64, 0.0, 10.001079, 9.999213 
1.1500228e+2, 2.4580887e+2, -512053.66, -678902.3, -53501.496, -0.036853384, -0.039146878, -496371.84, 34700.754, 0.0, 10.000813, 9.998611 
1.15005e+2, 2.5580812e+2, -583141.0, -662264.75, -71741.484, 0.0583391, -0.008338838, -540776.2, -107691.234, 0.0, 9.999648, 9.998615 
1.1500591e+2, 2.6580817e+2, -400571.56, -442609.13, -130368.14, 0.057990246, 0.100638114, -289538.7, 45549.3, 0.0, 9.999886, 9.99934 
1.150055e+2, 2.758086e+2, -138430.95, -275907.97, -92782.91, -0.022351593, 0.18338244, -91698.04, 145387.97, 0.0000002594802, 10.001036, 9.999267 
1.1500614e+2, 2.8580764e+2, -17234.076, -149184.17, -48192.91, -0.05015307, 0.15748744, -1506.8384, 137586.9, 0.000005001763, 10.00113, 9.999412 
1.1500758e+2, 2.9580554e+2, -54924.04, -120739.29, -3185.41, -0.04600782, -0.02967257, -54770.227, -13660.547, 0.000026475647, 10.000198, 9.999389 
1.150093e+2, 3.058052e+2, 64294.953, 28707.547, 28055.303, -0.032883503, -0.02528641, 79723.47, 79723.47, 0.000100772006, 10.000448, 9.999945 
1.150108e+2, 3.1580558e+2, 137754.03, -28066.568, 90087.62, -0.056753103, -0.010053089, 177276.97, 177276.97, 0.00028477798, 10.001251, 9.99918 
1.2498464e+2, 1.2580852e+2, -1853320.3, -1813290.9, 42385.277, 0.114277214, -0.005330706, -1786432.3, -79353.914, 0.0014562852, 9.999084, 9.999744 
1.2498531e+2, 1.3581084e+2, -1655955.1, -1551343.9, 7042.268, -0.14715274, 0.12583838, -1550872.0, 58185.07, 0.0008261713, 9.999328, 10.00076 
1.2498865e+2, 1.4581086e+2, -1655159.8, -1578146.6, -31159.016, 0.00014800094, 0.08554212, -1567119.0, -56061.594, 0.00033346904, 9.998995, 10.000045 
1.2499086e+2, 1.5581086e+2, -1644166.9, -1554955.1, -15579.58, 0.11738509, 0.06799215, -1552312.6, -139255.5, 0.00007407354, 9.99854, 9.999751 
1.2499195e+2, 1.6581124e+2, -1453032.5, -1351818.3, 868.0443, 0.123482645, 0.10579209, -1351810.9, -36757.46, 0.000004716059, 9.99891, 10.000306 
1.2499245e+2, 1.7581129e+2, -1240403.0, -1202307.8, -45620.3, 0.063822486, 0.048254304, -1171918.4, 45134.316, 0.000000012759114, 9.999711, 10.000274 
1.2499407e+2, 1.858116e+2, -1110592.9, -1080438.5, -2402.4915, 0.049856935, 0.054591455, -1080248.4, 38798.7, 0.0, 9.999904, 10.000331 
1.2499644e+2, 1.9581214e+2, -1069839.9, -1034431.8, -19367.324, 0.058350112, 0.044649035, -1025896.06, -4858.597, 0.0, 9.999617, 10.0001135 
1.24998026e+2, 2.0581125e+2, -1043238.7, -1166520.5, -52227.586, 0.086678185, 0.043617103, -1024087.75, -101040.836, 0.0, 9.999976, 9.998361 
1.2499904e+2, 2.1580908e+2, -835367.4, -1012034.56, -46346.926, 0.13196646, -0.041105814, -823947.0, 1125.6505, 0.0, 10.000712, 9.998394 
1.2500018e+2, 2.2580779e+2, -673517.25, -786789.25, 20923.568, 0.0995097, -0.051143043, -669775.8, 57309.527, 0.0, 10.000735, 9.999252 
1.2500149e+2, 2.3580703e+2, -656828.94, -737205.7, -17621.125, 0.013100603, -0.08195984, -653135.56, -24045.986, 0.0, 10.000221, 9.999167 
1.2500305e+2, 2.458065e+2, -622064.8, -716978.94, -27000.012, 0.009018837, -0.0261501, -614921.75, -83825.48, 0.0, 9.999987, 9.998751 
1.2500492e+2, 2.5580588e+2, -526448.4, -625408.44, -4304.0273, 0.078113556, 0.005846469, -526261.5, -93154.4, 0.0, 9.999977, 9.998719 
1.250059e+2, 2.65806e+2, -376436.97, -428912.78, 8418.005, 0.06901942, 0.115609884, -375119.66, -40010.086, 0.0, 10.000047, 9.999349 
1.2500632e+2, 2.7580646e+2, -260470.5, -328516.75, -24895.586, 0.007915966, 0.19562522, -252334.84, -15227.052, 0.00000012209664, 10.000192, 9.999298 
1.2500708e+2, 2.858053e+2, -142702.84, -187134.19, -34151.62, -0.011496273, 0.14355135, -124177.02, 14939.433, 0.000003888246, 10.000183, 9.9996 
1.2500826e+2, 2.958031e+2, -62824.297, -101463.73, -54535.24, 0.022087604, -0.07701814, -24287.781, 16844.83, 0.00002250982, 10.000058, 9.999579 
1.2500995e+2, 3.0580342e+2, 72264.516, 18553.58, -7745.364, -0.0015717332, -0.013358141, 73359.125, 73359.125, 0.000088219014, 10.000513, 9.999878 
1.2501253e+2, 3.1580284e+2, 165727.17, 48328.395, -82802.66, 0.012692141, -0.086995825, 208526.05, 208526.05, 0.00025421134, 10.001156, 9.999766 
1.3498329e+2, 1.258063e+2, -1822440.8, -1741414.0, 2005.7432, -0.0019424336, 0.045936234, -1741364.4, -34266.375, 0.0014504807, 9.999051, 10.000254 
1.349852e+2, 1.3580628e+2, -1636903.6, -1521328.0, 23131.086, -0.12908943, -0.07092512, -1516870.5, 92225.31, 0.0008289551, 9.999375, 10.000938 
1.3498832e+2, 1.4580643e+2, -1588566.6, -1450228.4, -66690.29, 0.024343118, -0.15176566, -1423314.4, 87778.24, 0.0003411424, 9.999023, 10.000915 
1.3498963e+2, 1.5580782e+2, -1592842.1, -1445865.1, -15258.424, 0.105691455, -0.121348426, -1444297.8, -31219.895, 0.00008049032, 9.998519, 10.000515 
1.3499084e+2, 1.658082e+2, -1535286.4, -1490437.6, 16725.613, 0.093962975, -0.06923154, -1484887.0, -169811.11, 0.0000062176173, 9.998787, 9.999407 
1.3499221e+2, 1.7580736e+2, -1306437.3, -1325758.5, -2094.5222, 0.035012033, -0.124847285, -1306212.8, -89124.87, 0.000000017143847, 9.999671, 9.999437 
1.3499379e+2, 1.8580788e+2, -1111884.3, -1074742.0, -25388.363, -0.004478822, -0.06433065, -1061857.5, 57225.297, 0.0, 9.999852, 10.000401 
1.3499548e+2, 1.958093e+2, -1070435.1, -1021860.2, -12311.976, -0.037342295, 0.005345451, -1018917.8, 2147.9116, 0.0, 9.99955, 10.000234 
1.3499758e+2, 2.0580915e+2, -1028514.75, -1110751.5, -38803.16, 0.014746861, 0.048265155, -1013096.4, -90028.32, 0.0, 9.999865, 9.9988 
1.349999e+2, 2.1580753e+2, -828671.1, -967521.1, -6478.8154, 0.11565115, -0.02424816, -828369.44, -3282.3516, 0.0, 10.000578, 9.998766 
1.3500156e+2, 2.2580644e+2, -728523.25, -876840.56, -12112.459, 0.13191645, -0.0009038563, -727540.6, -441.3074, 0.0, 10.000623, 9.998691 
1.3500267e+2, 2.3580557e+2, -704533.94, -808724.44, -22798.098, 0.07611267, 0.0087263435, -699763.9, -70655.75, 0.0, 10.000095, 9.998737 
1.3500369e+2, 2.4580519e+2, -567619.5, -581038.1, -38987.766, 0.0441952, 0.047020078, -534767.94, -3656.7393, 0.0, 9.999889, 9.999728 
1.350047e+2, 2.55805e+2, -485664.0, -508980.97, 10972.155, 0.027162155, 0.022370744, -481312.84, -48200.92, 0.0, 9.999843, 9.99958 
1.350057e+2, 2.658044e+2, -428135.94, -518371.75, 1046.1797, 0.012000984, 0.056770798, -428123.8, -93004.79, 0.0, 9.999973, 9.998767 
1.3500673e+2, 2.7580333e+2, -317048.9, -415744.06, -7341.816, -0.0038231811, 0.036122542, -316505.75, -79372.336, 0.000000046518082, 10.000065, 9.998756 
1.350076e+2, 2.8580222e+2, -168949.1, -234941.13, -51146.535, -0.011215212, 0.027537145, -141078.81, -1934.8198, 0.0000029362805, 10.00015, 9.999289 
1.3500835e+2, 2.9580122e+2, -100275.82, -160697.03, -40103.418, -0.0144442925, -0.042832844, -80277.21, -39125.934, 0.000019015239, 9.999967, 9.999221 
1.3501048e+2, 3.0580246e+2, -23469.639, -160687.89, 8547.745, -0.026468014, 0.19470179, -22939.223, -22939.223, 0.000075927965, 10.000443, 9.998672 
1.3501501e+2, 3.1579837e+2, 151589.0, 51984.492, -8357.144, 0.07639458, -0.110488996, 152285.33, 152285.33, 0.0002226974, 10.001019, 9.999857 
1.4498354e+2, 1.2580395e+2, -1658729.1, -1631900.3, 73891.414, 0.08751778, 0.009318608, -1570215.5, 136903.48, 0.0014659849, 10.000064, 10.000516 
1.4498454e+2, 1.3580364e+2, -1793325.3, -1605870.5, 17586.652, -0.06971456, -0.12818024, -1604234.8, 4884.477, 0.0008466132, 9.998351, 10.000845 
1.4498754e+2, 1.4580397e+2, -1677704.0, -1474070.9, -34707.98, 0.08509422, -0.19432533, -1468317.8, 42796.82, 0.00035647568, 9.998327, 10.001091 
1.4498895e+2, 1.5580581e+2, -1418383.9, -1339765.9, -63701.78, 0.14060023, -0.13766712, -1304220.9, 108875.19, 0.00008921642, 9.999623, 10.000713 
1.4499035e+2, 1.658064e+2, -1343799.9, -1395277.6, 15961.363, 0.11198476, -0.07630703, -1339252.5, -24160.264, 0.000008328298, 10.000091, 9.999425 
1.4499205e+2, 1.7580569e+2, -1271430.4, -1312644.4, 34534.45, 0.047289163, -0.122280665, -1251822.0, -34719.363, 0.0000000715251, 9.999922, 9.999406 
1.4499362e+2, 1.858059e+2, -1136870.1, -1134368.8, 25348.11, -0.0006079317, -0.06630932, -1110240.5, 8861.017, 0.0, 9.999892, 9.999982 
1.4499496e+2, 1.9580664e+2, -1041493.44, -1052612.6, -27116.271, -0.052289706, -0.018361751, -1019372.7, 1720.572, 0.0, 9.99993, 9.999857 
1.4499736e+2, 2.0580655e+2, -999642.8, -1055167.9, -30934.26, 0.014174935, 0.029688854, -985839.9, -62745.11, 0.0, 9.999886, 9.999164 
1.4500052e+2, 2.1580566e+2, -929107.56, -978132.9, -35367.273, 0.17046238, -0.009863796, -910588.7, -85483.37, 0.0, 9.999731, 9.999095 
1.4500234e+2, 2.2580503e+2, -800936.6, -885434.6, 7836.0522, 0.18433021, 0.031781364, -800216.06, -73103.45, 0.0, 10.000029, 9.998919 
1.4500315e+2, 2.358044e+2, -607448.6, -741863.9, 23748.906, 0.095984615, 0.047340922, -603376.0, 25743.375, 0.0, 10.000678, 9.998924 
1.4500397e+2, 2.4580382e+2, -459875.03, -530134.25, 2815.8577, 0.05479413, 0.05797022, -459762.34, 71361.15, 0.0, 10.0006275, 9.99973 
1.4500482e+2, 2.558031e+2, -453939.9, -493560.38, -45483.645, 0.053384457, -0.017700838, -424139.6, 8987.826, 0.0, 10.000065, 9.999578 
1.4500616e+2, 2.6580223e+2, -400152.7, -533016.7, -18165.22, 0.054765496, 0.0018572786, -397713.9, -62577.35, 0.0, 10.000281, 9.998524 
1.4500788e+2, 2.758011e+2, -185677.28, -386241.47, -32053.744, 0.06326949, 0.0016812591, -180679.08, 56472.75, 0.00000002138944, 10.001096, 9.998479 
1.4500867e+2, 2.8579974e+2, -49006.816, -226371.17, -70168.695, 0.038736865, 0.00509615, -24604.186, 114561.8, 0.0000023054517, 10.001175, 9.9988575 
1.4500883e+2, 2.9579845e+2, -13717.274, -158758.0, -100291.76, 0.008218915, -0.05048318, 37526.813, 78704.52, 0.000016570593, 10.000738, 9.998854 
1.4501113e+2, 3.058e+2, -34295.605, -234836.0, 27197.777, -0.0048981835, 0.26427647, -30672.436, -30672.436, 0.0000664134, 10.000688, 9.998032 
1.4501739e+2, 3.1579462e+2, 122561.4, 62769.03, 7289.5313, 0.24230187, -0.101952314, 123437.266, 123437.266, 0.0001967113, 10.00073, 10.000062 
1.5498473e+2, 1.258019e+2, -1648833.5, -1641166.1, -24998.418, 0.12049371, -0.077696204, -1619709.1, 87427.83, 0.0014879738, 10.000173, 10.000413 
1.5498291e+2, 1.3580301e+2, -1822697.8, -1671446.8, -32262.355, -0.10262245, -0.029056251, -1664852.6, -55726.26, 0.0008684092, 9.998362, 10.0004 
1.5498571e+2, 1.4580353e+2, -1714768.1, -1536645.1, -3710.098, 0.03399435, -0.034129743, -1536567.9, -25445.092, 0.00037251608, 9.998273, 10.000683 
1.5498823e+2, 1.5580495e+2, -1444962.1, -1382394.4, -4673.351, 0.06877609, 0.019804258, -1382047.3, 31063.76, 0.00009664872, 9.999581, 10.000432 
1.5499009e+2, 1.65806e+2, -1288015.0, -1268446.3, -3952.9312, 0.04192557, 0.09278214, -1267677.9, 47422.953, 0.000009881803, 10.000036, 10.00033 
1.5499166e+2, 1.7580645e+2, -1226942.8, -1205487.6, 43813.813, -0.017073616, 0.07304502, -1171107.3, 45988.105, 0.00000020107916, 9.999856, 10.000177 
1.5499313e+2, 1.8580578e+2, -1216771.3, -1282498.6, 13644.324, -0.06739246, 0.059852436, -1214051.4, -94949.04, 0.0, 9.999814, 9.999003 
1.5499447e+2, 1.9580416e+2, -1116983.5, -1186887.0, -10031.351, -0.123962216, -0.032490723, -1115572.5, -94452.375, 0.0, 9.999844, 9.998973 
1.5499702e+2, 2.0580354e+2, -996700.2, -1024951.8, -48205.848, -0.038425338, -0.010380524, -960593.1, -37466.33, 0.0, 9.999775, 9.999431 
1.5500036e+2, 2.158035e+2, -925866.7, -938167.7, -25659.078, 0.15121777, 0.009248865, -905631.25, -80504.28, 0.0, 9.999589, 9.999438 
1.5500209e+2, 2.2580355e+2, -753426.75, -764252.06, 19500.824, 0.12918638, 0.054723367, -738601.4, -11476.246, 0.0, 9.999921, 9.999805 
1.5500264e+2, 2.3580347e+2, -572414.5, -644750.4, 59738.43, -0.053873498, 0.035029877, -538748.4, 90375.46, 0.0, 10.000562, 9.999651 
1.5500353e+2, 2.4580233e+2, -538917.75, -673785.2, -32099.906, -0.080360144, 0.005942203, -531667.44, -533.7562, 0.0, 10.000538, 9.998786 
1.5500483e+2, 2.5580013e+2, -534589.6, -632855.1, -47011.434, 0.015661705, -0.12239065, -515721.6, -82567.32, 0.0, 9.999935, 9.998689 
1.5500684e+2, 2.6579946e+2, -406931.1, -528293.9, 630.9811, 0.064404435, -0.04625932, -406927.8, -71765.62, 0.0, 10.000207, 9.998588 
1.5500934e+2, 2.757997e+2, -207662.19, -402368.9, 12313.256, 0.07111643, 0.08464777, -206886.58, 30277.002, 0.000000019825112, 10.000969, 9.998427 
1.5500993e+2, 2.8579786e+2, -94379.55, -312790.5, -98133.97, 0.013956028, 0.07219426, -56765.023, 82417.914, 0.0000019865888, 10.001136, 9.998284 
1.5500925e+2, 2.9579467e+2, -58490.336, -231583.84, -99146.09, -0.065823175, -0.11201235, -13430.5205, 27783.076, 0.000014949104, 10.00064, 9.998406 
1.5501148e+2, 3.0579603e+2, -51117.69, -246304.89, 20266.672, -0.06645427, 0.20049158, -49035.574, -49035.574, 0.000059797247, 10.000611, 9.997971 
1.5501866e+2, 3.1579158e+2, 116217.34, 91747.17, 50357.37, 0.23457083, -0.06836108, 155804.67, 155804.67, 0.00017773658, 10.00057, 10.000321 
1.6498516e+2, 1.2580052e+2, -1863036.3, -1720736.6, -12969.304, 0.23875472, -0.08705057, -1719564.3, -12412.657, 0.0014964563, 9.998598, 10.000616 
1.649821e+2, 1.3580221e+2, -1691436.0, -1616755.3, -38794.414, -0.054802924, 0.016090488, -1600250.4, 8884.506, 0.0008776996, 9.999281, 10.000337 
1.6498463e+2, 1.458022e+2, -1570691.6, -1508380.1, 79256.7, 0.04833324, -0.014461695, -1454375.4, 56761.137, 0.00037921302, 9.999462, 10.000295 
1.6498731e+2, 1.5580323e+2, -1483264.3, -1442770.4, 42979.832, 0.032995444, 0.038489994, -1415507.3, -2377.9216, 0.00009882513, 9.999499, 10.000059 
1.6498962e+2, 1.6580413e+2, -1369173.3, -1303437.5, 8338.917, 0.030280633, 0.11250408, -1302396.1, 12724.363, 0.000009884257, 9.9994545, 10.000365 
1.649918e+2, 1.7580466e+2, -1301096.3, -1237273.0, -37171.477, 0.047281023, 0.09353488, -1220194.1, -3080.79, 0.0000002904704, 9.999322, 10.000212 
1.6499354e+2, 1.8580392e+2, -1273550.6, -1329918.5, -17103.807, 0.014798542, 0.07983257, -1268766.8, -149645.6, 0.0, 9.999528, 9.998795 
1.6499497e+2, 1.958021e+2, -1108435.0, -1201732.8, -9965.884, -0.057497695, -0.014533538, -1107382.4, -86240.9, 0.0, 9.999991, 9.998781 
1.6499732e+2, 2.0580128e+2, -938704.2, -991837.25, -16729.396, 0.0032588104, -0.0050872085, -933875.6, -10726.19, 0.0, 10.000169, 9.999467 
1.6500029e+2, 2.1580109e+2, -842950.1, -895983.6, -39431.797, 0.1664218, -0.0028567803, -821948.44, 3201.0708, 0.0, 10.000152, 9.99946 
1.6500212e+2, 2.2580092e+2, -750208.1, -778879.0, -10642.244, 0.14188279, 0.028885398, -746689.6, -19540.145, 0.0, 10.000018, 9.999655 
1.65003e+2, 2.3580068e+2, -696254.94, -715713.9, -76199.945, -0.024236856, 0.009641875, -629165.8, -15.428513, 0.0, 9.999774, 9.999535 
1.65004e+2, 2.4579953e+2, -613377.44, -710780.7, -139193.31, -0.054803267, -0.0134506775, -514611.72, 16549.064, 0.0, 10.000041, 9.998768 
1.6500516e+2, 2.5579754e+2, -419963.47, -571529.8, -114226.34, 0.026338866, -0.122317195, -358667.28, 74512.2, 0.0, 10.00071, 9.998729 
1.6500732e+2, 2.6579696e+2, -307139.0, -465872.6, 4519.215, 0.071438186, -0.04687849, -307010.44, 28175.0, 0.0, 10.000803, 9.998737 
1.6501026e+2, 2.7579716e+2, -261783.55, -409010.22, -3596.4858, 0.09842247, 0.06083178, -261695.73, -24510.383, 0.000000024295247, 10.00051, 9.998591 
1.6501139e+2, 2.8579494e+2, -168812.11, -403562.4, -72714.68, 0.07214066, 0.03243811, -148113.55, -8905.312, 0.0000019697127, 10.000878, 9.997782 
1.650116e+2, 2.9579127e+2, 93440.08, -198626.52, -102110.24, 0.054100387, -0.1523461, 125598.32, 166843.7, 0.000013995548, 10.001859, 9.998052 
1.6501257e+2, 3.0579248e+2, 80906.195, -159749.11, 27948.469, -0.042443275, 0.14830789, 84109.35, 84109.35, 0.000055183133, 10.001373, 9.998221 
1.6501851e+2, 3.1578892e+2, -41093.855, -23453.07, 19466.867, 0.2261294, -0.0486186, -10901.56, -10901.56, 0.00016346599, 9.999611, 10.0000105 
1.7498384e+2, 1.2579985e+2, -1828681.6, -1646056.4, -18941.908, 0.17671315, -0.01794831, -1644112.4, 63049.855, 0.0014785845, 9.998582, 10.001133 
1.7498153e+2, 1.3580135e+2, -1672460.1, -1564023.4, -6267.8853, -0.07279147, 0.014108597, -1563662.3, 45481.37, 0.00086354057, 9.999241, 10.000705 
1.749839e+2, 1.4580011e+2, -1607176.4, -1580642.8, 65102.203, -0.0105456, -0.12752993, -1527469.4, -16314.308, 0.00037008742, 9.999432, 9.999821 
1.749858e+2, 1.5580066e+2, -1516587.9, -1507580.3, 59612.246, -0.10506957, -0.08132739, -1452301.9, -39150.45, 0.000094032526, 9.99948, 9.999624 
1.7498854e+2, 1.6580085e+2, -1427579.9, -1420699.1, -10839.097, -0.057509236, -0.014461784, -1412767.5, -97616.88, 0.000008393363, 9.999425, 9.999581 
1.7499204e+2, 1.758004e+2, -1354927.9, -1339537.1, -26607.982, 0.10508963, -0.052458454, -1319534.1, -102378.05, 0.00000020811186, 9.999282, 9.99953 
1.7499442e+2, 1.8580039e+2, -1240052.9, -1248858.5, -11441.95, 0.118493006, 0.0056879595, -1232195.9, -113038.75, 0.0, 9.999467, 9.999386 
1.7499597e+2, 1.9580056e+2, -1083265.8, -1127849.0, 19641.188, 0.010447192, 0.051244084, -1075847.3, -54690.75, 0.0, 9.999898, 9.999335 
1.7499782e+2, 2.0579986e+2, -970857.8, -1035278.9, -33471.86, 0.008042065, 0.060351644, -956615.3, -33453.51, 0.0, 10.000061, 9.999222 
1.7499991e+2, 2.1579832e+2, -886175.6, -956164.5, -26850.762, 0.08463216, -0.047606084, -877061.4, -51887.72, 0.0, 10.000024, 9.999108 
1.7500193e+2, 2.2579712e+2, -846951.0, -953924.06, -32896.09, 0.09609493, -0.042175043, -837644.56, -110458.695, 0.0, 9.999903, 9.998508 
1.7500383e+2, 2.3579597e+2, -784211.5, -870040.9, -68738.84, 0.051341005, -0.039806157, -746091.0, -116890.914, 0.0, 9.999646, 9.998538 
1.7500491e+2, 2.4579543e+2, -567038.5, -594823.75, -125987.26, 0.0047251764, -0.0011147617, -454180.2, 77024.664, 0.0, 9.999957, 9.9996 
1.7500545e+2, 2.557952e+2, -386338.13, -469774.25, -78339.75, -0.045637406, -0.015881391, -339300.84, 93902.914, 0.0, 10.000573, 9.999492 
1.750074e+2, 2.6579466e+2, -284425.2, -414161.47, -21326.83, -0.032109376, 0.005193734, -281009.28, 54197.527, 0.0, 10.000775, 9.999106 
1.7501023e+2, 2.757935e+2, -252187.06, -369654.8, 1504.6211, 0.011525601, -0.058455423, -252167.8, -14951.05, 0.000000035492793, 10.000419, 9.99891 
1.7501265e+2, 2.8579113e+2, -201675.0, -466475.53, -49745.203, 0.07615342, -0.094145305, -192638.3, -53397.43, 0.0000021240596, 10.000859, 9.997353 
1.7501517e+2, 2.9578823e+2, 53699.914, -252893.56, -55124.844, 0.18931551, -0.16494073, 63310.016, 104582.875, 0.000013429294, 10.001752, 9.997721 
1.7501406e+2, 3.0578935e+2, 126243.375, -64315.234, -44873.184, -0.05864058, 0.10474883, 136281.44, 136281.44, 0.000050919698, 10.001366, 9.998884 
1.7501605e+2, 3.1578705e+2, -114127.05, -139781.88, -19688.543, -0.048736393, -0.015834795, -103455.92, -103455.92, 0.00014908816, 9.999487, 9.99926 
1.849831e+2, 1.2579924e+2, -1732500.9, -1640207.4, 78250.76, 0.21494365, -0.0037663996, -1595509.8, 111658.945, 0.0014297328, 9.999413, 10.00077 
1.8498126e+2, 1.3580091e+2, -1658093.3, -1576769.4, -24885.037, -0.021631021, 0.06528867, -1569758.9, 39390.91, 0.00082590414, 9.999426, 10.000523 
1.8498385e+2, 1.4579909e+2, -1629371.6, -1613373.4, 71278.836, 0.055986464, -0.11910996, -1549646.3, -38479.58, 0.00034715154, 9.999368, 9.999622 
1.849856e+2, 1.5579918e+2, -1531851.5, -1534642.0, 55885.82, -0.06255748, -0.101209596, -1477343.5, -64177.92, 0.0000844504, 9.999451, 9.999453 
1.8498816e+2, 1.6579905e+2, -1410363.9, -1439983.3, 45025.996, -0.04433846, -0.045866504, -1377774.6, -62607.01, 0.000006352812, 9.999697, 9.999302 
1.8499158e+2, 1.7579825e+2, -1247654.3, -1316293.8, 41180.605, 0.09446446, -0.090446815, -1228367.3, -11190.347, 0.000000056960435, 10.000155, 9.999262 
1.8499437e+2, 1.857982e+2, -1125679.0, -1176467.4, 75587.23, 0.13659969, -0.031073622, -1071334.3, 47843.453, 0.0, 10.000191, 9.999533 
1.8499655e+2, 1.9579868e+2, -1081900.0, -1112627.9, 45661.02, 0.08887873, 0.031054266, -1049087.5, -27914.807, 0.0, 9.999851, 9.999463 
1.8499832e+2, 2.0579796e+2, -992698.0, -1071989.9, 11540.659, 0.06274013, 0.04247655, -991052.44, -67874.34, 0.0, 10.000009, 9.998997 
1.849998e+2, 2.1579616e+2, -831251.06, -955410.4, -5743.6064, 0.05295982, -0.070776395, -830985.94, -5792.601, 0.0, 10.000495, 9.998889 
1.8500195e+2, 2.2579466e+2, -750744.9, -936965.0, 39944.824, 0.07407618, -0.069734246, -742538.25, -15329.368, 0.0, 10.000694, 9.998246 
1.8500459e+2, 2.3579325e+2, -651533.5, -831039.7, 44630.03, 0.11973443, -0.06790027, -641049.56, -11823.238, 0.0, 10.000665, 9.998316 
1.8500575e+2, 2.4579273e+2, -484297.13, -530331.94, 25030.887, 0.07662161, -0.027597198, -473309.44, 57921.07, 0.0, 10.000411, 9.999827 
1.8500589e+2, 2.5579274e+2, -457586.56, -478112.0, 2785.2612, -0.019608557, -0.043992784, -457215.3, -23989.17, 0.0, 9.999963, 9.999729 
1.8500772e+2, 2.657922e+2, -401482.56, -456429.34, 51144.363, -0.028774591, -0.036816813, -370899.66, -35671.246, 0.0, 9.999936, 9.999216 
1.8501067e+2, 2.7579096e+2, -255861.03, -355024.94, 27740.145, 0.026009984, -0.11481169, -248628.5, -11389.872, 0.000000044067633, 10.000338, 9.999052 
1.850137e+2, 2.8578883e+2, -200318.95, -436688.78, 43543.62, 0.10965061, -0.15111224, -192552.61, -53292.72, 0.000002141611, 10.000711, 9.9976425 
1.8501715e+2, 2.9578635e+2, -35782.313, -267038.2, 53514.023, 0.26006347, -0.20738101, -23999.219, 17287.643, 0.000012353572, 10.000983, 9.998008 
1.8501535e+2, 3.0578744e+2, 100234.27, -43329.227, 50974.71, -0.039831705, 0.03216016, 116492.516, 116492.516, 0.00004451732, 10.001041, 9.999182 
1.8501629e+2, 3.1578544e+2, 47892.453, -153656.84, -26116.824, -0.031706978, -0.08144909, 51221.688, 51221.688, 0.00012893318, 10.000942, 9.998492 
1.9498214e+2, 1.2579879e+2, -1835272.1, -1830322.4, 45912.387, 0.10470931, -0.03043254, -1786818.1, -79648.25, 0.0013506947, 9.9993305, 9.9995 
1.949809e+2, 1.3580094e+2, -1721407.5, -1691322.9, -17886.531, -0.031457104, 0.17555752, -1682994.3, -73841.23, 0.00077082973, 9.999379, 9.999752 
1.9498406e+2, 1.4579915e+2, -1623615.9, -1592892.0, 56368.855, 0.09989703, 0.019348321, -1549829.4, -38658.26, 0.0003170448, 9.999322, 9.999789 
1.9498627e+2, 1.5579899e+2, -1524810.4, -1512851.5, 71952.96, 0.025962826, -0.00475704, -1446629.9, -33459.934, 0.000073711046, 9.999421, 9.999618 
1.9498809e+2, 1.657989e+2, -1401386.0, -1415358.3, 50999.37, -0.054358117, 0.036541227, -1356896.5, -41726.926, 0.0000047225935, 9.999655, 9.9995 
1.9499002e+2, 1.7579827e+2, -1241239.6, -1294600.6, 72020.22, -0.110178426, -0.012228822, -1191116.8, 26058.703, 0.0000000036456946, 10.0001135, 9.999436 
1.9499293e+2, 1.857974e+2, -1157818.0, -1227468.0, 49217.777, -0.05660801, -0.025657201, -1132350.6, -13167.774, 0.0, 10.000115, 9.999225 
1.9499636e+2, 1.9579636e+2, -1116612.1, -1165221.5, 48534.96, 0.05459527, -0.08319808, -1086636.4, -65445.3, 0.0, 9.999763, 9.99915 
1.9499841e+2, 2.0579553e+2, -1024601.8, -1104187.9, 19811.049, 0.044718347, -0.058229953, -1019943.06, -96744.516, 0.0, 9.999867, 9.99884 
1.949995e+2, 2.157946e+2, -856542.75, -976896.7, 24374.443, -0.05435834, -0.07060374, -851793.75, -26585.482, 0.0, 10.0003605, 9.998806 
1.9500175e+2, 2.2579361e+2, -732484.7, -864678.8, 24848.771, -0.03987527, -0.045060202, -727968.1, -749.9437, 0.0, 10.000554, 9.998806 
1.9500487e+2, 2.357925e+2, -638719.75, -766957.6, 55059.39, 0.053075504, -0.06809149, -618323.75, 10905.48, 0.0, 10.000511, 9.998826 
1.9500616e+2, 2.4579142e+2, -524151.88, -585460.56, -5217.045, 0.049551614, -0.08963273, -523711.1, 7526.555, 0.0, 10.000297, 9.999503 
1.9500603e+2, 2.557902e+2, -501079.03, -532307.5, 592.28516, -0.032813367, -0.19789438, -501067.78, -67821.97, 0.0, 9.999814, 9.999426 
1.9500788e+2, 2.6578978e+2, -419875.97, -488382.16, 52832.883, -0.03704607, -0.15823723, -391164.1, -55915.367, 0.0, 9.999899, 9.9990225 
1.9501115e+2, 2.7578953e+2, -276090.56, -383274.8, 59914.375, 0.009782671, -0.112727806, -249297.05, -12045.645, 0.000000036761158, 10.000267, 9.998901 
1.9501421e+2, 2.857879e+2, -139253.81, -299335.44, 42879.37, 0.057812348, -0.14327246, -128491.695, 10774.995, 0.0000018181237, 10.000667, 9.998608 
1.9501723e+2, 2.957857e+2, 8811.913, -143983.42, 79345.32, 0.13165477, -0.2659715, 42560.895, 83847.6, 0.000010151812, 10.00086, 9.99891 
1.9501601e+2, 3.057869e+2, 92078.914, -49467.87, 38736.64, -0.111876205, -0.057389293, 101986.375, 101986.375, 0.00003534469, 10.001006, 9.999147 
1.9501843e+2, 3.1578445e+2, -4962.115, -227994.08, -33745.707, 0.023814593, -0.2159266, 31.932552, 31.932552, 0.000103030594, 10.000818, 9.998022 
2.0498191e+2, 1.2579744e+2, -1903004.3, -1927165.6, 16816.004, 0.17192876, -0.03327681, -1894379.4, -187196.88, 0.0012481128, 9.99915, 9.998927 
2.0498091e+2, 1.3579917e+2, -1690559.8, -1698132.3, -65898.18, 0.02957338, 0.15368576, -1628339.1, -19167.291, 0.0007037624, 9.999661, 9.999591 
2.0498423e+2, 1.4579774e+2, -1567911.5, -1533616.4, 61282.652, 0.18107416, 0.029739847, -1487127.5, 24058.889, 0.00028324383, 9.999576, 10.000072 
2.0498629e+2, 1.5579803e+2, -1513567.5, -1480931.8, 48278.336, 0.09671288, 0.023896175, -1446288.1, -33108.31, 0.000063005726, 9.999385, 9.999853 
2.0498812e+2, 1.6579802e+2, -1435400.8, -1438239.3, 59951.81, 0.002426286, 0.06422381, -1376851.4, -61672.938, 0.0000035155435, 9.9994545, 9.999441 
2.049902e+2, 1.757972e+2, -1317372.4, -1339256.3, 29964.94, -0.07255289, 0.0076095634, -1296414.1, -79227.45, 0.0000000004928599, 9.999625, 9.999369 
2.0499292e+2, 1.857961e+2, -1201819.1, -1237761.1, 28018.133, -0.044353873, -0.030275805, -1186503.9, -67308.58, 0.0, 9.999765, 9.999319 
2.0499597e+2, 1.9579482e+2, -1093156.8, -1146502.6, 31374.97, 0.042698752, -0.12197181, -1078649.1, -57444.94, 0.0, 9.999884, 9.999218 
2.049983e+2, 2.0579408e+2, -998318.25, -1098375.3, 64400.574, 0.043393794, -0.089134894, -966797.5, -43586.53, 0.0, 10.000079, 9.99878 
2.050002e+2, 2.157935e+2, -873728.75, -988145.8, 50529.637, -0.007257327, -0.056473367, -854608.6, -29390.201, 0.0, 10.000264, 9.9987755 
2.0500247e+2, 2.2579277e+2, -754916.94, -840006.9, 53677.887, 0.00022146085, -0.022399269, -728968.2, -1742.3792, 0.0, 10.000234, 9.999132 
2.0500505e+2, 2.3579176e+2, -691952.75, -765656.5, 40410.7, 0.053531833, -0.068296954, -674113.8, -44879.1, 0.0, 10.0000105, 9.9990835 
2.050065e+2, 2.4579066e+2, -537613.2, -612659.8, 10518.054, 0.06281983, -0.09417374, -536166.94, -4923.5728, 0.0, 10.000294, 9.999313 
2.050071e+2, 2.5578934e+2, -342029.56, -478577.4, -484.88135, 0.041994292, -0.19281179, -342027.84, 91225.62, 0.0, 10.001008, 9.999218 
2.0500909e+2, 2.657888e+2, -239441.81, -430364.84, 78900.766, 0.03476178, -0.14063744, -211055.72, 124203.05, 0.0, 10.0012665, 9.998755 
2.0501205e+2, 2.7578846e+2, -158572.77, -347739.28, 48738.848, 0.03650127, -0.08161523, -146753.63, 90510.52, 0.00000002096579, 10.001174, 9.998697 
2.0501475e+2, 2.8578705e+2, -107656.29, -223419.69, 28509.447, 0.056568943, -0.10609726, -101016.055, 38260.79, 0.0000012828043, 10.0006485, 9.999129 
2.0501733e+2, 2.957854e+2, -99487.15, -140261.45, 8172.2583, 0.11606374, -0.22689329, -97910.2, -56620.457, 0.000007381431, 9.999891, 9.999394 
2.0501685e+2, 3.057864e+2, -1746.782, -110222.55, 8188.985, -0.08654132, -0.05390317, -1132.0677, -1132.0677, 0.00002618385, 10.000424, 9.999023 
2.0502032e+2, 3.1578365e+2, 141274.45, -136289.63, -168747.66, 0.09754939, -0.22975338, 220978.63, 220978.63, 0.000078949044, 10.001761, 9.998193 
2.1498135e+2, 1.2579507e+2, -1902686.0, -1912632.8, 10242.238, 0.13192125, -0.014459795, -1896273.5, -189066.47, 0.0011286415, 9.999085, 9.999061 
2.149809e+2, 1.3579564e+2, -1647135.6, -1616390.4, -37491.72, 0.028473679, 0.00030582727, -1591242.1, 17963.453, 0.00062779407, 9.999692, 10.000137 
2.1498393e+2, 1.4579508e+2, -1553227.8, -1496935.1, 36976.094, 0.15170637, -0.07703847, -1478611.5, 32599.104, 0.00024660726, 9.999544, 10.000338 
2.1498525e+2, 1.5579645e+2, -1494284.9, -1445883.9, 57263.324, 0.0164272, -0.004797273, -1407917.3, 5276.5605, 0.000052325075, 9.999399, 10.000087 
2.1498783e+2, 1.6579644e+2, -1471348.9, -1499225.0, 53088.223, -0.002503341, 0.048005335, -1430399.5, -115205.65, 0.000002586899, 9.999395, 9.99905 
2.1499167e+2, 1.75795e+2, -1348296.1, -1386891.3, 50760.17, 0.08333453, -0.03685649, -1313289.0, -96078.3, 0.000000000052014764, 9.999559, 9.999067 
2.1499394e+2, 1.857943e+2, -1184089.8, -1180919.6, 21033.22, 0.0521542, -0.046684932, -1161411.9, -42196.24, 0.0, 9.999672, 9.999757 
2.1499503e+2, 1.95794e+2, -1068909.1, -1085192.6, 51166.01, -0.073821336, -0.08741277, -1025241.1, -4028.4536, 0.0, 9.999829, 9.999665 
2.1499763e+2, 2.0579357e+2, -1010553.1, -1098855.5, 58058.082, -0.058736246, -0.047146883, -981765.5, -58550.0, 0.0, 9.999972, 9.998826 
2.1500148e+2, 2.1579283e+2, -888858.2, -989075.5, 67439.34, 0.06489909, -0.03645745, -854949.3, -29724.645, 0.0, 10.000132, 9.998831 
2.1500373e+2, 2.2579205e+2, -771783.8, -836994.0, 32832.508, 0.07601074, -0.015045285, -758117.25, -30884.3, 0.0, 10.000077, 9.999224 
2.1500473e+2, 2.3579107e+2, -710811.5, -763544.1, 49917.273, -0.006591348, -0.068085775, -680725.0, -51482.89, 0.0, 9.99984, 9.999174 
2.1500646e+2, 2.4579054e+2, -556125.06, -634475.06, 24793.4, 0.00004837147, -0.036200162, -548938.56, -17692.06, 0.0, 10.000218, 9.999204 
2.1500878e+2, 2.5579017e+2, -368533.06, -504517.25, 38389.438, 0.0755647, -0.024848465, -358443.94, 74804.61, 0.0, 10.000882, 9.999103 
2.1501097e+2, 2.657893e+2, -276973.97, -489339.47, 62299.8, 0.06557592, 0.02065843, -260046.86, 75211.26, 0.0, 10.001188, 9.998383 
2.1501292e+2, 2.7578765e+2, -202668.84, -408474.06, 58207.04, -0.02612556, -0.01649419, -187347.06, 49930.254, 0.00000000626477, 10.001042, 9.998342 
2.1501493e+2, 2.857862e+2, -98451.23, -198067.67, -14514.366, -0.022965921, -0.038473934, -96379.53, 42911.523, 0.00000075455597, 10.000621, 9.999316 
2.1501721e+2, 2.9578543e+2, -106148.32, -139469.88, -200.78105, 0.07801711, -0.088903785, -106147.11, -64850.992, 0.0000049684672, 9.999826, 9.9994335 
2.1501765e+2, 3.0578592e+2, -23362.836, -158669.69, 48834.23, -0.077934965, 0.052877735, -7579.052, -7579.052, 0.000019575336, 10.000435, 9.99869 
2.1502136e+2, 3.1578305e+2, 166549.5, -63465.74, -118942.695, -0.04110655, -0.11024758, 216993.14, 216993.14, 0.00006230811, 10.001673, 9.998741 
2.2498079e+2, 1.2579302e+2, -1856907.0, -1843217.6, 71154.89, 0.17750193, 0.04170795, -1778579.0, -71348.53, 0.0009987325, 9.999178, 9.999494 
2.2498079e+2, 1.3579325e+2, -1696034.1, -1579191.1, -58095.555, 0.08975522, -0.03621359, -1555222.3, 54007.28, 0.0005469882, 9.99911, 10.000661 
2.2498357e+2, 1.457935e+2, -1614660.0, -1530910.0, 34952.48, 0.18970068, -0.057384748, -1518239.6, -7013.1636, 0.00020906689, 9.999146, 10.000306 
2.2498466e+2, 1.5579481e+2, -1488253.0, -1445993.1, 4635.7163, 0.023922961, 0.01690767, -1445490.6, -32279.191, 0.000042237294, 9.999465, 10.00006 
2.2498746e+2, 1.6579494e+2, -1441939.6, -1464342.9, 38416.777, 0.02246508, 0.072977915, -1413124.8, -97914.02, 0.0000020119714, 9.999509, 9.999225 
2.249917e+2, 1.7579377e+2, -1375924.5, -1383570.8, 46909.06, 0.15082063, -0.0019126084, -1332683.0, -115458.33, 0.0, 9.999297, 9.999209 
2.2499429e+2, 1.8579327e+2, -1181913.1, -1151023.1, 64254.05, 0.13339247, -0.0121502, -1100383.9, 18843.22, 0.0, 9.999561, 10.000015 
2.2499569e+2, 1.9579317e+2, -1018065.44, -1031835.5, 48898.746, 0.0029209687, -0.057567604, -975569.44, 45652.234, 0.0, 10.000069, 9.999918 
2.2499827e+2, 2.0579271e+2, -970479.8, -1052135.1, 67688.55, 0.0044350517, -0.04389167, -932259.1, -9035.576, 0.0, 10.000121, 9.999087 
2.2500178e+2, 2.1579173e+2, -926694.9, -982238.2, 71988.055, 0.10842306, -0.08068182, -877307.3, -52073.89, 0.0, 9.999757, 9.999067 
2.2500394e+2, 2.2579096e+2, -796955.56, -853232.5, 70697.32, 0.10474929, -0.067261375, -749002.75, -21761.445, 0.0, 9.999913, 9.999194 
2.2500506e+2, 2.3579018e+2, -632335.6, -728649.75, 51379.93, 0.022700531, -0.09987756, -610072.5, 19176.93, 0.0, 10.000394, 9.999146 
2.2500725e+2, 2.457898e+2, -490335.84, -624217.3, 57483.43, 0.036201693, -0.042201653, -469041.63, 62211.81, 0.0, 10.000761, 9.999014 
2.2501019e+2, 2.557895e+2, -349425.03, -519165.3, 33790.38, 0.12804466, -0.005473317, -342945.66, 90310.62, 0.0, 10.001099, 9.998907 
2.2501236e+2, 2.6578853e+2, -324601.4, -505362.1, 70486.04, 0.10976988, 0.033836316, -300365.47, 34901.965, 0.0, 10.000832, 9.9984455 
2.2501387e+2, 2.757867e+2, -317527.63, -456100.5, 73635.9, 0.013697127, -0.025067225, -285705.94, -48418.254, 0.00000000006385136, 10.000216, 9.998415 
2.2501588e+2, 2.8578544e+2, -135908.47, -224505.0, 45210.297, 0.030255, -0.032509618, -116911.336, 22389.115, 0.00000032397858, 10.000389, 9.9992485 
2.2501834e+2, 2.9578498e+2, 69413.89, -72583.91, 12703.299, 0.15291063, -0.04446158, 70541.39, 111844.92, 0.000003287384, 10.00111, 9.9992695 
2.2501948e+2, 3.0578518e+2, 107378.25, -132440.28, 115906.92, 0.022492634, 0.0996382, 154240.23, 154240.23, 0.00001601569, 10.001498, 9.998353 
2.2502275e+2, 3.1578204e+2, 175867.6, -24620.428, -120644.74, -0.049445324, -0.07339226, 232480.25, 232480.25, 0.000054019332, 10.001582, 9.99905 
2.3497957e+2, 1.2579125e+2, -1813857.0, -1749642.8, 40511.242, 0.06489982, 0.11883732, -1730058.1, -22804.893, 0.0008678289, 9.999167, 10.000143 
2.3498014e+2, 1.3579196e+2, -1662263.1, -1521023.3, -59059.57, 0.08037728, 0.05123357, -1499582.3, 109662.75, 0.00046623294, 9.999145, 10.001054 
2.3498262e+2, 1.4579281e+2, -1645450.5, -1568407.1, 30344.314, 0.14886636, 0.08375276, -1557891.1, -46655.234, 0.00017258529, 9.9990425, 10.000097 
2.3498416e+2, 1.5579303e+2, -1504894.3, -1474530.5, 32252.098, -0.00621391, 0.07594342, -1454065.8, -40832.113, 0.000033446406, 9.999441, 9.999879 
2.349866e+2, 1.657933e+2, -1410468.5, -1378414.1, 15847.819, -0.046717875, 0.122949, -1371901.9, -56671.332, 0.0000017722703, 9.999426, 9.999856 
2.3498993e+2, 1.757933e+2, -1337899.1, -1292471.4, 54447.707, 0.011724574, 0.09976782, -1256189.8, -38959.46, 0.0000000001389195, 9.999244, 9.999864 
2.349936e+2, 1.8579297e+2, -1198210.4, -1157884.5, 70596.36, 0.08001463, 0.07474721, -1104628.1, 14602.011, 0.0, 9.999451, 10.000024 
2.3499747e+2, 1.9579223e+2, -1026230.06, -1032876.75, 77469.336, 0.145195, -0.03247512, -952012.8, 69219.09, 0.0, 9.999997, 9.9999485 
2.3499964e+2, 2.0579138e+2, -956394.8, -986064.2, 41146.406, 0.10892687, -0.087014325, -927490.56, -4254.3813, 0.0, 9.999969, 9.999612 
2.350007e+2, 2.1579021e+2, -916846.94, -923782.25, 75882.234, -0.0035100782, -0.1975197, -844353.2, -19108.299, 0.0, 9.999593, 9.999547 
2.3500279e+2, 2.2578956e+2, -834688.9, -892393.2, 78874.1, -0.026162896, -0.18446647, -779555.5, -52304.805, 0.0, 9.999752, 9.999003 
2.3500566e+2, 2.357891e+2, -666097.56, -767842.7, 84151.56, 0.01204827, -0.16018951, -618636.5, 10619.741, 0.0, 10.000261, 9.998944 
2.3500833e+2, 2.4578834e+2, -522063.66, -671406.25, 56975.25, 0.03821504, -0.11529405, -502809.53, 28455.377, 0.0, 10.000677, 9.998732 
2.350109e+2, 2.5578716e+2, -384246.47, -559656.4, 57281.66, 0.057262566, -0.13847254, -367197.66, 66079.86, 0.0, 10.00096, 9.998695 
2.3501286e+2, 2.657864e+2, -300658.3, -436179.25, 33720.95, 0.04991725, -0.09574603, -292731.38, 42554.844, 0.0, 10.000753, 9.998959 
2.3501451e+2, 2.7578557e+2, -302437.34, -399275.0, 70835.73, 0.025718054, -0.10750398, -265053.6, -27758.113, 0.0, 10.000103, 9.998863 
2.3501709e+2, 2.857847e+2, -162408.13, -269202.84, 61256.23, 0.079454534, -0.08044631, -134542.92, 4761.696, 0.00000009734078, 10.000346, 9.998961 
2.3502022e+2, 2.95784e+2, 28749.313, -137887.06, 52223.617, 0.18899645, -0.08352088, 43763.348, 85075.22, 0.0000024854203, 10.001019, 9.998873 
2.3502189e+2, 3.0578414e+2, 93461.32, -159020.48, 110226.4, 0.08364556, 0.08995931, 134811.06, 134811.06, 0.000014818684, 10.001489, 9.998176 
2.350237e+2, 3.157807e+2, 177294.86, -8388.95, -87042.24, -0.17743237, -0.10530002, 211716.34, 211716.34, 0.00005156838, 10.001518, 9.999199 
2.4497901e+2, 1.257892e+2, -1854481.6, -1720712.3, 135283.11, 0.12893312, 0.105476946, -1636682.8, 70591.07, 0.00074233726, 9.998708, 10.000561 
2.4497883e+2, 1.3579036e+2, -1717102.6, -1544785.9, -53821.37, 0.0676938, 0.08132585, -1529356.9, 79903.51, 0.00038816038, 9.998774, 10.001071 
2.4498108e+2, 1.4579147e+2, -1645377.3, -1558492.3, 84791.19, 0.10325236, 0.13419515, -1506662.5, 4585.6416, 0.00013769997, 9.998987, 10.000189 
2.449842e+2, 1.5579098e+2, -1494218.9, -1458126.0, 78532.31, 0.061320018, 0.044976544, -1395593.4, 17658.98, 0.000025817635, 9.999474, 9.999967 
2.449867e+2, 1.6579118e+2, -1366460.6, -1323144.0, 65676.97, 0.019222274, 0.064938985, -1275646.4, 39602.8, 0.0000016011192, 9.999571, 10.000178 
2.4498902e+2, 1.7579167e+2, -1314267.9, -1248053.1, 54618.39, 0.0057695643, 0.05854285, -1217291.4, -48.55416, 0.0000000006420841, 9.999264, 10.000166 
2.4499288e+2, 1.857915e+2, -1241626.3, -1192410.0, 99886.18, 0.08250733, 0.044131353, -1114145.4, 5096.089, 0.0, 9.999226, 9.999886 
2.4499777e+2, 1.9579068e+2, -1134615.5, -1098534.0, 70336.664, 0.21752274, -0.058712155, -1043961.3, -22715.865, 0.0, 9.99933, 9.999806 
2.4500002e+2, 2.0579004e+2, -982962.44, -996276.25, 24266.744, 0.16546248, -0.088537216, -964456.06, -41206.742, 0.0, 9.999778, 9.999629 
2.4500051e+2, 2.157893e+2, -805338.9, -865447.4, -7529.4204, -0.008868719, -0.15575412, -804410.06, 20845.0, 0.0, 10.000346, 9.99958 
2.4500285e+2, 2.257888e+2, -716288.0, -814535.1, 21842.627, -0.023396777, -0.13996167, -711650.75, 15608.609, 0.0, 10.000475, 9.999188 
2.4500653e+2, 2.357883e+2, -650019.7, -737835.3, 33918.31, 0.08083606, -0.1414291, -638444.6, -9180.394, 0.0, 10.000283, 9.999136 
2.450094e+2, 2.4578743e+2, -552013.1, -676039.56, 70705.836, 0.098842576, -0.119932115, -519978.72, 11294.485, 0.0, 10.000427, 9.998829 
2.4501173e+2, 2.5578615e+2, -398405.4, -551221.8, 71688.625, 0.060974386, -0.16331035, -370040.2, 63246.387, 0.0, 10.000811, 9.998825 
2.450137e+2, 2.6578543e+2, -238457.5, -405956.1, 46349.39, 0.044373896, -0.12289763, -226487.36, 108806.79, 0.0, 10.0011635, 9.998976 
2.4501555e+2, 2.7578488e+2, -100828.9, -300089.34, 22460.066, 0.059685234, -0.10950682, -98328.63, 138971.0, 0.0, 10.001485, 9.998877 
2.450183e+2, 2.8578374e+2, 10172.801, -241517.83, 44104.67, 0.10500139, -0.082447134, 17677.646, 156989.63, 0.00000009803459, 10.001767, 9.998476 
2.4502149e+2, 2.9578215e+2, 146352.9, -129236.29, -10035.892, 0.17268427, -0.12891103, 146717.89, 188047.63, 0.0000023443192, 10.002039, 9.998441 
2.4502414e+2, 3.057827e+2, 141969.73, -136887.9, 60702.168, 0.15417622, 0.10819274, 154610.47, 154610.47, 0.000014153015, 10.001832, 9.998159 
2.4502578e+2, 3.1577888e+2, 140603.1, 19154.346, -173945.88, -0.08625123, -0.12848581, 264119.38, 264119.38, 0.00004937861, 10.001099, 9.999576 
2.5497815e+2, 1.2578703e+2, -1846488.8, -1696881.4, 100760.33, 0.10720002, 0.0173268, -1646193.1, 61097.133, 0.00062344765, 9.998677, 10.000742 
2.549766e+2, 1.3578832e+2, -1733588.1, -1574548.6, -40595.53, -0.06415594, 0.03419701, -1564785.8, 44491.11, 0.0003143659, 9.998763, 10.00087 
2.5497872e+2, 1.4578936e+2, -1632089.8, -1518465.5, 85086.94, -0.07151473, 0.07398392, -1472967.3, 38297.15, 0.00010539114, 9.998935, 10.000485 
2.5498417e+2, 1.5578859e+2, -1478270.3, -1415362.5, 107438.75, 0.076975346, -0.07799072, -1334868.0, 78400.6, 0.000019009012, 9.999434, 10.000275 
2.5498724e+2, 1.6578856e+2, -1373873.4, -1318131.6, 40210.543, 0.08792588, -0.099883325, -1297077.3, 18189.389, 0.0000013062046, 9.999486, 10.000252 
2.5498858e+2, 1.7578894e+2, -1318422.6, -1246202.3, 59692.273, 0.0031317377, -0.12000605, -1212547.8, 4713.761, 0.000000000635992, 9.999223, 10.0001955 
2.5499174e+2, 1.8578896e+2, -1274473.9, -1241619.5, 92066.29, 0.013231301, -0.10157897, -1164526.4, -45266.48, 0.0, 9.99914, 9.99959 
2.5499615e+2, 1.9578844e+2, -1166786.0, -1146149.1, 89804.69, 0.08869712, -0.14853245, -1066072.0, -44808.906, 0.0, 9.999242, 9.999522 
2.54999e+2, 2.0578854e+2, -1048177.75, -1091702.5, 34435.65, 0.062560186, -0.0596635, -1029204.25, -105940.16, 0.0, 9.99961, 9.999053 
2.5500086e+2, 2.1578892e+2, -858291.7, -943219.75, 24284.512, -0.0380663, 0.037730686, -851838.1, -26572.947, 0.0, 10.000212, 9.999108 
2.5500372e+2, 2.2578862e+2, -690317.9, -733914.06, 519.7807, -0.012669034, 0.06594723, -690311.7, 36956.33, 0.0, 10.000357, 9.999801 
2.5500727e+2, 2.3578764e+2, -627375.06, -659681.5, 42251.543, 0.0984525, -0.047064908, -598294.2, 30980.19, 0.0, 10.000145, 9.999741 
2.5501013e+2, 2.4578695e+2, -533200.6, -613332.75, 71158.164, 0.09931408, -0.06236927, -491604.13, 39675.2, 0.0, 10.00033, 9.999304 
2.5501233e+2, 2.5578627e+2, -391290.8, -505449.0, 96956.32, 0.011736594, -0.0930341, -335859.7, 97425.61, 0.0, 10.000675, 9.999207 
2.5501445e+2, 2.6578552e+2, -281724.2, -472372.78, 44627.07, -0.028193945, -0.048689045, -271795.0, 63497.16, 0.0, 10.001072, 9.998561 
2.5501657e+2, 2.7578452e+2, -147617.84, -371530.22, 48635.715, -0.021345474, -0.038001925, -137510.02, 99791.8, 0.0, 10.00137, 9.998445 
2.5501916e+2, 2.8578243e+2, -44702.98, -340841.38, 39639.25, -0.017325424, -0.04957867, -39488.918, 99835.21, 0.00000013920514, 10.00171, 9.997818 
2.550217e+2, 2.9577932e+2, 83013.234, -225319.86, 9393.233, -0.044455957, -0.18282656, 83299.13, 124657.32, 0.0000022917138, 10.001893, 9.9978485 
2.5502577e+2, 3.057807e+2, 148549.5, -114901.37, 25517.777, 0.10751452, 0.14904463, 150998.38, 150998.38, 0.0000129202135, 10.001798, 9.998324 
2.5502807e+2, 3.1577608e+2, 157410.03, 69676.664, -138527.27, -0.03603855, -0.17037496, 258850.23, 258850.23, 0.000045825393, 10.001031, 9.999957 
2.6497728e+2, 1.2578465e+2, -1958934.4, -1760797.6, 107183.05, 0.2049242, -0.026905028, -1713911.4, -6601.1304, 0.00051409315, 9.9979, 10.000687 
2.6497573e+2, 1.3578571e+2, -1692888.8, -1599584.3, -92201.43, -0.032086827, 0.0012190718, -1542904.3, 66396.55, 0.0002486299, 9.999187, 10.000507 
2.6497734e+2, 1.457865e+2, -1622381.4, -1487395.6, 27788.246, -0.09168925, 0.021193307, -1481899.0, 29391.924, 0.00007773356, 9.998899, 10.000712 
2.649833e+2, 1.5578595e+2, -1696286.6, -1497574.6, 14436.171, 0.138951, -0.1333973, -1496531.4, -83239.49, 0.000013419433, 9.99783, 10.00049 
2.649868e+2, 1.657861e+2, -1558975.5, -1413536.6, 1311.2909, 0.16791907, -0.14587925, -1413524.8, -98236.516, 0.0000010267595, 9.998244, 10.000193 
2.6498833e+2, 1.7578669e+2, -1253246.3, -1221273.9, -18663.063, 0.040383507, -0.14181024, -1212686.4, 4595.6064, 0.0000000012219834, 9.999694, 10.000135 
2.6499137e+2, 1.8578668e+2, -1106639.6, -1164217.6, 26418.55, 0.011502872, -0.120685525, -1096355.0, 22926.033, 0.0, 10.000307, 9.999564 
2.6499552e+2, 1.9578601e+2, -1029842.44, -1085399.0, 13626.074, 0.06381338, -0.1761539, -1026680.44, -5394.0864, 0.0, 10.0002, 9.999485 
2.649988e+2, 2.057861e+2, -981023.56, -1078823.1, 20468.904, 0.0612608, -0.07973602, -976912.3, -53624.02, 0.0, 10.000148, 9.998886 
2.6500148e+2, 2.1578655e+2, -895874.0, -981046.0, 12412.115, 0.017559545, 0.04550595, -894102.06, -68812.54, 0.0, 10.000034, 9.9989395 
2.6500425e+2, 2.2578637e+2, -746978.1, -743775.5, -8428.718, 0.03545721, 0.08448649, -736797.3, -9505.732, 0.0, 9.999887, 9.999963 
2.6500714e+2, 2.3578557e+2, -682513.75, -673165.44, -30304.275, 0.100805365, -0.024675643, -647177.0, -17881.076, 0.0, 9.999702, 9.999867 
2.6501042e+2, 2.4578498e+2, -527441.44, -606954.75, 27098.592, 0.099387735, -0.034719437, -519084.44, 12215.155, 0.0, 10.000368, 9.999324 
2.650138e+2, 2.557844e+2, -238200.72, -427360.28, -7137.857, 0.048354935, -0.05884555, -237931.77, 195372.75, 0.0, 10.0017185, 9.999232 
2.6501635e+2, 2.6578355e+2, -175027.58, -422838.56, -67610.65, 0.029349163, -0.025951784, -157781.48, 177530.67, 0.0, 10.001805, 9.99855 
2.6501843e+2, 2.757824e+2, -200378.61, -389840.5, -59083.16, 0.058205824, -0.0263177, -183463.81, 53858.555, 0.0, 10.000991, 9.998495 
2.6502082e+2, 2.8578016e+2, -145408.69, -381759.88, 27326.34, 0.021663101, -0.06435336, -142290.42, -2944.96, 0.00000017298198, 10.000982, 9.997884 
2.650228e+2, 2.9577658e+2, 46866.254, -232230.14, 24164.568, -0.09398361, -0.2514923, 48943.004, 90325.66, 0.000002277503, 10.001583, 9.997953 
2.6502782e+2, 3.057783e+2, 151888.78, -156606.7, 51252.336, 0.13489044, 0.12534195, 160180.78, 160180.78, 0.000011809922, 10.001987, 9.997966 
2.6503044e+2, 3.1577376e+2, 264271.94, 116428.875, -162411.02, 0.0771395, -0.14749262, 368792.94, 368792.94, 0.000042458643, 10.00175, 9.999948 
2.7497578e+2, 1.2578198e+2, -1977012.5, -1798102.1, 99373.19, 0.18738008, -0.036489807, -1753851.5, -46517.016, 0.00042131313, 9.997889, 10.000441 
2.7497563e+2, 1.3578273e+2, -1722336.6, -1661737.8, -45479.313, -0.00024559887, 0.006363805, -1637389.0, -28058.398, 0.0001952308, 9.999194, 10.000075 
2.7497637e+2, 1.4578308e+2, -1616356.1, -1467047.1, -34469.4, -0.11874697, -0.0051108073, -1459473.6, 51852.52, 0.000056360343, 9.998865, 10.000872 
2.7498135e+2, 1.5578319e+2, -1691459.6, -1477188.1, -3488.4102, 0.12606835, -0.10924679, -1477131.4, -63810.49, 0.000009372096, 9.997792, 10.000649 
2.749851e+2, 1.6578387e+2, -1576570.6, -1438846.9, 43159.62, 0.14116406, -0.067145996, -1426439.4, -111126.36, 0.0000008660051, 9.998196, 10.000041 
2.7498776e+2, 1.7578483e+2, -1271902.6, -1247561.6, 44944.445, -0.021772884, -0.010355862, -1213169.0, 4135.6577, 0.000000004874734, 9.999644, 9.999977 
2.7499133e+2, 1.857846e+2, -1110101.8, -1144901.1, 8867.881, -0.050114825, -0.01255631, -1107972.4, 11333.609, 0.0, 10.0001955, 9.999748 
2.749955e+2, 1.9578335e+2, -1027918.25, -1061475.9, 25719.018, 0.013761392, -0.14644627, -1013988.8, 7326.706, 0.0, 10.000119, 9.999685 
2.7499896e+2, 2.0578271e+2, -982255.4, -1053822.9, 3306.6792, 0.037708204, -0.14085263, -982102.94, -58781.348, 0.0, 10.000032, 9.999112 
2.7500188e+2, 2.1578225e+2, -906003.25, -962571.44, 22023.46, 0.02880876, -0.13181837, -898440.1, -73112.39, 0.0, 9.999869, 9.999143 
2.750041e+2, 2.257821e+2, -799001.75, -812304.25, -28066.338, 0.004728214, -0.08240931, -776809.3, -49479.613, 0.0, 9.999718, 9.999577 
2.750057e+2, 2.3578194e+2, -732506.06, -741453.9, -20454.188, -0.03857296, -0.08566932, -716042.25, -86711.93, 0.0, 9.999547, 9.999477 
2.750098e+2, 2.4578144e+2, -570714.1, -673613.7, 66116.79, -0.021743828, -0.047036387, -538387.4, -7052.3296, 0.0, 10.000269, 9.998912 
2.7501568e+2, 2.5578043e+2, -280825.97, -489631.97, 52035.78, 0.03197896, -0.0728168, -268576.88, 164768.48, 0.0, 10.001596, 9.998868 
2.750191e+2, 2.657794e+2, -160244.08, -368820.47, -114752.055, 0.09350557, -0.059555557, -109470.8, 225883.77, 0.0, 10.001716, 9.9989605 
2.750208e+2, 2.7577838e+2, -190826.4, -341453.94, -73207.68, 0.16803867, -0.090045445, -161109.1, 76254.195, 0.00000000009324417, 10.000871, 9.998885 
2.750229e+2, 2.8577662e+2, -93553.68, -262080.9, 35381.816, 0.09944953, -0.14088172, -86426.76, 52952.18, 0.00000023612336, 10.000934, 9.998725 
2.7502447e+2, 2.9577383e+2, 90182.64, -122971.78, 63425.734, -0.13191052, -0.33750716, 107627.71, 149032.16, 0.0000024951785, 10.001494, 9.998748 
2.7502972e+2, 3.0577567e+2, 95974.74, -255871.81, 36275.613, 0.099656954, 0.05101429, 99675.85, 99675.85, 0.0000116764495, 10.00194, 9.997293 
2.7503204e+2, 3.15772e+2, 203601.8, 37571.285, -90997.13, -0.0073454045, -0.05657738, 243761.27, 243761.27, 0.000040637482, 10.001569, 9.999486 
2.8497407e+2, 1.2577897e+2, -1880764.6, -1725607.6, 95138.67, 0.21600729, -0.039856207, -1680427.0, 26937.965, 0.00034670465, 9.998479, 10.000631 
2.849749e+2, 1.357804e+2, -1878223.4, -1706514.5, -27346.816, 0.08306043, 0.04326611, -1702264.4, -92910.09, 0.00015383656, 9.99803, 10.000311 
2.8497526e+2, 1.457805e+2, -1706593.6, -1545720.4, 11239.345, -0.08302634, 0.012790514, -1544939.0, -33585.867, 0.00004093297, 9.9984, 10.000554 
2.8497988e+2, 1.5578063e+2, -1459103.0, -1392120.3, -22871.553, 0.12723029, -0.06021857, -1385055.8, 28293.623, 0.0000066741927, 9.999494, 10.000415 
2.8498375e+2, 1.6578135e+2, -1399943.1, -1324516.0, 60757.105, 0.14149636, -0.018936861, -1290719.1, 24621.598, 0.00000074756446, 9.999291, 10.000301 
2.8498685e+2, 1.7578226e+2, -1469303.5, -1321128.6, 66752.31, 0.0029727702, 0.013546553, -1295492.4, -78161.62, 0.000000006090155, 9.998193, 10.000183 
2.8499088e+2, 1.8578216e+2, -1378672.8, -1288754.4, 72811.61, -0.019292008, 0.022243777, -1248139.9, -128808.66, 0.0, 9.998418, 9.999613 
2.849956e+2, 1.9578117e+2, -1113566.1, -1113545.3, 36933.402, 0.042884447, -0.07272364, -1076622.4, -55281.57, 0.0, 9.999573, 9.999589 
2.8499925e+2, 2.057805e+2, -969949.8, -990185.0, 9513.185, 0.07581191, -0.09481872, -966179.75, -42833.95, 0.0, 9.999883, 9.999613 
2.8500208e+2, 2.1577983e+2, -934895.6, -930068.06, 22575.752, 0.090004005, -0.15557694, -909777.44, -84427.37, 0.0, 9.999478, 9.999551 
2.8500432e+2, 2.2577931e+2, -778722.75, -859773.6, 34234.055, 0.04319982, -0.1307335, -766198.4, -38843.813, 0.0, 10.000115, 9.999053 
2.8500602e+2, 2.3577878e+2, -478224.66, -669324.75, 3479.4373, -0.051428426, -0.11993861, -478161.34, 151199.08, 0.0, 10.001524, 9.999012 
2.8501037e+2, 2.4577798e+2, -414817.2, -599788.75, 110647.99, -0.038248003, -0.09007687, -363092.72, 168275.88, 0.0, 10.0013275, 9.99891 
2.8501666e+2, 2.5577685e+2, -517871.78, -598337.6, 101523.34, 0.06129466, -0.13030288, -448899.97, -15520.234, 0.0, 9.999954, 9.998905 
2.8502038e+2, 2.6577622e+2, -363862.84, -448140.84, -20310.207, 0.1316159, -0.092671804, -359223.66, -23837.938, 0.0, 10.000234, 9.999132 
2.8502247e+2, 2.7577573e+2, -55265.64, -258524.61, -23196.236, 0.21263118, -0.08617048, -52652.06, 184737.83, 0.0000000018932573, 10.001706, 9.99906 
2.8502467e+2, 2.857741e+2, 60870.332, -185658.83, 70182.06, 0.13835818, -0.13195771, 79449.6, 218853.3, 0.00000028816427, 10.001984, 9.998748 
2.8502625e+2, 2.9577148e+2, 105695.17, -103650.695, 11903.9375, -0.09639906, -0.3141952, 106369.89, 147796.34, 0.0000027347362, 10.001566, 9.998838 
2.8503177e+2, 3.0577263e+2, 105213.87, -263316.22, 8479.588, 0.1188349, 0.0010617105, 105408.875, 105408.875, 0.000012525966, 10.002032, 9.997201 
2.850343e+2, 3.1576973e+2, 281949.84, 17998.033, -88993.73, 0.04066452, -0.016081281, 309151.6, 309151.6, 0.00004059471, 10.00235, 9.998969 
2.9497108e+2, 1.2577589e+2, -1831632.8, -1641833.4, -3880.9192, -0.012915958, -0.015450213, -1641754.0, 65645.45, 0.00028489743, 9.99854, 10.001183 
2.9497325e+2, 1.357787e+2, -1819620.8, -1591264.5, -31131.375, 0.08054588, 0.108942695, -1587096.5, 22275.348, 0.000121053716, 9.9980545, 10.00109 
2.9497367e+2, 1.4577869e+2, -1759589.6, -1656974.4, 33032.1, -0.12663734, 0.071915306, -1647260.8, -135888.25, 0.000029834508, 9.998393, 9.999799 
2.9497844e+2, 1.5577823e+2, -1508733.8, -1488578.4, 23260.105, -0.0034403473, 0.013181829, -1473306.6, -59929.113, 0.000004731658, 9.999467, 9.999765 
2.949823e+2, 1.657785e+2, -1363139.8, -1231679.1, 6767.49, 0.034140468, 0.0071098013, -1231331.6, 84039.77, 0.00000054097734, 9.999229, 10.000962 
2.9498515e+2, 1.7577915e+2, -1433826.5, -1233881.9, 49127.215, -0.020520607, -0.05934243, -1222463.3, -5104.655, 0.0000000012704189, 9.998147, 10.000795 
2.9498956e+2, 1.8577953e+2, -1424332.8, -1365811.8, 102736.35, -0.02217276, -0.007111182, -1288250.3, -168894.63, 0.0, 9.998336, 9.999128 
2.9499522e+2, 1.9577943e+2, -1154356.5, -1176895.3, 88637.35, 0.015916592, 0.038525775, -1076275.0, -54912.46, 0.0, 9.999481, 9.999198 
2.9499912e+2, 2.0577937e+2, -939548.7, -890106.44, -18435.438, 0.04965509, 0.053398587, -883989.3, 39372.574, 0.0, 9.999727, 10.000372 
2.9500157e+2, 2.1577913e+2, -914338.6, -847567.3, 27665.455, 0.06369789, -0.037972603, -837594.25, -12236.668, 0.0, 9.9993105, 10.0001955 
2.950045e+2, 2.2577801e+2, -850605.94, -968879.5, 74130.59, 0.022742834, -0.06700728, -814913.94, -87547.45, 0.0, 9.999948, 9.998382 
2.9500777e+2, 2.3577608e+2, -543431.3, -765829.0, 64130.06, -0.059202407, -0.1303466, -526264.06, 103122.555, 0.0, 10.001361, 9.9984255 
2.9501182e+2, 2.4577469e+2, -396122.97, -539534.7, 43604.086, -0.058339916, -0.15627381, -383905.97, 147493.69, 0.0, 10.001232, 9.999373 
2.950163e+2, 2.5577357e+2, -505284.22, -547176.1, 69795.766, -0.0012606416, -0.23786773, -453359.16, -19950.332, 0.0, 9.999842, 9.999316 
2.950198e+2, 2.6577368e+2, -372050.22, -449978.94, 24036.148, 0.020876456, -0.14418174, -365232.94, -29824.996, 0.0, 10.000171, 9.999148 
2.950228e+2, 2.757744e+2, -75871.97, -270216.25, 39261.395, 0.043408513, -0.020579934, -68240.09, 169162.4, 0.0000000016821552, 10.001576, 9.999041 
2.9502568e+2, 2.857728e+2, 2827.6418, -297960.75, 39644.19, 0.0070069227, -0.02456433, 7965.0376, 147383.19, 0.00000022409213, 10.001945, 9.997999 
2.9502776e+2, 2.9576954e+2, 44809.5, -221257.66, 24812.072, -0.1418365, -0.19006483, 47103.566, 88552.65, 0.0000026534976, 10.001511, 9.998069 
2.950335e+2, 3.05769e+2, 140424.27, -178946.14, 20471.277, 0.05860049, -0.035344806, 141731.11, 141731.11, 0.00001292508, 10.001989, 9.997795 
2.950362e+2, 3.1576663e+2, 228138.38, -74056.32, -1415.6257, -0.07759925, -0.06357601, 228145.0, 228145.0, 0.000040888393, 10.00226, 9.998378 
3.0496943e+2, 1.2577347e+2, -2036284.1, -1768596.5, 26154.521, 0.045737606, 0.06911843, -1766065.0, -58638.207, 0.00023189843, 9.997272, 10.000927 
3.0497244e+2, 1.3577534e+2, -1638709.1, -1497272.3, -85479.16, 0.1434737, 0.09597905, -1457050.3, 152357.63, 0.000094942065, 9.999256, 10.001163 
3.0497304e+2, 1.4577557e+2, -1575184.9, -1538210.5, 5516.1606, -0.07670259, 0.066297725, -1537405.1, -25999.676, 0.000021738364, 9.999557, 10.000041 
3.0497783e+2, 1.5577617e+2, -1590771.3, -1506903.6, 30380.938, 0.03212573, 0.09040597, -1497054.8, -83655.02, 0.0000030875526, 9.998819, 9.999947 
3.0498168e+2, 1.6577618e+2, -1399625.5, -1281498.6, 28918.99, 0.06744385, 0.06467104, -1274798.9, 40597.063, 0.0000002653173, 9.999094, 10.00069 
3.049845e+2, 1.7577559e+2, -1173770.9, -1134074.0, -29386.977, 0.016662994, -0.09630431, -1118460.4, 98935.04, 0.0, 10.000024, 10.000584 
3.049889e+2, 1.8577598e+2, -1184112.6, -1201088.4, 62796.547, 0.01308068, -0.05655626, -1129232.9, -9840.938, 0.0, 9.999768, 9.999574 
3.0499446e+2, 1.9577684e+2, -1261109.0, -1191925.4, 90831.83, 0.04845232, 0.041385982, -1129321.4, -107932.57, 0.0, 9.998569, 9.999553 
3.0499855e+2, 2.057772e+2, -1050567.9, -945477.4, 30334.387, 0.06474622, 0.08236051, -937349.9, -13965.594, 0.0, 9.99896, 10.000371 
3.050014e+2, 2.1577701e+2, -738960.94, -769065.2, -10712.788, 0.0636861, -0.0013519948, -735537.94, 89842.14, 0.0, 10.00052, 10.000163 
3.0500507e+2, 2.2577581e+2, -721406.6, -918230.8, 59158.883, 0.048161127, -0.03338093, -704994.0, 22396.31, 0.0, 10.000877, 9.998285 
3.050094e+2, 2.3577364e+2, -697831.1, -850840.6, 63347.09, 0.030814031, -0.11115899, -675009.0, -45596.08, 0.0, 10.000341, 9.998337 
3.050134e+2, 2.4577244e+2, -520363.1, -597260.94, 41254.844, 0.026628917, -0.11576724, -502418.03, 29006.73, 0.0, 10.000402, 9.999365 
3.0501696e+2, 2.5577173e+2, -325872.3, -457731.44, 8563.21, 0.02817177, -0.15337645, -325318.53, 108111.88, 0.0, 10.001084, 9.999323 
3.050204e+2, 2.657716e+2, -213131.89, -394767.13, 4256.6006, 0.008314162, -0.07412166, -213032.19, 122399.56, 0.0, 10.001348, 9.998962 
3.050238e+2, 2.7577165e+2, -117439.92, -309049.28, -24068.504, 0.0042117173, -0.0006271644, -114462.875, 122969.734, 0.00000000014964384, 10.001371, 9.99887 
3.0502725e+2, 2.8577012e+2, -50399.348, -316186.38, 6102.0103, 0.0023108358, 0.0059373346, -50259.33, 89188.49, 0.00000013461268, 10.001568, 9.998048 
3.050303e+2, 2.9576755e+2, 90073.91, -186184.56, 26397.219, -0.04902226, -0.094136484, 92573.61, 134045.81, 0.0000024184974, 10.001799, 9.998154 
3.0503583e+2, 3.0576673e+2, 158722.22, -91030.37, 86667.47, 0.11333231, -0.0056979633, 185850.33, 185850.33, 0.00001259153, 10.001763, 9.998521 
3.0503812e+2, 3.157645e+2, 50810.52, -171979.1, 38464.95, -0.036500234, -0.09453263, 57264.58, 57264.58, 0.000039642433, 10.001076, 9.998297 
3.1496844e+2, 1.2577187e+2, -2107732.5, -1919661.6, 11203.825, 0.14825201, 0.2298257, -1918996.5, -211550.84, 0.0001887222, 9.997288, 9.999879 
3.1497186e+2, 1.357705e+2, -1692956.9, -1594903.4, -8259.319, 0.1284256, 0.01564833, -1594212.5, 15247.844, 0.00007509751, 9.999213, 10.000506 
3.1497282e+2, 1.4577128e+2, -1499145.9, -1378809.4, -39840.91, -0.095308125, 0.011469556, -1366814.5, 144636.14, 0.00001598166, 9.9995365, 10.001145 
3.1497762e+2, 1.5577435e+2, -1526638.4, -1372853.9, 21380.516, 0.09282224, 0.17053214, -1369936.8, 43479.617, 0.00000170519, 9.998816, 10.000865 
3.1498167e+2, 1.6577426e+2, -1493409.5, -1465870.3, 44361.61, 0.123894185, 0.15767473, -1433190.4, -117775.06, 0.000000057148895, 9.999042, 9.999456 
3.1498462e+2, 1.7577155e+2, -1251142.8, -1284083.0, 9227.492, -0.007902992, -0.09581106, -1248734.0, -31292.139, 0.0, 9.999975, 9.999578 
3.1498837e+2, 1.8577158e+2, -1103173.1, -1010653.75, 3108.4014, -0.04433983, -0.11704307, -1010549.44, 108890.36, 0.0, 9.999669, 10.000931 
3.1499287e+2, 1.9577342e+2, -1189094.9, -1019650.6, 67909.875, 0.0011816092, -0.05844322, -995792.9, 25626.39, 0.0, 9.998472, 10.00078 
3.149971e+2, 2.0577407e+2, -1132414.9, -1075511.0, 75570.664, 0.001298326, -0.0006881943, -1023213.7, -99801.79, 0.0, 9.998795, 9.9995575 
3.1500116e+2, 2.1577361e+2, -812717.8, -882757.56, 57400.89, -0.03984716, -0.03227648, -780497.4, 44918.88, 0.0, 10.000356, 9.99946 
3.1500566e+2, 2.257728e+2, -702871.7, -847155.94, 26476.36, -0.008328499, -0.020536141, -698166.6, 29258.3, 0.0, 10.000737, 9.998844 
3.1501046e+2, 2.3577155e+2, -686765.6, -793228.1, 60820.54, 0.07893024, -0.058747165, -659171.75, -29733.123, 0.0, 10.000193, 9.998809 
3.1501466e+2, 2.4577114e+2, -566197.06, -679913.06, 53550.875, 0.08188781, 0.023933986, -544949.2, -13504.921, 0.0, 10.000341, 9.998828 
3.150182e+2, 2.5577122e+2, -381372.38, -542081.8, 43894.453, 0.015607404, 0.11803363, -370165.06, 63280.176, 0.0, 10.000946, 9.998814 
3.1502166e+2, 2.6577002e+2, -244591.22, -444810.97, -8150.37, -0.02685182, 0.12825602, -244260.0, 91196.914, 0.0, 10.001282, 9.9986515 
3.1502506e+2, 2.7576748e+2, -147016.75, -349926.3, -8221.495, -0.038232245, -0.02435551, -146684.17, 90796.03, 0.00000000001473293, 10.001277, 9.998638 
3.1502903e+2, 2.8576595e+2, -1930.71, -202370.73, 733.6406, -0.007829879, -0.04581606, -1928.0248, 137565.16, 0.000000108201135, 10.001514, 9.998851 
3.1503308e+2, 2.9576528e+2, 126636.62, -84148.69, 51410.98, 0.013028524, -0.03770043, 138507.34, 180005.25, 0.0000023186144, 10.001679, 9.998915 
3.150382e+2, 3.0576572e+2, 220181.52, 44041.97, 55235.293, 0.14637306, 0.08670361, 236069.53, 236069.53, 0.000012381474, 10.001728, 9.999466 
3.1503946e+2, 3.1576318e+2, 84899.89, -96483.37, 53570.785, -0.08318628, -0.13141301, 99540.125, 99540.125, 0.000038038284, 10.001046, 9.998832 
3.2496715e+2, 1.2576853e+2, -1859590.3, -1803661.6, 61877.4, 0.21881193, 0.18994333, -1763723.0, -56245.81, 0.0001575099, 9.998976, 9.999872 
3.249711e+2, 1.3576758e+2, -1727911.1, -1621009.1, 81580.51, 0.15809813, 0.020150088, -1576928.6, 32559.479, 0.00006189271, 9.998974, 10.000458 
3.2497257e+2, 1.4576852e+2, -1578361.4, -1428863.4, 22240.867, -0.0379724, 0.039584152, -1425624.8, 85852.29, 0.000012633238, 9.999028, 10.001059 
3.2497704e+2, 1.5577067e+2, -1436703.5, -1337637.9, -32949.883, 0.12882236, 0.11543284, -1327679.6, 85772.06, 0.0000008198343, 9.999447, 10.0008135 
3.2498112e+2, 1.6577084e+2, -1505092.0, -1452010.9, 44828.258, 0.17796291, 0.123779126, -1426455.6, -111006.39, 0.000000004124255, 9.998914, 9.9995985 
3.2498434e+2, 1.7576937e+2, -1574970.9, -1427649.9, 80211.54, 0.08906905, -0.01451087, -1392407.9, -174942.27, 0.0, 9.997716, 9.999677 
3.2498807e+2, 1.8576951e+2, -1284095.8, -1083988.9, 104029.195, 0.032356072, -0.036315758, -1039706.75, 79755.66, 0.0, 9.998376, 10.001039 
3.2499233e+2, 1.9577068e+2, -912586.3, -871198.56, 41123.195, 0.014259524, -0.059015438, -845856.0, 175590.67, 0.0, 10.000331, 10.000888 
3.2499665e+2, 2.0577115e+2, -888620.8, -974923.5, 57376.914, -0.001851933, -0.01716682, -859979.75, 63461.426, 0.0, 10.0005245, 9.999417 
3.2500106e+2, 2.1577092e+2, -975086.75, -969921.75, 66245.46, -0.021160642, -0.013843464, -906208.44, -80763.28, 0.0, 9.999277, 9.99938 
3.250059e+2, 2.2577049e+2, -854605.9, -879760.4, 85411.19, 0.01293875, 0.018787796, -780850.9, -53400.27, 0.0, 9.999516, 9.999209 
3.2501107e+2, 2.357697e+2, -562065.0, -697162.3, 80702.38, 0.093665265, -0.012781235, -524372.56, 105086.54, 0.0, 10.000888, 9.999131 
3.2501557e+2, 2.4576935e+2, -464565.03, -667880.75, 94409.0, 0.10344584, 0.07755745, -427487.97, 103976.2, 0.0, 10.001181, 9.998518 
3.2501945e+2, 2.5576916e+2, -424489.53, -596527.9, 82676.19, 0.060576268, 0.17375724, -391199.66, 42268.55, 0.0, 10.000771, 9.99853 
3.2502306e+2, 2.6576754e+2, -328639.88, -509038.06, 72624.95, 0.012752375, 0.16710354, -303036.28, 32447.832, 0.0, 10.000811, 9.998442 
3.2502645e+2, 2.757645e+2, -166663.56, -377222.84, 50936.188, -0.015330161, -0.013357874, -154988.95, 82523.234, 0.00000000010851988, 10.001225, 9.998474 
3.250304e+2, 2.857629e+2, -49467.5, -205987.2, 51506.668, 0.006410533, -0.045110065, -34038.82, 105486.766, 0.00000014604628, 10.00109, 9.99904 
3.2503444e+2, 2.9576245e+2, -26856.709, -135092.11, 31411.172, 0.051977597, -0.036263924, -18401.354, 23125.854, 0.0000023415487, 10.0005245, 9.999122 
3.2504007e+2, 3.0576298e+2, 140023.56, 26331.256, 31005.854, 0.20273837, 0.08079028, 147929.61, 147929.61, 0.000012312151, 10.001125, 9.999616 
3.2504168e+2, 3.1576088e+2, 299228.8, 54550.33, -91151.24, -0.016093854, -0.110254645, 329452.47, 329452.47, 0.000036624067, 10.002361, 9.999212 
3.3496448e+2, 1.2576349e+2, -1795422.9, -1657672.6, -15624.532, -0.015086665, -0.03450924, -1655922.6, 51598.344, 0.00013854062, 9.998935, 10.000888 
3.349698e+2, 1.3576673e+2, -1692164.9, -1531449.3, 84852.44, 0.09339757, 0.13687845, -1494942.5, 114547.16, 0.000055370125, 9.998936, 10.001075 
3.3497196e+2, 1.4576738e+2, -1671382.4, -1608687.6, 17023.13, -0.04187412, 0.16554442, -1604363.6, -92880.23, 0.000011804474, 9.99897, 9.999854 
3.3497566e+2, 1.5576532e+2, -1504191.4, -1472010.6, -8011.5254, 0.0098138675, -0.0635544, -1470126.5, -56622.973, 0.00000057438905, 9.999426, 9.999902 
3.349795e+2, 1.6576615e+2, -1413448.6, -1250663.8, -14396.883, 0.09610787, -0.026593145, -1249400.3, 66095.16, 0.00000000201948, 9.998862, 10.001008 
3.3498332e+2, 1.7576905e+2, -1496053.6, -1257881.4, 59865.664, 0.17694503, 0.13372307, -1243680.6, -26213.455, 0.0, 9.997685, 10.000859 
3.3498758e+2, 1.8576968e+2, -1387797.5, -1269810.0, 162875.9, 0.11322601, 0.17317072, -1155573.3, -36112.504, 0.0, 9.998252, 9.999824 
3.349924e+2, 1.957684e+2, -1000373.75, -1032065.8, 118350.234, -0.042636916, 0.026251892, -896813.44, 124659.47, 0.0, 10.000242, 9.999825 
3.3499676e+2, 2.057683e+2, -866751.5, -897729.44, -4972.8247, -0.06729175, 0.028185835, -865972.8, 57500.83, 0.0, 10.000391, 10.000011 
3.3500072e+2, 2.1576886e+2, -959220.44, -896131.1, 39438.367, -0.007431031, 0.048957523, -877173.8, -51705.96, 0.0, 9.9991045, 9.9999695 
3.3500546e+2, 2.2576877e+2, -866691.6, -868099.94, 122594.6, -0.007391496, 0.081162974, -744799.2, -17330.867, 0.0, 9.999361, 9.999361 
3.350108e+2, 2.3576806e+2, -578043.25, -683997.6, 137208.3, -0.04847495, 0.04153763, -483939.84, 145534.73, 0.0, 10.000699, 9.999307 
3.3501574e+2, 2.4576707e+2, -469153.06, -665152.94, 64948.855, -0.023726035, 0.05543944, -449584.56, 81899.66, 0.0, 10.001119, 9.998568 
3.350203e+2, 2.5576562e+2, -440791.78, -601277.8, 81772.79, 0.039394855, 0.017965605, -406467.22, 27031.428, 0.0, 10.000648, 9.998556 
3.3502415e+2, 2.657643e+2, -349795.7, -540343.0, 74131.234, 0.016270302, 0.049347505, -324352.7, 11159.735, 0.0, 10.000759, 9.998247 
3.350275e+2, 2.757627e+2, -200483.56, -416441.38, 78095.08, -0.06746735, 0.03254528, -175202.25, 62326.688, 0.000000000044508567, 10.001094, 9.998266 
3.350309e+2, 2.8576094e+2, -72237.31, -250599.3, 16913.898, -0.08167588, 0.007564049, -70647.555, 68897.11, 0.00000018851506, 10.001064, 9.998751 
3.35034e+2, 2.957591e+2, -57239.0, -192621.97, 31904.977, -0.08530543, -0.08926386, -50096.902, -8537.849, 0.0000023038672, 10.000481, 9.998758 
3.350409e+2, 3.0575836e+2, 79564.37, -92878.68, 69388.09, 0.14414255, -0.034092005, 104017.41, 104017.41, 0.000011796056, 10.001104, 9.998803 
3.3504388e+2, 3.1575742e+2, 288211.84, 60440.297, -7233.305, -0.09992633, -0.037345305, 288441.3, 288441.3, 0.000034748333, 10.002227, 9.999327 
3.4496242e+2, 1.2575915e+2, -2070296.6, -1729875.8, -65325.453, 0.009771906, -0.07102479, -1717770.5, -10208.505, 0.00012841672, 9.996805, 10.001411 
3.4496844e+2, 1.3576262e+2, -1824692.3, -1581095.1, -49538.207, 0.13177598, 0.10480352, -1571406.4, 38120.805, 0.00005393956, 9.997944, 10.00123 
3.4497157e+2, 1.457634e+2, -1782251.8, -1639197.3, -50537.063, 0.07519391, 0.13074374, -1623145.1, -111625.36, 0.00001321429, 9.998128, 10.000039 
3.4497446e+2, 1.557613e+2, -1722902.1, -1561201.0, -16829.72, 0.035939205, -0.11677881, -1559468.0, -145926.61, 0.00000089811203, 9.997867, 10.000034 
3.4497812e+2, 1.6576244e+2, -1440005.1, -1251956.3, -10142.97, 0.09239957, -0.062020935, -1251410.8, 64120.297, 0.0000000015154811, 9.99861, 10.001127 
3.449822e+2, 1.757659e+2, -1147799.4, -1077171.5, -56467.707, 0.19098127, 0.13910195, -1045884.5, 171613.05, 0.0, 10.000019, 10.000975 
3.4498686e+2, 1.8576664e+2, -1186462.9, -1199081.1, 79691.5, 0.15134479, 0.19547059, -1112831.1, 6659.7354, 0.0, 9.999735, 9.999603 
3.4499216e+2, 1.9576503e+2, -1324406.1, -1213598.8, 86217.08, 0.024845673, 0.04171984, -1166518.5, -145011.4, 0.0, 9.998111, 9.999618 
3.449966e+2, 2.0576485e+2, -1165543.5, -1023070.3, -4937.918, -0.006052568, 0.037204124, -1022899.4, -99390.61, 0.0, 9.998265, 10.000173 
3.450004e+2, 2.1576549e+2, -863616.0, -837807.5, -22974.389, 0.024941305, 0.052759852, -824361.4, 1140.4569, 0.0, 9.999705, 10.000082 
3.4500545e+2, 2.2576544e+2, -738473.94, -809481.56, 80520.15, 0.018948669, 0.085302345, -685977.7, 41523.9, 0.0, 10.000252, 9.999339 
3.4501153e+2, 2.357647e+2, -662534.44, -728767.44, 53808.465, -0.00728184, 0.043670326, -632468.25, -2959.9937, 0.0, 10.000118, 9.9992895 
3.450167e+2, 2.4576351e+2, -571167.94, -690396.44, -15285.19, 0.006656985, 0.02895602, -569239.56, -37720.46, 0.0, 10.000331, 9.99877 
3.4502107e+2, 2.5576174e+2, -396908.5, -564563.06, -16810.566, 0.04737712, -0.05707031, -395239.53, 38296.266, 0.0, 10.0008745, 9.998705 
3.4502533e+2, 2.657607e+2, -290017.56, -508253.7, 21922.078, 0.04599771, -0.0028408177, -287837.25, 47709.805, 0.0, 10.001166, 9.998267 
3.4502956e+2, 2.757599e+2, -168839.25, -396759.38, 14000.638, 0.02873653, 0.06030089, -167982.44, 69574.375, 0.0, 10.0013075, 9.998293 
3.4503275e+2, 2.8575832e+2, -14857.114, -249158.2, -22387.182, -0.022379598, 0.06719322, -12737.227, 126833.99, 0.00000016974016, 10.001599, 9.998491 
3.4503487e+2, 2.9575625e+2, 155544.56, -119911.625, -32593.729, -0.11998344, -0.029653987, 159348.72, 200937.3, 0.0000020169734, 10.002085, 9.998481 
3.4504235e+2, 3.0575407e+2, 168118.05, -113979.25, 62995.27, 0.1511727, -0.076415546, 181546.34, 181546.34, 0.0000103175025, 10.001956, 9.998264 
3.4504628e+2, 3.1575313e+2, 99213.92, -43312.508, -17278.412, -0.0030681638, -0.028527968, 101278.664, 101278.664, 0.000031962787, 10.000971, 9.999213 
3.5496014e+2, 1.2575549e+2, -2080758.5, -1743514.5, -69102.99, 0.018642507, 0.08210122, -1729904.3, -22304.14, 0.00012227354, 9.996768, 10.001336 
3.5496664e+2, 1.3575521e+2, -1833164.4, -1599005.9, 878.57434, 0.12236864, -0.084304735, -1599002.6, 10598.136, 0.00005490219, 9.99796, 10.001091 
3.549709e+2, 1.457567e+2, -1684538.1, -1438820.9, -77607.11, 0.15310542, -0.05773562, -1416362.3, 95222.59, 0.000015641235, 9.99813, 10.001421 
3.5497305e+2, 1.5575859e+2, -1640796.4, -1398865.0, -7737.0054, 0.07133801, -0.038372222, -1398617.9, 14947.918, 0.0000017221555, 9.997893, 10.0011425 
3.5497645e+2, 1.6575967e+2, -1526779.3, -1413909.1, 26929.53, 0.030879878, 0.018882424, -1407813.3, -92256.664, 0.000000007086625, 9.998534, 10.00005 
3.5498056e+2, 1.7575993e+2, -1217220.6, -1212275.6, 2926.1558, -0.007119235, 0.006562864, -1210917.3, 6639.41, 0.0, 9.999978, 10.000067 
3.5498548e+2, 1.8576038e+2, -1148720.8, -1094842.3, 6581.235, 0.010087173, 0.032369837, -1094050.0, 25502.588, 0.0, 9.999625, 10.000371 
3.549912e+2, 1.9576079e+2, -1290565.3, -1120180.1, 48048.355, 0.088507175, 0.002209235, -1107564.6, -86017.45, 0.0, 9.99801, 10.000306 
3.5499588e+2, 2.05761e+2, -1212814.5, -1087843.4, 36367.285, 0.06765735, 0.02651094, -1078030.8, -154485.97, 0.0, 9.998117, 9.999803 
3.549997e+2, 2.157609e+2, -910319.1, -899987.75, 41365.742, -0.03902044, 0.0019598305, -863466.4, -37919.88, 0.0, 9.999553, 9.99973 
3.5500556e+2, 2.2576053e+2, -773749.9, -849777.2, 65330.504, -0.020642728, 0.030986095, -736178.4, -8627.982, 0.0, 10.000113, 9.999128 
3.5501292e+2, 2.3575975e+2, -699936.0, -767385.0, 64235.152, 0.09055763, 0.007991377, -661110.56, -31552.338, 0.0, 9.999955, 9.999101 
3.5501793e+2, 2.457588e+2, -572826.56, -664967.9, -6137.383, 0.06977573, 0.014690142, -572419.56, -40852.37, 0.0, 10.000213, 9.998998 
3.5502127e+2, 2.5575748e+2, -401764.22, -542772.4, 16026.043, -0.047207784, -0.048984993, -399965.75, 33613.895, 0.0, 10.000744, 9.998916 
3.5502616e+2, 2.657568e+2, -277629.47, -470349.1, 16450.174, -0.014442594, 0.014824285, -276235.38, 59352.016, 0.0, 10.001111, 9.998554 
3.5503224e+2, 2.757563e+2, -168587.83, -373703.78, 37115.71, 0.13511027, 0.076218285, -162078.33, 75516.055, 0.0, 10.001209, 9.9985 
3.5503545e+2, 2.8575516e+2, -42774.78, -296484.53, -16508.8, 0.057283986, 0.135904, -41705.07, 97899.94, 0.00000011654808, 10.001556, 9.998186 
3.5503647e+2, 2.957537e+2, 118624.375, -173305.23, 1633.867, -0.2085578, 0.12873504, 118633.52, 160250.64, 0.0000016052002, 10.001987, 9.998161 
3.5504404e+2, 3.0574992e+2, 164336.17, -122394.12, 18389.648, 0.09115128, -0.0581518, 165510.8, 165510.8, 0.000008325357, 10.001949, 9.998214 
3.550478e+2, 3.1574884e+2, 62097.926, -104792.96, 21990.277, -0.023785748, -0.022269133, 64946.83, 64946.83, 0.000028551576, 10.000896, 9.998832 
3.649594e+2, 1.2575102e+2, -1754493.9, -1571807.8, 14210.81, 0.17787117, 0.08520233, -1570708.9, 136935.97, 0.000118926524, 9.998927, 10.001486 
3.649636e+2, 1.3575067e+2, -1971294.0, -1659787.3, 39851.21, 0.08272936, -0.08830894, -1654769.9, -45123.965, 0.000056465244, 9.996985, 10.001143 
3.6496863e+2, 1.4575234e+2, -1837277.8, -1474166.9, -1831.1669, 0.18085624, -0.06776465, -1474157.8, 37470.54, 0.00001794202, 9.996915, 10.001766 
3.649715e+2, 1.5575513e+2, -1545643.5, -1316965.4, -35510.84, 0.11109494, 0.008752075, -1311577.9, 102021.95, 0.000002788093, 9.998395, 10.001463 
3.6497548e+2, 1.65756e+2, -1499897.3, -1443529.8, 32318.018, 0.0749833, 0.051846355, -1428832.5, -113239.65, 0.00000008230677, 9.998899, 9.999674 
3.6498007e+2, 1.7575523e+2, -1447241.3, -1359369.9, 24035.598, 0.02706362, -0.025334263, -1353225.0, -135621.64, 0.0, 9.998555, 9.999744 
3.64985e+2, 1.8575558e+2, -1255439.9, -1135451.0, 11407.182, 0.047110807, 0.001150745, -1134376.1, -14775.687, 0.0, 9.998854, 10.0004635 
3.6499038e+2, 1.9575654e+2, -1059477.5, -1002037.8, -21306.986, 0.1356314, 0.01920828, -994997.06, 26592.416, 0.0, 9.999575, 10.000362 
3.649953e+2, 2.0575672e+2, -956520.2, -999551.75, 20122.05, 0.10954117, 0.054000698, -948577.06, -24989.338, 0.0, 10.000023, 9.999494 
3.6499983e+2, 2.1575609e+2, -834450.7, -892187.25, -3212.2908, -0.0065633166, 0.006460039, -834272.5, -8677.182, 0.0, 10.000195, 9.9994755 
3.650059e+2, 2.2575574e+2, -763812.0, -816328.56, 32400.586, 0.013813729, 0.034092024, -748365.4, -20766.266, 0.0, 10.000058, 9.999387 
3.6501318e+2, 2.357554e+2, -720830.75, -747637.1, 42271.207, 0.14622341, 0.031810757, -689888.75, -60286.64, 0.0, 9.999687, 9.999365 
3.6501825e+2, 2.457548e+2, -603979.9, -662868.94, 41085.996, 0.105237864, 0.04846942, -582877.0, -51269.492, 0.0, 9.999903, 9.999175 
3.6502168e+2, 2.5575376e+2, -419676.47, -523508.88, 34538.36, -0.06098881, -0.004329023, -409237.3, 24379.12, 0.0, 10.0005045, 9.999162 
3.65027e+2, 2.657531e+2, -312835.16, -468459.3, 37546.594, -0.016288476, 0.037044078, -304250.1, 31373.563, 0.0, 10.000793, 9.998716 
3.6503386e+2, 2.7575222e+2, -207402.47, -376160.28, 23649.787, 0.20290247, 0.0510733, -204150.83, 33482.41, 0.0, 10.0008745, 9.998644 
3.6503765e+2, 2.857511e+2, -116877.63, -349524.22, 16493.943, 0.15206347, 0.10920603, -115714.08, 23930.271, 0.000000055764154, 10.001098, 9.9980545 
3.65039e+2, 2.957499e+2, 18527.357, -236799.14, 19276.316, -0.112870306, 0.1406911, 19974.455, 61629.17, 0.0000011855267, 10.001367, 9.998022 
3.650463e+2, 3.0574617e+2, 139370.75, -145939.89, 44341.945, 0.14063884, -0.028290194, 146103.34, 146103.34, 0.0000067298934, 10.001852, 9.998091 
3.6504963e+2, 3.157452e+2, 227014.08, -63606.52, 34734.96, 0.017884485, 0.03105309, 231107.94, 231107.94, 0.00002565761, 10.0022135, 9.998481 
3.7495926e+2, 1.2574594e+2, -1722099.4, -1505634.9, -56358.99, 0.19823112, -0.016231533, -1491840.3, 215853.7, 0.0001191897, 9.998928, 10.001933 
3.7495878e+2, 1.3574907e+2, -1945979.1, -1608954.1, -16624.371, -0.13382868, 0.106152035, -1608136.0, 1526.0336, 0.00005856906, 9.99699, 10.001484 
3.7496418e+2, 1.4575028e+2, -1893475.8, -1571514.1, 35487.645, 0.005271531, 0.10189532, -1567649.0, -55999.35, 0.000020069963, 9.996839, 10.001133 
3.7496933e+2, 1.5575084e+2, -1579533.6, -1393337.5, 31755.318, 0.018531153, 0.01664598, -1388070.6, 25573.816, 0.0000038584762, 9.998417, 10.000931 
3.7497488e+2, 1.6575138e+2, -1488250.0, -1404780.0, 6761.182, 0.09119384, 0.035299506, -1404235.9, -88595.69, 0.00000020238203, 9.998839, 9.999966 
3.7498036e+2, 1.7575188e+2, -1440393.8, -1336302.9, 28967.492, 0.16504446, 0.05539815, -1328784.6, -111147.59, 0.0, 9.998512, 9.999925 
3.74985e+2, 1.8575224e+2, -1310369.6, -1225085.3, 25733.174, 0.13404904, 0.10476125, -1217922.3, -98287.89, 0.0, 9.998749, 9.999897 
3.749893e+2, 1.9575223e+2, -1112940.1, -1087541.6, 19785.209, 0.038138095, 0.080929846, -1076730.8, -55096.008, 0.0, 9.999468, 9.999825 
3.749945e+2, 2.0575191e+2, -997416.44, -1052846.5, 13765.6045, -0.0011580152, 0.10627045, -994186.1, -70547.34, 0.0, 9.999885, 9.999196 
3.750002e+2, 2.1575113e+2, -874246.2, -933475.7, 13857.311, -0.012501363, 0.07617672, -871164.5, -45516.773, 0.0, 10.000022, 9.999273 
3.750061e+2, 2.2575113e+2, -733388.4, -722620.0, 1751.9143, 0.0025769481, 0.10986184, -722342.2, 5304.9907, 0.0, 9.999916, 10.000103 
3.75012e+2, 2.357515e+2, -691789.94, -659248.5, 42729.813, 0.03317917, 0.1021038, -629796.44, -154.72348, 0.0, 9.999555, 10.00004 
3.750173e+2, 2.4575135e+2, -602715.6, -637973.3, 51303.996, -0.0096340645, 0.12514655, -566096.2, -34455.313, 0.0, 9.999808, 9.999392 
3.7502182e+2, 2.557506e+2, -425235.75, -507330.63, 70091.17, -0.12655495, 0.07965006, -385057.16, 48588.816, 0.0, 10.0003805, 9.999334 
3.7502748e+2, 2.6574942e+2, -318843.03, -466122.47, 28169.58, -0.080730535, 0.06289531, -313639.0, 22017.791, 0.0, 10.00073, 9.998763 
3.75034e+2, 2.757476e+2, -214778.17, -371861.3, 42480.473, 0.09464249, -0.028961167, -204026.02, 33648.984, 0.0, 10.000785, 9.998719 
3.750388e+2, 2.8574616e+2, -111703.02, -329921.53, 15692.754, 0.123635404, -0.013998809, -110580.28, 29109.047, 0.00000003400916, 10.001057, 9.99821 
3.7504196e+2, 2.95745e+2, 7136.704, -242147.89, 46883.695, 0.007058327, 0.01229351, 15662.658, 57363.28, 0.000000899484, 10.001276, 9.998035 
3.7504864e+2, 3.0574283e+2, 113865.47, -184773.25, 52626.35, 0.16308834, 0.016119074, 122867.945, 122867.945, 0.000005766145, 10.001801, 9.997848 
3.7505087e+2, 3.1574184e+2, 177940.16, -145195.53, 137440.94, -0.14554505, 0.09515476, 228490.63, 228490.63, 0.000023929499, 10.002123, 9.997969 
3.8495746e+2, 1.2574191e+2, -1807469.5, -1590515.4, 11312.968, 0.16059688, -0.05525865, -1589927.0, 117804.836, 0.00012316402, 9.998536, 10.001541 
3.849563e+2, 1.3574544e+2, -1893937.9, -1620129.5, -104778.73, -0.09421049, 0.13565396, -1584634.9, 25063.164, 0.000061385945, 9.997486, 10.001183 
3.8496226e+2, 1.4574632e+2, -1811078.6, -1569082.5, 70668.58, 0.10290474, 0.13148162, -1549957.1, -38267.055, 0.000022093489, 9.997565, 10.000797 
3.8496813e+2, 1.5574668e+2, -1568979.6, -1419095.1, 42128.1, 0.05599798, 0.058709882, -1408065.8, 5621.699, 0.000004863891, 9.998636, 10.00064 
3.8497394e+2, 1.6574705e+2, -1474273.6, -1390801.0, -15158.617, 0.11847244, 0.0664439, -1388133.4, -72449.08, 0.00000029520132, 9.998886, 10.000049 
3.8497925e+2, 1.7574736e+2, -1444940.6, -1331642.1, -25931.336, 0.21510188, 0.058146086, -1325989.1, -108307.984, 0.0, 9.998445, 9.999991 
3.8498414e+2, 1.857475e+2, -1319798.4, -1273621.9, 46028.613, 0.17337121, 0.10409688, -1245215.5, -125535.03, 0.0, 9.998863, 9.999512 
3.8498902e+2, 1.9574715e+2, -1078213.3, -1115577.0, 20441.506, 0.052544203, 0.08239433, -1069202.8, -47517.246, 0.0, 9.999877, 9.999441 
3.849947e+2, 2.057467e+2, -972439.0, -1041326.2, 26372.91, 0.032324523, 0.11353367, -963501.8, -39811.14, 0.0, 10.000065, 9.999186 
3.8500085e+2, 2.15746e+2, -935233.94, -969975.3, 23314.135, 0.07603536, 0.09473296, -923530.75, -97832.875, 0.0, 9.999621, 9.999224 
3.8500652e+2, 2.2574586e+2, -791817.1, -760873.5, 18046.385, 0.07875436, 0.12140962, -752574.56, -24875.81, 0.0, 9.999566, 9.999999 
3.8501182e+2, 2.3574594e+2, -656156.75, -647357.8, -30515.771, 0.049615975, 0.095152445, -620926.0, 8770.484, 0.0, 9.999836, 9.999976 
3.850172e+2, 2.4574585e+2, -561927.7, -578620.1, -6610.8804, 0.0031342986, 0.105075225, -559626.7, -27931.69, 0.0, 9.999932, 9.9997225 
3.8502252e+2, 2.5574535e+2, -468008.28, -499118.53, -8223.875, -0.063922174, 0.049235865, -465968.13, -32271.188, 0.0, 9.999953, 9.999597 
3.850281e+2, 2.6574433e+2, -430134.4, -503886.03, -26052.654, -0.03950465, 0.031686123, -421859.72, -86154.01, 0.0, 9.999889, 9.998917 
3.85034e+2, 2.7574283e+2, -350051.38, -416168.7, -29567.615, 0.07618396, -0.045404635, -338757.8, -101036.79, 0.0, 9.999774, 9.9989 
3.850395e+2, 2.857415e+2, -187932.66, -366209.6, -1119.6193, 0.12612042, -0.025212971, -187925.63, -48190.875, 0.000000026095549, 10.000541, 9.998206 
3.850444e+2, 2.9574022e+2, 100403.195, -195539.86, -9255.48, 0.10057216, -0.014776579, 100692.375, 142441.06, 0.00000066980994, 10.00192, 9.99804 
3.8505054e+2, 3.0573887e+2, 128487.15, -175346.08, -2638.2705, 0.18151021, 0.07140278, 128510.055, 128510.055, 0.000005131084, 10.001884, 9.997868 
3.850525e+2, 3.157378e+2, -36030.246, -197533.88, 82550.984, -0.09778055, 0.13302317, -1302.5367, -1302.5367, 0.000023471404, 10.000451, 9.998403 
3.949535e+2, 1.2573907e+2, -1919940.3, -1791574.9, -10165.418, -0.16317786, -0.03144107, -1790774.9, -83017.83, 0.0001272644, 9.998436, 10.000202 
3.9495575e+2, 1.357398e+2, -1970839.6, -1763492.8, -126993.32, 0.070167184, -0.010796581, -1703228.8, -93475.164, 0.00006380605, 9.997446, 10.000213 
3.9496243e+2, 1.4574051e+2, -1833729.1, -1604085.4, 93797.57, 0.32331842, 0.021216003, -1570643.8, -58894.695, 0.000023677207, 9.997499, 10.000593 
3.9496735e+2, 1.557426e+2, -1579826.5, -1443243.3, 92472.17, 0.076576434, 0.1374141, -1396579.0, 17150.645, 0.000005569423, 9.998636, 10.000475 
3.9497226e+2, 1.657428e+2, -1485030.6, -1393241.0, -49451.734, 0.029635247, 0.13762645, -1371668.8, -55941.957, 0.00000035120044, 9.998812, 10.000067 
3.9497644e+2, 1.7574158e+2, -1455336.3, -1332844.0, -24417.701, 0.059944857, -0.023929026, -1328156.0, -110419.47, 0.0, 9.998367, 10.00002 
3.949821e+2, 1.8574129e+2, -1352601.9, -1316259.0, 71618.39, 0.053244755, -0.011131632, -1260542.8, -140803.13, 0.0, 9.998747, 9.99928 
3.9498913e+2, 1.9574142e+2, -1108726.1, -1146676.4, 67905.8, 0.048464675, 0.041924726, -1057194.1, -35453.82, 0.0, 9.999743, 9.99929 
3.9499557e+2, 2.0574124e+2, -973326.3, -1005737.75, -4866.3022, 0.08869725, 0.08953692, -972611.44, -48869.453, 0.0, 9.999905, 9.999507 
3.9500132e+2, 2.1574068e+2, -947888.44, -948652.44, 24795.04, 0.1348874, 0.052087538, -923472.44, -97726.54, 0.0, 9.999425, 9.999459 
3.9500684e+2, 2.2573994e+2, -877501.3, -905236.9, 16692.03, 0.12728174, 0.05739738, -869667.94, -141914.52, 0.0, 9.999419, 9.999083 
3.9501214e+2, 2.357388e+2, -736264.2, -777623.8, -5535.243, 0.072218895, 0.002597577, -735536.2, -105769.85, 0.0, 9.999681, 9.999157 
3.9501768e+2, 2.4573827e+2, -545299.56, -522395.2, -18007.166, 0.027438596, -0.015497259, -512507.0, 19263.164, 0.0, 9.999836, 10.000161 
3.9502332e+2, 2.5573793e+2, -453525.47, -442510.06, 6661.8687, -0.011204177, -0.09689004, -439373.94, -5604.2407, 0.0, 9.999833, 10.000048 
3.9502856e+2, 2.657379e+2, -422055.2, -471872.84, -42053.977, -0.010978816, -0.05272369, -398086.75, -62317.117, 0.0, 9.99982, 9.999173 
3.9503348e+2, 2.7573788e+2, -348121.72, -394418.56, -14822.634, 0.015423716, -0.0000578237, -343782.7, -106011.055, 0.0, 9.999686, 9.999099 
3.9503944e+2, 2.857371e+2, -205738.47, -383019.53, 39131.35, 0.03631091, 0.067784704, -197485.2, -57703.746, 0.000000010243951, 10.000469, 9.998118 
3.9504588e+2, 2.9573548e+2, 77436.125, -206452.67, 55717.89, 0.020041937, 0.059535895, 87980.07, 129779.26, 0.0000005130985, 10.001772, 9.998035 
3.9505163e+2, 3.057343e+2, 148672.89, -126143.88, -62433.258, 0.07210375, 0.14115208, 162191.56, 162191.56, 0.0000059963604, 10.001851, 9.998221 
3.9505354e+2, 3.1573263e+2, 42636.58, -9660.303, 86623.77, -0.10145758, 0.109805755, 106972.49, 106972.49, 0.000027747768, 10.000351, 9.99974 
4.0495157e+2, 1.2573572e+2, -2191114.5, -1971833.4, 43475.83, -0.0941255, 0.02929374, -1963528.1, -255738.5, 0.0001282802, 9.996758, 9.999785 
4.0495485e+2, 1.3573511e+2, -1720149.8, -1668944.6, -127903.73, 0.16197763, -0.06511302, -1564106.1, 45692.977, 0.00006493345, 9.999272, 9.999981 
4.0496114e+2, 1.4573547e+2, -1542553.1, -1521338.8, 125759.52, 0.34639934, -0.029417485, -1405739.9, 106058.3, 0.00002457309, 9.99974, 10.000083 
4.0496626e+2, 1.5573746e+2, -1610329.0, -1516317.8, 68402.55, 0.115440026, 0.12637404, -1480326.8, -66546.02, 0.000005781208, 9.998661, 9.9999695 
4.0497136e+2, 1.6573752e+2, -1507054.9, -1425317.8, -51846.28, 0.07148576, 0.14834423, -1400169.1, -84389.2, 0.0000003430959, 9.99875, 9.999874 
4.049754e+2, 1.7573617e+2, -1270976.4, -1265637.4, -75613.234, 0.06207527, -0.007893261, -1192646.5, 25144.877, 0.0, 9.999713, 9.999833 
4.0498134e+2, 1.8573576e+2, -1180281.5, -1231772.3, 50721.203, 0.053859655, 0.0017179621, -1149145.8, -29350.498, 0.0, 9.999941, 9.999278 
4.0498903e+2, 1.9573574e+2, -1138883.9, -1162532.6, 40428.254, 0.08488475, 0.042930633, -1108586.3, -86789.945, 0.0, 9.999551, 9.999277 
4.0499556e+2, 2.0573545e+2, -997643.9, -999207.6, -19709.813, 0.11934908, 0.07058507, -978700.44, -54902.14, 0.0, 9.999657, 9.999669 
4.0500104e+2, 2.1573474e+2, -836171.1, -880563.2, -32509.668, 0.13801199, 0.0019629544, -819002.94, 6799.748, 0.0, 10.000124, 9.99959 
4.0500662e+2, 2.2573413e+2, -772011.4, -853430.1, 19486.094, 0.13510925, 0.012794036, -767588.06, -39778.875, 0.0, 10.000141, 9.99909 
4.0501225e+2, 2.357333e+2, -718159.75, -775339.75, 41303.02, 0.1163601, -0.007893941, -696517.0, -66697.46, 0.0, 9.999822, 9.999111 
4.050179e+2, 2.457329e+2, -607112.2, -576996.25, 54754.94, 0.09366686, 0.0019323018, -535266.5, -3442.7832, 0.0, 9.999518, 9.999939 
4.050236e+2, 2.5573272e+2, -550371.75, -501744.47, 8119.9785, 0.068068035, -0.047701497, -500424.4, -66600.086, 0.0, 9.999253, 9.9999075 
4.05029e+2, 2.657327e+2, -397266.75, -462519.34, -17637.254, 0.049317624, 0.004682836, -392804.66, -56980.15, 0.0, 9.99999, 9.99915 
4.050342e+2, 2.7573255e+2, -93387.68, -274304.53, -35630.16, 0.041292995, 0.040546175, -86623.5, 151203.89, 0.0, 10.0014305, 9.999081 
4.0504038e+2, 2.857319e+2, -34254.016, -260294.47, 44976.12, 0.04425885, 0.10555411, -25633.695, 114201.02, 0.0000000008315615, 10.001459, 9.998488 
4.0504727e+2, 2.957307e+2, -81505.766, -234006.9, 67529.41, 0.061183915, 0.097886175, -55901.684, -14054.45, 0.0000007104038, 10.000463, 9.99847 
4.0505227e+2, 3.0572915e+2, -43328.203, -226952.3, -39395.688, 0.03071297, 0.1212114, -35232.93, -35232.93, 0.000009515816, 10.000557, 9.998161 
4.0505505e+2, 3.1572697e+2, 188357.45, 106997.8, 29313.309, -0.007946051, 0.046065062, 197818.61, 197818.61, 0.000039448827, 10.0011015, 10.0002 
4.1495094e+2, 1.2573159e+2, -2141154.0, -1879967.4, 147978.1, 0.08938623, 0.11338191, -1813197.8, -105365.32, 0.00012596608, 9.996791, 10.000399 
4.149531e+2, 1.3573137e+2, -1664592.4, -1578850.9, -32911.246, 0.021084728, -0.01649661, -1567674.9, 42159.31, 0.00006410072, 9.99935, 10.0005665 
4.1495797e+2, 1.4573117e+2, -1601346.1, -1633724.8, 71434.31, 0.014861029, -0.025742313, -1544289.6, -32451.668, 0.00002430965, 9.999714, 9.999321 
4.1496462e+2, 1.5573129e+2, -1669252.9, -1624380.8, 50142.953, 0.05005267, 0.023046773, -1591883.3, -178043.13, 0.0000053776803, 9.998613, 9.999248 
4.1497087e+2, 1.6573128e+2, -1556451.9, -1503900.0, -28905.754, 0.11500407, 0.0968603, -1491112.4, -175269.55, 0.0000002359893, 9.99865, 9.999379 
4.1497567e+2, 1.7573129e+2, -1310883.6, -1332519.9, -27614.178, 0.08229521, 0.12387525, -1292044.1, -74199.7, 0.0, 9.999647, 9.999402 
4.1498142e+2, 1.85731e+2, -1176613.6, -1203622.5, 21751.66, 0.03563979, 0.15130372, -1164515.3, -44668.2, 0.0, 9.999854, 9.999511 
4.1498828e+2, 1.9573012e+2, -1138522.6, -1136636.1, 39847.74, 0.022997553, 0.08165472, -1097720.5, -75866.914, 0.0, 9.999451, 9.9994955 
4.1499433e+2, 2.0572926e+2, -1020364.2, -1019704.8, -15277.882, 0.0018543463, 0.048119668, -1004753.06, -80893.21, 0.0, 9.999529, 9.999597 
4.1499957e+2, 2.1572824e+2, -860028.0, -886276.8, -5159.5635, -0.046819083, -0.046606004, -859050.25, -33182.527, 0.0, 9.999934, 9.999642 
4.1500542e+2, 2.257285e+2, -734005.56, -734853.7, -5657.4116, -0.023136446, 0.00047570115, -728756.3, -891.374, 0.0, 9.999971, 9.999987 
4.1501167e+2, 2.3572944e+2, -684501.7, -671987.06, 43160.688, 0.050558757, 0.0645371, -634632.44, -4775.7305, 0.0, 9.99968, 9.999889 
4.1501743e+2, 2.457298e+2, -676658.3, -701494.25, 33084.46, 0.06405164, 0.15608044, -653738.06, -121882.23, 0.0, 9.99943, 9.999125 
4.150228e+2, 2.557295e+2, -619812.75, -622369.8, 16889.008, 0.03185051, 0.17868409, -604153.94, -170291.36, 0.0, 9.999146, 9.99913 
4.15029e+2, 2.6572853e+2, -424024.6, -498987.13, 25607.355, 0.02130024, 0.1838737, -416112.22, -80239.625, 0.0, 9.999918, 9.998929 
4.150357e+2, 2.757268e+2, -121600.875, -303265.3, 25682.004, 0.01296797, 0.084911495, -118039.99, 119847.83, 0.0, 10.001315, 9.998932 
4.1504195e+2, 2.85726e+2, 25458.914, -139126.19, -8176.555, 0.021002734, 0.09742632, 25864.127, 165757.77, 0.00000000001177225, 10.001455, 9.9993305 
4.15048e+2, 2.9572588e+2, -40020.977, -128959.055, 49400.47, 0.045082755, 0.10924134, -18022.717, 23870.336, 0.0000013022876, 10.000369, 9.999244 
4.1505194e+2, 3.0572337e+2, -70992.74, -270790.5, -22915.291, -0.08921533, 0.015573577, -68398.23, -68398.23, 0.000014575742, 10.000515, 9.9978695 
4.1505614e+2, 3.1572124e+2, 151515.48, 67387.91, 62053.207, -0.0746734, -0.021157488, 184418.11, 184418.11, 0.000055427667, 10.000966, 9.999982 
4.249489e+2, 1.2572442e+2, -2002652.4, -1749265.5, 112056.125, 0.1877884, 0.08342824, -1706820.5, 1084.5313, 0.00012015749, 9.997452, 10.0009775 
4.2495245e+2, 1.3572589e+2, -1830214.5, -1601163.4, -145823.67, 0.09921752, 0.06398258, -1530268.8, 79620.805, 0.00006079175, 9.997964, 10.001074 
4.2495632e+2, 1.4572614e+2, -1752305.9, -1691594.5, -42205.418, -0.059740096, 0.070345595, -1669962.1, -158073.77, 0.00002257458, 9.998619, 9.999448 
4.2496356e+2, 1.5572537e+2, -1600260.8, -1575679.3, -35167.344, 0.074018754, 0.013302893, -1550716.8, -136817.72, 0.0000044461326, 9.999032, 9.999373 
4.2497033e+2, 1.6572535e+2, -1449710.1, -1460103.1, -376.08813, 0.1681034, 0.08853502, -1449696.5, -133795.05, 0.00000009724189, 9.999426, 9.999302 
4.2497554e+2, 1.7572594e+2, -1295569.3, -1333466.3, 3334.167, 0.105778016, 0.18064845, -1295278.1, -77380.29, 0.0, 9.999796, 9.999325 
4.2498156e+2, 1.857255e+2, -1181320.0, -1233519.4, 40690.125, 0.07037977, 0.20973036, -1159078.4, -39176.01, 0.0, 9.999925, 9.999281 
4.2498863e+2, 1.9572394e+2, -1096169.8, -1142281.9, -315.68478, 0.10141608, 0.09488424, -1096167.5, -74250.85, 0.0, 9.999833, 9.999281 
4.2499438e+2, 2.057231e+2, -987758.5, -983972.4, -23700.998, 0.0568039, 0.06373839, -962088.94, -38165.945, 0.0, 9.9996805, 9.999762 
4.2499897e+2, 2.1572264e+2, -923687.9, -902742.1, -25319.906, -0.067146584, 0.009574919, -885814.7, -59889.14, 0.0, 9.99944, 9.999768 
4.2500472e+2, 2.2572304e+2, -795273.3, -749330.5, -32075.34, -0.05610143, 0.060192954, -732849.25, -4928.3613, 0.0, 9.999494, 10.000113 
4.2501137e+2, 2.3572397e+2, -668142.44, -649622.8, -70660.31, 0.053911857, 0.10965051, -587618.2, 42294.21, 0.0, 9.9997425, 10.000008 
4.2501727e+2, 2.4572426e+2, -578943.75, -692420.44, -52125.598, 0.07177359, 0.20903872, -558634.6, -26721.807, 0.0, 10.000261, 9.998793 
4.2502272e+2, 2.557238e+2, -369574.56, -540187.5, -59063.727, 0.026782846, 0.2522404, -351123.06, 82799.65, 0.0, 10.001016, 9.998804 
4.2502934e+2, 2.657226e+2, -266578.34, -412961.34, 8569.841, 0.02026686, 0.24495949, -266078.34, 69856.25, 0.0, 10.000953, 9.999033 
4.250367e+2, 2.7572057e+2, -270781.78, -361276.66, 3560.7134, 0.044686764, 0.110583805, -270641.9, -32691.467, 0.0, 10.000237, 9.999058 
4.250429e+2, 2.857198e+2, -215506.13, -234064.31, -57024.348, 0.065599315, 0.11016195, -167010.84, -27055.426, 0.0000000012455732, 9.999741, 9.999487 
4.250485e+2, 2.957199e+2, -167078.4, -173077.73, -78442.89, 0.11555876, 0.12628376, -91577.85, -49624.16, 0.0000019825331, 9.999431, 9.999391 
4.2505234e+2, 3.057173e+2, -90390.12, -250077.98, -54611.16, -0.07303265, 0.0021084526, -73500.23, -73500.23, 0.000019679212, 10.000256, 9.998137 
4.2505825e+2, 3.1571573e+2, 285869.97, 149787.92, -32011.742, 0.012844268, -0.007276243, 293024.25, 293024.25, 0.00007104561, 10.001807, 10.000142 
4.3494472e+2, 1.2571423e+2, -1971601.3, -1663500.4, 72562.76, -0.044881277, -0.067704365, -1647266.0, 60741.535, 0.00011272219, 9.9973955, 10.001585 
4.3495262e+2, 1.3571872e+2, -1798640.4, -1533435.0, -108601.45, 0.2785091, 0.17589697, -1494638.4, 115326.59, 0.00005585788, 9.997971, 10.001535 
4.349557e+2, 1.4572033e+2, -1692708.9, -1558494.1, -36166.78, -0.027038042, 0.24879496, -1549368.8, -37418.547, 0.000019900395, 9.998569, 10.000389 
4.3496257e+2, 1.5571964e+2, -1530800.1, -1439730.5, -4117.769, 0.033250257, 0.10237386, -1439544.8, -25586.922, 0.0000034951138, 9.999052, 10.000301 
4.349693e+2, 1.6571964e+2, -1434996.0, -1409258.1, -573.03125, 0.08755966, 0.114970975, -1409245.4, -93288.05, 0.000000032016867, 9.999348, 9.999684 
4.349746e+2, 1.7572011e+2, -1284165.1, -1292369.5, 29449.01, -0.0005438542, 0.15746571, -1258534.0, -40582.22, 0.0, 9.999727, 9.999637 
4.3498135e+2, 1.857193e+2, -1248014.8, -1343714.4, 24671.111, 0.027893696, 0.17370763, -1242029.0, -122067.64, 0.0, 9.999806, 9.998583 
4.349897e+2, 1.9571733e+2, -1156155.1, -1238037.9, 11061.772, 0.1933936, 0.08713604, -1154687.1, -132702.61, 0.0, 9.999715, 9.998682 
4.3499535e+2, 2.0571707e+2, -988069.4, -948337.2, -46014.734, 0.1581449, 0.12254223, -918083.25, 5903.8545, 0.0, 9.999525, 10.000079 
4.3499878e+2, 2.1571787e+2, -930775.44, -880769.3, -19935.648, -0.05617592, 0.16129532, -873794.56, -47817.953, 0.0, 9.999284, 9.999992 
4.3500412e+2, 2.2571783e+2, -865734.7, -859403.9, -35193.035, -0.09348338, 0.19497168, -827234.2, -99257.96, 0.0, 9.999338, 9.999432 
4.3501082e+2, 2.3571692e+2, -733398.06, -749287.06, -46097.367, 0.0006727795, 0.12845422, -694565.6, -64579.547, 0.0, 9.999587, 9.999397 
4.3501708e+2, 2.4571633e+2, -591708.94, -692452.8, -36821.402, 0.00028463217, 0.16534019, -579685.8, -47691.53, 0.0, 10.000154, 9.998838 
4.3502298e+2, 2.557158e+2, -382006.1, -536410.1, -20241.902, -0.081488065, 0.18905833, -379396.53, 54606.773, 0.0, 10.0008955, 9.998882 
4.3502957e+2, 2.657151e+2, -242122.05, -352666.44, -29676.36, -0.077065274, 0.20442481, -234659.06, 101349.71, 0.0, 10.000907, 9.999471 
4.3503666e+2, 2.7571395e+2, -255547.88, -311497.6, -6063.6323, -0.016595563, 0.114528365, -254898.27, -16883.783, 0.0, 10.000152, 9.999443 
4.3504268e+2, 2.8571332e+2, -263257.3, -320463.06, -80153.75, 0.038517486, 0.13717915, -206755.84, -66735.7, 0.000000012355592, 9.999698, 9.998909 
4.3504846e+2, 2.9571283e+2, -217569.78, -260268.36, -69658.32, 0.12888767, 0.15796185, -166062.55, -124034.86, 0.0000027662056, 9.999363, 9.998822 
4.3505308e+2, 3.057109e+2, -37280.996, -140871.38, -4362.8716, -0.054589223, 0.09004184, -37097.57, -37097.57, 0.000024180765, 10.000254, 9.998888 
4.3506044e+2, 3.1571025e+2, 290841.13, 187769.6, 461.97842, -0.021013973, 0.09080074, 290843.2, 290843.2, 0.00008333817, 10.001691, 10.000459 
4.4494277e+2, 1.2570655e+2, -1915085.6, -1632072.0, 152594.61, 0.018332101, -0.069074064, -1565470.0, 142613.36, 0.00010688196, 9.997809, 10.00159 
4.4495168e+2, 1.3571076e+2, -1787941.9, -1530066.5, -68678.336, 0.3999787, 0.15437397, -1512916.4, 97128.31, 0.000051033883, 9.998076, 10.001513 
4.4495377e+2, 1.4571278e+2, -1681092.3, -1507738.4, -3704.7126, -0.05661723, 0.248117, -1507659.3, 4366.5913, 0.000017295639, 9.9984455, 10.000796 
4.4496167e+2, 1.5571292e+2, -1593325.1, -1424298.3, -52379.848, 0.07860837, 0.14061794, -1409382.5, 4641.929, 0.0000027656245, 9.9984255, 10.000707 
4.4496903e+2, 1.6571291e+2, -1482372.0, -1414354.0, -26034.756, 0.15587726, 0.1210654, -1405532.9, -89509.69, 0.000000035556127, 9.998915, 9.999876 
4.449745e+2, 1.7571266e+2, -1255740.0, -1258625.4, -36221.4, 0.02219034, 0.07437201, -1220932.6, -2909.261, 0.0, 9.99982, 9.999834 
4.4498113e+2, 1.857123e+2, -1222670.3, -1313621.8, -17326.191, 0.02995221, 0.117758185, -1219481.5, -99452.016, 0.0, 9.999924, 9.998719 
4.4498923e+2, 1.9571151e+2, -1200962.6, -1245005.5, 842.93, 0.20590506, 0.13668102, -1200946.5, -178903.23, 0.0, 9.999357, 9.998795 
4.4499505e+2, 2.0571141e+2, -1009151.25, -955084.2, -2061.622, 0.1900408, 0.18304071, -955005.7, -30960.861, 0.0, 9.999383, 10.000094 
4.449989e+2, 2.157116e+2, -851518.2, -840815.75, -24772.07, 0.008105686, 0.16157085, -820823.5, 5216.07, 0.0, 9.99983, 9.999996 
4.4500437e+2, 2.2571123e+2, -754642.75, -842705.7, -793.4388, -0.03917713, 0.17770661, -754635.56, -26593.56, 0.0, 10.0002575, 9.999102 
4.450111e+2, 2.3571016e+2, -606206.94, -728238.7, -13861.651, 0.024973975, 0.1293871, -604652.2, 25400.95, 0.0, 10.000628, 9.999041 
4.450175e+2, 2.4570915e+2, -559443.6, -702756.8, 12087.991, 0.015965633, 0.15095352, -558431.2, -26366.098, 0.0, 10.000483, 9.99861 
4.4502363e+2, 2.5570798e+2, -538260.94, -632504.56, -20092.281, -0.049822524, 0.13724995, -534156.1, -100076.65, 0.0, 9.999915, 9.9986925 
4.4503027e+2, 2.6570734e+2, -377669.13, -388938.25, -31462.598, -0.036799565, 0.15307255, -351340.53, -15256.293, 0.0, 9.999859, 9.999718 
4.4503725e+2, 2.7570683e+2, -225347.81, -275684.38, -51440.813, 0.02706839, 0.09909888, -193248.31, 44836.16, 0.0, 10.000269, 9.99963 
4.4504303e+2, 2.8570637e+2, -141239.4, -296754.94, -89856.5, 0.062073406, 0.14983198, -100167.625, 39921.39, 0.00000003062236, 10.000673, 9.9986105 
4.450487e+2, 2.957057e+2, -11377.288, -183185.42, -91742.06, 0.14514986, 0.18555778, 28401.244, 70500.33, 0.0000032986038, 10.00089, 9.9986105 
4.450541e+2, 3.0570382e+2, 41409.305, -105417.3, 18387.209, 0.0073484015, 0.13006744, 43676.926, 43676.926, 0.000027227657, 10.000801, 9.998859 
4.450623e+2, 3.1570342e+2, 131726.66, 104516.375, -130084.24, 0.062886514, 0.15897757, 248915.3, 248915.3, 0.000091368296, 10.000635, 10.000382 
4.5494196e+2, 1.2570141e+2, -1966140.3, -1739644.1, 38004.367, 0.0813371, 0.06593508, -1733437.4, -25305.15, 0.000102696926, 9.997813, 10.000848 
4.549491e+2, 1.3570192e+2, -1821675.3, -1618223.6, -37999.566, 0.29686928, -0.013642754, -1611358.0, -1228.4934, 0.000047349753, 9.998134, 10.000887 
4.5495012e+2, 1.4570323e+2, -1698833.6, -1529144.5, -10443.216, -0.3066891, 0.044483587, -1528504.1, -16386.4, 0.000015080613, 9.99839, 10.000671 
4.5496053e+2, 1.557051e+2, -1607826.3, -1446083.6, -35564.02, 0.08219445, 0.12480184, -1438609.1, -24509.078, 0.0000021144335, 9.998397, 10.000568 
4.549691e+2, 1.6570508e+2, -1483099.3, -1403672.0, -9101.755, 0.24091072, 0.10671662, -1402642.4, -86542.78, 0.00000004449902, 9.998857, 9.999977 
4.549749e+2, 1.7570359e+2, -1247171.6, -1239518.3, 8422.751, 0.04397337, -0.075830504, -1234093.6, -15980.739, 0.0, 9.999805, 9.999973 
4.5498052e+2, 1.8570438e+2, -1174323.9, -1190582.0, -52308.625, -0.050676607, 0.028821794, -1129516.5, -9408.746, 0.0, 9.99983, 9.999604 
4.5498687e+2, 1.957065e+2, -1166365.9, -1139890.6, -6515.5728, 0.0035563381, 0.24900752, -1138374.0, -116281.45, 0.0, 9.999219, 9.999578 
4.54993e+2, 2.0570621e+2, -1051455.3, -1008424.4, 552.1749, 0.02319636, 0.25608313, -1008417.3, -84321.85, 0.0, 9.999229, 9.9998045 
4.5499885e+2, 2.157039e+2, -894984.2, -885900.1, 5679.259, -0.009442521, 0.013016099, -883170.0, -57056.3, 0.0, 9.999639, 9.999777 
4.5500514e+2, 2.257033e+2, -779125.5, -857791.9, 1429.4856, -0.015494836, 0.01620934, -779099.56, -50981.98, 0.0, 10.000097, 9.999081 
4.550117e+2, 2.357037e+2, -627749.8, -741724.2, 12661.4795, -0.008195635, 0.1147321, -626360.2, 3753.074, 0.0, 10.000489, 9.999017 
4.5501804e+2, 2.4570271e+2, -612724.2, -780822.56, -21592.078, -0.0051499233, 0.16698273, -609995.0, -77870.12, 0.0, 10.000352, 9.998139 
4.5502427e+2, 2.5570038e+2, -586495.7, -701998.4, -23594.932, -0.0043126787, 0.087699555, -581861.6, -147710.14, 0.0, 9.9997835, 9.998283 
4.5503104e+2, 2.656993e+2, -393199.2, -402034.34, -26293.037, 0.02363104, 0.081406824, -370955.22, -34793.23, 0.0, 9.999782, 9.9996605 
4.5503798e+2, 2.7569908e+2, -247240.16, -295218.06, -17916.691, 0.045503583, 0.05601795, -241287.88, -3126.4827, 0.0, 10.000161, 9.999541 
4.5504355e+2, 2.85699e+2, -145414.1, -299602.0, -93880.85, 0.012982912, 0.15340121, -101029.27, 39132.28, 0.000000022691747, 10.000636, 9.998612 
4.5504862e+2, 2.9569855e+2, -12677.431, -180793.16, -70255.695, 0.010614119, 0.20612885, 12816.461, 54984.453, 0.0000033720132, 10.000844, 9.99866 
4.550549e+2, 3.0569598e+2, -16122.441, -212542.36, 4262.3887, -0.02523453, 0.11388281, -16029.989, -16029.989, 0.000028360193, 10.000766, 9.998131 
4.5506322e+2, 3.1569493e+2, 83290.375, 25320.049, -132503.58, 0.022137595, 0.15290782, 189942.0, 189942.0, 0.00009465621, 10.000548, 9.999876 
4.6494028e+2, 1.2569588e+2, -1998448.5, -1775726.8, 5623.976, 0.15281534, 0.13850793, -1775584.9, -67396.3, 0.00009773488, 9.99764, 10.000683 
4.6494755e+2, 1.3569573e+2, -1672985.4, -1568452.9, 40498.9, 0.29105878, 0.00030219663, -1554598.6, 55591.434, 0.000043477085, 9.999207, 10.000719 
4.6494862e+2, 1.4569634e+2, -1528354.4, -1497899.8, 67111.76, -0.35394353, 0.018102916, -1444309.5, 67875.48, 0.000012657647, 9.999776, 10.000223 
4.6495947e+2, 1.5569754e+2, -1503329.4, -1437523.1, -16507.055, 0.10402601, 0.07823684, -1433614.5, -19440.244, 0.0000014631825, 9.999296, 10.000197 
4.6496832e+2, 1.6569792e+2, -1450824.3, -1343459.8, 65928.46, 0.28373078, 0.09497877, -1312122.3, 4048.4565, 0.000000030371112, 9.998906, 10.000356 
4.6497446e+2, 1.7569749e+2, -1391956.0, -1265027.6, 72570.55, 0.085063055, -0.01817924, -1232085.4, -13911.21, 0.0, 9.998635, 10.000357 
4.6498e+2, 1.856985e+2, -1286367.5, -1191483.9, 16830.982, -0.026832715, 0.06323333, -1188586.8, -68421.18, 0.0, 9.998808, 10.000104 
4.6498588e+2, 1.9570027e+2, -1127866.5, -1073983.8, 12951.551, -0.011309615, 0.19834629, -1071032.4, -48881.445, 0.0, 9.999256, 10.000027 
4.6499252e+2, 2.0570001e+2, -981774.06, -1038042.0, 52329.793, 0.021368505, 0.21639651, -950494.8, -26341.023, 0.0, 9.999967, 9.999249 
4.649996e+2, 2.1569799e+2, -754283.5, -882546.25, 2462.2935, 0.04545129, 0.05674292, -754236.25, 71936.336, 0.0, 10.00087, 9.999213 
4.6500608e+2, 2.256971e+2, -707639.2, -828816.1, -23917.049, 0.05347555, 0.061835043, -703089.44, 25090.53, 0.0, 10.000625, 9.999013 
4.650122e+2, 2.3569685e+2, -771675.7, -816236.0, -43931.55, 0.049496096, 0.10350356, -744697.5, -114516.52, 0.0, 9.999536, 9.998957 
4.6501845e+2, 2.4569584e+2, -686360.3, -789736.06, -895.3349, 0.04367826, 0.14257371, -686352.56, -154161.14, 0.0, 9.999719, 9.998381 
4.6502498e+2, 2.55694e+2, -418686.4, -602491.2, 22197.959, 0.042946097, 0.08463894, -416043.56, 18168.094, 0.0, 10.000847, 9.99845 
4.650318e+2, 2.656928e+2, -268898.1, -420194.8, 23489.17, 0.072490305, 0.094648294, -265335.25, 70889.234, 0.0, 10.000952, 9.998985 
4.650387e+2, 2.7569196e+2, -285979.1, -383033.0, -35255.086, 0.107361294, 0.07750375, -274524.5, -36291.383, 0.0, 10.000182, 9.998939 
4.6504417e+2, 2.8569168e+2, -198745.64, -299215.8, -66544.98, 0.04460913, 0.17114356, -165603.28, -25368.5, 0.00000001636591, 10.000162, 9.99884 
4.6504924e+2, 2.9569137e+2, 3127.1782, -135361.34, -70703.27, -0.0015565042, 0.21219961, 32846.15, 75082.555, 0.0000038591365, 10.000803, 9.9989805 
4.6505657e+2, 3.056883e+2, 33078.17, -224427.28, 44010.15, 0.054622196, 0.06618165, 40392.184, 40392.184, 0.000029778155, 10.001216, 9.997869 
4.6506497e+2, 3.1568727e+2, 145760.9, -19201.053, -119470.43, 0.122738324, 0.14788257, 208456.7, 208456.7, 0.00009717631, 10.001279, 9.999242 
4.7493652e+2, 1.256898e+2, -1979500.4, -1696579.0, -102870.68, -0.063293226, 0.14666839, -1663129.8, 45124.215, 0.00009217974, 9.997509, 10.001271 
4.749467e+2, 1.3569221e+2, -1640417.8, -1494479.9, 117041.57, 0.24941981, 0.20561956, -1429524.3, 180702.36, 0.00003847725, 9.999205, 10.001214 
4.7494885e+2, 1.4569212e+2, -1582052.6, -1607556.1, 35159.746, -0.35738578, 0.1743131, -1557403.6, -45176.855, 0.000009911169, 9.999754, 9.999488 
4.7495803e+2, 1.5569025e+2, -1540157.4, -1522969.8, -20674.63, -0.006189302, -0.0052054552, -1509174.0, -94926.67, 0.0000009593812, 9.999321, 9.999606 
4.7496632e+2, 1.6569133e+2, -1415779.0, -1256549.8, 41865.383, 0.15656063, 0.074736185, -1246213.3, 70024.31, 0.000000014696447, 9.998848, 10.000984 
4.749728e+2, 1.7569433e+2, -1359714.8, -1184832.9, 79813.56, 0.02687484, 0.24770693, -1153884.1, 64323.824, 0.0, 9.99858, 10.000937 
4.749791e+2, 1.8569472e+2, -1284440.9, -1166303.4, 21752.225, -0.030707171, 0.22942078, -1162425.5, -42222.895, 0.0, 9.998713, 10.000325 
4.749858e+2, 1.9569285e+2, -1129939.5, -1060468.8, 46354.254, 0.027678244, -0.019398643, -1037279.5, -15061.334, 0.0, 9.999171, 10.000166 
4.749931e+2, 2.0569281e+2, -1063327.1, -1172965.6, 74087.4, 0.057446063, 0.059615687, -1025982.94, -101762.5, 0.0, 9.999826, 9.998385 
4.7500068e+2, 2.1569389e+2, -836903.94, -1010877.06, 45801.477, 0.041776534, 0.29675418, -825582.6, 632.83386, 0.0, 10.000692, 9.998412 
4.750069e+2, 2.2569266e+2, -737412.5, -863588.2, -77754.625, 0.04402289, 0.31229854, -700371.1, 27857.572, 0.0, 10.000494, 9.998847 
4.750122e+2, 2.3568945e+2, -798452.2, -839884.75, -65011.72, 0.06739459, 0.076187044, -750935.9, -120678.12, 0.0, 9.999391, 9.99887 
4.7501838e+2, 2.4568838e+2, -637668.1, -663983.3, 30762.021, 0.033339344, 0.06377616, -617367.94, -85101.8, 0.0, 9.999608, 9.999299 
4.750253e+2, 2.5568867e+2, -384499.34, -507134.13, 75153.68, -0.0428348, 0.12700379, -348822.4, 85438.85, 0.0, 10.000729, 9.9991665 
4.750322e+2, 2.656877e+2, -367773.4, -600992.25, -18568.79, -0.011851437, 0.19346254, -366304.25, -30031.656, 0.0, 10.000856, 9.997785 
4.750389e+2, 2.756855e+2, -375290.25, -543699.8, -44565.184, 0.07412575, 0.15891601, -364224.34, -125924.88, 0.0, 10.000087, 9.997877 
4.750445e+2, 2.8568435e+2, -175858.28, -250744.55, -56639.86, 0.029788598, 0.19330397, -145403.98, -5094.7935, 0.0000000367379, 10.000148, 9.999184 
4.7505e+2, 2.9568386e+2, 14429.967, -96872.15, -32528.863, -0.047017742, 0.18294944, 23239.496, 65546.836, 0.000004901276, 10.000716, 9.999297 
4.7505867e+2, 3.0568057e+2, 39409.42, -188510.23, 32396.244, 0.11906175, -0.017294032, 43924.734, 43924.734, 0.000032907166, 10.001135, 9.998144 
4.7506666e+2, 3.1568035e+2, 87287.016, -123992.53, -75788.96, 0.08911798, 0.12976784, 111661.58, 111661.58, 0.00010232853, 10.00122, 9.99854 
4.8493397e+2, 1.256841e+2, -2008303.1, -1682676.3, -113594.445, -0.03727478, 0.19254383, -1646965.4, 61347.32, 0.00008688649, 9.997186, 10.00154 
4.8494592e+2, 1.3568598e+2, -1649110.9, -1483354.3, 122902.99, 0.26956525, 0.18951337, -1417996.4, 192291.81, 0.000032757685, 9.999068, 10.001376 
4.8494992e+2, 1.4568606e+2, -1578260.4, -1593844.6, 26540.234, -0.21308112, 0.16227658, -1558392.0, -46105.945, 0.000007215262, 9.999736, 9.999585 
4.8495767e+2, 1.5568468e+2, -1499968.1, -1497584.0, -7017.3076, 0.023060756, 0.022661515, -1491658.3, -77356.15, 0.00000059770906, 9.999572, 9.999658 
4.8496512e+2, 1.656858e+2, -1371083.3, -1250599.1, 78672.586, 0.14322186, 0.1115339, -1211753.0, 104539.25, 0.0000000048834687, 9.999228, 10.000838 
4.8497164e+2, 1.7568855e+2, -1343766.3, -1190821.5, 38886.527, 0.052899126, 0.2700689, -1181502.3, 36763.277, 0.0, 9.998765, 10.000794 
4.8497847e+2, 1.8568857e+2, -1232012.3, -1169691.6, 3033.3896, 0.01771713, 0.2361277, -1169544.4, -49280.633, 0.0, 9.999211, 10.000049 
4.8498595e+2, 1.956863e+2, -979978.75, -1008946.25, -36127.12, 0.07426959, -0.030917307, -955540.1, 66742.73, 0.0, 10.000314, 9.99995 
4.8499346e+2, 2.056861e+2, -983971.0, -1122270.6, 16110.166, 0.09431304, 0.03823742, -982119.1, -57833.438, 0.0, 10.000305, 9.998521 
4.85001e+2, 2.1568725e+2, -1030901.1, -1088515.0, 43527.96, 0.085653424, 0.26817325, -1007511.1, -181232.2, 0.0, 9.9992895, 9.998565 
4.850072e+2, 2.2568609e+2, -882902.2, -956747.75, -19475.188, 0.0784688, 0.29462913, -878080.8, -149788.7, 0.0, 9.999597, 9.998639 
4.8501235e+2, 2.356829e+2, -590416.75, -766163.9, -38270.734, 0.075492375, 0.083937384, -582444.5, 47878.625, 0.0, 10.000919, 9.998645 
4.8501873e+2, 2.4568188e+2, -444648.7, -572202.1, 42257.875, 0.050729968, 0.08719119, -431919.22, 100412.47, 0.0, 10.000938, 9.9992895 
4.850261e+2, 2.5568235e+2, -505110.3, -562701.06, -13161.194, 0.014866043, 0.17027235, -502245.16, -67920.61, 0.0, 9.999907, 9.999177 
4.8503292e+2, 2.6568133e+2, -492073.22, -658060.2, -54309.57, 0.02671566, 0.22876117, -475882.8, -139547.2, 0.0, 9.999983, 9.997815 
4.850392e+2, 2.7567875e+2, -253786.86, -484550.8, -17731.91, 0.066613585, 0.15581733, -252432.28, -14067.292, 0.0, 10.000905, 9.997894 
4.8504496e+2, 2.856771e+2, -59668.082, -216287.31, 16900.186, 0.021974143, 0.14893691, -57865.2, 82514.1, 0.00000008825205, 10.001031, 9.998997 
4.8505074e+2, 2.9567632e+2, -27540.26, -137723.84, -33333.54, -0.020731075, 0.12757295, -18240.822, 24139.879, 0.0000056092463, 10.000514, 9.999112 
4.8506021e+2, 3.0567375e+2, 7047.037, -162994.31, 67849.836, 0.19260572, -0.010285508, 30801.889, 30801.889, 0.000035389916, 10.000733, 9.998503 
4.8506814e+2, 3.1567347e+2, 114494.73, -133084.92, -65089.004, 0.11646484, 0.09478656, 130563.76, 130563.76, 0.00010599746, 10.001496, 9.99834 
4.9493116e+2, 1.2567864e+2, -2006931.0, -1691347.5, -185195.44, -0.11570894, 0.28053448, -1605837.9, 102527.77, 0.00007926606, 9.997233, 10.001456 
4.9494457e+2, 1.3567694e+2, -1655610.6, -1501957.6, 199869.02, 0.19886708, -0.06291356, -1364658.1, 245717.78, 0.000026309035, 9.999085, 10.001239 
4.9495152e+2, 1.4567806e+2, -1530199.8, -1477039.9, 4883.1997, -0.06983867, -0.025037274, -1476595.1, 35768.348, 0.0000047383246, 9.999664, 10.000422 
4.9495792e+2, 1.5568092e+2, -1453304.8, -1395358.1, 833.99316, 0.054294504, 0.17630163, -1395346.1, 18991.447, 0.0000002991547, 9.99955, 10.000369 
4.9496433e+2, 1.6568145e+2, -1436733.1, -1377441.9, 46086.957, 0.10878316, 0.22050917, -1352289.0, -35955.7, 0.0000000005507737, 9.999182, 9.999991 
4.9497062e+2, 1.7568003e+2, -1408500.5, -1315466.1, 36545.605, 0.041959647, 0.045073837, -1302827.4, -84479.49, 0.0, 9.998719, 9.999963 
4.9497777e+2, 1.8567991e+2, -1299726.0, -1285823.8, 32135.336, -0.0010046466, 0.0764273, -1259896.4, -139546.25, 0.0, 9.999112, 9.999297 
4.949858e+2, 1.9568051e+2, -1037184.9, -1106608.8, 11027.287, -0.0047637867, 0.17191322, -1035475.4, -13129.541, 0.0, 10.00022, 9.999327 
4.9499318e+2, 2.0567991e+2, -915217.4, -949228.8, -37887.7, 0.014864143, 0.15882812, -890693.94, 33655.836, 0.0, 10.000167, 9.999779 
4.9500018e+2, 2.156781e+2, -970512.75, -936101.0, 25302.322, 0.046678383, -0.028497502, -922708.7, -96346.37, 0.0, 9.999158, 9.9996805 
4.9500647e+2, 2.2567731e+2, -931184.2, -1017043.06, 20093.723, 0.020015202, 0.0019612191, -926714.3, -198343.48, 0.0, 9.999435, 9.998297 
4.9501225e+2, 2.3567708e+2, -640398.8, -830061.94, 22606.848, -0.05616921, 0.11685678, -637741.44, -7363.294, 0.0, 10.0007515, 9.998284 
4.9501914e+2, 2.4567632e+2, -528830.06, -717257.56, -9471.037, -0.031906813, 0.21445818, -528355.2, 4032.7324, 0.0, 10.000818, 9.998349 
4.9502692e+2, 2.5567484e+2, -574793.25, -685308.9, -31776.176, 0.072339624, 0.19945084, -566308.25, -131905.48, 0.0, 9.999808, 9.998383 
4.9503356e+2, 2.656734e+2, -418655.25, -482207.7, -34145.78, 0.062001, 0.18347478, -403787.47, -67371.73, 0.0, 9.999892, 9.99906 
4.9503922e+2, 2.7567166e+2, -198823.27, -333834.75, 28738.73, -0.054027062, 0.06900048, -192960.48, 45469.57, 0.0, 10.000759, 9.998994 
4.9504495e+2, 2.8567016e+2, -116630.18, -318937.5, -13749.824, -0.11335627, 0.061787706, -115699.95, 24742.992, 0.00000018947561, 10.000966, 9.9983225 
4.9505115e+2, 2.9566875e+2, -79700.71, -234640.75, -31757.805, -0.07533083, 0.050332703, -73444.016, -30988.203, 0.000005650319, 10.000467, 9.9984665 
4.9506092e+2, 3.056678e+2, 40355.652, -95217.66, 89141.27, 0.15787843, 0.08043018, 84556.484, 84556.484, 0.00003451672, 10.000733, 9.998969 
4.9506837e+2, 3.1566674e+2, 122385.695, -98207.805, 30346.615, -0.08324505, 0.0499152, 126484.266, 126484.266, 0.00010176044, 10.001414, 9.998616 
5.0493056e+2, 1.2567186e+2, -1759365.1, -1621270.0, -149500.16, 0.020978728, 0.21871592, -1525642.5, 182787.83, 0.000066640154, 9.999175, 10.000982 
5.049426e+2, 1.356705e+2, -1759066.3, -1617736.4, 180939.19, 0.12899679, -0.028172107, -1494152.8, 116288.84, 0.0000195532, 9.998658, 10.0006485 
5.0495195e+2, 1.456718e+2, -1698007.5, -1497383.0, -28846.926, 0.08927916, 0.029541938, -1493317.5, 19110.256, 0.0000028130235, 9.998267, 10.000948 
5.049572e+2, 1.5567486e+2, -1591289.8, -1402961.0, -90349.09, 0.09715942, 0.19901519, -1366626.8, 47770.746, 0.00000011765629, 9.998372, 10.000875 
5.0496316e+2, 1.6567525e+2, -1493356.0, -1431093.1, 8139.612, 0.09821252, 0.21419846, -1430046.6, -113652.7, 0.000000000026416515, 9.998895, 9.999766 
5.0497e+2, 1.7567329e+2, -1286343.3, -1282902.8, 19178.61, 0.0691304, 0.01072847, -1265367.4, -46953.85, 0.0, 9.999657, 9.999741 
5.0497764e+2, 1.856732e+2, -1215922.1, -1265813.0, 95123.74, 0.052027676, 0.064310074, -1142527.4, -22111.084, 0.0, 9.999769, 9.999125 
5.049861e+2, 1.9567427e+2, -1176582.3, -1190811.1, 93945.805, 0.057575174, 0.22868149, -1089481.9, -67073.32, 0.0, 9.999339, 9.999176 
5.0499344e+2, 2.0567356e+2, -982599.7, -958198.5, 23360.992, 0.056626007, 0.20164104, -944044.0, -19630.457, 0.0, 9.999628, 9.999955 
5.0499994e+2, 2.1567118e+2, -784487.06, -825847.1, -27442.004, 0.054987654, -0.061308723, -770805.4, 55625.26, 0.0, 10.000374, 9.999833 
5.050064e+2, 2.2567052e+2, -768035.1, -939142.75, -2892.1313, 0.019314174, -0.024398733, -767986.25, -39548.535, 0.0, 10.000546, 9.998306 
5.050128e+2, 2.3567098e+2, -727309.44, -865616.7, -4868.26, -0.035976484, 0.1593857, -727138.3, -96699.625, 0.0, 10.000145, 9.998326 
5.0501984e+2, 2.456701e+2, -627621.25, -774984.6, 12595.979, 0.0008479788, 0.24324997, -626552.4, -94102.625, 0.0, 10.000176, 9.998265 
5.050275e+2, 2.5566778e+2, -466002.9, -639699.0, 30203.656, 0.121621884, 0.15281008, -460900.75, -26428.895, 0.0, 10.000583, 9.998324 
5.050341e+2, 2.656663e+2, -315565.72, -415466.25, 58976.363, 0.102510296, 0.13022232, -288229.25, 48255.023, 0.0, 10.000518, 9.999228 
5.050397e+2, 2.7566525e+2, -300995.7, -368869.97, 6213.8135, -0.034926265, 0.06897255, -300431.5, -61939.96, 0.00000000061010413, 9.999987, 9.99913 
5.050458e+2, 2.8566396e+2, -257339.08, -400970.5, -23392.436, -0.071323305, 0.08239635, -253625.3, -113121.54, 0.00000027597625, 10.000067, 9.998194 
5.050525e+2, 2.9566237e+2, -70604.67, -247638.4, -35627.746, 0.015514643, 0.06718252, -63703.66, -21182.627, 0.0000049916057, 10.000611, 9.998314 
5.0506234e+2, 3.0566204e+2, 69742.984, -66317.19, 132108.17, 0.23393694, 0.16498801, 150308.52, 150308.52, 0.000030276777, 10.000868, 9.999108 
5.050688e+2, 3.1566063e+2, 56603.46, -53006.48, 22908.877, -0.13175122, 0.072370276, 61198.84, 61198.84, 0.000090633286, 10.0006275, 9.99931 
5.1493114e+2, 1.256639e+2, -1821018.8, -1763568.3, -202415.8, 0.08394721, 0.01636656, -1587849.6, 120655.78, 0.000052165007, 9.99922, 9.9999895 
5.1493955e+2, 1.3566679e+2, -1826733.4, -1770122.0, 173856.67, -0.07410969, 0.30084378, -1622281.9, -11798.321, 0.000013925394, 9.998702, 9.999584 
5.149509e+2, 1.4566737e+2, -1689500.4, -1474280.8, -44708.39, 0.111518875, 0.33087987, -1465362.9, 47115.344, 0.000001645238, 9.99824, 10.001123 
5.1495516e+2, 1.5566641e+2, -1582460.8, -1376252.9, -68916.22, 0.020341879, 0.080015115, -1355341.3, 59141.69, 0.00000003629146, 9.998333, 10.001081 
5.1496124e+2, 1.6566701e+2, -1479133.9, -1379371.5, 26015.857, -0.01743498, 0.085250854, -1372994.8, -56519.582, 0.0, 9.998803, 10.00016 
5.149692e+2, 1.7566843e+2, -1267507.1, -1231113.3, 59523.516, -0.0036572295, 0.17553188, -1187067.3, 31394.348, 0.0, 9.999608, 10.0001135 
5.1497763e+2, 1.8566862e+2, -1195473.8, -1205471.4, 65648.8, 0.044322506, 0.21688893, -1134633.8, -14173.61, 0.0, 9.999689, 9.999573 
5.1498646e+2, 1.9566764e+2, -1160178.9, -1144908.6, 95816.06, 0.12280799, 0.1269908, -1056424.0, -33953.473, 0.0, 9.999276, 9.999522 
5.149937e+2, 2.0566694e+2, -1082952.1, -1128515.4, 38494.83, 0.09487817, 0.14613852, -1061002.8, -136524.64, 0.0, 9.999465, 9.998865 
5.1499987e+2, 2.156663e+2, -872476.3, -975466.44, 10569.051, -0.015481308, 0.1575524, -871402.9, -44917.086, 0.0, 10.000225, 9.998879 
5.150066e+2, 2.2566554e+2, -758707.5, -890604.5, -33943.035, -0.03835103, 0.20842691, -750485.06, -21990.6, 0.0, 10.000415, 9.998708 
5.150136e+2, 2.356645e+2, -717203.6, -815242.9, -4296.263, -0.006270558, 0.20230052, -717015.7, -86509.81, 0.0, 10.000012, 9.99874 
5.1502043e+2, 2.4566306e+2, -582505.0, -659937.5, 14813.862, 0.010895363, 0.16978459, -579767.7, -47249.87, 0.0, 10.000085, 9.999097 
5.150274e+2, 2.5566107e+2, -433141.8, -543484.7, 59153.03, 0.016910635, 0.024925772, -407424.63, 27107.656, 0.0, 10.000456, 9.999048 
5.15034e+2, 2.656601e+2, -393166.03, -556763.25, 25589.377, 0.014411464, 0.067478664, -389256.84, -52715.508, 0.0, 10.000437, 9.998299 
5.150403e+2, 2.7565947e+2, -370619.97, -497739.66, 8990.79, -0.0053167245, 0.14785111, -369987.25, -131437.03, 0.0000000018853024, 9.99991, 9.99829 
5.150471e+2, 2.8565845e+2, -238381.11, -352492.75, -16242.144, 0.013197807, 0.20917721, -236114.3, -95551.875, 0.00000034894228, 10.000033, 9.998538 
5.150542e+2, 2.95657e+2, -63990.176, -216445.89, 3167.136, 0.08160043, 0.16943008, -63924.41, -21346.248, 0.000004315403, 10.000531, 9.998565 
5.150639e+2, 3.0565643e+2, 53822.17, -84980.875, 116294.88, 0.2729309, 0.23731571, 119849.86, 119849.86, 0.000026122347, 10.000825, 9.998999 
5.1506853e+2, 3.1565455e+2, 113785.76, 95695.82, 91864.44, -0.28453085, 0.11462838, 197049.44, 197049.44, 0.000081293096, 10.000516, 10.000383 
5.2493167e+2, 1.2565786e+2, -1693000.8, -1749815.8, -156924.02, 0.16507748, 0.033445653, -1561933.8, 146630.16, 0.000041919076, 10.000302, 9.999556 
5.249378e+2, 1.3566028e+2, -1772594.4, -1793875.4, 142841.77, -0.136391, 0.3182739, -1639997.4, -29448.795, 0.000010470756, 9.999297, 9.9991255 
5.2495086e+2, 1.4566036e+2, -1626652.3, -1445757.4, 14263.618, 0.27260873, 0.32175365, -1444639.5, 67908.77, 0.0000009776196, 9.998678, 10.001107 
5.249538e+2, 1.5565951e+2, -1493214.8, -1332239.4, -53570.42, 0.03303187, 0.08147003, -1316041.8, 98509.06, 0.000000005050013, 9.998939, 10.001087 
5.2495974e+2, 1.656601e+2, -1430829.6, -1358256.3, 57519.727, -0.0525607, 0.08557523, -1326533.8, -9990.931, 0.0, 9.99914, 10.000151 
5.2496886e+2, 1.7566137e+2, -1317464.5, -1255334.0, 28356.975, 0.022764772, 0.16546048, -1244337.8, -25806.893, 0.0, 9.999251, 10.00013 
5.249777e+2, 1.8566167e+2, -1228804.8, -1178310.9, 16964.627, 0.105383344, 0.19600186, -1173140.6, -52612.68, 0.0, 9.999278, 9.999968 
5.2498615e+2, 1.9566098e+2, -1162499.1, -1104199.0, 13425.419, 0.18502492, 0.10294491, -1101256.0, -78722.16, 0.0, 9.999107, 9.999883 
5.249935e+2, 2.056606e+2, -1105309.3, -1183511.9, 50380.43, 0.1312856, 0.15614296, -1080636.8, -156096.44, 0.0, 9.999485, 9.998484 
5.25e+2, 2.1566015e+2, -897718.25, -1029482.75, 48132.563, -0.021320278, 0.22929776, -882008.75, -55458.926, 0.0, 10.000216, 9.99852 
5.2500695e+2, 2.2565946e+2, -756123.06, -837678.6, 8894.485, -0.026233824, 0.27761132, -755164.3, -26606.398, 0.0, 10.000231, 9.999144 
5.250142e+2, 2.3565826e+2, -731597.06, -779560.4, 13218.644, 0.08024207, 0.21288356, -728195.3, -97627.69, 0.0, 9.999734, 9.999116 
5.250211e+2, 2.4565679e+2, -606505.1, -668750.5, 56938.273, 0.078937374, 0.15855339, -572738.75, -40160.203, 0.0, 9.999909, 9.9991255 
5.2502763e+2, 2.5565493e+2, -416164.38, -533677.56, 10634.713, 0.00052154873, 0.027269809, -415209.72, 19382.254, 0.0, 10.000575, 9.999059 
5.250344e+2, 2.6565388e+2, -385785.88, -586266.0, -28003.22, 0.011836618, 0.07558193, -381947.84, -45345.367, 0.0, 10.000632, 9.9979925 
5.250414e+2, 2.7565306e+2, -347262.97, -509437.06, -25186.852, 0.10427466, 0.16294408, -343441.34, -104827.46, 0.00000000009174081, 10.0002, 9.998048 
5.250481e+2, 2.8565198e+2, -175851.61, -339406.47, 24516.928, 0.10231209, 0.23631623, -172255.58, -31628.465, 0.00000033351301, 10.000535, 9.998384 
5.2505463e+2, 2.9565054e+2, 54225.383, -174389.6, -28626.643, 0.03689106, 0.20901214, 57755.438, 100398.89, 0.0000041082662, 10.001408, 9.998426 
5.250646e+2, 3.0564925e+2, 94492.984, -79253.04, 49110.473, 0.2550787, 0.22041, 107413.555, 107413.555, 0.000024723933, 10.001155, 9.998888 
5.2506953e+2, 3.1564796e+2, -11154.285, 64588.8, -12679.464, -0.17165123, 0.17326067, 66654.99, 66654.99, 0.00007789345, 9.999535, 10.000647 
5.3493106e+2, 1.2565371e+2, -1668286.0, -1711904.3, -131032.38, -0.0035359592, 0.26475278, -1557260.3, 151345.73, 0.000035694404, 10.000367, 9.999782 
5.349369e+2, 1.3565099e+2, -1770373.0, -1781827.0, 108480.18, -0.18739197, 0.025370624, -1667468.8, -56832.65, 0.000008273398, 9.9992695, 9.999226 
5.349513e+2, 1.456508e+2, -1648041.0, -1479146.4, 7183.6357, 0.41595456, 0.009503929, -1478841.4, 33796.234, 0.00000061502607, 9.998627, 10.000898 
5.3495276e+2, 1.556543e+2, -1512696.9, -1370592.6, -29301.523, -0.00042845265, 0.21609949, -1364787.9, 49812.313, 0.00000000036285042, 9.998924, 10.00083 
5.349584e+2, 1.6565454e+2, -1470329.9, -1427695.6, 45008.883, -0.1322642, 0.22378021, -1399211.0, -82614.1, 0.0, 9.999087, 9.999701 
5.349685e+2, 1.7565204e+2, -1351809.5, -1318187.0, 45774.16, 0.026869725, -0.027234307, -1286234.6, -67612.17, 0.0, 9.999213, 9.999721 
5.3497726e+2, 1.8565223e+2, -1221469.9, -1144444.9, -2287.2632, 0.1082329, -0.0017076447, -1144377.0, -23756.674, 0.0, 9.999198, 10.000236 
5.349849e+2, 1.9565424e+2, -1157959.8, -1077675.6, 23539.49, 0.115175955, 0.14519924, -1071282.9, -48683.426, 0.0, 9.999024, 10.000109 
5.349923e+2, 2.0565444e+2, -1102218.8, -1136798.4, 65131.83, 0.03637465, 0.22707878, -1052120.9, -127520.63, 0.0, 9.999321, 9.998878 
5.349997e+2, 2.1565303e+2, -894022.8, -983392.3, 85019.54, -0.09224549, 0.16252401, -842660.44, -16039.982, 0.0, 10.000052, 9.998912 
5.3500706e+2, 2.2565244e+2, -753174.1, -798907.7, -23260.438, -0.06024223, 0.18546925, -743422.9, -14796.263, 0.0, 10.000085, 9.999483 
5.3501433e+2, 2.3565228e+2, -734137.75, -746093.06, 11413.352, 0.09026991, 0.18774183, -727231.44, -96607.77, 0.0, 9.999567, 9.999424 
5.350213e+2, 2.456512e+2, -680109.2, -794781.4, 69534.08, 0.0849422, 0.20135541, -647320.9, -114688.2, 0.0, 9.999801, 9.998311 
5.35028e+2, 2.5564915e+2, -484603.44, -650995.2, 48998.707, -0.05759812, 0.13210744, -471246.6, -36593.375, 0.0, 10.000469, 9.998302 
5.3503495e+2, 2.6564753e+2, -369528.4, -536591.4, -58846.676, -0.025682742, 0.14277601, -350881.44, -14212.648, 0.0, 10.000564, 9.998366 
5.350423e+2, 2.756459e+2, -338268.03, -473354.47, -22476.896, 0.1423088, 0.109551005, -334626.3, -95942.59, 0.0, 10.000114, 9.998344 
5.3504854e+2, 2.8564438e+2, -220926.55, -424541.56, 46096.375, 0.057574883, 0.15343486, -210976.98, -70277.1, 0.00000019037492, 10.000504, 9.997812 
5.3505355e+2, 2.956428e+2, 1429.5602, -263788.7, 22041.277, -0.2542563, 0.1725917, 3248.8472, 45967.223, 0.0000040138116, 10.001317, 9.99786 
5.35064e+2, 3.0564037e+2, 73830.13, -117529.94, -16920.338, 0.049061373, 0.1134676, 75314.74, 75314.74, 0.000024880646, 10.001132, 9.998633 
5.3507054e+2, 3.156406e+2, -49327.61, -25275.453, 6550.709, -0.10310528, 0.24004622, -23607.068, -23607.068, 0.00007745561, 9.99956, 10.000021 
5.4493195e+2, 1.2564719e+2, -1666880.5, -1713184.6, -13110.177, 0.06125226, 0.23945095, -1663426.3, 45243.344, 0.00003031358, 10.000372, 9.999812 
5.449351e+2, 1.356447e+2, -1862595.1, -1802746.6, 41057.305, -0.24103266, 0.010444857, -1781865.8, -171169.88, 0.000006366235, 9.998544, 9.999439 
5.4494995e+2, 1.4564429e+2, -1755819.5, -1560826.0, 66389.695, 0.4538889, -0.02216023, -1540368.5, -27669.275, 0.00000037085837, 9.9980135, 10.000645 
5.449525e+2, 1.5564746e+2, -1471799.5, -1377027.9, -4972.25, 0.0707289, 0.18009943, -1376767.8, 37897.727, 0.00000000007720086, 9.999313, 10.000604 
5.4495835e+2, 1.6564763e+2, -1401760.4, -1423318.5, 76715.97, -0.06576463, 0.20455186, -1335069.9, -18405.809, 0.0, 9.999711, 9.999414 
5.4496807e+2, 1.7564526e+2, -1365186.9, -1351550.9, 58115.355, 0.07096985, -0.0031273072, -1299855.0, -81164.89, 0.0, 9.999272, 9.99945 
5.449767e+2, 1.8564525e+2, -1177547.5, -1135909.4, 43989.574, 0.12223579, 0.01968219, -1108061.0, 12629.256, 0.0, 9.999532, 10.000143 
5.449842e+2, 1.9564687e+2, -966801.44, -989653.56, 16762.54, 0.09281073, 0.13273923, -957941.1, 64731.426, 0.0, 10.000339, 10.000081 
5.4499185e+2, 2.0564722e+2, -956711.44, -1035008.5, 57017.496, 0.025184402, 0.21479617, -926696.4, -2024.9917, 0.0, 10.000184, 9.999168 
5.449997e+2, 2.1564631e+2, -1008258.44, -1001798.1, 45829.617, -0.049985655, 0.17429173, -959084.94, -132399.02, 0.0, 9.999129, 9.999228 
5.450073e+2, 2.2564586e+2, -819519.25, -823350.25, -28506.857, -0.01914162, 0.19301774, -792863.6, -64173.332, 0.0, 9.999585, 9.99956 
5.450146e+2, 2.356455e+2, -492457.56, -628878.0, -47395.777, 0.09054215, 0.16957806, -477607.6, 153081.75, 0.0, 10.001214, 9.999446 
5.4502195e+2, 2.4564454e+2, -504156.9, -733339.06, 20757.598, 0.11351085, 0.20601581, -502292.03, 30406.38, 0.0, 10.001107, 9.998104 
5.450291e+2, 2.556429e+2, -615624.3, -735888.6, 16208.983, 0.06313494, 0.195859, -613478.0, -178760.4, 0.0, 9.999662, 9.998112 
5.450363e+2, 2.6564118e+2, -450819.5, -558746.2, -14983.885, 0.088347375, 0.19917524, -448777.84, -112043.93, 0.0, 9.999942, 9.99851 
5.450435e+2, 2.7563906e+2, -109039.67, -347862.9, -27507.6, 0.1887228, 0.102274895, -105912.305, 132839.17, 0.0, 10.001628, 9.998478 
5.450495e+2, 2.8563726e+2, -93302.54, -390446.97, 40190.543, 0.060964853, 0.12541789, -87962.5, 52807.027, 0.00000011177434, 10.001507, 9.997566 
5.450541e+2, 2.9563567e+2, -211350.33, -382829.56, 12935.009, -0.25389165, 0.16941436, -210380.1, -167592.16, 0.0000045059896, 9.999958, 9.997686 
5.450644e+2, 3.0563322e+2, -135059.22, -188986.69, 30179.998, 0.06964425, 0.099044606, -121552.29, -121552.29, 0.000026381855, 9.999566, 9.998888 
5.4507107e+2, 3.1563386e+2, -78326.93, -61818.7, 74187.53, 0.006847121, 0.23770328, 4572.479, 4572.479, 0.00007890932, 9.999475, 9.999794 
5.5493367e+2, 1.2563847e+2, -1665976.8, -1707098.1, 15502.282, 0.12789589, -0.009076306, -1660787.5, 47965.58, 0.000026661766, 10.000361, 9.999853 
5.5493206e+2, 1.3564153e+2, -1847187.6, -1770941.0, -21834.777, -0.4312692, 0.28828108, -1765130.9, -154404.16, 0.0000052899522, 9.998537, 9.999668 
5.549463e+2, 1.4564079e+2, -1779609.4, -1593999.8, 94960.53, 0.24905917, 0.22373286, -1554025.6, -41292.465, 0.00000021782215, 9.997959, 10.000437 
5.549526e+2, 1.5563905e+2, -1492709.0, -1413619.9, 59395.3, 0.12020922, -0.037284836, -1381809.1, 32937.2, 0.00000000000011946363, 9.999286, 10.00037 
5.549592e+2, 1.6563943e+2, -1417016.8, -1450608.3, 46864.56, 0.013263226, 0.02728428, -1384029.1, -67284.99, 0.0, 9.999689, 9.999239 
5.549672e+2, 1.7564103e+2, -1386854.0, -1386705.1, 57023.0, 0.02767578, 0.23502602, -1329756.5, -111022.484, 0.0, 9.999225, 9.999235 
5.5497557e+2, 1.8564078e+2, -1216695.1, -1194385.6, 61215.99, 0.030963195, 0.2623066, -1143316.4, -22578.979, 0.0, 9.9994335, 9.999791 
5.549839e+2, 1.9563887e+2, -1003233.44, -1046992.5, 57610.855, -0.006120641, 0.062107626, -963487.3, 59265.984, 0.0, 10.000251, 9.999739 
5.549917e+2, 2.0563886e+2, -961388.7, -1008744.0, 4518.065, -0.031003088, 0.11029161, -960961.5, -36207.336, 0.0, 10.000039, 9.999413 
5.5499935e+2, 2.1564002e+2, -1018828.7, -985425.5, 26835.23, -0.0292679, 0.25384605, -970518.94, -143772.9, 0.0, 9.998962, 9.999419 
5.5500704e+2, 2.2563967e+2, -862873.94, -873851.4, 20111.223, -0.0290097, 0.28651646, -847515.9, -118766.016, 0.0, 9.999417, 9.999296 
5.550148e+2, 2.356379e+2, -535030.0, -671654.75, 21542.104, -0.04412984, 0.14980283, -531713.9, 99050.89, 0.0, 10.001021, 9.999243 
5.550227e+2, 2.4563687e+2, -496749.56, -691347.56, -45774.348, 0.04846143, 0.17085911, -486520.03, 46255.254, 0.0, 10.000983, 9.998461 
5.5503064e+2, 2.5563616e+2, -607988.1, -693143.44, -14820.222, 0.2187951, 0.21911944, -605482.56, -170697.63, 0.0, 9.999541, 9.998468 
5.550379e+2, 2.6563475e+2, -466740.38, -575209.5, 35543.05, 0.22925203, 0.23811485, -456131.3, -119332.97, 0.0, 9.999874, 9.998427 
5.550447e+2, 2.756324e+2, -131933.22, -373950.28, 43494.48, 0.11249381, 0.13063687, -124353.9, 114464.66, 0.0, 10.0015335, 9.998347 
5.5505073e+2, 2.856305e+2, -94837.99, -383125.53, -33443.55, 0.0011542354, 0.14786713, -91009.14, 49828.266, 0.00000024371042, 10.001458, 9.997643 
5.550557e+2, 2.9562894e+2, -207411.02, -368992.56, -22238.768, -0.13570085, 0.18564855, -204406.14, -161551.38, 0.0000058589785, 9.99992, 9.9978075 
5.550653e+2, 3.056275e+2, -85368.81, -69881.5, 19344.58, 0.16871972, 0.16772516, -56788.242, -56788.242, 0.000029984647, 9.999512, 9.999724 
5.5507016e+2, 3.1562766e+2, -86920.59, -53970.98, 147237.05, -0.09542762, 0.1743171, 77710.1, 77710.1, 0.00008416486, 9.99936, 9.999906 
5.6493384e+2, 1.2563103e+2, -1769259.0, -1721349.4, 94652.41, 0.1699041, -0.07293517, -1647667.6, 61157.07, 0.000022362967, 9.99948, 10.00017 
5.649315e+2, 1.3563555e+2, -1673827.6, -1630074.4, -103246.26, -0.37128282, 0.31379697, -1546412.5, 64369.668, 0.000004259607, 9.999482, 10.000158 
5.64944e+2, 1.4563496e+2, -1625562.4, -1588389.9, 104968.33, 0.17439939, 0.26846603, -1500375.0, 12413.226, 0.00000013010742, 9.999277, 9.999857 
5.649518e+2, 1.5563205e+2, -1522763.0, -1481715.0, 19983.32, 0.11613308, -0.054211248, -1473593.5, -58777.797, 0.0, 9.999301, 9.999902 
5.6495893e+2, 1.656324e+2, -1429563.1, -1438626.8, 20954.688, 0.032309487, 0.021872532, -1412655.9, -95841.67, 0.0, 9.999508, 9.999416 
5.6496674e+2, 1.7563483e+2, -1271979.4, -1311834.0, 34031.04, 0.03215932, 0.28952983, -1252470.5, -33675.76, 0.0, 9.999914, 9.999415 
5.6497514e+2, 1.8563445e+2, -1183049.1, -1222414.5, 82700.75, 0.031996712, 0.31730926, -1117721.1, 3078.3157, 0.0, 9.99987, 9.999375 
5.649837e+2, 1.9563174e+2, -1161778.3, -1159447.1, 50828.617, 0.0029885352, 0.07484543, -1109770.8, -86946.34, 0.0, 9.999338, 9.999387 
5.649916e+2, 2.0563124e+2, -1001613.56, -1021714.5, 12515.477, -0.021003973, 0.087670654, -995612.56, -70783.46, 0.0, 9.999733, 9.99947 
5.649993e+2, 2.1563226e+2, -745463.94, -844892.0, -4977.4395, -0.012975124, 0.21068177, -745215.4, 81604.72, 0.0, 10.000808, 9.999491 
5.6500715e+2, 2.2563197e+2, -743872.06, -824933.7, 15807.535, 0.0037697155, 0.25095987, -740898.6, -12075.647, 0.0, 10.000274, 9.999217 
5.650151e+2, 2.356304e+2, -914618.3, -858845.94, 6560.3706, 0.026465712, 0.13780105, -858084.6, -227246.84, 0.0, 9.998436, 9.999199 
5.650231e+2, 2.456295e+2, -791833.94, -792300.4, -11931.474, 0.109919876, 0.15597646, -780133.44, -247286.27, 0.0, 9.998809, 9.998794 
5.6503105e+2, 2.5562888e+2, -377935.5, -551376.6, -16645.047, 0.24041262, 0.18202728, -376352.53, 58502.555, 0.0, 10.001004, 9.998725 
5.6503856e+2, 2.656277e+2, -276179.78, -517223.38, 47815.566, 0.242693, 0.23071393, -267041.13, 69826.195, 0.0, 10.001316, 9.998132 
5.6504583e+2, 2.7562588e+2, -353421.22, -503116.16, 15293.241, 0.1540323, 0.20030387, -351874.78, -112989.484, 0.0, 10.000115, 9.998133 
5.6505215e+2, 2.85624e+2, -259589.95, -430796.38, -38614.05, 0.069426134, 0.21316187, -251283.88, -110380.09, 0.00000046127252, 10.000168, 9.997943 
5.650572e+2, 2.956221e+2, -1281.5238, -245181.63, -36614.05, -0.026670713, 0.18565854, 4096.3623, 47018.586, 0.000007820285, 10.001212, 9.998041 
5.650659e+2, 3.0562088e+2, 118875.44, 27775.508, -12670.271, 0.22706226, 0.17935055, 120604.805, 120604.805, 0.00003595913, 10.000912, 9.999727 
5.650699e+2, 3.156206e+2, -115518.88, -67673.22, 41178.094, -0.035511456, 0.13804743, -43973.188, -43973.188, 0.000094486146, 9.999161, 9.999908 
5.7493204e+2, 1.2562457e+2, -1727384.8, -1618474.6, 144418.9, -0.023688048, 0.022422632, -1518585.4, 190301.8, 0.000015098279, 9.999424, 10.000893 
5.74933e+2, 1.3562655e+2, -1628041.9, -1533046.0, -102269.09, -0.20579353, 0.07677065, -1467783.0, 143081.45, 0.0000026568694, 9.999473, 10.000827 
5.7494295e+2, 1.4562665e+2, -1684517.4, -1702843.8, 82764.97, 0.09663463, 0.10809442, -1610409.9, -97544.36, 0.000000050157187, 9.99925, 9.999082 
5.749495e+2, 1.5562643e+2, -1580670.8, -1591895.8, 35679.117, -0.06881263, 0.13688907, -1550165.4, -135291.84, 0.0, 9.999259, 9.999168 
5.74957e+2, 1.6562657e+2, -1392724.4, -1346550.0, 19693.287, -0.1360863, 0.18926476, -1339291.9, -22417.66, 0.0, 9.999438, 10.000078 
5.749662e+2, 1.7562664e+2, -1238346.3, -1234017.4, 60991.746, -0.050304193, 0.15572825, -1175151.6, 43720.56, 0.0, 9.999874, 9.999971 
5.7497495e+2, 1.8562634e+2, -1222520.9, -1286250.9, 50859.875, -0.0035815614, 0.18773057, -1194368.4, -73492.78, 0.0, 9.999797, 9.99897 
5.749832e+2, 1.9562547e+2, -1206759.0, -1223705.3, 48413.95, -0.014290403, 0.17310144, -1166082.4, -143196.45, 0.0, 9.999216, 9.999004 
5.749912e+2, 2.0562445e+2, -1032351.0, -1047016.75, 37743.188, -0.057691313, 0.15507433, -1001234.94, -76339.14, 0.0, 9.999565, 9.999377 
5.749992e+2, 2.1562311e+2, -778797.44, -871880.94, 41865.914, -0.12942758, 0.05153649, -762738.1, 64169.184, 0.0, 10.000625, 9.999394 
5.7500714e+2, 2.256228e+2, -753662.6, -809424.44, -67213.45, -0.04518717, 0.08575048, -708776.9, 20132.793, 0.0, 10.000114, 9.999402 
5.750151e+2, 2.3562303e+2, -923520.2, -842052.8, -38777.52, 0.15818591, 0.13619909, -826546.56, -195638.97, 0.0, 9.9982815, 9.999389 
5.7502276e+2, 2.4562243e+2, -789574.75, -771357.75, 56055.824, 0.16385324, 0.16346402, -723675.25, -190761.38, 0.0, 9.998724, 9.998986 
5.7502997e+2, 2.556209e+2, -383240.28, -536306.4, 74093.8, 0.0026336897, 0.081195496, -353250.13, 81679.12, 0.0, 10.00088, 9.998894 
5.7503796e+2, 2.6562005e+2, -313852.4, -584063.0, -11640.342, 0.016574776, 0.1743058, -313351.88, 23589.188, 0.0, 10.001259, 9.997707 
5.750464e+2, 2.7561942e+2, -385269.06, -557043.44, -13204.84, 0.16618387, 0.30539, -384259.9, -145307.05, 0.0, 10.000046, 9.997804 
5.7505316e+2, 2.856178e+2, -222456.45, -339515.38, -14243.222, 0.12920794, 0.32306826, -220748.33, -79779.28, 0.0000006054728, 10.000111, 9.998598 
5.750583e+2, 2.9561517e+2, 21814.834, -176212.31, 17072.088, -0.07995285, 0.16254169, 23275.855, 66266.41, 0.000009307056, 10.001125, 9.998557 
5.750661e+2, 3.056135e+2, 53058.49, -97857.18, -84541.09, 0.12395523, 0.13344188, 90919.15, 90919.15, 0.000040671366, 10.000869, 9.998888 
5.7506955e+2, 3.156122e+2, -141171.19, -104844.42, 66448.67, -0.062310793, 0.07056965, -54121.418, -54121.418, 0.000103750725, 9.99909, 9.999694 
5.849297e+2, 1.2561744e+2, -1839281.9, -1686061.3, 187085.36, -0.15326473, 0.0815602, -1560508.0, 148447.28, 0.000008007214, 9.99868, 10.000808 
5.849338e+2, 1.356176e+2, -1715648.0, -1577999.8, -205045.22, -0.03110199, -0.037527338, -1430536.4, 180414.28, 0.0000012151539, 9.998876, 10.000815 
5.849419e+2, 1.456179e+2, -1688901.4, -1693588.9, 38107.117, 0.080992684, 0.012470032, -1653066.0, -140116.03, 0.000000012980553, 9.999209, 9.999138 
5.849491e+2, 1.556191e+2, -1466701.6, -1526481.1, 18788.078, -0.06605031, 0.17142037, -1461287.1, -46342.44, 0.0, 10.000024, 9.999222 
5.8495677e+2, 1.6561916e+2, -1321458.3, -1326899.1, 10861.435, -0.12017357, 0.2228499, -1312981.8, 3964.2124, 0.0, 9.999988, 9.999952 
5.849657e+2, 1.7561816e+2, -1331204.0, -1286000.3, -31459.441, -0.04534976, 0.09569409, -1269865.3, -50910.97, 0.0, 9.9992695, 9.999906 
5.8497447e+2, 1.8561801e+2, -1307508.6, -1311895.4, -16470.082, 0.010377277, 0.13625942, -1293086.5, -172130.02, 0.0, 9.999136, 9.999125 
5.84983e+2, 1.9561817e+2, -1167338.8, -1192471.5, -3985.8394, 0.041236974, 0.2108254, -1166721.8, -143764.55, 0.0, 9.999414, 9.99914 
5.849911e+2, 2.0561728e+2, -1105670.1, -1063771.8, 49947.42, 0.008905182, 0.19027796, -1030558.06, -105592.52, 0.0, 9.998978, 9.999541 
5.8499897e+2, 2.1561536e+2, -1151380.9, -1037746.06, 49239.742, -0.07131168, 0.011771586, -1019378.56, -192396.72, 0.0, 9.997994, 9.999527 
5.85007e+2, 2.2561496e+2, -932769.8, -894052.25, -22808.156, 0.0018256106, 0.029557312, -883494.94, -154510.28, 0.0, 9.998889, 9.999414 
5.850151e+2, 2.3561546e+2, -490343.56, -639436.6, -39451.965, 0.19188204, 0.11074471, -480547.7, 150431.83, 0.0, 10.001279, 9.999345 
5.8502287e+2, 2.4561487e+2, -435708.66, -640736.3, 52997.06, 0.17997101, 0.16093144, -422819.84, 110166.664, 0.0, 10.001323, 9.998625 
5.8503014e+2, 2.556132e+2, -587704.56, -666831.75, 531.0013, 0.0045612333, 0.096641436, -587701.0, -152695.94, 0.0, 9.9996195, 9.998593 
5.8503824e+2, 2.656123e+2, -550852.7, -647937.9, -46884.797, 0.022757431, 0.17822406, -531907.75, -194890.48, 0.0, 9.999437, 9.998138 
5.8504707e+2, 2.756118e+2, -291207.66, -464304.4, -12830.904, 0.20769475, 0.2768422, -290261.72, -51234.76, 0.0, 10.000514, 9.998209 
5.8505404e+2, 2.8561053e+2, -91617.51, -257736.17, 37870.164, 0.17045823, 0.30728725, -83391.56, 57647.438, 0.00000055145284, 10.000926, 9.998762 
5.8505946e+2, 2.9560852e+2, -35565.098, -189058.33, -903.77997, -0.045585178, 0.19049297, -35559.777, 7495.343, 0.000008783807, 10.000666, 9.998686 
5.8506644e+2, 3.0560687e+2, -12420.338, -185770.88, -110940.79, 0.09288819, 0.18192966, 41689.555, 41689.555, 0.000039667964, 10.000659, 9.998378 
5.850706e+2, 3.1560507e+2, 46743.855, -54908.453, 38685.07, 0.07944651, 0.11903381, 59791.27, 59791.27, 0.00010388018, 10.000559, 9.999315 
5.9492606e+2, 1.2560958e+2, -1881731.4, -1771928.5, 127616.9, -0.45415142, 0.11205731, -1687904.6, 21124.885, 0.0000033727015, 9.998696, 10.000198 
5.949335e+2, 1.3560867e+2, -1769224.5, -1682985.5, -191011.05, 0.02323208, -0.03281551, -1530287.5, 80753.33, 0.00000044999516, 9.998858, 10.000101 
5.9494054e+2, 1.4560872e+2, -1629974.0, -1562440.6, 48732.68, -0.017814018, -0.024918778, -1536919.4, -23877.809, 0.000000014541682, 9.999171, 10.000052 
5.9495e+2, 1.5560995e+2, -1417750.0, -1418960.1, 59693.4, -0.014877324, 0.04802169, -1358658.6, 56371.246, 0.0, 9.999994, 9.999976 
5.949579e+2, 1.6561027e+2, -1391717.6, -1456525.5, -31236.865, -0.0449547, 0.13441549, -1379113.1, -62084.055, 0.0, 9.99993, 9.999085 
5.9496504e+2, 1.756095e+2, -1392887.3, -1398183.3, -42618.21, -0.07340205, 0.1162135, -1352834.9, -133794.34, 0.0, 9.999209, 9.999162 
5.949733e+2, 1.8560943e+2, -1270865.8, -1216348.4, -22012.508, -0.04777533, 0.16444236, -1208570.1, -87527.59, 0.0, 9.999051, 9.999822 
5.949825e+2, 1.956097e+2, -1138493.9, -1101914.9, 16800.55, 0.021336557, 0.1792853, -1095369.6, -72330.375, 0.0, 9.999287, 9.999821 
5.9499073e+2, 2.056097e+2, -1093872.1, -1005574.44, -86.594894, 0.04535052, 0.18918192, -1005574.3, -80535.87, 0.0, 9.998831, 10.000014 
5.9499836e+2, 2.1560913e+2, -1145280.5, -986264.94, 34406.527, 0.036958203, 0.10012665, -979139.56, -152097.0, 0.0, 9.997829, 9.99996 
5.950064e+2, 2.2560857e+2, -966907.1, -936516.94, 52158.418, 0.024131943, 0.091710374, -897385.3, -168338.61, 0.0, 9.998756, 9.999192 
5.9501475e+2, 2.3560767e+2, -534221.1, -692191.3, 55759.957, -0.0010808455, 0.0559625, -516522.13, 114531.73, 0.0, 10.001106, 9.999071 
5.9502304e+2, 2.4560681e+2, -515019.5, -780380.4, -24663.662, 0.027729347, 0.13978285, -512746.63, 20318.781, 0.0, 10.001209, 9.997725 
5.950311e+2, 2.556058e+2, -656699.56, -782779.06, -45311.434, 0.09842289, 0.22902285, -642104.7, -207022.36, 0.0, 9.9995, 9.997856 
5.950391e+2, 2.6560462e+2, -470205.0, -467102.2, -21556.902, 0.13413887, 0.24695806, -447040.94, -109945.86, 0.0, 9.999379, 9.999412 
5.950472e+2, 2.75603e+2, -222625.45, -304360.38, 41384.527, 0.1365234, 0.11358469, -205330.83, 33776.68, 0.0, 10.000436, 9.99935 
5.9505427e+2, 2.856023e+2, -123634.055, -308891.63, 16341.911, 0.06508305, 0.16209124, -122203.555, 18910.047, 0.0000003359344, 10.000864, 9.998438 
5.950601e+2, 2.956021e+2, -69866.67, -233630.81, 6534.8086, -0.08432959, 0.259097, -69606.32, -26489.596, 0.000006914508, 10.000558, 9.998426 
5.950666e+2, 3.056009e+2, -28893.715, -214949.77, -122450.19, 0.0066987365, 0.3144655, 31858.172, 31858.172, 0.000035638073, 10.0006275, 9.998198 
5.950721e+2, 3.1559935e+2, 15917.833, -109100.29, 93596.836, 0.090143435, 0.29857633, 65959.875, 65959.875, 0.00009897654, 10.000514, 9.998965 
6.049248e+2, 1.2560056e+2, -2170114.5, -1910309.0, 103768.28, -0.33887377, 0.075274736, -1873951.3, -164832.98, 0.0000011596172, 9.996715, 10.000213 
6.049331e+2, 1.3560063e+2, -1763984.5, -1671660.5, -147183.61, 0.1083847, 0.030558584, -1563569.6, 47551.81, 0.00000014603442, 9.998882, 10.000152 
6.0493875e+2, 1.4560074e+2, -1535367.8, -1495148.8, 97228.83, -0.13149694, 0.03042113, -1415971.6, 97149.59, 0.0000000031309833, 9.999701, 10.000284 
6.049502e+2, 1.556014e+2, -1455471.1, -1412905.3, 20033.398, 0.034790184, 0.02663225, -1404959.8, 10153.376, 0.0, 9.999617, 10.000216 
6.0495836e+2, 1.6560164e+2, -1462965.1, -1500525.4, -55555.137, 0.046381827, 0.0997906, -1423101.8, -105989.24, 0.0, 9.999459, 9.999024 
6.049643e+2, 1.7560124e+2, -1393853.1, -1403744.5, -31011.664, -0.05886726, 0.12404107, -1367395.3, -148274.38, 0.0, 9.99921, 9.999131 
6.049723e+2, 1.8560112e+2, -1254879.8, -1176176.6, 44794.45, -0.04605306, 0.15189339, -1155903.6, -34780.55, 0.0, 9.999045, 10.00009 
6.0498196e+2, 1.9560096e+2, -1166983.1, -1085436.6, 20342.99, 0.06739462, 0.0966375, -1080643.5, -57520.75, 0.0, 9.9989805, 10.000076 
6.049903e+2, 2.0560132e+2, -1028637.4, -995637.7, -19196.758, 0.10571975, 0.14340088, -986824.3, -61705.03, 0.0, 9.999369, 9.999833 
6.049977e+2, 2.1560176e+2, -835450.44, -858064.1, -60222.0, 0.085290134, 0.17483285, -785483.06, 41633.824, 0.0, 10.000039, 9.999785 
6.05006e+2, 2.2560135e+2, -784958.0, -832344.25, 14378.138, 0.053169873, 0.18597548, -780936.56, -51816.586, 0.0, 9.999948, 9.999321 
6.05015e+2, 2.3560004e+2, -791433.06, -792926.9, 13956.475, 0.009173648, 0.09226469, -778203.56, -147073.52, 0.0, 9.999265, 9.999248 
6.050234e+2, 2.45599e+2, -777972.3, -877276.06, -24817.389, 0.050763335, 0.13542433, -772115.56, -238973.73, 0.0, 9.999291, 9.997981 
6.050313e+2, 2.5559792e+2, -580624.94, -722184.2, 15838.51, 0.16271845, 0.19737677, -578874.5, -143717.02, 0.0, 9.999924, 9.998073 
6.050395e+2, 2.6559672e+2, -329103.44, -397034.75, 91677.53, 0.19310845, 0.20230076, -265301.84, 71867.66, 0.0, 10.000332, 9.999437 
6.050478e+2, 2.755951e+2, -205752.88, -294245.0, 28901.064, 0.1641804, 0.06477462, -197150.23, 42031.527, 0.0, 10.000525, 9.999381 
6.050551e+2, 2.8559425e+2, -202085.03, -336584.53, -26202.82, 0.10568491, 0.09693162, -197160.56, -55971.63, 0.00000016006682, 10.000297, 9.998519 
6.050613e+2, 2.95594e+2, -175168.39, -273256.06, -33337.695, 0.02066414, 0.17743514, -164910.45, -121717.164, 0.0000052467194, 9.999793, 9.998526 
6.0506713e+2, 3.0559334e+2, -47825.242, -215837.64, -71914.375, 0.019748067, 0.27875042, -21247.902, -21247.902, 0.000031333126, 10.000473, 9.998266 
6.0507405e+2, 3.1559175e+2, 189139.55, -24135.402, 94689.22, 0.19195391, 0.26149318, 225112.03, 225112.03, 0.00009226463, 10.001689, 9.999001 
6.1492497e+2, 1.2559035e+2, -2111342.0, -1778927.4, 39565.86, -0.0595352, -0.026408749, -1774283.0, -65061.13, 0.000000319301, 9.996689, 10.001116 
6.149322e+2, 1.355935e+2, -1715996.8, -1570534.1, -55931.05, 0.08822735, 0.15949285, -1551515.1, 59677.19, 0.000000018009526, 9.998881, 10.000845 
6.1493605e+2, 1.4559402e+2, -1569044.3, -1567880.4, 70210.71, -0.4126766, 0.19316798, -1498249.3, 14939.086, 0.0, 9.999707, 9.999781 
6.1494935e+2, 1.5559334e+2, -1482727.6, -1475943.3, 27030.387, -0.04621557, 0.105099216, -1452093.0, -36897.74, 0.0, 9.999627, 9.999784 
6.149579e+2, 1.655933e+2, -1412561.1, -1381159.8, -79822.39, 0.026047915, 0.12240692, -1315508.6, 1687.6212, 0.0, 9.9994, 9.99987 
6.149631e+2, 1.7559344e+2, -1348341.3, -1301666.4, -25012.578, -0.12899399, 0.117436044, -1290794.6, -71599.29, 0.0, 9.999171, 9.999854 
6.149709e+2, 1.8559307e+2, -1283272.0, -1211785.1, 29726.979, -0.111490086, 0.098469675, -1201038.9, -79840.82, 0.0, 9.998947, 9.999889 
6.1498106e+2, 1.9559203e+2, -1197927.9, -1130408.3, 35798.207, 0.056847032, -0.024943266, -1114962.0, -91755.75, 0.0, 9.998893, 9.999812 
6.149895e+2, 2.0559227e+2, -1106560.0, -1125911.1, -7288.201, 0.06365994, 0.06768887, -1104122.1, -178915.33, 0.0, 9.999235, 9.9990015 
6.1499655e+2, 2.1559322e+2, -914509.94, -983334.9, -24472.682, -0.053353954, 0.23184405, -906695.3, -79490.62, 0.0, 9.999869, 9.999009 
6.1500525e+2, 2.2559337e+2, -776125.56, -774329.1, -21911.24, -0.038182758, 0.308886, -753297.7, -24093.48, 0.0, 9.99978, 9.999798 
6.1501527e+2, 2.3559263e+2, -780102.6, -727248.8, 6420.1025, 0.08482973, 0.22493337, -726480.1, -95272.805, 0.0, 9.999085, 9.9997835 
6.150236e+2, 2.4559145e+2, -695746.25, -682254.75, -16833.793, 0.11437937, 0.15359582, -670865.44, -137649.92, 0.0, 9.999184, 9.999372 
6.150305e+2, 2.5558963e+2, -512335.78, -556074.4, 51847.637, 0.060613155, 0.002412326, -477933.9, -42703.668, 0.0, 9.999813, 9.99927 
6.150389e+2, 2.6558867e+2, -426749.22, -582880.75, 85833.695, 0.072141856, 0.04112823, -388790.47, -51550.24, 0.0, 10.00026, 9.998195 
6.1504847e+2, 2.7558807e+2, -304254.3, -468409.84, 51337.23, 0.14022982, 0.12697092, -289521.6, -50272.094, 0.0, 10.000399, 9.998242 
6.150563e+2, 2.8558654e+2, -176526.78, -274505.4, -59888.668, 0.15708217, 0.116671026, -148142.94, -6878.551, 0.00000012615395, 10.00025, 9.998968 
6.1506224e+2, 2.9558435e+2, -151431.75, -208195.64, -29331.432, 0.0973863, -0.046419878, -138998.66, -95715.32, 0.000004351736, 9.999729, 9.998997 
6.1506766e+2, 3.055842e+2, -32973.547, -189067.47, -33140.055, -0.007118215, 0.07538316, -26229.049, -26229.049, 0.000027327982, 10.00048, 9.99846 
6.150756e+2, 3.1558272e+2, 200937.5, 23324.184, 153748.55, 0.100090764, 0.056671552, 289684.34, 289684.34, 0.00008384043, 10.00159, 9.999381 
6.249236e+2, 1.2558213e+2, -1981399.0, -1676689.4, 56919.363, 0.11216694, 0.037124973, -1666404.1, 42901.652, 0.00000004128188, 9.997393, 10.001495 
6.249321e+2, 1.3558504e+2, -1610355.9, -1473251.6, -12214.166, 0.18394418, 0.15646417, -1472172.0, 139102.75, 0.000000000001578113, 9.999383, 10.001289 
6.249356e+2, 1.455853e+2, -1590194.8, -1593925.1, 69807.086, -0.41544464, 0.15338352, -1522228.0, -8955.94, 0.0, 9.999628, 9.999643 
6.249484e+2, 1.5558487e+2, -1609985.9, -1537645.8, 33109.42, -0.05699505, 0.10010948, -1524780.1, -109502.34, 0.0, 9.998783, 9.999752 
6.2495714e+2, 1.6558512e+2, -1464092.0, -1348363.0, -20701.81, 0.045528524, 0.121278234, -1344771.4, -27495.988, 0.0, 9.998822, 10.0003605 
6.249633e+2, 1.7558557e+2, -1268369.8, -1205458.9, -30923.477, -0.045190524, 0.09828692, -1192804.1, 26465.443, 0.0, 9.999508, 10.000337 
6.2497115e+2, 1.855853e+2, -1162949.3, -1187663.3, 33271.61, -0.029823953, 0.08201779, -1139814.1, -18543.078, 0.0, 9.999877, 9.999624 
6.2498057e+2, 1.9558418e+2, -1064403.0, -1089879.3, 14190.66, 0.076680206, -0.027491644, -1058072.0, -34790.79, 0.0, 9.999887, 9.999615 
6.24989e+2, 2.0558429e+2, -1027068.9, -1080018.5, 43330.11, 0.064664796, 0.054713666, -1002765.6, -77482.414, 0.0, 9.999742, 9.999078 
6.249964e+2, 2.1558504e+2, -963463.8, -988457.2, 67023.61, -0.030462926, 0.1903385, -907781.8, -80499.836, 0.0, 9.999464, 9.999164 
6.2500525e+2, 2.2558522e+2, -839975.3, -782977.5, 92690.17, 0.01778803, 0.25284907, -714504.0, 14776.798, 0.0, 9.999241, 10.000006 
6.250153e+2, 2.3558469e+2, -771677.6, -703770.56, 77717.78, 0.1924731, 0.17135008, -652913.1, -21630.822, 0.0, 9.999044, 9.999979 
6.250237e+2, 2.4558376e+2, -620467.3, -604320.4, 76407.02, 0.20247807, 0.09626948, -535561.44, -2273.9968, 0.0, 9.999504, 9.999764 
6.2503076e+2, 2.5558227e+2, -380581.38, -448479.38, 38851.613, 0.07701976, -0.061158683, -362935.97, 72361.695, 0.0, 10.000526, 9.999666 
6.250391e+2, 2.6558167e+2, -389259.3, -592147.44, 68725.33, 0.060500834, 0.007158263, -368171.47, -30866.49, 0.0, 10.000626, 9.997953 
6.250486e+2, 2.7558136e+2, -388826.84, -536766.75, 78265.516, 0.14514083, 0.1494488, -355107.22, -115793.4, 0.0, 9.9999275, 9.998 
6.2505656e+2, 2.855797e+2, -199408.94, -293663.75, 29072.88, 0.18030103, 0.14190188, -191162.84, -49832.08, 0.000000116905284, 10.000119, 9.99891 
6.250631e+2, 2.9557693e+2, 27682.074, -139664.23, -10887.315, 0.1574763, -0.06667084, 28387.414, 71741.805, 0.000004287332, 10.001003, 9.998878 
6.2506884e+2, 3.0557635e+2, 62904.555, -158510.31, -12420.238, 0.03854939, 0.025140904, 63599.09, 63599.09, 0.000025852014, 10.001234, 9.99829 
6.25078e+2, 3.155749e+2, 94690.3, 12481.576, 59901.13, 0.24917842, 0.02088322, 126233.81, 126233.81, 0.00007870898, 10.00071, 9.999718 
6.349194e+2, 1.2557586e+2, -1978126.4, -1684804.5, -43361.023, -0.11689982, 0.27986985, -1678528.9, 30841.238, 0.000000010756334, 9.997457, 10.001411 
6.3493264e+2, 1.3557498e+2, -1602554.4, -1462503.4, 60344.344, 0.26493752, 0.014829012, -1440089.6, 171281.3, 0.0, 9.999395, 10.001368 
6.34937e+2, 1.4557452e+2, -1564274.0, -1524499.1, 16638.363, -0.27412406, -0.089882314, -1518457.0, -5083.939, 0.0, 9.999569, 10.000144 
6.349468e+2, 1.5557604e+2, -1583169.1, -1479565.9, 22334.58, -0.122571155, 0.0043596043, -1474956.1, -59595.992, 0.0, 9.998771, 10.000159 
6.349557e+2, 1.6557707e+2, -1466183.0, -1345366.1, -10177.412, -0.018748766, 0.084923, -1344514.9, -27164.623, 0.0, 9.998784, 10.000403 
6.349642e+2, 1.755775e+2, -1269751.0, -1206764.8, 7612.217, 0.07164824, 0.055759583, -1205857.9, 13487.367, 0.0, 9.999485, 10.000349 
6.349723e+2, 1.8557768e+2, -1190354.0, -1221057.9, 18939.213, 0.071404986, 0.09199016, -1181326.1, -59982.258, 0.0, 9.999784, 9.999434 
6.3497996e+2, 1.9557732e+2, -1091446.1, -1120428.4, 25731.1, -0.0062573333, 0.078364044, -1076406.3, -53057.31, 0.0, 9.999777, 9.999459 
6.3498807e+2, 2.0557725e+2, -980686.75, -944766.9, 18509.686, -0.016805105, 0.101456024, -936936.0, -11586.692, 0.0, 9.999575, 10.000082 
6.3499665e+2, 2.1557719e+2, -923044.7, -862333.9, 72256.94, 0.021156123, 0.05091977, -814315.06, 13033.795, 0.0, 9.999279, 10.000118 
6.350055e+2, 2.255769e+2, -870204.7, -804124.7, 71920.02, 0.09610054, 0.025097702, -758018.44, -28668.564, 0.0, 9.999066, 9.99994 
6.3501465e+2, 2.3557617e+2, -806189.44, -733051.44, 89190.38, 0.1992308, -0.07286682, -673224.3, -41869.04, 0.0, 9.998864, 9.999864 
6.3502336e+2, 2.4557589e+2, -684119.8, -707607.9, 102607.125, 0.18635242, -0.040644955, -592586.8, -59229.29, 0.0, 9.999387, 9.999108 
6.3503164e+2, 2.5557575e+2, -440720.8, -542244.8, 87105.81, 0.076579966, 0.0021379462, -390665.13, 44694.637, 0.0, 10.000395, 9.999085 
6.3503987e+2, 2.6557562e+2, -350310.34, -489862.7, 26620.29, 0.036241136, 0.10486236, -345404.84, -8040.823, 0.0, 10.000539, 9.998693 
6.3504785e+2, 2.755751e+2, -358942.3, -448050.53, 70904.6, 0.04305352, 0.145587, -319755.56, -80381.75, 0.0, 9.999817, 9.99866 
6.350557e+2, 2.8557378e+2, -244222.25, -372581.97, 45626.793, 0.046861704, 0.17082852, -229656.58, -88268.66, 0.0000001448745, 10.000066, 9.998394 
6.3506335e+2, 2.9557192e+2, -34842.316, -234600.2, 40341.99, 0.039441694, 0.10961342, -27002.74, 16402.441, 0.000005079309, 10.0008745, 9.9982815 
6.350701e+2, 3.0557007e+2, 13450.413, -270660.94, -36725.773, 0.0011771994, 0.1450224, 18121.004, 18121.004, 0.000027855136, 10.001244, 9.997529 
6.350804e+2, 3.1556794e+2, 85229.266, 4723.6343, 59442.46, 0.34259367, 0.13047703, 116765.69, 116765.69, 0.00008149468, 10.000641, 9.999703 
6.4491814e+2, 1.2556735e+2, -1808766.0, -1658487.8, -40416.797, -0.04234832, 0.2781333, -1648307.5, 61144.188, 0.0000000047013002, 9.998867, 10.000904 
6.449317e+2, 1.3556604e+2, -1704145.4, -1541733.6, 62573.105, 0.27631876, 0.0046288054, -1520422.3, 91035.89, 0.0, 9.998863, 10.001058 
6.4493716e+2, 1.4556572e+2, -1655493.4, -1528949.9, -14851.838, -0.16727282, -0.09070834, -1527230.1, -13771.013, 0.0, 9.998773, 10.000498 
6.449459e+2, 1.5556742e+2, -1554817.1, -1428186.6, -50901.074, -0.08294868, -0.0129051665, -1410263.1, 5180.5313, 0.0, 9.998792, 10.000506 
6.4495474e+2, 1.6556852e+2, -1433505.5, -1334483.8, -22696.826, 0.0014490471, 0.058990784, -1329529.3, -12096.506, 0.0, 9.999024, 10.000368 
6.4496404e+2, 1.7556894e+2, -1276402.3, -1210121.4, -36224.707, 0.11816497, 0.032111406, -1194164.8, 25262.668, 0.0, 9.999442, 10.000345 
6.4497226e+2, 1.8556923e+2, -1242076.6, -1238956.1, -15844.595, 0.11975988, 0.07878634, -1224595.1, -103170.22, 0.0, 9.999405, 9.999492 
6.449796e+2, 1.9556916e+2, -1209632.9, -1165400.6, -20776.11, 0.029326804, 0.08774008, -1157172.5, -133745.1, 0.0, 9.998936, 9.999547 
6.4498764e+2, 2.0556909e+2, -1069643.1, -959364.4, -14156.402, 0.027566168, 0.09018563, -957576.1, -32149.033, 0.0, 9.998844, 10.000329 
6.449965e+2, 2.1556869e+2, -952859.4, -853809.8, -49745.145, 0.103043936, -0.015822984, -833140.0, -5712.3, 0.0, 9.998975, 10.000319 
6.4500517e+2, 2.2556849e+2, -863686.6, -808073.4, -44619.81, 0.16301538, -0.043269157, -783304.94, -53876.883, 0.0, 9.999113, 9.999898 
6.4501387e+2, 2.3556809e+2, -746010.44, -704905.7, -53296.844, 0.218541, -0.10710003, -668335.8, -36904.504, 0.0, 9.999265, 9.999861 
6.45023e+2, 2.455681e+2, -636794.9, -693547.7, 50302.64, 0.20182228, -0.042325705, -607416.9, -73984.53, 0.0, 9.999767, 9.999021 
6.450326e+2, 2.5556815e+2, -419289.3, -537069.56, 49550.45, 0.13743985, 0.032370485, -401216.5, 34217.55, 0.0, 10.000574, 9.999033 
6.4504063e+2, 2.65568e+2, -323497.78, -444538.28, -35734.523, 0.069548495, 0.12064998, -313735.34, 23703.191, 0.0, 10.000582, 9.998988 
6.4504737e+2, 2.755673e+2, -314592.3, -396365.06, -56309.668, 0.015867328, 0.119272016, -285890.8, -46442.055, 0.000000000000000000046744374, 9.999987, 9.998941 
6.450556e+2, 2.855664e+2, -212907.3, -339826.56, 13717.849, 0.035184223, 0.15903565, -211441.55, -69982.94, 0.00000034821963, 10.000207, 9.998545 
6.4506483e+2, 2.9556516e+2, -13117.548, -216784.28, 22526.887, 0.10605122, 0.14705089, -10655.684, 32813.727, 0.0000068469953, 10.000989, 9.998343 
6.4507216e+2, 3.055625e+2, 72343.83, -276116.84, 874.4475, 0.07343587, 0.12226773, 72346.02, 72346.02, 0.00003364889, 10.001817, 9.997192 
6.450826e+2, 3.15561e+2, 334886.56, 72936.23, 35870.145, 0.41551048, 0.19608586, 339709.66, 339709.66, 0.000093661416, 10.002588, 9.999216 
6.5491855e+2, 1.255564e+2, -1863752.1, -1775544.0, -145578.53, 0.044531006, 0.003861828, -1667535.3, 42016.85, 0.000000001405694, 9.998883, 10.00009 
6.549288e+2, 1.3555835e+2, -1748008.4, -1636458.8, 69651.445, 0.070454925, 0.12924385, -1603002.6, 8532.359, 0.0, 9.99888, 10.000395 
6.549356e+2, 1.4555903e+2, -1652273.6, -1513124.1, -33558.105, -0.23487753, 0.15723088, -1505453.9, 8075.156, 0.0, 9.998732, 10.000629 
6.549452e+2, 1.5555906e+2, -1552166.4, -1415153.5, -35121.426, -0.071930155, 0.056561906, -1406675.3, 8852.788, 0.0, 9.998753, 10.000621 
6.549537e+2, 1.6555938e+2, -1441944.9, -1338566.4, -24115.51, -0.032332316, 0.04626513, -1333217.6, -15694.271, 0.0, 9.998965, 10.000363 
6.549622e+2, 1.7555979e+2, -1281653.8, -1212792.0, -8246.399, -0.049416043, 0.017610373, -1211818.3, 7698.879, 0.0, 9.999407, 10.00034 
6.549707e+2, 1.8556002e+2, -1232181.3, -1197114.8, -48143.023, -0.012372163, 0.040572494, -1163411.6, -41897.746, 0.0, 9.999315, 9.999822 
6.5497905e+2, 1.9555978e+2, -1202787.6, -1127444.0, -20617.225, 0.051945724, -0.00023488486, -1122171.3, -98655.05, 0.0, 9.998835, 9.999856 
6.549873e+2, 2.0555972e+2, -1130305.6, -1052224.1, -23679.754, 0.07904848, 0.01825161, -1045604.06, -120087.01, 0.0, 9.998702, 9.999764 
6.5499556e+2, 2.1555947e+2, -1017548.7, -943632.06, -31457.299, 0.07968486, -0.0152581865, -932057.06, -104537.43, 0.0, 9.998788, 9.999793 
6.550039e+2, 2.2555989e+2, -889519.56, -818051.75, -52576.92, 0.098066404, 0.04448435, -790214.9, -60699.14, 0.0, 9.99893, 9.999913 
6.550123e+2, 2.3556049e+2, -768494.1, -710225.75, -32810.605, 0.114625186, 0.0786499, -695481.25, -63971.313, 0.0, 9.999091, 9.999905 
6.550222e+2, 2.455604e+2, -619012.8, -627889.06, 64899.598, 0.122054815, 0.10365487, -558399.75, -24888.605, 0.0, 9.999646, 9.999527 
6.550333e+2, 2.5555944e+2, -406264.84, -476583.63, 93030.22, 0.116352744, 0.023552816, -341971.72, 93548.9, 0.0, 10.000435, 9.999512 
6.550412e+2, 2.6555884e+2, -345651.03, -477272.72, -72228.82, 0.035813525, 0.053196874, -313747.66, 23780.361, 0.0, 10.000518, 9.998796 
6.5504664e+2, 2.7555817e+2, -333679.06, -423212.6, -56441.22, -0.092570856, 0.07669868, -306406.44, -66869.64, 0.0000000002377775, 9.99992, 9.998793 
6.5505564e+2, 2.8555763e+2, -167526.42, -226066.92, 29080.777, -0.016850805, 0.11759461, -155536.05, -13994.957, 0.0000008000927, 10.000135, 9.999353 
6.5506715e+2, 2.9555675e+2, 21163.947, -114410.02, 68811.68, 0.19487369, 0.057687055, 49969.52, 93514.86, 0.000010270006, 10.000865, 9.9991 
6.550747e+2, 3.0555385e+2, 70836.78, -282181.2, 20883.125, 0.10792401, -0.027510794, 72067.85, 72067.85, 0.00004390313, 10.001816, 9.997159 
6.5508384e+2, 3.155536e+2, 262164.16, -64470.527, 95056.66, 0.2061857, 0.18040004, 287813.28, 287813.28, 0.00011355634, 10.002527, 9.998306 
6.649187e+2, 1.2554726e+2, -1784333.4, -1732646.5, -144223.63, 0.15413372, -0.0848399, -1611969.3, 97669.04, 0.00000000035571668, 9.999408, 10.000126 
6.649269e+2, 1.3554966e+2, -1780453.1, -1667252.1, 88204.35, 0.0063857795, 0.090595886, -1619049.9, -7431.6553, 0.0, 9.998702, 10.000282 
6.649353e+2, 1.455508e+2, -1668306.0, -1536489.1, 61383.703, -0.1262343, 0.17835113, -1512331.6, 1277.2188, 0.0, 9.998695, 10.000482 
6.6494507e+2, 1.5555084e+2, -1415627.5, -1362143.9, 5779.2646, 0.0021512369, 0.08678015, -1361526.5, 54082.113, 0.0, 9.999761, 10.000488 
6.6495323e+2, 1.6555087e+2, -1338959.5, -1307579.5, 8625.349, -0.0034113098, 0.06284426, -1305365.0, 12242.108, 0.0, 9.999759, 10.000193 
6.649611e+2, 1.755507e+2, -1382459.5, -1275582.6, -18602.625, -0.05415872, -0.00423502, -1272437.3, -52830.87, 0.0, 9.9987755, 10.000212 
6.6496986e+2, 1.8555097e+2, -1281322.0, -1175806.6, -15814.328, 0.009372618, 0.0067603057, -1173487.4, -51885.633, 0.0, 9.998797, 10.000217 
6.649791e+2, 1.9555125e+2, -1065503.9, -1026444.5, -15544.534, 0.14285223, -0.022388574, -1021013.4, 2583.9592, 0.0, 9.999619, 10.000177 
6.649873e+2, 2.0555113e+2, -996590.25, -1024185.1, 8128.9297, 0.1627402, -0.0068267398, -994373.7, -68775.164, 0.0, 9.99977, 9.999452 
6.649948e+2, 2.1555047e+2, -960921.75, -950992.0, -9037.883, 0.10536607, -0.049845804, -945645.06, -118038.38, 0.0, 9.999322, 9.9994955 
6.650031e+2, 2.2555073e+2, -787403.3, -767642.3, 30704.635, 0.09678472, 0.008720422, -745267.56, -15663.101, 0.0, 9.999639, 9.999923 
6.650121e+2, 2.3555146e+2, -559486.2, -610216.2, 19767.77, 0.118112005, 0.061608877, -552693.0, 78903.5, 0.0, 10.000543, 9.999898 
6.6502213e+2, 2.4555151e+2, -513810.9, -565695.56, 102083.02, 0.12500924, 0.09539171, -434425.44, 99170.85, 0.0, 10.000281, 9.999661 
6.65033e+2, 2.555507e+2, -606399.9, -562391.6, 69840.945, 0.124713615, 0.015329384, -511170.5, -75565.586, 0.0, 9.998981, 9.999636 
6.650411e+2, 2.6554984e+2, -501644.28, -544629.25, -38594.92, 0.037140433, 0.008628144, -478961.03, -141347.16, 0.0, 9.999411, 9.998869 
6.65047e+2, 2.7554867e+2, -133382.81, -315111.66, -35139.223, -0.10684821, -0.025989152, -126824.914, 112800.13, 0.0000000023427176, 10.001267, 9.998875 
6.6505647e+2, 2.85548e+2, 23757.15, -178130.63, 22507.887, -0.012089316, 0.01953017, 26236.053, 167866.61, 0.0000014418595, 10.001617, 9.9989805 
6.650685e+2, 2.9554722e+2, -34305.465, -171667.34, -54448.66, 0.26773703, -0.00053974637, -15340.937, 28295.387, 0.000014823799, 10.000607, 9.998834 
6.650768e+2, 3.055447e+2, 44486.47, -240841.11, -29799.084, 0.16567229, -0.058422048, 47565.406, 47565.406, 0.000057815294, 10.001413, 9.997633 
6.6508687e+2, 3.1554386e+2, 379459.44, -26980.193, 3075.4155, 0.22200204, 0.046919823, 379482.72, 379482.72, 0.00014076945, 10.00341, 9.99814 
6.749176e+2, 1.2554021e+2, -1732282.5, -1621412.9, -202009.27, 0.029763797, 0.019380357, -1467370.4, 242337.05, 0.0000000023126079, 9.999404, 10.000889 
6.749253e+2, 1.3553996e+2, -1750994.4, -1603129.4, 71525.6, -0.044763133, -0.12350452, -1574193.4, 37514.582, 0.0, 9.998697, 10.000724 
6.7493576e+2, 1.4554109e+2, -1703367.1, -1595754.3, 81773.02, 0.010260391, -0.034230232, -1551673.3, -37975.242, 0.0, 9.998643, 10.000098 
6.74945e+2, 1.5554293e+2, -1439426.4, -1410629.9, 58755.867, -0.01658245, 0.094884, -1364533.9, 51149.484, 0.0, 9.999761, 10.000154 
6.749529e+2, 1.6554317e+2, -1364815.9, -1357060.4, -44096.484, -0.04446999, 0.1234824, -1316671.5, 1010.4085, 0.0, 9.999735, 9.999868 
6.7496055e+2, 1.7554186e+2, -1409825.6, -1320040.0, -38876.17, -0.017223055, -0.026016714, -1305546.6, -85852.72, 0.0, 9.998722, 9.999932 
6.749695e+2, 1.8554221e+2, -1262711.4, -1118024.1, -3018.915, 0.062074296, -0.018596934, -1117961.1, 3726.8748, 0.0, 9.998711, 10.000659 
6.749792e+2, 1.9554362e+2, -1056654.1, -974544.25, 26298.271, 0.16174895, 0.027338177, -966843.6, 56826.34, 0.0, 9.999479, 10.000602 
6.749872e+2, 2.0554346e+2, -1027272.9, -1054106.8, -22535.46, 0.15042341, 0.025880337, -1014462.7, -88792.555, 0.0, 9.999616, 9.999326 
6.7499375e+2, 2.1554175e+2, -992731.56, -976716.2, -9780.164, 0.049725454, -0.112892926, -972083.7, -144395.66, 0.0, 9.999146, 9.999402 
6.750024e+2, 2.2554109e+2, -816149.9, -784920.3, 49977.77, 0.042669564, -0.1384966, -748174.8, -18481.592, 0.0, 9.999457, 9.999892 
6.750127e+2, 2.3554105e+2, -591513.3, -628881.25, 66125.336, 0.099034734, -0.16226229, -541483.06, 90207.88, 0.0, 10.00034, 9.9998665 
6.7502236e+2, 2.4554154e+2, -556401.9, -616360.75, 41505.74, 0.0915734, -0.06892203, -535180.8, -1493.6814, 0.0, 10.000126, 9.999385 
6.750313e+2, 2.555421e+2, -646377.0, -613349.06, 42065.133, 0.025705678, 0.0163387, -584672.44, -148986.69, 0.0, 9.998842, 9.999352 
6.750398e+2, 2.6554117e+2, -494292.34, -503595.22, 16043.689, -0.056116346, 0.0000612766, -482239.4, -144544.69, 0.0, 9.999306, 9.9992 
6.750481e+2, 2.755388e+2, -131635.92, -287670.3, 45808.29, -0.15873894, -0.19126858, -119181.67, 120532.484, 0.0000000015372758, 10.001164, 9.999116 
6.750579e+2, 2.8553754e+2, -83128.87, -387877.4, -29206.05, -0.06601425, -0.14015914, -80355.1, 61372.094, 0.0000017821444, 10.001572, 9.997558 
6.750685e+2, 2.955368e+2, -138941.67, -362614.47, -65612.47, 0.16159219, -0.0107506905, -121115.516, -77376.37, 0.000019076204, 10.000499, 9.997572 
6.7507774e+2, 3.055351e+2, 95403.16, -121585.445, 38745.184, 0.08917387, 0.02598928, 102113.9, 102113.9, 0.000073988194, 10.001361, 9.998475 
6.750905e+2, 3.155321e+2, 402039.66, 53437.18, 104419.03, 0.17333475, -0.16483206, 430923.7, 430923.7, 0.00017626988, 10.003279, 9.998751 
6.8491733e+2, 1.255326e+2, -1800739.8, -1650780.0, -103532.48, 0.1103005, 0.025267096, -1597928.1, 111852.6, 0.0000000036242784, 9.99889, 10.000951 
6.8492424e+2, 1.3553199e+2, -1682289.4, -1581387.0, 20521.568, -0.038647644, -0.13704057, -1577373.0, 34410.773, 0.0, 9.999247, 10.000593 
6.849356e+2, 1.455328e+2, -1640430.3, -1580451.6, 87791.7, 0.120778784, -0.06624196, -1517668.4, -3891.9028, 0.0, 9.999127, 9.999975 
6.8494445e+2, 1.5553431e+2, -1565493.4, -1485341.4, 54677.863, 0.00087471143, 0.042996462, -1457625.4, -41860.223, 0.0, 9.9989395, 10.000049 
6.849523e+2, 1.6553475e+2, -1468768.1, -1393126.8, -24533.75, -0.03207199, 0.08523851, -1385866.3, -68104.11, 0.0, 9.998952, 10.000005 
6.849601e+2, 1.75534e+2, -1350240.9, -1285028.4, -12366.963, 0.05750108, -0.02030956, -1282761.9, -62993.37, 0.0, 9.99909, 10.000007 
6.849691e+2, 1.8553416e+2, -1194481.6, -1115074.9, 74992.6, 0.13333683, -0.01717896, -1069924.0, 51840.45, 0.0, 9.999303, 10.000389 
6.849787e+2, 1.9553474e+2, -1072174.0, -1009592.25, 22381.74, 0.17398506, -0.033101927, -1002411.56, 21343.484, 0.0, 9.999486, 10.000351 
6.8498695e+2, 2.0553458e+2, -999627.3, -1057093.0, -40709.004, 0.15740709, -0.0153126465, -978532.5, -52776.63, 0.0, 9.999908, 9.99914 
6.8499404e+2, 2.1553352e+2, -798066.7, -907016.7, -62215.902, 0.09720257, -0.06572685, -769847.4, 57920.543, 0.0, 10.000597, 9.999171 
6.8500274e+2, 2.255326e+2, -677012.2, -755264.6, 9643.097, 0.08378243, -0.09070526, -675841.4, 53934.816, 0.0, 10.000559, 9.999564 
6.850128e+2, 2.3553157e+2, -678098.2, -706519.1, -27766.973, 0.10606615, -0.18229, -661116.6, -29333.127, 0.0, 9.999881, 9.999556 
6.850222e+2, 2.4553175e+2, -609916.06, -638198.3, -40191.07, 0.088526905, -0.10663448, -581450.94, -47668.453, 0.0, 9.99976, 9.999398 
6.850308e+2, 2.5553265e+2, -448657.28, -511171.47, -41887.26, 0.036080204, 0.009786439, -427650.16, 8127.2446, 0.0, 10.000197, 9.999385 
6.8503994e+2, 2.6553208e+2, -334319.16, -411937.78, 10965.121, -0.025136448, 0.020580651, -332799.88, 4982.4365, 0.0, 10.000326, 9.99934 
6.850494e+2, 2.7552998e+2, -282999.0, -349795.66, -5977.969, -0.07548129, -0.15582976, -282468.22, -42669.984, 0.00000000039754933, 10.000055, 9.999229 
6.8505955e+2, 2.855283e+2, -225759.84, -497043.22, -31557.53, -0.0013400407, -0.13277608, -222137.22, -80321.68, 0.000001935021, 10.000772, 9.997188 
6.8506986e+2, 2.9552662e+2, 128026.266, -267742.2, -23650.57, 0.16702732, -0.05917753, 129434.58, 173272.3, 0.000022833043, 10.002475, 9.997272 
6.8507934e+2, 3.0552527e+2, 281285.34, -8404.019, 116998.13, 0.06977516, 0.013131214, 322635.56, 322635.56, 0.00009092674, 10.002541, 9.998687 
6.850927e+2, 3.1552228e+2, 62251.113, -46101.805, 74015.78, 0.21303096, -0.1852691, 99799.375, 99799.375, 0.00021663251, 10.000641, 9.999354 
6.9491756e+2, 1.2552461e+2, -1836822.6, -1726483.4, -63797.973, 0.16257188, -0.05700017, -1697309.3, 12547.214, 0.00000000017840025, 9.998908, 10.000412 
6.949231e+2, 1.3552594e+2, -1733689.0, -1692234.3, 40931.676, -0.11439007, 0.058787987, -1667081.1, -55237.297, 0.0, 9.999269, 9.999819 
6.9493455e+2, 1.4552598e+2, -1628639.0, -1552862.0, 63655.516, 0.06283922, 0.07473214, -1516672.4, -2828.2166, 0.0, 9.99911, 10.0001745 
6.94943e+2, 1.5552497e+2, -1555080.9, -1465275.9, 64524.34, -0.07079912, -0.0863719, -1431567.8, -15713.002, 0.0, 9.998934, 10.0001955 
6.9495094e+2, 1.6552554e+2, -1437787.3, -1312503.3, -32891.637, -0.1000434, -0.062971555, -1304393.0, 13454.99, 0.0, 9.998891, 10.00058 
6.9495934e+2, 1.755273e+2, -1323709.3, -1215629.1, 10913.561, 0.03737218, 0.024401488, -1214538.1, 5290.057, 0.0, 9.999031, 10.00051 
6.949683e+2, 1.8552704e+2, -1276780.9, -1261100.0, 70370.31, 0.092093356, 0.008910077, -1198134.8, -76305.4, 0.0, 9.9992, 9.999433 
6.949772e+2, 1.9552472e+2, -1156242.5, -1155566.6, 44488.19, 0.049091775, -0.19992107, -1111415.0, -87563.695, 0.0, 9.999373, 9.999397 
6.9498616e+2, 2.055245e+2, -1038869.9, -1110652.9, -30497.928, 0.05873769, -0.12599182, -1027662.3, -101806.96, 0.0, 9.99978, 9.9988365 
6.949951e+2, 2.1552576e+2, -847537.4, -967176.1, -25628.268, 0.118746296, 0.085591905, -842278.6, -14431.629, 0.0, 10.000412, 9.998846 
6.9500375e+2, 2.2552529e+2, -747617.8, -859014.25, -28880.213, 0.100882374, 0.15186223, -740575.6, -10722.632, 0.0, 10.000375, 9.998939 
6.95012e+2, 2.3552305e+2, -743021.56, -802760.7, -37810.824, 0.009211706, 0.0011232931, -724705.5, -92831.445, 0.0, 9.999718, 9.998969 
6.9502115e+2, 2.4552225e+2, -600082.0, -595442.25, -36990.492, -0.01243035, -0.010608832, -560699.0, -26817.7, 0.0, 9.999657, 9.9997425 
6.9503117e+2, 2.5552234e+2, -439263.47, -469163.8, -10556.178, 0.021011122, -0.011533007, -435912.28, -32.393635, 0.0, 10.000091, 9.999727 
6.950409e+2, 2.6552245e+2, -353977.5, -427520.66, -10326.776, 0.016176537, 0.057855897, -352554.94, -14677.775, 0.0, 10.000226, 9.999277 
6.950505e+2, 2.755223e+2, -302359.44, -364616.56, 3100.545, -0.012262644, 0.07845182, -302205.4, -62328.38, 0.0000000054780975, 9.999952, 9.999174 
6.950611e+2, 2.855203e+2, -191044.03, -411316.1, 16370.272, 0.037248395, 0.042109102, -189834.06, -47938.348, 0.000002364329, 10.000715, 9.997801 
6.950723e+2, 2.9551667e+2, 152410.47, -192604.5, 56443.434, 0.11283141, -0.14464524, 161409.7, 205341.81, 0.000027093956, 10.002373, 9.997833 
6.9508123e+2, 3.0551514e+2, 248149.0, -72884.58, 40767.285, -0.027921699, -0.09534042, 253245.05, 253245.05, 0.00010798756, 10.002513, 9.998255 
6.950929e+2, 3.1551445e+2, 86304.055, 16547.691, 40568.33, 0.094788045, -0.02676644, 104926.125, 104926.125, 0.00025661878, 10.000579, 9.999813 
7.0491767e+2, 1.2551598e+2, -1697009.9, -1671553.9, -94610.92, 0.2503675, -0.059183754, -1588818.6, 121123.234, 0.0, 9.999893, 10.00033 
7.049221e+2, 1.3551755e+2, -1789270.0, -1736137.9, -50310.27, -0.114733644, 0.09534126, -1705810.4, -93883.45, 0.0, 9.998932, 9.999686 
7.0493335e+2, 1.4551724e+2, -1731421.4, -1581460.0, 45163.7, 0.080572665, 0.07499625, -1568908.6, -54978.965, 0.0, 9.998321, 10.000353 
7.0494217e+2, 1.5551634e+2, -1591022.4, -1457774.6, 16658.908, -0.025042985, -0.09432548, -1455723.4, -39785.445, 0.0, 9.998602, 10.000391 
7.049502e+2, 1.6551687e+2, -1431740.6, -1319177.4, -65718.99, -0.052942075, -0.08089852, -1288933.9, 28997.234, 0.0, 9.998989, 10.000477 
7.049588e+2, 1.7551827e+2, -1292105.5, -1207127.9, -106045.29, 0.075769275, -0.017416148, -1135376.1, 84538.32, 0.0, 9.999294, 10.000427 
7.04968e+2, 1.8551803e+2, -1225156.5, -1268706.9, -11705.153, 0.12507403, -0.014421996, -1222209.9, -100293.39, 0.0, 9.999693, 9.999145 
7.049773e+2, 1.9551598e+2, -1058864.4, -1141726.6, -14454.717, 0.085541256, -0.1641709, -1056415.3, -32477.518, 0.0, 10.0001745, 9.999115 
7.0498675e+2, 2.055156e+2, -920180.94, -1058662.8, -18473.207, 0.111318335, -0.091490254, -917759.0, 8184.5405, 0.0, 10.000594, 9.998814 
7.049964e+2, 2.1551636e+2, -783752.25, -939809.5, -20403.488, 0.19614989, 0.070894994, -781128.75, 46810.1, 0.0, 10.000848, 9.998833 
7.050049e+2, 2.2551565e+2, -700064.8, -876423.3, -4876.052, 0.16247196, 0.13521695, -699930.1, 30017.15, 0.0, 10.000883, 9.9985695 
7.0501226e+2, 2.3551348e+2, -609822.0, -775590.7, -21952.03, 0.020390525, 0.026264321, -606964.25, 25005.064, 0.0, 10.000802, 9.998631 
7.0502126e+2, 2.4551243e+2, -468860.13, -530701.56, 12838.427, -0.014079162, 0.0042641205, -466300.75, 67677.46, 0.0, 10.000545, 9.999768 
7.050315e+2, 2.55512e+2, -437761.6, -466910.75, -11988.149, 0.048520144, -0.049361773, -433464.66, 2514.5183, 0.0, 10.000091, 9.999751 
7.0504177e+2, 2.6551187e+2, -357595.94, -465140.78, 4888.62, 0.08280303, 0.008935005, -357374.2, -19395.436, 0.0, 10.000355, 9.998961 
7.0505214e+2, 2.7551165e+2, -136920.17, -311962.75, -32165.398, 0.10298019, 0.05899657, -131196.67, 108783.695, 0.000000016182126, 10.001217, 9.998921 
7.050628e+2, 2.855099e+2, -69415.88, -326245.06, 917.977, 0.1148602, 0.044276495, -69412.6, 72584.51, 0.0000030357212, 10.001408, 9.998068 
7.0507365e+2, 2.9550678e+2, -52338.164, -266911.66, -16126.598, 0.10287011, -0.11986965, -51132.914, -7104.8115, 0.000031540207, 10.000833, 9.99808 
7.050827e+2, 3.0550483e+2, 7240.5254, -190748.7, -34900.33, -0.035331737, -0.12401576, 13212.412, 13212.412, 0.00012311795, 10.000869, 9.998227 
7.050949e+2, 3.1550482e+2, 183478.92, 69560.96, -83040.23, 0.20958446, 0.013216418, 227217.53, 227217.53, 0.0002906225, 10.00124, 9.999839 
7.1491706e+2, 1.2550674e+2, -1648985.6, -1575398.3, -120566.7, 0.12791002, 0.03856833, -1486136.0, 223900.64, 0.0, 9.99991, 10.000977 
7.1492076e+2, 1.3550664e+2, -1739006.6, -1643960.8, -79746.52, -0.17437777, -0.045891687, -1598650.8, 13383.897, 0.0, 9.998973, 10.000304 
7.149316e+2, 1.455066e+2, -1721640.1, -1557471.4, 35455.668, 0.02866159, -0.07606807, -1550141.3, -36107.934, 0.0, 9.998312, 10.000515 
7.149414e+2, 1.555086e+2, -1585300.8, -1442601.8, 44452.223, 0.0030412574, 0.02736875, -1429887.3, -13873.965, 0.0, 9.998584, 10.000504 
7.149499e+2, 1.6550872e+2, -1497884.9, -1438047.9, -68580.9, -0.016685678, 0.03520248, -1393143.5, -75132.38, 0.0, 9.998918, 9.999693 
7.1495813e+2, 1.7550686e+2, -1352671.1, -1321810.9, -81038.3, 0.04576081, -0.1501602, -1254746.8, -34718.844, 0.0, 9.999252, 9.999659 
7.149678e+2, 1.8550701e+2, -1207096.8, -1215002.6, -8951.087, 0.10553263, -0.088247895, -1201264.6, -79237.79, 0.0, 9.999621, 9.999551 
7.1497846e+2, 1.9550857e+2, -1050277.0, -1092349.4, 18921.768, 0.15169305, 0.08110279, -1043019.1, -19005.617, 0.0, 10.00004, 9.999521 
7.1498835e+2, 2.0550801e+2, -926212.56, -1026957.3, -21558.871, 0.18445395, 0.09963357, -921792.94, 4226.009, 0.0, 10.000416, 9.999112 
7.1499765e+2, 2.1550539e+2, -799214.8, -916047.0, 1523.5885, 0.20625216, -0.106850825, -799194.94, 28847.848, 0.0, 10.000625, 9.999098 
7.150059e+2, 2.2550386e+2, -730977.1, -904307.7, -24168.217, 0.14590716, -0.1305889, -727670.4, 2387.4312, 0.0, 10.000721, 9.99846 
7.1501327e+2, 2.3550296e+2, -644783.6, -807723.4, -11616.522, 0.009587729, -0.09843259, -643959.56, -11891.343, 0.0, 10.000624, 9.9985 
7.150218e+2, 2.4550232e+2, -514271.25, -587402.0, -18723.127, -0.038888462, -0.05531385, -509756.44, 24316.39, 0.0, 10.000384, 9.999456 
7.150312e+2, 2.5550163e+2, -481684.84, -525273.94, -12095.632, -0.019714259, -0.10422112, -478553.38, -42477.836, 0.0, 9.999957, 9.9994135 
7.15042e+2, 2.655003e+2, -400903.63, -549300.44, 21599.074, 0.04158458, -0.11821833, -397823.8, -59737.11, 0.0, 10.000322, 9.9984045 
7.1505404e+2, 2.7549815e+2, -188245.75, -396962.13, 15414.357, 0.13426456, -0.20918895, -187113.5, 52994.613, 0.000000020828322, 10.001116, 9.998392 
7.150645e+2, 2.8549713e+2, -84466.414, -332253.0, -32964.2, 0.11360017, -0.12567215, -80156.016, 61963.902, 0.0000037854625, 10.001316, 9.998063 
7.150736e+2, 2.9549694e+2, -72471.92, -277723.34, -13237.296, -0.025861159, 0.009764765, -71621.73, -27496.371, 0.000035842306, 10.000722, 9.99805 
7.1508324e+2, 3.054945e+2, 30953.844, -149855.77, -28898.258, -0.10366652, -0.05993451, 35460.25, 35460.25, 0.000135526, 10.000889, 9.998509 
7.1509755e+2, 3.154929e+2, 131208.92, -19588.365, -46821.113, 0.279496, -0.10963142, 144563.7, 144563.7, 0.00031586387, 10.001139, 9.9992895 
7.2491586e+2, 1.2549771e+2, -1854209.6, -1716198.6, 63180.98, 0.09706415, 0.015078073, -1691643.5, 18480.154, 0.0, 9.998648, 10.000652 
7.249204e+2, 1.3549764e+2, -1620470.8, -1584520.4, -54382.83, -0.13537516, -0.053386975, -1545219.0, 66903.6, 0.0, 9.9998045, 10.000307 
7.249309e+2, 1.454974e+2, -1523195.3, -1490173.8, 43443.906, 0.06785475, -0.09396154, -1460209.0, 53914.934, 0.0, 9.999783, 10.000282 
7.2494113e+2, 1.554994e+2, -1544895.8, -1444677.5, -3143.5598, 0.11354865, 0.035829823, -1444579.0, -28475.719, 0.0, 9.998952, 10.000317 
7.249499e+2, 1.6549923e+2, -1451798.9, -1457597.5, -37545.07, 0.07755475, 0.040092546, -1417041.4, -98937.39, 0.0, 9.999375, 9.999362 
7.2495794e+2, 1.7549682e+2, -1149457.6, -1255316.0, -43360.348, 0.03491357, -0.17062002, -1133964.5, 86161.81, 0.0, 10.000764, 9.999397 
7.2496766e+2, 1.8549694e+2, -1028634.4, -1115191.5, 19182.74, 0.07985215, -0.10492244, -1024573.6, 97551.46, 0.0, 10.000784, 9.999675 
7.249784e+2, 1.954989e+2, -1100846.4, -1098879.8, -3159.589, 0.17762513, 0.091478996, -1096554.0, -72446.48, 0.0, 9.999618, 9.999677 
7.249886e+2, 2.0549846e+2, -1038530.7, -1062631.4, 1965.4996, 0.22230898, 0.10505476, -1038371.44, -112259.836, 0.0, 9.999578, 9.999275 
7.249983e+2, 2.1549563e+2, -816088.6, -908032.06, -11922.9795, 0.23369639, -0.1327846, -814567.6, 13569.492, 0.0, 10.000437, 9.9992485 
7.250069e+2, 2.2549425e+2, -706170.5, -862069.44, -19484.023, 0.17923306, -0.1649165, -703772.25, 26377.898, 0.0, 10.000762, 9.998737 
7.2501445e+2, 2.3549375e+2, -624347.2, -771590.4, -8652.613, 0.07758605, -0.118605085, -623840.44, 8315.023, 0.0, 10.0006485, 9.998743 
7.2502315e+2, 2.4549294e+2, -457802.38, -620459.5, 33243.734, 0.037860986, -0.07661021, -451270.38, 82891.41, 0.0, 10.001043, 9.998903 
7.250326e+2, 2.5549158e+2, -227133.42, -463878.03, -6502.242, 0.03814782, -0.13587576, -226954.97, 209216.97, 0.0, 10.001968, 9.998863 
7.2504324e+2, 2.654898e+2, -193073.61, -472282.1, 49997.258, 0.061217885, -0.16129486, -184390.73, 153797.66, 0.0, 10.001863, 9.998183 
7.250548e+2, 2.7548727e+2, -226433.06, -439045.03, 35260.07, 0.12241081, -0.26488426, -220738.0, 19475.504, 0.000000011844985, 10.000947, 9.998187 
7.250654e+2, 2.854864e+2, -190801.6, -356828.22, 35028.406, 0.12593946, -0.16894448, -183713.86, -41490.023, 0.000004675658, 10.000492, 9.9982815 
7.25075e+2, 2.954867e+2, -97805.92, -264661.66, 34654.15, 0.06978263, -0.0060830764, -90894.875, -46670.855, 0.000040333267, 10.000453, 9.9982605 
7.2508484e+2, 3.0548483e+2, 8777.502, -152876.52, 76357.7, -0.014578095, -0.024199976, 39141.79, 39141.79, 0.00014552829, 10.000713, 9.998585 
7.250985e+2, 3.1548297e+2, 73339.39, -91728.02, -41355.797, 0.28803465, -0.11030241, 83120.984, 83120.984, 0.00033116215, 10.000937, 9.998898 
7.3491365e+2, 1.2548901e+2, -1946873.0, -1899935.4, 90821.11, -0.05562865, -0.11882545, -1829599.9, -119398.09, 0.0, 9.99862, 9.999395 
7.3492056e+2, 1.3549072e+2, -1683889.9, -1721282.5, -8669.902, -0.13361894, 0.08335201, -1681977.5, -69787.89, 0.0, 9.999812, 9.999369 
7.349308e+2, 1.4548951e+2, -1575526.1, -1578075.4, -7234.6445, 0.041139588, 0.018374674, -1569454.6, -55252.13, 0.0, 9.999705, 9.999706 
7.3494107e+2, 1.5548855e+2, -1589855.5, -1537596.8, -13323.865, 0.16965544, -0.09105465, -1534395.8, -118185.61, 0.0, 9.998948, 9.999681 
7.349498e+2, 1.654883e+2, -1435273.8, -1419114.0, -962.5969, 0.10062815, -0.0754168, -1419056.9, -100846.56, 0.0, 9.999359, 9.99963 
7.3495793e+2, 1.7548828e+2, -1141214.0, -1225175.3, 21252.406, -0.07719537, -0.0730456, -1136141.0, 84066.6, 0.0, 10.000702, 9.999639 
7.3496705e+2, 1.8548794e+2, -1061813.6, -1152875.9, -37912.363, -0.084057316, -0.055937063, -1048095.94, 74113.86, 0.0, 10.000659, 9.99947 
7.349769e+2, 1.9548705e+2, -1136100.1, -1138427.6, -30581.076, 0.030524176, -0.12516023, -1106660.6, -82441.85, 0.0, 9.999484, 9.999463 
7.3498726e+2, 2.0548698e+2, -1055086.5, -1065647.0, 18521.697, 0.10381772, -0.06379587, -1041107.06, -114886.23, 0.0, 9.999437, 9.999324 
7.3499805e+2, 2.154873e+2, -837251.8, -905595.6, 33295.508, 0.13920712, 0.0029438701, -823713.06, 4507.0767, 0.0, 10.000237, 9.999358 
7.3500746e+2, 2.2548698e+2, -691534.6, -784962.3, -38339.51, 0.13631469, 0.041761138, -677815.8, 52406.746, 0.0, 10.000563, 9.99936 
7.350155e+2, 2.3548584e+2, -614574.94, -703255.0, 4615.037, 0.094982296, -0.03952346, -614335.4, 17895.328, 0.0, 10.000451, 9.999303 
7.35025e+2, 2.4548426e+2, -524331.56, -737279.56, 54648.637, 0.0857094, -0.062115114, -511126.03, 23118.771, 0.0, 10.000945, 9.99815 
7.350355e+2, 2.55482e+2, -302080.2, -581108.1, 39672.17, 0.0985908, -0.1397428, -296549.25, 139717.9, 0.0, 10.0018015, 9.99814 
7.350451e+2, 2.6548043e+2, -205148.95, -469981.25, 4158.859, 0.0347276, -0.10736582, -205083.67, 133198.48, 0.0, 10.001748, 9.998251 
7.350541e+2, 2.754791e+2, -235422.69, -436202.94, 23252.287, -0.08169043, -0.0986162, -232765.02, 7530.3335, 0.000000051096855, 10.000858, 9.998248 
7.3506504e+2, 2.854778e+2, -152629.23, -288221.3, 19497.293, 0.0012372057, -0.07812433, -149881.33, -7573.2305, 0.0000058850314, 10.0005245, 9.99874 
7.350775e+2, 2.9547617e+2, -78780.945, -215668.83, 54650.883, 0.2268844, -0.1529642, -59638.977, -15315.95, 0.000044056193, 10.0004015, 9.998626 
7.350869e+2, 3.05476e+2, -9443.685, -187432.17, 79068.484, 0.09456473, -0.0063974145, 20607.441, 20607.441, 0.00015023243, 10.0007, 9.998351 
7.3509663e+2, 3.154748e+2, 33890.867, -148596.66, -12188.422, -0.07349429, 0.0002942174, 34701.34, 34701.34, 0.0003329124, 10.00083, 9.998557 
7.449123e+2, 1.2547973e+2, -1933558.4, -1884563.9, -11745.415, -0.032143123, -0.06632825, -1881893.6, -171599.19, 0.0, 9.99871, 9.999428 
7.4492097e+2, 1.354814e+2, -1737935.4, -1708788.8, -83680.87, -0.034073453, 0.099224694, -1638421.6, -26139.906, 0.0, 9.999311, 9.999676 
7.449307e+2, 1.4548035e+2, -1598935.3, -1601799.1, -25290.354, 0.07307448, 0.03999405, -1575036.4, -60743.645, 0.0, 9.999598, 9.999591 
7.449409e+2, 1.5547913e+2, -1469314.6, -1485223.4, -29585.445, 0.22129881, -0.08725929, -1446632.9, -30330.28, 0.0, 9.999813, 9.999611 
7.4495e+2, 1.6547886e+2, -1357583.8, -1365946.4, 62154.207, 0.17091562, -0.07794308, -1299470.4, 18831.75, 0.0, 9.999831, 9.999766 
7.449589e+2, 1.7547898e+2, -1274496.5, -1270060.3, 42212.87, 0.0070480164, -0.07558355, -1230007.3, -9710.476, 0.0, 9.99971, 9.999804 
7.449679e+2, 1.8547827e+2, -1196184.4, -1239771.9, -27461.242, -0.013753888, -0.09544759, -1182919.8, -60618.344, 0.0, 9.999816, 9.99929 
7.4497694e+2, 1.9547649e+2, -1064500.5, -1127255.8, -40894.38, 0.06975066, -0.23311232, -1044332.94, -20015.002, 0.0, 10.000056, 9.999273 
7.449872e+2, 2.054764e+2, -939385.1, -993144.25, 74049.09, 0.1284401, -0.17323989, -887487.94, 38832.14, 0.0, 10.000153, 9.999465 
7.449984e+2, 2.1547744e+2, -844418.2, -896475.8, 61504.016, 0.16553327, -0.049840488, -803661.94, 24651.174, 0.0, 10.000127, 9.99947 
7.4500835e+2, 2.2547752e+2, -670951.7, -772218.7, -1323.7058, 0.17294447, 0.022231238, -670934.4, 59378.24, 0.0, 10.000698, 9.999375 
7.4501705e+2, 2.3547652e+2, -426803.6, -616432.56, -37292.465, 0.14895467, -0.049132854, -419733.25, 212587.7, 0.0, 10.001737, 9.999284 
7.4502665e+2, 2.4547496e+2, -455034.22, -729811.44, 22382.232, 0.137533, -0.054606803, -453223.0, 81112.914, 0.0, 10.001531, 9.997926 
7.450369e+2, 2.554727e+2, -514106.94, -703872.44, 16393.865, 0.142056, -0.10707822, -512701.06, -76342.02, 0.0, 10.000431, 9.997958 
7.450465e+2, 2.654711e+2, -382471.34, -561546.7, 34249.645, 0.06748556, -0.068391696, -376144.34, -37769.24, 0.0, 10.000565, 9.998192 
7.450555e+2, 2.7546972e+2, -112426.86, -374474.94, 11438.25, -0.057669252, -0.059739884, -111928.53, 128460.234, 0.00000017449423, 10.001723, 9.998243 
7.4506634e+2, 2.854682e+2, 33809.54, -189713.08, -4329.785, 0.0203238, -0.060608786, 33893.38, 176296.23, 0.0000070145306, 10.001774, 9.9988165 
7.450785e+2, 2.9546627e+2, 4392.799, -163499.78, -30426.197, 0.26828888, -0.17729004, 9736.671, 54156.81, 0.00004543542, 10.000922, 9.998734 
7.450883e+2, 3.0546656e+2, -24889.602, -228291.52, 44613.07, 0.16738153, 0.023129053, -15534.669, -15534.669, 0.00014809403, 10.000733, 9.998048 
7.450971e+2, 3.154645e+2, 38098.457, -114061.28, -119687.664, -0.084127374, -0.026554441, 103839.9, 103839.9, 0.00032280377, 10.000732, 9.998822 
7.5491124e+2, 1.2546965e+2, -1843391.0, -1687231.9, -44564.44, -0.0828888, 0.14601831, -1675409.1, 34994.793, 0.0, 9.998665, 10.000806 
7.549213e+2, 1.3546953e+2, -1627887.5, -1487470.4, -49648.066, 0.040046807, -0.027891995, -1471689.5, 140711.17, 0.0, 9.999328, 10.001195 
7.549303e+2, 1.4546978e+2, -1579207.4, -1549671.5, -36157.43, 0.035791382, -0.046059534, -1525382.4, -10987.11, 0.0, 9.999558, 9.999965 
7.5494e+2, 1.5547131e+2, -1451784.3, -1435856.9, -8728.919, 0.123859674, 0.06774645, -1432004.6, -15626.076, 0.0, 9.999763, 9.999975 
7.549499e+2, 1.6547096e+2, -1359582.6, -1358555.3, 39886.445, 0.15093595, 0.047122754, -1319179.1, -800.7135, 0.0, 9.999779, 9.999844 
7.549604e+2, 1.7546885e+2, -1280021.8, -1270033.6, 52937.43, 0.15496704, -0.17899592, -1221855.3, -1461.0574, 0.0, 9.9996605, 9.999829 
7.549698e+2, 1.8546784e+2, -1212337.1, -1253013.8, -35199.81, 0.16534138, -0.22712807, -1192022.4, -69621.484, 0.0, 9.999729, 9.999243 
7.549783e+2, 1.9546734e+2, -1084138.8, -1136876.9, -17438.393, 0.16848788, -0.23168814, -1078894.1, -54490.12, 0.0, 9.999927, 9.9992695 
7.549881e+2, 2.0546684e+2, -952736.7, -983474.8, 58335.938, 0.1762964, -0.22015165, -907779.2, 18628.896, 0.0, 9.999988, 9.999617 
7.5499904e+2, 2.154661e+2, -865106.5, -889381.75, 76074.78, 0.1856954, -0.28779155, -800207.2, 28208.373, 0.0, 9.999921, 9.999618 
7.5500923e+2, 2.2546594e+2, -738576.7, -871184.2, 25083.947, 0.16627423, -0.21703286, -733990.44, -3570.8772, 0.0, 10.000518, 9.998785 
7.5501865e+2, 2.3546593e+2, -496693.22, -711631.0, 14377.133, 0.11486342, -0.12715891, -495735.78, 136688.45, 0.0, 10.001527, 9.998731 
7.550278e+2, 2.454653e+2, -455379.3, -700207.8, -33458.77, 0.06836844, -0.029603379, -450889.1, 83543.445, 0.0, 10.001397, 9.998192 
7.550365e+2, 2.5546375e+2, -512652.28, -677205.5, -7313.635, 0.025218986, -0.038168676, -512327.84, -75880.016, 0.0, 10.000329, 9.998191 
7.5504696e+2, 2.6546177e+2, -398441.66, -584601.3, 64035.11, 0.023685383, -0.04048214, -378542.06, -40074.684, 0.0, 10.000521, 9.9980545 
7.550587e+2, 2.7545917e+2, -141964.56, -408104.3, 69840.38, 0.056321166, -0.13883646, -124750.48, 115742.81, 0.0000002213921, 10.0016, 9.998074 
7.5506884e+2, 2.8545773e+2, 1697.9401, -242105.6, -48504.26, 0.06488355, -0.105438516, 10993.369, 153500.97, 0.000006961638, 10.001707, 9.998492 
7.5507754e+2, 2.954569e+2, -23359.021, -209251.7, -38427.637, 0.035424653, -0.078596696, -15728.498, 28787.416, 0.00004401986, 10.00086, 9.998457 
7.5508815e+2, 3.0545628e+2, -57589.277, -279133.5, 38285.11, 0.053201992, 0.057647664, -51159.81, -51159.81, 0.0001416952, 10.000676, 9.997715 
7.55099e+2, 3.154526e+2, 78292.39, -3531.5122, -76016.29, -0.04873671, -0.12367626, 123706.94, 123706.94, 0.0003069929, 10.0006275, 9.999624 
7.649111e+2, 1.2545961e+2, -1673756.4, -1583032.1, 138210.14, 0.003372971, 0.13430475, -1482930.4, 227572.42, 0.00000000032551553, 9.999672, 10.001051 
7.6492125e+2, 1.3545968e+2, -1623175.5, -1455996.9, -794.40607, 0.119084165, -0.050542973, -1455993.1, 156504.23, 0.0, 9.999211, 10.001468 
7.6492983e+2, 1.4546046e+2, -1612597.9, -1550414.8, 20857.416, 0.057792675, -0.039202344, -1544066.8, -29581.025, 0.0, 9.999233, 10.0001335 
7.649402e+2, 1.5546167e+2, -1394928.4, -1392151.4, 3569.3496, 0.15711837, 0.024779612, -1389709.9, 26760.584, 0.0, 10.000057, 10.000149 
7.6495034e+2, 1.654613e+2, -1340436.9, -1392215.3, 32698.975, 0.20250855, 0.0135581065, -1324619.0, -6147.48, 0.0, 10.000101, 9.999453 
7.649606e+2, 1.7545937e+2, -1335627.6, -1339287.4, -16287.599, 0.22289044, -0.15572509, -1321067.5, -100578.76, 0.0, 9.999463, 9.999448 
7.6497006e+2, 1.8545845e+2, -1199466.4, -1239556.6, -47421.63, 0.22676703, -0.17933531, -1168027.4, -45531.914, 0.0, 9.999796, 9.999296 
7.64979e+2, 1.9545798e+2, -933406.94, -1061194.3, -55638.535, 0.20650874, -0.18627402, -912577.25, 111920.28, 0.0, 10.000945, 9.9993 
7.649888e+2, 2.0545734e+2, -841419.56, -938860.6, -4284.109, 0.21395136, -0.1865076, -841231.56, 85270.98, 0.0, 10.000804, 9.999527 
7.649992e+2, 2.154562e+2, -917851.9, -930048.44, -29519.486, 0.23839788, -0.28353173, -893807.3, -65293.797, 0.0, 9.999612, 9.999495 
7.6500964e+2, 2.2545595e+2, -881322.0, -938965.0, 16302.2, 0.21409777, -0.21829888, -877030.94, -146511.9, 0.0, 9.999542, 9.99879 
7.6501983e+2, 2.3545612e+2, -654478.0, -781854.25, 18095.514, 0.1446654, -0.10868539, -651957.2, -19434.56, 0.0, 10.000432, 9.998768 
7.6502925e+2, 2.4545553e+2, -457728.25, -673551.06, -21090.596, 0.09254838, -0.021813933, -455686.56, 78843.73, 0.0, 10.001263, 9.998439 
7.650379e+2, 2.55454e+2, -256449.72, -528036.1, -21280.979, 0.054398216, -0.05355056, -254792.3, 181752.06, 0.0, 10.00198, 9.998421 
7.650483e+2, 2.6545218e+2, -225054.36, -496995.72, 88478.41, 0.06414239, -0.05364338, -198801.58, 139760.77, 0.0, 10.001697, 9.998092 
7.6506037e+2, 2.7544987e+2, -293492.34, -478537.97, 73693.29, 0.123478115, -0.12807146, -267730.88, -27144.73, 0.00000016204108, 10.000551, 9.998097 
7.6507014e+2, 2.8544846e+2, -189316.92, -372717.34, -1788.0623, 0.092185445, -0.07114347, -189299.48, -46698.434, 0.000006290961, 10.000562, 9.998139 
7.65078e+2, 2.9544762e+2, 41683.7, -202443.3, -27079.61, -0.020611437, -0.013870093, 44651.41, 89262.586, 0.000041719115, 10.001443, 9.998202 
7.650891e+2, 3.054461e+2, 55907.613, -180616.67, 83988.77, 0.06531187, 0.021743778, 82697.35, 82697.35, 0.00013461517, 10.001247, 9.998133 
7.651e+2, 3.1544295e+2, -18216.225, 33790.207, -13589.941, 0.05259477, -0.14437959, 37127.3, 37127.3, 0.00029005748, 9.999582, 10.000405 
7.74911e+2, 1.2544955e+2, -1743507.5, -1713406.8, 27756.984, -0.054533593, -0.114227355, -1696882.4, 13708.096, 0.0000000023621072, 9.999621, 10.00018 
7.7492017e+2, 1.3545182e+2, -1700937.8, -1614904.3, -11377.162, 0.049208276, 0.041545674, -1613425.3, -853.9025, 0.0, 9.999204, 10.000384 
7.749286e+2, 1.4545232e+2, -1601011.0, -1521658.6, 29493.12, -0.024979185, 0.06139878, -1511897.5, 2666.7896, 0.0, 9.99921, 10.000341 
7.7494085e+2, 1.5545024e+2, -1388028.3, -1375661.3, 49744.285, 0.18672325, -0.21802175, -1331717.6, 84860.04, 0.0, 10.000047, 10.000267 
7.7495074e+2, 1.6544992e+2, -1408868.0, -1518196.3, -8369.893, 0.20443836, -0.18630995, -1408230.9, -89650.03, 0.0, 10.000039, 9.998617 
7.749589e+2, 1.7545067e+2, -1397892.3, -1453909.6, -20399.066, 0.08177573, -0.004798094, -1391251.1, -170671.89, 0.0, 9.999407, 9.998687 
7.749683e+2, 1.8545027e+2, -1203298.1, -1228372.0, -17448.758, 0.038771674, 0.053387795, -1194349.4, -71765.305, 0.0, 9.999703, 9.999426 
7.749787e+2, 1.954486e+2, -943735.75, -1054740.8, -1096.0233, 0.05141948, -0.08366072, -943724.94, 80872.13, 0.0, 10.000819, 9.999409 
7.749887e+2, 2.05448e+2, -891571.7, -1001328.6, -65135.043, 0.10486946, -0.068496875, -861278.44, 65324.29, 0.0, 10.000628, 9.99918 
7.749987e+2, 2.1544792e+2, -969240.5, -988481.06, -58846.26, 0.19840588, -0.024463646, -919233.3, -90627.76, 0.0, 9.999413, 9.999186 
7.750092e+2, 2.254477e+2, -868894.44, -870759.94, 34362.92, 0.19410849, 0.031405628, -835451.6, -104842.234, 0.0, 9.999355, 9.999354 
7.750201e+2, 2.35447e+2, -639542.94, -712966.3, 66038.836, 0.102847, -0.004423162, -600697.5, 31919.824, 0.0, 10.000261, 9.999329 
7.7503055e+2, 2.4544567e+2, -462616.16, -644517.25, -7871.0454, 0.07762497, -0.032749105, -462276.2, 72353.44, 0.0, 10.001101, 9.998715 
7.750406e+2, 2.5544357e+2, -261230.81, -498595.5, 19045.916, 0.104155146, -0.14635742, -259712.3, 176935.44, 0.0, 10.001816, 9.998699 
7.7505046e+2, 2.6544237e+2, -228642.06, -482777.2, 32009.125, 0.0764984, -0.10386424, -224672.4, 113986.83, 0.0, 10.001605, 9.998236 
7.7506e+2, 2.754415e+2, -298037.25, -467517.63, 49900.19, 0.0011019347, -0.044029746, -284436.56, -43766.953, 0.00000014054619, 10.000459, 9.998222 
7.750697e+2, 2.8544018e+2, -225512.98, -426771.0, 18917.664, -0.039800026, 0.027161965, -223750.22, -81064.82, 0.0000059856334, 10.000476, 9.997805 
7.7507955e+2, 2.9543826e+2, 11180.827, -251477.14, 24523.309, -0.05736319, 0.009134363, 13450.85, 58158.492, 0.0000396548, 10.001375, 9.997897 
7.7509075e+2, 3.0543596e+2, 132450.47, -4632.021, 15379.71, 0.07838332, -0.0824675, 134154.78, 134154.78, 0.00012692052, 10.001187, 9.99937 
7.750992e+2, 3.1543547e+2, 10549.394, 119914.695, 1870.6115, -0.058875717, -0.1008751, 119946.68, 119946.68, 0.00027215088, 9.999467, 10.00106 
7.849107e+2, 1.2544063e+2, -1941219.1, -1854709.3, -32513.842, 0.026818436, -0.15327574, -1843851.9, -133178.06, 0.0000000040597263, 9.9985, 9.999735 
7.8492045e+2, 1.3544236e+2, -1755646.1, -1712476.4, -62256.355, 0.17892346, 0.020020356, -1668169.3, -55506.83, 0.0, 9.999169, 9.999713 
7.84929e+2, 1.4544266e+2, -1558855.6, -1504217.3, 36835.19, 0.081095636, 0.054111432, -1485676.1, 28982.658, 0.0, 9.999518, 10.000309 
7.849408e+2, 1.554405e+2, -1437047.6, -1404902.9, 3754.5647, 0.1986732, -0.22908388, -1404470.1, 12203.334, 0.0, 9.99974, 10.000211 
7.849507e+2, 1.6544025e+2, -1370931.8, -1491229.1, -7422.2056, 0.1938762, -0.19024615, -1370475.5, -51799.094, 0.0, 10.00026, 9.998688 
7.8495926e+2, 1.7544128e+2, -1169015.4, -1335050.6, 13251.173, 0.10164438, 0.013268387, -1167964.4, 52708.03, 0.0, 10.000948, 9.998752 
7.849686e+2, 1.8544108e+2, -1046726.6, -1146657.4, 74597.45, 0.057448745, 0.08388692, -1006907.1, 115768.69, 0.0, 10.000758, 9.999472 
7.8497875e+2, 1.954395e+2, -1105643.1, -1125808.1, 56587.188, 0.04310551, -0.051410068, -1058247.3, -33558.734, 0.0, 9.999698, 9.999449 
7.849889e+2, 2.0543887e+2, -988250.0, -1090572.4, 27549.459, 0.09219806, -0.020225849, -981304.0, -54608.836, 0.0, 10.000135, 9.998813 
7.849992e+2, 2.1543872e+2, -658016.06, -875909.56, 3836.9143, 0.20230454, 0.054396257, -657948.5, 170751.56, 0.0, 10.00171, 9.998855 
7.8500986e+2, 2.2543837e+2, -536395.44, -690561.2, 89028.98, 0.22567649, 0.10302458, -495716.16, 234988.95, 0.0, 10.00155, 9.999529 
7.8502077e+2, 2.354375e+2, -683164.2, -716037.8, 63230.426, 0.1685604, 0.032982655, -634269.06, -1555.5188, 0.0, 9.999886, 9.999489 
7.850317e+2, 2.4543637e+2, -649122.44, -704132.3, 51226.645, 0.15611404, 0.003915249, -618483.7, -83760.14, 0.0, 9.999695, 9.998978 
7.850426e+2, 2.5543472e+2, -395885.56, -535595.0, 42791.21, 0.18079443, -0.090784416, -383821.0, 52916.58, 0.0, 10.000764, 9.99895 
7.850521e+2, 2.6543376e+2, -296595.63, -487335.16, 27321.383, 0.12529805, -0.05232759, -292759.3, 45987.34, 0.0, 10.001023, 9.998481 
7.8506047e+2, 2.7543294e+2, -264067.8, -423077.03, 25503.479, 0.008585978, -0.011440458, -260077.45, -19321.89, 0.0000001311964, 10.000575, 9.998466 
7.8507024e+2, 2.8543177e+2, -185047.72, -366850.6, 108892.61, -0.028008169, 0.04370699, -134101.8, 8666.956, 0.0000058891046, 10.000575, 9.998176 
7.850813e+2, 2.954302e+2, -43936.605, -243152.27, 128616.93, 0.015529695, 0.03139298, 19133.27, 63919.117, 0.000037489564, 10.000838, 9.998222 
7.850925e+2, 3.0542782e+2, 85707.38, -19520.018, 74886.45, 0.16197295, -0.084818944, 124615.17, 124615.17, 0.00011865352, 10.000814, 9.999448 
7.8509915e+2, 3.1542802e+2, 88022.87, 113839.99, -54533.74, -0.033838704, -0.053594697, 156972.13, 156972.13, 0.00025448482, 10.000178, 10.000668 
7.9490906e+2, 1.254334e+2, -1928604.6, -1855714.5, -86264.234, -0.07209496, 0.063600026, -1798512.5, -87765.68, 0.0000000034592607, 9.998599, 9.999688 
7.9492193e+2, 1.3543129e+2, -1762413.5, -1744760.4, -28117.29, 0.36204326, -0.12603866, -1724116.8, -111346.11, 0.0, 9.999233, 9.999464 
7.9493046e+2, 1.4543146e+2, -1589420.0, -1556903.4, 22993.43, 0.23757872, -0.072550304, -1545000.9, -30231.545, 0.0, 9.99948, 9.999961 
7.9493946e+2, 1.5543243e+2, -1457468.5, -1442002.4, 29623.701, 0.050431777, -0.014720079, -1419119.1, -2361.216, 0.0, 9.999723, 9.999959 
7.9494965e+2, 1.654324e+2, -1305766.6, -1351918.6, 3207.3054, 0.025288867, 0.0066638053, -1305544.9, 13212.304, 0.0, 10.000233, 9.999663 
7.94961e+2, 1.7543128e+2, -1102475.5, -1200679.9, 51693.855, 0.14766917, -0.10251979, -1080280.5, 140487.13, 0.0, 10.00095, 9.999679 
7.9497063e+2, 1.8543087e+2, -1069370.8, -1165026.9, 19931.541, 0.15116642, -0.093562685, -1065383.9, 57387.15, 0.0, 10.000643, 9.999396 
7.9497874e+2, 1.9543064e+2, -1124706.4, -1139440.4, 34940.016, 0.042292137, -0.09085926, -1096365.1, -71593.11, 0.0, 9.999591, 9.999402 
7.9498875e+2, 2.0542999e+2, -1034184.6, -1149014.4, 71238.836, 0.041578315, -0.04336153, -1000103.94, -73324.164, 0.0, 9.999977, 9.998487 
7.950004e+2, 2.154286e+2, -708558.06, -938261.44, 72309.375, 0.12326271, -0.060455114, -687691.1, 141106.02, 0.0, 10.001524, 9.998517 
7.950112e+2, 2.25428e+2, -585007.4, -742399.7, 14624.104, 0.18284166, -0.008084667, -583660.1, 147145.78, 0.0, 10.00134, 9.999274 
7.950214e+2, 2.3542774e+2, -721846.75, -760938.56, 22138.453, 0.21536303, 0.01016108, -711860.4, -79050.195, 0.0, 9.999729, 9.999258 
7.950321e+2, 2.4542767e+2, -654085.25, -680059.5, 77417.24, 0.19767502, 0.08636316, -588573.4, -53761.676, 0.0, 9.999551, 9.999211 
7.9504323e+2, 2.554274e+2, -402996.6, -515239.0, 96330.66, 0.13844979, 0.106569365, -347631.53, 89183.05, 0.0, 10.000613, 9.999165 
7.9505295e+2, 2.6542628e+2, -279714.9, -435613.22, -2434.2305, 0.07159977, 0.099530995, -279676.9, 59147.73, 0.0, 10.000944, 9.998875 
7.9506135e+2, 2.7542415e+2, -248436.92, -373557.78, 30104.307, 0.001955211, -0.0274362, -241570.6, -727.0118, 0.000000103459534, 10.000496, 9.998846 
7.950714e+2, 2.854233e+2, -120665.6, -220312.0, 105467.17, -0.0031766244, -0.009062567, -53845.43, 89004.51, 0.0000054454867, 10.000521, 9.999208 
7.950826e+2, 2.954234e+2, 5647.2324, -116374.31, 159032.56, 0.024038596, 0.037879106, 114970.46, 159817.28, 0.00003447301, 10.000732, 9.999147 
7.950936e+2, 3.0542177e+2, 3194.2498, -175706.42, 46055.56, 0.1624386, 0.006391326, 14354.436, 14354.436, 0.0001104858, 10.000747, 9.998406 
7.95099e+2, 3.1541935e+2, -37895.117, -128856.47, -2415.635, -0.14461046, -0.11836279, -37831.01, -37831.01, 0.000240168, 10.000089, 9.999045 
8.049085e+2, 1.2542368e+2, -1774658.1, -1741466.4, -104859.92, -0.012368562, 0.10355986, -1651897.1, 58947.316, 0.0000000057252847, 9.999507, 10.000045 
8.0492187e+2, 1.3542117e+2, -1618171.3, -1665259.8, -52316.766, 0.3999183, -0.1335363, -1584345.0, 28525.002, 0.0, 10.000172, 9.99958 
8.0493087e+2, 1.4542125e+2, -1524132.4, -1535699.5, 29913.566, 0.3158018, -0.08694332, -1499448.4, 15421.374, 0.0, 9.999985, 9.999862 
8.0493927e+2, 1.5542293e+2, -1519043.0, -1486339.1, 11487.973, 0.09311215, 0.05524712, -1482707.0, -65853.27, 0.0, 9.999363, 9.999834 
8.0494946e+2, 1.65423e+2, -1443891.4, -1360423.0, 23620.639, 0.056763466, 0.06850174, -1354202.3, -35350.652, 0.0, 9.99905, 10.000177 
8.049614e+2, 1.7542157e+2, -1351183.3, -1271143.8, 3118.6511, 0.19141366, -0.11904001, -1271022.5, -50159.535, 0.0, 9.999041, 10.000121 
8.049714e+2, 1.8542108e+2, -1188061.0, -1250759.4, -29991.652, 0.20347328, -0.12271088, -1176025.0, -53158.05, 0.0, 9.999958, 9.999141 
8.0497986e+2, 1.9542105e+2, -857196.56, -1043804.56, -64925.63, 0.101301216, -0.06961452, -836830.1, 188038.3, 0.0, 10.00157, 9.999117 
8.049899e+2, 2.0542035e+2, -783877.5, -997401.3, 5319.9233, 0.08490026, -0.026306858, -783745.0, 143131.83, 0.0, 10.001563, 9.998768 
8.0500126e+2, 2.1541874e+2, -900201.6, -1000286.3, 18885.178, 0.14036919, -0.092546925, -896756.7, -67862.14, 0.0, 10.000085, 9.998782 
8.050118e+2, 2.254182e+2, -791009.06, -848599.7, 3574.6963, 0.18238728, -0.04245994, -790788.0, -59885.996, 0.0, 9.999965, 9.999197 
8.050215e+2, 2.3541829e+2, -554903.6, -686847.06, -3982.2139, 0.20469178, 0.016656695, -554783.56, 78119.87, 0.0, 10.000923, 9.999178 
8.0503225e+2, 2.4541833e+2, -439902.97, -596914.0, 92037.484, 0.18938282, 0.11452953, -397437.34, 137467.17, 0.0, 10.0010805, 9.99906 
8.050439e+2, 2.554179e+2, -429272.72, -543559.44, 54190.61, 0.15364417, 0.13672797, -407663.4, 29245.895, 0.0, 10.000484, 9.999043 
8.050539e+2, 2.6541674e+2, -372901.38, -483373.0, -55603.523, 0.117245704, 0.12976643, -349761.5, -10841.096, 0.0, 10.0003, 9.998868 
8.0506265e+2, 2.754146e+2, -246538.02, -368984.63, -79464.31, 0.09007192, -0.0064585973, -207447.47, 33492.83, 0.00000004701224, 10.000471, 9.998899 
8.050727e+2, 2.8541368e+2, -127384.75, -190114.05, -8648.493, 0.09801127, -0.009144007, -126214.22, 16731.768, 0.000004093495, 10.000325, 9.999512 
8.0508393e+2, 2.954137e+2, -82283.55, -125863.805, -41602.375, 0.127097, -0.0016977198, -57110.207, -12168.221, 0.000029631305, 9.999989, 9.999441 
8.050948e+2, 3.054128e+2, -50063.555, -243843.69, -107804.586, 0.22920439, 0.046089787, -2007.0344, -2007.0344, 0.00010221737, 10.000566, 9.998035 
8.0510044e+2, 3.1541035e+2, 149589.23, -70083.58, -128187.45, -0.06733525, -0.045052037, 208560.58, 208560.58, 0.00023173698, 10.00153, 9.998758 
8.149081e+2, 1.2541178e+2, -1718264.0, -1649352.6, -138388.47, -0.08459193, -0.006693711, -1541195.0, 169768.39, 0.000000004999778, 9.999602, 10.000635 
8.1491965e+2, 1.3541225e+2, -1577547.9, -1593216.0, -19292.666, 0.13014323, 0.0027669896, -1564559.4, 48398.67, 0.0, 10.000229, 10.000043 
8.1492954e+2, 1.4541231e+2, -1518962.6, -1533937.8, -14041.14, 0.1456669, 0.02545767, -1510537.4, 4420.058, 0.0, 10.000016, 9.999864 
8.149399e+2, 1.5541205e+2, -1516053.6, -1479259.5, 3728.2, 0.18737508, -0.023972983, -1478885.5, -61925.184, 0.0, 9.999357, 9.999887 
8.1494987e+2, 1.6541214e+2, -1459385.1, -1377490.4, 6111.574, 0.1579818, -0.009399955, -1377036.8, -58077.56, 0.0, 9.998988, 10.000087 
8.149597e+2, 1.7541216e+2, -1362910.6, -1283101.5, 20209.451, 0.09267454, -0.04584234, -1278275.8, -57317.93, 0.0, 9.998994, 10.000056 
8.149703e+2, 1.8541183e+2, -1238180.5, -1338353.8, 17480.807, 0.07662679, -0.003932608, -1235217.6, -112254.64, 0.0, 9.999878, 9.998583 
8.149815e+2, 1.9541085e+2, -906174.6, -1125958.8, 7368.6694, 0.078961916, 0.009695525, -905927.9, 119049.055, 0.0, 10.001475, 9.9986 
8.1499183e+2, 2.0541008e+2, -755956.44, -898530.7, -66285.805, 0.09817805, 0.03230222, -729900.56, 197084.72, 0.0, 10.001387, 9.999533 
8.150015e+2, 2.1540919e+2, -872240.2, -900374.4, -17567.176, 0.12760729, -0.04152136, -863801.94, -34810.047, 0.0, 9.999903, 9.999556 
8.150111e+2, 2.2540903e+2, -813530.7, -846140.5, 23847.898, 0.09315929, 0.0026917097, -800946.6, -69953.32, 0.0, 9.999757, 9.999313 
8.150206e+2, 2.3540907e+2, -579098.44, -688028.75, 44367.992, -0.004500318, 0.046192147, -563314.25, 69679.76, 0.0, 10.000711, 9.9992695 
8.1503165e+2, 2.4540827e+2, -503509.66, -684235.75, 54150.03, 0.0035977343, 0.08125915, -488527.03, 46475.65, 0.0, 10.000893, 9.99855 
8.150441e+2, 2.554064e+2, -487421.44, -629616.0, 47805.414, 0.10127019, 0.0109676495, -472843.84, -35822.79, 0.0, 10.000337, 9.998526 
8.150547e+2, 2.654052e+2, -407825.78, -530604.06, -62879.438, 0.1415981, 0.04166087, -381337.47, -42303.754, 0.0, 10.000201, 9.998589 
8.150638e+2, 2.7540419e+2, -295865.5, -426723.7, -54462.547, 0.12843592, 0.050344653, -276164.47, -35119.2, 0.000000004527389, 10.000291, 9.998588 
8.150738e+2, 2.854029e+2, -164367.83, -254245.08, -35052.855, 0.13669945, 0.043051124, -152313.63, -9256.881, 0.0000024308686, 10.000263, 9.999104 
8.1508464e+2, 2.9540128e+2, -129420.86, -200971.38, -28606.652, 0.16040552, -0.06767314, -119389.9, -74320.22, 0.00002455122, 9.999892, 9.998973 
8.150956e+2, 3.0540094e+2, -29895.557, -202789.63, -80495.33, 0.22273675, 0.044751666, 1778.482, 1778.482, 0.00009685274, 10.000572, 9.998309 
8.1510204e+2, 3.1540015e+2, 194341.1, 66653.31, -11904.33, -0.13485011, 0.090889156, 195441.45, 195441.45, 0.00023260372, 10.001354, 9.999782 
8.2490844e+2, 1.2540051e+2, -1851233.5, -1681678.4, -41325.74, 0.06415491, -0.10357864, -1672142.4, 38930.39, 0.0000000017683296, 9.998547, 10.0009165 
8.2491857e+2, 1.354024e+2, -1673580.8, -1619782.8, 7418.2026, 0.05110938, 0.020561306, -1618778.6, -5725.7153, 0.0, 9.999471, 10.00023 
8.249289e+2, 1.4540248e+2, -1562808.6, -1538372.3, 9039.474, 0.105794795, 0.031205563, -1535391.9, -20339.81, 0.0, 9.999651, 10.000003 
8.249399e+2, 1.5540195e+2, -1493314.6, -1455419.1, -313.89404, 0.24925038, -0.059676874, -1455416.5, -38358.094, 0.0, 9.99947, 9.999984 
8.2495e+2, 1.6540208e+2, -1371536.9, -1373003.8, 51981.617, 0.24302371, -0.029747088, -1320283.6, -1225.0942, 0.0, 9.999734, 9.999762 
8.2495964e+2, 1.7540245e+2, -1198271.0, -1243976.9, 14765.999, 0.13575399, -0.00021659839, -1193915.6, 27140.49, 0.0, 10.00027, 9.999719 
8.249704e+2, 1.8540232e+2, -1172386.0, -1264063.4, 77761.055, 0.08972069, 0.058918316, -1127958.6, -4898.708, 0.0, 10.000143, 9.998962 
8.249818e+2, 1.954014e+2, -1182368.4, -1219250.3, 105304.68, 0.073376186, 0.042601004, -1093902.1, -68829.97, 0.0, 9.999407, 9.998951 
8.2499224e+2, 2.0540087e+2, -990466.2, -999603.7, 46598.395, 0.093783684, 0.064861715, -948213.1, -21135.043, 0.0, 9.999731, 9.999622 
8.250021e+2, 2.154004e+2, -720250.44, -821998.06, 10175.03, 0.15226197, 0.023511847, -719242.9, 109838.125, 0.0, 10.000925, 9.9995985 
8.250117e+2, 2.2539994e+2, -615784.6, -799917.44, 52324.418, 0.10363381, 0.061497472, -601954.5, 129130.266, 0.0, 10.001303, 9.998907 
8.25021e+2, 2.3539917e+2, -574119.1, -732458.06, 2116.2292, -0.035313588, 0.06516956, -574090.8, 59002.27, 0.0, 10.000928, 9.9988785 
8.250323e+2, 2.4539779e+2, -533619.7, -696776.3, 22885.527, -0.0051484513, 0.06231763, -530470.4, 4635.806, 0.0, 10.000684, 9.998559 
8.250451e+2, 2.5539565e+2, -450860.8, -607626.1, 24240.123, 0.16562559, -0.041341685, -447198.22, -10072.207, 0.0, 10.0005865, 9.998548 
8.2505596e+2, 2.6539454e+2, -347607.56, -518080.13, -16019.918, 0.23027952, 0.0058083083, -346115.2, -6977.4834, 0.0, 10.0006895, 9.998434 
8.2506514e+2, 2.7539393e+2, -217251.83, -404061.78, -29305.273, 0.2144012, 0.06719136, -212762.53, 28384.252, 0.0, 10.000906, 9.998436 
8.2507503e+2, 2.8539252e+2, -65613.48, -278209.38, 17706.742, 0.19230707, 0.089848675, -64148.8, 79012.17, 0.000001518397, 10.00126, 9.998459 
8.250855e+2, 2.9539022e+2, 92032.41, -160912.97, -26415.451, 0.17693631, -0.02617835, 94761.56, 139943.94, 0.000022026383, 10.001692, 9.998382 
8.250966e+2, 3.0538926e+2, 121982.17, -152507.8, -53620.016, 0.2205865, 0.06362656, 132084.7, 132084.7, 0.00009707927, 10.001728, 9.998089 
8.251045e+2, 3.1538832e+2, 194285.27, 83758.24, -59803.625, -0.0023486118, 0.110770516, 220449.81, 220449.81, 0.00024343749, 10.0012665, 9.999932 
8.349084e+2, 1.2539044e+2, -1863471.0, -1693843.1, -46197.62, 0.13975665, -0.13945733, -1682077.4, 29089.41, 0.000000000051048894, 9.998494, 10.000859 
8.3491826e+2, 1.3539174e+2, -1660117.3, -1594635.8, 54968.633, 0.034511782, -0.0802859, -1563396.0, 49757.22, 0.0, 9.999488, 10.000391 
8.349284e+2, 1.453919e+2, -1558779.4, -1526033.9, -16812.135, 0.048486106, -0.07720962, -1518939.4, -3786.6594, 0.0, 9.999634, 10.000095 
8.3493847e+2, 1.5539266e+2, -1486900.1, -1438942.3, 8766.836, 0.12314292, -0.053773683, -1437389.9, -20242.244, 0.0, 9.999456, 10.000101 
8.3494925e+2, 1.6539289e+2, -1422407.0, -1458084.5, 56034.21, 0.16872127, 0.008555823, -1381440.6, -62291.69, 0.0, 9.999649, 9.99922 
8.3496094e+2, 1.7539255e+2, -1237243.9, -1312005.0, 50365.426, 0.19836092, 0.024634315, -1211903.0, 9253.234, 0.0, 10.000224, 9.99927 
8.3497125e+2, 1.8539265e+2, -1094241.1, -1087512.8, 33078.39, 0.12532155, 0.06637385, -1057628.0, 65528.36, 0.0, 10.000076, 10.000211 
8.349803e+2, 1.953927e+2, -1114223.8, -1047812.9, 94715.79, -0.050733868, 0.017461421, -980650.6, 44503.992, 0.0, 9.999281, 10.000188 
8.3499074e+2, 2.053927e+2, -1061890.8, -1106836.3, 76627.58, -0.058738463, 0.06694854, -1004508.56, -77353.17, 0.0, 9.99955, 9.998976 
8.350025e+2, 2.1539235e+2, -793334.56, -929617.4, 68474.38, 0.07400625, 0.10087384, -764873.75, 64287.813, 0.0, 10.000735, 9.998947 
8.35013e+2, 2.2539106e+2, -708805.75, -950953.6, 22280.525, 0.0848332, 0.13346958, -706772.7, 24403.05, 0.0, 10.001115, 9.997964 
8.350224e+2, 2.3538865e+2, -660807.44, -876381.2, 5738.721, -0.022386821, 0.06691941, -660654.75, -27454.703, 0.0, 10.00076, 9.997976 
8.350336e+2, 2.4538702e+2, -519741.72, -632643.5, 4737.262, 0.025134489, 0.055194326, -519543.3, 15670.835, 0.0, 10.000529, 9.999074 
8.350464e+2, 2.5538567e+2, -437475.5, -550591.94, 38498.72, 0.2053977, -0.020079277, -425616.0, 11607.319, 0.0, 10.000453, 9.999005 
8.350572e+2, 2.6538476e+2, -362169.1, -526446.56, -21289.643, 0.257736, 0.02507654, -359454.9, -20222.773, 0.0, 10.000591, 9.998426 
8.350662e+2, 2.753839e+2, -238162.78, -420884.66, -2118.339, 0.19625936, 0.06236712, -238138.23, 3105.673, 0.0, 10.000787, 9.998382 
8.3507586e+2, 2.8538266e+2, -130524.586, -395902.2, 18746.846, 0.12263382, 0.14366804, -129206.81, 14051.273, 0.0000012583888, 10.001189, 9.997684 
8.350861e+2, 2.9538068e+2, 14095.797, -288775.44, 8508.071, 0.027392663, 0.14085734, 14334.612, 59613.242, 0.000022671806, 10.001547, 9.997577 
8.3509725e+2, 3.053778e+2, 70794.73, -247353.64, -75534.51, 0.08231359, 0.11270907, 87817.27, 87817.27, 0.0001036696, 10.00168, 9.99746 
8.351066e+2, 3.1537676e+2, 121560.73, -31662.99, -12675.355, 0.010729537, 0.21512413, 122602.21, 122602.21, 0.00026239955, 10.001124, 9.999207 
8.449082e+2, 1.2538064e+2, -1664469.5, -1608504.6, 23862.383, 0.21049081, -0.16093881, -1599711.6, 111548.16, 0.0, 9.999894, 10.000769 
8.449177e+2, 1.3538177e+2, -1698325.9, -1608772.4, 50144.168, 0.056809768, -0.12631519, -1586322.6, 26925.63, 0.0, 9.999209, 10.000426 
8.449281e+2, 1.4538187e+2, -1629789.4, -1598223.6, 8080.671, 0.08032647, -0.11422086, -1596275.4, -81025.76, 0.0, 9.999308, 9.999759 
8.449381e+2, 1.5538268e+2, -1368790.3, -1424862.4, -38009.11, 0.10302676, -0.05036741, -1349595.9, 67650.17, 0.0, 10.000443, 9.999732 
8.449491e+2, 1.6538297e+2, -1268527.0, -1369822.1, 34480.05, 0.14769945, 0.03122167, -1257904.3, 61343.08, 0.0, 10.000655, 9.999339 
8.449611e+2, 1.7538266e+2, -1276141.3, -1318872.9, 45142.242, 0.21982051, 0.040210955, -1247564.0, -26309.541, 0.0, 9.999915, 9.999371 
8.449715e+2, 1.8538292e+2, -1121945.3, -1058920.4, 32281.498, 0.17031191, 0.07295999, -1045320.44, 77931.9, 0.0, 9.999718, 10.000569 
8.4498036e+2, 1.9538324e+2, -993457.7, -958602.6, -5422.7427, 0.005181178, 0.017140081, -957778.44, 67468.414, 0.0, 9.999974, 10.000468 
8.4499097e+2, 2.0538339e+2, -951211.0, -1079237.5, 28437.188, -0.026348226, 0.08010581, -945178.8, -17932.168, 0.0, 10.000419, 9.998754 
8.4500307e+2, 2.1538307e+2, -787488.75, -957383.2, 16949.145, 0.059208382, 0.14435615, -785814.3, 43439.94, 0.0, 10.0009, 9.998687 
8.450142e+2, 2.2538148e+2, -691870.2, -949254.25, 18100.344, 0.099109136, 0.16543716, -690603.56, 40667.902, 0.0, 10.001272, 9.997886 
8.450246e+2, 2.3537865e+2, -559424.2, -832773.8, 29778.828, 0.09565699, 0.06243577, -556217.7, 77080.92, 0.0, 10.001505, 9.9979 
8.4503543e+2, 2.4537688e+2, -422009.16, -626732.06, 45986.12, 0.12617639, 0.060766496, -412153.88, 123160.195, 0.0, 10.001377, 9.998708 
8.450468e+2, 2.5537565e+2, -398091.34, -566900.1, -16188.216, 0.19240907, 0.033564012, -396552.97, 40770.71, 0.0, 10.000889, 9.998676 
8.4505737e+2, 2.653744e+2, -345659.78, -542021.44, -62535.895, 0.21437523, 0.06970991, -327435.22, 11900.871, 0.0, 10.0008, 9.998217 
8.4506714e+2, 2.753728e+2, -207974.89, -429311.38, -89308.09, 0.20667331, 0.05864188, -176434.16, 64919.78, 0.0000000050987805, 10.00108, 9.998189 
8.450774e+2, 2.8537148e+2, -75611.35, -359151.1, 2229.724, 0.14583023, 0.13535203, -75593.82, 67774.18, 0.0000017149706, 10.00151, 9.99778 
8.450879e+2, 2.9536995e+2, 86931.89, -232012.02, 21812.172, 0.042695902, 0.15969758, 88416.69, 133799.92, 0.0000255943, 10.001959, 9.997757 
8.450986e+2, 3.053669e+2, 130098.63, -225546.53, 1417.4756, 0.04448722, 0.105941944, 130104.28, 130104.28, 0.000114914044, 10.002105, 9.997414 
8.4510857e+2, 3.1536564e+2, 178615.8, -34892.734, 52274.53, 0.07955053, 0.19066109, 190727.42, 190727.42, 0.00028702893, 10.00161, 9.998964 
8.5490674e+2, 1.25371e+2, -1694695.6, -1659134.6, -29556.938, -0.0014006332, -0.20555967, -1642422.3, 68930.695, 0.0, 9.99986, 10.000432 
8.549163e+2, 1.3537265e+2, -1710188.6, -1617809.4, 34791.504, -0.0369735, -0.11057957, -1606172.3, 7164.4404, 0.0, 9.999172, 10.000366 
8.5492754e+2, 1.453726e+2, -1687383.1, -1718023.4, 32290.965, 0.051250268, -0.0689154, -1666962.4, -151621.52, 0.0, 9.999294, 9.998954 
8.5493845e+2, 1.553721e+2, -1416634.6, -1528042.8, 22544.873, 0.050315958, -0.05466835, -1412245.3, 5107.06, 0.0, 10.00046, 9.999017 
8.549492e+2, 1.6537236e+2, -1228768.5, -1278919.4, -11137.033, 0.05335177, 0.025367301, -1226406.6, 92947.01, 0.0, 10.000617, 9.999982 
8.549598e+2, 1.7537282e+2, -1236253.1, -1226084.5, 31567.54, 0.06471683, 0.0408813, -1199194.5, 22155.822, 0.0, 9.999876, 10.000024 
8.5497063e+2, 1.8537319e+2, -1177251.1, -1156238.1, 27406.705, 0.08245767, 0.0841515, -1137393.0, -14045.923, 0.0, 9.999629, 9.999951 
8.5498154e+2, 1.9537316e+2, -1042868.5, -1046381.94, 19016.842, 0.09626559, 0.055615216, -1025527.44, -180.1561, 0.0, 9.999899, 9.999904 
8.549925e+2, 2.0537306e+2, -967056.7, -1077235.4, 30012.09, 0.06343204, 0.11635675, -959412.0, -32061.799, 0.0, 10.000267, 9.998845 
8.550034e+2, 2.1537247e+2, -804582.9, -945733.06, 49883.418, -0.0193311, 0.14154555, -788733.44, 40626.145, 0.0, 10.000699, 9.998862 
8.5501504e+2, 2.253712e+2, -670973.4, -858154.7, 11438.585, 0.026056336, 0.14652467, -670277.0, 61094.98, 0.0, 10.001062, 9.998616 
8.550272e+2, 2.353691e+2, -537289.25, -748368.5, 54651.223, 0.17982964, 0.04342874, -523978.7, 109410.586, 0.0, 10.001333, 9.998566 
8.5503745e+2, 2.4536741e+2, -533833.56, -819865.75, 12517.169, 0.16511664, 0.0804984, -533286.9, 2119.1797, 0.0, 10.001214, 9.997459 
8.5504615e+2, 2.5536558e+2, -507174.2, -756495.5, -18182.906, 0.0044594975, 0.11940403, -505855.1, -68428.29, 0.0, 10.000727, 9.997455 
8.550563e+2, 2.6536337e+2, -388030.0, -604886.25, -67194.39, -0.002617952, 0.13887557, -368897.38, -29447.3, 0.0, 10.00069, 9.997843 
8.5506755e+2, 2.7536055e+2, -247619.08, -487338.0, -58051.2, 0.10890837, 0.044206508, -234301.1, 7176.708, 0.0000001292932, 10.0009775, 9.997842 
8.55079e+2, 2.853591e+2, -13692.6045, -213285.28, 8694.941, 0.12282405, 0.06717758, -13314.539, 130175.67, 0.0000031613251, 10.001434, 9.9988165 
8.550903e+2, 2.9535812e+2, 142517.31, -95194.31, 57023.184, 0.045822132, 0.043775544, 155488.47, 200984.19, 0.000030116835, 10.001855, 9.998753 
8.5510015e+2, 3.053564e+2, 153368.58, -143054.67, -25378.76, -0.036683347, 0.0439704, 155525.72, 155525.72, 0.00012742863, 10.001986, 9.99803 
8.551097e+2, 3.153555e+2, 145552.86, -63008.723, 62850.77, -0.046061672, 0.115062796, 163028.8, 163028.8, 0.00031382052, 10.001454, 9.998843 
8.649065e+2, 1.2536134e+2, -1868748.5, -1770713.6, -63716.508, 0.061436288, -0.13662402, -1739341.4, -27889.428, 0.00000000000000000000885557, 9.9987755, 10.000195 
8.649157e+2, 1.3536276e+2, -1604333.4, -1594293.4, -69931.555, -0.03798681, -0.046348307, -1529201.9, 84236.3, 0.0, 9.999984, 10.0001545 
8.649272e+2, 1.4536263e+2, -1540008.3, -1615846.6, 12745.7, 0.054664772, -0.017828388, -1537923.5, -22481.646, 0.0, 10.000175, 9.999226 
8.649385e+2, 1.5536192e+2, -1496533.0, -1549082.0, 43595.54, 0.05109928, -0.046855625, -1471906.5, -54453.496, 0.0, 9.999817, 9.999195 
8.649492e+2, 1.65362e+2, -1350022.9, -1331834.6, 31103.037, 0.04870591, 0.0054164506, -1308523.5, 10930.989, 0.0, 9.999765, 10.00002 
8.6495954e+2, 1.7536241e+2, -1216823.0, -1221490.8, -9196.8, 0.051306877, 0.01518256, -1209668.6, 11782.518, 0.0, 10.00002, 9.999986 
8.6497056e+2, 1.8536255e+2, -1102349.5, -1172783.3, 17946.041, 0.08732864, 0.061505158, -1098040.5, 25410.29, 0.0, 10.000389, 9.999463 
8.649823e+2, 1.9536221e+2, -943575.0, -1051927.1, -10668.402, 0.13924186, 0.052641965, -942534.56, 82920.8, 0.0, 10.000832, 9.999408 
8.649935e+2, 2.0536186e+2, -865040.5, -1017437.5, 21211.514, 0.11283247, 0.108905636, -862143.25, 65317.656, 0.0, 10.000928, 9.998929 
8.650043e+2, 2.1536113e+2, -814508.1, -945404.06, 4351.2666, 0.009096834, 0.11012684, -814363.6, 15107.504, 0.0, 10.000611, 9.998907 
8.6501586e+2, 2.2536014e+2, -711398.06, -838177.8, -14705.651, 0.03468222, 0.12453214, -709714.7, 21765.824, 0.0, 10.000633, 9.998955 
8.650282e+2, 2.353587e+2, -571178.5, -728147.2, -35497.39, 0.17314273, 0.056919508, -563524.25, 69967.12, 0.0, 10.000957, 9.99888 
8.650386e+2, 2.4535726e+2, -525117.7, -812843.9, -25668.313, 0.16026454, 0.10221741, -522845.75, 12660.173, 0.0, 10.001267, 9.997478 
8.650473e+2, 2.553554e+2, -377715.0, -693184.5, 7222.322, 0.016803684, 0.13543248, -377549.75, 59977.832, 0.0, 10.001618, 9.997459 
8.650576e+2, 2.6535302e+2, -219146.98, -547369.56, 56216.97, 0.009580337, 0.15112814, -209785.33, 129766.71, 0.0000000005766255, 10.001963, 9.99762 
8.6506927e+2, 2.7534992e+2, -65602.836, -424515.16, 36342.484, 0.124209076, 0.048720766, -61959.867, 179622.16, 0.000000514823, 10.002342, 9.997612 
8.6508065e+2, 2.8534806e+2, 12753.479, -207978.77, 62119.6, 0.14362103, 0.049975444, 29034.605, 172632.48, 0.0000054394536, 10.0016575, 9.998754 
8.6509174e+2, 2.9534683e+2, -128210.34, -226491.95, -634.13165, 0.09885663, 0.0125536425, -128206.25, -82600.25, 0.000035908153, 10.000014, 9.99874 
8.651015e+2, 3.0534536e+2, -45252.203, -216760.47, -45253.363, -0.010402119, 0.025076639, -34044.29, -34044.29, 0.00014009468, 10.0005, 9.998241 
8.6511195e+2, 3.153447e+2, 280771.03, 31454.488, -57585.676, 0.0075367196, 0.0960353, 293429.16, 293429.16, 0.00033844914, 10.002281, 9.999078 
8.7490654e+2, 1.2535205e+2, -1883032.0, -1794932.1, -48433.664, 0.11518771, 0.09169472, -1773512.9, -61959.363, 0.0000000055054987, 9.998749, 10.000037 
8.7491566e+2, 1.353522e+2, -1614056.3, -1603015.3, -14913.518, -0.07842022, 0.06074807, -1592633.3, 20918.678, 0.0, 9.99995, 10.000099 
8.7492675e+2, 1.4535205e+2, -1461865.6, -1452397.6, -20922.338, -0.0524091, 0.03525328, -1435680.4, 79871.14, 0.0, 10.000164, 10.000355 
8.749378e+2, 1.5535228e+2, -1420807.6, -1381922.5, 46162.605, -0.035436872, -0.020898763, -1351275.1, 66271.03, 0.0, 9.999785, 10.00035 
8.7494874e+2, 1.653522e+2, -1400672.5, -1429956.3, 24734.727, -0.0070143277, -0.009616799, -1386570.9, -67023.79, 0.0, 9.9997225, 9.999374 
8.749598e+2, 1.7535166e+2, -1266042.0, -1317723.3, 14917.251, 0.05001748, -0.027691696, -1262045.4, -40490.492, 0.0, 9.99999, 9.999339 
8.74971e+2, 1.8535122e+2, -1143872.6, -1240218.9, 19354.92, 0.057667952, 0.015771609, -1140129.9, -16568.52, 0.0, 10.000311, 9.999038 
8.749821e+2, 1.9535038e+2, -987222.94, -1112251.8, 21526.064, 0.007968082, -0.0056103617, -983620.6, 41950.63, 0.0, 10.000706, 9.999051 
8.749935e+2, 2.053498e+2, -888952.44, -1029000.7, -5377.109, -0.0034418486, 0.04435326, -888746.3, 38832.406, 0.0, 10.000759, 9.998935 
8.750052e+2, 2.1534924e+2, -839764.2, -956894.3, 6428.719, 0.011831338, 0.0642769, -839412.4, -9825.768, 0.0, 10.000431, 9.998915 
8.7501633e+2, 2.2534858e+2, -750166.5, -874123.4, -18526.725, 0.0016273803, 0.11806089, -747456.75, -15862.476, 0.0, 10.000438, 9.998804 
8.7502724e+2, 2.3534748e+2, -610099.44, -756067.2, -6194.2207, -0.04413061, 0.09750542, -609837.06, 23767.766, 0.0, 10.00073, 9.998799 
8.7503844e+2, 2.4534641e+2, -458127.03, -639797.4, -27968.12, -0.009436623, 0.11898584, -453918.84, 81695.51, 0.0, 10.00111, 9.998746 
8.7504995e+2, 2.553451e+2, -315193.97, -527198.1, 37330.37, 0.087451555, 0.08258557, -308812.78, 128812.78, 0.0, 10.001463, 9.998673 
8.75061e+2, 2.653434e+2, -239960.69, -579664.3, 55130.152, 0.122109935, 0.11282828, -231237.66, 108404.13, 0.0000000691861, 10.001902, 9.997432 
8.7507176e+2, 2.7534083e+2, -98143.55, -462733.25, 65584.97, 0.1035794, 0.07922724, -86704.555, 154962.36, 0.000001269736, 10.002211, 9.997414 
8.75082e+2, 2.853385e+2, -72677.805, -373849.22, -15020.701, 0.08580876, 0.101317436, -71930.516, 71759.49, 0.000008255043, 10.001598, 9.997649 
8.7509173e+2, 2.9533595e+2, -206420.88, -385116.8, -35630.516, 0.057714306, 0.04212542, -199578.44, -153862.33, 0.000042714033, 9.999987, 9.997671 
8.751023e+2, 3.0533376e+2, -63049.184, -239460.23, 17790.643, -0.0075159394, 0.041787185, -61272.92, -61272.92, 0.00015288098, 10.000443, 9.998108 
8.751147e+2, 3.1533125e+2, 281878.63, 55227.504, 34498.848, -0.025858663, -0.05660395, 287013.4, 287013.4, 0.00035815634, 10.002173, 9.9993 
8.8490635e+2, 1.2534201e+2, -1723027.3, -1731743.1, 84249.266, 0.18357393, 0.1498728, -1643023.3, 68630.47, 0.00000006865043, 9.999904, 9.999924 
8.849159e+2, 1.3534136e+2, -1693744.4, -1663537.5, 41726.24, -0.008016825, 0.06012754, -1634265.3, -20604.863, 0.0, 9.999487, 9.999916 
8.849268e+2, 1.4534116e+2, -1598825.3, -1488069.6, 15606.681, 0.0017371083, 0.02507716, -1485912.4, 29747.396, 0.0, 9.999123, 10.000599 
8.849372e+2, 1.5534177e+2, -1494148.3, -1393796.5, -25461.123, -0.02652866, -0.011690424, -1387706.1, 29942.502, 0.0, 9.999197, 10.00054 
8.849485e+2, 1.6534163e+2, -1423024.1, -1478562.1, -8984.654, 0.0035070176, 0.0020059748, -1421606.9, -101956.89, 0.0, 9.999739, 9.999031 
8.849605e+2, 1.7534074e+2, -1191578.5, -1319989.5, -28143.914, 0.087151885, -0.017827272, -1185681.0, 35981.848, 0.0, 10.00067, 9.998999 
8.849717e+2, 1.8534026e+2, -1093489.1, -1209900.1, 3432.3499, 0.087397985, 0.035705093, -1093388.0, 30282.182, 0.0, 10.000624, 9.999096 
8.849821e+2, 1.9533964e+2, -1133223.1, -1179428.1, 9269.193, 0.0012062227, 0.032801524, -1131433.0, -105755.45, 0.0, 9.999683, 9.999086 
8.849937e+2, 2.0533888e+2, -1039231.7, -1098319.3, 48437.38, -0.0039171563, 0.060008697, -1012039.1, -84353.17, 0.0, 9.999718, 9.99896 
8.850061e+2, 2.1533778e+2, -812387.0, -943130.0, 33625.133, 0.064787604, 0.026256468, -804246.0, 25451.654, 0.0, 10.000616, 9.998926 
8.8501734e+2, 2.2533716e+2, -697597.25, -826579.56, 34896.727, 0.045438338, 0.074456446, -688761.1, 42943.047, 0.0, 10.000694, 9.999001 
8.8502735e+2, 2.353366e+2, -697455.5, -780701.9, 38586.777, -0.059235647, 0.08795182, -682321.06, -48611.547, 0.0, 10.000038, 9.998961 
8.850391e+2, 2.4533571e+2, -564522.5, -677410.06, 50486.855, -0.009865792, 0.113442145, -545237.7, -9520.354, 0.0, 10.000326, 9.998858 
8.850521e+2, 2.553341e+2, -291872.44, -505167.88, -5176.727, 0.16430748, 0.03525995, -291746.88, 145984.3, 0.00000000006372724, 10.001554, 9.998782 
8.850634e+2, 2.6533258e+2, -255823.84, -548590.56, -12926.242, 0.19483161, 0.062392943, -255254.23, 84490.914, 0.00000025387644, 10.001634, 9.997766 
8.8507324e+2, 2.7533072e+2, -278554.53, -513507.72, 377.98135, 0.108047925, 0.066298515, -278553.94, -36791.125, 0.0000021793016, 10.000818, 9.997729 
8.8508314e+2, 2.8532863e+2, -169087.95, -493069.78, -309.904, 0.06616312, 0.1250576, -169087.66, -25301.686, 0.000011106664, 10.001265, 9.996973 
8.8509315e+2, 2.9532588e+2, 166511.9, -277512.75, -24859.05, 0.06375393, 0.11624348, 167899.33, 213717.25, 0.000049522223, 10.002863, 9.997016 
8.8510424e+2, 3.053232e+2, 223942.72, -86302.59, 70001.47, 0.056461386, 0.09106774, 239005.98, 239005.98, 0.00016467013, 10.002353, 9.998248 
8.851168e+2, 3.1532082e+2, -76360.45, -81292.984, 40855.617, 0.113983944, -0.0007388796, -37896.734, -37896.734, 0.00037312726, 9.999569, 9.999624 
8.94905e+2, 1.253312e+2, -1742727.3, -1755963.8, 31417.713, -0.014197653, 0.029429665, -1717238.3, -5485.4565, 0.00000033567557, 9.999855, 9.999767 
8.949161e+2, 1.3533063e+2, -1715734.0, -1701886.5, 33473.004, 0.038875014, -0.022067752, -1674628.6, -60868.727, 0.00000000007521531, 9.99947, 9.999652 
8.949269e+2, 1.4533038e+2, -1656175.6, -1599245.3, -1219.7775, 0.058538858, -0.014082399, -1599219.1, -83456.75, 0.0, 9.999086, 9.999856 
8.949365e+2, 1.5533063e+2, -1551640.3, -1505995.1, -2450.416, -0.0559945, -0.010820447, -1505864.0, -88105.55, 0.0, 9.999168, 9.999784 
8.9494795e+2, 1.6533042e+2, -1436029.0, -1497555.6, 9542.503, -0.062021866, 0.042445667, -1434583.0, -114820.664, 0.0, 9.999703, 9.998917 
8.94961e+2, 1.7532963e+2, -1204303.5, -1330564.6, 20860.8, 0.041296683, 0.037664384, -1200946.3, 20829.025, 0.0, 10.000607, 9.998954 
8.949722e+2, 1.853297e+2, -1072081.1, -1142677.6, -47470.82, 0.052501563, 0.12325698, -1048223.25, 75553.43, 0.0, 10.000518, 9.999611 
8.9498186e+2, 1.9533022e+2, -1121974.9, -1118719.5, -10370.239, -0.023998879, 0.18273292, -1109850.0, -84078.05, 0.0, 9.999524, 9.9995775 
8.949935e+2, 2.0532927e+2, -1058621.0, -1104318.8, 67201.945, -0.024565138, 0.1668781, -1010489.75, -82709.21, 0.0, 9.999563, 9.998996 
8.950067e+2, 2.1532676e+2, -836583.9, -945558.25, 84000.19, 0.03781158, -0.015097701, -790946.7, 38857.176, 0.0, 10.000413, 9.999004 
8.950182e+2, 2.2532596e+2, -693444.4, -775304.8, -3467.816, 0.04471011, -0.012139089, -693297.75, 38511.945, 0.0, 10.0005, 9.999453 
8.950281e+2, 2.3532636e+2, -694845.2, -730389.9, 30808.95, -0.010537819, 0.048902653, -677050.0, -43246.934, 0.0, 9.999844, 9.999401 
8.9504e+2, 2.4532534e+2, -655639.94, -835762.4, 80157.78, 0.02191549, 0.09237191, -625134.6, -89321.305, 0.0, 10.000189, 9.997841 
8.950535e+2, 2.5532264e+2, -387815.84, -659416.75, 54989.88, 0.12310408, 0.0055363034, -377104.7, 60737.957, 0.0000000002378373, 10.00136, 9.997821 
8.9506453e+2, 2.65321e+2, -211763.53, -431226.8, -56771.918, 0.11072735, 0.020239342, -197947.27, 141911.94, 0.00000030747992, 10.001524, 9.998624 
8.9507324e+2, 2.7531978e+2, -243975.33, -412339.66, -6645.054, -0.0017132842, 0.014025959, -243713.47, -1845.0494, 0.0000026197797, 10.000698, 9.998482 
8.9508355e+2, 2.8531834e+2, -199036.45, -546513.25, 44933.094, -0.056919325, 0.1211459, -193320.08, -49433.92, 0.000013171274, 10.001216, 9.996633 
8.950952e+2, 2.9531643e+2, 129962.27, -327931.34, 48184.54, -0.055226788, 0.22495604, 134977.83, 180891.2, 0.000055655084, 10.002742, 9.996731 
8.951068e+2, 3.053136e+2, 231328.86, -31919.0, -44861.688, 0.050953284, 0.17230695, 238764.02, 238764.02, 0.00017580122, 10.002212, 9.998679 
8.9511734e+2, 3.1531143e+2, -63382.766, -6403.81, -21245.03, 0.14317924, 0.05839654, 645.44666, 645.44666, 0.00038747952, 9.999394, 10.000206 
9.049049e+2, 1.2531906e+2, -1908641.0, -1815840.3, -53420.305, 0.075259246, -0.03709737, -1791482.5, -79612.41, 0.0000010657902, 9.998588, 9.999979 
9.049157e+2, 1.353192e+2, -1663493.3, -1670881.5, -78768.086, 0.043425642, -0.031190325, -1588332.8, 25537.404, 0.000000007369457, 9.999784, 9.999716 
9.049266e+2, 1.4531904e+2, -1520297.3, -1585349.8, -63242.97, 0.07420337, 0.006314378, -1481706.5, 34166.07, 0.0, 10.000215, 9.999413 
9.049371e+2, 1.5531869e+2, -1432211.8, -1495773.4, -76789.79, 0.040700518, -0.010233759, -1380886.0, 36990.59, 0.0, 10.000169, 9.99938 
9.049484e+2, 1.6531846e+2, -1386030.9, -1423363.5, 11780.387, 0.021127386, 0.03695555, -1382624.4, -62743.836, 0.0, 9.99983, 9.999375 
9.049607e+2, 1.7531796e+2, -1375825.1, -1363683.6, 28481.758, 0.029712675, 0.020214181, -1340632.8, -118744.836, 0.0, 9.999211, 9.999404 
9.04972e+2, 1.8531825e+2, -1197876.4, -1196028.6, -8775.236, 0.03601635, 0.097185396, -1188128.8, -64241.758, 0.0, 9.999611, 9.999682 
9.0498257e+2, 1.9531885e+2, -906588.94, -1012422.06, -31698.436, 0.027943179, 0.16098273, -897821.2, 128060.914, 0.0, 10.000958, 9.999627 
9.049942e+2, 2.0531827e+2, -843877.7, -973811.2, 53555.867, 0.03681575, 0.16577993, -824648.75, 103238.805, 0.0, 10.000931, 9.999223 
9.050068e+2, 2.1531622e+2, -925550.56, -965441.75, 46000.316, 0.055305414, 0.01028488, -895357.75, -65451.957, 0.0, 9.999705, 9.999204 
9.050185e+2, 2.253152e+2, -824400.25, -859098.25, -15678.3955, 0.067214586, -0.008274039, -818365.5, -86452.14, 0.0, 9.999711, 9.999254 
9.050292e+2, 2.3531476e+2, -557476.75, -688117.2, -62013.313, 0.06479784, -0.008290366, -532728.25, 101186.38, 0.0, 10.000899, 9.999185 
9.050413e+2, 2.4531347e+2, -512634.03, -773497.8, 35096.637, 0.088276096, 0.023355512, -507994.66, 27933.143, 0.0, 10.001209, 9.997769 
9.050546e+2, 2.5531113e+2, -476743.53, -704721.9, 45714.754, 0.1348081, -0.02004461, -467918.34, -29963.916, 0.0, 10.000777, 9.99778 
9.0506566e+2, 2.6530978e+2, -314242.28, -454093.88, -48748.234, 0.12534156, 0.016574005, -298927.2, 41041.535, 0.0000002007212, 10.000717, 9.998856 
9.050748e+2, 2.7530885e+2, -179307.25, -348608.9, -74073.12, 0.07197422, 0.008009562, -151474.34, 90502.016, 0.0000025589381, 10.001012, 9.998764 
9.050851e+2, 2.8530762e+2, -175261.66, -461432.3, 70546.52, -0.009638038, 0.090317056, -158815.73, -14825.144, 0.000014749117, 10.001053, 9.997309 
9.050964e+2, 2.9530603e+2, -106772.234, -362719.78, 112164.016, -0.097750574, 0.16344792, -64575.35, -18563.994, 0.00006245814, 10.00079, 9.997433 
9.0510845e+2, 3.0530348e+2, 97533.95, -110058.02, 13049.941, 0.05851589, 0.111138396, 98351.1, 98351.1, 0.00018874744, 10.00133, 9.998581 
9.051195e+2, 3.1530204e+2, 308112.97, 116507.59, -56520.6, 0.2983195, 0.08213028, 323543.1, 323543.1, 0.0004049675, 10.002142, 9.999757 
9.149051e+2, 1.2530595e+2, -1867865.0, -1718701.6, -58036.055, 0.16022277, -0.023207515, -1698781.4, 13221.191, 0.000002613721, 9.998559, 10.000652 
9.149141e+2, 1.3530701e+2, -1629431.3, -1592455.9, -24732.473, -0.13307272, 0.02002327, -1580065.0, 33926.61, 0.00000007607973, 9.9997635, 10.00026 
9.149254e+2, 1.4530699e+2, -1536538.1, -1607276.3, -85025.03, -0.10882666, 0.05360538, -1479819.0, 36173.1, 0.0, 10.000167, 9.999284 
9.149384e+2, 1.5530615e+2, -1439211.9, -1504926.6, -62734.867, 0.123617895, -0.0014002752, -1401250.8, 16751.025, 0.0, 10.000152, 9.999322 
9.149495e+2, 1.65306e+2, -1319720.9, -1282216.5, -30728.48, 0.114111945, 0.0048627416, -1264970.4, 55031.9, 0.0, 9.99981, 10.000354 
9.149591e+2, 1.7530604e+2, -1317160.6, -1233149.4, 22503.098, -0.087342806, -0.056255624, -1227501.5, -5502.7036, 0.0, 9.999168, 10.000322 
9.149706e+2, 1.85306e+2, -1234237.1, -1251454.9, 28607.172, -0.104880385, -0.03635632, -1212971.6, -88971.93, 0.0, 9.999523, 9.999346 
9.149838e+2, 1.9530565e+2, -951806.7, -1070956.0, 33487.008, 0.030438708, -0.03469529, -943040.1, 82966.914, 0.0, 10.000812, 9.999296 
9.149956e+2, 2.0530595e+2, -846602.94, -941416.56, -6131.503, 0.052274037, 0.060575034, -846208.06, 81797.8, 0.0, 10.000767, 9.999523 
9.150061e+2, 2.1530643e+2, -937299.0, -942775.2, 16401.463, -0.0179619, 0.12511057, -923408.6, -93407.42, 0.0, 9.999506, 9.999453 
9.150176e+2, 2.2530505e+2, -908444.8, -1000104.56, 11737.489, -0.022052124, 0.10375885, -906965.7, -174951.84, 0.0, 9.999555, 9.998367 
9.1502994e+2, 2.3530178e+2, -645406.75, -824182.7, -1712.612, 0.033255868, -0.08979685, -645390.4, -11346.295, 0.0, 10.000698, 9.998346 
9.1504246e+2, 2.453002e+2, -476115.7, -662693.75, 4424.105, 0.058877952, -0.0896065, -476010.84, 60048.43, 0.0, 10.001052, 9.99861 
9.150549e+2, 2.5529972e+2, -442350.53, -602939.2, 47119.355, 0.059473086, -0.029591847, -429545.9, 8519.402, 0.0, 10.000637, 9.998552 
9.150665e+2, 2.6529905e+2, -350453.63, -507057.53, -52291.516, 0.10136861, 0.053818524, -334598.25, 5475.1987, 0.00000011562638, 10.000627, 9.998534 
9.150772e+2, 2.752978e+2, -213319.73, -391651.38, -45588.68, 0.1848668, 0.045591425, -202341.3, 39745.715, 0.0000025826089, 10.000894, 9.998528 
9.150873e+2, 2.8529644e+2, -70558.01, -219566.6, 44096.992, 0.074110724, 0.038189713, -58486.12, 85612.664, 0.000017159802, 10.0009575, 9.999012 
9.1509646e+2, 2.9529482e+2, -11748.196, -143566.42, 123738.695, -0.21745352, -0.06268534, 62539.965, 108650.72, 0.00007135739, 10.000701, 9.998981 
9.1510886e+2, 3.052929e+2, 34253.8, -215427.36, 35518.613, -0.06220736, -0.08890825, 39208.223, 39208.223, 0.00020564985, 10.00123, 9.997894 
9.151221e+2, 3.1529304e+2, 200807.39, -54580.05, 39111.645, 0.27187583, 0.10042803, 206662.94, 206662.94, 0.00042848263, 10.001946, 9.998657 
9.249041e+2, 1.2529314e+2, -1822468.1, -1663398.1, 26089.043, 0.21869044, -0.004695626, -1659228.6, 52901.46, 0.0000053718704, 9.998719, 10.000964 
9.249139e+2, 1.3529457e+2, -1728506.6, -1604705.1, -12244.823, -0.073932014, 0.04203292, -1603505.8, 10608.575, 0.00000033393198, 9.998922, 10.000602 
9.249253e+2, 1.4529465e+2, -1686690.3, -1636240.1, -41658.94, -0.05585512, 0.049796827, -1612764.4, -96651.34, 0.0, 9.998956, 9.99967 
9.249383e+2, 1.5529405e+2, -1555919.6, -1523558.9, -20172.375, 0.15661384, -0.01789637, -1513879.4, -95760.07, 0.0, 9.999189, 9.999657 
9.2494935e+2, 1.6529393e+2, -1377933.1, -1309161.5, 14047.527, 0.15242122, -0.026062585, -1306402.8, 13716.13, 0.0, 9.999405, 10.000357 
9.249589e+2, 1.7529397e+2, -1246504.0, -1198868.0, -40200.297, -0.039757714, -0.087809734, -1175959.5, 46155.566, 0.0, 9.999659, 10.000318 
9.249703e+2, 1.8529391e+2, -1214743.9, -1226553.6, 1895.0768, -0.0779006, -0.07512921, -1214447.3, -90331.32, 0.0, 9.999598, 9.999481 
9.249835e+2, 1.9529346e+2, -1182189.4, -1162428.1, 6975.057, 0.014047162, -0.09925528, -1160214.1, -134090.06, 0.0, 9.999155, 9.999461 
9.249955e+2, 2.0529401e+2, -1054360.9, -1031728.44, -18363.666, 0.04959421, 0.007691859, -1021474.3, -93353.46, 0.0, 9.999296, 9.9996195 
9.250064e+2, 2.1529509e+2, -850821.7, -888684.75, -32357.14, 0.04699922, 0.12663801, -832264.7, -2153.768, 0.0, 10.000043, 9.999572 
9.2501825e+2, 2.252939e+2, -752394.06, -940661.9, 56969.316, 0.043335676, 0.12475114, -736497.56, -4374.938, 0.0, 10.000683, 9.998231 
9.250309e+2, 2.3529041e+2, -582987.56, -811694.44, 62962.64, 0.034159645, -0.07734466, -566799.8, 67356.266, 0.0, 10.001183, 9.998204 
9.250434e+2, 2.4528898e+2, -470200.88, -621716.56, 53814.895, 0.060853478, -0.0735479, -453032.44, 83137.56, 0.0, 10.000932, 9.998955 
9.250558e+2, 2.5528902e+2, -494780.53, -586683.56, 28403.514, 0.1184209, 0.005588343, -486710.75, -48540.81, 0.0, 10.000111, 9.998918 
9.250672e+2, 2.6528844e+2, -417632.66, -550907.3, -3221.6733, 0.14231867, 0.0879708, -417554.84, -77378.19, 0.00000007319143, 10.000186, 9.998458 
9.250778e+2, 2.752869e+2, -196855.83, -391532.6, -6349.1885, 0.15505356, 0.05586612, -196648.98, 45544.453, 0.0000027897247, 10.001015, 9.998478 
9.250883e+2, 2.8528544e+2, -20750.041, -161774.86, 39319.188, 0.07830335, 0.022271473, -10528.329, 133677.33, 0.000020180585, 10.001154, 9.999309 
9.250985e+2, 2.9528382e+2, 8198.774, -104571.62, -19649.943, -0.074731685, -0.106134914, 11524.638, 57740.22, 0.00008285034, 10.0007, 9.999246 
9.251108e+2, 3.0528238e+2, 14997.757, -234505.38, -53312.832, 0.027061414, -0.09601218, 25911.998, 25911.998, 0.0002292469, 10.001099, 9.997838 
9.251232e+2, 3.1528214e+2, 176422.86, -101150.54, -42673.94, 0.2077647, 0.06197629, 182835.38, 182835.38, 0.0004645645, 10.00189, 9.998376 
9.34901e+2, 1.252804e+2, -1832650.1, -1658104.1, -12622.268, -0.04116074, -0.013645567, -1657196.0, 55058.51, 0.000009857008, 9.998633, 10.001032 
9.349146e+2, 1.3528207e+2, -1710510.4, -1567951.1, 6205.964, 0.078856744, 0.033928283, -1567681.5, 46554.844, 0.0000009955157, 9.998943, 10.000833 
9.3492615e+2, 1.4528225e+2, -1631227.9, -1522833.6, -50588.17, 0.08684479, 0.0034306739, -1502892.4, 13340.271, 0.00000000002439963, 9.998963, 10.000447 
9.3493634e+2, 1.5528244e+2, -1509920.3, -1412895.0, 5035.6343, 0.005497156, -0.06484313, -1412634.4, 5594.6597, 0.0, 9.999128, 10.000445 
9.349476e+2, 1.6528234e+2, -1453495.4, -1454531.4, 4920.481, 0.00044794488, -0.061091993, -1449065.8, -128835.914, 0.0, 9.999347, 9.999392 
9.349597e+2, 1.752818e+2, -1313893.9, -1336032.5, -15186.814, 0.049117137, -0.0805557, -1306170.4, -83933.96, 0.0, 9.9996395, 9.999391 
9.349709e+2, 1.85282e+2, -1189381.1, -1154465.3, -27408.275, -0.011272727, -0.024808725, -1139427.1, -15191.666, 0.0, 9.999518, 10.000017 
9.349812e+2, 1.9528235e+2, -1165592.0, -1098397.1, 5910.855, -0.16529907, -0.022319108, -1097881.1, -71648.45, 0.0, 9.999028, 9.999966 
9.3499345e+2, 2.052825e+2, -1073202.9, -1038933.4, -5878.9297, -0.11006861, 0.019683976, -1037952.9, -109721.125, 0.0, 9.999153, 9.9996395 
9.350075e+2, 2.1528225e+2, -876283.1, -903661.3, 12284.444, 0.1280833, 0.0036891303, -871579.3, -41344.402, 0.0, 9.999867, 9.999559 
9.3502015e+2, 2.2528176e+2, -744649.94, -874376.8, 61684.53, 0.13823098, 0.0454776, -720002.25, 12237.758, 0.0, 10.00047, 9.998787 
9.3503135e+2, 2.3528072e+2, -575105.8, -747955.06, 94426.58, -0.059774004, 0.031051066, -533524.25, 100726.12, 0.0, 10.000978, 9.998742 
9.350436e+2, 2.4527988e+2, -503699.53, -655071.5, 6366.395, -0.04169297, 0.07600371, -503432.25, 32826.89, 0.0, 10.000776, 9.998801 
9.3505675e+2, 2.5527892e+2, -527232.1, -623846.56, 15100.854, 0.17576016, 0.07052718, -524926.9, -86657.22, 0.0, 9.9999695, 9.998738 
9.3506753e+2, 2.652779e+2, -419166.03, -519439.56, 16269.236, 0.13184343, 0.103018194, -416592.44, -76312.625, 0.00000003612581, 10.000048, 9.998734 
9.350761e+2, 2.752764e+2, -204316.03, -372704.5, 42424.21, -0.14857173, 0.04834956, -194231.52, 48062.703, 0.0000027030533, 10.000879, 9.998667 
9.350877e+2, 2.852748e+2, -106595.96, -326050.78, 8965.627, -0.12698074, 0.053325307, -106230.29, 38078.82, 0.000022488803, 10.001084, 9.998216 
9.351019e+2, 2.9527307e+2, -75168.125, -265451.47, -13263.659, 0.16036053, 0.018289844, -74248.03, -27922.744, 0.00009525127, 10.000638, 9.998173 
9.351138e+2, 3.0527192e+2, 42217.234, -159836.75, -30794.84, 0.18316157, 0.08188715, 46806.414, 46806.414, 0.00025879213, 10.001035, 9.998378 
9.35122e+2, 3.152704e+2, 191577.86, -33794.984, 53313.32, -0.17126445, 0.055933807, 203553.13, 203553.13, 0.0005142612, 10.001749, 9.998902 
9.448996e+2, 1.2526818e+2, -1778888.6, -1641371.5, 78515.55, -0.04321739, -0.036078367, -1605763.3, 106610.02, 0.000016753027, 9.999017, 10.000967 
9.449143e+2, 1.3526988e+2, -1694292.0, -1573575.9, 22042.738, 0.15869805, 0.022496251, -1569676.8, 44678.73, 0.000002343361, 9.9991, 10.000719 
9.449261e+2, 1.4527021e+2, -1588258.6, -1480224.9, -26737.688, 0.17946611, 0.0010953542, -1473969.6, 42381.1, 0.0000000053592455, 9.999152, 10.000652 
9.449356e+2, 1.552708e+2, -1445163.0, -1369653.1, -53516.31, 0.010304815, -0.04579487, -1341914.4, 76428.85, 0.0, 9.999497, 10.000579 
9.4494706e+2, 1.6527088e+2, -1410540.5, -1443424.1, -10372.411, 0.00885745, -0.022884527, -1407542.1, -87199.16, 0.0, 9.99969, 9.999297 
9.449602e+2, 1.7527033e+2, -1303913.8, -1342005.6, 1534.4183, 0.13788979, -0.03388063, -1303852.0, -81500.805, 0.0, 9.99976, 9.999286 
9.449714e+2, 1.8527049e+2, -1141741.1, -1116228.4, 19070.459, 0.08482871, 0.015259434, -1106041.1, 18309.25, 0.0, 9.999803, 10.000126 
9.4498104e+2, 1.952708e+2, -1031521.2, -1019377.56, -8896.375, -0.121955894, 0.0054765753, -1014678.5, 11667.505, 0.0, 9.999912, 10.000067 
9.4499326e+2, 2.0527065e+2, -931582.06, -984290.6, 14791.939, -0.087466605, 0.0144071365, -927714.7, 632.4007, 0.0, 10.000168, 9.99953 
9.450079e+2, 2.1526982e+2, -803960.94, -876877.25, -6116.135, 0.16704391, -0.05007905, -803451.5, 26903.703, 0.0, 10.000396, 9.999484 
9.450209e+2, 2.2526947e+2, -745910.25, -841436.5, 50697.637, 0.1835997, -0.0047320207, -724020.2, 8338.817, 0.0, 10.000339, 9.999069 
9.4503236e+2, 2.3526925e+2, -683609.94, -766940.56, 32068.764, -0.009321923, 0.034719694, -672697.6, -38335.5, 0.0, 10.000109, 9.999023 
9.450444e+2, 2.4526861e+2, -573274.94, -680228.9, -38717.83, -0.0063800383, 0.084850304, -560730.25, -24361.402, 0.0, 10.000259, 9.998873 
9.4505715e+2, 2.5526735e+2, -409466.7, -553914.06, -39940.004, 0.18543106, 0.04050085, -399158.78, 39222.85, 0.0, 10.000723, 9.998843 
9.4506794e+2, 2.6526624e+2, -271564.22, -458284.5, 10978.37, 0.12486123, 0.057739265, -270920.94, 69471.75, 0.000000027783642, 10.001095, 9.998655 
9.4507706e+2, 2.7526477e+2, -145909.38, -355601.78, -22667.71, -0.15137908, 0.020480255, -143486.98, 98919.42, 0.000002329391, 10.001319, 9.998581 
9.45089e+2, 2.852631e+2, -91641.47, -368356.78, -38686.777, -0.11388661, 0.04344008, -86334.56, 58088.71, 0.000023981273, 10.001409, 9.997773 
9.4510335e+2, 2.9526106e+2, -14518.202, -284809.94, -48190.6, 0.21319856, 0.023233496, -6183.2715, 40261.28, 0.00010679835, 10.001271, 9.997741 
9.4511503e+2, 3.052599e+2, 99294.61, -142876.42, 1078.2941, 0.19952793, 0.12082841, 99299.41, 99299.41, 0.00028981623, 10.001496, 9.99827 
9.4512403e+2, 3.1525826e+2, 205754.25, -3682.6096, -14129.133, -0.12843679, 0.09355707, 206703.14, 206703.14, 0.00057081727, 10.001766, 9.999101 
9.54899e+2, 1.2525675e+2, -1817978.4, -1703725.8, 35243.58, -0.07669222, -0.062822975, -1693728.9, 18754.404, 0.00002677623, 9.998969, 10.000541 
9.549125e+2, 1.3525812e+2, -1734334.6, -1638340.4, 38189.617, 0.034694165, 0.0046534836, -1625000.9, -10530.741, 0.0000047533053, 9.999044, 10.000284 
9.549246e+2, 1.4525849e+2, -1627737.1, -1551013.0, -35179.02, 0.072289646, 0.028420882, -1537325.0, -20857.58, 0.000000046136613, 9.999095, 10.000198 
9.549356e+2, 1.5525927e+2, -1470752.1, -1429277.3, -26519.494, 0.02118333, 0.047159027, -1416349.8, 2110.8965, 0.0, 9.999525, 10.000155 
9.549474e+2, 1.652598e+2, -1359695.0, -1337658.8, -23640.63, 0.033506136, 0.09905081, -1322594.8, -2138.3953, 0.0, 9.999688, 10.000025 
9.549599e+2, 1.7525974e+2, -1259978.4, -1241157.4, 18821.697, 0.10061588, 0.059432235, -1229524.8, -7066.9673, 0.0, 9.999718, 9.999998 
9.5497155e+2, 1.852595e+2, -1172119.3, -1169877.9, 8234.46, 0.08717344, 0.053673893, -1162688.1, -38228.74, 0.0, 9.999746, 9.999792 
9.5498246e+2, 1.952588e+2, -1066437.9, -1074065.5, 10749.454, 0.00013662073, -0.026691101, -1058845.8, -32381.018, 0.0, 9.999823, 9.999739 
9.549945e+2, 2.0525835e+2, -968000.6, -1022275.0, 6245.7573, -0.008885536, -0.01798557, -967291.1, -38823.586, 0.0, 10.00001, 9.999345 
9.550073e+2, 2.1525782e+2, -849169.44, -920354.5, 15465.235, 0.04349077, -0.03346244, -845954.75, -15482.948, 0.0, 10.000178, 9.999292 
9.5502025e+2, 2.2525713e+2, -773703.75, -851387.2, 26388.352, 0.06282874, -0.016430944, -765587.8, -33108.89, 0.0, 10.000132, 9.9991 
9.550333e+2, 2.3525593e+2, -712478.06, -781775.9, 41660.78, 0.052794635, -0.073623344, -692940.56, -58448.57, 0.0, 9.999909, 9.999021 
9.550453e+2, 2.4525516e+2, -576485.2, -641007.44, -34061.14, 0.034964714, -0.05768363, -561832.1, -25332.523, 0.0, 10.000071, 9.999227 
9.5505637e+2, 2.5525442e+2, -409739.25, -520385.63, -6091.116, 0.009469309, -0.086596645, -409404.94, 29100.691, 0.0, 10.000578, 9.99914 
9.5506805e+2, 2.652535e+2, -324655.5, -534076.0, 5209.238, 0.00028479553, -0.036705397, -324526.0, 15988.669, 0.000000030362223, 10.000956, 9.9981985 
9.5508015e+2, 2.7525204e+2, -195958.64, -427051.2, 6189.8726, -0.007099409, -0.0311484, -195792.97, 46737.168, 0.000002140531, 10.001186, 9.99815 
9.5509154e+2, 2.852502e+2, -94184.6, -349821.8, -57828.594, -0.023571357, -0.0126386965, -81711.58, 62837.293, 0.000025889522, 10.001307, 9.99795 
9.551024e+2, 2.9524776e+2, -14540.718, -267424.03, -30231.215, -0.053831685, -0.087260045, -10976.918, 35595.547, 0.00011778403, 10.001197, 9.997892 
9.551144e+2, 3.0524668e+2, 33381.742, -261850.9, 7428.062, -0.041172728, 0.040487643, 33568.51, 33568.51, 0.00031950467, 10.001415, 9.997496 
9.55128e+2, 3.1524524e+2, 171387.7, -44491.027, 44394.414, 0.02314959, 0.11303547, 180160.67, 180160.67, 0.00062882464, 10.00163, 9.998888 
9.6489924e+2, 1.2524615e+2, -1787908.6, -1724317.8, 44322.758, 0.05048026, 0.011867379, -1701565.5, 11022.143, 0.000040530904, 9.999284, 10.000274 
9.649112e+2, 1.3524626e+2, -1700397.9, -1643099.8, 21542.617, 0.0046335934, -0.025187954, -1635904.0, -21318.266, 0.000008656152, 9.99935, 10.000122 
9.6492356e+2, 1.4524616e+2, -1595807.8, -1546529.6, 29180.035, 0.060453456, -0.030003063, -1532977.6, -16390.566, 0.00000019058375, 9.999394, 10.000064 
9.6493584e+2, 1.5524729e+2, -1444337.1, -1431525.4, 20066.46, 0.08890329, 0.036792025, -1416867.1, 1710.7217, 0.0, 9.999805, 9.9999895 
9.6494776e+2, 1.6524804e+2, -1347007.1, -1313720.6, 17696.746, 0.10447915, 0.10997521, -1306070.4, 14501.49, 0.0, 9.999722, 10.000162 
9.649594e+2, 1.7524806e+2, -1322671.6, -1259913.5, -19079.777, 0.11226438, 0.06818665, -1254568.1, -31995.465, 0.0, 9.999246, 10.000092 
9.6497124e+2, 1.8524796e+2, -1213662.9, -1182673.1, 16013.577, 0.106165394, 0.065151356, -1175885.1, -51311.89, 0.0, 9.999409, 9.99988 
9.6498317e+2, 1.952474e+2, -1018298.6, -1046073.5, 22314.758, 0.081322804, -0.0061414936, -1005902.8, 20674.018, 0.0, 10.000112, 9.999806 
9.6499544e+2, 2.0524682e+2, -907485.1, -1005559.7, 56712.066, 0.06738932, -0.0059369504, -881549.7, 47031.285, 0.0, 10.000516, 9.9992 
9.6500796e+2, 2.1524595e+2, -783581.6, -903040.7, 32134.336, 0.069491066, -0.0439367, -775486.1, 55102.758, 0.0, 10.000717, 9.999138 
9.650207e+2, 2.2524522e+2, -712226.6, -827899.56, 54109.168, 0.08120665, -0.018031823, -690861.7, 41734.957, 0.0, 10.000569, 9.999057 
9.6503377e+2, 2.3524433e+2, -687530.2, -767233.06, 35813.15, 0.11044454, -0.04059297, -673802.56, -39195.098, 0.0, 10.000071, 9.999039 
9.6504575e+2, 2.4524358e+2, -582839.6, -636537.94, 4899.6865, 0.090051554, -0.02971617, -582396.2, -45781.44, 0.0, 9.999978, 9.999315 
9.6505696e+2, 2.552427e+2, -456800.3, -535367.7, -16032.242, 0.036004517, -0.077772185, -453654.75, -15033.568, 0.0, 10.00022, 9.999219 
9.650691e+2, 2.6524174e+2, -380474.44, -567872.2, 32601.736, 0.03908082, -0.035072494, -374964.66, -34334.566, 0.000000012060779, 10.000593, 9.998138 
9.650821e+2, 2.752402e+2, -229457.25, -455027.28, 26774.975, 0.086347885, -0.028172148, -226322.64, 16323.013, 0.0000023356135, 10.001, 9.998046 
9.650936e+2, 2.852382e+2, -75686.555, -374000.22, -8791.428, 0.046856113, -0.005505058, -75427.695, 69238.7, 0.000028869204, 10.001582, 9.997637 
9.6510386e+2, 2.952356e+2, 119461.33, -240412.5, -60471.785, -0.06377434, -0.06721447, 129350.99, 176044.31, 0.00012892728, 10.00229, 9.997543 
9.6511555e+2, 3.0523401e+2, 105115.125, -229782.31, -14510.965, -0.07913097, 0.029098311, 105742.695, 105742.695, 0.00034703137, 10.001892, 9.99749 
9.651296e+2, 3.1523272e+2, -51538.69, -116998.29, 13133.841, 0.123589665, 0.11247433, -49001.83, -49001.83, 0.0006841425, 9.999931, 9.999203 
9.748993e+2, 1.2523611e+2, -1780823.9, -1695911.1, -11028.029, 0.05142556, 0.17637403, -1694502.3, 18186.59, 0.000058506626, 9.999236, 10.000487 
9.7491e+2, 1.3523445e+2, -1674157.6, -1591568.0, 32793.332, -0.07476257, -0.06741557, -1580130.8, 34569.758, 0.00001444443, 9.999369, 10.000463 
9.749226e+2, 1.4523362e+2, -1593316.8, -1542717.6, 29135.941, -0.020525714, -0.16783006, -1529430.0, -12723.386, 0.0000005546723, 9.999399, 10.000091 
9.7493595e+2, 1.55235e+2, -1447963.3, -1431001.6, 54580.996, 0.08888054, -0.07683074, -1384246.5, 34446.633, 0.0, 9.999774, 10.000007 
9.7494775e+2, 1.6523562e+2, -1388603.4, -1393483.3, -18770.104, 0.09845718, 0.010355244, -1372115.3, -51426.3, 0.0, 9.999684, 9.999638 
9.749583e+2, 1.7523529e+2, -1360915.8, -1335501.4, -23950.066, 0.043089364, -0.014058648, -1321096.3, -98400.32, 0.0, 9.999222, 9.999588 
9.7497e+2, 1.8523581e+2, -1190655.9, -1113488.8, 29354.799, 0.01105057, 0.044392105, -1103591.4, 21100.38, 0.0, 9.999318, 10.000398 
9.749827e+2, 1.9523674e+2, -1000539.5, -978787.06, 64450.152, -0.009422577, 0.067228585, -924301.9, 102379.164, 0.0, 9.999985, 10.000325 
9.749958e+2, 2.0523626e+2, -945215.7, -1048249.5, 47034.113, 0.024122566, 0.060881443, -926974.44, 1710.7749, 0.0, 10.000353, 9.998992 
9.7500926e+2, 2.1523413e+2, -823968.0, -947439.06, 53713.59, 0.107006945, -0.07821156, -803871.9, 26834.64, 0.0, 10.000539, 9.998924 
9.750217e+2, 2.2523369e+2, -743688.2, -847887.25, 17681.273, 0.10279634, -0.011875624, -740769.7, -8056.88, 0.0, 10.000374, 9.999011 
9.750333e+2, 2.3523445e+2, -725164.4, -791878.7, 30655.545, 0.0232951, 0.13144214, -713217.44, -78508.6, 0.0, 9.999844, 9.998975 
9.7504544e+2, 2.45234e+2, -617577.44, -672803.2, -1834.005, 0.034126684, 0.18646514, -617516.56, -80803.164, 0.0, 9.999819, 9.999148 
9.750584e+2, 2.5523213e+2, -484891.13, -564602.7, 10901.547, 0.12434212, 0.05615267, -483427.06, -44698.008, 0.0, 10.000091, 9.999084 
9.7507066e+2, 2.652307e+2, -374401.66, -530343.94, 33310.133, 0.108872816, 0.042471524, -367584.47, -26843.525, 0.0000000034767167, 10.000484, 9.998447 
9.7508246e+2, 2.7522925e+2, -222952.47, -418552.78, 61962.973, -0.007656704, 0.024779916, -204975.77, 37777.277, 0.0000028342504, 10.000897, 9.998346 
9.7509474e+2, 2.8522724e+2, -150239.72, -504141.22, 5683.635, -0.037826154, 0.072139725, -150148.47, -5373.639, 0.000032313746, 10.001483, 9.99679 
9.7510725e+2, 2.952244e+2, 43824.44, -368912.94, -8970.3955, -0.0017895794, 0.073952, 44019.31, 90827.18, 0.0001399921, 10.002174, 9.996714 
9.751178e+2, 3.0522165e+2, 132557.67, -146113.58, -96035.47, -0.07230305, 0.06601703, 162447.42, 162447.42, 0.00037284024, 10.00178, 9.99812 
9.751279e+2, 3.1521973e+2, -20190.723, -15979.349, -16683.75, -0.11998812, 0.020120433, -1268.929, -1268.929, 0.00073526404, 9.9997835, 9.999964 
9.848987e+2, 1.2522362e+2, -1904532.8, -1754323.3, 24440.875, 0.12931903, 0.12503703, -1750446.5, -37635.746, 0.00008108169, 9.998371, 10.000508 
9.8491e+2, 1.35223e+2, -1628318.5, -1573823.5, -6353.625, -0.012691848, -0.015337654, -1573092.5, 41721.133, 0.000022462764, 9.999676, 10.000447 
9.8492277e+2, 1.452223e+2, -1548472.4, -1517252.1, -19964.045, 0.05590103, -0.1030376, -1507519.8, 9298.508, 0.0000013019285, 9.999673, 10.000136 
9.849356e+2, 1.5522295e+2, -1585561.1, -1492786.1, -32438.16, 0.13561638, -0.094412886, -1482569.5, -63758.527, 0.0, 9.998797, 10.0000515 
9.849473e+2, 1.652232e+2, -1481438.1, -1431970.1, -16246.781, 0.1309375, -0.049520157, -1427111.4, -106301.96, 0.0, 9.999015, 9.9997 
9.849581e+2, 1.7522289e+2, -1198518.3, -1248046.1, -7122.2695, 0.061274342, -0.07728487, -1197514.4, 25300.836, 0.0, 10.000305, 9.999664 
9.8497e+2, 1.8522364e+2, -1032477.75, -1042954.0, 50517.707, 0.032137267, 0.002722686, -986927.3, 137882.0, 0.0, 10.000442, 10.000334 
9.849826e+2, 1.9522497e+2, -1091393.8, -1032023.94, 5423.915, 0.024852887, 0.07663429, -1031532.44, -4736.162, 0.0, 9.999414, 10.000233 
9.849961e+2, 2.0522487e+2, -1032884.9, -1075637.9, 46711.695, 0.067254856, 0.10456589, -1002890.8, -74092.71, 0.0, 9.9996605, 9.999146 
9.8501045e+2, 2.1522309e+2, -749978.75, -893922.0, 51214.77, 0.15120518, -0.018161122, -733616.56, 97200.09, 0.0, 10.000964, 9.999089 
9.850228e+2, 2.2522257e+2, -620961.7, -784006.25, 12470.497, 0.13523911, 0.030427946, -620013.44, 112809.76, 0.0, 10.001181, 9.999067 
9.850334e+2, 2.3522294e+2, -644420.56, -748607.94, 7524.587, 0.036728863, 0.12965144, -643879.94, -9058.167, 0.0, 10.00037, 9.999026 
9.8504585e+2, 2.4522245e+2, -517873.75, -638768.94, 62168.23, 0.059399642, 0.18558471, -491610.3, 45216.063, 0.0, 10.000585, 9.9990015 
9.8505974e+2, 2.5522074e+2, -251595.2, -471036.38, 39844.586, 0.18343441, 0.08815011, -244584.48, 194256.28, 0.0, 10.001777, 9.998912 
9.8507226e+2, 2.6521906e+2, -179036.34, -442373.34, 38757.7, 0.15898885, 0.0613772, -173450.5, 167404.92, 0.00000001775074, 10.001861, 9.998396 
9.850835e+2, 2.752171e+2, -221166.39, -424950.5, 3093.2402, 0.0130382525, -0.000987605, -221119.45, 21753.613, 0.000003544514, 10.00094, 9.998292 
9.8509604e+2, 2.852153e+2, -215504.56, -522808.75, 38200.02, -0.01972972, 0.06715075, -210827.23, -65934.67, 0.00003520851, 10.000952, 9.9969425 
9.851096e+2, 2.9521337e+2, -12181.2705, -383152.28, 63992.168, 0.05396344, 0.14371361, -1452.9373, 45463.973, 0.00014922032, 10.001704, 9.996862 
9.8512006e+2, 3.052101e+2, 123004.32, -132912.8, -43771.332, -0.0027071123, 0.07309848, 130283.78, 130283.78, 0.00039592202, 10.001662, 9.998253 
9.851295e+2, 3.1520775e+2, 90483.38, 34423.883, -74544.88, 0.032106694, -0.02564995, 142094.13, 142094.13, 0.0007798097, 10.00057, 9.999928 
9.948963e+2, 1.2520866e+2, -1931489.9, -1798776.9, 21444.107, -0.01803249, -0.15032715, -1795398.0, -82444.12, 0.000108580556, 9.998339, 10.000206 
9.949109e+2, 1.35212e+2, -1657093.3, -1623212.1, 52326.152, 0.072862245, 0.1338404, -1585152.5, 29771.742, 0.000033028722, 9.999644, 10.000113 
9.9492395e+2, 1.4521232e+2, -1546068.8, -1513878.9, -76800.96, 0.15693831, 0.16521224, -1451504.5, 65417.2, 0.0000026281716, 9.999671, 10.000168 
9.949343e+2, 1.5521117e+2, -1575754.6, -1476039.3, -50640.926, 0.08986402, -0.008161904, -1454831.5, -35900.395, 0.00000000019976186, 9.998807, 10.000168 
9.9494594e+2, 1.6521083e+2, -1440027.3, -1333624.8, 16110.96, 0.053644605, -0.06425416, -1331238.8, -10306.38, 0.0, 9.99897, 10.000392 
9.949587e+2, 1.752109e+2, -1155870.8, -1153210.0, 55799.79, 0.04769396, -0.12551291, -1098724.8, 124204.95, 0.0, 10.0002775, 10.000328 
9.9497086e+2, 1.8521135e+2, -1098899.5, -1160658.6, -5293.995, 0.045201913, -0.06612711, -1098449.0, 26477.027, 0.0, 10.000359, 9.999566 
9.949826e+2, 1.9521193e+2, -1158470.4, -1143245.8, -16452.904, 0.050491717, 0.006410338, -1132729.5, -105805.164, 0.0, 9.999295, 9.999527 
9.9499595e+2, 2.052125e+2, -1024608.94, -1009374.7, 78200.695, 0.06305963, 0.11021597, -938421.0, -9499.981, 0.0, 9.999459, 9.999694 
9.950109e+2, 2.1521275e+2, -742254.1, -825653.7, 112255.164, 0.07869498, 0.13503097, -664203.8, 166715.94, 0.0, 10.000747, 9.999658 
9.950234e+2, 2.2521198e+2, -639180.56, -768167.44, -33882.59, 0.06425979, 0.11696149, -630821.9, 102104.99, 0.0, 10.000954, 9.999285 
9.950338e+2, 2.3520993e+2, -660496.8, -732989.25, -5328.0396, 0.019095376, -0.045831457, -660107.3, -25162.156, 0.0, 10.000162, 9.999232 
9.950464e+2, 2.4520896e+2, -555454.7, -679959.8, 92176.26, 0.029403208, -0.03698496, -506478.47, 30474.797, 0.0, 10.00042, 9.998799 
9.9506086e+2, 2.5520864e+2, -291062.4, -511678.84, 99660.91, 0.08768999, 0.020452606, -252709.25, 186246.48, 0.0, 10.001593, 9.998723 
9.9507356e+2, 2.65207e+2, -240954.25, -532841.7, -9925.255, 0.07215177, 0.034427326, -240617.14, 100355.03, 0.000000028595345, 10.001703, 9.997848 
9.950845e+2, 2.752037e+2, -277191.06, -511556.28, -9700.278, -0.009638974, -0.10220044, -276790.25, -33784.773, 0.000003781716, 10.000819, 9.997754 
9.95097e+2, 2.8520232e+2, -146139.48, -356984.72, 53799.348, -0.046242326, -0.025444752, -133205.45, 11815.123, 0.000036350866, 10.000857, 9.998124 
9.951107e+2, 2.9520258e+2, 60006.43, -211282.39, 113882.64, -0.04324974, 0.14682561, 101474.02, 148493.95, 0.00015456251, 10.001612, 9.998083 
9.95122e+2, 3.051996e+2, 75335.664, -214245.0, -91558.56, -0.005099548, 0.06536989, 101855.61, 101855.61, 0.00041193186, 10.00159, 9.99773 
9.9513286e+2, 3.1519648e+2, 13701.445, -87884.016, -78532.36, 0.24342929, -0.05446937, 56435.363, 56435.363, 0.0008105773, 10.000419, 9.999159 
1.0048962e+3, 1.2519617e+2, -1738562.4, -1685611.4, 54004.59, 0.08932907, -0.16811538, -1651941.6, 61134.367, 0.00014134821, 9.999577, 10.000387 
1.00491025e+3, 1.3519947e+2, -1719107.8, -1633583.9, 78824.086, 0.0902885, 0.096624, -1586669.6, 28377.064, 0.000046426092, 9.999143, 10.0002775 
1.0049235e+3, 1.4520021e+2, -1603518.4, -1513372.6, 4561.379, 0.17970133, 0.149147, -1513142.5, 3898.0183, 0.00000474816, 9.9991865, 10.000388 
1.00493394e+3, 1.5519984e+2, -1375848.1, -1359032.1, -1382.2439, 0.1207282, 0.03538316, -1358919.3, 60124.063, 0.000000004412824, 10.000102, 10.000344 
1.0049456e+3, 1.6519974e+2, -1281165.3, -1262075.0, 79314.93, 0.08377735, -0.0036545447, -1191732.9, 129309.375, 0.0, 10.000063, 10.000368 
1.00495845e+3, 1.7519955e+2, -1329900.4, -1238878.4, 34664.652, 0.0656092, -0.08775946, -1227180.3, -4139.223, 0.0, 9.99908, 10.000324 
1.00497104e+3, 1.8519951e+2, -1244108.1, -1243075.0, 10734.101, 0.07898649, -0.072570376, -1232845.0, -107803.69, 0.0, 9.999421, 9.999448 
1.0049835e+3, 1.9519931e+2, -910343.8, -1036330.06, 16455.22, 0.12727806, -0.06681516, -908230.0, 118816.016, 0.0, 10.00106, 9.999403 
1.00499675e+3, 2.0519985e+2, -766347.7, -880295.5, 135877.02, 0.119958915, 0.035690937, -675983.25, 253059.64, 0.0, 10.001203, 9.999743 
1.0050108e+3, 2.152007e+2, -864890.6, -886802.06, 98350.13, 0.05613291, 0.12043923, -776887.9, 54148.113, 0.0, 9.999888, 9.999665 
1.0050237e+3, 2.2520009e+2, -791402.9, -838089.25, -34487.45, 0.048878606, 0.115894474, -773101.25, -40059.023, 0.0, 9.99991, 9.999304 
1.0050352e+3, 2.3519772e+2, -506782.2, -657780.8, -59181.387, 0.09031705, -0.078098595, -486351.4, 148712.6, 0.0, 10.001223, 9.999236 
1.0050479e+3, 2.4519667e+2, -421169.06, -612615.06, 63633.89, 0.105853066, -0.078629956, -401947.88, 135125.5, 0.0, 10.001328, 9.998826 
1.0050619e+3, 2.5519654e+2, -476011.6, -589891.0, 55783.008, 0.1057607, -0.0036455842, -453240.1, -14166.128, 0.0, 10.000298, 9.998797 
1.0050746e+3, 2.6519522e+2, -418006.22, -605628.5, 15236.343, 0.08135381, 0.033828035, -416776.97, -75689.516, 0.000000017098808, 10.00043, 9.997957 
1.005086e+3, 2.7519232e+2, -162748.97, -437683.63, 33631.082, 0.03314048, -0.082641535, -158694.86, 84422.76, 0.000003428396, 10.001527, 9.9979105 
1.0050987e+3, 2.851911e+2, 3379.9893, -233645.25, 126989.65, 0.005915119, -0.0206309, 58567.15, 203697.23, 0.00003625069, 10.001681, 9.998561 
1.00511245e+3, 2.9519132e+2, -16331.764, -201232.4, 92398.7, 0.017868977, 0.10413768, 21925.916, 69053.76, 0.00015744341, 10.000886, 9.998497 
1.0051239e+3, 3.0518845e+2, 54404.754, -237753.52, -84134.86, 0.051765624, 0.01942484, 76901.38, 76901.38, 0.00042211023, 10.001479, 9.997641 
1.0051353e+3, 3.151859e+2, 371381.97, 39984.03, -102345.96, 0.33003068, -0.027864125, 400441.44, 400441.44, 0.0008305699, 10.00303, 9.998812 
1.01489745e+3, 1.2518635e+2, -1693058.6, -1574235.0, -26844.578, 0.18596157, 0.080379404, -1568451.8, 144723.84, 0.0001798155, 9.999528, 10.001163 
1.0149078e+3, 1.3518552e+2, -1669102.5, -1527676.3, 75271.12, -0.11414128, -0.14138834, -1495112.6, 120067.22, 0.000062927356, 9.999141, 10.000999 
1.0149208e+3, 1.4518598e+2, -1590169.9, -1478898.4, 17221.291, -0.0597973, -0.16830456, -1476294.0, 40880.594, 0.000007860604, 9.999158, 10.000636 
1.0149342e+3, 1.5518901e+2, -1362706.6, -1329528.5, 48364.395, 0.09550587, 0.033760298, -1294987.3, 124159.45, 0.000000028517778, 10.000096, 10.0005455 
1.0149462e+3, 1.6519003e+2, -1335807.3, -1370228.6, 25222.295, 0.0991059, 0.13623878, -1322483.1, -1345.5997, 0.0, 10.000039, 9.999637 
1.01495706e+3, 1.7518894e+2, -1381230.5, -1342534.8, 13356.201, -0.015747461, 0.033918206, -1338372.5, -115224.02, 0.0, 9.999064, 9.999621 
1.01496994e+3, 1.8518817e+2, -1220421.6, -1173189.0, 55545.758, -0.003299236, -0.0169241, -1136447.5, -11293.044, 0.0, 9.999332, 9.99997 
1.0149848e+3, 1.9518729e+2, -892812.7, -971237.5, 90112.68, 0.12372004, -0.13328703, -833750.44, 193409.55, 0.0, 10.000936, 9.999909 
1.0149981e+3, 2.0518704e+2, -821740.94, -960852.8, 70321.01, 0.10402206, -0.108409144, -792387.44, 136774.69, 0.0, 10.001055, 9.999261 
1.01500995e+3, 2.151871e+2, -922780.2, -965500.3, 63978.395, -0.049304746, -0.058199074, -876690.4, -45526.113, 0.0, 9.999714, 9.999206 
1.0150229e+3, 2.2518703e+2, -844666.94, -897102.8, -2194.649, -0.041434996, 0.031424876, -844575.25, -111407.21, 0.0, 9.999691, 9.999002 
1.01503685e+3, 2.3518647e+2, -556503.2, -711743.0, 3157.096, 0.11519312, 0.04483253, -556439.06, 78737.84, 0.0, 10.001013, 9.998964 
1.01505004e+3, 2.4518572e+2, -431250.63, -589244.0, 6228.237, 0.16198608, 0.07495764, -431005.47, 106179.516, 0.0, 10.00114, 9.999079 
1.0150624e+3, 2.5518447e+2, -477742.63, -562660.4, 33775.996, 0.10019314, 0.011060004, -465946.78, -26751.121, 0.0, 10.00016, 9.999055 
1.0150749e+3, 2.6518366e+2, -375468.84, -487947.5, 44437.55, 0.052069165, 0.04434669, -360031.4, -18828.861, 0.000000011022683, 10.000307, 9.998823 
1.0150877e+3, 2.7518293e+2, -121792.88, -320128.13, 94809.2, 0.007003914, 0.056607824, -83763.555, 159445.97, 0.0000031084232, 10.001389, 9.998783 
1.0151008e+3, 2.851816e+2, -38434.844, -294460.78, 81218.54, 0.013012533, 0.0845229, -14843.816, 130377.664, 0.000035475467, 10.0015745, 9.998191 
1.01511426e+3, 2.9517958e+2, -64850.75, -267056.9, 85044.24, 0.06373788, 0.02001926, -33838.9, 13401.816, 0.00015874387, 10.000745, 9.998107 
1.01512544e+3, 3.0517665e+2, 62342.406, -197844.94, -33720.957, 0.016212747, -0.06346882, 66641.69, 66641.69, 0.00042931808, 10.001384, 9.997956 
1.0151358e+3, 3.1517607e+2, 337486.72, 35915.934, -1610.9911, 0.013525791, 0.04692925, 337495.3, 337495.3, 0.00084597495, 10.002769, 9.998896 
1.0248975e+3, 1.2517539e+2, -1831274.8, -1652270.1, 70667.6, 0.29102308, 0.115916364, -1627734.8, 85547.27, 0.00022439056, 9.998611, 10.001082 
1.0249066e+3, 1.3517395e+2, -1646512.5, -1530893.5, 65168.496, -0.14015445, -0.15080674, -1501588.9, 113704.18, 0.0000828242, 9.999357, 10.000884 
1.0249195e+3, 1.4517425e+2, -1546181.5, -1465259.3, 13389.28, -0.10582151, -0.18323702, -1463101.4, 54188.004, 0.000012107546, 9.999468, 10.000599 
1.024934e+3, 1.5517731e+2, -1486007.8, -1393448.9, -10983.142, 0.11279337, 0.024555856, -1392163.5, 27097.607, 0.00000009714164, 9.999254, 10.000521 
1.0249466e+3, 1.6517837e+2, -1405684.4, -1397426.0, 6677.744, 0.16310169, 0.13054869, -1393703.9, -72452.234, 0.0, 9.999564, 9.999658 
1.0249575e+3, 1.7517738e+2, -1173691.0, -1235673.6, 16132.774, 0.07120194, 0.03615358, -1169743.4, 53518.484, 0.0, 10.000493, 9.999647 
1.02497034e+3, 1.851767e+2, -1019901.75, -1079323.8, 115697.125, 0.050132237, -0.008075084, -930161.6, 195105.23, 0.0, 10.000701, 9.999962 
1.0249847e+3, 1.9517592e+2, -1004784.75, -1026316.5, 82397.81, 0.07389478, -0.1112557, -932452.5, 94818.16, 0.0, 10.000161, 9.999913 
1.0249982e+3, 2.051754e+2, -949402.94, -1012431.1, 56754.617, 0.061753374, -0.11850851, -915999.94, 13274.528, 0.0, 10.0001545, 9.999341 
1.0250107e+3, 2.151748e+2, -784182.25, -889989.3, 59172.8, 0.023520608, -0.13993208, -757711.94, 73569.7, 0.0, 10.000653, 9.999268 
1.02502406e+3, 2.251747e+2, -667780.2, -836915.8, 89840.06, 0.044674434, -0.04299642, -628966.7, 104319.07, 0.0, 10.001005, 9.998784 
1.02503784e+3, 2.3517478e+2, -559407.9, -738955.94, 72589.46, 0.11254119, 0.05760189, -533732.3, 101557.93, 0.0, 10.001103, 9.998736 
1.025051e+3, 2.4517424e+2, -411985.63, -575200.8, 56903.918, 0.15255001, 0.11828873, -394105.25, 143192.25, 0.0, 10.001273, 9.999093 
1.02506384e+3, 2.5517276e+2, -286207.13, -471410.56, 29182.086, 0.16296795, 0.03132925, -281717.78, 157593.2, 0.0, 10.001486, 9.999037 
1.0250765e+3, 2.6517197e+2, -202760.34, -384060.3, 62270.816, 0.12619436, 0.059254695, -183432.72, 157884.92, 0.00000001218603, 10.001404, 9.99901 
1.02508925e+3, 2.7517155e+2, -165616.83, -316263.53, 27632.709, 0.055723682, 0.08213634, -160708.19, 82612.82, 0.0000027111198, 10.000992, 9.998998 
1.0251024e+3, 2.8517014e+2, -112496.9, -321528.34, 20943.059, 0.060814857, 0.08455268, -110419.24, 34913.723, 0.00003356842, 10.00102, 9.99828 
1.025116e+3, 2.9516748e+2, 29999.994, -212498.48, 21725.725, 0.13933973, -0.04246765, 31931.049, 79287.3, 0.00015737157, 10.001352, 9.998199 
1.02512754e+3, 3.0516484e+2, 164490.02, -143383.56, -1312.1196, 0.073919624, -0.10480826, 164495.61, 164495.61, 0.00043278775, 10.002079, 9.997983 
1.02513865e+3, 3.151647e+2, 340659.3, 17769.736, -55563.457, 0.035917796, 0.04129311, 349953.25, 349953.25, 0.00085734465, 10.002862, 9.998721 
1.0348949e+3, 1.2516306e+2, -1895013.4, -1791195.0, 34936.363, 0.0940127, -0.08469755, -1780533.4, -67135.96, 0.00027553758, 9.998639, 10.0001135 
1.03490636e+3, 1.3516489e+2, -1721620.5, -1687378.1, 100732.43, -0.1261, 0.078436986, -1602322.3, 13062.702, 0.000106410545, 9.999355, 9.999812 
1.0349195e+3, 1.4516519e+2, -1565445.6, -1504414.4, -17187.215, -0.10764649, 0.11503699, -1499907.1, 17476.816, 0.000017580353, 9.99947, 10.000328 
1.0349327e+3, 1.5516475e+2, -1499660.9, -1424347.5, -3969.0503, 0.03335142, -0.001711583, -1424138.9, -4752.1646, 0.00000023822265, 9.99926, 10.00031 
1.0349461e+3, 1.6516472e+2, -1364773.0, -1297125.9, 21315.338, 0.12530097, -0.03279774, -1290969.8, 30415.295, 0.0, 9.999507, 10.000369 
1.0349597e+3, 1.7516482e+2, -1134277.1, -1140651.3, 64667.195, 0.20447463, -0.08917111, -1072718.5, 150662.97, 0.0, 10.00044, 10.000324 
1.0349721e+3, 1.8516514e+2, -1067822.4, -1160129.6, 76234.08, 0.110990286, -0.03901744, -1024859.3, 100518.39, 0.0, 10.000621, 9.999446 
1.0349829e+3, 1.9516526e+2, -1055166.5, -1108285.8, 74006.15, -0.1504861, -0.0027259286, -1003098.4, 24279.174, 0.0, 10.000058, 9.999403 
1.0349966e+3, 2.0516488e+2, -937414.44, -945168.44, 58053.77, -0.13401663, 0.0030733566, -883108.4, 46271.758, 0.0, 9.99997, 9.99989 
1.035013e+3, 2.1516365e+2, -765234.25, -819112.9, 94253.54, 0.15544766, -0.1378902, -694145.75, 137243.4, 0.0, 10.000505, 9.999829 
1.0350266e+3, 2.25163e+2, -704669.6, -864817.4, 78283.52, 0.17855875, -0.12308166, -672760.75, 60635.633, 0.0, 10.000803, 9.998687 
1.0350375e+3, 2.351626e+2, -594646.06, -765805.25, 91004.48, -0.05258445, -0.06059611, -555302.94, 80101.57, 0.0, 10.000905, 9.998645 
1.0350505e+3, 2.4516217e+2, -468427.28, -643624.44, 52973.88, -0.056859937, 0.03639583, -453655.25, 83756.06, 0.0, 10.001066, 9.998723 
1.0350656e+3, 2.5516143e+2, -335925.3, -533639.06, 55447.54, 0.15691526, 0.057579916, -321437.1, 117982.68, 0.0, 10.001314, 9.99869 
1.0350788e+3, 2.651603e+2, -254545.38, -461548.75, 31095.275, 0.1835443, 0.08717647, -249975.25, 91456.37, 0.00000000560088, 10.001277, 9.998537 
1.0350903e+3, 2.7515826e+2, -219949.0, -393456.34, 31110.115, 0.03308069, 0.0011780711, -214539.56, 28911.463, 0.0000022721786, 10.000849, 9.998532 
1.0351031e+3, 2.8515667e+2, -89418.86, -249135.44, 19172.172, 0.01005464, -0.019285254, -87149.695, 58314.242, 0.000031172072, 10.0009165, 9.998826 
1.0351173e+3, 2.9515538e+2, 45426.1, -147576.11, 59628.848, 0.09338908, -0.071559384, 62362.48, 109834.61, 0.00015322318, 10.001213, 9.998712 
1.0351301e+3, 3.0515316e+2, 123758.16, -201723.53, 19748.447, 0.09104674, -0.09429241, 124952.01, 124952.01, 0.00043103905, 10.001974, 9.997628 
1.0351427e+3, 3.1515226e+2, 273452.13, -57890.316, 22505.906, 0.087270774, 0.011518875, 274973.8, 274973.8, 0.0008619147, 10.002619, 9.998305 
1.0448939e+3, 1.2515104e+2, -1792281.0, -1776518.8, -44279.5, 0.11644303, -0.11809639, -1739424.5, -25909.203, 0.0003338259, 9.999462, 9.999825 
1.0449065e+3, 1.3515338e+2, -1786042.9, -1754534.5, 42800.168, -0.023494584, 0.12692708, -1724681.1, -109181.6, 0.00013404706, 9.999037, 9.999507 
1.0449192e+3, 1.4515369e+2, -1633952.1, -1531582.1, 14221.122, -0.043873057, 0.17451572, -1529643.3, -12144.749, 0.000024406929, 9.998995, 10.000359 
1.04493216e+3, 1.5515241e+2, -1443197.3, -1386010.5, 7445.3916, 0.030616567, -0.028904958, -1385057.0, 34450.645, 0.0000004785213, 9.999633, 10.000378 
1.0449456e+3, 1.6515219e+2, -1308191.1, -1276090.6, 56135.176, 0.115893975, -0.08061762, -1233756.3, 87751.086, 0.0, 9.999901, 10.000342 
1.0449601e+3, 1.7515266e+2, -1216508.5, -1184714.3, 15031.317, 0.23264414, -0.09676765, -1178733.1, 44767.723, 0.0, 9.999878, 10.000305 
1.04497254e+3, 1.8515317e+2, -1150042.9, -1196998.1, 31761.209, 0.14078085, -0.026312578, -1134024.0, -8528.189, 0.0, 10.000062, 9.9994545 
1.04498304e+3, 1.9515336e+2, -992850.3, -1075225.8, 32695.959, -0.15273109, 0.016897203, -981450.44, 46044.977, 0.0, 10.000486, 9.999415 
1.044997e+3, 2.0515314e+2, -826407.0, -896745.5, 57932.87, -0.1313538, 0.038919613, -793803.9, 135693.19, 0.0, 10.0007515, 9.999845 
1.0450139e+3, 2.1515217e+2, -728542.2, -801171.44, 16975.043, 0.19041632, -0.07128744, -724770.56, 106733.44, 0.0, 10.0007715, 9.999815 
1.0450277e+3, 2.2515145e+2, -661095.8, -816332.5, 16575.602, 0.20878679, -0.074814774, -659345.7, 74165.055, 0.0, 10.000969, 9.998951 
1.0450385e+3, 2.3515058e+2, -517651.97, -703309.06, 23336.682, -0.061141096, -0.08338099, -514763.53, 120757.12, 0.0, 10.001303, 9.998896 
1.0450514e+3, 2.4514987e+2, -445171.94, -664133.7, 26481.072, -0.07638286, -0.013653733, -442014.84, 95514.484, 0.0, 10.001344, 9.998461 
1.04506664e+3, 2.5514904e+2, -383200.6, -583904.56, 5535.655, 0.15521535, 0.024777913, -383048.03, 56491.477, 0.0, 10.001102, 9.998452 
1.04508005e+3, 2.6514772e+2, -279550.47, -496002.97, 22398.885, 0.2005786, 0.05731857, -277256.88, 64296.582, 0.0000000009945924, 10.001193, 9.998353 
1.0450918e+3, 2.7514532e+2, -136091.75, -379955.0, 10843.684, 0.07267629, -0.04288871, -135610.53, 107965.664, 0.0000020282196, 10.001505, 9.998327 
1.0451047e+3, 2.8514373e+2, 32796.902, -180178.92, 35131.375, 0.041009914, -0.056091886, 38442.344, 184031.2, 0.00002862313, 10.00171, 9.9989195 
1.0451188e+3, 2.9514286e+2, 131725.81, -86920.875, 4281.2246, 0.10519797, -0.07659656, 131809.61, 179402.31, 0.00014660136, 10.001736, 9.998869 
1.0451324e+3, 3.0514097e+2, 167043.66, -201766.33, 19325.709, 0.12778705, -0.07405675, 168053.56, 168053.56, 0.00042212423, 10.002346, 9.997454 
1.0451466e+3, 3.1513944e+2, 335537.13, -57735.316, -24641.795, 0.20050448, -0.0063076504, 337075.13, 337075.13, 0.0008537748, 10.003123, 9.998084 
1.05489396e+3, 1.2513916e+2, -1752932.0, -1690035.4, -112928.305, 0.08364809, -0.010566787, -1604258.4, 109379.06, 0.00039971265, 9.999458, 10.000411 
1.0549064e+3, 1.3513951e+2, -1751813.6, -1676249.8, 40705.34, 0.029557642, -0.018187977, -1658494.4, -42858.02, 0.00016604259, 9.999014, 10.000053 
1.0549183e+3, 1.4513986e+2, -1618283.5, -1495754.8, 15855.0205, -0.07202934, -0.005168287, -1493736.4, 23895.479, 0.000032768716, 9.998977, 10.000615 
1.0549315e+3, 1.5514036e+2, -1430742.9, -1358765.6, 44658.508, -0.02862937, -0.05999872, -1337399.5, 82223.57, 0.0000008393984, 9.999617, 10.000578 
1.05494455e+3, 1.6514087e+2, -1364063.3, -1382256.4, 37814.09, -0.008586511, -0.009877521, -1334267.0, -12649.566, 0.0, 9.999862, 9.999629 
1.0549581e+3, 1.7514105e+2, -1268202.3, -1288264.3, 28278.822, 0.01980298, 0.0137599055, -1248228.1, -24609.598, 0.0, 9.999857, 9.999604 
1.0549716e+3, 1.8514094e+2, -1132480.1, -1135161.5, 29249.547, 0.00075135997, 0.032492403, -1104540.5, 21079.166, 0.0, 9.999954, 9.999931 
1.0549848e+3, 1.9514023e+2, -975427.94, -1015965.1, 63945.39, -0.06394025, -0.062887594, -928615.75, 99008.13, 0.0, 10.00038, 9.999878 
1.0549986e+3, 2.0514019e+2, -897965.56, -1006236.56, 40597.297, -0.056148212, -0.012166996, -884434.25, 45190.39, 0.0, 10.000585, 9.999175 
1.0550132e+3, 2.1514037e+2, -802545.94, -914031.25, 31442.414, 0.017178087, 0.059225556, -794289.6, 37336.363, 0.0, 10.0005865, 9.999135 
1.05502695e+3, 2.2514e+2, -654258.56, -749502.75, 15095.776, 0.01889551, 0.0984074, -651923.2, 81706.16, 0.0, 10.000747, 9.99951 
1.0550401e+3, 2.3513874e+2, -505288.53, -632652.6, 51116.824, -0.0414693, -0.009795427, -487310.72, 148327.6, 0.0, 10.001111, 9.99947 
1.0550533e+3, 2.4513742e+2, -485009.1, -702145.5, 1158.9534, -0.0388067, -0.02310967, -485002.9, 52647.605, 0.0, 10.001157, 9.998287 
1.05506666e+3, 2.551357e+2, -420048.28, -621683.8, 10036.21, 0.02556403, -0.05927479, -419550.0, 20119.086, 0.0, 10.000937, 9.99827 
1.0550799e+3, 2.6513425e+2, -297170.9, -497513.7, 19692.096, 0.052474525, -0.02869614, -295253.66, 46429.313, 0.000000000012280949, 10.001047, 9.998405 
1.05509326e+3, 2.7513278e+2, -151815.33, -380935.56, 42986.96, 0.039032165, -0.04935015, -144015.72, 99679.83, 0.0000016155456, 10.00137, 9.998381 
1.0551066e+3, 2.8513154e+2, -7814.2095, -237573.3, 22320.264, 0.025755405, -0.013178441, -5665.963, 140039.53, 0.000025306648, 10.001597, 9.998581 
1.05512e+3, 2.9513016e+2, 88334.84, -148702.5, 30752.033, 0.015781054, -0.048951264, 92259.48, 139976.14, 0.00013793015, 10.001615, 9.998508 
1.05513416e+3, 3.0512813e+2, 155979.8, -202185.42, 41819.926, 0.030685714, -0.042716917, 160797.94, 160797.94, 0.00040720604, 10.002245, 9.9974985 
1.0551493e+3, 3.1512645e+2, 296141.03, -83996.34, 57194.53, 0.090955585, 0.002416632, 304559.94, 304559.94, 0.00083313056, 10.002884, 9.99802 
1.06489316e+3, 1.2512755e+2, -1898927.5, -1732764.5, -42513.324, 0.1348021, 0.10320338, -1722519.1, -8763.702, 0.00047318285, 9.998363, 10.0006485 
1.064906e+3, 1.351269e+2, -1706884.5, -1619066.1, 19807.145, 0.086457305, -0.027473452, -1614805.4, 956.0505, 0.00020250746, 9.9992, 10.000354 
1.06491745e+3, 1.4512713e+2, -1576482.8, -1477958.6, 14661.756, -0.06302595, -0.040251393, -1475823.1, 41933.69, 0.000042863663, 9.999256, 10.000614 
1.0649314e+3, 1.55128e+2, -1529396.4, -1403460.3, -14831.052, 0.054509837, -0.056602158, -1401737.3, 18006.742, 0.0000013547858, 9.998924, 10.000606 
1.0649446e+3, 1.6512865e+2, -1467986.4, -1455369.6, 41197.723, 0.04107152, 0.014116863, -1420000.1, -98262.83, 0.0, 9.99924, 9.999431 
1.06495716e+3, 1.7512876e+2, -1240754.4, -1294980.3, 35188.37, -0.065457985, 0.052283045, -1223445.0, 294.80432, 0.0, 10.000136, 9.999427 
1.0649708e+3, 1.851284e+2, -1089303.5, -1122913.3, 50885.484, -0.075249836, 0.058810823, -1052519.8, 73223.766, 0.0, 10.000273, 9.999866 
1.0649853e+3, 1.9512731e+2, -1073263.1, -1069931.3, 13974.143, -0.00027494793, -0.06985465, -1057524.0, -29772.744, 0.0, 9.999728, 9.999823 
1.0649994e+3, 2.0512709e+2, -1036210.94, -1080839.1, 32534.6, 0.020189783, -0.0299786, -1019073.56, -89319.86, 0.0, 9.999672, 9.999097 
1.0650132e+3, 2.151274e+2, -877620.25, -956145.0, 33903.734, -0.0075951335, 0.06190042, -865007.8, -33253.773, 0.0, 10.000103, 9.999073 
1.0650271e+3, 2.2512718e+2, -733623.3, -770687.94, 48833.793, -0.0064499658, 0.11059296, -699923.56, 33832.035, 0.0, 10.000124, 9.999665 
1.0650413e+3, 2.3512614e+2, -694876.2, -700589.8, 26327.123, 0.032119893, 0.008205146, -671251.3, -35489.88, 0.0, 9.999721, 9.999662 
1.0650548e+3, 2.4512482e+2, -621647.75, -750076.25, 18953.783, 0.045824997, -0.022909457, -618908.9, -81136.305, 0.0, 10.000138, 9.99845 
1.0650677e+3, 2.5512284e+2, -355850.97, -578348.1, 20629.584, 0.032892, -0.09671681, -353954.4, 85838.27, 0.0, 10.001313, 9.998396 
1.0650813e+3, 2.6512122e+2, -164370.8, -449367.28, 56656.44, 0.035320777, -0.08220278, -153520.73, 188286.78, 0.0, 10.002017, 9.998269 
1.0650951e+3, 2.7511978e+2, -51048.492, -341384.13, 24838.064, 0.06141212, -0.08939118, -48938.938, 194880.45, 0.00000091217555, 10.002115, 9.998286 
1.0651088e+3, 2.8511822e+2, 6478.9985, -314977.53, 5602.1025, 0.07036711, -0.04423233, 6576.598, 152410.5, 0.000020761427, 10.0020485, 9.997835 
1.06512204e+3, 2.9511604e+2, 69876.18, -241626.67, -50057.813, 0.071643345, -0.08235319, 77722.71, 125578.82, 0.00012637535, 10.001825, 9.997773 
1.06513634e+3, 3.05114e+2, 151021.64, -159758.98, 23221.152, 0.054991722, -0.05661404, 152747.13, 152747.13, 0.00038601994, 10.002025, 9.997884 
1.0651516e+3, 3.1511274e+2, 246519.17, -49570.49, 6322.179, 0.069418326, -0.016810061, 246654.1, 246654.1, 0.0008001297, 10.002314, 9.998504 
1.0748911e+3, 1.2511596e+2, -1919100.4, -1756014.0, -17013.559, 0.025951931, 0.19706412, -1754258.0, -40386.47, 0.00055371417, 9.99831, 10.0005 
1.0749046e+3, 1.3511567e+2, -1718010.3, -1631820.6, 58440.613, -0.0070434352, 0.10490154, -1602303.6, 13570.485, 0.00024334127, 9.999167, 10.000276 
1.07491605e+3, 1.4511557e+2, -1589980.0, -1510426.9, -23126.799, -0.18068504, 0.07459552, -1504192.4, 13680.425, 0.00005483326, 9.999261, 10.000396 
1.0749316e+3, 1.551154e+2, -1539974.4, -1431371.1, -12380.583, 0.14110696, -0.024708895, -1429977.6, -10107.437, 0.000002073113, 9.998937, 10.000414 
1.074945e+3, 1.651156e+2, -1454996.1, -1411812.3, 55522.484, 0.13977748, -0.005082202, -1373831.0, -51964.67, 0.0000000000166348, 9.999182, 9.999753 
1.0749569e+3, 1.751158e+2, -1225484.4, -1250913.1, 83757.51, -0.14002907, 0.006486856, -1153481.6, 70382.94, 0.0, 10.000085, 9.999751 
1.07497e+3, 1.8511559e+2, -1148637.8, -1219722.9, 13721.356, -0.21433692, 0.044403084, -1146081.1, -20214.148, 0.0, 10.000168, 9.999249 
1.0749844e+3, 1.9511461e+2, -1134750.6, -1163638.8, 7528.3325, -0.093795985, -0.011929109, -1132906.5, -105029.16, 0.0, 9.999589, 9.999243 
1.0749989e+3, 2.051139e+2, -1027831.9, -1026332.56, 28837.76, -0.025481237, -0.013853245, -998234.75, -68351.11, 0.0, 9.999509, 9.999555 
1.0750134e+3, 2.1511321e+2, -870354.8, -899012.1, 63704.27, -0.010623245, -0.07218681, -819387.6, 12501.226, 0.0, 9.999916, 9.999559 
1.0750276e+3, 2.2511297e+2, -778659.56, -811504.4, 19466.947, 0.012004925, -0.039795227, -769613.2, -35723.645, 0.0, 9.999901, 9.999492 
1.0750413e+3, 2.3511288e+2, -737780.3, -741621.2, 30513.166, 0.039916106, -0.033313517, -709127.2, -73237.95, 0.0, 9.999513, 9.999484 
1.0750553e+3, 2.4511212e+2, -626075.0, -707451.3, 50402.55, 0.052813098, -0.016958546, -601987.06, -64091.613, 0.0, 9.999926, 9.998838 
1.0750696e+3, 2.5511038e+2, -347879.63, -526633.2, 81848.75, 0.051314767, -0.106039815, -316064.72, 123846.5, 0.0, 10.001163, 9.998819 
1.0750835e+3, 2.651086e+2, -218037.84, -516409.0, 44496.57, 0.034390688, -0.11501276, -211543.36, 130384.055, 0.000000000031670343, 10.001835, 9.997896 
1.07509695e+3, 2.751063e+2, -102369.55, -413174.25, 49180.594, -0.0009872154, -0.16675907, -94773.055, 149174.61, 0.00000057346807, 10.001966, 9.9978695 
1.0751107e+3, 2.851038e+2, -82404.4, -477268.75, -19014.215, 0.030158546, -0.14061658, -81490.91, 64482.977, 0.000016841232, 10.001954, 9.996762 
1.0751249e+3, 2.9510075e+2, -19544.264, -399541.06, -33190.63, 0.1242481, -0.16305588, -16667.031, 31341.656, 0.000114238224, 10.001706, 9.996745 
1.0751388e+3, 3.050989e+2, 183842.53, -76915.8, 31631.637, 0.06302006, -0.10285354, 187624.8, 187624.8, 0.0003625103, 10.001958, 9.9984865 
1.0751523e+3, 3.1509823e+2, 263374.66, 20763.309, 78679.24, -0.15927035, -0.061608598, 286656.3, 286656.3, 0.00076317973, 10.002148, 9.999077 
1.08488895e+3, 1.2510139e+2, -2029336.1, -1797644.4, -17842.414, 0.039227184, 0.14188312, -1796278.4, -82265.086, 0.00064071716, 9.997444, 10.000658 
1.0849031e+3, 1.3510217e+2, -1907437.4, -1698292.0, -26385.316, 0.022956092, 0.13423355, -1695014.6, -79009.445, 0.00028839763, 9.997729, 10.000524 
1.08491465e+3, 1.4510235e+2, -1768122.6, -1610165.5, -57771.29, -0.16998112, 0.1283629, -1591291.5, -73289.27, 0.00006873226, 9.998144, 10.000226 
1.08493105e+3, 1.5510194e+2, -1528546.5, -1445198.5, -89297.82, 0.18781285, 0.022496996, -1388329.0, 31675.592, 0.0000030594845, 9.999123, 10.000219 
1.084945e+3, 1.6510195e+2, -1417452.9, -1360399.0, 3935.7566, 0.20890634, 0.01666569, -1360128.8, -38126.473, 0.000000000186287, 9.999281, 10.000061 
1.08495675e+3, 1.7510208e+2, -1409731.3, -1307766.6, -4230.6914, -0.07753755, -0.009004985, -1307591.4, -83592.81, 0.0, 9.998674, 10.000042 
1.0849699e+3, 1.8510187e+2, -1353130.8, -1350754.8, -27159.092, -0.16338572, 0.028497182, -1324757.6, -198756.73, 0.0, 9.998902, 9.998968 
1.0849844e+3, 1.9510098e+2, -1114210.9, -1184207.6, -40708.242, -0.0603002, 0.013912882, -1095524.5, -67512.1, 0.0, 9.999877, 9.998965 
1.084999e+3, 2.0510034e+2, -901438.8, -920176.0, 16317.861, 0.006119071, 0.010431183, -891991.4, 38026.58, 0.0, 10.000192, 9.999945 
1.0850137e+3, 2.1509951e+2, -849936.94, -848055.25, 7773.8086, 0.033678096, -0.097840324, -841165.56, -9143.954, 0.0, 9.99989, 9.999916 
1.0850278e+3, 2.2509919e+2, -757036.06, -812848.56, -5545.6924, 0.048715945, -0.08489745, -756490.3, -22467.98, 0.0, 10.000106, 9.999388 
1.08504154e+3, 2.3509908e+2, -555916.6, -666125.9, -27780.047, 0.052361738, -0.06666498, -549310.25, 86713.18, 0.0, 10.000817, 9.999378 
1.0850558e+3, 2.4509841e+2, -450031.66, -645969.94, 21790.438, 0.05449253, -0.02595843, -447637.56, 90392.29, 0.0, 10.001204, 9.998671 
1.0850707e+3, 2.5509694e+2, -365911.28, -553594.44, -17154.97, 0.061570838, -0.07083697, -364356.13, 75688.42, 0.0, 10.001109, 9.998675 
1.0850852e+3, 2.6509532e+2, -306808.9, -542038.56, -38352.883, 0.07037936, -0.058523484, -300713.63, 41345.945, 0.000000020287489, 10.00115, 9.998042 
1.0850993e+3, 2.7509317e+2, -180229.05, -436248.4, -33203.805, 0.08088583, -0.11483233, -175992.86, 68086.31, 0.0000009682407, 10.001359, 9.998 
1.0851134e+3, 2.8509068e+2, -48306.344, -462373.16, 6339.722, 0.09739425, -0.09055122, -48209.3, 97895.73, 0.000016002106, 10.002205, 9.99674 
1.0851276e+3, 2.9508767e+2, 243312.39, -266727.5, 24525.03, 0.13984169, -0.10700242, 244488.95, 292627.9, 0.00010691048, 10.003505, 9.996783 
1.08514145e+3, 3.0508566e+2, 366923.53, 3335.214, 90940.93, 0.0800603, -0.06050672, 388401.06, 388401.06, 0.00034615427, 10.003262, 9.998424 
1.0851549e+3, 3.1508473e+2, 133398.14, -48636.137, 33029.01, -0.062152594, -0.036125652, 139205.77, 139205.77, 0.0007399488, 10.001312, 9.999004 
1.0948865e+3, 1.2508364e+2, -1988062.8, -1695663.0, 18479.182, -0.018033216, -0.08541973, -1694499.8, 19682.768, 0.000734217, 9.997378, 10.001388 
1.09490134e+3, 1.3508666e+2, -1856740.4, -1598441.9, -7024.562, 0.04059229, 0.05858866, -1598251.0, 17901.395, 0.00033773432, 9.997739, 10.001208 
1.0949131e+3, 1.4508761e+2, -1794076.0, -1653317.0, -43520.082, -0.18271132, 0.11084036, -1640948.3, -122804.12, 0.0000845864, 9.998105, 9.999946 
1.09492905e+3, 1.5508755e+2, -1556433.4, -1488859.3, -36410.293, 0.05433045, 0.068753175, -1472974.8, -52826.945, 0.0000043925156, 9.999072, 9.999941 
1.0949435e+3, 1.6508768e+2, -1399211.3, -1319370.9, -38693.918, 0.10563879, 0.076935306, -1303695.8, 18449.615, 0.0000000006358386, 9.999258, 10.000359 
1.09495655e+3, 1.750876e+2, -1388971.3, -1265975.0, -11188.427, -0.0045326925, -0.0014142229, -1264965.5, -40823.684, 0.0, 9.998664, 10.0003395 
1.0949702e+3, 1.8508732e+2, -1362653.9, -1350508.6, -9293.615, -0.05215826, 0.014376081, -1345479.5, -219335.22, 0.0, 9.998823, 9.999003 
1.09498486e+3, 1.950866e+2, -1129574.5, -1184210.5, 12078.761, -0.029345606, 0.008212455, -1127023.3, -98868.04, 0.0, 9.999743, 9.999025 
1.09499924e+3, 2.0508635e+2, -907184.1, -899781.9, -12181.244, -0.013056813, 0.031575, -890751.9, 39405.03, 0.0, 10.000043, 10.000161 
1.0950134e+3, 2.1508627e+2, -859187.25, -827919.5, 11297.443, -0.004645914, -0.02447768, -824264.8, 7887.9233, 0.0, 9.999712, 10.000144 
1.0950275e+3, 2.250858e+2, -802861.9, -855586.4, 3452.7285, -0.023345185, -0.029970376, -802636.7, -68482.18, 0.0, 9.999884, 9.999199 
1.0950414e+3, 2.3508455e+2, -600837.1, -709147.4, 14149.649, -0.06717029, -0.107436724, -599019.1, 37146.87, 0.0, 10.000599, 9.999187 
1.0950558e+3, 2.4508357e+2, -525079.6, -750722.75, 2587.581, -0.082078986, -0.05751485, -525049.94, 13127.443, 0.0, 10.000993, 9.998048 
1.0950708e+3, 2.5508258e+2, -437252.88, -656699.44, -2183.664, -0.06515209, 0.0038814668, -437231.13, 2960.5261, 0.0, 10.000919, 9.998056 
1.0950862e+3, 2.6508167e+2, -293088.25, -469329.03, -41529.99, 0.020674994, 0.08717341, -283792.3, 58409.797, 0.00000010014453, 10.000966, 9.998628 
1.0951019e+3, 2.7508038e+2, -157604.45, -360004.16, -1052.1072, 0.16678856, 0.064123616, -157598.98, 86614.31, 0.0000018117424, 10.001231, 9.998589 
1.0951162e+3, 2.850787e+2, -1745.6913, -337139.38, 39774.72, 0.13551164, 0.093022, 2906.7024, 149135.84, 0.000017402066, 10.002086, 9.997652 
1.0951296e+3, 2.9507643e+2, 284976.56, -148163.48, 92026.66, -0.04561523, 0.052211963, 303718.0, 351969.3, 0.00010435712, 10.003365, 9.997666 
1.0951437e+3, 3.050741e+2, 295302.9, -115180.63, 2686.2253, -0.045632254, 0.063125156, 295320.47, 295320.47, 0.00033796718, 10.003141, 9.997663 
1.0951582e+3, 3.150719e+2, 51983.367, -185752.86, 10715.435, 0.06941166, 0.042284623, 52465.367, 52465.367, 0.00073106954, 10.001164, 9.998139 
1.1048843e+3, 1.2506697e+2, -1949104.0, -1649409.3, 104769.47, 0.025451919, -0.16328907, -1616415.5, 97926.766, 0.00083503575, 9.99756, 10.001582 
1.1048992e+3, 1.3507044e+2, -1820810.1, -1559849.6, -84803.29, 0.05296083, 0.006588911, -1534712.8, 81595.83, 0.0003918232, 9.997917, 10.001369 
1.104912e+3, 1.4507176e+2, -1802029.3, -1640401.5, -77547.11, -0.0910791, 0.074208036, -1609213.4, -90915.31, 0.000102570426, 9.997932, 10.000138 
1.1049272e+3, 1.5507215e+2, -1722604.9, -1549147.0, -64937.21, 0.029356446, 0.06083344, -1527530.5, -107231.99, 0.0000061708192, 9.997811, 10.000148 
1.10494174e+3, 1.6507265e+2, -1559084.4, -1371734.8, -25110.982, 0.07108932, 0.08121859, -1368427.4, -46133.906, 0.0000000015512864, 9.998074, 10.000557 
1.1049558e+3, 1.7507283e+2, -1340844.0, -1213837.3, -42866.445, 0.058090176, 0.007891123, -1200723.3, 23564.037, 0.0, 9.998898, 10.000567 
1.1049702e+3, 1.8507288e+2, -1242271.3, -1240406.0, 19947.74, 0.0460239, 0.022051046, -1221369.1, -95083.2, 0.0, 9.999427, 9.999466 
1.1049851e+3, 1.9507247e+2, -1111143.4, -1122733.9, 38363.047, 0.032939963, 0.001263412, -1078140.3, -49847.582, 0.0, 9.999643, 9.999493 
1.1049994e+3, 2.0507242e+2, -980562.1, -953810.25, 19553.91, 0.02213591, 0.027351458, -943495.06, -13202.29, 0.0, 9.999616, 10.000002 
1.10501304e+3, 2.1507238e+2, -912393.44, -871374.2, -19406.783, 0.009667825, -0.007695267, -863647.9, -31358.525, 0.0, 9.999416, 9.999991 
1.1050275e+3, 2.2507185e+2, -795078.6, -848881.94, 44587.758, -0.00800591, -0.012058459, -769905.7, -35613.89, 0.0, 9.999919, 9.999225 
1.1050425e+3, 2.3507054e+2, -526961.4, -670375.8, 40809.84, -0.029764595, -0.09838232, -516161.84, 120141.39, 0.0, 10.001092, 9.999213 
1.1050572e+3, 2.4506955e+2, -462788.0, -722935.94, 46354.03, -0.044371594, -0.05038279, -454775.28, 83539.45, 0.0, 10.0014515, 9.998001 
1.1050719e+3, 2.5506854e+2, -420272.1, -650065.3, 42611.85, -0.044804733, 0.0154987415, -412624.84, 27704.496, 0.0, 10.0010605, 9.998015 
1.10508725e+3, 2.650675e+2, -258758.31, -474107.06, 53541.4, 0.031879723, 0.09158049, -246181.06, 96161.09, 0.00000018749917, 10.001281, 9.998455 
1.10510364e+3, 2.7506596e+2, -60709.625, -327995.72, 4007.8538, 0.18906222, 0.06022012, -60649.543, 183707.39, 0.0000025365616, 10.001969, 9.998453 
1.10511854e+3, 2.8506452e+2, 52362.56, -266255.16, 42637.523, 0.15997393, 0.10041129, 57969.65, 204339.89, 0.000019295574, 10.0022545, 9.998075 
1.1051325e+3, 2.9506293e+2, 124152.875, -180979.92, 20153.76, -0.017713241, 0.09521782, 125478.26, 173862.45, 0.00010487227, 10.002064, 9.998077 
1.10514686e+3, 3.050606e+2, 199936.25, -190080.48, -68389.03, 0.0016315999, 0.09905416, 211580.55, 211580.55, 0.00033641586, 10.002572, 9.997428 
1.1051616e+3, 3.1505784e+2, 343005.56, -59934.047, -76015.93, 0.20515676, 0.032868274, 356869.22, 356869.22, 0.00073074934, 10.003228, 9.997998 
1.11488126e+3, 1.2505193e+2, -1978814.9, -1711278.5, 98028.96, -0.109143026, -0.08004914, -1679204.6, 35282.863, 0.000944546, 9.997571, 10.001154 
1.1148961e+3, 1.350536e+2, -1865137.6, -1654028.1, -57193.766, -0.07227373, -0.022927921, -1639529.0, -23055.637, 0.00045159098, 9.997918, 10.0007305 
1.1149108e+3, 1.4505474e+2, -1741843.4, -1509930.3, -106099.3, -0.05073455, 0.014015832, -1468715.0, 49749.566, 0.00012308804, 9.997918, 10.001037 
1.1149248e+3, 1.5505607e+2, -1666866.3, -1428637.1, -55386.15, -0.020571353, 0.005305344, -1416390.0, 4064.0942, 0.000008505592, 9.997793, 10.000982 
1.1149392e+3, 1.650571e+2, -1560274.0, -1368781.3, -15006.959, -0.03225286, 0.038109343, -1367612.4, -45168.32, 0.0000000033697685, 9.99804, 10.000602 
1.1149542e+3, 1.750578e+2, -1337551.5, -1205527.0, 2991.6255, -0.022397764, 0.0146801565, -1205459.3, 18975.258, 0.0, 9.998874, 10.0006485 
1.1149695e+3, 1.8505849e+2, -1189434.8, -1115353.3, 10446.14, -0.008702294, 0.0419989, -1113908.5, 12518.042, 0.0, 9.999361, 10.000357 
1.1149846e+3, 1.9505876e+2, -1070979.5, -1008590.8, 59984.555, -0.009323074, 0.0019118753, -972174.25, 56249.676, 0.0, 9.999514, 10.000339 
1.11499876e+3, 2.0505865e+2, -1040548.2, -1044119.75, -10533.143, -0.024770672, 0.010910625, -1031650.5, -101226.195, 0.0, 9.99947, 9.999447 
1.1150121e+3, 2.1505778e+2, -982530.7, -968808.94, -11905.477, -0.052520446, -0.05780165, -961928.94, -129497.11, 0.0, 9.999209, 9.99942 
1.1150274e+3, 2.250574e+2, -805525.8, -821582.56, 73177.75, -0.035009164, -0.034219977, -739937.3, -5503.3706, 0.0, 9.999716, 9.999508 
1.1150444e+3, 2.3505722e+2, -539132.6, -643463.2, 100128.7, 0.03752228, -0.033752505, -478395.4, 158038.2, 0.0, 10.000872, 9.999505 
1.1150598e+3, 2.4505644e+2, -462097.75, -676812.7, 16542.16, 0.039353285, 0.00027394464, -460830.75, 77610.19, 0.0, 10.001256, 9.998412 
1.1150735e+3, 2.550547e+2, -417088.66, -607164.25, 45779.97, -0.0245326, -0.04798854, -406637.16, 33822.027, 0.0, 10.000898, 9.998388 
1.1150882e+3, 2.6505262e+2, -342567.72, -614412.7, 62793.76, -0.037357703, -0.04621303, -328763.88, 13717.41, 0.00000020790911, 10.001138, 9.997557 
1.115104e+3, 2.7504978e+2, -141011.69, -463818.94, 49927.125, 0.001947565, -0.12544219, -133466.08, 111044.79, 0.0000030041283, 10.001831, 9.997586 
1.1151199e+3, 2.8504822e+2, 23847.904, -284391.97, 20590.9, 0.037597142, -0.05259128, 25217.326, 171744.5, 0.000021785861, 10.00209, 9.998023 
1.1151358e+3, 2.950475e+2, 97922.54, -201266.06, 41987.996, 0.059095625, 0.033606514, 103703.414, 152238.2, 0.00010887074, 10.00192, 9.998006 
1.1151505e+3, 3.0504537e+2, 198114.94, -168023.08, -50161.91, 0.080370665, 0.05340286, 204862.89, 204862.89, 0.00034133886, 10.002463, 9.997631 
1.11516416e+3, 3.150422e+2, 329789.13, -45805.43, 12491.704, 0.05715743, -0.074342005, 330204.13, 330204.13, 0.0007374856, 10.003041, 9.998189 
1.1248794e+3, 1.250364e+2, -2156034.0, -1732085.0, 94461.62, 0.0437474, -0.005501236, -1711990.1, 2651.7407, 0.0010643419, 9.996067, 10.001758 
1.12489246e+3, 1.3503753e+2, -2063462.1, -1686861.3, -5794.0635, -0.13775188, -0.05612644, -1686772.1, -70142.23, 0.00051804923, 9.996287, 10.001298 
1.1249087e+3, 1.4503887e+2, -1880014.5, -1545542.1, 26523.25, 0.022476854, -0.04033079, -1543452.0, -24834.926, 0.00014661087, 9.996846, 10.001304 
1.1249232e+3, 1.5504067e+2, -1614959.9, -1369377.3, -10306.843, 0.030551357, -0.034078166, -1368945.5, 51656.17, 0.00001150662, 9.998022, 10.0012665 
1.1249376e+3, 1.6504186e+2, -1482642.4, -1325693.8, 45580.375, 0.0019785103, 0.00015555743, -1313416.8, 9173.243, 0.0000000061074554, 9.9985485, 10.000652 
1.1249529e+3, 1.7504239e+2, -1382554.6, -1217310.6, 30061.164, -0.019056743, -0.04734003, -1212011.8, 12571.345, 0.0, 9.998534, 10.000726 
1.1249684e+3, 1.850433e+2, -1281654.1, -1151297.4, 33276.895, -0.005439149, -0.00684056, -1143293.9, -16720.357, 0.0, 9.998683, 10.000441 
1.124984e+3, 1.9504413e+2, -1132943.6, -1036734.44, -8136.275, 0.022581255, -0.00035449676, -1036051.25, -7485.0254, 0.0, 9.999045, 10.000389 
1.1249988e+3, 2.0504418e+2, -995662.7, -1021445.4, -43957.926, 0.022251235, 0.022727123, -962744.8, -32179.27, 0.0, 9.999795, 9.999439 
1.1250127e+3, 2.1504308e+2, -709097.8, -831722.0, -42937.918, 0.002309361, -0.064191245, -695557.8, 137017.4, 0.0, 10.001084, 9.99945 
1.1250282e+3, 2.2504254e+2, -606140.8, -740050.44, 59757.832, 0.020849537, -0.052237876, -583351.8, 151227.22, 0.0, 10.001127, 9.999401 
1.1250453e+3, 2.3504233e+2, -664361.2, -714477.8, 25252.89, 0.08388455, -0.044152368, -653843.9, -17264.53, 0.0, 10.000042, 9.999421 
1.1250609e+3, 2.450416e+2, -592414.3, -720302.7, -29000.283, 0.08287397, -0.011000535, -586145.44, -47559.336, 0.0, 10.000286, 9.998581 
1.1250752e+3, 2.5504005e+2, -265418.1, -516251.7, -48580.54, 0.022975251, -0.05577491, -256337.89, 184264.27, 0.0, 10.001875, 9.998548 
1.1250901e+3, 2.650379e+2, -173266.64, -544447.2, 107.41342, -0.005738175, -0.05726934, -173266.61, 169357.47, 0.00000016860811, 10.002358, 9.997449 
1.1251057e+3, 2.7503482e+2, -158181.13, -484721.38, 3562.0403, -0.0001151686, -0.14722686, -158142.28, 86513.57, 0.0000038179373, 10.001775, 9.997465 
1.12512186e+3, 2.850331e+2, -24679.441, -309316.8, 41000.887, 0.055517606, -0.08338727, -18891.137, 127782.83, 0.000026510976, 10.001752, 9.998011 
1.1251387e+3, 2.9503244e+2, 127204.07, -181541.13, 25589.781, 0.16311097, 0.002099616, 129310.66, 177992.61, 0.00011807009, 10.002104, 9.99804 
1.1251538e+3, 3.0503032e+2, 227051.13, -117661.49, -6270.338, 0.17038608, 0.002512117, 227165.16, 227165.16, 0.0003550206, 10.002536, 9.997939 
1.1251671e+3, 3.1502736e+2, 303979.34, -30636.53, 5145.0513, 0.08312567, -0.12345966, 304058.44, 304058.44, 0.0007557831, 10.002747, 9.998448 
1.1348762e+3, 1.2502018e+2, -2042203.3, -1484290.6, -14362.756, 0.040414266, 0.039012965, -1483921.1, 230886.69, 0.0011953667, 9.996041, 10.00346 
1.13488734e+3, 1.3502233e+2, -1936354.6, -1410003.5, 15215.462, -0.3044393, -0.1004191, -1409564.0, 207212.81, 0.00059164723, 9.996242, 10.003217 
1.1349054e+3, 1.4502448e+2, -1903508.4, -1591374.6, 53770.836, -0.035857856, -0.08502018, -1582371.4, -63619.117, 0.00017336896, 9.996833, 10.000999 
1.13492176e+3, 1.550262e+2, -1637939.6, -1416296.3, 54366.055, 0.052623585, -0.049555752, -1403679.3, 17059.229, 0.000015247707, 9.9980135, 10.000955 
1.1349369e+3, 1.650271e+2, -1482782.6, -1321246.5, 25972.383, 0.024865996, -0.034600228, -1317173.3, 5556.9956, 0.000000009421829, 9.998529, 10.0006895 
1.1349512e+3, 1.7502674e+2, -1385751.6, -1220103.6, 42583.637, -0.06924696, -0.17279774, -1209797.8, 14933.97, 0.0, 9.998519, 10.000712 
1.1349667e+3, 1.8502739e+2, -1335947.8, -1252039.3, 27050.814, -0.075220585, -0.12483622, -1244074.5, -117347.81, 0.0, 9.998627, 9.999781 
1.13498315e+3, 1.9502868e+2, -1201540.5, -1141294.4, 20826.498, -0.0053264406, -0.0066793007, -1134795.9, -106077.2, 0.0, 9.998879, 9.999755 
1.134999e+3, 2.050291e+2, -990302.6, -971491.44, -14279.584, 0.03187923, 0.06479141, -963798.1, -33083.215, 0.0, 9.999628, 9.999863 
1.1350145e+3, 2.1502838e+2, -714272.0, -788201.1, 17084.256, 0.055119157, -0.024953218, -710514.94, 122203.805, 0.0, 10.000855, 9.999859 
1.13502964e+3, 2.2502744e+2, -667996.4, -822503.44, -733.5488, 0.035905857, -0.050107364, -667992.9, 66733.07, 0.0, 10.000924, 9.998933 
1.1350445e+3, 2.3502591e+2, -731010.1, -803667.0, 526.41, -0.025624441, -0.12955174, -731006.3, -94266.24, 0.0, 9.999825, 9.998917 
1.1350602e+3, 2.4502504e+2, -627405.25, -748145.7, 15814.204, -0.05444372, -0.078416534, -625368.3, -86618.6, 0.0, 10.000093, 9.998482 
1.1350768e+3, 2.5502455e+2, -296594.03, -538820.94, 27866.154, -0.03036641, -0.008078743, -293429.6, 147327.72, 0.0, 10.001691, 9.998482 
1.13509275e+3, 2.650234e+2, -151669.64, -467750.34, -34781.637, 0.0024002315, 0.057470996, -147887.52, 194882.3, 0.00000020663475, 10.002216, 9.998049 
1.1351082e+3, 2.7502102e+2, -138116.44, -417133.94, 3952.335, 0.03853631, -0.015561235, -138060.45, 106731.77, 0.0000055002247, 10.001654, 9.997994 
1.13512404e+3, 2.8501907e+2, -43000.11, -313399.13, 36844.94, 0.07141951, -0.0040349383, -38069.477, 108742.17, 0.000033703815, 10.001618, 9.99804 
1.1351407e+3, 2.950174e+2, 106948.2, -186360.25, 58271.875, 0.12701482, -0.019984957, 118101.055, 166929.97, 0.00013271971, 10.001943, 9.998084 
1.13515615e+3, 3.050151e+2, 230743.7, -70199.86, -10329.542, 0.1252789, -0.06261336, 231097.83, 231097.83, 0.00037893685, 10.002372, 9.998343 
1.1351696e+3, 3.1501308e+2, 304065.34, 17035.016, 61353.49, -0.020338101, -0.13202097, 316629.8, 316629.8, 0.0007912106, 10.002544, 9.998872 
1.1448738e+3, 1.2500525e+2, -2044592.8, -1523629.8, 42331.86, 0.21064699, 0.11407035, -1520212.4, 194743.9, 0.0013373722, 9.996145, 10.0031595 
1.1448843e+3, 1.3500723e+2, -1763780.1, -1335790.6, -44126.637, -0.27484727, -0.03761749, -1331288.4, 285639.13, 0.000672049, 9.997424, 10.003175 
1.1449031e+3, 1.4500928e+2, -1756508.8, -1504831.5, -35850.95, 0.00986062, -0.038559914, -1499824.3, 19079.08, 0.0002032588, 9.997782, 10.00113 
1.1449199e+3, 1.5501061e+2, -1718608.1, -1440193.4, -48550.02, 0.10685281, -0.05241069, -1431970.0, -11078.645, 0.000019742625, 9.997404, 10.0010805 
1.1449354e+3, 1.6501155e+2, -1605004.8, -1385901.9, -20675.744, 0.081549145, -0.034084227, -1383967.9, -61085.58, 0.000000013934886, 9.997721, 10.000637 
1.1449503e+3, 1.7501175e+2, -1340717.0, -1201635.8, -36947.957, -0.025006153, -0.112813294, -1192429.6, 32450.25, 0.0, 9.998847, 10.000679 
1.144966e+3, 1.8501236e+2, -1238130.5, -1198217.4, -13609.223, -0.028256422, -0.06862123, -1194018.6, -67143.36, 0.0, 9.999282, 9.999824 
1.1449824e+3, 1.9501306e+2, -1175229.3, -1111820.6, -6218.258, 0.047829077, -0.0147305755, -1111216.6, -82345.16, 0.0, 9.999028, 9.999859 
1.1449987e+3, 2.0501328e+2, -1051861.5, -1011778.9, 36462.117, 0.06916646, 0.031183997, -990213.2, -59343.96, 0.0, 9.999215, 9.999803 
1.1450148e+3, 2.1501265e+2, -864659.3, -868187.2, 6391.8057, 0.0537588, -0.04515594, -859792.5, -26920.324, 0.0, 9.999821, 9.999825 
1.14503026e+3, 2.2501183e+2, -746415.9, -869007.9, -22042.322, 0.034716096, -0.051394228, -742573.06, -7694.4033, 0.0, 10.000453, 9.998827 
1.14504516e+3, 2.3501043e+2, -538073.1, -713948.0, -32855.438, 0.004512255, -0.10763617, -532135.8, 104756.42, 0.0, 10.001191, 9.998859 
1.145061e+3, 2.4500944e+2, -472420.66, -691986.6, 50211.65, -0.019146884, -0.059956305, -461482.84, 77420.664, 0.0, 10.001214, 9.998336 
1.1450779e+3, 2.5500858e+2, -469363.16, -632362.1, 29091.7, -0.023387646, -0.015004314, -464326.56, -23411.703, 0.0, 10.0005455, 9.998388 
1.1450945e+3, 2.6500747e+2, -326901.16, -521007.9, -16368.709, 0.022226451, 0.048188064, -325530.47, 17395.654, 0.00000038376965, 10.000869, 9.998334 
1.1451109e+3, 2.7500573e+2, -40677.973, -333716.34, -32464.7, 0.11907325, 0.0057159453, -37124.414, 207817.17, 0.0000075917305, 10.002167, 9.998319 
1.14512675e+3, 2.8500393e+2, 78317.99, -279319.25, 6128.747, 0.14182945, 0.028703509, 78422.99, 225382.42, 0.000041535674, 10.00255, 9.997834 
1.1451426e+3, 2.9500204e+2, 84919.83, -218793.78, -27470.463, 0.13127607, 0.012992663, 87384.49, 136364.67, 0.00014998692, 10.001887, 9.9978895 
1.1451587e+3, 3.049996e+2, 247061.97, -67463.39, -43006.145, 0.14842622, -0.032016974, 252836.34, 252836.34, 0.00040887797, 10.002469, 9.99832 
1.14517406e+3, 3.1499797e+2, 494061.88, 114292.74, -65302.324, 0.13122293, -0.066147774, 504977.06, 504977.06, 0.0008407425, 10.003837, 9.998903 
1.1548693e+3, 1.2499092e+2, -2207436.0, -1845617.9, -50215.47, 0.0759686, 0.13744043, -1838778.0, -123684.05, 0.001489488, 9.996094, 10.000962 
1.1548829e+3, 1.349925e+2, -1904388.9, -1623627.0, 18807.037, -0.18985194, 0.14229964, -1622372.8, -5292.922, 0.00075867696, 9.99742, 10.001186 
1.1549012e+3, 1.4499326e+2, -1723108.6, -1445098.5, -71379.21, 0.001657466, 0.09198663, -1427842.9, 91228.09, 0.0002361324, 9.997805, 10.001541 
1.15491696e+3, 1.5499376e+2, -1682143.0, -1371995.8, -50194.805, 0.045271028, -0.049057912, -1364074.4, 56987.414, 0.000024990082, 9.997422, 10.001548 
1.1549328e+3, 1.6499525e+2, -1606955.5, -1384863.1, 2729.1052, 0.021408137, -0.0013429504, -1384829.6, -61783.207, 0.000000023716384, 9.997705, 10.000646 
1.1549496e+3, 1.7499752e+2, -1350219.4, -1206933.4, 21733.135, -0.013832621, 0.1275365, -1203709.5, 21317.113, 0.0, 9.998793, 10.000663 
1.1549658e+3, 1.8499838e+2, -1204374.9, -1112845.4, -41409.39, -0.0021500448, 0.1667666, -1096891.8, 30126.041, 0.0, 9.999216, 10.000441 
1.1549817e+3, 1.9499737e+2, -1147666.8, -1030179.5, -4118.8047, 0.039017726, -0.016552502, -1030035.3, -1011.02734, 0.0, 9.998917, 10.000474 
1.15499735e+3, 2.049967e+2, -1097140.4, -1070939.5, 36435.87, -0.0071473597, -0.07283066, -1045320.5, -114291.98, 0.0, 9.999063, 9.999471 
1.1550129e+3, 2.1499601e+2, -920081.56, -935493.44, 44312.457, -0.12930332, -0.12113983, -882810.0, -49775.863, 0.0, 9.999604, 9.999471 
1.1550295e+3, 2.249958e+2, -765903.94, -861329.7, -10708.824, -0.10973603, -0.055959098, -764716.94, -29680.93, 0.0, 10.000246, 9.998979 
1.1550471e+3, 2.3499578e+2, -558649.2, -710235.94, 10454.348, 0.052089605, 0.01066571, -557931.6, 79105.086, 0.0, 10.000992, 9.998983 
1.15506336e+3, 2.4499464e+2, -507424.8, -717992.25, 4243.067, 0.06366129, 0.04372643, -507339.34, 31709.273, 0.0, 10.001013, 9.998252 
1.1550781e+3, 2.5499207e+2, -503714.22, -664299.2, 17791.006, -0.08404484, -0.07434309, -501766.78, -60692.0, 0.0, 10.000368, 9.998256 
1.1550946e+3, 2.6499024e+2, -351119.8, -530826.9, 17914.336, -0.07404913, -0.08171414, -349351.38, -6258.541, 0.0000005356376, 10.0007, 9.9983425 
1.15511306e+3, 2.7498874e+2, -58657.477, -333543.28, 36123.125, 0.09405407, -0.10088855, -53989.75, 191116.1, 0.000008957139, 10.002004, 9.998397 
1.1551294e+3, 2.849877e+2, 31621.592, -338684.63, -32864.086, 0.12624376, 0.007412415, 34515.61, 181633.2, 0.000047577858, 10.002392, 9.9975 
1.1551438e+3, 2.9498655e+2, 44261.742, -289603.66, -24506.732, 0.013632293, 0.10060405, 46051.023, 95184.62, 0.00016516355, 10.001813, 9.997447 
1.15516074e+3, 3.0498388e+2, 177762.77, -166081.5, -1159.9005, 0.08401077, 0.09057367, 177766.67, 177766.67, 0.00043857994, 10.002296, 9.997712 
1.15517944e+3, 3.1498167e+2, 418366.34, 14005.401, 41638.977, 0.21375634, 0.04843403, 422609.6, 422609.6, 0.0008950194, 10.0035925, 9.998327 
1.1648653e+3, 1.2497533e+2, -2111267.0, -1872253.5, -52851.65, 0.03375412, 0.06554709, -1861088.3, -145846.44, 0.0016512593, 9.9970665, 10.000304 
1.16488144e+3, 1.3497658e+2, -1983312.6, -1748030.0, 94940.98, -0.053535014, 0.12034041, -1714498.4, -97263.414, 0.0008513687, 9.997272, 10.000401 
1.164899e+3, 1.4497693e+2, -1746776.8, -1455853.1, 55575.727, 0.020279238, 0.0681648, -1445597.9, 73633.82, 0.00027198074, 9.997654, 10.001529 
1.1649147e+3, 1.5497775e+2, -1538500.3, -1306064.5, 3261.6697, 0.021848885, -0.04171352, -1306018.8, 115199.92, 0.00003101119, 9.9984255, 10.001513 
1.16493106e+3, 1.649793e+2, -1467681.3, -1326245.6, 75730.234, 0.021659235, 0.014540089, -1293348.4, 29854.047, 0.00000004774233, 9.99869, 10.000579 
1.1649489e+3, 1.7498128e+2, -1397674.5, -1242711.5, 52628.82, 0.06528845, 0.12573424, -1226527.9, -1342.3483, 0.0, 9.9985, 10.000573 
1.16496556e+3, 1.8498191e+2, -1302554.8, -1166748.8, -17084.05, 0.093234256, 0.15119283, -1164632.6, -37454.164, 0.0, 9.998566, 10.000384 
1.164981e+3, 1.9498089e+2, -1136404.3, -1030613.25, -59998.227, 0.077239715, -0.027241921, -1003523.0, 25661.518, 0.0, 9.999018, 10.000426 
1.1649967e+3, 2.0498027e+2, -1036122.06, -1029455.8, 19221.758, 0.011071266, -0.08020924, -1013280.3, -82091.984, 0.0, 9.999455, 9.99955 
1.16501294e+3, 2.1497974e+2, -873182.5, -894713.44, 16400.574, -0.09802543, -0.12598379, -864329.75, -31136.79, 0.0, 9.999885, 9.999595 
1.16503015e+3, 2.249796e+2, -763938.75, -868257.9, 7094.7617, -0.07063927, -0.056341395, -763458.44, -28264.29, 0.0, 10.000278, 9.998924 
1.1650483e+3, 2.349795e+2, -614929.5, -743767.7, -12267.049, 0.100641266, 0.008107231, -613771.94, 23423.695, 0.0, 10.00062, 9.998942 
1.1650647e+3, 2.4497823e+2, -514146.34, -727145.8, -14807.178, 0.11516075, 0.03376512, -513121.9, 26086.564, 0.0, 10.000994, 9.998196 
1.1650793e+3, 2.5497553e+2, -353944.97, -597967.7, -33891.34, -0.033368595, -0.09155519, -349325.4, 91910.125, 0.0, 10.001418, 9.998205 
1.1650961e+3, 2.6497358e+2, -222443.55, -470961.97, 22730.186, -0.039434627, -0.10430366, -220381.69, 122872.53, 0.00000056359414, 10.001597, 9.998321 
1.1651147e+3, 2.7497214e+2, -141114.14, -375766.72, -184.38277, 0.10728188, -0.11620349, -141114.0, 104153.055, 0.00000928475, 10.001465, 9.998365 
1.1651315e+3, 2.8497085e+2, -52647.2, -402498.78, -51437.17, 0.13202858, -0.019508872, -45241.383, 102039.53, 0.000050789153, 10.001891, 9.997309 
1.1651461e+3, 2.9496935e+2, 169329.81, -245177.31, -72979.67, 0.038111396, 0.057451367, 181803.52, 231103.47, 0.00017624088, 10.002753, 9.997292 
1.1651638e+3, 3.0496654e+2, 267396.06, -179559.77, 18071.945, 0.13088685, 0.06270242, 268125.56, 268125.56, 0.0004642717, 10.003135, 9.997236 
1.1651833e+3, 3.1496462e+2, 231531.66, -109975.805, 17185.87, 0.31398723, 0.110865116, 232394.33, 232394.33, 0.00094307924, 10.00244, 9.998051 
1.17486134e+3, 1.24958225e+2, -2052110.6, -1722719.9, -50695.832, -0.14469908, -0.14288217, -1715094.0, 308.646, 0.0018234614, 9.9969845, 10.001363 
1.1748799e+3, 1.3495955e+2, -1954045.5, -1686829.5, 116120.195, 0.021301268, -0.11811932, -1643420.5, -26028.492, 0.0009506097, 9.997281, 10.000816 
1.174896e+3, 1.449604e+2, -1783713.1, -1523691.5, 68927.0, -0.09196841, -0.11964084, -1506550.3, 12833.922, 0.00031097958, 9.997623, 10.001072 
1.1749122e+3, 1.5496272e+2, -1574725.0, -1380573.4, 51429.34, -0.09886099, -0.03169099, -1367791.6, 53568.695, 0.00003785508, 9.998421, 10.001 
1.1749292e+3, 1.6496363e+2, -1489093.0, -1366588.0, 49826.11, -0.0603606, 0.0043505887, -1348881.5, -25531.123, 0.00000010132158, 9.998672, 10.000307 
1.17494784e+3, 1.7496294e+2, -1420486.3, -1278283.5, 61517.29, 0.08660654, -0.13572018, -1255364.8, -30007.877, 0.0, 9.998446, 10.000355 
1.1749648e+3, 1.8496308e+2, -1360812.0, -1270243.8, -17932.584, 0.12344056, -0.116473764, -1266822.4, -139466.28, 0.0, 9.998495, 9.999708 
1.1749799e+3, 1.9496371e+2, -1201416.5, -1140591.3, -23814.19, 0.03453027, -0.058604367, -1132377.0, -103025.58, 0.0, 9.998906, 9.999728 
1.1749962e+3, 2.0496407e+2, -1030322.25, -981267.9, 16533.402, -0.009511362, 0.0004062465, -976215.75, -44867.95, 0.0, 9.999305, 9.999951 
1.17501415e+3, 2.1496381e+2, -874415.5, -853799.9, 46391.934, 0.01491545, -0.057319608, -816584.4, 16764.018, 0.0, 9.99969, 9.999974 
1.1750315e+3, 2.2496307e+2, -806364.44, -902599.9, 1211.1375, 0.02307039, -0.058637235, -806349.2, -70994.78, 0.0, 10.0000515, 9.9987955 
1.1750482e+3, 2.3496163e+2, -656611.8, -773473.0, 17047.066, 0.007944977, -0.118277825, -654175.9, -16807.48, 0.0, 10.000383, 9.998847 
1.1750648e+3, 2.4496031e+2, -552041.8, -757473.9, -15238.617, -0.002259475, -0.088463955, -550917.56, -11535.591, 0.0, 10.000779, 9.9980955 
1.1750814e+3, 2.5495884e+2, -377954.56, -612523.75, -1849.3878, -0.003926338, -0.08500191, -377939.97, 63458.063, 0.0, 10.001261, 9.998181 
1.1750984e+3, 2.6495746e+2, -255877.69, -504719.72, -306.17035, 0.012626855, -0.031988163, -255877.31, 87534.086, 0.0000005132723, 10.001442, 9.998168 
1.1751157e+3, 2.7495575e+2, -169194.39, -409236.2, 13478.312, 0.020829659, -0.05451147, -168439.95, 76986.13, 0.000009286575, 10.001351, 9.998195 
1.17513254e+3, 2.8495342e+2, -86416.85, -435052.72, -33799.41, 0.025823472, -0.045590878, -83170.31, 64278.59, 0.000051726838, 10.001737, 9.997157 
1.1751493e+3, 2.949502e+2, 154233.84, -255256.8, -19752.332, 0.040542614, -0.13258132, 155184.4, 204666.61, 0.00018255804, 10.002651, 9.997274 
1.1751673e+3, 3.049472e+2, 224845.38, -222646.39, -16335.88, 0.15124589, -0.13780676, 225440.94, 225440.94, 0.00047999644, 10.002961, 9.997015 
1.1751849e+3, 3.1494707e+2, 206355.88, -101981.164, 35090.793, 0.1717493, 0.11150641, 210299.0, 210299.0, 0.0009686636, 10.002197, 9.998215 
1.1848579e+3, 1.2494194e+2, -1981671.6, -1656679.9, -909.0528, -0.18189804, -0.17752285, -1656677.4, 58882.344, 0.0020081834, 9.99729, 10.001684 
1.1848777e+3, 1.3494317e+2, -1924955.6, -1677047.4, 11654.676, 0.08116879, -0.16761039, -1676500.6, -58952.266, 0.0010574218, 9.997472, 10.000801 
1.1848934e+3, 1.4494409e+2, -1807488.8, -1570527.4, 10415.491, -0.0981021, -0.14679791, -1570070.5, -50530.445, 0.00035351914, 9.997594, 10.000774 
1.1849106e+3, 1.5494622e+2, -1664595.1, -1450407.3, -32410.209, -0.067241326, -0.04752707, -1445610.4, -24090.639, 0.00004562391, 9.997924, 10.000764 
1.184928e+3, 1.6494687e+2, -1562133.4, -1410522.1, 2753.1218, -0.018746896, -0.022074612, -1410472.1, -86959.29, 0.00000019883093, 9.998212, 10.000231 
1.1849463e+3, 1.749457e+2, -1403988.9, -1271496.6, -8355.094, 0.08135854, -0.20497468, -1270971.9, -45449.33, 0.0, 9.998577, 10.000331 
1.1849633e+3, 1.8494563e+2, -1313696.3, -1278225.5, -22617.332, 0.10963051, -0.1922625, -1267219.1, -139695.53, 0.0, 9.9989395, 9.999445 
1.184979e+3, 1.9494633e+2, -1158785.5, -1145945.5, -33238.05, 0.050740387, -0.10296193, -1118513.1, -88993.38, 0.0, 9.999306, 9.9995 
1.1849961e+3, 2.0494676e+2, -1034396.25, -1011622.8, 24750.127, 0.052104946, -0.010518755, -995765.7, -64249.227, 0.0, 9.999389, 9.999717 
1.1850148e+3, 2.149466e+2, -959820.7, -914517.25, -19049.854, 0.1347645, -0.034432318, -907571.7, -74054.38, 0.0, 9.999193, 9.999798 
1.1850321e+3, 2.2494577e+2, -874358.7, -926884.0, -27925.879, 0.11351772, -0.040683165, -862286.2, -126761.72, 0.0, 9.999555, 9.998861 
1.1850482e+3, 2.3494393e+2, -639564.94, -758274.94, -36617.652, -0.022239493, -0.1461737, -629178.5, 8363.104, 0.0, 10.000469, 9.998905 
1.1850653e+3, 2.4494259e+2, -522600.47, -756599.7, -40574.973, -0.031744935, -0.116062194, -515764.56, 23790.596, 0.0, 10.001043, 9.997974 
1.1850835e+3, 2.5494146e+2, -386980.4, -638611.8, -63486.367, 0.09018987, -0.06146505, -371870.2, 69698.24, 0.0, 10.001292, 9.997995 
1.185101e+3, 2.6493993e+2, -258888.33, -526168.25, -48193.457, 0.13075744, -0.000054478693, -250464.05, 93119.445, 0.0000005059796, 10.001527, 9.99797 
1.1851176e+3, 2.7493772e+2, -129781.08, -416157.3, -79999.63, 0.064270176, -0.05402707, -108948.53, 136655.52, 0.000009353779, 10.001745, 9.997953 
1.1851345e+3, 2.8493515e+2, -32851.902, -388699.94, -60304.29, 0.038777024, -0.06494725, -22910.107, 124718.5, 0.000051580555, 10.002031, 9.997322 
1.1851522e+3, 2.9493207e+2, 121200.52, -256253.5, -61089.55, 0.08877299, -0.14792407, 130841.4, 180500.19, 0.00018437536, 10.002371, 9.997396 
1.18517056e+3, 3.04929e+2, 208081.88, -217926.44, -42765.17, 0.1973619, -0.17646004, 212332.48, 212332.48, 0.0004810056, 10.002768, 9.997147 
1.1851874e+3, 3.1492868e+2, 319555.5, -17369.904, -33201.977, 0.18516089, 0.04118335, 322796.2, 322796.2, 0.0009623852, 10.002818, 9.998502 
1.19485594e+3, 1.2492675e+2, -2010453.3, -1712049.9, 47777.902, -0.17360589, -0.022512533, -1704586.6, 11123.99, 0.0022081332, 9.997277, 10.0013 
1.1948743e+3, 1.349274e+2, -1944432.1, -1721892.9, 28333.756, -0.031771716, -0.040331896, -1718342.1, -100637.336, 0.0011730703, 9.997482, 10.000485 
1.1948909e+3, 1.4492796e+2, -1819279.5, -1591286.0, 618.56366, -0.16783625, -0.0326384, -1591284.4, -71584.47, 0.00040013902, 9.997582, 10.000636 
1.19490944e+3, 1.5492842e+2, -1672062.6, -1470512.5, -4399.3154, -0.0037379824, -0.08972036, -1470416.6, -48720.414, 0.00005450229, 9.997935, 10.000624 
1.1949269e+3, 1.6492908e+2, -1552225.8, -1388404.1, -4688.883, 0.015123246, -0.064406574, -1388270.1, -64580.95, 0.00000035173326, 9.998202, 10.00039 
1.1949435e+3, 1.749297e+2, -1402039.8, -1259523.8, 20098.422, -0.07720312, -0.08078821, -1256743.6, -31062.15, 0.0, 9.998535, 10.000439 
1.19496055e+3, 1.8492967e+2, -1315456.8, -1264545.1, -26109.426, -0.08747796, -0.072456904, -1253535.9, -125855.4, 0.0, 9.998869, 9.99957 
1.19497806e+3, 1.9492875e+2, -1167293.3, -1137182.1, -4325.436, -0.009462385, -0.1594127, -1136573.1, -106883.59, 0.0, 9.999188, 9.9996195 
1.1949959e+3, 2.0492837e+2, -1110415.3, -1131553.8, -1504.0669, 0.06140198, -0.11745465, -1110308.8, -178614.3, 0.0, 9.999233, 9.998964 
1.1950142e+3, 2.1492825e+2, -1044848.5, -1042837.6, -10527.19, 0.13058749, -0.06092431, -1033267.94, -199569.61, 0.0, 9.998987, 9.999016 
1.1950315e+3, 2.2492772e+2, -894432.06, -917318.3, -11819.297, 0.07030044, -0.0059957886, -889424.06, -153720.02, 0.0, 9.999334, 9.999032 
1.19504794e+3, 2.3492648e+2, -656241.9, -742346.2, 10727.673, -0.11719576, -0.071729824, -654925.5, -17211.197, 0.0, 10.000257, 9.999114 
1.1950659e+3, 2.449252e+2, -565816.75, -799243.1, -48492.49, -0.10530737, -0.03749722, -556143.6, -16416.781, 0.0, 10.000839, 9.997785 
1.1950852e+3, 2.5492355e+2, -426137.94, -673816.1, -36748.855, 0.106105424, -0.015432612, -420800.4, 20944.533, 0.0, 10.001098, 9.997846 
1.1951033e+3, 2.6492128e+2, -314922.28, -601383.6, -54695.38, 0.17787583, -0.0051287217, -304834.28, 38934.184, 0.0000006389743, 10.001347, 9.997544 
1.19511984e+3, 2.74918e+2, -176657.7, -477297.7, -51866.844, 0.10298875, -0.12056928, -167961.13, 77839.37, 0.000009301616, 10.001595, 9.997604 
1.195137e+3, 2.8491604e+2, -22578.2, -339692.97, -60241.063, 0.04838981, -0.07399186, -11520.05, 136299.53, 0.00005191434, 10.001905, 9.997724 
1.1951544e+3, 2.9491493e+2, 129328.89, -213108.53, -23336.746, 0.024657859, -0.006104969, 130911.945, 180742.06, 0.00018470343, 10.002244, 9.997759 
1.1951728e+3, 3.0491182e+2, 194907.94, -192048.78, -47295.5, 0.12895246, -0.060418244, 200604.72, 200604.72, 0.0004730737, 10.002556, 9.997417 
1.1951898e+3, 3.1490943e+2, 301456.3, 16032.009, 18771.81, 0.07747016, -0.091542795, 302685.63, 302685.63, 0.0009339275, 10.002524, 9.998865 
1.20485306e+3, 1.24909125e+2, -2184424.8, -1793635.8, -9893.689, -0.11994336, 0.076751634, -1793385.5, -77499.49, 0.0024257244, 9.996088, 10.001321 
1.2048711e+3, 1.3490938e+2, -2050271.3, -1724359.4, -69351.086, -0.039482884, -0.013461247, -1710215.9, -92333.12, 0.0012988481, 9.996572, 10.000901 
1.2048892e+3, 1.449101e+2, -1911589.9, -1633649.4, -14596.543, -0.052667372, -0.012824595, -1632884.9, -113008.96, 0.00045139206, 9.99693, 10.000662 
1.20490745e+3, 1.5491034e+2, -1724281.8, -1488539.3, -50811.348, 0.03493058, -0.09608831, -1478053.9, -56179.305, 0.00006471426, 9.997545, 10.000685 
1.204925e+3, 1.6491126e+2, -1573672.3, -1384906.9, -10257.88, 0.026149755, -0.054754805, -1384351.1, -60485.633, 0.00000057087306, 9.998002, 10.000502 
1.2049422e+3, 1.7491254e+2, -1408801.0, -1244004.8, -21625.752, -0.057676226, -0.014353317, -1241214.1, -15362.518, 0.0, 9.998425, 10.000587 
1.20495975e+3, 1.8491267e+2, -1309052.6, -1261258.1, -33355.99, -0.053125538, 0.0004336044, -1244122.5, -116273.35, 0.0, 9.998922, 9.99956 
1.2049778e+3, 1.9491124e+2, -1112788.4, -1106258.5, -52584.637, 0.039833967, -0.13847047, -1056837.5, -26975.627, 0.0, 9.999556, 9.999643 
1.2049957e+3, 2.0491044e+2, -985996.2, -1105037.6, -12394.058, 0.090099536, -0.12564054, -984719.5, -52849.145, 0.0, 10.000207, 9.99868 
1.20501354e+3, 2.1490997e+2, -789250.0, -954421.6, -20481.693, 0.09756498, -0.07755532, -786748.1, 47129.895, 0.0, 10.000861, 9.998729 
1.2050313e+3, 2.2490938e+2, -661890.1, -826654.6, 22854.793, 0.045658775, -0.0053723007, -658778.6, 77106.07, 0.0, 10.001019, 9.998852 
1.2050489e+3, 2.3490837e+2, -605625.94, -740555.1, -11967.577, -0.05814117, -0.025947047, -604572.7, 33320.668, 0.0, 10.000695, 9.998924 
1.2050675e+3, 2.44907e+2, -559945.56, -780006.8, -42166.16, -0.021498857, 0.004025675, -552142.75, -12236.002, 0.0, 10.00083, 9.997901 
1.2050866e+3, 2.549049e+2, -368255.06, -634287.2, -46693.48, 0.13857307, -0.030931666, -360297.53, 81631.13, 0.00000000020898414, 10.001456, 9.9979315 
1.20510474e+3, 2.6490262e+2, -257864.84, -571430.6, -21723.617, 0.18563913, -0.026512347, -256367.0, 87585.25, 0.00000074892756, 10.001711, 9.997577 
1.2051216e+3, 2.748999e+2, -181818.19, -477807.38, -20763.746, 0.11954644, -0.09192529, -180368.7, 65611.15, 0.000009032264, 10.001528, 9.997635 
1.2051389e+3, 2.8489822e+2, -33196.28, -335540.28, 23493.867, 0.07144207, -0.023902444, -31381.566, 116615.27, 0.000052136886, 10.001799, 9.997807 
1.20515674e+3, 2.9489723e+2, 158657.42, -186442.2, -7837.395, 0.046643633, 0.050120063, 158835.31, 208842.36, 0.0001849306, 10.00242, 9.997849 
1.2051757e+3, 3.0489436e+2, 204914.3, -180261.05, -40169.28, 0.16928267, 0.008985177, 209058.88, 209058.88, 0.0004665325, 10.002591, 9.9974785 
1.2051925e+3, 3.1489176e+2, 197354.7, -5745.798, -58210.58, 0.15616603, -0.043199394, 212855.39, 212855.39, 0.00090606173, 10.00172, 9.999086 
1.21484816e+3, 1.2488797e+2, -2154930.8, -1714021.0, -80306.25, -0.28416777, 0.01627681, -1699849.6, 16246.631, 0.0026624324, 9.996038, 10.001882 
1.2148678e+3, 1.348891e+2, -1978393.4, -1570343.3, -44950.9, -0.05966401, -0.09136287, -1565450.1, 52632.145, 0.0014356553, 9.996554, 10.001969 
1.2148882e+3, 1.4489049e+2, -1890231.8, -1587050.8, -13236.538, 0.114928156, -0.093547136, -1586474.0, -66406.1, 0.0005075534, 9.996924, 10.000982 
1.2149042e+3, 1.5489198e+2, -1708102.6, -1455879.5, -8568.341, -0.08437974, -0.07997939, -1455588.8, -33533.766, 0.000076397075, 9.997542, 10.000916 
1.2149218e+3, 1.6489333e+2, -1569970.1, -1370887.9, -11687.547, -0.13814917, -0.009756758, -1370204.0, -46161.58, 0.0000008702971, 9.997985, 10.000599 
1.2149415e+3, 1.7489429e+2, -1412356.5, -1237304.5, 9474.743, 0.014324477, -0.011911621, -1236793.3, -10760.119, 0.0, 9.998365, 10.000661 
1.2149603e+3, 1.8489458e+2, -1321363.5, -1272730.8, -27188.137, 0.08219971, 0.016218387, -1260571.4, -132541.5, 0.0, 9.998861, 9.999513 
1.2149779e+3, 1.9489382e+2, -1134937.0, -1127409.8, -12070.143, 0.061789054, -0.046539593, -1118530.0, -88493.45, 0.0, 9.999445, 9.999555 
1.2149954e+3, 2.0489301e+2, -999411.56, -1092060.5, -6743.0493, 0.0031538366, -0.038713094, -998923.4, -66879.266, 0.0, 10.000034, 9.998849 
1.2150128e+3, 2.1489187e+2, -809732.75, -939917.44, 17831.045, -0.09649156, -0.0780298, -807334.7, 26720.475, 0.0, 10.000616, 9.998942 
1.2150312e+3, 2.2489086e+2, -732029.44, -920580.8, -7007.692, -0.08951631, -0.033654314, -731769.4, 4295.937, 0.0, 10.000792, 9.998321 
1.2150508e+3, 2.348897e+2, -671340.1, -830581.94, -7041.5967, 0.031027704, -0.0151737705, -671029.4, -32951.9, 0.0, 10.000492, 9.998405 
1.2150696e+3, 2.4488807e+2, -575428.4, -756385.5, -32658.297, 0.08173957, -0.0009787458, -569714.75, -29620.574, 0.0, 10.000592, 9.998175 
1.2150876e+3, 2.5488555e+2, -375805.97, -607214.94, -7303.754, 0.06466057, -0.10649667, -375575.7, 66543.414, 0.00000000018849695, 10.001271, 9.998204 
1.2151051e+3, 2.6488408e+2, -251777.72, -516246.3, -44259.36, 0.031924255, -0.057681523, -244567.4, 99566.94, 0.00000061447383, 10.001524, 9.99805 
1.215122e+3, 2.7488327e+2, -166436.84, -416870.53, -8674.693, -0.019541962, 0.021608224, -166136.72, 80006.39, 0.000008322687, 10.00139, 9.998126 
1.2151399e+3, 2.8488165e+2, -91003.0, -400910.0, 32478.963, -0.034857, 0.08534312, -87635.72, 60525.02, 0.000050710027, 10.001582, 9.997455 
1.21515915e+3, 2.948789e+2, 112115.47, -244055.67, 41194.664, 0.0018757052, 0.021430299, 116817.95, 167007.58, 0.00018357177, 10.002259, 9.997527 
1.21517874e+3, 3.0487627e+2, 162934.66, -228316.44, -81412.21, 0.18204854, 0.034349028, 179198.95, 179198.95, 0.00046227945, 10.002425, 9.997232 
1.2151948e+3, 3.148752e+2, 167720.69, -13570.479, -50524.69, 0.14116846, 0.15430278, 180850.67, 180850.67, 0.000888819, 10.001491, 9.9991455 
1.2248457e+3, 1.2486842e+2, -2153945.3, -1715220.4, 58807.695, -0.11234489, -0.045464583, -1707474.4, 8811.94, 0.0029179724, 9.996025, 10.001884 
1.22486465e+3, 1.3487026e+2, -1893674.9, -1517918.8, 17819.447, -0.03549957, -0.09433616, -1517075.5, 101190.85, 0.0015834377, 9.997081, 10.002077 
1.2248857e+3, 1.4487179e+2, -1808875.9, -1547803.1, 22915.19, 0.1677797, -0.08761518, -1545807.1, -25555.744, 0.00056846405, 9.997496, 10.000974 
1.2249021e+3, 1.5487352e+2, -1704602.3, -1441572.5, -36152.445, -0.03599058, -0.05257586, -1436694.0, -14457.703, 0.00008951281, 9.99755, 10.000991 
1.2249199e+3, 1.648749e+2, -1605204.9, -1399380.6, -8169.777, -0.089767925, 0.018098215, -1399056.9, -74833.0, 0.0000012652538, 9.997748, 10.000547 
1.22494005e+3, 1.7487556e+2, -1444754.0, -1254883.6, -24605.305, 0.051327568, -0.0074295034, -1251746.9, -25529.574, 0.0, 9.998125, 10.000673 
1.2249595e+3, 1.8487592e+2, -1332487.5, -1279599.8, -15498.626, 0.1251141, 0.025895448, -1275392.6, -147178.6, 0.0, 9.9987755, 9.9995165 
1.22497804e+3, 1.9487554e+2, -1086735.0, -1105132.1, -31167.611, 0.11980864, 0.0019346708, -1063436.9, -33218.94, 0.0, 9.999774, 9.999558 
1.2249957e+3, 2.0487486e+2, -985716.25, -1053491.9, -12669.491, 0.045872428, 0.010691988, -983425.4, -51201.68, 0.0, 10.000005, 9.999122 
1.22501254e+3, 2.1487361e+2, -968588.44, -982248.4, -14989.294, -0.104354635, -0.065802686, -958946.4, -124712.43, 0.0, 9.999404, 9.999223 
1.2250314e+3, 2.2487248e+2, -877742.44, -984592.4, 35678.58, -0.0819069, -0.051731583, -866924.25, -130680.08, 0.0, 9.999749, 9.998382 
1.22505225e+3, 2.3487113e+2, -589411.3, -787394.3, 41803.27, 0.115107976, -0.059645128, -580946.6, 57311.063, 0.0, 10.001024, 9.998449 
1.2250713e+3, 2.448696e+2, -459754.2, -705302.4, 43629.23, 0.16214675, -0.03679779, -452232.5, 88041.15, 0.0, 10.001375, 9.99817 
1.2250885e+3, 2.5486758e+2, -450908.2, -642178.75, 18722.547, 0.0547514, -0.09277052, -449092.75, -6797.8813, 0.0, 10.000736, 9.998234 
1.22510605e+3, 2.6486632e+2, -321299.3, -536392.7, 11388.732, 0.012248633, -0.026114875, -320697.97, 23610.088, 0.0000003685213, 10.001015, 9.998138 
1.22512415e+3, 2.7486554e+2, -43523.85, -342885.66, -22532.398, 0.02497346, 0.042209033, -41837.383, 204479.31, 0.0000073761885, 10.002221, 9.998208 
1.2251422e+3, 2.848638e+2, 37377.426, -339751.4, 22349.926, 0.015847456, 0.091258086, 38697.336, 187032.42, 0.000049087277, 10.002432, 9.997472 
1.2251609e+3, 2.9486093e+2, -11194.329, -308647.47, 25845.92, 0.01018215, 0.013477897, -8965.263, 41400.133, 0.00018153466, 10.001403, 9.997509 
1.22518055e+3, 3.0485865e+2, 77722.99, -244675.78, -7424.18, 0.17261529, 0.049138226, 77893.87, 77893.87, 0.00045750884, 10.001747, 9.997434 
1.22519724e+3, 3.1485713e+2, 426275.47, 124683.33, -22525.65, 0.1702491, 0.10723829, 427948.6, 427948.6, 0.0008771986, 10.003176, 9.999292 
1.2348439e+3, 1.2485045e+2, -2173383.8, -1775500.6, -31199.178, 0.026099239, -0.12819323, -1773069.1, -56613.063, 0.0031899144, 9.996093, 10.00144 
1.2348611e+3, 1.3485286e+2, -1949092.5, -1648877.9, 65662.67, -0.1347365, -0.032881796, -1635144.5, -16709.889, 0.0017411282, 9.997127, 10.00116 
1.2348812e+3, 1.4485386e+2, -1828321.3, -1602037.8, 2811.734, -0.08028929, -0.01401913, -1602002.9, -81575.836, 0.0006337289, 9.997546, 10.000584 
1.2349009e+3, 1.548548e+2, -1726343.0, -1496295.3, -23503.805, 0.05436305, -0.017807135, -1493918.5, -71498.44, 0.00010392506, 9.99757, 10.000619 
1.2349194e+3, 1.6485575e+2, -1601823.8, -1390155.9, -17600.04, 0.045225084, 0.024112396, -1388702.4, -64290.836, 0.0000017603737, 9.997744, 10.000607 
1.23493716e+3, 1.7485636e+2, -1445761.6, -1255403.6, 2387.129, -0.084353894, -0.011846771, -1255373.8, -28969.256, 0.0, 9.998108, 10.00068 
1.2349565e+3, 1.8485667e+2, -1340686.6, -1283833.0, 4549.97, -0.07199577, 0.016973093, -1283471.1, -155069.38, 0.0, 9.998721, 9.999512 
1.2349777e+3, 1.9485638e+2, -1100582.0, -1109621.6, 22280.254, 0.080263376, -0.0014204388, -1082367.8, -51961.645, 0.0, 9.999665, 9.99958 
1.2349965e+3, 2.0485601e+2, -982510.4, -1008512.7, -54237.652, 0.09074502, 0.016137198, -939737.44, -7328.1777, 0.0, 9.999841, 9.99951 
1.2350128e+3, 2.1485524e+2, -971080.75, -943594.56, -22424.047, -0.049016625, -0.04876668, -931037.25, -96622.97, 0.0, 9.99921, 9.999585 
1.2350316e+3, 2.2485426e+2, -865676.3, -912289.56, 67540.23, -0.05906114, -0.066248916, -817534.5, -81113.14, 0.0, 9.999541, 9.998982 
1.2350531e+3, 2.3485273e+2, -578440.25, -717112.1, 108634.41, 0.06637641, -0.15360318, -518900.66, 119532.97, 0.0, 10.000812, 9.999039 
1.235072e+3, 2.448517e+2, -508335.84, -751642.9, 4875.013, 0.0752111, -0.098556176, -508238.22, 32206.232, 0.0, 10.001143, 9.997962 
1.2350886e+3, 2.548509e+2, -490726.9, -683552.2, 12609.241, -0.025418093, -0.0105062155, -489905.84, -47449.473, 0.0, 10.000551, 9.998043 
1.2351072e+3, 2.6484933e+2, -383134.78, -609837.9, 41999.543, -0.011340882, 0.05120774, -375604.0, -31130.035, 0.00000016286783, 10.000787, 9.997744 
1.2351276e+3, 2.7484658e+2, -101076.48, -417857.78, 43723.586, 0.11419413, -0.034363724, -95152.336, 151348.86, 0.000006622681, 10.002033, 9.997783 
1.2351456e+3, 2.848446e+2, 39079.504, -288981.53, -26352.111, 0.08223573, -0.008553656, 41182.8, 189703.8, 0.000048750662, 10.002234, 9.997915 
1.23516165e+3, 2.9484317e+2, 951.8817, -251896.83, 11489.015, -0.09588406, 0.011897815, 1472.8496, 52008.547, 0.00018217463, 10.001261, 9.9979725 
1.23518065e+3, 3.0484128e+2, 89267.01, -184182.84, 38576.586, -0.017708527, 0.03851343, 94604.945, 94604.945, 0.00045752534, 10.001594, 9.997924 
1.2351992e+3, 3.1483752e+2, 395396.47, 130905.05, 64422.492, -0.031590138, -0.1771817, 410253.38, 410253.38, 0.00087450614, 10.002883, 9.999473 
1.2448405e+3, 1.24831505e+2, -2192151.5, -1801297.0, -57799.418, 0.08891746, -0.16393091, -1792928.9, -76289.945, 0.003475539, 9.996059, 10.001269 
1.24485925e+3, 1.3483363e+2, -1981182.9, -1706045.9, 22291.885, -0.01564346, -0.061044715, -1704251.5, -85630.36, 0.0019075654, 9.997082, 10.000794 
1.2448787e+3, 1.4483464e+2, -1837513.1, -1608994.4, -1163.1277, -0.0860773, -0.021203052, -1608988.5, -88374.83, 0.0007030745, 9.997495, 10.000555 
1.24489866e+3, 1.548354e+2, -1719157.0, -1502390.8, -40237.586, 0.08328175, -0.040746022, -1495162.6, -72554.516, 0.00011956255, 9.997639, 10.000549 
1.2449176e+3, 1.6483602e+2, -1569184.4, -1391827.0, 23684.607, 0.082930654, -0.019239994, -1388718.6, -64115.89, 0.0000023468863, 9.998058, 10.000435 
1.2449358e+3, 1.7483628e+2, -1338868.4, -1219173.1, -8162.935, -0.06612968, -0.07387414, -1218619.0, 7980.5317, 0.0, 9.998931, 10.000521 
1.2449554e+3, 1.848367e+2, -1266010.4, -1220665.9, 10523.225, -0.061593167, -0.036905438, -1218342.8, -89746.96, 0.0, 9.999123, 9.999746 
1.2449768e+3, 1.9483693e+2, -1238281.9, -1151758.8, 15316.004, 0.092715755, -0.0269466, -1149127.6, -118532.47, 0.0, 9.99861, 9.999798 
1.244996e+3, 2.0483689e+2, -1134666.0, -1078339.5, -35442.063, 0.12183324, 0.010097699, -1061233.5, -128638.016, 0.0, 9.998775, 9.999546 
1.2450128e+3, 2.1483624e+2, -907667.8, -907290.6, -64826.14, 0.026546754, -0.047332633, -842652.8, -8052.8164, 0.0, 9.999613, 9.999641 
1.24503195e+3, 2.2483544e+2, -776984.94, -827102.8, 53008.836, 0.010948237, -0.06855896, -743410.4, -6805.208, 0.0, 9.999996, 9.999333 
1.2450533e+3, 2.348341e+2, -682911.06, -722160.8, 40855.484, 0.07666747, -0.17154469, -657211.5, -18596.953, 0.0, 9.999929, 9.999413 
1.2450726e+3, 2.4483328e+2, -600662.9, -775093.5, -37324.188, 0.07213795, -0.1240914, -593011.94, -52389.324, 0.0, 10.000428, 9.998138 
1.2450897e+3, 2.548327e+2, -341440.03, -588619.3, -35677.133, -0.0039737094, -0.030041011, -336393.53, 106238.15, 0.0, 10.001496, 9.998225 
1.2451088e+3, 2.6483107e+2, -215605.2, -549944.0, 57390.633, 0.028093256, 0.018180568, -206028.2, 138621.88, 0.000000050542315, 10.001993, 9.997585 
1.24512985e+3, 2.748278e+2, -143710.22, -462853.34, 45071.145, 0.16592851, -0.0967412, -137467.14, 109214.6, 0.0000061370592, 10.001805, 9.997606 
1.2451481e+3, 2.8482562e+2, -39759.45, -332415.94, -32278.07, 0.136495, -0.07880542, -36241.676, 112461.65, 0.000049451548, 10.001734, 9.997851 
1.24516346e+3, 2.948242e+2, 73943.34, -214961.73, -74133.625, -0.054985456, -0.04807365, 91855.61, 142572.94, 0.00018750013, 10.001788, 9.997954 
1.24518275e+3, 3.0482256e+2, 173051.13, -161502.56, 9062.669, 0.01947914, 0.00801045, 173296.45, 173296.45, 0.000470274, 10.002213, 9.997799 
1.2452028e+3, 3.1481835e+2, 353875.56, 48986.168, -78023.15, 0.05951688, -0.23420936, 372682.13, 372682.13, 0.0008944317, 10.002857, 9.998929 
1.2548351e+3, 1.2481204e+2, -2172317.5, -1779915.0, 33427.766, -0.13128625, -0.11700433, -1777087.8, -60256.773, 0.0037739007, 9.996127, 10.0013895 
1.254859e+3, 1.3481274e+2, -1961291.0, -1671735.5, 72038.45, 0.22180584, -0.17996573, -1654803.3, -35978.906, 0.0020822603, 9.997107, 10.001021 
1.2548777e+3, 1.4481428e+2, -1811164.5, -1559673.8, -13171.132, 0.02659126, -0.115354896, -1558985.9, -38176.145, 0.0007764397, 9.997515, 10.000883 
1.2548949e+3, 1.548154e+2, -1694269.1, -1453482.9, -18502.373, -0.09713848, -0.13215952, -1452069.4, -29270.031, 0.00013646827, 9.99765, 10.000878 
1.2549141e+3, 1.6481581e+2, -1602754.0, -1466968.6, 35357.14, -0.11479718, -0.121086024, -1458313.6, -133517.44, 0.0000030208696, 9.998075, 9.999915 
1.2549356e+3, 1.7481542e+2, -1374882.1, -1292774.1, 38289.336, -0.0077138287, -0.1922037, -1277689.9, -50888.758, 0.0, 9.998919, 10.000024 
1.254956e+3, 1.84816e+2, -1234895.0, -1146773.8, -26804.299, 0.041624, -0.14007792, -1139261.1, -10464.872, 0.0, 9.99908, 10.000278 
1.254975e+3, 1.9481725e+2, -1212810.3, -1079285.5, 11445.177, 0.029171137, -0.08222748, -1078311.6, -47526.848, 0.0, 9.998519, 10.000341 
1.2549938e+3, 2.0481756e+2, -1182627.6, -1137706.5, -21276.607, 0.012440796, -0.018872367, -1129228.9, -196447.08, 0.0, 9.998603, 9.999225 
1.2550123e+3, 2.1481669e+2, -963493.2, -973393.94, -16468.049, -0.011129103, -0.06458529, -951247.56, -116457.266, 0.0, 9.999397, 9.999298 
1.255032e+3, 2.24816e+2, -806540.8, -831140.06, 34392.03, -0.014377236, -0.06086183, -782315.2, -45519.38, 0.0, 9.999756, 9.999417 
1.255053e+3, 2.3481517e+2, -706532.5, -724533.06, 54957.7, 0.016785078, -0.1233681, -659843.0, -21041.725, 0.0, 9.999727, 9.999494 
1.2550728e+3, 2.4481428e+2, -593214.25, -709383.0, -14993.661, 0.018540733, -0.115928434, -591310.25, -50501.598, 0.0, 10.000212, 9.998693 
1.2550914e+3, 2.5481296e+2, -335753.44, -531588.7, 20379.773, -0.01388594, -0.15299164, -333655.1, 109166.266, 0.0, 10.001292, 9.998718 
1.2551107e+3, 2.6481134e+2, -241043.64, -550570.3, 33763.438, -0.008835607, -0.12711725, -237403.5, 107433.85, 0.00000007625481, 10.001773, 9.997685 
1.2551306e+3, 2.7480912e+2, -161603.03, -458606.9, 58105.293, 0.039853606, -0.15079477, -150640.1, 96219.35, 0.0000061507535, 10.001626, 9.997723 
1.2551491e+3, 2.8480685e+2, -105301.95, -434016.22, -44079.695, 0.03221769, -0.11652249, -99493.62, 49388.68, 0.000051588533, 10.001588, 9.997219 
1.2551661e+3, 2.9480413e+2, 11925.971, -317699.13, -51792.24, -0.019659447, -0.1600449, 19872.248, 70782.08, 0.00020006, 10.001677, 9.997298 
1.2551863e+3, 3.0480242e+2, 110499.586, -272420.66, 21169.844, 0.13270031, -0.038572647, 111666.41, 111666.41, 0.0005036429, 10.002126, 9.997076 
1.2552069e+3, 3.1479967e+2, 218643.86, -170673.5, -15015.917, 0.11679789, -0.07445029, 219222.17, 219222.17, 0.00095318654, 10.002588, 9.997551 
1.2648322e+3, 1.2479188e+2, -2051856.4, -1712063.4, 106543.27, -0.052756093, -0.086954355, -1681419.9, 35610.074, 0.004085261, 9.99693, 10.001481 
1.2648559e+3, 1.3479273e+2, -2069308.6, -1672796.6, 21343.262, 0.2556153, -0.16459596, -1671651.0, -52630.324, 0.0022650692, 9.996192, 10.001441 
1.2648752e+3, 1.4479414e+2, -1998519.6, -1658561.0, -9115.429, 0.106007345, -0.12964335, -1658316.8, -137310.19, 0.00085386867, 9.996265, 10.0008135 
1.2648928e+3, 1.5479507e+2, -1700498.4, -1460577.6, -81999.305, -0.058720153, -0.15611275, -1435230.1, -12231.685, 0.00015477135, 9.997645, 10.00083 
1.2649125e+3, 1.6479568e+2, -1560979.3, -1424296.3, 9102.821, -0.078315176, -0.13065906, -1423692.8, -98699.59, 0.0000038088367, 9.998278, 10.000099 
1.2649344e+3, 1.747958e+2, -1449739.8, -1311412.8, 30340.783, 0.023292692, -0.16592067, -1305050.4, -78057.9, 0.0, 9.998331, 10.00018 
1.264955e+3, 1.8479657e+2, -1295304.0, -1175671.4, -10806.245, 0.06277624, -0.10481622, -1174703.1, -45717.13, 0.0, 9.99866, 10.000281 
1.264974e+3, 1.9479765e+2, -1097488.5, -1020114.9, -50144.094, 0.033936318, -0.061627164, -995468.44, 35508.07, 0.0, 9.999312, 10.000359 
1.2649931e+3, 2.047978e+2, -1014067.44, -1045316.2, -39347.51, 0.03371116, -0.022818208, -987355.7, -54380.723, 0.0, 9.999712, 9.999318 
1.2650125e+3, 2.1479663e+2, -896351.0, -929406.94, -37106.21, 0.05443258, -0.110153, -872258.2, -37273.168, 0.0, 9.999807, 9.999394 
1.2650324e+3, 2.2479592e+2, -797087.06, -849378.25, 37423.61, 0.06378659, -0.10271004, -777580.5, -40589.496, 0.0, 9.999893, 9.999243 
1.2650532e+3, 2.3479553e+2, -692617.75, -736599.44, 8966.931, 0.07246543, -0.1035365, -690859.9, -51865.16, 0.0, 9.999888, 9.999346 
1.2650734e+3, 2.4479476e+2, -578752.9, -667636.44, -17561.691, 0.06085606, -0.09216402, -575408.8, -34407.63, 0.0, 10.000144, 9.999023 
1.2650928e+3, 2.5479326e+2, -396856.63, -523506.53, -27359.219, 0.02819037, -0.1806955, -391199.16, 51814.71, 0.0, 10.000697, 9.999071 
1.2651125e+3, 2.6479185e+2, -315704.4, -560824.4, -9643.092, 0.024785057, -0.16092354, -315325.63, 29700.924, 0.00000015326442, 10.001161, 9.997908 
1.2651321e+3, 2.7479023e+2, -161849.47, -426740.53, -17469.805, 0.05237678, -0.14632055, -160702.28, 86340.05, 0.0000068361555, 10.001505, 9.997987 
1.265151e+3, 2.847879e+2, -40371.95, -435957.13, -51749.688, 0.044773113, -0.11696634, -33714.207, 115351.15, 0.000055437977, 10.002155, 9.996945 
1.2651686e+3, 2.9478446e+2, 229268.14, -247842.02, -66664.73, 0.020762404, -0.19925755, 238407.86, 289507.72, 0.00021969865, 10.003297, 9.997014 
1.2651896e+3, 3.0478245e+2, 334267.0, -145312.98, 52272.824, 0.18063469, -0.103103384, 339898.44, 339898.44, 0.00055763865, 10.003607, 9.997225 
1.2652104e+3, 3.147808e+2, 206907.61, -203661.97, -715.438, 0.22109012, -0.033997264, 206908.86, 206908.86, 0.0010546546, 10.002651, 9.997287 
1.2748323e+3, 1.2477097e+2, -2027556.9, -1680108.0, 60865.824, 0.19608557, -0.08219685, -1669754.1, 47482.402, 0.0044096503, 9.997011, 10.001654 
1.274849e+3, 1.3477367e+2, -2041022.6, -1615244.3, -857.7116, -0.07447242, -0.013890838, -1615242.5, 3966.6543, 0.0024558255, 9.996185, 10.001842 
1.2748705e+3, 1.4477432e+2, -2023781.3, -1720215.0, 21541.713, -0.039860647, -0.057883374, -1718694.0, -197490.48, 0.00093550276, 9.996299, 10.000374 
1.2748921e+3, 1.5477455e+2, -1730013.8, -1530356.4, -13356.566, 0.07746866, -0.108389206, -1529466.8, -106263.14, 0.00017466526, 9.997673, 10.000339 
1.2749127e+3, 1.6477562e+2, -1493092.9, -1295548.3, -7463.933, 0.06658745, -0.05560009, -1295266.6, 29926.941, 0.0000047674703, 9.998323, 10.000963 
1.2749319e+3, 1.7477746e+2, -1388776.4, -1184288.6, 47615.09, -0.0986544, -0.008960594, -1173745.1, 53428.707, 0.0, 9.998322, 10.001059 
1.2749518e+3, 1.8477845e+2, -1347338.6, -1266288.4, -1434.6019, -0.13961196, 0.06011974, -1266263.0, -137098.42, 0.0, 9.99859, 9.999688 
1.2749729e+3, 1.947782e+2, -1154242.0, -1115944.4, -9000.847, -0.029830292, 0.028512742, -1113934.4, -82764.4, 0.0, 9.999218, 9.999743 
1.2749933e+3, 2.0477751e+2, -1002443.3, -986274.25, -54118.6, 0.048383463, -0.009463684, -939639.7, -6464.067, 0.0, 9.999562, 9.999798 
1.275013e+3, 2.1477601e+2, -893452.3, -873382.44, -19425.225, 0.09635779, -0.17859179, -861553.25, -26368.809, 0.0, 9.999589, 9.9998865 
1.275033e+3, 2.247753e+2, -856638.3, -915585.4, 20368.14, 0.118912816, -0.18153855, -850285.1, -113095.14, 0.0, 9.999655, 9.9988985 
1.2750538e+3, 2.3477511e+2, -753113.2, -809402.0, 25134.99, 0.11157542, -0.12426234, -743523.3, -104328.125, 0.0, 9.999664, 9.998951 
1.2750737e+3, 2.4477462e+2, -607019.3, -671261.8, -11411.827, 0.06342929, -0.065144114, -605052.4, -63851.566, 0.0, 9.999914, 9.999105 
1.2750933e+3, 2.5477362e+2, -416927.94, -515694.0, 11733.302, -0.018592015, -0.11996093, -415553.16, 27655.42, 0.0, 10.000486, 9.999225 
1.2751134e+3, 2.6477262e+2, -327343.88, -537375.1, -11772.255, -0.016205681, -0.08236127, -326686.1, 18530.59, 0.00000020123079, 10.000959, 9.998163 
1.2751341e+3, 2.7477115e+2, -174531.39, -407346.75, 14062.26, 0.066108696, -0.0829469, -173685.1, 73544.82, 0.0000077157165, 10.001313, 9.99821 
1.2751535e+3, 2.8476876e+2, -59166.965, -440696.3, -27248.244, 0.038389437, -0.07213756, -57230.766, 92021.82, 0.000060411407, 10.002006, 9.996983 
1.2751712e+3, 2.9476523e+2, 200863.4, -255161.64, 474.88654, -0.09139056, -0.16963807, 200863.9, 252150.97, 0.00024271311, 10.003079, 9.997066 
1.275192e+3, 3.0476254e+2, 360213.06, -57537.16, 9896.964, 0.027141025, -0.17633395, 360447.4, 360447.4, 0.0006225909, 10.003459, 9.9979 
1.2752126e+3, 3.1476235e+2, 200117.88, -144033.67, -24.518414, 0.121816464, -0.038622636, 200117.88, 200117.88, 0.0011840102, 10.0023575, 9.997826 
1.2848309e+3, 1.247503e+2, -2254893.8, -1815662.6, 115694.6, 0.43152398, -0.09917174, -1787052.0, -69614.31, 0.0047468157, 9.995524, 10.001444 
1.284845e+3, 1.347529e+2, -1829972.8, -1555085.9, -12222.814, -0.14439651, -0.007249762, -1554543.5, 64869.094, 0.0026545508, 9.997783, 10.001483 
1.2848683e+3, 1.447532e+2, -1723097.6, -1566495.8, 22293.635, 0.01090441, -0.07203136, -1563383.9, -41973.16, 0.0010215283, 9.998353, 10.000434 
1.2848908e+3, 1.5475415e+2, -1710125.6, -1506965.1, -8480.201, 0.18230082, -0.05760049, -1506611.8, -83207.94, 0.00019628371, 9.997767, 10.000449 
1.2849116e+3, 1.6475521e+2, -1587202.9, -1353568.0, 14758.912, 0.17396964, -0.0071884803, -1352639.4, -27245.467, 0.0000059623408, 9.997708, 10.000879 
1.2849303e+3, 1.747563e+2, -1404080.8, -1197832.9, -38931.8, -0.07196019, -0.024907, -1190728.6, 36652.676, 0.0, 9.998236, 10.001012 
1.2849504e+3, 1.8475705e+2, -1338476.1, -1242655.5, -56962.996, -0.14240605, 0.015939543, -1216133.4, -86759.04, 0.0, 9.998588, 9.999848 
1.284972e+3, 1.9475706e+2, -1183907.3, -1111122.5, -39794.67, -0.019380633, -0.0032660388, -1093588.8, -62212.05, 0.0, 9.99895, 9.999905 
1.284993e+3, 2.0475669e+2, -1006867.0, -976018.5, -42147.45, 0.070759386, -0.019212773, -946561.6, -13182.364, 0.0, 9.999479, 9.99991 
1.2850131e+3, 2.1475564e+2, -800524.75, -810989.5, -67511.086, 0.12351399, -0.15582746, -738043.56, 97341.21, 0.0, 10.000166, 10.000033 
1.2850334e+3, 2.2475511e+2, -746681.6, -868691.94, -19390.012, 0.14736007, -0.1453804, -743674.3, -6285.007, 0.0, 10.000433, 9.998845 
1.2850538e+3, 2.3475486e+2, -678522.2, -776352.7, -26952.797, 0.13812372, -0.08889267, -671588.0, -32192.521, 0.0, 10.0002, 9.998913 
1.285074e+3, 2.4475428e+2, -550166.9, -657370.6, 1148.8544, 0.09240757, -0.030407684, -550154.56, -8752.375, 0.0, 10.000366, 9.998979 
1.2850942e+3, 2.5475314e+2, -363549.7, -502992.13, -30712.53, 0.014998144, -0.08495651, -357084.9, 86326.65, 0.0, 10.00092, 9.999095 
1.2851149e+3, 2.6475194e+2, -233675.78, -445321.1, -34282.42, 0.023782866, -0.07933277, -228261.22, 117159.19, 0.00000014147287, 10.00138, 9.998601 
1.285136e+3, 2.7475035e+2, -70513.15, -307692.13, -28261.996, 0.12131674, -0.13449404, -67191.984, 180240.56, 0.000007879153, 10.001798, 9.998671 
1.285156e+3, 2.847485e+2, -3194.054, -360417.72, 660.8934, 0.10702921, -0.11667641, -3192.8313, 146255.88, 0.00006527563, 10.002171, 9.997454 
1.2851746e+3, 2.9474598e+2, 141734.86, -230068.47, 15273.606, -0.016157124, -0.16282429, 142361.25, 193834.34, 0.000269289, 10.0024395, 9.997545 
1.2851954e+3, 3.047425e+2, 317935.44, -90617.29, 32819.074, 0.045442045, -0.2659344, 320555.0, 320555.0, 0.0006978728, 10.0032015, 9.997811 
1.2852158e+3, 3.1474194e+2, 497840.9, -3130.332, -107309.83, 0.12414284, -0.15117311, 519859.3, 519859.3, 0.0013327188, 10.004352, 9.997858 
1.2948239e+3, 1.2473057e+2, -2296066.0, -1885801.4, 4970.751, 0.117739916, -0.09092708, -1885741.1, -168114.73, 0.0050962004, 9.995483, 10.000977 
1.294844e+3, 1.3473053e+2, -1920609.8, -1729641.5, 84330.766, -0.057286534, -0.1502059, -1697732.9, -78103.17, 0.0028611089, 9.997739, 10.000304 
1.2948681e+3, 1.447308e+2, -1683886.4, -1490571.0, -21951.807, 0.12889075, -0.17647286, -1488109.6, 33518.855, 0.00111182, 9.998379, 10.000942 
1.2948883e+3, 1.547339e+2, -1672872.1, -1428297.4, -12615.582, 0.12437009, -0.0022311015, -1427648.4, -4049.968, 0.000219555, 9.997761, 10.000997 
1.2949088e+3, 1.6473451e+2, -1654058.8, -1493634.6, 14206.446, 0.086190134, 0.022537505, -1492386.3, -166793.4, 0.0000074533, 9.997709, 9.999914 
1.2949294e+3, 1.7473237e+2, -1480161.8, -1353501.6, -4657.456, -0.02654071, -0.21942154, -1353330.6, -125715.83, 0.0, 9.998219, 9.999952 
1.2949498e+3, 1.8473238e+2, -1283405.6, -1124699.0, -61305.195, -0.08484549, -0.2398493, -1103776.4, 25838.875, 0.0, 9.998567, 10.000669 
1.2949708e+3, 1.947343e+2, -1134570.8, -992197.2, -11607.027, -0.05623819, -0.15607145, -991257.1, 40339.008, 0.0, 9.998866, 10.000765 
1.2949915e+3, 2.0473541e+2, -1049834.8, -1023393.5, -34378.168, -0.028855225, -0.056097094, -999781.44, -66195.74, 0.0, 9.999307, 9.999662 
1.2950122e+3, 2.1473542e+2, -850702.0, -865002.94, -28208.436, -0.00047797445, -0.06074014, -828751.9, 6835.295, 0.0, 9.999951, 9.999763 
1.2950327e+3, 2.2473529e+2, -768795.0, -854849.8, -42918.156, 0.01319444, -0.006275662, -751049.7, -13460.118, 0.0, 10.00018, 9.999061 
1.2950529e+3, 2.347348e+2, -695044.0, -758329.0, -16404.682, 0.016427202, 0.0014771469, -691044.4, -51449.086, 0.0, 9.99997, 9.999149 
1.295074e+3, 2.4473378e+2, -619896.2, -733051.94, 4573.585, 0.0095140925, 0.022244932, -619711.6, -78106.64, 0.0, 10.000087, 9.998587 
1.2950952e+3, 2.547318e+2, -430093.5, -579896.4, 7972.506, -0.0029947767, -0.075512424, -429670.38, 13952.7, 0.0, 10.000673, 9.998679 
1.2951164e+3, 2.6472992e+2, -218675.03, -374512.72, -35381.535, 0.019597944, -0.14411974, -211018.17, 134619.34, 0.000000052302592, 10.001198, 9.99918 
1.2951379e+3, 2.7472815e+2, -59014.645, -230844.75, 5609.332, 0.078738734, -0.2823195, -58831.727, 188816.61, 0.000007172051, 10.001566, 9.999311 
1.2951584e+3, 2.847273e+2, 18960.205, -260744.14, -5201.4907, 0.10023998, -0.23683566, 19056.9, 168709.56, 0.00006969282, 10.001937, 9.998249 
1.2951785e+3, 2.9472685e+2, 159871.5, -137571.08, 48724.17, 0.08582161, -0.15706949, 167649.63, 219306.03, 0.0003009035, 10.002208, 9.99829 
1.2951992e+3, 3.0472252e+2, 241116.83, -223448.88, 61089.105, 0.0866617, -0.3408771, 249015.58, 249015.58, 0.0007869782, 10.003081, 9.996961 
1.2952194e+3, 3.1472015e+2, 426276.2, -73427.336, -20498.318, -0.026749508, -0.32511896, 427115.63, 427115.63, 0.0015032798, 10.004023, 9.997532 
1.3048199e+3, 1.24709345e+2, -2094366.5, -1753423.0, -109599.305, 0.11832751, -0.035769127, -1721230.9, -3395.3926, 0.0054552136, 9.996719, 10.001288 
1.3048428e+3, 1.3470833e+2, -2061968.5, -1787270.9, 40330.973, 0.10451105, -0.19680262, -1781471.9, -161625.94, 0.003073975, 9.996736, 10.000388 
1.3048662e+3, 1.4470877e+2, -1901516.8, -1595374.0, -19870.395, 0.17981918, -0.2123682, -1594089.6, -72247.766, 0.0012055306, 9.996863, 10.000956 
1.3048859e+3, 1.5471162e+2, -1646612.0, -1409945.3, -83273.53, 0.11152774, -0.06883585, -1383581.5, 40232.965, 0.000244213, 9.997905, 10.00105 
1.3049068e+3, 1.6471238e+2, -1564729.6, -1459800.0, -4559.83, 0.094846554, -0.026187895, -1459602.3, -133793.8, 0.000009295233, 9.998405, 9.999797 
1.3049285e+3, 1.7471077e+2, -1433309.6, -1336939.5, 8414.862, 0.06403004, -0.20137778, -1336210.3, -108383.32, 0.0, 9.9986105, 9.99986 
1.3049492e+3, 1.8471095e+2, -1259994.6, -1093501.5, -14304.864, 0.0040195007, -0.20892067, -1092281.4, 37544.59, 0.0, 9.998617, 10.000872 
1.3049692e+3, 1.9471276e+2, -1201349.3, -995899.4, -45600.31, -0.070177, -0.15967053, -986233.06, 45573.566, 0.0, 9.998284, 10.001023 
1.30499e+3, 2.0471396e+2, -1143655.6, -1085967.5, -18906.012, -0.07961798, -0.0551901, -1080323.6, -146528.02, 0.0, 9.998726, 9.999521 
1.3050118e+3, 2.147143e+2, -851859.06, -882491.9, -37398.49, -0.019989438, -0.009842545, -826762.1, 9034.0, 0.0, 10.000016, 9.999617 
1.3050331e+3, 2.2471426e+2, -680927.4, -808319.0, -62658.855, 0.016629366, 0.058342483, -655273.94, 82524.586, 0.0, 10.000754, 9.999101 
1.3050535e+3, 2.347135e+2, -572888.8, -694079.2, -86010.8, 0.031597197, 0.03295218, -528271.7, 111534.195, 0.0, 10.000779, 9.999197 
1.3050744e+3, 2.447124e+2, -511529.4, -671346.75, -7772.643, 0.039868403, 0.037037034, -511152.28, 30663.545, 0.0, 10.000762, 9.998695 
1.3050961e+3, 2.547106e+2, -412646.66, -562565.94, 4348.9653, 0.041523546, -0.051459424, -412520.63, 31311.436, 0.0, 10.000727, 9.998788 
1.3051178e+3, 2.647089e+2, -284237.38, -393628.47, -7717.1123, 0.06441532, -0.11680601, -283695.66, 62149.785, 0.000000026393016, 10.000701, 9.9992895 
1.305139e+3, 2.7470696e+2, -175114.66, -280312.9, -43886.637, 0.10457414, -0.274714, -159210.47, 88647.56, 0.0000066700077, 10.000724, 9.999388 
1.3051602e+3, 2.847064e+2, -72828.17, -260387.84, -37161.25, 0.14661518, -0.22388779, -65733.75, 84126.055, 0.00007506801, 10.001118, 9.998636 
1.3051815e+3, 2.947068e+2, 166855.97, -90610.7, -51485.34, 0.19489753, -0.097716115, 176769.72, 228624.5, 0.00033561388, 10.002064, 9.998673 
1.3052027e+3, 3.047026e+2, 230115.94, -226737.67, 28473.121, 0.138591, -0.28822976, 231883.67, 231883.67, 0.0008838956, 10.003004, 9.996974 
1.3052231e+3, 3.1470013e+2, 447768.34, 7412.1978, -56581.867, -0.026016185, -0.2823265, 454922.4, 454922.4, 0.0016899711, 10.003863, 9.998173 
1.3148165e+3, 1.2468566e+2, -2007134.8, -1590034.5, -82789.29, 0.049504414, -0.02730379, -1574202.8, 143871.73, 0.005819013, 9.996779, 10.002391 
1.3148408e+3, 1.3468634e+2, -1968090.9, -1595845.5, 47755.367, 0.20281935, -0.14918916, -1589816.5, 30244.242, 0.0032902497, 9.9967375, 10.001707 
1.3148616e+3, 1.4468718e+2, -1925033.1, -1643301.0, -9634.987, -0.014677891, -0.17807864, -1642971.9, -120921.695, 0.0013013786, 9.99687, 10.000622 
1.3148832e+3, 1.5468742e+2, -1681738.8, -1476466.3, -32765.906, 0.020961596, -0.25310528, -1471362.9, -47311.754, 0.00026992275, 9.997876, 10.000611 
1.3149054e+3, 1.646888e+2, -1512529.4, -1362022.9, -16344.453, 0.074385844, -0.1567921, -1360268.4, -34227.406, 0.00001153221, 9.998438, 10.000458 
1.3149276e+3, 1.7469142e+2, -1380827.9, -1232059.9, 30550.305, 0.08363319, 0.01766943, -1226030.5, 1988.3124, 0.0, 9.998614, 10.000583 
1.314948e+3, 1.8469277e+2, -1293228.8, -1145447.5, -44041.684, -0.0069466173, 0.10615399, -1133317.9, -3311.208, 0.0, 9.998552, 10.000541 
1.3149665e+3, 1.9469237e+2, -1242682.8, -1058353.8, -45996.688, -0.19295228, -0.027586237, -1047513.5, -15504.631, 0.0, 9.998183, 10.000643 
1.3149877e+3, 2.0469233e+2, -1172659.9, -1106796.6, 13724.408, -0.21648715, -0.026161773, -1104051.3, -170041.97, 0.0, 9.998561, 9.9994545 
1.3150117e+3, 2.1469237e+2, -886819.44, -913215.9, 29248.498, -0.057956908, -0.0040059797, -867929.2, -31918.098, 0.0, 9.999825, 9.999502 
1.315034e+3, 2.2469199e+2, -728762.2, -843826.2, -76026.42, 0.024529152, 0.042745654, -690952.94, 47063.51, 0.0, 10.000494, 9.998977 
1.3150546e+3, 2.3469085e+2, -618580.25, -732534.06, -66215.64, 0.04550101, -0.0078040524, -588202.25, 51826.207, 0.0, 10.000541, 9.999048 
1.3150755e+3, 2.4469012e+2, -505834.56, -598543.1, -25810.99, 0.04259987, 0.013631529, -499132.94, 42902.13, 0.0, 10.000504, 9.999319 
1.3150968e+3, 2.5468975e+2, -401704.44, -484515.4, 20219.164, 0.011495482, 0.0023531285, -397031.4, 47005.402, 0.0, 10.000488, 9.99944 
1.3151182e+3, 2.6468882e+2, -343325.22, -467112.66, -22411.445, 0.017213976, 0.0011864199, -339392.6, 6651.5586, 0.000000066602475, 10.000493, 9.998882 
1.3151395e+3, 2.746869e+2, -239462.06, -359882.0, -20252.95, 0.060469538, -0.118850164, -236147.06, 11914.37, 0.0000067822207, 10.000507, 9.998938 
1.3151614e+3, 2.8468603e+2, -93552.07, -276846.94, -16930.348, 0.11036627, -0.067478485, -92001.39, 58066.47, 0.000081610815, 10.000987, 9.998595 
1.3151838e+3, 2.9468602e+2, 129269.12, -114036.695, 7051.412, 0.16925941, 0.0145533215, 129473.31, 181539.88, 0.00036944333, 10.00182, 9.998638 
1.3152052e+3, 3.046828e+2, 249668.17, -142432.7, 50369.598, 0.057755906, -0.10557693, 256035.3, 256035.3, 0.000976967, 10.00282, 9.997637 
1.3152263e+3, 3.146815e+2, 495348.72, 197918.86, 32034.97, -0.15806867, -0.057005677, 498759.94, 498759.94, 0.0018699674, 10.003484, 9.999661 
1.3248144e+3, 1.246624e+2, -1982089.9, -1583756.8, 78968.555, 0.17053753, -0.04647223, -1568672.6, 149629.89, 0.006183249, 9.996932, 10.002378 
1.3248375e+3, 1.346635e+2, -1923081.1, -1535457.0, -4582.797, 0.21487291, -0.15228885, -1535402.9, 84881.125, 0.0035072896, 9.996893, 10.002037 
1.3248582e+3, 1.4466481e+2, -1898721.3, -1620460.0, -2548.0408, -0.036546066, -0.15878688, -1620436.8, -98167.61, 0.0013982238, 9.9970045, 10.000711 
1.3248813e+3, 1.5466505e+2, -1631254.0, -1438802.1, -13496.852, 0.0489089, -0.24233049, -1437860.3, -13589.817, 0.00029637254, 9.99817, 10.000722 
1.3249041e+3, 1.6466667e+2, -1467224.1, -1300401.9, 5238.399, 0.12051044, -0.14744854, -1300237.5, 26020.105, 0.000014169166, 9.99858, 10.000806 
1.3249257e+3, 1.7466965e+2, -1419013.0, -1216991.1, -10602.916, 0.07571589, 0.030847806, -1216436.1, 11794.471, 0.0, 9.998196, 10.000892 
1.3249463e+3, 1.84671e+2, -1337193.1, -1210226.8, -55891.234, -0.019354269, 0.1234862, -1189128.9, -58910.14, 0.0, 9.998443, 10.000151 
1.3249657e+3, 1.9467025e+2, -1071814.5, -1023624.44, -93868.24, -0.14888279, -0.00453584, -950808.06, 81418.6, 0.0, 9.999556, 10.000221 
1.3249873e+3, 2.0466986e+2, -986752.9, -995825.56, -5198.18, -0.14913557, -0.024919206, -984389.94, -50159.473, 0.0, 9.999764, 9.999628 
1.3250114e+3, 2.1466964e+2, -1000117.5, -940859.75, 1161.1089, -0.014831375, -0.046899654, -940837.0, -104604.664, 0.0, 9.9989605, 9.999718 
1.325034e+3, 2.2466914e+2, -951766.1, -919258.8, -41490.086, 0.059618954, -0.035417046, -890952.25, -152714.84, 0.0, 9.998831, 9.999265 
1.3250549e+3, 2.3466812e+2, -750413.6, -754747.1, -33467.7, 0.091078065, -0.104742855, -719042.6, -78794.34, 0.0, 9.999477, 9.999403 
1.3250762e+3, 2.4466787e+2, -560593.44, -614085.94, 37073.42, 0.09943326, -0.058412332, -541625.4, 625.2061, 0.0, 10.000082, 9.9994135 
1.3250978e+3, 2.5466827e+2, -375786.2, -458700.84, 8337.089, 0.07367899, -0.0028520906, -374956.2, 69289.65, 0.0, 10.000616, 9.999547 
1.3251194e+3, 2.646677e+2, -291535.75, -477984.84, -25434.6, 0.07656153, 0.041648276, -288128.34, 58123.207, 0.0000000978673, 10.001009, 9.998552 
1.3251409e+3, 2.7466565e+2, -146597.05, -351402.84, -54790.125, 0.10834992, -0.054609526, -132860.77, 115411.98, 0.000006920427, 10.001302, 9.99861 
1.3251628e+3, 2.8466436e+2, 5694.001, -222134.22, 13209.97, 0.13962239, -0.032449536, 6457.3853, 156741.2, 0.000086783395, 10.001669, 9.998637 
1.3251856e+3, 2.9466364e+2, 200568.64, -72402.63, -3303.4463, 0.17179967, -0.02070497, 200608.63, 252895.58, 0.0003950438, 10.0022955, 9.998691 
1.3252075e+3, 3.0466074e+2, 198718.8, -193650.22, 43932.4, 0.045304835, -0.10040014, 203577.61, 203577.61, 0.0010503886, 10.002612, 9.997374 
1.3252302e+3, 3.1465927e+2, 358688.66, 152989.36, -99304.62, -0.047133867, -0.03595317, 398805.63, 398805.63, 0.0020140882, 10.002461, 9.999835 
1.3348131e+3, 1.24639094e+2, -2049465.5, -1719625.1, 106562.11, 0.27410313, -0.15204404, -1688193.3, 30329.89, 0.0065457188, 9.996924, 10.001442 
1.3348326e+3, 1.3463986e+2, -1983114.6, -1655244.9, -8246.537, 0.0006042322, -0.21379696, -1655037.6, -34522.273, 0.0037237175, 9.996873, 10.001223 
1.3348556e+3, 1.4464144e+2, -1845322.5, -1519396.9, 16574.56, -0.040753763, -0.18091908, -1518556.1, 3944.303, 0.0014951822, 9.997032, 10.0014 
1.3348801e+3, 1.5464471e+2, -1578101.1, -1334462.0, 47474.01, 0.06773271, -0.033251937, -1325538.4, 98931.945, 0.00032323142, 9.9981785, 10.001442 
1.3349028e+3, 1.646462e+2, -1475710.6, -1312594.8, -26696.986, 0.093267515, 0.015812512, -1308336.4, 18119.902, 0.000017128494, 9.998562, 10.000728 
1.3349228e+3, 1.7464554e+2, -1434225.5, -1235635.6, -11704.293, -0.08852206, -0.16324924, -1234948.3, -6486.537, 0.00000000003443261, 9.998142, 10.000786 
1.3349436e+3, 1.8464571e+2, -1376526.5, -1285428.9, -33308.24, -0.16652355, -0.16020963, -1274549.6, -144087.95, 0.0, 9.998406, 9.999659 
1.3349664e+3, 1.9464643e+2, -1119606.9, -1105440.8, -37057.38, -0.06282775, -0.087650225, -1074795.6, -42336.3, 0.0, 9.999466, 9.99971 
1.3349888e+3, 2.0464662e+2, -979695.56, -944329.75, -51195.742, -0.004117345, -0.046062056, -907849.1, 26609.348, 0.0, 9.999606, 10.000059 
1.3350107e+3, 2.14646e+2, -999237.2, -893159.2, -13090.257, -0.014958851, -0.15457936, -891567.7, -55106.535, 0.0, 9.9987545, 10.000153 
1.3350323e+3, 2.2464561e+2, -933184.8, -829043.1, -30637.26, -0.013067639, -0.18928434, -820698.6, -82235.73, 0.0, 9.998608, 9.999987 
1.335054e+3, 2.346453e+2, -731101.25, -667700.75, 9159.365, 0.032003295, -0.26004273, -666404.0, -25938.715, 0.0, 9.999269, 10.0001 
1.3350762e+3, 2.4464561e+2, -618814.3, -684339.56, 41386.93, 0.06301255, -0.1792371, -598791.8, -56329.01, 0.0, 9.999872, 9.999024 
1.3350989e+3, 2.5464618e+2, -437274.25, -539595.06, 45157.043, 0.07975367, -0.062380057, -420195.78, 24262.945, 0.0, 10.000418, 9.999083 
1.335121e+3, 2.6464558e+2, -339056.25, -537479.7, -30590.877, 0.098290704, 0.018525494, -334447.13, 12019.818, 0.00000008871969, 10.000837, 9.998226 
1.3351424e+3, 2.7464324e+2, -200294.3, -408545.06, -24656.45, 0.111422054, -0.076080285, -197414.83, 51077.145, 0.000006673535, 10.001074, 9.998323 
1.3351643e+3, 2.8464139e+2, -17514.545, -229214.86, 16520.963, 0.088198304, -0.09972473, -16233.017, 134274.77, 0.00008871381, 10.00149, 9.998674 
1.335187e+3, 2.9463977e+2, 173832.67, -81891.945, 41715.957, 0.041084204, -0.18275814, 180465.69, 232981.2, 0.00040777776, 10.002094, 9.998727 
1.3352093e+3, 3.0463672e+2, 102959.555, -357669.84, 29085.81, -0.066540875, -0.22976057, 104788.87, 104788.87, 0.0010944809, 10.002459, 9.996318 
1.3352339e+3, 3.146334e+2, 218336.22, -49607.465, -22215.842, 0.01722738, -0.24595197, 220165.69, 220165.69, 0.0021080854, 10.002063, 9.998641 
1.344811e+3, 1.2461544e+2, -2161280.3, -1798625.6, 33586.73, 0.42237973, -0.18464378, -1795541.3, -76788.46, 0.0069055543, 9.996279, 10.001203 
1.3448292e+3, 1.346169e+2, -1839188.1, -1598067.8, -24352.258, -0.059369095, -0.16507219, -1595632.9, 25107.79, 0.0039389143, 9.99793, 10.0011 
1.344854e+3, 1.446184e+2, -1680757.6, -1436077.3, 14299.094, 0.053913504, -0.13601711, -1435244.5, 87483.2, 0.0015916337, 9.998154, 10.001431 
1.3448782e+3, 1.5462151e+2, -1689364.4, -1383824.3, -42052.55, 0.11268653, -0.006172263, -1378142.0, 46556.688, 0.0003501717, 9.997409, 10.001473 
1.3449009e+3, 1.6462275e+2, -1637279.0, -1377650.1, -99259.47, 0.11221754, 0.013466288, -1344050.3, -17364.008, 0.000020254476, 9.997384, 10.000855 
1.3449208e+3, 1.7462176e+2, -1418579.3, -1208873.5, -102259.62, -0.065871865, -0.21065336, -1167264.3, 61429.67, 0.0000000014653116, 9.998173, 10.000955 
1.3449425e+3, 1.846221e+2, -1360182.0, -1239179.3, -49041.8, -0.121128686, -0.21612853, -1221799.1, -91107.266, 0.0, 9.998351, 9.999997 
1.3449657e+3, 1.946236e+2, -1320855.8, -1159152.1, -18547.145, 0.0023742458, -0.10166121, -1157052.0, -124369.64, 0.0, 9.997913, 10.000079 
1.3449885e+3, 2.0462433e+2, -1154368.0, -980796.75, 27837.53, 0.08231334, -0.047195934, -976441.44, -41765.465, 0.0, 9.99818, 10.000501 
1.3450105e+3, 2.1462394e+2, -891434.4, -782426.9, 30109.402, 0.09585649, -0.18178257, -774663.1, 62011.883, 0.0, 9.999237, 10.00067 
1.3450323e+3, 2.2462396e+2, -740234.75, -755401.0, 29549.82, 0.06717202, -0.19503589, -717310.56, 21362.234, 0.0, 10.000018, 9.999815 
1.3450538e+3, 2.346242e+2, -560643.7, -603650.44, -26158.143, 0.009776939, -0.19114849, -548284.94, 92386.56, 0.0, 10.000526, 9.999931 
1.3450761e+3, 2.4462408e+2, -473672.63, -649716.4, 2586.9658, 0.009583894, -0.1282202, -473634.63, 69039.195, 0.0, 10.001024, 9.998717 
1.3450997e+3, 2.546232e+2, -300559.7, -504719.03, -16889.38, 0.07499415, -0.12543815, -299171.94, 145511.3, 0.0, 10.001503, 9.998805 
1.3451226e+3, 2.646223e+2, -212851.55, -485761.94, -59292.633, 0.13178797, -0.051894862, -200526.23, 146167.78, 0.000000062099474, 10.001751, 9.998141 
1.3451444e+3, 2.7462098e+2, -98849.09, -370312.4, -77475.64, 0.18036625, -0.038749658, -78293.97, 170416.34, 0.0000065347235, 10.001804, 9.998239 
1.3451669e+3, 2.8461894e+2, 45952.156, -268144.47, 9982.474, 0.16352837, -0.04512845, 46269.094, 196998.33, 0.00008986311, 10.002199, 9.998076 
1.3451897e+3, 2.9461622e+2, 268670.66, -92033.266, -55701.12, 0.07200334, -0.180505, 277076.3, 329826.56, 0.00041373618, 10.002988, 9.998224 
1.3452119e+3, 3.0461356e+2, 155910.02, -299231.84, -69815.26, -0.04422071, -0.17821684, 166378.36, 166378.36, 0.001115336, 10.002638, 9.996649 
1.3452367e+3, 3.1461093e+2, 47838.344, -113544.27, -65492.77, 0.181707, -0.16492005, 71071.96, 71071.96, 0.0021558101, 10.000811, 9.998788 
1.354806e+3, 1.245917e+2, -2126346.8, -1714502.0, -134465.97, 0.22581063, -0.1382277, -1674487.1, 44502.27, 0.0072628423, 9.996253, 10.001788 
1.3548273e+3, 1.345948e+2, -1800986.0, -1516586.5, 47635.29, -0.07811255, -0.008092397, -1508819.9, 112138.33, 0.004152666, 9.997928, 10.001662 
1.354853e+3, 1.4459574e+2, -1738729.6, -1549822.5, -35790.336, 0.10090537, -0.022771267, -1543269.0, -20319.21, 0.0016872559, 9.99813, 10.000659 
1.3548753e+3, 1.5459526e+2, -1746726.8, -1501551.6, -55169.887, 0.048418988, -0.17502429, -1489709.3, -64752.168, 0.0003769789, 9.997397, 10.000672 
1.3548979e+3, 1.6459608e+2, -1613185.9, -1322524.5, -91853.266, 0.044449672, -0.17711079, -1295930.8, 31019.324, 0.000023370363, 9.997362, 10.0012455 
1.3549204e+3, 1.7459819e+2, -1399240.9, -1155851.6, -58666.066, 0.03492643, -0.13238302, -1142449.0, 86479.945, 0.0000000068048798, 9.998112, 10.00135 
1.354942e+3, 1.8460019e+2, -1291061.4, -1072336.0, -82111.984, -0.0145157995, -0.0483174, -1044941.3, 85968.47, 0.0, 9.9982605, 10.00118 
1.354963e+3, 1.9460176e+2, -1254202.3, -992969.06, -19050.406, -0.08232394, -0.049417246, -991587.1, 41308.8, 0.0, 9.997793, 10.001276 
1.3549858e+3, 2.0460293e+2, -1144787.3, -922727.4, 46822.973, -0.022024468, -0.035091206, -913258.2, 21625.373, 0.0, 9.998019, 10.000975 
1.3550112e+3, 2.1460338e+2, -894763.6, -736485.3, 82039.875, 0.19299558, -0.13035347, -701635.25, 135239.7, 0.0, 9.999006, 10.001099 
1.3550337e+3, 2.2460406e+2, -847548.7, -916340.75, 28931.02, 0.17736167, -0.05259112, -836999.3, -98130.59, 0.0, 9.999758, 9.998834 
1.3550532e+3, 2.3460475e+2, -668419.06, -772147.4, 7600.492, -0.10255861, 0.099481784, -667865.1, -26997.668, 0.0, 10.000294, 9.998885 
1.3550754e+3, 2.4460338e+2, -521450.84, -696137.75, 3682.5432, -0.19019054, 0.104356304, -521373.25, 21509.244, 0.0, 10.000796, 9.99851 
1.3551e+3, 2.5459933e+2, -345612.16, -544831.44, 18933.342, -0.0664478, -0.19388592, -343828.72, 101090.36, 0.0, 10.001274, 9.998641 
1.3551237e+3, 2.6459777e+2, -236668.75, -488396.9, -72587.99, 0.049343616, -0.18181425, -217237.33, 129696.96, 0.000000036385206, 10.00155, 9.998222 
1.3551465e+3, 2.7459872e+2, -128202.41, -379385.28, -53907.42, 0.17505045, 0.052436616, -117121.9, 131806.6, 0.0000068750182, 10.001586, 9.998283 
1.3551697e+3, 2.8459713e+2, -63411.977, -452381.34, 23252.26, 0.20065683, 0.14319792, -62026.91, 88920.125, 0.00009120505, 10.002017, 9.996897 
1.3551933e+3, 2.9459256e+2, 141342.05, -294715.4, -106.05594, 0.09313462, -0.05018532, 141342.08, 194336.16, 0.00041573873, 10.002715, 9.996968 
1.355215e+3, 3.0459082e+2, 229094.1, -79512.27, -146114.86, -0.029462134, 0.030457465, 287297.44, 287297.44, 0.0011165407, 10.002375, 9.998276 
1.355238e+3, 3.14591e+2, 71524.836, 19374.295, -66841.445, 0.14264293, 0.15452516, 117197.03, 117197.03, 0.0021572434, 10.000474, 9.999859 
1.3648027e+3, 1.2456831e+2, -1712103.0, -1503796.8, -93787.95, 0.15835875, -0.1306761, -1467792.6, 251427.56, 0.0076198755, 9.999011, 10.001923 
1.3648261e+3, 1.3457121e+2, -1890250.9, -1584485.3, 27651.236, 0.049754392, -0.0063539622, -1582004.8, 39184.902, 0.004366158, 9.997384, 10.0014715 
1.3648501e+3, 1.4457199e+2, -1960687.6, -1649121.0, -9320.386, 0.089085825, -0.030648967, -1648842.4, -125660.195, 0.0017823466, 9.996574, 10.000719 
1.364873e+3, 1.545711e+2, -1708797.1, -1472570.1, 9578.778, 0.08222956, -0.23094904, -1472182.4, -46989.094, 0.0004035849, 9.997624, 10.000749 
1.3648963e+3, 1.6457221e+2, -1504063.0, -1261227.1, 36196.12, 0.11304737, -0.2153039, -1255946.8, 71237.414, 0.000026350568, 9.998051, 10.0013485 
1.364919e+3, 1.745754e+2, -1436580.0, -1158800.4, 10349.262, 0.10820702, -0.07305783, -1158415.4, 70738.11, 0.000000016360648, 9.997781, 10.001499 
1.3649407e+3, 1.8457773e+2, -1348454.8, -1077762.5, -31951.31, 0.052797254, 0.025005534, -1074042.3, 57089.26, 0.0, 9.99778, 10.001372 
1.3649613e+3, 1.9457869e+2, -1185052.0, -932072.06, -80181.734, -0.040906664, -0.059041582, -908799.44, 124323.016, 0.0, 9.998166, 10.001508 
1.3649844e+3, 2.0457979e+2, -1062437.6, -887303.6, -13729.111, 0.0051877014, -0.061484385, -886233.9, 48876.45, 0.0, 9.998596, 10.000946 
1.3650103e+3, 2.1458088e+2, -881638.44, -735892.9, -44279.266, 0.21051648, -0.08815167, -723494.94, 113601.586, 0.0, 9.999113, 10.00106 
1.3650335e+3, 2.2458151e+2, -869476.25, -948178.75, -55885.74, 0.20422499, -0.0021253268, -840477.4, -101386.47, 0.0, 9.999697, 9.998645 
1.365054e+3, 2.345814e+2, -674363.25, -803284.75, -52637.574, -0.056987084, 0.09013599, -655602.0, -14504.389, 0.0, 10.000358, 9.9986515 
1.3650765e+3, 2.4457978e+2, -528629.6, -693672.8, 5321.2773, -0.1365921, 0.0817647, -528458.25, 14656.644, 0.0, 10.000733, 9.99855 
1.3651013e+3, 2.545762e+2, -397745.66, -563114.06, -1611.4171, -0.020290349, -0.17380805, -397729.97, 47416.793, 0.0, 10.000891, 9.998695 
1.3651252e+3, 2.6457462e+2, -252803.3, -504269.84, -42760.19, 0.06998711, -0.16569503, -245731.11, 101430.7, 0.000000033203506, 10.001477, 9.998149 
1.3651481e+3, 2.7457502e+2, 27133.307, -303177.94, -69874.45, 0.13381243, 0.01811352, 41306.484, 290466.66, 0.0000069323874, 10.002662, 9.998279 
1.3651717e+3, 2.8457347e+2, 42146.445, -399716.25, 53903.297, 0.16675293, 0.11216953, 48627.117, 199805.94, 0.00008948749, 10.00277, 9.99688 
1.3651961e+3, 2.945696e+2, 10826.094, -349893.06, 80349.17, 0.16778666, -0.0080349995, 27914.148, 81135.586, 0.00040625758, 10.001806, 9.997014 
1.365218e+3, 3.0456823e+2, 193731.78, -52258.883, -19797.62, 0.07684946, 0.086428724, 195314.92, 195314.92, 0.0010893871, 10.001946, 9.998682 
1.3652399e+3, 3.1456867e+2, 446231.56, 189328.08, -86299.15, 0.18847099, 0.21016574, 472529.28, 472529.28, 0.00210587, 10.003065, 9.999822 
1.374802e+3, 1.24544874e+2, -1738151.5, -1564103.5, -101303.63, 0.09616114, -0.21579708, -1517577.5, 201871.28, 0.0079810945, 9.99906, 10.0014715 
1.3748248e+3, 1.3454603e+2, -1957212.0, -1722619.3, -32631.855, 0.1608299, -0.17452532, -1718164.8, -96728.836, 0.0045821774, 9.997378, 10.000522 
1.3748449e+3, 1.4454712e+2, -1897649.8, -1516732.1, -2526.9053, -0.14117694, -0.16321655, -1516715.4, 6709.772, 0.0018779465, 9.996564, 10.0016365 
1.3748711e+3, 1.5454914e+2, -1642023.4, -1333443.9, 66266.21, 0.089568935, -0.17308275, -1319815.4, 105591.26, 0.00043006244, 9.997615, 10.001713 
1.3748953e+3, 1.645513e+2, -1512907.5, -1278660.3, 8419.686, 0.17840031, -0.09174194, -1278358.0, 49028.895, 0.000029160963, 9.998043, 10.001236 
1.3749161e+3, 1.745536e+2, -1449433.0, -1181204.4, 16904.729, 0.020809168, -0.026627237, -1180143.3, 49222.844, 0.000000027808229, 9.997749, 10.001368 
1.3749376e+3, 1.8455482e+2, -1412063.1, -1195958.5, -35491.9, -0.06004944, 0.004326371, -1190278.8, -58922.715, 0.0, 9.99773, 10.000581 
1.3749601e+3, 1.9455425e+2, -1265806.9, -1069965.8, -53359.566, 0.000035477035, -0.14392056, -1056370.9, -23007.793, 0.0, 9.998037, 10.000626 
1.3749833e+3, 2.0455481e+2, -1118562.8, -964969.06, -12083.285, 0.024288964, -0.13217661, -964024.25, -28666.756, 0.0, 9.99843, 10.000494 
1.3750076e+3, 2.1455653e+2, -948040.25, -819845.56, -7660.7197, 0.011398913, -0.049946453, -819389.4, 17948.916, 0.0, 9.99888, 10.000598 
1.3750315e+3, 2.2455657e+2, -871028.25, -888768.8, -46695.78, 0.0043591615, -0.02535338, -832367.75, -93030.56, 0.0, 9.999435, 9.999175 
1.3750552e+3, 2.345543e+2, -675938.0, -739614.3, -10149.088, 0.0062913485, -0.20527034, -674359.56, -32999.215, 0.0, 10.000081, 9.999214 
1.3750792e+3, 2.4455333e+2, -546121.8, -681580.8, -8399.302, 0.030217709, -0.18818064, -545603.0, -2232.384, 0.0, 10.000513, 9.998744 
1.3751034e+3, 2.545538e+2, -413048.34, -549999.9, 18763.982, 0.0833748, -0.06050027, -410523.97, 34842.547, 0.0, 10.000694, 9.998884 
1.3751268e+3, 2.6455286e+2, -287410.88, -537530.25, -14972.978, 0.056410756, 0.012715392, -286517.75, 60858.16, 0.000000022673568, 10.0013075, 9.998 
1.3751487e+3, 2.745498e+2, -18492.121, -343878.0, -6107.4175, -0.07140995, -0.13463917, -18377.527, 231028.23, 0.0000066245593, 10.002436, 9.998106 
1.3751724e+3, 2.8454795e+2, 100203.91, -246151.98, 2753.7534, -0.06173421, -0.11841942, 100225.805, 251650.95, 0.00008473701, 10.00262, 9.998009 
1.3751979e+3, 2.9454738e+2, 59639.44, -193233.08, 66928.93, 0.13196544, -0.027559422, 76261.24, 129693.81, 0.00038290335, 10.001566, 9.99821 
1.3752204e+3, 3.045458e+2, 112728.03, -182284.02, 11582.885, 0.10518202, 0.014366316, 113182.1, 113182.1, 0.0010283956, 10.00178, 9.997861 
1.3752419e+3, 3.145436e+2, 300349.94, -5939.509, 27956.418, 0.0105258515, -0.02682256, 302880.75, 302880.75, 0.0019973377, 10.002626, 9.99867 
1.3847992e+3, 1.2452262e+2, -1979595.1, -1676944.4, 14369.931, 0.0086283935, -0.15873589, -1676263.6, 43404.2, 0.008351057, 9.997403, 10.001489 
1.3848229e+3, 1.3452268e+2, -1868038.5, -1671496.0, -29535.08, 0.21290773, -0.22973049, -1667153.6, -45489.07, 0.004803759, 9.997971, 10.00059 
1.3848424e+3, 1.44524e+2, -1715500.5, -1400805.4, 104344.69, -0.08466491, -0.2127367, -1369351.4, 154299.45, 0.0019753822, 9.997677, 10.001911 
1.3848688e+3, 1.5452726e+2, -1618836.3, -1286073.6, 87733.79, 0.108463444, -0.12653112, -1264359.3, 161259.8, 0.00045665295, 9.997614, 10.002047 
1.3848929e+3, 1.6452964e+2, -1596525.1, -1333702.0, 19835.195, 0.17673671, -0.035713572, -1332213.4, -4615.907, 0.00003186285, 9.997574, 10.001064 
1.3849136e+3, 1.7453082e+2, -1481744.6, -1214821.8, -17881.217, 0.016212722, -0.0641712, -1213629.3, 15959.263, 0.000000039188958, 9.997637, 10.001176 
1.3849357e+3, 1.8453152e+2, -1387493.6, -1229943.1, 3655.3955, -0.029432328, -0.053601705, -1229858.4, -98274.41, 0.0, 9.99807, 10.0002 
1.3849595e+3, 1.9453141e+2, -1120112.0, -1032792.1, 1345.3385, 0.08336392, -0.123977914, -1032771.4, 815.40533, 0.0, 9.99917, 10.000339 
1.3849832e+3, 2.0453183e+2, -971525.4, -952065.0, 79777.38, 0.10100039, -0.08827997, -881426.6, 54156.707, 0.0, 9.999692, 9.999969 
1.3850066e+3, 2.1453261e+2, -873464.0, -840257.44, 42647.492, 0.006620687, -0.049909372, -811095.25, 26479.62, 0.0, 9.999632, 10.000092 
1.3850309e+3, 2.2453217e+2, -809913.75, -851104.5, 33603.023, -0.0057354067, -0.053790215, -791096.8, -51518.26, 0.0, 9.9998, 9.999266 
1.3850561e+3, 2.3453e+2, -612604.1, -693626.2, 7572.8613, 0.077970065, -0.23517945, -611902.4, 29696.697, 0.0, 10.000436, 9.999364 
1.3850805e+3, 2.4452935e+2, -475120.0, -635868.75, 15412.679, 0.12051154, -0.19721253, -473655.6, 69949.93, 0.0, 10.000956, 9.998837 
1.3851047e+3, 2.5453037e+2, -301439.47, -487834.38, -5624.528, 0.10197708, -0.02325628, -301269.88, 144327.1, 0.0, 10.001412, 9.998965 
1.385128e+3, 2.645296e+2, -198467.17, -457669.3, 17323.973, 0.035245106, 0.04109396, -197314.44, 150290.73, 0.0000000049794013, 10.001756, 9.998334 
1.3851507e+3, 2.7452627e+2, -39676.824, -317330.13, 30360.998, -0.09394995, -0.16391523, -36395.664, 213240.63, 0.0000064670485, 10.002106, 9.998458 
1.3851745e+3, 2.8452465e+2, 45746.547, -236986.67, 14798.951, -0.06748642, -0.15192443, 46519.05, 198170.7, 0.00007994395, 10.002082, 9.998348 
1.3851996e+3, 2.9452482e+2, 126514.52, -111382.28, -23382.451, 0.15489489, -0.026429279, 128790.96, 182441.86, 0.00035496187, 10.001806, 9.998659 
1.385223e+3, 3.045224e+2, 174043.45, -219413.19, 501.03568, 0.14857234, -0.06024665, 174044.1, 174044.1, 0.00095268304, 10.0024805, 9.997266 
1.3852452e+3, 3.1451914e+2, 472410.66, 18357.041, -7405.373, 0.03508653, -0.15064259, 472531.38, 472531.38, 0.0018603744, 10.004032, 9.9981575 
1.3947964e+3, 1.2450088e+2, -1957772.9, -1608333.6, 111241.29, -0.06792284, -0.016241172, -1575926.3, 143957.97, 0.008733579, 9.997328, 10.001987 
1.3948196e+3, 1.3450122e+2, -1787277.1, -1500795.9, -12595.725, 0.06254091, -0.18061376, -1500243.1, 121632.12, 0.005033633, 9.997959, 10.001765 
1.3948426e+3, 1.4450282e+2, -1734028.8, -1446757.4, 74408.875, 0.12077518, -0.17835042, -1428628.1, 95228.47, 0.002076125, 9.99771, 10.001578 
1.3948655e+3, 1.5450564e+2, -1650249.9, -1345652.4, 103149.27, -0.01495914, -0.098674275, -1314009.0, 111820.44, 0.00048381835, 9.997588, 10.001651 
1.3948886e+3, 1.6450709e+2, -1623018.5, -1387696.6, 1749.0565, -0.051920127, -0.06080161, -1387683.6, -59866.73, 0.000034571214, 9.997569, 10.000696 
1.3949113e+3, 1.7450674e+2, -1523976.6, -1282969.4, -3801.9292, -0.018660355, -0.20272751, -1282909.5, -53085.703, 0.00000005013657, 9.997554, 10.000751 
1.3949345e+3, 1.8450779e+2, -1370872.6, -1184134.9, 21665.666, 0.011169768, -0.15047663, -1181654.1, -49838.285, 0.0, 9.998024, 10.000534 
1.3949588e+3, 1.9451031e+2, -1115605.0, -994900.2, 56670.234, 0.07591947, 0.008793289, -972464.1, 61327.715, 0.0, 9.999043, 10.000665 
1.3949831e+3, 2.0451096e+2, -1031659.6, -1043585.6, 62430.707, 0.09590215, 0.076908596, -974907.8, -39121.164, 0.0, 9.999547, 9.999408 
1.3950069e+3, 2.1450907e+2, -952559.8, -948865.1, 53569.973, 0.060339898, -0.08900876, -897110.7, -59304.215, 0.0, 9.999398, 9.999456 
1.3950312e+3, 2.2450827e+2, -852298.9, -900294.06, 39942.813, 0.03361502, -0.0832564, -829699.1, -89883.875, 0.0, 9.999616, 9.999022 
1.3950561e+3, 2.345086e+2, -657297.8, -742958.3, 49765.61, 0.03370393, 0.005875959, -634469.5, 7342.863, 0.0, 10.000235, 9.999126 
1.3950805e+3, 2.4450806e+2, -513936.63, -661654.4, 16691.398, -0.0015581017, 0.06565067, -512074.06, 31743.814, 0.0, 10.000725, 9.998771 
1.3951044e+3, 2.5450596e+2, -350130.38, -521459.6, 29278.137, -0.07992879, -0.060526814, -345265.25, 100572.586, 0.0, 10.001135, 9.998862 
1.3951287e+3, 2.6450473e+2, -176956.25, -365676.94, 15433.181, -0.11052843, -0.068712875, -175702.48, 172146.92, 0.0000000011462398, 10.001546, 9.99907 
1.3951534e+3, 2.7450442e+2, -20964.639, -222272.2, 62787.74, -0.06914645, -0.057399012, -2986.7063, 246864.75, 0.0000063015364, 10.001856, 9.999236 
1.3951775e+3, 2.8450373e+2, -18305.043, -316184.34, -11990.224, -0.0063126925, 0.026888413, -17823.193, 134034.52, 0.000075522126, 10.001857, 9.997909 
1.3952011e+3, 2.9450193e+2, 52450.188, -210819.36, -10549.913, 0.08356007, 0.010086774, 52872.277, 106747.805, 0.00033164787, 10.00158, 9.998083 
1.3952248e+3, 3.0449817e+2, 127460.555, -278161.2, 39620.69, 0.067840956, -0.10965398, 131294.42, 131294.42, 0.0008920203, 10.002313, 9.996945 
1.3952492e+3, 3.1449565e+2, 405615.06, 3225.221, 105554.414, -0.010640563, -0.09943472, 431622.97, 431622.97, 0.00174856, 10.003518, 9.9983 
1.4047949e+3, 1.24477796e+2, -2094467.6, -1666856.1, 102365.625, 0.1187956, 0.03933364, -1643614.3, 76497.734, 0.009133226, 9.996312, 10.002083 
1.404816e+3, 1.3447902e+2, -1803062.6, -1433772.5, -74868.81, -0.04951274, -0.10685744, -1419171.1, 202923.19, 0.005275387, 9.997494, 10.002462 
1.4048417e+3, 1.444808e+2, -1729852.4, -1437011.9, 9503.202, 0.27252418, -0.13221999, -1436703.8, 87370.125, 0.0021822979, 9.997716, 10.001636 
1.4048629e+3, 1.5448295e+2, -1729984.1, -1385178.6, 22669.164, 0.012745051, -0.11633306, -1383694.8, 42357.55, 0.00051218417, 9.997055, 10.001631 
1.4048856e+3, 1.6448405e+2, -1683181.1, -1438510.3, 24353.72, -0.08144071, -0.101699226, -1436109.6, -108067.016, 0.000037386584, 9.997241, 10.000507 
1.4049096e+3, 1.744838e+2, -1343415.4, -1208339.8, 6955.6597, 0.010600064, -0.22294006, -1207982.5, 22066.193, 0.00000006103049, 9.998844, 10.000635 
1.4049336e+3, 1.8448491e+2, -1173494.6, -1085990.5, 48830.133, 0.062596604, -0.15990114, -1064178.6, 67860.75, 0.0, 9.999372, 10.000557 
1.4049575e+3, 1.9448747e+2, -1161653.0, -1009931.7, 23237.686, 0.07465431, -0.0043745367, -1006452.4, 27561.191, 0.0, 9.998696, 10.000729 
1.404982e+3, 2.0448793e+2, -1161677.9, -1169397.6, 68992.445, 0.08966801, 0.06835073, -1096437.4, -160426.88, 0.0, 9.998926, 9.998853 
1.4050072e+3, 2.1448562e+2, -828947.94, -946840.9, 32793.25, 0.096291214, -0.0828926, -820440.1, 17597.309, 0.0, 10.0005045, 9.998938 
1.4050321e+3, 2.2448476e+2, -623227.75, -797651.44, 42795.05, 0.08242739, -0.049824018, -613293.75, 126754.47, 0.0, 10.001236, 9.998941 
1.4050569e+3, 2.3448546e+2, -552133.2, -691188.94, 29300.4, 0.048489776, 0.07900192, -546211.5, 95830.05, 0.0, 10.000958, 9.999129 
1.4050813e+3, 2.4448478e+2, -486875.94, -630392.44, 48248.33, 0.00532333, 0.11957092, -472163.7, 71883.74, 0.0, 10.000829, 9.998938 
1.4051054e+3, 2.5448215e+2, -360418.6, -498720.6, 50437.316, -0.06698109, -0.08232617, -343978.78, 102092.836, 0.0, 10.000953, 9.999102 
1.4051302e+3, 2.6448086e+2, -254948.63, -400779.2, 55447.01, -0.0753483, -0.10777429, -236261.45, 111822.125, 0.0000000047036606, 10.001009, 9.999085 
1.4051554e+3, 2.7448127e+2, -133766.73, -269135.97, 294.6957, 0.0035070071, -0.022946237, -133766.1, 116314.04, 0.000006310061, 10.001078, 9.999278 
1.4051798e+3, 2.8448072e+2, -17570.688, -326259.16, -35352.617, 0.052203197, 0.07636927, -13573.675, 138511.86, 0.00007178299, 10.001898, 9.997816 
1.4052033e+3, 2.944782e+2, 326173.47, -93976.086, -33041.254, 0.06902583, 0.0010918, 328756.0, 382865.2, 0.0003183702, 10.003518, 9.997956 
1.4052278e+3, 3.0447456e+2, 331899.9, -175082.19, 57518.58, 0.074680954, -0.10233111, 338343.66, 338343.66, 0.0008620041, 10.003707, 9.996979 
1.405253e+3, 3.144728e+2, 258864.63, -10604.606, 75614.75, 0.07661186, -0.023677217, 278632.47, 278632.47, 0.0016920328, 10.00225, 9.998821 
1.4147907e+3, 1.244528e+2, -2101744.3, -1682855.6, -181881.7, -0.010488681, -0.06745406, -1614905.1, 105451.305, 0.009556688, 9.996316, 10.001979 
1.4148118e+3, 1.344562e+2, -1793461.9, -1402039.4, -13667.514, -0.26689067, -0.011501277, -1401562.8, 220758.4, 0.0055341963, 9.997448, 10.002706 
1.414839e+3, 1.4445779e+2, -1697183.0, -1376370.6, -37031.746, 0.19142358, -0.09029702, -1372151.5, 152151.98, 0.0022969088, 9.997745, 10.002039 
1.4148608e+3, 1.5445909e+2, -1714266.3, -1348041.0, 9702.446, 0.069321565, -0.1882716, -1347784.1, 78504.38, 0.0005425403, 9.997033, 10.001899 
1.4148837e+3, 1.644606e+2, -1664329.4, -1404610.1, 57006.938, -0.040292524, -0.15839748, -1392648.4, -64374.414, 0.000040406845, 9.997259, 10.000737 
1.4149085e+3, 1.7446226e+2, -1338533.1, -1182647.5, 83006.98, -0.025825314, -0.104664475, -1146725.4, 83535.58, 0.00000007226826, 9.998775, 10.000853 
1.4149325e+3, 1.8446317e+2, -1199212.1, -1126537.4, 10128.761, -0.021506662, -0.060873378, -1125152.1, 7100.2456, 0.0, 9.999322, 10.000297 
1.4149553e+3, 1.9446288e+2, -1204516.8, -1070274.9, 10137.763, -0.04825114, -0.15963693, -1069513.6, -35261.355, 0.0, 9.998575, 10.000371 
1.4149798e+3, 2.0446265e+2, -1213483.6, -1246923.1, 101150.99, -0.049338877, -0.11495143, -1127679.9, -191423.6, 0.0, 9.998789, 9.998389 
1.415007e+3, 2.1446228e+2, -898927.1, -1039551.06, 106824.414, -0.0016051048, -0.023154259, -841351.5, -3083.9963, 0.0, 10.000268, 9.998421 
1.4150329e+3, 2.2446163e+2, -650792.06, -797094.56, 17674.951, 0.014126667, 0.05043678, -648687.0, 91590.46, 0.0, 10.000989, 9.999061 
1.4150575e+3, 2.3446044e+2, -584673.06, -697340.5, 34156.855, -0.004829292, -0.019912366, -575126.75, 67160.664, 0.0, 10.000699, 9.99921 
1.4150822e+3, 2.4445964e+2, -481220.88, -574327.56, 38311.55, -0.012473031, -0.019106558, -467483.38, 76810.09, 0.0, 10.0006275, 9.99942 
1.4151073e+3, 2.5445896e+2, -349765.78, -437350.8, 73331.125, -0.0026020233, -0.07906535, -308146.13, 138151.52, 0.0, 10.000776, 9.99961 
1.4151321e+3, 2.6445803e+2, -334691.88, -524895.06, 41092.434, 0.0018428615, -0.059304852, -326193.75, 22113.11, 0.000000079284355, 10.000833, 9.998317 
1.4151566e+3, 2.7445668e+2, -227812.08, -415747.3, 26031.738, -0.011818746, -0.06509866, -224272.95, 26050.568, 0.000007370644, 10.000868, 9.998374 
1.4151812e+3, 2.8445548e+2, -14817.6045, -280665.22, 9483.0205, -0.04055877, -0.002127167, -14479.767, 137856.63, 0.00007207351, 10.001723, 9.998211 
1.415206e+3, 2.9445374e+2, 313104.03, -57802.33, 53619.87, -0.041841313, -0.053254806, 320700.0, 375051.56, 0.00031938194, 10.003236, 9.998345 
1.4152311e+3, 3.0445135e+2, 298633.47, -175011.44, -1523.8365, 0.010133586, -0.04885021, 298638.38, 298638.38, 0.00086451345, 10.003432, 9.997094 
1.4152552e+3, 3.1445044e+2, 231487.67, 35869.73, 69021.55, 0.038926065, 0.092104785, 253389.06, 253389.06, 0.0016914787, 10.0018425, 9.999316 
1.4247875e+3, 1.2442963e+2, -2065859.9, -1669741.3, -139661.3, 0.032761574, -0.18065324, -1625452.1, 95129.47, 0.010011913, 9.996612, 10.001926 
1.4248088e+3, 1.3443379e+2, -2081181.1, -1573888.3, 80146.8, -0.1908108, -0.0071360585, -1561527.1, 61014.254, 0.0058154534, 9.995663, 10.002373 
1.4248347e+3, 1.4443512e+2, -1972901.1, -1532512.4, 60353.742, 0.08775862, -0.0878057, -1524390.9, 136.93903, 0.002423067, 9.995964, 10.001818 
1.4248586e+3, 1.5443626e+2, -1682136.8, -1357906.6, 23888.715, 0.13968243, -0.17845303, -1356156.0, 70358.12, 0.00057589856, 9.997374, 10.001656 
1.4248823e+3, 1.6443788e+2, -1580859.6, -1361836.4, 88956.17, 0.07493213, -0.12638618, -1330259.4, -1761.3135, 0.00004378684, 9.997816, 10.000756 
1.4249067e+3, 1.7443998e+2, -1536820.8, -1272255.9, 66687.414, 0.01477825, -0.03749268, -1256397.0, -25916.963, 0.00000008454083, 9.997379, 10.000906 
1.4249311e+3, 1.8444057e+2, -1423571.5, -1276106.5, 20401.916, -0.004659101, -0.013767286, -1273335.9, -140861.48, 0.0, 9.997955, 9.99993 
1.4249547e+3, 1.9443914e+2, -1024740.1, -1021015.7, -13545.831, -0.02425986, -0.18584041, -1009204.6, 25280.67, 0.0, 9.999977, 10.000029 
1.4249799e+3, 2.0443855e+2, -918045.4, -1097808.6, 122512.37, -0.020067642, -0.16180995, -855979.7, 80512.76, 0.0, 10.000781, 9.99845 
1.4250073e+3, 2.1443862e+2, -909605.2, -1037044.8, 136133.83, 0.028112447, -0.035425995, -823016.56, 15482.111, 0.0, 10.000138, 9.998506 
1.4250335e+3, 2.2443809e+2, -784390.2, -834494.2, 95961.16, 0.051484127, 0.032180443, -710264.8, 30241.912, 0.0, 9.999953, 9.999311 
1.4250582e+3, 2.3443668e+2, -595800.6, -670970.7, 88861.914, 0.031418912, -0.085403614, -536902.1, 105616.12, 0.0, 10.000481, 9.999507 
1.4250834e+3, 2.444361e+2, -459501.94, -569246.8, 115760.88, 0.035309877, -0.074745044, -386266.75, 158255.6, 0.0, 10.000803, 9.9993725 
1.4251088e+3, 2.5443622e+2, -314105.53, -427705.03, 71439.516, 0.06998319, -0.047185168, -279637.47, 166882.9, 0.00000000006254562, 10.001046, 9.99955 
1.425134e+3, 2.6443535e+2, -224640.97, -491036.3, 83283.21, 0.062330373, -0.012386501, -200747.22, 147782.28, 0.00000036239143, 10.001662, 9.998146 
1.4251584e+3, 2.744332e+2, 36393.223, -302080.03, 87987.57, -0.008837314, -0.08523719, 57899.48, 308452.1, 0.000010087366, 10.002732, 9.998252 
1.4251833e+3, 2.8443167e+2, 160230.19, -211770.7, 117961.27, -0.052439142, -0.040099036, 194481.94, 347050.53, 0.00007872079, 10.002995, 9.998081 
1.425209e+3, 2.9443038e+2, 195338.3, -125641.055, 63929.297, -0.01846433, -0.029407205, 207602.45, 262184.03, 0.00033516844, 10.002479, 9.998241 
1.4252347e+3, 3.0442837e+2, 197755.44, -264247.9, -1899.3523, 0.069388784, 0.027582727, 197763.25, 197763.25, 0.0008965645, 10.0028715, 9.996775 
1.4252584e+3, 3.1442574e+2, 547346.5, 160683.72, -17511.725, 0.06661325, 0.026698802, 548137.94, 548137.94, 0.0017444047, 10.004102, 9.9991045 
1.4347836e+3, 1.2440972e+2, -2048645.6, -1650558.8, -186624.8, -0.09485808, -0.1875438, -1576752.1, 144021.38, 0.010506618, 9.996655, 10.002043 
1.4348073e+3, 1.3441211e+2, -2166912.0, -1736879.8, 74267.91, 0.06721598, -0.08758551, -1724414.8, -101662.63, 0.006123269, 9.995602, 10.001273 
1.4348282e+3, 1.4441292e+2, -2020085.5, -1635932.4, 94830.97, -0.20031202, -0.13117307, -1613798.0, -89052.95, 0.002563054, 9.995978, 10.001109 
1.4348559e+3, 1.5441474e+2, -1740714.9, -1472760.1, 95088.41, 0.08443312, -0.07805897, -1442445.9, -15719.406, 0.0006133788, 9.997336, 10.000894 
1.4348808e+3, 1.6441609e+2, -1598441.5, -1395371.4, 53165.563, 0.110018164, -0.001029886, -1382294.3, -53580.875, 0.000047750204, 9.997807, 10.000531 
1.4349045e+3, 1.7441669e+2, -1559014.0, -1309818.6, 61446.617, 0.004388953, -0.039576117, -1295490.9, -64782.105, 0.00000010052836, 9.997336, 10.000673 
1.4349294e+3, 1.844169e+2, -1457125.4, -1329572.0, 70810.27, -0.019617314, -0.024209373, -1298051.5, -165344.28, 0.0, 9.997888, 9.999596 
1.4349553e+3, 1.9441637e+2, -1068962.9, -1084757.3, 78010.41, 0.013614425, -0.07249432, -998450.94, 36260.965, 0.0, 9.999853, 9.999653 
1.4349814e+3, 2.0441575e+2, -895826.75, -1018059.9, 84218.4, 0.025710361, -0.06263076, -852885.75, 83832.65, 0.0, 10.000634, 9.999065 
1.4350079e+3, 2.144147e+2, -899780.1, -965589.75, 126717.24, 0.051129553, -0.11366371, -801765.2, 36964.965, 0.0, 9.999912, 9.9991045 
1.4350338e+3, 2.2441418e+2, -795409.8, -795887.75, 96965.92, 0.05588547, -0.09125825, -698682.56, 42052.668, 0.0, 9.999698, 9.999695 
1.435059e+3, 2.3441418e+2, -608675.56, -633368.25, 126159.18, 0.03248722, -0.10966324, -494260.03, 148473.6, 0.0, 10.000217, 9.999887 
1.4350842e+3, 2.4441408e+2, -532977.44, -670820.8, 105074.445, 0.01676472, -0.043704715, -476237.5, 68497.59, 0.0, 10.000579, 9.998786 
1.4351097e+3, 2.544137e+2, -400262.47, -545499.1, 96484.02, 0.023390658, -0.00043302518, -352122.4, 94619.61, 0.000000006122379, 10.000787, 9.998865 
1.435135e+3, 2.6441276e+2, -214055.7, -425913.0, 106018.82, -0.020415807, 0.037141524, -170114.84, 178637.0, 0.0000008787704, 10.001469, 9.9986925 
1.4351602e+3, 2.7441075e+2, 48279.492, -230799.86, 147732.11, -0.122860506, -0.07546963, 111954.23, 362722.1, 0.000014147242, 10.002525, 9.998852 
1.4351857e+3, 2.8440925e+2, 79556.97, -332621.1, 82626.25, -0.13439497, -0.027986573, 95503.484, 248286.86, 0.000090681104, 10.0027895, 9.997348 
1.4352117e+3, 2.9440793e+2, 91813.664, -286177.22, 67371.805, -0.02028855, 0.060264792, 103462.77, 158265.14, 0.0003647409, 10.002231, 9.997265 
1.435238e+3, 3.044054e+2, 130701.48, -341914.3, 26126.152, 0.08879166, 0.14579074, 132141.34, 132141.34, 0.0009617202, 10.002636, 9.996342 
1.4352614e+3, 3.1439918e+2, 428773.34, 27987.885, 77687.14, -0.09733656, -0.17892335, 443305.1, 443305.1, 0.001861219, 10.003626, 9.998421 
1.4447781e+3, 1.243884e+2, -2272906.8, -1769514.5, -160235.94, -0.2078575, -0.14360997, -1722837.5, -1855.0077, 0.011047917, 9.995149, 10.001945 
1.4448047e+3, 1.3438989e+2, -2123180.3, -1782710.1, -31310.086, 0.22679105, -0.08388008, -1779854.8, -156883.84, 0.00646129, 9.996171, 10.000682 
1.4448242e+3, 1.4439027e+2, -1886183.8, -1616940.0, 90976.36, -0.24153177, -0.11649455, -1589081.9, -64113.49, 0.0027186894, 9.99711, 10.000678 
1.4448535e+3, 1.5439165e+2, -1653727.8, -1467927.9, 71951.55, 0.094455235, -0.073340826, -1443322.8, -16369.245, 0.0006559602, 9.998101, 10.000551 
1.4448793e+3, 1.6439243e+2, -1539506.9, -1410091.1, 25914.752, 0.15891312, -0.016348552, -1405094.8, -76149.06, 0.000052490832, 9.998404, 10.000142 
1.4449024e+3, 1.7439234e+2, -1446132.4, -1290321.1, -11492.092, 0.03972924, -0.08517153, -1289478.1, -58530.617, 0.00000012546444, 9.998283, 10.000342 
1.4449278e+3, 1.8439247e+2, -1366457.8, -1290918.4, 97274.54, 0.024914868, -0.0591867, -1224338.3, -91391.16, 0.0, 9.998511, 9.999569 
1.4449555e+3, 1.9439259e+2, -1160540.0, -1124784.4, 102466.09, 0.0845389, -0.04572144, -1038648.2, -3701.7573, 0.0, 9.999198, 9.999694 
1.444982e+3, 2.0439228e+2, -1007999.0, -1029947.2, 91712.2, 0.09033026, -0.024490556, -926606.7, 10342.837, 0.0, 9.999703, 9.999431 
1.4450079e+3, 2.1439119e+2, -843911.7, -885417.8, 75107.484, 0.06189765, -0.117039345, -786742.8, 52216.574, 0.0, 10.000102, 9.999554 
1.445034e+3, 2.2439072e+2, -686411.44, -768453.94, 73975.664, 0.064575456, -0.103197575, -642844.6, 98118.95, 0.0, 10.000535, 9.999486 
1.44506e+3, 2.3439074e+2, -512006.3, -612285.0, 28851.072, 0.0938269, -0.097846344, -504298.1, 138665.19, 0.0, 10.000972, 9.999669 
1.4450859e+3, 2.4439047e+2, -426642.1, -638747.25, 29559.113, 0.08874674, -0.029063689, -422599.75, 122367.39, 0.0, 10.001398, 9.998608 
1.445111e+3, 2.5438964e+2, -235872.3, -488097.94, 24093.273, 0.038581595, -0.012588925, -233591.47, 213387.03, 0.000000012932129, 10.001991, 9.998688 
1.4451367e+3, 2.6438856e+2, -108596.13, -367940.66, 71950.03, -0.010911965, 0.019011607, -89972.4, 259016.72, 0.0000016431604, 10.002172, 9.998752 
1.4451629e+3, 2.7438688e+2, -24302.54, -253364.73, 31643.195, -0.06325126, -0.07032191, -20011.652, 230989.66, 0.000019343763, 10.001985, 9.998949 
1.4451887e+3, 2.8438517e+2, -17821.098, -407723.03, -10106.283, -0.073831886, -0.036723495, -17559.316, 135459.34, 0.00010742439, 10.002237, 9.997094 
1.4452143e+3, 2.9438335e+2, 182714.8, -263592.94, -13430.663, -0.010808438, 0.027047727, 183118.6, 238161.7, 0.0004102239, 10.002953, 9.997059 
1.445241e+3, 3.0438122e+2, 300583.72, -189825.92, 78463.945, 0.09826376, 0.13441375, 312831.78, 312831.78, 0.001066146, 10.0034895, 9.99699 
1.4452656e+3, 3.143757e+2, 463460.0, 84028.54, 117496.17, -0.029905077, -0.1909913, 496897.63, 496897.63, 0.0020519032, 10.003711, 9.998757 
1.454775e+3, 1.2436571e+2, -2307542.8, -1850845.4, 60425.14, -0.11999772, -0.07907397, -1842985.9, -121777.5, 0.011640448, 9.995183, 10.001374 
1.4548004e+3, 1.3436738e+2, -2142396.8, -1810129.8, 24575.615, 0.1569003, 0.0026774611, -1808321.9, -185125.88, 0.0068325973, 9.996114, 10.000527 
1.4548221e+3, 1.443674e+2, -1900115.3, -1650940.9, 111524.766, -0.20782869, -0.034744907, -1608316.4, -83120.73, 0.0028915813, 9.997134, 10.000429 
1.4548512e+3, 1.5436685e+2, -1662986.0, -1480196.4, 121708.72, 0.024650432, -0.17699286, -1419387.3, 7809.2124, 0.00070428615, 9.998076, 10.000478 
1.4548773e+3, 1.6436683e+2, -1563227.1, -1468086.6, -889.5215, 0.07825788, -0.17789352, -1468078.4, -138883.13, 0.000058062662, 9.998437, 9.99973 
1.4549005e+3, 1.7436706e+2, -1485712.3, -1362660.5, -525.65546, -0.0069829896, -0.17093824, -1362658.3, -131462.89, 0.00000016567238, 9.99824, 9.999868 
1.4549263e+3, 1.8436737e+2, -1347445.9, -1242930.4, 103942.69, -0.012556689, -0.11618233, -1178848.4, -45654.85, 0.0, 9.998472, 9.99992 
1.4549546e+3, 1.9436777e+2, -1152372.4, -1080932.1, 143482.33, 0.059424467, -0.11011916, -968790.5, 66398.766, 0.0, 9.999074, 10.000063 
1.4549816e+3, 2.0436807e+2, -1029032.2, -1029099.06, 88436.22, 0.040060334, -0.04985251, -940629.4, -3443.0088, 0.0, 9.99952, 9.99952 
1.4550069e+3, 2.1436796e+2, -873727.56, -890845.0, 105076.27, -0.06816812, -0.054859374, -776862.0, 62325.906, 0.0, 9.999866, 9.99963 
1.4550333e+3, 2.243675e+2, -766791.56, -878799.2, 73183.42, -0.06404097, -0.014732121, -730642.0, 10551.665, 0.0, 10.000293, 9.998845 
1.455061e+3, 2.3436645e+2, -607162.8, -739954.9, 62691.492, 0.07991507, -0.042594306, -582242.6, 60963.582, 0.0, 10.000679, 9.998933 
1.4550877e+3, 2.4436545e+2, -444165.97, -622253.94, 37497.51, 0.10507241, -0.01798127, -436592.7, 108624.18, 0.0, 10.001161, 9.998839 
1.4551127e+3, 2.5436428e+2, -245069.17, -460585.25, 66342.95, -0.014031636, -0.063790776, -226284.0, 220943.53, 0.000000017460069, 10.001785, 9.9989805 
1.4551388e+3, 2.6436302e+2, -170828.39, -453231.38, 52095.785, -0.054451402, -0.042624574, -161524.63, 187714.45, 0.000002726617, 10.00198, 9.998257 
1.4551659e+3, 2.7436137e+2, -98701.47, -351741.44, 44752.152, 0.01323695, -0.07741188, -91019.875, 160234.1, 0.000025176965, 10.001747, 9.998383 
1.4551918e+3, 2.8435934e+2, -24955.484, -364793.16, 175.81654, -0.01194529, -0.06309073, -24955.395, 128319.05, 0.00012773139, 10.001996, 9.997503 
1.4552163e+3, 2.9435676e+2, 186480.47, -204996.77, 38247.414, -0.13804585, -0.124752566, 190182.23, 245484.95, 0.00046808438, 10.002733, 9.997571 
1.4552432e+3, 3.0435592e+2, 374106.47, 14042.802, 74348.805, -0.043287497, 0.010184448, 388854.53, 388854.53, 0.00120209, 10.003269, 9.998497 
1.45527e+3, 3.1435466e+2, 452363.34, 161241.23, 158943.8, -0.009351125, -0.04213541, 522327.6, 522327.6, 0.002305336, 10.003272, 9.999506 
1.4647718e+3, 1.2434152e+2, -2408157.8, -1895646.8, 65878.7, 0.087926745, 0.026307812, -1887314.1, -165863.3, 0.012283002, 9.994493, 10.001399 
1.4647962e+3, 1.3434294e+2, -2126349.3, -1763721.6, -80294.78, 0.13773015, 0.05260692, -1746737.9, -123297.914, 0.00723705, 9.9960785, 10.000854 
1.46482e+3, 1.4434314e+2, -1995250.9, -1705302.8, 70009.34, -0.08968567, 0.02485512, -1689283.8, -163846.48, 0.0030819494, 9.996492, 10.000385 
1.4648488e+3, 1.5434238e+2, -1823922.8, -1545034.0, 55414.785, 0.044382885, -0.14607686, -1534426.5, -106987.055, 0.0007585455, 9.996896, 10.000612 
1.4648752e+3, 1.6434236e+2, -1707978.0, -1541628.0, -16598.584, 0.09233389, -0.15416788, -1539987.9, -210550.02, 0.00006440502, 9.997453, 9.999698 
1.464899e+3, 1.7434272e+2, -1455040.3, -1355169.5, -21633.912, 0.020579733, -0.1288504, -1350684.6, -119247.63, 0.00000022299002, 9.998462, 9.999816 
1.4649251e+3, 1.8434305e+2, -1249219.9, -1174056.4, 128694.98, 0.01919541, -0.07716687, -1077568.1, 55866.598, 0.0, 9.999096, 10.0000725 
1.4649542e+3, 1.9434339e+2, -1067050.5, -1013135.44, 116335.29, 0.09618018, -0.09943804, -920675.2, 114754.96, 0.0, 9.999578, 10.000267 
1.4649816e+3, 2.043437e+2, -966907.9, -990400.56, 79551.82, 0.07897075, -0.05093549, -898239.9, 39186.598, 0.0, 9.999887, 9.999622 
1.4650069e+3, 2.1434382e+2, -833504.8, -857176.9, 72807.14, -0.05255524, -0.043629743, -771577.94, 67848.016, 0.0, 10.000066, 9.999772 
1.4650337e+3, 2.2434345e+2, -756266.7, -883186.5, 104228.73, -0.051017463, 0.0021131795, -697698.75, 43732.15, 0.0, 10.000429, 9.998739 
1.4650622e+3, 2.3434217e+2, -535553.2, -718511.25, 99198.43, 0.11662572, -0.034677345, -492092.47, 151353.11, 0.0, 10.00123, 9.998811 
1.4650893e+3, 2.4434097e+2, -370832.72, -587811.44, 112915.29, 0.14907883, -0.023242492, -322734.1, 222723.7, 0.0, 10.001671, 9.99883 
1.4651145e+3, 2.5433975e+2, -251622.4, -456470.63, 85408.75, -0.0041406583, -0.07598941, -220684.78, 226783.22, 0.000000044837254, 10.001724, 9.999027 
1.4651407e+3, 2.6433843e+2, -183799.97, -491256.44, 95247.32, -0.043423768, -0.047797777, -156684.56, 192795.34, 0.0000038968087, 10.002024, 9.997979 
1.4651684e+3, 2.7433679e+2, 16707.947, -330537.34, 78287.43, 0.064132445, -0.04996299, 33541.977, 285038.1, 0.000030518888, 10.00267, 9.998094 
1.4651948e+3, 2.843346e+2, 151035.16, -264198.25, 81758.86, 0.050683215, -0.04539741, 166553.4, 320071.25, 0.00014669454, 10.003137, 9.997649 
1.4652196e+3, 2.943317e+2, 294340.2, -129159.53, 43275.184, -0.10243141, -0.14925924, 298717.03, 354263.06, 0.00052534003, 10.003391, 9.997767 
1.4652467e+3, 3.0433038e+2, 409556.88, 30528.016, 32742.457, -0.019897113, -0.0768076, 412364.53, 412364.53, 0.0013448142, 10.003528, 9.998468 
1.4652738e+3, 3.1432986e+2, 405526.28, 98628.85, -60928.242, 0.07536316, -0.037562232, 417179.8, 417179.8, 0.0025808993, 10.003114, 9.999144 
1.4747661e+3, 1.2431479e+2, -2349120.3, -1774585.8, -43814.977, -0.005563969, 0.108366914, -1771263.5, -49543.254, 0.012969953, 9.994522, 10.0021925 
1.474791e+3, 1.3431647e+2, -2079856.6, -1651513.3, -31981.244, -0.013979404, 0.07519854, -1649138.6, -25434.291, 0.0076708426, 9.996023, 10.001638 
1.4748174e+3, 1.4431736e+2, -1954193.8, -1640798.6, 53340.867, -0.055074777, 0.055600677, -1631968.6, -106274.09, 0.0032881629, 9.996564, 10.000801 
1.4748457e+3, 1.5431848e+2, -1804849.0, -1494400.1, 84656.62, 0.019380093, 0.035324518, -1472815.8, -45135.074, 0.00081847684, 9.996843, 10.00099 
1.4748727e+3, 1.6431934e+2, -1676796.5, -1484096.0, 1180.3763, 0.048745118, 0.076761164, -1484088.8, -154417.56, 0.000071419374, 9.997476, 10.000082 
1.4748974e+3, 1.7431964e+2, -1440103.8, -1307658.4, 30701.76, -0.013082733, 0.05708044, -1300887.6, -69217.805, 0.0000002932695, 9.998395, 10.000169 
1.4749244e+3, 1.8431973e+2, -1256237.1, -1191645.5, 127698.76, -0.019064732, 0.072701864, -1092221.9, 41446.75, 0.0, 9.999094, 9.99996 
1.4749537e+3, 1.9431932e+2, -1090699.9, -1041577.06, 148749.56, 0.059753116, -0.00921887, -915374.75, 120295.06, 0.0, 9.999479, 10.000127 
1.4749815e+3, 2.0431907e+2, -969576.4, -962318.75, 66725.09, 0.058644727, -0.02270617, -899123.8, 38546.754, 0.0, 9.999742, 9.999882 
1.4750074e+3, 2.1431893e+2, -851152.0, -837567.8, 92004.78, -0.033288956, -0.072355576, -752104.75, 87567.28, 0.0, 9.999826, 10.000019 
1.4750345e+3, 2.2431867e+2, -763608.1, -852125.7, 113973.89, -0.03542318, -0.04272624, -685601.25, 56073.297, 0.0, 10.000212, 9.999067 
1.4750633e+3, 2.3431793e+2, -539639.3, -683069.25, 145770.58, 0.074549206, -0.06170023, -448897.84, 194783.69, 0.0, 10.00103, 9.999159 
1.4750904e+3, 2.4431704e+2, -416650.44, -635752.6, 97913.0, 0.06999268, -0.028267972, -379271.63, 166418.58, 0.0, 10.001465, 9.998599 
1.4751157e+3, 2.543158e+2, -306541.28, -516671.2, 100998.56, -0.06889238, -0.058196943, -265868.97, 181833.52, 0.000000082863835, 10.00149, 9.998729 
1.4751422e+3, 2.643146e+2, -218595.64, -509260.3, 103486.63, -0.115930185, -0.001841422, -185515.61, 164198.48, 0.0000048986644, 10.001787, 9.997967 
1.4751703e+3, 2.7431312e+2, -15305.255, -342405.75, 126171.02, -0.049898826, 0.005210245, 27706.379, 279434.63, 0.00003489947, 10.002436, 9.998119 
1.4751974e+3, 2.8431094e+2, 90715.17, -337804.6, 73445.305, -0.041520257, 0.029757774, 102953.66, 256702.11, 0.00016199093, 10.002909, 9.997255 
1.4752235e+3, 2.9430786e+2, 231158.97, -203776.31, 73168.26, -0.08589728, -0.059270915, 243137.98, 298914.5, 0.0005773318, 10.003143, 9.997375 
1.4752507e+3, 3.0430433e+2, 281691.5, -178352.16, 6555.293, 0.00359301, -0.12459372, 281784.88, 281784.88, 0.0014793195, 10.003279, 9.997153 
1.475276e+3, 3.1430146e+2, 261531.03, -107172.445, -27775.484, -0.06806874, -0.19069447, 263611.7, 263611.7, 0.0028372651, 10.002712, 9.997921 
1.4847615e+3, 1.2428723e+2, -2406630.0, -1781220.1, -5874.565, 0.12399803, 0.11928862, -1781164.9, -59169.656, 0.013700781, 9.994008, 10.002413 
1.4847876e+3, 1.3428926e+2, -2003551.4, -1573682.8, -43911.7, 0.034566883, 0.089672446, -1569243.0, 54731.996, 0.00813248, 9.996323, 10.002053 
1.4848149e+3, 1.442909e+2, -1891125.6, -1547706.4, 13933.7, 0.047262575, 0.09867883, -1547142.0, -21184.646, 0.0035089266, 9.996765, 10.001325 
1.4848426e+3, 1.542928e+2, -1836553.3, -1448013.1, 13711.727, 0.062861174, 0.10283186, -1447529.8, -19593.926, 0.0008836724, 9.996382, 10.001516 
1.4848699e+3, 1.6429405e+2, -1770576.0, -1495347.0, 15309.408, 0.07932308, 0.14514615, -1494498.0, -164575.86, 0.00007901186, 9.996731, 10.000352 
1.4848964e+3, 1.7429428e+2, -1421974.3, -1267408.5, 886.0694, 0.044900995, 0.09539617, -1267403.5, -35482.945, 0.00000037325287, 9.998411, 10.000436 
1.4849238e+3, 1.8429439e+2, -1264746.8, -1172671.8, 90627.83, 0.043470763, 0.088995725, -1117058.6, 16859.723, 0.0, 9.998926, 10.0001745 
1.4849526e+3, 1.9429421e+2, -1262557.5, -1097016.8, 101594.58, 0.07074058, 0.0069689797, -1048743.6, -12827.301, 0.0, 9.998175, 10.000376 
1.4849804e+3, 2.042941e+2, -1156697.9, -1054268.9, 95756.01, 0.0621253, -0.004483667, -996891.8, -58975.777, 0.0, 9.998489, 9.999843 
1.4850079e+3, 2.1429396e+2, -784935.7, -807132.94, 62971.457, 0.015466557, -0.04656816, -732092.3, 107826.54, 0.0, 10.000299, 9.999992 
1.4850357e+3, 2.2429378e+2, -602706.44, -748874.44, 82658.21, 0.013501172, -0.017543325, -565456.2, 176464.61, 0.0, 10.001204, 9.999293 
1.485064e+3, 2.3429346e+2, -514541.7, -640554.1, 73091.09, 0.044872954, -0.019084452, -481048.72, 162873.89, 0.0, 10.001073, 9.999426 
1.4850913e+3, 2.442926e+2, -477894.25, -701568.6, 46401.668, 0.031146897, 0.019217229, -468650.16, 77280.57, 0.0, 10.001201, 9.998281 
1.4851177e+3, 2.5429094e+2, -303963.66, -553668.2, 8420.286, -0.028964471, -0.012331831, -303680.06, 144268.03, 0.00000011463164, 10.001678, 9.998384 
1.4851448e+3, 2.6428938e+2, -179486.52, -469392.22, 45703.49, -0.03675599, 0.018243603, -172452.06, 177511.1, 0.000005857849, 10.001975, 9.998142 
1.485173e+3, 2.742877e+2, -58182.168, -342293.3, 36623.25, 0.0052511664, -0.012893731, -53537.203, 198440.69, 0.000039275426, 10.00206, 9.998298 
1.4852005e+3, 2.8428552e+2, 37870.91, -365647.78, 49950.47, 0.017194072, 0.0058984603, 43962.19, 197958.8, 0.00017769585, 10.002556, 9.997232 
1.4852278e+3, 2.9428267e+2, 288258.44, -185880.97, 41042.055, 0.013206392, -0.0483118, 291784.88, 347806.38, 0.0006303682, 10.003559, 9.9973135 
1.485255e+3, 3.0427858e+2, 378931.78, -218917.47, 18826.932, 0.07567658, -0.13044778, 379524.06, 379524.06, 0.0016042597, 10.004302, 9.996391 
1.4852801e+3, 3.1427553e+2, 480530.78, -50626.664, -72104.56, -0.023171173, -0.13187733, 490144.94, 490144.94, 0.0030546954, 10.004433, 9.997473 
1.4947546e+3, 1.2425924e+2, -2389048.8, -1762583.8, 40946.68, -0.06036809, 0.11036107, -1759918.8, -37647.18, 0.014485426, 9.994089, 10.002494 
1.4947851e+3, 1.3426179e+2, -2010417.8, -1573252.1, 41615.95, 0.14025034, 0.12900423, -1569325.9, 54921.324, 0.008627366, 9.99627, 10.002077 
1.4948122e+3, 1.4426407e+2, -1828563.4, -1454056.9, -28041.588, 0.05633525, 0.1701562, -1451968.9, 74253.79, 0.0037456865, 9.996896, 10.001916 
1.494839e+3, 1.542655e+2, -1802840.9, -1375702.5, 11834.343, 0.030390913, 0.07106088, -1375374.9, 52828.72, 0.0009542572, 9.996361, 10.002031 
1.4948665e+3, 1.6426656e+2, -1751248.5, -1467758.1, 52859.406, 0.01965514, 0.059283555, -1458222.8, -128032.76, 0.00008722728, 9.996777, 10.000518 
1.4948952e+3, 1.7426659e+2, -1422252.4, -1256090.4, 77239.37, 0.06928702, -0.022069136, -1225732.5, 6457.037, 0.0000004647829, 9.998363, 10.000533 
1.4949232e+3, 1.8426709e+2, -1223063.0, -1089726.8, 48053.17, 0.061261155, -0.021898929, -1074213.6, 59969.266, 0.0, 9.998933, 10.000746 
1.49495e+3, 1.9426815e+2, -1241849.1, -1024223.4, 85482.95, -0.016185395, -0.03915748, -994661.44, 41507.21, 0.0, 9.998043, 10.000942 
1.4949782e+3, 2.0426887e+2, -1201167.5, -1112198.1, 138501.1, -0.053329293, 0.017219085, -1011213.06, -73051.5, 0.0, 9.998336, 9.999521 
1.4950079e+3, 2.1426891e+2, -844898.1, -880313.56, 145569.7, -0.019261789, 0.030759705, -715963.06, 124203.09, 0.0, 10.000082, 9.999594 
1.4950366e+3, 2.2426887e+2, -627904.0, -750857.94, 64835.73, -0.030421307, 0.09123123, -600032.8, 142135.84, 0.0, 10.0009775, 9.999394 
1.4950638e+3, 2.342687e+2, -538893.9, -637614.3, 83491.43, -0.10523437, 0.086234614, -491263.1, 152906.27, 0.0, 10.000838, 9.999562 
1.4950913e+3, 2.4426767e+2, -544563.6, -782769.44, 48193.965, -0.11216577, 0.12185482, -535182.44, 10996.802, 0.0, 10.000952, 9.997842 
1.4951196e+3, 2.5426522e+2, -371227.56, -644010.94, 46208.703, -0.017979974, 0.057310753, -363612.53, 84591.92, 0.00000015644366, 10.001458, 9.997873 
1.495148e+3, 2.6426286e+2, -204677.72, -461718.28, 34944.16, 0.051421948, 0.02456797, -200011.83, 150214.72, 0.000006865855, 10.001724, 9.998312 
1.495176e+3, 2.7426043e+2, -77828.93, -327703.2, 58757.1, 0.08105081, -0.098311454, -64702.004, 187543.48, 0.00004412461, 10.00183, 9.998507 
1.4952038e+3, 2.842583e+2, 28590.924, -333772.03, 68525.07, 0.068321176, -0.10496355, 41116.477, 195379.2, 0.00019465707, 10.002332, 9.997561 
1.4952317e+3, 2.9425624e+2, 276894.84, -150857.7, 107495.445, 0.026313944, -0.12086688, 302389.25, 358669.63, 0.0006807664, 10.0033, 9.997682 
1.4952591e+3, 3.0425307e+2, 294930.47, -318446.06, 13653.03, 0.025735348, -0.100712135, 295234.22, 295234.22, 0.0017053836, 10.003992, 9.995853 
1.4952843e+3, 3.142515e+2, 414376.28, -98999.4, -21441.25, -0.098957114, 0.102573104, 415270.22, 415270.22, 0.0032075758, 10.004051, 9.997325 
1.5047494e+3, 1.24230884e+2, -2079813.4, -1631490.4, 104737.734, -0.062368657, 0.082762145, -1608228.4, 114320.75, 0.015336173, 9.99628, 10.002355 
1.5047814e+3, 1.3423377e+2, -2139058.8, -1631961.9, 40382.457, 0.18815534, 0.12687482, -1628766.1, -4244.565, 0.0091627855, 9.995349, 10.002129 
1.5048088e+3, 1.4423627e+2, -2041957.5, -1538121.8, -13125.196, 0.113621674, 0.17929514, -1537780.0, -11284.833, 0.0040015904, 9.995377, 10.002064 
1.504836e+3, 1.5423746e+2, -1691824.3, -1297631.9, -42194.7, 0.06986757, 0.040279258, -1293166.0, 135311.63, 0.001031135, 9.997032, 10.002239 
1.504864e+3, 1.6423845e+2, -1586479.5, -1387092.4, 28746.648, 0.041379932, 0.008177754, -1383030.6, -52566.39, 0.000096309515, 9.997874, 10.000558 
1.5048936e+3, 1.7423862e+2, -1462446.1, -1267393.1, 15366.394, 0.093163155, -0.06482508, -1266190.0, -33727.78, 0.000000575819, 9.998031, 10.000622 
1.504922e+3, 1.8423933e+2, -1314410.8, -1126050.5, -32583.594, 0.100989856, -0.04964566, -1120573.3, 13880.896, 0.0, 9.998291, 10.000789 
1.5049487e+3, 1.942407e+2, -1094864.0, -943491.3, -71059.85, 0.012697962, -0.041559573, -915360.9, 121077.8, 0.0, 9.999022, 10.001008 
1.504977e+3, 2.0424165e+2, -1054776.5, -1010167.6, 41927.816, -0.023188129, 0.019720705, -984980.7, -46551.07, 0.0, 9.999208, 9.999803 
1.5050076e+3, 2.1424182e+2, -1010649.94, -928850.94, 66706.195, 0.011600691, 0.022180768, -891504.1, -51073.195, 0.0, 9.998803, 9.999881 
1.5050368e+3, 2.2424191e+2, -901595.4, -885923.4, 38854.336, -0.0022698916, 0.08248467, -854122.75, -111690.7, 0.0, 9.999136, 9.999342 
1.5050644e+3, 2.3424178e+2, -591078.94, -670466.5, 3482.217, -0.0933169, 0.09312593, -590926.5, 53507.387, 0.0, 10.000527, 9.999478 
1.5050927e+3, 2.4424085e+2, -455495.88, -698580.2, 6932.329, -0.07995779, 0.12384423, -455298.34, 91145.0, 0.0, 10.001393, 9.998202 
1.5051219e+3, 2.5423858e+2, -322534.84, -573068.1, 30102.443, 0.062141255, 0.03963145, -318968.7, 129496.02, 0.00000020302433, 10.001597, 9.998285 
1.5051505e+3, 2.6423633e+2, -173514.81, -476235.2, 79443.664, 0.13656144, 0.0086950185, -153932.9, 196552.39, 0.0000077496, 10.002058, 9.998057 
1.5051787e+3, 2.742339e+2, 57885.59, -297916.47, 36989.047, 0.11958348, -0.083920665, 61690.27, 314196.38, 0.000048509926, 10.002894, 9.998212 
1.505207e+3, 2.8423172e+2, 165148.31, -246581.36, 53450.902, 0.10349858, -0.085691564, 171974.16, 326499.16, 0.00020995413, 10.003191, 9.99774 
1.5052354e+3, 2.942297e+2, 233866.53, -138411.36, 27543.621, 0.10595707, -0.1208133, 235893.36, 292436.38, 0.0007220719, 10.002904, 9.997928 
1.5052634e+3, 3.0422705e+2, 256164.89, -318609.56, 16894.738, 0.08525655, -0.07282977, 256661.05, 256661.05, 0.0017709516, 10.00363, 9.996044 
1.5052894e+3, 3.142254e+2, 619917.56, 49192.855, -16190.501, -0.047983028, 0.11723634, 620376.44, 620376.44, 0.0032779041, 10.0052395, 9.997802 
1.514748e+3, 1.2420292e+2, -2065829.6, -1654220.5, 16870.29, 0.08660165, 0.074300125, -1653530.1, 69289.766, 0.016257107, 9.9965, 10.002094 
1.5147755e+3, 1.3420554e+2, -2163709.0, -1652858.8, 32017.201, 0.03468516, 0.087845586, -1650860.0, -26064.594, 0.009740974, 9.995242, 10.00203 
1.5148039e+3, 1.4420779e+2, -2054396.6, -1589333.8, 19292.701, 0.028025307, 0.14536299, -1588534.8, -61763.063, 0.0042781597, 9.995462, 10.001678 
1.514833e+3, 1.5420872e+2, -1712526.1, -1349471.4, 34500.79, 0.040519886, 0.014352749, -1346221.9, 82535.95, 0.0011151112, 9.997058, 10.001875 
1.5148617e+3, 1.6420974e+2, -1570447.4, -1376386.9, 13907.638, -0.010986676, 0.0022131826, -1375395.3, -44650.277, 0.000106548556, 9.997964, 10.0005865 
1.514891e+3, 1.7421044e+2, -1465948.0, -1266633.1, 33264.066, -0.008699554, -0.024494592, -1261228.1, -28490.367, 0.0000007145684, 9.997988, 10.000651 
1.51492e+3, 1.8421122e+2, -1346540.6, -1189480.9, -23822.328, 0.014510532, 0.014297229, -1185947.1, -51216.27, 0.0, 9.998277, 10.0003605 
1.5149483e+3, 1.9421189e+2, -1147213.8, -1024863.3, -30015.73, 0.02806473, -0.00044510467, -1017896.44, 18829.807, 0.0, 9.998907, 10.000505 
1.5149769e+3, 2.0421247e+2, -1018033.4, -899576.06, 9708.282, 0.011416122, 0.015250746, -898785.7, 39933.957, 0.0, 9.999056, 10.000638 
1.5150063e+3, 2.1421286e+2, -977638.1, -805412.4, 66090.17, -0.022740975, -0.05712007, -782974.2, 57737.56, 0.0, 9.998563, 10.000847 
1.5150358e+3, 2.2421306e+2, -956673.0, -940087.56, 69830.31, -0.048725095, -0.028157456, -878059.25, -135350.06, 0.0, 9.998876, 9.999099 
1.5150656e+3, 2.342128e+2, -651308.7, -741846.5, 73003.78, -0.052414574, 0.0071713557, -610677.5, 34038.344, 0.0, 10.000298, 9.999101 
1.5150948e+3, 2.4421218e+2, -414282.75, -562451.0, 323.69586, -0.021692537, 0.041528832, -414282.03, 132440.39, 0.0, 10.0011635, 9.999253 
1.5151238e+3, 2.5421092e+2, -269922.34, -415784.1, 52804.953, 0.06923206, -0.061880697, -252812.81, 195917.28, 0.00000026346208, 10.00138, 9.9994755 
1.5151522e+3, 2.642096e+2, -250739.34, -575563.94, 92538.87, 0.07905737, -0.037260856, -226225.98, 124515.836, 0.000008336701, 10.001804, 9.997497 
1.5151805e+3, 2.74208e+2, -33559.992, -420704.6, 90090.82, -0.017472764, 0.024833364, -13622.127, 239138.22, 0.00005112129, 10.002621, 9.997498 
1.515209e+3, 2.842059e+2, 115943.13, -287895.34, 27506.945, -0.03386989, 0.075156935, 117808.12, 272590.6, 0.00022272031, 10.002922, 9.997584 
1.5152386e+3, 2.942029e+2, 189447.64, -176339.23, 39001.16, 0.08354626, -0.051696356, 193559.83, 250370.45, 0.0007570033, 10.002665, 9.99778 
1.5152673e+3, 3.042002e+2, 276125.22, -204881.08, 57351.45, 0.09193284, -0.04305669, 282868.8, 282868.8, 0.001811771, 10.0033455, 9.99695 
1.515294e+3, 3.141974e+2, 637037.1, 203809.53, 106340.51, -0.1567138, -0.07784201, 661731.94, 661731.94, 0.0032875882, 10.004766, 9.999079 
1.5247443e+3, 1.241745e+2, -2323685.0, -1717716.4, -18678.94, 0.18422188, 0.09081965, -1717141.1, 5957.4424, 0.017244658, 9.99451, 10.002596 
1.5247707e+3, 1.3417679e+2, -2102032.0, -1629823.6, -47943.367, 0.043421127, 0.07520635, -1625005.1, 69.93298, 0.010359608, 9.995722, 10.00194 
1.5247996e+3, 1.4417866e+2, -1958977.3, -1594130.8, 26010.973, 0.029251728, 0.12341568, -1592285.8, -65230.633, 0.0045741852, 9.996354, 10.0012045 
1.52483e+3, 1.5417925e+2, -1712016.1, -1391178.9, -2350.921, 0.049870495, -0.0010258021, -1391161.6, 37884.715, 0.0012060112, 9.99724, 10.001496 
1.5248597e+3, 1.6418019e+2, -1640277.3, -1371876.6, -27085.535, 0.035826124, -0.013380993, -1369170.5, -38135.527, 0.000118081814, 9.997358, 10.0009 
1.5248887e+3, 1.7418155e+2, -1577380.6, -1269842.3, -23130.04, 0.048587076, -0.012838756, -1268112.4, -35091.637, 0.0000008766353, 9.99704, 10.001075 
1.5249181e+3, 1.8418258e+2, -1495404.6, -1275052.3, 13129.856, 0.0628976, 0.036804873, -1274272.8, -139261.52, 0.0, 9.997301, 10.000259 
1.5249468e+3, 1.9418307e+2, -1194415.8, -1066503.1, 3531.6504, 0.03513395, 0.020530585, -1066405.6, -29395.586, 0.0, 9.998648, 10.000362 
1.524976e+3, 2.041836e+2, -929693.75, -843883.44, 30544.453, 0.016692165, 0.033046663, -834121.56, 104882.734, 0.0, 9.999587, 10.000767 
1.5250057e+3, 2.141841e+2, -751935.3, -678738.7, -7457.9863, 0.01240639, -0.0452417, -677986.56, 163006.58, 0.0, 10.000019, 10.001016 
1.5250356e+3, 2.241841e+2, -755396.44, -833819.4, 33009.2, 0.008152387, -0.050495796, -743352.2, -361.11856, 0.0, 10.000199, 9.9992 
1.525066e+3, 2.3418319e+2, -676380.56, -740807.8, 41584.5, -0.0046638767, -0.088963844, -655992.0, -10989.056, 0.0, 10.000056, 9.999228 
1.525096e+3, 2.4418268e+2, -498178.9, -581202.2, -3071.4194, 0.02627073, -0.058981318, -498065.44, 48943.246, 0.0, 10.000528, 9.999411 
1.5251258e+3, 2.5418255e+2, -174333.56, -349209.16, -58842.58, 0.12028257, -0.060700662, -156377.73, 292629.22, 0.0000003530132, 10.001971, 9.999632 
1.5251549e+3, 2.6418176e+2, -135446.78, -519869.2, -35671.207, 0.13918892, 0.00746897, -132164.8, 218850.13, 0.000008619123, 10.002574, 9.997512 
1.5251832e+3, 2.7417988e+2, -126273.97, -456111.7, -27740.207, 0.040732026, 0.035386026, -123957.22, 129080.16, 0.000051931653, 10.001951, 9.997564 
1.525212e+3, 2.841778e+2, 6090.4653, -339210.47, -2951.231, 0.017335264, 0.083723985, 6115.6875, 161175.7, 0.00023518385, 10.002152, 9.997617 
1.5252417e+3, 2.9417536e+2, 307093.78, -125152.07, -17850.127, 0.11289044, 0.019702274, 307829.7, 364913.44, 0.000791527, 10.003466, 9.997779 
1.5252715e+3, 3.04173e+2, 438759.8, -125419.625, 33260.098, 0.13150649, 0.06363101, 440713.84, 440713.84, 0.0018473113, 10.004439, 9.996982 
1.5252997e+3, 3.1416845e+2, 608515.0, 155610.13, -56546.004, -0.045407437, -0.1448579, 615468.1, 615468.1, 0.0032830285, 10.004688, 9.998795 
1.5347373e+3, 1.2414597e+2, -2226656.0, -1539724.3, -51285.855, -0.052798968, 0.15682483, -1535916.4, 187465.81, 0.018294634, 9.994578, 10.003811 
1.5347672e+3, 1.3414785e+2, -2110045.8, -1651246.1, 5776.0005, 0.07520121, 0.112309255, -1651173.5, -25815.611, 0.011016667, 9.995739, 10.001786 
1.5347956e+3, 1.4414917e+2, -1968850.1, -1656123.5, 30304.746, -0.060762133, 0.13999104, -1653213.9, -125871.8, 0.0048880493, 9.996524, 10.000704 
1.5348268e+3, 1.5414923e+2, -1754522.8, -1460860.9, 40851.69, -0.038266066, 0.0117778005, -1455283.9, -25942.19, 0.0013030368, 9.9971695, 10.001054 
1.5348575e+3, 1.6415003e+2, -1591923.1, -1287954.6, -58667.105, 0.039829783, -0.017740928, -1277024.8, 54307.926, 0.00013086536, 9.997415, 10.001454 
1.5348871e+3, 1.7415188e+2, -1539150.0, -1181279.6, -23547.951, 0.14055392, -0.029556308, -1179736.9, 53574.145, 0.0000010420176, 9.996997, 10.001704 
1.534916e+3, 1.8415341e+2, -1481089.1, -1247196.1, 37597.773, 0.10164662, 0.026658686, -1241300.9, -106005.586, 0.0, 9.997304, 10.000451 
1.5349446e+3, 1.9415425e+2, -1192315.6, -1042187.9, 66991.3, -0.09720624, 0.025880564, -1016641.5, 20648.676, 0.0, 9.998556, 10.000575 
1.5349743e+3, 2.04155e+2, -993756.5, -933369.0, 32913.13, -0.15340255, 0.072769195, -918898.06, 20385.285, 0.0, 9.999405, 10.0002365 
1.5350057e+3, 2.1415552e+2, -835100.0, -790554.9, 23111.043, -0.013790662, 0.055704247, -780730.9, 60544.625, 0.0, 9.9997635, 10.000367 
1.5350363e+3, 2.2415502e+2, -761336.94, -784443.75, 13407.165, 0.020693457, 0.018365206, -755191.94, -11914.247, 0.0, 9.999931, 9.999667 
1.5350656e+3, 2.34153e+2, -666852.0, -669340.7, 54695.082, -0.07488591, -0.1950886, -613387.06, 31908.164, 0.0, 9.999827, 9.999832 
1.5350959e+3, 2.4415231e+2, -595232.8, -712430.4, 31673.795, -0.07774853, -0.18002188, -587220.44, -39917.918, 0.0, 10.000237, 9.998643 
1.5351276e+3, 2.5415343e+2, -278868.75, -505211.44, 14858.41, 0.07968862, 0.030599337, -277897.53, 171398.36, 0.0000004707298, 10.001722, 9.998674 
1.535158e+3, 2.6415282e+2, -128080.445, -451503.28, -70136.13, 0.1594156, 0.14567046, -113525.984, 237778.27, 0.0000086272985, 10.002343, 9.998093 
1.5351862e+3, 2.741496e+2, -102065.1, -365695.94, -36385.57, 0.129354, -0.033943105, -97135.445, 156200.45, 0.000052741245, 10.001778, 9.998269 
1.535215e+3, 2.8414744e+2, -12718.131, -333208.5, 24147.572, 0.089573056, -0.03912048, -10908.928, 144448.7, 0.00024875673, 10.00195, 9.997762 
1.5352447e+3, 2.94147e+2, 279523.5, -128344.375, 59295.063, 0.040081218, 0.08165536, 287968.84, 345332.06, 0.00082812813, 10.003228, 9.997872 
1.5352753e+3, 3.0414546e+2, 335283.28, -275188.22, 31451.807, 0.041831248, 0.24413219, 336899.4, 336899.4, 0.001892961, 10.004168, 9.9960785 
1.5353051e+3, 3.1413868e+2, 418964.88, -117979.08, 13504.007, -0.024923684, -0.095761836, 419304.28, 419304.28, 0.0033090287, 10.004189, 9.997143 
1.5447326e+3, 1.24116935e+2, -2140969.3, -1531739.8, 76343.695, 0.0117013855, 0.14378215, -1522318.8, 201343.95, 0.019406972, 9.995313, 10.003504 
1.5447637e+3, 1.3411728e+2, -1990731.0, -1667822.9, -1527.6305, 0.11402773, 0.0023709042, -1667815.6, -42161.707, 0.0117135905, 9.996843, 10.001143 
1.544792e+3, 1.4411867e+2, -1971904.8, -1663800.4, 36723.297, -0.048292246, 0.07694845, -1659483.8, -131845.64, 0.0052204016, 9.996542, 10.000645 
1.544824e+3, 1.5411937e+2, -1846681.0, -1501931.1, 57311.746, 0.019425783, 0.008899204, -1492653.3, -63020.434, 0.0014059248, 9.996505, 10.001103 
1.5448552e+3, 1.6412033e+2, -1690006.5, -1340881.6, -6416.8115, 0.12220264, -0.0036759092, -1340763.6, -9140.754, 0.00014487762, 9.996773, 10.001393 
1.5448846e+3, 1.7412181e+2, -1445762.1, -1146093.4, -60938.453, 0.16672972, -0.049643163, -1134175.4, 99430.2, 0.000001197513, 9.997666, 10.001625 
1.5449136e+3, 1.841232e+2, -1335757.8, -1144055.5, 29677.414, 0.09825243, -0.014686218, -1139566.3, -3975.597, 0.0, 9.998184, 10.000724 
1.5449429e+3, 1.9412443e+2, -1173825.9, -993709.9, 38768.047, -0.10508924, -0.0060049435, -985719.94, 51859.34, 0.0, 9.998539, 10.000908 
1.5449736e+3, 2.041252e+2, -1094653.1, -1031968.1, 28244.51, -0.14005111, 0.044548392, -1021119.3, -81546.945, 0.0, 9.998936, 9.999788 
1.5450057e+3, 2.1412522e+2, -909641.8, -884823.9, -9670.893, 0.040026464, 0.032287654, -881500.44, -39927.773, 0.0, 9.999507, 9.999847 
1.5450367e+3, 2.2412486e+2, -747960.75, -736587.4, -1566.027, 0.09907946, 0.022255657, -736375.7, 7199.34, 0.0, 9.999873, 10.000008 
1.5450661e+3, 2.3412393e+2, -599263.7, -582035.25, -16476.037, -0.017785355, -0.12340974, -572057.4, 73523.56, 0.0, 10.000098, 10.000279 
1.5450963e+3, 2.4412344e+2, -560528.06, -707354.7, 39139.625, -0.04635669, -0.10747631, -550746.25, -3160.608, 0.000000000009610117, 10.00049, 9.99858 
1.5451287e+3, 2.541235e+2, -379133.13, -566411.4, 59775.824, 0.062012162, 0.010539374, -361680.22, 87909.01, 0.0000005675007, 10.001056, 9.998601 
1.5451598e+3, 2.6412266e+2, -189341.66, -444016.44, 7193.172, 0.14641683, 0.08573746, -189138.64, 162461.2, 0.000008574752, 10.001785, 9.998412 
1.5451889e+3, 2.7412006e+2, 75762.805, -252039.52, -25165.49, 0.1743726, -0.05509921, 77683.516, 331307.44, 0.00005426492, 10.002868, 9.998539 
1.5452182e+3, 2.841181e+2, 217615.69, -236083.9, 58368.7, 0.15407714, -0.050948113, 225004.53, 380648.13, 0.00026286932, 10.003625, 9.997591 
1.5452483e+3, 2.9411718e+2, 365369.3, -110687.39, 25113.596, 0.04385363, 0.05138885, 366690.47, 424344.84, 0.0008685198, 10.003951, 9.997619 
1.5452795e+3, 3.041157e+2, 411143.53, -197829.88, 51512.984, 0.045149613, 0.21568897, 415470.28, 415470.28, 0.001959959, 10.004502, 9.996459 
1.5453106e+3, 3.1411034e+2, 532824.06, -92644.75, 51838.914, 0.0779391, -0.01526244, 537091.4, 537091.4, 0.0033943013, 10.005093, 9.996883 
1.5547289e+3, 1.2408711e+2, -2244581.0, -1778394.4, 173335.36, 0.021942463, 0.025442488, -1721009.4, 2932.548, 0.020587768, 9.995484, 10.0016985 
1.5547596e+3, 1.3408495e+2, -2076464.9, -1829659.6, 19848.006, -0.011961023, -0.24501783, -1828073.6, -202109.81, 0.012455585, 9.99679, 10.000062 
1.5547886e+3, 1.4408699e+2, -1921501.6, -1578130.6, 2145.584, -0.09712832, -0.0758413, -1578117.3, -50172.38, 0.0055746003, 9.996613, 10.001203 
1.5548214e+3, 1.5408982e+2, -1807586.9, -1413781.3, 72742.29, 0.08160584, 0.005135244, -1400774.3, 29143.51, 0.001515748, 9.996483, 10.001718 
1.5548526e+3, 1.6409148e+2, -1721998.8, -1426200.4, 8336.569, 0.13273643, 0.057155784, -1425965.6, -94063.33, 0.00016035176, 9.996845, 10.000778 
1.5548807e+3, 1.7409141e+2, -1504290.5, -1257547.3, -15771.011, 0.0011123748, -0.06416014, -1256543.3, -22639.83, 0.0000013687348, 9.9976225, 10.000884 
1.5549102e+3, 1.8409207e+2, -1316666.9, -1095668.6, 25254.355, -0.09314719, -0.08040776, -1092819.4, 43076.543, 0.0, 9.998151, 10.001069 
1.5549414e+3, 1.9409361e+2, -1168844.0, -946691.2, 67199.74, -0.123294964, -0.08137711, -927945.56, 109931.805, 0.0, 9.99839, 10.001299 
1.5549731e+3, 2.0409416e+2, -1140231.4, -1100571.9, 31496.434, -0.088859685, -0.053902294, -1083182.8, -143311.19, 0.0, 9.998807, 9.999388 
1.5550055e+3, 2.1409328e+2, -968708.94, -965676.3, 27431.35, 0.04932027, -0.11013359, -939719.4, -97835.36, 0.0, 9.999311, 9.999396 
1.5550369e+3, 2.240937e+2, -775740.6, -738849.3, -8812.792, 0.0937349, -0.024084922, -736852.2, 7029.958, 0.0, 9.999631, 10.00011 
1.5550667e+3, 2.3409581e+2, -621779.5, -586832.6, 6838.8784, 0.027081864, 0.12041033, -585541.94, 60319.92, 0.0, 9.999905, 10.000347 
1.5550971e+3, 2.4409588e+2, -546701.8, -619681.8, 45459.65, -0.03801462, 0.15424246, -524898.6, 22961.686, 0.0, 10.000237, 9.999302 
1.5551285e+3, 2.5409293e+2, -355454.2, -463961.66, 96477.91, -0.06794651, -0.10994983, -299021.63, 150864.53, 0.0000005355393, 10.000828, 9.9994135 
1.55516e+3, 2.640912e+2, -228795.56, -468944.44, 32461.037, -0.04340789, -0.16199976, -224485.16, 127416.32, 0.000008556659, 10.001541, 9.998356 
1.5551908e+3, 2.740911e+2, 30194.37, -290737.94, 37572.58, 0.058781765, -0.04704941, 34534.418, 288437.16, 0.000056489618, 10.002629, 9.9983835 
1.5552214e+3, 2.8408954e+2, 133642.73, -349159.78, 57248.71, 0.07045542, 0.04150848, 140338.19, 296257.34, 0.00027893353, 10.003366, 9.996935 
1.5552518e+3, 2.9408598e+2, 278189.84, -221488.48, 58526.414, -0.037407737, -0.06428705, 284953.4, 342910.66, 0.0009153457, 10.003659, 9.996992 
1.5552835e+3, 3.0408388e+2, 457964.66, -24213.639, 56036.7, -0.025949446, 0.009257276, 464391.34, 464391.34, 0.0020538478, 10.004192, 9.997793 
1.5553153e+3, 3.1408286e+2, 518529.38, 8790.262, 109668.414, -0.010718217, 0.058746576, 541122.7, 541122.7, 0.003548551, 10.004564, 9.997823 
1.5647258e+3, 1.2405659e+2, -2146795.8, -1754911.4, 129468.125, 0.14582343, -0.032254007, -1716001.9, 8233.779, 0.021849003, 9.99625, 10.001514 
1.564756e+3, 1.3405432e+2, -2106569.5, -1891030.8, -31979.975, -0.030003056, -0.25947523, -1886385.9, -260124.0, 0.013250772, 9.996779, 9.999663 
1.5647861e+3, 1.4405619e+2, -1824980.0, -1510995.3, -12890.654, -0.028343491, -0.10008722, -1510466.9, 17779.37, 0.0059556314, 9.9971895, 10.001382 
1.5648188e+3, 1.5405926e+2, -1691582.0, -1343311.4, -19704.842, 0.14624827, -0.010152884, -1342200.0, 88016.15, 0.0016345053, 9.997218, 10.00184 
1.5648496e+3, 1.6406104e+2, -1684848.0, -1438789.5, -31870.309, 0.1522552, 0.058736056, -1434728.6, -102528.47, 0.00017771397, 9.997227, 10.000515 
1.5648782e+3, 1.7406103e+2, -1492623.1, -1284314.3, -44274.4, -0.0019925276, -0.025594046, -1275294.6, -41091.594, 0.0000016137079, 9.9978285, 10.0006075 
1.5649086e+3, 1.840616e+2, -1318212.0, -1112482.8, 15391.507, -0.06354333, -0.029950617, -1111337.6, 24860.023, 0.0, 9.998195, 10.000937 
1.5649405e+3, 1.9406278e+2, -1171796.8, -964641.7, -14635.923, -0.033619806, -0.05803436, -963612.75, 74569.47, 0.0, 9.998413, 10.001172 
1.5649728e+3, 2.0406319e+2, -1131928.6, -1026947.1, 3303.3557, 0.0190129, -0.063981146, -1026843.25, -86666.82, 0.0, 9.998612, 9.999962 
1.5650052e+3, 2.1406251e+2, -937416.06, -867566.94, 47953.02, 0.104642645, -0.16360383, -843168.5, -984.63794, 0.0, 9.99922, 10.000087 
1.5650368e+3, 2.2406308e+2, -770050.9, -798307.9, 66002.8, 0.1261512, -0.077478886, -716681.4, 27499.021, 0.0, 9.99991, 9.999581 
1.5650673e+3, 2.3406531e+2, -548243.4, -615979.56, 2402.1685, 0.06020813, 0.14069667, -548158.3, 98003.97, 0.0, 10.000677, 9.999774 
1.565098e+3, 2.4406542e+2, -431586.28, -548815.0, 7241.871, 0.006841263, 0.20298202, -431140.6, 117020.93, 0.0, 10.000951, 9.999449 
1.5651295e+3, 2.5406235e+2, -385650.8, -451095.94, -18197.52, -0.028873933, -0.09336329, -380931.22, 69255.69, 0.00000039469393, 10.000505, 9.99965 
1.5651613e+3, 2.6406053e+2, -300895.56, -506107.5, -29496.201, -0.009939737, -0.16708596, -296740.06, 55461.95, 0.000008163994, 10.001048, 9.998342 
1.5651935e+3, 2.7406034e+2, 68590.555, -275414.16, -51204.43, 0.071378574, -0.055587605, 76050.46, 330254.28, 0.000058543963, 10.002904, 9.998355 
1.5652248e+3, 2.840587e+2, 191703.16, -317340.72, -23468.52, 0.078523465, 0.025810396, 192782.84, 349003.13, 0.00029613846, 10.003733, 9.997003 
1.5652552e+3, 2.9405496e+2, 218246.31, -242353.84, -17693.057, -0.005952508, -0.09066595, 218924.95, 277183.2, 0.00096601876, 10.003189, 9.997098 
1.5652876e+3, 3.040522e+2, 383132.38, -57079.03, 53052.473, 0.023251805, -0.09463184, 389435.78, 389435.78, 0.0021663469, 10.003644, 9.997829 
1.565321e+3, 3.1405246e+2, 610018.0, 27534.559, -66111.84, 0.08114549, 0.08565697, 617427.44, 617427.44, 0.003754914, 10.005248, 9.997638 
1.5747216e+3, 1.2402484e+2, -1994583.8, -1475732.5, -30942.098, 0.031650547, -0.04370025, -1473893.8, 250656.22, 0.023204513, 9.996366, 10.00342 
1.5747522e+3, 1.3402595e+2, -2071759.3, -1824627.4, 9250.357, -0.109201744, 0.02503404, -1824281.6, -197738.5, 0.014108494, 9.996803, 10.000104 
1.5747842e+3, 1.4402671e+2, -1811171.6, -1518759.3, -28320.861, 0.015071214, 0.045880865, -1516041.6, 12496.486, 0.0063687824, 9.997343, 10.001257 
1.5748157e+3, 1.5402761e+2, -1729846.8, -1413752.9, -11281.91, 0.09339393, -0.034611546, -1413350.8, 17178.172, 0.00176415, 9.997188, 10.0013685 
1.5748459e+3, 1.6402887e+2, -1663410.8, -1407395.0, -33983.793, 0.027289158, -0.0016963127, -1402960.8, -70442.64, 0.00019721544, 9.997274, 10.000709 
1.5748768e+3, 1.7403072e+2, -1478528.5, -1250796.5, -6654.583, 0.025585081, 0.06971665, -1250602.3, -16098.148, 0.0000019795527, 9.997807, 10.000849 
1.5749082e+3, 1.8403198e+2, -1351500.0, -1186790.9, 8164.9214, 0.046208203, 0.14554694, -1186387.0, -49893.176, 0.0, 9.99821, 10.0004225 
1.57494e+3, 1.9403222e+2, -1236866.1, -1067475.4, 5988.336, 0.035960656, 0.08788528, -1067263.9, -28772.684, 0.0, 9.998276, 10.000533 
1.5749718e+3, 2.040325e+2, -1049983.4, -825129.9, 5876.505, 0.03055436, 0.036549963, -824976.4, 115508.64, 0.0, 9.998465, 10.001421 
1.5750043e+3, 2.1403275e+2, -853516.75, -647985.56, 83210.92, 0.071883634, -0.13433932, -618520.94, 223953.22, 0.0, 9.999018, 10.001697 
1.5750362e+3, 2.2403282e+2, -869972.56, -952514.8, 81569.93, 0.052416667, -0.1431812, -819827.3, -75355.84, 0.0, 9.999683, 9.998629 
1.575067e+3, 2.340325e+2, -670915.8, -815152.44, 45497.9, -0.045499746, -0.057404015, -657763.3, -11281.65, 0.0, 10.000439, 9.998522 
1.5750986e+3, 2.4403216e+2, -503495.06, -635113.06, -20799.713, -0.059329584, 0.050029114, -500286.28, 48202.438, 0.0, 10.000678, 9.998983 
1.5751311e+3, 2.5403172e+2, -443232.72, -527088.7, -19369.658, 0.055839486, 0.048224427, -438974.78, 11517.296, 0.00000029448665, 10.000313, 9.99922 
1.5751638e+3, 2.6403052e+2, -338071.25, -534570.56, 17556.549, 0.110934734, 0.065837786, -336514.97, 15987.202, 0.000007127328, 10.000837, 9.998249 
1.5751965e+3, 2.7402785e+2, 36802.19, -290902.56, 39245.87, 0.065257415, -0.06491917, 41436.727, 295962.3, 0.000059012113, 10.002688, 9.998354 
1.5752281e+3, 2.8402564e+2, 204433.48, -243456.94, -52557.28, 0.014251444, -0.07419136, 210518.11, 367063.44, 0.00030982727, 10.003522, 9.997611 
1.5752585e+3, 2.9402423e+2, 227213.16, -166194.52, -12117.031, -0.022559155, -0.031497862, 227586.0, 286143.28, 0.0010139579, 10.00294, 9.99774 
1.5752915e+3, 3.0402073e+2, 261636.06, -242996.08, 92899.41, 0.02032881, -0.092055894, 278194.88, 278194.88, 0.0022821622, 10.003379, 9.996662 
1.5753265e+3, 3.140192e+2, 443035.25, -174383.86, 45468.41, 0.049595285, 0.036262564, 446365.7, 446365.7, 0.0039767115, 10.004657, 9.996509 
1.5847173e+3, 1.239919e+2, -2073502.4, -1475734.1, -57076.61, 0.022938425, -0.097393975, -1470333.1, 254539.95, 0.024665277, 9.9956665, 10.0037365 
1.5847488e+3, 1.3399534e+2, -2176006.8, -1816287.5, -18090.195, -0.072872676, 0.1522655, -1815380.0, -188536.13, 0.0150364665, 9.9958315, 10.000618 
1.584781e+3, 1.4399518e+2, -1914516.3, -1540667.6, -31269.943, 0.022207623, 0.03428288, -1538070.1, -9221.605, 0.0068181083, 9.9965105, 10.00151 
1.5848126e+3, 1.5399626e+2, -1725707.8, -1396597.3, -12013.549, 0.07739074, -0.03755745, -1396159.3, 34678.035, 0.0019058621, 9.997134, 10.001519 
1.584843e+3, 1.6399783e+2, -1620469.3, -1367899.4, 32469.92, 0.008035994, 0.012276588, -1363791.9, -30968.867, 0.0002187055, 9.997495, 10.000872 
1.5848747e+3, 1.7399989e+2, -1431083.1, -1204066.3, 20026.883, 0.049623568, 0.08563373, -1202313.1, 32493.174, 0.000002466339, 9.998045, 10.001049 
1.5849072e+3, 1.8400124e+2, -1336805.0, -1192101.4, 62225.89, 0.11789426, 0.16314028, -1169023.4, -32227.652, 0.0, 9.998377, 10.000301 
1.584939e+3, 1.940014e+2, -1172185.1, -1049988.6, 64204.56, 0.10971231, 0.11412695, -1022457.2, 16338.441, 0.0, 9.998784, 10.0004015 
1.5849711e+3, 2.0400186e+2, -951695.8, -796960.2, 75276.01, 0.08927436, 0.093718134, -766382.4, 174406.63, 0.0, 9.99919, 10.001282 
1.5850037e+3, 2.1400264e+2, -754088.0, -615655.7, -5116.9844, 0.08955989, -0.013626699, -615466.8, 227307.16, 0.0, 9.999728, 10.001591 
1.585036e+3, 2.2400256e+2, -775092.56, -878804.56, -3045.7512, 0.053171184, -0.043972056, -775003.2, -30231.338, 0.0, 10.000242, 9.998867 
1.5850677e+3, 2.3400109e+2, -567671.56, -742076.5, 38462.53, -0.05421946, -0.089969255, -559565.94, 87223.63, 0.0, 10.001043, 9.99875 
1.5850998e+3, 2.4400017e+2, -387365.3, -636274.06, 35276.74, -0.038610242, -0.026374977, -382462.28, 166338.9, 0.0, 10.001743, 9.998455 
1.5851332e+3, 2.5400013e+2, -190879.75, -477399.63, -20110.814, 0.14440684, 0.07817002, -189475.05, 261328.52, 0.00000023115544, 10.002365, 9.998574 
1.5851665e+3, 2.6399893e+2, -80319.805, -404850.28, 68694.49, 0.20830145, 0.13301384, -66377.945, 286436.8, 0.0000061293663, 10.0026, 9.99828 
1.5851992e+3, 2.7399585e+2, 18947.996, -282364.4, 63567.195, 0.08386338, -0.05153091, 31809.621, 286650.75, 0.000060026516, 10.002519, 9.998477 
1.5852313e+3, 2.839936e+2, 113287.51, -308221.16, -37668.04, 0.015855229, -0.06052488, 116627.24, 273487.66, 0.0003212461, 10.002994, 9.997407 
1.5852626e+3, 2.939925e+2, 394372.38, -110776.65, -107082.78, 0.03873944, 0.037531465, 416134.53, 475004.63, 0.0010570007, 10.004193, 9.997508 
1.5852958e+3, 3.0398813e+2, 461554.0, -190304.38, 38580.3, 0.06320006, -0.07914389, 463829.44, 463829.44, 0.0023874054, 10.0049095, 9.996316 
1.585331e+3, 3.1398556e+2, 452123.47, -151134.67, -20054.406, 0.07017581, -0.0064226757, 452789.4, 452789.4, 0.004171081, 10.004605, 9.996721 
1.5947133e+3, 1.2395793e+2, -2166675.5, -1718636.0, -30297.74, -0.026177052, -0.22394738, -1716596.5, 8606.265, 0.026239868, 9.99586, 10.001954 
1.5947457e+3, 1.3396248e+2, -2156518.8, -1768032.5, 25184.484, -0.001833728, 0.09869816, -1766406.6, -139242.25, 0.016040104, 9.995803, 10.000959 
1.5947759e+3, 1.4396113e+2, -1852332.0, -1451425.4, -22942.086, -0.19517085, -0.17155802, -1450116.9, 79064.62, 0.0073062, 9.996657, 10.002064 
1.5948088e+3, 1.5396549e+2, -1663696.9, -1280794.5, 23201.762, -0.043408684, -0.0009470084, -1279393.8, 151745.03, 0.002060233, 9.997175, 10.002301 
1.5948403e+3, 1.6396846e+2, -1598963.9, -1344400.8, 30931.686, -0.049837705, 0.14198348, -1340696.1, -7586.379, 0.00024185247, 9.997582, 10.00099 
1.594872e+3, 1.7396876e+2, -1437017.8, -1207748.8, 53724.656, -0.044585325, 0.03771368, -1195783.9, 39323.945, 0.0000030340082, 9.998008, 10.001041 
1.5949047e+3, 1.8396932e+2, -1315458.0, -1149274.3, 61107.402, 0.0019481214, 0.021211347, -1129223.6, 7880.0728, 0.0, 9.998379, 10.000593 
1.5949374e+3, 1.939703e+2, -1170212.1, -1014126.8, 94750.23, 0.05498588, 0.01984674, -969416.6, 69678.99, 0.0, 9.998655, 10.000707 
1.5949702e+3, 2.0397137e+2, -1087139.8, -1045128.56, 80149.6, 0.05647197, 0.11920355, -983277.7, -42190.28, 0.0, 9.999049, 9.999642 
1.595003e+3, 2.1397239e+2, -921916.0, -901750.7, 28039.807, 0.02918025, 0.21827139, -882035.9, -38955.07, 0.0, 9.99947, 9.999746 
1.5950358e+3, 2.2397247e+2, -718929.5, -709533.0, 9984.291, -0.016935281, 0.24750243, -703196.75, 41882.426, 0.0, 10.000003, 10.000147 
1.5950684e+3, 2.3397104e+2, -491129.88, -528165.8, 88066.195, -0.09553056, 0.04069391, -419655.78, 227430.02, 0.0, 10.000799, 10.000339 
1.5951015e+3, 2.4396951e+2, -478118.28, -758622.2, 48436.453, -0.07862893, -0.013987032, -469989.97, 79108.12, 0.0, 10.001465, 9.997743 
1.5951353e+3, 2.5396764e+2, -297171.3, -630814.2, 20120.666, 0.106192596, 0.0031828184, -295962.28, 155158.48, 0.00000009760233, 10.002093, 9.99764 
1.5951687e+3, 2.6396585e+2, -111174.44, -421537.4, 53457.945, 0.15451984, 0.047322575, -102224.74, 250914.66, 0.0000054247644, 10.002386, 9.99827 
1.595201e+3, 2.739642e+2, -6191.393, -287162.53, 80812.84, -0.0044352, -0.0094510475, 15393.734, 270544.9, 0.0000627863, 10.002304, 9.998549 
1.5952338e+3, 2.8396234e+2, 2209.9636, -470177.38, -14417.495, -0.06643339, 0.060676295, 2649.5835, 159817.66, 0.0003316825, 10.002708, 9.996429 
1.5952669e+3, 2.939595e+2, 274917.63, -287105.25, -34354.688, 0.012763479, 0.09468833, 277009.84, 336208.78, 0.0010854213, 10.003892, 9.996441 
1.5953001e+3, 3.0395433e+2, 424407.38, -183258.23, 18606.342, -0.014699926, -0.04988854, 424976.56, 424976.56, 0.0024524573, 10.004573, 9.996519 
1.5953341e+3, 3.1395167e+2, 458042.5, -4419.554, 20409.836, -0.12861498, -0.032665897, 458941.5, 458941.5, 0.004282563, 10.004068, 9.997978 
1.6047089e+3, 1.23924755e+2, -2234775.5, -1810595.5, 16243.593, -0.03524371, -0.2478534, -1809974.4, -84445.95, 0.027939666, 9.995688, 10.00141 
1.6047415e+3, 1.3392963e+2, -2168233.8, -1666970.0, 20518.191, 0.047831558, 0.030176667, -1666131.5, -38646.742, 0.01712635, 9.995298, 10.001891 
1.6047725e+3, 1.4392932e+2, -2126485.3, -1577794.3, 55460.65, -0.092862844, -0.18372573, -1572244.5, -42753.746, 0.007836914, 9.994791, 10.002073 
1.6048056e+3, 1.5393375e+2, -1812914.5, -1346344.0, 2125.8835, -0.02630652, -0.008450699, -1346334.4, 85114.266, 0.0022287087, 9.99615, 10.002328 
1.6048378e+3, 1.6393657e+2, -1667324.6, -1360443.0, -1721.4712, -0.02447877, 0.111449786, -1360433.3, -27012.281, 0.00026665046, 9.997062, 10.001119 
1.60487e+3, 1.7393658e+2, -1451275.9, -1194735.3, -3018.112, -0.031183422, -0.03449795, -1194699.8, 40719.773, 0.0000036433328, 9.99784, 10.001204 
1.6049029e+3, 1.8393712e+2, -1310367.8, -1159652.3, 21357.256, 0.0037220975, -0.054023672, -1156684.3, -19269.818, 0.0, 9.998455, 10.000487 
1.6049363e+3, 1.9393836e+2, -1094630.5, -991465.56, -9899.395, 0.04983849, -0.021444483, -990524.25, 48881.156, 0.0, 9.999205, 10.000604 
1.6049695e+3, 2.0393933e+2, -1036558.4, -1079467.0, 19295.371, 0.056563675, 0.10012736, -1029157.94, -87757.914, 0.0, 9.999673, 9.999103 
1.6050024e+3, 2.1393989e+2, -885385.56, -946396.5, 26564.424, 0.009037964, 0.21402194, -875440.4, -32039.791, 0.0, 10.00001, 9.999173 
1.605036e+3, 2.2393982e+2, -677159.9, -672980.7, 55652.29, -0.0035320271, 0.25529516, -619378.75, 126022.55, 0.0, 10.000214, 10.000289 
1.60507e+3, 2.339389e+2, -532826.5, -509258.88, -291.53784, 0.020443242, 0.072093725, -509255.28, 138146.11, 0.0, 10.000361, 10.000654 
1.6051038e+3, 2.4393754e+2, -542388.2, -773055.56, -20510.063, 0.0478013, 0.008792697, -540578.7, 8832.045, 0.0, 10.00095, 9.997899 
1.6051371e+3, 2.5393525e+2, -258842.31, -597813.25, 3418.9666, 0.09578838, -0.023793356, -258807.83, 192628.61, 0.000000007673713, 10.00228, 9.997785 
1.6051707e+3, 2.6393315e+2, -9813.066, -409489.0, 73359.54, 0.09322726, -0.0028919592, 3226.4778, 356684.5, 0.0000049768487, 10.003235, 9.997954 
1.605204e+3, 2.7393156e+2, 147156.88, -262232.1, 15957.259, 0.010078429, -0.008626256, 147777.92, 403249.34, 0.00006482946, 10.003553, 9.99814 
1.6052374e+3, 2.839295e+2, 188589.58, -396848.72, -1933.8027, -0.017866114, 0.07276757, 188595.97, 346087.78, 0.00033743004, 10.004015, 9.996326 
1.6052711e+3, 2.9392633e+2, 398398.5, -232353.78, 8663.23, 0.020740617, 0.08152991, 398517.47, 458044.34, 0.0010902435, 10.004746, 9.996417 
1.6053046e+3, 3.039219e+2, 484770.44, -158467.17, 91918.49, -0.022146443, 0.010368465, 497647.75, 497647.75, 0.0024557253, 10.005003, 9.996475 
1.6053393e+3, 3.1391937e+2, 541442.0, 79728.086, -21923.357, -0.008153719, 0.04725798, 542480.7, 542480.7, 0.004281952, 10.00442, 9.998393 
1.6147043e+3, 1.238934e+2, -2143807.3, -1699677.9, -20571.78, -0.13355356, -0.06840656, -1698727.0, 27113.398, 0.02978273, 9.9959955, 10.00204 
1.614736e+3, 1.3389724e+2, -2056167.6, -1445685.6, -14792.585, -0.059329424, -0.031581882, -1445327.4, 182473.11, 0.018308382, 9.995321, 10.003431 
1.6147703e+3, 1.4390057e+2, -2157251.3, -1658651.8, 75877.35, 0.15717794, 0.060927764, -1647360.4, -117592.48, 0.008418617, 9.994855, 10.001492 
1.6148022e+3, 1.5390107e+2, -1879749.4, -1481900.9, 70332.13, 0.0012695892, -0.06507454, -1469833.5, -38066.773, 0.0024150687, 9.996138, 10.001405 
1.6148348e+3, 1.6390188e+2, -1637019.4, -1335872.3, 7388.1343, -0.06807527, -0.10056569, -1335691.1, -1931.7391, 0.0002938315, 9.99721, 10.001221 
1.6148682e+3, 1.7390326e+2, -1435104.6, -1164307.6, 36346.45, -0.026985308, -0.13441223, -1159514.0, 76227.91, 0.000004294035, 9.997835, 10.001423 
1.6149014e+3, 1.839046e+2, -1345080.4, -1230295.4, 32819.01, -0.021168191, -0.06396277, -1221574.4, -83845.7, 0.0, 9.998453, 9.999999 
1.614935e+3, 1.9390564e+2, -1150008.9, -1084355.4, 31945.248, -0.03267473, 0.004411926, -1071377.1, -31652.834, 0.0, 9.99911, 10.000011 
1.6149683e+3, 2.039059e+2, -1026133.75, -1018624.44, 13450.343, -0.059843305, 0.06468473, -1008414.5, -66689.15, 0.0, 9.999504, 9.9996 
1.6150016e+3, 2.1390507e+2, -875413.94, -876379.8, 52129.297, -0.0918278, -0.02381138, -823765.4, 19968.732, 0.0, 9.9998, 9.999753 
1.6150358e+3, 2.239046e+2, -787156.56, -831708.3, 45419.824, -0.038177505, -0.010504284, -758844.1, -13105.908, 0.0, 9.999926, 9.999333 
1.6150717e+3, 2.3390463e+2, -648479.75, -690366.5, 22197.719, 0.15394554, 0.0115520395, -638904.9, 8831.673, 0.0, 10.000116, 9.999526 
1.6151063e+3, 2.4390414e+2, -507704.0, -653067.25, 7840.38, 0.18405554, 0.057072584, -507282.34, 42457.65, 0.0, 10.000731, 9.998832 
1.6151385e+3, 2.5390282e+2, -214376.89, -446548.78, 72074.164, -0.021657458, -0.004831425, -193822.31, 257929.14, 0.00000000987263, 10.002021, 9.998949 
1.615172e+3, 2.6390085e+2, -110896.36, -543611.94, 70812.4, -0.120626405, -0.0034922166, -99602.9, 254167.88, 0.000004852571, 10.002917, 9.997177 
1.6152073e+3, 2.7389774e+2, 39347.145, -423468.7, 49524.81, -0.033669967, -0.06585333, 44587.344, 300390.9, 0.00006465758, 10.0033, 9.997143 
1.6152418e+3, 2.8389508e+2, 188924.39, -333371.28, 5000.194, -0.0089682, -0.011098164, 188972.25, 346803.78, 0.0003366383, 10.003743, 9.996893 
1.6152748e+3, 2.9389316e+2, 411990.06, -136505.1, 59236.19, -0.10126606, 0.032177337, 418314.5, 478166.88, 0.0010768002, 10.00445, 9.997221 
1.6153088e+3, 3.0389038e+2, 408710.53, -231247.94, 51915.594, -0.13382857, 0.10089766, 412894.75, 412894.75, 0.0024102982, 10.0046625, 9.996119 
1.6153452e+3, 3.1388864e+2, 431772.4, -910.2095, 22445.01, 0.08854969, 0.25554588, 432933.6, 432933.6, 0.0041873883, 10.003842, 9.998082 
1.6247015e+3, 1.2386165e+2, -2355366.8, -1763158.0, -3893.6533, 0.07434869, 0.058657944, -1763132.4, -36977.75, 0.03179242, 9.994401, 10.002327 
1.6247322e+3, 1.3386415e+2, -1895998.0, -1330108.8, -90716.21, 0.007764306, -0.08859998, -1315922.0, 312201.75, 0.019603958, 9.996223, 10.003795 
1.6247664e+3, 1.4386806e+2, -1910242.0, -1589017.3, 4986.984, 0.21828534, 0.061812766, -1588939.8, -58855.785, 0.009062119, 9.996785, 10.001026 
1.6247994e+3, 1.5386826e+2, -1781288.9, -1489350.1, 7774.697, 0.05990942, -0.041421004, -1489143.3, -57054.9, 0.002624408, 9.997062, 10.000898 
1.6248326e+3, 1.6386865e+2, -1622713.4, -1334067.6, -16754.416, 0.0013738552, -0.086684115, -1333098.4, 987.70935, 0.00032476612, 9.997332, 10.001177 
1.6248664e+3, 1.7386964e+2, -1436777.0, -1154654.6, -39999.902, 0.03531136, -0.16442041, -1149093.0, 86977.51, 0.000005034694, 9.997787, 10.001502 
1.6249003e+3, 1.8387076e+2, -1367838.5, -1271857.0, 3998.0842, 0.026154319, -0.105929196, -1271690.8, -133632.13, 0.0, 9.998436, 9.999731 
1.6249341e+3, 1.9387197e+2, -1077041.9, -1070716.0, -3998.467, -0.038245838, 0.010938003, -1068780.8, -28727.408, 0.0, 9.999738, 9.999796 
1.6249679e+3, 2.0387225e+2, -900034.9, -939502.25, -28628.137, -0.06304763, 0.07419976, -884998.06, 57055.855, 0.0, 10.000267, 9.999784 
1.6250017e+3, 2.1387097e+2, -875860.3, -852326.75, -49649.883, -0.031368073, -0.07996428, -813068.4, 30996.053, 0.0, 9.999668, 9.999993 
1.6250364e+3, 2.2387017e+2, -829343.4, -891743.3, 7263.0156, 0.043275204, -0.09635313, -828509.2, -82437.66, 0.0, 9.999793, 9.998989 
1.6250724e+3, 2.3387001e+2, -542199.6, -690350.4, 5760.5303, 0.16679908, -0.050700963, -541976.0, 106098.836, 0.0, 10.001051, 9.9990835 
1.6251072e+3, 2.4386966e+2, -346811.28, -554569.0, 17348.443, 0.1801281, 0.027154686, -345372.6, 204705.9, 0.0, 10.001749, 9.999015 
1.6251405e+3, 2.5386906e+2, -249010.69, -436103.84, -24305.047, 0.002813829, 0.014744502, -245904.8, 206178.1, 0.000000011745934, 10.00166, 9.999193 
1.6251746e+3, 2.6386747e+2, -262606.2, -613178.44, -5258.678, -0.09049176, 0.039253294, -262527.34, 91571.62, 0.0000048598445, 10.0018635, 9.997208 
1.62521e+3, 2.7386406e+2, -69278.68, -478911.06, 5071.729, -0.03623268, -0.043205965, -69215.9, 186919.11, 0.00006306325, 10.002556, 9.99712 
1.6252452e+3, 2.838614e+2, 140173.23, -330282.03, 35594.633, -0.0020758826, -0.0025368023, 142851.1, 301014.9, 0.00033149842, 10.003318, 9.997105 
1.6252796e+3, 2.9385975e+2, 395187.4, -123556.484, -5976.4204, -0.04123281, 0.055141356, 395256.25, 455438.06, 0.0010554205, 10.004253, 9.9973955 
1.6253139e+3, 3.0385733e+2, 451965.03, -206305.33, -13189.963, -0.08455646, 0.14588048, 452229.22, 452229.22, 0.0023409186, 10.004926, 9.996178 
1.6253497e+3, 3.1385466e+2, 601150.25, 39690.242, -80916.516, 0.10445272, 0.21903904, 612579.1, 612579.1, 0.0040339665, 10.005131, 9.997776 
1.6346963e+3, 1.2382834e+2, -2323294.8, -1721213.6, -128082.91, 0.03841113, -0.0014502695, -1695098.8, 31383.268, 0.03398967, 9.994502, 10.00257 
1.6347295e+3, 1.3383019e+2, -1958753.3, -1467228.0, -20968.54, 0.0879953, -0.1414306, -1466335.1, 162120.89, 0.02102759, 9.996263, 10.002816 
1.6347608e+3, 1.4383127e+2, -1894499.0, -1610953.4, -18894.158, -0.06822125, -0.20324951, -1609699.9, -79255.805, 0.009775217, 9.997, 10.000784 
1.634796e+3, 1.5383539e+2, -1780475.8, -1496416.1, 25816.643, -0.00009316233, 0.09032532, -1494088.9, -61676.027, 0.002860367, 9.997094, 10.00084 
1.6348305e+3, 1.6383716e+2, -1621116.9, -1345926.1, -20834.158, 0.024814563, 0.18846266, -1344357.8, -9959.325, 0.00036087315, 9.997392, 10.001068 
1.6348645e+3, 1.7383568e+2, -1455968.3, -1187755.1, -15106.548, 0.030670961, -0.11422561, -1186907.0, 49498.855, 0.000005927034, 9.997758, 10.001289 
1.6348988e+3, 1.8383549e+2, -1358726.9, -1263161.5, 28049.576, 0.0021620465, -0.17824653, -1255537.0, -117131.445, 0.0, 9.99847, 9.999779 
1.6349337e+3, 1.9383721e+2, -1084039.8, -1068795.8, 57579.977, -0.08863347, -0.019477999, -1018335.44, 22058.951, 0.0, 9.999658, 9.999855 
1.634968e+3, 2.0383808e+2, -928898.75, -961947.75, -58339.69, -0.089519896, 0.10544424, -884788.44, 57600.207, 0.0, 10.000105, 9.999711 
1.6350025e+3, 2.138375e+2, -910022.44, -880370.75, -55381.313, 0.06625136, 0.030387636, -837865.2, 6527.696, 0.0, 9.999475, 9.999899 
1.6350369e+3, 2.2383656e+2, -863249.3, -893623.4, 33873.664, 0.08785411, -0.00013176336, -841314.0, -94912.79, 0.0, 9.999505, 9.99911 
1.6350713e+3, 2.3383504e+2, -568181.75, -683865.2, 69506.02, -0.061074216, -0.10901222, -535598.06, 112818.13, 0.0, 10.000795, 9.999248 
1.6351065e+3, 2.4383411e+2, -437244.9, -667370.7, 3700.5513, -0.09959048, -0.073565535, -437185.4, 113241.01, 0.0, 10.001437, 9.998384 
1.6351426e+3, 2.5383404e+2, -329903.1, -549644.94, -8326.591, 0.027977794, 0.040971946, -329588.03, 122841.7, 0.000000006263202, 10.001444, 9.998511 
1.6351779e+3, 2.6383317e+2, -242334.08, -530734.06, 2551.405, 0.031569287, 0.14656216, -242311.5, 112128.64, 0.000005059976, 10.001672, 9.997873 
1.6352119e+3, 2.7383074e+2, -38800.82, -368374.13, 57962.227, -0.13347161, 0.06683724, -28904.156, 227559.77, 0.000060994436, 10.002337, 9.99799 
1.6352472e+3, 2.8382835e+2, 72330.68, -395177.03, 52950.254, -0.1638037, 0.09750791, 78252.84, 236742.03, 0.0003219481, 10.003011, 9.996797 
1.6352847e+3, 2.93826e+2, 309825.06, -217336.67, 57957.08, 0.0148166865, 0.13668491, 316121.75, 376637.53, 0.0010251604, 10.003918, 9.996903 
1.6353193e+3, 3.0382276e+2, 414361.3, -193897.28, -20839.617, -0.05735097, 0.1606151, 415074.47, 415074.47, 0.002256324, 10.00454, 9.9964485 
1.6353522e+3, 3.138178e+2, 515302.1, -14233.193, 4472.4917, -0.19649318, -0.04218006, 515339.84, 515339.84, 0.0038517313, 10.004605, 9.997654 
1.6446911e+3, 1.23793945e+2, -2182055.0, -1676634.3, -89124.664, 0.019808806, -0.0667687, -1661378.8, 65440.984, 0.036383986, 9.995596, 10.002362 
1.6447264e+3, 1.3379663e+2, -2043606.1, -1573747.8, -72699.79, 0.17624626, -0.06419884, -1562756.3, 66030.15, 0.022584815, 9.995983, 10.002213 
1.6447566e+3, 1.4379601e+2, -2014509.4, -1656621.6, -23079.73, -0.13362417, -0.26732007, -1655139.4, -124348.77, 0.010560797, 9.99611, 10.00091 
1.644793e+3, 1.5380041e+2, -1814101.4, -1486980.6, 10370.759, 0.021134125, 0.03124005, -1486652.3, -53898.617, 0.0031241647, 9.996734, 10.001085 
1.6448286e+3, 1.638026e+2, -1620160.3, -1381677.1, 22609.387, 0.09503748, 0.16748285, -1379552.6, -44817.832, 0.0004029895, 9.9975605, 10.000744 
1.644863e+3, 1.7380157e+2, -1278023.0, -1153155.6, -15809.1045, 0.05603871, -0.043694686, -1151185.1, 85556.13, 0.0000070009137, 9.999197, 10.000845 
1.6448979e+3, 1.8380128e+2, -1172431.4, -1171765.3, 17247.941, 0.022791922, -0.092265956, -1154847.1, -16103.533, 0.0, 9.999764, 9.99976 
1.6449332e+3, 1.9380195e+2, -1188220.6, -1115414.5, 3864.6733, -0.04104292, -0.041977648, -1115210.0, -74469.09, 0.0, 9.998947, 9.999857 
1.6449682e+3, 2.0380248e+2, -1096774.0, -1031253.3, -72136.4, -0.019508025, 0.04410368, -984786.75, -42049.12, 0.0, 9.998915, 9.999797 
1.645003e+3, 2.1380275e+2, -783455.06, -797980.94, -87109.875, 0.12339692, 0.04033336, -703305.9, 141427.81, 0.0, 10.00028, 10.000053 
1.6450374e+3, 2.2380233e+2, -637698.5, -792926.4, 42567.203, 0.11996728, 0.054283455, -626791.9, 119945.24, 0.0, 10.001076, 9.99906 
1.6450717e+3, 2.3380068e+2, -553690.56, -685837.94, 31938.021, -0.10291952, -0.056059893, -546376.44, 102377.06, 0.0, 10.00093, 9.999182 
1.6451071e+3, 2.4379948e+2, -489406.3, -703861.6, 135.3006, -0.1448442, -0.037986085, -489406.22, 61360.07, 0.0, 10.001116, 9.998295 
1.6451444e+3, 2.5379884e+2, -277314.13, -543289.56, -4776.4478, 0.06343964, 0.031121584, -277228.38, 175547.0, 0.000000005166704, 10.001868, 9.998363 
1.6451806e+3, 2.6379782e+2, -113457.305, -433908.56, 51031.992, 0.112123094, 0.12038084, -105526.71, 249259.84, 0.000005473011, 10.002424, 9.998163 
1.6452146e+3, 2.7379608e+2, 65227.16, -271701.6, 21458.61, -0.100841306, 0.075066045, 66588.336, 323391.0, 0.000058881178, 10.002893, 9.998364 
1.6452503e+3, 2.8379393e+2, 113889.13, -380612.75, 41791.188, -0.14695616, 0.1142143, 117396.11, 276221.16, 0.0003079229, 10.003308, 9.996776 
1.6452888e+3, 2.9379123e+2, 217293.61, -273172.3, 28998.918, 0.06830144, 0.12727682, 219002.22, 279858.78, 0.0009851817, 10.003321, 9.99682 
1.6453238e+3, 3.0378804e+2, 391588.38, -129479.91, 43637.367, -0.008225044, 0.12955956, 395217.56, 395217.56, 0.0021653315, 10.004019, 9.997156 
1.6453572e+3, 3.137844e+2, 669976.44, 105148.29, 11134.525, -0.19467251, -0.01559054, 670195.9, 670195.9, 0.0036777004, 10.005488, 9.998041 
1.6546871e+3, 1.23759925e+2, -2214805.8, -1795381.8, 114426.97, -0.021414269, 0.010215208, -1766195.0, -39041.78, 0.03897044, 9.995801, 10.001448 
1.6547224e+3, 1.3376406e+2, -2059408.1, -1604923.0, -58235.18, 0.15158752, 0.20108141, -1597579.8, 31529.793, 0.024272982, 9.995975, 10.002005 
1.6547532e+3, 1.437626e+2, -1963458.6, -1565041.4, -24318.254, -0.1419985, -0.1066542, -1563562.5, -32441.975, 0.0114189135, 9.996173, 10.001506 
1.6547897e+3, 1.5376332e+2, -1775426.6, -1409484.4, 45902.895, -0.009822081, -0.22909743, -1403814.4, 29296.363, 0.0034161112, 9.996749, 10.001612 
1.6548261e+3, 1.6376485e+2, -1641469.9, -1452321.8, 59294.574, 0.056335915, -0.16043958, -1435271.0, -100174.91, 0.00045137366, 9.9976635, 10.000213 
1.6548619e+3, 1.7376746e+2, -1320126.1, -1236620.8, 59056.242, -0.009234971, 0.04639721, -1206048.3, 31027.432, 0.000008273259, 9.999182, 10.000277 
1.6548973e+3, 1.8376829e+2, -1180774.0, -1199673.8, -17784.537, -0.04944543, 0.14986315, -1170084.6, -31013.256, 0.0, 9.999798, 9.999558 
1.6549326e+3, 1.9376622e+2, -1212692.6, -1147615.1, -17155.957, -0.022378257, -0.054473422, -1143369.4, -102276.47, 0.0, 9.998854, 9.999688 
1.6549675e+3, 2.037654e+2, -1105911.9, -1009310.75, -44700.953, -0.004946236, -0.10004242, -991800.1, -48699.105, 0.0, 9.998742, 10.0000305 
1.6550024e+3, 2.137666e+2, -793663.5, -768344.4, -21360.51, 0.021075992, -0.045647327, -756173.75, 88914.17, 0.0, 10.000061, 10.000365 
1.6550374e+3, 2.2376716e+2, -688733.44, -837998.75, 25936.93, -0.0026752912, 0.058684967, -684355.0, 62727.094, 0.0, 10.000815, 9.998876 
1.6550727e+3, 2.3376669e+2, -606127.9, -740732.25, 44108.883, -0.09694821, 0.09305639, -592961.56, 56126.977, 0.0, 10.000696, 9.99892 
1.6551088e+3, 2.4376564e+2, -507609.4, -676365.0, 13784.652, -0.12501903, 0.12628324, -506490.8, 44608.598, 0.0, 10.000839, 9.998613 
1.6551457e+3, 2.5376344e+2, -287995.7, -502382.7, 39214.773, -0.015571007, -0.0073412233, -281047.84, 172071.97, 0.00000000856411, 10.00161, 9.998757 
1.6551822e+3, 2.637614e+2, -170430.61, -494032.72, 49811.918, 0.018869156, -0.026380492, -162936.64, 192201.86, 0.0000057188686, 10.002165, 9.997879 
1.655218e+3, 2.737599e+2, 12944.407, -331841.78, 59512.863, -0.080995716, -0.019589512, 22927.736, 280080.97, 0.00005720022, 10.002671, 9.998063 
1.6552542e+3, 2.83758e+2, 84166.875, -368172.25, 23903.324, -0.11957968, 0.05292338, 85426.51, 244599.55, 0.0002952708, 10.002989, 9.997015 
1.6552913e+3, 2.9375526e+2, 204493.95, -247587.17, 58070.027, -0.042064775, 0.024045495, 211833.9, 273039.47, 0.00095047243, 10.003082, 9.997116 
1.655327e+3, 3.0375275e+2, 391659.06, -32888.28, 72299.88, -0.13015397, 0.04268225, 403633.9, 403633.9, 0.0020977282, 10.003634, 9.9979925 
1.6553631e+3, 3.137532e+2, 625844.44, 149835.4, 126878.016, -0.20175488, 0.21047008, 657551.2, 657551.2, 0.0035621547, 10.004898, 9.998633 
1.664683e+3, 1.2372447e+2, -2220815.8, -1852796.0, 196669.42, 0.021108508, -0.016244948, -1767476.1, -39979.97, 0.041736465, 9.995967, 10.000985 
1.6647182e+3, 1.3372849e+2, -1947075.1, -1620154.0, -108032.15, 0.11188558, 0.22191972, -1587680.1, 41777.824, 0.026087236, 9.997021, 10.001403 
1.6647516e+3, 1.4372675e+2, -1851848.8, -1500804.8, -73008.31, 0.07175007, -0.07832018, -1486226.3, 45246.98, 0.012349877, 9.9969225, 10.001568 
1.6647871e+3, 1.5372713e+2, -1633755.8, -1311549.3, -54711.27, 0.025265925, -0.25783172, -1302512.6, 130951.11, 0.003737191, 9.997616, 10.001851 
1.6648236e+3, 1.637286e+2, -1606373.4, -1453548.9, -3496.7646, 0.026324367, -0.19912533, -1453468.9, -118019.945, 0.00050616945, 9.998006, 10.000026 
1.6648604e+3, 1.7373106e+2, -1504007.9, -1354525.8, -9900.593, -0.00478312, 0.018512499, -1353872.9, -116439.98, 0.000009797576, 9.998044, 10.000011 
1.6648966e+3, 1.8373214e+2, -1375413.5, -1247596.6, -44652.04, -0.009177661, 0.14423575, -1233542.9, -94115.195, 0.0, 9.998272, 9.999961 
1.664932e+3, 1.9373116e+2, -1092459.8, -1028250.06, -26801.62, 0.025950544, -0.0037725733, -1018533.25, 22904.01, 0.0, 9.999424, 10.000222 
1.6649674e+3, 2.0373069e+2, -916700.9, -950665.5, 9179.09, 0.044817723, -0.036308065, -914378.94, 29062.523, 0.0, 10.000179, 9.999745 
1.6650026e+3, 2.1373092e+2, -775384.75, -805534.56, -45525.688, 0.031963445, -0.034772698, -742503.0, 102935.13, 0.0, 10.000378, 9.999962 
1.6650382e+3, 2.2373088e+2, -718307.9, -865093.75, -15499.352, 0.020414446, 0.039072767, -716689.1, 30749.102, 0.0, 10.00068, 9.998738 
1.6650745e+3, 2.3373048e+2, -526001.06, -708497.75, -24299.924, -0.0019450003, 0.08766798, -522820.88, 126622.75, 0.0, 10.001282, 9.998839 
1.665111e+3, 2.4372938e+2, -395365.97, -640553.9, -30016.387, -0.0065029534, 0.12707044, -391744.78, 159709.64, 0.0, 10.001666, 9.998484 
1.6651475e+3, 2.5372702e+2, -284286.25, -514481.34, -70549.97, 0.018880326, -0.0025502876, -264384.75, 189090.97, 0.0000000057748837, 10.001688, 9.9986515 
1.6651842e+3, 2.6372474e+2, -211252.28, -510149.53, -31011.64, 0.03148646, -0.041487604, -208068.63, 147427.83, 0.0000055479773, 10.001864, 9.997911 
1.665221e+3, 2.7372274e+2, -39839.64, -368987.94, -36892.48, -0.0065741995, -0.07616631, -35755.246, 221760.11, 0.000055377644, 10.002325, 9.997992 
1.6652578e+3, 2.8372097e+2, 102351.586, -313024.8, -21731.314, -0.028317668, -0.008719099, 103485.414, 263019.28, 0.00028510438, 10.002909, 9.997414 
1.6652945e+3, 2.937193e+2, 319018.47, -136375.13, -34269.297, -0.04538048, 0.027356464, 321582.88, 383137.2, 0.000926934, 10.003674, 9.997563 
1.6653305e+3, 3.0371657e+2, 481869.28, -25928.645, 8193.869, -0.13711123, 0.016115505, 482001.47, 482001.47, 0.0020635084, 10.004398, 9.997672 
1.6653691e+3, 3.137169e+2, 526929.7, 72022.07, -100038.34, -0.03646776, 0.21460748, 547957.06, 547957.06, 0.003520448, 10.004349, 9.998351 
1.674678e+3, 1.2368722e+2, -2170898.8, -1780639.9, 30897.53, -0.1678765, -0.20411482, -1778208.8, -50357.625, 0.044670317, 9.996107, 10.001405 
1.6747138e+3, 1.3368966e+2, -2015543.3, -1784236.0, -90437.8, -0.08177187, -0.03536114, -1753074.3, -123240.49, 0.028026333, 9.9971075, 10.000233 
1.6747516e+3, 1.4368825e+2, -1867787.3, -1557855.6, -82050.74, 0.34151167, -0.20937318, -1537473.9, -5623.4253, 0.013357116, 9.997024, 10.001124 
1.6747847e+3, 1.5369204e+2, -1638867.1, -1330124.5, -12898.539, -0.006101669, -0.0335146, -1329586.6, 104224.36, 0.004090086, 9.997642, 10.001716 
1.6748202e+3, 1.6369395e+2, -1582226.0, -1426388.5, -18271.24, -0.15287767, 0.069300495, -1424275.0, -88482.27, 0.0005678562, 9.998099, 10.000171 
1.6748582e+3, 1.736924e+2, -1504708.4, -1341911.1, -1477.4038, -0.05419335, -0.12520851, -1341897.8, -104084.36, 0.000011659807, 9.997983, 10.00013 
1.6748953e+3, 1.8369284e+2, -1305394.3, -1101266.5, -24936.293, -0.011815965, -0.1108317, -1098264.4, 41548.01, 0.0, 9.998258, 10.000979 
1.6749313e+3, 1.9369674e+2, -1025962.75, -865687.44, 29245.121, -0.0190855, 0.11152152, -860517.9, 181256.25, 0.0, 9.999313, 10.001399 
1.6749673e+3, 2.0369825e+2, -988074.44, -1070897.1, 5042.34, -0.009039699, 0.24341519, -987768.56, -44009.418, 0.0, 10.0000515, 9.998984 
1.675003e+3, 2.1369563e+2, -883780.4, -982982.7, -22346.621, 0.02263532, 0.068444744, -878978.94, -33194.332, 0.0, 10.00016, 9.998855 
1.6750392e+3, 2.2369348e+2, -772230.6, -907028.25, -7706.589, 0.034273595, -0.0036223393, -771791.44, -23986.06, 0.0, 10.000379, 9.998592 
1.6750765e+3, 2.3369208e+2, -562832.9, -731978.2, 13127.393, 0.0530071, -0.05236276, -561820.1, 87998.125, 0.0, 10.00105, 9.99879 
1.6751136e+3, 2.4369076e+2, -473414.16, -736950.2, -42677.016, 0.0577589, -0.0069459067, -466675.34, 85155.266, 0.0, 10.001387, 9.9979515 
1.6751495e+3, 2.5368962e+2, -359246.78, -613819.0, -47767.49, 0.030684441, 0.04249148, -350578.9, 103263.445, 0.0000000017385277, 10.001447, 9.998081 
1.675186e+3, 2.636878e+2, -237689.03, -502606.16, -28915.063, -0.0053090914, 0.066688366, -234569.75, 121290.37, 0.0000048816705, 10.001592, 9.998099 
1.6752236e+3, 2.736846e+2, -49685.57, -347386.13, 4847.565, -0.020400206, -0.11399014, -49606.656, 208283.38, 0.000051551386, 10.002129, 9.998242 
1.6752608e+3, 2.836827e+2, 72848.31, -292623.2, -9879.158, -0.050570402, -0.081441745, 73115.164, 233023.13, 0.0002714196, 10.002566, 9.997718 
1.6752979e+3, 2.9368296e+2, 309020.22, -92934.11, 22325.85, -0.111350246, 0.10788357, 310256.44, 372162.84, 0.0008994481, 10.003378, 9.9980135 
1.6753344e+3, 3.0367932e+2, 317946.44, -249197.06, -5730.6865, -0.21472117, 0.02890425, 318004.3, 318004.3, 0.0020333803, 10.003919, 9.996362 
1.6753742e+3, 3.136756e+2, 387399.03, -109733.65, -36089.203, -0.029604431, -0.019824672, 390005.25, 390005.25, 0.0035086041, 10.003895, 9.9973135 
1.6846754e+3, 1.2365075e+2, -2159939.8, -1664754.4, 5401.2446, -0.000025824356, -0.26144412, -1664695.5, 63510.59, 0.04776628, 9.995732, 10.002376 
1.6847111e+3, 1.3365303e+2, -2120803.3, -1879981.1, -79145.52, -0.016299283, -0.08162384, -1856299.0, -226108.72, 0.030093629, 9.99661, 9.9998 
1.684749e+3, 1.4365157e+2, -1864756.4, -1622397.5, -7447.2856, 0.3749003, -0.21350999, -1622168.9, -89959.766, 0.0144471, 9.99731, 10.000556 
1.6847827e+3, 1.5365514e+2, -1639543.9, -1396800.4, -537.4336, 0.015310196, 0.00051371916, -1396799.3, 37375.55, 0.004479329, 9.997919, 10.001131 
1.6848181e+3, 1.6365686e+2, -1579797.5, -1384342.3, -12498.849, -0.1465342, 0.10261812, -1383546.3, -47387.01, 0.0006375465, 9.99793, 10.000549 
1.6848563e+3, 1.7365555e+2, -1527687.6, -1287670.0, 5721.5923, -0.014352632, -0.12578025, -1287533.8, -49358.97, 0.00001399049, 9.997545, 10.00071 
1.6848938e+3, 1.8365614e+2, -1396108.9, -1149573.4, 39300.1, 0.059581857, -0.12865943, -1143460.1, -3289.6052, 0.0, 9.9976635, 10.000927 
1.6849305e+3, 1.9365989e+2, -1102029.5, -925188.06, -27723.77, 0.014598806, 0.09587939, -920943.6, 121190.66, 0.0, 9.998885, 10.001197 
1.6849673e+3, 2.0366114e+2, -1028952.0, -1094382.5, -91560.93, 0.012101902, 0.21924554, -964437.2, -20315.482, 0.0, 9.999791, 9.998946 
1.6850035e+3, 2.1365854e+2, -876978.5, -973938.06, -81100.516, 0.06929888, 0.042567123, -830972.4, 15174.2, 0.0, 10.000201, 9.998886 
1.6850404e+3, 2.2365627e+2, -726368.4, -891201.5, 28174.07, 0.11383385, -0.04027557, -721685.75, 26481.607, 0.0, 10.000691, 9.998577 
1.6850784e+3, 2.336545e+2, -537545.2, -722438.8, 28947.254, 0.1333014, -0.12030803, -533119.1, 117063.055, 0.0, 10.001218, 9.998798 
1.6851157e+3, 2.4365303e+2, -410122.34, -720243.4, 14540.987, 0.13465622, -0.086209014, -409442.03, 142753.63, 0.0, 10.00188, 9.997816 
1.6851519e+3, 2.5365192e+2, -172930.9, -551625.1, -3347.4607, 0.077427745, -0.017723357, -172901.33, 281306.97, 0.0000000018399801, 10.00282, 9.99785 
1.6851886e+3, 2.6365006e+2, -29101.533, -450993.72, 32054.766, 0.023033055, 0.035240907, -26679.957, 329548.06, 0.0000039092515, 10.003226, 9.997673 
1.685226e+3, 2.7364692e+2, 32814.0, -343828.06, -26328.908, -0.011349905, -0.09540784, 34645.598, 292904.9, 0.000046409757, 10.0029, 9.997874 
1.6852635e+3, 2.8364494e+2, 121965.836, -277459.63, -20767.86, -0.025617078, -0.04538307, 123042.74, 283321.1, 0.00025645504, 10.002915, 9.997679 
1.6853018e+3, 2.9364493e+2, 297478.53, -96843.9, -53585.87, -0.029572276, 0.11820721, 304630.78, 366908.28, 0.0008664291, 10.003275, 9.998055 
1.6853389e+3, 3.0364084e+2, 280683.25, -283114.2, -29592.541, -0.12504254, -0.0043918104, 282232.25, 282232.25, 0.0019906836, 10.003675, 9.99628 
1.6853784e+3, 3.13636e+2, 404519.3, -71739.74, -37274.285, 0.033882745, -0.13070916, 407418.94, 407418.94, 0.0034818081, 10.003821, 9.997664 
1.6946717e+3, 1.236139e+2, -2051553.6, -1483108.5, 44647.164, -0.024968222, -0.2877922, -1479623.1, 248949.8, 0.051028147, 9.995858, 10.00364 
1.6947095e+3, 1.336186e+2, -2089330.5, -1810414.4, -32968.19, 0.13456553, 0.09322791, -1806570.5, -176042.47, 0.032295942, 9.996586, 10.000292 
1.6947432e+3, 1.4361687e+2, -1892560.3, -1708382.1, -683.432, 0.006146431, -0.07961077, -1708379.5, -175831.98, 0.015627254, 9.997423, 9.999915 
1.6947801e+3, 1.5361646e+2, -1714224.8, -1562158.3, 32664.389, -0.04614104, -0.15238222, -1555438.8, -120883.87, 0.004910431, 9.997963, 9.999975 
1.6948168e+3, 1.6361724e+2, -1513612.6, -1264503.6, -42916.074, -0.113411665, -0.111947685, -1257317.5, 79231.74, 0.0007170378, 9.998003, 10.001335 
1.6948542e+3, 1.7362067e+2, -1455348.8, -1131497.0, 6200.843, -0.006649877, 0.027053293, -1131378.3, 107136.92, 0.000016975888, 9.997518, 10.001794 
1.6948918e+3, 1.8362229e+2, -1477485.3, -1324891.8, 59968.234, 0.053285666, 0.11501774, -1304145.3, -163645.6, 0.0, 9.9976845, 9.999714 
1.6949295e+3, 1.9362053e+2, -1229438.0, -1164355.5, 28017.258, -0.013887376, -0.05256508, -1153956.0, -111437.66, 0.0, 9.998775, 9.999606 
1.6949669e+3, 2.036194e+2, -1014830.5, -1018222.1, -90951.625, -0.040123202, -0.10671742, -925558.9, 18970.422, 0.0, 9.999587, 9.999572 
1.6950037e+3, 2.136195e+2, -836519.8, -849845.3, -52259.53, 0.038758907, -0.10278386, -790500.0, 56025.1, 0.0, 10.000012, 9.999838 
1.695041e+3, 2.236191e+2, -751717.4, -871050.44, 31027.281, 0.09424843, -0.06511978, -744132.2, 4393.442, 0.0, 10.000391, 9.998855 
1.6950795e+3, 2.3361768e+2, -571018.1, -721633.06, 68122.39, 0.10922411, -0.12980033, -544778.2, 105758.21, 0.0, 10.000922, 9.998943 
1.6951174e+3, 2.4361596e+2, -455165.1, -727890.0, 34226.5, 0.0838483, -0.13528194, -450935.34, 101616.54, 0.0, 10.001516, 9.997941 
1.6951545e+3, 2.5361377e+2, -203346.14, -554136.2, 50550.754, 0.030686028, -0.18153583, -196206.8, 258368.53, 0.0000000033657745, 10.002561, 9.997962 
1.6951913e+3, 2.6361156e+2, -148280.08, -621046.9, 10681.759, -0.046963044, -0.1255979, -148038.84, 208561.6, 0.0000030031388, 10.002903, 9.9966545 
1.6952279e+3, 2.7360943e+2, -81438.375, -528866.06, -16512.39, -0.118145935, -0.041946612, -80829.81, 177796.44, 0.000041455987, 10.002679, 9.996706 
1.6952659e+3, 2.8360736e+2, 54008.746, -350720.8, -27118.879, -0.11140624, 0.07438248, 55817.76, 216466.61, 0.00024337543, 10.002627, 9.997314 
1.6953059e+3, 2.9360494e+2, 244884.47, -154810.98, -14011.088, 0.020660155, 0.030213928, 245375.02, 308044.97, 0.0008331997, 10.003034, 9.997785 
1.6953433e+3, 3.0360082e+2, 266676.72, -193747.67, -38189.37, -0.070334464, -0.110403635, 269822.8, 269822.8, 0.0019313671, 10.003207, 9.997099 
1.695381e+3, 3.1359845e+2, 447902.06, 153242.25, 25504.959, -0.14232758, -0.115009926, 450093.4, 450093.4, 0.0034096262, 10.003267, 9.999461 
1.7046662e+3, 1.2357647e+2, -2219053.5, -1548223.0, 105831.45, -0.07260621, -0.20184615, -1531923.0, 197021.16, 0.054460447, 9.994657, 10.003768 
1.7047057e+3, 1.335812e+2, -2117636.0, -1783180.1, -143392.72, 0.13520315, 0.16019326, -1730120.4, -99224.26, 0.034638863, 9.996224, 10.000656 
1.7047404e+3, 1.4357913e+2, -1919082.5, -1685206.1, -93076.28, 0.010118545, -0.08158496, -1652686.3, -119768.664, 0.016903277, 9.997124, 10.00021 
1.7047781e+3, 1.5357904e+2, -1830497.9, -1588826.3, -226.2438, 0.0022115426, -0.14620312, -1588826.0, -153904.13, 0.00538814, 9.997064, 10.000213 
1.7048149e+3, 1.6358002e+2, -1639210.6, -1352574.5, -15897.409, -0.049417876, -0.08960311, -1351695.5, -14780.957, 0.0008082668, 9.997257, 10.001084 
1.704852e+3, 1.7358351e+2, -1359367.0, -1117282.9, -101607.72, 0.017296718, 0.084773876, -1080289.1, 158591.06, 0.000020835996, 9.998312, 10.00151 
1.70489e+3, 1.8358473e+2, -1312454.9, -1271304.6, -34254.31, 0.07310813, 0.16136076, -1251921.1, -111052.99, 0.0, 9.998925, 9.999498 
1.7049286e+3, 1.9358185e+2, -1196189.5, -1172960.9, 11933.609, 0.02879108, -0.09493801, -1167922.8, -125026.38, 0.0, 9.999101, 9.999408 
1.7049667e+3, 2.0358035e+2, -1012754.9, -997721.7, -26202.182, 0.027163077, -0.18120869, -977979.25, -33069.31, 0.0, 9.999526, 9.999727 
1.7050043e+3, 2.1358138e+2, -743330.6, -783210.44, -75847.02, 0.09045902, -0.10599354, -684846.25, 162050.66, 0.0, 10.00058, 10.0000105 
1.7050421e+3, 2.2358137e+2, -622840.3, -813635.9, -24157.498, 0.13129508, -0.037897825, -619829.2, 129064.945, 0.0, 10.001297, 9.998803 
1.7050806e+3, 2.3357949e+2, -516068.9, -699506.44, -43732.566, 0.12586841, -0.14103694, -506176.3, 144733.27, 0.0, 10.00133, 9.998881 
1.7051187e+3, 2.435777e+2, -471316.1, -731239.4, -46421.61, 0.104914956, -0.15053955, -463274.16, 89652.31, 0.0, 10.001388, 9.997983 
1.7051566e+3, 2.5357604e+2, -350316.75, -607552.9, -64055.703, 0.047138855, -0.15080182, -335248.56, 119697.51, 0.0000000026261497, 10.001504, 9.998088 
1.7051938e+3, 2.635741e+2, -250195.03, -659666.6, -35380.688, -0.022376588, -0.07710203, -247160.42, 109807.945, 0.0000021613648, 10.002145, 9.996764 
1.705231e+3, 2.735718e+2, 56090.61, -454061.25, -7149.496, -0.10572386, -0.022778602, 56190.785, 315184.97, 0.000036656253, 10.003571, 9.996803 
1.7052692e+3, 2.8356916e+2, 257789.58, -285360.13, 48345.773, -0.095154755, 0.04752958, 262059.28, 423080.13, 0.00022921336, 10.004175, 9.99701 
1.7053089e+3, 2.935657e+2, 266010.84, -187421.66, 2974.1125, 0.027542526, -0.06137297, 266030.34, 329083.13, 0.00079328316, 10.00339, 9.9973755 
1.7053466e+3, 3.0356193e+2, 304152.88, -200473.1, 21574.0, -0.05808408, -0.13159838, 305073.53, 305073.53, 0.001843639, 10.003557, 9.99687 
1.7053859e+3, 3.1356025e+2, 692535.3, 268537.4, -85524.53, -0.03893943, -0.04993358, 709136.44, 709136.44, 0.0032697693, 10.004998, 9.999377 
1.714662e+3, 1.2353876e+2, -2289887.3, -1708608.0, 270376.34, -0.031815056, 0.010971004, -1602290.8, 127025.53, 0.058051143, 9.994717, 10.002621 
1.7146994e+3, 1.3354117e+2, -2125060.5, -1790499.0, -64360.64, -0.12636328, 0.14521651, -1778544.9, -147253.19, 0.037118543, 9.996195, 10.000621 
1.7147398e+3, 1.4353825e+2, -1803330.4, -1481856.4, -103710.4, 0.20621197, -0.22827095, -1451302.5, 82018.12, 0.018276531, 9.997259, 10.001556 
1.7147756e+3, 1.5354289e+2, -1711938.3, -1345233.6, 12048.643, 0.022788703, 0.012378279, -1344838.1, 90437.99, 0.005915651, 9.99706, 10.001895 
1.714812e+3, 1.6354546e+2, -1725653.4, -1538888.8, -1014.66943, -0.100452535, 0.18870485, -1538883.3, -201630.36, 0.0009130136, 9.9972925, 9.999784 
1.7148498e+3, 1.7354412e+2, -1492582.3, -1382260.3, -50238.336, -0.07154097, 0.054938994, -1362811.5, -123542.164, 0.000025810483, 9.998269, 9.999708 
1.7148882e+3, 1.8354343e+2, -1255278.4, -1153449.9, -40491.57, -0.040853184, 0.008557627, -1139311.6, 1965.1746, 0.0, 9.998927, 10.000307 
1.7149279e+3, 1.9354388e+2, -1119936.8, -995356.06, 31764.182, 0.012772963, -0.036092423, -987724.7, 55543.082, 0.0, 9.999015, 10.000669 
1.7149669e+3, 2.0354414e+2, -1061743.5, -1061865.5, -5848.422, 0.054773606, -0.0042021167, -1055955.8, -110693.31, 0.0, 9.999366, 9.999365 
1.7150052e+3, 2.1354401e+2, -823465.44, -890246.1, -21490.113, 0.090623274, 0.014147055, -817147.6, 30116.094, 0.0, 10.000323, 9.999399 
1.7150432e+3, 2.2354282e+2, -694674.5, -892029.1, -30732.307, 0.09004546, 0.01607012, -689999.56, 59275.145, 0.0, 10.000985, 9.998421 
1.7150815e+3, 2.3353992e+2, -572709.25, -770621.6, -25653.25, 0.050723407, -0.15077397, -569438.1, 81863.734, 0.0, 10.001117, 9.998506 
1.7151195e+3, 2.4353823e+2, -519097.63, -750653.06, -57806.387, 0.016390352, -0.13143426, -505468.78, 47850.8, 0.0, 10.001059, 9.998 
1.7151576e+3, 2.535385e+2, -385449.34, -621013.0, -41109.563, -0.004836419, 0.052456565, -378481.22, 76841.26, 0.0000000000058928205, 10.001249, 9.998118 
1.7151959e+3, 2.635373e+2, -213042.39, -515499.13, -4274.761, -0.05655927, 0.15259857, -212981.98, 144353.52, 0.0000014626683, 10.001862, 9.9978895 
1.7152347e+3, 2.7353376e+2, 104719.61, -283858.75, 64149.7, -0.12598039, -0.043069497, 115036.07, 374400.97, 0.000032258973, 10.003269, 9.998119 
1.7152731e+3, 2.8353024e+2, 173410.22, -368419.34, 10202.855, -0.1570716, -0.12063532, 173602.27, 334997.97, 0.00021422842, 10.003777, 9.9966345 
1.7153105e+3, 2.9352683e+2, 190094.86, -290754.5, 1668.6073, -0.16664301, -0.17322016, 190100.66, 253529.86, 0.0007461243, 10.003144, 9.996787 
1.7153485e+3, 3.0352366e+2, 146319.69, -427743.6, 48479.348, -0.2512508, -0.09509553, 150384.95, 150384.95, 0.0017331633, 10.00316, 9.995489 
1.7153922e+3, 3.135208e+2, 463111.53, -25416.295, 27798.625, 0.028648293, 0.019003091, 464688.25, 464688.25, 0.0030820344, 10.004253, 9.997695 
1.7246592e+3, 1.2349879e+2, -2039979.0, -1597189.4, 270445.56, 0.1592471, 0.033028748, -1469075.3, 260633.2, 0.06177432, 9.99644, 10.002595 
1.7246951e+3, 1.3350093e+2, -2128942.8, -1747944.3, -41364.477, -0.15458593, 0.079714, -1743505.1, -111819.84, 0.039721623, 9.995966, 10.001005 
1.7247373e+3, 1.434985e+2, -2016841.1, -1552831.8, -56687.508, 0.32414448, -0.2750979, -1546006.6, -12297.723, 0.019743169, 9.995641, 10.001853 
1.7247732e+3, 1.53504e+2, -1674362.3, -1269314.6, -70347.39, 0.095731705, 0.0063805277, -1257444.8, 178211.16, 0.006494274, 9.99704, 10.002453 
1.7248103e+3, 1.63507e+2, -1624776.0, -1497942.0, -50670.93, -0.023353336, 0.19968225, -1480184.8, -142556.84, 0.001032908, 9.998012, 9.999728 
1.7248484e+3, 1.7350459e+2, -1432985.8, -1369253.1, -5510.4976, -0.0372992, -0.028774846, -1368780.1, -129126.23, 0.00003215152, 9.998738, 9.999573 
1.7248872e+3, 1.8350348e+2, -1221049.9, -1130744.8, 62461.91, -0.019731175, -0.112388864, -1098824.4, 42840.723, 0.0, 9.99913, 10.000365 
1.7249271e+3, 1.9350503e+2, -1052011.0, -948184.75, 14631.031, 0.038347702, -0.057067342, -946162.4, 97483.76, 0.0, 9.999426, 10.000791 
1.7249666e+3, 2.0350568e+2, -1023211.2, -1084039.4, -24132.7, 0.087526724, 0.022792632, -1014800.0, -69161.9, 0.0, 9.999802, 9.999013 
1.7250057e+3, 2.1350455e+2, -809379.5, -934310.25, -50219.508, 0.11002329, -0.010397664, -791695.5, 55955.35, 0.0, 10.000629, 9.99896 
1.7250443e+3, 2.2350305e+2, -681435.56, -874019.1, -38090.207, 0.119113915, -0.017571185, -674175.56, 75491.086, 0.0, 10.001056, 9.998495 
1.7250827e+3, 2.3350103e+2, -595161.1, -764092.0, -39666.9, 0.08787439, -0.10698253, -586310.6, 65375.508, 0.0, 10.000917, 9.998632 
1.725121e+3, 2.4349974e+2, -474507.34, -720793.94, 5860.05, 0.062773675, -0.057838786, -474368.0, 79332.016, 0.0, 10.001303, 9.998092 
1.7251597e+3, 2.534997e+2, -196410.34, -515528.38, 4595.2437, 0.024454724, 0.0822985, -196344.19, 259360.05, 0.0000000000049057277, 10.002474, 9.998251 
1.7251985e+3, 2.6349846e+2, -48999.28, -407763.16, 36337.875, -0.023843283, 0.15465344, -45355.758, 312360.94, 0.0000011502509, 10.002876, 9.998133 
1.7252375e+3, 2.73495e+2, -77982.22, -349825.78, -12555.277, -0.067344405, -0.04938267, -77403.58, 182340.81, 0.000029351942, 10.001918, 9.998317 
1.7252766e+3, 2.8349164e+2, -79840.73, -479995.06, -42477.4, -0.073345535, -0.124939166, -75381.336, 86392.234, 0.00020332959, 10.002009, 9.996704 
1.7253149e+3, 2.9348844e+2, 319621.56, -223962.6, -62237.527, -0.0852849, -0.15592532, 326656.4, 390462.22, 0.0007057303, 10.004048, 9.996789 
1.7253532e+3, 3.034856e+2, 442276.72, -265866.75, 72391.49, -0.17715697, -0.051463895, 449601.3, 449601.3, 0.0016357158, 10.005057, 9.995723 
1.725397e+3, 3.1348202e+2, 397088.97, -97061.92, 94336.47, 0.1289615, -0.021493843, 414485.94, 414485.94, 0.0029145537, 10.003863, 9.997453 
1.7346549e+3, 1.234565e+2, -1928934.5, -1419614.1, -9299.077, -0.00045144692, -0.15149187, -1419444.4, 310676.34, 0.06561491, 9.996631, 10.0037565 
1.7346922e+3, 1.3346028e+2, -2073621.4, -1635762.5, -74871.09, -0.08249348, -0.053400505, -1623314.0, 8764.887, 0.042436883, 9.995967, 10.0017805 
1.7347321e+3, 1.4345959e+2, -2071200.0, -1666867.3, -45660.547, 0.17951398, -0.23015305, -1661775.0, -127690.06, 0.021297567, 9.995653, 10.001057 
1.7347702e+3, 1.5346217e+2, -1724821.8, -1373633.8, -6344.8223, 0.06984027, -0.17216706, -1373519.1, 62543.81, 0.0071235094, 9.997045, 10.001725 
1.7348091e+3, 1.6346441e+2, -1509994.9, -1296901.9, -39551.19, 0.01366511, -0.06988494, -1289797.9, 48243.93, 0.0011691477, 9.998155, 10.001044 
1.7348479e+3, 1.734648e+2, -1318228.3, -1139714.9, 32311.209, 0.0016579146, -0.17599495, -1134046.5, 105988.2, 0.00004011834, 9.998761, 10.001144 
1.7348868e+3, 1.8346497e+2, -1270673.9, -1234923.8, 56308.83, -0.021065775, -0.1897613, -1193720.9, -51689.215, 0.0, 9.999138, 9.999644 
1.734926e+3, 1.9346517e+2, -1153121.1, -1123861.9, 36398.395, -0.030941062, -0.16380887, -1099263.1, -55230.74, 0.0, 9.999275, 9.999657 
1.7349656e+3, 2.0346479e+2, -1075206.1, -1150218.3, -12793.743, -0.028754376, -0.10668747, -1073084.1, -127045.47, 0.0, 9.999617, 9.998647 
1.7350054e+3, 2.1346316e+2, -854208.3, -987336.25, -4441.1104, 0.010588871, -0.16972443, -854060.3, -6003.0376, 0.0, 10.000449, 9.998682 
1.7350449e+3, 2.2346216e+2, -694863.25, -836774.7, -53526.6, 0.043803107, -0.12527718, -676938.06, 73130.625, 0.0, 10.000778, 9.998881 
1.7350838e+3, 2.3346251e+2, -590303.0, -702803.75, -28714.48, 0.09447695, -0.034021854, -583397.8, 68668.05, 0.0, 10.000687, 9.999166 
1.7351228e+3, 2.4346197e+2, -503276.38, -702728.56, 29913.62, 0.09004436, 0.046755, -498886.56, 55184.54, 0.0, 10.000981, 9.998368 
1.735162e+3, 2.5345978e+2, -219949.47, -497695.44, 69875.81, -0.008289093, -0.04747685, -203360.77, 252729.95, 0.000000000000012544113, 10.0021925, 9.998508 
1.7352009e+3, 2.634576e+2, -150444.89, -530395.7, -2528.8308, -0.08606059, -0.056125354, -150428.06, 207683.34, 0.0000010511417, 10.002505, 9.997464 
1.7352395e+3, 2.7345553e+2, -172252.83, -485316.8, -25706.104, -0.082768865, -0.047359556, -170156.11, 89976.125, 0.000029114979, 10.001672, 9.997495 
1.7352794e+3, 2.8345314e+2, -111001.6, -481363.28, -1788.1932, -0.022721944, 0.013065684, -110992.97, 51163.234, 0.00019954766, 10.001736, 9.996828 
1.7353208e+3, 2.9344994e+2, 281335.16, -211118.97, 42448.008, 0.0777339, -0.04675852, 284967.25, 349154.72, 0.0006841952, 10.003651, 9.997069 
1.7353596e+3, 3.034474e+2, 469944.47, -73028.08, 22798.043, -0.06167705, -0.0010407103, 470900.03, 470900.03, 0.0015848163, 10.004508, 9.997291 
1.7353994e+3, 3.1344295e+2, 381931.25, 45299.152, 105984.77, -0.059945744, -0.2543502, 412519.88, 412519.88, 0.0028348158, 10.00317, 9.998734 
1.7446527e+3, 1.2341732e+2, -1927204.0, -1419236.0, 125126.97, 0.1405171, -0.18622755, -1390086.5, 340416.06, 0.06957688, 9.996689, 10.003745 
1.744689e+3, 1.3342059e+2, -2061688.1, -1714385.5, -144449.3, 0.017713375, -0.057260554, -1662160.0, -29692.066, 0.045260757, 9.996433, 10.001018 
1.7447267e+3, 1.4341982e+2, -1922450.5, -1607868.6, -42614.066, 0.0493256, -0.19748612, -1602198.3, -67721.91, 0.022935338, 9.996734, 10.000925 
1.7447676e+3, 1.534219e+2, -1638967.6, -1337299.4, 12400.891, 0.08450525, -0.18670115, -1336790.5, 99668.07, 0.0078018596, 9.9976635, 10.001655 
1.7448078e+3, 1.6342397e+2, -1495528.8, -1252693.9, -13902.947, 0.09970748, -0.11321068, -1251900.5, 86537.7, 0.0013223152, 9.9981, 10.00138 
1.7448466e+3, 1.7342515e+2, -1334591.1, -1098374.1, -67409.55, 0.022166615, -0.17808439, -1080491.3, 159931.28, 0.000049909977, 9.998446, 10.001585 
1.7448856e+3, 1.8342581e+2, -1339048.9, -1307774.5, -53184.234, -0.011165853, -0.15221958, -1267976.3, -125560.69, 0.0000000000000006446772, 9.998852, 9.99927 
1.744926e+3, 1.9342574e+2, -1135946.0, -1172448.4, -62147.008, 0.02637511, -0.10078608, -1089425.6, -45003.38, 0.0, 9.99965, 9.9991255 
1.7449659e+3, 2.0342526e+2, -992802.25, -1092059.8, -39234.21, 0.04353811, -0.030574117, -979167.0, -32735.549, 0.0, 10.000084, 9.998832 
1.7450055e+3, 2.1342392e+2, -892296.7, -965266.1, -21449.037, 0.01185158, -0.09375745, -886458.9, -38013.203, 0.0, 10.00001, 9.99905 
1.745045e+3, 2.23423e+2, -756506.75, -886202.8, -24186.74, 0.023937544, -0.05696019, -752143.06, -1687.469, 0.0, 10.000413, 9.998735 
1.745085e+3, 2.3342307e+2, -460088.25, -663724.9, -78068.86, 0.113140434, 0.02915495, -433603.34, 218852.78, 0.0, 10.00168, 9.99896 
1.7451246e+3, 2.4342228e+2, -319820.66, -578587.3, -43917.18, 0.13352609, 0.08766722, -312570.28, 241892.44, 0.0, 10.002127, 9.998653 
1.7451635e+3, 2.5341985e+2, -359101.38, -522663.4, -40957.53, 0.0032113832, -0.06386158, -349418.44, 107063.61, 0.0, 10.001099, 9.998849 
1.7452027e+3, 2.6341757e+2, -364189.28, -638059.7, -48975.67, -0.06330169, -0.09995057, -355694.56, 2807.9116, 0.0000010008785, 10.001029, 9.997443 
1.7452423e+3, 2.7341568e+2, -19836.111, -422724.2, -53665.27, -0.010016222, -0.06207295, -12810.341, 247712.92, 0.000030147008, 10.00274, 9.997414 
1.745283e+3, 2.8341365e+2, 189515.28, -308066.3, 47861.688, 0.09104271, 0.027397908, 194077.2, 356621.66, 0.00019898178, 10.00365, 9.997108 
1.7453249e+3, 2.9341093e+2, 187715.63, -233431.89, 44161.16, 0.19392848, -0.016903045, 192296.5, 256867.02, 0.00068108423, 10.002859, 9.997321 
1.7453638e+3, 3.0340835e+2, 262589.34, -100778.44, 38013.008, 0.022239523, -0.013452772, 266523.4, 266523.4, 0.0015910955, 10.002745, 9.997969 
1.7454034e+3, 3.1340474e+2, 584343.8, 181239.47, -36983.76, -0.012845736, -0.24884948, 587708.9, 587708.9, 0.0028722573, 10.004373, 9.9991 
1.754651e+3, 1.2338054e+2, -1996789.5, -1575139.5, 273995.6, 0.22194302, -0.14249903, -1440246.8, 290614.1, 0.07366958, 9.996769, 10.002608 
1.754685e+3, 1.3338195e+2, -2230153.5, -2067275.6, -136958.73, -0.06032421, 0.07118124, -1989372.3, -356520.1, 0.048192136, 9.99645, 9.998585 
1.7547211e+3, 1.4337954e+2, -1852394.4, -1504187.3, -27035.79, -0.24150614, -0.14236683, -1502100.6, 32779.44, 0.024652572, 9.996901, 10.001569 
1.7547649e+3, 1.5338334e+2, -1588620.0, -1248045.8, 55519.176, 0.0125604, -0.017298741, -1239223.8, 197617.58, 0.008527423, 9.99771, 10.002263 
1.754806e+3, 1.6338564e+2, -1536720.9, -1347916.6, -26630.867, 0.06723852, 0.077148385, -1344232.3, -5414.5396, 0.0014925194, 9.998152, 10.000699 
1.7548439e+3, 1.7338559e+2, -1400115.1, -1218992.5, -42293.64, -0.11297076, -0.031225603, -1209603.3, 31215.031, 0.00006156021, 9.998389, 10.00078 
1.7548835e+3, 1.8338595e+2, -1340382.1, -1310199.3, -43824.06, -0.14465494, 0.0106627, -1278940.9, -136123.69, 0.0000000010737394, 9.998847, 9.999255 
1.7549264e+3, 1.9338681e+2, -1143045.0, -1172215.3, -20936.84, 0.076319136, 0.14470808, -1132114.0, -87298.1, 0.0, 9.999578, 9.999164 
1.7549674e+3, 2.033871e+2, -963932.8, -998331.44, -54421.633, 0.14993457, 0.26239073, -924057.4, 22759.14, 0.0, 9.999937, 9.999544 
1.7550054e+3, 2.1338658e+2, -860235.94, -851083.0, -12279.643, -0.011517949, 0.19289748, -842554.75, 6264.1406, 0.0, 9.999797, 9.999939 
1.7550446e+3, 2.2338536e+2, -842493.25, -998451.94, 1224.827, -0.08669295, 0.17379497, -842483.6, -91654.17, 0.0, 10.00013, 9.9981 
1.7550859e+3, 2.3338285e+2, -561599.2, -820489.75, -12135.219, 0.008874098, 0.09309335, -561031.6, 91823.7, 0.0, 10.001439, 9.998003 
1.7551258e+3, 2.4338081e+2, -360820.13, -588089.94, -80495.36, 0.019183198, 0.075469375, -335198.47, 219675.78, 0.0, 10.001802, 9.998745 
1.7551638e+3, 2.533796e+2, -370957.0, -494769.16, -62801.125, -0.0918218, 0.015686207, -344679.5, 112201.22, 0.0, 10.000872, 9.99915 
1.7552033e+3, 2.6337785e+2, -367712.25, -588972.75, -19277.326, -0.12127699, -0.003806865, -366045.28, -7150.7026, 0.00000094846536, 10.000782, 9.997904 
1.7552453e+3, 2.7337533e+2, -24244.012, -360172.9, 30083.791, 0.006320079, -0.08399241, -21571.152, 239347.55, 0.000030605133, 10.0024395, 9.997986 
1.755287e+3, 2.8337327e+2, 163172.98, -279214.4, 14545.449, 0.095151156, -0.05178001, 163650.7, 326588.84, 0.0002004244, 10.003289, 9.997479 
1.755327e+3, 2.9337135e+2, 157914.89, -218796.67, 31710.703, 0.08800925, -0.050228, 160565.58, 225520.81, 0.000696978, 10.002534, 9.997575 
1.7553653e+3, 3.0336866e+2, 170363.77, -193649.03, 52206.914, -0.13012703, -0.049999207, 177703.33, 177703.33, 0.0016497148, 10.002336, 9.997516 
1.755408e+3, 3.133675e+2, 404322.22, 2542.362, 94201.69, -0.04558598, -0.008900066, 425312.28, 425312.28, 0.0030015642, 10.003575, 9.99823 
1.7646475e+3, 1.2334107e+2, -2001844.6, -1531118.3, 179828.63, 0.2419463, -0.10730655, -1470281.9, 260970.17, 0.07790593, 9.996473, 10.003063 
1.7646807e+3, 1.3334234e+2, -2163719.0, -2054541.3, -137725.8, -0.13814251, 0.10983198, -1960980.4, -327736.78, 0.05123237, 9.996964, 9.998425 
1.7647189e+3, 1.4334014e+2, -1774661.0, -1484168.6, 78409.65, -0.1543385, -0.07461453, -1464355.6, 70913.08, 0.026445003, 9.997506, 10.001432 
1.7647626e+3, 1.5334333e+2, -1586514.0, -1267351.0, 56305.43, 0.033143274, 0.01297571, -1257709.1, 179525.77, 0.009296644, 9.997844, 10.002065 
1.764804e+3, 1.6334543e+2, -1555597.6, -1407504.6, -19664.408, 0.05391031, 0.11648183, -1404938.0, -65724.25, 0.0016790463, 9.998247, 10.000233 
1.7648427e+3, 1.7334542e+2, -1338028.5, -1252084.9, -48907.715, -0.08671061, 0.06369814, -1229952.5, 11264.142, 0.000074904594, 9.999081, 10.000215 
1.764883e+3, 1.8334556e+2, -1260435.5, -1245702.9, -13220.036, -0.09287602, 0.104076445, -1237935.4, -94716.89, 0.000000009428086, 9.999284, 9.999495 
1.7649256e+3, 1.933458e+2, -1216002.6, -1159492.0, 735.1994, 0.08392713, 0.14311482, -1159482.5, -114263.055, 0.0, 9.998881, 9.999596 
1.7649668e+3, 2.0334591e+2, -1072494.6, -1042357.5, 9092.832, 0.15667607, 0.21579029, -1039826.6, -92606.875, 0.0, 9.99918, 9.999596 
1.7650062e+3, 2.1334596e+2, -706606.7, -778194.2, -41064.863, 0.046345957, 0.20891185, -687925.5, 161291.73, 0.0, 10.000887, 9.999901 
1.7650461e+3, 2.2334498e+2, -622507.94, -876506.75, -40648.445, -0.003165131, 0.21049474, -616161.4, 135064.33, 0.0, 10.001583, 9.998229 
1.765087e+3, 2.3334207e+2, -684989.3, -857976.2, -18560.732, 0.03772569, 0.07559628, -683020.25, -29765.412, 0.0, 10.000515, 9.998181 
1.7651269e+3, 2.4333982e+2, -588344.75, -729626.8, -17112.275, 0.039186366, 0.03846915, -586301.6, -31025.81, 0.0, 10.000328, 9.998508 
1.7651655e+3, 2.5333887e+2, -267996.84, -483870.16, -64197.23, -0.033930592, 0.03520643, -250348.45, 206933.11, 0.0, 10.001703, 9.998845 
1.7652056e+3, 2.6333722e+2, -132636.2, -477908.25, -13657.97, -0.04056963, 0.046468087, -132096.78, 227198.47, 0.0000007067664, 10.002433, 9.997861 
1.7652479e+3, 2.7333444e+2, -98049.555, -398871.4, -45765.824, 0.055014003, -0.057646923, -91241.02, 170081.25, 0.000029110019, 10.00196, 9.997947 
1.7652898e+3, 2.8333226e+2, -10441.209, -349788.6, -70564.164, 0.1259141, -0.037574045, 3647.0737, 166990.06, 0.00020337792, 10.002057, 9.997587 
1.7653301e+3, 2.9333058e+2, 288253.1, -146766.56, -124767.57, 0.1300772, -0.008521016, 321497.06, 386854.6, 0.00072560523, 10.003419, 9.997638 
1.7653686e+3, 3.0332714e+2, 410174.38, -105956.63, -63614.844, -0.08270612, -0.07393667, 417899.47, 417899.47, 0.0017290524, 10.00408, 9.997283 
1.7654118e+3, 3.133255e+2, 312830.1, -68781.72, -74267.625, 0.035681635, -0.041121762, 326774.22, 326774.22, 0.0031407145, 10.00301, 9.998031 
1.774644e+3, 1.2330033e+2, -1847024.9, -1283787.3, 10170.541, 0.15195835, 0.062651746, -1283603.6, 448059.75, 0.08231803, 9.996651, 10.004832 
1.7746764e+3, 1.3330206e+2, -1992649.0, -1709731.9, -90039.555, -0.30384675, 0.0677376, -1683507.4, -49867.414, 0.054393712, 9.996995, 10.000777 
1.7747198e+3, 1.4330147e+2, -1830875.4, -1622727.3, 72802.92, 0.13718924, -0.03046118, -1599790.9, -64147.582, 0.02831169, 9.997602, 10.000424 
1.7747603e+3, 1.5330178e+2, -1662131.3, -1431291.9, 81756.05, -0.0003389142, -0.11725488, -1405269.9, 32370.064, 0.010105246, 9.997868, 10.000923 
1.774801e+3, 1.6330315e+2, -1568567.1, -1447693.0, -9339.138, -0.09574828, -0.012727253, -1446975.8, -107347.88, 0.0018804772, 9.998302, 9.999931 
1.7748426e+3, 1.7330454e+2, -1359426.4, -1292540.5, -4950.223, -0.025406634, 0.103121735, -1292176.1, -50558.08, 0.00008970714, 9.999064, 9.999945 
1.7748834e+3, 1.8330455e+2, -1222609.0, -1173192.4, -38485.99, -0.010926022, 0.12823436, -1152165.9, -8546.739, 0.000000028818846, 9.999307, 9.999982 
1.7749229e+3, 1.9330257e+2, -1179789.8, -1065390.9, 79.28392, -0.08550029, -0.123526365, -1065390.8, -19756.582, 0.0, 9.998792, 10.000288 
1.7749637e+3, 2.0330152e+2, -1145739.9, -1151756.9, 45426.504, -0.09176923, -0.18378559, -1103222.4, -155579.55, 0.0, 9.999003, 9.998923 
1.7750074e+3, 2.1330199e+2, -812769.25, -943177.3, 37415.89, 0.05719365, -0.054450177, -802796.75, 46844.605, 0.0, 10.000653, 9.998875 
1.7750491e+3, 2.233018e+2, -610949.75, -793949.75, -77699.56, 0.1261983, 0.058866236, -582410.3, 169234.7, 0.0, 10.001321, 9.998925 
1.7750879e+3, 2.3330042e+2, -633044.4, -714592.6, -43657.28, 0.0684719, -0.0328712, -614081.7, 39576.082, 0.0, 10.000341, 9.999257 
1.7751274e+3, 2.43299e+2, -661992.3, -812445.3, 3026.595, 0.036887407, -0.03273826, -661931.5, -106260.36, 0.0, 10.000038, 9.998073 
1.7751682e+3, 2.5329766e+2, -357500.88, -612067.3, 5398.1963, 0.049506184, -0.0020424558, -357386.44, 100298.06, 0.0, 10.001465, 9.998076 
1.775209e+3, 2.632958e+2, -224130.45, -595864.1, -33499.637, 0.031192077, 0.057592336, -221135.67, 138568.17, 0.00000032366296, 10.00213, 9.997194 
1.7752492e+3, 2.7329302e+2, -188188.02, -513118.9, -41238.293, -0.016192496, 0.023132812, -183035.98, 78697.19, 0.00002512301, 10.001666, 9.997293 
1.775291e+3, 2.8329065e+2, -86093.2, -436017.9, -50430.227, 0.0040935483, 0.0841795, -78970.33, 84787.305, 0.00020098852, 10.001747, 9.997146 
1.775334e+3, 2.9328868e+2, 219444.33, -214357.3, -45164.8, 0.13914236, 0.10340658, 224096.72, 289873.1, 0.0007425487, 10.003095, 9.997328 
1.7753734e+3, 3.0328396e+2, 333049.88, -159633.44, -100730.76, -0.040317886, -0.06720574, 352848.94, 352848.94, 0.0017707978, 10.003634, 9.997123 
1.7754145e+3, 3.132811e+2, 235286.19, -45869.723, -28296.195, -0.058457024, -0.14612502, 238105.7, 238105.7, 0.0031854126, 10.002277, 9.998515 
1.784641e+3, 1.2326089e+2, -2015140.1, -1358272.1, 141894.84, 0.270138, 0.20455946, -1328931.0, 403120.88, 0.08696164, 9.995551, 10.0048 
1.784674e+3, 1.3326079e+2, -1910990.9, -1665411.9, -132719.89, -0.26180044, 0.020003714, -1607392.5, 26653.203, 0.057701517, 9.997597, 10.000776 
1.7847185e+3, 1.4326115e+2, -1776387.1, -1644973.9, -45757.17, 0.2349269, 0.043484896, -1630611.3, -94571.91, 0.030258754, 9.998193, 9.999983 
1.7847584e+3, 1.5326034e+2, -1622765.8, -1462535.3, -21589.13, 0.009865473, -0.11438146, -1459677.4, -21629.82, 0.0109521225, 9.998346, 10.000474 
1.7847991e+3, 1.6326109e+2, -1553367.9, -1444495.4, -30714.633, -0.11336604, -0.043182362, -1436428.1, -96387.055, 0.0020959692, 9.998426, 9.999888 
1.7848419e+3, 1.7326252e+2, -1392709.6, -1299644.3, -39469.676, 0.027133143, 0.069903016, -1285159.4, -43129.54, 0.000105867584, 9.998816, 10.000007 
1.7848833e+3, 1.8326253e+2, -1248150.3, -1188590.9, -59642.42, 0.083262466, 0.09525999, -1151706.9, -7677.0107, 0.0000000562377, 9.999144, 9.999961 
1.7849222e+3, 1.9326076e+2, -1040984.2, -999035.8, -103771.04, -0.053959128, -0.13404283, -914140.5, 131902.02, 0.0, 9.999739, 10.000287 
1.7849632e+3, 2.0325966e+2, -1003596.1, -1075477.6, -21400.518, -0.07800765, -0.20099682, -997707.25, -49656.2, 0.0, 9.999934, 9.999006 
1.7850079e+3, 2.132595e+2, -952064.2, -998369.1, 24174.809, 0.107964486, -0.14412281, -941743.4, -91688.84, 0.0, 9.999632, 9.998998 
1.7850503e+3, 2.2325927e+2, -817670.06, -876406.6, -42322.74, 0.19765653, -0.04634135, -795524.2, -43465.83, 0.0, 9.999838, 9.999077 
1.785089e+3, 2.3325911e+2, -512050.47, -639676.5, -112811.13, 0.10167327, -0.027732458, -446254.66, 207806.17, 0.0, 10.00112, 9.999397 
1.7851284e+3, 2.4325828e+2, -393923.3, -697660.75, -55597.004, 0.06300758, 0.0317837, -384066.53, 172003.47, 0.0, 10.001961, 9.997921 
1.7851704e+3, 2.532563e+2, -297617.75, -608304.44, -46518.496, 0.10324429, 0.017196327, -290802.16, 167289.08, 0.0, 10.002001, 9.997831 
1.7852117e+3, 2.632541e+2, -212993.31, -587083.6, -38384.445, 0.10542439, 0.0600069, -209095.4, 151018.72, 0.00000018370703, 10.002161, 9.997254 
1.7852516e+3, 2.7325153e+2, -38457.88, -438474.94, -28276.033, 0.01847522, 0.03715365, -36469.016, 225671.86, 0.000020759246, 10.002633, 9.997367 
1.785293e+3, 2.8324926e+2, 82983.18, -351342.63, 71423.23, 0.015672294, 0.103309505, 94426.94, 258591.23, 0.0001926232, 10.002911, 9.997154 
1.7853367e+3, 2.932475e+2, 193681.63, -230617.53, 52561.95, 0.14480004, 0.15002424, 200096.0, 266277.9, 0.00073852565, 10.002935, 9.997286 
1.7853773e+3, 3.0324304e+2, 308857.47, -150914.88, 37905.23, 0.005750668, -0.0012259742, 311961.56, 311961.56, 0.0017550007, 10.003381, 9.997305 
1.7854191e+3, 3.1323978e+2, 554329.8, 139245.06, 41099.434, 0.10369667, -0.1275055, 558360.1, 558360.1, 0.0031044108, 10.00431, 9.998832 
1.7946361e+3, 1.232202e+2, -2147030.8, -1638769.0, 192141.69, 0.14752086, 0.017988939, -1574307.8, 158132.95, 0.09190124, 9.995668, 10.002673 
1.7946726e+3, 1.3321832e+2, -2075385.1, -2038874.4, -76495.75, -0.19039162, -0.056954056, -1978485.9, -344023.03, 0.06119029, 9.997709, 9.998167 
1.7947143e+3, 1.4321913e+2, -1766188.4, -1639462.0, -64387.156, -0.04431168, 0.15101302, -1612489.3, -76030.836, 0.03230053, 9.998271, 9.999978 
1.7947562e+3, 1.5321907e+2, -1606796.6, -1425108.8, -5567.811, -0.06580866, 0.044274997, -1424938.3, 13518.893, 0.011841973, 9.998337, 10.000732 
1.7947976e+3, 1.6321936e+2, -1524313.1, -1404695.6, -39455.367, -0.14625321, 0.04691532, -1392853.8, -52400.926, 0.0023264778, 9.998501, 10.0001335 
1.7948401e+3, 1.7321914e+2, -1365856.3, -1247183.5, -15244.181, -0.052092217, -0.03565976, -1245256.5, -2802.8535, 0.00012352158, 9.998816, 10.000375 
1.7948823e+3, 1.8321927e+2, -1281690.5, -1262015.1, -57126.406, 0.0287307, -0.004238552, -1213885.5, -69432.79, 0.000000085167756, 9.999165, 9.999442 
1.7949232e+3, 1.932203e+2, -1110773.5, -1121223.6, -72576.445, 0.045104377, 0.121643245, -1043234.25, 3210.8245, 0.0, 9.999642, 9.999494 
1.7949647e+3, 2.0322041e+2, -964360.94, -958629.8, -46383.605, 0.044157118, 0.18686943, -915023.4, 33420.62, 0.0, 9.999775, 9.999889 
1.7950071e+3, 2.1321857e+2, -890783.25, -829643.06, 25237.865, 0.07253098, -0.047812987, -820571.25, 29885.336, 0.0, 9.999443, 10.000255 
1.795049e+3, 2.232174e+2, -893372.25, -967220.0, -19262.4, 0.06786298, -0.09882016, -888649.8, -136183.75, 0.0, 9.999555, 9.9985895 
1.7950892e+3, 2.3321794e+2, -610404.56, -783324.06, -47147.92, 0.012102281, 0.07221418, -598384.8, 56081.293, 0.0, 10.000859, 9.998534 
1.7951298e+3, 2.4321741e+2, -440458.28, -720382.5, -58226.85, -0.029461509, 0.2113265, -428829.66, 127645.26, 0.0, 10.001643, 9.997917 
1.7951715e+3, 2.532147e+2, -321942.84, -596729.0, -29108.412, -0.0037163012, 0.10446792, -318893.22, 139608.72, 0.0, 10.001741, 9.998032 
1.7952132e+3, 2.63212e+2, -213323.56, -512001.72, -38976.598, 0.023604844, 0.0613139, -208321.02, 152206.4, 0.00000013255313, 10.001835, 9.997929 
1.7952543e+3, 2.7320984e+2, -24616.418, -334182.28, 4948.0864, 0.01233921, -0.0063537587, -24537.348, 238009.25, 0.0000188634, 10.002327, 9.998221 
1.7952959e+3, 2.8320813e+2, 53188.355, -337003.0, 52300.066, -0.015331868, 0.053078238, 60076.887, 224639.6, 0.00018772867, 10.002576, 9.997419 
1.7953382e+3, 2.932071e+2, 150390.66, -224865.78, 79431.984, -0.027901223, 0.15411751, 166511.77, 233086.9, 0.00073078944, 10.002534, 9.997514 
1.7953792e+3, 3.0320406e+2, 240707.14, -178514.28, 42208.574, -0.14619702, 0.1336952, 244914.61, 244914.61, 0.0017134681, 10.002877, 9.997366 
1.7954244e+3, 3.132013e+2, 490534.1, 172229.19, 146535.17, 0.14587896, 0.027945252, 547719.5, 547719.5, 0.0029594107, 10.0036335, 9.999365 
1.8046324e+3, 1.2317827e+2, -1975436.0, -1609864.5, 129769.766, 0.16621943, -0.065100566, -1568483.4, 164363.27, 0.097200245, 9.997101, 10.002186 
1.8046713e+3, 1.3317582e+2, -2054622.5, -2121807.5, -86042.63, -0.106545925, -0.104676574, -1995847.3, -360968.6, 0.06490086, 9.998263, 9.997327 
1.8047123e+3, 1.4317684e+2, -1721758.4, -1636237.4, 100.99502, -0.069021635, 0.17325532, -1636237.3, -99362.375, 0.034457777, 9.998632, 9.999832 
1.8047552e+3, 1.5317717e+2, -1538423.3, -1391990.9, 2370.9905, -0.009047932, 0.106899165, -1391952.5, 46916.953, 0.0127833225, 9.998796, 10.000741 
1.8047966e+3, 1.6317727e+2, -1480766.3, -1361701.6, -3646.6563, -0.07771113, 0.08092906, -1361590.0, -20724.09, 0.0025744103, 9.9987135, 10.000326 
1.8048388e+3, 1.7317656e+2, -1384603.9, -1222946.1, -19789.637, -0.043998726, -0.07672163, -1220558.8, 22310.36, 0.00014305822, 9.998559, 10.000653 
1.8048812e+3, 1.8317655e+2, -1358637.5, -1316318.9, -6047.7793, 0.051007073, -0.06958189, -1315471.5, -170603.36, 0.00000010953618, 9.998702, 9.999296 
1.8049237e+3, 1.9317797e+2, -1107770.1, -1141449.1, -5723.7813, 0.1417294, 0.11494618, -1106824.0, -59966.05, 0.0, 9.9997635, 9.999293 
1.8049659e+3, 2.0317829e+2, -871692.44, -926144.25, 19931.98, 0.17625643, 0.21723369, -865176.2, 83679.53, 0.0, 10.000459, 9.999796 
1.8050078e+3, 2.1317646e+2, -735391.8, -760608.4, -41941.813, 0.13881111, -0.0074491594, -704204.2, 146664.55, 0.0, 10.000539, 10.000202 
1.8050492e+3, 2.2317508e+2, -736255.8, -901854.94, -76019.52, 0.08706088, -0.07159161, -706651.0, 46229.383, 0.0, 10.00069, 9.998479 
1.8050897e+3, 2.3317488e+2, -560562.5, -774784.06, -77074.2, -0.020910911, 0.04303657, -535714.4, 119172.79, 0.0, 10.001279, 9.99838 
1.8051307e+3, 2.4317409e+2, -427685.03, -693066.4, -56907.56, -0.0655789, 0.15507556, -415996.75, 140901.52, 0.0, 10.001615, 9.998145 
1.8051732e+3, 2.531719e+2, -362663.84, -588846.4, -57973.887, 0.035848998, 0.080286294, -348670.06, 110249.54, 0.0, 10.001316, 9.998322 
1.8052156e+3, 2.6316965e+2, -272848.6, -523746.2, -25063.998, 0.11189474, 0.057156026, -270369.28, 90571.414, 0.00000007008213, 10.001364, 9.998067 
1.8052569e+3, 2.7316752e+2, -39141.86, -342505.6, -69690.69, 0.052361276, -0.00678122, -23898.053, 239061.34, 0.000018211349, 10.002222, 9.998222 
1.8052985e+3, 2.831655e+2, 64648.22, -326316.44, -51975.277, 0.0034476586, 0.023494953, 71439.89, 236418.19, 0.00018396281, 10.00262, 9.997474 
1.805341e+3, 2.931636e+2, 134333.03, -231805.89, -86223.82, 0.011764662, 0.04258287, 153622.11, 220621.19, 0.0007176876, 10.002406, 9.997536 
1.8053828e+3, 3.0316117e+2, 213283.63, -177284.02, -54431.633, -0.043500118, 0.07259663, 220727.63, 220727.63, 0.0016608936, 10.002648, 9.997469 
1.8054284e+3, 3.1316012e+2, 429428.78, 130356.63, -42459.71, 0.23663582, 0.15297753, 435340.0, 435340.0, 0.002818584, 10.003171, 9.999341 
1.8146296e+3, 1.2313526e+2, -1853690.5, -1424921.0, 105573.88, 0.11174953, 0.004985961, -1400335.8, 332933.25, 0.10291468, 9.997289, 10.003511 
1.8146694e+3, 1.3313316e+2, -1976176.5, -1961894.3, -45042.47, -0.1515548, -0.111938156, -1923430.4, -288135.94, 0.06887483, 9.998275, 9.99842 
1.8147121e+3, 1.4313395e+2, -1710300.5, -1628611.1, -14931.48, 0.009727208, 0.0813064, -1625967.5, -88676.39, 0.036753505, 9.998697, 9.999856 
1.8147549e+3, 1.5313444e+2, -1543551.0, -1415662.9, 22985.023, 0.04914388, 0.047594782, -1411657.3, 27628.732, 0.01378539, 9.998843, 10.000561 
1.8147957e+3, 1.6313478e+2, -1458956.0, -1336019.8, -26443.895, -0.07644186, 0.04887685, -1330572.9, 10707.671, 0.002842686, 9.998797, 10.000461 
1.8148375e+3, 1.7313479e+2, -1382652.0, -1217404.5, -13817.086, -0.06377629, -0.046270672, -1216257.1, 27018.438, 0.00016504708, 9.998542, 10.000704 
1.8148799e+3, 1.8313453e+2, -1338423.0, -1271967.3, 7723.1035, 0.010332037, -0.07939037, -1271081.6, -125806.92, 0.00000012908751, 9.998691, 9.999607 
1.8149234e+3, 1.9313377e+2, -1088400.0, -1087317.8, 47551.89, 0.110826984, -0.1513875, -1040303.94, 6976.7407, 0.0, 9.999699, 9.9997 
1.8149665e+3, 2.0313321e+2, -972848.9, -1096224.6, 15289.166, 0.1650788, -0.117628634, -970982.4, -21695.773, 0.0, 10.000295, 9.998703 
1.8150088e+3, 2.1313305e+2, -869985.1, -987547.9, -24578.248, 0.1849156, -0.033832006, -865053.56, -13761.65, 0.0, 10.000314, 9.998752 
1.8150502e+3, 2.2313224e+2, -770927.7, -903998.9, -71532.6, 0.1125771, 0.036257144, -739770.44, 13532.036, 0.0, 10.000388, 9.998611 
1.81509e+3, 2.331301e+2, -563835.94, -724618.94, -38644.633, -0.13040087, -0.08895918, -555029.9, 100293.164, 0.0, 10.00103, 9.998846 
1.8151312e+3, 2.4312836e+2, -450351.72, -668058.3, -74367.2, -0.21176542, -0.108737476, -427373.6, 129966.27, 0.0, 10.0013075, 9.99846 
1.8151751e+3, 2.5312775e+2, -367653.5, -546451.4, -52684.25, 0.08158123, -0.0663599, -353284.4, 106061.65, 0.0, 10.001092, 9.998712 
1.8152182e+3, 2.6312676e+2, -355718.1, -628123.6, -15040.345, 0.21317483, 0.033568967, -354890.2, 6466.116, 0.0000000874347, 10.00107, 9.997494 
1.8152587e+3, 2.7312467e+2, -137990.2, -473530.78, -14605.979, -0.0065870523, 0.040701315, -137355.61, 126022.43, 0.00001648955, 10.001915, 9.997462 
1.8153001e+3, 2.8312176e+2, -11645.956, -406949.66, -71115.336, -0.115864076, 0.043219313, 758.484, 166165.88, 0.00017264257, 10.002276, 9.9970875 
1.8153441e+3, 2.9311752e+2, 81636.49, -279123.28, -66266.15, 0.061197333, -0.1562123, 93423.48, 160872.39, 0.00068283465, 10.002131, 9.997342 
1.815387e+3, 3.0311483e+2, 139992.92, -237145.92, -54132.44, 0.078141615, -0.13001972, 147609.0, 147609.0, 0.0015899244, 10.002264, 9.997239 
1.8154292e+3, 3.1311452e+2, 302165.84, 81375.625, 21412.883, -0.05630078, 0.02906585, 304223.38, 304223.38, 0.002709713, 10.00232, 9.999373 
1.8246266e+3, 1.2309138e+2, -2053885.3, -1482841.0, 91646.92, 0.1704183, -0.0023619449, -1468493.0, 265206.03, 0.10907774, 9.995746, 10.003819 
1.8246679e+3, 1.3309021e+2, -1975184.3, -1846269.3, -24439.748, -0.068846874, -0.12290334, -1841791.5, -206078.77, 0.07313931, 9.997738, 9.999484 
1.8247111e+3, 1.4309165e+2, -1697211.9, -1579662.1, 4830.1504, 0.07193574, 0.0476324, -1579464.0, -41762.383, 0.039204508, 9.99864, 10.000207 
1.824754e+3, 1.5309195e+2, -1629607.0, -1453989.6, 12577.178, 0.118391946, -0.004740726, -1453093.5, -13395.1455, 0.014855209, 9.998274, 10.000558 
1.8247949e+3, 1.63092e+2, -1540061.6, -1404653.0, 8852.604, -0.00911247, -0.02023298, -1404076.8, -62380.434, 0.0031336718, 9.998363, 10.000196 
1.8248367e+3, 1.730924e+2, -1232874.0, -1176378.9, -34190.406, -0.030744642, -0.04937387, -1160276.5, 83411.92, 0.00019006866, 9.999713, 10.000419 
1.8248795e+3, 1.8309209e+2, -1072323.9, -1145316.1, -10818.839, 0.032762047, -0.06707564, -1070754.0, 74933.77, 0.00000015151502, 10.000524, 9.999592 
1.8249232e+3, 1.9309027e+2, -975555.0, -1025455.5, -31354.604, 0.10569079, -0.24684025, -960435.0, 87267.26, 0.0, 10.000469, 9.999745 
1.8249665e+3, 2.0308919e+2, -977105.2, -1147925.9, -44729.664, 0.15884793, -0.24761751, -966101.5, -16388.21, 0.0, 10.000486, 9.998236 
1.8250093e+3, 2.1308957e+2, -831027.2, -1026945.8, -50151.258, 0.1891699, -0.058897987, -818935.7, 32781.7, 0.0, 10.000849, 9.998201 
1.8250512e+3, 2.230891e+2, -665623.75, -836744.06, -24460.463, 0.14814079, 0.069944955, -662195.94, 91530.555, 0.0, 10.001015, 9.998785 
1.8250914e+3, 2.3308681e+2, -578588.94, -687197.0, -28686.086, -0.0628244, -0.10524991, -571477.9, 84268.3, 0.0, 10.000733, 9.999251 
1.825133e+3, 2.4308497e+2, -503324.72, -696247.5, -37096.617, -0.12786092, -0.16172524, -496437.38, 61325.207, 0.0, 10.000951, 9.998429 
1.8251768e+3, 2.5308427e+2, -222120.3, -491179.9, -79172.64, 0.10843745, -0.11253554, -200552.13, 259217.67, 0.0, 10.002152, 9.9985695 
1.8252201e+3, 2.6308325e+2, -107745.98, -522265.1, -31791.943, 0.23383462, -0.0055381497, -105321.836, 256459.38, 0.00000011582431, 10.002838, 9.99737 
1.8252616e+3, 2.7308097e+2, -61680.52, -459570.56, -37163.28, 0.085077815, 0.006144598, -58239.2, 205566.69, 0.000015405387, 10.002525, 9.997275 
1.8253036e+3, 2.8307804e+2, 14390.173, -381215.13, -17087.041, 0.002982872, 0.015255004, 15126.827, 180962.6, 0.00016033727, 10.002412, 9.997195 
1.8253465e+3, 2.930744e+2, 185590.17, -220896.31, -32902.0, 0.06196987, -0.12931775, 188236.13, 256106.69, 0.0006397898, 10.002803, 9.997425 
1.8253897e+3, 3.0307174e+2, 251380.83, -199290.72, 37845.734, 0.1000263, -0.10180788, 254536.86, 254536.86, 0.0015189088, 10.003084, 9.99711 
1.825433e+3, 3.1307003e+2, 361735.03, 51636.45, -29986.432, 0.08850265, -0.043860905, 364608.1, 364608.1, 0.002648067, 10.002919, 9.998927 
1.8346214e+3, 1.23047054e+2, -2108572.8, -1608797.5, -91209.21, 0.0071130097, -0.0567438, -1592672.1, 141460.4, 0.11569034, 9.995841, 10.002818 
1.8346667e+3, 1.3304698e+2, -1880059.5, -1664710.4, 65026.316, 0.009509529, -0.14268857, -1646598.5, -10464.856, 0.07769921, 9.997788, 10.000709 
1.8347088e+3, 1.4305018e+2, -1639806.4, -1489659.5, -20806.33, -0.089789785, 0.09294172, -1486829.6, 51273.684, 0.04181763, 9.998752, 10.000784 
1.8347518e+3, 1.5304974e+2, -1621426.5, -1446321.1, 10503.434, 0.050059933, -0.047229767, -1445693.4, -5587.2886, 0.015997248, 9.998299, 10.000602 
1.8347934e+3, 1.6304882e+2, -1572140.0, -1487995.5, 29406.945, -0.028581, -0.13594885, -1478737.0, -136623.1, 0.0034491862, 9.998432, 9.999593 
1.8348362e+3, 1.7304908e+2, -1272915.4, -1273765.8, 29271.365, -0.07365092, -0.10982091, -1244066.1, 44.276054, 0.00021871291, 9.999759, 9.999734 
1.8348795e+3, 1.830489e+2, -1100384.0, -1205654.1, -21266.314, -0.0539572, -0.0584645, -1096250.1, 49860.668, 0.00000018976193, 10.00054, 9.9991665 
1.8349229e+3, 1.9304727e+2, -1017808.56, -1095098.6, -24614.559, -0.0061807223, -0.17852283, -1010635.3, 37489.426, 0.0, 10.000388, 9.999307 
1.8349658e+3, 2.0304605e+2, -984359.3, -1125478.5, -50654.1, 0.0072677103, -0.177404, -968059.9, -17922.195, 0.0, 10.000322, 9.99847 
1.8350086e+3, 2.1304594e+2, -832539.2, -984318.4, -25980.99, 0.019134236, -0.072871, -828215.06, 23930.65, 0.0, 10.000648, 9.998592 
1.8350512e+3, 2.230456e+2, -690454.44, -819905.8, -42871.83, 0.034162354, 0.038374, -677543.75, 76609.27, 0.0, 10.00072, 9.999045 
1.8350935e+3, 2.330447e+2, -592434.3, -664126.4, -22875.094, 0.053691607, -0.027122285, -585757.3, 70402.25, 0.0, 10.000509, 9.999524 
1.8351357e+3, 2.4304347e+2, -572601.9, -768079.75, -15979.525, 0.039173424, -0.02360974, -571304.25, -13134.137, 0.0, 10.000639, 9.998092 
1.835178e+3, 2.530416e+2, -304566.22, -593216.8, -13647.826, -0.008088224, -0.042274285, -303922.38, 156267.0, 0.0, 10.00186, 9.998013 
1.8352209e+3, 2.630394e+2, -151012.36, -544660.3, -44671.23, 0.010652454, -0.015039535, -146006.72, 216205.39, 0.000000090536304, 10.00254, 9.997361 
1.8352652e+3, 2.7303645e+2, -77234.01, -439717.66, -25767.01, 0.1643952, -0.093731135, -75411.53, 188831.11, 0.00001528185, 10.002298, 9.9975195 
1.835308e+3, 2.8303415e+2, -3701.3982, -348450.2, -29666.045, 0.16271845, -0.05428471, -1167.2277, 165098.55, 0.00015301339, 10.002105, 9.997569 
1.8353474e+3, 2.9303366e+2, 168857.81, -177333.83, 9677.885, -0.13960814, 0.06885987, 169128.14, 237398.11, 0.00060731446, 10.002472, 9.997876 
1.8353903e+3, 3.0303153e+2, 148459.27, -306979.25, 16608.654, -0.16337998, 0.14721201, 149064.13, 149064.13, 0.0014671788, 10.002637, 9.996583 
1.835437e+3, 3.1302693e+2, 185470.88, -165949.81, -4310.9307, 0.15622674, -0.032381523, 185523.75, 185523.75, 0.0026243564, 10.002307, 9.997708 
1.8446183e+3, 1.2300313e+2, -1869339.0, -1581340.8, -101604.47, 0.033147957, -0.12011349, -1549103.6, 185458.39, 0.12272786, 9.997893, 10.002054 
1.8446642e+3, 1.3300359e+2, -1806000.5, -1574628.9, 111414.72, -0.02453106, -0.18108772, -1529702.0, 106854.43, 0.08254445, 9.998107, 10.001212 
1.8447074e+3, 1.4300694e+2, -1637722.0, -1519749.4, -63459.35, -0.08294887, 0.05184333, -1492095.9, 46427.996, 0.04459436, 9.998875, 10.000528 
1.8447505e+3, 1.5300643e+2, -1517355.8, -1444416.8, -117472.18, 0.06344077, -0.05404398, -1357883.3, 82645.84, 0.017215712, 9.999215, 10.000181 
1.8447927e+3, 1.630055e+2, -1478025.8, -1452034.8, -50740.355, 0.032814216, -0.113749094, -1412652.1, -70113.79, 0.0037916328, 9.999139, 9.999499 
1.8448359e+3, 1.7300543e+2, -1400264.4, -1334684.6, -29378.08, -0.019222584, -0.11593243, -1323449.0, -78910.62, 0.00025177147, 9.998907, 9.999722 
1.8448795e+3, 1.8300512e+2, -1345623.5, -1346899.9, -21788.893, -0.011110557, -0.06824255, -1324463.5, -177922.84, 0.00000025167606, 9.998948, 9.998965 
1.8449229e+3, 1.9300392e+2, -1098896.5, -1161239.5, -39387.734, -0.0048817024, -0.12322291, -1079837.9, -31286.035, 0.0, 9.999935, 9.99907 
1.8449658e+3, 2.0300293e+2, -934885.6, -1048986.0, -33262.62, -0.00408874, -0.104182385, -925897.0, 24665.773, 0.0, 10.000443, 9.998941 
1.8450087e+3, 2.1300267e+2, -839215.5, -917752.6, -24126.828, 0.009159851, -0.07171257, -832395.8, 20173.904, 0.0, 10.000319, 9.999213 
1.845052e+3, 2.2300248e+2, -715780.5, -818441.25, 3248.8318, 0.056244723, 0.010163346, -715677.8, 38896.547, 0.0, 10.000495, 9.999153 
1.8450949e+3, 2.3300213e+2, -454778.9, -601098.94, -22597.709, 0.113019645, 0.0013177877, -451368.4, 205207.67, 0.0, 10.00146, 9.999486 
1.8451376e+3, 2.4300112e+2, -363307.34, -680334.7, 14266.689, 0.123576574, 0.02854439, -362666.63, 195918.52, 0.0, 10.002148, 9.997954 
1.8451802e+3, 2.5299868e+2, -255941.47, -593908.9, 4472.2095, 0.035852868, -0.02458123, -255882.3, 204727.69, 0.0, 10.002289, 9.997799 
1.8452235e+3, 2.629961e+2, -172120.2, -544486.6, 1223.7699, 0.037295338, -0.026138587, -172116.19, 190520.08, 0.00000009817215, 10.002363, 9.997444 
1.8452674e+3, 2.7299345e+2, -55292.22, -413250.6, -22906.195, 0.18170863, -0.08418875, -53832.375, 210831.03, 0.000013983738, 10.002398, 9.997646 
1.8453103e+3, 2.8299147e+2, 71448.734, -315510.72, 9853.733, 0.19211604, -0.02273811, 71699.49, 238383.36, 0.00014297603, 10.002625, 9.997552 
1.8453507e+3, 2.9299107e+2, 294740.97, -118786.46, -35356.42, -0.0815443, 0.121318296, 297742.13, 366429.72, 0.00057426473, 10.003339, 9.997869 
1.8453944e+3, 3.029883e+2, 340754.94, -191789.52, 1997.9192, -0.058329787, 0.12273401, 340762.44, 340762.44, 0.00141219, 10.003847, 9.996803 
1.8454404e+3, 3.1298313e+2, 401353.97, -39572.688, -93048.94, 0.23053363, -0.11988757, 420185.8, 420185.8, 0.0025787924, 10.00367, 9.997928 
1.854618e+3, 1.22961596e+2, -1879296.8, -1675572.6, -211259.13, 0.13116829, -0.032359447, -1542900.5, 192067.95, 0.13014582, 9.998222, 10.001254 
1.8546595e+3, 1.3296002e+2, -1842333.6, -1658173.3, 161315.7, -0.341787, -0.25580403, -1564507.6, 72473.43, 0.08765755, 9.998141, 10.000609 
1.8547069e+3, 1.429616e+2, -1697028.0, -1664868.8, -62366.0, -0.061555617, -0.11030822, -1616542.9, -77576.54, 0.04753598, 9.998974, 9.999476 
1.8547496e+3, 1.5296192e+2, -1571989.1, -1576648.5, -96828.266, 0.022048729, -0.033786517, -1477462.6, -36493.785, 0.01851746, 9.999292, 9.999233 
1.8547918e+3, 1.6296205e+2, -1437294.9, -1390266.8, -81649.82, -0.0020904501, 0.05064689, -1328812.5, 14157.737, 0.0041650403, 9.999236, 9.999876 
1.8548353e+3, 1.7296137e+2, -1360051.0, -1248499.9, -28212.11, 0.008809127, -0.07263387, -1241770.8, 3202.5737, 0.00029041685, 9.998884, 10.000329 
1.854879e+3, 1.8296061e+2, -1341749.4, -1332941.4, -12217.66, 0.012991045, -0.10796193, -1324358.3, -177379.72, 0.0000003514084, 9.998924, 9.999074 
1.8549229e+3, 1.9296019e+2, -1114519.0, -1169031.4, 8715.586, -0.017470181, -0.08451464, -1113159.5, -64175.34, 0.0, 9.999825, 9.999072 
1.8549663e+3, 2.0295984e+2, -918899.75, -974044.6, -46819.53, -0.030971605, -0.02326212, -892137.06, 58851.547, 0.0, 10.000266, 9.999541 
1.8550095e+3, 2.129597e+2, -816781.5, -822708.0, -16368.831, 0.042668812, -0.057127245, -803109.9, 49880.313, 0.0, 10.000111, 9.999966 
1.8550526e+3, 2.229595e+2, -753424.7, -835357.94, 17820.584, 0.06841615, -0.020941934, -749716.56, 5275.6045, 0.0, 10.000222, 9.999174 
1.8550952e+3, 2.3295915e+2, -503576.03, -649229.4, 29585.404, -0.012308289, -0.011842552, -497795.97, 159199.34, 0.0, 10.001225, 9.999273 
1.8551385e+3, 2.4295808e+2, -413393.44, -713908.75, 12053.364, -0.03323708, 0.02713874, -412910.75, 146095.22, 0.0, 10.001843, 9.997869 
1.8551835e+3, 2.529555e+2, -291210.94, -607308.5, 24463.0, 0.10726065, -0.04426392, -289328.94, 171703.31, 0.0, 10.002038, 9.997821 
1.8552274e+3, 2.6295325e+2, -207108.33, -548819.2, -15652.845, 0.15901086, -0.02145896, -206392.81, 156662.55, 0.00000008466028, 10.00207, 9.997555 
1.8552683e+3, 2.7295172e+2, -88849.91, -418021.6, -530.5557, 0.01619936, 0.019212138, -88849.055, 176222.31, 0.000011476472, 10.002122, 9.997745 
1.8553105e+3, 2.8294975e+2, -26799.932, -435389.97, 10919.856, -0.062285814, 0.10743112, -26508.299, 140583.42, 0.00012753508, 10.002261, 9.996907 
1.8553555e+3, 2.9294688e+2, 197766.3, -229105.77, 16314.729, 0.0405186, 0.06702463, 198388.92, 267509.9, 0.00053210376, 10.002953, 9.997297 
1.8554007e+3, 3.0294234e+2, 308318.63, -139644.05, -18737.44, 0.15814269, -0.10053085, 309101.03, 309101.03, 0.0013364273, 10.003336, 9.997404 
1.8554436e+3, 3.129402e+2, 395176.9, 125009.26, -85386.37, 0.12415836, -0.12912606, 419900.7, 419900.7, 0.0024723716, 10.002944, 9.99939 
1.8646178e+3, 1.229196e+2, -1882360.4, -1644066.1, -205337.17, 0.30636266, 0.022932468, -1525811.9, 209567.39, 0.1378835, 9.998079, 10.001542 
1.8646567e+3, 1.329177e+2, -1826820.1, -1740123.3, 149870.92, -0.42906937, -0.17574243, -1627457.6, 9937.047, 0.09301642, 9.998661, 9.999748 
1.8647061e+3, 1.4291711e+2, -1773432.1, -1741004.3, -24990.729, -0.007772364, -0.18145496, -1727428.4, -188026.63, 0.050644647, 9.998634, 9.999111 
1.8647492e+3, 1.5291767e+2, -1553830.1, -1590531.4, -41204.11, 0.048680805, -0.061924033, -1527075.1, -85672.23, 0.01991141, 9.9995165, 9.999031 
1.8647917e+3, 1.6291809e+2, -1354770.0, -1363073.8, -2111.2422, 0.05597839, 0.07144327, -1354264.0, -10861.927, 0.0045744055, 9.999846, 9.999763 
1.8648347e+3, 1.7291766e+2, -1289157.5, -1216471.6, -34503.785, 0.050126407, -0.02640064, -1202701.5, 42701.926, 0.0003360051, 9.999391, 10.00029 
1.8648782e+3, 1.8291706e+2, -1287979.9, -1269364.9, 27163.94, 0.050242104, -0.060629513, -1249958.1, -102550.98, 0.00000050835786, 9.999133, 9.99941 
1.8649228e+3, 1.9291654e+2, -1088859.8, -1108858.3, 58258.53, 0.020947788, -0.08684969, -1039748.6, 9663.437, 0.0, 9.999795, 9.999504 
1.8649669e+3, 2.0291623e+2, -915070.4, -968396.6, 13603.974, 0.024185546, -0.054033197, -911800.4, 39614.676, 0.0, 10.00026, 9.999589 
1.8650098e+3, 2.129161e+2, -762730.0, -804862.56, -48830.387, 0.06428898, -0.081341416, -730615.5, 122800.04, 0.0, 10.000494, 9.999908 
1.865053e+3, 2.2291578e+2, -683084.2, -818561.8, -6474.2827, 0.07366887, -0.048884828, -682775.5, 72643.055, 0.0, 10.000793, 9.999017 
1.8650964e+3, 2.329151e+2, -490960.16, -666184.6, -25449.309, -0.01300856, -0.047377493, -487338.78, 170087.47, 0.0, 10.001427, 9.999064 
1.8651405e+3, 2.4291393e+2, -402323.53, -711280.4, -35841.363, -0.009188384, -0.0014449441, -398220.16, 161218.63, 0.0, 10.001927, 9.99785 
1.8651858e+3, 2.5291175e+2, -281328.56, -600244.1, -52275.594, 0.15848142, -0.032876402, -272978.34, 188483.13, 0.0, 10.002102, 9.997841 
1.8652298e+3, 2.6290953e+2, -169865.86, -516188.6, -60630.64, 0.21801382, -0.010525104, -159558.06, 203925.98, 0.000000065173005, 10.002262, 9.997688 
1.8652704e+3, 2.7290758e+2, -25240.998, -372605.5, -87640.945, 0.02385689, -0.019461842, -4381.584, 261121.6, 0.000009433609, 10.002496, 9.997877 
1.865313e+3, 2.8290567e+2, 19167.889, -395850.2, -18173.926, -0.025296599, 0.058176145, 19962.217, 187484.83, 0.00011541226, 10.002512, 9.9970455 
1.8653594e+3, 2.9290318e+2, 76589.94, -273635.9, -3367.3855, 0.19637153, 0.050550178, 76622.31, 146170.47, 0.00049646525, 10.002064, 9.997411 
1.8654044e+3, 3.028983e+2, 149696.7, -226913.97, 40714.105, 0.2816282, -0.15799287, 154047.9, 154047.9, 0.0012601693, 10.002269, 9.997314 
1.8654469e+3, 3.128972e+2, 559194.8, 201549.69, -201854.63, 0.13296282, -0.06796115, 650043.9, 650043.9, 0.0023303956, 10.004033, 9.999398 
1.874615e+3, 1.2287566e+2, -1758927.4, -1433903.6, -200948.86, 0.13767256, -0.17313817, -1337976.9, 397832.22, 0.14588223, 9.998192, 10.003138 
1.8746562e+3, 1.32877e+2, -1915672.9, -1938945.8, 154077.94, -0.3673262, 0.06920788, -1772792.6, -134998.88, 0.0986057, 9.998717, 9.998359 
1.8747039e+3, 1.4287356e+2, -1737969.1, -1690561.6, -16597.135, -0.13000529, -0.15625127, -1685328.6, -145499.39, 0.053927336, 9.998724, 9.999416 
1.8747485e+3, 1.5287355e+2, -1502460.8, -1492334.5, 10911.168, 0.005501028, -0.15172932, -1485369.0, -43537.164, 0.021407956, 9.999541, 9.999699 
1.874792e+3, 1.6287367e+2, -1373980.6, -1422148.6, -23054.605, 0.055893064, -0.07227038, -1364724.6, -20891.762, 0.0050250688, 9.999933, 9.999317 
1.8748336e+3, 1.7287435e+2, -1341818.6, -1328939.8, -39016.785, -0.03344379, 0.016998235, -1295834.6, -50006.74, 0.00038988978, 9.999392, 9.999529 
1.8748763e+3, 1.828743e+2, -1248713.3, -1186405.4, 24228.113, -0.08823708, 0.06295747, -1178093.3, -30265.549, 0.000000733184, 9.999131, 9.999981 
1.8749224e+3, 1.9287297e+2, -1044649.2, -990185.2, 95830.336, -0.017910114, -0.12989172, -917792.7, 132043.39, 0.0, 9.999684, 10.000373 
1.8749672e+3, 2.0287198e+2, -963653.6, -1042316.2, 8186.605, 0.00826288, -0.19742653, -962810.7, -10967.715, 0.0, 10.000134, 9.999146 
1.8750092e+3, 2.1287197e+2, -849876.4, -940181.56, -28224.316, -0.056959312, -0.1369347, -841780.8, 12064.269, 0.0, 10.000294, 9.999079 
1.8750523e+3, 2.2287141e+2, -761235.56, -914337.5, -1536.2277, -0.09345792, -0.05457348, -761220.1, -5367.718, 0.0, 10.000499, 9.998504 
1.8750979e+3, 2.3286985e+2, -554817.4, -739215.56, 14050.145, -0.021668088, -0.10535514, -553753.0, 104116.83, 0.0, 10.001171, 9.998683 
1.875143e+3, 2.4286845e+2, -447764.47, -732829.9, -40128.61, 0.038022168, -0.05996147, -442223.28, 117662.18, 0.0, 10.00161, 9.997861 
1.8751872e+3, 2.5286728e+2, -312270.66, -599948.25, -26732.727, 0.05791153, -0.00041262337, -309807.56, 152091.1, 0.0, 10.00183, 9.997973 
1.8752307e+3, 2.628651e+2, -211568.95, -539290.06, -64747.78, 0.061233953, 0.013229219, -199240.53, 164680.7, 0.00000004605578, 10.001974, 9.997678 
1.8752734e+3, 2.7286136e+2, -65990.53, -393009.66, -53559.58, 0.04797576, -0.17264657, -57441.95, 208514.36, 0.000008319171, 10.00221, 9.997882 
1.875317e+3, 2.828594e+2, 19619.629, -317749.38, -42026.13, 0.08423594, -0.12808461, 24776.021, 192750.77, 0.00010877432, 10.002177, 9.997746 
1.875362e+3, 2.9285967e+2, 84612.86, -184633.88, 10885.602, 0.23047604, 0.05774508, 85052.24, 155025.17, 0.00047256332, 10.001759, 9.99817 
1.8754053e+3, 3.028555e+2, 42504.473, -355201.2, 69627.41, 0.10907446, -0.09422246, 54341.992, 54341.992, 0.0011935966, 10.0018835, 9.996613 
1.8754514e+3, 3.1285334e+2, 348623.2, -29569.172, -69025.22, 0.11773722, -0.012934957, 360827.4, 360827.4, 0.002183187, 10.003189, 9.9981985 
1.8846141e+3, 1.22830816e+2, -1632076.4, -1333040.9, -155298.88, 0.22967653, -0.25348613, -1266982.0, 469268.03, 0.15411249, 9.998805, 10.003683 
1.8846558e+3, 1.328326e+2, -2031730.9, -2081067.1, 12584.893, -0.23837869, 0.0782591, -2028706.1, -390474.38, 0.10442951, 9.9982605, 9.997614 
1.8847018e+3, 1.4282921e+2, -1814891.9, -1686486.4, -56659.41, -0.16163072, -0.104991496, -1665060.4, -124793.68, 0.057399224, 9.998058, 9.999741 
1.8847476e+3, 1.5282954e+2, -1571075.6, -1431792.3, -51036.18, 0.016470348, -0.14017567, -1415093.6, 27169.346, 0.023018045, 9.998726, 10.000476 
1.8847917e+3, 1.6282983e+2, -1495143.4, -1485270.6, -62744.4, 0.09762912, -0.08967793, -1427268.8, -83008.42, 0.005521801, 9.999105, 9.999289 
1.8848328e+3, 1.7283015e+2, -1334909.6, -1350056.3, -70169.47, -0.024670713, -0.016453909, -1271906.0, -25646.621, 0.0004532519, 9.999529, 9.999325 
1.8848756e+3, 1.8283004e+2, -1195877.9, -1170174.1, 37340.156, -0.07244747, 0.03628734, -1143536.0, 4724.5864, 0.0000010252129, 9.999535, 9.999889 
1.8849221e+3, 1.9282898e+2, -1120753.3, -1029057.06, 22489.848, 0.029486084, -0.12712349, -1023838.1, 26428.576, 0.0, 9.99917, 10.000341 
1.8849674e+3, 2.0282814e+2, -1108716.1, -1126338.9, -53726.547, 0.073058784, -0.17352791, -1063083.1, -110810.62, 0.0, 9.999211, 9.999011 
1.8850097e+3, 2.1282774e+2, -826239.94, -947094.75, -72063.34, -0.044001773, -0.12943314, -792621.6, 61657.063, 0.0, 10.000538, 9.998914 
1.8850532e+3, 2.2282688e+2, -650444.94, -872859.1, 5852.0513, -0.07584984, -0.064013176, -650291.06, 105998.37, 0.0, 10.001325, 9.998379 
1.8850996e+3, 2.3282515e+2, -580988.44, -768915.94, 10138.84, 0.049952175, -0.1152933, -580443.06, 77865.73, 0.0, 10.001068, 9.998528 
1.885145e+3, 2.4282388e+2, -494258.1, -694177.7, 17064.033, 0.1253741, -0.0686778, -492812.06, 67510.89, 0.0, 10.0010395, 9.998394 
1.8851885e+3, 2.5282338e+2, -293951.2, -521507.4, 29270.31, 0.04006405, -0.0057339207, -290246.5, 172081.94, 0.0, 10.001653, 9.9986 
1.885232e+3, 2.6282164e+2, -185077.67, -482203.2, 41363.797, 0.016093878, 0.002767136, -179426.77, 184918.36, 0.000000017635879, 10.001995, 9.998039 
1.8852757e+3, 2.728181e+2, -93094.06, -364162.5, 35723.62, 0.09818859, -0.20151578, -88465.16, 177912.64, 0.000007223604, 10.001881, 9.998213 
1.8853202e+3, 2.828163e+2, 10003.277, -327394.4, 94637.3, 0.20013, -0.16128615, 34735.348, 203129.97, 0.00010058898, 10.002163, 9.997677 
1.8853652e+3, 2.9281664e+2, 331576.8, -93209.02, 34421.54, 0.30652693, 0.05386472, 334348.0, 404741.28, 0.0004433926, 10.003581, 9.997916 
1.8854076e+3, 3.0281308e+2, 426810.75, -113546.96, 108031.5, 0.05985063, -0.046610035, 447608.56, 447608.56, 0.0011175777, 10.0042305, 9.997183 
1.8854554e+3, 3.1281054e+2, 255173.47, -61838.3, -3104.8462, 0.2680235, -0.06680841, 255203.88, 255203.88, 0.002029412, 10.002468, 9.9983425 
1.894614e+3, 1.22787006e+2, -1678922.6, -1486265.3, 88007.555, 0.25139797, -0.005824411, -1452115.8, 284567.34, 0.16258536, 9.999045, 10.002372 
1.8946543e+3, 1.3278419e+2, -2019148.5, -2060830.9, -5162.117, -0.23478106, -0.15297738, -2018518.6, -379807.1, 0.110513955, 9.998271, 9.997764 
1.8946992e+3, 1.4278395e+2, -1778663.1, -1611036.5, -54424.96, -0.273871, -0.0384078, -1594916.1, -54200.383, 0.06108175, 9.998066, 10.00025 
1.8947458e+3, 1.5278554e+2, -1522072.6, -1327942.6, -14535.221, -0.051419567, -0.021298235, -1326860.4, 115836.97, 0.024752133, 9.998705, 10.001217 
1.8947902e+3, 1.6278645e+2, -1440403.9, -1398443.3, -64418.563, -0.00055585284, 0.025556019, -1351674.6, -6988.722, 0.0060684755, 9.999213, 9.999833 
1.8948324e+3, 1.7278498e+2, -1301340.1, -1281903.5, -45035.08, -0.04933984, -0.12883244, -1245550.1, 1148.904, 0.0005270964, 9.999532, 9.999793 
1.8948758e+3, 1.8278402e+2, -1233534.6, -1254601.8, 12024.068, -0.047708787, -0.16479872, -1228082.8, -79374.79, 0.0000013718216, 9.999572, 9.999286 
1.8949215e+3, 1.9278477e+2, -1200394.5, -1169622.3, 16015.919, 0.024102222, -0.062152196, -1162799.3, -112097.09, 0.0, 9.999072, 9.999419 
1.8949667e+3, 2.0278488e+2, -1123103.1, -1126752.5, -30763.37, 0.043987427, 0.03968233, -1094110.4, -141408.16, 0.0, 9.999071, 9.999083 
1.8950106e+3, 2.1278346e+2, -826738.5, -905586.0, -5314.904, -0.015440089, -0.054175742, -826381.9, 28334.512, 0.0, 10.000343, 9.999298 
1.8950552e+3, 2.2278206e+2, -680658.1, -865014.3, -7736.683, -0.025356505, -0.07620504, -680334.0, 76396.86, 0.0, 10.001022, 9.998575 
1.8951008e+3, 2.3278105e+2, -606190.25, -765437.7, 17266.662, 0.060976833, -0.07254613, -604339.56, 54403.0, 0.0, 10.000829, 9.998662 
1.8951459e+3, 2.427803e+2, -479313.56, -601659.1, 17097.652, 0.084510036, -0.012678516, -476969.13, 83781.414, 0.0, 10.000759, 9.999171 
1.8951896e+3, 2.5278e+2, -261276.17, -392632.97, 67145.35, -0.020866282, -0.03341571, -233028.27, 229723.36, 0.0, 10.001387, 9.999614 
1.8952334e+3, 2.6277903e+2, -185626.94, -411084.03, 24284.941, -0.067478605, -0.032992747, -183040.77, 181718.03, 0.0000000071100716, 10.001682, 9.998679 
1.8952772e+3, 2.7277723e+2, -93273.086, -298090.4, 44666.527, 0.032909617, -0.120343156, -83956.05, 182817.66, 0.0000064443307, 10.001606, 9.9987955 
1.895322e+3, 2.8277576e+2, -88582.484, -465397.03, 108491.75, 0.1424048, -0.05295967, -59578.258, 109209.74, 0.0000894982, 10.001864, 9.996876 
1.8953685e+3, 2.9277375e+2, 175239.38, -321287.8, 116048.086, 0.25062677, 0.037557717, 201023.17, 271836.06, 0.00040206578, 10.003152, 9.996565 
1.8954103e+3, 3.0277082e+2, 447661.03, 70312.42, 49340.535, -0.11863327, 0.019669203, 454005.9, 454005.9, 0.0010247865, 10.003661, 9.9987 
1.8954584e+3, 3.1276864e+2, 184383.64, -3855.1653, 34485.445, 0.26713416, -0.1821508, 190502.5, 190502.5, 0.0018715328, 10.001663, 9.999098 
1.9046114e+3, 1.22741826e+2, -1906978.8, -1638960.4, 258619.44, 0.16706051, 0.10057931, -1481692.3, 255435.31, 0.1713416, 9.997809, 10.00181 
1.9046539e+3, 1.3273868e+2, -1961212.4, -1929884.3, 44568.965, -0.08532961, -0.1928263, -1898306.9, -259147.33, 0.11689223, 9.998282, 9.998622 
1.9046983e+3, 1.4273983e+2, -1719897.3, -1624180.5, 48538.63, -0.17217836, 0.0425261, -1603874.3, -62725.008, 0.06499328, 9.998603, 9.9999275 
1.9047442e+3, 1.5274043e+2, -1556978.3, -1367212.4, -15956.471, -0.06520116, -0.022662202, -1365880.0, 77260.39, 0.026617203, 9.998513, 10.001064 
1.9047885e+3, 1.627411e+2, -1545406.3, -1426787.4, -75606.85, -0.04219495, 0.0025940319, -1390003.1, -44872.07, 0.0066676727, 9.998415, 10.000022 
1.9048321e+3, 1.7273995e+2, -1305246.4, -1243797.1, -96043.42, -0.006411819, -0.14743078, -1173683.5, 73456.67, 0.0006122247, 9.999358, 10.000124 
1.9048764e+3, 1.8273914e+2, -1179201.9, -1238766.5, -29658.176, 0.055395927, -0.18487535, -1166953.4, -17805.762, 0.0000017786746, 9.999997, 9.999195 
1.9049215e+3, 1.9273989e+2, -1018242.56, -1105230.6, -9734.005, 0.07689658, -0.05626415, -1017166.6, 33976.02, 0.0, 10.000428, 9.999221 
1.9049665e+3, 2.0274e+2, -908191.0, -1020198.5, 20362.105, 0.07737096, 0.061430458, -904604.2, 48539.082, 0.0, 10.000563, 9.999076 
1.9050112e+3, 2.1273854e+2, -806177.0, -890968.06, -7885.206, 0.019731859, -0.042008735, -805449.94, 49708.12, 0.0, 10.000486, 9.999314 
1.9050561e+3, 2.2273722e+2, -720242.94, -866134.75, -8277.467, 0.00925824, -0.0621011, -719774.8, 37396.707, 0.0, 10.0006485, 9.998758 
1.905102e+3, 2.3273659e+2, -494042.1, -691050.94, -7665.4478, 0.07580193, -0.043528724, -493744.28, 165434.45, 0.0, 10.001481, 9.998872 
1.9051473e+3, 2.4273603e+2, -334374.75, -514730.8, -4886.5146, 0.11347076, 0.01662368, -334242.47, 226941.84, 0.0, 10.001709, 9.999294 
1.9051912e+3, 2.5273532e+2, -333884.03, -413068.6, -56800.574, 0.047897205, -0.05241411, -304238.66, 158950.9, 0.0, 10.000842, 9.9997225 
1.9052352e+3, 2.627345e+2, -295012.0, -431348.2, -82567.37, 0.01156152, -0.05504057, -256108.83, 109086.39, 0.000000016068412, 10.000762, 9.998995 
1.9052792e+3, 2.72734e+2, 86743.71, -181096.52, -105262.086, 0.030449705, -0.04642258, 123160.625, 390357.97, 0.000006020835, 10.002651, 9.999122 
1.9053242e+3, 2.8273252e+2, 157200.83, -358143.34, -22187.914, 0.119025774, 0.008947078, 158154.36, 327365.3, 0.00007835106, 10.003579, 9.996797 
1.9053714e+3, 2.9272857e+2, 55066.18, -394981.25, -5415.367, 0.2821677, -0.075112306, 55131.336, 126386.64, 0.00035541714, 10.002399, 9.996411 
1.9054133e+3, 3.027265e+2, 229974.86, 21191.154, -17662.799, -0.07064741, -0.0171414, 231458.56, 231458.56, 0.0009238466, 10.001929, 9.999199 
1.9054621e+3, 3.1272554e+2, 397668.9, 98440.586, -189266.61, 0.43975013, -0.14547901, 489314.44, 489314.44, 0.0017193767, 10.003044, 9.999182 
1.914607e+3, 1.22694425e+2, -1899338.0, -1632251.8, 65035.324, -0.12694511, -0.043675352, -1617257.5, 120334.0, 0.18042894, 9.997812, 10.001749 
1.9146544e+3, 1.3269603e+2, -1852423.1, -1704674.6, 88402.58, 0.11739078, -0.044511013, -1663342.9, -23767.586, 0.12358676, 9.998288, 10.00016 
1.9146988e+3, 1.4269674e+2, -1766691.3, -1769181.0, 32596.834, -0.04054423, 0.12739033, -1735315.5, -193747.4, 0.069141634, 9.998806, 9.9988365 
1.9147418e+3, 1.5269418e+2, -1628163.6, -1514362.3, -12396.312, -0.17361812, -0.14751942, -1513027.5, -69435.375, 0.028615344, 9.998522, 10.000034 
1.9147858e+3, 1.6269377e+2, -1548255.0, -1453314.0, -68689.12, -0.20022188, -0.1610233, -1417288.1, -71692.5, 0.0073205116, 9.9985, 9.999797 
1.9148314e+3, 1.7269516e+2, -1306722.8, -1240806.4, -50168.926, -0.031833466, -0.059416257, -1213738.3, 33843.824, 0.00070924795, 9.999331, 10.0001545 
1.914877e+3, 1.8269551e+2, -1147859.8, -1184649.1, -29868.2, 0.076528534, 0.00596775, -1131176.4, 18401.764, 0.0000023137907, 10.000034, 9.999554 
1.914922e+3, 1.9269438e+2, -996049.56, -1037567.56, 17254.502, 0.06712946, -0.10083972, -989815.0, 61772.598, 0.0, 10.000331, 9.999735 
1.9149669e+3, 2.026934e+2, -945259.9, -1065965.1, 5891.455, 0.01747517, -0.116497844, -944973.0, 8623.823, 0.0, 10.00042, 9.998833 
1.915011e+3, 2.1269286e+2, -864165.1, -966158.5, -170.49844, -0.07182417, -0.089620285, -864164.8, -8560.016, 0.0, 10.000283, 9.998896 
1.9150558e+3, 2.2269233e+2, -750956.44, -859773.5, 2974.184, -0.11559803, -0.014769086, -750875.2, 6736.707, 0.0, 10.000343, 9.998952 
1.9151026e+3, 2.326919e+2, -510456.3, -655225.0, 39419.293, -0.023885319, -0.007728088, -500418.72, 159197.31, 0.0, 10.001192, 9.999255 
1.9151485e+3, 2.4269103e+2, -422677.63, -621753.1, -38754.82, 0.051841944, 0.0236365, -415399.2, 146225.44, 0.0, 10.001375, 9.998724 
1.9151928e+3, 2.526894e+2, -426832.1, -548249.9, -73966.91, 0.09330478, -0.060827687, -391850.5, 71791.43, 0.0, 10.000594, 9.998913 
1.9152369e+3, 2.6268837e+2, -340467.9, -461824.03, -51717.89, 0.07246035, -0.033468172, -321417.9, 44233.695, 0.000000038925435, 10.00048, 9.998928 
1.915281e+3, 2.7268863e+2, 49836.59, -182351.38, -14244.115, -0.061064955, 0.040003385, 50707.164, 318352.6, 0.0000054500297, 10.002334, 9.999265 
1.9153264e+3, 2.8268692e+2, 131385.98, -322262.6, -62370.38, -0.055802524, 0.04517053, 139804.81, 309465.16, 0.00006657065, 10.003194, 9.99723 
1.9153734e+3, 2.9268125e+2, 33414.52, -350748.16, -27490.7, 0.21779785, -0.2622893, 35371.78, 107090.734, 0.0003045757, 10.002023, 9.996898 
1.9154158e+3, 3.0268046e+2, 139067.84, -80294.72, -17591.037, -0.025409527, -0.08391314, 140469.53, 140469.53, 0.0008128925, 10.001557, 9.99867 
1.9154637e+3, 3.1268302e+2, 252893.9, 8150.3257, -40065.023, 0.2318301, 0.18414876, 259285.7, 259285.7, 0.0015555571, 10.002201, 9.998932 
1.9246058e+3, 1.2264844e+2, -2028550.4, -1803539.0, -11693.21, 0.024658091, 0.09479823, -1802933.0, -64891.81, 0.18987963, 9.997466, 10.0005865 
1.924653e+3, 1.3265055e+2, -1684187.9, -1498808.3, -76712.266, 0.15526892, 0.02671173, -1471181.1, 168839.44, 0.13060497, 9.998806, 10.001492 
1.9246984e+3, 1.426508e+2, -1863203.6, -1778471.9, -55388.54, 0.10203101, 0.069001265, -1751104.3, -209087.34, 0.07352615, 9.998003, 9.999146 
1.9247411e+3, 1.5264912e+2, -1581041.3, -1457378.0, -29449.465, -0.09509743, -0.14996953, -1450723.0, -6690.9287, 0.030745408, 9.99872, 10.000315 
1.924785e+3, 1.6264877e+2, -1456344.1, -1440058.3, 15454.871, -0.1454384, -0.16169606, -1430732.3, -84697.375, 0.008026891, 9.999271, 9.999509 
1.924831e+3, 1.7264993e+2, -1290024.4, -1282970.1, -25606.344, -0.011706713, -0.04472544, -1260649.1, -12623.932, 0.0008187495, 9.999661, 9.999709 
1.9248769e+3, 1.826501e+2, -1194984.3, -1235082.8, -18633.955, 0.09684993, 0.038873393, -1187662.1, -37638.063, 0.0000031359323, 9.999796, 9.999331 
1.9249222e+3, 1.9264859e+2, -1032622.3, -1069306.5, -47562.02, 0.08849366, -0.096619554, -999988.2, 52048.883, 0.0, 10.000102, 9.999628 
1.9249675e+3, 2.0264739e+2, -968528.56, -1099700.8, -63330.84, 0.053958755, -0.12453585, -942942.7, 11106.043, 0.0, 10.000353, 9.998637 
1.9250114e+3, 2.1264689e+2, -784509.25, -953767.06, -83789.98, -0.05449602, -0.066114224, -750046.56, 106010.62, 0.0, 10.000944, 9.998666 
1.9250564e+3, 2.2264645e+2, -643290.5, -780662.1, -50957.836, -0.09850958, 0.024797978, -626451.8, 131611.9, 0.0, 10.0009985, 9.9991665 
1.9251029e+3, 2.32646e+2, -652255.06, -681667.1, -53578.977, -0.026981687, -0.0005316835, -611400.56, 48666.074, 0.0, 10.000056, 9.999615 
1.9251491e+3, 2.4264508e+2, -656812.44, -737852.75, -77899.72, 0.06855006, 0.0029742147, -609524.56, -47450.027, 0.0, 9.999753, 9.998717 
1.9251941e+3, 2.526434e+2, -352730.13, -533465.7, -88904.07, 0.16601276, -0.06753062, -316329.3, 147761.88, 0.0, 10.0011635, 9.998758 
1.9252388e+3, 2.6264215e+2, -139882.7, -393023.66, 1470.8696, 0.179938, -0.044361006, -139874.16, 226228.95, 0.000000047147957, 10.001997, 9.99866 
1.9252829e+3, 2.7264157e+2, -99338.46, -289554.94, -30449.455, -0.04058316, -0.02434899, -94583.06, 173523.9, 0.0000044268, 10.001472, 9.9989395 
1.9253281e+3, 2.8263992e+2, -88885.625, -338537.22, -74919.33, -0.08843458, -0.024938086, -68128.51, 101992.96, 0.000054025306, 10.001317, 9.998006 
1.9253753e+3, 2.9263645e+2, 179206.08, -168381.5, -52781.54, 0.20059475, -0.21009296, 187044.27, 259199.22, 0.0002523606, 10.002525, 9.997909 
1.925419e+3, 3.0263507e+2, 351916.8, -49838.52, 38350.453, 0.061471093, -0.123458564, 355544.88, 355544.88, 0.0006949562, 10.003317, 9.998039 
1.9254664e+3, 3.1263658e+2, 324808.25, -14265.54, -70525.7, 0.28750858, 0.15401115, 338892.25, 338892.25, 0.0013694268, 10.002855, 9.9985 
1.9346042e+3, 1.2259815e+2, -2181254.5, -2136103.0, 56338.4, 0.026436226, -0.018694049, -2097985.5, -359452.88, 0.1997211, 9.99754, 9.998266 
1.934648e+3, 1.3260159e+2, -1607477.6, -1350371.5, -101449.51, -0.26039547, -0.01434851, -1315162.9, 325339.13, 0.13795441, 9.998777, 10.002688 
1.9346966e+3, 1.4260207e+2, -1714046.4, -1502532.6, -68730.805, 0.06237147, -0.113671444, -1482160.9, 60335.273, 0.07814733, 9.998118, 10.001021 
1.9347416e+3, 1.5260531e+2, -1452017.8, -1217045.3, 10678.441, 0.05608512, -0.011314843, -1216561.0, 227898.47, 0.033007, 9.998784, 10.001998 
1.9347857e+3, 1.6260618e+2, -1457701.4, -1471530.1, 18818.81, -0.044248324, 0.0076795635, -1444566.9, -98118.92, 0.008786739, 9.999387, 9.999244 
1.9348302e+3, 1.7260416e+2, -1350138.6, -1413966.3, -1788.9229, -0.07263727, -0.109448925, -1350088.5, -101618.164, 0.00094156526, 9.999679, 9.998809 
1.9348754e+3, 1.8260276e+2, -1239865.1, -1335210.1, -24346.457, -0.06275953, -0.103101805, -1234008.1, -83521.52, 0.0000044945964, 9.999827, 9.998629 
1.9349217e+3, 1.9260266e+2, -1099099.8, -1185028.3, -24219.871, 0.008988498, -0.028543789, -1092743.3, -40253.54, 0.0, 9.999999, 9.99889 
1.9349676e+3, 2.026021e+2, -1004323.7, -1136937.5, -60849.816, 0.022474928, 0.06290808, -980634.44, -26136.875, 0.0, 10.000193, 9.998461 
1.9350126e+3, 2.1260068e+2, -824240.75, -978969.0, -48808.87, -0.057145197, 0.035935093, -810130.75, 46383.844, 0.0, 10.000701, 9.99861 
1.9350575e+3, 2.2259943e+2, -682212.8, -780209.56, -88516.75, -0.10993694, 0.043751355, -630037.8, 128490.484, 0.0, 10.000654, 9.999333 
1.9351026e+3, 2.3259881e+2, -668743.2, -661758.75, -74686.67, -0.076302685, -0.022655444, -590482.75, 70048.445, 0.0, 9.999824, 9.999862 
1.9351484e+3, 2.4259818e+2, -663303.7, -687735.56, -60384.234, -0.012758184, -0.025611123, -613912.1, -51378.03, 0.0, 9.9994755, 9.9992 
1.9351952e+3, 2.5259736e+2, -348379.38, -468033.0, -19122.162, 0.13999563, -0.068040475, -345397.72, 119140.8, 0.0, 10.000924, 9.999324 
1.935241e+3, 2.6259577e+2, -228955.39, -496055.6, -20228.016, 0.1806036, -0.09055893, -227432.17, 139119.61, 0.00000001782158, 10.001654, 9.998114 
1.9352844e+3, 2.7259284e+2, -204034.63, -431895.44, -34938.684, -0.055958543, -0.22151715, -198797.7, 69784.2, 0.0000033385966, 10.001173, 9.998095 
1.9353288e+3, 2.8259173e+2, -65477.445, -228053.78, -69337.664, -0.1701072, -0.15164211, -39922.37, 130670.12, 0.00004416703, 10.001039, 9.998906 
1.9353764e+3, 2.9259384e+2, 235927.33, 37636.65, 12096.302, 0.04160906, 0.07243609, 236662.52, 309229.7, 0.00021030588, 10.002156, 9.999498 
1.9354218e+3, 3.0259046e+2, 213123.13, -226020.95, 5957.9985, -0.013303339, -0.099563465, 213203.95, 213203.95, 0.0005915191, 10.00284, 9.997056 
1.9354682e+3, 3.125852e+2, 160393.83, -164984.34, -16881.273, 0.12853263, -0.35082465, 161267.31, 161267.31, 0.0011872258, 10.002107, 9.997791 
1.9446023e+3, 1.22548245e+2, -1933897.5, -2096625.5, 192604.69, 0.027441125, -0.2706094, -1806176.1, -67154.8, 0.20999403, 9.999572, 9.997561 
1.9446445e+3, 1.325546e+2, -1819671.5, -1383497.9, -43567.902, -0.39378038, 0.0016169028, -1379188.5, 261773.42, 0.14565058, 9.996958, 10.003343 
1.9446945e+3, 1.4255509e+2, -1803220.1, -1502201.3, 17911.105, 0.10797789, -0.17205194, -1501139.3, 41816.203, 0.083007626, 9.997293, 10.001435 
1.9447406e+3, 1.5255883e+2, -1526976.5, -1266361.6, -67751.39, 0.12785055, -0.01373999, -1249800.8, 195113.08, 0.03539992, 9.998327, 10.001879 
1.9447851e+3, 1.6255963e+2, -1518539.5, -1493430.8, -113237.1, 0.008907563, -0.00077657704, -1392054.1, -45150.676, 0.009600047, 9.998936, 9.999317 
1.9448304e+3, 1.7255755e+2, -1298101.5, -1377566.0, -92887.59, -0.025313329, -0.13113268, -1236805.3, 12121.542, 0.0010784023, 9.999988, 9.99891 
1.9448762e+3, 1.8255626e+2, -1136701.8, -1299088.3, -46014.71, 0.0024570525, -0.114867926, -1124569.3, 26373.125, 0.0000066792873, 10.000618, 9.998488 
1.944922e+3, 1.9255611e+2, -1021783.06, -1169071.1, -43169.594, 0.01434996, -0.0195761, -1010062.9, 42883.883, 0.0, 10.000665, 9.998666 
1.9449677e+3, 2.0255554e+2, -963753.94, -1103975.9, -21952.445, 0.01395571, 0.08186255, -960397.5, -5442.5625, 0.0, 10.000422, 9.998577 
1.9450133e+3, 2.1255408e+2, -911595.3, -993762.25, -18128.217, -0.006907563, 0.030657642, -907773.5, -50801.883, 0.0, 9.999989, 9.99885 
1.9450586e+3, 2.225528e+2, -785611.06, -830999.0, -19597.348, -0.010579983, 0.021292064, -778320.5, -19335.852, 0.0, 9.999926, 9.999339 
1.9451036e+3, 2.3255219e+2, -514984.7, -597564.56, -52625.42, -0.008756331, -0.040827204, -489384.47, 171603.05, 0.0, 10.000903, 9.999793 
1.945149e+3, 2.4255161e+2, -359482.66, -530904.94, -12761.886, 0.032667793, -0.03616209, -358537.78, 204451.48, 0.0, 10.001548, 9.99927 
1.9451962e+3, 2.5255078e+2, -247333.47, -415884.5, -36768.797, 0.1303341, -0.08318266, -239661.69, 225331.02, 0.0, 10.001609, 9.99935 
1.9452424e+3, 2.6254892e+2, -226077.0, -510043.78, -45402.594, 0.16877954, -0.12770422, -218994.36, 148013.8, 0.000000002142629, 10.001717, 9.997995 
1.9452865e+3, 2.7254573e+2, -87919.0, -403758.44, -54456.496, 0.013178624, -0.26634493, -78793.37, 190248.75, 0.0000030022966, 10.002049, 9.997887 
1.9453312e+3, 2.825446e+2, 90685.81, -154365.81, -33434.523, -0.058822718, -0.17985128, 95165.68, 266218.9, 0.00003904193, 10.002105, 9.99891 
1.9453782e+3, 2.925472e+2, 177024.38, 22347.236, -87943.68, 0.045977682, 0.08965724, 216798.33, 289820.78, 0.00018459432, 10.001672, 9.999641 
1.9454244e+3, 3.0254266e+2, 80984.85, -321521.97, -73568.07, 0.017126199, -0.19513011, 94009.75, 94009.75, 0.00051477127, 10.002088, 9.99675 
1.9454713e+3, 3.1253785e+2, 516867.66, -22206.98, -104657.88, 0.14476861, -0.34135142, 536473.25, 536473.25, 0.0010271312, 10.004622, 9.997588 
1.9546033e+3, 1.22503705e+2, -1758416.4, -1842320.0, -78872.93, 0.08602821, -0.21545023, -1711032.4, 28426.686, 0.22070916, 10.000005, 9.99915 
1.9546424e+3, 1.3251013e+2, -1799627.9, -1374880.8, -36386.78, -0.30805755, 0.08369933, -1371786.1, 269608.84, 0.15369554, 9.997055, 10.003397 
1.9546916e+3, 1.4251019e+2, -1870213.6, -1669691.9, 47145.254, 0.046553694, -0.10504495, -1659160.6, -115769.0, 0.08810495, 9.997437, 10.000188 
1.9547376e+3, 1.5250951e+2, -1679581.1, -1581848.3, -22023.969, -0.039905183, -0.17992623, -1577114.4, -131717.03, 0.037922986, 9.998341, 9.999664 
1.9547828e+3, 1.6250867e+2, -1474325.8, -1428699.6, -101607.28, -0.18228291, -0.21002726, -1347375.9, 29.84542, 0.010466628, 9.999048, 9.999708 
1.9548309e+3, 1.7250994e+2, -1214405.1, -1215304.5, -42897.92, 0.007907499, -0.108046114, -1171954.5, 77441.12, 0.0012294218, 10.000025, 10.0000105 
1.9548784e+3, 1.8251055e+2, -1096517.9, -1229696.9, -49122.227, 0.13438085, 0.0135303615, -1080359.9, 71031.66, 0.000009908067, 10.000684, 9.99893 
1.9549225e+3, 1.9250889e+2, -1020534.3, -1145817.8, -32451.855, -0.025098413, -0.06539456, -1012627.4, 40781.3, 0.0, 10.000578, 9.998866 
1.9549668e+3, 2.0250742e+2, -962178.9, -1059782.1, -50854.875, -0.13743192, -0.08299703, -940497.75, 14926.138, 0.0, 10.000241, 9.998966 
1.955013e+3, 2.1250695e+2, -908793.6, -937339.4, -21686.494, -0.042187717, -0.08404418, -897104.6, -39675.18, 0.0, 9.999774, 9.999337 
1.955059e+3, 2.2250648e+2, -838341.75, -871316.4, -7473.6724, 0.029715309, -0.039491255, -836726.94, -77293.0, 0.0, 9.999621, 9.999212 
1.9551049e+3, 2.3250604e+2, -575918.06, -661437.75, -351.81223, 0.03872152, -0.053506088, -575916.6, 85519.5, 0.0, 10.000644, 9.9994755 
1.9551508e+3, 2.4250533e+2, -444906.4, -626225.1, -16209.789, 0.023294026, -0.02559056, -443468.7, 119972.1, 0.0, 10.001197, 9.998783 
1.9551967e+3, 2.5250363e+2, -321926.34, -507943.2, -18038.61, 0.0013562168, -0.107816525, -320193.22, 145260.92, 0.0, 10.001348, 9.998835 
1.9552426e+3, 2.6250184e+2, -258066.89, -506254.75, -52013.38, -0.01563487, -0.12816426, -247607.14, 119863.164, 0.00000003752054, 10.001407, 9.998175 
1.9552888e+3, 2.7250013e+2, -96904.2, -360379.4, -24894.193, 0.017649436, -0.15812753, -94572.73, 174915.81, 0.0000033251551, 10.001786, 9.998309 
1.9553347e+3, 2.824987e+2, -32431.36, -317446.6, -63782.055, 0.04318751, -0.09340475, -18808.992, 152693.84, 0.000036409245, 10.001712, 9.997975 
1.95538e+3, 2.9249737e+2, 45979.09, -168727.92, -76934.03, 0.038793255, -0.09474779, 70699.88, 144212.86, 0.00016708692, 10.001339, 9.998481 
1.9554259e+3, 3.0249244e+2, 27561.936, -346163.38, -26781.705, -0.074879274, -0.35364777, 29471.395, 29471.395, 0.00045041088, 10.001696, 9.996782 
1.9554764e+3, 3.1249344e+2, 438632.56, -3646.5117, 24603.072, 0.1438599, 0.042494975, 439996.97, 439996.97, 0.0008724613, 10.00389, 9.998045 
1.9646023e+3, 1.2246088e+2, -2078720.9, -1820307.3, -76866.914, 0.13356702, -0.020827582, -1799171.4, -59291.04, 0.23177752, 9.997094, 10.000634 
1.9646434e+3, 1.324644e+2, -1626944.1, -1408798.1, -65073.91, 0.024114434, 0.09182681, -1390861.1, 250981.55, 0.1620495, 9.998893, 10.002197 
1.964689e+3, 1.4246386e+2, -1669687.9, -1625072.3, -1889.5599, -0.0040618074, -0.06879483, -1624992.4, -81147.22, 0.093428105, 9.999063, 9.999684 
1.9647358e+3, 1.5246224e+2, -1567379.8, -1563595.0, 27485.86, -0.07083737, -0.20100625, -1537936.5, -92075.93, 0.04057487, 9.999287, 9.999306 
1.9647823e+3, 1.62461e+2, -1436895.5, -1397940.5, 54325.727, -0.10827795, -0.25982103, -1359706.1, -11832.957, 0.011385711, 9.999255, 9.999819 
1.9648309e+3, 1.7246313e+2, -1343506.1, -1246624.3, 23723.996, 0.0664534, -0.09638034, -1241126.8, 8727.921, 0.0013940044, 9.999018, 10.000277 
1.9648784e+3, 1.824644e+2, -1328500.4, -1303129.8, 1094.848, 0.17591588, 0.05815637, -1303082.6, -151238.78, 0.000014255441, 9.99892, 9.999279 
1.9649228e+3, 1.9246258e+2, -1107717.9, -1149035.5, -601.2377, 0.015460217, -0.07194175, -1107709.1, -53847.883, 0.0, 9.999807, 9.999217 
1.9649675e+3, 2.0246102e+2, -935366.6, -1050582.1, -15435.556, -0.083082, -0.120512664, -933334.56, 22542.035, 0.0, 10.000426, 9.99894 
1.9650131e+3, 2.1246068e+2, -830188.0, -920791.5, -65588.8, -0.010971085, -0.09358515, -795776.94, 62104.547, 0.0, 10.000379, 9.9991665 
1.9650593e+3, 2.2246024e+2, -749543.9, -853409.4, -29464.63, 0.06835155, -0.027573327, -741767.5, 18118.838, 0.0, 10.000343, 9.998991 
1.9651058e+3, 2.324593e+2, -573952.94, -693854.7, -46057.797, 0.079607196, -0.06111695, -558303.4, 103590.16, 0.0, 10.000787, 9.999189 
1.9651523e+3, 2.4245806e+2, -459329.4, -657983.2, -43577.973, 0.08646746, -0.05969696, -450190.3, 113713.53, 0.0, 10.001158, 9.99861 
1.965198e+3, 2.5245646e+2, -361716.84, -545985.06, -56547.797, 0.05111827, -0.11576503, -345747.53, 120170.29, 0.0, 10.001133, 9.998698 
1.9652443e+3, 2.62455e+2, -278975.44, -497941.25, -30744.965, 0.036172565, -0.097197235, -274740.47, 93190.97, 0.00000006167767, 10.001204, 9.998327 
1.9652906e+3, 2.7245364e+2, -109074.65, -345212.16, -59270.344, 0.05255963, -0.10488824, -95032.83, 174912.33, 0.000003603985, 10.001631, 9.998481 
1.9653368e+3, 2.824519e+2, 6575.274, -314054.28, -58548.01, 0.092059284, -0.07548351, 16931.81, 188894.08, 0.00003430298, 10.002053, 9.997833 
1.9653825e+3, 2.924497e+2, 212089.0, -130729.18, -53483.285, 0.11780707, -0.12632255, 220239.2, 294221.66, 0.00015136057, 10.002657, 9.998119 
1.9654287e+3, 3.024461e+2, 239423.52, -229063.3, 89892.88, -0.0020180803, -0.23282705, 256079.9, 256079.9, 0.00039140965, 10.003069, 9.996938 
1.9654787e+3, 3.124464e+2, 252861.38, -44398.383, -7030.1187, 0.07289011, 0.07160244, 253027.53, 253027.53, 0.0007269925, 10.002363, 9.998526 
1.9745964e+3, 1.22418955e+2, -1966570.3, -1663321.6, 56415.32, -0.25908688, 0.17159438, -1653166.5, 87126.71, 0.24301729, 9.997301, 10.001801 
1.9746476e+3, 1.3241751e+2, -1794647.6, -1767961.6, -41305.73, 0.5208984, 0.022185199, -1737897.3, -95592.69, 0.17062773, 9.999077, 9.999347 
1.9746861e+3, 1.4241575e+2, -1612671.3, -1553064.9, -20977.2, -0.27140668, -0.09865956, -1546422.6, -2102.2551, 0.09895461, 9.999253, 10.0000925 
1.9747351e+3, 1.5241726e+2, -1442507.1, -1325941.1, 44209.6, -0.09524231, -0.0631329, -1311070.9, 135230.75, 0.04335473, 9.999358, 10.000946 
1.974784e+3, 1.6241693e+2, -1421173.0, -1394609.0, 35005.996, 0.093529895, -0.1264982, -1370449.9, -22147.229, 0.012356995, 9.999389, 9.999776 
1.9748297e+3, 1.7241721e+2, -1388020.3, -1335636.0, 24699.2, 0.025060598, -0.092040375, -1325827.0, -75524.07, 0.0015709848, 9.999009, 9.99967 
1.9748755e+3, 1.824176e+2, -1311347.4, -1273493.9, 6839.6724, -0.04299229, 0.008842524, -1272296.0, -119994.92, 0.000019593592, 9.998938, 9.99948 
1.9749226e+3, 1.9241706e+2, -1084783.6, -1079128.8, 46860.973, -0.007439059, -0.041541226, -1035010.06, 19295.62, 0.0, 9.999712, 9.999744 
1.974969e+3, 2.0241624e+2, -995503.56, -1131180.4, -19835.586, 0.0081458995, -0.029477155, -992663.1, -36349.074, 0.0, 10.000238, 9.998477 
1.9750135e+3, 2.1241541e+2, -917894.1, -1051450.0, -56554.3, -0.037074592, 0.0195334, -897163.94, -38837.43, 0.0, 10.000155, 9.998377 
1.9750585e+3, 2.2241424e+2, -830518.6, -947705.94, -33315.91, -0.06590417, 0.079218864, -821709.25, -61369.043, 0.0, 10.000018, 9.998504 
1.975106e+3, 2.3241195e+2, -627459.94, -759696.0, -9206.336, -0.0046994197, -0.055388134, -626822.06, 35537.63, 0.0, 10.000582, 9.998838 
1.9751534e+3, 2.4240993e+2, -499880.66, -676457.06, -55540.402, 0.060882926, -0.1112233, -483863.8, 80513.266, 0.0, 10.000868, 9.998626 
1.9752002e+3, 2.5240922e+2, -374375.84, -529877.2, -43050.63, 0.13459176, -0.09557096, -363252.9, 103130.6, 0.0, 10.000942, 9.998902 
1.9752465e+3, 2.6240826e+2, -332998.94, -535525.25, -35071.125, 0.12943295, -0.03372558, -327097.7, 41294.88, 0.000000055759365, 10.000882, 9.99822 
1.9752917e+3, 2.7240634e+2, -156577.27, -379419.4, -22608.393, -0.01942404, -0.09288117, -154306.67, 116104.44, 0.0000036492006, 10.001359, 9.998368 
1.9753376e+3, 2.8240445e+2, -16522.64, -295583.88, -58025.08, -0.07481632, -0.08821798, -4938.392, 167490.9, 0.00003270768, 10.001755, 9.998113 
1.9753852e+3, 2.924037e+2, 201958.73, -93294.266, -2606.3975, 0.10457866, -0.040222842, 201981.73, 276417.88, 0.00013942833, 10.002397, 9.998506 
1.9754319e+3, 3.024031e+2, 134795.94, -308210.4, 53394.25, -0.015034743, 0.14758892, 141140.52, 141140.52, 0.00034788318, 10.00251, 9.996648 
1.9754799e+3, 3.1239733e+2, 190119.58, 18911.186, -1352.3542, -0.08902284, -0.1458833, 190130.27, 190130.27, 0.0006200003, 10.001591, 9.999303 
1.9845942e+3, 1.22371726e+2, -1758077.1, -1451564.3, 114473.56, -0.2231913, -0.0870351, -1413531.0, 327221.8, 0.25424254, 9.9979925, 10.003461 
1.9846472e+3, 1.3237089e+2, -1927755.0, -2056098.1, -38252.35, 0.5902446, -0.021186354, -1917219.0, -274458.75, 0.17932345, 9.999099, 9.997385 
1.9846848e+3, 1.4236802e+2, -1743263.4, -1654006.8, -45.214466, -0.25613573, -0.1121164, -1654006.8, -109217.33, 0.104643695, 9.998527, 9.999759 
1.9847348e+3, 1.5237062e+2, -1586082.5, -1355592.6, -45218.227, 0.018621689, 0.0056805997, -1347039.0, 99721.51, 0.046255346, 9.998199, 10.0013075 
1.9847842e+3, 1.6237086e+2, -1593377.3, -1454798.4, -72365.34, 0.25527015, -0.02993525, -1423899.1, -75143.63, 0.013380272, 9.998122, 9.999963 
1.9848287e+3, 1.7237008e+2, -1362986.4, -1304088.0, -51872.26, 0.036690976, -0.11839674, -1273888.4, -23124.547, 0.0017591557, 9.999107, 9.999831 
1.984874e+3, 1.8236995e+2, -1168333.3, -1176311.1, 6210.3696, -0.10618997, -0.08942269, -1164941.1, -12175.8955, 0.0000256483, 9.999783, 9.999739 
1.9849223e+3, 1.923703e+2, -1014158.4, -1011795.5, 8970.836, -0.0023547183, -0.08390219, -1003928.6, 50832.38, 0.0, 10.00002, 10.000063 
1.9849698e+3, 2.0237006e+2, -1011332.94, -1148476.6, -36810.293, 0.07752943, -0.033257715, -1002077.44, -45313.38, 0.0, 10.0001745, 9.998393 
1.9850142e+3, 2.1236883e+2, -853977.8, -1049634.0, -71333.9, 0.005206915, 0.0058433223, -830732.1, 28048.309, 0.0, 10.000729, 9.998114 
1.9850592e+3, 2.2236723e+2, -680505.2, -907157.06, 11099.866, -0.035714004, 0.049399655, -679962.94, 80836.086, 0.0, 10.001177, 9.99822 
1.9851068e+3, 2.323647e+2, -547060.3, -755768.44, 12744.739, 0.006290976, -0.07914344, -546284.94, 116537.234, 0.0, 10.001285, 9.998524 
1.9851546e+3, 2.4236278e+2, -447832.53, -647598.4, -13039.158, 0.08326095, -0.106144525, -446985.03, 117854.8, 0.0, 10.001262, 9.998604 
1.9852014e+3, 2.5236246e+2, -328435.44, -504384.2, -49128.88, 0.16489302, -0.052456453, -315647.03, 151195.98, 0.0, 10.001273, 9.998902 
1.985248e+3, 2.623616e+2, -250692.56, -494252.44, -2459.381, 0.18264772, 0.015901245, -250667.73, 118183.83, 0.00000004684117, 10.001446, 9.998225 
1.9852936e+3, 2.7235913e+2, -46656.445, -332601.4, -16321.538, 0.03241577, -0.087767474, -45727.84, 225146.28, 0.000003631824, 10.002148, 9.9983015 
1.9853401e+3, 2.8235704e+2, 108362.73, -240352.33, -37958.805, -0.013340054, -0.09643367, 112446.836, 285340.6, 0.000030883682, 10.002653, 9.998046 
1.9853877e+3, 2.9235616e+2, 178630.9, -121848.67, -78147.97, 0.12502179, -0.042618755, 197740.17, 272642.72, 0.00012822116, 10.002347, 9.998313 
1.9854337e+3, 3.023553e+2, 103217.2, -275013.63, 6492.467, -0.02694338, 0.11467504, 103328.62, 103328.62, 0.0003141248, 10.002041, 9.99711 
1.9854829e+3, 3.123505e+2, 292645.28, 108605.5, -79507.6, 0.06956718, -0.13395889, 322235.9, 322235.9, 0.00054965925, 10.002044, 9.9997225 
1.9945954e+3, 1.2232406e+2, -1630293.6, -1265150.1, 76362.47, 0.012744852, -0.27572852, -1249823.8, 491386.97, 0.26535824, 9.998277, 10.005093 
1.9946402e+3, 1.3232435e+2, -1976399.6, -2181064.3, -26769.32, -0.04431026, -0.04679882, -1972956.3, -329745.9, 0.18805622, 9.999186, 9.9964905 
1.9946854e+3, 1.4232062e+2, -1797299.9, -1800064.4, -42232.14, -0.088935144, -0.123133756, -1756427.4, -211174.7, 0.11045076, 9.998673, 9.998688 
1.9947346e+3, 1.5232208e+2, -1657326.5, -1496231.9, -49943.93, 0.15253018, -0.012017065, -1482004.4, -34764.73, 0.04926506, 9.9981985, 10.000307 
1.9947822e+3, 1.623224e+2, -1550744.1, -1384241.3, -63890.746, 0.2052234, 0.008893167, -1362550.6, -13314.767, 0.014456319, 9.998196, 10.000412 
1.9948274e+3, 1.7232154e+2, -1290649.0, -1153646.9, -6317.0186, -0.022651702, -0.18046409, -1153356.1, 97883.02, 0.0019582892, 9.999108, 10.000862 
1.9948736e+3, 1.8232128e+2, -1136259.6, -1119022.9, 6331.323, -0.16448592, -0.24454017, -1116947.3, 36290.754, 0.000032105352, 9.999827, 10.00011 
1.9949217e+3, 1.9232225e+2, -1017515.06, -993289.5, 25312.713, -0.08913894, -0.19412671, -977340.7, 77887.3, 0.0, 9.999921, 10.000233 
1.9949691e+3, 2.0232253e+2, -1021061.5, -1133883.1, -38234.707, -0.033575427, -0.110068925, -1009324.9, -52099.066, 0.0, 10.000016, 9.998571 
1.9950147e+3, 2.1232086e+2, -866515.94, -1035165.94, -36807.28, -0.012122514, -0.13678122, -858832.9, 411.5826, 0.0, 10.000547, 9.9983015 
1.9950607e+3, 2.2231913e+2, -733056.2, -948658.9, 7393.3516, -0.0091835065, -0.11593472, -732802.94, 28460.87, 0.0, 10.000884, 9.998077 
1.995108e+3, 2.3231758e+2, -596030.3, -808008.06, 33518.836, -0.01942549, -0.12407294, -590856.5, 72424.305, 0.0, 10.001063, 9.998273 
1.9951549e+3, 2.4231638e+2, -515105.56, -709296.0, -27212.197, -0.02053092, -0.05520772, -511364.34, 53929.703, 0.0, 10.000923, 9.998346 
1.9952016e+3, 2.5231597e+2, -374233.84, -550639.25, -32674.732, 0.033958994, 0.009620958, -368376.16, 98922.12, 0.0, 10.001059, 9.998688 
1.9952483e+3, 2.623147e+2, -305643.03, -534380.5, 17.487326, 0.053734407, 0.05539785, -305643.03, 63667.23, 0.000000042002604, 10.001137, 9.9980955 
1.9952963e+3, 2.7231175e+2, -95065.42, -362839.63, 26909.992, 0.05404311, -0.09188743, -92387.875, 178948.63, 0.0000035134383, 10.001862, 9.998224 
1.9953437e+3, 2.823093e+2, 4586.0747, -370971.5, -59356.41, 0.056989323, -0.10266269, 13743.969, 187102.94, 0.00002820436, 10.002283, 9.997329 
1.9953892e+3, 2.9230702e+2, 70273.58, -271746.56, -70721.31, 0.009571604, -0.11695687, 84320.12, 159703.02, 0.00011358975, 10.002011, 9.997447 
1.9954339e+3, 3.0230314e+2, 87151.94, -169176.42, -20887.002, -0.24297565, -0.2572837, 88842.766, 88842.766, 0.0002776181, 10.001484, 9.998087 
1.9954857e+3, 3.1230563e+2, 159569.55, 4472.6377, 25240.262, 0.09262927, 0.07744181, 163573.73, 163573.73, 0.00049017585, 10.001357, 9.99931 
2.0045947e+3, 1.22276045e+2, -1756805.9, -1349213.8, 4443.0444, 0.18251362, -0.24348417, -1349165.4, 392514.97, 0.27641812, 9.997256, 10.0048275 
2.0046367e+3, 1.3227732e+2, -1895929.9, -2048757.8, -118800.72, -0.30267256, -0.006968965, -1831089.9, -187419.38, 0.1968332, 9.999336, 9.997306 
2.004686e+3, 1.4227366e+2, -1693770.1, -1770977.0, -13453.291, 0.086046144, -0.12143763, -1691493.1, -145780.83, 0.11636926, 9.999473, 9.998496 
2.0047344e+3, 1.5227419e+2, -1407496.8, -1434272.5, 8893.142, 0.23043276, -0.06198669, -1404812.3, 42897.234, 0.05238356, 10.000161, 9.999797 
2.004781e+3, 1.622743e+2, -1256354.8, -1266203.3, 36129.785, 0.1904276, -0.02300488, -1224815.1, 124893.164, 0.015589432, 10.000287, 10.000239 
2.0048268e+3, 1.7227389e+2, -1235151.4, -1137214.0, -8064.989, 0.0031400297, -0.16665173, -1136554.3, 115152.92, 0.0021699998, 9.999483, 10.000815 
2.0048735e+3, 1.8227378e+2, -1295741.1, -1195200.9, -21021.26, -0.0811661, -0.21343844, -1190982.6, -37278.14, 0.00003871999, 9.998754, 10.000095 
2.0049216e+3, 1.9227464e+2, -1094490.8, -1038964.44, -47814.43, -0.05206129, -0.16703156, -1011437.3, 44258.76, 0.0, 9.99945, 10.000146 
2.0049691e+3, 2.0227474e+2, -985868.9, -1088685.0, -88941.0, -0.028830491, -0.10253178, -934547.7, 23147.639, 0.0, 10.000161, 9.998808 
2.0050153e+3, 2.1227269e+2, -752273.25, -941783.6, -100204.44, -0.03716943, -0.1949294, -709117.4, 150597.75, 0.0, 10.001182, 9.998637 
2.0050618e+3, 2.222709e+2, -606123.2, -880693.4, -50233.293, -0.0229288, -0.19869667, -597221.5, 164512.05, 0.0, 10.00175, 9.998119 
2.0051092e+3, 2.3227026e+2, -553038.9, -790996.4, -58137.656, 0.0032564905, -0.108532056, -539594.3, 124149.336, 0.0, 10.001415, 9.998206 
2.0051564e+3, 2.4226943e+2, -465469.84, -720086.94, -69780.6, 0.047240414, 0.015815636, -447599.9, 118154.516, 0.0, 10.001369, 9.998075 
2.0052034e+3, 2.522679e+2, -250366.69, -527156.2, -105718.68, 0.08232262, 0.001556317, -214607.64, 253161.78, 0.0, 10.002051, 9.998372 
2.0052503e+3, 2.6226583e+2, -129090.44, -470847.78, -57957.52, 0.09572436, -0.004449219, -119529.1, 250259.77, 0.000000029896977, 10.002417, 9.997925 
2.0052983e+3, 2.722628e+2, -88277.12, -381160.13, -65676.21, 0.079761595, -0.14054827, -74224.14, 197592.27, 0.0000031274246, 10.001957, 9.998073 
2.005346e+3, 2.8226078e+2, -66247.766, -387804.22, -93570.83, 0.10530615, -0.11150688, -41001.43, 132834.06, 0.000025154262, 10.00171, 9.997498 
2.0053916e+3, 2.922593e+2, 108272.67, -231795.92, -92480.68, 0.07607326, -0.05385894, 131795.44, 207646.02, 0.00009776422, 10.002181, 9.99764 
2.0054367e+3, 3.0225503e+2, 322805.97, 15372.319, 31110.56, -0.1376516, -0.27654713, 325922.6, 325922.6, 0.00024035014, 10.00277, 9.998758 
2.0054883e+3, 3.12257e+2, 340451.88, -2199.6277, -11421.221, 0.16113433, -0.038291365, 340832.16, 340832.16, 0.0004337669, 10.002959, 9.99853 
2.0145911e+3, 1.22225985e+2, -1955110.8, -1651804.9, 59186.734, 0.02945453, -0.15825556, -1640664.4, 101514.93, 0.28771394, 9.997305, 10.001958 
2.0146368e+3, 1.3222972e+2, -1701300.1, -1662100.0, -91264.266, -0.2464749, 0.107361354, -1588354.9, 55787.363, 0.20582092, 9.999408, 9.999993 
2.014686e+3, 1.4222693e+2, -1609546.8, -1637393.8, -17335.51, 0.08542868, -0.118543044, -1601235.5, -55065.168, 0.12247417, 9.999645, 9.999331 
2.0147336e+3, 1.5222688e+2, -1386959.4, -1403092.4, 41042.316, 0.10548797, -0.14234485, -1353198.4, 94971.74, 0.055639356, 10.000217, 9.999995 
2.0147802e+3, 1.6222678e+2, -1283259.8, -1353632.3, 5022.1304, 0.033869933, -0.11626633, -1282903.1, 67267.516, 0.016791714, 10.000427, 9.999567 
2.0148264e+3, 1.7222731e+2, -1312932.3, -1292977.6, -31902.273, 0.0041442406, -0.058850527, -1269528.9, -17362.846, 0.0023981123, 9.999468, 9.999752 
2.0148733e+3, 1.8222767e+2, -1324766.5, -1271318.6, -32646.746, -0.011670939, 0.027400434, -1255852.8, -101689.76, 0.000045425786, 9.998808, 9.999554 
2.0149215e+3, 1.9222745e+2, -1132838.0, -1100101.5, -11632.7295, -0.021779427, 0.0068342728, -1096388.9, -40223.246, 0.0, 9.999367, 9.999769 
2.0149691e+3, 2.0222668e+2, -992514.56, -1064414.4, -68813.664, -0.0728367, -0.0012635622, -950826.1, 7346.376, 0.0, 9.999992, 9.999057 
2.015015e+3, 2.1222435e+2, -756733.8, -897772.9, -48374.4, -0.19112615, -0.16346428, -741736.8, 118455.44, 0.0, 10.000952, 9.999052 
2.0150615e+3, 2.2222248e+2, -647838.8, -898485.1, -64311.516, -0.24169962, -0.2022157, -632300.8, 129908.36, 0.0, 10.00144, 9.998152 
2.0151103e+3, 2.322224e+2, -582637.56, -815257.94, -58015.81, -0.045618437, -0.048110794, -568971.25, 95242.3, 0.0, 10.001233, 9.998136 
2.0151588e+3, 2.4222158e+2, -536219.4, -790096.25, -64612.48, 0.11537769, 0.090060525, -520721.38, 45502.94, 0.0, 10.001051, 9.997743 
2.0152064e+3, 2.5221822e+2, -317132.9, -606233.7, -63943.96, 0.16363838, -0.06464622, -303621.13, 164635.28, 0.0, 10.001803, 9.997948 
2.0152533e+3, 2.6221484e+2, -192302.08, -527585.5, -77911.14, 0.12461369, -0.1644904, -175081.98, 195206.83, 0.0000000091701935, 10.002099, 9.997689 
2.0152994e+3, 2.7221256e+2, -132877.48, -413402.25, -62313.914, -0.023131749, -0.21854174, -119658.4, 152653.44, 0.0000023642951, 10.001702, 9.9979725 
2.0153461e+3, 2.8221163e+2, -76832.61, -321666.6, -104166.81, -0.06471861, -0.09118577, -38511.79, 135808.9, 0.000021595964, 10.001345, 9.998119 
2.0153946e+3, 2.922125e+2, 130281.74, -126397.66, -51652.52, 0.12763889, 0.10554471, 140286.03, 216596.98, 0.000083873885, 10.001904, 9.998505 
2.0154414e+3, 3.0220994e+2, 246509.17, -11354.102, 19343.223, 0.007537589, -0.0029804467, 247952.11, 247952.11, 0.00020823472, 10.002243, 9.998805 
2.0154886e+3, 3.1220725e+2, 140940.78, -175507.89, 100671.02, -0.15744819, -0.22605841, 170252.03, 170252.03, 0.0003833975, 10.002003, 9.997761 
2.0245905e+3, 1.22178465e+2, -1684261.0, -1756616.1, 147618.6, 0.10759549, 0.045868523, -1568451.5, 174198.05, 0.29983783, 10.000654, 9.999529 
2.0246357e+3, 1.3218088e+2, -1887736.8, -1593630.0, -74049.96, -0.18258296, 0.06607358, -1576038.0, 68585.99, 0.21537028, 9.997401, 10.001472 
2.0246854e+3, 1.4217982e+2, -1788947.9, -1665963.6, -1657.9207, 0.15261683, -0.10443542, -1665941.3, -119308.805, 0.12892798, 9.998158, 9.999853 
2.024733e+3, 1.5217996e+2, -1516847.1, -1459852.9, 11629.416, 0.09671479, -0.120102786, -1457571.3, -8941.657, 0.05909158, 9.9992895, 10.00003 
2.0247799e+3, 1.621797e+2, -1415991.4, -1450723.9, -37246.74, 0.023990419, -0.10054752, -1392261.3, -41629.6, 0.018083457, 9.999688, 9.999233 
2.0248264e+3, 1.7217997e+2, -1293085.6, -1339645.4, -74708.15, 0.050450947, -0.019614428, -1238114.3, 14517.145, 0.0026487417, 9.999898, 9.999199 
2.0248733e+3, 1.8217997e+2, -1190004.9, -1259026.3, 2016.8605, 0.07903517, 0.08373704, -1189946.0, -35313.09, 0.000052423693, 9.999956, 9.999078 
2.0249215e+3, 1.9217882e+2, -1035707.25, -1110903.4, 2766.664, 0.016259301, 0.016934672, -1035605.56, 21038.984, 0.0, 10.000266, 9.999259 
2.0249693e+3, 2.021776e+2, -934888.3, -1048871.5, -37438.68, -0.054057732, -0.003956662, -923691.2, 34964.836, 0.0, 10.000441, 9.998938 
2.0250157e+3, 2.121761e+2, -804370.6, -922605.9, -78816.09, -0.1889053, -0.08237654, -764964.75, 95703.45, 0.0, 10.000625, 9.99903 
2.0250626e+3, 2.221746e+2, -729119.1, -916702.94, -94472.445, -0.22882746, -0.08926535, -689787.2, 72894.05, 0.0, 10.000796, 9.998327 
2.0251115e+3, 2.3217359e+2, -568319.44, -778716.4, -96283.766, -0.03481298, -0.05204782, -530909.06, 133783.23, 0.0, 10.001217, 9.99838 
2.0251602e+3, 2.4217218e+2, -460414.78, -747639.44, -42565.44, 0.14226513, 0.00782578, -454239.53, 112467.74, 0.0, 10.001569, 9.997768 
2.0252082e+3, 2.521692e+2, -315198.6, -619150.9, -41513.477, 0.17935048, -0.097125605, -309630.72, 159105.78, 0.0, 10.001884, 9.997813 
2.0252557e+3, 2.6216638e+2, -182534.58, -511420.4, -23878.598, 0.17355584, -0.13988224, -180809.92, 189954.95, 0.000000001074916, 10.002126, 9.997784 
2.0253019e+3, 2.7216476e+2, -52991.83, -349869.53, -35419.137, 0.05191343, -0.13738336, -48824.625, 223957.83, 0.0000018159459, 10.002179, 9.998163 
2.0253484e+3, 2.82164e+2, 51715.684, -264048.13, -39554.36, 0.004351004, -0.007126877, 56595.086, 231385.77, 0.000018189116, 10.002212, 9.99811 
2.025396e+3, 2.9216397e+2, 147182.84, -112166.125, -84182.3, 0.09815389, 0.1056503, 172111.5, 248900.16, 0.000072171526, 10.001997, 9.998549 
2.0254444e+3, 3.021612e+2, 228261.08, -88071.875, -15149.833, 0.11915675, -0.0057727806, 228984.97, 228984.97, 0.00017992329, 10.002324, 9.998282 
2.0254911e+3, 3.1215805e+2, 306464.22, -62138.027, -75631.91, -0.11401147, -0.19841972, 321379.28, 321379.28, 0.00033564074, 10.002911, 9.998132 
2.0345913e+3, 1.2213155e+2, -1732332.0, -2013388.4, -61825.68, 0.00999901, 0.11034537, -1719333.0, 23776.213, 0.3135409, 10.001069, 9.997409 
2.0346327e+3, 1.3213037e+2, -1862048.9, -1574942.3, -70772.39, -0.2524629, -0.18477893, -1558444.6, 86674.99, 0.22593072, 9.997511, 10.001597 
2.0346832e+3, 1.4213227e+2, -1755498.5, -1635856.4, 33891.957, 0.07176244, -0.07920117, -1626922.6, -79823.234, 0.13594478, 9.998321, 9.999983 
2.0347324e+3, 1.5213346e+2, -1519186.0, -1471432.1, 56853.79, 0.07775224, 0.0129484255, -1433645.0, 15442.689, 0.06282382, 9.999316, 9.999937 
2.0347798e+3, 1.6213301e+2, -1407058.8, -1452617.4, -47859.383, -0.0031715033, 0.018778207, -1376834.1, -25741.912, 0.019494196, 9.999776, 9.999177 
2.0348261e+3, 1.7213173e+2, -1285068.6, -1334528.4, -55765.2, 0.013894556, -0.053176038, -1248795.8, 4308.3057, 0.0029308582, 9.999938, 9.999215 
2.034873e+3, 1.8213056e+2, -1213077.0, -1315897.6, -911.9895, 0.016486302, -0.060106963, -1213069.0, -57953.84, 0.00006041413, 9.999997, 9.99867 
2.0349212e+3, 1.9212875e+2, -1091060.5, -1203328.1, 25015.234, -0.06437524, -0.13170533, -1085739.0, -28606.137, 0.0, 10.000174, 9.99867 
2.034969e+3, 2.0212744e+2, -993928.0, -1129671.5, -45254.727, -0.15033679, -0.10641811, -980224.25, -21077.963, 0.0, 10.000269, 9.998465 
2.0350167e+3, 2.1212782e+2, -863586.1, -995988.06, -58863.824, -0.1559048, 0.045732506, -841200.9, 19943.367, 0.0, 10.000412, 9.9986315 
2.0350644e+3, 2.2212727e+2, -758144.56, -891835.06, -91908.484, -0.15462065, 0.14599432, -711343.6, 51806.273, 0.0, 10.000447, 9.998659 
2.0351122e+3, 2.321239e+2, -570532.06, -717417.4, -61637.684, -0.09066186, -0.1074459, -548094.44, 117084.9, 0.0, 10.000945, 9.998928 
2.0351602e+3, 2.4212116e+2, -487022.34, -731714.4, -43598.61, -0.0418996, -0.22364564, -479486.16, 87717.99, 0.0, 10.001263, 9.998026 
2.0352085e+3, 2.521207e+2, -333827.97, -611450.56, -18032.893, 0.010070865, -0.09633234, -332661.56, 136549.78, 0.0, 10.001678, 9.99797 
2.0352569e+3, 2.6212007e+2, -221438.34, -504287.97, -35548.363, 0.062808365, 0.0635045, -217039.06, 154181.36, 0.000000023664393, 10.001763, 9.997999 
2.035305e+3, 2.7211878e+2, -73735.48, -332123.88, -17899.328, 0.14332338, 0.06280061, -72501.43, 200733.97, 0.0000019634658, 10.001909, 9.998417 
2.035352e+3, 2.8211716e+2, -51197.746, -369547.34, -66472.586, 0.10674447, 0.108394474, -37875.53, 137376.66, 0.000016146072, 10.001769, 9.997589 
2.0353958e+3, 2.9211393e+2, 48386.137, -245372.45, -67367.53, -0.14560625, -0.01945558, 63098.645, 140380.19, 0.00006227005, 10.0016775, 9.997795 
2.0354451e+3, 3.02109e+2, 47821.977, -315258.53, -11673.761, -0.06189352, -0.23222373, 48196.926, 48196.926, 0.00015436458, 10.001731, 9.9969845 
2.035496e+3, 3.121072e+2, 302977.72, 116559.41, -24314.719, 0.026853796, -0.20421532, 306096.94, 306096.94, 0.0002908974, 10.002171, 9.999687 
2.0445897e+3, 1.2208396e+2, -2167858.5, -2027709.6, 10946.347, -0.033578128, 0.055164095, -2026859.9, -283284.28, 0.3294151, 9.997152, 9.999224 
2.0446329e+3, 1.3208264e+2, -1707171.6, -1598071.0, -52124.86, -0.051122762, -0.17132278, -1577171.0, 68415.55, 0.23787552, 9.999073, 10.000651 
2.0446818e+3, 1.4208372e+2, -1578265.0, -1586382.4, 25837.867, 0.042343438, -0.071429834, -1556169.0, -8594.227, 0.14372098, 9.999699, 9.999656 
2.0447315e+3, 1.5208498e+2, -1503670.0, -1477896.0, -16206.211, 0.07983883, 0.041738417, -1470077.5, -20513.37, 0.06692591, 9.999491, 9.999802 
2.0447797e+3, 1.6208448e+2, -1469907.8, -1473532.8, -91480.45, 0.05711351, 0.048616678, -1380221.9, -28651.988, 0.021061258, 9.999282, 9.999284 
2.0448261e+3, 1.7208298e+2, -1222731.4, -1283522.0, -110381.875, 0.02577376, -0.06482351, -1138636.4, 114946.19, 0.003256253, 10.000268, 9.999416 
2.0448734e+3, 1.8208168e+2, -1094523.8, -1283757.6, -29814.89, 0.024731094, -0.08523115, -1089937.5, 65656.57, 0.00007088071, 10.000929, 9.998442 
2.0449221e+3, 1.9207992e+2, -976034.06, -1186846.6, -19322.084, -0.015416735, -0.11940315, -974277.75, 83334.68, 0.0, 10.001153, 9.998302 
2.0449704e+3, 2.0207843e+2, -883333.06, -1085054.3, -53166.867, -0.047919065, -0.08189003, -870178.0, 89449.95, 0.0, 10.001041, 9.998415 
2.045018e+3, 2.1207827e+2, -850045.5, -968652.8, -61837.55, -0.054978743, 0.0068622245, -823670.6, 37958.984, 0.0, 10.000421, 9.998816 
2.0450655e+3, 2.220776e+2, -790849.44, -914168.8, -23654.547, -0.05379882, 0.081135795, -786467.8, -22832.063, 0.0, 10.000221, 9.998635 
2.0451136e+3, 2.3207477e+2, -499034.5, -694012.25, -50666.6, -0.057065744, -0.10840681, -486654.44, 179006.33, 0.0, 10.001457, 9.998856 
2.0451616e+3, 2.4207243e+2, -337983.94, -660471.7, -64941.434, -0.046796393, -0.17918137, -325397.5, 242285.05, 0.0, 10.002273, 9.998041 
2.0452097e+3, 2.520719e+2, -321119.5, -594392.56, -89194.484, -0.018220356, -0.06355271, -294583.72, 175107.31, 0.0, 10.001721, 9.998065 
2.045258e+3, 2.6207128e+2, -287342.25, -516219.47, -76454.71, 0.056964483, 0.08726928, -264152.66, 107547.35, 0.00000011200642, 10.001195, 9.998197 
2.045307e+3, 2.7207044e+2, -177947.7, -361903.28, -94994.6, 0.2008024, 0.113461845, -137698.84, 136011.66, 0.000002326167, 10.001083, 9.998614 
2.0453541e+3, 2.8206885e+2, -117973.32, -392448.03, -89711.18, 0.19510047, 0.14535847, -91252.79, 84474.28, 0.000014696717, 10.00125, 9.997685 
2.0453978e+3, 2.920649e+2, 109670.49, -203723.2, -77374.305, -0.11473697, -0.047817837, 127732.58, 205495.8, 0.00005375532, 10.002067, 9.997886 
2.0454484e+3, 3.0206114e+2, 245541.36, -237393.78, 114833.76, 0.05302339, -0.15296298, 271456.25, 271456.25, 0.00013253847, 10.003149, 9.996834 
2.0454995e+3, 3.1205943e+2, 572135.4, 209449.86, -51061.336, 0.09626844, -0.074253365, 579187.0, 579187.0, 0.0002539401, 10.004121, 9.999399 
2.0545852e+3, 1.2203585e+2, -1693851.6, -1270357.4, 116446.15, -0.2869864, -0.10521789, -1240450.8, 503596.8, 0.3476065, 9.9972725, 10.006093 
2.0546353e+3, 1.3203865e+2, -1828203.9, -1866871.3, 3095.1128, 0.25630003, 0.19040789, -1827957.6, -181942.73, 0.2513395, 9.999189, 9.998629 
2.0546801e+3, 1.4203401e+2, -1612601.5, -1706938.1, 13761.398, -0.15095526, -0.11590845, -1610635.1, -62574.516, 0.15236652, 9.999913, 9.998723 
2.0547299e+3, 1.5203443e+2, -1507866.9, -1507032.3, -16362.022, -0.049304575, -0.046628337, -1491082.1, -41022.86, 0.071473114, 9.999573, 9.999564 
2.0547791e+3, 1.6203402e+2, -1442430.4, -1451294.3, -87073.11, 0.02049956, -0.014798112, -1359676.5, -7611.2334, 0.022826005, 9.999421, 9.999374 
2.0548259e+3, 1.7203364e+2, -1195449.4, -1232302.8, -63888.508, -0.045473322, -0.048135288, -1147383.4, 106684.17, 0.0036400491, 10.000283, 9.9997635 
2.0548737e+3, 1.8203318e+2, -1088850.5, -1293798.0, -30512.484, -0.0771771, 0.0011416025, -1084404.4, 71667.086, 0.00008593674, 10.001008, 9.9983425 
2.0549238e+3, 1.9203202e+2, -990705.5, -1214321.3, -3844.818, 0.028339343, 0.044851933, -990639.44, 67446.49, 0.0, 10.001121, 9.998137 
2.054973e+3, 2.0203033e+2, -883020.56, -1043637.3, -83573.51, 0.07851646, 0.056332774, -847423.94, 112679.47, 0.0, 10.00087, 9.99878 
2.0550188e+3, 2.1202734e+2, -840129.3, -896725.44, -74542.8, -0.020162882, -0.19770429, -788694.06, 73431.9, 0.0, 10.0001955, 9.999417 
2.0550655e+3, 2.2202526e+2, -865136.0, -988161.56, -11260.211, -0.10061063, -0.2911872, -864113.9, -99971.76, 0.0, 9.999886, 9.998285 
2.055115e+3, 2.3202597e+2, -584898.75, -813107.8, 14375.903, -0.06886504, -0.06183448, -583996.7, 82142.23, 0.0, 10.0012045, 9.99816 
2.0551641e+3, 2.4202576e+2, -409256.5, -719292.94, -79863.86, -0.051545866, 0.13268179, -389893.28, 178251.31, 0.0, 10.001903, 9.997808 
2.0552112e+3, 2.5202253e+2, -366485.2, -620607.4, -94605.414, -0.041338183, -0.014547091, -335133.2, 135044.55, 0.0, 10.00144, 9.998015 
2.0552588e+3, 2.6202002e+2, -330301.16, -522267.84, -97935.14, -0.010951069, -0.05832161, -289156.5, 83047.3, 0.00000017468948, 10.000848, 9.998317 
2.0553072e+3, 2.7201986e+2, -199158.0, -361503.6, -78404.66, 0.08935562, 0.022684563, -167475.52, 106731.53, 0.0000023499456, 10.000884, 9.998716 
2.0553546e+3, 2.82019e+2, -154105.17, -369049.5, -81501.77, 0.075973876, 0.113907605, -126696.625, 49519.492, 0.000012296112, 10.000852, 9.998028 
2.055401e+3, 2.9201645e+2, 100287.3, -144216.28, -21495.307, -0.024435572, -0.013539682, 102162.66, 180401.53, 0.000044415407, 10.001729, 9.998452 
2.055453e+3, 3.0201587e+2, 191042.42, -189168.1, 129052.195, 0.18103021, 0.12464841, 230707.66, 230707.66, 0.00011238554, 10.002496, 9.997459 
2.0555015e+3, 3.120137e+2, 268306.47, -202595.03, -80038.766, -0.18751632, 0.119856715, 281538.78, 281538.78, 0.00022337346, 10.003229, 9.996976 
2.0645815e+3, 1.2198537e+2, -1904300.9, -1138918.9, 62938.383, -0.18026823, -0.19477268, -1133778.0, 610766.2, 0.36771804, 9.994176, 10.009148 
2.0646343e+3, 1.319896e+2, -1930871.1, -1981004.9, -107007.43, 0.2869165, 0.24347752, -1846033.8, -199538.27, 0.26616043, 9.998738, 9.998048 
2.0646802e+3, 1.4198343e+2, -1648583.1, -1747193.6, -34990.34, -0.09965155, -0.1735568, -1637429.0, -88872.914, 0.1618756, 9.999731, 9.998547 
2.0647295e+3, 1.5198407e+2, -1436845.5, -1451639.6, -58012.42, -0.063727796, -0.098155156, -1385760.4, 64792.426, 0.07651462, 9.99997, 9.999773 
2.0647784e+3, 1.619845e+2, -1344391.9, -1385253.9, -53472.793, -0.001806769, -0.0028594856, -1307579.9, 44970.703, 0.024829434, 10.000046, 9.999513 
2.0648259e+3, 1.7198433e+2, -1266368.3, -1254891.6, -71530.43, -0.03875289, -0.023490291, -1188869.8, 65681.38, 0.0041003036, 9.999766, 9.999844 
2.064874e+3, 1.8198392e+2, -1313717.5, -1379614.3, -16226.684, -0.032115217, 0.018872647, -1309938.5, -153383.52, 0.000108260756, 9.999378, 9.998525 
2.0649245e+3, 1.9198307e+2, -1159051.8, -1265322.3, 12406.041, 0.058126885, 0.06913758, -1157622.6, -99055.83, 0.0, 9.999842, 9.998396 
2.0649739e+3, 2.019817e+2, -942462.06, -1042296.7, -30048.188, 0.120200135, 0.08593074, -934115.9, 26465.436, 0.0, 10.000336, 9.999038 
2.0650198e+3, 2.1197884e+2, -670821.3, -786620.8, -75351.08, 0.030992122, -0.17874072, -633693.9, 228907.33, 0.0, 10.00125, 9.99966 
2.0650667e+3, 2.2197676e+2, -586222.06, -849907.2, 16906.514, -0.032190308, -0.28458133, -585142.5, 179473.48, 0.0, 10.00178, 9.998321 
2.0651165e+3, 2.319772e+2, -593629.2, -822945.7, 57955.41, -0.019684575, -0.08016893, -579814.3, 86800.91, 0.0, 10.001182, 9.998094 
2.0651658e+3, 2.4197687e+2, -565560.25, -790281.0, 15140.097, -0.0037372971, 0.10350717, -564544.8, 4076.9097, 0.0, 10.000806, 9.99785 
2.0652126e+3, 2.5197372e+2, -378217.5, -613040.4, -24505.428, -0.031215064, -0.043999877, -375687.44, 94966.51, 0.0, 10.001301, 9.998132 
2.0652598e+3, 2.6197103e+2, -205014.34, -484638.56, 5179.7188, -0.029895386, -0.110164374, -204918.44, 167763.39, 0.00000012472299, 10.001788, 9.998135 
2.0653078e+3, 2.719702e+2, -20056.13, -298861.22, -32760.254, 0.025976801, -0.063668005, -16258.454, 258432.69, 0.0000018192295, 10.002229, 9.998496 
2.065356e+3, 2.8196946e+2, 82537.74, -241228.2, -27874.242, 0.080296606, 0.043687925, 84920.01, 261619.13, 0.000008845643, 10.002402, 9.998174 
2.065404e+3, 2.9196802e+2, 95386.93, -123914.22, -44181.01, 0.14610669, 0.010497353, 103953.15, 182664.44, 0.000033872344, 10.001603, 9.998655 
2.0654558e+3, 3.0196694e+2, 136795.67, -153199.4, 175151.7, 0.27101654, 0.05822444, 219179.77, 219179.77, 0.00009226449, 10.001772, 9.998101 
2.0655057e+3, 3.1196535e+2, 386479.75, -150927.89, -152896.63, -0.09767442, 0.06016927, 426934.66, 426934.66, 0.00019361054, 10.004016, 9.996982 
2.0745781e+3, 1.2193567e+2, -2056971.3, -1372161.0, -18683.145, -0.027963774, 0.12572551, -1371651.6, 373382.44, 0.38886976, 9.994306, 10.006686 
2.0746285e+3, 1.3193423e+2, -1850106.3, -1830451.4, -13779.546, -0.21011369, -0.09152031, -1823353.9, -176312.63, 0.28190908, 9.998797, 9.999061 
2.0746817e+3, 1.4193174e+2, -1568264.8, -1609726.1, -54045.34, 0.021053221, -0.23110665, -1531110.6, 17953.291, 0.17213808, 9.999877, 9.999427 
2.0747295e+3, 1.5193376e+2, -1369087.6, -1324864.4, -40375.938, -0.102094635, -0.103792794, -1300941.9, 150103.75, 0.08207624, 10.000035, 10.000671 
2.0747769e+3, 1.6193579e+2, -1305504.6, -1339289.4, -71634.32, -0.19557816, 0.08006623, -1248797.9, 104228.93, 0.027111659, 10.000198, 9.999761 
2.0748255e+3, 1.719351e+2, -1275595.5, -1275139.5, -76949.86, -0.07657704, 0.015033034, -1198417.3, 56615.613, 0.0046569863, 9.999777, 9.999697 
2.0748743e+3, 1.8193397e+2, -1278221.4, -1318698.4, -24325.045, 0.0048761703, -0.018865367, -1266816.5, -109772.8, 0.00014131474, 9.999434, 9.998916 
2.0749234e+3, 1.9193296e+2, -1129996.5, -1184838.6, 39561.336, -0.04730802, -0.041888487, -1109282.3, -50226.348, 0.0000000002137382, 9.999754, 9.998992 
2.0749724e+3, 2.0193227e+2, -957000.56, -1037406.7, -17112.229, -0.09232444, 0.0015752901, -953510.2, 7553.422, 0.0, 10.000176, 9.99915 
2.0750205e+3, 2.1193251e+2, -705254.06, -812110.1, -26226.613, -0.03735669, 0.05010687, -699164.1, 163893.53, 0.0, 10.001045, 9.999584 
2.0750688e+3, 2.2193189e+2, -616411.75, -827265.2, -89.16021, -0.010264424, 0.0780417, -616411.75, 148648.3, 0.0, 10.001427, 9.998639 
2.0751177e+3, 2.3192844e+2, -602965.0, -774203.9, 46778.3, -0.036805496, -0.15050337, -591019.6, 76070.47, 0.0, 10.000905, 9.998555 
2.075166e+3, 2.4192567e+2, -600490.9, -777035.44, 8730.546, -0.07754879, -0.2501967, -600060.2, -30945.127, 0.0, 10.000443, 9.998113 
2.0752132e+3, 2.519252e+2, -400506.44, -605890.75, 8814.368, -0.124074645, -0.15142272, -400128.88, 70993.89, 0.0, 10.001076, 9.998287 
2.0752603e+3, 2.6192394e+2, -296345.72, -581362.3, 2451.391, -0.17753069, -0.06240345, -296324.66, 76812.914, 0.000000021824269, 10.001403, 9.997652 
2.0753086e+3, 2.7192113e+2, -109251.63, -413217.38, -155.48805, -0.13564804, -0.15435906, -109251.555, 165915.23, 0.00000084431264, 10.001935, 9.997851 
2.0753577e+3, 2.8191966e+2, 3609.3345, -297403.16, -67422.31, -0.011572148, -0.07757683, 18020.941, 195202.92, 0.000005133315, 10.00196, 9.99799 
2.0754069e+3, 2.9191932e+2, 40399.723, -188024.27, -55546.12, 0.2367137, 0.012463144, 53190.684, 132374.23, 0.000023723636, 10.00137, 9.998331 
2.0754562e+3, 3.019147e+2, 67959.86, -136225.45, 205085.28, 0.106749326, -0.27739468, 194958.64, 194958.64, 0.00007269807, 10.00115, 9.998485 
2.07551e+3, 3.1191584e+2, 344843.6, 32548.1, 4821.937, -0.11347781, -0.10888442, 344918.0, 344918.0, 0.00016065389, 10.002953, 9.998708 
2.0845759e+3, 1.218851e+2, -1721773.4, -1540871.3, 2320.0996, 0.14179699, 0.27308798, -1540841.5, 204688.8, 0.40993002, 9.998598, 10.002795 
2.084626e+3, 1.3188176e+2, -1878642.0, -1706603.8, 83325.24, -0.25443065, -0.19590259, -1672863.1, -25304.52, 0.29801235, 9.9980135, 10.000284 
2.0846818e+3, 1.418827e+2, -1691631.6, -1587109.6, 31216.137, 0.12906691, -0.1061891, -1578496.5, -28949.434, 0.18298064, 9.998693, 10.000133 
2.0847288e+3, 1.5188397e+2, -1547926.5, -1390048.3, -44310.832, -0.08057876, -0.08108256, -1378462.0, 73072.47, 0.088167645, 9.998677, 10.000851 
2.0847763e+3, 1.618856e+2, -1527414.6, -1442815.4, -76962.164, -0.18554537, 0.051640276, -1397294.6, -43776.277, 0.029713616, 9.998628, 9.99982 
2.0848255e+3, 1.7188494e+2, -1254325.1, -1267043.0, -101919.63, -0.041222155, -0.010316707, -1158566.3, 96957.87, 0.005333032, 9.999909, 9.999709 
2.0848745e+3, 1.8188387e+2, -1084695.5, -1197441.3, -30771.549, 0.060756404, -0.04992771, -1076843.9, 80690.42, 0.00018960002, 10.000645, 9.999175 
2.0849231e+3, 1.9188297e+2, -1010408.75, -1090176.0, -12580.059, -0.06824939, -0.09175816, -1008471.75, 51072.387, 0.000000020895914, 10.000429, 9.999314 
2.0849717e+3, 2.0188257e+2, -982454.44, -1039109.9, -53998.496, -0.14005136, -0.040536057, -949804.3, 11744.306, 0.0, 9.999993, 9.999211 
2.0850207e+3, 2.1188352e+2, -888256.44, -907017.9, -93193.09, -0.03655767, 0.08532871, -803973.1, 59565.156, 0.0, 9.999836, 9.999504 
2.0850699e+3, 2.2188327e+2, -820404.56, -891936.6, -52609.035, 0.04752801, 0.14900419, -792555.2, -27016.98, 0.0, 9.999861, 9.998964 
2.0851184e+3, 2.3187934e+2, -617531.06, -722157.5, -31901.527, -0.0021941634, -0.17714667, -608571.3, 58999.063, 0.0, 10.000528, 9.999106 
2.085167e+3, 2.4187636e+2, -491636.66, -703774.44, -27615.396, -0.03985068, -0.3415564, -488100.72, 81494.76, 0.0, 10.001095, 9.998301 
2.0852144e+3, 2.5187662e+2, -354641.38, -587624.0, -63157.21, -0.087504566, -0.16191229, -338622.06, 132974.97, 0.0, 10.001405, 9.998254 
2.0852622e+3, 2.6187605e+2, -259529.61, -568420.75, -40945.02, -0.12931177, -0.0053499625, -254194.3, 119412.445, 0.0, 10.001676, 9.997609 
2.0853105e+3, 2.7187267e+2, -133409.06, -435737.53, -40420.36, -0.1095265, -0.14075738, -128098.28, 147542.03, 0.000000115745564, 10.001818, 9.997749 
2.0853601e+3, 2.8187022e+2, 16747.104, -341284.06, -64679.063, 0.049433343, -0.14088887, 28073.213, 205738.16, 0.0000020138657, 10.002231, 9.997567 
2.0854096e+3, 2.9186928e+2, 272636.88, -121331.19, -124214.61, 0.296291, -0.050890144, 308530.44, 388203.97, 0.000014504671, 10.003175, 9.997916 
2.0854573e+3, 3.0186635e+2, 444113.4, 74314.6, 181133.58, -0.0010348125, -0.16789836, 518052.1, 518052.1, 0.00005340342, 10.003544, 9.998807 
2.0855132e+3, 3.1186664e+2, 204871.8, -65546.03, -86377.37, -0.013430747, -0.10370477, 230107.58, 230107.58, 0.0001257325, 10.001987, 9.99855 
2.0945732e+3, 1.2183003e+2, -2047452.9, -2185317.0, -79384.7, -0.115338705, -0.13157561, -2011249.0, -265181.5, 0.42994058, 9.9989195, 9.997256 
2.0946279e+3, 1.3183278e+2, -1762966.0, -1531254.5, 99887.516, 0.105953656, -0.01614426, -1494139.4, 153902.84, 0.31401625, 9.998106, 10.001872 
2.0946795e+3, 1.4183645e+2, -1644228.5, -1524917.3, 25439.645, -0.015228464, 0.21996231, -1519719.4, 30284.646, 0.19429262, 9.99881, 10.000557 
2.0947269e+3, 1.5183471e+2, -1587571.5, -1471669.9, -42519.18, -0.15980351, -0.016497828, -1457744.6, -5725.2534, 0.094824284, 9.998696, 10.000237 
2.0947756e+3, 1.6183382e+2, -1518593.6, -1454344.5, -66434.84, -0.15057017, -0.08808596, -1412675.0, -58648.477, 0.032688897, 9.998754, 9.9996805 
2.0948255e+3, 1.7183386e+2, -1237733.5, -1239425.8, -43165.78, -0.060818978, -0.090577215, -1195405.5, 60619.508, 0.0061590113, 9.999936, 9.999886 
2.0948745e+3, 1.8183364e+2, -1060600.1, -1173575.1, -38996.586, -0.0486331, -0.06415852, -1048446.75, 109579.9, 0.00026052183, 10.000752, 9.999288 
2.0949231e+3, 1.9183317e+2, -1014750.5, -1089150.5, -16778.19, -0.14246222, -0.06651126, -1011141.8, 48888.992, 0.00000016154512, 10.000382, 9.999346 
2.0949714e+3, 2.0183264e+2, -1017651.8, -1071971.4, -77160.8, -0.19396107, -0.02747777, -963010.4, -974.66327, 0.0, 9.999822, 9.999066 
2.0950203e+3, 2.1183187e+2, -940399.9, -958707.56, -87463.66, -0.09048059, -0.05416193, -861612.4, 2430.8313, 0.0, 9.9996, 9.999256 
2.0950691e+3, 2.2183095e+2, -843652.5, -865942.0, -49008.96, -0.027301019, -0.05390074, -804537.1, -38486.47, 0.0, 9.999542, 9.999294 
2.0951185e+3, 2.3182976e+2, -610805.44, -650657.3, 9760.104, -0.061134513, -0.16099228, -608543.5, 59513.473, 0.0, 10.000279, 9.999717 
2.0951678e+3, 2.4182871e+2, -543699.9, -723217.9, -25575.121, -0.08432496, -0.1777644, -540127.4, 29937.287, 0.0, 10.000715, 9.998348 
2.0952164e+3, 2.5182807e+2, -403245.22, -635434.2, -37434.63, -0.059958633, -0.07501795, -397359.06, 74717.6, 0.0, 10.001169, 9.998041 
2.0952643e+3, 2.618272e+2, -295665.84, -557393.7, -48787.316, -0.08694662, 0.05568842, -286867.44, 87222.22, 0.0, 10.001318, 9.997852 
2.0953129e+3, 2.7182457e+2, -150311.14, -409070.34, -18322.14, -0.06415891, -0.046926443, -149020.23, 127094.35, 0.0, 10.001554, 9.998056 
2.0953628e+3, 2.8182092e+2, -107565.164, -481116.5, -55273.055, 0.06682409, -0.148033, -99558.234, 78591.42, 0.00000039293647, 10.001737, 9.996841 
2.0954116e+3, 2.9181802e+2, 170610.02, -243624.94, -57878.207, 0.16359662, -0.17383897, 178544.95, 258725.2, 0.000007667558, 10.0027895, 9.997263 
2.0954575e+3, 3.018201e+2, 319425.0, 22812.352, 127461.94, -0.34404835, 0.23305161, 366672.53, 366672.53, 0.000037309022, 10.002718, 9.998822 
2.0955154e+3, 3.1181708e+2, -21979.783, -295744.03, 75264.164, -0.0532978, -0.024117569, -2652.4014, -2652.4014, 0.00009614077, 10.0010395, 9.99739 
2.104572e+3, 1.217781e+2, -2034276.4, -2322653.8, -105937.34, -0.11406311, 0.02986646, -1999543.0, -252967.95, 0.44859928, 9.999628, 9.995959 
2.1046282e+3, 1.31782e+2, -1563606.4, -1315490.5, 11891.534, 0.29935515, 0.086384535, -1314921.9, 333618.9, 0.3298663, 9.998794, 10.003734 
2.1046777e+3, 1.4178604e+2, -1745968.9, -1529265.3, -24214.18, 0.005143617, 0.23496872, -1526592.6, 23906.223, 0.20615475, 9.99793, 10.000938 
2.1047258e+3, 1.5178466e+2, -1610239.5, -1473465.8, -91757.93, -0.1010627, 0.019697934, -1427413.6, 25097.28, 0.10215144, 9.99853, 10.000299 
2.1047749e+3, 1.6178346e+2, -1497021.1, -1425494.6, -24334.89, -0.08259892, -0.08969049, -1418000.5, -63479.45, 0.036114734, 9.998834, 9.99982 
2.1048252e+3, 1.7178385e+2, -1277673.6, -1230422.9, -8010.382, -0.03669947, -0.08547574, -1229101.9, 27414.148, 0.007176738, 9.999535, 10.000128 
2.104875e+3, 1.8178406e+2, -1182225.6, -1238002.9, -10891.944, -0.010925874, -0.031156398, -1180174.3, -21661.398, 0.0003661867, 9.999947, 9.999232 
2.1049239e+3, 1.917832e+2, -1044760.5, -1125787.3, -46733.57, -0.06553657, -0.052403096, -1023424.4, 37096.465, 0.00000091193453, 10.000284, 9.999136 
2.1049725e+3, 2.0178223e+2, -908522.2, -1025046.3, -86963.54, -0.08953656, -0.04479301, -862107.94, 100422.164, 0.0, 10.00055, 9.999061 
2.1050204e+3, 2.1178094e+2, -738316.8, -861178.3, -98032.91, -0.07612901, -0.1261562, -684057.56, 180484.39, 0.0, 10.000936, 9.999315 
2.1050689e+3, 2.2178e+2, -628103.25, -759235.5, -21665.955, -0.056131963, -0.13117804, -624616.25, 141933.45, 0.0, 10.00103, 9.999296 
2.105119e+3, 2.3177992e+2, -520136.13, -612874.2, -40355.598, -0.067201816, -0.12022965, -505034.3, 163513.75, 0.0, 10.000948, 9.999637 
2.1051687e+3, 2.4177955e+2, -496612.84, -674576.6, -87323.086, -0.03841525, -0.066467725, -460922.78, 109628.0, 0.0, 10.000901, 9.9986105 
2.1052177e+3, 2.5177857e+2, -431916.16, -600828.5, -87079.98, -0.0012503539, -0.03544068, -395063.75, 77500.805, 0.0, 10.000755, 9.998488 
2.1052662e+3, 2.617777e+2, -339811.2, -537457.75, -27048.5, 0.0028952528, 0.053582773, -336176.34, 38399.68, 0.0, 10.000822, 9.998237 
2.1053149e+3, 2.7177593e+2, -117710.89, -359737.25, -24294.83, -0.016895045, 0.011428839, -115296.24, 161295.75, 0.0, 10.001627, 9.998366 
2.1053645e+3, 2.817728e+2, -16672.066, -418735.75, -1872.971, 0.071221575, -0.065009765, -16663.342, 161958.3, 0.00000006547354, 10.002321, 9.9969635 
2.1054135e+3, 2.9176888e+2, 88550.84, -301032.72, -12258.711, 0.13567215, -0.17903735, 88936.2, 169598.17, 0.000004738257, 10.002342, 9.9970665 
2.1054609e+3, 3.0177057e+2, 201192.36, -133522.95, 160160.52, -0.20818792, 0.24274763, 265480.94, 265480.94, 0.00002905632, 10.002302, 9.997954 
2.1055178e+3, 3.1176645e+2, 245658.34, -69221.17, 7721.4653, 0.035592437, -0.03460327, 245847.58, 245847.58, 0.00007991688, 10.002431, 9.998281 
2.1145715e+3, 1.21725634e+2, -1806269.4, -1889053.8, 60542.207, -0.23738998, 0.39234602, -1774322.1, -27232.533, 0.46656317, 9.999797, 9.998846 
2.1146248e+3, 1.3172892e+2, -1449782.1, -1105848.4, -27639.463, 0.054940138, 0.06836924, -1103641.4, 545417.7, 0.34608045, 9.998945, 10.005941 
2.1146762e+3, 1.4173083e+2, -1696192.5, -1490485.5, -19478.262, -0.0007589105, -0.11852316, -1488657.4, 62379.51, 0.21890919, 9.998148, 10.001179 
2.1147254e+3, 1.5173364e+2, -1535727.6, -1361111.9, -59223.563, -0.04225797, 0.018587315, -1342920.5, 110089.89, 0.110347085, 9.998669, 10.001073 
2.1147734e+3, 1.6173449e+2, -1437726.4, -1342224.0, -20143.158, -0.17049028, 0.04215048, -1338149.4, 16853.254, 0.040102176, 9.998996, 10.0003195 
2.1148245e+3, 1.7173494e+2, -1250883.5, -1185872.9, 26621.514, -0.10015861, 0.01836145, -1176362.6, 80633.63, 0.008443992, 9.999566, 10.000427 
2.1148755e+3, 1.8173505e+2, -1195026.9, -1273516.1, -13569.441, -0.005945397, 0.051501572, -1192747.1, -33753.438, 0.00052604213, 9.999985, 9.998967 
2.1149252e+3, 1.9173296e+2, -1095893.4, -1209019.6, -26851.012, 0.03196201, -0.045497317, -1089843.6, -28828.387, 0.0000034897541, 10.00019, 9.998605 
2.1149741e+3, 2.0173112e+2, -934063.94, -1027310.4, -88587.2, 0.002086082, -0.09369271, -880580.1, 82453.51, 0.0, 10.000336, 9.999147 
2.115021e+3, 2.1173072e+2, -748750.8, -819002.9, -73958.22, -0.12688631, -0.11972528, -702001.0, 163033.55, 0.0, 10.000685, 9.999718 
2.1150686e+3, 2.2173041e+2, -710162.9, -850170.25, -33573.0, -0.22321327, -0.07544774, -702528.5, 64506.953, 0.0, 10.000683, 9.99884 
2.1151191e+3, 2.3172966e+2, -615048.8, -760708.44, -28630.814, -0.14672148, -0.049724676, -609623.25, 59421.63, 0.0, 10.000728, 9.998732 
2.1151695e+3, 2.4172884e+2, -520962.2, -640594.4, -103329.97, -0.08941852, 0.0010473446, -461383.78, 109670.97, 0.0, 10.0005455, 9.999006 
2.115218e+3, 2.5172803e+2, -392539.4, -469334.38, -80115.086, -0.045507126, -0.047115766, -342095.5, 130966.78, 0.0, 10.00055, 9.999479 
2.1152669e+3, 2.6172742e+2, -368399.72, -505274.7, -20953.516, -0.036324657, -0.010616749, -365263.88, 9803.879, 0.0, 10.000443, 9.9986315 
2.1153156e+3, 2.7172685e+2, -129384.88, -329454.44, 26391.002, -0.11104441, 0.038400903, -125962.22, 151110.13, 0.0, 10.001394, 9.998681 
2.1153648e+3, 2.8172532e+2, -45303.047, -380637.53, -10400.464, -0.16863701, 0.0709095, -44980.785, 134105.86, 0.00000005479561, 10.0019, 9.99743 
2.115415e+3, 2.917212e+2, 57059.617, -321488.2, 12977.8125, 0.008202976, -0.10864132, 57504.016, 138630.64, 0.0000044706885, 10.002124, 9.99704 
2.1154663e+3, 3.0171764e+2, -58981.293, -464432.25, 127357.31, 0.053969726, -0.091308504, -22296.027, -22296.027, 0.000027145721, 10.001483, 9.996038 
2.1155201e+3, 3.117151e+2, 207430.11, 119171.49, 131546.47, -0.04774615, -0.07990811, 302051.9, 302051.9, 0.00007500438, 10.001355, 10.000064 
2.1245764e+3, 1.216676e+2, -1643339.8, -2065499.9, -57621.48, 0.12688367, -0.60256934, -1635616.3, 112039.55, 0.48543465, 10.0028105, 9.996225 
2.1246216e+3, 1.316785e+2, -1583321.9, -1258832.3, 50809.63, -0.08437436, 0.06226395, -1251062.4, 398489.5, 0.3637423, 9.998134, 10.004819 
2.1246748e+3, 1.4167865e+2, -1845145.3, -1569195.6, 41987.21, 0.105286315, -0.21997067, -1562948.5, -11399.898, 0.23315269, 9.997213, 10.000975 
2.1247244e+3, 1.5168251e+2, -1509831.9, -1327723.0, -38315.047, 0.012798577, 0.006275895, -1319990.0, 133522.3, 0.1197026, 9.9986925, 10.0013485 
2.1247727e+3, 1.616842e+2, -1323776.1, -1285451.6, -32156.834, -0.14151299, 0.09230498, -1267180.5, 88316.39, 0.044803485, 9.999757, 10.000379 
2.1248245e+3, 1.7168444e+2, -1210168.6, -1176652.3, -50850.242, -0.03636921, 0.06284001, -1139870.0, 117623.59, 0.01004214, 9.999899, 10.000335 
2.1248762e+3, 1.8168454e+2, -1214313.6, -1253083.8, -81101.97, 0.10420922, 0.09195528, -1150312.3, 9179.774, 0.0007722133, 9.999711, 9.999239 
2.1249259e+3, 1.9168289e+2, -1127538.0, -1183559.8, -54207.91, 0.087109685, -0.001079138, -1094531.5, -33022.727, 0.000010944595, 9.999768, 9.998997 
2.1249744e+3, 2.016814e+2, -1005476.25, -1054901.4, -38008.258, 0.041564636, -0.038162325, -984852.94, -21329.979, 0.0, 9.999836, 9.999186 
2.125022e+3, 2.1168089e+2, -773217.44, -840266.4, -83759.78, -0.08232219, -0.068681136, -716522.25, 149002.58, 0.0, 10.000587, 9.999592 
2.1250701e+3, 2.2168028e+2, -655573.0, -848626.94, -53057.92, -0.1409106, -0.039319143, -641951.9, 125576.89, 0.0, 10.001156, 9.998627 
2.1251202e+3, 2.3167929e+2, -588385.75, -772473.94, -36171.37, -0.10817045, -0.011686619, -581533.56, 88008.11, 0.0, 10.00102, 9.998511 
2.1251702e+3, 2.4167839e+2, -458999.4, -596181.7, -55844.65, -0.07163878, 0.039816834, -439140.72, 132412.0, 0.0, 10.000932, 9.999116 
2.125219e+3, 2.5167745e+2, -275475.53, -388645.34, -113906.32, -0.037691165, -0.034636818, -204873.56, 268685.88, 0.0, 10.001269, 9.999686 
2.1252681e+3, 2.6167655e+2, -189315.39, -401682.53, -64557.87, 0.018023917, -0.042976752, -171230.42, 204335.45, 0.0, 10.001603, 9.998781 
2.1253176e+3, 2.7167562e+2, -88507.766, -297874.53, -66251.88, -0.04092609, -0.03157178, -69304.414, 208269.39, 0.0, 10.001646, 9.99877 
2.1253672e+3, 2.8167468e+2, 27133.125, -296609.47, -71618.5, -0.11597921, 0.03659741, 42268.965, 221851.1, 0.000000117451826, 10.002152, 9.99791 
2.1254174e+3, 2.9167205e+2, 357761.9, -109509.35, -74203.21, -0.03951613, -0.039276708, 369262.4, 450868.06, 0.0000050467984, 10.003894, 9.99765 
2.1254702e+3, 3.01667e+2, 394594.84, -329147.53, 92707.79, 0.16970284, -0.1858759, 406281.53, 406281.53, 0.00002697455, 10.004839, 9.995421 
2.1255225e+3, 3.116657e+2, 207422.72, 62479.598, -27617.93, 0.10216044, 0.070199415, 212506.8, 212506.8, 0.00007158717, 10.001472, 9.999694 
2.1346186e+3, 1.3163196e+2, -1882044.6, -1739408.4, 15958.6, -0.22796845, 0.20212673, -1737644.6, -87636.19, 0.38411817, 9.9981785, 9.999933 
2.1346726e+3, 1.4162958e+2, -1891012.9, -1702817.0, 28707.178, 0.105863966, -0.034958117, -1698535.5, -146502.0, 0.24951555, 9.997374, 9.999974 
2.1347225e+3, 1.516312e+2, -1503166.9, -1343753.9, 22408.35, -0.077205695, -0.0027727755, -1340663.9, 113353.3, 0.13052814, 9.998812, 10.001172 
2.1347727e+3, 1.6163233e+2, -1321779.8, -1327989.8, -30227.693, -0.18990143, 0.046259355, -1294498.0, 61508.34, 0.050404422, 9.999967, 9.999971 
2.1348254e+3, 1.716322e+2, -1245430.4, -1256235.1, -44064.383, 0.02444284, 0.0335285, -1206438.4, 51571.27, 0.012084308, 9.999928, 9.999769 
2.1348767e+3, 1.8163233e+2, -1152660.1, -1143317.5, -94647.35, 0.14631756, 0.0764128, -1053226.3, 106783.65, 0.001155736, 9.999787, 9.999956 
2.1349245e+3, 1.9163296e+2, -1043304.0, -996568.2, -42941.824, -0.031348307, 0.09001172, -971047.9, 90954.0, 0.000030850606, 9.999709, 10.000312 
2.1349724e+3, 2.0163305e+2, -1037330.7, -1072804.3, -32557.078, -0.17193216, 0.12296834, -1017992.44, -53993.594, 0.0, 9.999632, 9.999161 
2.1350227e+3, 2.1163122e+2, -855930.25, -956201.44, -41682.8, -0.06085223, 0.021042794, -840865.9, 25149.043, 0.0, 10.00035, 9.998911 
2.135073e+3, 2.2162959e+2, -708712.75, -867192.44, -57190.18, 0.012012353, -0.010952192, -690230.2, 77799.586, 0.0, 10.000777, 9.998674 
2.1351215e+3, 2.3162884e+2, -598886.44, -739243.25, -30030.957, -0.08393135, 0.0054546394, -592730.94, 77307.64, 0.0, 10.000786, 9.998853 
2.1351701e+3, 2.4162804e+2, -533165.5, -667545.8, -60800.223, -0.1783314, 0.058122844, -509740.1, 62306.754, 0.0, 10.000584, 9.998789 
2.1352194e+3, 2.5162667e+2, -348354.13, -493609.56, -84860.12, -0.10583822, -0.007494227, -309285.72, 164772.23, 0.0, 10.001068, 9.999058 
2.1352695e+3, 2.6162484e+2, -264087.4, -472193.84, -71743.57, -0.01859912, -0.05797871, -241751.48, 134321.77, 0.0, 10.001255, 9.998458 
2.1353203e+3, 2.7162215e+2, -138408.3, -353811.6, -46623.5, 0.03905337, -0.20258845, -128749.836, 149347.9, 0.00000000014169585, 10.001433, 9.998491 
2.1353704e+3, 2.8162062e+2, -32881.44, -292948.9, -40063.996, -0.032974947, -0.17564538, -26849.396, 153261.44, 0.000000256191, 10.0016365, 9.998162 
2.1354201e+3, 2.916212e+2, 357560.6, -12435.552, 28228.898, -0.16743645, -0.007416611, 359701.94, 441803.7, 0.0000052967753, 10.003465, 9.998522 
2.1354721e+3, 3.0161718e+2, 269346.4, -324952.1, 13115.97, -0.16634762, -0.14787613, 269635.72, 269635.72, 0.000025200057, 10.003793, 9.995913 
2.1355227e+3, 3.116142e+2, -130753.94, -332070.03, -133618.19, -0.08035692, -0.048975345, -64122.223, -64122.223, 0.00006359548, 10.000268, 9.99751 
2.1446179e+3, 1.3158238e+2, -1923824.1, -1850224.5, -34851.71, -0.08803896, 0.23803455, -1836340.4, -185845.7, 0.40760165, 9.998254, 9.999108 
2.1446714e+3, 1.415797e+2, -1648239.8, -1634706.4, 68901.02, 0.168676, 0.03253588, -1572240.5, -19718.828, 0.26811564, 9.999259, 9.999526 
2.1447214e+3, 1.5158002e+2, -1490504.0, -1381200.4, 49155.27, -0.051372632, -0.024213795, -1362346.6, 92171.37, 0.14296411, 9.999139, 10.000723 
2.1447727e+3, 1.6158074e+2, -1497841.4, -1419701.0, -3285.0356, -0.09098472, 0.019702444, -1419563.1, -63051.824, 0.057087187, 9.998801, 9.999888 
2.1448252e+3, 1.7158099e+2, -1356455.8, -1293574.8, -4157.161, 0.07872774, 0.032591205, -1293301.1, -34788.88, 0.014719365, 9.999126, 9.999887 
2.1448763e+3, 1.8158135e+2, -1211262.9, -1150270.4, -6635.427, 0.1654949, 0.087390415, -1149556.9, 10954.158, 0.0017550356, 9.9993, 10.000141 
2.1449241e+3, 1.9158217e+2, -979855.5, -932195.9, -49784.324, -0.032329187, 0.0920088, -900832.06, 161668.3, 0.00008036648, 10.00002, 10.00059 
2.1449724e+3, 2.0158249e+2, -906817.9, -999626.4, -60517.44, -0.14903468, 0.1256151, -876961.3, 87533.54, 0.000000018813253, 10.000488, 9.999251 
2.1450236e+3, 2.115809e+2, -815978.4, -941198.94, -49583.85, -0.007426176, 0.049702343, -798722.5, 67787.016, 0.0, 10.000628, 9.998888 
2.1450742e+3, 2.2157936e+2, -730609.3, -872176.6, -25271.482, 0.105443224, 0.025684528, -726233.3, 42290.77, 0.0, 10.000596, 9.998735 
2.1451226e+3, 2.315782e+2, -644167.8, -749327.06, -50782.535, -0.021160036, -0.0010474054, -623648.3, 46886.887, 0.0, 10.00043, 9.998959 
2.1451712e+3, 2.4157713e+2, -560633.6, -696418.75, -47056.242, -0.11036262, 0.022258816, -545920.56, 26624.465, 0.0, 10.00045, 9.998666 
2.145221e+3, 2.5157595e+2, -346001.3, -519062.38, -60865.97, -0.056973256, 0.0006825873, -326738.66, 147816.13, 0.0, 10.001188, 9.998832 
2.1452715e+3, 2.6157418e+2, -185984.28, -462302.2, -14762.271, 0.024141686, -0.02246099, -185197.84, 191372.28, 0.0, 10.001888, 9.998231 
2.1453223e+3, 2.715713e+2, -54577.043, -336625.2, -32623.83, 0.06264679, -0.16217741, -50852.703, 227744.4, 0.00000000016893417, 10.002116, 9.998279 
2.1453726e+3, 2.8156963e+2, -1276.3397, -313661.44, 638.8034, 0.04544582, -0.1247088, -1275.0334, 179336.67, 0.0000002738674, 10.001956, 9.997881 
2.1454231e+3, 2.9156968e+2, -33007.266, -206827.6, -33440.203, -0.06891443, 0.019265406, -26795.877, 55812.414, 0.0000047479944, 10.000814, 9.998453 
2.1454749e+3, 3.0156618e+2, -34476.45, -266971.47, -37556.81, -0.09013197, -0.15768404, -28560.145, -28560.145, 0.000021563434, 10.000712, 9.997837 
2.1455246e+3, 3.1156462e+2, 261514.55, -72936.195, -178479.56, 0.012817544, -0.11821579, 338869.0, 338869.0, 0.000054127682, 10.002574, 9.998189 
2.154619e+3, 1.3152935e+2, -1662673.6, -1476317.6, 16421.48, 0.08896366, 0.1645716, -1474881.8, 176133.28, 0.43279883, 9.998437, 10.002487 
2.1546695e+3, 1.4152843e+2, -1564611.8, -1570108.9, 31258.717, -0.045763206, -0.09670745, -1535981.0, 17036.922, 0.28823382, 9.999727, 9.99977 
2.1547207e+3, 1.5152891e+2, -1533163.1, -1497328.8, 48864.117, -0.06239101, -0.06897501, -1463200.5, -8186.203, 0.15688464, 9.999285, 9.999765 
2.1547724e+3, 1.6152951e+2, -1463033.3, -1387292.6, -13735.457, -0.041161995, 0.015582236, -1384878.6, -27868.143, 0.06501248, 9.998981, 10.00002 
2.1548235e+3, 1.715308e+2, -1306956.9, -1188006.9, 12688.489, -0.018461391, 0.06958466, -1186668.4, 72332.74, 0.018139776, 9.999117, 10.000618 
2.154874e+3, 1.8153155e+2, -1222610.6, -1191890.8, -457.5358, -0.031093746, 0.12798733, -1191883.9, -30888.207, 0.0026903055, 9.999369, 9.999827 
2.1549241e+3, 1.9153053e+2, -1040488.9, -1044871.0, -12664.166, -0.05815684, 0.016264834, -1029827.6, 33176.688, 0.00019736934, 9.999963, 9.999845 
2.1549742e+3, 2.0152968e+2, -919309.3, -990258.3, -64652.96, -0.07704456, -0.022023205, -881038.0, 83973.23, 0.0000007869328, 10.000332, 9.9993925 
2.155024e+3, 2.1152979e+2, -801969.3, -869690.4, -36779.453, -0.05697231, 0.016294867, -785837.25, 81173.03, 0.0, 10.000438, 9.999474 
2.1550734e+3, 2.2152944e+2, -778415.75, -896648.4, -42706.535, -0.05400366, 0.07279458, -764603.44, 4409.9966, 0.0, 10.000271, 9.998722 
2.1551228e+3, 2.3152731e+2, -693979.4, -803619.1, -43739.06, -0.05962549, -0.030937992, -678668.5, -7635.658, 0.0, 10.000214, 9.998689 
2.1551724e+3, 2.4152559e+2, -615519.2, -722830.0, -42710.676, -0.056627452, -0.057556562, -600595.4, -27547.084, 0.0, 10.000089, 9.9986515 
2.1552226e+3, 2.5152513e+2, -369502.88, -521133.06, -17137.676, -0.018214226, -0.014726974, -367590.03, 107461.78, 0.0, 10.000982, 9.998918 
2.1552727e+3, 2.6152423e+2, -256048.16, -519159.97, -7868.4185, -0.046245825, 0.047782008, -255813.06, 121246.91, 0.0, 10.001514, 9.998016 
2.1553227e+3, 2.7152234e+2, -112854.35, -403802.1, -9020.27, -0.10489632, 0.03565966, -112574.97, 166503.77, 0.0, 10.001875, 9.997938 
2.1553735e+3, 2.8152058e+2, -135856.8, -466328.88, -42828.633, -0.089113325, 0.1142398, -130396.49, 50699.2, 0.000000100631844, 10.001453, 9.997056 
2.1554255e+3, 2.915173e+2, -164582.33, -399192.8, -40722.09, 0.06181401, 0.029251015, -157715.06, -74588.92, 0.0000031808167, 10.00047, 9.997296 
2.1554764e+3, 3.0151296e+2, 23426.348, 73304.32, -11954.532, -0.04366373, -0.2579934, 76021.51, 76021.51, 0.000016664693, 9.999835, 10.000563 
2.1555269e+3, 3.1151783e+2, 271482.9, 183003.02, 60182.664, -0.12067486, -0.01315001, 301936.5, 301936.5, 0.000045618737, 10.001589, 10.000413 
2.164619e+3, 1.3147613e+2, -1519879.3, -1414824.4, 85166.48, 0.21151854, -0.029208085, -1367289.5, 284245.8, 0.45757636, 10.000209, 10.002567 
2.164668e+3, 1.414773e+2, -1611570.8, -1571068.0, -62090.65, -0.10802256, -0.059153758, -1526009.6, 27508.627, 0.3088363, 9.999305, 10.000012 
2.16472e+3, 1.5147732e+2, -1549750.8, -1516488.6, -36692.605, -0.040460125, -0.08877935, -1492834.0, -37315.98, 0.17204043, 9.999223, 9.999654 
2.1647722e+3, 1.6147728e+2, -1503852.9, -1408016.6, -33499.25, 0.07231279, -0.053296316, -1397468.1, -39948.617, 0.07433442, 9.998669, 10.000039 
2.1648228e+3, 1.7147902e+2, -1253191.9, -1137244.0, -38630.547, 0.0056132292, 0.022582714, -1125552.3, 133952.92, 0.022589553, 9.999335, 10.000895 
2.164873e+3, 1.8148027e+2, -1168209.8, -1144405.0, -43394.42, -0.04587738, 0.10628317, -1111310.3, 50184.844, 0.00413868, 9.999683, 9.999997 
2.1649238e+3, 1.9147916e+2, -1078842.1, -1064931.1, -37359.785, -0.035930183, -0.013727388, -1033884.94, 29620.492, 0.00045452762, 9.999721, 9.999831 
2.1649744e+3, 2.0147824e+2, -1008499.06, -1025832.9, -32240.49, -0.008431736, -0.05951122, -983780.9, -18266.885, 0.000007502901, 9.999656, 9.999482 
2.165024e+3, 2.1147884e+2, -836944.8, -869645.06, -56886.848, -0.05277256, 0.016864605, -794105.06, 73404.195, 0.0, 10.000117, 9.999634 
2.1650735e+3, 2.2147895e+2, -736260.3, -861054.5, -59054.78, -0.071610205, 0.10733364, -712745.44, 56762.996, 0.0, 10.000514, 9.998838 
2.1651235e+3, 2.3147663e+2, -574973.94, -742846.3, -67667.4, -0.02930387, -0.024428125, -551094.7, 120433.86, 0.0, 10.00102, 9.9987135 
2.1651739e+3, 2.4147451e+2, -426650.75, -644055.9, -26429.98, 0.034421276, -0.0873352, -423483.78, 150063.25, 0.0, 10.001422, 9.998553 
2.1652241e+3, 2.5147384e+2, -309588.0, -493711.06, -39147.082, 0.020407028, -0.051470812, -301610.44, 173942.64, 0.0, 10.001436, 9.998866 
2.1652742e+3, 2.6147324e+2, -268161.28, -537647.44, -18970.264, -0.027088057, 0.04440614, -266832.44, 110726.6, 0.0, 10.00147, 9.997917 
2.1653247e+3, 2.7147156e+2, -151567.73, -433471.16, -35139.816, -0.07161549, 0.071564786, -147253.5, 132321.84, 0.0, 10.001658, 9.997836 
2.1653758e+3, 2.8146917e+2, -72068.93, -420256.03, -26794.734, 0.00014583516, 0.082266815, -70019.01, 111579.25, 0.0000000029805467, 10.001801, 9.997214 
2.165427e+3, 2.914648e+2, 31482.402, -271023.1, 9227.342, 0.12686771, -0.12242692, 31763.602, 115402.25, 0.000001345268, 10.001685, 9.997584 
2.1654777e+3, 3.014631e+2, 294464.8, 231464.72, 111754.305, 0.060715053, -0.19260201, 379073.66, 379073.66, 0.000010778314, 10.001566, 10.000819 
2.165529e+3, 3.114662e+2, 186156.06, 62869.555, -135505.42, -0.009692712, -0.10500387, 273380.56, 273380.56, 0.00003608632, 10.001373, 9.999679 
2.1746194e+3, 1.3142438e+2, -1664529.6, -1745237.6, -74901.25, 0.14983147, -0.16201408, -1619803.4, 32236.023, 0.48078975, 10.000664, 9.998613 
2.174667e+3, 1.4142714e+2, -1598297.9, -1616385.4, -54543.89, -0.22734578, 0.1800523, -1552053.0, 1962.0856, 0.32934, 9.999637, 9.999482 
2.1747187e+3, 1.5142538e+2, -1509641.6, -1450683.4, -41106.86, -0.11630844, -0.058025647, -1429578.0, 26450.363, 0.18832743, 9.999281, 10.000106 
2.174771e+3, 1.6142377e+2, -1483040.1, -1411729.5, -37957.547, 0.02597586, -0.19557181, -1395307.3, -37266.457, 0.0852701, 9.998859, 9.999921 
2.1748225e+3, 1.7142567e+2, -1244273.6, -1138450.6, -1068.8392, 0.008464858, -0.10323417, -1138439.8, 121584.74, 0.028395085, 9.999412, 10.000849 
2.174873e+3, 1.8142746e+2, -1130513.5, -1085532.9, -50979.57, -0.053841464, 0.022530386, -1052303.1, 109706.125, 0.006367479, 9.999768, 10.000357 
2.1749231e+3, 1.9142781e+2, -1046177.5, -982902.2, -30710.555, -0.0999034, -0.007967429, -970448.1, 93557.875, 0.0009868387, 9.999662, 10.000415 
2.1749732e+3, 2.0142792e+2, -1031558.5, -1036308.25, -34564.246, -0.14253989, 0.008955253, -999287.6, -33282.117, 0.000047582707, 9.999486, 9.999497 
2.1750234e+3, 2.1142803e+2, -885028.3, -917934.2, -28526.326, -0.124548145, 0.05309775, -868550.25, -543.0266, 0.00000000032497088, 9.999892, 9.999411 
2.1750738e+3, 2.2142781e+2, -786617.25, -874636.44, -51877.324, -0.11393767, 0.122347005, -762596.7, 7413.956, 0.0, 10.00013, 9.998928 
2.1751243e+3, 2.3142576e+2, -595739.75, -723050.44, -34675.223, -0.0618512, -0.0046046632, -586908.0, 85118.4, 0.0, 10.000757, 9.99897 
2.1751748e+3, 2.4142346e+2, -508711.72, -705184.56, -32918.145, -0.03572118, -0.09730026, -503343.13, 70702.234, 0.0, 10.000967, 9.998343 
2.1752249e+3, 2.5142187e+2, -374915.25, -568907.1, -26167.225, -0.06671029, -0.12304014, -371447.6, 104613.44, 0.0, 10.001177, 9.998471 
2.1752751e+3, 2.6142102e+2, -337138.22, -574162.4, -26643.973, -0.102756776, -0.025558015, -334180.06, 43889.453, 0.0, 10.001037, 9.997864 
2.1753271e+3, 2.714192e+2, -189071.63, -441663.44, -6656.423, 0.0023898736, -0.022579964, -188896.34, 91189.266, 0.0, 10.001377, 9.997908 
2.1753784e+3, 2.8141546e+2, -86254.11, -328919.72, -40892.934, 0.060809594, -0.17602244, -79548.32, 102571.516, 0.0, 10.001307, 9.998068 
2.175427e+3, 2.9141167e+2, 71566.375, -118994.0, 20044.617, -0.06294217, -0.4584195, 73651.99, 157803.84, 0.00000028754212, 10.001393, 9.998763 
2.1754785e+3, 3.014147e+2, 27034.191, -153339.42, 72890.08, -0.07040763, -0.03689894, 52806.96, 52806.96, 0.0000061263827, 10.0008955, 9.998462 
2.1755323e+3, 3.1141293e+2, -177584.64, -463851.2, -6256.472, 0.10046156, -0.11246883, -177447.97, -177447.97, 0.000027574106, 10.00042, 9.996502 
2.1846674e+3, 1.413768e+2, -1644658.8, -1699375.5, 124758.43, -0.0902428, 0.21404704, -1544294.3, 10213.275, 0.34983045, 9.999519, 9.998969 
2.184719e+3, 1.513727e+2, -1276665.6, -1405716.3, -64975.793, -0.10383072, -0.14600468, -1249619.3, 206924.63, 0.2059314, 10.001513, 9.999421 
2.1847703e+3, 1.6137208e+2, -1422851.3, -1394670.5, -71696.12, 0.06633603, -0.14629665, -1335693.4, 22853.576, 0.09816949, 9.99935, 9.999805 
2.1848215e+3, 1.7137344e+2, -1378715.6, -1208498.5, -46868.418, 0.05026508, -0.093496926, -1196446.8, 64088.85, 0.036017943, 9.998576, 10.000739 
2.1848719e+3, 1.8137464e+2, -1360232.6, -1190277.4, -75587.57, -0.051207118, -0.023710033, -1161524.4, 1001.7393, 0.009796201, 9.998119, 10.000446 
2.1849224e+3, 1.9137545e+2, -1128964.4, -995625.06, -94207.766, -0.080679394, -0.032464378, -946882.7, 117635.234, 0.0020521113, 9.998941, 10.00068 
2.1849732e+3, 2.0137607e+2, -1007350.3, -1000192.8, -76367.51, -0.059674144, 0.011208391, -927320.25, 39191.668, 0.00020967671, 9.999574, 9.999697 
2.1850239e+3, 2.1137598e+2, -851070.2, -890491.7, -80014.49, -0.050835032, 0.02617868, -788374.44, 80141.13, 0.00000086887735, 10.00009, 9.999504 
2.1850747e+3, 2.2137567e+2, -729966.7, -814950.3, -62221.14, -0.03338472, 0.07282196, -697112.5, 73407.37, 0.0, 10.000353, 9.999243 
2.185125e+3, 2.3137459e+2, -638741.94, -682165.56, -55513.113, -0.01629665, -0.0027009088, -600845.8, 71679.95, 0.0, 10.000208, 9.999513 
2.1851756e+3, 2.4137297e+2, -621349.1, -752041.44, -7128.9585, 0.0051074307, -0.066986285, -620961.4, -46423.934, 0.0, 10.000143, 9.998428 
2.1852258e+3, 2.513706e+2, -481420.97, -645603.44, -13662.526, -0.028516429, -0.15433371, -480291.8, -3730.8164, 0.0, 10.000528, 9.99827 
2.1852766e+3, 2.6136932e+2, -346372.1, -546658.8, 20182.986, -0.018351937, -0.09857157, -344358.47, 34215.168, 0.0, 10.000806, 9.99818 
2.1853289e+3, 2.7136835e+2, -207785.25, -388698.16, 40362.125, 0.074469335, -0.05417119, -199188.83, 81392.25, 0.0, 10.000968, 9.998481 
2.1853802e+3, 2.8136542e+2, -65194.285, -292995.13, 45434.914, 0.11644753, -0.18129876, -56466.66, 126140.74, 0.0, 10.001302, 9.99834 
2.1854284e+3, 2.9136145e+2, 162914.33, -99497.42, -18208.107, -0.050939444, -0.47268438, 164171.72, 248815.66, 0.000000027227998, 10.002093, 9.998581 
2.1854809e+3, 3.0136472e+2, 220471.1, -199022.44, 14759.895, 0.026691005, 0.04086864, 220989.78, 220989.78, 0.0000044959556, 10.002735, 9.997312 
2.1855332e+3, 3.113618e+2, 115707.55, -199068.0, -64908.883, 0.12404381, -0.006186434, 128566.87, 128566.87, 0.000025056477, 10.00177, 9.997745 
2.1946685e+3, 1.4132413e+2, -1597578.4, -1566012.4, 254046.45, -0.053085145, 0.015557961, -1327259.1, 227756.55, 0.371045, 9.999649, 10.000277 
2.1947202e+3, 1.5131842e+2, -1344781.3, -1598115.9, -126998.48, -0.17588893, -0.37710014, -1292079.6, 164993.4, 0.22535217, 10.001712, 9.997966 
2.1947695e+3, 1.613223e+2, -1408393.5, -1392934.9, -149573.4, -0.0040011434, 0.124617346, -1250891.1, 108146.1, 0.113554515, 9.999507, 9.999779 
2.19482e+3, 1.7132212e+2, -1407726.5, -1261072.8, -65159.082, 0.0048212674, 0.059815392, -1236305.1, 24735.76, 0.046104282, 9.998554, 10.000381 
2.1948686e+3, 1.8132132e+2, -1354713.6, -1189676.4, -71720.83, -0.22597253, -0.04715495, -1162864.3, 185.77986, 0.015073848, 9.998163, 10.000433 
2.1949214e+3, 1.9132207e+2, -1128695.3, -982625.94, -54260.563, -0.111283965, -0.06855768, -964675.6, 100365.26, 0.004138987, 9.99889, 10.000797 
2.1949741e+3, 2.0132276e+2, -1014448.8, -976645.2, -71548.96, 0.039066784, -0.034276463, -921543.44, 45489.105, 0.00072646124, 9.9994135, 9.999933 
2.195025e+3, 2.1132252e+2, -865285.1, -860808.1, -54174.613, 0.022694746, -0.06660428, -808825.75, 60210.47, 0.000022642807, 9.999841, 9.99982 
2.1950755e+3, 2.2132242e+2, -748917.25, -762221.8, -73616.58, -0.022672571, -0.039742034, -681653.0, 89384.35, 0.000000000011542125, 9.999955, 9.999795 
2.1951252e+3, 2.31323e+2, -617622.2, -589829.7, -51606.652, -0.029833557, -0.023666201, -550281.1, 122746.39, 0.0, 9.999995, 10.000248 
2.1951753e+3, 2.4132292e+2, -668104.56, -745244.5, -15676.145, -0.051722027, 0.007944201, -665040.6, -90016.055, 0.0, 9.999716, 9.9986725 
2.1952266e+3, 2.5131992e+2, -522118.03, -673946.7, 12143.262, -0.013812746, -0.14457601, -521152.94, -44098.684, 0.0, 10.00029, 9.998188 
2.1952781e+3, 2.613178e+2, -388703.72, -516709.03, 11200.972, 0.0090758465, -0.1808739, -387730.97, -8655.577, 0.0, 10.000324, 9.998601 
2.195329e+3, 2.7131835e+2, -197231.47, -288123.4, 58925.07, -0.00034769883, -0.061495427, -168263.06, 112804.94, 0.0, 10.000654, 9.999304 
2.1953802e+3, 2.813179e+2, -165501.75, -383975.34, 46266.7, -0.045717724, 0.0070896554, -156107.66, 26964.375, 0.0, 10.000824, 9.997933 
2.1954311e+3, 2.9131386e+2, 7395.449, -332465.8, 36074.91, -0.015641423, -0.18090978, 11182.458, 96298.26, 0.000000020729713, 10.001714, 9.997159 
2.1954836e+3, 3.013126e+2, 66804.46, -315205.06, -69.415596, -0.010094435, 0.022336278, 66804.48, 66804.48, 0.0000055230016, 10.001918, 9.996872 
2.195532e+3, 3.1131062e+2, 160471.38, 174813.4, -86501.664, -0.2328449, -0.030148108, 254440.78, 254440.78, 0.000029811183, 10.00067, 10.000789 
2.2046672e+3, 1.4126998e+2, -1662685.9, -1482989.6, 211452.47, -0.035442594, -0.109349295, -1343088.3, 212455.11, 0.39437363, 9.998442, 10.001589 
2.204721e+3, 1.5126568e+2, -1814346.1, -1771974.5, -190566.56, -0.06763941, -0.37126037, -1601419.8, -143831.39, 0.24751917, 9.997953, 9.998532 
2.2047688e+3, 1.6127011e+2, -1259243.5, -1311582.3, -141718.58, -0.029950626, 0.13371116, -1141298.4, 218251.11, 0.13222682, 10.000557, 9.999896 
2.204819e+3, 1.7126957e+2, -1193545.0, -1217216.5, -93840.14, 0.005929154, 0.0668086, -1110797.1, 150759.66, 0.059555795, 10.000243, 9.999929 
2.2048686e+3, 1.8126847e+2, -1169613.1, -1113401.0, -44548.777, -0.086111024, -0.035031896, -1088833.1, 74735.39, 0.023171267, 9.999481, 10.000341 
2.2049214e+3, 1.9126913e+2, -935820.44, -890275.8, -38808.695, -0.04376715, -0.06389631, -868051.56, 197507.95, 0.008108057, 10.0002165, 10.000823 
2.2049741e+3, 2.012698e+2, -845571.7, -892579.0, -70816.47, 0.05471078, -0.03256261, -794460.4, 173090.48, 0.0021629941, 10.000555, 9.999971 
2.2050251e+3, 2.1126938e+2, -875709.94, -862969.56, -111480.19, 0.088771924, -0.08513026, -757677.7, 111877.87, 0.00023583506, 9.999735, 9.9998665 
2.2050759e+3, 2.2126904e+2, -854329.1, -782425.4, -110461.74, 0.106511064, -0.09359009, -702212.1, 69346.58, 0.0000019906881, 9.999099, 10.000074 
2.2051255e+3, 2.3127007e+2, -598980.25, -544476.1, -138185.95, 0.025251215, -0.061412454, -430880.66, 242664.3, 0.0, 9.999954, 10.000594 
2.2051756e+3, 2.4127051e+2, -507230.97, -625872.56, -103139.42, -0.015943231, -0.0095115, -447569.84, 127967.8, 0.0, 10.000626, 9.999061 
2.205227e+3, 2.512682e+2, -495766.8, -599828.9, -82180.836, 0.017278787, -0.13663712, -450530.6, 27029.129, 0.0, 10.000259, 9.99869 
2.2052783e+3, 2.612663e+2, -430152.63, -523361.75, -31414.367, 0.055364426, -0.18590301, -420553.56, -40975.375, 0.0, 9.999967, 9.998734 
2.2053298e+3, 2.7126646e+2, -212106.27, -313670.2, -52128.07, 0.020694861, -0.10391566, -190113.63, 91463.33, 0.0, 10.000592, 9.999177 
2.2053814e+3, 2.812666e+2, -114173.59, -333750.13, -67671.92, 0.022086525, 0.026559202, -94993.055, 88583.17, 0.0, 10.001066, 9.998159 
2.2054331e+3, 2.912637e+2, -51086.24, -316228.44, -41977.77, 0.048504554, -0.060760245, -44598.973, 41010.098, 0.00000007580395, 10.001133, 9.997547 
2.2054847e+3, 3.0126113e+2, -25736.105, -351538.56, 68484.13, -0.021125665, -0.028491667, -11926.024, -11926.024, 0.0000083740215, 10.001198, 9.996998 
2.2055349e+3, 3.1125978e+2, 391770.06, 350912.84, -186361.64, -0.040524792, 0.004381418, 558819.44, 558819.44, 0.000042885644, 10.001919, 10.001403 
2.2146668e+3, 1.4121906e+2, -1533943.8, -1327681.0, 14309.215, -0.017547851, 0.3333399, -1326693.1, 229351.95, 0.4221777, 9.998384, 10.003178 
2.2147214e+3, 1.5121442e+2, -1672006.4, -1448164.3, -30054.422, 0.15447311, -0.11501976, -1444199.3, 13891.96, 0.27423543, 9.997822, 10.00086 
2.2147678e+3, 1.6121519e+2, -1207748.8, -1246377.6, -115799.72, -0.24742484, -0.122463, -1109663.8, 250423.06, 0.15564767, 10.000778, 10.000281 
2.2148186e+3, 1.7121568e+2, -1211795.4, -1263030.8, -115197.91, -0.101010814, -0.07387341, -1119401.1, 142682.84, 0.07778218, 10.000298, 9.999584 
2.2148713e+3, 1.8121612e+2, -1180240.5, -1153509.4, -55533.637, 0.18911274, 0.015508262, -1109755.6, 54325.24, 0.035576556, 9.999558, 10.000031 
2.2149222e+3, 1.9121663e+2, -962636.2, -917237.6, 2101.2307, -0.0025108366, -0.011943961, -917140.6, 148933.52, 0.0154146915, 10.000101, 10.000694 
2.2149722e+3, 2.0121706e+2, -883229.44, -932391.5, -89558.016, -0.20357184, 0.0075204517, -814940.3, 153128.05, 0.005714695, 10.000385, 9.999782 
2.2150242e+3, 2.1121645e+2, -918667.3, -907250.3, -134643.39, -0.00048888504, -0.04199081, -778194.44, 91880.41, 0.0013616167, 9.999538, 9.999656 
2.2150756e+3, 2.2121575e+2, -926553.0, -839595.75, -114434.29, 0.14360029, -0.06320482, -760658.7, 11422.927, 0.00013056793, 9.998704, 9.999871 
2.2151256e+3, 2.312157e+2, -645011.25, -581045.44, -85940.234, 0.013551465, -0.12821609, -521329.78, 152749.83, 0.0000045921656, 9.999694, 10.000471 
2.2151755e+3, 2.4121572e+2, -551782.4, -595590.3, -118671.03, -0.09823633, -0.120385565, -453010.75, 123066.11, 0.000000030624218, 10.000124, 9.999497 
2.2152266e+3, 2.5121528e+2, -477951.03, -493881.47, -87724.72, -0.06286876, -0.14014171, -397830.66, 80248.33, 0.0, 9.99998, 9.999542 
2.2152774e+3, 2.612144e+2, -506888.03, -581203.2, -40126.14, -0.061241914, -0.13624124, -489357.47, -109271.04, 0.0, 9.999556, 9.998527 
2.21533e+3, 2.7121273e+2, -311900.72, -450783.5, -12380.689, -0.013384937, -0.1725113, -310805.66, -28700.086, 0.0, 10.000309, 9.998362 
2.215383e+3, 2.812119e+2, -172665.11, -319861.8, -72527.07, 0.049326897, -0.09234589, -142934.4, 41181.746, 0.0, 10.000513, 9.998506 
2.2154336e+3, 2.9121095e+2, -1053.4888, -126939.33, -19924.84, -0.02051571, -0.10975202, 2024.8788, 88150.1, 0.00000027397763, 10.000787, 9.9990015 
2.2154836e+3, 3.0120984e+2, -66869.24, -280230.97, 59704.156, -0.2990318, -0.08176631, -51298.754, -51298.754, 0.000015050563, 10.000574, 9.997759 
2.2155383e+3, 3.1120777e+2, 62850.234, -56889.44, 13113.638, 0.044593588, -0.11556212, 64269.586, 64269.586, 0.00007034586, 10.000794, 9.999116 
2.2246633e+3, 1.4115362e+2, -1824209.1, -1368299.6, -362612.06, -0.11023491, -0.50064576, -1167942.6, 388750.06, 0.45833316, 9.9961195, 10.004506 
2.22472e+3, 1.5116358e+2, -1467959.4, -1292790.0, 111161.38, 0.20703664, 0.055089124, -1238854.6, 219737.4, 0.30885017, 9.99884, 10.00191 
2.2247685e+3, 1.6116327e+2, -1246991.6, -1291847.0, -62067.824, -0.21907556, -0.09370418, -1203423.8, 157171.88, 0.18666483, 10.000597, 10.000023 
2.2248189e+3, 1.7116332e+2, -1254814.4, -1284189.5, -147742.72, -0.07082418, -0.08564678, -1121031.0, 141565.69, 0.103338934, 10.000023, 9.99958 
2.2248715e+3, 1.8116376e+2, -1283198.0, -1219088.1, -14437.25, 0.32186994, 0.007365935, -1215987.0, -51393.59, 0.054786276, 9.9989, 9.999899 
2.2249222e+3, 1.9116402e+2, -1061411.0, -976225.25, 53209.25, 0.04184194, -0.033667646, -950661.1, 115928.08, 0.028543482, 9.999437, 10.000607 
2.224972e+3, 2.0116423e+2, -954306.1, -960733.1, -27240.682, -0.22252181, -0.038253725, -930090.06, 38495.633, 0.013685946, 9.999872, 9.999831 
2.2250237e+3, 2.11164e+2, -856964.06, -869325.44, -98917.21, 0.0005440013, -0.05537432, -764034.6, 106553.445, 0.005262215, 9.999941, 9.999726 
2.2250752e+3, 2.2116356e+2, -758738.1, -792114.7, -16012.7295, 0.20363086, -0.047583662, -752298.4, 20294.04, 0.001420654, 9.999965, 9.999601 
2.2251253e+3, 2.3116305e+2, -674821.2, -641424.75, -16065.666, 0.03552845, -0.11982248, -634951.06, 39645.39, 0.0002619265, 9.9996605, 10.000083 
2.225175e+3, 2.4116266e+2, -641383.44, -631533.0, -46553.473, -0.09087915, -0.12524673, -589644.94, -13046.073, 0.000035642544, 9.999465, 9.999578 
2.2252268e+3, 2.5116274e+2, -377813.7, -402881.2, -65709.85, -0.024867693, -0.12952441, -323452.9, 155142.47, 0.0000011567587, 10.00044, 9.999972 
2.2252786e+3, 2.611623e+2, -267978.25, -462303.8, -16431.25, 0.03879273, -0.10924233, -266598.7, 113998.984, 0.0, 10.001165, 9.998577 
2.225331e+3, 2.7116057e+2, -205111.08, -411008.25, 6449.1816, 0.02809244, -0.13224474, -204909.28, 77708.734, 0.0, 10.001124, 9.998239 
2.2253835e+3, 2.8115964e+2, -122714.734, -281202.16, -4553.0044, 0.066541605, -0.06072953, -122584.05, 62046.07, 0.0, 10.000772, 9.998666 
2.2254348e+3, 2.9115847e+2, 46604.89, -62074.49, -40986.85, 0.017499551, -0.11298329, 60329.316, 146969.45, 0.00000073017384, 10.000941, 9.999372 
2.225486e+3, 3.0115846e+2, 80073.55, -153400.48, -5669.1426, -0.11680464, -0.04416222, 80211.125, 80211.125, 0.00002755439, 10.001316, 9.998297 
2.2255395e+3, 3.1115443e+2, 150315.02, -7027.443, -135903.45, 0.082172684, -0.25502622, 228675.34, 228675.34, 0.000118261974, 10.00131, 9.999252 
2.2347155e+3, 1.511139e+2, -1544301.4, -1356710.8, 136789.89, -0.1428378, 0.23101158, -1284647.5, 174436.38, 0.35698506, 9.998558, 10.001531 
2.234771e+3, 1.6111374e+2, -1314998.8, -1440917.5, -59534.863, -0.124709584, 0.16845585, -1291307.8, 69774.28, 0.23053116, 10.0006075, 9.998907 
2.2348195e+3, 1.7111227e+2, -1254658.1, -1257002.5, -175866.81, -0.026567109, 0.020436395, -1079959.6, 183137.27, 0.14104874, 9.999928, 9.999862 
2.2348687e+3, 1.8111129e+2, -1284460.8, -1212660.3, -32915.39, 0.08933459, -0.06301751, -1199854.8, -34747.848, 0.08532412, 9.998865, 9.999958 
2.2349207e+3, 1.9111127e+2, -1082139.5, -991113.0, 84363.18, -0.050461143, -0.12755488, -940769.06, 126336.3, 0.05187056, 9.999317, 10.000582 
2.2349724e+3, 2.0111144e+2, -973651.7, -948406.25, -32356.936, -0.19802067, -0.13913225, -926297.06, 42804.773, 0.030293982, 9.999649, 10.000027 
2.2350234e+3, 2.111118e+2, -863547.25, -832432.5, -88440.82, -0.03687651, -0.13084817, -758191.1, 112906.51, 0.015773455, 9.99972, 10.000092 
2.2350745e+3, 2.2111218e+2, -842821.5, -863703.75, -33384.234, 0.095678, -0.0561203, -818283.7, -45189.926, 0.0069356123, 9.999538, 9.999304 
2.235124e+3, 2.3111196e+2, -749449.8, -744905.75, -15018.927, -0.05889467, -0.05052663, -731988.0, -56890.77, 0.002541045, 9.999438, 9.999472 
2.2351736e+3, 2.4111126e+2, -736239.2, -719319.9, -45311.582, -0.20900537, -0.02637609, -681685.0, -104580.54, 0.00075579167, 9.999014, 9.999183 
2.2352275e+3, 2.5111052e+2, -423205.06, -424163.88, -13551.489, -0.022509629, -0.11189866, -410124.5, 68984.38, 0.00014769337, 10.000127, 9.9999695 
2.2352807e+3, 2.6110998e+2, -357726.63, -507280.78, -29423.219, 0.11526974, -0.10084933, -352146.16, 28966.066, 0.000007045108, 10.0005865, 9.998529 
2.235332e+3, 2.7110958e+2, -240631.33, -409695.9, 11708.67, -0.0070890347, -0.0065889745, -239824.3, 43293.87, 0.00000000065814787, 10.000808, 9.998387 
2.2353825e+3, 2.8110898e+2, -221617.39, -345000.16, -38669.19, -0.14044972, 0.08117133, -210499.9, -25373.457, 0.0, 10.000212, 9.998473 
2.2354352e+3, 2.9110616e+2, -84594.45, -209657.34, -12316.704, -0.04481823, -0.09717432, -83392.99, 3762.1045, 0.0000012574419, 10.000443, 9.998573 
2.2354905e+3, 3.0110615e+2, -98240.45, -305637.34, -23558.256, 0.14328821, 0.069870755, -95598.125, -95598.125, 0.000044073433, 10.00044, 9.997645 
2.2355396e+3, 3.111025e+2, 73253.164, 137588.38, -44096.89, -0.079171665, -0.11809207, 160003.66, 160003.66, 0.00018419352, 10.000104, 10.0007925 
2.2447161e+3, 1.5105627e+2, -1333364.6, -1224115.6, -50227.23, -0.058725785, -0.13501999, -1204533.6, 255118.83, 0.42759266, 10.000044, 10.002291 
2.2447714e+3, 1.6106091e+2, -1684277.5, -1454764.0, -29583.977, 0.07283923, 0.09577904, -1451012.0, -89413.125, 0.29616648, 9.997212, 10.000441 
2.2448196e+3, 1.710605e+2, -1305452.8, -1259820.6, -128063.33, 0.04825389, 0.006523112, -1152556.8, 111045.67, 0.19952731, 9.999455, 10.000084 
2.2448681e+3, 1.810596e+2, -990211.2, -1065685.5, -2765.2292, 0.07215033, -0.08525134, -990110.06, 175501.33, 0.13536815, 10.001039, 10.00002 
2.2449204e+3, 1.9106011e+2, -1049341.0, -989506.56, 60445.867, 0.004962923, -0.09466501, -951979.44, 115626.71, 0.09319166, 9.999583, 10.0005045 
2.2449726e+3, 2.0106073e+2, -1167722.9, -1051737.6, -3054.3499, -0.03862991, -0.05239755, -1051657.3, -82057.95, 0.06306426, 9.9983, 9.999997 
2.245024e+3, 2.1106067e+2, -845894.06, -816526.94, -78787.375, 0.051888626, -0.083995044, -751066.5, 120531.09, 0.0400799, 9.999785, 10.000205 
2.2450747e+3, 2.2106044e+2, -622025.7, -792263.7, -42695.043, 0.106150135, -0.06434976, -611918.06, 161680.52, 0.023131557, 10.001204, 9.999014 
2.245124e+3, 2.3105991e+2, -630126.5, -747447.8, -86788.49, -0.041221693, -0.04064625, -584033.56, 91573.06, 0.011994159, 10.0005245, 9.998938 
2.2451739e+3, 2.4105902e+2, -609986.5, -695624.7, -58530.082, -0.12085904, 0.015467044, -580284.94, -2667.6887, 0.0054928027, 9.999977, 9.998909 
2.2452278e+3, 2.510582e+2, -396268.06, -410000.22, -30666.07, 0.024408862, -0.06809291, -371708.8, 107912.85, 0.002050329, 10.000289, 10.000004 
2.245281e+3, 2.6105744e+2, -403651.0, -536153.8, -37840.79, 0.1521378, -0.07014093, -393605.78, -11979.786, 0.0004876709, 10.000282, 9.998491 
2.2453327e+3, 2.710564e+2, -240671.03, -391711.75, -21517.523, 0.033184104, -0.043001108, -237665.4, 45970.53, 0.000047167257, 10.000728, 9.998561 
2.2453836e+3, 2.8105548e+2, -125580.31, -279817.88, -54834.934, -0.07245219, -0.015567991, -108072.586, 77573.516, 0.00000034188096, 10.000763, 9.998669 
2.245436e+3, 2.910532e+2, 72255.04, -153389.81, -33735.082, -0.049293753, -0.120410375, 77190.66, 164861.94, 0.0000013302117, 10.001553, 9.998455 
2.2454914e+3, 3.0105314e+2, 42847.97, -293652.9, 24146.697, 0.19399425, 0.057401385, 44571.86, 44571.86, 0.0000584347, 10.001582, 9.997191 
2.2455424e+3, 3.110496e+2, 185712.25, 281583.53, -153819.67, 0.19863296, -0.033277992, 394763.75, 394763.75, 0.00025945, 10.000374, 10.001664 
2.2547694e+3, 1.6100545e+2, -1536137.0, -1138125.8, -40847.406, 0.031449318, -0.22829455, -1133976.9, 228163.02, 0.39765337, 9.996548, 10.00393 
2.2548193e+3, 1.710077e+2, -1300187.9, -1243599.8, -41968.266, 0.0012795471, -0.14769372, -1221278.8, 42837.582, 0.29298013, 9.999367, 10.000202 
2.2548701e+3, 1.8100837e+2, -1052322.9, -1121113.0, -40362.344, 0.060061198, -0.082729876, -1033688.4, 132421.6, 0.21888196, 10.000787, 9.999721 
2.2549209e+3, 1.9101004e+2, -1102721.8, -1039345.25, -4995.8657, 0.059977975, 0.036856554, -1038953.9, 29142.523, 0.16615056, 9.999316, 10.00025 
2.2549722e+3, 2.0101176e+2, -1242554.0, -1125682.3, -3862.063, 0.03273053, 0.20413385, -1125554.8, -155473.45, 0.12546477, 9.997962, 9.999629 
2.2550242e+3, 2.1101041e+2, -892477.56, -859417.8, -2015.3582, 0.09424351, 0.056911044, -859295.44, 12794.485, 0.0914258, 9.9995575, 9.999985 
2.2550751e+3, 2.2100835e+2, -733286.9, -918377.56, -44056.15, 0.022726974, -0.070679955, -723335.5, 50770.977, 0.062582165, 10.000749, 9.998366 
2.2551247e+3, 2.3100677e+2, -713908.9, -864881.44, -108326.77, -0.035271864, -0.09064977, -657361.56, 18764.188, 0.039919913, 10.000263, 9.99826 
2.2551748e+3, 2.4100575e+2, -739629.56, -789895.5, -81522.28, -0.0520264, 0.011141197, -679453.94, -101315.39, 0.023601582, 9.999259, 9.99859 
2.2552277e+3, 2.5100574e+2, -443334.53, -419986.72, -8011.9927, -0.03585349, -0.005704897, -417501.8, 62632.082, 0.012405956, 9.99994, 10.000089 
2.2552796e+3, 2.6100454e+2, -505743.72, -614942.8, -60384.684, -0.05003352, -0.026947688, -478934.28, -96793.71, 0.005154125, 9.999745, 9.998194 
2.255333e+3, 2.7100122e+2, -302946.0, -401664.22, 5146.923, -0.029820666, -0.25382566, -302678.38, -18507.791, 0.0013586987, 10.00024, 9.998711 
2.255385e+3, 2.809992e+2, -253951.25, -342762.28, -71359.8, -0.021591112, -0.34063035, -214308.75, -28119.67, 0.00015517221, 9.999938, 9.99861 
2.2554365e+3, 2.9099983e+2, 9970.153, -145435.17, 17490.467, -0.15760228, -0.15912431, 11914.338, 100100.64, 0.0000026982873, 10.001038, 9.998717 
2.2554891e+3, 3.0099967e+2, -105233.61, -421694.13, -41592.953, -0.26708505, -0.018695526, -99858.28, -99858.28, 0.000065484004, 10.000878, 9.996623 
2.2555442e+3, 3.109929e+2, 13107.16, 177486.3, 17688.645, 0.2587639, -0.31440723, 179368.22, 179368.22, 0.00034262822, 9.999349, 10.001429 
2.264812e+3, 1.7095408e+2, -1477445.3, -1186535.1, -138700.6, -0.5158098, -0.07363721, -1131005.0, 133639.02, 0.44342524, 9.996569, 10.002659 
2.264872e+3, 1.8095787e+2, -1110893.1, -1228547.8, 10235.366, 0.19373807, -0.08762746, -1110009.4, 56594.594, 0.3585124, 10.000572, 9.999045 
2.264921e+3, 1.9095701e+2, -1138578.1, -1243150.3, -155334.92, 0.13989283, -0.020444019, -1026965.56, 41649.645, 0.29413474, 9.999979, 9.998472 
2.2649702e+3, 2.0095596e+2, -921278.8, -996904.25, -106830.76, -0.05987429, -0.024019992, -845766.25, 124861.1, 0.24160613, 10.000315, 9.999532 
2.265021e+3, 2.1095495e+2, -703506.4, -762581.44, -87417.24, -0.25002322, -0.13673148, -640771.25, 231861.95, 0.1940874, 10.000999, 10.000176 
2.2650732e+3, 2.2095402e+2, -619225.8, -809661.7, -113316.914, -0.28140122, -0.18115231, -566433.0, 208205.94, 0.14888066, 10.001457, 9.998839 
2.265125e+3, 2.3095356e+2, -571184.56, -734296.94, -151774.36, -0.06497991, -0.11803292, -480441.94, 196202.86, 0.108788945, 10.001105, 9.998804 
2.265176e+3, 2.4095245e+2, -493905.1, -683791.44, -17029.762, 0.09566931, -0.048926584, -492389.9, 86266.375, 0.07581198, 10.000963, 9.9985285 
2.2652291e+3, 2.5095144e+2, -253561.73, -398418.44, 7673.275, 0.044036027, -0.12372075, -253156.4, 227505.48, 0.048806984, 10.001498, 9.999584 
2.26528e+3, 2.6094967e+2, -217984.25, -500882.72, -58969.543, -0.0470847, -0.15308869, -206184.36, 176490.69, 0.026684597, 10.001764, 9.99805 
2.265333e+3, 2.7094683e+2, -116024.87, -306859.2, -46134.05, -0.09083935, -0.33296385, -105457.19, 179244.16, 0.010897145, 10.001414, 9.998845 
2.2653843e+3, 2.8094533e+2, -317296.53, -367061.7, -97521.234, -0.01731256, -0.37172565, -241533.53, -54817.95, 0.002788968, 9.999433, 9.998715 
2.2654395e+3, 2.9094613e+2, 117147.15, -54694.29, 51033.793, 0.015155784, -0.18173909, 131160.5, 219869.83, 0.0003034348, 10.001626, 9.99907 
2.2654922e+3, 3.0094478e+2, 221714.34, -225596.92, -47656.402, -0.11210212, -0.2403906, 226735.28, 226735.28, 0.000074942734, 10.002995, 9.996972 
2.2655436e+3, 3.1094027e+2, 202897.11, 120468.22, -29923.488, 0.20717065, -0.16048397, 212614.44, 212614.44, 0.00045627946, 10.001154, 10.000274 
2.2749715e+3, 2.008979e+2, -951155.44, -1193250.6, 21053.045, -0.017968839, -0.23065153, -949338.25, 21854.498, 0.4526298, 10.000898, 9.997753 
2.2750235e+3, 2.108994e+2, -1018523.0, -873462.25, -57745.02, -0.11738617, -0.14423078, -853282.6, 19895.059, 0.38963944, 9.998412, 10.0004635 
2.2750798e+3, 2.2090094e+2, -1501654.8, -1164966.8, -240480.19, 0.18025453, -0.016841285, -1039762.75, -264601.4, 0.32267725, 9.994906, 9.999453 
2.2751287e+3, 2.3089993e+2, -1080760.1, -799391.44, -171556.36, 0.1952685, -0.17916888, -718211.7, -41044.824, 0.25840095, 9.996749, 10.000336 
2.2751777e+3, 2.4089773e+2, -763980.25, -924109.7, -14379.738, 0.07069489, -0.27618393, -762699.2, -183515.0, 0.20062341, 9.999556, 9.99752 
2.2752316e+3, 2.508951e+2, -458796.72, -609297.56, 40830.527, 0.12146093, -0.47098422, -448433.13, 32774.45, 0.14660953, 10.000579, 9.998499 
2.2752823e+3, 2.6089334e+2, -573809.1, -798912.3, -94295.08, -0.07331979, -0.39229038, -539529.44, -156305.36, 0.09444842, 9.999876, 9.996866 
2.2753328e+3, 2.70894e+2, -224286.77, -357825.47, -67307.96, -0.28561613, -0.24347296, -196248.38, 88972.68, 0.04983968, 10.000726, 9.998782 
2.2753815e+3, 2.808941e+2, -511835.25, -498066.9, -182512.58, -0.28377828, -0.090015225, -322308.7, -135086.52, 0.019500945, 9.998326, 9.998312 
2.2754426e+3, 2.9089212e+2, 10864.919, -75092.914, 157383.7, 0.17685324, -0.24102896, 131032.62, 220272.25, 0.004786881, 10.000825, 9.999283 
2.2754985e+3, 3.0088848e+2, 25767.18, -275733.22, -143304.05, 0.17764491, -0.5881084, 83011.38, 83011.38, 0.0007184054, 10.001583, 9.997249 
2.2755395e+3, 3.1089208e+2, -269098.6, -418400.22, 4407.9214, -0.36845505, 0.28425485, -268968.56, -268968.56, 0.0007782504, 9.99948, 9.997273 
2.2851808e+3, 2.4083956e+2, -562658.3, -1073707.1, -106886.52, 0.21353811, -0.25585607, -541203.56, 38554.324, 0.45869297, 10.001276, 9.996262 
2.2852251e+3, 2.508434e+2, -683276.4, -341415.3, -400095.94, -0.41078454, 0.14187492, -77266.53, 404451.97, 0.36361384, 9.997231, 10.003198 
2.2852814e+3, 2.6084217e+2, -1067809.0, -794528.7, -57424.023, 0.051844116, -0.114651054, -782952.6, -399225.47, 0.26167566, 9.995166, 9.999264 
2.2853376e+3, 2.7084237e+2, -136748.17, -313471.2, 58388.53, 0.1453136, -0.031006537, -119199.445, 166526.61, 0.1640845, 10.001376, 9.998918 
2.285385e+3, 2.8084064e+2, 42224.797, -177835.44, -139019.44, 0.06801755, -0.05647155, 109488.305, 297232.44, 0.0825175, 10.00192, 9.998886 
2.2854424e+3, 2.9083958e+2, 284246.2, 131796.64, 316980.53, 0.0150337815, -0.18406026, 534038.1, 623792.3, 0.030766618, 10.002236, 10.000178 
2.2855e+3, 3.008399e+2, 246570.86, 92394.26, -15577.78, 0.19857915, -0.27819496, 248129.08, 248129.08, 0.009050352, 10.001769, 9.99978 
2.285541e+3, 3.1084004e+2, -103933.836, 61259.316, -89679.87, -0.1410414, 0.016065797, 100583.51, 100583.51, 0.0039668567, 9.998822, 10.000882 
2.2953354e+3, 2.7078396e+2, 73957.43, -101312.016, -143105.55, -0.22842893, -0.50356233, 154129.27, 440425.16, 0.434636, 10.004095, 9.999823 
2.2953933e+3, 2.8078407e+2, -1171646.1, -1046701.94, -393566.25, 0.6129708, -0.41592696, -710680.4, -522389.56, 0.25417715, 9.994774, 9.996217 
2.2954386e+3, 2.907918e+2, 140680.6, 157836.2, 391586.4, -0.64798653, 0.0376671, 540938.75, 631159.3, 0.12177648, 10.001113, 10.000999 
2.2954978e+3, 3.0080172e+2, -721425.56, -448373.94, -159767.8, -0.37844694, 0.90486515, -374744.94, -374744.94, 0.05407818, 9.995638, 9.998864 
2.2955486e+3, 3.1078386e+2, -80611.914, 903656.7, -413926.9, 0.5588252, -1.3263413, 1054586.6, 1054586.6, 0.031704772, 9.995701, 10.008145 
2.3054413e+3, 2.9074544e+2, -734652.6, -736943.6, -460790.44, -0.79932106, -0.052348785, -275006.28, -184331.94, 0.36181366, 9.996351, 9.997446 
2.3055203e+3, 3.0073708e+2, 629244.5, 535220.2, -19684.0, 1.1952012, -1.3153597, 633199.0, 633199.0, 0.21641394, 10.003806, 10.00291 
2.3055384e+3, 3.1075552e+2, -147656.38, -729970.2, 422436.63, -0.55468035, 0.7419503, 74241.34, 74241.34, 0.16969144, 10.001097, 9.995146 
2.3446658e+3, 2.7653536e+2, -281979.6, -982078.4, -663128.75, 0.0063403226, -0.5539169, 117820.54, 347748.44, 0.4722895, 10.003728, 9.992742 
2.344259e+3, 2.865359e+2, -1861120.8, -740679.2, -378711.1, 0.0854342, 0.2923036, -624683.0, -492749.97, 0.4440948, 9.986535, 10.00157 
2.3585601e+3, 1.7704178e+2, -2668581.5, -2307893.8, -150137.31, -0.314872, -0.08103072, -2253578.0, -1048637.8, 0.43653688, 9.990886, 9.996062 
2.3581731e+3, 1.8701752e+2, -711380.5, -1433043.3, 342239.0, -0.06744909, -1.1369619, -574892.25, 532292.3, 0.37769964, 10.00686, 9.993928 
2.3577905e+3, 1.9701739e+2, -149099.86, -1063875.4, 158007.38, 0.68964696, 0.018676052, -122576.58, 886617.9, 0.3336194, 10.011083, 9.993648 
2.3573938e+3, 2.0699716e+2, -41433.98, -695178.4, -60473.297, -0.20113173, -0.8001031, -35887.086, 875508.4, 0.30109307, 10.009387, 9.996749 
2.3570068e+3, 2.1698722e+2, -923257.44, -1219446.4, 238772.72, 0.11131673, -0.8543686, -790381.44, 23111.025, 0.27833575, 9.999903, 9.996725 
2.3566152e+3, 2.2698477e+2, -85127.51, -468037.88, 142515.53, -0.13506295, -0.18871248, -37907.676, 677601.9, 0.26130807, 10.005385, 9.99909 
2.3562267e+3, 2.3697358e+2, -724350.44, -888175.2, 126818.94, -0.20397934, -0.6074299, -655290.4, -37680.504, 0.24582131, 9.999177, 9.998056 
2.3558415e+3, 2.469652e+2, -196759.73, -811556.94, 219681.38, 0.86804986, -0.31109694, -126330.586, 393364.97, 0.23020415, 10.004407, 9.995262 
2.35544e+3, 2.569516e+2, -36807.566, -555695.3, 443707.84, 0.3210637, -0.46466216, 217740.55, 639578.5, 0.2100035, 10.00405, 9.996898 
2.3550372e+3, 2.6694503e+2, 740917.2, 661894.75, 464226.13, -0.4427528, -0.5568031, 1167310.5, 1491219.0, 0.17529899, 10.005562, 10.005053 
2.3546506e+3, 2.7693918e+2, -802466.25, -980093.3, 654394.7, -0.7657792, -0.5558329, -230885.72, -4915.1846, 0.13172227, 9.997478, 9.995517 
2.3542564e+3, 2.869343e+2, 695555.3, 524194.56, -130747.86, -0.08050318, -0.14011975, 766195.5, 894216.7, 0.12174183, 10.004566, 10.002398 
2.3538701e+3, 2.9693717e+2, 214954.58, 440772.4, 550367.2, 0.93912554, 0.11986691, 889693.1, 919688.44, 0.18209507, 10.000127, 10.003898 
2.3534617e+3, 3.0691537e+2, 982466.3, 342103.78, -238746.8, -1.1982318, -1.1900915, 1061679.6, 1061679.6, 0.30786264, 10.011046, 9.998241 
2.3693202e+3, 1.5742984e+2, -1902115.6, -1995062.1, -239546.23, -0.24083342, 0.1882043, -1704576.3, -307409.94, 0.40917808, 9.997097, 9.996733 
2.3689339e+3, 1.6741961e+2, -770186.0, -626676.25, -74732.16, -0.20792595, -0.29135224, -594827.75, 704436.7, 0.31914258, 10.002193, 10.005044 
2.3685518e+3, 1.7741652e+2, -967981.1, -888534.4, -255959.38, -0.20120436, -0.46596298, -669234.3, 532046.25, 0.25440118, 10.00029, 10.002211 
2.368163e+3, 1.8740803e+2, -1211763.1, -1380930.0, -312576.9, -0.5099752, -0.5029121, -972527.7, 130834.89, 0.20803176, 9.999928, 9.997568 
2.3677717e+3, 1.974018e+2, -1091964.1, -1363170.1, -154928.05, -0.86958945, -0.19593306, -1021676.7, -16248.42, 0.17323133, 10.000048, 9.997017 
2.367382e+3, 2.0739543e+2, -968392.9, -1024784.44, -144750.77, -0.83895224, 0.10116115, -849117.3, 58375.195, 0.14628568, 9.999406, 9.998922 
2.3669973e+3, 2.1738915e+2, -958774.7, -971255.56, -123317.9, -0.08349156, 0.28353748, -841539.44, -31985.31, 0.12553912, 9.998615, 9.999055 
2.3666087e+3, 2.2737737e+2, -774598.8, -652643.7, 48909.406, 0.0024580965, -0.14426227, -635452.25, 76211.77, 0.108313076, 9.998491, 10.0006075 
2.3662136e+3, 2.3736027e+2, -787893.8, -704378.1, -56493.0, -0.56244165, -1.1477975, -675885.2, -62061.984, 0.092006706, 9.998061, 9.999799 
2.3658201e+3, 2.4735607e+2, -527463.4, -355242.63, -182967.14, -0.46188372, -0.88593805, -239135.38, 276729.78, 0.07587346, 9.998579, 10.001363 
2.3654336e+3, 2.573562e+2, -597101.6, -741980.9, 15196.18, 0.27485636, -0.09241874, -595524.9, -177655.2, 0.059166577, 9.99917, 9.997621 
2.3650418e+3, 2.6734906e+2, -44642.695, 19921.408, 27505.32, 0.4464416, -0.0418397, 30050.127, 349997.47, 0.040461063, 10.000501, 10.0015545 
2.3646526e+3, 2.7733746e+2, -472415.53, -575219.3, 247426.83, 0.26450306, -0.52355796, -271107.75, -49039.043, 0.02269143, 9.998967, 9.997367 
2.3642492e+3, 2.8733116e+2, 259817.84, 204621.13, -295411.44, -0.30529848, -0.33274966, 528917.25, 653045.44, 0.017877195, 10.001863, 10.000607 
2.3638465e+3, 2.9733014e+2, 246966.28, 213801.56, 149568.33, -0.8671613, -0.15592167, 380868.66, 407001.28, 0.03846982, 10.001438, 10.000641 
2.3634782e+3, 3.073238e+2, -408271.0, -735090.8, 127468.164, 0.64573175, 0.333645, -364434.84, -364434.84, 0.085413694, 9.999807, 9.994761 
2.3796909e+3, 1.4781623e+2, -1982112.9, -1749814.8, 45126.12, -1.0502049, 0.05184135, -1741356.5, -249975.7, 0.38968268, 9.996348, 9.999263 
2.3793156e+3, 1.5780587e+2, -1477404.1, -1630820.3, -45061.707, 0.05872631, -0.32880276, -1465147.8, -71654.6, 0.27836236, 9.999744, 9.997975 
2.3789324e+3, 1.6779844e+2, -1185887.4, -1049216.5, 70487.39, 0.16500562, -0.3541686, -1019377.5, 276184.22, 0.19862524, 9.999563, 10.001625 
2.3785461e+3, 1.7779517e+2, -1402516.6, -1192136.1, -123539.16, -0.16887408, -0.23868452, -1135070.6, 62513.395, 0.1461588, 9.997635, 10.000678 
2.3781584e+3, 1.87791e+2, -1104251.3, -780470.2, -121659.695, -0.29677352, -0.13540319, -739852.4, 359769.25, 0.11113541, 9.998115, 10.002723 
2.3777722e+3, 1.9778465e+2, -1139857.4, -933631.44, -88626.27, -0.17922415, -0.36794934, -900777.9, 100905.41, 0.08556882, 9.997875, 10.001042 
2.3773839e+3, 2.0777838e+2, -1052388.9, -895858.4, -142506.47, 0.0652289, -0.33417135, -811539.7, 92204.945, 0.065839775, 9.998203, 10.000325 
2.3769909e+3, 2.1777146e+2, -1204375.4, -1073620.4, -99565.97, 0.0724544, -0.36001262, -1019886.2, -214073.58, 0.050802168, 9.99702, 9.999075 
2.3765992e+3, 2.2776656e+2, -1011170.6, -698924.06, 28335.088, -0.13135064, -0.15281294, -696373.56, 11488.399, 0.03888462, 9.996816, 10.000965 
2.3762102e+3, 2.3776129e+2, -1187430.4, -930209.06, -89147.0, -0.14683403, -0.021355815, -902333.6, -292419.13, 0.028499532, 9.995675, 9.999369 
2.3758157e+3, 2.477542e+2, -567157.6, -210698.63, -211261.92, -0.1093676, -0.1497126, -112527.414, 399451.97, 0.019239584, 9.997771, 10.002588 
2.3754236e+3, 2.5774547e+2, -748706.94, -688257.6, -9369.791, -0.0006741239, -0.4288276, -686838.56, -272779.44, 0.01143259, 9.997786, 9.998604 
2.3750328e+3, 2.6774028e+2, -281604.5, -233327.44, -52880.52, 0.19322935, -0.17091918, -199336.64, 116778.88, 0.005417436, 9.999659, 10.000042 
2.374644e+3, 2.777342e+2, -619212.9, -633821.56, 60560.23, 0.18315421, -0.06302454, -565518.06, -347335.06, 0.0017239751, 9.997961, 9.997468 
2.3742439e+3, 2.877237e+2, 218820.47, 12546.448, -287909.84, -0.36546063, -0.18889214, 421509.1, 541793.7, 0.0009962119, 10.002281, 9.999094 
2.373848e+3, 2.9771855e+2, 268644.28, -43354.1, -25139.93, -0.6043882, -0.1775022, 270657.0, 292986.84, 0.0037776493, 10.00262, 9.998334 
2.3734733e+3, 3.0770585e+2, 194138.44, -16926.771, 147758.17, 0.280386, -0.33434728, 270181.2, 270181.2, 0.01110807, 10.002097, 9.998679 
2.3900867e+3, 1.3820939e+2, -1744273.0, -1493900.1, 159195.58, -0.027785247, -0.4128173, -1416565.3, 168958.55, 0.42782646, 9.997573, 10.00168 
2.3896909e+3, 1.4820462e+2, -1052597.9, -1273954.4, 163778.45, -0.6193071, -0.20128775, -965607.06, 521962.72, 0.2998544, 10.003778, 9.99972 
2.3893106e+3, 1.5819643e+2, -982231.44, -1292995.0, 151983.92, -0.04584254, -0.25248578, -920259.56, 469398.72, 0.19614406, 10.003336, 9.998822 
2.3889248e+3, 1.6818939e+2, -1111708.6, -1046337.44, 162508.45, 0.06675871, -0.25837815, -913260.1, 378464.5, 0.12585048, 10.000085, 10.001351 
2.3885374e+3, 1.7818312e+2, -1615486.8, -1249287.5, 211709.4, -0.015867954, -0.31699148, -1152483.0, 41296.785, 0.083471425, 9.995847, 10.0011835 
2.3881507e+3, 1.8817882e+2, -1244556.8, -719519.94, 227192.31, -0.08612396, -0.27537727, -634860.75, 460959.6, 0.057587944, 9.996569, 10.003838 
2.3877642e+3, 1.9817428e+2, -989944.4, -746174.06, 129909.94, -0.12392999, -0.3643308, -689922.8, 307941.75, 0.03970386, 9.99829, 10.002173 
2.3873745e+3, 2.0816739e+2, -791807.8, -735841.25, -39299.176, -0.034584388, -0.44207695, -715580.44, 184349.42, 0.026570952, 9.999744, 10.00072 
2.3869833e+3, 2.1815974e+2, -572951.3, -703112.25, -23609.436, 0.04435599, -0.53290886, -568801.25, 233201.67, 0.017417854, 10.001015, 9.999721 
2.3865923e+3, 2.2815585e+2, -550344.8, -541039.8, 2073.3928, 0.024580868, -0.2014734, -540598.7, 163447.0, 0.011141793, 10.000245, 10.000442 
2.3862028e+3, 2.3815206e+2, -692072.44, -680860.94, -65841.07, 0.04891799, 0.1647332, -620387.4, -14298.309, 0.0065593217, 9.999023, 9.99944 
2.3858091e+3, 2.4814364e+2, -222532.3, -95581.64, -228742.5, 0.029462527, -0.06680903, 78329.33, 586497.75, 0.0032030866, 10.000324, 10.002115 
2.3854165e+3, 2.581334e+2, -218399.44, -354280.44, -147823.58, -0.003464784, -0.48579055, -123650.91, 286611.5, 0.0011282732, 10.0010605, 9.999286 
2.3850244e+3, 2.6812834e+2, -131150.03, -203104.5, -189126.81, 0.038678948, -0.2227251, 25391.074, 337704.72, 0.00023273825, 10.000846, 9.99969 
2.3846343e+3, 2.7812353e+2, -374099.16, -346155.06, -44604.047, 0.041302074, 0.01975093, -313385.9, -99021.49, 0.000018977813, 9.998819, 9.999028 
2.3842393e+3, 2.8811246e+2, -12907.899, -42292.902, -106435.125, -0.22520082, -0.28776196, 79844.03, 196315.03, 0.000039610317, 10.00042, 9.99958 
2.3838493e+3, 2.981059e+2, 41015.992, -272108.66, 149298.16, 0.05170019, -0.28227893, 100790.68, 119321.63, 0.00031053094, 10.001478, 9.997279 
2.3834658e+3, 3.0809116e+2, 266716.22, 285655.03, -158708.27, 0.11034917, -0.6615176, 435176.16, 435176.16, 0.0010092399, 10.001561, 10.000834 
2.4004637e+3, 1.2860993e+2, -2260836.5, -1559465.1, 331134.25, -0.17683566, 0.25469074, -1427833.1, 251775.61, 0.4904372, 9.993714, 10.004278 
2.4000825e+3, 1.3859892e+2, -1662898.1, -1542594.5, 99524.89, 0.2956207, -0.70646495, -1486456.0, 95239.56, 0.36336103, 9.9986925, 10.000578 
2.3996948e+3, 1.4859334e+2, -1421959.4, -1523097.8, 142882.72, 0.18197331, -0.49886057, -1320961.1, 162790.39, 0.24041095, 10.000801, 9.998748 
2.399305e+3, 1.585889e+2, -1404052.4, -1540973.6, 76825.336, -0.15351555, -0.13938124, -1369610.3, 16191.774, 0.14389461, 10.000101, 9.998383 
2.398916e+3, 1.6858181e+2, -1206858.9, -1004322.94, 26272.03, -0.056819383, -0.19547157, -1000970.5, 286899.16, 0.08188297, 9.999113, 10.001981 
2.3985279e+3, 1.7857333e+2, -1538825.9, -1234519.3, 91952.06, 0.16172692, -0.51973367, -1208892.3, -18943.04, 0.047678713, 9.99656, 10.00093 
2.3981406e+3, 1.8856995e+2, -1200199.5, -769702.5, 248222.67, -0.030068045, -0.34924486, -656399.0, 435584.13, 0.028905774, 9.997349, 10.00297 
2.397753e+3, 1.9856793e+2, -1184277.5, -975068.4, 98822.57, -0.32678902, -0.108791254, -935770.1, 58234.137, 0.017015342, 9.997735, 10.000775 
2.3973645e+3, 2.0855998e+2, -947001.6, -804224.56, -42769.035, -0.23190995, -0.24910998, -792393.44, 103683.59, 0.00915297, 9.998828, 10.000616 
2.3969768e+3, 2.1855013e+2, -980149.2, -1007915.7, -63767.188, 0.07562444, -0.54179364, -928771.44, -130603.555, 0.0045936005, 9.998832, 9.998662 
2.3965849e+3, 2.2854333e+2, -776200.9, -756029.8, -75272.445, 0.04303258, -0.42533338, -690170.25, 10069.639, 0.0022051786, 9.99925, 9.999399 
2.3961927e+3, 2.3853615e+2, -967213.94, -978659.2, -110109.195, -0.115175, -0.31273025, -862678.75, -260360.61, 0.0009056362, 9.997955, 9.997912 
2.3958017e+3, 2.4852934e+2, -401876.06, -304737.1, -193413.31, 0.045415077, -0.27274537, -153888.14, 350499.5, 0.00023937336, 9.9998455, 10.000789 
2.3954128e+3, 2.5852185e+2, -468013.53, -586983.75, -171660.14, 0.26090974, -0.33446625, -345823.97, 60637.574, 0.000025130046, 9.999918, 9.998245 
2.3950171e+3, 2.685148e+2, -76878.04, -56032.94, -225386.34, -0.054168593, -0.2942022, 159171.7, 467697.53, 0.00000030344088, 10.000805, 10.000682 
2.3946214e+3, 2.7850834e+2, -354634.53, -121570.23, -97317.03, -0.4855446, -0.39669672, -86278.97, 124304.93, 0.0000000068303647, 9.998091, 10.000943 
2.3942341e+3, 2.885001e+2, 120241.81, 359310.53, 10635.036, -0.06357278, -0.7039073, 359782.72, 472441.63, 0.0000039429096, 10.000011, 10.002486 
2.3938505e+3, 2.9849485e+2, -298345.1, -552928.2, 269932.84, 0.51172507, -0.6865384, -127195.91, -112490.086, 0.00006190627, 9.999738, 9.996165 
2.393457e+3, 3.084876e+2, 159440.2, -48569.87, 187984.8, -0.5388141, -0.14774683, 270273.1, 270273.1, 0.0002690841, 10.001935, 9.998342 
2.4104524e+3, 1.2899584e+2, -1254549.5, -1319752.8, -43533.29, -0.9080562, -0.14948758, -1232763.5, 443049.16, 0.44510007, 10.003648, 10.002023 
2.4100745e+3, 1.3898963e+2, -1596029.8, -1602633.1, -78535.25, 0.16964708, -0.30383, -1520726.9, 57143.21, 0.31930807, 9.999445, 9.999776 
2.409687e+3, 1.489833e+2, -1582628.3, -1450676.5, -8060.9604, 0.15265547, -0.25177732, -1450185.9, 29746.85, 0.20041417, 9.998672, 10.0002575 
2.4092966e+3, 1.5897621e+2, -1557630.0, -1459760.8, 9851.337, -0.21064197, -0.28971678, -1458779.0, -76774.86, 0.110025235, 9.998275, 9.999838 
2.408908e+3, 1.6897015e+2, -1121557.9, -938165.25, -57421.8, -0.07117298, -0.31558165, -921669.75, 362390.78, 0.054970514, 9.999559, 10.002222 
2.40852e+3, 1.789638e+2, -1003262.8, -1015354.44, 22979.932, 0.12564158, -0.42084122, -985546.7, 200572.88, 0.027314784, 10.000317, 10.000683 
2.4081326e+3, 1.8895894e+2, -829787.3, -841884.1, 125982.805, -0.08297936, -0.25610304, -709707.8, 378464.5, 0.013986388, 10.000901, 10.000758 
2.4077451e+3, 1.9895433e+2, -768048.25, -847616.9, -82612.73, -0.40214115, -0.071361296, -716139.3, 274083.88, 0.006556314, 10.000806, 10.000197 
2.407357e+3, 2.0894726e+2, -780444.75, -623726.56, -253153.78, -0.18471093, -0.18139924, -437081.9, 455205.47, 0.002469395, 9.999536, 10.001545 
2.4069688e+3, 2.1893898e+2, -984475.94, -898843.3, -165151.33, 0.110512815, -0.38490194, -771048.4, 23313.072, 0.00078321603, 9.998191, 9.999751 
2.4065769e+3, 2.2893038e+2, -682986.94, -701302.75, -105008.46, 0.005198486, -0.50840133, -586737.8, 109709.11, 0.00023610769, 9.99966, 9.999639 
2.4061851e+3, 2.3892154e+2, -403960.3, -633626.7, -66889.67, -0.18829949, -0.58908844, -385899.22, 212638.28, 0.000047296035, 10.00132, 9.998699 
2.4057949e+3, 2.4891645e+2, -255347.52, -253178.67, -109626.375, 0.030564692, -0.3836056, -144631.36, 355960.44, 0.0000020598873, 10.000854, 10.000696 
2.4054062e+3, 2.589114e+2, -465262.28, -491509.13, -15281.923, 0.30406296, -0.18736552, -458242.2, -55597.48, 0.0, 9.99944, 9.999127 
2.4050105e+3, 2.6890302e+2, -126473.49, -122396.83, -123492.42, -0.052551985, -0.26792324, -925.92096, 303796.9, 0.0, 10.000605, 10.000343 
2.4046138e+3, 2.7889463e+2, 140353.88, 124354.1, -179329.78, -0.51060826, -0.49695623, 311862.13, 518660.63, 0.0, 10.001313, 10.001112 
2.404228e+3, 2.888877e+2, 303222.13, 426178.06, -310407.8, -0.0026681307, -0.6941982, 681137.4, 789999.5, 0.00000028208012, 10.001221, 10.002436 
2.4038462e+3, 2.98884e+2, -282913.9, -499213.56, -126566.625, 0.74249434, -0.5254429, -224584.02, -213688.58, 0.000017512673, 9.999492, 9.996696 
2.4034527e+3, 3.088766e+2, 84729.23, -141754.2, -85159.68, -0.51273346, -0.01694627, 113176.805, 113176.805, 0.0001005609, 10.001519, 9.998003 
2.4204521e+3, 1.2937562e+2, -1620137.8, -1622344.1, -57567.723, -0.47540033, -0.89126086, -1563662.6, 108417.875, 0.41411307, 10.000048, 9.999916 
2.420065e+3, 1.3938002e+2, -1711196.0, -1787460.0, -159091.95, 0.030197753, 0.17717049, -1585730.1, -11681.036, 0.28877336, 9.9991455, 9.998552 
2.4196775e+3, 1.4937255e+2, -1365810.3, -1184948.1, 33323.977, 0.049177743, 0.0071580284, -1179003.5, 297118.3, 0.17287979, 9.999376, 10.002152 
2.4192894e+3, 1.5936272e+2, -1399950.8, -1324669.1, -1886.4445, -0.075733006, -0.4655281, -1324621.9, 53593.53, 0.08747846, 9.999015, 10.000506 
2.4189009e+3, 1.6935807e+2, -1112149.1, -916590.7, -49627.715, -0.0009750996, -0.39054984, -904717.4, 375539.53, 0.038149297, 9.999633, 10.002232 
2.4185127e+3, 1.7935418e+2, -1265941.8, -1279398.1, 4866.845, 0.13043608, -0.24113886, -1264366.1, -82073.695, 0.01570925, 9.999196, 9.999321 
2.418126e+3, 1.8934637e+2, -1167219.8, -1259363.4, 144612.44, -0.08962011, -0.18722145, -1061517.5, 22860.984, 0.0064830934, 9.999727, 9.998383 
2.4177395e+3, 1.9933785e+2, -1168904.6, -1204404.3, -78982.24, -0.28966197, -0.18275896, -1105702.3, -119229.69, 0.0021827125, 9.998829, 9.998677 
2.4173498e+3, 2.093324e+2, -795482.2, -522098.06, -276068.88, -0.08144336, -0.17024077, -350733.72, 537788.94, 0.00044835047, 9.998995, 10.002464 
2.4169597e+3, 2.1932688e+2, -1072673.5, -880248.0, -169566.94, 0.16821809, -0.21080959, -781499.6, 9070.841, 0.000068581576, 9.997461, 10.000199 
2.4165688e+3, 2.2931802e+2, -693900.4, -555293.06, -45395.883, -0.018915474, -0.46630278, -541748.75, 150904.06, 0.0000096515805, 9.999175, 10.000769 
2.4161787e+3, 2.3930866e+2, -625498.94, -665547.5, -85192.14, -0.19527717, -0.7305454, -558009.4, 36732.094, 0.00000040342232, 9.99966, 9.999243 
2.4157868e+3, 2.4930575e+2, -283795.44, -167783.72, -170320.81, -0.08342691, -0.40090486, -45862.203, 450910.7, 0.0, 10.000346, 10.001476 
2.4153958e+3, 2.5930303e+2, -685330.3, -670484.06, -76739.7, 0.0475661, -0.049657963, -600809.3, -202005.72, 0.0, 9.998349, 9.998438 
2.415004e+3, 2.6929376e+2, -368777.38, -456411.7, -83501.71, -0.003828648, -0.09182987, -318294.6, -17397.012, 0.0, 10.0000105, 9.998263 
2.4146119e+3, 2.7928343e+2, -388386.0, -624818.2, -184698.75, -0.16559279, -0.24574807, -287310.78, -84309.6, 0.0, 9.999909, 9.996642 
2.4142192e+3, 2.8927594e+2, -51710.31, -183243.81, -362899.4, -0.30446818, -0.07789586, 251333.52, 356412.88, 0.0000000009564638, 10.0008335, 9.998361 
2.4138315e+3, 2.9927015e+2, -562663.1, -660812.9, -165067.31, -0.20827842, 0.16199443, -439530.13, -432390.8, 0.0000015325257, 9.997849, 9.996356 
2.413451e+3, 3.0925664e+2, 85231.53, 179067.86, -105627.266, -0.32084316, -0.3409955, 247728.39, 247728.39, 0.000021924814, 10.000179, 10.0008545 
2.4304532e+3, 1.2976734e+2, -1863190.4, -1893629.3, -31785.2, 0.35230488, -0.746273, -1843168.8, -174926.55, 0.3927152, 9.998798, 9.998447 
2.4300532e+3, 1.3976377e+2, -1533864.9, -1676942.9, -3698.8606, -0.52810186, -0.28527102, -1533769.3, 36515.41, 0.26710206, 10.000345, 9.998754 
2.4296685e+3, 1.497579e+2, -1105464.0, -1046672.56, 73884.78, -0.24368025, -0.2983366, -996550.56, 475789.4, 0.15331793, 10.001331, 10.002357 
2.4292849e+3, 1.5975124e+2, -1123907.6, -1198501.5, 4887.66, 0.08498664, -0.4355614, -1123588.6, 250813.52, 0.07196278, 10.001023, 10.00048 
2.428894e+3, 1.6974565e+2, -1074433.4, -1054448.4, -124255.68, -0.0005524059, -0.34652078, -939784.0, 336674.44, 0.027363949, 10.00058, 10.00078 
2.4285027e+3, 1.7973986e+2, -1208280.0, -1233131.4, -79357.12, -0.16422397, -0.26324227, -1140381.6, 38135.344, 0.009079448, 9.999457, 9.999496 
2.428117e+3, 1.8973203e+2, -1233668.0, -1128088.1, 125898.33, -0.20221655, -0.32578644, -1044360.0, 36237.53, 0.002868925, 9.99849, 9.999909 
2.4277315e+3, 1.9972405e+2, -1281483.6, -1148190.4, 77330.016, -0.2182259, -0.37662283, -1112750.3, -130069.73, 0.00059867656, 9.997456, 9.999753 
2.4273428e+3, 2.0971954e+2, -758085.3, -598282.2, -99565.69, 0.023173524, -0.22707044, -550521.75, 334205.84, 0.000045539302, 9.999473, 10.001791 
2.4269532e+3, 2.1971521e+2, -504277.0, -577959.3, -74940.93, 0.23303926, -0.07537214, -457611.2, 329160.13, 0.0000022398012, 10.00112, 10.000521 
2.4265616e+3, 2.2970766e+2, -608548.44, -486954.84, -44077.76, 0.009871673, -0.20967864, -472657.72, 216184.8, 0.000000052409952, 9.999597, 10.0010605 
2.4261704e+3, 2.3969953e+2, -834206.6, -666146.25, -106551.65, -0.21998385, -0.37437803, -614477.06, -23558.107, 0.0, 9.997741, 10.000152 
2.4257796e+3, 2.4969448e+2, -415610.13, -273971.63, -243945.94, -0.08570258, -0.25173983, -90773.19, 402195.88, 0.0, 9.999551, 10.001173 
2.4253888e+3, 2.596898e+2, -179549.6, -356627.78, -229288.14, 0.063071646, -0.076119475, -22299.705, 372716.94, 0.0, 10.001364, 9.999168 
2.4249975e+3, 2.6968098e+2, -135938.45, -342009.63, -149639.78, 0.0022048738, -0.115634486, -57291.914, 239813.02, 0.0, 10.001438, 9.998424 
2.4246067e+3, 2.7967143e+2, -254750.64, -592757.25, -48171.293, -0.044294048, -0.15654148, -248019.52, -48818.137, 0.0, 10.000818, 9.996441 
2.4242131e+3, 2.8966317e+2, 122061.73, -312354.5, -35144.836, -0.33776075, 0.10620522, 124886.62, 226177.22, 0.0, 10.002749, 9.9966345 
2.4238238e+3, 2.9965523e+2, 272795.75, -145564.78, 233944.69, -0.43849528, 0.2977507, 377441.1, 380816.3, 0.000000086511356, 10.0029, 9.997516 
2.4234495e+3, 3.0964148e+2, 68839.484, 309535.0, -182107.27, 0.24281044, -0.33051968, 407468.34, 407468.34, 0.0000026170453, 9.999128, 10.002409 
2.4408239e+3, 1.2017313e+2, -1566946.9, -1375901.0, 229067.47, -0.42399958, 0.079129905, -1223237.5, 539035.94, 0.49455008, 9.999702, 10.004838 
2.440451e+3, 1.3015936e+2, -1735897.0, -1958920.0, 917.1364, 0.92641324, -0.5322908, -1735893.3, -71490.664, 0.3775347, 10.000486, 9.99718 
2.4400434e+3, 1.4014752e+2, -1426195.0, -1644415.8, 23639.434, -0.8312342, -0.7788123, -1423663.5, 142857.05, 0.25111946, 10.001585, 9.998341 
2.4396609e+3, 1.5014376e+2, -1173065.3, -1101259.8, 69007.33, -0.3866115, -0.5750729, -1059374.1, 409179.13, 0.13882844, 10.00096, 10.001972 
2.4392805e+3, 1.601401e+2, -1492463.4, -1504336.3, -42131.8, 0.32927927, -0.3532149, -1455851.9, -85265.63, 0.060861234, 9.999037, 9.999206 
2.4388872e+3, 1.701326e+2, -1297749.5, -1342785.4, -137603.22, 0.022857761, -0.31907752, -1180834.0, 91833.29, 0.02025213, 9.999882, 9.999068 
2.4384929e+3, 1.8012457e+2, -1218752.0, -1232710.8, -85125.68, -0.3594427, -0.33399367, -1140320.1, 34432.95, 0.0052852775, 9.999428, 9.999531 
2.4381071e+3, 1.901178e+2, -1028347.3, -743990.75, 61018.652, -0.28129488, -0.49270314, -731450.1, 345363.22, 0.0012089658, 9.998752, 10.00241 
2.4377231e+3, 2.0011164e+2, -1321644.0, -1106443.8, 31217.385, -0.060802102, -0.5704054, -1102006.8, -123137.5, 0.00012403581, 9.997083, 10.000181 
2.4373361e+3, 2.1010807e+2, -907093.5, -782526.6, -56792.844, 0.16913074, -0.2875104, -760520.94, 120393.93, 0.000001917801, 9.999113, 10.000591 
2.436948e+3, 2.2010435e+2, -828671.56, -894887.06, -105251.11, 0.35346097, 0.03883636, -751443.8, 31518.617, 0.000000018702426, 9.999717, 9.99897 
2.4365537e+3, 2.3009907e+2, -705696.5, -584792.25, -144177.83, 0.034119528, 0.17805097, -488905.94, 196111.4, 0.0, 9.999187, 10.000538 
2.4361601e+3, 2.4009247e+2, -1088679.8, -941267.4, -137948.39, -0.25653973, 0.21052192, -858569.1, -271486.25, 0.0, 9.996738, 9.99874 
2.4357724e+3, 2.5008273e+2, -578409.3, -480464.56, -161440.19, 0.005119455, -0.03440292, -360732.38, 128444.7, 0.0, 9.99914, 9.999895 
2.4353848e+3, 2.60073e+2, -392815.3, -509808.38, -198974.25, 0.22522773, -0.2583815, -243917.06, 147352.48, 0.0, 10.00026, 9.998629 
2.4349903e+3, 2.7006584e+2, -56449.004, -58077.33, -169315.02, -0.14018467, -0.28857845, 112053.81, 405385.0, 0.0, 10.001031, 10.00053 
2.4345969e+3, 2.8005856e+2, -348235.53, -489033.25, -41630.137, -0.3956777, -0.3199633, -336847.7, -141451.6, 0.0, 9.99964, 9.997729 
2.4342117e+3, 2.900487e+2, 85536.09, -224835.28, 73853.89, -0.07890252, -0.36969906, 102213.71, 199709.9, 0.0, 10.00214, 9.997499 
2.4338259e+3, 3.0003926e+2, -113300.945, -436039.16, 221337.86, 0.021948844, -0.3460127, -753.2064, -753.2064, 0.0, 10.000839, 9.996503 
2.4334392e+3, 3.10031e+2, -312344.9, -15068.984, 31352.553, -0.17094168, -0.3893776, -11798.335, -11798.335, 0.00000012758136, 9.9974375, 10.000846 
2.4508242e+3, 1.2055828e+2, -1710078.9, -1714185.9, 43983.76, 0.13287093, -0.32858387, -1668100.8, 90393.016, 0.48540565, 9.9998865, 10.00026 
2.4504375e+3, 1.3054964e+2, -1500380.3, -1718246.1, 59573.563, 0.12527181, -0.36945277, -1485154.5, 175428.38, 0.3659335, 10.002243, 9.998118 
2.4500467e+3, 1.405424e+2, -1096795.5, -1425440.0, 43688.594, -0.2236064, -0.2215547, -1091086.9, 471572.3, 0.23856215, 10.004229, 9.99888 
2.4496564e+3, 1.5053523e+2, -1157479.1, -1152849.8, -19401.164, -0.24221858, -0.32242766, -1135625.6, 329097.53, 0.1275105, 10.001283, 10.001399 
2.4492681e+3, 1.6052805e+2, -1666375.5, -1610236.6, -35458.31, -0.102336906, -0.38809273, -1593082.4, -226293.64, 0.052560914, 9.997879, 9.999041 
2.4488793e+3, 1.7052099e+2, -1300901.9, -1384028.6, -10619.526, -0.029322779, -0.27508837, -1299566.8, -30700.15, 0.01541553, 9.999906, 9.998822 
2.4484898e+3, 1.8051362e+2, -915637.44, -1074223.1, 19357.34, -0.087289736, -0.18420279, -913308.9, 257637.45, 0.0031067657, 10.001369, 9.999708 
2.448101e+3, 1.9050632e+2, -771285.3, -664132.2, 21406.652, -0.19880302, -0.3623053, -660013.9, 412996.03, 0.00048131414, 10.000644, 10.002088 
2.4477136e+3, 2.0049934e+2, -962358.6, -937884.3, -55218.28, -0.22310822, -0.48638695, -893563.5, 81507.87, 0.000015932997, 9.999495, 10.000169 
2.4473271e+3, 2.1049456e+2, -838193.56, -806327.6, -121493.21, 0.037631933, -0.2822774, -699727.1, 177400.8, 0.0000000054715246, 9.999793, 10.000118 
2.44694e+3, 2.2048987e+2, -744066.44, -806492.25, -178098.28, 0.24073529, -0.020682696, -594466.56, 184718.11, 0.0, 9.999967, 9.999484 
2.4465467e+3, 2.304841e+2, -624847.75, -558094.06, -241413.08, 0.09079383, 0.06861033, -347761.47, 333483.16, 0.0, 9.999682, 10.000556 
2.4461533e+3, 2.4047774e+2, -670405.9, -656611.2, -179129.45, -0.07547466, 0.12513798, -484246.38, 99062.39, 0.0, 9.999058, 9.999626 
2.4457651e+3, 2.504688e+2, -602184.4, -459798.78, -71117.664, 0.115792505, -0.07633817, -430362.88, 55031.688, 0.0, 9.998642, 10.000381 
2.4453773e+3, 2.6045972e+2, -597019.44, -497115.13, -24668.469, 0.24056675, -0.26962245, -491355.94, -103875.68, 0.0, 9.998226, 9.999737 
2.4449834e+3, 2.7045247e+2, -168244.0, -99368.64, -109957.39, -0.15353073, -0.32735476, -18582.273, 270958.78, 0.0, 10.000082, 10.000769 
2.4445908e+3, 2.8044528e+2, 55552.44, -162957.86, -108378.125, -0.4120969, -0.37785697, 100188.51, 291790.7, 0.0, 10.001667, 9.999025 
2.444208e+3, 2.9043537e+2, 33399.293, -135076.89, -45401.35, 0.11316805, -0.5455586, 44855.188, 138554.75, 0.0, 10.001103, 9.998688 
2.4438243e+3, 3.0042627e+2, -254698.5, -429612.06, 68267.1, 0.43672025, -0.5843047, -231208.97, -231208.97, 0.0, 9.999328, 9.997324 
2.4434292e+3, 3.104221e+2, 31148.172, 173530.42, -23763.682, -0.37999338, -0.118274495, 177391.86, 177391.86, 0.000000000000427524, 9.999449, 10.001237 
2.4608128e+3, 1.209419e+2, -1795245.8, -1972737.0, -119163.57, -0.34086198, -0.7494138, -1735412.3, 19321.418, 0.47723374, 10.000228, 9.998042 
2.4604261e+3, 1.3093974e+2, -1623652.5, -1652946.9, 120817.57, -0.48666424, -0.21417674, -1516597.5, 140167.45, 0.3557266, 10.000314, 9.999675 
2.4600506e+3, 1.4093779e+2, -1519048.5, -1626477.4, 3521.3052, 0.56591564, 0.35988605, -1518933.3, 39858.805, 0.22774403, 10.000354, 9.999068 
2.4596523e+3, 1.5092683e+2, -1316048.9, -1291876.9, -146359.86, -0.014714814, -0.083924495, -1157104.9, 303787.38, 0.11809006, 10.000444, 10.000653 
2.4592553e+3, 1.6091606e+2, -1513519.9, -1614021.3, -62060.91, -0.44866404, -0.4280566, -1483916.4, -120924.305, 0.04605504, 9.999322, 9.998309 
2.4588723e+3, 1.7091022e+2, -1242437.3, -1350487.1, 39971.13, -0.0017257162, -0.20295069, -1229258.1, 35800.05, 0.012013259, 10.000353, 9.998807 
2.4584883e+3, 1.8090431e+2, -1138476.9, -1281853.0, -14135.449, 0.37044612, 0.044097263, -1137096.6, 30026.682, 0.0018483637, 10.00035, 9.99876 
2.4580954e+3, 1.9089565e+2, -951186.9, -909553.0, -48023.586, -0.059160825, -0.16647169, -878028.6, 191172.19, 0.00018026956, 10.000118, 10.000632 
2.4577038e+3, 2.008871e+2, -1208722.3, -1203038.6, -80338.39, -0.3999378, -0.31325006, -1125491.8, -154213.48, 0.0000007906511, 9.998548, 9.998804 
2.4573171e+3, 2.108802e+2, -993955.44, -922277.44, -101731.04, -0.18377893, -0.27992, -850257.06, 23094.016, 0.0, 9.998988, 9.999707 
2.4569307e+3, 2.2087325e+2, -1054081.6, -997563.8, -187800.83, 0.09231287, -0.20790085, -835907.6, -60482.457, 0.0, 9.998215, 9.998998 
2.4565399e+3, 2.3086573e+2, -715258.44, -552253.56, -255265.55, 0.21677394, -0.3226907, -365794.94, 311704.53, 0.0, 9.999098, 10.000775 
2.4561484e+3, 2.408589e+2, -801885.44, -659439.6, -197557.8, 0.28764513, -0.351045, -520658.3, 58907.902, 0.0, 9.998068, 10.000047 
2.4557571e+3, 2.5085446e+2, -554985.1, -265847.63, -106924.766, 0.19039436, -0.25571555, -230602.5, 251005.27, 0.0, 9.998293, 10.001846 
2.4553664e+3, 2.6084933e+2, -846718.4, -705797.06, -24640.771, 0.074432544, -0.15085426, -701612.75, -317956.66, 0.0, 9.997011, 9.998865 
2.454977e+3, 2.7084056e+2, -365394.72, -368778.6, -35153.4, -0.050051525, -0.25305682, -331892.56, -46154.43, 0.0, 9.999596, 9.99909 
2.4545884e+3, 2.8083217e+2, -215047.02, -376827.6, -87950.8, -0.13438179, -0.2739194, -176444.3, 11372.253, 0.0, 10.000341, 9.998165 
2.4542011e+3, 2.9082477e+2, -51212.434, -68526.99, -86315.484, 0.046534345, -0.28014585, 26878.838, 116768.38, 0.0, 10.000198, 9.999527 
2.4538162e+3, 3.0081606e+2, -688842.8, -678421.0, 14157.197, 0.34513137, -0.2951768, -668546.1, -668546.1, 0.0, 9.99672, 9.996836 
2.4534218e+3, 3.1081074e+2, -236868.67, 235322.2, 113197.26, -0.48937792, -0.071178585, 261056.23, 261056.23, 0.0, 9.997129, 10.0026455 
2.470811e+3, 1.2133518e+2, -1543692.1, -1580898.4, -132590.13, -0.028582606, -0.03507434, -1428406.4, 322488.6, 0.4678509, 10.001704, 10.000975 
2.4704178e+3, 1.3132663e+2, -1643912.8, -1533086.6, 52889.414, -0.5653668, -0.31350008, -1511897.5, 141076.36, 0.34520847, 9.999163, 10.001249 
2.4700415e+3, 1.413222e+2, -1969225.3, -1824362.0, 7847.726, 0.5102166, -0.09992148, -1823938.1, -268922.84, 0.21743059, 9.9970255, 9.999318 
2.469647e+3, 1.5131357e+2, -1367337.9, -1373238.1, -81078.04, 0.13685474, -0.2612583, -1289156.3, 167941.67, 0.109704144, 10.00035, 10.0000305 
2.469253e+3, 1.6130476e+2, -1039674.1, -1388995.1, -26217.17, -0.22505443, -0.35361704, -1037717.44, 321466.75, 0.040704507, 10.002673, 9.998244 
2.468866e+3, 1.7129722e+2, -1020544.06, -1286085.5, 2967.4285, -0.07180858, -0.2500636, -1020510.9, 240755.39, 0.00953522, 10.002016, 9.998506 
2.468479e+3, 1.8129021e+2, -1081165.6, -1224170.9, -57974.516, 0.056314006, -0.082349055, -1060615.6, 102726.26, 0.0011160366, 10.0005455, 9.999075 
2.4680884e+3, 1.912833e+2, -976308.94, -951983.06, -70921.54, -0.058438595, -0.09680265, -892189.06, 173218.17, 0.00006263998, 10.000012, 10.000427 
2.467698e+3, 2.0127605e+2, -1062872.0, -1021124.0, -54842.117, -0.1951775, -0.10838244, -983317.6, -15842.915, 0.0000000031066179, 9.99899, 9.999862 
2.4673095e+3, 2.1126783e+2, -1040049.0, -861211.94, -21023.145, -0.07353092, -0.27015322, -858773.75, 10779.094, 0.0, 9.998223, 10.000564 
2.4669214e+3, 2.2125967e+2, -1052186.5, -920662.4, -15167.18, 0.047547802, -0.35840663, -918936.0, -147303.95, 0.0, 9.997762, 9.999783 
2.4665312e+3, 2.3125261e+2, -589907.5, -526566.25, -70988.055, 0.140605, -0.40056896, -480504.44, 193199.98, 0.0, 9.999965, 10.0006075 
2.4661408e+3, 2.4124616e+2, -249225.42, -371756.22, -98698.336, 0.20839898, -0.35248655, -194323.66, 381446.25, 0.0, 10.001654, 10.000316 
2.4657491e+3, 2.5124192e+2, -214321.3, -161679.0, -173369.05, 0.14457166, -0.18437943, -12644.437, 465167.13, 0.0, 10.000783, 10.001414 
2.4653582e+3, 2.6123676e+2, -374062.78, -459905.3, -103339.09, 0.05796258, -0.043563794, -305085.84, 74775.11, 0.0, 9.999988, 9.999159 
2.464972e+3, 2.7122706e+2, -81654.38, -278706.0, -26267.555, 0.069287926, -0.21878867, -78212.945, 203740.23, 0.0, 10.001588, 9.998815 
2.4645847e+3, 2.8121844e+2, 142465.81, -130077.37, -100482.73, 0.039804798, -0.24892452, 175506.72, 359542.1, 0.0, 10.002348, 9.998915 
2.4641939e+3, 2.912122e+2, 82332.05, 23289.748, -202713.16, -0.034436062, -0.1559024, 257662.36, 343759.13, 0.0, 10.000855, 9.999929 
2.463808e+3, 3.0120373e+2, -185017.23, -352177.66, -33623.74, 0.34523222, -0.17587508, -178507.44, -178507.44, 0.0, 9.999599, 9.997754 
2.4634153e+3, 3.111946e+2, 479262.66, 598215.75, -63357.332, -0.42732492, -0.30995822, 625639.2, 625639.2, 0.0, 10.001586, 10.003144 
2.4808094e+3, 1.21725515e+2, -1526846.8, -1491921.9, -146291.89, 0.33637354, 0.30564433, -1362053.9, 385028.03, 0.455717, 10.00114, 10.002328 
2.480411e+3, 1.3171293e+2, -1493770.5, -1418845.1, -62449.805, -0.48248717, -0.47046095, -1383483.1, 265704.72, 0.33319858, 10.000355, 10.001821 
2.4800313e+3, 1.4170527e+2, -1818208.0, -1753688.6, -45091.17, 0.46794924, -0.61880904, -1730505.5, -179253.72, 0.20679392, 9.998163, 9.999244 
2.4796416e+3, 1.5169995e+2, -1418622.4, -1448034.3, -36930.543, 0.3006344, -0.43645763, -1393577.5, 59730.027, 0.10179194, 10.000195, 9.999562 
2.4792518e+3, 1.6169347e+2, -1337967.8, -1585808.8, -49924.516, 0.1597825, -0.25051412, -1328289.0, 27086.865, 0.036105353, 10.000846, 9.997754 
2.4788596e+3, 1.7168385e+2, -1259575.0, -1419328.0, -34536.83, -0.1358276, -0.34967577, -1252428.3, 5048.481, 0.0076701324, 10.000552, 9.998245 
2.4784686e+3, 1.816754e+2, -1292623.8, -1370353.3, -42276.098, -0.29464772, -0.28536656, -1274062.5, -114496.586, 0.000687035, 9.999408, 9.998582 
2.4780813e+3, 1.9167118e+2, -1026556.94, -960197.9, -69125.766, -0.020556943, -0.04876564, -916701.1, 144909.88, 0.000019881356, 9.999742, 10.000427 
2.4776936e+3, 2.0166577e+2, -1092215.1, -988321.4, -88868.89, 0.24266127, 0.11205687, -937330.56, 26332.848, 0.0, 9.9986925, 10.000177 
2.4773027e+3, 2.116566e+2, -978689.6, -698188.44, -78151.664, 0.18813996, -0.2727825, -677884.0, 187857.97, 0.0, 9.998174, 10.001609 
2.4769121e+3, 2.2164826e+2, -1209669.1, -1048333.75, -11272.354, 0.102674656, -0.45088398, -1047549.94, -279733.44, 0.0, 9.9970045, 9.9992285 
2.4765214e+3, 2.3164293e+2, -728759.5, -665244.1, -14129.883, -0.078651026, -0.28596845, -662242.56, 7634.428, 0.0, 9.999353, 9.999921 
2.4761313e+3, 2.4163729e+2, -649466.75, -784025.25, -126832.98, -0.15151075, -0.058098655, -573173.4, -1233.1166, 0.0, 10.000004, 9.998247 
2.4757409e+3, 2.5163025e+2, -457425.78, -492677.84, -226841.92, 0.03553814, 0.0020056558, -247526.14, 226486.31, 0.0, 10.000177, 9.99935 
2.475352e+3, 2.6162243e+2, -633079.75, -690278.0, -72897.625, 0.1766776, 0.042456873, -583371.94, -207282.02, 0.0, 9.998837, 9.998105 
2.4749665e+3, 2.7161223e+2, -151374.84, -233181.97, 35212.637, 0.09099846, -0.23628698, -138305.9, 139878.08, 0.0, 10.000923, 9.9994 
2.4745789e+3, 2.8160313e+2, -124799.51, -344127.44, -157635.66, -0.08827811, -0.32995296, -42434.348, 137833.81, 0.0, 10.000984, 9.998096 
2.4741855e+3, 2.9159597e+2, -87961.914, -90050.23, -277190.06, -0.22491987, -0.30986854, 188185.97, 270522.72, 0.0, 9.999975, 9.999505 
2.4738008e+3, 3.015884e+2, -584597.1, -698628.06, -15686.989, 0.29018712, -0.18156502, -582478.5, -582478.5, 0.0, 9.997685, 9.996269 
2.4734126e+3, 3.1157786e+2, 151179.48, 272696.7, -8690.578, -0.35171393, -0.40225622, 273315.06, 273315.06, 0.0, 10.000191, 10.0015545 
2.490802e+3, 1.2210663e+2, -1614008.5, -1704420.8, -34436.32, 0.056594826, -0.28587165, -1602386.4, 140958.06, 0.43991777, 10.001371, 9.999501 
2.490408e+3, 1.3210209e+2, -1407664.6, -1455980.4, -134913.05, -0.21829033, -0.13753347, -1294763.6, 350616.3, 0.31901658, 10.00172, 10.000737 
2.4900222e+3, 1.4209192e+2, -1569990.5, -1606602.6, -119392.664, 0.2680254, -0.47127372, -1467508.6, 79964.86, 0.19536594, 9.99975, 9.999568 
2.4896316e+3, 1.5208685e+2, -1381754.8, -1346479.4, -47420.06, -0.0046614627, -0.32636878, -1313523.1, 136001.67, 0.094030365, 10.000008, 10.000447 
2.4892417e+3, 1.6208114e+2, -1379815.9, -1383641.0, -66714.43, -0.16786183, -0.18158442, -1314986.6, 36595.8, 0.032013185, 9.99955, 9.999765 
2.488852e+3, 1.720734e+2, -1307505.0, -1213247.5, 12209.501, -0.13869925, -0.2908208, -1211691.6, 41966.625, 0.0062260167, 9.999191, 10.00032 
2.4884623e+3, 1.82066e+2, -1306767.8, -1297031.6, 99521.086, -0.1403677, -0.26430187, -1202259.6, -46527.035, 0.00043419475, 9.998887, 9.999343 
2.4880747e+3, 1.9206032e+2, -962374.56, -988537.56, 73068.92, 0.028032865, -0.11896215, -901225.4, 156568.08, 0.0000058323185, 10.000351, 9.999978 
2.4876866e+3, 2.020538e+2, -797007.06, -923812.7, -22307.14, 0.18045342, 0.010250934, -793197.3, 166662.03, 0.000000000090419006, 10.000965, 9.999526 
2.4872957e+3, 2.1204436e+2, -691264.7, -708819.94, -122738.805, 0.21788672, -0.26730463, -576990.06, 284954.53, 0.0, 10.000657, 10.000381 
2.4869046e+3, 2.2203587e+2, -768573.5, -821057.4, -122809.84, 0.14309077, -0.3859142, -669233.2, 94789.91, 0.0, 9.999861, 9.999413 
2.4865137e+3, 2.3203075e+2, -802618.6, -727973.5, -96886.6, -0.058814082, -0.18268254, -661469.3, 4611.351, 0.0, 9.998876, 9.999774 
2.4861236e+3, 2.420249e+2, -808831.25, -835242.7, -157268.19, -0.17053674, 0.04021574, -664215.3, -96070.336, 0.0, 9.998692, 9.998529 
2.4857344e+3, 2.5201634e+2, -347185.78, -516700.6, -180400.97, 0.03326251, -0.007742993, -232623.53, 237608.08, 0.0, 10.001119, 9.998787 
2.4853459e+3, 2.6200747e+2, -91227.59, -378828.8, -6391.2944, 0.18217781, -0.025767567, -91085.63, 281233.5, 0.0, 10.002178, 9.998661 
2.4849595e+3, 2.719985e+2, -304259.2, -295497.5, 64414.92, 0.06617352, -0.18706165, -235314.63, 39087.766, 0.0, 9.999642, 9.999674 
2.4845718e+3, 2.8198966e+2, -430909.47, -435802.3, -107275.625, -0.100141756, -0.2704943, -326052.38, -149567.94, 0.0, 9.998473, 9.998716 
2.4841791e+3, 2.919813e+2, 209974.53, 37437.383, -218963.2, -0.20651765, -0.34526217, 359050.72, 437614.28, 0.0, 10.00194, 9.999504 
2.4837942e+3, 3.0197358e+2, 277922.56, -267859.38, 95446.664, 0.2453819, -0.22352222, 294132.88, 294132.88, 0.0, 10.003456, 9.996453 
2.4834074e+3, 3.119633e+2, 78084.75, 66047.51, 8487.986, -0.22241673, -0.2651746, 82471.41, 82471.41, 0.0, 10.0001135, 10.000307 
2.5007978e+3, 1.2249262e+2, -1680612.8, -1890296.9, 142828.06, 0.17462677, -0.46542358, -1608277.8, 131281.52, 0.42027465, 10.001385, 9.998201 
2.500405e+3, 1.3249214e+2, -1518769.4, -1598838.0, -118910.45, 0.09448603, 0.2229084, -1433334.8, 208229.02, 0.30251706, 10.001241, 9.999606 
2.5000137e+3, 1.4247999e+2, -1518943.8, -1550070.5, -33455.453, 0.158143, -0.2094935, -1497608.8, 46073.863, 0.18302314, 9.999924, 9.999848 
2.4996215e+3, 1.5247433e+2, -1339760.0, -1243299.0, 17507.064, -0.28211403, -0.21961781, -1240219.9, 205516.83, 0.08629053, 9.999883, 10.0012865 
2.4992312e+3, 1.6246925e+2, -1330903.0, -1182035.1, -45525.297, -0.42435724, -0.11911423, -1169216.8, 178567.1, 0.028287582, 9.999119, 10.001374 
2.4988447e+3, 1.7246404e+2, -1112165.4, -896995.9, -52526.77, -0.041803833, -0.20895663, -884857.9, 364970.56, 0.0050760456, 9.999519, 10.002355 
2.4984576e+3, 1.8245779e+2, -1323937.6, -1323936.9, 51532.742, 0.21641515, -0.19379106, -1272404.5, -120517.805, 0.00028139996, 9.998982, 9.9990835 
2.498068e+3, 1.9244976e+2, -1094993.5, -1111781.8, 46812.234, 0.07439985, -0.251293, -1055828.8, -1858.4723, 0.0000014559199, 9.99984, 9.999336 
2.4976784e+3, 2.0244133e+2, -1129320.4, -1317938.8, -66557.625, 0.04765854, -0.19856057, -1108199.4, -152141.9, 0.0, 9.99982, 9.997363 
2.4972886e+3, 2.1243207e+2, -937576.0, -1045347.2, -144994.45, 0.19320886, -0.27082866, -836777.9, 21372.254, 0.0, 10.000096, 9.998286 
2.4968982e+3, 2.2242373e+2, -979916.5, -1043622.44, -149514.23, 0.27129275, -0.19183087, -858899.9, -98666.32, 0.0, 9.999065, 9.998267 
2.496507e+3, 2.324175e+2, -850070.4, -744304.75, -131968.61, 0.13191986, -0.10505794, -655017.56, 7280.536, 0.0, 9.998622, 9.999749 
2.4961168e+3, 2.4241056e+2, -976640.1, -931782.5, -108562.5, 0.033838715, 0.012198605, -843356.1, -278987.66, 0.0, 9.997701, 9.998333 
2.495728e+3, 2.5240108e+2, -433151.4, -500685.25, -88931.98, 0.035374857, -0.18892045, -371791.56, 94668.89, 0.0, 10.0004, 9.9992 
2.4953394e+3, 2.623927e+2, -323120.4, -527394.1, -61576.96, 0.024196642, -0.1710688, -305994.28, 62547.707, 0.0, 10.000882, 9.998238 
2.4949512e+3, 2.723865e+2, -427314.66, -371312.8, -27331.756, -0.00017821687, -0.05920075, -360184.78, -89581.74, 0.0, 9.998943, 9.999467 
2.4945635e+3, 2.823791e+2, -669403.5, -595372.1, -49684.023, -0.042583153, 0.040564258, -570430.9, -397756.16, 0.0, 9.997181, 9.998206 
2.4941742e+3, 2.923691e+2, 119712.05, 480.02533, -45623.75, -0.17093468, -0.2380305, 135166.64, 209936.31, 0.0, 10.001406, 9.99945 
2.4937876e+3, 3.023602e+2, 99728.67, -386197.44, 8203.845, -0.14498505, -0.20982383, 99867.14, 99867.14, 0.0, 10.002542, 9.996045 
2.4933985e+3, 3.123524e+2, -375673.94, -293354.9, -25036.334, -0.51926327, -0.01936672, -286338.44, -286338.44, 0.0, 9.99794, 9.998775 
2.5107938e+3, 1.2288886e+2, -1442177.5, -1337815.5, -8393.887, 0.19987783, 0.006318783, -1337144.6, 398532.38, 0.39734322, 10.001142, 10.0037365 
2.5103977e+3, 1.3288216e+2, -1538261.4, -1714242.6, -15561.7705, -0.05086331, 0.111171715, -1536895.9, 100847.21, 0.28406283, 10.00147, 9.9984865 
2.5100067e+3, 1.428702e+2, -1394399.9, -1464127.9, 74901.6, 0.041455243, -0.22071023, -1346645.8, 193214.23, 0.16993596, 10.000817, 10.000071 
2.5096166e+3, 1.5286522e+2, -1261600.1, -1159144.8, 125876.2, -0.07283642, -0.18979241, -1074471.4, 367432.1, 0.078587286, 10.000216, 10.001744 
2.509227e+3, 1.628598e+2, -1322562.4, -1271695.1, 59290.07, -0.13724731, -0.09715678, -1232613.8, 111338.62, 0.024857625, 9.999548, 10.000541 
2.5088382e+3, 1.7285275e+2, -1033332.25, -1010707.06, -23477.371, -0.036264688, -0.2102484, -995958.94, 250060.52, 0.0041356636, 10.000694, 10.001035 
2.508449e+3, 1.8284531e+2, -1067850.6, -1209078.4, -61911.3, 0.015132551, -0.22146948, -1044553.25, 103538.305, 0.00018434241, 10.000723, 9.99904 
2.5080603e+3, 1.928372e+2, -1084607.3, -1130065.8, -45372.4, 0.011356686, -0.264169, -1056589.4, -6415.5815, 0.00000026313862, 9.999949, 9.999194 
2.507671e+3, 2.0282915e+2, -1109137.6, -1255209.8, -116706.984, 0.02875233, -0.17653039, -1044497.3, -92240.61, 0.0, 9.999663, 9.997883 
2.507282e+3, 2.1282117e+2, -802666.06, -994325.06, -102242.0, 0.21456231, -0.106627695, -758364.5, 95976.99, 0.0, 10.001, 9.998262 
2.506892e+3, 2.2281292e+2, -550944.06, -846601.94, -83676.94, 0.2811251, 0.0041763084, -528904.7, 227521.9, 0.0, 10.0018835, 9.998314 
2.5065e+3, 2.3280427e+2, -452439.0, -636761.5, -120390.07, 0.10158195, -0.072731294, -392984.06, 265527.8, 0.0, 10.001547, 9.999153 
2.506109e+3, 2.4279597e+2, -432295.4, -635010.75, -69651.55, -0.028239438, -0.05528852, -410670.5, 149922.97, 0.0, 10.001159, 9.998737 
2.5057212e+3, 2.5278723e+2, -313343.38, -442171.7, -69932.5, -0.01829382, -0.16781165, -282680.0, 179998.63, 0.0, 10.001092, 9.999338 
2.505333e+3, 2.6277933e+2, -256280.75, -450752.0, -124863.82, -0.014011161, -0.1251411, -195257.9, 169498.69, 0.0, 10.001037, 9.998719 
2.5049442e+3, 2.727731e+2, -122998.08, -257527.6, -150136.17, 0.017580034, 0.019981863, -25747.127, 241072.75, 0.0, 10.001079, 9.999288 
2.5045562e+3, 2.8276598e+2, -99276.05, -292862.22, -54948.37, 0.00030838247, 0.15597169, -84766.73, 84124.266, 0.0, 10.000806, 9.998577 
2.5041687e+3, 2.9275614e+2, 58605.344, -79816.21, -50729.746, -0.15890795, -0.090237856, 75206.21, 146191.38, 0.0, 10.000936, 9.99924 
2.5037822e+3, 3.027478e+2, -39758.78, -356721.1, -66282.09, -0.18429236, -0.02708081, -26456.375, -26456.375, 0.0, 10.000982, 9.997038 
2.503393e+3, 3.1274104e+2, 95146.83, -34016.863, -82782.55, -0.2874742, 0.19645225, 135559.11, 135559.11, 0.0, 10.000752, 9.999264 
2.520785e+3, 1.2328276e+2, -1481857.4, -1273135.9, -177572.06, -0.017548962, 0.08898522, -1171528.1, 560287.7, 0.3720952, 10.000045, 10.004755 
2.5203896e+3, 1.3327205e+2, -1638190.3, -1934928.0, -78579.39, -0.25994354, -0.09878851, -1618666.3, 15256.015, 0.26429757, 10.001216, 9.997085 
2.5200018e+3, 1.4326167e+2, -1419166.4, -1464830.6, 16092.738, 0.1627898, -0.2023772, -1414064.9, 121957.94, 0.15642525, 10.00067, 10.000043 
2.519613e+3, 1.5325688e+2, -1256465.8, -1145332.6, 7862.0703, 0.26422888, -0.18630467, -1144779.1, 293281.34, 0.071005836, 10.000366, 10.001667 
2.5192237e+3, 1.632506e+2, -1465296.4, -1558074.4, 11349.268, 0.30453643, -0.08849754, -1463928.3, -123810.89, 0.021693112, 9.999648, 9.998485 
2.5188315e+3, 1.7324093e+2, -1225320.9, -1317345.5, -47000.793, -0.018898265, -0.2623744, -1205559.3, 36657.066, 0.00335279, 10.000498, 9.9989605 
2.5184405e+3, 1.8323219e+2, -1163797.5, -1347847.4, -89785.44, -0.16532643, -0.2446981, -1127253.3, 17051.387, 0.00011963712, 10.000502, 9.998174 
2.5180525e+3, 1.932245e+2, -996750.75, -1108324.6, -88162.09, -0.016658729, -0.25494415, -948207.75, 98172.55, 0.00000002568285, 10.000641, 9.998979 
2.5176644e+3, 2.0321748e+2, -1063439.4, -1231099.1, -84103.516, 0.15220487, -0.06086725, -1028522.2, -80069.82, 0.0, 10.000006, 9.997874 
2.5172758e+3, 2.1321087e+2, -867653.0, -966942.25, -84028.27, 0.27476314, 0.07002765, -819699.75, 30826.596, 0.0, 10.000305, 9.998767 
2.516886e+3, 2.2320263e+2, -908408.4, -1132554.3, -96087.945, 0.26507008, 0.19395177, -872855.94, -120243.92, 0.0, 10.000078, 9.997165 
2.516492e+3, 2.3319118e+2, -637934.44, -835780.5, -139486.9, -0.06976497, -0.09264195, -565853.5, 88868.76, 0.0, 10.00087, 9.998063 
2.5161007e+3, 2.4318157e+2, -649550.0, -839182.06, -81137.43, -0.2313943, -0.097329564, -619572.75, -62756.48, 0.0, 10.000244, 9.997754 
2.5157142e+3, 2.5317472e+2, -468801.06, -554772.94, -77385.53, -0.07760714, -0.0045332387, -423264.06, 35622.695, 0.0, 10.000316, 9.998901 
2.515327e+3, 2.6316717e+2, -513212.78, -671228.06, -141611.22, 0.0056017255, 0.14671864, -430060.2, -69096.5, 0.0, 9.999842, 9.997739 
2.5149375e+3, 2.7315778e+2, -273686.94, -372962.13, -151467.28, -0.032261446, -0.014459897, -163931.22, 99126.94, 0.0, 10.000376, 9.998754 
2.5145492e+3, 2.8314927e+2, -287126.28, -423991.13, -76800.234, -0.10604286, 0.030488199, -252693.39, -87549.87, 0.0, 9.999877, 9.9980755 
2.5141627e+3, 2.9314256e+2, -70106.64, -141707.95, -35384.11, -0.17832692, 0.08844632, -55571.203, 11639.247, 0.0, 10.000223, 9.999093 
2.5137767e+3, 3.0313674e+2, -61113.75, -130595.88, -69902.266, -0.11822607, 0.34174156, -17795.424, -17795.424, 0.0, 9.999979, 9.9990225 
2.5133842e+3, 3.1312516e+2, 140435.05, 308024.03, 75778.14, -0.68224096, -0.22851393, 337206.72, 337206.72, 0.0, 9.99994, 10.001915 
2.5307766e+3, 1.236695e+2, -1832026.6, -1890809.1, -232165.27, -0.26007515, -0.360998, -1627399.6, 100619.79, 0.34545994, 9.999571, 9.999058 
2.5303844e+3, 1.336612e+2, -1681617.4, -1999113.8, -67104.91, -0.17662951, -0.21738777, -1668016.9, -37911.0, 0.24384509, 10.000986, 9.996793 
2.5299966e+3, 1.4365295e+2, -1482473.3, -1582542.9, -5785.239, 0.22161405, -0.0519872, -1482139.9, 50046.438, 0.14280653, 10.000551, 9.99919 
2.5296047e+3, 1.5364426e+2, -1238550.0, -1264300.5, -45175.547, 0.040513776, -0.29030192, -1204450.8, 229811.23, 0.06363834, 10.0010605, 10.000451 
2.5292146e+3, 1.6363595e+2, -1298087.0, -1552049.6, -71354.766, -0.005302732, -0.29600796, -1279412.0, 56927.543, 0.0187796, 10.001032, 9.997876 
2.528825e+3, 1.7362723e+2, -1155284.0, -1377868.6, -74201.25, -0.029131271, -0.30779815, -1132816.0, 105615.16, 0.0026956536, 10.001224, 9.998251 
2.528436e+3, 1.83619e+2, -934087.7, -1160285.9, -61242.414, -0.098672405, -0.22693065, -918570.94, 221943.7, 0.00007576087, 10.001726, 9.998856 
2.5280473e+3, 1.9361116e+2, -505422.3, -825352.2, -35431.836, -0.08499616, -0.27824277, -501545.25, 541043.4, 0.00000000011876218, 10.003741, 9.9994545 
2.5276583e+3, 2.0360382e+2, -498366.75, -926176.4, -146530.64, -0.0064777057, -0.14616902, -452990.8, 491671.94, 0.0, 10.003661, 9.998212 
2.527268e+3, 2.1359697e+2, -826567.2, -976295.3, -177156.14, 0.15168865, -0.004238388, -709106.2, 137633.94, 0.0, 10.00059, 9.998613 
2.5268775e+3, 2.2358891e+2, -922172.3, -1035709.06, -77756.76, 0.13654853, 0.10244505, -882666.25, -133841.92, 0.0, 9.999418, 9.998166 
2.526486e+3, 2.3357815e+2, -420995.75, -692067.7, -24223.295, -0.11045058, -0.14108914, -418848.13, 232078.45, 0.0, 10.002032, 9.998561 
2.5260955e+3, 2.4356876e+2, -258452.73, -631049.3, -16377.574, -0.22648728, -0.14451748, -257734.25, 295284.53, 0.0, 10.002721, 9.998 
2.5257072e+3, 2.5356206e+2, -484331.16, -623749.3, -38379.313, -0.0758384, 0.03857665, -474464.3, -19373.62, 0.0, 10.000363, 9.998436 
2.5253192e+3, 2.635545e+2, -566651.94, -648665.6, -16594.129, -0.017443568, 0.20904148, -563421.6, -206251.84, 0.0, 9.999123, 9.998271 
2.52493e+3, 2.7354443e+2, -325904.63, -399961.44, -5109.301, -0.06860392, 0.008157583, -325553.78, -66282.555, 0.0, 9.999879, 9.998865 
2.524542e+3, 2.8353554e+2, -198971.45, -320363.56, 91496.07, -0.10384491, 0.005353849, -149869.78, 11490.371, 0.0, 10.000154, 9.998639 
2.5241557e+3, 2.93529e+2, -109941.96, -161146.19, 81637.72, -0.13876076, 0.10303454, -49985.99, 13438.927, 0.0, 9.999864, 9.999165 
2.5237706e+3, 3.0352274e+2, -72592.71, -65016.895, 20567.514, -0.039422084, 0.30791596, -47891.387, -47891.387, 0.0, 9.999511, 9.99973 
2.5233796e+3, 3.1351322e+2, 52515.277, 336105.13, -89444.984, -0.42617735, -0.06910627, 361959.25, 361959.25, 0.0, 9.998851, 10.002737 
2.5407672e+3, 1.24060065e+2, -1730493.0, -2064558.4, -177013.89, -0.49812108, -0.18955995, -1654145.8, 70044.03, 0.31815657, 10.00143, 9.996785 
2.5403813e+3, 1.340506e+2, -1546431.8, -1858468.8, -149366.36, 0.16326877, -0.2499176, -1486459.4, 139827.23, 0.22319712, 10.001917, 9.997323 
2.5399908e+3, 1.4404309e+2, -1417915.1, -1687473.3, -17986.684, 0.2808621, 0.011083842, -1416720.1, 111639.52, 0.12934339, 10.001656, 9.9979515 
2.5395966e+3, 1.5403089e+2, -1202383.4, -1435769.0, -77180.23, -0.17750403, -0.43190774, -1179169.1, 251302.83, 0.05657354, 10.002136, 9.998734 
2.5392058e+3, 1.6402113e+2, -1245243.0, -1577354.0, -71756.5, -0.2577759, -0.4545985, -1230402.3, 102163.08, 0.016116831, 10.001699, 9.997349 
2.53882e+3, 1.7401402e+2, -1093199.4, -1381848.9, -79082.59, 0.03314603, -0.30949134, -1072952.9, 161688.2, 0.0021455006, 10.001818, 9.997917 
2.5384322e+3, 1.8400648e+2, -975156.7, -1167078.3, 11456.025, 0.108427115, -0.14415738, -974475.25, 162241.11, 0.000046550977, 10.001425, 9.99896 
2.5380433e+3, 1.9399792e+2, -743175.1, -908769.44, 1015.0272, -0.12361115, -0.3207534, -743168.9, 295625.94, 0.0, 10.002003, 9.999727 
2.5376526e+3, 2.0398977e+2, -890557.3, -1178265.8, -267688.03, -0.16329645, -0.24809767, -730518.56, 210356.9, 0.0, 10.001388, 9.997518 
2.5372592e+3, 2.1398163e+2, -992200.3, -1099823.0, -311282.5, -0.02068215, -0.22272484, -730112.2, 112853.32, 0.0, 9.999774, 9.9981 
2.5368685e+3, 2.2397368e+2, -963783.2, -958347.06, -7747.7144, 0.046657596, -0.10383715, -952854.44, -207806.66, 0.0, 9.998848, 9.998945 
2.536481e+3, 2.3396532e+2, -489190.4, -565226.44, 56890.86, -0.058372915, -0.26229107, -458783.72, 188341.73, 0.0, 10.001026, 9.999862 
2.5360918e+3, 2.439574e+2, -549795.3, -855783.4, -109753.7, -0.09538547, -0.1482087, -514499.5, 34704.117, 0.0, 10.001248, 9.997111 
2.5357e+3, 2.5394934e+2, -665508.3, -788058.4, -127010.59, -0.09739138, -0.06279895, -585764.5, -134474.13, 0.0, 9.999557, 9.997644 
2.53531e+3, 2.6394165e+2, -715840.06, -702961.56, -9396.864, -0.11018948, 0.13902505, -698009.4, -344637.34, 0.0, 9.998176, 9.998309 
2.5349224e+3, 2.73934e+2, -418907.5, -381472.38, 35128.65, -0.105232015, 0.097916186, -360385.8, -104935.93, 0.0, 9.999086, 9.999336 
2.534535e+3, 2.8392565e+2, -385968.4, -453681.72, 79086.484, -0.13602251, 0.1508324, -333796.3, -176265.17, 0.0, 9.999167, 9.998182 
2.5341475e+3, 2.9391488e+2, -241238.58, -228955.61, 105835.6, -0.26558664, -0.1910851, -129083.445, -69453.016, 0.0, 9.999091, 9.999037 
2.533762e+3, 3.0390492e+2, -440872.56, -519890.88, 1413.7046, -0.16503529, -0.2313737, -440847.28, -440847.28, 0.0, 9.998335, 9.99713 
2.5333756e+3, 3.139009e+2, -299627.16, 16989.3, -62379.67, -0.044401903, 0.1905017, 28836.057, 28836.057, 0.0, 9.997218, 10.001304 
2.5507626e+3, 1.24445274e+2, -1442372.6, -1726370.4, 127913.484, -0.67253035, -0.14470161, -1393254.9, 327172.22, 0.29081753, 10.003282, 9.998319 
2.550378e+3, 1.344378e+2, -1175430.8, -1388809.3, -131196.27, 0.23245618, -0.28086644, -1113019.3, 509469.16, 0.2027681, 10.003658, 10.0001 
2.5499848e+3, 1.444291e+2, -1208092.4, -1657918.0, -21796.352, 0.041882627, -0.2463512, -1207038.6, 317530.8, 0.11625642, 10.003578, 9.99724 
2.5495946e+3, 1.5441936e+2, -1052108.3, -1502434.3, -57798.84, 0.041163616, -0.32661325, -1044808.2, 381860.34, 0.04988728, 10.003738, 9.997528 
2.5492048e+3, 1.6441047e+2, -933619.3, -1334627.8, -58047.48, 0.0048122844, -0.22766776, -925385.8, 403371.1, 0.013707004, 10.003464, 9.998179 
2.5488153e+3, 1.7440245e+2, -767630.6, -1151818.3, -13314.668, -0.0054533887, -0.21653377, -767169.75, 463666.0, 0.0016894786, 10.003722, 9.998604 
2.548426e+3, 1.843941e+2, -856503.3, -1165979.9, -17363.855, -0.057874624, -0.13653214, -855532.1, 277384.94, 0.000027889511, 10.0024185, 9.998503 
2.5480363e+3, 1.9438492e+2, -1189766.9, -1230486.3, -58292.395, -0.16954741, -0.265164, -1148380.9, -113375.805, 0.0, 9.999339, 9.9988365 
2.547645e+3, 2.0437637e+2, -1234747.4, -1241736.3, -271532.16, -0.18182102, -0.22917062, -966687.1, -29597.842, 0.0, 9.998494, 9.998497 
2.547252e+3, 2.1436784e+2, -790260.3, -946890.56, -249969.36, -0.05222382, -0.28458244, -606625.2, 232551.89, 0.0, 10.000791, 9.998708 
2.5468615e+3, 2.2436012e+2, -554726.7, -727696.6, 26054.834, -0.014919147, -0.18899243, -550887.25, 190368.95, 0.0, 10.001456, 9.999286 
2.546474e+3, 2.3435296e+2, -609941.4, -655139.5, 3402.794, -0.09650533, -0.17933142, -609686.6, 33640.598, 0.0, 10.000271, 9.999644 
2.546085e+3, 2.4434538e+2, -591013.6, -731236.56, -197758.66, -0.108472854, -0.09281996, -451305.88, 94096.016, 0.0, 10.000179, 9.998557 
2.5456932e+3, 2.5433654e+2, -342206.7, -542873.3, -132169.45, -0.06366607, -0.16433117, -276601.66, 170887.67, 0.0, 10.001193, 9.998648 
2.545303e+3, 2.6432854e+2, -273709.3, -475758.2, 32769.926, -0.064474426, -0.043857317, -268527.3, 81044.414, 0.0, 10.001059, 9.99852 
2.5449148e+3, 2.743217e+2, -343787.47, -416848.38, -28070.254, -0.062459394, 0.0768425, -334248.28, -82602.484, 0.0, 9.999796, 9.998826 
2.5445274e+3, 2.8431353e+2, -305459.2, -357599.56, 29618.014, -0.11121609, 0.14554329, -292072.03, -138345.6, 0.0, 9.999322, 9.998827 
2.5441393e+3, 2.9430223e+2, -107429.74, -153355.4, 25780.469, -0.28561184, -0.25364876, -95868.32, -40038.56, 0.0, 9.999832, 9.999277 
2.5437546e+3, 3.0429232e+2, -224002.31, -369109.44, -7297.3667, -0.04059459, -0.3289157, -223636.27, -223636.27, 0.0, 9.999432, 9.997731 
2.5433663e+3, 3.142873e+2, -460260.47, -302366.75, -24263.092, -0.0054980693, 0.05906272, -298722.4, -298722.4, 0.0, 9.9968815, 9.999392 
2.5607657e+3, 1.2483759e+2, -1560940.0, -1462031.4, -221561.28, 0.06971092, 0.398184, -1284472.1, 432119.1, 0.26403108, 10.000266, 10.002139 
2.5603738e+3, 1.3482533e+2, -1185442.6, -1243692.8, -99262.23, 0.20020084, -0.3817565, -1111120.8, 507565.8, 0.18292536, 10.00278, 10.001683 
2.5599808e+3, 1.4481604e+2, -1302107.3, -1802606.8, 6749.779, 0.008144142, -0.42486185, -1302016.3, 218755.23, 0.1037245, 10.0032625, 9.996372 
2.5595945e+3, 1.548089e+2, -1192341.3, -1696178.1, -33690.17, 0.3751617, -0.17941357, -1190098.5, 232756.66, 0.043632858, 10.003246, 9.996417 
2.5592047e+3, 1.6480085e+2, -1009584.7, -1294270.6, 13105.999, 0.39325714, 0.034909338, -1008982.6, 315955.4, 0.011545959, 10.002699, 9.998776 
2.5588116e+3, 1.7479138e+2, -949622.9, -1186798.8, -14026.731, -0.019829554, -0.167054, -948796.2, 278228.7, 0.0013158798, 10.002327, 9.998998 
2.558419e+3, 1.8478203e+2, -1089743.0, -1404253.9, -117774.28, -0.20451444, -0.14792101, -1050529.5, 78585.85, 0.000016496271, 10.001498, 9.997278 
2.558028e+3, 1.9477208e+2, -1205993.3, -1409402.0, -166414.11, -0.16101609, -0.24141832, -1112665.8, -81449.46, 0.0, 10.000048, 9.997263 
2.557637e+3, 2.0476335e+2, -1082696.0, -1057597.1, -189652.03, -0.06925612, -0.17023416, -880079.75, 53221.902, 0.0, 9.999202, 9.999389 
2.5572455e+3, 2.1475531e+2, -844334.5, -864795.2, -182992.0, 0.010058274, -0.30094364, -671287.06, 164089.83, 0.0, 10.000097, 9.999574 
2.556855e+3, 2.2474808e+2, -824712.75, -1007696.75, -15787.599, -0.012840058, -0.12188806, -823360.56, -85909.68, 0.0, 10.000362, 9.99784 
2.556466e+3, 2.3474094e+2, -850058.3, -932196.75, -49333.023, -0.1940561, -0.013921696, -826937.0, -187406.31, 0.0, 9.9994, 9.998117 
2.5560772e+3, 2.447331e+2, -617407.0, -525153.6, -172562.17, -0.16631563, 0.040281635, -392659.56, 148946.77, 0.0, 9.999185, 10.000401 
2.555688e+3, 2.5472373e+2, -353441.56, -323554.53, -104521.54, 0.018452264, -0.32889265, -232913.67, 210772.22, 0.0, 10.000271, 10.000557 
2.5552982e+3, 2.6471528e+2, -562573.9, -798864.3, -30369.861, 0.06749051, -0.26011646, -558732.94, -212963.73, 0.0, 10.000042, 9.996706 
2.5549078e+3, 2.747068e+2, -584161.8, -740591.3, -66104.26, -0.02985102, -0.16158172, -559968.94, -312103.34, 0.0, 9.99916, 9.996857 
2.5545195e+3, 2.8469893e+2, -400452.44, -384225.3, 23907.633, -0.1276809, 0.033957142, -367092.0, -217142.34, 0.0, 9.998707, 9.998891 
2.554133e+3, 2.9469174e+2, -194907.64, -201747.97, 42171.105, -0.24110103, 0.004466354, -156018.23, -103998.95, 0.0, 9.999337, 9.999138 
2.5537482e+3, 3.0468568e+2, -150122.86, -73237.0, -137719.19, 0.1005827, 0.21779181, 31304.096, 31304.096, 0.0, 9.999015, 9.999859 
2.5533572e+3, 3.146732e+2, -455938.53, -104419.766, 33805.777, 0.013569278, -0.4342646, -101198.164, -101198.164, 0.0, 9.996341, 10.000887 
2.5707582e+3, 1.2522358e+2, -1868381.1, -1645792.4, 24235.434, 0.06247968, -0.10253725, -1643184.1, 69616.4, 0.23823552, 9.998098, 10.001394 
2.5703686e+3, 1.3521522e+2, -1336263.3, -1395438.3, 21620.44, 0.16523981, -0.3916753, -1329205.6, 285660.38, 0.16394834, 10.001871, 10.000783 
2.569978e+3, 1.452064e+2, -1280125.3, -1658424.6, 43693.094, 0.08200155, -0.38948533, -1275144.4, 241803.3, 0.09188186, 10.002807, 9.997598 
2.5695887e+3, 1.5519924e+2, -1138373.3, -1546762.3, 84657.78, 0.20533192, -0.2335783, -1121519.5, 297505.16, 0.03784501, 10.00304, 9.997581 
2.5691986e+3, 1.6519074e+2, -1149116.0, -1504179.5, 55475.066, 0.21589471, -0.053065196, -1140650.4, 180461.13, 0.009625426, 10.002315, 9.997521 
2.568806e+3, 1.7518024e+2, -1263308.0, -1516036.3, 983.4452, 0.028325802, -0.18104419, -1263304.1, -40090.324, 0.0010124295, 10.000882, 9.9974575 
2.5684142e+3, 1.8517023e+2, -1073316.3, -1344267.3, -63778.8, -0.1298479, -0.1687632, -1059054.1, 66258.086, 0.000009793076, 10.001332, 9.9977865 
2.5680232e+3, 1.9516006e+2, -655609.9, -1119369.9, -33086.28, -0.17212306, -0.27730376, -653261.25, 374152.13, 0.0, 10.003613, 9.997577 
2.5676316e+3, 2.0515124e+2, -451636.2, -791257.44, -145210.06, -0.112703405, -0.21345949, -398015.38, 531484.56, 0.0, 10.003604, 9.99912 
2.56724e+3, 2.1514344e+2, -629540.2, -840500.25, -179985.94, 0.04239589, -0.22748771, -526403.4, 305171.13, 0.0, 10.001782, 9.998984 
2.56685e+3, 2.2513554e+2, -697500.5, -913542.56, -11902.822, 0.05700639, -0.10947848, -696846.7, 36808.105, 0.0, 10.000943, 9.998249 
2.5664607e+3, 2.351271e+2, -629366.6, -838466.3, 14131.33, -0.04919512, -0.103219256, -628415.94, 7329.305, 0.0, 10.000791, 9.998156 
2.5660712e+3, 2.4511912e+2, -376791.88, -411073.56, -120621.586, -0.0715347, -0.059835125, -272099.3, 265724.1, 0.0, 10.000766, 10.000421 
2.565681e+3, 2.5511092e+2, -261092.88, -316747.63, -215741.28, 0.0012325607, -0.25537893, -71391.72, 368503.2, 0.0, 10.000959, 10.0002985 
2.5652912e+3, 2.6510245e+2, -297242.8, -642215.25, -167174.14, 0.016409002, -0.21505228, -229523.52, 112454.58, 0.0, 10.0015745, 9.997067 
2.5649017e+3, 2.7509287e+2, -47229.17, -489332.1, -103424.46, -0.009326198, -0.22383316, -24230.701, 219851.58, 0.0, 10.002697, 9.996902 
2.564513e+3, 2.8508514e+2, 32001.303, -126645.62, 21949.07, -0.05698175, -0.046607215, 34981.992, 181145.48, 0.0, 10.001389, 9.999369 
2.5641263e+3, 2.9507965e+2, -360089.72, -290620.2, 13261.826, -0.081032075, 0.1192557, -288174.56, -239956.86, 0.0, 9.998123, 9.999139 
2.5637397e+3, 3.0507374e+2, -237903.14, -92530.88, -153154.67, 0.10751537, 0.33870807, 4310.6514, 4310.6514, 0.0, 9.998173, 10.000173 
2.563346e+3, 3.1506273e+2, 269598.72, 389435.75, -56497.87, -0.24082994, -0.14564753, 411871.56, 411871.56, 0.0, 10.000461, 10.002358 
2.5807527e+3, 1.2561183e+2, -1721975.3, -1750233.8, 74850.91, 0.31528983, -0.22537346, -1659931.8, 49054.566, 0.21373183, 9.99993, 9.999664 
2.580364e+3, 1.3560545e+2, -1402243.5, -1522174.6, -27141.244, 0.25741023, -0.29724708, -1396387.3, 214657.28, 0.14603193, 10.0017185, 9.999806 
2.5799748e+3, 1.4559706e+2, -1291974.6, -1505699.3, -59293.566, 0.23707192, -0.28927785, -1276627.0, 236496.06, 0.080827504, 10.002079, 9.998975 
2.5795826e+3, 1.5558949e+2, -1156931.0, -1454143.4, -82405.516, 0.044637688, -0.32213783, -1135612.3, 279582.72, 0.032553293, 10.002517, 9.99845 
2.5791916e+3, 1.6558033e+2, -1235857.3, -1731394.8, -90624.445, 0.048137322, -0.17126524, -1219803.9, 97483.2, 0.007938516, 10.002552, 9.995802 
2.578801e+3, 1.7556912e+2, -1260383.4, -1717514.3, -88735.97, 0.15853167, -0.23302853, -1243762.6, -24359.988, 0.00076767127, 10.001816, 9.995591 
2.5784105e+3, 1.8555884e+2, -978773.3, -1228255.9, 23800.389, 0.082364604, -0.18190537, -976523.1, 144981.58, 0.000005913737, 10.001791, 9.99831 
2.5780192e+3, 1.9554889e+2, -847463.5, -1156842.0, 5519.0225, -0.13299619, -0.35955974, -847365.06, 176235.06, 0.0, 10.002206, 9.997933 
2.5776273e+3, 2.0554022e+2, -787821.94, -1124255.6, -207427.89, -0.10598744, -0.21578968, -688974.7, 236711.6, 0.0, 10.002103, 9.997521 
2.5772345e+3, 2.1553193e+2, -892834.1, -1146975.8, -230909.36, 0.10323493, -0.1644805, -756340.7, 71430.63, 0.0, 10.000803, 9.99733 
2.5768447e+3, 2.2552285e+2, -792114.5, -863673.3, 2020.3463, 0.22805217, -0.11608087, -792057.5, -62195.848, 0.0, 10.000111, 9.998921 
2.576457e+3, 2.3551248e+2, -748823.9, -840470.0, 8400.128, 0.2641342, -0.39358968, -748060.25, -116097.2, 0.0, 9.999921, 9.9985075 
2.5760663e+3, 2.4550477e+2, -679080.8, -816904.75, -109748.9, 0.11474869, -0.20884272, -618402.4, -84359.41, 0.0, 9.999966, 9.997965 
2.575673e+3, 2.5549823e+2, -588989.4, -753751.06, -182705.0, -0.16952477, -0.031032054, -470951.34, -34837.707, 0.0, 10.000034, 9.997707 
2.5752833e+3, 2.6549035e+2, -318824.3, -460162.8, -122919.664, -0.20699409, 0.119220234, -247707.17, 90485.55, 0.0, 10.00071, 9.998716 
2.5748968e+3, 2.754811e+2, -90230.92, -337959.78, -55464.94, -0.058452107, -0.05850133, -78379.63, 161903.19, 0.0, 10.001791, 9.998349 
2.5745082e+3, 2.854727e+2, -62382.29, -127402.06, -95198.79, 0.00840483, -0.034680568, 5704.5547, 148066.19, 0.0, 10.000662, 9.999676 
2.5741178e+3, 2.9546416e+2, -493829.06, -353391.94, -51913.207, -0.03291474, -0.2257962, -336285.66, -291846.88, 0.0, 9.9973, 9.999085 
2.573728e+3, 3.054562e+2, -497223.4, -500146.06, -5793.9375, -0.15564127, -0.06950127, -492709.34, -492709.34, 0.0, 9.997728, 9.997551 
2.5733408e+3, 3.1544822e+2, 106552.92, 151758.7, 99889.42, -0.26416233, -0.018315412, 231570.6, 231570.6, 0.0, 10.000206, 10.000814 
2.590747e+3, 1.2599823e+2, -1584739.3, -1748391.6, 14706.103, 0.20306797, -0.3918432, -1583428.3, 121761.836, 0.19077115, 10.001378, 9.998952 
2.590359e+3, 1.3599469e+2, -1507794.3, -1764073.4, -62184.016, 0.25368762, 0.03333125, -1493502.8, 113734.41, 0.12932457, 10.0016775, 9.9980955 
2.5899693e+3, 1.4598538e+2, -1347264.9, -1547038.4, -154838.11, 0.20716402, 0.021284483, -1262890.4, 246439.88, 0.07062259, 10.001681, 9.998919 
2.5895783e+3, 1.5597539e+2, -1165737.6, -1464079.8, -180042.1, 0.048509676, -0.22694057, -1081098.5, 330324.88, 0.027766839, 10.002426, 9.99845 
2.589187e+3, 1.6596617e+2, -917819.94, -1297168.6, -180246.95, -0.031435654, -0.23371775, -845835.5, 467674.8, 0.0064744665, 10.003482, 9.998363 
2.5887963e+3, 1.7595664e+2, -703265.75, -1216277.0, -43011.41, 0.004921938, -0.34175858, -699684.6, 515917.3, 0.0005723583, 10.004519, 9.997775 
2.5884053e+3, 1.8594813e+2, -723836.8, -1100392.9, -6135.34, -0.02405006, -0.21819533, -723736.9, 393949.88, 0.0000035552432, 10.003455, 9.998404 
2.5880137e+3, 1.9593984e+2, -1031290.2, -1253095.1, -20165.7, -0.14017403, -0.1939141, -1029471.75, -9700.615, 0.0, 10.000849, 9.997972 
2.5876212e+3, 2.059309e+2, -972193.06, -1153485.9, -168711.14, -0.09502738, -0.11471683, -871318.7, 50542.03, 0.0, 10.000513, 9.998127 
2.5872287e+3, 2.1592145e+2, -719396.9, -1035312.7, -100301.164, 0.104138896, -0.163088, -690242.44, 133712.94, 0.0, 10.00174, 9.997712 
2.5868386e+3, 2.259123e+2, -456665.47, -693816.8, 118618.695, 0.17904729, -0.13883479, -407519.4, 318526.7, 0.0, 10.002272, 9.99907 
2.5864506e+3, 2.3590286e+2, -378500.25, -678073.1, 94149.82, 0.17316522, -0.2775425, -351368.16, 276770.56, 0.0, 10.002398, 9.998478 
2.5860596e+3, 2.4589477e+2, -363341.44, -635564.6, 1305.7802, 0.058111895, -0.14260098, -363335.16, 166886.78, 0.0, 10.0019, 9.998311 
2.5856665e+3, 2.5588736e+2, -446221.88, -664939.4, 70034.32, -0.152916, -0.009033325, -425718.63, 6583.351, 0.0, 10.000825, 9.997962 
2.5852767e+3, 2.6587975e+2, -295964.84, -289526.03, 214255.56, -0.22088921, 0.106248066, -78465.69, 255910.25, 0.0, 10.000126, 10.000191 
2.5848898e+3, 2.758716e+2, -296810.72, -305809.66, 220214.19, -0.1081405, -0.011141461, -81050.05, 155399.42, 0.0, 9.999713, 9.999624 
2.5845018e+3, 2.8586242e+2, -121711.336, -158803.45, 62174.22, 0.035238344, -0.10858276, -75376.04, 63158.18, 0.0, 10.000167, 9.999725 
2.5841108e+3, 2.9585165e+2, -8711.075, -164318.94, 501.71667, 0.1058364, -0.47091922, -8709.458, 31925.082, 0.0, 10.000678, 9.998805 
2.58372e+3, 3.0584407e+2, -180966.75, -439559.4, 184452.27, -0.14962846, -0.20168352, -85007.266, -85007.266, 0.0, 10.000252, 9.99678 
2.5833407e+3, 3.158319e+2, -320874.88, -247843.98, -271701.34, 0.48388594, -0.40388453, -10215.307, -10215.307, 0.0, 9.997944, 9.999226 
2.600743e+3, 1.2638652e+2, -1617662.0, -2132974.5, -12549.687, 0.31246978, -0.4186736, -1617356.5, 84021.016, 0.16949552, 10.002683, 9.995699 
2.6003537e+3, 1.3638255e+2, -1565051.9, -2064013.9, -87754.836, 0.2674307, 0.2010933, -1550068.0, 53374.164, 0.11391175, 10.002387, 9.9957075 
2.5999638e+3, 1.4637293e+2, -1364569.9, -1568364.8, -78126.84, 0.2051769, 0.27402872, -1338066.0, 167477.33, 0.061296463, 10.001708, 9.998659 
2.5995743e+3, 1.5636083e+2, -1352456.5, -1595538.1, -116001.68, 0.14607297, -0.15987939, -1305983.8, 101673.38, 0.023481611, 10.001345, 9.998028 
2.5991833e+3, 1.6635197e+2, -975664.3, -1006278.1, -112531.83, 0.02506583, -0.2594752, -877403.1, 432332.0, 0.005220199, 10.001735, 10.001221 
2.598792e+3, 1.763446e+2, -932787.06, -1083351.1, -96541.12, -0.10176382, -0.44221127, -885645.4, 326151.16, 0.00041937284, 10.001933, 9.999951 
2.5983998e+3, 1.8633804e+2, -1023264.3, -1283684.9, -142369.11, -0.119672574, -0.2080571, -960540.25, 153322.92, 0.0000020172258, 10.001631, 9.997985 
2.5980073e+3, 1.9633129e+2, -1201070.1, -1407157.9, -147259.17, -0.08718012, -0.009029858, -1124382.8, -108443.55, 0.0, 10.00006, 9.997267 
2.597615e+3, 2.0632222e+2, -961487.3, -1029671.4, -143525.67, -0.0016308436, 0.0349132, -848060.25, 69969.9, 0.0, 10.000213, 9.999066 
2.597223e+3, 2.1631147e+2, -864827.6, -1044530.8, -80651.766, 0.13135147, -0.26399222, -833939.75, -13806.862, 0.0, 10.000635, 9.998125 
2.596832e+3, 2.2630352e+2, -655754.06, -859901.8, 108402.15, 0.03540286, -0.09763781, -608931.6, 113281.46, 0.0, 10.001302, 9.998363 
2.5964418e+3, 2.3629645e+2, -650905.06, -890049.3, 70260.29, -0.17206654, 0.0396971, -631790.5, -7503.41, 0.0, 10.000969, 9.99768 
2.596052e+3, 2.4628797e+2, -443511.47, -498399.03, -48040.664, -0.1307045, 0.09037382, -415628.34, 110741.39, 0.0, 10.000709, 9.999795 
2.5956613e+3, 2.5627816e+2, -556650.9, -592424.0, 29121.05, 0.017211327, -0.19525385, -540361.94, -111899.055, 0.0, 9.999606, 9.999041 
2.595271e+3, 2.6627055e+2, -395846.2, -281103.44, 180767.9, -0.09254644, -0.15423603, -148821.16, 181709.95, 0.0, 9.999328, 10.000587 
2.5948805e+3, 2.762636e+2, -453430.0, -405425.5, 210628.61, -0.29915884, -0.22043021, -217435.95, 15154.567, 0.0, 9.99883, 9.999352 
2.5944933e+3, 2.8625423e+2, -355222.75, -469497.56, 75784.38, -0.060747977, -0.20892793, -317449.9, -182767.22, 0.0, 9.999516, 9.997887 
2.5941068e+3, 2.9624328e+2, -247866.72, -493056.25, 13168.29, 0.30834737, -0.42581016, -247161.52, -210365.56, 0.0, 10.000082, 9.996812 
2.5937152e+3, 3.062366e+2, -172820.45, -327753.22, 86587.46, 0.061000276, -0.02666023, -134104.1, -134104.1, 0.0, 9.999992, 9.997602 
2.5933272e+3, 3.1622797e+2, -306147.28, 11297.59, -214229.77, 0.049015608, -0.00032493673, 119196.99, 119196.99, 0.0, 9.99712, 10.001359 
2.6107395e+3, 1.2677433e+2, -1464962.3, -1921823.3, -120991.484, 0.21448867, -0.31044087, -1434898.3, 262676.4, 0.14988421, 10.003312, 9.996887 
2.6103473e+3, 1.3676472e+2, -1435299.1, -1956846.9, -57702.938, 0.025817161, -0.28767344, -1428991.3, 170695.86, 0.09979623, 10.003139, 9.996108 
2.6099566e+3, 1.4675668e+2, -1310289.0, -1469115.9, -44280.97, -0.017945116, -0.105677605, -1298777.8, 202995.34, 0.05285716, 10.001756, 9.99934 
2.609567e+3, 1.5674844e+2, -1458922.1, -1622786.0, -25387.967, 0.036122017, -0.16631132, -1455078.9, -51224.727, 0.019694533, 10.000415, 9.99833 
2.6091766e+3, 1.6674101e+2, -1313930.4, -1249704.9, -91514.46, 0.003320532, -0.09095249, -1184832.5, 121092.25, 0.004163879, 9.99972, 10.000509 
2.608785e+3, 1.7673394e+2, -1393122.4, -1358513.6, -164193.44, -0.08164419, -0.156585, -1210715.3, -2725.3027, 0.00030229846, 9.998979, 9.999485 
2.6083937e+3, 1.8672632e+2, -1197991.0, -1242407.8, -211658.31, -0.038048364, -0.08803358, -1007379.1, 102686.65, 0.0000010444409, 9.999785, 9.999206 
2.6080024e+3, 1.9671808e+2, -959429.06, -1180971.4, -153561.86, 0.053775042, -0.12223329, -880855.3, 131295.6, 0.0, 10.001096, 9.998375 
2.6076096e+3, 2.0670998e+2, -649501.3, -814104.44, -154953.8, 0.05814642, -0.0787755, -556348.56, 357880.94, 0.0, 10.001938, 9.999759 
2.6072162e+3, 2.1670133e+2, -571010.75, -855265.9, -104203.94, 0.018955883, -0.20394796, -536903.5, 279407.13, 0.0, 10.002272, 9.998682 
2.6068258e+3, 2.2669333e+2, -582048.75, -821687.94, 30371.342, -0.03778851, -0.08601554, -578259.5, 140132.25, 0.0, 10.001668, 9.998501 
2.606436e+3, 2.3668562e+2, -710846.8, -901314.9, 17930.605, -0.12418121, 0.014943116, -709173.56, -88700.56, 0.0, 10.000313, 9.997976 
2.6060453e+3, 2.4667767e+2, -499227.84, -429033.78, -102942.41, -0.086253606, 0.042734254, -355369.88, 167178.81, 0.0, 9.9998455, 10.000698 
2.6056543e+3, 2.5666893e+2, -431911.63, -473092.84, -84475.4, 0.039262507, -0.18097682, -365553.6, 59074.004, 0.0, 10.000064, 9.999688 
2.6052633e+3, 2.6666057e+2, -305126.25, -283336.6, 3880.3801, -0.0764265, -0.23969519, -282666.2, 44035.89, 0.0, 10.000032, 10.000276 
2.6048726e+3, 2.766524e+2, -331672.94, -393344.13, -48225.434, -0.29768348, -0.373034, -305267.56, -76493.1, 0.0, 9.999731, 9.999036 
2.604486e+3, 2.866437e+2, -233150.53, -440359.2, -50925.637, -0.08134215, -0.30164188, -221311.03, -90448.336, 0.0, 10.000425, 9.997655 
2.6041004e+3, 2.9663455e+2, -62794.227, -433576.63, -1813.8701, 0.32976586, -0.26947933, -62785.35, -29824.137, 0.0, 10.001373, 9.996625 
2.6037097e+3, 3.0662686e+2, 159393.34, -58621.863, 64434.99, 0.16368213, -0.034933478, 177013.25, 177013.25, 0.0, 10.001598, 9.998739 
2.6033136e+3, 3.166135e+2, 283264.84, 345088.34, -82760.414, -0.4675927, -0.56810623, 402521.5, 402521.5, 0.0, 10.000786, 10.001897 
2.6207352e+3, 1.2716092e+2, -1474332.9, -1783699.1, -54940.363, 0.18107504, -0.33825442, -1464865.6, 228918.92, 0.13183987, 10.002738, 9.998 
2.6203412e+3, 1.3714813e+2, -1438064.1, -1863763.6, -85043.27, -0.11932506, -0.7469424, -1421703.5, 174216.27, 0.08692974, 10.00279, 9.996869 
2.6199502e+3, 1.4714162e+2, -1220411.5, -1405207.1, -72552.57, -0.11882217, -0.4634827, -1195330.6, 302659.53, 0.045284748, 10.002223, 9.999609 
2.6195604e+3, 1.5713732e+2, -1383446.0, -1600565.3, -88599.984, 0.03162877, -0.1660146, -1351880.1, 48156.98, 0.01638905, 10.000988, 9.998236 
2.619169e+3, 1.6713102e+2, -1343763.9, -1435211.0, -79123.984, 0.056925923, 0.1152817, -1298102.3, 4001.877, 0.0032885466, 10.000323, 9.998925 
2.618778e+3, 1.7712353e+2, -1459519.5, -1534315.4, -122145.03, 0.04880112, 0.1636582, -1369175.5, -164992.69, 0.00021471751, 9.999177, 9.998195 
2.6183882e+3, 1.8711416e+2, -1090921.8, -1031990.0, -109885.984, 0.15649737, 0.029671405, -947687.8, 158585.48, 0.00000047553752, 9.999871, 10.000598 
2.6179984e+3, 1.9710393e+2, -1017061.5, -1109405.9, -112289.2, 0.30047664, -0.35454044, -941822.25, 66547.63, 0.0, 10.000354, 9.999218 
2.6176047e+3, 2.0709716e+2, -741986.2, -829500.94, -139245.81, 0.1427387, -0.22385222, -639784.3, 270648.47, 0.0, 10.001262, 9.999945 
2.6172096e+3, 2.1709144e+2, -802041.06, -982585.6, -115232.23, -0.12532677, -0.09659013, -745931.8, 66553.56, 0.0, 10.000864, 9.998471 
2.6168194e+3, 2.2708265e+2, -710949.6, -827532.2, -20129.715, -0.034665853, -0.06569371, -707571.8, 7001.8916, 0.0, 10.0007, 9.998868 
2.6164317e+3, 2.3707244e+2, -935418.9, -1002411.7, -26774.34, 0.18242027, -0.27440372, -926033.2, -309354.63, 0.0, 9.998909, 9.997917 
2.616039e+3, 2.4706571e+2, -622609.6, -494287.03, -85613.02, 0.068989776, -0.11677767, -451461.13, 67281.11, 0.0, 9.999164, 10.000517 
2.615645e+3, 2.5706e+2, -666606.5, -681319.06, -74501.33, -0.15280405, -0.036516, -599099.2, -178306.5, 0.0, 9.998998, 9.998732 
2.6152548e+3, 2.6705024e+2, -504823.22, -535843.0, -12943.206, -0.19614899, -0.11066269, -500132.03, -177246.52, 0.0, 9.999418, 9.998787 
2.6148662e+3, 2.770385e+2, -564135.3, -651316.8, -46264.8, -0.187531, -0.48630786, -544160.44, -319161.7, 0.0, 9.998862, 9.997646 
2.6144782e+3, 2.870312e+2, -178779.55, -192251.61, -15435.539, -0.18332514, -0.33059213, -168674.27, -41602.734, 0.0, 9.999992, 9.999505 
2.6140904e+3, 2.9702535e+2, -70569.484, -289123.28, 55561.66, -0.14686488, -0.17578277, -57255.44, -28124.475, 0.0, 10.0007925, 9.997876 
2.6137024e+3, 3.0701548e+2, 131954.14, 26214.086, 37794.785, -0.014041369, -0.26274773, 144074.0, 144074.0, 0.0, 10.001081, 9.999553 
2.6133072e+3, 3.1700665e+2, 203486.86, 316028.84, 4375.6885, -0.6048555, -0.43201584, 316198.7, 316198.7, 0.0, 10.000359, 10.001896 
2.6307315e+3, 1.2755199e+2, -1539950.8, -1830131.5, -40966.848, 0.15062454, -0.14702703, -1534278.0, 155678.75, 0.11528824, 10.002222, 9.997938 
2.6303375e+3, 1.3754001e+2, -1429143.3, -1853182.4, -29874.387, -0.13236488, -0.470213, -1427048.9, 165034.73, 0.07524984, 10.002717, 9.997009 
2.6299462e+3, 1.4753293e+2, -1150711.8, -1363394.5, -63882.58, -0.06174652, -0.25795817, -1132998.8, 361158.66, 0.038529176, 10.002652, 9.999706 
2.629557e+3, 1.5752731e+2, -1155355.5, -1453452.5, -60832.81, 0.17439677, -0.09116008, -1143419.3, 252795.55, 0.013527696, 10.002362, 9.998604 
2.6291642e+3, 1.6751906e+2, -1073362.9, -1250953.9, -53546.4, 0.101812825, -0.053213622, -1058467.3, 239828.6, 0.0025719018, 10.001865, 9.999491 
2.6287702e+3, 1.7750987e+2, -1169184.4, -1350983.6, 5957.7744, -0.09474769, -0.19909547, -1168989.4, 31396.516, 0.00015054179, 10.000858, 9.998682 
2.62838e+3, 1.875021e+2, -942203.75, -1013160.5, 11682.907, 0.016746754, -0.15964776, -940329.7, 162132.78, 0.0000001940375, 10.001033, 10.000198 
2.627991e+3, 1.974943e+2, -903748.7, -1067147.0, -30693.49, 0.19187088, -0.24188705, -898173.3, 106365.68, 0.0, 10.001042, 9.999222 
2.6275977e+3, 2.0748685e+2, -748786.75, -811487.3, -101260.5, 0.04741965, -0.19210537, -674134.56, 232475.25, 0.0, 10.001091, 10.000166 
2.6272023e+3, 2.1747963e+2, -698251.3, -878519.8, -63589.81, -0.22856633, -0.20510927, -678077.6, 130600.1, 0.0, 10.001227, 9.999039 
2.6268125e+3, 2.2747149e+2, -622398.94, -721059.9, -11744.515, -0.089074396, -0.17442515, -621020.2, 89739.016, 0.0, 10.000939, 9.999513 
2.6264244e+3, 2.3746262e+2, -661845.94, -807786.9, 325.18906, 0.2032872, -0.27623188, -661845.2, -48995.867, 0.0, 10.000366, 9.998588 
2.6260322e+3, 2.474547e+2, -453335.7, -514406.2, -51998.605, 0.11716641, -0.22016199, -423569.56, 91355.39, 0.0, 10.000633, 9.9997225 
2.625638e+3, 2.5744736e+2, -391199.6, -591299.8, -73312.914, -0.13415733, -0.19948421, -367214.2, 49778.145, 0.0, 10.000925, 9.998458 
2.6252478e+3, 2.6743835e+2, -394898.34, -531114.9, -7050.0938, -0.16064528, -0.17430463, -394534.44, -75452.97, 0.0, 10.000252, 9.998472 
2.6248595e+3, 2.774281e+2, -505715.44, -611019.94, 36177.01, -0.082285784, -0.33251035, -494484.72, -273300.0, 0.0, 9.999041, 9.997893 
2.624471e+3, 2.8742045e+2, -171041.31, -116976.58, 76041.99, -0.1702188, -0.2631755, -63304.957, 59955.0, 0.0, 9.999601, 10.00027 
2.6240826e+3, 2.974142e+2, -18998.438, -152059.02, 14225.435, -0.30980363, -0.19951655, -17494.602, 7825.2783, 0.0, 10.000559, 9.998976 
2.6236954e+3, 3.0740473e+2, 48206.15, -85039.18, -142763.73, -0.060849093, -0.28450036, 139127.33, 139127.33, 0.0, 10.000738, 9.998996 
2.623308e+3, 3.17396e+2, 78543.26, 348681.94, -164279.3, 0.20242892, -0.3584571, 426289.38, 426289.38, 0.0, 9.998905, 10.002896 
2.6407278e+3, 1.2794206e+2, -1640995.8, -1882750.6, -106606.62, 0.28857777, -0.037156966, -1600701.5, 85437.29, 0.10017185, 10.001397, 9.998016 
2.6403332e+3, 1.3793248e+2, -1516173.6, -1886351.4, -118479.81, -0.04680841, -0.14098623, -1481500.4, 106741.96, 0.06469282, 10.002064, 9.997101 
2.6399428e+3, 1.4792486e+2, -1269917.4, -1411965.6, -102560.016, 0.08034767, -0.009334024, -1216189.9, 274129.72, 0.032530583, 10.001808, 9.999723 
2.6395535e+3, 1.5791705e+2, -1372583.4, -1563922.0, -120593.73, 0.3827238, -0.07274306, -1314319.4, 78076.01, 0.011066901, 10.000924, 9.998515 
2.6391593e+3, 1.6790675e+2, -1037711.5, -1133926.0, -103065.766, 0.18622121, -0.30282548, -972078.44, 322410.94, 0.0019930317, 10.001722, 10.000326 
2.6387626e+3, 1.778959e+2, -1064590.5, -1304789.5, -75146.72, -0.1936932, -0.69661146, -1043018.1, 153569.38, 0.00010503105, 10.001628, 9.99863 
2.6383722e+3, 1.8789063e+2, -957280.1, -1084539.4, -15341.821, -0.15325838, -0.3733996, -955456.75, 143185.23, 0.00000008640195, 10.001408, 9.9994135 
2.6379833e+3, 1.9788669e+2, -1083221.9, -1258628.6, -69634.695, 0.045587067, -0.007255618, -1058939.1, -58252.37, 0.0, 10.000418, 9.998152 
2.6375902e+3, 2.0787768e+2, -790102.25, -825692.6, -106639.81, -0.053696066, -0.08157386, -699783.06, 202991.97, 0.0, 10.000814, 10.000194 
2.637196e+3, 2.1786714e+2, -901556.0, -1004587.5, -98932.11, -0.23696339, -0.44772232, -841530.56, -36654.355, 0.0, 10.0000105, 9.99877 
2.6368052e+3, 2.2786072e+2, -704773.6, -693983.1, -53771.43, -0.14222558, -0.278207, -645336.94, 61603.03, 0.0, 10.000158, 10.000031 
2.636416e+3, 2.3785514e+2, -915807.06, -982408.6, -30835.99, 0.0641831, -0.12503792, -903722.8, -294726.2, 0.0, 9.998931, 9.998073 
2.636025e+3, 2.4784422e+2, -645035.2, -742300.56, -54001.14, 0.092236765, -0.26947525, -620995.6, -109894.19, 0.0, 9.999997, 9.998426 
2.635633e+3, 2.578318e+2, -652012.4, -851093.44, -80718.87, 0.028400514, -0.6570672, -623397.4, -210177.52, 0.0, 9.999808, 9.997208 
2.635242e+3, 2.678258e+2, -454528.22, -476880.25, -63294.13, -0.01714214, -0.3329173, -401431.0, -86149.14, 0.0, 9.999621, 9.999094 
2.6348516e+3, 2.7782127e+2, -715646.94, -745100.3, 18611.188, -0.041530207, 0.0091781095, -706640.7, -489309.5, 0.0, 9.997861, 9.997533 
2.6344642e+3, 2.8781125e+2, -357138.06, -321586.5, 105938.62, -0.07738362, -0.074205905, -231942.69, -112512.484, 0.0, 9.998914, 9.999157 
2.6340768e+3, 2.9780003e+2, -306093.2, -485728.5, 20150.451, -0.19778088, -0.41742617, -303860.6, -282320.78, 0.0, 9.999525, 9.997166 
2.6336882e+3, 3.07795e+2, -194546.69, -455351.06, -198790.05, -0.10437544, 0.13651986, -87204.87, -87204.87, 0.0, 10.000298, 9.99659 
2.6332963e+3, 3.1778282e+2, -461885.4, -561922.06, -289703.56, -0.16136567, -0.046335, -217913.95, -217913.95, 0.0, 9.99815, 9.996948 
2.6507223e+3, 1.2832348e+2, -1666674.5, -1690660.9, -162824.73, 0.2677654, -0.4933311, -1515401.9, 167000.72, 0.08643013, 10.000327, 9.999896 
2.6503277e+3, 1.3831931e+2, -1457382.1, -1690244.9, -94758.34, -0.1267735, -0.2210355, -1423695.5, 160753.34, 0.055199515, 10.001685, 9.99867 
2.6499346e+3, 1.4831273e+2, -1340409.5, -1392147.5, -147601.56, -0.14249232, -0.08738477, -1216427.1, 270088.38, 0.027235242, 10.0010195, 10.000262 
2.649543e+3, 1.5830459e+2, -1513808.8, -1593607.9, -91342.67, -0.0128312465, -0.21914238, -1454031.5, -65435.734, 0.0089680515, 9.999713, 9.998908 
2.6491526e+3, 1.6829562e+2, -1042838.25, -1170512.6, -50475.867, 0.06801699, -0.31162757, -1025293.6, 265385.03, 0.0015322798, 10.001894, 9.99996 
2.6487616e+3, 1.7828621e+2, -674168.1, -1105443.4, -99660.52, 0.0329216, -0.5204253, -652251.94, 540512.5, 0.00007382683, 10.004211, 9.998752 
2.648368e+3, 1.8827948e+2, -640813.0, -896812.0, -129093.98, -0.11285687, -0.37791225, -587018.3, 507812.0, 0.000000036839044, 10.003379, 9.999785 
2.6479742e+3, 1.9827369e+2, -896112.2, -1127818.6, -111757.125, -0.27834195, -0.20784095, -850994.5, 145894.94, 0.0, 10.001428, 9.998586 
2.6475826e+3, 2.0826526e+2, -760674.44, -887330.7, -147643.03, -0.19894809, -0.20830919, -663351.06, 235624.1, 0.0, 10.0012665, 9.999571 
2.647191e+3, 2.1825594e+2, -705692.44, -898660.1, -159963.38, -0.10937997, -0.38494483, -615367.8, 185701.17, 0.0, 10.001196, 9.998948 
2.6467997e+3, 2.2824997e+2, -569862.06, -570473.06, -150931.94, -0.017519588, -0.22862567, -419235.3, 283891.78, 0.0, 10.000719, 10.000665 
2.6464087e+3, 2.3824477e+2, -666504.06, -792720.8, -96808.164, 0.07589527, -0.077341795, -614050.8, -8873.364, 0.0, 10.000167, 9.998833 
2.6460183e+3, 2.4823406e+2, -514395.0, -711838.44, -42855.066, 0.10700832, -0.22320369, -505494.53, 1787.3801, 0.0, 10.000913, 9.998259 
2.645628e+3, 2.582216e+2, -320963.6, -679657.25, -40896.703, 0.10719703, -0.5612732, -316359.8, 93043.83, 0.0, 10.001855, 9.997454 
2.6452363e+3, 2.6821476e+2, -136184.78, -333561.22, -94699.69, 0.06602104, -0.32990098, -98098.02, 213374.11, 0.0, 10.001759, 9.999087 
2.644845e+3, 2.782099e+2, -205350.19, -465572.84, -48571.24, 0.063355856, 0.0043735444, -196579.83, 16942.535, 0.0, 10.0010805, 9.997932 
2.6444575e+3, 2.881996e+2, -135444.31, -288031.34, 96728.5, -0.0051302984, -0.09967795, -88542.44, 27083.395, 0.0, 10.000628, 9.998599 
2.6440698e+3, 2.98188e+2, -209244.39, -446840.34, 40416.855, -0.18625148, -0.39865363, -202557.38, -184815.13, 0.0, 10.000058, 9.997204 
2.6436815e+3, 3.0818528e+2, -162337.42, -390291.88, -19446.785, -0.07538793, 0.35753652, -160690.31, -160690.31, 0.0, 10.000151, 9.997163 
2.6432893e+3, 3.181686e+2, -241048.33, -565578.75, 10450.188, -0.05721896, -0.23588546, -240712.17, -240712.17, 0.0, 9.999913, 9.996125 
2.6607165e+3, 1.2870823e+2, -1275462.0, -1312964.0, 38684.297, 0.3113376, -0.7626846, -1251223.9, 427412.25, 0.073999934, 10.002297, 10.001633 
2.660322e+3, 1.3870773e+2, -1604832.9, -1682494.6, -2287.9744, -0.09013018, -0.29502007, -1604765.6, -24124.69, 0.04671151, 10.000254, 9.999397 
2.6599267e+3, 1.4870134e+2, -1292019.8, -1319920.6, -90469.54, -0.28998008, -0.17008212, -1214431.4, 268273.3, 0.022592498, 10.001255, 10.0006275 
2.6595327e+3, 1.5869312e+2, -1242165.9, -1486649.4, -69267.914, -0.32830027, -0.33186248, -1223904.6, 160882.05, 0.0071954923, 10.001768, 9.998661 
2.6591468e+3, 1.6868551e+2, -1080537.3, -1282373.1, 69099.24, 0.038751822, -0.22172971, -1059147.6, 227712.25, 0.001170623, 10.002072, 9.999101 
2.658762e+3, 1.7867789e+2, -1118950.4, -1373493.4, -49108.07, 0.4469695, -0.18156804, -1109804.8, 79127.57, 0.00005271245, 10.001492, 9.998209 
2.6583648e+3, 1.8866844e+2, -828973.9, -920504.5, -165686.03, 0.018787116, -0.33779305, -702848.75, 388171.78, 0.000000014947995, 10.001837, 10.000358 
2.6579657e+3, 1.986591e+2, -1080274.0, -1255962.8, -146564.33, -0.5249569, -0.56922185, -997244.9, -4136.3364, 0.0, 10.0004225, 9.998194 
2.6575753e+3, 2.0865223e+2, -892353.7, -1029768.4, -126432.54, -0.28673893, -0.35700193, -817165.6, 78017.19, 0.0, 10.00088, 9.998682 
2.6571867e+3, 2.1864568e+2, -972032.6, -1125127.9, -161680.25, 0.13876593, -0.18801595, -869694.7, -72439.19, 0.0, 9.999972, 9.997922 
2.6567948e+3, 2.286393e+2, -598895.25, -503223.97, -160262.19, 0.20716356, -0.08669017, -383810.66, 315505.88, 0.0, 10.000326, 10.001224 
2.6564023e+3, 2.3863293e+2, -846523.9, -878841.7, -106635.484, 0.1894776, -0.12517364, -754829.94, -153454.31, 0.0, 9.9990835, 9.998723 
2.656012e+3, 2.4862503e+2, -587737.8, -698057.0, -17663.91, 0.14239216, -0.020303277, -584978.56, -81522.13, 0.0, 10.000303, 9.998601 
2.6556218e+3, 2.5861606e+2, -605235.8, -873844.0, -29025.484, 0.062316652, -0.054067645, -602135.2, -196586.77, 0.0, 10.000307, 9.996831 
2.6552305e+3, 2.6860487e+2, -319230.5, -482741.47, -112028.07, 0.07104441, -0.19661905, -262298.38, 45356.605, 0.0, 10.000972, 9.998341 
2.6548395e+3, 2.7859375e+2, -448677.7, -677290.06, -37909.39, 0.120404884, -0.4373224, -442555.34, -232794.64, 0.0, 10.000001, 9.996947 
2.6544505e+3, 2.8858593e+2, -183996.08, -281737.9, 79876.74, -0.07939155, -0.2824841, -139225.86, -27382.398, 0.0, 10.000335, 9.998697 
2.6540604e+3, 2.9857922e+2, -289820.25, -371405.0, 40650.926, -0.46362045, -0.13584848, -273023.4, -259106.64, 0.0, 9.999176, 9.998107 
2.6536736e+3, 3.085747e+2, 58682.945, 203912.84, 9961.487, -0.11004601, 0.12187773, 204592.92, 204592.92, 0.0, 9.999692, 10.00139 
2.6532826e+3, 3.1856236e+2, -120280.96, -94506.66, 107935.766, -0.04532214, -0.4865314, 1308.5719, 1308.5719, 0.0, 9.999119, 9.999698 
2.670709e+3, 1.2910889e+2, -1109544.4, -1127508.1, -56370.563, -0.16821921, -0.06982535, -1061444.6, 613282.06, 0.062782116, 10.003017, 10.002625 
2.6703158e+3, 1.3910384e+2, -1818103.0, -1784907.1, 85983.914, 0.027721684, -0.09315996, -1713933.9, -137165.06, 0.039146993, 9.998757, 9.999446 
2.6699233e+3, 1.490947e+2, -1349004.4, -1512556.6, 133836.08, -0.057894178, -0.13255516, -1273938.5, 204916.83, 0.018543638, 10.001608, 9.999111 
2.6695317e+3, 1.5908468e+2, -827372.3, -1377774.3, 53993.33, -0.16671444, -0.30507562, -822125.7, 558825.8, 0.005710664, 10.004982, 9.997872 
2.669142e+3, 1.690768e+2, -990485.2, -1256153.6, 34179.3, 0.014100304, -0.19214684, -986158.4, 296869.25, 0.0008890518, 10.002675, 9.999008 
2.6687527e+3, 1.7906936e+2, -1476238.6, -1531586.5, 11355.225, 0.21098354, -0.108079545, -1473999.6, -288900.06, 0.000037964888, 9.998878, 9.998389 
2.6683578e+3, 1.8906023e+2, -1140356.3, -1085333.1, -50318.78, -0.01108158, -0.22457246, -1055496.0, 31689.393, 0.0000000057994387, 9.9997015, 10.000276 
2.667961e+3, 1.9905072e+2, -973267.6, -1178574.5, -53814.71, -0.33583093, -0.44372922, -960017.0, 29258.14, 0.0, 10.0009365, 9.998492 
2.66757e+3, 2.0904316e+2, -765231.5, -973027.2, -30939.342, -0.204103, -0.29637665, -760722.7, 130631.85, 0.0, 10.001732, 9.998698 
2.66718e+3, 2.1903588e+2, -619874.1, -935988.9, -42486.88, 0.029622808, -0.162783, -614263.3, 179169.25, 0.0, 10.002157, 9.998212 
2.666788e+3, 2.2902791e+2, -406702.53, -505583.25, -98810.44, 0.11994865, -0.1684058, -345653.72, 349854.03, 0.0, 10.001955, 10.0004835 
2.6663956e+3, 2.3902002e+2, -475727.25, -712505.94, -102042.914, 0.15884165, -0.25320178, -437819.47, 159761.55, 0.0, 10.001533, 9.998728 
2.6660055e+3, 2.4901323e+2, -520666.38, -644560.4, -51764.74, 0.14708978, -0.05424672, -501885.34, -2231.011, 0.0, 10.000575, 9.998866 
2.6656148e+3, 2.590063e+2, -641913.06, -791769.3, -58135.715, 0.08467117, 0.09689034, -622004.56, -220274.13, 0.0, 9.999494, 9.997804 
2.6652238e+3, 2.689953e+2, -295365.56, -431466.2, -48175.766, 0.03579807, -0.093716, -280038.75, 23795.986, 0.0, 10.000809, 9.9988365 
2.6648328e+3, 2.7898324e+2, -80039.68, -430178.13, 56355.086, 0.05183709, -0.44047245, -71192.81, 134755.19, 0.0, 10.00208, 9.997682 
2.6644433e+3, 2.8897598e+2, -240708.56, -345989.25, 110231.54, -0.08809568, -0.22721213, -171193.27, -63166.03, 0.0, 10.000002, 9.998503 
2.6640528e+3, 2.9897028e+2, -466552.7, -319479.63, 40358.61, -0.35827076, 0.056770597, -309132.66, -299040.63, 0.0, 9.997212, 9.999477 
2.6636648e+3, 3.089645e+2, 30500.08, 462940.9, -53274.086, -0.16519059, -0.030645393, 469407.25, 469407.25, 0.0, 9.998269, 10.003896 
2.6632756e+3, 3.189585e+2, 138261.31, 226507.47, -108824.586, 0.011357619, -0.2094827, 299813.66, 299813.66, 0.0, 9.999858, 10.001608 
2.6807013e+3, 1.2950835e+2, -1642103.3, -1370406.9, -183260.13, -0.3637886, 0.46690437, -1278134.5, 392690.16, 0.05267765, 9.99908, 10.002742 
2.6803103e+3, 1.3950025e+2, -1470091.6, -1693512.6, -64394.69, 0.30660912, 0.119042315, -1452860.6, 120033.37, 0.03242507, 10.001572, 9.998676 
2.6799208e+3, 1.4948857e+2, -1303329.8, -1677887.8, 186001.89, 0.25541025, -0.05877121, -1226657.8, 248344.14, 0.015032841, 10.002715, 9.997399 
2.679532e+3, 1.5947656e+2, -1188631.8, -1677685.6, 12473.164, 0.14410265, -0.2963023, -1188313.9, 188800.58, 0.0044764117, 10.003067, 9.9967165 
2.6791367e+3, 1.6946848e+2, -1066312.4, -1265500.4, -120935.516, 0.013442366, -0.18872258, -1009239.94, 269951.66, 0.00066900725, 10.002134, 9.999177 
2.6787412e+3, 1.7946129e+2, -1416588.0, -1533969.1, -66568.59, -0.07551777, -0.09067197, -1386531.9, -205270.95, 0.000027210404, 9.999509, 9.998069 
2.6783496e+3, 1.8945329e+2, -1112394.0, -1112059.1, -8996.65, -0.007128886, -0.064810045, -1103228.4, -19890.105, 0.000000001728097, 10.0001545, 9.999846 
2.6779586e+3, 1.9944505e+2, -1168554.1, -1333918.0, -43979.152, 0.08066852, -0.120847605, -1157585.3, -172167.47, 0.0, 9.999972, 9.997871 
2.6775655e+3, 2.0943592e+2, -829479.8, -980589.0, -21626.97, -0.05175956, -0.13898131, -826445.44, 61063.484, 0.0, 10.001247, 9.998843 
2.6771724e+3, 2.1942659e+2, -901623.0, -1179906.0, -52397.348, -0.17234258, -0.21534081, -892084.2, -102481.97, 0.0, 10.000776, 9.997202 
2.6767802e+3, 2.294164e+2, -588829.4, -768793.3, -111384.19, -0.073542394, -0.32770568, -535622.0, 156075.66, 0.0, 10.001492, 9.998873 
2.6763886e+3, 2.394066e+2, -799999.56, -1052122.4, -115114.67, 0.07470319, -0.46197173, -755348.2, -161558.67, 0.0, 10.000215, 9.997014 
2.675998e+3, 2.4939969e+2, -629303.94, -683257.8, -84168.26, 0.12740146, -0.23856425, -567895.06, -72028.02, 0.0, 9.999939, 9.998798 
2.6756072e+3, 2.5939342e+2, -846637.8, -882665.5, -48725.734, 0.11200193, -0.044731483, -812702.7, -414763.22, 0.0, 9.998199, 9.997763 
2.6752156e+3, 2.693868e+2, -273581.34, -260214.61, 11242.764, -0.10791389, 0.085815646, -253818.7, 46185.535, 0.0, 10.000343, 10.000194 
2.6748246e+3, 2.7937928e+2, -266771.2, -539459.7, 36719.402, -0.26873478, 0.06692118, -261913.22, -59836.883, 0.0, 10.000966, 9.997465 
2.6744363e+3, 2.8936955e+2, -404168.7, -515857.5, -27512.373, -0.043886386, 0.09156578, -397759.38, -293580.4, 0.0, 9.999341, 9.997617 
2.6740468e+3, 2.9936042e+2, -723930.56, -540223.25, -12933.411, 0.06888397, 0.091593824, -539317.2, -533041.5, 0.0, 9.99597, 9.998548 
2.673654e+3, 3.09355e+2, -102807.01, 326142.72, -18460.998, -0.2948106, 0.09267304, 326935.75, 326935.75, 0.0, 9.997761, 10.003156 
2.673269e+3, 3.193459e+2, -281265.66, -409387.44, 77819.73, -0.029607125, -0.26961634, -244531.17, -244531.17, 0.0, 9.999049, 9.9975815 
2.690693e+3, 1.2989375e+2, -2219776.5, -1940512.9, -13879.84, -0.2639363, -0.18582271, -1939824.8, -272789.25, 0.043619167, 9.996451, 9.999918 
2.6903072e+3, 1.3989206e+2, -1234624.0, -1725025.8, -29937.955, 0.30955502, 0.33060136, -1232803.1, 336253.84, 0.02648621, 10.003848, 9.997353 
2.689917e+3, 1.4987975e+2, -1191524.0, -1624783.0, 50380.844, 0.23174891, 0.11221824, -1185742.8, 285432.25, 0.012009438, 10.003447, 9.997436 
2.689527e+3, 1.5986651e+2, -1349039.8, -1663489.5, -61631.785, 0.09809169, -0.2652533, -1337391.4, 35909.094, 0.003455713, 10.001474, 9.997599 
2.6891312e+3, 1.6985936e+2, -965068.6, -1094381.3, -132754.17, -0.019862048, -0.19251825, -882062.8, 393301.03, 0.00049606664, 10.00219, 10.00037 
2.688735e+3, 1.798529e+2, -937331.6, -1277388.3, -43867.02, -0.16687407, -0.10518598, -931763.94, 245657.4, 0.00001910138, 10.002566, 9.998387 
2.6883438e+3, 1.898434e+2, -884405.5, -1114753.4, -32052.74, -0.017912833, -0.16708893, -880028.5, 199485.94, 0.0000000002885943, 10.002086, 9.998945 
2.6879528e+3, 1.9983418e+2, -990405.06, -1241549.4, -54390.863, 0.12653957, -0.23857224, -979131.56, 2474.2673, 0.0, 10.001045, 9.998007 
2.68756e+3, 2.0982665e+2, -739196.94, -880567.25, -8294.192, -0.013976665, -0.14370388, -738712.0, 144969.28, 0.0, 10.001539, 9.999421 
2.6871666e+3, 2.1981882e+2, -656929.25, -990446.56, -25404.03, -0.18670548, -0.10649539, -655005.3, 130753.58, 0.0, 10.002026, 9.997916 
2.686775e+3, 2.2980814e+2, -474985.38, -737632.94, -52313.477, -0.06549495, -0.27005118, -464949.2, 222910.6, 0.0, 10.002247, 9.998795 
2.686383e+3, 2.3979765e+2, -484941.84, -850784.7, -3436.0356, 0.07850022, -0.437782, -484909.6, 105049.78, 0.0, 10.002026, 9.997563 
2.6859903e+3, 2.4978983e+2, -438008.16, -645192.0, 13812.717, 0.044654585, -0.28055003, -437091.34, 54953.094, 0.0, 10.001337, 9.99848 
2.685598e+3, 2.597826e+2, -472160.78, -681612.94, 46549.098, -0.027830658, -0.11279334, -462281.56, -68156.555, 0.0, 10.000498, 9.99809 
2.685208e+3, 2.6977676e+2, -348174.38, -314818.44, 35092.13, -0.15457825, 0.10528932, -292642.7, 3541.92, 0.0, 9.9998045, 10.000141 
2.684818e+3, 2.7977076e+2, -497747.25, -582155.25, -59123.73, -0.22667998, 0.25367793, -467309.72, -269064.9, 0.0, 9.998961, 9.998151 
2.6844293e+3, 2.8976053e+2, -383240.78, -449059.1, -69973.21, 0.08107227, 0.1598603, -338824.25, -238474.38, 0.0, 9.999114, 9.998206 
2.6840395e+3, 2.9975048e+2, -278665.22, -310930.16, 71466.66, 0.30903852, 0.0461511, -221532.81, -219080.16, 0.0, 9.998847, 9.998731 
2.6836446e+3, 3.0974537e+2, 24727.676, 243643.48, 81702.55, -0.35806057, 0.16842243, 270773.78, 270773.78, 0.0, 9.999156, 10.001945 
2.6832625e+3, 3.1973416e+2, -488159.13, -629203.5, 209556.02, 0.14181179, -0.25314587, -337577.03, -337577.03, 0.0, 9.997995, 9.996592 
2.7006876e+3, 1.3028067e+2, -1305711.0, -1797266.3, 164459.8, -0.02784006, -0.6641215, -1255762.9, 407470.03, 0.03555016, 10.004134, 9.997204 
2.7003035e+3, 1.402828e+2, -1428262.9, -1974587.0, 41123.08, 0.31536847, 0.48300552, -1425184.8, 140044.2, 0.021269776, 10.003111, 9.996033 
2.6999128e+3, 1.5027039e+2, -1318679.6, -1626658.6, 17303.84, 0.2345671, 0.2395073, -1317710.5, 149641.69, 0.009415533, 10.002317, 9.997976 
2.6995212e+3, 1.6025676e+2, -1415181.1, -1608473.0, -52348.492, 0.15353583, -0.2248246, -1401914.4, -32431.195, 0.0026134893, 10.000699, 9.998344 
2.6991257e+3, 1.7025045e+2, -922754.56, -930019.4, -104775.89, -0.009257285, -0.19233987, -821548.1, 449985.66, 0.0003600524, 10.00193, 10.001568 
2.6987305e+3, 1.8024428e+2, -1072590.3, -1381612.0, -76138.11, -0.13626224, -0.15820262, -1054849.5, 118734.08, 0.000012952271, 10.00191, 9.997955 
2.6983383e+3, 1.9023287e+2, -941036.1, -1251831.1, -78627.125, -0.003058811, -0.33509645, -922276.75, 153419.36, 0.000000000007316074, 10.002297, 9.997842 
2.6979464e+3, 2.0022202e+2, -1061719.0, -1349050.1, -65450.72, 0.13464764, -0.477423, -1047512.5, -69707.62, 0.0, 10.000949, 9.997323 
2.6975542e+3, 2.1021692e+2, -735115.94, -814598.44, -6507.85, 0.024481686, -0.18133236, -734586.6, 145270.78, 0.0, 10.001352, 9.999941 
2.6971623e+3, 2.2021179e+2, -900128.0, -1098242.1, -34625.215, -0.07099324, 0.07375738, -894250.75, -112341.266, 0.0, 10.00046, 9.997898 
2.6967704e+3, 2.3020197e+2, -587947.25, -701820.1, -73316.98, 0.058038093, -0.07432017, -552055.2, 131948.6, 0.0, 10.001278, 9.999393 
2.6963782e+3, 2.4019185e+2, -783426.8, -1066996.9, -37298.79, 0.15782349, -0.25570825, -778602.8, -192501.31, 0.0, 10.000422, 9.996822 
2.695983e+3, 2.5018254e+2, -564917.06, -773932.94, -41618.863, -0.093210295, -0.19743672, -556934.8, -68737.8, 0.0, 10.000854, 9.997777 
2.6955888e+3, 2.6017362e+2, -800120.0, -1015433.7, 4392.2915, -0.30302075, -0.13094562, -800030.44, -409740.8, 0.0, 9.999169, 9.996399 
2.6952007e+3, 2.7016538e+2, -561245.56, -580538.75, 1623.3901, -0.0991364, -0.011820357, -561109.94, -268735.38, 0.0, 9.999182, 9.998539 
2.694813e+3, 2.8015754e+2, -682672.8, -656437.6, -62024.867, 0.10773659, 0.048668746, -606158.4, -411704.03, 0.0, 9.997795, 9.99817 
2.694422e+3, 2.901495e+2, -294764.03, -113687.58, -51688.313, 0.20715126, -0.01705964, -99972.016, -3439.6462, 0.0, 9.998638, 10.000673 
2.6940298e+3, 3.0014172e+2, -432516.4, -430663.94, 110575.78, 0.135733, -0.08011445, -321010.5, -321010.5, 0.0, 9.998134, 9.998236 
2.693635e+3, 3.10136e+2, -191542.39, -131451.03, 102545.82, -0.5122502, 0.15926187, -54639.855, -54639.855, 0.0, 9.998952, 9.99943 
2.6932532e+3, 3.201258e+2, -385066.16, -40215.563, 60278.91, 0.08572155, -0.0988766, -29982.629, -29982.629, 0.0, 9.996585, 10.001291 
2.7106908e+3, 1.3067539e+2, -628955.0, -1457117.8, -170119.78, 0.06585255, -0.15475656, -595371.2, 1063996.3, 0.02841507, 10.008863, 9.997309 
2.7102944e+3, 1.4066729e+2, -1455617.9, -1882264.6, -40728.023, -0.20959698, -0.054485537, -1451764.8, 109690.086, 0.016713178, 10.002449, 9.996989 
2.709906e+3, 1.5065944e+2, -1330729.5, -1442363.3, 57800.434, 0.10155381, 0.0030300901, -1306194.5, 157339.48, 0.0071980846, 10.001382, 9.999707 
2.7095172e+3, 1.6065094e+2, -1376974.6, -1524160.9, 51781.473, 0.3320546, -0.07107296, -1360582.9, 5034.4556, 0.0019202423, 10.000631, 9.998967 
2.7091208e+3, 1.7064297e+2, -967355.25, -1037651.75, -8813.683, 0.019294169, -0.1471608, -966267.06, 301421.72, 0.00025324232, 10.001992, 10.000818 
2.7087244e+3, 1.80635e+2, -967191.56, -1365322.9, -54717.684, -0.30592728, -0.2011441, -959808.3, 209952.13, 0.000008369746, 10.002727, 9.997677 
2.7083316e+3, 1.9062473e+2, -817545.5, -1244283.9, -68618.19, -0.2016278, -0.22455157, -806783.3, 265079.97, 0.0, 10.003362, 9.997388 
2.70794e+3, 2.0061475e+2, -681747.0, -1133033.5, -55992.2, -0.09856477, -0.23621815, -674903.7, 299059.63, 0.0, 10.003327, 9.997683 
2.7075472e+3, 2.1060729e+2, -576490.8, -748929.56, -37064.55, -0.12945199, -0.17735444, -568861.6, 307174.34, 0.0, 10.002341, 10.0 
2.707155e+3, 2.2060052e+2, -777344.4, -979662.44, -85922.484, -0.16809018, -0.08474168, -745778.75, 32323.627, 0.0, 10.000915, 9.9985285 
2.706763e+3, 2.3059295e+2, -726599.3, -799734.56, -152230.84, 0.0072441543, 0.00017462859, -606605.7, 73574.47, 0.0, 10.000364, 9.999228 
2.706371e+3, 2.4058464e+2, -772342.06, -1022642.8, -138225.39, 0.12995274, 0.027720293, -711028.3, -128763.89, 0.0, 10.000189, 9.99726 
2.7059767e+3, 2.5057417e+2, -470892.06, -733145.9, -113293.164, -0.07612894, -0.04026914, -428728.44, 55638.15, 0.0, 10.001449, 9.9978075 
2.7055827e+3, 2.6056397e+2, -301324.38, -677655.3, -62542.9, -0.2578858, -0.104898125, -291202.53, 95263.805, 0.0, 10.00209, 9.9973 
2.7051935e+3, 2.7055478e+2, -351203.06, -458908.5, 8509.583, -0.07877025, -0.12597238, -350534.88, -61978.895, 0.0, 10.000434, 9.998802 
2.7048045e+3, 2.8054595e+2, -463425.78, -480094.8, 57174.203, 0.16209891, -0.1646754, -413981.8, -223339.05, 0.0, 9.99886, 9.998882 
2.7044144e+3, 2.9053873e+2, -6526.406, 53451.492, -38148.68, 0.22039501, -0.17589852, 71987.37, 164699.8, 0.0, 10.000427, 10.001009 
2.7040216e+3, 3.0053198e+2, 12637.514, -229496.69, -49493.3, 0.07318338, -0.14554112, 22363.494, 22363.494, 0.0, 10.001113, 9.9982195 
2.7036265e+3, 3.1052583e+2, -303988.8, -333563.2, -14291.494, -0.52212065, 0.151682, -298211.28, -298211.28, 0.0, 9.998712, 9.998223 
2.7032447e+3, 3.2051718e+2, -96639.555, 539717.6, -130048.77, 0.29315543, 0.055235352, 565269.0, 565269.0, 0.0, 9.996526, 10.005347 
2.720692e+3, 1.3106875e+2, -1414825.5, -1741420.3, -274600.3, 0.224642, 0.17190182, -1258636.8, 396879.44, 0.022191238, 10.002898, 9.998199 
2.7202863e+3, 1.4105289e+2, -1255549.5, -1683812.8, -89490.02, -0.5448663, -0.578961, -1237601.8, 320067.94, 0.01278431, 10.003388, 9.997917 
2.7198997e+3, 1.5104966e+2, -1137767.1, -1189063.6, 21956.262, 0.06439445, -0.20128308, -1129652.8, 330051.44, 0.00532732, 10.002065, 10.001121 
2.7195132e+3, 1.6104591e+2, -1465117.8, -1589196.3, 12164.167, 0.62641954, 0.10844718, -1463936.5, -102193.31, 0.0013580795, 10.000219, 9.998712 
2.719116e+3, 1.7103606e+2, -1125607.3, -1241914.6, -6133.698, 0.11691079, -0.08006053, -1125284.8, 138554.36, 0.00016970174, 10.001538, 9.999607 
2.7187186e+3, 1.8102624e+2, -1197480.5, -1601246.5, -47193.15, -0.38498497, -0.20327531, -1192037.8, -26102.826, 0.0000049540654, 10.001751, 9.996531 
2.7183256e+3, 1.9101772e+2, -890763.7, -1309770.0, -45102.582, -0.39347404, -0.02292176, -885963.75, 182057.55, 0.0, 10.003007, 9.997076 
2.7179334e+3, 2.0100884e+2, -888662.2, -1299978.5, -48983.156, -0.30852365, 0.105845675, -882909.3, 87200.94, 0.0, 10.002323, 9.996977 
2.7175403e+3, 2.1099786e+2, -700871.1, -803113.94, -77035.2, -0.29667175, -0.178617, -659538.1, 212675.17, 0.0, 10.001652, 9.999866 
2.7171472e+3, 2.209881e+2, -1086058.1, -1251862.8, -114626.74, -0.25539845, -0.34921896, -1027496.4, -253189.28, 0.0, 9.999459, 9.997348 
2.716755e+3, 2.3098281e+2, -822524.7, -930243.3, -156228.53, -0.080458924, 0.035789892, -711132.1, -34762.215, 0.0, 10.000164, 9.998386 
2.716363e+3, 2.4097681e+2, -996500.9, -1199154.6, -96043.195, 0.07056275, 0.36772394, -958216.0, -379778.5, 0.0, 9.999125, 9.996514 
2.715972e+3, 2.5096536e+2, -556807.5, -717427.6, -44309.344, 0.055730395, 0.15738626, -545395.06, -64849.684, 0.0, 10.000735, 9.998191 
2.7155802e+3, 2.609541e+2, -489434.4, -699174.4, -74660.21, -0.0042579835, -0.06691407, -465572.66, -82923.58, 0.0, 10.000604, 9.997882 
2.715186e+3, 2.709453e+2, -320693.97, -233022.83, -66031.63, -0.13990468, -0.22287881, -197601.02, 87124.66, 0.0, 9.999861, 10.000596 
2.714793e+3, 2.8093666e+2, -731248.2, -758327.56, 64201.15, -0.1891746, -0.3375121, -679174.56, -492370.75, 0.0, 9.997769, 9.997498 
2.714405e+3, 2.9092795e+2, -246802.2, -370675.3, 14555.3545, -0.012685159, -0.27426234, -245114.9, -156222.03, 0.0, 10.000154, 9.998195 
2.7140146e+3, 3.009201e+2, -189496.14, -454273.97, -126860.35, -0.048873827, -0.13381886, -138526.45, -138526.45, 0.0, 10.000384, 9.997003 
2.7136198e+3, 3.1091374e+2, -352252.3, -249972.45, -165936.2, -0.28194663, 0.0713497, -127474.484, -127474.484, 0.0, 9.998025, 9.999052 
2.7132326e+3, 3.209045e+2, -319276.88, 255614.81, 28694.977, 0.09325295, -0.13024855, 257043.53, 257043.53, 0.0, 9.995939, 10.003602 
2.7306843e+3, 1.314576e+2, -1853350.4, -1692673.0, -73051.52, 0.13389392, -0.0982014, -1664426.1, -12715.354, 0.016854309, 9.998762, 10.000475 
2.7302855e+3, 1.4144953e+2, -1082979.6, -1580574.6, -14415.703, -0.39537767, -0.23254997, -1082562.4, 471221.56, 0.009467287, 10.00448, 9.998098 
2.7298948e+3, 1.5144318e+2, -1141012.6, -1326502.9, -68952.72, 0.034567345, -0.06329063, -1118189.0, 337661.1, 0.0037924994, 10.0026455, 9.999877 
2.7295047e+3, 1.6143665e+2, -1479135.8, -1645251.8, -49049.42, 0.40568826, 0.07358643, -1465734.0, -107815.945, 0.0009170214, 10.000309, 9.998269 
2.72911e+3, 1.7142813e+2, -1181475.9, -1300832.4, -2331.745, 0.10569467, 0.05256373, -1181430.4, 78573.1, 0.0001065257, 10.001255, 9.99935 
2.7287152e+3, 1.8141957e+2, -1060162.4, -1388471.6, -21788.5, -0.22648387, 0.043562096, -1058722.6, 103365.4, 0.0000025959862, 10.001981, 9.997894 
2.7283233e+3, 1.9141051e+2, -758951.56, -1066145.0, 46575.043, -0.19449511, 0.021157922, -752045.4, 312129.44, 0.0, 10.003013, 9.99883 
2.7279305e+3, 2.014014e+2, -735743.06, -1165015.0, 33485.984, -0.16437042, 0.020612882, -733146.6, 233116.13, 0.0, 10.003008, 9.997589 
2.7275357e+3, 2.1139136e+2, -734199.2, -946565.06, -41474.598, -0.19592951, -0.07639642, -726386.7, 141974.02, 0.0, 10.001894, 9.998805 
2.727141e+3, 2.213818e+2, -839353.8, -1156437.5, -53962.758, -0.22483258, -0.11367127, -830421.8, -59966.324, 0.0, 10.001137, 9.997201 
2.726748e+3, 2.3137432e+2, -552940.7, -847816.9, -57905.934, -0.16054548, 0.10138803, -541977.1, 130560.18, 0.0, 10.002143, 9.998015 
2.7263558e+3, 2.4136694e+2, -428309.25, -796609.4, -17611.283, -0.05147342, 0.3096543, -427469.03, 147146.9, 0.0, 10.00236, 9.997725 
2.7259657e+3, 2.5135654e+2, -548978.94, -603335.25, 64458.68, 0.11401593, 0.119802766, -506203.0, -29491.436, 0.0, 10.000192, 9.999303 
2.7255744e+3, 2.613462e+2, -699863.8, -732279.94, 77926.71, 0.18559425, -0.071863495, -636477.44, -257671.98, 0.0, 9.998717, 9.998587 
2.725179e+3, 2.713373e+2, -124242.3, -210281.34, -40935.516, -0.11819656, -0.1792188, -107878.36, 173006.7, 0.0, 10.001409, 10.000067 
2.7247852e+3, 2.8132847e+2, 56575.844, -370105.7, -23123.98, -0.29885563, -0.26002917, 57825.387, 240790.69, 0.0, 10.003006, 9.997667 
2.7243972e+3, 2.9131922e+2, -140006.66, -371422.0, 73220.195, -0.11467198, -0.22210865, -118785.66, -33727.87, 0.0, 10.000992, 9.997828 
2.724007e+3, 3.0131066e+2, -324107.47, -491393.06, 25752.176, -0.064552896, -0.10280238, -320232.88, -320232.88, 0.0, 9.999214, 9.997324 
2.7236125e+3, 3.113027e+2, -58159.75, -129375.586, -107255.78, -0.1423666, -0.036487296, 19244.396, 19244.396, 0.0, 9.999948, 9.999057 
2.7232206e+3, 3.2129446e+2, -54558.402, 229297.14, 76979.06, -0.10134648, -0.06095349, 248829.17, 248829.17, 0.0, 9.998149, 10.002457 
2.7406788e+3, 1.3184819e+2, -1402310.0, -1267233.9, 177376.2, 0.33368972, -0.21963297, -1144972.9, 502915.44, 0.012358647, 10.000998, 10.002315 
2.7402842e+3, 1.4184624e+2, -1475526.1, -1824212.1, -86834.32, -0.14952415, 0.15883434, -1455098.4, 94800.35, 0.0067449408, 10.002026, 9.997564 
2.7398893e+3, 1.5183632e+2, -1133764.8, -1481631.9, -200408.17, 0.0064125382, 0.06486521, -1042337.56, 409663.22, 0.0025850076, 10.003357, 9.998445 
2.7394962e+3, 1.6182679e+2, -1175003.6, -1571394.8, -72306.77, 0.23138009, 0.011215419, -1162225.9, 191873.77, 0.0005889778, 10.002728, 9.997599 
2.7391046e+3, 1.7182004e+2, -1069079.8, -1272318.5, 9237.722, 0.16174327, 0.17233571, -1068660.8, 187508.39, 0.00006228534, 10.002119, 9.999138 
2.738713e+3, 1.8181293e+2, -1154777.6, -1323950.9, -8737.014, 0.09903932, 0.29894087, -1154327.6, 3911.742, 0.0000011486238, 10.000944, 9.9988165 
2.738322e+3, 1.918032e+2, -786951.0, -823630.56, 14452.447, 0.15824156, -0.015177562, -781940.8, 278385.94, 0.0, 10.001843, 10.000979 
2.7379295e+3, 2.0179407e+2, -1021852.56, -1368796.9, -61184.066, 0.1862392, -0.15473297, -1011378.9, -48967.332, 0.0, 10.00145, 9.996911 
2.737532e+3, 2.1178643e+2, -878688.25, -1193786.4, -126155.055, 0.030970259, 0.099650756, -834403.75, 30088.785, 0.0, 10.001685, 9.9971895 
2.7371356e+3, 2.2177796e+2, -1052945.5, -1396001.8, -48660.24, -0.11157972, 0.31532666, -1046176.94, -279596.0, 0.0, 10.000358, 9.995914 
2.736742e+3, 2.3176628e+2, -689034.06, -933464.8, -34029.4, -0.21533214, 0.12453878, -684384.94, -15688.67, 0.0, 10.001404, 9.997732 
2.736349e+3, 2.4175578e+2, -664742.4, -875554.2, -70956.65, -0.20055415, 0.023984645, -643084.3, -72286.3, 0.0, 10.000684, 9.997979 
2.735958e+3, 2.5174797e+2, -541309.8, -425856.6, -49759.895, 0.11823877, -0.07103797, -407370.28, 65496.59, 0.0, 9.999583, 10.000764 
2.7355668e+3, 2.6174012e+2, -1010022.44, -1095783.0, 101573.305, 0.27299255, -0.060330894, -942649.1, -567710.25, 0.0, 9.99765, 9.99657 
2.7351737e+3, 2.7173075e+2, -388000.84, -650448.0, 65956.51, -0.057662584, 0.01867371, -372357.5, -95321.75, 0.0, 10.001004, 9.997195 
2.7347812e+3, 2.817215e+2, -94875.41, -432089.72, -47515.73, -0.28009146, 0.08255454, -88308.03, 90819.88, 0.0, 10.002076, 9.997648 
2.7343914e+3, 2.9171306e+2, -34460.355, -30289.66, -7263.094, -0.076175794, -0.032518238, -24818.473, 56383.22, 0.0, 10.000605, 10.000299 
2.733999e+3, 3.0170447e+2, -525365.06, -660517.9, 35657.195, -0.10521574, -0.059936687, -516534.63, -516534.63, 0.0, 9.998282, 9.996589 
2.7336016e+3, 3.1169382e+2, -186681.39, -349462.38, -42208.168, -0.5293348, -0.16157167, -176387.95, -176387.95, 0.0, 9.999888, 9.997488 
2.7332142e+3, 3.2168704e+2, -229058.55, 62382.293, -148961.8, 0.076023154, 0.07358253, 125046.266, 125046.266, 0.0, 9.997497, 10.0015545 
2.7506775e+3, 1.322425e+2, -1276093.0, -1301449.0, -13425.505, 0.6028167, 0.12710808, -1270305.5, 373724.8, 0.008685478, 10.002213, 10.001539 
2.7502736e+3, 1.4223398e+2, -1725093.3, -1921538.1, -76023.69, -0.62267905, -0.10535348, -1699109.1, -153007.1, 0.0045926278, 10.000169, 9.997799 
2.7498847e+3, 1.5222575e+2, -943355.56, -1346773.0, -66633.766, -0.1492974, -0.074360766, -932634.3, 515549.75, 0.0016782226, 10.004429, 9.998892 
2.7494952e+3, 1.6221736e+2, -626950.0, -1277751.1, -78403.695, 0.25132635, -0.034391828, -617637.75, 732631.1, 0.0003582281, 10.0063505, 9.997865 
2.7491006e+3, 1.7220953e+2, -893683.44, -1200487.9, -57912.496, 0.18341488, 0.03124694, -883115.9, 369232.2, 0.000033741435, 10.0033655, 9.999035 
2.7487066e+3, 1.8220185e+2, -1229101.6, -1380962.6, -37050.52, 0.07000804, 0.12333363, -1220544.4, -66119.49, 0.00000040337267, 10.00048, 9.998637 
2.7483147e+3, 1.9219318e+2, -1037550.5, -1036294.25, -79206.61, 0.05432047, -0.011493984, -957713.25, 98793.67, 0.0, 10.000465, 10.000195 
2.747922e+3, 2.021849e+2, -1028953.3, -1283020.6, -213015.84, 0.031186985, -0.0437412, -907968.25, 50617.52, 0.0, 10.000906, 9.99778 
2.7475265e+3, 2.1217707e+2, -612970.75, -959068.4, -167013.17, -0.027239295, 0.08255185, -545521.56, 315142.53, 0.0, 10.002916, 9.998273 
2.7471313e+3, 2.2216849e+2, -477752.1, -1000856.56, -65608.4, -0.062186204, 0.18832104, -469648.94, 293100.7, 0.0, 10.003659, 9.997073 
2.7467385e+3, 2.3215686e+2, -604140.5, -877345.75, -32163.623, 0.022441866, -0.018539712, -600405.06, 64457.414, 0.0, 10.001739, 9.998055 
2.746345e+3, 2.421463e+2, -709845.5, -881244.6, -71061.91, 0.069558166, -0.12975264, -684215.75, -117250.95, 0.0, 10.000172, 9.998209 
2.7459508e+3, 2.5213906e+2, -458325.4, -494795.0, -197933.86, 0.12637292, -0.0732419, -277788.16, 191246.44, 0.0, 10.000552, 9.999871 
2.7455577e+3, 2.6213163e+2, -529645.2, -820322.75, -69359.71, 0.1507296, 0.03360725, -513943.2, -142835.94, 0.0, 10.000641, 9.997038 
2.7451673e+3, 2.7212203e+2, -516718.88, -718916.56, 66894.89, -0.035594165, 0.08368212, -496591.03, -223384.94, 0.0, 10.00004, 9.997235 
2.7447763e+3, 2.8211296e+2, -390421.94, -445543.2, -347.65085, -0.14461698, 0.13917188, -390419.72, -215122.6, 0.0, 9.9993725, 9.99888 
2.7443847e+3, 2.921052e+2, -152431.63, 21101.07, -110672.92, 0.02576802, 0.017930256, 74965.07, 152327.39, 0.0, 9.999278, 10.001337 
2.7439907e+3, 3.0209693e+2, -388409.63, -479210.9, -58940.63, -0.053101476, -0.06654957, -359411.22, -359411.22, 0.0, 9.998635, 9.997688 
2.743592e+3, 3.12086e+2, -351574.22, -388623.88, 34848.41, -0.6450572, -0.23474519, -330632.84, -330632.84, 0.0, 9.99848, 9.997955 
2.743208e+3, 3.2208085e+2, -208430.66, -13583.595, -178891.64, 0.434208, 0.18969929, 92692.56, 92692.56, 0.0, 9.997852, 10.00088 
2.7606738e+3, 1.3263644e+2, -1487788.5, -1478271.9, -36874.375, 0.75610745, 0.38465458, -1445850.0, 194325.3, 0.005822928, 10.001146, 10.000764 
2.7602643e+3, 1.4262272e+2, -1438599.9, -1784386.5, 11207.295, -0.87884605, -0.3063643, -1438237.0, 104058.97, 0.0029696852, 10.002217, 9.997734 
2.759881e+3, 1.5261586e+2, -1095215.6, -1335563.9, 83234.984, -0.17393924, -0.20055902, -1069205.4, 375155.63, 0.0010279784, 10.003129, 9.999547 
2.7594945e+3, 1.626085e+2, -1127361.8, -1544855.5, -107649.09, 0.39631075, -0.08095937, -1101239.3, 245192.81, 0.0002033788, 10.003045, 9.997634 
2.7590963e+3, 1.7259915e+2, -1019618.0, -1283903.6, -155339.48, 0.22494961, -0.16117641, -947819.44, 300705.13, 0.000016580547, 10.002606, 9.998825 
2.7586994e+3, 1.8259048e+2, -1270429.6, -1559146.0, -33071.598, 0.042426184, -0.1001228, -1266689.8, -116078.3, 0.00000009587778, 10.000973, 9.997165 
2.7583063e+3, 1.9258279e+2, -1094547.0, -1247952.8, -41061.977, -0.10709707, 0.015851058, -1084247.5, -31556.008, 0.0, 10.000931, 9.998509 
2.7579132e+3, 2.0257494e+2, -1073486.8, -1232244.8, -89740.58, -0.18169399, 0.12535791, -1033055.9, -78286.4, 0.0, 10.0003805, 9.998374 
2.7575204e+3, 2.1256582e+2, -613482.06, -718466.5, -77077.3, -0.11724696, -0.07952899, -572720.1, 284131.47, 0.0, 10.001989, 10.00032 
2.7571285e+3, 2.2255686e+2, -745818.94, -1054141.4, -99096.516, 0.06622731, -0.16639534, -716715.9, 42218.508, 0.0, 10.001688, 9.997602 
2.7567366e+3, 2.3254736e+2, -674276.8, -835847.3, -107700.8, 0.44818562, -0.24388736, -620430.3, 40596.223, 0.0, 10.001081, 9.998592 
2.7563423e+3, 2.4253836e+2, -1042468.5, -1310783.5, -83562.61, 0.5628103, -0.13951914, -1018572.4, -455454.6, 0.0, 9.999228, 9.995666 
2.7559432e+3, 2.5252983e+2, -724375.7, -941877.75, -170321.98, 0.09224748, 0.036353596, -631046.6, -165834.19, 0.0, 10.000177, 9.996931 
2.7555475e+3, 2.6252106e+2, -677729.25, -843892.1, -62051.805, -0.19593547, 0.17154978, -657114.25, -289809.78, 0.0, 9.999548, 9.997391 
2.7551597e+3, 2.7251142e+2, -464403.3, -420420.3, 32426.283, -0.049798045, -0.009887489, -403231.6, -133838.36, 0.0, 9.99939, 9.999551 
2.7547702e+3, 2.825025e+2, -622150.7, -613473.8, -41293.586, 0.06907335, -0.06410774, -576291.4, -404815.3, 0.0, 9.998152, 9.998301 
2.7543768e+3, 2.9249486e+2, -335226.47, -199489.98, -131723.92, 0.08537181, -0.08972797, -119178.305, -45630.547, 0.0, 9.998646, 10.000109 
2.7539822e+3, 3.0248764e+2, -398724.56, -260098.69, -105645.32, -0.027689926, -0.060219143, -203058.1, -203058.1, 0.0, 9.997715, 9.9996195 
2.7535877e+3, 3.1248033e+2, -228616.9, 79654.195, 21567.2, -0.17405283, -0.23492609, 81155.766, 81155.766, 0.0, 9.997651, 10.001546 
2.7531937e+3, 3.224738e+2, -439163.03, -272775.66, -7647.431, -0.104778185, -0.13862552, -272424.9, -272424.9, 0.0, 9.997142, 9.999369 
2.7706617e+3, 1.3302779e+2, -1675716.1, -1661917.0, 127182.57, 0.100228086, 0.21982613, -1541447.0, 94895.69, 0.0036893368, 10.0002985, 9.999875 
2.770267e+3, 1.4301929e+2, -1197557.0, -1664795.0, 43615.973, -0.31138718, 0.110305905, -1193520.4, 344895.4, 0.001804221, 10.003892, 9.997722 
2.7698773e+3, 1.530102e+2, -1333083.3, -1439210.9, 52217.17, -0.034889527, -0.013752082, -1311699.8, 128802.516, 0.00058557204, 10.0014515, 9.999633 
2.7694866e+3, 1.6300142e+2, -1539374.5, -1713983.1, -69999.5, 0.18520895, -0.041973155, -1514777.1, -172190.44, 0.00010501939, 10.000028, 9.997935 
2.7690902e+3, 1.7299256e+2, -1038253.25, -1282491.4, -65916.96, 0.108370334, -0.08076885, -1021598.7, 223074.84, 0.0000068884756, 10.002349, 9.99901 
2.7686948e+3, 1.8298398e+2, -871112.94, -1285553.1, 19852.42, 0.0028722829, -0.033129357, -870164.2, 276593.16, 0.00000000965895, 10.003307, 9.9979315 
2.7683014e+3, 1.9297531e+2, -813742.8, -1076408.5, 100086.36, -0.0734782, -0.038836967, -779952.7, 268889.03, 0.0, 10.00262, 9.998924 
2.767908e+3, 2.0296672e+2, -872589.8, -1093265.0, 75706.78, -0.110639736, -0.012685908, -849114.44, 101810.336, 0.0, 10.001511, 9.998794 
2.7675158e+3, 2.129576e+2, -809843.56, -847736.1, 23259.63, 0.024485912, -0.16251647, -798790.3, 54219.734, 0.0, 10.00072, 10.000092 
2.767123e+3, 2.2294892e+2, -852291.5, -1018694.06, -81615.86, 0.13829972, -0.21551509, -818944.06, -63852.434, 0.0, 10.000472, 9.998461 
2.7667284e+3, 2.3294058e+2, -548356.56, -728133.0, -84948.97, 0.24984895, -0.20399672, -514566.9, 142605.05, 0.0, 10.001653, 9.999119 
2.7663332e+3, 2.4293211e+2, -513876.44, -1019705.1, -14558.867, 0.2529599, -0.07322168, -513457.75, 45800.246, 0.0, 10.002557, 9.996093 
2.765936e+3, 2.5292283e+2, -325195.2, -821825.25, 35214.242, -0.04792777, 0.10432739, -322710.7, 138650.88, 0.0, 10.003099, 9.996411 
2.7655414e+3, 2.6291332e+2, -176045.23, -528370.0, 142222.17, -0.22448401, 0.2144038, -125800.164, 237661.86, 0.0, 10.002583, 9.998098 
2.7651525e+3, 2.7290314e+2, -281209.56, -311438.4, 87447.79, -0.040456444, -0.011935367, -207579.63, 57976.168, 0.0, 10.000455, 9.999844 
2.7647623e+3, 2.8289416e+2, -490712.47, -485873.03, -14080.898, 0.11607572, -0.096809044, -474005.44, -306366.75, 0.0, 9.998644, 9.998952 
2.764368e+3, 2.9288718e+2, -378764.3, -265740.38, -32757.455, 0.07345696, -0.040541943, -256932.72, -187226.42, 0.0, 9.998308, 9.999903 
2.7639732e+3, 3.0288023e+2, -220898.19, -36941.043, 9205.199, -0.012488859, 0.00148663, -36481.563, -36481.563, 0.0, 9.998206, 10.000919 
2.763581e+3, 3.128733e+2, 159604.52, 421548.94, -78918.984, 0.070034035, -0.25664973, 443488.22, 443488.22, 0.0, 9.999586, 10.00296 
2.7631804e+3, 3.228664e+2, 98187.516, -78807.34, -160963.58, -0.57892525, -0.26217213, 193377.5, 193377.5, 0.0, 10.001005, 9.998823 
2.780653e+3, 1.3341966e+2, -1525649.3, -1625136.9, 327924.47, -0.14604001, 0.11648226, -1243717.1, 388786.56, 0.0021714193, 10.001523, 9.999513 
2.7802694e+3, 1.4341518e+2, -1365330.9, -1786256.0, -13526.377, 0.28864366, 0.4391403, -1364896.6, 169643.55, 0.0010072395, 10.002826, 9.997455 
2.7798727e+3, 1.5340473e+2, -1340596.6, -1454518.4, -65487.24, 0.13254257, 0.16439128, -1310763.9, 125877.91, 0.00030058212, 10.001344, 9.999648 
2.779478e+3, 1.6339508e+2, -1525682.0, -1688730.1, -11380.959, 0.07843149, 0.050232064, -1524891.4, -186156.0, 0.000046417692, 10.000087, 9.998082 
2.7790844e+3, 1.7338707e+2, -1045881.56, -1250281.0, 10750.842, 0.05366668, 0.050328646, -1045317.7, 195495.7, 0.0000020738605, 10.002202, 9.999287 
2.7786908e+3, 1.8337874e+2, -945313.4, -1258173.4, 28059.3, 0.03911908, 0.095699504, -942816.75, 200075.0, 0.00000000000031198744, 10.002602, 9.998434 
2.7782977e+3, 1.93369e+2, -807973.75, -954796.56, 27700.303, 0.07397533, -0.14132927, -802921.56, 242057.33, 0.0, 10.00224, 9.999888 
2.7779046e+3, 2.033598e+2, -1060981.1, -1331961.5, 8994.389, 0.15805434, -0.1822924, -1060682.9, -113617.99, 0.0, 10.00097, 9.997387 
2.7775115e+3, 2.1335089e+2, -928075.5, -1055347.3, -46611.66, 0.28440967, -0.19909951, -912830.6, -63675.48, 0.0, 10.000654, 9.998663 
2.7771163e+3, 2.2334279e+2, -1020122.75, -1147096.1, -67046.49, 0.20722014, -0.08755511, -991274.25, -240038.64, 0.0, 9.999616, 9.997963 
2.776717e+3, 2.3333512e+2, -635422.2, -726383.6, -61846.266, -0.27742913, -0.06724297, -604134.06, 49174.332, 0.0, 10.000951, 9.999417 
2.7763212e+3, 2.4332713e+2, -709948.56, -1057836.9, -1933.0461, -0.46581146, 0.07310464, -709937.8, -154550.36, 0.0, 10.0011215, 9.996492 
2.7759302e+3, 2.5331774e+2, -396388.72, -731144.6, 35703.08, -0.17877088, 0.12087229, -392623.2, 64863.082, 0.0, 10.0022135, 9.997425 
2.7755383e+3, 2.6330796e+2, -514750.13, -849734.1, 69623.63, -0.028240675, 0.20840643, -500855.75, -141267.77, 0.0, 10.001109, 9.996543 
2.7751446e+3, 2.7329695e+2, -521146.7, -607807.2, 4322.879, -0.095670335, 0.037399005, -520931.56, -259233.64, 0.0, 9.999698, 9.998117 
2.774751e+3, 2.8328815e+2, -635709.44, -502141.63, -52085.797, -0.11970483, 0.05322113, -484231.84, -320448.53, 0.0, 9.99757, 9.999326 
2.7743572e+3, 2.9328263e+2, -413606.13, -135654.89, -30169.238, -0.072206646, 0.11988264, -132417.98, -66586.63, 0.0, 9.997606, 10.0010605 
2.773962e+3, 3.0327505e+2, -517385.44, -422905.03, 63205.953, -0.22932103, 0.13428663, -391236.25, -391236.25, 0.0, 9.997396, 9.998619 
2.773569e+3, 3.1326303e+2, -92760.555, 14848.039, -38684.145, -0.3884697, -0.39921588, 27311.12, 27311.12, 0.0, 9.999212, 10.000311 
2.7731773e+3, 3.2326117e+2, 78013.98, -4091.738, -112594.43, -0.3786627, 0.24701823, 156806.2, 156806.2, 0.0, 10.000696, 9.999471 
2.790653e+3, 1.3381143e+2, -1326889.8, -1369270.9, 325459.84, 0.23698929, 0.089640155, -1021931.3, 606728.7, 0.0011689386, 10.002144, 10.00101 
2.7902594e+3, 1.438037e+2, -1404839.8, -1751172.4, -55989.266, -0.30303073, 0.013843721, -1396013.3, 134711.88, 0.0005049565, 10.002301, 9.997954 
2.789867e+3, 1.5379725e+2, -1329063.8, -1402348.9, -79055.71, 0.14585346, 0.100456804, -1278571.5, 154222.86, 0.00013439951, 10.001214, 10.000073 
2.789474e+3, 1.6378978e+2, -1376408.3, -1534293.9, 62431.957, 0.29559052, 0.15927143, -1354704.6, -19834.736, 0.000016423304, 10.000724, 9.998838 
2.7890778e+3, 1.7378086e+2, -994379.3, -1163155.5, 123583.38, -0.096237615, 0.025175644, -929120.5, 307833.6, 0.0000003300107, 10.002251, 9.999874 
2.788684e+3, 1.8377255e+2, -915449.7, -1258134.4, 30648.27, -0.22045828, 0.046970386, -912730.25, 226302.81, 0.0, 10.0027685, 9.998394 
2.7882937e+3, 1.9376399e+2, -789339.1, -1022916.2, -9584.935, 0.16391519, 0.013071194, -788946.44, 252168.4, 0.0, 10.00257, 9.999345 
2.787901e+3, 2.037551e+2, -890796.1, -1236757.3, -75800.81, 0.3200678, 0.038994696, -874916.9, 68284.14, 0.0, 10.002063, 9.997494 
2.7875045e+3, 2.1374539e+2, -761671.9, -1029698.2, -74122.016, 0.15752213, -0.003871591, -742539.4, 102758.43, 0.0, 10.002015, 9.998195 
2.7871078e+3, 2.2373636e+2, -640339.2, -912231.1, -63661.9, -0.023809746, 0.027353738, -626171.4, 121214.23, 0.0, 10.001875, 9.998509 
2.7867106e+3, 2.337279e+2, -512696.9, -678641.56, -66323.17, -0.30848366, -0.022590898, -489446.97, 160016.33, 0.0, 10.001663, 9.999478 
2.7863157e+3, 2.4371919e+2, -618804.25, -912761.3, -46905.02, -0.40362743, 0.012801825, -611501.3, -59954.652, 0.0, 10.001233, 9.997442 
2.785925e+3, 2.537092e+2, -523742.28, -729522.3, -51489.36, -0.10035782, -0.042382866, -511577.94, -57930.61, 0.0, 10.000993, 9.998063 
2.7855325e+3, 2.637e+2, -544988.06, -790825.06, -46599.934, 0.029945733, 0.031788606, -536451.2, -180709.7, 0.0, 10.000448, 9.997302 
2.785136e+3, 2.7369136e+2, -511943.66, -627761.7, -15485.1875, -0.1850029, 0.11055877, -509908.97, -252076.89, 0.0, 9.999701, 9.998055 
2.784741e+3, 2.8368312e+2, -386154.94, -322334.72, 9723.592, -0.21984541, 0.1833349, -320886.13, -160972.88, 0.0, 9.998959, 9.99988 
2.7843484e+3, 2.9367593e+2, -191584.13, -19064.637, -70625.945, -0.029373322, 0.09926367, 6160.002, 68136.0, 0.0, 9.999041, 10.001173 
2.7839535e+3, 3.0366766e+2, -334385.25, -398967.94, 66497.59, -0.17290032, 0.052796442, -292753.25, -292753.25, 0.0, 9.998771, 9.998163 
2.7835587e+3, 3.136565e+2, -251803.13, -217528.1, 82771.875, -0.57580066, -0.2629787, -150138.22, -150138.22, 0.0, 9.998581, 9.999123 
2.783174e+3, 3.2365507e+2, -152356.81, -11740.096, 103592.13, 0.0045391596, 0.50730115, 43149.766, 43149.766, 0.0, 9.998457, 10.000566 
2.8006515e+3, 1.3420382e+2, -1217945.8, -1187198.8, 392751.13, 0.5487809, 0.053145796, -809520.4, 815290.3, 0.0005684972, 10.002305, 10.0021715 
2.8002492e+3, 1.441935e+2, -1677650.0, -1861713.4, -47905.473, -0.71904725, -0.36492604, -1665928.3, -139030.0, 0.00022583413, 10.000418, 9.99805 
2.7998617e+3, 1.5419044e+2, -1169725.8, -1301926.5, -82921.97, 0.25297815, 0.02978169, -1129782.1, 299158.1, 0.00005282333, 10.002261, 10.000214 
2.7994704e+3, 1.6418453e+2, -1171368.5, -1397750.3, 115097.266, 0.5905328, 0.2309646, -1123129.8, 207872.81, 0.000004777361, 10.002075, 9.99905 
2.7990717e+3, 1.7417455e+2, -1060569.3, -1149637.1, 127365.03, -0.1866418, -0.07078205, -970176.8, 262917.44, 0.00000002399446, 10.001641, 10.00021 
2.7986774e+3, 1.8416633e+2, -1203519.9, -1528967.6, 5695.4673, -0.36722383, 0.00039272307, -1203420.3, -68245.3, 0.0, 10.001479, 9.997111 
2.79829e+3, 1.9415964e+2, -896154.1, -1179060.4, -40545.773, 0.31618282, 0.23364301, -890457.8, 146790.42, 0.0, 10.002394, 9.998313 
2.797897e+3, 2.0415133e+2, -972413.44, -1343441.1, -72301.88, 0.48731652, 0.4088309, -958821.9, -19488.72, 0.0, 10.001849, 9.996854 
2.797496e+3, 2.1414012e+2, -851342.1, -1095032.3, -77897.35, -0.08135759, 0.21122429, -828569.7, 12871.527, 0.0, 10.001521, 9.997964 
2.7970994e+3, 2.2412977e+2, -872484.0, -1049564.6, -50463.105, -0.27113402, 0.13939206, -859113.0, -115574.78, 0.0, 10.000582, 9.998128 
2.7967077e+3, 2.3411983e+2, -661635.56, -747526.6, -79698.86, 0.015200713, -0.07200386, -614048.06, 31579.227, 0.0, 10.000785, 9.999379 
2.7963144e+3, 2.4410963e+2, -840305.7, -1064461.5, -53853.19, 0.1382453, -0.14489679, -828038.8, -280316.38, 0.0, 10.000043, 9.996937 
2.79592e+3, 2.5409818e+2, -650044.2, -777914.7, -54713.61, 0.08393713, -0.37459874, -629829.0, -179994.55, 0.0, 10.000179, 9.998074 
2.7955243e+3, 2.6409045e+2, -676819.0, -739110.44, -72266.695, -0.062022097, -0.1980794, -629272.06, -277359.75, 0.0, 9.999183, 9.998235 
2.7951264e+3, 2.7408665e+2, -538601.06, -476916.9, -38322.664, -0.3367542, 0.20045915, -458566.9, -204612.86, 0.0, 9.99893, 9.999418 
2.794732e+3, 2.8407893e+2, -638906.44, -626702.5, -2926.1997, -0.29505137, 0.32285997, -626037.1, -470006.75, 0.0, 9.998131, 9.998159 
2.794342e+3, 2.9406536e+2, -383521.1, -288885.72, -79696.99, 0.15689656, -0.25382408, -243518.06, -185360.25, 0.0, 9.998586, 9.999515 
2.7939478e+3, 3.0405772e+2, -399962.63, -309776.28, 14612.818, 0.081626296, -0.19051717, -307467.66, -307467.66, 0.0, 9.997972, 9.99909 
2.793551e+3, 3.140572e+2, -326058.66, -73633.53, 80869.99, -0.43418884, 0.38648912, -49947.57, -49947.57, 0.0, 9.997455, 10.000567 
2.7931628e+3, 3.2404214e+2, -378447.25, -63752.074, 244668.31, -0.23748039, -0.3144675, 69796.96, 69796.96, 0.0, 9.996973, 10.000785 
2.810643e+3, 1.3459961e+2, -1286260.8, -1249619.8, 68250.34, 0.10597932, 0.15085751, -1197273.8, 423664.88, 0.00025073983, 10.001884, 10.001995 
2.810247e+3, 1.4459136e+2, -1839663.8, -1840052.0, 61791.934, -0.1819978, -0.07512001, -1778065.6, -255061.39, 0.00009142473, 9.998884, 9.998947 
2.8098574e+3, 1.5458632e+2, -981899.0, -1156868.1, 120407.99, 0.22270383, 0.073991574, -920549.3, 504512.4, 0.000018191195, 10.003284, 10.000756 
2.8094652e+3, 1.645792e+2, -924760.9, -1360450.0, 66732.23, 0.36390314, 0.17889059, -914769.0, 412365.25, 0.000001253609, 10.004069, 9.998357 
2.809068e+3, 1.7456955e+2, -1221270.5, -1344745.8, 50062.04, 0.004076453, 0.028720928, -1203523.9, 25700.549, 0.0000000065346386, 10.000987, 9.999216 
2.8086737e+3, 1.8456085e+2, -1360637.8, -1578158.4, 37247.71, -0.13319425, 0.10623593, -1354436.4, -223125.84, 0.0, 10.000281, 9.99733 
2.8082836e+3, 1.9455262e+2, -792249.8, -1150477.6, 57991.46, 0.1238063, 0.20975468, -783095.9, 250302.6, 0.0, 10.003169, 9.998148 
2.80789e+3, 2.0454383e+2, -608015.94, -1075887.3, -93789.21, 0.1751905, 0.31423324, -589915.3, 345572.56, 0.0, 10.003872, 9.997721 
2.80749e+3, 2.1453354e+2, -708175.44, -987282.4, -58406.273, -0.13280584, 0.18461823, -696446.2, 141140.97, 0.0, 10.002213, 9.998423 
2.807094e+3, 2.2452395e+2, -772811.6, -1022734.8, 2210.4001, -0.2054829, 0.18257397, -772792.06, -33112.5, 0.0, 10.001269, 9.998002 
2.8067023e+3, 2.3451447e+2, -605222.6, -798876.3, -35725.676, 0.08869185, 0.11265882, -598842.06, 42927.727, 0.0, 10.001413, 9.998756 
2.806309e+3, 2.445044e+2, -562407.9, -828668.44, -18638.396, 0.21022534, 0.044738926, -561109.56, -17244.813, 0.0, 10.001377, 9.997926 
2.8059137e+3, 2.5449327e+2, -443089.03, -625480.2, 8279.239, 0.08926141, -0.19069442, -442714.0, 3255.579, 0.0, 10.001221, 9.998673 
2.8055167e+3, 2.644851e+2, -349337.22, -481286.7, -31784.115, -0.1091569, -0.12622836, -342080.16, 5967.4, 0.0, 10.000871, 9.99924 
2.8051183e+3, 2.7448e+2, -277391.16, -303200.84, -70256.11, -0.38144752, 0.11994598, -218864.52, 31232.568, 0.0, 10.00035, 10.00001 
2.8047237e+3, 2.844716e+2, -348533.56, -493163.34, 10851.771, -0.28934035, 0.1415172, -347723.88, -195546.19, 0.0, 9.999971, 9.998254 
2.8043345e+3, 2.944577e+2, -192261.08, -288592.38, 9780.586, 0.22736599, -0.38424408, -191278.08, -136968.38, 0.0, 10.000092, 9.998898 
2.8039405e+3, 3.0445096e+2, -178518.98, -174135.34, 54043.434, 0.22549789, -0.1870016, -122239.3, -122239.3, 0.0, 9.999309, 9.999369 
2.8035432e+3, 3.144538e+2, -213028.36, -27158.256, -57925.395, -0.23876834, 0.749668, -10584.062, -10584.062, 0.0, 9.9981575, 10.000591 
2.803153e+3, 3.2443067e+2, -186600.13, 33124.324, 73665.69, -0.23779719, -0.7805227, 55535.84, 55535.84, 0.0, 9.998065, 10.001005 
2.8206363e+3, 1.3499528e+2, -1458973.6, -1323712.4, -175290.63, 0.037366483, 0.2207887, -1203458.3, 413608.9, 0.000107448104, 10.000775, 10.001964 
2.8202447e+3, 1.4498954e+2, -1535705.8, -1674289.4, 144827.78, 0.40500605, 0.26398647, -1444447.1, 74660.586, 0.00003510944, 10.000983, 9.99903 
2.819853e+3, 1.5498184e+2, -1082620.1, -1169353.0, 122266.734, 0.21883473, 0.10196733, -996256.9, 424930.66, 0.0000055355054, 10.002538, 10.000996 
2.8194603e+3, 1.6497378e+2, -1188648.3, -1616503.0, -127929.23, 0.24034607, 0.15404917, -1153315.1, 169952.39, 0.0000002527922, 10.0029, 9.997162 
2.8190646e+3, 1.7496482e+2, -1127390.4, -1420210.8, -121777.99, 0.34773648, 0.16249512, -1083364.6, 141988.11, 0.0, 10.002246, 9.998099 
2.81867e+3, 1.8495551e+2, -1176867.6, -1482391.8, 131245.4, 0.20571029, 0.23710203, -1128230.6, -786.225, 0.0, 10.001566, 9.997365 
2.8182766e+3, 1.9494481e+2, -900344.5, -1202545.4, 156354.36, -0.123216785, 0.068780094, -834009.8, 195542.56, 0.0, 10.00244, 9.998154 
2.8178823e+3, 2.0493542e+2, -854703.25, -1151904.4, -142133.94, -0.17195702, 0.10841174, -797672.6, 133973.81, 0.0, 10.002151, 9.997962 
2.8174853e+3, 2.1492663e+2, -813866.7, -967055.3, -138723.52, -0.013265189, 0.042199314, -731996.8, 101735.7, 0.0, 10.00132, 9.998925 
2.8170896e+3, 2.2491871e+2, -974546.4, -1248940.3, 12172.503, 0.02356082, 0.24766931, -974007.44, -238193.34, 0.0, 10.00057, 9.996744 
2.816695e+3, 2.3491067e+2, -774951.6, -973039.7, -21534.531, 0.019394822, 0.38398886, -772637.6, -134736.97, 0.0, 10.000789, 9.997802 
2.8163004e+3, 2.4490239e+2, -680723.5, -803825.8, -7353.515, 0.0011483098, 0.5200848, -680285.75, -140304.73, 0.0, 10.000362, 9.998545 
2.8159058e+3, 2.5489283e+2, -522038.9, -556509.1, 6730.108, -0.032379247, 0.32275772, -520771.5, -78705.32, 0.0, 10.000325, 9.999538 
2.815509e+3, 2.6488248e+2, -566878.44, -651181.7, -57355.406, -0.15508713, 0.1701083, -537851.44, -193691.9, 0.0, 9.999835, 9.998505 
2.815111e+3, 2.7487072e+2, -413503.84, -399434.7, -80217.62, -0.36827645, -0.2440039, -325943.8, -79676.87, 0.0, 9.999694, 9.999596 
2.8147155e+3, 2.848621e+2, -457180.9, -488867.38, 7130.75, -0.34632745, -0.2328504, -455650.16, -307304.06, 0.0, 9.999169, 9.998602 
2.814325e+3, 2.948551e+2, -243304.19, -207417.5, 27934.69, 0.0025727744, -0.17906608, -192159.78, -141749.03, 0.0, 9.999452, 9.999689 
2.8139308e+3, 3.048479e+2, -509595.2, -700766.2, -1964.5807, 0.02355696, 0.1014602, -509575.0, -509575.0, 0.0, 9.998714, 9.996024 
2.8135353e+3, 3.14841e+2, -585310.6, -548855.3, -125105.97, -0.122847326, 0.35161465, -440656.1, -440656.1, 0.0, 9.997158, 9.997466 
2.8131464e+3, 3.2482943e+2, -289085.66, 58617.707, 190484.42, -0.0765534, 0.08796131, 142658.88, 142658.88, 0.0, 9.997276, 10.001473 
2.8306344e+3, 1.3538921e+2, -1541438.3, -1318041.1, -30170.326, 0.43004617, 0.16171701, -1314038.3, 299165.53, 0.00005064086, 9.99997, 10.002413 
2.8302363e+3, 1.4538296e+2, -1421290.6, -1858464.6, 72210.016, -0.040612727, 0.2812129, -1409672.1, 105580.93, 0.00001538915, 10.002813, 9.996867 
2.829848e+3, 1.5537308e+2, -1437999.0, -1641204.6, 128.57544, 0.235126, 0.16079359, -1437998.9, -20637.941, 0.0000020566958, 10.001382, 9.998316 
2.8294557e+3, 1.6536413e+2, -1183656.3, -1419770.4, -196745.69, 0.2982612, 0.15843384, -1072265.5, 247182.95, 0.00000005936716, 10.002058, 9.998922 
2.8290597e+3, 1.7535518e+2, -655899.4, -1059710.9, -96511.25, 0.15440299, 0.029596327, -634018.75, 587508.2, 0.0, 10.004844, 9.999348 
2.8286648e+3, 1.8534687e+2, -625841.1, -1042656.9, 46003.715, 0.011069053, 0.06303088, -620824.1, 502780.4, 0.0, 10.004543, 9.9989805 
2.8282714e+3, 1.953382e+2, -929041.06, -1092630.4, 128877.805, -0.14554943, -0.010384247, -858192.8, 167497.4, 0.0, 10.001646, 9.999329 
2.827876e+3, 2.0533004e+2, -1033107.44, -1201994.5, -103214.6, -0.17045726, 0.08107875, -984194.44, -56420.55, 0.0, 10.00069, 9.99836 
2.827479e+3, 2.1532173e+2, -761894.75, -964564.75, -92628.734, -0.07673323, 0.10597515, -725938.56, 103922.305, 0.0, 10.001695, 9.998799 
2.8270835e+3, 2.2531363e+2, -621050.3, -942249.1, 55998.453, -0.034214754, 0.23993059, -611567.4, 120377.47, 0.0, 10.00232, 9.998031 
2.8266886e+3, 2.3530512e+2, -489589.0, -784778.6, 100978.62, -0.051789377, 0.29240343, -458351.75, 175681.17, 0.0, 10.002381, 9.998396 
2.826293e+3, 2.4529731e+2, -441072.84, -593184.3, 86046.68, -0.091752395, 0.4161151, -402287.38, 133821.22, 0.0, 10.001516, 9.999469 
2.8258976e+3, 2.5528923e+2, -537039.75, -552222.1, 74286.07, -0.122355625, 0.37390894, -469958.03, -31776.266, 0.0, 10.000037, 9.999781 
2.8255016e+3, 2.6527888e+2, -557427.3, -621477.2, 49846.19, -0.15483649, 0.20757551, -530205.0, -189929.17, 0.0, 9.999705, 9.998784 
2.8251046e+3, 2.7526587e+2, -320060.25, -403021.0, 12437.05, -0.24236876, -0.27069384, -318235.88, -75841.32, 0.0, 10.000492, 9.999204 
2.8247097e+3, 2.8525713e+2, -175360.89, -346768.53, 72716.07, -0.21619661, -0.24505048, -148669.1, -4194.2344, 0.0, 10.0009985, 9.998713 
2.824317e+3, 2.952519e+2, 7244.625, -171931.73, -21954.232, -0.080335684, 0.04467764, 9895.43, 56419.652, 0.0, 10.0014, 9.99904 
2.8239217e+3, 3.0524272e+2, -196232.9, -637184.7, -35464.844, -0.118088186, 0.19267742, -193398.77, -193398.77, 0.0, 10.001107, 9.995345 
2.8235266e+3, 3.1522992e+2, -212619.47, -553225.7, -16858.906, -0.1038648, 0.002558801, -211787.05, -211787.05, 0.0, 10.000327, 9.99597 
2.823139e+3, 3.252268e+2, -346556.84, -30244.75, 314097.1, 0.1661775, 0.6896462, 163267.1, 163267.1, 0.0, 9.996934, 10.001116 
2.84063e+3, 1.3578297e+2, -1032127.94, -1173957.1, 211796.97, 0.6376995, 0.061311975, -879688.94, 729650.3, 0.00002671971, 10.003808, 10.001609 
2.840229e+3, 1.4577597e+2, -1348165.4, -2074648.6, 33409.6, -0.34834418, 0.28686336, -1346632.3, 164770.02, 0.000008259606, 10.00438, 9.99463 
2.8398436e+3, 1.5576419e+2, -1386485.4, -1868858.6, 24816.594, 0.3798281, 0.22031684, -1385212.0, 28323.541, 0.0000013335809, 10.002784, 9.996088 
2.8394517e+3, 1.6575441e+2, -1111863.4, -1183623.6, 10341.363, 0.44084403, 0.15648216, -1110402.9, 205226.7, 0.000000073245815, 10.001774, 10.000638 
2.839054e+3, 1.7574507e+2, -943442.7, -1029861.5, 33732.87, -0.06339077, -0.1768296, -931834.6, 285870.16, 0.0, 10.002197, 10.000806 
2.8386593e+3, 1.8573819e+2, -951408.56, -1034272.8, 9659.3, -0.17557581, -0.13225736, -950297.5, 169466.64, 0.0, 10.00169, 10.000353 
2.8382665e+3, 1.957323e+2, -1036154.06, -1019130.56, 48227.29, -0.006367286, -0.09656245, -978669.6, 43150.56, 0.0, 10.000441, 10.000363 
2.8378704e+3, 2.0572565e+2, -1098242.9, -1262093.1, -27398.271, -0.028614668, 0.123703144, -1093782.9, -169891.17, 0.0, 10.000454, 9.99803 
2.837472e+3, 2.157177e+2, -832643.0, -1038739.44, -36054.047, -0.1744849, 0.18690729, -826517.9, -535.86523, 0.0, 10.001481, 9.998355 
2.8370765e+3, 2.2570889e+2, -663535.06, -817597.75, 76210.82, -0.17901273, 0.21834686, -632206.25, 95863.98, 0.0, 10.00152, 9.999243 
2.8366828e+3, 2.3569873e+2, -587839.56, -706635.8, 90070.18, -0.08836551, -0.054655433, -539345.3, 90819.19, 0.0, 10.001261, 9.999452 
2.8362867e+3, 2.4569069e+2, -616788.0, -717302.8, 28810.674, -0.12690616, 0.025494657, -609115.56, -76874.99, 0.0, 10.000596, 9.999042 
2.8358892e+3, 2.5568333e+2, -676511.75, -665719.4, 14406.683, -0.20146678, 0.05286626, -655731.44, -221419.89, 0.0, 9.999402, 9.999283 
2.835494e+3, 2.6567528e+2, -703609.6, -719666.9, 65928.98, -0.15088154, 0.16628316, -645222.25, -308834.03, 0.0, 9.998981, 9.998397 
2.8350997e+3, 2.7566558e+2, -482816.34, -542062.5, 44898.574, -0.018547133, 0.013178072, -458649.0, -220169.95, 0.0, 9.999766, 9.998545 
2.8347054e+3, 2.8565633e+2, -418837.84, -677525.7, 84953.164, -0.008289466, 0.12906088, -393433.94, -252864.7, 0.0, 10.000375, 9.9967 
2.834311e+3, 2.956468e+2, -222426.27, -500578.16, -5265.0215, -0.08150884, 0.15674269, -222326.64, -179662.03, 0.0, 10.000874, 9.997014 
2.8339133e+3, 3.056356e+2, -144374.34, -384009.3, -60053.043, -0.345255, 0.10651563, -130167.21, -130167.21, 0.0, 10.00066, 9.997236 
2.8335163e+3, 3.1562257e+2, -211823.95, -380155.7, 6266.6763, -0.46605572, -0.31597534, -211590.97, -211590.97, 0.0, 9.999762, 9.997373 
2.8331274e+3, 3.256155e+2, -708327.06, -393507.4, 171882.44, 0.0064934473, -0.041624255, -317847.66, -317847.66, 0.0, 9.995525, 9.999172 
2.8506207e+3, 1.3617525e+2, -944430.25, -1614073.4, 165350.77, -0.2657915, -0.14044932, -905826.7, 699656.5, 0.0000133144695, 10.006399, 9.997401 
2.8502303e+3, 1.461694e+2, -969693.56, -1653468.3, -29751.402, -0.06272242, 0.29995373, -968401.5, 539145.2, 0.0000038169696, 10.005898, 9.996806 
2.8498408e+3, 1.5615901e+2, -1046133.9, -1542022.0, 109832.8, 0.40353805, 0.20952867, -1022896.25, 386766.97, 0.0000005153316, 10.004349, 9.997607 
2.8494465e+3, 1.6615036e+2, -1063188.3, -1111226.1, 69290.76, 0.42769775, 0.1776863, -1013871.56, 297874.9, 0.00000002542409, 10.001864, 10.001089 
2.8490478e+3, 1.7614222e+2, -1428191.0, -1224847.9, 104652.73, 0.04376872, -0.037032038, -1180610.9, 33202.67, 0.0, 9.998661, 10.001182 
2.848652e+3, 1.861356e+2, -1322753.6, -1035473.1, 137241.42, -0.10222572, -0.05942667, -980448.5, 135420.77, 0.0, 9.998302, 10.001987 
2.848259e+3, 1.9612944e+2, -1054996.8, -903285.7, 206761.17, -0.042051688, -0.15744272, -758904.44, 259019.02, 0.0, 9.999664, 10.001555 
2.8478634e+3, 2.0612258e+2, -954509.8, -1189139.5, 147759.58, -0.07849693, -0.0044910153, -883156.56, 36838.984, 0.0, 10.001355, 9.998118 
2.8474668e+3, 2.1611452e+2, -580805.6, -938244.75, 150909.78, -0.20100595, 0.103763774, -525614.0, 296472.25, 0.0, 10.003176, 9.998278 
2.8470713e+3, 2.2610572e+2, -463021.94, -724641.94, 115740.65, -0.18819483, 0.14713542, -419168.94, 305007.53, 0.0, 10.002864, 9.999236 
2.8466764e+3, 2.3609565e+2, -601400.5, -727846.25, 71440.12, -0.116318345, -0.053272404, -569225.1, 57047.65, 0.0, 10.001133, 9.999389 
2.84628e+3, 2.4608737e+2, -472878.56, -599015.8, 24772.023, -0.12823975, -0.03575604, -468188.0, 60163.04, 0.0, 10.001239, 9.999594 
2.8458825e+3, 2.5607982e+2, -217595.3, -431709.53, 40297.656, -0.19892544, -0.017684257, -210262.17, 220160.13, 0.0, 10.002354, 9.999524 
2.845487e+3, 2.660718e+2, -219714.78, -514150.4, 83867.78, -0.15135154, 0.10049685, -197501.52, 134998.58, 0.0, 10.002333, 9.998239 
2.845093e+3, 2.7606305e+2, -179377.95, -446392.16, 37829.113, -0.024919868, 0.12882157, -174121.98, 60463.965, 0.0, 10.0019455, 9.9982195 
2.8446987e+3, 2.860532e+2, -300497.8, -649211.94, 120681.914, -0.0133796735, 0.20736921, -262806.5, -126123.1, 0.0, 10.0012, 9.996546 
2.8443038e+3, 2.9604194e+2, -333404.13, -585462.9, 112743.44, -0.11582151, 0.14427964, -290334.47, -251538.28, 0.0, 10.000178, 9.996791 
2.843906e+3, 3.0603042e+2, -130393.96, -235678.56, 69725.586, -0.36083794, 0.012619118, -95669.96, -95669.96, 0.0, 10.000007, 9.998624 
2.8435087e+3, 3.1601864e+2, -64833.43, -206913.28, 23103.662, -0.4614375, -0.35971493, -61170.94, -61170.94, 0.0, 10.000201, 9.99842 
2.8431168e+3, 3.2600924e+2, -373313.53, -358069.97, -13057.35, 0.014196608, -0.31134924, -350572.7, -350572.7, 0.0, 9.998089, 9.998312 
2.8606158e+3, 1.3656867e+2, -1276907.4, -2058019.4, 221805.75, -0.6897023, -0.24430062, -1218317.8, 383302.06, 0.0000059672334, 10.005419, 9.994799 
2.8602317e+3, 1.4656325e+2, -1159485.8, -1471456.8, 42694.508, 0.2892488, 0.246647, -1153748.3, 349936.9, 0.0000015122073, 10.003489, 9.999187 
2.8598374e+3, 1.5655515e+2, -1284318.1, -1443321.5, 107237.63, 0.45035484, 0.1579384, -1230326.6, 175448.5, 0.0000000966577, 10.001834, 9.999477 
2.859441e+3, 1.665479e+2, -1176827.0, -1175330.4, 49434.293, 0.47291493, 0.19857664, -1126638.8, 181206.83, 0.00000000026919006, 10.001164, 10.000987 
2.8590417e+3, 1.7654106e+2, -1172636.5, -1110337.9, 67551.26, 0.2977588, 0.11876703, -1067100.0, 142805.42, 0.0, 10.000487, 10.001086 
2.858645e+3, 1.8653467e+2, -1041422.5, -766064.25, 187990.66, 0.07966254, 0.06843701, -670728.25, 441231.06, 0.0, 9.999789, 10.003096 
2.8582507e+3, 1.9652785e+2, -1068070.9, -834277.06, 153133.19, -0.06407465, -0.2176724, -758522.3, 255494.1, 0.0, 9.999378, 10.002143 
2.857857e+3, 2.0652053e+2, -1089397.8, -1268378.4, 157558.0, -0.08966564, -0.12135037, -997689.2, -81599.766, 0.0, 10.000549, 9.99795 
2.8574634e+3, 2.1651195e+2, -800343.44, -1116317.0, 158964.55, -0.085745245, -0.073071025, -734210.75, 83970.68, 0.0, 10.002008, 9.997633 
2.8570673e+3, 2.2650348e+2, -739545.8, -996616.8, 50192.61, -0.0974028, 0.11031789, -730093.4, -9820.795, 0.0, 10.001672, 9.997873 
2.85667e+3, 2.3649442e+2, -856733.06, -989662.56, 7934.3115, -0.093901195, 0.098496035, -856261.1, -233892.16, 0.0, 10.000127, 9.998007 
2.8562737e+3, 2.4648629e+2, -584332.44, -575395.94, 68978.45, -0.10939942, 0.16750702, -510741.16, 13704.51, 0.0, 10.000344, 10.000062 
2.8558776e+3, 2.5647795e+2, -395123.97, -522453.1, 72991.875, -0.14103308, 0.01515609, -361933.03, 64586.168, 0.0, 10.001306, 9.999316 
2.8554812e+3, 2.6646858e+2, -405007.4, -717498.44, 62021.24, -0.20595954, 0.07790487, -393147.9, -64537.273, 0.0, 10.001639, 9.997133 
2.8550848e+3, 2.7645794e+2, -375159.06, -663756.6, 24730.229, -0.28315902, -0.01944118, -373055.22, -142337.1, 0.0, 10.001175, 9.9970875 
2.8546897e+3, 2.8644782e+2, -359548.75, -547909.94, 70350.87, -0.28077433, 0.028532496, -336174.13, -203357.63, 0.0, 10.000422, 9.997539 
2.8542948e+3, 2.9643705e+2, -443258.22, -569351.75, 94241.23, -0.26324677, -0.109489, -392919.34, -358000.34, 0.0, 9.999262, 9.997295 
2.8538993e+3, 3.0642796e+2, -288510.1, -338302.7, 78300.27, -0.25467122, 0.0030882831, -231243.39, -231243.39, 0.0, 9.999209, 9.998221 
2.853505e+3, 3.1642e+2, -308634.3, -368990.56, 35311.69, -0.09240413, 0.009866972, -292362.1, -292362.1, 0.0, 9.998894, 9.997864 
2.853108e+3, 3.2641166e+2, -273600.7, 12246.362, -10682.248, 0.015921129, 0.018032337, 12645.008, 12645.008, 0.0, 9.997617, 10.000998 
2.8706184e+3, 1.3696761e+2, -1094312.6, -1424362.3, 50462.547, -0.246324, -0.020043017, -1086769.6, 510943.22, 0.0000021514043, 10.004237, 9.999767 
2.8702244e+3, 1.4695786e+2, -1362734.3, -1404383.3, 81587.72, 0.080026224, -0.23171106, -1299355.4, 200454.42, 0.00000043033984, 10.001335, 10.0007 
2.869828e+3, 1.5695427e+2, -1603860.4, -1496716.1, 184459.5, 0.21967389, 0.027213877, -1358206.8, 43646.39, 0.000000019645139, 9.999156, 10.000425 
2.8694332e+3, 1.6694792e+2, -1221338.1, -1198118.9, 215435.53, 0.3129363, 0.12846437, -993980.4, 309934.34, 0.0, 10.000864, 10.0009775 
2.8690365e+3, 1.7694016e+2, -722580.3, -977744.0, 233634.08, 0.21373539, 0.013949026, -583963.0, 622022.75, 0.0, 10.003913, 10.000362 
2.8686398e+3, 1.869326e+2, -762054.3, -1000223.0, 98146.234, 0.08736435, 0.06550904, -726821.56, 381239.22, 0.0, 10.00316, 9.999923 
2.868244e+3, 1.9692443e+2, -1111731.5, -1128383.4, -10104.544, -0.010871552, -0.015742363, -1106964.5, -96821.37, 0.0, 10.000086, 9.999862 
2.867851e+3, 2.0691705e+2, -928241.2, -878032.4, 80823.84, -0.045539565, -0.013597959, -818503.94, 93708.94, 0.0, 10.000276, 10.000759 
2.867458e+3, 2.1690935e+2, -669751.9, -822821.8, 169256.94, -0.08629228, -0.10866259, -560530.25, 253754.52, 0.0, 10.0018215, 9.999761 
2.8670612e+3, 2.2690144e+2, -720152.75, -998278.4, 26442.398, -0.10526055, 0.03908716, -717661.06, -1293.3911, 0.0, 10.001719, 9.997892 
2.8666627e+3, 2.3689318e+2, -759307.6, -950084.75, 69826.71, -0.104583874, 0.16120687, -736481.4, -118023.234, 0.0, 10.000671, 9.998078 
2.866267e+3, 2.4688472e+2, -483115.22, -527095.2, 174549.36, -0.12469864, 0.1885095, -329176.16, 191362.94, 0.0, 10.000929, 10.000145 
2.8658718e+3, 2.568756e+2, -302221.4, -492556.7, 119521.67, -0.16619794, 0.0076830913, -244607.16, 178013.77, 0.0, 10.001886, 9.999277 
2.8654757e+3, 2.668661e+2, -347700.72, -716586.06, 81680.09, -0.2011636, 0.06371003, -330423.94, -5707.964, 0.0, 10.002009, 9.997009 
2.865079e+3, 2.7685565e+2, -304267.28, -640483.75, 70925.0, -0.24855612, 0.05411035, -289918.03, -63093.61, 0.0, 10.001543, 9.997118 
2.864683e+3, 2.8684524e+2, -136303.19, -282334.6, 142062.86, -0.28048766, -0.0057666977, -49590.53, 79331.52, 0.0, 10.001207, 9.999001 
2.8642872e+3, 2.968346e+2, -97458.99, -282987.6, 165816.11, -0.3109834, -0.22002396, -222.77144, 30795.16, 0.0, 10.0009985, 9.998468 
2.863893e+3, 3.0682713e+2, -46884.39, -201338.69, 197642.52, -0.15728486, 0.0005396142, 88083.18, 88083.18, 0.0, 10.000693, 9.99849 
2.8635004e+3, 3.1682152e+2, -32188.668, -193567.38, 127006.68, 0.19617444, 0.2856736, 37592.797, 37592.797, 0.0, 10.000464, 9.998374 
2.8630978e+3, 3.2681185e+2, 96512.164, 236571.92, -126611.586, -0.11378836, 0.12897782, 311230.25, 311230.25, 0.0, 9.999796, 10.001532 
2.8806177e+3, 1.3736607e+2, -1240250.4, -1012253.9, -33797.36, 0.10170179, 0.033009775, -1007349.4, 586460.25, 0.00000033823923, 10.001175, 10.004044 
2.8802168e+3, 1.4735422e+2, -1284353.9, -1283384.4, -29842.018, -0.025783151, -0.58462864, -1254023.3, 241895.22, 0.000000039050374, 10.0015545, 10.001402 
2.8798187e+3, 1.5735409e+2, -1246237.0, -1311191.4, 26413.053, 0.05915708, -0.046442013, -1236852.3, 161073.81, 0.0000000006124831, 10.001561, 10.000552 
2.8794253e+3, 1.67348e+2, -1079716.1, -1162430.5, 199129.22, 0.17470807, 0.08534037, -917694.7, 382289.75, 0.0, 10.002035, 10.000604 
2.8790322e+3, 1.7733884e+2, -1007659.5, -1282523.5, 149186.63, 0.16988194, -0.15928924, -942251.1, 259819.05, 0.0, 10.002702, 9.998827 
2.8786355e+3, 1.8733001e+2, -1207427.4, -1643665.6, -32832.605, 0.12692484, 0.056164086, -1204970.1, -100801.414, 0.0, 10.002101, 9.995953 
2.878238e+3, 1.9732074e+2, -1300142.5, -1517211.6, -25675.73, 0.14704822, 0.22440302, -1297146.8, -290869.9, 0.0, 10.000199, 9.997108 
2.8778446e+3, 2.0731379e+2, -743649.6, -437460.63, 193909.14, 0.053871356, 0.20241782, -343495.06, 564843.1, 0.0, 10.000163, 10.003803 
2.877452e+3, 2.1730715e+2, -702394.0, -608743.6, 156476.11, -0.07607254, -0.103833936, -492236.72, 318150.53, 0.0, 10.000749, 10.001712 
2.8770548e+3, 2.2729984e+2, -829197.2, -978942.44, -47015.316, -0.10986749, 0.0038067254, -815659.7, -103200.81, 0.0, 10.000823, 9.998405 
2.8766558e+3, 2.3729205e+2, -921403.8, -1050317.3, 22445.164, -0.081824385, 0.10392522, -917607.7, -303065.7, 0.0, 9.999816, 9.997765 
2.87626e+3, 2.4728312e+2, -628807.6, -679714.06, 196974.42, -0.14218086, 0.1503018, -455648.72, 60980.633, 0.0, 10.000372, 9.999363 
2.875865e+3, 2.5727305e+2, -549720.75, -739596.75, 133187.73, -0.24082686, -0.06488769, -481097.78, -62373.293, 0.0, 10.000842, 9.998088 
2.8754708e+3, 2.6726475e+2, -477386.38, -751670.75, 60792.668, -0.14091815, 0.15856455, -464516.13, -143704.84, 0.0, 10.001139, 9.99714 
2.8750756e+3, 2.7725628e+2, -498285.47, -732905.94, 66683.46, 0.038819406, 0.30785838, -480657.28, -257754.33, 0.0, 10.000338, 9.997033 
2.8746784e+3, 2.872462e+2, -136886.81, -120036.74, 139899.23, -0.091232166, 0.19259056, 11690.906, 136685.11, 0.0, 10.000579, 10.000383 
2.8742805e+3, 2.9723492e+2, -177413.73, -262574.38, 181187.05, -0.34030026, -0.236728, -33870.9, -6780.9893, 0.0, 10.000279, 9.998944 
2.8738865e+3, 3.0722737e+2, -109170.875, -186898.88, 173635.3, -0.13611498, -0.05393247, 29896.654, 29896.654, 0.0, 10.000226, 9.998782 
2.873495e+3, 3.1722122e+2, -362627.53, -510805.25, 132996.03, 0.32612824, 0.15508352, -284476.1, -284476.1, 0.0, 9.999012, 9.996883 
2.8730837e+3, 3.272071e+2, -409438.97, -442433.63, -84463.17, -0.8120984, -0.23943792, -339877.06, -339877.06, 0.0, 9.998529, 9.997329 
2.8906068e+3, 1.3776617e+2, -1754875.1, -1502765.4, 7216.31, -0.25162056, 0.11908497, -1502559.0, 87329.17, 0.0000000028010363, 9.998635, 10.001932 
2.8902134e+3, 1.4775455e+2, -1388980.8, -1540657.0, -21128.283, 0.2019037, -0.2802779, -1386092.6, 105909.12, 0.0, 10.001713, 9.9995575 
2.8898126e+3, 1.5775128e+2, -971725.5, -1347452.0, -24812.078, -0.20706277, 0.1317779, -970094.06, 423947.38, 0.0, 10.004092, 9.999114 
2.8894192e+3, 1.6774398e+2, -855147.06, -1093831.1, -2877.2053, -0.036229584, 0.18874615, -855112.4, 441000.25, 0.0, 10.003653, 10.000331 
2.8890276e+3, 1.7773484e+2, -1106820.8, -1300401.4, -31045.209, 0.19376059, -0.0283866, -1101963.8, 96235.61, 0.0, 10.001778, 9.999189 
2.88863e+3, 1.8772647e+2, -1053875.1, -1315878.6, -71671.18, 0.15861748, 0.05882142, -1035551.0, 64736.195, 0.0, 10.001936, 9.998327 
2.8882316e+3, 1.9771822e+2, -875083.8, -1156336.4, 157879.02, 0.05236076, 0.15381703, -804282.7, 198094.9, 0.0, 10.002316, 9.998613 
2.8878373e+3, 2.0771138e+2, -656514.4, -609539.8, 273088.0, -0.03728872, 0.20635903, -358930.9, 545511.1, 0.0, 10.00158, 10.00197 
2.8874448e+3, 2.1770462e+2, -788264.25, -743515.06, 84223.23, -0.15960817, 0.081503056, -678745.06, 127754.66, 0.0, 10.000429, 10.000975 
2.8870484e+3, 2.2769672e+2, -613162.7, -741706.4, -132695.75, -0.12887949, 0.05697729, -529992.94, 178580.2, 0.0, 10.001583, 9.999728 
2.8866503e+3, 2.3768824e+2, -334339.06, -657648.7, -23630.244, -0.06320098, -0.009744348, -332621.06, 278033.88, 0.0, 10.003172, 9.998918 
2.8862548e+3, 2.4767938e+2, -339430.63, -626784.9, 116076.945, -0.08044863, 0.020944359, -298399.97, 214342.89, 0.0, 10.002652, 9.998667 
2.88586e+3, 2.5766975e+2, -455105.34, -691501.44, 50328.2, -0.15539949, -0.054884024, -444836.63, -29998.102, 0.0, 10.001333, 9.998242 
2.885465e+3, 2.6766223e+2, -357675.88, -486439.4, 53016.477, -0.049224284, 0.110224575, -338656.44, -21741.455, 0.0, 10.001034, 9.999009 
2.8850698e+3, 2.7765512e+2, -255569.4, -451795.34, 149015.08, 0.10814443, 0.26564443, -175268.13, 43720.375, 0.0, 10.001216, 9.998551 
2.8846726e+3, 2.8764573e+2, -70747.55, -154834.61, 159515.94, -0.026708152, 0.19176193, 52172.54, 173247.67, 0.0, 10.001132, 9.99994 
2.8842744e+3, 2.9763514e+2, -95363.92, -214796.84, 65301.24, -0.2589847, -0.11780382, -66591.36, -43422.453, 0.0, 10.000644, 9.999146 
2.8838798e+3, 3.0762622e+2, -1736.839, -115154.445, 60202.723, -0.08006859, -0.119334266, 24260.2, 24260.2, 0.0, 10.000821, 9.99905 
2.883488e+3, 3.1761783e+2, -25404.47, -290772.6, 1343.2183, 0.37248808, -0.105662026, -25397.672, -25397.672, 0.0, 10.0009575, 9.997557 
2.8830755e+3, 3.2760793e+2, -142101.06, -262702.22, -25222.2, -0.8337402, -0.059743837, -137038.66, -137038.66, 0.0, 9.999865, 9.998144 
2.900598e+3, 1.3816524e+2, -1621884.1, -1739785.1, -36242.098, -0.33211714, 0.1816811, -1611634.5, -25656.38, 0.00000000011876347, 10.00084, 9.999267 
2.9002103e+3, 1.4815398e+2, -1525757.9, -1781395.3, 38581.906, 0.47032502, 0.008943375, -1520061.8, -31967.861, 0.0, 10.00157, 9.9979725 
2.899807e+3, 1.5814742e+2, -1339167.6, -1668564.6, 68337.67, -0.34507784, 0.24141513, -1325552.8, 64614.086, 0.0, 10.002251, 9.997782 
2.899414e+3, 1.681395e+2, -1084952.5, -1226725.8, 34514.547, -0.11566995, 0.30466956, -1076996.4, 215250.28, 0.0, 10.002279, 10.000031 
2.8990233e+3, 1.7813057e+2, -1174691.6, -1272298.0, 17557.818, 0.35036904, 0.122549064, -1171629.4, 22703.814, 0.0, 10.0011215, 9.999686 
2.898625e+3, 1.881234e+2, -867297.75, -815107.5, 14366.347, 0.22501457, 0.08985269, -811414.25, 284985.25, 0.0, 10.001506, 10.001928 
2.8982252e+3, 1.9811654e+2, -888583.44, -1003238.9, 154744.97, -0.01857739, -0.03518451, -780888.5, 217574.47, 0.0, 10.001609, 9.999951 
2.8978303e+3, 2.081095e+2, -966575.44, -1150720.9, 250141.23, -0.13435255, 0.16958526, -792099.8, 108436.94, 0.0, 10.001222, 9.998365 
2.8974372e+3, 2.1810189e+2, -1065560.4, -1150547.6, 113360.16, -0.18718347, 0.28088537, -986991.06, -184373.95, 0.0, 9.999808, 9.998436 
2.8970423e+3, 2.2809301e+2, -601900.8, -540792.3, -17478.611, -0.123593085, 0.14655262, -536146.25, 168549.88, 0.0, 10.000984, 10.001308 
2.896646e+3, 2.3808344e+2, -522967.5, -713826.44, 16573.29, -0.014315073, -0.19886954, -521539.03, 85239.945, 0.0, 10.001845, 9.999127 
2.8962508e+3, 2.4807487e+2, -547918.06, -804243.9, 77405.38, 0.028980307, -0.0850933, -526356.8, -17491.113, 0.0, 10.001717, 9.997795 
2.8958556e+3, 2.580661e+2, -687940.7, -818030.75, 34360.223, 0.049715765, -0.037505023, -679423.0, -268464.9, 0.0, 9.999957, 9.997963 
2.8954586e+3, 2.680586e+2, -262248.5, -116288.875, 79950.38, -0.013314017, -0.039859895, -81018.44, 232007.36, 0.0, 10.000399, 10.001808 
2.8950617e+3, 2.7805126e+2, -331987.4, -398863.16, 166544.72, -0.09630221, -0.19158863, -195557.0, 19532.328, 0.0, 10.000398, 9.999295 
2.8946647e+3, 2.880433e+2, -319382.63, -519492.22, 119780.25, -0.15487069, 0.0027693228, -263366.06, -146194.39, 0.0, 10.000635, 9.997627 
2.894268e+3, 2.980345e+2, -380824.38, -571995.44, 47672.48, -0.2122322, 0.08269214, -369595.78, -350330.94, 0.0, 9.99978, 9.997065 
2.8938696e+3, 3.080248e+2, 80488.414, 3045.8933, 66524.23, -0.43855527, 0.0138116, 118739.93, 118739.93, 0.0, 10.001273, 9.999442 
2.8934723e+3, 3.1801572e+2, 10022.843, -240194.13, 27116.398, -0.6038845, -0.09972006, 12927.764, 12927.764, 0.0, 10.001293, 9.9976015 
2.8930798e+3, 3.2801285e+2, -107806.945, 647162.25, -70059.21, 0.34705606, 0.04350374, 653608.56, 653608.56, 0.0, 9.9967, 10.005564 
2.9105932e+3, 1.3855837e+2, -1428272.4, -1618551.6, -289253.2, -0.36577502, 0.12020635, -1218914.1, 363214.7, 0.0000000000007792345, 10.001947, 9.99963 
2.910204e+3, 1.4854847e+2, -1415197.4, -1468541.4, 4998.5605, 0.42378205, -0.08740003, -1414733.0, 69489.984, 0.0, 10.001123, 10.000382 
2.9098025e+3, 1.5854259e+2, -1448896.8, -1522322.9, 145246.8, -0.22498816, -0.0026747184, -1335795.0, 50484.7, 0.0, 10.000559, 9.999641 
2.909409e+3, 1.68536e+2, -1240878.9, -1227126.1, 140850.55, -0.0032429483, 0.09160363, -1092984.3, 195364.44, 0.0, 10.000852, 10.000732 
2.9090172e+3, 1.7852877e+2, -1133552.6, -1171866.3, 176143.78, 0.31908247, 0.04253872, -975527.0, 214897.28, 0.0, 10.000959, 10.000488 
2.9086187e+3, 1.8852249e+2, -800797.25, -739117.3, 106696.57, 0.16490637, 0.04567907, -658893.06, 433589.94, 0.0, 10.001692, 10.002396 
2.908219e+3, 1.9851632e+2, -805115.44, -924732.75, 167766.92, -0.10863381, -0.028819006, -686815.06, 307723.84, 0.0, 10.001901, 10.000389 
2.9078248e+3, 2.085085e+2, -819599.0, -1104358.4, 280213.56, -0.1267466, 0.08814876, -647667.4, 248952.14, 0.0, 10.002187, 9.998273 
2.907432e+3, 2.1849997e+2, -725968.4, -990221.0, 283918.5, -0.12566419, 0.15600657, -544938.06, 253771.06, 0.0, 10.002026, 9.998507 
2.9070368e+3, 2.284909e+2, -510973.66, -589202.2, 129649.74, -0.050096676, 0.06446742, -414666.44, 286127.7, 0.0, 10.001924, 10.0005665 
2.9066408e+3, 2.3848142e+2, -484272.53, -635457.44, 75841.87, 0.018062735, -0.17710945, -452784.63, 150095.5, 0.0, 10.001688, 9.999799 
2.906245e+3, 2.4847439e+2, -433741.78, -527303.7, 192585.2, 0.04822858, -0.0706037, -282337.16, 222610.86, 0.0, 10.001381, 9.999916 
2.905849e+3, 2.5846756e+2, -396569.1, -496243.56, 314047.06, 0.056154948, 0.025673848, -128429.42, 278586.75, 0.0, 10.000989, 9.999713 
2.9054523e+3, 2.6845875e+2, -118998.97, -120052.734, 289935.53, -0.0039208164, -0.11484853, 170410.17, 479505.72, 0.0, 10.001492, 10.001341 
2.9050553e+3, 2.7844962e+2, -91779.25, -297079.84, 149124.1, -0.11428399, -0.37865612, -13390.659, 197785.66, 0.0, 10.001928, 9.999313 
2.9046577e+3, 2.884419e+2, -264716.4, -561920.25, 141132.5, -0.21112543, -0.13278396, -208377.08, -95116.69, 0.0, 10.001264, 9.997043 
2.9042614e+3, 2.9843372e+2, -178041.16, -367541.5, 286014.53, -0.19838598, 0.09444846, 28509.047, 43862.098, 0.0, 10.000504, 9.998146 
2.9205883e+3, 1.3895185e+2, -1556378.3, -1568581.3, -245329.61, -0.23500475, 0.08650687, -1317074.3, 261200.2, 0.0, 10.000672, 10.000523 
2.9201978e+3, 1.48943e+2, -1229826.5, -1119007.8, 17256.441, 0.47246766, -0.21181618, -1116382.8, 363966.53, 0.0, 10.001332, 10.002629 
2.9197982e+3, 1.5893774e+2, -1397296.5, -1326834.8, 59652.0, 0.039140765, -0.2842551, -1292786.6, 89603.26, 0.0, 10.000215, 10.001132 
2.919404e+3, 1.6893265e+2, -1313739.4, -1196125.8, 66838.836, 0.15155303, -0.14354235, -1165906.3, 118540.59, 0.0, 10.000059, 10.001337 
2.91901e+3, 1.789271e+2, -1357799.0, -1267160.6, 86104.0, 0.31955844, -0.09831395, -1215177.5, -28666.156, 0.0, 9.999421, 10.000577 
2.9186118e+3, 1.8892199e+2, -1026035.25, -875846.1, 59493.105, 0.12032331, 0.019294228, -855135.5, 233426.16, 0.0, 10.000393, 10.00201 
2.9182136e+3, 1.9891624e+2, -1041056.1, -1098537.8, 123975.3, -0.06809561, 0.0036377541, -942533.8, 48082.02, 0.0, 10.0005865, 9.999829 
2.9178202e+3, 2.0890768e+2, -882585.06, -1008215.0, 243286.63, -0.032012355, -0.0058638486, -694135.0, 198564.16, 0.0, 10.001342, 9.999297 
2.9174277e+3, 2.1889828e+2, -952463.7, -1150095.5, 221150.08, 0.038252234, -0.12565954, -809056.7, -14264.878, 0.0, 10.000792, 9.997998 
2.917032e+3, 2.2888939e+2, -789318.0, -930752.9, 107048.32, 0.054423988, -0.063462295, -731737.75, -34854.746, 0.0, 10.000993, 9.998629 
2.9166353e+3, 2.3888071e+2, -740344.6, -778066.75, 69508.64, 0.06738955, -0.09522885, -687183.56, -88212.375, 0.0, 10.000152, 9.999523 
2.916238e+3, 2.4887645e+2, -292726.5, -22031.82, 165309.56, -0.0031706172, 0.028117057, 56270.445, 557274.06, 0.0, 10.000594, 10.003703 
2.9158404e+3, 2.5887242e+2, -520451.94, -474353.2, 288850.2, -0.08376472, 0.0402777, -207634.19, 195398.69, 0.0, 9.9999075, 10.000359 
2.915446e+3, 2.688621e+2, -436402.8, -590693.7, 291538.28, -0.030823786, -0.06924007, -211975.73, 93156.73, 0.0, 10.000889, 9.99828 
2.9150507e+3, 2.7885047e+2, -408887.75, -666595.1, 156290.67, -0.026201652, -0.3353615, -335182.7, -127935.555, 0.0, 10.000833, 9.997257 
2.9146498e+3, 2.8884184e+2, -284119.16, -458534.4, 107845.61, -0.3466949, -0.18438399, -232633.42, -123296.89, 0.0, 10.000778, 9.997916 
2.9142538e+3, 2.9883206e+2, -119451.19, 27.700281, 522561.3, -0.31272858, -0.31321406, 466253.22, 477690.06, 0.0, 9.999607, 10.001073 
2.9305837e+3, 1.3934833e+2, -1650456.0, -1505939.4, -12280.209, -0.021098556, 0.08816435, -1504903.4, 69481.0, 0.0, 9.999513, 10.001538 
2.9301938e+3, 1.4933763e+2, -1297165.6, -1274977.0, -39515.293, 0.6645826, -0.34980604, -1245028.1, 231449.13, 0.0, 10.001308, 10.001616 
2.92979e+3, 1.5933123e+2, -1466355.8, -1414577.5, -57613.574, -0.08524805, -0.43431678, -1377303.6, 1226.43, 0.0, 9.999876, 10.000731 
2.929394e+3, 1.6932711e+2, -1417972.4, -1223255.0, -83299.11, -0.032470357, -0.21789755, -1192483.1, 88096.89, 0.0, 9.999169, 10.001614 
2.9289985e+3, 1.7932297e+2, -1494019.8, -1269748.8, -34174.184, 0.01812598, -0.05681707, -1264656.9, -82024.27, 0.0, 9.998102, 10.001234 
2.9286024e+3, 1.8931863e+2, -1191993.1, -926018.5, -39025.473, -0.031430397, 0.07707059, -920410.6, 164265.64, 0.0, 9.9990425, 10.002355 
2.928207e+3, 1.9931352e+2, -1090683.0, -1030221.94, 48474.656, -0.07379977, 0.100418285, -1003323.8, -16599.016, 0.0, 9.999753, 10.000719 
2.9278138e+3, 2.0930463e+2, -901912.75, -932332.25, 131874.25, -0.03996345, -0.04272507, -784374.06, 104434.516, 0.0, 10.000792, 10.000113 
2.927421e+3, 2.1929507e+2, -781844.6, -939055.2, 92599.445, -0.04951043, -0.25209275, -738986.1, 51913.082, 0.0, 10.001222, 9.999305 
2.927025e+3, 2.29288e+2, -718012.5, -797893.9, 62720.258, 0.021416983, -0.13062905, -683595.3, 9376.44, 0.0, 10.000828, 9.99975 
2.926628e+3, 2.3928124e+2, -654286.4, -643999.06, 168561.23, 0.054435693, -0.030892149, -480503.03, 114538.32, 0.0, 10.000115, 10.000557 
2.926231e+3, 2.4927536e+2, -214931.14, -70013.68, 108839.69, -0.061673485, -0.062933125, -11719.422, 485370.2, 0.0, 10.001336, 10.0030985 
2.9258338e+3, 2.5926954e+2, -87902.74, -273601.78, -20732.287, -0.19091602, -0.16411483, -85616.25, 313519.6, 0.0, 10.002696, 10.00048 
2.9254392e+3, 2.6926085e+2, -244438.88, -533433.44, 63648.703, -0.11591229, -0.13856341, -231041.81, 70181.22, 0.0, 10.002213, 9.9981 
2.9250443e+3, 2.792511e+2, -242305.66, -585595.5, 73881.28, -0.05651058, -0.18478557, -227080.5, -23756.473, 0.0, 10.001749, 9.997443 
2.9246458e+3, 2.892421e+2, 25656.865, -367233.06, -14513.395, -0.16961806, -0.067037724, 26192.262, 131609.88, 0.0, 10.00291, 9.997654 
2.9242498e+3, 2.9923123e+2, 277102.38, 265486.63, 252091.89, -0.08867793, -0.28331906, 523453.28, 530979.94, 0.0, 10.001662, 10.002021 
2.9405802e+3, 1.3974456e+2, -1575995.5, -1460938.4, 223399.72, 0.3816786, 0.037415564, -1287778.9, 282717.03, 0.0, 9.999973, 10.00164 
2.9401892e+3, 1.4973289e+2, -1438043.5, -1454151.1, -12986.599, 0.84796166, -0.4283789, -1430816.0, 41784.777, 0.0, 10.000909, 10.000551 
2.939782e+3, 1.5972565e+2, -1472148.6, -1493769.0, -18623.846, -0.108135425, -0.49562952, -1461424.9, -86759.805, 0.0, 10.000251, 9.999993 
2.9393843e+3, 1.6972198e+2, -1292398.4, -1142470.3, -39901.766, -0.1902184, -0.21159881, -1132512.3, 144200.1, 0.0, 10.000049, 10.001692 
2.938987e+3, 1.7971852e+2, -1371858.8, -1218624.6, 3315.605, -0.19471678, 0.0019748167, -1218552.9, -39793.773, 0.0, 9.999063, 10.001072 
2.938593e+3, 1.8971463e+2, -1050224.6, -829690.75, 16734.855, -0.12813781, 0.16676305, -828428.06, 252371.02, 0.0, 9.999973, 10.002532 
2.9382e+3, 1.9970986e+2, -1065267.6, -1008227.3, 61898.934, 0.031109892, 0.19574687, -968594.1, 14250.722, 0.0, 10.000006, 10.000722 
2.937807e+3, 2.0970067e+2, -943836.75, -874945.8, 130494.89, -0.04152197, -0.043254085, -774426.8, 110503.055, 0.0, 10.00027, 10.000701 
2.9374135e+3, 2.196911e+2, -1030312.3, -974024.8, 54252.19, -0.13550171, -0.3325735, -941050.9, -154032.67, 0.0, 9.999249, 10.000004 
2.9370174e+3, 2.2968687e+2, -675915.2, -480613.44, 7796.1597, -0.033035487, -0.13676143, -480302.72, 208755.25, 0.0, 10.000018, 10.0022 
2.9366204e+3, 2.396824e+2, -844190.6, -814436.0, 144402.9, 0.070572324, -0.024907932, -684146.06, -93045.27, 0.0, 9.999331, 9.99969 
2.936224e+3, 2.4967174e+2, -589949.7, -638438.3, 146912.13, -0.11786382, -0.25823927, -465294.8, 27906.258, 0.0, 10.000628, 9.999437 
2.9358277e+3, 2.5966117e+2, -457284.0, -611984.7, 5451.099, -0.29907978, -0.54417586, -457092.16, -61791.37, 0.0, 10.001055, 9.998898 
2.935432e+3, 2.696564e+2, -195519.67, -268389.3, 38476.785, -0.2940764, -0.24332048, -178964.31, 118388.06, 0.0, 10.001591, 10.000209 
2.9350367e+3, 2.7965155e+2, -455112.0, -704847.7, 95171.24, -0.22481611, 0.023870112, -422978.13, -223571.13, 0.0, 10.000512, 9.997193 
2.9346463e+3, 2.8964224e+2, -158673.47, -630489.2, 29954.813, 0.3340706, 0.24117225, -156779.28, -55269.742, 0.0, 10.00259, 9.995915 
2.934244e+3, 2.9963207e+2, -120861.41, -146178.34, -106445.44, -0.12761055, 0.26652864, -26324.406, -22704.514, 0.0, 10.000224, 9.9997635 
2.9505733e+3, 1.4014089e+2, -1669546.3, -1649228.3, 137601.31, 0.29368246, -0.04152833, -1521411.4, 45197.82, 0.0, 9.999872, 10.000445 
2.9501784e+3, 1.5013313e+2, -1412887.0, -1334917.8, 8554.118, 0.42710704, -0.17147277, -1333990.3, 134692.78, 0.0, 10.000602, 10.001544 
2.949778e+3, 1.6012718e+2, -1375312.1, -1422626.0, 63520.895, 0.09610494, -0.15982862, -1331185.9, 39552.367, 0.0, 10.000723, 10.000303 
2.9493794e+3, 1.7012094e+2, -1152508.0, -1167316.0, 18414.154, -0.02975207, -0.084145375, -1140065.1, 132741.69, 0.0, 10.001286, 10.000989 
2.9489803e+3, 1.8011492e+2, -1073201.6, -1158377.6, 66914.586, -0.24930248, -0.026937744, -1036471.94, 138401.9, 0.0, 10.001349, 10.000426 
2.9485875e+3, 1.9010925e+2, -765653.44, -846702.8, 55521.34, -0.12559947, 0.0667015, -737440.44, 339490.5, 0.0, 10.00247, 10.001256 
2.9481953e+3, 2.0010339e+2, -672601.7, -844096.1, 10632.421, 0.050959077, 0.10567026, -671945.0, 307043.6, 0.0, 10.002661, 10.000612 
2.9478008e+3, 2.1009603e+2, -872871.25, -782146.44, 299.71637, 0.026437264, 0.008518283, -782145.5, 98914.31, 0.0, 10.000344, 10.001385 
2.9474053e+3, 2.2008844e+2, -1134113.9, -920597.5, -26032.316, -0.07953374, -0.13333939, -917469.44, -134336.94, 0.0, 9.997917, 10.0010605 
2.94701e+3, 2.3008408e+2, -610641.4, -428592.63, -83288.84, -0.020604601, -0.009861384, -396237.66, 288934.84, 0.0, 10.000315, 10.002447 
2.9466143e+3, 2.4007942e+2, -301550.28, -501056.1, -97085.72, 0.021598784, 0.05920511, -262104.48, 325110.72, 0.0, 10.002697, 10.000249 
2.9462168e+3, 2.5006887e+2, -574881.56, -704960.1, -4990.6143, -0.15817049, -0.1679897, -574690.4, -85375.36, 0.0, 10.000866, 9.998976 
2.94582e+3, 2.6005793e+2, -679977.7, -663106.56, 37529.695, -0.33325818, -0.43302736, -633076.06, -241656.6, 0.0, 9.999065, 9.999588 
2.9454252e+3, 2.7005365e+2, -219474.7, -180094.63, 54685.727, -0.31623203, -0.17549925, -141662.14, 151802.39, 0.0, 10.000844, 10.001245 
2.9450306e+3, 2.800498e+2, -31167.576, -339304.53, 41869.48, -0.25618395, 0.106001265, -25579.705, 169927.72, 0.0, 10.002571, 9.998759 
2.9446417e+3, 2.900396e+2, -203432.52, -552253.8, 178521.47, 0.42502958, 0.107270725, -128265.54, -30649.43, 0.0, 10.001668, 9.997006 
2.944235e+3, 3.0003285e+2, -57081.22, -196000.48, -57221.535, -0.34158897, 0.48713332, -36546.715, -36546.715, 0.0, 10.000654, 9.999329 
2.960565e+3, 1.4053674e+2, -1709052.4, -1765726.1, 133688.13, 0.20706508, -0.13315773, -1600730.9, -38001.684, 0.00000000001490612, 10.000103, 9.99952 
2.9601684e+3, 1.5053278e+2, -1325125.5, -1162146.6, -4474.5356, 0.14081514, 0.043864965, -1162023.9, 302748.38, 0.0, 10.00071, 10.002663 
2.9597738e+3, 1.6052833e+2, -1512598.9, -1494623.8, 35138.844, 0.413855, 0.12917374, -1467341.3, -100525.41, 0.0, 9.999847, 10.000218 
2.959375e+3, 1.7051984e+2, -1214788.8, -1272777.6, 28402.684, 0.1870065, 0.027100377, -1203195.1, 65706.59, 0.0, 10.001235, 10.000263 
2.9589754e+3, 1.8051107e+2, -1130032.0, -1319187.3, 125831.15, -0.14940444, -0.113654755, -1067198.0, 103792.25, 0.0, 10.001615, 9.999181 
2.9585826e+3, 1.9050345e+2, -982622.06, -1102941.8, 140043.38, -0.07231002, -0.089062944, -890363.56, 182702.19, 0.0, 10.001762, 9.999776 
2.958191e+3, 2.0049618e+2, -1058413.6, -1147875.1, 41768.203, 0.16589452, -0.05120975, -1041944.56, -66806.375, 0.0, 10.000635, 9.999482 
2.9577947e+3, 2.1049139e+2, -926544.0, -736437.0, -43675.914, 0.18057272, 0.100860775, -726882.9, 150307.6, 0.0, 9.999833, 10.0018635 
2.9573974e+3, 2.2048628e+2, -1219359.0, -1033369.3, 16726.477, 0.124936186, 0.16915315, -1031877.0, -252632.11, 0.0, 9.997828, 10.000268 
2.957003e+3, 2.3047999e+2, -691095.75, -576175.5, 45367.863, 0.0408357, 0.1862523, -560424.25, 120881.36, 0.0, 10.000317, 10.001387 
2.9566085e+3, 2.4047385e+2, -537088.8, -628137.1, -93510.73, -0.016761677, 0.16405942, -478609.6, 104753.47, 0.0, 10.001255, 10.000063 
2.9562098e+3, 2.504665e+2, -555179.9, -493971.66, -105658.3, -0.18350768, 0.12128618, -414574.44, 70855.05, 0.0, 10.000248, 10.000659 
2.9558116e+3, 2.6045862e+2, -866194.7, -734525.8, 48491.047, -0.31048417, 0.010544763, -718595.0, -331093.3, 0.0, 9.997867, 9.999623 
2.955419e+3, 2.7045232e+2, -336140.3, -244105.14, 138433.58, -0.26637632, 0.069040395, -144241.02, 145321.11, 0.0, 10.00021, 10.001024 
2.9550254e+3, 2.8044584e+2, -108540.72, -177042.75, 41678.08, -0.29634514, 0.034820456, -88845.52, 102779.445, 0.0, 10.001348, 10.000414 
2.9546297e+3, 2.9043457e+2, 23519.932, 76931.805, 131631.25, -0.17419939, -0.48617515, 184538.9, 278269.3, 0.0, 10.001156, 10.001482 
2.9542303e+3, 3.004306e+2, -221145.05, -247981.75, -10197.371, -0.13506022, -0.19338733, -217709.95, -217709.95, 0.0, 9.999622, 9.9994135 
2.970562e+3, 1.4093181e+2, -1680834.8, -1814869.4, 173846.0, 0.4840889, -0.27973872, -1561535.8, -2674.5557, 0.00000010737005, 10.00053, 9.998988 
2.9701635e+3, 1.5092716e+2, -1340539.5, -1155259.1, -80605.734, 0.34681535, -0.18107119, -1125100.8, 335810.4, 0.0, 10.000506, 10.002817 
2.9697624e+3, 1.6092364e+2, -1528349.4, -1445599.8, 17587.434, 0.0022772434, -0.011556346, -1442017.0, -79071.96, 0.0, 9.999432, 10.00077 
2.9693666e+3, 1.7091756e+2, -1062726.8, -1114686.6, 111914.24, -0.07567804, 0.043357637, -973816.5, 291189.1, 0.0, 10.00186, 10.001074 
2.9689702e+3, 1.8091036e+2, -796954.2, -1078776.9, 140521.7, -0.2708378, 0.0027276124, -738862.1, 428214.38, 0.0, 10.003461, 9.999967 
2.9685754e+3, 1.9090207e+2, -993005.06, -1061497.4, 136135.22, -0.19639055, -0.08642758, -886874.6, 182280.42, 0.0, 10.001352, 10.000329 
2.9681817e+3, 2.00894e+2, -1283120.9, -1237080.4, 153956.16, -0.039207682, -0.14510243, -1104433.0, -133199.97, 0.0, 9.998847, 9.999783 
2.967787e+3, 2.1088849e+2, -889953.9, -832545.75, 92340.85, 0.13994299, 0.022119213, -764550.5, 108742.75, 0.0, 10.000504, 10.000917 
2.9673922e+3, 2.2088306e+2, -638069.5, -862597.2, 118153.484, 0.21105511, 0.18325587, -587350.44, 188002.67, 0.0, 10.0021305, 9.999416 
2.9669988e+3, 2.3087527e+2, -463677.0, -695815.56, 120009.766, 0.15379329, 0.22836688, -412789.94, 264643.06, 0.0, 10.002671, 9.999532 
2.9666042e+3, 2.4086748e+2, -337340.22, -530217.44, -136759.34, 0.056600392, 0.20313127, -266436.28, 313074.28, 0.0, 10.002429, 10.000222 
2.9662037e+3, 2.508607e+2, -449981.78, -356560.94, -245449.48, -0.062289253, 0.15154855, -153416.77, 328153.84, 0.0, 10.000459, 10.001564 
2.9658043e+3, 2.6085424e+2, -626983.6, -461017.75, -65026.367, -0.17158273, 0.09802934, -438574.9, -54947.344, 0.0, 9.998642, 10.001162 
2.9654118e+3, 2.7084813e+2, -465636.03, -238166.08, 144757.34, -0.20637536, 0.06863799, -167807.78, 117876.67, 0.0, 9.998831, 10.001832 
2.9650185e+3, 2.8084138e+2, -297595.75, -129540.21, 27167.316, -0.30651948, -0.044151682, -125257.57, 62489.57, 0.0, 9.999216, 10.001848 
2.9646212e+3, 2.9083258e+2, 4508.5557, 214227.55, -143798.9, -0.31452718, -0.46049336, 287338.94, 377164.4, 0.0, 10.000267, 10.00294 
2.9642266e+3, 3.008291e+2, 122168.1, -72041.42, -433825.06, 0.17708705, -0.2139325, 469623.25, 469623.25, 0.0, 10.001775, 9.999649 
2.980559e+3, 1.4132956e+2, -1797930.6, -1865647.3, 180977.05, 0.8046812, -0.17216316, -1647671.9, -92703.68, 0.00000019973128, 9.999713, 9.999062 
2.9801583e+3, 1.5132275e+2, -1312773.3, -1156828.5, -99100.336, 0.5491485, -0.26848957, -1108703.4, 348335.47, 0.000000000008976791, 10.000812, 10.00267 
2.9797518e+3, 1.6131903e+2, -1259699.8, -1304250.8, 39298.45, -0.31740862, -0.12599735, -1236802.6, 122271.125, 0.0, 10.001271, 10.000888 
2.9793593e+3, 1.7131525e+2, -890698.06, -949773.44, 120212.58, -0.26197845, 0.095854364, -796447.44, 464663.13, 0.0, 10.002763, 10.001774 
2.9789665e+3, 1.8130992e+2, -873873.4, -1095671.0, -5.6279664, -0.24074738, 0.17198233, -873873.4, 289288.03, 0.0, 10.002916, 10.0001335 
2.9785684e+3, 1.9130139e+2, -915239.9, -923324.25, -114396.336, -0.26659104, -0.016597876, -804814.3, 260423.97, 0.0, 10.001543, 10.001177 
2.9781714e+3, 2.0129327e+2, -1286791.0, -1294839.6, 581.95795, -0.18371812, -0.16247766, -1286749.1, -319435.9, 0.0, 9.999164, 9.999226 
2.9777792e+3, 2.1128565e+2, -993600.9, -1062611.4, 63575.617, 0.07759974, -0.10816772, -955770.3, -86378.12, 0.0, 10.0005455, 9.999335 
2.9773876e+3, 2.212787e+2, -1036280.56, -1301542.4, 117150.44, 0.35903108, 0.05161464, -991950.5, -220484.06, 0.0, 10.000569, 9.997156 
2.9769954e+3, 2.312705e+2, -772555.5, -1050227.0, 139179.6, 0.33568114, 0.23758772, -714804.56, -41248.613, 0.0, 10.001616, 9.997544 
2.9766005e+3, 2.4126123e+2, -695168.8, -842050.4, -147840.55, 0.25369176, 0.24646738, -603532.7, -27880.086, 0.0, 10.000742, 9.99887 
2.9761982e+3, 2.5125304e+2, -565781.5, -366270.5, -297541.75, 0.15867391, 0.057428703, -152207.16, 325518.1, 0.0, 9.99966, 10.001824 
2.9757974e+3, 2.6124606e+2, -805560.8, -498282.88, -44544.82, 0.05788785, -0.07516241, -491955.66, -112169.38, 0.0, 9.99737, 10.001502 
2.9754037e+3, 2.7124122e+2, -421695.66, -3875.8325, 156287.33, -0.15344538, -0.13841596, 48114.777, 329945.1, 0.0, 9.998387, 10.003597 
2.97501e+3, 2.8123653e+2, -619143.0, -465142.38, 37731.402, -0.3243243, -0.14207248, -456394.75, -272520.5, 0.0, 9.997986, 10.000113 
2.9746178e+3, 2.9123348e+2, -336423.66, -252913.7, -141878.1, 0.09856962, 0.2770237, -146773.88, -60868.305, 0.0, 9.999418, 10.000097 
2.9742172e+3, 3.0122375e+2, -2905.53, -69783.97, -256879.61, -0.20927814, 0.06736641, 222702.19, 222702.19, 0.0, 10.000967, 9.99998 
2.9905406e+3, 1.4173602e+2, -1907540.3, -1657648.5, -32302.71, -0.31612867, 0.71902543, -1653540.4, -102547.91, 0.000000019519112, 9.9978485, 10.001454 
2.9901487e+3, 1.5172543e+2, -1415600.0, -1332394.3, -2072.256, 0.19950062, 0.2903953, -1332342.6, 120760.92, 0.0, 10.000671, 10.001591 
2.989751e+3, 1.617158e+2, -1160726.1, -1499345.3, 62481.496, -0.021674879, 0.0029303723, -1149565.0, 205633.81, 0.0, 10.002954, 9.998766 
2.9893613e+3, 1.7170696e+2, -992372.3, -1273214.5, -10039.394, 0.3048463, -0.035473954, -992013.9, 265270.34, 0.0, 10.003224, 9.999355 
2.9889685e+3, 1.8169925e+2, -936027.06, -1195516.3, -257665.03, 0.32810053, -0.015010657, -777284.4, 382073.78, 0.0, 10.00277, 9.999524 
2.9885668e+3, 1.9169134e+2, -774640.25, -921921.6, -411767.5, 0.079531, -0.09631916, -429980.28, 631452.1, 0.0, 10.00281, 10.000603 
2.988167e+3, 2.0168374e+2, -861054.0, -981740.9, -337082.38, -0.0516746, -0.17637537, -578956.44, 384546.5, 0.0, 10.001548, 10.000247 
2.9877713e+3, 2.1167684e+2, -762065.7, -764309.6, -176558.22, -0.12908962, -0.22485062, -586625.9, 278940.1, 0.0, 10.001269, 10.001081 
2.987376e+3, 2.2166912e+2, -767995.06, -898659.8, 7965.1436, -0.24408524, -0.31698474, -767511.3, 128.65178, 0.0, 10.001069, 9.999731 
2.9869843e+3, 2.316617e+2, -603042.6, -716199.3, 216074.16, -0.19491382, -0.28231853, -436262.16, 233457.22, 0.0, 10.001548, 9.999967 
2.9865912e+3, 2.4165532e+2, -379256.88, -526478.3, 45592.652, -0.10642955, -0.16240437, -366281.06, 205506.23, 0.0, 10.002053, 10.000468 
2.9861894e+3, 2.5164813e+2, -227433.92, -249346.55, -100871.41, -0.03401462, -0.22294277, -136925.55, 336929.06, 0.0, 10.002087, 10.001529 
2.9857892e+3, 2.6164037e+2, -198588.69, -255424.22, 151913.5, -0.034751967, -0.34608883, -72457.81, 303469.44, 0.0, 10.001558, 10.001242 
2.9853964e+3, 2.716341e+2, -5488.7285, 56034.445, 196096.5, -0.15411785, -0.40247363, 223767.47, 501756.1, 0.0, 10.001778, 10.0025015 
2.9850036e+3, 2.816298e+2, 77722.54, -70600.39, -37617.69, -0.2604792, -0.2719378, 86717.63, 266748.4, 0.0, 10.002342, 10.000864 
2.9846108e+3, 2.916257e+2, 69452.0, -13059.044, 15007.327, 0.14710888, -0.008770698, 72096.8, 154170.16, 0.0, 10.001863, 10.000795 
2.9842073e+3, 3.0161333e+2, -231150.05, -186706.47, 176437.6, -0.51995766, -0.43864012, -31096.79, -31096.79, 0.0, 9.999096, 10.000358 
3.0005378e+3, 1.4212857e+2, -1824991.6, -2137288.0, -81471.6, 0.2730969, -0.00595928, -1805015.3, -257860.48, 0.0, 10.000416, 9.996995 
3.000145e+3, 1.5211983e+2, -1075328.9, -1673264.9, -131984.13, 0.47155252, 0.18877749, -1047491.6, 401761.97, 0.0, 10.005195, 9.9969845 
2.999749e+3, 1.6211385e+2, -607846.4, -1397448.6, -344391.1, 0.08820142, 0.5270604, -478745.66, 872569.9, 0.0, 10.0073395, 9.997311 
2.9993525e+3, 1.7210537e+2, -1122071.5, -1366194.6, 89696.32, -0.102257445, 0.4917936, -1092658.8, 160733.4, 0.0, 10.002423, 9.998969 
2.9989588e+3, 1.8209572e+2, -1571188.6, -1603312.9, 291472.75, -0.11322723, 0.37115657, -1295335.8, -139852.72, 0.0, 9.998732, 9.998659 
2.99856e+3, 1.9208868e+2, -1558682.8, -1337741.8, 265037.6, -0.0058061723, 0.41211194, -1161073.5, -103519.445, 0.0, 9.997512, 10.000213 
2.9981622e+3, 2.0207867e+2, -1358038.6, -1321083.6, 393602.66, 0.0527761, 0.23825836, -945525.06, 14125.452, 0.0, 9.998487, 9.999361 
2.9977694e+3, 2.1207409e+2, -455203.25, -401439.78, 248513.89, 0.29757172, 0.3245249, -178357.97, 683324.5, 0.0, 10.002508, 10.002822 
2.9973724e+3, 2.220679e+2, -404444.4, -544458.7, 93459.3, -0.0057637445, 0.23236173, -357679.8, 406054.06, 0.0, 10.002803, 10.0012665 
2.9969794e+3, 2.3205818e+2, -838224.75, -446990.28, -13708.216, -0.06666558, -0.30509266, -446510.53, 219321.0, 0.0, 9.99836, 10.003177 
2.9965875e+3, 2.4205998e+2, -1303809.5, -931104.06, -239167.11, 0.094364345, 0.30803198, -814260.06, -246442.78, 0.0, 9.99558, 10.000716 
2.9961842e+3, 2.5205868e+2, -681773.25, -561966.4, -89424.05, 0.051386908, 0.817651, -514235.78, -44401.33, 0.0, 9.99945, 10.000461 
2.9957816e+3, 2.6204523e+2, -930573.9, -1032160.4, -54942.723, -0.18856747, 0.25765666, -906542.94, -534572.0, 0.0, 9.998425, 9.997315 
2.9953885e+3, 2.7203557e+2, -405117.56, -550974.25, 24391.285, -0.37987548, 0.17585726, -401146.78, -127075.18, 0.0, 10.0010395, 9.998433 
2.9949996e+3, 2.8202906e+2, -592358.6, -300776.38, 2767.193, -0.16057162, 0.27527568, -300750.13, -124611.15, 0.0, 9.997443, 10.001535 
2.994602e+3, 2.9203564e+2, 158831.48, 495080.2, 172337.08, -0.120538644, 1.2142842, 567716.9, 645786.25, 0.0, 10.000761, 10.00458 
2.994202e+3, 3.0202055e+2, -376866.1, -430694.03, -280777.03, -0.115505286, 0.29445246, -121716.055, -121716.055, 0.0, 9.999166, 9.998431 
