coord_x,coord_y,stress_xx,stress_yy,tau_xy,velocity_x,velocity_y,stress_1,eps,damage,lx,ly
4.9992672e+0, 1.2538166e+2, -1847255.4, -1717445.0, -74982.59, -0.014221653, -0.64647114, -1683178.3, 28034.803, 0.002661235, 9.998748, 10.00058 
4.9995023e+0, 1.3538487e+2, -1750098.1, -1735776.8, -97366.625, -0.015365675, -0.32619596, -1645307.9, -32117.97, 0.0015827751, 9.999273, 9.999522 
4.9996328e+0, 1.4538677e+2, -1580255.1, -1552986.3, -105443.88, -0.016611792, -0.10793725, -1460299.0, 54874.355, 0.0007101352, 9.999562, 9.999957 
4.9997035e+0, 1.5538397e+2, -1480203.5, -1459420.8, -105694.83, -0.011307858, -0.4162231, -1363607.8, 53589.42, 0.00020845665, 9.999598, 9.999911 
4.9997267e+0, 1.6538337e+2, -1434809.0, -1474077.9, -71053.875, -0.00961744, -0.42548463, -1380726.6, -61520.902, 0.000030560015, 9.999614, 9.999131 
4.99969e+0, 1.7538422e+2, -1338236.8, -1376295.5, -26297.18, -0.012636478, -0.27869764, -1324806.0, -103600.66, 0.0000010193884, 9.999601, 9.999136 
4.9995476e+0, 1.8538414e+2, -1093939.5, -966352.56, -29552.39, -0.025911445, -0.31059223, -959839.9, 163364.11, 0.0, 9.999576, 10.001286 
4.9992862e+0, 1.9538316e+2, -1018548.44, -904261.06, -90610.46, -0.049190857, -0.5605935, -854280.25, 170922.5, 0.0, 9.999523, 10.001069 
4.9997252e+0, 2.0538327e+2, -1063815.4, -1172808.3, -58247.434, -0.02049543, -0.5149195, -1038545.75, -111342.67, 0.0, 9.999826, 9.998403 
5.000736e+0, 2.153842e+2, -878349.7, -1035023.75, 10957.005, 0.050126646, -0.2899469, -877587.1, -48381.254, 0.0, 10.000435, 9.998384 
5.000719e+0, 2.2538464e+2, -679117.1, -762589.5, 37027.31, 0.040693305, -0.13921507, -665059.6, 66147.68, 0.0, 10.000592, 9.999505 
4.9998236e+0, 2.3538454e+2, -622658.06, -698873.6, 33782.445, -0.0376033, -0.12835713, -609839.8, 23369.229, 0.0, 10.000365, 9.999381 
5.0000453e+0, 2.4538346e+2, -496555.56, -681011.9, 71720.01, -0.044837438, -0.12881885, -471951.4, 63268.016, 0.0, 10.000958, 9.998545 
5.001242e+0, 2.5538138e+2, -212115.69, -504572.72, 71604.54, 0.008159167, -0.21718152, -195525.31, 241713.55, 0.0, 10.002287, 9.9984455 
5.0013024e+0, 2.6538017e+2, -128111.8, -359334.78, 5939.312, 0.030589717, -0.19833504, -127959.336, 211289.45, 0.000000019594776, 10.001964, 9.99892 
5.000378e+0, 2.7537993e+2, -292694.53, -398017.84, -34037.05, 0.025874825, -0.14503996, -282652.34, -41402.656, 0.00000068486895, 10.000202, 9.998831 
5.000471e+0, 2.8537816e+2, -247092.63, -471753.2, 34332.258, 0.021718679, -0.13901854, -241963.16, -98698.664, 0.0000056407102, 10.000475, 9.997516 
5.0014037e+0, 2.953742e+2, 145505.77, -239329.25, 55586.06, 0.012152415, -0.30835485, 153373.83, 198673.1, 0.00003698917, 10.0025215, 9.997457 
5.001305e+0, 3.0536836e+2, 183134.47, -276489.5, 7715.9375, -0.010868346, -0.6065317, 183263.95, 183263.95, 0.00018828975, 10.0027895, 9.996738 
5.00037e+0, 3.1536782e+2, 102834.234, -129502.56, -2102.8213, -0.037204053, -0.35859793, 102853.266, 102853.266, 0.00054298295, 10.0014, 9.998426 
1.499776e+1, 1.253832e+2, -1889743.3, -1772374.8, -72856.93, -0.045030445, -0.26430693, -1737507.0, -26298.424, 0.0025654268, 9.998627, 10.00027 
1.4998525e+1, 1.3538067e+2, -1776299.8, -1776909.4, -73496.68, -0.044813022, -0.46407744, -1703107.3, -89872.13, 0.001528762, 9.999229, 9.99927 
1.4998901e+1, 1.4538112e+2, -1575771.4, -1524539.6, -108363.45, -0.0480836, -0.38866922, -1438805.5, 76425.86, 0.0006838554, 9.99949, 10.000195 
1.4999112e+1, 1.55381e+2, -1471391.6, -1424354.8, -97570.77, -0.033704758, -0.43749273, -1347508.0, 69724.45, 0.00019662829, 9.999535, 10.000188 
1.4999194e+1, 1.6538215e+2, -1349802.0, -1278330.1, -76298.74, -0.02647235, -0.35695636, -1229813.1, 89409.66, 0.00002664921, 9.999538, 10.000519 
1.4999104e+1, 1.7538409e+2, -1254409.8, -1189425.0, -21362.33, -0.03536118, -0.22420573, -1183031.6, 38175.22, 0.00000066228677, 9.999548, 10.000454 
1.4998609e+1, 1.8538456e+2, -1210147.9, -1182389.4, -35202.926, -0.0796932, -0.19229773, -1158428.5, -35224.668, 0.0, 9.999483, 9.999849 
1.4997865e+1, 1.953837e+2, -1120757.3, -1096192.3, -85188.555, -0.14685456, -0.27511504, -1022405.3, 2806.8352, 0.0, 9.999444, 9.999795 
1.4999154e+1, 2.0538364e+2, -935050.25, -879537.1, -39231.28, -0.06222817, -0.29279673, -859236.2, 67975.29, 0.0, 9.999731, 10.000464 
1.5002196e+1, 2.1538422e+2, -755704.9, -752703.8, 39747.813, 0.15005702, -0.29273242, -714428.25, 114775.29, 0.0, 10.000329, 10.000376 
1.5002142e+1, 2.2538379e+2, -687887.7, -754268.75, 22572.988, 0.122022696, -0.33103576, -680939.06, 50267.082, 0.0, 10.000493, 9.999612 
1.4999449e+1, 2.3538253e+2, -628731.9, -684549.4, 33541.938, -0.113311686, -0.43167278, -613006.25, 20211.48, 0.0, 10.000265, 9.999531 
1.500014e+1, 2.453819e+2, -493220.88, -656121.3, 116740.336, -0.13459508, -0.4024392, -432324.88, 102898.33, 0.0, 10.000888, 9.998755 
1.5003723e+1, 2.5538176e+2, -210979.56, -475321.78, 122368.66, 0.02374316, -0.3073491, -163030.45, 274194.22, 0.0, 10.002177, 9.998704 
1.5003906e+1, 2.6537985e+2, -205170.94, -498223.1, -66529.23, 0.09169603, -0.33374923, -190774.58, 148469.8, 0.0000000045160005, 10.001884, 9.998009 
1.5001145e+1, 2.7537647e+2, -370100.03, -534431.44, -91721.586, 0.0785069, -0.4823527, -329123.34, -87844.39, 0.0000004592844, 10.000105, 9.997946 
1.5001394e+1, 2.8537533e+2, -206590.55, -367730.7, 106800.5, 0.063803546, -0.4060648, -153377.64, -10087.3545, 0.00000436483, 10.0004, 9.998272 
1.500421e+1, 2.9537553e+2, 184680.52, -129751.55, 137274.67, 0.03554252, -0.229334, 236177.72, 281465.03, 0.000032381515, 10.002404, 9.998272 
1.5003921e+1, 3.0537197e+2, 169524.36, -278168.78, -46746.375, -0.031197408, -0.33762676, 174353.34, 174353.34, 0.00017490126, 10.002705, 9.996773 
1.5001082e+1, 3.1537065e+2, 97326.94, -90206.1, -35838.906, -0.11280015, -0.14864862, 103942.625, 103942.625, 0.0005127624, 10.001208, 9.9987955 
2.499729e+1, 1.2538284e+2, -1797726.0, -1708191.4, 1753.912, 0.022794696, -0.11855655, -1708157.0, 3061.2705, 0.0024531346, 9.999182, 10.000431 
2.499806e+1, 1.3537873e+2, -1714343.5, -1733524.1, 24740.193, -0.029044941, -0.49544665, -1697399.9, -84144.1, 0.001461298, 9.999608, 9.999383 
2.4998316e+1, 1.4537887e+2, -1609297.8, -1541304.3, -19958.756, -0.040575713, -0.45710552, -1535878.5, -20623.893, 0.0006489441, 9.999272, 10.000173 
2.4998501e+1, 1.553798e+2, -1654269.8, -1515527.9, -33593.105, 0.01712555, -0.40201142, -1507822.0, -90574.22, 0.0001814002, 9.998301, 10.000148 
2.4998522e+1, 1.6538137e+2, -1489468.9, -1265980.4, -318.5425, 0.020674918, -0.31251138, -1265980.0, 53253.04, 0.000022322774, 9.998248, 10.001212 
2.4998404e+1, 1.7538325e+2, -1299302.3, -1134146.0, -3403.703, -0.02619897, -0.26250282, -1134075.9, 87137.66, 0.00000035252413, 9.99893, 10.001115 
2.4998038e+1, 1.853841e+2, -1278835.3, -1247225.3, 2665.1084, -0.06478299, -0.20943688, -1247002.1, -123794.97, 0.0, 9.999139, 9.99957 
2.499758e+1, 1.9538407e+2, -1219521.5, -1168108.5, 37922.49, -0.088317044, -0.18683688, -1148000.9, -122789.375, 0.0, 9.998876, 9.999567 
2.499887e+1, 2.0538394e+2, -957861.7, -840643.6, 112211.25, -0.042057954, -0.22485381, -772657.3, 154553.5, 0.0, 9.999351, 10.000915 
2.5001666e+1, 2.1538359e+2, -720403.7, -691403.9, 64309.008, 0.06510681, -0.36664334, -639980.4, 189226.64, 0.0, 10.000374, 10.000774 
2.500195e+1, 2.2538301e+2, -659213.44, -765449.44, -38975.465, 0.041301914, -0.42938343, -646448.1, 84761.8, 0.0, 10.000785, 9.9993925 
2.5000107e+1, 2.3538221e+2, -588235.2, -691495.94, -56460.61, -0.09028069, -0.46483362, -563357.44, 69861.05, 0.0, 10.000645, 9.999296 
2.500125e+1, 2.4538176e+2, -559402.0, -661337.8, 53629.633, -0.08214675, -0.42173338, -536384.3, -1161.3788, 0.0, 10.000324, 9.998984 
2.5004935e+1, 2.5538146e+2, -537402.3, -609359.75, 51033.934, 0.047372818, -0.3692627, -510939.63, -73714.445, 0.0, 9.999839, 9.998902 
2.500512e+1, 2.6537943e+2, -403660.1, -598620.94, -103020.14, 0.09445967, -0.4098175, -359311.13, -20065.277, 0.00000000030772893, 10.0005455, 9.997959 
2.5002334e+1, 2.7537608e+2, -53967.016, -385932.25, -67276.53, 0.08034577, -0.556767, -40850.89, 200430.48, 0.000000332103, 10.002298, 9.997903 
2.500277e+1, 2.8537545e+2, 112267.445, -163422.31, 178869.05, 0.066004984, -0.4506192, 200244.06, 343532.44, 0.000003312623, 10.002371, 9.998722 
2.500598e+1, 2.9537672e+2, 1754.6492, -167385.81, 176458.73, 0.049954783, -0.21915391, 112862.234, 158137.95, 0.000027299557, 10.000938, 9.998714 
2.5005662e+1, 3.0537432e+2, -91320.19, -390168.03, -12346.695, -0.030520536, -0.23502038, -90810.96, -90810.96, 0.00015832737, 10.000865, 9.996892 
2.5002316e+1, 3.1537175e+2, 249073.42, 53851.926, -13689.016, -0.13888957, -0.18579714, 250028.63, 250028.63, 0.0004751241, 10.0019655, 9.9994135 
3.4997752e+1, 1.2538052e+2, -1760199.8, -1613200.4, -5431.5664, 0.119995974, -0.24037051, -1613000.0, 98242.88, 0.0023328552, 9.99912, 10.001114 
3.499793e+1, 1.3537908e+2, -1666552.3, -1629076.9, 43578.945, -0.01966156, -0.4144467, -1600378.0, 12873.951, 0.001385082, 9.999601, 10.000098 
3.4997714e+1, 1.4537993e+2, -1627796.6, -1572381.3, -62583.066, -0.046028636, -0.32813674, -1531646.6, -16403.016, 0.00060841354, 9.99924, 9.999975 
3.4997705e+1, 1.5538037e+2, -1667204.8, -1537091.8, -61392.254, 0.0888032, -0.30219388, -1512697.9, -95454.32, 0.00016439817, 9.998283, 10.000007 
3.4997615e+1, 1.6538104e+2, -1484712.4, -1251515.0, 19497.367, 0.08844631, -0.30341625, -1249896.0, 69340.625, 0.000017966355, 9.998224, 10.001328 
3.4997454e+1, 1.7538156e+2, -1291525.1, -1116548.9, 26327.863, -0.03004895, -0.39611188, -1112673.4, 108553.73, 0.00000014192928, 9.99892, 10.001245 
3.49977e+1, 1.8538265e+2, -1214034.3, -1099806.4, -11837.56, -0.026889835, -0.37755919, -1098592.6, 24622.736, 0.0, 9.999087, 10.000606 
3.499828e+1, 1.9538422e+2, -1158958.5, -1032009.1, 36067.49, 0.07828617, -0.29437163, -1022477.7, 2723.8374, 0.0, 9.998828, 10.000526 
3.4998727e+1, 2.0538409e+2, -1041480.75, -993232.4, 144701.47, -0.0033808236, -0.32652056, -870657.94, 56544.176, 0.0, 9.999269, 9.999906 
3.4999013e+1, 2.1538234e+2, -799755.1, -836604.8, 107137.69, -0.2519038, -0.5045144, -709469.56, 119747.0, 0.0, 10.000295, 9.999815 
3.500002e+1, 2.2538228e+2, -702511.8, -832372.8, -49277.32, -0.24382052, -0.44674438, -685930.2, 45288.832, 0.0, 10.000692, 9.998977 
3.5001642e+1, 2.353837e+2, -627240.4, -749661.56, -56350.047, -0.016193254, -0.21486695, -605252.0, 27958.83, 0.0, 10.000552, 9.9989395 
3.5003242e+1, 2.4538302e+2, -548892.4, -624814.56, 29251.512, 0.07194448, -0.19114201, -538929.6, -3711.3164, 0.0, 10.00026, 9.999268 
3.5004753e+1, 2.5538042e+2, -528328.8, -569060.0, 41350.387, 0.030734973, -0.39213654, -502600.9, -65360.727, 0.0, 9.99975, 9.99922 
3.5004875e+1, 2.6537904e+2, -344584.88, -468580.56, -42744.164, 0.0016195993, -0.43275067, -331278.03, 7974.69, 0.00000000006499392, 10.000508, 9.998873 
3.500376e+1, 2.7537876e+2, 198.394, -256913.78, 807.38873, -0.022687983, -0.36064178, 200.92934, 241457.4, 0.0000002836276, 10.002225, 9.998827 
3.5004452e+1, 2.853785e+2, 118972.59, -133026.92, 118744.984, -0.016713109, -0.2760161, 166109.52, 309368.22, 0.000002745044, 10.002309, 9.99896 
3.5006574e+1, 2.953777e+2, 4972.903, -141431.98, 130852.766, -0.00041793883, -0.26678, 81707.266, 126971.77, 0.000022379118, 10.000862, 9.998929 
3.5006347e+1, 3.053753e+2, -71035.695, -346135.13, 25294.12, -0.061565615, -0.31351575, -68729.36, -68729.36, 0.00013928866, 10.000845, 9.997206 
3.5003796e+1, 3.1537127e+2, 306996.66, 180413.0, 36804.68, -0.2173175, -0.44213188, 316919.88, 316919.88, 0.00043208257, 10.001923, 10.00031 
4.4996715e+1, 1.2537901e+2, -1789890.6, -1579618.0, -899.2508, 0.13838586, -0.26213828, -1579614.1, 131645.75, 0.0022111118, 9.998731, 10.001525 
4.4997582e+1, 1.3537893e+2, -1852709.4, -1677140.8, -3406.002, 0.067039005, -0.33642995, -1677074.8, -63819.406, 0.0013064536, 9.998153, 10.000468 
4.4997266e+1, 1.4538006e+2, -1725515.6, -1584134.4, -83222.36, 0.03429277, -0.25420144, -1545632.0, -30388.115, 0.00056747237, 9.998409, 10.000306 
4.4996613e+1, 1.5538058e+2, -1485375.6, -1417510.3, -57658.617, 0.10335304, -0.2521351, -1384540.4, 32702.44, 0.00014805637, 9.999383, 10.000309 
4.4996306e+1, 1.6538094e+2, -1351689.5, -1211096.9, 32913.875, 0.09007707, -0.28718802, -1203773.0, 115465.39, 0.000013959289, 9.999241, 10.001118 
4.4996333e+1, 1.7538083e+2, -1414129.3, -1197633.4, 4141.505, 0.007829035, -0.42162514, -1197554.1, 23680.291, 0.000000037538413, 9.998168, 10.001056 
4.4996858e+1, 1.8538162e+2, -1298047.8, -1109204.0, -38214.383, 0.020748774, -0.4364901, -1101764.1, 21460.656, 0.0, 9.998374, 10.00089 
4.4997773e+1, 1.9538331e+2, -1028468.44, -939139.3, -56447.16, 0.111761145, -0.36966422, -911823.3, 113385.695, 0.0, 9.999598, 10.000794 
4.499836e+1, 2.053837e+2, -1013595.25, -999547.25, 51527.047, 0.024668004, -0.35251182, -954567.6, -27362.223, 0.0, 9.999542, 9.999731 
4.4998723e+1, 2.1538284e+2, -1095487.1, -998295.44, 67093.15, -0.20749077, -0.4239194, -964047.8, -134834.2, 0.0, 9.998345, 9.999645 
4.5000112e+1, 2.2538282e+2, -1020576.56, -989170.3, -6652.2905, -0.19010635, -0.35364625, -987819.4, -256602.58, 0.0, 9.9985285, 9.998944 
4.5002383e+1, 2.3538347e+2, -727478.6, -802176.94, 3365.3594, 0.041690376, -0.1928145, -727327.3, -94111.55, 0.0, 9.999886, 9.998904 
4.5004004e+1, 2.4538277e+2, -508594.0, -575044.4, 78182.89, 0.11996302, -0.18343225, -456869.3, 78353.625, 0.0, 10.000418, 9.999527 
4.5005032e+1, 2.5538072e+2, -438365.5, -503271.5, 79507.18, 0.06216733, -0.35538512, -384943.1, 52295.977, 0.0, 10.000267, 9.999425 
4.500554e+1, 2.6537982e+2, -328662.63, -448294.38, 28118.535, 0.018075125, -0.36312357, -322383.2, 16863.428, 0.00000000016705606, 10.000574, 9.998977 
4.5005623e+1, 2.7538002e+2, -125662.67, -309233.4, -4429.3823, -0.009059853, -0.2522443, -125555.86, 115689.89, 0.00000025698242, 10.0013275, 9.998902 
4.5006195e+1, 2.8537914e+2, -23009.967, -222687.17, 223.51852, -0.024147911, -0.22140595, -23009.717, 120243.97, 0.0000023157831, 10.0014305, 9.998769 
4.5007077e+1, 2.9537693e+2, 13113.196, -161602.1, -29476.967, -0.03942763, -0.33442053, 17952.35, 63225.66, 0.000017842196, 10.001028, 9.9987135 
4.5007405e+1, 3.0537498e+2, 57854.9, -275346.9, -64927.156, -0.07763372, -0.32684416, 70059.47, 70059.47, 0.0001190779, 10.001683, 9.99729 
4.5006806e+1, 3.1537086e+2, 520464.56, 341220.94, -87843.42, -0.16246854, -0.47872016, 556335.94, 556335.94, 0.00038609168, 10.00314, 10.000827 
5.4993474e+1, 1.2537855e+2, -1772413.3, -1578377.5, -42392.086, -0.10620414, -0.16705404, -1569520.1, 141746.53, 0.0020867882, 9.99886, 10.001477 
5.499674e+1, 1.3537833e+2, -1841690.6, -1674384.3, -17505.428, 0.14243786, -0.25608566, -1672572.3, -59306.73, 0.0012253985, 9.998229, 10.000451 
5.4996806e+1, 1.4537932e+2, -1658328.5, -1458525.5, -52927.336, 0.12315974, -0.23064564, -1445371.3, 69883.64, 0.00052635156, 9.998464, 10.001143 
5.4994947e+1, 1.5538043e+2, -1425968.5, -1301670.8, -17797.252, -0.023237377, -0.25057796, -1299172.8, 118072.46, 0.00013276051, 9.999415, 10.001088 
5.49943e+1, 1.653811e+2, -1392106.6, -1294566.9, -13977.342, -0.053855807, -0.26315764, -1292603.4, 26634.404, 0.0000106646075, 9.999239, 10.000546 
5.499479e+1, 1.7538099e+2, -1453244.1, -1278379.3, -27473.861, 0.018822685, -0.34099305, -1274164.3, -52928.047, 0.000000007551507, 9.998168, 10.000501 
5.4995334e+1, 1.8538104e+2, -1332600.6, -1175598.4, 2411.3213, 0.015280254, -0.38159043, -1175561.4, -52326.047, 0.0, 9.998352, 10.000445 
5.499583e+1, 1.953813e+2, -1059741.8, -999121.6, -9396.686, -0.06012628, -0.41281584, -997698.44, 27535.828, 0.0, 9.999579, 10.00039 
5.499761e+1, 2.0538275e+2, -971949.75, -903203.2, 1206.9204, -0.019310696, -0.3063142, -903182.0, 24038.941, 0.0, 9.9995, 10.000412 
5.500053e+1, 2.153851e+2, -1055741.8, -904628.3, 30622.334, 0.12273428, -0.1252024, -898658.7, -69460.37, 0.0, 9.9983, 10.000309 
5.500196e+1, 2.253846e+2, -1001018.5, -939574.5, 39544.652, 0.12658842, -0.15204339, -920220.3, -189017.03, 0.0, 9.998488, 9.999303 
5.5002165e+1, 2.3538165e+2, -709786.3, -753930.1, 57645.32, 0.0151114715, -0.39129123, -670131.8, -36899.676, 0.0, 9.999836, 9.999257 
5.5003345e+1, 2.4538104e+2, -499537.7, -550043.8, 67834.65, -0.0037577362, -0.39832962, -452408.06, 82828.54, 0.0, 10.000387, 9.999715 
5.5005443e+1, 2.5538233e+2, -439250.53, -483765.75, 80027.31, 0.0585936, -0.25494245, -378443.28, 58778.133, 0.0, 10.000178, 9.9996 
5.500684e+1, 2.653818e+2, -385615.28, -558808.9, 50350.5, 0.07480164, -0.195271, -372041.34, -32814.46, 0.00000000012003064, 10.00054, 9.998235 
5.500772e+1, 2.7537978e+2, -185975.31, -419853.9, 27160.078, 0.052547466, -0.23432179, -182862.67, 58386.69, 0.00000017731924, 10.001263, 9.998175 
5.5007833e+1, 2.8537735e+2, -72501.97, -320165.0, -21389.297, -0.019222924, -0.29064164, -70668.27, 72605.47, 0.0000014956321, 10.001407, 9.998113 
5.500728e+1, 2.9537424e+2, -39469.195, -258458.6, -34772.406, -0.14001554, -0.4274518, -34080.438, 11222.48, 0.000012909044, 10.000971, 9.998077 
5.500861e+1, 3.0537328e+2, 45903.082, -288613.66, -13430.491, -0.14148584, -0.28344604, 46441.438, 46441.438, 0.00009809619, 10.001641, 9.997218 
5.501082e+1, 3.153704e+2, 518931.6, 357422.9, -14449.113, -0.10734316, -0.30603904, 520214.06, 520214.06, 0.00033776127, 10.00306, 10.000973 
6.499272e+1, 1.253772e+2, -1892734.0, -1651782.4, -26867.121, -0.020405961, -0.1803119, -1648822.9, 62456.85, 0.0019618457, 9.998092, 10.001351 
6.499533e+1, 1.3537666e+2, -1776788.9, -1645166.0, -19250.764, 0.16284685, -0.29280043, -1642408.3, -29125.36, 0.0011414166, 9.998672, 10.000444 
6.4995277e+1, 1.4537765e+2, -1638029.8, -1425548.8, -54417.754, 0.12628071, -0.28050303, -1412422.9, 102850.66, 0.0004823892, 9.998516, 10.00134 
6.499384e+1, 1.5537973e+2, -1624836.4, -1376447.3, -79993.81, 0.0020114626, -0.22195493, -1352914.6, 64340.902, 0.00011742101, 9.997963, 10.001271 
6.499346e+1, 1.6538095e+2, -1504787.5, -1345645.6, -66850.43, -0.017652307, -0.19062614, -1321291.0, -2047.4497, 0.000008467286, 9.998453, 10.000571 
6.4994067e+1, 1.7538103e+2, -1220523.3, -1165702.3, -44926.75, 0.053798173, -0.25227234, -1140484.4, 80756.11, 0.000000004638606, 9.999767, 10.000502 
6.499453e+1, 1.85381e+2, -1144335.0, -1120767.9, 19864.227, 0.03187215, -0.28422192, -1109455.1, 13786.078, 0.0, 9.9998045, 10.000117 
6.499484e+1, 1.9538091e+2, -1201639.4, -1101052.1, 6438.1807, -0.071270384, -0.31778258, -1100641.6, -75397.16, 0.0, 9.998747, 10.000092 
6.499684e+1, 2.0538212e+2, -1057857.4, -916880.44, 4487.7324, -0.0074413745, -0.23240912, -916737.75, 10495.421, 0.0, 9.998791, 10.00066 
6.5000266e+1, 2.1538441e+2, -830471.6, -767078.3, -6363.7104, 0.19926685, -0.08175085, -766445.8, 62764.008, 0.0, 9.9997225, 10.000567 
6.5002006e+1, 2.2538383e+2, -736444.56, -771725.5, 24322.521, 0.20411518, -0.14702475, -724038.9, 7174.468, 0.0, 10.000126, 9.999672 
6.500231e+1, 2.353808e+2, -652725.56, -688323.56, 30563.951, 0.03919417, -0.4301267, -635155.6, -1915.5404, 0.0, 10.000054, 9.99961 
6.500351e+1, 2.4538024e+2, -523590.47, -580430.4, 19443.256, -0.016898181, -0.44181845, -517575.94, 17667.455, 0.0, 10.000291, 9.999565 
6.50055e+1, 2.5538173e+2, -357667.03, -460719.75, -4985.398, 0.020872302, -0.2621036, -357426.4, 79800.62, 0.0, 10.000803, 9.999467 
6.500753e+1, 2.653811e+2, -324914.56, -555908.9, -6406.742, 0.067310594, -0.19252136, -324737.0, 14497.007, 0.00000000000043891748, 10.001064, 9.998008 
6.5009665e+1, 2.753787e+2, -219531.25, -458760.25, -1098.7188, 0.13238727, -0.24810861, -219526.2, 21734.371, 0.00000007111923, 10.001135, 9.997965 
6.500981e+1, 2.853759e+2, -81926.26, -352258.2, -16722.316, 0.04078145, -0.31973675, -80895.766, 62392.934, 0.00000065443334, 10.001455, 9.997869 
6.500825e+1, 2.953725e+2, 86528.484, -221643.17, -9313.454, -0.18161361, -0.46012303, 86809.695, 132130.0, 0.000008482825, 10.001938, 9.997863 
6.500986e+1, 3.053719e+2, 28723.453, -290645.38, 45827.332, -0.16721252, -0.2746561, 35169.277, 35169.277, 0.00007932554, 10.001496, 9.997274 
6.501345e+1, 3.1536964e+2, 100663.42, 132373.77, 35612.83, -0.0025359576, -0.24017797, 155501.42, 155501.42, 0.00029245962, 10.000277, 10.000777 
7.4994016e+1, 1.2537478e+2, -1882520.8, -1649904.0, -27325.844, 0.26053718, -0.30162048, -1646737.1, 64563.37, 0.001839182, 9.998175, 10.001324 
7.49931e+1, 1.3537398e+2, -1768602.3, -1640436.4, 1236.5587, 0.050920937, -0.44562575, -1640424.5, -27117.533, 0.0010576415, 9.998725, 10.000452 
7.499237e+1, 1.453751e+2, -1662502.3, -1486233.4, -80560.91, -0.036602333, -0.3978055, -1454962.1, 60337.227, 0.00043753645, 9.998558, 10.000903 
7.499305e+1, 1.5537846e+2, -1652157.9, -1439255.4, -91303.414, 0.10728209, -0.1661881, -1405463.4, 11810.575, 0.00010224, 9.997989, 10.000831 
7.499356e+1, 1.6538051e+2, -1461133.3, -1254233.5, -20839.09, 0.1295315, -0.06179339, -1252155.5, 67099.84, 0.000007138289, 9.998449, 10.001202 
7.4993944e+1, 1.7538095e+2, -1175914.4, -1077592.3, 5973.022, 0.046231553, -0.15139009, -1077230.8, 144016.4, 0.00000003688298, 9.999785, 10.001099 
7.499428e+1, 1.8538146e+2, -1158210.5, -1150861.5, -24767.428, 0.009222822, -0.14689822, -1129497.5, -6254.967, 0.0, 9.999807, 9.999911 
7.49946e+1, 1.9538209e+2, -1219584.5, -1134268.0, -25315.121, 0.012316176, -0.087727204, -1127322.0, -102081.79, 0.0, 9.99873, 9.999874 
7.4995804e+1, 2.0538189e+2, -1077353.6, -947519.75, 35685.32, -0.0041175494, -0.12541927, -938358.0, -11116.327, 0.0, 9.998752, 10.000466 
7.499774e+1, 2.1538082e+2, -849626.25, -796397.0, 32736.816, -0.041884273, -0.291895, -780821.1, 48426.633, 0.0, 9.999675, 10.000388 
7.5000006e+1, 2.2538055e+2, -718787.4, -724510.4, 17196.04, -0.02218487, -0.33661026, -704216.4, 27030.277, 0.0, 10.00008, 10.000016 
7.500258e+1, 2.3538092e+2, -640374.44, -649381.75, 35166.04, 0.046961777, -0.3151507, -609424.8, 23815.035, 0.0, 9.999993, 9.9999075 
7.500419e+1, 2.4538037e+2, -566078.06, -656491.3, 34902.09, 0.008274796, -0.31469437, -554172.56, -18929.518, 0.0, 10.000242, 9.999063 
7.500503e+1, 2.5537893e+2, -400322.5, -536069.25, 18398.898, -0.12082153, -0.37742943, -397872.97, 39382.688, 0.0, 10.000742, 9.998979 
7.5007415e+1, 2.653778e+2, -309575.13, -513102.44, -7436.431, -0.062096033, -0.35437018, -309303.78, 29963.73, 0.0, 10.0010195, 9.9983225 
7.5011194e+1, 2.7537683e+2, -209967.52, -422932.8, 10565.471, 0.15475579, -0.29430577, -209444.64, 31834.191, 0.000000009748358, 10.001065, 9.998245 
7.501183e+1, 2.8537485e+2, -71336.805, -323193.6, -2549.1243, 0.08207137, -0.30867246, -71311.01, 71987.01, 0.00000018808618, 10.001424, 9.998082 
7.5009763e+1, 2.953718e+2, 92057.29, -196751.06, 11960.924, -0.24038714, -0.43736836, 92551.8, 137876.97, 0.000005696117, 10.001875, 9.998067 
7.5011027e+1, 3.0537084e+2, 32103.832, -276718.84, 49.010025, -0.21531492, -0.30317104, 32103.84, 32103.84, 0.00006525944, 10.001469, 9.997381 
7.5014365e+1, 3.153683e+2, 45589.125, 46207.387, 7505.6387, 0.03361506, -0.3074611, 53410.258, 53410.258, 0.00025509726, 10.000155, 10.000239 
8.49938e+1, 1.253738e+2, -1709096.6, -1570033.3, 23892.11, 0.3668322, -0.34094885, -1566042.9, 145269.4, 0.0017199421, 9.999385, 10.001284 
8.499145e+1, 1.353744e+2, -1775996.4, -1639196.5, 35494.074, 0.022518627, -0.35041288, -1630535.5, -17229.727, 0.0009794245, 9.998665, 10.000483 
8.4990674e+1, 1.4537528e+2, -1645468.4, -1543983.4, -25889.045, -0.0769654, -0.299203, -1537760.6, -22458.705, 0.0003977733, 9.998953, 10.000321 
8.4992754e+1, 1.5537767e+2, -1384677.3, -1370184.5, -55758.965, 0.17795758, -0.105669364, -1321203.1, 96084.43, 0.000088897265, 10.000086, 10.000292 
8.4993637e+1, 1.6537929e+2, -1269473.8, -1154095.1, -15512.306, 0.23155995, -0.021944953, -1152046.0, 167227.27, 0.000006071428, 9.999733, 10.001271 
8.49935e+1, 1.7537972e+2, -1415200.4, -1182338.0, -39467.56, 0.11148987, -0.11885434, -1175830.5, 45433.547, 0.000000076650345, 9.998096, 10.001194 
8.4993774e+1, 1.8538046e+2, -1369041.8, -1219126.1, -46756.38, 0.06073823, -0.11133465, -1205739.0, -82482.945, 0.0, 9.998219, 10.000212 
8.499446e+1, 1.9538161e+2, -1042672.06, -1017753.6, -17114.412, 0.075587384, -0.028532268, -1009043.6, 16203.557, 0.0, 9.999813, 10.000151 
8.4995735e+1, 2.0538114e+2, -896831.0, -922960.8, 52693.09, 0.042636216, -0.07792452, -855607.25, 71644.44, 0.0, 10.000249, 9.999922 
8.499748e+1, 2.1537915e+2, -893278.6, -876619.06, 10937.931, -0.028942201, -0.27912465, -871200.25, -41931.84, 0.0, 9.999626, 9.999867 
8.499998e+1, 2.25379e+2, -788391.75, -754812.9, -20725.713, -0.0048746844, -0.28760153, -744929.5, -13662.148, 0.0, 9.999593, 10.000039 
8.500315e+1, 2.3538043e+2, -629120.0, -640474.44, -39125.4, 0.10514221, -0.16169466, -595262.06, 37988.703, 0.0, 10.000064, 9.999928 
8.500508e+1, 2.4537969e+2, -566596.1, -668282.8, -21808.334, 0.07457508, -0.17577396, -562116.4, -26860.783, 0.0, 10.000287, 9.99896 
8.5006034e+1, 2.5537705e+2, -471609.1, -576771.5, -16521.795, -0.06827518, -0.34916466, -469074.5, -31795.55, 0.0, 10.000291, 9.998912 
8.500819e+1, 2.653757e+2, -368314.06, -496335.97, -19784.414, -0.052062873, -0.36386597, -365326.3, -26034.883, 0.0, 10.000412, 9.998735 
8.501148e+1, 2.753754e+2, -251046.67, -399179.88, -5076.8545, 0.1051362, -0.28121957, -250872.89, -9577.62, 0.0, 10.000584, 9.998648 
8.501285e+1, 2.8537387e+2, -102834.86, -336913.44, 13078.984, 0.05740368, -0.2680223, -102106.35, 41202.81, 0.000000024133003, 10.001195, 9.998103 
8.5012597e+1, 2.9537126e+2, 146948.14, -165575.53, -112.13341, -0.15802093, -0.352874, 146948.19, 192279.98, 0.0000041706858, 10.002233, 9.998109 
8.501386e+1, 3.0536968e+2, 215325.69, -179478.63, -59372.16, -0.13431321, -0.2896679, 224061.02, 224061.02, 0.00005536609, 10.002684, 9.997465 
8.5015786e+1, 3.1536627e+2, 330568.28, 92753.33, -73352.02, 0.051092666, -0.38983473, 351373.03, 351373.03, 0.00022562832, 10.002501, 9.999422 
9.4991744e+1, 1.2537436e+2, -1712971.1, -1583285.0, -21725.164, 0.18750606, -0.28714848, -1579742.4, 131571.48, 0.0016117445, 9.99941, 10.001178 
9.4990045e+1, 1.3537787e+2, -1770033.1, -1640794.3, 14137.194, -0.0025787172, -0.006552623, -1639265.9, -25986.021, 0.00091292575, 9.998721, 10.000443 
9.498991e+1, 1.453781e+2, -1687483.1, -1637044.1, 12969.613, -0.067418255, 0.015218177, -1633904.5, -118622.81, 0.00036647206, 9.998979, 9.999668 
9.499277e+1, 1.5537734e+2, -1426939.6, -1464513.6, -11010.0, 0.15105331, -0.040405322, -1423951.1, -6655.0, 0.00007896108, 10.000115, 9.999628 
9.4993544e+1, 1.6537732e+2, -1304011.8, -1227196.5, -82741.17, 0.23334962, -0.064863876, -1174383.3, 144913.73, 0.000005121987, 9.999737, 10.000768 
9.499248e+1, 1.7537734e+2, -1446069.5, -1248016.3, -92133.734, 0.18390046, -0.15421697, -1211784.3, 9507.202, 0.00000007826353, 9.998101, 10.000741 
9.4992775e+1, 1.85378e+2, -1316447.6, -1105859.8, 9622.014, 0.12641591, -0.17225699, -1105421.0, 17860.586, 0.0, 9.9982, 10.000998 
9.499421e+1, 1.953794e+2, -994521.4, -912497.8, 46262.7, 0.051820703, -0.14601107, -891685.6, 133580.7, 0.0, 9.999792, 10.000883 
9.499643e+1, 2.0537987e+2, -967694.75, -1059860.5, 24421.703, 0.07319869, -0.08836424, -961623.5, -34360.16, 0.0, 10.000205, 9.9990015 
9.499926e+1, 2.1537934e+2, -962233.06, -1011508.3, -3939.9785, 0.17121606, -0.052816875, -961920.0, -132647.47, 0.0, 9.999587, 9.998961 
9.500172e+1, 2.2537914e+2, -821150.44, -810950.7, -7247.4893, 0.19505492, -0.0043504173, -807188.56, -75912.63, 0.0, 9.999543, 9.999677 
9.500384e+1, 2.3537919e+2, -659816.06, -692271.1, -17854.703, 0.15259781, 0.019547181, -651916.3, -18641.98, 0.0, 10.000009, 9.9996 
9.500602e+1, 2.4537814e+2, -553149.25, -624361.9, -27135.703, 0.12811258, -0.02785033, -543987.8, -8706.246, 0.0, 10.000224, 9.999288 
9.5008254e+1, 2.5537604e+2, -457912.34, -534477.7, -9543.501, 0.11193325, -0.18229178, -456740.72, -19443.695, 0.0, 10.000232, 9.99923 
9.5009637e+1, 2.6537478e+2, -339856.13, -429424.2, -17110.508, 0.038408887, -0.22556385, -336698.75, 2607.6204, 0.0, 10.000378, 9.999211 
9.5010346e+1, 2.7537423e+2, -227833.23, -335479.47, 9250.723, -0.081687726, -0.21717188, -227044.05, 14267.026, 0.0, 10.000515, 9.999119 
9.501272e+1, 2.853729e+2, -117875.73, -361400.38, 47118.047, -0.08958361, -0.19747177, -109077.055, 34245.418, 0.000000004406078, 10.001167, 9.997946 
9.501646e+1, 2.9537094e+2, 123699.43, -197106.73, 46624.86, -0.010178041, -0.20754473, 130338.336, 175678.45, 0.0000031909003, 10.002158, 9.997929 
9.501808e+1, 3.0536848e+2, 216473.17, -168696.0, -66906.0, 0.005457351, -0.22976479, 227764.13, 227764.13, 0.000047523536, 10.002648, 9.997553 
9.5017207e+1, 3.1536362e+2, 235855.11, -78859.734, -57177.492, -0.09020451, -0.47776723, 245921.17, 245921.17, 0.00020078661, 10.002396, 9.998293 
1.0498967e+2, 1.2537527e+2, -1921498.4, -1694839.8, -3975.2375, 0.11699271, -0.19420137, -1694770.1, 16539.75, 0.0015258539, 9.998008, 10.001092 
1.04989775e+2, 1.3537852e+2, -1660260.0, -1587010.8, 17161.387, 0.06749443, 0.05869749, -1583189.4, 30087.191, 0.00086255383, 9.999456, 10.000465 
1.0499005e+2, 1.4537807e+2, -1587076.9, -1606123.3, 44959.46, 0.01453602, 0.018000858, -1550643.1, -35359.44, 0.00034425873, 9.999749, 9.999506 
1.0499219e+2, 1.5537691e+2, -1592510.0, -1570270.4, 42425.633, 0.13816233, -0.057027996, -1537531.5, -120230.43, 0.00007295785, 9.99909, 9.999401 
1.0499282e+2, 1.6537659e+2, -1350879.5, -1279094.3, -4845.989, 0.20007822, -0.08326005, -1278768.6, 40535.33, 0.0000044141693, 9.99955, 10.000495 
1.0499223e+2, 1.7537647e+2, -1051890.6, -1091113.9, -8313.194, 0.21026716, -0.15900062, -1050201.4, 171098.1, 0.000000050630582, 10.00096, 10.000435 
1.04992904e+2, 1.8537667e+2, -925700.75, -978502.06, 73170.19, 0.1755341, -0.18184735, -874314.06, 248980.45, 0.0, 10.001142, 10.00045 
1.049946e+2, 1.9537729e+2, -976163.0, -963434.3, -3757.5642, 0.09782424, -0.18034376, -962407.8, 62879.73, 0.0, 10.00017, 10.000349 
1.0499694e+2, 2.0537765e+2, -984284.4, -1058321.1, -33730.805, 0.11543546, -0.11104938, -971221.56, -43935.9, 0.0, 10.000057, 9.99908 
1.0499986e+2, 2.1537766e+2, -803987.94, -925624.06, 2789.5796, 0.22390077, -0.032261312, -803924.0, 25365.428, 0.0, 10.000641, 9.999038 
1.0500224e+2, 2.2537735e+2, -642948.6, -759316.8, 55257.523, 0.22772595, 0.018189803, -620890.7, 110403.88, 0.0, 10.000914, 9.999376 
1.050042e+2, 2.353768e+2, -549682.44, -669303.9, 39687.813, 0.14661199, 0.01377613, -537712.6, 95588.12, 0.0, 10.000903, 9.999327 
1.05006635e+2, 2.4537584e+2, -445227.72, -551197.75, 26030.309, 0.13827197, -0.02103414, -439178.94, 96128.5, 0.0, 10.000869, 9.999479 
1.0500953e+2, 2.5537443e+2, -364885.3, -470455.66, 22080.531, 0.19261174, -0.12658451, -360453.13, 76862.336, 0.0, 10.000785, 9.999402 
1.0501074e+2, 2.6537332e+2, -281616.66, -415980.22, 3217.428, 0.09076549, -0.15828921, -281539.66, 57784.38, 0.0, 10.000852, 9.999067 
1.0501059e+2, 2.7537245e+2, -153271.45, -311974.06, -29354.463, -0.13296534, -0.16752645, -148015.94, 93317.32, 0.0, 10.001085, 9.999001 
1.0501364e+2, 2.8537133e+2, -87274.914, -277856.03, 35696.883, -0.10559113, -0.15446502, -80808.125, 62534.383, 0.0000000012345152, 10.001079, 9.998567 
1.0501938e+2, 2.9536995e+2, -16498.43, -189635.44, 80513.055, 0.13501942, -0.16762495, 15155.135, 60507.31, 0.0000025074758, 10.00087, 9.998601 
1.0502108e+2, 3.0536798e+2, 48340.4, -201403.66, 24775.979, 0.114983514, -0.19415332, 50774.586, 50774.586, 0.000040782536, 10.001284, 9.9979925 
1.0501906e+2, 3.1536356e+2, 177941.7, -161709.45, 48378.363, -0.12887378, -0.438264, 184698.11, 184698.11, 0.0001788825, 10.002229, 9.997813 
1.14987e+2, 1.2537636e+2, -1916903.8, -1704495.1, 25318.13, 0.007407334, -0.07463116, -1701519.0, 9783.0, 0.0014675308, 9.998087, 10.000988 
1.14990525e+2, 1.3537626e+2, -1647108.0, -1567891.5, 70277.89, 0.17768657, -0.16299675, -1526828.9, 86467.945, 0.0008305489, 9.999495, 10.000575 
1.1499107e+2, 1.4537516e+2, -1568815.4, -1568821.3, 14594.041, 0.123946935, -0.28686643, -1554224.3, -38916.48, 0.00033210375, 9.999748, 9.999764 
1.1499062e+2, 1.5537634e+2, -1569298.3, -1528941.1, 28786.836, 0.054149315, -0.15673049, -1513964.9, -96662.82, 0.00007103606, 9.999123, 9.999665 
1.14991195e+2, 1.6537715e+2, -1353432.9, -1292954.0, 44234.926, 0.065238394, -0.077163436, -1269610.3, 49683.55, 0.0000041839003, 9.999577, 10.000395 
1.1499264e+2, 1.7537713e+2, -1057189.1, -1109541.3, 46835.348, 0.13621435, -0.1360441, -1029711.3, 191577.13, 0.000000024917117, 10.000988, 10.000298 
1.1499406e+2, 1.8537645e+2, -1062961.8, -1255654.3, 33318.566, 0.16135173, -0.14282373, -1057363.3, 65931.8, 0.0, 10.001108, 9.998566 
1.149954e+2, 1.9537525e+2, -1102443.3, -1222245.0, -33907.008, 0.14175732, -0.13371395, -1093512.4, -68201.086, 0.0, 10.000157, 9.998578 
1.149971e+2, 2.0537451e+2, -915003.94, -907337.6, -17580.303, 0.111965835, -0.14315194, -893177.44, 34141.164, 0.0, 10.000024, 10.000135 
1.14999056e+2, 2.1537405e+2, -739326.6, -779839.9, 28277.361, 0.06537558, -0.21743889, -724799.06, 104520.26, 0.0, 10.000589, 10.000065 
1.1500137e+2, 2.2537361e+2, -667211.25, -799028.3, 49843.152, 0.038733363, -0.21727285, -650486.4, 80837.15, 0.0, 10.000866, 9.999126 
1.1500397e+2, 2.3537317e+2, -574593.4, -707237.25, 45178.21, 0.020635325, -0.18781058, -560667.75, 72662.92, 0.0, 10.00084, 9.999097 
1.15006775e+2, 2.4537273e+2, -452789.38, -551916.94, 17927.588, 0.05119077, -0.16156541, -449646.72, 85687.14, 0.0, 10.000805, 9.999506 
1.150097e+2, 2.5537214e+2, -373136.25, -472953.34, 22916.82, 0.116636924, -0.18485816, -368126.28, 69208.46, 0.0, 10.000721, 9.999417 
1.1501138e+2, 2.653712e+2, -339019.47, -528011.4, 6865.458, 0.055959567, -0.16038343, -338770.4, 574.0863, 0.0, 10.000822, 9.998313 
1.1501199e+2, 2.7536997e+2, -212495.5, -420836.84, -15332.547, -0.115551546, -0.12906927, -211373.17, 29988.9, 0.0, 10.001022, 9.998287 
1.1501538e+2, 2.85369e+2, 6113.5386, -74936.88, 22636.182, -0.05181882, -0.1371272, 12006.96, 155376.38, 0.00000000007947066, 10.001043, 9.999977 
1.1502115e+2, 2.9536828e+2, 67877.65, 8986.576, 79764.75, 0.21015567, -0.22494583, 123458.32, 168826.48, 0.000001910546, 10.000772, 10.000012 
1.1502269e+2, 3.053682e+2, 99895.95, -81223.69, 57302.42, 0.1348888, -0.1740227, 116502.586, 116502.586, 0.000034748213, 10.001241, 9.998832 
1.15020886e+2, 3.1536603e+2, 168762.67, -146250.13, 103657.21, -0.19976225, -0.27667144, 199811.53, 199811.53, 0.00015878698, 10.002095, 9.997977 
1.2498593e+2, 1.2537627e+2, -1860086.4, -1688577.0, -769.2422, 0.07329235, 0.01333742, -1688573.5, 22732.57, 0.0014351123, 9.998547, 10.000871 
1.249902e+2, 1.3537504e+2, -1737981.3, -1609403.1, 22936.832, 0.23410231, -0.18828075, -1605434.0, 7877.305, 0.00081633194, 9.998864, 10.000597 
1.2499098e+2, 1.4537372e+2, -1636639.9, -1563471.4, -53452.414, 0.17792694, -0.35235086, -1535282.4, -19959.828, 0.00033045214, 9.999123, 10.000099 
1.24990456e+2, 1.5537582e+2, -1505124.9, -1467671.4, -49734.176, 0.11350609, -0.16145468, -1433255.1, -15949.718, 0.00007352079, 9.999428, 9.999938 
1.2499133e+2, 1.6537684e+2, -1329284.8, -1320450.5, 7359.4897, 0.10573337, -0.055317227, -1316284.3, 3010.2908, 0.0000047035833, 9.999911, 10.000046 
1.24993324e+2, 1.7537647e+2, -1152958.3, -1198346.1, -22792.246, 0.13381839, -0.1115197, -1143488.5, 77805.445, 0.000000012759114, 10.000505, 9.999927 
1.2499488e+2, 1.8537526e+2, -1146935.1, -1359616.1, -37483.52, 0.15272714, -0.1234078, -1140522.3, -17215.309, 0.0, 10.00081, 9.997995 
1.2499608e+2, 1.9537346e+2, -1047038.06, -1258303.3, -13830.197, 0.16489312, -0.11421605, -1046136.56, -20806.525, 0.0, 10.000813, 9.998017 
1.2499747e+2, 2.0537241e+2, -857009.5, -872006.1, 28488.934, 0.13187169, -0.13317469, -835048.6, 92291.664, 0.0, 10.000388, 10.000199 
1.2499902e+2, 2.1537186e+2, -888690.5, -847283.25, -11655.152, 0.058921713, -0.22157936, -844228.06, -14887.428, 0.0, 9.99954, 10.000108 
1.2500146e+2, 2.2537127e+2, -846313.0, -889067.5, 14955.034, 0.024602141, -0.23578675, -841601.2, -110255.75, 0.0, 9.99965, 9.999092 
1.2500465e+2, 2.3537065e+2, -616544.5, -733161.3, 12507.053, 0.022158243, -0.22081181, -615218.2, 18135.863, 0.0, 10.000575, 9.999047 
1.2500745e+2, 2.4537021e+2, -443217.75, -542133.9, -19274.412, 0.03979505, -0.19303784, -439594.7, 95762.71, 0.0, 10.000853, 9.999549 
1.2500994e+2, 2.5536987e+2, -387408.6, -479234.6, -21937.727, 0.076746814, -0.19728088, -382436.75, 54920.27, 0.0, 10.000618, 9.999426 
1.2501222e+2, 2.6536894e+2, -328946.5, -563343.94, 14368.07, 0.049407803, -0.15509842, -328069.06, 11298.949, 0.0, 10.001063, 9.997955 
1.250144e+2, 2.753675e+2, -77314.805, -390218.9, 10185.729, -0.028182285, -0.10935325, -76983.586, 164405.27, 0.0, 10.0021105, 9.997968 
1.2501729e+2, 2.8536633e+2, 121504.05, -5321.1064, -31459.932, 0.001298798, -0.12705658, 128879.055, 272278.03, 0.00000000021645001, 10.001776, 10.000101 
1.250208e+2, 2.953655e+2, 1292.3677, -2691.0796, -75738.98, 0.129498, -0.23983663, 75065.805, 120465.4, 0.0000014014497, 10.000229, 10.000193 
1.2502289e+2, 3.0536655e+2, 93187.43, 16248.93, -36664.87, 0.061474252, -0.13723469, 107861.34, 107861.34, 0.000028996776, 10.000737, 9.999756 
1.2502444e+2, 3.1536564e+2, 345878.75, 21088.758, -2865.7434, -0.08852677, -0.20340689, 345904.03, 345904.03, 0.00013884061, 10.002937, 9.998732 
1.349861e+2, 1.2537497e+2, -1873918.1, -1715412.6, -11157.344, 0.20177989, 0.07009897, -1714631.1, -3308.7236, 0.0014283952, 9.9985485, 10.000683 
1.3498853e+2, 1.3537493e+2, -1730758.5, -1599239.9, 40479.586, 0.16232733, -0.012479969, -1587779.5, 25539.424, 0.000819765, 9.998901, 10.00064 
1.3498957e+2, 1.4537385e+2, -1607335.8, -1517055.9, -48672.695, 0.10559714, -0.17258394, -1495813.3, 19513.67, 0.00033887546, 9.999174, 10.000396 
1.3499154e+2, 1.5537539e+2, -1485804.3, -1429225.1, -32635.465, 0.2621098, -0.06792353, -1414324.6, 2985.6494, 0.0000801792, 9.9994335, 10.000199 
1.34993e+2, 1.6537574e+2, -1378994.3, -1417825.6, 25183.578, 0.2681801, -0.00911552, -1366610.9, -47305.273, 0.0000062149566, 9.999887, 9.999389 
1.34994e+2, 1.753745e+2, -1193310.8, -1284531.5, 6385.028, 0.13455056, -0.08724331, -1192866.0, 28450.258, 0.000000017143847, 10.000523, 9.999323 
1.3499513e+2, 1.8537317e+2, -1095803.1, -1255354.8, -42444.887, 0.080260985, -0.117155716, -1085214.4, 38115.223, 0.0, 10.000811, 9.998713 
1.3499637e+2, 1.9537196e+2, -1000880.4, -1160506.3, -9084.588, 0.095867544, -0.12596439, -1000365.0, 24978.662, 0.0, 10.000801, 9.998694 
1.3499786e+2, 2.053713e+2, -931402.5, -1016520.3, -7311.6084, 0.11925411, -0.08447544, -930779.0, -3428.0896, 0.0, 10.000345, 9.999229 
1.3499953e+2, 2.1537106e+2, -961953.5, -984639.25, -34283.05, 0.14112227, -0.04624471, -937185.6, -107832.27, 0.0, 9.99948, 9.999191 
1.3500229e+2, 2.2537038e+2, -842826.56, -874176.5, 43862.23, 0.12852788, -0.033444665, -811922.56, -80562.586, 0.0, 9.99961, 9.999217 
1.3500597e+2, 2.3536924e+2, -613139.06, -716151.5, 49803.363, 0.08192597, -0.08550268, -592998.44, 40372.566, 0.0, 10.000529, 9.9991865 
1.3500848e+2, 2.453683e+2, -447252.28, -540527.1, -33325.277, 0.04410261, -0.11595092, -436569.34, 98808.88, 0.0, 10.00081, 9.999581 
1.3501003e+2, 2.5536752e+2, -394129.0, -478338.9, -23560.326, 0.012563143, -0.16535728, -387985.47, 49396.926, 0.0, 10.000553, 9.999464 
1.3501309e+2, 2.6536644e+2, -334755.1, -563635.06, 49839.758, 0.018180624, -0.14317772, -324373.16, 15021.225, 0.0, 10.001017, 9.997974 
1.3501753e+2, 2.753649e+2, -90629.12, -397397.72, 52490.42, 0.059622604, -0.106448025, -81896.21, 159517.89, 0.0, 10.002025, 9.997959 
1.3501915e+2, 2.8536323e+2, 40564.84, -162926.33, -95236.49, -0.004265679, -0.12272518, 78182.64, 221614.53, 0.000000004047862, 10.001735, 9.999038 
1.3501821e+2, 2.953615e+2, -78282.664, -153795.9, -123143.484, -0.16714194, -0.21807353, 12762.417, 58209.77, 0.0000011638989, 10.000167, 9.999187 
1.3502146e+2, 3.0536282e+2, 158822.7, 168350.66, 45460.273, -0.16474928, -0.08976452, 209295.89, 209295.89, 0.00002379093, 10.000678, 10.000826 
1.3502933e+2, 3.1536245e+2, 425202.97, 211929.48, 95285.9, 0.07710476, -0.20570593, 461572.5, 461572.5, 0.00011909773, 10.002831, 10.000093 
1.4498554e+2, 1.2537247e+2, -1796789.4, -1684337.8, 4338.821, 0.27257046, -0.014512135, -1684170.6, 27174.527, 0.0014440229, 9.999095, 10.000637 
1.4498755e+2, 1.3537446e+2, -1826799.0, -1632864.3, 46912.188, 0.2152312, 0.09080685, -1622112.4, -8787.786, 0.00083842565, 9.998171, 10.000765 
1.4498883e+2, 1.4537337e+2, -1684773.8, -1559025.6, 9663.837, 0.14111169, -0.07461237, -1558287.4, -42955.047, 0.00035495815, 9.998664, 10.000357 
1.4499155e+2, 1.5537325e+2, -1350452.4, -1371252.5, -15430.038, 0.2769774, -0.12922604, -1342244.8, 75084.055, 0.00008912459, 10.000392, 10.000139 
1.4499325e+2, 1.6537301e+2, -1264107.3, -1381296.1, 22992.916, 0.26534536, -0.115608305, -1259757.4, 59571.445, 0.000008328298, 10.000764, 9.999211 
1.4499404e+2, 1.7537218e+2, -1297315.4, -1355575.6, 26740.814, 0.118381955, -0.13536951, -1286902.6, -65565.67, 0.0000000715251, 9.999894, 9.999138 
1.449955e+2, 1.8537107e+2, -1179549.4, -1265956.9, 9923.415, 0.074101865, -0.14777167, -1178424.4, -55076.25, 0.0, 10.000104, 9.998982 
1.4499752e+2, 1.9536988e+2, -922024.75, -1099728.0, -4734.6943, 0.114741586, -0.17872033, -921898.7, 103461.85, 0.0, 10.001232, 9.99891 
1.4499913e+2, 2.0536925e+2, -785300.0, -1026187.06, -37501.043, 0.14660102, -0.11038361, -779596.9, 147772.36, 0.0, 10.001699, 9.9985075 
1.4500028e+2, 2.15369e+2, -708673.94, -943455.2, -58259.47, 0.16724963, -0.00014742596, -695012.2, 134363.47, 0.0, 10.001568, 9.998468 
1.4500304e+2, 2.2536807e+2, -610645.25, -749415.8, 60892.03, 0.16832083, 0.01896662, -587715.0, 143669.89, 0.0, 10.001157, 9.999326 
1.4500721e+2, 2.3536654e+2, -608842.1, -705444.44, 52663.25, 0.15645736, -0.0818337, -585684.06, 47712.844, 0.0, 10.000524, 9.999265 
1.4500976e+2, 2.453654e+2, -524336.75, -629288.75, -42261.332, 0.10887571, -0.110801436, -509435.06, 25971.605, 0.0, 10.0005045, 9.999119 
1.4501096e+2, 2.5536466e+2, -355633.6, -502910.6, -81531.21, 0.028446723, -0.11213785, -319408.7, 118005.48, 0.0, 10.001018, 9.999065 
1.4501408e+2, 2.6536372e+2, -281014.47, -467447.03, 16555.783, 0.01729371, -0.090305045, -279555.7, 59868.793, 0.0, 10.001076, 9.99861 
1.4501904e+2, 2.7536243e+2, -237719.7, -402118.25, 56361.777, 0.078392014, -0.09145076, -220252.69, 21185.357, 0.0, 10.000722, 9.998559 
1.4502056e+2, 2.853607e+2, -89491.79, -280380.13, -56670.793, 0.0021012025, -0.119376205, -73935.195, 69521.1, 0.000000009906891, 10.001065, 9.998559 
1.4501894e+2, 2.9535872e+2, 161033.2, -87234.87, -49567.72, -0.19975007, -0.19423494, 170563.73, 216040.81, 0.0000010398929, 10.002023, 9.998748 
1.4502247e+2, 3.0535963e+2, 302783.22, 171768.83, 115089.93, -0.19045013, -0.05816682, 369702.9, 369702.9, 0.000019274365, 10.001952, 10.000234 
1.4503182e+2, 3.1535876e+2, 132181.02, 77248.34, 25277.154, 0.1544795, -0.16050152, 142042.08, 142042.08, 0.00010043125, 10.000795, 10.000144 
1.5498374e+2, 1.253689e+2, -1780224.5, -1671776.9, -53562.137, 0.14586952, -0.23155324, -1649783.1, 61589.816, 0.0014662774, 9.999186, 10.000681 
1.5498708e+2, 1.353736e+2, -1808636.8, -1600644.4, 18765.975, 0.33315292, 0.12833484, -1598964.8, 14363.45, 0.0008607167, 9.998189, 10.000981 
1.5498844e+2, 1.4537229e+2, -1709330.1, -1610879.0, 69053.45, 0.21998766, -0.053911638, -1575301.6, -59963.2, 0.00037131715, 9.998668, 9.999999 
1.5499029e+2, 1.5536939e+2, -1370664.5, -1419443.6, 53735.844, 0.09163512, -0.34843194, -1336042.3, 81318.23, 0.00009663115, 10.00042, 9.999793 
1.5499185e+2, 1.6536875e+2, -1246998.5, -1342711.4, -15239.923, 0.03485569, -0.37271833, -1244630.5, 74733.234, 0.000009881803, 10.000754, 9.999482 
1.5499319e+2, 1.753696e+2, -1281540.1, -1317675.4, 3165.668, 0.029575268, -0.24939352, -1281264.9, -59909.402, 0.00000020107916, 9.999876, 9.999408 
1.5499575e+2, 1.8536901e+2, -1196671.8, -1299407.9, 47655.99, 0.0750511, -0.21255127, -1177970.0, -54607.902, 0.0, 10.0000925, 9.99876 
1.549994e+2, 1.9536728e+2, -943649.1, -1136054.5, 42040.46, 0.1631316, -0.27460727, -934864.4, 90516.32, 0.0, 10.001202, 9.998673 
1.5500109e+2, 2.0536624e+2, -826712.44, -1104866.5, -47465.88, 0.15854692, -0.20787747, -818835.6, 108559.66, 0.0, 10.001664, 9.997988 
1.5500098e+2, 2.1536566e+2, -749724.1, -1015070.1, -59143.047, 0.06751399, -0.07898831, -737138.6, 92268.88, 0.0, 10.001511, 9.998004 
1.5500349e+2, 2.2536442e+2, -615169.4, -746757.6, 31681.51, 0.08547714, -0.07323551, -607938.94, 123480.64, 0.0, 10.001103, 9.999372 
1.5500823e+2, 2.3536254e+2, -616081.75, -710438.5, 37376.09, 0.19403727, -0.21038407, -603070.7, 30361.236, 0.0, 10.000476, 9.999255 
1.5501107e+2, 2.4536154e+2, -597465.0, -773413.7, -28140.564, 0.17724086, -0.1767058, -593073.9, -57631.14, 0.0, 10.00047, 9.998146 
1.550124e+2, 2.553612e+2, -428121.78, -639475.2, -57430.547, 0.057725918, -0.04056762, -413524.5, 23928.656, 0.0, 10.000953, 9.998161 
1.5501502e+2, 2.6536068e+2, -196217.48, -281236.34, -1811.0176, -0.010733266, 0.004802972, -196178.94, 143280.02, 0.0, 10.001038, 9.999903 
1.5501876e+2, 2.7536e+2, -163432.02, -230693.53, 50422.234, -0.03314842, -0.0720264, -136453.95, 105007.67, 0.0, 10.0006485, 9.999771 
1.5502131e+2, 2.8535867e+2, -85211.336, -262794.5, -24960.818, -0.041176118, -0.12050981, -81769.586, 61703.25, 0.000000005626964, 10.001028, 9.998695 
1.550227e+2, 2.9535705e+2, 157312.75, -83954.164, -6949.7944, -0.04476869, -0.17313193, 157512.78, 203002.4, 0.00000084127635, 10.0019655, 9.998799 
1.5502566e+2, 3.0535683e+2, 137054.95, -153225.53, 68787.61, -0.077248715, -0.037656933, 152530.48, 152530.48, 0.000015268795, 10.001888, 9.998017 
1.5503165e+2, 3.1535465e+2, 26088.068, -114687.97, -1649.6, 0.028821675, -0.05709874, 26107.396, 26107.396, 0.00008386637, 10.000688, 9.998866 
1.6498132e+2, 1.2536682e+2, -2062620.5, -1861614.5, 17224.096, 0.07629168, -0.3559586, -1860149.3, -148766.61, 0.0014745225, 9.997474, 10.000204 
1.6498624e+2, 1.3537072e+2, -1634337.8, -1547265.9, 39078.223, 0.36796704, -0.049358126, -1532299.8, 81048.3, 0.00086981576, 9.999523, 10.000702 
1.6498807e+2, 1.4536959e+2, -1532652.4, -1567228.9, 84032.195, 0.25063232, -0.18061884, -1464148.5, 51210.426, 0.00037795518, 10.00008, 9.999608 
1.649895e+2, 1.5536742e+2, -1546222.0, -1550762.9, 53129.832, 0.025219077, -0.35886732, -1495314.1, -77937.66, 0.000098805474, 9.999425, 9.999367 
1.6499136e+2, 1.6536674e+2, -1411874.5, -1445413.8, -40511.176, -0.033122938, -0.35616228, -1384799.3, -65417.383, 0.000009884257, 9.999706, 9.999283 
1.6499363e+2, 1.7536697e+2, -1169117.5, -1282465.9, -66539.55, 0.046973307, -0.2800569, -1138387.6, 82992.62, 0.0000002904704, 10.000723, 9.999239 
1.6499664e+2, 1.8536632e+2, -1070404.0, -1233498.0, -6641.6094, 0.11370677, -0.24412806, -1070134.0, 53253.617, 0.0, 10.0009575, 9.998787 
1.650003e+2, 1.9536497e+2, -1045214.3, -1182266.9, -5912.5913, 0.17260271, -0.27044427, -1044959.75, -19557.77, 0.0, 10.000499, 9.998691 
1.6500218e+2, 2.053638e+2, -939985.56, -1155618.6, -47389.39, 0.14468686, -0.21766274, -930030.44, -2613.1116, 0.0, 10.000873, 9.99802 
1.6500244e+2, 2.1536276e+2, -681758.7, -980069.5, -30863.62, 0.04274973, -0.13830544, -678599.0, 150835.05, 0.0, 10.001971, 9.998024 
1.6500482e+2, 2.253614e+2, -473547.75, -721608.06, 35164.63, 0.052678052, -0.12396818, -468659.22, 262788.44, 0.0, 10.002271, 9.998977 
1.6500899e+2, 2.3535982e+2, -444166.66, -667134.3, -4130.8154, 0.15687831, -0.1936588, -444090.13, 189368.0, 0.0, 10.001843, 9.998885 
1.6501185e+2, 2.4535851e+2, -457532.2, -722366.94, -16534.494, 0.15977542, -0.16575864, -456503.88, 78968.52, 0.0, 10.001499, 9.998003 
1.6501369e+2, 2.5535738e+2, -396853.56, -638314.7, 5736.6714, 0.081968725, -0.09374099, -396717.34, 40772.805, 0.0, 10.001224, 9.99804 
1.6501614e+2, 2.6535675e+2, -178316.17, -269033.53, 44543.473, -0.00343304, -0.055941973, -160101.81, 179395.33, 0.0, 10.001134, 9.999947 
1.6501917e+2, 2.7535647e+2, -73613.9, -179285.03, -6914.9907, -0.083978675, -0.09501278, -73163.31, 168332.67, 0.0, 10.001225, 9.999845 
1.6502231e+2, 2.853557e+2, -24584.576, -229848.61, -87405.734, -0.061666764, -0.09806377, 7591.0225, 151093.73, 0.00000000009995645, 10.001438, 9.998721 
1.6502555e+2, 2.953547e+2, 132063.36, -95973.36, -93740.26, 0.056780826, -0.08429801, 165650.63, 211164.1, 0.00000051342266, 10.0018, 9.998797 
1.6502835e+2, 3.0535328e+2, 119347.945, -250102.11, 7362.3237, -0.0023979775, -0.033680163, 119494.6, 119494.6, 0.000011747977, 10.002121, 9.9972515 
1.6503298e+2, 3.153501e+2, 246207.2, -25636.53, 22090.658, 0.023321794, -0.07882526, 247990.66, 247990.66, 0.00007014343, 10.002256, 9.998727 
1.7497788e+2, 1.2536623e+2, -2121424.0, -1989168.6, 74098.69, -0.047541447, -0.39154816, -1955981.3, -244606.14, 0.0014574766, 9.997501, 9.999311 
1.749848e+2, 1.3536584e+2, -1683510.1, -1653576.4, 114668.47, 0.25638637, -0.43747586, -1552902.1, 60481.137, 0.00085594517, 9.999547, 9.999957 
1.7498761e+2, 1.4536525e+2, -1561170.0, -1634310.3, 53383.754, 0.18034878, -0.45424786, -1533031.6, -17638.176, 0.0003688444, 10.000108, 9.99914 
1.74989e+2, 1.5536731e+2, -1577225.4, -1616798.4, 38050.223, 0.01537208, -0.16272992, -1554124.5, -136747.28, 0.00009401229, 9.999433, 9.998911 
1.749916e+2, 1.6536704e+2, -1455099.9, -1533707.1, -5998.443, 0.0017589832, -0.06686581, -1454644.8, -135262.1, 0.000008393363, 9.999698, 9.998682 
1.7499514e+2, 1.7536435e+2, -1208823.1, -1366827.0, -24933.361, 0.10761637, -0.22104354, -1204982.0, 16428.732, 0.00000020811186, 10.000733, 9.998653 
1.7499791e+2, 1.8536304e+2, -1049986.4, -1195071.6, -28500.3, 0.1306707, -0.2360094, -1044588.7, 78835.305, 0.0, 10.000964, 9.999052 
1.75e+2, 1.9536296e+2, -1027595.06, -1141767.4, -14846.426, 0.07674371, -0.16240495, -1025696.06, -272.138, 0.0, 10.000477, 9.9989805 
1.750022e+2, 2.0536199e+2, -905274.75, -1075798.9, -11533.115, 0.046586033, -0.13284649, -904498.25, 22936.557, 0.0, 10.000836, 9.998586 
1.7500447e+2, 2.1536021e+2, -651692.2, -911368.7, 14732.149, 0.034906674, -0.18463689, -650859.06, 178596.77, 0.0, 10.001942, 9.99851 
1.7500682e+2, 2.2535904e+2, -538127.44, -846176.9, 14627.418, 0.013482634, -0.13157204, -537434.44, 194034.56, 0.0, 10.002229, 9.998141 
1.7500927e+2, 2.3535831e+2, -506188.44, -785908.9, -13457.464, -0.013286594, -0.03414442, -505542.47, 127933.664, 0.0, 10.001795, 9.998095 
1.7501189e+2, 2.4535626e+2, -416027.7, -626123.6, -33089.08, 0.00029778254, -0.07515301, -410939.56, 124556.17, 0.0, 10.001458, 9.998681 
1.7501466e+2, 2.5535312e+2, -364913.8, -557679.9, -397.44785, 0.044647466, -0.2727579, -364913.0, 72612.83, 0.0, 10.001161, 9.998624 
1.7501734e+2, 2.6535186e+2, -263174.34, -437605.25, 42862.84, -0.006417556, -0.2706491, -253210.78, 86328.72, 0.0, 10.001103, 9.998801 
1.7502001e+2, 2.7535197e+2, -158646.75, -344329.94, 2797.0093, -0.13650207, -0.15588495, -158604.64, 82936.33, 0.0, 10.001175, 9.998736 
1.7502335e+2, 2.8535175e+2, -34910.266, -248282.86, -81865.2, -0.11542282, -0.042116407, -7120.2524, 136425.5, 0.0, 10.001423, 9.998603 
1.7502724e+2, 2.953516e+2, 114858.7, -118159.805, -72862.4, 0.031185055, 0.06677289, 135766.1, 181315.77, 0.00000027417164, 10.001741, 9.9986725 
1.7503038e+2, 3.0534872e+2, 166181.1, -143845.66, 10198.194, -0.023828104, -0.05574916, 166516.2, 166516.2, 0.000009335192, 10.002087, 9.997998 
1.7503539e+2, 3.1534502e+2, 298336.4, 110876.62, 42579.617, 0.006902933, -0.22750334, 307554.66, 307554.66, 0.000059812894, 10.00215, 9.999711 
1.8497606e+2, 1.25363e+2, -1930135.9, -1892014.8, -114962.22, -0.040280655, -0.36835417, -1794543.8, -83135.06, 0.0014119628, 9.998782, 9.999362 
1.8498321e+2, 1.3536264e+2, -1721813.3, -1654896.8, -20617.596, 0.16381049, -0.43023217, -1649054.4, -35639.457, 0.0008198644, 9.999202, 10.000114 
1.8498674e+2, 1.4536218e+2, -1633315.4, -1692468.6, -68135.72, 0.10630496, -0.4304896, -1588613.8, -73190.086, 0.0003462985, 9.999702, 9.998934 
1.8498923e+2, 1.5536396e+2, -1448142.3, -1575872.1, -74599.49, 0.04930791, -0.1474174, -1413804.3, 3607.5896, 0.000084445885, 10.000401, 9.998729 
1.8499227e+2, 1.6536379e+2, -1326983.5, -1456882.9, -59117.684, 0.059729084, -0.04046484, -1304107.4, 15309.637, 0.000006352812, 10.000535, 9.998802 
1.8499573e+2, 1.7536151e+2, -1280334.8, -1391449.4, -34447.336, 0.121311925, -0.16097094, -1270522.0, -49081.45, 0.000000056960435, 10.000207, 9.99874 
1.8499842e+2, 1.8536003e+2, -1125708.5, -1252607.4, -27516.71, 0.11083366, -0.18755382, -1119998.6, 3456.5776, 0.0, 10.000534, 9.998863 
1.8500046e+2, 1.9535933e+2, -906694.6, -1102497.6, -58753.43, 0.031994645, -0.15772362, -890417.94, 135043.17, 0.0, 10.00139, 9.99881 
1.8500292e+2, 2.0535833e+2, -809169.9, -1016531.0, -78242.31, 0.008876512, -0.13132644, -782960.0, 144512.03, 0.0, 10.001438, 9.998701 
1.8500578e+2, 2.15357e+2, -811621.94, -974594.44, -95528.97, 0.03191899, -0.14759685, -767546.3, 61941.5, 0.0, 10.000777, 9.998636 
1.8500845e+2, 2.2535595e+2, -715699.44, -911157.4, -60478.97, 0.022782046, -0.09906067, -698499.44, 33000.254, 0.0, 10.000906, 9.998342 
1.8501106e+2, 2.353551e+2, -504641.56, -762495.4, -20331.184, -0.0040353728, -0.033777274, -503048.34, 130460.27, 0.0, 10.001698, 9.998309 
1.8501355e+2, 2.4535319e+2, -345241.56, -569317.25, -30737.586, 0.004147933, -0.08145633, -341101.63, 194424.7, 0.0, 10.001844, 9.998884 
1.8501595e+2, 2.5535044e+2, -311821.03, -508790.1, -44045.348, 0.045189336, -0.26307073, -302420.44, 135130.97, 0.0, 10.00143, 9.998826 
1.8501887e+2, 2.6534912e+2, -234722.72, -466797.94, 45696.848, 0.017548341, -0.25473565, -226048.95, 113516.72, 0.0, 10.001483, 9.998418 
1.8502232e+2, 2.7534884e+2, -74835.07, -345460.5, 54025.516, -0.056275085, -0.13886298, -64448.484, 177123.95, 0.0, 10.001932, 9.998363 
1.8502577e+2, 2.853483e+2, -4482.4214, -293737.28, -22556.057, -0.033828158, -0.01322104, -2734.0706, 140848.0, 0.0, 10.001883, 9.998072 
1.8502913e+2, 2.9534787e+2, 25851.395, -221819.95, -57402.867, 0.06836509, 0.119198054, 38508.81, 84099.29, 0.00000021710767, 10.001387, 9.998133 
1.8503216e+2, 3.0534405e+2, 75129.87, -127004.87, 21442.78, -0.0048462995, -0.096290156, 77379.51, 77379.51, 0.0000079127085, 10.00119, 9.99855 
1.8503806e+2, 3.1534088e+2, 187923.67, 95721.94, 18549.37, 0.11240424, -0.27453077, 191515.55, 191515.55, 0.00005116492, 10.001194, 10.000087 
1.9497554e+2, 1.2535712e+2, -1858909.8, -1744967.0, -126089.25, -0.005472425, -0.2883115, -1663575.8, 47908.656, 0.0013384911, 9.998796, 10.000362 
1.9498135e+2, 1.3536105e+2, -1651930.9, -1501738.9, -3429.5298, 0.04361874, -0.029991612, -1501660.6, 111783.13, 0.0007672974, 9.999179, 10.001173 
1.9498535e+2, 1.4536035e+2, -1625672.6, -1678655.8, -48439.24, -0.021143332, -0.108489454, -1596954.0, -81504.01, 0.00031672008, 9.999703, 9.999031 
1.9498996e+2, 1.5535744e+2, -1440241.6, -1559514.0, -43880.363, 0.06762442, -0.3055939, -1425837.5, -8357.662, 0.000073711046, 10.0004015, 9.998839 
1.949932e+2, 1.6535705e+2, -1269197.5, -1338782.6, -75034.68, 0.085728966, -0.26561642, -1221281.4, 98202.62, 0.0000047225935, 10.000536, 9.999613 
1.9499522e+2, 1.7535853e+2, -1226370.8, -1279403.1, -37511.67, 0.036724173, -0.09534299, -1206949.6, 14519.433, 0.0000000036456946, 10.000203, 9.999512 
1.9499804e+2, 1.8535736e+2, -1175422.9, -1352152.8, -337.52057, 0.004442316, -0.09293586, -1175422.3, -51941.586, 0.0, 10.000514, 9.998194 
1.9500147e+2, 1.9535398e+2, -955490.44, -1200495.5, -22293.834, -0.019641902, -0.26275197, -953478.4, 72035.836, 0.0, 10.001372, 9.998149 
1.9500415e+2, 2.053527e+2, -836526.0, -1063546.1, -107681.055, -0.02738719, -0.2174693, -793576.06, 133953.6, 0.0, 10.001397, 9.998397 
1.9500615e+2, 2.1535309e+2, -836703.3, -1014485.2, -112223.695, -0.023292806, -0.03306142, -782430.8, 47099.574, 0.0, 10.000726, 9.998387 
1.9500956e+2, 2.2535218e+2, -637106.8, -734740.44, -36400.55, 0.03036418, -0.02129226, -625029.6, 106509.91, 0.0, 10.000854, 9.999576 
1.9501418e+2, 2.3535019e+2, -430246.03, -593694.56, 13548.759, 0.1257125, -0.19312952, -429130.53, 204425.13, 0.0, 10.001637, 9.9994955 
1.950167e+2, 2.4534924e+2, -372089.63, -614124.0, -51363.43, 0.12216409, -0.18742594, -361640.6, 173923.94, 0.0, 10.001798, 9.998599 
1.9501734e+2, 2.553492e+2, -338174.1, -550204.4, -53119.836, 0.02830612, -0.06980755, -325610.47, 111957.016, 0.0, 10.001371, 9.998569 
1.950205e+2, 2.6534855e+2, -209577.1, -407149.97, 57308.375, 0.022069976, -0.005443961, -194157.53, 145418.06, 0.0, 10.001454, 9.99884 
1.950259e+2, 2.7534714e+2, -58390.594, -298224.94, 76620.46, 0.09497038, -0.044575024, -36002.38, 205587.83, 0.0, 10.001874, 9.998718 
1.9502941e+2, 2.853453e+2, -77433.79, -437656.56, -44870.535, 0.12678175, -0.01492703, -71928.695, 71683.37, 0.0, 10.001851, 9.997097 
1.9503108e+2, 2.9534355e+2, -53667.688, -370805.84, -67394.164, 0.110330716, 0.08369948, -39940.145, 5695.329, 0.0000002787285, 10.001319, 9.997142 
1.9503355e+2, 3.0533928e+2, 98927.695, -66746.0, 18197.908, 0.0020345056, -0.148632, 100903.03, 100903.03, 0.000006930128, 10.001155, 9.998976 
1.9504061e+2, 3.1533784e+2, 170485.45, 86643.08, 24636.023, 0.22387925, -0.20088847, 177188.53, 177188.53, 0.00004299831, 10.001096, 10.000064 
2.0497514e+2, 1.2535328e+2, -1850389.1, -1734980.1, -2769.9353, 0.07890312, -0.122365415, -1734913.8, -23382.58, 0.0012408808, 9.998849, 10.0004 
2.0498097e+2, 1.3535672e+2, -1537059.3, -1439848.4, 26579.912, 0.056303933, 0.08272891, -1433055.5, 180437.66, 0.0007023467, 9.999939, 10.001236 
2.0498523e+2, 1.4535594e+2, -1529018.1, -1594896.4, -51590.324, -0.024245193, -0.024692876, -1500748.1, 14749.976, 0.0002832004, 10.000218, 9.999356 
2.0499021e+2, 1.5535256e+2, -1491495.4, -1547541.3, -45513.3, 0.081305206, -0.29905197, -1466069.9, -48539.94, 0.000063005726, 9.999894, 9.999165 
2.0499368e+2, 1.653522e+2, -1301507.3, -1328719.4, -77070.31, 0.10160866, -0.28666276, -1236851.3, 82681.17, 0.0000035155435, 10.000197, 9.999846 
2.049959e+2, 1.7535415e+2, -1088356.8, -1188320.5, -94120.17, 0.043478582, -0.090223365, -1031770.4, 189741.5, 0.0000000004928599, 10.001041, 9.999735 
2.0499898e+2, 1.8535325e+2, -1050733.4, -1277433.1, -31800.914, 0.009841433, -0.07659319, -1046356.94, 77163.37, 0.0, 10.00131, 9.99832 
2.050028e+2, 1.9534993e+2, -989603.44, -1203865.8, -6882.561, -0.006347226, -0.25551844, -989382.56, 36170.844, 0.0, 10.00108, 9.998265 
2.0500551e+2, 2.0534845e+2, -863187.06, -1075491.5, -56062.05, -0.01840642, -0.23512809, -849292.44, 78277.88, 0.0, 10.00121, 9.998408 
2.050073e+2, 2.1534851e+2, -706631.7, -950141.25, -46603.703, -0.0223385, -0.08489403, -698017.25, 131556.47, 0.0, 10.001615, 9.998402 
2.0501058e+2, 2.2534776e+2, -557032.06, -688110.5, 8667.008, 0.024756875, -0.061828785, -556461.5, 175120.33, 0.0, 10.001372, 9.99964 
2.0501518e+2, 2.353463e+2, -581858.06, -660154.94, -40304.54, 0.11929091, -0.18629579, -564818.8, 68775.21, 0.0, 10.000571, 9.99955 
2.0501798e+2, 2.4534567e+2, -486672.47, -664363.25, -102694.016, 0.11610693, -0.15441224, -439725.5, 95875.266, 0.0, 10.000989, 9.998643 
2.0501924e+2, 2.5534573e+2, -170363.19, -466524.88, -90112.81, 0.027328137, -0.032519788, -145099.7, 292503.7, 0.0, 10.002509, 9.998598 
2.0502245e+2, 2.6534522e+2, -57953.55, -315350.66, -8823.285, 0.027094375, 0.03870528, -57651.453, 281958.63, 0.0, 10.002419, 9.999004 
2.0502748e+2, 2.7534404e+2, -183387.39, -338750.1, -21989.979, 0.11525799, 0.009217068, -180334.9, 61287.17, 0.0, 10.0009365, 9.998888 
2.0503132e+2, 2.8534216e+2, -166065.13, -461967.7, -52312.87, 0.17236635, 0.017541837, -157088.98, -13445.199, 0.0, 10.00117, 9.997257 
2.05034e+2, 2.9534006e+2, 187824.22, -238455.58, 2347.0232, 0.19425748, 0.06339896, 187837.14, 233506.39, 0.00000036340376, 10.002918, 9.997276 
2.0503606e+2, 3.053362e+2, 350724.5, 6368.812, 61883.69, 0.04443326, -0.11022772, 361507.84, 361507.84, 0.000006339283, 10.003099, 9.998543 
2.050421e+2, 3.153356e+2, 213428.14, 20249.77, -33890.086, 0.2344764, -0.04138022, 219201.1, 219201.1, 0.00003635789, 10.001786, 9.999263 
2.1497446e+2, 1.2535153e+2, -1911264.8, -1866540.3, 17096.744, 0.09392714, 0.13421361, -1860753.5, -149204.95, 0.0011227193, 9.998871, 9.999488 
2.1498196e+2, 1.3534977e+2, -1594475.0, -1570653.3, 70891.62, 0.144321, -0.08449046, -1510678.9, 102883.5, 0.0006268979, 9.999985, 10.0003195 
2.1498619e+2, 1.45349e+2, -1490542.9, -1521951.0, -70186.3, 0.03207995, -0.17083436, -1434325.3, 81242.09, 0.0002465844, 10.000246, 9.9998455 
2.1498978e+2, 1.5534933e+2, -1453323.6, -1474012.0, -50863.152, 0.031010961, -0.1259418, -1411763.5, 5798.595, 0.000052325075, 9.999915, 9.999661 
2.1499358e+2, 1.6534913e+2, -1327392.1, -1377665.6, -51140.215, 0.055595722, -0.10447983, -1295544.9, 24017.81, 0.000002586899, 10.000178, 9.999519 
2.1499752e+2, 1.7534831e+2, -1111512.6, -1230540.1, -58237.83, 0.08896475, -0.15194613, -1087758.6, 133810.9, 0.000000000052014764, 10.001022, 9.999451 
2.1500105e+2, 1.8534768e+2, -991546.6, -1150108.9, -44660.367, 0.07370252, -0.14549026, -979833.0, 143741.73, 0.0, 10.001287, 9.9992075 
2.1500427e+2, 1.9534713e+2, -928643.3, -1074869.4, -8456.767, 0.017135471, -0.13444136, -928155.9, 97423.125, 0.0, 10.001067, 9.999159 
2.1500689e+2, 2.0534563e+2, -843806.44, -1029506.25, -46520.176, -0.01506603, -0.17723992, -832804.4, 94789.46, 0.0, 10.001185, 9.998735 
2.1500902e+2, 2.1534324e+2, -694408.0, -911590.94, -28812.014, -0.02637162, -0.3041463, -690650.75, 138967.28, 0.0, 10.001555, 9.998693 
2.1501137e+2, 2.2534259e+2, -642742.2, -851640.44, -27217.473, -0.04559844, -0.22848141, -639254.25, 92373.07, 0.0, 10.001311, 9.998548 
2.1501394e+2, 2.3534341e+2, -666239.1, -816780.75, -60340.4, -0.075139046, -0.016182367, -645038.9, -11414.809, 0.0, 10.000493, 9.998511 
2.1501732e+2, 2.4534248e+2, -466670.63, -613949.3, -50572.47, -0.06365186, 0.0166306, -450977.28, 84657.89, 0.0, 10.000953, 9.999007 
2.1502146e+2, 2.5534e+2, -158478.36, -421251.25, -31544.588, -0.016148528, -0.1464338, -154744.64, 282914.22, 0.0, 10.002421, 9.998952 
2.1502455e+2, 2.6533917e+2, -73955.95, -337517.8, -68868.14, -0.01718409, -0.118562676, -57045.816, 282623.0, 0.0, 10.002374, 9.998871 
2.1502686e+2, 2.7533963e+2, -200964.42, -361077.72, -66331.76, -0.055515956, 0.025611306, -177054.88, 64613.465, 0.0, 10.0008745, 9.998763 
2.1503139e+2, 2.853389e+2, -74500.79, -262522.75, 6394.6123, 0.047223397, 0.08481262, -74283.555, 69394.1, 0.0, 10.001134, 9.998643 
2.1503772e+2, 2.953374e+2, 267271.56, -60953.227, 68560.31, 0.25909168, 0.055247925, 281016.97, 326709.16, 0.0000004878426, 10.002863, 9.998524 
2.1503954e+2, 3.0533484e+2, 253913.63, -188650.02, 10820.618, 0.07162207, 0.019658513, 254178.03, 254178.03, 0.0000063211505, 10.003073, 9.997217 
2.150423e+2, 3.1533426e+2, 83456.62, -234093.95, -83385.586, 0.045199733, 0.21979332, 104021.086, 104021.086, 0.0000317033, 10.001717, 9.997553 
2.2497377e+2, 1.2534605e+2, -1668129.4, -1800499.6, -45695.156, 0.051757928, 0.11748677, -1653887.4, 57712.3, 0.0009915447, 10.000736, 9.99905 
2.2498204e+2, 1.3534307e+2, -1641067.5, -1643563.8, 26193.479, 0.1642038, -0.17623895, -1616092.4, -2464.861, 0.000545711, 9.999892, 9.999856 
2.2498664e+2, 1.453428e+2, -1555487.8, -1510972.4, -92842.69, 0.08726527, -0.20976305, -1437756.8, 77871.07, 0.00020902291, 9.999614, 10.000233 
2.2499003e+2, 1.5534429e+2, -1432656.0, -1422718.0, -90038.51, 0.06956112, -0.088516355, -1337511.5, 80098.31, 0.000042237294, 9.999878, 10.000037 
2.2499403e+2, 1.6534397e+2, -1318876.8, -1401575.3, -53746.926, 0.07776506, -0.083130226, -1292413.8, 27197.547, 0.0000020119714, 10.000353, 9.999275 
2.2499852e+2, 1.7534196e+2, -1140481.1, -1272368.6, -68542.13, 0.0943608, -0.22494353, -1111311.3, 110319.72, 0.0, 10.000937, 9.99921 
2.250021e+2, 1.8534142e+2, -1026780.6, -1118057.4, -103684.84, 0.07441498, -0.2198341, -959134.4, 164501.47, 0.0, 10.000836, 9.999643 
2.2500488e+2, 1.9534215e+2, -1040650.75, -1080119.6, -110801.61, 0.02392877, -0.12741901, -947839.94, 77787.94, 0.0, 10.0001, 9.999585 
2.2500789e+2, 2.0534134e+2, -963420.56, -1037368.0, -113636.12, 0.021126537, -0.14283128, -880894.4, 46740.496, 0.0, 10.000147, 9.999186 
2.2501108e+2, 2.1533912e+2, -765781.56, -897727.44, -96340.43, 0.06252316, -0.29706883, -714990.2, 114665.47, 0.0, 10.000856, 9.999127 
2.2501327e+2, 2.2533834e+2, -657655.94, -892243.56, -78154.016, 0.015114352, -0.24239494, -634003.4, 97662.484, 0.0, 10.001351, 9.998251 
2.2501464e+2, 2.3533869e+2, -524081.88, -779363.1, -63307.574, -0.10412253, -0.047829952, -509244.53, 124423.13, 0.0, 10.001601, 9.998235 
2.2501798e+2, 2.4533759e+2, -430847.72, -580560.5, -5387.099, -0.099252254, -0.026354056, -430654.13, 105025.945, 0.0, 10.001126, 9.999156 
2.25023e+2, 2.5533518e+2, -492616.5, -564468.44, -14046.792, 0.019262634, -0.19716787, -489968.03, -52266.01, 0.0, 10.000048, 9.999112 
2.2502623e+2, 2.6533425e+2, -402950.47, -509751.5, -58631.246, 0.026370171, -0.18085924, -377046.25, -37333.36, 0.0, 10.000166, 9.998755 
2.2502802e+2, 2.7533454e+2, -135944.14, -338543.16, -62900.21, -0.047078267, -0.047095563, -118004.28, 123710.875, 0.0, 10.001354, 9.998689 
2.2503243e+2, 2.8533408e+2, 19866.854, -162048.08, 12863.575, 0.024060033, 0.019878075, 20771.959, 164493.42, 0.00000000075483947, 10.001533, 9.999147 
2.2503902e+2, 2.9533327e+2, -2952.738, -140179.4, -4451.081, 0.21162826, 0.0075746174, -2808.5146, 42920.34, 0.00000073344995, 10.000778, 9.998988 
2.2504151e+2, 3.053316e+2, 31602.963, -275516.1, -23237.955, 0.048496224, 0.029495541, 33351.293, 33351.293, 0.000007274646, 10.001447, 9.997404 
2.2504552e+2, 3.1533024e+2, 349478.44, -80610.78, -41678.22, 0.11712968, 0.12929149, 353480.06, 353480.06, 0.000030117351, 10.003414, 9.997799 
2.3497277e+2, 1.2533672e+2, -1655628.1, -1785240.3, -105765.79, -0.15536001, -0.18481936, -1596393.0, 115293.18, 0.0008595536, 10.000791, 9.999128 
2.3498105e+2, 1.3533649e+2, -1637801.5, -1649340.6, -8369.274, 0.059726365, -0.19413806, -1633405.9, -19715.453, 0.00046458573, 9.999936, 9.999801 
2.3498636e+2, 1.4533718e+2, -1532975.9, -1458000.0, -90478.38, 0.0848863, -0.14973788, -1397550.8, 118130.76, 0.00017252294, 9.999592, 10.000605 
2.3499075e+2, 1.553374e+2, -1404153.4, -1369617.8, -73853.555, 0.13810481, -0.19135779, -1311040.1, 106633.445, 0.000033446406, 9.999902, 10.00039 
2.349949e+2, 1.6533667e+2, -1336542.0, -1434317.0, -37591.234, 0.11566568, -0.22988395, -1323760.4, -4081.319, 0.0000017722703, 10.000339, 9.999058 
2.3499876e+2, 1.7533506e+2, -1151926.5, -1295057.9, -43072.156, 0.010413845, -0.3126007, -1139964.6, 81732.32, 0.0000000001389195, 10.000933, 9.999057 
2.350019e+2, 1.8533452e+2, -1035264.56, -1128107.9, -136693.27, -0.040732134, -0.29886413, -937325.5, 186378.16, 0.0, 10.000803, 9.999592 
2.3500444e+2, 1.9533488e+2, -1044981.75, -1086375.0, -133422.2, -0.04380575, -0.23350999, -930660.5, 95040.15, 0.0, 10.000085, 9.999552 
2.3500827e+2, 2.053355e+2, -925834.1, -948019.44, -91036.81, 0.034374762, -0.13891238, -845216.6, 82477.734, 0.0, 10.0001, 9.99982 
2.3501328e+2, 2.153362e+2, -728668.9, -810191.6, -63457.035, 0.18278368, -0.0666515, -694009.5, 135676.88, 0.0, 10.000808, 9.999753 
2.3501612e+2, 2.2533502e+2, -634616.5, -829908.8, -72141.195, 0.154724, -0.10424362, -610857.8, 120839.18, 0.0, 10.001294, 9.998707 
2.3501714e+2, 2.3533213e+2, -503905.6, -721131.1, -50042.96, -0.029234683, -0.27538544, -492931.44, 140793.03, 0.0, 10.001531, 9.99867 
2.350197e+2, 2.4533093e+2, -440108.6, -587769.56, -51397.77, -0.053495895, -0.2837944, -423979.78, 111756.21, 0.0, 10.001078, 9.999127 
2.3502366e+2, 2.553312e+2, -506421.75, -576744.8, -46093.543, 0.06782109, -0.18782286, -483609.6, -45875.72, 0.0, 9.999978, 9.999061 
2.3502733e+2, 2.653304e+2, -412372.3, -520416.5, -19409.72, 0.10742153, -0.1486721, -408991.25, -69248.31, 0.0, 10.000131, 9.998698 
2.3503073e+2, 2.7532864e+2, -148846.27, -349140.9, -13813.511, 0.07427117, -0.20987076, -147898.1, 93864.86, 0.0, 10.001285, 9.998651 
2.3503426e+2, 2.853277e+2, -11342.588, -216387.2, -20151.295, 0.037965775, -0.17430146, -9380.935, 134394.14, 0.00000003119879, 10.001491, 9.998793 
2.3503774e+2, 2.9532757e+2, -35947.02, -193573.69, -24262.145, -0.008186356, -0.08254269, -32297.068, 13482.296, 0.0000012360658, 10.000709, 9.998657 
2.3504181e+2, 3.0532637e+2, 144146.64, -28609.377, 47754.727, -0.079412475, -0.08110445, 156468.56, 156468.56, 0.000009095323, 10.001397, 9.999122 
2.3505127e+2, 3.1532362e+2, 486612.03, 230861.45, 27325.143, 0.32297724, -0.2964689, 489498.94, 489498.94, 0.00003154515, 10.003309, 9.999986 
2.4497348e+2, 1.253299e+2, -1734125.3, -1767663.9, -32380.625, -0.11941082, -0.31293657, -1714429.3, -2679.1567, 0.0007335385, 10.00002, 9.999621 
2.4498175e+2, 1.3533153e+2, -1444899.0, -1528185.4, 79571.15, 0.07998519, -0.16385181, -1396732.9, 217003.48, 0.00038622954, 10.001147, 10.000051 
2.4498707e+2, 1.4533243e+2, -1319601.9, -1389533.4, -21088.768, 0.121656656, -0.092008196, -1313734.5, 201991.14, 0.00013762695, 10.001201, 10.000296 
2.4499126e+2, 1.5533121e+2, -1363848.1, -1381653.1, -66680.88, 0.18146048, -0.2509412, -1305478.1, 112254.65, 0.000025817635, 10.000325, 10.000097 
2.4499549e+2, 1.653305e+2, -1367467.6, -1426849.8, -2942.4211, 0.15747567, -0.28330657, -1367322.3, -47583.227, 0.0000016011192, 10.000031, 9.999256 
2.4499977e+2, 1.753302e+2, -1249210.6, -1322206.4, 10341.696, 0.05997972, -0.25647432, -1247773.8, -26028.262, 0.0000000006420841, 10.00018, 9.999232 
2.4500285e+2, 1.8532987e+2, -1099748.1, -1165044.3, -83060.28, -0.0023726388, -0.22591789, -1043149.9, 80600.164, 0.0, 10.000387, 9.999536 
2.4500488e+2, 1.9532952e+2, -973618.7, -1058394.8, -89047.02, -0.031585854, -0.22982131, -917385.6, 108367.62, 0.0, 10.000604, 9.99949 
2.450086e+2, 2.0532973e+2, -845831.56, -927762.06, -49081.953, 0.02925484, -0.16192989, -822865.7, 104884.9, 0.0, 10.00073, 9.999656 
2.4501395e+2, 2.1533042e+2, -759838.06, -838922.0, -93521.57, 0.17985432, -0.07212064, -697842.56, 131900.38, 0.0, 10.000666, 9.999622 
2.4501725e+2, 2.253293e+2, -699690.9, -811481.2, -129339.3, 0.17283273, -0.12197438, -614685.6, 117066.28, 0.0, 10.000626, 9.999157 
2.4501877e+2, 2.353265e+2, -611299.0, -721899.06, -115150.484, 0.031956326, -0.33252865, -538858.2, 94917.695, 0.0, 10.000578, 9.999122 
2.4502113e+2, 2.4532536e+2, -482448.03, -618529.44, -120062.42, -0.0016137741, -0.3516366, -412486.84, 123299.0, 0.0, 10.00083, 9.99904 
2.4502432e+2, 2.5532565e+2, -310933.47, -492342.56, -128406.34, 0.06954107, -0.24181814, -244426.36, 193357.58, 0.0, 10.001362, 9.998978 
2.4502812e+2, 2.6532492e+2, -213209.03, -426613.6, -62959.434, 0.107343435, -0.19493467, -196019.14, 143773.28, 0.0, 10.001504, 9.998684 
2.4503249e+2, 2.7532324e+2, -148556.48, -348786.56, -67064.66, 0.124625064, -0.24599037, -128169.71, 113640.7, 0.0, 10.001293, 9.998646 
2.4503581e+2, 2.8532195e+2, -117730.9, -285012.1, -94501.9, 0.08304395, -0.23571569, -75171.82, 68653.43, 0.00000009388162, 10.000836, 9.998636 
2.4503812e+2, 2.9532102e+2, -122700.445, -246063.1, -93668.99, -0.011050268, -0.21032305, -72228.01, -26390.785, 0.0000018075962, 10.000169, 9.998552 
2.4504273e+2, 3.0531985e+2, 75162.086, -16129.5, 43855.89, -0.08818411, -0.22537394, 92816.195, 92816.195, 0.000010445255, 10.000727, 9.999533 
2.4505387e+2, 3.153176e+2, 407995.9, 303902.25, -114639.055, 0.3117727, -0.4288475, 481849.78, 481849.78, 0.00003251449, 10.002301, 10.000972 
2.5497553e+2, 1.2532577e+2, -1663966.0, -1634445.1, -15687.245, 0.052221294, -0.25769418, -1627665.9, 84124.2, 0.0006147494, 10.000065, 10.00052 
2.5498402e+2, 1.353282e+2, -1396735.3, -1437822.4, 123351.52, 0.17750296, -0.09399384, -1292228.3, 321537.0, 0.00031221876, 10.001186, 10.000654 
2.549888e+2, 1.4532861e+2, -1391389.1, -1541951.8, -59044.65, 0.1551996, -0.044580866, -1370996.3, 144763.84, 0.00010529937, 10.001214, 9.999244 
2.5499123e+2, 1.5532567e+2, -1428485.4, -1519287.6, -93049.69, 0.130666, -0.27494383, -1370351.4, 47436.48, 0.000019009012, 10.000338, 9.999146 
2.5499552e+2, 1.653254e+2, -1328067.6, -1339333.1, -2258.545, 0.14375561, -0.2506214, -1327631.8, -7839.722, 0.0000013062046, 10.0000105, 9.999866 
2.5500137e+2, 1.7532744e+2, -1207637.0, -1235120.4, 21429.555, 0.18540265, -0.047962554, -1195921.8, 25854.102, 0.000000000635992, 10.000183, 9.999826 
2.5500476e+2, 1.8532756e+2, -1107527.1, -1177510.4, -79315.04, 0.13567452, 0.003053894, -1055828.0, 67946.33, 0.0, 10.000369, 9.999461 
2.55006e+2, 1.9532591e+2, -981653.25, -1071548.4, -76224.09, 0.0032244935, -0.1243613, -938111.25, 87675.33, 0.0, 10.000585, 9.99941 
2.550088e+2, 2.0532395e+2, -925108.1, -1078943.6, -55909.242, -0.03908026, -0.21962559, -906935.5, 20868.793, 0.0, 10.000673, 9.998645 
2.5501287e+2, 2.1532169e+2, -832583.2, -982936.56, -90585.87, -0.008366338, -0.32540214, -790042.7, 39784.207, 0.0, 10.000632, 9.998651 
2.550164e+2, 2.2532102e+2, -671729.3, -741007.1, -136555.44, 0.012353778, -0.30651644, -565488.0, 166344.02, 0.0, 10.000573, 9.999665 
2.5501934e+2, 2.3532166e+2, -584279.0, -654912.25, -110220.98, 0.020247633, -0.2255004, -503854.88, 129967.87, 0.0, 10.000527, 9.999607 
2.5502214e+2, 2.4532081e+2, -498303.2, -642218.2, -104541.46, 0.0021169714, -0.23151201, -443348.13, 92481.76, 0.0, 10.000793, 9.998891 
2.5502473e+2, 2.5531858e+2, -330760.63, -517606.9, -105431.164, -0.039042007, -0.3603343, -283316.4, 154536.0, 0.0, 10.001291, 9.998838 
2.5502843e+2, 2.6531774e+2, -217118.27, -424403.0, -75623.63, -0.024053235, -0.31818897, -192461.47, 147400.06, 0.0, 10.00146, 9.998722 
2.550331e+2, 2.7531815e+2, -155811.06, -349097.6, -68868.55, 0.042790882, -0.1656368, -133783.36, 108075.61, 0.0, 10.0012245, 9.99868 
2.5503695e+2, 2.8531674e+2, -121243.91, -279187.66, -127224.33, 0.09797545, -0.17248052, -50474.05, 93398.97, 0.00000013919723, 10.000786, 9.998697 
2.5503984e+2, 2.953136e+2, -127982.46, -239806.53, -112171.04, 0.12995937, -0.3740414, -58560.95, -12657.962, 0.0000021199414, 10.000097, 9.998629 
2.5504404e+2, 3.0531186e+2, 11654.268, -140595.17, 100776.75, -0.040199358, -0.40587643, 61826.527, 61826.527, 0.000010666905, 10.000698, 9.99869 
2.5505304e+2, 3.1531194e+2, 378612.28, 265652.4, -53318.97, -0.030567728, -0.28382385, 399804.06, 399804.06, 0.00003213242, 10.002209, 10.0007515 
2.6497608e+2, 1.2532246e+2, -1560050.6, -1622610.5, 72248.0, 0.06233471, -0.21736029, -1512601.9, 199216.9, 0.0005062773, 10.000948, 10.00016 
2.649844e+2, 1.3532317e+2, -1593004.6, -1602096.9, 99034.945, 0.1582234, -0.1697765, -1498411.5, 115400.39, 0.0002464049, 10.00013, 10.000034 
2.6498935e+2, 1.4532325e+2, -1554451.5, -1613159.0, -75444.625, 0.15042117, -0.12663172, -1502851.4, 12959.907, 0.00007758306, 10.000072, 9.999305 
2.649917e+2, 1.5532117e+2, -1342341.4, -1469627.1, -39527.402, 0.12008632, -0.27638695, -1331065.5, 86766.17, 0.000013419433, 10.0008955, 9.999221 
2.6499602e+2, 1.6532116e+2, -1182770.9, -1267716.0, 70646.76, 0.15121898, -0.23099194, -1142812.4, 177020.8, 0.0000010267595, 10.000994, 9.999889 
2.6500207e+2, 1.7532293e+2, -1174997.4, -1216529.9, 40757.953, 0.23152831, -0.056832768, -1150020.4, 71798.13, 0.0000000012219834, 10.000387, 9.999859 
2.650057e+2, 1.8532291e+2, -1085525.1, -1144817.4, -37426.656, 0.19358425, -0.031967223, -1067425.6, 56391.46, 0.0, 10.000425, 9.999659 
2.6500726e+2, 1.9532125e+2, -911910.6, -1019045.1, -26380.654, 0.05701644, -0.1783808, -905767.0, 120060.8, 0.0, 10.000983, 9.99958 
2.6500988e+2, 2.053191e+2, -858937.25, -1077314.6, 27381.123, -0.02108892, -0.28689212, -855556.44, 72290.59, 0.0, 10.001267, 9.998366 
2.6501337e+2, 2.1531647e+2, -762190.8, -982662.6, 35384.46, -0.048979823, -0.39943165, -756651.0, 73223.14, 0.0, 10.001264, 9.998348 
2.6501673e+2, 2.2531576e+2, -600845.9, -717864.1, -6864.477, -0.032901004, -0.3641544, -600444.6, 131435.69, 0.0, 10.001106, 9.999569 
2.6502004e+2, 2.3531677e+2, -554560.3, -653623.56, -39854.78, 0.0270756, -0.23634076, -540516.9, 93351.08, 0.0, 10.000786, 9.999495 
2.6502323e+2, 2.4531601e+2, -519733.94, -689044.3, -31200.723, 0.03525625, -0.21184906, -514167.25, 21707.99, 0.0, 10.000804, 9.998567 
2.650263e+2, 2.553136e+2, -375207.84, -570483.0, -51625.758, 0.0024184391, -0.32466793, -362399.4, 75501.125, 0.0, 10.001131, 9.998547 
2.650299e+2, 2.6531222e+2, -282063.44, -482303.94, -53193.61, -0.0027910748, -0.3112074, -268809.88, 71105.586, 0.0, 10.001125, 9.998484 
2.6503396e+2, 2.7531183e+2, -227950.8, -408906.94, -77380.43, 0.029718898, -0.21458781, -199374.2, 42546.33, 0.0, 10.000838, 9.998454 
2.6503786e+2, 2.8531045e+2, -51475.664, -251057.3, -121709.73, 0.091159195, -0.20476815, 6123.051, 150056.27, 0.00000017298198, 10.001286, 9.998651 
2.6504144e+2, 2.9530802e+2, 197005.97, -85287.68, -126190.77, 0.17163278, -0.332535, 245190.97, 291145.53, 0.0000022646286, 10.002334, 9.998613 
2.6504594e+2, 3.053054e+2, 159718.67, -184519.78, 90134.555, 0.006824546, -0.40487164, 181891.16, 181891.16, 0.000010678338, 10.002197, 9.997676 
2.6505402e+2, 3.1530535e+2, 135481.25, 58874.484, -102161.164, -0.08219917, -0.1896142, 206283.56, 206283.56, 0.000032089163, 10.000903, 9.999967 
2.749748e+2, 1.2531988e+2, -1671811.1, -1865244.0, 20485.705, -0.20296937, -0.20289288, -1669665.4, 42171.61, 0.00041453895, 10.000984, 9.998481 
2.7498263e+2, 1.3531642e+2, -1710725.4, -1858054.3, 68169.05, -0.049994, -0.38527972, -1684023.1, -70146.95, 0.00019313562, 10.000175, 9.998256 
2.7498856e+2, 1.4531635e+2, -1471006.8, -1444280.8, -53234.836, 0.046036333, -0.3305702, -1402757.4, 113121.31, 0.000056136425, 10.000091, 10.000454 
2.7499256e+2, 1.5531775e+2, -1263207.9, -1307751.1, -3802.0, 0.09822385, -0.24623802, -1262885.6, 154977.56, 0.000009372096, 10.000911, 10.000323 
2.7499694e+2, 1.6531782e+2, -1219888.1, -1345540.9, 41713.27, 0.1275126, -0.21925734, -1207301.3, 112560.66, 0.0000008660051, 10.0009985, 9.999349 
2.7500165e+2, 1.7531662e+2, -1212539.5, -1292083.6, 24322.012, 0.13301647, -0.29051182, -1205692.0, 16181.896, 0.000000004874734, 10.000381, 9.999338 
2.7500546e+2, 1.8531589e+2, -1060822.5, -1084181.5, -21530.518, 0.114113495, -0.33229244, -1048007.6, 75870.82, 0.0, 10.000388, 10.000092 
2.750085e+2, 1.9531563e+2, -884464.25, -954488.06, -91.25553, 0.06734022, -0.3850327, -884464.1, 141411.78, 0.0, 10.000956, 10.000032 
2.750118e+2, 2.053153e+2, -835955.5, -1022198.4, 22160.385, 0.03321494, -0.35167265, -833355.06, 94522.57, 0.0, 10.001231, 9.998766 
2.750153e+2, 2.1531478e+2, -742390.25, -929270.3, 41298.77, 0.001004103, -0.29697713, -733670.5, 96214.3, 0.0, 10.001207, 9.998742 
2.750182e+2, 2.2531354e+2, -666611.75, -837119.6, -23824.602, -0.00995552, -0.29545853, -663345.4, 68551.445, 0.0, 10.001033, 9.998787 
2.7502063e+2, 2.3531167e+2, -618814.75, -770669.3, -46368.67, -0.0040304563, -0.37366095, -605775.7, 28137.334, 0.0, 10.000715, 9.998727 
2.7502427e+2, 2.4531077e+2, -559200.3, -757116.2, -23882.783, 0.047438815, -0.3026117, -556359.1, -20435.83, 0.0, 10.00075, 9.998122 
2.750289e+2, 2.553106e+2, -418244.22, -644145.94, -34081.652, 0.1322118, -0.14741582, -413214.3, 24715.133, 0.0, 10.0010605, 9.998076 
2.7503237e+2, 2.6530835e+2, -326371.22, -559351.56, -70631.49, 0.11848079, -0.1739372, -306630.8, 33323.61, 0.0, 10.001066, 9.997981 
2.7503484e+2, 2.7530426e+2, -271876.75, -486706.34, -79941.87, 0.020386823, -0.39634085, -245393.69, -3397.8306, 0.00000000009324417, 10.000782, 9.997947 
2.7503845e+2, 2.8530303e+2, -62959.0, -270323.0, -86293.73, 0.005739619, -0.33801717, -31746.357, 112260.56, 0.00000023612336, 10.001265, 9.998527 
2.7504268e+2, 2.953042e+2, 180471.42, -107750.97, -83004.836, 0.045518294, -0.094048806, 202666.69, 248659.92, 0.0000024951785, 10.002273, 9.998491 
2.7504802e+2, 3.053004e+2, 74941.34, -340509.38, 38775.67, -0.015207353, -0.22483411, 78529.44, 78529.44, 0.000011113361, 10.002131, 9.996623 
2.7505636e+2, 3.1529778e+2, 19106.09, -146685.5, -143215.89, 0.032497898, -0.15708406, 101686.9, 101686.9, 0.000032683794, 10.000761, 9.998616 
2.8497645e+2, 1.2531617e+2, -1604744.4, -1769189.8, -75704.59, -0.1375923, -0.19171098, -1575200.6, 136675.39, 0.0003410361, 10.001181, 9.99904 
2.8498247e+2, 1.3531308e+2, -1660953.8, -1791668.3, 116059.15, -0.08415201, -0.37381992, -1593114.5, 20793.686, 0.00015204525, 10.000347, 9.998621 
2.849885e+2, 1.4531304e+2, -1491553.3, -1448819.9, 90493.74, 0.045425788, -0.33635578, -1377204.5, 138704.61, 0.000040681283, 9.999922, 10.000507 
2.8499353e+2, 1.5531461e+2, -1403371.3, -1368201.9, 44169.63, 0.15828085, -0.24183916, -1338245.3, 79647.65, 0.0000066741927, 9.9999075, 10.000396 
2.8499785e+2, 1.6531456e+2, -1331449.9, -1380968.6, 72993.01, 0.1625443, -0.23710081, -1279131.3, 40760.086, 0.00000074756446, 10.000164, 9.99951 
2.8500155e+2, 1.7531292e+2, -1159235.5, -1254644.4, 94006.39, 0.074763924, -0.3628793, -1101522.1, 120382.1, 0.000000006090155, 10.000694, 9.999453 
2.8500545e+2, 1.8531184e+2, -1087644.3, -1174287.5, 37115.24, 0.07071117, -0.41147953, -1073919.4, 49993.527, 0.0, 10.000545, 9.999393 
2.8500953e+2, 1.9531123e+2, -1105558.4, -1137383.4, -40069.633, 0.13496907, -0.42601645, -1078357.3, -52439.734, 0.0, 9.999768, 9.9993515 
2.8501308e+2, 2.0531121e+2, -1031194.94, -1068420.6, -36928.926, 0.12081618, -0.35411066, -1008453.4, -80535.93, 0.0, 9.999684, 9.9991865 
2.8501627e+2, 2.1531154e+2, -867514.3, -945225.0, -29095.578, 0.03387333, -0.2538403, -857828.06, -27913.713, 0.0, 10.000165, 9.999129 
2.8501934e+2, 2.2531007e+2, -708191.44, -910809.8, -64352.227, 0.0074522262, -0.26852813, -689480.8, 42447.473, 0.0, 10.000982, 9.998302 
2.850224e+2, 2.3530698e+2, -455541.22, -743731.0, -75603.48, 0.03843251, -0.4225073, -436911.72, 197045.73, 0.0, 10.002062, 9.9982605 
2.8502578e+2, 2.4530558e+2, -379139.03, -682468.44, -41908.797, 0.063494705, -0.37209558, -373455.28, 162517.31, 0.0, 10.002026, 9.998023 
2.850294e+2, 2.5530574e+2, -431851.88, -661555.6, -37224.492, 0.08652586, -0.17770536, -425970.1, 12005.139, 0.0, 10.001009, 9.997983 
2.8503287e+2, 2.653037e+2, -343104.16, -570607.7, -8725.821, 0.070999496, -0.17542411, -342769.97, -2772.0288, 0.0, 10.000964, 9.997953 
2.850363e+2, 2.7529973e+2, -132954.81, -421025.6, 6090.7295, 0.040554617, -0.38633472, -132826.1, 109212.836, 0.0000000018932573, 10.001742, 9.997934 
2.8504023e+2, 2.852983e+2, -167.45648, -301327.16, 18962.79, 0.024775632, -0.32381162, 1021.8557, 145074.83, 0.00000028816427, 10.001961, 9.997984 
2.850443e+2, 2.9529905e+2, 67707.945, -211802.9, -18433.879, 0.012596082, -0.0605892, 68918.43, 114962.055, 0.0000027347362, 10.001721, 9.998041 
2.850499e+2, 3.052947e+2, 17861.717, -340025.94, 108126.16, -0.0047298823, -0.24354583, 47992.42, 47992.42, 0.000011990512, 10.001598, 9.996892 
2.8505832e+2, 3.1529278e+2, 60912.29, -170057.48, -1156.6193, 0.13457012, -0.12772615, 60918.082, 60918.082, 0.000033758955, 10.001231, 9.998227 
2.949806e+2, 1.2531155e+2, -1403192.3, -1376661.8, -129340.414, 0.11542407, -0.17190431, -1259908.1, 452025.7, 0.00028049768, 10.001275, 10.001697 
2.9498383e+2, 1.3531318e+2, -1486613.8, -1444470.8, 86344.74, -0.0068506096, -0.13275574, -1376663.6, 237243.84, 0.000119661214, 10.000402, 10.00098 
2.9498902e+2, 1.4531326e+2, -1557628.5, -1593279.1, 79484.164, 0.08404737, -0.14505741, -1493995.4, 21907.732, 0.000029635712, 9.999949, 9.999504 
2.949943e+2, 1.553117e+2, -1471319.0, -1507831.3, 47735.22, 0.228894, -0.26353952, -1438468.0, -20547.264, 0.0000047316526, 9.999903, 9.999439 
2.949985e+2, 1.6531135e+2, -1276110.1, -1263523.6, 88801.664, 0.19689791, -0.28281862, -1180792.5, 139128.97, 0.00000054097734, 10.0001545, 10.000318 
2.9500166e+2, 1.75312e+2, -1105319.6, -1144913.5, 120512.36, -0.00096157467, -0.26614603, -1002989.0, 218919.2, 0.0000000012704189, 10.00071, 10.000195 
2.9500553e+2, 1.8531083e+2, -1219121.1, -1446411.6, 2359.1157, 0.006126419, -0.26377544, -1219096.6, -95176.94, 0.0, 10.000539, 9.997531 
2.9501006e+2, 1.95308e+2, -1235145.3, -1402851.8, -61873.93, 0.19674629, -0.31244183, -1214788.4, -188834.89, 0.0, 9.999752, 9.997538 
2.9501355e+2, 2.0530666e+2, -1009610.2, -1011964.9, -22274.807, 0.18348639, -0.3015862, -988481.6, -60514.38, 0.0, 9.999636, 9.999596 
2.9501605e+2, 2.1530668e+2, -848831.5, -891040.06, -3320.7048, -0.01593761, -0.27633524, -848571.8, -18608.225, 0.0, 10.0001, 9.99953 
2.9501998e+2, 2.2530532e+2, -730981.94, -939998.5, -29063.23, -0.037370495, -0.29239935, -727016.0, 4959.307, 0.0, 10.000905, 9.998139 
2.950252e+2, 2.3530266e+2, -477726.75, -771364.1, -30197.764, 0.10149326, -0.38468444, -474653.38, 159348.0, 0.0, 10.001985, 9.998108 
2.9502767e+2, 2.4530055e+2, -366563.47, -646012.1, -85318.0, 0.03881355, -0.41399214, -342574.47, 193447.78, 0.0, 10.001979, 9.9983 
2.950277e+2, 2.5529888e+2, -421466.38, -627650.56, -67843.65, -0.20035319, -0.4227144, -401145.6, 36893.13, 0.0, 10.000953, 9.998249 
2.9503125e+2, 2.6529813e+2, -314849.97, -504999.88, 15930.875, -0.20151573, -0.33090043, -313524.5, 26523.361, 0.0, 10.000934, 9.99842 
2.9503796e+2, 2.7529803e+2, -113268.45, -365374.7, 37854.816, 0.016889649, -0.19525379, -107707.08, 134344.23, 0.0000000016821552, 10.001676, 9.998351 
2.950429e+2, 2.8529608e+2, -72826.984, -438197.25, 2749.5994, 0.08571932, -0.15708357, -72806.3, 71265.38, 0.00000022409213, 10.001904, 9.997071 
2.950461e+2, 2.952925e+2, 1760.2955, -338974.7, -15952.007, -0.0019390337, -0.23899104, 2505.4824, 48612.105, 0.0000026529046, 10.001673, 9.997195 
2.9505146e+2, 3.0528814e+2, 122880.89, -109104.92, 92297.99, -0.024877245, -0.46244118, 155121.83, 155121.83, 0.000012335517, 10.001551, 9.998495 
2.9505926e+2, 3.1528994e+2, 86123.82, -96224.195, 6249.7495, 0.073948696, -0.13388917, 86337.77, 86337.77, 0.000034800534, 10.00114, 9.9987755 
3.0498272e+2, 1.2530848e+2, -1628588.3, -1461216.1, 38249.93, 0.2908763, -0.1747132, -1452889.0, 259075.75, 0.00022859985, 9.999631, 10.001912 
3.0498523e+2, 1.3531028e+2, -1348522.0, -1364838.8, 50835.414, 0.055804774, -0.13234343, -1305194.5, 308740.4, 0.00009393993, 10.001284, 10.001109 
3.049901e+2, 1.4531e+2, -1331774.5, -1505373.5, -20285.467, 0.121390566, -0.1759423, -1329435.5, 186497.45, 0.000021636553, 10.00161, 9.999297 
3.049948e+2, 1.5530853e+2, -1340293.3, -1471256.1, -10936.653, 0.24150223, -0.26167223, -1339386.3, 78563.43, 0.0000030875526, 10.000924, 9.999193 
3.0499896e+2, 1.6530792e+2, -1212669.8, -1275892.6, 50740.207, 0.20121212, -0.27714625, -1184499.5, 135454.48, 0.0000002653173, 10.000769, 9.999934 
3.0500263e+2, 1.7530793e+2, -1079757.4, -1168354.9, -17640.56, 0.011069054, -0.28714254, -1076374.1, 145574.58, 0.0, 10.001043, 9.999866 
3.050066e+2, 1.8530689e+2, -1077958.1, -1335883.6, -102162.49, 0.024062023, -0.27593002, -1042395.56, 81562.98, 0.0, 10.001322, 9.997915 
3.050109e+2, 1.9530487e+2, -942758.06, -1222768.3, -6656.199, 0.22050093, -0.2822952, -942599.9, 83382.195, 0.0, 10.001584, 9.997895 
3.0501422e+2, 2.053032e+2, -769533.56, -960128.56, 98002.14, 0.19382645, -0.2926279, -728134.2, 199864.64, 0.0, 10.001556, 9.999034 
3.050166e+2, 2.1530186e+2, -718817.75, -890945.7, 32485.938, -0.027195444, -0.34548175, -712890.7, 117119.11, 0.0, 10.001254, 9.998982 
3.050207e+2, 2.2530045e+2, -713337.5, -913633.6, 7048.619, -0.054405946, -0.34755713, -713089.75, 18932.959, 0.0, 10.000947, 9.998301 
3.0502635e+2, 2.3529893e+2, -665438.7, -842512.25, 18802.15, 0.09171091, -0.34343764, -663464.25, -29426.357, 0.0, 10.000617, 9.998274 
3.0502924e+2, 2.4529694e+2, -493258.97, -694816.9, -29327.559, 0.046152044, -0.37428585, -489078.4, 46978.477, 0.0, 10.001067, 9.998398 
3.050296e+2, 2.552945e+2, -221324.72, -516710.56, -32014.152, -0.1672718, -0.47303838, -217894.81, 220184.6, 0.0, 10.00228, 9.998363 
3.0503312e+2, 2.652935e+2, -130811.016, -458289.1, 20334.307, -0.17760308, -0.3885223, -129553.22, 210537.3, 0.0, 10.002377, 9.998048 
3.050394e+2, 2.7529377e+2, -165721.95, -432349.25, -30095.896, 0.0070679705, -0.18395123, -162367.06, 79725.33, 0.00000000014964384, 10.00149, 9.997984 
3.0504426e+2, 2.8529164e+2, -147475.89, -446599.72, -30557.084, 0.06593037, -0.15664366, -144386.23, -271.55466, 0.00000013461268, 10.001275, 9.997312 
3.0504766e+2, 2.9528767e+2, 12348.561, -303943.1, 24110.09, -0.0009230737, -0.303929, 14175.854, 60328.902, 0.0000024042524, 10.001633, 9.997445 
3.0505317e+2, 3.0528423e+2, 149809.31, -19119.38, 120003.56, 0.002883458, -0.48265195, 212093.33, 212093.33, 0.000011969342, 10.001392, 9.999198 
3.0506006e+2, 3.1528637e+2, -22768.664, -153942.53, -43935.4, 0.08483962, -0.18757504, -9412.802, -9412.802, 0.00003458678, 10.000394, 9.998753 
3.1498256e+2, 1.2530716e+2, -1769944.8, -1770733.9, 89681.89, 0.2782237, -0.1822251, -1680656.5, 31310.66, 0.00018624985, 9.999708, 9.999749 
3.1498647e+2, 1.3530453e+2, -1493349.9, -1663259.6, 112322.875, 0.037144467, -0.3660823, -1437472.4, 176516.44, 0.00007443096, 10.001289, 9.999055 
3.1499156e+2, 1.4530335e+2, -1297612.3, -1440057.3, -53382.668, 0.0898391, -0.42074117, -1279827.1, 236170.53, 0.000015949841, 10.001625, 9.999742 
3.1499478e+2, 1.5530506e+2, -1308329.3, -1414806.3, -29559.791, 0.12887235, -0.23820473, -1300673.5, 117306.93, 0.00000170519, 10.000963, 9.999563 
3.1499907e+2, 1.6530412e+2, -1317372.3, -1495739.9, 52124.5, 0.12017282, -0.22415857, -1303256.9, 16733.318, 0.000000057148895, 10.000777, 9.998423 
3.150042e+2, 1.753007e+2, -1178399.3, -1371302.3, -4117.4116, 0.05230224, -0.42601234, -1178311.4, 43714.57, 0.0, 10.001037, 9.998477 
3.1500843e+2, 1.8530005e+2, -894725.3, -954556.44, -97768.23, 0.062638946, -0.44211695, -822398.2, 301630.97, 0.0, 10.001312, 10.00054 
3.150119e+2, 1.9530185e+2, -770639.25, -856949.8, 7737.2686, 0.14301682, -0.3320284, -769951.1, 256052.36, 0.0, 10.001546, 10.000425 
3.1501493e+2, 2.053008e+2, -887609.0, -1188619.1, 79824.78, 0.09820282, -0.32558444, -867750.44, 60261.79, 0.0, 10.001491, 9.997497 
3.1501764e+2, 2.1529712e+2, -833280.44, -1112987.4, 26565.973, -0.06083348, -0.4549523, -830779.6, -727.16144, 0.0, 10.00119, 9.997488 
3.1502125e+2, 2.2529554e+2, -684748.2, -842358.56, -10261.337, -0.10652838, -0.42753384, -684082.94, 47986.875, 0.0, 10.000896, 9.998816 
3.150257e+2, 2.3529576e+2, -639809.25, -775108.2, 14088.456, -0.05243659, -0.3008632, -638357.8, -4290.3643, 0.0, 10.000555, 9.99877 
3.1503025e+2, 2.4529469e+2, -500006.2, -702126.56, 9314.03, 0.022839181, -0.26066908, -499577.9, 36499.39, 0.0, 10.001038, 9.998362 
3.150349e+2, 2.552925e+2, -235416.6, -528890.25, 13852.49, 0.11847288, -0.330536, -234764.19, 203333.53, 0.0, 10.002206, 9.998315 
3.1503826e+2, 2.6529e+2, -217595.14, -628310.9, -18133.879, 0.08846707, -0.34220147, -216796.06, 123329.43, 0.0, 10.002333, 9.996904 
3.1504044e+2, 2.7528688e+2, -247845.94, -590983.3, -54919.69, -0.054205887, -0.3538415, -239270.28, 2891.554, 0.00000000001473293, 10.001436, 9.996922 
3.1504402e+2, 2.8528497e+2, -60363.96, -256485.47, -23196.459, -0.09712788, -0.32483822, -57657.723, 86524.17, 0.000000108201135, 10.001236, 9.998635 
3.150488e+2, 2.9528436e+2, 87275.23, -130992.46, 42443.52, -0.064655416, -0.2648905, 95238.13, 141422.5, 0.0000022594174, 10.001551, 9.998676 
3.150548e+2, 3.0528277e+2, 133650.61, -36365.734, 81445.18, 0.016021103, -0.31416062, 166369.69, 166369.69, 0.00001165084, 10.00133, 9.9991045 
3.1506032e+2, 3.152821e+2, -65708.25, -220148.61, -58742.28, 0.038551193, -0.29843307, -45904.66, -45904.66, 0.000033846463, 10.000302, 9.998338 
3.2498345e+2, 1.253039e+2, -1510115.0, -1732664.9, 45365.477, 0.29134363, -0.2582641, -1501222.8, 210769.61, 0.00015560584, 10.0018635, 9.998969 
3.2498792e+2, 1.3530102e+2, -1493639.0, -1737765.0, 142124.14, 0.0425499, -0.3987338, -1428355.8, 185664.67, 0.000061447354, 10.001598, 9.998399 
3.249934e+2, 1.4529933e+2, -1345597.1, -1489596.9, -15372.657, 0.12800175, -0.46254772, -1343974.4, 172061.6, 0.000012624197, 10.0014, 9.999513 
3.249961e+2, 1.5530087e+2, -1243476.6, -1405879.1, -51115.2, 0.14385608, -0.27290225, -1228727.9, 189291.44, 0.0000008198343, 10.001503, 9.999365 
3.2500005e+2, 1.6529994e+2, -1292607.1, -1514144.6, 69691.42, 0.12758306, -0.23734435, -1272507.3, 47522.957, 0.000000004124255, 10.001087, 9.998145 
3.2500497e+2, 1.7529663e+2, -1320955.9, -1473655.4, 94664.62, 0.068597235, -0.39620736, -1275688.6, -53621.5, 0.0, 10.000198, 9.998182 
3.2500926e+2, 1.852958e+2, -1056957.0, -1015359.6, -18629.057, 0.07516747, -0.42348924, -1008236.5, 115835.875, 0.0, 10.000134, 10.000682 
3.2501304e+2, 1.9529714e+2, -873342.94, -890195.1, -113942.68, 0.14397801, -0.37581134, -767515.2, 258534.56, 0.0, 10.00078, 10.00056 
3.2501644e+2, 2.0529622e+2, -884529.06, -1181080.6, -64484.88, 0.10429106, -0.36614448, -871113.8, 56942.664, 0.0, 10.001481, 9.997553 
3.250196e+2, 2.152933e+2, -686990.25, -1034825.94, -7176.7583, -0.029262759, -0.42630422, -686842.25, 143246.94, 0.0, 10.002166, 9.997554 
3.2502314e+2, 2.2529177e+2, -512472.13, -764595.75, -24498.078, -0.06534065, -0.39475384, -510113.78, 221992.34, 0.0, 10.002099, 9.998773 
3.2502705e+2, 2.3529139e+2, -522375.2, -723846.94, -50871.535, -0.010059337, -0.3250265, -510258.8, 123850.91, 0.0, 10.001377, 9.998728 
3.2503155e+2, 2.4529028e+2, -517543.78, -723708.44, -26604.535, 0.05702166, -0.28008246, -514165.94, 21954.545, 0.0, 10.000967, 9.998252 
3.2503656e+2, 2.5528857e+2, -433524.56, -635854.56, -36990.566, 0.13605446, -0.29169717, -426973.94, 11163.372, 0.0, 10.000886, 9.9982195 
3.2504022e+2, 2.652861e+2, -368828.88, -678883.5, -33397.754, 0.1108248, -0.30188596, -365272.22, -25107.969, 0.0, 10.001207, 9.997093 
3.2504258e+2, 2.752827e+2, -168994.02, -530362.5, 16137.133, -0.0009164778, -0.36317873, -168274.84, 73927.555, 0.00000000010851988, 10.001896, 9.997108 
3.250458e+2, 2.8528082e+2, 28564.486, -205534.47, 53137.65, -0.06702882, -0.34384793, 40061.46, 184284.13, 0.00000014601811, 10.001802, 9.998717 
3.2504976e+2, 2.9528064e+2, 7444.83, -160712.38, 16539.195, -0.09327604, -0.25362754, 9056.112, 55279.2, 0.000002235968, 10.000964, 9.998754 
3.2505566e+2, 3.052801e+2, 40001.492, -49461.594, 29707.02, 0.013729824, -0.21431325, 48967.418, 48967.418, 0.000011376777, 10.000557, 9.999383 
3.2506105e+2, 3.1527844e+2, -6915.3145, -137704.38, -98854.414, 0.079836965, -0.32825696, 46217.11, 46217.11, 0.000032649332, 10.000486, 9.998808 
3.349848e+2, 1.2529863e+2, -1461995.0, -1646183.5, 31599.543, 0.2029557, -0.40261322, -1456724.6, 255316.48, 0.00013659472, 10.001918, 9.999537 
3.349894e+2, 1.3529974e+2, -1433928.4, -1624041.9, 130618.16, 0.01469836, -0.22371152, -1367439.9, 246590.13, 0.000054929977, 10.001647, 9.999151 
3.349955e+2, 1.4529786e+2, -1401309.0, -1606707.9, -21870.781, 0.17827581, -0.30200732, -1399006.0, 117042.31, 0.000011796083, 10.001411, 9.9987 
3.3499855e+2, 1.5529613e+2, -1294865.6, -1511093.3, -43015.152, 0.21893112, -0.359932, -1286622.8, 131442.61, 0.00000057438905, 10.001503, 9.998638 
3.3500162e+2, 1.6529547e+2, -1229098.8, -1383876.5, 30658.223, 0.16096278, -0.30799806, -1223247.3, 96825.55, 0.00000000201948, 10.001089, 9.999042 
3.3500466e+2, 1.7529577e+2, -1262788.8, -1356250.9, 67687.64, 0.0036634877, -0.19652773, -1227267.8, -5195.7495, 0.0, 10.000209, 9.998985 
3.3500886e+2, 1.852941e+2, -1228271.5, -1361792.0, -553.2869, 0.007677392, -0.22447164, -1228269.3, -104180.55, 0.0, 10.000096, 9.998323 
3.350141e+2, 1.9529063e+2, -1035455.44, -1219454.6, -84111.195, 0.1587374, -0.42044723, -1002801.0, 23320.703, 0.0, 10.0007515, 9.998313 
3.3501855e+2, 2.0528945e+2, -773221.44, -938783.8, -44089.004, 0.15651064, -0.41215855, -762212.6, 165918.75, 0.0, 10.001435, 9.999236 
3.3502227e+2, 2.1529032e+2, -583470.1, -800607.9, 22412.072, 0.0110771, -0.26552272, -581180.94, 248939.8, 0.0, 10.002086, 9.999198 
3.3502614e+2, 2.2528905e+2, -564723.0, -857570.9, -57579.566, 0.016824342, -0.25779703, -553808.5, 178324.08, 0.0, 10.00203, 9.998168 
3.350302e+2, 2.3528582e+2, -573212.25, -813104.5, -73436.68, 0.15740307, -0.41196266, -552516.94, 81647.914, 0.0, 10.001306, 9.998151 
3.3503297e+2, 2.4528378e+2, -531833.9, -745650.7, -34919.785, 0.08953298, -0.42694703, -526275.4, 9910.574, 0.0, 10.000935, 9.998116 
3.3503455e+2, 2.5528276e+2, -447588.38, -654473.0, -34054.56, -0.16904771, -0.3555839, -442126.94, -3929.4395, 0.0, 10.000841, 9.998113 
3.3503887e+2, 2.6528195e+2, -271685.75, -471559.3, -12843.694, -0.15508519, -0.26803386, -270863.78, 69342.86, 0.0, 10.001182, 9.99853 
3.3504564e+2, 2.7528113e+2, -81287.445, -332645.5, 45443.934, 0.09900995, -0.2186872, -73323.78, 168891.7, 0.000000000044508567, 10.001826, 9.998502 
3.3504933e+2, 2.8527918e+2, -50417.66, -361688.47, 16683.008, 0.09081065, -0.22049814, -49526.063, 94711.55, 0.00000018850986, 10.001766, 9.997663 
3.350502e+2, 2.9527652e+2, -74743.34, -323251.0, -7911.257, -0.16025274, -0.26694596, -74491.74, -28223.406, 0.0000021997091, 10.000923, 9.997662 
3.350555e+2, 3.0527613e+2, 73469.34, 29819.76, 22413.846, -0.06817768, -0.1838448, 82928.766, 82928.766, 0.000010801098, 10.000521, 9.999943 
3.350618e+2, 3.152754e+2, 59158.25, 34698.375, -71382.06, 0.07777361, -0.27205458, 119350.48, 119350.48, 0.000030818417, 10.000342, 10.00006 
3.4498665e+2, 1.25294e+2, -1422520.8, -1655706.9, -3488.6914, 0.18057857, -0.41275278, -1422468.6, 289616.16, 0.00012625929, 10.002325, 9.999273 
3.449916e+2, 1.3529551e+2, -1435750.4, -1631200.4, -14756.062, 0.07426737, -0.18703347, -1434642.5, 179429.1, 0.000053424294, 10.001658, 9.999104 
3.4499756e+2, 1.4529343e+2, -1393539.3, -1584764.5, -116428.71, 0.24661754, -0.29190108, -1338495.3, 177597.11, 0.0000131995685, 10.001388, 9.998861 
3.449996e+2, 1.5529135e+2, -1255953.5, -1478367.8, -81442.84, 0.17123887, -0.39845723, -1229320.3, 188791.13, 0.00000089811203, 10.001704, 9.998768 
3.4500256e+2, 1.6529092e+2, -1098677.1, -1305564.1, -15862.259, 0.10953459, -0.3370034, -1097468.0, 222648.25, 0.0000000015154811, 10.001919, 9.999176 
3.4500614e+2, 1.752919e+2, -990071.06, -1209279.5, -47322.195, 0.040304247, -0.17106183, -980291.56, 241817.38, 0.0, 10.002024, 9.999115 
3.4501052e+2, 1.8529028e+2, -973263.06, -1305862.1, -34175.92, 0.066773534, -0.17166622, -969787.6, 154339.25, 0.0, 10.002125, 9.997733 
3.4501582e+2, 1.9528629e+2, -870227.25, -1203851.5, 6105.2026, 0.19044651, -0.35980508, -870115.56, 156052.28, 0.0, 10.0021515, 9.99775 
3.4502023e+2, 2.0528491e+2, -712740.0, -852362.7, 50723.336, 0.17789006, -0.3724001, -696258.4, 231921.14, 0.0, 10.001591, 9.999763 
3.450238e+2, 2.1528572e+2, -783699.75, -843245.5, 19258.625, 0.04116582, -0.280882, -778013.94, 52152.727, 0.0, 10.000459, 9.999697 
3.4502783e+2, 2.2528467e+2, -770115.56, -954097.8, -47475.17, 0.05412501, -0.2767445, -758587.3, -26411.658, 0.0, 10.000617, 9.998183 
3.4503222e+2, 2.3528193e+2, -482661.53, -767637.56, -29476.459, 0.20299454, -0.3815905, -479644.6, 154559.5, 0.0, 10.001925, 9.998163 
3.4503466e+2, 2.4527985e+2, -337231.44, -644616.8, 24083.895, 0.10357491, -0.40489432, -335355.9, 200869.67, 0.0, 10.002244, 9.998179 
3.450353e+2, 2.5527826e+2, -323742.16, -588605.6, 29273.848, -0.21366256, -0.39529553, -320545.28, 117696.38, 0.0, 10.001662, 9.998174 
3.4503958e+2, 2.6527762e+2, -254117.31, -401117.56, 45228.887, -0.19243535, -0.32206473, -241316.1, 98931.73, 0.0, 10.001035, 9.999084 
3.450471e+2, 2.7527767e+2, -250527.25, -353505.13, 27787.57, 0.13827698, -0.23835744, -243507.56, -1261.3284, 0.0, 10.000406, 9.999042 
3.4505096e+2, 2.852761e+2, -242757.06, -463835.28, 10567.2705, 0.14754292, -0.22450198, -242253.11, -97987.73, 0.00000016974016, 10.000504, 9.997563 
3.4505153e+2, 2.9527315e+2, -37835.65, -318150.75, 42868.965, -0.13426968, -0.28749543, -31426.195, 14875.228, 0.0000019719364, 10.001243, 9.9975395 
3.4505656e+2, 3.052727e+2, 161369.64, 34831.848, 80371.23, -0.048836563, -0.18737856, 200387.05, 200387.05, 0.000009630792, 10.0012665, 9.999624 
3.450625e+2, 3.1527174e+2, 114396.79, 92358.625, -77382.97, 0.10889888, -0.27537704, 181541.28, 181541.28, 0.000028581368, 10.000562, 10.000358 
3.5498855e+2, 1.252901e+2, -1485797.3, -1815965.3, -25086.414, 0.09730571, -0.27467915, -1483902.0, 228220.34, 0.00012021515, 10.002438, 9.998123 
3.5499412e+2, 1.3528836e+2, -1486906.8, -1745068.9, -38567.25, 0.14294395, -0.28549448, -1481268.3, 132876.92, 0.000054251253, 10.001693, 9.998304 
3.5499927e+2, 1.452861e+2, -1313420.5, -1427769.9, -112130.12, 0.25952572, -0.42513484, -1244729.8, 271437.53, 0.000015580335, 10.001424, 9.999926 
3.5499927e+2, 1.5528661e+2, -1179993.4, -1331937.6, -64682.527, -0.054987464, -0.37683067, -1156187.8, 261969.13, 0.0000017221554, 10.001751, 9.999753 
3.550027e+2, 1.6528624e+2, -1140788.4, -1392776.3, -19535.834, -0.084363624, -0.3256762, -1139282.9, 180877.9, 0.000000007086625, 10.001917, 9.998577 
3.5500902e+2, 1.7528497e+2, -1026427.6, -1288095.8, -37305.805, 0.113392055, -0.3261405, -1021212.9, 200965.66, 0.0, 10.002034, 9.998569 
3.5501403e+2, 1.8528429e+2, -898706.06, -1139503.8, -37668.016, 0.19233215, -0.26589248, -892951.2, 231236.02, 0.0, 10.00208, 9.998896 
3.5501805e+2, 1.9528413e+2, -797422.2, -1041884.5, 10893.045, 0.18005477, -0.18758112, -796937.75, 229250.05, 0.0, 10.002108, 9.998881 
3.5502136e+2, 2.0528255e+2, -765123.94, -950314.06, 2896.1914, 0.11977367, -0.2436895, -765078.6, 163122.3, 0.0, 10.001541, 9.999115 
3.5502404e+2, 2.1527956e+2, -833541.6, -935278.4, -15544.709, 0.005604556, -0.46755183, -831219.5, -993.22614, 0.0, 10.000409, 9.999088 
3.5502794e+2, 2.2527875e+2, -735919.56, -870675.5, -2374.809, -0.0063276696, -0.44192868, -735877.75, -3643.4878, 0.0, 10.000564, 9.998781 
3.5503295e+2, 2.3527977e+2, -449901.25, -687671.94, 23556.053, 0.06908547, -0.23135708, -447590.0, 186637.19, 0.0, 10.001872, 9.998738 
3.5503647e+2, 2.4527848e+2, -328090.2, -613960.3, -3408.6638, 0.047918722, -0.2149887, -328049.53, 208190.14, 0.0, 10.002195, 9.998414 
3.5503864e+2, 2.55275e+2, -317801.38, -560609.1, 11297.731, -0.061667353, -0.4156288, -317276.84, 120993.58, 0.0, 10.001597, 9.998397 
3.550421e+2, 2.652731e+2, -282187.38, -450882.06, 18049.537, -0.056384116, -0.46213603, -280277.78, 60009.887, 0.0, 10.0009985, 9.998758 
3.550468e+2, 2.7527252e+2, -280212.6, -404598.28, 13038.295, 0.05539456, -0.41233718, -278860.6, -36567.105, 0.0, 10.000361, 9.998711 
3.550506e+2, 2.852716e+2, -188623.92, -349539.38, 32821.223, 0.046911232, -0.35346666, -182187.02, -37881.223, 0.00000011654808, 10.000491, 9.998356 
3.5505345e+2, 2.9527044e+2, 9695.547, -211110.83, 74368.31, -0.0798341, -0.32519108, 32407.01, 78730.586, 0.0000016005947, 10.001199, 9.998299 
3.5505858e+2, 3.0526978e+2, 81103.54, -116329.82, 53350.477, 0.016186925, -0.23090866, 94597.625, 94597.625, 0.000008029012, 10.00121, 9.99861 
3.550627e+2, 3.152679e+2, 60147.32, 5688.6235, -66656.67, 0.03913853, -0.30696994, 104921.78, 104921.78, 0.00002594716, 10.000464, 9.999803 
3.6499125e+2, 1.2528476e+2, -1509806.5, -1826247.4, -46874.023, 0.13472854, -0.26563746, -1503009.1, 209168.11, 0.00011678404, 10.002268, 9.9981365 
3.649947e+2, 1.3528305e+2, -1645660.6, -1789215.0, -19201.064, 0.10040882, -0.30095613, -1643136.8, -28937.627, 0.000055597222, 10.000468, 9.998585 
3.6499983e+2, 1.452813e+2, -1482162.5, -1476407.4, 5093.4697, 0.24060686, -0.42008665, -1473434.9, 42780.566, 0.000017763748, 10.000133, 10.000212 
3.650013e+2, 1.5528224e+2, -1241773.0, -1330202.4, -17908.076, 0.006018837, -0.3553109, -1238284.0, 179915.75, 0.000002786188, 10.001193, 10.000035 
3.6500508e+2, 1.6528165e+2, -1242081.0, -1465350.3, -6988.4863, -0.0064714416, -0.32908767, -1241862.5, 78343.18, 0.00000008230677, 10.001322, 9.998369 
3.6501068e+2, 1.7527962e+2, -1248530.6, -1414736.1, -8531.318, 0.14981811, -0.38327596, -1248093.9, -25862.723, 0.0, 10.000596, 9.998394 
3.6501536e+2, 1.8527924e+2, -1072989.0, -1145198.4, 17248.313, 0.19728702, -0.32104614, -1069080.6, 55155.457, 0.0, 10.0005455, 9.999598 
3.6501938e+2, 1.9528016e+2, -906883.75, -1020977.0, 21438.535, 0.16137515, -0.2016472, -902988.3, 123235.38, 0.0, 10.001037, 9.999544 
3.6502278e+2, 2.0527887e+2, -825996.5, -1039557.44, -17163.678, 0.116271146, -0.23273487, -824625.9, 103609.08, 0.0, 10.001395, 9.998568 
3.6502555e+2, 2.1527553e+2, -698605.25, -930230.75, -42094.13, 0.05709758, -0.4378968, -691192.56, 139075.23, 0.0, 10.001607, 9.998546 
3.6502925e+2, 2.252746e+2, -598872.3, -773409.6, -691.37946, 0.028593559, -0.40922678, -598869.56, 133408.44, 0.0, 10.001366, 9.9990635 
3.6503384e+2, 2.3527579e+2, -603862.2, -730049.25, -8103.597, 0.03329479, -0.210751, -603343.94, 30924.621, 0.0, 10.000677, 9.999022 
3.650377e+2, 2.4527486e+2, -520306.63, -655648.4, -38793.75, 0.035157695, -0.19498426, -509975.56, 26300.672, 0.0, 10.000649, 9.998874 
3.6504093e+2, 2.55272e+2, -345420.9, -521183.13, -17167.697, 0.03463512, -0.38380662, -343759.75, 94539.99, 0.0, 10.001183, 9.998865 
3.6504397e+2, 2.652701e+2, -252892.58, -463633.47, -5082.008, 0.01969408, -0.4388229, -252770.1, 87546.6, 0.0, 10.001317, 9.998519 
3.6504698e+2, 2.75269e+2, -192229.94, -389419.78, -13987.77, 0.002236204, -0.41311595, -191242.66, 51086.16, 0.0, 10.001079, 9.998473 
3.650508e+2, 2.85268e+2, -127783.59, -305488.4, 19760.268, 0.00330258, -0.35963273, -125612.83, 18728.955, 0.000000055764154, 10.000837, 9.998495 
3.650553e+2, 2.9526713e+2, -69307.4, -230041.28, -2273.019, 0.017084548, -0.31833437, -69275.26, -22920.158, 0.0000011854916, 10.00058, 9.998466 
3.6506033e+2, 3.052663e+2, 9699.815, -176545.44, -12215.356, 0.09542488, -0.23757496, 10497.572, 10497.572, 0.000006614604, 10.000825, 9.998389 
3.6506346e+2, 3.1526473e+2, 189604.98, 54251.93, -78419.28, 0.026347771, -0.251302, 225512.7, 225512.7, 0.000023524617, 10.001412, 9.999689 
3.74994e+2, 1.2527809e+2, -1417313.8, -1648397.4, -105734.336, 0.15034673, -0.37005794, -1376236.0, 336012.44, 0.000116595606, 10.002326, 9.999327 
3.7499326e+2, 1.3527976e+2, -1538607.5, -1583018.8, -81189.13, -0.11371367, -0.2166551, -1476642.1, 137589.63, 0.000057458026, 10.000534, 9.999966 
3.7499902e+2, 1.4527902e+2, -1516594.8, -1546626.4, 36207.758, 0.12738574, -0.2748156, -1492412.6, 23823.807, 0.000019792478, 10.000133, 9.999726 
3.7500545e+2, 1.5527816e+2, -1269319.6, -1393369.5, 26852.588, 0.28568083, -0.3434468, -1263756.5, 154484.2, 0.000003853391, 10.001221, 9.999587 
3.7500942e+2, 1.652771e+2, -1231972.6, -1444097.6, -39014.695, 0.28066456, -0.35066783, -1225024.5, 95226.62, 0.00000020238203, 10.00132, 9.998515 
3.7501088e+2, 1.7527592e+2, -1236773.9, -1394129.6, -29026.521, 0.092989795, -0.33485553, -1231590.3, -9324.081, 0.0, 10.000609, 9.9985285 
3.750143e+2, 1.852751e+2, -1057306.3, -1107566.3, 31061.686, 0.02571804, -0.3388145, -1042482.0, 81791.72, 0.0, 10.0005245, 9.999865 
3.7501967e+2, 1.9527441e+2, -895481.2, -987112.06, 46110.992, 0.075249456, -0.40734315, -876294.5, 149981.05, 0.0, 10.000997, 9.999793 
3.750243e+2, 2.0527391e+2, -870665.1, -1122525.6, -13883.008, 0.11673755, -0.34258077, -869902.2, 58379.418, 0.0, 10.0013485, 9.998023 
3.7502804e+2, 2.1527353e+2, -741452.56, -1006660.56, -27976.117, 0.13579476, -0.19737525, -738533.56, 91758.24, 0.0, 10.001551, 9.998048 
3.750315e+2, 2.2527222e+2, -611003.1, -783848.6, -31740.607, 0.10743151, -0.18153787, -605358.75, 126948.5, 0.0, 10.001299, 9.999025 
3.750347e+2, 2.3526996e+2, -611684.3, -734144.9, -27562.875, 0.03801338, -0.3251826, -605766.56, 28561.727, 0.0, 10.00062, 9.999022 
3.7503824e+2, 2.4526905e+2, -480589.63, -556988.75, -21946.324, 0.01248652, -0.34604162, -474734.13, 61600.684, 0.0, 10.000585, 9.999582 
3.7504208e+2, 2.5526923e+2, -306808.4, -428691.8, 8895.308, 0.018213186, -0.29823953, -306162.63, 132166.42, 0.0, 10.001127, 9.999529 
3.7504506e+2, 2.652686e+2, -271034.6, -491865.63, -19676.59, -0.013908062, -0.25377375, -269295.06, 71040.24, 0.0, 10.001281, 9.998342 
3.7504733e+2, 2.752671e+2, -213787.61, -418620.28, -17171.93, -0.08307474, -0.25284466, -212358.0, 29995.088, 0.0, 10.001012, 9.998304 
3.750513e+2, 2.852653e+2, -169346.67, -383325.44, 5415.4478, -0.04475949, -0.24382456, -169209.7, -24836.307, 0.00000003400916, 10.000798, 9.997982 
3.7505674e+2, 2.9526317e+2, -108962.05, -303395.78, -3971.4048, 0.08856392, -0.26872894, -108880.96, -62484.723, 0.0000008994765, 10.000533, 9.997989 
3.7506154e+2, 3.052622e+2, 37883.77, -99410.914, 6156.4756, 0.12407777, -0.20926367, 38159.28, 38159.28, 0.000005653841, 10.000761, 9.998944 
3.750643e+2, 3.152622e+2, 191629.4, 93473.8, -30668.033, -0.05875176, -0.1212349, 200423.53, 200423.53, 0.000021891798, 10.001277, 10.000018 
3.8499612e+2, 1.252743e+2, -1670473.3, -1707783.9, 79081.97, 0.23522948, -0.38508052, -1607876.0, 104410.21, 0.00011972094, 10.000327, 9.99988 
3.849939e+2, 1.3527678e+2, -1326027.8, -1413605.9, -7869.222, -0.15639204, -0.2141978, -1325326.3, 288931.97, 0.000060093465, 10.001701, 10.000574 
3.8499942e+2, 1.452763e+2, -1305702.4, -1536829.0, 96667.266, 0.068177484, -0.23524806, -1270602.4, 245658.47, 0.000021868578, 10.001963, 9.998917 
3.850071e+2, 1.5527438e+2, -1316567.1, -1502213.1, 44858.063, 0.33195895, -0.32882574, -1306296.3, 111982.73, 0.000004862859, 10.001268, 9.9988165 
3.8501117e+2, 1.6527304e+2, -1241546.9, -1420446.8, -31405.549, 0.33554062, -0.3411725, -1236193.9, 84098.48, 0.00000029520132, 10.001121, 9.998781 
3.850115e+2, 1.7527218e+2, -1099250.5, -1301107.5, -19369.94, 0.058581676, -0.3197945, -1097408.6, 124892.805, 0.0, 10.001427, 9.998779 
3.850147e+2, 1.8527113e+2, -973722.5, -1107904.4, 36571.83, -0.023077961, -0.33705443, -964402.06, 159908.45, 0.0, 10.001272, 9.999501 
3.8502067e+2, 1.9526978e+2, -966653.1, -1063057.4, -9952.888, 0.090739615, -0.43852466, -965636.3, 60685.016, 0.0, 10.000679, 9.999427 
3.8502553e+2, 2.0526941e+2, -968985.75, -1121046.4, -33281.938, 0.1566262, -0.36523995, -962020.3, -33693.73, 0.0, 10.000455, 9.998466 
3.8502938e+2, 2.1526988e+2, -859673.6, -1017624.6, 14720.101, 0.16971798, -0.17905422, -858313.5, -27986.125, 0.0, 10.000527, 9.99847 
3.8503265e+2, 2.2526875e+2, -725931.3, -832665.75, 39297.688, 0.13799067, -0.1679151, -713023.56, 19316.62, 0.0, 10.000482, 9.9990835 
3.8503546e+2, 2.3526615e+2, -650996.5, -746045.2, 38195.96, 0.07209641, -0.35306704, -637549.6, -3185.3972, 0.0, 10.000328, 9.999079 
3.850389e+2, 2.4526519e+2, -520439.2, -588297.0, 52615.51, 0.03448025, -0.37667152, -491761.7, 44610.125, 0.0, 10.000362, 9.99947 
3.8504288e+2, 2.5526562e+2, -401401.5, -491523.06, 11111.554, 0.017747803, -0.29258415, -400051.72, 38313.62, 0.0, 10.000548, 9.999375 
3.8504618e+2, 2.6526502e+2, -362933.28, -561516.9, -52488.19, -0.00532215, -0.22167888, -349913.6, -9541.115, 0.0, 10.000749, 9.998121 
3.8504884e+2, 2.752635e+2, -241335.31, -451872.47, -66024.78, -0.025492026, -0.20255935, -222343.1, 20048.742, 0.0, 10.000913, 9.998121 
3.8505274e+2, 2.8526154e+2, -91359.07, -315300.6, 4759.887, 0.0052895015, -0.21537426, -91257.945, 53154.074, 0.000000026095549, 10.001206, 9.99825 
3.8505772e+2, 2.9525915e+2, 62539.17, -191392.56, 43378.94, 0.08398718, -0.2958855, 69745.07, 116178.26, 0.0000006696504, 10.001594, 9.99824 
3.8506228e+2, 3.0525807e+2, 102609.0, -125434.305, 46429.047, 0.093179524, -0.23509915, 111699.47, 111699.47, 0.0000049598348, 10.001444, 9.998437 
3.8506585e+2, 3.152577e+2, 55894.703, -44489.63, -85709.72, 0.010594719, -0.13114329, 105027.305, 105027.305, 0.000021460863, 10.000647, 9.999379 
3.9499724e+2, 1.2527342e+2, -1683786.0, -1735076.4, 142949.52, 0.27686444, -0.30856913, -1564199.5, 148090.84, 0.0001233599, 10.000341, 9.999683 
3.9499643e+2, 1.3527401e+2, -1335887.4, -1435598.3, 44863.816, -0.09023454, -0.3110546, -1318673.3, 295606.66, 0.00006261113, 10.001721, 10.000409 
3.9500085e+2, 1.4527306e+2, -1388193.5, -1713810.5, 64262.61, -0.00329138, -0.30719677, -1375969.8, 140319.48, 0.000023583854, 10.001979, 9.9977 
3.95006e+2, 1.55271e+2, -1389468.4, -1665829.8, 25671.82, 0.0769557, -0.29694182, -1387103.9, 31209.9, 0.000005569423, 10.001314, 9.997675 
3.9501005e+2, 1.6526939e+2, -1210660.3, -1356168.0, -28791.836, 0.09595956, -0.30047336, -1205170.4, 115159.63, 0.00000035120044, 10.001122, 9.999222 
3.9501244e+2, 1.7526835e+2, -1070034.3, -1238193.0, -3999.1887, -0.004750405, -0.34213555, -1069939.1, 152397.75, 0.0, 10.001419, 9.999214 
3.9501643e+2, 1.8526739e+2, -1053164.1, -1263291.1, 9521.743, 0.00867784, -0.32026592, -1052733.5, 71613.234, 0.0, 10.001229, 9.998458 
3.9502203e+2, 1.952663e+2, -1041375.4, -1204585.1, -26280.379, 0.14750925, -0.28776747, -1037248.0, -10887.428, 0.0, 10.000625, 9.998481 
3.9502636e+2, 2.0526539e+2, -878484.94, -916612.25, -36553.25, 0.1819255, -0.29996872, -856322.8, 72047.04, 0.0, 10.000387, 9.999901 
3.950294e+2, 2.1526456e+2, -775447.1, -817667.8, 23146.367, 0.10349312, -0.38670373, -765230.1, 65144.77, 0.0, 10.000429, 9.999885 
3.950326e+2, 2.2526424e+2, -726140.56, -820042.94, 28289.72, 0.07480511, -0.37052318, -718276.4, 14100.565, 0.0, 10.000421, 9.999204 
3.9503604e+2, 2.3526424e+2, -651094.44, -734179.3, 38913.59, 0.08208748, -0.3057256, -635715.5, -1338.1544, 0.0, 10.000273, 9.999188 
3.9503953e+2, 2.4526316e+2, -593783.8, -729451.2, 54600.582, 0.045646455, -0.29628286, -574539.2, -38150.89, 0.0, 10.000317, 9.998523 
3.950431e+2, 2.5526103e+2, -474380.78, -629727.44, 24615.998, -0.030628404, -0.3746512, -470573.47, -32164.064, 0.0, 10.000487, 9.998458 
3.95047e+2, 2.6525947e+2, -390457.16, -602733.44, -49489.035, -0.008257189, -0.3434983, -379486.5, -39058.637, 0.0, 10.000682, 9.99787 
3.9505124e+2, 2.752583e+2, -263588.38, -486642.03, -51655.945, 0.107802294, -0.26168, -252206.4, -9761.469, 0.0, 10.000861, 9.997909 
3.9505494e+2, 2.852568e+2, -22078.604, -161229.94, 14218.656, 0.090244375, -0.27495834, -20640.584, 123817.16, 0.000000010243951, 10.001166, 9.999328 
3.95058e+2, 2.9525504e+2, 120163.88, -51540.75, 65608.48, -0.05957105, -0.39886573, 142362.9, 188828.84, 0.00000051187845, 10.001509, 9.999245 
3.9506242e+2, 3.0525386e+2, -10875.211, -349749.4, 14833.368, -0.05168704, -0.31746474, -10227.156, -10227.156, 0.0000058228006, 10.001396, 9.996918 
3.9506775e+2, 3.1525132e+2, -64526.984, -271657.03, -101600.81, 0.10696439, -0.2782298, -23011.205, -23011.205, 0.00002601799, 10.000561, 9.997853 
4.0499765e+2, 1.2527075e+2, -1545715.8, -1779478.1, 127376.98, 0.22323278, -0.29800406, -1489721.0, 222591.61, 0.00012458346, 10.001746, 9.998707 
4.04999e+2, 1.3526951e+2, -1426416.1, -1595797.6, -90895.58, 0.009248112, -0.3818815, -1386871.0, 227453.1, 0.00006386204, 10.001589, 9.999377 
4.0500307e+2, 1.4526859e+2, -1421168.0, -1681363.1, -54655.46, 0.045549747, -0.3467661, -1410153.6, 106180.43, 0.000024485202, 10.001549, 9.998127 
4.050067e+2, 1.5526722e+2, -1307903.5, -1582104.1, 17193.748, 0.0018004728, -0.3099103, -1306829.6, 111520.11, 0.000005781208, 10.0016775, 9.9980755 
4.0501064e+2, 1.6526581e+2, -1164704.8, -1350591.8, 18300.725, 0.027925318, -0.30711055, -1162920.1, 157443.61, 0.0000003430959, 10.001519, 9.999063 
4.0501407e+2, 1.7526454e+2, -1134845.4, -1288835.5, -20154.766, 0.03772502, -0.35657436, -1132251.1, 90123.11, 0.0, 10.001063, 9.999033 
4.050179e+2, 1.8526365e+2, -1151613.8, -1321880.0, 622.9013, 0.07043961, -0.31320602, -1151611.5, -27227.252, 0.0, 10.000598, 9.998362 
4.0502238e+2, 1.9526285e+2, -1128224.6, -1257615.3, 29019.67, 0.14976294, -0.24261738, -1122014.1, -95617.91, 0.0, 10.000071, 9.998388 
4.0502626e+2, 2.0526165e+2, -928574.06, -926119.3, 36041.277, 0.1549504, -0.2829393, -891284.56, 37122.785, 0.0, 9.999988, 10.000026 
4.0502954e+2, 2.1526004e+2, -789310.6, -814564.56, -15781.917, 0.087456316, -0.4595463, -781726.0, 48691.953, 0.0, 10.00029, 9.999977 
4.0503305e+2, 2.2525986e+2, -668125.0, -765201.4, -42370.938, 0.063916646, -0.44521418, -652233.0, 80184.625, 0.0, 10.000716, 9.999432 
4.050367e+2, 2.3526087e+2, -490734.06, -635800.1, -36709.19, 0.07281187, -0.2992521, -481973.78, 152434.33, 0.0, 10.0012865, 9.999373 
4.050404e+2, 2.4526004e+2, -449253.84, -683788.5, 11856.191, 0.053278115, -0.26384857, -448656.03, 87761.49, 0.0, 10.001407, 9.998315 
4.050443e+2, 2.5525758e+2, -395717.06, -607242.94, 25388.834, 0.0116823735, -0.35756373, -392712.4, 45730.977, 0.0, 10.001108, 9.998306 
4.050483e+2, 2.6525575e+2, -332316.8, -574145.44, 9109.134, 0.037258144, -0.34825292, -331974.2, 8490.309, 0.0, 10.001073, 9.99788 
4.0505248e+2, 2.7525428e+2, -208151.22, -462524.97, 16841.26, 0.13152657, -0.29839143, -207041.06, 35442.36, 0.0, 10.001244, 9.997893 
4.05056e+2, 2.8525275e+2, -43488.145, -164093.56, 52694.89, 0.09296135, -0.31243968, -23708.598, 120787.27, 0.0000000008315615, 10.000987, 9.999392 
4.0505886e+2, 2.9525128e+2, -38809.535, -117870.77, 17372.906, -0.06345986, -0.41644034, -35160.44, 11341.403, 0.00000071034475, 10.000373, 9.9993305 
4.0506336e+2, 3.052503e+2, -101654.95, -408750.13, 15615.176, -0.06286967, -0.31828585, -100862.99, -100862.99, 0.0000094188645, 10.00083, 9.996787 
4.0506962e+2, 3.152468e+2, 191860.34, -129754.836, -20746.75, 0.16193567, -0.3599542, 193193.16, 193193.16, 0.00003801625, 10.002213, 9.998039 
4.149971e+2, 1.2526622e+2, -1656430.5, -2028346.9, 129632.766, -0.048461612, -0.36458847, -1615705.9, 96647.75, 0.00012201354, 10.001824, 9.996961 
4.150014e+2, 1.3526347e+2, -1543552.8, -1856560.4, -94605.46, 0.07085944, -0.41130096, -1517180.5, 97208.58, 0.00006271878, 10.001656, 9.997557 
4.150058e+2, 1.4526297e+2, -1273843.0, -1377929.9, -54524.695, 0.14387995, -0.35267523, -1250510.9, 265883.66, 0.000024127196, 10.001567, 10.000199 
4.1500905e+2, 1.5526314e+2, -1165956.9, -1285009.8, 28779.94, 0.05221958, -0.36925936, -1159364.6, 259021.45, 0.0000053776757, 10.001675, 10.000113 
4.1501284e+2, 1.652623e+2, -1227696.5, -1476497.9, -4198.5347, 0.07897274, -0.3646149, -1227625.8, 92767.61, 0.0000002359893, 10.001496, 9.99821 
4.1501617e+2, 1.7526074e+2, -1189087.3, -1404513.8, -30764.648, 0.12420268, -0.35846615, -1184779.9, 37632.88, 0.0, 10.001076, 9.998235 
4.1501892e+2, 1.8525986e+2, -1091990.5, -1196455.9, -24466.264, 0.09649164, -0.31925863, -1086544.4, 37879.184, 0.0, 10.00059, 9.999226 
4.150214e+2, 1.9525945e+2, -1075892.8, -1139239.9, 14293.834, 0.030525414, -0.2987161, -1072816.9, -46389.176, 0.0, 10.000033, 9.999216 
4.1502506e+2, 2.052583e+2, -1020215.7, -1109697.4, 41901.754, 0.024914078, -0.3096751, -1003658.06, -75219.8, 0.0, 9.9999485, 9.99879 
4.1502964e+2, 2.1525641e+2, -879820.9, -988402.0, 755.37854, 0.057319053, -0.39309958, -879815.6, -49359.996, 0.0, 10.000227, 9.998815 
4.1503367e+2, 2.252557e+2, -659383.3, -733523.6, -25250.482, 0.042262845, -0.38786772, -651600.56, 80860.87, 0.0, 10.000656, 9.99968 
4.1503718e+2, 2.3525599e+2, -481357.72, -601283.06, -9741.927, -0.02013587, -0.34178776, -480571.5, 153885.92, 0.0, 10.00122, 9.999643 
4.1504136e+2, 2.452558e+2, -419904.94, -608360.94, -4155.3784, -0.006991944, -0.28259143, -419813.34, 116646.33, 0.0, 10.001348, 9.998857 
4.150462e+2, 2.552551e+2, -366655.53, -533375.06, 20693.836, 0.07663451, -0.2522852, -364125.3, 74342.95, 0.0, 10.001048, 9.998843 
4.1504985e+2, 2.6525366e+2, -316594.7, -529923.7, 10017.88, 0.07326282, -0.24579793, -316125.28, 24358.516, 0.0, 10.001031, 9.9982 
4.1505238e+2, 2.7525145e+2, -200950.64, -428171.66, 29060.783, -0.01751323, -0.30529612, -197292.77, 45214.023, 0.0, 10.001166, 9.998164 
4.1505572e+2, 2.852495e+2, -111253.984, -302261.8, 24200.523, -0.04620529, -0.32598048, -108235.5, 36290.324, 0.00000000001177225, 10.00097, 9.998453 
4.1505992e+2, 2.952479e+2, -109631.086, -251587.3, 2765.9514, -0.011136005, -0.34835106, -109577.22, -63036.4, 0.0000013022876, 10.000311, 9.998443 
4.1506484e+2, 3.052473e+2, -13643.531, -220189.89, 65376.824, -0.008348572, -0.23147574, 5310.45, 5310.45, 0.000014524035, 10.000809, 9.998091 
4.150711e+2, 3.1524432e+2, 309638.25, 145696.25, 31645.295, 0.059263665, -0.3629216, 315534.6, 315534.6, 0.000053920798, 10.0020895, 9.999989 
4.2499942e+2, 1.252622e+2, -1503953.8, -1902379.1, 81114.11, -0.034419645, -0.30796206, -1488073.0, 224325.14, 0.000114420596, 10.002637, 9.997437 
4.2500344e+2, 1.3525967e+2, -1557737.0, -1839164.1, -18377.305, 0.12671892, -0.35731462, -1556542.0, 57886.73, 0.00005866896, 10.001449, 9.997778 
4.2500678e+2, 1.4525923e+2, -1388487.6, -1438792.9, 49061.586, 0.12849887, -0.30027658, -1358506.9, 157925.77, 0.00002226237, 10.000795, 10.000156 
4.250098e+2, 1.5525886e+2, -1348914.5, -1377653.9, -44935.47, 0.023904365, -0.36777088, -1316107.0, 102322.95, 0.0000044458184, 10.000434, 10.000077 
4.2501363e+2, 1.6525815e+2, -1361754.8, -1498933.9, -89677.59, 0.06962806, -0.36658418, -1317443.5, 2992.6052, 0.00000009724189, 10.000391, 9.9985895 
4.2501733e+2, 1.7525724e+2, -1220896.8, -1376685.4, -34069.88, 0.15599044, -0.33506152, -1213771.8, 8677.038, 0.0, 10.00067, 9.998622 
4.2502004e+2, 1.8525667e+2, -1008513.5, -1144011.3, -2121.7778, 0.12773772, -0.28981447, -1008480.3, 115975.914, 0.0, 10.001121, 9.999327 
4.2502216e+2, 1.9525622e+2, -832168.94, -1014502.94, -30785.729, 0.026405066, -0.27923208, -827111.3, 199349.22, 0.0, 10.0016775, 9.999278 
4.250255e+2, 2.0525508e+2, -791899.0, -1035614.2, 10247.863, -0.0102035655, -0.27779117, -791468.8, 137002.44, 0.0, 10.0016775, 9.998458 
4.250297e+2, 2.152532e+2, -768749.94, -972404.9, 23412.268, -0.0029423512, -0.3260231, -766093.1, 64395.434, 0.0, 10.001156, 9.998472 
4.2503387e+2, 2.2525197e+2, -684666.44, -771321.0, 22539.803, 0.0051649255, -0.34524992, -679154.25, 53345.074, 0.0, 10.000589, 9.999454 
4.2503807e+2, 2.352513e+2, -680767.7, -719983.56, -9787.526, 0.014560212, -0.37170053, -678460.6, -43956.508, 0.0, 9.9999485, 9.999441 
4.2504248e+2, 2.45251e+2, -610979.06, -672076.75, -17028.64, 0.046584696, -0.32740927, -606553.56, -70046.305, 0.0, 9.9999075, 9.999119 
4.250472e+2, 2.5525093e+2, -439767.4, -541118.8, -23152.945, 0.105875686, -0.2623451, -434728.78, 3781.0637, 0.0, 10.000418, 9.999099 
4.250508e+2, 2.6524994e+2, -336265.66, -497927.56, -30263.031, 0.083652064, -0.24154095, -330786.16, 9733.843, 0.0, 10.000712, 9.99858 
4.2505342e+2, 2.7524805e+2, -222355.3, -394423.78, -18402.607, -0.009478445, -0.3050012, -220409.16, 22128.72, 0.0, 10.000832, 9.998558 
4.2505673e+2, 2.8524622e+2, -133732.16, -370505.16, -2365.5886, -0.045298256, -0.31017217, -133708.53, 10849.032, 0.0000000012455732, 10.001066, 9.997935 
4.2506072e+2, 2.952444e+2, 13885.156, -249543.06, -5442.0146, -0.012520205, -0.30250975, 13997.531, 60576.836, 0.0000019825331, 10.0014, 9.997937 
4.2506573e+2, 3.0524364e+2, 74712.89, -122653.11, 72326.586, -0.016081924, -0.19957513, 98379.68, 98379.68, 0.000019596095, 10.001185, 9.998583 
4.2507222e+2, 3.1524184e+2, 148629.31, 176956.5, -61890.664, 0.049641483, -0.25954282, 226283.55, 226283.55, 0.00006922057, 10.000531, 10.000955 
4.3500414e+2, 1.2525873e+2, -1309800.1, -1502008.8, 39445.758, 0.13977319, -0.12466292, -1302019.9, 410425.78, 0.00010246441, 10.002666, 10.000164 
4.3500516e+2, 1.3525814e+2, -1391715.3, -1500023.1, -54445.645, 0.13204901, -0.22200032, -1369077.4, 245365.23, 0.000052240124, 10.001477, 10.000091 
4.3500596e+2, 1.4525737e+2, -1542929.3, -1762019.4, 34846.813, -0.053740326, -0.19631766, -1537520.3, -21071.988, 0.000019361623, 10.000804, 9.997934 
4.3500862e+2, 1.5525438e+2, -1492092.0, -1684326.3, -50957.984, -0.15675725, -0.3057322, -1479419.3, -60937.47, 0.0000034941986, 10.00047, 9.997957 
4.3501282e+2, 1.6525331e+2, -1246018.3, -1259548.0, -85806.875, -0.06853481, -0.32115048, -1166710.0, 153782.64, 0.000000032016867, 10.000396, 10.00023 
4.350174e+2, 1.7525405e+2, -1109054.9, -1145190.6, -17753.102, 0.07720362, -0.2869053, -1101792.6, 120689.26, 0.0, 10.00067, 10.000212 
4.350211e+2, 1.8525405e+2, -1063725.8, -1246810.9, 14079.561, 0.10848326, -0.22626239, -1062649.3, 61833.016, 0.0, 10.001073, 9.998644 
4.350245e+2, 1.9525324e+2, -884235.6, -1111342.5, -5232.94, 0.07703517, -0.1869844, -884115.06, 142379.39, 0.0, 10.001633, 9.998634 
4.3502733e+2, 2.0525204e+2, -765648.0, -965072.94, -15228.048, -0.0037738595, -0.18677492, -764491.94, 164014.03, 0.0, 10.00161, 9.998975 
4.350295e+2, 2.1525042e+2, -744141.06, -905723.2, 8310.761, -0.15047036, -0.26162362, -743714.75, 86802.4, 0.0, 10.001091, 9.99896 
4.350335e+2, 2.2524872e+2, -748264.56, -881811.8, -7957.681, -0.102669135, -0.3121603, -747792.06, -15261.108, 0.0, 10.000501, 9.998736 
4.350392e+2, 2.3524687e+2, -740195.7, -825428.7, -28723.76, 0.119811505, -0.38512868, -731419.4, -96871.27, 0.0, 9.999875, 9.998751 
4.3504366e+2, 2.4524571e+2, -619126.6, -679418.94, -3655.077, 0.16295174, -0.39187095, -618905.8, -82345.93, 0.0, 9.999865, 9.999089 
4.35047e+2, 2.552451e+2, -450197.2, -548281.5, 235.5271, 0.035435904, -0.37862086, -450196.63, -11629.212, 0.0, 10.000356, 9.99908 
4.350509e+2, 2.6524457e+2, -307861.53, -433295.47, -30533.578, 0.012784999, -0.33292794, -300823.8, 39748.844, 0.0, 10.000687, 9.999037 
4.3505532e+2, 2.752441e+2, -196602.17, -332206.88, -7820.447, 0.08287045, -0.30255467, -196152.64, 46424.22, 0.0, 10.000788, 9.999009 
4.3505868e+2, 2.852428e+2, -145092.97, -385833.1, 5051.6226, 0.03140754, -0.2691506, -144987.02, -395.43134, 0.000000012355592, 10.001035, 9.997844 
4.3506113e+2, 2.9524076e+2, -4661.7803, -275328.88, 12498.31, -0.12792991, -0.27481127, -4085.8845, 42530.887, 0.0000027659546, 10.001347, 9.9977865 
4.3506578e+2, 3.052393e+2, 48674.258, -174797.48, 43682.31, -0.14222053, -0.21693537, 56909.42, 56909.42, 0.000024042205, 10.001171, 9.998232 
4.3507257e+2, 3.1523916e+2, 131052.086, 161231.11, -83019.17, 0.002948202, -0.07523101, 230520.95, 230520.95, 0.00008111006, 10.000444, 10.000885 
4.4500604e+2, 1.2525496e+2, -1458471.4, -1510441.0, 156120.9, 0.13637719, -0.12316582, -1326187.6, 386296.9, 0.000089493355, 10.001387, 10.000719 
4.4500715e+2, 1.3525498e+2, -1370726.4, -1457095.5, -128415.78, 0.1879814, -0.18969217, -1278428.4, 336045.25, 0.000044922584, 10.001491, 10.000379 
4.450069e+2, 1.4525409e+2, -1471482.1, -1769217.3, -18274.506, -0.065991275, -0.16913244, -1470364.6, 46115.89, 0.00001621496, 10.001481, 9.997557 
4.450097e+2, 1.5525046e+2, -1408329.3, -1680867.9, 20372.205, -0.12607284, -0.307796, -1406814.9, 11707.625, 0.0000027558995, 10.001212, 9.997621 
4.450138e+2, 1.6524933e+2, -1144995.9, -1203511.1, 19761.393, -0.04069536, -0.3154586, -1138947.4, 181587.22, 0.000000035556127, 10.001053, 10.000299 
4.4501787e+2, 1.7525062e+2, -1059244.3, -1113357.6, -41805.5, 0.046563055, -0.23352093, -1036503.7, 186014.77, 0.0, 10.000983, 10.0002775 
4.4502136e+2, 1.852507e+2, -1120761.1, -1271499.8, -30501.889, 0.053253014, -0.17019841, -1114823.0, 9694.712, 0.0, 10.000658, 9.998677 
4.450249e+2, 1.9524951e+2, -1113128.4, -1215729.0, -7855.6406, 0.038866542, -0.17184754, -1112530.4, -85997.82, 0.0, 10.00003, 9.998691 
4.4502825e+2, 2.0524833e+2, -958335.2, -1021947.75, 15876.781, 0.0045733107, -0.18876098, -954592.75, -26049.764, 0.0, 10.000136, 9.999291 
4.450313e+2, 2.1524706e+2, -755716.56, -879045.6, 13005.227, -0.06662637, -0.25664562, -754360.06, 76190.01, 0.0, 10.000873, 9.99925 
4.45035e+2, 2.2524549e+2, -648315.5, -838515.6, 9736.998, -0.034934457, -0.30960703, -647818.3, 84744.23, 0.0, 10.001204, 9.998693 
4.4503936e+2, 2.352435e+2, -560453.1, -747859.25, 29520.914, 0.0924108, -0.39131975, -555912.9, 78667.836, 0.0, 10.00114, 9.998677 
4.4504386e+2, 2.4524225e+2, -439934.56, -607921.0, 107705.79, 0.13225818, -0.39670897, -387343.0, 149250.19, 0.0, 10.001163, 9.99895 
4.450483e+2, 2.552416e+2, -323845.56, -502633.16, 91906.21, 0.086318314, -0.3738453, -285028.6, 153572.45, 0.0, 10.001292, 9.998939 
4.4505242e+2, 2.6524088e+2, -264032.4, -433845.2, 22469.35, 0.07852444, -0.3334513, -261109.61, 79499.414, 0.0, 10.001083, 9.9988365 
4.4505626e+2, 2.7524003e+2, -241417.02, -376742.44, -12013.695, 0.11311285, -0.31619805, -240358.77, 2259.0635, 0.0, 10.000582, 9.998799 
4.4505978e+2, 2.8523883e+2, -152638.45, -369196.06, 28945.098, 0.048526704, -0.27489695, -148836.4, -4204.7236, 0.00000003062236, 10.000893, 9.998028 
4.4506302e+2, 2.9523715e+2, 87212.01, -205131.84, 40740.07, -0.09588236, -0.26250544, 92783.234, 139434.67, 0.0000032981313, 10.001877, 9.998008 
4.4506738e+2, 3.052351e+2, 91783.48, -169784.73, 41476.492, -0.11070565, -0.2723151, 98202.805, 98202.805, 0.000027025699, 10.001531, 9.998091 
4.450724e+2, 3.1523535e+2, 36704.72, 78909.914, -99363.79, -0.025120145, -0.07171458, 159387.23, 159387.23, 0.00008860118, 9.999931, 10.000571 
4.5500487e+2, 1.2525094e+2, -1564655.8, -1742962.1, 140481.73, -0.16006677, -0.29976356, -1487425.6, 225088.28, 0.00007906838, 10.001441, 9.999096 
4.5500904e+2, 1.3525009e+2, -1490954.5, -1718242.9, -117511.45, 0.21011858, -0.2668537, -1441124.1, 173398.47, 0.00003857364, 10.001538, 9.998564 
4.5500943e+2, 1.4524928e+2, -1359358.6, -1543652.4, -30295.955, 0.016968586, -0.22743002, -1354506.0, 162024.6, 0.000013268856, 10.001513, 9.999088 
4.550129e+2, 1.5524714e+2, -1303395.6, -1466486.8, 19101.965, 0.050664477, -0.37004334, -1301188.3, 117363.305, 0.0000020825275, 10.001231, 9.99908 
4.5501637e+2, 1.6524634e+2, -1247675.4, -1420439.3, 9960.45, 0.09446882, -0.34026456, -1247103.0, 73458.195, 0.00000004449902, 10.001064, 9.998807 
4.550186e+2, 1.752469e+2, -1156546.5, -1322477.6, -39465.58, 0.0071367826, -0.18189904, -1147638.1, 74921.266, 0.0, 10.001008, 9.998833 
4.550207e+2, 1.8524653e+2, -1072818.3, -1163536.3, -58351.777, -0.09294741, -0.13172996, -1044269.44, 80293.84, 0.0, 10.000626, 9.999432 
4.5502314e+2, 1.9524509e+2, -1068878.9, -1113000.1, -24320.918, -0.15573128, -0.23241682, -1058103.9, -31529.469, 0.0, 9.999987, 9.9994135 
4.55028e+2, 2.0524399e+2, -961682.06, -1011929.3, 36512.395, -0.050205287, -0.2796583, -942484.7, -13902.405, 0.0, 10.000062, 9.999397 
4.550348e+2, 2.1524318e+2, -758851.25, -863615.4, 46164.953, 0.18478109, -0.3154575, -741411.5, 89175.95, 0.0, 10.000779, 9.999399 
4.550382e+2, 2.2524227e+2, -617663.5, -756208.7, 3057.3052, 0.15127327, -0.33838177, -617596.06, 114997.625, 0.0, 10.0011215, 9.999299 
4.5503846e+2, 2.352412e+2, -526819.0, -664479.75, 33516.406, -0.1259971, -0.39065275, -519092.38, 115509.32, 0.0, 10.001081, 9.999277 
4.550428e+2, 2.4524063e+2, -465293.38, -648029.5, 106988.67, -0.09959249, -0.34506136, -415967.8, 120639.44, 0.0, 10.00111, 9.998701 
4.550509e+2, 2.552404e+2, -351915.53, -542138.2, 101871.53, 0.19879751, -0.25348854, -307656.94, 130954.31, 0.0, 10.001212, 9.998706 
4.5505518e+2, 2.6523882e+2, -331672.9, -563319.94, 406.5739, 0.23336908, -0.2440132, -331672.2, 8957.035, 0.0, 10.001038, 9.99797 
4.550561e+2, 2.7523592e+2, -308765.72, -504863.7, -21878.338, 0.022728842, -0.3470429, -306354.44, -63693.81, 0.0, 10.00053, 9.997943 
4.5505986e+2, 2.8523427e+2, -126536.21, -305371.38, 61687.258, -0.047345188, -0.32936588, -107322.2, 37355.28, 0.000000022691747, 10.000849, 9.99849 
4.5506623e+2, 2.9523364e+2, 114280.5, -134771.38, 83255.78, 0.019145219, -0.2617826, 139548.53, 186231.53, 0.0000033719941, 10.001809, 9.9985285 
4.5507038e+2, 3.0523092e+2, 90660.86, -158968.0, -19000.945, 0.022173505, -0.36818323, 92098.87, 92098.87, 0.000028147611, 10.001484, 9.998183 
4.5507154e+2, 3.1523046e+2, -10969.456, 1361.9922, -153845.78, -0.1354885, -0.24463889, 149165.56, 149165.56, 0.00009108323, 9.99985, 10.000074 
4.650065e+2, 1.2524742e+2, -1623028.4, -1826117.8, 99245.74, -0.12717828, -0.36761802, -1582583.5, 129960.23, 0.000072079085, 10.001266, 9.9986105 
4.6501046e+2, 1.3524607e+2, -1540331.9, -1810558.0, -67786.65, 0.20842125, -0.32616794, -1524280.9, 90281.48, 0.000033639506, 10.001477, 9.997967 
4.6501005e+2, 1.4524546e+2, -1359987.9, -1479360.5, 17289.123, -0.054441463, -0.2666222, -1357534.3, 159035.45, 0.000010536622, 10.001224, 9.999671 
4.6501425e+2, 1.5524484e+2, -1393523.1, -1447715.0, -21654.857, 0.11275117, -0.3157271, -1385933.0, 32640.912, 0.0000014175026, 10.000335, 9.999644 
4.650178e+2, 1.6524431e+2, -1392878.4, -1523447.3, 30614.027, 0.17467691, -0.2717938, -1386056.8, -65476.387, 0.000000030371112, 10.000224, 9.998501 
4.650195e+2, 1.7524391e+2, -1198174.3, -1374802.8, 57539.695, 0.0027811793, -0.17921026, -1181083.5, 41504.92, 0.0, 10.000867, 9.998542 
4.650215e+2, 1.8524295e+2, -1003723.0, -1118243.8, 39160.18, -0.09370836, -0.18015872, -991612.9, 132984.45, 0.0, 10.001051, 9.9995365 
4.6502426e+2, 1.9524129e+2, -948153.25, -1046976.9, 15460.343, -0.07732087, -0.31220087, -945791.06, 80817.586, 0.0, 10.000778, 9.99949 
4.6502888e+2, 2.0524032e+2, -910089.06, -990345.4, 82593.37, 0.019992674, -0.3499505, -858391.6, 70223.64, 0.0, 10.000424, 9.999372 
4.65035e+2, 2.1523993e+2, -878586.44, -926121.25, 68292.66, 0.17151509, -0.34073758, -830043.56, 574.46936, 0.0, 9.999973, 9.999359 
4.650386e+2, 2.2523937e+2, -748558.4, -803389.75, 20659.025, 0.1337598, -0.33510813, -741646.0, -9024.019, 0.0, 10.000161, 9.999433 
4.6504e+2, 2.3523852e+2, -532856.8, -652169.1, 3508.0015, -0.07009458, -0.37770972, -532753.75, 101874.22, 0.0, 10.00098, 9.999407 
4.650444e+2, 2.4523804e+2, -448434.3, -622155.4, 66485.875, -0.051220935, -0.33793527, -425909.63, 110722.43, 0.0, 10.001146, 9.998864 
4.6505147e+2, 2.5523776e+2, -415577.1, -557057.4, 81335.54, 0.16873269, -0.2673653, -378522.8, 60112.277, 0.0, 10.000703, 9.998851 
4.6505588e+2, 2.652361e+2, -350619.03, -613368.1, 39809.723, 0.20111796, -0.25256324, -344719.84, -4065.8452, 0.0, 10.001074, 9.997614 
4.6505782e+2, 2.7523315e+2, -95429.61, -440224.7, 43341.03, 0.063943945, -0.32549608, -90065.07, 152622.94, 0.0, 10.002156, 9.997608 
4.6506166e+2, 2.8523138e+2, 20495.547, -237483.73, 119316.58, 0.0024988002, -0.3043267, 67218.09, 211924.4, 0.00000001636591, 10.001869, 9.998465 
4.650673e+2, 2.952306e+2, -93509.23, -231818.56, 90889.695, 0.024784759, -0.24943435, -48456.605, -1745.0892, 0.0000038591365, 10.000367, 9.998554 
4.6507177e+2, 3.0522758e+2, -39570.246, -214497.58, -8973.344, 0.06688098, -0.39200684, -39111.14, -39111.14, 0.00002953643, 10.00055, 9.998262 
4.6507302e+2, 3.152266e+2, 284755.0, 94355.24, -168394.97, -0.076430105, -0.32046413, 382997.3, 382997.3, 0.00009247593, 10.002097, 9.999636 
4.750103e+2, 1.2524435e+2, -1573537.4, -1721582.9, 64833.637, 0.08968462, -0.328591, -1549159.0, 163415.5, 0.00006757851, 10.001271, 9.999317 
4.7501126e+2, 1.35243e+2, -1492752.5, -1711020.9, -51993.785, 0.12528735, -0.35710734, -1480999.9, 133592.06, 0.000029630666, 10.001486, 9.998638 
4.7500864e+2, 1.4524274e+2, -1381048.9, -1530182.3, -16936.836, -0.33900052, -0.2779148, -1379149.5, 137447.36, 0.00000816001, 10.0012455, 9.999317 
4.7501352e+2, 1.5524359e+2, -1408212.9, -1489632.3, -47107.082, -0.012409855, -0.14428057, -1386662.1, 31927.248, 0.0000009257674, 10.0003805, 9.999338 
4.750178e+2, 1.6524321e+2, -1328969.1, -1393477.5, 48616.902, 0.13652748, -0.11541954, -1302880.0, 17712.63, 0.000000014696447, 10.000234, 9.99939 
4.7502023e+2, 1.7524163e+2, -1136981.3, -1249494.4, 87212.13, -0.025221981, -0.22799395, -1089455.6, 133150.53, 0.0, 10.000876, 9.999396 
4.750235e+2, 1.8523997e+2, -1043914.06, -1196211.8, 24019.855, -0.011990571, -0.31299862, -1040215.56, 84404.445, 0.0, 10.001024, 9.999018 
4.7502807e+2, 1.9523813e+2, -985675.9, -1121107.4, 10781.894, 0.21096322, -0.4118278, -984822.9, 41812.37, 0.0, 10.000758, 9.998994 
4.750308e+2, 2.052373e+2, -930355.06, -1020535.1, 60543.42, 0.1594017, -0.40174586, -899955.9, 28686.09, 0.0, 10.000375, 9.999189 
4.7503173e+2, 2.1523735e+2, -900889.56, -958065.2, 56740.883, -0.16390952, -0.3291514, -865941.6, -35300.047, 0.0, 9.999912, 9.999169 
4.7503614e+2, 2.2523673e+2, -778629.5, -856004.06, 46494.027, -0.1439073, -0.30230275, -756832.06, -24184.541, 0.0, 10.000112, 9.9991 
4.750438e+2, 2.3523547e+2, -566816.2, -702974.06, 39125.805, 0.19831222, -0.35301328, -556373.94, 78285.6, 0.0, 10.000893, 9.999103 
4.7504836e+2, 2.4523447e+2, -416956.97, -545979.06, 45252.625, 0.21809825, -0.37523752, -402667.78, 133999.77, 0.0, 10.001096, 9.999412 
4.7505003e+2, 2.5523365e+2, -388589.44, -490129.75, 71876.414, -0.062325455, -0.41599485, -351360.6, 87312.28, 0.0, 10.000648, 9.99934 
4.7505438e+2, 2.6523277e+2, -347626.94, -594163.06, 76898.516, -0.07002515, -0.3571949, -325607.7, 15075.86, 0.0, 10.001021, 9.997767 
4.7506118e+2, 2.7523166e+2, -95021.91, -421676.38, 88404.125, 0.16886172, -0.25700778, -72631.414, 170069.1, 0.0, 10.002084, 9.997767 
4.7506502e+2, 2.8523004e+2, -18652.932, -315333.53, 57398.543, 0.13603412, -0.20324585, -7935.263, 136783.33, 0.0000000367379, 10.001846, 9.997943 
4.7506616e+2, 2.9522792e+2, -137224.83, -316005.1, 44341.28, -0.1409838, -0.23373854, -126831.47, -80093.19, 0.000004901276, 10.000322, 9.998005 
4.750714e+2, 3.0522493e+2, -43043.24, -205510.66, 47225.918, -0.035264693, -0.35016215, -30313.111, -30313.111, 0.000032485186, 10.000484, 9.99835 
4.7507644e+2, 3.1522366e+2, 248596.22, 33553.375, -86874.336, 0.027712043, -0.31758305, 279306.5, 279306.5, 0.000096372605, 10.002031, 9.999248 
4.850119e+2, 1.2524217e+2, -1571034.0, -1683514.4, 67710.42, 0.13537967, -0.24039167, -1539253.5, 173345.4, 0.00006360682, 10.001121, 9.999652 
4.850125e+2, 1.3524076e+2, -1625967.8, -1740721.1, -63271.805, 0.16206804, -0.3086298, -1597931.3, 16684.24, 0.000025765483, 10.000401, 9.998965 
4.8500898e+2, 1.4524011e+2, -1489570.6, -1603231.8, -7920.877, -0.39218387, -0.27791938, -1489021.3, 27602.496, 0.000006126259, 10.000604, 9.999117 
4.8501432e+2, 1.5524086e+2, -1267177.5, -1444831.0, -46777.984, -0.02165067, -0.13233581, -1255613.1, 163003.72, 0.0000005794279, 10.001457, 9.999123 
4.850187e+2, 1.6524024e+2, -1189053.6, -1319057.6, 20388.107, 0.16169414, -0.11915591, -1185931.1, 134690.83, 0.0000000048834687, 10.001166, 9.999451 
4.8502105e+2, 1.7523828e+2, -1283221.4, -1313702.0, -10307.697, 0.024679745, -0.27696827, -1280062.9, -57423.785, 0.0, 9.999848, 9.999448 
4.8502445e+2, 1.8523695e+2, -1231957.4, -1280995.6, -46408.844, 0.048894677, -0.336467, -1203988.6, -79338.55, 0.0, 9.999708, 9.999064 
4.8502934e+2, 1.9523607e+2, -1006490.94, -1123881.9, -26341.834, 0.27296695, -0.3444183, -1000850.94, 25805.236, 0.0, 10.00059, 9.999049 
4.8503184e+2, 2.0523529e+2, -845176.25, -996697.44, 35399.44, 0.19115393, -0.3245777, -837313.94, 91348.61, 0.0, 10.001034, 9.999038 
4.85032e+2, 2.1523449e+2, -742230.56, -897641.0, 29099.13, -0.18443428, -0.32353252, -736960.75, 93709.695, 0.0, 10.001072, 9.999027 
4.8503646e+2, 2.2523355e+2, -663494.44, -803001.06, 57211.117, -0.15652817, -0.31924722, -643033.3, 89645.66, 0.0, 10.000914, 9.999078 
4.85045e+2, 2.3523246e+2, -614756.6, -729828.7, 63139.73, 0.24687424, -0.35156944, -586870.06, 47818.938, 0.0, 10.000571, 9.999074 
4.850497e+2, 2.4523139e+2, -477979.2, -592995.44, 60018.586, 0.26221433, -0.3735137, -452364.44, 84333.48, 0.0, 10.000753, 9.999252 
4.850509e+2, 2.552303e+2, -284733.28, -453728.8, 21872.242, -0.07535204, -0.4243706, -281948.38, 156757.78, 0.0, 10.001426, 9.99921 
4.8505527e+2, 2.6522946e+2, -286480.0, -538993.5, 16876.602, -0.09597153, -0.36597294, -285357.06, 55359.195, 0.0, 10.001333, 9.997996 
4.850626e+2, 2.7522865e+2, -304121.25, -497747.8, 23911.69, 0.18375151, -0.26031518, -301212.03, -58482.176, 0.0, 10.000534, 9.997994 
4.850666e+2, 2.8522697e+2, -172547.94, -367624.8, 20142.479, 0.16766764, -0.2312042, -170489.86, -25742.373, 0.00000008825205, 10.000701, 9.998135 
4.850675e+2, 2.9522473e+2, 81675.914, -189501.8, 44899.953, -0.10948771, -0.28547055, 88916.83, 135683.63, 0.0000056074396, 10.001752, 9.998178 
4.8507315e+2, 3.0522236e+2, 168107.22, -114361.53, 105214.125, 0.020157361, -0.3462029, 202989.75, 202989.75, 0.000034672463, 10.001974, 9.998251 
4.8507804e+2, 3.1522116e+2, 139453.38, -31779.928, -45029.246, 0.02238445, -0.3023686, 150572.67, 150572.67, 0.000099448036, 10.001337, 9.999121 
4.9501082e+2, 1.252409e+2, -1569948.9, -1690632.3, -22323.645, -0.12476135, -0.10525307, -1565951.9, 146664.63, 0.00005696404, 10.001167, 9.999579 
4.9501392e+2, 1.3523942e+2, -1621023.1, -1734170.1, -81045.81, 0.24530393, -0.18410167, -1578758.5, 35874.527, 0.00002106699, 10.0004225, 9.998997 
4.9501082e+2, 1.4523757e+2, -1494887.0, -1619505.1, 21695.205, -0.28505751, -0.26773864, -1491218.0, 25432.432, 0.000004231548, 10.000623, 9.998998 
4.9501637e+2, 1.5523674e+2, -1274495.4, -1462205.0, -11281.632, 0.020306071, -0.27067602, -1273819.8, 144835.7, 0.00000029436407, 10.001469, 9.998996 
4.9502033e+2, 1.6523553e+2, -1242635.1, -1428871.4, -35552.703, 0.19275816, -0.27122056, -1236078.9, 84588.625, 0.0000000005507737, 10.001158, 9.998703 
4.950218e+2, 1.7523389e+2, -1330766.9, -1415126.9, -52318.656, 0.09779785, -0.32494447, -1305742.8, -83055.62, 0.0, 9.99986, 9.998746 
4.9502417e+2, 1.8523379e+2, -1192290.3, -1192405.3, -18112.121, 0.03521104, -0.25600156, -1174235.5, -49547.59, 0.0, 9.999682, 9.999686 
4.9502787e+2, 1.9523503e+2, -966761.25, -1036470.8, 9542.56, 0.05241392, -0.1145716, -965478.56, 61193.695, 0.0, 10.000566, 9.999662 
4.9503168e+2, 2.0523423e+2, -856658.7, -1008350.7, 31257.852, 0.062453467, -0.12596759, -850470.1, 78207.67, 0.0, 10.000978, 9.998987 
4.9503553e+2, 2.1523143e+2, -753901.44, -909447.8, 35920.703, 0.049698353, -0.3166059, -746006.9, 84696.54, 0.0, 10.001012, 9.99898 
4.950394e+2, 2.2522987e+2, -656306.1, -771563.0, 40756.16, 0.0338644, -0.3861001, -643350.56, 89365.58, 0.0, 10.000845, 9.999326 
4.950434e+2, 2.3522942e+2, -609286.0, -702319.94, 56309.47, 0.018461477, -0.37972972, -582764.75, 51952.547, 0.0, 10.0005045, 9.999295 
4.9504822e+2, 2.4522868e+2, -540876.44, -716907.1, 80458.15, 0.025440564, -0.3352101, -509643.25, 27080.365, 0.0, 10.000723, 9.998417 
4.9505374e+2, 2.5522763e+2, -349328.5, -575924.56, 51905.105, 0.052813675, -0.2996204, -338004.75, 100731.05, 0.0, 10.00137, 9.9984 
4.950583e+2, 2.652261e+2, -272027.63, -496150.9, -18474.049, 0.06073921, -0.28328985, -270515.03, 70237.75, 0.0, 10.001281, 9.998313 
4.950619e+2, 2.7522403e+2, -293350.34, -457524.8, 3157.754, 0.043657545, -0.34041962, -293289.63, -50513.41, 0.0, 10.000461, 9.998304 
4.950661e+2, 2.852223e+2, -121513.86, -250541.1, 54902.836, 0.037267193, -0.3740072, -101314.266, 43477.17, 0.00000018947561, 10.000653, 9.998961 
4.95071e+2, 2.9522106e+2, 132670.4, -75606.28, 92729.305, 0.047395118, -0.40821418, 167972.1, 214769.75, 0.000005616016, 10.001713, 9.9989805 
4.9507684e+2, 3.0521977e+2, 142292.77, -157100.78, 78063.19, 0.17762913, -0.38555014, 161424.25, 161424.25, 0.000033520122, 10.001928, 9.997976 
4.9507725e+2, 3.1521896e+2, 130280.67, -26183.44, -28303.104, -0.2214589, -0.28258482, 135243.1, 135243.1, 0.000095768366, 10.001235, 9.999205 
5.0501007e+2, 1.2523776e+2, -1937164.1, -1853846.0, -7232.6714, -0.18288997, -0.17694324, -1853222.9, -140576.13, 0.000046012723, 9.998613, 9.999684 
5.050159e+2, 1.3523771e+2, -1464581.6, -1636122.4, -20880.785, 0.36250103, -0.13297082, -1462076.5, 152573.06, 0.000015500982, 10.001395, 9.99921 
5.0501305e+2, 1.452359e+2, -1314378.8, -1520648.1, 55371.78, -0.18216254, -0.22572893, -1300454.5, 216212.22, 0.0000026245805, 10.00182, 9.999096 
5.0501734e+2, 1.5523419e+2, -1497068.4, -1562332.4, 15819.84, 0.05373928, -0.32365394, -1493435.9, -74755.61, 0.00000011750303, 9.999914, 9.999058 
5.050208e+2, 1.6523306e+2, -1462650.3, -1534113.9, 58477.273, 0.20521171, -0.32045725, -1429852.1, -109160.61, 0.000000000026416515, 9.99964, 9.998709 
5.050225e+2, 1.7523234e+2, -1189073.4, -1349828.3, 85042.766, 0.1418765, -0.2800903, -1152434.5, 70267.25, 0.0, 10.000838, 9.998726 
5.0502485e+2, 1.8523203e+2, -946263.4, -1097895.8, 144340.06, 0.0477911, -0.21942303, -859039.25, 265664.97, 0.0, 10.001478, 9.999471 
5.0502807e+2, 1.9523206e+2, -834494.0, -994745.56, 98347.49, -0.027657209, -0.17446205, -787764.06, 238935.53, 0.0, 10.001581, 9.999455 
5.0503236e+2, 2.0523101e+2, -804805.0, -1000642.4, 67716.94, 0.012736472, -0.19234827, -783670.56, 145037.42, 0.0, 10.00141, 9.998827 
5.0503737e+2, 2.1522886e+2, -778925.2, -938683.7, 52149.227, 0.14468853, -0.30471492, -763409.25, 67319.766, 0.0, 10.000922, 9.998816 
5.050413e+2, 2.2522739e+2, -596130.7, -750456.3, 74800.04, 0.12148176, -0.35374415, -565826.5, 166914.63, 0.0, 10.001289, 9.999257 
5.050443e+2, 2.352265e+2, -335445.38, -577093.44, 55822.492, -0.03542991, -0.38298017, -323173.2, 311572.34, 0.0, 10.0024185, 9.999231 
5.0504905e+2, 2.452255e+2, -312479.75, -624693.44, 83436.766, -0.043523822, -0.35406122, -291580.8, 245173.5, 0.0, 10.002375, 9.998255 
5.050554e+2, 2.552243e+2, -371854.25, -603384.0, 95332.16, 0.09150845, -0.3142177, -337653.38, 101114.836, 0.0, 10.001294, 9.998249 
5.0506e+2, 2.6522288e+2, -293716.8, -498544.5, 54093.313, 0.11958771, -0.28885478, -280308.88, 60475.754, 0.0, 10.001094, 9.998389 
5.0506294e+2, 2.7522108e+2, -117742.01, -365413.06, 40738.848, 0.0469056, -0.32244322, -111213.08, 131591.73, 0.00000000061010413, 10.001637, 9.998367 
5.0506717e+2, 2.8521937e+2, -4792.408, -200680.78, 72646.97, 0.03980189, -0.3562283, 19208.662, 164028.86, 0.00000027597625, 10.001485, 9.9989 
5.050727e+2, 2.9521787e+2, -28194.63, -160283.25, 30382.328, 0.107233584, -0.41064468, -21541.37, 25288.105, 0.0000049400037, 10.0006485, 9.998909 
5.050787e+2, 3.052165e+2, -96510.33, -260863.4, -5781.7715, 0.25795418, -0.39454022, -96307.19, -96307.19, 0.000029285811, 10.00024, 9.998087 
5.05078e+2, 3.152161e+2, -2176.8474, -54437.34, -77316.17, -0.20899147, -0.2614244, 53305.285, 53305.285, 0.000085814645, 10.000156, 9.99955 
5.150091e+2, 1.2523276e+2, -1914949.4, -1817361.6, 24257.838, -0.17973593, -0.45345193, -1811664.4, -98974.78, 0.00003362694, 9.998658, 9.999908 
5.150184e+2, 1.3523574e+2, -1428764.6, -1571591.9, 92115.92, 0.45646885, -0.14838362, -1383622.5, 231041.42, 0.0000102900585, 10.001438, 9.99963 
5.1501536e+2, 1.4523523e+2, -1292512.9, -1486329.8, -19733.408, -0.14857677, -0.1440466, -1290524.1, 226146.9, 0.0000014940234, 10.001863, 9.999314 
5.1501703e+2, 1.5523319e+2, -1476365.9, -1526017.5, -45590.363, 0.014437815, -0.29748726, -1449280.3, -30588.723, 0.00000003629146, 9.999942, 9.999294 
5.1501995e+2, 1.6523275e+2, -1416464.9, -1434010.9, 99831.4, 0.13900998, -0.27334672, -1325021.8, -4327.086, 0.0, 9.999625, 9.999401 
5.150231e+2, 1.752336e+2, -1141190.9, -1255277.6, 135658.95, 0.09679478, -0.1451884, -1051070.0, 171613.4, 0.0, 10.000858, 9.999364 
5.150262e+2, 1.8523172e+2, -1021213.7, -1249692.5, 142100.67, 0.021567095, -0.2199782, -953125.8, 171572.47, 0.0, 10.001464, 9.998431 
5.150298e+2, 1.952273e+2, -909524.56, -1147600.1, 108595.2, -0.030161895, -0.5222435, -867432.25, 159305.22, 0.0, 10.001562, 9.998416 
5.150336e+2, 2.0522568e+2, -838586.56, -1055790.0, 44418.21, -0.014812873, -0.5262622, -829854.06, 98899.46, 0.0, 10.001345, 9.998479 
5.150375e+2, 2.1522659e+2, -807499.4, -989862.25, 39730.13, 0.04702331, -0.2993706, -799219.6, 31529.441, 0.0, 10.000882, 9.998484 
5.1504207e+2, 2.2522593e+2, -629204.6, -806620.2, 110449.69, 0.05369137, -0.23437406, -576250.1, 156505.75, 0.0, 10.001235, 9.9988985 
5.150474e+2, 2.3522373e+2, -368744.63, -630797.25, 100302.3, 0.014702875, -0.3588399, -334760.5, 300013.25, 0.0, 10.002352, 9.998896 
5.150519e+2, 2.4522188e+2, -284689.28, -554597.44, 36987.035, -0.009451751, -0.42374426, -279712.5, 257077.0, 0.0, 10.002322, 9.998761 
5.150557e+2, 2.552203e+2, -346276.5, -535911.44, 63637.08, -0.02523413, -0.47347692, -326901.03, 111902.86, 0.0, 10.00123, 9.998744 
5.1506025e+2, 2.6521966e+2, -314385.0, -530512.2, 69048.07, 0.021529539, -0.38255656, -294209.06, 46603.086, 0.0, 10.001052, 9.99819 
5.150655e+2, 2.7521968e+2, -141215.02, -399880.72, 67120.17, 0.12247436, -0.21380228, -124835.46, 117981.38, 0.0000000018853024, 10.001575, 9.998162 
5.150695e+2, 2.8521803e+2, -75929.305, -338387.34, 35233.293, 0.107743226, -0.18311462, -71281.766, 73552.945, 0.00000034894228, 10.001443, 9.997975 
5.150724e+2, 2.9521504e+2, -98370.79, -301119.47, 8314.866, -0.0076297284, -0.29744273, -98030.37, -51167.38, 0.0000043002137, 10.000623, 9.997956 
5.1507837e+2, 3.0521247e+2, -65819.5, -189452.25, -11796.488, 0.19130354, -0.37705868, -64703.996, -64703.996, 0.00002546161, 10.000218, 9.998586 
5.150799e+2, 3.152125e+2, 22805.316, 31608.266, -26750.271, -0.06143274, -0.25029418, 54316.754, 54316.754, 0.00007750593, 10.000026, 10.000197 
5.25009e+2, 1.2522998e+2, -1752183.3, -1681854.6, -3561.007, -0.096367426, -0.47771776, -1681674.9, 31039.055, 0.000024083258, 9.999517, 10.000424 
5.2501863e+2, 1.3523284e+2, -1759967.4, -1658622.6, 119950.59, 0.4676121, -0.2570733, -1579080.5, 35606.97, 0.000006343457, 9.998838, 10.00029 
5.250159e+2, 1.4523292e+2, -1672941.4, -1692050.8, -28293.088, -0.16150244, -0.21512356, -1652633.3, -135943.42, 0.00000066930806, 9.999353, 9.999108 
5.250174e+2, 1.5523198e+2, -1361609.5, -1492468.5, -103726.99, 0.0198109, -0.2373727, -1304400.1, 114303.57, 0.000000004981165, 10.000823, 9.999098 
5.2502054e+2, 1.6523159e+2, -1118422.5, -1276008.4, 51954.676, 0.14328642, -0.2070246, -1102835.3, 217871.23, 0.0, 10.001601, 9.999543 
5.250243e+2, 1.7523153e+2, -996509.94, -1169397.9, 34167.305, 0.08711284, -0.18210359, -990002.5, 232697.69, 0.0, 10.001781, 9.999514 
5.250279e+2, 1.8522926e+2, -1027970.1, -1301177.3, 21942.537, 0.037765954, -0.28008822, -1026219.06, 98499.62, 0.0, 10.001625, 9.998003 
5.2503186e+2, 1.952249e+2, -1008038.94, -1239410.5, 21648.299, 0.046584945, -0.5316411, -1006030.9, 20729.43, 0.0, 10.001086, 9.998013 
5.250355e+2, 2.0522313e+2, -856263.06, -1091912.9, 12115.501, 0.043887403, -0.5193304, -855641.8, 73137.57, 0.0, 10.001343, 9.998235 
5.250388e+2, 2.1522364e+2, -618917.3, -925663.1, 3859.786, 0.019502524, -0.30607146, -618868.75, 211910.06, 0.0, 10.002295, 9.998245 
5.250434e+2, 2.2522292e+2, -509269.38, -779602.25, 82742.77, 0.025977658, -0.2199604, -485954.47, 246832.52, 0.0, 10.002199, 9.998616 
5.250496e+2, 2.3522095e+2, -564148.7, -756194.4, 66428.46, 0.06771464, -0.2925405, -543410.56, 91394.07, 0.0, 10.001151, 9.998611 
5.2505404e+2, 2.4521911e+2, -495723.97, -640513.44, -16064.94, 0.05377614, -0.34934357, -493962.9, 42857.67, 0.0, 10.000803, 9.998902 
5.2505696e+2, 2.552174e+2, -359785.72, -526606.6, -29751.703, -0.014084377, -0.42823547, -354638.47, 84196.88, 0.0, 10.001073, 9.998883 
5.2506137e+2, 2.6521644e+2, -283451.4, -504432.13, 11971.526, 0.018413834, -0.38078249, -282804.75, 58040.16, 0.0, 10.00121, 9.998296 
5.2506715e+2, 2.75216e+2, -183622.47, -405994.28, 24417.898, 0.15390676, -0.26708466, -180972.8, 61878.563, 0.00000000009174081, 10.001227, 9.998286 
5.2507097e+2, 2.8521463e+2, -93628.89, -335271.53, 32083.334, 0.12567802, -0.22151682, -89441.69, 55424.465, 0.00000033351301, 10.001273, 9.998077 
5.250729e+2, 2.9521248e+2, 5212.7607, -243590.28, 63561.45, -0.05020962, -0.26219344, 20510.188, 67397.945, 0.0000041079616, 10.001299, 9.998025 
5.250788e+2, 3.052097e+2, 121225.19, -95684.1, 93715.79, 0.15397741, -0.36798903, 156106.02, 156106.02, 0.000024461535, 10.001481, 9.998624 
5.250816e+2, 3.1520933e+2, 262509.34, 127207.29, 48793.625, 0.031222466, -0.28621227, 278269.8, 278269.8, 0.000075222786, 10.001745, 10.000029 
5.3500915e+2, 1.2522936e+2, -1683802.6, -1551190.9, -113890.46, -0.0700794, -0.26160634, -1485710.9, 227009.84, 0.000017799504, 9.99958, 10.0012865 
5.3501636e+2, 1.3522895e+2, -1697718.5, -1525821.5, 100632.07, 0.34014204, -0.4559716, -1479429.8, 135290.38, 0.0000036805177, 9.998829, 10.001207 
5.350141e+2, 1.4522891e+2, -1713458.4, -1782771.6, 24813.547, -0.28827754, -0.4377115, -1705491.1, -188767.89, 0.00000019448485, 9.999373, 9.998479 
5.350183e+2, 1.5523054e+2, -1402060.5, -1584283.3, -43541.063, 0.010558361, -0.14454803, -1392191.1, 26526.139, 0.00000000000050979853, 10.000851, 9.998457 
5.3502244e+2, 1.6522957e+2, -1146183.1, -1332942.1, 51684.492, 0.15707727, -0.1180816, -1132833.9, 187893.03, 0.0, 10.001602, 9.999151 
5.3502595e+2, 1.7522614e+2, -1021138.1, -1224281.0, 47169.473, 0.05684706, -0.39122632, -1010719.75, 212032.22, 0.0, 10.001797, 9.999131 
5.3502965e+2, 1.8522462e+2, -1018132.06, -1278058.0, -3296.42, 0.038171645, -0.40383974, -1018090.25, 106675.28, 0.0, 10.001615, 9.998166 
5.35034e+2, 1.952248e+2, -1002372.94, -1223768.9, 8823.718, 0.13910908, -0.21646479, -1002021.9, 24747.273, 0.0, 10.001064, 9.998135 
5.3503776e+2, 2.0522328e+2, -872349.75, -1113280.4, 42820.484, 0.12533855, -0.17852321, -864965.6, 63820.81, 0.0, 10.001293, 9.998108 
5.3504103e+2, 2.1522012e+2, -636437.8, -949270.2, 43395.066, 0.0024400419, -0.32042804, -630529.75, 200287.19, 0.0, 10.002238, 9.998109 
5.350453e+2, 2.2521849e+2, -535055.2, -822577.4, 38025.19, -0.018136775, -0.30501637, -530111.3, 202722.2, 0.0, 10.00215, 9.998347 
5.3505087e+2, 2.3521814e+2, -589335.06, -796091.9, 34212.742, 0.062179495, -0.1914074, -583820.8, 51017.47, 0.0, 10.001096, 9.9983635 
5.350553e+2, 2.4521713e+2, -521035.28, -681324.9, -10453.169, 0.089183286, -0.14106314, -520356.47, 16491.764, 0.0, 10.000757, 9.998644 
5.350589e+2, 2.5521544e+2, -384803.3, -566670.7, -13488.304, 0.062147666, -0.18970872, -383808.4, 55055.184, 0.0, 10.001021, 9.998632 
5.35063e+2, 2.6521313e+2, -255672.7, -438450.44, 9020.548, 0.05540081, -0.28830105, -255228.6, 85654.586, 0.0, 10.001174, 9.998766 
5.350677e+2, 2.752101e+2, -155954.0, -338743.7, 34694.62, 0.06855891, -0.4821848, -149590.3, 93317.71, 0.0, 10.001181, 9.998774 
5.3507143e+2, 2.852092e+2, -22993.416, -182779.77, 27114.955, 0.027627816, -0.46998036, -18517.52, 126397.0, 0.00000019037492, 10.001248, 9.999138 
5.350741e+2, 2.9521018e+2, 66444.38, -98328.58, 70647.7, -0.074043304, -0.3021757, 92587.305, 139491.56, 0.0000040138116, 10.001221, 9.999062 
5.3507984e+2, 3.0520812e+2, 78949.16, -166294.5, 101079.99, 0.09722715, -0.3616278, 115240.125, 115240.125, 0.000024849203, 10.001414, 9.998166 
5.350827e+2, 3.1520644e+2, 184455.64, -13982.982, 100709.52, -0.06607298, -0.3665473, 226611.3, 226611.3, 0.00007616266, 10.001668, 9.999087 
5.450081e+2, 1.2522653e+2, -1917391.6, -1671104.9, -155139.73, -0.045212764, -0.2528851, -1596175.9, 116573.9, 0.000013143151, 9.9980135, 10.001233 
5.450155e+2, 1.3522623e+2, -1578301.4, -1464724.3, 32030.543, 0.3398758, -0.4337904, -1456313.9, 158433.84, 0.000002162896, 9.999631, 10.0012455 
5.450145e+2, 1.4522617e+2, -1486108.0, -1647620.4, 3759.5713, -0.25335014, -0.43134627, -1486020.5, 30728.988, 0.000000029643958, 10.000827, 9.998704 
5.450197e+2, 1.5522721e+2, -1247332.1, -1482940.1, -18645.654, 0.02168371, -0.21915379, -1245865.6, 172880.25, 0.0, 10.001802, 9.99869 
5.4502404e+2, 1.6522595e+2, -1121617.9, -1365929.9, 67534.48, 0.14315127, -0.21446899, -1104192.4, 216566.38, 0.0, 10.001972, 9.99874 
5.4502726e+2, 1.7522246e+2, -1117635.9, -1313935.0, 50967.49, 0.038986377, -0.4520821, -1105191.5, 117596.07, 0.0, 10.001329, 9.998735 
5.450309e+2, 1.852214e+2, -1060038.4, -1286969.0, 17450.768, 0.022693105, -0.40565935, -1058704.3, 66094.914, 0.0, 10.001263, 9.998283 
5.450353e+2, 1.9522256e+2, -889327.44, -1153597.6, 17007.455, 0.12678352, -0.13558547, -888237.4, 138557.61, 0.0, 10.001761, 9.998283 
5.4503953e+2, 2.0522127e+2, -723666.25, -1029948.4, 98747.74, 0.12699603, -0.08709507, -694589.56, 234220.1, 0.0, 10.00226, 9.9982195 
5.450437e+2, 2.1521764e+2, -557536.56, -897326.75, 107229.0, 0.030285032, -0.28667217, -526527.7, 304314.94, 0.0, 10.002721, 9.998235 
5.450478e+2, 2.2521572e+2, -490963.34, -814476.44, 65421.28, -0.0036977981, -0.3004582, -478234.6, 254626.73, 0.0, 10.002505, 9.998234 
5.450518e+2, 2.3521523e+2, -513118.8, -774728.8, 59914.844, 0.026175577, -0.18801667, -500049.8, 134818.39, 0.0, 10.001678, 9.998234 
5.450562e+2, 2.4521421e+2, -441214.47, -660212.0, 76663.13, 0.07663806, -0.12621737, -417044.94, 119833.875, 0.0, 10.001373, 9.998492 
5.45061e+2, 2.552126e+2, -315302.53, -546742.56, 69857.945, 0.14105718, -0.14997141, -295851.34, 143041.98, 0.0, 10.001563, 9.998505 
5.4506505e+2, 2.652103e+2, -215257.48, -398673.72, 79403.93, 0.13230985, -0.25386888, -185658.7, 155253.9, 0.0, 10.001366, 9.998946 
5.450686e+2, 2.752071e+2, -197873.31, -339776.9, 70461.12, 0.065124325, -0.48354715, -168830.47, 74107.445, 0.0, 10.000809, 9.998949 
5.450723e+2, 2.852059e+2, -101969.09, -242550.5, 33553.934, 0.022129215, -0.49435127, -94371.1, 50575.457, 0.00000011177434, 10.000808, 9.998938 
5.450761e+2, 2.9520658e+2, 76249.68, -110658.18, -27583.373, -0.00044566576, -0.3388706, 80235.37, 127175.37, 0.0000045059896, 10.001377, 9.998895 
5.450814e+2, 3.0520502e+2, 81429.734, -160951.9, -23375.662, 0.11598177, -0.3447561, 83663.53, 83663.53, 0.00002638034, 10.001405, 9.998206 
5.4508364e+2, 3.1520355e+2, 24249.713, -123551.04, 3769.8564, -0.089493886, -0.33081767, 24345.807, 24345.807, 0.00007851539, 10.000693, 9.998808 
5.550054e+2, 1.252216e+2, -1971897.0, -1786731.1, -177679.36, -0.15395528, -0.43110168, -1678960.5, 33839.32, 0.000010165176, 9.998041, 10.000417 
5.550159e+2, 1.3522473e+2, -1632229.6, -1577457.8, 95911.63, 0.407813, -0.1864219, -1505098.9, 109671.13, 0.0000015959415, 9.999643, 10.0004635 
5.5501693e+2, 1.452247e+2, -1404877.4, -1488241.6, 33159.508, -0.1183458, -0.19793984, -1393296.4, 123471.98, 0.000000016896806, 10.00086, 9.9997835 
5.5502135e+2, 1.5522207e+2, -1170440.0, -1329319.0, 24131.605, -0.010586475, -0.45898092, -1166855.6, 251933.75, 0.0, 10.001822, 9.999738 
5.5502516e+2, 1.6522077e+2, -1149929.1, -1425116.3, 37299.754, 0.03997529, -0.49031535, -1144963.0, 175838.61, 0.0, 10.001975, 9.99833 
5.5502814e+2, 1.7522049e+2, -1147099.5, -1373479.4, 32365.213, -0.022371689, -0.36650455, -1142563.1, 80244.28, 0.0, 10.001325, 9.998327 
5.550315e+2, 1.8521965e+2, -1054434.6, -1270263.9, 31010.596, -0.056737088, -0.28474364, -1050067.4, 74751.81, 0.0, 10.001241, 9.998409 
5.550355e+2, 1.952182e+2, -886275.2, -1142159.8, 41808.9, -0.04466187, -0.28352088, -879617.25, 147220.19, 0.0, 10.001733, 9.998382 
5.550406e+2, 2.0521708e+2, -701089.56, -972690.0, 111296.734, -0.009583164, -0.24487782, -661308.9, 267540.47, 0.0, 10.002218, 9.998631 
5.550467e+2, 2.1521613e+2, -541578.44, -848102.1, 129122.234, 0.043829873, -0.2156281, -494436.3, 336420.0, 0.0, 10.002648, 9.99861 
5.550506e+2, 2.2521451e+2, -503554.47, -820751.2, 29098.465, 0.013778267, -0.21676566, -500907.16, 231964.2, 0.0, 10.002425, 9.998227 
5.550524e+2, 2.3521218e+2, -526104.75, -783008.6, 36047.16, -0.091829054, -0.286853, -521142.7, 113752.0, 0.0, 10.001599, 9.998216 
5.550566e+2, 2.4521035e+2, -452276.84, -671417.75, 79259.59, -0.037757494, -0.3003164, -426615.03, 110297.09, 0.0, 10.001323, 9.998441 
5.550629e+2, 2.552089e+2, -327669.16, -559023.0, 83106.195, 0.16212735, -0.30348408, -300910.84, 138013.92, 0.0, 10.001505, 9.998449 
5.550672e+2, 2.652078e+2, -227930.47, -415480.72, 52515.34, 0.19741376, -0.28115577, -214227.06, 126707.164, 0.0, 10.001329, 9.998845 
5.550697e+2, 2.7520677e+2, -218728.78, -368139.6, 55387.21, 0.08375966, -0.2779241, -200436.13, 42505.93, 0.0, 10.000748, 9.998781 
5.550736e+2, 2.8520468e+2, -203112.53, -453440.34, 50015.492, 0.056355465, -0.29958284, -193489.38, -48526.35, 0.00000024371042, 10.0008, 9.9974985 
5.550786e+2, 2.9520154e+2, -19327.098, -313654.16, 2416.5505, 0.09800941, -0.38113895, -19307.258, 27688.805, 0.0000058589785, 10.001382, 9.997507 
5.5508316e+2, 3.0520025e+2, 113584.305, -82842.49, -50875.91, 0.1370773, -0.3215261, 125979.36, 125979.36, 0.000029983938, 10.001369, 9.998752 
5.5508393e+2, 3.1520042e+2, 43192.61, -61137.35, 1627.0428, -0.15994266, -0.19927959, 43217.98, 43217.98, 0.00008393316, 10.000603, 9.999274 
5.6500566e+2, 1.2521881e+2, -1742989.6, -1714780.3, -148083.98, -0.005366203, -0.40764436, -1580130.8, 132697.78, 0.000007999431, 9.999755, 10.000088 
5.6501603e+2, 1.3522176e+2, -1481965.0, -1546571.9, 181421.78, 0.39828205, -0.14664789, -1329993.3, 284808.88, 0.00000128022, 10.000835, 10.000103 
5.6501794e+2, 1.4522165e+2, -1385854.6, -1453517.0, 70604.984, -0.09640054, -0.15867797, -1341393.9, 175406.58, 0.000000037787355, 10.000882, 10.000015 
5.6502223e+2, 1.552188e+2, -1407432.4, -1415133.1, -15371.714, -0.014511836, -0.46680003, -1395436.1, 23384.916, 0.0, 10.000077, 9.999992 
5.650261e+2, 1.6521776e+2, -1391228.0, -1535510.3, 6797.99, 0.027658796, -0.48408872, -1390908.4, -70077.62, 0.0, 10.000299, 9.998382 
5.6502974e+2, 1.7521822e+2, -1112493.9, -1351111.4, 22870.12, -0.0007777419, -0.2896489, -1110321.8, 112510.53, 0.0, 10.001535, 9.998381 
5.650334e+2, 1.8521735e+2, -939722.06, -1197471.8, 42333.023, -0.02711784, -0.22315097, -932947.4, 191896.92, 0.0, 10.001955, 9.998561 
5.6503713e+2, 1.9521517e+2, -896862.7, -1125142.0, 48842.164, -0.03937771, -0.31430674, -886851.56, 140014.9, 0.0, 10.0015745, 9.998567 
5.6504214e+2, 2.0521395e+2, -837164.44, -1020748.6, 121652.375, -0.022479566, -0.30046266, -776558.75, 152318.88, 0.0, 10.001217, 9.99878 
5.650483e+2, 2.1521357e+2, -788331.06, -946646.75, 109642.63, 0.030090123, -0.23139986, -732257.75, 98621.55, 0.0, 10.000877, 9.998779 
5.6505233e+2, 2.2521198e+2, -692602.25, -926605.0, 9192.903, 0.0093677305, -0.23175283, -692241.6, 40652.39, 0.0, 10.001187, 9.9980955 
5.650545e+2, 2.3520921e+2, -466150.8, -763303.75, -860.55176, -0.06643945, -0.33371496, -466148.3, 168773.06, 0.0, 10.002057, 9.998123 
5.650586e+2, 2.4520718e+2, -309477.66, -616784.9, 46639.125, -0.01828594, -0.3570316, -302555.3, 234385.52, 0.0, 10.002381, 9.998296 
5.650645e+2, 2.552056e+2, -231264.47, -531635.75, 29647.633, 0.14455837, -0.35784242, -228366.11, 210588.64, 0.0, 10.002253, 9.998275 
5.6506854e+2, 2.652047e+2, -169037.28, -451559.2, -28169.623, 0.16745709, -0.27136457, -166255.94, 174708.56, 0.0, 10.002019, 9.9982605 
5.650708e+2, 2.752044e+2, -116043.65, -375580.72, -69042.29, 0.069585785, -0.14868188, -98819.97, 144151.06, 0.0, 10.001715, 9.998253 
5.6507486e+2, 2.8520212e+2, -56197.234, -361073.28, 17341.043, 0.056898188, -0.16874887, -55214.066, 89780.13, 0.00000046127252, 10.001718, 9.997689 
5.6508046e+2, 2.9519814e+2, 84339.15, -241014.83, 78237.86, 0.116909795, -0.35066333, 102175.22, 149207.25, 0.000007820285, 10.001999, 9.997707 
5.6508464e+2, 3.05197e+2, 183000.52, -56073.094, 31775.25, 0.13450685, -0.28758904, 187151.69, 187151.69, 0.000035959114, 10.001853, 9.998716 
5.6508523e+2, 3.151966e+2, 139333.84, 14449.706, 24415.012, -0.11222418, -0.21880586, 143937.31, 143937.31, 0.000094359246, 10.001125, 9.999549 
5.750085e+2, 1.2521811e+2, -1722133.3, -1684697.1, -169170.45, 0.2649943, -0.1899956, -1533212.4, 179624.14, 0.0000055281434, 9.999815, 10.000258 
5.750155e+2, 1.3521737e+2, -1476972.0, -1540556.4, 221674.03, 0.24828802, -0.30653366, -1284822.0, 330021.72, 0.00000085256136, 10.000852, 10.000134 
5.750175e+2, 1.4521712e+2, -1426950.3, -1539087.4, 30936.723, -0.24247295, -0.30244902, -1418981.5, 97863.51, 0.00000002938157, 10.000887, 9.999425 
5.7502216e+2, 1.5521736e+2, -1447321.5, -1496968.5, -39018.57, -0.0481936, -0.24015759, -1425899.4, -7058.6846, 0.0, 10.000079, 9.99943 
5.750268e+2, 1.6521691e+2, -1353788.5, -1461000.3, 46830.02, 0.04856447, -0.19833256, -1336214.0, -15367.761, 0.0, 10.000306, 9.998891 
5.750319e+2, 1.7521568e+2, -1076255.1, -1279898.1, 75059.47, 0.0437706, -0.22584818, -1051579.5, 171282.77, 0.0, 10.001548, 9.998865 
5.750362e+2, 1.8521458e+2, -924839.94, -1161771.0, 23951.854, 0.051770788, -0.21716394, -922442.8, 202430.66, 0.0, 10.00194, 9.998812 
5.7504004e+2, 1.9521347e+2, -885652.7, -1092845.8, 40426.43, 0.078215815, -0.22176673, -878044.3, 148837.3, 0.0, 10.001537, 9.998806 
5.750441e+2, 2.0521192e+2, -850148.25, -1038271.44, 102330.0, 0.03571952, -0.24787463, -805217.0, 123677.234, 0.0, 10.001173, 9.998681 
5.7504827e+2, 2.152099e+2, -805184.3, -968587.2, 102395.03, -0.07210701, -0.3339489, -755890.1, 75021.72, 0.0, 10.000817, 9.998659 
5.750528e+2, 2.2520807e+2, -712254.44, -950359.5, 36453.492, -0.07204875, -0.34641275, -706798.44, 26131.076, 0.0, 10.001118, 9.997965 
5.750577e+2, 2.3520635e+2, -488941.97, -792044.9, 38210.363, 0.03343823, -0.3282495, -484199.25, 150748.7, 0.0, 10.001977, 9.997965 
5.7506204e+2, 2.4520457e+2, -331601.56, -657138.75, 35167.316, 0.068803184, -0.30423173, -327845.84, 209119.86, 0.0, 10.002348, 9.998039 
5.750658e+2, 2.5520265e+2, -259425.4, -576789.2, 29125.227, 0.032914173, -0.31527114, -256774.66, 182209.25, 0.0, 10.002191, 9.997998 
5.7506895e+2, 2.6520112e+2, -246056.53, -603999.2, -44223.15, -0.0034622767, -0.22768578, -240673.78, 100329.5, 0.0, 10.001983, 9.997232 
5.750715e+2, 2.751998e+2, -188641.9, -519651.38, -74555.6, -0.041398104, -0.09771965, -172624.31, 70400.62, 0.0, 10.001676, 9.997287 
5.7507575e+2, 2.8519818e+2, 63592.938, -99642.664, 22275.078, -0.037901796, -0.099346206, 66578.0, 211618.2, 0.0000006054728, 10.001666, 9.999511 
5.750814e+2, 2.9519635e+2, 197632.31, 8585.638, 97071.95, -0.0016308383, -0.25133282, 238599.28, 285648.4, 0.000009307056, 10.001936, 9.9994545 
5.750859e+2, 3.0519512e+2, 137567.3, -138041.77, 3369.0225, 0.06077862, -0.24915172, 137608.48, 137608.48, 0.00004067109, 10.001804, 9.998177 
5.7508713e+2, 3.151919e+2, 137238.97, 28978.75, 5792.536, -0.060569845, -0.4083662, 137548.02, 137548.02, 0.00010363106, 10.001048, 9.999688 
5.850095e+2, 1.252156e+2, -1573662.5, -1698452.3, -137253.88, 0.32313013, -0.1979403, -1485286.9, 227571.23, 0.0000029888902, 10.001195, 9.9995 
5.8501583e+2, 1.3521393e+2, -1525668.8, -1653329.5, 193567.98, 0.19591154, -0.32458442, -1385678.4, 229199.92, 0.00000032572908, 10.0009, 9.999338 
5.8501893e+2, 1.4521335e+2, -1416694.0, -1549914.5, -7557.553, -0.19350888, -0.30510527, -1416266.6, 100618.34, 0.0000000021906112, 10.001032, 9.999274 
5.8502305e+2, 1.5521394e+2, -1198793.5, -1391634.9, -58009.203, -0.04614062, -0.19642666, -1182688.5, 236189.38, 0.0, 10.001845, 9.999297 
5.8502746e+2, 1.6521364e+2, -1121363.8, -1306145.8, 55833.645, 0.020120768, -0.1540266, -1105803.4, 215077.63, 0.0, 10.001706, 9.99928 
5.850327e+2, 1.7521241e+2, -1175248.4, -1283429.0, 64527.34, 0.020977965, -0.22047429, -1145139.3, 77755.02, 0.0, 10.000674, 9.99926 
5.8503765e+2, 1.8521132e+2, -1060344.8, -1227119.6, 29196.533, 0.050241984, -0.23183088, -1055381.3, 69522.9, 0.0, 10.001012, 9.998812 
5.8504236e+2, 1.9521022e+2, -735460.5, -1021583.8, 14220.946, 0.10741856, -0.23568805, -734755.44, 292156.2, 0.0, 10.002574, 9.998798 
5.850464e+2, 2.0520845e+2, -659475.5, -1001911.5, 16922.13, 0.07741702, -0.25915122, -658641.3, 270286.3, 0.0, 10.002716, 9.998191 
5.8504987e+2, 2.1520598e+2, -728248.3, -981992.25, -19943.438, -0.029460622, -0.34166467, -726690.4, 104261.8, 0.0, 10.001563, 9.998208 
5.8505434e+2, 2.2520418e+2, -684322.44, -914692.9, -24465.918, -0.031567372, -0.33892658, -681752.75, 51217.234, 0.0, 10.001218, 9.998165 
5.850598e+2, 2.3520285e+2, -531987.44, -793371.3, -10903.959, 0.0708088, -0.29997054, -531533.4, 103449.445, 0.0, 10.001594, 9.998148 
5.8506405e+2, 2.4520113e+2, -421857.06, -702622.9, -5602.675, 0.06786705, -0.2793421, -421745.3, 115254.48, 0.0, 10.001733, 9.998027 
5.850671e+2, 2.55199e+2, -323702.03, -607286.8, -2056.622, -0.031852942, -0.3112766, -323687.1, 115333.82, 0.0, 10.001746, 9.998002 
5.850703e+2, 2.651972e+2, -225066.1, -560293.94, 2151.3677, -0.06594608, -0.26473197, -225052.3, 115989.87, 0.0, 10.001984, 9.997529 
5.850736e+2, 2.751956e+2, -55513.195, -423779.4, 57574.11, -0.035149705, -0.1924853, -46722.02, 196342.64, 0.0, 10.002456, 9.997569 
5.850777e+2, 2.8519437e+2, 167932.16, -15510.535, 139327.14, -0.033207163, -0.18615447, 243018.66, 388093.8, 0.00000055145284, 10.002233, 9.999815 
5.850825e+2, 2.9519355e+2, 125863.18, 5855.103, 90797.74, -0.05385799, -0.26565933, 174692.56, 221766.05, 0.000008783807, 10.001312, 9.99973 
5.85087e+2, 3.0519223e+2, 1736.0239, -253801.3, -35947.574, 0.024415083, -0.26230562, 6696.632, 6696.632, 0.000039664603, 10.001087, 9.99772 
5.8508945e+2, 3.151888e+2, 196762.1, 62747.37, -51824.883, 0.04996813, -0.40431347, 214464.84, 214464.84, 0.00010367087, 10.001428, 9.999729 
5.950084e+2, 1.2521127e+2, -1674430.6, -1918128.4, -184231.11, 0.049011674, -0.42798626, -1575398.9, 137495.05, 0.000001124367, 10.001254, 9.99796 
5.950167e+2, 1.3521144e+2, -1635855.8, -1884558.8, 182546.22, 0.18135299, -0.20611046, -1539330.8, 75575.18, 0.000000025767086, 10.000918, 9.997743 
5.950219e+2, 1.4521036e+2, -1394563.5, -1506852.8, 15033.019, -0.021125127, -0.17405601, -1392585.8, 124334.54, 0.0, 10.001041, 9.999566 
5.950248e+2, 1.5520856e+2, -1177239.6, -1350632.6, -22127.428, -0.07117695, -0.3345569, -1174460.4, 244471.94, 0.0, 10.001858, 9.999575 
5.950281e+2, 1.6520804e+2, -1103917.9, -1263324.1, 10389.99, -0.11042441, -0.34190255, -1103243.5, 217690.52, 0.0, 10.001682, 9.999586 
5.9503216e+2, 1.752085e+2, -1151401.3, -1237871.3, 32966.805, -0.12299061, -0.26829946, -1140266.5, 82661.766, 0.0, 10.00069, 9.999567 
5.950374e+2, 1.8520755e+2, -1079822.9, -1263714.4, 82696.52, -0.09306007, -0.26547194, -1048104.8, 76831.49, 0.0, 10.000998, 9.998567 
5.9504384e+2, 1.952053e+2, -761110.6, -1064346.0, 76383.805, -0.019317692, -0.36125267, -742956.7, 284000.72, 0.0, 10.002528, 9.9985285 
5.950489e+2, 2.0520344e+2, -724707.4, -1122170.3, -32252.613, 0.043110643, -0.3402627, -722107.2, 206871.06, 0.0, 10.002653, 9.997394 
5.950528e+2, 2.1520185e+2, -791847.56, -1100443.9, -55224.625, 0.095451824, -0.25157654, -782262.6, 48737.08, 0.0, 10.001507, 9.997422 
5.950567e+2, 2.2520036e+2, -654568.06, -844565.75, -15754.358, 0.073716864, -0.20724626, -653270.6, 79744.3, 0.0, 10.001177, 9.998669 
5.950606e+2, 2.3519874e+2, -507143.38, -727640.25, 8645.928, -0.019712212, -0.24848501, -506804.88, 128221.12, 0.0, 10.001528, 9.998633 
5.950644e+2, 2.4519679e+2, -409910.53, -669834.7, -10892.997, -0.08215569, -0.28455997, -409454.8, 127588.46, 0.0, 10.001695, 9.998272 
5.950681e+2, 2.5519457e+2, -312729.1, -568640.75, 3729.4854, -0.11582719, -0.34998986, -312674.75, 126391.414, 0.0, 10.001676, 9.998302 
5.9507227e+2, 2.6519296e+2, -122664.62, -334010.7, 14814.533, -0.076447174, -0.3796459, -121631.23, 219449.83, 0.0, 10.001929, 9.99911 
5.950768e+2, 2.7519172e+2, 42028.926, -207968.63, 81037.164, 0.019542381, -0.43199673, 65998.99, 309089.94, 0.0, 10.002399, 9.999078 
5.950805e+2, 2.8519058e+2, 80037.06, -190619.53, 96750.945, 0.007349119, -0.42800486, 111065.29, 256164.88, 0.0000003359344, 10.002201, 9.998626 
5.950834e+2, 2.9518974e+2, 34905.168, -168725.14, 60442.953, -0.10564486, -0.39596733, 51494.73, 98600.18, 0.000006914508, 10.00125, 9.998559 
5.9508765e+2, 3.0518824e+2, -34728.594, -313503.84, -26412.973, -0.024414666, -0.33186683, -32248.129, -32248.129, 0.000035630153, 10.001024, 9.997339 
5.950917e+2, 3.151871e+2, 181160.5, 56123.66, -25974.652, 0.097368896, -0.20654283, 186341.67, 186341.67, 0.0000986736, 10.0013275, 9.999729 
6.05009e+2, 1.2520792e+2, -1741944.9, -1959046.9, -249733.19, 0.018962478, -0.44150084, -1578191.0, 134736.63, 0.00000033090242, 10.000805, 9.997914 
6.0501754e+2, 1.3520858e+2, -1513344.0, -1827576.3, 213948.5, 0.13125281, -0.16684417, -1405018.1, 209916.39, 0.000000000013925105, 10.001776, 9.997717 
6.050242e+2, 1.4520745e+2, -1309026.6, -1480075.6, 93249.195, 0.07922156, -0.13013965, -1268021.1, 248928.14, 0.0, 10.001692, 9.99944 
6.0502684e+2, 1.5520525e+2, -1312590.3, -1428161.8, 12392.315, -0.00862287, -0.31607887, -1311276.5, 107688.98, 0.0, 10.000986, 9.999461 
6.0502964e+2, 1.6520429e+2, -1210067.9, -1340543.5, 17195.727, -0.08281152, -0.35112107, -1207839.6, 113131.26, 0.0, 10.001063, 9.999353 
6.050334e+2, 1.752043e+2, -1007290.2, -1194142.0, -10226.904, -0.11640764, -0.3005908, -1006732.06, 216236.1, 0.0, 10.001795, 9.999334 
6.0503864e+2, 1.8520322e+2, -998272.9, -1247255.4, 47316.293, -0.09842645, -0.2893505, -989584.2, 135394.08, 0.0, 10.001647, 9.99837 
6.050452e+2, 1.9520108e+2, -1046246.56, -1219500.1, 35430.887, -0.03247189, -0.35591885, -1039280.94, -12279.953, 0.0, 10.000647, 9.998367 
6.050505e+2, 2.0519957e+2, -983424.56, -1218643.4, -29954.705, 0.033573464, -0.3057585, -979669.8, -50650.76, 0.0, 10.000752, 9.997651 
6.0505456e+2, 2.151985e+2, -731839.4, -1045284.75, 15755.441, 0.1073492, -0.19115037, -731049.4, 99984.86, 0.0, 10.001796, 9.997666 
6.050585e+2, 2.2519699e+2, -501991.5, -758760.56, 92955.8, 0.084924825, -0.16354443, -471872.5, 261176.08, 0.0, 10.002174, 9.998775 
6.0506225e+2, 2.3519494e+2, -438527.88, -678373.1, 77068.125, -0.025716122, -0.26071024, -415898.97, 219164.5, 0.0, 10.001939, 9.998768 
6.050658e+2, 2.4519318e+2, -441328.38, -666448.4, 35124.227, -0.09423624, -0.29223996, -435975.4, 101103.945, 0.0, 10.001413, 9.998424 
6.0506916e+2, 2.5519168e+2, -455108.9, -620663.4, 30165.2, -0.121506914, -0.29907814, -449783.88, -10687.304, 0.0, 10.00063, 9.998446 
6.0507363e+2, 2.6519033e+2, -255119.1, -361172.63, 43048.895, -0.07870244, -0.3259852, -239844.73, 101263.445, 0.0, 10.00085, 9.999451 
6.0507905e+2, 2.7518898e+2, 6180.647, -191374.13, 4976.9287, 0.029099386, -0.41908824, 6305.949, 249422.34, 0.0, 10.001991, 9.999398 
6.0508275e+2, 2.851878e+2, 66674.01, -242898.2, -34583.27, 0.01258528, -0.4150297, 70490.36, 215616.33, 0.00000016006682, 10.002307, 9.998216 
6.050849e+2, 2.9518694e+2, 94035.37, -188301.4, -26918.375, -0.108607, -0.34167993, 96578.89, 143713.81, 0.0000052467194, 10.001857, 9.998136 
6.050891e+2, 3.0518457e+2, 27249.412, -319481.97, -40925.816, -0.008276515, -0.3278668, 32014.531, 32014.531, 0.000031327, 10.001609, 9.997019 
6.050939e+2, 3.1518385e+2, 173240.64, -1719.3004, -71116.26, 0.18170717, -0.12871563, 198500.48, 198500.48, 0.00009198692, 10.0015135, 9.99925 
6.1501116e+2, 1.252056e+2, -1625193.9, -1725265.5, -224155.81, 0.11230195, -0.23226513, -1445557.3, 267401.03, 0.000000091949275, 10.000851, 9.999489 
6.15018e+2, 1.352054e+2, -1406049.3, -1606390.3, 248805.64, -0.013108921, -0.19852564, -1238006.5, 376956.53, 0.0, 10.00179, 9.999225 
6.150258e+2, 1.4520459e+2, -1343722.6, -1559274.6, 54373.254, 0.04892207, -0.174939, -1330783.5, 186188.39, 0.0, 10.001712, 9.99889 
6.150288e+2, 1.5520392e+2, -1341095.1, -1502814.0, -8041.4395, 0.074932896, -0.1534086, -1340696.3, 78281.83, 0.0, 10.0010395, 9.998929 
6.15032e+2, 1.6520233e+2, -1264512.8, -1448493.6, 40378.12, 0.032887474, -0.18963946, -1256041.0, 64951.19, 0.0, 10.00105, 9.998617 
6.1503637e+2, 1.7519972e+2, -1058239.0, -1304317.3, 22237.473, -0.013921235, -0.32409772, -1056245.6, 166769.52, 0.0, 10.001811, 9.998572 
6.150412e+2, 1.8519823e+2, -1011712.1, -1264520.1, 4605.5396, -0.019416666, -0.31302488, -1011628.25, 113402.73, 0.0, 10.001606, 9.998266 
6.150463e+2, 1.9519764e+2, -1056501.9, -1235519.3, 5623.711, 0.003038558, -0.21376741, -1056325.4, -29283.91, 0.0, 10.000623, 9.998268 
6.150509e+2, 2.051969e+2, -899243.44, -1033017.0, 3688.3293, -0.009874757, -0.14822131, -899141.8, 29907.652, 0.0, 10.000706, 9.998947 
6.150549e+2, 2.151959e+2, -652888.94, -865492.3, 57791.9, -0.04870948, -0.15848482, -638194.94, 192861.2, 0.0, 10.001727, 9.998934 
6.1505944e+2, 2.251941e+2, -531475.94, -802260.56, 78869.12, -0.045755178, -0.2074605, -510179.34, 222891.92, 0.0, 10.002096, 9.998514 
6.1506444e+2, 2.3519146e+2, -466964.88, -719564.1, 74575.18, -0.007569462, -0.33453405, -446591.22, 188503.92, 0.0, 10.001861, 9.998524 
6.15068e+2, 2.4519025e+2, -447553.78, -669160.7, -1323.8346, -0.030730454, -0.30406135, -447545.88, 89562.67, 0.0, 10.001367, 9.998428 
6.1507004e+2, 2.551902e+2, -463440.25, -629824.9, 6304.1997, -0.110081606, -0.1681594, -463201.72, -24088.514, 0.0, 10.000592, 9.998403 
6.150741e+2, 2.6518926e+2, -320729.16, -489892.8, 80957.14, -0.12533814, -0.107244484, -288229.22, 52894.586, 0.0, 10.00082, 9.998579 
6.1508006e+2, 2.7518743e+2, -63919.555, -317452.34, 55148.8, -0.07785934, -0.16357048, -52443.016, 190697.84, 0.0, 10.001911, 9.998569 
6.150843e+2, 2.8518608e+2, 80808.82, -200210.66, -56603.29, -0.08060794, -0.15186933, 91781.484, 236935.02, 0.00000012615395, 10.002249, 9.998537 
6.150867e+2, 2.951852e+2, 104910.695, -147469.67, -36881.094, -0.13571933, -0.11442588, 110189.81, 157351.5, 0.000004351736, 10.001781, 9.998449 
6.15091e+2, 3.0518132e+2, -1473.8407, -371977.66, -47268.777, 0.007319093, -0.24802873, 4461.612, 4461.612, 0.000027327762, 10.001576, 9.99668 
6.1509556e+2, 3.151791e+2, 96270.805, -141574.19, -63625.445, 0.1744648, -0.16031934, 112221.42, 112221.42, 0.00008366508, 10.001434, 9.998328 
6.250133e+2, 1.2520196e+2, -1365948.6, -1549272.6, -153141.77, 0.17201313, -0.21934634, -1279132.9, 433863.16, 0.000000014013729, 10.002412, 9.9999485 
6.2501884e+2, 1.352015e+2, -1524540.6, -1608219.1, 189286.1, -0.04849664, -0.2597956, -1372525.0, 242472.56, 0.0, 10.000735, 9.999723 
6.2502724e+2, 1.4520064e+2, -1570720.0, -1688555.8, 11331.92, 0.09757308, -0.2558713, -1569640.1, -52634.445, 0.0, 10.000247, 9.998705 
6.2503e+2, 1.5520036e+2, -1300047.0, -1502332.1, -31076.477, 0.070778094, -0.1768924, -1295380.5, 123630.13, 0.0, 10.001421, 9.998741 
6.2503344e+2, 1.6519879e+2, -1174240.6, -1445876.9, 52582.176, 0.03035743, -0.18365988, -1164417.3, 156609.33, 0.0, 10.001839, 9.99826 
6.250386e+2, 1.7519584e+2, -1145228.1, -1379965.8, 49787.25, 0.05631909, -0.31687668, -1135105.0, 87948.98, 0.0, 10.001369, 9.998261 
6.250434e+2, 1.8519442e+2, -1062619.5, -1292868.1, 42292.1, 0.06403165, -0.28421748, -1055097.1, 69973.02, 0.0, 10.001264, 9.998242 
6.250477e+2, 1.951942e+2, -937964.4, -1180498.0, 40987.508, 0.032158792, -0.14497624, -931224.9, 95852.38, 0.0, 10.00144, 9.998255 
6.2505186e+2, 2.051932e+2, -769163.25, -929178.4, 46977.918, -0.014027577, -0.120908685, -756390.75, 172695.25, 0.0, 10.001422, 9.999314 
6.250562e+2, 2.1519136e+2, -705894.9, -848642.56, 19883.697, -0.059581567, -0.25123757, -703176.94, 127920.586, 0.0, 10.001186, 9.999309 
6.250609e+2, 2.251897e+2, -714037.0, -887783.06, 542.6783, -0.040080875, -0.30696946, -714035.3, 19076.111, 0.0, 10.00083, 9.998536 
6.25066e+2, 2.351881e+2, -687875.56, -825929.56, 5509.275, 0.03954778, -0.3331835, -687656.0, -52527.516, 0.0, 10.000338, 9.9985285 
6.250697e+2, 2.4518725e+2, -485499.47, -671006.94, -11253.644, 0.025228757, -0.27164072, -484819.28, 52319.477, 0.0, 10.001028, 9.998584 
6.2507206e+2, 2.55187e+2, -124216.266, -447006.56, -3977.1023, -0.072951116, -0.16997662, -124167.27, 314976.22, 0.0, 10.002843, 9.998573 
6.2507594e+2, 2.6518595e+2, -51527.258, -394840.56, 76069.84, -0.12540437, -0.11829969, -35427.08, 305728.63, 0.0, 10.002809, 9.998278 
6.25081e+2, 2.7518395e+2, -215506.89, -421805.1, 79309.82, -0.13108294, -0.16176714, -188541.48, 54634.555, 0.0, 10.001, 9.99829 
6.250855e+2, 2.8518274e+2, -156375.0, -303370.25, 14098.096, -0.10093575, -0.1273674, -155035.1, -9846.408, 0.000000116905284, 10.000568, 9.99864 
6.2508917e+2, 2.9518214e+2, 66355.16, -156599.78, 2569.6296, -0.0380186, -0.069811314, 66384.77, 113579.85, 0.000004287332, 10.001462, 9.9985485 
6.2509394e+2, 3.051785e+2, 177654.77, -223550.94, 46863.324, 0.1039849, -0.21458474, 183055.97, 183055.97, 0.000025839543, 10.002542, 9.997231 
6.25098e+2, 3.1517628e+2, 444394.06, 32962.645, 71640.07, 0.1533811, -0.18325678, 456511.44, 456511.44, 0.00007841617, 10.003776, 9.998403 
6.3501513e+2, 1.2519693e+2, -1399832.8, -1640607.8, -201189.94, 0.08081026, -0.40820187, -1285762.4, 427278.34, 0.0000000049225286, 10.002497, 9.999285 
6.350199e+2, 1.3519682e+2, -1557915.3, -1686182.1, 122934.18, -0.032206632, -0.3568261, -1483391.1, 131647.34, 0.0, 10.000768, 9.999177 
6.350283e+2, 1.4519559e+2, -1558634.1, -1662600.1, 44492.6, 0.16965999, -0.37181196, -1542193.3, -25142.785, 0.0, 10.000246, 9.998883 
6.350301e+2, 1.5519452e+2, -1284293.1, -1476059.3, 21018.617, -0.07754102, -0.39045882, -1282016.4, 137047.14, 0.0, 10.001446, 9.998912 
6.350336e+2, 1.6519359e+2, -1173764.8, -1437863.4, 28515.76, -0.14951707, -0.34540284, -1170720.9, 150353.78, 0.0, 10.001813, 9.998324 
6.3504e+2, 1.7519261e+2, -1139537.0, -1371959.1, 37487.047, 0.03719848, -0.28815404, -1133640.4, 89445.17, 0.0, 10.001383, 9.998312 
6.350451e+2, 1.8519168e+2, -1060553.9, -1284393.8, 44355.574, 0.09416951, -0.20889731, -1052084.9, 73011.66, 0.0, 10.001249, 9.998304 
6.3504887e+2, 1.9519071e+2, -938986.75, -1174614.5, 52590.418, -0.0022887792, -0.15264516, -927781.75, 99327.0, 0.0, 10.001407, 9.99831 
6.350532e+2, 2.0518851e+2, -819074.6, -1014953.7, 32251.314, -0.029755818, -0.22518036, -813901.1, 115227.78, 0.0, 10.001347, 9.998761 
6.350582e+2, 2.1518499e+2, -753934.25, -930091.25, 17408.834, 0.011072314, -0.4706328, -752230.3, 78927.63, 0.0, 10.001109, 9.998784 
6.350627e+2, 2.2518384e+2, -705923.75, -855563.2, -22366.82, 0.041000657, -0.46159118, -702652.1, 30516.594, 0.0, 10.000762, 9.998791 
6.3506657e+2, 2.351848e+2, -677715.06, -792592.1, -4436.201, 0.054781206, -0.25920475, -677544.06, -42380.465, 0.0, 10.000281, 9.998786 
6.3507074e+2, 2.4518429e+2, -470846.78, -630924.1, 52961.496, 0.016240623, -0.19380641, -454910.9, 82258.54, 0.0, 10.000988, 9.998878 
6.3507515e+2, 2.551822e+2, -113938.6, -409493.0, 67950.766, -0.069962405, -0.3010687, -99064.62, 340122.22, 0.0, 10.002769, 9.99887 
6.350787e+2, 2.6518038e+2, -45431.824, -361787.97, 2435.9185, -0.1362317, -0.35423023, -45413.07, 295790.72, 0.0, 10.00273, 9.998538 
6.350815e+2, 2.751786e+2, -212649.27, -393829.84, 19771.406, -0.18814823, -0.4013144, -210516.8, 32704.576, 0.0, 10.000911, 9.998524 
6.350861e+2, 2.8517783e+2, -164862.27, -316457.25, 39043.297, -0.10475961, -0.3320208, -155397.58, -10166.45, 0.0000001448745, 10.000547, 9.998565 
6.3509226e+2, 2.9517788e+2, 52480.97, -168575.42, 41941.977, 0.10668128, -0.19681992, 60171.266, 107405.305, 0.000005079309, 10.001398, 9.998497 
6.350977e+2, 3.0517617e+2, 267797.03, -30210.77, 89703.8, 0.20115012, -0.21246994, 292715.34, 292715.34, 0.000027818513, 10.002512, 9.998571 
6.351003e+2, 3.151755e+2, 485750.6, 165939.42, 134763.67, -0.02039126, -0.16626929, 534964.7, 534964.7, 0.00008105603, 10.003587, 9.999401 
6.4501655e+2, 1.2519367e+2, -1704325.0, -1801254.6, -191780.64, 0.0801756, -0.3708921, -1554980.3, 158093.8, 0.0000000021351345, 10.0004635, 9.99916 
6.450209e+2, 1.3519329e+2, -1420415.6, -1616928.1, 107625.305, -0.05582632, -0.34945464, -1372941.0, 242131.86, 0.0, 10.001719, 9.999178 
6.450298e+2, 1.4519173e+2, -1382509.6, -1610251.8, 58830.867, 0.22461134, -0.3816087, -1368210.1, 148877.6, 0.0, 10.001592, 9.998598 
6.4503133e+2, 1.5519023e+2, -1447570.5, -1583022.3, -9375.593, -0.04711679, -0.41488713, -1446924.6, -27818.234, 0.0, 10.000443, 9.99866 
6.450348e+2, 1.6518955e+2, -1355396.3, -1460695.6, 18608.967, -0.13254842, -0.36234003, -1352204.3, -31089.516, 0.0, 10.000279, 9.998911 
6.4504135e+2, 1.7518947e+2, -1150100.8, -1314596.4, 56323.742, 0.054707047, -0.27258945, -1132663.8, 90451.375, 0.0, 10.001031, 9.998882 
6.4504653e+2, 1.8518853e+2, -1035461.9, -1267541.6, 88900.05, 0.10486801, -0.22459593, -1005322.2, 119802.51, 0.0, 10.001397, 9.998351 
6.450502e+2, 1.9518669e+2, -945186.44, -1172826.1, 82947.0, -0.0036966982, -0.26037127, -918168.94, 108974.9, 0.0, 10.001347, 9.998351 
6.4505464e+2, 2.0518456e+2, -848257.06, -1067113.8, 75032.31, -0.021792298, -0.30904186, -825003.8, 104160.695, 0.0, 10.001307, 9.998421 
6.450598e+2, 2.1518207e+2, -760401.1, -975508.8, 60792.81, 0.05606379, -0.41716576, -744409.06, 86779.086, 0.0, 10.001238, 9.998414 
6.450641e+2, 2.2518112e+2, -608458.56, -811168.94, 32099.285, 0.07389493, -0.36966196, -603497.06, 129701.734, 0.0, 10.001435, 9.998776 
6.4506745e+2, 2.3518154e+2, -447389.6, -680298.94, 15167.219, 0.03293356, -0.22201723, -446406.03, 188792.2, 0.0, 10.001859, 9.998797 
6.4507186e+2, 2.4518071e+2, -364301.38, -560764.44, 88393.87, -0.005258489, -0.19352089, -330385.6, 206820.11, 0.0, 10.001637, 9.99905 
6.450772e+2, 2.5517866e+2, -385467.5, -519063.63, 85400.234, -0.03546392, -0.318157, -343844.25, 95377.31, 0.0, 10.000813, 9.999061 
6.4508075e+2, 2.651769e+2, -351688.1, -493922.47, -19910.924, -0.09169522, -0.3809444, -348953.44, -7716.5864, 0.0, 10.000557, 9.998679 
6.450827e+2, 2.7517527e+2, -208003.33, -376293.72, -21143.799, -0.16021688, -0.42931718, -205387.52, 37864.996, 0.000000000000000000046744374, 10.000876, 9.998662 
6.4508724e+2, 2.8517416e+2, -28921.336, -285153.78, 63898.707, -0.09669394, -0.38068816, -13870.483, 131394.08, 0.00000034821963, 10.001627, 9.99826 
6.4509416e+2, 2.9517344e+2, 224184.73, -119443.484, 35765.906, 0.092689514, -0.29593349, 227867.88, 275142.66, 0.0000068469953, 10.002712, 9.998205 
6.450998e+2, 3.0517235e+2, 249244.61, -25579.85, -671.19275, 0.17990461, -0.24399522, 249246.25, 249246.25, 0.00003363737, 10.002322, 9.9986925 
6.45102e+2, 3.1517223e+2, 78560.12, -12167.267, -64357.727, -0.050593607, -0.15500732, 111935.12, 111935.12, 0.000093360155, 10.000694, 9.99957 
6.5501726e+2, 1.2519214e+2, -1666007.3, -1732077.8, -120835.62, 0.06877755, -0.11679238, -1573772.5, 139323.64, 0.0000000012982254, 10.000507, 9.999615 
6.550214e+2, 1.3519084e+2, -1378389.9, -1535651.8, 151052.08, -0.1865676, -0.24108799, -1286728.3, 328372.34, 0.0, 10.001751, 9.999719 
6.550313e+2, 1.4518894e+2, -1430660.9, -1715084.5, 3870.4714, 0.20354925, -0.29695126, -1430608.3, 86510.195, 0.0, 10.00161, 9.997873 
6.550334e+2, 1.5518744e+2, -1493214.1, -1685453.4, -46098.477, 0.09845489, -0.25645506, -1482731.5, -63591.977, 0.0, 10.000472, 9.997949 
6.5503675e+2, 1.6518667e+2, -1277299.8, -1300698.4, 40719.54, 0.015411287, -0.23165002, -1246632.1, 74514.56, 0.0, 10.000289, 10.000001 
6.550424e+2, 1.7518649e+2, -1072357.4, -1158601.9, 89892.61, 0.04868969, -0.26495543, -1015779.06, 207363.31, 0.0, 10.001051, 9.999942 
6.550474e+2, 1.8518496e+2, -1035309.4, -1260735.3, 79170.65, 0.04071803, -0.3302429, -1010282.75, 114871.625, 0.0, 10.001371, 9.99841 
6.550514e+2, 1.951821e+2, -947055.1, -1163740.8, 86769.57, -0.03513472, -0.47356868, -916591.9, 110590.64, 0.0, 10.001297, 9.998435 
6.5505576e+2, 2.051814e+2, -871860.1, -1101822.3, 66395.03, -0.045913562, -0.37329978, -854067.2, 75125.875, 0.0, 10.001243, 9.998217 
6.550607e+2, 2.1518257e+2, -783402.6, -1006572.1, 64358.285, 0.0119998995, -0.093760215, -766173.0, 65015.617, 0.0, 10.001168, 9.998235 
6.550649e+2, 2.251815e+2, -643615.6, -864850.1, 41486.176, 0.0012748395, -0.03240186, -636091.94, 97109.94, 0.0, 10.001358, 9.998442 
6.550682e+2, 2.3517823e+2, -484389.66, -733629.06, 36125.8, -0.085187554, -0.22017354, -479259.03, 155973.81, 0.0, 10.001763, 9.998472 
6.550727e+2, 2.4517654e+2, -369563.44, -552745.06, 51028.22, -0.094192356, -0.26796845, -356307.9, 180939.84, 0.0, 10.00156, 9.99914 
6.550782e+2, 2.5517625e+2, -388835.5, -509825.28, 61613.625, -0.031553112, -0.22874184, -362983.0, 76265.45, 0.0, 10.000751, 9.999149 
6.55082e+2, 2.651754e+2, -347049.44, -484656.47, -15040.409, -0.04377689, -0.20602001, -345424.72, -4169.5146, 0.0, 10.000552, 9.998749 
6.5508413e+2, 2.75174e+2, -209884.28, -371083.72, -1918.5742, -0.12255495, -0.2396476, -209861.45, 33406.957, 0.0000000002377775, 10.000832, 9.998723 
6.550884e+2, 2.8517187e+2, -70870.875, -361448.66, 98923.484, -0.15248218, -0.27075028, -40390.832, 104897.4, 0.0000008000927, 10.001584, 9.997753 
6.550947e+2, 2.951689e+2, 173403.92, -200545.69, 80942.625, -0.14347336, -0.35986474, 190172.3, 237488.69, 0.000010270006, 10.002616, 9.99769 
6.551003e+2, 3.0516708e+2, 173621.63, -177504.6, -66744.555, -0.01701323, -0.30336928, 185880.88, 185880.88, 0.00004390313, 10.002299, 9.997665 
6.5510297e+2, 3.1516665e+2, 22370.121, -110166.484, -92159.73, -0.061990336, -0.13650775, 69613.51, 69613.51, 0.000113456364, 10.000621, 9.998934 
6.650192e+2, 1.2518804e+2, -1587240.6, -1675916.3, -110769.42, 0.20349215, -0.037116595, -1512264.9, 200874.34, 0.00000000035571668, 10.000957, 9.999786 
6.650221e+2, 1.3518633e+2, -1611918.4, -1625619.0, 63583.707, -0.20327432, -0.22558765, -1554817.1, 60331.508, 0.0, 10.000034, 9.999938 
6.6503227e+2, 1.4518481e+2, -1595495.6, -1718951.3, -25166.785, 0.2142182, -0.28930098, -1590562.4, -73400.94, 0.0, 10.000168, 9.998532 
6.650355e+2, 1.5518421e+2, -1257976.1, -1502208.0, 18025.01, 0.1991059, -0.22458123, -1256653.0, 162517.33, 0.0, 10.001796, 9.998563 
6.6503894e+2, 1.6518341e+2, -1036307.1, -1256449.0, 94530.21, 0.11138317, -0.20017311, -1001286.44, 319891.78, 0.0, 10.002256, 9.999356 
6.650438e+2, 1.7518231e+2, -1045036.25, -1210885.4, 806.77234, 0.053879537, -0.2593267, -1045032.3, 178153.75, 0.0, 10.001529, 9.999347 
6.6504836e+2, 1.8518081e+2, -1073224.3, -1217419.5, -52911.05, 0.024287187, -0.32129002, -1055892.4, 69306.12, 0.0, 10.000852, 9.998956 
6.6505235e+2, 1.9517879e+2, -1065493.9, -1164268.1, -22400.4, -0.010349037, -0.43527767, -1060651.3, -33434.805, 0.0, 10.000231, 9.998949 
6.650569e+2, 2.0517853e+2, -992233.44, -1139723.8, 25153.58, -0.015409566, -0.32685274, -988061.7, -58839.867, 0.0, 10.000332, 9.998396 
6.650619e+2, 2.1517979e+2, -783124.3, -987220.5, 37857.395, 0.018696545, -0.055659868, -776328.5, 54888.188, 0.0, 10.001092, 9.998403 
6.650662e+2, 2.251785e+2, -634417.8, -856137.56, 45512.66, -0.0073835272, -0.026213974, -625439.0, 107792.39, 0.0, 10.001404, 9.998479 
6.650696e+2, 2.3517478e+2, -556944.1, -767540.3, 55289.906, -0.09665143, -0.26165643, -543310.9, 91954.45, 0.0, 10.001255, 9.998488 
6.65074e+2, 2.4517316e+2, -419006.44, -587087.1, 73001.55, -0.10142191, -0.29841548, -391727.38, 145552.6, 0.0, 10.001253, 9.999058 
6.650793e+2, 2.551734e+2, -303037.28, -482033.78, 55167.46, -0.02592093, -0.19688606, -287400.47, 151877.3, 0.0, 10.001379, 9.999047 
6.6508347e+2, 2.651727e+2, -187564.86, -447786.9, -1669.3005, -0.006950055, -0.13451724, -187554.16, 153730.03, 0.0, 10.001814, 9.998396 
6.650866e+2, 2.7517107e+2, 20500.162, -297079.34, -31443.617, -0.03753106, -0.15079077, 23583.467, 266883.0, 0.0000000023427176, 10.002569, 9.998393 
6.6509104e+2, 2.8516853e+2, 50060.113, -294383.6, 72495.99, -0.082531154, -0.21621694, 64696.586, 210019.4, 0.0000014418595, 10.002382, 9.997826 
6.6509664e+2, 2.951648e+2, -2544.9978, -272209.03, 81615.164, -0.1393938, -0.39002222, 20232.336, 67588.25, 0.000014823799, 10.001355, 9.9978 
6.651016e+2, 3.0516273e+2, -2854.66, -270823.94, -19069.467, -0.0547501, -0.3629138, -1504.425, -1504.425, 0.000057815294, 10.001126, 9.997591 
6.6510344e+2, 3.1516305e+2, 170670.28, -11336.725, 18209.578, -0.11219979, -0.10548345, 172474.25, 172474.25, 0.0001407211, 10.00153, 9.999177 
6.750223e+2, 1.2518136e+2, -1591509.8, -1694532.4, -112036.78, 0.37506405, -0.14434095, -1519709.9, 193493.89, 0.0000000023126079, 10.001005, 9.99963 
6.7502266e+2, 1.3517982e+2, -1615845.4, -1634348.4, 27769.176, -0.17180951, -0.30511364, -1595827.1, 19388.879, 0.0, 10.000048, 9.999866 
6.750324e+2, 1.451795e+2, -1453774.4, -1430031.1, 26060.842, 0.1896968, -0.3478899, -1413265.4, 103949.8, 0.0, 10.000185, 10.000509 
6.7503726e+2, 1.5518063e+2, -1117331.8, -1219224.6, 85201.06, 0.17979412, -0.3068589, -1069007.0, 350191.13, 0.0, 10.00183, 10.000491 
6.7504114e+2, 1.6517976e+2, -1196253.4, -1591000.9, 60314.605, 0.09158195, -0.26624256, -1187243.4, 133965.6, 0.0, 10.002267, 9.997057 
6.7504513e+2, 1.7517702e+2, -1202464.6, -1536732.3, -20064.48, 0.018262498, -0.26093197, -1201264.5, 21981.445, 0.0, 10.001526, 9.997113 
6.7504907e+2, 1.8517615e+2, -1003352.25, -1071772.3, -82532.78, -0.0026152108, -0.20189056, -948220.3, 177036.39, 0.0, 10.000845, 9.999961 
6.750529e+2, 1.9517685e+2, -1001033.4, -1021186.0, -38731.98, 0.001104731, -0.14303358, -971088.5, 56156.105, 0.0, 10.000193, 9.9999485 
6.7505753e+2, 2.0517606e+2, -963885.06, -1071095.8, 48042.363, 0.006647951, -0.16084774, -945507.06, -16257.494, 0.0, 10.000285, 9.998892 
6.750632e+2, 2.1517377e+2, -757241.0, -917487.75, 71823.71, 0.02011855, -0.29441246, -729761.4, 101510.234, 0.0, 10.001023, 9.998915 
6.750677e+2, 2.2517219e+2, -617686.9, -800841.1, 35001.953, -0.002558792, -0.3392925, -611225.7, 122060.516, 0.0, 10.001317, 9.998899 
6.750713e+2, 2.3517121e+2, -542491.06, -713927.75, 58126.61, -0.06393835, -0.34360364, -524641.4, 110653.63, 0.0, 10.00116, 9.9989 
6.750755e+2, 2.4517062e+2, -450800.75, -637321.2, 72129.6, -0.08985314, -0.28277674, -426162.1, 111139.55, 0.0, 10.001187, 9.998741 
6.750802e+2, 2.5517026e+2, -337450.66, -536271.3, 64515.93, -0.08104995, -0.21043886, -318350.56, 120957.36, 0.0, 10.001305, 9.998709 
6.7508507e+2, 2.6516894e+2, -249216.63, -562332.7, 21077.357, -0.038047668, -0.15438622, -247804.17, 93518.19, 0.0, 10.001759, 9.997635 
6.7509e+2, 2.751667e+2, -41058.133, -408102.22, 3535.0093, 0.02881501, -0.15979277, -41024.09, 202321.2, 0.0000000015372758, 10.0025015, 9.997662 
6.7509496e+2, 2.8516418e+2, 95305.68, -202049.25, 28082.402, 0.051222797, -0.21700568, 97934.555, 243302.61, 0.0000017821444, 10.00238, 9.998464 
6.7509985e+2, 2.9516122e+2, 35538.637, -182395.81, 50832.758, 0.029377377, -0.3773585, 46812.11, 94204.39, 0.000019076204, 10.001303, 9.998445 
6.7510325e+2, 3.0515924e+2, 45393.61, -154726.4, -7479.5254, -0.011603848, -0.41313863, 45672.77, 45672.77, 0.000073988194, 10.001067, 9.998408 
6.75103e+2, 3.1516102e+2, 224360.11, 128650.11, 59877.918, -0.34295163, -0.095255174, 253156.7, 253156.7, 0.00017623325, 10.001418, 10.000183 
6.850235e+2, 1.2517588e+2, -1497344.6, -1685701.9, 24530.76, 0.36311224, -0.28532428, -1494202.3, 219051.28, 0.0000000036242784, 10.001798, 9.999318 
6.850235e+2, 1.3517559e+2, -1507880.6, -1612524.6, 82491.64, -0.12357037, -0.29073355, -1462517.1, 152740.73, 0.0, 10.00093, 9.999587 
6.850331e+2, 1.451758e+2, -1410880.0, -1402634.0, 85162.2, 0.2350951, -0.26858187, -1321495.1, 195758.63, 0.0, 10.000441, 10.000577 
6.850384e+2, 1.5517628e+2, -1287312.0, -1293498.3, -9043.9, 0.17480323, -0.3004, -1280846.9, 138396.66, 0.0, 10.000622, 10.000568 
6.850423e+2, 1.6517547e+2, -1399014.6, -1640132.3, -36422.293, 0.063103564, -0.28320065, -1393633.0, -72379.55, 0.0, 10.000664, 9.997496 
6.850458e+2, 1.7517339e+2, -1314474.0, -1545380.0, 75340.39, -0.010867981, -0.25419903, -1292066.3, -68784.38, 0.0, 10.000557, 9.997524 
6.850501e+2, 1.8517275e+2, -992291.8, -1106195.5, 96493.734, 0.0025513184, -0.1727836, -937196.56, 188093.84, 0.0, 10.001098, 9.999599 
6.8505466e+2, 1.9517325e+2, -730025.6, -927903.06, 27638.885, 0.06959161, -0.09885673, -726237.6, 301044.7, 0.0, 10.00222, 9.999608 
6.8505937e+2, 2.0517196e+2, -667248.5, -928537.0, 45777.63, 0.06665206, -0.15089788, -659460.44, 269832.03, 0.0, 10.002327, 9.99888 
6.850642e+2, 2.151689e+2, -691497.06, -886827.75, 19738.545, 0.0024326842, -0.36080718, -689522.4, 141798.2, 0.0, 10.001472, 9.998908 
6.8506855e+2, 2.2516769e+2, -676813.9, -777250.8, -36108.063, -0.016038822, -0.39382774, -665180.2, 68150.46, 0.0, 10.000677, 9.999375 
6.850725e+2, 2.351681e+2, -688713.7, -733179.1, -21261.75, 0.0070091966, -0.3052491, -680183.56, -44858.52, 0.0, 9.999921, 9.999371 
6.8507695e+2, 2.4516766e+2, -614213.75, -740401.56, 52892.418, -0.0052097053, -0.24141437, -594976.3, -57646.383, 0.0, 10.000166, 9.998526 
6.8508184e+2, 2.5516632e+2, -340458.72, -559091.9, 43905.17, -0.050469637, -0.24357806, -331971.3, 107374.35, 0.0, 10.001381, 9.998511 
6.8508685e+2, 2.6516458e+2, -234207.89, -533685.0, 34831.41, -0.035751775, -0.23284113, -230210.11, 111153.95, 0.0, 10.001771, 9.997824 
6.85092e+2, 2.751623e+2, -191465.45, -459621.06, 71632.73, 0.039040156, -0.2587605, -173529.75, 69856.305, 0.00000000039754933, 10.001376, 9.997851 
6.8509686e+2, 2.8516057e+2, -60609.574, -253528.47, 98900.08, 0.064778425, -0.2584158, -18918.195, 126483.016, 0.000001935021, 10.001211, 9.9986725 
6.851013e+2, 2.9515916e+2, 53778.492, -149679.78, 78556.664, 0.04113797, -0.2857127, 80579.375, 127991.0, 0.000022833043, 10.001325, 9.998659 
6.851045e+2, 3.0515653e+2, 125301.086, -110645.58, 19049.568, -0.01858487, -0.39918667, 126829.19, 126829.19, 0.00009092674, 10.001579, 9.998466 
6.851049e+2, 3.1515718e+2, 258142.77, 124478.41, 24143.389, -0.3006171, -0.20176938, 262370.0, 262370.0, 0.00021661, 10.001716, 10.000017 
6.950226e+2, 1.2517165e+2, -1520159.5, -1742100.3, 7411.0454, 0.05545201, -0.4579202, -1519912.4, 193376.02, 0.00000000017840025, 10.001851, 9.998896 
6.9502467e+2, 1.3517366e+2, -1541453.9, -1683103.4, 50933.785, -0.116111465, -0.18485835, -1525041.1, 90232.27, 0.0, 10.000944, 9.999088 
6.950343e+2, 1.451737e+2, -1533964.4, -1665144.9, 84373.766, 0.2957688, -0.06352185, -1492685.5, 24591.883, 0.0, 10.000469, 9.998764 
6.950387e+2, 1.5517117e+2, -1403113.9, -1546521.1, 6239.2554, 0.123736866, -0.21422017, -1402843.0, 16463.459, 0.0, 10.0006695, 9.998813 
6.9504213e+2, 1.651705e+2, -1179453.0, -1186337.0, -46733.508, -0.038701296, -0.2522063, -1136034.9, 185275.95, 0.0, 10.000675, 10.000602 
6.9504565e+2, 1.751715e+2, -1101244.0, -1103098.6, 77335.68, -0.09366374, -0.22788894, -1024830.0, 198463.05, 0.0, 10.000559, 10.000557 
6.95051e+2, 1.8517068e+2, -1111919.4, -1352191.4, 133505.4, -0.020698968, -0.22827488, -1052454.8, 72844.4, 0.0, 10.001086, 9.997917 
6.9505775e+2, 1.9516805e+2, -853576.9, -1174791.3, 74863.0, 0.13731338, -0.29941776, -836986.06, 190343.11, 0.0, 10.00218, 9.997932 
6.950623e+2, 2.0516624e+2, -711625.56, -1005941.2, 7403.134, 0.10694858, -0.2949311, -711439.44, 217910.86, 0.0, 10.002263, 9.998382 
6.9506484e+2, 2.1516511e+2, -736954.5, -963193.3, -6838.9653, -0.09231951, -0.25973088, -736747.94, 94615.99, 0.0, 10.001396, 9.998421 
6.950685e+2, 2.2516492e+2, -649771.94, -704590.1, -69630.805, -0.10162572, -0.19604886, -602349.9, 131015.12, 0.0, 10.000608, 9.999906 
6.9507307e+2, 2.3516542e+2, -661920.7, -662102.6, -41931.83, 0.05864939, -0.15133384, -620079.75, 15275.919, 0.0, 9.999859, 9.999886 
6.9507825e+2, 2.4516435e+2, -624864.7, -752234.0, 93418.35, 0.094064064, -0.17212328, -575488.6, -38124.492, 0.0, 10.000122, 9.9984665 
6.950839e+2, 2.551617e+2, -352519.28, -569203.1, 95277.11, 0.008523443, -0.2978801, -316584.72, 122805.62, 0.0, 10.001315, 9.998476 
6.950886e+2, 2.6515967e+2, -167454.42, -381149.1, 15788.462, -0.046949398, -0.37015402, -166294.22, 175114.6, 0.0, 10.001714, 9.998898 
6.9509244e+2, 2.7515802e+2, -128508.59, -314880.94, 63211.77, -0.06544161, -0.43914288, -109091.97, 134329.4, 0.0000000054780975, 10.001316, 9.998876 
6.9509655e+2, 2.8515768e+2, -82358.266, -288865.47, 96869.24, -0.102046125, -0.33589154, -44031.656, 101391.04, 0.000002364329, 10.00117, 9.998448 
6.9510055e+2, 2.9515845e+2, 29546.48, -185359.67, 92328.49, -0.1791359, -0.12250159, 63764.555, 111179.44, 0.000027093956, 10.001263, 9.998443 
6.9510496e+2, 3.0515447e+2, 74383.62, -207207.9, 22624.854, -0.13816853, -0.32812476, 76189.86, 76189.86, 0.00010798756, 10.001545, 9.997817 
6.95109e+2, 3.1515148e+2, 154306.13, -70040.6, 58828.332, -0.09845553, -0.42687306, 168796.23, 168796.23, 0.00025660693, 10.001631, 9.998721 
7.0502275e+2, 1.2516814e+2, -1669895.1, -1815842.3, -59508.563, -0.05294495, -0.39884827, -1648707.1, 64617.355, 0.0, 10.000809, 9.998907 
7.050265e+2, 1.3516946e+2, -1375018.8, -1610597.5, -40796.254, -0.078787796, -0.18910143, -1368153.9, 247161.33, 0.0, 10.002109, 9.999028 
7.050359e+2, 1.4516947e+2, -1361814.1, -1647334.1, 46195.926, 0.34231874, -0.039455943, -1354525.9, 162795.31, 0.0, 10.00193, 9.998184 
7.0503944e+2, 1.5516713e+2, -1430814.0, -1617686.1, 51313.645, 0.13097325, -0.114722334, -1417650.9, 1701.4657, 0.0, 10.000742, 9.998282 
7.0504284e+2, 1.6516644e+2, -1129594.6, -1089327.3, -2965.0125, -0.028753666, -0.16033532, -1089110.1, 232246.23, 0.0, 10.000708, 10.001248 
7.0504725e+2, 1.7516719e+2, -895613.4, -931639.94, -75010.55, -0.045541164, -0.22459422, -836483.5, 386852.88, 0.0, 10.001664, 10.001199 
7.0505273e+2, 1.8516643e+2, -1046594.56, -1325869.0, -49365.234, 0.019464139, -0.2499544, -1038125.44, 87215.28, 0.0, 10.001556, 9.997871 
7.0505893e+2, 1.9516407e+2, -1108852.0, -1304372.6, 1934.6512, 0.13093267, -0.28787127, -1108832.8, -81463.31, 0.0, 10.000447, 9.997884 
7.0506334e+2, 2.0516267e+2, -1036398.9, -1127307.8, 20151.678, 0.11232203, -0.25494498, -1032132.1, -102745.086, 0.0, 9.999887, 9.998694 
7.0506614e+2, 2.151621e+2, -947471.25, -1029313.9, 55630.598, -0.018028874, -0.19621877, -919332.3, -87937.5, 0.0, 9.9998045, 9.998734 
7.050698e+2, 2.2516179e+2, -650961.9, -718961.25, 42659.05, -0.0317364, -0.15193997, -630410.94, 102985.664, 0.0, 10.000663, 9.999776 
7.0507413e+2, 2.3516159e+2, -301746.6, -502066.7, 11209.311, 0.056939892, -0.16417815, -301121.3, 334272.7, 0.0, 10.002397, 9.999759 
7.050793e+2, 2.4516046e+2, -319210.25, -592126.2, 106496.19, 0.09156719, -0.19141464, -282572.25, 254830.48, 0.0, 10.002172, 9.998574 
7.050853e+2, 2.5515833e+2, -518303.94, -635933.9, 111060.85, 0.074410185, -0.27864847, -451445.88, -12022.618, 0.0, 10.000124, 9.998588 
7.050901e+2, 2.651564e+2, -448186.5, -518988.3, 39953.387, 0.023504378, -0.34278136, -430206.72, -88766.68, 0.0, 9.999801, 9.998874 
7.050938e+2, 2.7515453e+2, -165842.11, -332798.88, -6504.1406, -0.044001512, -0.43163034, -165589.13, 77865.44, 0.000000016182126, 10.001064, 9.99887 
7.050979e+2, 2.8515387e+2, -64620.85, -318662.94, -24094.545, -0.091539055, -0.34548724, -62355.805, 83103.67, 0.0000030357212, 10.001448, 9.998115 
7.05102e+2, 2.9515424e+2, -31634.682, -247962.72, -46070.137, -0.13729066, -0.1407897, -22232.072, 25224.055, 0.000031540207, 10.000982, 9.998149 
7.0510656e+2, 3.051502e+2, 40900.01, -223174.05, -53629.203, -0.117691584, -0.34005776, 51375.68, 51375.68, 0.00012311795, 10.001311, 9.997823 
7.0511156e+2, 3.1514668e+2, 208635.63, -100579.75, 7621.9375, -0.030388568, -0.48620683, 208823.39, 208823.39, 0.00029058926, 10.002249, 9.998212 
7.150237e+2, 1.2516534e+2, -1619940.8, -1730192.3, 3234.6365, -0.07505027, -0.10897186, -1619846.0, 93516.34, 0.0, 10.000885, 9.999456 
7.150289e+2, 1.3516296e+2, -1337085.5, -1549966.6, 6782.791, -0.07143343, -0.31057748, -1336869.6, 278514.25, 0.0, 10.002178, 9.999415 
7.150377e+2, 1.451631e+2, -1311659.6, -1548449.8, -9876.981, 0.3105078, -0.20046756, -1311248.4, 206136.73, 0.0, 10.001961, 9.998841 
7.150404e+2, 1.5516414e+2, -1386051.8, -1528137.6, 13732.882, 0.13741256, -0.003031406, -1384736.6, 34644.742, 0.0, 10.000753, 9.998891 
7.150444e+2, 1.6516325e+2, -1255088.5, -1345647.0, 28879.36, 0.03601299, -0.011198801, -1246662.8, 74727.54, 0.0, 10.000695, 9.999494 
7.150503e+2, 1.7516051e+2, -1015052.3, -1182214.3, -33003.63, 0.07748824, -0.24651201, -1008772.2, 214639.19, 0.0, 10.001677, 9.999474 
7.150549e+2, 1.8515997e+2, -939582.6, -1099345.6, -95714.86, 0.067573, -0.24329148, -894795.0, 230619.7, 0.0, 10.001538, 9.9994335 
7.1505815e+2, 1.9516134e+2, -1006704.7, -1080326.5, -32058.74, -0.009428951, -0.06581266, -994701.56, 32701.254, 0.0, 10.000399, 9.999442 
7.150625e+2, 2.051613e+2, -969406.6, -973882.8, 11488.962, 0.024595384, -0.029100839, -959939.8, -30537.545, 0.0, 9.999829, 9.999772 
7.1506786e+2, 2.1515979e+2, -886777.56, -883949.2, 56737.645, 0.16559726, -0.17155825, -828608.1, 2805.5625, 0.0, 9.999727, 9.999765 
7.150723e+2, 2.251583e+2, -713874.9, -831566.1, 101358.55, 0.13874044, -0.25793314, -655518.25, 77907.41, 0.0, 10.000582, 9.999044 
7.1507555e+2, 2.3515674e+2, -364072.56, -612026.8, 79454.164, -0.053519405, -0.33493462, -340797.22, 294642.0, 0.0, 10.002312, 9.999045 
7.150801e+2, 2.4515606e+2, -310279.47, -557665.8, 22450.316, -0.06637143, -0.29390165, -308258.63, 229186.5, 0.0, 10.002104, 9.998846 
7.150856e+2, 2.5515613e+2, -507354.7, -602378.25, 39770.773, 0.08761839, -0.18721052, -492906.13, -53461.15, 0.0, 10.00008, 9.99884 
7.150909e+2, 2.6515475e+2, -522900.7, -672851.8, 81737.89, 0.11617696, -0.1564055, -486959.97, -145501.64, 0.0, 9.999793, 9.997822 
7.150958e+2, 2.7515182e+2, -248675.92, -490755.13, 48442.016, 0.029176611, -0.24648908, -239342.16, 4143.971, 0.000000020828322, 10.001, 9.997818 
7.1510077e+2, 2.8514913e+2, -98732.086, -380044.38, -46780.617, 0.030346481, -0.29088062, -91156.734, 54354.574, 0.0000037854625, 10.001411, 9.99771 
7.1510553e+2, 2.951466e+2, -70924.64, -315700.28, -53289.727, 0.09743434, -0.33021477, -59826.227, -12292.108, 0.000035842306, 10.000927, 9.99771 
7.1510893e+2, 3.0514374e+2, 83714.57, -127934.9, -20308.695, -0.02392498, -0.42650554, 85645.664, 85645.664, 0.00013552581, 10.001283, 9.998488 
7.151119e+2, 3.151429e+2, 205714.23, -76392.695, 50269.695, -0.24582392, -0.37319732, 214404.3, 214404.3, 0.00031572883, 10.00212, 9.998439 
7.2502565e+2, 1.25161e+2, -1495012.6, -1666534.3, 105050.266, -0.003954471, -0.0514625, -1445162.0, 268245.63, 0.0, 10.001702, 9.999521 
7.250301e+2, 1.3515833e+2, -1521609.5, -1639765.9, 28736.592, -0.097564034, -0.27593565, -1514991.3, 100440.72, 0.0, 10.000931, 9.999397 
7.2503823e+2, 1.4515838e+2, -1461166.9, -1589732.9, -23797.158, 0.22633295, -0.18590811, -1456903.5, 60528.766, 0.0, 10.000797, 9.999123 
7.250415e+2, 1.5515935e+2, -1278594.5, -1443048.6, -37470.72, 0.14886689, -0.024263822, -1270459.3, 148967.13, 0.0, 10.001351, 9.999186 
7.250458e+2, 1.6515835e+2, -1236131.8, -1426345.3, 28688.252, 0.091517575, -0.017932758, -1231899.3, 89538.36, 0.0, 10.001198, 9.998704 
7.250517e+2, 1.7515545e+2, -1261052.5, -1383532.0, 26514.568, 0.12041497, -0.19304389, -1255559.0, -32093.81, 0.0, 10.000341, 9.998734 
7.25056e+2, 1.8515505e+2, -1063375.0, -1067032.1, -29308.432, 0.08502132, -0.18261698, -1035838.1, 89629.76, 0.0, 10.000283, 10.000263 
7.250586e+2, 1.9515681e+2, -868616.3, -921231.7, -29998.988, -0.026367063, -0.047971394, -855023.7, 172425.28, 0.0, 10.000943, 10.000274 
7.2506285e+2, 2.0515703e+2, -765227.75, -856827.3, -32961.457, 0.020752158, -0.03603292, -754599.9, 174844.06, 0.0, 10.001143, 9.9999485 
7.2506875e+2, 2.1515559e+2, -706843.2, -780895.75, -63514.113, 0.22277395, -0.18638359, -670350.9, 161102.88, 0.0, 10.000878, 9.999926 
7.2507334e+2, 2.2515409e+2, -757405.6, -868370.9, 8979.568, 0.2090966, -0.27633908, -756683.7, -23217.385, 0.0, 10.000351, 9.998903 
7.250769e+2, 2.3515241e+2, -770254.0, -825104.25, 16730.338, -0.007938283, -0.34842104, -765553.7, -130071.516, 0.0, 9.999593, 9.998896 
7.250815e+2, 2.4515185e+2, -582061.7, -684685.44, -35348.438, -0.034865323, -0.29314676, -571064.5, -33576.57, 0.0, 10.00022, 9.998879 
7.25087e+2, 2.5515217e+2, -200996.97, -452059.53, -45166.047, 0.11054634, -0.16318156, -193118.83, 246366.34, 0.0, 10.002169, 9.998866 
7.250924e+2, 2.6515087e+2, -119937.35, -499635.6, 37980.63, 0.14708689, -0.11547068, -116175.48, 225322.72, 0.0, 10.002659, 9.997625 
7.250978e+2, 2.7514789e+2, -144654.36, -459523.53, 53319.863, 0.093043834, -0.19395444, -135870.23, 107657.34, 0.000000011844985, 10.001805, 9.997641 
7.251031e+2, 2.8514478e+2, -65551.29, -362967.72, 14250.868, 0.114747114, -0.26956454, -64870.008, 80686.87, 0.000004675658, 10.001642, 9.997713 
7.25108e+2, 2.9514152e+2, 101562.45, -233106.81, 24561.008, 0.19693281, -0.38322136, 103355.35, 150941.97, 0.000040333267, 10.002116, 9.9977045 
7.251109e+2, 3.051398e+2, 172278.08, -66001.78, 62322.254, 0.015928682, -0.36768508, 187594.03, 187594.03, 0.00014552723, 10.001807, 9.998662 
7.2511315e+2, 3.1513998e+2, 11646.91, -145278.77, 61402.88, -0.25807709, -0.23695655, 32817.05, 32817.05, 0.0003309744, 10.000662, 9.998674 
7.350283e+2, 1.2515517e+2, -1513708.5, -1709639.8, 75223.47, 0.06518012, -0.21694355, -1488159.6, 225300.39, 0.0, 10.001734, 9.999201 
7.350301e+2, 1.3515551e+2, -1554440.9, -1713173.5, 1003.83765, -0.21062301, -0.08674584, -1554434.5, 61025.258, 0.0, 10.000952, 9.998884 
7.350372e+2, 1.4515524e+2, -1466415.9, -1596216.8, -8683.047, 0.030044775, -0.005705897, -1465837.6, 51626.082, 0.0, 10.000787, 9.999077 
7.3504263e+2, 1.5515275e+2, -1279534.1, -1454921.0, -8533.21, 0.10168518, -0.18293186, -1279120.0, 140367.34, 0.0, 10.001392, 9.9990835 
7.3504704e+2, 1.6515172e+2, -1219642.4, -1396043.4, -11167.774, 0.08026544, -0.18430503, -1218938.1, 102560.15, 0.0, 10.001217, 9.9989 
7.3505133e+2, 1.7515196e+2, -1247024.1, -1354272.3, 955.9693, 0.03430047, -0.06474634, -1247015.5, -23517.414, 0.0, 10.00034, 9.998938 
7.3505574e+2, 1.8515159e+2, -1058854.9, -1051430.9, -9167.119, 0.020726107, -0.066362455, -1045252.75, 80248.05, 0.0, 10.0002575, 10.000382 
7.3506016e+2, 1.9515054e+2, -870070.6, -910163.06, -261.73325, 0.020242807, -0.22573812, -870068.94, 157438.4, 0.0, 10.000888, 10.000375 
7.350644e+2, 2.0514995e+2, -820598.4, -958660.56, -48988.813, 0.045278028, -0.2644733, -804982.0, 124528.99, 0.0, 10.001084, 9.999278 
7.350685e+2, 2.1514966e+2, -758914.9, -875450.94, -67952.305, 0.09532177, -0.23733766, -727669.3, 103844.125, 0.0, 10.000823, 9.9993 
7.3507303e+2, 2.2514926e+2, -738090.0, -816423.5, -26289.904, 0.12824112, -0.20429651, -730084.8, 3432.0872, 0.0, 10.0002985, 9.999288 
7.3507804e+2, 2.351486e+2, -752864.94, -774037.25, -4688.594, 0.13577934, -0.21391542, -751873.1, -116350.13, 0.0, 9.999528, 9.999279 
7.3508346e+2, 2.4514772e+2, -602450.75, -714201.5, 33393.22, 0.12268292, -0.19734837, -593232.6, -55701.35, 0.0, 10.000166, 9.998702 
7.3508906e+2, 2.5514653e+2, -226844.13, -483142.25, 32433.266, 0.088500604, -0.20372042, -222803.55, 216739.38, 0.0, 10.002074, 9.998697 
7.350945e+2, 2.651449e+2, -88850.16, -415787.84, 1508.9565, 0.07335936, -0.20874457, -88843.195, 252714.89, 0.0, 10.002578, 9.998241 
7.350997e+2, 2.7514273e+2, -112590.46, -377476.9, 31004.424, 0.08471311, -0.26602736, -109009.85, 134568.61, 0.000000051096855, 10.001738, 9.9982395 
7.351047e+2, 2.8514075e+2, -37836.77, -298500.0, 26440.123, 0.09788575, -0.2842043, -35181.883, 110415.1, 0.0000058850314, 10.001613, 9.998167 
7.3510927e+2, 2.951389e+2, 117077.63, -181337.75, 51113.41, 0.09176248, -0.3029296, 125589.68, 173203.83, 0.000044056193, 10.002033, 9.998097 
7.351121e+2, 3.051384e+2, 138662.4, -127217.74, 19225.6, -0.06120153, -0.16404231, 140045.4, 140045.4, 0.00015023218, 10.001768, 9.998261 
7.351148e+2, 3.1513792e+2, 5858.979, -135998.7, 29002.887, -0.19746192, -0.06330938, 11559.558, 11559.558, 0.0003328002, 10.000571, 9.99878 
7.4502987e+2, 1.2514903e+2, -1640783.5, -1742918.8, 2796.1113, 0.10091944, -0.28724045, -1640707.0, 72810.75, 0.0, 10.000748, 9.999439 
7.450319e+2, 1.3515016e+2, -1488065.1, -1666009.9, -56965.35, -0.13715689, -0.088687494, -1471391.3, 144119.5, 0.0, 10.001358, 9.9990015 
7.450384e+2, 1.4514986e+2, -1368858.9, -1537207.6, -18493.072, 0.04407216, -0.021322371, -1366851.4, 150663.22, 0.0, 10.001398, 9.999188 
7.450438e+2, 1.551468e+2, -1324718.3, -1460934.1, -18643.445, 0.10640286, -0.2698368, -1322212.8, 97329.62, 0.0, 10.001017, 9.999219 
7.450481e+2, 1.6514593e+2, -1254976.1, -1374938.8, -14072.442, 0.087493055, -0.27858317, -1253347.4, 68203.37, 0.0, 10.000807, 9.9992485 
7.45052e+2, 1.7514698e+2, -1159564.4, -1273316.4, -1280.876, 0.053848594, -0.112590834, -1159550.0, 63992.496, 0.0, 10.00077, 9.9992895 
7.450565e+2, 1.8514663e+2, -1084388.5, -1138677.1, -8222.071, 0.06662407, -0.09656736, -1083170.5, 42375.9, 0.0, 10.000408, 9.999712 
7.450613e+2, 1.9514477e+2, -1082723.3, -1088245.0, -68520.93, 0.10280582, -0.2684761, -1016907.56, 10656.367, 0.0, 9.999747, 9.999704 
7.4506545e+2, 2.0514417e+2, -965868.2, -1007252.75, -84823.41, 0.097124375, -0.28540784, -899249.6, 30319.988, 0.0, 9.999998, 9.999463 
7.45069e+2, 2.1514463e+2, -704438.8, -831072.6, -53411.92, 0.05823665, -0.1982731, -684919.4, 146645.81, 0.0, 10.001119, 9.999464 
7.450736e+2, 2.2514455e+2, -530168.3, -712660.9, -14132.373, 0.08864911, -0.14449039, -529080.4, 204485.2, 0.0, 10.001716, 9.999315 
7.4507904e+2, 2.3514377e+2, -418534.28, -609628.0, -31710.443, 0.17345211, -0.1684121, -413409.63, 222162.52, 0.0, 10.001806, 9.9993105 
7.450846e+2, 2.451427e+2, -431637.72, -615617.44, 45764.027, 0.17412381, -0.18127628, -420882.84, 116698.72, 0.0, 10.001266, 9.998853 
7.4509025e+2, 2.5514126e+2, -488892.0, -593499.94, 54906.934, 0.09947727, -0.22551185, -465364.06, -25769.379, 0.0, 10.0002, 9.998847 
7.450955e+2, 2.651398e+2, -452030.03, -543248.94, 16899.064, 0.06060966, -0.24541211, -449000.0, -107391.836, 0.0, 9.999869, 9.998674 
7.4510044e+2, 2.7513817e+2, -299273.7, -417411.78, 23107.396, 0.06728066, -0.2912244, -294914.8, -51291.4, 0.00000017449423, 10.000239, 9.998686 
7.4510545e+2, 2.8513697e+2, -138453.58, -313093.66, 47455.402, 0.059489436, -0.2681491, -126391.51, 19242.906, 0.0000070145306, 10.000781, 9.998465 
7.4511033e+2, 2.9513606e+2, 65197.773, -171160.17, 47970.996, 0.029110665, -0.22177637, 74562.85, 122204.914, 0.00004543542, 10.001531, 9.998405 
7.4511385e+2, 3.051353e+2, 101915.67, -177750.27, -20569.982, -0.051679946, -0.10945526, 103420.54, 103420.54, 0.00014809403, 10.001656, 9.997975 
7.4511737e+2, 3.1513324e+2, 83040.43, -75989.88, -34923.965, -0.014077128, -0.13627912, 90371.94, 90371.94, 0.00032277982, 10.001009, 9.998984 
7.550298e+2, 1.2514268e+2, -1584985.0, -1628787.6, 9184.577, -0.011976131, -0.26099244, -1583137.1, 130442.44, 0.0, 10.000761, 10.000213 
7.550354e+2, 1.3514219e+2, -1437985.1, -1568685.6, -31978.32, 0.06024967, -0.29332343, -1430580.5, 185005.06, 0.0, 10.001389, 9.999654 
7.5504166e+2, 1.451422e+2, -1345203.0, -1491832.9, -40832.008, 0.21463731, -0.24173726, -1334599.3, 182986.23, 0.0, 10.001414, 9.999493 
7.5504494e+2, 1.5514156e+2, -1301279.1, -1412942.3, -25488.672, 0.09926059, -0.27803093, -1295736.1, 123854.6, 0.0, 10.0010195, 9.999549 
7.550487e+2, 1.6514103e+2, -1217554.0, -1298259.6, -22262.918, 0.050840177, -0.29529026, -1211820.1, 109774.36, 0.0, 10.000812, 9.999771 
7.550536e+2, 1.7514062e+2, -1126312.5, -1206603.1, 2261.1467, 0.11874832, -0.32594725, -1126248.9, 97348.2, 0.0, 10.00078, 9.9997425 
7.55058e+2, 1.8514019e+2, -1184059.1, -1344145.1, -39792.844, 0.16014105, -0.26825646, -1174713.3, -49108.785, 0.0, 10.0004015, 9.998304 
7.550617e+2, 1.9513953e+2, -1185223.9, -1289819.1, -85602.72, 0.15867108, -0.18002295, -1137207.8, -109589.04, 0.0, 9.999703, 9.998341 
7.550658e+2, 2.051397e+2, -904205.06, -870712.06, -48505.03, 0.12199529, -0.10047691, -836144.0, 93475.47, 0.0, 9.999956, 10.000423 
7.5507027e+2, 2.1514055e+2, -650064.75, -696653.7, -6686.7266, 0.0561814, -0.072536916, -649124.06, 182484.77, 0.0, 10.001029, 10.000429 
7.55075e+2, 2.2514002e+2, -567137.3, -766989.9, -15604.372, 0.036964636, -0.09381331, -565926.25, 167685.42, 0.0, 10.001618, 9.99899 
7.5507975e+2, 2.3513803e+2, -452535.66, -661155.44, -21350.299, 0.052818164, -0.20525621, -450373.06, 185255.66, 0.0, 10.001728, 9.998994 
7.550849e+2, 2.4513689e+2, -408543.13, -556351.75, -616.0104, 0.06507717, -0.23255788, -408540.56, 129097.11, 0.0, 10.001218, 9.999282 
7.550904e+2, 2.551363e+2, -465059.06, -534671.3, 20388.076, 0.07710294, -0.23268545, -459527.38, -19886.383, 0.0, 10.000157, 9.999272 
7.5509536e+2, 2.6513547e+2, -436540.56, -501452.53, 26165.293, 0.043278348, -0.2288708, -427307.06, -85658.22, 0.0, 9.999833, 9.998977 
7.5509983e+2, 2.7513418e+2, -290808.16, -382031.9, 45032.137, -0.027627612, -0.26804549, -272323.72, -28661.379, 0.0000002213921, 10.000166, 9.998963 
7.551052e+2, 2.8513345e+2, -134159.19, -296713.47, 69992.31, -0.05689933, -0.21695298, -108175.44, 37493.453, 0.000006961638, 10.000744, 9.998599 
7.551112e+2, 2.9513308e+2, 65963.87, -154795.6, 83212.71, -0.056288026, -0.13238537, 93815.98, 141486.33, 0.00004401986, 10.001457, 9.998561 
7.5511587e+2, 3.0513057e+2, 79203.91, -202268.22, -46569.258, -0.028055646, -0.19674946, 86708.64, 86708.64, 0.0001416952, 10.001573, 9.99784 
7.5512034e+2, 3.1512597e+2, 88448.29, -42367.07, -49725.883, 0.1550839, -0.46264306, 105204.03, 105204.03, 0.00030697437, 10.000919, 9.999256 
7.6503015e+2, 1.251369e+2, -1631854.9, -1657701.5, 116155.05, -0.031593535, -0.28884417, -1527906.4, 185728.23, 0.0, 10.000427, 10.000185 
7.6503694e+2, 1.3513634e+2, -1586302.0, -1655143.9, -6752.921, 0.12683976, -0.3202192, -1585645.9, 29997.047, 0.0, 10.000411, 9.999537 
7.650428e+2, 1.4513655e+2, -1491079.4, -1538853.1, -44989.492, 0.24451359, -0.25297523, -1464028.8, 53612.97, 0.0, 10.000311, 9.999702 
7.6504546e+2, 1.5513673e+2, -1378463.6, -1430871.4, -51783.043, 0.08831991, -0.22637103, -1346631.9, 73007.46, 0.0, 10.000399, 9.999731 
7.650495e+2, 1.6513625e+2, -1258327.9, -1361266.0, -58943.598, 0.055630676, -0.22996195, -1231544.6, 90099.02, 0.0, 10.000718, 9.999386 
7.6505524e+2, 1.751351e+2, -1087118.9, -1227263.3, -113262.89, 0.183952, -0.29742178, -1024004.75, 199649.86, 0.0, 10.001223, 9.999387 
7.6505923e+2, 1.851345e+2, -1026302.75, -1240438.0, -136355.97, 0.20028964, -0.25020623, -960002.5, 165660.61, 0.0, 10.001367, 9.998551 
7.650615e+2, 1.9513427e+2, -956490.94, -1153294.5, -69857.625, 0.09639697, -0.14477497, -934215.5, 93455.86, 0.0, 10.001156, 9.99858 
7.6506543e+2, 2.0513447e+2, -795983.56, -838312.06, 22427.549, 0.051632833, -0.065187916, -786310.8, 143360.72, 0.0, 10.000789, 10.000246 
7.650709e+2, 2.1513493e+2, -772550.56, -776748.56, -33490.375, 0.066260755, -0.057451777, -741093.5, 90572.4, 0.0, 10.000273, 10.000247 
7.6507604e+2, 2.2513439e+2, -751601.5, -814958.7, -49961.12, 0.063452736, -0.08970408, -724122.3, 9546.258, 0.0, 10.000182, 9.999351 
7.650807e+2, 2.351328e+2, -610677.5, -698593.8, -19401.924, 0.037649292, -0.19560131, -606586.2, 29093.65, 0.0, 10.000479, 9.999336 
7.6508564e+2, 2.4513164e+2, -506203.5, -617786.44, -11569.495, 0.04717764, -0.23436154, -505016.53, 32671.947, 0.0, 10.00061, 9.999153 
7.650908e+2, 2.5513074e+2, -414033.97, -520481.03, -41293.68, 0.091392666, -0.25425175, -399893.47, 39802.188, 0.0, 10.000568, 9.999166 
7.6509595e+2, 2.6513004e+2, -308259.06, -439035.47, -24679.445, 0.08067053, -0.22990616, -303756.72, 37946.477, 0.0, 10.000715, 9.9989805 
7.65101e+2, 2.7512935e+2, -165348.17, -318866.53, -41038.867, 0.029988663, -0.21225037, -155066.22, 88646.36, 0.00000016204108, 10.001019, 9.998986 
7.6510644e+2, 2.8512868e+2, -101807.8, -233108.4, -13002.796, -0.0041769524, -0.17450766, -100532.51, 45185.13, 0.000006290961, 10.000755, 9.999033 
7.651121e+2, 2.9512796e+2, -125680.17, -193267.97, 10318.494, -0.029884228, -0.1700355, -124139.96, -76419.97, 0.000041719115, 9.999917, 9.999033 
7.651169e+2, 3.05125e+2, -98828.77, -278530.13, -69031.46, -0.0077059157, -0.3098567, -75372.41, -75372.41, 0.00013461517, 10.000309, 9.997921 
7.6512194e+2, 3.151213e+2, 200341.94, 23893.123, -85147.35, 0.19267267, -0.49343273, 234729.19, 234729.19, 0.00029000925, 10.001651, 9.999347 
7.750303e+2, 1.2513168e+2, -1685665.4, -1767321.1, 89469.03, -0.09179027, -0.37501216, -1628148.9, 85534.086, 0.00000000003061157, 10.000426, 9.999431 
7.750363e+2, 1.351326e+2, -1640605.5, -1772808.9, -6907.5522, 0.00020852216, -0.17144942, -1640245.5, -24563.264, 0.0, 10.000434, 9.998717 
7.750416e+2, 1.4513294e+2, -1480421.9, -1523568.9, -50653.086, 0.07097425, -0.057423346, -1446939.5, 70743.15, 0.0, 10.000338, 9.999799 
7.750453e+2, 1.5513238e+2, -1366725.1, -1418205.0, -41965.254, 0.013079635, -0.11194238, -1343234.6, 76453.19, 0.0, 10.0004425, 9.9998 
7.750502e+2, 1.6513158e+2, -1345692.6, -1541883.9, -45985.9, 0.044564176, -0.08721922, -1335448.8, -13750.59, 0.0, 10.000718, 9.998143 
7.750567e+2, 1.7513038e+2, -1171443.4, -1400413.5, -86186.266, 0.19434908, -0.035349198, -1142628.5, 81086.336, 0.0, 10.001215, 9.9982 
7.7506006e+2, 1.8512961e+2, -900171.9, -971671.7, -148601.89, 0.13182232, -0.0434504, -783080.1, 342641.66, 0.0, 10.001334, 10.000415 
7.750604e+2, 1.951291e+2, -834798.3, -890013.8, -72298.26, -0.13988183, -0.15313162, -785015.94, 242704.95, 0.0, 10.001107, 10.000412 
7.750642e+2, 2.0512855e+2, -898766.7, -1035108.6, -4208.169, -0.16743463, -0.17124331, -898636.94, 31088.158, 0.0, 10.000717, 9.99893 
7.7507097e+2, 2.1512786e+2, -873307.06, -968914.3, -46507.11, 0.033019513, -0.14762409, -854416.6, -22681.154, 0.0, 10.000203, 9.99896 
7.750768e+2, 2.2512771e+2, -694009.8, -676932.8, -44701.594, 0.10598044, -0.12520418, -639961.56, 93773.79, 0.0, 10.000102, 10.000338 
7.750815e+2, 2.3512793e+2, -553664.7, -562262.3, -2119.7563, 0.061412495, -0.15064377, -553170.5, 82556.41, 0.0, 10.000399, 10.000313 
7.750864e+2, 2.4512689e+2, -562291.44, -716356.25, -19764.502, 0.05615991, -0.19328141, -559796.3, -22061.725, 0.0, 10.000537, 9.998511 
7.7509147e+2, 2.5512457e+2, -467436.9, -619188.2, -35543.215, 0.08714028, -0.29167482, -459524.53, -19766.05, 0.0, 10.000515, 9.998515 
7.7509725e+2, 2.6512355e+2, -336522.28, -488213.2, -16657.842, 0.12288107, -0.25080174, -334714.53, 7056.4683, 0.0, 10.000672, 9.998664 
7.7510357e+2, 2.7512357e+2, -194864.55, -366365.3, -22448.242, 0.17079912, -0.12851998, -191974.92, 51799.715, 0.00000014054619, 10.000952, 9.998696 
7.751088e+2, 2.8512266e+2, -56613.94, -123117.65, -49630.867, 0.14257786, -0.14367725, -30125.451, 115655.44, 0.0000059856334, 10.00069, 9.999816 
7.7511287e+2, 2.9512066e+2, -77823.66, -87032.91, -12883.86, 0.035283625, -0.3409526, -68746.305, -20954.684, 0.0000396548, 9.999883, 9.999781 
7.751169e+2, 3.0511853e+2, -81729.98, -233062.2, -19014.895, -0.048110757, -0.45324546, -79377.33, -79377.33, 0.00012692052, 10.000268, 9.998252 
7.751218e+2, 3.1511903e+2, 177963.92, -3981.573, -21467.22, -0.02448745, -0.2470746, 180462.47, 180462.47, 0.00027213217, 10.001559, 9.999207 
7.850312e+2, 1.2512699e+2, -1752684.9, -1787591.8, 42401.906, -0.019129835, -0.30387774, -1724284.8, -10553.164, 0.0000000009851104, 9.999924, 9.999529 
7.8503644e+2, 1.3512751e+2, -1581481.6, -1740681.8, -7180.641, -0.039058875, -0.14376612, -1581158.4, 34574.88, 0.0, 10.000836, 9.998737 
7.850414e+2, 1.4512756e+2, -1374194.8, -1512500.9, -37425.793, -0.020480331, -0.042662024, -1364716.8, 153020.38, 0.0, 10.001238, 9.999439 
7.8504616e+2, 1.5512721e+2, -1281676.8, -1416774.6, -74343.28, 0.016759004, -0.039808586, -1248777.8, 170964.83, 0.0, 10.001206, 9.999438 
7.850513e+2, 1.6512646e+2, -1275689.0, -1457791.5, -18991.574, 0.0638206, -0.014404105, -1273729.4, 48022.773, 0.0, 10.000989, 9.998582 
7.850571e+2, 1.7512512e+2, -1240300.6, -1385237.6, 50506.855, 0.1527075, -0.021054879, -1224436.8, -669.2284, 0.0, 10.000542, 9.998622 
7.850606e+2, 1.8512443e+2, -1046602.94, -1050853.4, -17407.357, 0.10466804, -0.039332565, -1031191.5, 94581.375, 0.0, 10.000363, 10.0003395 
7.850618e+2, 1.9512415e+2, -947992.3, -952026.0, -97480.07, -0.07814979, -0.115025885, -852508.25, 175262.3, 0.0, 10.000368, 10.00034 
7.850653e+2, 2.051233e+2, -942197.7, -1081165.1, -47575.23, -0.10894771, -0.14834206, -927471.06, 2306.384, 0.0, 10.000531, 9.998698 
7.850712e+2, 2.1512179e+2, -814473.25, -967462.5, -22405.594, 0.0039299787, -0.1828272, -811259.44, 20535.064, 0.0, 10.000728, 9.9987135 
7.850766e+2, 2.2512144e+2, -637761.8, -657431.25, -9378.647, 0.06364191, -0.16658178, -634006.8, 99790.03, 0.0, 10.000515, 10.000274 
7.850818e+2, 2.3512205e+2, -630695.0, -604899.1, -56426.93, 0.07509707, -0.14579469, -559914.8, 75871.64, 0.0, 9.999896, 10.000259 
7.850871e+2, 2.4512139e+2, -606859.44, -707498.94, -42756.965, 0.09391148, -0.16303405, -591147.1, -53355.992, 0.0, 10.000102, 9.998777 
7.850926e+2, 2.5511935e+2, -365740.97, -542111.1, -5404.8823, 0.11912107, -0.25914347, -365575.5, 74235.76, 0.0, 10.001087, 9.998768 
7.850983e+2, 2.651184e+2, -285695.06, -470930.72, 36638.617, 0.15177475, -0.22051264, -278711.44, 63111.48, 0.0, 10.001046, 9.998607 
7.8510433e+2, 2.7511832e+2, -329896.44, -436302.53, 37991.58, 0.19692397, -0.10298344, -317724.25, -73896.34, 0.0000001311964, 10.000046, 9.9986515 
7.851093e+2, 2.8511733e+2, -204626.84, -202272.42, 3233.145, 0.17257002, -0.11869878, -200008.84, -54173.285, 0.0000058891046, 9.999705, 9.999749 
7.851132e+2, 2.9511547e+2, -76478.13, -90320.516, -32791.3, 0.088878825, -0.2985798, -49885.563, -2039.045, 0.000037489564, 9.999916, 9.999742 
7.8511757e+2, 3.0511394e+2, -41925.188, -154213.27, -1859.9653, -0.0066054105, -0.37310538, -41894.387, -41894.387, 0.00011865352, 10.000263, 9.998805 
7.8512293e+2, 3.1511536e+2, 53403.414, -46555.023, -13586.027, -0.016532557, -0.13467774, 55217.08, 55217.08, 0.0002544846, 10.00061, 9.999375 
7.950322e+2, 1.25123e+2, -1682705.3, -1658457.1, 49424.02, 0.05369904, -0.07370153, -1619691.9, 94086.484, 0.0000000034592607, 9.999998, 10.0003805 
7.9503727e+2, 1.3512115e+2, -1511652.3, -1606269.4, 28810.684, -0.05558444, -0.23822412, -1503569.9, 112225.12, 0.0, 10.000888, 9.999633 
7.950421e+2, 1.4512049e+2, -1430494.8, -1632792.4, -46388.18, -0.090215124, -0.21184267, -1420364.9, 97439.49, 0.0, 10.001252, 9.998607 
7.9504764e+2, 1.5512125e+2, -1331655.9, -1526866.5, -67188.15, 0.03220092, -0.018525878, -1310766.3, 109037.28, 0.0, 10.001231, 9.99867 
7.950523e+2, 1.651209e+2, -1135526.6, -1163082.3, -41581.574, 0.053047102, -0.016890457, -1105499.8, 216306.13, 0.0, 10.00097, 10.000617 
7.950564e+2, 1.7511937e+2, -1096805.6, -1093935.8, 38549.984, 0.0057739643, -0.24650311, -1056794.0, 167018.28, 0.0, 10.000563, 10.000614 
7.950607e+2, 1.8511896e+2, -1191126.3, -1341700.9, -23424.662, 0.061385464, -0.23353682, -1187566.3, -61749.75, 0.0, 10.000325, 9.998361 
7.950651e+2, 1.9511943e+2, -1088079.8, -1235906.1, -90309.664, 0.20349315, -0.038711064, -1045292.44, -17472.152, 0.0, 10.000338, 9.9984045 
7.950686e+2, 2.0511872e+2, -896898.8, -968591.5, -46550.36, 0.15708393, -0.0054940702, -873992.3, 55836.63, 0.0, 10.000453, 9.99951 
7.9507124e+2, 2.1511666e+2, -769556.3, -857223.56, -9213.896, -0.07115508, -0.17399189, -768598.44, 63245.504, 0.0, 10.000654, 9.999507 
7.950754e+2, 2.2511557e+2, -727529.94, -822417.9, -37794.55, -0.113724336, -0.21617778, -714316.2, 19536.834, 0.0, 10.000424, 9.999184 
7.9508126e+2, 2.3511526e+2, -714368.75, -765740.0, -71350.63, 0.019393219, -0.17847922, -664221.25, -28363.648, 0.0, 9.999836, 9.999186 
7.950874e+2, 2.4511513e+2, -536093.44, -547885.3, -11556.416, 0.098173805, -0.1445671, -529015.9, 8841.839, 0.0, 10.000049, 9.999899 
7.950939e+2, 2.55115e+2, -301132.84, -387422.84, 35427.027, 0.12706198, -0.1620903, -288451.63, 151403.52, 0.0, 10.000998, 9.999874 
7.950991e+2, 2.6511452e+2, -279112.13, -442380.72, -8228.235, 0.10930836, -0.14391713, -278698.47, 63161.51, 0.0, 10.000983, 9.998833 
7.9510295e+2, 2.7511352e+2, -323672.66, -414526.06, 7880.738, 0.047798894, -0.14021671, -322994.13, -79120.67, 0.000000103459534, 10.000007, 9.998821 
7.951077e+2, 2.8511277e+2, -268540.06, -330984.28, 6889.813, 0.03549597, -0.09719988, -267788.9, -121907.086, 0.0000054454867, 9.999688, 9.998873 
7.95113e+2, 2.9511222e+2, -144245.61, -219252.67, -14039.698, 0.060446303, -0.05548829, -141703.81, -93818.31, 0.00003447301, 9.99986, 9.998886 
7.951185e+2, 3.0511114e+2, 6802.8105, -40834.246, 8317.42, 0.048470665, -0.08621627, 8213.269, 8213.269, 0.0001104858, 10.000216, 9.999603 
7.9512477e+2, 3.151102e+2, 63661.883, -2363.2314, 14486.0205, 0.07480445, -0.15990382, 66700.31, 66700.31, 0.000240168, 10.000514, 9.999725 
8.050335e+2, 1.2511772e+2, -1414537.9, -1570571.9, 91904.83, 0.09167301, -0.0342946, -1372001.4, 341830.94, 0.0000000057252847, 10.002025, 10.000016 
8.0503833e+2, 1.3511531e+2, -1567450.4, -1674177.9, -28569.613, -0.02568446, -0.21955508, -1560283.9, 55570.684, 0.0, 10.000671, 9.999288 
8.0504274e+2, 1.4511412e+2, -1571500.3, -1660063.9, -77027.77, -0.09359693, -0.24420744, -1526933.0, -9065.363, 0.0, 10.000121, 9.9989605 
8.0504847e+2, 1.5511492e+2, -1422017.4, -1536243.8, -32346.76, 0.029763717, -0.07932259, -1413493.4, 6370.7446, 0.0, 10.000469, 9.998972 
8.050529e+2, 1.6511483e+2, -1212878.9, -1179125.1, -47285.746, 0.049074247, -0.07536183, -1145794.8, 176068.23, 0.0, 10.000341, 10.000815 
8.0505633e+2, 1.7511387e+2, -1210786.9, -1127604.3, -115821.66, -0.008463491, -0.2660587, -1046132.56, 177731.78, 0.0, 9.999696, 10.000803 
8.050607e+2, 1.8511368e+2, -1275302.4, -1384875.9, -129525.73, 0.059808522, -0.23847108, -1189453.0, -63585.707, 0.0, 9.999767, 9.998328 
8.050658e+2, 1.9511405e+2, -1079458.1, -1239516.0, -65558.18, 0.23666245, -0.04945588, -1056034.1, -28160.475, 0.0, 10.000434, 9.998336 
8.050695e+2, 2.0511359e+2, -855818.4, -901178.8, 25504.436, 0.20139909, -0.007086625, -844368.44, 85510.914, 0.0, 10.000528, 9.999939 
8.050719e+2, 2.1511218e+2, -836560.25, -841974.6, 20674.994, -0.031704385, -0.15526831, -818415.94, 13469.974, 0.0, 9.999992, 9.999929 
8.050762e+2, 2.2511098e+2, -802119.56, -934926.94, 16795.752, -0.07446261, -0.19495997, -800028.4, -66131.9, 0.0, 10.000243, 9.998496 
8.0508214e+2, 2.3510987e+2, -566058.94, -769405.2, 1863.3718, 0.06107883, -0.17052142, -566041.9, 69870.0, 0.0, 10.0011835, 9.998508 
8.050881e+2, 2.4510947e+2, -414914.0, -484939.22, 31046.041, 0.12723796, -0.13142443, -403131.97, 134783.78, 0.0, 10.0008545, 9.9999485 
8.0509406e+2, 2.5510958e+2, -541442.8, -497334.4, -13152.698, 0.13260096, -0.12826408, -493710.2, -53799.773, 0.0, 9.999317, 9.999933 
8.0509907e+2, 2.6510912e+2, -496463.94, -537382.0, -61260.133, 0.09320632, -0.11417073, -452336.78, -110422.445, 0.0, 9.999447, 9.998919 
8.0510324e+2, 2.7510795e+2, -146761.3, -318225.25, -67385.06, 0.017520094, -0.1408094, -123448.71, 120480.21, 0.00000004701224, 10.00117, 9.99892 
8.05108e+2, 2.8510708e+2, -40873.32, -247800.38, -68012.24, 0.01865035, -0.10173417, -20520.99, 125417.5, 0.000004093495, 10.001369, 9.998632 
8.0511326e+2, 2.951065e+2, -111387.47, -228434.3, -56982.06, 0.08767083, -0.040968735, -88228.91, -40285.19, 0.000029631305, 10.000198, 9.998654 
8.05119e+2, 3.0510584e+2, -30445.984, -108990.27, -3918.8657, 0.07679873, 0.0049730237, -30250.941, -30250.941, 0.00010221737, 10.000178, 9.999161 
8.051254e+2, 3.1510392e+2, 118824.35, -14245.316, -105654.18, 0.067070715, -0.12289318, 177148.19, 177148.19, 0.00023173615, 10.001069, 9.99938 
8.1503457e+2, 1.2511128e+2, -1523689.3, -1808130.0, 10678.762, -0.042848233, -0.1821886, -1523288.9, 190603.45, 0.000000004999778, 10.00208, 9.998355 
8.150392e+2, 1.3511002e+2, -1667403.6, -1887457.8, -74105.766, -0.017896295, -0.099867016, -1644774.8, -28863.512, 0.0, 10.000706, 9.997801 
8.1504303e+2, 1.4510861e+2, -1473334.3, -1461291.4, -69721.74, -0.09449276, -0.14127226, -1397331.6, 120594.07, 0.0, 10.000138, 10.000321 
8.150483e+2, 1.551083e+2, -1321158.0, -1337044.4, -10859.683, -0.051792502, -0.2218401, -1315646.5, 104277.35, 0.0, 10.000508, 10.000323 
8.1505275e+2, 1.6510834e+2, -1327768.9, -1417628.4, -78908.29, -0.011265619, -0.19065812, -1281895.5, 40027.4, 0.0, 10.000344, 9.999175 
8.150567e+2, 1.751086e+2, -1319278.4, -1356616.3, -133026.95, 0.04498561, -0.09797604, -1203616.8, 20307.072, 0.0, 9.999712, 9.999223 
8.150604e+2, 1.8510857e+2, -1152811.1, -1123046.1, -107797.89, 0.040968202, -0.06839436, -1029108.25, 96817.305, 0.0, 9.999733, 10.000144 
8.150637e+2, 1.9510806e+2, -957132.7, -980564.06, -33502.09, -0.03231597, -0.14601022, -933356.9, 94573.164, 0.0, 10.000408, 10.000127 
8.150679e+2, 2.0510805e+2, -868107.8, -905653.06, -1473.1794, -0.026818898, -0.14925425, -868050.1, 61877.777, 0.0, 10.000442, 9.999949 
8.1507295e+2, 2.1510834e+2, -845325.0, -844321.8, 6715.409, 0.057768665, -0.12901375, -838089.3, -6168.6504, 0.0, 9.999923, 9.999947 
8.150784e+2, 2.2510763e+2, -835546.25, -982267.9, 45208.297, 0.113008104, -0.10634662, -822735.1, -88807.375, 0.0, 10.00015, 9.998216 
8.1508416e+2, 2.3510575e+2, -599116.75, -817307.44, 42158.63, 0.13450144, -0.12774898, -591254.2, 44696.02, 0.0, 10.001094, 9.998223 
8.15089e+2, 2.4510434e+2, -492166.22, -631905.1, -34218.266, 0.12098234, -0.12861526, -484237.0, 53728.91, 0.0, 10.0007925, 9.998972 
8.15093e+2, 2.5510317e+2, -614731.75, -643887.44, -63422.477, 0.077114455, -0.1540531, -564233.3, -124256.836, 0.0, 9.999287, 9.998948 
8.1509817e+2, 2.6510233e+2, -501030.06, -536722.56, -668.05, 0.046062253, -0.13004866, -501017.56, -159032.39, 0.0, 9.999411, 9.998938 
8.151047e+2, 2.7510166e+2, -163186.5, -324797.72, 5073.5483, 0.03226545, -0.106043994, -163027.38, 80966.305, 0.000000004527389, 10.001058, 9.998928 
8.151099e+2, 2.8510034e+2, -22432.568, -200672.72, -118972.75, 0.051759344, -0.13162594, 37097.63, 183103.05, 0.0000024308686, 10.001324, 9.998982 
8.151138e+2, 2.950984e+2, -98331.92, -194835.73, -94219.27, 0.10123401, -0.24198909, -40727.707, 7293.061, 0.00002455122, 10.000163, 9.998906 
8.1511873e+2, 3.0509815e+2, -146018.39, -339218.9, 29950.621, 0.02388057, -0.084914155, -141481.86, -141481.86, 0.00009685274, 10.000146, 9.997587 
8.1512445e+2, 3.1509644e+2, 20728.625, -185064.42, -53995.23, -0.16949224, -0.037392534, 34035.28, 34035.28, 0.00023258898, 10.000932, 9.998271 
8.250362e+2, 1.2510502e+2, -1710159.8, -1850282.5, -83624.766, 0.0003671762, -0.19033664, -1671126.3, 42831.59, 0.0000000017683296, 10.000572, 9.998792 
8.2504076e+2, 1.351054e+2, -1513754.9, -1758068.5, -25750.467, 0.031271324, 0.0013864016, -1511070.4, 104887.53, 0.0, 10.001511, 9.9983 
8.250439e+2, 1.4510407e+2, -1317377.4, -1398348.1, 7230.9688, -0.06800494, -0.05335829, -1316736.6, 201233.4, 0.0, 10.001263, 10.000208 
8.250484e+2, 1.5510254e+2, -1407938.0, -1391914.8, -58519.223, -0.0639546, -0.24493219, -1340861.3, 79118.54, 0.0, 9.999975, 10.000197 
8.250527e+2, 1.6510236e+2, -1406465.9, -1463590.9, -85268.15, -0.026975494, -0.22637883, -1345103.5, -23121.887, 0.0, 9.9998455, 9.999092 
8.250571e+2, 1.7510334e+2, -1168648.6, -1297898.3, -38136.184, 0.06128783, -0.05240851, -1158235.3, 65741.945, 0.0, 10.0008, 9.9991 
8.250607e+2, 1.851034e+2, -957773.8, -986296.44, -7583.999, 0.050753336, -0.024443705, -955882.7, 170094.22, 0.0, 10.000896, 10.000518 
8.250636e+2, 1.9510248e+2, -975895.3, -946842.94, -55307.105, -0.06383884, -0.18322736, -904186.2, 123796.08, 0.0, 10.000111, 10.000493 
8.2506794e+2, 2.0510234e+2, -902011.44, -951222.44, -59817.027, -0.050020225, -0.20355208, -861936.94, 68044.0, 0.0, 10.00033, 9.999688 
8.250739e+2, 2.1510288e+2, -645850.25, -777785.0, -84484.34, 0.09516418, -0.13163494, -604629.44, 227344.44, 0.0, 10.001421, 9.999682 
8.2507974e+2, 2.2510235e+2, -625125.4, -854232.5, -34130.52, 0.16728523, -0.08800422, -620149.0, 113830.4, 0.0, 10.001473, 9.998463 
8.250852e+2, 2.3510063e+2, -674996.0, -827594.5, -12858.308, 0.16721529, -0.12013163, -673920.1, -37921.26, 0.0, 10.000459, 9.998462 
8.250898e+2, 2.4509901e+2, -593699.6, -745812.0, -53604.28, 0.14612375, -0.12146609, -576707.6, -38690.477, 0.0, 10.000386, 9.998379 
8.250935e+2, 2.5509742e+2, -366553.72, -584337.8, -66430.8, 0.10959175, -0.13600202, -347889.78, 92145.586, 0.0, 10.001268, 9.998392 
8.250989e+2, 2.6509637e+2, -271904.06, -423645.7, 37934.1, 0.09913599, -0.105945826, -262949.3, 79097.67, 0.0, 10.000964, 9.998972 
8.2510585e+2, 2.750957e+2, -387750.34, -427281.5, 33874.492, 0.120595686, -0.0851444, -368296.53, -124242.336, 0.0, 9.999487, 9.998982 
8.2511085e+2, 2.8509432e+2, -269738.78, -327944.2, -81849.83, 0.10171423, -0.11394966, -211971.69, -65905.83, 0.000001518397, 9.9996605, 9.998909 
8.251141e+2, 2.9509223e+2, 72717.17, -121289.445, -99243.01, 0.053242825, -0.23394771, 114490.0, 162572.94, 0.000022026383, 10.001373, 9.99883 
8.251192e+2, 3.0509156e+2, 27428.955, -293470.0, 50959.164, -0.004236396, -0.09786588, 35326.95, 35326.95, 0.00009707927, 10.001494, 9.997246 
8.251257e+2, 3.1508896e+2, -88037.44, -207284.64, 27600.22, -0.08555154, -0.111129776, -81959.09, -81959.09, 0.00024342752, 10.00005, 9.998532 
8.35038e+2, 1.2509902e+2, -1529376.8, -1479601.3, -75955.234, 0.0838233, -0.063530214, -1424560.3, 289468.03, 0.000000000051048894, 10.000597, 10.00132 
8.350428e+2, 1.3510157e+2, -1324002.3, -1376727.4, 15237.504, 0.06019004, 0.08229864, -1319915.5, 296078.34, 0.0, 10.001563, 10.000891 
8.350452e+2, 1.4510055e+2, -1427587.3, -1635295.9, -48296.8, -0.085468836, 0.013893288, -1416906.4, 101094.06, 0.0, 10.001299, 9.998564 
8.350484e+2, 1.550976e+2, -1512946.3, -1618182.8, -99398.76, -0.08010278, -0.15748084, -1453097.6, -33065.79, 0.0, 10.0000105, 9.998628 
8.350524e+2, 1.6509688e+2, -1307158.8, -1254576.0, -54148.668, -0.05809974, -0.18911293, -1220673.5, 101365.6, 0.0, 9.999834, 10.000535 
8.350574e+2, 1.7509821e+2, -1066007.5, -1089411.8, 5622.911, -0.009333699, -0.12168385, -1064726.6, 159296.73, 0.0, 10.000821, 10.000522 
8.3506167e+2, 1.8509835e+2, -1035760.5, -1147857.3, -43769.816, 0.0345802, -0.10222051, -1020694.8, 105325.79, 0.0, 10.000891, 9.999415 
8.350652e+2, 1.9509713e+2, -1051695.3, -1102499.5, -77463.016, 0.06768259, -0.17948566, -995575.6, 32456.168, 0.0, 10.000096, 9.999435 
8.3506954e+2, 2.0509636e+2, -949559.6, -1033358.25, -24258.328, 0.06284208, -0.18494889, -943043.9, -13004.397, 0.0, 10.000259, 9.999157 
8.350748e+2, 2.1509588e+2, -692518.7, -857380.75, -36475.453, 0.023063544, -0.16600567, -684809.06, 147235.98, 0.0, 10.001347, 9.999167 
8.3508e+2, 2.2509532e+2, -585505.6, -752601.44, -79964.055, 0.039407246, -0.13630405, -553405.4, 180644.88, 0.0, 10.001386, 9.999206 
8.3508515e+2, 2.3509459e+2, -630853.8, -724780.0, -43924.76, 0.09885261, -0.14491843, -613513.6, 22543.057, 0.0, 10.000402, 9.999198 
8.350903e+2, 2.450936e+2, -618766.0, -783579.94, -26548.885, 0.14224285, -0.109566316, -614594.94, -76526.164, 0.0, 10.000324, 9.99815 
8.350955e+2, 2.5509217e+2, -395543.13, -626970.1, -26294.291, 0.17114106, -0.08133991, -392593.22, 47494.848, 0.0, 10.001188, 9.99814 
8.351009e+2, 2.6509106e+2, -273073.6, -412820.84, -21532.893, 0.19426475, -0.050763182, -269830.94, 72270.37, 0.0, 10.000909, 9.999071 
8.351064e+2, 2.750901e+2, -390274.94, -421095.22, -12116.338, 0.21538663, -0.070551485, -386082.06, -141971.56, 0.0, 9.999436, 9.999051 
8.351107e+2, 2.8508908e+2, -306378.4, -392919.53, -21809.025, 0.10792313, -0.045083437, -301193.03, -155073.22, 0.0000012583888, 9.999619, 9.998481 
8.351139e+2, 2.9508787e+2, 27822.834, -192827.06, -27470.49, -0.11879307, -0.031109726, 31191.43, 79322.8, 0.000022671806, 10.001283, 9.9983835 
8.351202e+2, 3.0508596e+2, 76838.31, -173162.64, -3289.4868, -0.070196345, -0.038727842, 76881.586, 76881.586, 0.0001036696, 10.001423, 9.998107 
8.3512866e+2, 3.150816e+2, 3110.914, 1481.0945, -2381.631, 0.16847333, -0.31242338, 4813.194, 4813.194, 0.00026236358, 9.99997, 10.000006 
8.4503895e+2, 1.2509394e+2, -1337579.0, -1355312.4, 96690.09, 0.06532053, -0.075242735, -1249349.9, 464724.78, 0.0, 10.001778, 10.001609 
8.450442e+2, 1.35096e+2, -1442010.3, -1393717.5, 5381.0347, 0.09831627, -0.012072487, -1393125.1, 222918.48, 0.0, 10.000591, 10.001244 
8.450467e+2, 1.4509512e+2, -1568683.3, -1704958.0, -70053.36, -0.0199759, -0.082299955, -1539095.6, -21046.629, 0.0, 10.000342, 9.998544 
8.450496e+2, 1.5509297e+2, -1345836.8, -1543262.5, -15262.767, -0.013550135, -0.17167795, -1344663.9, 75410.43, 0.0, 10.001182, 9.998579 
8.450531e+2, 1.6509236e+2, -1125825.8, -1176855.1, 49350.19, -0.024920475, -0.18483186, -1095784.6, 226295.77, 0.0, 10.001113, 10.000458 
8.450574e+2, 1.750932e+2, -1185968.1, -1156669.1, -16099.746, -0.039565556, -0.15805812, -1149551.4, 74517.234, 0.0, 10.00004, 10.000438 
8.450619e+2, 1.8509296e+2, -1177793.4, -1259204.6, -75336.22, 0.018783532, -0.15356916, -1132869.0, -6799.373, 0.0, 10.000098, 9.99903 
8.4506655e+2, 1.9509149e+2, -920940.4, -1085005.6, -68974.68, 0.14014305, -0.21736388, -895796.25, 132288.4, 0.0, 10.001189, 9.999029 
8.45071e+2, 2.050906e+2, -803701.44, -986487.8, 31730.357, 0.13424473, -0.20503245, -798349.94, 131744.66, 0.0, 10.001359, 9.998954 
8.4507555e+2, 2.1509002e+2, -827984.1, -949098.56, 29250.73, 0.012882668, -0.17042921, -821289.75, 10811.986, 0.0, 10.000525, 9.998939 
8.450804e+2, 2.2508924e+2, -745908.7, -832830.9, -35828.785, -0.0025381881, -0.1524118, -733044.2, 1065.7827, 0.0, 10.000314, 9.99916 
8.4508544e+2, 2.3508814e+2, -593265.0, -710661.25, -77312.82, 0.07917613, -0.1917468, -554892.3, 81227.79, 0.0, 10.000696, 9.999146 
8.450907e+2, 2.4508737e+2, -534195.9, -699185.7, -33370.57, 0.13391854, -0.15022649, -527702.0, 10427.797, 0.0, 10.000709, 9.998547 
8.450961e+2, 2.5508672e+2, -492679.75, -625551.06, -608.4538, 0.16179174, -0.08548208, -492676.97, -52536.168, 0.0, 10.000316, 9.998564 
8.451015e+2, 2.6508594e+2, -338604.0, -461543.5, 11353.025, 0.18602307, -0.035573132, -337564.38, 4586.2495, 0.0, 10.000538, 9.998913 
8.4510684e+2, 2.7508494e+2, -116999.625, -302960.34, -8099.518, 0.22039755, -0.04453938, -116647.516, 127513.01, 0.0000000050987805, 10.00138, 9.998922 
8.451111e+2, 2.850839e+2, -84252.42, -305058.3, 17103.469, 0.10930566, -0.005738293, -82935.46, 63235.883, 0.0000017149706, 10.001223, 9.998313 
8.451143e+2, 2.9508257e+2, -166252.69, -295982.88, 15826.916, -0.13238826, 0.014069386, -164349.73, -116163.74, 0.0000255943, 9.999998, 9.998288 
8.45121e+2, 3.0508038e+2, -131698.66, -184396.36, 38588.473, -0.029174678, -0.064478174, -111321.375, -111321.375, 0.000114907256, 9.999593, 9.998923 
8.451301e+2, 3.150774e+2, 76586.195, 158550.16, 19793.955, 0.31655526, -0.278914, 163079.97, 163079.97, 0.00028673265, 9.999934, 10.001116 
8.5503864e+2, 1.2508987e+2, -1477406.1, -1654015.8, 23190.879, -0.18044688, -0.22373004, -1474411.6, 239684.64, 0.0, 10.001817, 9.99954 
8.5504484e+2, 1.3508879e+2, -1575784.1, -1673094.1, -38406.895, 0.09174782, -0.2760012, -1562452.0, 53654.375, 0.0, 10.000612, 9.9993105 
8.550482e+2, 1.450879e+2, -1450124.6, -1469652.0, -44761.563, 0.07848063, -0.33343825, -1414074.3, 104040.32, 0.0, 10.000378, 10.000148 
8.550518e+2, 1.5508863e+2, -1228412.4, -1313068.5, 25875.518, 0.07024127, -0.29271123, -1221129.9, 198976.86, 0.0, 10.001233, 10.000136 
8.5505474e+2, 1.6508882e+2, -1241676.0, -1416968.4, 3294.22, 0.011205891, -0.21858563, -1241614.1, 80491.53, 0.0, 10.001113, 9.99881 
8.550571e+2, 1.7508827e+2, -1293993.4, -1385457.5, -49618.746, -0.08834355, -0.17154735, -1272246.3, -48133.13, 0.0, 10.000058, 9.998858 
8.550614e+2, 1.8508725e+2, -1160755.5, -1219155.0, -38366.58, -0.055888485, -0.1814698, -1141741.0, -15616.91, 0.0, 10.000075, 9.999318 
8.5506743e+2, 1.9508561e+2, -901749.0, -1044812.9, -21756.059, 0.09532713, -0.289777, -898513.7, 129626.3, 0.0, 10.001182, 9.9993105 
8.5507226e+2, 2.0508508e+2, -805187.8, -978373.06, -6509.8315, 0.11339172, -0.25930426, -804943.44, 125202.336, 0.0, 10.0013075, 9.999038 
8.5507613e+2, 2.1508537e+2, -829541.44, -936713.25, 5663.4927, 0.001484025, -0.14866053, -829243.0, 2900.7788, 0.0, 10.000455, 9.999059 
8.550806e+2, 2.2508407e+2, -824200.7, -973087.94, -26530.447, -0.019611238, -0.1434487, -819614.5, -85455.83, 0.0, 10.000217, 9.998245 
8.550859e+2, 2.3508114e+2, -664561.7, -845139.9, -53665.906, 0.047091532, -0.27448675, -649816.75, -13626.301, 0.0, 10.000634, 9.998254 
8.550908e+2, 2.4508026e+2, -472533.25, -556614.8, -53669.97, 0.06281333, -0.25053498, -446398.56, 91802.25, 0.0, 10.000648, 9.999556 
8.5509527e+2, 2.5508112e+2, -432277.25, -486252.66, -9712.354, 0.03241667, -0.13769257, -430582.8, 9610.274, 0.0, 10.000252, 9.999555 
8.5510063e+2, 2.6508102e+2, -372893.06, -518267.97, 36042.293, 0.041423447, -0.049497306, -364447.8, -22252.998, 0.0, 10.000477, 9.998553 
8.5510695e+2, 2.7508003e+2, -157073.72, -365591.25, 31372.846, 0.08136743, -0.016599502, -152455.75, 91750.06, 0.0000001292932, 10.001292, 9.998538 
8.551118e+2, 2.8507867e+2, -83738.125, -288101.84, -32359.582, 0.041740596, -0.0013421237, -78736.61, 67484.87, 0.0000031613251, 10.001154, 9.998461 
8.551152e+2, 2.9507646e+2, -163426.06, -279770.06, -22985.484, -0.06708317, -0.08497575, -159049.58, -110803.11, 0.000030116835, 9.999945, 9.998429 
8.551215e+2, 3.0507466e+2, -87454.42, -68971.05, 47640.855, 0.050143573, -0.168584, -29683.773, -29683.773, 0.0001273879, 9.999515, 9.999744 
8.551296e+2, 3.150759e+2, 97998.336, 251458.8, 51840.29, 0.2521518, -0.037671257, 267329.56, 267329.56, 0.00031292182, 9.999751, 10.001835 
8.6503947e+2, 1.2508474e+2, -1778271.1, -1885526.4, -58041.867, -0.18263444, -0.3533694, -1752874.9, -38738.688, 0.00000000000000000000885557, 10.000137, 9.998751 
8.6504567e+2, 1.3508302e+2, -1499238.1, -1719979.3, -39705.31, 0.0736247, -0.40022188, -1492313.4, 123844.24, 0.0, 10.00148, 9.998577 
8.650491e+2, 1.4508246e+2, -1233878.8, -1338785.8, -35426.617, 0.0724135, -0.40036613, -1223036.0, 295129.6, 0.0, 10.001756, 10.000377 
8.650531e+2, 1.5508437e+2, -1227738.9, -1289027.5, -83211.65, 0.08673256, -0.2628139, -1169708.3, 250438.7, 0.0, 10.0011425, 10.000344 
8.6505604e+2, 1.6508454e+2, -1253411.9, -1428439.5, -98422.86, 0.03822444, -0.19771743, -1209222.5, 112923.1, 0.0, 10.001053, 9.998757 
8.650581e+2, 1.7508289e+2, -1096271.0, -1299079.4, -47998.445, -0.064693496, -0.25586227, -1085485.0, 138677.4, 0.0, 10.001447, 9.998782 
8.65062e+2, 1.8508172e+2, -1011618.8, -1147793.3, 31968.305, -0.05053972, -0.276006, -1004487.44, 121687.12, 0.0, 10.001104, 9.999309 
8.650677e+2, 1.9508094e+2, -1076931.9, -1130668.1, 16427.434, 0.07428798, -0.2988747, -1072307.9, -44124.34, 0.0, 9.999992, 9.99929 
8.650727e+2, 2.050806e+2, -994841.56, -1051862.1, 35699.18, 0.1000668, -0.25369275, -977665.2, -47477.934, 0.0, 9.999936, 9.999185 
8.6507696e+2, 2.1508051e+2, -765003.06, -890882.06, 34628.6, 0.028385567, -0.19515814, -756105.75, 76082.055, 0.0, 10.000843, 9.999182 
8.650817e+2, 2.2507924e+2, -711564.4, -947030.2, 40348.754, 0.025363844, -0.17932443, -704842.25, 29360.355, 0.0, 10.001107, 9.997998 
8.6508703e+2, 2.3507673e+2, -670389.6, -874333.94, 51158.598, 0.09134612, -0.2465246, -658276.2, -22044.197, 0.0, 10.0007105, 9.9980135 
8.650916e+2, 2.4507563e+2, -490013.38, -598455.6, 36172.125, 0.08070711, -0.2183707, -479055.1, 59190.27, 0.0, 10.000678, 9.999249 
8.650955e+2, 2.5507566e+2, -341198.28, -476385.44, -30747.594, -0.004794818, -0.15353148, -334533.5, 105712.02, 0.0, 10.001029, 9.999247 
8.6510074e+2, 2.6507524e+2, -316659.56, -473328.75, 539.1471, -0.007829422, -0.09398343, -316657.7, 25592.262, 0.0000000005766255, 10.000777, 9.998716 
8.651074e+2, 2.7507424e+2, -342770.56, -435254.34, 21606.748, 0.07272826, -0.077424414, -337971.66, -93712.62, 0.000000514823, 9.999923, 9.998716 
8.651123e+2, 2.8507298e+2, -334273.4, -438381.9, -43354.297, 0.06685478, -0.050934553, -318583.72, -172309.39, 0.0000054394536, 9.999556, 9.998204 
8.651155e+2, 2.9507092e+2, -212465.23, -324186.03, -73725.21, -0.006461367, -0.09214536, -175828.11, -127528.21, 0.000035908153, 9.999701, 9.998242 
8.651217e+2, 3.0506897e+2, -43175.086, -26298.602, -4766.851, 0.110375725, -0.19475055, -25045.26, -25045.26, 0.00014004746, 9.999706, 9.999948 
8.6512935e+2, 3.1507123e+2, 27516.686, 197617.16, -61977.688, 0.27600747, 0.016080802, 217803.67, 217803.67, 0.0003371157, 9.999337, 10.0016575 
8.7504107e+2, 1.2507874e+2, -1735554.1, -1815793.3, -30073.006, -0.07740998, -0.4543265, -1725534.1, -11341.895, 0.0000000055054987, 10.000207, 9.999198 
8.750463e+2, 1.350787e+2, -1456191.1, -1631230.5, 14178.029, -0.021086812, -0.39507234, -1455050.3, 161146.95, 0.0, 10.001485, 9.999178 
8.7504935e+2, 1.4507884e+2, -1320268.3, -1524128.0, -64793.09, -0.095900856, -0.28938594, -1301418.0, 216783.31, 0.0, 10.001778, 9.999096 
8.750534e+2, 1.550802e+2, -1309029.5, -1459842.4, -98900.61, -0.01865242, -0.08528451, -1260067.6, 160126.75, 0.0, 10.001157, 9.999161 
8.7505686e+2, 1.6507962e+2, -1145386.5, -1208264.0, -89744.93, 0.002489399, -0.11541013, -1081733.0, 240466.27, 0.0, 10.001064, 10.000266 
8.7506014e+2, 1.7507707e+2, -988910.6, -1082685.6, -27531.756, -0.025252968, -0.4098795, -981425.0, 242790.98, 0.0, 10.001471, 10.000258 
8.7506354e+2, 1.8507645e+2, -1037433.06, -1196672.3, -16028.039, -0.02048616, -0.43268657, -1035835.8, 90384.555, 0.0, 10.001085, 9.998982 
8.750673e+2, 1.9507737e+2, -1098732.4, -1173034.3, -18678.12, 0.015092234, -0.25437507, -1094301.3, -66085.766, 0.0, 9.999977, 9.999006 
8.750722e+2, 2.0507705e+2, -993999.8, -1035672.1, 63398.15, 0.03807002, -0.20161109, -948101.6, -17881.781, 0.0, 9.999875, 9.999327 
8.750781e+2, 2.1507545e+2, -764643.75, -875545.94, 73500.35, 0.040948894, -0.30855602, -728023.5, 104210.38, 0.0, 10.00078, 9.999318 
8.750835e+2, 2.2507481e+2, -692128.75, -891433.0, 17990.623, 0.08078376, -0.25694752, -690517.75, 43723.773, 0.0, 10.001039, 9.998414 
8.750885e+2, 2.350749e+2, -651900.0, -820326.1, 41950.547, 0.15775993, -0.10672701, -642029.6, -5784.684, 0.0, 10.000637, 9.998422 
8.750929e+2, 2.4507342e+2, -613518.1, -838393.2, 43064.64, 0.12633356, -0.05475854, -605553.1, -67289.42, 0.0, 10.000606, 9.997636 
8.7509656e+2, 2.5507033e+2, -466710.47, -716356.9, -10001.12, -0.016097113, -0.1416741, -466310.44, -26011.836, 0.0, 10.000941, 9.99764 
8.7510157e+2, 2.6506847e+2, -276133.0, -380154.25, -35500.883, -0.017034732, -0.17816892, -265172.06, 77144.58, 0.0000000691861, 10.000733, 9.999379 
8.7510794e+2, 2.7506763e+2, -306018.3, -343851.3, -3496.8577, 0.11933162, -0.2155983, -305697.8, -61378.043, 0.000001269736, 9.999856, 9.999377 
8.751126e+2, 2.850669e+2, -378644.9, -525323.0, -45576.46, 0.12201189, -0.137124, -365636.8, -219307.97, 0.000008255043, 9.999531, 9.997622 
8.7511533e+2, 2.9506585e+2, -259469.63, -412243.2, -60186.24, -0.0057659387, -0.017273793, -238607.64, -190260.05, 0.000042714033, 9.999654, 9.997665 
8.751214e+2, 3.0506316e+2, -73958.04, -74627.37, -16277.184, 0.09820312, -0.15391178, -58012.08, -58012.08, 0.00015286829, 9.999649, 9.999635 
8.751288e+2, 3.150633e+2, -62353.223, 28912.256, -52949.246, 0.25156277, -0.11866866, 53179.227, 53179.227, 0.0003572186, 9.999268, 10.000529 
8.850422e+2, 1.2507394e+2, -1670118.6, -1718213.3, -48325.51, 0.009934263, -0.3752809, -1640188.0, 74055.4, 0.00000006865043, 10.00037, 9.999793 
8.8504696e+2, 1.3507433e+2, -1590658.5, -1626099.9, -16347.104, -0.04505231, -0.33714616, -1584270.0, 31971.043, 0.0, 10.000253, 9.999814 
8.850498e+2, 1.4507446e+2, -1542613.3, -1637501.4, -56334.6, -0.15527745, -0.25991496, -1516405.9, 1837.8612, 0.0, 10.000286, 9.999034 
8.8505363e+2, 1.5507516e+2, -1379489.1, -1505267.3, -19175.951, -0.07751121, -0.113437735, -1376630.5, 43612.816, 0.0, 10.000714, 9.999065 
8.850576e+2, 1.6507465e+2, -1161744.9, -1181719.6, 5383.988, -0.016826557, -0.14573896, -1160386.1, 161861.55, 0.0, 10.000818, 10.000564 
8.850617e+2, 1.75073e+2, -1096051.5, -1101424.1, -37226.39, 0.031942807, -0.3784576, -1061414.6, 162841.4, 0.0, 10.000606, 10.0005455 
8.850654e+2, 1.8507262e+2, -1031971.94, -1199439.6, -47983.656, 0.05086225, -0.3883856, -1019197.8, 107060.016, 0.0, 10.001142, 9.998938 
8.8506866e+2, 1.9507319e+2, -755332.6, -1012435.3, -46499.402, 0.0374032, -0.24115124, -747181.25, 281074.47, 0.0, 10.00236, 9.9989605 
8.8507324e+2, 2.0507246e+2, -654621.8, -907934.7, 31609.197, 0.034743376, -0.21025585, -650737.1, 279526.88, 0.0, 10.002356, 9.999011 
8.8507897e+2, 2.1507044e+2, -737211.9, -897211.9, -1775.8705, 0.04452601, -0.32837054, -737192.1, 95090.78, 0.0, 10.001114, 9.999012 
8.850842e+2, 2.2506967e+2, -705551.6, -871641.3, -57204.23, 0.06387597, -0.283967, -687756.2, 46535.277, 0.0, 10.000836, 9.998643 
8.8508886e+2, 2.3506996e+2, -509242.63, -726363.3, -64505.434, 0.092129774, -0.13369258, -491524.3, 144767.31, 0.0, 10.001512, 9.998645 
8.8509345e+2, 2.450686e+2, -513690.13, -803871.7, -18865.715, 0.086149186, -0.07807603, -512468.75, 25840.105, 0.0, 10.0013485, 9.997517 
8.850978e+2, 2.5506538e+2, -550264.0, -769953.56, 25597.947, 0.04773116, -0.16557442, -547320.75, -106976.34, 0.00000000006372724, 10.000416, 9.997527 
8.851027e+2, 2.6506326e+2, -370062.0, -460734.4, 36820.203, 0.046749704, -0.20519191, -356993.6, -14627.946, 0.00000025387644, 10.000249, 9.999056 
8.85108e+2, 2.7506208e+2, -179222.72, -317719.03, -18071.139, 0.08661548, -0.24513493, -176903.61, 67470.6, 0.0000021793016, 10.000885, 9.999058 
8.8511246e+2, 2.8506115e+2, -151198.58, -398430.53, -55646.395, 0.086949944, -0.17522034, -139251.17, 7133.1704, 0.000011106664, 10.001033, 9.99776 
8.8511616e+2, 2.9506025e+2, -95629.68, -313254.78, -31209.186, 0.056770336, -0.05866836, -91242.48, -42843.664, 0.000049522223, 10.000705, 9.997829 
8.8512206e+2, 3.050578e+2, 35079.418, -108543.336, 37625.58, 0.14806555, -0.13807288, 44339.35, 44339.35, 0.00016466355, 10.00076, 9.99888 
8.8512826e+2, 3.1505778e+2, 97783.3, -38817.258, -46005.945, 0.19106509, -0.037257444, 111832.734, 111832.734, 0.00037254568, 10.000991, 9.999248 
8.950423e+2, 1.2507029e+2, -1620710.0, -1616048.5, -76218.18, -0.04851941, -0.121784315, -1542125.4, 172164.33, 0.00000033567557, 10.000383, 10.0004835 
8.950473e+2, 1.3507012e+2, -1540623.8, -1520254.6, -18543.813, -0.048765674, -0.20750934, -1509282.8, 107004.29, 0.00000000007521531, 10.000261, 10.000529 
8.950501e+2, 1.4506963e+2, -1459997.9, -1477924.0, -48910.83, -0.16755617, -0.284568, -1419235.6, 99054.15, 0.0, 10.000326, 10.000116 
8.950538e+2, 1.5506937e+2, -1301717.6, -1351352.6, 4769.2935, -0.15400948, -0.33907467, -1301263.5, 119029.13, 0.0, 10.000742, 10.000111 
8.950579e+2, 1.6506974e+2, -1226039.8, -1321874.1, -8371.534, -0.085529596, -0.28365117, -1225314.0, 96975.875, 0.0, 10.000842, 9.999591 
8.950627e+2, 1.7507061e+2, -1159015.6, -1236551.4, -36828.52, 0.0532076, -0.17259626, -1144311.1, 79971.555, 0.0, 10.000622, 9.99961 
8.950672e+2, 1.8507019e+2, -1021405.06, -1172734.0, -7871.846, 0.10898735, -0.14933246, -1020996.7, 105290.3, 0.0, 10.001119, 9.999133 
8.9507157e+2, 1.9506837e+2, -749182.8, -990440.75, 4705.213, 0.07781014, -0.25966588, -749091.1, 279212.7, 0.0, 10.002316, 9.999133 
8.950757e+2, 2.0506686e+2, -717055.4, -1020682.94, -21565.273, 0.033757776, -0.27973512, -715531.4, 214787.78, 0.0, 10.002283, 9.998272 
8.950796e+2, 2.1506546e+2, -801096.94, -1008074.0, -40542.445, -0.021507977, -0.26202148, -793438.9, 38895.625, 0.0, 10.001023, 9.998292 
8.950837e+2, 2.2506392e+2, -719115.44, -881095.5, -37362.97, -0.081450686, -0.2594603, -710912.56, 23438.674, 0.0, 10.00075, 9.998623 
8.95088e+2, 2.3506212e+2, -522193.94, -733619.06, -31959.914, -0.16049255, -0.3192985, -517468.38, 118902.055, 0.0, 10.001424, 9.998637 
8.9509314e+2, 2.4506117e+2, -428383.44, -615703.9, -60520.18, -0.09139382, -0.28544086, -410531.66, 127848.4, 0.0, 10.001299, 9.998835 
8.950991e+2, 2.5506085e+2, -470636.5, -586577.3, -3127.0266, 0.12188939, -0.21652241, -470552.22, -30169.734, 0.0000000002378373, 10.00034, 9.998823 
8.951038e+2, 2.6505968e+2, -464895.38, -648083.44, 54204.555, 0.12325499, -0.16052599, -450058.22, -107662.18, 0.00000030747992, 10.000208, 9.997788 
8.951073e+2, 2.7505755e+2, -280231.72, -508912.56, 13673.827, -0.08615016, -0.1672028, -279417.0, -34994.836, 0.0000026197797, 10.000808, 9.997783 
8.9511186e+2, 2.850557e+2, -102860.59, -289427.84, -72739.016, -0.094212554, -0.16662854, -77853.06, 68587.91, 0.000013171274, 10.00099, 9.99853 
8.951175e+2, 2.95054e+2, -43649.42, -201670.95, -35776.1, 0.103004396, -0.21065809, -35927.09, 12527.111, 0.000055655084, 10.000679, 9.998611 
8.951234e+2, 3.0505285e+2, -53333.125, -275742.56, 42340.273, 0.1952064, -0.14306018, -45545.457, -45545.457, 0.00017577781, 10.000704, 9.997751 
8.9512736e+2, 3.150539e+2, -20136.455, -255696.64, -15232.18, -0.023561534, 0.18064117, -19155.57, -19155.57, 0.0003866523, 10.000878, 9.997805 
9.050432e+2, 1.2506595e+2, -1549718.3, -1586389.6, 70153.69, -0.007862025, -0.14446026, -1495543.8, 218787.0, 0.0000010657902, 10.000888, 10.00045 
9.050476e+2, 1.3506581e+2, -1627854.3, -1566598.4, 51824.473, -0.0062010046, -0.2238394, -1537028.0, 79299.15, 0.000000007369457, 9.999677, 10.000498 
9.050506e+2, 1.450652e+2, -1544161.9, -1485172.3, 34561.89, -0.116598494, -0.32475305, -1469230.6, 49098.867, 0.0, 9.99961, 10.000404 
9.050547e+2, 1.5506442e+2, -1277790.6, -1307939.6, 13227.326, -0.13525368, -0.46361142, -1272810.1, 147525.0, 0.0, 10.000775, 10.000389 
9.05059e+2, 1.6506495e+2, -1177789.1, -1327049.1, -21814.084, -0.08434586, -0.3936487, -1174666.4, 147664.75, 0.0, 10.001299, 9.999335 
9.0506345e+2, 1.7506658e+2, -1092992.4, -1231229.4, -12871.11, 0.04743961, -0.18001479, -1091804.3, 132515.14, 0.0, 10.001193, 9.999368 
9.0506816e+2, 1.8506622e+2, -1025504.9, -1183766.3, 71865.31, 0.095334314, -0.13515195, -997741.7, 128582.69, 0.0, 10.001129, 9.999051 
9.0507305e+2, 1.9506381e+2, -928024.8, -1088086.5, 54360.08, 0.05476578, -0.29539502, -911308.8, 117038.25, 0.0, 10.001127, 9.999041 
9.050772e+2, 2.0506221e+2, -916626.06, -1130280.3, 1421.594, 0.027791347, -0.3134436, -916616.56, 13747.106, 0.0, 10.000967, 9.998153 
9.0508074e+2, 2.1506117e+2, -865700.6, -1055542.5, 10679.859, 0.016514413, -0.24605028, -865101.75, -32725.299, 0.0, 10.000643, 9.998152 
9.0508467e+2, 2.2505963e+2, -779117.75, -911466.9, 86032.69, -0.041555297, -0.23631594, -736753.4, -2359.9731, 0.0, 10.000352, 9.998604 
9.050888e+2, 2.3505743e+2, -709729.1, -827613.7, 77583.72, -0.15346001, -0.33088392, -671237.2, -34821.18, 0.0, 10.0001545, 9.998603 
9.0509385e+2, 2.4505633e+2, -538180.4, -669797.7, 3911.0247, -0.10504811, -0.30989382, -538064.25, 362.302, 0.0, 10.000553, 9.9988165 
9.050998e+2, 2.5505614e+2, -292976.75, -503178.9, -51680.37, 0.09799176, -0.22606622, -280957.8, 159469.06, 0.0, 10.001569, 9.998801 
9.051045e+2, 2.6505506e+2, -317872.25, -634905.9, -12532.695, 0.11004705, -0.13649014, -317377.6, 25063.678, 0.0000002007212, 10.001471, 9.9972725 
9.051081e+2, 2.7505288e+2, -386511.8, -617292.2, -12577.252, -0.05831619, -0.094819084, -385828.4, -141357.06, 0.0000025589381, 10.00032, 9.997275 
9.051128e+2, 2.8505078e+2, -172143.64, -262412.4, -42051.426, -0.059843317, -0.121238396, -155589.81, -9097.86, 0.000014749117, 10.000254, 9.999074 
9.051185e+2, 2.9504874e+2, 72347.516, -82850.48, -37026.934, 0.11269032, -0.24855487, 80728.74, 129232.055, 0.00006245814, 10.001217, 9.9991665 
9.051242e+2, 3.0504802e+2, 33502.453, -269732.78, 53712.42, 0.17124057, -0.15321325, 42735.47, 42735.47, 0.00018870574, 10.001448, 9.997439 
9.051274e+2, 3.150484e+2, -64613.457, -312336.34, 38342.813, -0.09643065, 0.13499561, -58814.465, -58814.465, 0.00040376265, 10.000718, 9.997498 
9.150444e+2, 1.2506135e+2, -1591666.4, -1692120.9, 6559.556, -0.015152253, -0.40995976, -1591239.9, 123122.67, 0.000002613721, 10.000969, 9.999684 
9.1504776e+2, 1.3506143e+2, -1676039.5, -1672834.4, 10061.994, 0.025440427, -0.39132634, -1664248.1, -47887.035, 0.00000007607973, 9.999701, 9.999757 
9.1505086e+2, 1.4506114e+2, -1577969.6, -1560304.6, 71465.125, -0.06929788, -0.39733583, -1497128.3, 21235.041, 0.0, 9.99963, 9.999881 
9.150562e+2, 1.5506035e+2, -1308470.0, -1378111.8, 64870.027, -0.08319013, -0.48655295, -1269666.0, 150704.36, 0.0, 10.000802, 9.999894 
9.1506046e+2, 1.6506034e+2, -1146227.6, -1264258.0, -34196.008, -0.07618044, -0.466615, -1137036.0, 185334.45, 0.0, 10.00131, 9.99976 
9.150639e+2, 1.7506102e+2, -1064909.0, -1172649.5, -11519.838, -0.04202542, -0.39065126, -1063691.0, 160673.69, 0.0, 10.001189, 9.999773 
9.1506803e+2, 1.8506077e+2, -1051565.1, -1232519.9, 65126.02, -0.04561443, -0.33824363, -1030563.56, 95805.74, 0.0, 10.001105, 9.99873 
9.1507286e+2, 1.9505951e+2, -957424.56, -1138653.6, 61674.523, -0.088035166, -0.35123393, -938427.3, 89957.87, 0.0, 10.001083, 9.998715 
9.150776e+2, 2.0505856e+2, -896262.9, -1073917.6, -16594.154, -0.042318195, -0.3083335, -894726.1, 35671.055, 0.0, 10.000905, 9.998569 
9.150823e+2, 2.1505772e+2, -847780.75, -999784.2, 4450.6494, 0.09365814, -0.26597613, -847650.5, -15243.177, 0.0, 10.000566, 9.9985695 
9.1508675e+2, 2.2505684e+2, -789372.94, -923519.1, 70598.21, 0.11951051, -0.20653826, -759065.8, -24648.104, 0.0, 10.000306, 9.998547 
9.1509104e+2, 2.3505585e+2, -723256.94, -840903.44, 76657.1, 0.04301128, -0.17565285, -685454.7, -49025.35, 0.0, 10.000091, 9.998542 
9.150954e+2, 2.450541e+2, -635569.44, -861535.3, 37071.816, -0.026063541, -0.15319434, -629642.94, -91194.54, 0.0, 10.0005045, 9.997526 
9.150997e+2, 2.550514e+2, -394681.16, -697841.8, -5284.826, -0.0844579, -0.1890453, -394589.06, 45887.477, 0.0, 10.001494, 9.997505 
9.1510457e+2, 2.6504946e+2, -311714.44, -611504.25, -59919.34, -0.04653256, -0.12905094, -300181.94, 42318.426, 0.00000011562638, 10.001425, 9.997454 
9.1511005e+2, 2.7504802e+2, -379946.44, -593871.06, -46752.844, 0.09231178, -0.032126166, -370175.03, -125652.82, 0.0000025826089, 10.000277, 9.9974575 
9.1511494e+2, 2.8504637e+2, -155183.23, -218909.28, -11829.948, 0.11535286, -0.040991217, -153058.02, -6520.319, 0.000017159802, 10.000216, 9.9993925 
9.1511905e+2, 2.9504442e+2, 82236.02, -48608.113, 8251.998, 0.026672479, -0.18628304, 82754.41, 131301.34, 0.00007135739, 10.00115, 9.999438 
9.1512436e+2, 3.0504325e+2, 48585.14, -211322.8, 24573.934, 0.02642309, -0.16978948, 50888.164, 50888.164, 0.00020552066, 10.001343, 9.997885 
9.151278e+2, 3.150408e+2, -28335.875, -205306.23, 39008.453, -0.16148013, -0.21523874, -20119.004, -20119.004, 0.00042645857, 10.000592, 9.998285 
9.250445e+2, 1.2505661e+2, -1857805.0, -1828916.3, -114186.46, -0.0060235253, -0.48154435, -1728264.3, -13857.459, 0.0000053718704, 9.999161, 9.9996195 
9.2504877e+2, 1.3505687e+2, -1458961.0, -1574442.3, -81382.92, 0.085262775, -0.44361818, -1416916.0, 199487.73, 0.00000033393198, 10.001209, 9.999707 
9.250523e+2, 1.4505686e+2, -1325487.9, -1497765.1, 10622.629, 0.015469028, -0.3917423, -1324835.4, 193569.13, 0.0, 10.001622, 9.999353 
9.250573e+2, 1.5505616e+2, -1372017.6, -1466241.4, -15377.281, -0.039032146, -0.415832, -1369571.6, 50841.227, 0.0, 10.000617, 9.999379 
9.250614e+2, 1.6505569e+2, -1273223.1, -1315320.6, -107580.164, -0.06858317, -0.42355946, -1184651.9, 137765.78, 0.0, 10.000394, 9.999849 
9.250646e+2, 1.7505534e+2, -1091885.8, -1176830.3, -122028.4, -0.072632626, -0.45755735, -1005149.56, 219270.2, 0.0, 10.000968, 9.999851 
9.250688e+2, 1.8505521e+2, -1028513.7, -1199659.0, -37615.42, -0.08440203, -0.40807247, -1020611.2, 105811.62, 0.0, 10.001173, 9.99892 
9.250737e+2, 1.950551e+2, -957480.5, -1113322.1, -19618.04, -0.10560654, -0.32609954, -955048.8, 73379.516, 0.0, 10.000984, 9.998929 
9.250786e+2, 2.0505446e+2, -823607.8, -1014688.9, -59404.26, -0.051983062, -0.273899, -806645.6, 123791.48, 0.0, 10.001297, 9.998791 
9.2508346e+2, 2.150531e+2, -605170.4, -857919.7, -63273.46, 0.07899666, -0.30375308, -590215.3, 242235.45, 0.0, 10.00212, 9.998798 
9.250881e+2, 2.2505228e+2, -525671.5, -812046.94, -19120.33, 0.13716169, -0.24385393, -524400.56, 210059.94, 0.0, 10.002185, 9.9984045 
9.2509264e+2, 2.3505187e+2, -522926.9, -760899.2, -34010.84, 0.123579994, -0.14090073, -518161.53, 118305.81, 0.0, 10.001532, 9.998399 
9.250969e+2, 2.4504998e+2, -553761.44, -833643.75, 12282.431, 0.0515182, -0.11747403, -553223.5, -14735.517, 0.0, 10.001116, 9.997427 
9.251009e+2, 2.5504652e+2, -472223.06, -741855.06, 44813.965, -0.07507549, -0.2221163, -464969.9, -24446.316, 0.0, 10.000997, 9.997441 
9.2510563e+2, 2.6504433e+2, -364446.84, -606571.4, 13388.105, -0.048178088, -0.19692928, -363708.8, -21160.383, 0.00000007319143, 10.000924, 9.997734 
9.2511106e+2, 2.750432e+2, -271014.7, -508533.8, 24285.54, 0.13938881, -0.101978876, -268557.03, -23992.002, 0.0000027897247, 10.00088, 9.997753 
9.2511564e+2, 2.8504172e+2, -135540.5, -269777.28, 76337.93, 0.15473495, -0.07551217, -101010.68, 45568.895, 0.000020180585, 10.000612, 9.998849 
9.2511946e+2, 2.9504007e+2, -105966.086, -201581.25, 18868.836, 0.0064486116, -0.1428885, -102377.19, -53785.53, 0.00008284934, 10.000124, 9.998879 
9.2512506e+2, 3.050388e+2, -70309.51, -213302.38, 12654.187, 0.028957307, -0.12974903, -69198.305, -69198.305, 0.00022869528, 10.000262, 9.998398 
9.2512953e+2, 3.1503573e+2, 81297.62, -52259.64, 14282.289, -0.053662665, -0.29532838, 82807.85, 82807.85, 0.0004606453, 10.000898, 9.999193 
9.35043e+2, 1.2505145e+2, -1809297.4, -1724398.3, -54457.484, -0.11137726, -0.39930674, -1697800.1, 16665.879, 0.000009857008, 9.999159, 10.000332 
9.3505037e+2, 1.3505228e+2, -1403063.8, -1467701.9, -1320.5001, 0.109057054, -0.37724406, -1403036.8, 213416.78, 0.0000009955157, 10.001258, 10.000412 
9.350546e+2, 1.4505261e+2, -1360401.3, -1585002.3, -35600.88, 0.068301365, -0.2942409, -1354893.3, 163557.06, 0.00000000002439963, 10.0016775, 9.998732 
9.350579e+2, 1.5505198e+2, -1415837.8, -1557202.0, -45155.832, -0.06275663, -0.2519229, -1402644.9, 17816.693, 0.0, 10.000612, 9.99876 
9.3506145e+2, 1.6505097e+2, -1287759.3, -1343468.5, -93572.13, -0.120180055, -0.2706543, -1217983.9, 104488.75, 0.0, 10.000387, 9.999659 
9.350655e+2, 1.7504959e+2, -1103596.5, -1203736.8, -93801.28, -0.10186355, -0.38755193, -1047338.4, 177145.53, 0.0, 10.000981, 9.99966 
9.350701e+2, 1.8504958e+2, -985711.3, -1106283.5, -49302.707, -0.083959505, -0.3485131, -968118.25, 158365.86, 0.0, 10.001154, 9.999574 
9.350752e+2, 1.9505063e+2, -919230.56, -1023400.3, -19603.504, -0.067957826, -0.21452226, -915663.56, 112812.29, 0.0, 10.000939, 9.999571 
9.350799e+2, 2.0504993e+2, -822928.9, -1004442.2, -36658.453, -0.06431966, -0.20476757, -815804.94, 114678.016, 0.0, 10.001255, 9.998882 
9.3508416e+2, 2.1504739e+2, -613003.0, -855329.44, -26218.74, -0.07436737, -0.3588566, -610198.7, 222307.58, 0.0, 10.002033, 9.998862 
9.350887e+2, 2.2504605e+2, -555905.6, -851987.9, -48507.23, -0.03921975, -0.34441254, -548161.25, 186359.5, 0.0, 10.002089, 9.998175 
9.350935e+2, 2.3504563e+2, -553189.5, -804407.25, -50558.3, 0.045196418, -0.21806853, -543396.3, 93132.4, 0.0, 10.001446, 9.998144 
9.350984e+2, 2.4504413e+2, -487085.06, -681542.25, 2078.8625, 0.07183232, -0.19706538, -487062.84, 51481.594, 0.0, 10.001059, 9.998497 
9.351035e+2, 2.5504145e+2, -406615.88, -595337.2, 46186.965, 0.05951526, -0.32916045, -395918.6, 44650.625, 0.0, 10.000947, 9.998475 
9.3510765e+2, 2.6503968e+2, -336760.22, -539202.9, 6597.298, 0.045193568, -0.34064826, -336545.44, 6041.0586, 0.00000003612581, 10.000883, 9.998215 
9.351111e+2, 2.750385e+2, -250797.58, -450180.34, 30694.045, 0.03367673, -0.29137346, -246179.34, -1580.4668, 0.0000027030533, 10.00081, 9.998189 
9.351149e+2, 2.850371e+2, -240154.66, -474281.8, 54680.996, 0.007069451, -0.21065979, -228013.39, -81397.15, 0.000022488803, 10.000561, 9.997468 
9.3511945e+2, 2.9503554e+2, -209069.69, -411217.28, 11879.732, -0.022264726, -0.12814537, -208373.94, -159736.1, 0.000095232324, 10.000103, 9.997452 
9.3512625e+2, 3.0503458e+2, -37034.508, -134625.52, 34408.805, 0.10242623, -0.044577274, -26122.666, -26122.666, 0.0002574787, 10.000225, 9.998954 
9.3513215e+2, 3.150326e+2, 136158.14, 94676.125, 69586.41, 0.08614099, -0.15877475, 188028.83, 188028.83, 0.0005076133, 10.000763, 10.000266 
9.450435e+2, 1.250474e+2, -1510802.6, -1592171.0, 13946.407, -0.07071154, -0.2356076, -1508478.5, 206035.31, 0.000016753027, 10.001248, 10.000241 
9.450504e+2, 1.3504727e+2, -1515939.4, -1538215.4, -24976.041, 0.02741807, -0.29331794, -1499730.4, 116779.77, 0.000002343361, 10.00055, 10.000276 
9.4505495e+2, 1.4504746e+2, -1540247.4, -1619239.9, -77219.28, 0.004731691, -0.24186389, -1493009.8, 25497.291, 0.0000000053592455, 10.000224, 9.999189 
9.450588e+2, 1.5504721e+2, -1407872.4, -1505943.8, -21818.08, -0.01158185, -0.20580566, -1403237.5, 17274.11, 0.0, 10.00046, 9.999184 
9.4506264e+2, 1.6504633e+2, -1252478.4, -1348293.0, 17491.906, -0.05082004, -0.22255304, -1249384.9, 73135.484, 0.0, 10.00072, 9.999468 
9.450664e+2, 1.7504482e+2, -1113559.0, -1227161.5, 4319.486, -0.10458114, -0.336188, -1113395.0, 111138.82, 0.0, 10.000992, 9.999493 
9.45071e+2, 1.8504463e+2, -996271.1, -1088776.0, 19447.363, -0.09871726, -0.3163145, -992349.0, 134186.05, 0.0, 10.000989, 9.999767 
9.450763e+2, 1.9504555e+2, -932425.2, -1009586.7, 5694.5815, -0.03749486, -0.21681856, -932007.2, 96519.54, 0.0, 10.00076, 9.99975 
9.450811e+2, 2.0504485e+2, -899628.75, -1018727.25, 12208.615, -0.032858852, -0.22536479, -898390.1, 32142.541, 0.0, 10.00064, 9.999075 
9.450854e+2, 2.1504252e+2, -804706.8, -921060.3, 15608.854, -0.07741081, -0.3817594, -802649.25, 29904.008, 0.0, 10.000613, 9.999084 
9.4508994e+2, 2.2504109e+2, -724378.56, -933809.5, 7071.173, -0.05366638, -0.384788, -724140.1, 10427.896, 0.0, 10.000934, 9.998172 
9.4509494e+2, 2.350404e+2, -526671.94, -785944.5, 10235.071, 0.04430029, -0.28668636, -526268.56, 110310.016, 0.0, 10.001611, 9.998185 
9.450998e+2, 2.4503917e+2, -393958.13, -629816.5, 35696.934, 0.08067589, -0.24426809, -388673.84, 149918.83, 0.0, 10.001662, 9.998564 
9.451045e+2, 2.550373e+2, -377545.88, -567663.75, -956.27356, 0.06803207, -0.30209655, -377541.06, 63070.09, 0.0, 10.001091, 9.998591 
9.4510853e+2, 2.6503587e+2, -297970.88, -487504.6, -53080.605, 0.0435227, -0.30259624, -284117.72, 58506.875, 0.000000027783642, 10.001004, 9.998512 
9.4511193e+2, 2.7503452e+2, -142121.53, -360335.5, -53633.4, 0.017448343, -0.30140138, -129651.9, 114983.516, 0.000002329391, 10.001398, 9.99852 
9.4511586e+2, 2.8503293e+2, -131872.44, -450355.78, -1546.945, -0.0013926259, -0.24306975, -131864.92, 14788.967, 0.000023981273, 10.001421, 9.997225 
9.4512016e+2, 2.9503116e+2, -99054.7, -382148.94, 27423.139, -0.00019318589, -0.15985447, -96422.71, -47743.164, 0.000106754764, 10.000969, 9.997233 
9.451267e+2, 3.0502984e+2, -20713.494, -107879.76, 103304.63, 0.13377531, -0.10721097, 47825.348, 47825.348, 0.00028782972, 10.000259, 9.99913 
9.4513255e+2, 3.1502843e+2, -47630.55, 56154.07, 101288.68, 0.13375343, -0.17990656, 118069.53, 118069.53, 0.00056174357, 9.999274, 10.000734 
9.550454e+2, 1.250447e+2, -1575943.4, -1734555.4, -23774.523, -0.041187212, 0.028451456, -1572456.5, 142091.1, 0.00002677623, 10.001292, 9.999233 
9.550487e+2, 1.3504195e+2, -1591257.3, -1686284.8, -47800.234, -0.21151355, -0.1932785, -1571373.6, 45199.023, 0.0000047533053, 10.000524, 9.999266 
9.55053e+2, 1.4504129e+2, -1436662.8, -1403401.4, -75175.13, -0.22870219, -0.2506011, -1343039.3, 175535.81, 0.000000046136613, 10.000216, 10.000678 
9.5506e+2, 1.550419e+2, -1296406.5, -1286885.5, -6725.8086, 0.03758445, -0.2755225, -1283406.0, 137157.25, 0.0, 10.00051, 10.000666 
9.550647e+2, 1.6504188e+2, -1257228.8, -1366977.8, 20517.537, 0.06537954, -0.2738577, -1253518.4, 69042.21, 0.0, 10.000756, 9.999322 
9.550672e+2, 1.7504111e+2, -1126375.8, -1252448.6, 20643.018, -0.13730448, -0.2983237, -1123081.8, 101486.93, 0.0, 10.000985, 9.999323 
9.550713e+2, 1.8504049e+2, -1012687.9, -1122635.9, 4337.5303, -0.18534808, -0.30214083, -1012517.0, 114057.96, 0.0, 10.000984, 9.999538 
9.550768e+2, 1.9503987e+2, -952366.0, -1044519.8, 3166.7708, -0.079590596, -0.32985267, -952257.3, 76323.4, 0.0, 10.000732, 9.999525 
9.550821e+2, 2.0503923e+2, -884101.56, -977538.0, 3579.9092, -0.014370415, -0.33759302, -883964.6, 46621.313, 0.0, 10.000598, 9.99938 
9.5508695e+2, 2.1503837e+2, -798583.3, -887827.7, 20858.602, 0.009483308, -0.37418452, -793948.8, 38643.52, 0.0, 10.000523, 9.99936 
9.550919e+2, 2.2503737e+2, -717648.9, -898930.1, 25233.85, 0.032765042, -0.3629289, -714201.94, 20400.66, 0.0, 10.000846, 9.998452 
9.5509684e+2, 2.3503602e+2, -523690.84, -760027.5, 41571.77, 0.060961787, -0.35628706, -516591.6, 120027.02, 0.0, 10.00152, 9.998413 
9.551009e+2, 2.45035e+2, -461269.03, -750231.25, 8740.093, 0.0139746955, -0.26649174, -461004.9, 77628.77, 0.0, 10.001586, 9.997769 
9.5510405e+2, 2.5503412e+2, -446229.03, -694753.44, -15841.002, -0.09912828, -0.1448095, -445223.38, -4574.0923, 0.0, 10.00102, 9.997753 
9.551083e+2, 2.6503283e+2, -299897.53, -472174.22, -41234.504, -0.095319726, -0.08953599, -290536.7, 52126.24, 0.000000030362223, 10.00093, 9.998651 
9.5511353e+2, 2.75031e+2, -145285.52, -349777.7, -29429.035, 0.023178285, -0.15138781, -141134.56, 103541.78, 0.000002140531, 10.001327, 9.998629 
9.5511794e+2, 2.8502905e+2, -75169.11, -318075.75, -24097.027, 0.05676865, -0.18507403, -72801.69, 73892.44, 0.000025889522, 10.001361, 9.998158 
9.5512146e+2, 2.9502693e+2, -45310.83, -257221.55, 16326.625, 0.015776457, -0.22972126, -44060.324, 4656.046, 0.000117742304, 10.000908, 9.99812 
9.551265e+2, 3.0502474e+2, -42611.426, -132708.5, 65672.12, 0.077825256, -0.29900897, -8022.047, -8022.047, 0.00031737162, 10.00018, 9.998995 
9.551305e+2, 3.1502336e+2, -66420.61, 43654.383, 93948.91, -0.025163075, -0.35411298, 97499.96, 97499.96, 0.0006187058, 9.999168, 10.000697 
9.6504676e+2, 1.2503989e+2, -1782202.9, -1817505.0, -9866.302, 0.045703884, 0.06638795, -1779632.5, -65034.125, 0.000040530904, 9.999796, 9.999389 
9.6504885e+2, 1.3503732e+2, -1689985.3, -1710820.9, 25776.781, -0.20683953, -0.15631908, -1672600.6, -55979.723, 0.000008656152, 9.999746, 9.999471 
9.65053e+2, 1.4503667e+2, -1479497.8, -1420376.9, 42319.816, -0.22581936, -0.22334534, -1398315.8, 120306.91, 0.00000019058375, 9.999912, 10.000706 
9.650606e+2, 1.5503702e+2, -1295856.1, -1279907.5, -12480.994, 0.055904735, -0.27766088, -1273070.9, 147541.97, 0.0, 10.000501, 10.000712 
9.6506554e+2, 1.6503713e+2, -1289976.6, -1365842.5, -39909.81, 0.09416351, -0.27500597, -1272848.8, 49760.14, 0.0, 10.000462, 9.99947 
9.650679e+2, 1.750368e+2, -1283233.4, -1314001.5, -29330.252, -0.10523865, -0.26857278, -1265497.5, -40884.957, 0.0, 9.999841, 9.999454 
9.65072e+2, 1.850362e+2, -1175942.9, -1219810.5, -183.31792, -0.15665585, -0.26950914, -1175942.1, -49323.18, 0.0, 9.999942, 9.999378 
9.6507776e+2, 1.9503514e+2, -957901.94, -1064418.4, -8861.005, -0.058765814, -0.32640463, -957169.9, 71459.664, 0.0, 10.000767, 9.999374 
9.650831e+2, 2.0503466e+2, -832226.6, -949418.3, -22185.717, 0.013650944, -0.31188166, -828167.2, 102466.91, 0.0, 10.000957, 9.9993925 
9.65088e+2, 2.1503459e+2, -787683.6, -879207.7, -40211.367, 0.061313976, -0.2723643, -772526.75, 60107.45, 0.0, 10.000591, 9.99938 
9.650928e+2, 2.250338e+2, -761066.0, -881361.94, -8698.796, 0.065248035, -0.2573725, -760440.25, -25798.12, 0.0, 10.000378, 9.998802 
9.650975e+2, 2.3503217e+2, -671227.75, -784706.6, 4054.629, 0.035316877, -0.31558162, -671083.06, -34424.06, 0.0, 10.000312, 9.998822 
9.651014e+2, 2.450312e+2, -635460.5, -819555.44, 2353.5588, -0.024102455, -0.24716765, -635430.4, -96758.375, 0.0, 10.000326, 9.997904 
9.651048e+2, 2.5503075e+2, -520600.38, -712418.5, 34607.684, -0.09618548, -0.09336841, -514547.5, -73865.2, 0.0, 10.000443, 9.997907 
9.651092e+2, 2.650293e+2, -335446.9, -519355.2, 69560.37, -0.07828661, -0.052540354, -312100.53, 30597.318, 0.000000012060779, 10.000802, 9.998393 
9.651149e+2, 2.7502662e+2, -160421.14, -384383.16, 41979.914, 0.027987156, -0.17386861, -152810.94, 91909.43, 0.0000023356135, 10.001333, 9.998388 
9.6511936e+2, 2.850246e+2, -51267.656, -281473.8, -12579.39, 0.06489766, -0.21085607, -50582.31, 96156.04, 0.000028869204, 10.001414, 9.9983835 
9.651227e+2, 2.9502326e+2, -8074.5566, -214400.86, -38634.082, 0.04950561, -0.20017062, -1077.6964, 47674.31, 0.00012890252, 10.001059, 9.998343 
9.6512675e+2, 3.0502096e+2, -1054.7323, -88261.85, -12610.951, 0.08176926, -0.3052476, 732.3072, 732.3072, 0.00034520676, 10.000353, 9.999217 
9.651293e+2, 3.1501955e+2, -69866.2, 53259.836, 23032.818, -0.048131008, -0.3868002, 57427.45, 57427.45, 0.0006746552, 9.9991045, 10.000784 
9.7504705e+2, 1.2503277e+2, -1674460.9, -1604200.3, -27282.902, 0.055813234, -0.1339302, -1594850.3, 119818.11, 0.000058506626, 9.999841, 10.000828 
9.7505045e+2, 1.3503341e+2, -1581229.6, -1493730.3, 24003.594, -0.03204072, -0.1804811, -1487578.0, 129077.03, 0.00001444443, 9.999784, 10.000938 
9.750548e+2, 1.4503372e+2, -1571528.6, -1623408.3, 57058.707, -0.060732506, -0.15749961, -1534790.1, -16141.224, 0.0000005546723, 9.999961, 9.999292 
9.7506064e+2, 1.5503263e+2, -1394649.4, -1488190.9, 16588.064, -0.00614447, -0.21225429, -1391794.9, 28865.078, 0.0, 10.000512, 9.99928 
9.750651e+2, 1.6503207e+2, -1257379.9, -1299292.5, -71731.234, -0.012155052, -0.22521321, -1203606.4, 119058.51, 0.0, 10.0004635, 9.999927 
9.750683e+2, 1.7503195e+2, -1247289.3, -1245177.1, -48706.613, -0.06486201, -0.2444496, -1197515.1, 27149.6, 0.0, 9.999865, 9.999916 
9.7507286e+2, 1.8503179e+2, -1178939.6, -1228120.1, 25845.469, -0.07228688, -0.22216703, -1167855.4, -41188.676, 0.0, 9.999949, 9.999318 
9.7507894e+2, 1.9503136e+2, -970390.06, -1079533.0, 29227.691, -0.03415903, -0.20927672, -963055.94, 65616.82, 0.0, 10.000721, 9.999292 
9.7508407e+2, 2.0503117e+2, -858040.6, -995314.7, -42641.59, -0.0038122465, -0.14552958, -845873.3, 84803.16, 0.0, 10.0009165, 9.999101 
9.750883e+2, 2.1503106e+2, -817163.5, -928330.8, -47767.13, 0.018931001, -0.08090661, -799458.4, 33221.105, 0.0, 10.000533, 9.999076 
9.750925e+2, 2.250303e+2, -733045.6, -809515.1, -17604.234, -0.014971815, -0.07350559, -729187.56, 5499.265, 0.0, 10.00032, 9.99932 
9.7509664e+2, 2.3502877e+2, -651498.2, -721433.9, 7425.3916, -0.09834434, -0.17146444, -650718.44, -14018.592, 0.0, 10.000216, 9.999303 
9.7510123e+2, 2.4502778e+2, -570132.2, -671822.94, -375.00354, -0.08996464, -0.17952923, -570130.8, -31423.268, 0.0, 10.000272, 9.998945 
9.7510636e+2, 2.5502717e+2, -454187.56, -566796.7, 44857.406, 0.0079632895, -0.1502236, -438503.28, 2208.1565, 0.0, 10.000403, 9.998929 
9.7511125e+2, 2.6502508e+2, -384259.53, -605481.5, 83534.78, 0.028990898, -0.19537345, -356260.1, -13529.172, 0.0000000034767167, 10.000745, 9.997825 
9.7511584e+2, 2.7502137e+2, -213625.4, -474781.84, 69359.72, -0.026497452, -0.36303768, -196347.47, 48419.96, 0.0000028342504, 10.00125, 9.997806 
9.7512007e+2, 2.850197e+2, -94087.44, -353215.72, -30514.914, -0.024115779, -0.3130772, -90542.5, 56243.695, 0.000032313746, 10.001345, 9.997924 
9.751237e+2, 2.9502e+2, -51269.188, -286462.0, -41379.73, 0.029314684, -0.08749701, -44201.258, 4586.649, 0.00013997531, 10.000985, 9.997884 
9.751272e+2, 3.0501816e+2, 20972.85, -21870.268, -62844.273, 0.07723589, -0.14817859, 65946.21, 65946.21, 0.00037147623, 10.000269, 9.999711 
9.7512853e+2, 3.1501687e+2, -71325.88, 74212.68, -530.6901, -0.067899495, -0.27109775, 74214.62, 74214.62, 0.00072747667, 9.999008, 10.000969 
9.850458e+2, 1.2502763e+2, -1734138.5, -1615082.6, 51295.773, -0.020820903, -0.19755703, -1596030.5, 118686.984, 0.00008108169, 9.999354, 10.000988 
9.850514e+2, 1.3502905e+2, -1542756.8, -1458933.9, -23421.867, 0.08023597, -0.18191537, -1452833.3, 163864.45, 0.000022462764, 9.999969, 10.001095 
9.850564e+2, 1.4502966e+2, -1563841.1, -1623614.6, 20579.264, 0.105728775, -0.13479923, -1557441.3, -38751.46, 0.0000013019285, 10.000022, 9.999262 
9.850609e+2, 1.550285e+2, -1514560.0, -1548792.8, 69246.71, 0.0080732135, -0.19633225, -1460345.6, -39643.18, 0.0, 9.999696, 9.999255 
9.850649e+2, 1.650279e+2, -1336689.8, -1348482.1, 30510.492, -0.04931543, -0.20627041, -1311511.0, 11197.6875, 0.0, 9.999974, 9.999821 
9.850688e+2, 1.7502779e+2, -1110642.0, -1187708.6, -1124.4999, -0.05088136, -0.21504875, -1110625.6, 114083.945, 0.0, 10.000853, 9.999827 
9.850737e+2, 1.8502785e+2, -1034656.2, -1129673.8, 65278.742, -0.029488977, -0.17795035, -1001428.4, 125280.79, 0.0, 10.000814, 9.9995775 
9.850795e+2, 1.9502792e+2, -1079029.0, -1103706.6, 79823.39, 0.0049201497, -0.14250393, -1010596.4, 18112.838, 0.0, 9.999849, 9.99955 
9.8508465e+2, 2.0502754e+2, -1000838.7, -1091184.9, 58356.94, 0.017136414, -0.0980221, -972213.75, -41499.332, 0.0, 10.000042, 9.998872 
9.850892e+2, 2.1502659e+2, -713983.0, -901197.4, 46643.016, 0.01149946, -0.09615943, -703005.9, 129720.33, 0.0, 10.00134, 9.998874 
9.8509336e+2, 2.2502574e+2, -535649.3, -711028.7, 43180.82, -0.022079686, -0.08970534, -525594.1, 209140.39, 0.0, 10.001657, 9.999356 
9.850974e+2, 2.3502491e+2, -534968.2, -659632.25, 22649.836, -0.07259566, -0.12219289, -530980.56, 105760.04, 0.0, 10.000988, 9.999356 
9.851021e+2, 2.4502398e+2, -432120.16, -543425.8, 24166.143, -0.06167488, -0.15445809, -427099.78, 111645.69, 0.0, 10.000961, 9.999491 
9.851074e+2, 2.550228e+2, -237901.53, -402094.25, 19343.697, 0.00935089, -0.2374497, -235653.4, 205097.61, 0.0, 10.00163, 9.999469 
9.8511237e+2, 2.650208e+2, -286500.1, -578754.94, 41377.805, 0.029100722, -0.2925213, -280754.72, 62014.598, 0.00000001775074, 10.001497, 9.997653 
9.851171e+2, 2.7501786e+2, -328643.47, -549434.7, 42423.906, 0.011377736, -0.36215922, -320772.5, -75971.36, 0.000003544514, 10.000538, 9.997643 
9.851208e+2, 2.8501645e+2, -259572.6, -434688.84, -6177.849, -0.01814253, -0.27806187, -259354.92, -112536.39, 0.00003520851, 10.000212, 9.997914 
9.8512346e+2, 2.950164e+2, -119797.42, -321891.44, 2926.7737, -0.06134376, -0.08704182, -119755.04, -70932.125, 0.00014919741, 10.00052, 9.997866 
9.851269e+2, 3.0501434e+2, 67537.055, -70032.93, -39686.71, -0.0025703094, -0.13593732, 78164.97, 78164.97, 0.00039500848, 10.000884, 9.999084 
9.8512965e+2, 3.1501347e+2, 192165.97, 99705.375, -78907.36, 0.032150283, -0.1553334, 237388.45, 237388.45, 0.00077431643, 10.001225, 10.000092 
9.950427e+2, 1.2502456e+2, -1806631.8, -1779338.0, 60694.574, -0.30947205, -0.12015068, -1730775.0, -16030.334, 0.000108580556, 9.999417, 9.999831 
9.950516e+2, 1.350243e+2, -1618748.4, -1619947.6, 2428.7388, 0.08838449, -0.16283923, -1616846.4, -97.76263, 0.000033028722, 9.999986, 9.999982 
9.950578e+2, 1.4502458e+2, -1469687.5, -1430744.8, -1591.3579, 0.2212671, -0.15542628, -1430679.9, 88064.63, 0.0000026281716, 10.000028, 10.000585 
9.95061e+2, 1.5502468e+2, -1412450.8, -1347654.1, 62868.77, 0.030335465, -0.22747861, -1309326.8, 111413.08, 0.00000000019976186, 9.999736, 10.000619 
9.9506474e+2, 1.6502462e+2, -1381140.4, -1442954.0, 56936.348, -0.08226876, -0.21840553, -1347263.1, -24523.107, 0.0, 9.999988, 9.999165 
9.950692e+2, 1.7502427e+2, -1154891.0, -1283881.6, 38024.535, -0.110586554, -0.18458518, -1144516.4, 80230.67, 0.0, 10.000868, 9.999161 
9.950741e+2, 1.8502435e+2, -997038.7, -1049407.0, 21401.496, -0.08327425, -0.13955376, -989405.2, 137341.34, 0.0, 10.000807, 10.000133 
9.9507946e+2, 1.9502474e+2, -1039975.3, -1020360.8, 48160.582, -0.00034744528, -0.12683468, -981019.06, 47720.586, 0.0, 9.999839, 10.000127 
9.950848e+2, 2.0502378e+2, -1017186.25, -1113314.8, 98637.016, 0.02139447, -0.16582288, -955526.1, -24777.848, 0.0, 9.999993, 9.998742 
9.950903e+2, 2.1502124e+2, -738970.0, -927910.8, 100839.98, -0.016239837, -0.30686992, -695261.7, 137512.33, 0.0, 10.001232, 9.998742 
9.9509525e+2, 2.2502024e+2, -580453.6, -775052.2, 12219.331, -0.0071203494, -0.289929, -579689.3, 155095.0, 0.0, 10.001536, 9.998971 
9.950997e+2, 2.3502062e+2, -575832.56, -721507.3, 4167.4863, 0.047260597, -0.16352975, -575713.44, 61067.29, 0.0, 10.000895, 9.998974 
9.9510384e+2, 2.4501981e+2, -434657.75, -537977.44, 42786.816, -0.00024474054, -0.17019324, -419239.63, 119546.01, 0.0, 10.00091, 9.999556 
9.951076e+2, 2.5501764e+2, -244206.97, -398254.38, 51033.773, -0.14576097, -0.35691378, -228834.27, 211966.39, 0.0, 10.001551, 9.999536 
9.951124e+2, 2.650164e+2, -285855.53, -558680.0, -406.32434, -0.12453356, -0.34317774, -285854.94, 56957.367, 0.000000028595345, 10.00142, 9.997825 
9.951182e+2, 2.75016e+2, -329667.5, -531099.56, 13789.552, 0.059903447, -0.17800923, -328727.88, -83905.88, 0.000003781716, 10.000455, 9.997807 
9.951215e+2, 2.8501478e+2, -234845.11, -373261.25, -1025.1033, 0.012087081, -0.11027971, -234837.52, -88001.086, 0.000036350866, 10.000163, 9.998363 
9.951221e+2, 2.9501247e+2, -88986.66, -252281.0, 22426.203, -0.2709363, -0.18914872, -85962.73, -37106.137, 0.00015454051, 10.000494, 9.998357 
9.951259e+2, 3.0500963e+2, -59327.504, -324309.94, -28638.465, -0.19983374, -0.2560603, -56267.684, -56267.684, 0.00041140616, 10.000849, 9.997353 
9.951319e+2, 3.1500933e+2, 28030.15, -192688.67, -46828.32, 0.110963345, -0.043931156, 37554.395, 37554.395, 0.00080724823, 10.001029, 9.998171 
1.00504294e+3, 1.2502073e+2, -1694819.9, -1776840.9, 72200.44, -0.26182345, -0.12026664, -1652795.6, 61985.152, 0.00014134821, 10.000419, 9.99936 
1.0050513e+3, 1.3502021e+2, -1733521.4, -1722036.9, 40247.805, 0.09208443, -0.14400314, -1687123.8, -70333.164, 0.000046426092, 9.999413, 9.999549 
1.00505754e+3, 1.4502068e+2, -1587669.9, -1436106.0, 56947.137, 0.25278294, -0.12037626, -1417094.0, 101692.2, 0.00000474816, 9.999017, 10.001026 
1.0050608e+3, 1.5502152e+2, -1447907.6, -1317995.4, 32891.86, 0.06465918, -0.15877645, -1310142.4, 110631.16, 0.000000004412824, 9.999303, 10.00103 
1.0050651e+3, 1.6502164e+2, -1403174.5, -1437704.8, 62154.793, -0.03553374, -0.16079094, -1355931.5, -33160.277, 0.0, 9.999757, 9.999323 
1.0050704e+3, 1.7502093e+2, -1216729.1, -1294427.9, 91303.64, -0.0468058, -0.17747673, -1156353.4, 68427.06, 0.0, 10.000362, 9.999336 
1.00507535e+3, 1.8502088e+2, -1019274.2, -1074369.4, 50809.918, -0.035668366, -0.14804734, -989024.56, 137756.52, 0.0, 10.000714, 10.000005 
1.00507975e+3, 1.9502132e+2, -911380.3, -972696.44, 14270.352, 0.0012231147, -0.11872299, -908221.8, 120552.92, 0.0, 10.000787, 9.999995 
1.0050851e+3, 2.0502049e+2, -880574.06, -1003806.44, 106446.29, 0.012684542, -0.15584305, -819196.9, 111584.445, 0.0, 10.000743, 9.999128 
1.0050913e+3, 2.1501823e+2, -810815.8, -920704.06, 132382.81, -0.0026101111, -0.30882698, -722427.94, 110374.41, 0.0, 10.000554, 9.999118 
1.0050966e+3, 2.2501726e+2, -725948.5, -841592.1, 62982.316, 0.019883094, -0.3107037, -698271.0, 36539.97, 0.0, 10.000522, 9.999006 
1.00510076e+3, 2.3501734e+2, -611688.75, -736300.4, 71669.0, 0.08226092, -0.21585253, -579029.0, 57780.098, 0.0, 10.000633, 9.999001 
1.0051048e+3, 2.4501623e+2, -513250.97, -676376.44, 126931.82, 0.01926018, -0.20747152, -443935.72, 94883.28, 0.0, 10.000795, 9.998663 
1.0051087e+3, 2.5501385e+2, -385721.44, -562951.06, 52245.754, -0.16163763, -0.328313, -371466.4, 69375.234, 0.0, 10.000999, 9.998667 
1.00511335e+3, 2.6501286e+2, -300694.6, -514576.44, -45753.234, -0.15216248, -0.2727596, -291318.2, 51534.582, 0.000000017098808, 10.001109, 9.998272 
1.0051188e+3, 2.7501306e+2, -205537.11, -422209.56, -25083.496, 0.044612594, -0.09168945, -202671.19, 42183.266, 0.000003428396, 10.001098, 9.998241 
1.0051223e+3, 2.8501162e+2, -77906.01, -290880.6, 1188.3558, 0.02821767, -0.065701604, -77899.38, 68969.195, 0.00003625069, 10.001206, 9.9984255 
1.0051238e+3, 2.9500842e+2, 48291.63, -180867.67, -18716.258, -0.19110538, -0.24255972, 49810.19, 98706.3, 0.00015742959, 10.001401, 9.998415 
1.0051275e+3, 3.0500558e+2, 23865.223, -306571.25, -28221.12, -0.16100197, -0.304096, 26258.135, 26258.135, 0.00042159262, 10.001512, 9.997157 
1.0051325e+3, 3.150054e+2, 58809.504, -227119.88, 37319.016, 0.05135584, -0.058091484, 63600.055, 63600.055, 0.0008274677, 10.001443, 9.997736 
1.01504624e+3, 1.2501623e+2, -1674413.3, -1746809.4, 15372.034, -0.01583766, -0.20105286, -1671284.5, 43540.195, 0.0001798155, 10.000461, 9.999549 
1.0150502e+3, 1.350169e+2, -1706763.4, -1684032.6, 6913.395, 0.022440342, -0.13106072, -1682095.1, -65271.9, 0.000062927356, 9.9994755, 9.999782 
1.0150556e+3, 1.45018e+2, -1619914.9, -1512766.4, 59725.785, 0.13470203, -0.031855345, -1486107.4, 32707.363, 0.000007860604, 9.999056, 10.000483 
1.0150602e+3, 1.5501904e+2, -1483994.9, -1399845.3, 49535.645, 0.05681347, 0.008659267, -1376927.3, 43876.258, 0.000000028517778, 9.999331, 10.000455 
1.0150657e+3, 1.6501899e+2, -1330611.0, -1293936.6, 76609.63, 0.03283341, -0.028386036, -1233500.3, 89301.27, 0.0, 9.999783, 10.000298 
1.01507224e+3, 1.7501779e+2, -1142263.0, -1148810.5, 119861.91, 0.08259182, -0.19616397, -1025630.2, 199179.36, 0.0, 10.000393, 10.000323 
1.0150771e+3, 1.8501742e+2, -1076394.3, -1189586.5, 46263.066, 0.055487916, -0.20815131, -1059891.9, 66921.1, 0.0, 10.0007, 9.99922 
1.0150802e+3, 1.9501767e+2, -973007.1, -1090808.8, 22678.133, -0.048019297, -0.1194861, -968792.1, 60021.76, 0.0, 10.000741, 9.999207 
1.0150851e+3, 2.0501772e+2, -830639.4, -882486.9, 93250.76, -0.06959183, -0.0725701, -759776.0, 171037.23, 0.0, 10.000671, 9.999994 
1.0150919e+3, 2.1501747e+2, -759200.56, -797902.8, 130121.41, -0.008788404, -0.112575136, -646999.25, 185812.84, 0.0, 10.00049, 9.99999 
1.015097e+3, 2.2501665e+2, -709244.44, -784999.8, 58627.203, 0.0052094897, -0.16286676, -677323.3, 57492.29, 0.0, 10.00043, 9.999437 
1.0151005e+3, 2.350151e+2, -594004.5, -679512.44, 81320.41, -0.026134117, -0.27768573, -544884.06, 91941.68, 0.0, 10.0005455, 9.999433 
1.01510495e+3, 2.4501337e+2, -656693.0, -949976.2, 127226.3, -0.06255316, -0.26048148, -609194.7, -70349.875, 0.0, 10.000698, 9.996827 
1.0151104e+3, 2.5501135e+2, -525631.06, -835128.44, 67798.84, -0.10594593, -0.1606717, -511430.53, -70556.21, 0.0, 10.000925, 9.996832 
1.015115e+3, 2.6500994e+2, -257693.97, -411240.16, -49138.008, -0.11299379, -0.09092359, -243315.25, 99576.19, 0.000000011022683, 10.001044, 9.999016 
1.0151187e+3, 2.7500904e+2, -160290.39, -313104.94, -13973.39, -0.08592427, -0.09782756, -159023.17, 85874.234, 0.0000031084232, 10.00103, 9.999025 
1.0151231e+3, 2.850072e+2, -114843.36, -349112.4, 3750.0625, -0.019533686, -0.13321984, -114783.34, 32129.996, 0.000035475467, 10.001133, 9.998056 
1.0151282e+3, 2.9500434e+2, 162.27113, -245574.86, -588.655, 0.09234696, -0.24119702, 163.68123, 49103.992, 0.00015859005, 10.001262, 9.99803 
1.015131e+3, 3.050021e+2, 97555.81, -132712.56, -30596.623, 0.03353517, -0.28024247, 101551.945, 101551.945, 0.00042792628, 10.001422, 9.998396 
1.0151311e+3, 3.1500185e+2, 104797.08, -96291.67, 53238.273, -0.26138633, -0.1675689, 118022.14, 118022.14, 0.0008405054, 10.001304, 9.998698 
1.02504745e+3, 1.2501211e+2, -1810960.8, -1729587.9, -8092.767, 0.13395087, -0.21054251, -1728790.9, -13921.895, 0.00022439056, 9.999167, 10.000291 
1.02504954e+3, 1.3501404e+2, -1603627.8, -1554611.8, 3328.2651, -0.0007866891, -0.08614438, -1554386.8, 62464.41, 0.0000828242, 9.999836, 10.000503 
1.02505505e+3, 1.450149e+2, -1482037.9, -1521353.4, 104283.45, 0.1120427, -0.01278914, -1395575.5, 123268.305, 0.000012107546, 10.000319, 9.999816 
1.0250604e+3, 1.5501457e+2, -1321255.4, -1394055.9, 74869.09, 0.08216651, -0.047144096, -1274406.9, 146441.13, 0.00000009714164, 10.000759, 9.999804 
1.025066e+3, 1.6501445e+2, -1194378.0, -1171325.6, 78247.34, 0.058119424, -0.08580786, -1103760.1, 219086.9, 0.0, 10.000476, 10.000801 
1.02507204e+3, 1.7501448e+2, -1234182.3, -1135817.4, 70857.47, 0.06642951, -0.17886072, -1098746.1, 126095.336, 0.0, 9.999516, 10.000834 
1.025077e+3, 1.8501449e+2, -1221359.9, -1252521.6, 53947.004, 0.033142332, -0.18324664, -1180788.8, -53948.074, 0.0, 9.999672, 9.999286 
1.0250809e+3, 1.9501425e+2, -939399.5, -1063432.9, 81616.05, -0.052323844, -0.14917964, -898911.3, 129935.01, 0.0, 10.000933, 9.999299 
1.02508605e+3, 2.0501435e+2, -785398.06, -859569.8, 113733.48, -0.061041776, -0.103221096, -702856.75, 227988.75, 0.0, 10.000974, 10.000011 
1.0250923e+3, 2.1501465e+2, -865577.3, -848570.2, 74291.125, 0.013902009, -0.08624447, -782297.5, 50541.79, 0.0, 9.999758, 9.999999 
1.0250973e+3, 2.2501393e+2, -782454.3, -822884.6, 24321.64, 0.022664497, -0.12704782, -771043.6, -36200.92, 0.0, 9.999935, 9.999414 
1.0251013e+3, 2.3501204e+2, -467878.03, -620979.1, -487.83493, -0.034640405, -0.27006134, -467876.47, 168980.39, 0.0, 10.0014305, 9.999407 
1.0251062e+3, 2.4501044e+2, -483840.3, -849054.06, 71323.14, -0.052492477, -0.24679232, -470405.72, 68469.34, 0.0, 10.001814, 9.996982 
1.02511205e+3, 2.5500897e+2, -505881.44, -810488.8, 140570.6, -0.033435818, -0.10762312, -450925.63, -10026.633, 0.0, 10.000994, 9.99697 
1.0251162e+3, 2.650073e+2, -341997.0, -460271.38, 88857.88, -0.055582155, -0.06663011, -294396.5, 48521.547, 0.00000001218603, 10.000485, 9.998953 
1.02511905e+3, 2.7500534e+2, -277310.72, -373696.63, 51423.13, -0.11340125, -0.17272608, -255027.44, -10093.988, 0.0000027111198, 10.000242, 9.998987 
1.0251237e+3, 2.8500372e+2, -215324.73, -404893.13, 79954.91, -0.038060725, -0.18317066, -186105.58, -39157.23, 0.00003356273, 10.000488, 9.997977 
1.02513015e+3, 2.9500222e+2, -21249.871, -265349.03, 78152.01, 0.17414024, -0.14661774, 1627.5515, 50592.25, 0.00015687123, 10.00116, 9.997942 
1.0251333e+3, 3.0500042e+2, 158574.52, -57249.645, 37934.965, 0.11060374, -0.1586893, 165048.1, 165048.1, 0.0004299211, 10.001651, 9.998804 
1.0251328e+3, 3.1499878e+2, 215460.55, -10428.667, 33518.844, -0.25090465, -0.22613609, 220329.34, 220329.34, 0.000848036, 10.001914, 9.998998 
1.0350463e+3, 1.2500846e+2, -1716886.9, -1550165.4, -12327.938, 0.059892967, -0.14377585, -1549258.8, 165654.03, 0.00027553758, 9.99924, 10.001486 
1.0350492e+3, 1.3501172e+2, -1523202.9, -1385268.6, 31141.303, -0.03263832, -0.0051234034, -1378563.8, 238309.8, 0.000106410545, 9.999835, 10.001662 
1.0350557e+3, 1.4501151e+2, -1529033.6, -1626440.3, 111628.87, 0.11645776, -0.05497467, -1455946.0, 62926.395, 0.000017580353, 10.000347, 9.9990835 
1.0350614e+3, 1.550081e+2, -1364836.8, -1492438.3, 97276.11, 0.08102946, -0.32694826, -1312305.3, 108601.83, 0.00000023822265, 10.00079, 9.999117 
1.03506595e+3, 1.6500801e+2, -1188037.3, -1162089.3, 33519.008, -0.015773108, -0.3331297, -1139120.9, 183786.7, 0.0, 10.000494, 10.000855 
1.0350696e+3, 1.7501107e+2, -1232815.4, -1134204.9, 40417.17, -0.14558472, -0.12680994, -1119756.3, 105119.555, 0.0, 9.999518, 10.000845 
1.0350748e+3, 1.8501213e+2, -1161338.8, -1123791.6, 93077.58, -0.16096693, -0.06847171, -1047613.2, 79250.31, 0.0, 9.999657, 10.0001745 
1.0350819e+3, 1.9501106e+2, -882176.94, -936875.6, 131964.22, -0.067439765, -0.20977779, -774757.8, 254114.39, 0.0, 10.000897, 10.000185 
1.0350876e+3, 2.0501034e+2, -852187.4, -982896.06, 58348.98, -0.012398929, -0.24737413, -829930.1, 100948.27, 0.0, 10.000907, 9.999196 
1.035092e+3, 2.1500982e+2, -929291.3, -969565.2, 34831.715, 0.008759423, -0.23322067, -909194.6, -76310.79, 0.0, 9.999704, 9.999195 
1.0350973e+3, 2.2500914e+2, -831145.8, -901815.2, 73615.34, 0.0119331945, -0.20564774, -784824.1, -49932.6, 0.0, 9.999844, 9.998916 
1.0351031e+3, 2.3500818e+2, -513860.0, -698773.2, 62907.62, -0.0080906125, -0.20672974, -494488.22, 142414.23, 0.0, 10.001351, 9.998911 
1.0351085e+3, 2.450074e+2, -357893.25, -561931.1, 35152.76, -0.014053347, -0.17756121, -352006.78, 186903.4, 0.0, 10.001706, 9.999005 
1.0351134e+3, 2.550066e+2, -370383.53, -518821.66, 117604.32, -0.0009397691, -0.17008734, -305537.0, 135379.42, 0.0, 10.000944, 9.999 
1.03511706e+3, 2.650049e+2, -408665.7, -581278.25, 72327.25, -0.03593624, -0.19744882, -382366.44, -39433.125, 0.00000000560088, 10.000419, 9.99815 
1.0351194e+3, 2.7500203e+2, -350631.06, -502410.28, 50880.23, -0.11343187, -0.3127928, -335153.1, -90190.46, 0.0000022721786, 10.00015, 9.998144 
1.0351237e+3, 2.850011e+2, -213044.56, -385656.47, 101173.81, -0.10011343, -0.21810675, -166366.1, -19391.535, 0.000031159278, 10.000423, 9.998141 
1.0351297e+3, 2.9500207e+2, -17562.703, -243796.77, 116112.91, 0.0038153068, 0.045520496, 31424.15, 80393.336, 0.00015252481, 10.001098, 9.998121 
1.0351341e+3, 3.0500048e+2, 122694.555, -121483.664, 43818.984, 0.014809923, 0.0660438, 130319.96, 130319.96, 0.00042681675, 10.001612, 9.998376 
1.0351367e+3, 3.1499627e+2, 159547.7, -79683.94, 62324.832, -0.08095216, -0.21463008, 174810.83, 174810.83, 0.0008482349, 10.001732, 9.998601 
1.04504615e+3, 1.2500672e+2, -1637691.4, -1573504.3, 121061.35, 0.087962374, -0.058482613, -1480354.6, 234575.31, 0.0003338259, 10.000029, 10.000954 
1.04504906e+3, 1.3500829e+2, -1534747.8, -1454698.1, 34094.277, -0.03469782, -0.032317333, -1442145.4, 174762.48, 0.00013404706, 10.000008, 10.001111 
1.04505606e+3, 1.4500743e+2, -1549794.1, -1615970.0, 112760.84, 0.14138705, -0.13054249, -1465366.9, 53545.617, 0.000024406929, 10.000121, 9.999265 
1.0450622e+3, 1.5500475e+2, -1390945.5, -1482890.8, 145463.34, 0.095596954, -0.3444236, -1284363.0, 136574.84, 0.0000004785213, 10.000522, 9.9993105 
1.0450666e+3, 1.6500486e+2, -1219341.3, -1236413.6, 65166.5, -0.0017191055, -0.31464124, -1162154.3, 160782.66, 0.0, 10.000537, 10.000322 
1.0450695e+3, 1.7500754e+2, -1165835.4, -1158966.3, 18611.266, -0.13166912, -0.095075116, -1143475.3, 81436.3, 0.0, 10.000229, 10.000327 
1.0450747e+3, 1.8500826e+2, -1095589.1, -1080213.1, 82669.32, -0.15671746, -0.050439328, -1004875.1, 122028.08, 0.0, 10.000057, 10.000281 
1.0450823e+3, 1.9500694e+2, -1004297.56, -984936.94, 51687.344, -0.077315, -0.22502115, -942031.2, 86881.41, 0.0, 10.00001, 10.000287 
1.04508825e+3, 2.0500614e+2, -926354.8, -1019035.25, -37218.598, -0.013025415, -0.27624512, -913259.06, 17660.176, 0.0, 10.000406, 9.999187 
1.0450928e+3, 2.1500564e+2, -707883.06, -861306.3, -16263.267, 0.04072269, -0.26018342, -706178.06, 126746.96, 0.0, 10.00123, 9.999198 
1.045098e+3, 2.2500521e+2, -625346.9, -793909.9, 102577.6, 0.03737832, -0.21085511, -576867.2, 158064.27, 0.0, 10.001212, 9.999001 
1.04510374e+3, 2.3500475e+2, -660016.3, -762139.7, 119904.28, -0.02651788, -0.16910309, -580754.06, 56185.434, 0.0, 10.000308, 9.998982 
1.0451091e+3, 2.4500445e+2, -510306.8, -528843.44, 76388.25, -0.042901136, -0.1443693, -442626.66, 96315.08, 0.0, 10.000189, 9.999967 
1.04511425e+3, 2.5500417e+2, -317644.5, -381996.3, 68519.81, -0.0034312836, -0.18554644, -274121.97, 166817.28, 0.0, 10.000833, 9.999989 
1.0451183e+3, 2.6500285e+2, -307308.25, -577987.1, 9402.853, -0.0032643748, -0.20271057, -306982.0, 35969.625, 0.0000000009945924, 10.001314, 9.997742 
1.04512095e+3, 2.750002e+2, -180017.34, -467521.25, 1843.0488, -0.035445407, -0.2545279, -180005.53, 64975.844, 0.0000020282196, 10.001515, 9.997731 
1.045125e+3, 2.8499895e+2, -77212.94, -314595.84, 84483.65, -0.044913, -0.17161746, -50215.855, 96781.16, 0.00002862002, 10.001313, 9.99821 
1.04513034e+3, 2.9499915e+2, -65099.652, -254106.6, 75489.03, -0.02751097, 0.0042158207, -38650.656, 10347.888, 0.00014590684, 10.00071, 9.9982395 
1.0451355e+3, 3.0499762e+2, 54293.414, -192769.66, 50142.098, 0.010800337, 0.0407806, 64082.06, 64082.06, 0.0004167961, 10.001305, 9.998034 
1.0451405e+3, 3.1499344e+2, 317009.3, -36064.57, 47444.258, 0.08033189, -0.19815685, 323273.5, 323273.5, 0.0008355391, 10.002934, 9.998331 
1.0550464e+3, 1.2500685e+2, -1781806.9, -1874037.9, 75329.74, 0.070929594, 0.042799436, -1739598.0, -24677.139, 0.00039971265, 10.000051, 9.99887 
1.05504885e+3, 1.3500386e+2, -1686753.4, -1770952.1, 37969.133, -0.07162109, -0.16890863, -1672160.5, -55207.492, 0.00016604259, 10.000019, 9.998931 
1.05505615e+3, 1.4500281e+2, -1468807.0, -1461083.8, 118852.6, 0.11821367, -0.23070705, -1346030.1, 172932.11, 0.000032768716, 10.000174, 10.000304 
1.0550625e+3, 1.5500462e+2, -1318094.4, -1338032.1, 165066.89, 0.06882892, -0.09969625, -1162695.6, 258243.98, 0.0000008393984, 10.000542, 10.0002985 
1.0550676e+3, 1.6500501e+2, -1295977.0, -1393225.9, 45781.086, 0.03275277, -0.03365645, -1277816.4, 45118.234, 0.0, 10.000531, 9.999246 
1.05507165e+3, 1.7500387e+2, -1237322.4, -1313727.9, 12040.621, 0.04220622, -0.08996635, -1235469.9, -10520.814, 0.0, 10.000256, 9.999251 
1.0550764e+3, 1.8500291e+2, -1142142.4, -1173004.8, 73100.62, -0.015337955, -0.12839189, -1082862.0, 44097.14, 0.0, 10.000044, 9.999649 
1.0550816e+3, 1.9500202e+2, -1054622.0, -1081638.1, 56496.617, -0.14589362, -0.19820744, -1010041.0, 18925.258, 0.0, 9.999975, 9.999639 
1.0550877e+3, 2.050018e+2, -884670.5, -916871.3, -13857.476, -0.121959485, -0.19430655, -879528.2, 51438.613, 0.0, 10.000336, 9.999924 
1.0550944e+3, 2.1500212e+2, -666039.1, -759438.8, 20489.324, 0.057752084, -0.17015655, -661742.0, 171220.19, 0.0, 10.001161, 9.999932 
1.0550995e+3, 2.2500215e+2, -595765.8, -710355.1, 62312.76, 0.049294796, -0.14202239, -568410.9, 166551.3, 0.0, 10.001115, 9.99962 
1.0551029e+3, 2.3500174e+2, -625810.7, -674076.3, 92267.734, -0.14826639, -0.1607824, -554571.94, 82396.32, 0.0, 10.000231, 9.999624 
1.0551079e+3, 2.4500161e+2, -525289.25, -540787.06, 93030.11, -0.19869201, -0.14864676, -439685.88, 99283.51, 0.0, 10.000107, 9.999924 
1.0551143e+3, 2.5500163e+2, -330380.4, -395931.06, 98423.43, -0.09997896, -0.15661374, -259418.6, 181548.28, 0.0, 10.000773, 9.999923 
1.0551195e+3, 2.6500103e+2, -323785.94, -590498.6, 12246.187, -0.01323166, -0.092347525, -323224.84, 19748.527, 0.000000000012280949, 10.001229, 9.997693 
1.05512366e+3, 2.7499974e+2, -194432.02, -478633.4, 19555.69, 0.058415405, -0.009230773, -193092.72, 51897.54, 0.0000016155456, 10.001437, 9.997692 
1.0551275e+3, 2.8499728e+2, -84309.27, -318584.56, 55369.305, 0.061917897, -0.045758214, -71882.31, 75133.49, 0.000025303238, 10.001267, 9.998204 
1.0551315e+3, 2.9499355e+2, -77243.4, -267057.78, 62190.395, 0.00691803, -0.2569836, -58682.44, -9630.853, 0.000137169, 10.000655, 9.998179 
1.0551371e+3, 3.0499184e+2, 28847.258, -230694.44, 110476.805, 0.023155786, -0.22041139, 69504.1, 69504.1, 0.00040068463, 10.001244, 9.9978 
1.05514415e+3, 3.1499046e+2, 285906.9, -69109.54, 127124.89, 0.11174112, -0.16244344, 326733.1, 326733.1, 0.00081052736, 10.002803, 9.99817 
1.0650464e+3, 1.2500353e+2, -2009913.1, -2045482.3, -5250.488, 0.13536854, -0.04818292, -2009154.3, -294207.06, 0.00047318285, 9.998742, 9.998329 
1.0650493e+3, 1.3500057e+2, -1547613.6, -1768740.5, 81179.71, -0.086262435, -0.19546248, -1521011.4, 95971.734, 0.00020250746, 10.001259, 9.998343 
1.065057e+3, 1.4499962e+2, -1273235.3, -1383380.6, 119775.61, 0.12107554, -0.21108386, -1196477.8, 322516.0, 0.000042863663, 10.001592, 10.000153 
1.0650635e+3, 1.5500171e+2, -1428241.5, -1405425.9, 62435.527, 0.1433155, -0.035552256, -1353364.5, 67604.44, 0.0000013547858, 9.999853, 10.000163 
1.06506824e+3, 1.6500172e+2, -1474619.1, -1509113.6, -15268.27, 0.10773502, 0.011524749, -1468831.9, -145863.66, 0.0, 9.999432, 9.998984 
1.06507204e+3, 1.749996e+2, -1248923.5, -1346414.9, -3021.1946, 0.0565054, -0.114877336, -1248830.0, -23837.908, 0.0, 10.000302, 9.999006 
1.0650767e+3, 1.849984e+2, -1108252.8, -1180008.9, 89513.52, -0.0044571315, -0.15447728, -1047694.8, 79310.21, 0.0, 10.000369, 9.99945 
1.065082e+3, 1.9499797e+2, -1119904.5, -1135796.9, 91852.555, -0.090197094, -0.15674235, -1035655.06, -6646.2974, 0.0, 9.99962, 9.999442 
1.06508814e+3, 2.0499793e+2, -970523.7, -938135.44, 76615.15, -0.07261951, -0.13692103, -876021.6, 54986.125, 0.0, 9.999657, 10.000106 
1.0650951e+3, 2.1499813e+2, -759638.25, -785714.0, 55279.637, 0.05254134, -0.1400874, -715879.75, 117123.34, 0.0, 10.000438, 10.000102 
1.0651001e+3, 2.2499822e+2, -664183.8, -704238.44, 18401.02, 0.039215304, -0.13241868, -657013.9, 77987.48, 0.0, 10.000477, 9.999971 
1.06510326e+3, 2.3499802e+2, -670937.2, -654754.5, 15926.445, -0.111137845, -0.16439828, -644981.9, -7977.77, 0.0, 9.999753, 9.999985 
1.06510825e+3, 2.4499811e+2, -583318.6, -584748.94, 70843.266, -0.15687777, -0.14239499, -513186.9, 25816.81, 0.0, 9.999777, 9.999783 
1.0651149e+3, 2.549983e+2, -377942.06, -436325.75, 53184.74, -0.1000546, -0.116772376, -346464.47, 94537.516, 0.0, 10.000517, 9.999773 
1.0651206e+3, 2.6499775e+2, -321655.16, -544424.4, -22416.04, -0.014470782, -0.06071446, -319421.94, 23586.135, 0.0, 10.00104, 9.998103 
1.0651254e+3, 2.7499643e+2, -186314.39, -424009.0, 3197.0608, 0.1075297, -0.02276846, -186271.39, 58751.258, 0.00000091217555, 10.001278, 9.998139 
1.0651298e+3, 2.8499386e+2, -57279.793, -366021.78, 41769.38, 0.12921324, -0.0657063, -51728.664, 95320.72, 0.000020741376, 10.001727, 9.997653 
1.0651335e+3, 2.9498994e+2, 135849.72, -223018.25, -4964.6636, 0.058502432, -0.24215537, 135918.39, 185008.34, 0.0001251533, 10.002377, 9.997648 
1.0651392e+3, 3.0498868e+2, 233751.2, -92613.68, 83099.58, 0.047890995, -0.15523155, 253691.81, 253691.81, 0.0003777452, 10.002465, 9.998168 
1.0651465e+3, 3.1498775e+2, 191506.66, -53951.617, 114875.53, 0.119221814, -0.08413187, 236881.14, 236881.14, 0.00077367935, 10.001882, 9.998717 
1.07504554e+3, 1.2499682e+2, -1927162.1, -1884567.4, 35661.008, 0.13727012, -0.32615831, -1864328.1, -149320.19, 0.00055371417, 9.998801, 9.999396 
1.07505016e+3, 1.3499846e+2, -1482510.1, -1630414.9, 176569.95, -0.13949512, -0.109986246, -1365031.3, 251966.36, 0.00024334127, 10.001252, 9.999291 
1.0750585e+3, 1.4499788e+2, -1361049.4, -1571597.5, 43652.926, 0.08761459, -0.07174864, -1352357.6, 166649.38, 0.00005483326, 10.001609, 9.998856 
1.07506454e+3, 1.549961e+2, -1512310.8, -1590315.5, 2699.859, 0.25306088, -0.15535553, -1512217.4, -91191.8, 0.000002073113, 9.999893, 9.998878 
1.0750685e+3, 1.6499512e+2, -1434612.3, -1432047.9, 9761.785, 0.16589299, -0.1691651, -1423484.5, -100448.36, 0.0000000000166348, 9.999457, 9.999499 
1.0750706e+3, 1.7499475e+2, -1208419.4, -1270480.3, 35330.934, -0.13795622, -0.17332682, -1192426.8, 32613.463, 0.0, 10.00033, 9.999515 
1.0750754e+3, 1.8499471e+2, -1096728.8, -1149034.0, 53009.207, -0.17903687, -0.13405901, -1063771.9, 63269.215, 0.0, 10.000343, 9.999673 
1.075083e+3, 1.9499484e+2, -1105532.8, -1101491.1, 69050.89, 0.031636577, -0.103295535, -1034431.5, -5391.605, 0.0, 9.999603, 9.999683 
1.07508935e+3, 2.0499454e+2, -1005824.7, -1000966.94, 97499.68, 0.08051646, -0.10073491, -905865.9, 25175.83, 0.0, 9.99961, 9.999699 
1.0750947e+3, 2.1499364e+2, -798659.1, -848562.3, 90877.27, -0.032483727, -0.17578033, -729370.25, 103677.67, 0.0, 10.000357, 9.99971 
1.0750997e+3, 2.249934e+2, -671542.4, -696885.6, -15280.991, -0.050622683, -0.18566316, -664362.6, 70686.32, 0.0, 10.00038, 10.000069 
1.0751046e+3, 2.3499368e+2, -673749.25, -644124.8, -4431.543, 0.027998261, -0.18082921, -643476.06, -6430.1157, 0.0, 9.999683, 10.000091 
1.07511e+3, 2.4499398e+2, -614369.25, -633576.6, 94384.03, 0.02411212, -0.12620427, -529101.56, 9942.395, 0.0, 9.999708, 9.999481 
1.07511595e+3, 2.5499415e+2, -404888.97, -480842.06, 89634.32, -0.06466606, -0.076186426, -345518.06, 95526.734, 0.0, 10.000463, 9.9994955 
1.0751213e+3, 2.64993e+2, -273528.94, -423948.8, -19573.578, -0.05439467, -0.10987287, -271023.63, 72031.8, 0.000000000031670343, 10.000955, 9.998974 
1.0751264e+3, 2.7499044e+2, -137795.16, -306252.44, 20116.553, 0.055987306, -0.28168875, -135426.22, 109651.14, 0.00000057346807, 10.001203, 9.998987 
1.0751312e+3, 2.8498888e+2, -138845.44, -521945.47, 59607.25, 0.097618446, -0.21212684, -129785.305, 17311.104, 0.000016659129, 10.001672, 9.996607 
1.07513614e+3, 2.9498824e+2, 57561.33, -376096.0, 32251.186, 0.06674868, 0.04281421, 59946.734, 109060.484, 0.00011189467, 10.002333, 9.996621 
1.0751415e+3, 3.0498788e+2, 291851.03, 41894.39, 61270.004, 0.02601719, 0.22436, 306061.78, 306061.78, 0.00035149738, 10.002412, 9.999116 
1.07514724e+3, 3.149853e+2, 242273.05, 83205.43, 112629.27, -0.023265835, 0.031755082, 300619.56, 300619.56, 0.00073250505, 10.001745, 9.999728 
1.0850448e+3, 1.2499149e+2, -1653957.9, -1671206.4, -70728.13, 0.12296865, -0.3166754, -1591330.1, 123732.695, 0.00064071716, 10.000322, 10.000138 
1.085051e+3, 1.3499352e+2, -1780337.8, -1698765.1, 59838.813, -0.051628765, -0.12628895, -1667134.6, -50089.375, 0.00028839763, 9.99888, 9.999974 
1.0850592e+3, 1.449933e+2, -1772868.4, -1759767.0, -42161.203, 0.14317109, -0.0879338, -1723650.6, -204600.13, 0.00006873226, 9.998755, 9.998934 
1.0850642e+3, 1.5499173e+2, -1495871.0, -1575086.4, -3237.9277, 0.23008177, -0.15797281, -1495738.9, -74668.95, 0.0000030594845, 9.999983, 9.998936 
1.08506784e+3, 1.6499098e+2, -1311225.8, -1355975.4, 63270.074, 0.13217062, -0.15966189, -1266490.8, 56588.27, 0.000000000186287, 10.000233, 9.999646 
1.0850705e+3, 1.7499089e+2, -1311726.9, -1305895.8, 46832.973, -0.12226822, -0.14761648, -1261887.8, -36808.39, 0.0, 9.999561, 9.999643 
1.0850758e+3, 1.8499105e+2, -1189561.5, -1191481.4, 57597.137, -0.13207477, -0.09702612, -1132916.4, -5838.285, 0.0, 9.999694, 9.999693 
1.0850836e+3, 1.949913e+2, -960939.3, -1030027.7, 43769.637, 0.09561749, -0.05488443, -939724.4, 89351.76, 0.0, 10.000594, 9.999694 
1.0850898e+3, 2.0499091e+2, -832566.2, -913487.06, 93620.38, 0.11435195, -0.063362375, -771037.3, 160041.3, 0.0, 10.000784, 9.999729 
1.0850945e+3, 2.1498963e+2, -811984.5, -854015.44, 102036.164, -0.080174975, -0.17852753, -728822.06, 104265.46, 0.0, 10.000258, 9.99972 
1.0850995e+3, 2.249892e+2, -713204.44, -732207.0, 5098.6587, -0.09751676, -0.20005976, -711922.8, 23167.084, 0.0, 10.000164, 9.999932 
1.085105e+3, 2.3498952e+2, -564194.9, -608901.3, -18613.953, 0.06471925, -0.17763728, -557459.5, 79627.48, 0.0, 10.00051, 9.999939 
1.08511075e+3, 2.449896e+2, -512677.56, -589307.25, 101947.94, 0.093062386, -0.13349554, -442082.3, 97004.484, 0.0, 10.000432, 9.999435 
1.0851166e+3, 2.5498942e+2, -491994.72, -527195.0, 101685.75, -0.014641558, -0.112643436, -406397.2, 34693.293, 0.0, 9.999898, 9.999446 
1.0851223e+3, 2.6498836e+2, -351016.38, -433177.56, 16777.344, -0.021636164, -0.1467472, -347722.5, -4622.3096, 0.000000020287489, 10.000295, 9.999225 
1.0851278e+3, 2.7498636e+2, -69285.93, -246561.14, -4095.9148, 0.073995784, -0.29013574, -69191.34, 175926.22, 0.0000009638229, 10.001554, 9.999227 
1.0851334e+3, 2.8498515e+2, 11320.191, -392985.53, 79464.91, 0.109434344, -0.22035868, 26377.943, 173509.66, 0.000015514439, 10.002454, 9.997119 
1.0851391e+3, 2.949848e+2, 177558.06, -256230.05, 144610.03, 0.09392543, 0.011602071, 221345.98, 270489.13, 0.00010321646, 10.0029, 9.997168 
1.08514406e+3, 3.0498436e+2, 297213.88, -1397.0953, 142638.17, 0.0358603, 0.17629136, 354397.53, 354397.53, 0.0003319706, 10.002659, 9.998696 
1.08514845e+3, 3.149811e+2, 197163.14, 23591.229, 66185.94, -0.05677474, -0.037636384, 219521.03, 219521.03, 0.0007041168, 10.001621, 9.999365 
1.0950442e+3, 1.24987595e+2, -1617925.1, -1602015.0, -169301.25, -0.009060154, -0.030511234, -1440482.0, 274629.06, 0.000734217, 10.00035, 10.000599 
1.0950518e+3, 1.3498603e+2, -1749186.9, -1637898.9, 10799.23, 0.11036741, -0.24329507, -1636860.6, -19737.613, 0.00033773432, 9.998898, 10.000383 
1.09505884e+3, 1.4498618e+2, -1677425.1, -1566430.5, -1253.4087, 0.21656518, -0.25468954, -1566416.4, -47294.707, 0.0000845864, 9.998776, 10.000249 
1.0950623e+3, 1.5498862e+2, -1403779.1, -1384977.6, 50590.844, 0.02281947, -0.051770363, -1342921.5, 78180.06, 0.0000043925156, 9.99999, 10.000236 
1.0950665e+3, 1.649893e+2, -1321985.3, -1387352.0, 30266.533, -0.046413206, 0.03587862, -1310123.5, 12973.343, 0.0000000006358386, 10.000266, 9.999418 
1.095072e+3, 1.7498799e+2, -1319265.5, -1335358.9, 29570.611, 0.045309436, -0.052397624, -1296666.3, -71556.64, 0.0, 9.999611, 9.999421 
1.0950778e+3, 1.8498743e+2, -1204846.6, -1221349.3, 84610.72, 0.07629842, -0.051320113, -1128085.9, -970.1315, 0.0, 9.999692, 9.999486 
1.09508395e+3, 1.9498745e+2, -982867.56, -1063796.9, 85375.02, 0.049012672, -0.014653645, -928853.2, 100263.43, 0.0, 10.0005455, 9.999484 
1.0950895e+3, 2.0498706e+2, -811652.3, -858302.9, 65299.555, -0.024499929, -0.030638875, -765637.1, 165481.1, 0.0, 10.000729, 10.000139 
1.0950942e+3, 2.149862e+2, -792160.0, -796469.25, 87487.27, -0.14239408, -0.14661917, -706800.8, 126320.54, 0.0, 10.000183, 10.0001545 
1.0950992e+3, 2.2498575e+2, -758151.94, -804238.94, 11300.354, -0.15532586, -0.17120752, -755530.25, -20406.564, 0.0, 10.000074, 9.999478 
1.0951044e+3, 2.3498547e+2, -608203.75, -682525.6, 2748.1318, -0.058348656, -0.16232121, -608102.25, 29025.219, 0.0, 10.000431, 9.999472 
1.09511025e+3, 2.4498494e+2, -510666.1, -566907.6, 75153.57, -0.010740787, -0.16571628, -458544.5, 80587.93, 0.0, 10.000355, 9.999625 
1.0951167e+3, 2.549841e+2, -483192.94, -500351.66, 90035.52, -0.006261638, -0.22943297, -401328.94, 39810.2, 0.0, 9.99986, 9.999648 
1.09512314e+3, 2.649839e+2, -386985.88, -492321.4, 60250.332, 0.030458188, -0.17382506, -359628.66, -16486.416, 0.00000010014453, 10.000231, 9.998849 
1.0951298e+3, 2.7498403e+2, -99436.48, -300496.78, 54360.58, 0.09075932, -0.06293768, -85680.22, 159463.81, 0.0000018004142, 10.001514, 9.998876 
1.0951359e+3, 2.8498256e+2, 141680.8, -110725.805, 87601.016, 0.101610035, -0.10413966, 169104.34, 316261.06, 0.000016749296, 10.002401, 9.9990835 
1.09514184e+3, 2.9497948e+2, 302256.4, 19873.674, 167998.38, 0.06925709, -0.34253997, 380515.38, 429695.7, 0.000099959936, 10.002818, 9.999107 
1.0951466e+3, 3.049781e+2, 160771.38, -259827.92, 97395.55, 0.012284409, -0.28267825, 182229.86, 182229.86, 0.00032156563, 10.00256, 9.996965 
1.0951499e+3, 3.149753e+2, 67270.22, -237212.78, 40817.04, -0.10628888, -0.27852252, 72646.945, 72646.945, 0.0006902331, 10.001577, 9.9976 
1.1050447e+3, 1.24983564e+2, -1855952.8, -1679806.3, -62425.516, 0.098053224, 0.06755398, -1659926.5, 55228.76, 0.00083503575, 9.9985485, 10.000925 
1.1050513e+3, 1.3498122e+2, -1754666.4, -1601886.6, 108391.38, 0.19122888, -0.26348996, -1545671.4, 71499.555, 0.0003918232, 9.998675, 10.00074 
1.1050572e+3, 1.4498153e+2, -1635810.3, -1508180.1, 130549.28, 0.18009464, -0.2925172, -1426683.5, 92482.31, 0.000102570426, 9.998896, 10.000591 
1.10506125e+3, 1.5498477e+2, -1480357.0, -1380718.1, 96592.51, -0.031711496, -0.046754524, -1321854.1, 99283.84, 0.0000061708192, 9.999288, 10.000601 
1.1050662e+3, 1.6498561e+2, -1418237.0, -1432470.8, 29109.01, -0.07938432, 0.03873776, -1395387.5, -72256.35, 0.0000000015512864, 9.999602, 9.999426 
1.10507205e+3, 1.7498396e+2, -1272327.8, -1307644.6, 30036.656, 0.073917024, -0.086975455, -1255143.4, -29996.627, 0.0, 9.999921, 9.9994545 
1.105078e+3, 1.8498321e+2, -1160230.6, -1208016.3, 132583.88, 0.11970114, -0.10178393, -1049403.9, 77750.125, 0.0, 10.00003, 9.99942 
1.1050841e+3, 1.949832e+2, -1076199.5, -1114681.0, 131487.72, 0.047444537, -0.06189063, -962552.2, 66602.9, 0.0, 9.999928, 9.9994335 
1.1050897e+3, 2.0498282e+2, -951790.25, -941782.2, 88280.375, -0.017506938, -0.0678721, -858364.2, 72793.28, 0.0, 9.999839, 9.999994 
1.105095e+3, 2.1498199e+2, -855977.56, -842710.44, 52841.207, -0.06905833, -0.16550651, -796088.06, 37073.992, 0.0, 9.999816, 10.000011 
1.10509984e+3, 2.2498168e+2, -743116.56, -781891.2, 17696.738, -0.09466484, -0.17577651, -736254.25, -1090.9774, 0.0, 10.0001135, 9.999609 
1.1051046e+3, 2.3498169e+2, -558766.94, -642045.75, 37510.754, -0.09235476, -0.15097052, -544362.6, 92800.414, 0.0, 10.000707, 9.999611 
1.1051106e+3, 2.4498099e+2, -405021.25, -540883.25, 111148.2, -0.045562834, -0.16774185, -342688.88, 196480.05, 0.0, 10.001185, 9.999405 
1.10511795e+3, 2.549795e+2, -252399.89, -413983.4, 78041.35, 0.051941004, -0.27601448, -220862.84, 220319.27, 0.0, 10.001551, 9.999426 
1.1051249e+3, 2.649791e+2, -179088.8, -438318.06, 73810.0, 0.101344645, -0.20608754, -159546.23, 183641.92, 0.00000018749917, 10.001861, 9.998435 
1.1051316e+3, 2.7497962e+2, -52628.254, -325925.13, 47585.74, 0.101093955, -0.01176194, -44579.773, 200609.11, 0.0000025324416, 10.002053, 9.998443 
1.10513784e+3, 2.8497818e+2, 80223.055, -90197.195, 2681.895, 0.09061706, -0.04894815, 80265.24, 227466.77, 0.000018771152, 10.001778, 9.999518 
1.1051438e+3, 2.9497477e+2, 62692.895, -48056.074, -46213.633, 0.08188183, -0.36144906, 79443.53, 128669.695, 0.00010053436, 10.000979, 9.99952 
1.105149e+3, 3.0497348e+2, 46214.117, -339595.4, -63546.293, 0.04715129, -0.30056542, 56411.246, 56411.246, 0.00031863083, 10.00185, 9.99677 
1.10515356e+3, 3.1497127e+2, 431466.34, -70660.16, -40546.13, -0.028739968, -0.22091918, 434719.34, 434719.34, 0.00068517454, 10.004127, 9.99751 
1.1150458e+3, 1.24979354e+2, -1840259.1, -1647503.1, -78811.03, 0.32439467, -0.047728557, -1619382.6, 95813.42, 0.000944546, 9.99857, 10.001128 
1.1150497e+3, 1.3497917e+2, -1739366.8, -1565112.4, 119569.56, 0.1495737, -0.18158959, -1504293.5, 112894.63, 0.00045159098, 9.998667, 10.000992 
1.11505434e+3, 1.449795e+2, -1663277.5, -1581718.6, 136224.42, -0.02195749, -0.19684575, -1480300.9, 38881.125, 0.00012308804, 9.998958, 10.000061 
1.1150612e+3, 1.5498032e+2, -1513626.5, -1459131.6, 117124.04, -0.0009661334, -0.13954042, -1366127.4, 55050.273, 0.000008505592, 9.99932, 10.000052 
1.1150664e+3, 1.6498011e+2, -1399998.0, -1398769.0, 31015.168, -0.03587747, -0.14285715, -1368362.3, -45181.957, 0.0000000033697685, 9.9996195, 9.99965 
1.1150706e+3, 1.7497884e+2, -1255425.1, -1276966.3, 46763.15, -0.08374923, -0.249904, -1218208.1, 6982.055, 0.0, 9.999936, 9.999661 
1.1150764e+3, 1.8497843e+2, -1150003.6, -1190917.9, 119805.86, -0.059108883, -0.24691725, -1048920.9, 78272.28, 0.0, 10.000047, 9.999527 
1.115084e+3, 1.9497871e+2, -1072708.3, -1101855.9, 131137.84, 0.030767135, -0.18824276, -955336.9, 73853.664, 0.0, 9.999904, 9.999534 
1.11509055e+3, 2.0497829e+2, -1006751.8, -1047817.0, 76267.76, 0.074342564, -0.1689546, -948301.1, -17105.514, 0.0, 9.999803, 9.999281 
1.1150963e+3, 2.1497697e+2, -918434.9, -955731.2, 58662.605, 0.0764286, -0.24656136, -875527.7, -42317.594, 0.0, 9.999742, 9.999271 
1.11510135e+3, 2.2497696e+2, -705108.7, -685699.0, 33075.285, 0.018817987, -0.22201255, -660934.1, 74274.98, 0.0, 10.000041, 10.000303 
1.1151054e+3, 2.3497818e+2, -520003.3, -544127.1, 65741.836, -0.0907772, -0.14577347, -465226.0, 171967.53, 0.0, 10.00063, 10.000322 
1.1151117e+3, 2.4497774e+2, -465426.9, -643206.25, 118067.01, -0.06705488, -0.1416856, -406528.9, 132667.69, 0.0, 10.001087, 9.998749 
1.11512e+3, 2.549754e+2, -308302.56, -517535.1, 99322.28, 0.09459383, -0.26461864, -268663.9, 172556.27, 0.0, 10.001495, 9.998742 
1.1151272e+3, 2.649739e+2, -220495.25, -512611.6, 72847.97, 0.12783934, -0.24555483, -203336.34, 139901.97, 0.00000020790911, 10.001808, 9.997951 
1.1151332e+3, 2.7497315e+2, -96628.016, -399013.9, 64587.98, 0.03768033, -0.13810305, -83410.15, 161841.83, 0.0000030041272, 10.001972, 9.997979 
1.11513905e+3, 2.849721e+2, -9568.703, -254683.83, -30675.629, 0.01848291, -0.05605684, -5788.0283, 141477.19, 0.000021469468, 10.001683, 9.998434 
1.1151448e+3, 2.949707e+2, -12172.587, -203365.9, -61174.242, 0.06406173, -0.06295937, 5725.2876, 55004.926, 0.00010455908, 10.0009775, 9.998454 
1.11515135e+3, 3.0497053e+2, 127582.516, -163568.69, 19851.322, 0.079975486, 0.10164819, 128929.79, 128929.79, 0.00032151054, 10.001823, 9.997991 
1.1151586e+3, 3.1496862e+2, 499834.78, 105716.02, 63903.902, 0.026646778, 0.08976659, 509937.44, 509937.44, 0.0006861148, 10.003976, 9.9987955 
1.1250447e+3, 1.24975294e+2, -1691212.8, -1627316.1, -83183.87, 0.29697418, -0.0890897, -1570156.4, 145077.69, 0.0010643419, 9.999803, 10.000683 
1.12504944e+3, 1.3497566e+2, -1524445.9, -1501220.5, 39665.938, 0.18652685, -0.13318254, -1471502.4, 145720.11, 0.00051804923, 10.000312, 10.000637 
1.1250536e+3, 1.4497565e+2, -1551136.0, -1575643.0, 32983.543, -0.03936198, -0.14378855, -1528203.4, -8983.02, 0.00014661087, 9.999938, 9.999628 
1.1250609e+3, 1.5497515e+2, -1618174.9, -1557771.8, 2321.1204, 0.075324595, -0.17529857, -1557682.6, -136453.45, 0.00001150662, 9.998811, 9.999621 
1.1250663e+3, 1.6497472e+2, -1494617.9, -1412092.6, -16406.963, 0.04549758, -0.19255032, -1408950.4, -85717.24, 0.0000000061074554, 9.998832, 9.999939 
1.12507045e+3, 1.7497429e+2, -1210172.5, -1218815.9, -7094.3394, -0.09612944, -0.24602397, -1206187.1, 19045.924, 0.0, 10.000092, 9.999984 
1.1250763e+3, 1.8497387e+2, -1090674.1, -1183494.4, 35808.184, -0.10125134, -0.25237554, -1078465.8, 48769.848, 0.0, 10.000547, 9.999336 
1.125084e+3, 1.9497323e+2, -1029302.56, -1103254.6, 11064.16, 0.019753523, -0.2647659, -1027682.7, 1560.0358, 0.0, 10.000289, 9.999342 
1.1250908e+3, 2.0497294e+2, -905574.94, -985495.56, 8148.4966, 0.0790698, -0.23005494, -904752.56, 26494.842, 0.0, 10.000447, 9.999395 
1.1250968e+3, 2.1497275e+2, -716377.1, -840370.44, 34232.234, 0.081402704, -0.20491086, -707554.06, 125697.37, 0.0, 10.001061, 9.999421 
1.12510204e+3, 2.2497275e+2, -594771.8, -671654.0, 1636.3948, 0.052639723, -0.17055297, -594737.0, 140513.77, 0.0, 10.000963, 9.999961 
1.12510666e+3, 2.3497283e+2, -605782.75, -619928.6, -55880.793, -0.0011036947, -0.1734154, -556529.06, 80717.1, 0.0, 10.000193, 10.00001 
1.1251131e+3, 2.44972e+2, -605643.3, -756974.75, 11268.945, 0.007322818, -0.17310199, -604808.8, -65554.61, 0.0, 10.000323, 9.998336 
1.1251212e+3, 2.5497004e+2, -360332.4, -589055.9, -140.18443, 0.07743796, -0.21714124, -360332.3, 80944.09, 0.0, 10.001341, 9.998326 
1.1251284e+3, 2.6496857e+2, -209133.66, -466895.88, -833.99396, 0.08203661, -0.19370438, -209130.95, 134163.08, 0.00000016860811, 10.0017185, 9.998306 
1.1251347e+3, 2.7496734e+2, -143620.28, -380988.0, 32275.936, 0.02569357, -0.16442707, -139309.84, 105998.89, 0.0000038179373, 10.001475, 9.99834 
1.1251407e+3, 2.8496632e+2, -16768.123, -313231.66, 11092.546, 0.021784097, -0.077704184, -16353.661, 130968.4, 0.000026281929, 10.001861, 9.997951 
1.12514675e+3, 2.949654e+2, 215661.94, -147463.94, 4385.0986, 0.06768059, 0.012836052, 215714.89, 265049.97, 0.00011344339, 10.002772, 9.997974 
1.1251537e+3, 3.0496514e+2, 259121.44, -86029.06, 95968.37, 0.086529806, 0.19067867, 284010.47, 284010.47, 0.00033238306, 10.002682, 9.998105 
1.12516135e+3, 3.1496283e+2, 138693.08, -63056.957, 32022.266, 0.03918901, 0.1297629, 143653.77, 143653.77, 0.0006975335, 10.00146, 9.998857 
1.1350413e+3, 1.2497137e+2, -1746735.9, -1750197.9, -54831.746, -0.06859985, -0.06866112, -1693607.8, 21661.963, 0.0011953667, 9.999859, 9.999803 
1.1350504e+3, 1.3497081e+2, -1587634.9, -1626885.9, 61409.598, 0.23065263, -0.11719936, -1542791.0, 74481.29, 0.00059164723, 10.0003, 9.999777 
1.1350547e+3, 1.4497013e+2, -1571100.6, -1623322.5, -17356.537, 0.052918702, -0.13387711, -1565858.3, -46578.727, 0.00017336896, 9.999961, 9.999293 
1.1350606e+3, 1.549694e+2, -1636630.6, -1605599.3, -32188.625, 0.13920704, -0.15363777, -1585381.9, -164090.9, 0.000015247707, 9.998848, 9.999278 
1.1350659e+3, 1.6496955e+2, -1462380.1, -1353229.5, 23194.904, 0.09768576, -0.11516222, -1348505.0, -25216.297, 0.000000009421829, 9.998868, 10.000323 
1.1350713e+3, 1.7497042e+2, -1181563.5, -1163275.8, 46251.66, -0.028640103, -0.078140736, -1125272.8, 100001.44, 0.0, 10.000109, 10.000356 
1.13507725e+3, 1.8496957e+2, -1119740.8, -1249210.9, 16780.238, -0.070313305, -0.12228665, -1117601.3, 9679.705, 0.0, 10.000569, 9.998875 
1.1350837e+3, 1.9496681e+2, -1068565.9, -1175864.5, 6702.073, -0.04025441, -0.3007418, -1068148.9, -38837.95, 0.0, 10.000248, 9.998864 
1.13509e+3, 2.0496678e+2, -852192.7, -863639.9, 22982.545, -0.05485167, -0.25606123, -834231.75, 97080.4, 0.0, 10.000399, 10.000256 
1.1350962e+3, 2.1496938e+2, -668019.44, -720410.6, 60584.527, -0.10134094, -0.040754862, -628209.8, 205075.95, 0.0, 10.000973, 10.000291 
1.13510214e+3, 2.2496907e+2, -699727.2, -865402.44, -38093.023, -0.045950852, -0.016733475, -691388.4, 43899.5, 0.0, 10.000863, 9.998675 
1.1351082e+3, 2.3496571e+2, -710499.5, -819632.06, -78297.91, 0.11661203, -0.23595019, -669629.75, -32309.543, 0.0, 10.000117, 9.998675 
1.1351145e+3, 2.4496387e+2, -625254.56, -784327.94, 42638.926, 0.11253082, -0.25917113, -614546.2, -75205.625, 0.0, 10.000266, 9.998175 
1.1351214e+3, 2.5496346e+2, -379808.6, -611916.75, 45622.395, -0.05123043, -0.13351047, -371163.22, 70186.46, 0.0, 10.001265, 9.998207 
1.1351285e+3, 2.64963e+2, -141587.47, -307601.5, -12780.118, -0.0880438, -0.05989604, -140609.39, 202745.77, 0.00000020663475, 10.001635, 9.999443 
1.1351361e+3, 2.7496222e+2, -75380.875, -225505.03, 34619.832, 0.00026011758, -0.09802501, -67781.91, 177577.39, 0.0000055002247, 10.001415, 9.999439 
1.1351428e+3, 2.8496078e+2, -25782.771, -313506.3, 36676.508, 0.02888421, -0.10942713, -21181.162, 126191.4, 0.00003348711, 10.001787, 9.997979 
1.13514915e+3, 2.949587e+2, 201468.31, -147824.78, 46932.426, 0.016933426, -0.13660537, 207664.44, 257058.89, 0.00012779766, 10.002649, 9.998029 
1.1351556e+3, 3.049574e+2, 174172.45, -230753.25, 46267.355, 0.0030991365, -0.025775703, 179391.75, 179391.75, 0.00035402225, 10.002546, 9.997175 
1.1351616e+3, 3.14954e+2, 52555.5, -217969.89, 6127.9033, -0.11099206, -0.10058885, 52694.24, 52694.24, 0.0007264602, 10.001363, 9.997834 
1.1450408e+3, 1.2496553e+2, -1763228.5, -1801224.4, -90353.6, -0.088653475, -0.107187584, -1689897.1, 25427.504, 0.0013373722, 9.999907, 9.999451 
1.1450505e+3, 1.3496524e+2, -1752161.0, -1745401.0, -3390.12, 0.26918575, -0.09468359, -1743993.9, -126664.69, 0.000672049, 9.99931, 9.999462 
1.1450542e+3, 1.449646e+2, -1654083.0, -1644393.9, -28161.283, 0.04627677, -0.10118286, -1620663.5, -101326.055, 0.0002032588, 9.999317, 9.9994545 
1.1450602e+3, 1.54964e+2, -1451729.8, -1497409.5, -27461.23, 0.16974735, -0.12149557, -1438851.5, -17505.83, 0.000019742625, 10.000045, 9.999437 
1.1450658e+3, 1.6496412e+2, -1259097.4, -1267298.0, 70740.39, 0.1391308, -0.08833041, -1192338.6, 131004.41, 0.000000013934886, 10.000312, 10.000219 
1.1450715e+3, 1.7496482e+2, -1183615.1, -1176314.5, 44881.492, -0.0113820955, -0.060716756, -1134935.1, 90395.8, 0.0, 10.000143, 10.000253 
1.1450778e+3, 1.8496409e+2, -1200828.8, -1287282.4, 3926.0562, -0.048375238, -0.085393645, -1200650.9, -73313.56, 0.0, 10.000019, 9.998875 
1.1450845e+3, 1.9496182e+2, -1099587.9, -1184336.8, 12804.6045, 0.013811367, -0.21649638, -1097695.5, -68332.055, 0.0, 10.000026, 9.998902 
1.14509046e+3, 2.0496161e+2, -908675.8, -921506.25, 40731.664, -0.0319245, -0.17954952, -873857.25, 57509.465, 0.0, 10.00014, 9.999989 
1.14509605e+3, 2.1496335e+2, -774519.6, -799364.06, -16598.482, -0.17171034, -0.021567367, -766209.75, 67138.05, 0.0, 10.000368, 10.000041 
1.1451024e+3, 2.2496277e+2, -718479.6, -905392.5, -121314.31, -0.09644602, 0.0028234026, -658798.0, 76555.375, 0.0, 10.000856, 9.998408 
1.14510976e+3, 2.3495974e+2, -513810.2, -753718.2, -99796.02, 0.19680338, -0.1593463, -477725.06, 159660.16, 0.0, 10.001578, 9.998428 
1.1451163e+3, 2.4495815e+2, -431663.72, -646281.9, 93779.95, 0.2057123, -0.16382553, -396459.94, 142943.0, 0.0, 10.001409, 9.998569 
1.14512205e+3, 2.549579e+2, -474173.72, -608191.9, 120893.94, -0.06531434, -0.06232115, -402959.94, 38447.742, 0.0, 10.000419, 9.998631 
1.1451293e+3, 2.6495737e+2, -347677.06, -423862.66, 56915.14, -0.10978885, -0.013147513, -317283.4, 26129.445, 0.00000038376965, 10.000282, 9.9993 
1.1451379e+3, 2.7495623e+2, -146750.23, -275764.22, 778.5344, 0.06997819, -0.072697595, -146745.53, 98674.945, 0.0000075917305, 10.000983, 9.999304 
1.1451449e+3, 2.8495446e+2, -103081.76, -317307.63, -15162.648, 0.097110495, -0.123801164, -102013.89, 45421.785, 0.0000412879, 10.001111, 9.998281 
1.1451504e+3, 2.9495212e+2, -74858.51, -247550.02, -2107.1807, -0.0067993305, -0.20686018, -74832.805, -25375.035, 0.00014478626, 10.000604, 9.99833 
1.145157e+3, 3.0495098e+2, -26408.375, -291153.84, 61701.21, -0.032858256, -0.1102144, -12734.608, -12734.608, 0.00038253577, 10.000991, 9.997515 
1.14516355e+3, 3.1494832e+2, 181731.75, -125015.87, 80586.54, -0.0752494, -0.15045446, 201614.16, 201614.16, 0.00077112904, 10.002113, 9.998111 
1.1550433e+3, 1.2495769e+2, -1744110.3, -1755235.8, -65641.64, 0.13994686, -0.21865378, -1683796.1, 31603.852, 0.001489488, 9.99989, 9.999765 
1.15504965e+3, 1.3495916e+2, -1726569.1, -1697889.5, -21098.15, 0.23804493, -0.060648534, -1686719.4, -69328.45, 0.00075867696, 9.999336, 9.999769 
1.1550521e+3, 1.4495918e+2, -1608236.5, -1563964.5, -9255.136, -0.115346886, -0.043074325, -1562107.6, -42714.93, 0.0002361324, 9.999371, 9.999988 
1.1550598e+3, 1.5495898e+2, -1405949.4, -1413100.6, 5825.014, 0.101150066, -0.079942405, -1402690.1, 18703.053, 0.000024990082, 10.000082, 10.000003 
1.1550659e+3, 1.6495846e+2, -1292396.4, -1339932.6, 54113.066, 0.09879083, -0.11505705, -1257061.6, 66334.49, 0.000000023716384, 10.000332, 9.999708 
1.155071e+3, 1.7495754e+2, -1220996.6, -1252256.6, 42697.516, -0.09618723, -0.19484566, -1191158.3, 34244.375, 0.0, 10.000141, 9.999729 
1.1550775e+3, 1.8495755e+2, -1171734.9, -1230496.4, -3910.065, -0.09060377, -0.14045304, -1171475.9, -44072.473, 0.0, 10.0000305, 9.99926 
1.1550856e+3, 1.949583e+2, -1073416.5, -1128519.5, 17204.293, 0.111851335, -0.011104036, -1068486.0, -39085.81, 0.0, 10.000011, 9.999296 
1.1550918e+3, 2.049574e+2, -1004224.3, -1112694.6, 35835.543, 0.07622797, 0.0027869162, -993454.56, -62043.586, 0.0, 10.000108, 9.99869 
1.1550963e+3, 2.149547e+2, -879724.0, -999265.7, -1738.4292, -0.1942595, -0.15280569, -879698.7, -46261.664, 0.0, 10.000279, 9.9987135 
1.1551028e+3, 2.2495389e+2, -684975.2, -809337.56, -101020.84, -0.15925471, -0.12066941, -628532.1, 106914.65, 0.0, 10.000748, 9.999117 
1.15511134e+3, 2.3495488e+2, -477391.38, -654751.0, -66410.74, 0.1850966, 0.047652185, -455280.88, 182160.39, 0.0, 10.001483, 9.999151 
1.15511805e+3, 2.4495474e+2, -378964.06, -517967.34, 46179.94, 0.23167145, 0.10512197, -365020.72, 174421.58, 0.0, 10.001326, 9.99949 
1.15512304e+3, 2.5495335e+2, -419871.38, -482932.38, 87926.44, -0.024662718, -0.0016331084, -357992.94, 83458.17, 0.0, 10.00036, 9.99952 
1.15513034e+3, 2.649516e+2, -449888.66, -621807.56, 75565.61, -0.04621161, -0.04756039, -421396.44, -77929.12, 0.0000005356376, 10.000225, 9.997966 
1.15514e+3, 2.749493e+2, -249701.7, -467285.13, 35261.266, 0.16779216, -0.0938595, -244130.0, 1362.9855, 0.000008957139, 10.000893, 9.998031 
1.1551469e+3, 2.8494743e+2, -71272.516, -230115.67, -38513.39, 0.15958811, -0.12814389, -62427.066, 85084.14, 0.00004724257, 10.001021, 9.998922 
1.1551505e+3, 2.9494584e+2, -33825.918, -162360.03, -7249.3745, -0.07230453, -0.19732168, -33418.344, 16104.753, 0.0001595295, 10.000596, 9.998923 
1.15515746e+3, 3.04946e+2, 58593.438, -94173.11, 100622.984, -0.09354907, -0.065379344, 108540.64, 108540.64, 0.000411773, 10.000919, 9.998894 
1.1551668e+3, 3.1494537e+2, 249268.78, 62695.055, 140165.13, -0.0024503586, -0.042049687, 324352.66, 324352.66, 0.0008237991, 10.001921, 9.999486 
1.16504245e+3, 1.2494965e+2, -2055547.5, -1826290.5, -29757.607, 0.20337915, -0.2662878, -1822491.0, -107010.51, 0.0016512593, 9.997414, 10.000459 
1.1650487e+3, 1.349527e+2, -1778138.5, -1657087.9, -52751.36, 0.24674869, -0.0114192385, -1637326.0, -19870.264, 0.0008513687, 9.998703, 10.000349 
1.1650515e+3, 1.4495298e+2, -1599508.5, -1560054.8, -31051.59, -0.104054764, 0.005258676, -1542993.8, -23539.287, 0.00027198074, 9.99944, 9.999976 
1.1650592e+3, 1.5495233e+2, -1470960.8, -1445394.3, -74414.48, 0.06704733, -0.075112894, -1382673.0, 38785.813, 0.00003101119, 9.999645, 9.9999895 
1.1650658e+3, 1.6495158e+2, -1387360.9, -1394125.8, -38455.203, 0.07991923, -0.1277744, -1352139.6, -28675.182, 0.00000004774233, 9.999722, 9.999629 
1.1650714e+3, 1.7495067e+2, -1288453.5, -1292958.3, -33082.066, -0.040307995, -0.19844349, -1257547.3, -32075.043, 0.0, 9.999716, 9.999656 
1.1650783e+3, 1.849509e+2, -1146883.9, -1219416.0, -40682.098, -0.02861204, -0.117647104, -1128649.9, -1178.253, 0.0, 10.000193, 9.999262 
1.165086e+3, 1.9495216e+2, -902769.44, -1044626.0, -59147.02, 0.1041714, 0.063284546, -881344.1, 148119.67, 0.0, 10.001172, 9.999314 
1.1650925e+3, 2.0495117e+2, -854974.3, -1046668.56, -28362.69, 0.09350838, 0.069912575, -850865.9, 80609.375, 0.0, 10.001161, 9.9986315 
1.1650979e+3, 2.1494779e+2, -903476.25, -1011759.8, 6803.753, -0.05236502, -0.15262139, -903050.44, -69543.19, 0.0, 10.000128, 9.998694 
1.1651041e+3, 2.2494686e+2, -810326.0, -872126.75, -15128.134, -0.059680548, -0.13178849, -806821.5, -71303.2, 0.0, 9.9999, 9.999093 
1.1651112e+3, 2.349482e+2, -620646.9, -725026.4, -48914.82, 0.08027486, 0.07584226, -601307.4, 36203.004, 0.0, 10.000509, 9.999136 
1.1651181e+3, 2.4494825e+2, -405635.22, -514808.84, -11758.848, 0.11467527, 0.146448, -404383.06, 135126.81, 0.0, 10.001068, 9.999637 
1.1651245e+3, 2.5494695e+2, -235845.53, -378629.06, -41308.027, 0.035282783, 0.033037253, -224756.17, 216761.33, 0.0, 10.001547, 9.999669 
1.1651321e+3, 2.649453e+2, -254150.44, -528769.56, -6695.474, 0.03961295, -0.007740614, -253987.3, 89545.51, 0.00000056359414, 10.001583, 9.997947 
1.16514064e+3, 2.7494314e+2, -213008.1, -453447.78, 28905.621, 0.1337369, -0.034806084, -209581.89, 35976.105, 0.00000928475, 10.001168, 9.997994 
1.1651474e+3, 2.8494152e+2, -13080.032, -197250.47, -3868.635, 0.11246866, -0.044110317, -12998.805, 134575.23, 0.000050363375, 10.001386, 9.99898 
1.1651525e+3, 2.9494044e+2, 209832.4, -32744.52, -32069.193, -0.024798002, -0.0721801, 214000.4, 263581.22, 0.00017032117, 10.002226, 9.999027 
1.16515964e+3, 3.049403e+2, 242396.34, 11581.262, 17858.908, -0.017970083, 0.017566249, 243769.97, 243769.97, 0.0004381968, 10.002103, 9.999062 
1.1651684e+3, 3.1493887e+2, 74647.38, -19191.096, -54323.836, 0.046737324, -0.050796457, 99509.02, 99509.02, 0.0008746987, 10.0007, 9.999527 
1.1750383e+3, 1.249415e+2, -1980059.6, -1671444.5, 59774.5, 0.009656405, -0.25950813, -1660271.5, 55293.883, 0.0018234614, 9.99743, 10.001513 
1.17504746e+3, 1.3494585e+2, -1716451.8, -1536311.9, 12.680653, 0.23645297, 0.046128117, -1536311.9, 81211.51, 0.0009506097, 9.998731, 10.001166 
1.1750524e+3, 1.4494607e+2, -1636746.9, -1638363.8, -30537.488, 0.01306479, 0.038322367, -1607007.1, -87485.02, 0.00031097958, 9.999446, 9.999434 
1.1750585e+3, 1.5494414e+2, -1507987.8, -1527450.3, -58486.906, 0.005233, -0.11407597, -1458428.0, -36886.26, 0.00003785508, 9.999666, 9.999415 
1.17506504e+3, 1.6494356e+2, -1364212.5, -1352993.1, -45611.695, 0.01665975, -0.13334833, -1312647.5, 10899.723, 0.00000010132158, 9.999749, 9.999897 
1.1750728e+3, 1.7494425e+2, -1265350.6, -1248624.3, -27223.107, 0.09989696, -0.07546884, -1228508.6, -2969.5193, 0.0, 9.999727, 9.999955 
1.1750796e+3, 1.8494427e+2, -1171811.1, -1266985.8, -12931.957, 0.07561284, -0.013180115, -1170085.3, -42544.566, 0.0, 10.00018, 9.998939 
1.1750857e+3, 1.9494355e+2, -934591.6, -1098044.0, -15226.52, -0.0667003, -0.0009130446, -933185.25, 96367.86, 0.0, 10.001118, 9.998974 
1.1750927e+3, 2.0494303e+2, -786011.1, -887616.5, -75735.17, -0.03617569, 0.014980789, -745617.75, 185940.94, 0.0, 10.001091, 9.999759 
1.1751004e+3, 2.149426e+2, -835202.06, -853725.4, -27857.285, 0.18463986, -0.02285075, -815107.2, 18451.146, 0.0, 10.000052, 9.999819 
1.1751061e+3, 2.2494158e+2, -871724.8, -979949.6, -3131.0486, 0.1418206, -0.034285568, -871634.25, -136065.33, 0.0, 9.999816, 9.998395 
1.1751094e+3, 2.349398e+2, -683765.06, -831750.8, -18901.107, -0.17367522, -0.06917735, -681389.1, -43797.426, 0.0, 10.000405, 9.998453 
1.1751161e+3, 2.4493891e+2, -464861.72, -614567.75, -268.67267, -0.20539288, -0.027838536, -464861.25, 74742.414, 0.0, 10.000965, 9.999003 
1.1751264e+3, 2.5493872e+2, -286770.97, -469088.06, -15005.905, 0.05542601, 0.033930305, -285544.13, 156061.98, 0.0, 10.001478, 9.999082 
1.17513426e+3, 2.649384e+2, -185184.11, -365765.84, -28526.385, 0.09760626, 0.095796, -180784.98, 162824.53, 0.0000005132723, 10.001499, 9.999106 
1.1751398e+3, 2.7493772e+2, -142198.39, -290946.06, 22728.074, -0.091450825, 0.09651122, -138803.13, 106812.92, 0.000009286575, 10.001102, 9.999141 
1.17514685e+3, 2.849368e+2, -65243.836, -287974.47, 21487.422, -0.10466632, 0.13159275, -63189.83, 84434.17, 0.00005131962, 10.00131, 9.998392 
1.1751558e+3, 2.9493564e+2, 165274.77, -111911.086, 9289.273, 0.0656108, 0.15272318, 165585.73, 215218.92, 0.00017691198, 10.002156, 9.99852 
1.1751633e+3, 3.049337e+2, 165211.11, -116166.3, -34938.06, 0.12716751, 0.12098615, 169484.4, 169484.4, 0.00045575172, 10.001976, 9.9982395 
1.17516845e+3, 3.149292e+2, -13178.144, -180528.8, -84626.65, -0.061900053, -0.16683742, 22155.902, 22155.902, 0.00090608484, 10.00062, 9.998451 
1.185037e+3, 1.2493492e+2, -1746951.4, -1577499.6, 208369.64, 0.051731084, -0.19172138, -1437289.1, 278340.84, 0.0020081834, 9.999114, 10.0013485 
1.18504554e+3, 1.3493788e+2, -1634055.6, -1539059.0, 11427.865, 0.13312106, 0.0094617605, -1537703.6, 79898.46, 0.0010574218, 9.99948, 10.000791 
1.18505225e+3, 1.4493795e+2, -1592342.1, -1601418.5, -48104.11, 0.049594816, -0.0004276244, -1548562.6, -28959.834, 0.00035351914, 9.999686, 9.999569 
1.1850586e+3, 1.5493691e+2, -1495162.5, -1502312.9, -44460.082, 0.05685295, -0.07935156, -1454134.1, -32519.877, 0.00004562391, 9.999678, 9.9995775 
1.1850652e+3, 1.6493657e+2, -1369556.6, -1387875.0, -5373.2573, 0.059258044, -0.06816311, -1368096.9, -44478.9, 0.00000019883093, 9.9998455, 9.999619 
1.18507266e+3, 1.7493683e+2, -1205133.9, -1245986.9, -40195.52, 0.09915078, -0.02743024, -1180472.5, 45142.69, 0.0, 10.000256, 9.999718 
1.1850796e+3, 1.8493655e+2, -1204504.9, -1278730.8, -28133.22, 0.06754093, 0.014269545, -1195047.0, -67427.0, 0.0, 9.999946, 9.99897 
1.18508585e+3, 1.9493562e+2, -1248936.3, -1241510.4, -21606.785, -0.049362414, 0.003999488, -1223299.8, -193666.03, 0.0, 9.998936, 9.999038 
1.1850928e+3, 2.0493534e+2, -1103849.0, -1037281.75, -91721.625, -0.012980517, 0.038827814, -972991.5, -41354.156, 0.0, 9.998894, 9.999792 
1.18510045e+3, 2.149355e+2, -862306.8, -862096.7, -135109.78, 0.19059575, 0.055994313, -727091.94, 106540.98, 0.0, 9.999847, 9.999859 
1.1851062e+3, 2.2493467e+2, -771800.2, -886174.94, -84684.58, 0.14925806, 0.042984046, -726802.06, 8838.702, 0.0, 10.000308, 9.998797 
1.18510984e+3, 2.3493274e+2, -676815.06, -782318.56, -37555.92, -0.14986059, -0.04911405, -664811.94, -27149.965, 0.0, 10.000255, 9.998863 
1.18511684e+3, 2.4493179e+2, -581223.94, -692721.6, 53590.137, -0.18654992, -0.023659399, -559643.4, -19969.205, 0.0, 10.000268, 9.998802 
1.1851272e+3, 2.5493166e+2, -461759.2, -578638.75, 52736.973, 0.048270162, 0.06443512, -441481.78, 197.40857, 0.0, 10.00039, 9.998854 
1.1851354e+3, 2.6493147e+2, -266034.16, -357025.28, 29021.48, 0.097755514, 0.12799087, -257565.9, 86115.55, 0.0000005059796, 10.000734, 9.9995365 
1.1851412e+3, 2.7493104e+2, -89632.18, -218355.75, 9418.553, -0.051250197, 0.112694986, -88946.69, 156735.77, 0.000009353779, 10.001259, 9.999564 
1.1851486e+3, 2.8493008e+2, -86755.73, -319697.2, 14222.111, -0.05895253, 0.13720325, -85890.62, 61799.043, 0.000051335024, 10.001274, 9.99818 
1.1851574e+3, 2.949287e+2, -59031.977, -244196.72, 8494.851, 0.093663156, 0.15899855, -58643.074, -8940.075, 0.00017968877, 10.00074, 9.998283 
1.1851649e+3, 3.0492628e+2, 28260.873, -237495.17, -4979.2163, 0.12621446, 0.11547453, 28354.13, 28354.13, 0.00045955076, 10.001249, 9.997762 
1.1851697e+3, 3.1492212e+2, 233817.7, -135366.89, -60321.17, -0.09783819, -0.09129416, 243423.66, 243423.66, 0.0009064869, 10.002614, 9.997806 
1.1950376e+3, 1.2492994e+2, -1838223.6, -1766329.4, 190759.34, 0.17118016, -0.068164624, -1608159.8, 107514.09, 0.0022081332, 9.999117, 10.000046 
1.1950425e+3, 1.3492882e+2, -1735735.3, -1753346.1, 32477.953, -0.12771541, -0.13034083, -1710890.3, -93199.11, 0.0011730703, 9.999495, 9.999311 
1.195051e+3, 1.4492865e+2, -1537414.3, -1493201.0, -53659.957, -0.062341128, -0.12350744, -1457272.3, 62423.35, 0.00040013902, 9.999711, 10.000301 
1.1950596e+3, 1.5493067e+2, -1437658.5, -1392154.4, -37852.54, 0.16703872, 0.028830841, -1370742.4, 50933.32, 0.00005450229, 9.999709, 10.000324 
1.1950662e+3, 1.6493064e+2, -1416537.8, -1490826.9, -656.1209, 0.14631505, 0.069784634, -1416532.0, -92855.48, 0.00000035173326, 9.999869, 9.9989 
1.1950712e+3, 1.7492847e+2, -1259460.5, -1357853.3, -18745.078, -0.09109516, -0.05903397, -1256010.4, -30310.62, 0.0, 10.00025, 9.998956 
1.1950779e+3, 1.8492775e+2, -1178756.0, -1226783.1, -72954.984, -0.11219075, -0.04039199, -1125964.1, 1744.9994, 0.0, 9.999952, 9.999322 
1.1950863e+3, 1.9492845e+2, -1227777.9, -1193935.3, -53139.21, 0.08967918, 0.07718238, -1155088.3, -125382.85, 0.0, 9.998915, 9.999376 
1.1950929e+3, 2.0492812e+2, -1177783.6, -1180775.5, -65743.66, 0.0993707, 0.13797902, -1113518.9, -181807.27, 0.0, 9.998855, 9.998823 
1.19509764e+3, 2.1492657e+2, -943006.44, -1009254.8, -92927.71, -0.0840127, 0.08242081, -877475.8, -43746.133, 0.0, 9.999764, 9.998888 
1.1951043e+3, 2.2492623e+2, -685103.4, -684918.8, -93448.21, -0.09219862, 0.09678904, -591562.9, 144169.8, 0.0, 10.000215, 10.000224 
1.19511254e+3, 2.3492701e+2, -587517.06, -577960.94, -33688.926, 0.08304652, 0.13024421, -548712.94, 89008.195, 0.0, 10.000174, 10.000305 
1.19512e+3, 2.449269e+2, -579880.0, -673481.8, 49396.78, 0.09625332, 0.15688565, -558634.1, -18912.086, 0.0, 10.000194, 9.998974 
1.1951267e+3, 2.549257e+2, -460727.3, -558716.7, 64334.105, -0.054057863, 0.12423018, -428855.72, 12881.344, 0.0, 10.000313, 9.999028 
1.19513504e+3, 2.649245e+2, -301862.75, -412109.5, 42257.71, -0.024787355, 0.09493674, -287528.94, 56219.316, 0.0000006389743, 10.000648, 9.999201 
1.195145e+3, 2.7492312e+2, -121309.234, -266012.56, 38866.273, 0.18029065, 0.015217793, -111530.81, 134226.08, 0.000009301616, 10.001182, 9.999272 
1.1951523e+3, 2.8492156e+2, -91254.26, -315200.44, -11823.155, 0.18346108, -0.011088604, -90631.79, 57138.074, 0.000051838055, 10.001209, 9.998245 
1.19515724e+3, 2.949197e+2, -57849.12, -239402.89, 606.0282, -0.011418422, -0.04720225, -57847.098, -8057.7813, 0.00018142357, 10.000719, 9.99833 
1.1951642e+3, 3.0491805e+2, -10846.58, -290021.38, 44037.496, -0.08293544, 0.0037172886, -4064.778, -4064.778, 0.00045547623, 10.001142, 9.997444 
1.1951716e+3, 3.149174e+2, 179571.31, -194324.5, 12064.7295, -0.18328233, 0.17001069, 179960.22, 179960.22, 0.0008857679, 10.0023985, 9.997496 
1.2050376e+3, 1.2492333e+2, -1914650.9, -1872419.8, 110459.195, 0.27238348, -0.024893556, -1781076.0, -65339.34, 0.0024257244, 9.998878, 9.999444 
1.2050416e+3, 1.3492091e+2, -1793997.0, -1837668.6, 52005.89, -0.14735413, -0.16269311, -1759428.8, -141660.0, 0.0012988481, 9.999337, 9.998809 
1.2050514e+3, 1.4492072e+2, -1554079.6, -1517476.8, -22462.535, 0.014722384, -0.12799819, -1506803.9, 12970.891, 0.00045139206, 9.99966, 10.000164 
1.2050593e+3, 1.5492278e+2, -1436749.1, -1401030.8, -90878.086, 0.1706042, 0.042106204, -1326273.8, 95480.64, 0.00006471426, 9.999762, 10.000237 
1.2050657e+3, 1.6492297e+2, -1425547.0, -1472611.0, -33388.88, 0.12866585, 0.09710887, -1408230.9, -84477.34, 0.00000057087306, 9.999716, 9.999094 
1.2050711e+3, 1.749211e+2, -1337546.3, -1369354.8, 2553.898, -0.074536696, -0.021507487, -1337342.5, -111568.54, 0.0, 9.99961, 9.999177 
1.205078e+3, 1.8492034e+2, -1216391.3, -1251710.9, -31692.11, -0.0845049, -0.015979428, -1197770.8, -69987.39, 0.0, 9.999718, 9.999264 
1.2050858e+3, 1.9492057e+2, -1061476.9, -1117416.3, -53256.246, 0.09798111, 0.057791904, -1029292.3, 491.03897, 0.0, 10.00007, 9.999342 
1.2050924e+3, 2.0492008e+2, -963534.5, -1086874.4, 1841.1113, 0.092988834, 0.109366454, -963507.0, -31716.273, 0.0, 10.000362, 9.998741 
1.2050978e+3, 2.1491876e+2, -823153.7, -960152.9, 23646.533, -0.09802544, 0.08273917, -819187.06, 14620.1875, 0.0, 10.000616, 9.998817 
1.2051046e+3, 2.2491851e+2, -648231.0, -674481.7, -15672.241, -0.08494881, 0.11368905, -640913.94, 94895.83, 0.0, 10.000498, 10.000164 
1.20511316e+3, 2.3491925e+2, -616019.5, -599128.2, -80395.2, 0.1389926, 0.15056281, -526736.2, 111063.01, 0.0, 10.00001, 10.000242 
1.2051206e+3, 2.4491924e+2, -577257.8, -624322.4, -9548.161, 0.1473215, 0.16993642, -575394.5, -35596.395, 0.0, 10.000001, 9.999399 
1.2051269e+3, 2.5491828e+2, -404770.06, -484038.22, 9987.366, -0.07655373, 0.11675811, -403531.1, 38277.2, 0.00000000020898414, 10.000483, 9.99946 
1.2051355e+3, 2.6491714e+2, -292291.5, -395841.13, 24949.418, -0.03613759, 0.06712751, -286593.66, 57224.21, 0.00000074892756, 10.000672, 9.999293 
1.20514676e+3, 2.7491567e+2, -202348.19, -294675.44, 33843.258, 0.2751095, -0.029034918, -191271.56, 54556.504, 0.000009032264, 10.000585, 9.999357 
1.20515406e+3, 2.8491423e+2, -109529.35, -335594.0, 9441.172, 0.24463876, -0.045982357, -109135.74, 38705.94, 0.000052112464, 10.00113, 9.998147 
1.2051575e+3, 2.949126e+2, 157279.63, -147200.13, -11743.206, -0.13294062, -0.0432818, 157731.88, 207592.86, 0.00018285186, 10.002251, 9.998226 
1.20516464e+3, 3.0491126e+2, 212665.22, -108250.36, 68239.84, -0.1964373, 0.0072166473, 226573.08, 226573.08, 0.00045304873, 10.002354, 9.998107 
1.2051747e+3, 3.149123e+2, 38284.21, -183556.42, 70106.54, -0.053509124, 0.28066447, 58582.2, 58582.2, 0.00086639443, 10.001094, 9.998193 
1.21503524e+3, 1.2491454e+2, -1905666.9, -1853175.0, 17961.104, 0.12353218, -0.12960069, -1847617.6, -131793.95, 0.0026624324, 9.998891, 9.99956 
1.215043e+3, 1.3491428e+2, -1768997.8, -1785672.1, 75034.72, 0.030550517, -0.08601551, -1701838.5, -84004.37, 0.0014356553, 9.999344, 9.999161 
1.21505335e+3, 1.449142e+2, -1609553.1, -1639070.6, -24751.268, 0.22796325, -0.017706746, -1595494.4, -75654.805, 0.0005075534, 9.999688, 9.999315 
1.2150576e+3, 1.5491335e+2, -1497678.0, -1534271.6, -77685.055, 0.008175663, -0.04983466, -1436164.1, -14314.533, 0.000076397075, 9.999785, 9.999315 
1.2150637e+3, 1.6491355e+2, -1348762.5, -1316313.8, -45451.953, -0.058660336, 0.0021430324, -1284277.3, 39571.547, 0.0000008702971, 9.999731, 10.000155 
1.21507265e+3, 1.7491473e+2, -1262146.1, -1214496.4, 4082.7173, 0.09262146, 0.08287477, -1214149.1, 11688.604, 0.0, 9.999612, 10.000241 
1.2150796e+3, 1.849143e+2, -1239166.5, -1300708.3, -27480.533, 0.0915319, 0.08306111, -1228681.8, -100838.69, 0.0, 9.999727, 9.998923 
1.2150842e+3, 1.9491203e+2, -1092994.6, -1176558.8, -32793.336, -0.08321315, -0.05519562, -1081662.3, -51795.316, 0.0, 10.000039, 9.998954 
1.21509105e+3, 2.049113e+2, -920321.7, -981433.44, 2510.206, -0.09572295, -0.045672834, -920218.75, 11655.612, 0.0, 10.0002985, 9.999492 
1.2151002e+3, 2.1491207e+2, -785744.1, -856324.8, 38364.707, 0.07615229, 0.060604755, -768907.1, 64958.547, 0.0, 10.0005045, 9.99958 
1.2151071e+3, 2.2491154e+2, -768538.0, -902001.6, -43910.57, 0.102585696, 0.098543346, -755386.94, -19514.832, 0.0, 10.0004, 9.9986515 
1.2151117e+3, 2.3490956e+2, -732910.75, -825096.6, -91045.77, -0.024559665, 0.016381133, -676955.25, -39060.082, 0.0, 9.999936, 9.998728 
1.2151184e+3, 2.4490893e+2, -543952.4, -532456.06, 2987.8728, -0.08771563, 0.017722083, -531725.9, 8175.3096, 0.0, 9.999907, 10.0000725 
1.2151274e+3, 2.5490952e+2, -368666.4, -390309.7, 35737.37, -0.07829561, 0.045658424, -342148.16, 99743.625, 0.00000000018849695, 10.000404, 10.000139 
1.2151367e+3, 2.6490945e+2, -271325.28, -335244.4, 15864.262, 0.0048674187, 0.047317736, -267604.5, 76285.31, 0.00000061447383, 10.000595, 9.999749 
1.2151465e+3, 2.749086e+2, -178857.7, -231745.1, 39584.73, 0.17040722, -0.031455737, -157696.56, 88200.04, 0.000008322687, 10.000516, 9.9998255 
1.2151534e+3, 2.8490794e+2, -152660.13, -395910.78, 44435.207, 0.05831087, 0.020981062, -144797.2, 3108.7915, 0.000050693892, 10.001008, 9.997791 
1.2151578e+3, 2.9490727e+2, 118163.64, -203324.08, 44834.066, -0.3383016, 0.15331395, 124299.02, 174218.52, 0.00018217303, 10.002143, 9.997891 
1.2151664e+3, 3.0490565e+2, 297612.0, 101219.336, 18099.56, -0.27883047, 0.12153895, 299266.13, 299266.13, 0.00045205725, 10.002221, 9.999607 
1.215178e+3, 3.1490675e+2, 132600.63, 54729.34, 38766.813, 0.14379193, 0.24429575, 148609.05, 148609.05, 0.00085648143, 10.000925, 9.999903 
1.2250352e+3, 1.2490635e+2, -1679858.5, -1725277.9, -58826.01, 0.16261594, -0.13621579, -1639510.9, 76397.94, 0.0029179724, 10.000327, 9.999762 
1.2250431e+3, 1.3490736e+2, -1572900.1, -1639653.3, 64961.383, 0.05788666, -0.009650839, -1533242.6, 84661.95, 0.0015834377, 10.00046, 9.999629 
1.225053e+3, 1.4490746e+2, -1529501.8, -1603645.1, -6136.8003, 0.19822922, 0.052279953, -1528997.3, -9090.234, 0.00056846405, 10.000254, 9.999283 
1.2250578e+3, 1.5490538e+2, -1513795.3, -1543277.1, -15260.985, 0.055081867, -0.10157664, -1507318.4, -85390.305, 0.00008951281, 9.999683, 9.999296 
1.2250639e+3, 1.649054e+2, -1396480.5, -1356911.0, 33513.375, -0.006509757, -0.060996808, -1337778.1, -13848.377, 0.0000012652538, 9.999464, 10.000017 
1.225072e+3, 1.7490752e+2, -1267612.3, -1230525.5, -15572.567, 0.06706716, 0.12578018, -1224854.0, 1057.7953, 0.0, 9.999623, 10.000133 
1.2250787e+3, 1.8490745e+2, -1242077.9, -1301614.0, -59080.184, 0.03596597, 0.16915779, -1205690.0, -77775.586, 0.0, 9.999704, 9.998932 
1.22508384e+3, 1.9490497e+2, -1131195.9, -1188039.8, -54431.164, -0.11718727, 0.007939656, -1098212.9, -68272.95, 0.0, 9.999759, 9.999007 
1.2250912e+3, 2.0490399e+2, -976562.5, -992197.8, -12195.584, -0.08442006, -0.018461132, -969894.0, -37945.94, 0.0, 9.999833, 9.999647 
1.22510105e+3, 2.1490444e+2, -864819.8, -876030.94, -31662.996, 0.15482588, 0.040549446, -838270.0, -4330.6143, 0.0, 9.999882, 9.999746 
1.2251081e+3, 2.249038e+2, -833935.56, -973002.0, -82455.086, 0.18195987, 0.076829545, -795609.1, -59662.586, 0.0, 10.000118, 9.998298 
1.2251119e+3, 2.3490189e+2, -665563.25, -832838.4, -63665.6, -0.020730292, 0.036178898, -644088.75, -6117.4204, 0.0, 10.000564, 9.998373 
1.2251184e+3, 2.4490096e+2, -475162.6, -490717.94, 58293.39, -0.09632681, 0.01965915, -424130.3, 115850.05, 0.0, 10.000341, 10.000155 
1.22512765e+3, 2.5490087e+2, -498972.8, -438944.75, 33641.97, -0.036172595, -0.02625479, -423874.13, 18100.473, 0.0, 9.99946, 10.0002575 
1.2251368e+3, 2.6490104e+2, -451125.9, -420878.03, 7015.363, 0.014394367, -0.006650707, -419330.2, -75359.625, 0.0000003685213, 9.999355, 9.999761 
1.2251455e+3, 2.7490136e+2, -256014.73, -268390.9, -18287.451, 0.052825283, 0.030922104, -242896.78, 3072.702, 0.0000073761885, 9.999991, 9.9998255 
1.2251532e+3, 2.8490132e+2, -247129.52, -387814.0, 15357.647, -0.025303748, 0.12121243, -245472.53, -97499.3, 0.00004908337, 10.000118, 9.998272 
1.2251599e+3, 2.9490063e+2, -210592.7, -309055.44, 59881.008, -0.21912742, 0.20486577, -182303.34, -132319.45, 0.00018062291, 9.999653, 9.998365 
1.2251687e+3, 3.0489844e+2, -51157.004, -68260.11, 3757.442, -0.1437363, 0.09031836, -50367.92, -50367.92, 0.00044944658, 9.999822, 9.999607 
1.2251783e+3, 3.1489912e+2, 78717.51, 57090.8, -118332.64, 0.11694755, 0.1751541, 186729.83, 186729.83, 0.0008490022, 10.000403, 10.000186 
1.235037e+3, 1.24898516e+2, -1630833.0, -1638520.0, -118380.586, 0.27641854, -0.0730278, -1516233.6, 199760.95, 0.0031899144, 10.000392, 10.000325 
1.23504184e+3, 1.3490024e+2, -1522897.6, -1542694.5, 73622.766, -0.12348515, 0.058378246, -1458510.9, 159468.94, 0.0017411282, 10.000484, 10.000282 
1.23505004e+3, 1.4490052e+2, -1473962.3, -1496753.3, -32018.287, -0.14546074, 0.07081694, -1451372.0, 68604.64, 0.0006337289, 10.000285, 10.000005 
1.2350596e+3, 1.5489884e+2, -1455373.5, -1436650.0, -31083.502, 0.25137135, -0.113763876, -1413549.0, 8441.236, 0.00010392506, 9.999732, 10.000013 
1.2350658e+3, 1.6489846e+2, -1474596.3, -1522507.4, 28496.18, 0.22790082, -0.092371084, -1461324.1, -137327.28, 0.0000017603737, 9.999484, 9.998867 
1.2350691e+3, 1.7489947e+2, -1351641.9, -1406195.0, -3812.162, -0.20354718, 0.1019971, -1351376.8, -125381.055, 0.0, 9.999626, 9.998926 
1.2350752e+3, 1.8489979e+2, -1221197.4, -1257257.9, -64269.22, -0.30569908, 0.2310252, -1172477.3, -44479.953, 0.0, 9.999703, 9.999236 
1.2350842e+3, 1.948993e+2, -1111208.0, -1142393.3, -45178.496, -0.06568069, 0.2374987, -1079007.0, -49004.12, 0.0, 9.999738, 9.999333 
1.23509265e+3, 2.0489807e+2, -1006920.94, -1043469.06, -21027.523, 0.06629152, 0.18501703, -997336.44, -65323.945, 0.0, 9.999785, 9.999316 
1.2351005e+3, 2.1489598e+2, -900974.9, -934714.6, -24235.041, 0.08765655, 0.023606205, -888316.3, -54289.043, 0.0, 9.999808, 9.99938 
1.2351074e+3, 2.2489539e+2, -797173.06, -872957.0, -73689.516, 0.09388141, 0.04681739, -752204.0, -16171.82, 0.0, 10.000017, 9.999032 
1.2351137e+3, 2.3489618e+2, -630188.6, -735544.8, -39063.39, 0.08316236, 0.20342228, -617285.25, 20743.174, 0.0, 10.0004635, 9.999088 
1.2351202e+3, 2.4489522e+2, -519335.47, -566153.8, 17258.77, 0.045858573, 0.17439818, -513661.06, 26375.123, 0.0, 10.00027, 9.999671 
1.2351276e+3, 2.5489235e+2, -537465.44, -511658.0, 7461.826, -0.0124589205, -0.10432252, -509655.84, -67599.016, 0.0, 9.999419, 9.999781 
1.23513535e+3, 2.648919e+2, -494985.63, -492123.5, 24324.66, -0.06812118, -0.09962955, -469187.84, -125127.64, 0.00000016286783, 9.999274, 9.99931 
1.2351438e+3, 2.748939e+2, -298147.06, -340489.16, 16002.493, -0.13189395, 0.1522867, -292779.6, -46732.926, 0.000006622681, 9.9999275, 9.999359 
1.2351529e+3, 2.848943e+2, -170092.2, -210510.0, -6341.778, -0.07282279, 0.24808486, -169120.5, -21076.611, 0.0000487502, 10.000046, 9.999525 
1.2351632e+3, 2.9489267e+2, -131204.7, -132029.5, 52922.492, 0.1335086, 0.10890783, -78693.0, -28637.912, 0.00018150224, 9.999597, 9.999611 
1.23517126e+3, 3.0488956e+2, -164822.11, -285827.28, 23083.178, 0.11897892, -0.08626357, -160568.27, -160568.27, 0.00045012333, 9.999744, 9.998149 
1.2351754e+3, 3.148896e+2, -7538.975, -94488.336, -74107.39, -0.24751368, 0.08043111, 34904.64, 34904.64, 0.0008459935, 10.000289, 9.999197 
1.245037e+3, 1.2489135e+2, -1660682.1, -1630550.6, -24992.994, 0.24970344, -0.051187254, -1616433.8, 99636.77, 0.003475539, 10.000112, 10.0005045 
1.245042e+3, 1.3489354e+2, -1758142.0, -1643345.0, 86651.77, -0.068395615, 0.11751574, -1596805.5, 21243.516, 0.0019075654, 9.998818, 10.000396 
1.2450481e+3, 1.4489383e+2, -1730358.6, -1604741.0, -18049.607, -0.2705971, 0.11907809, -1602199.0, -82154.46, 0.0007030745, 9.998457, 10.000148 
1.2450589e+3, 1.5489273e+2, -1505239.9, -1440062.4, -72245.625, 0.24642858, -0.023492837, -1393395.5, 28656.473, 0.00011956255, 9.999311, 10.00019 
1.2450658e+3, 1.6489223e+2, -1476277.5, -1557431.1, 4040.3813, 0.27934253, -0.0091477, -1476076.8, -152016.88, 0.0000023468863, 9.999618, 9.998563 
1.24506876e+3, 1.7489232e+2, -1415564.8, -1468626.0, 20001.482, -0.18217699, 0.12474322, -1408869.9, -182801.34, 0.0, 9.999332, 9.9986315 
1.2450751e+3, 1.848923e+2, -1248319.6, -1294331.4, 8274.331, -0.27310565, 0.24391529, -1246876.9, -118803.01, 0.0, 9.999611, 9.999026 
1.2450852e+3, 1.9489197e+2, -1017742.1, -1122475.0, -21293.543, 0.026622146, 0.28465438, -1013578.44, 16499.6, 0.0, 10.000475, 9.999119 
1.2450937e+3, 2.0489071e+2, -875401.8, -979899.9, -12457.137, 0.15307161, 0.24110925, -873937.3, 58150.273, 0.0, 10.000681, 9.999325 
1.2451006e+3, 2.1488844e+2, -843357.3, -902292.9, -5917.711, 0.10373401, 0.05851532, -842769.0, -8665.22, 0.0, 10.000182, 9.999423 
1.2451073e+3, 2.2488779e+2, -785990.6, -837231.8, -26357.057, 0.08454883, 0.059797958, -774853.8, -38745.84, 0.0, 9.999968, 9.999299 
1.245114e+3, 2.3488861e+2, -671182.9, -722982.06, -40398.8, 0.09742269, 0.19097012, -649094.44, -10992.596, 0.0, 10.000046, 9.9993725 
1.24512084e+3, 2.4488774e+2, -553570.25, -622736.4, -1701.419, 0.083332375, 0.17347737, -553528.44, -13420.013, 0.0, 10.000208, 9.999312 
1.2451281e+3, 2.5488502e+2, -414397.7, -493811.16, -19741.404, 0.043674257, -0.050589815, -409760.9, 32368.12, 0.0, 10.000446, 9.999409 
1.24513574e+3, 2.6488402e+2, -332449.7, -456959.3, 38439.066, -0.027527126, -0.06298624, -321538.78, 22599.41, 0.000000050542315, 10.00057, 9.998924 
1.2451439e+3, 2.7488476e+2, -231792.66, -353313.28, 18339.08, -0.13886306, 0.09855062, -229085.36, 17051.102, 0.0000061370592, 10.0005665, 9.998967 
1.2451532e+3, 2.848848e+2, -80034.44, -122257.734, -40088.93, -0.072384335, 0.16053055, -55837.98, 92297.7, 0.000049450737, 10.000481, 9.999922 
1.2451637e+3, 2.9488373e+2, -912.9595, -22857.48, -62165.867, 0.19138744, 0.039523732, 51241.523, 101380.79, 0.00018681613, 10.000301, 10.000017 
1.2451717e+3, 3.0488098e+2, -82701.47, -321930.22, -38689.24, 0.15962876, -0.10732833, -76600.07, -76600.07, 0.00046226173, 10.000616, 9.997487 
1.2451759e+3, 3.1488103e+2, 136568.23, -49621.62, -106478.8, -0.27863032, 0.124797925, 184910.22, 184910.22, 0.0008624877, 10.00138, 9.998984 
1.2550355e+3, 1.24885514e+2, -1665342.6, -1657511.8, -12620.127, 0.06390262, -0.013267206, -1648213.6, 67916.61, 0.0037739007, 10.000178, 10.000288 
1.2550433e+3, 1.348873e+2, -1785167.0, -1716412.0, 39769.38, 0.17545992, 0.16256529, -1698221.3, -80109.11, 0.0020822603, 9.998875, 9.999874 
1.2550472e+3, 1.4488743e+2, -1748538.1, -1650774.4, 4110.3447, -0.22815754, 0.19365273, -1650601.9, -130491.734, 0.0007764397, 9.998494, 9.999811 
1.255056e+3, 1.5488705e+2, -1522722.4, -1485961.0, -32080.865, -0.012548957, 0.15442961, -1467368.3, -45255.22, 0.00013646827, 9.999346, 9.999861 
1.2550637e+3, 1.6488658e+2, -1443241.8, -1490403.8, -14608.359, 0.0932904, 0.16819254, -1439083.5, -114963.625, 0.0000030208696, 9.999627, 9.999017 
1.2550709e+3, 1.7488606e+2, -1381099.5, -1401492.1, 13345.856, 0.07626615, 0.19381338, -1374500.8, -148370.27, 0.0, 9.999346, 9.999089 
1.2550783e+3, 1.8488495e+2, -1288857.9, -1379517.1, 31142.201, 0.07248199, 0.2085306, -1279191.0, -151046.23, 0.0, 9.999617, 9.998439 
1.2550865e+3, 1.9488305e+2, -1062797.6, -1211902.1, 17305.219, 0.09482147, 0.15238646, -1060815.5, -30650.75, 0.0, 10.000454, 9.998514 
1.2550943e+3, 2.0488201e+2, -861578.3, -934368.6, -38537.164, 0.12117722, 0.14305848, -844966.7, 87206.2, 0.0, 10.000611, 9.999672 
1.2551013e+3, 2.1488181e+2, -829668.3, -856761.2, -18271.002, 0.14351803, 0.13472323, -820469.7, 13699.605, 0.0, 10.000109, 9.999774 
1.2551074e+3, 2.2488095e+2, -810472.8, -868273.7, -32297.775, 0.09081652, 0.108143225, -796032.94, -59858.234, 0.0, 9.999882, 9.999128 
1.2551127e+3, 2.3487929e+2, -691059.56, -751360.3, -31224.611, -0.031410642, 0.0068813404, -677804.6, -39614.05, 0.0, 9.999985, 9.99921 
1.25512e+3, 2.448786e+2, -583475.75, -665739.7, -777.34924, -0.03701583, 0.027403349, -583468.4, -43272.35, 0.0, 10.000125, 9.999058 
1.255129e+3, 2.548788e+2, -445374.56, -542397.5, -2932.2312, 0.0764824, 0.12127581, -445286.03, -3093.996, 0.0, 10.000375, 9.999109 
1.2551375e+3, 2.6487726e+2, -373981.9, -519763.06, 31448.377, 0.0772885, 0.08756793, -367487.13, -23281.045, 0.00000007625481, 10.000472, 9.998541 
1.2551455e+3, 2.7487388e+2, -274473.94, -413771.16, 27489.586, -0.04077277, -0.124449894, -269245.28, -23006.195, 0.0000061507535, 10.000447, 9.99861 
1.2551536e+3, 2.8487283e+2, -122927.04, -191794.61, -52243.625, -0.09803531, -0.12728399, -94790.21, 53457.605, 0.000051587293, 10.00039, 9.999488 
1.2551613e+3, 2.948739e+2, -39623.613, -93944.43, -56924.793, -0.08570615, 0.0014600722, -3711.6855, 46523.406, 0.0001993085, 10.000254, 9.999553 
1.2551703e+3, 3.0487266e+2, -88408.805, -317895.88, -14366.987, -0.066413686, 0.026318576, -87512.86, -87512.86, 0.00049473415, 10.000551, 9.997543 
1.255179e+3, 3.1487286e+2, 132987.03, -4353.8555, -59555.3, -0.13268773, 0.2665461, 155214.69, 155214.69, 0.0009169739, 10.001157, 9.999403 
1.2650345e+3, 1.2487964e+2, -1809594.4, -1732125.6, 31004.469, -0.0065312446, 0.10780677, -1721245.3, -5054.52, 0.004085261, 9.999217, 10.000236 
1.265044e+3, 1.3487937e+2, -1680764.0, -1692668.3, -35483.766, 0.31833515, 0.10765598, -1650736.6, -32546.682, 0.0022650692, 9.999724, 9.999613 
1.2650472e+3, 1.4487869e+2, -1602963.1, -1621648.5, -19925.354, -0.13629378, 0.0881551, -1590298.9, -70103.31, 0.00085386867, 9.999671, 9.999445 
1.2650545e+3, 1.5487887e+2, -1547495.5, -1531827.9, -71461.48, -0.072749354, 0.14118558, -1467772.1, -45576.754, 0.00015477135, 9.999336, 9.999544 
1.2650627e+3, 1.6487864e+2, -1506289.4, -1514505.3, -64289.824, 0.050897833, 0.18904991, -1445976.4, -121775.77, 0.0000038088367, 9.999162, 9.999076 
1.2650713e+3, 1.7487787e+2, -1390100.6, -1396335.8, -77085.75, 0.20569402, 0.18253647, -1316069.4, -89857.31, 0.0, 9.999245, 9.999171 
1.2650792e+3, 1.8487678e+2, -1258173.5, -1306070.4, 10747.09, 0.20353681, 0.17063834, -1255872.6, -127648.71, 0.0, 9.999576, 9.998962 
1.2650862e+3, 1.9487521e+2, -1070374.5, -1154122.4, 65258.617, 0.04995664, 0.09565378, -1034710.56, -4473.1133, 0.0, 10.00015, 9.999054 
1.2650937e+3, 2.0487446e+2, -905342.25, -1003996.4, 3787.0854, 0.022160292, 0.10863575, -905197.06, 27046.5, 0.0, 10.0005245, 9.99923 
1.2651013e+3, 2.148744e+2, -785537.75, -887052.7, -50147.605, 0.11657363, 0.15909983, -764943.25, 69300.05, 0.0, 10.000636, 9.999307 
1.2651078e+3, 2.2487332e+2, -686209.44, -819427.9, -63741.844, 0.104134, 0.1377523, -660624.25, 75627.96, 0.0, 10.000776, 9.999036 
1.2651134e+3, 2.3487112e+2, -564545.44, -698681.56, -71138.3, -0.012998273, -0.007102771, -533844.44, 104426.57, 0.0, 10.000893, 9.999135 
1.2651207e+3, 2.4487036e+2, -481647.75, -654391.5, -27331.807, -0.026520036, 0.026145224, -477426.4, 62851.15, 0.0, 10.000987, 9.998716 
1.2651294e+3, 2.548709e+2, -369966.25, -544335.06, -50223.33, 0.06832038, 0.18845631, -356535.03, 85738.27, 0.0, 10.001057, 9.998765 
1.2651382e+3, 2.6486927e+2, -334869.56, -480367.47, -7406.8047, 0.098739125, 0.15401651, -334493.5, 9794.405, 0.00000015326442, 10.000645, 9.9987335 
1.2651466e+3, 2.7486527e+2, -374934.06, -438998.9, 12822.962, 0.060397536, -0.13687034, -372462.8, -126140.086, 0.0000068361555, 9.999649, 9.998823 
1.2651542e+3, 2.8486392e+2, -293738.28, -335483.53, -3454.4028, -0.022680182, -0.1575639, -293454.38, -145120.08, 0.00005543398, 9.999483, 9.998934 
1.265161e+3, 2.9486498e+2, -72345.57, -172773.02, -35885.555, -0.14556617, 0.030819662, -60840.65, -10516.022, 0.00021874357, 10.000307, 9.99898 
1.2651703e+3, 3.048637e+2, -85117.51, -278007.1, 11599.305, -0.11404584, 0.061805684, -84422.49, -84422.49, 0.0005474256, 10.000416, 9.997879 
1.2651809e+3, 3.1486252e+2, -48582.453, -28164.025, -50217.83, 0.02894343, 0.12999462, 12871.841, 12871.841, 0.0010137463, 9.999633, 9.999971 
1.2750337e+3, 1.2487418e+2, -1791952.3, -1706878.1, 152113.44, -0.038008623, 0.34879842, -1591466.1, 124781.38, 0.0044096503, 9.999274, 10.000379 
1.2750436e+3, 1.348698e+2, -1684202.9, -1707358.8, -18565.068, 0.29669687, -0.05112442, -1673901.4, -55619.566, 0.0024558255, 9.999745, 9.99951 
1.2750477e+3, 1.4486766e+2, -1625049.3, -1670665.0, -42328.363, -0.06388779, -0.19723143, -1599775.0, -79474.695, 0.00093550276, 9.999689, 9.999096 
1.2750548e+3, 1.5486827e+2, -1572810.5, -1591278.3, -77294.89, 0.007468467, -0.06290293, -1504199.9, -81901.61, 0.00017466526, 9.999361, 9.999126 
1.2750624e+3, 1.6486832e+2, -1514520.8, -1543332.4, -70072.44, 0.087603115, 0.047987886, -1457388.6, -133086.28, 0.0000047674703, 9.999208, 9.998857 
1.2750702e+3, 1.7486776e+2, -1398456.0, -1425281.1, -68815.43, 0.1491778, 0.084354736, -1341758.3, -115445.21, 0.0, 9.999288, 9.998956 
1.2750775e+3, 1.8486784e+2, -1146438.3, -1076570.6, 26108.283, 0.06422229, 0.12001398, -1067892.4, 60418.734, 0.0, 9.999586, 10.000532 
1.2750845e+3, 1.9486849e+2, -961505.4, -924922.9, 92865.945, -0.16257198, 0.10810155, -848564.0, 181732.36, 0.0, 10.00013, 10.000639 
1.2750922e+3, 2.0486805e+2, -1002066.06, -1186854.8, -1706.7229, -0.1981798, 0.13333389, -1002050.3, -69750.17, 0.0, 10.000447, 9.9980135 
1.2751006e+3, 2.148663e+2, -886106.8, -1072484.6, -40538.234, -0.031563055, 0.13785942, -877671.3, -43346.375, 0.0, 10.000536, 9.998082 
1.2751085e+3, 2.2486499e+2, -702281.3, -825508.2, -66079.13, 0.0661021, 0.1532562, -673547.25, 62792.164, 0.0, 10.000662, 9.999047 
1.2751155e+3, 2.3486404e+2, -577754.2, -705272.7, -57409.855, 0.09104203, 0.13203143, -555716.44, 82627.305, 0.0, 10.000801, 9.999133 
1.2751226e+3, 2.4486288e+2, -532212.75, -733687.1, -31592.9, 0.0566621, 0.1528258, -527374.9, 12979.227, 0.0, 10.000879, 9.998223 
1.2751296e+3, 2.548614e+2, -414538.1, -614939.7, -39161.3, -0.03978173, 0.15834185, -407157.25, 35214.547, 0.0, 10.000964, 9.998323 
1.2751377e+3, 2.6486018e+2, -294179.47, -378247.22, -50209.99, -0.025148563, 0.14757659, -270731.38, 73651.04, 0.00000020123079, 10.000566, 9.999473 
1.2751468e+3, 2.7485898e+2, -334220.25, -337961.63, -14482.699, 0.1013671, 0.057473302, -321487.9, -75100.44, 0.0000077157165, 9.999581, 9.999548 
1.275155e+3, 2.848579e+2, -354790.6, -447780.78, 17414.316, 0.08697916, 0.06801908, -351636.4, -203240.42, 0.000060402712, 9.999422, 9.99819 
1.2751622e+3, 2.9485685e+2, -142800.4, -288757.75, 7141.0757, -0.06974118, 0.11607752, -142451.86, -92042.586, 0.00024154171, 10.000181, 9.998241 
1.2751713e+3, 3.04854e+2, -64123.742, -212344.17, -19488.709, -0.059404243, 0.00847311, -61604.11, -61604.11, 0.0006104457, 10.000318, 9.998379 
1.2751813e+3, 3.1485033e+2, -29341.94, 51279.18, -60376.17, 0.0767777, -0.23331456, 83564.92, 83564.92, 0.0011368401, 9.999478, 10.000585 
1.2850344e+3, 1.24865584e+2, -1701746.3, -1671454.9, 184842.8, 0.07656384, 0.35047653, -1501138.3, 215194.22, 0.0047468157, 9.999911, 10.000328 
1.2850422e+3, 1.3486144e+2, -1789315.6, -1754043.0, -87107.0, 0.20228736, -0.024313422, -1682804.9, -64438.332, 0.0026545508, 9.999015, 9.9995365 
1.2850477e+3, 1.4485995e+2, -1764224.8, -1712538.4, -54321.063, 0.020633025, -0.11912843, -1678226.4, -157846.67, 0.0010215283, 9.998624, 9.999323 
1.2850551e+3, 1.5486072e+2, -1581466.1, -1565224.8, -55069.063, 0.113589935, 0.005752132, -1517680.8, -95304.3, 0.00019628371, 9.999176, 9.999389 
1.2850624e+3, 1.6486079e+2, -1418945.1, -1496110.0, 14084.42, 0.14413512, 0.10309496, -1416454.8, -92075.22, 0.0000059623408, 9.999861, 9.998873 
1.2850693e+3, 1.7486009e+2, -1201673.3, -1327259.1, 18701.36, 0.0725027, 0.12720713, -1198947.5, 27441.541, 0.0, 10.000631, 9.998983 
1.2850766e+3, 1.848599e+2, -1074155.6, -1054533.4, 33995.93, -0.0153221395, 0.1426364, -1028961.2, 99427.33, 0.0, 10.00014, 10.000416 
1.2850842e+3, 1.948601e+2, -1223268.9, -1063094.3, -38998.707, -0.11097445, 0.09765901, -1054103.6, -23725.168, 0.0, 9.998392, 10.000525 
1.2850922e+3, 2.0485963e+2, -1297003.0, -1305450.8, -76042.87, -0.12274455, 0.114939936, -1225066.8, -292683.72, 0.0, 9.998318, 9.998228 
1.2851007e+3, 2.1485828e+2, -957746.94, -1081909.9, -21317.248, -0.04457995, 0.13787666, -954189.0, -119784.53, 0.0, 9.999934, 9.998309 
1.2851086e+3, 2.2485727e+2, -712711.2, -823798.5, -17192.324, 0.037042122, 0.16960336, -710111.25, 26304.848, 0.0, 10.000563, 9.999106 
1.2851162e+3, 2.3485653e+2, -668482.4, -740994.4, -23643.393, 0.1216203, 0.1637521, -661454.4, -23035.99, 0.0, 10.000149, 9.999199 
1.2851235e+3, 2.4485508e+2, -636013.06, -804656.2, 50465.35, 0.10432917, 0.15940903, -622065.25, -81633.65, 0.0, 10.000246, 9.998047 
1.2851307e+3, 2.5485277e+2, -446910.66, -652359.56, 49348.016, -0.018807232, 0.10012569, -435672.22, 6785.184, 0.0, 10.00083, 9.9981365 
1.2851384e+3, 2.6485157e+2, -246679.73, -378895.0, -8942.619, -0.02645594, 0.11505002, -246077.63, 98390.85, 0.00000014147287, 10.000998, 9.999255 
1.2851468e+3, 2.748514e+2, -174045.83, -284849.94, -64600.82, 0.08517845, 0.14928229, -144344.1, 102121.695, 0.000007879153, 10.000788, 9.999329 
1.285155e+3, 2.848506e+2, -183775.3, -331378.28, 13375.542, 0.101683885, 0.18212321, -182573.03, -34100.777, 0.00006525831, 10.000451, 9.998497 
1.2851632e+3, 2.9484898e+2, -164341.3, -267295.3, 56742.633, 0.026785644, 0.1438188, -139204.92, -88715.07, 0.00026775803, 9.999887, 9.998536 
1.2851718e+3, 3.0484655e+2, -129246.61, -180731.14, 74146.51, 0.0070952754, 0.038668454, -76500.86, -76500.86, 0.0006827303, 9.99961, 9.998931 
1.2851804e+3, 3.1484294e+2, 36650.46, 131207.94, -427.32016, 0.03377021, -0.25460204, 131209.86, 131209.86, 0.0012767545, 9.999711, 10.001028 
1.2950347e+3, 1.2485344e+2, -1717564.9, -1704902.4, 144596.67, 0.086182654, 0.061774336, -1566498.4, 149951.33, 0.0050962004, 9.999919, 10.000092 
1.295039e+3, 1.3485421e+2, -1785696.1, -1746592.0, -121130.625, -0.018040624, 0.17409106, -1643445.6, -25000.947, 0.0028611089, 9.999019, 9.999585 
1.2950468e+3, 1.4485542e+2, -1697612.6, -1583150.3, -46397.836, 0.05887361, 0.30483493, -1566705.3, -46270.105, 0.00111182, 9.998662, 10.000192 
1.2950552e+3, 1.5485623e+2, -1513372.1, -1434954.8, -28041.313, 0.18149786, 0.34645864, -1425959.4, -3529.7825, 0.000219555, 9.999215, 10.000268 
1.2950625e+3, 1.6485597e+2, -1396372.8, -1454847.3, 33040.637, 0.15250091, 0.35221395, -1381490.9, -57058.88, 0.0000074533, 9.999885, 9.999143 
1.2950686e+3, 1.748548e+2, -1184943.0, -1294188.9, 51779.375, -0.074461095, 0.30113202, -1164301.4, 62139.176, 0.0, 10.000635, 9.9992075 
1.2950762e+3, 1.8485299e+2, -1197964.6, -1311149.8, -37997.664, -0.089644186, 0.22917898, -1186391.6, -57935.41, 0.0, 10.000137, 9.998657 
1.2950854e+3, 1.9485019e+2, -1345914.5, -1321769.0, -97248.555, 0.13966388, 0.06420509, -1235846.8, -205364.23, 0.0, 9.998406, 9.998745 
1.2950937e+3, 2.0484926e+2, -1191611.8, -1077964.0, -22583.764, 0.180329, 0.048284944, -1073640.6, -141149.14, 0.0, 9.998282, 9.9998045 
1.2951013e+3, 2.1485029e+2, -857754.8, -854248.0, 45860.94, 0.018137515, 0.14655173, -810106.94, 24375.45, 0.0, 9.999846, 9.999914 
1.2951085e+3, 2.2485015e+2, -726381.56, -823795.8, -38854.563, -0.039199743, 0.18149975, -712782.5, 23700.44, 0.0, 10.0004425, 9.999164 
1.2951155e+3, 2.3484863e+2, -676781.75, -737860.06, -30476.307, 0.018066857, 0.09146722, -664176.44, -25681.715, 0.0, 10.00006, 9.999264 
1.2951234e+3, 2.4484695e+2, -641470.25, -791576.4, 63979.957, 0.051903263, 0.054264918, -617900.8, -77390.87, 0.0, 10.000146, 9.998183 
1.2951325e+3, 2.5484496e+2, -452354.63, -641466.8, 80012.41, 0.06431332, 0.016170874, -423044.5, 19485.686, 0.0, 10.000741, 9.998252 
1.2951401e+3, 2.648435e+2, -341238.13, -562338.1, -22720.404, 0.032192707, 0.06037316, -338927.5, 5618.537, 0.000000052302592, 10.000932, 9.998033 
1.2951462e+3, 2.7484262e+2, -268160.5, -462618.78, -60855.98, -0.053068593, 0.14419544, -250685.88, -4128.8076, 0.000007172051, 10.000707, 9.99815 
1.2951541e+3, 2.8484204e+2, -107954.586, -155344.8, -13005.645, -0.045242857, 0.19421613, -104619.99, 43942.688, 0.000069658236, 10.000364, 9.999751 
1.2951636e+3, 2.9484147e+2, -88497.3, -91641.66, 46852.996, 0.06792897, 0.13296294, -43190.11, 7375.1694, 0.0002984911, 9.999807, 9.999782 
1.2951718e+3, 3.048413e+2, -107392.766, -114181.65, 68757.28, 0.016413879, 0.16810259, -41946.188, -41946.188, 0.0007671863, 9.999528, 9.999424 
1.2951781e+3, 3.1483993e+2, 18098.422, 154133.92, 21978.51, -0.2054586, 0.044908293, 157596.72, 157596.72, 0.001436353, 9.99947, 10.00129 
1.305036e+3, 1.2484376e+2, -2019092.1, -1789256.3, 107065.92, 0.3314032, 0.046506878, -1747109.6, -30563.49, 0.0054552136, 9.997582, 10.000635 
1.3050371e+3, 1.3484587e+2, -1751313.9, -1635131.6, -83563.25, -0.10174291, 0.21123482, -1591451.5, 27076.395, 0.003073975, 9.998854, 10.000425 
1.3050468e+3, 1.4484774e+2, -1546679.9, -1538051.0, 16434.447, 0.12520869, 0.37392628, -1525374.1, -4861.7573, 0.0012055306, 9.999807, 9.999954 
1.305055e+3, 1.5484814e+2, -1345334.9, -1383084.1, -62268.125, 0.18709631, 0.40271267, -1299143.6, 123368.05, 0.000244213, 10.000497, 10.000007 
1.3050623e+3, 1.6484764e+2, -1330522.8, -1373507.0, -62045.6, 0.13823792, 0.37748778, -1286352.4, 38163.05, 0.000009295233, 10.000136, 9.999575 
1.3050684e+3, 1.748463e+2, -1428293.3, -1360598.0, -44715.703, -0.062188987, 0.26712897, -1338364.0, -111841.44, 0.0, 9.998757, 9.999652 
1.305076e+3, 1.8484454e+2, -1383995.4, -1419799.3, -41983.09, -0.050973754, 0.1847016, -1356256.8, -227718.98, 0.0, 9.998938, 9.99849 
1.3050853e+3, 1.9484204e+2, -1021657.56, -1185240.3, 1732.4749, 0.1886268, 0.066929966, -1021639.2, 8924.598, 0.0, 10.000717, 9.998568 
1.3050938e+3, 2.0484135e+2, -793177.3, -855417.7, 101395.82, 0.22282836, 0.06930399, -718233.44, 214337.55, 0.0, 10.000893, 10.0000725 
1.305101e+3, 2.1484254e+2, -907122.9, -844037.2, 57794.395, 0.0377235, 0.15643014, -809738.2, 24819.797, 0.0, 9.999376, 10.000205 
1.3051084e+3, 2.2484249e+2, -886093.94, -914906.9, -46355.613, -0.040883243, 0.19163622, -851957.75, -115399.83, 0.0, 9.999399, 9.999041 
1.3051157e+3, 2.3484093e+2, -550781.8, -692124.3, -66120.69, -0.005451212, 0.110673524, -524673.06, 113899.95, 0.0, 10.000986, 9.999131 
1.3051242e+3, 2.4483958e+2, -391371.56, -625153.56, 28422.17, 0.04061139, 0.09223895, -387965.75, 152620.19, 0.0, 10.001663, 9.998594 
1.3051338e+3, 2.548383e+2, -326776.2, -535261.94, 49156.06, 0.102226734, 0.08303207, -315767.6, 126830.25, 0.0, 10.001396, 9.998669 
1.3051417e+3, 2.648369e+2, -311420.0, -563312.6, -114.929245, 0.083385, 0.120520435, -311419.97, 33192.35, 0.000000026393016, 10.001212, 9.9978895 
1.3051474e+3, 2.748353e+2, -215084.05, -458384.13, 19523.938, -0.03190989, 0.14845218, -213527.28, 33103.32, 0.0000066700077, 10.001158, 9.997967 
1.3051547e+3, 2.8483406e+2, -56460.855, -156484.69, 54033.855, -0.04207349, 0.1548363, -32846.35, 115796.516, 0.00007501981, 10.000832, 9.999515 
1.3051637e+3, 2.9483312e+2, -32053.277, -89599.625, -16564.074, 0.06505853, 0.08269296, -27626.088, 23023.441, 0.00033195864, 10.000303, 9.999556 
1.3051713e+3, 3.0483386e+2, -45690.57, -44225.67, -24995.383, 0.014403729, 0.1946716, -19952.01, -19952.01, 0.00085839094, 9.999747, 9.999815 
1.3051778e+3, 3.1483382e+2, -40468.31, 121561.42, -111125.65, -0.14251046, 0.17343597, 178068.63, 178068.63, 0.0016111253, 9.9990425, 10.001295 
1.3150352e+3, 1.2483635e+2, -1913549.3, -1586673.4, 24469.494, 0.47609448, 0.26480705, -1584851.8, 131772.17, 0.005819013, 9.997633, 10.002013 
1.3150361e+3, 1.3483654e+2, -1639695.1, -1410574.5, -29830.354, -0.10045746, 0.089101784, -1406754.4, 211860.44, 0.0032902497, 9.998876, 10.001962 
1.3150468e+3, 1.4483705e+2, -1631316.9, -1717581.6, 32228.639, 0.1487728, 0.09502773, -1620606.0, -99996.36, 0.0013013786, 9.99983, 9.998711 
1.3150547e+3, 1.5483664e+2, -1441309.3, -1583743.0, -31006.701, 0.0802339, 0.17973159, -1434852.1, -12231.331, 0.00026992275, 10.000504, 9.998628 
1.3150617e+3, 1.6483589e+2, -1289664.9, -1294091.0, -120698.96, 0.05143927, 0.1753227, -1171158.8, 153470.17, 0.00001153221, 10.000151, 10.000116 
1.3150685e+3, 1.7483476e+2, -1379349.1, -1269931.5, -90296.47, 0.053778615, 0.023825, -1219063.3, 7570.8174, 0.0, 9.998795, 10.000259 
1.3150759e+3, 1.8483466e+2, -1290721.0, -1224721.8, 15383.41, 0.034638446, 0.011695006, -1221312.3, -92680.016, 0.0, 9.998934, 9.999829 
1.3150842e+3, 1.9483557e+2, -931739.6, -992095.7, 72669.414, -0.011309225, 0.098051846, -883231.2, 147392.48, 0.0, 10.000687, 9.999909 
1.315092e+3, 2.0483573e+2, -870760.0, -1001246.7, 36960.613, -0.0410759, 0.16725112, -861018.1, 71604.79, 0.0, 10.000826, 9.999103 
1.3150999e+3, 2.1483499e+2, -986920.44, -997445.6, 7327.7065, -0.04255214, 0.16152704, -983161.4, -148529.89, 0.0, 9.999316, 9.999184 
1.3151081e+3, 2.248343e+2, -920838.7, -963042.44, 4899.475, -0.035807867, 0.19732712, -920277.4, -183636.34, 0.0, 9.9993, 9.998757 
1.3151167e+3, 2.3483348e+2, -587817.9, -742886.0, 3187.8752, -0.017465502, 0.21852413, -587752.4, 50900.508, 0.0, 10.0008745, 9.9988365 
1.3151257e+3, 2.4483296e+2, -366137.6, -540665.7, 12985.029, 0.003990424, 0.26837137, -365176.78, 175482.61, 0.0, 10.001524, 9.999242 
1.3151348e+3, 2.5483283e+2, -298359.47, -443941.44, 47422.105, 0.0364992, 0.30362642, -284274.75, 158384.98, 0.0, 10.001257, 9.999363 
1.3151428e+3, 2.6483175e+2, -271754.66, -452243.63, -10552.397, 0.061990328, 0.29551938, -271139.8, 73527.99, 0.000000066602475, 10.001087, 9.998712 
1.3151498e+3, 2.7482942e+2, -176709.03, -347317.22, 28385.281, 0.074312635, 0.16878037, -172110.33, 74576.49, 0.0000067822207, 10.001036, 9.998781 
1.3151565e+3, 2.848268e+2, -181538.13, -407906.47, 28579.783, 0.041888766, 0.08219696, -177985.58, -29273.719, 0.00008157081, 10.000781, 9.997821 
1.3151631e+3, 2.94824e+2, -162814.2, -341973.66, -21483.033, -0.04200522, -0.009339452, -160274.17, -109531.734, 0.0003645955, 10.000212, 9.997872 
1.3151704e+3, 3.0482426e+2, -39573.47, -5789.35, -52680.3, -0.068632714, 0.124844275, 32640.883, 32640.883, 0.0009459137, 9.999651, 10.000118 
1.3151792e+3, 3.1482518e+2, -85614.19, 86046.08, -112030.52, 0.06344858, 0.16792189, 141345.84, 141345.84, 0.0017802492, 9.998825, 10.001143 
1.3250338e+3, 1.2482758e+2, -1698318.4, -1534271.1, 63525.25, 0.4955045, 0.23542444, -1512548.3, 204160.1, 0.006183249, 9.999309, 10.001582 
1.325036e+3, 1.3482752e+2, -1499492.5, -1385537.5, -50502.004, -0.06036891, 0.078632765, -1366377.6, 252325.33, 0.0035072896, 10.000049, 10.001557 
1.3250475e+3, 1.448279e+2, -1564496.8, -1646770.4, -29549.842, 0.20586036, 0.0738513, -1554983.5, -34284.477, 0.0013982238, 10.000125, 9.999052 
1.3250546e+3, 1.5482746e+2, -1556229.6, -1601757.9, 18928.229, 0.08564906, 0.11979451, -1549388.4, -126679.86, 0.00029637254, 9.999552, 9.998964 
1.3250616e+3, 1.648268e+2, -1405288.9, -1382583.6, -39145.605, 0.061106045, 0.1206392, -1353177.8, -28461.23, 0.000014169166, 9.999499, 9.999818 
1.3250685e+3, 1.7482586e+2, -1227349.9, -1233846.0, -91468.71, 0.12237023, 0.021025993, -1139071.6, 87651.81, 0.0, 9.999999, 9.999925 
1.3250759e+3, 1.8482627e+2, -1121505.9, -1107546.6, -8005.5356, 0.08916523, 0.061771248, -1103905.4, 24813.307, 0.0, 9.999947, 10.000143 
1.3250838e+3, 1.9482802e+2, -1101834.5, -1038041.9, -39891.52, -0.048231926, 0.20058239, -1018862.7, 11839.581, 0.0, 9.99937, 10.000225 
1.3250919e+3, 2.0482817e+2, -1063862.5, -1105718.9, -101530.89, -0.08632095, 0.25857604, -981125.3, -48424.105, 0.0, 9.999543, 9.999007 
1.3250999e+3, 2.1482657e+2, -824968.56, -931396.06, -80681.24, -0.014775479, 0.1770474, -781532.6, 53184.61, 0.0, 10.000477, 9.999082 
1.3251083e+3, 2.2482574e+2, -741549.25, -847229.3, 2677.7688, 0.009033236, 0.19466574, -741481.44, -4754.1235, 0.0, 10.000419, 9.999009 
1.3251168e+3, 2.3482566e+2, -789329.0, -805531.4, 24934.66, -0.017297285, 0.2601068, -771212.5, -132480.34, 0.0, 9.99936, 9.999129 
1.3251255e+3, 2.4482551e+2, -726344.4, -688721.44, 47502.22, -0.0030150579, 0.32069635, -656441.5, -115705.93, 0.0, 9.998935, 9.9994755 
1.3251351e+3, 2.5482532e+2, -589633.2, -556776.75, 33859.676, 0.0536533, 0.3287912, -535570.4, -92832.95, 0.0, 9.99914, 9.999607 
1.3251434e+3, 2.648247e+2, -445789.13, -459865.25, -19331.924, 0.090739794, 0.31645232, -432253.97, -87513.26, 0.0000000978673, 9.999565, 9.9993925 
1.3251506e+3, 2.7482322e+2, -242730.94, -302786.47, -8956.302, 0.09896636, 0.20977579, -241423.7, 5324.8403, 0.000006920427, 10.000246, 9.999474 
1.3251577e+3, 2.8482085e+2, -221372.42, -461304.84, 35356.414, 0.08984539, 0.12882201, -216270.77, -67500.22, 0.00008668865, 10.00067, 9.9975 
1.3251646e+3, 2.9481763e+2, -74567.875, -335910.53, 61634.555, 0.052995473, 0.030054973, -60761.477, -9954.457, 0.00038909205, 10.000977, 9.997542 
1.3251708e+3, 3.0481714e+2, 99717.15, 8854.402, 53735.85, -0.037870105, 0.13134073, 124653.04, 124653.04, 0.0010147934, 10.000847, 9.9996395 
1.3251776e+3, 3.1481776e+2, 61138.977, 61514.45, -96308.945, -0.04018179, 0.19190943, 157635.84, 157635.84, 0.0019149169, 10.000223, 10.000312 
1.3350305e+3, 1.2481777e+2, -1841816.5, -1842148.6, 7834.229, 0.20114733, -0.029038712, -1834146.6, -117350.12, 0.0065457188, 9.999357, 9.999439 
1.3350365e+3, 1.3481897e+2, -1665156.0, -1730306.8, -20020.547, -0.021820342, 0.17611866, -1659495.5, -40704.66, 0.0037237175, 10.000057, 9.99918 
1.335048e+3, 1.448202e+2, -1427371.1, -1365369.0, -56596.03, 0.232509, 0.28717166, -1331839.6, 188941.2, 0.0014951822, 10.000133, 10.000984 
1.335055e+3, 1.5482059e+2, -1407661.6, -1302444.3, 6165.666, 0.14290543, 0.21164922, -1302084.1, 120690.49, 0.00032323142, 9.99958, 10.001009 
1.3350618e+3, 1.6482037e+2, -1489525.4, -1557338.3, -29145.121, 0.10498753, 0.21086448, -1478720.6, -153942.66, 0.000017128494, 9.999499, 9.998619 
1.3350683e+3, 1.7481959e+2, -1313254.9, -1415135.1, -66066.73, 0.09418179, 0.2521478, -1280770.1, -53979.617, 0.00000000003443261, 10.000011, 9.998674 
1.3350756e+3, 1.8481934e+2, -1168315.4, -1210200.0, -36527.184, 0.057351235, 0.32433236, -1147152.9, -18355.855, 0.0, 9.999966, 9.999432 
1.335084e+3, 1.9481942e+2, -1150720.1, -1139148.0, -53850.895, 0.017140716, 0.36671805, -1090773.3, -59974.332, 0.0, 9.999361, 9.999537 
1.3350925e+3, 2.0481881e+2, -1023370.9, -1005035.6, -75062.85, 0.01971298, 0.3453843, -938582.6, -5778.3403, 0.0, 9.999473, 9.999732 
1.3351013e+3, 2.1481735e+2, -788661.7, -833010.1, -38250.734, 0.06355086, 0.20414898, -766622.6, 68191.66, 0.0, 10.000373, 9.999811 
1.335109e+3, 2.2481684e+2, -699888.7, -739878.44, -40451.313, 0.033244144, 0.17842908, -674760.4, 62056.72, 0.0, 10.000321, 9.999796 
1.3351157e+3, 2.3481739e+2, -743720.5, -696910.25, -5573.653, -0.065588534, 0.2290059, -696255.75, -57443.805, 0.0, 9.999292, 9.999912 
1.3351242e+3, 2.4481715e+2, -747545.44, -715424.9, 46483.84, -0.05365924, 0.2474861, -682305.06, -141489.61, 0.0, 9.998862, 9.999326 
1.3351345e+3, 2.5481597e+2, -612612.25, -589466.0, 48941.36, 0.07972307, 0.17381433, -550748.06, -107918.375, 0.0, 9.999076, 9.999412 
1.3351431e+3, 2.6481584e+2, -418992.44, -392563.38, -168.06262, 0.09872875, 0.19838026, -392562.3, -47732.47, 0.00000008871969, 9.999509, 9.999885 
1.3351499e+3, 2.7481666e+2, -221939.38, -233983.73, 27646.06, -0.010925333, 0.2676088, -199667.19, 47148.86, 0.000006673535, 10.000136, 9.999999 
1.3351579e+3, 2.8481606e+2, -170193.52, -335824.5, 36277.527, 0.03581529, 0.2929306, -162596.27, -13775.944, 0.00008850924, 10.000582, 9.998406 
1.3351679e+3, 2.9481396e+2, -33295.62, -212998.98, 84171.19, 0.26726213, 0.21177703, -29.007658, 50815.246, 0.00040084837, 10.000818, 9.998465 
1.3351725e+3, 3.048126e+2, 1884.327, -166724.88, 30127.826, 0.021735813, 0.23676956, 7105.989, 7105.989, 0.0010550291, 10.000732, 9.998484 
1.3351731e+3, 3.1481144e+2, -72305.39, -162661.48, -89833.74, -0.5500945, 0.23983872, -16929.184, -16929.184, 0.0019990124, 10.000009, 9.998868 
1.3450292e+3, 1.2480986e+2, -1688441.5, -1788366.9, -91635.836, 0.083949424, 0.027427435, -1634032.8, 82842.13, 0.0069055543, 10.000506, 9.999248 
1.3450374e+3, 1.3481042e+2, -1739500.9, -1809533.8, 31086.535, 0.07989698, 0.20367812, -1727693.0, -108816.84, 0.0039389143, 9.999737, 9.998792 
1.3450475e+3, 1.4481127e+2, -1573635.6, -1421321.3, 2789.0835, 0.22963744, 0.29154968, -1421270.1, 99599.97, 0.0015916337, 9.999075, 10.001103 
1.3450538e+3, 1.548119e+2, -1501651.0, -1328264.3, -92403.9, 0.1114167, 0.22553994, -1288252.4, 134609.11, 0.0003501717, 9.998875, 10.00116 
1.3450608e+3, 1.6481218e+2, -1486645.6, -1499798.9, -78584.48, 0.07400685, 0.24356095, -1414363.0, -89503.87, 0.000020254476, 9.99928, 9.999122 
1.3450684e+3, 1.7481212e+2, -1235992.6, -1319580.8, 834.7166, 0.07633074, 0.30618867, -1235984.3, -9121.123, 0.0000000014653116, 10.0002985, 9.999191 
1.3450761e+3, 1.848118e+2, -1132931.0, -1242318.1, 63441.84, 0.07431106, 0.36761883, -1103861.4, 25009.229, 0.0, 10.000421, 9.998991 
1.3450842e+3, 1.9481102e+2, -1145647.1, -1188762.4, 46794.758, 0.0828648, 0.36872736, -1115683.1, -84799.62, 0.0, 9.999623, 9.99907 
1.3450927e+3, 2.0481025e+2, -1008819.6, -957101.4, 86926.62, 0.09100789, 0.33920828, -892269.1, 40621.76, 0.0, 9.999401, 10.000093 
1.3451016e+3, 2.148094e+2, -843927.4, -809561.06, 81326.55, 0.09106168, 0.21705438, -743622.2, 91271.03, 0.0, 9.999793, 10.000239 
1.3451092e+3, 2.2480918e+2, -749830.6, -763163.1, 9367.955, 0.04264343, 0.19704257, -744999.2, -8106.576, 0.0, 9.999967, 9.999812 
1.3451155e+3, 2.3480964e+2, -650784.94, -651044.0, -24376.44, -0.05072957, 0.23829918, -626537.7, 12351.226, 0.0, 9.999921, 9.9999275 
1.3451236e+3, 2.4480946e+2, -586770.4, -624642.9, 47572.055, -0.04644548, 0.25738585, -554504.25, -13612.034, 0.0, 9.9999275, 9.999431 
1.345134e+3, 2.5480852e+2, -467368.88, -504468.56, 55722.063, 0.05946481, 0.19371113, -427190.16, 15714.189, 0.0, 10.000026, 9.999535 
1.3451426e+3, 2.6480836e+2, -334325.06, -331274.88, 26293.477, 0.06833799, 0.20517346, -306462.3, 38442.03, 0.000000062099474, 10.0000105, 10.000059 
1.3451497e+3, 2.7480897e+2, -233676.63, -218815.25, 10374.639, -0.030764703, 0.23306592, -213484.73, 33408.016, 0.0000065347235, 9.999965, 10.00018 
1.345158e+3, 2.8480902e+2, -254705.38, -316292.1, -1078.5068, 0.036692236, 0.28792006, -254686.5, -105795.52, 0.00008965579, 9.999741, 9.998948 
1.3451679e+3, 2.9480863e+2, -200311.6, -222335.38, -3875.7598, 0.28387266, 0.3211469, -199649.45, -148750.5, 0.0004062936, 9.999366, 9.999099 
1.3451727e+3, 3.048073e+2, -168514.75, -261702.83, -9857.336, 0.04185364, 0.31924918, -167483.47, -167483.47, 0.0010727071, 9.999591, 9.998398 
1.345174e+3, 3.148059e+2, -16191.713, -143264.9, -71278.28, -0.47060433, 0.31041592, 15757.252, 15757.252, 0.0020364497, 10.000424, 9.998798 
1.3550308e+3, 1.24803506e+2, -1571432.3, -1544187.1, -88887.8, 0.1672283, 0.34951815, -1467884.1, 249062.52, 0.0072628423, 10.000516, 10.000922 
1.3550383e+3, 1.3480191e+2, -1624728.3, -1573371.5, 2524.878, 0.18635845, 0.14665739, -1573247.6, 45710.906, 0.004152666, 9.999752, 10.000403 
1.3550457e+3, 1.4480127e+2, -1692782.5, -1677562.5, -13167.756, 0.13320734, 0.09545002, -1669963.9, -148998.72, 0.0016872559, 9.999107, 9.999331 
1.355051e+3, 1.5480153e+2, -1618630.9, -1584048.9, -91720.04, -0.068949625, 0.16938946, -1508004.3, -85036.63, 0.0003769789, 9.99892, 9.999387 
1.3550586e+3, 1.6480221e+2, -1329210.4, -1181660.6, -49171.844, -0.09332726, 0.21087176, -1166775.5, 158184.69, 0.000023370363, 9.999312, 10.001293 
1.3550682e+3, 1.7480336e+2, -1079751.1, -996274.2, 45046.547, 0.018077139, 0.17089997, -976601.8, 250340.55, 0.0000000068048798, 10.000295, 10.001418 
1.3550766e+3, 1.8480365e+2, -1150373.0, -1274904.0, 26385.512, 0.0695916, 0.19221807, -1145013.3, -16073.268, 0.0, 10.000405, 9.998774 
1.3550839e+3, 1.9480285e+2, -1164123.0, -1227480.5, 22914.813, 0.083807044, 0.21651447, -1156704.0, -125748.266, 0.0, 9.999619, 9.998809 
1.355092e+3, 2.0480248e+2, -1011858.9, -955178.56, 92450.11, 0.06712865, 0.23954917, -886822.3, 46138.844, 0.0, 9.999364, 10.000126 
1.3551009e+3, 2.148026e+2, -853240.25, -810867.4, 101277.82, 0.015019692, 0.21047066, -728583.7, 106371.73, 0.0, 9.99971, 10.000274 
1.3551088e+3, 2.2480261e+2, -815965.7, -871126.9, -2859.6145, -0.018298611, 0.24570374, -815817.8, -78862.35, 0.0, 9.999844, 9.999128 
1.3551158e+3, 2.3480245e+2, -715677.3, -761102.06, -20306.846, -0.031033736, 0.2949653, -707923.0, -68960.34, 0.0, 9.999817, 9.999221 
1.3551238e+3, 2.4480252e+2, -574985.6, -579023.8, 44519.797, -0.041138653, 0.35605606, -532439.1, 8525.878, 0.0, 9.99983, 9.999794 
1.3551328e+3, 2.5480276e+2, -455608.2, -456167.75, 67537.42, -0.05610637, 0.374982, -388349.97, 54612.887, 0.0, 9.999923, 9.999918 
1.3551416e+3, 2.6480207e+2, -356885.97, -360178.78, 15825.706, -0.055565264, 0.3189346, -342621.25, 2345.4458, 0.000000036385206, 9.99993, 9.999901 
1.3551497e+3, 2.748002e+2, -263203.5, -252082.69, 17597.34, -0.02703159, 0.118151635, -239188.16, 7790.1577, 0.0000068750182, 9.999846, 10.0000105 
1.3551576e+3, 2.8479996e+2, -253287.16, -297089.06, -22144.678, 0.011704486, 0.13944383, -244042.67, -95062.055, 0.000091050126, 9.999669, 9.999113 
1.3551651e+3, 2.948014e+2, -205764.61, -212852.25, -6588.1123, 0.046692394, 0.3479985, -201827.66, -150854.75, 0.0004082825, 9.999272, 9.999211 
1.3551717e+3, 3.0480096e+2, -113506.54, -120479.95, 10807.187, -0.042924043, 0.37739578, -105637.52, -105637.52, 0.001072397, 9.999495, 9.999405 
1.3551797e+3, 3.1480095e+2, 27985.223, 8189.0796, -8798.602, 0.028082283, 0.40337357, 31330.535, 31330.535, 0.0020302255, 10.000192, 9.999944 
1.36503e+3, 1.2479468e+2, -1750615.0, -1625689.8, 49992.39, 0.09482045, 0.31693992, -1608147.3, 108885.61, 0.0076198755, 9.999234, 10.000985 
1.3650385e+3, 1.3479362e+2, -1614444.9, -1574756.9, -56877.023, 0.22036542, 0.16801438, -1534361.5, 84679.68, 0.004366158, 9.999819, 10.000373 
1.3650455e+3, 1.4479312e+2, -1568763.4, -1608704.8, -41514.633, 0.16044499, 0.12833333, -1542665.8, -21618.947, 0.0017823466, 9.999926, 9.999404 
1.3650507e+3, 1.5479317e+2, -1426663.6, -1482267.6, 9511.745, -0.062007006, 0.17320529, -1425081.6, -2032.0604, 0.0004035849, 10.0002, 9.999466 
1.3650584e+3, 1.6479358e+2, -1237503.3, -1128668.8, 61406.22, -0.07266277, 0.17891093, -1101037.5, 224006.27, 0.000026350568, 9.999901, 10.0013685 
1.3650686e+3, 1.7479451e+2, -1261584.6, -1071798.5, -20235.5, 0.079904616, 0.10582859, -1069664.9, 157362.78, 0.000000016360648, 9.998999, 10.001516 
1.3650769e+3, 1.8479496e+2, -1318044.0, -1309218.4, -74087.88, 0.12762083, 0.11928531, -1239412.0, -110389.37, 0.0, 9.999057, 9.99919 
1.3650838e+3, 1.9479479e+2, -1046659.75, -1117221.0, -38807.754, 0.084686495, 0.1611523, -1029492.6, 1538.3567, 0.0, 10.000207, 9.999277 
1.3650915e+3, 2.047948e+2, -893969.44, -919613.6, 39948.0, 0.05185369, 0.20683543, -864836.2, 68196.81, 0.0, 10.000263, 9.999938 
1.3651001e+3, 2.1479504e+2, -949996.7, -881454.56, 19854.496, 0.022049988, 0.21200563, -876118.75, -41090.58, 0.0, 9.999148, 10.000062 
1.3651082e+3, 2.2479498e+2, -960430.2, -947831.94, -30314.176, -0.0055428124, 0.25380087, -923169.4, -186139.08, 0.0, 9.998889, 9.999054 
1.3651153e+3, 2.3479453e+2, -765784.56, -794258.6, -19174.695, -0.029740838, 0.28051132, -756139.4, -117098.76, 0.0, 9.999511, 9.999139 
1.3651234e+3, 2.4479462e+2, -618005.56, -594235.06, 49999.844, -0.041312393, 0.34526232, -554727.3, -13684.655, 0.0, 9.999514, 9.99984 
1.3651323e+3, 2.547952e+2, -600802.56, -522387.75, 31997.66, -0.05003763, 0.39296624, -510988.13, -67951.586, 0.0, 9.998901, 9.999956 
1.3651411e+3, 2.6479447e+2, -490669.25, -425053.88, 14846.026, -0.034339894, 0.33514848, -421851.2, -76810.6, 0.000000033203506, 9.999018, 9.999897 
1.36515e+3, 2.747923e+2, -248005.06, -240362.63, 11152.282, 0.0144102, 0.105222605, -232395.08, 14660.85, 0.0000069323874, 9.999936, 10.000047 
1.3651577e+3, 2.8479207e+2, -171162.31, -253417.53, -36955.69, 0.006692872, 0.11897571, -156997.94, -7939.395, 0.00008927096, 10.000236, 9.999134 
1.3651636e+3, 2.947937e+2, -96544.51, -151291.48, -46725.863, -0.0717534, 0.34141424, -69764.375, -18716.5, 0.00039892914, 10.000001, 9.999274 
1.365171e+3, 3.0479267e+2, 37428.82, -53350.13, 2343.1018, -0.11186227, 0.31243795, 37489.258, 37489.258, 0.0010452198, 10.000538, 9.999373 
1.3651827e+3, 3.1479228e+2, 280504.03, 157134.77, -116726.984, 0.24954519, 0.30782413, 350842.8, 350842.8, 0.0019747745, 10.001762, 10.000237 
1.3750274e+3, 1.24783374e+2, -1864378.5, -1849467.5, 92241.13, -0.109949574, -0.072650835, -1764381.1, -47247.16, 0.0079810945, 9.999214, 9.999441 
1.3750373e+3, 1.3478567e+2, -1725294.8, -1802785.4, -40454.848, 0.10358283, 0.27339232, -1708024.0, -88900.84, 0.0045821774, 9.999816, 9.998805 
1.3750467e+3, 1.4478683e+2, -1435214.4, -1337547.3, -45098.78, 0.2513367, 0.38973483, -1319908.1, 201206.39, 0.0018779465, 9.999947, 10.001261 
1.3750523e+3, 1.5478665e+2, -1291234.9, -1204850.9, 27626.166, 0.07078259, 0.22030592, -1196771.5, 226337.72, 0.00043006244, 10.000215, 10.001366 
1.37506e+3, 1.6478626e+2, -1368236.5, -1408626.4, 18289.188, 0.06436805, 0.14556399, -1361185.8, -36075.594, 0.000029160963, 9.999931, 9.999436 
1.3750687e+3, 1.7478567e+2, -1397269.8, -1362415.1, -49238.473, 0.1968946, 0.12096016, -1327610.9, -100493.08, 0.000000027808229, 9.999025, 9.999516 
1.3750766e+3, 1.8478581e+2, -1238141.5, -1148962.1, -41159.613, 0.18164268, 0.15012048, -1132869.5, -3751.5425, 0.0, 9.999083, 10.0002775 
1.3750836e+3, 1.9478668e+2, -973915.3, -957956.1, 8216.748, 0.03439642, 0.1858872, -954481.94, 76628.484, 0.0, 10.000168, 10.000394 
1.3750914e+3, 2.0478706e+2, -927823.94, -974307.9, -8676.081, -0.016330779, 0.22919063, -926257.4, 6850.0996, 0.0, 10.000197, 9.999594 
1.3750997e+3, 2.1478683e+2, -989135.0, -943696.5, -15100.614, 0.04192175, 0.2245251, -939135.9, -104025.59, 0.0, 9.999065, 9.999675 
1.3751073e+3, 2.2478643e+2, -943265.25, -885845.0, -13804.7295, 0.01190709, 0.2295623, -882698.56, -145583.31, 0.0, 9.998776, 9.999534 
1.3751142e+3, 2.3478585e+2, -745991.0, -727907.7, 12230.259, -0.109440565, 0.19483502, -721739.75, -82617.09, 0.0, 9.999407, 9.999641 
1.3751224e+3, 2.4478571e+2, -652964.9, -647667.56, 17786.285, -0.11123372, 0.22610867, -632333.8, -91208.3, 0.0, 9.999425, 9.999519 
1.3751319e+3, 2.547859e+2, -634279.8, -573245.0, 15313.843, 0.018428693, 0.26599228, -569618.2, -126493.984, 0.0, 9.998817, 9.99965 
1.3751413e+3, 2.647858e+2, -492417.44, -408545.94, 41140.11, 0.06588849, 0.27611718, -391735.5, -46611.25, 0.000000022673568, 9.998932, 10.00005 
1.3751502e+3, 2.7478528e+2, -257153.42, -228478.36, 52653.65, 0.028451912, 0.19287032, -188245.1, 58881.566, 0.000006624494, 9.999815, 10.000181 
1.3751575e+3, 2.8478518e+2, -182969.34, -264293.03, -55293.92, -0.040406354, 0.22469452, -154995.89, -5869.7397, 0.00008435929, 10.000169, 9.999095 
1.3751629e+3, 2.947855e+2, -116026.86, -164119.95, -44140.266, -0.14677164, 0.31784856, -89808.12, -38684.918, 0.00037578115, 9.999879, 9.99925 
1.3751704e+3, 3.0478257e+2, -50020.543, -207898.16, 44810.438, -0.24387608, 0.14617611, -38188.703, -38188.703, 0.0009853418, 10.000429, 9.998356 
1.375183e+3, 3.1477976e+2, 203332.14, 65486.984, -39773.44, 0.06901666, 0.0059210784, 213985.0, 213985.0, 0.0018645666, 10.001497, 9.999717 
1.3850278e+3, 1.2477535e+2, -1846670.0, -1864820.0, 63377.395, -0.008984071, -0.061644256, -1791721.1, -74510.62, 0.008351057, 9.999428, 9.999239 
1.3850364e+3, 1.347771e+2, -1734728.5, -1810680.4, 24790.074, 0.045383696, 0.23640788, -1727353.4, -108147.555, 0.004803759, 9.99976, 9.998786 
1.3850467e+3, 1.447785e+2, -1497361.5, -1362688.0, 16190.743, 0.29778796, 0.37373483, -1360768.9, 160426.58, 0.0019753822, 9.999497, 10.0013075 
1.3850525e+3, 1.5477869e+2, -1447508.9, -1276562.3, -65266.848, 0.11819982, 0.23616298, -1254492.8, 168694.38, 0.00045665295, 9.999127, 10.001399 
1.3850598e+3, 1.6477832e+2, -1453965.3, -1468253.3, -57686.1, 0.09397616, 0.1711593, -1402982.5, -77793.945, 0.00003186285, 9.999435, 9.999263 
1.3850684e+3, 1.7477746e+2, -1187531.0, -1278392.9, -5515.712, 0.19083662, 0.1375922, -1187197.5, 40002.36, 0.000000039188958, 10.000553, 9.999351 
1.3850763e+3, 1.847776e+2, -1026388.9, -1050411.5, 40846.906, 0.17053488, 0.17626788, -995823.9, 133376.3, 0.0, 10.0005455, 10.000253 
1.3850833e+3, 1.9477886e+2, -1077779.9, -1005312.3, -6029.8364, 0.031675532, 0.24991708, -1004814.0, 26374.574, 0.0, 9.999446, 10.000414 
1.385091e+3, 2.047791e+2, -1102540.6, -1080400.8, -53971.01, -0.009839666, 0.2862339, -1036376.06, -103188.6, 0.0, 9.999091, 9.999396 
1.3850991e+3, 2.1477811e+2, -923817.25, -931340.1, -63213.742, 0.057584118, 0.22454718, -864253.1, -29054.266, 0.0, 9.999595, 9.999504 
1.3851066e+3, 2.2477776e+2, -784871.7, -759455.7, -24716.068, 0.02287622, 0.21922876, -744372.0, -7169.3667, 0.0, 9.99963, 10.000003 
1.3851133e+3, 2.3477806e+2, -734070.06, -670568.3, -13089.159, -0.12275074, 0.22522572, -667976.1, -28777.627, 0.0, 9.9992485, 10.000122 
1.3851218e+3, 2.447778e+2, -689818.6, -674983.94, 11689.233, -0.09655391, 0.22818923, -668557.3, -127357.3, 0.0, 9.999228, 9.999416 
1.385132e+3, 2.5477692e+2, -513773.13, -523173.53, 4485.7266, 0.108655654, 0.1717609, -511976.13, -68768.37, 0.0, 9.999697, 9.999558 
1.3851412e+3, 2.647767e+2, -413395.6, -419231.66, 38752.43, 0.13096476, 0.19273724, -377451.47, -32240.71, 0.0000000049794013, 9.999686, 9.999611 
1.3851489e+3, 2.74777e+2, -373008.06, -336791.5, -5798.764, -0.041040745, 0.23891625, -335885.7, -88675.83, 0.0000064646365, 9.999229, 9.999725 
1.385157e+3, 2.8477693e+2, -253447.95, -290799.6, -101092.664, -0.0823982, 0.28952914, -169320.5, -20110.299, 0.00007935542, 9.999656, 9.999162 
1.3851649e+3, 2.9477623e+2, 71712.37, -56899.297, -103441.87, 0.0016207357, 0.27544183, 129207.44, 180420.1, 0.00034767005, 10.001101, 9.999393 
1.3851723e+3, 3.04773e+2, 34503.96, -240539.95, -2640.045, -0.124857076, 0.09868586, 34529.3, 34529.3, 0.0009104193, 10.001333, 9.997692 
1.3851826e+3, 3.1476992e+2, 19091.107, -52505.63, -73762.555, -0.05204311, 0.00012054994, 65283.215, 65283.215, 0.0017264709, 10.000342, 9.999464 
1.39503e+3, 1.247702e+2, -1770146.8, -1692351.4, -25920.277, 0.24131852, 0.3084748, -1684506.3, 32760.662, 0.008733579, 9.999381, 10.000439 
1.3950357e+3, 1.3476798e+2, -1625779.5, -1585597.9, 35963.973, -0.023389388, 0.053386904, -1564493.5, 54795.734, 0.005033633, 9.999765, 10.000325 
1.395046e+3, 1.4476828e+2, -1610481.1, -1606597.9, -14094.439, 0.23801835, 0.08478259, -1594312.0, -73023.59, 0.002076125, 9.999534, 9.999617 
1.3950506e+3, 1.547694e+2, -1572466.1, -1537550.1, -70997.74, 0.0074599735, 0.22356679, -1481895.5, -58613.836, 0.00048381835, 9.999132, 9.999607 
1.3950579e+3, 1.6476986e+2, -1344314.5, -1249735.5, -25570.602, -0.061101746, 0.25620532, -1243264.9, 82012.96, 0.000034571214, 9.999468, 10.000751 
1.3950674e+3, 1.7476971e+2, -1082559.0, -1057341.0, 40859.582, 0.016192166, 0.14080144, -1027189.06, 200086.4, 0.00000005013657, 10.000535, 10.000881 
1.3950756e+3, 1.8477026e+2, -1092293.1, -1191315.0, -9882.594, 0.035908446, 0.1908763, -1091316.5, 37954.098, 0.0, 10.000559, 9.999279 
1.3950828e+3, 1.9477138e+2, -1154742.4, -1161036.6, -42096.695, 0.011555199, 0.3549679, -1115675.4, -84410.63, 0.0, 9.99942, 9.999362 
1.3950904e+3, 2.0477094e+2, -1113358.8, -1087871.4, -43690.918, 0.0027315181, 0.37906125, -1055103.5, -121831.24, 0.0, 9.99903, 9.9993725 
1.3950984e+3, 2.1476884e+2, -941408.9, -943573.9, -38192.14, 0.009238641, 0.21002737, -904283.9, -68989.734, 0.0, 9.999494, 9.999469 
1.3951057e+3, 2.2476889e+2, -760933.7, -692928.56, -46411.83, -0.03796831, 0.2223993, -669396.5, 67896.52, 0.0, 9.999549, 10.000501 
1.3951126e+3, 2.3477116e+2, -708518.5, -600888.06, -20180.938, -0.12885658, 0.37181637, -597228.5, 42039.1, 0.0, 9.999173, 10.000638 
1.3951215e+3, 2.4477106e+2, -694602.44, -669308.75, 20777.102, -0.067355745, 0.358045, -657632.1, -116367.32, 0.0, 9.999157, 9.999491 
1.3951324e+3, 2.5476825e+2, -527291.3, -527107.4, 29521.844, 0.15929237, 0.105318315, -497677.34, -54389.758, 0.0, 9.999598, 9.9995775 
1.3951407e+3, 2.647671e+2, -493188.7, -569618.25, 15045.071, 0.103125945, 0.08523911, -490333.72, -145032.95, 0.0000000011462398, 9.999615, 9.998614 
1.3951463e+3, 2.7476773e+2, -459912.16, -490165.16, -12578.815, -0.24885876, 0.25898504, -455365.4, -208061.61, 0.000006299897, 9.999113, 9.99873 
1.3951556e+3, 2.8476748e+2, -259477.0, -281617.1, -54204.168, -0.1937776, 0.3391401, -215224.02, -65916.29, 0.00007482128, 9.99956, 9.99927 
1.395169e+3, 2.9476595e+2, 58978.29, -58284.15, -37414.16, 0.2880798, 0.22904098, 69898.77, 121214.21, 0.00032370954, 10.000995, 9.999434 
1.3951765e+3, 3.047639e+2, 9726.697, -275732.34, -45692.684, 0.15595233, 0.18177463, 16862.24, 16862.24, 0.00084908167, 10.001265, 9.997481 
1.3951814e+3, 3.1476256e+2, -17337.178, -70113.98, -73775.24, -0.23111802, 0.27436888, 34627.047, 34627.047, 0.0016133434, 10.000101, 9.999459 
1.405031e+3, 1.24761805e+2, -1722698.9, -1635476.0, -103212.24, 0.3854478, 0.39073, -1567039.5, 150315.23, 0.009133226, 9.99955, 10.0007515 
1.4050354e+3, 1.3475968e+2, -1615511.6, -1501486.0, -49258.24, -0.0063102553, 0.07374151, -1483154.0, 136217.61, 0.005275387, 9.999491, 10.001037 
1.4050451e+3, 1.4475998e+2, -1603099.8, -1620440.9, -61581.21, 0.21407966, 0.07331529, -1549581.8, -28212.42, 0.0021822979, 9.99966, 9.9994545 
1.4050499e+3, 1.5476073e+2, -1431845.4, -1493488.0, -18151.713, -0.027160922, 0.1936195, -1426897.4, -3529.8743, 0.00051218417, 10.000198, 9.999391 
1.4050572e+3, 1.6476141e+2, -1246945.0, -1193237.3, 59932.895, -0.10784271, 0.25868395, -1154417.0, 170945.45, 0.000037386584, 10.000104, 10.000827 
1.405067e+3, 1.7476213e+2, -1220514.5, -1112236.4, 3001.5564, -0.02134917, 0.21608531, -1112153.3, 115199.71, 0.00000006103049, 9.999537, 10.000983 
1.4050753e+3, 1.8476258e+2, -1288723.8, -1277443.0, -76429.96, 0.022301111, 0.2494988, -1206445.6, -77097.484, 0.0, 9.999183, 9.999348 
1.405082e+3, 1.9476272e+2, -1185031.5, -1164576.5, -43730.16, 0.019252507, 0.305872, -1129893.8, -98544.58, 0.0, 9.99917, 9.999454 
1.4050896e+3, 2.0476215e+2, -1065619.5, -1049999.4, 52810.223, 0.021905642, 0.3037307, -1004424.9, -71068.72, 0.0, 9.999287, 9.999516 
1.405098e+3, 2.1476087e+2, -909590.94, -909060.75, 60524.31, 0.02924931, 0.19899762, -848800.94, -13431.747, 0.0, 9.999626, 9.999643 
1.4051059e+3, 2.2476083e+2, -726068.06, -729297.75, 29981.672, -0.010539691, 0.2205688, -697657.75, 39711.332, 0.0, 10.000045, 10.0 
1.4051127e+3, 2.347621e+2, -530016.44, -565778.44, -36633.5, -0.10059246, 0.31882268, -507132.94, 132222.56, 0.0, 10.000638, 10.000163 
1.4051214e+3, 2.4476184e+2, -462808.0, -552581.44, -26246.947, -0.066193186, 0.3113733, -455697.4, 85657.71, 0.0, 10.000724, 9.999541 
1.4051317e+3, 2.5475985e+2, -417479.4, -466896.88, -29738.824, 0.092095464, 0.13253081, -403523.94, 39845.99, 0.0, 10.000311, 9.999652 
1.4051403e+3, 2.6475874e+2, -471617.88, -607164.75, -19383.867, 0.074461944, 0.13368943, -468900.38, -123517.12, 0.0000000047036606, 9.9999695, 9.998185 
1.4051469e+3, 2.747587e+2, -389977.22, -502197.9, -28527.467, -0.12933509, 0.28698546, -383141.66, -135747.69, 0.000006310048, 9.999794, 9.998317 
1.4051566e+3, 2.8475788e+2, -194073.83, -267553.13, 12551.294, -0.07645197, 0.34145626, -191989.03, -42585.125, 0.00007120588, 10.000094, 9.999102 
1.4051694e+3, 2.9475597e+2, 44366.984, -82537.26, -6761.631, 0.23927483, 0.20664464, 44726.24, 96141.984, 0.00031037428, 10.000975, 9.999274 
1.4051773e+3, 3.047547e+2, 15898.468, -275718.88, -63786.336, 0.1061351, 0.24985076, 29240.244, 29240.244, 0.0008184522, 10.0013075, 9.997473 
1.4051832e+3, 3.1475392e+2, 130220.016, 11303.991, -97474.61, -0.10332239, 0.39145523, 184939.73, 184939.73, 0.0015564455, 10.001061, 9.999559 
1.4150289e+3, 1.24749996e+2, -1759640.0, -1714052.5, -221246.61, 0.17978284, 0.13670892, -1514428.6, 203047.14, 0.009556688, 9.999563, 10.000211 
1.4150354e+3, 1.3475236e+2, -1630380.5, -1520992.5, -41671.69, 0.036018763, 0.28841883, -1506926.4, 112525.26, 0.0055341963, 9.999459, 10.000913 
1.4150444e+3, 1.4475362e+2, -1504108.4, -1429074.3, -51532.844, 0.13195564, 0.3232711, -1402848.3, 118589.414, 0.0022969088, 9.999706, 10.000753 
1.41505e+3, 1.5475275e+2, -1338589.8, -1303431.9, 7089.9287, -0.05000584, 0.15170343, -1302056.0, 121387.79, 0.0005425403, 10.000211, 10.000691 
1.4150575e+3, 1.6475318e+2, -1329252.6, -1370937.0, 27451.566, -0.11051166, 0.18777366, -1315627.6, 9813.269, 0.000040406845, 10.000132, 9.999596 
1.415067e+3, 1.7475484e+2, -1313237.3, -1298989.1, -12185.052, 0.015141824, 0.36890087, -1291998.4, -64567.516, 0.00000007226826, 9.999512, 9.999714 
1.415075e+3, 1.8475479e+2, -1213045.6, -1122301.6, -85479.7, 0.05814075, 0.3625167, -1070898.6, 58532.395, 0.0, 9.999189, 10.00041 
1.4150812e+3, 1.9475292e+2, -1111185.9, -1007067.4, -38626.64, -0.0067339614, 0.10860031, -994302.4, 37139.51, 0.0, 9.999154, 10.000543 
1.4150888e+3, 2.0475268e+2, -1038938.0, -990810.9, 52899.85, -0.012155991, 0.06473024, -956758.6, -23318.857, 0.0, 9.999265, 9.999934 
1.4150982e+3, 2.1475415e+2, -896723.75, -860271.1, 77628.99, 0.06600352, 0.19512112, -798757.5, 36666.848, 0.0, 9.999524, 10.000032 
1.4151065e+3, 2.2475363e+2, -845784.6, -948380.75, 42641.887, 0.04063083, 0.21771388, -830375.7, -92944.8, 0.0, 9.999919, 9.998554 
1.4151135e+3, 2.3475097e+2, -658297.7, -800020.0, -5909.415, -0.096660994, 0.07617505, -658051.7, -18590.252, 0.0, 10.000506, 9.998615 
1.4151213e+3, 2.447503e+2, -470063.9, -550877.75, -47581.074, -0.1631162, 0.10535405, -448047.47, 93422.21, 0.0, 10.000642, 9.999594 
1.4151298e+3, 2.5475168e+2, -422406.1, -458455.13, -37036.598, -0.14513859, 0.25365523, -399240.9, 44213.492, 0.0, 10.000224, 9.999754 
1.4151394e+3, 2.6475158e+2, -481520.22, -606481.06, -32187.842, -0.01807052, 0.34626687, -473716.5, -128258.914, 0.000000079284355, 9.999881, 9.998229 
1.4151505e+3, 2.747498e+2, -402000.7, -509130.66, -23933.615, 0.23607446, 0.3211133, -396896.88, -149415.47, 0.000007370017, 9.9997225, 9.998301 
1.4151596e+3, 2.8474802e+2, -221320.08, -323372.34, 38835.035, 0.18738563, 0.29890522, -208222.69, -58722.45, 0.00007169882, 10.000074, 9.998735 
1.4151663e+3, 2.9474613e+2, 2903.0154, -148640.44, 39296.813, -0.1921216, 0.20259152, 12486.98, 64001.742, 0.00031191297, 10.000866, 9.998884 
1.4151743e+3, 3.047454e+2, -4665.509, -268731.56, -75655.414, -0.33259815, 0.3116476, 15473.939, 15473.939, 0.00082090637, 10.00112, 9.997593 
1.4151874e+3, 3.1474397e+2, 79184.336, -25244.354, -74135.16, 0.17730616, 0.37214258, 117647.22, 117647.22, 0.001557211, 10.000793, 9.999419 
1.4250274e+3, 1.2474245e+2, -1675494.6, -1716480.8, -91603.266, 0.049482614, 0.121655785, -1602120.1, 115431.805, 0.010011913, 10.000324, 9.999828 
1.4250362e+3, 1.3474524e+2, -1555699.1, -1541073.0, 68346.93, 0.14149736, 0.36423448, -1479649.0, 139875.61, 0.0058154534, 10.000219, 10.000409 
1.4250436e+3, 1.4474584e+2, -1486547.8, -1411941.3, 18271.543, 0.10771372, 0.3572614, -1407706.8, 113809.89, 0.002423067, 9.999819, 10.000808 
1.4250502e+3, 1.5474504e+2, -1489306.8, -1369396.5, -36137.65, 0.003976139, 0.18566346, -1359347.8, 64172.13, 0.00057589856, 9.999154, 10.000748 
1.4250575e+3, 1.6474527e+2, -1530120.6, -1500546.5, -13659.419, -0.058102254, 0.21103409, -1495203.1, -169684.1, 0.00004378684, 9.998886, 9.999306 
1.425066e+3, 1.7474653e+2, -1375881.4, -1359671.4, 3692.9731, -0.013777611, 0.3792593, -1358869.6, -131355.03, 0.00000008454083, 9.999215, 9.999438 
1.425074e+3, 1.847464e+2, -1106114.0, -1045341.5, -23340.768, 0.016958656, 0.36907402, -1037411.75, 92103.57, 0.0, 9.999818, 10.000631 
1.4250812e+3, 1.9474481e+2, -847652.25, -853360.8, -53637.64, 0.005428955, 0.11954018, -796793.0, 234728.23, 0.0, 10.000849, 10.000779 
1.425089e+3, 2.0474446e+2, -841275.7, -919182.5, -37910.28, 0.01987491, 0.06279608, -825873.25, 107645.805, 0.0, 10.000731, 9.999716 
1.4250976e+3, 2.1474534e+2, -922940.4, -893622.3, -77571.11, 0.07330313, 0.15774088, -829337.3, 6171.668, 0.0, 9.99944, 9.999836 
1.425106e+3, 2.2474466e+2, -984082.0, -1027913.25, -34399.176, 0.04896065, 0.17766094, -965210.4, -227693.16, 0.0, 9.999015, 9.998451 
1.4251138e+3, 2.347423e+2, -797789.7, -877583.2, 8098.426, -0.068764225, 0.07517078, -796976.06, -157430.69, 0.0, 9.999579, 9.998537 
1.4251217e+3, 2.447416e+2, -625237.1, -680446.0, -10299.921, -0.13608827, 0.13122545, -623378.1, -81822.414, 0.0, 9.999824, 9.999097 
1.4251296e+3, 2.5474265e+2, -508539.56, -551492.5, -64734.934, -0.14916144, 0.2944831, -461811.56, -18264.14, 0.00000000006254562, 9.999862, 9.999288 
1.4251395e+3, 2.647423e+2, -400944.66, -540370.8, -39278.668, -0.0064730695, 0.37767735, -390640.7, -45088.426, 0.00000036239143, 10.000317, 9.998476 
1.4251517e+3, 2.747405e+2, -161341.53, -359578.4, -24797.268, 0.31443137, 0.3192927, -158286.75, 89285.03, 0.000010082052, 10.001227, 9.998602 
1.4251609e+3, 2.847386e+2, -85705.14, -299984.3, 47402.793, 0.26799333, 0.28958145, -75687.07, 73904.375, 0.000078412035, 10.001188, 9.998364 
1.4251667e+3, 2.9473665e+2, -117479.086, -244883.03, 18859.43, -0.18865149, 0.22730072, -114745.984, -63134.43, 0.00032778483, 10.000213, 9.998536 
1.4251745e+3, 3.0473655e+2, -148389.89, -263558.1, -54028.152, -0.34984747, 0.37947077, -127012.16, -127012.16, 0.00085219153, 9.999789, 9.998279 
1.4251876e+3, 3.1473526e+2, -29721.984, -39225.504, -26259.516, 0.17896064, 0.3871528, -7787.768, -7787.768, 0.001610581, 9.999856, 9.999785 
1.4350262e+3, 1.2473951e+2, -1675956.8, -1725244.5, -51243.44, -0.1350338, 0.36154416, -1643739.4, 73840.71, 0.010506618, 10.000347, 9.999755 
1.4350377e+3, 1.3473868e+2, -1620624.1, -1669860.4, 72689.055, 0.25293973, 0.32096982, -1568497.5, 51089.492, 0.006123269, 10.000201, 9.999523 
1.4350434e+3, 1.447369e+2, -1559745.6, -1581839.4, -14875.02, 0.068179935, 0.18418649, -1552264.1, -30660.668, 0.002563054, 9.999883, 9.999619 
1.4350502e+3, 1.5473765e+2, -1566550.4, -1533111.4, -53659.59, 0.0729115, 0.28287792, -1493626.9, -70031.3, 0.0006133788, 9.999165, 9.999624 
1.4350569e+3, 1.6473778e+2, -1484647.1, -1412568.9, -10898.304, -0.02590687, 0.3266259, -1410957.0, -85361.695, 0.000047750204, 9.998911, 9.999901 
1.435064e+3, 1.7473719e+2, -1330879.6, -1270591.5, 22253.063, -0.16968703, 0.2478635, -1263267.4, -35663.406, 0.00000010052836, 9.999228, 10.000046 
1.4350724e+3, 1.8473738e+2, -1143803.1, -1124170.0, 4495.8037, -0.16203016, 0.2659711, -1123189.4, 6412.105, 0.0, 9.999821, 10.00009 
1.4350821e+3, 1.947384e+2, -893919.3, -939392.56, -9120.696, -0.0047312127, 0.3336699, -892158.2, 139429.08, 0.0, 10.000804, 10.000213 
1.4350902e+3, 2.0473757e+2, -907144.75, -1044431.3, -93591.64, 0.043101173, 0.2979158, -859722.1, 73870.76, 0.0, 10.000679, 9.998881 
1.4350963e+3, 2.1473458e+2, -998424.0, -1030490.06, -118715.46, -0.013661037, 0.091761746, -894663.8, -59042.363, 0.0, 9.999352, 9.99894 
1.4351042e+3, 2.2473396e+2, -911846.5, -856448.94, -22406.176, -0.05289431, 0.1045995, -848521.06, -110893.52, 0.0, 9.998924, 9.999671 
1.4351134e+3, 2.3473597e+2, -722332.75, -697781.0, 35359.72, -0.072700724, 0.31017384, -672626.9, -33018.55, 0.0, 9.999482, 9.99982 
1.4351225e+3, 2.4473563e+2, -710262.44, -836262.94, -18054.068, -0.057363477, 0.38579795, -707726.56, -166112.02, 0.0, 9.999728, 9.998076 
1.4351313e+3, 2.5473267e+2, -601259.25, -724139.4, -55409.223, 0.0056887018, 0.2590514, -579964.4, -136314.89, 0.000000006122379, 9.999776, 9.998145 
1.4351405e+3, 2.6473102e+2, -371072.13, -465824.0, -11811.849, 0.044500172, 0.24354787, -369621.84, -23955.041, 0.0000008787704, 10.000256, 9.999022 
1.4351505e+3, 2.7473077e+2, -132591.44, -280859.66, 20173.146, 0.060401246, 0.28947604, -129895.72, 117769.08, 0.000014138208, 10.001138, 9.999193 
1.4351605e+3, 2.847296e+2, -133196.33, -373490.63, 5419.8174, 0.09623565, 0.321954, -133074.14, 16603.53, 0.00009033198, 10.00108, 9.997908 
1.4351705e+3, 2.9472733e+2, -171936.25, -337648.16, -5694.398, 0.14928514, 0.27266303, -171740.81, -120032.516, 0.00035666508, 10.000123, 9.997942 
1.4351775e+3, 3.0472785e+2, -64724.97, -67298.46, -58455.84, -0.040510174, 0.45607823, -7541.7134, -7541.7134, 0.00091448583, 9.999702, 9.999665 
1.435184e+3, 3.1472784e+2, -1814.386, 72508.3, 9444.6, -0.1960175, 0.4471344, 73689.695, 73689.695, 0.0017228713, 9.999627, 10.000668 
1.445026e+3, 1.2473255e+2, -1712131.1, -1728385.8, -45888.67, -0.18637271, 0.34907645, -1673655.6, 43989.43, 0.011047917, 10.000037, 9.99988 
1.445038e+3, 1.3473092e+2, -1699629.8, -1777246.3, -23614.543, 0.2799103, 0.2835133, -1693009.8, -73348.98, 0.00646129, 9.99994, 9.998918 
1.4450428e+3, 1.4472872e+2, -1558719.1, -1615636.0, -52088.35, 0.015131551, 0.15138938, -1527822.0, -6139.0405, 0.0027186894, 10.00005, 9.999293 
1.4450502e+3, 1.547296e+2, -1383121.1, -1473491.8, -47432.344, 0.10083265, 0.2911682, -1362796.6, 60878.73, 0.0006559602, 10.000559, 9.9993515 
1.4450571e+3, 1.6472955e+2, -1276395.4, -1299101.0, 17817.348, 0.039376017, 0.325706, -1266621.4, 59054.848, 0.000052490832, 10.000302, 9.999999 
1.4450637e+3, 1.747285e+2, -1293371.4, -1238359.0, -2014.8439, -0.12866978, 0.19017904, -1238285.3, -10599.079, 0.00000012546444, 9.999434, 10.000161 
1.4450721e+3, 1.8472862e+2, -1265525.6, -1231038.5, 19578.045, -0.13190784, 0.2166407, -1222193.0, -92508.41, 0.0, 9.999184, 9.999669 
1.4450826e+3, 1.9473007e+2, -1090340.5, -1078392.1, 1692.6057, 0.016961612, 0.36857685, -1078157.0, -46486.688, 0.0, 9.99965, 9.999812 
1.4450906e+3, 2.0472935e+2, -991041.7, -1107294.8, -81469.25, 0.047238722, 0.37525257, -949088.56, -15411.152, 0.0, 10.000204, 9.998675 
1.4450961e+3, 2.1472615e+2, -785724.75, -948617.75, -73915.22, -0.04026485, 0.16608708, -757184.94, 78524.445, 0.0, 10.000903, 9.9987545 
1.4451039e+3, 2.2472522e+2, -602698.6, -717235.94, 35509.35, -0.07144131, 0.16217107, -592583.2, 145134.44, 0.0, 10.001083, 9.999586 
1.4451137e+3, 2.347268e+2, -545185.9, -617708.56, -19673.69, -0.045871876, 0.3325704, -540192.6, 99506.89, 0.0, 10.000717, 9.99977 
1.4451231e+3, 2.4472632e+2, -585817.44, -779686.06, -72303.67, -0.001205377, 0.39519283, -561821.7, -20115.424, 0.0, 10.000603, 9.998039 
1.445132e+3, 2.547234e+2, -446264.66, -656057.94, -44681.535, 0.061004, 0.27912518, -437144.88, 6596.737, 0.000000012932129, 10.000857, 9.998097 
1.4451411e+3, 2.647217e+2, -272120.1, -399093.44, 49074.18, 0.04598431, 0.24895689, -255364.42, 90394.96, 0.0000016431604, 10.0008545, 9.999187 
1.4451502e+3, 2.747213e+2, -184545.89, -281666.47, 31687.436, -0.05040324, 0.2591716, -175121.73, 72635.28, 0.00001933506, 10.000683, 9.999398 
1.4451602e+3, 2.847204e+2, -214711.4, -413719.94, -514.24493, 0.0037113768, 0.30911684, -214710.08, -64942.832, 0.000106984284, 10.000525, 9.997894 
1.4451714e+3, 2.9471886e+2, -142942.97, -322548.47, 11914.812, 0.22248554, 0.33687127, -142156.0, -90363.18, 0.00040085675, 10.000317, 9.997946 
1.4451781e+3, 3.0471933e+2, 6297.8735, 33050.94, -14919.945, 0.046245936, 0.4868969, 39712.78, 39712.78, 0.0010133042, 9.999899, 10.000271 
1.4451824e+3, 3.147191e+2, -42450.98, 71125.26, -35298.934, -0.29302615, 0.39294505, 81201.97, 81201.97, 0.0019009939, 9.999274, 10.000829 
1.4550273e+3, 1.24722384e+2, -1691062.3, -1693915.5, 79442.08, -0.08419459, 0.14567143, -1613034.0, 104704.734, 0.011640448, 10.000085, 10.000094 
1.455037e+3, 1.3472208e+2, -1724247.3, -1820132.9, -23216.955, 0.16836482, 0.24070713, -1718921.5, -99176.55, 0.0068325973, 9.999906, 9.998641 
1.4550416e+3, 1.4472143e+2, -1531266.3, -1554921.9, -40588.348, -0.1265716, 0.26081467, -1500817.5, 20935.807, 0.0028915813, 10.000032, 9.999717 
1.4550501e+3, 1.5472099e+2, -1352799.4, -1405826.5, -23269.877, 0.01526854, 0.21762015, -1344036.1, 79721.805, 0.00070428615, 10.000542, 9.999821 
1.4550579e+3, 1.6472064e+2, -1292610.9, -1344522.5, -24964.336, 0.06374755, 0.21379021, -1282553.9, 43206.965, 0.000058062662, 10.000345, 9.999671 
1.455065e+3, 1.747204e+2, -1315838.5, -1289661.1, -26734.936, 0.050303526, 0.19791369, -1272982.9, -45221.6, 0.00000016567238, 9.99945, 9.999805 
1.455073e+3, 1.8472017e+2, -1284820.6, -1275165.0, 27902.805, 0.03509456, 0.2188247, -1251675.5, -121911.305, 0.0, 9.999204, 9.999354 
1.4550821e+3, 1.9471987e+2, -1119739.4, -1132826.5, 25563.41, 0.0052733263, 0.22967124, -1099895.4, -68125.46, 0.0, 9.99962, 9.9994545 
1.45509e+3, 2.0471974e+2, -973057.75, -1053125.0, -62889.355, -0.03429602, 0.29552674, -938541.0, -4767.4194, 0.0, 10.0001335, 9.99908 
1.4550969e+3, 2.147198e+2, -768257.0, -889894.3, -41697.58, -0.06898384, 0.36816323, -755335.56, 80439.32, 0.0, 10.000807, 9.999204 
1.4551051e+3, 2.2471832e+2, -703653.8, -902612.44, 15398.151, -0.076454364, 0.3453317, -702469.2, 35319.49, 0.0, 10.000982, 9.998361 
1.4551145e+3, 2.3471509e+2, -656860.44, -819512.06, -23989.303, -0.051914133, 0.16375026, -653396.06, -13579.385, 0.0, 10.000595, 9.998442 
1.4551236e+3, 2.4471383e+2, -531880.3, -653996.7, -69251.33, -0.03526529, 0.17525102, -500613.78, 41215.59, 0.0, 10.000532, 9.99894 
1.455132e+3, 2.547148e+2, -388671.2, -517882.25, -27743.688, -0.033211965, 0.34754655, -382966.06, 60858.76, 0.000000017460069, 10.000772, 9.999089 
1.455141e+3, 2.6471418e+2, -301949.63, -436484.34, 36478.664, -0.06150369, 0.38903472, -292695.16, 53136.06, 0.000002726617, 10.000747, 9.998983 
1.4551505e+3, 2.7471182e+2, -221008.5, -328080.56, 34099.043, -0.09956999, 0.22477692, -211071.3, 36778.707, 0.0000251694, 10.000563, 9.999134 
1.4551602e+3, 2.8471082e+2, -192959.78, -346748.25, -14138.668, -0.07709835, 0.2533972, -191670.73, -41809.305, 0.00012713004, 10.000427, 9.998405 
1.4551696e+3, 2.9471123e+2, -113292.58, -244085.13, 14466.332, -0.010311179, 0.42465973, -111711.64, -59845.96, 0.00045719108, 10.000236, 9.99853 
1.4551763e+3, 3.0471107e+2, -23544.648, 1359.8763, -44959.06, -0.13751681, 0.48354456, 35559.258, 35559.258, 0.0011417216, 9.999778, 10.000105 
1.4551823e+3, 3.1470922e+2, -125009.76, -50387.977, -37205.293, -0.2638114, 0.2488854, -35007.914, -35007.914, 0.0021348668, 9.999076, 10.00008 
1.465028e+3, 1.2471221e+2, -1701712.9, -1649032.1, 6345.0083, -0.0011345882, 0.15289237, -1648278.6, 69560.98, 0.012283002, 9.99978, 10.000556 
1.4650358e+3, 1.3471192e+2, -1814178.3, -1781611.1, -143585.28, 0.12372652, 0.17871517, -1653389.0, -33544.418, 0.00723705, 9.998939, 9.99937 
1.4650415e+3, 1.4471272e+2, -1691135.5, -1569180.1, -45207.31, -0.07585946, 0.2808542, -1554250.1, -32412.416, 0.0030819494, 9.998651, 10.000295 
1.4650497e+3, 1.5471272e+2, -1464842.3, -1394539.8, -35145.004, -0.030574461, 0.22157373, -1379984.0, 43853.89, 0.0007585455, 9.999473, 10.000424 
1.4650579e+3, 1.6471256e+2, -1342967.6, -1375873.1, -38766.7, 0.04316529, 0.20975278, -1317306.9, 8531.621, 0.00006440502, 10.000029, 9.99961 
1.4650661e+3, 1.7471224e+2, -1164722.9, -1226200.8, -38862.508, 0.1618315, 0.19108614, -1145912.1, 81927.67, 0.00000022299002, 10.000525, 9.999724 
1.4650741e+3, 1.8471171e+2, -1105971.3, -1184711.3, 55330.28, 0.15667175, 0.18961044, -1077433.6, 52411.285, 0.0, 10.000429, 9.999376 
1.4650819e+3, 1.9471098e+2, -1088638.9, -1111163.9, 64656.28, 0.0041096197, 0.15186177, -1034271.5, -2416.7507, 0.0, 9.999813, 9.999502 
1.4650898e+3, 2.0471105e+2, -1026294.8, -1082821.8, 20834.174, -0.06271817, 0.2350357, -1019445.75, -85588.63, 0.0, 9.999777, 9.999056 
1.465098e+3, 2.1471207e+2, -818575.7, -913780.9, -2860.772, -0.028858284, 0.40613422, -818489.8, 17360.76, 0.0, 10.000459, 9.999212 
1.4651065e+3, 2.2471057e+2, -721697.44, -933558.9, 59062.582, -0.033790432, 0.39189094, -706344.56, 31520.137, 0.0, 10.000965, 9.998157 
1.4651151e+3, 2.3470615e+2, -558082.2, -795302.8, 82923.88, -0.08124066, 0.112578906, -531969.4, 107933.805, 0.0, 10.001372, 9.998237 
1.4651237e+3, 2.4470438e+2, -459293.2, -652237.06, 42746.23, -0.092328176, 0.09917478, -450247.0, 91673.51, 0.0, 10.00119, 9.998629 
1.4651322e+3, 2.5470564e+2, -449681.38, -577582.75, -26030.785, -0.07344053, 0.3331666, -444586.47, -672.90204, 0.000000044837254, 10.0005, 9.998799 
1.4651413e+3, 2.647052e+2, -382325.72, -455966.94, 18548.29, -0.06450424, 0.39889604, -377917.75, -31999.125, 0.0000038968087, 10.000116, 9.999153 
1.4651513e+3, 2.7470288e+2, -284503.94, -340440.75, 35683.258, -0.05700286, 0.22265695, -267134.44, -19197.346, 0.000030512307, 10.000037, 9.99931 
1.4651605e+3, 2.847019e+2, -199126.25, -334289.7, 24438.94, -0.073477715, 0.23890284, -194843.16, -44895.914, 0.00014596309, 10.000321, 9.998541 
1.4651689e+3, 2.9470247e+2, 26085.07, -160323.8, -4039.1636, -0.13965124, 0.41207403, 26172.55, 78120.5, 0.0005129789, 10.001136, 9.998665 
1.4651759e+3, 3.0470136e+2, 184364.08, 57489.723, -106170.055, -0.23515856, 0.38943058, 244605.33, 244605.33, 0.0012767037, 10.001396, 9.999703 
1.465183e+3, 3.1469935e+2, 92850.484, -15639.679, -140681.53, -0.16266888, 0.18156956, 189382.8, 189382.8, 0.002388808, 10.000845, 9.9994755 
1.475028e+3, 1.247013e+2, -1657330.6, -1554924.8, -27836.61, -0.022581693, 0.30930087, -1547847.3, 170107.23, 0.012969953, 9.999786, 10.001196 
1.4750342e+3, 1.3470052e+2, -1693647.4, -1527614.1, -175869.45, 0.042310562, 0.11051121, -1416152.4, 203806.3, 0.0076708426, 9.998925, 10.001122 
1.475042e+3, 1.4470264e+2, -1622317.6, -1441900.6, -31130.895, 0.08382771, 0.21069372, -1436680.0, 85255.98, 0.0032881629, 9.99871, 10.001145 
1.4750487e+3, 1.5470493e+2, -1417578.6, -1286972.0, 1960.9664, -0.09130872, 0.30780607, -1286942.6, 136970.86, 0.00081847684, 9.999436, 10.00118 
1.4750567e+3, 1.6470547e+2, -1328527.5, -1355667.4, -29855.328, -0.0904561, 0.32174918, -1309302.9, 16604.654, 0.000071419374, 10.00006, 9.999736 
1.4750665e+3, 1.7470405e+2, -1158684.1, -1210716.5, -14570.919, 0.14061794, 0.17871527, -1154881.6, 73038.91, 0.0000002932695, 10.000512, 9.999837 
1.4750749e+3, 1.847033e+2, -1075015.1, -1129306.8, 24261.063, 0.16643225, 0.1320598, -1065753.6, 64173.195, 0.0, 10.000459, 9.999747 
1.4750813e+3, 1.9470334e+2, -1063725.4, -1057600.6, 47141.273, -0.04715721, 0.13355616, -1013422.4, 18503.44, 0.0, 9.999801, 9.99988 
1.4750892e+3, 2.0470326e+2, -1056903.4, -1139113.9, 34304.336, -0.108805336, 0.20150481, -1044469.56, -110541.15, 0.0, 9.999746, 9.998682 
1.4750989e+3, 2.1470308e+2, -865890.25, -986837.8, 28023.223, 0.012496976, 0.29312876, -859712.9, -23777.443, 0.0, 10.000356, 9.998757 
1.4751078e+3, 2.24702e+2, -686452.1, -835937.6, 66724.74, -0.006494462, 0.31027085, -661001.75, 76944.05, 0.0, 10.000854, 9.998884 
1.4751156e+3, 2.3469989e+2, -515709.6, -684811.25, 105739.02, -0.19169596, 0.18180867, -464873.63, 175086.4, 0.0, 10.001273, 9.999044 
1.4751236e+3, 2.446979e+2, -572311.8, -872098.94, 9421.231, -0.24103665, 0.17380163, -572016.0, -30035.715, 0.0, 10.001119, 9.997157 
1.4751324e+3, 2.5469595e+2, -572941.5, -814632.2, -43016.02, -0.12298711, 0.24385637, -565513.8, -121505.875, 0.000000082863835, 10.000416, 9.997215 
1.4751418e+3, 2.6469475e+2, -356775.97, -383349.4, 11828.625, -0.038282007, 0.29052335, -352273.56, -6252.195, 0.0000048986644, 10.000031, 9.999689 
1.4751521e+3, 2.746944e+2, -253546.22, -254144.8, 43740.273, 0.0091451695, 0.24852303, -210104.2, 37914.402, 0.00003489618, 9.999945, 9.999942 
1.4751612e+3, 2.846937e+2, -241251.3, -399900.4, 45614.566, -0.05906336, 0.27189726, -229071.36, -79046.7, 0.0001611451, 10.00022, 9.998142 
1.4751692e+3, 2.9469243e+2, -26988.953, -236897.75, 37846.89, -0.25288248, 0.3011002, -20373.584, 31667.52, 0.0005625148, 10.000993, 9.998206 
1.4751764e+3, 3.0469006e+2, 120539.63, -37964.203, -127803.016, -0.33388847, 0.20850338, 191668.81, 191668.81, 0.0014021061, 10.001242, 9.999117 
1.4751847e+3, 3.1468952e+2, 38062.938, -71269.57, -142093.81, -0.121681675, 0.19913286, 135643.38, 135643.38, 0.0026234915, 10.000615, 9.999193 
1.485028e+3, 1.2469169e+2, -1865713.9, -1649582.5, 144263.14, 0.075681634, 0.32325783, -1577398.3, 140650.92, 0.013700781, 9.99832, 10.001264 
1.4850321e+3, 1.3469154e+2, -1618250.8, -1417087.5, -63597.01, -0.06276833, 0.12637345, -1398668.1, 221377.72, 0.00813248, 9.999098, 10.001814 
1.4850418e+3, 1.4469373e+2, -1537621.8, -1393158.0, 42643.406, 0.17603128, 0.19423614, -1381509.6, 140512.48, 0.0035089266, 9.999281, 10.001194 
1.4850491e+3, 1.5469603e+2, -1419849.5, -1281182.1, 5407.0015, 0.016954053, 0.28610379, -1280971.6, 143028.27, 0.0008836724, 9.999399, 10.00123 
1.4850572e+3, 1.646968e+2, -1432824.4, -1381672.5, -42946.598, -0.013625313, 0.30890948, -1357263.0, -31270.855, 0.00007901186, 9.999262, 9.999932 
1.485066e+3, 1.7469572e+2, -1361791.9, -1282563.9, -39152.16, 0.122275256, 0.18136907, -1266480.8, -38478.844, 0.00000037325287, 9.999018, 10.000057 
1.4850746e+3, 1.8469527e+2, -1211904.5, -1173216.9, 22703.15, 0.14847043, 0.14202419, -1162734.3, -32729.098, 0.0, 9.999424, 9.999947 
1.4850822e+3, 1.946956e+2, -902851.6, -954764.94, 18993.36, 0.02803619, 0.15398677, -896644.75, 135355.69, 0.0, 10.000796, 10.000108 
1.4850904e+3, 2.0469545e+2, -822287.94, -1005654.1, 21949.24, -0.032300763, 0.19286272, -819697.2, 114305.71, 0.0, 10.001279, 9.998853 
1.485099e+3, 2.146947e+2, -787503.9, -927355.06, 43601.027, -0.01616146, 0.20945202, -775024.1, 60989.863, 0.0, 10.000803, 9.998944 
1.4851081e+3, 2.2469382e+2, -741067.0, -868901.2, 99940.125, -0.033381615, 0.24038398, -686352.6, 51670.305, 0.0, 10.000504, 9.998821 
1.4851174e+3, 2.3469293e+2, -633341.8, -747754.0, 59080.883, -0.104737386, 0.24019186, -608309.94, 31718.52, 0.0, 10.000494, 9.998983 
1.4851256e+3, 2.4469094e+2, -638721.56, -915930.56, -22076.19, -0.1386813, 0.2411221, -636974.44, -94925.52, 0.0, 10.000703, 9.9970665 
1.485133e+3, 2.5468767e+2, -471358.9, -772964.06, 18628.66, -0.12786163, 0.18556625, -470212.66, -26125.896, 0.00000011463164, 10.001139, 9.997159 
1.4851421e+3, 2.6468584e+2, -228094.39, -390100.34, 102058.875, -0.07091119, 0.20432809, -178799.64, 167306.52, 0.000005857849, 10.001219, 9.999069 
1.4851528e+3, 2.7468583e+2, -142091.11, -273309.7, 21825.918, 0.035588983, 0.25929648, -138555.98, 109548.03, 0.0000392753, 10.00103, 9.999288 
1.485162e+3, 2.8468505e+2, -168183.25, -316365.97, 21657.19, -0.0058996384, 0.2940121, -165082.88, -14973.146, 0.0001765315, 10.000526, 9.998563 
1.4851697e+3, 2.9468328e+2, -192893.83, -268548.06, 60331.758, -0.2191332, 0.2339655, -159511.31, -107385.99, 0.00061170605, 9.999639, 9.998645 
1.4851776e+3, 3.0468023e+2, -76274.12, -235402.94, -26386.996, -0.2808725, 0.0941404, -72012.7, -72012.7, 0.0015158497, 10.000312, 9.998222 
1.4851876e+3, 3.1468034e+2, 311242.06, -215.41309, -106007.4, 0.003018656, 0.24034357, 343898.6, 343898.6, 0.0028185756, 10.002746, 9.998662 
1.4950268e+3, 1.246834e+2, -1866827.0, -1671824.0, 22101.217, 0.08114586, 0.19313018, -1669350.5, 48772.816, 0.014485426, 9.998401, 10.001066 
1.4950295e+3, 1.3468543e+2, -1653395.8, -1476928.8, -33562.285, -0.2551489, 0.25206527, -1470761.0, 149340.67, 0.008627366, 9.999053, 10.001416 
1.495041e+3, 1.4468604e+2, -1582674.6, -1504458.0, 31857.81, 0.13210161, 0.22423285, -1493124.5, 28970.922, 0.0037456865, 9.999337, 10.000411 
1.4950506e+3, 1.5468615e+2, -1470460.4, -1386714.3, 16215.768, 0.21002401, 0.1668316, -1383684.1, 40411.82, 0.0009542572, 9.9994, 10.000507 
1.4950585e+3, 1.646867e+2, -1399646.5, -1332305.3, -63095.15, 0.1860049, 0.18948387, -1294458.6, 31632.012, 0.00008722728, 9.999341, 10.000235 
1.4950646e+3, 1.746873e+2, -1343672.9, -1241731.9, -44930.668, 0.053151965, 0.20232965, -1224755.6, 3327.774, 0.0000004647829, 9.999008, 10.00034 
1.4950731e+3, 1.8468767e+2, -1201167.8, -1162839.5, 61633.145, 0.035549175, 0.22763143, -1117459.8, 12619.52, 0.0, 9.999466, 10.000001 
1.4950845e+3, 1.9468787e+2, -906853.94, -954483.6, 75414.625, 0.15232468, 0.22007546, -851583.3, 180494.64, 0.0, 10.000756, 10.000131 
1.4950931e+3, 2.0468761e+2, -778780.2, -902402.0, -2517.7637, 0.09173437, 0.21332677, -778728.94, 155351.28, 0.0, 10.001217, 9.999592 
1.4950986e+3, 2.1468683e+2, -746819.9, -820774.44, 30896.852, -0.16619827, 0.1498722, -735610.75, 100475.99, 0.0, 10.00071, 9.99972 
1.4951074e+3, 2.2468606e+2, -811762.4, -1002046.25, 89047.49, -0.17367013, 0.19120263, -776591.44, -38495.582, 0.0, 10.000434, 9.997947 
1.49512e+3, 2.3468524e+2, -713195.4, -891477.75, 64754.996, 0.10635897, 0.2922524, -692157.75, -52049.52, 0.0, 10.000395, 9.998046 
1.4951292e+3, 2.4468349e+2, -568283.06, -743804.44, -12050.401, 0.1287757, 0.30557382, -567459.56, -25333.256, 0.0, 10.00059, 9.9983015 
1.4951341e+3, 2.5468054e+2, -392266.56, -588229.4, 43091.17, -0.14922188, 0.15083797, -383209.63, 60942.12, 0.00000015644366, 10.001051, 9.998469 
1.495142e+3, 2.646784e+2, -365843.53, -658797.94, 87857.67, -0.22057912, 0.1483273, -341515.2, 4659.1396, 0.000006865855, 10.001141, 9.997264 
1.4951532e+3, 2.7467704e+2, -289428.56, -560204.5, 24412.01, -0.041153707, 0.26363924, -287245.28, -39051.84, 0.00004412312, 10.000947, 9.997358 
1.4951628e+3, 2.8467596e+2, -100533.94, -156582.38, -15342.674, 0.0032425413, 0.31461945, -96608.91, 53593.64, 0.0001927378, 10.00044, 9.999702 
1.4951706e+3, 2.9467505e+2, -117046.0, -91858.93, 39880.957, -0.12064444, 0.20733856, -62630.367, -10428.61, 0.00065815035, 9.999555, 9.999899 
1.4951792e+3, 3.046719e+2, -186339.4, -427179.06, 55344.97, -0.16753688, 0.056757376, -174229.98, -174229.98, 0.0016072446, 10.000169, 9.996966 
1.4951912e+3, 3.1467158e+2, 215108.28, -139340.5, 11128.702, 0.065075025, 0.2944161, 215457.34, 215457.34, 0.0029540178, 10.002499, 9.997817 
1.5050256e+3, 1.2467551e+2, -1898091.4, -1740051.4, -3631.886, 0.13928857, 0.094829924, -1739967.9, -21773.447, 0.015336173, 9.998446, 10.000555 
1.5050289e+3, 1.3467759e+2, -1643639.3, -1569202.6, -29209.104, -0.22983287, 0.23121059, -1559109.5, 61065.777, 0.0091627855, 9.9995365, 10.000548 
1.5050402e+3, 1.4467745e+2, -1564551.5, -1560992.4, 9145.43, 0.11487154, 0.20655012, -1553455.0, -31276.068, 0.0040015904, 9.9997635, 9.9998045 
1.5050504e+3, 1.5467718e+2, -1463845.8, -1443153.6, -10546.762, 0.22478002, 0.16680205, -1438725.5, -14540.184, 0.001031135, 9.999701, 9.999972 
1.5050586e+3, 1.6467759e+2, -1287586.3, -1232582.8, -53103.344, 0.22321755, 0.18233976, -1200282.3, 125899.39, 0.000096309515, 9.999906, 10.000653 
1.5050647e+3, 1.7467827e+2, -1072650.5, -1060463.1, -39646.1, 0.09184174, 0.15711977, -1026445.1, 201725.53, 0.000000575819, 10.000635, 10.000808 
1.5050732e+3, 1.8467894e+2, -1061794.9, -1079131.3, 86235.08, 0.056759242, 0.18101133, -983793.44, 146369.11, 0.0, 10.000368, 10.000128 
1.5050842e+3, 1.9467975e+2, -1130234.8, -1043859.75, 91480.42, 0.12644006, 0.22179572, -985884.9, 46270.95, 0.0, 9.999158, 10.000276 
1.5050928e+3, 2.0467967e+2, -1103024.6, -1065265.6, 14673.069, 0.06045318, 0.22745611, -1060234.1, -126076.98, 0.0, 9.999029, 9.999531 
1.505099e+3, 2.1467856e+2, -821863.6, -866265.2, -29686.324, -0.16617815, 0.13931455, -806994.9, 29172.965, 0.0, 10.000231, 9.999645 
1.505108e+3, 2.2467777e+2, -748896.94, -942011.1, 33032.574, -0.16117772, 0.17265612, -743402.94, -5225.0356, 0.0, 10.000756, 9.9981985 
1.5051204e+3, 2.3467737e+2, -669187.44, -841438.0, 78181.13, 0.10103096, 0.2889233, -638994.8, 1192.3688, 0.0, 10.000577, 9.998302 
1.5051298e+3, 2.4467604e+2, -505490.7, -674854.94, 57910.363, 0.12793267, 0.31750506, -487582.97, 54617.508, 0.0, 10.000872, 9.998626 
1.5051357e+3, 2.5467375e+2, -263932.78, -489540.9, 21146.771, -0.1260863, 0.19182014, -261967.75, 182250.19, 0.00000020302433, 10.001783, 9.998783 
1.5051436e+3, 2.646714e+2, -247541.66, -649505.44, 57798.914, -0.21206751, 0.17865495, -239395.75, 106845.91, 0.0000077496, 10.002162, 9.996834 
1.505154e+3, 2.7466905e+2, -170158.11, -553256.0, 85308.71, -0.10066026, 0.23896912, -152020.22, 96251.89, 0.0000484326, 10.001977, 9.996915 
1.5051638e+3, 2.8466755e+2, 90583.53, -81451.14, 60589.3, -0.019148178, 0.27959064, 109780.484, 260066.63, 0.00020691432, 10.001833, 9.999544 
1.5051726e+3, 2.9466707e+2, 200626.63, 48820.58, -12938.3, 0.013947331, 0.22983335, 201721.45, 254003.08, 0.0006962151, 10.001812, 9.999768 
1.5051813e+3, 3.0466452e+2, 7872.4385, -313685.5, 60522.074, -0.034228932, 0.1354048, 18886.363, 18886.363, 0.001668208, 10.001385, 9.997182 
1.5051924e+3, 3.1466454e+2, -53869.832, -201273.66, 109620.766, 0.050129768, 0.3904416, 4521.7246, 4521.7246, 0.0030196507, 10.000321, 9.998466 
1.5150237e+3, 1.2466932e+2, -1942939.9, -1859613.0, -34607.836, 0.049719755, 0.118960984, -1847114.3, -128864.484, 0.016257107, 9.998544, 9.999699 
1.5150303e+3, 1.3466826e+2, -1748476.8, -1774284.1, 16621.72, -0.065286204, 0.069731005, -1740338.0, -120074.24, 0.009740974, 9.999496, 9.999153 
1.5150394e+3, 1.4466833e+2, -1591580.6, -1638631.5, -7071.822, 0.027594805, 0.1702359, -1590540.6, -68272.16, 0.0042781597, 9.999842, 9.99924 
1.5150478e+3, 1.5466931e+2, -1496816.5, -1502855.3, -6641.198, -0.003615136, 0.29873496, -1492540.5, -68273.87, 0.0011151112, 9.999672, 9.99957 
1.5150568e+3, 1.6466965e+2, -1236439.0, -1143931.0, -37487.52, 0.03121071, 0.29878628, -1130647.3, 195616.0, 0.000106548556, 9.999966, 10.001238 
1.5150663e+3, 1.7466879e+2, -1027402.1, -967140.6, -6675.0366, 0.16817346, 0.05290958, -966410.06, 261852.14, 0.0000007145684, 10.000634, 10.00145 
1.5150745e+3, 1.8466926e+2, -1041801.56, -1047415.3, 34631.258, 0.13727327, 0.013833345, -1009863.6, 120389.484, 0.0, 10.000404, 10.000333 
1.5150812e+3, 1.9467136e+2, -1120286.1, -1018041.5, 50426.703, -0.10245716, 0.16469212, -997356.1, 34877.324, 0.0, 9.999139, 10.000462 
1.5150896e+3, 2.0467171e+2, -1168440.6, -1196093.3, 45541.0, -0.18386279, 0.24644445, -1134673.4, -200440.13, 0.0, 9.9990015, 9.99865 
1.5151002e+3, 2.1466997e+2, -899542.0, -1004400.75, 20669.78, -0.07893588, 0.18603608, -895614.7, -59358.63, 0.0, 10.00013, 9.998747 
1.5151098e+3, 2.2466911e+2, -675843.25, -759290.0, 20744.67, -0.06927124, 0.19628194, -670970.7, 67296.57, 0.0, 10.000621, 9.99952 
1.5151185e+3, 2.346693e+2, -586522.6, -646977.0, 79613.13, -0.16951911, 0.23295511, -531591.5, 108673.64, 0.0, 10.000481, 9.999684 
1.5151276e+3, 2.4466868e+2, -561151.44, -771897.94, 82462.836, -0.19296452, 0.28858972, -532720.2, 9550.695, 0.0, 10.000783, 9.998009 
1.5151377e+3, 2.5466713e+2, -324925.88, -595519.5, 62809.223, -0.12036402, 0.3099423, -311057.6, 133227.92, 0.00000026346208, 10.001688, 9.998107 
1.5151468e+3, 2.6466483e+2, -206345.8, -533075.9, 47108.676, -0.12273119, 0.29504946, -199689.19, 146619.72, 0.0000083363275, 10.00203, 9.997695 
1.515155e+3, 2.7466172e+2, -125265.16, -426611.0, 88545.414, -0.21077733, 0.18250327, -101173.61, 147168.02, 0.000050839903, 10.0018425, 9.997844 
1.5151644e+3, 2.8465977e+2, -28619.514, -307223.38, 52600.676, -0.1446448, 0.20172332, -19019.266, 131342.0, 0.00021853887, 10.001724, 9.998051 
1.5151754e+3, 2.946592e+2, 77273.914, -188481.55, -110.74364, 0.10865036, 0.30140567, 77273.96, 129639.73, 0.0007285583, 10.001719, 9.998185 
1.5151836e+3, 3.046579e+2, 92435.63, -87220.66, 15705.742, 0.041588426, 0.33210078, 93798.305, 93798.305, 0.0017078614, 10.0012, 9.998811 
1.5151906e+3, 3.1465864e+2, 50659.406, 95038.42, 92608.33, -0.17136425, 0.47991788, 168078.52, 168078.52, 0.0030333768, 10.0000305, 10.00062 
1.525023e+3, 1.24661e+2, -1668489.1, -1714881.5, -159370.72, 0.037100732, 0.15158686, -1530635.4, 187698.97, 0.017244658, 10.000395, 9.999804 
1.5250313e+3, 1.346598e+2, -1669891.5, -1718618.3, -42226.203, 0.077005014, 0.0654879, -1645504.3, -25156.078, 0.010359608, 9.99994, 9.999326 
1.525039e+3, 1.4466012e+2, -1656726.9, -1647052.1, 35696.543, 0.021302188, 0.17355518, -1615866.6, -93517.695, 0.0045741852, 9.999313, 9.999432 
1.525047e+3, 1.5466106e+2, -1550163.9, -1508820.3, 67139.06, -0.037288453, 0.27469414, -1459242.8, -34896.527, 0.0012060112, 9.999206, 9.999764 
1.5250559e+3, 1.6466141e+2, -1365542.8, -1224909.1, 73192.586, -0.0040454087, 0.2785243, -1193729.0, 132613.86, 0.000118081814, 9.999196, 10.001041 
1.5250662e+3, 1.7466103e+2, -1182305.6, -1063746.0, 20998.162, 0.14922932, 0.10515693, -1060136.9, 168202.84, 0.0000008766353, 9.999689, 10.001237 
1.5250745e+3, 1.846614e+2, -1089005.0, -1066871.6, -956.40247, 0.11623429, 0.06724865, -1066830.4, 63501.707, 0.0, 10.000067, 10.000363 
1.5250804e+3, 1.9466272e+2, -920742.75, -926126.5, -13632.867, -0.16494878, 0.13911164, -909538.56, 122779.9, 0.0, 10.000505, 10.000446 
1.5250888e+3, 2.0466292e+2, -938391.5, -1072113.6, 54536.83, -0.2328686, 0.20221545, -918970.06, 15349.134, 0.0, 10.000519, 9.998764 
1.5251005e+3, 2.1466191e+2, -892012.9, -987423.25, 90459.31, -0.062991165, 0.20027183, -837450.4, -1114.6335, 0.0, 10.000117, 9.998865 
1.5251105e+3, 2.2466134e+2, -743086.8, -780357.4, 92463.96, -0.037665945, 0.22583589, -667398.94, 70945.66, 0.0, 10.000108, 9.99962 
1.5251186e+3, 2.346613e+2, -570903.06, -627410.75, 42255.176, -0.1853615, 0.23038742, -548326.0, 92018.13, 0.0, 10.000537, 9.999787 
1.525128e+3, 2.4466072e+2, -529114.4, -727971.5, 56550.56, -0.22270457, 0.27371675, -514157.6, 28191.87, 0.0, 10.000889, 9.998255 
1.5251389e+3, 2.5465956e+2, -378311.1, -592795.94, 90381.07, -0.13895883, 0.30873773, -345304.9, 99056.15, 0.0000003530132, 10.001199, 9.99836 
1.5251485e+3, 2.6465765e+2, -295341.53, -550744.7, 73006.875, -0.12917835, 0.3096806, -275945.53, 70434.6, 0.00000861748, 10.001307, 9.997924 
1.5251565e+3, 2.7465492e+2, -207179.17, -439709.94, 46299.086, -0.20760168, 0.2166551, -198299.66, 50107.76, 0.000051572304, 10.001167, 9.998076 
1.525166e+3, 2.846528e+2, -129491.625, -404462.72, 48460.37, -0.12645556, 0.22155131, -121201.03, 29228.488, 0.00023012148, 10.001244, 9.997617 
1.5251774e+3, 2.9465133e+2, 33802.156, -264668.1, 56401.313, 0.13249208, 0.28077707, 44104.586, 96549.73, 0.0007602401, 10.001646, 9.997709 
1.5251848e+3, 3.0465004e+2, 142571.2, -53250.805, 35521.004, 0.035475787, 0.33346018, 148815.4, 148815.4, 0.0017408301, 10.001485, 9.998915 
1.5251905e+3, 3.1465027e+2, 132025.64, 145310.3, -35983.344, -0.22350278, 0.4200223, 175259.25, 175259.25, 0.003031587, 10.000503, 10.000754 
1.5350235e+3, 1.2465041e+2, -1611283.5, -1604530.5, -106554.9, 0.0020078064, 0.17220595, -1501298.6, 217150.8, 0.018294634, 10.000423, 10.000551 
1.5350318e+3, 1.3465251e+2, -1549714.3, -1456035.0, -63450.105, 0.12173879, 0.24007565, -1424008.5, 196416.86, 0.011016667, 9.999898, 10.001152 
1.5350385e+3, 1.4465322e+2, -1578972.9, -1511157.5, 16294.553, 0.021280915, 0.24802609, -1507445.5, 14970.954, 0.0048880493, 9.999408, 10.000331 
1.5350473e+3, 1.5465267e+2, -1495064.8, -1383214.9, 67628.26, 0.052246936, 0.11716786, -1351383.4, 73037.9, 0.0013030368, 9.99917, 10.000642 
1.535056e+3, 1.646532e+2, -1432173.1, -1381426.6, 79969.07, 0.041313596, 0.14692955, -1322902.0, 3515.3752, 0.00013086536, 9.999258, 9.999945 
1.5350643e+3, 1.7465511e+2, -1265096.9, -1232733.6, 46311.773, -0.017539259, 0.3168108, -1199857.9, 28544.174, 0.0000010420176, 9.999679, 10.000081 
1.5350729e+3, 1.8465544e+2, -1097180.1, -1095144.6, 7803.6064, -0.07638004, 0.34574282, -1088292.6, 42106.105, 0.0, 10.000109, 10.000153 
1.5350814e+3, 1.9465391e+2, -932887.56, -947237.25, 9245.782, -0.13013013, 0.1484537, -928359.25, 104050.766, 0.0, 10.000487, 10.000311 
1.5350902e+3, 2.0465347e+2, -871479.0, -920266.94, 33683.72, -0.16496521, 0.102304384, -854283.8, 80129.79, 0.0, 10.000463, 9.999834 
1.5350996e+3, 2.1465437e+2, -828362.9, -834126.4, 81475.055, -0.1771696, 0.18105659, -749718.6, 86688.67, 0.0, 10.000028, 9.99996 
1.5351097e+3, 2.2465439e+2, -834982.6, -946922.2, 99832.66, -0.13030788, 0.26168165, -776500.8, -38090.49, 0.0, 9.999996, 9.998534 
1.535121e+3, 2.3465334e+2, -660622.7, -797370.8, 66768.445, -0.0116182575, 0.2770218, -633429.8, 6994.7246, 0.0, 10.00046, 9.99866 
1.5351309e+3, 2.4465218e+2, -478096.1, -587756.1, 62035.223, -0.04356449, 0.27166688, -450133.0, 92303.46, 0.0, 10.00075, 9.99928 
1.5351392e+3, 2.5465104e+2, -318870.9, -441057.4, 111089.805, -0.24263684, 0.19488122, -253183.52, 191261.17, 0.0000004707298, 10.001085, 9.999453 
1.5351482e+3, 2.6464993e+2, -334541.78, -612604.3, 59627.797, -0.2948883, 0.23646891, -322294.6, 24160.693, 0.000008627056, 10.001215, 9.997549 
1.5351582e+3, 2.746488e+2, -245501.42, -505080.53, 49026.555, -0.16761295, 0.34327126, -236550.45, 11919.041, 0.00005249674, 10.001103, 9.997663 
1.5351681e+3, 2.846465e+2, -112433.625, -346543.7, 56665.92, -0.056378625, 0.3378283, -99439.02, 51053.18, 0.00024287593, 10.0011425, 9.998067 
1.535178e+3, 2.9464322e+2, 54277.156, -198822.53, 84397.81, 0.01905809, 0.16319118, 79838.63, 132360.67, 0.0007925894, 10.001545, 9.998209 
1.5351848e+3, 3.0464095e+2, 26359.57, -255028.53, -8086.431, -0.11773966, 0.15663356, 26591.764, 26591.764, 0.0017781113, 10.001328, 9.997597 
1.535191e+3, 3.1463966e+2, -24545.549, -106196.4, -40235.273, -0.25124198, 0.22337176, -8050.885, -8050.885, 0.003049598, 10.000218, 9.999144 
1.545024e+3, 1.24642335e+2, -1851473.4, -1704487.8, 121579.44, 0.11308964, 0.22098012, -1635914.5, 82618.72, 0.019406972, 9.9987135, 10.000674 
1.5450309e+3, 1.3464473e+2, -1725679.8, -1509646.1, -39100.34, 0.10763411, 0.29398933, -1502787.0, 117718.14, 0.0117135905, 9.99854, 10.00144 
1.5450378e+3, 1.4464493e+2, -1618456.5, -1477572.1, 32992.742, 0.029417643, 0.21006241, -1470228.5, 52270.797, 0.0052204016, 9.998917, 10.000794 
1.5450475e+3, 1.5464498e+2, -1244444.0, -1219190.3, 36940.527, 0.09959485, 0.09839455, -1192778.1, 231717.13, 0.0014059248, 10.0006895, 10.001045 
1.5450564e+3, 1.646457e+2, -1217023.1, -1313153.3, 31006.291, 0.08768468, 0.14156108, -1207889.9, 118599.39, 0.00014487762, 10.000894, 9.999616 
1.5450639e+3, 1.7464735e+2, -1314750.3, -1300018.5, 39055.273, -0.021554776, 0.3171724, -1267640.5, -39160.855, 0.000001197513, 9.999505, 9.999704 
1.5450725e+3, 1.8464753e+2, -1242623.6, -1154591.9, 97990.2, -0.07364335, 0.3482268, -1091185.8, 39293.125, 0.0, 9.999074, 10.00024 
1.5450822e+3, 1.9464618e+2, -999994.06, -962728.7, 108195.41, -0.075777315, 0.15624608, -871573.25, 160914.31, 0.0, 9.999968, 10.00045 
1.5450911e+3, 2.0464589e+2, -885045.5, -946164.1, 80371.16, -0.11389939, 0.12476082, -829620.0, 104869.71, 0.0, 10.000468, 9.999653 
1.5450996e+3, 2.1464686e+2, -770935.3, -829613.9, 15842.517, -0.19228777, 0.23512973, -766931.25, 69552.29, 0.0, 10.000535, 9.999747 
1.5451097e+3, 2.2464676e+2, -745148.4, -888030.0, 56200.133, -0.15115896, 0.30918476, -725692.3, 12795.251, 0.0, 10.000557, 9.998665 
1.5451218e+3, 2.3464541e+2, -639243.7, -770541.4, 97456.21, 0.014582682, 0.28354758, -587387.3, 53115.563, 0.0, 10.000552, 9.998797 
1.545132e+3, 2.4464431e+2, -478251.03, -568712.6, 124943.56, -0.0073463, 0.26775393, -390603.25, 151910.8, 0.000000000009610117, 10.000653, 9.999465 
1.54514e+3, 2.546436e+2, -347567.03, -434886.44, 94623.77, -0.24604048, 0.2160245, -287016.22, 157503.3, 0.0000005675007, 10.0008, 9.999637 
1.5451495e+3, 2.6464278e+2, -291782.06, -530535.6, 59936.363, -0.28571382, 0.25264326, -277580.47, 68946.36, 0.000008574752, 10.001257, 9.998087 
1.5451604e+3, 2.7464175e+2, -58339.105, -357318.56, 100226.164, -0.104458466, 0.3189582, -27849.773, 220687.72, 0.000054083346, 10.002142, 9.998179 
1.5451704e+3, 2.8463963e+2, 46221.383, -332487.34, 109429.09, -0.007881476, 0.32588226, 75567.27, 226126.78, 0.00025576144, 10.002514, 9.997493 
1.5451792e+3, 2.9463643e+2, 113569.14, -242661.97, 36315.54, -0.041676205, 0.22586969, 117233.586, 169825.92, 0.0008265112, 10.002271, 9.997553 
1.5451862e+3, 3.04634e+2, 110453.98, -253908.9, -69428.766, -0.1484252, 0.25204253, 123235.18, 123235.18, 0.0018294866, 10.00206, 9.99726 
1.5451935e+3, 3.1463143e+2, 148389.25, -115406.76, -59054.855, -0.08678141, 0.23394677, 161006.16, 161006.16, 0.0031096644, 10.001767, 9.998354 
1.5550253e+3, 1.2463697e+2, -1871135.1, -1758867.4, 126007.164, 0.32611305, 0.32272992, -1677056.3, 41527.496, 0.020587768, 9.9987755, 10.000268 
1.5550281e+3, 1.346367e+2, -1814893.9, -1676317.3, -51701.59, -0.048421822, 0.25177804, -1659153.8, -38568.51, 0.012455585, 9.998483, 10.00031 
1.5550362e+3, 1.4463532e+2, -1606501.4, -1467861.5, 84143.05, -0.040989704, 0.061010882, -1428161.8, 94435.26, 0.0055746003, 9.998964, 10.000845 
1.5550478e+3, 1.546382e+2, -1247250.8, -1222087.1, 112916.945, 0.031747524, 0.23017357, -1121053.1, 303512.78, 0.001515748, 10.000682, 10.001026 
1.5550572e+3, 1.6463913e+2, -1179414.1, -1252928.9, -26529.28, 0.05614406, 0.28004456, -1170840.4, 155715.94, 0.00016035176, 10.000959, 10.000004 
1.5550646e+3, 1.7463785e+2, -1284037.4, -1235684.5, -10467.024, 0.08462552, 0.12161421, -1233515.9, -4944.4023, 0.0000013687348, 9.999504, 10.000148 
1.555073e+3, 1.8463789e+2, -1209515.5, -1093632.6, 120572.914, 0.05352187, 0.09348245, -1017801.75, 112768.92, 0.0, 9.999107, 10.000642 
1.5550822e+3, 1.9463955e+2, -979098.2, -911381.2, 148050.98, -0.064797334, 0.16460274, -793366.44, 239184.33, 0.0, 9.999937, 10.000815 
1.5550914e+3, 2.0464008e+2, -991292.5, -1160174.0, 75746.47, -0.14515308, 0.26855856, -962297.06, -27749.105, 0.0, 10.000429, 9.998209 
1.5551005e+3, 2.1463937e+2, -883139.9, -1049839.4, 25268.605, -0.16873807, 0.35626188, -879393.8, -42829.195, 0.0, 10.00047, 9.998271 
1.5551102e+3, 2.2463846e+2, -674063.25, -719569.3, 49727.805, -0.1761451, 0.36956358, -642130.3, 96445.586, 0.0, 10.0004635, 9.999868 
1.5551206e+3, 2.3463745e+2, -559474.5, -588250.44, 105447.445, -0.1630695, 0.24676768, -467437.94, 173142.2, 0.0, 10.000476, 10.000087 
1.555131e+3, 2.44637e+2, -537670.7, -666129.9, 124032.97, -0.17804521, 0.25882202, -462223.47, 80359.98, 0.0, 10.00054, 9.998853 
1.5551412e+3, 2.5463718e+2, -406351.7, -536843.8, 107965.12, -0.21510397, 0.3648709, -345448.97, 99136.9, 0.0000005355393, 10.000712, 9.998981 
1.5551518e+3, 2.6463613e+2, -216522.78, -348320.4, 88607.22, -0.1889699, 0.34956685, -171995.63, 174599.66, 0.000008556659, 10.001144, 9.999392 
1.555163e+3, 2.7463382e+2, 19645.148, -167502.61, 144100.64, -0.078561, 0.1451873, 97888.23, 346500.06, 0.00005618316, 10.002024, 9.999537 
1.5551728e+3, 2.8463203e+2, -84903.66, -575845.8, 95833.04, -0.046122964, 0.19310178, -66859.99, 83771.99, 0.0002701419, 10.002383, 9.995888 
1.5551808e+3, 2.9463083e+2, -13551.681, -487647.66, 41817.33, -0.1216628, 0.45975617, -9891.469, 42764.848, 0.0008663048, 10.002186, 9.9959135 
1.5551883e+3, 3.0462897e+2, 113877.51, -202119.23, -80784.35, -0.15252042, 0.6052336, 133332.22, 133332.22, 0.0019044692, 10.001897, 9.997684 
1.5551975e+3, 3.146253e+2, 109512.62, -126928.0, -36340.332, 0.11692346, 0.4259565, 114971.98, 114971.98, 0.003225979, 10.001509, 9.99838 
1.5650254e+3, 1.2462978e+2, -1911718.8, -1738217.1, 83686.41, 0.49205425, 0.31314003, -1704431.3, 14224.245, 0.021849003, 9.998311, 10.000642 
1.5650265e+3, 1.3462995e+2, -1638782.6, -1592699.5, -1114.9363, -0.097294316, 0.2841193, -1592672.5, 27980.398, 0.013250772, 9.999662, 10.000336 
1.565036e+3, 1.4462863e+2, -1508616.5, -1450388.4, 171655.2, 0.006909266, 0.11056048, -1305395.8, 217268.95, 0.0059556314, 9.999789, 10.000563 
1.5650474e+3, 1.546309e+2, -1579384.3, -1420294.5, 156726.53, 0.037236992, 0.2526918, -1324082.1, 100559.16, 0.0016345053, 9.998571, 10.000678 
1.5650566e+3, 1.6463166e+2, -1502788.9, -1375016.8, 16807.908, 0.029247338, 0.28809252, -1372842.8, -46209.473, 0.00017771397, 9.998602, 10.000303 
1.5650643e+3, 1.7463076e+2, -1130540.0, -1123470.9, 14509.789, 0.06298758, 0.13668813, -1112071.4, 116570.94, 0.0000016137079, 10.000395, 10.000489 
1.5650728e+3, 1.84631e+2, -963811.06, -1019307.75, 121105.91, 0.041128837, 0.12800524, -867315.25, 263324.25, 0.0, 10.000981, 10.00025 
1.5650822e+3, 1.9463262e+2, -955748.0, -950578.06, 75942.64, -0.0868058, 0.23759411, -877176.44, 155446.25, 0.0, 10.000302, 10.000376 
1.5650918e+3, 2.0463283e+2, -1025323.7, -1186189.4, 45561.742, -0.1468702, 0.33626628, -1013315.7, -78692.01, 0.0, 10.000239, 9.998116 
1.5651017e+3, 2.146315e+2, -801401.2, -1016071.9, 86009.43, -0.12752163, 0.37062162, -771192.0, 65452.207, 0.0, 10.001065, 9.998207 
1.5651113e+3, 2.2463025e+2, -560102.06, -672209.6, 107070.28, -0.14539598, 0.35384676, -495300.28, 243357.45, 0.0, 10.001279, 9.999798 
1.5651207e+3, 2.346291e+2, -522062.53, -578143.7, 49734.766, -0.21337897, 0.22262779, -493008.28, 147654.52, 0.0, 10.000759, 10.000018 
1.5651312e+3, 2.4462877e+2, -507529.06, -637284.2, 75597.805, -0.20944512, 0.2461889, -472786.72, 69878.086, 0.0, 10.000682, 9.998981 
1.5651429e+3, 2.546295e+2, -327109.44, -480849.3, 102555.46, -0.13322699, 0.3928635, -275813.03, 168849.66, 0.00000039469393, 10.001182, 9.999136 
1.5651539e+3, 2.6462877e+2, -201819.05, -333762.44, 75217.9, -0.08882583, 0.39574742, -167740.78, 178929.72, 0.000008163994, 10.001215, 9.999459 
1.5651642e+3, 2.7462637e+2, -172106.66, -253530.58, 19521.45, -0.081401676, 0.18187809, -167668.3, 81021.11, 0.00005803459, 10.000677, 9.999594 
1.565174e+3, 2.846249e+2, -200039.75, -546620.0, 44834.434, -0.080723025, 0.226868, -194333.81, -43628.04, 0.00028587523, 10.00123, 9.996648 
1.5651837e+3, 2.9462457e+2, 179360.05, -305117.56, 145080.11, -0.105565876, 0.50465614, 219482.48, 272201.16, 0.0009117836, 10.003133, 9.996713 
1.5651914e+3, 3.046228e+2, 390434.2, -119791.03, 56615.86, -0.12685081, 0.63607454, 396640.94, 396640.94, 0.0020009489, 10.003999, 9.997245 
1.5651996e+3, 3.1461942e+2, 350326.3, -107479.43, 2449.9314, 0.07463578, 0.538612, 350339.4, 350339.4, 0.0033957218, 10.0035515, 9.997547 
1.5750234e+3, 1.2462137e+2, -1822907.8, -1564856.5, 6037.353, 0.41702095, 0.24675106, -1564715.4, 154027.03, 0.023204513, 9.998336, 10.001845 
1.575026e+3, 1.3462484e+2, -1559881.3, -1418546.4, 57276.684, -0.11891883, 0.4212219, -1398249.5, 222454.94, 0.014108494, 9.999633, 10.001554 
1.5750368e+3, 1.4462522e+2, -1540856.8, -1542532.0, 120413.07, 0.1017032, 0.38804588, -1421278.4, 101420.9, 0.0063687824, 9.999882, 9.999894 
1.5750463e+3, 1.546232e+2, -1627978.3, -1522020.9, 114112.6, 0.061860103, 0.17479333, -1449188.5, -24467.809, 0.00176415, 9.998575, 9.999981 
1.5750544e+3, 1.6462341e+2, -1475806.0, -1331962.4, 70658.55, -0.06439286, 0.17571388, -1303060.8, 23658.38, 0.00019721544, 9.998652, 10.000576 
1.5750627e+3, 1.7462616e+2, -1117177.9, -1088817.5, 88750.875, -0.14381309, 0.36202502, -1013121.06, 215570.38, 0.0000019795527, 10.000369, 10.000737 
1.575072e+3, 1.8462692e+2, -1039160.4, -1186785.8, 92152.79, -0.17711286, 0.45063898, -994903.4, 135781.66, 0.0, 10.001021, 9.9990835 
1.5750813e+3, 1.9462548e+2, -1044552.8, -1129602.3, 56141.88, -0.19978471, 0.37765774, -1016648.44, 16053.778, 0.0, 10.000279, 9.99916 
1.5750916e+3, 2.0462428e+2, -947049.0, -1017367.9, 68919.27, -0.19136314, 0.34049544, -904838.9, 29876.023, 0.0, 10.000206, 9.999291 
1.575103e+3, 2.1462335e+2, -727871.25, -842199.06, 123128.27, -0.12734754, 0.28897378, -649284.3, 187437.69, 0.0, 10.000975, 9.999444 
1.575113e+3, 2.2462204e+2, -662975.9, -863082.6, 84133.77, -0.12725316, 0.26355055, -632303.7, 106430.02, 0.0, 10.001179, 9.998535 
1.5751217e+3, 2.3462029e+2, -633964.44, -785262.6, 37529.203, -0.20327389, 0.20789431, -625166.94, 15584.022, 0.0, 10.000653, 9.998647 
1.5751323e+3, 2.4461973e+2, -471051.13, -532914.9, 87591.914, -0.18562922, 0.24023587, -409089.94, 133667.02, 0.0, 10.000555, 9.99976 
1.575145e+3, 2.546206e+2, -280952.13, -365707.75, 128081.0, -0.053361665, 0.3156502, -188420.27, 256328.98, 0.00000029448665, 10.001094, 9.999969 
1.5751557e+3, 2.6462057e+2, -294956.03, -506793.88, 51226.555, -0.041498005, 0.39976683, -283218.78, 63533.965, 0.000007127328, 10.001125, 9.998316 
1.575164e+3, 2.7461934e+2, -265503.88, -430129.13, 9538.497, -0.1746452, 0.4193117, -264953.06, -16182.71, 0.000058416226, 10.000605, 9.998416 
1.5751745e+3, 2.8461826e+2, -12831.338, -144075.55, 106254.016, -0.19368096, 0.4254065, 46431.207, 197212.28, 0.00029913065, 10.001159, 9.999451 
1.5751873e+3, 2.946176e+2, 364586.94, 109163.31, 227838.98, -0.07076156, 0.37042388, 498066.44, 550847.7, 0.0009576331, 10.002996, 9.999631 
1.5751952e+3, 3.046153e+2, 274568.06, -307933.22, 35806.176, -0.16493644, 0.36103076, 276760.8, 276760.8, 0.0021078228, 10.003793, 9.996037 
1.5751992e+3, 3.1461376e+2, 212649.78, -334997.88, 14731.721, -0.33819824, 0.57849914, 213045.78, 213045.78, 0.0035945966, 10.00332, 9.99608 
1.5850207e+3, 1.2461409e+2, -1905725.3, -1610680.3, 6363.1377, 0.35289672, 0.25678325, -1610543.1, 108272.68, 0.024665277, 9.997817, 10.001767 
1.5850258e+3, 1.3461763e+2, -1761565.5, -1520181.9, 24551.207, -0.044487175, 0.44349223, -1517710.1, 103068.61, 0.0150364665, 9.998273, 10.001498 
1.585037e+3, 1.4461848e+2, -1701591.9, -1623559.4, 25443.943, 0.18190032, 0.46069947, -1615996.0, -93225.984, 0.0068181083, 9.998803, 9.999848 
1.5850458e+3, 1.5461628e+2, -1519618.1, -1477132.8, 48081.004, 0.12148747, 0.23764044, -1445810.9, -21017.674, 0.0019058621, 9.999345, 9.999917 
1.5850537e+3, 1.6461636e+2, -1324178.5, -1264191.3, 80859.88, -0.05767024, 0.22974323, -1207941.4, 118850.99, 0.0002187055, 9.999716, 10.000526 
1.585062e+3, 1.7461893e+2, -1160657.9, -1114059.5, 63658.89, -0.23001005, 0.4005782, -1069570.0, 159195.17, 0.000002466339, 10.000084, 10.000703 
1.5850717e+3, 1.8461941e+2, -1184947.0, -1293822.4, 50336.484, -0.25099546, 0.47963944, -1165241.4, -34480.047, 0.0, 10.000191, 9.998746 
1.585082e+3, 1.9461767e+2, -1070536.9, -1176609.3, 61856.15, -0.16173945, 0.40989992, -1042092.9, -9309.66, 0.0, 10.0002575, 9.998841 
1.5850928e+3, 2.0461634e+2, -866812.6, -943458.9, 131212.23, -0.11229628, 0.35957944, -768441.5, 166354.94, 0.0, 10.00061, 9.999608 
1.5851043e+3, 2.146154e+2, -646309.25, -767980.9, 106473.95, -0.08533784, 0.2760973, -584516.75, 252283.42, 0.0, 10.001368, 9.999777 
1.5851146e+3, 2.2461422e+2, -600109.5, -851016.0, 49057.355, -0.0928679, 0.25491524, -590858.8, 147950.86, 0.0, 10.001698, 9.998371 
1.5851234e+3, 2.3461287e+2, -488293.72, -734203.2, 70834.86, -0.15247653, 0.26085493, -469349.03, 171475.6, 0.0, 10.001739, 9.99848 
1.5851337e+3, 2.4461211e+2, -373605.56, -523813.0, 142209.33, -0.14220487, 0.2996485, -287886.22, 254947.27, 0.0, 10.001401, 9.999408 
1.5851459e+3, 2.546121e+2, -371707.03, -452914.34, 78133.78, -0.057107046, 0.32312924, -324256.47, 120578.19, 0.00000023115544, 10.000654, 9.99958 
1.5851565e+3, 2.6461166e+2, -355587.38, -576845.56, 15319.222, -0.06942618, 0.40912026, -354531.78, -7688.743, 0.0000061293663, 10.000894, 9.997937 
1.5851653e+3, 2.7461085e+2, -30582.441, -354828.47, 16557.498, -0.2013429, 0.5054784, -29739.133, 219120.14, 0.000059467606, 10.002398, 9.998061 
1.5851761e+3, 2.846099e+2, 236761.72, 61893.297, 73078.15, -0.2008819, 0.51297057, 263279.94, 414147.5, 0.00031124914, 10.002517, 10.000206 
1.5851894e+3, 2.9460907e+2, 125541.94, 86576.75, 15580.913, -0.059860308, 0.36242482, 131006.016, 183871.38, 0.001001838, 10.000962, 10.000443 
1.5851979e+3, 3.0460662e+2, 37246.99, -355535.16, -119238.195, -0.16974525, 0.26143944, 70610.57, 70610.57, 0.00221268, 10.001828, 9.99668 
1.5852027e+3, 3.146069e+2, 571309.25, -64567.715, -29009.723, -0.430712, 0.5992461, 572630.0, 572630.0, 0.003786309, 10.005362, 9.996965 
1.5950164e+3, 1.2460774e+2, -1996111.3, -1825477.5, -51749.375, 0.10172453, 0.29871258, -1811009.8, -92132.016, 0.026239868, 9.99792, 10.000235 
1.5950255e+3, 1.3460852e+2, -1859663.4, -1718670.6, 56495.473, 0.08831655, 0.3506475, -1698826.1, -77952.04, 0.016040104, 9.9982605, 10.000128 
1.595036e+3, 1.4460848e+2, -1651878.5, -1545447.9, 37676.754, 0.16783793, 0.32469767, -1533460.4, -10584.164, 0.0073062, 9.998893, 10.000348 
1.5950455e+3, 1.5461037e+2, -1481719.1, -1400119.9, 74455.49, 0.1518409, 0.4511489, -1356018.3, 68839.06, 0.002060233, 9.999346, 10.000449 
1.595054e+3, 1.6461073e+2, -1343361.0, -1313303.4, 85480.41, -0.023017406, 0.46575254, -1241540.8, 85310.63, 0.00024185247, 9.999754, 10.000172 
1.5950622e+3, 1.7460927e+2, -1189971.5, -1169489.8, 83026.19, -0.24840786, 0.27001128, -1096075.3, 132786.23, 0.0000030340082, 10.000064, 10.00033 
1.5950722e+3, 1.8460867e+2, -1144249.4, -1219085.3, 43998.793, -0.24860287, 0.23487745, -1123909.3, 6957.421, 0.0, 10.000227, 9.999242 
1.5950838e+3, 1.9460925e+2, -1043013.9, -1108600.0, 70996.18, -0.031774618, 0.34465608, -997603.06, 35261.83, 0.0, 10.000215, 9.999328 
1.5950951e+3, 2.0460893e+2, -910692.3, -1025273.94, 151164.69, 0.026758637, 0.4007479, -806326.06, 128542.63, 0.0, 10.000566, 9.999067 
1.5951061e+3, 2.1460763e+2, -703272.75, -857133.56, 139959.6, -0.06576462, 0.33251014, -620494.1, 216384.61, 0.0, 10.001249, 9.999218 
1.5951163e+3, 2.2460687e+2, -556125.06, -735183.2, 45013.023, -0.117256485, 0.34152377, -545446.2, 193438.03, 0.0, 10.00158, 9.999226 
1.5951255e+3, 2.3460682e+2, -439767.38, -612141.56, 80172.54, -0.12362746, 0.38366142, -408243.6, 232640.47, 0.0, 10.00164, 9.999369 
1.5951352e+3, 2.4460587e+2, -493310.4, -748368.6, 110370.234, -0.15531845, 0.4284134, -452182.28, 90712.805, 0.0, 10.001298, 9.997913 
1.5951452e+3, 2.5460383e+2, -496236.06, -688789.94, 57882.176, -0.20476002, 0.40890637, -480176.03, -35256.44, 0.00000009760233, 10.000562, 9.998001 
1.5951559e+3, 2.6460212e+2, -346952.28, -545078.0, 62751.188, -0.23099376, 0.4328461, -328749.78, 18190.902, 0.0000054247644, 10.000821, 9.998196 
1.5951675e+3, 2.746009e+2, -18749.086, -314876.06, 84665.375, -0.22929408, 0.4549243, 3748.332, 252704.48, 0.00006233866, 10.002317, 9.99838 
1.5951788e+3, 2.8459984e+2, 133122.28, -122504.77, 13433.767, -0.19488582, 0.49122968, 133826.31, 284792.8, 0.00032281963, 10.002388, 9.999001 
1.5951897e+3, 2.9459888e+2, 24764.416, -104409.81, -29780.504, -0.13885826, 0.45274836, 31299.547, 84272.375, 0.0010343667, 10.000879, 9.999175 
1.5951994e+3, 3.0459654e+2, 172746.38, -28711.549, -921.11035, -0.21941572, 0.32637435, 172750.6, 172750.6, 0.0022871897, 10.001659, 9.998996 
1.595209e+3, 3.1459865e+2, 726829.2, 338502.66, 131309.77, -0.3551366, 0.5944769, 767062.25, 767062.25, 0.003918994, 10.005039, 9.999895 
1.6050138e+3, 1.2460101e+2, -2102576.5, -1884712.6, -76877.02, 0.08707265, 0.41521803, -1860317.0, -141368.63, 0.027939666, 9.99723, 10.000157 
1.6050246e+3, 1.3460022e+2, -1928416.1, -1816967.3, 55635.973, 0.19176982, 0.3698236, -1793948.0, -172987.73, 0.01712635, 9.998077, 9.999536 
1.6050337e+3, 1.4459969e+2, -1686072.6, -1523042.9, 65847.49, 0.08389487, 0.31058347, -1499769.5, 23196.82, 0.007836914, 9.998511, 10.000674 
1.6050443e+3, 1.5460241e+2, -1525548.1, -1379208.0, 68014.734, 0.11576345, 0.48134384, -1352478.9, 72457.95, 0.0022287087, 9.998864, 10.000821 
1.6050538e+3, 1.6460292e+2, -1475401.4, -1407458.0, 86505.47, 0.02881425, 0.5043041, -1348492.8, -21564.266, 0.00026665046, 9.998993, 9.9998865 
1.605063e+3, 1.7460085e+2, -1329216.5, -1269284.5, 74041.66, -0.12187205, 0.28193963, -1219374.8, 9570.608, 0.0000036433328, 9.999252, 10.000034 
1.6050732e+3, 1.8460007e+2, -1247121.3, -1257922.1, 30391.646, -0.116035976, 0.23628956, -1221654.0, -90701.58, 0.0, 9.999469, 9.999342 
1.6050844e+3, 1.9460073e+2, -1091281.8, -1120532.4, 14366.082, 0.031900257, 0.3438238, -1085406.3, -52458.3, 0.0, 9.999812, 9.999446 
1.6050954e+3, 2.0460032e+2, -981417.06, -1066971.5, 124771.625, 0.04406763, 0.38742626, -892293.4, 42658.42, 0.0, 10.00012, 9.998995 
1.6051066e+3, 2.1459879e+2, -810907.2, -914803.5, 133441.16, -0.09606083, 0.3057676, -719659.2, 117304.94, 0.0, 10.000544, 9.999156 
1.605117e+3, 2.2459804e+2, -660842.56, -792148.06, 23171.836, -0.15473653, 0.3209677, -656873.4, 82096.57, 0.0, 10.000895, 9.999157 
1.6051269e+3, 2.3459832e+2, -504349.75, -646196.44, -27032.473, -0.13401619, 0.40327823, -499372.7, 141594.47, 0.0, 10.001218, 9.999324 
1.6051365e+3, 2.4459715e+2, -470629.44, -777092.6, 7705.25, -0.15699774, 0.44522217, -470435.84, 72544.29, 0.0, 10.001626, 9.997565 
1.6051464e+3, 2.545944e+2, -289591.84, -626768.4, 32079.254, -0.22098318, 0.3890129, -286566.94, 158443.84, 0.000000007673713, 10.002152, 9.997665 
1.6051574e+3, 2.6459217e+2, -113172.37, -419060.1, 118660.805, -0.2489263, 0.3754102, -72538.83, 274496.06, 0.0000049768487, 10.002375, 9.998313 
1.6051696e+3, 2.745907e+2, -23867.916, -306277.56, 104165.01, -0.23751807, 0.3657995, 10395.636, 259445.84, 0.00006447964, 10.00223, 9.998486 
1.6051808e+3, 2.845895e+2, 78100.805, -242871.02, 14500.497, -0.23410907, 0.42100397, 78754.56, 229817.77, 0.00032949253, 10.002397, 9.998173 
1.6051903e+3, 2.945886e+2, 269748.88, -79122.14, -19432.746, -0.25829464, 0.4748128, 270827.97, 323901.7, 0.0010457553, 10.002962, 9.998344 
1.605201e+3, 3.045859e+2, 384046.1, 84881.81, 42407.184, -0.28030515, 0.34631115, 389941.22, 389941.22, 0.002310475, 10.003064, 9.999096 
1.6052142e+3, 3.1458688e+2, 408930.1, 248795.55, -28966.537, -0.19629443, 0.4868128, 414008.75, 414008.75, 0.003960214, 10.002557, 10.000469 
1.6150129e+3, 1.2459437e+2, -1971775.1, -1654083.8, 50884.242, 0.24006489, 0.6360397, -1646132.8, 72889.9, 0.02978273, 9.997381, 10.001686 
1.615023e+3, 1.3459319e+2, -1917328.8, -1795092.4, 87015.586, 0.20545754, 0.5280072, -1749875.5, -128842.586, 0.018308382, 9.998077, 9.999689 
1.61503e+3, 1.4459236e+2, -1670161.1, -1505386.0, 73828.16, -0.1557585, 0.43083096, -1477146.6, 45891.227, 0.008418617, 9.9985695, 10.0007715 
1.6150418e+3, 1.5459253e+2, -1514652.8, -1357848.1, 86608.76, -0.041677427, 0.3349431, -1319425.8, 105604.96, 0.0024150687, 9.998875, 10.000962 
1.6150531e+3, 1.6459298e+2, -1473243.6, -1431073.8, 84929.33, 0.03018717, 0.35240036, -1364651.1, -37627.617, 0.0002938315, 9.999098, 9.999679 
1.6150644e+3, 1.7459372e+2, -1345123.4, -1306466.4, 88575.42, 0.08950938, 0.43258455, -1235135.1, -6118.1777, 0.000004294035, 9.99926, 9.99978 
1.6150749e+3, 1.845935e+2, -1261692.5, -1297439.5, 35456.023, 0.07582853, 0.47367075, -1239859.6, -108840.414, 0.0, 9.999509, 9.999049 
1.6150838e+3, 1.9459221e+2, -1114160.0, -1164392.6, 33626.44, -0.026809053, 0.4120885, -1097305.3, -64273.563, 0.0, 9.999798, 9.999151 
1.615094e+3, 2.0459065e+2, -966054.7, -1021272.5, 129269.85, -0.13107833, 0.3409183, -861478.3, 73566.05, 0.0, 10.00006, 9.999337 
1.615106e+3, 2.1458893e+2, -797449.5, -868144.0, 153210.36, -0.2221151, 0.2021197, -675561.75, 161494.42, 0.0, 10.000463, 9.999516 
1.615117e+3, 2.2458778e+2, -749448.7, -942268.5, 26163.947, -0.26246324, 0.20627764, -745961.56, -6895.217, 0.0, 10.000755, 9.998192 
1.615127e+3, 2.3458742e+2, -592825.0, -802366.1, -8120.4175, -0.24340153, 0.32460964, -592510.8, 48562.92, 0.0, 10.001105, 9.998303 
1.6151376e+3, 2.4458611e+2, -435724.38, -678733.94, 19574.184, -0.21778786, 0.36939466, -434157.78, 108929.76, 0.0, 10.001511, 9.998299 
1.6151491e+3, 2.5458378e+2, -246682.5, -514707.84, 59802.863, -0.1777753, 0.2737026, -233944.44, 211163.27, 0.00000000987263, 10.002053, 9.998483 
1.6151603e+3, 2.6458174e+2, -145261.55, -450997.44, 105724.305, -0.20101802, 0.24168697, -112263.31, 234863.44, 0.000004852571, 10.002229, 9.998163 
1.6151714e+3, 2.7458003e+2, -61130.12, -344571.84, 107790.625, -0.29270205, 0.2235771, -24795.871, 224348.72, 0.000064250504, 10.002074, 9.998292 
1.6151819e+3, 2.8457877e+2, 21229.79, -322902.0, 25592.313, -0.38703284, 0.30712065, 23122.621, 174282.02, 0.00032939267, 10.002231, 9.997704 
1.6151911e+3, 2.945782e+2, 220028.55, -155289.34, 13995.008, -0.4971791, 0.43686035, 220549.67, 273718.97, 0.0010398368, 10.002841, 9.997882 
1.6152026e+3, 3.0457443e+2, 220812.88, -211426.98, 15687.915, -0.4425875, 0.3211336, 221381.52, 221381.52, 0.0022907257, 10.002906, 9.99712 
1.615218e+3, 3.1457165e+2, 253652.56, 288.39178, -26075.18, -0.10181711, 0.2897229, 256308.27, 256308.27, 0.00391664, 10.002286, 9.998861 
1.6250098e+3, 1.24583036e+2, -1967105.0, -1576448.8, 25027.86, 0.1983691, 0.6111446, -1574851.9, 144284.8, 0.03179242, 9.997087, 10.002372 
1.6250208e+3, 1.3458294e+2, -1924930.6, -1710608.9, -32209.066, 0.19583744, 0.52869767, -1705873.1, -84738.8, 0.019603958, 9.997634, 10.000485 
1.6250284e+3, 1.4458363e+2, -1838974.5, -1611807.6, -18650.936, -0.11590798, 0.5567305, -1610286.5, -87163.04, 0.009062119, 9.997534, 10.000532 
1.6250409e+3, 1.5458228e+2, -1664460.1, -1451412.8, -41324.383, 0.035576016, 0.3317164, -1443678.0, -18546.035, 0.002624408, 9.997954, 10.000752 
1.6250527e+3, 1.6458215e+2, -1554544.3, -1475525.9, -31856.443, 0.11572393, 0.30442736, -1464282.6, -137151.83, 0.00032476612, 9.998573, 9.99962 
1.625064e+3, 1.7458335e+2, -1320477.5, -1300011.9, -30639.656, 0.104681544, 0.43439174, -1277941.4, -48821.703, 0.000005034694, 9.999459, 9.9997225 
1.6250743e+3, 1.8458323e+2, -1197007.0, -1248384.9, -59108.92, 0.066638164, 0.48404682, -1158246.0, -27126.113, 0.0, 9.999882, 9.9992075 
1.6250837e+3, 1.945818e+2, -1084181.8, -1121332.6, -39763.824, -0.005933491, 0.38932902, -1058868.6, -25737.08, 0.0, 9.999904, 9.999386 
1.6250946e+3, 2.0458029e+2, -975486.44, -1062124.0, 78404.7, -0.07524721, 0.32345915, -929229.5, 5914.4194, 0.0, 10.000151, 9.999013 
1.6251072e+3, 2.145787e+2, -785378.0, -901628.25, 38857.38, -0.14140199, 0.23493189, -773585.8, 63571.016, 0.0, 10.0007105, 9.99917 
1.6251186e+3, 2.2457725e+2, -705850.4, -941714.94, -83873.91, -0.20373777, 0.23537186, -679066.2, 60104.715, 0.0, 10.001132, 9.998017 
1.625128e+3, 2.3457603e+2, -563305.75, -809918.4, -73505.09, -0.27799094, 0.28805533, -543059.1, 98126.516, 0.0, 10.001393, 9.998119 
1.625139e+3, 2.4457446e+2, -375855.56, -634147.44, -10143.916, -0.25399065, 0.31204274, -375457.8, 167743.05, 0.0, 10.001844, 9.998442 
1.6251518e+3, 2.5457257e+2, -164894.94, -461865.22, -35073.652, -0.1319127, 0.24233718, -160808.78, 284407.38, 0.000000011745934, 10.002536, 9.998617 
1.6251631e+3, 2.6457077e+2, -142793.1, -435289.47, -42495.33, -0.13527438, 0.2226717, -136744.25, 210487.72, 0.0000048598445, 10.002179, 9.998294 
1.6251728e+3, 2.7456915e+2, -264368.03, -428313.03, -36668.27, -0.28698644, 0.20511112, -256540.47, -7292.7437, 0.00006262461, 10.000607, 9.998425 
1.6251832e+3, 2.845677e+2, -201307.98, -444013.1, 7423.178, -0.39007413, 0.26824203, -201081.16, -49817.21, 0.00032550952, 10.000768, 9.997576 
1.6251944e+3, 2.945666e+2, 238620.9, -165303.42, -9301.458, -0.4557946, 0.36007497, 238834.98, 292114.6, 0.0010260531, 10.003045, 9.99772 
1.6252063e+3, 3.0456302e+2, 359573.72, -239640.5, 1832.5012, -0.42308766, 0.3090697, 359579.34, 359579.34, 0.0022458758, 10.004251, 9.996299 
1.62522e+3, 3.1455985e+2, 482935.53, 18064.264, 5751.7134, -0.2051716, 0.3318763, 483006.7, 483006.7, 0.0038119499, 10.004202, 9.998103 
1.6350041e+3, 1.2456737e+2, -1988706.4, -1627761.5, 114986.92, -0.10504607, 0.36050603, -1594242.6, 125044.38, 0.03398967, 9.997132, 10.001986 
1.6350175e+3, 1.3456942e+2, -1828276.3, -1518168.5, -25216.809, 0.10104241, 0.3707381, -1516131.4, 105133.305, 0.02102759, 9.997665, 10.001803 
1.6350287e+3, 1.4457351e+2, -1853436.3, -1670095.4, -24783.236, 0.12745206, 0.69239163, -1666804.4, -143581.31, 0.009775217, 9.9976425, 10.000084 
1.6350414e+3, 1.5457179e+2, -1699130.5, -1524306.9, -19087.727, 0.27118683, 0.47771716, -1522247.1, -97007.97, 0.002860367, 9.997957, 10.000252 
1.6350526e+3, 1.6457054e+2, -1544297.8, -1467098.3, -5638.295, 0.21161208, 0.36067918, -1466688.6, -139439.31, 0.00036087315, 9.998624, 9.999659 
1.6350614e+3, 1.745698e+2, -1317896.9, -1296354.0, 5819.816, -0.12160697, 0.2969621, -1294882.3, -65629.02, 0.000005927034, 9.999468, 9.999745 
1.6350718e+3, 1.8456934e+2, -1140928.6, -1146135.3, -65894.04, -0.20126906, 0.27973697, -1077586.5, 53667.207, 0.0, 9.999935, 9.999887 
1.6350843e+3, 1.9456945e+2, -1035645.4, -1018680.75, -33551.92, 0.035386402, 0.26704767, -992555.56, 40692.723, 0.0, 9.999893, 10.000099 
1.6350971e+3, 2.0456904e+2, -1047241.25, -1199529.5, 90413.516, 0.13492616, 0.31835, -1005179.94, -69927.81, 0.0, 10.0001, 9.998095 
1.6351104e+3, 2.1456799e+2, -868600.1, -1057036.4, 68749.375, 0.07856079, 0.3845616, -846184.06, -8917.128, 0.0, 10.00063, 9.998145 
1.6351213e+3, 2.2456634e+2, -694976.7, -882386.75, -77346.62, -0.06665322, 0.39666256, -667178.06, 72106.18, 0.0, 10.000975, 9.9985 
1.6351292e+3, 2.3456413e+2, -537094.0, -733463.1, -55182.816, -0.30182824, 0.28977498, -522649.3, 118653.77, 0.0, 10.001297, 9.998691 
1.63514e+3, 2.4456221e+2, -431464.66, -712240.5, 9087.412, -0.33888975, 0.26842576, -431170.84, 112149.84, 0.0, 10.001687, 9.99798 
1.6351542e+3, 2.545607e+2, -222114.61, -544265.4, 751.94293, -0.14464648, 0.29277855, -222112.86, 223223.13, 0.000000006263202, 10.002388, 9.998119 
1.6351655e+3, 2.645594e+2, -135271.78, -388992.25, -101693.26, -0.122742146, 0.32838547, -99543.45, 247805.22, 0.000005059976, 10.002038, 9.998686 
1.6351734e+3, 2.7455825e+2, -242439.5, -368118.9, -80863.38, -0.29993325, 0.30958915, -202869.66, 46488.6, 0.00006071332, 10.000538, 9.998874 
1.6351846e+3, 2.845564e+2, -212590.5, -447293.94, 80231.836, -0.34402493, 0.3049715, -187785.36, -36408.51, 0.00031809925, 10.000688, 9.99759 
1.6351998e+3, 2.9455385e+2, 215997.11, -176826.98, 89489.086, -0.23139572, 0.25434327, 235422.94, 288827.4, 0.0010037773, 10.002902, 9.997706 
1.6352119e+3, 3.0455157e+2, 341891.7, -218967.86, -6500.13, -0.31810492, 0.32729965, 341967.0, 341967.0, 0.00218191, 10.00401, 9.996551 
1.6352203e+3, 3.145509e+2, 454530.47, 31507.684, 31613.324, -0.6334736, 0.5627273, 456879.94, 456879.94, 0.0036702, 10.003906, 9.998325 
1.6450015e+3, 1.2455461e+2, -2155392.0, -1771553.8, 207932.19, -0.03965507, 0.33920977, -1680508.6, 38900.23, 0.036383986, 9.996288, 10.001389 
1.645014e+3, 1.3455676e+2, -1892636.9, -1489573.5, -30448.055, 0.010488806, 0.31246257, -1487286.4, 134099.94, 0.022584815, 9.996967, 10.002344 
1.6450273e+3, 1.445609e+2, -1843782.1, -1661869.0, -8767.103, 0.21915634, 0.60719484, -1661447.5, -138102.16, 0.010560797, 9.997698, 10.000117 
1.64504e+3, 1.5456018e+2, -1507340.5, -1437603.4, 21639.96, 0.29060483, 0.497841, -1431434.1, -6081.2754, 0.0031241647, 9.999284, 10.000214 
1.6450515e+3, 1.6455911e+2, -1376286.0, -1388248.6, 35613.637, 0.19951719, 0.4017714, -1346154.9, -18793.596, 0.0004029895, 9.999788, 9.99964 
1.6450605e+3, 1.7455755e+2, -1360529.9, -1318028.6, 28693.84, -0.14342603, 0.2593377, -1303573.1, -74201.72, 0.0000070009137, 9.999181, 9.999739 
1.6450714e+3, 1.8455684e+2, -1229763.1, -1190947.9, -38327.246, -0.20513588, 0.21594016, -1167394.8, -36019.914, 0.0, 9.99935, 9.999851 
1.6450848e+3, 1.9455726e+2, -930935.4, -974322.7, -78875.75, 0.06728262, 0.23842974, -870824.4, 162544.06, 0.0, 10.000639, 10.000042 
1.645098e+3, 2.0455721e+2, -898382.8, -1089147.6, 46920.797, 0.18458578, 0.31186426, -887466.75, 47902.56, 0.0, 10.000948, 9.9984455 
1.645111e+3, 2.1455666e+2, -910450.6, -1029711.8, 110768.92, 0.11120333, 0.39179617, -844281.5, -6904.0435, 0.0, 10.00015, 9.998554 
1.6451222e+3, 2.2455524e+2, -774604.56, -920732.0, 55011.387, -0.030812768, 0.40275127, -756210.3, -16818.275, 0.0, 10.000426, 9.998507 
1.6451313e+3, 2.3455274e+2, -435620.34, -686346.8, 24150.168, -0.25383627, 0.2707292, -433315.38, 208098.61, 0.0, 10.002002, 9.99868 
1.6451421e+3, 2.4455085e+2, -405301.9, -672817.4, 38413.23, -0.2992957, 0.24430297, -399895.3, 143535.73, 0.0, 10.001765, 9.998205 
1.6451551e+3, 2.5454977e+2, -641679.4, -724916.44, 62956.938, -0.1537075, 0.2897976, -607828.2, -162386.34, 0.000000005166704, 9.999418, 9.99831 
1.6451661e+3, 2.6454857e+2, -505760.97, -582265.44, 43269.633, -0.13929209, 0.33545783, -486259.47, -138806.2, 0.000005473011, 9.99956, 9.998547 
1.6451752e+3, 2.7454725e+2, 73325.56, -233138.67, -1449.8457, -0.28897765, 0.31028423, 73332.42, 322798.06, 0.00005878461, 10.002791, 9.99871 
1.6451874e+3, 2.8454512e+2, 248705.84, -251706.98, 130127.14, -0.30124593, 0.30222, 280521.28, 432008.1, 0.0003059286, 10.003988, 9.997339 
1.6452034e+3, 2.9454246e+2, 165441.56, -228423.14, 101593.5, -0.15061584, 0.2687935, 190102.52, 243617.97, 0.0009705867, 10.002691, 9.997444 
1.6452153e+3, 3.0454037e+2, 148082.17, -244980.16, 29598.455, -0.27409124, 0.34058368, 150298.5, 150298.5, 0.002106459, 10.002342, 9.997184 
1.6452229e+3, 3.1453875e+2, 343295.13, 21175.543, 42525.81, -0.707361, 0.41809392, 348814.72, 348814.72, 0.0035252417, 10.00294, 9.998713 
1.655001e+3, 1.2454363e+2, -2170817.0, -1832734.4, 138311.0, 0.25923, 0.4504971, -1783361.1, -63847.598, 0.03897044, 9.996418, 10.000892 
1.6550094e+3, 1.3454527e+2, -1902012.4, -1507074.6, -10984.569, -0.15355432, 0.38138792, -1506769.4, 114726.78, 0.024272982, 9.996951, 10.002233 
1.655024e+3, 1.4454584e+2, -1810725.4, -1598145.5, 34864.645, 0.096055314, 0.29928866, -1592573.5, -69084.05, 0.0114189135, 9.997718, 10.000545 
1.655037e+3, 1.5454762e+2, -1486868.0, -1392703.3, 85754.84, 0.041145686, 0.40790263, -1341956.0, 83515.6, 0.0034161112, 9.999279, 10.000525 
1.6550495e+3, 1.6454804e+2, -1362435.0, -1383331.6, 6930.026, -0.003875594, 0.44608065, -1360345.6, -32880.414, 0.00045137366, 9.999876, 9.999636 
1.6550608e+3, 1.7454669e+2, -1358269.3, -1312983.0, 10436.984, -0.02736157, 0.3206736, -1310693.4, -81219.47, 0.000008273259, 9.999179, 9.999773 
1.6550727e+3, 1.8454565e+2, -1279306.8, -1306487.9, 531.60876, -0.015727112, 0.2822949, -1279296.4, -147812.92, 0.0, 9.999394, 9.9990425 
1.6550852e+3, 1.9454516e+2, -996597.3, -1105085.8, -24985.96, 0.03614581, 0.3020808, -991119.44, 42372.79, 0.0, 10.000608, 9.999165 
1.6550975e+3, 2.0454483e+2, -796039.5, -862875.56, 13870.764, 0.00949422, 0.31975085, -793275.2, 142219.36, 0.0, 10.000888, 10.000028 
1.6551092e+3, 2.1454476e+2, -800611.3, -786711.6, 84725.73, -0.093738735, 0.27079287, -708651.2, 128837.375, 0.0, 10.00008, 10.0002575 
1.6551213e+3, 2.2454377e+2, -818184.75, -987895.4, 100584.07, -0.1672777, 0.25585788, -771443.8, -31947.586, 0.0, 10.000322, 9.998097 
1.655134e+3, 2.3454174e+2, -491822.94, -772761.4, 91875.75, -0.19890422, 0.2256341, -464444.75, 177074.63, 0.0, 10.001869, 9.998153 
1.6551448e+3, 2.445403e+2, -372317.66, -569295.5, -47622.637, -0.22068015, 0.23297778, -361408.28, 182125.1, 0.0, 10.001614, 9.998989 
1.6551538e+3, 2.5453964e+2, -588725.2, -601530.0, -18345.559, -0.21649395, 0.23038173, -575696.94, -130161.62, 0.00000000856411, 9.999371, 9.999173 
1.6551648e+3, 2.6453823e+2, -566544.5, -702281.56, 146493.28, -0.24561009, 0.24789298, -472962.06, -125414.586, 0.0000057188686, 9.999526, 9.997745 
1.6551778e+3, 2.7453595e+2, -4207.7476, -363146.16, 128511.586, -0.31817457, 0.21533996, 37059.145, 286630.7, 0.00005715205, 10.002657, 9.997883 
1.6551912e+3, 2.8453386e+2, 188184.94, -334765.66, 80370.54, -0.33810392, 0.2722704, 200258.1, 351852.94, 0.00029385844, 10.003794, 9.996867 
1.6552049e+3, 2.945321e+2, 120536.15, -299794.4, 67931.64, -0.28304532, 0.3766478, 131242.22, 184858.08, 0.00093917665, 10.002587, 9.997006 
1.6552168e+3, 3.0452904e+2, 173935.11, -135246.58, 42117.71, -0.3774151, 0.33051494, 179569.81, 179569.81, 0.0020481069, 10.002129, 9.998032 
1.6552275e+3, 3.145236e+2, 319339.44, 51977.805, 91700.19, -0.5728097, -0.06387217, 347768.1, 347768.1, 0.003428113, 10.0026045, 9.999081 
1.664998e+3, 1.24530956e+2, -2176072.5, -1803163.8, 67319.05, 0.31135666, 0.42715108, -1791383.1, -71746.61, 0.041736465, 9.996205, 10.001219 
1.6650066e+3, 1.3453351e+2, -1809488.5, -1501033.1, -24978.18, -0.16301896, 0.48119503, -1499023.5, 122587.85, 0.026087236, 9.997736, 10.0019045 
1.6650225e+3, 1.4453268e+2, -1726500.6, -1565964.6, -13608.483, 0.16438834, 0.28228492, -1564819.3, -41200.082, 0.012349877, 9.99834, 10.000459 
1.6650353e+3, 1.5453419e+2, -1697253.0, -1493699.0, -160.33232, 0.010445551, 0.36687562, -1493698.9, -68095.125, 0.003737191, 9.997843, 10.000514 
1.665048e+3, 1.6453491e+2, -1625876.9, -1450807.8, -76855.39, -0.034581576, 0.41073322, -1421856.0, -94262.14, 0.00050616945, 9.997828, 10.000148 
1.6650607e+3, 1.7453441e+2, -1405410.5, -1277996.5, -51896.496, 0.0744317, 0.3133046, -1259534.0, -29940.783, 0.000009797576, 9.998594, 10.000294 
1.6650733e+3, 1.8453383e+2, -1360413.8, -1390217.6, 14579.814, 0.12755774, 0.3134494, -1354467.8, -222868.44, 0.0, 9.999044, 9.998629 
1.6650857e+3, 1.9453341e+2, -1200693.9, -1247577.6, 7977.531, 0.085553795, 0.38228723, -1199373.6, -165762.28, 0.0, 9.999418, 9.998741 
1.6650975e+3, 2.0453285e+2, -940442.6, -914471.44, -6761.0166, -0.011892553, 0.39035714, -912816.8, 22800.234, 0.0, 9.999827, 10.00018 
1.6651087e+3, 2.1453224e+2, -748245.4, -740018.75, -59945.496, -0.16633873, 0.2720091, -684045.6, 153568.58, 0.0, 10.000353, 10.000445 
1.665121e+3, 2.2453156e+2, -789091.9, -902942.8, -37525.992, -0.22209607, 0.2499078, -777835.94, -38218.19, 0.0, 10.000226, 9.998719 
1.6651347e+3, 2.3453087e+2, -813140.94, -852421.44, 20652.363, -0.16838261, 0.28599277, -804281.0, -162652.73, 0.0, 9.999343, 9.998813 
1.6651462e+3, 2.445299e+2, -568806.0, -656427.8, -83433.02, -0.15894194, 0.30171576, -518380.7, 25256.098, 0.0, 10.00021, 9.9990835 
1.6651553e+3, 2.5452864e+2, -21335.28, -320711.66, -121605.1, -0.20534848, 0.2354712, 21834.914, 467477.47, 0.0000000057748837, 10.003222, 9.999258 
1.6651663e+3, 2.6452667e+2, 24592.54, -465494.38, 39238.633, -0.24385375, 0.2138891, 27714.281, 375373.75, 0.0000055479773, 10.003802, 9.997308 
1.6651799e+3, 2.7452385e+2, -204510.36, -521965.75, 29832.977, -0.29573897, 0.18157546, -201731.13, 47958.24, 0.000055344583, 10.001526, 9.997348 
1.6651937e+3, 2.845218e+2, -198906.67, -475735.03, 33125.703, -0.30566013, 0.24775378, -194998.0, -43285.285, 0.0002837419, 10.000931, 9.997274 
1.6652074e+3, 2.9452077e+2, 129014.34, -244395.03, 55475.44, -0.2728623, 0.38254094, 137081.75, 190807.3, 0.0009166585, 10.002436, 9.997455 
1.6652197e+3, 3.0451787e+2, 347929.66, -291.001, 64316.51, -0.3449351, 0.3054156, 359429.2, 359429.2, 0.0020189087, 10.003107, 9.9984865 
1.6652313e+3, 3.1451252e+2, 308620.88, 57156.156, 38297.83, -0.430521, -0.118833065, 314324.25, 314324.25, 0.003398234, 10.002499, 9.999167 
1.6749907e+3, 1.2451739e+2, -2072679.1, -1591926.9, -25253.586, -0.081790306, 0.34537628, -1590604.0, 129165.93, 0.044670317, 9.9962, 10.002707 
1.6750054e+3, 1.3452157e+2, -1863178.3, -1603938.4, 40738.402, -0.07121327, 0.61887324, -1597687.3, 24044.072, 0.028026333, 9.997721, 10.001185 
1.675023e+3, 1.445215e+2, -1743410.4, -1620152.3, -33243.42, 0.345301, 0.5552162, -1611758.0, -88024.51, 0.013357116, 9.998412, 10.000055 
1.6750346e+3, 1.5451999e+2, -1721147.6, -1546974.6, -9511.089, 0.13499366, 0.37127954, -1546456.9, -120708.13, 0.004090086, 9.997848, 10.000154 
1.6750467e+3, 1.6451968e+2, -1549526.8, -1303101.9, -58726.53, 0.031071538, 0.28450143, -1289822.3, 37925.707, 0.0005678562, 9.997873, 10.001141 
1.6750598e+3, 1.7452085e+2, -1338137.4, -1131604.6, -19996.299, 0.11126996, 0.2540857, -1129686.5, 100041.21, 0.000011659807, 9.998574, 10.0013075 
1.6750729e+3, 1.8452157e+2, -1349295.0, -1382964.5, 20920.158, 0.15521811, 0.33009368, -1339277.1, -207557.06, 0.0, 9.999101, 9.998658 
1.6750859e+3, 1.9452192e+2, -1205875.3, -1256373.8, 27115.37, 0.14873801, 0.4795364, -1194073.6, -160347.1, 0.0, 9.999406, 9.9986925 
1.6750981e+3, 2.0452115e+2, -1023605.25, -1083709.1, 4829.945, 0.04475888, 0.5239381, -1023219.6, -87481.86, 0.0, 9.99981, 9.999026 
1.6751091e+3, 2.1451911e+2, -849055.75, -929979.4, -33046.914, -0.16770981, 0.38793042, -837275.25, 478.8808, 0.0, 10.000263, 9.9991865 
1.675121e+3, 2.245186e+2, -701677.44, -688320.06, -72615.336, -0.26661482, 0.37428612, -622076.94, 117679.65, 0.0, 10.000082, 10.000261 
1.6751337e+3, 2.3452e+2, -708194.3, -615583.1, -6756.5723, -0.21712613, 0.4519903, -615092.8, 26648.336, 0.0, 9.99926, 10.000478 
1.6751464e+3, 2.4451955e+2, -621952.25, -741302.1, 13534.389, -0.18818714, 0.45516878, -620436.6, -76694.49, 0.0, 10.000095, 9.998556 
1.6751587e+3, 2.5451687e+2, -88660.984, -423355.72, -1588.7068, -0.18447845, 0.31138644, -88653.445, 357108.78, 0.0000000017385277, 10.003062, 9.998628 
1.6751707e+3, 2.64514e+2, -13110.653, -504935.88, -44413.336, -0.21777624, 0.2406768, -9132.175, 338655.66, 0.0000048816705, 10.003627, 9.997125 
1.6751817e+3, 2.7451092e+2, -226642.31, -551893.06, -44004.152, -0.29063335, 0.19325209, -220794.02, 29025.902, 0.000051549086, 10.001454, 9.997179 
1.675195e+3, 2.8450885e+2, -141945.19, -333741.13, 76245.02, -0.29145676, 0.22604384, -115328.98, 36511.64, 0.00027036015, 10.000828, 9.9983015 
1.6752107e+3, 2.9450837e+2, 196856.58, -81247.33, 126672.9, -0.20739543, 0.297492, 245904.25, 299749.0, 0.00089050346, 10.002328, 9.998632 
1.6752236e+3, 3.0450657e+2, 312588.5, -14323.139, 34834.3, -0.28437018, 0.2652863, 316259.06, 316259.06, 0.001993897, 10.002866, 9.9985 
1.6752338e+3, 3.1450474e+2, 271967.7, 26589.287, 49889.19, -0.45127788, 0.19332384, 281723.1, 281723.1, 0.0033966575, 10.00232, 9.999031 
1.6849864e+3, 1.24503575e+2, -2023859.6, -1573682.1, -85792.82, -0.13266781, 0.3217697, -1557886.4, 162017.61, 0.04776628, 9.996568, 10.002653 
1.685003e+3, 1.3450697e+2, -2092376.5, -1774955.6, 9614.344, 0.00032396094, 0.5667973, -1774664.8, -152789.13, 0.030093629, 9.996433, 10.000613 
1.6850205e+3, 1.4450812e+2, -1938677.3, -1669486.3, -35622.22, 0.3379397, 0.63479835, -1664852.1, -140984.78, 0.0144471, 9.996878, 10.000457 
1.6850331e+3, 1.5450692e+2, -1704802.4, -1484752.5, 25494.844, 0.21884614, 0.43629277, -1481837.3, -55957.574, 0.004479329, 9.997728, 10.000636 
1.6850457e+3, 1.6450676e+2, -1460814.6, -1255355.3, 15870.29, 0.11242912, 0.33802006, -1254136.6, 73741.414, 0.0006375465, 9.998474, 10.001177 
1.6850583e+3, 1.7450793e+2, -1201380.8, -1054054.3, -25161.965, 0.07342088, 0.30274224, -1049875.4, 179982.92, 0.00001399049, 9.999477, 10.001395 
1.6850717e+3, 1.8450876e+2, -1173222.0, -1245738.0, -15738.215, 0.08510754, 0.35979247, -1169953.6, -38104.676, 0.0, 10.000092, 9.999116 
1.6850856e+3, 1.9450921e+2, -1029852.06, -1122289.0, 16369.558, 0.12758848, 0.47397527, -1027038.8, 6812.952, 0.0, 10.000387, 9.999146 
1.6850984e+3, 2.0450856e+2, -938435.75, -1046457.56, 55597.98, 0.070428155, 0.5090272, -914933.3, 20927.896, 0.0, 10.000412, 9.998999 
1.6851099e+3, 2.145068e+2, -870796.5, -940077.94, 88895.35, -0.10371424, 0.40470797, -810030.94, 27845.682, 0.0, 10.000123, 9.999184 
1.6851218e+3, 2.2450641e+2, -704232.5, -707246.75, 41936.445, -0.18650164, 0.40957206, -663776.1, 76102.516, 0.0, 10.000129, 10.000118 
1.685134e+3, 2.3450771e+2, -539374.0, -551798.9, -36674.25, -0.16890982, 0.49354887, -508389.72, 133474.13, 0.0, 10.00049, 10.000333 
1.685147e+3, 2.4450697e+2, -566609.0, -749876.8, -8154.038, -0.15640177, 0.49438545, -566246.94, -22378.598, 0.0, 10.000638, 9.998226 
1.6851607e+3, 2.545038e+2, -478918.0, -656067.0, -18747.156, -0.16443762, 0.3340398, -476955.78, -31059.871, 0.0000000018399801, 10.000561, 9.998239 
1.6851734e+3, 2.6450092e+2, -359469.4, -635716.5, -83229.88, -0.17769884, 0.26774597, -336331.28, 11590.459, 0.0000039092515, 10.001094, 9.997442 
1.6851844e+3, 2.7449846e+2, -53574.87, -422902.1, -70009.59, -0.20521758, 0.24914512, -40749.266, 209195.47, 0.00004640097, 10.002471, 9.9975605 
1.6851975e+3, 2.8449637e+2, 187898.9, -194008.06, 82053.42, -0.22526388, 0.26680842, 204781.89, 356746.22, 0.00025559173, 10.003174, 9.998136 
1.6852129e+3, 2.9449502e+2, 285703.8, -57835.99, 20272.645, -0.2514025, 0.2741824, 286896.0, 340873.0, 0.0008589189, 10.003024, 9.998459 
1.6852261e+3, 3.0449298e+2, 347705.72, -24139.541, -130388.65, -0.31568265, 0.2380189, 388869.9, 388869.9, 0.0019565516, 10.003197, 9.998289 
1.6852383e+3, 3.1449273e+2, 459354.66, 87355.89, -161585.77, -0.31296673, 0.3606866, 519740.6, 519740.6, 0.003380258, 10.003686, 9.998831 
1.6949846e+3, 1.2448935e+2, -2131819.0, -1819197.0, -75422.66, -0.0014067406, 0.31941378, -1801951.9, -81911.41, 0.051028147, 9.9966755, 10.000872 
1.6949996e+3, 1.3448961e+2, -2131685.3, -1845020.3, 14431.382, -0.007825112, 0.309929, -1844295.5, -222250.31, 0.032295942, 9.996378, 10.000163 
1.6950148e+3, 1.4449245e+2, -1847785.9, -1491692.6, -6936.7617, 0.07003785, 0.5096062, -1491557.6, 32463.926, 0.015627254, 9.996913, 10.001667 
1.6950308e+3, 1.544952e+2, -1618346.8, -1309272.0, 61805.527, 0.19321463, 0.58371997, -1297371.0, 128623.98, 0.004910431, 9.99774, 10.0018425 
1.6950445e+3, 1.6449624e+2, -1503594.4, -1360414.4, 42490.617, 0.12951832, 0.58098465, -1348754.3, -20771.082, 0.0007170378, 9.998536, 10.000428 
1.6950564e+3, 1.7449573e+2, -1262109.4, -1181262.6, 18006.156, -0.09240817, 0.46127754, -1177433.6, 52551.152, 0.000016975888, 9.999476, 10.000526 
1.6950697e+3, 1.8449539e+2, -1107073.9, -1118480.5, -12108.628, -0.1542788, 0.40705177, -1099392.6, 32593.465, 0.0, 10.000127, 9.999974 
1.6950844e+3, 1.9449532e+2, -972104.4, -989642.56, 30138.916, -0.042149737, 0.37481713, -949484.75, 84502.11, 0.0, 10.000333, 10.000083 
1.6950981e+3, 2.044952e+2, -879452.2, -900579.25, 35932.984, -0.0027341326, 0.36531726, -852562.1, 83424.18, 0.0, 10.00031, 10.000049 
1.6951108e+3, 2.1449524e+2, -810175.25, -794854.7, 82531.81, -0.038188014, 0.33195406, -719628.44, 118354.09, 0.0, 10.000035, 10.000223 
1.6951232e+3, 2.2449489e+2, -837107.8, -957546.7, 44858.54, -0.06872229, 0.3648782, -822236.2, -82251.05, 0.0, 10.000021, 9.998449 
1.6951354e+3, 2.3449405e+2, -687279.94, -828564.0, -13485.764, -0.09427451, 0.4158469, -686004.2, -44008.496, 0.0, 10.00036, 9.998495 
1.6951479e+3, 2.4449223e+2, -608208.1, -796806.9, -15666.669, -0.14158416, 0.4157699, -606915.6, -62900.492, 0.0, 10.000467, 9.997988 
1.695161e+3, 2.5448936e+2, -502741.66, -683125.2, -11860.804, -0.20127422, 0.30161703, -501965.13, -55921.42, 0.0000000033657745, 10.000468, 9.998096 
1.6951743e+3, 2.644873e+2, -326316.1, -540386.44, -39281.285, -0.20111027, 0.293729, -319335.72, 28725.74, 0.0000030031388, 10.000978, 9.998153 
1.695188e+3, 2.744864e+2, -16228.146, -320298.88, -7205.643, -0.1144642, 0.34871554, -16057.488, 234007.6, 0.000041424442, 10.002367, 9.998313 
1.6952012e+3, 2.8448415e+2, 74468.11, -395149.8, 69503.75, -0.19184598, 0.37344608, 84538.75, 236624.02, 0.00024223694, 10.003023, 9.996829 
1.6952139e+3, 2.9448047e+2, 167609.77, -271941.22, 27429.625, -0.47101042, 0.28947687, 169314.86, 223439.36, 0.0008256541, 10.002884, 9.997059 
1.6952275e+3, 3.0447686e+2, 266014.88, -125057.18, -118913.51, -0.5269294, 0.19693209, 299334.2, 299334.2, 0.0018998468, 10.002917, 9.997723 
1.6952436e+3, 3.1447732e+2, 408266.7, 71108.19, -98033.195, -0.17444678, 0.43321624, 434698.9, 434698.9, 0.0033156949, 10.003327, 9.998873 
1.704982e+3, 1.2447545e+2, -2236490.0, -1914984.5, -60062.703, 0.096749246, 0.43823278, -1904130.3, -183952.55, 0.054460447, 9.996135, 10.000487 
1.7049967e+3, 1.3447392e+2, -1919542.1, -1715141.4, 26270.908, 0.011365887, 0.23201154, -1711818.9, -89621.05, 0.034638863, 9.997699, 10.000425 
1.7050117e+3, 1.444765e+2, -1651980.8, -1398965.9, -11026.451, 0.0026030038, 0.392401, -1398486.3, 125690.195, 0.016903277, 9.998284, 10.001647 
1.7050278e+3, 1.544805e+2, -1597152.8, -1303948.0, -59976.727, 0.13320732, 0.596592, -1292153.8, 133986.13, 0.00538814, 9.997918, 10.001788 
1.7050424e+3, 1.6448231e+2, -1566922.4, -1352032.9, -55560.46, 0.103833616, 0.6559141, -1338517.6, -10395.332, 0.0008082668, 9.997918, 10.000794 
1.7050557e+3, 1.744821e+2, -1369674.4, -1189098.0, 3436.5222, -0.06671991, 0.5292905, -1189032.6, 41088.93, 0.000020835996, 9.998534, 10.000939 
1.7050694e+3, 1.8448192e+2, -1282169.6, -1158447.0, -6099.905, -0.12412558, 0.45241943, -1158147.0, -26026.172, 0.0, 9.9987335, 10.00038 
1.7050835e+3, 1.9448176e+2, -1189116.5, -1048239.6, -17213.045, -0.07401738, 0.372535, -1046166.94, -12046.558, 0.0, 9.998641, 10.0005045 
1.7050971e+3, 2.0448188e+2, -1097335.9, -997449.44, -50683.26, -0.045252655, 0.35944566, -976237.06, -40119.727, 0.0, 9.998786, 10.000106 
1.7051104e+3, 2.1448253e+2, -910177.06, -843410.5, -93867.19, -0.04674549, 0.38639006, -777167.0, 60941.914, 0.0, 9.999349, 10.000218 
1.7051235e+3, 2.2448191e+2, -880220.5, -1013381.8, -103663.836, -0.034837846, 0.40923613, -823597.3, -83482.625, 0.0, 9.999876, 9.9981365 
1.7051364e+3, 2.3447976e+2, -705924.2, -871135.3, -71987.695, -0.009648216, 0.3602682, -678958.25, -36820.848, 0.0, 10.000378, 9.99819 
1.7051494e+3, 2.4447793e+2, -548908.7, -759924.94, 2122.9492, -0.052017417, 0.37173063, -548887.3, -4729.786, 0.0, 10.000841, 9.998064 
1.705162e+3, 2.5447655e+2, -369640.13, -604001.94, 7269.1763, -0.18854542, 0.39905244, -369414.88, 76758.8, 0.0000000026261497, 10.001326, 9.998223 
1.7051756e+3, 2.6447493e+2, -157153.78, -428538.94, 21397.27, -0.2149907, 0.41214204, -155477.08, 192710.66, 0.0000021613648, 10.002013, 9.998425 
1.7051907e+3, 2.7447313e+2, 92406.1, -239469.39, 3158.362, -0.11351621, 0.35795638, 92436.16, 342633.7, 0.000036573332, 10.00299, 9.998574 
1.7052045e+3, 2.8447077e+2, 83729.39, -411470.53, 60079.4, -0.16319436, 0.36485192, 90914.19, 243132.52, 0.00022753773, 10.003185, 9.996635 
1.705217e+3, 2.944676e+2, 76644.68, -345574.9, 73119.74, -0.41331553, 0.35943684, 88948.945, 143202.22, 0.0007845109, 10.002386, 9.996796 
1.7052305e+3, 3.0446374e+2, 140239.03, -185213.78, 38780.68, -0.45130715, 0.2558815, 144796.3, 144796.3, 0.001811542, 10.00204, 9.997723 
1.705247e+3, 3.144632e+2, 277651.84, 32637.154, 58316.51, -0.089212015, 0.3895029, 290823.78, 290823.78, 0.0031792617, 10.002304, 9.999089 
1.7149784e+3, 1.244613e+2, -2161951.8, -1754126.9, 34494.3, 0.07890685, 0.61433506, -1751229.9, -30908.736, 0.058051143, 9.996116, 10.001594 
1.7149943e+3, 1.3446045e+2, -1860225.5, -1586128.0, 88863.63, -0.024349086, 0.38065538, -1559839.4, 62488.906, 0.037118543, 9.997678, 10.001331 
1.7150107e+3, 1.444605e+2, -1722317.9, -1573036.8, -28807.307, 0.051328655, 0.29983267, -1567670.5, -43340.195, 0.018276531, 9.99839, 10.000397 
1.7150244e+3, 1.5446272e+2, -1692869.0, -1505082.0, -68131.64, -0.029237512, 0.46355838, -1482967.3, -56651.66, 0.005915651, 9.997923, 10.000404 
1.7150392e+3, 1.6446494e+2, -1456566.6, -1131063.0, -44739.0, -0.035044957, 0.5646631, -1125025.9, 203269.22, 0.0009130136, 9.997952, 10.002293 
1.7150559e+3, 1.744672e+2, -1258022.9, -950729.4, 30934.928, 0.08549071, 0.51998717, -947646.1, 282621.0, 0.000025810483, 9.99851, 10.002584 
1.7150705e+3, 1.8446848e+2, -1281608.3, -1162867.4, -15851.411, 0.09397912, 0.501428, -1160787.8, -28535.617, 0.0, 9.998749, 10.000344 
1.7150827e+3, 1.9446859e+2, -1198610.3, -1066837.1, -14064.917, -0.035858203, 0.45810696, -1065352.6, -31100.674, 0.0, 9.998632, 10.000381 
1.7150952e+3, 2.0446861e+2, -1167449.4, -1139720.5, -37383.742, -0.13644357, 0.4885809, -1113713.0, -177459.6, 0.0, 9.998767, 9.999142 
1.7151085e+3, 2.1446869e+2, -994599.56, -995471.06, -66363.08, -0.1859785, 0.55817294, -928670.8, -90415.27, 0.0, 9.999248, 9.999224 
1.7151225e+3, 2.2446749e+2, -836291.5, -889016.0, -89914.11, -0.14249684, 0.531576, -768954.7, -28687.738, 0.0, 9.999729, 9.9990635 
1.7151374e+3, 2.3446488e+2, -646127.56, -726843.9, -45141.785, 0.020235078, 0.3344704, -625933.56, 16354.669, 0.0, 10.000289, 9.999226 
1.715151e+3, 2.4446398e+2, -540086.3, -714996.8, 13740.974, 0.016077574, 0.36569044, -539013.44, 5282.9385, 0.0, 10.000724, 9.998427 
1.7151634e+3, 2.5446513e+2, -364071.34, -568308.3, 33965.645, -0.19112596, 0.612149, -358570.8, 87717.48, 0.0000000000058928205, 10.001218, 9.99852 
1.715177e+3, 2.6446348e+2, -193489.56, -467554.88, 47974.28, -0.2935752, 0.61719483, -185334.48, 162968.45, 0.0000014626683, 10.00186, 9.998231 
1.7151922e+3, 2.7445865e+2, 53959.887, -276234.72, 48496.082, -0.26338735, 0.27934775, 60935.215, 311277.75, 0.000032081512, 10.00281, 9.998405 
1.7152072e+3, 2.844561e+2, 105462.14, -320794.1, 26152.965, -0.22500142, 0.24102448, 107060.76, 259424.97, 0.00021186807, 10.002983, 9.997359 
1.7152219e+3, 2.9445624e+2, 116007.65, -236988.53, 58432.582, -0.18394993, 0.48314628, 125428.74, 179793.63, 0.00073607016, 10.002268, 9.997597 
1.7152353e+3, 3.0445334e+2, 128889.78, -158672.53, 34374.75, -0.20421082, 0.41973013, 132941.78, 132941.78, 0.0016998283, 10.001841, 9.997999 
1.7152488e+3, 3.1444937e+2, 268071.97, 88614.34, 104408.805, -0.1848553, 0.18083559, 316011.06, 316011.06, 0.0029923415, 10.0020075, 9.999609 
1.7249753e+3, 1.24444574e+2, -2048636.3, -1674039.5, 101557.71, 0.1322637, 0.47979695, -1648277.8, 72205.63, 0.06177432, 9.996771, 10.001855 
1.7249909e+3, 1.344458e+2, -1987207.8, -1628152.1, 96715.26, -0.06580904, 0.43006977, -1603758.3, 18713.115, 0.039721623, 9.996735, 10.001478 
1.7250091e+3, 1.4444615e+2, -1921014.0, -1691408.5, -16926.664, 0.121944994, 0.38417596, -1690167.4, -165696.97, 0.019743169, 9.997117, 10.000199 
1.7250228e+3, 1.5444668e+2, -1684022.3, -1519450.9, 14509.635, 0.023916235, 0.39392757, -1518181.4, -91710.01, 0.006494274, 9.998038, 10.000262 
1.7250377e+3, 1.644484e+2, -1442680.1, -1141969.4, 33303.92, 0.023083352, 0.46005225, -1138325.1, 190131.48, 0.001032908, 9.998138, 10.002121 
1.7250544e+3, 1.7445132e+2, -1421231.0, -1046947.7, -44789.316, 0.16226082, 0.4978572, -1041662.5, 188762.44, 0.00003215152, 9.997477, 10.002412 
1.7250696e+3, 1.8445317e+2, -1432880.9, -1193831.0, -113868.82, 0.19392085, 0.52980274, -1148273.3, -15867.827, 0.0, 9.997534, 10.000713 
1.7250824e+3, 1.9445398e+2, -1155052.6, -997529.2, -86181.695, 0.06898376, 0.51555705, -959540.3, 74857.445, 0.0, 9.998729, 10.000803 
1.725095e+3, 2.044542e+2, -1061418.6, -1106640.1, -52059.363, -0.06350605, 0.55025864, -1027271.75, -90873.75, 0.0, 9.999573, 9.998987 
1.7251079e+3, 2.1445371e+2, -886027.56, -964334.0, -34626.86, -0.20279829, 0.5846378, -872912.25, -34504.473, 0.0, 10.000081, 9.999042 
1.7251219e+3, 2.2445258e+2, -686133.8, -765486.3, -28970.748, -0.20114258, 0.55623114, -676682.56, 63736.008, 0.0, 10.000562, 9.999497 
1.7251374e+3, 2.3445092e+2, -496127.1, -602286.44, -43316.254, -0.041096397, 0.40753174, -480695.8, 161732.55, 0.0, 10.001112, 9.999675 
1.7251517e+3, 2.4445027e+2, -435368.53, -645809.25, -14005.433, -0.02270961, 0.43333024, -434440.53, 109991.59, 0.0, 10.001367, 9.998589 
1.7251645e+3, 2.5445092e+2, -347315.5, -541511.75, -19205.826, -0.19248149, 0.61286086, -345434.28, 100993.67, 0.0000000000049057277, 10.001265, 9.998673 
1.7251787e+3, 2.6444924e+2, -312699.53, -542259.2, 11233.363, -0.27612227, 0.61483204, -312151.16, 36292.62, 0.0000011502509, 10.001115, 9.998072 
1.7251942e+3, 2.7444488e+2, -239919.56, -441794.5, -4156.9243, -0.25743014, 0.34403032, -239834.0, 10648.311, 0.000029088935, 10.000877, 9.998201 
1.7252097e+3, 2.8444263e+2, -85216.695, -321768.9, -9698.954, -0.1965318, 0.30659786, -84819.695, 67681.52, 0.00020043374, 10.001285, 9.998163 
1.725225e+3, 2.9444283e+2, 220248.53, -92907.26, -3414.1663, -0.11054612, 0.47145715, 220285.75, 274782.22, 0.00069488265, 10.002592, 9.998423 
1.7252392e+3, 3.0444026e+2, 392578.13, -80945.15, -16524.99, -0.093199916, 0.4160177, 393154.13, 393154.13, 0.0016016935, 10.003845, 9.997592 
1.7252523e+3, 3.1443572e+2, 630314.25, 186103.44, -30644.951, -0.16042441, 0.18466766, 632418.4, 632418.4, 0.0028259312, 10.004795, 9.998978 
1.734972e+3, 1.2442612e+2, -2069802.0, -1732291.8, -29765.047, 0.08633068, 0.11412519, -1729686.9, -9031.018, 0.06561491, 9.996847, 10.001387 
1.7349868e+3, 1.344298e+2, -2043699.6, -1732276.6, 101480.78, -0.18983573, 0.36196586, -1702126.9, -79498.34, 0.042436883, 9.99668, 10.000786 
1.7350067e+3, 1.444333e+2, -1858594.0, -1564526.9, 7872.805, 0.13272081, 0.63379836, -1564316.3, -39717.605, 0.021297567, 9.997131, 10.001058 
1.735023e+3, 1.5443249e+2, -1608195.8, -1357169.4, 54139.363, 0.21288641, 0.39998254, -1345990.8, 80615.57, 0.0071235094, 9.998024, 10.00138 
1.7350379e+3, 1.6443288e+2, -1558432.8, -1403384.4, 3550.953, 0.19317846, 0.35791513, -1403303.0, -74698.19, 0.0011691477, 9.998213, 10.000298 
1.7350516e+3, 1.7443448e+2, -1558938.9, -1342377.3, -64474.105, 0.111697026, 0.46331072, -1324635.8, -94041.125, 0.00004011834, 9.997506, 10.000375 
1.7350665e+3, 1.8443607e+2, -1373797.8, -1084466.8, -83486.086, 0.10774685, 0.5431348, -1062105.3, 70474.97, 0.0, 9.997588, 10.001437 
1.7350824e+3, 1.9443795e+2, -1102212.8, -873817.8, -37644.48, 0.17971316, 0.5501949, -867773.1, 166784.6, 0.0, 9.99867, 10.00168 
1.7350964e+3, 2.0443861e+2, -1026041.1, -1021634.7, -41299.09, 0.09703397, 0.5533339, -982480.06, -45928.848, 0.0, 9.999515, 9.999601 
1.7351083e+3, 2.1443772e+2, -855468.8, -883777.4, -10086.049, -0.16927189, 0.48389938, -852242.9, -13678.122, 0.0, 10.000002, 9.999634 
1.7351216e+3, 2.244373e+2, -712427.25, -791986.3, -16818.637, -0.2999478, 0.49847072, -709017.94, 31551.236, 0.0, 10.000439, 9.999374 
1.7351365e+3, 2.3443767e+2, -521589.47, -630883.0, -16536.725, -0.2527179, 0.56664133, -519142.2, 123417.86, 0.0, 10.001004, 9.99953 
1.7351511e+3, 2.4443665e+2, -461430.75, -661406.06, -23775.281, -0.2361954, 0.5640953, -458642.94, 85923.78, 0.0, 10.001203, 9.998563 
1.7351653e+3, 2.54434e+2, -366261.63, -547731.44, -13248.554, -0.25933728, 0.4154952, -365299.5, 81292.195, 0.000000000000012544113, 10.001125, 9.998698 
1.7351802e+3, 2.6443225e+2, -348888.0, -578821.44, -1941.2435, -0.24848282, 0.41485977, -348871.63, -261.8891, 0.0000010511417, 10.000949, 9.997901 
1.7351958e+3, 2.7443177e+2, -271460.78, -477511.25, -2238.3655, -0.18272908, 0.5470898, -271436.47, -20818.988, 0.000028849088, 10.000756, 9.99801 
1.7352113e+3, 2.8443018e+2, -56182.047, -233973.34, 25341.092, -0.17443408, 0.55683786, -52640.652, 99989.75, 0.00019664556, 10.001156, 9.998833 
1.7352264e+3, 2.9442713e+2, 248193.52, 2978.0525, 56548.887, -0.2536262, 0.3187223, 260605.9, 315256.22, 0.0006730319, 10.002425, 9.999164 
1.735242e+3, 3.044243e+2, 273133.22, -257318.84, 8321.807, -0.21438633, 0.24870743, 273263.75, 273263.75, 0.0015496872, 10.0035515, 9.9965105 
1.735257e+3, 3.144214e+2, 463046.6, -65465.176, 39955.56, -0.19823444, 0.28786653, 466050.2, 466050.2, 0.002746368, 10.004406, 9.9974165 
1.7449696e+3, 1.24412335e+2, -2015024.6, -1802473.3, -68612.695, 0.13200542, 0.21055397, -1782249.0, -61456.027, 0.06957688, 9.997642, 10.000527 
1.7449853e+3, 1.3441429e+2, -1869331.1, -1712502.5, 101972.45, -0.06030967, 0.34710672, -1662280.9, -39496.57, 0.045260757, 9.998146, 10.000219 
1.7450044e+3, 1.4441796e+2, -1703599.4, -1483314.9, 6424.697, 0.15064833, 0.66136366, -1483127.6, 41626.168, 0.022935338, 9.998168, 10.001121 
1.7450206e+3, 1.5441777e+2, -1660875.6, -1364136.8, -40421.516, 0.20629464, 0.47558206, -1358729.1, 68025.46, 0.0078018596, 9.997592, 10.001534 
1.7450356e+3, 1.6441825e+2, -1634679.8, -1452134.5, -50888.92, 0.18361418, 0.43877527, -1438906.5, -110155.07, 0.0013223152, 9.997737, 10.000197 
1.7450498e+3, 1.7441937e+2, -1333060.9, -1249065.8, 9798.252, 0.103844136, 0.51243633, -1247938.0, -17193.064, 0.000049909977, 9.999113, 10.000252 
1.7450649e+3, 1.844204e+2, -1103747.1, -988937.6, 41124.938, 0.08914224, 0.5581637, -975726.75, 157008.8, 0.0000000000000006446772, 9.999598, 10.0011215 
1.7450805e+3, 1.9442149e+2, -1070839.8, -897007.56, -17812.906, 0.1234791, 0.51479477, -895201.0, 139520.13, 0.0, 9.999045, 10.001339 
1.7450954e+3, 2.0442215e+2, -1082546.9, -1022786.94, -54169.973, 0.059090983, 0.5263956, -990802.56, -54087.668, 0.0, 9.99902, 9.999825 
1.7451087e+3, 2.144224e+2, -862503.1, -855741.25, -65753.81, -0.1328302, 0.5470598, -793281.5, 45436.207, 0.0, 9.999823, 9.999907 
1.7451227e+3, 2.2442244e+2, -695064.1, -773518.3, -67805.11, -0.23302445, 0.5873592, -655956.7, 84761.39, 0.0, 10.0005045, 9.999479 
1.7451377e+3, 2.3442233e+2, -509524.88, -615580.44, -63562.016, -0.22444835, 0.6008599, -479775.4, 162937.98, 0.0, 10.001041, 9.999623 
1.7451525e+3, 2.4442106e+2, -492783.66, -651775.25, -80467.15, -0.19642238, 0.56107146, -459166.5, 85554.87, 0.0, 10.000883, 9.998777 
1.7451668e+3, 2.5441846e+2, -531579.0, -605269.7, -77001.49, -0.16126731, 0.39528427, -483061.56, -36317.324, 0.0, 9.999889, 9.998899 
1.7451815e+3, 2.6441687e+2, -485573.3, -637220.2, 6690.92, -0.14776573, 0.39333487, -485278.7, -136518.17, 0.0000010008785, 9.999971, 9.997977 
1.745197e+3, 2.744166e+2, -151710.63, -414001.28, 10664.132, -0.17606825, 0.5448536, -151277.75, 99489.22, 0.00002996529, 10.001547, 9.99807 
1.745213e+3, 2.844152e+2, 113650.36, -153495.42, 36099.15, -0.1712848, 0.5714381, 118442.44, 271221.53, 0.00019663884, 10.002351, 9.998802 
1.7452298e+3, 2.9441217e+2, 189837.22, -42228.5, -16145.855, -0.12944318, 0.34616387, 190955.17, 245755.02, 0.00067006296, 10.002092, 9.999018 
1.7452465e+3, 3.0440933e+2, 186274.47, -281582.22, 2930.1426, -0.06891925, 0.2818276, 186292.81, 186292.81, 0.0015536589, 10.0028515, 9.996685 
1.7452607e+3, 3.1440684e+2, 556605.25, -21178.617, 63034.746, -0.30729157, 0.33067438, 563402.2, 563402.2, 0.0027788058, 10.005039, 9.997401 
1.754967e+3, 1.2440269e+2, -2122563.3, -2010328.6, -103487.17, 0.06568511, 0.7079613, -1948722.8, -227822.61, 0.07366958, 9.99759, 9.99912 
1.7549866e+3, 1.343995e+2, -1909902.9, -1788097.9, 127715.195, 0.25524342, 0.3957009, -1707507.4, -84570.33, 0.048192136, 9.9981165, 9.999712 
1.7550021e+3, 1.4440049e+2, -1748115.1, -1585094.3, -20990.564, 0.08720115, 0.5020482, -1582434.9, -57503.008, 0.024652572, 9.998207, 10.000401 
1.7550157e+3, 1.5440258e+2, -1719639.5, -1486921.9, -56891.93, -0.054996487, 0.6249845, -1473758.3, -46843.152, 0.008527423, 9.997593, 10.00069 
1.755031e+3, 1.6440438e+2, -1523868.9, -1226829.5, -15994.231, -0.07754849, 0.69447243, -1225970.8, 102926.625, 0.0014925194, 9.997755, 10.001738 
1.7550486e+3, 1.74406e+2, -1216372.5, -997547.5, 67043.45, 0.07330361, 0.64460146, -978640.44, 252236.02, 0.00006156021, 9.999077, 10.001994 
1.7550643e+3, 1.8440624e+2, -1194372.6, -1178888.6, 17955.654, 0.06175563, 0.5776758, -1167077.0, -34205.613, 0.0000000010737394, 9.999601, 9.999817 
1.755077e+3, 1.9440466e+2, -1181264.5, -1120870.9, -32277.418, -0.16062616, 0.41968006, -1106867.3, -71980.49, 0.0, 9.9990225, 9.999813 
1.7550914e+3, 2.0440488e+2, -1101870.6, -1056133.0, -36261.145, -0.24939297, 0.4773982, -1036131.56, -99243.74, 0.0, 9.998984, 9.999615 
1.7551084e+3, 2.1440762e+2, -883188.06, -878841.94, -30492.82, -0.1526891, 0.7574704, -850444.8, -11576.667, 0.0, 9.999731, 9.999795 
1.755125e+3, 2.2440785e+2, -691952.9, -739189.25, -53177.223, -0.075202025, 0.8109471, -657384.8, 83481.875, 0.0, 10.0003805, 9.999777 
1.7551407e+3, 2.3440504e+2, -502874.34, -577483.3, -33511.594, -0.032410853, 0.5209038, -490032.53, 152854.34, 0.0, 10.000934, 9.999939 
1.7551553e+3, 2.4440365e+2, -488104.44, -611972.6, -120483.73, -0.0070814975, 0.43335104, -414568.4, 130326.85, 0.0, 10.000751, 9.999117 
1.7551686e+3, 2.544042e+2, -516557.72, -558141.44, -108760.34, 0.026264144, 0.54449505, -426619.66, 20267.629, 0.0, 9.999824, 9.999254 
1.7551826e+3, 2.6440287e+2, -477396.03, -609775.9, 51421.22, -0.052008044, 0.5469043, -459769.2, -110870.984, 0.00000094846536, 9.99992, 9.998192 
1.7551973e+3, 2.7439955e+2, -150009.73, -380026.25, 79551.46, -0.2998189, 0.36379638, -125177.6, 125752.32, 0.000030532858, 10.001424, 9.998357 
1.7552145e+3, 2.843978e+2, 39549.684, -276588.9, 23262.717, -0.2744231, 0.37313816, 41252.277, 194198.77, 0.00019885889, 10.00221, 9.998028 
1.7552347e+3, 2.943978e+2, 104415.48, -188950.83, -11373.608, 0.1483537, 0.5333027, 104855.766, 159802.28, 0.0006867094, 10.00196, 9.998074 
1.7552522e+3, 3.043954e+2, 225475.31, -144649.28, 68043.45, 0.2002952, 0.52146846, 237587.97, 237587.97, 0.0016096956, 10.002623, 9.99773 
1.7552628e+3, 3.143926e+2, 553312.1, 74969.88, 145673.4, -0.6199891, 0.40559337, 594183.1, 594183.1, 0.002898732, 10.0046215, 9.998255 
1.7649652e+3, 1.2438803e+2, -2101902.8, -1952244.9, -89825.21, 0.14745195, 0.8170052, -1910163.9, -189110.17, 0.07790593, 9.997503, 9.999561 
1.7649858e+3, 1.3438506e+2, -1979212.4, -1789685.1, 103588.2, 0.4014133, 0.50204366, -1744054.1, -120970.51, 0.05123237, 9.997486, 10.0000105 
1.7649986e+3, 1.443853e+2, -1930099.8, -1705121.5, 17030.303, -0.030559862, 0.5273842, -1703839.6, -178755.73, 0.026445003, 9.997104, 10.000108 
1.7650132e+3, 1.5438712e+2, -1724002.0, -1530777.3, -123.09072, -0.072045475, 0.6628075, -1530777.3, -103705.95, 0.009296644, 9.997758, 10.000307 
1.7650293e+3, 1.6438885e+2, -1488451.5, -1207595.6, 38996.918, -0.029521644, 0.7459842, -1202281.5, 126772.984, 0.0016790463, 9.998, 10.001745 
1.7650473e+3, 1.7439055e+2, -1427430.1, -1094664.8, -21423.178, 0.10985279, 0.698942, -1093291.3, 137740.14, 0.000074904594, 9.997613, 10.002027 
1.7650633e+3, 1.8439056e+2, -1457973.6, -1344582.0, -90336.78, 0.07905737, 0.6266314, -1294623.5, -161595.45, 0.000000009428086, 9.997957, 9.999477 
1.7650759e+3, 1.9438852e+2, -1128140.6, -1134655.9, -71028.414, -0.18085343, 0.45805606, -1060295.1, -25245.918, 0.0, 9.999554, 9.99947 
1.7650907e+3, 2.043885e+2, -927536.5, -953077.94, -20385.785, -0.27315572, 0.5034075, -916251.6, 20800.45, 0.0, 10.000108, 9.999777 
1.765108e+3, 2.1439128e+2, -921069.94, -875568.5, -6734.1387, -0.15326333, 0.7696668, -874592.75, -35563.37, 0.0, 9.999387, 9.99998 
1.7651252e+3, 2.243915e+2, -845894.9, -810585.3, 8617.783, -0.01573737, 0.8131092, -808594.25, -67567.1, 0.0, 9.999316, 9.999793 
1.7651428e+3, 2.3438868e+2, -612737.4, -627611.2, -10344.49, 0.12526682, 0.5171616, -607433.94, 35615.74, 0.0, 10.000169, 9.999958 
1.7651576e+3, 2.4438748e+2, -419012.16, -558227.5, -122473.28, 0.121865936, 0.4413949, -347747.78, 197308.9, 0.0, 10.001141, 9.999303 
1.7651688e+3, 2.5438854e+2, -141741.83, -355749.47, -134973.61, -0.05906657, 0.59059983, -76502.52, 370540.1, 0.0, 10.00231, 9.999448 
1.7651829e+3, 2.6438734e+2, -44800.87, -382348.8, 46075.25, -0.14698848, 0.5863239, -38624.617, 310426.63, 0.0000007067664, 10.002826, 9.998346 
1.7652008e+3, 2.7438346e+2, 15125.888, -287724.38, 48879.83, -0.15550487, 0.33555692, 22819.605, 273906.2, 0.00002910251, 10.0025, 9.998477 
1.7652185e+3, 2.8438154e+2, 58181.43, -296137.75, 2076.0237, -0.098065384, 0.3311831, 58193.594, 211299.17, 0.00020251243, 10.002457, 9.997775 
1.7652367e+3, 2.9438192e+2, 243022.84, -158693.28, -22361.834, 0.09532589, 0.56434363, 244263.8, 299368.7, 0.0007167565, 10.00307, 9.997744 
1.7652546e+3, 3.0437943e+2, 420389.56, 422.07355, 122443.78, 0.13168791, 0.5350877, 453481.22, 453481.22, 0.0016880307, 10.003743, 9.998194 
1.7652684e+3, 3.1437686e+2, 515213.53, 121907.16, 81019.88, -0.48259076, 0.404863, 531249.56, 531249.56, 0.0030285334, 10.004058, 9.998869 
1.7749646e+3, 1.2436857e+2, -1916432.0, -1592267.8, 60647.418, 0.28133714, 0.5542837, -1581292.9, 139958.8, 0.08231803, 9.9975605, 10.002088 
1.7749825e+3, 1.3437104e+2, -1893629.4, -1617393.0, 82225.9, 0.30304408, 0.6686427, -1594770.0, 28453.104, 0.054393712, 9.997493, 10.001203 
1.7749934e+3, 1.4437212e+2, -1918368.8, -1685414.3, 19818.563, -0.28571147, 0.70669407, -1683740.3, -158528.25, 0.02831169, 9.997119, 10.000237 
1.7750126e+3, 1.5437143e+2, -1722245.4, -1523169.5, 34058.016, 0.07638453, 0.58602244, -1517504.0, -90281.43, 0.010105246, 9.997742, 10.000365 
1.7750303e+3, 1.6437177e+2, -1594222.1, -1434367.0, 20256.752, 0.24601044, 0.60149723, -1431840.0, -102618.625, 0.0018804772, 9.998032, 10.000172 
1.7750457e+3, 1.743731e+2, -1548270.5, -1342804.1, -31986.008, 0.1553275, 0.6856403, -1337939.9, -106731.22, 0.00008970714, 9.997607, 10.000323 
1.7750613e+3, 1.8437348e+2, -1409752.0, -1257378.0, -43441.438, 0.06640722, 0.7134964, -1245863.1, -112658.516, 0.000000028818846, 9.998005, 10.000054 
1.7750774e+3, 1.9437297e+2, -1079275.0, -1028502.1, -3767.4407, -0.010057347, 0.6245525, -1028224.06, 6985.2036, 0.0, 9.999529, 10.000214 
1.7750926e+3, 2.043729e+2, -899039.56, -882870.7, -48729.355, -0.100846864, 0.6006356, -841559.7, 95648.984, 0.0, 10.000064, 10.000276 
1.775107e+3, 2.1437342e+2, -906234.1, -817592.44, -28906.219, -0.19593626, 0.5930039, -808999.1, 30201.81, 0.0, 9.999279, 10.0004225 
1.7751236e+3, 2.2437347e+2, -883614.4, -866186.5, 29652.098, -0.118327275, 0.60945183, -843994.5, -102795.44, 0.0, 9.999207, 9.99947 
1.7751437e+3, 2.343731e+2, -649130.2, -682725.25, 29366.95, 0.19267651, 0.5916808, -632096.1, 11106.708, 0.0, 10.000072, 9.999631 
1.7751588e+3, 2.4437244e+2, -440444.44, -566205.56, -86980.31, 0.11875686, 0.58483917, -395995.88, 149211.23, 0.0, 10.000984, 9.999322 
1.7751673e+3, 2.5437167e+2, -160256.66, -361144.06, -83416.35, -0.45098677, 0.545122, -130135.336, 317074.25, 0.0, 10.002173, 9.999474 
1.7751826e+3, 2.6437026e+2, -65029.332, -391234.47, 30073.379, -0.48582146, 0.51838344, -62279.99, 286939.66, 0.00000032366296, 10.002681, 9.998357 
1.7752065e+3, 2.7436826e+2, -9278.323, -297668.72, 44370.332, 0.15925445, 0.45182142, -2606.0908, 248631.8, 0.00002512301, 10.002338, 9.998481 
1.7752247e+3, 2.8436637e+2, 38019.563, -307864.6, 10699.626, 0.24442208, 0.45649987, 38350.23, 191606.42, 0.00020058491, 10.002313, 9.997771 
1.7752355e+3, 2.9436466e+2, 224538.89, -161357.05, 12903.514, -0.34106678, 0.47015274, 224969.88, 280244.25, 0.0007353983, 10.0029125, 9.997805 
1.7752537e+3, 3.0436128e+2, 379539.2, -24394.563, 130466.79, -0.35516882, 0.35115746, 418014.0, 418014.0, 0.0017302035, 10.003497, 9.998136 
1.7752768e+3, 3.143613e+2, 485527.97, 177844.8, 90291.67, -0.070945784, 0.48087975, 510067.47, 510067.47, 0.0030646205, 10.00361, 9.999444 
1.7849618e+3, 1.243517e+2, -1914652.1, -1501750.8, 192400.1, 0.2814116, 0.54898185, -1425996.4, 295423.94, 0.08696164, 9.997205, 10.002945 
1.784979e+3, 1.3435495e+2, -2067948.8, -1660787.3, -25921.957, 0.25193757, 0.7095957, -1659143.5, -35759.88, 0.057701517, 9.996141, 10.001542 
1.7849904e+3, 1.4435616e+2, -2061408.9, -1717424.9, -19745.99, -0.22390932, 0.7279889, -1716295.1, -190924.86, 0.030258754, 9.995983, 10.0005665 
1.7850116e+3, 1.5435553e+2, -1639532.9, -1455868.5, 7980.422, 0.18319, 0.5849411, -1455522.4, -28143.486, 0.0109521225, 9.998181, 10.000621 
1.7850296e+3, 1.6435567e+2, -1440689.4, -1421003.3, -3401.9707, 0.31981844, 0.58994937, -1420432.0, -91051.945, 0.0020959692, 9.999345, 9.999625 
1.7850438e+3, 1.7435636e+2, -1339902.1, -1311914.8, 2619.4834, 0.1357591, 0.6692364, -1311671.6, -80295.81, 0.000105867584, 9.999334, 9.9997015 
1.7850594e+3, 1.843569e+2, -1244532.4, -1140767.6, 63411.36, 0.0473545, 0.73107725, -1110718.4, 22652.92, 0.0000000562377, 9.998994, 10.000376 
1.785077e+3, 1.943577e+2, -1216706.9, -1047664.56, 66186.91, 0.058188256, 0.73258007, -1024833.3, 10528.863, 0.0, 9.99839, 10.000624 
1.7850931e+3, 2.0435752e+2, -1124915.9, -1023217.5, -12410.996, 0.015067972, 0.69013464, -1021724.8, -84363.47, 0.0, 9.998647, 10.000007 
1.7851076e+3, 2.1435617e+2, -802035.0, -803668.4, -64474.973, -0.095676415, 0.5282498, -738371.56, 100999.1, 0.0, 10.000143, 10.000115 
1.7851241e+3, 2.2435589e+2, -691465.0, -754527.25, -23379.963, -0.06465578, 0.52311677, -683742.6, 57628.51, 0.0, 10.000452, 9.999639 
1.785143e+3, 2.343572e+2, -753966.75, -712054.4, -6586.2974, 0.14009494, 0.6572661, -711043.75, -67685.2, 0.0, 9.9992695, 9.999817 
1.7851585e+3, 2.4435669e+2, -681341.56, -712486.75, -38701.918, 0.06714906, 0.6698476, -655196.75, -109835.086, 0.0, 9.999455, 9.999052 
1.7851697e+3, 2.543541e+2, -293332.3, -464302.16, -71356.484, -0.37731928, 0.47811732, -267464.56, 179918.36, 0.0, 10.00141, 9.999138 
1.7851861e+3, 2.643524e+2, -105263.3, -428976.3, -23093.531, -0.39379138, 0.44892156, -103624.12, 245773.44, 0.00000018370703, 10.002475, 9.9982 
1.7852084e+3, 2.7435195e+2, 12959.796, -310333.94, -42568.82, 0.111314125, 0.55696326, 18470.979, 269874.44, 0.000020759246, 10.0025625, 9.998297 
1.7852262e+3, 2.8435043e+2, 122712.21, -198754.8, -25723.379, 0.16635022, 0.582467, 124757.555, 278175.28, 0.00019242667, 10.002638, 9.998348 
1.7852385e+3, 2.9434785e+2, 250936.98, -78235.19, -5313.093, -0.31621698, 0.44846123, 251022.72, 306462.78, 0.00073228375, 10.00281, 9.998416 
1.785257e+3, 3.043445e+2, 324223.03, -115345.29, 147611.81, -0.3411704, 0.326943, 369192.2, 369192.2, 0.0017134007, 10.0033865, 9.9975605 
1.7852809e+3, 3.1434548e+2, 560289.2, 165071.27, -25838.295, -0.0513329, 0.6268525, 561971.25, 561971.25, 0.0029743498, 10.004301, 9.99903 
1.7949572e+3, 1.2433756e+2, -1970117.0, -1623005.5, 212560.9, 0.06613162, 0.798835, -1522146.0, 199412.19, 0.09190124, 9.997252, 10.002043 
1.794974e+3, 1.3433684e+2, -2106819.5, -1743664.6, -77904.984, 0.15279365, 0.6250874, -1727657.8, -104093.15, 0.06119029, 9.996145, 10.000973 
1.7949897e+3, 1.4433762e+2, -2029498.3, -1655444.4, 33693.023, 0.08413296, 0.6089079, -1652433.8, -126876.89, 0.03230053, 9.995999, 10.000985 
1.7950098e+3, 1.5433948e+2, -1612998.0, -1392301.1, 96722.95, 0.18592307, 0.6697105, -1355911.4, 71628.125, 0.011841973, 9.99815, 10.001073 
1.7950273e+3, 1.6434053e+2, -1400997.8, -1350300.0, -7727.9434, 0.119977295, 0.71999466, -1349148.1, -19618.236, 0.0023264778, 9.99938, 10.000103 
1.7950419e+3, 1.7434023e+2, -1303106.9, -1239207.1, 5871.4634, -0.0076503456, 0.6540487, -1238672.0, -7138.4272, 0.00012352158, 9.999342, 10.000202 
1.7950577e+3, 1.8434079e+2, -1237371.5, -1129258.8, 33929.754, -0.055106137, 0.68514025, -1119492.6, 14035.366, 0.000000085167756, 9.999012, 10.000444 
1.7950746e+3, 1.9434266e+2, -1222900.8, -1051099.8, 47953.965, -0.034137875, 0.79244417, -1038621.0, -3112.7966, 0.0, 9.998351, 10.000619 
1.7950918e+3, 2.0434241e+2, -1200157.3, -1170910.4, 29358.816, 0.00003544661, 0.7884355, -1152734.6, -215224.88, 0.0, 9.998605, 9.999014 
1.7951097e+3, 2.1433955e+2, -888572.5, -963698.44, -1352.4479, 0.082046844, 0.5803153, -888548.1, -49010.297, 0.0, 10.000052, 9.9990635 
1.7951259e+3, 2.2433871e+2, -676527.44, -692642.4, -67635.164, 0.06723395, 0.55162615, -616471.5, 125072.35, 0.0, 10.000321, 10.000125 
1.79514e+3, 2.3434076e+2, -728829.4, -633895.0, -44100.535, -0.082201615, 0.700769, -616570.3, 26948.451, 0.0, 9.999164, 10.0004015 
1.7951563e+3, 2.4434009e+2, -737891.75, -804483.44, 20817.475, -0.10214212, 0.68993783, -731919.5, -186397.45, 0.0, 9.999343, 9.998477 
1.7951757e+3, 2.5433594e+2, -358103.75, -567306.25, 9896.491, 0.06585844, 0.4074809, -357636.63, 89925.016, 0.0, 10.001282, 9.998489 
1.7951928e+3, 2.643339e+2, -152683.75, -495188.13, -22585.752, 0.020704875, 0.39500114, -151200.8, 198382.98, 0.00000013255313, 10.002326, 9.997821 
1.7952065e+3, 2.7433476e+2, -30748.363, -366351.16, -29576.229, -0.3406776, 0.6631908, -28161.785, 223419.84, 0.0000188634, 10.00242, 9.997975 
1.7952235e+3, 2.8433394e+2, 170548.4, -69430.76, -29736.107, -0.38802245, 0.73180664, 174178.14, 327766.34, 0.00018750537, 10.002497, 9.99931 
1.7952451e+3, 2.9433146e+2, 302744.66, 75091.53, 14881.062, 0.03959906, 0.49789435, 303713.25, 359315.63, 0.00072388566, 10.002622, 9.999556 
1.7952643e+3, 3.0432898e+2, 190741.47, -333675.88, 170078.02, 0.017189356, 0.4678719, 241070.67, 241070.67, 0.001668216, 10.0031185, 9.996197 
1.7952804e+3, 3.143292e+2, 435473.34, -1893.1973, 26050.225, -0.5569899, 0.82999545, 437019.47, 437019.47, 0.0028205211, 10.003926, 9.998045 
1.8049538e+3, 1.243201e+2, -2245309.3, -1766325.9, 210189.86, 0.08933628, 0.73650736, -1687170.4, 34555.03, 0.097200245, 9.995458, 10.00183 
1.8049704e+3, 1.3431992e+2, -1938940.5, -1675798.5, -55870.82, 0.10089475, 0.6303352, -1664427.4, -40697.31, 0.06490086, 9.997353, 10.000862 
1.8049888e+3, 1.4432086e+2, -1684418.8, -1491566.8, 99216.01, 0.27406275, 0.63151526, -1449638.9, 76083.76, 0.034457777, 9.998373, 10.000975 
1.8050073e+3, 1.5432288e+2, -1622595.0, -1406167.5, 111277.81, 0.11526808, 0.713338, -1359162.1, 68541.305, 0.0127833225, 9.998123, 10.000987 
1.8050241e+3, 1.6432396e+2, -1590848.4, -1402236.0, -34584.03, -0.04503393, 0.7579709, -1396094.6, -66401.875, 0.0025744103, 9.997929, 10.000442 
1.8050405e+3, 1.7432387e+2, -1460804.9, -1267175.4, -47785.61, -0.003019863, 0.6729315, -1256024.5, -24331.168, 0.00014305822, 9.998078, 10.00061 
1.8050572e+3, 1.8432426e+2, -1317951.1, -1211807.3, -18441.209, 0.024572907, 0.6845614, -1208694.5, -75005.27, 0.00000010953618, 9.998628, 10.000071 
1.8050733e+3, 1.9432549e+2, -1044421.56, -1013018.5, -51026.883, -0.05170249, 0.76950276, -975332.0, 60345.42, 0.0, 9.999778, 10.000196 
1.8050906e+3, 2.0432517e+2, -1019928.9, -1097455.9, -43589.688, -0.036359243, 0.7876667, -1000360.0, -62679.125, 0.0, 9.999891, 9.998902 
1.8051094e+3, 2.1432298e+2, -1083946.5, -1065844.1, -18390.635, 0.1310292, 0.6570201, -1054398.0, -214694.98, 0.0, 9.998746, 9.998987 
1.805126e+3, 2.24322e+2, -889457.7, -806331.5, -47143.25, 0.1350785, 0.6210097, -785045.75, -43335.492, 0.0, 9.998922, 10.000009 
1.80514e+3, 2.3432276e+2, -486868.03, -536286.44, -89098.32, -0.094516754, 0.6571367, -419116.13, 224580.45, 0.0, 10.000904, 10.000233 
1.8051569e+3, 2.4432181e+2, -418875.22, -668397.75, -23796.91, -0.08676507, 0.63575226, -416626.0, 129076.86, 0.0, 10.001613, 9.998322 
1.8051782e+3, 2.5431874e+2, -451299.88, -634818.2, -19684.393, 0.23482898, 0.48225534, -449212.25, -1478.3217, 0.0, 10.000726, 9.998305 
1.8051958e+3, 2.6431713e+2, -346954.66, -550053.6, 12282.209, 0.17377886, 0.51021004, -346214.6, 3537.8225, 0.00000007008213, 10.00084, 9.998155 
1.805208e+3, 2.7431762e+2, -24251.54, -327520.4, 33762.44, -0.42655492, 0.71022046, -20538.287, 231214.81, 0.000018211342, 10.002315, 9.998298 
1.8052252e+3, 2.8431648e+2, 221524.06, -73913.28, 2918.4746, -0.48736832, 0.7404909, 221552.89, 375315.47, 0.00018362651, 10.002958, 9.999062 
1.805249e+3, 2.943138e+2, 293239.5, 35719.95, -76082.46, 0.17505893, 0.52535474, 314037.8, 369816.1, 0.0007097157, 10.002681, 9.99927 
1.8052678e+3, 3.0431184e+2, 109431.65, -338351.88, 116544.51, 0.11527514, 0.54349816, 137948.58, 137948.58, 0.0016129952, 10.002408, 9.996505 
1.8052837e+3, 3.143113e+2, 160622.64, -142773.27, 53202.76, -0.5106854, 0.8195983, 169681.66, 169681.66, 0.0026757282, 10.002003, 9.998042 
1.8149504e+3, 1.2429897e+2, -2218435.3, -1715662.9, 109398.76, 0.17740597, 0.32824525, -1692890.1, 29035.23, 0.10291468, 9.995467, 10.002179 
1.8149671e+3, 1.3430415e+2, -1910246.1, -1610371.1, 31092.58, 0.014842052, 0.723446, -1607181.1, 16699.08, 0.06887483, 9.997332, 10.001327 
1.8149874e+3, 1.4430588e+2, -1702198.1, -1542354.0, 87276.875, 0.260835, 0.7914172, -1503934.3, 21933.11, 0.036753505, 9.998425, 10.000599 
1.8150035e+3, 1.5430567e+2, -1656784.9, -1486249.6, 109127.73, -0.09783864, 0.7088995, -1433027.4, -5156.388, 0.01378539, 9.998154, 10.000424 
1.81502e+3, 1.6430604e+2, -1575361.0, -1378815.1, -39720.164, -0.27016473, 0.7063347, -1371091.5, -41223.883, 0.002842686, 9.997963, 10.000586 
1.8150398e+3, 1.7430723e+2, -1446731.6, -1239666.1, -35400.246, 0.09615603, 0.7268472, -1233781.3, -1926.1041, 0.00016504708, 9.9980755, 10.000805 
1.815058e+3, 1.843073e+2, -1371374.1, -1322176.3, 15579.939, 0.21719079, 0.73252654, -1317657.5, -183802.38, 0.00000012908751, 9.998627, 9.999313 
1.8150732e+3, 1.943062e+2, -1104589.5, -1134009.3, -1143.939, -0.062555656, 0.6680268, -1104545.0, -68675.516, 0.0, 9.999762, 9.999373 
1.8150893e+3, 2.0430575e+2, -975915.0, -997554.6, -87492.96, -0.1655153, 0.68413985, -898575.4, 39299.6, 0.0, 9.999853, 9.999606 
1.8151069e+3, 2.1430635e+2, -1038891.6, -953509.6, -54932.426, 0.002374598, 0.7476594, -926629.9, -86762.4, 0.0, 9.998663, 9.999799 
1.8151246e+3, 2.2430567e+2, -956964.0, -921184.0, 13111.184, 0.07680372, 0.7328858, -916893.94, -175022.61, 0.0, 9.998808, 9.999279 
1.815142e+3, 2.343034e+2, -561622.2, -668600.75, -4159.0605, 0.025139313, 0.55036795, -561460.75, 82429.086, 0.0, 10.000804, 9.999373 
1.8151598e+3, 2.4430208e+2, -430531.22, -665316.7, -55542.227, 0.021977652, 0.5349703, -418054.8, 127846.766, 0.0, 10.001489, 9.998404 
1.8151776e+3, 2.5430232e+2, -447750.8, -609056.3, -43484.117, 0.09107517, 0.68884826, -436775.3, 11126.014, 0.0, 10.000647, 9.998518 
1.8151952e+3, 2.643019e+2, -303655.56, -435430.63, 55045.598, 0.012588842, 0.7812785, -283687.5, 66218.75, 0.0000000874347, 10.000728, 9.998999 
1.8152122e+3, 2.7430055e+2, 12671.556, -210484.19, 98792.87, -0.24804564, 0.7057724, 50122.715, 302041.4, 0.00001648955, 10.0021515, 9.999174 
1.8152305e+3, 2.8429812e+2, 87473.92, -314825.16, -13317.378, -0.26586115, 0.6386523, 87914.29, 241854.2, 0.00017232615, 10.002783, 9.997497 
1.8152502e+3, 2.9429495e+2, 168767.86, -202275.39, -71913.33, 0.018297972, 0.5335923, 182218.1, 238184.84, 0.0006746177, 10.002585, 9.99768 
1.815268e+3, 3.0429327e+2, 184947.17, -131482.94, 90360.734, -0.14162228, 0.5825962, 208932.73, 208932.73, 0.0015412993, 10.002205, 9.99802 
1.8152887e+3, 3.1428966e+2, 172332.34, -1887.1233, 101544.0, -0.24347208, 0.3788573, 219010.84, 219010.84, 0.002564587, 10.0015545, 9.999198 
1.8249469e+3, 1.2428106e+2, -2034396.3, -1615801.6, -9400.287, 0.21642298, 0.33273292, -1615590.6, 106510.31, 0.10907774, 9.99661, 10.002386 
1.8249631e+3, 1.3428643e+2, -1977613.5, -1643488.6, -12468.183, -0.07326786, 0.74057573, -1643024.0, -18971.846, 0.07313931, 9.996852, 10.001329 
1.8249843e+3, 1.4428763e+2, -1890903.1, -1654711.8, -612.34985, 0.18627894, 0.76325727, -1654710.3, -128666.45, 0.039204508, 9.99724, 10.000388 
1.8250015e+3, 1.5428689e+2, -1766478.4, -1567606.3, 19323.41, -0.07732763, 0.65351844, -1565746.1, -137692.75, 0.014855209, 9.997532, 10.000164 
1.8250184e+3, 1.6428708e+2, -1580229.6, -1371321.3, -92441.45, -0.21371414, 0.64278454, -1336290.3, -6237.9224, 0.0031336718, 9.997879, 10.000677 
1.8250383e+3, 1.7428865e+2, -1379201.3, -1190082.1, -103600.65, 0.13023166, 0.6889138, -1144375.5, 87660.23, 0.00019006866, 9.998466, 10.000953 
1.825057e+3, 1.8428916e+2, -1351212.0, -1292635.8, -6820.4653, 0.26497853, 0.719306, -1291852.0, -157819.75, 0.00000015151502, 9.998687, 9.999481 
1.825073e+3, 1.9428842e+2, -1270767.3, -1193278.0, 36936.652, 0.009922056, 0.6783723, -1178492.6, -142448.34, 0.0, 9.99855, 9.99954 
1.8250893e+3, 2.0428826e+2, -1084869.4, -1016416.3, -29528.533, -0.10317384, 0.6975808, -1005438.94, -67391.66, 0.0, 9.998975, 9.999887 
1.8251061e+3, 2.1428877e+2, -796468.7, -804097.06, -51074.184, -0.012313146, 0.72466576, -749066.44, 90972.26, 0.0, 10.000194, 10.000081 
1.8251242e+3, 2.2428812e+2, -694838.6, -846816.5, 51226.813, 0.06312514, 0.7159582, -679184.25, 62858.766, 0.0, 10.000818, 9.998827 
1.8251435e+3, 2.3428603e+2, -613076.3, -746141.7, 45157.96, 0.09984669, 0.6002038, -599198.5, 44864.273, 0.0, 10.000679, 9.9989 
1.8251616e+3, 2.442847e+2, -487062.88, -680165.0, -4353.6084, 0.08810642, 0.6040852, -486964.78, 59110.5, 0.0, 10.001049, 9.998508 
1.8251781e+3, 2.5428462e+2, -226379.63, -485858.6, -12387.502, 0.0029257296, 0.7118062, -225789.6, 222286.1, 0.0, 10.002097, 9.99866 
1.8251958e+3, 2.6428378e+2, -102101.086, -370937.56, 61318.934, -0.072260626, 0.7706904, -88775.375, 261307.86, 0.00000011582431, 10.002265, 9.998697 
1.825215e+3, 2.7428192e+2, -124674.83, -321556.66, -6340.3237, -0.12879704, 0.6841377, -124470.86, 127630.46, 0.000015405387, 10.001386, 9.998789 
1.8252344e+3, 2.8427935e+2, -90814.44, -437574.94, -82515.85, -0.10645054, 0.63749653, -72180.164, 81945.74, 0.0001600689, 10.001729, 9.997156 
1.8252526e+3, 2.9427654e+2, 304185.88, -177342.98, -76032.41, -0.056386832, 0.6117352, 315906.0, 372058.22, 0.0006309656, 10.003691, 9.997321 
1.8252695e+3, 3.0427483e+2, 468325.72, 82350.4, 52282.074, -0.27204707, 0.64710563, 475282.2, 475282.2, 0.0014656942, 10.0038395, 9.998694 
1.8252927e+3, 3.1427035e+2, 254598.22, 28595.521, -24010.32, -0.0012323066, 0.29664007, 257120.89, 257120.89, 0.0024889566, 10.002109, 9.999175 
1.834942e+3, 1.24266356e+2, -2027672.0, -1609912.9, -96152.5, 0.022573814, 0.7296076, -1588844.8, 133408.17, 0.11569034, 9.996634, 10.002442 
1.8349588e+3, 1.3426702e+2, -2006480.0, -1699231.4, 11923.201, -0.21572168, 0.6920774, -1698769.4, -74525.97, 0.07769921, 9.996844, 10.000943 
1.8349794e+3, 1.4426626e+2, -1896283.9, -1673242.0, 6260.586, -0.047661886, 0.55305886, -1673066.4, -146816.13, 0.04181763, 9.997269, 10.000249 
1.835001e+3, 1.5426657e+2, -1765453.4, -1569561.8, 38925.082, 0.10191895, 0.54929614, -1562110.5, -133860.3, 0.015997248, 9.997541, 10.00015 
1.8350191e+3, 1.6426706e+2, -1570987.3, -1358120.9, -81616.49, 0.052941576, 0.5656774, -1330430.0, -183.14067, 0.0034491862, 9.997906, 10.000754 
1.8350361e+3, 1.7426805e+2, -1371662.9, -1179232.8, -77066.625, 0.04211706, 0.5468809, -1152173.4, 80062.89, 0.00021871291, 9.998481, 10.001023 
1.835054e+3, 1.8426959e+2, -1276809.6, -1138917.0, -16379.317, 0.0818836, 0.6292019, -1136998.1, -2775.6375, 0.00000018976193, 9.9986925, 10.000532 
1.8350726e+3, 1.9427209e+2, -1198091.6, -1034808.0, 38400.1, 0.10209541, 0.7962401, -1026228.1, 9974.48, 0.0, 9.998515, 10.000646 
1.8350904e+3, 2.0427252e+2, -1100168.1, -1036820.1, 5343.663, 0.07580336, 0.8242927, -1036372.5, -98173.61, 0.0, 9.998923, 9.999775 
1.8351068e+3, 2.1427037e+2, -826414.9, -842853.75, -689.89056, 0.019055622, 0.6059934, -826386.0, 13829.893, 0.0, 10.000095, 9.999862 
1.8351246e+3, 2.2426943e+2, -728472.0, -884183.7, 43173.8, 0.013900022, 0.5926899, -717302.5, 24921.387, 0.0, 10.000676, 9.998641 
1.835144e+3, 2.342703e+2, -641961.2, -777676.2, 48159.242, 0.07736211, 0.7890638, -626608.4, 17610.21, 0.0, 10.000558, 9.998744 
1.8351625e+3, 2.4426925e+2, -499706.0, -671934.94, 24555.357, 0.052386258, 0.82275105, -496273.44, 49954.438, 0.0, 10.000896, 9.998643 
1.8351793e+3, 2.542658e+2, -237867.16, -479344.84, 35581.594, -0.09221981, 0.5812965, -232733.38, 215522.16, 0.0, 10.001973, 9.998766 
1.8351972e+3, 2.642632e+2, -223733.55, -603444.6, 26898.678, -0.1731372, 0.5314937, -221837.52, 128442.41, 0.000000090536304, 10.002164, 9.997155 
1.8352166e+3, 2.7426183e+2, -248982.47, -560801.0, -25263.66, -0.13932107, 0.6541266, -246948.86, 5351.107, 0.00001528185, 10.0013, 9.997188 
1.8352364e+3, 2.8426006e+2, -69708.27, -362863.2, -26797.637, -0.09710281, 0.74505454, -67278.805, 87041.66, 0.00015262204, 10.001587, 9.997742 
1.8352556e+3, 2.942584e+2, 330652.63, -72088.19, 9895.242, -0.13464059, 0.75241697, 330895.63, 387231.5, 0.000595642, 10.003488, 9.998134 
1.8352725e+3, 3.0425662e+2, 399982.13, 3995.5105, -18178.123, -0.391727, 0.7552564, 400814.84, 400814.84, 0.0014012363, 10.003561, 9.998289 
1.8352944e+3, 3.1425422e+2, 108003.16, -199727.78, 7481.114, -0.083613664, 0.64546496, 108184.914, 108184.914, 0.0024328914, 10.00179, 9.99775 
1.8449377e+3, 1.2424785e+2, -2275075.3, -1731786.5, -138522.3, 0.022616992, 0.850945, -1698506.3, 23931.66, 0.12272786, 9.995014, 10.002293 
1.8449563e+3, 1.3424751e+2, -2068532.4, -1726285.3, -13173.459, -0.11994777, 0.7087625, -1725778.9, -101344.38, 0.08254445, 9.996437, 10.000943 
1.8449765e+3, 1.4424534e+2, -1894179.8, -1662216.3, -4150.464, -0.05000876, 0.42773655, -1662142.0, -135688.0, 0.04459436, 9.99723, 10.000348 
1.8449993e+3, 1.5424708e+2, -1784494.0, -1551732.0, 24333.121, 0.20619929, 0.54361683, -1549215.4, -120773.62, 0.017215712, 9.997296, 10.000391 
1.8450181e+3, 1.6424839e+2, -1626950.8, -1346904.9, -52307.53, 0.19281566, 0.6162612, -1337453.8, -7023.4355, 0.0037916328, 9.997367, 10.001091 
1.8450342e+3, 1.7424929e+2, -1460183.8, -1182469.8, -41062.03, 0.04228558, 0.5545883, -1176525.6, 55893.42, 0.00025177147, 9.997711, 10.001371 
1.8450518e+3, 1.8425086e+2, -1356983.9, -1148162.0, 4361.784, 0.027204653, 0.6071426, -1148070.9, -13666.908, 0.00000025167606, 9.998015, 10.000793 
1.8450712e+3, 1.9425341e+2, -1189543.3, -1002709.25, -19752.975, 0.10795763, 0.75636685, -1000643.7, 35738.836, 0.0, 9.998444, 10.000906 
1.8450896e+3, 2.0425402e+2, -1109251.5, -1057553.6, -46993.74, 0.12641001, 0.79224324, -1029768.9, -91391.27, 0.0, 9.998926, 9.999637 
1.8451072e+3, 2.1425219e+2, -904745.8, -900432.25, -59974.324, 0.07449131, 0.62456095, -842575.94, -2183.3357, 0.0, 9.999644, 9.999688 
1.8451256e+3, 2.242512e+2, -825875.7, -955874.44, -31240.285, 0.06162815, 0.6239748, -818757.94, -76355.6, 0.0, 10.00013, 9.998402 
1.8451445e+3, 2.3425132e+2, -683435.94, -825834.75, -48942.387, 0.0769677, 0.7732406, -668236.8, -23832.223, 0.0, 10.0004, 9.998482 
1.8451633e+3, 2.4424993e+2, -496694.06, -673348.6, -35243.316, 0.04753253, 0.7865418, -489922.47, 56494.984, 0.0, 10.000949, 9.998599 
1.8451816e+3, 2.5424665e+2, -247461.14, -485793.0, -52480.523, -0.0640947, 0.5676331, -236416.77, 212026.19, 0.0, 10.001921, 9.998742 
1.8451998e+3, 2.6424402e+2, -203567.2, -600889.9, -55768.855, -0.12642762, 0.51585263, -195887.81, 154579.69, 0.00000009817215, 10.002338, 9.997086 
1.8452185e+3, 2.742424e+2, -146055.5, -520020.5, -16183.357, -0.11006185, 0.6228368, -145356.47, 107132.914, 0.000013983738, 10.002054, 9.997098 
1.8452384e+3, 2.842407e+2, -4072.502, -323448.7, 96056.85, -0.066494964, 0.7238924, 22591.773, 177101.17, 0.0001420209, 10.00202, 9.997799 
1.8452589e+3, 2.9423934e+2, 165228.4, -145202.11, 51408.94, -0.087210864, 0.76345146, 173520.52, 230043.42, 0.0005571277, 10.0023155, 9.998207 
1.8452762e+3, 3.042371e+2, 259581.13, -18796.371, -22703.295, -0.29314268, 0.69243693, 261420.55, 261420.55, 0.0013278573, 10.002391, 9.998708 
1.8452965e+3, 3.1423584e+2, 259966.72, -97452.49, 56811.652, -0.07270078, 0.6666013, 268779.6, 268779.6, 0.0023465804, 10.002694, 9.998018 
1.854934e+3, 1.24225296e+2, -2295789.8, -1798276.5, -44194.145, 0.109555624, 0.65609604, -1794381.3, -71723.055, 0.13014582, 9.995107, 10.001776 
1.8549556e+3, 1.342279e+2, -2049237.1, -1687407.6, 41281.223, 0.15753049, 0.77463585, -1682757.6, -58131.67, 0.08765755, 9.996431, 10.001215 
1.8549755e+3, 1.4422473e+2, -1866714.0, -1611368.9, -3850.0544, 0.09389695, 0.36752287, -1611310.8, -84654.48, 0.04753598, 9.997255, 10.000687 
1.8549964e+3, 1.5422827e+2, -1749254.5, -1487504.5, 30575.223, 0.16413231, 0.624129, -1483980.5, -55351.53, 0.01851746, 9.997328, 10.00082 
1.855015e+3, 1.6423103e+2, -1575212.8, -1251024.9, -47854.2, 0.11624096, 0.78449, -1244108.5, 86495.11, 0.0041650403, 9.997413, 10.001729 
1.8550323e+3, 1.7423241e+2, -1416450.8, -1096314.9, -20951.6, 0.06827988, 0.70902544, -1094949.5, 137634.88, 0.00029041685, 9.997724, 10.00196 
1.85505e+3, 1.8423288e+2, -1387469.6, -1220976.1, 11631.193, 0.028912386, 0.64704466, -1220167.5, -85590.06, 0.0000003514084, 9.998054, 10.000279 
1.8550682e+3, 1.942325e+2, -1231916.0, -1090626.8, 580.7912, -0.036148243, 0.5640239, -1090624.4, -54040.68, 0.0, 9.998439, 10.000309 
1.8550873e+3, 2.0423277e+2, -1126075.5, -1083320.5, -26950.953, -0.027637867, 0.6076019, -1070298.1, -131715.44, 0.0, 9.998886, 9.999481 
1.8551072e+3, 2.142341e+2, -927035.75, -925748.0, -26588.27, 0.103201814, 0.7673685, -899795.8, -59225.49, 0.0, 9.999553, 9.99956 
1.8551265e+3, 2.2423318e+2, -860455.1, -1002866.44, -25624.367, 0.13735253, 0.7945031, -855984.8, -113404.88, 0.0, 10.000017, 9.998137 
1.8551445e+3, 2.3422934e+2, -716388.7, -877784.1, -30135.162, 0.035439122, 0.57827073, -710945.5, -66327.26, 0.0, 10.000323, 9.998166 
1.8551637e+3, 2.4422708e+2, -532940.0, -721667.75, -6284.584, -0.010477451, 0.53609407, -532731.0, 13909.255, 0.0, 10.000828, 9.998327 
1.8551844e+3, 2.542271e+2, -284500.3, -528170.5, -6225.5347, 0.023346223, 0.6711198, -284341.38, 164297.05, 0.0, 10.001777, 9.998518 
1.8552037e+3, 2.6422596e+2, -133968.47, -423162.5, -70835.87, -0.00302126, 0.7193368, -117549.91, 233098.2, 0.00000008466028, 10.002192, 9.99838 
1.8552206e+3, 2.7422342e+2, -66581.08, -323333.47, -16214.397, -0.10091086, 0.5928493, -65561.16, 187110.23, 0.000011475633, 10.001926, 9.9985075 
1.8552402e+3, 2.842212e+2, -69437.28, -427636.4, 93557.38, -0.100463845, 0.5955424, -46473.4, 108220.0, 0.00012583715, 10.001871, 9.997164 
1.855262e+3, 2.942195e+2, 85880.65, -264102.9, 72515.2, -0.012843613, 0.6709888, 100310.56, 157023.94, 0.0005096421, 10.002117, 9.997487 
1.8552807e+3, 3.0421627e+2, 280292.22, 85938.49, -35418.76, -0.11457262, 0.50575864, 286545.66, 286545.66, 0.0012369243, 10.0021305, 9.99955 
1.8553002e+3, 3.1421706e+2, 328874.25, 138069.64, 122033.29, -0.0128174275, 0.5855342, 388371.03, 388371.03, 0.0022133456, 10.002328, 9.999805 
1.8649304e+3, 1.2420374e+2, -2003680.3, -1705505.9, 26624.543, 0.13584967, 0.54156286, -1703147.1, 19721.11, 0.1378835, 9.997317, 10.001364 
1.8649535e+3, 1.3420822e+2, -1804335.0, -1501375.8, 109413.85, 0.24769254, 0.77143407, -1465993.3, 158824.3, 0.09301642, 9.997761, 10.001955 
1.8649729e+3, 1.4420532e+2, -1794855.3, -1554353.9, 63914.953, 0.105839774, 0.34562615, -1538423.3, -11577.777, 0.050644647, 9.997679, 10.00086 
1.8649931e+3, 1.5420972e+2, -1743108.1, -1464954.1, 58909.242, 0.11566375, 0.66991526, -1452992.3, -24181.158, 0.01991141, 9.99731, 10.000974 
1.865012e+3, 1.6421275e+2, -1559517.8, -1239147.4, -8905.994, 0.08610368, 0.8494942, -1238900.0, 91883.16, 0.0045744055, 9.997503, 10.001763 
1.8650305e+3, 1.7421356e+2, -1301583.8, -1033565.6, -36801.914, 0.08961734, 0.7136271, -1028604.2, 204163.27, 0.0003360051, 9.998494, 10.0020075 
1.8650489e+3, 1.8421346e+2, -1273768.4, -1227080.6, -25086.61, 0.05909488, 0.61527014, -1216156.8, -81391.26, 0.00000050835786, 9.9991045, 9.999725 
1.8650669e+3, 1.9421256e+2, -1132341.4, -1108378.5, -47273.89, -0.062362317, 0.5378392, -1071591.4, -34813.492, 0.0, 9.999417, 9.999708 
1.8650861e+3, 2.0421252e+2, -1033875.7, -1064991.4, -61505.11, -0.06502288, 0.5929565, -985991.25, -47210.18, 0.0, 9.999645, 9.999233 
1.8651067e+3, 2.1421364e+2, -896395.9, -934749.3, -80424.06, 0.084712416, 0.7549374, -832893.8, 7878.0034, 0.0, 9.999866, 9.999344 
1.8651266e+3, 2.2421263e+2, -783162.0, -940630.25, -45374.08, 0.13085736, 0.7736576, -771023.25, -28240.797, 0.0, 10.000443, 9.998362 
1.8651453e+3, 2.3420899e+2, -515763.13, -750713.3, -21622.45, 0.02070296, 0.5512034, -513789.78, 131027.625, 0.0, 10.001575, 9.998439 
1.8651652e+3, 2.4420708e+2, -365408.66, -619079.1, 30244.36, -0.00086535484, 0.5210633, -361852.56, 184982.81, 0.0, 10.001874, 9.998529 
1.8651862e+3, 2.5420755e+2, -380111.38, -556327.0, 48933.055, 0.079757996, 0.681298, -367435.1, 81394.8, 0.0, 10.001032, 9.998686 
1.8652059e+3, 2.642066e+2, -270259.5, -478740.7, 1857.2813, 0.07384955, 0.7336186, -270242.94, 80595.195, 0.000000065173005, 10.0012245, 9.998457 
1.8652235e+3, 2.7420387e+2, 82880.04, -250380.2, -61943.973, -0.05417108, 0.5878732, 94021.266, 346883.75, 0.000009431519, 10.002933, 9.998534 
1.8652429e+3, 2.8420165e+2, 122233.66, -321252.56, -12650.94, -0.07443378, 0.58358604, 122594.24, 277477.8, 0.00011328213, 10.003131, 9.997279 
1.865264e+3, 2.9420012e+2, -18856.117, -306718.22, -8419.523, 0.010284569, 0.66590816, -18610.07, 38290.563, 0.00047190647, 10.001363, 9.997544 
1.8652835e+3, 3.0419642e+2, 126489.49, -125240.71, -35771.848, 0.0042459, 0.506194, 131474.11, 131474.11, 0.0011580467, 10.001658, 9.998316 
1.8653038e+3, 3.1419665e+2, 678161.1, 233045.25, -76082.18, -0.0018385709, 0.65819484, 690806.4, 690806.4, 0.0020770368, 10.005, 9.999181 
1.8749264e+3, 1.24184184e+2, -2020404.3, -1752063.1, -30901.64, -0.03802398, 0.5989394, -1748550.5, -25492.303, 0.14588223, 9.997379, 10.000993 
1.8749498e+3, 1.3418852e+2, -1717528.3, -1339439.6, 122440.13, 0.08095759, 0.69517297, -1303252.1, 321756.13, 0.0986057, 9.997776, 10.0031805 
1.8749689e+3, 1.4418726e+2, -1786856.6, -1552330.3, 46940.6, -0.09743436, 0.36627588, -1543284.0, -16264.031, 0.053927336, 9.997733, 10.000849 
1.8749894e+3, 1.5419136e+2, -1748709.0, -1485869.5, 56667.35, -0.007482185, 0.67586166, -1474172.8, -45184.117, 0.021407956, 9.997336, 10.000821 
1.8750092e+3, 1.6419354e+2, -1590224.6, -1312057.8, 18592.273, 0.026741272, 0.8028618, -1310820.5, 20148.396, 0.0050250688, 9.997543, 10.001243 
1.8750288e+3, 1.741928e+2, -1338257.6, -1113093.3, 6300.251, 0.04170154, 0.5667403, -1112917.0, 120051.09, 0.00038988978, 9.9985, 10.001463 
1.8750478e+3, 1.8419257e+2, -1308688.8, -1303942.6, -19220.91, 0.027589113, 0.5095691, -1286948.9, -151980.42, 0.000000733184, 9.999125, 9.99919 
1.8750668e+3, 1.9419351e+2, -1177423.1, -1194952.0, -29757.395, -0.031533197, 0.67549, -1155166.4, -118200.734, 0.0, 9.999388, 9.999132 
1.875086e+3, 2.0419309e+2, -1056903.5, -1110090.6, -61788.316, -0.060901154, 0.73798686, -1016228.9, -77254.92, 0.0, 9.999624, 9.9989395 
1.8751054e+3, 2.1419095e+2, -927997.8, -984889.94, -65547.52, -0.045217898, 0.6025873, -884990.0, -43993.89, 0.0, 9.999789, 9.9990425 
1.8751255e+3, 2.241897e+2, -755979.94, -853445.9, -9587.139, -0.03661607, 0.58424795, -755045.9, -12037.346, 0.0, 10.000305, 9.999028 
1.8751465e+3, 2.3418997e+2, -482563.63, -648787.5, 31055.299, -0.028240459, 0.67660356, -476951.13, 168053.48, 0.0, 10.001434, 9.999203 
1.875167e+3, 2.4418946e+2, -342119.9, -532112.44, -131.04292, -0.0016293298, 0.7129181, -342119.8, 204887.45, 0.0, 10.001707, 9.99921 
1.875187e+3, 2.5418797e+2, -348628.03, -465123.53, 26123.357, 0.04203249, 0.6104664, -343038.25, 105979.51, 0.0, 10.000926, 9.999363 
1.875207e+3, 2.6418602e+2, -367096.16, -657274.9, 51644.395, 0.032277122, 0.5863287, -358178.8, -7142.9233, 0.00000004605578, 10.001115, 9.9972925 
1.8752266e+3, 2.7418387e+2, -31736.822, -448599.38, 16187.099, -0.0488193, 0.62241405, -31109.209, 221952.03, 0.000008317367, 10.002761, 9.997256 
1.875246e+3, 2.841822e+2, 149602.64, -229280.05, -77046.58, -0.09850717, 0.7055117, 164670.95, 319749.56, 0.00010640216, 10.002972, 9.997995 
1.8752645e+3, 2.9418105e+2, 16917.625, -201191.98, -60440.59, -0.08095045, 0.7450659, 32546.48, 89633.08, 0.00044874792, 10.001242, 9.998326 
1.875285e+3, 3.0417734e+2, -106999.266, -579663.3, 61310.7, -0.047296893, 0.68876064, -99175.95, -99175.95, 0.001101341, 10.00152, 9.995266 
1.8753088e+3, 3.1417322e+2, 413284.56, -180583.36, 65418.56, -0.045816895, 0.7314314, 420405.47, 420405.47, 0.0019644087, 10.004443, 9.996593 
1.884924e+3, 1.24165624e+2, -2050193.9, -1845727.6, 71692.01, -0.0016087341, 0.5967832, -1823095.4, -99859.61, 0.15411249, 9.997509, 10.000287 
1.8849473e+3, 1.3416936e+2, -1893874.6, -1419068.0, 141769.47, 0.11477018, 0.6270644, -1379959.3, 245236.02, 0.10442951, 9.996562, 10.003175 
1.884965e+3, 1.4416984e+2, -1993323.8, -1674078.4, 36741.684, -0.18593797, 0.48332828, -1669904.4, -142713.39, 0.057399224, 9.996413, 10.00065 
1.8849872e+3, 1.5417223e+2, -1749274.5, -1494848.8, 36254.586, 0.043749604, 0.6351272, -1489783.5, -60609.23, 0.023018045, 9.997385, 10.000727 
1.8850079e+3, 1.6417345e+2, -1559957.1, -1346063.1, 27216.871, 0.12442628, 0.6898613, -1342654.3, -11490.876, 0.005521801, 9.997965, 10.000804 
1.8850264e+3, 1.741727e+2, -1412902.5, -1203815.3, 7998.3955, -0.015964815, 0.5018652, -1203509.8, 29654.172, 0.0004532519, 9.998221, 10.000979 
1.8850458e+3, 1.8417265e+2, -1385771.9, -1329377.4, 16164.702, -0.056025393, 0.4820784, -1325072.5, -189909.66, 0.0000010252129, 9.998535, 9.999303 
1.8850666e+3, 1.9417386e+2, -1206415.1, -1189319.5, 51541.207, 0.035069983, 0.6562223, -1145622.1, -108465.96, 0.0, 9.999096, 9.999311 
1.8850864e+3, 2.0417348e+2, -1089635.4, -1149660.3, 61121.21, 0.043957952, 0.7224045, -1051555.6, -112391.76, 0.0, 9.999512, 9.998716 
1.8851049e+3, 2.1417105e+2, -918638.8, -1002695.6, 44051.32, -0.07320853, 0.58367175, -899782.8, -58593.043, 0.0, 9.999973, 9.998819 
1.8851249e+3, 2.241699e+2, -759145.56, -837955.0, 102146.016, -0.11441723, 0.5773432, -689067.25, 54134.785, 0.0, 10.000218, 9.999167 
1.8851468e+3, 2.3417048e+2, -651685.7, -715304.06, 88899.95, -0.06221548, 0.6871823, -589075.44, 56119.57, 0.0, 10.0002, 9.999342 
1.8851683e+3, 2.4417005e+2, -495957.56, -601619.0, 14254.653, -0.0003268397, 0.72347206, -494068.28, 53128.64, 0.0, 10.000637, 9.999245 
1.8851887e+3, 2.541684e+2, -222891.55, -406277.63, -26427.627, 0.062127814, 0.602024, -219159.05, 230050.34, 0.0, 10.001792, 9.999353 
1.885209e+3, 2.641664e+2, -194919.94, -576162.1, 40667.98, 0.07404442, 0.57240444, -190630.05, 160597.81, 0.000000017635879, 10.002315, 9.997267 
1.8852292e+3, 2.741643e+2, -135656.44, -496317.88, 79827.016, -0.029481646, 0.61519456, -118777.82, 134473.9, 0.000007212163, 10.002055, 9.997257 
1.8852487e+3, 2.8416213e+2, 41618.723, -343608.34, -6876.998, -0.10273298, 0.6775653, 41741.453, 197015.06, 0.00009812263, 10.002528, 9.997408 
1.8852675e+3, 2.941599e+2, 408601.4, -97598.125, -122971.9, -0.07251093, 0.6706844, 436893.88, 494187.84, 0.00042173456, 10.004294, 9.997573 
1.8852885e+3, 3.0415642e+2, 349330.56, -347496.88, 78076.695, 0.0049146893, 0.6832272, 357971.6, 357971.6, 0.0010400746, 10.004593, 9.995397 
1.8853119e+3, 3.1415227e+2, 140051.9, -266341.4, 222792.58, -0.05028039, 0.6936729, 238393.66, 238393.66, 0.0018541575, 10.002346, 9.997022 
1.8949226e+3, 1.24147765e+2, -2102381.8, -1982596.8, 7015.7407, 0.060007688, 0.47607765, -1982187.3, -258783.28, 0.16258536, 9.997623, 9.9993 
1.8949455e+3, 1.3415076e+2, -1993426.9, -1604352.6, 119572.71, 0.27076554, 0.565317, -1570542.9, 54835.4, 0.110513955, 9.996534, 10.001786 
1.894961e+3, 1.4415307e+2, -2016400.8, -1712833.5, 59894.938, -0.23716384, 0.69839054, -1701443.4, -174085.14, 0.06108175, 9.996382, 10.000396 
1.8949865e+3, 1.541524e+2, -1758972.9, -1511681.5, 80923.836, 0.21107261, 0.5514136, -1487554.0, -58186.703, 0.024752133, 9.997375, 10.000617 
1.8950078e+3, 1.6415244e+2, -1572761.9, -1391173.3, 33119.68, 0.29813662, 0.5113325, -1385321.3, -53954.75, 0.0060684755, 9.998037, 10.0004635 
1.8950236e+3, 1.7415321e+2, -1438909.8, -1262101.0, 22653.281, -0.13923302, 0.5136183, -1259244.8, -25889.514, 0.0005270964, 9.998234, 10.000579 
1.8950425e+3, 1.8415354e+2, -1324942.9, -1205906.6, 30890.72, -0.2617123, 0.51876307, -1198367.8, -63017.87, 0.0000013718216, 9.998554, 10.000136 
1.8950662e+3, 1.9415373e+2, -1145342.0, -1052688.1, 76664.26, 0.06681833, 0.49475873, -1009440.56, 27907.598, 0.0, 9.99906, 10.000261 
1.8950874e+3, 2.0415376e+2, -1104158.5, -1179914.8, 70849.164, 0.16462784, 0.55857366, -1061697.6, -122347.6, 0.0, 9.999497, 9.998524 
1.8951051e+3, 2.1415375e+2, -946959.1, -1048827.8, 66707.34, -0.057927556, 0.68787444, -913963.8, -72608.66, 0.0, 9.999907, 9.998541 
1.8951246e+3, 2.2415273e+2, -802381.25, -900343.9, 96605.234, -0.1726091, 0.7286941, -743049.4, 318.34784, 0.0, 10.000098, 9.998799 
1.8951462e+3, 2.3415056e+2, -694517.7, -777285.9, 96021.875, -0.14989954, 0.59801966, -631341.56, 14046.993, 0.0, 10.000088, 9.998967 
1.8951683e+3, 2.441491e+2, -560161.3, -706255.3, 46445.145, -0.07865397, 0.581365, -546646.06, 756.15, 0.0, 10.000502, 9.998597 
1.8951906e+3, 2.541488e+2, -290378.84, -513869.34, 25995.541, 0.082989484, 0.6614733, -287395.0, 162009.77, 0.0, 10.001652, 9.998683 
1.895212e+3, 2.6414743e+2, -144898.95, -442125.75, 29244.563, 0.122205965, 0.68841255, -142048.86, 209367.03, 0.0000000071100716, 10.002181, 9.998253 
1.895231e+3, 2.741449e+2, -74199.7, -333661.1, 78669.18, -0.06563796, 0.57347757, -52210.613, 201225.67, 0.0000064261117, 10.001915, 9.998437 
1.8952507e+3, 2.8414148e+2, -103240.23, -618645.56, 40758.25, -0.18396126, 0.5248039, -100036.97, 55432.316, 0.00008727804, 10.0023985, 9.995589 
1.895272e+3, 2.941367e+2, 221756.19, -433870.8, -32392.896, -0.0636975, 0.4725105, 223352.75, 280874.25, 0.00038336558, 10.004064, 9.9953785 
1.8952933e+3, 3.0413398e+2, 506797.13, 48155.684, 8656.125, 0.00025455415, 0.546908, 506960.44, 506960.44, 0.00096102816, 10.004319, 9.998238 
1.8953134e+3, 3.1413338e+2, 224835.6, 38271.617, 140546.08, -0.15464531, 0.58669066, 300238.9, 300238.9, 0.0017326965, 10.001852, 9.999336 
1.9049208e+3, 1.2413032e+2, -2105008.8, -1884966.4, -55127.96, 0.14277358, 0.5570632, -1871927.6, -148351.39, 0.1713416, 9.99719, 10.000177 
1.9049433e+3, 1.3413012e+2, -1940949.9, -1738956.3, -21493.877, 0.3550115, 0.4537444, -1736694.5, -111110.37, 0.11689223, 9.997622, 10.000288 
1.9049582e+3, 1.44134e+2, -1813783.4, -1594762.6, -21708.21, -0.22354227, 0.82315505, -1592631.8, -65082.64, 0.06499328, 9.997682, 10.000578 
1.9049843e+3, 1.5413298e+2, -1653643.8, -1407422.9, 27570.78, 0.24145754, 0.5940495, -1404373.4, 25185.152, 0.026617203, 9.997851, 10.001111 
1.9050063e+3, 1.6413295e+2, -1571880.9, -1416367.5, 22994.049, 0.34972912, 0.52898127, -1413038.9, -81480.984, 0.0066676727, 9.99815, 10.000237 
1.9050227e+3, 1.7413402e+2, -1339166.5, -1240198.8, 12408.573, -0.07922786, 0.58923393, -1238666.6, -5120.8105, 0.0006122247, 9.9990425, 10.000329 
1.9050418e+3, 1.8413426e+2, -1197634.3, -1137832.9, -2493.1064, -0.2302062, 0.5952359, -1137729.1, -2187.0005, 0.0000017786746, 9.999411, 10.000186 
1.9050646e+3, 1.9413373e+2, -1111507.6, -1031918.75, -36880.63, -0.0034970024, 0.49336967, -1017456.6, 20089.861, 0.0, 9.999274, 10.000302 
1.9050859e+3, 2.041338e+2, -1051697.3, -1078121.1, -21705.818, 0.081300944, 0.53040344, -1039498.6, -99952.47, 0.0, 9.99955, 9.999184 
1.9051054e+3, 2.141348e+2, -810877.1, -906317.56, 33817.09, -0.040209226, 0.6928019, -800109.6, 41428.734, 0.0, 10.000516, 9.99922 
1.9051257e+3, 2.2413398e+2, -707775.06, -910945.06, 83594.77, -0.102841616, 0.7413359, -677801.75, 65746.6, 0.0, 10.000985, 9.998301 
1.9051471e+3, 2.3413101e+2, -631431.1, -818498.8, 49228.61, -0.10603152, 0.58991456, -619267.1, 26312.666, 0.0, 10.000822, 9.998336 
1.905169e+3, 2.4412915e+2, -519540.16, -701680.7, 52571.168, -0.058241498, 0.57329553, -505455.7, 42143.55, 0.0, 10.000866, 9.998442 
1.9051918e+3, 2.541288e+2, -340243.75, -545931.3, 57005.754, 0.058576167, 0.65929925, -325501.4, 124100.805, 0.0, 10.001352, 9.998596 
1.9052134e+3, 2.6412746e+2, -163419.33, -421330.8, 57711.254, 0.080442525, 0.6796966, -151094.6, 200517.98, 0.000000016068412, 10.00193, 9.99851 
1.905233e+3, 2.7412522e+2, 64752.777, -242992.64, 23016.676, -0.09159573, 0.56838024, 66464.7, 320093.84, 0.000006012962, 10.00274, 9.9986725 
1.9052535e+3, 2.8412193e+2, 38001.9, -568810.25, 53450.62, -0.17064019, 0.52846575, 42674.086, 198334.83, 0.000076659555, 10.003445, 9.995432 
1.9052765e+3, 2.9411712e+2, 230377.61, -445030.3, 86805.79, -0.01156703, 0.49434665, 241355.77, 299070.13, 0.00034009657, 10.0041895, 9.995237 
1.9052975e+3, 3.04114e+2, 507368.1, 136139.42, 60382.48, 0.02218516, 0.4992809, 516942.7, 516942.7, 0.0008713937, 10.003952, 9.999022 
1.9053161e+3, 3.1411344e+2, 297177.06, 101311.31, -51179.92, -0.06488577, 0.46399173, 309744.1, 309744.1, 0.0016054051, 10.002187, 9.99963 
1.914918e+3, 1.241131e+2, -1900317.3, -1487951.4, 59932.805, 0.101495914, 0.81949157, -1479417.4, 244337.5, 0.18042894, 9.997113, 10.003285 
1.9149405e+3, 1.3410735e+2, -2058769.4, -1981709.1, -10926.025, 0.28754142, 0.28114435, -1980190.0, -354375.9, 0.12358676, 9.997626, 9.998612 
1.9149561e+3, 1.4411236e+2, -1755114.3, -1497996.1, -23151.58, -0.22172207, 0.8353158, -1495928.1, 31837.855, 0.069141634, 9.997774, 10.001216 
1.9149804e+3, 1.541139e+2, -1577344.4, -1254925.9, 37019.086, 0.063566625, 0.7597524, -1250730.1, 179019.0, 0.028615344, 9.997851, 10.0021925 
1.9150032e+3, 1.6411506e+2, -1566413.3, -1414916.1, 44645.3, 0.19008052, 0.7516535, -1402738.3, -71001.39, 0.0073205116, 9.998193, 10.000224 
1.9150236e+3, 1.7411529e+2, -1349370.9, -1260652.3, 51130.004, 0.09769724, 0.7392933, -1237320.9, -3586.465, 0.00070924795, 9.99904, 10.000189 
1.9150431e+3, 1.8411486e+2, -1242828.0, -1242135.6, -10821.221, -0.03783997, 0.71942633, -1231655.0, -95915.86, 0.0000023137907, 9.99945, 9.999456 
1.9150618e+3, 1.941139e+2, -1173818.6, -1153018.5, -35555.895, -0.22762169, 0.65876424, -1126372.9, -88622.59, 0.0, 9.999236, 9.999494 
1.9150822e+3, 2.0411356e+2, -962264.5, -882358.3, 6273.1855, -0.27018347, 0.63690406, -881868.8, 57883.125, 0.0, 9.999499, 10.000554 
1.9151056e+3, 2.141143e+2, -713052.25, -681250.44, 75651.51, -0.08614955, 0.61276686, -619846.8, 221891.72, 0.0, 10.000419, 10.000813 
1.9151281e+3, 2.2411384e+2, -771773.25, -1009237.2, 76052.91, 0.017225003, 0.6353292, -749504.06, -5761.7764, 0.0, 10.0008335, 9.997703 
1.9151492e+3, 2.3411188e+2, -707238.44, -946731.3, 52192.684, 0.0064486903, 0.67038715, -696358.4, -50589.945, 0.0, 10.000702, 9.997514 
1.9151704e+3, 2.4410997e+2, -519047.56, -672312.8, 63573.76, -0.028213633, 0.68369126, -496110.22, 51679.633, 0.0, 10.000739, 9.998705 
1.9151919e+3, 2.5410828e+2, -330782.3, -495936.53, 83585.56, -0.08110068, 0.59936005, -295862.5, 153940.17, 0.0, 10.001228, 9.998997 
1.9152135e+3, 2.6410666e+2, -213371.4, -496737.03, 78039.086, -0.12671995, 0.58680755, -193300.97, 158515.25, 0.000000038925435, 10.001799, 9.998062 
1.9152349e+3, 2.7410525e+2, 2699.304, -337820.63, 62724.617, -0.18726166, 0.6143849, 13885.842, 267715.25, 0.000005437274, 10.002596, 9.998091 
1.9152571e+3, 2.841034e+2, 98540.0, -406630.9, 70315.586, -0.17993483, 0.6949482, 108144.73, 263993.16, 0.00006527873, 10.0032835, 9.996625 
1.9152808e+3, 2.941006e+2, 290669.22, -259771.63, 128317.805, -0.0037708362, 0.72594965, 319112.66, 376990.47, 0.00029241332, 10.003938, 9.996631 
1.9153011e+3, 3.0409628e+2, 403320.4, -28597.098, -13621.848, -0.052141525, 0.5736855, 403749.6, 403749.6, 0.0007692966, 10.0037155, 9.997999 
1.9153173e+3, 3.140951e+2, 151644.81, -114587.28, -61655.816, -0.20813435, 0.59344745, 165230.23, 165230.23, 0.0014579963, 10.001833, 9.998298 
1.9249152e+3, 1.2409276e+2, -1954315.8, -1432575.3, 13018.287, 0.16803753, 0.9792608, -1432250.6, 291710.72, 0.18987963, 9.996295, 10.004178 
1.9249369e+3, 1.3408546e+2, -2026784.5, -1914452.0, -21010.902, 0.18217337, 0.23570225, -1910650.8, -284618.4, 0.13060497, 9.99761, 9.999086 
1.9249548e+3, 1.4409204e+2, -1705238.9, -1478974.9, 26183.64, -0.1379647, 0.9193304, -1475984.4, 51983.055, 0.07352615, 9.998133, 10.001186 
1.9249777e+3, 1.5409298e+2, -1607191.8, -1270969.1, -13746.979, 0.029197024, 0.7883456, -1270408.0, 159548.34, 0.030745408, 9.997667, 10.002165 
1.9250004e+3, 1.6409382e+2, -1645469.3, -1429471.1, -1648.347, 0.12124081, 0.7431147, -1429458.6, -97511.31, 0.008026891, 9.997567, 10.000417 
1.9250223e+3, 1.7409438e+2, -1450795.8, -1286657.3, 17910.887, 0.106091686, 0.74113554, -1284725.5, -50783.375, 0.0008187495, 9.998253, 10.000387 
1.9250427e+3, 1.840943e+2, -1354954.5, -1296183.3, -17028.846, 0.008510352, 0.7444631, -1291605.6, -155662.08, 0.0000031359323, 9.998674, 9.999464 
1.9250607e+3, 1.9409359e+2, -1214530.6, -1170332.6, 6910.723, -0.22806309, 0.7061483, -1169277.3, -131325.19, 0.0, 9.9989395, 9.999518 
1.9250815e+3, 2.0409314e+2, -987238.7, -892193.25, 78133.086, -0.27564248, 0.6689863, -848265.5, 91688.94, 0.0, 9.99932, 10.000574 
1.925106e+3, 2.1409331e+2, -764131.06, -703911.56, 20815.719, -0.059774734, 0.5888257, -697416.8, 144529.53, 0.0, 10.000065, 10.000827 
1.9251293e+3, 2.2409302e+2, -750797.06, -949434.0, -14189.003, 0.062333874, 0.6063843, -749788.6, -5840.539, 0.0, 10.000778, 9.998136 
1.9251505e+3, 2.3409204e+2, -560165.25, -822845.3, 36409.008, 0.027711125, 0.6945177, -555212.1, 90751.6, 0.0, 10.001485, 9.997988 
1.9251716e+3, 2.4409048e+2, -385230.53, -615101.94, 94144.42, -0.019659648, 0.7188158, -351595.1, 196386.17, 0.0, 10.00169, 9.99864 
1.9251929e+3, 2.5408846e+2, -324203.9, -511776.13, 64167.777, -0.09274128, 0.61658305, -304353.16, 145644.36, 0.0, 10.001341, 9.998842 
1.9252151e+3, 2.640866e+2, -304302.13, -585408.5, 78454.77, -0.121429086, 0.6082867, -283888.4, 68126.29, 0.000000047147957, 10.001376, 9.997656 
1.9252376e+3, 2.7408504e+2, -111184.69, -434476.22, 52368.94, -0.13080594, 0.6626663, -102913.24, 151119.23, 0.0000043683804, 10.002007, 9.997706 
1.9252604e+3, 2.840834e+2, -7416.233, -366339.9, 53223.91, -0.099016756, 0.7521551, 309.89868, 156359.84, 0.000052619915, 10.002196, 9.997408 
1.9252841e+3, 2.9408175e+2, 56989.453, -281534.03, 50530.64, 0.024802767, 0.8109968, 64371.09, 122437.66, 0.00024219825, 10.001939, 9.997443 
1.9253036e+3, 3.0407727e+2, 151744.73, -204327.23, -84745.59, -0.067637645, 0.6265142, 170885.39, 170885.39, 0.00065837445, 10.002213, 9.997521 
1.9253203e+3, 3.1407678e+2, 357402.8, -70378.96, -99816.09, -0.1616112, 0.7782073, 379547.0, 379547.0, 0.0012850321, 10.00344, 9.997853 
1.9349125e+3, 1.240686e+2, -2067007.4, -1637782.6, -2183.3862, 0.21852933, 0.9791462, -1637771.6, 86430.75, 0.1997211, 9.996367, 10.002415 
1.9349323e+3, 1.3406436e+2, -1840444.9, -1535241.8, 29157.83, -0.059746403, 0.30932906, -1532481.1, 93759.17, 0.13795441, 9.997578, 10.001809 
1.934954e+3, 1.4407341e+2, -1743631.0, -1560603.1, 11946.886, -0.07372799, 1.1096293, -1559826.6, -31677.076, 0.07814733, 9.9981575, 10.000585 
1.9349761e+3, 1.5407035e+2, -1685682.4, -1436050.8, -23413.076, 0.06988981, 0.6896432, -1433873.9, -3694.9922, 0.033007, 9.997692, 10.000988 
1.9349976e+3, 1.640692e+2, -1611107.6, -1368483.1, 12321.213, 0.05888391, 0.49174425, -1367859.0, -35669.188, 0.008786739, 9.997609, 10.000817 
1.9350186e+3, 1.7407127e+2, -1415279.0, -1213917.4, 48722.754, -0.10707939, 0.5932836, -1202747.8, 31421.697, 0.00094156526, 9.998251, 10.000893 
1.9350398e+3, 1.8407255e+2, -1294494.1, -1175901.9, -10810.866, -0.1673326, 0.66824156, -1174924.4, -38768.324, 0.0000044945964, 9.998695, 10.000278 
1.9350612e+3, 1.9407283e+2, -1159398.9, -1049168.0, 23543.977, -0.07837286, 0.64353555, -1044349.94, -6198.482, 0.0, 9.998912, 10.000363 
1.9350836e+3, 2.0407254e+2, -1080381.1, -1082632.0, 97190.07, -0.02821803, 0.63584715, -984310.0, -44156.42, 0.0, 9.999298, 9.999283 
1.9351065e+3, 2.1407178e+2, -884905.2, -935588.6, 55637.94, -0.022563335, 0.6146697, -849109.5, -6947.037, 0.0, 9.999977, 9.999283 
1.9351292e+3, 2.2407131e+2, -679426.25, -762734.0, 7184.625, -0.045214973, 0.63899314, -678811.2, 65356.668, 0.0, 10.000617, 9.999491 
1.9351506e+3, 2.3407143e+2, -466998.44, -590510.25, 68987.57, -0.10679771, 0.6694818, -436163.44, 210003.11, 0.0, 10.001326, 9.999654 
1.9351725e+3, 2.4407077e+2, -434231.56, -683013.56, 73713.805, -0.11932558, 0.7117563, -414030.56, 134142.11, 0.0, 10.001537, 9.998252 
1.9351949e+3, 2.5406924e+2, -381845.88, -606338.94, 56828.445, -0.05072029, 0.7155021, -368280.0, 81907.48, 0.0, 10.001238, 9.998242 
1.9352178e+3, 2.6406717e+2, -350575.8, -654801.6, 90593.68, -0.0018146465, 0.73878264, -325641.97, 26567.182, 0.00000001782158, 10.001266, 9.997231 
1.935241e+3, 2.7406448e+2, -159547.27, -495211.1, 86784.73, -0.0036078221, 0.71935236, -138437.02, 115801.984, 0.0000032439186, 10.001856, 9.997353 
1.9352637e+3, 2.8406224e+2, 385.86673, -330774.0, 32203.43, -0.023873933, 0.7487176, 3488.402, 159751.6, 0.000042492127, 10.00209, 9.997713 
1.9352855e+3, 2.9406062e+2, 66136.69, -236073.44, 51734.863, -0.03241781, 0.7722544, 74747.734, 133027.03, 0.00020128557, 10.001826, 9.997809 
1.9353053e+3, 3.0405727e+2, 106883.086, -254778.53, -57887.887, -0.14799596, 0.6951246, 115922.734, 115922.734, 0.00056117197, 10.00203, 9.997263 
1.9353233e+3, 3.1405663e+2, 330059.72, -26055.928, 35795.094, -0.21656834, 0.8494497, 333622.03, 333622.03, 0.0011168836, 10.003048, 9.998326 
1.9449084e+3, 1.24044806e+2, -2237565.0, -1817718.0, 97570.1, 0.20994589, 0.8766183, -1796151.1, -71716.94, 0.20999403, 9.99571, 10.001348 
1.9449286e+3, 1.3404347e+2, -1960678.5, -1444000.6, 76859.836, -0.09470129, 0.371509, -1432809.6, 193632.58, 0.14565058, 9.996025, 10.003307 
1.9449523e+3, 1.440525e+2, -1973608.6, -1691246.1, 13455.46, 0.037361406, 1.0905644, -1690606.4, -162255.19, 0.083007626, 9.996647, 10.000427 
1.9449736e+3, 1.540489e+2, -1780563.6, -1532711.8, 5805.018, 0.091921926, 0.6579501, -1532575.9, -102187.805, 0.03539992, 9.9972515, 10.00054 
1.944995e+3, 1.6404757e+2, -1624062.5, -1382513.1, 82468.89, 0.046821672, 0.46843803, -1357042.6, -24640.367, 0.009600047, 9.9975395, 10.000763 
1.9450168e+3, 1.7405011e+2, -1481591.6, -1243654.0, 73767.76, -0.07369588, 0.61755437, -1222639.8, 11738.317, 0.0010784023, 9.997781, 10.000915 
1.945039e+3, 1.8405169e+2, -1317627.6, -1146167.4, 309.04477, -0.09423428, 0.7039501, -1146166.9, -9805.509, 0.0000066792873, 9.998368, 10.000634 
1.9450611e+3, 1.940519e+2, -1023140.0, -939326.75, -11782.86, -0.016375383, 0.6340462, -937701.75, 100653.445, 0.0, 9.999667, 10.000747 
1.9450837e+3, 2.0405169e+2, -962855.4, -1080767.5, 65682.18, 0.024591835, 0.6322333, -933550.7, 6806.4893, 0.0, 10.000353, 9.998779 
1.945107e+3, 2.14051e+2, -878559.8, -1000608.94, 77250.12, 0.009743131, 0.67988557, -841138.56, 1230.4141, 0.0, 10.000314, 9.998671 
1.9451296e+3, 2.2405046e+2, -737526.2, -763004.4, 39537.797, -0.019868206, 0.7205932, -708725.9, 35650.207, 0.0, 10.000086, 9.999746 
1.9451512e+3, 2.340504e+2, -680886.2, -654192.6, -3046.5361, -0.082492724, 0.6983412, -653849.3, -7475.215, 0.0, 9.999679, 10.000014 
1.9451736e+3, 2.4404977e+2, -621897.4, -744450.6, 6514.0664, -0.0878015, 0.7125412, -621552.06, -73173.43, 0.0, 10.0001335, 9.998508 
1.9451967e+3, 2.5404838e+2, -261090.56, -525448.6, 34060.41, -0.026299372, 0.70854145, -256772.67, 193619.86, 0.0, 10.001959, 9.998457 
1.9452202e+3, 2.640465e+2, -103297.3, -509667.66, 110833.77, 0.04298141, 0.7257337, -75034.12, 277378.44, 0.000000002142629, 10.002848, 9.997465 
1.945244e+3, 2.7404413e+2, -53029.082, -429881.28, 128415.16, 0.08917209, 0.7214456, -13431.3955, 241007.06, 0.0000029419668, 10.002491, 9.997515 
1.9452664e+3, 2.8404182e+2, 29790.617, -327541.88, 98629.1, 0.047623646, 0.74056715, 55206.04, 211670.13, 0.000037529444, 10.002337, 9.997621 
1.9452871e+3, 2.940399e+2, 176336.58, -189472.6, 53600.25, -0.08547267, 0.7487542, 184028.61, 242513.81, 0.00017698373, 10.002602, 9.997759 
1.9453081e+3, 3.0403736e+2, 265426.34, -179841.6, -7888.2617, -0.11646568, 0.753363, 265566.03, 265566.03, 0.00049046375, 10.003136, 9.997232 
1.9453266e+3, 3.1403673e+2, 499950.5, 63091.875, 83250.62, -0.23646723, 0.92004925, 515277.53, 515277.53, 0.000970841, 10.004148, 9.998418 
1.9549012e+3, 1.2402123e+2, -2230731.5, -1834605.3, 21270.111, -0.10900864, 0.64879715, -1833466.4, -108808.08, 0.22070916, 9.995818, 10.001187 
1.954926e+3, 1.3402289e+2, -1939428.6, -1416230.3, 104007.086, 0.028130915, 0.43041053, -1396312.8, 230323.83, 0.15369554, 9.996055, 10.003543 
1.9549498e+3, 1.4402913e+2, -1940442.1, -1638038.3, 30537.98, 0.104565196, 0.8370058, -1634985.3, -106411.08, 0.08810495, 9.996713, 10.00076 
1.9549705e+3, 1.540285e+2, -1764104.1, -1502584.9, 32310.66, 0.024873035, 0.6838546, -1498652.1, -68067.13, 0.037922986, 9.997262, 10.000746 
1.9549921e+3, 1.6402896e+2, -1644912.8, -1440538.0, 85051.2, -0.0070191026, 0.6809281, -1409774.4, -77190.055, 0.010466628, 9.9976, 10.000337 
1.955017e+3, 1.7403093e+2, -1511808.9, -1315505.9, 87508.78, 0.1414157, 0.8176586, -1282160.3, -47592.457, 0.0012294218, 9.997811, 10.000409 
1.95504e+3, 1.8403162e+2, -1317624.3, -1156765.0, 40115.664, 0.14384052, 0.8476305, -1147315.9, -10755.358, 0.000009908067, 9.998417, 10.000536 
1.9550602e+3, 1.9403078e+2, -1031242.4, -951186.4, 42165.527, -0.093653984, 0.68097484, -933075.1, 105488.516, 0.0, 9.999644, 10.000679 
1.9550821e+3, 2.0403036e+2, -959136.0, -1054190.0, 60196.61, -0.1829475, 0.6562298, -929965.9, 10600.755, 0.0, 10.000274, 9.998999 
1.955107e+3, 2.1403077e+2, -877787.94, -968138.0, 81086.734, -0.02676189, 0.7864208, -830141.4, 12426.12, 0.0, 10.000187, 9.998952 
1.9551305e+3, 2.2403035e+2, -808785.56, -877339.4, 20603.873, 0.054228436, 0.8515564, -803069.7, -58495.438, 0.0, 9.999937, 9.999035 
1.9551522e+3, 2.3402898e+2, -757054.1, -783692.75, -11697.556, 0.02477474, 0.78176266, -752646.75, -106060.46, 0.0, 9.999565, 9.999176 
1.9551745e+3, 2.4402747e+2, -588750.1, -643643.0, 61106.723, -0.024775673, 0.71948284, -549208.94, -609.6378, 0.0, 9.999995, 9.999266 
1.955198e+3, 2.5402597e+2, -218380.31, -397471.8, 110126.75, -0.08275335, 0.6104101, -165988.25, 284623.66, 0.0, 10.001802, 9.999403 
1.9552223e+3, 2.6402482e+2, -73226.03, -411571.88, 94384.18, -0.052082665, 0.61250955, -48677.89, 303944.63, 0.00000003752054, 10.002684, 9.998223 
1.9552466e+3, 2.7402395e+2, -19341.223, -331223.1, 121483.77, 0.07545925, 0.6863753, 22394.049, 277025.56, 0.0000033154865, 10.002371, 9.998249 
1.9552687e+3, 2.840221e+2, -37655.285, -430271.63, 91043.445, 0.016240006, 0.74263865, -17570.744, 139082.31, 0.00003554113, 10.002176, 9.996994 
1.9552886e+3, 2.9401964e+2, 110777.336, -283201.9, 75371.96, -0.20784712, 0.7619123, 124704.38, 183388.84, 0.00016173386, 10.002433, 9.99719 
1.9553117e+3, 3.0401766e+2, 246016.81, -182275.47, 9245.951, -0.09046879, 0.84323853, 246216.31, 246216.31, 0.0004325806, 10.002955, 9.997313 
1.9553311e+3, 3.1401616e+2, 427929.3, -13561.261, 124362.88, -0.24325708, 0.924331, 460550.56, 460550.56, 0.0008295755, 10.003865, 9.998015 
1.9648975e+3, 1.2399908e+2, -2015924.1, -1675958.1, 72431.39, -0.12470535, 0.5762802, -1661169.6, 63702.156, 0.23177752, 9.997014, 10.001812 
1.9649231e+3, 1.340007e+2, -1934218.9, -1491164.4, 27174.834, 0.12395784, 0.42710868, -1489503.8, 137347.22, 0.1620495, 9.996503, 10.002707 
1.964945e+3, 1.440052e+2, -2013535.0, -1695663.1, -73918.06, -0.014252567, 0.71815014, -1679315.0, -150508.27, 0.093428105, 9.996333, 10.000534 
1.9649678e+3, 1.5400532e+2, -1697509.0, -1479278.6, -106682.945, 0.009383268, 0.6505504, -1435791.9, -4980.676, 0.04057487, 9.99778, 10.000639 
1.9649908e+3, 1.6400634e+2, -1493636.3, -1335640.3, -65510.23, 0.06600977, 0.6966949, -1312011.4, 20793.664, 0.011385711, 9.998506, 10.000619 
1.9650155e+3, 1.7400847e+2, -1424793.0, -1234191.6, -17565.951, 0.19839017, 0.8169253, -1232586.3, 2198.981, 0.0013940044, 9.998252, 10.0007515 
1.9650386e+3, 1.8400909e+2, -1358150.6, -1223686.3, 5208.9575, 0.18430072, 0.83993536, -1223484.8, -86706.04, 0.000014255441, 9.998337, 10.000121 
1.9650596e+3, 1.9400787e+2, -1143343.0, -1061204.6, -31314.191, -0.070496306, 0.6856192, -1050628.4, -11840.114, 0.0, 9.999116, 10.000178 
1.9650821e+3, 2.0400733e+2, -1060499.1, -1072551.4, -57120.168, -0.16087344, 0.66088307, -1009088.06, -68294.516, 0.0, 9.999428, 9.99929 
1.9651069e+3, 2.1400785e+2, -1007522.8, -987817.5, -45513.35, -0.007144901, 0.7656401, -951102.56, -108311.016, 0.0, 9.999095, 9.999352 
1.9651306e+3, 2.240075e+2, -889574.1, -896820.06, -41416.17, 0.09441593, 0.80933964, -851622.75, -106826.83, 0.0, 9.999302, 9.99921 
1.9651528e+3, 2.340059e+2, -617707.3, -706671.5, -15049.112, 0.086809255, 0.70779705, -615230.56, 31578.412, 0.0, 10.000457, 9.999287 
1.9651754e+3, 2.4400446e+2, -454007.6, -583353.2, 91799.01, 0.03295357, 0.64669764, -406387.78, 142434.0, 0.0, 10.000931, 9.99923 
1.9651991e+3, 2.540036e+2, -423535.38, -507047.28, 53716.16, -0.08861414, 0.60905504, -397254.7, 53575.91, 0.0, 10.000434, 9.999311 
1.9652237e+3, 2.6400286e+2, -305777.72, -461012.2, 9354.538, -0.06830132, 0.6387669, -305216.03, 47622.02, 0.00000006167767, 10.000825, 9.9987755 
1.9652492e+3, 2.7400225e+2, 48924.188, -228981.2, 7531.369, 0.09798073, 0.67526895, 49128.14, 303972.25, 0.000003603985, 10.002552, 9.998857 
1.9652715e+3, 2.8400087e+2, 119823.71, -337061.84, -14435.8545, 0.03319622, 0.7389651, 120279.375, 277139.75, 0.00003406456, 10.003192, 9.997141 
1.9652905e+3, 2.9399922e+2, 130356.69, -267508.94, -32.794987, -0.27557784, 0.83993405, 130356.695, 189239.52, 0.0001486936, 10.002533, 9.997258 
1.9653149e+3, 3.039967e+2, 335054.06, -142513.9, 48991.453, -0.08650943, 0.860267, 340028.06, 340028.06, 0.00038063264, 10.003583, 9.997289 
1.965336e+3, 3.1399298e+2, 736039.25, 74337.414, 16461.607, -0.23739578, 0.7400191, 736448.5, 736448.5, 0.00069817575, 10.00621, 9.997515 
1.9748966e+3, 1.2397908e+2, -1894983.6, -1497159.1, 186121.55, 0.045845635, 0.70247024, -1423661.3, 301406.47, 0.24301729, 9.997146, 10.003431 
1.97492e+3, 1.3397686e+2, -2076613.1, -1769398.1, -2705.345, 0.14134672, 0.3468703, -1769374.3, -142288.34, 0.17062773, 9.996533, 10.000609 
1.9749376e+3, 1.4398085e+2, -2061174.5, -1808068.3, -37634.28, -0.42110807, 0.74619627, -1802591.0, -273543.8, 0.09895461, 9.996384, 9.999742 
1.9749653e+3, 1.5397932e+2, -1724039.3, -1547294.0, -45537.664, -0.019346194, 0.55976415, -1536251.4, -105184.35, 0.04335473, 9.997826, 10.000157 
1.9749908e+3, 1.6397959e+2, -1410370.6, -1179723.6, -75394.766, 0.1915215, 0.51273394, -1157265.1, 175800.48, 0.012356995, 9.998575, 10.001667 
1.9750123e+3, 1.7398268e+2, -1337102.3, -1056720.4, -22291.332, 0.04462903, 0.613258, -1054959.1, 180072.05, 0.0015709848, 9.998272, 10.001963 
1.9750349e+3, 1.8398406e+2, -1404764.6, -1325109.8, 25125.344, -0.045832068, 0.6766881, -1317846.8, -180829.8, 0.000019593592, 9.998357, 9.999416 
1.9750595e+3, 1.9398314e+2, -1213712.5, -1198005.3, 5960.1924, -0.023929382, 0.644009, -1195999.6, -156970.02, 0.0, 9.999078, 9.999257 
1.9750832e+3, 2.0398247e+2, -1046439.3, -1026768.56, -69524.195, -0.004519309, 0.64287025, -966387.5, -25348.955, 0.0, 9.999361, 9.999636 
1.9751061e+3, 2.139824e+2, -986941.4, -925405.25, -52598.45, 0.007061351, 0.64166486, -895236.7, -52197.426, 0.0, 9.999011, 9.999821 
1.9751292e+3, 2.2398202e+2, -841415.9, -768191.56, -11341.358, 0.02168993, 0.6144053, -766475.2, -21434.574, 0.0, 9.999175, 10.0001545 
1.9751528e+3, 2.339813e+2, -564554.2, -568524.25, 34619.086, 0.051053327, 0.4943934, -531863.25, 115178.49, 0.0, 10.000337, 10.000292 
1.9751763e+3, 2.4398088e+2, -535599.4, -720794.3, 71748.05, 0.013928259, 0.51887375, -511055.63, 37989.55, 0.0, 10.000786, 9.998361 
1.9751994e+3, 2.5398117e+2, -506341.56, -662866.44, 42294.1, -0.109272726, 0.703868, -495644.47, -44594.965, 0.0, 10.000365, 9.998276 
1.9752243e+3, 2.6398063e+2, -305172.88, -428785.38, 58456.816, -0.101886086, 0.79417473, -281907.3, 71152.516, 0.000000055759365, 10.000693, 9.999058 
1.9752517e+3, 2.7397916e+2, 53702.555, -171898.81, 79965.625, 0.0844928, 0.6976349, 79171.516, 334246.1, 0.0000036492006, 10.002361, 9.999332 
1.9752747e+3, 2.839785e+2, 138632.33, -252006.55, -46410.867, 0.010008286, 0.7704326, 144070.6, 301152.66, 0.00003270161, 10.002984, 9.99783 
1.9752921e+3, 2.9397866e+2, 165204.95, -167425.14, -7434.2437, -0.3732565, 0.9833902, 165371.03, 224452.23, 0.00013867494, 10.002417, 9.998001 
1.9753173e+3, 3.0397454e+2, 263442.75, -227219.23, 131761.66, -0.23398648, 0.825553, 296586.94, 296586.94, 0.0003432849, 10.003322, 9.996831 
1.9753437e+3, 3.1396747e+2, 635979.7, -24433.287, 32569.695, -0.12468624, 0.41516703, 637582.06, 637582.06, 0.0006047334, 10.005778, 9.9970255 
1.9848941e+3, 1.23956375e+2, -2132679.8, -1536434.3, 124882.66, 0.19018136, 0.8281968, -1511334.4, 213958.48, 0.25424254, 9.995168, 10.004023 
1.9849172e+3, 1.3395241e+2, -2170730.0, -1970857.1, -186318.17, 0.20861727, 0.42792428, -1859365.8, -232033.28, 0.17932345, 9.996577, 9.999198 
1.984934e+3, 1.4395592e+2, -1916702.0, -1682133.5, -91247.27, -0.43979818, 0.8367301, -1650818.8, -121519.84, 0.104643695, 9.997129, 10.000252 
1.9849634e+3, 1.539544e+2, -1647687.1, -1418429.6, -6391.156, 0.003386718, 0.57591426, -1418251.6, 13061.284, 0.046255346, 9.997958, 10.000979 
1.9849896e+3, 1.6395459e+2, -1443815.4, -1197776.3, -51285.59, 0.22865263, 0.4725446, -1187514.0, 145795.13, 0.013380272, 9.998361, 10.001639 
1.9850099e+3, 1.7395744e+2, -1348918.1, -1077437.4, -114305.42, -0.021310516, 0.5619863, -1035720.25, 199557.52, 0.0017591557, 9.998257, 10.001828 
1.9850324e+3, 1.8395908e+2, -1375181.0, -1246555.1, -41134.16, -0.12547845, 0.6325736, -1234525.5, -97265.12, 0.0000256483, 9.998274, 9.999995 
1.9850586e+3, 1.9395898e+2, -1222706.9, -1129478.5, 48626.1, 0.011614207, 0.61503047, -1108732.6, -69469.73, 0.0, 9.998687, 9.99992 
1.9850832e+3, 2.039586e+2, -1068116.0, -1056065.1, 27847.861, 0.06883463, 0.61298645, -1033598.25, -92330.03, 0.0, 9.999298, 9.99946 
1.9851054e+3, 2.13958e+2, -809812.56, -872360.44, -23607.023, -0.018356996, 0.5851079, -801902.94, 41372.707, 0.0, 10.000373, 9.999524 
1.9851282e+3, 2.2395754e+2, -620231.9, -655463.56, -37250.992, -0.052118972, 0.5642517, -596641.44, 148637.27, 0.0, 10.000667, 10.000208 
1.9851522e+3, 2.3395744e+2, -633736.75, -587361.0, -72618.695, -0.007223178, 0.49888662, -534317.94, 112955.92, 0.0, 9.99981, 10.000405 
1.9851765e+3, 2.4395737e+2, -626752.06, -725981.0, -124.38376, -0.0026324561, 0.5353301, -626751.94, -77478.59, 0.0, 10.000018, 9.998681 
1.9852008e+3, 2.539573e+2, -253571.08, -503892.2, 57884.75, -0.08307903, 0.6505138, -240833.81, 210445.36, 0.0, 10.00195, 9.998602 
1.985226e+3, 2.6395655e+2, -78876.54, -348898.63, 93399.83, -0.09138767, 0.71830475, -49718.434, 303572.34, 0.00000004684117, 10.002373, 9.998798 
1.985252e+3, 2.7395537e+2, -242267.16, -359762.53, 32967.13, -0.003869545, 0.68763596, -233649.25, 21656.482, 0.000003631824, 10.000505, 9.998942 
1.985276e+3, 2.8395462e+2, -181821.78, -333272.34, -64960.75, -0.009629241, 0.7475951, -157776.23, -461.79178, 0.000030883682, 10.000476, 9.998474 
1.985297e+3, 2.9395404e+2, 343858.28, 365.63663, -38906.863, -0.16027066, 0.81057596, 348210.06, 407527.78, 0.00012816787, 10.003304, 9.998722 
1.9853216e+3, 3.0395067e+2, 439711.34, -153227.17, 112088.2, -0.18544452, 0.6893979, 460192.84, 460192.84, 0.00031301912, 10.004561, 9.996743 
1.9853477e+3, 3.139451e+2, 281843.38, -193005.14, -82979.95, -0.16979034, 0.45990977, 295926.47, 295926.47, 0.0005440033, 10.003304, 9.997066 
1.9948898e+3, 1.23930305e+2, -2170269.3, -1605967.6, 162797.86, 0.20665514, 0.89820766, -1562369.8, 163183.95, 0.26535824, 9.995209, 10.003416 
1.9949141e+3, 1.3392724e+2, -2213274.3, -2074475.9, -159096.3, 0.23859654, 0.6702957, -1970301.1, -342709.25, 0.18805622, 9.996633, 9.998464 
1.9949345e+3, 1.4393026e+2, -1770822.6, -1414692.3, -71001.22, -0.13388903, 0.9810517, -1401058.8, 128504.89, 0.11045076, 9.997218, 10.0021515 
1.9949616e+3, 1.5393053e+2, -1495617.6, -1122974.8, 28991.482, 0.013468108, 0.6924522, -1120732.8, 310816.97, 0.04926506, 9.997978, 10.003106 
1.9949868e+3, 1.6393119e+2, -1511210.9, -1345977.4, -58220.17, 0.095582925, 0.56624514, -1327524.3, 6013.208, 0.014456319, 9.998402, 10.000591 
1.995008e+3, 1.7393266e+2, -1448386.4, -1289116.4, -115742.4, -0.05570418, 0.659069, -1228259.3, 7266.52, 0.0019582892, 9.998274, 10.000366 
1.995031e+3, 1.83934e+2, -1241999.9, -976874.4, -33080.426, -0.124831915, 0.6994155, -972809.2, 164701.67, 0.000032105352, 9.998307, 10.001829 
1.9950572e+3, 1.9393529e+2, -1069598.4, -802855.44, 68196.94, -0.01605145, 0.6013283, -786431.1, 253058.23, 0.0, 9.998658, 10.002172 
1.995082e+3, 2.0393556e+2, -1124375.8, -1156427.9, 57262.438, -0.0043494445, 0.5679715, -1080939.0, -139454.8, 0.0, 9.999226, 9.998808 
1.9951047e+3, 2.1393448e+2, -895626.5, -1027258.0, 23238.541, -0.14226393, 0.59031093, -891644.4, -48142.266, 0.0, 10.000272, 9.99851 
1.9951275e+3, 2.2393394e+2, -694806.56, -782502.44, -63726.066, -0.20845224, 0.6522509, -661300.44, 84210.76, 0.0, 10.000543, 9.999396 
1.9951507e+3, 2.3393434e+2, -698048.4, -705334.2, -94485.26, -0.14512092, 0.71321714, -607135.9, 40369.48, 0.0, 9.999736, 9.999633 
1.9951756e+3, 2.4393375e+2, -556683.5, -547261.44, 54165.863, -0.10120124, 0.68284416, -497602.13, 51905.527, 0.0, 9.999875, 9.999978 
1.9952029e+3, 2.5393194e+2, -163527.36, -283452.44, 134928.66, -0.07669236, 0.46801162, -75837.45, 375682.03, 0.0, 10.001809, 10.000181 
1.9952281e+3, 2.6393086e+2, -165128.64, -486548.4, 28080.55, -0.11585395, 0.44609588, -162693.84, 190836.44, 0.000000042002604, 10.002196, 9.997937 
1.9952504e+3, 2.7393088e+2, -337128.25, -534682.6, -29756.252, -0.22735898, 0.6511362, -332743.6, -77204.94, 0.0000035134383, 10.0004225, 9.997775 
1.9952755e+3, 2.8392926e+2, -164875.56, -275997.22, 11814.144, -0.12850335, 0.6727757, -163633.4, -6075.1694, 0.00002820436, 10.000378, 9.998917 
1.9953044e+3, 2.9392564e+2, 363203.66, 80537.6, 76830.73, 0.23933005, 0.353966, 382737.0, 442327.3, 0.00011358975, 10.003124, 9.999359 
1.9953273e+3, 3.0392528e+2, 384371.44, -182009.3, 62642.34, -0.082729526, 0.49997166, 391217.0, 391217.0, 0.00027751442, 10.004206, 9.996709 
1.9953471e+3, 3.1392556e+2, 260084.36, -169508.08, -95222.72, -0.57271, 0.84564346, 280245.13, 280245.13, 0.0004885508, 10.003041, 9.997335 
2.0048852e+3, 1.23904124e+2, -1958769.9, -1542179.1, 112552.67, 0.1619613, 0.90125245, -1513715.0, 212096.67, 0.27641812, 9.996723, 10.003269 
2.0049106e+3, 1.3390139e+2, -2122852.3, -1995956.6, -16571.049, 0.1884991, 0.68381846, -1993828.3, -365979.38, 0.1968332, 9.997085, 9.998783 
2.0049338e+3, 1.4390501e+2, -1717856.8, -1323686.5, 56731.504, 0.07600218, 0.9997909, -1315683.9, 214131.16, 0.11636926, 9.997251, 10.002836 
2.0049596e+3, 1.5390673e+2, -1636884.5, -1131835.4, 39362.97, 0.07444663, 0.7977408, -1128785.9, 302999.03, 0.05238356, 9.996744, 10.003647 
2.0049843e+3, 1.6390763e+2, -1732519.4, -1474282.3, -53476.85, 0.07163039, 0.67376405, -1463646.1, -129877.12, 0.015589432, 9.996975, 10.000403 
2.0050065e+3, 1.739077e+2, -1429317.4, -1309965.4, -33552.742, -0.037450623, 0.65198004, -1301179.6, -65409.418, 0.0021699998, 9.998537, 10.000095 
2.00503e+3, 1.8390828e+2, -1124407.0, -932592.8, 18526.117, -0.07287081, 0.6367567, -930819.9, 206942.52, 0.00003871999, 9.999175, 10.001711 
2.005056e+3, 1.9390984e+2, -1072091.4, -818420.0, -67155.164, 0.014939429, 0.57509804, -801738.8, 237999.9, 0.0, 9.99871, 10.002036 
2.0050809e+3, 2.0391047e+2, -1179284.9, -1136866.0, -98945.62, 0.004519514, 0.56818306, -1056882.3, -115152.734, 0.0, 9.9986515, 9.999219 
2.0051041e+3, 2.1390992e+2, -992702.56, -1017983.5, -32241.582, -0.17423147, 0.59798896, -970712.06, -126971.87, 0.0, 9.999362, 9.999014 
2.0051277e+3, 2.239094e+2, -780366.3, -865695.44, -63535.867, -0.22103561, 0.65083325, -746499.4, -750.58624, 0.0, 10.00015, 9.999013 
2.0051518e+3, 2.3390892e+2, -523492.38, -675186.56, -92877.04, -0.07590948, 0.67631525, -479427.3, 168326.2, 0.0, 10.001185, 9.999139 
2.0051773e+3, 2.4390797e+2, -310073.0, -422555.72, 53186.36, -0.00095644203, 0.6353022, -288907.13, 260852.67, 0.0, 10.001513, 10.000062 
2.0052043e+3, 2.5390667e+2, -319907.2, -344967.25, 23606.63, -0.058954418, 0.4573605, -305711.28, 146054.1, 0.0, 10.000653, 10.000324 
2.0052294e+3, 2.639058e+2, -374780.16, -568667.0, -114377.69, -0.13838483, 0.44422862, -321789.3, 31983.611, 0.000000029896977, 10.000684, 9.998093 
2.0052518e+3, 2.739053e+2, -58475.88, -387564.9, -99334.836, -0.22023445, 0.58317316, -30816.574, 224969.97, 0.0000031274246, 10.00228, 9.9978895 
2.0052777e+3, 2.8390354e+2, 181296.67, -185201.92, 8686.064, -0.07940735, 0.6121626, 181502.4, 339311.97, 0.000025154262, 10.00308, 9.998244 
2.0053071e+3, 2.9390067e+2, 174497.47, -106577.06, -61746.36, 0.25170016, 0.46030942, 187463.73, 247302.17, 0.00009776422, 10.002246, 9.998497 
2.0053296e+3, 3.0390084e+2, 176832.75, -206558.75, -93884.27, -0.17820594, 0.6836462, 198588.44, 198588.44, 0.00024033496, 10.002439, 9.997403 
2.0053528e+3, 3.1389925e+2, 661369.44, 130314.43, -140930.23, -0.42358452, 0.75433064, 696451.6, 696451.6, 0.00043298, 10.005304, 9.99833 
2.0148797e+3, 1.238777e+2, -1922144.6, -1501792.3, -144797.69, -0.10253515, 0.82825875, -1456742.3, 269325.5, 0.28771394, 9.996826, 10.003657 
2.0149057e+3, 1.338747e+2, -2018113.1, -1781082.8, 15767.577, -0.02439581, 0.45867798, -1780038.5, -151934.25, 0.20582092, 9.997094, 10.0002575 
2.0149316e+3, 1.4388001e+2, -1750297.5, -1392042.6, 36348.926, 0.10526586, 0.8777627, -1388391.9, 141662.47, 0.12247417, 9.997279, 10.002299 
2.0149569e+3, 1.5388297e+2, -1706718.3, -1270698.5, 25819.77, 0.11937486, 0.89277524, -1269174.8, 162844.31, 0.055639356, 9.996747, 10.002642 
2.0149815e+3, 1.6388397e+2, -1677752.8, -1372073.9, -8594.831, 0.07401862, 0.8046941, -1371832.4, -37829.117, 0.016791714, 9.997025, 10.001081 
2.0150052e+3, 1.7388247e+2, -1366844.3, -1178243.1, 30139.27, -0.018232688, 0.5413968, -1173543.9, 62468.387, 0.0023981123, 9.998529, 10.001004 
2.0150296e+3, 1.8388183e+2, -1261846.5, -1226272.3, -1157.6796, -0.04338171, 0.441158, -1226234.6, -88218.625, 0.000045425786, 9.999207, 9.999682 
2.0150551e+3, 1.9388261e+2, -1246765.5, -1175942.3, -80886.17, 0.034861263, 0.5444325, -1123055.8, -83045.16, 0.0, 9.998687, 9.999595 
2.0150799e+3, 2.0388341e+2, -1085934.1, -929240.7, -82236.37, 0.0041033053, 0.6236533, -894004.7, 47998.047, 0.0, 9.998594, 10.00067 
2.0151037e+3, 2.1388437e+2, -878822.94, -751939.4, 124.56125, -0.1724151, 0.61701775, -751939.25, 92050.36, 0.0, 9.999241, 10.000897 
2.0151286e+3, 2.2388382e+2, -808856.06, -888776.44, -32999.523, -0.17227876, 0.5682517, -796991.7, -50998.86, 0.0, 9.999986, 9.998936 
2.0151551e+3, 2.3388113e+2, -555562.75, -727963.3, -47187.88, 0.1259031, 0.40217376, -543492.0, 104527.24, 0.0, 10.001109, 9.99882 
2.0151809e+3, 2.4387999e+2, -404431.63, -582294.8, 25083.81, 0.19738993, 0.4021775, -400961.78, 149068.81, 0.0, 10.001368, 9.999028 
2.0152046e+3, 2.5388134e+2, -418591.9, -519950.22, -1013.5539, -0.0896551, 0.60642785, -418581.78, 33435.184, 0.0, 10.000541, 9.999169 
2.0152292e+3, 2.6388115e+2, -325610.53, -437103.34, -71007.7, -0.23852259, 0.6831973, -291080.94, 62939.438, 0.0000000091701935, 10.000554, 9.999063 
2.0152557e+3, 2.7387866e+2, 14481.267, -207355.95, -28212.408, -0.07777024, 0.4945239, 18012.986, 274061.9, 0.0000023642951, 10.002158, 9.9991865 
2.0152819e+3, 2.838775e+2, 27360.146, -467330.63, -24149.578, 0.0127481455, 0.593625, 28536.273, 186603.19, 0.000021595964, 10.002925, 9.996375 
2.0153055e+3, 2.9387864e+2, 8638.951, -450637.1, -88172.414, -0.16080111, 1.0638024, 24984.662, 85051.3, 0.000083873885, 10.002233, 9.996142 
2.0153283e+3, 3.0387682e+2, 226592.52, -54909.85, -24023.94, -0.58288586, 1.1712534, 228628.05, 228628.05, 0.00020822513, 10.002252, 9.998524 
2.015362e+3, 3.1386927e+2, 694440.5, 351269.4, 156546.27, -0.066543445, 0.47258785, 755122.75, 755122.75, 0.00038286584, 10.0046835, 10.000132 
2.024876e+3, 1.2385195e+2, -2090147.6, -1654612.0, -193557.64, -0.12913492, 0.73647994, -1581025.4, 145292.77, 0.29983783, 9.996173, 10.002609 
2.0249036e+3, 1.3385066e+2, -1918640.6, -1626178.9, 85102.414, 0.05592934, 0.45753974, -1603217.9, 25118.082, 0.21537028, 9.9973135, 10.001248 
2.0249286e+3, 1.4385597e+2, -1634712.3, -1423275.6, 37980.54, 0.03627864, 0.849644, -1416660.1, 113626.555, 0.12892798, 9.998463, 10.001495 
2.0249544e+3, 1.5385772e+2, -1539337.8, -1321221.1, -10048.239, 0.11984681, 0.8611373, -1320759.3, 111508.45, 0.05909158, 9.99847, 10.001446 
2.0249794e+3, 1.6385822e+2, -1492145.8, -1267226.8, -27444.78, 0.12486834, 0.78296846, -1263926.3, 70332.4, 0.018083457, 9.998227, 10.001227 
2.0250045e+3, 1.7385751e+2, -1406854.0, -1161361.5, -36780.566, 0.079723135, 0.569783, -1155969.4, 80288.164, 0.0026487417, 9.998113, 10.001316 
2.0250294e+3, 1.8385704e+2, -1433992.1, -1376521.0, -51394.598, 0.05547913, 0.4964839, -1346374.1, -208114.75, 0.000052423693, 9.99831, 9.999082 
2.0250538e+3, 1.9385685e+2, -1216521.9, -1243093.1, -19037.324, 0.016084177, 0.57179004, -1206592.6, -166326.52, 0.0, 9.999235, 9.99887 
2.0250785e+3, 2.0385715e+2, -941818.94, -835682.56, 15005.693, -0.016463015, 0.6306702, -833601.9, 108661.92, 0.0, 9.999483, 10.00088 
2.0251037e+3, 2.1385829e+2, -914878.5, -734542.0, -32190.197, -0.05167475, 0.6098921, -728968.3, 115277.875, 0.0, 9.99884, 10.001205 
2.0251293e+3, 2.2385785e+2, -941086.6, -953502.9, -63704.395, -0.024178052, 0.5544794, -883288.56, -137041.66, 0.0, 9.999087, 9.998919 
2.0251557e+3, 2.3385523e+2, -597539.5, -750626.8, -64211.24, 0.09217888, 0.40107122, -574173.1, 74100.08, 0.0, 10.000845, 9.998783 
2.0251812e+3, 2.43854e+2, -378643.44, -604570.6, -23279.137, 0.09414193, 0.40877855, -376269.75, 174016.13, 0.0, 10.0017, 9.99871 
2.025205e+3, 2.538548e+2, -351059.25, -529263.8, -13540.968, -0.11854364, 0.5927608, -350036.2, 102242.31, 0.0, 10.001186, 9.998792 
2.0252302e+3, 2.638543e+2, -253130.47, -457580.78, -17341.291, -0.21174736, 0.6810594, -251670.03, 102616.21, 0.000000001074916, 10.001274, 9.998581 
2.0252578e+3, 2.7385217e+2, -12108.328, -277513.78, -107512.07, -0.07614132, 0.58143157, 25977.877, 282291.7, 0.0000018159459, 10.002216, 9.998678 
2.0252845e+3, 2.8385115e+2, 131203.63, -402774.4, -120301.34, -0.0402339, 0.71469474, 157055.08, 315385.5, 0.000018189116, 10.003565, 9.996513 
2.0253077e+3, 2.9385146e+2, 483120.56, -186453.08, -45106.297, -0.30924433, 1.0851429, 486145.5, 546478.0, 0.000072171526, 10.005356, 9.996443 
2.025332e+3, 3.0384734e+2, 552933.7, 23160.771, 38060.465, -0.5446552, 0.97408104, 555654.1, 555654.1, 0.00017992141, 10.004789, 9.997859 
2.025365e+3, 3.138424e+2, 104312.58, 41409.613, 81968.3, 0.00033578853, 0.6207301, 160656.3, 160656.3, 0.00033497292, 10.000707, 9.99992 
2.0348726e+3, 1.23826854e+2, -2267375.0, -2008632.3, -213056.08, -0.13712268, 0.59289634, -1888745.0, -162182.0, 0.3135409, 9.996261, 9.999773 
2.0349042e+3, 1.3382933e+2, -1887246.9, -1584380.6, 149578.3, 0.35814434, 0.68383235, -1522962.5, 105581.57, 0.22593072, 9.997352, 10.001657 
2.0349246e+3, 1.4383282e+2, -1694454.9, -1560792.3, 43076.72, -0.23235656, 0.91839916, -1548112.4, -17599.654, 0.13594478, 9.998582, 10.000383 
2.034952e+3, 1.5383087e+2, -1632958.3, -1514572.9, -10933.747, 0.012847128, 0.69801605, -1513571.5, -81039.55, 0.06282382, 9.998498, 10.000056 
2.0349781e+3, 1.6383027e+2, -1508295.9, -1316147.5, -43054.867, 0.13643266, 0.60293484, -1306941.3, 27594.865, 0.019494196, 9.99829, 10.000855 
2.0350039e+3, 1.738328e+2, -1418354.6, -1192444.3, -35229.76, 0.18804806, 0.7352541, -1187077.8, 49428.64, 0.0029308582, 9.998134, 10.001094 
2.0350286e+3, 1.838339e+2, -1374722.8, -1261602.9, -23461.148, 0.13747948, 0.7939539, -1256930.0, -118437.2, 0.00006041413, 9.998349, 9.999852 
2.035052e+3, 1.9383249e+2, -1158207.6, -1113709.0, 21804.27, -0.096635364, 0.66099, -1104806.1, -64299.89, 0.0, 9.999204, 9.999774 
2.0350769e+3, 2.0383155e+2, -1012438.0, -976325.25, -10351.975, -0.14991455, 0.5892278, -973568.25, -31054.213, 0.0, 9.999455, 9.9999275 
2.0351043e+3, 2.1383166e+2, -1006037.2, -911219.6, -51974.45, 0.115179814, 0.5805201, -888279.75, -43769.492, 0.0, 9.998781, 10.000025 
2.0351303e+3, 2.2383147e+2, -957152.2, -952032.44, -11428.019, 0.1332901, 0.6122997, -942881.06, -196370.28, 0.0, 9.998945, 9.998994 
2.0351535e+3, 2.3383097e+2, -604827.94, -736552.06, 13125.919, -0.21553852, 0.6532478, -603532.75, 44984.316, 0.0, 10.000723, 9.998939 
2.0351784e+3, 2.4382964e+2, -381898.53, -572225.1, -37948.39, -0.37206247, 0.62915146, -374611.2, 175918.14, 0.0, 10.001532, 9.999015 
2.0352055e+3, 2.53827e+2, -334102.72, -481951.4, -27652.598, -0.21148212, 0.43306223, -329100.06, 123450.42, 0.0, 10.001123, 9.999152 
2.035232e+3, 2.6382533e+2, -406688.63, -739457.7, 7267.6523, -0.1673222, 0.46457365, -406529.97, -51959.805, 0.000000023664393, 10.001129, 9.99671 
2.0352583e+3, 2.7382556e+2, -185003.39, -606905.5, -56607.348, -0.27231234, 0.8148682, -177540.3, 79043.36, 0.0000019634658, 10.002089, 9.996478 
2.0352854e+3, 2.8382412e+2, 225174.52, -147608.53, -60817.836, -0.31233948, 0.9508679, 234845.77, 393448.1, 0.000016146072, 10.003316, 9.9983835 
2.0353134e+3, 2.9381964e+2, 630398.56, 168524.03, 34365.17, -0.29343387, 0.5963477, 632941.5, 693574.25, 0.00006227005, 10.00513, 9.999 
2.0353398e+3, 3.038128e+2, 311278.22, -363725.6, -107470.02, -0.2666867, 0.1780587, 327975.88, 327975.88, 0.0001542965, 10.004332, 9.995401 
2.0353638e+3, 3.1381556e+2, -69866.72, -255095.94, 14602.016, -0.22649835, 0.89264137, -68722.68, -68722.68, 0.0002896245, 10.000453, 9.9979925 
2.0448695e+3, 1.238021e+2, -2154296.0, -1978792.5, -219675.7, -0.100275904, 0.64914995, -1829990.3, -103181.05, 0.3294151, 9.997143, 9.999555 
2.0449029e+3, 1.338052e+2, -1991035.4, -1607496.5, 39419.555, 0.55577916, 0.7958939, -1603486.9, 25294.174, 0.23787552, 9.996568, 10.001754 
2.044921e+3, 1.438068e+2, -2027005.6, -1724233.3, -21174.205, -0.32441843, 0.8383088, -1722759.6, -191993.33, 0.14372098, 9.996317, 10.000353 
2.0449501e+3, 1.5380536e+2, -1687811.8, -1540264.8, 14458.303, 0.0019476769, 0.66859794, -1538861.4, -106081.2, 0.06692591, 9.998117, 10.000063 
2.0449772e+3, 1.6380504e+2, -1416066.1, -1326916.3, 20088.178, 0.18987878, 0.6229485, -1322598.9, 12183.78, 0.021061258, 9.99917, 10.000351 
2.0450029e+3, 1.7380719e+2, -1292960.8, -1196810.1, -18919.07, 0.23772646, 0.7715901, -1193221.5, 43538.7, 0.003256253, 9.999277, 10.000507 
2.0450278e+3, 1.8380815e+2, -1212911.4, -1142572.5, -10975.536, 0.17196679, 0.83669734, -1140899.8, -2150.9978, 0.00007088071, 9.999289, 10.000217 
2.045051e+3, 1.9380718e+2, -1102813.9, -1030598.8, -4013.9165, -0.11889092, 0.698831, -1030376.4, 10379.144, 0.0, 9.999349, 10.000274 
2.045076e+3, 2.0380616e+2, -1025031.94, -1075271.1, -44447.1, -0.18373576, 0.6269787, -999097.25, -56332.94, 0.0, 9.999764, 9.999106 
2.0451042e+3, 2.1380538e+2, -756978.0, -895947.25, -87042.02, 0.122012876, 0.6282184, -715087.44, 129685.51, 0.0, 10.0009575, 9.999077 
2.0451307e+3, 2.2380494e+2, -592919.56, -773868.8, -21232.816, 0.1727565, 0.68506074, -590461.44, 156316.94, 0.0, 10.001415, 9.999033 
2.0451544e+3, 2.3380499e+2, -595606.3, -711819.44, -7363.1514, -0.20146522, 0.7632229, -595141.6, 53637.445, 0.0, 10.000689, 9.999122 
2.0451796e+3, 2.4380387e+2, -515786.6, -637169.7, -58968.78, -0.3624272, 0.7524259, -491856.75, 58931.965, 0.0, 10.000608, 9.999014 
2.0452067e+3, 2.5380108e+2, -273282.06, -452842.63, -88046.51, -0.20186149, 0.54313344, -237313.84, 215497.36, 0.0, 10.001552, 9.99914 
2.0452337e+3, 2.6379898e+2, -255900.05, -671590.56, 8120.0264, -0.15883565, 0.5364496, -255741.5, 99091.57, 0.00000011200642, 10.002183, 9.996669 
2.04526e+3, 2.737984e+2, -167860.53, -601626.75, 75818.18, -0.2906512, 0.80905896, -154990.13, 101860.25, 0.000002326167, 10.002234, 9.996436 
2.0452878e+3, 2.8379643e+2, 47176.86, -244469.42, 119786.016, -0.32837522, 0.89748687, 90067.99, 248940.05, 0.000014696717, 10.00212, 9.9983 
2.0453171e+3, 2.9379198e+2, 122914.164, -80633.984, 11234.158, -0.24564596, 0.5600783, 123532.32, 184436.19, 0.00005375532, 10.001665, 9.998951 
2.0453447e+3, 3.0378604e+2, 42892.66, -477424.03, -168002.31, -0.09113731, 0.21983193, 92423.09, 92423.09, 0.00013235425, 10.002407, 9.995545 
2.0453659e+3, 3.137886e+2, 520182.16, -44305.613, 53794.918, -0.28478846, 0.92477137, 525263.0, 525263.0, 0.00025227523, 10.004792, 9.997357 
2.0548671e+3, 1.2377814e+2, -1952721.5, -1632152.4, -25753.2, -0.0894574, 0.94769627, -1630096.6, 96956.08, 0.3476065, 9.9972315, 10.002244 
2.0549e+3, 1.3377842e+2, -2002231.4, -1632987.6, -4843.737, 0.564431, 0.8057537, -1632924.0, -3878.4932, 0.2513395, 9.99661, 10.001504 
2.0549175e+3, 1.4377773e+2, -1948090.5, -1562575.8, 23138.496, -0.34982452, 0.5938097, -1561192.0, -30143.285, 0.15236652, 9.9963255, 10.001458 
2.0549485e+3, 1.5378131e+2, -1580453.6, -1327594.9, 89023.375, 0.0016866025, 0.7779898, -1299397.1, 133613.88, 0.071473114, 9.998127, 10.001584 
2.0549768e+3, 1.637827e+2, -1459186.3, -1434412.3, 25753.596, 0.20226955, 0.8521191, -1418221.6, -83224.89, 0.022826005, 9.999239, 9.999585 
2.0550017e+3, 1.7378063e+2, -1368498.9, -1357543.0, -11541.1875, 0.17091843, 0.6887645, -1350245.8, -113226.73, 0.0036400491, 9.999289, 9.999404 
2.0550263e+3, 1.837797e+2, -1205340.0, -1139398.3, -15144.792, 0.07096138, 0.62602234, -1136086.4, 2942.1575, 0.00008593674, 9.999334, 10.000219 
2.0550506e+3, 1.9378082e+2, -1092276.9, -1011297.94, 2540.6423, -0.12566003, 0.68192124, -1011218.3, 29797.03, 0.0, 9.9993515, 10.000408 
2.0550756e+3, 2.0378084e+2, -1081188.4, -1184420.0, -10067.53, -0.2049493, 0.7379198, -1080215.8, -137199.98, 0.0, 9.999733, 9.998371 
2.0551033e+3, 2.1377921e+2, -830796.9, -1030123.44, -34596.71, -0.08128985, 0.7388918, -824962.75, 20073.906, 0.0, 10.000868, 9.9982 
2.0551306e+3, 2.2377789e+2, -613685.25, -777455.9, -43022.152, 0.0059594163, 0.75491023, -603071.3, 143981.42, 0.0, 10.001253, 9.999083 
2.0551577e+3, 2.3377724e+2, -597134.3, -689774.8, -27019.705, 0.044916302, 0.74246716, -589829.6, 59229.813, 0.0, 10.000581, 9.999326 
2.0551838e+3, 2.4377674e+2, -562684.25, -689150.56, -35730.54, 0.0062736385, 0.7920508, -553287.5, -2223.398, 0.0, 10.000423, 9.998742 
2.055209e+3, 2.5377667e+2, -315292.5, -514695.66, -42272.957, -0.1556036, 0.89200664, -306700.94, 146362.92, 0.0, 10.001448, 9.998764 
2.055235e+3, 2.6377487e+2, -166503.69, -451351.88, 9544.833, -0.25818664, 0.86585253, -166184.22, 188894.81, 0.00000017468948, 10.002036, 9.99825 
2.0552632e+3, 2.7377057e+2, -46527.875, -337788.47, 86185.51, -0.22786167, 0.5833645, -22936.053, 234180.13, 0.0000023499456, 10.002172, 9.998282 
2.0552912e+3, 2.837678e+2, -127405.93, -551623.6, 93000.33, -0.22682732, 0.5774051, -107913.336, 51229.69, 0.000012296112, 10.001903, 9.996285 
2.0553188e+3, 2.9376754e+2, -61745.81, -444521.34, 9306.472, -0.26194173, 0.89571667, -61519.67, -366.3374, 0.000044415407, 10.001582, 9.996489 
2.055347e+3, 3.037653e+2, 146565.7, -173980.45, -103860.49, -0.13912506, 0.9562519, 177275.5, 177275.5, 0.00011223961, 10.00206, 9.997784 
2.05537e+3, 3.1376103e+2, 434243.72, -89890.53, 64082.742, -0.3607971, 0.7021379, 441965.0, 441965.0, 0.00022214535, 10.004232, 9.99731 
2.064864e+3, 1.2375057e+2, -2234417.5, -1623290.0, 67978.54, 0.0064087794, 0.8970016, -1615819.8, 111502.49, 0.36771804, 9.994625, 10.003639 
2.064896e+3, 1.3375156e+2, -2013908.6, -1695778.8, -43434.438, 0.53311366, 0.8569707, -1689955.3, -60647.258, 0.26616043, 9.996768, 10.000992 
2.0649153e+3, 1.4374909e+2, -1733707.9, -1445706.3, -20855.615, -0.2625979, 0.48420542, -1444203.9, 87124.586, 0.1618756, 9.997661, 10.001733 
2.064946e+3, 1.5375383e+2, -1686567.6, -1330417.9, -45362.313, 0.016291399, 0.74193275, -1324730.9, 108547.734, 0.07651462, 9.997193, 10.0020075 
2.0649749e+3, 1.6375592e+2, -1722356.6, -1555346.0, -114640.086, 0.16794455, 0.8592119, -1497022.3, -161764.72, 0.024829434, 9.997409, 9.999636 
2.065e+3, 1.7375351e+2, -1435995.3, -1388169.1, -80608.36, 0.10354021, 0.6601698, -1328001.6, -90717.06, 0.0041003036, 9.998821, 9.999414 
2.0650251e+3, 1.8375254e+2, -1180419.0, -1136670.4, -51288.363, 0.02337134, 0.5960912, -1102786.5, 36509.844, 0.000108260756, 9.999558, 10.000122 
2.06505e+3, 1.9375418e+2, -1076400.8, -1008954.06, -68272.445, -0.09682067, 0.71542, -966530.25, 74750.08, 0.0, 9.999498, 10.000345 
2.065076e+3, 2.037547e+2, -1038078.56, -1098727.1, -3731.566, -0.14760052, 0.79985875, -1037849.8, -94573.57, 0.0, 9.999754, 9.998947 
2.0651038e+3, 2.1375348e+2, -815769.1, -948638.1, 76720.11, -0.10546477, 0.7780506, -780717.06, 64573.168, 0.0, 10.000656, 9.998861 
2.0651314e+3, 2.2375222e+2, -659073.8, -835325.75, 82373.63, -0.03538319, 0.77602994, -626569.75, 120735.234, 0.0, 10.001099, 9.998765 
2.0651586e+3, 2.3375106e+2, -594005.4, -739068.75, 31169.107, 0.081352636, 0.75923055, -587591.75, 61727.4, 0.0, 10.000832, 9.998867 
2.0651856e+3, 2.4375038e+2, -488990.03, -686333.4, 55257.74, 0.09111269, 0.82942456, -474570.97, 76756.64, 0.0, 10.001062, 9.998458 
2.0652112e+3, 2.5375056e+2, -246025.08, -509304.9, 46309.727, -0.09815255, 0.97885346, -238116.95, 215209.31, 0.0, 10.002041, 9.998515 
2.065238e+3, 2.6374865e+2, -47470.316, -366747.47, 47441.33, -0.19358069, 0.9461159, -40570.145, 314771.53, 0.00000012472299, 10.002724, 9.998507 
2.0652667e+3, 2.7374366e+2, 93680.8, -231397.42, -2393.3418, -0.12988637, 0.5645814, 93698.414, 351080.72, 0.0000018192295, 10.002966, 9.998631 
2.0652944e+3, 2.83741e+2, 51065.18, -476849.2, 13208.734, -0.14698276, 0.5487877, 51395.46, 210803.52, 0.000008845643, 10.003162, 9.9962015 
2.0653203e+3, 2.9374203e+2, 130736.94, -383039.63, 55011.895, -0.3358307, 1.0202634, 136561.23, 197971.2, 0.000033872344, 10.003048, 9.996207 
2.0653479e+3, 3.0374098e+2, 322400.72, 6417.802, 35973.766, -0.2714116, 1.1788802, 326444.5, 326444.5, 0.00009224371, 10.002797, 9.998705 
2.0653747e+3, 3.137339e+2, 233117.08, -63783.094, 13441.707, -0.21685533, 0.5379192, 233724.39, 233724.39, 0.00019314763, 10.002281, 9.998456 
2.0748591e+3, 1.23718664e+2, -2232776.0, -1628914.0, 18283.771, -0.0025626344, 0.4251875, -1628361.0, 99263.17, 0.38886976, 9.994654, 10.003583 
2.0748912e+3, 1.3372439e+2, -2051120.4, -1786916.4, 37847.74, 0.33814764, 0.93261635, -1781601.5, -152031.48, 0.28190908, 9.996823, 10.000342 
2.0749143e+3, 1.4372101e+2, -1766653.9, -1522064.6, -42053.008, -0.1459937, 0.528175, -1515036.3, 16567.832, 0.17213808, 9.997744, 10.001084 
2.0749432e+3, 1.5372278e+2, -1732248.4, -1428779.1, -58814.496, -0.028471319, 0.56299543, -1417779.3, 15805.071, 0.08207624, 9.997232, 10.001265 
2.0749708e+3, 1.6372442e+2, -1650177.8, -1411347.8, -79334.695, -0.010189074, 0.63586605, -1387396.3, -51828.72, 0.027111659, 9.997433, 10.000612 
2.0749976e+3, 1.7372572e+2, -1350959.4, -1211875.9, -23093.592, -0.032629497, 0.6888007, -1208141.6, 29415.89, 0.0046569863, 9.998823, 10.000624 
2.0750241e+3, 1.8372664e+2, -1184452.1, -1160150.4, -52065.137, -0.048796326, 0.7529607, -1118837.0, 20715.176, 0.00014131474, 9.999621, 9.999931 
2.0750499e+3, 1.9372714e+2, -1106351.1, -1069211.3, -66472.06, -0.08861541, 0.7957024, -1018764.0, 22787.814, 0.0000000002137382, 9.999486, 9.99994 
2.0750764e+3, 2.0372756e+2, -916518.6, -836967.5, 18355.82, -0.095591985, 0.81278646, -832936.3, 110611.48, 0.0, 9.999709, 10.000764 
2.0751052e+3, 2.1372801e+2, -681994.1, -645594.25, 115574.15, -0.024306498, 0.74372333, -546795.8, 298740.16, 0.0, 10.000544, 10.000998 
2.0751326e+3, 2.237277e+2, -734001.94, -946944.75, 73306.8, -0.026070299, 0.74608177, -711206.0, 36331.563, 0.0, 10.000918, 9.998079 
2.0751575e+3, 2.3372623e+2, -688580.3, -911150.06, 28490.965, -0.13750856, 0.8055691, -684991.06, -35430.473, 0.0, 10.000731, 9.997732 
2.0751838e+3, 2.4372454e+2, -533565.8, -745371.4, 82507.57, -0.17901242, 0.8524676, -505219.22, 46363.086, 0.0, 10.000923, 9.998118 
2.0752133e+3, 2.537227e+2, -279186.16, -547093.5, 91018.37, -0.100171305, 0.82283133, -251189.44, 202409.89, 0.0, 10.001908, 9.998319 
2.0752423e+3, 2.6372036e+2, -154609.5, -529900.0, 52691.938, -0.06479428, 0.8001639, -147351.75, 208269.73, 0.000000021824269, 10.002478, 9.9975 
2.0752703e+3, 2.737173e+2, -423.77737, -392293.13, 20855.744, -0.07335563, 0.71971637, 683.0635, 258334.63, 0.00000084431264, 10.002827, 9.99759 
2.0752971e+3, 2.837154e+2, 128770.81, -265816.6, 3659.241, -0.19973055, 0.7634462, 128804.75, 288476.5, 0.000005133315, 10.002956, 9.9977455 
2.0753212e+3, 2.9371542e+2, 223965.67, -167273.86, 64171.758, -0.55059695, 0.9515446, 234222.34, 295897.1, 0.000023723636, 10.002934, 9.997747 
2.0753475e+3, 3.0371317e+2, 214913.17, -94090.32, 4277.0425, -0.6142908, 0.94455236, 214972.36, 214972.36, 0.00007269625, 10.002323, 9.998217 
2.0753781e+3, 3.1370917e+2, 295757.34, 202021.81, 79726.94, -0.13996792, 0.62524265, 341371.88, 341371.88, 0.0001603918, 10.001768, 10.000501 
2.0848547e+3, 1.2369107e+2, -1964625.9, -1496021.5, -57174.805, 0.042771067, 0.38156176, -1489146.5, 238748.9, 0.40993002, 9.996084, 10.004481 
2.084887e+3, 1.3369732e+2, -1978911.4, -1802584.5, 131819.7, 0.22472306, 0.9759732, -1732162.9, -102326.71, 0.29801235, 9.997543, 9.999882 
2.0849136e+3, 1.4369357e+2, -1706334.9, -1524066.6, -3238.4324, -0.028019244, 0.56947905, -1524009.1, 7865.567, 0.18298064, 9.998315, 10.000772 
2.0849411e+3, 1.536948e+2, -1702486.3, -1456314.6, -15975.699, 0.050807707, 0.5858528, -1455282.1, -21420.44, 0.088167645, 9.997627, 10.000878 
2.0849682e+3, 1.6369627e+2, -1627491.1, -1356571.6, 30304.643, 0.033007067, 0.6473409, -1353223.1, -17376.018, 0.029713616, 9.997393, 10.001015 
2.0849964e+3, 1.7369798e+2, -1428943.9, -1193368.1, 26212.182, -0.0035387387, 0.68989456, -1190486.8, 47344.875, 0.005333032, 9.9980345, 10.001139 
2.0850237e+3, 1.8369922e+2, -1324989.9, -1234945.5, -37806.07, -0.019283451, 0.759927, -1221177.5, -81354.67, 0.00018960002, 9.998672, 9.999886 
2.0850493e+3, 1.9369997e+2, -1094347.3, -1079201.9, -45570.203, -0.082802735, 0.83843404, -1040579.44, 1242.6205, 0.000000020895914, 9.999621, 9.999814 
2.0850761e+3, 2.0370066e+2, -859959.56, -746506.5, 9301.89, -0.100649685, 0.8689419, -745748.94, 198066.89, 0.0, 9.9998455, 10.001317 
2.085105e+3, 2.1370143e+2, -843818.9, -649164.56, -19878.54, -0.025329005, 0.7678589, -647155.25, 198643.77, 0.0, 9.999122, 10.001651 
2.0851326e+3, 2.2370137e+2, -953131.3, -1042150.0, -64733.914, -0.024934044, 0.75386155, -919081.4, -171284.38, 0.0, 9.999351, 9.998194 
2.085158e+3, 2.337001e+2, -616237.2, -871352.25, -34106.727, -0.16200213, 0.8319183, -611756.1, 38061.625, 0.0, 10.001191, 9.997794 
2.085185e+3, 2.436984e+2, -391442.38, -651278.94, 64469.1, -0.18584807, 0.8649723, -376326.1, 175512.86, 0.0, 10.001786, 9.998347 
2.0852149e+3, 2.5369614e+2, -478227.0, -616232.8, 88298.05, -0.04058245, 0.77008396, -435167.7, 18691.895, 0.0, 10.0004225, 9.998561 
2.0852442e+3, 2.636942e+2, -473397.03, -688601.75, 156625.98, 0.0026706152, 0.77062744, -390973.16, -35093.94, 0.0, 10.000315, 9.99745 
2.0852722e+3, 2.736928e+2, -83442.59, -448437.56, 181528.66, -0.1383979, 0.86911434, -8533.812, 249362.98, 0.000000115745564, 10.002327, 9.997446 
2.0852993e+3, 2.8369114e+2, 230527.86, -164786.69, 127774.32, -0.28720975, 0.92920977, 268231.3, 428145.9, 0.0000020138657, 10.003422, 9.998217 
2.0853247e+3, 2.93689e+2, 244418.44, -85832.28, 61963.117, -0.48460752, 0.85233307, 255661.47, 317594.5, 0.000014504671, 10.002787, 9.99837 
2.0853513e+3, 3.0368632e+2, 244170.02, -113839.5, 25152.152, -0.46719575, 0.7720295, 245928.45, 245928.45, 0.000053401804, 10.00263, 9.997949 
2.0853798e+3, 3.1368682e+2, 470498.34, 206450.9, 66407.91, -0.20660353, 0.95572156, 486259.16, 486259.16, 0.00012538022, 10.00325, 9.999836 
2.0948504e+3, 1.2366868e+2, -1852455.0, -1353274.0, -201100.6, -0.07266887, 0.86009413, -1282338.6, 445789.1, 0.42994058, 9.9962015, 10.006339 
2.0948835e+3, 1.3367034e+2, -1989819.9, -1833230.8, 203823.17, 0.10332955, 0.9924875, -1693181.8, -63075.645, 0.31401625, 9.997583, 9.999654 
2.0949121e+3, 1.4366668e+2, -1694507.6, -1520842.9, -28068.512, -0.018216487, 0.6104669, -1516419.0, 15721.665, 0.19429262, 9.9983835, 10.000785 
2.0949402e+3, 1.5366985e+2, -1687998.3, -1446163.6, -35651.89, 0.17618233, 0.81601363, -1441017.3, -6905.8916, 0.094824284, 9.997702, 10.000918 
2.0949678e+3, 1.6367142e+2, -1627619.3, -1381879.9, 42619.277, 0.2048182, 0.89448327, -1374698.1, -38601.77, 0.032688897, 9.997497, 10.000791 
2.0949958e+3, 1.7367025e+2, -1441303.3, -1224920.5, 52448.613, 0.12855944, 0.6721698, -1212877.8, 25229.016, 0.0061590113, 9.998057, 10.00091 
2.095023e+3, 1.8367027e+2, -1311235.4, -1214967.4, -11230.066, 0.028661499, 0.63045716, -1213674.8, -73566.625, 0.00026052183, 9.998708, 10.000006 
2.0950486e+3, 1.9367267e+2, -1085337.8, -1057944.5, -4879.004, -0.1432476, 0.85692704, -1057101.4, -15010.347, 0.00000016154512, 9.999609, 9.999967 
2.0950747e+3, 2.0367402e+2, -919435.2, -858140.75, -17755.018, -0.23424427, 0.97360754, -853369.1, 90711.305, 0.0, 9.999796, 10.000571 
2.0951028e+3, 2.1367367e+2, -921192.6, -786616.06, -41338.62, -0.16317278, 0.84904104, -774932.2, 71147.66, 0.0, 9.999023, 10.0007515 
2.0951311e+3, 2.236731e+2, -914116.56, -926455.3, -12365.844, -0.108248405, 0.7988909, -906466.56, -158382.95, 0.0, 9.9992, 9.999061 
2.0951602e+3, 2.3367262e+2, -557368.75, -715005.56, 44945.516, -0.07257054, 0.84154856, -545454.3, 104636.51, 0.0, 10.001045, 9.998937 
2.0951885e+3, 2.436719e+2, -367431.97, -555850.2, 22245.736, -0.039051987, 0.87324864, -364841.13, 187257.64, 0.0, 10.001591, 9.999096 
2.095216e+3, 2.536707e+2, -436726.1, -522935.84, 40911.61, 0.012052067, 0.8138816, -420402.1, 33706.867, 0.0, 10.00039, 9.999219 
2.0952436e+3, 2.636697e+2, -436114.34, -590509.8, 205285.0, -0.08052292, 0.8438811, -293991.72, 62126.965, 0.0, 10.000233, 9.99816 
2.095272e+3, 2.7366963e+2, -59174.254, -367041.6, 265217.7, -0.38805813, 1.0035359, 93544.95, 351667.84, 0.0, 10.002195, 9.998068 
2.0953009e+3, 2.8366786e+2, 134394.58, -277668.9, 104498.88, -0.5064224, 1.0526675, 159380.36, 319520.9, 0.00000039293647, 10.0030575, 9.997615 
2.09533e+3, 2.9366285e+2, 193306.84, -150054.81, 49772.715, -0.24810232, 0.7406053, 200376.22, 262562.4, 0.000007667558, 10.002606, 9.998017 
2.0953582e+3, 3.0365905e+2, 162605.38, -163976.42, 25904.143, -0.066569194, 0.56075, 164647.31, 164647.31, 0.000037309004, 10.002165, 9.997808 
2.0953806e+3, 3.1366453e+2, 182651.16, -238315.81, 178055.9, -0.49821433, 1.3087662, 247861.7, 247861.7, 0.00009591556, 10.002657, 9.997042 
2.1048479e+3, 1.236424e+2, -1584905.4, -1237524.9, -190486.45, -0.017800553, 1.0246116, -1153429.5, 574962.1, 0.44859928, 9.998347, 10.006795 
2.1048807e+3, 1.3364206e+2, -2094818.5, -1885677.8, 151208.44, 0.08029863, 0.93898606, -1806403.3, -176015.72, 0.3298663, 9.996856, 9.999659 
2.1049099e+3, 1.4364016e+2, -2038837.9, -1696008.9, -59012.223, 0.052010376, 0.7453102, -1686135.3, -153731.3, 0.20615475, 9.996093, 10.000652 
2.1049382e+3, 1.5364273e+2, -1753786.6, -1481590.1, -87440.27, 0.23685032, 0.89516044, -1455921.4, -21540.041, 0.10215144, 9.997285, 10.000861 
2.1049657e+3, 1.6364396e+2, -1598881.9, -1363346.4, -203.72185, 0.26029906, 0.9409959, -1363346.3, -26975.637, 0.036114734, 9.997679, 10.000826 
2.1049936e+3, 1.7364351e+2, -1578456.9, -1280253.0, 22218.744, 0.17523889, 0.78298694, -1278606.6, -40232.633, 0.007176738, 9.997074, 10.001001 
2.1050215e+3, 1.8364388e+2, -1525642.5, -1247341.9, 29544.234, 0.0966037, 0.7413727, -1244240.1, -103869.58, 0.0003661867, 9.996951, 10.000624 
2.1050481e+3, 1.9364554e+2, -1284781.9, -1074711.4, 65113.043, -0.050586306, 0.82808536, -1056166.3, -13810.415, 0.00000091193453, 9.997924, 10.000653 
2.105075e+3, 2.0364645e+2, -1118365.4, -1033621.44, 53510.47, -0.13571712, 0.89354795, -1007738.4, -63390.203, 0.0, 9.998739, 9.9998865 
2.1051022e+3, 2.1364628e+2, -933654.94, -892194.44, 16585.896, -0.11557558, 0.8702681, -886375.94, -40025.176, 0.0, 9.99935, 9.999878 
2.1051309e+3, 2.2364587e+2, -777642.7, -790920.1, 89489.81, -0.07859674, 0.8569424, -694545.7, 53808.48, 0.0, 9.999857, 9.99966 
2.1051611e+3, 2.3364508e+2, -599681.25, -643422.25, 113449.47, -0.04542923, 0.790236, -506013.44, 144345.45, 0.0, 10.000368, 9.999742 
2.1051902e+3, 2.4364443e+2, -441117.63, -638482.3, 20125.459, -0.008226511, 0.8012516, -439086.3, 113278.41, 0.0, 10.001291, 9.9986725 
2.1052176e+3, 2.5364393e+2, -121071.59, -437938.2, -70644.64, 0.016883746, 0.8748644, -106035.08, 348337.78, 0.0, 10.002865, 9.998603 
2.1052456e+3, 2.636431e+2, 53022.465, -302675.9, 48487.05, -0.06442253, 0.9373435, 59513.527, 415896.4, 0.0, 10.003344, 9.99865 
2.1052743e+3, 2.7364218e+2, -56393.055, -290183.9, 88910.01, -0.35445186, 0.953379, -26422.795, 231968.64, 0.0, 10.00188, 9.99875 
2.1053034e+3, 2.836407e+2, -113032.73, -358954.06, -17398.445, -0.43162498, 0.973843, -111807.92, 48596.91, 0.00000006547354, 10.001202, 9.997941 
2.1053335e+3, 2.936375e+2, 134176.83, -153174.56, -37474.992, -0.13158669, 0.8276265, 138983.73, 201417.55, 0.000004738257, 10.0021, 9.998236 
2.1053626e+3, 3.0363408e+2, 326188.25, -73777.34, -7859.887, 0.12242342, 0.6640473, 326342.66, 326342.66, 0.000029055158, 10.003185, 9.997956 
2.105384e+3, 3.1363583e+2, 319196.8, -150253.92, 74113.484, -0.4460669, 1.0322404, 330619.38, 330619.38, 0.000079673504, 10.0034485, 9.997282 
2.1148479e+3, 1.23611145e+2, -1624078.4, -1341295.1, -79258.445, 0.08999048, 0.7489955, -1320595.8, 408101.5, 0.46656317, 9.998478, 10.005597 
2.1148774e+3, 1.3361242e+2, -2068898.5, -1848104.4, 81933.7, 0.06670571, 0.810113, -1821021.8, -190341.39, 0.34608045, 9.996926, 9.999876 
2.1149068e+3, 1.4361379e+2, -2058019.9, -1761362.6, -26741.172, 0.079216264, 0.9551669, -1758971.5, -226304.64, 0.21890919, 9.996191, 10.000159 
2.1149348e+3, 1.5361331e+2, -1752555.1, -1499175.1, -41784.76, 0.14970985, 0.8195979, -1492462.3, -57788.88, 0.110347085, 9.997364, 10.000701 
2.1149622e+3, 1.6361389e+2, -1562569.4, -1306123.4, -21786.807, 0.10350622, 0.79228115, -1304285.6, 32383.98, 0.040102176, 9.997749, 10.001195 
2.11499e+3, 1.7361778e+2, -1542219.1, -1215823.9, 4517.7144, 0.0755712, 1.0251266, -1215761.4, 22871.957, 0.008443992, 9.99711, 10.001432 
2.1150185e+3, 1.8361984e+2, -1447151.0, -1093834.6, 51892.777, 0.09492611, 1.0810235, -1086370.6, 54240.92, 0.00052604213, 9.996995, 10.001652 
2.1150479e+3, 1.9361839e+2, -1208457.3, -914297.7, 106629.02, 0.12626301, 0.74704343, -879712.4, 162905.83, 0.0000034897541, 9.997918, 10.001756 
2.1150762e+3, 2.0361787e+2, -1165512.3, -1117204.4, 72729.6, 0.10337693, 0.62862444, -1064722.8, -120102.375, 0.0, 9.998679, 9.999342 
2.1151035e+3, 2.1361925e+2, -1004442.4, -1020863.4, 43328.047, 0.044661317, 0.8441173, -968553.75, -121941.89, 0.0, 9.999276, 9.999029 
2.1151313e+3, 2.236194e+2, -779310.1, -760807.1, 103532.164, -0.031193156, 0.92212164, -666113.94, 82496.97, 0.0, 9.999712, 9.999936 
2.1151607e+3, 2.3361737e+2, -584163.8, -587291.06, 137651.92, -0.13362005, 0.6878102, -448066.63, 202556.77, 0.0, 10.000265, 10.000178 
2.1151899e+3, 2.4361591e+2, -573927.9, -870757.5, 68120.305, -0.17914699, 0.65819997, -559041.4, -6403.656, 0.0, 10.001107, 9.997162 
2.1152195e+3, 2.536157e+2, -269831.5, -719552.8, -1754.0408, -0.086830735, 0.94213355, -269824.66, 184827.83, 0.0, 10.002746, 9.996725 
2.1152493e+3, 2.6361436e+2, 41560.32, -276335.0, 6683.0156, -0.055557296, 1.0474623, 41700.754, 398372.2, 0.0, 10.003134, 9.998928 
2.1152785e+3, 2.7361092e+2, -14824.169, -191046.88, 43598.23, -0.1405428, 0.74681383, -4627.759, 254070.66, 0.0, 10.001817, 9.999464 
2.1153069e+3, 2.836096e+2, -70146.445, -227452.4, -4707.1636, -0.2364087, 0.6915991, -70005.71, 90702.13, 0.00000005479561, 10.001031, 9.998921 
2.115335e+3, 2.936124e+2, 165374.52, -73562.305, 20398.713, -0.2126746, 1.0483351, 167103.5, 229785.45, 0.0000044706885, 10.002022, 9.998825 
2.1153641e+3, 3.036109e+2, 261217.61, -71951.33, -1487.6842, -0.074864306, 1.0546101, 261224.25, 261224.25, 0.00002714467, 10.00265, 9.9982 
2.1153897e+3, 3.1360194e+2, 397070.7, 142357.7, 37772.43, -0.25527862, 0.27009413, 402554.1, 402554.1, 0.000074751726, 10.002934, 9.999523 
2.1248403e+3, 1.235816e+2, -2300106.0, -1408602.0, -65415.895, -0.2209424, 0.86331075, -1403827.5, 325162.53, 0.48543465, 9.992031, 10.008018 
2.1248743e+3, 1.3358341e+2, -2274085.3, -1881660.8, 39252.3, 0.15441912, 0.81572247, -1877773.0, -246804.69, 0.3637423, 9.995272, 10.000422 
2.124905e+3, 1.435849e+2, -1760119.8, -1580890.9, -5516.986, 0.21756142, 0.936479, -1580721.3, -47768.19, 0.23315269, 9.998064, 10.0005 
2.1249318e+3, 1.5358484e+2, -1624657.4, -1392820.6, -3212.1821, 0.095899485, 0.8007153, -1392776.1, 42177.777, 0.1197026, 9.998007, 10.001178 
2.1249588e+3, 1.635857e+2, -1581400.5, -1319404.4, 6595.798, 0.01203347, 0.7743461, -1319238.4, 17708.277, 0.044803485, 9.997636, 10.001158 
2.1249872e+3, 1.7358947e+2, -1496023.8, -1211963.0, -25331.086, 0.07801456, 1.0128888, -1209721.8, 29190.348, 0.01004214, 9.997508, 10.001263 
2.1250162e+3, 1.8359156e+2, -1351724.4, -1062111.6, 9985.926, 0.13207175, 1.0860684, -1061767.6, 79122.69, 0.0007722133, 9.997689, 10.001539 
2.125046e+3, 1.9359043e+2, -1119672.6, -882218.56, -25592.244, 0.1011411, 0.79428315, -879491.6, 163401.7, 0.000010944595, 9.99856, 10.001667 
2.1250752e+3, 2.0358984e+2, -1037475.56, -1070107.5, -81353.12, 0.08986826, 0.6788402, -970818.44, -25922.37, 0.0, 9.999644, 9.999189 
2.1251042e+3, 2.1359016e+2, -729339.25, -908054.2, -78913.39, 0.10921219, 0.80961645, -699482.3, 147415.7, 0.0, 10.001267, 9.998837 
2.1251331e+3, 2.2358997e+2, -468755.72, -626660.8, -33596.86, 0.07222492, 0.87122405, -461904.7, 286995.84, 0.0, 10.001899, 9.99981 
2.1251614e+3, 2.3358901e+2, -504943.6, -558417.3, -56483.63, -0.10908443, 0.75573343, -469188.38, 181714.73, 0.0, 10.000854, 10.000091 
2.1251905e+3, 2.4358772e+2, -638436.5, -873682.56, -31942.357, -0.19213773, 0.73881185, -634176.44, -81261.48, 0.0, 10.000546, 9.997414 
2.1252215e+3, 2.5358608e+2, -421076.78, -757314.7, 42948.69, -0.10413424, 0.85264874, -415677.5, 39263.742, 0.0, 10.001555, 9.997044 
2.1252519e+3, 2.635844e+2, -75233.76, -317302.53, 85984.48, -0.04676207, 0.9015463, -47800.465, 309161.13, 0.0, 10.002279, 9.999055 
2.125281e+3, 2.7358234e+2, 76096.945, -131411.34, 53063.668, -0.0982427, 0.7276906, 88878.96, 347854.56, 0.0, 10.002405, 9.99958 
2.1253093e+3, 2.8358132e+2, 188012.94, -116599.625, 13196.52, -0.17539264, 0.7057238, 188583.58, 349565.63, 0.000000117451826, 10.002848, 9.998822 
2.1253377e+3, 2.9358307e+2, 415724.28, 38076.42, -49899.547, -0.22434594, 0.9743444, 422206.38, 485174.03, 0.0000050467984, 10.0037985, 9.998727 
2.1253672e+3, 3.035821e+2, 562923.56, 11717.801, -98110.54, -0.12384982, 1.0555893, 579865.75, 579865.75, 0.000026973656, 10.004924, 9.997723 
2.1253955e+3, 3.135745e+2, 727863.5, 258332.44, -231120.5, -0.0716361, 0.47619382, 822539.2, 822539.2, 0.00007138213, 10.005348, 9.999187 
2.134871e+3, 1.3355486e+2, -2208286.0, -1735363.5, 172786.39, 0.27944037, 0.9880728, -1678961.1, -47708.355, 0.38411817, 9.995245, 10.001421 
2.134905e+3, 1.4355353e+2, -1663584.8, -1437925.0, 17305.36, 0.36622548, 0.7115388, -1436605.6, 96656.7, 0.24951555, 9.998172, 10.001645 
2.1349294e+3, 1.5355726e+2, -1532882.0, -1240928.4, -8049.52, 0.012241569, 0.841827, -1240706.6, 194516.73, 0.13052814, 9.99807, 10.002349 
2.1349555e+3, 1.6355914e+2, -1603184.8, -1388744.4, -7930.141, -0.10045837, 0.8710358, -1388451.5, -51247.684, 0.050404422, 9.997734, 10.000631 
2.1349853e+3, 1.7355837e+2, -1548892.9, -1333085.8, -28198.127, 0.113928035, 0.735052, -1329462.1, -90249.78, 0.012084308, 9.997554, 10.000407 
2.135014e+3, 1.8355893e+2, -1427302.9, -1233120.5, 32867.836, 0.121941395, 0.7560492, -1227708.1, -86500.484, 0.001155736, 9.997747, 10.000339 
2.1350418e+3, 1.9356164e+2, -1207120.4, -1067306.8, 11821.059, -0.1824889, 0.97356457, -1066314.4, -23132.955, 0.000030850606, 9.998569, 10.000397 
2.1350716e+3, 2.0356216e+2, -1035995.8, -1049228.9, -32650.904, -0.26638466, 1.0329615, -1009297.8, -64120.695, 0.0, 9.99957, 9.999369 
2.1351047e+3, 2.1355885e+2, -716966.6, -854593.9, -11792.705, 0.028220123, 0.76215774, -715963.5, 131246.89, 0.0, 10.001146, 9.999265 
2.1351357e+3, 2.235576e+2, -528116.1, -703772.75, -60310.47, 0.14258216, 0.7110514, -509402.6, 239819.84, 0.0, 10.001708, 9.999367 
2.1351628e+3, 2.3355994e+2, -564941.94, -663626.1, -87927.13, -0.042042885, 0.98608595, -513458.34, 137739.52, 0.0, 10.000769, 9.999411 
2.1351917e+3, 2.4355963e+2, -530775.7, -620973.75, -11390.25, -0.15148304, 1.0300283, -529359.5, 23838.742, 0.0, 10.000424, 9.999206 
2.1352232e+3, 2.5355497e+2, -275372.22, -436283.3, 84206.38, -0.10141956, 0.6202244, -239364.0, 215876.19, 0.0, 10.0014715, 9.999289 
2.1352534e+3, 2.6355305e+2, -105246.5, -337561.28, 83534.62, -0.12752886, 0.5136045, -78328.484, 278927.9, 0.0, 10.002111, 9.998991 
2.1352817e+3, 2.7355564e+2, 20157.36, -224107.63, 62434.207, -0.27765405, 0.85296905, 35190.37, 294420.84, 0.00000000014169585, 10.0023, 9.998997 
2.1353106e+3, 2.8355503e+2, 67151.77, -299802.78, 32529.299, -0.36655414, 0.9579097, 70013.07, 231249.52, 0.000000256191, 10.002575, 9.997682 
2.1353413e+3, 2.9354975e+2, 325262.22, -121247.91, 5739.7026, -0.25134245, 0.6304257, 325335.97, 388625.6, 0.0000052967753, 10.003655, 9.997706 
2.1353711e+3, 3.035471e+2, 401440.0, -175737.81, -78903.35, -0.26495454, 0.6381276, 412032.13, 412032.13, 0.000025189602, 10.004358, 9.996674 
2.1353999e+3, 3.135492e+2, 416234.28, -195918.48, -85830.95, -0.21318275, 1.158061, 428041.03, 428041.03, 0.000063322426, 10.00458, 9.99641 
2.1448684e+3, 1.3352567e+2, -1804731.5, -1525184.1, 129138.47, 0.3956785, 1.1190913, -1474659.6, 156884.52, 0.40760165, 9.997641, 10.002352 
2.1449006e+3, 1.435239e+2, -2258620.0, -1648759.8, -10231.191, 0.3441371, 0.7255443, -1648588.1, -115030.54, 0.26811564, 9.9938965, 10.002038 
2.1449263e+3, 1.535286e+2, -1840471.4, -1343496.6, -88269.71, 0.012563874, 0.92014784, -1328284.4, 107224.94, 0.14296411, 9.995808, 10.002655 
2.1449536e+3, 1.6353075e+2, -1626374.5, -1421956.6, -116539.42, -0.06666819, 0.968608, -1369155.5, -31669.205, 0.057087187, 9.997686, 10.000425 
2.1449834e+3, 1.735288e+2, -1320179.1, -1256866.4, -111639.61, 0.07956838, 0.74727607, -1172481.8, 67022.75, 0.014719365, 9.999287, 10.000103 
2.1450122e+3, 1.8352842e+2, -1154575.8, -1167532.6, -22613.447, 0.07371451, 0.71873844, -1137531.0, 3977.2893, 0.0017550356, 9.999917, 9.999741 
2.1450408e+3, 1.9353077e+2, -1153406.5, -1116999.0, -13057.147, -0.15821888, 0.9650577, -1112800.4, -69313.016, 0.00008036648, 9.999273, 9.999717 
2.1450713e+3, 2.035313e+2, -1102036.8, -1046991.5, 14309.583, -0.20802967, 1.0553724, -1043493.9, -98010.55, 0.000000018813253, 9.99896, 9.999682 
2.145105e+3, 2.1352895e+2, -917323.1, -896173.75, 33496.895, 0.01138651, 0.8304748, -871622.0, -24115.844, 0.0, 9.999527, 9.999758 
2.1451364e+3, 2.2352804e+2, -748498.5, -833704.94, -31187.076, 0.11160962, 0.79322463, -738303.3, 11211.428, 0.0, 10.000296, 9.999158 
2.1451643e+3, 2.335295e+2, -492528.53, -665248.25, -52782.76, -0.00973889, 1.0151983, -477675.5, 173824.55, 0.0, 10.001426, 9.999086 
2.1451937e+3, 2.4352889e+2, -275990.28, -482027.34, 12865.215, -0.076294325, 1.0403048, -275190.06, 278313.56, 0.0, 10.002103, 9.999353 
2.1452251e+3, 2.5352487e+2, -175815.31, -362996.38, -41222.402, -0.05998498, 0.6751412, -167139.16, 288398.3, 0.0, 10.002047, 9.999513 
2.1452558e+3, 2.6352322e+2, -108020.68, -334764.03, -119930.44, -0.08618456, 0.5838815, -56357.676, 301192.03, 0.0, 10.002061, 9.999039 
2.1452844e+3, 2.7352554e+2, 11853.443, -223096.36, -128550.99, -0.2094362, 0.8962947, 68521.33, 328047.56, 0.00000000016893417, 10.002222, 9.999037 
2.1453139e+3, 2.8352454e+2, 51907.64, -359228.75, -71330.95, -0.27045608, 0.9730368, 63931.695, 225467.8, 0.0000002738674, 10.002661, 9.997246 
2.1453452e+3, 2.9351798e+2, 253789.03, -198078.36, -74174.664, -0.19854417, 0.57706267, 265653.38, 329254.63, 0.0000047479944, 10.003352, 9.997321 
2.1453762e+3, 3.0351552e+2, 382078.53, -218344.11, -100513.17, -0.14347927, 0.6254257, 398458.03, 398458.03, 0.000021518836, 10.004283, 9.996455 
2.1454053e+3, 3.1351742e+2, 541331.44, -115931.39, -77758.05, -0.14536153, 1.1569993, 550405.4, 550405.4, 0.00005372167, 10.005331, 9.996589 
2.1548662e+3, 1.3349605e+2, -1712138.3, -1440493.8, -41324.625, 0.34871474, 1.2373929, -1434346.3, 197494.03, 0.43279883, 9.99778, 10.003228 
2.1548913e+3, 1.4349581e+2, -2263957.0, -1692093.5, -24402.523, -0.011556877, 0.95627034, -1691054.1, -157213.19, 0.28823382, 9.994019, 10.001688 
2.1549222e+3, 1.5349886e+2, -1876995.5, -1417916.5, -9032.3955, 0.020459779, 1.0393815, -1417738.9, 18072.895, 0.15688464, 9.995852, 10.0020275 
2.1549524e+3, 1.6350074e+2, -1609968.1, -1409476.6, -58169.54, 0.014499496, 1.0956494, -1393822.0, -56029.453, 0.06501248, 9.997783, 10.000462 
2.1549809e+3, 1.7350078e+2, -1303886.9, -1228321.0, -51387.848, -0.09431665, 1.0543442, -1202321.0, 37467.945, 0.018139776, 9.999311, 10.000278 
2.1550107e+3, 1.8349993e+2, -1152476.4, -1177326.1, -43719.03, -0.101441294, 0.9754962, -1119450.9, 22342.912, 0.0026903055, 9.999971, 9.999652 
2.1550427e+3, 1.9349778e+2, -1153567.6, -1121441.1, -34081.54, 0.096887976, 0.7769645, -1099827.1, -56015.586, 0.00019736934, 9.999292, 9.999675 
2.155074e+3, 2.0349738e+2, -1078372.4, -992715.7, 22812.014, 0.1621322, 0.7574813, -987019.25, -41205.445, 0.0000007869328, 9.998934, 10.000069 
2.1551043e+3, 2.1350023e+2, -897943.2, -838781.75, 58569.4, -0.006160965, 1.0069507, -802746.94, 45040.805, 0.0, 9.999444, 10.000195 
2.1551348e+3, 2.235009e+2, -773092.25, -846296.6, 2472.638, -0.10880032, 1.101661, -773008.8, -23227.432, 0.0, 10.000133, 9.999148 
2.1551651e+3, 2.3349762e+2, -510682.44, -679725.6, -5957.992, -0.07761586, 0.8562481, -510472.72, 141337.83, 0.0, 10.001323, 9.999036 
2.155196e+3, 2.4349546e+2, -398552.63, -691840.3, 10111.058, -0.058691617, 0.7839197, -398204.47, 155626.72, 0.0, 10.001921, 9.997993 
2.1552275e+3, 2.5349545e+2, -307350.4, -612135.0, -36476.508, -0.04380969, 0.9835288, -303045.72, 152789.33, 0.0, 10.001945, 9.99785 
2.1552588e+3, 2.6349464e+2, -129360.234, -336521.8, -118288.96, -0.029063417, 1.0644567, -75711.07, 282132.56, 0.0, 10.001882, 9.999111 
2.155289e+3, 2.7349216e+2, 30790.652, -164299.67, -113431.6, 0.010701485, 0.8571997, 82850.93, 342712.4, 0.0, 10.002134, 9.999486 
2.1553193e+3, 2.8348964e+2, 30895.705, -346243.1, -55004.85, -0.029028395, 0.75172186, 38754.285, 200636.47, 0.000000100631844, 10.00245, 9.997422 
2.1553494e+3, 2.9348728e+2, 228322.44, -227270.23, -30216.947, -0.16067971, 0.7656018, 230317.83, 294224.56, 0.0000031808088, 10.003245, 9.997175 
2.155382e+3, 3.0348575e+2, 319180.78, -210257.27, -76085.766, -0.04509356, 0.9190608, 329898.13, 329898.13, 0.00001659869, 10.003737, 9.996743 
2.1554106e+3, 3.1348196e+2, 571404.75, 63054.34, 48337.316, -0.20381305, 0.7896086, 575960.1, 575960.1, 0.000045235643, 10.004834, 9.9980545 
2.1648626e+3, 1.3346462e+2, -1952484.4, -1591578.9, -98465.88, 0.29257783, 1.0787102, -1566462.4, 65683.766, 0.45757636, 9.99673, 10.002035 
2.164886e+3, 1.4346674e+2, -1895038.0, -1545443.0, -16065.718, -0.09276014, 1.1111404, -1544706.3, -10577.332, 0.3088363, 9.996711, 10.001383 
2.1649192e+3, 1.5346856e+2, -1652295.5, -1362059.6, 31879.639, 0.055556063, 1.1049496, -1358599.3, 77513.25, 0.17204043, 9.997592, 10.001644 
2.164951e+3, 1.6346985e+2, -1627498.1, -1441325.9, -28582.521, 0.10433619, 1.1313215, -1437036.5, -98936.445, 0.07433442, 9.997741, 10.000266 
2.1649794e+3, 1.7347038e+2, -1534630.1, -1354725.4, -49696.383, -0.087035395, 1.1515425, -1341910.3, -101817.57, 0.022589553, 9.997776, 10.0001545 
2.1650098e+3, 1.8346952e+2, -1402463.8, -1316923.5, -55902.81, -0.093217924, 1.0837946, -1289306.1, -147208.14, 0.00413868, 9.998342, 9.999475 
2.1650435e+3, 1.9346641e+2, -1045366.75, -1099093.3, -75880.164, 0.2039687, 0.8170483, -991735.06, 52388.395, 0.00045452762, 10.000158, 9.999414 
2.1650752e+3, 2.0346549e+2, -822139.5, -894577.5, -66691.4, 0.30587715, 0.77066123, -782466.75, 163663.27, 0.000007502901, 10.000799, 9.999841 
2.165104e+3, 2.1346848e+2, -888049.0, -858952.44, -96677.02, 0.022823937, 1.0587822, -775735.2, 72366.97, 0.0, 9.999629, 9.999962 
2.1651341e+3, 2.2346899e+2, -864956.3, -879800.3, -106348.98, -0.13693634, 1.1511209, -765770.7, -15673.883, 0.0, 9.999472, 9.9992285 
2.1651663e+3, 2.3346518e+2, -497901.13, -656280.25, -104430.375, -0.08713105, 0.8387696, -446030.8, 206099.7, 0.0, 10.001345, 9.99918 
2.165198e+3, 2.4346304e+2, -354328.72, -681468.1, -94460.85, -0.04098093, 0.76637703, -329012.5, 225138.64, 0.0, 10.002257, 9.997909 
2.1652293e+3, 2.534639e+2, -383972.03, -653011.75, -54845.777, -0.035684098, 1.061036, -373220.94, 82927.17, 0.0, 10.00145, 9.997799 
2.1652605e+3, 2.6346308e+2, -230037.28, -418025.97, -35024.664, -0.00013579815, 1.1576204, -223723.78, 134433.77, 0.0, 10.001345, 9.998801 
2.165292e+3, 2.7345917e+2, 79238.39, -177949.27, -86497.46, 0.084831454, 0.84620553, 105622.57, 365812.6, 0.0, 10.002646, 9.999135 
2.1653232e+3, 2.8345656e+2, 265223.28, -226212.05, -44531.7, 0.052509136, 0.74311507, 269225.94, 431437.44, 0.0000000029805467, 10.004017, 9.997496 
2.1653529e+3, 2.9345608e+2, 540185.4, -46101.906, -41302.68, -0.23432177, 0.9389885, 543080.75, 607296.6, 0.0000013452404, 10.005287, 9.997424 
2.1653862e+3, 3.034542e+2, 668837.94, -27876.426, -64183.074, -0.091114804, 1.0228832, 674701.3, 674701.3, 0.000010737904, 10.006045, 9.996897 
2.165417e+3, 3.13448e+2, 694321.44, 68960.35, -76669.77, -0.09977088, 0.6675765, 703584.0, 703584.0, 0.00003588316, 10.0058975, 9.997587 
2.1748577e+3, 1.3343178e+2, -2144296.0, -2041995.0, -240695.03, 0.06800021, 0.6423149, -1847075.4, -214617.81, 0.48078975, 9.997236, 9.998289 
2.1748841e+3, 1.4343709e+2, -1917679.0, -1628671.1, 34778.895, 0.009847846, 1.2104007, -1624544.8, -90127.516, 0.32934, 9.996875, 10.00073 
2.174917e+3, 1.5343767e+2, -1672232.9, -1403371.0, 62888.426, 0.057933673, 1.1111157, -1389388.1, 47023.902, 0.18832743, 9.997615, 10.00131 
2.1749488e+3, 1.6343778e+2, -1639646.0, -1497150.8, -33212.78, 0.08885138, 1.0630542, -1489789.8, -151378.03, 0.0852701, 9.997864, 9.999825 
2.1749786e+3, 1.7343761e+2, -1546198.9, -1394475.9, -41340.85, 0.025625216, 1.040293, -1383942.8, -143527.25, 0.028395085, 9.997844, 9.999844 
2.1750093e+3, 1.8343715e+2, -1424839.3, -1381967.8, -3457.53, 0.0070325374, 1.0503948, -1381690.6, -239270.16, 0.006367479, 9.998418, 9.998992 
2.1750428e+3, 1.9343646e+2, -1080808.8, -1176541.9, -3640.8206, 0.10611985, 1.0764511, -1080670.5, -36245.152, 0.0009868387, 10.000172, 9.998876 
2.1750745e+3, 2.0343542e+2, -885494.1, -1020500.9, -99791.016, 0.12961942, 1.0842587, -832519.5, 113914.414, 0.000047582707, 10.00077, 9.998995 
2.175104e+3, 2.1343376e+2, -958795.94, -990290.06, -136176.38, 0.03402108, 0.99506897, -837459.2, 10989.577, 0.00000000032497088, 9.999559, 9.999098 
2.1751346e+3, 2.2343247e+2, -880078.8, -875630.06, -55286.027, -0.05636521, 0.95042074, -822523.7, -72063.99, 0.0, 9.999324, 9.999325 
2.1751675e+3, 2.33432e+2, -501582.03, -630297.75, -23750.506, -0.104605034, 0.9465386, -497339.44, 155122.25, 0.0, 10.001206, 9.99942 
2.1751997e+3, 2.4343134e+2, -310678.88, -534609.6, -115336.23, -0.12489952, 0.9609691, -261900.08, 292566.06, 0.0, 10.002025, 9.999024 
2.17523e+3, 2.5343022e+2, -311529.2, -470894.3, -83587.36, -0.09894139, 0.926779, -275729.47, 180747.22, 0.0, 10.00132, 9.999108 
2.175261e+3, 2.6342866e+2, -303559.0, -529828.5, -8113.677, -0.08781898, 0.9014486, -303268.44, 55223.402, 0.0, 10.001178, 9.998109 
2.1752934e+3, 2.7342638e+2, -13604.158, -350216.6, -28978.639, -0.04816114, 0.8573607, -11127.636, 249386.7, 0.0, 10.0025625, 9.997988 
2.1753255e+3, 2.8342474e+2, 214314.63, -260315.03, -5356.2427, -0.1454866, 0.92399615, 214375.06, 376904.3, 0.0, 10.003727, 9.997391 
2.1753553e+3, 2.9342392e+2, 524190.84, -27309.332, 14662.697, -0.51315516, 1.066126, 524580.44, 589113.25, 0.00000028754212, 10.005057, 9.997663 
2.175389e+3, 3.0341965e+2, 567875.56, -85847.4, -77651.234, -0.44563758, 0.8996579, 576972.6, 576972.6, 0.0000061218025, 10.005458, 9.996751 
2.175425e+3, 3.134157e+2, 418851.2, -329604.75, -95131.05, 0.09553683, 0.8092394, 430753.38, 430753.38, 0.000027536193, 10.005183, 9.995182 
2.1848804e+3, 1.4340408e+2, -2164136.3, -1761267.8, -308573.72, 0.055359256, 1.1900278, -1594200.3, -59458.71, 0.34983045, 9.995221, 10.000612 
2.1849144e+3, 1.5340397e+2, -1845288.0, -1432280.9, -54545.824, 0.11985722, 1.0000958, -1425198.5, 11542.777, 0.2059314, 9.996202, 10.001755 
2.1849477e+3, 1.6340536e+2, -1788657.0, -1569289.3, -84932.64, 0.24969943, 1.0545539, -1540250.0, -201521.86, 0.09816949, 9.996868, 9.999812 
2.1849778e+3, 1.7340513e+2, -1385984.3, -1323485.0, -79277.43, 0.12090476, 1.0402908, -1269520.5, -28785.666, 0.036017943, 9.999014, 9.99976 
2.1850085e+3, 1.8340494e+2, -1144835.0, -1234923.9, -14472.912, 0.0031673827, 1.0776027, -1142567.0, 171.50772, 0.009796201, 10.000283, 9.999104 
2.185042e+3, 1.9340506e+2, -1099908.0, -1169606.6, 22939.455, 0.04305568, 1.1703678, -1093035.8, -48301.094, 0.0020521113, 9.999977, 9.999007 
2.1850747e+3, 2.0340377e+2, -1005610.4, -1135018.8, -39437.13, 0.10081627, 1.1690615, -994539.1, -47794.313, 0.00020967671, 10.000199, 9.998485 
2.1851052e+3, 2.1340002e+2, -691363.75, -931026.75, -77729.16, 0.11781211, 0.9320437, -668361.75, 180418.36, 0.00000086887735, 10.001693, 9.998483 
2.1851365e+3, 2.2339799e+2, -467648.13, -681040.75, 24964.758, 0.078877114, 0.8512755, -464766.4, 286032.2, 0.0, 10.0021515, 9.999312 
2.185169e+3, 2.3339924e+2, -542812.44, -630831.44, 38526.348, -0.04559415, 1.0096874, -528331.6, 124452.88, 0.0, 10.000853, 9.999585 
2.1852012e+3, 2.433993e+2, -537247.06, -637503.0, -75804.54, -0.09190587, 1.0816978, -496495.22, 58287.184, 0.0, 10.000435, 9.999089 
2.1852322e+3, 2.5339693e+2, -260392.06, -447460.88, -148527.52, -0.039387226, 0.92255294, -178401.23, 278402.97, 0.0, 10.001655, 9.999123 
2.1852636e+3, 2.633949e+2, -115936.07, -510801.84, -85657.32, -0.024966596, 0.87589717, -98155.29, 260669.38, 0.0, 10.0027485, 9.9974985 
2.1852964e+3, 2.7339336e+2, 98605.86, -381261.78, -97826.04, -0.071686596, 0.98520744, 117782.38, 378626.13, 0.0, 10.003683, 9.997251 
2.1853289e+3, 2.8339162e+2, 239858.1, -190293.63, -68243.16, -0.1486055, 1.061425, 250425.22, 413285.5, 0.0, 10.003626, 9.997934 
2.1853603e+3, 2.933893e+2, 153415.75, -122570.13, -33712.523, -0.3477392, 0.98787063, 157474.17, 222348.98, 0.000000027227998, 10.002133, 9.9984255 
2.185394e+3, 3.0338573e+2, 182129.34, -183751.33, -24025.11, -0.3070415, 0.80165255, 183700.19, 183700.19, 0.0000044959556, 10.002372, 9.997597 
2.185428e+3, 3.1338534e+2, 408255.75, -239968.94, -39812.055, -0.088258475, 1.009956, 410691.72, 410691.72, 0.00002505646, 10.004617, 9.99611 
2.1948738e+3, 1.433668e+2, -2127738.5, -1683824.1, -594643.8, -0.1810971, 1.0569297, -1271063.9, 264046.9, 0.371045, 9.995245, 10.001846 
2.1949111e+3, 1.5336707e+2, -1740023.3, -1270445.4, -27973.277, 0.15044807, 0.77752495, -1268784.8, 168319.47, 0.22535217, 9.996253, 10.00316 
2.1949473e+3, 1.633726e+2, -1748943.0, -1502331.3, -37280.953, 0.49678668, 1.1356393, -1496818.6, -157769.72, 0.113554515, 9.99693, 10.000242 
2.1949773e+3, 1.7337269e+2, -1383780.6, -1314781.0, 9878.075, 0.14287329, 1.1470625, -1313394.6, -72341.61, 0.046104282, 9.9990015, 9.999822 
2.195007e+3, 1.8337256e+2, -1084445.5, -1120080.1, -11278.136, -0.18776566, 1.1514567, -1081176.0, 61879.13, 0.015073848, 10.000332, 9.999874 
2.1950413e+3, 1.9337218e+2, -1039718.9, -1044816.06, 14705.161, -0.050500076, 1.1109873, -1027343.06, 17708.521, 0.004138987, 9.999983, 9.999862 
2.1950752e+3, 2.0337059e+2, -1031014.2, -1179117.1, -462.47897, 0.11237782, 1.0424888, -1031012.75, -83949.984, 0.00072646124, 10.000163, 9.998198 
2.195108e+3, 2.1336706e+2, -741401.0, -1008046.25, -18862.734, 0.19623648, 0.87265486, -740073.25, 109025.25, 0.000022642807, 10.00158, 9.998003 
2.1951397e+3, 2.2336534e+2, -500419.72, -705289.75, -14436.98, 0.17583357, 0.8520387, -499407.38, 251708.64, 0.000000000011542125, 10.001961, 9.999237 
2.1951707e+3, 2.3336685e+2, -551824.7, -632838.8, -6950.148, 0.017217413, 1.0312486, -551232.75, 101867.59, 0.0, 10.000773, 9.999608 
2.1952021e+3, 2.4336684e+2, -634947.56, -792967.06, -53645.047, -0.053005613, 1.1343043, -618456.94, -63356.22, 0.0, 10.000243, 9.998106 
2.1952349e+3, 2.5336394e+2, -359295.34, -630638.94, -96247.24, 0.060249206, 1.0380782, -328623.0, 128508.37, 0.0, 10.001566, 9.997901 
2.1952674e+3, 2.6336157e+2, -201876.75, -627748.3, -54316.24, 0.06881735, 1.0596503, -195058.34, 164099.67, 0.0, 10.002503, 9.9968 
2.1953e+3, 2.7335984e+2, 30989.078, -469449.78, -52804.52, -0.07663637, 1.1995821, 36500.133, 297680.72, 0.0, 10.003474, 9.996734 
2.1953332e+3, 2.8335688e+2, 264285.13, -67925.48, -118459.39, -0.10949691, 1.1391823, 302198.44, 465407.06, 0.0, 10.003332, 9.998912 
2.1953674e+3, 2.9335245e+2, 207614.66, 22523.256, -70883.98, 0.11582249, 0.734086, 231641.86, 296881.28, 0.000000020729713, 10.001995, 9.99949 
2.1954001e+3, 3.0335188e+2, 223486.89, 8808.613, 41788.92, 0.039198626, 0.73665446, 231334.58, 231334.58, 0.0000055230016, 10.00195, 9.999094 
2.1954265e+3, 3.1335384e+2, 463210.06, 64232.914, 144300.14, -0.724998, 0.9851143, 509929.16, 509929.16, 0.000029811183, 10.003876, 9.998516 
2.2048718e+3, 1.4333303e+2, -1563172.6, -1433232.8, -207846.02, -0.0943983, 0.9151792, -1280439.0, 254999.2, 0.39437363, 9.999268, 10.001638 
2.2049092e+3, 1.5333416e+2, -1449147.9, -1265573.5, 287.9804, 0.22853845, 0.8613389, -1265573.1, 171852.14, 0.24751917, 9.998791, 10.002024 
2.2049433e+3, 1.6333817e+2, -1624156.0, -1413843.9, -46823.08, 0.39450827, 1.1025118, -1403890.5, -64505.11, 0.13222682, 9.997648, 10.000511 
2.2049761e+3, 1.733381e+2, -1333691.8, -1288541.4, 31358.783, 0.12163885, 1.0885434, -1272477.0, -31088.574, 0.059555795, 9.999282, 9.999894 
2.2050075e+3, 1.833377e+2, -1086616.0, -1120890.1, -65636.51, -0.1617185, 1.0633788, -1035916.3, 107475.38, 0.023171267, 10.000314, 9.9998865 
2.205041e+3, 1.9333714e+2, -972271.3, -1013398.9, -132133.84, -0.07647513, 1.0047075, -859110.7, 186280.02, 0.008108057, 10.000438, 9.999878 
2.2050752e+3, 2.0333587e+2, -986388.3, -1156029.6, -134452.8, 0.089993194, 0.96555793, -912236.94, 35163.277, 0.0021629941, 10.000452, 9.998227 
2.2051094e+3, 2.1333335e+2, -887479.06, -1076054.6, -120100.945, 0.24527927, 0.8986515, -829076.25, 20351.783, 0.00023583506, 10.000556, 9.9980345 
2.2051418e+3, 2.2333188e+2, -679055.75, -805171.06, -120761.695, 0.26711679, 0.91069084, -605879.56, 145564.84, 0.0000019906881, 10.000794, 9.999113 
2.2051719e+3, 2.3333257e+2, -479365.38, -619465.3, -149806.7, 0.04406975, 1.0260663, -384039.88, 269396.9, 0.0, 10.001347, 9.999439 
2.2052032e+3, 2.4333194e+2, -412315.06, -722914.0, -129734.4, -0.04276434, 1.0959375, -365256.1, 190187.38, 0.0, 10.001918, 9.9977865 
2.205237e+3, 2.533291e+2, -224597.53, -589549.4, -121578.17, 0.08974618, 1.0345805, -187804.88, 269669.13, 0.0, 10.002636, 9.997643 
2.2052702e+3, 2.633269e+2, -143596.33, -556318.1, -36033.36, 0.11642508, 1.069878, -140474.0, 219024.64, 0.0, 10.002703, 9.997205 
2.2053024e+3, 2.7332526e+2, -198647.3, -521163.1, 26745.367, -0.06691262, 1.1695397, -196444.42, 65074.27, 0.0, 10.001628, 9.997275 
2.2053355e+3, 2.8332275e+2, -41524.74, -221552.55, -9571.397, -0.08651599, 1.118817, -41017.293, 122525.516, 0.0, 10.001274, 9.99884 
2.20537e+3, 2.933191e+2, 277824.75, 19833.998, -88258.25, 0.18186876, 0.8247122, 305128.22, 370698.97, 0.00000007580395, 10.002641, 9.999161 
2.205404e+3, 3.0331913e+2, 376999.78, 35400.652, -48130.313, 0.18001841, 0.924175, 383651.7, 383651.7, 0.0000083740215, 10.003169, 9.998713 
2.2054315e+3, 3.133185e+2, 253957.36, 106522.31, -178180.11, -0.4973286, 0.95382833, 373067.28, 373067.28, 0.000042885644, 10.001776, 9.99983 
2.2148763e+3, 1.4330374e+2, -1638654.4, -1582488.0, 188423.77, 0.349963, 0.8633907, -1420066.1, 115647.586, 0.4221777, 9.999316, 10.000179 
2.2149092e+3, 1.5330504e+2, -1721697.3, -1763107.1, -66924.56, 0.32379153, 1.2509947, -1672348.0, -234642.06, 0.27423543, 9.998754, 9.998244 
2.2149356e+3, 1.6330174e+2, -1603674.4, -1382332.6, -27865.191, -0.18503036, 0.95509017, -1378878.5, -39137.863, 0.15564767, 9.997696, 10.000701 
2.2149739e+3, 1.733014e+2, -1320452.9, -1261356.8, 94234.2, -0.02490858, 0.8764096, -1192146.6, 49594.16, 0.07778218, 9.999284, 10.000097 
2.2150098e+3, 1.8330045e+2, -1135653.0, -1238519.0, -57663.31, -0.00876577, 0.8271551, -1109817.6, 33930.004, 0.035576556, 10.00037, 9.999052 
2.2150415e+3, 1.9329989e+2, -1038652.5, -1143032.1, -125700.67, -0.09774464, 0.8588339, -954737.8, 91014.766, 0.0154146915, 10.000408, 9.999 
2.2150742e+3, 2.0329943e+2, -967169.2, -1107208.4, -135057.88, -0.05728096, 0.9366141, -885059.3, 62699.07, 0.005714695, 10.000414, 9.99858 
2.2151093e+3, 2.1329875e+2, -861955.5, -1003516.2, -109611.53, 0.19630563, 0.99873513, -802257.7, 47512.105, 0.0013616167, 10.000469, 9.998573 
2.2151425e+3, 2.2329773e+2, -731637.44, -866664.9, -107844.94, 0.25276345, 1.0405762, -671916.56, 79865.82, 0.00013056793, 10.000589, 9.99879 
2.2151726e+3, 2.3329638e+2, -525072.1, -688358.0, -121269.49, -0.024951952, 0.9910912, -460523.9, 193270.25, 0.0000045921656, 10.001228, 9.999023 
2.2152041e+3, 2.4329463e+2, -436194.13, -706981.3, -112609.51, -0.16096573, 0.96503335, -395484.56, 160325.92, 0.000000030624218, 10.001654, 9.998014 
2.2152388e+3, 2.5329232e+2, -224333.44, -540074.6, -89910.66, -0.0113453055, 0.9143834, -200525.61, 257307.66, 0.0, 10.002432, 9.998078 
2.2152722e+3, 2.632906e+2, -90362.805, -373457.34, -80001.76, 0.02688232, 0.9135755, -69318.836, 290531.16, 0.0, 10.002409, 9.998594 
2.2153038e+3, 2.732897e+2, -115040.37, -307300.84, -15580.943, -0.119485006, 0.92581, -113785.86, 148072.81, 0.0, 10.001464, 9.9988165 
2.2153357e+3, 2.8328905e+2, -173127.66, -421123.03, 11365.887, -0.21497865, 1.0201315, -172607.83, -8741.47, 0.0, 10.0009775, 9.9976 
2.2153693e+3, 2.9328844e+2, 119887.13, -267493.44, -22654.05, -0.18013711, 1.2040801, 121207.445, 187083.58, 0.00000027397763, 10.002482, 9.99725 
2.2154053e+3, 3.0328685e+2, 187828.14, -263917.34, -84033.43, -0.03319132, 1.3401055, 202953.56, 202953.56, 0.000015050563, 10.002811, 9.996803 
2.2154388e+3, 3.1327927e+2, 129824.766, 21308.549, -250136.42, 0.027672654, 0.8294248, 331520.13, 331520.13, 0.00007034586, 10.0011015, 9.99954 
2.2248715e+3, 1.4326805e+2, -1437711.1, -1372114.1, 26276.027, -0.0711199, 0.887298, -1362886.8, 173176.97, 0.45833316, 10.000166, 10.001823 
2.2249089e+3, 1.5326916e+2, -1922172.6, -2005529.0, -287341.2, 0.48001984, 1.2435664, -1673502.6, -235445.02, 0.30885017, 9.998005, 9.996931 
2.2249326e+3, 1.6326346e+2, -1239336.0, -1250532.1, -111416.805, -0.37944227, 0.8088077, -1133376.6, 206739.67, 0.18666483, 10.000515, 10.000395 
2.2249724e+3, 1.7326486e+2, -1276074.4, -1220328.8, -66420.54, -0.09725891, 0.8957531, -1176169.8, 65930.78, 0.103338934, 9.999521, 10.000277 
2.2250098e+3, 1.8326496e+2, -1361112.8, -1343242.0, -165671.86, 0.05507461, 0.9381774, -1186264.8, -42166.52, 0.054786276, 9.998786, 9.999106 
2.2250423e+3, 1.932635e+2, -1039847.7, -1137752.5, -160664.98, -0.04147649, 0.8773531, -920843.0, 125269.35, 0.028543482, 10.0003605, 9.999066 
2.2250752e+3, 2.0326275e+2, -827686.25, -1001195.56, -152333.25, -0.045180682, 0.901705, -739136.06, 208985.39, 0.013685946, 10.001227, 9.998911 
2.2251086e+3, 2.1326312e+2, -830545.7, -948439.94, -169659.14, 0.08339332, 1.0379924, -709884.94, 140237.05, 0.005262215, 10.000527, 9.998922 
2.2251418e+3, 2.2326262e+2, -768887.94, -901110.25, -121437.29, 0.13206589, 1.1171925, -696732.3, 55396.89, 0.001420654, 10.000383, 9.998662 
2.225174e+3, 2.3326077e+2, -536804.9, -713376.0, -121487.555, 0.023265004, 1.0362551, -474912.0, 179233.67, 0.0002619265, 10.001221, 9.998863 
2.2252065e+3, 2.4325871e+2, -472913.3, -728086.44, -126435.1, -0.03922402, 0.993483, -420877.56, 135287.23, 0.000035642544, 10.001398, 9.998004 
2.2252397e+3, 2.5325668e+2, -495138.34, -667609.06, -137584.03, -0.04768134, 0.96522266, -418997.9, 39187.938, 0.0000011567587, 10.00052, 9.998147 
2.2252727e+3, 2.6325506e+2, -395452.06, -454695.88, -158348.63, -0.050127916, 0.9494762, -263978.53, 96222.56, 0.0, 10.000032, 9.999178 
2.2253054e+3, 2.7325428e+2, -152387.75, -243519.75, -178219.14, -0.05275759, 0.90972596, -14001.785, 248204.4, 0.0, 10.000883, 9.999528 
2.2253384e+3, 2.8325403e+2, -49026.324, -348573.84, -99255.695, -0.07762353, 0.9972187, -19122.951, 145085.67, 0.0, 10.00175, 9.997744 
2.2253713e+3, 2.9325345e+2, 141946.55, -263201.16, -26577.445, -0.22396755, 1.1957037, 143682.58, 209902.11, 0.00000073017384, 10.0026655, 9.99719 
2.2254069e+3, 3.032516e+2, 141738.47, -278238.38, -26093.563, -0.11994416, 1.2850331, 143353.48, 143353.48, 0.00002755439, 10.002433, 9.996905 
2.2254409e+3, 3.1324446e+2, 121188.48, 37309.043, -156897.4, 0.1608854, 0.8466626, 241654.84, 241654.84, 0.000118261974, 10.000891, 9.999784 
2.2349082e+3, 1.5322696e+2, -1856597.9, -1808057.0, -196399.22, 0.59152085, 0.91962385, -1634434.3, -195958.19, 0.35698506, 9.997805, 9.998344 
2.2349349e+3, 1.6322303e+2, -1313693.0, -1392363.6, -110950.875, -0.25467718, 0.63768286, -1235311.0, 105204.41, 0.23053116, 10.00047, 9.999361 
2.2349717e+3, 1.7322817e+2, -1289331.0, -1230038.8, -112898.14, -0.15379252, 1.1224855, -1142959.1, 99511.734, 0.14104874, 9.999449, 10.000278 
2.2350073e+3, 1.8323094e+2, -1299840.3, -1208183.4, -135548.44, -0.08333284, 1.3808223, -1110925.8, 33520.28, 0.08532412, 9.998756, 10.000057 
2.2350435e+3, 1.9322789e+2, -974670.5, -988363.7, -90266.58, 0.022439992, 1.0548207, -890991.25, 155479.66, 0.05187056, 10.000308, 10.000134 
2.2350772e+3, 2.0322591e+2, -826503.94, -972290.7, -164841.42, 0.028249044, 0.88494724, -719158.2, 229329.53, 0.030293982, 10.001135, 9.999164 
2.235107e+3, 2.1322638e+2, -837890.44, -939275.5, -190772.27, -0.15423664, 1.0162126, -691190.5, 159295.08, 0.015773455, 10.000426, 9.999042 
2.2351392e+3, 2.2322635e+2, -800385.06, -910583.25, -103841.41, -0.1893459, 1.1358277, -737930.1, 14556.851, 0.0069356123, 10.000155, 9.998697 
2.2351763e+3, 2.3322544e+2, -545386.75, -708547.56, -81986.13, 0.10280631, 1.1383724, -511307.8, 143186.25, 0.002541045, 10.001124, 9.998937 
2.2352104e+3, 2.43224e+2, -527962.75, -785578.2, -158430.06, 0.19763626, 1.1677865, -452585.5, 103923.01, 0.00075579167, 10.001166, 9.997715 
2.23524e+3, 2.5322208e+2, -529567.2, -709672.44, -164816.72, -0.09878399, 1.1710374, -431806.0, 26725.836, 0.00014769337, 10.000391, 9.997918 
2.235271e+3, 2.6322028e+2, -474738.25, -535471.8, -152932.58, -0.24030241, 1.1676918, -349186.75, 11364.608, 0.000007045108, 9.999701, 9.998768 
2.2353074e+3, 2.732188e+2, -200002.64, -297572.84, -133158.94, 0.04263446, 1.0896554, -106973.47, 155588.55, 0.00000000065814787, 10.000701, 9.999231 
2.2353427e+3, 2.832175e+2, -17208.273, -194812.05, -79345.836, 0.1732525, 1.0278575, 13076.096, 177647.47, 0.0, 10.001405, 9.998948 
2.2353755e+3, 2.9321474e+2, 180231.63, -96479.836, 11995.283, -0.0859209, 0.8609019, 180750.64, 247345.8, 0.0000012574419, 10.002316, 9.998487 
2.235408e+3, 3.032129e+2, 140777.02, -120484.29, -94898.5, -0.29946324, 0.8180916, 171608.73, 171608.73, 0.000044073433, 10.001801, 9.998267 
2.2354402e+3, 3.1321687e+2, -698.79517, -40805.25, -44592.133, -0.03550329, 1.347757, 28141.64, 28141.64, 0.00018419352, 10.00022, 9.999542 
2.2449075e+3, 1.5319054e+2, -971134.2, -885992.44, -272644.06, 0.43372062, 1.4094145, -652615.75, 786235.56, 0.42759266, 10.003106, 10.004884 
2.2449368e+3, 1.63188e+2, -1604278.6, -1434364.6, -2464.8643, 0.049879987, 0.8477487, -1434328.9, -93465.54, 0.29616648, 9.997897, 10.000252 
2.2449712e+3, 1.7319155e+2, -1364160.0, -1306903.1, -17136.73, -0.10627724, 1.2049727, -1302166.1, -59330.73, 0.19952731, 9.999114, 9.999833 
2.2450058e+3, 1.8319368e+2, -1130037.6, -1091321.0, -42127.633, -0.1469564, 1.4049759, -1064316.9, 80501.09, 0.13536815, 9.999753, 10.000427 
2.2450428e+3, 1.9319221e+2, -1072737.5, -982901.5, -55692.676, -0.017354432, 1.1869683, -956270.2, 90557.66, 0.09319166, 9.999358, 10.0006695 
2.2450773e+3, 2.0319112e+2, -1043662.44, -1048814.8, -152159.2, 0.033488907, 1.0605462, -894057.56, 54777.68, 0.06306426, 9.999448, 9.999484 
2.2451079e+3, 2.1319054e+2, -826980.94, -909584.9, -183834.56, -0.083336435, 1.0676785, -679865.8, 170974.39, 0.0400799, 10.00038, 9.999308 
2.2451404e+3, 2.2318967e+2, -632537.6, -806474.75, -52259.02, -0.1115253, 1.0814861, -618044.2, 134802.98, 0.023131557, 10.001208, 9.998921 
2.245177e+3, 2.3318867e+2, -471399.97, -648353.8, -37598.313, 0.04375391, 1.0530621, -463742.63, 191110.9, 0.011994159, 10.001536, 9.999155 
2.245211e+3, 2.4318747e+2, -449892.13, -754418.06, -127115.9, 0.10719924, 1.100187, -403805.72, 153059.39, 0.0054928027, 10.00172, 9.997664 
2.2452413e+3, 2.5318643e+2, -363543.8, -622114.2, -140445.3, -0.065850675, 1.193866, -301937.56, 156943.75, 0.002050329, 10.00151, 9.997976 
2.2452724e+3, 2.631848e+2, -315327.72, -502652.75, -85934.86, -0.101443745, 1.2211078, -281878.2, 79022.82, 0.0004876709, 10.0009575, 9.998404 
2.245309e+3, 2.731825e+2, -178292.11, -323157.8, -57704.246, 0.14093092, 1.1018624, -158116.66, 104803.8, 0.000047167257, 10.000997, 9.998921 
2.2453442e+3, 2.8318173e+2, -110485.48, -179307.05, -34077.594, 0.22905198, 1.0820364, -96467.086, 68457.31, 0.00000034188096, 10.000504, 9.999489 
2.2453767e+3, 2.931805e+2, -53004.49, -140004.77, -25388.93, -0.07988114, 1.0184032, -46137.375, 20793.28, 0.0000013302117, 10.000401, 9.9991255 
2.2454104e+3, 3.0317664e+2, 108791.3, -79708.055, -135258.33, -0.17753497, 0.69022936, 179398.58, 179398.58, 0.0000584347, 10.001292, 9.998805 
2.2454418e+3, 3.1318295e+2, 386131.13, 18295.146, -217607.2, -0.046339545, 1.4598079, 487131.94, 487131.94, 0.00025945, 10.003343, 9.998449 
2.254938e+3, 1.6315861e+2, -1492693.6, -1212984.0, -33711.277, 0.32173634, 1.4729091, -1208978.5, 132179.19, 0.39765337, 9.997566, 10.002516 
2.2549714e+3, 1.7315489e+2, -1435262.6, -1446855.9, 15567.24, -0.026173702, 1.1415331, -1424447.8, -181252.84, 0.29298013, 9.99906, 9.998903 
2.2550054e+3, 1.8315291e+2, -1187230.0, -1159053.3, -72293.07, -0.22194286, 1.000197, -1099488.6, 45727.676, 0.21888196, 9.999561, 10.000034 
2.2550401e+3, 1.9315597e+2, -1107485.8, -1016667.25, -73155.53, -0.23476122, 1.2461859, -975973.44, 71214.52, 0.16615056, 9.999193, 10.00053 
2.2550751e+3, 2.0315783e+2, -1043279.94, -1010746.9, -126187.195, -0.15887484, 1.3944286, -899782.1, 49387.316, 0.12546477, 9.999289, 9.999825 
2.255111e+3, 2.131553e+2, -819181.94, -865176.3, -137983.83, 0.18426481, 1.1653489, -702292.0, 148896.83, 0.0914258, 10.000281, 9.999674 
2.2551453e+3, 2.2315261e+2, -648685.3, -784911.9, -36133.89, 0.23908852, 0.9633362, -639694.25, 113515.51, 0.062582165, 10.001006, 9.999169 
2.2551763e+3, 2.3315056e+2, -476242.56, -617886.8, -18232.447, -0.19102348, 0.79551405, -473933.3, 181290.14, 0.039919913, 10.001381, 9.999458 
2.2552077e+3, 2.4314928e+2, -527057.9, -786685.56, -144282.19, -0.40055123, 0.82378125, -462786.75, 94447.016, 0.023601582, 10.001203, 9.997683 
2.2552429e+3, 2.5314978e+2, -386846.44, -604685.9, -146837.89, -0.0482155, 1.0419502, -312941.47, 146293.39, 0.012405956, 10.001251, 9.998211 
2.2552769e+3, 2.631483e+2, -400946.28, -595341.7, -118341.92, 0.21664372, 1.1065044, -345002.88, 16250.623, 0.005154125, 10.0006075, 9.997931 
2.2553103e+3, 2.7314547e+2, -250495.45, -395935.78, -53533.75, 0.15368554, 0.9551208, -232915.66, 30366.078, 0.0013586987, 10.000675, 9.99857 
2.2553423e+3, 2.831465e+2, -224635.86, -275630.72, -70884.945, -0.035961196, 1.1526042, -174802.06, -9531.614, 0.00015517221, 9.999946, 9.999073 
2.2553752e+3, 2.9315e+2, -111889.5, -169748.28, -18635.037, -0.27831072, 1.5975579, -106407.06, -39175.31, 0.0000026982873, 10.000075, 9.999039 
2.2554141e+3, 3.0314225e+2, 18139.227, -160463.69, -76763.97, -0.0008100378, 0.8681562, 46597.938, 46597.938, 0.000065484004, 10.000872, 9.998433 
2.2554433e+3, 3.131409e+2, 146957.53, -359220.63, -44062.82, -0.27749196, 0.97532696, 150764.56, 150764.56, 0.00034262822, 10.002867, 9.996082 
2.2649722e+3, 1.7311433e+2, -1089842.8, -1268414.6, -228028.23, 0.017830102, 1.0433202, -934243.3, 309358.3, 0.44342524, 10.002108, 9.999331 
2.265007e+3, 1.8311849e+2, -1429012.9, -1234201.5, -189004.66, 0.08630996, 1.3554994, -1118979.3, 26581.895, 0.3585124, 9.997587, 10.000517 
2.2650398e+3, 1.9312015e+2, -1294909.5, -1000655.7, -118322.125, -0.08060702, 1.3904498, -958979.94, 88563.18, 0.29413474, 9.997386, 10.001622 
2.265074e+3, 2.0312083e+2, -1114727.4, -975941.25, -43163.2, -0.16541801, 1.322757, -963612.5, -14079.691, 0.24160613, 9.998421, 10.0004635 
2.2651096e+3, 2.1311909e+2, -804408.0, -840903.6, -73392.24, 0.009882483, 1.1470786, -747029.1, 104513.914, 0.1940874, 10.000296, 9.999872 
2.2651446e+3, 2.231172e+2, -598296.9, -776109.25, -31897.824, 0.042378705, 1.0159711, -592747.9, 160807.33, 0.14888066, 10.001544, 9.998988 
2.2651763e+3, 2.3311572e+2, -601275.8, -705275.5, -92389.74, -0.2732007, 0.9442896, -547257.5, 108306.5, 0.108788945, 10.000643, 9.999236 
2.2652082e+3, 2.4311449e+2, -648500.1, -783064.4, -195917.55, -0.40295297, 0.96813715, -508633.6, 48940.145, 0.07581198, 9.999999, 9.998335 
2.2652425e+3, 2.531143e+2, -563692.9, -638283.5, -183518.06, -0.1311226, 1.0521822, -413718.8, 45861.26, 0.048806984, 9.999688, 9.998805 
2.2652754e+3, 2.6311243e+2, -555364.56, -674063.5, -106849.234, 0.08002657, 1.05839, -492488.34, -130887.016, 0.026684597, 9.999501, 9.997941 
2.2653106e+3, 2.731097e+2, -193812.53, -342589.3, -4546.401, 0.13119529, 0.8955518, -193673.73, 69953.734, 0.010897145, 10.00088, 9.998868 
2.265343e+3, 2.8311035e+2, -245308.75, -347072.7, -39649.734, 0.07261872, 1.0629013, -231684.31, -66064.33, 0.002788968, 10.000036, 9.998553 
2.2653757e+3, 2.93113e+2, -129714.66, -254299.78, 20457.768, -0.23600486, 1.5047231, -126441.34, -58848.62, 0.0003034348, 10.000284, 9.998361 
2.2654147e+3, 3.0310544e+2, 142183.06, -112450.805, 30974.68, -0.033961687, 0.79787046, 145896.78, 145896.78, 0.000074942734, 10.001825, 9.998299 
2.265449e+3, 3.1310272e+2, 356973.8, -357494.88, -22151.664, -0.10212978, 0.91807944, 357659.97, 357659.97, 0.00045627946, 10.00466, 9.995296 
2.2750764e+3, 2.0308076e+2, -1012912.25, -929349.4, 33924.387, 0.18534836, 0.9268427, -917311.2, 32608.344, 0.4526298, 9.999066, 10.000605 
2.2751091e+3, 2.1308118e+2, -650815.4, -764909.5, 62712.04, -0.09590759, 0.95093215, -623085.25, 228824.64, 0.38963944, 10.002148, 9.999789 
2.275144e+3, 2.2308226e+2, -585940.44, -858903.0, 68982.45, -0.20353894, 1.1388836, -569497.8, 184397.45, 0.32267725, 10.002505, 9.997956 
2.275179e+3, 2.3308231e+2, -658997.1, -829112.7, -49015.066, -0.08762695, 1.2931451, -645885.1, 10008.041, 0.25840095, 10.00063, 9.998331 
2.275212e+3, 2.430815e+2, -690586.44, -756870.8, -190515.25, -0.09718275, 1.3904322, -530352.1, 27548.52, 0.20062341, 9.999535, 9.998724 
2.27524e+3, 2.5307977e+2, -559843.8, -531642.4, -175278.86, -0.36706376, 1.1789843, -369897.94, 90021.25, 0.14660953, 9.999309, 9.999735 
2.2752686e+3, 2.630776e+2, -738907.6, -787431.06, -104007.234, -0.5790291, 1.1172788, -656369.9, -294429.88, 0.09444842, 9.998391, 9.997661 
2.2753103e+3, 2.730757e+2, -217614.33, -252502.34, 32146.44, -0.0022566135, 0.96059066, -198483.92, 65468.582, 0.04983968, 10.000332, 9.999718 
2.2753462e+3, 2.8307366e+2, -431347.56, -529101.6, -129478.51, 0.36080033, 0.8377302, -341827.9, -175857.9, 0.019500945, 9.999202, 9.997679 
2.2753775e+3, 2.9307076e+2, -265056.66, -464181.34, 31167.684, -0.114701435, 0.8163115, -260292.19, -192289.89, 0.004786881, 10.000018, 9.997024 
2.2754124e+3, 3.030675e+2, 21826.398, -211952.22, 74315.39, -0.4950292, 0.61091924, 43450.22, 43450.22, 0.0007184054, 10.001262, 9.9978485 
2.2754556e+3, 3.1306896e+2, 174654.53, -439823.25, 12321.438, 0.07097043, 1.2259858, 174901.5, 174901.5, 0.0007782504, 10.003593, 9.995144 
2.2852126e+3, 2.4304399e+2, -215413.38, -1043017.44, -28989.225, -0.44542837, 0.35178486, -214399.19, 343855.03, 0.45869297, 10.007019, 9.993531 
2.2852449e+3, 2.5304765e+2, -451821.1, -1034892.56, -133989.73, 0.016168097, 1.2695076, -422504.34, 37722.535, 0.36361384, 10.0025625, 9.994769 
2.2852787e+3, 2.630367e+2, -602186.3, -779079.6, -185776.9, 0.51762134, 0.66136116, -484876.16, -122538.96, 0.26167566, 9.999382, 9.997319 
2.2853132e+3, 2.7303815e+2, -419533.6, -404224.2, -55947.902, 0.3416561, 0.85509354, -355409.78, -91091.445, 0.1640845, 9.99901, 9.999414 
2.2853428e+3, 2.830371e+2, -617852.06, -660191.2, -233873.3, 0.15251355, 0.9038744, -404192.16, -237865.27, 0.0825175, 9.998016, 9.997391 
2.2853819e+3, 2.9303432e+2, 561718.94, -29441.498, 173097.17, 0.06424292, 0.86601573, 608673.8, 677032.44, 0.030766612, 10.005601, 9.997392 
2.2854194e+3, 3.0303493e+2, 959851.75, 290100.78, 61359.387, -0.22058836, 1.0205882, 965426.8, 965426.8, 0.009050024, 10.007429, 9.99839 
2.2854558e+3, 3.130317e+2, -295164.88, -213186.1, -103115.48, -0.00085173023, 1.091751, -143211.83, -143211.83, 0.0039614583, 9.998327, 9.999246 
2.29531e+3, 2.729968e+2, 12715.951, -258748.5, -158965.6, 0.10872966, 0.5255046, 86013.14, 350739.4, 0.43463576, 10.004028, 9.998254 
2.2953308e+3, 2.8300163e+2, -1115592.0, -1050409.5, -342646.22, -0.9082189, 1.2382443, -738808.0, -572127.8, 0.25417352, 9.995357, 9.995915 
2.2953887e+3, 2.9300514e+2, 498873.44, 174853.69, 408460.3, 0.14670792, 1.6007254, 776280.25, 844926.6, 0.12172663, 10.004701, 9.999357 
2.295434e+3, 3.0300847e+2, 139838.11, -105336.8, -237985.22, 0.39321426, 1.899904, 284953.2, 284953.2, 0.053812496, 10.001969, 9.998212 
2.295453e+3, 3.1299168e+2, 116176.086, 764861.5, -361856.06, -0.24308635, 0.40526962, 926459.1, 926459.1, 0.030954681, 9.997972, 10.00618 
2.3054016e+3, 2.9296255e+2, 1246142.3, 431490.22, -782151.6, 0.09060156, 1.0107803, 1720675.5, 1789754.8, 0.359991, 10.014652, 9.998489 
2.3054197e+3, 3.029586e+2, -2290105.3, -829673.94, -214094.77, -0.6741105, 0.24833581, -798935.25, -798935.25, 0.21237177, 9.982944, 10.002498 
2.3054673e+3, 3.129563e+2, 1507936.3, 368183.84, 490289.4, 0.5517109, 0.7077683, 1689819.6, 1689819.6, 0.16292568, 10.013742, 9.996808 
2.3520988e+3, 2.7425775e+2, -1178802.3, -1455231.4, -27565.832, -0.7539628, -0.6594621, -1176080.1, -923813.56, 0.4484065, 9.99617, 9.992763 
2.3516788e+3, 2.842542e+2, 528230.75, -90563.45, -200193.77, 0.9411427, 0.34613946, 587349.75, 741673.3, 0.35041875, 10.007833, 9.996392 
2.3512681e+3, 2.942537e+2, 208821.8, 405920.2, 958534.5, 1.3103877, 0.6281013, 1270958.3, 1327259.0, 0.2722289, 10.001228, 10.003993 
2.350831e+3, 3.0422118e+2, 515478.9, -910506.75, -536672.7, -0.71766144, -0.91769767, 694885.3, 694885.3, 0.21698849, 10.011175, 9.988565 
2.3663299e+3, 1.7479162e+2, -1995357.9, -1102765.0, -156013.9, 0.3133371, 0.19923854, -1076281.6, 150753.28, 0.43640673, 9.991459, 10.005033 
2.3658994e+3, 1.8478544e+2, -692682.1, -1223695.0, 155596.38, -0.33380988, 0.5083723, -650448.6, 478646.3, 0.3775988, 10.006224, 9.995661 
2.3654848e+3, 1.9476484e+2, -1142348.0, -1513549.8, 223144.66, 0.39015922, -0.33350673, -1037705.5, -6402.5327, 0.33353588, 10.000559, 9.995631 
2.3650546e+3, 2.047553e+2, -213566.67, -647107.25, -211762.84, -0.4587199, -0.10872859, -127297.586, 806099.25, 0.30097756, 10.006901, 9.998682 
2.3646304e+3, 2.1474653e+2, -1171033.9, -1099875.4, -248532.22, -0.2678442, -0.05616339, -884388.56, -48910.754, 0.27814138, 9.997409, 9.998753 
2.364211e+3, 2.2473961e+2, -2390591.8, -1880946.9, 292763.97, -0.13301226, 0.36284092, -1747638.9, -1010087.94, 0.26103863, 9.989523, 9.99648 
2.3638032e+3, 2.3472552e+2, -216442.81, -592399.5, -124848.21, 0.69087684, 0.05396686, -178760.05, 460945.25, 0.24561448, 10.004034, 9.9978075 
2.3633693e+3, 2.4471839e+2, 1257740.3, -47535.992, -365335.56, -0.13111448, 0.4972103, 1353037.0, 1894814.5, 0.23007867, 10.017441, 9.995341 
2.3629454e+3, 2.5470456e+2, -245394.55, -636365.56, 21234.205, 0.2945458, 0.49472314, -244244.67, 199654.55, 0.20982312, 10.002339, 9.996886 
2.3625195e+3, 2.6469466e+2, -309505.06, 248281.05, -16683.645, 0.67202073, 0.13203283, 248779.61, 594770.9, 0.17454451, 9.9963455, 10.006188 
2.3620953e+3, 2.7468887e+2, -638616.0, -693780.25, 202304.52, 0.06973, 0.12129084, -462022.0, -213967.22, 0.12467046, 9.997874, 9.997269 
2.361664e+3, 2.8467682e+2, 595851.75, 163382.25, -286072.25, -0.35511804, 0.004194296, 738218.2, 888387.3, 0.08155971, 10.00501, 9.999343 
2.3612392e+3, 2.94667e+2, 46754.973, 495898.72, 379436.34, -0.8682958, -0.5620139, 712240.06, 764487.75, 0.054664847, 9.998295, 10.004469 
2.3608421e+3, 3.0466732e+2, 582834.9, 609644.44, 219766.55, 0.450556, 0.17512856, 816414.6, 816414.6, 0.038662445, 10.00301, 10.002995 
2.3771614e+3, 1.5522042e+2, -1466196.5, -2650386.3, -199971.94, 0.3525153, -0.8739586, -1433339.4, -14520.202, 0.40915996, 10.004139, 9.988881 
2.3767385e+3, 1.6521038e+2, -1376329.4, -1144429.5, 142366.67, -0.08484303, -0.5509161, -1076769.4, 244164.92, 0.31914032, 9.998027, 10.002068 
2.3763262e+3, 1.7520669e+2, -887186.75, -870801.8, -21852.672, 0.6796205, -0.30392012, -855656.4, 367297.03, 0.25440004, 10.001365, 10.00194 
2.3759045e+3, 1.851985e+2, -886788.8, -1142441.1, -111297.38, 0.8060765, -0.2373281, -845125.6, 279907.1, 0.20803122, 10.002204, 9.998203 
2.375479e+3, 1.9519e+2, -1079561.3, -1260792.3, -30031.771, 0.6423497, -0.03994744, -1074714.3, -47585.188, 0.17323056, 9.999852, 9.997856 
2.3750523e+3, 2.0517944e+2, -913229.1, -1135095.8, 17216.072, 0.1453973, 0.01685961, -911901.1, 17335.963, 0.14628343, 10.000396, 9.997743 
2.3746231e+3, 2.1516822e+2, -318037.13, -724834.2, -66199.94, -0.48816842, -0.03273839, -307535.22, 523808.47, 0.1255341, 10.004066, 9.998231 
2.3742017e+3, 2.2515789e+2, -353771.94, -624593.75, 85743.03, -0.4194933, -0.04865807, -328908.13, 404538.56, 0.10829949, 10.002645, 9.998911 
2.3737876e+3, 2.3514591e+2, -1018560.9, -845797.4, 110586.734, 0.24171863, -0.2206894, -791853.7, -156283.14, 0.09199208, 9.996861, 9.999409 
2.3733631e+3, 2.4513748e+2, -1032762.0, -649820.5, -170978.95, 0.5048285, -0.21738951, -584591.3, -46939.523, 0.07586676, 9.995395, 10.000821 
2.3729338e+3, 2.551301e+2, -897336.9, -821104.56, -8067.954, 0.37354174, 0.022143314, -820260.06, -380545.66, 0.059159193, 9.997012, 9.998126 
2.3725057e+3, 2.651207e+2, -144351.81, -200721.48, 136291.27, 0.23588039, 0.03884702, -33361.598, 308441.6, 0.040411934, 10.000522, 10.0001335 
2.3720862e+3, 2.75109e+2, -202667.44, -564700.56, 382555.28, -0.007182897, -0.13455991, 39536.45, 283457.1, 0.021717504, 10.001457, 9.996322 
2.3716597e+3, 2.8509697e+2, -61561.61, -418487.34, -205547.16, -0.19932479, -0.058156997, 32186.16, 178223.86, 0.009485442, 10.001668, 9.996488 
2.3712361e+3, 2.9508716e+2, -339866.94, -45933.74, 109247.75, -0.1499453, -0.16609916, -9776.739, 38353.137, 0.004326742, 9.997506, 10.000628 
2.3708293e+3, 3.0507985e+2, -470212.63, 190020.6, 21032.72, 0.34857884, -0.05935934, 190689.95, 190689.95, 0.0025178173, 9.995304, 10.003309 
2.3875703e+3, 1.4565527e+2, -1701345.5, -1449824.5, 98014.09, -0.30847818, 0.22160195, -1416140.8, 96415.64, 0.38967866, 9.997456, 10.001298 
2.3871496e+3, 1.5565379e+2, -1325376.0, -1317167.5, -62220.047, -0.16744712, 0.77378654, -1258916.5, 155669.0, 0.2783623, 9.999967, 10.000341 
2.3867293e+3, 1.6564041e+2, -1264046.6, -1280865.6, 20121.662, -0.14167234, 0.32554343, -1250647.8, 66070.836, 0.19862524, 9.999969, 9.999618 
2.3863102e+3, 1.756221e+2, -1368004.6, -1326275.4, -109209.75, -0.10012111, -0.63833594, -1235955.0, -17066.643, 0.1461588, 9.998615, 9.999286 
2.3858868e+3, 1.8561313e+2, -1326064.4, -1263171.3, -262983.6, -0.1630961, -0.60162675, -1029760.75, 91214.15, 0.11113541, 9.998314, 9.999211 
2.3854601e+3, 1.9560984e+2, -1251208.1, -1213031.0, -212292.98, -0.30263963, -0.018626908, -1018970.1, 4044.1628, 0.08556882, 9.998177, 9.998975 
2.3850413e+3, 2.056012e+2, -1113706.1, -1145763.4, 42654.91, -0.09857032, 0.099183604, -1084167.8, -159067.64, 0.065839775, 9.9987135, 9.998454 
2.384624e+3, 2.155878e+2, -794278.3, -963427.6, 47501.445, 0.1995942, -0.22090633, -781851.6, 45375.844, 0.050802168, 10.000313, 9.998298 
2.3842e+3, 2.2557884e+2, -613908.7, -568869.5, -73923.6, 0.08589242, -0.21524431, -514111.47, 215204.73, 0.038884565, 9.999825, 10.000573 
2.383772e+3, 2.3557231e+2, -962714.4, -809742.4, -167141.8, -0.24173954, 0.011420113, -702417.4, -71033.29, 0.028499383, 9.997265, 9.999465 
2.3833425e+3, 2.4556263e+2, -553194.3, -394846.03, -268164.28, -0.37350962, -0.140721, -194412.16, 339062.25, 0.019239577, 9.998665, 10.000997 
2.3829177e+3, 2.5554985e+2, -328398.0, -530002.7, -143118.47, -0.25555614, -0.51551926, -254146.05, 181442.9, 0.011432521, 10.000928, 9.998239 
2.3824956e+3, 2.6554042e+2, 44890.76, -297660.2, -20570.432, -0.060038548, -0.4412411, 46121.61, 383799.2, 0.005416997, 10.00279, 9.99825 
2.3820789e+3, 2.7553087e+2, -366567.34, -639577.3, 153450.98, -0.03824161, -0.34175852, -297692.63, -57919.75, 0.001679893, 10.000286, 9.99637 
2.3816541e+3, 2.8551853e+2, -163733.69, -609100.75, -279135.72, -0.06517997, -0.2484224, -29339.21, 112557.766, 0.00032890253, 10.00154, 9.995272 
2.3812336e+3, 2.9551187e+2, -278286.0, -491899.97, 40350.875, 0.5295916, 0.20500968, -270918.03, -226951.9, 0.00010157676, 9.999831, 9.996558 
2.3808132e+3, 3.0549273e+2, -398769.4, -12802.934, 217795.89, -0.16139862, -0.5284303, 85207.945, 85207.945, 0.00014255464, 9.996681, 10.00136 
2.3979868e+3, 1.3607773e+2, -1771346.8, -2574493.5, -495277.44, 0.28886867, -0.9382337, -1535298.9, 71117.3, 0.42782024, 10.002541, 9.991507 
2.3975639e+3, 1.460769e+2, -1529204.6, -1479238.5, 31590.08, 0.08794304, 0.16008222, -1463946.5, 44491.93, 0.2998544, 9.999136, 10.0001135 
2.3971428e+3, 1.5606266e+2, -1307014.5, -1417701.5, -9996.248, -0.021039946, -0.36934364, -1306119.0, 104458.3, 0.19614406, 10.000571, 9.999147 
2.3967221e+3, 1.6605416e+2, -1286477.5, -1482360.1, -64546.824, -0.021511193, -0.21540347, -1267120.9, 45544.86, 0.12585048, 10.000471, 9.9980135 
2.396302e+3, 1.7604809e+2, -1374791.1, -1493233.4, -146935.03, 0.045797907, 0.23220003, -1275591.8, -60859.17, 0.083471425, 9.999202, 9.997889 
2.3958787e+3, 1.860388e+2, -1109271.0, -997398.8, -248127.25, 0.05708127, 0.21680368, -798980.9, 317840.4, 0.057587944, 9.999052, 10.000741 
2.3954536e+3, 1.9602819e+2, -995086.44, -915370.8, -174827.36, 0.02099239, -0.061977353, -775915.3, 243002.84, 0.03970386, 9.999185, 10.000562 
2.3950326e+3, 2.0601805e+2, -850453.25, -791337.2, 84050.055, -0.007049056, -0.27318203, -731799.25, 189210.94, 0.026570952, 9.99956, 10.000491 
2.394614e+3, 2.1600762e+2, -600099.06, -660227.8, 113285.7, -0.018506477, -0.47094682, -512956.25, 310148.78, 0.017417854, 10.000775, 10.000156 
2.3941907e+3, 2.2600098e+2, -607801.9, -717073.0, -153529.84, 0.040869713, -0.23720415, -499475.9, 225699.83, 0.011141793, 10.000521, 9.999183 
2.3937654e+3, 2.3599537e+2, -753461.75, -840439.8, -206711.95, 0.10825204, 0.22776459, -585713.6, 41530.87, 0.0065593217, 9.99929, 9.998242 
2.3933381e+3, 2.4598399e+2, -259338.89, -311565.3, -177503.69, 0.035349365, -0.00027411565, -106037.88, 423312.25, 0.0032030866, 10.000976, 10.000393 
2.392914e+3, 2.5596908e+2, 34005.97, -346894.4, -58182.855, -0.042199418, -0.5620632, 42695.227, 474173.47, 0.0011282732, 10.003424, 9.9982395 
2.3924917e+3, 2.6595983e+2, 39112.32, -332455.28, -93793.586, 0.07488331, -0.42303705, 61445.934, 395011.78, 0.00023273825, 10.002967, 9.997875 
2.3920718e+3, 2.7595276e+2, -417199.3, -457305.94, 19070.12, 0.13960469, -0.08383282, -409579.47, -173937.4, 0.000018051116, 9.999109, 9.998123 
2.3916462e+3, 2.8593987e+2, -159585.1, -245708.31, -121940.85, -0.01829636, -0.30902869, -73325.89, 64441.332, 0.000004039042, 10.000061, 9.998427 
2.3912255e+3, 2.9593077e+2, 270570.38, -131824.86, 177914.16, 0.39419445, -0.27196947, 337950.38, 377801.25, 0.00001362104, 10.003133, 9.9974375 
2.3908022e+3, 3.059145e+2, -170693.8, -313256.78, -75899.05, -0.23566876, -0.45122713, -137851.72, -137851.72, 0.000054133918, 9.999915, 9.997796 
2.4084006e+3, 1.2650374e+2, -1653244.8, -1355249.9, 109783.664, -0.28045058, -0.20502467, -1319172.5, 381080.75, 0.49043, 9.997719, 10.004931 
2.4079788e+3, 1.365045e+2, -1146616.0, -1077401.8, -35614.773, 0.05139949, 0.2244214, -1062349.4, 539902.25, 0.36336082, 10.002376, 10.003898 
2.4075577e+3, 1.4649576e+2, -1161904.1, -1356121.0, -12563.78, 0.16395988, 0.054988, -1161094.8, 343244.2, 0.24041095, 10.002835, 9.999301 
2.4071352e+3, 1.5648209e+2, -1369605.4, -1489193.8, -68066.17, 0.015244306, -0.3733096, -1338799.6, 67672.0, 0.14389461, 10.000287, 9.998726 
2.4067137e+3, 1.6647446e+2, -1309543.1, -1401884.5, -5605.874, -0.022940092, -0.1550735, -1309204.1, -654.3677, 0.08188297, 9.999934, 9.998807 
2.4062932e+3, 1.7646937e+2, -1179060.5, -1334167.4, 13777.969, 0.04520778, 0.34270883, -1177846.1, 32760.012, 0.047678713, 10.000291, 9.998476 
2.4058701e+3, 1.8646003e+2, -998017.4, -928806.2, -90854.84, 0.13586852, 0.30275434, -866189.6, 246505.84, 0.028905774, 9.999813, 10.000771 
2.4054459e+3, 1.9644864e+2, -1137191.8, -1001880.06, -120160.38, 0.23129222, -0.03713274, -931638.0, 83160.67, 0.017015342, 9.998335, 10.000338 
2.4050237e+3, 2.0643863e+2, -1140393.8, -847627.8, 74146.69, 0.09642381, -0.26386642, -829920.25, 86968.945, 0.00915297, 9.997246, 10.001205 
2.4046035e+3, 2.1642937e+2, -1237296.4, -928573.7, -7017.947, -0.059546977, -0.4179305, -928414.25, -109441.4, 0.0045936005, 9.996273, 10.000463 
2.4041806e+3, 2.2642298e+2, -990764.2, -899604.06, -196497.83, 0.012382185, -0.196252, -743469.1, -22428.451, 0.0022051786, 9.9978895, 9.99919 
2.4037568e+3, 2.3641676e+2, -663524.8, -810276.9, -110601.76, 0.18883583, 0.20364219, -604172.56, 18942.174, 0.0009056362, 9.999995, 9.998122 
2.403332e+3, 2.4640606e+2, -189572.48, -280115.6, 1270.7585, 0.19902813, 0.048011098, -189554.66, 335658.53, 0.00023937336, 10.001559, 10.000271 
2.4029097e+3, 2.5639194e+2, -344803.47, -563314.5, 51132.098, 0.13015454, -0.44288117, -333430.38, 93902.36, 0.000025130046, 10.000981, 9.997937 
2.4024856e+3, 2.6638216e+2, -336995.34, -534195.4, -90530.586, 0.14931826, -0.30772278, -301738.16, 27689.33, 0.00000030344088, 10.000494, 9.99768 
2.402062e+3, 2.7637562e+2, -635507.1, -449698.16, -27089.568, 0.15855414, 0.046094228, -445829.25, -214327.22, 0.000000006555133, 9.997089, 9.999199 
2.4016382e+3, 2.8636372e+2, -121376.36, 107377.12, 66686.01, 0.068933144, -0.32697546, 125397.74, 259011.81, 0.00000087941476, 9.9988985, 10.001418 
2.401218e+3, 2.963521e+2, -87216.95, -317484.22, 241669.75, 0.16317156, -0.70407456, 65343.3, 101058.42, 0.0000072209577, 10.000735, 9.997334 
2.4007934e+3, 3.0634207e+2, -392155.03, -784432.6, -7325.8457, -0.32640138, -0.080978304, -392018.28, -392018.28, 0.00003484927, 10.000003, 9.994468 
2.4183899e+3, 1.2693502e+2, -1933474.9, -1748575.0, 166261.69, -0.23718204, 0.13274252, -1650788.4, 45249.23, 0.44509992, 9.997745, 10.000263 
2.4179724e+3, 1.3692471e+2, -1394157.8, -1531018.9, 39103.977, 0.00041375737, -0.020508422, -1383773.0, 214362.81, 0.31930807, 10.001774, 9.999284 
2.4175508e+3, 1.4691651e+2, -1257296.0, -1489436.8, -96608.95, 0.05921498, 0.12557262, -1222351.0, 277867.13, 0.20041417, 10.002285, 9.998401 
2.4171264e+3, 1.5690787e+2, -1345430.9, -1495048.1, -115413.805, -0.050478294, 0.29642174, -1282701.6, 119604.88, 0.110025235, 10.000555, 9.998552 
2.4167041e+3, 1.6689754e+2, -1126710.3, -1083175.8, 3241.0857, -0.13138336, 0.11873452, -1082935.8, 221469.9, 0.054970514, 10.000236, 10.000921 
2.4162827e+3, 1.7688645e+2, -1037322.9, -1075776.5, 11677.36, -0.17792009, -0.18785161, -1034054.56, 172455.48, 0.027314784, 10.000445, 10.000197 
2.4158596e+3, 1.8687798e+2, -1053150.3, -1108830.3, -153912.33, -0.021374157, -0.13701046, -924580.3, 184011.38, 0.013986388, 10.000059, 9.999407 
2.4154353e+3, 1.9687022e+2, -1131333.5, -1125344.8, -149785.98, 0.19491303, 0.035108205, -978523.25, 32143.8, 0.006556314, 9.998885, 9.999226 
2.4150136e+3, 2.0686145e+2, -1127505.1, -920058.94, 23859.646, 0.21824175, 0.01891381, -917350.06, -4598.1353, 0.002469395, 9.99766, 10.000518 
2.4145935e+3, 2.168521e+2, -1158140.0, -902508.3, -13706.386, 0.13797833, -0.070096165, -901775.5, -86933.6, 0.00078321603, 9.996817, 10.000391 
2.4141696e+3, 2.2684428e+2, -760689.7, -516081.34, -90108.24, -0.020054981, -0.12560946, -486471.7, 230444.14, 0.00023610769, 9.998251, 10.0016575 
2.4137446e+3, 2.368366e+2, -392559.94, -416366.28, 26994.877, -0.21228515, -0.123990186, -374960.4, 244028.52, 0.000047296035, 10.000697, 10.000481 
2.4133225e+3, 2.4682799e+2, -239839.56, -353080.44, 26203.025, -0.055747945, -0.123745926, -234070.33, 286997.88, 0.0000020598873, 10.001422, 9.999844 
2.4129029e+3, 2.5681818e+2, -378010.47, -519271.06, 50437.867, 0.2410046, -0.15844281, -361850.1, 61306.766, 0.0, 10.000485, 9.998458 
2.412477e+3, 2.6680675e+2, -532088.1, -613343.5, -98741.33, 0.23965113, -0.20163532, -465942.88, -140672.81, 0.0, 9.999143, 9.997759 
2.4120493e+3, 2.7679566e+2, -610092.1, -407153.4, -33375.535, 0.057743352, -0.2809206, -401805.38, -174419.64, 0.0, 9.997064, 9.999518 
2.4116287e+3, 2.8678766e+2, -131540.5, 170797.98, 140634.86, 0.15605374, -0.31490284, 226099.81, 355562.6, 0.0000001537889, 9.99843, 10.002142 
2.4112144e+3, 2.9678303e+2, 134146.58, -72477.18, 253006.08, 0.50515735, -0.03645219, 304121.03, 335623.16, 0.000003139397, 10.001552, 9.998643 
2.410787e+3, 3.067673e+2, 127806.92, -108542.65, 548.5463, -0.16713688, -0.27916622, 127808.195, 127808.195, 0.000017281642, 10.001657, 9.998331 
2.4283846e+3, 1.2735504e+2, -1659761.6, -1721851.4, -8127.1245, 0.15552166, 0.12754498, -1658715.5, 33202.598, 0.4141129, 10.000163, 9.999125 
2.4279624e+3, 1.3734262e+2, -1763725.5, -1843504.9, -90600.016, -0.13574769, -0.16812508, -1704622.5, -110585.6, 0.28877336, 9.999087, 9.998202 
2.4275406e+3, 1.473343e+2, -1579178.3, -1592336.4, -144952.78, -0.12378969, -0.03836028, -1440655.4, 55465.54, 0.17287979, 9.999318, 9.999137 
2.427118e+3, 1.5732746e+2, -1367532.0, -1462625.4, -89031.39, -0.054799303, 0.24229768, -1314146.6, 84046.1, 0.08747846, 10.000086, 9.999042 
2.4266955e+3, 1.673178e+2, -1256672.6, -1146156.5, -38041.41, -0.071939036, 0.11051281, -1134328.0, 165958.72, 0.038149297, 9.999267, 10.0009165 
2.426274e+3, 1.7730701e+2, -1443801.0, -1255652.5, -133571.23, -0.08067088, -0.18364914, -1186352.3, 16036.696, 0.01570925, 9.997578, 10.000313 
2.42585e+3, 1.8729866e+2, -1215377.5, -1152640.5, -217072.94, 0.006955598, -0.16900131, -964681.3, 139787.1, 0.0064830934, 9.998774, 9.999733 
2.4254261e+3, 1.972913e+2, -916851.0, -1038778.4, -130183.46, 0.17994949, 0.015056275, -834063.8, 172475.89, 0.0021827125, 10.000466, 9.999056 
2.425004e+3, 2.0728275e+2, -855935.7, -886830.8, 19970.44, 0.23719116, 0.075855054, -846135.56, 62489.816, 0.00044835047, 9.999972, 9.999618 
2.424583e+3, 2.1727349e+2, -1071037.9, -936255.44, -23108.963, 0.23051922, 0.0753563, -932403.44, -121684.836, 0.000068581576, 9.997793, 9.999685 
2.4241588e+3, 2.2726494e+2, -778269.25, -437489.06, -111211.89, -0.05331884, -0.07213386, -404407.1, 308389.5, 0.0000096515805, 9.997881, 10.002327 
2.4237336e+3, 2.3725621e+2, -715324.75, -509198.1, -164229.47, -0.40127173, -0.27779013, -418371.34, 196501.17, 0.00000040342232, 9.998279, 10.001001 
2.4233122e+3, 2.4724908e+2, -642116.75, -484927.53, -195179.45, -0.19144836, -0.21691523, -353112.7, 163824.9, 0.0, 9.998443, 10.0003605 
2.4228935e+3, 2.5724232e+2, -849259.5, -688190.94, -112376.38, 0.26121143, -0.03414353, -630471.0, -211469.11, 0.0, 9.997042, 9.998979 
2.4224678e+3, 2.6723075e+2, -459422.7, -504375.44, -140858.06, 0.26875955, -0.18521787, -339259.0, -18141.48, 0.0, 9.999376, 9.998362 
2.422039e+3, 2.7721736e+2, -104075.24, -266275.25, -46180.746, 0.049849797, -0.5095059, -91848.55, 131404.53, 0.0, 10.001005, 9.998603 
2.4216188e+3, 2.872117e+2, 13275.489, 144980.64, 163070.36, 0.12598853, -0.20727023, 254993.08, 380303.0, 0.0000000009564638, 9.999896, 10.001237 
2.4212073e+3, 2.9721072e+2, -585248.56, -301230.2, 229659.72, 0.56542003, 0.44418842, -173220.48, -145901.27, 0.0000004799063, 9.996161, 9.999683 
2.4207781e+3, 3.0719224e+2, 244436.48, 346491.44, -278493.56, -0.40948087, -0.49959153, 578593.75, 578593.75, 0.0000055147566, 10.000697, 10.00196 
2.4383779e+3, 1.2777519e+2, -1598693.8, -1723856.6, 12249.552, 0.27835003, 0.30938452, -1597506.3, 90286.766, 0.39271495, 10.001039, 9.998685 
2.4379507e+3, 1.3775928e+2, -1655705.0, -1737246.0, -30482.475, -0.40160435, -0.27862418, -1645569.6, -55621.28, 0.26710206, 9.999611, 9.998673 
2.4375291e+3, 1.4775011e+2, -1381154.5, -1327803.9, -72802.695, -0.36168167, -0.35148892, -1276943.4, 215097.56, 0.15331793, 9.99995, 10.000829 
2.4371092e+3, 1.5774348e+2, -1245890.5, -1294412.8, -70073.125, -0.10346943, -0.1999354, -1195997.5, 198112.31, 0.07196278, 10.000472, 10.000055 
2.4366878e+3, 1.677369e+2, -1268744.9, -1283799.0, -97371.2, 0.068110324, 0.01604378, -1178610.3, 117568.35, 0.027363949, 9.999748, 9.999726 
2.4362656e+3, 1.7772989e+2, -1376279.4, -1257859.5, -136397.5, 0.16990186, 0.21242276, -1168374.8, 29876.053, 0.009079448, 9.998209, 9.999975 
2.4358419e+3, 1.8772104e+2, -1041887.4, -882048.25, -133032.95, 0.16445489, 0.09095018, -806774.7, 293558.4, 0.002868925, 9.999174, 10.001387 
2.4354175e+3, 1.9771142e+2, -761139.25, -832226.56, -72231.36, 0.12728474, -0.101866916, -716180.0, 286240.53, 0.00059867656, 10.00095, 10.000239 
2.4349944e+3, 2.0770243e+2, -895255.8, -1013734.7, -48835.28, 0.14566313, -0.06382933, -877721.6, 26788.822, 0.000045539302, 10.000142, 9.998674 
2.4345718e+3, 2.1769333e+2, -1080920.6, -1049524.9, -56050.125, 0.15192854, 0.051895298, -1007015.9, -200411.97, 0.0000022398012, 9.998169, 9.998715 
2.4341485e+3, 2.276838e+2, -883243.0, -710690.9, -89568.8, -0.020753417, -0.0249955, -672604.06, 36091.76, 0.000000052409952, 9.998114, 10.000339 
2.4337251e+3, 2.3767407e+2, -699036.56, -536058.25, -181087.7, -0.24553005, -0.15904804, -418969.38, 191817.3, 0.0, 9.998525, 10.0006895 
2.433302e+3, 2.4766687e+2, -566860.9, -172487.33, -264408.47, -0.14031078, -0.23843756, -39834.035, 473015.53, 0.0, 9.9977455, 10.002857 
2.4328794e+3, 2.576606e+2, -729294.56, -320165.34, -119153.56, 0.069977, -0.25856498, -287993.28, 126909.93, 0.0, 9.996486, 10.001766 
2.4324578e+3, 2.6765293e+2, -289829.4, -253260.45, 5914.505, 0.19693995, -0.2152196, -252327.67, 64652.113, 0.0, 9.999729, 9.999955 
2.4320361e+3, 2.7764443e+2, 422385.6, 83444.3, 42470.633, 0.27087805, -0.17350914, 427626.3, 646694.2, 0.0, 10.004122, 9.99952 
2.4316093e+3, 2.8763556e+2, 119042.89, -8872.631, 1497.6099, -0.05777621, -0.109364845, 119060.42, 240214.92, 0.0, 10.001426, 9.999475 
2.431186e+3, 2.9762745e+2, -650625.06, -356795.7, 178976.36, -0.28287143, -0.02012555, -272158.1, -248926.86, 0.000000008678429, 9.995765, 9.9994955 
2.430776e+3, 3.07615e+2, 312341.0, 309434.38, -190808.45, 0.2066106, -0.3471345, 501701.7, 501701.7, 0.0000009202062, 10.001243, 10.001548 
2.4487883e+3, 1.1820128e+2, -1590995.4, -1359106.5, -300.9664, -0.28794974, -0.21387812, -1359106.1, 422510.75, 0.4945417, 9.999363, 10.005511 
2.4483696e+3, 1.2819488e+2, -1533328.6, -1681977.0, 87226.945, 0.16734034, -0.0883342, -1493055.1, 190614.3, 0.3775347, 10.001802, 9.998754 
2.4479438e+3, 1.3818218e+2, -1603095.9, -1734172.1, 136596.39, -0.21890508, -0.33973965, -1517128.9, 68664.25, 0.25111946, 10.000188, 9.998476 
2.4475215e+3, 1.4817248e+2, -1430952.1, -1558188.4, 47328.746, -0.2533017, -0.31012037, -1415277.9, 72619.0, 0.13882844, 10.000522, 9.998786 
2.4471013e+3, 1.5816392e+2, -1261892.3, -1398151.6, -100357.42, -0.06971903, -0.16582055, -1208723.8, 181267.88, 0.060861234, 10.00083, 9.999114 
2.4466792e+3, 1.6815747e+2, -1059189.3, -1057084.5, -111397.09, 0.06657844, 0.011201046, -946734.75, 345322.94, 0.02025213, 10.000751, 10.000776 
2.4462561e+3, 1.7815125e+2, -1064207.0, -1063808.0, -37050.918, 0.17565782, 0.20484507, -1026956.06, 167163.63, 0.0052852775, 10.000184, 10.000356 
2.445832e+3, 1.8814223e+2, -990009.9, -908006.3, -48726.56, 0.12757018, 0.08949882, -885325.9, 210879.03, 0.0012089658, 9.999782, 10.000899 
2.4454083e+3, 1.9813223e+2, -1041412.44, -991639.56, -123141.27, 0.068425916, -0.1050816, -890895.2, 107402.875, 0.00012403581, 9.999177, 9.999991 
2.4449846e+3, 2.0812325e+2, -949461.9, -989546.0, -93587.69, 0.08803286, -0.10328127, -873794.25, 26591.906, 0.000001917801, 9.999604, 9.999067 
2.4445617e+3, 2.1811429e+2, -889370.6, -978920.2, 2281.9968, 0.14562356, -0.005683652, -889312.5, -86836.35, 0.000000018702426, 9.999624, 9.998482 
2.4441387e+3, 2.2810456e+2, -761547.0, -748159.56, 92587.1, 0.033895712, -0.03594265, -662024.5, 42546.805, 0.0, 9.999367, 9.999472 
2.4437164e+3, 2.3809442e+2, -784161.8, -654439.94, 52986.125, -0.09739574, -0.11549028, -635548.44, -28878.975, 0.0, 9.9983015, 9.999991 
2.4432917e+3, 2.4808665e+2, -393724.6, -38715.387, -164753.6, -0.08856863, -0.24355239, 25960.998, 534699.0, 0.0, 9.998792, 10.00324 
2.4428667e+3, 2.5807992e+2, -408386.53, -147183.05, -172827.7, -0.051463734, -0.3515132, -61160.16, 349634.4, 0.0, 9.998636, 10.001928 
2.442447e+3, 2.680746e+2, -419567.25, -232721.89, -42970.047, 0.05792295, -0.14552648, -223313.53, 89535.18, 0.0, 9.99849, 10.000689 
2.4420293e+3, 2.7806932e+2, -468891.88, -326192.28, -127044.66, 0.24914475, 0.11327141, -251833.0, -36926.906, 0.0, 9.997938, 9.999705 
2.4416009e+3, 2.8805754e+2, -30865.729, -176557.77, -266894.53, -0.15939406, -0.11529855, 172945.5, 289964.28, 0.0, 10.000865, 9.998577 
2.4411704e+3, 2.9804426e+2, 9170.111, -151350.95, 42930.11, -0.8192818, -0.46336588, 19930.168, 39073.313, 0.0, 10.000812, 9.998494 
2.4407725e+3, 3.0803502e+2, -187792.28, 62177.375, 273782.6, 0.54221064, -0.48215306, 238154.53, 238154.53, 0.00000009984614, 9.998095, 10.001252 
2.4587825e+3, 1.1862544e+2, -1677229.6, -1633202.9, 98864.234, -0.032877117, -0.2797969, -1553930.9, 223515.88, 0.48539782, 10.000142, 10.001363 
2.4583615e+3, 1.2861353e+2, -1475481.4, -1567612.5, -16165.698, 0.05201793, -0.65006614, -1472727.1, 206829.27, 0.36593348, 10.001828, 9.999836 
2.4579382e+3, 1.386075e+2, -1552679.8, -1765361.1, 63043.598, 0.022691427, -0.31183764, -1535396.8, 46216.645, 0.23856215, 10.000805, 9.997906 
2.4575154e+3, 1.4859739e+2, -1639437.3, -2032703.0, 71274.9, -0.06092364, -0.08435819, -1626918.0, -143188.81, 0.1275105, 10.000617, 9.995468 
2.4570934e+3, 1.5858632e+2, -1376340.0, -1576871.1, -38675.313, -0.08307776, 0.103119485, -1369139.5, 16718.322, 0.052560914, 10.0005245, 9.997999 
2.45667e+3, 1.6857824e+2, -946386.94, -759860.6, -96503.97, -0.060006328, 0.0075223814, -718918.6, 569016.25, 0.01541553, 10.000454, 10.002984 
2.4562456e+3, 1.7857072e+2, -1020189.6, -948690.2, -52256.645, -0.052421473, -0.11567556, -921124.8, 268876.47, 0.0031067657, 10.000069, 10.001202 
2.4558213e+3, 1.8856224e+2, -1111428.9, -1178841.8, -60428.633, -0.059031643, -0.07020421, -1075941.8, 16144.279, 0.00048131414, 9.999853, 9.99901 
2.4553977e+3, 1.9855322e+2, -1024687.94, -1036687.0, -110863.17, -0.06394763, 0.0020222303, -919662.06, 74515.195, 0.000015932997, 9.999509, 9.999506 
2.4549754e+3, 2.0854452e+2, -792336.5, -713741.56, -74918.305, 0.05152599, -0.060002133, -668439.75, 227819.38, 0.0000000054715246, 9.999809, 10.000864 
2.4545534e+3, 2.185358e+2, -669842.6, -656377.94, 12891.767, 0.17191856, -0.11486783, -648566.5, 149773.55, 0.0, 10.000165, 10.000443 
2.4541304e+3, 2.2852735e+2, -662132.7, -589509.25, 75734.6, 0.11118227, -0.13578102, -541831.25, 158588.28, 0.0, 9.999531, 10.000513 
2.4537073e+3, 2.3851861e+2, -756650.56, -661425.75, 70858.1, 0.012087924, -0.14526115, -623669.44, -21166.795, 0.0, 9.998527, 9.999843 
2.4532828e+3, 2.4850924e+2, -593707.75, -548140.8, -114969.195, 0.00046689116, -0.16758855, -453719.34, 50872.58, 0.0, 9.999159, 9.999589 
2.4528581e+3, 2.5850013e+2, -399885.4, -422786.4, -204307.56, -0.029660339, -0.16443656, -206707.7, 199971.34, 0.0, 9.999824, 9.999481 
2.4524342e+3, 2.6849234e+2, -580991.44, -441613.47, -204586.5, -0.17433117, -0.048834436, -295172.44, 13588.461, 0.0, 9.99786, 9.9996 
2.4520122e+3, 2.784849e+2, -753385.3, -475300.22, -212049.44, -0.22504292, 0.08668953, -360772.66, -149932.11, 0.0, 9.995958, 9.999651 
2.4515967e+3, 2.8847355e+2, 97030.93, -14840.264, -156753.06, 0.21955971, -0.1694806, 207529.44, 320477.1, 0.0, 10.001216, 9.999555 
2.4511814e+3, 2.9846132e+2, 916784.1, 337038.38, -99521.125, 0.591824, -0.48688385, 933392.5, 948452.4, 0.0, 10.00668, 9.999052 
2.4507561e+3, 3.0845702e+2, -241300.2, 131971.97, -201561.42, 0.022031391, 0.0022950952, 220035.8, 220035.8, 0.000000000000427524, 9.997219, 10.002155 
2.4687734e+3, 1.19044445e+2, -1829012.0, -1976984.5, 90285.28, -0.1321209, -0.3195277, -1786270.4, -12924.586, 0.47722325, 9.999956, 9.998199 
2.4683519e+3, 1.2903562e+2, -1471947.4, -1461991.9, -119190.31, -0.18830624, -0.40629092, -1347675.4, 327753.13, 0.3557266, 10.001065, 10.0013275 
2.467932e+3, 1.390301e+2, -1420864.8, -1553268.0, -91831.61, 0.163944, -0.16496502, -1373859.9, 203616.98, 0.22774403, 10.001293, 9.999224 
2.4675088e+3, 1.4902034e+2, -1634944.5, -1842685.6, 20205.473, 0.13090998, -0.07549266, -1632997.5, -153414.22, 0.11809006, 9.999866, 9.997118 
2.4670854e+3, 1.5900956e+2, -1706411.4, -1681077.1, 102931.22, 0.07606674, 0.009509369, -1590036.5, -208333.3, 0.04605504, 9.99801, 9.998505 
2.4666597e+3, 1.6900091e+2, -1504172.5, -1178925.9, -24294.473, -0.06928635, -0.051557705, -1177121.1, 106666.984, 0.012013259, 9.997266, 10.001605 
2.4662337e+3, 1.7899276e+2, -1549112.9, -1267350.3, -108817.21, -0.18536648, -0.12190828, -1230218.3, -44354.023, 0.0018483637, 9.99673, 10.000622 
2.465811e+3, 1.8898456e+2, -1285561.5, -1203780.1, -1782.6283, -0.10099638, -0.081754334, -1203741.3, -115795.96, 0.00018026956, 9.998393, 9.999554 
2.4653894e+3, 1.9897608e+2, -985981.9, -1032847.56, 68263.1, 0.037023906, 0.021043241, -937241.7, 52788.64, 0.0000007906511, 9.99988, 9.999354 
2.4649668e+3, 2.0896655e+2, -821267.0, -795540.06, -9987.221, 0.10542422, -0.07249774, -792118.2, 100003.85, 0.0, 9.999937, 10.0002365 
2.4645445e+3, 2.1895698e+2, -821034.9, -754847.4, -88664.87, 0.18197407, -0.16918975, -693301.5, 100910.484, 0.0, 9.999286, 10.000188 
2.4641213e+3, 2.2894958e+2, -551739.2, -456470.88, -76534.02, 0.12269596, -0.15656666, -413958.1, 282321.03, 0.0, 10.000026, 10.001142 
2.4636982e+3, 2.3894218e+2, -559554.56, -633685.44, -83560.13, 0.057071645, -0.095402986, -505208.06, 93138.51, 0.0, 10.000226, 9.999204 
2.4632739e+3, 2.4893117e+2, -462067.7, -719768.56, -90363.805, 0.023099925, -0.14584914, -433539.44, 66913.89, 0.0, 10.001073, 9.99749 
2.4628496e+3, 2.5891945e+2, -375558.75, -652850.2, -80749.41, -0.023563826, -0.18000393, -353757.9, 48811.06, 0.0, 10.001047, 9.997327 
2.4624233e+3, 2.689098e+2, -300018.88, -433202.84, -116476.9, -0.24410078, -0.10450717, -232441.72, 72229.98, 0.0, 10.00037, 9.998426 
2.4619988e+3, 2.7890122e+2, -415638.13, -380134.72, -8599.436, -0.41073975, 0.036634374, -378161.47, -171396.72, 0.0, 9.998634, 9.999006 
2.461591e+3, 2.8889072e+2, -159800.97, -69263.19, 191198.14, 0.4167498, -0.15773086, 81952.02, 190814.72, 0.0, 9.999174, 10.00016 
2.4611875e+3, 2.988782e+2, -360559.3, -430667.97, -29016.932, 1.556446, -0.46718892, -350107.72, -339130.25, 0.0, 9.99865, 9.997642 
2.460739e+3, 3.0887622e+2, -254422.9, 91857.4, -445307.9, -0.6119302, 0.35432097, 396500.28, 396500.28, 0.0, 9.997484, 10.001672 
2.4787632e+3, 1.19465195e+2, -1836348.6, -2162737.0, 175383.02, -0.40128708, -0.059476323, -1759977.5, 9256.083, 0.4678463, 10.000849, 9.996446 
2.4783413e+3, 1.2945896e+2, -1456225.0, -1350142.1, -40029.77, -0.47522643, 0.077663034, -1336732.3, 334560.5, 0.34520847, 10.000586, 10.002625 
2.4779251e+3, 1.3945118e+2, -1423477.4, -1369077.4, -44529.434, 0.21370125, -0.042989537, -1344097.8, 229262.1, 0.21743059, 10.000239, 10.001289 
2.4775015e+3, 1.4944217e+2, -1423784.0, -1350940.0, -19945.578, 0.27762341, -0.17750178, -1345836.3, 129611.86, 0.109704144, 9.999657, 10.000681 
2.4770764e+3, 1.5943287e+2, -1561506.6, -1506994.4, 33493.285, 0.22651838, -0.24571326, -1491068.4, -113526.15, 0.040704507, 9.998564, 9.999424 
2.4766482e+3, 1.6942424e+2, -1594758.6, -1573469.3, -44006.234, -0.0569168, -0.109776616, -1538838.6, -259205.1, 0.00953522, 9.998145, 9.998474 
2.4762204e+3, 1.7941584e+2, -1440777.0, -1284216.8, -51404.27, -0.3274051, 0.061402828, -1268847.8, -87126.375, 0.0011160366, 9.997758, 10.0000105 
2.4758016e+3, 1.8940814e+2, -1039887.1, -806206.75, 81761.7, -0.0421619, 0.0024289808, -780440.5, 303351.3, 0.00006263998, 9.998864, 10.002061 
2.4753836e+3, 1.9940013e+2, -912984.0, -951893.56, 101594.28, 0.28014946, -0.05031028, -828998.5, 156866.67, 0.0000000031066179, 10.000188, 9.999754 
2.4749595e+3, 2.0938875e+2, -988604.25, -1198082.5, -29891.795, 0.23516044, -0.12216231, -984422.3, -96440.555, 0.0, 10.000153, 9.997393 
2.474535e+3, 2.1937719e+2, -843327.56, -897693.4, -78089.55, 0.11938547, -0.16246107, -787825.0, 2274.8376, 0.0, 9.999669, 9.999031 
2.4741118e+3, 2.2937027e+2, -489995.38, -399096.28, -53881.605, 0.021345789, -0.07737571, -374055.5, 318106.0, 0.0, 10.000296, 10.00143 
2.4736892e+3, 2.3936352e+2, -352469.4, -421293.78, -75575.14, -0.06951822, 0.01332555, -303840.66, 290378.88, 0.0, 10.001109, 10.00025 
2.4732661e+3, 2.4935102e+2, -254385.89, -449004.97, -64883.742, -0.045789853, -0.3119445, -234737.97, 261597.06, 0.0, 10.001727, 9.999055 
2.4728432e+3, 2.5933784e+2, -156176.66, -461441.0, -25023.217, 0.018151535, -0.6226548, -154139.05, 244320.86, 0.0, 10.002131, 9.99812 
2.4724197e+3, 2.6932934e+2, -165115.73, -477152.56, -79126.76, 0.12781891, -0.370818, -146197.61, 154354.23, 0.0, 10.0017185, 9.997502 
2.4719958e+3, 2.793225e+2, -83888.14, -229232.63, 21389.287, 0.10559634, 0.037035577, -80805.8, 121823.086, 0.0, 10.000908, 9.998943 
2.4715759e+3, 2.8931308e+2, -260548.48, -122431.97, 163076.22, -0.08678792, -0.038911488, -14394.498, 90323.45, 0.0, 9.998392, 10.000228 
2.471164e+3, 2.9930046e+2, -702222.0, -621226.5, 82484.05, 0.4133837, -0.33700168, -569834.75, -562999.0, 0.0, 9.996294, 9.997513 
2.470736e+3, 3.0928922e+2, 310746.2, 260724.92, -179310.28, -0.019631179, -0.31719857, 466781.72, 466781.72, 0.0, 10.001588, 10.000963 
2.488757e+3, 1.1988902e+2, -1721657.9, -1858294.6, 110999.69, -0.2714418, -0.009695465, -1659637.0, 105449.81, 0.45571515, 10.000949, 9.998644 
2.4883345e+3, 1.2988353e+2, -1562243.3, -1337002.6, 50711.62, -0.23048912, 0.081961766, -1326111.8, 341018.63, 0.33319858, 9.999022, 10.003453 
2.4879128e+3, 1.3987365e+2, -1751416.0, -1518856.0, 93606.266, 0.023939634, -0.28595275, -1485860.5, 83353.164, 0.20679392, 9.997778, 10.001203 
2.48749e+3, 1.498647e+2, -1625365.6, -1565525.3, 1303.7626, 0.12091676, -0.31366688, -1565496.9, -94192.95, 0.10179194, 9.998777, 9.999558 
2.4870668e+3, 1.598558e+2, -1385510.5, -1429739.9, -100044.055, 0.22426772, -0.266315, -1305166.1, 68229.17, 0.036105353, 9.999817, 9.999359 
2.4866395e+3, 1.6984741e+2, -1071423.9, -1236178.0, -34448.75, -0.05486862, -0.17947362, -1064511.0, 210968.83, 0.0076701324, 10.001387, 9.999224 
2.4862121e+3, 1.7983899e+2, -795916.9, -1017334.2, 102478.38, -0.30871445, -0.041297164, -755767.25, 421797.72, 0.000687035, 10.002399, 9.999595 
2.485793e+3, 1.8983045e+2, -868445.0, -861253.1, 46633.56, 0.0004219874, -0.08572498, -818077.06, 261569.73, 0.000019881356, 10.000669, 10.000786 
2.4853748e+3, 1.9982162e+2, -1208117.0, -1168476.8, -93926.75, 0.3695832, -0.12778161, -1092301.8, -110570.484, 0.0, 9.998522, 9.999052 
2.4849509e+3, 2.0981096e+2, -1035365.3, -1220413.5, -46111.7, 0.2670087, -0.13557108, -1024511.5, -140669.02, 0.0, 9.999876, 9.997338 
2.4845262e+3, 2.1979995e+2, -710281.25, -874716.2, 61958.754, 0.10812053, -0.10096338, -689549.2, 96407.91, 0.0, 10.000785, 9.998646 
2.484103e+3, 2.2979215e+2, -675357.7, -547151.3, 46483.258, 0.017521413, -0.051596142, -532071.75, 155956.1, 0.0, 9.999286, 10.000905 
2.4836802e+3, 2.397844e+2, -906974.0, -716447.3, -15076.081, -0.055301137, -0.0034020336, -715261.7, -125166.08, 0.0, 9.99746, 9.999985 
2.4832575e+3, 2.4977173e+2, -661980.6, -576754.94, -60833.08, -0.05428424, -0.39231294, -545094.56, -52882.22, 0.0, 9.998649, 9.99965 
2.4828362e+3, 2.5975865e+2, -545307.8, -638575.7, -104281.75, 0.0641317, -0.74926853, -477707.75, -83373.125, 0.0, 9.999476, 9.998182 
2.4824145e+3, 2.6975104e+2, -316719.53, -562810.9, -103160.3, 0.3499396, -0.42552993, -279196.6, 17219.053, 0.0, 10.000783, 9.997346 
2.4819908e+3, 2.7974445e+2, -135910.27, -317653.38, 36312.184, 0.36610568, 0.040340666, -128923.695, 69564.234, 0.0, 10.000857, 9.998367 
2.4815615e+3, 2.8973466e+2, -185293.72, -87084.92, 105640.9, -0.55667156, -0.05114049, -19693.645, 80887.75, 0.0, 9.999025, 10.000114 
2.4811429e+3, 2.997234e+2, -721876.9, -622298.25, 133959.13, -0.52354693, -0.2141831, -529174.94, -526487.4, 0.0, 9.996207, 9.997535 
2.4807361e+3, 3.097072e+2, -73505.27, 91905.71, 49575.49, 0.6984801, -0.74639636, 105625.984, 105625.984, 0.0, 9.998898, 10.001115 
2.4987532e+3, 1.2031456e+2, -1650704.4, -1591525.6, 47969.03, 0.070681065, 0.07761656, -1564754.0, 196164.78, 0.43991756, 10.0001745, 10.001597 
2.4983281e+3, 1.3030815e+2, -1452278.6, -1223962.5, 30472.416, 0.079224065, -0.058433995, -1219965.5, 442997.25, 0.31901658, 9.999755, 10.004166 
2.4978986e+3, 1.4029656e+2, -1641326.0, -1595168.3, 59391.76, -0.34160784, -0.6119335, -1554528.9, 10530.22, 0.19536594, 9.999167, 9.99988 
2.4974775e+3, 1.5028718e+2, -1705629.0, -1930843.4, 44047.26, -0.14828677, -0.4248145, -1697320.8, -230160.17, 0.094030365, 9.999631, 9.996642 
2.4970569e+3, 1.6027816e+2, -1317375.8, -1379229.3, -25364.975, 0.091780975, -0.17125745, -1308304.4, 60954.348, 0.032013185, 10.00023, 9.999488 
2.4966319e+3, 1.7027019e+2, -861591.9, -809503.9, 21089.174, -0.0713268, -0.26730436, -802036.0, 469292.94, 0.0062260167, 10.001426, 10.002139 
2.4962068e+3, 1.8026184e+2, -850143.6, -1087136.9, 67671.766, -0.26117373, -0.33274996, -832181.75, 341222.06, 0.00043419475, 10.002211, 9.999193 
2.4957849e+3, 1.9025111e+2, -1120896.3, -1412589.3, -39053.188, -0.0126814945, -0.29172927, -1115758.1, -40241.58, 0.0000058323185, 10.000771, 9.996955 
2.4953638e+3, 2.0024058e+2, -1155379.4, -1180474.5, -93441.695, 0.24163578, -0.19751139, -1073646.6, -96019.04, 0.000000000090419006, 9.999021, 9.998725 
2.4949414e+3, 2.1023317e+2, -769535.8, -757931.2, 30035.656, 0.19693474, -0.090056315, -733142.5, 146560.61, 0.0, 10.000227, 10.000341 
2.4945186e+3, 2.202253e+2, -557585.75, -680803.4, 55010.207, 0.10368569, 0.006354004, -536600.56, 245181.2, 0.0, 10.001286, 9.9997225 
2.4940947e+3, 2.30215e+2, -757837.0, -745040.56, -30186.008, 0.14327718, -0.112163976, -720582.1, -36703.21, 0.0, 9.99937, 9.999514 
2.4936709e+3, 2.4020459e+2, -983582.5, -882232.1, -19375.473, 0.15201433, -0.18976568, -878654.4, -292677.4, 0.0, 9.997453, 9.998838 
2.4932483e+3, 2.5019476e+2, -800896.1, -788920.56, -22647.156, 0.06897999, -0.16952038, -771483.0, -283407.25, 0.0, 9.998253, 9.998402 
2.4928264e+3, 2.6018482e+2, -485773.94, -527964.1, -85925.62, 0.02217951, -0.13246565, -418391.84, -28216.97, 0.0, 9.9994755, 9.99894 
2.4924038e+3, 2.7017632e+2, -125421.05, -214959.14, -45660.65, 0.08265298, -0.080357276, -106243.54, 186012.53, 0.0, 10.000955, 9.999663 
2.4919805e+3, 2.8016758e+2, 89673.39, -107184.95, 61566.754, 0.036999088, -0.021522067, 107342.31, 301682.28, 0.0, 10.001876, 9.999341 
2.4915557e+3, 2.9015547e+2, -138205.1, -158550.11, 42400.414, -0.22504583, -0.28845716, -104773.99, -8318.618, 0.0, 9.999678, 9.999348 
2.491138e+3, 3.0014452e+2, -461407.8, -408641.94, 144719.1, 0.1331066, -0.38408035, -287920.6, -287920.6, 0.0, 9.997571, 9.998336 
2.4907193e+3, 3.1013706e+2, -123331.32, 168823.5, 98572.375, 0.067835145, -0.11753704, 198970.72, 198970.72, 0.0, 9.998009, 10.00209 
2.5087437e+3, 1.2074126e+2, -1854410.5, -1762624.5, 134925.14, 0.077655725, -0.07099135, -1666001.0, 90722.9, 0.42027465, 9.9988, 10.000558 
2.5083187e+3, 1.3073273e+2, -1481560.9, -1472441.3, 18266.441, -0.022398476, -0.14690802, -1458174.0, 200625.06, 0.30251706, 10.000883, 10.001107 
2.5078923e+3, 1.4072175e+2, -1343228.1, -1604428.3, -66283.67, -0.19658166, -0.374253, -1327370.4, 233528.66, 0.18302314, 10.002229, 9.998376 
2.5074708e+3, 1.5071127e+2, -1397138.1, -1780574.3, -27260.309, -0.037692975, -0.2877847, -1395209.8, 67798.69, 0.08629053, 10.00174, 9.996666 
2.5070494e+3, 1.6070117e+2, -1278891.5, -1436338.6, -6462.861, 0.15455388, -0.13229242, -1278626.6, 86487.4, 0.028287582, 10.000815, 9.998817 
2.5066248e+3, 1.7069206e+2, -1137019.3, -1094409.0, -125641.04, 0.015965644, -0.24018744, -988279.5, 278918.44, 0.0050760456, 10.000157, 10.000794 
2.5062e+3, 1.8068291e+2, -1267250.5, -1286186.5, -233783.94, -0.116060115, -0.31541136, -1042742.94, 126538.53, 0.00028139996, 9.999384, 9.999194 
2.5057763e+3, 1.9067284e+2, -1200053.5, -1331383.5, -125723.98, -0.015775336, -0.31607884, -1123879.1, -52496.48, 0.0000014559199, 9.999806, 9.997959 
2.5053534e+3, 2.0066278e+2, -1013317.75, -1080285.4, 75191.445, 0.12240818, -0.23859183, -964491.6, 8994.053, 0.0, 9.999881, 9.999009 
2.5049317e+3, 2.1065554e+2, -975584.0, -822218.5, 68599.56, 0.13768654, -0.13375501, -796012.25, 79546.75, 0.0, 9.998723, 10.000615 
2.50451e+3, 2.2064811e+2, -1096517.9, -990838.9, -79002.16, 0.14893088, -0.0071918536, -948634.44, -171001.84, 0.0, 9.997839, 9.999262 
2.504086e+3, 2.3063676e+2, -744852.44, -834124.56, -140288.97, 0.19884668, -0.17914933, -642269.75, 37471.957, 0.0, 9.999883, 9.998646 
2.503662e+3, 2.406254e+2, -541777.25, -768612.56, -60673.516, 0.23779106, -0.2741879, -526568.2, 55283.957, 0.0, 10.000927, 9.997957 
2.5032395e+3, 2.506171e+2, -544518.8, -712221.3, 29861.518, 0.13356881, -0.055660803, -539360.25, -55419.977, 0.0, 10.000266, 9.997936 
2.5028172e+3, 2.6060897e+2, -484638.63, -511792.25, 18696.09, 0.006802013, 0.20206502, -475109.72, -89084.1, 0.0, 9.999456, 9.999064 
2.502394e+3, 2.7059963e+2, -190426.94, -139758.25, -50563.84, -0.08299802, 0.083994746, -108537.04, 179575.78, 0.0, 10.000069, 10.000621 
2.5019717e+3, 2.8058952e+2, -176955.55, -225910.77, -131571.56, -0.107599735, -0.0766264, -67604.055, 122601.84, 0.0, 10.000059, 9.999396 
2.5015503e+3, 2.9057667e+2, -217029.72, -254910.72, -151843.27, 0.16724303, -0.41622835, -82950.23, 9377.269, 0.0, 9.999429, 9.998789 
2.5011307e+3, 3.0056575e+2, -370326.0, -315176.88, 40424.38, 0.452796, -0.4936406, -293817.94, -293817.94, 0.0, 9.998045, 9.998738 
2.5007004e+3, 3.1056577e+2, -299522.03, 87178.59, 99434.09, -0.8056922, 0.3780936, 111248.336, 111248.336, 0.0, 9.996902, 10.002017 
2.5187325e+3, 1.2116625e+2, -1756768.0, -1874126.1, 56602.074, -0.09598929, -0.30577618, -1733917.8, 18626.533, 0.39734322, 10.000312, 9.998742 
2.5183088e+3, 1.3115643e+2, -1630630.1, -1916299.3, 39695.844, -0.22713411, -0.18661483, -1625216.6, 29430.148, 0.28406283, 10.001279, 9.99729 
2.5178888e+3, 1.4114676e+2, -1441797.4, -1752766.6, -49917.797, 0.0632394, 0.017875602, -1433980.9, 122765.24, 0.16993596, 10.001803, 9.997524 
2.517466e+3, 1.5113543e+2, -1289532.6, -1558602.0, -30765.344, 0.16772485, -0.07916905, -1286059.8, 172797.56, 0.078587286, 10.001835, 9.998125 
2.5170425e+3, 1.6112398e+2, -1303842.3, -1601365.5, -19360.646, 0.22356847, -0.12075058, -1302587.8, 58383.28, 0.024857625, 10.001288, 9.997452 
2.5166175e+3, 1.7111288e+2, -1334650.6, -1568893.4, -105270.914, 0.13443689, -0.11831914, -1294293.8, -31209.613, 0.0041356636, 10.000428, 9.997404 
2.5161922e+3, 1.8110256e+2, -1122130.6, -1053709.6, -192854.5, 0.013716847, -0.10531286, -892054.8, 273131.25, 0.00018434241, 9.999669, 10.000644 
2.5157672e+3, 1.910952e+2, -828495.9, -636790.8, -81116.83, -0.044626992, -0.2229383, -607074.06, 460172.16, 0.00000026313862, 10.000106, 10.002594 
2.5153428e+3, 2.0108718e+2, -917234.56, -956711.0, 55923.47, -0.06437735, -0.28574216, -877668.2, 91647.97, 0.0, 10.000206, 9.999694 
2.514921e+3, 2.1107708e+2, -1117979.3, -1167075.5, 19782.725, 0.077498354, -0.27303186, -1111000.3, -239580.16, 0.0, 9.998917, 9.998176 
2.5144997e+3, 2.2106701e+2, -1091203.1, -1083235.9, -48859.12, 0.18009238, -0.20581532, -1038198.25, -264675.03, 0.0, 9.998226, 9.99846 
2.5140765e+3, 2.3105706e+2, -679192.4, -795611.06, -59060.758, 0.1422528, -0.21656318, -654477.0, 21143.334, 0.0, 10.000259, 9.99875 
2.513654e+3, 2.4104707e+2, -319602.56, -557757.2, -46829.715, 0.10103069, -0.20684534, -310725.1, 266992.47, 0.0, 10.00197, 9.998901 
2.5132313e+3, 2.5103718e+2, -348677.7, -494401.66, -960.59094, 0.10125127, -0.24588189, -348671.38, 131142.77, 0.0, 10.0010195, 9.999097 
2.5128093e+3, 2.6102754e+2, -460529.34, -594403.56, 18932.555, 0.13002747, -0.19654319, -457903.4, -75993.12, 0.0, 9.999969, 9.998268 
2.5123888e+3, 2.7101803e+2, -399238.22, -544118.2, -71921.195, 0.28958783, -0.089821346, -369598.75, -85588.72, 0.0, 9.999875, 9.997974 
2.5119674e+3, 2.8100818e+2, -209267.86, -284719.66, -204727.9, 0.33962342, -0.026977338, -38818.918, 147291.6, 0.0, 9.99996, 9.999053 
2.51154e+3, 2.9099745e+2, -77596.484, -107457.13, -230933.42, 0.031804763, -0.22089131, 138888.75, 227099.83, 0.0, 9.999931, 9.9995985 
2.5111154e+3, 3.00988e+2, -108239.695, -81245.26, -62904.25, -0.07677251, -0.24949083, -30406.488, -30406.488, 0.0, 9.999306, 9.999757 
2.5106955e+3, 3.1098354e+2, -217326.23, 120866.086, -22109.8, -0.1751584, 0.13008118, 122305.42, 122305.42, 0.0, 9.997397, 10.002043 
2.5287253e+3, 1.2158681e+2, -1464529.0, -1691047.4, -219890.4, -0.17852928, -0.3070203, -1330443.4, 417982.53, 0.3720952, 10.003298, 9.999017 
2.5283024e+3, 1.3157766e+2, -1557836.4, -1844069.4, -96388.8, -0.112612836, -0.18085544, -1528404.0, 122114.766, 0.26429757, 10.001796, 9.997585 
2.527881e+3, 1.415681e+2, -1530032.5, -1698317.5, -39801.746, 0.058437485, -0.022829441, -1521093.6, 31521.988, 0.15642525, 10.000644, 9.998426 
2.5274584e+3, 1.5155768e+2, -1250336.0, -1440673.9, -19248.012, 0.12957834, -0.12830326, -1248409.0, 206307.27, 0.071005836, 10.001735, 9.998964 
2.5270352e+3, 1.6154695e+2, -1129593.8, -1451462.4, -30711.69, 0.21275653, -0.16804141, -1126689.6, 230131.45, 0.021693112, 10.002273, 9.998008 
2.5266093e+3, 1.7153625e+2, -1297036.6, -1511432.6, 16570.168, 0.16002423, -0.15130006, -1295763.5, -36833.137, 0.00335279, 10.0006075, 9.9977 
2.5261834e+3, 1.8152617e+2, -1211706.0, -1134931.1, 104865.76, 0.09764481, -0.0952661, -1061647.5, 99383.875, 0.00011963712, 9.999198, 10.000323 
2.5257587e+3, 1.915184e+2, -844153.4, -697241.1, -6988.5313, -0.015788238, -0.19725716, -696909.44, 366187.5, 0.00000002568285, 10.000194, 10.002144 
2.5253344e+3, 2.0151007e+2, -879342.3, -1059787.1, -129692.56, -0.0649552, -0.24477585, -811576.6, 153593.63, 0.0, 10.000961, 9.998632 
2.5249124e+3, 2.1149828e+2, -915103.0, -1219027.1, -129583.48, 0.09089038, -0.31330103, -867354.44, -62.84003, 0.0, 10.000905, 9.996873 
2.5244904e+3, 2.214868e+2, -845271.3, -1048865.9, -65152.484, 0.21912268, -0.2827907, -826206.94, -56797.34, 0.0, 10.000327, 9.99767 
2.5240678e+3, 2.3147748e+2, -727841.1, -848602.4, -61977.81, 0.09607919, -0.21711822, -701693.9, -30192.281, 0.0, 10.000081, 9.998466 
2.5236452e+3, 2.414679e+2, -656101.5, -708071.94, -123922.14, 0.013847073, -0.15231074, -555469.5, 18125.047, 0.0, 9.99967, 9.998964 
2.5232232e+3, 2.5145695e+2, -575670.3, -546642.44, -161220.73, 0.121906966, -0.36565462, -399283.63, 76413.75, 0.0, 9.999278, 9.999559 
2.5228015e+3, 2.6144645e+2, -681724.8, -774940.2, -116503.05, 0.266956, -0.42574325, -602852.5, -225053.6, 0.0, 9.9988165, 9.997572 
2.522382e+3, 2.714374e+2, -538122.8, -736311.94, -16743.4, 0.49106482, -0.19186544, -536718.25, -256819.53, 0.0, 9.999513, 9.996797 
2.52196e+3, 2.8142798e+2, -261450.13, -328544.72, -42481.996, 0.50647384, 0.012264384, -240866.66, -58866.14, 0.0, 9.999751, 9.998839 
2.5215283e+3, 2.914183e+2, -140753.8, -60299.47, -93255.05, -0.22279173, -0.11830862, 1034.8159, 85125.54, 0.0, 9.999224, 10.000243 
2.5211024e+3, 3.014102e+2, -242070.0, -127367.01, 588.80963, -0.42175755, -0.054359235, -127363.984, -127363.984, 0.0, 9.998381, 9.999871 
2.5206876e+3, 3.1139812e+2, -217252.98, 100189.945, 61288.754, 0.10252422, -0.43687084, 111611.99, 111611.99, 0.0, 9.997646, 10.001729 
2.5387213e+3, 1.22006625e+2, -1488347.4, -1651765.3, -256786.0, -0.08531199, -0.21868542, -1300583.9, 443734.47, 0.34545994, 10.002621, 9.999697 
2.5382972e+3, 1.3199808e+2, -1464661.3, -1609232.6, -80409.33, 0.03514054, -0.1817132, -1428822.6, 217575.06, 0.24384509, 10.001743, 9.999265 
2.537871e+3, 1.419881e+2, -1482905.8, -1552697.9, -2130.361, -0.14079395, -0.20981763, -1482840.8, 65652.48, 0.14280653, 10.000542, 9.999446 
2.53745e+3, 1.5197888e+2, -1266630.5, -1371620.1, 39023.316, -0.036426995, -0.26155055, -1253714.9, 196867.22, 0.06363834, 10.001278, 9.999673 
2.5370276e+3, 1.6196968e+2, -1080934.5, -1235565.9, -78062.95, 0.088079125, -0.2480725, -1048379.7, 304291.0, 0.0187796, 10.001774, 9.999737 
2.5366002e+3, 1.7196062e+2, -1106549.0, -1173761.5, -71680.95, 0.093078494, -0.28285447, -1060987.4, 193770.66, 0.0026956536, 10.000821, 9.999926 
2.536174e+3, 1.819513e+2, -1237934.1, -1336932.1, 83628.08, 0.068076566, -0.24538966, -1190253.9, -33404.58, 0.00007576087, 9.99985, 9.998606 
2.535751e+3, 1.9194137e+2, -1069146.5, -1246499.4, 27947.846, 0.03855663, -0.2002664, -1064846.6, -5898.4053, 0.00000000011876218, 10.000536, 9.998207 
2.5353283e+3, 2.0193101e+2, -913199.44, -1195146.4, -113986.9, 0.038465567, -0.14216748, -872881.6, 88169.96, 0.0, 10.001226, 9.997564 
2.5349054e+3, 2.1191922e+2, -840698.6, -1144450.5, -124322.27, 0.15999185, -0.20971178, -796303.5, 66869.195, 0.0, 10.001223, 9.997229 
2.5344828e+3, 2.2190769e+2, -755770.7, -1012049.06, -74763.516, 0.20961526, -0.21036197, -735554.8, 29735.572, 0.0, 10.000932, 9.997632 
2.5340587e+3, 2.3189737e+2, -721824.56, -916126.4, -80415.875, 0.051018544, -0.17723182, -692860.44, -25467.625, 0.0, 10.000369, 9.997887 
2.533636e+3, 2.41887e+2, -668661.4, -763322.5, -159365.67, -0.009329528, -0.13941373, -549746.3, 19748.35, 0.0, 9.999731, 9.998571 
2.533215e+3, 2.518764e+2, -632662.9, -646051.3, -204641.2, 0.26513314, -0.24520715, -434606.44, 36990.344, 0.0, 9.999162, 9.998947 
2.532793e+3, 2.6186666e+2, -484770.53, -426922.84, -118616.34, 0.39458, -0.2650933, -333754.8, 39935.676, 0.0, 9.999041, 9.999861 
2.5323695e+3, 2.7185923e+2, -244426.72, -222411.22, 49106.16, 0.13034998, -0.17991027, -183094.17, 92669.63, 0.0, 9.9998665, 10.000177 
2.5319457e+3, 2.8185105e+2, -100343.0, -100043.234, 23079.436, -0.08019458, -0.11211304, -77113.195, 100731.33, 0.0, 10.000198, 10.000179 
2.5315192e+3, 2.9184103e+2, -165306.64, -91958.16, -53694.19, -0.1566652, -0.26192415, -63608.82, 16331.434, 0.0, 9.999116, 10.0000925 
2.5310966e+3, 3.018323e+2, -272967.47, -228017.3, 75649.33, 0.022588026, -0.20934749, -171575.02, -171575.02, 0.0, 9.998495, 9.99915 
2.5306764e+3, 3.118242e+2, -48889.242, 60216.22, 114186.15, 0.021988945, -0.046826668, 132211.81, 132211.81, 0.0, 9.999193, 10.000793 
2.5487188e+3, 1.22428685e+2, -1484634.6, -1502686.9, -118623.39, 0.36652997, -0.08651153, -1374694.5, 365492.5, 0.31815657, 10.001717, 10.001278 
2.5482893e+3, 1.324195e+2, -1445893.3, -1505732.3, -110458.44, -0.0012280287, -0.23146975, -1361373.9, 280892.03, 0.22319712, 10.001371, 10.000306 
2.547861e+3, 1.424093e+2, -1462804.4, -1548315.8, -30688.63, -0.31392854, -0.34861854, -1452930.8, 91428.47, 0.12934339, 10.000657, 9.999471 
2.5474405e+3, 1.5239976e+2, -1566887.0, -1576141.0, -32154.994, -0.068679474, -0.3912623, -1539027.8, -92575.47, 0.05657354, 9.999332, 9.999233 
2.547019e+3, 1.6239074e+2, -1521057.9, -1454658.5, -159105.81, 0.14287823, -0.33742508, -1325325.5, 23215.23, 0.016116831, 9.998739, 9.999682 
2.5465924e+3, 1.7238244e+2, -1060882.4, -1158175.9, -250456.0, 0.07313536, -0.32638186, -854392.5, 396229.13, 0.0021455006, 10.001139, 9.999877 
2.546166e+3, 1.8237339e+2, -916945.7, -1267184.8, -163990.33, 0.016451657, -0.26113692, -852149.25, 300561.78, 0.000046550977, 10.002432, 9.997848 
2.5457427e+3, 1.9236231e+2, -1067946.4, -1368861.9, -87308.49, 0.00007242235, -0.2625859, -1044449.2, 10374.196, 0.0, 10.001081, 9.997115 
2.5453198e+3, 2.0235154e+2, -1099672.4, -1245929.0, -60889.445, 0.04181498, -0.18394065, -1077641.5, -120708.586, 0.0, 9.999824, 9.997879 
2.5448972e+3, 2.1234143e+2, -999936.25, -1115219.5, -18421.238, 0.17038581, -0.1733557, -997064.25, -138028.34, 0.0, 9.999721, 9.998139 
2.5444743e+3, 2.2233075e+2, -894460.7, -1055654.8, 92261.336, 0.22357607, -0.1315711, -852550.44, -91406.33, 0.0, 9.999941, 9.997801 
2.5440508e+3, 2.3231937e+2, -626401.3, -874887.25, 132506.17, 0.044950705, -0.197016, -569001.25, 94256.914, 0.0, 10.001121, 9.997786 
2.543628e+3, 2.423086e+2, -423472.44, -680879.8, 62453.297, 0.012917447, -0.15048906, -409120.0, 156245.36, 0.0, 10.001642, 9.998196 
2.5432065e+3, 2.522989e+2, -390234.06, -571597.8, 39168.758, 0.32246625, -0.123015806, -382136.4, 85324.55, 0.0, 10.0010395, 9.998543 
2.542784e+3, 2.622894e+2, -285368.84, -223545.27, 109836.43, 0.39997324, -0.09388133, -140353.69, 229199.02, 0.0, 9.999989, 10.000796 
2.542357e+3, 2.7228135e+2, -302302.06, -52380.363, 94159.016, -0.16635206, -0.23200323, -20876.732, 250749.05, 0.0, 9.998663, 10.001915 
2.5419325e+3, 2.822738e+2, -416057.03, -225375.1, -93007.47, -0.4627731, -0.2254348, -187523.38, -13828.349, 0.0, 9.997951, 10.000402 
2.5415108e+3, 2.9226485e+2, -191574.14, -123580.016, -142193.78, -0.032659356, -0.2844681, -11375.593, 64406.258, 0.0, 9.99907, 9.99988 
2.54109e+3, 3.0225432e+2, -241567.06, -356433.28, 41222.297, 0.32525116, -0.33588645, -228304.77, -228304.77, 0.0, 9.99939, 9.997827 
2.540665e+3, 3.1224874e+2, -203733.75, 14756.317, 88748.54, -0.19452472, 0.17126264, 46262.063, 46262.063, 0.0, 9.998072, 10.00101 
2.5587106e+3, 1.2285007e+2, -1564183.8, -1594793.5, -129199.26, 0.19385464, -0.09154397, -1449386.0, 286674.34, 0.29081753, 10.001204, 10.0005455 
2.5582808e+3, 1.3284098e+2, -1364913.6, -1386730.5, -48249.94, -0.1255985, -0.2877381, -1326354.4, 311779.06, 0.2027681, 10.001598, 10.00119 
2.557851e+3, 1.4283052e+2, -1421611.8, -1548831.4, -30325.08, -0.5379716, -0.46114734, -1414753.0, 125472.66, 0.11625642, 10.001091, 9.999234 
2.5574315e+3, 1.5282041e+2, -1511447.0, -1605394.5, -31844.393, -0.06780575, -0.5135089, -1501670.4, -59344.438, 0.04988728, 9.999974, 9.998701 
2.5570104e+3, 1.6281085e+2, -1473172.4, -1541846.9, -63630.23, 0.2265207, -0.43036228, -1435205.8, -90783.45, 0.013707004, 9.999537, 9.998703 
2.5565845e+3, 1.7280248e+2, -1103618.4, -1299029.0, -111417.32, 0.051570166, -0.3024824, -1053134.1, 193375.31, 0.0016894786, 10.001357, 9.99881 
2.5561586e+3, 1.8279316e+2, -857618.9, -1152930.1, -150921.78, -0.101171225, -0.2180227, -794135.8, 354468.1, 0.000027889511, 10.002466, 9.998606 
2.5557336e+3, 1.927816e+2, -952184.7, -1171204.1, -112148.266, -0.13813302, -0.37960908, -904947.44, 145769.38, 0.0, 10.001265, 9.998379 
2.5553098e+3, 2.0277156e+2, -919364.5, -962557.56, -64630.91, -0.09398276, -0.37252623, -872817.3, 79997.73, 0.0, 10.00019, 9.999655 
2.5548878e+3, 2.1276483e+2, -833289.44, -846229.9, -2081.685, 0.11538216, -0.18332765, -832962.75, 21918.725, 0.0, 10.000011, 9.999862 
2.5544658e+3, 2.2275649e+2, -753575.1, -850241.0, 159210.97, 0.22285564, -0.061541744, -635522.3, 121442.38, 0.0, 10.000298, 9.9990425 
2.554044e+3, 2.3274493e+2, -492212.03, -714648.1, 225066.73, 0.10728719, -0.2191697, -352383.3, 306697.75, 0.0, 10.001621, 9.998649 
2.5536218e+3, 2.4273454e+2, -239635.92, -505357.1, 105533.97, 0.053346843, -0.2178404, -202822.25, 358362.6, 0.0, 10.002485, 9.999006 
2.5531977e+3, 2.527266e+2, -249754.34, -459023.44, 83391.1, 0.17133021, -0.039541304, -220588.8, 242673.27, 0.0, 10.00176, 9.998987 
2.5527734e+3, 2.627171e+2, -319938.3, -439939.28, 121838.57, 0.19076134, 0.030019673, -244127.55, 121228.04, 0.0, 10.0005665, 9.999049 
2.5523484e+3, 2.7270463e+2, -527184.75, -482740.63, 33304.184, -0.034597546, -0.2543704, -464925.38, -197446.84, 0.0, 9.998459, 9.999084 
2.5519237e+3, 2.8269482e+2, -469652.28, -281937.28, -85370.35, -0.17729662, -0.29020384, -248919.55, -79344.48, 0.0, 9.997648, 10.00018 
2.5515008e+3, 2.9268906e+2, -63293.83, -28183.549, -96009.0, -0.083503656, -0.050503716, 51862.082, 123494.586, 0.0, 9.99973, 10.000254 
2.55108e+3, 3.0267853e+2, -11344.553, -210900.5, -10263.077, 0.19693829, -0.14439487, -10818.115, -10818.115, 0.0, 10.000749, 9.9982 
2.550654e+3, 3.1266552e+2, -292046.78, -184154.27, -47125.0, -0.22588915, -0.35284716, -166469.77, -166469.77, 0.0, 9.998022, 9.9997 
2.5687018e+3, 1.2327665e+2, -1628960.1, -1678230.9, 129257.875, 0.15001023, -0.22560202, -1522010.9, 209860.39, 0.26403108, 10.000846, 9.999998 
2.5682744e+3, 1.3326772e+2, -1443057.6, -1565578.3, 51518.953, -0.037264686, -0.22590207, -1424274.0, 209677.63, 0.18292536, 10.001645, 9.999638 
2.5678477e+3, 1.4325647e+2, -1349006.4, -1573258.9, 35782.1, -0.15062813, -0.35007882, -1343435.3, 192620.11, 0.1037245, 10.0018635, 9.998699 
2.5674254e+3, 1.5324569e+2, -1270793.1, -1550349.8, 22965.531, 0.086494625, -0.43627116, -1268919.1, 169239.69, 0.043632858, 10.001885, 9.998181 
2.5670022e+3, 1.6323523e+2, -1266892.0, -1540963.4, 50240.824, 0.24232937, -0.3678732, -1257972.5, 82290.36, 0.011545959, 10.001423, 9.997768 
2.5665766e+3, 1.7322563e+2, -1305358.3, -1528757.5, 4347.5674, 0.07038276, -0.24942105, -1305273.6, -62908.414, 0.0013158798, 10.000576, 9.997583 
2.5661513e+3, 1.8321556e+2, -1185043.3, -1265587.1, -50804.07, -0.045150124, -0.1688039, -1160485.5, -16017.498, 0.000016496271, 10.000063, 9.998985 
2.5657266e+3, 1.9320424e+2, -1072057.1, -1159069.3, -49304.43, -0.028854428, -0.37365717, -1049808.4, -3232.74, 0.0, 10.000148, 9.999015 
2.5653023e+3, 2.0319447e+2, -867931.1, -861120.1, -11515.571, 0.023564797, -0.39163804, -852517.06, 96150.97, 0.0, 10.000263, 10.000315 
2.564879e+3, 2.131881e+2, -729796.8, -729192.2, -30610.537, 0.1179484, -0.23170464, -698882.44, 151845.61, 0.0, 10.00048, 10.00044 
2.564457e+3, 2.231803e+2, -751569.1, -852270.2, 71879.3, 0.18998992, -0.09181424, -714159.75, 38645.105, 0.0, 10.000334, 9.999003 
2.5640363e+3, 2.3316902e+2, -821492.8, -881505.5, 75929.91, 0.10751729, -0.24681659, -769855.25, -114934.93, 0.0, 9.999396, 9.998572 
2.563614e+3, 2.4315906e+2, -689556.6, -655683.56, -84183.43, 0.0658768, -0.24154249, -586749.9, -29729.475, 0.0, 9.99916, 9.999558 
2.563189e+3, 2.5315186e+2, -479202.97, -502340.6, -78738.24, 0.075006284, -0.08944308, -411188.2, 47900.453, 0.0, 9.999935, 9.9995575 
2.5627643e+3, 2.6314276e+2, -496894.47, -666096.56, -9509.414, 0.109954156, 0.027120974, -496361.72, -135183.4, 0.0, 10.000018, 9.997726 
2.56234e+3, 2.7312893e+2, -554931.25, -709000.56, 27706.992, 0.1203049, -0.2388925, -550100.06, -286780.66, 0.0, 9.999228, 9.997144 
2.5619152e+3, 2.831176e+2, -422177.66, -320783.0, 53185.086, 0.037002597, -0.27286562, -298003.3, -132567.22, 0.0, 9.998282, 9.999594 
2.56149e+3, 2.931125e+2, -343473.7, -184055.98, 27376.867, -0.1914934, 0.045413256, -179485.58, -111994.945, 0.0, 9.997953, 10.000008 
2.5610706e+3, 3.0310345e+2, -379193.03, -382200.56, -30667.46, 0.12492964, 0.12093836, -349992.47, -349992.47, 0.0, 9.99828, 9.998164 
2.5606495e+3, 3.1309015e+2, -294808.72, -104589.43, -4711.9365, 0.3969827, -0.1589142, -104472.78, -104472.78, 0.0, 9.997811, 10.00028 
2.5786892e+3, 1.23705536e+2, -1783358.5, -2080838.0, 142989.73, -0.37825355, -0.19066787, -1725774.3, 1885.078, 0.23823552, 10.000906, 9.996995 
2.5782686e+3, 1.3369524e+2, -1526321.4, -1814134.3, 29703.873, 0.10663894, -0.15204231, -1523287.8, 106475.836, 0.16394834, 10.001834, 9.997716 
2.577846e+3, 1.436837e+2, -1330130.9, -1615723.5, 30077.12, 0.35412368, -0.177962, -1326997.6, 204877.67, 0.09188186, 10.002232, 9.9982195 
2.57742e+3, 1.5367237e+2, -1177778.4, -1520930.3, 23474.7, 0.23991403, -0.2872713, -1176179.9, 257799.45, 0.03784501, 10.00262, 9.998033 
2.5769943e+3, 1.6366112e+2, -1219140.3, -1610042.6, 11595.427, 0.15952368, -0.2518579, -1218796.6, 117292.34, 0.009625426, 10.00218, 9.996912 
2.5765687e+3, 1.7365009e+2, -1314745.4, -1649893.1, -8594.334, 0.080091916, -0.16543883, -1314525.1, -76317.75, 0.0010124295, 10.00102, 9.996529 
2.576144e+3, 1.836395e+2, -1109211.3, -1178014.9, -44501.04, 0.08475414, -0.09573963, -1087365.1, 52950.08, 0.000009793076, 10.000368, 9.99943 
2.5757208e+3, 1.936294e+2, -994677.5, -1057716.4, -21283.459, 0.2582943, -0.21613255, -988164.56, 54243.73, 0.0, 10.000391, 9.999593 
2.5752968e+3, 2.0361954e+2, -835806.8, -875357.1, 9666.63, 0.30262962, -0.27262965, -833570.56, 110928.62, 0.0, 10.000562, 10.000084 
2.5748715e+3, 2.1361044e+2, -704246.8, -782338.6, 1074.7948, 0.1646011, -0.32183275, -704232.06, 142351.2, 0.0, 10.00089, 9.999894 
2.5744477e+3, 2.2360094e+2, -752787.25, -948584.5, 46167.56, 0.052961532, -0.28172833, -742447.3, 6229.485, 0.0, 10.000702, 9.998154 
2.5740257e+3, 2.3359032e+2, -863716.44, -1011866.8, 28122.305, -0.018942516, -0.2690513, -858557.8, -207767.66, 0.0, 9.99952, 9.997623 
2.5736037e+3, 2.4358045e+2, -616400.56, -492781.3, -86725.83, 0.011833513, -0.2572871, -448093.06, 104797.516, 0.0, 9.999081, 10.00072 
2.573181e+3, 2.5357205e+2, -368550.1, -304625.7, -59002.637, 0.19900991, -0.34037352, -269484.28, 185482.98, 0.0, 10.000021, 10.000896 
2.572757e+3, 2.6356375e+2, -317585.63, -393317.4, -25342.668, 0.25611743, -0.2908857, -309887.53, 47159.2, 0.0, 10.000412, 9.99941 
2.5723308e+3, 2.735548e+2, -350203.63, -431388.13, 39397.273, 0.13516572, -0.21808636, -334228.4, -75089.33, 0.0, 9.999817, 9.998777 
2.5719056e+3, 2.8354535e+2, -396399.13, -419066.94, 74835.27, 0.066394925, -0.11192674, -332044.34, -170804.86, 0.0, 9.998892, 9.998629 
2.5714815e+3, 2.9353648e+2, -537562.5, -473203.78, 21617.35, 0.08291781, 0.012489439, -466616.9, -403277.94, 0.0, 9.997404, 9.9983015 
2.5710592e+3, 3.0352712e+2, -527026.4, -354181.88, 55106.523, 0.1716309, 0.12161394, -338107.63, -338107.63, 0.0, 9.996791, 9.999085 
2.570638e+3, 3.13516e+2, -50149.383, 285041.72, 95659.41, 0.2860276, -0.052830607, 310420.22, 310420.22, 0.0, 9.998216, 10.002794 
2.5886822e+3, 1.2412858e+2, -1743313.3, -1936118.4, -7405.7515, -0.2952014, -0.15902121, -1743029.1, -19514.582, 0.2137318, 10.000588, 9.998132 
2.5882602e+3, 1.3411805e+2, -1437674.4, -1735321.5, -61162.527, -0.04473052, -0.23245591, -1425596.4, 200021.88, 0.14603192, 10.002333, 9.998045 
2.5878373e+3, 1.4410669e+2, -1186023.0, -1597176.0, -14097.229, 0.08144488, -0.24651255, -1185540.3, 342188.3, 0.080827504, 10.003556, 9.997693 
2.587415e+3, 1.5409549e+2, -914836.2, -1463852.8, -61676.08, 0.22807106, -0.29382676, -907992.8, 521842.13, 0.032553293, 10.004833, 9.997334 
2.5869897e+3, 1.6408436e+2, -833867.8, -1371469.9, -137227.42, 0.23838525, -0.24581963, -800865.3, 531078.44, 0.007938516, 10.004637, 9.997356 
2.5865617e+3, 1.7407337e+2, -1116124.9, -1514883.1, -95679.59, 0.097400844, -0.22284417, -1094355.5, 139701.48, 0.00076767127, 10.002214, 9.996888 
2.586136e+3, 1.84063e+2, -1041075.44, -1149206.4, -20019.48, 0.09811641, -0.14901021, -1037488.06, 98672.16, 0.000005913737, 10.000861, 9.999375 
2.5857127e+3, 1.9405346e+2, -987197.9, -1077856.4, -41404.496, 0.28297582, -0.21029177, -971134.3, 67114.67, 0.0, 10.00057, 9.999346 
2.5852886e+3, 2.0404321e+2, -934471.3, -1053348.9, -32456.328, 0.31741965, -0.2420762, -926187.3, 14158.297, 0.0, 10.00048, 9.99889 
2.5848627e+3, 2.1403192e+2, -859449.5, -1001699.8, -93681.61, 0.096555896, -0.41093677, -812952.25, 29501.506, 0.0, 10.000451, 9.998595 
2.5844386e+3, 2.2402158e+2, -818618.4, -926617.56, -40384.26, -0.016902309, -0.41017297, -805187.7, -60632.535, 0.0, 10.000108, 9.998576 
2.584017e+3, 2.3401232e+2, -885514.0, -964245.2, 55372.516, 0.024774818, -0.32797486, -856940.2, -210288.77, 0.0, 9.999207, 9.99809 
2.5835946e+3, 2.440031e+2, -655573.5, -478285.88, 22981.186, 0.10291812, -0.27798697, -475355.34, 73389.02, 0.0, 9.998709, 10.00098 
2.583172e+3, 2.5399396e+2, -580306.0, -391826.13, -34571.98, 0.2323621, -0.46600437, -385684.84, 65145.71, 0.0, 9.998549, 10.00099 
2.582748e+3, 2.6398587e+2, -514398.7, -385736.63, -106834.23, 0.25247195, -0.43827742, -325359.88, 27548.037, 0.0, 9.998638, 10.000318 
2.582321e+3, 2.739796e+2, -422288.53, -342639.47, -88752.67, 0.07867443, -0.24105963, -285185.88, -30214.666, 0.0, 9.998838, 9.99984 
2.581896e+3, 2.8397167e+2, -417774.34, -541538.75, -68206.69, 0.0879008, -0.012601185, -387561.16, -230503.52, 0.0, 9.999268, 9.997594 
2.581473e+3, 2.9396054e+2, -335196.13, -537668.56, -69524.63, 0.3078753, -0.007393031, -313621.72, -254436.92, 0.0, 9.999526, 9.996833 
2.5810465e+3, 3.039504e+2, -225885.48, -106505.92, 9314.606, 0.058180634, 0.059288204, -105783.516, -105783.516, 0.0, 9.998434, 9.999991 
2.5806183e+3, 3.139452e+2, -258745.19, 310116.34, 36499.01, -0.59428185, 0.34881467, 312448.6, 312448.6, 0.0, 9.996284, 10.003901 
2.5986794e+3, 1.2455045e+2, -1601680.3, -1710029.6, 6630.0576, 0.17827155, -0.13672079, -1601276.0, 118106.94, 0.19077101, 10.001162, 9.99943 
2.598251e+3, 1.3453948e+2, -1348577.8, -1575177.1, 14556.919, -0.35044262, -0.34202036, -1347646.5, 273838.44, 0.12932456, 10.002504, 9.999107 
2.597827e+3, 1.4452803e+2, -1260524.5, -1690367.6, 50547.84, -0.4385788, -0.39245632, -1254660.3, 268935.28, 0.07062259, 10.003214, 9.997222 
2.5974104e+3, 1.54517e+2, -1095653.4, -1622733.4, 45596.94, 0.15376113, -0.34617662, -1091738.0, 333968.9, 0.027766839, 10.003833, 9.996724 
2.5969866e+3, 1.6450623e+2, -847791.7, -1212756.5, -171601.22, 0.32999387, -0.29314408, -779781.0, 548031.6, 0.0064744665, 10.00381, 9.998851 
2.596555e+3, 1.744958e+2, -985145.44, -1273152.6, -142876.16, 0.066219345, -0.35402653, -926292.9, 303619.38, 0.0005723583, 10.00232, 9.9985075 
2.596127e+3, 1.8448585e+2, -1013689.6, -1171501.0, -17080.89, -0.032670587, -0.31275395, -1011862.0, 120145.88, 0.0000035552432, 10.001192, 9.999067 
2.5957024e+3, 1.9447635e+2, -984258.06, -1144217.0, -27429.203, 0.056589525, -0.29873922, -979685.3, 54414.36, 0.0, 10.000855, 9.998764 
2.5952777e+3, 2.0446524e+2, -993470.9, -1258777.1, -17295.125, 0.039668147, -0.31004232, -992348.2, -56137.703, 0.0, 10.000825, 9.99732 
2.5948527e+3, 2.144523e+2, -910097.4, -1217639.4, -78713.93, -0.11235568, -0.45316634, -891121.75, -52778.496, 0.0, 10.000887, 9.996928 
2.59443e+3, 2.2444223e+2, -571598.8, -504022.13, -59268.223, -0.02275918, -0.46864638, -469587.5, 270852.9, 0.0, 10.000479, 10.001297 
2.5940108e+3, 2.3443532e+2, -611930.9, -510617.3, 59422.535, 0.35071224, -0.42635182, -483189.88, 159308.9, 0.0, 9.999657, 10.000995 
2.5935876e+3, 2.4442744e+2, -690722.56, -643164.75, 29497.648, 0.37580326, -0.33677623, -629055.0, -84479.37, 0.0, 9.999053, 9.999696 
2.5931597e+3, 2.5441852e+2, -685959.7, -631231.4, -39528.73, 0.031708818, -0.31634098, -610519.4, -163847.58, 0.0, 9.998578, 9.99935 
2.592734e+3, 2.6440957e+2, -544296.3, -410793.03, -105580.08, -0.086178, -0.28638294, -352632.97, -3870.785, 0.0, 9.998478, 10.000214 
2.5923106e+3, 2.7440083e+2, -396584.34, -325651.2, -106944.01, 0.06048167, -0.31815037, -248446.11, 2398.5408, 0.0, 9.9989605, 9.999906 
2.5918865e+3, 2.8439173e+2, -324427.22, -484183.2, -78973.016, 0.08137393, -0.21777703, -291978.75, -139040.34, 0.0, 9.999854, 9.9977045 
2.5914612e+3, 2.9438168e+2, -88008.36, -394424.03, -83246.19, -0.061592266, -0.10802246, -66852.875, -11801.252, 0.0, 10.001088, 9.997077 
2.5910375e+3, 3.043719e+2, -92539.34, -194199.58, -193235.84, 0.089801095, 0.032576915, 56439.934, 56439.934, 0.0, 9.999954, 9.998675 
2.5906113e+3, 3.143598e+2, -416047.5, 163651.72, 134514.97, -0.00538028, -0.20754863, 193344.08, 193344.08, 0.0, 9.995487, 10.00327 
2.608671e+3, 1.2497128e+2, -1409737.8, -1609774.1, -737.22064, -0.012398493, -0.29872394, -1409735.0, 305523.44, 0.16949522, 10.002664, 9.999541 
2.6082477e+3, 1.3496254e+2, -1224776.9, -1469971.3, 12700.981, -0.09339027, -0.33423206, -1224120.8, 393219.22, 0.11391173, 10.0032015, 9.999577 
2.6078245e+3, 1.4495279e+2, -1294838.5, -1560728.1, 34882.105, -0.07505858, -0.30819038, -1290338.5, 229094.23, 0.061296463, 10.002288, 9.998546 
2.6074037e+3, 1.5494244e+2, -1528072.6, -1704090.6, 109651.91, 0.20015988, -0.33023763, -1475478.9, -53945.598, 0.023481611, 10.000203, 9.997922 
2.606978e+3, 1.649315e+2, -1390430.3, -1511180.1, -35852.156, 0.2438916, -0.325784, -1380587.6, -56947.65, 0.005220199, 10.000184, 9.998585 
2.6065478e+3, 1.7492014e+2, -1071671.5, -1359769.9, -100272.23, 0.04011156, -0.4406039, -1040208.0, 185542.4, 0.00041937284, 10.001901, 9.998147 
2.6061195e+3, 1.8490973e+2, -926169.44, -1218696.6, -49729.082, -0.03345473, -0.39120844, -917946.7, 209906.05, 0.0000020172258, 10.002168, 9.998284 
2.6056942e+3, 1.9490014e+2, -1074609.0, -1290055.0, -84833.7, 0.026675576, -0.31323302, -1045215.2, -15266.85, 0.0, 10.000677, 9.997857 
2.605269e+3, 2.0488933e+2, -1012595.8, -1240163.1, 64032.492, -0.002077724, -0.25896114, -995815.75, -63757.344, 0.0, 10.000638, 9.997503 
2.604845e+3, 2.1487692e+2, -816657.9, -1171878.4, 136703.28, -0.121873416, -0.36438933, -770140.5, 64046.29, 0.0, 10.001595, 9.996873 
2.6044226e+3, 2.2486684e+2, -391315.28, -374377.7, 66503.13, 0.00070197904, -0.37544554, -315806.3, 420477.06, 0.0, 10.001529, 10.001689 
2.6040024e+3, 2.3485947e+2, -556993.1, -444861.75, -23004.053, 0.41817665, -0.42199117, -440325.88, 198016.66, 0.0, 9.999878, 10.001337 
2.6035783e+3, 2.4485165e+2, -744493.6, -757489.3, -75361.83, 0.41895846, -0.3142933, -675350.0, -134931.63, 0.0, 9.999127, 9.99886 
2.6031488e+3, 2.5484315e+2, -717311.06, -758772.56, -53494.434, -0.079127654, -0.18383807, -680670.94, -238155.98, 0.0, 9.9989, 9.998307 
2.6027223e+3, 2.6483366e+2, -505219.78, -420811.03, -58391.316, -0.23278135, -0.14025123, -390968.5, -46356.957, 0.0, 9.998908, 9.999936 
2.6023006e+3, 2.748228e+2, -471176.7, -413048.13, -56763.563, 0.042630676, -0.35558134, -378340.66, -131630.33, 0.0, 9.998704, 9.999432 
2.601877e+3, 2.8481245e+2, -455776.47, -499410.47, 10062.873, 0.022412946, -0.3699522, -453567.6, -304754.66, 0.0, 9.998748, 9.998137 
2.6014495e+3, 2.9480302e+2, -412090.75, -519165.03, 51950.824, -0.39719653, -0.25169513, -391028.22, -340113.25, 0.0, 9.998756, 9.997344 
2.601029e+3, 3.0479375e+2, -313628.16, -480993.4, -153653.56, 0.16808395, 0.014735862, -222347.36, -222347.36, 0.0, 9.999266, 9.997012 
2.6006034e+3, 3.147804e+2, -392569.03, -323255.28, 12915.322, 0.40412802, -0.15507035, -320926.97, -320926.97, 0.0, 9.997878, 9.998741 
2.6186615e+3, 1.253924e+2, -1368538.0, -1494255.5, 35611.4, -0.380779, -0.4465047, -1359151.4, 351979.2, 0.14988379, 10.002467, 10.000532 
2.6182464e+3, 1.3538626e+2, -1269527.1, -1463548.8, 30740.977, 0.3349966, -0.24276124, -1264772.9, 348417.7, 0.09979615, 10.002678, 9.999858 
2.6178235e+3, 1.453785e+2, -1200154.9, -1269940.9, -50347.9, 0.4621331, -0.14843279, -1173790.9, 341470.75, 0.05285716, 10.001884, 10.000815 
2.617395e+3, 1.5536925e+2, -1344227.5, -1391002.0, 13732.184, 0.18364832, -0.2753095, -1340494.0, 76849.24, 0.019694533, 10.000509, 9.999928 
2.6169676e+3, 1.6535799e+2, -1411358.8, -1648022.1, -157.73932, 0.038010042, -0.3453134, -1411358.6, -91906.06, 0.004163879, 10.000589, 9.997433 
2.6165402e+3, 1.7534508e+2, -1150841.8, -1527394.1, -30318.184, -0.02950893, -0.4954217, -1148416.4, 73168.16, 0.00030229846, 10.001929, 9.996962 
2.6161134e+3, 1.8533406e+2, -953995.3, -1313051.0, -91467.06, 0.0073908493, -0.4134131, -932037.5, 191660.4, 0.0000010444409, 10.002303, 9.997575 
2.615687e+3, 1.9532457e+2, -1041070.44, -1353854.3, -103678.93, 0.12705868, -0.23805165, -1009825.06, 15971.41, 0.0, 10.0012, 9.997181 
2.6152626e+3, 2.0531525e+2, -799188.94, -900104.1, 119288.87, 0.13046938, -0.109872155, -720125.1, 207765.05, 0.0, 10.001045, 9.999649 
2.6148397e+3, 2.1530585e+2, -587332.94, -821559.25, 192607.11, 0.024865815, -0.11625925, -479028.75, 350953.75, 0.0, 10.0021, 9.999034 
2.6144153e+3, 2.2529541e+2, -521772.66, -733550.1, 25178.58, -0.005984642, -0.14059934, -518820.28, 213264.66, 0.0, 10.00188, 9.999066 
2.6139906e+3, 2.3528446e+2, -669115.9, -792733.56, -69361.04, 0.069162026, -0.2534875, -638020.0, -3829.0017, 0.0, 10.000314, 9.99876 
2.613566e+3, 2.4527526e+2, -617916.4, -585807.75, -80320.445, 0.132835, -0.20944239, -519952.88, 16329.665, 0.0, 9.999502, 9.999864 
2.613141e+3, 2.5526735e+2, -560331.1, -575666.5, -36676.996, 0.11753519, -0.09722381, -530528.9, -92164.42, 0.0, 9.999478, 9.999302 
2.6127157e+3, 2.6525807e+2, -428843.8, -391558.06, -37809.914, 0.05218296, -0.07509419, -368044.72, -27590.709, 0.0, 9.999427, 9.999903 
2.6122904e+3, 2.7524763e+2, -404362.53, -380436.22, -32876.973, 0.018413268, -0.22580254, -357413.5, -114863.73, 0.0, 9.999101, 9.999484 
2.6118657e+3, 2.8523755e+2, -323206.7, -198998.38, 54570.152, -0.04736305, -0.32083753, -178429.52, -33783.55, 0.0, 9.99861, 10.000271 
2.6114404e+3, 2.9522818e+2, -357441.78, -253955.14, 136211.56, -0.23760101, -0.38299364, -159989.98, -113250.336, 0.0, 9.998073, 9.9995 
2.611018e+3, 3.052208e+2, -264051.0, -350033.8, 74160.29, 0.06338951, -0.06560493, -221321.86, -221321.86, 0.0, 9.99911, 9.997989 
2.6105884e+3, 3.152097e+2, 277807.1, 259307.42, -161855.52, -0.18289278, -0.08019265, 430676.88, 430676.88, 0.0, 10.00125, 10.001142 
2.6286578e+3, 1.2581645e+2, -1436034.1, -1616590.8, 19682.354, -0.111564435, -0.35756528, -1433913.5, 273063.44, 0.13183959, 10.002338, 9.999571 
2.628238e+3, 1.3580966e+2, -1478890.6, -1650901.5, -49266.77, 0.18807219, -0.13383992, -1465779.3, 143268.27, 0.08692967, 10.001462, 9.999049 
2.6278138e+3, 1.458015e+2, -1239272.5, -1236065.1, -149455.69, 0.26600185, -0.07780236, -1088204.5, 422917.75, 0.045284744, 10.001297, 10.001373 
2.6273873e+3, 1.5579212e+2, -1162089.1, -1253433.0, -166656.17, 0.18305023, -0.2893443, -1034960.06, 378242.7, 0.01638905, 10.001546, 10.00042 
2.6269603e+3, 1.6578175e+2, -1301531.8, -1550838.1, -151392.9, 0.1288608, -0.3310801, -1230077.3, 85226.3, 0.0032885466, 10.001191, 9.997796 
2.6265338e+3, 1.757703e+2, -1382492.9, -1623331.1, -113755.69, 0.11129503, -0.3825803, -1337258.4, -119835.17, 0.00021471751, 10.000262, 9.997117 
2.626107e+3, 1.8575937e+2, -1072298.0, -1351748.3, -86190.94, 0.07183192, -0.3171459, -1047852.56, 71682.72, 0.00000047553752, 10.001446, 9.997706 
2.6256797e+3, 1.9574915e+2, -692624.75, -1189260.1, -60570.35, 0.037425134, -0.22968113, -685344.2, 336294.63, 0.0, 10.003653, 9.99712 
2.625255e+3, 2.0573995e+2, -595144.5, -812684.2, 30982.748, 0.08307631, -0.078595206, -590817.9, 332913.34, 0.0, 10.002485, 9.999569 
2.6248324e+3, 2.1573159e+2, -1155304.5, -1102658.4, -40553.26, 0.16486166, -0.0025099046, -1080634.0, -254820.52, 0.0, 9.998267, 9.998951 
2.624407e+3, 2.2572118e+2, -1115847.3, -1136117.3, -118272.984, 0.06344025, 0.0063759834, -1007275.8, -279358.06, 0.0, 9.998349, 9.99798 
2.6239797e+3, 2.3570898e+2, -763370.56, -979729.06, -89851.945, -0.14425999, -0.13777514, -730922.25, -100881.07, 0.0, 10.000322, 9.997462 
2.623555e+3, 2.4569933e+2, -430861.47, -431604.97, -75579.0, -0.058640055, -0.107223615, -355653.3, 176483.44, 0.0, 10.000532, 10.00042 
2.6231325e+3, 2.556915e+2, -621343.6, -568570.06, -58250.742, 0.23799679, -0.049032845, -531008.3, -96796.66, 0.0, 9.998914, 9.99963 
2.6227078e+3, 2.6568228e+2, -528458.44, -448422.84, -49321.86, 0.23599124, -0.039460655, -424926.3, -88628.39, 0.0, 9.998812, 9.999791 
2.6222804e+3, 2.7567208e+2, -412445.06, -412451.84, -45952.98, 0.0017349465, -0.16599536, -366495.47, -128104.195, 0.0, 9.999207, 9.999202 
2.6218548e+3, 2.8566244e+2, -248794.42, -24974.502, -59371.355, -0.120499, -0.26854426, -10200.616, 130280.734, 0.0, 9.998584, 10.001458 
2.6214302e+3, 2.95653e+2, -483907.56, -198090.45, -64716.508, -0.14312997, -0.49839684, -184119.81, -141548.64, 0.0, 9.996743, 10.000519 
2.621007e+3, 3.0564806e+2, -406257.6, -235661.63, -53627.445, -0.027232846, -0.0907149, -220204.22, -220204.22, 0.0, 9.997398, 9.999591 
2.6205757e+3, 3.156339e+2, -58518.79, -56468.418, 192644.8, -0.71258825, -0.59136456, 135153.92, 135153.92, 0.0, 9.999698, 9.999712 
2.6386553e+3, 1.2624148e+2, -1304928.5, -1672242.1, 44513.9, 0.1701891, -0.18059303, -1299610.9, 403202.9, 0.115287155, 10.003901, 9.998361 
2.6382264e+3, 1.3623264e+2, -1461424.3, -1760436.9, 6387.944, -0.24005443, -0.040296696, -1461287.9, 143620.9, 0.07524967, 10.002067, 9.998003 
2.637802e+3, 1.462233e+2, -1216630.1, -1212480.8, -69628.51, -0.18050396, -0.05330473, -1144896.0, 362100.38, 0.038529176, 10.00141, 10.001463 
2.63738e+3, 1.5621331e+2, -1171098.3, -1232975.4, -101752.57, 0.18183836, -0.32751346, -1095684.8, 313398.28, 0.013527696, 10.00139, 10.000621 
2.6369545e+3, 1.6620432e+2, -1170983.9, -1358132.3, -144254.6, 0.32126203, -0.29581285, -1092611.9, 218559.86, 0.0025719018, 10.00152, 9.998974 
2.6365277e+3, 1.7619576e+2, -1160616.9, -1382438.5, -97847.26, 0.3136727, -0.16324082, -1123624.8, 89638.664, 0.00015054179, 10.001185, 9.998332 
2.6360998e+3, 1.8618512e+2, -954805.06, -1217872.4, 14585.47, 0.082865015, -0.1581413, -953998.9, 161369.89, 0.0000001940375, 10.001935, 9.998382 
2.6356715e+3, 1.9617331e+2, -634163.3, -1096400.9, 26939.893, -0.2906157, -0.28541523, -632598.5, 384883.06, 0.0, 10.003754, 9.99771 
2.6352465e+3, 2.06163e+2, -720013.75, -1069213.5, -110884.52, -0.14171626, -0.18020219, -687779.2, 231807.47, 0.0, 10.002474, 9.997805 
2.6348236e+3, 2.1615373e+2, -1213496.4, -1292637.8, -148501.81, 0.29235068, -0.011343825, -1099383.5, -277698.34, 0.0, 9.99853, 9.997524 
2.6343983e+3, 2.2614355e+2, -1005719.7, -968399.25, -13889.926, 0.21374115, 0.032476313, -963797.2, -240009.95, 0.0, 9.998577, 9.999033 
2.6339716e+3, 2.3613279e+2, -559906.6, -749609.4, 1629.3845, -0.17860764, -0.06405201, -559892.7, 65999.52, 0.0, 10.001102, 9.998672 
2.633546e+3, 2.4612357e+2, -351477.06, -381083.06, -126349.0, -0.13225748, -0.051849425, -239066.86, 288913.38, 0.0, 10.000996, 10.000546 
2.6331222e+3, 2.5611547e+2, -568004.9, -509324.78, -95241.914, 0.18734272, -0.027764197, -439006.1, -8949.867, 0.0, 9.999105, 9.999937 
2.6326975e+3, 2.6610544e+2, -520776.97, -471234.88, -8360.04, 0.21104224, -0.0988967, -469862.2, -137712.61, 0.0, 9.998936, 9.999595 
2.6322716e+3, 2.7609435e+2, -337684.53, -397574.78, -23858.885, 0.044917688, -0.27666134, -329341.84, -95089.664, 0.0, 9.999752, 9.999059 
2.6318452e+3, 2.8608432e+2, -352123.2, -292612.5, -177156.81, -0.053717837, -0.30989227, -142729.55, -6379.1636, 0.0, 9.998748, 9.999565 
2.631418e+3, 2.9607502e+2, -618739.4, -400283.16, -232242.47, -0.10644261, -0.33048412, -252864.92, -214419.77, 0.0, 9.996349, 9.99934 
2.6309943e+3, 3.060688e+2, -326100.44, 27795.846, -104922.55, -0.06259947, -0.12809737, 56564.465, 56564.465, 0.0, 9.996926, 10.0016575 
2.6305708e+3, 3.1605855e+2, -166514.92, 22464.838, -6817.6626, -0.17855139, -0.42573085, 22710.475, 22710.475, 0.0, 9.998299, 10.000957 
2.648651e+3, 1.2666927e+2, -967836.5, -1596151.9, 59570.887, 0.049614858, -0.16479804, -962238.44, 736378.0, 0.1001696, 10.006855, 9.997519 
2.648221e+3, 1.3665801e+2, -1342008.6, -1771823.3, 35149.566, -0.2001424, -0.15934764, -1339153.1, 261583.36, 0.06469248, 10.003284, 9.997323 
2.6477954e+3, 1.4664756e+2, -1269690.0, -1340270.5, 38810.652, -0.0788946, -0.19859251, -1252523.9, 250313.56, 0.032530583, 10.001516, 10.000465 
2.6473728e+3, 1.5663716e+2, -1377699.8, -1445818.4, -18965.611, 0.27961582, -0.4030297, -1372775.3, 32156.094, 0.011066901, 10.000449, 9.999589 
2.6469472e+3, 1.6662873e+2, -1056391.4, -1318847.1, -10165.433, 0.28123367, -0.25500324, -1055998.3, 251019.86, 0.0019930317, 10.002338, 9.998859 
2.6465198e+3, 1.7662145e+2, -594829.8, -1123150.3, -56090.543, 0.091551624, 0.01605895, -588940.5, 620159.56, 0.00010503105, 10.005124, 9.99823 
2.6460922e+3, 1.8661092e+2, -662208.4, -988419.1, -49591.63, -0.0699006, -0.013697576, -654835.9, 456365.7, 0.00000008640195, 10.0036, 9.999137 
2.6456645e+3, 1.9659857e+2, -1263615.8, -1360114.5, -31642.684, -0.2490972, -0.2708557, -1254165.4, -240850.56, 0.0, 9.999292, 9.998046 
2.6452386e+3, 2.0658782e+2, -1059090.0, -1291495.1, -57391.78, -0.13792853, -0.19857353, -1045689.94, -130266.12, 0.0, 10.000423, 9.997263 
2.6448146e+3, 2.1657796e+2, -512892.66, -1037299.3, -24000.064, 0.19774586, -0.019166306, -511796.53, 305733.47, 0.0, 10.003693, 9.996812 
2.6443893e+3, 2.2656722e+2, -485874.94, -691483.75, 87956.71, 0.1527952, -0.0015286441, -453382.9, 266253.47, 0.0, 10.002038, 9.999266 
2.6439625e+3, 2.3655634e+2, -1084562.5, -991783.5, 44782.535, -0.1478029, -0.13279608, -973694.6, -351954.9, 0.0, 9.997493, 9.998752 
2.6435372e+3, 2.4654748e+2, -836790.44, -631121.4, -110051.69, -0.08418212, -0.084817134, -583336.1, -59511.97, 0.0, 9.997753, 10.000379 
2.6431125e+3, 2.5653955e+2, -597853.4, -569840.75, -102767.39, 0.19271441, -0.036287345, -480129.6, -54229.805, 0.0, 9.999123, 9.9995165 
2.6426876e+3, 2.6652914e+2, -525937.2, -473875.13, 6328.544, 0.20647775, -0.1271493, -473116.88, -145119.61, 0.0, 9.998949, 9.999539 
2.6422623e+3, 2.765173e+2, -714222.7, -642719.75, 13951.716, 0.07988932, -0.38153687, -640093.94, -409986.06, 0.0, 9.997489, 9.998452 
2.6418358e+3, 2.865073e+2, -565514.0, -541802.9, -129009.2, 0.037718557, -0.30371878, -424105.63, -291895.75, 0.0, 9.9979925, 9.998182 
2.641407e+3, 2.964986e+2, -389043.28, -413427.1, -88088.22, -0.04711755, -0.11871178, -312307.25, -278003.03, 0.0, 9.998523, 9.998188 
2.6409814e+3, 3.0648968e+2, -48608.168, 314266.1, 94314.14, -0.22441995, -0.20641832, 337315.13, 337315.13, 0.0, 9.998216, 10.002977 
2.6405632e+3, 3.164836e+2, -571927.44, -323614.72, -62327.89, 0.13013536, -0.19939788, -308848.2, -308848.2, 0.0, 9.996221, 9.999561 
2.6586464e+3, 1.2709773e+2, -1238676.1, -1815937.9, -61408.96, -0.18347962, -0.20100155, -1232215.8, 462195.28, 0.08642923, 10.005121, 9.996758 
2.6582173e+3, 1.3708435e+2, -1270693.6, -1816527.1, -38914.875, -0.016745366, -0.33176938, -1267933.3, 328618.9, 0.055199467, 10.00412, 9.996619 
2.6577905e+3, 1.4707275e+2, -1156867.6, -1425721.0, 20544.695, 0.1436965, -0.38290593, -1155306.8, 343359.5, 0.027235242, 10.002944, 9.999161 
2.6573652e+3, 1.5706208e+2, -1270480.5, -1525081.1, 13740.771, 0.32392222, -0.47444454, -1269741.0, 131025.96, 0.0089680515, 10.001758, 9.998407 
2.6569387e+3, 1.6705407e+2, -1023971.3, -1365114.8, 130037.375, 0.05702267, -0.1991261, -980056.6, 322797.4, 0.0015322798, 10.002875, 9.99826 
2.6565114e+3, 1.7704715e+2, -636540.25, -1164557.3, 40237.938, -0.43177012, 0.17711265, -633491.5, 571444.2, 0.00007382683, 10.004924, 9.998037 
2.6560846e+3, 1.8703668e+2, -613045.5, -874312.44, -180644.33, -0.30177242, 0.11414597, -520749.66, 586284.9, 0.000000036839044, 10.003525, 9.99997 
2.655658e+3, 1.9702455e+2, -1120707.5, -1197107.3, -109132.95, 0.056731474, -0.19365034, -1043281.94, -34139.984, 0.0, 9.999834, 9.998908 
2.655232e+3, 2.0701389e+2, -962652.8, -1184886.5, 99678.97, -0.011375129, -0.1740618, -924495.25, -13248.524, 0.0, 10.000832, 9.997788 
2.6548058e+3, 2.1700394e+2, -364786.97, -907112.8, 83067.336, -0.23991995, -0.049229085, -352348.9, 461001.1, 0.0, 10.004425, 9.997354 
2.6543793e+3, 2.2699188e+2, -482907.38, -750443.06, -74914.12, -0.16203794, -0.1566214, -463358.66, 252107.86, 0.0, 10.002298, 9.998745 
2.6539528e+3, 2.3697913e+2, -1096998.4, -1040213.0, -58945.574, 0.01842848, -0.40900654, -1003178.44, -385592.0, 0.0, 9.997536, 9.998411 
2.6535285e+3, 2.4697046e+2, -892960.44, -717569.5, 5150.5654, 0.16983885, -0.29287717, -717418.44, -197745.47, 0.0, 9.997598, 9.999877 
2.6531044e+3, 2.5696367e+2, -504939.7, -537277.94, -17797.326, 0.31677783, -0.06492112, -497063.34, -75319.83, 0.0, 9.999777, 9.999427 
2.6526782e+3, 2.6695418e+2, -458442.53, -379148.72, -40456.867, 0.27371934, -0.09082841, -362150.8, -38315.875, 0.0, 9.999126, 10.000108 
2.6522517e+3, 2.769434e+2, -697968.75, -537410.5, -6308.2266, 0.18779646, -0.28476682, -537163.0, -311226.22, 0.0, 9.997134, 9.999353 
2.6518258e+3, 2.8693467e+2, -459806.53, -389968.22, 23881.629, 0.16451356, -0.16230652, -382582.78, -254556.33, 0.0, 9.998254, 9.999119 
2.6513988e+3, 2.9692724e+2, -6349.366, -119679.08, 70499.766, 0.049884487, 0.08401087, 27435.338, 57542.816, 0.0, 10.000641, 9.999184 
2.6509717e+3, 3.0691645e+2, -30008.26, 209666.6, 66843.83, -0.19056748, -0.17314602, 227048.34, 227048.34, 0.0, 9.9987955, 10.001995 
2.65055e+3, 3.169112e+2, -596339.56, -171667.47, -104064.55, 0.17128979, 0.031715825, -147537.81, -147537.81, 0.0, 9.995273, 10.001086 
2.6686427e+3, 1.2752356e+2, -1474221.1, -1958518.0, -34319.227, -0.024861468, -0.3968487, -1471801.3, 218436.4, 0.07399893, 10.003346, 9.996619 
2.6682156e+3, 1.3751334e+2, -969482.5, -1719502.4, -39980.066, 0.14935078, -0.20833178, -967357.4, 624993.25, 0.046711255, 10.006463, 9.996163 
2.6677865e+3, 1.4750175e+2, -682913.5, -1316578.0, -30992.059, 0.10368715, -0.18133675, -681401.3, 813064.0, 0.022592481, 10.006784, 9.998082 
2.6673576e+3, 1.5749006e+2, -765073.1, -1386363.8, -28888.55, 0.034856915, -0.2704188, -763732.75, 632844.1, 0.0071954923, 10.005704, 9.997477 
2.6669315e+3, 1.6748045e+2, -864516.9, -1286682.8, 126837.875, -0.13466565, -0.11888169, -829340.06, 469337.66, 0.001170623, 10.003981, 9.99826 
2.666506e+3, 1.7747186e+2, -1149204.6, -1424234.6, 59632.305, -0.36660802, 0.089368366, -1136831.6, 63940.934, 0.00005271245, 10.0015, 9.9978895 
2.6660785e+3, 1.8746136e+2, -841412.5, -1024324.8, -188797.27, -0.24885912, 0.052461296, -723086.3, 379785.84, 0.000000014947995, 10.002152, 9.999599 
2.665651e+3, 1.9745013e+2, -656294.6, -999333.06, -182926.63, 0.0799963, -0.13357101, -577053.0, 427919.8, 0.0, 10.003188, 9.998646 
2.6652244e+3, 2.0743966e+2, -880172.9, -1049508.5, 47145.125, 0.021268247, -0.14617874, -867931.94, 39142.773, 0.0, 10.001026, 9.998595 
2.664798e+3, 2.1742964e+2, -1418693.3, -1348279.3, 42857.77, -0.22878933, -0.11738035, -1328021.6, -518845.97, 0.0, 9.996978, 9.997887 
2.6643708e+3, 2.2741807e+2, -1016527.25, -966363.94, -80326.21, -0.15232405, -0.22600317, -907294.56, -196009.52, 0.0, 9.998517, 9.999051 
2.6639438e+3, 2.3740567e+2, -678233.5, -862850.8, 1361.2051, 0.11834567, -0.46618545, -678223.5, -64823.547, 0.0, 10.000574, 9.9981575 
2.6635194e+3, 2.473962e+2, -570745.44, -685535.8, 114541.93, 0.2726171, -0.3435825, -500023.25, 15474.388, 0.0, 10.000379, 9.99875 
2.6630956e+3, 2.5738823e+2, -700180.25, -736434.0, 27484.656, 0.3430549, -0.12363411, -685383.1, -267798.72, 0.0, 9.998933, 9.998465 
2.6626688e+3, 2.673796e+2, -463868.28, -317868.03, -69475.016, 0.30462313, -0.067843646, -290092.2, 29577.053, 0.0, 9.998851, 10.000642 
2.662241e+3, 2.7737054e+2, -513678.66, -403528.88, -5173.8774, 0.25176454, -0.14932561, -403286.38, -181531.45, 0.0, 9.998255, 9.999731 
2.661816e+3, 2.8736252e+2, -413938.7, -255950.48, 100303.02, 0.2284924, -0.037662726, -207270.14, -83433.445, 0.0, 9.998105, 10.000103 
2.66139e+3, 2.9735518e+2, -451074.6, -301590.56, 112945.44, 0.074656926, 0.11783039, -240896.1, -214981.33, 0.0, 9.997476, 9.999466 
2.660962e+3, 3.073439e+2, -317651.28, -54944.89, -21093.096, -0.11013832, -0.13153611, -53262.07, -53262.07, 0.0, 9.99741, 10.000822 
2.660535e+3, 3.173341e+2, -174731.2, 365056.06, -152883.66, -0.035702523, -0.32962722, 405349.47, 405349.47, 0.0, 9.996793, 10.004037 
2.6786393e+3, 1.2794882e+2, -1411051.3, -1882208.8, 16224.435, 0.12278606, -0.574097, -1410493.3, 275579.3, 0.06277841, 10.003636, 9.996985 
2.6782137e+3, 1.3794287e+2, -1014881.06, -1752134.1, 21017.031, 0.19716303, 0.014057755, -1014282.4, 573864.06, 0.039145645, 10.006129, 9.996106 
2.6777822e+3, 1.4793156e+2, -806828.5, -1476289.9, -58390.22, -0.08504057, 0.12543224, -801773.9, 688485.06, 0.01854342, 10.006353, 9.997159 
2.67735e+3, 1.5791866e+2, -813258.56, -1458560.6, -43666.902, -0.4305153, 0.009905976, -810317.06, 582065.06, 0.005710659, 10.005568, 9.9970455 
2.676925e+3, 1.6790687e+2, -828481.6, -1218892.1, 62465.023, -0.2859821, -0.07291266, -818730.9, 475768.88, 0.0008890518, 10.003999, 9.998714 
2.6765022e+3, 1.7789565e+2, -1069183.4, -1368700.1, 31158.371, -0.03905159, -0.16049428, -1065976.3, 130637.3, 0.000037964888, 10.001966, 9.9980345 
2.6760733e+3, 1.8788527e+2, -859866.4, -1150110.3, -105714.68, -0.09060971, -0.119615115, -825444.56, 273269.34, 0.0000000057994387, 10.00252, 9.998564 
2.675643e+3, 1.9787525e+2, -607322.1, -1006030.06, -139313.61, -0.20711139, -0.08313941, -563467.8, 437340.9, 0.0, 10.003626, 9.998388 
2.6752165e+3, 2.0786516e+2, -777872.44, -857415.0, -80033.54, 0.01680099, -0.124072015, -728273.0, 174634.6, 0.0, 10.001106, 9.99988 
2.6747912e+3, 2.1785513e+2, -1247630.6, -1097947.6, -14824.121, 0.27292848, -0.21500677, -1096493.5, -291486.38, 0.0, 9.997372, 9.999422 
2.6743636e+3, 2.278464e+2, -888069.0, -749859.56, 60976.543, 0.1859837, -0.18146355, -726803.56, -19716.572, 0.0, 9.998702, 10.000461 
2.6739353e+3, 2.3783772e+2, -483450.28, -707671.7, 107323.09, 0.034316827, -0.16177024, -440360.94, 168803.88, 0.0, 10.0016, 9.998736 
2.6735097e+3, 2.4782558e+2, -604566.2, -926331.56, 70690.055, 0.11873698, -0.19456428, -589720.9, -78429.94, 0.0, 10.00108, 9.996771 
2.6730847e+3, 2.5781295e+2, -703329.0, -840708.8, 3386.92, 0.2529415, -0.24901764, -703245.56, -289819.25, 0.0, 9.999295, 9.997588 
2.6726583e+3, 2.678052e+2, -370287.66, -211085.28, -33236.81, 0.25568226, -0.11149914, -204425.05, 111077.266, 0.0, 9.999171, 10.001248 
2.6722312e+3, 2.7779877e+2, -271876.25, -175221.36, 8549.402, 0.25380877, 0.024687907, -174470.97, 43089.734, 0.0, 9.999388, 10.000756 
2.6718053e+3, 2.877894e+2, -340904.78, -94844.016, 67663.086, 0.23801754, -0.10207773, -77465.11, 42184.92, 0.0, 9.998047, 10.001258 
2.671378e+3, 2.9777938e+2, -561758.3, -255364.84, 107598.08, 0.10068977, -0.30255464, -221354.25, -199607.08, 0.0, 9.996218, 10.000417 
2.670949e+3, 3.0777258e+2, -378337.16, -111131.086, 80710.805, -0.19700685, -0.114314266, -88644.39, -88644.39, 0.0, 9.9971, 10.000592 
2.670523e+3, 3.1776506e+2, 157142.83, 519045.25, 2345.2522, -0.16196315, -0.044165462, 519060.44, 519060.44, 0.0, 9.999022, 10.004034 
2.6886356e+3, 1.28375e+2, -1183295.5, -1576166.4, -20096.404, 0.21592587, -0.3569442, -1182270.3, 499635.97, 0.052670114, 10.004352, 9.998827 
2.6882085e+3, 1.383696e+2, -996950.56, -1613549.1, -22414.072, -0.006158591, 0.10336192, -996136.8, 587829.25, 0.03242299, 10.00567, 9.997271 
2.6877785e+3, 1.4835669e+2, -938570.5, -1574699.3, -114465.17, -0.12646331, 0.021182096, -918600.56, 567490.6, 0.015032604, 10.005522, 9.996883 
2.6873484e+3, 1.58342e+2, -968741.06, -1527768.9, -88875.04, -0.18699461, -0.25947824, -954951.75, 433279.63, 0.004476394, 10.004474, 9.9971 
2.686921e+3, 1.6833179e+2, -827165.4, -1146483.6, 15186.754, -0.15803522, -0.23116112, -826444.75, 463886.44, 0.00066900725, 10.003716, 9.999356 
2.6864955e+3, 1.7832246e+2, -937963.94, -1262262.8, 9343.245, -0.06704971, -0.18573046, -937695.0, 254728.28, 0.000027210404, 10.002679, 9.998444 
2.6860672e+3, 1.88312e+2, -801068.3, -1097454.1, -824.552, -0.058201, -0.18210524, -801066.0, 293458.6, 0.000000001728097, 10.002844, 9.998764 
2.685638e+3, 1.983016e+2, -803676.06, -1145363.9, -6025.7046, -0.08387951, -0.17703079, -803569.8, 193055.19, 0.0, 10.002484, 9.997992 
2.6852098e+3, 2.0829128e+2, -713500.8, -945286.2, -125929.49, 0.10870875, -0.1497922, -658252.2, 240479.34, 0.0, 10.002056, 9.998827 
2.6847824e+3, 2.1828125e+2, -813526.7, -941366.9, -164717.5, 0.38965014, -0.15761594, -700761.7, 100073.65, 0.0, 10.000615, 9.9989395 
2.684355e+3, 2.2827365e+2, -510859.84, -476552.66, -37640.258, 0.24068005, -0.0737246, -452341.6, 250562.77, 0.0, 10.000917, 10.001261 
2.683927e+3, 2.3826662e+2, -581814.6, -754024.56, -55720.54, -0.025378803, 0.0162488, -565358.2, 39607.496, 0.0, 10.000964, 9.99872 
2.6835003e+3, 2.4825373e+2, -727844.9, -1049939.0, -79424.22, 0.022724412, -0.078429714, -709324.75, -202225.86, 0.0, 10.000552, 9.996142 
2.6830742e+3, 2.582395e+2, -791057.0, -947126.3, -9665.97, 0.16255511, -0.2456579, -790460.6, -381211.1, 0.0, 9.999023, 9.996978 
2.682648e+3, 2.6823184e+2, -388113.53, -194918.39, 4578.909, 0.22566698, -0.09377692, -194809.92, 116512.87, 0.0, 9.998999, 10.001416 
2.6822215e+3, 2.7822614e+2, -378973.06, -229488.75, -9627.12, 0.27531117, 0.090658486, -228871.3, -15498.325, 0.0, 9.998705, 10.000712 
2.6817942e+3, 2.8821573e+2, -202248.81, 14899.837, -67824.586, 0.2252971, -0.17671002, 34343.316, 149812.19, 0.0, 9.998821, 10.001623 
2.6813656e+3, 2.9820436e+2, -317396.47, -142723.2, -64533.715, 0.065153725, -0.5672004, -121467.53, -103893.15, 0.0, 9.997968, 10.000333 
2.6809368e+3, 3.0820066e+2, -286297.38, -102937.6, -31824.385, -0.26915225, -0.068988726, -97571.15, -97571.15, 0.0, 9.997916, 10.000234 
2.6805136e+3, 3.1819302e+2, -216248.19, 187718.48, -4846.2676, -0.088538885, 0.0060132467, 187776.61, 187776.61, 0.0, 9.997198, 10.00261 
2.698631e+3, 1.2880106e+2, -1131052.3, -1338243.8, 79915.71, 0.1840797, -0.10288384, -1103809.9, 573930.9, 0.043610476, 10.003781, 10.000757 
2.6982018e+3, 1.3879494e+2, -1018959.56, -1472661.0, 4873.8203, -0.3404266, 0.09826858, -1018907.25, 560890.1, 0.026484648, 10.004848, 9.998632 
2.697775e+3, 1.4878008e+2, -978468.75, -1575009.0, -126673.72, -0.1000038, -0.23429383, -952684.44, 529254.0, 0.012009367, 10.005165, 9.997045 
2.697349e+3, 1.5876366e+2, -888617.0, -1439160.3, -84226.56, 0.29483825, -0.7028262, -876019.56, 508074.8, 0.00345571, 10.004803, 9.997539 
2.696918e+3, 1.6875641e+2, -766776.75, -1043294.06, 6113.698, 0.024023978, -0.44376627, -766641.6, 519521.9, 0.00049606664, 10.00378, 10.000033 
2.6964867e+3, 1.787511e+2, -867324.2, -1127325.1, 4441.1006, -0.36205906, -0.06597069, -867248.4, 320966.13, 0.00001910138, 10.002712, 9.999348 
2.696061e+3, 1.8874018e+2, -725110.1, -941462.6, 4739.644, -0.07207255, -0.20963988, -725006.3, 365312.0, 0.0000000002885943, 10.002831, 9.999839 
2.695636e+3, 1.9872823e+2, -764628.8, -1170184.6, -10052.536, 0.31019467, -0.43420172, -764379.75, 228053.5, 0.0, 10.002899, 9.997618 
2.6952037e+3, 2.0871758e+2, -887058.4, -1376347.4, -146467.61, 0.18911119, -0.21393746, -846564.8, 47986.656, 0.0, 10.002302, 9.995773 
2.6947704e+3, 2.1870756e+2, -821665.94, -1123460.8, -157138.45, -0.0148220435, 0.06507588, -754704.4, 41961.11, 0.0, 10.001282, 9.997367 
2.6943445e+3, 2.2869854e+2, -433174.25, -427459.6, -17205.01, -0.03678251, 0.045515552, -412876.25, 285874.94, 0.0, 10.001365, 10.001396 
2.6939198e+3, 2.3869002e+2, -419843.2, -560062.25, -71114.06, -0.028350677, -0.03021657, -390090.03, 210737.8, 0.0, 10.001542, 9.999769 
2.6934925e+3, 2.4868026e+2, -552981.0, -734623.44, -115194.43, 0.04171907, 0.018507207, -497111.22, 5815.313, 0.0, 10.000728, 9.9982395 
2.6930645e+3, 2.586698e+2, -588927.2, -679265.0, -6711.327, 0.12924148, 0.049205158, -588431.3, -183397.06, 0.0, 9.999619, 9.998538 
2.6926386e+3, 2.6865986e+2, -371497.53, -245847.66, 31237.346, 0.27643776, -0.047592133, -238510.31, 68616.59, 0.0, 9.999326, 10.000927 
2.6922134e+3, 2.7865046e+2, -368171.1, -329630.38, 15560.088, 0.41611663, -0.15711053, -324132.53, -114920.95, 0.0, 9.999176, 9.9998 
2.6917845e+3, 2.886414e+2, -238571.75, -237111.19, -76457.4, 0.19366896, -0.11882114, -161380.58, -50082.26, 0.0, 9.99953, 9.999554 
2.6913542e+3, 2.986322e+2, -131119.36, -189611.45, -152231.61, -0.09885162, -0.104423665, -5349.9395, 8037.215, 0.0, 9.999786, 9.999127 
2.6909298e+3, 3.08621e+2, -209772.69, -104328.75, -175982.42, 0.09681176, -0.3003766, 26659.432, 26659.432, 0.0, 9.998547, 9.999954 
2.6905057e+3, 3.1861135e+2, -381747.2, 3329.8896, -192947.95, 0.32908317, -0.38320252, 83371.625, 83371.625, 0.0, 9.996415, 10.001749 
2.708624e+3, 1.2922722e+2, -1309386.8, -1633051.0, 187395.6, 0.010421116, -0.1893592, -1223616.9, 449939.28, 0.035541914, 10.003387, 9.998847 
2.7081978e+3, 1.3921836e+2, -1260388.9, -1671752.5, -10595.811, -0.24786454, -0.08442696, -1260116.1, 315531.97, 0.021268649, 10.003432, 9.997971 
2.707771e+3, 1.4920725e+2, -964770.6, -1417823.4, -109910.766, -0.08101685, -0.12224175, -939514.2, 538241.3, 0.009415499, 10.004599, 9.998407 
2.7073443e+3, 1.5919515e+2, -759126.6, -1321310.4, -76015.516, 0.22071043, -0.27068412, -749029.56, 630841.1, 0.0026134893, 10.005452, 9.998038 
2.7069128e+3, 1.6918527e+2, -856069.4, -1161212.0, -94836.62, 0.06433095, -0.24842606, -828996.6, 452966.28, 0.0003600524, 10.003488, 9.999352 
2.7064806e+3, 1.7917648e+2, -1211619.9, -1351387.5, -118196.45, -0.20083438, -0.16294947, -1144193.3, 39851.5, 0.000012952271, 10.000624, 9.998808 
2.7060542e+3, 1.8916583e+2, -1005087.56, -1085685.9, -125244.8, -0.0072726337, -0.2758718, -913818.1, 172329.4, 0.000000000007316074, 10.000958, 9.9997425 
2.705629e+3, 1.9915469e+2, -974089.44, -1264942.1, -190498.45, 0.29208362, -0.43609813, -879852.56, 108403.86, 0.0, 10.001456, 9.997671 
2.7051967e+3, 2.0914471e+2, -752959.1, -1228103.1, -133230.5, 0.16143622, -0.22484747, -718151.2, 172212.73, 0.0, 10.002879, 9.9965105 
2.7047634e+3, 2.1913505e+2, -559410.25, -1038377.06, 84091.97, -0.077925086, 0.055861484, -545075.3, 247395.89, 0.0, 10.003297, 9.996982 
2.704336e+3, 2.291246e+2, -576048.5, -638678.44, 129277.28, -0.09501013, 0.012768322, -474347.53, 220227.83, 0.0, 10.001047, 10.0000725 
2.7039108e+3, 2.3911467e+2, -959825.8, -860898.94, -9298.317, -0.034759466, -0.08664353, -860032.56, -263361.38, 0.0, 9.998044, 9.999389 
2.7034837e+3, 2.4910691e+2, -574292.25, -530618.8, -61203.426, 0.04603472, 0.041703742, -487473.25, 11274.285, 0.0, 9.9996805, 10.000126 
2.7030557e+3, 2.5909913e+2, -392490.25, -543765.2, 12528.216, 0.13544688, 0.17300938, -391459.72, 9364.662, 0.0, 10.000863, 9.998849 
2.7026293e+3, 2.690871e+2, -271228.13, -349349.9, -34656.887, 0.26067123, -0.04997918, -258069.75, 44867.906, 0.0, 10.000721, 9.999519 
2.7022034e+3, 2.7907485e+2, -417248.4, -505001.13, -95944.75, 0.3784044, -0.32610595, -355623.44, -150571.69, 0.0, 9.99956, 9.998401 
2.7017745e+3, 2.8906706e+2, -301578.38, -392037.0, -68510.18, 0.12804368, -0.05583882, -264714.22, -157586.11, 0.0, 9.999678, 9.998403 
2.7013442e+3, 2.9905942e+2, -294367.22, -382063.44, -43714.008, -0.18904549, 0.23431651, -276299.5, -267095.16, 0.0, 9.999206, 9.998085 
2.700922e+3, 3.0904204e+2, -216772.64, -125972.41, -96720.4, 0.363635, -0.5319161, -64526.813, -64526.813, 0.0, 9.998639, 9.9997425 
2.700493e+3, 3.1903452e+2, -280190.97, -33279.41, -127577.49, 0.28179485, -0.36098558, 20796.063, 20796.063, 0.0, 9.997564, 10.000943 
2.7186173e+3, 1.2965332e+2, -1401650.6, -1966212.1, 130921.484, -0.19777253, -0.32276332, -1372767.6, 296601.88, 0.028406762, 10.003986, 9.996247 
2.718194e+3, 1.3964145e+2, -1367039.9, -1801934.4, 24542.637, -0.07766676, -0.30356178, -1365659.3, 205843.27, 0.016711902, 10.003039, 9.997248 
2.717766e+3, 1.4963622e+2, -931419.6, -1207537.1, -29534.982, -0.13826022, 0.1474642, -928295.75, 545261.1, 0.0071980706, 10.004004, 10.000134 
2.717337e+3, 1.596306e+2, -802132.0, -1284730.9, -73403.58, -0.1475293, 0.5043714, -791214.25, 584397.5, 0.0019202423, 10.004911, 9.998545 
2.716907e+3, 1.6961545e+2, -963114.5, -1349870.3, -169718.84, 0.051445283, 0.077509284, -899199.75, 378553.47, 0.00025324232, 10.003358, 9.998117 
2.7164766e+3, 1.7959973e+2, -1205820.6, -1453323.5, -125247.64, 0.1789341, -0.4001737, -1153499.9, 26400.363, 0.000008369746, 10.001091, 9.997889 
2.7160466e+3, 1.8959002e+2, -1030258.75, -1183939.6, -53923.367, 0.029414985, -0.33222032, -1013225.94, 68772.88, 0.0, 10.001153, 9.99898 
2.7156177e+3, 1.9958149e+2, -811597.5, -1003114.1, -114439.94, -0.10579333, -0.19875866, -758137.3, 225948.7, 0.0, 10.001768, 9.999319 
2.71519e+3, 2.0957267e+2, -416779.78, -587117.56, -53043.945, 0.0862584, -0.21326214, -401612.22, 484554.38, 0.0, 10.00312, 10.000806 
2.7147612e+3, 2.195636e+2, -362605.34, -782562.8, 83620.7, 0.23810904, -0.22724006, -346567.53, 441683.63, 0.0, 10.003925, 9.99844 
2.71433e+3, 2.2955206e+2, -760664.8, -1058377.5, 30927.371, 0.0764313, -0.19946992, -757485.9, -67113.57, 0.0, 10.001172, 9.997157 
2.7138996e+3, 2.3954079e+2, -966178.9, -942771.1, -10032.808, -0.09429535, -0.17257749, -939059.5, -346568.66, 0.0, 9.998288, 9.998713 
2.713474e+3, 2.495331e+2, -438105.75, -299633.7, 63163.992, 0.037406743, -0.11801111, -275150.38, 219413.78, 0.0, 9.999868, 10.001638 
2.7130488e+3, 2.5952548e+2, -271985.75, -529747.0, 68827.305, 0.181881, -0.06311839, -254758.84, 141877.38, 0.0, 10.0018425, 9.998467 
2.7126196e+3, 2.6951236e+2, -410443.3, -802738.0, -78333.46, 0.050353438, -0.13002814, -395380.06, -96612.23, 0.0, 10.00139, 9.996104 
2.7121904e+3, 2.7949905e+2, -310509.44, -479972.22, -151719.48, -0.05131624, -0.23388512, -221464.52, -20563.732, 0.0, 10.000388, 9.998161 
2.7117646e+3, 2.89491e+2, -36504.633, 65666.35, -56634.883, 0.08258825, -0.19520304, 90851.68, 193825.73, 0.0, 10.000076, 10.001355 
2.7113378e+3, 2.994837e+2, -97265.62, -93834.78, 25675.572, 0.11231521, -0.120754376, -69817.39, -64777.45, 0.0, 9.999674, 9.999844 
2.7109072e+3, 3.0947334e+2, -165774.84, -126068.2, -21604.54, -0.077098936, -0.19991708, -116580.25, -116580.25, 0.0, 9.99905, 9.999568 
2.7104795e+3, 3.194655e+2, 19093.457, 126829.234, 136850.95, -0.057291128, -0.026321836, 220032.52, 220032.52, 0.0, 9.999492, 10.001128 
2.728613e+3, 1.3007955e+2, -1138649.1, -1762084.1, -50992.402, -0.20648178, -0.22400212, -1134505.9, 530688.94, 0.022181902, 10.005443, 9.996971 
2.7281904e+3, 1.4006768e+2, -1409414.6, -1723345.8, -23173.217, 0.20381393, -0.27487978, -1407713.3, 159609.5, 0.012782409, 10.002254, 9.998195 
2.7277613e+3, 1.500613e+2, -1067372.4, -1158292.8, 13998.199, -0.006456109, -0.05421982, -1065266.0, 404117.47, 0.005327248, 10.002517, 10.0012245 
2.7273312e+3, 1.6005506e+2, -1069705.0, -1363879.0, -82008.57, -0.17492364, 0.15793015, -1048387.75, 323053.5, 0.0013580795, 10.002855, 9.999013 
2.7269012e+3, 1.7004147e+2, -1030156.75, -1370663.8, -169921.56, 0.074435845, -0.13208097, -959870.0, 313702.47, 0.00016970174, 10.002886, 9.998206 
2.7264708e+3, 1.8002737e+2, -1017616.0, -1340378.3, -40363.316, 0.32585946, -0.4496565, -1012644.9, 163064.42, 0.0000049540654, 10.0023365, 9.998063 
2.7260402e+3, 1.9001907e+2, -925527.8, -1094088.8, 114578.54, 0.1445251, -0.2624464, -867571.0, 210224.39, 0.0, 10.001716, 9.999323 
2.7256104e+3, 2.000115e+2, -971872.75, -1019733.44, 115634.42, -0.037719175, -0.044724707, -877718.44, 102154.68, 0.0, 10.000449, 9.999826 
2.7251834e+3, 2.100019e+2, -721521.4, -600596.7, 26567.78, 0.1617223, -0.22592561, -595017.06, 286938.13, 0.0, 10.000517, 10.001926 
2.7247557e+3, 2.1999194e+2, -884766.9, -1027769.06, -38307.645, 0.37067294, -0.42391142, -875151.5, -91110.28, 0.0, 10.00036, 9.998466 
2.7243227e+3, 2.2998023e+2, -716977.8, -1111114.4, -3005.9255, 0.11068215, -0.37854508, -716954.9, -30790.078, 0.0, 10.001844, 9.996446 
2.7238902e+3, 2.3996885e+2, -496322.8, -802294.0, 133662.31, -0.14912502, -0.27719373, -446157.72, 142129.5, 0.0, 10.0019655, 9.997889 
2.723466e+3, 2.4996082e+2, -292212.66, -267713.66, 127639.7, 0.055587698, -0.20686325, -151737.0, 338629.22, 0.0, 10.001092, 10.001243 
2.7230418e+3, 2.5995275e+2, -651736.75, -862322.94, -1306.2352, 0.24754402, -0.1417619, -651728.6, -259284.38, 0.0, 9.999919, 9.997121 
2.7226102e+3, 2.6993906e+2, -624151.06, -1085365.8, -25352.992, -0.07031447, -0.13129416, -622761.56, -328176.28, 0.0, 10.000718, 9.994481 
2.7221793e+3, 2.7992514e+2, -326605.2, -534720.1, 29550.535, -0.33995408, -0.14790925, -322490.63, -125763.05, 0.0, 10.000508, 9.99774 
2.7217555e+3, 2.8991586e+2, -61648.37, 219141.08, -36831.535, 0.05238089, -0.32548672, 223891.94, 322701.4, 0.0, 9.999214, 10.002819 
2.7213296e+3, 2.999084e+2, -402979.22, -181929.11, -111380.09, 0.26693365, -0.40463826, -135542.38, -134669.3, 0.0, 9.997365, 10.000345 
2.720893e+3, 3.099049e+2, -324484.06, -200058.31, -138314.08, -0.473686, 0.16363862, -110609.64, -110609.64, 0.0, 9.997983, 9.9995365 
2.7204695e+3, 3.1989217e+2, -284023.3, 18389.947, 247724.36, -0.1157603, -0.1782299, 157408.77, 157408.77, 0.0, 9.997357, 10.001358 
2.7386096e+3, 1.3050626e+2, -1012866.2, -1551166.1, -48432.844, -0.24512808, -0.09162611, -1008543.2, 652473.6, 0.016843405, 10.005678, 9.998292 
2.738186e+3, 1.4049517e+2, -1273807.3, -1512209.9, 46844.695, 0.41276976, -0.19887696, -1264932.9, 298195.53, 0.0094649205, 10.002582, 9.999477 
2.7377564e+3, 1.5048482e+2, -954741.3, -1006144.4, 120554.01, 0.1423838, -0.46048278, -857179.56, 608040.1, 0.0037924107, 10.002899, 10.0020685 
2.737326e+3, 1.6047503e+2, -966484.3, -1230454.5, -38834.805, -0.13287038, -0.6710455, -960889.56, 406417.47, 0.0009170214, 10.003226, 9.999728 
2.7368945e+3, 1.7046635e+2, -964326.5, -1247637.1, -137772.02, 0.05577984, -0.53342265, -908377.75, 361020.4, 0.0001065257, 10.002975, 9.99899 
2.7364635e+3, 1.8045804e+2, -900654.4, -1146492.4, -23902.016, 0.26360953, -0.3521082, -898352.06, 273134.25, 0.0000025959862, 10.002541, 9.999287 
2.736035e+3, 1.9045123e+2, -805598.4, -904955.94, 101057.15, 0.32793888, -0.13366234, -742669.3, 330886.78, 0.0, 10.001947, 10.000527 
2.7356058e+3, 2.0044385e+2, -885601.94, -987124.6, 108127.58, 0.33051342, 0.022898959, -816913.4, 158715.67, 0.0, 10.001046, 9.999758 
2.735176e+3, 2.1043183e+2, -797090.94, -830616.25, 48504.246, 0.2820356, -0.2647046, -762534.5, 115202.2, 0.0, 10.0008, 10.000221 
2.7347457e+3, 2.2041984e+2, -763194.75, -928254.6, 13664.153, 0.20359841, -0.5344177, -762071.25, 17773.258, 0.0, 10.000982, 9.998845 
2.7343142e+3, 2.3040943e+2, -502921.34, -771837.2, 76397.21, -0.032591365, -0.5220138, -482733.0, 199216.08, 0.0, 10.002267, 9.998582 
2.7338833e+3, 2.4039951e+2, -363150.66, -788581.4, 158579.97, -0.201759, -0.41093493, -310544.66, 273507.44, 0.0, 10.003059, 9.997452 
2.733459e+3, 2.5039074e+2, -460620.44, -740462.25, 77479.21, 0.11886914, -0.13067964, -440601.06, 45548.273, 0.0, 10.001586, 9.997771 
2.7330345e+3, 2.6038173e+2, -605027.94, -823951.6, -15875.839, 0.39626566, 0.10259448, -603882.6, -215635.69, 0.0, 10.000131, 9.997276 
2.732604e+3, 2.7036908e+2, -382456.03, -627207.4, 58864.184, 0.11850479, -0.0037568235, -369034.8, -78665.14, 0.0, 10.0008745, 9.99756 
2.7321732e+3, 2.80356e+2, -213722.6, -501049.6, 94299.96, -0.1277903, -0.15075813, -185538.25, 6958.463, 0.0, 10.001287, 9.997619 
2.731745e+3, 2.9034412e+2, -349547.38, -355657.72, -96973.61, 0.013449771, -0.2750424, -255580.81, -160969.61, 0.0, 9.99903, 9.999007 
2.7313158e+3, 3.0033392e+2, -556446.3, -364567.63, -177968.64, 0.10254665, -0.31025723, -258325.88, -258325.88, 0.0, 9.996746, 9.999389 
2.730887e+3, 3.1032866e+2, -307808.2, -62439.938, -130036.27, 0.07385906, 0.012748022, -6348.1484, -6348.1484, 0.0, 9.997522, 10.000704 
2.730459e+3, 3.2031658e+2, -357914.47, 207314.39, -61318.227, 0.106566295, -0.38738957, 213889.92, 213889.92, 0.0, 9.995816, 10.0034075 
2.748607e+3, 1.3093735e+2, -877740.2, -1573293.3, 97089.48, -0.2138917, -0.3770614, -864442.1, 792336.94, 0.012347341, 10.006956, 9.997515 
2.748177e+3, 1.4092736e+2, -1134417.5, -1545076.5, 207488.25, 0.07315147, -0.26330224, -1047836.75, 511044.88, 0.0067427238, 10.003981, 9.998557 
2.747751e+3, 1.5091588e+2, -865300.4, -1104720.1, 269867.75, 0.14168604, -0.50900966, -689783.1, 771205.75, 0.0025849484, 10.004108, 10.000791 
2.7473235e+3, 1.6090514e+2, -892907.94, -1257074.3, 1656.352, 0.17000008, -0.69942355, -892900.4, 470189.9, 0.0005889778, 10.003987, 9.99917 
2.7468884e+3, 1.7089793e+2, -932807.3, -1225325.9, -131068.65, 0.080966555, -0.4129237, -882672.2, 382498.16, 0.00006228534, 10.003118, 9.999084 
2.7464545e+3, 1.8089075e+2, -994748.44, -1213109.9, -10035.587, 0.054516245, -0.11818579, -994288.2, 172961.11, 0.0000011486238, 10.001983, 9.999096 
2.746027e+3, 1.9088155e+2, -711076.56, -861845.94, 49015.047, 0.24066427, -0.14343405, -696542.8, 372794.4, 0.0, 10.002633, 10.000456 
2.7455997e+3, 2.0087229e+2, -667139.06, -935637.06, 4359.8706, 0.38599554, -0.17275433, -667068.3, 304356.25, 0.0, 10.002829, 9.999245 
2.7451688e+3, 2.1086083e+2, -531891.3, -782211.6, -8587.007, 0.29608, -0.3553249, -531597.1, 341933.44, 0.0, 10.002982, 9.999502 
2.7447382e+3, 2.2084928e+2, -570041.75, -857609.8, 27972.229, 0.16276121, -0.5247751, -567346.1, 208291.8, 0.0, 10.002452, 9.998617 
2.7443075e+3, 2.3083933e+2, -364960.03, -620096.5, 8941.286, -0.043838084, -0.5295449, -364647.06, 313087.13, 0.0, 10.002895, 9.999297 
2.7438778e+3, 2.4082975e+2, -507482.56, -959172.3, -14273.481, -0.16266015, -0.4265166, -507031.97, 72798.24, 0.0, 10.002545, 9.996525 
2.743452e+3, 2.508197e+2, -617367.56, -1008568.7, 1734.6743, 0.17157847, -0.1470025, -617359.9, -135416.55, 0.0, 10.001362, 9.996027 
2.743026e+3, 2.6080978e+2, -652747.06, -825051.7, 77572.734, 0.44465455, 0.12109492, -622969.44, -238916.25, 0.0, 9.999758, 9.99744 
2.7425966e+3, 2.7079877e+2, -372530.1, -365747.06, 118844.54, 0.22137426, -0.009914597, -250245.64, 35908.945, 0.0, 9.999866, 9.999824 
2.7421662e+3, 2.807869e+2, -520370.2, -734451.8, 45186.105, -0.002868769, -0.17472698, -511223.56, -322959.1, 0.0, 9.999624, 9.996795 
2.7417344e+3, 2.9077312e+2, -507957.56, -739786.3, -56720.242, -0.030343844, -0.26341376, -494824.16, -404419.9, 0.0, 9.999363, 9.996165 
2.7413025e+3, 3.0076078e+2, -437843.1, -414547.44, 22695.904, -0.028836315, -0.2602736, -400684.97, -400684.97, 0.0, 9.998098, 9.99838 
2.7408803e+3, 3.1075388e+2, -321314.72, 23168.363, 60223.914, 0.57310915, -0.13857974, 33393.445, 33393.445, 0.0, 9.997072, 10.001493 
2.7404445e+3, 3.2074365e+2, -225988.16, 459173.56, -244762.89, -0.019994156, -0.4598658, 537627.75, 537627.75, 0.0, 9.995938, 10.005087 
2.7586043e+3, 1.3136975e+2, -1203090.6, -1847896.6, -128123.5, -0.28585854, -0.71196985, -1178565.3, 473961.3, 0.008675584, 10.005222, 9.996457 
2.7581668e+3, 1.4136085e+2, -1179783.8, -1725128.6, 143095.22, -0.47476605, -0.37654296, -1144517.0, 410104.7, 0.004590722, 10.004356, 9.997131 
2.757746e+3, 1.5134992e+2, -1043452.94, -1398313.3, 285391.6, 0.10988106, -0.3938079, -884832.8, 571899.6, 0.0016781248, 10.003794, 9.99892 
2.757322e+3, 1.613397e+2, -1027701.8, -1407115.4, -6821.4478, 0.5187433, -0.3701808, -1027579.2, 331257.9, 0.0003582228, 10.003428, 9.998404 
2.7568823e+3, 1.7133254e+2, -904561.3, -1228886.0, -140330.63, 0.07088852, -0.049759142, -852272.44, 408646.16, 0.000033741435, 10.003383, 9.998927 
2.7564442e+3, 1.8132424e+2, -888661.1, -1195314.4, 21507.508, -0.29876518, 0.15819645, -887160.0, 275847.22, 0.00000040337267, 10.002837, 9.998799 
2.7560177e+3, 1.9131038e+2, -735276.94, -962756.1, 106629.29, -0.07442958, -0.2601763, -693111.1, 372023.06, 0.0, 10.002836, 9.999667 
2.7555916e+3, 2.0129775e+2, -619137.5, -920745.1, 31886.334, 0.15011182, -0.5609442, -615803.3, 351447.1, 0.0, 10.003154, 9.999204 
2.7551624e+3, 2.112892e+2, -474162.84, -724616.6, 13102.511, 0.2326675, -0.46510902, -473479.25, 395854.84, 0.0, 10.003199, 9.999824 
2.754733e+3, 2.212804e+2, -503581.28, -850912.1, 50917.527, 0.24449289, -0.36591673, -496270.8, 275149.8, 0.0, 10.003011, 9.998382 
2.754303e+3, 2.3126987e+2, -385826.7, -740335.8, 34021.152, 0.09744446, -0.33273986, -382591.3, 290932.7, 0.0, 10.003216, 9.998326 
2.7538732e+3, 2.4125901e+2, -367278.44, -802138.3, -45674.55, 0.0016036606, -0.306843, -362532.88, 213098.67, 0.0, 10.003063, 9.997367 
2.7534446e+3, 2.5124666e+2, -476568.5, -775152.1, -33168.85, 0.19390236, -0.37905765, -472928.25, 4829.4375, 0.0, 10.001571, 9.997555 
2.7530158e+3, 2.612353e+2, -505535.06, -625293.3, 102699.43, 0.33102483, -0.38625848, -446533.22, -66659.95, 0.0, 10.000161, 9.998625 
2.7525863e+3, 2.712266e+2, -346420.0, -321211.28, 145369.27, 0.120389074, -0.31180164, -187900.98, 94050.766, 0.0, 9.999881, 10.000135 
2.7521566e+3, 2.812171e+2, -435890.16, -562636.7, 54360.35, -0.045347698, -0.28709492, -415769.6, -231729.33, 0.0, 9.999634, 9.997958 
2.751725e+3, 2.912037e+2, -341306.94, -501887.25, 19868.838, 0.011155292, -0.45466867, -338885.06, -252708.2, 0.0, 9.999859, 9.997547 
2.7512932e+3, 3.0119228e+2, -208120.94, -279934.63, 112478.56, 0.030117197, -0.4449736, -125956.92, -125956.92, 0.0, 9.999521, 9.998638 
2.7508658e+3, 3.1118897e+2, -357933.03, -117857.79, 91134.69, 0.31219974, 0.14138444, -87181.9, -87181.9, 0.0, 9.997259, 10.000493 
2.7504328e+3, 3.211764e+2, -82950.305, 455205.8, 12917.817, 0.052501526, -0.31160367, 455515.7, 455515.7, 0.0, 9.997131, 10.004505 
2.768601e+3, 1.3180341e+2, -1373048.0, -1757974.9, -222192.63, -0.044314526, -0.38867888, -1271552.8, 376733.75, 0.0058144024, 10.003261, 9.998058 
2.7681646e+3, 1.4179108e+2, -954083.7, -1553213.6, 16046.609, -0.29534647, -0.52070093, -953654.25, 596752.5, 0.002967849, 10.005636, 9.997709 
2.7677402e+3, 1.5178172e+2, -1150042.4, -1453265.9, 154196.23, 0.13204871, -0.4059536, -1085407.5, 367095.22, 0.0010278012, 10.003083, 9.998882 
2.7673143e+3, 1.6177261e+2, -1329514.9, -1565496.0, 14880.457, 0.45062658, -0.26385978, -1328580.3, 26017.156, 0.00020336722, 10.001406, 9.998314 
2.7668765e+3, 1.7176372e+2, -740539.5, -1150329.8, -50677.52, 0.021547575, -0.11487735, -734365.44, 522326.66, 0.000016580547, 10.004506, 9.998943 
2.76644e+3, 1.8175428e+2, -427174.38, -970309.0, 44869.14, -0.29218403, -0.017943474, -423492.63, 735296.06, 0.00000009587778, 10.006031, 9.998812 
2.7660125e+3, 1.9174133e+2, -714074.94, -957357.7, 108381.85, 0.019941483, -0.34431526, -672795.3, 388111.56, 0.0, 10.003024, 9.999625 
2.765585e+3, 2.017292e+2, -1070225.8, -1179158.6, 135887.83, 0.25588977, -0.5591621, -978295.1, -15275.613, 0.0, 10.00026, 9.998829 
2.7651545e+3, 2.1172123e+2, -826419.4, -908383.2, 114518.734, 0.16312714, -0.3848522, -745770.5, 119332.16, 0.0, 10.000869, 9.99967 
2.7647248e+3, 2.2171293e+2, -801221.8, -1021806.56, 145005.6, 0.11510688, -0.20491736, -729330.1, 37857.83, 0.0, 10.00113, 9.99811 
2.7642968e+3, 2.3170172e+2, -630682.75, -867485.3, 194133.66, 0.14675465, -0.2330525, -521692.9, 147604.58, 0.0, 10.001595, 9.998226 
2.7638683e+3, 2.416901e+2, -609365.5, -916009.06, 116962.36, 0.16081989, -0.2524392, -569845.94, 1565.4904, 0.0, 10.001451, 9.997346 
2.7634367e+3, 2.5167713e+2, -443594.6, -688118.3, 35044.324, 0.17739289, -0.43308845, -438671.28, 34868.973, 0.0, 10.001544, 9.998139 
2.7630058e+3, 2.6166502e+2, -436176.8, -618682.2, 108306.734, 0.17018828, -0.5422932, -385805.38, -10146.319, 0.0, 10.000832, 9.998339 
2.762576e+3, 2.7165636e+2, -404518.53, -398986.94, 82865.59, 0.030371267, -0.43218586, -318841.0, -41102.84, 0.0, 9.999777, 9.999636 
2.7621466e+3, 2.8164732e+2, -562351.06, -575705.56, -45415.48, -0.051590927, -0.3382949, -523124.63, -343302.25, 0.0, 9.998593, 9.998376 
2.761716e+3, 2.9163492e+2, -369836.97, -371260.44, -68664.41, 0.0549437, -0.5538169, -301880.6, -219933.3, 0.0, 9.999033, 9.99885 
2.7612838e+3, 3.0162498e+2, -359937.47, -398141.84, -36218.3, 0.050051436, -0.4816084, -338092.63, -338092.63, 0.0, 9.998724, 9.998194 
2.7608508e+3, 3.1162375e+2, -340969.38, -240936.9, -77310.4, -0.0054863435, 0.39189723, -198874.25, -198874.25, 0.0, 9.997993, 9.99926 
2.7604228e+3, 3.2160756e+2, -106849.12, 323943.6, 189895.36, 0.18031448, -0.33581683, 395698.5, 395698.5, 0.0, 9.99764, 10.003295 
2.7785978e+3, 1.3223648e+2, -1262026.1, -1463626.4, -67441.12, 0.19794141, 0.0054349187, -1241545.8, 402511.38, 0.0036833882, 10.003024, 10.000163 
2.7781644e+3, 1.4222035e+2, -1070550.1, -1483856.3, 11756.744, 0.036563493, -0.6894513, -1070215.9, 475989.3, 0.0018028482, 10.004312, 9.998805 
2.7777338e+3, 1.522129e+2, -1123827.0, -1380941.9, 61636.75, 0.08329205, -0.44865078, -1109814.8, 338466.25, 0.0005854822, 10.003012, 9.999403 
2.7773038e+3, 1.6220464e+2, -1192980.6, -1456532.6, 58878.88, 0.13806942, -0.2698491, -1180424.9, 169940.05, 0.00010501676, 10.002141, 9.998706 
2.776871e+3, 1.7219315e+2, -756871.06, -1124934.1, 85337.92, -0.0537255, -0.40911666, -738047.56, 514430.6, 0.0000068884756, 10.004237, 9.99925 
2.776439e+3, 1.8218271e+2, -475313.22, -938864.8, 609.6531, -0.11198747, -0.44521075, -475312.4, 679267.75, 0.00000000965895, 10.005468, 9.99929 
2.7760097e+3, 1.9217417e+2, -682476.44, -899449.2, 1360.4784, 0.36523554, -0.36389896, -682467.9, 374191.16, 0.0, 10.003046, 10.000021 
2.7755797e+3, 2.0216544e+2, -993524.8, -1135853.4, 133763.16, 0.5680235, -0.26012105, -913173.6, 45569.543, 0.0, 10.000764, 9.998868 
2.775145e+3, 2.1215637e+2, -830070.9, -967267.2, 169415.61, 0.018511433, -0.1432069, -715892.25, 144948.77, 0.0, 10.001105, 9.999146 
2.774713e+3, 2.221468e+2, -658086.75, -851531.5, 182773.67, -0.29974762, -0.08002877, -548020.75, 214919.83, 0.0, 10.001639, 9.999047 
2.774289e+3, 2.321352e+2, -510838.06, -670030.8, 240455.27, 0.072158635, -0.24855822, -337147.4, 327902.56, 0.0, 10.001773, 9.999529 
2.7738622e+3, 2.4212414e+2, -556011.2, -885996.5, 163466.7, 0.29432, -0.28630665, -488745.47, 78412.28, 0.0, 10.00179, 9.997377 
2.7734286e+3, 2.5211415e+2, -450469.88, -805769.25, 83620.945, 0.0933013, -0.06948869, -431773.25, 37491.633, 0.0, 10.001975, 9.997139 
2.772996e+3, 2.6210305e+2, -407405.53, -750253.56, 99616.01, -0.041562885, 0.047175355, -380563.2, -9183.592, 0.0, 10.001626, 9.997058 
2.772567e+3, 2.7208942e+2, -481070.8, -651293.06, 36844.957, -0.0061506247, -0.14958306, -473437.9, -199927.69, 0.0, 10.000135, 9.997756 
2.7721372e+3, 2.8207725e+2, -481367.1, -494157.25, -57488.215, 0.05325116, -0.25901112, -429919.34, -254293.31, 0.0, 9.998914, 9.998781 
2.7717063e+3, 2.9206815e+2, -280871.56, -227741.52, -75276.766, 0.112234734, -0.2226531, -174479.9, -96767.76, 0.0, 9.999124, 9.999819 
2.7712736e+3, 3.0205905e+2, -305943.28, -393030.13, -67151.56, 0.05073716, -0.1236647, -269453.2, -269453.2, 0.0, 9.999134, 9.998022 
2.77084e+3, 3.1205e+2, -290355.03, -322585.66, -122505.664, -0.042716667, 0.047730748, -182909.27, -182909.27, 0.0, 9.998767, 9.998317 
2.770411e+3, 3.2203767e+2, -6014.927, 141367.7, 192825.8, 0.012425804, -0.1578362, 274103.63, 274103.63, 0.0, 9.999257, 10.001261 
2.7885893e+3, 1.326668e+2, -1273339.9, -1505214.0, -8789.956, -0.017790014, -0.11185771, -1273007.1, 366838.44, 0.002168535, 10.003086, 9.999827 
2.7881604e+3, 1.4265478e+2, -1415961.6, -1694534.3, 13126.728, 0.29113832, -0.3630402, -1415344.4, 126617.28, 0.0010068332, 10.002075, 9.99845 
2.7877268e+3, 1.5264627e+2, -1088807.1, -1400288.9, 26914.617, -0.0067978473, -0.20434819, -1086498.6, 357548.25, 0.00030057534, 10.003363, 9.999123 
2.7872953e+3, 1.6263704e+2, -969776.1, -1313669.0, -12689.667, -0.11330818, -0.119096994, -969308.5, 376828.84, 0.000046417692, 10.003556, 9.998996 
2.7868652e+3, 1.7262504e+2, -1095559.1, -1235274.4, 4064.8137, 0.0034974727, -0.36625654, -1095441.0, 152808.78, 0.0000020738605, 10.001723, 9.999693 
2.7864346e+3, 1.8261416e+2, -1151109.5, -1274592.6, -60845.75, 0.11033428, -0.47322065, -1126166.4, 24185.08, 0.00000000000031198744, 10.000867, 9.999201 
2.786003e+3, 1.9260603e+2, -623972.56, -876799.8, -96692.52, 0.3134049, -0.3655964, -591232.7, 461194.56, 0.0, 10.003479, 9.99995 
2.7855715e+3, 2.0259784e+2, -509621.94, -960957.3, -4272.891, 0.40526134, -0.19788599, -509581.5, 444926.28, 0.0, 10.004397, 9.9983 
2.785138e+3, 2.1258815e+2, -686226.3, -950921.9, 11445.466, 0.047896978, -0.11347461, -685732.4, 170880.73, 0.0, 10.002386, 9.998617 
2.784706e+3, 2.2257829e+2, -819093.5, -893612.1, 55591.664, -0.19823712, -0.06734245, -789429.8, -30714.502, 0.0, 10.000409, 9.999339 
2.7842802e+3, 2.3256782e+2, -666456.4, -645127.4, 88177.15, 0.021161037, -0.23219235, -566972.1, 93839.85, 0.0, 10.000309, 10.0003805 
2.7838528e+3, 2.4255773e+2, -864285.4, -1064988.9, 14523.853, 0.18083239, -0.22781971, -863239.8, -300330.25, 0.0, 9.999844, 9.997087 
2.7834198e+3, 2.5254872e+2, -768997.9, -991667.44, 6781.04, 0.019502064, 0.09950877, -768791.56, -303781.63, 0.0, 9.999981, 9.996809 
2.7829874e+3, 2.625382e+2, -750389.7, -994889.25, 84122.61, -0.09258574, 0.3178514, -724242.6, -357120.6, 0.0, 9.999665, 9.9963045 
2.782558e+3, 2.7252275e+2, -617244.7, -801529.1, 121726.92, 0.013804785, 0.004376674, -556718.56, -287445.44, 0.0, 9.999605, 9.996958 
2.7821276e+3, 2.8250933e+2, -492751.66, -501901.16, 108868.516, 0.10070373, -0.15527152, -388361.8, -216960.33, 0.0, 9.998915, 9.998713 
2.7816957e+3, 2.925018e+2, -327740.06, -206976.23, 43360.195, 0.07956439, 0.014087704, -193020.53, -119552.01, 0.0, 9.998682, 10.000145 
2.7812624e+3, 3.0249223e+2, -448374.16, -527415.8, 5687.529, -0.024697497, 0.08293043, -447967.0, -447967.0, 0.0, 9.9985075, 9.997401 
2.7808303e+3, 3.124761e+2, -253903.31, -370706.94, -29430.684, 0.022806734, -0.39672333, -246906.83, -246906.83, 0.0, 9.99937, 9.997696 
2.7803993e+3, 3.2247087e+2, -436238.75, -268093.47, 337000.28, -0.17731209, 0.2402724, -4837.1743, -4837.1743, 0.0, 9.997221, 9.9994545 
2.798581e+3, 1.3309748e+2, -1275574.3, -1636046.9, -7264.5313, -0.29173362, -0.30186865, -1275427.9, 360200.44, 0.0011658049, 10.003641, 9.998658 
2.7981552e+3, 1.4309117e+2, -1289190.9, -1707746.4, 97995.93, 0.42872223, 0.13258582, -1267383.4, 270317.34, 0.0005045759, 10.003283, 9.997772 
2.7977198e+3, 1.5308057e+2, -1108628.4, -1443593.3, 153234.16, -0.15382804, 0.12744008, -1049106.3, 390699.7, 0.0001343589, 10.003399, 9.998801 
2.7972874e+3, 1.630698e+2, -970878.0, -1278998.9, 8827.111, -0.3494897, 0.077921815, -970625.3, 371283.84, 0.00001642319, 10.0033865, 9.999322 
2.7968588e+3, 1.730582e+2, -980747.56, -1137565.1, -2249.0288, 0.10782677, -0.1517325, -980715.3, 263297.72, 0.0000003300107, 10.002323, 10.000082 
2.7964282e+3, 1.8304716e+2, -999959.44, -1195215.4, 42715.03, 0.26135883, -0.29570276, -991023.8, 155089.38, 0.0, 10.001837, 9.9992895 
2.7959937e+3, 1.9303682e+2, -616281.0, -902403.7, 42145.61, -0.09689988, -0.3760005, -610202.1, 438008.1, 0.0, 10.003633, 9.999719 
2.7955616e+3, 2.0302688e+2, -504756.13, -977943.2, -30144.379, -0.1567722, -0.34869382, -502843.5, 447464.34, 0.0, 10.004517, 9.998115 
2.795134e+3, 2.1301663e+2, -688974.2, -992691.7, -45147.523, 0.29793867, -0.27331606, -682405.1, 170012.53, 0.0, 10.002539, 9.998262 
2.7947038e+3, 2.2300719e+2, -713014.0, -796699.75, 56445.332, 0.39012054, -0.17853105, -684593.8, 69921.08, 0.0, 10.000892, 9.999769 
2.7942702e+3, 2.3299909e+2, -605797.75, -587014.4, 89123.39, -0.11623659, -0.13052605, -506789.16, 149799.36, 0.0, 10.000554, 10.00066 
2.793839e+3, 2.429898e+2, -730914.44, -888906.2, 1305.0261, -0.31643102, -0.10139305, -730903.7, -172226.13, 0.0, 10.000238, 9.998107 
2.7934104e+3, 2.529778e+2, -678417.5, -831260.4, 14200.728, 0.011279828, -0.16650437, -677109.3, -216307.8, 0.0, 10.000037, 9.997915 
2.7929807e+3, 2.6296693e+2, -572978.5, -666638.0, 117148.35, 0.20013158, -0.13487229, -493646.6, -130734.164, 0.0, 9.9997835, 9.998503 
2.7925494e+3, 2.729572e+2, -424255.47, -477203.0, 191173.34, 0.14619945, -0.070078574, -257731.53, 7273.971, 0.0, 9.999885, 9.999062 
2.7921173e+3, 2.8294653e+2, -420466.75, -514363.16, 181251.52, 0.042279784, -0.059995856, -280181.8, -113074.85, 0.0, 9.999614, 9.998268 
2.7916825e+3, 2.9293454e+2, -397567.47, -408639.6, 88562.84, -0.21620843, -0.17553306, -314367.84, -245149.16, 0.0, 9.998913, 9.998641 
2.7912503e+3, 3.0292225e+2, -353524.97, -458916.25, 113477.65, -0.20095709, -0.28867668, -281104.63, -281104.63, 0.0, 9.998997, 9.997648 
2.7908275e+3, 3.1290835e+2, 22057.314, -186679.53, 111006.9, 0.62665176, -0.56993604, 70054.57, 70054.57, 0.0, 10.000973, 9.998228 
2.7903876e+3, 3.2290292e+2, -566872.56, -145612.53, -6184.0107, -0.051416993, -0.02782874, -145521.77, -145521.77, 0.0, 9.995455, 10.001164 
2.8085804e+3, 1.3353242e+2, -1238723.5, -1974204.8, 174892.1, 0.08500548, -0.42575875, -1199253.5, 432105.97, 0.00056472304, 10.005379, 9.995533 
2.808148e+3, 1.4352708e+2, -832696.8, -1466986.4, 160374.03, 0.10569866, 0.28568038, -794453.6, 738978.75, 0.00022531899, 10.006336, 9.997959 
2.8077137e+3, 1.5351412e+2, -1001333.0, -1322459.6, 233169.77, -0.1851837, -0.011873556, -878790.8, 556763.94, 0.000052747473, 10.003814, 9.999452 
2.8072825e+3, 1.6350257e+2, -1047321.9, -1305685.6, 210531.42, -0.21093057, -0.15778935, -929498.8, 408163.28, 0.0000047753, 10.002846, 9.9993725 
2.806854e+3, 1.7349312e+2, -552969.1, -939705.1, 196338.11, 0.14056246, -0.16446693, -470765.28, 768981.44, 0.00000002399446, 10.005284, 9.999996 
2.8064227e+3, 1.8348268e+2, -534964.94, -1055560.4, 171515.23, 0.22490066, -0.19466451, -483537.84, 658305.5, 0.0, 10.005479, 9.998467 
2.8059867e+3, 1.934705e+2, -869380.44, -1114840.1, 123626.22, -0.18629792, -0.3617741, -817909.1, 226052.2, 0.0, 10.002346, 9.998859 
2.8055537e+3, 2.0345911e+2, -1056421.6, -1291874.9, 96936.18, -0.2740579, -0.3931867, -1021648.44, -75574.445, 0.0, 10.000919, 9.997708 
2.8051272e+3, 2.1344863e+2, -588374.4, -945534.56, 106255.7, 0.27923533, -0.33418745, -559153.8, 289029.3, 0.0, 10.003226, 9.998251 
2.8046978e+3, 2.2343893e+2, -368459.97, -716979.2, 175010.69, 0.4570382, -0.21715565, -295747.6, 454534.28, 0.0, 10.003713, 9.998947 
2.8042623e+3, 2.334303e+2, -469089.3, -619622.9, 88246.84, -0.14351226, -0.12520233, -428370.78, 223993.34, 0.0, 10.001962, 9.999765 
2.803829e+3, 2.4342065e+2, -666294.8, -791047.94, -33594.59, -0.40444657, -0.093599044, -657823.44, -103366.32, 0.0, 10.000466, 9.998653 
2.8034016e+3, 2.53408e+2, -588257.06, -656670.9, -20814.58, 0.046381943, -0.34593427, -582422.0, -125840.49, 0.0, 10.000163, 9.999022 
2.8029725e+3, 2.6339746e+2, -573519.06, -586041.06, 52297.727, 0.31187177, -0.3745819, -527108.9, -168423.44, 0.0, 9.999484, 9.999189 
2.8025407e+3, 2.733907e+2, -411349.44, -365250.13, 9688.19, 0.18095052, -0.13160151, -363296.8, -102546.13, 0.0, 9.999552, 9.99998 
2.802107e+3, 2.8338146e+2, -563540.6, -677440.2, -70653.25, -0.022700883, -0.017632736, -529742.6, -366904.28, 0.0, 9.999073, 9.9974165 
2.8016704e+3, 2.9336676e+2, -541584.3, -586841.0, -75636.88, -0.36804986, -0.34135282, -485263.4, -420285.9, 0.0, 9.998439, 9.997645 
2.8012395e+3, 3.0335325e+2, -537573.94, -502339.78, 79657.45, -0.24064195, -0.5425154, -438374.56, -438374.56, 0.0, 9.99761, 9.99799 
2.8008232e+3, 3.1334206e+2, -426775.53, -312903.2, 139532.16, 1.1011225, -0.6404872, -219137.83, -219137.83, 0.0, 9.997568, 9.9989605 
2.800372e+3, 3.2333463e+2, -386704.56, 148357.28, -519165.94, -0.2328339, -0.43016997, 464869.25, 464869.25, 0.0, 9.9959545, 10.002884 
2.8185797e+3, 1.3396889e+2, -1573458.4, -2467152.8, 190800.03, 0.37296933, -0.4452871, -1534428.0, 92647.72, 0.00024801813, 10.00454, 9.992549 
2.81814e+3, 1.4396252e+2, -1001012.5, -1451965.9, 85884.8, -0.3800628, 0.28350785, -985209.4, 543954.06, 0.00009111463, 10.004782, 9.998806 
2.8177088e+3, 1.539475e+2, -993268.3, -1202602.0, 122853.52, -0.16072531, -0.32334915, -936540.8, 494757.25, 0.000018145423, 10.003381, 10.00048 
2.8172788e+3, 1.639359e+2, -1013464.2, -1277026.8, 234490.08, 0.011715601, -0.5427124, -876262.4, 457140.2, 0.000001252134, 10.003015, 9.999496 
2.8168494e+3, 1.7392926e+2, -628123.56, -989851.25, 272763.9, 0.058175486, -0.24960236, -481707.88, 753754.94, 0.0000000065346386, 10.00483, 9.999875 
2.8164172e+3, 1.8391983e+2, -671594.9, -1235099.8, 49896.637, 0.04431048, -0.11852053, -667210.75, 470342.84, 0.0, 10.005051, 9.99742 
2.815981e+3, 1.9390598e+2, -944748.1, -1295225.0, 15664.6455, -0.052838787, -0.3212882, -944049.4, 95642.97, 0.0, 10.002446, 9.997574 
2.8155473e+3, 2.0389393e+2, -945396.0, -1186698.8, 172955.66, -0.12421221, -0.36255014, -855167.25, 86644.95, 0.0, 10.001444, 9.998176 
2.8151175e+3, 2.1388417e+2, -505761.1, -856226.3, 219617.55, -0.1156937, -0.26771876, -400034.03, 443874.72, 0.0, 10.003549, 9.99872 
2.814688e+3, 2.2387338e+2, -411007.9, -929127.9, 144443.02, -0.0349248, -0.20684387, -373460.66, 372556.53, 0.0, 10.004229, 9.997245 
2.8142574e+3, 2.3386087e+2, -547557.06, -915145.94, 50985.906, 0.05836561, -0.26783523, -540616.2, 107528.36, 0.0, 10.002497, 9.997494 
2.8138256e+3, 2.4385002e+2, -503898.9, -624003.2, -38557.31, 0.064009175, -0.2579597, -492586.3, 57664.984, 0.0, 10.001169, 9.999462 
2.8133926e+3, 2.5384095e+2, -451685.63, -477974.38, -18442.213, 0.035511743, -0.24182335, -442182.94, 10152.31, 0.0, 10.000589, 10.000055 
2.8129607e+3, 2.63831e+2, -574661.1, -748708.2, 45523.17, 0.042705055, -0.20707223, -563473.4, -209040.33, 0.0, 10.000116, 9.997789 
2.8125298e+3, 2.7381986e+2, -493290.25, -640568.5, -42019.77, 0.03670278, -0.19009574, -482145.06, -225595.94, 0.0, 9.999929, 9.997949 
2.8120983e+3, 2.838093e+2, -417220.56, -486203.38, -160570.6, 0.0861649, -0.14595184, -287478.7, -128824.22, 0.0, 9.999487, 9.998556 
2.811665e+3, 2.9379857e+2, -379332.44, -362121.47, -138858.28, 0.17340472, -0.19988406, -231602.27, -170847.3, 0.0, 9.998858, 9.999021 
2.8112325e+3, 3.0378792e+2, -377529.13, -175417.55, 26515.795, 0.22351721, -0.29095888, -171996.73, -171996.73, 0.0, 9.997608, 10.000229 
2.8108045e+3, 3.137777e+2, -552219.06, -150306.16, 100962.58, 0.5807944, -0.49089497, -126369.445, -126369.445, 0.0, 9.9956875, 10.000999 
2.8103596e+3, 3.2377174e+2, -43139.883, 190994.42, -337423.1, -0.2665265, -0.2062332, 431081.4, 431081.4, 0.0, 9.9987335, 10.001866 
2.8285712e+3, 1.3440448e+2, -1388964.4, -1840125.0, -14025.567, 0.081349514, -0.14710939, -1388528.8, 234288.56, 0.000104967556, 10.003549, 9.997289 
2.828135e+3, 1.4439467e+2, -1436047.6, -1729707.9, 47735.047, -0.25820586, 0.018323127, -1428483.0, 96439.27, 0.000034652854, 10.002116, 9.998158 
2.827705e+3, 1.5438144e+2, -1148450.6, -1426616.3, -19342.207, 0.09683467, -0.28903183, -1147112.1, 279932.25, 0.000005523166, 10.0029955, 9.999108 
2.8272748e+3, 1.6437034e+2, -1051323.9, -1335981.9, 47782.035, 0.23740038, -0.38337988, -1043517.4, 285629.78, 0.0000002527922, 10.002969, 9.999106 
2.8268427e+3, 1.7436214e+2, -1074543.6, -1234076.1, 52059.65, 0.0007810892, -0.24942592, -1059058.3, 172166.48, 0.0, 10.00194, 9.99959 
2.8264096e+3, 1.8435243e+2, -1113239.9, -1413830.9, -148985.0, -0.09530285, -0.16318463, -1051910.0, 81408.4, 0.0, 10.0018635, 9.99774 
2.825975e+3, 1.943399e+2, -797696.8, -1183154.6, -98755.625, 0.009718139, -0.30650064, -773868.3, 261574.1, 0.0, 10.003264, 9.997955 
2.825542e+3, 2.043287e+2, -682674.0, -1044399.9, 146942.27, -0.0006270659, -0.29442525, -630506.0, 307046.16, 0.0, 10.003241, 9.998264 
2.8251103e+3, 2.1431917e+2, -766504.56, -973732.56, 156177.16, -0.19537798, -0.20439072, -682696.1, 156947.83, 0.0, 10.00176, 9.998767 
2.82468e+3, 2.2430761e+2, -938766.56, -1289351.0, 85122.29, -0.18832839, -0.17965107, -919191.75, -177432.67, 0.0, 10.001111, 9.996251 
2.8242514e+3, 2.3429294e+2, -755070.9, -1120899.3, 90931.01, 0.13432427, -0.376988, -733715.5, -89805.43, 0.0, 10.001596, 9.996482 
2.8238192e+3, 2.4428158e+2, -458935.75, -604953.56, 38248.63, 0.21574035, -0.35022223, -449523.44, 96499.84, 0.0, 10.001549, 9.999399 
2.8233835e+3, 2.5427425e+2, -342037.34, -411004.84, -18758.57, -0.02578302, -0.17322247, -337265.34, 110823.766, 0.0, 10.001323, 10.000153 
2.8229502e+3, 2.6426443e+2, -580762.7, -855142.8, 61925.465, -0.12735796, -0.077227816, -567434.06, -217248.25, 0.0, 10.000581, 9.996815 
2.8225198e+3, 2.7425054e+2, -586274.44, -783890.94, 99917.69, -0.035433754, -0.25582486, -544560.0, -292228.66, 0.0, 9.999767, 9.99702 
2.8220892e+3, 2.8423953e+2, -442368.53, -396288.7, 20404.82, 0.17625763, -0.22050959, -388552.1, -234108.64, 0.0, 9.998951, 9.999403 
2.8216588e+3, 2.9423186e+2, -320002.25, -196965.47, 3672.104, 0.58544767, -0.08146879, -196855.97, -140341.14, 0.0, 9.998722, 10.000203 
2.8212237e+3, 3.0422333e+2, -237682.98, 40388.043, 56906.35, 0.4929817, -0.06543436, 51583.043, 51583.043, 0.0, 9.997976, 10.001528 
2.8207853e+3, 3.142137e+2, -282084.44, 152133.19, 24609.014, -0.03634758, -0.36643896, 153523.44, 153523.44, 0.0, 9.996844, 10.002507 
2.820351e+3, 3.2420912e+2, -267533.75, -54103.145, -68353.59, -0.06479914, 0.021191567, -34088.934, -34088.934, 0.0, 9.997909, 10.000532 
2.838562e+3, 1.3483909e+2, -1092512.1, -1034375.0, -93092.85, -0.27634296, 0.10229933, -965917.9, 652650.5, 0.00004788907, 10.002699, 10.003245 
2.838131e+3, 1.448259e+2, -1359760.8, -1868882.0, 32366.217, 0.0108785825, -0.29562, -1357711.4, 162978.1, 0.000014416294, 10.003412, 9.99657 
2.8377017e+3, 1.5481588e+2, -1209097.8, -1688602.8, 45956.75, 0.3720077, -0.08693968, -1204733.0, 218056.3, 0.000001952137, 10.003598, 9.99701 
2.8372702e+3, 1.6480492e+2, -1031085.06, -1357724.6, 54135.54, 0.37840697, -0.04159733, -1022346.7, 302550.5, 0.00000005936716, 10.003236, 9.998823 
2.8368348e+3, 1.7479286e+2, -1074248.0, -1288256.9, 57711.07, -0.09891588, -0.24439168, -1059677.3, 167337.23, 0.0, 10.002144, 9.999131 
2.8364012e+3, 1.8478245e+2, -932790.56, -1128279.3, -88126.555, -0.24903111, -0.29079834, -898928.5, 230185.6, 0.0, 10.002203, 9.999554 
2.835969e+3, 1.9477296e+2, -649984.94, -918782.3, -21292.348, -0.016892549, -0.29570788, -648308.75, 382894.1, 0.0, 10.003421, 9.999706 
2.8355372e+3, 2.0476343e+2, -638847.1, -1006112.44, 113010.57, 0.09747635, -0.2139898, -606858.94, 326434.8, 0.0, 10.003462, 9.998423 
2.8351054e+3, 2.1475361e+2, -734796.5, -979398.6, 127106.56, 0.027347244, -0.12423107, -680707.0, 154681.75, 0.0, 10.0020485, 9.998601 
2.8346735e+3, 2.2474171e+2, -825821.3, -1145474.5, 115395.7, -0.042852234, -0.15772454, -788516.7, -51009.918, 0.0, 10.0014715, 9.997074 
2.8342417e+3, 2.3472716e+2, -656913.4, -997735.1, 138581.34, -0.071499616, -0.4018813, -607677.56, 31975.893, 0.0, 10.001903, 9.997199 
2.833809e+3, 2.4471574e+2, -433438.16, -681079.9, 61265.465, -0.07762836, -0.38493073, -419110.3, 122658.56, 0.0, 10.00207, 9.998632 
2.8333756e+3, 2.5470755e+2, -330465.22, -550383.75, 7033.608, -0.091478795, -0.15913135, -330240.5, 113610.63, 0.0, 10.00197, 9.998903 
2.832943e+3, 2.646979e+2, -314996.94, -475953.38, 70224.43, -0.042933144, -0.081979126, -288665.9, 57279.875, 0.0, 10.001297, 9.99907 
2.8325117e+3, 2.7468613e+2, -378333.7, -447832.84, 134074.22, 0.07328416, -0.25055766, -274579.0, -26517.908, 0.0, 10.000156, 9.999147 
2.8320795e+3, 2.8467637e+2, -322709.03, -252366.17, 117373.37, 0.21804665, -0.23604374, -165007.86, -14852.265, 0.0, 9.999371, 10.000198 
2.8316465e+3, 2.9466864e+2, -231747.52, -135129.69, 100630.89, 0.38497752, -0.10422218, -71812.766, -19585.195, 0.0, 9.999208, 10.000407 
2.831211e+3, 3.0465946e+2, -210037.73, -133577.92, 122240.445, 0.2818938, -0.076277755, -43728.742, -43728.742, 0.0, 9.998922, 9.999888 
2.830775e+3, 3.146488e+2, -171529.88, -39808.266, -1892.2942, 0.060302794, -0.26296732, -39781.086, -39781.086, 0.0, 9.998588, 10.000373 
2.8303412e+3, 3.2464096e+2, -306252.22, -131828.73, -104650.625, 0.10858474, -0.06567995, -82814.05, -82814.05, 0.0, 9.99782, 10.000075 
2.848558e+3, 1.352713e+2, -1430913.8, -1714769.3, 168299.7, -0.008660484, 0.026467795, -1352686.4, 261636.88, 0.000025215255, 10.002527, 9.9987 
2.8481278e+3, 1.4525591e+2, -785657.2, -1406247.1, -80255.89, 0.10940945, -0.4600654, -775446.4, 741031.4, 0.000007550391, 10.006549, 9.998236 
2.8476962e+3, 1.5524894e+2, -805126.75, -1327350.3, 53889.414, 0.26524982, -0.108183384, -799623.75, 618918.25, 0.0000012508747, 10.005648, 9.9985 
2.8472635e+3, 1.6523916e+2, -898627.75, -1355307.9, 115974.0, 0.22605133, 0.01830931, -870864.0, 449775.34, 0.000000073245815, 10.0044365, 9.998244 
2.846828e+3, 1.7522645e+2, -990109.06, -1317742.0, 100526.48, -0.11415847, -0.18027042, -961724.0, 261044.81, 0.0, 10.003027, 9.998495 
2.8463948e+3, 1.8521585e+2, -869579.4, -1052352.1, 3109.0618, -0.19465359, -0.22315195, -869526.5, 255345.34, 0.0, 10.002487, 9.999927 
2.8459632e+3, 1.952069e+2, -705491.75, -910172.3, -14998.751, 0.023162883, -0.22059907, -704398.5, 322555.03, 0.0, 10.002903, 10.000016 
2.8455317e+3, 2.0519729e+2, -703026.5, -1060409.8, 42962.902, 0.14498639, -0.15048361, -697934.25, 231111.22, 0.0, 10.003155, 9.998178 
2.8451e+3, 2.1518674e+2, -581793.2, -941165.4, 31680.04, 0.13657236, -0.13436696, -579021.9, 252128.17, 0.0, 10.003283, 9.998252 
2.844667e+3, 2.2517547e+2, -621612.1, -946508.9, 49242.688, 0.030683788, -0.13375427, -614312.7, 118949.49, 0.0, 10.002465, 9.997959 
2.8442332e+3, 2.3516294e+2, -714062.3, -927647.44, 94039.414, -0.16291541, -0.28848487, -678559.2, -43172.06, 0.0, 10.00111, 9.998063 
2.8437996e+3, 2.4515207e+2, -705473.94, -850764.56, 78914.945, -0.24047834, -0.2432964, -670858.3, -133361.0, 0.0, 10.000406, 9.9982605 
2.8433666e+3, 2.5514263e+2, -636136.8, -752003.75, 88816.555, -0.16802968, -0.10908097, -588029.44, -148434.86, 0.0, 10.000161, 9.998368 
2.8429344e+3, 2.651331e+2, -434341.13, -380341.47, 125440.484, -0.041926797, -0.045462433, -279028.0, 62658.574, 0.0, 9.999883, 10.000386 
2.842503e+3, 2.751229e+2, -360679.3, -284938.6, 101469.27, 0.13589336, -0.21068019, -214503.0, 29276.197, 0.0, 9.999673, 10.000475 
2.8420693e+3, 2.8511354e+2, -396694.25, -305827.75, 42934.46, 0.2124254, -0.2122092, -288750.63, -142885.36, 0.0, 9.99898, 9.999995 
2.8416342e+3, 2.9510477e+2, -417454.7, -255507.94, 2355.545, 0.18597512, -0.19873287, -255473.69, -207526.3, 0.0, 9.998091, 10.000109 
2.8411984e+3, 3.0509502e+2, -551764.06, -497759.78, 46734.9, 0.09635892, -0.12658352, -470787.25, -470787.25, 0.0, 9.997506, 9.998047 
2.8407657e+3, 3.1508392e+2, -530174.25, -438921.47, 6109.998, 0.2165453, -0.18667643, -438514.16, -438514.16, 0.0, 9.99717, 9.99829 
2.840329e+3, 3.2507247e+2, -448271.94, -188083.89, -26498.29, 0.04502307, -0.27429438, -185412.66, -185412.66, 0.0, 9.996893, 10.000079 
2.8585553e+3, 1.3570243e+2, -1566992.1, -2447988.8, 445227.16, 0.27462795, -0.14054148, -1381179.0, 228909.56, 0.000013079658, 10.004459, 9.992757 
2.8581244e+3, 1.456862e+2, -755215.94, -1079945.3, -62791.766, 0.053840827, -0.56311744, -743497.06, 768767.5, 0.0000037431412, 10.005413, 10.00102 
2.8576896e+3, 1.556818e+2, -739377.2, -1025577.0, 42536.086, -0.042364128, -0.22073637, -733189.1, 681104.8, 0.00000051506584, 10.00493, 10.000922 
2.857256e+3, 1.6567357e+2, -948871.9, -1433370.5, 60884.11, -0.05233738, -0.026099779, -941338.06, 375037.53, 0.00000002542409, 10.004314, 9.997769 
2.8568223e+3, 1.7566203e+2, -998192.75, -1381036.6, 82800.59, -0.10123518, -0.046383303, -981052.2, 237447.86, 0.0, 10.003235, 9.997956 
2.8563893e+3, 1.8565144e+2, -847422.7, -1077204.3, 45155.633, -0.07229677, -0.04215118, -838867.44, 281738.06, 0.0, 10.002794, 9.999598 
2.8559572e+3, 1.9564143e+2, -735870.56, -977887.56, 45899.223, 0.04787582, -0.09056942, -727458.06, 295239.6, 0.0, 10.002912, 9.999548 
2.8555256e+3, 2.0563048e+2, -695911.2, -1081749.5, 72574.93, 0.103547975, -0.11741756, -682711.6, 242093.81, 0.0, 10.003263, 9.99799 
2.8550938e+3, 2.1561849e+2, -551932.56, -945404.4, 60213.24, 0.09037581, -0.20970266, -542924.4, 284004.0, 0.0, 10.003519, 9.998121 
2.8546605e+3, 2.2560915e+2, -455111.03, -692440.5, 15396.105, 0.020957667, -0.09231825, -454116.4, 274907.4, 0.0, 10.00284, 9.999521 
2.854226e+3, 2.3560122e+2, -554584.44, -688088.06, 70378.945, -0.103103705, 0.08196482, -524336.25, 106768.25, 0.0, 10.001457, 9.999549 
2.853791e+3, 2.4559161e+2, -586447.0, -668847.25, 89854.89, -0.2116226, 0.1252181, -528797.0, 4402.4927, 0.0, 10.000642, 9.999411 
2.8533563e+3, 2.5558087e+2, -532486.94, -576029.3, 125112.94, -0.30477607, 0.04101697, -427265.06, 8039.46, 0.0, 10.000275, 9.99954 
2.852924e+3, 2.655711e+2, -431165.88, -409797.06, 166611.97, -0.18863076, 0.03192686, -253527.28, 83869.01, 0.0, 9.999999, 10.000147 
2.852493e+3, 2.7556157e+2, -325450.7, -302100.2, 119031.3, 0.06302432, 0.0010642429, -194172.92, 45308.15, 0.0, 10.00002, 10.00021 
2.8520593e+3, 2.8555015e+2, -411181.75, -430433.84, -3743.045, 0.22003704, -0.14857036, -410479.63, -268892.25, 0.0, 9.999323, 9.999001 
2.8516236e+3, 2.9553723e+2, -486372.6, -403576.13, -66088.91, 0.28866875, -0.41833165, -366990.0, -323280.6, 0.0, 9.9980755, 9.999116 
2.851188e+3, 3.0552799e+2, -502358.9, -372972.2, 35418.6, 0.22691418, -0.30302984, -363911.16, -363911.16, 0.0, 9.997364, 9.998995 
2.8507543e+3, 3.1552097e+2, -456568.53, -302830.44, 46198.215, 0.2952193, -0.016151212, -290016.0, -290016.0, 0.0, 9.997213, 9.999224 
2.8503144e+3, 3.255086e+2, -278952.72, 50766.03, 18991.508, -0.17387256, -0.30590367, 51856.32, 51856.32, 0.0, 9.99723, 10.001628 
2.8685537e+3, 1.3613361e+2, -1054384.5, -2080795.3, 287744.6, 0.3273263, -0.38453373, -979222.06, 626642.25, 0.0000059629547, 10.007464, 9.993823 
2.8681165e+3, 1.4612275e+2, -996770.0, -1230448.1, 8348.753, -0.239707, -0.30404955, -996472.1, 511511.2, 0.0000015122073, 10.003906, 10.000721 
2.8676835e+3, 1.56115e+2, -947542.7, -1159929.6, -3320.24, -0.1181783, -0.2711246, -947490.8, 462558.5, 0.0000000966577, 10.003628, 10.000641 
2.8672504e+3, 1.6610627e+2, -954436.6, -1325036.0, 22304.422, -0.057806097, -0.16732974, -953099.06, 359035.9, 0.00000000026919006, 10.003801, 9.998775 
2.8668165e+3, 1.7609641e+2, -811490.8, -1206631.9, 88680.89, -0.09506418, -0.11847448, -792500.94, 421738.47, 0.0, 10.004126, 9.998751 
2.8663832e+3, 1.8608628e+2, -816136.25, -1079529.8, 74605.695, -0.05998527, -0.0864601, -796472.4, 319867.7, 0.0, 10.003132, 9.999398 
2.86595e+3, 1.9607584e+2, -1007085.44, -1135717.0, 90238.52, 0.060265586, -0.15840052, -960588.25, 57851.04, 0.0, 10.001223, 9.999254 
2.865518e+3, 2.0606506e+2, -1040264.56, -1202582.3, 214011.92, 0.08440373, -0.16014299, -892539.44, 28007.541, 0.0, 10.000742, 9.998363 
2.8650865e+3, 2.1605358e+2, -885238.7, -1065229.6, 234951.86, 0.049676247, -0.23107377, -723636.1, 99029.25, 0.0, 10.001091, 9.998459 
2.8646532e+3, 2.26045e+2, -727919.3, -799639.4, 121505.336, 0.01498526, -0.04483296, -637092.75, 87662.61, 0.0, 10.000907, 9.999692 
2.8642184e+3, 2.3603828e+2, -740223.7, -753707.0, 71333.88, -0.022372425, 0.22521919, -675313.6, -48487.047, 0.0, 10.00014, 9.999706 
2.863783e+3, 2.4602903e+2, -579150.0, -600765.3, 90060.35, -0.16339931, 0.27028516, -499251.13, 29665.889, 0.0, 10.0004835, 9.999917 
2.863347e+3, 2.5601766e+2, -363548.38, -466094.84, 69457.41, -0.3605717, 0.04691307, -328489.25, 102535.625, 0.0, 10.001349, 9.999764 
2.8629142e+3, 2.6600772e+2, -336607.56, -415211.88, 71613.9, -0.27737173, 0.03942009, -294220.0, 38896.41, 0.0, 10.000935, 9.999629 
2.862483e+3, 2.7599847e+2, -419458.0, -418486.4, 36724.766, -0.0035655112, 0.05187256, -382244.22, -147044.42, 0.0, 9.999728, 9.999536 
2.862049e+3, 2.8598604e+2, -361503.44, -455772.34, -32959.195, 0.18906559, -0.1395066, -351122.97, -213806.6, 0.0, 9.999932, 9.998519 
2.8616136e+3, 2.9597098e+2, -154708.39, -305972.97, -18598.68, 0.32879254, -0.58168656, -152455.16, -112995.28, 0.0, 10.000664, 9.998535 
2.861177e+3, 3.0596268e+2, -120307.08, -83342.43, 77799.77, 0.28048208, -0.38125712, -21859.75, -21859.75, 0.0, 9.999595, 9.999882 
2.8607422e+3, 3.1595922e+2, -406912.28, -192950.1, 83511.34, 0.27489477, 0.16397503, -164214.2, -164214.2, 0.0, 9.997241, 9.9999485 
2.8603005e+3, 3.259452e+2, -217296.33, 256916.55, 49782.098, -0.37517223, -0.41367796, 262086.23, 262086.23, 0.0, 9.996972, 10.00315 
2.87855e+3, 1.3656695e+2, -1081028.8, -1771032.5, -26996.316, 0.1588852, -0.45144767, -1079974.1, 521646.9, 0.0000021473002, 10.00588, 9.996714 
2.878108e+3, 1.4656088e+2, -1084213.1, -1389311.6, 10273.027, -0.5611255, 0.035807673, -1083867.6, 419818.22, 0.00000043033984, 10.003801, 9.9996805 
2.8776777e+3, 1.5654817e+2, -1048002.9, -1301952.3, 25291.16, -0.14135467, -0.30870482, -1045508.6, 360299.3, 0.000000019645139, 10.003334, 9.999812 
2.8772455e+3, 1.6653852e+2, -923428.8, -1118700.4, 52634.082, -0.0061808536, -0.35281116, -910145.3, 397755.56, 0.0, 10.003183, 10.000487 
2.876811e+3, 1.7653039e+2, -851178.3, -1065837.4, 117657.99, -0.15428741, -0.28148824, -799250.06, 410729.9, 0.0, 10.003157, 10.00018 
2.8763765e+3, 1.8652076e+2, -859018.5, -1097923.0, 15922.944, -0.1282168, -0.26917285, -857961.9, 254113.19, 0.0, 10.002783, 9.999457 
2.875942e+3, 1.9650997e+2, -953846.75, -1101420.9, 70931.09, 0.028254632, -0.35839686, -925282.7, 88898.46, 0.0, 10.001515, 9.999364 
2.8755096e+3, 2.065008e+2, -894845.3, -982993.1, 247476.14, 0.045094818, -0.2765206, -687549.06, 228723.6, 0.0, 10.001107, 9.99968 
2.875078e+3, 2.1649207e+2, -766166.9, -903232.7, 269312.1, -0.04517333, -0.1758508, -556804.5, 261556.1, 0.0, 10.001438, 9.999405 
2.8746444e+3, 2.264828e+2, -760543.1, -928594.1, 116083.875, -0.021520915, -0.042013142, -701265.6, 19192.54, 0.0, 10.001151, 9.998689 
2.87421e+3, 2.3647332e+2, -749106.75, -854382.2, 83828.28, 0.045199964, 0.07089082, -702760.06, -80200.51, 0.0, 10.000459, 9.998869 
2.8737754e+3, 2.4646293e+2, -513316.53, -593241.9, 153718.86, -0.06507334, 0.04561618, -394450.7, 130210.31, 0.0, 10.000984, 9.999763 
2.8733405e+3, 2.5645158e+2, -249946.9, -436860.38, 115572.234, -0.2825486, -0.12658371, -194772.88, 231993.88, 0.0, 10.00217, 9.999605 
2.8729066e+3, 2.6644084e+2, -235889.31, -387770.97, 29583.479, -0.25650987, -0.20259306, -230330.5, 98536.89, 0.0, 10.001672, 9.999472 
2.872473e+3, 2.7643043e+2, -327732.75, -370063.5, 5233.6587, -0.08777107, -0.26534647, -327095.28, -96130.35, 0.0, 10.00029, 9.999606 
2.8720388e+3, 2.864207e+2, -99501.94, -129589.07, 64966.855, 0.03405394, -0.2901013, -47859.664, 85197.414, 0.0, 10.000853, 10.000323 
2.8716043e+3, 2.964107e+2, 269715.3, 76775.94, 98005.56, 0.10841007, -0.3785777, 310764.66, 345917.38, 0.0, 10.002773, 10.00016 
2.8711668e+3, 3.0640376e+2, 201790.56, 114871.9, 55509.094, 0.0627672, -0.13362417, 228829.27, 228829.27, 0.0, 10.0015745, 10.000299 
2.8707293e+3, 3.1639913e+2, -168660.34, -49410.215, 59172.0, 0.10389758, 0.28761837, -25032.459, -25032.459, 0.0, 9.998679, 10.000263 
2.870293e+3, 3.2638392e+2, -203062.84, 49441.773, 91327.13, 0.042847544, -0.31475094, 79010.81, 79010.81, 0.0, 9.997927, 10.001271 
2.888544e+3, 1.3700485e+2, -923571.8, -1120937.3, -127235.49, -0.021165853, 0.018667512, -861235.44, 736115.5, 0.0000003382392, 10.0044565, 10.00185 
2.8881076e+3, 1.4699608e+2, -1083287.3, -1445515.9, -2350.8901, -0.034637526, 0.05656359, -1083272.0, 416153.97, 0.000000039050374, 10.00403, 9.999176 
2.8876707e+3, 1.5698408e+2, -1083938.6, -1355830.9, 7961.633, -0.2360463, -0.16093753, -1083705.6, 317837.97, 0.0000000006124831, 10.003221, 9.999508 
2.8872374e+3, 1.6697468e+2, -1109458.3, -1065034.6, 32210.316, -0.10693162, -0.23731206, -1048120.1, 255511.0, 0.0, 10.001323, 10.001721 
2.8868043e+3, 1.769665e+2, -1402643.3, -1223675.6, 90189.49, 0.020093907, -0.30309376, -1186110.3, 19594.988, 0.0, 9.998922, 10.0011215 
2.8863698e+3, 1.8695766e+2, -1185188.1, -1207368.9, 98180.04, 0.014792791, -0.26970556, -1097474.0, 10317.692, 0.0, 10.000386, 9.999851 
2.8859353e+3, 1.9694802e+2, -648864.1, -921895.56, 142639.55, 0.038102806, -0.29217604, -587939.75, 421948.5, 0.0, 10.003492, 9.999652 
2.8855023e+3, 2.0693891e+2, -669654.75, -837796.5, 222884.27, 0.04895209, -0.22631392, -515512.88, 396464.94, 0.0, 10.002553, 9.999979 
2.88507e+3, 2.1693005e+2, -1022879.5, -1008312.75, 189087.77, 0.0330162, -0.1755092, -826368.1, -12304.315, 0.0, 9.999655, 9.999537 
2.884636e+3, 2.2692008e+2, -937136.94, -990105.3, 145138.88, 0.00092638977, -0.12677999, -816085.7, -99919.79, 0.0, 9.999871, 9.998883 
2.8842008e+3, 2.3690934e+2, -676921.0, -832972.9, 198584.02, -0.000983998, -0.15407051, -541584.2, 76694.04, 0.0, 10.001061, 9.998729 
2.8837672e+3, 2.4689893e+2, -496543.13, -599564.1, 312243.56, -0.059362732, -0.1492539, -231589.75, 288790.56, 0.0, 10.001189, 9.999604 
2.883334e+3, 2.5688824e+2, -509058.84, -596086.56, 274325.75, -0.17439742, -0.23581132, -274817.28, 147663.63, 0.0, 10.000593, 9.999255 
2.882899e+3, 2.6687714e+2, -366086.88, -455446.97, 165271.66, -0.21214671, -0.30985358, -239562.3, 85024.87, 0.0, 10.0008745, 9.999369 
2.8824633e+3, 2.768656e+2, -236495.05, -333688.78, 157514.02, -0.16139719, -0.46866193, -120251.64, 106446.37, 0.0, 10.001022, 9.999485 
2.882029e+3, 2.8685758e+2, -391.5423, 29836.283, 209805.48, -0.103992045, -0.35857043, 225071.53, 353847.06, 0.0, 10.001103, 10.001278 
2.8815955e+3, 2.9685095e+2, 31625.28, 33828.688, 130635.99, -0.05324156, -0.21218114, 163367.63, 194207.33, 0.0, 10.000875, 10.00077 
2.881157e+3, 3.0684447e+2, 5382.097, 38573.395, -77796.22, -0.076953635, 0.049839973, 101524.38, 101524.38, 0.0, 10.00022, 10.000417 
2.8807178e+3, 3.1683823e+2, -217936.2, -142749.84, -47796.11, 0.024415204, 0.29663503, -119534.18, -119534.18, 0.0, 9.9987135, 9.999602 
2.880286e+3, 3.2682306e+2, -390994.63, -280565.88, 133099.27, 0.43739468, -0.19354877, -191682.92, -191682.92, 0.0, 9.99786, 9.998949 
2.8985396e+3, 1.3744256e+2, -873563.2, -589395.75, -83013.88, 0.029984282, 0.4195799, -566922.2, 1026159.2, 0.0000000028010363, 10.002606, 10.006402 
2.8981084e+3, 1.4743043e+2, -1226708.3, -1547101.3, -8024.2617, 0.5787415, -0.02294671, -1226507.4, 268668.8, 0.0, 10.003187, 9.998879 
2.8976625e+3, 1.5742119e+2, -1128311.3, -1359612.0, 13209.46, -0.44624734, 0.06805398, -1127559.3, 269708.44, 0.0, 10.002828, 9.999673 
2.8972277e+3, 1.6741242e+2, -1010365.94, -891611.4, -35060.84, -0.27257228, -0.030323384, -882032.7, 417314.2, 0.0, 10.001444, 10.002856 
2.8967968e+3, 1.774038e+2, -1253319.4, -1041582.5, 63183.78, 0.26702362, -0.23930043, -1024161.4, 177260.48, 0.0, 9.999464, 10.002109 
2.896363e+3, 1.8739627e+2, -1086984.5, -1082068.8, 218041.0, 0.22025418, -0.15236464, -866471.8, 237023.11, 0.0, 10.000686, 10.000578 
2.8959292e+3, 1.9738889e+2, -637770.9, -861734.0, 215619.53, -0.011851999, -0.002220316, -506788.13, 498781.9, 0.0, 10.003286, 10.000179 
2.8954962e+3, 2.0737845e+2, -701581.8, -898904.2, 113156.96, 0.086441234, -0.06703468, -650114.6, 257556.36, 0.0, 10.002477, 9.999616 
2.895063e+3, 2.1736677e+2, -968663.56, -963808.6, 136202.7, 0.251764, -0.25695977, -830011.75, -20229.23, 0.0, 9.999887, 9.999749 
2.8946272e+3, 2.2735643e+2, -774080.25, -725849.44, 214040.67, 0.047111955, -0.3579693, -534569.94, 177312.36, 0.0, 10.000154, 10.000572 
2.8941905e+3, 2.3734652e+2, -486224.13, -577562.06, 271535.66, -0.28828615, -0.4516553, -256543.72, 357435.44, 0.0, 10.001596, 10.000243 
2.8937578e+3, 2.4733818e+2, -427530.63, -537577.6, 321228.97, -0.22032973, -0.31914726, -156646.7, 359415.9, 0.0, 10.001493, 9.99989 
2.8933266e+3, 2.5733012e+2, -443843.5, -509497.72, 306768.5, -0.040432647, -0.15723766, -168150.69, 249992.84, 0.0, 10.00075, 9.999778 
2.8928918e+3, 2.673201e+2, -282080.78, -360267.3, 270353.28, -0.07631802, -0.16985723, -48008.938, 272232.72, 0.0, 10.00119, 9.999881 
2.8924555e+3, 2.7730903e+2, -53956.44, -225710.31, 269581.84, -0.18699999, -0.3000995, 143096.33, 365445.72, 0.0, 10.002162, 9.999677 
2.8920218e+3, 2.872991e+2, -27740.518, -161854.17, 246006.05, -0.070511416, -0.2810629, 160184.22, 284629.84, 0.0, 10.001639, 9.999708 
2.8915885e+3, 2.9728982e+2, -95699.46, -155844.06, 126581.99, 0.12610905, -0.2318109, 4333.37, 30869.195, 0.0, 10.000521, 9.999633 
2.89115e+3, 3.0728096e+2, -39816.375, -17327.477, -63650.344, 0.219856, -0.14859034, 36064.008, 36064.008, 0.0, 10.00007, 10.000124 
2.8907117e+3, 3.1727213e+2, -63027.84, -116662.42, -56376.9, 0.4114865, -0.08839691, -27414.994, -27414.994, 0.0, 9.999959, 9.999236 
2.8902745e+3, 3.2726043e+2, -176804.0, -229893.67, 76173.664, 0.35508996, -0.12940954, -122682.516, -122682.516, 0.0, 9.999446, 9.998654 
2.9085314e+3, 1.3787661e+2, -1420779.5, -1211685.9, 133773.89, 0.047794316, 0.14669773, -1146452.0, 442359.97, 0.00000000011876347, 10.000386, 10.003219 
2.9080987e+3, 1.4786474e+2, -1308648.9, -1500972.0, 21985.182, 0.28836292, -0.19130409, -1306167.8, 184745.31, 0.0, 10.002282, 9.999638 
2.9076573e+3, 1.5785651e+2, -1162107.9, -1317194.4, 58201.777, -0.2869198, -0.07125581, -1142695.4, 250300.97, 0.0, 10.00237, 10.000179 
2.907221e+3, 1.6784862e+2, -933574.7, -916717.1, -44690.79, -0.18900603, -0.06307496, -879667.25, 415402.38, 0.0, 10.002259, 10.002289 
2.9067865e+3, 1.7784059e+2, -971686.06, -956770.75, -6286.118, 0.13185233, -0.17033851, -954474.9, 242666.88, 0.0, 10.001639, 10.001649 
2.9063538e+3, 1.8783273e+2, -1135801.5, -1071820.1, 148858.6, 0.13372298, -0.11920893, -951553.56, 147663.73, 0.0, 10.000241, 10.000846 
2.9059213e+3, 1.9782494e+2, -1324505.8, -1171689.9, 117273.26, 0.041811373, -0.058631122, -1108129.3, -106834.78, 0.0, 9.998514, 10.000325 
2.905488e+3, 2.0781475e+2, -1194623.5, -1112673.8, 17032.389, 0.16561322, -0.1319448, -1109274.6, -205881.56, 0.0, 9.998998, 9.999797 
2.9050544e+3, 2.1780331e+2, -968894.44, -969085.5, 85049.14, 0.359142, -0.33430442, -883940.75, -78437.37, 0.0, 9.9999275, 9.999681 
2.9046184e+3, 2.2779362e+2, -691688.0, -672239.06, 141874.23, 0.05869565, -0.38148358, -539756.4, 167840.69, 0.0, 10.000721, 10.00063 
2.9041815e+3, 2.3778456e+2, -566338.9, -598941.1, 67654.82, -0.39193994, -0.43633938, -513049.06, 96635.39, 0.0, 10.001034, 10.000343 
2.9037493e+3, 2.477771e+2, -544251.5, -500449.88, 67405.44, -0.25835073, -0.29122654, -451476.6, 60281.715, 0.0, 10.0004, 10.000613 
2.9033187e+3, 2.5777006e+2, -677869.75, -573753.44, 109249.66, 0.07884404, -0.12993036, -504792.8, -90963.41, 0.0, 9.999022, 10.000135 
2.902884e+3, 2.6776114e+2, -424518.7, -388082.84, 152674.11, -0.011760767, -0.086924635, -252543.58, 63374.31, 0.0, 10.00006, 10.000217 
2.902448e+3, 2.7775103e+2, -212383.75, -340371.84, 132272.47, -0.2390006, -0.18059342, -129438.21, 88578.88, 0.0, 10.001248, 9.99934 
2.9020143e+3, 2.8774005e+2, -141902.13, -315173.72, 95088.78, -0.04710261, -0.21343999, -99900.3, 20222.553, 0.0, 10.001363, 9.998761 
2.901581e+3, 2.9772857e+2, -165722.84, -293794.84, 66652.57, 0.26066297, -0.28919896, -137329.55, -115097.15, 0.0, 10.000591, 9.998616 
2.9011372e+3, 3.077165e+2, 49355.746, 46418.453, -35470.418, -0.14075698, -0.5108148, 83387.91, 83387.91, 0.0, 10.0006895, 10.000177 
2.9006925e+3, 3.1770492e+2, -104202.96, -248199.36, 52539.74, -0.5169538, -0.7051812, -87071.12, -87071.12, 0.0, 10.000294, 9.998093 
2.9002616e+3, 3.2769343e+2, -120232.57, -91376.52, 321926.88, 0.021658795, -0.73166674, 216445.48, 216445.48, 0.0, 9.999513, 9.999444 
2.9185203e+3, 1.3830993e+2, -1739788.0, -1780511.9, 175434.11, -0.20855153, -0.19583352, -1583538.1, 1006.16, 0.0000000000007792345, 10.000004, 9.999501 
2.9180863e+3, 1.48299e+2, -1430167.9, -1429343.5, 5204.7954, -0.20601225, -0.38197622, -1424534.5, 62111.746, 0.0, 10.000888, 10.000804 
2.917653e+3, 1.582911e+2, -1312932.0, -1342060.4, 38511.156, -0.012086846, -0.32780018, -1286323.1, 102404.52, 0.0, 10.001116, 10.00062 
2.917215e+3, 1.682841e+2, -1111761.9, -1128071.0, -75108.56, -0.09110468, -0.18198904, -1044366.5, 246429.92, 0.0, 10.00157, 10.0011635 
2.916775e+3, 1.7827703e+2, -1037405.7, -1075218.6, -26958.334, -0.28068668, -0.07657226, -1023384.9, 169479.63, 0.0, 10.00152, 10.000907 
2.9163423e+3, 1.8826745e+2, -1098227.4, -1029951.1, 86333.086, -0.11870234, -0.18709981, -971251.7, 123703.61, 0.0, 10.000377, 10.001069 
2.9159117e+3, 1.9825734e+2, -1252901.1, -1089604.4, 93394.12, 0.123317584, -0.37298617, -1047200.7, -50149.156, 0.0, 9.99877, 10.00077 
2.9154786e+3, 2.0824865e+2, -1093260.1, -976610.3, 62771.867, 0.24164905, -0.36464196, -949249.2, -50111.85, 0.0, 9.999263, 10.000627 
2.9150447e+3, 2.1824005e+2, -894115.9, -911584.44, 132465.47, 0.28335363, -0.33987027, -770097.06, 31126.291, 0.0, 10.000294, 9.999918 
2.9146102e+3, 2.2823189e+2, -773575.5, -898854.7, 156786.02, 0.060562126, -0.13562147, -667379.2, 35931.188, 0.0, 10.000932, 9.998995 
2.914175e+3, 2.3822363e+2, -550523.7, -648605.44, 54734.59, -0.24526383, 0.05309097, -526073.9, 79324.61, 0.0, 10.001325, 9.999884 
2.9137418e+3, 2.4821462e+2, -441400.0, -299335.6, -4125.51, -0.1252171, -0.040686034, -299215.88, 208267.45, 0.0, 10.000396, 10.002012 
2.9133087e+3, 2.5820547e+2, -562981.5, -390229.0, 70282.2, 0.10267784, -0.21221618, -365247.97, 44319.117, 0.0, 9.99917, 10.001347 
2.9128742e+3, 2.6819706e+2, -425667.9, -361266.78, 180398.55, -0.06399146, -0.18409681, -210217.47, 101433.52, 0.0, 9.999885, 10.000504 
2.9124388e+3, 2.781886e+2, -158089.64, -223640.03, 133159.38, -0.33066094, -0.14246905, -53731.2, 160004.89, 0.0, 10.001184, 10.000179 
2.9120064e+3, 2.8817865e+2, 2183.496, -103173.31, 106348.05, -0.03716351, -0.18774536, 68185.01, 184011.56, 0.0, 10.001693, 10.00008 
2.9115722e+3, 2.9816744e+2, 65879.484, 68725.016, 89683.484, 0.23160093, -0.36908194, 156997.02, 174922.92, 0.0, 10.001011, 10.0009165 
2.9285127e+3, 1.3874382e+2, -1526198.9, -1280134.1, -39078.33, -0.054876443, -0.13331623, -1274077.0, 306215.3, 0.0, 9.999767, 10.003038 
2.928077e+3, 1.4873299e+2, -1745880.0, -1518579.1, -40963.266, -0.14916784, -0.46878, -1511422.3, -29031.416, 0.0, 9.998447, 10.001364 
2.9276448e+3, 1.587274e+2, -1717415.1, -1500229.5, -24238.064, 0.17064191, -0.24808358, -1497557.4, -113106.65, 0.0, 9.998189, 10.000937 
2.9272068e+3, 1.6871949e+2, -1414051.4, -1283048.5, -72353.25, 0.019587936, -0.20379277, -1250951.6, 35575.97, 0.0, 9.999549, 10.001068 
2.926767e+3, 1.7871107e+2, -1119151.9, -1112991.1, -5467.018, -0.27782953, -0.2289436, -1109796.4, 78811.71, 0.0, 10.000976, 10.000908 
2.9263338e+3, 1.8870229e+2, -962993.44, -935512.94, 74468.75, -0.12500602, -0.2837249, -873527.44, 217164.13, 0.0, 10.001188, 10.00132 
2.925903e+3, 1.9869304e+2, -971617.5, -940765.6, 92934.95, 0.20124424, -0.409944, -861985.06, 130794.26, 0.0, 10.000643, 10.000898 
2.9254693e+3, 2.0868501e+2, -854626.7, -804949.75, 95771.625, 0.22573942, -0.3678415, -730848.06, 164011.06, 0.0, 10.000729, 10.001076 
2.9250348e+3, 2.1867727e+2, -870584.6, -889845.94, 146296.31, 0.15269144, -0.3081302, -733602.3, 63335.703, 0.0, 10.000462, 9.999981 
2.9246014e+3, 2.2866932e+2, -791852.4, -924996.3, 259443.22, 0.020746538, -0.0717144, -590576.25, 108448.64, 0.0, 10.000903, 9.998821 
2.9241684e+3, 2.3866118e+2, -621539.25, -699844.0, 222102.2, -0.10583723, 0.1482709, -435164.9, 165949.67, 0.0, 10.000955, 9.999707 
2.9237336e+3, 2.4865152e+2, -500878.53, -290195.22, 68756.86, -0.018714178, -0.0051725395, -269741.94, 233463.11, 0.0, 9.999875, 10.0023155 
2.9232985e+3, 2.5864154e+2, -697834.3, -443186.6, 103551.96, 0.12108055, -0.3013519, -406393.5, -1098.1582, 0.0, 9.998264, 10.001408 
2.922865e+3, 2.6863378e+2, -420334.44, -342137.63, 243280.5, -0.08985829, -0.20730445, -134833.75, 172540.73, 0.0, 9.999933, 10.000577 
2.9224303e+3, 2.786265e+2, -80046.7, -131463.86, 144964.95, -0.36838695, -0.08365635, 41471.65, 250922.16, 0.0, 10.001546, 10.000627 
2.9219982e+3, 2.8861722e+2, -10051.645, 19305.521, 31709.324, -0.053738188, -0.16393432, 39568.918, 151100.36, 0.0, 10.001156, 10.001124 
2.9215622e+3, 2.986066e+2, -59771.406, 248805.55, -69310.9, 0.113773555, -0.4708984, 263658.84, 277278.88, 0.0, 9.999168, 10.00304 
2.9385057e+3, 1.3917768e+2, -1306487.6, -701603.75, -68906.414, 0.17128693, -0.08514552, -693853.5, 882190.44, 0.0, 9.999252, 10.007257 
2.9380676e+3, 1.4916737e+2, -1706501.8, -1456564.5, 22040.947, 0.0025738988, -0.50479734, -1454635.6, 23498.762, 0.0, 9.998503, 10.001776 
2.9376343e+3, 1.5916444e+2, -1663911.9, -1430736.3, 47343.617, 0.22284478, -0.045891803, -1421490.4, -41321.168, 0.0, 9.998339, 10.001355 
2.937198e+3, 1.6915469e+2, -1357824.6, -1214880.8, 29383.479, 0.13150428, -0.2218565, -1209076.4, 73184.86, 0.0, 9.999729, 10.001464 
2.9367602e+3, 1.7914392e+2, -1070812.6, -1040378.56, 63707.438, -0.12503093, -0.51354903, -990096.0, 194265.89, 0.0, 10.001054, 10.001387 
2.9363266e+3, 1.8913752e+2, -944078.1, -887562.8, 66741.76, -0.022862399, -0.36998072, -843343.2, 243080.64, 0.0, 10.001117, 10.0016985 
2.9358944e+3, 1.9913146e+2, -938109.0, -881445.9, 85495.0, 0.17060672, -0.20417583, -819710.4, 168772.63, 0.0, 10.000649, 10.001313 
2.9354596e+3, 2.091232e+2, -835820.7, -776415.3, 88121.83, 0.08811451, -0.209226, -713124.94, 177439.66, 0.0, 10.000774, 10.001248 
2.935024e+3, 2.1911444e+2, -759242.1, -753220.7, 155106.97, -0.0849936, -0.26702705, -601095.2, 191556.55, 0.0, 10.000809, 10.000767 
2.9345927e+3, 2.2910552e+2, -634434.56, -674639.7, 272949.03, -0.074148044, -0.26110333, -380848.8, 313893.4, 0.0, 10.001138, 10.00047 
2.934161e+3, 2.3909658e+2, -501133.06, -555902.5, 202695.47, -0.047653932, -0.25942457, -323980.78, 272852.7, 0.0, 10.0013, 10.000571 
2.9337248e+3, 2.4908769e+2, -584312.75, -489129.56, 7735.9893, 0.046751834, -0.27166182, -488504.9, 10415.373, 0.0, 9.999913, 10.000969 
2.9332882e+3, 2.5907886e+2, -710932.75, -548806.06, 103055.48, 0.1383275, -0.31432542, -498752.28, -97746.055, 0.0, 9.99851, 10.000593 
2.9328564e+3, 2.690716e+2, -419179.25, -406712.84, 313863.34, -0.01988128, -0.11474501, -99020.8, 204063.36, 0.0, 10.000135, 10.000069 
2.9324248e+3, 2.7906433e+2, 14750.741, -115874.266, 114633.914, -0.23624942, 0.06091533, 81372.53, 286534.88, 0.0, 10.002197, 10.000462 
2.9319903e+3, 2.8905308e+2, -79357.914, -87316.99, -114205.82, -0.013185604, -0.18452263, 30937.678, 138204.16, 0.0, 10.00084, 10.000625 
2.9315525e+3, 2.990434e+2, -16854.51, 107170.34, -164735.63, 0.1470084, -0.32707903, 221178.86, 230530.1, 0.0, 9.999924, 10.001794 
2.9484963e+3, 1.3961658e+2, -1492967.8, -1147654.4, 112253.97, 0.26008233, -0.29539576, -1114371.1, 457362.63, 0.0, 9.999479, 10.0041065 
2.9480577e+3, 1.4960803e+2, -1624001.0, -1461371.0, 211452.38, 0.06837317, -0.39115918, -1316137.5, 157676.69, 0.0, 9.999274, 10.001379 
2.9476234e+3, 1.5960386e+2, -1533022.5, -1403662.9, 222993.38, 0.1797871, 0.001370107, -1236158.5, 139701.56, 0.0, 9.999396, 10.001049 
2.9471886e+3, 1.6959316e+2, -1284943.6, -1201582.3, 216678.88, 0.12129099, -0.23049001, -1022611.6, 255348.08, 0.0, 10.000348, 10.001255 
2.946753e+3, 1.7958154e+2, -1124588.1, -1140543.3, 182827.98, -0.029026454, -0.5672754, -949563.75, 230503.81, 0.0, 10.001025, 10.000698 
2.946319e+3, 1.8957452e+2, -1164783.5, -1101863.1, 89618.836, 0.0647108, -0.3844017, -1038342.9, 43795.81, 0.0, 10.000099, 10.000705 
2.9458854e+3, 1.995681e+2, -1276754.3, -1136145.4, 60081.723, 0.23964635, -0.16583821, -1113969.9, -129764.92, 0.0, 9.998747, 10.000482 
2.9454497e+3, 2.0955908e+2, -1074978.3, -939181.1, 50456.73, 0.04795242, -0.20728153, -922485.94, -36190.805, 0.0, 9.999333, 10.000824 
2.945014e+3, 2.1954967e+2, -947344.1, -859974.06, 76428.445, -0.17608392, -0.3036199, -815626.8, -27238.205, 0.0, 9.999612, 10.000616 
2.9445836e+3, 2.2954135e+2, -712389.1, -588359.56, 158101.95, -0.1219524, -0.32119086, -480544.8, 209924.31, 0.0, 10.000157, 10.001485 
2.944153e+3, 2.395329e+2, -673031.0, -660584.1, 29976.365, -0.015319418, -0.37825972, -636192.0, -43640.51, 0.0, 10.000304, 10.000295 
2.9437163e+3, 2.4952379e+2, -329605.3, -518279.22, -160295.84, 0.049576584, -0.326583, -237947.06, 256697.34, 0.0, 10.002397, 9.9995365 
2.9432794e+3, 2.5951502e+2, -62019.387, -344558.44, -38649.977, 0.11734364, -0.2576246, -56827.656, 339907.0, 0.0, 10.003512, 9.999582 
2.9428485e+3, 2.69508e+2, -292817.3, -358528.84, 217055.48, 0.04738127, -0.016029835, -106144.97, 192665.02, 0.0, 10.001093, 9.999933 
2.9424182e+3, 2.7950054e+2, -561234.5, -435730.28, 55502.61, -0.06974898, 0.14000474, -414706.7, -213817.63, 0.0, 9.998493, 10.000031 
2.9419816e+3, 2.8948802e+2, -113500.41, -125498.02, -148511.77, -0.012861666, -0.20621367, 29133.648, 132142.33, 0.0, 10.000786, 10.000361 
2.9415444e+3, 2.9947966e+2, 185449.94, -41383.426, -8447.58, 0.15357468, -0.12544371, 185764.11, 190850.56, 0.0, 10.00256, 9.999445 
2.9584864e+3, 1.4005749e+2, -1785277.4, -1754524.1, -34577.984, 0.22258963, -0.4267177, -1732058.0, -164654.88, 0.0, 9.999434, 9.999985 
2.9580477e+3, 1.500504e+2, -1603288.9, -1534771.1, 130120.96, 0.0680519, -0.23341498, -1434474.6, 35001.35, 0.0, 9.999763, 10.000644 
2.9576123e+3, 1.6004379e+2, -1591775.0, -1508810.5, 173291.4, 0.020498408, -0.012638599, -1372105.5, -561.297, 0.0, 9.99929, 10.000392 
2.957179e+3, 1.7003284e+2, -1310321.6, -1268183.1, 192948.72, 0.035596047, -0.22577655, -1095156.8, 178488.1, 0.0, 10.000359, 10.000808 
2.9567447e+3, 1.8002151e+2, -1178447.9, -1280094.5, 128484.58, -0.041326106, -0.4765704, -1091099.9, 84649.86, 0.0, 10.0011015, 9.999712 
2.95631e+3, 1.9001211e+2, -1249974.8, -1343335.9, 5730.0293, 0.12082845, -0.38392434, -1249624.5, -171776.3, 0.0, 10.000336, 9.998943 
2.9558757e+3, 2.0000301e+2, -1285251.1, -1281294.5, 38803.23, 0.294659, -0.26264346, -1244419.1, -264474.28, 0.0, 9.999236, 9.999267 
2.9554403e+3, 2.0999297e+2, -1066110.8, -1032290.2, 64805.004, 0.076790825, -0.31549022, -982225.5, -100178.016, 0.0, 9.999698, 10.000058 
2.9550046e+3, 2.1998331e+2, -859668.25, -816701.1, 84409.445, -0.20314634, -0.37555838, -751084.2, 33061.035, 0.0, 10.000132, 10.000686 
2.9545742e+3, 2.2997706e+2, -673687.25, -545232.25, 148497.16, -0.1601014, -0.2108874, -447667.97, 238536.88, 0.0, 10.000309, 10.001714 
2.954144e+3, 2.399704e+2, -623607.4, -694356.6, 38155.598, -0.07426221, -0.08054121, -606951.06, -18681.793, 0.0, 10.000812, 9.999833 
2.953709e+3, 2.4995965e+2, -306612.63, -684140.44, -99876.95, -0.0330761, -0.07414778, -281818.06, 208565.69, 0.0, 10.003218, 9.9980545 
2.953274e+3, 2.5994888e+2, 185174.5, -238061.78, -103588.89, 0.022804603, -0.07884835, 209168.11, 601665.8, 0.0, 10.0051565, 9.99957 
2.952842e+3, 2.6994145e+2, -143630.6, -176787.97, -1927.9392, 0.15646695, 0.03325258, -143518.86, 151050.84, 0.0, 10.001565, 10.000994 
2.9524094e+3, 2.7993402e+2, -529202.8, -322195.66, -4059.3804, 0.19261219, 0.10409021, -322116.1, -125476.06, 0.0, 9.998181, 10.001002 
2.9519728e+3, 2.8992295e+2, 63523.293, 3940.747, -17913.256, -0.06156078, -0.16458605, 68494.14, 167237.55, 0.0, 10.001682, 10.000875 
2.9515386e+3, 2.9991522e+2, 431899.88, -184151.95, -29968.896, 0.05531057, 0.014089792, 433354.3, 434174.0, 0.0, 10.005173, 9.997261 
2.968476e+3, 1.4049424e+2, -1705958.8, -1764116.6, 101860.78, 0.15036657, -0.4155418, -1629107.5, -65990.41, 0.0, 10.000253, 9.999495 
2.9680395e+3, 1.504864e+2, -1427248.3, -1517918.8, -92784.46, 0.12246908, -0.26031348, -1369315.6, 95883.42, 0.0, 10.001319, 9.999992 
2.9676023e+3, 1.6047648e+2, -1622846.4, -1590933.6, 10063.104, 0.03618314, -0.3225483, -1588025.5, -220727.22, 0.0, 9.999368, 9.999791 
2.9671705e+3, 1.7046691e+2, -1364758.3, -1345568.0, 66224.17, 0.08172085, -0.3667416, -1288247.4, -18859.25, 0.0, 10.00021, 10.000348 
2.9667374e+3, 1.8045735e+2, -1199345.6, -1331869.4, -23258.193, 0.058379635, -0.42406747, -1195382.3, -23903.31, 0.0, 10.001166, 9.999325 
2.966302e+3, 1.9044791e+2, -1044778.56, -1269959.8, -112413.45, 0.12361224, -0.3291302, -998267.25, 75311.266, 0.0, 10.0019, 9.998682 
2.965867e+3, 2.0043817e+2, -928496.75, -1174892.4, 11292.144, 0.25847745, -0.24290448, -927980.3, 47701.395, 0.0, 10.002021, 9.998644 
2.9654315e+3, 2.104288e+2, -730715.0, -911483.9, 67004.586, 0.027821282, -0.18740547, -708587.4, 169192.05, 0.0, 10.002266, 9.999611 
2.9649964e+3, 2.2041942e+2, -653097.56, -773265.9, 80381.76, -0.22414427, -0.18409587, -612825.7, 167049.4, 0.0, 10.001845, 10.00015 
2.9645663e+3, 2.3041168e+2, -522022.53, -508534.03, 109999.37, -0.10791549, -0.13283753, -405072.38, 276874.16, 0.0, 10.0015135, 10.001393 
2.9641366e+3, 2.4040425e+2, -669526.56, -781715.9, 8270.141, 0.04459236, -0.05597276, -668920.2, -84903.01, 0.0, 10.0008135, 9.999246 
2.9637018e+3, 2.50394e+2, -606489.06, -858257.3, -4802.7183, -0.059984248, 0.031410463, -606397.5, -120266.84, 0.0, 10.001332, 9.997741 
2.963267e+3, 2.6038328e+2, -354176.0, -519007.84, -5776.246, -0.104089126, 0.057130095, -353973.8, 34273.35, 0.0, 10.001609, 9.999314 
2.9628348e+3, 2.7037463e+2, -28941.08, -79004.65, -45161.477, 0.17438151, 0.03419328, -2338.096, 287987.88, 0.0, 10.002198, 10.001331 
2.9624015e+3, 2.8036633e+2, -10162.628, -56126.598, 5477.1914, 0.328323, -0.026438188, -9518.964, 182880.84, 0.0, 10.001764, 10.001078 
2.961965e+3, 2.9035693e+2, 154985.5, 96649.82, 89291.23, -0.1336192, -0.16582727, 219752.14, 314237.5, 0.0, 10.002192, 10.001213 
2.9615334e+3, 3.0034837e+2, -127469.38, -621143.94, -32111.895, 0.012379605, -0.07274277, -125389.375, -125389.375, 0.0, 10.002172, 9.995661 
2.9784667e+3, 1.4093024e+2, -1750097.6, -1771046.5, 314591.75, 0.059239496, -0.28515598, -1445806.0, 113034.6, 0.0, 9.999912, 9.999602 
2.9780316e+3, 1.5091945e+2, -1527125.8, -1622064.0, -233918.42, 0.16568203, -0.3875153, -1335908.6, 125042.08, 0.0, 10.000877, 9.99949 
2.977593e+3, 1.6090666e+2, -1562763.6, -1599135.8, -39429.47, 0.06015311, -0.6938652, -1537528.3, -174451.28, 0.0, 9.999931, 9.999466 
2.9771623e+3, 1.7089899e+2, -1382805.5, -1400070.0, 89929.7, 0.15423669, -0.52020234, -1301094.8, -35941.203, 0.0, 10.000271, 9.999957 
2.9767308e+3, 1.8089123e+2, -1202165.1, -1317694.1, -24941.287, 0.12167205, -0.3549446, -1197010.6, -29779.563, 0.0, 10.001038, 9.999501 
2.9762942e+3, 1.908826e+2, -992731.44, -1172709.6, -120852.695, 0.08539869, -0.23635782, -932044.0, 137277.16, 0.0, 10.001867, 9.999405 
2.9758582e+3, 2.0087394e+2, -860127.7, -1102428.1, -4316.6074, 0.0689636, -0.105538495, -860050.8, 111361.27, 0.0, 10.002237, 9.99907 
2.975423e+3, 2.1086614e+2, -743601.6, -966430.94, 42690.793, -0.1322347, 0.13297854, -735702.7, 137792.31, 0.0, 10.002349, 9.999226 
2.9749888e+3, 2.208575e+2, -602535.5, -782759.56, 46583.18, -0.28777486, 0.24842602, -591207.06, 184375.95, 0.0, 10.002236, 9.999936 
2.9745612e+3, 2.308449e+2, -522266.8, -610907.06, 75981.266, 0.09020438, -0.1260536, -478624.3, 199072.33, 0.0, 10.001811, 10.000614 
2.974132e+3, 2.4083333e+2, -527960.75, -657142.0, -21188.408, 0.3600717, -0.4072006, -524574.2, 55229.027, 0.0, 10.001449, 9.99983 
2.9736942e+3, 2.5082654e+2, -480287.84, -636376.56, -7818.443, -0.019576719, -0.099313386, -479897.2, 1984.8053, 0.0, 10.001408, 9.999268 
2.9732573e+3, 2.6081893e+2, -302034.38, -452879.5, 18368.992, -0.30865836, 0.12581596, -299829.72, 84137.7, 0.0, 10.001656, 9.999782 
2.9728264e+3, 2.708076e+2, 18445.395, -166805.06, -3358.8909, 0.013887138, -0.101239294, 18506.277, 304579.8, 0.0, 10.0029125, 10.000449 
2.9723945e+3, 2.807967e+2, 306654.1, 89683.99, -7375.1455, 0.23047195, -0.3265329, 306904.5, 495077.6, 0.0, 10.003842, 10.00114 
2.971959e+3, 2.907888e+2, 268663.06, 189456.8, 41849.445, -0.040467136, -0.35325432, 286677.5, 376921.4, 0.0, 10.002729, 10.001653 
2.971525e+3, 3.0078134e+2, 5860.173, -181421.98, -82564.586, -0.057093915, -0.23360707, 37061.246, 37061.246, 0.0, 10.001435, 9.999065 
2.9884586e+3, 1.4135762e+2, -1853759.0, -1769845.3, 90178.664, 0.16483049, -0.51214063, -1712340.8, -157683.67, 0.0, 9.998902, 10.000134 
2.9880232e+3, 1.5135042e+2, -1466346.0, -1490010.6, -327842.97, 0.19115864, -0.36416474, -1150121.9, 306609.78, 0.0, 10.000788, 10.000472 
2.987584e+3, 1.613419e+2, -1210552.3, -1374217.9, -120047.21, -0.055410888, -0.34956032, -1147099.3, 211717.81, 0.0, 10.002107, 9.999976 
2.9871523e+3, 1.7133348e+2, -1299205.4, -1324530.3, -39.393597, 0.042502496, -0.29650056, -1299205.4, -38302.984, 0.0, 10.000709, 10.000269 
2.9867208e+3, 1.8132442e+2, -1436391.0, -1413181.0, -43956.668, 0.07090035, -0.28954273, -1379323.3, -216330.11, 0.0, 9.999358, 9.999677 
2.9862845e+3, 1.9131479e+2, -1227612.6, -1212354.5, -124147.45, -0.014226918, -0.32357565, -1095602.0, -30514.477, 0.0, 9.999933, 10.000078 
2.9858485e+3, 2.013058e+2, -1134512.4, -1227794.9, -4855.8135, -0.089017786, -0.2944876, -1134260.4, -167084.0, 0.0, 10.000342, 9.999122 
2.985415e+3, 2.1129711e+2, -868006.2, -1107724.8, 34584.215, -0.23823027, -0.10814119, -863116.44, 6147.457, 0.0, 10.001822, 9.998521 
2.984982e+3, 2.2128826e+2, -655068.9, -890803.25, 5145.533, -0.25312606, 0.03905965, -654956.6, 116394.99, 0.0, 10.002299, 9.999148 
2.9845542e+3, 2.3127533e+2, -590973.4, -716039.75, -5141.036, 0.14654851, -0.30830246, -590762.4, 82709.18, 0.0, 10.001754, 9.999876 
2.9841247e+3, 2.4126282e+2, -583979.1, -680146.8, -83379.59, 0.419777, -0.6336056, -535812.2, 39777.184, 0.0, 10.001112, 9.999819 
2.983687e+3, 2.512575e+2, -290181.78, -401880.8, -79566.44, 0.0062411777, -0.28308547, -248820.25, 228830.31, 0.0, 10.002186, 10.000474 
2.9832506e+3, 2.6125178e+2, -220456.34, -445605.66, -60264.09, -0.26734003, 0.045114897, -205340.7, 174374.52, 0.0, 10.002446, 9.999441 
2.9828206e+3, 2.712402e+2, -137957.4, -291185.8, -38064.7, 0.08054162, -0.1698566, -129022.46, 152803.38, 0.0, 10.002105, 9.999961 
2.9823884e+3, 2.8122878e+2, -146835.58, -162093.61, -42498.438, 0.27056822, -0.43114355, -111286.836, 72646.28, 0.0, 10.000968, 10.000772 
2.9819518e+3, 2.912211e+2, -138794.67, 9608.276, -65941.51, -0.003487724, -0.44155455, 34674.832, 120676.99, 0.0, 9.999954, 10.001727 
2.981514e+3, 3.0121407e+2, -102740.5, 101277.47, -204646.38, -0.28239283, -0.38233295, 227929.75, 227929.75, 0.0, 9.999404, 10.001943 
2.99845e+3, 1.417821e+2, -1592584.5, -1507186.8, 132740.89, 0.2594172, -0.88832915, -1410446.3, 140057.86, 0.0, 10.000164, 10.001328 
2.9980138e+3, 1.517807e+2, -1420320.1, -1287049.1, -219251.98, 0.13270167, -0.30169603, -1124530.3, 327992.13, 0.0, 10.00034, 10.0020895 
2.9975742e+3, 1.6177815e+2, -1367416.6, -1349141.6, -98453.766, -0.3027477, 0.17994174, -1259402.3, 95148.94, 0.0, 10.000585, 10.000892 
2.9971424e+3, 1.7176738e+2, -1410844.5, -1316588.8, -52529.766, -0.10690034, -0.0573372, -1293144.5, -36484.395, 0.0, 9.999658, 10.000848 
2.9967096e+3, 1.8175638e+2, -1380794.3, -1260150.6, -47471.258, -0.08181621, -0.31573316, -1243711.5, -84942.945, 0.0, 9.9992075, 10.000791 
2.996273e+3, 1.9174497e+2, -1058724.5, -1032709.94, -97486.69, -0.25432763, -0.61478424, -947366.6, 113506.36, 0.0, 10.000701, 10.000931 
2.9958382e+3, 2.0173371e+2, -1053036.1, -1210722.4, 12125.583, -0.28578886, -0.8373218, -1052109.1, -89133.41, 0.0, 10.00098, 9.998925 
2.995408e+3, 2.1172318e+2, -865411.6, -1134241.1, 83543.44, -0.1982419, -0.79916394, -841564.44, 23507.936, 0.0, 10.001962, 9.998265 
2.9949763e+3, 2.217123e+2, -615551.1, -954662.6, -7344.1626, -0.20860891, -0.7961191, -615392.1, 151783.84, 0.0, 10.002879, 9.998431 
2.9945445e+3, 2.3170158e+2, -651570.56, -884790.6, -62381.402, -0.10868845, -0.8037567, -635933.4, 33352.914, 0.0, 10.001857, 9.998712 
2.994114e+3, 2.4169241e+2, -461046.0, -571498.75, -78065.66, 0.08847336, -0.7353869, -420647.06, 150733.4, 0.0, 10.001684, 10.000304 
2.993682e+3, 2.5168574e+2, -125394.14, -275284.84, -64939.867, 0.15895392, -0.5765142, -101173.0, 372276.16, 0.0, 10.003044, 10.000981 
2.9932496e+3, 2.6167926e+2, -28283.012, -262952.75, -108843.52, 0.24367017, -0.36844066, 14427.064, 389943.66, 0.0, 10.00329, 10.000342 
2.9928187e+3, 2.7167347e+2, -113144.13, -205592.31, -97190.17, 0.63881326, -0.06934439, -51745.754, 225831.38, 0.0, 10.001913, 10.000693 
2.992384e+3, 2.8166577e+2, -206796.92, -210573.75, -108803.91, 0.69186425, 0.012200602, -99865.05, 79789.63, 0.0, 10.000568, 10.00068 
2.99194e+3, 2.9165286e+2, -342562.4, -219959.83, -154389.53, -0.15861213, -0.4303751, -115146.766, -33367.047, 0.0, 9.99904, 10.000692 
2.991503e+3, 3.0164573e+2, -299856.25, -268983.16, -155480.36, -0.38327634, -0.19557166, -128174.94, -128174.94, 0.0, 9.999029, 9.999744 
3.0084425e+3, 1.4222927e+2, -1259868.5, -1413113.0, 202469.55, 0.124415316, 0.3851729, -1120007.8, 426126.0, 0.0, 10.002644, 10.000812 
3.0080035e+3, 1.5221271e+2, -1464070.0, -1408795.5, -127549.8, 0.02120219, -0.45713618, -1305923.1, 142370.78, 0.0, 10.00048, 10.001156 
3.0075648e+3, 1.6220559e+2, -1817925.1, -1526897.6, -67046.336, -0.17138952, -0.37142226, -1512194.4, -161829.94, 0.0, 9.997247, 10.001274 
3.007131e+3, 1.7220145e+2, -1653952.9, -1309541.3, 13291.98, -0.12810943, -0.052282535, -1309029.0, -56618.0, 0.0, 9.997356, 10.001998 
3.006701e+3, 1.8219514e+2, -1528821.1, -1535206.6, 154552.2, 0.056869626, 0.12567322, -1377428.6, -222951.78, 0.0, 9.998984, 9.999025 
3.0062696e+3, 1.9218615e+2, -771506.4, -1196932.1, -78274.0, 0.07827552, 0.28831863, -757561.8, 299000.88, 0.0, 10.003875, 9.998271 
3.0058363e+3, 2.0217235e+2, -73708.61, -743548.25, -137200.2, 0.010369335, -0.026718793, -46695.863, 911993.0, 0.0, 10.007679, 9.998901 
3.0054027e+3, 2.1216016e+2, -206540.25, -520361.78, 50851.74, -0.18453531, -0.3923406, -198505.92, 662280.6, 0.0, 10.005225, 10.000852 
3.0049694e+3, 2.2214898e+2, -635645.06, -1078246.3, 85646.33, -0.27978984, -0.53125817, -619650.0, 143234.42, 0.0, 10.003211, 9.997401 
3.004538e+3, 2.3213913e+2, -498849.47, -1002195.3, 24541.768, -0.04702684, -0.28895673, -497655.72, 167339.7, 0.0, 10.003702, 9.996965 
3.0041066e+3, 2.4213108e+2, -491133.34, -525123.06, -12263.36, 0.11593182, -0.055149373, -487170.75, 79913.5, 0.0, 10.001234, 10.000796 
3.0036712e+3, 2.5212196e+2, -826872.7, -484164.1, 68977.34, -0.08703679, -0.26470295, -470801.94, -1632.8286, 0.0, 9.997725, 10.002009 
3.0032358e+3, 2.621124e+2, -1106198.4, -779249.94, 97424.695, -0.22202705, -0.4431405, -752420.75, -381158.66, 0.0, 9.995929, 10.000281 
3.0028048e+3, 2.7210462e+2, -554187.3, -437282.66, 45908.965, 0.12029511, -0.32278147, -421409.3, -148060.06, 0.0, 9.999043, 10.000393 
3.00237e+3, 2.8209722e+2, -98405.484, -298431.2, -44083.805, 0.120544806, -0.15276793, -89120.8, 86309.48, 0.0, 10.001951, 9.999372 
3.001927e+3, 2.920849e+2, 333550.66, -33249.926, -92881.95, -0.5582673, -0.42005122, 355729.38, 433282.8, 0.0, 10.004403, 9.999292 
3.0015007e+3, 3.0208132e+2, 617280.3, -108479.81, 98230.46, 0.19098634, 0.32640067, 630340.6, 630340.6, 0.0, 10.006765, 9.996994 
