coord_x,coord_y,stress_xx,stress_yy,tau_xy,velocity_x,velocity_y,stress_1,eps,damage,lx,ly
5.001006e+0, 1.2537926e+2, -1547176.9, -1687303.0, 21392.738, 0.03239578, 0.13606781, -1543983.6, 167324.88, 0.0027102246, 10.001179, 9.999614 
5.0002396e+0, 1.3538308e+2, -1494335.3, -1680929.5, -13990.656, -0.04293511, 0.51368773, -1493292.0, 119982.31, 0.0016001622, 10.001243, 9.99894 
5.000082e+0, 1.4537928e+2, -1361550.5, -1468052.8, -13648.91, -0.05120043, 0.20589176, -1359829.1, 155480.58, 0.00071385584, 10.0010805, 9.999792 
5.00039e+0, 1.5537837e+2, -1311802.6, -1394373.4, -24834.236, -0.0035987247, 0.05157898, -1304909.0, 112402.9, 0.00020880907, 10.000756, 9.9997835 
5.0005484e+0, 1.6537867e+2, -1276316.5, -1411356.9, 22404.188, 0.015434947, 0.14881611, -1272696.5, 46611.563, 0.00003056022, 10.000701, 9.9990225 
5.0005364e+0, 1.7537883e+2, -1165728.8, -1318537.8, 48213.85, 0.007420812, 0.19901109, -1151788.3, 69522.52, 0.0000010193884, 10.000835, 9.998922 
5.000404e+0, 1.8537867e+2, -1001915.1, -1102177.3, 64356.746, -0.010742649, 0.2582538, -970468.56, 152844.9, 0.0, 10.000928, 9.999685 
5.000151e+0, 1.9537812e+2, -906470.2, -1024547.2, 23231.086, -0.038761396, 0.17020816, -902064.0, 123253.37, 0.0, 10.00099, 9.999522 
5.0002164e+0, 2.0537814e+2, -881106.25, -1052041.1, 27203.988, -0.026979642, 0.27095813, -876881.2, 50436.664, 0.0, 10.000885, 9.998703 
5.000508e+0, 2.1537808e+2, -820645.94, -981043.1, 26136.61, 0.0131116845, 0.32771948, -816494.5, 12826.775, 0.0, 10.000665, 9.998626 
5.0006735e+0, 2.2537735e+2, -654595.44, -778808.4, 46486.273, 0.021915015, 0.36719963, -639124.94, 92202.29, 0.0, 10.00083, 9.999263 
5.0007665e+0, 2.3537573e+2, -492369.53, -659643.44, 3597.7502, 0.006704561, 0.2104265, -492292.16, 141046.27, 0.0, 10.001309, 9.999178 
5.0006324e+0, 2.453748e+2, -441766.88, -653194.4, -8564.736, -0.004527217, 0.23714842, -441420.5, 93927.06, 0.0, 10.001276, 9.998565 
5.000294e+0, 2.553739e+2, -426066.63, -612932.0, -8261.314, -0.014401, 0.22595485, -425702.1, 11658.4795, 0.000000000017365094, 10.000783, 9.998409 
5.000332e+0, 2.6537308e+2, -290640.72, -422750.6, 18500.422, -0.007252367, 0.2808446, -288098.84, 51268.945, 0.000000288742, 10.000725, 9.9990635 
5.0007015e+0, 2.753724e+2, -158347.34, -320893.4, -14740.512, 0.014642157, 0.2376298, -157021.42, 84348.59, 0.0000033591298, 10.001013, 9.998951 
5.0009286e+0, 2.8537077e+2, -136509.42, -491889.63, 10142.91, 0.013808573, 0.29146585, -136220.17, 7164.5815, 0.000018802597, 10.001492, 9.996866 
5.0009423e+0, 2.9536662e+2, 83002.164, -308791.06, 29486.791, -0.02135305, 0.11652187, 85208.94, 130636.29, 0.000081046455, 10.002188, 9.997123 
5.0006884e+0, 3.0536675e+2, 108428.72, -172419.9, 7090.4443, -0.01577065, 0.3577388, 108607.62, 108607.62, 0.0003038914, 10.0015955, 9.998009 
5.000092e+0, 3.1536192e+2, -29949.76, -8819.559, 7198.786, 0.020451453, 0.024967592, -6600.142, -6600.142, 0.00078894256, 9.999553, 10.000141 
1.5002981e+1, 1.253816e+2, -1626890.9, -1750192.8, -23190.074, 0.09783381, 0.32242104, -1622673.6, 88612.54, 0.0026043395, 10.000806, 9.999382 
1.5000813e+1, 1.3538148e+2, -1536994.4, -1713092.4, 3732.323, -0.11509791, 0.3864768, -1536915.4, 76374.5, 0.0015429672, 10.001053, 9.9988365 
1.5000226e+1, 1.4537822e+2, -1381091.8, -1441916.4, -40456.91, -0.15358539, 0.12567048, -1360891.1, 154430.31, 0.0006869522, 10.000825, 10.00011 
1.5001152e+1, 1.553804e+2, -1322989.4, -1363796.4, -18935.729, -0.011014941, 0.29163137, -1315556.5, 101741.4, 0.0001968844, 10.000557, 10.000102 
1.5001653e+1, 1.6538118e+2, -1228419.9, -1250453.8, 12952.771, 0.05002194, 0.35658443, -1222432.5, 96854.78, 0.000026649353, 10.000472, 10.000249 
1.5001646e+1, 1.7538007e+2, -1112149.3, -1155819.9, 68010.805, 0.026849719, 0.19343564, -1062554.5, 158739.92, 0.00000066228677, 10.000638, 10.000151 
1.5001175e+1, 1.8537965e+2, -1082543.9, -1199799.1, 51951.76, -0.032237783, 0.19313686, -1062837.6, 60460.746, 0.0, 10.000671, 9.9991455 
1.5000442e+1, 1.9537976e+2, -980008.9, -1113332.5, 41611.496, -0.11334518, 0.2639109, -968087.5, 57212.94, 0.0, 10.000751, 9.999039 
1.5000625e+1, 2.0537892e+2, -884895.7, -996570.56, 6393.389, -0.08202349, 0.27340847, -884530.8, 42777.71, 0.0, 10.0006485, 9.9992075 
1.50015e+1, 2.1537703e+2, -823261.0, -924495.9, 35159.902, 0.037917864, 0.13328294, -812247.75, 17076.193, 0.0, 10.00043, 9.999137 
1.5002011e+1, 2.2537568e+2, -731011.9, -874773.6, 47941.35, 0.06909648, 0.11054154, -716491.2, 14844.6455, 0.0, 10.000597, 9.998728 
1.5002275e+1, 2.3537467e+2, -567761.9, -751058.8, 36215.094, 0.020522866, 0.11121411, -560866.06, 72479.88, 0.0, 10.001065, 9.998677 
1.5001906e+1, 2.4537443e+2, -442522.5, -601215.5, -42346.477, -0.011250343, 0.20386334, -431929.63, 103421.09, 0.0, 10.001077, 9.99903 
1.5000874e+1, 2.5537452e+2, -427148.38, -548219.1, -12348.669, -0.04083462, 0.28172493, -425901.72, 11451.762, 0.0, 10.000528, 9.998988 
1.5000999e+1, 2.6537344e+2, -346960.03, -485069.97, 15352.318, -0.019570453, 0.29304156, -345274.06, -5910.211, 0.00000013049092, 10.000528, 9.998742 
1.5002126e+1, 2.7537134e+2, -222416.92, -389546.63, 8009.64, 0.04687403, 0.18097909, -222033.94, 19347.023, 0.0000024373799, 10.000767, 9.9986105 
1.5002745e+1, 2.8536904e+2, -97207.04, -357061.28, 23098.295, 0.040309347, 0.13301565, -95169.82, 48231.547, 0.000015368285, 10.0013, 9.9979 
1.5002815e+1, 2.9536566e+2, 110388.516, -179416.86, 76199.39, -0.06572654, -0.032728918, 129202.46, 174636.2, 0.000069496324, 10.001898, 9.998168 
1.5002142e+1, 3.0536747e+2, 103442.805, -103535.33, -80867.625, -0.03126078, 0.30035245, 131291.31, 131291.31, 0.00026841622, 10.001347, 9.998624 
1.5000236e+1, 3.1536385e+2, -135135.7, -90058.73, -11521.2295, 0.0676812, 0.09133129, -87284.72, -87284.72, 0.0007052667, 9.999056, 9.9998455 
2.5004545e+1, 1.2538207e+2, -1527982.3, -1709204.8, 8002.1704, 0.1545288, 0.35653156, -1527629.5, 183651.77, 0.0024837567, 10.001551, 9.999273 
2.5002244e+1, 1.3538066e+2, -1536482.5, -1726321.6, 5565.09, -0.06767374, 0.28687927, -1536319.5, 76976.92, 0.0014731403, 10.00116, 9.9986725 
2.500139e+1, 1.4537828e+2, -1413795.1, -1490245.5, -8845.295, -0.10463903, 0.1344581, -1412785.1, 102536.13, 0.00065158884, 10.000772, 9.9997835 
2.500209e+1, 1.5538108e+2, -1361364.4, -1420311.8, -53108.918, 0.041476473, 0.3861724, -1330098.8, 87196.14, 0.0001815959, 10.00048, 9.999739 
2.500242e+1, 1.6538174e+2, -1233580.3, -1236137.1, -16316.4795, 0.09492032, 0.4521429, -1218492.3, 100793.195, 0.000022322774, 10.00037, 10.000384 
2.500247e+1, 1.7537996e+2, -1134996.1, -1146114.5, -59148.477, 0.06688254, 0.1938934, -1081146.1, 140149.73, 0.00000035252413, 10.000411, 10.000309 
2.500192e+1, 1.8537945e+2, -1146525.0, -1234454.1, -56451.797, 0.005993867, 0.17608473, -1118937.6, 4362.2114, 0.0, 10.000241, 9.999105 
2.5000995e+1, 1.9537991e+2, -1123883.1, -1181652.6, -41059.4, -0.07330705, 0.27319813, -1102566.3, -77267.375, 0.0, 9.9997635, 9.999026 
2.500149e+1, 2.0537913e+2, -916154.7, -988636.75, 7945.126, -0.0361684, 0.2795742, -915294.0, 12011.531, 0.0, 10.0003395, 9.999405 
2.5003147e+1, 2.1537702e+2, -616367.06, -808111.44, -2267.5771, 0.100790404, 0.08782304, -616340.25, 212981.03, 0.0, 10.001783, 9.999278 
2.5003627e+1, 2.2537556e+2, -574804.2, -820897.5, 21937.783, 0.12044281, 0.06000875, -572863.8, 158470.08, 0.0, 10.0017605, 9.998518 
2.500316e+1, 2.3537453e+2, -676554.0, -831116.6, 25101.57, 0.04240076, 0.06384808, -672579.6, -39234.0, 0.0, 10.000426, 9.998424 
2.5002593e+1, 2.4537441e+2, -549643.44, -631685.5, 14874.039, -0.00198637, 0.1753836, -547030.06, -11680.898, 0.0, 10.000275, 9.9991865 
2.5001872e+1, 2.553748e+2, -325695.97, -483822.8, 3314.8298, -0.016143495, 0.25484514, -325626.5, 111721.89, 0.0, 10.001171, 9.999104 
2.5002182e+1, 2.6537383e+2, -224571.22, -463683.25, 57093.305, 0.0036515838, 0.29376653, -211638.42, 127719.94, 0.00000003137998, 10.0015545, 9.99838 
2.5003365e+1, 2.7537173e+2, -138386.5, -385811.56, 31943.207, 0.06650573, 0.20962447, -134329.08, 107049.15, 0.0000016497497, 10.001521, 9.998263 
2.5004178e+1, 2.8536943e+2, -83673.92, -275585.22, 75159.96, 0.074586265, 0.14190477, -57742.305, 85656.44, 0.000012071121, 10.001083, 9.998549 
2.5004712e+1, 2.953664e+2, -101389.89, -217605.1, 80186.86, 0.03225794, -0.06492028, -60470.09, -15044.92, 0.00005739791, 10.000204, 9.998702 
2.5004128e+1, 3.0536866e+2, 21988.725, -106430.81, -53698.867, 0.08537166, 0.27715233, 41483.57, 41483.57, 0.00023072664, 10.000645, 9.998941 
2.5001514e+1, 3.153658e+2, 271804.4, 52063.176, -38814.832, 0.16424483, 0.0796253, 278459.1, 278459.1, 0.000617959, 10.002118, 9.999321 
3.5005286e+1, 1.2538047e+2, -1544874.0, -1691580.6, -60089.14, 0.0011099656, 0.15910862, -1523404.3, 187891.94, 0.0023583595, 10.001345, 9.999491 
3.5004082e+1, 1.3538069e+2, -1530390.6, -1688940.5, 1228.6082, -0.037759773, 0.24331845, -1530381.1, 82913.086, 0.0013953737, 10.001076, 9.998961 
3.5003135e+1, 1.4537925e+2, -1484698.5, -1598755.0, -38214.754, -0.050809447, 0.20641547, -1473078.5, 42232.176, 0.0006105934, 10.000616, 9.999109 
3.5002768e+1, 1.5538035e+2, -1418320.6, -1511958.4, -47415.242, 0.022588601, 0.3598911, -1398504.6, 18799.14, 0.00016453842, 10.000384, 9.999147 
3.5002574e+1, 1.6538025e+2, -1290521.5, -1329012.1, -33102.21, 0.0358187, 0.4042537, -1271476.6, 47827.09, 0.000017966355, 10.000255, 9.999811 
3.500265e+1, 1.7537832e+2, -1186621.0, -1235313.0, -41789.855, 0.0064402665, 0.20167817, -1162602.5, 58714.48, 0.00000014192928, 10.000332, 9.999741 
3.5002285e+1, 1.8537784e+2, -1112714.5, -1124476.4, -89478.414, -0.015039501, 0.17332564, -1028924.0, 94395.52, 0.0, 10.00008, 9.999933 
3.5001445e+1, 1.9537854e+2, -1087197.4, -1070242.3, -41338.92, -0.038742468, 0.21630685, -1036520.6, -11207.657, 0.0, 9.99962, 9.999858 
3.5002482e+1, 2.0537871e+2, -927049.3, -971775.06, 44796.305, -0.00017493893, 0.2663192, -899344.1, 27965.629, 0.0, 10.000176, 9.9995985 
3.5005122e+1, 2.1537805e+2, -626792.3, -787518.44, 63510.883, 0.08892731, 0.20919034, -604725.6, 224587.6, 0.0, 10.001609, 9.999503 
3.5005185e+1, 2.2537695e+2, -573276.0, -766255.06, -39299.87, 0.069410294, 0.18298233, -565579.56, 165742.34, 0.0, 10.001554, 9.998988 
3.5003036e+1, 2.3537539e+2, -672248.06, -770945.56, -6975.2207, -0.045920786, 0.09491567, -671757.56, -38421.34, 0.0, 10.000222, 9.998928 
3.500238e+1, 2.4537478e+2, -567215.2, -635535.2, 35052.137, -0.08060101, 0.13043208, -552430.75, -17088.14, 0.0, 10.000131, 9.999234 
3.5002956e+1, 2.5537473e+2, -349140.97, -490634.75, 52061.574, -0.057638295, 0.16731076, -332049.78, 105294.92, 0.0, 10.000995, 9.999143 
3.5003525e+1, 2.6537436e+2, -249266.72, -491892.38, 42802.45, -0.04719204, 0.27080482, -241937.2, 97413.19, 0.0000000045955626, 10.001454, 9.998232 
3.5003984e+1, 2.7537367e+2, -164390.53, -406236.16, 48431.27, -0.05888529, 0.34414697, -155052.39, 86308.09, 0.0000011896407, 10.001377, 9.99819 
3.500491e+1, 2.8537187e+2, -57831.53, -200213.86, 28646.951, 0.0047334777, 0.3034328, -52283.984, 91092.58, 0.000009641755, 10.000999, 9.999107 
3.500624e+1, 2.953687e+2, -97148.414, -175037.63, 64438.55, 0.12259813, 0.039794475, -60800.2, -15398.03, 0.0000464018, 10.000066, 9.999064 
3.5006115e+1, 3.0537006e+2, 44082.69, -49879.25, -9752.539, 0.18920915, 0.2556267, 45084.254, 45084.254, 0.00019513248, 10.000582, 9.999354 
3.5003117e+1, 3.1536824e+2, 219032.63, -40092.348, 62574.156, 0.036871824, 0.10740584, 233351.9, 233351.9, 0.00053834624, 10.002023, 9.998732 
4.5006278e+1, 1.2538113e+2, -1672022.4, -1687537.5, 17522.244, 0.054700747, 0.17195569, -1660617.3, 50674.3, 0.0022337737, 10.000211, 10.000049 
4.5005402e+1, 1.3538189e+2, -1520246.0, -1633779.0, 22780.7, 0.016599637, 0.26177612, -1515845.5, 97436.25, 0.0013153872, 10.000938, 9.999401 
4.5004493e+1, 1.4538093e+2, -1435069.5, -1612886.6, 35246.86, 0.01814438, 0.2691818, -1428337.8, 86954.49, 0.00056916923, 10.001099, 9.998796 
4.5003778e+1, 1.5538023e+2, -1369247.4, -1529901.3, 13587.729, 0.07645777, 0.27898297, -1368106.3, 49196.5, 0.00014812649, 10.00088, 9.998805 
4.5003498e+1, 1.6537955e+2, -1256607.4, -1362740.6, 84639.46, 0.09343798, 0.30702174, -1209774.5, 109534.875, 0.000013959289, 10.000723, 9.999349 
4.5003712e+1, 1.7537814e+2, -1175604.4, -1279551.1, 53337.215, 0.07764114, 0.20170358, -1153105.8, 68214.28, 0.000000037538413, 10.00063, 9.999292 
4.500333e+1, 1.8537758e+2, -1010646.3, -1074893.6, 6921.8994, 0.059748843, 0.19023363, -1009909.0, 113414.32, 0.0, 10.000772, 9.999954 
4.50023e+1, 1.953778e+2, -886384.7, -974126.75, -31959.12, 0.028306274, 0.18387437, -875978.2, 149341.9, 0.0, 10.000991, 9.999869 
4.5003253e+1, 2.0537804e+2, -842413.5, -930212.3, 67907.91, 0.042660244, 0.24175112, -805451.0, 121865.34, 0.0, 10.000744, 9.999616 
4.5005906e+1, 2.1537803e+2, -856127.06, -893758.4, 42304.055, 0.10017679, 0.24644232, -828643.06, 672.06024, 0.0, 10.000009, 9.999547 
4.5006e+1, 2.2537738e+2, -735479.1, -794110.06, -51617.484, 0.07545933, 0.23739502, -705433.3, 25886.002, 0.0, 10.000217, 9.999452 
4.5003906e+1, 2.3537602e+2, -499975.2, -641638.1, -47024.723, -0.018037623, 0.12665209, -485786.53, 147543.22, 0.0, 10.001208, 9.999354 
4.500357e+1, 2.4537514e+2, -376310.28, -563454.6, 31873.492, -0.032324463, 0.12625615, -371030.7, 164306.52, 0.0, 10.001533, 9.999049 
4.50047e+1, 2.5537434e+2, -319461.9, -500814.22, 1288.0739, 0.013192972, 0.107650794, -319452.75, 117892.91, 0.0, 10.001294, 9.998929 
4.500516e+1, 2.653739e+2, -296497.7, -491072.28, 12309.264, 0.00290101, 0.19764479, -295722.06, 43630.1, 0.000000013083459, 10.001033, 9.998436 
4.500515e+1, 2.753736e+2, -225876.13, -415782.7, 16445.053, -0.041694924, 0.29650778, -224462.58, 16895.166, 0.0000010541644, 10.000866, 9.998375 
4.5006073e+1, 2.8537232e+2, -68108.8, -208412.11, 7024.4756, 0.0357443, 0.2991848, -67757.984, 75612.016, 0.000008106713, 10.000946, 9.999084 
4.500766e+1, 2.9536977e+2, 66374.07, -104569.37, -30668.62, 0.21363513, 0.10230389, 71709.73, 117101.17, 0.000037622078, 10.001228, 9.998993 
4.500754e+1, 3.0536985e+2, 166034.88, 14650.1875, -53319.668, 0.24686618, 0.19678327, 182929.34, 182929.34, 0.00016443121, 10.00139, 9.9994 
4.5004672e+1, 3.1536937e+2, 111990.625, -105651.555, -57622.99, 0.040546503, 0.16649798, 126305.38, 126305.38, 0.00047154687, 10.001345, 9.9986 
5.500599e+1, 1.253843e+2, -1621668.1, -1597410.4, -8304.496, -0.09152818, 0.39162666, -1594839.9, 116425.52, 0.0021078985, 10.000243, 10.000661 
5.5005646e+1, 1.3538428e+2, -1469749.0, -1549504.4, 64401.703, -0.10648302, 0.34381846, -1433878.4, 179380.95, 0.0012334009, 10.00101, 9.999949 
5.500504e+1, 1.4538333e+2, -1431445.6, -1604720.6, 3797.4412, -0.09359965, 0.32092017, -1431362.5, 83903.555, 0.00052778376, 10.001091, 9.9988575 
5.50046e+1, 1.5538086e+2, -1370100.9, -1532427.9, 21158.695, 0.025085788, 0.14976959, -1367388.3, 49902.523, 0.00013278752, 10.000876, 9.998792 
5.5004495e+1, 1.6537978e+2, -1301322.3, -1434927.9, 65551.62, 0.08060872, 0.1641498, -1274532.1, 44769.13, 0.0000106646075, 10.000638, 9.998888 
5.5005056e+1, 1.7537935e+2, -1210714.0, -1341271.5, 65235.11, 0.10672854, 0.19720569, -1183705.5, 37599.5, 0.000000007551507, 10.000587, 9.998882 
5.500457e+1, 1.8537866e+2, -1078137.8, -1192304.6, -1748.4362, 0.069847204, 0.22837055, -1078111.0, 45200.11, 0.0, 10.000672, 9.999199 
5.5003065e+1, 1.9537765e+2, -950516.7, -1085992.6, -11939.791, -0.032575324, 0.17800382, -949472.44, 75848.01, 0.0, 10.0009, 9.9991455 
5.500328e+1, 2.0537719e+2, -874757.56, -957358.75, 27336.402, -0.06121585, 0.20521934, -866530.2, 60794.41, 0.0, 10.000582, 9.999503 
5.500498e+1, 2.1537699e+2, -883143.1, -916886.94, 31692.373, -0.028797127, 0.20321013, -864111.44, -34784.617, 0.0, 9.999871, 9.999453 
5.500558e+1, 2.2537681e+2, -721858.2, -735365.06, -27154.547, -0.021999454, 0.22299547, -700629.9, 30696.121, 0.0, 10.000088, 9.999917 
5.5005324e+1, 2.353765e+2, -490142.06, -590813.44, 4229.941, -0.030487755, 0.17170705, -489964.66, 143360.05, 0.0, 10.001076, 9.999767 
5.500561e+1, 2.4537548e+2, -423703.9, -636759.7, 11832.687, -0.016521446, 0.16095841, -423048.75, 112284.016, 0.0, 10.0014305, 9.998592 
5.500648e+1, 2.5537363e+2, -373094.47, -566808.56, 7103.086, 0.023313828, 0.08029797, -372834.38, 64516.855, 0.0, 10.001117, 9.998551 
5.500669e+1, 2.6537237e+2, -264566.16, -417219.38, -8689.647, 0.014304202, 0.08176045, -264073.1, 75289.92, 0.000000016276152, 10.000987, 9.998973 
5.5006456e+1, 2.7537146e+2, -205074.5, -353956.56, 26421.408, -0.036178846, 0.06446108, -200524.67, 40846.137, 0.00000094951764, 10.0007715, 9.998854 
5.500709e+1, 2.8537065e+2, -114753.11, -293566.7, 3361.9504, 0.006064942, 0.119272746, -114689.92, 28689.973, 0.0000068871877, 10.000902, 9.998514 
5.5008394e+1, 2.953695e+2, 15439.324, -188355.75, -4418.9067, 0.117923126, 0.12104506, 15535.095, 60928.44, 0.00003070153, 10.001128, 9.998465 
5.500793e+1, 3.05368e+2, 145725.52, -11077.974, -63199.223, 0.11112368, 0.08943574, 168026.17, 168026.17, 0.00013855331, 10.001331, 9.999254 
5.500528e+1, 3.1536892e+2, 119090.92, -59276.56, -11484.739, -0.10847865, 0.22420304, 119827.36, 119827.36, 0.0004144919, 10.001221, 9.998976 
6.500584e+1, 1.2538482e+2, -1744303.3, -1630789.6, 3715.1748, -0.059243005, 0.39608198, -1630668.1, 80590.586, 0.0019834668, 9.999251, 10.00093 
6.50065e+1, 1.3538435e+2, -1601563.1, -1597236.6, -2620.364, -0.054992523, 0.29272807, -1596002.0, 17254.682, 0.001149572, 10.000007, 10.000121 
6.5006316e+1, 1.4538413e+2, -1506102.9, -1629042.5, -54197.344, -0.034228306, 0.32859927, -1485622.1, 29633.83, 0.00048384682, 10.00055, 9.998943 
6.500568e+1, 1.5538158e+2, -1325406.5, -1497648.9, -74423.67, 0.04544426, 0.14248873, -1297704.4, 119577.2, 0.00011744106, 10.001155, 9.998878 
6.5005624e+1, 1.6538067e+2, -1195315.9, -1386507.9, 11179.915, 0.10604718, 0.16936651, -1194664.4, 124626.49, 0.000008467286, 10.001366, 9.998874 
6.5006304e+1, 1.753806e+2, -1143288.4, -1317394.1, 11267.268, 0.15902057, 0.24302965, -1142562.3, 78729.53, 0.000000004638606, 10.001081, 9.998814 
6.5005773e+1, 1.8537965e+2, -1084686.8, -1227157.9, 7952.3438, 0.12909019, 0.26852518, -1084244.3, 39056.387, 0.0, 10.000776, 9.9989 
6.5004086e+1, 1.9537781e+2, -1042778.4, -1163836.4, -809.5214, 0.016083952, 0.1622767, -1042772.94, -17455.01, 0.0, 10.000416, 9.998842 
6.500408e+1, 2.0537695e+2, -888531.7, -975531.8, 79349.04, -0.02524874, 0.1706108, -841541.25, 85784.43, 0.0, 10.000529, 9.999403 
6.5005493e+1, 2.1537681e+2, -740242.5, -857999.7, 61171.258, -0.0055123777, 0.18465295, -714217.56, 115109.39, 0.0, 10.0009, 9.999355 
6.5006196e+1, 2.2537649e+2, -645284.7, -745344.06, 9050.918, 0.005212969, 0.21251036, -644472.56, 86856.164, 0.0, 10.000802, 9.999508 
6.500634e+1, 2.353758e+2, -630782.06, -698815.56, -53449.516, 0.013948765, 0.16258468, -601442.75, 31889.838, 0.0, 10.000272, 9.999412 
6.500683e+1, 2.4537477e+2, -558137.75, -688892.4, -23270.488, 0.023166314, 0.15932429, -554119.75, -18778.648, 0.0, 10.000432, 9.998739 
6.50077e+1, 2.553732e+2, -354386.2, -542585.94, -12641.001, 0.04306134, 0.098772064, -353540.9, 83814.445, 0.0, 10.001159, 9.998722 
6.5008235e+1, 2.6537177e+2, -182737.47, -353594.94, -4055.5493, 0.05644949, 0.061511125, -182641.25, 156726.45, 0.00000000394634, 10.001445, 9.999198 
6.500854e+1, 2.7537024e+2, -87822.76, -267687.5, -19657.105, 0.07099503, -0.038542002, -85699.53, 155679.89, 0.0000007712445, 10.001467, 9.999103 
6.5008754e+1, 2.853696e+2, -46409.85, -285876.84, -194.75978, 0.06496563, 0.03451849, -46409.695, 96977.08, 0.000006042053, 10.00148, 9.998288 
6.5008944e+1, 2.953694e+2, 42560.05, -188497.73, -13663.952, 0.06094084, 0.1461335, 43365.285, 88758.875, 0.000026519589, 10.00139, 9.998328 
6.500868e+1, 3.0536726e+2, 205739.11, -9315.372, -17255.133, 0.042186767, 0.064296566, 207114.78, 207114.78, 0.00012024143, 10.00185, 9.999025 
6.5008134e+1, 3.1536835e+2, 323766.66, 47016.9, -21949.041, 0.0070917695, 0.25491783, 325496.63, 325496.63, 0.00036921015, 10.002563, 9.999088 
7.5004935e+1, 1.2538251e+2, -1727025.5, -1599717.1, -27540.037, -0.1631585, 0.18824366, -1594014.9, 117258.7, 0.0018629195, 9.999282, 10.001122 
7.5007355e+1, 1.35382e+2, -1606574.5, -1616584.4, 32104.768, -0.016956868, 0.0936088, -1579086.9, 34187.84, 0.0010666472, 10.000046, 9.999969 
7.500751e+1, 1.4538333e+2, -1509288.6, -1621137.3, -48861.152, -0.017375313, 0.28715467, -1490950.3, 24311.916, 0.0004391749, 10.000489, 9.999027 
7.500653e+1, 1.5538229e+2, -1316566.8, -1488977.3, -35281.145, -0.030287785, 0.24433786, -1309626.4, 107650.086, 0.00010226521, 10.0011835, 9.99893 
7.5006384e+1, 1.653821e+2, -1176813.0, -1331530.3, -16526.072, 0.0060496535, 0.31857076, -1175067.4, 144212.23, 0.000007138289, 10.0013, 9.99928 
7.500703e+1, 1.7538194e+2, -1123672.3, -1266853.1, 13047.526, 0.08378408, 0.3410205, -1122493.0, 98787.1, 0.00000003688298, 10.001037, 9.999183 
7.5006455e+1, 1.8538055e+2, -1091313.5, -1222951.8, -19680.469, 0.083602555, 0.3021331, -1088434.1, 34857.88, 0.0, 10.00069, 9.998978 
7.5004905e+1, 1.9537807e+2, -1042189.8, -1152479.5, 530.2397, 0.018023686, 0.12397837, -1042187.25, -16873.053, 0.0, 10.000369, 9.998946 
7.500523e+1, 2.053772e+2, -908252.6, -990111.6, 80810.56, 0.002339916, 0.12809801, -858597.5, 68722.98, 0.0, 10.000418, 9.999355 
7.500702e+1, 2.1537746e+2, -764130.7, -881399.25, 87410.33, 0.021604871, 0.18410262, -717510.3, 111805.66, 0.0, 10.00078, 9.999255 
7.500736e+1, 2.2537632e+2, -752983.06, -937845.25, -23331.195, 0.010473592, 0.20170592, -750083.94, -18756.521, 0.0, 10.00067, 9.998248 
7.500652e+1, 2.3537381e+2, -735913.6, -884591.4, -55138.016, -0.02908084, 0.09158091, -717697.25, -84342.94, 0.0, 10.000124, 9.998211 
7.5006723e+1, 2.4537295e+2, -519955.97, -586960.1, -8898.125, -0.060714558, 0.12382957, -518794.44, 16567.973, 0.0, 10.000336, 9.999481 
7.5007904e+1, 2.553732e+2, -327191.8, -455026.03, 28475.617, -0.08630288, 0.1686795, -321135.66, 116221.48, 0.0, 10.001019, 9.999392 
7.500921e+1, 2.653722e+2, -205582.1, -373881.28, -16428.58, -0.022056961, 0.149477, -203993.4, 135371.02, 0.00000000015133415, 10.001341, 9.999103 
7.50108e+1, 2.7536997e+2, -115144.28, -291966.06, -450.43512, 0.112919, -0.0136734145, -115143.13, 126240.07, 0.00000065427645, 10.001333, 9.998998 
7.501066e+1, 2.8536928e+2, -36427.594, -259609.69, -16270.815, 0.07055893, 0.04715633, -35247.63, 108142.76, 0.0000058927376, 10.001449, 9.998488 
7.500885e+1, 2.9536936e+2, 44526.293, -163520.7, 2046.6898, -0.13189434, 0.1723048, 44546.426, 89938.71, 0.000025865007, 10.001282, 9.998563 
7.5009245e+1, 3.053674e+2, 167308.36, -67935.06, 7102.741, -0.12156794, 0.115383625, 167522.61, 167522.61, 0.00011203884, 10.001774, 9.998648 
7.5012213e+1, 3.153674e+2, 296201.63, 29182.361, 53793.93, 0.08638666, 0.23446424, 306631.6, 306631.6, 0.00034091447, 10.002401, 9.999034 
8.500568e+1, 1.253811e+2, -1643429.8, -1563986.1, -10062.132, -0.030285098, 0.10724102, -1562731.5, 148551.05, 0.0017451695, 9.999899, 10.0010605 
8.5007566e+1, 1.3538036e+2, -1670114.5, -1676951.9, -23019.367, 0.031488292, 0.024133394, -1650261.4, -36972.887, 0.0009891815, 9.9997635, 9.999679 
8.500784e+1, 1.4538203e+2, -1547335.8, -1603697.8, -46201.05, 0.0036968284, 0.24829036, -1521399.1, -6125.993, 0.000399723, 10.000047, 9.999374 
8.500778e+1, 1.5538144e+2, -1353997.8, -1471534.8, -45567.41, 0.0086544305, 0.2168527, -1338401.5, 78880.914, 0.00008899464, 10.000769, 9.999255 
8.5007787e+1, 1.6538142e+2, -1232460.9, -1355767.5, -39791.94, 0.046001222, 0.2938267, -1220734.9, 98549.445, 0.000006071428, 10.000921, 9.99929 
8.500796e+1, 1.7538118e+2, -1206729.6, -1299481.6, -70893.875, 0.11376849, 0.30725032, -1168390.4, 52896.58, 0.000000076650345, 10.000456, 9.9992285 
8.500745e+1, 1.8537994e+2, -1086885.6, -1221991.0, -68788.27, 0.124253824, 0.2815272, -1058026.8, 65271.563, 0.0, 10.000717, 9.998976 
8.500647e+1, 1.9537789e+2, -880475.4, -1076866.1, -82991.555, 0.09114973, 0.14712957, -850102.0, 175214.78, 0.0, 10.001483, 9.99893 
8.5006815e+1, 2.0537707e+2, -770018.6, -947008.44, -4166.41, 0.075366825, 0.16696687, -769920.6, 157402.61, 0.0, 10.001474, 9.999143 
8.500817e+1, 2.1537708e+2, -781528.44, -914280.94, -42137.824, 0.06846949, 0.22255307, -769282.75, 60039.11, 0.0, 10.0007715, 9.999037 
8.50084e+1, 2.2537574e+2, -763727.4, -938485.4, -82653.44, 0.05969331, 0.23099987, -730828.9, 506.30695, 0.0, 10.000589, 9.998276 
8.5007745e+1, 2.3537317e+2, -636608.56, -830346.06, -45846.246, 0.056205835, 0.11440758, -626307.2, 7054.8496, 0.0, 10.000798, 9.998249 
8.5008013e+1, 2.4537228e+2, -450567.7, -542361.94, 61522.785, 0.021756845, 0.13834427, -419708.06, 115661.82, 0.0, 10.000763, 9.999571 
8.5009116e+1, 2.5537267e+2, -388320.66, -471719.3, 21629.98, -0.032673888, 0.18476732, -383044.56, 54318.676, 0.0, 10.00056, 9.999481 
8.5010344e+1, 2.6537195e+2, -295539.13, -439933.63, -17304.877, -0.003981533, 0.19871897, -293494.2, 45874.117, 0.0000000019213902, 10.000779, 9.998935 
8.5011923e+1, 2.753701e+2, -150205.7, -327429.06, -36111.168, 0.11195731, 0.085558586, -143130.14, 98255.1, 0.0000006294421, 10.001135, 9.998864 
8.501206e+1, 2.85369e+2, -28576.0, -237077.3, -25985.018, 0.07807882, 0.108102195, -25386.344, 118008.98, 0.0000062489003, 10.001417, 9.998658 
8.501084e+1, 2.953683e+2, 149656.95, -91979.586, -38459.273, -0.07874861, 0.1343577, 155630.53, 201033.22, 0.000027811611, 10.001917, 9.998745 
8.5011345e+1, 3.0536726e+2, 183866.72, -131793.14, -14430.12, -0.09482141, 0.19214077, 184525.0, 184525.0, 0.00011222166, 10.002173, 9.998031 
8.5014564e+1, 3.1536567e+2, 148107.14, -90914.98, -36734.664, 0.1410535, 0.21053292, 153625.39, 153625.39, 0.00032900518, 10.001593, 9.9985895 
9.5007074e+1, 1.253808e+2, -1677193.1, -1622764.5, -66961.58, 0.038335387, 0.16757217, -1577698.3, 133585.2, 0.0016362383, 9.999849, 10.000678 
9.500653e+1, 1.3537937e+2, -1693351.0, -1751277.6, -13468.611, -0.09268127, 0.07210146, -1690372.5, -77074.3, 0.0009229167, 9.999862, 9.999125 
9.500687e+1, 1.4538024e+2, -1505604.3, -1511478.9, -33761.797, -0.14223145, 0.20920806, -1474652.3, 40636.71, 0.00036888671, 10.000027, 10.000015 
9.500897e+1, 1.5537913e+2, -1314640.5, -1391610.0, -3200.9312, 0.008528027, 0.064804785, -1314507.6, 102790.66, 0.00007923838, 10.000772, 9.999802 
9.5009476e+1, 1.6537876e+2, -1269891.3, -1419682.4, -69917.73, 0.08623559, 0.10198986, -1242327.9, 76975.64, 0.0000051224774, 10.000857, 9.998885 
9.500858e+1, 1.753784e+2, -1233625.1, -1355774.6, -70037.83, 0.09045299, 0.14140277, -1201773.0, 19538.732, 0.00000007826353, 10.000452, 9.998846 
9.500826e+1, 1.853779e+2, -1106214.6, -1245310.3, -53541.46, 0.10023974, 0.21299624, -1087992.4, 35326.59, 0.0, 10.000642, 9.998852 
9.5008355e+1, 1.9537726e+2, -901672.8, -1103199.6, -41017.754, 0.09481475, 0.22827472, -893644.1, 131681.52, 0.0, 10.001402, 9.998788 
9.500843e+1, 2.0537654e+2, -821299.56, -1026564.94, -44577.773, 0.057396933, 0.2912285, -812036.56, 115297.07, 0.0, 10.00135, 9.998659 
9.500845e+1, 2.1537547e+2, -828714.5, -984578.1, -50906.625, -0.014248645, 0.2857512, -813561.1, 15784.758, 0.0, 10.000646, 9.998618 
9.5008796e+1, 2.2537458e+2, -693419.3, -762485.75, -86186.42, 0.0063929753, 0.2907744, -635105.1, 96248.1, 0.0, 10.000461, 9.999543 
9.500948e+1, 2.3537363e+2, -570362.0, -668580.2, -25762.992, 0.11503584, 0.20910212, -564014.5, 69343.64, 0.0, 10.000683, 9.999418 
9.501021e+1, 2.4537265e+2, -503394.0, -627656.94, 40230.047, 0.13232806, 0.19347556, -491506.72, 43858.27, 0.0, 10.000654, 9.999039 
9.501094e+1, 2.5537142e+2, -436915.44, -555928.4, 33607.527, 0.05630978, 0.12979005, -428080.94, 9294.478, 0.0, 10.000472, 9.998953 
9.501127e+1, 2.6537076e+2, -321088.3, -469135.7, -17510.904, -0.0215454, 0.18548751, -319045.3, 20336.713, 0.0000000017799018, 10.00069, 9.99877 
9.501138e+1, 2.7537042e+2, -182457.47, -361994.47, -9570.019, -0.092561826, 0.24055651, -181948.78, 59438.547, 0.0000005677249, 10.000999, 9.998689 
9.501245e+1, 2.853689e+2, -29751.445, -226334.92, -23040.998, -0.06035037, 0.22214355, -27086.988, 116314.53, 0.0000064583187, 10.00136, 9.998756 
9.501438e+1, 2.9536617e+2, 131515.9, -100765.22, 5007.5645, 0.042012006, 0.031452827, 131623.81, 177049.31, 0.000029725905, 10.001787, 9.998747 
9.501451e+1, 3.0536678e+2, 124390.46, -240710.19, -39983.332, -0.02833497, 0.29586753, 128717.875, 128717.875, 0.0001135958, 10.002115, 9.997301 
9.501421e+1, 3.1536332e+2, 61285.13, -238970.55, -21709.443, -0.12890016, 0.19505876, 62846.67, 62846.67, 0.00032168903, 10.001452, 9.997638 
1.0500718e+2, 1.253801e+2, -1731635.6, -1694375.0, -41488.152, 0.0943632, 0.20835473, -1667526.1, 43762.96, 0.0015480418, 9.999642, 10.000298 
1.0500689e+2, 1.353784e+2, -1619371.4, -1751023.1, -23827.738, -0.0609181, 0.12528095, -1615191.5, -1883.195, 0.00087241904, 10.000516, 9.998816 
1.05007514e+2, 1.4537877e+2, -1439453.4, -1450963.3, -33503.395, -0.08736803, 0.20913982, -1411214.3, 104089.96, 0.0003471946, 10.000377, 10.000251 
1.0500962e+2, 1.553775e+2, -1496905.1, -1464994.8, -66836.48, 0.07471586, 0.035913754, -1412235.4, 5077.8086, 0.000073446034, 9.999461, 9.999931 
1.0500999e+2, 1.653772e+2, -1417819.9, -1467421.0, -70562.484, 0.11803133, 0.062653005, -1367826.5, -48509.23, 0.000004420773, 9.999744, 9.999089 
1.05009034e+2, 1.7537716e+2, -1135314.9, -1291310.1, -55927.457, 0.0695874, 0.11607625, -1117335.9, 103986.59, 0.000000050630582, 10.001056, 9.998998 
1.05009034e+2, 1.8537702e+2, -987784.06, -1193962.5, -354.58658, 0.07805818, 0.2179265, -987783.5, 135543.72, 0.0, 10.0014925, 9.998786 
1.0500978e+2, 1.9537672e+2, -968544.3, -1139801.5, -18924.846, 0.12791915, 0.27475947, -966477.94, 58853.914, 0.0, 10.00098, 9.998728 
1.0500978e+2, 2.0537585e+2, -930440.2, -1079249.4, 3561.1174, 0.104334705, 0.32378945, -930355.0, -3012.8118, 0.0, 10.000606, 9.998656 
1.0500919e+2, 2.1537419e+2, -888378.2, -1009485.1, 4402.87, 0.026216535, 0.26104614, -888218.4, -58858.363, 0.0, 10.000222, 9.998649 
1.0500952e+2, 2.2537349e+2, -684240.94, -711977.3, 11275.474, 0.048808776, 0.26294127, -680235.6, 51128.953, 0.0, 10.000319, 9.999974 
1.0501072e+2, 2.3537351e+2, -521865.16, -598668.94, -19910.506, 0.1723712, 0.23682599, -517010.44, 116348.38, 0.0, 10.000824, 9.999838 
1.0501157e+2, 2.453725e+2, -477568.1, -652469.5, 34266.742, 0.19334133, 0.21870618, -471094.2, 64271.316, 0.0, 10.000996, 9.998707 
1.0501223e+2, 2.553704e+2, -408642.88, -574733.2, 15647.285, 0.12853345, 0.103456, -407181.6, 30203.49, 0.0, 10.000824, 9.99865 
1.0501233e+2, 2.653696e+2, -335737.88, -468147.53, 14062.43, 0.030010452, 0.15258119, -334260.88, 5132.777, 0.00000000014537505, 10.000579, 9.99882 
1.0501211e+2, 2.7536967e+2, -276829.9, -401993.2, 9194.12, -0.07622573, 0.24512619, -276158.13, -34763.51, 0.00000042821608, 10.000352, 9.998717 
1.0501361e+2, 2.8536803e+2, -89912.18, -264933.4, 54237.305, -0.051593605, 0.21618244, -74467.5, 68942.805, 0.0000059800022, 10.000967, 9.9986925 
1.0501664e+2, 2.9536474e+2, 184843.88, -85929.45, 33977.91, 0.08077181, -0.022622667, 189042.48, 234482.56, 0.000029321069, 10.002186, 9.998666 
1.0501701e+2, 3.0536652e+2, 229175.67, -133037.4, 21491.514, -0.00079992117, 0.33372864, 230446.39, 230446.39, 0.000109980174, 10.002593, 9.997811 
1.05015956e+2, 3.1536242e+2, 210633.63, -112218.22, 73198.72, -0.12281115, 0.11663026, 226454.38, 226454.38, 0.0003078243, 10.002238, 9.998136 
1.15005046e+2, 1.2537883e+2, -1754130.0, -1756012.8, -63708.9, -0.16732687, 0.22417426, -1691355.5, 19945.52, 0.0014882531, 9.999694, 9.999855 
1.1500819e+2, 1.3537735e+2, -1619749.3, -1761983.1, 15925.962, -0.022938462, 0.17643979, -1617987.9, -4667.8384, 0.000840427, 10.000553, 9.998723 
1.1500938e+2, 1.453774e+2, -1465847.8, -1486938.3, -85575.23, 0.019889165, 0.2419644, -1390170.5, 125150.11, 0.00033535642, 10.000295, 10.000044 
1.1500903e+2, 1.5537648e+2, -1509769.9, -1489509.8, -79466.13, 0.028716318, 0.122509964, -1419530.6, -2202.7297, 0.0000716502, 9.999463, 9.999756 
1.1500886e+2, 1.6537671e+2, -1369111.5, -1361110.5, -34545.39, -0.008346988, 0.17412144, -1330334.8, -11009.188, 0.0000041980056, 9.999713, 9.99984 
1.1500898e+2, 1.7537743e+2, -1084354.5, -1180873.1, 5142.4033, -0.07995127, 0.22219163, -1084081.3, 137238.8, 0.000000024917117, 10.001035, 9.999765 
1.1500948e+2, 1.8537727e+2, -1012301.4, -1213086.5, -33908.03, -0.058360815, 0.29219222, -1006729.75, 116593.836, 0.0, 10.001361, 9.998721 
1.150102e+2, 1.9537623e+2, -982399.06, -1150505.1, -23330.627, 0.033489875, 0.28284, -979221.2, 46115.035, 0.0, 10.000904, 9.9986925 
1.15010366e+2, 2.0537494e+2, -917186.7, -1024030.44, -26570.732, 0.07042438, 0.26866764, -910943.7, 16405.574, 0.0, 10.000483, 9.999096 
1.15009956e+2, 2.1537311e+2, -878787.7, -959783.06, 2939.3962, 0.04878498, 0.14114568, -878681.1, -49315.613, 0.0, 10.000089, 9.999058 
1.1501019e+2, 2.2537248e+2, -734036.9, -781428.4, 15979.268, 0.056164626, 0.15336308, -729152.44, 2217.0525, 0.0, 10.000178, 9.999561 
1.1501099e+2, 2.353727e+2, -569266.44, -665706.2, 13611.572, 0.08520337, 0.18742093, -567382.06, 65982.664, 0.0, 10.000681, 9.999448 
1.1501171e+2, 2.4537179e+2, -506311.8, -681353.25, 13880.11, 0.07613707, 0.20355405, -505218.0, 30154.215, 0.0, 10.000874, 9.998564 
1.1501244e+2, 2.5536966e+2, -437838.84, -602828.8, 20394.557, 0.033721264, 0.099013455, -435355.25, 2037.3287, 0.0, 10.000688, 9.998521 
1.15013085e+2, 2.6536843e+2, -327542.06, -436416.84, -6999.0693, 0.01743232, 0.10167704, -327093.97, 12309.226, 0.0, 10.000512, 9.999078 
1.1501372e+2, 2.7536777e+2, -276388.6, -376491.66, 21329.105, 0.013701646, 0.09815991, -272033.44, -30625.852, 0.0000002594802, 10.000235, 9.998958 
1.15015075e+2, 2.8536627e+2, -118949.14, -304014.6, 88509.92, -0.035369754, 0.08391452, -83433.78, 59988.78, 0.000005001763, 10.000886, 9.998464 
1.1501712e+2, 2.95364e+2, 141830.33, -137749.88, 92434.336, -0.13033219, -0.030697204, 169627.16, 215074.6, 0.000026475647, 10.002029, 9.998387 
1.15018405e+2, 3.0536634e+2, 343380.9, 126461.8, 5173.762, -0.15269406, 0.3124506, 343504.25, 343504.25, 0.000100772006, 10.00252, 9.999621 
1.15018874e+2, 3.153629e+2, 331235.63, 171430.25, 94117.18, -0.1296839, -0.03375391, 374793.4, 374793.4, 0.00028477798, 10.002107, 10.000145 
1.2500457e+2, 1.2537637e+2, -1830706.3, -1750974.6, -40181.49, -0.13577268, 0.16068752, -1734238.0, -22913.953, 0.0014562852, 9.999014, 10.000204 
1.2500875e+2, 1.3537578e+2, -1723528.9, -1742906.8, 47568.258, 0.043121297, 0.13901152, -1684672.9, -71339.625, 0.0008261713, 9.999546, 9.999338 
1.2501009e+2, 1.4537622e+2, -1509855.5, -1515249.0, -10202.21, 0.089236334, 0.2155351, -1501999.6, 13331.13, 0.00033346904, 10.000022, 9.999979 
1.2500905e+2, 1.5537597e+2, -1329621.4, -1410490.6, -31085.924, 0.028729318, 0.1716597, -1319053.1, 98280.51, 0.00007407354, 10.000731, 9.999683 
1.250089e+2, 1.6537625e+2, -1213745.5, -1277850.5, 33999.117, -0.018488826, 0.22569224, -1199072.3, 120258.64, 0.000004716059, 10.00073, 9.999932 
1.2500964e+2, 1.7537653e+2, -1233225.3, -1245753.0, -4851.972, -0.05357691, 0.22673781, -1231565.9, -10238.292, 0.000000012759114, 9.999961, 9.999851 
1.2501036e+2, 1.853762e+2, -1197803.9, -1277423.8, -31700.432, -0.025063995, 0.25962123, -1186724.3, -63391.953, 0.0, 9.999974, 9.998941 
1.2501107e+2, 1.9537523e+2, -1011024.9, -1142446.0, -30968.834, 0.055498127, 0.23590401, -1004092.9, 21251.402, 0.0, 10.000607, 9.998892 
1.2501132e+2, 2.0537418e+2, -811765.2, -936577.6, -9185.237, 0.0984713, 0.22052675, -811092.9, 116261.13, 0.0, 10.001055, 9.999414 
1.2501113e+2, 2.1537283e+2, -688973.8, -835635.0, -17642.99, 0.10798888, 0.11094115, -686881.25, 142482.88, 0.0, 10.001257, 9.999341 
1.2501138e+2, 2.2537221e+2, -586145.25, -767816.3, 29811.2, 0.104908176, 0.13538338, -581378.44, 149990.61, 0.0, 10.00144, 9.999038 
1.2501213e+2, 2.3537208e+2, -470020.84, -668928.5, -11274.29, 0.095410526, 0.18599874, -469383.84, 163986.84, 0.0, 10.001601, 9.998966 
1.250128e+2, 2.4537116e+2, -416982.9, -618890.0, 1019.6979, 0.08110337, 0.2141932, -416977.78, 118401.57, 0.0, 10.001397, 9.998742 
1.2501356e+2, 2.5536934e+2, -396583.47, -568838.1, 4615.182, 0.07688263, 0.12353493, -396459.9, 40936.492, 0.0, 10.000895, 9.998663 
1.2501436e+2, 2.6536798e+2, -245306.6, -416810.72, 22864.727, 0.070185736, 0.116036646, -242310.63, 97097.27, 0.0, 10.001167, 9.998888 
1.250153e+2, 2.7536678e+2, -15711.777, -267726.2, -13098.274, 0.06624254, 0.07801171, -15032.832, 226384.22, 0.00000012209664, 10.002121, 9.998783 
1.2501657e+2, 2.8536534e+2, -2763.6697, -258099.4, 56614.676, -0.005449669, 0.08200793, 9226.28, 152657.94, 0.000003888246, 10.00174, 9.998361 
1.2501831e+2, 2.9536366e+2, -130613.805, -274821.16, 41986.34, -0.109307185, 0.039518204, -119280.125, -73829.44, 0.00002250982, 10.0001955, 9.998322 
1.2502031e+2, 3.0536488e+2, 54381.297, -3745.8423, -31461.506, -0.096224, 0.26222086, 68148.99, 68148.99, 0.000088219014, 10.000448, 9.999752 
1.250217e+2, 3.153617e+2, 335332.75, 207233.69, -137486.38, -0.034498103, -0.07404361, 422956.72, 422956.72, 0.00025421134, 10.001987, 10.000454 
1.3500486e+2, 1.2537259e+2, -1763651.8, -1602140.3, -77654.3, -0.084750466, 0.0022142415, -1570861.8, 140497.98, 0.0014504807, 9.99897, 10.001248 
1.3500796e+2, 1.3537373e+2, -1620022.5, -1534730.6, 79200.39, -0.029592492, 0.009850812, -1487424.5, 125923.195, 0.0008289551, 9.999582, 10.000745 
1.3500912e+2, 1.4537536e+2, -1509223.9, -1521351.3, -2779.3162, -0.054844685, 0.13804428, -1508617.3, 6716.157, 0.0003411424, 10.00004, 9.999933 
1.3500923e+2, 1.5537596e+2, -1337395.3, -1421097.8, 8027.3735, -0.06253435, 0.18393232, -1336632.4, 80698.38, 0.00008049032, 10.000698, 9.999632 
1.3500962e+2, 1.653758e+2, -1270926.0, -1362699.8, -10837.0625, -0.050473627, 0.22250764, -1269663.6, 49669.89, 0.0000062176173, 10.000597, 9.999407 
1.3501036e+2, 1.7537455e+2, -1277703.6, -1322830.6, -14301.025, -0.013697636, 0.12549938, -1273553.3, -52208.44, 0.000000017143847, 9.999912, 9.999338 
1.3501109e+2, 1.8537392e+2, -1173647.8, -1216013.5, -20976.85, 0.012458459, 0.13026422, -1165018.9, -41667.08, 0.0, 9.999908, 9.999399 
1.350118e+2, 1.9537367e+2, -988969.2, -1080633.0, 8672.311, 0.028331557, 0.12838195, -988155.94, 37200.0, 0.0, 10.00053, 9.999354 
1.350122e+2, 2.0537357e+2, -816888.4, -920934.4, -17502.922, 0.048090667, 0.17665641, -814022.9, 113333.59, 0.0, 10.000936, 9.999584 
1.3501218e+2, 2.1537332e+2, -700174.9, -824267.0, 6212.618, 0.054029543, 0.15982902, -699864.6, 129491.64, 0.0, 10.001104, 9.999495 
1.3501269e+2, 2.253727e+2, -650730.8, -875159.4, 21131.26, 0.05733158, 0.21252936, -648758.5, 82604.39, 0.0, 10.001314, 9.998364 
1.3501358e+2, 2.3537154e+2, -532778.9, -769150.75, 8831.171, 0.047104526, 0.22477661, -532449.4, 100928.04, 0.0, 10.001463, 9.998345 
1.3501438e+2, 2.453705e+2, -395096.9, -551728.56, -31294.965, 0.068984024, 0.2438375, -389075.63, 146312.33, 0.0, 10.001301, 9.999249 
1.3501514e+2, 2.553694e+2, -383722.22, -510824.78, 4490.539, 0.11364839, 0.1723826, -383563.78, 53833.035, 0.0, 10.000757, 9.999126 
1.3501576e+2, 2.653682e+2, -306974.94, -523703.97, 44763.535, 0.06053594, 0.19393228, -298093.38, 41314.684, 0.0, 10.001081, 9.998191 
1.3501632e+2, 2.753666e+2, -80916.664, -370612.06, 33651.594, -0.07995474, 0.18099351, -77059.0, 164365.38, 0.000000046518082, 10.001986, 9.9981365 
1.3501768e+2, 2.8536507e+2, -122.68824, -245771.0, -15203.337, -0.10436932, 0.20383976, 814.6795, 144253.67, 0.0000029362805, 10.001705, 9.998463 
1.3501975e+2, 2.953636e+2, -136414.48, -268305.94, 6126.058, -0.02779081, 0.16940875, -136130.55, -90678.38, 0.000019015239, 10.000103, 9.998415 
1.3502222e+2, 3.05362e+2, -59048.055, -218354.4, 18130.143, 0.02181813, 0.1781778, -57010.773, -57010.773, 0.000075927965, 10.000375, 9.998304 
1.3502353e+2, 3.1535867e+2, 211916.08, -16721.031, -39969.477, -0.124659635, -0.017818002, 218701.98, 218701.98, 0.0002226974, 10.001853, 9.998978 
1.4500485e+2, 1.2537138e+2, -1648273.6, -1558278.1, 22068.14, -0.0053283004, 0.00420369, -1553158.0, 158214.02, 0.0014659849, 9.999826, 10.001134 
1.4500707e+2, 1.3537285e+2, -1705281.5, -1547822.8, 32757.926, -0.028378142, 0.018248076, -1541279.6, 72076.98, 0.0008466132, 9.998883, 10.000983 
1.4500853e+2, 1.4537466e+2, -1669314.0, -1587608.3, -10251.439, -0.05114071, 0.14849238, -1586341.6, -71001.78, 0.00035647568, 9.998885, 10.000042 
1.4500949e+2, 1.5537496e+2, -1459285.6, -1465663.6, -18654.611, -0.050425727, 0.15264651, -1443549.4, -26210.063, 0.00008921642, 9.999795, 9.999765 
1.4501025e+2, 1.653746e+2, -1297717.6, -1390558.6, -14245.063, -0.02915086, 0.17245406, -1295581.1, 23762.629, 0.000008328298, 10.000479, 9.999269 
1.4501107e+2, 1.753734e+2, -1136972.4, -1270343.5, -21077.021, 0.023536999, 0.09009576, -1133720.8, 87634.35, 0.0000000715251, 10.000938, 9.999204 
1.4501181e+2, 1.8537289e+2, -1039701.2, -1135258.6, 749.4333, 0.059063554, 0.10838886, -1039695.3, 83665.13, 0.0, 10.000763, 9.999554 
1.4501238e+2, 1.953728e+2, -1057603.8, -1103161.0, -23664.49, 0.06900204, 0.112821095, -1047536.1, -22173.822, 0.0, 10.000002, 9.999473 
1.4501293e+2, 2.0537266e+2, -938664.3, -1008767.2, -24757.791, 0.072152935, 0.16564065, -930802.44, -3438.951, 0.0, 10.000224, 9.99932 
1.4501339e+2, 2.1537228e+2, -701582.94, -853271.06, -67890.39, 0.06882621, 0.16073573, -675635.9, 153729.98, 0.0, 10.001222, 9.999235 
1.4501396e+2, 2.2537155e+2, -625894.25, -838415.4, -32892.117, 0.057844445, 0.20339848, -620919.94, 110453.805, 0.0, 10.00139, 9.998581 
1.4501463e+2, 2.3537026e+2, -606406.9, -785990.06, -12539.297, 0.044354267, 0.18467438, -605535.56, 27853.037, 0.0, 10.000875, 9.998522 
1.4501555e+2, 2.4536942e+2, -473636.13, -595234.7, -13744.378, 0.087977014, 0.21731126, -472101.94, 63295.926, 0.0, 10.000784, 9.999204 
1.450167e+2, 2.5536877e+2, -337981.47, -490889.6, -49231.14, 0.18501204, 0.19721638, -323501.88, 113901.984, 0.0, 10.001086, 9.999103 
1.4501743e+2, 2.6536775e+2, -307676.3, -509092.63, 48712.82, 0.13100491, 0.23207071, -296513.7, 42899.977, 0.0, 10.001002, 9.99834 
1.4501783e+2, 2.753662e+2, -271723.8, -452635.4, 70274.734, -0.047594942, 0.21084502, -247633.6, -6204.489, 0.00000002138944, 10.000609, 9.998257 
1.4501919e+2, 2.8536448e+2, -99686.28, -302725.97, 56053.58, -0.08134536, 0.21361248, -85239.39, 58205.152, 0.0000023054517, 10.001052, 9.998386 
1.4502144e+2, 2.9536277e+2, 178282.94, -114975.54, 28151.451, 0.032161057, 0.15708703, 180960.89, 226419.8, 0.000016570593, 10.002267, 9.998413 
1.4502445e+2, 3.0536026e+2, 222711.69, -163708.02, 124559.75, 0.106358446, 0.112282045, 259382.63, 259382.63, 0.0000664134, 10.002682, 9.997559 
1.4502613e+2, 3.153576e+2, 202759.56, -99991.836, 64509.758, -0.046139453, 0.07020959, 215932.06, 215932.06, 0.0001967113, 10.002144, 9.998262 
1.5500377e+2, 1.2537318e+2, -1729892.9, -1753554.6, -68687.79, -0.1799469, 0.2046729, -1672024.5, 39332.42, 0.0014879738, 9.999917, 9.9997635 
1.5500568e+2, 1.3537316e+2, -1774526.4, -1695591.0, 6295.864, -0.09616992, 0.1792097, -1695092.0, -81732.57, 0.0008684092, 9.998893, 9.999975 
1.5500776e+2, 1.4537412e+2, -1649432.6, -1530647.8, 5051.085, -0.056310695, 0.2525264, -1530433.3, -15083.308, 0.00037251608, 9.998827, 10.000456 
1.550092e+2, 1.5537308e+2, -1439065.1, -1408030.3, 31400.906, -0.09790078, 0.080487356, -1388521.9, 28836.264, 0.00009664872, 9.999741, 10.000178 
1.5501039e+2, 1.653729e+2, -1292621.0, -1365279.8, -11049.668, -0.10039298, 0.08587008, -1290977.8, 28381.648, 0.000009881803, 10.000409, 9.999482 
1.5501142e+2, 1.7537323e+2, -1133831.0, -1245976.3, 11412.559, -0.06990002, 0.13663049, -1132681.4, 88675.56, 0.00000020107916, 10.00086, 9.999413 
1.5501207e+2, 1.8537319e+2, -1068113.5, -1173647.6, -42902.617, -0.022656415, 0.2039745, -1052873.3, 70484.47, 0.0, 10.000671, 9.999334 
1.5501231e+2, 1.9537263e+2, -1088878.8, -1144561.0, -33190.133, 0.030835832, 0.18190742, -1073398.8, -48035.316, 0.0, 9.99991, 9.999229 
1.5501313e+2, 2.053715e+2, -1006889.44, -1123438.5, 257.25906, 0.03690927, 0.18836668, -1006888.9, -79514.03, 0.0, 10.000102, 9.998598 
1.5501425e+2, 2.1536978e+2, -768812.5, -956521.4, -17570.969, -0.0015690846, 0.12023419, -767181.9, 62210.676, 0.0, 10.001067, 9.9986 
1.550148e+2, 2.253688e+2, -574888.8, -705338.0, -66926.4, -0.02781598, 0.11758644, -546660.8, 184740.42, 0.0, 10.0012665, 9.9995575 
1.5501487e+2, 2.3536824e+2, -561639.1, -662996.6, -15025.439, -0.048966527, 0.07173036, -559458.6, 73945.84, 0.0, 10.000738, 9.999435 
1.5501583e+2, 2.4536785e+2, -528168.25, -686479.06, -17321.678, 0.0062831105, 0.13682042, -526295.2, 9114.128, 0.0, 10.000688, 9.998623 
1.5501764e+2, 2.5536737e+2, -397366.28, -582770.25, -21874.027, 0.13689238, 0.19065543, -394820.53, 42597.813, 0.0, 10.000943, 9.998546 
1.5501882e+2, 2.6536667e+2, -251055.06, -371493.94, 20298.607, 0.13778564, 0.23351483, -247725.98, 91698.81, 0.0, 10.00092, 9.999319 
1.550194e+2, 2.7536553e+2, -229380.66, -336237.03, 76152.984, 0.018305385, 0.1571844, -189782.78, 51649.08, 0.000000019825112, 10.0004835, 9.999116 
1.550207e+2, 2.8536353e+2, -127065.42, -348558.0, 89910.266, -0.07014262, 0.10445326, -95163.2, 48285.688, 0.0000019865888, 10.001002, 9.998096 
1.5502286e+2, 2.9536092e+2, 150452.7, -150836.56, 89456.28, -0.09774869, -0.010789679, 175011.48, 220484.25, 0.000014949104, 10.002162, 9.998223 
1.5502656e+2, 3.0535963e+2, 207658.38, -169485.25, 94195.48, 0.018835193, 0.06871069, 229875.83, 229875.83, 0.000059797247, 10.002599, 9.997541 
1.5502852e+2, 3.1535852e+2, 178601.78, -106223.26, 86539.836, -0.089187704, 0.18645087, 202834.0, 202834.0, 0.00017773658, 10.001977, 9.998284 
1.6500364e+2, 1.2537293e+2, -1867292.1, -1840392.1, -109096.766, -0.12740046, 0.2896656, -1743919.4, -32557.19, 0.0014964563, 9.999066, 9.999569 
1.6500507e+2, 1.3537198e+2, -1644589.0, -1661689.8, -14077.321, -0.084873036, 0.18983035, -1636668.8, -23295.059, 0.0008776996, 9.999887, 9.999735 
1.6500737e+2, 1.4537302e+2, -1512048.6, -1451641.5, 41355.094, -0.01323667, 0.27938414, -1430634.8, 84728.37, 0.00037921302, 9.99974, 10.000547 
1.6500904e+2, 1.5537201e+2, -1532299.9, -1444112.6, 8311.067, -0.044296157, 0.10210926, -1443336.1, -25965.9, 0.00009882513, 9.999066, 10.000256 
1.6501048e+2, 1.6537185e+2, -1454147.0, -1418631.4, 5824.6563, -0.059554037, 0.09669772, -1417700.5, -98330.05, 0.000009884257, 9.9991865, 9.999703 
1.6501176e+2, 1.7537238e+2, -1255084.6, -1280126.9, -4047.7847, -0.063920766, 0.14014672, -1254446.6, -33081.188, 0.0000002904704, 9.999911, 9.999634 
1.6501254e+2, 1.8537238e+2, -1103195.1, -1205021.6, -47319.086, -0.024844697, 0.2070331, -1084601.1, 38764.31, 0.0, 10.000508, 9.999178 
1.6501288e+2, 1.9537169e+2, -938973.44, -1085985.4, -59753.418, 0.050701194, 0.18584521, -917750.3, 107621.805, 0.0, 10.001003, 9.999085 
1.6501385e+2, 2.0537043e+2, -874546.2, -1045560.06, 53976.22, 0.06548872, 0.17621173, -858935.0, 68449.53, 0.0, 10.000976, 9.998704 
1.650153e+2, 2.1536851e+2, -842118.25, -981296.5, 65997.31, 0.033422697, 0.08282595, -815799.7, 13603.344, 0.0, 10.000527, 9.998691 
1.65016e+2, 2.2536753e+2, -671588.2, -759125.5, 22894.008, 0.0056564887, 0.08011133, -665962.2, 65449.234, 0.0, 10.0006275, 9.999497 
1.6501598e+2, 2.3536725e+2, -502989.03, -636441.1, -32290.271, -0.024445627, 0.067415796, -495586.63, 137825.6, 0.0, 10.001156, 9.999413 
1.6501677e+2, 2.453667e+2, -456628.78, -663224.44, -21185.26, 0.0133011835, 0.12541774, -454478.72, 80940.07, 0.0, 10.001235, 9.998517 
1.6501835e+2, 2.553658e+2, -399848.22, -588017.06, -22254.78, 0.12446146, 0.14683078, -397251.97, 40180.09, 0.0, 10.000959, 9.998492 
1.6501994e+2, 2.6536512e+2, -204252.08, -365149.8, 33239.383, 0.14837842, 0.19808607, -197655.69, 141783.38, 0.0, 10.00129, 9.999191 
1.6502151e+2, 2.7536428e+2, 10870.816, -226046.1, -24559.834, 0.10581686, 0.15810509, 13390.008, 254834.19, 0.000000024295247, 10.002164, 9.999048 
1.6502306e+2, 2.8536215e+2, 22744.076, -325662.66, -11422.441, 0.012934226, 0.122464575, 23118.156, 166582.39, 0.0000019697127, 10.002251, 9.997656 
1.6502506e+2, 2.953592e+2, 70906.96, -225811.44, -55925.23, -0.06390802, 0.017764572, 81097.7, 126592.43, 0.000013995548, 10.001771, 9.997905 
1.6502889e+2, 3.0535913e+2, 67783.86, -175297.17, -29629.451, 0.070647836, 0.20291972, 71343.31, 71343.31, 0.000055183133, 10.0013275, 9.998131 
1.6503057e+2, 3.1535757e+2, 57363.188, -82035.37, -28870.621, -0.003455747, 0.21837814, 63105.953, 63105.953, 0.00016346599, 10.000744, 9.999057 
1.7500344e+2, 1.2537065e+2, -1801582.0, -1700493.1, -127803.21, -0.13127965, 0.25645283, -1613602.5, 97785.266, 0.0014785845, 9.999047, 10.000536 
1.7500462e+2, 1.3536943e+2, -1612078.6, -1577763.9, 22709.066, -0.1531764, 0.060083628, -1566459.4, 46938.742, 0.00086354057, 9.999835, 10.000322 
1.7500693e+2, 1.453715e+2, -1542195.1, -1505247.9, -1328.3639, -0.07341683, 0.24328794, -1505200.1, 10177.476, 0.00037008742, 9.999686, 10.000214 
1.7500852e+2, 1.5537174e+2, -1552901.5, -1481387.0, 2249.1018, -0.041354787, 0.21704844, -1481316.4, -63940.383, 0.000094032526, 9.999042, 10.000012 
1.750101e+2, 1.6537155e+2, -1440086.5, -1382315.3, 17725.467, -0.05198729, 0.207861, -1377310.4, -57933.78, 0.000008393363, 9.999145, 9.99998 
1.7501165e+2, 1.7537092e+2, -1244076.5, -1244800.4, 37960.9, -0.10328926, 0.11002445, -1206475.8, 14904.289, 0.00000020811186, 9.999859, 9.999902 
1.7501278e+2, 1.8537056e+2, -1117791.5, -1218673.5, -41812.824, -0.08549951, 0.13041148, -1102714.5, 20667.979, 0.0, 10.000427, 9.999127 
1.7501357e+2, 1.9537017e+2, -955917.9, -1093040.3, -27418.111, -0.015700135, 0.14178744, -950638.75, 74748.12, 0.0, 10.000885, 9.999095 
1.7501467e+2, 2.0536947e+2, -830861.5, -929190.6, 19700.975, 0.021240778, 0.14543065, -827061.1, 100330.555, 0.0, 10.000855, 9.999564 
1.750161e+2, 2.1536835e+2, -808446.2, -879569.4, 65467.18, 0.03108575, 0.043111026, -769505.56, 59893.027, 0.0, 10.000389, 9.999455 
1.7501703e+2, 2.2536771e+2, -762968.56, -918141.25, 28400.766, 0.01744381, 0.08970614, -757933.8, -26528.928, 0.0, 10.000494, 9.998469 
1.7501743e+2, 2.3536724e+2, -593626.9, -791521.1, 1188.6475, -0.026423402, 0.16162692, -593619.75, 39793.074, 0.0, 10.001008, 9.99842 
1.750179e+2, 2.4536602e+2, -448285.75, -624314.2, -45800.047, -0.026860476, 0.18232776, -437082.28, 98343.98, 0.0, 10.001142, 9.998825 
1.7501846e+2, 2.5536403e+2, -405203.66, -565364.0, -17177.752, 0.006009756, 0.06698492, -403382.0, 34063.64, 0.0, 10.000814, 9.998717 
1.7502052e+2, 2.65363e+2, -286847.97, -530836.0, 50015.57, 0.04515526, 0.13025053, -276993.22, 62464.04, 0.0, 10.001256, 9.998071 
1.7502367e+2, 2.7536237e+2, -78400.06, -391983.63, 19923.654, 0.07069421, 0.22044048, -77139.27, 164327.02, 0.000000035492793, 10.002069, 9.997958 
1.7502573e+2, 2.8536046e+2, -19007.004, -404204.9, -45339.906, 0.020036494, 0.282149, -13742.206, 129747.89, 0.0000021240596, 10.002223, 9.997122 
1.7502728e+2, 2.9535767e+2, 19516.674, -302983.22, -55466.523, -0.056672093, 0.24576604, 28789.69, 74314.086, 0.000013429294, 10.001659, 9.997418 
1.7503104e+2, 3.0535877e+2, 155623.2, 9780.672, -60300.125, 0.12317249, 0.507451, 177325.48, 177325.48, 0.000050919698, 10.001312, 9.999413 
1.750313e+2, 3.1535524e+2, 150943.77, 147622.28, 32245.61, -0.076817945, 0.19991978, 181571.38, 181571.38, 0.00014908816, 10.00062, 10.000683 
1.8500324e+2, 1.2536874e+2, -1777055.0, -1621944.1, -47677.496, -0.03675656, 0.21324997, -1608461.1, 102947.17, 0.0014297328, 9.998931, 10.001123 
1.8500388e+2, 1.3536808e+2, -1723034.5, -1609776.8, 12085.98, -0.15562692, 0.050862998, -1608501.4, 4910.683, 0.00082590414, 9.998988, 10.000504 
1.8500645e+2, 1.4537041e+2, -1625157.4, -1569002.0, 4277.5874, -0.054034848, 0.26312587, -1568678.0, -53289.273, 0.00034715154, 9.999206, 10.000004 
1.8500835e+2, 1.5537058e+2, -1464035.3, -1457995.9, -15247.861, 0.013511543, 0.2460918, -1445471.6, -28082.648, 0.0000844504, 9.999719, 9.99985 
1.8501003e+2, 1.6537043e+2, -1340315.8, -1309516.4, 40656.59, 0.003654092, 0.23726603, -1281440.6, 37948.133, 0.000006352812, 9.99976, 10.000164 
1.850116e+2, 1.7536984e+2, -1284693.4, -1244143.3, 26038.77, -0.068455964, 0.12647878, -1231416.9, -10026.497, 0.000000056960435, 9.999511, 10.000064 
1.8501304e+2, 1.8536936e+2, -1222818.5, -1248905.4, -14412.879, -0.05369503, 0.11559846, -1216423.3, -93030.21, 0.0, 9.999635, 9.999298 
1.8501431e+2, 1.9536875e+2, -1073719.5, -1130539.8, -15319.435, 0.022722542, 0.09046418, -1069852.5, -44453.918, 0.0, 10.000001, 9.999264 
1.8501562e+2, 2.0536825e+2, -891030.2, -954982.6, 19709.229, 0.061857864, 0.101673044, -885444.06, 41957.453, 0.0, 10.000412, 9.999605 
1.8501697e+2, 2.1536766e+2, -739891.8, -844202.6, -22185.121, 0.06513507, 0.04709411, -735369.5, 94034.46, 0.0, 10.000829, 9.999493 
1.8501809e+2, 2.2536694e+2, -694221.44, -921680.44, -17479.986, 0.04982605, 0.09916999, -692885.94, 38525.74, 0.0, 10.001126, 9.998142 
1.8501897e+2, 2.3536584e+2, -571978.4, -818826.6, -21627.268, 0.019986382, 0.14410363, -570097.9, 63328.227, 0.0, 10.001316, 9.998086 
1.8501948e+2, 2.4536432e+2, -407772.94, -626786.4, -49646.984, 0.0058383485, 0.16140635, -397044.28, 138398.34, 0.0, 10.001511, 9.998632 
1.8501975e+2, 2.5536227e+2, -289205.66, -530934.8, -84666.72, 0.017918954, 0.056382697, -262500.94, 174961.45, 0.0, 10.001692, 9.998533 
1.850219e+2, 2.653611e+2, -252796.89, -561101.5, 36635.305, 0.042128358, 0.13972409, -248503.38, 90972.95, 0.0, 10.0017185, 9.997632 
1.8502553e+2, 2.753604e+2, -153255.6, -472466.72, 25325.918, 0.07387871, 0.2700095, -151258.75, 90229.66, 0.000000044067633, 10.001762, 9.997555 
1.8502773e+2, 2.8535834e+2, -91089.36, -409583.28, 8059.687, 0.04039804, 0.31989634, -90885.53, 52628.797, 0.000002141611, 10.001569, 9.997414 
1.8502913e+2, 2.953553e+2, -51101.414, -309062.75, 24041.922, 0.0028308856, 0.23157604, -48879.844, -3329.8179, 0.000012353572, 10.001025, 9.997696 
1.8503277e+2, 3.0535737e+2, 92763.51, 11994.788, 53662.387, 0.20602293, 0.5589206, 119539.76, 119539.76, 0.00004451732, 10.000731, 9.99971 
1.8503235e+2, 3.153535e+2, 178615.69, 150681.81, 64890.24, -0.028479092, 0.1956945, 231025.1, 231025.1, 0.00012893318, 10.000786, 10.000661 
1.9500218e+2, 1.2536745e+2, -1781281.1, -1606236.0, -97117.53, -0.1136897, 0.18554151, -1563022.1, 148399.66, 0.0013506947, 9.998841, 10.001271 
1.9500245e+2, 1.353679e+2, -1751043.1, -1652573.6, 23205.08, -0.23212083, 0.16309689, -1647379.3, -33963.758, 0.00077082973, 9.998944, 10.000225 
1.9500546e+2, 1.4536977e+2, -1634626.3, -1574376.6, 5090.8066, -0.11697182, 0.3427968, -1573949.5, -58552.824, 0.0003170448, 9.999138, 10.000002 
1.9500805e+2, 1.5536873e+2, -1469378.9, -1458422.9, 15984.117, -0.024352085, 0.20387788, -1447004.1, -29596.818, 0.000073711046, 9.999676, 9.9998665 
1.9500983e+2, 1.6536869e+2, -1342045.6, -1304302.0, 18610.21, -0.026745988, 0.20177312, -1296669.4, 22736.055, 0.0000047225935, 9.999706, 10.000236 
1.9501121e+2, 1.7536925e+2, -1286089.1, -1234850.5, 35096.92, -0.09450433, 0.19547732, -1217017.0, 4378.637, 0.0000000036456946, 9.999453, 10.000162 
1.9501291e+2, 1.8536879e+2, -1211464.6, -1203421.6, -15182.3, -0.06407299, 0.16776803, -1191737.3, -68340.49, 0.0, 9.9995365, 9.999662 
1.9501473e+2, 1.9536738e+2, -1067120.9, -1093048.8, 13252.389, 0.03219675, 0.026993142, -1061546.0, -36137.957, 0.0, 9.999895, 9.999577 
1.9501622e+2, 2.0536676e+2, -965342.4, -1069972.0, 23495.576, 0.05134434, 0.04794189, -960308.44, -32894.457, 0.0, 10.00025, 9.998889 
1.9501747e+2, 2.1536651e+2, -810051.06, -953009.56, 7863.048, 0.0021716307, 0.099735916, -809619.9, 19798.4, 0.0, 10.000672, 9.998819 
1.9501878e+2, 2.2536531e+2, -695859.5, -886756.4, -25405.68, -0.019717865, 0.12202124, -692536.2, 38894.438, 0.0, 10.00097, 9.998454 
1.9502012e+2, 2.3536314e+2, -576288.6, -786466.25, -590.0637, -0.024226561, 0.026180979, -576287.0, 57164.5, 0.0, 10.001146, 9.998385 
1.9502112e+2, 2.4536167e+2, -470753.8, -729793.1, -56727.36, -0.010356094, 0.06543712, -458875.66, 76591.88, 0.0, 10.001392, 9.997982 
1.9502173e+2, 2.5536057e+2, -356302.63, -632222.44, -63879.402, 0.014172917, 0.12016339, -342231.25, 95250.16, 0.0, 10.001532, 9.997912 
1.9502364e+2, 2.653596e+2, -247459.98, -538612.06, 23913.26, 0.010992946, 0.2428216, -245508.98, 93985.445, 0.0, 10.001663, 9.99782 
1.9502664e+2, 2.7535835e+2, -152798.81, -454939.34, 45536.35, -0.026251929, 0.30423245, -146085.11, 95425.61, 0.000000036761158, 10.001681, 9.997723 
1.9502874e+2, 2.8535566e+2, -24465.248, -257081.56, -23992.586, -0.04998267, 0.23001444, -22016.379, 121522.02, 0.0000018181237, 10.0015135, 9.998486 
1.9503018e+2, 2.9535216e+2, -706.3683, -169421.11, 20427.848, -0.03485189, -0.011475261, 1731.785, 47302.934, 0.000010151812, 10.000885, 9.998717 
1.9503365e+2, 3.0535492e+2, 42953.12, -78834.88, 41830.832, 0.18668216, 0.3695247, 55936.707, 55936.707, 0.00003534469, 10.000692, 9.999096 
1.9503285e+2, 3.153527e+2, 66087.484, -43235.945, 156277.05, -0.12596543, 0.22449815, 176986.69, 176986.69, 0.000103030594, 10.00065, 9.9993725 
2.0500171e+2, 1.2536679e+2, -1847526.0, -1639957.5, -50992.223, -0.0060239127, 0.233468, -1628107.1, 83322.51, 0.0012481128, 9.998404, 10.001258 
2.0500216e+2, 1.3536702e+2, -1682496.3, -1654210.5, 13972.012, -0.17040701, 0.21833181, -1648472.8, -35048.145, 0.0007037624, 9.999542, 9.999949 
2.0500559e+2, 1.4536782e+2, -1537218.5, -1528324.0, 20651.904, -0.042772338, 0.3105662, -1511645.9, 3769.3813, 0.00028324383, 9.999826, 9.999985 
2.0500752e+2, 1.5536676e+2, -1473913.0, -1462663.6, -12151.3, -0.034660134, 0.1735365, -1454898.4, -37473.13, 0.000063005726, 9.999664, 9.999841 
2.0500945e+2, 1.6536665e+2, -1360225.0, -1331521.1, -1694.3792, -0.024758134, 0.17126885, -1331421.4, -11997.228, 0.0000035155435, 9.9996605, 10.000074 
2.0501167e+2, 1.7536697e+2, -1265250.5, -1244434.4, -35750.83, 0.0054394337, 0.1652692, -1217607.4, 3809.9304, 0.0000000004928599, 9.999678, 9.999994 
2.0501348e+2, 1.853667e+2, -1151014.8, -1147764.0, -52274.906, 0.03382137, 0.14815712, -1097089.3, 26327.62, 0.0, 9.999827, 9.999905 
2.0501477e+2, 1.9536577e+2, -1022392.5, -1048459.7, -62734.434, 0.047256608, 0.031040555, -971352.06, 54070.85, 0.0, 10.000092, 9.999788 
2.0501631e+2, 2.0536532e+2, -961550.2, -1104341.8, -6854.62, 0.033679973, 0.07381235, -961221.9, -33793.273, 0.0, 10.000428, 9.998569 
2.0501818e+2, 2.1536498e+2, -819888.44, -990009.3, -18582.393, 0.00985103, 0.14948018, -817882.4, 11554.186, 0.0, 10.000749, 9.9985285 
2.0502008e+2, 2.253638e+2, -664482.4, -831276.0, -13579.323, 0.017874742, 0.16909498, -663384.06, 68064.836, 0.0, 10.001006, 9.998815 
2.0502202e+2, 2.3536168e+2, -547424.25, -738296.75, -14149.208, 0.055964626, 0.04214919, -546381.06, 87086.02, 0.0, 10.001184, 9.998701 
2.0502307e+2, 2.453601e+2, -460482.28, -747535.4, -18941.988, 0.04615772, 0.06877277, -459237.72, 76245.48, 0.0, 10.001561, 9.997776 
2.0502333e+2, 2.5535884e+2, -278865.4, -616827.94, -23400.9, -0.00024198413, 0.12923051, -277252.78, 160246.28, 0.0, 10.002165, 9.99771 
2.0502526e+2, 2.6535785e+2, -161541.2, -485979.1, 82751.6, -0.011491204, 0.2500467, -141653.55, 197858.84, 0.0, 10.002199, 9.997923 
2.050286e+2, 2.753566e+2, -142172.19, -436896.25, 66597.05, 0.009700862, 0.3000696, -127822.33, 113705.305, 0.00000002096579, 10.0017, 9.997832 
2.0503066e+2, 2.8535372e+2, -1230.0898, -239615.08, -4676.2866, -0.004712125, 0.20312116, -1138.3926, 142417.2, 0.0000012828043, 10.001665, 9.998528 
2.050317e+2, 2.9535002e+2, 183014.13, -76211.61, -67481.44, -0.022906065, -0.06611313, 199528.73, 245117.64, 0.000007381431, 10.002134, 9.998755 
2.0503472e+2, 3.0535284e+2, 200737.9, -43983.723, -54705.547, 0.17285953, 0.33940613, 212410.17, 212410.17, 0.00002618385, 10.001956, 9.998738 
2.0503463e+2, 3.1535086e+2, 66000.67, -133319.56, 55217.367, -0.018351892, 0.2547854, 80275.17, 80275.17, 0.000078949044, 10.001073, 9.998543 
2.1500072e+2, 1.253667e+2, -1870086.5, -1673495.1, -56004.48, -0.019391295, 0.35832247, -1658660.1, 52771.906, 0.0011286415, 9.998338, 10.001063 
2.1500264e+2, 1.3536547e+2, -1689465.6, -1681139.8, 68940.33, -0.11249528, 0.21757342, -1616236.8, -2797.8862, 0.00062779407, 9.999586, 9.999745 
2.1500637e+2, 1.4536479e+2, -1555347.3, -1557541.5, -3762.162, 0.009257199, 0.17919488, -1552525.5, -37082.793, 0.00024660726, 9.999786, 9.999802 
2.1500634e+2, 1.553648e+2, -1483603.8, -1486630.0, -1841.6024, -0.15846862, 0.161494, -1482733.4, -65291.68, 0.000052325075, 9.999673, 9.999672 
2.150084e+2, 1.653643e+2, -1404605.9, -1405725.5, -15194.598, -0.12765224, 0.15340845, -1389960.9, -70515.69, 0.000002586899, 9.999584, 9.999599 
2.1501254e+2, 1.7536299e+2, -1306170.3, -1310883.5, -18493.35, 0.09190598, 0.026883261, -1289884.0, -68428.22, 0.000000000052014764, 9.999602, 9.999567 
2.1501431e+2, 1.8536296e+2, -1161198.8, -1143411.0, -54723.004, 0.10373046, 0.051375616, -1096863.9, 26590.37, 0.0, 9.999711, 9.999992 
2.1501406e+2, 1.9536383e+2, -1022481.44, -1035258.9, -36154.53, -0.0702388, 0.099348195, -992155.5, 33288.543, 0.0, 10.000025, 9.999912 
2.150155e+2, 2.0536385e+2, -971720.3, -1096711.3, -8921.216, -0.11842956, 0.18053582, -971086.75, -43641.098, 0.0, 10.000306, 9.998678 
2.150186e+2, 2.1536295e+2, -832160.4, -980472.56, 5395.061, -0.05396323, 0.187668, -831964.4, -2504.7478, 0.0, 10.000597, 9.998664 
2.1502149e+2, 2.2536223e+2, -662384.2, -785370.25, -20912.674, 0.031587854, 0.22492866, -658925.5, 72542.26, 0.0, 10.000833, 9.999209 
2.1502419e+2, 2.3536147e+2, -546943.8, -691976.5, 9232.706, 0.12446223, 0.1903719, -546358.44, 87114.3, 0.0, 10.000995, 9.999105 
2.1502498e+2, 2.4535978e+2, -463202.63, -730073.94, -10530.744, 0.0509463, 0.17758796, -462787.72, 72700.914, 0.0, 10.00146, 9.997948 
2.1502419e+2, 2.5535718e+2, -286364.2, -599587.25, 13823.543, -0.16605306, 0.0887912, -285755.3, 151759.81, 0.0, 10.002025, 9.997899 
2.1502633e+2, 2.653558e+2, -173242.25, -490419.16, 49422.52, -0.15550941, 0.16542692, -165719.64, 173810.53, 0.0, 10.002114, 9.99793 
2.1503091e+2, 2.7535504e+2, -165336.03, -453555.78, 64919.863, 0.038039006, 0.2604537, -151388.19, 90151.78, 0.00000000626477, 10.001563, 9.997783 
2.1503311e+2, 2.8535247e+2, -66944.64, -366149.63, -1766.9427, 0.038062304, 0.23958862, -66934.21, 76632.484, 0.00000075455597, 10.001626, 9.997676 
2.1503337e+2, 2.9534888e+2, 106689.266, -217918.31, -35093.36, -0.108433604, 0.069271155, 110439.88, 156042.77, 0.0000049684672, 10.002063, 9.997818 
2.1503563e+2, 3.053511e+2, 183422.64, -83672.17, -99454.734, 0.03962167, 0.47756642, 216386.97, 216386.97, 0.000019575336, 10.0019655, 9.998466 
2.1503691e+2, 3.153479e+2, 8236.55, -235423.06, 96914.57, 0.03053711, 0.29534277, 42082.484, 42082.484, 0.00006230811, 10.000992, 9.997887 
2.2500029e+2, 1.2536442e+2, -1734101.5, -1637832.3, -28147.705, 0.06915867, 0.3399332, -1630206.4, 81246.14, 0.0009987325, 9.999388, 10.000798 
2.2500302e+2, 1.3536328e+2, -1629751.5, -1652414.4, 27779.13, -0.042185538, 0.2070788, -1611081.6, 2377.2954, 0.0005469882, 10.000019, 9.999716 
2.2500724e+2, 1.4536205e+2, -1519036.1, -1562109.1, -36445.824, 0.10895259, 0.12480769, -1498239.3, 17229.625, 0.00020906689, 10.000133, 9.999614 
2.2500621e+2, 1.5536234e+2, -1455375.9, -1494627.0, -67137.19, -0.14410383, 0.15922822, -1405054.5, 12411.445, 0.000042237294, 9.999966, 9.999483 
2.2500807e+2, 1.6536205e+2, -1338174.3, -1348739.6, -16491.729, -0.12768377, 0.1704492, -1326139.8, -6672.239, 0.0000020119714, 9.999937, 9.999808 
2.2501267e+2, 1.7536081e+2, -1236317.3, -1257501.9, -3493.1316, 0.13249373, 0.028180256, -1235756.1, -14279.066, 0.0, 10.000004, 9.999729 
2.2501458e+2, 1.8536076e+2, -1091799.6, -1133368.9, 8186.185, 0.13790742, 0.053646978, -1090245.6, 33230.316, 0.0, 10.000287, 9.999786 
2.2501417e+2, 1.9536164e+2, -952697.44, -1022308.1, -28859.926, -0.08295958, 0.1267266, -942288.75, 83177.86, 0.0, 10.00061, 9.999722 
2.2501597e+2, 2.0536159e+2, -910692.06, -1031608.5, 8178.3174, -0.10902911, 0.19174628, -910141.44, 17327.143, 0.0, 10.000559, 9.99902 
2.2501978e+2, 2.1536042e+2, -887129.4, -973422.0, 16242.615, 0.04000642, 0.1403979, -884173.3, -54690.14, 0.0, 10.000063, 9.998983 
2.2502269e+2, 2.2536002e+2, -768815.1, -829811.6, 25276.75, 0.11531808, 0.19166325, -759702.06, -28213.781, 0.0, 10.000062, 9.999281 
2.2502485e+2, 2.3536007e+2, -621688.56, -718117.7, -276.11142, 0.12928206, 0.23371463, -621687.75, 11799.377, 0.0, 10.0004425, 9.999192 
2.250262e+2, 2.4535868e+2, -530459.7, -746974.06, 6235.4873, 0.060712785, 0.2365367, -530280.25, 5220.603, 0.0, 10.000931, 9.998085 
2.2502679e+2, 2.5535578e+2, -347989.16, -619027.6, -3965.3506, -0.074486524, 0.10348572, -347931.16, 89598.37, 0.0, 10.001542, 9.998003 
2.2502905e+2, 2.6535404e+2, -231784.6, -519104.03, 26894.488, -0.067752145, 0.13621181, -229288.81, 110258.58, 0.0, 10.001719, 9.997919 
2.2503275e+2, 2.7535287e+2, -154024.06, -447520.38, 12395.045, 0.07118275, 0.19396318, -153501.52, 88058.0, 0.00000000006385136, 10.0016365, 9.997786 
2.2503501e+2, 2.8535062e+2, -53106.43, -372830.9, 30451.74, 0.06868221, 0.20740618, -50231.938, 93351.48, 0.00000032397858, 10.00177, 9.997562 
2.2503597e+2, 2.9534787e+2, 86984.65, -247614.72, 18930.092, -0.04257249, 0.13255726, 88052.22, 133664.83, 0.000003287384, 10.002024, 9.997623 
2.2503746e+2, 3.053491e+2, 160405.05, -144492.3, -23203.928, 0.03695317, 0.48101643, 162160.86, 162160.86, 0.00001601569, 10.002018, 9.998018 
2.250391e+2, 3.1534472e+2, 108865.96, -186405.73, 136752.61, 0.13414963, 0.2070713, 162470.31, 162470.31, 0.000054019332, 10.001668, 9.997897 
2.3499976e+2, 1.253599e+2, -1766709.0, -1700657.5, -31383.645, -0.0010210959, 0.1652243, -1688124.1, 23366.934, 0.0008678289, 9.999372, 10.00038 
2.3500277e+2, 1.3536026e+2, -1620635.4, -1645844.9, 53076.176, -0.103434436, 0.19013779, -1578687.8, 34798.305, 0.00046623294, 10.000053, 9.999758 
2.3500758e+2, 1.4535931e+2, -1542837.5, -1581793.1, -60626.617, 0.0978234, 0.13663982, -1498636.8, 16859.46, 0.00017258529, 10.000014, 9.9995365 
2.350067e+2, 1.5535927e+2, -1467815.8, -1511352.4, -55212.33, -0.12798963, 0.15315059, -1430235.5, -12736.205, 0.000033446406, 9.999928, 9.99939 
2.3500806e+2, 1.6535974e+2, -1297918.4, -1241535.4, -29990.19, -0.15794718, 0.20600133, -1228566.5, 90926.586, 0.0000017722703, 9.999841, 10.000592 
2.3501171e+2, 1.753602e+2, -1187987.9, -1145333.5, 13955.9795, 0.0021284884, 0.15402018, -1141173.0, 80310.336, 0.0000000001389195, 9.999949, 10.00053 
2.3501387e+2, 1.8536001e+2, -1151389.9, -1226612.0, 6424.4155, 0.0073827477, 0.15508905, -1150845.1, -27362.203, 0.0, 10.000162, 9.999207 
2.350146e+2, 1.9535911e+2, -1003046.5, -1108862.6, -4716.787, -0.13138847, 0.11019615, -1002836.6, 22655.26, 0.0, 10.000529, 9.999168 
2.3501712e+2, 2.0535833e+2, -892465.44, -951559.06, -24640.617, -0.07277273, 0.09730958, -883539.2, 43959.742, 0.0, 10.000384, 9.999649 
2.350213e+2, 2.1535735e+2, -869406.7, -896965.4, 15488.328, 0.15533672, -0.0006114706, -862455.44, -32948.066, 0.0, 9.999891, 9.999589 
2.3502335e+2, 2.253572e+2, -815799.2, -887316.1, 29080.395, 0.14710362, 0.06394162, -805467.1, -73957.06, 0.0, 9.999894, 9.998969 
2.3502363e+2, 2.3535761e+2, -662292.44, -772126.2, 31298.195, -0.06986097, 0.17457241, -653999.8, -20490.004, 0.0, 10.000308, 9.998891 
2.3502615e+2, 2.4535674e+2, -537516.8, -738847.7, 15283.225, -0.0689439, 0.2401232, -536363.25, -842.5248, 0.0, 10.000831, 9.99819 
2.350306e+2, 2.5535458e+2, -361981.38, -613162.75, 32523.39, 0.12063338, 0.17038183, -357838.53, 79704.42, 0.0, 10.00139, 9.9981165 
2.3503298e+2, 2.6535252e+2, -246287.84, -528749.06, 9108.84, 0.12313721, 0.16629566, -245994.4, 93569.15, 0.0, 10.001636, 9.997895 
2.350337e+2, 2.7535006e+2, -170489.42, -454910.72, 27862.578, -0.030219879, 0.09975355, -167785.64, 73800.93, 0.0, 10.001517, 9.997798 
2.3503587e+2, 2.8534818e+2, -14905.462, -281530.47, 27368.89, -0.057885237, 0.1163722, -12125.057, 131480.16, 0.00000009734078, 10.001719, 9.998213 
2.3503895e+2, 2.9534695e+2, 107215.35, -184176.08, 43625.273, 0.010384051, 0.1312142, 113606.48, 159224.92, 0.0000024854203, 10.001919, 9.998117 
2.3503967e+2, 3.0534694e+2, 128423.59, -203874.67, -45169.4, 0.022747647, 0.35373557, 134454.05, 134454.05, 0.000014818684, 10.001994, 9.997622 
2.3504043e+2, 3.1534156e+2, 152702.73, -82196.95, 175422.31, 0.027335828, 0.01803723, 246362.94, 246362.94, 0.00005156838, 10.001602, 9.998653 
2.450003e+2, 1.2535617e+2, -1586677.4, -1661830.6, 30290.375, 0.059282236, 0.06553097, -1575989.0, 135534.52, 0.00074233726, 10.000845, 9.9999275 
2.4500234e+2, 1.3535737e+2, -1702961.5, -1699885.8, 20545.645, -0.11375709, 0.18720607, -1680820.5, -67306.28, 0.00038816038, 9.999565, 9.99962 
2.4500735e+2, 1.4535692e+2, -1636041.0, -1577600.4, -19032.521, 0.12726703, 0.16802204, -1571948.6, -56428.18, 0.00013769997, 9.999151, 9.999975 
2.4500707e+2, 1.553571e+2, -1463943.6, -1464542.8, -5815.2017, -0.06355966, 0.15798923, -1458420.3, -40899.77, 0.000025817635, 9.999772, 9.999774 
2.4500841e+2, 1.6535768e+2, -1269004.3, -1261129.1, 22362.11, -0.11473258, 0.22142701, -1242360.6, 77152.93, 0.0000016011192, 10.000171, 10.000314 
2.450117e+2, 1.7535831e+2, -1165898.9, -1164187.8, -44280.117, 0.000499938, 0.21430755, -1120754.9, 100748.91, 0.0000000006420841, 10.000225, 10.000278 
2.4501407e+2, 1.8535788e+2, -1164617.3, -1227531.8, -40629.38, 0.025133273, 0.20246331, -1144690.6, -21184.914, 0.0, 10.000058, 9.999244 
2.4501552e+2, 1.9535637e+2, -1133276.5, -1167519.8, -31061.295, -0.039207757, 0.091447145, -1114930.4, -89411.26, 0.0, 9.999633, 9.9991865 
2.4501799e+2, 2.0535544e+2, -964029.94, -991670.94, -24030.002, 0.0059465133, 0.06671984, -950129.56, -22602.432, 0.0, 9.9999275, 9.999583 
2.4502157e+2, 2.153548e+2, -755639.8, -846443.44, -69724.91, 0.16232765, 0.009110116, -717837.75, 111694.71, 0.0, 10.00071, 9.999531 
2.4502353e+2, 2.253546e+2, -664111.0, -809761.5, -44847.723, 0.13370526, 0.06924409, -651409.44, 80126.36, 0.0, 10.000921, 9.999003 
2.4502419e+2, 2.3535463e+2, -615457.44, -741775.7, -39552.883, -0.052249692, 0.13742208, -604094.75, 29444.549, 0.0, 10.000609, 9.998949 
2.4502726e+2, 2.4535416e+2, -528401.5, -697557.2, 15107.709, -0.029274145, 0.22267935, -527062.8, 8483.737, 0.0, 10.000725, 9.998537 
2.4503243e+2, 2.553531e+2, -366884.3, -574969.56, 21809.418, 0.18255104, 0.22702634, -364623.03, 72935.51, 0.0, 10.001187, 9.998482 
2.4503496e+2, 2.653512e+2, -259838.75, -536198.6, 18676.459, 0.16891132, 0.2251798, -258582.3, 80994.84, 0.0, 10.00153, 9.997903 
2.4503535e+2, 2.7534837e+2, -133251.83, -430824.16, 11168.939, -0.019898206, 0.11475371, -132833.2, 108770.51, 0.0, 10.001754, 9.997847 
2.4503772e+2, 2.853465e+2, -17126.809, -278574.2, 18496.525, -0.03202221, 0.12853293, -15824.726, 127797.195, 0.00000009803459, 10.001677, 9.998262 
2.4504136e+2, 2.9534537e+2, 26859.943, -215903.75, -39729.02, 0.09726492, 0.14710131, 33196.332, 78830.25, 0.0000023443192, 10.001333, 9.998185 
2.4504137e+2, 3.053444e+2, 77302.71, -229732.3, -81468.336, 0.023150992, 0.27257133, 97580.24, 97580.24, 0.000014153015, 10.001654, 9.997608 
2.4504283e+2, 3.153403e+2, 305439.3, 91686.1, 97034.016, 0.09199157, 0.060950648, 342917.16, 342917.16, 0.00004937861, 10.00226, 9.999514 
2.5500092e+2, 1.2535337e+2, -1628594.6, -1740092.8, -28846.164, -0.035582583, 0.042660713, -1621573.9, 89975.15, 0.00062344765, 10.000804, 9.999414 
2.5500143e+2, 1.3535444e+2, -1715033.8, -1721821.9, -16052.281, -0.19479325, 0.1813231, -1702020.6, -88476.23, 0.0003143659, 9.9995575, 9.999475 
2.550063e+2, 1.453548e+2, -1584813.0, -1453629.1, -15448.861, 0.06412628, 0.20263107, -1451834.4, 63707.875, 0.00010539114, 9.999081, 10.0008545 
2.5500673e+2, 1.5535566e+2, -1413719.8, -1346954.1, 31086.842, -0.110747725, 0.17184854, -1334721.1, 82809.695, 0.000019009012, 9.999719, 10.000601 
2.5500864e+2, 1.6535585e+2, -1372100.4, -1453931.3, 9245.398, -0.14052653, 0.21890588, -1371068.9, -51540.004, 0.0000013062046, 10.00008, 9.999034 
2.5501212e+2, 1.753552e+2, -1259308.4, -1346820.9, -25787.617, -0.012888623, 0.21411572, -1252274.8, -30737.248, 0.000000000635992, 10.000178, 9.999045 
2.5501475e+2, 1.8535443e+2, -1132857.9, -1139530.0, -68531.09, 0.054262888, 0.19571799, -1067581.8, 55961.668, 0.0, 9.999958, 9.999896 
2.5501645e+2, 1.9535331e+2, -1101132.4, -1081259.3, -29443.076, 0.055459473, 0.055473667, -1060121.3, -34571.992, 0.0, 9.99954, 9.999823 
2.550182e+2, 2.0535281e+2, -1052176.3, -1132724.4, -6240.549, 0.008421053, 0.08642003, -1051695.6, -124141.62, 0.0, 9.999751, 9.998698 
2.550202e+2, 2.153526e+2, -834329.4, -976764.6, -27406.172, -0.07688838, 0.15941046, -829238.1, 321.81293, 0.0, 10.000567, 9.998704 
2.5502282e+2, 2.2535206e+2, -654936.0, -756998.1, -71342.28, -0.05963071, 0.20305064, -618252.25, 113314.55, 0.0, 10.000775, 9.999436 
2.5502604e+2, 2.35351e+2, -606138.8, -688192.4, -35203.703, 0.041947916, 0.115921564, -593105.5, 40471.49, 0.0, 10.000458, 9.999392 
2.5502908e+2, 2.453508e+2, -503581.25, -618054.1, 17601.295, 0.052426923, 0.17546867, -500936.0, 34643.594, 0.0, 10.000612, 9.999134 
2.5503185e+2, 2.5535113e+2, -350239.47, -504799.0, 51199.203, -0.02393827, 0.25995216, -334818.0, 102760.1, 0.0, 10.001033, 9.999038 
2.550345e+2, 2.6535004e+2, -271511.44, -531523.8, 11351.576, -0.059947565, 0.30968302, -271016.78, 68572.36, 0.0, 10.001417, 9.997985 
2.5503722e+2, 2.7534756e+2, -147076.2, -430621.97, 33697.22, -0.043851983, 0.22765379, -143126.56, 98486.55, 0.0, 10.001627, 9.997912 
2.5504017e+2, 2.8534538e+2, -64480.46, -357581.28, -9779.306, 0.011225889, 0.23193318, -64154.535, 79480.82, 0.00000013920514, 10.001603, 9.99775 
2.5504264e+2, 2.95343e+2, -28661.465, -293191.7, -36616.215, 0.055185188, 0.17909159, -23686.615, 21973.34, 0.0000022917138, 10.001178, 9.997725 
2.550421e+2, 3.0534133e+2, 96462.23, -177952.39, -66005.71, -0.09905822, 0.23309666, 111513.25, 111513.25, 0.0000129202135, 10.001607, 9.99798 
2.5504532e+2, 3.1534025e+2, 342031.28, 186284.31, 140162.72, 0.044292092, 0.29321426, 424500.75, 424500.75, 0.000045825393, 10.002179, 10.000204 
2.6500124e+2, 1.2535098e+2, -1813215.9, -1812312.4, 900.15533, 0.00073873485, 0.09484875, -1811757.0, -100182.35, 0.00051409315, 9.999415, 9.999601 
2.6500103e+2, 1.3535196e+2, -1646090.3, -1673968.3, -42733.78, -0.18971366, 0.19931209, -1615079.6, -1509.9113, 0.0002486299, 9.999922, 9.999642 
2.650058e+2, 1.4535253e+2, -1495965.5, -1431869.0, -8936.153, 0.08085172, 0.24259308, -1430646.4, 84918.4, 0.00007773356, 9.999787, 10.000665 
2.6500687e+2, 1.5535283e+2, -1434014.9, -1379870.1, -76295.86, -0.05634988, 0.17577435, -1325985.9, 91572.71, 0.000013419433, 9.999662, 10.000414 
2.6500916e+2, 1.6535267e+2, -1411751.9, -1466832.4, -51075.484, -0.071559496, 0.1958449, -1381264.8, -61705.08, 0.0000010267595, 9.99979, 9.999079 
2.650127e+2, 1.75352e+2, -1272481.8, -1347749.1, -18205.162, 0.041979365, 0.18161613, -1268309.8, -46741.297, 0.0000000012219834, 10.000069, 9.999083 
2.6501533e+2, 1.8535146e+2, -1074699.1, -1120068.1, -25425.45, 0.102485515, 0.18743236, -1063309.6, 60263.406, 0.0, 10.0004, 9.99982 
2.6501706e+2, 1.9535083e+2, -946472.7, -1015917.25, -75906.266, 0.116008095, 0.10693178, -897724.0, 127852.195, 0.0, 10.000645, 9.999745 
2.650187e+2, 2.0535037e+2, -925645.6, -1071758.5, -2571.5725, 0.049738366, 0.14538796, -925600.4, 1980.4963, 0.0, 10.000606, 9.9987135 
2.6502046e+2, 2.1534987e+2, -887850.75, -1003302.7, 14952.202, -0.08093436, 0.18936759, -885945.7, -56357.11, 0.0, 10.000199, 9.998706 
2.6502323e+2, 2.2534917e+2, -734427.9, -789738.56, 8540.607, -0.05890048, 0.21556705, -733139.1, -1543.1573, 0.0, 10.000191, 9.9995 
2.65027e+2, 2.3534817e+2, -597703.94, -680190.6, -17090.117, 0.09866694, 0.128027, -594303.25, 39301.348, 0.0, 10.000487, 9.999438 
2.6502994e+2, 2.4534778e+2, -512860.1, -621002.9, 33553.836, 0.08862356, 0.1681333, -503295.22, 32313.2, 0.0, 10.000556, 9.999135 
2.6503208e+2, 2.5534776e+2, -432628.34, -540813.06, -2080.2217, -0.06657533, 0.21690845, -432588.38, 5021.588, 0.0, 10.000464, 9.999057 
2.650353e+2, 2.6534683e+2, -355857.22, -541739.8, -15922.819, -0.07555631, 0.268284, -354503.13, -14883.825, 0.0, 10.000696, 9.998266 
2.6503974e+2, 2.7534515e+2, -183333.44, -411723.7, -11571.509, 0.07517083, 0.2374529, -182748.66, 58886.887, 0.0, 10.001234, 9.998226 
2.650429e+2, 2.8534314e+2, -69585.33, -390397.97, -21226.92, 0.13182013, 0.25675914, -68186.92, 75469.53, 0.00000017298198, 10.001697, 9.997477 
2.6504424e+2, 2.953402e+2, 95975.695, -255256.5, -57870.69, 0.06194005, 0.17196205, 105265.06, 150952.39, 0.000002277503, 10.002123, 9.997532 
2.650434e+2, 3.0533823e+2, 173209.56, -181582.17, -66037.305, -0.14927731, 0.21942988, 185102.42, 185102.42, 0.000011809922, 10.00228, 9.997654 
2.6504815e+2, 3.1533706e+2, 223491.25, 89676.35, 13137.305, 0.1566351, 0.31337962, 224768.81, 224768.81, 0.000042458643, 10.001492, 9.999888 
2.7500063e+2, 1.2534896e+2, -1750737.5, -1681726.6, 4779.2373, -0.08251952, 0.2157527, -1681397.3, 30203.447, 0.00042131313, 9.999398, 10.000512 
2.7500048e+2, 1.3535002e+2, -1604308.3, -1589287.9, -20598.883, -0.27496514, 0.26189536, -1574872.8, 38715.996, 0.0001952308, 9.999929, 10.000219 
2.7500522e+2, 1.4535017e+2, -1590461.6, -1617825.8, -36467.906, 0.0022311644, 0.3033435, -1565193.6, -49606.58, 0.000056360343, 9.999745, 9.99941 
2.7500713e+2, 1.553487e+2, -1521290.4, -1548202.4, -62504.957, -0.03221686, 0.18374884, -1470809.4, -53206.992, 0.000009372096, 9.999616, 9.999281 
2.7500966e+2, 1.6534829e+2, -1323290.1, -1268803.4, -54109.258, -0.034519896, 0.15925588, -1235466.1, 84138.586, 0.0000008660051, 9.999727, 10.000465 
2.750129e+2, 1.7534864e+2, -1192301.5, -1166363.4, 7418.71, 0.016719934, 0.11077982, -1164391.4, 57205.816, 0.000000004874734, 10.000008, 10.000358 
2.7501535e+2, 1.8534881e+2, -1155163.5, -1257587.8, -31090.94, 0.03386421, 0.17536049, -1146464.6, -22868.725, 0.0, 10.000275, 9.998935 
2.750169e+2, 1.9534874e+2, -1018878.56, -1141130.1, -50784.7, 0.0037138883, 0.23711403, -1000534.56, 25066.71, 0.0, 10.000543, 9.998932 
2.7501908e+2, 2.0534807e+2, -881098.5, -948522.7, -32303.746, -0.0031516769, 0.24781652, -868119.75, 59488.11, 0.0, 10.000474, 9.999622 
2.7502185e+2, 2.1534654e+2, -850558.3, -885849.2, 15740.252, 0.008927253, 0.095360726, -844558.1, -14939.282, 0.0, 10.000028, 9.999592 
2.7502435e+2, 2.2534594e+2, -787620.2, -857562.8, 5894.8667, 0.00720963, 0.10532174, -787126.9, -55503.59, 0.0, 10.000009, 9.999125 
2.7502662e+2, 2.3534594e+2, -649353.44, -749165.7, 7116.996, -0.016898831, 0.16024761, -648848.5, -15224.547, 0.0, 10.000318, 9.999051 
2.750294e+2, 2.4534497e+2, -570618.94, -711655.06, 16995.645, -0.048490252, 0.18881945, -568599.75, -32965.68, 0.0, 10.000433, 9.99857 
2.7503258e+2, 2.553428e+2, -488643.8, -629339.25, 11325.45, -0.09397538, 0.08258282, -487737.97, -50082.51, 0.0, 10.000336, 9.998516 
2.7503696e+2, 2.6534152e+2, -336379.94, -477389.53, -13363.466, -0.012110849, 0.09427789, -335124.66, 4543.511, 0.0, 10.000605, 9.998747 
2.7504247e+2, 2.753409e+2, -174997.11, -362149.53, 22073.055, 0.19413453, 0.12694035, -172429.02, 69244.32, 0.00000000009324417, 10.001097, 9.998632 
2.7504563e+2, 2.853395e+2, -77844.72, -393047.3, -21874.102, 0.19622919, 0.18796653, -76333.96, 67354.445, 0.00000023612336, 10.0016365, 9.997483 
2.7504572e+2, 2.9533675e+2, 86771.234, -256380.64, -21968.305, -0.051462702, 0.11717546, 88171.914, 133889.95, 0.0000024951785, 10.002032, 9.997571 
2.7504468e+2, 3.0533513e+2, 106126.57, -297281.8, -98965.086, -0.2762732, 0.23795068, 129096.97, 129096.97, 0.0000116764495, 10.002213, 9.996875 
2.7505028e+2, 3.153311e+2, 100143.39, -114466.234, -4853.167, 0.15099053, 0.13560748, 100253.08, 100253.08, 0.000040637482, 10.001294, 9.998571 
2.8500032e+2, 1.2534565e+2, -1824743.6, -1661039.6, 63530.945, 0.0012219128, 0.2481681, -1639277.3, 72357.18, 0.00034670465, 9.99869, 10.000973 
2.8500062e+2, 1.353463e+2, -1612880.4, -1566724.0, -82893.55, -0.23443487, 0.23092732, -1503756.0, 109867.75, 0.00015383656, 9.99979, 10.0004225 
2.8500518e+2, 1.4534622e+2, -1557321.8, -1633040.9, -65747.12, 0.017421644, 0.2541009, -1519312.9, -3688.928, 0.00004093297, 10.000105, 9.999132 
2.850079e+2, 1.5534478e+2, -1478678.5, -1550860.5, -49749.69, 0.07487155, 0.1630085, -1453307.4, -35666.824, 0.0000066741927, 10.000001, 9.999078 
2.8501034e+2, 1.653445e+2, -1289266.4, -1211516.8, -11133.243, 0.06653449, 0.14322515, -1209954.0, 109687.82, 0.00000074756446, 9.999788, 10.000838 
2.850127e+2, 1.7534508e+2, -1239008.6, -1153981.4, -54837.707, 0.02784274, 0.08368253, -1127107.9, 94523.33, 0.000000006090155, 9.999523, 10.0006895 
2.850151e+2, 1.8534555e+2, -1243824.8, -1299490.6, -46307.586, 0.023332343, 0.16017161, -1217629.4, -94002.055, 0.0, 9.999666, 9.998937 
2.8501746e+2, 1.9534576e+2, -1078593.4, -1170829.5, -28803.953, 0.036450755, 0.25175706, -1070337.4, -44706.277, 0.0, 10.000128, 9.998928 
2.8502002e+2, 2.0534521e+2, -870440.06, -927393.44, -3730.6877, 0.050855126, 0.26726744, -870196.75, 57439.867, 0.0, 10.0005, 9.999744 
2.8502274e+2, 2.1534371e+2, -747232.8, -824106.3, -47171.594, 0.07331864, 0.10812577, -724821.06, 104825.35, 0.0, 10.000697, 9.99969 
2.8502512e+2, 2.2534296e+2, -707424.44, -846711.94, -43864.84, 0.05689807, 0.11182159, -694761.6, 36890.64, 0.0, 10.000694, 9.998861 
2.8502712e+2, 2.353427e+2, -637478.1, -768774.8, -62435.582, 0.0031756905, 0.16620722, -612528.94, 21126.861, 0.0, 10.000526, 9.998807 
2.8503028e+2, 2.4534139e+2, -522228.3, -711311.0, 7313.4287, -0.014255966, 0.18270257, -521945.88, 13723.184, 0.0, 10.000842, 9.998377 
2.8503445e+2, 2.55339e+2, -322206.03, -565661.44, -549.52216, 0.0068355496, 0.0682283, -322204.8, 115487.33, 0.0, 10.001558, 9.998356 
2.8503868e+2, 2.653376e+2, -218870.0, -431760.53, -20207.984, 0.06543538, 0.081419535, -216968.8, 122737.086, 0.0, 10.001451, 9.998658 
2.8504327e+2, 2.7533683e+2, -251931.44, -406680.03, -54008.77, 0.19902353, 0.10512989, -234946.16, 6767.222, 0.0000000018932573, 10.000578, 9.998584 
2.8504664e+2, 2.8533545e+2, -190539.92, -395335.94, -25509.236, 0.19466989, 0.14708357, -187410.34, -43682.523, 0.00000028816427, 10.00064, 9.9979515 
2.850481e+2, 2.953333e+2, 75306.59, -201552.16, -21364.264, 0.014181389, 0.08727274, 76945.5, 122696.19, 0.0000027347362, 10.001717, 9.998089 
2.850478e+2, 3.0533287e+2, 185161.28, -293000.34, -66524.41, -0.20529409, 0.31299737, 194243.98, 194243.98, 0.000012525966, 10.002871, 9.996592 
2.8505278e+2, 3.153277e+2, 351988.2, -29580.688, -5889.6978, 0.19439039, 0.12372751, 352079.06, 352079.06, 0.00004059471, 10.003173, 9.998244 
2.9499924e+2, 1.2534128e+2, -1824102.3, -1671660.4, 74373.41, -0.065125786, 0.21522287, -1641387.0, 70286.43, 0.00028489743, 9.998727, 10.000886 
2.95001e+2, 1.3534074e+2, -1632610.0, -1611603.3, -35081.53, -0.21342938, 0.10234262, -1585486.5, 28188.71, 0.000121053716, 9.999805, 10.000106 
2.9500535e+2, 1.4534053e+2, -1505398.9, -1524256.4, -92098.016, -0.025400588, 0.09145617, -1422248.3, 93428.164, 0.000029834508, 10.000088, 9.999892 
2.950086e+2, 1.5534095e+2, -1434329.5, -1450611.5, -40991.06, 0.10757836, 0.106375225, -1400678.9, 16995.316, 0.000004731658, 9.999966, 9.999785 
2.9501063e+2, 1.6534132e+2, -1347357.6, -1309650.8, -34102.895, 0.08364108, 0.15144014, -1289536.8, 30134.248, 0.00000054097734, 9.999706, 10.000195 
2.950116e+2, 1.7534152e+2, -1288650.6, -1237829.6, -45049.797, -0.07007269, 0.115145214, -1211518.0, 10150.22, 0.0000000012704189, 9.999458, 10.000134 
2.9501423e+2, 1.8534182e+2, -1194429.8, -1178975.6, -44390.652, -0.064967416, 0.15467931, -1141644.5, -17979.137, 0.0, 9.99958, 9.99981 
2.9501826e+2, 1.953419e+2, -1035906.7, -1059065.6, 2215.2756, 0.06598699, 0.14701767, -1035696.7, -10031.118, 0.0, 10.000028, 9.999744 
2.9502106e+2, 2.0534177e+2, -942443.06, -1039981.75, -9997.158, 0.07678641, 0.20129456, -941429.0, -13761.531, 0.0, 10.0003395, 9.999049 
2.9502267e+2, 2.1534128e+2, -821917.6, -937497.56, -23681.041, -0.0312887, 0.2140319, -817253.9, 12418.743, 0.0, 10.000517, 9.998998 
2.9502508e+2, 2.2534017e+2, -745155.6, -881541.06, -65121.17, -0.043668523, 0.22544804, -719056.2, 12627.247, 0.0, 10.000512, 9.998707 
2.9502818e+2, 2.3533836e+2, -672801.44, -801628.56, -51622.92, 0.026105003, 0.13930984, -654667.8, -20966.91, 0.0, 10.000358, 9.99866 
2.9503232e+2, 2.453371e+2, -521463.97, -686052.3, 18296.633, 0.07203343, 0.15627266, -519454.53, 16258.307, 0.0, 10.000738, 9.998604 
2.9503718e+2, 2.5533617e+2, -328015.47, -549412.1, 37204.938, 0.08726191, 0.16590893, -321930.53, 115790.914, 0.0, 10.001431, 9.998536 
2.9504004e+2, 2.6533484e+2, -268707.6, -515590.66, -65986.79, 0.025033506, 0.20964332, -252177.45, 87557.43, 0.0, 10.00137, 9.998117 
2.950415e+2, 2.7533287e+2, -304207.06, -484183.22, -70348.49, -0.069117405, 0.16565259, -279972.72, -38216.87, 0.0000000016821552, 10.000449, 9.998113 
2.9504552e+2, 2.8533116e+2, -127972.64, -259431.6, -185.57727, -0.013705676, 0.14762753, -127972.38, 15800.414, 0.00000022409213, 10.000609, 9.998903 
2.9505107e+2, 2.9532972e+2, 121541.805, -93765.26, 46608.313, 0.090676144, 0.07192465, 131198.19, 176984.11, 0.0000026534976, 10.001646, 9.998877 
2.9505226e+2, 3.0533114e+2, 198634.4, -245979.77, -55034.89, -0.081812575, 0.43201968, 205345.39, 205345.39, 0.00001292508, 10.002802, 9.996939 
2.950545e+2, 3.1532648e+2, 381265.9, 54655.14, 48751.773, -0.03136673, 0.24587974, 388387.6, 388387.6, 0.000040888393, 10.003073, 9.998867 
3.0499843e+2, 1.2533689e+2, -1623861.0, -1603925.8, 116738.88, -0.077811666, 0.17082532, -1496729.8, 214984.6, 0.00023189843, 10.000236, 10.00063 
3.0500177e+2, 1.353364e+2, -1771824.0, -1703200.6, -51762.953, -0.062037066, 0.0921131, -1675410.0, -61692.16, 0.000094942065, 9.998951, 9.999895 
3.0500534e+2, 1.4533624e+2, -1678712.3, -1516235.6, -54545.12, 0.05431322, 0.053371806, -1499622.9, 16095.833, 0.000021738364, 9.998531, 10.000683 
3.0500787e+2, 1.5533774e+2, -1497367.6, -1399236.1, -43881.59, 0.090178594, 0.098046154, -1382476.0, 35227.83, 0.0000030875526, 9.999182, 10.000509 
3.0501005e+2, 1.653385e+2, -1359288.3, -1361510.4, 4161.8037, 0.062492397, 0.16794291, -1356091.8, -36394.883, 0.0000002653173, 9.999791, 9.9998045 
3.0501187e+2, 1.7533849e+2, -1193321.6, -1232763.0, -19045.662, -0.01944181, 0.14887136, -1185626.3, 36072.215, 0.0, 10.000268, 9.999787 
3.0501473e+2, 1.8533847e+2, -1027045.94, -1068207.5, 2551.2097, -0.013980029, 0.1593802, -1026888.44, 96809.805, 0.0, 10.000601, 10.00008 
3.0501845e+2, 1.9533814e+2, -916269.44, -982642.0, -28771.95, 0.0583811, 0.0870682, -905533.56, 120166.18, 0.0, 10.000749, 9.999934 
3.0502135e+2, 2.0533796e+2, -876646.6, -1033875.25, -16549.314, 0.049638547, 0.13858525, -874923.56, 52778.594, 0.0, 10.000899, 9.998824 
3.050234e+2, 2.1533777e+2, -758991.5, -936004.8, -26300.998, -0.02858086, 0.20422268, -755166.3, 74540.25, 0.0, 10.001061, 9.998751 
3.050261e+2, 2.2533664e+2, -624010.06, -841136.4, -20294.465, -0.026491886, 0.23215693, -622129.44, 109588.95, 0.0, 10.00141, 9.99856 
3.0502948e+2, 2.353345e+2, -458762.84, -716258.9, -34386.098, 0.054594453, 0.12814672, -454250.0, 179488.55, 0.0, 10.001891, 9.998516 
3.050337e+2, 2.4533321e+2, -386688.53, -622133.8, 52395.25, 0.09795309, 0.15194151, -375555.13, 160195.84, 0.0, 10.001708, 9.998561 
3.050385e+2, 2.5533247e+2, -371156.7, -567676.44, 22377.813, 0.10366296, 0.18586172, -368640.72, 69117.836, 0.0, 10.001156, 9.998529 
3.0504122e+2, 2.6533124e+2, -283112.8, -517818.13, -43224.734, 0.019937377, 0.23457435, -275405.38, 64365.918, 0.0, 10.001251, 9.998161 
3.0504233e+2, 2.753293e+2, -77788.2, -368966.47, -32781.254, -0.10066561, 0.18878974, -74143.27, 167648.2, 0.00000000014964384, 10.001986, 9.998159 
3.050466e+2, 2.8532752e+2, 80957.74, -151604.08, 64072.79, -0.030002931, 0.15669152, 97441.94, 241250.48, 0.00000013461268, 10.002034, 9.99895 
3.05053e+2, 2.9532596e+2, 82320.055, -103657.98, 16810.871, 0.14637966, 0.065941095, 83827.41, 129648.83, 0.0000024184974, 10.001372, 9.998921 
3.050549e+2, 3.053273e+2, 54973.1, -287103.6, -65537.09, -0.024207108, 0.40191904, 67099.234, 67099.234, 0.00001259153, 10.001671, 9.997225 
3.0505723e+2, 3.1532317e+2, 280900.53, 20605.988, -17148.074, -0.009464743, 0.24270733, 282025.4, 282025.4, 0.000039642433, 10.002293, 9.99904 
3.1499726e+2, 1.2533267e+2, -1651334.5, -1656776.3, 4446.7153, -0.29584962, 0.13879468, -1648842.3, 62912.793, 0.0001887222, 10.000228, 10.000267 
3.1500235e+2, 1.353335e+2, -1792342.6, -1725330.0, -88409.91, 0.06592216, 0.21049261, -1664290.1, -50540.375, 0.00007509751, 9.998888, 9.999767 
3.150046e+2, 1.4533345e+2, -1636993.8, -1420874.1, -48656.81, 0.082749054, 0.1526755, -1410424.9, 105324.75, 0.00001598166, 9.998484, 10.00136 
3.1500527e+2, 1.5533505e+2, -1456560.6, -1308357.4, -4153.358, -0.12695491, 0.13871185, -1308241.1, 109489.21, 0.00000170519, 9.999158, 10.0011425 
3.1500837e+2, 1.6533595e+2, -1376020.0, -1381907.1, 239.09789, -0.12153297, 0.19781293, -1376010.3, -56289.895, 0.000000057148895, 9.999724, 9.999702 
3.150131e+2, 1.7533594e+2, -1209059.3, -1250127.1, 9238.153, 0.046047803, 0.18790373, -1207076.9, 14645.101, 0.0, 10.000202, 9.9997 
3.1501612e+2, 1.8533556e+2, -1069353.1, -1129520.4, -7333.367, 0.033805143, 0.18442763, -1068472.3, 55253.023, 0.0, 10.000484, 9.999716 
3.1501764e+2, 1.9533457e+2, -953719.9, -1034019.06, -8162.2607, -0.13280621, 0.07895999, -952898.6, 72834.36, 0.0, 10.000639, 9.999632 
3.150204e+2, 2.053339e+2, -888581.8, -1017403.6, -25928.115, -0.15670775, 0.08908433, -883559.06, 44180.31, 0.0, 10.000728, 9.99902 
3.1502444e+2, 2.1533333e+2, -772106.8, -919569.2, -4034.2756, -0.06065774, 0.096494876, -771996.5, 57750.316, 0.0, 10.000878, 9.99895 
3.1502777e+2, 2.2533248e+2, -649078.2, -859265.25, -16415.584, -0.030091126, 0.14681904, -647803.9, 83951.78, 0.0, 10.001259, 9.998513 
3.1503052e+2, 2.3533122e+2, -486653.06, -736507.94, -2297.8123, -0.05905762, 0.13824815, -486631.9, 147135.84, 0.0, 10.001727, 9.998462 
3.15034e+2, 2.4532972e+2, -423637.8, -681399.5, 17100.27, -0.0771728, 0.16251016, -422508.3, 113275.3, 0.0, 10.001626, 9.998196 
3.1503806e+2, 2.5532788e+2, -415782.2, -626216.75, 15629.877, -0.0875259, 0.12302039, -414627.63, 23176.553, 0.0, 10.001003, 9.998204 
3.150418e+2, 2.653268e+2, -246553.8, -424077.75, -30256.018, -0.078958906, 0.16895457, -241538.83, 98276.086, 0.0, 10.001175, 9.998842 
3.150453e+2, 2.7532607e+2, -49630.082, -287646.6, 8402.305, -0.038012233, 0.17525296, -49333.84, 192487.02, 0.00000000001473293, 10.001879, 9.998775 
3.150493e+2, 2.8532434e+2, 11399.69, -281107.25, 23694.352, 0.00404933, 0.16558701, 13306.606, 157142.84, 0.000000108201135, 10.001973, 9.998085 
3.1505334e+2, 2.9532173e+2, 4763.9272, -240468.2, 13363.257, -0.0019369541, 0.054203514, 5489.972, 51350.043, 0.0000023186144, 10.00126, 9.998039 
3.1505537e+2, 3.053211e+2, 76563.72, -234612.16, -48794.3, -0.17778951, 0.2187498, 84035.555, 84035.555, 0.000012381474, 10.001637, 9.9976 
3.1506032e+2, 3.1531757e+2, 265359.03, -1885.967, 67495.375, -0.009041447, 0.07321447, 281438.25, 281438.25, 0.000038038284, 10.002243, 9.99891 
3.24997e+2, 1.2532946e+2, -1974875.3, -1800438.1, 77065.2, -0.21201813, 0.12369818, -1771268.9, -59484.09, 0.0001575099, 9.997924, 10.000398 
3.250025e+2, 1.3533077e+2, -1696650.5, -1643940.6, -6766.6333, 0.18739584, 0.20226985, -1643085.8, -29311.443, 0.00006189271, 9.9993515, 10.000114 
3.2500413e+2, 1.4533061e+2, -1467869.3, -1417708.4, 57877.83, 0.12329708, 0.1527586, -1379710.5, 136065.17, 0.000012633238, 9.999965, 10.000682 
3.2500485e+2, 1.5533164e+2, -1343902.8, -1325607.0, -28922.785, -0.12991594, 0.14949758, -1304419.9, 113343.38, 0.0000008198343, 10.000223, 10.000519 
3.250082e+2, 1.6533206e+2, -1306499.6, -1351503.3, -44815.332, -0.126392, 0.19300117, -1278854.3, 40904.2, 0.000000004124255, 10.000252, 9.999641 
3.2501337e+2, 1.7533168e+2, -1230278.1, -1273237.5, -70356.2, 0.06398425, 0.15791436, -1178195.8, 43567.094, 0.0, 10.000124, 9.999577 
3.250166e+2, 1.8533118e+2, -1140889.4, -1200037.8, -61513.1, 0.059176054, 0.16661917, -1102210.4, 21557.553, 0.0, 10.000153, 9.999384 
3.2501826e+2, 1.9533043e+2, -1035134.25, -1103609.9, -94566.555, -0.10621977, 0.11544643, -968798.44, 56976.574, 0.0, 10.000234, 9.999337 
3.2502136e+2, 2.0532978e+2, -897742.0, -1011725.9, -79148.93, -0.121619575, 0.13236187, -857201.2, 70580.586, 0.0, 10.000596, 9.999129 
3.2502583e+2, 2.15329e+2, -738315.44, -890834.75, -89962.664, -0.009994336, 0.10925476, -696639.44, 133151.08, 0.0, 10.001048, 9.99907 
3.250294e+2, 2.2532819e+2, -640777.25, -849174.75, -71832.28, 0.009772617, 0.1532104, -618416.7, 113382.32, 0.0, 10.001299, 9.998554 
3.2503214e+2, 2.353271e+2, -527185.94, -749434.7, -80904.19, -0.046303175, 0.15363602, -500854.47, 132955.27, 0.0, 10.001428, 9.998507 
3.2503542e+2, 2.4532567e+2, -461447.97, -689581.75, -36264.387, -0.07153971, 0.17703618, -455822.06, 80002.664, 0.0, 10.001298, 9.99831 
3.2503915e+2, 2.553238e+2, -401160.78, -605571.4, -21588.566, -0.06905669, 0.12246273, -398905.63, 38939.31, 0.0, 10.001017, 9.998346 
3.2504317e+2, 2.653229e+2, -250415.95, -413731.03, -5529.212, -0.044524748, 0.17282951, -250228.97, 89624.555, 0.0, 10.001095, 9.998958 
3.2504755e+2, 2.7532253e+2, -93028.766, -294168.78, -39505.01, 0.026477436, 0.2028604, -85547.984, 156307.52, 0.00000000010851988, 10.001524, 9.998898 
3.2505178e+2, 2.8532055e+2, -14714.22, -337677.28, -17966.375, 0.068091884, 0.18312716, -13717.827, 130155.14, 0.00000014604628, 10.001964, 9.997713 
3.2505572e+2, 2.953172e+2, 146707.78, -207208.95, -18712.16, 0.06602615, 0.03354683, 147694.38, 193597.89, 0.0000023415487, 10.002383, 9.99773 
3.2505748e+2, 3.0531594e+2, 246397.11, -115784.91, -17420.715, -0.16743006, 0.13461666, 247233.11, 247233.11, 0.000012312151, 10.002691, 9.997882 
3.2506332e+2, 3.1531337e+2, 271156.2, -51864.063, 19780.729, 0.06958789, 0.05170943, 272362.97, 272362.97, 0.000036624067, 10.002564, 9.99838 
3.3499667e+2, 1.2532723e+2, -1943653.0, -1713902.3, 42098.207, -0.11435363, 0.13489954, -1706431.4, 5372.3823, 0.00013854062, 9.9978485, 10.0010195 
3.3500186e+2, 1.3532831e+2, -1644939.8, -1517462.6, 49021.742, 0.14861304, 0.09468264, -1500791.4, 112999.016, 0.000055370125, 9.999299, 10.00099 
3.350035e+2, 1.453278e+2, -1611751.1, -1701439.5, 45411.527, 0.022976613, 0.06715242, -1592773.6, -76977.67, 0.000011804474, 9.999901, 9.998766 
3.3500612e+2, 1.5532774e+2, -1474091.6, -1586437.8, -4343.187, -0.06398149, 0.14397179, -1473924.0, -56123.855, 0.00000057438905, 10.000187, 9.998745 
3.350091e+2, 1.6532706e+2, -1325490.8, -1378344.0, -64432.33, -0.09677218, 0.16606073, -1282276.3, 37532.16, 0.00000000201948, 10.000193, 9.999489 
3.3501217e+2, 1.7532565e+2, -1247806.9, -1302810.5, -57618.734, -0.1062398, 0.045583952, -1211463.0, 10358.628, 0.0, 10.000089, 9.999393 
3.350157e+2, 1.8532525e+2, -1185974.0, -1262465.9, -76109.05, -0.0779167, 0.0931441, -1139041.6, -15214.62, 0.0, 10.000019, 9.999022 
3.3501983e+2, 1.9532551e+2, -1074478.8, -1159882.4, -77101.64, -0.003691144, 0.17887416, -1029043.6, -3215.9028, 0.0, 10.000126, 9.9990015 
3.350236e+2, 2.053254e+2, -916041.25, -1010457.44, -77629.32, 0.019660128, 0.26189002, -872392.75, 55438.055, 0.0, 10.000435, 9.999215 
3.350271e+2, 2.153247e+2, -758816.75, -888275.9, -58355.645, -0.014183108, 0.23554377, -736395.3, 93443.07, 0.0, 10.000856, 9.99918 
3.350305e+2, 2.2532362e+2, -660526.94, -849251.6, -82315.36, -0.035857912, 0.24426322, -629669.2, 102180.19, 0.0, 10.001127, 9.998634 
3.350339e+2, 2.3532204e+2, -547432.1, -744451.8, -64572.72, -0.038446322, 0.18603544, -528154.75, 105710.26, 0.0, 10.001233, 9.9986315 
3.350376e+2, 2.45321e+2, -420261.1, -586849.75, -61721.98, -0.013783628, 0.2037811, -399885.03, 135989.39, 0.0, 10.001217, 9.999055 
3.350414e+2, 2.5532028e+2, -373583.06, -514867.66, -17999.512, 0.02334078, 0.18608898, -371326.0, 66554.414, 0.0, 10.0008745, 9.999036 
3.3504504e+2, 2.6531962e+2, -295206.9, -491205.22, -5165.2236, 0.004199366, 0.25162557, -295070.88, 44815.344, 0.0, 10.001032, 9.998451 
3.350486e+2, 2.753186e+2, -146229.34, -372633.22, -8405.423, -0.05725439, 0.27077693, -145917.72, 95977.99, 0.000000000044508567, 10.0013895, 9.998421 
3.350537e+2, 2.8531614e+2, -951.4744, -302919.13, -17031.057, 0.028122809, 0.21010514, 6.0455256, 143924.03, 0.00000018851506, 10.001924, 9.997976 
3.3505973e+2, 2.9531252e+2, 152891.8, -181335.33, 15755.351, 0.18429378, 0.0075948634, 153632.86, 199583.03, 0.0000023038672, 10.002307, 9.997955 
3.350608e+2, 3.0531162e+2, 238277.55, -121294.51, -30102.96, -0.1377246, 0.1373031, 240780.31, 240780.31, 0.000011796056, 10.002648, 9.997863 
3.350653e+2, 3.1531012e+2, 177298.19, -218558.7, 32574.941, -0.06109553, 0.17221068, 179960.86, 179960.86, 0.000034748333, 10.002434, 9.997308 
3.4499648e+2, 1.2532301e+2, -1865034.3, -1695233.8, -4750.346, 0.07110763, 0.0796648, -1695101.0, 16741.975, 0.00012841672, 9.998477, 10.000844 
3.4500152e+2, 1.3532451e+2, -1484934.4, -1453005.0, -90620.49, 0.14606294, 0.08836654, -1376953.6, 236873.05, 0.00005393956, 10.000425, 10.000912 
3.450036e+2, 1.4532408e+2, -1465438.9, -1652744.6, -80799.53, 0.00044053778, 0.08432686, -1435400.9, 80430.9, 0.00001321429, 10.001018, 9.998549 
3.4500718e+2, 1.553231e+2, -1426644.0, -1594059.5, -51620.313, 0.012728424, 0.09575528, -1412007.3, 5837.1377, 0.00000089811203, 10.000655, 9.998461 
3.4501028e+2, 1.6532215e+2, -1267448.0, -1372882.1, -22633.32, -0.00944818, 0.11562012, -1262794.8, 57060.773, 0.0000000015154811, 10.000665, 9.999308 
3.450127e+2, 1.753211e+2, -1136457.0, -1265117.9, -43402.89, -0.09523121, 0.046048358, -1123184.5, 98681.83, 0.0, 10.000922, 9.999251 
3.4501618e+2, 1.8532082e+2, -1010055.4, -1173630.0, -11037.056, -0.08545757, 0.1093121, -1009314.0, 114556.83, 0.0, 10.001201, 9.99907 
3.4502077e+2, 1.9532087e+2, -881813.5, -1066875.5, -8711.593, 0.024810996, 0.1714578, -881404.3, 144468.78, 0.0, 10.001432, 9.999022 
3.4502485e+2, 2.0532066e+2, -783499.44, -966946.75, 17802.998, 0.056906894, 0.25433314, -781787.7, 146089.66, 0.0, 10.001439, 9.999023 
3.4502828e+2, 2.1531999e+2, -723008.7, -892383.9, -17243.959, 0.01276499, 0.24977285, -721270.9, 108614.77, 0.0, 10.001198, 9.998981 
3.4503192e+2, 2.25319e+2, -627706.94, -817541.06, -16882.254, -0.005708722, 0.26928878, -626217.3, 105678.79, 0.0, 10.001276, 9.998789 
3.4503573e+2, 2.3531753e+2, -480662.13, -695763.4, -21250.709, 0.011351242, 0.20895408, -478582.78, 155327.56, 0.0, 10.001605, 9.998796 
3.4503952e+2, 2.4531668e+2, -344053.47, -530672.75, -29492.297, 0.039539423, 0.22660129, -339503.6, 196414.08, 0.0, 10.00167, 9.999219 
3.450431e+2, 2.5531605e+2, -266021.56, -453263.5, -60297.344, 0.07607766, 0.2075656, -248284.3, 189637.55, 0.0, 10.00156, 9.999138 
3.450468e+2, 2.6531503e+2, -221862.53, -484175.75, -8903.376, 0.05007809, 0.24904121, -221560.69, 118370.13, 0.0, 10.001672, 9.998189 
3.4505066e+2, 2.7531335e+2, -73657.28, -362544.88, -25609.97, -0.009549336, 0.22796588, -71404.516, 170542.73, 0.0, 10.002012, 9.998189 
3.450559e+2, 2.853111e+2, -20555.373, -286801.53, -19909.152, 0.076441765, 0.18842578, -19074.855, 124893.59, 0.00000016974016, 10.00171, 9.998175 
3.4506196e+2, 2.9530847e+2, -33716.605, -248731.22, -21488.082, 0.25332832, 0.06747806, -31590.164, 14402.32, 0.0000020169734, 10.000946, 9.998139 
3.4506285e+2, 3.0530795e+2, 101523.7, -185611.3, 10661.375, -0.12913086, 0.22261754, 101919.016, 101919.016, 0.0000103175025, 10.001671, 9.997908 
3.4506834e+2, 3.1530583e+2, 287001.38, -166706.66, -4975.459, -0.020071095, 0.18260066, 287055.94, 287055.94, 0.000031962787, 10.003177, 9.997303 
3.5499558e+2, 1.253167e+2, -1945361.0, -1850749.3, -32024.197, 0.04626234, -0.049114034, -1840929.0, -129025.5, 0.00012227354, 9.99843, 9.999798 
3.5500103e+2, 1.3531934e+2, -1545659.3, -1578705.9, -5806.505, 0.019458024, 0.17752011, -1544668.8, 69214.766, 0.00005490219, 10.000441, 10.000033 
3.5500392e+2, 1.4531958e+2, -1376807.5, -1469564.3, -112701.08, -0.11534076, 0.21351562, -1301315.1, 214566.48, 0.000015641235, 10.001013, 9.999817 
3.5500765e+2, 1.5531765e+2, -1344630.6, -1430106.4, -49936.82, -0.0473228, 0.008785645, -1321640.1, 96256.55, 0.0000017221555, 10.000672, 9.999584 
3.5501128e+2, 1.6531728e+2, -1286427.9, -1391139.3, -31349.586, -0.012861679, 0.039824985, -1277759.6, 42140.836, 0.000000007086625, 10.000577, 9.999221 
3.550144e+2, 1.7531809e+2, -1147856.1, -1275287.1, -17873.268, -0.050410718, 0.16184911, -1145396.6, 76499.79, 0.0, 10.000862, 9.999209 
3.5501745e+2, 1.8531792e+2, -999584.5, -1120059.1, -14371.515, -0.10865388, 0.21481138, -997893.8, 126005.18, 0.0, 10.001067, 9.9995 
3.5502073e+2, 1.953167e+2, -871657.44, -1016648.9, 15586.208, -0.15698956, 0.10749554, -870000.9, 155908.3, 0.0, 10.001307, 9.999426 
3.5502467e+2, 2.0531578e+2, -845759.6, -1058267.4, -6013.3364, -0.1320829, 0.1283254, -845589.6, 82329.836, 0.0, 10.001271, 9.998481 
3.550291e+2, 2.1531491e+2, -782644.56, -979381.8, -10108.146, -0.054965094, 0.15779023, -782126.56, 47805.41, 0.0, 10.001036, 9.998466 
3.5503328e+2, 2.2531433e+2, -633303.75, -791880.7, -16465.07, -0.024884688, 0.23169932, -631612.2, 100326.92, 0.0, 10.001119, 9.999039 
3.5503718e+2, 2.3531377e+2, -492884.3, -678232.6, 5379.1113, -0.035528142, 0.23649852, -492728.34, 141215.86, 0.0, 10.001424, 9.999002 
3.550406e+2, 2.4531278e+2, -400568.7, -614930.75, -46097.5, -0.045905802, 0.25877824, -391076.03, 144877.44, 0.0, 10.001534, 9.998702 
3.5504368e+2, 2.5531113e+2, -323464.2, -537682.56, -48965.137, -0.05380576, 0.19062851, -312802.56, 125166.53, 0.0, 10.001417, 9.998624 
3.550479e+2, 2.653093e+2, -229989.52, -487454.63, -9014.005, -0.03321364, 0.17189074, -229674.31, 110312.125, 0.0, 10.001607, 9.9981985 
3.5505328e+2, 2.753069e+2, -91058.01, -374742.06, 4080.963, 0.02023036, 0.08035876, -90999.31, 151009.3, 0.0, 10.0019045, 9.998158 
3.5505795e+2, 2.8530538e+2, -24914.154, -283790.7, -61496.465, 0.07675625, 0.11574952, -11048.269, 132976.19, 0.00000011654808, 10.001661, 9.998219 
3.5506186e+2, 2.9530486e+2, -45067.81, -250610.05, -26097.705, 0.106947586, 0.19571748, -41805.945, 4226.3716, 0.0000016052002, 10.000857, 9.99817 
3.5506335e+2, 3.0530477e+2, 128113.33, -134111.72, 61027.004, -0.28188056, 0.37737963, 141620.27, 141620.27, 0.000008325357, 10.001674, 9.998266 
3.550713e+2, 3.1530136e+2, 340986.34, -31064.898, 41978.63, -0.1210875, 0.16868085, 345664.0, 345664.0, 0.000028551576, 10.003065, 9.998297 
3.649955e+2, 1.2531209e+2, -1762625.1, -1827573.8, 40027.438, 0.14090447, -0.05483588, -1743555.5, -31607.557, 0.000118926524, 9.9999485, 9.999238 
3.650007e+2, 1.3531406e+2, -1608397.9, -1684818.1, 69787.3, -0.03929521, 0.17747709, -1567044.9, 46892.695, 0.000056465244, 10.000334, 9.999357 
3.6500472e+2, 1.4531447e+2, -1426312.1, -1457791.8, -74523.414, -0.1019246, 0.24601832, -1365884.5, 150050.23, 0.00001794202, 10.000509, 10.000147 
3.650085e+2, 1.5531294e+2, -1330876.0, -1383882.4, -109248.945, -0.015068116, 0.048680786, -1244961.4, 172982.81, 0.000002788093, 10.000596, 9.999943 
3.6501217e+2, 1.653127e+2, -1297813.1, -1398605.8, -74832.41, 0.03351938, 0.0782193, -1257989.4, 61957.105, 0.00000008230677, 10.000516, 9.999197 
3.650153e+2, 1.7531346e+2, -1244795.9, -1320504.4, -95324.33, -0.006826741, 0.19678417, -1180084.6, 41859.117, 0.0, 10.000202, 9.999211 
3.6501837e+2, 1.853133e+2, -1121527.9, -1162381.4, -66046.34, -0.06790379, 0.24206753, -1072821.6, 51124.426, 0.0, 10.000162, 9.999646 
3.650218e+2, 1.9531207e+2, -1011356.75, -1066645.6, -85375.38, -0.12098509, 0.12117735, -949261.7, 76693.414, 0.0, 10.000279, 9.9995775 
3.650258e+2, 2.0531103e+2, -931376.9, -1088967.1, -60627.44, -0.1068803, 0.11882999, -910751.9, 17213.258, 0.0, 10.000632, 9.998583 
3.6503026e+2, 2.1530993e+2, -761455.06, -956619.94, -48882.695, -0.039405588, 0.11298973, -749896.06, 80082.64, 0.0, 10.001124, 9.998582 
3.6503446e+2, 2.253093e+2, -623998.2, -774160.6, -15359.589, -0.009385276, 0.16796325, -622443.2, 109542.164, 0.0, 10.001124, 9.999159 
3.6503848e+2, 2.3530886e+2, -593468.6, -714195.44, -31163.072, 0.0016365475, 0.17405856, -585899.1, 48089.105, 0.0, 10.00068, 9.999113 
3.6504218e+2, 2.4530782e+2, -507444.2, -709340.3, -34394.36, -0.004754818, 0.20484808, -501745.72, 34253.016, 0.0, 10.000962, 9.998345 
3.650455e+2, 2.5530607e+2, -282081.56, -547986.06, -52242.09, -0.02244005, 0.16101341, -272185.88, 165831.73, 0.0, 10.001836, 9.998353 
3.6504984e+2, 2.6530436e+2, -163623.92, -438074.84, 10171.7, -0.011258187, 0.15712689, -163247.45, 176787.38, 0.0, 10.002, 9.998339 
3.6505517e+2, 2.7530214e+2, -130571.44, -377257.1, 3345.4495, 0.044847082, 0.0720367, -130526.07, 111528.84, 0.0, 10.001569, 9.998298 
3.6505967e+2, 2.853009e+2, -31333.426, -300730.0, -28515.23, 0.09109985, 0.13277413, -28348.21, 115720.69, 0.000000055764154, 10.001652, 9.998121 
3.6506328e+2, 2.9530075e+2, 130922.17, -177155.83, -32684.412, 0.110694796, 0.25682235, 134351.53, 180426.45, 0.0000011855267, 10.002113, 9.998071 
3.650655e+2, 3.0530003e+2, 166092.48, -99570.1, 86092.016, -0.22964117, 0.37385592, 191552.03, 191552.03, 0.0000067298934, 10.001891, 9.998387 
3.650737e+2, 3.15297e+2, 52180.87, -83819.7, -46971.27, -0.054361597, 0.19142227, 66826.445, 66826.445, 0.00002565761, 10.000734, 9.999051 
3.749951e+2, 1.2530947e+2, -1763801.0, -1828717.0, -12379.972, 0.028789487, 0.11608899, -1761520.1, -49546.27, 0.0001191897, 9.999939, 9.999228 
3.7499994e+2, 1.3530867e+2, -1634262.9, -1738025.3, 93792.51, -0.18911514, 0.09864679, -1578958.8, 35030.53, 0.00005856906, 10.000331, 9.998987 
3.7500545e+2, 1.4530878e+2, -1474312.6, -1537472.0, -91342.83, -0.123606056, 0.18066247, -1409244.5, 106746.24, 0.000020069963, 10.000427, 9.999639 
3.7500927e+2, 1.55309e+2, -1361174.3, -1450242.6, -88551.6, -0.036911592, 0.20940454, -1306588.9, 111398.24, 0.0000038584762, 10.000607, 9.999485 
3.750126e+2, 1.6530848e+2, -1308874.0, -1407136.0, -100395.51, -0.011816203, 0.2311007, -1246232.4, 73760.71, 0.00000020238203, 10.000455, 9.9991665 
3.7501487e+2, 1.753073e+2, -1257187.1, -1337064.3, -90696.19, -0.10278585, 0.16089134, -1198025.3, 23982.416, 0.0, 10.0001545, 9.999124 
3.7501848e+2, 1.853069e+2, -1145116.5, -1181876.9, -75737.47, -0.10505332, 0.19218205, -1085560.8, 38451.633, 0.0, 10.000037, 9.999571 
3.7502348e+2, 1.953069e+2, -1032868.06, -1082023.1, -63663.176, -0.008349167, 0.19958408, -989203.0, 36808.65, 0.0, 10.000155, 9.999529 
3.7502775e+2, 2.0530635e+2, -904074.3, -996951.7, -55691.98, -0.0008122718, 0.21136174, -877999.9, 50015.55, 0.0, 10.000478, 9.99929 
3.750312e+2, 2.1530508e+2, -741038.25, -868681.8, -17624.635, -0.08736195, 0.12028977, -738649.4, 91376.35, 0.0, 10.000931, 9.999279 
3.7503505e+2, 2.2530392e+2, -647647.56, -787142.8, -49473.09, -0.08852068, 0.090290934, -631883.06, 100151.3, 0.0, 10.00096, 9.999152 
3.750393e+2, 2.3530263e+2, -615361.44, -727292.25, -33315.426, -0.015235927, 0.010498447, -606195.9, 27848.08, 0.0, 10.00053, 9.9991 
3.7504375e+2, 2.4530174e+2, -531225.6, -733583.0, -15346.346, 0.02870406, 0.062289633, -530068.4, 5985.4497, 0.0, 10.000854, 9.998232 
3.7504813e+2, 2.553009e+2, -311664.1, -578551.25, -4858.898, 0.023184145, 0.1223486, -311575.7, 126491.15, 0.0, 10.001696, 9.998213 
3.7505212e+2, 2.6530004e+2, -155546.42, -404006.06, -19128.37, -0.016760964, 0.2002949, -154082.39, 185994.8, 0.0, 10.0019245, 9.99861 
3.7505582e+2, 2.7529886e+2, -123762.945, -342850.3, 5284.488, -0.08164159, 0.18554568, -123635.555, 118452.625, 0.0, 10.001477, 9.998582 
3.7506047e+2, 2.852976e+2, -44954.1, -319723.4, -23689.639, -0.02916024, 0.23681359, -42926.625, 101175.5, 0.00000003400916, 10.001608, 9.9980135 
3.750656e+2, 2.9529625e+2, 100777.484, -216448.4, 1570.0109, 0.08821712, 0.2596568, 100785.25, 146904.4, 0.000000899484, 10.002001, 9.997861 
3.7506872e+2, 3.0529374e+2, 142939.83, -130705.76, 38785.23, -0.12416598, 0.22115849, 148330.86, 148330.86, 0.000005766145, 10.001828, 9.998201 
3.7507463e+2, 3.1529218e+2, 60531.758, -46635.434, -69591.75, -0.10935216, 0.19842084, 94778.76, 94778.76, 0.000023929499, 10.0006485, 9.999349 
3.849949e+2, 1.2530477e+2, -1602403.5, -1691280.9, -60174.02, -0.016538769, 0.19480897, -1572037.6, 139986.78, 0.00012316402, 10.000805, 9.99975 
3.8499996e+2, 1.353035e+2, -1710329.3, -1744785.0, 26416.217, -0.17266355, 0.098958686, -1696019.6, -81979.31, 0.000061385945, 9.999666, 9.999271 
3.8500696e+2, 1.4530334e+2, -1583313.8, -1579330.3, -39254.156, 0.0338615, 0.1376306, -1542017.4, -25974.154, 0.000022093489, 9.999642, 9.999722 
3.8500997e+2, 1.5530418e+2, -1339147.9, -1427566.6, -39703.707, -0.02131026, 0.21753576, -1323936.3, 94098.49, 0.000004863891, 10.000723, 9.999574 
3.8501304e+2, 1.653037e+2, -1233059.5, -1385888.3, -41640.36, -0.033272937, 0.24527308, -1222450.4, 97590.06, 0.00000029520132, 10.001019, 9.999056 
3.8501552e+2, 1.7530213e+2, -1203116.0, -1321083.0, -59310.113, -0.068571165, 0.14546071, -1178453.0, 43604.98, 0.0, 10.000558, 9.999045 
3.8501924e+2, 1.8530174e+2, -1098697.0, -1176212.4, 2046.5231, -0.04293953, 0.1868212, -1098643.0, 25420.303, 0.0, 10.000416, 9.99943 
3.850245e+2, 1.9530195e+2, -991852.5, -1081658.1, -23934.295, 0.06537379, 0.22821884, -985872.0, 40190.23, 0.0, 10.000501, 9.999372 
3.85029e+2, 2.0530151e+2, -867482.8, -967287.56, -1752.6265, 0.07354472, 0.25242102, -867452.06, 60612.996, 0.0, 10.000678, 9.999398 
3.850327e+2, 2.1530028e+2, -738349.44, -860614.06, -35051.78, -0.01625897, 0.1563419, -729013.44, 101059.96, 0.0, 10.000906, 9.999354 
3.8503653e+2, 2.2529893e+2, -642075.9, -808161.2, -79485.74, -0.033390827, 0.11385728, -610166.06, 121917.5, 0.0, 10.001106, 9.998931 
3.8504046e+2, 2.3529728e+2, -514820.3, -698339.7, -109299.28, 0.016992243, 0.01706534, -463869.9, 170227.38, 0.0, 10.001318, 9.99891 
3.8504508e+2, 2.4529637e+2, -433801.88, -657777.6, -37386.24, 0.056389846, 0.062238187, -427726.13, 108381.09, 0.0, 10.001419, 9.998458 
3.8505015e+2, 2.5529578e+2, -332853.0, -570133.6, -33751.598, 0.07638907, 0.12245387, -328145.44, 109971.86, 0.0, 10.001467, 9.998377 
3.8505426e+2, 2.6529512e+2, -205496.56, -418522.3, -34457.242, 0.035273913, 0.20914568, -200061.7, 140064.06, 0.0, 10.00153, 9.99871 
3.8505772e+2, 2.7529427e+2, -95073.836, -314840.63, -52906.78, -0.03833102, 0.21784715, -83000.32, 159133.72, 0.0, 10.001615, 9.998708 
3.8506213e+2, 2.8529316e+2, -60903.168, -329075.88, -45585.035, -0.008361622, 0.27699736, -53366.27, 90780.31, 0.000000026095549, 10.001513, 9.997991 
3.850671e+2, 2.9529157e+2, -17216.008, -272573.34, -41921.01, 0.09020688, 0.27751106, -10510.103, 35654.953, 0.00000066980994, 10.001196, 9.997858 
3.8507122e+2, 3.052882e+2, 80420.65, -164163.66, 34437.848, -0.02143907, 0.15470222, 85177.05, 85177.05, 0.000005131084, 10.001404, 9.998176 
3.850764e+2, 3.152874e+2, 226692.05, 43978.977, -128128.305, -0.03306666, 0.20575304, 292697.75, 292697.75, 0.000023471404, 10.001752, 9.999436 
3.9499414e+2, 1.2529828e+2, -1554513.5, -1560218.0, -113915.82, -0.2511901, 0.19175932, -1443414.3, 268682.9, 0.0001272644, 10.000708, 10.0006895 
3.950004e+2, 1.3529862e+2, -1658047.4, -1617207.8, 536.6564, -0.13056569, 0.17100883, -1617200.6, -3110.7197, 0.00006380605, 9.999614, 10.000167 
3.9500874e+2, 1.4529827e+2, -1558818.6, -1514441.8, -17136.271, 0.20356551, 0.122823894, -1508594.9, 7495.9546, 0.000023677207, 9.999568, 10.000207 
3.9501005e+2, 1.552984e+2, -1305085.1, -1355742.6, 14043.193, -0.12884009, 0.076825686, -1301452.5, 116635.65, 0.000005569423, 10.000711, 10.0000725 
3.9501303e+2, 1.6529824e+2, -1246730.8, -1394039.4, -78141.57, -0.16909139, 0.11359522, -1213002.3, 107087.89, 0.00000035120044, 10.000939, 9.999037 
3.9501673e+2, 1.7529789e+2, -1217311.3, -1327696.6, -59754.934, -0.03289674, 0.14065458, -1191159.8, 30935.906, 0.0, 10.000467, 9.999043 
3.9502037e+2, 1.8529768e+2, -1134084.5, -1220467.5, -9024.291, -0.0053113424, 0.21370426, -1133151.8, -9051.862, 0.0, 10.000285, 9.999193 
3.9502427e+2, 1.9529729e+2, -1027347.25, -1121413.4, -6626.5137, -0.040062424, 0.22148775, -1026882.75, -776.70654, 0.0, 10.000359, 9.999166 
3.9502904e+2, 2.0529664e+2, -922330.75, -1039467.8, -8640.867, -0.013768217, 0.25479898, -921696.8, 6415.914, 0.0, 10.000502, 9.998987 
3.9503446e+2, 2.1529555e+2, -797930.4, -933340.4, -8545.608, 0.037299495, 0.2132172, -797393.2, 32728.463, 0.0, 10.000694, 9.998953 
3.9503857e+2, 2.2529434e+2, -693868.2, -878533.6, -83153.445, 0.029870182, 0.22542843, -661943.8, 70188.91, 0.0, 10.000944, 9.9985285 
3.9504156e+2, 2.3529273e+2, -565109.75, -764724.9, -83902.8, -0.036029205, 0.17956157, -534528.5, 99619.88, 0.0, 10.001155, 9.998533 
3.950458e+2, 2.4529162e+2, -411971.9, -587179.9, -49028.563, -0.046117052, 0.19496661, -399185.34, 136974.27, 0.0, 10.0013075, 9.999003 
3.950511e+2, 2.5529063e+2, -313238.34, -498750.4, -16285.49, -0.009915394, 0.1596531, -311819.56, 126350.086, 0.0, 10.001329, 9.998938 
3.9505592e+2, 2.652896e+2, -222148.95, -434111.5, -44649.215, 0.016739966, 0.18845014, -213127.7, 127052.164, 0.0, 10.001443, 9.998649 
3.9506033e+2, 2.7528843e+2, -116006.64, -336309.28, -33752.08, 0.02861426, 0.1711159, -110951.555, 131240.86, 0.0, 10.001508, 9.998618 
3.950642e+2, 2.852875e+2, -65224.63, -316210.84, -71025.32, 0.017999038, 0.2489074, -46519.55, 97683.25, 0.000000010243951, 10.001434, 9.998112 
3.9506736e+2, 2.9528663e+2, -26159.926, -254667.13, -32335.787, -0.04279071, 0.31286842, -21672.26, 24540.746, 0.0000005130985, 10.001051, 9.998049 
3.9507264e+2, 3.0528337e+2, 91529.875, -137244.14, 40011.324, -0.05531386, 0.17556547, 98325.76, 98325.76, 0.0000059963604, 10.001383, 9.998372 
3.9507812e+2, 3.152822e+2, 202553.11, 21775.662, -60194.766, -0.10518731, 0.18331929, 220762.42, 220762.42, 0.000027747768, 10.001637, 9.999337 
4.0499607e+2, 1.2529346e+2, -1489906.1, -1550562.8, 76671.11, -0.12963618, 0.18818559, -1437782.9, 274363.22, 0.0001282802, 10.0012045, 10.000529 
4.0500018e+2, 1.3529432e+2, -1574922.8, -1585942.8, -7324.3, -0.124336936, 0.2193366, -1571267.3, 42865.57, 0.00006493345, 10.000206, 10.000098 
4.0500876e+2, 1.452936e+2, -1548042.4, -1530220.4, 23535.379, 0.2560142, 0.14743696, -1513965.5, 2171.485, 0.00002457309, 9.999727, 10.000025 
4.0501016e+2, 1.5529312e+2, -1449268.8, -1445094.9, -32151.945, -0.1319226, 0.059319235, -1414962.3, 3178.4626, 0.000005781208, 9.999793, 9.999909 
4.0501365e+2, 1.6529293e+2, -1334824.5, -1410430.6, -119560.64, -0.15641332, 0.09073531, -1247232.9, 72909.266, 0.0000003430959, 10.000222, 9.999265 
4.0501803e+2, 1.7529303e+2, -1126674.8, -1262835.6, -118889.71, 0.034963485, 0.13778324, -1057752.6, 164389.03, 0.0, 10.000986, 9.999237 
4.0502164e+2, 1.852927e+2, -1035230.6, -1214420.6, -47662.184, 0.06284303, 0.20907664, -1023341.9, 100804.66, 0.0, 10.00116, 9.998807 
4.0502498e+2, 1.9529167e+2, -997018.7, -1149709.0, -80038.63, -0.015867408, 0.19389923, -962752.94, 63406.813, 0.0, 10.000761, 9.998778 
4.0502965e+2, 2.0529084e+2, -890949.3, -1012687.2, -29294.908, -0.0027919498, 0.22224057, -884266.6, 43901.97, 0.0, 10.000668, 9.999084 
4.050355e+2, 2.1528994e+2, -769714.5, -910922.2, -24051.803, 0.073630445, 0.18830462, -765730.25, 64445.49, 0.0, 10.000851, 9.999026 
4.050399e+2, 2.2528894e+2, -668198.44, -872271.06, -34753.035, 0.06811005, 0.22118314, -662442.44, 69742.875, 0.0, 10.001146, 9.998477 
4.050431e+2, 2.3528759e+2, -516963.8, -753869.0, -36660.816, -0.00789081, 0.2065342, -511420.3, 122779.58, 0.0, 10.001524, 9.998439 
4.0504724e+2, 2.4528645e+2, -412652.38, -582893.06, -3081.061, -0.022285253, 0.22339444, -412596.63, 123614.54, 0.0, 10.001278, 9.999049 
4.050522e+2, 2.5528538e+2, -427172.47, -539073.56, -32391.32, 0.018855006, 0.17305571, -418472.72, 19748.055, 0.0, 10.00051, 9.999045 
4.0505722e+2, 2.652843e+2, -326157.1, -488983.66, -12785.324, 0.04856508, 0.18731365, -325159.3, 15072.198, 0.0, 10.000735, 9.998607 
4.0506232e+2, 2.7528283e+2, -79053.63, -326517.78, -27095.973, 0.07176122, 0.14755088, -76121.516, 166125.22, 0.0, 10.001779, 9.998554 
4.05066e+2, 2.852818e+2, 36466.55, -259090.39, -61570.44, 0.033824224, 0.21312696, 48779.918, 193037.75, 0.0000000008315615, 10.002084, 9.998194 
4.050686e+2, 2.9528093e+2, 90807.23, -180191.44, -56560.953, -0.04581096, 0.26502654, 102138.445, 148405.44, 0.0000007104038, 10.001766, 9.998212 
4.0507483e+2, 3.052779e+2, 137560.84, -117130.92, 59422.07, 0.023860475, 0.14227024, 150742.38, 150742.38, 0.000009515816, 10.001704, 9.998358 
4.0508038e+2, 3.1527698e+2, 203227.36, 20794.795, -63876.563, -0.023630125, 0.17482658, 223369.17, 223369.17, 0.000039448827, 10.001603, 9.99936 
4.149998e+2, 1.2529008e+2, -1560359.5, -1708418.9, 81042.805, 0.039718933, 0.17178264, -1524624.4, 187549.58, 0.00012596608, 10.001237, 9.999429 
4.149988e+2, 1.352906e+2, -1629161.6, -1718850.8, -35124.535, -0.32403508, 0.25655344, -1617043.3, -2874.6282, 0.00006410072, 10.000265, 9.999164 
4.150066e+2, 1.4528929e+2, -1609656.9, -1644119.9, 9995.721, 0.022671398, 0.20964675, -1606967.5, -90785.53, 0.00002430965, 9.999685, 9.999259 
4.1501e+2, 1.5528846e+2, -1510440.4, -1553166.0, -10542.564, -0.16170445, 0.16521859, -1507980.6, -89789.27, 0.0000053776803, 9.999727, 9.999195 
4.1501448e+2, 1.652879e+2, -1323176.0, -1362905.6, -105277.84, -0.1328085, 0.17611933, -1235905.3, 84290.484, 0.0000002359893, 10.000121, 9.999638 
4.150189e+2, 1.7528771e+2, -1112667.4, -1214877.1, -75238.69, -0.015213342, 0.15459836, -1072818.6, 149375.88, 0.0, 10.000908, 9.999602 
4.150226e+2, 1.8528686e+2, -1084742.3, -1293827.6, -78192.914, 0.010186554, 0.18111388, -1058735.0, 65467.97, 0.0, 10.001061, 9.998306 
4.1502607e+2, 1.952851e+2, -1048268.2, -1225905.8, -80629.56, -0.012246023, 0.13998254, -1017129.06, 9094.241, 0.0, 10.00064, 9.998307 
4.150304e+2, 2.0528406e+2, -873426.6, -947495.0, -36543.184, -0.026126668, 0.14621966, -858432.6, 69800.47, 0.0, 10.00053, 9.999606 
4.150354e+2, 2.1528347e+2, -759657.94, -842456.4, -4256.3145, -0.049526878, 0.09052218, -759439.75, 70795.625, 0.0, 10.000646, 9.999595 
4.1504014e+2, 2.252828e+2, -677010.9, -847026.94, -34699.85, -0.051105294, 0.113858186, -670201.44, 62039.47, 0.0, 10.00096, 9.998741 
4.1504458e+2, 2.3528175e+2, -522711.94, -727734.8, -9055.862, -0.041129433, 0.10082182, -522312.72, 111939.63, 0.0, 10.001363, 9.998696 
4.1504884e+2, 2.4528085e+2, -454798.47, -645231.5, -44438.395, -0.021800911, 0.14824001, -444939.03, 91323.0, 0.0, 10.001167, 9.9986725 
4.1505295e+2, 2.5527987e+2, -470005.9, -601004.0, -43162.67, 0.0076388223, 0.14593367, -457063.0, -18790.69, 0.0, 10.000388, 9.998678 
4.150578e+2, 2.6527888e+2, -335843.53, -486355.16, 14300.211, -0.0010131845, 0.18383998, -334496.9, 5786.0195, 0.0, 10.000649, 9.998661 
4.1506317e+2, 2.752776e+2, -95443.24, -326580.88, 25707.74, -0.06014968, 0.15538551, -92618.48, 149678.03, 0.0, 10.001648, 9.998609 
4.1506717e+2, 2.852762e+2, 40612.87, -253971.9, -91029.09, -0.099102564, 0.17957342, 66471.695, 210782.42, 0.00000000001177225, 10.002079, 9.998241 
4.1507015e+2, 2.9527456e+2, 82568.05, -178058.7, -52834.75, -0.113399394, 0.1469632, 92871.48, 139198.16, 0.0000013022876, 10.001671, 9.998279 
4.150772e+2, 3.052719e+2, 128352.484, -126670.805, 47159.93, 0.05730465, 0.060299445, 136794.06, 136794.06, 0.000014575742, 10.001675, 9.998298 
4.150824e+2, 3.152723e+2, 204386.78, 60586.555, 38319.9, -0.061084457, 0.23251288, 213960.84, 213960.84, 0.000055427667, 10.001464, 9.999688 
4.2500183e+2, 1.2528577e+2, -1560690.6, -1769789.3, 122582.39, 0.120477326, 0.12989283, -1504128.1, 208083.39, 0.00012015749, 10.001487, 9.998891 
4.2499912e+2, 1.352857e+2, -1584334.3, -1743537.6, -93022.01, -0.33249825, 0.19579706, -1541504.3, 72709.664, 0.00006079175, 10.0007715, 9.998744 
4.2500633e+2, 1.4528443e+2, -1490998.9, -1612190.4, 63827.742, -0.010135634, 0.18238673, -1463584.3, 52643.848, 0.00002257458, 10.000607, 9.999032 
4.2501095e+2, 1.5528396e+2, -1375491.9, -1511602.9, 40706.563, -0.078313164, 0.19356789, -1364246.8, 53987.473, 0.0000044461326, 10.00076, 9.998978 
4.250157e+2, 1.6528313e+2, -1241507.9, -1380194.0, -22072.373, -0.051665395, 0.21510725, -1238079.8, 82162.39, 0.00000009724189, 10.000941, 9.99912 
4.2501965e+2, 1.7528191e+2, -1114890.0, -1269712.0, -88964.39, -0.033193097, 0.14445536, -1074372.5, 147879.77, 0.0, 10.001135, 9.999117 
4.2502347e+2, 1.8528067e+2, -1041738.2, -1260693.1, -93841.484, -0.013408253, 0.15012024, -1007022.94, 117241.01, 0.0, 10.0012865, 9.998435 
4.250275e+2, 1.9527909e+2, -934687.9, -1160686.0, -77197.39, 0.03991297, 0.11479982, -910835.9, 115444.59, 0.0, 10.001353, 9.998419 
4.2503172e+2, 2.0527811e+2, -791062.8, -935868.56, -10843.168, 0.02654378, 0.13242477, -790255.4, 138034.58, 0.0, 10.001229, 9.999344 
4.2503595e+2, 2.152774e+2, -741777.7, -866562.06, -67621.44, -0.06273944, 0.09506515, -712162.06, 118133.78, 0.0, 10.000909, 9.999307 
4.250408e+2, 2.2527674e+2, -673822.4, -813319.25, -85637.6, -0.06352795, 0.11858402, -633123.4, 99178.39, 0.0, 10.000851, 9.999019 
4.2504615e+2, 2.3527594e+2, -556157.06, -710752.56, -93100.72, 0.0050517404, 0.10336794, -512447.84, 121861.445, 0.0, 10.001002, 9.9989805 
4.2505056e+2, 2.452751e+2, -453986.63, -672087.06, -111756.2, 0.035537332, 0.15432556, -406891.4, 129426.97, 0.0, 10.0012865, 9.998437 
4.2505422e+2, 2.5527388e+2, -293268.16, -545879.0, -129385.58, 0.041499514, 0.15442532, -238759.64, 199572.25, 0.0, 10.0017185, 9.998425 
4.250588e+2, 2.6527268e+2, -234449.56, -442711.47, -37808.426, 0.009521577, 0.18848547, -227798.14, 112546.82, 0.0, 10.001368, 9.998627 
4.250641e+2, 2.7527124e+2, -295325.5, -424906.63, -60263.855, -0.054319344, 0.15143172, -271631.3, -29271.12, 0.0, 10.000288, 9.998595 
4.250684e+2, 2.8527012e+2, -171074.88, -316855.72, -119059.71, -0.09190908, 0.18576041, -104365.055, 40006.207, 0.0000000012455732, 10.000491, 9.998554 
4.2507222e+2, 2.95269e+2, 129411.97, -124409.64, -99912.0, -0.07239056, 0.1796362, 164021.31, 210401.98, 0.0000019825331, 10.001866, 9.998551 
4.2507946e+2, 3.0526623e+2, 187809.36, -94131.75, 9937.545, 0.11367975, 0.06383996, 188159.19, 188159.19, 0.000019679212, 10.002075, 9.998329 
4.2508477e+2, 3.152667e+2, 162653.23, 30424.854, 3738.0972, 0.061916992, 0.23779257, 162758.83, 162758.83, 0.00007104561, 10.001209, 9.999612 
4.3500146e+2, 1.252806e+2, -1565219.3, -1758627.5, 134762.77, -0.1402505, 0.058951218, -1496053.9, 216204.69, 0.00011272219, 10.001429, 9.998988 
4.3500084e+2, 1.3527974e+2, -1578354.1, -1726631.3, -102028.31, -0.2832218, 0.036029834, -1526372.5, 87895.414, 0.00005585788, 10.000769, 9.99886 
4.3500742e+2, 1.452789e+2, -1480541.3, -1581569.8, 57013.387, -0.0063995398, 0.051463068, -1454883.3, 61393.28, 0.000019900395, 10.000559, 9.9992695 
4.3501243e+2, 1.5527958e+2, -1357368.9, -1479487.9, 62114.313, -0.04895628, 0.15014412, -1331328.1, 86941.53, 0.0000034951138, 10.0007715, 9.999198 
4.350168e+2, 1.652785e+2, -1350670.1, -1584469.4, -30856.848, -0.067038365, 0.20334399, -1346666.1, -26383.639, 0.000000032016867, 10.000854, 9.997756 
4.350198e+2, 1.7527561e+2, -1219442.0, -1465709.8, -66597.664, -0.16429156, 0.10387821, -1202585.9, 19729.164, 0.0, 10.00105, 9.997808 
4.3502373e+2, 1.8527417e+2, -1008744.4, -1161164.0, -105211.164, -0.14799562, 0.11400579, -955041.44, 169288.06, 0.0, 10.001155, 9.999183 
4.3502882e+2, 1.952738e+2, -904866.56, -1065391.6, -59271.51, 0.003174693, 0.12614223, -885353.4, 140976.52, 0.0, 10.001216, 9.999139 
4.3503314e+2, 2.0527308e+2, -891604.3, -1108118.0, -38323.445, 0.017937971, 0.18895732, -885021.1, 43317.453, 0.0, 10.00107, 9.998238 
4.350367e+2, 2.1527168e+2, -842082.1, -1037434.75, -64669.39, -0.11013677, 0.19212641, -822614.1, 7743.3555, 0.0, 10.000747, 9.998211 
4.350415e+2, 2.2527084e+2, -680514.1, -788744.8, -93296.33, -0.11115745, 0.2394514, -626774.56, 105592.23, 0.0, 10.000686, 9.999267 
4.3504733e+2, 2.352702e+2, -562645.1, -685614.0, -71676.32, -0.0048477724, 0.2142717, -529695.25, 104674.99, 0.0, 10.000834, 9.999233 
4.35052e+2, 2.4526916e+2, -485190.06, -706664.4, -109327.57, 0.023516392, 0.24335739, -440314.78, 96065.33, 0.0, 10.0011635, 9.998252 
4.3505564e+2, 2.552675e+2, -327316.3, -582433.25, -99248.82, -0.02475462, 0.21301478, -293253.34, 145144.9, 0.0, 10.001578, 9.998236 
4.3505985e+2, 2.6526585e+2, -249917.38, -462350.78, -90259.836, -0.054156523, 0.21666238, -216746.75, 123669.17, 0.0, 10.0013075, 9.998523 
4.3506452e+2, 2.7526388e+2, -311015.1, -439518.7, -80519.04, -0.07585633, 0.13523304, -272254.22, -29817.848, 0.0, 10.000203, 9.998538 
4.350692e+2, 2.8526354e+2, -143624.2, -247193.48, -78652.266, -0.09743017, 0.2263541, -101239.695, 43199.297, 0.000000012355592, 10.000449, 9.999048 
4.350745e+2, 2.9526448e+2, 144471.95, -70347.61, -33636.254, -0.07746003, 0.37244233, 149615.53, 196043.02, 0.0000027662056, 10.001778, 9.998961 
4.3508127e+2, 3.0526096e+2, 189457.05, -91000.664, -35425.27, 0.054439474, 0.1630806, 193862.48, 193862.48, 0.000024180765, 10.00207, 9.998355 
4.3508652e+2, 3.1525984e+2, 101361.65, -69524.02, 64282.848, 0.037943043, 0.17700498, 122842.91, 122842.91, 0.00008333817, 10.001097, 9.998979 
4.4500282e+2, 1.2527555e+2, -1610438.5, -1753338.0, 168348.38, -0.10618485, 0.070352666, -1499005.1, 213303.3, 0.00010688196, 10.001047, 9.999194 
4.4500357e+2, 1.3527474e+2, -1462439.0, -1639733.1, -171670.19, -0.101777054, 0.028826194, -1357879.0, 256436.75, 0.000051033883, 10.001459, 9.999125 
4.4500846e+2, 1.4527376e+2, -1347453.0, -1548701.0, 19629.977, 0.0007517903, 0.033244643, -1345556.1, 170768.78, 0.000017295639, 10.001601, 9.998992 
4.4501367e+2, 1.5527382e+2, -1298593.1, -1480162.4, -55543.156, -0.017247863, 0.093933485, -1282949.9, 135374.17, 0.0000027656245, 10.001295, 9.9989395 
4.450183e+2, 1.6527261e+2, -1292970.5, -1556975.9, -67061.47, -0.01309908, 0.14704359, -1276912.5, 43425.598, 0.000000035556127, 10.001221, 9.997784 
4.450214e+2, 1.752701e+2, -1171091.1, -1441512.0, -25782.557, -0.11536059, 0.08017749, -1168654.9, 53712.62, 0.0, 10.001358, 9.997837 
4.4502527e+2, 1.8526895e+2, -962036.1, -1137929.4, -17563.08, -0.116868675, 0.117812224, -960299.56, 164080.2, 0.0, 10.001497, 9.999162 
4.4503024e+2, 1.9526868e+2, -854525.3, -1044844.94, -63541.742, 0.017703488, 0.14184012, -835260.75, 191119.13, 0.0, 10.001593, 9.999088 
4.4503438e+2, 2.0526773e+2, -858561.4, -1126813.5, -26961.525, 0.025189754, 0.2064344, -855878.4, 72512.57, 0.0, 10.001468, 9.997909 
4.4503766e+2, 2.1526594e+2, -810302.44, -1055062.5, -24783.748, -0.09581682, 0.20341264, -807818.1, 22596.334, 0.0, 10.001119, 9.997904 
4.4504255e+2, 2.2526489e+2, -602971.8, -763217.5, 14438.893, -0.093715735, 0.24867181, -601681.2, 130744.94, 0.0, 10.00127, 9.999156 
4.450489e+2, 2.352642e+2, -422629.9, -633481.1, -20919.484, 0.025281543, 0.22962295, -420574.44, 213855.61, 0.0, 10.00186, 9.999095 
4.4505358e+2, 2.4526303e+2, -405322.5, -675767.56, -61106.285, 0.045132045, 0.25551352, -392156.66, 144284.42, 0.0, 10.001742, 9.998187 
4.4505683e+2, 2.5526124e+2, -422943.13, -633308.9, -71084.68, -0.022999393, 0.21997455, -401175.34, 37285.2, 0.0, 10.000946, 9.998188 
4.4506094e+2, 2.6525965e+2, -300757.97, -481370.03, -22758.994, -0.046623543, 0.22544058, -297934.25, 42543.21, 0.0, 10.000942, 9.99856 
4.4506574e+2, 2.7525786e+2, -89168.305, -331985.2, -34480.21, -0.039047267, 0.15817462, -84367.016, 158128.22, 0.0, 10.001728, 9.99854 
4.4507095e+2, 2.852572e+2, 69596.76, -197083.16, -9660.966, -0.04280994, 0.24479008, 69946.29, 214447.25, 0.00000003062236, 10.002127, 9.998593 
4.4507718e+2, 2.9525742e+2, 146121.08, -110585.52, -73288.18, 0.01630268, 0.36404952, 165570.78, 212068.67, 0.0000032986038, 10.001981, 9.998582 
4.4508293e+2, 3.052543e+2, 157743.48, -112932.54, -106589.0, 0.038029086, 0.2164928, 194677.33, 194677.33, 0.000027227657, 10.001875, 9.99829 
4.4508818e+2, 3.1525314e+2, 183031.33, -90650.17, -35344.94, 0.06751203, 0.23015693, 187522.31, 187522.31, 0.000091368296, 10.001925, 9.998421 
4.5500505e+2, 1.252705e+2, -1597849.0, -1724858.1, 161807.8, -0.07131388, 0.14529832, -1487530.1, 224831.77, 0.000102696926, 10.001034, 9.999395 
4.5500678e+2, 1.3527066e+2, -1433519.9, -1594493.0, -139719.06, 0.034379277, 0.16776787, -1352762.9, 261594.94, 0.000047349753, 10.001506, 9.999417 
4.5500892e+2, 1.4526889e+2, -1408453.5, -1661835.4, -1048.3597, -0.1583359, 0.11614442, -1408449.3, 107925.305, 0.000015080613, 10.001552, 9.998236 
4.5501432e+2, 1.5526661e+2, -1355621.4, -1587521.3, -48956.242, -0.12318037, 0.023576312, -1345709.9, 72688.02, 0.0000021144335, 10.001256, 9.998219 
4.5501968e+2, 1.6526553e+2, -1198736.9, -1345150.6, -79589.99, -0.03228005, 0.04757833, -1163805.9, 156602.98, 0.00000004449902, 10.001144, 9.999274 
4.55024e+2, 1.7526542e+2, -1076345.3, -1239183.4, -4407.0327, -0.026748834, 0.07042814, -1076226.0, 146183.77, 0.0, 10.0013275, 9.999242 
4.5502767e+2, 1.8526495e+2, -1037436.9, -1269836.6, -28916.041, -0.057510216, 0.15284148, -1033893.06, 90522.41, 0.0, 10.001393, 9.998304 
4.5503134e+2, 1.9526374e+2, -936673.06, -1177328.5, -47746.09, -0.06516556, 0.16915876, -927546.4, 98883.25, 0.0, 10.001434, 9.99825 
4.5503497e+2, 2.0526224e+2, -853610.56, -1078661.3, -55363.87, -0.0931372, 0.19664569, -840728.1, 87717.88, 0.0, 10.0013, 9.998322 
4.5503843e+2, 2.1526025e+2, -810957.75, -1006394.4, -22191.807, -0.16181535, 0.13101925, -808469.56, 21996.625, 0.0, 10.000908, 9.998335 
4.550436e+2, 2.2525895e+2, -662032.25, -848393.56, 23594.025, -0.14034286, 0.15442936, -659091.56, 73387.58, 0.0, 10.001101, 9.998659 
4.5505032e+2, 2.3525791e+2, -476958.13, -711929.06, 16386.008, -0.049040522, 0.14910708, -475820.94, 158667.78, 0.0, 10.001705, 9.998633 
4.5505485e+2, 2.4525672e+2, -420479.3, -672604.0, -103830.45, -0.03360617, 0.19283849, -383224.53, 153276.56, 0.0, 10.001601, 9.998281 
4.5505744e+2, 2.552551e+2, -434068.25, -624502.3, -82797.805, -0.08737373, 0.16824375, -403103.84, 35415.242, 0.0, 10.000809, 9.998321 
4.5506173e+2, 2.652539e+2, -310048.28, -478382.25, -4358.343, -0.092662215, 0.2060858, -309935.5, 30595.229, 0.0, 10.000853, 9.998617 
4.5506743e+2, 2.7525294e+2, -107515.34, -343289.84, 13817.024, -0.08137601, 0.20944443, -106708.39, 135830.05, 0.0, 10.001616, 9.998509 
4.5507324e+2, 2.8525108e+2, -30943.94, -398086.7, -27961.771, -0.06065845, 0.24350385, -28826.568, 115730.664, 0.000000022691747, 10.002082, 9.997239 
4.5507982e+2, 2.9524782e+2, 53399.355, -296008.88, -61153.58, 0.036829934, 0.15478835, 63793.29, 110384.664, 0.0000033720132, 10.001926, 9.997346 
4.550839e+2, 3.0524617e+2, 144242.2, -128616.32, -111170.305, -0.090003364, 0.21513028, 183800.94, 183800.94, 0.000028360193, 10.001837, 9.99819 
4.5508897e+2, 3.1524628e+2, 133124.56, -171933.98, 15308.831, -0.118192725, 0.36392853, 133890.89, 133890.89, 0.00009465621, 10.001829, 9.997906 
4.6500602e+2, 1.2526515e+2, -1781465.1, -1790683.4, 192282.7, 0.0059264004, 0.1857641, -1593736.3, 118680.11, 0.00009773488, 9.99963, 9.999624 
4.6500954e+2, 1.3526532e+2, -1445146.6, -1569261.0, -116824.914, 0.18929833, 0.17228013, -1374919.5, 239491.42, 0.000043477085, 10.00125, 9.999724 
4.650099e+2, 1.452636e+2, -1359324.8, -1634301.5, 44450.14, -0.22167842, 0.10785741, -1352317.9, 164108.72, 0.000012657647, 10.001875, 9.99827 
4.6501574e+2, 1.5526147e+2, -1321646.0, -1565562.1, 17637.176, -0.102764875, 0.026516981, -1320377.4, 98071.34, 0.0000014631825, 10.001472, 9.998266 
4.6502116e+2, 1.6526064e+2, -1182279.9, -1317561.3, 11905.401, 0.008375193, 0.06368504, -1181240.1, 139216.9, 0.000000030371112, 10.001191, 9.999432 
4.6502522e+2, 1.7526074e+2, -1110666.6, -1237037.8, -45152.184, -0.017787231, 0.09388609, -1096191.8, 126263.34, 0.0, 10.001024, 9.999396 
4.65029e+2, 1.8526018e+2, -1087785.4, -1324876.6, -56364.926, -0.043331955, 0.1711865, -1075067.6, 49394.67, 0.0, 10.00115, 9.998061 
4.650331e+2, 1.9525866e+2, -944642.06, -1208846.6, -55196.332, -0.02277947, 0.18030244, -933574.4, 92906.53, 0.0, 10.001466, 9.998039 
4.6503672e+2, 2.0525706e+2, -794485.8, -1010838.44, -26501.932, -0.050265472, 0.18966815, -791286.75, 137210.11, 0.0, 10.001526, 9.998682 
4.650397e+2, 2.1525514e+2, -720065.9, -930652.8, -32220.73, -0.13773291, 0.09520837, -715246.25, 115266.9, 0.0, 10.001382, 9.998634 
4.650448e+2, 2.2525369e+2, -682617.3, -890716.06, 60322.58, -0.12133078, 0.10711544, -666395.75, 66130.97, 0.0, 10.001117, 9.998347 
4.6505186e+2, 2.3525243e+2, -635452.44, -821754.25, 34360.594, -0.011505404, 0.11138392, -629317.2, 5223.2236, 0.0, 10.000779, 9.998317 
4.6505645e+2, 2.4525116e+2, -500898.7, -721297.3, -61137.29, 0.005256113, 0.16579416, -485075.53, 51478.816, 0.0, 10.0010805, 9.998192 
4.6505904e+2, 2.5524962e+2, -275443.6, -560320.1, -83471.09, -0.054131288, 0.15580998, -252787.69, 185783.69, 0.0, 10.001945, 9.998209 
4.6506345e+2, 2.6524827e+2, -138063.3, -437995.13, 2915.309, -0.066103004, 0.1983496, -138034.97, 202549.6, 0.0, 10.002194, 9.998264 
4.650693e+2, 2.7524683e+2, -106808.37, -381286.1, -34304.734, -0.05144086, 0.19452679, -102585.85, 140010.14, 0.0, 10.001775, 9.998182 
4.6507522e+2, 2.8524446e+2, -128139.24, -451957.1, -15802.548, -0.027537573, 0.20275135, -127369.89, 17249.111, 0.00000001636591, 10.001448, 9.997171 
4.6508184e+2, 2.9524082e+2, -35090.1, -331860.75, 727.35065, 0.08723544, 0.07280372, -35088.32, 11569.181, 0.0000038591365, 10.001302, 9.997389 
4.6508512e+2, 3.0523992e+2, 78012.266, -162707.4, 38336.55, -0.11690401, 0.203342, 83970.2, 83970.2, 0.000029778155, 10.0013485, 9.998227 
4.6509123e+2, 3.152392e+2, 85425.29, -149924.16, 111421.37, -0.031350184, 0.2768142, 129806.305, 129806.305, 0.00009717631, 10.00129, 9.998338 
4.750048e+2, 1.2525938e+2, -1775712.0, -1734855.1, 120366.37, -0.16038331, 0.19620995, -1633196.0, 79277.02, 0.00009217974, 9.999482, 10.000059 
4.7501144e+2, 1.3525872e+2, -1416137.1, -1494487.9, -37824.996, 0.21357107, 0.049451657, -1400856.6, 213618.66, 0.00003847725, 10.001218, 10.0002365 
4.7501084e+2, 1.452579e+2, -1303692.6, -1515553.9, 13072.478, -0.36450592, 0.011964076, -1302889.1, 213591.95, 0.000009911169, 10.001842, 9.999111 
4.7501752e+2, 1.5525831e+2, -1259040.1, -1444714.6, 17556.393, -0.113091454, 0.09643234, -1257394.6, 161082.44, 0.0000009593812, 10.001495, 9.999092 
4.7502235e+2, 1.652578e+2, -1275324.0, -1493279.6, -9318.804, -0.027534105, 0.18510759, -1274926.4, 45557.516, 0.000000014696447, 10.00112, 9.998263 
4.7502452e+2, 1.7525604e+2, -1201560.5, -1409057.6, -33764.156, -0.21915266, 0.15087497, -1196204.6, 26299.773, 0.0, 10.000956, 9.998253 
4.750287e+2, 1.8525468e+2, -1070749.5, -1265885.0, -57519.992, -0.22027506, 0.18293488, -1055056.4, 69463.53, 0.0, 10.001044, 9.998519 
4.7503513e+2, 1.9525346e+2, -927996.94, -1151577.4, -27359.16, 0.0023591735, 0.17614757, -924697.75, 101835.52, 0.0, 10.001363, 9.9984865 
4.7503924e+2, 2.0525223e+2, -798633.9, -983623.5, -45741.63, 0.020011287, 0.18579794, -787941.56, 140602.13, 0.0, 10.001376, 9.998937 
4.750411e+2, 2.1525064e+2, -729527.4, -904955.5, -21702.24, -0.16821419, 0.09970226, -726882.44, 103672.164, 0.0, 10.001194, 9.998896 
4.750457e+2, 2.2524916e+2, -716221.7, -931169.06, 33244.75, -0.17430227, 0.10532521, -711197.3, 21371.092, 0.0, 10.000976, 9.998146 
4.7505298e+2, 2.3524758e+2, -672418.5, -861913.9, 37955.223, -0.0064388574, 0.09877677, -665098.94, -30512.406, 0.0, 10.000615, 9.998124 
4.7505802e+2, 2.4524617e+2, -538866.3, -774217.5, -41578.06, 0.021766478, 0.16147073, -531736.94, 4865.652, 0.0, 10.00096, 9.9978895 
4.7506115e+2, 2.5524458e+2, -317866.75, -623773.4, -35608.195, -0.07344598, 0.17548561, -313776.56, 124843.02, 0.0, 10.001822, 9.997837 
4.750656e+2, 2.652425e+2, -200046.39, -541372.0, -27135.395, -0.10295601, 0.2000592, -197902.6, 142737.48, 0.0, 10.002094, 9.997597 
4.7507095e+2, 2.7523953e+2, -163196.9, -472335.84, -32106.684, -0.09853883, 0.11081984, -159897.58, 82769.77, 0.0, 10.001672, 9.9976015 
4.750765e+2, 2.8523746e+2, -56303.766, -299080.5, -36718.883, -0.081176914, 0.11570736, -50871.742, 93814.91, 0.0000000367379, 10.001422, 9.998237 
4.7508273e+2, 2.9523596e+2, 21371.26, -195161.33, 11983.764, 0.0036961532, 0.09610418, 22032.469, 68732.67, 0.000004901276, 10.001196, 9.998389 
4.7508612e+2, 3.0523524e+2, 80620.23, -129917.53, 22856.992, -0.17620422, 0.17845514, 83073.12, 83073.12, 0.000032907166, 10.001251, 9.998489 
4.7509387e+2, 3.1523183e+2, 168493.53, 45594.027, 117064.45, 0.029164264, -0.035274245, 239256.33, 239256.33, 0.00010232853, 10.00121, 9.999708 
4.8500428e+2, 1.2525392e+2, -1696823.1, -1688515.3, 139325.28, -0.16350484, 0.1595583, -1553282.0, 159242.72, 0.00008688649, 9.999986, 10.000148 
4.85014e+2, 1.352537e+2, -1456684.0, -1501789.8, 15125.871, 0.3779342, 0.0516297, -1452081.4, 162443.03, 0.000032757685, 10.000872, 10.000374 
4.85013e+2, 1.4525343e+2, -1358968.5, -1514410.8, 21445.176, -0.2977386, 0.048015483, -1356064.1, 160461.69, 0.000007215262, 10.001353, 9.999347 
4.8501903e+2, 1.5525392e+2, -1231460.9, -1410525.1, -63322.535, -0.10492256, 0.118772216, -1211331.0, 207190.27, 0.00000059770906, 10.001595, 9.999277 
4.850235e+2, 1.6525334e+2, -1214993.4, -1474086.9, -40533.586, -0.035653375, 0.19612278, -1208800.1, 111728.4, 0.0000000048834687, 10.001583, 9.998167 
4.8502582e+2, 1.7525145e+2, -1146639.3, -1387947.1, -9013.284, -0.1969241, 0.15572006, -1146303.0, 76246.81, 0.0, 10.001374, 9.998181 
4.8503006e+2, 1.852499e+2, -1025210.0, -1223020.5, 37420.5, -0.19259967, 0.16104282, -1018367.75, 106198.45, 0.0, 10.001293, 9.998674 
4.8503643e+2, 1.9524841e+2, -926074.1, -1127083.9, 17978.7, 0.007629897, 0.1069199, -924478.75, 102101.68, 0.0, 10.001305, 9.998659 
4.850408e+2, 2.0524731e+2, -791513.6, -999868.25, -2911.6384, 0.041581374, 0.13209255, -791472.94, 137116.34, 0.0, 10.001494, 9.998785 
4.8504338e+2, 2.1524628e+2, -667628.94, -888986.4, -33336.793, -0.07430106, 0.11665517, -662717.4, 167878.8, 0.0, 10.001673, 9.998784 
4.8504776e+2, 2.2524485e+2, -637312.1, -904604.56, 24121.314, -0.08854558, 0.13634035, -635152.8, 97457.28, 0.0, 10.001562, 9.998051 
4.8505378e+2, 2.3524275e+2, -596603.5, -841470.06, 6755.438, -0.00717001, 0.091289885, -596417.25, 38215.793, 0.0, 10.0011835, 9.998 
4.8505908e+2, 2.4524106e+2, -464162.97, -740414.5, 17506.695, 0.011971924, 0.13442521, -463057.94, 73593.3, 0.0, 10.001489, 9.997867 
4.850637e+2, 2.5523958e+2, -240543.88, -586208.75, 9154.88, -0.020490943, 0.16139321, -240301.6, 198365.14, 0.0, 10.002371, 9.997828 
4.8506835e+2, 2.6523736e+2, -154398.58, -531316.94, 29185.275, -0.043520667, 0.18284789, -152152.11, 188535.8, 0.0, 10.002457, 9.997489 
4.8507294e+2, 2.7523407e+2, -146976.61, -477752.47, 32811.56, -0.065110415, 0.070721686, -143753.27, 98965.72, 0.0, 10.00183, 9.997494 
4.8507816e+2, 2.8523198e+2, -34550.574, -261076.44, 61047.05, -0.051671103, 0.067183405, -19146.363, 125591.836, 0.00000008825205, 10.001448, 9.998485 
4.8508433e+2, 2.9523107e+2, 45464.81, -159703.2, 11107.595, 0.05164584, 0.08182048, 46064.414, 92809.88, 0.0000056092463, 10.001257, 9.998601 
4.8508722e+2, 3.0522996e+2, 46618.586, -139558.42, 25131.125, -0.16186716, 0.113175415, 49951.258, 49951.258, 0.000035389916, 10.000985, 9.998543 
4.8509544e+2, 3.152269e+2, 110945.3, 74814.4, 25236.975, 0.11342089, -0.07488747, 123916.37, 123916.37, 0.00010599746, 10.000562, 10.000218 
4.9500316e+2, 1.2524861e+2, -1711479.0, -1724130.8, -35743.426, -0.3586747, 0.07389376, -1681506.0, 31066.84, 0.00007926606, 10.000011, 9.999887 
4.950166e+2, 1.3525029e+2, -1467613.4, -1525980.6, 61809.207, 0.5205214, 0.17099851, -1428444.5, 186113.39, 0.000026309035, 10.000876, 10.000202 
4.950159e+2, 1.452502e+2, -1404426.6, -1590525.3, 14267.305, -0.1848107, 0.21591844, -1403339.3, 113221.445, 0.0000047383246, 10.001277, 9.998861 
4.9501976e+2, 1.5524839e+2, -1269621.9, -1480287.4, -38328.824, -0.22928584, 0.10536445, -1262865.0, 155715.31, 0.0000002991547, 10.001558, 9.998815 
4.9502417e+2, 1.6524741e+2, -1149493.3, -1325149.8, -64392.555, -0.16442442, 0.112651445, -1128417.0, 192172.69, 0.0000000005507737, 10.001523, 9.99922 
4.9502867e+2, 1.7524695e+2, -1083781.4, -1243154.4, -4284.0566, -0.08260403, 0.11103675, -1083666.4, 138925.39, 0.0, 10.001311, 9.9992075 
4.9503273e+2, 1.8524571e+2, -1049901.0, -1247947.3, 24202.082, -0.08726406, 0.10373205, -1046986.3, 77615.82, 0.0, 10.0011835, 9.998554 
4.9503654e+2, 1.9524337e+2, -951513.56, -1154696.0, 31891.363, -0.1478468, -0.021706069, -946625.56, 79997.9, 0.0, 10.001193, 9.998525 
4.9504098e+2, 2.052423e+2, -845639.44, -1077264.0, -12350.275, -0.11358224, 0.034473527, -844982.8, 83651.08, 0.0, 10.001335, 9.998333 
4.950461e+2, 2.1524213e+2, -720882.6, -969468.1, -11543.941, 0.0026378501, 0.14869887, -720347.7, 110289.24, 0.0, 10.001528, 9.998308 
4.9505034e+2, 2.2524068e+2, -668527.7, -927862.8, -2465.912, -0.011710096, 0.19565454, -668504.2, 64147.863, 0.0, 10.001393, 9.997967 
4.9505386e+2, 2.3523782e+2, -626372.25, -862100.2, 11829.83, -0.15070385, 0.07845587, -625780.06, 8900.558, 0.0, 10.001007, 9.997941 
4.9505913e+2, 2.4523589e+2, -470385.9, -717769.6, 37255.574, -0.16034566, 0.08799493, -464897.06, 71802.766, 0.0, 10.001345, 9.998089 
4.9506617e+2, 2.5523445e+2, -242648.92, -562313.3, 58296.83, -0.04622282, 0.10060733, -232349.27, 206364.58, 0.0, 10.002248, 9.998052 
4.9507135e+2, 2.6523265e+2, -140845.72, -476370.97, -10719.819, -0.024285704, 0.13200517, -140503.58, 200226.75, 0.0, 10.002352, 9.997912 
4.9507475e+2, 2.7523032e+2, -145161.48, -433956.47, 26360.326, -0.09989325, 0.06984811, -142775.11, 99976.86, 0.0, 10.001668, 9.997867 
4.950796e+2, 2.8522822e+2, -82231.04, -340458.4, 42511.906, -0.08450497, 0.07402437, -75412.37, 69359.81, 0.00000018947561, 10.0013685, 9.997974 
4.9508616e+2, 2.952262e+2, -1686.0507, -242335.88, 23932.5, 0.063084245, 0.0321334, 670.9391, 47463.594, 0.000005650319, 10.001198, 9.998057 
4.9508813e+2, 3.0522415e+2, 41161.758, -158097.03, 1611.145, -0.2045735, 0.0064570303, 41174.78, 41174.78, 0.00003451672, 10.001002, 9.99841 
4.9509487e+2, 3.1522417e+2, 78196.61, 21486.172, 37790.227, -0.077479385, 0.12895925, 97086.7, 97086.7, 0.00010176044, 10.000489, 9.9998865 
5.050039e+2, 1.2524322e+2, -1742019.5, -1726307.6, -119594.22, -0.25561303, 0.0039874543, -1614311.6, 98311.56, 0.000066640154, 9.999766, 9.999978 
5.050166e+2, 1.3524553e+2, -1452446.9, -1519438.8, 69409.87, 0.4464954, 0.16497101, -1408873.3, 205730.33, 0.0000195532, 10.000975, 10.000203 
5.050173e+2, 1.4524588e+2, -1404899.1, -1581171.8, 52746.61, -0.1603614, 0.2521739, -1390321.3, 126281.49, 0.0000028130235, 10.001245, 9.998936 
5.0502133e+2, 1.5524383e+2, -1349612.0, -1505339.6, 4107.4644, -0.18970482, 0.11116645, -1349503.8, 69120.91, 0.00000011765629, 10.000969, 9.9989195 
5.050258e+2, 1.6524288e+2, -1204525.1, -1344746.0, -2462.977, -0.12554546, 0.11078587, -1204481.9, 116152.08, 0.000000000026416515, 10.0011015, 9.999294 
5.050305e+2, 1.7524262e+2, -1042134.44, -1217363.0, -44752.84, -0.03388948, 0.12150453, -1031366.44, 191268.1, 0.0, 10.001553, 9.999277 
5.050346e+2, 1.8524142e+2, -982277.6, -1224759.6, -26344.143, -0.03087218, 0.11870276, -979448.5, 145195.78, 0.0, 10.001674, 9.998487 
5.050384e+2, 1.9523908e+2, -915521.2, -1144290.0, -40153.47, -0.08516256, 0.0018957742, -908678.1, 117986.945, 0.0, 10.001467, 9.998469 
5.050429e+2, 2.0523776e+2, -839412.3, -1088622.6, -36812.934, -0.053522993, 0.04583293, -834088.06, 94589.84, 0.0, 10.001464, 9.998175 
5.0504816e+2, 2.1523716e+2, -730988.3, -989596.56, -50187.176, 0.060364738, 0.13287427, -721590.25, 109095.88, 0.0, 10.001552, 9.998142 
5.0505227e+2, 2.252356e+2, -616020.94, -902311.06, -4621.548, 0.0335897, 0.17945087, -615946.3, 116756.12, 0.0, 10.001742, 9.997982 
5.0505555e+2, 2.3523304e+2, -497586.75, -790998.1, -16348.51, -0.11480038, 0.088246495, -496678.63, 138049.2, 0.0, 10.001877, 9.998002 
5.050609e+2, 2.4523115e+2, -416808.06, -680916.6, 51027.207, -0.12757327, 0.094263166, -407292.2, 129453.92, 0.0, 10.001653, 9.998198 
5.050682e+2, 2.5522953e+2, -396209.56, -621352.94, 36862.168, -0.00040473425, 0.07672446, -390327.88, 48433.465, 0.0, 10.001126, 9.998186 
5.0507337e+2, 2.6522803e+2, -295718.56, -515241.94, -16434.979, 0.016195001, 0.11125732, -294494.94, 46280.06, 0.0, 10.00112, 9.998252 
5.0507647e+2, 2.752264e+2, -147442.2, -399393.3, -22891.254, -0.07349516, 0.086646535, -145379.28, 97410.57, 0.00000000061010413, 10.001485, 9.9981985 
5.050813e+2, 2.8522456e+2, -84875.2, -369468.7, 30661.084, -0.050044823, 0.112352334, -81609.37, 63199.008, 0.00000027597625, 10.00147, 9.997732 
5.0508773e+2, 2.9522234e+2, -34037.074, -288327.16, -3144.0957, 0.11710427, 0.07910532, -33998.207, 12833.6875, 0.0000049916057, 10.001109, 9.997792 
5.0508946e+2, 3.052201e+2, 53708.387, -158088.48, 26446.094, -0.1646925, 0.05066509, 56960.65, 56960.65, 0.000030276777, 10.0011215, 9.998349 
5.050964e+2, 3.1522086e+2, 131472.77, -5894.7393, -16106.409, 0.008238038, 0.2471989, 133335.98, 133335.98, 0.000090633286, 10.001091, 9.999405 
5.150052e+2, 1.2523778e+2, -1713345.5, -1670184.1, -243253.44, -0.18738218, -0.039528027, -1447556.0, 265119.06, 0.000052165007, 9.999775, 10.000359 
5.1501364e+2, 1.352395e+2, -1437709.1, -1495561.1, 128450.27, 0.0108269425, 0.036878537, -1334968.3, 279692.28, 0.000013925394, 10.001, 10.000354 
5.150167e+2, 1.4524055e+2, -1365808.8, -1495479.1, 20930.184, -0.39340153, 0.15834413, -1362514.1, 154137.52, 0.000001645238, 10.001219, 9.99954 
5.1502323e+2, 1.5524022e+2, -1315815.9, -1424813.5, 10592.259, -0.12913556, 0.12895423, -1314796.0, 103859.03, 0.00000003629146, 10.000923, 9.999497 
5.150279e+2, 1.6523968e+2, -1281783.3, -1482472.3, 1492.9764, -0.057770442, 0.1864864, -1281772.3, 38890.293, 0.0, 10.001008, 9.998389 
5.1503074e+2, 1.7523849e+2, -1117093.1, -1353740.6, -11944.012, -0.19896789, 0.19278337, -1116491.8, 106185.65, 0.0, 10.001478, 9.99837 
5.150353e+2, 1.852372e+2, -994571.6, -1228179.5, -48740.656, -0.16727698, 0.22313337, -984810.1, 139880.53, 0.0, 10.001574, 9.998509 
5.1504153e+2, 1.9523549e+2, -924212.75, -1147443.0, -31601.893, 0.04339606, 0.16494687, -919825.2, 106879.734, 0.0, 10.00139, 9.998486 
5.15046e+2, 2.0523356e+2, -866966.1, -1105796.8, -47919.402, 0.08452232, 0.14778417, -857710.2, 71012.234, 0.0, 10.001292, 9.998139 
5.1504904e+2, 2.1523117e+2, -754318.94, -1000552.7, -32042.49, -0.033122014, 0.05647269, -750217.56, 80527.81, 0.0, 10.001385, 9.998149 
5.150532e+2, 2.2522949e+2, -627779.4, -894521.2, -15949.476, -0.072968125, 0.08063239, -626829.06, 105933.39, 0.0, 10.0015955, 9.998113 
5.1505834e+2, 2.3522823e+2, -509200.16, -785540.5, 3772.5068, -0.052865047, 0.10834226, -509148.66, 125627.59, 0.0, 10.0017395, 9.998112 
5.150637e+2, 2.4522674e+2, -426046.56, -673783.5, 17266.35, -0.042129207, 0.14531304, -424848.94, 111942.24, 0.0, 10.001545, 9.998295 
5.1506925e+2, 2.5522476e+2, -409904.97, -617877.9, 35140.176, -0.039464828, 0.08162563, -404127.97, 34681.855, 0.0, 10.00098, 9.9982815 
5.1507396e+2, 2.6522344e+2, -293825.13, -487051.13, -16543.447, -0.06490467, 0.11637009, -292418.94, 48403.215, 0.0, 10.001022, 9.998492 
5.150778e+2, 2.7522227e+2, -144287.1, -372891.06, 12568.203, -0.12348331, 0.11598058, -143598.2, 99235.03, 0.0000000018853024, 10.001391, 9.998433 
5.150827e+2, 2.8522095e+2, -90174.45, -370856.6, 2084.9802, -0.09332752, 0.18310268, -90158.97, 54688.188, 0.00000034894228, 10.001434, 9.997735 
5.150885e+2, 2.9521942e+2, -50550.96, -302898.16, 6876.4116, 0.033856727, 0.21288559, -50363.72, -3499.0347, 0.000004315403, 10.001019, 9.997736 
5.150906e+2, 3.0521765e+2, 48218.348, -152730.48, 20802.78, -0.2013392, 0.23405923, 50349.313, 50349.313, 0.000026122347, 10.001071, 9.998407 
5.1509905e+2, 3.1521657e+2, 66425.04, -108738.9, 7657.84, 0.08784334, 0.2529525, 66759.195, 66759.195, 0.000081293096, 10.000972, 9.998754 
5.2500695e+2, 1.2523317e+2, -1587070.5, -1630908.1, -215645.52, -0.026219435, -0.037751514, -1392232.8, 320487.13, 0.000041919076, 10.000728, 10.000167 
5.250127e+2, 1.3523434e+2, -1475222.4, -1557247.0, 106377.74, -0.16254073, 0.025321884, -1402224.9, 212486.38, 0.000010470756, 10.000933, 9.99996 
5.250184e+2, 1.4523512e+2, -1389769.8, -1481388.1, -17523.32, -0.32127076, 0.12903978, -1386532.5, 130171.96, 0.0000009776196, 10.000942, 9.999771 
5.2502453e+2, 1.5523499e+2, -1254391.0, -1368485.3, -89262.72, -0.09475875, 0.090717256, -1205503.3, 213201.5, 0.000000005050013, 10.001221, 9.999739 
5.250291e+2, 1.6523449e+2, -1247840.9, -1475661.9, -40362.008, -0.042912222, 0.14764754, -1240901.5, 79809.85, 0.0, 10.001283, 9.998309 
5.2503234e+2, 1.7523332e+2, -1168659.6, -1388588.8, -27205.34, -0.16202232, 0.16389918, -1165344.3, 57382.848, 0.0, 10.001155, 9.998295 
5.2503717e+2, 1.8523216e+2, -1022373.5, -1247336.6, -9297.296, -0.1163734, 0.21736325, -1021989.9, 102750.234, 0.0, 10.001419, 9.998458 
5.2504355e+2, 1.9523077e+2, -852804.1, -1115330.9, -32317.336, 0.090221584, 0.20072076, -848884.3, 177868.55, 0.0, 10.00192, 9.998449 
5.2504796e+2, 2.0522885e+2, -759786.4, -1034995.2, -23841.803, 0.12510672, 0.1776375, -757736.25, 171034.2, 0.0, 10.001933, 9.99832 
5.250507e+2, 2.1522619e+2, -732237.25, -972804.1, -19654.652, 0.0012435361, 0.04081924, -730642.0, 100153.04, 0.0, 10.0014515, 9.998311 
5.250549e+2, 2.2522476e+2, -660615.6, -889818.25, 44811.18, -0.043901954, 0.07468339, -652166.1, 80643.05, 0.0, 10.0013075, 9.998266 
5.2506024e+2, 2.3522416e+2, -533376.6, -783209.75, 32805.766, -0.017213628, 0.15498014, -529140.7, 105676.21, 0.0, 10.00152, 9.998229 
5.2506554e+2, 2.4522276e+2, -409489.78, -664881.4, 53439.387, -0.00811398, 0.19425799, -398758.78, 138072.53, 0.0, 10.001647, 9.998316 
5.2507085e+2, 2.5522047e+2, -310511.6, -565866.4, 35877.035, -0.0074648997, 0.09737457, -305566.66, 133286.66, 0.0, 10.001651, 9.998319 
5.250754e+2, 2.652192e+2, -192312.53, -408933.56, 30807.291, -0.04704656, 0.12327316, -188016.39, 152848.45, 0.0, 10.001596, 9.998743 
5.2507937e+2, 2.7521855e+2, -113767.11, -318567.16, 28469.049, -0.10414725, 0.14425683, -109883.305, 132986.86, 0.00000000009174081, 10.001466, 9.998746 
5.2508414e+2, 2.852173e+2, -74665.02, -341410.1, 51779.23, -0.07798405, 0.19239923, -64966.523, 79915.82, 0.00000033351301, 10.001448, 9.997927 
5.250896e+2, 2.952154e+2, 33694.086, -238515.33, 35574.516, 0.031680044, 0.16309465, 38266.445, 85168.95, 0.0000041082662, 10.001496, 9.997941 
5.250919e+2, 3.0521405e+2, 108094.414, -119336.61, 92860.11, -0.1833997, 0.21628654, 141192.45, 141192.45, 0.000024723933, 10.001448, 9.998472 
5.2510077e+2, 3.1521237e+2, 34891.164, -119888.82, -23026.744, 0.19562091, 0.17280015, 38244.23, 38244.23, 0.00007789345, 10.000726, 9.998811 
5.350078e+2, 1.2522928e+2, -1624574.4, -1717998.0, -263062.97, -0.109456226, 0.0011384411, -1404108.1, 308650.53, 0.000035694404, 10.000778, 9.999541 
5.350135e+2, 1.3523017e+2, -1551223.3, -1705041.3, 119448.62, -0.21184044, 0.13708901, -1486065.5, 128689.7, 0.000008273398, 10.000892, 9.998971 
5.3502184e+2, 1.4522977e+2, -1409704.1, -1505229.0, -24418.195, -0.11510814, 0.17968416, -1403824.3, 112935.81, 0.00000061502607, 10.000866, 9.999638 
5.3502476e+2, 1.5522826e+2, -1270498.9, -1392950.8, -63252.81, -0.23121437, 0.010649241, -1243693.4, 175079.02, 0.00000000036285042, 10.001181, 9.999587 
5.35029e+2, 1.652274e+2, -1207863.1, -1379241.6, -63075.81, -0.21659818, 0.0049259206, -1187151.3, 133628.6, 0.0, 10.001223, 9.9990015 
5.350349e+2, 1.75227e+2, -1128014.0, -1295931.0, -15797.476, -0.058850285, 0.031412967, -1126540.8, 96243.61, 0.0, 10.001115, 9.998956 
5.350399e+2, 1.8522626e+2, -1048064.75, -1280031.4, -4372.0977, -0.018552974, 0.10248867, -1047982.4, 76810.88, 0.0, 10.001329, 9.998275 
5.350441e+2, 1.9522485e+2, -883768.56, -1155648.3, 1741.8544, -0.08012998, 0.10070993, -883757.4, 143052.2, 0.0, 10.001807, 9.998231 
5.350483e+2, 2.0522365e+2, -755765.2, -980827.25, -55643.375, -0.06795127, 0.13568878, -742759.7, 186062.16, 0.0, 10.001745, 9.998776 
5.3505266e+2, 2.1522239e+2, -727588.9, -921590.4, -23764.15, 0.021329734, 0.09467425, -724720.3, 106112.55, 0.0, 10.001274, 9.998745 
5.350568e+2, 2.2522153e+2, -678600.2, -893886.6, 38750.84, -0.0074067116, 0.16212541, -671837.56, 61003.89, 0.0, 10.001156, 9.998315 
5.3506076e+2, 2.3522079e+2, -553705.75, -783415.94, 57095.516, -0.14763564, 0.22051644, -540297.06, 94553.24, 0.0, 10.001335, 9.998316 
5.3506607e+2, 2.4521913e+2, -435521.8, -686135.2, 40406.066, -0.15024447, 0.23237613, -429168.28, 107699.11, 0.0, 10.001514, 9.998231 
5.3507245e+2, 2.5521636e+2, -335257.22, -588980.8, 53842.707, -0.043988552, 0.09607785, -324304.1, 114590.44, 0.0, 10.00153, 9.998219 
5.3507715e+2, 2.652152e+2, -180669.17, -364111.88, 9886.042, -0.059253294, 0.12023776, -180137.94, 160766.42, 0.0, 10.001509, 9.999094 
5.3508043e+2, 2.752151e+2, -106586.195, -279867.9, 40837.65, -0.17809182, 0.16659674, -97444.22, 145457.84, 0.0, 10.00135, 9.999077 
5.350852e+2, 2.852134e+2, -51980.13, -280183.7, 41405.207, -0.15503235, 0.13024782, -44699.836, 100216.46, 0.00000019037492, 10.001393, 9.99837 
5.350908e+2, 2.9521015e+2, 46219.215, -188925.97, 62206.234, -0.040735725, -0.077699594, 61661.395, 108608.336, 0.0000040138116, 10.001392, 9.998336 
5.350929e+2, 3.052092e+2, 103297.93, -126986.516, 61104.867, -0.25449118, -0.0011743903, 118507.3, 118507.3, 0.000024880646, 10.001432, 9.998425 
5.3510046e+2, 3.1520805e+2, 85230.69, -27922.346, -32599.229, 0.011541593, 0.008475856, 93950.51, 93950.51, 0.00007745561, 10.000758, 9.999433 
5.4500955e+2, 1.2522572e+2, -1460151.8, -1719637.3, -163165.05, -0.062793165, 0.04464149, -1381433.4, 331361.53, 0.00003031358, 10.002244, 9.998862 
5.4501355e+2, 1.3522543e+2, -1521373.4, -1768143.9, 110090.71, -0.30429292, 0.14535485, -1479398.8, 135404.31, 0.000006366235, 10.001437, 9.998282 
5.4502416e+2, 1.4522442e+2, -1461977.5, -1539748.3, 39994.504, 0.061498925, 0.16685133, -1445080.9, 71733.54, 0.00000037085837, 10.0005455, 9.999564 
5.4502624e+2, 1.5522349e+2, -1394159.1, -1454678.5, -27690.516, -0.1511933, 0.06278159, -1383401.6, 35420.043, 0.00000000007720086, 10.0003395, 9.999573 
5.450302e+2, 1.6522272e+2, -1269203.5, -1365812.3, 10837.964, -0.18482453, 0.045346398, -1268002.6, 52824.723, 0.0, 10.000648, 9.999354 
5.450365e+2, 1.7522193e+2, -1072901.6, -1226452.8, -2763.8323, -0.012548723, 0.0008081203, -1072851.9, 149981.08, 0.0, 10.001343, 9.999309 
5.450415e+2, 1.852212e+2, -1017421.3, -1249294.9, 29927.277, 0.010544826, 0.046172608, -1013620.94, 111219.93, 0.0, 10.0014515, 9.998438 
5.4504514e+2, 1.9522022e+2, -979652.5, -1179529.9, 34359.813, -0.09965291, 0.06778625, -973910.8, 52942.484, 0.0, 10.00104, 9.998437 
5.450493e+2, 2.0521939e+2, -855484.5, -1033371.94, 429.8885, -0.096666366, 0.13292877, -855483.44, 73378.89, 0.0, 10.001075, 9.99875 
5.4505396e+2, 2.1521841e+2, -715233.3, -912961.1, -29788.334, 0.026490977, 0.12437938, -710843.06, 120028.32, 0.0, 10.001359, 9.998761 
5.450585e+2, 2.2521746e+2, -610101.1, -846926.44, 53703.637, 0.026880864, 0.17478222, -598492.06, 134388.56, 0.0, 10.001558, 9.9984455 
5.450628e+2, 2.3521625e+2, -498405.3, -746499.5, 43720.336, -0.08414372, 0.17381546, -490926.2, 143966.94, 0.0, 10.001666, 9.998416 
5.4506785e+2, 2.4521467e+2, -439088.34, -666066.2, 53117.84, -0.104436055, 0.18019207, -427272.7, 109636.01, 0.0, 10.001391, 9.998429 
5.450735e+2, 2.5521255e+2, -434046.25, -615059.2, 54055.0, -0.04771905, 0.087589584, -419132.78, 19796.63, 0.0, 10.00076, 9.998411 
5.4507816e+2, 2.652115e+2, -312256.8, -433496.78, 54533.832, -0.05841093, 0.116748996, -291337.1, 49601.457, 0.0, 10.000636, 9.999033 
5.450822e+2, 2.75211e+2, -156230.38, -306300.4, 22272.895, -0.107266106, 0.1267965, -152994.48, 89946.555, 0.0, 10.001024, 9.999051 
5.4508704e+2, 2.8520945e+2, -101111.08, -269075.06, 21309.434, -0.07718797, 0.08848468, -98449.734, 46504.46, 0.00000011177434, 10.000913, 9.998683 
5.4509217e+2, 2.9520684e+2, -84573.555, -210415.08, 4347.554, 0.014989525, -0.08072591, -84423.53, -37446.266, 0.0000045059896, 10.000343, 9.998682 
5.4509443e+2, 3.0520594e+2, 9725.872, -192637.63, 53961.86, -0.20729902, -0.010589613, 23215.953, 23215.953, 0.000026381855, 10.00088, 9.998225 
5.451015e+2, 3.1520453e+2, 244943.16, 76512.23, -141654.17, 0.0028933636, -0.013842694, 325525.0, 325525.0, 0.00007890932, 10.001767, 9.999636 
5.5501145e+2, 1.252228e+2, -1501147.9, -1796056.8, -131317.6, -0.16881773, 0.14289562, -1451150.8, 261674.34, 0.000026661766, 10.002216, 9.998345 
5.550125e+2, 1.3522018e+2, -1559024.1, -1842664.0, 82558.49, -0.5823724, 0.060571942, -1536744.0, 78110.65, 0.0000052899522, 10.001417, 9.997788 
5.5502516e+2, 1.4521901e+2, -1465931.9, -1529003.4, 8973.906, 0.059958257, 0.08319938, -1464679.9, 52188.54, 0.00000021782215, 10.000478, 9.999665 
5.550285e+2, 1.552207e+2, -1395401.4, -1446758.3, -15252.445, 0.0053447955, 0.23834187, -1391213.1, 27639.27, 0.00000000000011946363, 10.000297, 9.999651 
5.55032e+2, 1.6522045e+2, -1276800.3, -1372829.1, 21503.113, -0.092029914, 0.27104166, -1272205.1, 48648.188, 0.0, 10.000608, 9.999326 
5.550367e+2, 1.7521805e+2, -1085943.3, -1238592.4, 36102.43, -0.15725657, 0.06706104, -1077835.4, 145038.17, 0.0, 10.001276, 9.999262 
5.5504155e+2, 1.8521695e+2, -991880.9, -1168553.6, -778.96643, -0.15385093, 0.04801923, -991877.44, 133005.6, 0.0, 10.001332, 9.999052 
5.550465e+2, 1.9521679e+2, -954972.1, -1105758.1, 35186.684, -0.10566868, 0.095422834, -947165.3, 79719.45, 0.0, 10.000936, 9.9990015 
5.550506e+2, 2.05216e+2, -908505.1, -1105566.0, -3333.2783, -0.10035407, 0.15729061, -908448.75, 20444.365, 0.0, 10.000918, 9.998325 
5.550541e+2, 2.1521428e+2, -771598.5, -988466.8, -3656.9678, -0.12409066, 0.11788139, -771536.9, 59373.742, 0.0, 10.001177, 9.998332 
5.5505925e+2, 2.2521251e+2, -627779.94, -841355.06, 43375.84, -0.0736, 0.10100247, -619306.75, 113620.7, 0.0, 10.001377, 9.998572 
5.55066e+2, 2.3521046e+2, -518214.94, -739459.2, 63307.17, 0.032196745, 0.0055894633, -501381.0, 133564.89, 0.0, 10.00146, 9.998564 
5.5507064e+2, 2.4520944e+2, -427274.16, -609484.44, 16532.295, -0.001740572, 0.035738103, -425786.3, 111168.65, 0.0, 10.001246, 9.998895 
5.550734e+2, 2.5520903e+2, -420650.5, -557146.25, 49600.785, -0.17010635, 0.06964665, -404530.06, 34428.316, 0.0, 10.000623, 9.998881 
5.5507797e+2, 2.6520804e+2, -356480.78, -504093.6, 54925.887, -0.17737104, 0.1036704, -338285.9, 2682.3342, 0.0, 10.000552, 9.998586 
5.550843e+2, 2.7520612e+2, -207275.47, -388101.9, 53016.027, -0.03790372, 0.018120425, -192878.16, 50110.082, 0.0, 10.000919, 9.998542 
5.5508935e+2, 2.852052e+2, -93091.58, -240170.52, -16229.993, 0.03335063, 0.061845817, -91321.914, 53675.51, 0.00000024371042, 10.000856, 9.998912 
5.5509293e+2, 2.9520524e+2, -77548.695, -184407.8, 5690.13, 0.014574607, 0.13123614, -77246.555, -30250.033, 0.0000058589785, 10.00028, 9.998899 
5.550956e+2, 3.0520403e+2, -18082.777, -233768.38, 82422.39, -0.20082174, 0.17556159, 9807.692, 9807.692, 0.000029984647, 10.00082, 9.997965 
5.5510294e+2, 3.1520155e+2, 206119.58, 20722.09, -94689.78, -0.104575805, 0.086587414, 245932.0, 245932.0, 0.00008416486, 10.00165, 9.999315 
5.6501454e+2, 1.2521876e+2, -1411104.0, -1747780.9, -51194.188, -0.09222282, 0.2008401, -1403491.6, 309376.6, 0.000022362967, 10.002804, 9.998379 
5.650138e+2, 1.352161e+2, -1550790.9, -1810144.3, 11961.382, -0.5739284, 0.08707586, -1550240.4, 64655.2, 0.000004259607, 10.001361, 9.9980135 
5.6502634e+2, 1.4521465e+2, -1468198.8, -1552631.1, 38724.418, 0.14311999, 0.07993445, -1453128.0, 63782.813, 0.00000013010742, 10.000529, 9.999495 
5.650296e+2, 1.5521616e+2, -1342332.5, -1434311.9, -29819.518, 0.07640827, 0.2316783, -1333511.1, 85385.72, 0.0, 10.000708, 9.999546 
5.6503314e+2, 1.6521604e+2, -1255964.4, -1369015.1, 48619.71, -0.042073578, 0.28521594, -1237931.1, 82965.87, 0.0, 10.000761, 9.999286 
5.6503797e+2, 1.75214e+2, -1158003.5, -1273182.9, 34856.45, -0.12388493, 0.11592331, -1148276.5, 74638.25, 0.0, 10.00077, 9.999264 
5.6504303e+2, 1.8521291e+2, -1051898.9, -1185853.9, -8588.349, -0.1135986, 0.093664944, -1051350.5, 73573.25, 0.0, 10.00088, 9.999137 
5.65048e+2, 1.9521254e+2, -948721.75, -1088179.8, -36563.2, -0.040566836, 0.10597281, -939717.0, 87209.64, 0.0, 10.000931, 9.999107 
5.6505215e+2, 2.052115e+2, -856746.9, -1090581.1, -24806.027, -0.04916703, 0.14373952, -854144.3, 74792.414, 0.0, 10.001324, 9.998227 
5.650558e+2, 2.1520966e+2, -660721.4, -941717.6, -29683.783, -0.10719146, 0.1005241, -657619.9, 173335.6, 0.0, 10.001978, 9.99826 
5.650609e+2, 2.2520784e+2, -566971.25, -809310.6, 23234.701, -0.061462786, 0.081184424, -564763.7, 168209.0, 0.0, 10.001791, 9.99859 
5.6506747e+2, 2.3520577e+2, -613565.6, -780776.0, 5984.495, 0.08165238, -0.019169625, -613351.7, 21639.623, 0.0, 10.000791, 9.998597 
5.650719e+2, 2.45205e+2, -494539.1, -594905.8, -659.4855, 0.045248255, 0.016107606, -494534.78, 42462.535, 0.0, 10.00061, 9.999281 
5.650743e+2, 2.5520512e+2, -302716.2, -459175.7, -9802.29, -0.15137964, 0.06479546, -302104.47, 136890.31, 0.0, 10.001272, 9.9992285 
5.650789e+2, 2.6520425e+2, -259262.72, -467323.16, 31758.516, -0.16044307, 0.09911269, -254523.05, 86480.53, 0.0, 10.001256, 9.998499 
5.650855e+2, 2.752022e+2, -257811.73, -414922.1, 30125.428, 0.0123406965, 0.007418282, -252233.34, -9207.879, 0.0, 10.000591, 9.998507 
5.650906e+2, 2.8520146e+2, -125192.71, -228682.5, 18225.588, 0.093003914, 0.05200819, -122076.82, 22956.4, 0.00000046127252, 10.00049, 9.999176 
5.650941e+2, 2.9520187e+2, 32545.188, -106347.81, 16065.378, 0.081741735, 0.13260129, 34379.207, 81406.78, 0.000007820285, 10.00091, 9.99914 
5.650979e+2, 3.052008e+2, 68470.484, -183590.81, 168778.84, -0.076693386, 0.17072077, 153081.77, 153081.77, 0.00003595913, 10.001367, 9.9980545 
5.651046e+2, 3.1519836e+2, 183594.42, 23523.797, -57740.902, -0.08039333, 0.07694198, 202248.84, 202248.84, 0.000094486146, 10.001433, 9.999438 
5.750184e+2, 1.2521324e+2, -1369329.4, -1645988.6, -2471.4548, -0.06309459, 0.18730114, -1369307.3, 343620.03, 0.000015098279, 10.002748, 9.999094 
5.7501686e+2, 1.35213e+2, -1495776.1, -1688692.5, -39282.97, -0.44408622, 0.2236032, -1488083.9, 126843.49, 0.0000026568694, 10.001327, 9.998861 
5.7502747e+2, 1.4521125e+2, -1495489.9, -1595642.1, 20288.498, 0.1606499, 0.15801598, -1491536.0, 25406.676, 0.000000050157187, 10.000478, 9.999223 
5.750292e+2, 1.5520984e+2, -1370964.3, -1482134.5, -7566.882, -0.07402534, 0.050256398, -1370451.5, 48503.566, 0.0, 10.000661, 9.999244 
5.7503295e+2, 1.6520947e+2, -1260593.9, -1361516.3, 30386.54, -0.17139842, 0.08780862, -1252151.1, 68807.3, 0.0, 10.000685, 9.999372 
5.7503974e+2, 1.7520973e+2, -1163551.0, -1271428.5, 50015.8, -0.05828502, 0.14262931, -1143930.5, 79025.94, 0.0, 10.000707, 9.999309 
5.750452e+2, 1.8520916e+2, -1091441.6, -1243203.3, -20031.031, -0.009408387, 0.18623841, -1088842.3, 36119.926, 0.0, 10.00078, 9.99879 
5.750492e+2, 1.9520745e+2, -991609.56, -1145048.9, -18955.426, -0.048666626, 0.10312038, -989302.56, 37676.15, 0.0, 10.000796, 9.99878 
5.750536e+2, 2.05206e+2, -865097.2, -1065717.9, -16512.541, -0.06751396, 0.10235732, -863747.2, 65245.043, 0.0, 10.00114, 9.998487 
5.750584e+2, 2.1520463e+2, -674509.56, -922425.4, 8322.012, -0.067786135, 0.0803479, -674230.5, 156774.58, 0.0, 10.001771, 9.998492 
5.750629e+2, 2.2520344e+2, -593832.8, -825717.4, -29549.125, -0.07307973, 0.115728475, -590126.6, 142889.7, 0.0, 10.001614, 9.998566 
5.750669e+2, 2.3520216e+2, -639534.94, -795173.6, -13635.916, -0.087232, 0.09647801, -638349.25, -3320.0906, 0.0, 10.000616, 9.998584 
5.7507133e+2, 2.4520136e+2, -494105.9, -574466.06, 8373.763, -0.10437377, 0.11915442, -493242.6, 43793.164, 0.0, 10.00051, 9.999477 
5.750761e+2, 2.552007e+2, -309319.84, -440606.25, 32121.322, -0.13650437, 0.07077096, -301882.22, 137157.4, 0.0, 10.001121, 9.999435 
5.7508075e+2, 2.6520008e+2, -244728.25, -422736.38, -8640.6045, -0.13606387, 0.099186264, -244309.81, 96735.12, 0.0, 10.001183, 9.998848 
5.750852e+2, 2.7519912e+2, -239924.5, -367055.06, 19460.117, -0.10914354, 0.08386555, -237012.4, 6042.235, 0.0, 10.000524, 9.998879 
5.7509005e+2, 2.851981e+2, -103372.23, -167950.23, 17618.916, -0.042172022, 0.058999438, -98878.0, 46184.56, 0.0000006054728, 10.000429, 9.999622 
5.750951e+2, 2.9519677e+2, 44299.457, -57162.027, 52595.39, 0.04711216, -0.07807783, 66643.22, 113713.97, 0.000009307056, 10.000808, 9.999527 
5.7510066e+2, 3.051962e+2, 89856.92, -122921.484, 163920.53, 0.029907985, -0.022284763, 178886.77, 178886.77, 0.000040671366, 10.001306, 9.998504 
5.751057e+2, 3.1519455e+2, 199917.64, 79841.48, -9514.374, -0.19172987, -0.08424244, 200666.86, 200666.86, 0.000103750725, 10.001336, 9.999879 
5.8502114e+2, 1.2520818e+2, -1606130.8, -1745263.0, 146802.81, 0.035604656, 0.18092273, -1513245.4, 199732.33, 0.000008007214, 10.0010195, 9.999267 
5.850198e+2, 1.3520831e+2, -1485897.0, -1646935.6, -100032.04, -0.26339686, 0.22331193, -1438003.9, 176969.38, 0.0000012151539, 10.0012245, 9.999205 
5.850284e+2, 1.452066e+2, -1411684.0, -1570736.8, 18455.982, 0.18146904, 0.15490524, -1409570.5, 107416.92, 0.000000012980553, 10.001156, 9.99904 
5.850299e+2, 1.5520452e+2, -1278027.0, -1451297.6, -38897.13, -0.08815128, -0.008774977, -1269695.6, 149310.42, 0.0, 10.001385, 9.999078 
5.8503383e+2, 1.6520406e+2, -1194882.1, -1332264.3, 14880.004, -0.16497555, 0.028769895, -1193288.9, 127721.56, 0.0, 10.001139, 9.999358 
5.850409e+2, 1.752049e+2, -1201431.6, -1287477.0, 1725.5431, 0.014918902, 0.14406323, -1201397.0, 21606.742, 0.0, 10.000431, 9.999334 
5.8504665e+2, 1.8520452e+2, -1106154.1, -1255637.5, 5383.3926, 0.06639753, 0.20767863, -1105960.5, 19047.674, 0.0, 10.000692, 9.998756 
5.850507e+2, 1.9520262e+2, -849047.2, -1084410.0, -2201.4722, -0.018693913, 0.11053764, -849026.6, 178000.17, 0.0, 10.001793, 9.998733 
5.8505523e+2, 2.0520118e+2, -758452.8, -995752.6, 10319.213, -0.035845045, 0.10184722, -758004.94, 171035.38, 0.0, 10.001786, 9.998653 
5.850605e+2, 2.1519992e+2, -809107.06, -972366.44, 615.95337, 0.016950455, 0.07685082, -809104.75, 21946.832, 0.0, 10.000771, 9.998636 
5.850646e+2, 2.25199e+2, -713281.06, -864269.8, 1710.36, -0.009721808, 0.12210903, -713261.7, 19798.406, 0.0, 10.000718, 9.998736 
5.850676e+2, 2.3519808e+2, -494129.72, -712149.25, -2406.7412, -0.11393887, 0.12451075, -494103.16, 140966.13, 0.0, 10.001552, 9.9987135 
5.8507186e+2, 2.451972e+2, -406006.72, -550919.6, 33071.523, -0.13051134, 0.14209372, -398816.03, 138260.73, 0.0, 10.001201, 9.999297 
5.850772e+2, 2.5519612e+2, -500245.78, -547513.7, -3580.403, -0.07034623, 0.06567448, -499976.13, -60890.895, 0.0, 9.999886, 9.999282 
5.85082e+2, 2.651954e+2, -404706.13, -458507.78, 4352.273, -0.06000709, 0.07443229, -404356.3, -63266.0, 0.0, 9.999924, 9.999203 
5.850863e+2, 2.751947e+2, -108272.766, -261842.8, 2325.455, -0.080434605, 0.049956262, -108237.56, 134857.39, 0.0, 10.001274, 9.99923 
5.850908e+2, 2.8519368e+2, 42787.348, -132647.44, -17856.55, -0.05471084, 0.027748073, 44586.42, 189688.58, 0.00000055145284, 10.001592, 9.999297 
5.850956e+2, 2.9519215e+2, 20099.748, -102750.93, -74470.54, 0.027589321, -0.1021889, 55209.035, 102323.49, 0.000008783807, 10.000791, 9.999215 
5.851023e+2, 3.0519134e+2, -9053.465, -162333.81, 52231.105, 0.1179149, -0.05871446, 7052.2764, 7052.2764, 0.000039667964, 10.000588, 9.998572 
5.851074e+2, 3.1518975e+2, 135713.03, 87817.28, -184960.0, -0.11764123, -0.12339738, 298269.03, 298269.03, 0.00010388018, 10.000738, 10.000208 
5.950224e+2, 1.2520353e+2, -1613385.0, -1754888.6, 180942.08, -0.016247088, 0.18636698, -1489853.9, 223166.02, 0.0000033727015, 10.001018, 9.999193 
5.950223e+2, 1.3520204e+2, -1499857.8, -1670357.1, -86873.516, -0.1718647, 0.083031766, -1463392.5, 151640.56, 0.00000044999516, 10.001212, 9.999049 
5.9502864e+2, 1.4520073e+2, -1422977.4, -1582794.4, 4355.3164, 0.046422, 0.06291698, -1422858.8, 94186.22, 0.000000014541682, 10.001108, 9.998976 
5.950314e+2, 1.5520011e+2, -1292919.6, -1471643.8, -15586.934, -0.11923307, 0.054087207, -1291570.4, 127479.9, 0.0, 10.001336, 9.998963 
5.950353e+2, 1.6519988e+2, -1209853.0, -1342446.3, -27390.621, -0.16341177, 0.12133606, -1204417.6, 116635.09, 0.0, 10.001063, 9.999318 
5.950413e+2, 1.7519958e+2, -1212428.8, -1292743.6, -8256.063, -0.037413813, 0.1275089, -1211588.9, 11467.227, 0.0, 10.000365, 9.999326 
5.950468e+2, 1.8519904e+2, -1103365.5, -1226953.8, 29255.535, -0.0192729, 0.16154912, -1096790.0, 28271.557, 0.0, 10.000592, 9.999002 
5.9505194e+2, 1.9519797e+2, -855000.56, -1060093.5, 52063.29, -0.10804228, 0.12089406, -842541.1, 184530.53, 0.0, 10.001638, 9.998973 
5.950568e+2, 2.0519695e+2, -775462.7, -990565.5, -42459.51, -0.09737701, 0.1381414, -767384.9, 161696.52, 0.0, 10.001611, 9.9987755 
5.950615e+2, 2.1519567e+2, -826411.8, -965906.94, -20183.348, 0.011402799, 0.097216934, -823550.25, 7543.871, 0.0, 10.00059, 9.998767 
5.950656e+2, 2.2519465e+2, -711171.5, -828914.4, 16700.24, -0.0031606432, 0.109103784, -708848.6, 24254.375, 0.0, 10.000574, 9.999055 
5.9506917e+2, 2.3519354e+2, -502204.8, -685519.5, 43401.176, -0.1434597, 0.06396837, -492448.5, 142663.02, 0.0, 10.001359, 9.998995 
5.950729e+2, 2.4519251e+2, -462184.56, -639777.3, -30896.668, -0.17627512, 0.08127916, -456962.84, 80157.51, 0.0, 10.001075, 9.998753 
5.9507704e+2, 2.5519136e+2, -552520.06, -629101.5, -37671.047, -0.11061722, 0.05070311, -537095.94, -97964.29, 0.0, 9.999765, 9.998782 
5.9508216e+2, 2.651903e+2, -387062.47, -405736.47, 38782.953, -0.06907412, 0.030091139, -356508.4, -15369.412, 0.0, 9.999857, 9.999599 
5.950881e+2, 2.75189e+2, -102066.41, -222829.3, 69789.71, -0.0583368, -0.09091599, -70162.84, 172982.98, 0.0, 10.001162, 9.999556 
5.9509254e+2, 2.8518832e+2, -44681.74, -293878.88, -60870.65, -0.08394129, -0.043687105, -30607.89, 114543.89, 0.0000003359344, 10.00151, 9.998226 
5.950951e+2, 2.9518783e+2, -65774.484, -255024.19, -86369.12, -0.14831002, 0.043705687, -32284.205, 14875.47, 0.000006914508, 10.000688, 9.998215 
5.951026e+2, 3.0518606e+2, -30588.01, -207625.25, 48290.74, 0.049732547, 0.04936239, -18272.402, -18272.402, 0.000035638073, 10.000576, 9.998272 
5.9510833e+2, 3.15184e+2, 148316.13, 130109.5, -87894.445, -0.17267796, -0.034299195, 227577.42, 227577.42, 0.00009897654, 10.000663, 10.000535 
6.05024e+2, 1.2519866e+2, -1552690.3, -1745543.4, 256840.86, 0.02828195, 0.14744373, -1374771.6, 338293.06, 0.0000011596172, 10.00152, 9.999025 
6.0502493e+2, 1.3519722e+2, -1450392.1, -1658453.8, -94163.414, -0.036879815, 0.0690241, -1414104.9, 200975.8, 0.00000014603442, 10.001629, 9.998917 
6.0502887e+2, 1.4519635e+2, -1371602.1, -1543069.8, 39781.31, -0.041261293, 0.09133543, -1362822.3, 154267.5, 0.0000000031309833, 10.001365, 9.999151 
6.05033e+2, 1.5519628e+2, -1308296.5, -1460947.3, 587.1174, -0.077401884, 0.12446704, -1308294.1, 110795.4, 0.0, 10.001135, 9.999154 
6.050373e+2, 1.6519581e+2, -1197174.0, -1362779.0, 22202.902, -0.072742686, 0.17084588, -1194248.9, 126844.55, 0.0, 10.001236, 9.999115 
6.050426e+2, 1.751946e+2, -1049432.1, -1236672.3, 216.3025, 0.00871411, 0.10572639, -1049431.9, 173672.56, 0.0, 10.001565, 9.9991455 
6.0504764e+2, 1.8519382e+2, -1009210.8, -1158601.3, 65188.137, -0.006761329, 0.11416853, -984765.4, 140346.3, 0.0, 10.001163, 9.999187 
6.050526e+2, 1.9519308e+2, -1064107.5, -1137658.0, 50743.08, -0.1135046, 0.09045488, -1038214.7, -11096.552, 0.0, 10.000121, 9.999166 
6.050576e+2, 2.0519245e+2, -957495.7, -1068238.4, -10922.839, -0.09593431, 0.13053916, -956428.6, -27303.941, 0.0, 10.000318, 9.998875 
6.050627e+2, 2.151915e+2, -676315.25, -885471.75, -22516.87, 0.042128954, 0.11579936, -673918.6, 157216.44, 0.0, 10.001581, 9.998852 
6.0506713e+2, 2.2519054e+2, -560819.2, -752163.44, 22736.314, 0.045586586, 0.13029888, -558154.7, 174988.97, 0.0, 10.001609, 9.999066 
6.050706e+2, 2.351893e+2, -620565.9, -733295.6, -4344.443, -0.080880105, 0.06709898, -620398.7, 14754.635, 0.0, 10.000534, 9.9990425 
6.050742e+2, 2.4518815e+2, -549894.25, -690976.1, -38421.0, -0.118009895, 0.07333876, -540109.6, -2946.7695, 0.0, 10.000526, 9.998663 
6.0507804e+2, 2.5518686e+2, -303738.13, -521210.34, -40236.402, -0.06616969, 0.041029565, -296532.4, 142642.23, 0.0, 10.001534, 9.998673 
6.050832e+2, 2.651855e+2, -158240.6, -322989.63, 66935.74, -0.017879736, 0.012040885, -134473.9, 206710.44, 0.0, 10.001543, 9.999358 
6.0508984e+2, 2.7518383e+2, -201809.2, -298831.53, 18008.61, 0.032220833, -0.12438552, -198574.42, 44620.9, 0.0, 10.000582, 9.999317 
6.050943e+2, 2.8518298e+2, -157808.9, -377536.88, -63244.086, -0.012538126, -0.06681537, -140905.73, 4297.617, 0.00000016006682, 10.000858, 9.997971 
6.0509664e+2, 2.9518268e+2, 157136.97, -172464.11, -62055.184, -0.13474622, 0.06413205, 168433.19, 215643.75, 0.0000052467194, 10.002323, 9.998 
6.0510445e+2, 3.0518028e+2, 227217.78, -91158.516, 104855.76, 0.100013524, 0.018034829, 258648.61, 258648.61, 0.000031333126, 10.0023985, 9.998192 
6.051101e+2, 3.1517857e+2, 149701.84, 95030.4, -33396.355, -0.055886615, -0.008386657, 165523.5, 165523.5, 0.00009226463, 10.000819, 10.000236 
6.1502516e+2, 1.2519355e+2, -1557439.3, -1749203.4, 180292.31, -0.080886215, 0.070945084, -1449118.8, 263993.4, 0.000000319301, 10.001501, 9.999001 
6.1502725e+2, 1.3519384e+2, -1468045.8, -1691514.0, -78832.69, -0.0101918895, 0.18518871, -1443035.3, 172080.78, 0.000000018009526, 10.001617, 9.998694 
6.150287e+2, 1.4519347e+2, -1346215.6, -1491486.5, 5004.687, -0.24515402, 0.2518434, -1346043.5, 171078.19, 0.0, 10.001362, 9.999507 
6.1503416e+2, 1.5519291e+2, -1281159.8, -1411155.1, 3957.7764, -0.10320455, 0.19891866, -1281039.4, 138085.5, 0.0, 10.001144, 9.999497 
6.150392e+2, 1.6519183e+2, -1225525.8, -1406450.8, 18042.94, -0.03265305, 0.18062219, -1223744.0, 97389.09, 0.0, 10.001174, 9.998845 
6.1504453e+2, 1.7518997e+2, -1079628.4, -1288479.8, 27689.523, 0.013587066, 0.074854665, -1076019.6, 147129.45, 0.0, 10.00151, 9.99882 
6.150489e+2, 1.8518884e+2, -1020504.56, -1152584.4, 12573.93, -0.035467084, 0.06389978, -1019318.2, 105840.34, 0.0, 10.001038, 9.999286 
6.1505246e+2, 1.9518813e+2, -1071894.0, -1134120.9, 31339.695, -0.17035331, 0.031435363, -1058846.1, -31681.305, 0.0, 10.0000305, 9.999236 
6.1505747e+2, 2.0518781e+2, -973448.75, -1066894.1, 22513.646, -0.16825396, 0.09517767, -968307.44, -39138.72, 0.0, 10.000172, 9.998952 
6.150639e+2, 2.1518748e+2, -701604.0, -892272.3, 37968.656, -0.029585136, 0.13281375, -694321.25, 136852.7, 0.0, 10.001383, 9.998902 
6.1506855e+2, 2.2518672e+2, -608739.0, -808862.8, -29292.115, -0.00084145047, 0.18224843, -604539.6, 128642.1, 0.0, 10.001427, 9.998764 
6.150715e+2, 2.3518537e+2, -667104.06, -786763.9, -26628.445, -0.07477086, 0.1362271, -661445.8, -26251.453, 0.0, 10.00035, 9.998764 
6.1507523e+2, 2.4518408e+2, -541491.8, -646719.8, -17708.709, -0.099391654, 0.12221006, -538591.6, -1387.2964, 0.0, 10.000409, 9.999023 
6.150797e+2, 2.5518256e+2, -302078.34, -488427.7, 11412.52, -0.08729157, 0.03156904, -301382.0, 137832.55, 0.0, 10.001403, 9.998966 
6.150848e+2, 2.65181e+2, -233220.97, -458243.47, 16017.242, -0.044678465, 0.012455534, -232086.58, 109140.07, 0.0, 10.001454, 9.998469 
6.150907e+2, 2.7517912e+2, -279857.22, -432973.72, 1285.2809, 0.027994521, -0.058948807, -279846.44, -36602.824, 0.0, 10.000463, 9.99845 
6.150957e+2, 2.8517777e+2, -128018.484, -304041.0, -24680.215, 0.010785942, -0.03797277, -124623.54, 20632.875, 0.00000012615395, 10.000804, 9.9985 
6.150996e+2, 2.951768e+2, 181820.08, -95889.08, 10903.615, -0.11549065, -0.029583653, 182247.53, 229513.22, 0.000004351736, 10.002219, 9.9985695 
6.151074e+2, 3.0517393e+2, 225434.28, -92848.84, 34531.88, 0.12263947, -0.15089001, 229137.7, 229137.7, 0.000027327982, 10.00238, 9.998202 
6.1511153e+2, 3.1517372e+2, 72079.17, -44740.883, 1497.4338, -0.078468606, -0.02073417, 72098.36, 72098.36, 0.00008384043, 10.000727, 9.999328 
6.2502605e+2, 1.2518898e+2, -1759759.1, -1801167.9, 168382.64, -0.043450143, 0.025355658, -1610812.8, 102341.85, 0.00000004128188, 9.999903, 9.999429 
6.250293e+2, 1.351902e+2, -1587380.6, -1706446.3, -33624.363, 0.101444945, 0.19642375, -1578541.4, 36607.605, 0.000000000001578113, 10.00059, 9.999105 
6.250292e+2, 1.4518969e+2, -1437412.6, -1565363.1, 82863.39, -0.28975883, 0.24435061, -1396701.8, 120454.38, 0.0, 10.000868, 9.99924 
6.2503576e+2, 1.5518868e+2, -1283937.1, -1431552.4, 9376.535, -0.055934913, 0.17004798, -1283343.9, 135820.72, 0.0, 10.001238, 9.999296 
6.250411e+2, 1.6518751e+2, -1198094.3, -1378153.9, 46775.914, 0.04318122, 0.14716095, -1186667.9, 134505.75, 0.0, 10.00133, 9.998944 
6.250462e+2, 1.7518592e+2, -1134323.8, -1296390.9, 42570.703, 0.06163296, 0.057186946, -1123822.1, 99364.14, 0.0, 10.001099, 9.998941 
6.250505e+2, 1.851848e+2, -1019804.06, -1196442.1, 42204.43, 0.021766972, 0.05842423, -1010238.1, 114957.75, 0.0, 10.001191, 9.99893 
6.2505406e+2, 1.9518378e+2, -883630.9, -1078622.5, 4024.995, -0.07476526, 0.028250553, -883547.8, 143658.5, 0.0, 10.001452, 9.998938 
6.250588e+2, 2.0518324e+2, -802930.3, -984957.7, 34560.44, -0.09903584, 0.085059516, -796589.44, 132623.02, 0.0, 10.001329, 9.998964 
6.250648e+2, 2.1518277e+2, -776708.1, -920176.1, 17297.916, -0.040632997, 0.10854333, -774652.0, 56566.2, 0.0, 10.000833, 9.998973 
6.2506944e+2, 2.2518207e+2, -694382.1, -858143.06, -36930.895, -0.017204177, 0.15972833, -686438.9, 46786.81, 0.0, 10.000867, 9.998701 
6.250729e+2, 2.3518082e+2, -520760.47, -728024.5, -43777.043, -0.016678277, 0.13673767, -511893.5, 123344.266, 0.0, 10.001392, 9.998677 
6.2507695e+2, 2.4517943e+2, -385691.97, -589003.75, 9265.229, -0.018324278, 0.12363087, -385270.63, 151978.67, 0.0, 10.001535, 9.998887 
6.250816e+2, 2.551776e+2, -313774.1, -507035.9, -31739.469, -0.02447908, 0.015834587, -308694.97, 130567.92, 0.0, 10.00137, 9.998855 
6.250865e+2, 2.6517603e+2, -258856.23, -504480.22, -21673.496, -0.0139510315, 0.014580805, -256958.47, 84317.7, 0.0, 10.0014105, 9.998176 
6.250916e+2, 2.7517435e+2, -138808.63, -399526.9, -25979.648, 0.02479809, -0.007920461, -136245.06, 107047.93, 0.0, 10.001569, 9.998151 
6.2509686e+2, 2.851728e+2, -22851.727, -269974.66, 19548.838, 0.0153725855, 0.019707223, -21314.86, 123993.195, 0.000000116905284, 10.0016, 9.998354 
6.2510204e+2, 2.9517132e+2, 64237.0, -178399.69, -33284.027, -0.04305759, -0.0061010784, 68719.95, 116042.14, 0.000004287332, 10.001497, 9.998368 
6.251098e+2, 3.0516875e+2, 116000.82, -135508.98, -51153.324, 0.18191351, -0.08806928, 126006.58, 126006.58, 0.000025852014, 10.001608, 9.998264 
6.251133e+2, 3.1516856e+2, 188787.05, -24875.42, -103169.68, -0.0024686935, 0.032511357, 230471.45, 230471.45, 0.00007870898, 10.001705, 9.998978 
6.350258e+2, 1.2518503e+2, -1691368.4, -1670731.5, 23870.879, -0.13797466, 0.031662885, -1655044.4, 58146.414, 0.000000010756334, 9.9999485, 10.000306 
6.3503075e+2, 1.3518614e+2, -1522313.9, -1576093.9, -6553.275, 0.15528561, 0.100121535, -1521526.9, 93654.07, 0.0, 10.000599, 10.000005 
6.3503015e+2, 1.4518501e+2, -1493873.6, -1664282.5, 73087.914, -0.32744467, 0.07477754, -1466821.1, 50372.17, 0.0, 10.000797, 9.99859 
6.3503724e+2, 1.5518366e+2, -1334573.3, -1534028.3, 42000.164, -0.07171913, 0.032622617, -1326089.9, 93118.22, 0.0, 10.001224, 9.998602 
6.3504267e+2, 1.6518283e+2, -1180186.6, -1332208.9, 20780.629, 0.02297074, 0.060837135, -1177397.3, 143818.03, 0.0, 10.001284, 9.999286 
6.3504726e+2, 1.7518228e+2, -1115428.6, -1253681.3, 49431.3, 0.020169726, 0.043226264, -1099573.3, 123644.34, 0.0, 10.001068, 9.999259 
6.35052e+2, 1.851814e+2, -1082427.4, -1300450.6, 35707.492, 0.024742223, 0.08600978, -1076728.3, 48497.973, 0.0, 10.001085, 9.998262 
6.350569e+2, 1.9517982e+2, -949896.1, -1187521.0, 26293.162, 0.025649853, 0.066744246, -947021.56, 80223.0, 0.0, 10.001327, 9.998252 
6.3506114e+2, 2.0517862e+2, -831873.56, -1001386.3, 192.61925, -0.026721228, 0.09288488, -831873.4, 97383.9, 0.0, 10.0011425, 9.998939 
6.35065e+2, 2.1517742e+2, -806611.9, -935042.94, 15657.337, -0.13184276, 0.042686768, -804730.6, 26537.21, 0.0, 10.0006275, 9.998968 
6.350694e+2, 2.2517657e+2, -710630.5, -846282.7, -31322.508, -0.13574725, 0.07137825, -703747.3, 29528.004, 0.0, 10.000676, 9.998872 
6.3507414e+2, 2.3517568e+2, -540723.1, -722233.7, -6822.184, -0.05029698, 0.06330137, -540467.06, 94816.62, 0.0, 10.00119, 9.998814 
6.3507885e+2, 2.4517423e+2, -453992.06, -697786.44, -10195.559, -0.013478169, 0.07293764, -453566.44, 83731.3, 0.0, 10.001398, 9.998203 
6.350834e+2, 2.5517198e+2, -381924.56, -614104.7, -22411.252, -0.023713805, -0.0069863703, -379781.1, 59538.316, 0.0, 10.001224, 9.998191 
6.3508785e+2, 2.651706e+2, -253307.78, -468150.8, -32015.852, -0.056486703, 0.02702679, -248638.27, 92694.38, 0.0, 10.001312, 9.998468 
6.350921e+2, 2.7516958e+2, -137944.73, -368700.1, -2619.9941, -0.12120548, 0.038982816, -137915.0, 105427.6, 0.0, 10.001448, 9.998418 
6.350973e+2, 2.851681e+2, -87096.76, -386981.66, -1306.0159, -0.13390961, 0.10066727, -87091.07, 58267.2, 0.0000001448745, 10.001536, 9.9975815 
6.3510346e+2, 2.951663e+2, -16285.418, -309768.38, -14011.021, -0.09711696, 0.12532894, -15618.042, 31760.512, 0.000005079309, 10.001366, 9.997523 
6.3511115e+2, 3.0516493e+2, 113351.67, -151657.3, -53564.76, 0.11051366, 0.21442442, 123768.92, 123768.92, 0.000027855136, 10.001619, 9.998164 
6.351144e+2, 3.1516317e+2, 165687.77, -51922.906, -22091.342, -0.14607538, 0.17211658, 167907.78, 167907.78, 0.00008149468, 10.001595, 9.998853 
6.45026e+2, 1.2518013e+2, -1847107.8, -1737688.5, -76918.984, -0.040072728, 0.059093475, -1698007.1, 15232.255, 0.0000000047013002, 9.998853, 10.000369 
6.4503205e+2, 1.3518076e+2, -1453957.3, -1509934.6, -112352.31, 0.22227941, 0.054300193, -1366159.9, 249072.39, 0.0, 10.000964, 10.000261 
6.450318e+2, 1.4517961e+2, -1359636.8, -1578439.4, -36851.633, -0.2724652, 0.004354641, -1353596.9, 163646.86, 0.0, 10.001629, 9.998776 
6.450389e+2, 1.5517876e+2, -1331545.4, -1512823.5, -43190.383, -0.012503384, -0.0047854166, -1321781.0, 97472.21, 0.0, 10.00115, 9.998784 
6.450441e+2, 1.6517818e+2, -1229694.5, -1379969.3, -17395.113, 0.056413848, 0.049354605, -1227707.1, 93551.63, 0.0, 10.001046, 9.999076 
6.4504814e+2, 1.7517763e+2, -1092943.6, -1262781.6, -56143.023, -0.0022409034, 0.053375542, -1076062.5, 147199.98, 0.0, 10.001313, 9.999077 
6.45053e+2, 1.851766e+2, -1060917.0, -1301566.3, -40530.98, 0.013904646, 0.09493332, -1054274.0, 70999.27, 0.0, 10.001292, 9.998152 
6.450586e+2, 1.9517472e+2, -1019330.94, -1229221.1, -42770.42, 0.093630865, 0.059021216, -1010950.0, 16343.877, 0.0, 10.000909, 9.9981575 
6.450628e+2, 2.0517343e+2, -878003.5, -1010820.1, -17395.123, 0.050266504, 0.07448556, -875763.06, 53543.73, 0.0, 10.000777, 9.9990425 
6.450659e+2, 2.1517229e+2, -776957.25, -912805.8, -26970.52, -0.10077214, 0.019688463, -771798.56, 59517.42, 0.0, 10.000798, 9.999035 
6.4507025e+2, 2.251713e+2, -693933.6, -845868.94, -29948.049, -0.11397549, 0.03270265, -688243.6, 45080.867, 0.0, 10.00079, 9.99883 
6.450756e+2, 2.3517011e+2, -604011.8, -753379.5, -53013.85, 0.008205779, -0.0069695036, -587108.8, 48226.86, 0.0, 10.000741, 9.998815 
6.450807e+2, 2.4516879e+2, -516095.78, -741130.6, -6889.211, 0.05541997, 0.02482873, -515885.06, 21464.063, 0.0, 10.001048, 9.998076 
6.450854e+2, 2.5516713e+2, -319948.9, -594921.4, -5703.9966, 0.045048255, 0.0167862, -319830.63, 119536.42, 0.0, 10.001711, 9.998086 
6.4508986e+2, 2.6516578e+2, -172843.13, -455308.75, 10473.952, -0.009422585, 0.070486836, -172455.28, 168926.17, 0.0, 10.001972, 9.998243 
6.45094e+2, 2.7516428e+2, -88156.15, -369749.88, -35145.926, -0.087983444, 0.06325968, -83835.84, 159560.84, 0.000000000000000000046744374, 10.001896, 9.998203 
6.4509916e+2, 2.8516266e+2, 7699.282, -329942.53, 18310.158, -0.121921785, 0.11236554, 8689.33, 154103.03, 0.00000034821963, 10.00213, 9.997687 
6.451051e+2, 2.951608e+2, 157005.39, -224966.9, 33852.7, -0.11527867, 0.119124666, 159982.4, 207415.69, 0.0000068469953, 10.002536, 9.997543 
6.451125e+2, 3.051597e+2, 136612.73, -177104.94, 25575.656, 0.07970162, 0.25604874, 138684.1, 138684.1, 0.00003364889, 10.001967, 9.997799 
6.451159e+2, 3.151577e+2, 1216.2909, -125231.77, -13248.56, -0.076043926, 0.22534917, 2589.4922, 2589.4922, 0.000093661416, 10.000451, 9.998885 
6.5502524e+2, 1.251741e+2, -1889510.8, -1822638.4, -147663.98, -0.07365849, 0.086745694, -1704672.4, 8629.43, 0.000000001405694, 9.998843, 9.999787 
6.550326e+2, 1.3517413e+2, -1471661.4, -1549921.5, -25187.307, 0.14544256, 0.05452257, -1464255.9, 151045.94, 0.0, 10.000979, 9.999973 
6.550338e+2, 1.4517356e+2, -1304737.0, -1451582.6, -74657.31, -0.27357534, 0.029731313, -1273447.8, 243858.69, 0.0, 10.001572, 9.9996805 
6.550403e+2, 1.5517403e+2, -1276772.9, -1390995.0, -44979.004, -0.023860993, 0.062482152, -1261187.5, 158112.42, 0.0, 10.001108, 9.999649 
6.5504485e+2, 1.651735e+2, -1284800.1, -1478129.0, -25689.295, -0.0065224264, 0.11421228, -1281444.8, 39859.844, 0.0, 10.000977, 9.998432 
6.550482e+2, 1.7517193e+2, -1144324.6, -1359018.3, -30426.992, -0.15706034, 0.07839782, -1140095.8, 83225.5, 0.0, 10.001268, 9.998435 
6.55053e+2, 1.8517041e+2, -1045887.8, -1247104.6, -70995.37, -0.14731325, 0.08431744, -1023360.56, 101975.62, 0.0, 10.001192, 9.998573 
6.550588e+2, 1.951686e+2, -1003394.6, -1170904.4, -39064.58, -0.008651543, 0.006975338, -994732.4, 32620.988, 0.0, 10.0008, 9.9986105 
6.550634e+2, 2.0516767e+2, -889037.44, -998326.94, -32014.406, 0.004347673, 0.02996986, -880349.94, 49011.414, 0.0, 10.000625, 9.999206 
6.550671e+2, 2.1516724e+2, -795013.75, -902216.56, -11116.751, -0.09546318, 0.03188097, -793873.1, 37491.125, 0.0, 10.000596, 9.999206 
6.550716e+2, 2.2516619e+2, -739044.8, -890051.25, -46672.266, -0.08464232, 0.039410844, -725784.1, 7589.558, 0.0, 10.000583, 9.998621 
6.5507674e+2, 2.3516417e+2, -646566.25, -795309.0, -39590.414, 0.011464767, -0.06101733, -636685.0, -1292.0664, 0.0, 10.000547, 9.998617 
6.55082e+2, 2.451632e+2, -505212.3, -686558.5, 601.91077, 0.050158422, -0.0071087955, -505210.3, 32192.523, 0.0, 10.000913, 9.998513 
6.550873e+2, 2.551629e+2, -312286.3, -542444.6, 35732.95, 0.026963476, 0.07553167, -306866.28, 132540.61, 0.0, 10.001557, 9.998517 
6.550922e+2, 2.6516145e+2, -236337.02, -570935.0, -8268.74, -0.008836014, 0.13679495, -236132.81, 105290.266, 0.0, 10.001897, 9.997487 
6.5509677e+2, 2.751586e+2, -153193.83, -486000.84, -16381.022, -0.045689393, 0.07016171, -152389.48, 91064.36, 0.0000000002377775, 10.001803, 9.997454 
6.551016e+2, 2.8515658e+2, 60758.2, -192743.83, 19052.95, -0.12456704, 0.067636035, 62182.2, 207655.06, 0.0000008000927, 10.002029, 9.998668 
6.551066e+2, 2.9515493e+2, 198483.33, -98407.48, 65507.86, -0.26685712, -0.008072531, 212294.88, 259779.73, 0.000010270006, 10.002375, 9.998482 
6.551134e+2, 3.0515325e+2, 81866.586, -289205.63, -41256.25, -0.06235049, 0.06233529, 86398.164, 86398.164, 0.00004390313, 10.001948, 9.997047 
6.551172e+2, 3.1515157e+2, 770.7197, -108979.48, -2124.2, -0.07681887, 0.13641919, 811.81793, 811.81793, 0.00011355634, 10.000375, 9.999038 
6.650258e+2, 1.251692e+2, -1631876.3, -1731531.0, 5235.94, 0.012458997, 0.045679457, -1631602.0, 81745.555, 0.00000000035571668, 10.00076, 9.999476 
6.6503286e+2, 1.3516904e+2, -1504960.0, -1604711.3, 136003.6, 0.08861944, 0.020501368, -1409975.1, 205374.7, 0.0, 10.000895, 9.99965 
6.650356e+2, 1.4516866e+2, -1422830.5, -1513512.6, 41213.383, -0.20090999, 0.031539574, -1406898.8, 110454.336, 0.0, 10.000791, 9.999625 
6.650415e+2, 1.551691e+2, -1300712.3, -1406803.8, -36005.29, 0.0040559866, 0.06589345, -1289647.0, 129699.81, 0.0, 10.000978, 9.999592 
6.65046e+2, 1.6516829e+2, -1242392.8, -1481544.6, 25141.123, 0.001263316, 0.10135377, -1239778.4, 81576.125, 0.0, 10.0013685, 9.998221 
6.650499e+2, 1.7516606e+2, -1079292.5, -1352018.4, 17557.96, -0.1329588, 0.02236159, -1078166.9, 145210.61, 0.0, 10.001807, 9.998226 
6.650545e+2, 1.8516457e+2, -948885.7, -1163506.8, -9227.875, -0.13205479, 0.0233585, -948489.7, 176902.03, 0.0, 10.001719, 9.998888 
6.650595e+2, 1.9516337e+2, -932736.56, -1106766.3, -20329.105, -0.025721557, -0.020415122, -930393.4, 97008.234, 0.0, 10.001154, 9.998881 
6.650641e+2, 2.0516266e+2, -863374.75, -1026095.56, 10328.226, 0.0015423266, 0.026672004, -862721.8, 66686.56, 0.0, 10.000967, 9.998861 
6.650685e+2, 2.1516205e+2, -752531.7, -921348.3, -39151.92, -0.03218371, 0.047596447, -743893.6, 87521.484, 0.0, 10.001055, 9.998861 
6.6507316e+2, 2.2516078e+2, -660566.4, -862939.7, -58577.05, -0.0076390826, 0.057879627, -644834.2, 88593.23, 0.0, 10.001185, 9.99852 
6.650781e+2, 2.3515864e+2, -539619.56, -757202.0, -73962.695, 0.06241458, -0.042708535, -516858.47, 118589.41, 0.0, 10.001353, 9.998496 
6.650833e+2, 2.4515757e+2, -404673.13, -635090.44, -1508.9745, 0.07189125, 0.0063465564, -404663.25, 132795.13, 0.0, 10.001557, 9.998566 
6.6508883e+2, 2.5515723e+2, -286896.53, -528911.25, -32054.666, 0.030275766, 0.07951407, -282722.9, 156739.72, 0.0, 10.001692, 9.998557 
6.650942e+2, 2.6515573e+2, -237964.13, -552544.6, -39698.86, 0.016793989, 0.124170475, -233031.63, 108447.03, 0.0, 10.001799, 9.9976635 
6.650994e+2, 2.7515292e+2, -124803.01, -446396.7, -12212.266, 0.04487917, 0.04361357, -124339.93, 119167.71, 0.0000000023427176, 10.001905, 9.997665 
6.651042e+2, 2.8515112e+2, 8386.594, -215772.25, 55514.027, -0.043961324, 0.051252518, 21381.566, 166906.03, 0.0000014418595, 10.001644, 9.998705 
6.651083e+2, 2.951497e+2, -6990.8057, -183095.55, -3403.785, -0.24378537, -0.00718495, -6925.041, 40610.105, 0.000014823799, 10.000904, 9.998607 
6.6511464e+2, 3.0514765e+2, -52025.332, -300635.8, -75339.484, -0.06158345, -0.0055601667, -30976.42, -30976.42, 0.000057815294, 10.000796, 9.997524 
6.651188e+2, 3.1514642e+2, 110232.23, -14156.698, 402.9767, 0.03931885, 0.06793171, 110233.54, 110233.54, 0.00014076945, 10.000934, 9.999422 
6.750264e+2, 1.2516554e+2, -1652776.6, -1768835.6, -74276.54, -0.076487176, -0.07099546, -1616548.9, 96826.3, 0.0000000023126079, 10.000745, 9.999225 
6.7503226e+2, 1.3516545e+2, -1533628.9, -1659040.4, 149025.94, -0.09283558, -0.055163555, -1434653.6, 180723.44, 0.0, 10.000883, 9.999281 
6.750366e+2, 1.451649e+2, -1500524.1, -1659085.5, 25936.402, -0.22368449, 0.010033962, -1496389.5, 20994.174, 0.0, 10.000726, 9.998656 
6.750419e+2, 1.5516418e+2, -1363942.4, -1536348.0, -10872.598, -0.095562845, 0.0251672, -1363259.4, 56132.703, 0.0, 10.000977, 9.998701 
6.7504704e+2, 1.6516271e+2, -1232706.1, -1452948.0, 25071.871, -0.061795045, 0.026450582, -1229888.0, 91518.35, 0.0, 10.001326, 9.998443 
6.7505276e+2, 1.7516021e+2, -1073160.4, -1322385.6, 48672.633, -0.068021506, -0.10309168, -1063992.1, 159437.28, 0.0, 10.001737, 9.998463 
6.750571e+2, 1.8515913e+2, -952779.44, -1146694.5, -50851.582, -0.07781911, -0.08104399, -940253.44, 185185.53, 0.0, 10.001609, 9.999061 
6.750601e+2, 1.9515917e+2, -945413.2, -1093843.3, -27069.988, -0.108200625, -0.016378546, -940630.4, 86807.61, 0.0, 10.000993, 9.999048 
6.750643e+2, 2.0515847e+2, -950127.06, -1171466.1, -2096.504, -0.096311174, 0.073277, -950107.2, -20660.37, 0.0, 10.000803, 9.997949 
6.750696e+2, 2.1515678e+2, -841604.1, -1061905.8, -21330.88, -0.050893795, 0.07269017, -839557.75, -8089.709, 0.0, 10.00086, 9.997991 
6.750746e+2, 2.2515522e+2, -689648.94, -879271.9, -67412.88, -0.0093095945, 0.09696731, -668125.94, 65358.902, 0.0, 10.000996, 9.9985 
6.750793e+2, 2.3515345e+2, -570532.9, -773535.7, -49171.32, 0.0198987, 0.03808646, -559249.75, 76250.92, 0.0, 10.001151, 9.998481 
6.7508435e+2, 2.4515197e+2, -455189.94, -700881.1, -8108.632, -0.0063707335, 0.061346937, -454922.6, 82592.48, 0.0, 10.001394, 9.998192 
6.750896e+2, 2.551503e+2, -338987.8, -598731.56, -9438.952, -0.092575215, 0.041306663, -338645.25, 100886.99, 0.0, 10.001523, 9.998159 
6.750954e+2, 2.6514876e+2, -182353.28, -403514.75, -52043.98, -0.07172007, 0.049761854, -170718.33, 170827.83, 0.0, 10.00166, 9.998752 
6.7510164e+2, 2.751472e+2, -68216.87, -301145.0, 9720.075, 0.042858664, -0.020330094, -67811.95, 175747.11, 0.0000000015372758, 10.001784, 9.998725 
6.751066e+2, 2.8514618e+2, -54455.125, -332267.06, 13690.395, -0.0062179905, 0.054311093, -53782.1, 91787.35, 0.0000017821444, 10.001587, 9.99793 
6.7510986e+2, 2.951453e+2, -75841.37, -294336.78, -7079.675, -0.23157659, 0.12849715, -75612.21, -28030.152, 0.000019076204, 10.000769, 9.997907 
6.751154e+2, 3.0514285e+2, 43890.55, -79620.28, -78362.72, -0.09455028, 0.04481968, 81907.11, 81907.11, 0.000073988194, 10.000711, 9.999079 
6.7511976e+2, 3.1514215e+2, 139153.4, 82751.18, 64874.207, -0.04001324, 0.023983171, 181691.02, 181691.02, 0.00017626988, 10.00079, 10.00015 
6.850283e+2, 1.2516189e+2, -1535588.1, -1734414.3, -194435.78, 0.017912906, 0.013517675, -1416624.9, 296788.13, 0.0000000036242784, 10.001609, 9.999065 
6.850328e+2, 1.3516071e+2, -1537214.5, -1693910.0, -36442.15, -0.11885882, -0.043076932, -1529153.9, 86270.55, 0.0, 10.0010195, 9.998966 
6.850385e+2, 1.4515984e+2, -1465354.0, -1666409.8, -50322.09, -0.11006135, 0.014663307, -1453462.3, 63971.555, 0.0, 10.001064, 9.998447 
6.850436e+2, 1.5515882e+2, -1223661.9, -1494707.3, -64908.445, -0.0684727, 0.021743782, -1208919.8, 210525.14, 0.0, 10.002033, 9.998491 
6.850487e+2, 1.6515732e+2, -1134146.4, -1375022.8, -8733.778, -0.046309933, 0.015749246, -1133830.1, 187628.72, 0.0, 10.001864, 9.998722 
6.850544e+2, 1.7515509e+2, -1224060.8, -1372190.3, -15030.164, -0.0038611498, -0.11394129, -1222551.0, 927.30115, 0.0, 10.00059, 9.998686 
6.850588e+2, 1.851541e+2, -1118726.5, -1257164.8, -69201.336, -0.011014098, -0.077022046, -1090067.6, 35419.67, 0.0, 10.000589, 9.998794 
6.850616e+2, 1.9515398e+2, -862843.7, -1082644.3, -106853.445, -0.084589, -0.0044659534, -819460.75, 208028.77, 0.0, 10.001669, 9.998796 
6.8506575e+2, 2.0515306e+2, -806977.2, -1094376.5, -53633.66, -0.07707011, 0.07094492, -797294.44, 132206.42, 0.0, 10.001796, 9.99797 
6.8507105e+2, 2.1515103e+2, -805283.8, -1044029.06, -38188.19, 0.0035165537, 0.036671065, -799324.25, 32200.008, 0.0, 10.001122, 9.9979725 
6.850761e+2, 2.2514948e+2, -651245.3, -869182.8, 7101.0684, 0.03865959, 0.06647938, -651014.2, 82526.41, 0.0, 10.001276, 9.998437 
6.85081e+2, 2.3514813e+2, -427801.22, -712612.9, -9910.728, 0.032884177, 0.055518787, -427456.75, 208096.06, 0.0, 10.002145, 9.998424 
6.8508613e+2, 2.4514653e+2, -364677.4, -652704.6, 41533.566, 0.00830305, 0.06883063, -358807.88, 178759.95, 0.0, 10.002012, 9.998213 
6.850914e+2, 2.5514436e+2, -408564.78, -623851.7, 40739.93, -0.03804059, -0.0043533253, -401113.25, 38475.19, 0.0, 10.0010395, 9.998203 
6.8509686e+2, 2.6514292e+2, -294271.6, -425339.0, 39824.08, -0.0349035, -0.006159482, -283120.1, 58480.78, 0.0, 10.00074, 9.999046 
6.8510276e+2, 2.751418e+2, -173457.45, -319580.22, 8622.858, 0.0370087, -0.055024303, -172950.38, 70658.12, 0.00000000039754933, 10.000905, 9.999025 
6.851076e+2, 2.8514105e+2, -195972.14, -397335.2, 16194.501, 0.0014083746, 0.023224194, -194678.03, -49060.777, 0.000001935021, 10.000599, 9.997955 
6.8511105e+2, 2.951401e+2, -175658.97, -337193.1, 19493.174, -0.14068106, 0.09117888, -173339.92, -125708.39, 0.000022833043, 10.000044, 9.997966 
6.851163e+2, 3.0513835e+2, -16899.975, -56255.336, 3373.8484, -0.03706215, 0.04849796, -16612.836, -16612.836, 0.00009092674, 10.00008, 9.999537 
6.8512064e+2, 3.151375e+2, 45532.37, 55119.65, 31656.578, 0.027585603, -0.023038274, 82343.48, 82343.48, 0.00021663251, 10.000046, 10.000334 
6.950307e+2, 1.2515835e+2, -1529898.6, -1720226.3, -218835.0, 0.007934283, 0.30405867, -1386431.1, 327028.88, 0.00000000017840025, 10.001618, 9.9991455 
6.9503397e+2, 1.3515502e+2, -1553084.6, -1729530.8, -46751.445, -0.13637151, 0.060757123, -1541462.8, 74027.44, 0.0, 10.001039, 9.998708 
6.9504094e+2, 1.4515346e+2, -1430651.8, -1589806.8, -31871.395, -0.014301421, 0.032239012, -1424506.6, 92996.734, 0.0, 10.001039, 9.998987 
6.950461e+2, 1.5515292e+2, -1191777.0, -1428419.6, -11592.832, -0.05263633, 0.035470977, -1191210.4, 228295.69, 0.0, 10.002021, 9.99896 
6.950504e+2, 1.6515207e+2, -1126603.0, -1339175.3, -71195.445, -0.09857358, 0.057427064, -1104961.3, 216551.05, 0.0, 10.001788, 9.998999 
6.9505465e+2, 1.7515078e+2, -1215511.3, -1338325.9, -41105.07, -0.07970854, -0.0024582082, -1203023.4, 20499.262, 0.0, 10.000524, 9.998948 
6.9505906e+2, 1.8514958e+2, -1181145.4, -1358631.0, -41286.156, -0.07175506, 0.029945461, -1172011.5, -46476.246, 0.0, 10.000473, 9.998147 
6.950635e+2, 1.95148e+2, -929464.06, -1186499.3, -51776.78, -0.09760362, 0.02103556, -919426.25, 108127.95, 0.0, 10.001533, 9.99814 
6.950678e+2, 2.0514649e+2, -768059.4, -983916.3, -96087.6, -0.07816961, 0.027048137, -731483.94, 198085.58, 0.0, 10.001656, 9.998798 
6.9507235e+2, 2.1514472e+2, -776520.44, -939265.94, -48221.297, -0.012495498, -0.061859887, -763305.56, 68278.57, 0.0, 10.000927, 9.998786 
6.9507736e+2, 2.2514358e+2, -685183.9, -895891.8, 24586.818, 0.0045542656, -0.026991062, -682352.94, 51241.51, 0.0, 10.001086, 9.998343 
6.950827e+2, 2.3514266e+2, -462983.0, -739552.8, 35829.13, -0.03778802, 0.011051373, -458416.78, 177187.44, 0.0, 10.001949, 9.998327 
6.9508815e+2, 2.4514136e+2, -351900.63, -596673.94, -8855.223, -0.023500191, 0.037256192, -351580.7, 186035.06, 0.0, 10.001878, 9.998662 
6.950935e+2, 2.5513935e+2, -392123.2, -565947.25, 22319.195, 0.04164235, -0.0689322, -389303.13, 50329.15, 0.0, 10.000926, 9.998658 
6.950983e+2, 2.6513803e+2, -343771.2, -501790.0, 33570.902, 0.0000050752465, -0.05792651, -336934.84, 4709.2676, 0.0, 10.000635, 9.998567 
6.9510233e+2, 2.7513692e+2, -227267.86, -400289.0, 31704.115, -0.1339454, -0.057103854, -221641.42, 22013.98, 0.0000000054780975, 10.000777, 9.998529 
6.951068e+2, 2.8513575e+2, -151548.42, -289606.72, -22357.559, -0.17048077, -0.034057554, -148018.06, -2350.4746, 0.000002364329, 10.000534, 9.998724 
6.951114e+2, 2.9513416e+2, -138688.08, -234602.45, 22464.93, -0.15200192, -0.10871626, -133687.13, -86003.95, 0.000027093956, 9.999937, 9.998717 
6.951167e+2, 3.0513406e+2, -63101.49, -147567.4, -3320.737, -0.032663047, 0.0069124387, -62971.137, -62971.137, 0.00010798756, 10.000052, 9.998922 
6.9512105e+2, 3.15133e+2, 1266.9681, -15536.956, 100803.95, -0.025451487, -0.029462669, 94018.51, 94018.51, 0.00025661878, 9.999949, 9.999893 
7.0503205e+2, 1.2515233e+2, -1681860.5, -1799619.0, -48101.0, 0.054695804, 0.2534657, -1664710.3, 48809.457, 0.0, 10.000575, 9.999122 
7.05036e+2, 1.3514973e+2, -1388469.6, -1675241.5, 20770.326, -0.08280419, 0.10698716, -1386973.1, 228570.53, 0.0, 10.0022545, 9.9985 
7.050437e+2, 1.451481e+2, -1277398.5, -1497937.6, 35062.46, 0.11718614, 0.073336616, -1271958.3, 245599.3, 0.0, 10.002015, 9.999142 
7.0504767e+2, 1.5514734e+2, -1388955.4, -1498346.9, -4814.327, -0.01739433, 0.036171358, -1388743.9, 30818.268, 0.0, 10.000579, 9.999156 
7.0505136e+2, 1.651467e+2, -1307969.8, -1404929.8, -37199.848, -0.10196479, 0.06133215, -1295342.1, 26223.912, 0.0, 10.000462, 9.999176 
7.050557e+2, 1.7514594e+2, -1072338.3, -1243012.4, -49307.266, -0.05535118, 0.033747647, -1059117.6, 164454.05, 0.0, 10.001409, 9.999159 
7.0506036e+2, 1.8514489e+2, -996731.75, -1267588.9, 23324.188, -0.041920796, 0.06835565, -994737.9, 130845.055, 0.0, 10.001724, 9.998173 
7.050651e+2, 1.951431e+2, -939951.4, -1191245.9, 31957.666, -0.077166796, 0.037338678, -935950.94, 91653.21, 0.0, 10.001445, 9.998162 
7.0506966e+2, 2.0514154e+2, -760091.6, -974856.8, 1812.5131, -0.052974988, 0.036511, -760076.3, 169542.95, 0.0, 10.001661, 9.998872 
7.050742e+2, 2.1513999e+2, -575696.8, -833964.94, -34994.06, 0.031169169, -0.041406836, -571039.25, 260591.61, 0.0, 10.002246, 9.998883 
7.0507914e+2, 2.2513889e+2, -552849.3, -820530.06, 45815.855, 0.047533035, -0.011082716, -545224.7, 188415.47, 0.0, 10.001963, 9.998427 
7.050842e+2, 2.351379e+2, -604091.06, -796659.75, 37576.76, -0.01693625, 0.011511905, -597018.3, 38632.457, 0.0, 10.000944, 9.998413 
7.050896e+2, 2.4513651e+2, -504465.75, -660883.94, 10941.558, 0.00034234763, 0.021013025, -503704.1, 33958.492, 0.0, 10.000783, 9.998755 
7.050953e+2, 2.5513443e+2, -316205.8, -518065.56, -14429.998, 0.106964596, -0.099456236, -315179.5, 124499.14, 0.0, 10.001395, 9.998768 
7.050999e+2, 2.6513323e+2, -251579.8, -486295.38, 20204.465, 0.06580463, -0.068655625, -249853.28, 91836.734, 0.0, 10.001391, 9.998314 
7.0510334e+2, 2.751325e+2, -237574.88, -427784.72, 582.3997, -0.10238862, -0.009590201, -237573.1, 6127.315, 0.000000016182126, 10.000812, 9.998318 
7.051076e+2, 2.8513122e+2, -107766.18, -232924.31, -25397.836, -0.14294843, -0.00009375918, -102808.664, 42904.14, 0.0000030357212, 10.000665, 9.999062 
7.0511234e+2, 2.9512927e+2, 1890.2413, -130629.98, -44826.816, -0.078732364, -0.14820646, 15629.166, 63358.242, 0.000031540207, 10.000733, 9.999058 
7.051171e+2, 3.05129e+2, -17859.352, -163173.38, -40507.668, -0.0076264567, -0.04824456, -7330.3525, -7330.3525, 0.00012311795, 10.000523, 9.998586 
7.051212e+2, 3.151282e+2, 464.19424, 18895.475, 29939.865, 0.022484772, -0.029179387, 41005.918, 41005.918, 0.0002906225, 9.999812, 10.000179 
7.150318e+2, 1.2514392e+2, -1673324.1, -1781931.4, 23903.113, -0.10872128, -0.10917278, -1668296.1, 45295.58, 0.0, 10.000578, 9.999235 
7.150385e+2, 1.351447e+2, -1389418.1, -1688185.0, 88718.41, -0.10588332, 0.08250981, -1365059.4, 250527.14, 0.0, 10.00229, 9.998399 
7.150462e+2, 1.451437e+2, -1293462.3, -1525852.0, -41040.992, 0.12092015, 0.12982883, -1286427.3, 231169.95, 0.0, 10.001999, 9.998951 
7.150478e+2, 1.5514213e+2, -1405010.4, -1527307.5, -39658.69, -0.107754916, 0.029140314, -1393275.8, 26336.484, 0.0, 10.000557, 9.998967 
7.150513e+2, 1.6514122e+2, -1312996.8, -1393554.6, -17958.93, -0.19170456, 0.028795173, -1309174.5, 12445.856, 0.0, 10.000379, 9.9992895 
7.150574e+2, 1.7514051e+2, -1077028.4, -1235219.4, 6.389158, -0.06794971, -0.0041550025, -1077028.4, 146597.19, 0.0, 10.001345, 9.999241 
7.1506226e+2, 1.8513997e+2, -960803.56, -1171908.9, -3878.4614, -0.059076983, 0.041929554, -960732.3, 164898.7, 0.0, 10.001634, 9.998878 
7.150659e+2, 1.9513927e+2, -915144.25, -1101634.5, 38309.277, -0.16628309, 0.050893724, -907581.4, 120057.836, 0.0, 10.001287, 9.998855 
7.1507066e+2, 2.0513834e+2, -831227.75, -1076736.0, 8603.956, -0.14240706, 0.10825787, -830926.56, 98722.54, 0.0, 10.001473, 9.998259 
7.150765e+2, 2.1513683e+2, -656014.2, -940465.44, -464.24048, 0.0008812899, 0.09682247, -656013.4, 175650.44, 0.0, 10.002004, 9.998263 
7.150813e+2, 2.2513546e+2, -561891.06, -800039.3, -10551.111, 0.034604315, 0.12008748, -561424.56, 172252.36, 0.0, 10.001786, 9.998658 
7.150852e+2, 2.351339e+2, -616919.06, -778593.6, 14659.513, -0.046641093, 0.062471412, -615600.56, 20091.1, 0.0, 10.000749, 9.998634 
7.1509016e+2, 2.4513204e+2, -548131.75, -712215.75, 17460.887, -0.05181964, 0.029285774, -546294.25, -8586.617, 0.0, 10.000615, 9.9984865 
7.15096e+2, 2.5512967e+2, -359844.88, -569006.94, 24112.252, 0.010299404, -0.09574652, -357101.2, 82626.44, 0.0, 10.001234, 9.998495 
7.151011e+2, 2.651286e+2, -258914.88, -492060.6, -18799.844, 0.021278812, -0.03294854, -257408.67, 84329.61, 0.0, 10.001343, 9.998302 
7.1510535e+2, 2.7512848e+2, -255713.05, -438603.44, -2058.6216, -0.02006353, 0.0865054, -255689.88, -11946.063, 0.000000020828322, 10.00069, 9.998307 
7.151096e+2, 2.851274e+2, -123260.78, -241200.33, -36661.242, -0.04920244, 0.1194787, -112793.67, 32959.98, 0.0000037854625, 10.000574, 9.9990425 
7.151134e+2, 2.9512528e+2, -23204.182, -150452.13, -18282.701, -0.09818294, -0.04067033, -20629.46, 27140.256, 0.000035842306, 10.000611, 9.998974 
7.1511686e+2, 3.051233e+2, -26856.486, -185234.67, -77515.23, -0.12212859, -0.10292196, 4767.4297, 4767.4297, 0.000135526, 10.000524, 9.998442 
7.1512043e+2, 3.1512222e+2, 36192.21, 116173.625, 54170.484, -0.120507374, -0.099373356, 143515.66, 143515.66, 0.00031586387, 9.999696, 10.000918 
7.2503424e+2, 1.2513746e+2, -1307950.3, -1599683.0, 15314.701, -0.02122319, -0.16045961, -1307148.5, 406505.47, 0.0, 10.00302, 9.999339 
7.2504014e+2, 1.3513902e+2, -1556263.8, -1733680.9, -14358.399, -0.087838285, 0.09023335, -1555109.3, 60531.875, 0.0, 10.001015, 9.998697 
7.2504735e+2, 1.4513808e+2, -1513921.9, -1612799.6, -82383.555, 0.12247333, 0.11935288, -1467281.3, 50370.363, 0.0, 10.000389, 9.999148 
7.250492e+2, 1.5513675e+2, -1282619.3, -1441583.6, -82487.61, -0.04565647, 0.024448462, -1247551.8, 172113.28, 0.0, 10.001277, 9.999218 
7.250529e+2, 1.6513608e+2, -1136243.9, -1300987.8, 8710.37, -0.110745855, 0.030787943, -1135784.6, 185886.47, 0.0, 10.001515, 9.999406 
7.25059e+2, 1.751356e+2, -1102644.5, -1232127.3, -1493.8214, -0.021399103, 0.00873084, -1102627.3, 121047.12, 0.0, 10.001078, 9.999407 
7.250639e+2, 1.8513508e+2, -1011823.56, -1194859.9, -212.36006, -0.026361505, 0.047962457, -1011823.3, 113855.98, 0.0, 10.001273, 9.998891 
7.2506773e+2, 1.9513418e+2, -805787.94, -1045739.6, -41897.996, -0.1404713, 0.033188827, -798682.56, 229006.5, 0.0, 10.002022, 9.998883 
7.2507256e+2, 2.0513332e+2, -741739.06, -1034406.4, -51120.145, -0.12247733, 0.098547466, -733066.94, 196631.36, 0.0, 10.002111, 9.998245 
7.250784e+2, 2.1513213e+2, -722867.5, -977096.5, -45667.95, 0.027953455, 0.12318556, -714912.94, 116798.016, 0.0, 10.001566, 9.998229 
7.250831e+2, 2.2513072e+2, -630810.4, -837607.7, -29426.338, 0.0691654, 0.14776461, -626704.7, 107019.93, 0.0, 10.001328, 9.99863 
7.2508675e+2, 2.3512886e+2, -527017.9, -739215.75, -55572.66, 0.014609179, 0.06481027, -513344.9, 122397.17, 0.0, 10.001378, 9.998611 
7.250917e+2, 2.4512722e+2, -412933.88, -628251.2, 22610.95, 0.0052430024, 0.044978194, -410585.1, 127171.26, 0.0, 10.001479, 9.998635 
7.2509754e+2, 2.551255e+2, -275153.0, -514617.7, 27524.842, 0.02458474, -0.027575938, -272029.94, 167740.8, 0.0, 10.001756, 9.998614 
7.251024e+2, 2.6512438e+2, -240458.08, -467219.84, -9986.333, 0.022497447, 0.017959522, -240019.14, 101762.56, 0.0, 10.001416, 9.998432 
7.251063e+2, 2.7512357e+2, -268493.28, -432274.4, -18944.316, 0.022766985, 0.05533677, -266330.56, -22537.498, 0.000000011844985, 10.00054, 9.998428 
7.2511065e+2, 2.8512266e+2, -192257.33, -282662.34, 20216.057, 0.033646602, 0.10227473, -187942.61, -42141.547, 0.000004675658, 10.00016, 9.998946 
7.2511506e+2, 2.9512143e+2, -78927.8, -186404.2, -8392.267, 0.037970793, 0.041971523, -78276.44, -30467.926, 0.000040333267, 10.000285, 9.998876 
7.2511774e+2, 3.0511835e+2, -82232.83, -239705.34, -56899.48, -0.06358118, -0.10683965, -63825.13, -63825.13, 0.00014552829, 10.000273, 9.998196 
7.251211e+2, 3.1511724e+2, 22590.406, 64506.844, -7632.541, -0.012125888, -0.08462203, 65853.39, 65853.39, 0.00033116215, 9.999803, 10.000512 
7.3503906e+2, 1.2513311e+2, -1298628.9, -1569979.1, -66153.47, 0.08512667, 0.12339499, -1283360.3, 430344.84, 0.0, 10.00299, 9.999547 
7.350407e+2, 1.3513273e+2, -1527450.4, -1674462.9, -82791.66, -0.17169058, 0.13433494, -1490242.5, 125465.08, 0.0, 10.001006, 9.999112 
7.3504645e+2, 1.4513105e+2, -1483894.4, -1525218.0, -70240.5, -0.044459257, 0.033672374, -1431339.8, 86383.02, 0.0, 10.000295, 9.9997835 
7.350515e+2, 1.5513098e+2, -1248853.8, -1366341.9, -30876.68, 0.018528396, 0.0025702151, -1241233.4, 178489.05, 0.0, 10.001254, 9.999743 
7.3505586e+2, 1.651312e+2, -1122738.8, -1265802.1, -25599.025, -0.0027809246, 0.06121474, -1118296.1, 203423.14, 0.0, 10.001486, 9.999659 
7.350601e+2, 1.7513135e+2, -1097355.4, -1203638.1, 473.32495, -0.04630235, 0.074972615, -1097353.4, 126363.28, 0.0, 10.0009985, 9.999643 
7.350649e+2, 1.8513036e+2, -1082849.4, -1305925.5, 13138.463, -0.08429518, 0.091931365, -1082078.3, 43648.39, 0.0, 10.001126, 9.998194 
7.3507005e+2, 1.9512796e+2, -878875.56, -1157131.0, -205.08443, -0.14042476, -0.0027487236, -878875.4, 148876.52, 0.0, 10.001862, 9.998187 
7.3507494e+2, 2.0512666e+2, -724379.7, -964271.56, -88150.836, -0.122387305, 0.025942199, -695471.3, 234293.66, 0.0, 10.001958, 9.998802 
7.350796e+2, 2.151261e+2, -712635.0, -906892.94, -49932.254, -0.036810227, 0.053332034, -700551.94, 131217.89, 0.0, 10.001355, 9.998809 
7.350842e+2, 2.2512493e+2, -683553.75, -896124.94, -43212.75, 0.015572318, 0.0868902, -675105.0, 58675.92, 0.0, 10.001113, 9.998329 
7.350885e+2, 2.3512286e+2, -578755.25, -794841.94, -35552.645, 0.027517656, 0.015249462, -573056.06, 62745.086, 0.0, 10.001164, 9.998327 
7.350937e+2, 2.4512208e+2, -391307.8, -556225.0, 19041.082, 0.02874692, 0.06466551, -389137.9, 148670.5, 0.0, 10.001356, 9.99919 
7.350995e+2, 2.5512207e+2, -266470.03, -450000.5, 53404.35, 0.012880606, 0.109204516, -252061.44, 187745.61, 0.0, 10.001554, 9.999156 
7.351034e+2, 2.651208e+2, -246172.45, -445552.9, -55169.523, -0.047178723, 0.1020091, -231924.9, 109893.49, 0.0, 10.001272, 9.998648 
7.3510563e+2, 2.75118e+2, -270503.7, -411709.84, -27917.646, -0.13412452, -0.08339898, -265184.5, -21338.24, 0.000000051096855, 10.000437, 9.998618 
7.3511034e+2, 2.851171e+2, -199198.3, -304674.0, 10209.655, -0.05386064, -0.036250215, -198219.14, -52365.547, 0.0000058850314, 10.000179, 9.99879 
7.35117e+2, 2.9511777e+2, -104308.86, -222357.5, 20242.174, 0.15231745, 0.1074595, -100934.336, -53089.52, 0.000044056193, 10.000202, 9.9986725 
7.3511916e+2, 3.0511427e+2, -115728.55, -304556.94, -79081.97, 0.015450691, -0.05130655, -86984.31, -86984.31, 0.00015023243, 10.000248, 9.997761 
7.351218e+2, 3.1511274e+2, -100108.5, -166767.61, 12539.858, -0.0057072956, -0.025974788, -97827.56, -97827.56, 0.0003329124, 9.999698, 9.998975 
7.4504185e+2, 1.2512831e+2, -1547621.8, -1701719.3, 73915.32, 0.16212596, 0.2233637, -1517899.8, 195854.05, 0.0, 10.001356, 9.999409 
7.450427e+2, 1.3512711e+2, -1425930.1, -1595107.8, -44965.445, -0.08798015, 0.12671714, -1414721.4, 201042.81, 0.0, 10.001604, 9.99935 
7.4504715e+2, 1.4512546e+2, -1319730.5, -1416623.8, 25349.791, -0.037562575, 0.0029509761, -1313499.1, 204279.75, 0.0, 10.001292, 10.000042 
7.450528e+2, 1.5512614e+2, -1311631.8, -1361854.5, -1801.0956, 0.06118265, 0.018488968, -1311567.3, 108203.29, 0.0, 10.000689, 10.000031 
7.4505746e+2, 1.6512658e+2, -1232343.8, -1343017.6, 13547.491, 0.046608225, 0.09533226, -1230709.6, 91056.03, 0.0, 10.000848, 9.999433 
7.4506164e+2, 1.7512634e+2, -1000252.94, -1177641.0, -29391.46, -0.02028165, 0.09277276, -995509.9, 228258.25, 0.0, 10.001758, 9.999453 
7.450666e+2, 1.8512535e+2, -953416.8, -1218605.3, 29457.965, -0.059621375, 0.1062227, -950183.94, 175593.97, 0.0, 10.001893, 9.998432 
7.45072e+2, 1.9512323e+2, -951822.8, -1171026.9, 58054.41, -0.091269486, 0.017454768, -937396.94, 90401.83, 0.0, 10.001248, 9.998397 
7.4507695e+2, 2.0512186e+2, -832913.0, -1018098.94, 12309.295, -0.06979814, 0.026738621, -832098.4, 97713.766, 0.0, 10.001213, 9.998777 
7.450815e+2, 2.1512087e+2, -652721.7, -883590.7, -28895.43, 0.0023869085, 0.015541101, -649160.1, 182661.52, 0.0, 10.001784, 9.998757 
7.450858e+2, 2.2511971e+2, -534131.1, -788305.0, 8363.164, 0.029607983, 0.03463521, -533856.25, 199975.8, 0.0, 10.001987, 9.998641 
7.4508965e+2, 2.3511803e+2, -463220.25, -709245.1, 25458.371, 0.006218739, -0.032107238, -460613.47, 175233.33, 0.0, 10.001808, 9.99861 
7.450947e+2, 2.4511753e+2, -446126.66, -584371.1, 95109.625, 0.023272352, 0.033916045, -397674.56, 140176.95, 0.0, 10.000981, 9.999186 
7.4510074e+2, 2.551178e+2, -536043.94, -576478.1, 55847.715, 0.08186359, 0.10679041, -496866.6, -57016.67, 0.0, 9.999683, 9.99919 
7.451044e+2, 2.6511678e+2, -463869.44, -509099.3, -8153.649, 0.012199216, 0.10363804, -462444.47, -120585.25, 0.0, 9.999608, 9.999009 
7.451059e+2, 2.7511424e+2, -207787.88, -333104.6, -4573.271, -0.15893784, -0.092202626, -207621.2, 36261.188, 0.00000017449423, 10.0006895, 9.999021 
7.451106e+2, 2.8511348e+2, -115341.24, -263036.2, 57391.613, -0.06310036, -0.050591663, -95662.0, 50226.35, 0.0000070145306, 10.000752, 9.998802 
7.4511814e+2, 2.9511416e+2, -146425.53, -233920.81, 44510.84, 0.27677447, 0.09001792, -127762.664, -79881.31, 0.00004543542, 9.999871, 9.9987545 
7.4512005e+2, 3.0511153e+2, -142691.0, -281250.28, 42018.016, 0.1111115, -0.0019186061, -130944.83, -130944.83, 0.00014809403, 9.999906, 9.998084 
7.451228e+2, 3.1511e+2, -27606.336, -161139.98, 98524.23, 0.11157211, -0.009297152, 24642.94, 24642.94, 0.00032280377, 10.0003395, 9.99869 
7.550419e+2, 1.2512287e+2, -1584978.8, -1762910.3, 40704.0, -0.04807424, 0.10466166, -1576109.3, 137693.05, 0.0, 10.001291, 9.99902 
7.550457e+2, 1.3512206e+2, -1427823.5, -1600928.5, -22658.031, 0.021424195, 0.050246593, -1424906.9, 190905.14, 0.0, 10.001602, 9.999318 
7.550492e+2, 1.4512125e+2, -1333094.9, -1430827.5, -17964.982, -0.0014008844, 0.017902337, -1329897.3, 187922.86, 0.0, 10.001242, 9.999968 
7.550526e+2, 1.5512238e+2, -1325105.3, -1376684.1, -9021.282, -0.06850194, 0.09091836, -1323572.9, 96234.7, 0.0, 10.000636, 9.999958 
7.5505716e+2, 1.6512224e+2, -1284437.1, -1438184.8, 28564.64, -0.106334396, 0.14205922, -1279301.6, 42508.4, 0.0, 10.00079, 9.998808 
7.550631e+2, 1.751206e+2, -1054851.9, -1276083.9, 20034.3, -0.08616462, 0.0666964, -1053052.3, 170776.52, 0.0, 10.001695, 9.998807 
7.550685e+2, 1.8512005e+2, -881893.44, -1045431.3, -12547.084, -0.09060868, 0.09270178, -880936.44, 244897.08, 0.0, 10.001786, 9.999676 
7.550732e+2, 1.9512004e+2, -886490.6, -998498.56, 50494.13, -0.13105783, 0.09346268, -867088.3, 160740.73, 0.0, 10.001095, 9.999656 
7.5507826e+2, 2.0511892e+2, -906870.75, -1129388.5, 18013.465, -0.09598646, 0.100845695, -905421.94, 24417.373, 0.0, 10.001027, 9.998109 
7.550836e+2, 2.1511647e+2, -731901.1, -990241.75, 8215.366, 0.007755689, 0.009158619, -731640.2, 100226.086, 0.0, 10.001548, 9.9981365 
7.550875e+2, 2.251151e+2, -499475.34, -672058.9, -12252.039, -0.019205054, -0.0052851313, -498609.88, 235267.75, 0.0, 10.001792, 9.999537 
7.550899e+2, 2.3511444e+2, -434880.28, -597309.4, 35145.9, -0.17856191, -0.057727426, -427601.7, 208276.17, 0.0, 10.001581, 9.999489 
7.550943e+2, 2.451138e+2, -506956.75, -676252.44, 31394.676, -0.14309543, -0.021908788, -501322.34, 36561.375, 0.0, 10.000831, 9.998627 
7.5510067e+2, 2.551127e+2, -591677.0, -666462.0, 24475.064, 0.075714484, -0.03046289, -584379.1, -144479.7, 0.0, 9.999573, 9.998626 
7.5510466e+2, 2.651123e+2, -433242.2, -432457.5, 18292.81, 0.0525768, 0.026774155, -414552.8, -72648.445, 0.0, 9.999553, 9.999562 
7.5510657e+2, 2.7511227e+2, -191232.7, -267645.75, 54030.223, -0.19750215, 0.03047372, -163265.19, 80636.92, 0.0000002213921, 10.000553, 9.999538 
7.5511116e+2, 2.851118e+2, -115239.3, -245257.75, 10738.666, -0.12099846, 0.06576934, -114358.32, 31547.336, 0.000006961638, 10.0006695, 9.998968 
7.5511813e+2, 2.9511052e+2, -141207.5, -208700.33, 36239.67, 0.23624936, -0.0010079939, -125434.89, -77516.18, 0.00004401986, 9.999795, 9.998973 
7.5511974e+2, 3.051099e+2, -79013.75, -127991.26, 51168.168, 0.060705032, 0.033232488, -46776.137, -46776.137, 0.0001416952, 9.999836, 9.999155 
7.5512296e+2, 3.151101e+2, 15495.465, -42372.78, 118815.945, 0.014313893, 0.09247805, 108849.58, 108849.58, 0.0003069929, 10.000226, 9.999551 
7.6504314e+2, 1.2511772e+2, -1616914.3, -1762954.5, 79864.53, -0.0109280255, -0.01203044, -1581720.4, 132128.73, 0.00000000032551553, 10.00094, 9.999207 
7.6504713e+2, 1.351182e+2, -1550198.3, -1622241.3, -4424.3384, 0.06499385, 0.024094248, -1549927.5, 65919.445, 0.0, 10.000574, 9.99967 
7.650501e+2, 1.451181e+2, -1425476.1, -1540887.9, 64416.926, -0.011475676, 0.07356366, -1396697.9, 121151.36, 0.0, 10.00086, 9.999413 
7.650543e+2, 1.551183e+2, -1121800.4, -1340390.4, 7044.051, -0.036555592, 0.10371456, -1121573.6, 298274.28, 0.0, 10.002271, 9.999436 
7.650588e+2, 1.6511774e+2, -1075911.4, -1340337.5, 66278.586, -0.076969914, 0.14154705, -1060228.8, 261626.27, 0.0, 10.002242, 9.998772 
7.6506406e+2, 1.751162e+2, -1184963.0, -1342564.1, 70465.484, -0.106934026, 0.07736264, -1158052.1, 65820.53, 0.0, 10.000823, 9.998766 
7.650694e+2, 1.8511584e+2, -1067254.9, -1093261.5, 64073.684, -0.099086195, 0.106420025, -1014878.4, 110996.62, 0.0, 10.000343, 10.000034 
7.650747e+2, 1.9511616e+2, -912106.94, -973870.7, 27231.057, -0.0684231, 0.10284985, -901815.75, 126051.37, 0.0, 10.000753, 9.9999895 
7.6507986e+2, 2.0511541e+2, -882025.5, -1076772.4, 50475.453, -0.028259417, 0.11075165, -869720.5, 60152.89, 0.0, 10.001032, 9.998469 
7.65085e+2, 2.1511322e+2, -759277.3, -970157.25, 87252.61, 0.013810625, 0.011406279, -727857.5, 104039.49, 0.0, 10.001196, 9.998456 
7.6508886e+2, 2.2511218e+2, -598656.8, -707951.75, 77386.54, -0.018024504, 0.008244652, -558567.7, 175338.16, 0.0, 10.001076, 9.999635 
7.650915e+2, 2.3511197e+2, -553102.6, -639040.9, 32184.098, -0.12452462, -0.0094408505, -542386.0, 93517.26, 0.0, 10.000723, 9.999605 
7.650955e+2, 2.4511121e+2, -524713.7, -686563.9, 43867.035, -0.09893003, 0.010800417, -513588.88, 24321.629, 0.0, 10.000715, 9.998613 
7.6510066e+2, 2.5510964e+2, -388641.03, -570729.4, 49363.63, 0.05301502, -0.045101784, -376119.72, 63810.504, 0.0, 10.000977, 9.99861 
7.6510483e+2, 2.6510924e+2, -263096.97, -347262.44, 95055.05, 0.06328022, 0.014260536, -201225.78, 140708.75, 0.0, 10.0007105, 9.999591 
7.6510817e+2, 2.751097e+2, -281694.28, -308950.66, 57321.797, -0.049503744, 0.06766303, -236402.89, 7524.2163, 0.00000016204108, 9.999922, 9.999564 
7.6511234e+2, 2.851092e+2, -262070.88, -322902.9, 9384.63, -0.0066450182, 0.098073915, -260656.02, -114723.84, 0.000006290961, 9.999694, 9.998895 
7.6511717e+2, 2.9510742e+2, -126298.86, -198700.53, -17329.709, 0.17183445, -0.014430648, -122364.68, -74413.08, 0.000041719115, 9.999922, 9.998955 
7.6511925e+2, 3.0510718e+2, 47905.152, -52678.62, 22490.992, 0.0018270734, 0.054478716, 52705.176, 52705.176, 0.00013461517, 10.000624, 9.99931 
7.6512486e+2, 3.1510738e+2, 183170.06, 102728.11, -66040.914, 0.14785884, 0.10084901, 220273.9, 220273.9, 0.00029005748, 10.001082, 10.000154 
7.750449e+2, 1.2511276e+2, -1569632.0, -1642850.1, -27288.045, -0.020561082, -0.13869749, -1560580.8, 153314.34, 0.0000000023621072, 10.000859, 10.00007 
7.750463e+2, 1.3511547e+2, -1504352.9, -1521121.4, -12961.079, -0.114504516, 0.055514462, -1497300.6, 118568.914, 0.0, 10.000557, 10.000375 
7.750492e+2, 1.4511596e+2, -1482793.0, -1656481.5, 92899.875, -0.2385002, 0.163631, -1442466.9, 75400.375, 0.0, 10.00084, 9.998631 
7.750573e+2, 1.5511395e+2, -1182761.6, -1461522.9, 77546.2, 0.003255764, 0.05998383, -1162641.8, 257248.61, 0.0, 10.002245, 9.998618 
7.7506214e+2, 1.6511321e+2, -1047714.7, -1262892.6, -5483.967, -0.0042220005, 0.09185278, -1047575.06, 274324.34, 0.0, 10.002166, 9.99934 
7.750642e+2, 1.7511319e+2, -1151597.0, -1258432.1, 36195.43, -0.22016568, 0.12263405, -1140489.0, 83410.02, 0.0, 10.000764, 9.999371 
7.7506876e+2, 1.8511282e+2, -1120260.4, -1180774.6, 65102.902, -0.22608584, 0.14747678, -1078727.0, 47174.918, 0.0, 10.0002365, 9.999494 
7.750759e+2, 1.9511177e+2, -969273.5, -1059716.3, 59331.176, -0.045962233, 0.061579354, -939894.9, 88016.23, 0.0, 10.0006075, 9.999475 
7.750813e+2, 2.051114e+2, -817522.44, -894286.8, 40548.25, -0.011120728, 0.065576114, -800071.4, 129841.84, 0.0, 10.000828, 9.999818 
7.7508515e+2, 2.151113e+2, -700912.7, -791872.2, 106823.55, -0.1114073, 0.040759794, -630290.44, 201621.84, 0.0, 10.000961, 9.999789 
7.7508944e+2, 2.251111e+2, -681418.9, -829499.44, 46373.555, -0.098940074, 0.09147617, -668095.2, 65819.74, 0.0, 10.000855, 9.998911 
7.750939e+2, 2.3511042e+2, -629555.5, -755273.5, 34639.855, 0.015918197, 0.099993676, -620642.8, 15281.623, 0.0, 10.000535, 9.998902 
7.7509755e+2, 2.4510965e+2, -510284.47, -616264.56, 38344.19, 0.010514386, 0.12595792, -497866.4, 40066.43, 0.0, 10.000548, 9.999175 
7.7510023e+2, 2.5510857e+2, -376906.84, -501959.6, 76280.75, -0.115414016, 0.06323531, -340801.06, 99141.38, 0.0, 10.0007925, 9.999168 
7.7510446e+2, 2.6510763e+2, -315882.88, -431965.6, 50973.727, -0.07371965, 0.067473724, -296677.13, 45272.465, 0.0, 10.000605, 9.999063 
7.751102e+2, 2.7510637e+2, -332577.4, -392185.66, 45692.86, 0.124127924, 0.006735308, -307827.66, -63868.477, 0.00000014054619, 9.999823, 9.999044 
7.7511364e+2, 2.8510547e+2, -294865.22, -370097.38, 4093.187, 0.12163164, 0.035224337, -294643.2, -148673.77, 0.0000059856334, 9.999611, 9.998606 
7.7511513e+2, 2.9510456e+2, -160132.44, -254149.22, 14746.11, -0.07857288, 0.03605608, -157873.84, -109891.51, 0.0000396548, 9.999852, 9.998607 
7.7511823e+2, 3.051034e+2, -6728.189, -144237.66, 32750.334, -0.19317697, 0.06240309, 673.48047, 673.48047, 0.00012692052, 10.000546, 9.998716 
7.751276e+2, 3.1510186e+2, 171271.67, 115907.875, -22018.355, 0.22700281, 0.0032294889, 178960.6, 178960.6, 0.00027215088, 10.00092, 10.000329 
7.85046e+2, 1.2510912e+2, -1668509.6, -1691266.0, -32561.678, 0.051371984, -0.07936853, -1645395.4, 68536.22, 0.0000000040597263, 10.000233, 10.000015 
7.850472e+2, 1.3511103e+2, -1393776.0, -1492527.4, -125035.234, -0.108597934, 0.060287815, -1308720.4, 307193.47, 0.0, 10.001459, 10.000114 
7.8505003e+2, 1.4511143e+2, -1367754.4, -1564580.0, 19951.67, -0.25670776, 0.15545078, -1365752.3, 152159.69, 0.0, 10.001487, 9.998941 
7.85059e+2, 1.551095e+2, -1403590.3, -1534190.8, 49164.293, 0.03455428, 0.030736793, -1387151.6, 32781.742, 0.0, 10.000598, 9.998906 
7.850639e+2, 1.6510896e+2, -1249305.4, -1314305.6, 17039.922, 0.04381195, 0.05063736, -1245109.3, 76829.58, 0.0, 10.000582, 9.999746 
7.850653e+2, 1.7510939e+2, -1048665.4, -1164092.4, 6806.084, -0.19441845, 0.08410304, -1048265.4, 175667.45, 0.0, 10.001286, 9.999762 
7.850697e+2, 1.851091e+2, -971208.6, -1127334.5, 81505.23, -0.20606767, 0.107256405, -936413.56, 189521.66, 0.0, 10.001346, 9.999321 
7.850768e+2, 1.951078e+2, -975723.44, -1078757.8, 71120.13, -0.015666116, 0.012988663, -939422.06, 88526.98, 0.0, 10.000649, 9.999313 
7.850821e+2, 2.0510772e+2, -878016.56, -864107.75, 70552.016, 0.028491318, 0.02482991, -800168.2, 129780.85, 0.0, 10.000144, 10.000362 
7.8508586e+2, 2.1510838e+2, -848280.4, -801164.56, 47232.67, -0.06001164, 0.026262833, -771940.9, 59998.54, 0.0, 9.999684, 10.000342 
7.850901e+2, 2.2510856e+2, -827803.25, -911656.1, 28509.428, -0.053587604, 0.093538605, -819028.44, -85089.555, 0.0, 9.999898, 9.998802 
7.850947e+2, 2.3510793e+2, -612050.2, -761381.0, 29554.096, 0.035951637, 0.116571926, -606413.9, 29536.797, 0.0, 10.000717, 9.998774 
7.8509843e+2, 2.4510731e+2, -446861.34, -565904.9, 59207.56, 0.039272755, 0.15677541, -422428.5, 115529.414, 0.0, 10.000907, 9.99934 
7.851015e+2, 2.5510642e+2, -410370.88, -501832.88, 33985.53, -0.041988365, 0.098712645, -399125.22, 40838.777, 0.0, 10.000486, 9.999314 
7.851055e+2, 2.6510528e+2, -346960.47, -465673.4, 35648.37, -0.011575667, 0.08108746, -337078.25, 4894.2725, 0.0, 10.000478, 9.998889 
7.851105e+2, 2.7510348e+2, -193571.63, -343438.3, 23211.428, 0.13495243, -0.021254856, -190058.95, 53928.723, 0.0000001311964, 10.000861, 9.998874 
7.851139e+2, 2.8510237e+2, -122044.3, -319608.5, 35163.52, 0.12536821, 0.012401635, -115972.32, 30027.377, 0.0000058891046, 10.00093, 9.998328 
7.8511584e+2, 2.9510182e+2, -79361.42, -252335.1, 9449.587, -0.016867772, 0.08137131, -78846.72, -30837.225, 0.000037489564, 10.000553, 9.998296 
7.851197e+2, 3.0509984e+2, -20200.2, -180955.86, 98363.55, -0.089844815, 0.058782987, 26449.46, 26449.46, 0.00011865352, 10.000566, 9.998455 
7.851283e+2, 3.1509873e+2, 112545.195, 73694.45, -19326.71, 0.24896936, 0.053037755, 120521.77, 120521.77, 0.00025448482, 10.000563, 10.000205 
7.9504526e+2, 1.2510732e+2, -1728612.1, -1840744.9, -69713.336, -0.13021193, 0.19106892, -1695216.9, 18736.781, 0.0000000034592607, 10.000324, 9.998953 
7.950493e+2, 1.3510497e+2, -1471347.8, -1668688.5, -69210.03, -0.08491109, 0.031638004, -1449494.8, 166484.14, 0.0, 10.001512, 9.998883 
7.950523e+2, 1.451046e+2, -1284880.6, -1376404.1, -36398.023, -0.2273777, 0.047426425, -1272170.6, 245811.72, 0.0, 10.00143, 10.000255 
7.950587e+2, 1.5510494e+2, -1312833.8, -1338397.8, 35463.117, -0.0910106, 0.008827261, -1287919.5, 132056.88, 0.0, 10.000574, 10.000255 
7.950636e+2, 1.6510509e+2, -1238167.3, -1286508.5, 26106.748, -0.082149535, 0.018997146, -1226760.1, 95212.555, 0.0, 10.000549, 9.999961 
7.9506713e+2, 1.7510483e+2, -1035942.3, -1135839.0, 48478.844, -0.17862736, -0.036043197, -1016284.4, 207689.08, 0.0, 10.001264, 9.99997 
7.950716e+2, 1.851047e+2, -984461.2, -1120012.6, 39328.47, -0.18631597, -0.015117969, -973877.0, 152098.02, 0.0, 10.001204, 9.999435 
7.9507667e+2, 1.9510421e+2, -982604.25, -1063746.3, 60231.47, -0.1266186, -0.042907592, -950554.06, 77427.48, 0.0, 10.000529, 9.999469 
7.9508173e+2, 2.0510429e+2, -914695.44, -901182.7, 36104.86, -0.052605625, -0.013565741, -871207.44, 58773.74, 0.0, 9.999976, 10.000187 
7.9508674e+2, 2.1510446e+2, -887659.06, -840966.1, 46342.766, 0.02453673, -0.04785837, -812421.25, 19557.213, 0.0, 9.999502, 10.000156 
7.9509056e+2, 2.2510469e+2, -827461.06, -862130.9, 46290.813, -0.02078163, 0.010899743, -795365.8, -61388.598, 0.0, 9.999687, 9.999245 
7.9509336e+2, 2.3510464e+2, -606505.5, -710070.94, 77993.05, -0.19183141, 0.049610704, -564670.06, 71310.6, 0.0, 10.000541, 9.999213 
7.9509777e+2, 2.451043e+2, -488955.16, -612645.5, 27616.182, -0.14618096, 0.106018834, -483069.4, 54915.848, 0.0, 10.000736, 9.999101 
7.9510385e+2, 2.5510326e+2, -453331.0, -551024.8, 34784.74, 0.105592676, 0.060680106, -442211.28, -2216.3328, 0.0, 10.000317, 9.999059 
7.951074e+2, 2.6510227e+2, -344429.72, -441361.7, 35681.53, 0.09604628, 0.05703591, -332711.63, 9291.3955, 0.0, 10.000387, 9.999102 
7.9510874e+2, 2.7510092e+2, -196672.17, -328101.97, 60021.984, -0.15873343, -0.016758317, -173386.58, 70626.016, 0.000000103459534, 10.00076, 9.99903 
7.9511267e+2, 2.8509995e+2, -151493.97, -364515.38, 7352.791, -0.12544313, 0.038842015, -151240.47, -5218.282, 0.0000054454867, 10.000861, 9.998053 
7.951186e+2, 2.9509908e+2, -114301.766, -299438.5, 20374.88, 0.15764369, 0.104996845, -112085.96, -64052.438, 0.00003447301, 10.000442, 9.998028 
7.9512286e+2, 3.0509663e+2, -28589.441, -180596.38, 94557.34, 0.13702856, 0.037892595, 16723.283, 16723.283, 0.0001104858, 10.000486, 9.998494 
7.9512644e+2, 3.1509608e+2, 50322.406, -22270.373, 21298.986, -0.07947136, 0.08746707, 56110.156, 56110.156, 0.000240168, 10.000415, 9.999616 
8.050457e+2, 1.2510304e+2, -1698256.4, -1774449.5, -36247.375, -0.09229747, 0.21348895, -1683767.5, 30230.395, 0.0000000057252847, 10.000322, 9.999423 
8.0505145e+2, 1.3510032e+2, -1630412.5, -1725706.4, 41555.92, 0.052543715, 0.00056405325, -1614836.6, 1188.2035, 0.0, 10.00032, 9.99909 
8.050545e+2, 1.4510007e+2, -1441681.1, -1414744.9, 97607.25, -0.07036069, 0.0016115786, -1329680.9, 188345.17, 0.0, 10.000196, 10.0005865 
8.050589e+2, 1.5510122e+2, -1335974.0, -1320373.5, 49516.637, -0.10345463, 0.016790127, -1278046.5, 141965.33, 0.0, 10.000282, 10.000527 
8.050636e+2, 1.6510165e+2, -1308592.3, -1293057.0, 52681.0, -0.09560619, 0.029894724, -1247574.0, 74431.45, 0.0, 9.999972, 10.000193 
8.0506885e+2, 1.7510116e+2, -1301710.3, -1242771.1, 39739.81, -0.029045891, -0.06536928, -1222766.4, 1242.3193, 0.0, 9.99936, 10.00016 
8.050733e+2, 1.8510126e+2, -1209552.1, -1170844.8, 71189.664, -0.035121344, -0.05499368, -1116424.9, 9582.663, 0.0, 9.999428, 9.999937 
8.0507684e+2, 1.951015e+2, -1022281.06, -1034491.4, 81613.29, -0.1274647, -0.055401303, -946544.94, 81461.21, 0.0, 10.000058, 9.999904 
8.050815e+2, 2.0510182e+2, -837011.25, -915788.0, 89748.29, -0.09863259, 0.0019753454, -778388.4, 151616.03, 0.0, 10.000732, 9.999725 
8.0508727e+2, 2.1510182e+2, -653946.0, -779380.56, 42524.383, 0.04554175, -0.0020785963, -640888.7, 191117.45, 0.0, 10.00133, 9.999697 
8.0509144e+2, 2.251018e+2, -579748.7, -721747.6, 52360.31, 0.01924115, 0.04352177, -562529.5, 171478.14, 0.0, 10.001299, 9.999426 
8.05094e+2, 2.3510142e+2, -589086.7, -679899.94, 33810.938, -0.18107484, 0.030285992, -577881.1, 58130.73, 0.0, 10.000578, 9.9993925 
8.050983e+2, 2.4510095e+2, -567896.6, -677909.9, -1874.8961, -0.14407867, 0.077748016, -567864.7, -29847.559, 0.0, 10.00029, 9.9988785 
8.051043e+2, 2.551e+2, -460432.8, -578831.2, -25023.307, 0.13323773, 0.062279463, -455361.4, -15333.881, 0.0, 10.0003605, 9.998856 
8.0510795e+2, 2.6509908e+2, -360775.28, -451984.1, 9459.129, 0.13137822, 0.080025956, -359804.63, -17769.227, 0.0, 10.000275, 9.999092 
8.0510944e+2, 2.7509785e+2, -299145.47, -374333.9, -12124.817, -0.12646346, 0.011362948, -297238.6, -53194.137, 0.00000004701224, 10.000027, 9.999072 
8.0511343e+2, 2.8509668e+2, -217281.55, -389454.94, -12643.5205, -0.09491662, 0.04334825, -216358.03, -70303.48, 0.000004093495, 10.00038, 9.998114 
8.051199e+2, 2.9509532e+2, 30273.635, -219507.55, -13479.202, 0.20531929, 0.050636865, 30998.92, 79067.4, 0.000029631305, 10.001398, 9.998115 
8.0512446e+2, 3.050932e+2, 88772.94, -122245.03, 67700.27, 0.2246796, 0.01355978, 108625.32, 108625.32, 0.00010221737, 10.001277, 9.998529 
8.051269e+2, 3.150931e+2, -104090.05, -146612.42, -57018.99, -0.017054515, 0.10939548, -64497.285, -64497.285, 0.00023173698, 9.999571, 9.99918 
8.150463e+2, 1.2509666e+2, -1560298.6, -1503703.3, -103550.555, -0.15106076, 0.018657496, -1424653.5, 289407.5, 0.000000004999778, 10.000382, 10.001255 
8.1505305e+2, 1.3509725e+2, -1509756.1, -1481916.5, 52417.145, 0.13713458, -0.033842336, -1441602.4, 174448.02, 0.0, 10.000359, 10.000739 
8.1505626e+2, 1.4509799e+2, -1491420.9, -1526203.8, 79048.92, 0.0383218, 0.02655765, -1427872.9, 90168.87, 0.0, 10.000222, 9.999815 
8.15059e+2, 1.5509851e+2, -1385372.9, -1423429.0, 68419.49, -0.15861078, 0.055181935, -1333384.8, 86653.91, 0.0, 10.000281, 9.999823 
8.150635e+2, 1.6509877e+2, -1309747.1, -1281018.8, 11987.488, -0.14420603, 0.08040118, -1276673.9, 45362.43, 0.0, 9.999911, 10.000301 
8.150699e+2, 1.7509843e+2, -1297419.6, -1221494.6, 34264.582, 0.101401135, -0.01617341, -1208318.0, 15719.908, 0.0, 9.999313, 10.000322 
8.150743e+2, 1.8509887e+2, -1168754.5, -1069696.9, 79777.04, 0.09782676, -0.016265951, -1025324.25, 100707.77, 0.0, 9.999345, 10.000677 
8.1507677e+2, 1.9509971e+2, -987555.9, -938840.5, 122158.055, -0.17098817, -0.032452423, -838635.4, 189386.94, 0.0, 9.999948, 10.000615 
8.1508106e+2, 2.0510037e+2, -927365.7, -1057006.3, 94477.11, -0.24141656, 0.068510994, -877610.25, 52407.734, 0.0, 10.000532, 9.998855 
8.1508714e+2, 2.151005e+2, -743602.44, -914944.3, 81158.6, -0.12584299, 0.160719, -711263.94, 120758.42, 0.0, 10.001111, 9.998872 
8.150921e+2, 2.2509989e+2, -619160.94, -744599.6, 7591.6533, -0.071697794, 0.19229905, -618703.2, 115326.85, 0.0, 10.001053, 9.999387 
8.150958e+2, 2.3509818e+2, -625634.06, -701882.44, 22706.455, -0.091256835, 0.05146566, -619384.44, 16660.299, 0.0, 10.000349, 9.99935 
8.150993e+2, 2.4509725e+2, -610709.44, -722101.1, -15500.123, -0.09743489, 0.06364499, -608592.8, -70538.79, 0.0, 10.000098, 9.998668 
8.1510276e+2, 2.5509673e+2, -501216.75, -624954.0, -5211.8057, -0.087687105, 0.11012705, -500997.63, -60936.348, 0.0, 10.000195, 9.998621 
8.151069e+2, 2.6509586e+2, -385503.63, -475956.28, -14800.077, -0.030712923, 0.151355, -383143.56, -41074.074, 0.0, 10.000166, 9.998976 
8.151117e+2, 2.7509427e+2, -335636.75, -405797.03, -764.4604, 0.0634137, 0.06274233, -335628.44, -91545.69, 0.000000004527389, 9.999847, 9.998939 
8.151158e+2, 2.8509256e+2, -202014.97, -342663.56, 10300.829, 0.0590862, 0.02794202, -201264.56, -55167.74, 0.0000024308686, 10.000304, 9.998474 
8.1511927e+2, 2.9509062e+2, 28851.607, -190652.97, 48937.84, -0.0409228, -0.05824302, 39267.855, 87381.27, 0.00002455122, 10.001261, 9.998381 
8.1512415e+2, 3.050895e+2, 85259.516, -117662.14, -6705.6294, 0.034180276, -0.0044596596, 85480.86, 85480.86, 0.00009685274, 10.001237, 9.998573 
8.1512815e+2, 3.150894e+2, -148512.22, -184009.56, -50481.625, 0.07744703, 0.08377257, -112750.05, -112750.05, 0.00023260372, 9.99936, 9.99902 
8.2504773e+2, 1.2509283e+2, -1586761.0, -1502801.1, 50395.195, -0.014327979, -0.08026437, -1479191.5, 234904.75, 0.0000000017683296, 10.000133, 10.001381 
8.250529e+2, 1.3509485e+2, -1476870.1, -1471430.8, 34240.984, 0.098418124, 0.0075710807, -1439801.6, 176270.58, 0.0, 10.000589, 10.000709 
8.250568e+2, 1.4509556e+2, -1433806.6, -1513412.5, 65110.57, 0.050215505, 0.073543236, -1397296.6, 120767.98, 0.0, 10.000693, 9.99967 
8.250604e+2, 1.5509555e+2, -1324470.6, -1411819.6, 57229.305, -0.060108807, 0.06625829, -1296154.5, 123913.06, 0.0, 10.000791, 9.999645 
8.250647e+2, 1.6509561e+2, -1200938.6, -1260967.5, 21716.475, -0.040925976, 0.09232279, -1193906.1, 128162.125, 0.0, 10.000771, 10.00003 
8.2506996e+2, 1.750954e+2, -1144103.4, -1186367.0, -20227.158, 0.12901373, 0.034963816, -1135983.0, 88087.16, 0.0, 10.000498, 10.000006 
8.250743e+2, 1.8509577e+2, -1034201.06, -1029384.7, 35038.18, 0.11741942, 0.055206567, -996672.06, 129393.69, 0.0, 10.000362, 10.000465 
8.2507765e+2, 1.9509636e+2, -943674.1, -943117.8, -26813.78, -0.0928606, 0.03422261, -916580.75, 111478.61, 0.0, 10.000346, 10.000393 
8.2508194e+2, 2.0509675e+2, -944423.56, -1030936.3, -13774.619, -0.18100357, 0.104614206, -942283.3, -12226.775, 0.0, 10.000276, 9.999145 
8.2508755e+2, 2.150967e+2, -868070.8, -946421.56, 19246.232, -0.14479376, 0.15135111, -863598.44, -31538.371, 0.0, 10.000135, 9.9991255 
8.250925e+2, 2.2509609e+2, -750390.5, -832593.44, -874.1158, -0.08554808, 0.18048847, -750381.2, -16314.001, 0.0, 10.000235, 9.999194 
8.250969e+2, 2.3509453e+2, -611810.56, -718516.3, -29965.465, -0.0049840873, 0.07549351, -603971.44, 32110.375, 0.0, 10.000525, 9.999165 
8.251004e+2, 2.4509358e+2, -516357.44, -643690.1, -14170.465, -0.012110237, 0.080320254, -514799.5, 23291.389, 0.0, 10.0006075, 9.998958 
8.251029e+2, 2.5509286e+2, -429010.0, -554473.1, -1232.7754, -0.1026522, 0.07841905, -428997.88, 11099.973, 0.0, 10.000547, 9.99893 
8.251072e+2, 2.6509202e+2, -308509.7, -478192.94, 37361.645, -0.04375857, 0.12159717, -300647.53, 41458.766, 0.0, 10.000865, 9.998622 
8.251133e+2, 2.7509055e+2, -119182.96, -338057.1, -389.43094, 0.16582695, 0.07963861, -119182.27, 124938.414, 0.0, 10.001496, 9.998605 
8.2511747e+2, 2.8508896e+2, -28286.928, -228721.27, 33699.473, 0.1559549, 0.057457462, -22772.666, 123362.14, 0.000001518397, 10.001374, 9.998742 
8.2512e+2, 2.950869e+2, -64131.457, -204638.13, 28278.086, -0.046524417, -0.06566011, -58653.813, -10502.17, 0.000022026383, 10.000473, 9.998667 
8.251249e+2, 3.0508637e+2, -51373.348, -164322.75, -5357.8325, 0.05170108, 0.023432883, -51119.766, -51119.766, 0.00009707927, 10.000228, 9.99873 
8.2512885e+2, 3.150856e+2, 47459.21, -38978.598, -81036.62, 0.1680792, 0.020584676, 96081.516, 96081.516, 0.00024343749, 10.000467, 9.999476 
8.350488e+2, 1.250921e+2, -1706295.1, -1736724.6, 19096.832, -0.0017106554, -0.02929447, -1697093.1, 17005.043, 0.000000000051048894, 10.000079, 9.9998 
8.350509e+2, 1.3509329e+2, -1574006.0, -1675376.5, 66329.16, -0.20448817, 0.12821734, -1541213.5, 74875.13, 0.0, 10.000609, 9.999294 
8.350555e+2, 1.4509287e+2, -1418358.8, -1477615.3, 46347.004, -0.19729525, 0.13796021, -1392979.1, 125114.48, 0.0, 10.000675, 9.999924 
8.350625e+2, 1.5509236e+2, -1307071.4, -1370282.4, 76174.81, 0.02470578, 0.046520203, -1256205.6, 163892.8, 0.0, 10.000767, 9.999938 
8.3506685e+2, 1.6509219e+2, -1259360.0, -1359213.3, -7037.088, 0.060474858, 0.06494761, -1258866.5, 63235.01, 0.0, 10.000673, 9.999406 
8.350688e+2, 1.7509219e+2, -1195909.8, -1278702.9, -12562.529, -0.07217687, 0.09592947, -1194045.5, 30058.242, 0.0, 10.000442, 9.999395 
8.350729e+2, 1.8509212e+2, -1131185.1, -1209623.9, 17211.895, -0.09996176, 0.16252817, -1127574.5, -1467.2938, 0.0, 10.00027, 9.999277 
8.350788e+2, 1.9509147e+2, -1043278.8, -1112665.6, -10393.345, -0.04068483, 0.13595095, -1041755.44, -13639.007, 0.0, 10.000194, 9.9993 
8.350837e+2, 2.0509106e+2, -877480.2, -851175.1, -35004.055, -0.06284124, 0.11113118, -826934.1, 103184.79, 0.0, 10.00009, 10.000473 
8.350877e+2, 2.1509053e+2, -803868.9, -766632.9, 31698.725, -0.16814893, -0.025282048, -748488.94, 83629.28, 0.0, 9.999933, 10.000455 
8.3509225e+2, 2.2509047e+2, -803587.0, -896837.8, -6946.426, -0.1628195, 0.01008572, -803072.4, -68954.234, 0.0, 10.000029, 9.998855 
8.350972e+2, 2.3509052e+2, -665117.4, -784329.25, -935.4202, -0.06308226, 0.0986919, -665110.0, -28987.818, 0.0, 10.000323, 9.998815 
8.351011e+2, 2.4509002e+2, -486313.78, -543312.25, -31520.656, -0.03221724, 0.12805575, -472318.78, 65807.96, 0.0, 10.000439, 9.999729 
8.351041e+2, 2.5508857e+2, -398969.34, -459907.03, 15078.798, -0.06856086, -0.025276363, -395442.28, 44693.72, 0.0, 10.000401, 9.999651 
8.3510834e+2, 2.6508763e+2, -364744.25, -568431.9, 46167.504, -0.04607956, 0.0035347608, -354768.56, -12623.598, 0.0, 10.000749, 9.99806 
8.351137e+2, 2.750868e+2, -180996.31, -431715.2, 44157.11, 0.025881972, 0.07844415, -173446.61, 70710.836, 0.0, 10.001345, 9.998035 
8.351181e+2, 2.8508586e+2, -25051.418, -197227.55, -15471.7295, 0.04815167, 0.13713717, -23672.178, 122495.96, 0.0000012583888, 10.001272, 9.999007 
8.351215e+2, 2.9508433e+2, -74135.94, -184283.3, 16073.752, 0.014031796, 0.043408208, -71838.234, -23656.668, 0.000022671806, 10.000299, 9.998894 
8.351261e+2, 3.0508384e+2, -37406.97, -118044.36, -1692.6666, 0.11567438, 0.10475427, -37371.453, -37371.453, 0.0001036696, 10.0001545, 9.999081 
8.3512783e+2, 3.150837e+2, 90031.57, 93800.17, 11345.1875, -0.065303735, 0.13657485, 103416.48, 103416.48, 0.00026239955, 10.00029, 10.00047 
8.4505e+2, 1.2508944e+2, -1717930.5, -1807573.8, -50777.883, 0.123174116, 0.024831286, -1695022.0, 19100.438, 0.0, 10.000265, 9.999226 
8.4505165e+2, 1.3508932e+2, -1545530.0, -1713000.4, -452.84604, -0.19728537, 0.09381519, -1545528.8, 70597.8, 0.0, 10.001021, 9.998838 
8.4505635e+2, 1.4508827e+2, -1409194.4, -1498133.3, 7317.8535, -0.17724463, 0.07342845, -1408596.4, 109542.445, 0.0, 10.000846, 9.999701 
8.450631e+2, 1.5508795e+2, -1411048.9, -1450779.3, -39331.477, 0.046208628, 0.026388803, -1386850.6, 33292.383, 0.0, 10.000176, 9.999678 
8.4506726e+2, 1.6508804e+2, -1328434.4, -1356311.1, -55384.043, 0.0728733, 0.071520515, -1285261.8, 36881.824, 0.0, 10.000067, 9.999709 
8.4506905e+2, 1.7508839e+2, -1186540.3, -1241827.5, -30513.291, -0.082510054, 0.107776344, -1173010.6, 51131.355, 0.0, 10.000389, 9.999666 
8.450731e+2, 1.8508838e+2, -1109040.8, -1219236.5, 91788.67, -0.101024374, 0.17515604, -1057082.9, 69061.92, 0.0, 10.000517, 9.9990835 
8.450794e+2, 1.9508752e+2, -1029201.0, -1135052.1, 102994.086, -0.001526289, 0.14794578, -966329.75, 61826.777, 0.0, 10.000409, 9.999045 
8.4508455e+2, 2.0508692e+2, -842592.06, -842647.7, 89752.984, 0.003459197, 0.12089907, -752866.9, 177294.31, 0.0, 10.000374, 10.000394 
8.4508854e+2, 2.1508619e+2, -757819.6, -757339.9, 14859.241, -0.08161806, -0.021446917, -742718.56, 89443.97, 0.0, 10.00031, 10.000338 
8.4509283e+2, 2.250861e+2, -750529.6, -836537.8, -10474.461, -0.105025835, 0.00033870552, -749272.4, -15110.05, 0.0, 10.000261, 9.999144 
8.4509724e+2, 2.3508635e+2, -666738.75, -747514.56, 3444.403, -0.07172811, 0.07908189, -666592.1, -30429.473, 0.0, 10.00018, 9.99912 
8.451014e+2, 2.4508613e+2, -492148.16, -549704.8, 3416.5603, -0.033451017, 0.12319746, -491946.06, 46218.41, 0.0, 10.000415, 9.999701 
8.451055e+2, 2.5508505e+2, -327830.78, -423005.97, -42174.38, 0.016492935, 0.0085435845, -311831.75, 128340.18, 0.0, 10.0008955, 9.9996605 
8.451098e+2, 2.6508418e+2, -325056.8, -521039.75, 20961.055, 0.022930482, 0.028948715, -322840.0, 19340.229, 0.0, 10.000886, 9.998319 
8.451142e+2, 2.7508312e+2, -295167.6, -460318.94, 45163.89, -0.005249491, 0.060369764, -283623.56, -39430.586, 0.0000000050987805, 10.000425, 9.998292 
8.451184e+2, 2.8508246e+2, -186968.08, -269383.16, 21211.521, 0.021318946, 0.13126275, -181829.2, -35628.19, 0.0000017149706, 10.000126, 9.999059 
8.451224e+2, 2.9508168e+2, -124915.57, -191140.3, -484.13803, 0.10622597, 0.09910649, -124912.03, -76703.07, 0.0000255943, 9.999885, 9.999033 
8.451268e+2, 3.050808e+2, -35596.938, -106199.46, 42351.41, 0.19233976, 0.11132273, -15763.626, -15763.626, 0.000114914044, 10.000104, 9.999195 
8.451284e+2, 3.1508017e+2, 129409.88, 157332.2, 7854.936, -0.02116707, 0.08056684, 159390.22, 159390.22, 0.00028702893, 10.000332, 10.000898 
8.5505044e+2, 1.2508476e+2, -1709064.8, -1773939.0, -56107.008, 0.058637157, 0.05354227, -1676693.3, 37476.363, 0.0, 10.000216, 9.999475 
8.5505444e+2, 1.350831e+2, -1515179.0, -1631717.3, 37329.63, -0.051974226, -0.08759646, -1504247.0, 111937.4, 0.0, 10.000972, 9.999404 
8.5505885e+2, 1.4508197e+2, -1461597.4, -1604971.6, -38176.297, -0.057028167, -0.10864028, -1452065.8, 66132.17, 0.0, 10.000822, 9.99899 
8.550618e+2, 1.550825e+2, -1457372.8, -1546366.4, -41752.883, -0.13925268, 0.0010409006, -1440851.0, -20651.756, 0.0, 10.000174, 9.999025 
8.550655e+2, 1.6508333e+2, -1263389.5, -1209264.0, -61241.977, -0.13800491, 0.10263945, -1169371.8, 152821.5, 0.0, 10.000012, 10.000747 
8.5507005e+2, 1.7508402e+2, -1117785.9, -1086400.9, -2831.0833, -0.051774077, 0.06496111, -1086147.5, 138037.08, 0.0, 10.000337, 10.000757 
8.550745e+2, 1.8508458e+2, -1072526.5, -1122347.8, 71483.21, -0.045475893, 0.09791355, -1021737.8, 104440.7, 0.0, 10.000411, 9.999807 
8.5507894e+2, 1.9508465e+2, -991280.25, -1035391.8, 113917.73, -0.12544784, 0.088546745, -897302.8, 130875.54, 0.0, 10.00031, 9.99978 
8.5508406e+2, 2.0508447e+2, -977250.7, -1083669.8, 69281.875, -0.11321495, 0.14865792, -943103.3, -12921.276, 0.0, 10.000206, 9.998825 
8.550897e+2, 2.1508363e+2, -894514.44, -989437.2, 29837.785, -0.023440264, 0.14888524, -885914.5, -53720.78, 0.0, 10.000091, 9.998849 
8.5509396e+2, 2.2508289e+2, -721294.4, -728693.1, -29544.803, -0.04616486, 0.13808878, -695218.25, 38981.754, 0.0, 10.000051, 9.99999 
8.5509664e+2, 2.3508197e+2, -634643.4, -638571.8, 19360.86, -0.17826931, 0.012351973, -617147.4, 19056.352, 0.0, 9.99999, 9.999963 
8.5510087e+2, 2.4508189e+2, -577183.06, -681003.44, 5248.2285, -0.15549642, 0.07040958, -576918.44, -38714.42, 0.0, 10.000227, 9.998888 
8.551068e+2, 2.5508216e+2, -412728.94, -552752.3, -7161.7876, 0.01662227, 0.17081945, -412363.6, 27842.455, 0.0, 10.000696, 9.998866 
8.551112e+2, 2.6508138e+2, -270361.1, -374396.2, -13401.311, 0.047999162, 0.18827538, -268662.53, 73550.88, 0.0, 10.000741, 9.999401 
8.551143e+2, 2.750794e+2, -240795.55, -315927.25, 49083.414, -0.07438019, 0.015571506, -216552.22, 27676.334, 0.0000001292932, 10.000294, 9.999349 
8.55118e+2, 2.8507882e+2, -203887.97, -286808.4, -715.9505, -0.072299525, 0.047344986, -203881.78, -57648.83, 0.0000031613251, 10.000046, 9.998978 
8.551222e+2, 2.9507887e+2, -145271.38, -214804.88, 11474.746, 0.044695396, 0.10887889, -143426.7, -95192.445, 0.000030116835, 9.999792, 9.99892 
8.5512656e+2, 3.050772e+2, -55410.836, -112687.086, 41126.027, 0.13030332, 0.045338318, -33934.17, -33934.17, 0.00012742863, 9.999987, 9.999196 
8.551299e+2, 3.150752e+2, 68119.17, 79554.484, 87817.914, 0.009076347, -0.114680104, 161840.67, 161840.67, 0.00031382052, 10.000144, 10.000449 
8.6505103e+2, 1.2508023e+2, -1665340.3, -1726768.0, 37934.45, 0.10656525, 0.045206506, -1647244.6, 66969.78, 0.00000000000000000000885557, 10.000394, 9.999715 
8.6505556e+2, 1.350788e+2, -1624353.9, -1659156.5, 45406.707, 0.0160167, -0.104204446, -1593128.4, 23097.893, 0.0, 10.000077, 9.999664 
8.6505973e+2, 1.450781e+2, -1610721.3, -1636123.3, 19918.893, 0.02710267, -0.1149878, -1599798.6, -81563.63, 0.0, 9.999627, 9.999347 
8.650616e+2, 1.5507902e+2, -1548433.1, -1563966.3, 51439.07, -0.13346188, 0.0062772986, -1504177.6, -83945.98, 0.0, 9.999415, 9.999283 
8.650651e+2, 1.6507985e+2, -1354055.8, -1268011.3, 89099.555, -0.14658625, 0.099908605, -1212090.9, 110134.984, 0.0, 9.999452, 10.000609 
8.650704e+2, 1.7508021e+2, -1212945.6, -1153116.1, 22287.762, -0.015236168, 0.042132154, -1145726.3, 78494.96, 0.0, 9.999758, 10.00058 
8.6507523e+2, 1.8508075e+2, -1117780.8, -1090593.0, 58412.14, 0.018076206, 0.059331175, -1044213.75, 82000.6, 0.0, 9.999894, 10.000262 
8.6507964e+2, 1.9508119e+2, -1027127.6, -1004201.9, 48722.676, -0.0554646, 0.046626568, -965611.8, 62596.438, 0.0, 9.999875, 10.000195 
8.650846e+2, 2.050813e+2, -1013691.9, -1150623.1, 75550.164, -0.063093424, 0.13544452, -980199.8, -49989.617, 0.0, 10.000173, 9.998377 
8.650901e+2, 2.1508062e+2, -844459.4, -1022666.3, 79912.27, -0.019933108, 0.1960019, -813874.06, 18350.012, 0.0, 10.000671, 9.998346 
8.650944e+2, 2.250796e+2, -626472.8, -679155.9, 43683.188, -0.026993662, 0.18231636, -601803.56, 132430.2, 0.0, 10.000708, 10.000008 
8.6509764e+2, 2.35078e+2, -585633.56, -613711.8, -5853.831, -0.07989413, -0.009954333, -584462.0, 51779.723, 0.0, 10.000335, 9.999963 
8.65102e+2, 2.4507776e+2, -586424.6, -704866.1, 25758.586, -0.06433338, 0.038382433, -581065.2, -42821.242, 0.0, 10.000254, 9.998705 
8.6510724e+2, 2.5507838e+2, -453864.5, -594093.4, 25083.592, 0.0154101085, 0.19501297, -449512.72, -9267.85, 0.0, 10.00051, 9.998672 
8.6511153e+2, 2.6507783e+2, -282243.6, -333577.2, 25811.422, 0.026927263, 0.22319457, -271509.66, 70740.62, 0.0000000005766255, 10.000472, 9.999803 
8.651149e+2, 2.750758e+2, -227445.38, -266238.4, -3701.1367, -0.024823321, 0.011513256, -227095.42, 17167.855, 0.000000514823, 10.000206, 9.999726 
8.6511856e+2, 2.8507516e+2, -183921.83, -288796.06, -30124.766, -0.017102662, 0.024196008, -175884.55, -29617.271, 0.0000054394536, 10.000241, 9.9988785 
8.6512244e+2, 2.9507533e+2, -44076.305, -172346.83, -54142.344, 0.06783667, 0.10581228, -24278.705, 23989.146, 0.000035908153, 10.000527, 9.998863 
8.651269e+2, 3.050735e+2, 60864.24, -106133.67, 12733.492, 0.1274446, 0.049207438, 61829.58, 61829.58, 0.00014009468, 10.0009775, 9.998767 
8.65132e+2, 3.1507152e+2, 156326.88, 66279.83, -24340.502, 0.17423706, -0.06371199, 162485.16, 162485.16, 0.00033844914, 10.001016, 9.999922 
8.750508e+2, 1.2507619e+2, -1657071.3, -1704042.9, -7004.205, -0.037481643, 0.035477035, -1656049.0, 58204.617, 0.0000000055054987, 10.000368, 9.999881 
8.750545e+2, 1.3507648e+2, -1614962.9, -1623216.4, 47057.75, -0.13161857, 0.033351332, -1571851.3, 44400.0, 0.0, 10.000027, 9.999922 
8.750588e+2, 1.4507672e+2, -1534284.9, -1473227.0, -9468.598, -0.07881633, 0.0496108, -1471792.4, 46456.457, 0.0, 9.999599, 10.000482 
8.7506175e+2, 1.5507765e+2, -1469420.5, -1390159.9, 59242.594, -0.09298382, 0.048372913, -1358514.4, 61725.03, 0.0, 9.999382, 10.000484 
8.750653e+2, 1.6507784e+2, -1451013.3, -1461140.6, 81811.58, -0.10973936, 0.08210773, -1374108.9, -51869.563, 0.0, 9.999403, 9.999313 
8.750695e+2, 1.7507716e+2, -1309407.0, -1345115.5, 49131.113, -0.110300586, 0.051724385, -1274986.6, -50737.188, 0.0, 9.999718, 9.999282 
8.750748e+2, 1.8507713e+2, -1121877.3, -1078948.9, 42005.0, -0.046771776, 0.07258786, -1053241.8, 73008.05, 0.0, 9.999808, 10.000384 
8.7508106e+2, 1.9507724e+2, -1035470.9, -987285.75, 66404.56, 0.06591727, 0.010189108, -940738.25, 87507.48, 0.0, 9.999733, 10.000376 
8.7508583e+2, 2.0507744e+2, -1000599.56, -1082435.5, 78676.84, 0.013370995, 0.07058692, -952836.5, -22591.277, 0.0, 9.9999895, 9.998937 
8.750891e+2, 2.1507742e+2, -835845.56, -957350.3, 112385.79, -0.20864385, 0.1410541, -768842.6, 63408.773, 0.0, 10.0004635, 9.998896 
8.750939e+2, 2.2507651e+2, -719575.94, -824483.3, 11595.223, -0.17854881, 0.15874738, -718309.6, 15951.254, 0.0, 10.000495, 9.999114 
8.750999e+2, 2.3507443e+2, -680351.7, -756938.1, -1968.4257, 0.08409069, 0.0070263124, -680301.1, -44024.133, 0.0, 10.000103, 9.99909 
8.751042e+2, 2.4507365e+2, -578516.75, -654909.44, 18796.326, 0.1012412, 0.021388372, -574142.44, -35857.617, 0.0, 10.000095, 9.999129 
8.751065e+2, 2.550738e+2, -448500.75, -544990.7, 53172.164, -0.13256937, 0.088004194, -424948.38, 15339.207, 0.0, 10.000344, 9.999088 
8.7511027e+2, 2.6507354e+2, -317421.3, -393130.6, -214.13995, -0.17237623, 0.14489838, -317420.72, 24869.254, 0.0000000691861, 10.000401, 9.999433 
8.751155e+2, 2.7507246e+2, -271152.16, -326535.34, 5739.2285, -0.01982956, 0.05554368, -270563.66, -26266.813, 0.000001269736, 10.000071, 9.999377 
8.751198e+2, 2.8507173e+2, -199645.81, -307360.56, -34873.945, 0.047612082, 0.08172292, -189340.83, -43038.656, 0.000008255043, 10.000174, 9.99879 
8.751229e+2, 2.9507083e+2, -60674.598, -190863.28, -19630.375, 0.01902851, 0.07391769, -57779.05, -9468.082, 0.000042714033, 10.00045, 9.998778 
8.751274e+2, 3.0506957e+2, -8791.538, -229372.7, 7798.6167, 0.047956843, 0.11606074, -8516.163, -8516.163, 0.00015288098, 10.000889, 9.997958 
8.751338e+2, 3.150673e+2, 76816.63, -77175.78, 18009.756, 0.17471755, 0.054202758, 78894.87, 78894.87, 0.00035815634, 10.000908, 9.998994 
8.850511e+2, 1.250718e+2, -1716219.8, -1716495.6, 53146.035, -0.002205261, -0.039049346, -1663211.5, 51082.367, 0.00000006865043, 9.999899, 10.000026 
8.8505447e+2, 1.3507293e+2, -1658897.4, -1640270.4, 19976.807, -0.10720457, 0.04026412, -1627542.6, -11257.295, 0.0, 9.999701, 9.99997 
8.850585e+2, 1.4507365e+2, -1552159.9, -1446327.6, -25190.904, -0.039977826, 0.08644439, -1440637.4, 77641.34, 0.0, 9.99936, 10.000766 
8.850615e+2, 1.5507442e+2, -1455399.3, -1353059.6, -63974.01, -0.044687938, 0.044052612, -1322308.5, 97960.6, 0.0, 9.99937, 10.0007305 
8.8506526e+2, 1.6507424e+2, -1426847.9, -1462911.5, 23464.373, -0.054229964, 0.03719907, -1415287.1, -93016.125, 0.0, 9.999636, 9.999185 
8.8506985e+2, 1.750731e+2, -1261955.9, -1337667.6, 42182.266, -0.06666129, -0.025389772, -1243133.6, -18849.111, 0.0, 10.000115, 9.999143 
8.8507515e+2, 1.8507296e+2, -1086122.9, -1116407.6, 67036.65, -0.0105916755, 0.013154909, -1032539.7, 93747.86, 0.0, 10.000286, 9.999897 
8.850812e+2, 1.950732e+2, -1009807.5, -1032218.9, 10052.196, 0.09697799, 0.014635747, -1005959.5, 22326.322, 0.0, 10.00015, 9.999868 
8.85086e+2, 2.0507331e+2, -967433.9, -1025458.8, 35228.99, 0.03817073, 0.073756, -950808.56, -20522.158, 0.0, 10.00004, 9.999304 
8.850895e+2, 2.1507306e+2, -883855.5, -941293.44, 25579.01, -0.17785083, 0.08664779, -874115.9, -41823.957, 0.0, 9.999965, 9.99925 
8.850946e+2, 2.2507237e+2, -767886.25, -861323.3, -25129.79, -0.13387436, 0.11335845, -761556.44, -27257.299, 0.0, 10.000215, 9.99899 
8.8510096e+2, 2.350709e+2, -590868.2, -732332.3, -20662.78, 0.15471068, 0.033309877, -587911.9, 48399.945, 0.0, 10.000782, 9.998933 
8.851052e+2, 2.4507017e+2, -459948.84, -575168.6, 48437.598, 0.16191986, 0.054079138, -442291.88, 96027.09, 0.0, 10.00082, 9.999319 
8.85107e+2, 2.5506976e+2, -418124.38, -511269.34, 29585.262, -0.11603159, 0.044144597, -409521.84, 30802.969, 0.00000000006372724, 10.00045, 9.999268 
8.851107e+2, 2.6506943e+2, -335767.63, -429933.66, 8961.761, -0.1695273, 0.095155545, -334922.34, 7405.515, 0.00000025387644, 10.0004015, 9.999174 
8.8511616e+2, 2.7506873e+2, -185464.55, -311815.53, -15660.265, 0.0062037054, 0.073189855, -183552.52, 60779.85, 0.0000021793016, 10.000773, 9.999137 
8.851207e+2, 2.8506774e+2, -106690.4, -278499.6, -12718.13, 0.0899679, 0.09115125, -105754.05, 40586.51, 0.000011106664, 10.0009, 9.998617 
8.8512415e+2, 2.95066e+2, -13126.931, -187480.42, -42464.895, 0.08421985, 0.017503021, -3334.3396, 45022.168, 0.000049522223, 10.00087, 9.9985895 
8.851288e+2, 3.050648e+2, -7623.8257, -232557.75, 39594.11, 0.10646876, 0.075655036, -857.7763, -857.7763, 0.00016467013, 10.000904, 9.997939 
8.851356e+2, 3.1506336e+2, 28662.11, -84235.875, 34244.445, 0.29876345, 0.10403915, 38237.133, 38237.133, 0.00037312726, 10.000506, 9.999152 
8.9505076e+2, 1.2506704e+2, -1726549.3, -1714009.9, 7072.549, -0.09421379, -0.17848568, -1710828.1, 3507.3616, 0.00000033567557, 9.999821, 10.000067 
8.9505494e+2, 1.3506855e+2, -1665719.6, -1648111.0, 20882.027, -0.060267523, -0.05436519, -1634253.1, -17927.906, 0.00000000007521531, 9.999685, 9.999916 
8.950584e+2, 1.4506932e+2, -1601804.0, -1540814.8, -46061.36, -0.03551854, 0.028873527, -1516068.4, 2251.9656, 0.0, 9.999324, 10.000136 
8.950604e+2, 1.5506959e+2, -1506302.3, -1450233.0, -42134.035, -0.13318992, 0.0048015313, -1427659.1, -7341.0684, 0.0, 9.999336, 10.000079 
8.9506453e+2, 1.6506925e+2, -1368615.5, -1330676.1, 23314.236, -0.1324319, -0.030740643, -1319589.3, 2730.1565, 0.0, 9.999588, 10.000113 
8.9507073e+2, 1.7506811e+2, -1208201.8, -1204016.4, 77563.66, -0.019250479, -0.19193159, -1128517.1, 95808.96, 0.0, 10.000028, 10.000097 
8.9507574e+2, 1.8506826e+2, -1180922.4, -1288550.4, 44344.24, -0.009705721, -0.11498294, -1165005.8, -38678.652, 0.0, 10.00017, 9.9987755 
8.950796e+2, 1.9506924e+2, -1114240.3, -1206525.1, 19726.338, -0.10930478, 0.073872134, -1110200.5, -81873.914, 0.0, 9.99997, 9.998755 
8.950847e+2, 2.0506915e+2, -977999.1, -1008712.56, 15869.024, -0.1297423, 0.15646894, -971272.94, -40941.57, 0.0, 9.999867, 9.999505 
8.950908e+2, 2.1506764e+2, -899108.1, -921495.44, 42351.64, -0.07507804, 0.02263879, -866495.8, -34151.105, 0.0, 9.999749, 9.999487 
8.950961e+2, 2.2506724e+2, -760453.9, -800919.25, -19072.139, -0.027804807, 0.040370848, -752881.75, -18533.934, 0.0, 10.000009, 9.999512 
8.951005e+2, 2.3506758e+2, -583613.5, -665568.0, 15933.903, -0.005628989, 0.086595535, -580624.56, 55719.637, 0.0, 10.000558, 9.9995 
8.9510447e+2, 2.4506748e+2, -486867.28, -592030.94, 15756.811, -0.01866922, 0.1405097, -484557.16, 53788.027, 0.0, 10.000648, 9.999291 
8.9510816e+2, 2.5506642e+2, -452953.44, -532530.7, 32479.473, -0.07592959, 0.07423347, -441380.1, -1024.8656, 0.0000000002378373, 10.000232, 9.999232 
8.951121e+2, 2.650657e+2, -362189.16, -456644.5, 7835.566, -0.10042746, 0.092490494, -361543.56, -19181.928, 0.00000030747992, 10.00028, 9.999049 
8.9511627e+2, 2.7506483e+2, -220704.88, -349890.6, 20681.469, -0.093596965, 0.068290055, -217474.72, 26894.125, 0.0000026197797, 10.000629, 9.998944 
8.951207e+2, 2.850632e+2, -136414.22, -332778.06, -30532.902, -0.036879532, 0.052389685, -131776.16, 14606.908, 0.000013171274, 10.000853, 9.998273 
8.951254e+2, 2.9506066e+2, -49579.59, -240478.75, -23572.129, 0.071597874, -0.07254773, -46711.992, 1694.2603, 0.000055655084, 10.000758, 9.998283 
8.9513046e+2, 3.0505913e+2, 23806.537, -125995.914, 13260.526, 0.15606512, -0.06878778, 24971.303, 24971.303, 0.00017580122, 10.000757, 9.99873 
8.9513636e+2, 3.15058e+2, 81538.07, 93501.586, 45558.133, 0.24654977, -0.091762125, 133468.98, 133468.98, 0.00038747952, 10.000255, 10.000474 
9.050508e+2, 1.2506358e+2, -1737729.8, -1719646.1, 36184.87, -0.045462273, -0.17910865, -1691390.5, 22977.707, 0.0000010657902, 9.999694, 10.000105 
9.050547e+2, 1.350649e+2, -1708092.1, -1677372.8, -11346.832, -0.025171768, -0.07058862, -1673636.1, -57276.453, 0.000000007369457, 9.999415, 9.9998455 
9.050582e+2, 1.4506543e+2, -1606517.3, -1595010.6, -7646.077, 0.019326212, 0.0129316505, -1591195.1, -72837.484, 0.0, 9.999479, 9.9997 
9.050609e+2, 1.5506515e+2, -1425061.8, -1461351.1, -27293.629, -0.045475166, -0.026713405, -1410431.9, 9930.067, 0.0, 10.000078, 9.99966 
9.050651e+2, 1.6506486e+2, -1244770.1, -1253179.8, 54444.418, -0.057861354, -0.045780953, -1194368.4, 127994.83, 0.0, 10.00036, 10.000284 
9.0507096e+2, 1.7506412e+2, -1149958.4, -1156269.1, 11374.719, -0.0026049358, -0.18030906, -1141309.5, 83055.66, 0.0, 10.0003395, 10.0002775 
9.0507585e+2, 1.850644e+2, -1181772.8, -1297717.1, 5723.1616, -0.009201064, -0.09502011, -1181491.0, -55126.637, 0.0, 10.000187, 9.998708 
9.0507966e+2, 1.950653e+2, -1124607.9, -1226136.8, 28845.71, -0.09117279, 0.09267338, -1116984.8, -88620.04, 0.0, 9.999924, 9.99866 
9.050849e+2, 2.0506495e+2, -954862.44, -1002101.8, 102743.23, -0.089430384, 0.15806572, -873058.94, 57312.508, 0.0, 10.00006, 9.999445 
9.050915e+2, 2.1506296e+2, -775326.94, -870875.9, 68263.555, -0.01118034, -0.017672101, -739780.9, 92607.49, 0.0, 10.000638, 9.999402 
9.050968e+2, 2.2506255e+2, -688858.44, -760474.44, -2431.5952, 0.01971236, -0.000098765886, -688775.94, 45615.816, 0.0, 10.000496, 9.999551 
9.051005e+2, 2.3506334e+2, -700839.8, -720512.1, -36714.8, -0.00680121, 0.09307592, -672666.44, -36281.313, 0.0, 9.999756, 9.999512 
9.0510464e+2, 2.4506329e+2, -636012.7, -648630.4, -14288.935, -0.008465736, 0.14869507, -626701.8, -88316.695, 0.0, 9.999569, 9.999413 
9.0510905e+2, 2.550621e+2, -484150.63, -531064.3, -22896.9, 0.013565368, 0.051448893, -474828.03, -34433.074, 0.0, 9.999961, 9.999362 
9.0511316e+2, 2.6506123e+2, -384044.13, -474689.53, 2184.9739, -0.007947607, 0.05263275, -383991.5, -41589.17, 0.0000002007212, 10.000183, 9.998969 
9.0511686e+2, 2.7506015e+2, -278839.4, -380687.03, -15641.135, -0.064753614, 0.019997714, -276491.47, -32079.727, 0.0000025589381, 10.00026, 9.998903 
9.051215e+2, 2.8505856e+2, -154017.8, -342998.1, -1803.6661, -0.02099665, 0.00833344, -154000.58, -7574.441, 0.000014749117, 10.000729, 9.998277 
9.0512705e+2, 2.950563e+2, 61942.83, -179444.33, -7288.398, 0.14003414, -0.08721344, 62162.695, 110609.16, 0.00006245814, 10.001505, 9.998344 
9.0513223e+2, 3.0505458e+2, 150104.83, -87988.23, 12071.065, 0.23521034, -0.10079699, 150715.27, 150715.27, 0.00018874744, 10.001706, 9.99855 
9.0513676e+2, 3.1505367e+2, 161944.36, 103373.45, -102246.055, 0.25337964, -0.06901074, 239016.28, 239016.28, 0.0004049675, 10.000881, 10.000277 
9.1504997e+2, 1.250617e+2, -1736647.5, -1703274.9, -27163.27, -0.17676713, -0.02370416, -1688082.1, 26307.283, 0.000002613721, 9.999661, 10.000222 
9.150533e+2, 1.3506192e+2, -1713395.9, -1680194.5, -9318.275, -0.15018183, -0.025036696, -1677758.0, -61368.605, 0.00000007607973, 9.99939, 9.999834 
9.1505754e+2, 1.4506172e+2, -1631696.1, -1630778.5, -7115.106, -0.045384493, 0.0005916692, -1624107.5, -105714.336, 0.0, 9.999413, 9.999484 
9.1506237e+2, 1.5506122e+2, -1444203.0, -1491110.5, 12517.26, 0.059991825, -0.043551996, -1441071.8, -20672.018, 0.0, 10.000043, 9.999468 
9.1506654e+2, 1.6506124e+2, -1292262.5, -1345291.6, 33741.44, 0.012255446, 0.009692794, -1275864.3, 46535.977, 0.0, 10.000327, 9.999668 
9.1507006e+2, 1.7506137e+2, -1201356.4, -1250742.9, 28036.139, -0.16442333, 0.023661308, -1188689.4, 35709.45, 0.0, 10.000283, 9.999658 
9.150749e+2, 1.8506156e+2, -1127276.3, -1161879.6, -20026.441, -0.16099694, 0.07947306, -1118112.8, 8284.813, 0.0, 10.000088, 9.99969 
9.1508085e+2, 1.9506148e+2, -1081716.3, -1097583.4, 36660.27, 0.0067091207, 0.07280668, -1052141.0, -23741.604, 0.0, 9.99976, 9.99962 
9.150863e+2, 2.0506085e+2, -1011571.9, -1077522.6, 108605.99, 0.014351507, 0.08483862, -931045.56, -639.9555, 0.0, 9.999878, 9.999014 
9.1509134e+2, 2.1505924e+2, -841913.2, -951822.56, 104282.5, -0.1274722, -0.012301717, -778991.44, 53429.344, 0.0, 10.000398, 9.998959 
9.15096e+2, 2.2505842e+2, -747766.25, -842301.44, -48900.72, -0.13120347, 0.011834363, -727022.75, 7406.7764, 0.0, 10.000306, 9.999088 
9.151006e+2, 2.350582e+2, -763063.1, -803047.5, -45744.574, 0.0020351112, 0.048111625, -733132.9, -96698.47, 0.0, 9.999552, 9.9990425 
9.1510504e+2, 2.4505785e+2, -641857.7, -625622.8, -14760.509, 0.045202617, 0.08435352, -616894.94, -78457.94, 0.0, 9.999411, 9.99965 
9.151092e+2, 2.5505692e+2, -490917.7, -511959.1, 9497.262, 0.0010958839, -0.008736352, -487265.06, -46822.855, 0.0, 9.99981, 9.999571 
9.1511333e+2, 2.6505604e+2, -399106.4, -481188.78, -11448.445, -0.035148755, -0.017081039, -397539.56, -55090.563, 0.00000011562638, 10.000082, 9.998971 
9.151175e+2, 2.7505478e+2, -297214.9, -386721.06, 7143.292, -0.063378304, -0.06837353, -296648.4, -52187.36, 0.0000025826089, 10.000124, 9.998929 
9.1512275e+2, 2.8505385e+2, -142947.6, -293060.13, 9949.067, -0.009897228, -0.035064574, -142291.06, 4178.3643, 0.000017159802, 10.000621, 9.998667 
9.151288e+2, 2.95053e+2, 63652.09, -145735.7, 44775.777, 0.12227669, -0.030373579, 72825.14, 121301.73, 0.00007135739, 10.001379, 9.998636 
9.1513383e+2, 3.0505097e+2, 50440.414, -267077.56, -27152.254, 0.19045639, -0.026636649, 52745.58, 52745.58, 0.00020564985, 10.0015955, 9.997363 
9.151359e+2, 3.1505042e+2, 38894.25, -97713.26, -73862.69, 0.0053082206, 0.14902353, 71194.17, 71194.17, 0.00042848263, 10.000675, 9.998974 
9.250494e+2, 1.2505814e+2, -1860585.8, -1760815.5, -17478.545, -0.13740706, 0.016446335, -1757842.1, -43415.47, 0.0000053718704, 9.998789, 10.000262 
9.2505306e+2, 1.350582e+2, -1681286.5, -1658830.5, -53093.19, -0.1075736, -0.0071578478, -1615791.1, 635.77155, 0.00000033393198, 9.999575, 9.999914 
9.2505753e+2, 1.4505778e+2, -1587478.1, -1608978.3, 5141.764, 0.010215791, -0.0060491473, -1586311.8, -67879.945, 0.0, 9.999724, 9.999482 
9.250628e+2, 1.550574e+2, -1501386.9, -1522433.5, -1895.4591, 0.12690984, -0.03625906, -1501217.5, -80780.83, 0.0, 9.999674, 9.999427 
9.250668e+2, 1.6505732e+2, -1439444.1, -1465570.6, 54962.387, 0.06544873, 0.02917043, -1396014.0, -73574.9, 0.0, 9.999525, 9.999224 
9.250697e+2, 1.7505723e+2, -1374529.6, -1386742.3, 25105.752, -0.16812277, 0.066173024, -1354798.3, -130356.164, 0.0, 9.999316, 9.999193 
9.250747e+2, 1.850571e+2, -1173116.6, -1162681.6, 1260.1674, -0.16075695, 0.106508635, -1162531.6, -36088.29, 0.0, 9.999697, 9.999867 
9.250816e+2, 1.9505654e+2, -947981.75, -1009618.25, -39256.844, 0.075856544, 0.033081345, -928891.44, 99555.15, 0.0, 10.000589, 9.999816 
9.2508715e+2, 2.0505588e+2, -945504.44, -1049765.6, 25731.494, 0.093313135, 0.031473923, -939499.75, -9047.722, 0.0, 10.000344, 9.998988 
9.2509127e+2, 2.1505469e+2, -1035955.56, -1045773.3, 26046.656, -0.095994145, -0.016375963, -1014359.25, -181895.94, 0.0, 9.999061, 9.998964 
9.250959e+2, 2.2505389e+2, -922112.4, -914937.0, -33480.52, -0.10462333, 0.0027613451, -884852.5, -150380.9, 0.0, 9.999057, 9.999187 
9.2510104e+2, 2.3505323e+2, -651280.9, -742322.56, -27684.52, 0.059861194, -0.014398682, -643523.4, -7043.8145, 0.0, 10.000274, 9.999115 
9.251055e+2, 2.450527e+2, -462784.3, -567404.3, 35029.727, 0.09461152, 0.01216052, -452138.63, 86345.445, 0.0, 10.000761, 9.999408 
9.251094e+2, 2.5505188e+2, -388297.38, -486407.1, -11223.989, 0.0016742587, -0.042362694, -387029.7, 53459.35, 0.0, 10.000625, 9.999357 
9.2511374e+2, 2.6505095e+2, -324617.1, -453446.0, -19005.256, -0.028099151, -0.043149512, -321871.88, 20625.072, 0.00000007319143, 10.000594, 9.998927 
9.251186e+2, 2.7504942e+2, -222373.2, -355415.53, -34383.87, 0.02324117, -0.12257443, -214012.36, 30499.531, 0.0000027897247, 10.0006275, 9.998909 
9.2512405e+2, 2.8504887e+2, -105130.55, -226681.8, 21014.488, 0.06774816, -0.07194493, -101599.99, 44916.61, 0.000020180585, 10.000677, 9.999089 
9.251298e+2, 2.95049e+2, 5994.915, -127734.195, 17983.072, 0.116643794, -0.0068673533, 8370.952, 56884.77, 0.00008285034, 10.000775, 9.999047 
9.2513496e+2, 3.0504707e+2, 5004.773, -297918.28, 9269.386, 0.1707759, -0.012527733, 5288.149, 5288.149, 0.0002292469, 10.001281, 9.997311 
9.2513734e+2, 3.1504607e+2, 175771.53, -85364.49, -1674.6145, 0.03997851, 0.12031539, 175782.27, 175782.27, 0.0004645645, 10.001804, 9.998525 
9.350481e+2, 1.2505272e+2, -1869992.1, -1747373.0, -37039.83, -0.22911917, -0.08325121, -1737052.9, -22571.076, 0.000009857008, 9.998679, 10.000395 
9.350534e+2, 1.3505398e+2, -1662004.6, -1616998.0, -11442.162, -0.05825552, -0.01595936, -1614256.0, 2213.9038, 0.0000009955157, 9.999592, 10.00018 
9.350579e+2, 1.4505383e+2, -1580821.5, -1599214.5, -16681.2, 0.018722573, -0.00009230639, -1570969.8, -52498.363, 0.00000000002439963, 9.99974, 9.999546 
9.3506175e+2, 1.550537e+2, -1500070.8, -1508107.9, 13373.333, 0.014536125, -0.011038388, -1490125.3, -69652.74, 0.0, 9.999626, 9.999547 
9.3506575e+2, 1.6505308e+2, -1465298.9, -1506082.6, 26314.338, -0.03840057, 0.004775876, -1452400.1, -129920.52, 0.0, 9.999461, 9.9989805 
9.350695e+2, 1.7505178e+2, -1395170.0, -1425330.0, 35074.98, -0.15405677, -0.05421505, -1372070.6, -147576.52, 0.0, 9.999291, 9.998944 
9.3507475e+2, 1.8505114e+2, -1234351.5, -1270412.1, 21764.9, -0.15368058, -0.015740788, -1224118.6, -97617.81, 0.0, 9.999615, 9.999171 
9.350815e+2, 1.9505063e+2, -1018533.8, -1122787.4, 10303.358, -0.034503438, -0.016683701, -1017525.25, 10980.165, 0.0, 10.000447, 9.99911 
9.3508685e+2, 2.0505014e+2, -933708.6, -990165.3, -38975.965, 0.0021724692, 0.010680986, -913812.5, 16696.863, 0.0, 10.000187, 9.999474 
9.35091e+2, 2.1504939e+2, -1029675.2, -994265.1, -3592.8972, -0.052209128, -0.039685093, -993904.25, -161388.92, 0.0, 9.998884, 9.999408 
9.350959e+2, 2.2504897e+2, -911595.06, -847181.06, -2924.272, -0.04029887, -0.032491677, -847048.56, -112530.91, 0.0, 9.9988575, 9.99975 
9.351013e+2, 2.3504847e+2, -642443.8, -675089.44, 33342.223, 0.030840844, -0.09061746, -621643.4, 14877.102, 0.0, 10.000062, 9.999682 
9.3510556e+2, 2.450479e+2, -538299.4, -683623.94, 11994.126, -0.001972363, -0.062335376, -537316.06, 1209.6412, 0.0, 10.0005865, 9.998694 
9.3510896e+2, 2.5504687e+2, -464194.03, -607047.94, 1852.51, -0.1316308, -0.06529046, -464170.0, -23633.238, 0.0, 10.000456, 9.998617 
9.351137e+2, 2.6504576e+2, -345700.78, -459586.7, -30754.188, -0.11393026, -0.044336125, -337926.5, 4620.994, 0.00000003612581, 10.000443, 9.998953 
9.3511987e+2, 2.7504417e+2, -249540.95, -370418.5, -11351.11, 0.046053853, -0.13391756, -248484.25, -3921.5083, 0.0000027030533, 10.000463, 9.99888 
9.3512505e+2, 2.8504378e+2, -86493.19, -170534.02, 9837.616, 0.0678116, -0.08775277, -85356.98, 61208.477, 0.000022488803, 10.00059, 9.999519 
9.3512934e+2, 2.950444e+2, 22203.662, -74529.92, 45420.305, -0.053674422, -0.017498907, 40187.082, 88744.17, 0.00009525127, 10.000682, 9.999459 
9.351351e+2, 3.0504292e+2, 65239.156, -150497.55, 17862.828, 0.025336277, -0.051212184, 66708.18, 66708.18, 0.00025879213, 10.001201, 9.998358 
9.3513995e+2, 3.1504163e+2, 180037.66, -28929.172, 92518.93, 0.047703326, -0.05355535, 215112.61, 215112.61, 0.0005142612, 10.001618, 9.998997 
9.45048e+2, 1.2504856e+2, -1866669.8, -1732312.0, 40489.656, -0.08799645, -0.06760746, -1721053.5, -6529.7515, 0.000016753027, 9.998615, 10.000539 
9.4505286e+2, 1.3504986e+2, -1674393.0, -1614049.6, -1445.7686, -0.049776882, -0.006774643, -1614015.0, 2496.0457, 0.000002343361, 9.99945, 10.000272 
9.4505745e+2, 1.4504978e+2, -1560830.8, -1577922.5, 4317.7637, 0.007830805, 0.0014969157, -1559802.0, -41290.14, 0.0000000053592455, 9.999811, 9.999663 
9.4506186e+2, 1.5504985e+2, -1430370.1, -1473121.4, -4652.2373, 0.0485147, 0.0008365865, -1429869.8, -9358.73, 0.0, 10.00007, 9.999593 
9.4506615e+2, 1.6504924e+2, -1327733.4, -1428752.0, 58929.215, 0.021503802, 0.013561164, -1300629.3, 21887.879, 0.0, 10.000365, 9.999068 
9.450701e+2, 1.7504777e+2, -1183093.9, -1314411.3, 54706.43, -0.09329599, -0.07001369, -1163290.0, 61242.098, 0.0, 10.000719, 9.999011 
9.450753e+2, 1.8504691e+2, -1121229.3, -1249460.1, 99109.586, -0.102757365, -0.043036506, -1067304.4, 59236.387, 0.0, 10.000559, 9.998843 
9.450819e+2, 1.9504614e+2, -1111365.8, -1202081.3, 83079.38, 0.00029410142, -0.03571694, -1062068.9, -33520.465, 0.0, 9.999982, 9.998776 
9.450872e+2, 2.0504554e+2, -951455.0, -995507.94, 44955.508, 0.033270344, -0.005617464, -923419.9, 7133.8813, 0.0, 10.000045, 9.999506 
9.450912e+2, 2.1504484e+2, -778928.56, -867954.56, 14588.178, -0.0016136667, -0.055686645, -776599.06, 55960.234, 0.0, 10.000585, 9.99945 
9.45096e+2, 2.2504449e+2, -661382.2, -719772.25, 42832.82, 0.008206241, -0.045116674, -638740.94, 95819.625, 0.0, 10.000567, 9.999791 
9.451016e+2, 2.3504412e+2, -636051.1, -665921.94, 6812.713, 0.06406498, -0.09357828, -634570.7, 1990.665, 0.0, 10.000096, 9.999721 
9.4510627e+2, 2.4504344e+2, -593583.2, -739354.5, 16946.592, 0.026208162, -0.06265529, -591639.0, -53071.2, 0.0, 10.000329, 9.998431 
9.451101e+2, 2.5504214e+2, -366726.25, -582800.7, 9131.349, -0.08665603, -0.06971597, -366341.06, 74241.65, 0.0, 10.001226, 9.998399 
9.4511503e+2, 2.6504102e+2, -197183.38, -395891.47, 127.967804, -0.06559464, -0.041005373, -197183.3, 145411.02, 0.000000027783642, 10.001489, 9.998893 
9.4512105e+2, 2.7503958e+2, -170170.97, -340494.97, -24168.62, 0.09845157, -0.102515556, -166807.89, 77799.48, 0.000002329391, 10.001032, 9.998821 
9.4512594e+2, 2.8503898e+2, -80263.38, -183107.7, 18195.543, 0.098091796, -0.065603286, -77139.086, 69473.11, 0.000023981273, 10.000709, 9.99938 
9.4512975e+2, 2.95039e+2, -21305.262, -112138.48, -27100.156, -0.05468274, -0.04286357, -13834.378, 34776.29, 0.00010679835, 10.000455, 9.999321 
9.45136e+2, 3.0503768e+2, 50296.21, -119711.79, -27952.943, 0.01641354, -0.06341708, 54774.316, 54774.316, 0.00028981623, 10.000961, 9.998685 
9.451426e+2, 3.1503636e+2, 237653.05, 21385.684, -52822.867, 0.15111403, -0.10134988, 249865.31, 249865.31, 0.00057081727, 10.001937, 9.999189 
9.550479e+2, 1.2504584e+2, -1879862.5, -1735382.0, 20115.09, -0.03541093, 0.068482146, -1732633.8, -18082.82, 0.00002677623, 9.99855, 10.000524 
9.5505095e+2, 1.35046e+2, -1689492.3, -1620941.6, 42545.29, -0.22202368, 0.015618656, -1600582.6, 15966.507, 0.0000047533053, 9.999372, 10.000242 
9.5505583e+2, 1.4504558e+2, -1565483.0, -1571294.3, -9953.993, -0.17942807, -0.014221857, -1558019.3, -39465.625, 0.000000046136613, 9.999731, 9.999753 
9.550625e+2, 1.5504594e+2, -1420258.4, -1456844.0, 21235.732, 0.06653453, 0.005191911, -1410523.0, 10027.638, 0.0, 10.00009, 9.999694 
9.550676e+2, 1.6504598e+2, -1305790.6, -1381842.6, 54488.477, 0.08580068, 0.061163705, -1277371.4, 45178.563, 0.0, 10.000355, 9.999398 
9.5507085e+2, 1.750453e+2, -1166196.8, -1268612.4, 83180.27, -0.120400235, 0.02030877, -1119725.5, 104829.555, 0.0, 10.000669, 9.999351 
9.550758e+2, 1.8504444e+2, -1130801.8, -1253431.9, 60718.344, -0.13952596, 0.029376822, -1105825.1, 20737.504, 0.0, 10.000476, 9.998862 
9.550825e+2, 1.9504298e+2, -1124538.1, -1206352.0, 77531.75, 0.024194488, -0.034132227, -1077783.5, -49206.96, 0.0, 9.999872, 9.998804 
9.550877e+2, 2.0504197e+2, -1002868.25, -1062879.6, 46948.75, 0.049136583, -0.026252048, -977155.7, -46569.484, 0.0, 9.999876, 9.999126 
9.550913e+2, 2.1504103e+2, -841154.6, -941486.0, 50136.59, -0.07406573, -0.062753275, -820395.9, 12199.456, 0.0, 10.000345, 9.999063 
9.550959e+2, 2.2504053e+2, -726592.9, -803541.6, 8468.726, -0.08302903, -0.025895098, -725671.9, 8927.783, 0.0, 10.000343, 9.999324 
9.551015e+2, 2.3504008e+2, -701575.7, -754011.0, 8481.828, 0.017198624, -0.033336908, -700237.8, -63634.95, 0.0, 9.999886, 9.999219 
9.55107e+2, 2.4503927e+2, -606535.0, -717602.5, 36812.3, 0.037432145, -0.0022265594, -595441.9, -56831.19, 0.0, 10.000131, 9.998668 
9.5511234e+2, 2.5503772e+2, -379317.66, -566936.7, 61681.746, -0.021312075, -0.05825821, -360855.78, 79771.02, 0.0, 10.001051, 9.998587 
9.551173e+2, 2.6503664e+2, -231933.19, -432342.4, -34111.26, -0.021139795, -0.022645857, -226286.3, 116350.94, 0.000000030362223, 10.00134, 9.998711 
9.5512164e+2, 2.7503562e+2, -204135.69, -374900.06, -20382.592, 0.01866191, -0.030069156, -201736.52, 42909.81, 0.000002140531, 10.000884, 9.998651 
9.551261e+2, 2.850344e+2, -142393.89, -289108.0, -7738.5347, 0.009126013, -0.011802815, -141986.84, 4670.9683, 0.000025889522, 10.000608, 9.9987 
9.551307e+2, 2.950328e+2, -85075.01, -221391.06, -11014.358, -0.053236734, -0.083860755, -84190.78, -35517.113, 0.00011778403, 10.000355, 9.998616 
9.551371e+2, 3.0503163e+2, 8411.591, -183083.55, 5055.38, 0.0034806123, -0.037070535, 8544.957, 8544.957, 0.00031950467, 10.000861, 9.998297 
9.5514405e+2, 3.1503016e+2, 196671.56, -20381.54, 50253.36, 0.024625083, -0.05127199, 207741.89, 207741.89, 0.00062882464, 10.001752, 9.998991 
9.6504724e+2, 1.2504132e+2, -1835947.5, -1757482.1, 14229.707, 0.041146427, 0.08249959, -1754981.3, -40386.758, 0.000040530904, 9.998985, 10.000195 
9.6505046e+2, 1.3504112e+2, -1774841.3, -1689930.9, -29350.092, -0.16453335, 0.02108592, -1680773.3, -64175.824, 0.000008656152, 9.998882, 10.000028 
9.650557e+2, 1.4504062e+2, -1673143.1, -1593488.0, -29892.74, -0.10566735, -0.01509903, -1583517.9, -64914.88, 0.00000019058375, 9.998908, 9.9999695 
9.650624e+2, 1.5504122e+2, -1495665.1, -1469020.5, -35502.203, 0.084217235, 0.0068756253, -1444423.3, -23825.756, 0.0, 9.999511, 9.9998665 
9.650678e+2, 1.6504155e+2, -1366169.6, -1376512.4, 22479.078, 0.11314841, 0.069218084, -1348274.8, -25681.281, 0.0, 9.99982, 9.999683 
9.650721e+2, 1.7504123e+2, -1264203.6, -1288054.5, 8799.306, -0.013802267, 0.03933615, -1261308.8, -36714.117, 0.0, 9.999887, 9.999589 
9.650771e+2, 1.8504056e+2, -1183050.3, -1247756.0, 8366.25, -0.023885127, 0.041624498, -1181986.0, -55386.426, 0.0, 9.999954, 9.999172 
9.650828e+2, 1.9503917e+2, -1088564.8, -1159556.3, 16233.962, 0.072641455, -0.045414045, -1085028.6, -56416.66, 0.0, 9.999967, 9.999098 
9.650878e+2, 2.0503809e+2, -1005663.0, -1081789.5, 56114.38, 0.0736324, -0.049150184, -975920.4, -45298.36, 0.0, 9.999967, 9.998937 
9.65092e+2, 2.1503697e+2, -903052.7, -992717.75, 33618.023, -0.013831105, -0.085801125, -891848.4, -59215.082, 0.0, 10.0000305, 9.99885 
9.650967e+2, 2.250363e+2, -745235.25, -860398.75, 29916.357, -0.02856024, -0.03305369, -737927.5, -3287.2913, 0.0, 10.00041, 9.998908 
9.6510214e+2, 2.3503572e+2, -551179.0, -721367.7, 1082.4651, 0.036809936, -0.013050228, -551172.1, 85474.19, 0.0, 10.001084, 9.998864 
9.6510786e+2, 2.4503474e+2, -445593.75, -634892.25, 62810.63, 0.06347453, 0.014442376, -426648.75, 112006.99, 0.0, 10.001192, 9.998743 
9.65114e+2, 2.5503314e+2, -425097.44, -584909.0, 43576.98, 0.06368954, -0.052232604, -413987.38, 26683.805, 0.0, 10.000707, 9.998649 
9.651189e+2, 2.6503196e+2, -331535.72, -485815.97, -24986.908, 0.04796365, -0.026055157, -327589.8, 15092.103, 0.000000012060779, 10.000685, 9.998653 
9.6512246e+2, 2.7503073e+2, -180948.95, -374099.5, -43272.42, 0.009864359, -0.043398816, -171697.55, 72995.27, 0.0000023356135, 10.001088, 9.998556 
9.651269e+2, 2.850293e+2, -63031.1, -298609.84, 18006.137, 0.0036165093, -0.02146727, -61662.777, 85044.6, 0.000028869204, 10.001369, 9.998251 
9.6513236e+2, 2.950275e+2, 47724.934, -206744.2, -16809.563, 0.038225003, -0.06801524, 48830.523, 97557.23, 0.00012892728, 10.001501, 9.998147 
9.6513873e+2, 3.0502635e+2, 82406.04, -173501.2, 63364.125, 0.06756374, 0.015880277, 97235.97, 97235.97, 0.00034703137, 10.001444, 9.998092 
9.651455e+2, 3.150244e+2, 42133.875, -80638.375, 63988.598, 0.06932359, -0.030205887, 69420.164, 69420.164, 0.0006841425, 10.000601, 9.999132 
9.75045e+2, 1.2503469e+2, -1867102.0, -1804082.9, -51057.586, -0.16012192, -0.042299166, -1775594.8, -60937.168, 0.000058506626, 9.998919, 9.999902 
9.75051e+2, 1.3503538e+2, -1784059.5, -1710525.9, -22410.451, -0.035524245, 0.0054047382, -1704234.3, -87580.16, 0.00001444443, 9.998897, 9.999874 
9.7505665e+2, 1.4503527e+2, -1664191.9, -1574161.5, -23776.24, 0.044495434, 0.0046283104, -1568268.1, -49611.633, 0.0000005546723, 9.998903, 10.000107 
9.750611e+2, 1.5503581e+2, -1490606.0, -1449583.8, 7826.29, -0.033468373, 0.008849903, -1448141.4, -27491.375, 0.0, 9.999476, 10.000015 
9.750666e+2, 1.6503601e+2, -1359894.1, -1355891.1, 4847.858, -0.027131777, 0.04170678, -1352647.9, -30000.69, 0.0, 9.999776, 9.999852 
9.7507334e+2, 1.7503558e+2, -1255398.4, -1265199.6, 26069.645, 0.087428585, -0.015963167, -1233772.8, -9122.36, 0.0, 9.99986, 9.9997635 
9.7507864e+2, 1.8503532e+2, -1156538.1, -1168329.1, -5151.776, 0.10217333, -0.010191417, -1154604.3, -27953.266, 0.0, 9.99985, 9.999766 
9.7508246e+2, 1.9503486e+2, -1066877.6, -1079619.0, 34048.01, 0.008091782, -0.06747863, -1038609.4, -9956.358, 0.0, 9.999821, 9.999711 
9.7508717e+2, 2.0503409e+2, -1038736.25, -1113004.9, 40049.527, -0.016099298, -0.06373436, -1021254.44, -90595.266, 0.0, 9.999793, 9.998815 
9.750927e+2, 2.1503265e+2, -938961.75, -1024781.3, 51639.66, 0.029287903, -0.11847036, -914730.6, -82057.52, 0.0, 9.999842, 9.998727 
9.750979e+2, 2.2503176e+2, -797401.5, -919993.1, 36230.957, 0.023448607, -0.06585955, -787494.4, -52811.703, 0.0, 10.000201, 9.998597 
9.7510284e+2, 2.3503105e+2, -611632.7, -785521.94, 40752.008, -0.030129597, -0.03085955, -602556.0, 34135.664, 0.0, 10.000829, 9.998543 
9.751084e+2, 2.4503003e+2, -476719.22, -659657.9, 27030.932, -0.029818946, 0.012204258, -472808.72, 65892.85, 0.0, 10.001014, 9.998664 
9.751146e+2, 2.5502834e+2, -451443.78, -604379.9, 44358.227, 0.018796029, -0.05367561, -439509.25, 1206.6422, 0.0, 10.000553, 9.99859 
9.751195e+2, 2.650268e+2, -346023.2, -491291.5, -25928.074, 0.0026759831, -0.063778915, -341534.16, 1195.3385, 0.0000000034767167, 10.000571, 9.998672 
9.75123e+2, 2.7502495e+2, -196497.58, -379015.88, -5556.34, -0.081382625, -0.1443522, -196328.6, 48417.867, 0.0000028342504, 10.000963, 9.998584 
9.7512794e+2, 2.850238e+2, -99828.17, -349826.94, 9119.41, -0.069489025, -0.08379557, -99495.95, 47263.48, 0.000032313746, 10.0012665, 9.997949 
9.751342e+2, 2.95023e+2, 7341.369, -262592.75, 16709.146, 0.0228539, -0.0020599284, 8371.746, 57142.957, 0.0001399921, 10.001385, 9.997819 
9.751402e+2, 3.0502158e+2, 60879.645, -189139.97, 21579.559, 0.03675436, 0.079309195, 62728.535, 62728.535, 0.00037284024, 10.001325, 9.998039 
9.7514576e+2, 3.150182e+2, 41394.2, -37687.824, 90543.055, -0.04534573, -0.10876184, 100653.67, 100653.67, 0.00073526404, 10.000417, 9.999511 
9.8504406e+2, 1.2502955e+2, -1794614.6, -1762531.8, -4552.685, -0.15273382, -0.043510053, -1761898.1, -47191.105, 0.00008108169, 9.999387, 9.999956 
9.850508e+2, 1.3503018e+2, -1737919.5, -1691565.6, -16693.504, 0.05474602, -0.002974029, -1686179.6, -69475.836, 0.000022462764, 9.999205, 9.999863 
9.850568e+2, 1.4502995e+2, -1604394.4, -1535202.8, 55152.48, 0.16401786, -0.02048377, -1504693.5, 14012.665, 0.0000013019285, 9.999246, 10.000217 
9.850609e+2, 1.5503028e+2, -1421999.0, -1406115.9, 43107.027, -0.015967451, -0.053326108, -1370225.0, 50475.01, 0.0, 9.999883, 10.000121 
9.850665e+2, 1.650304e+2, -1328072.4, -1344416.0, 48751.645, -0.02046387, -0.028928615, -1286812.4, 35885.207, 0.0, 10.00001, 9.999816 
9.8507375e+2, 1.7503016e+2, -1280081.9, -1277427.9, 20958.81, 0.1566638, -0.06514214, -1257754.1, -33053.137, 0.0, 9.999706, 9.999746 
9.850791e+2, 1.8503016e+2, -1158314.9, -1172345.0, 1150.0645, 0.17421173, -0.03036786, -1158221.1, -31520.473, 0.0, 9.999872, 9.999717 
9.8508257e+2, 1.9503003e+2, -991060.5, -1051895.3, -46885.61, 0.019717393, -0.046420015, -965589.8, 63111.21, 0.0, 10.000394, 9.999621 
9.8508734e+2, 2.0502944e+2, -886627.56, -1022616.2, -26681.705, -0.014191252, -0.027396347, -881579.8, 49125.61, 0.0, 10.00074, 9.998987 
9.850933e+2, 2.1502809e+2, -785946.0, -930956.0, -24608.365, 0.06583582, -0.09423913, -781883.75, 50833.582, 0.0, 10.0008, 9.998913 
9.8509884e+2, 2.2502697e+2, -724303.75, -906053.25, 17518.648, 0.07135041, -0.06623923, -722630.56, 12097.906, 0.0, 10.00078, 9.99842 
9.851039e+2, 2.3502575e+2, -650967.06, -825853.6, 3122.9692, 0.010216691, -0.062406793, -650911.3, -14169.164, 0.0, 10.000641, 9.998363 
9.851095e+2, 2.4502452e+2, -516565.6, -670383.06, 21770.01, 0.0035035217, -0.031839978, -513543.8, 25209.715, 0.0, 10.0007305, 9.998711 
9.8511547e+2, 2.5502282e+2, -371396.16, -562238.25, 7836.334, 0.03983595, -0.10372721, -371074.9, 69692.414, 0.0, 10.001094, 9.998611 
9.851204e+2, 2.6502132e+2, -274025.25, -454777.66, -26470.867, 0.023941902, -0.10996875, -270228.38, 72552.13, 0.00000001775074, 10.001067, 9.998688 
9.8512423e+2, 2.7501974e+2, -238338.72, -398624.6, -46947.188, -0.026740326, -0.16523664, -225600.4, 19195.648, 0.000003544514, 10.000673, 9.998596 
9.851295e+2, 2.850186e+2, -132880.52, -367072.6, 33818.176, -0.021916874, -0.10422468, -128094.85, 18714.043, 0.00003520851, 10.001021, 9.997973 
9.85136e+2, 2.9501745e+2, 99755.18, -217838.52, 30611.348, 0.042009875, -0.05238577, 102678.75, 151501.19, 0.00014922032, 10.001994, 9.997852 
9.8514163e+2, 3.0501598e+2, 156251.75, -141586.95, 36673.117, 0.034149136, 0.018830538, 160700.89, 160700.89, 0.00039592202, 10.001998, 9.998027 
9.851473e+2, 3.1501368e+2, 91319.5, 12455.471, 36261.844, 0.065413006, -0.056730267, 105458.05, 105458.05, 0.0007798097, 10.00067, 9.999723 
9.950432e+2, 1.250259e+2, -1786512.4, -1730885.8, -68357.89, -0.26055512, 0.077896275, -1684899.5, 29843.615, 0.000108580556, 9.99934, 10.000184 
9.9504954e+2, 1.3502559e+2, -1731035.1, -1664857.9, -12121.21, -0.024496758, -0.001740563, -1662707.6, -45961.516, 0.000033028722, 9.999167, 10.0000515 
9.95056e+2, 1.450247e+2, -1599858.0, -1526781.6, 53717.055, 0.10689362, -0.09346246, -1498354.0, 20397.918, 0.0000026281716, 9.99924, 10.000285 
9.9506116e+2, 1.550246e+2, -1411021.6, -1385751.5, 81761.99, -0.0128630055, -0.17610338, -1315654.0, 105093.35, 0.00000000019976186, 9.999887, 10.000264 
9.950668e+2, 1.6502485e+2, -1353176.5, -1380453.4, 18788.143, -0.02540819, -0.13860886, -1343598.5, -20854.541, 0.0, 9.99995, 9.999593 
9.9507296e+2, 1.7502505e+2, -1300669.0, -1311476.4, 26402.61, 0.06726601, -0.108601026, -1279122.8, -54377.195, 0.0, 9.999669, 9.999529 
9.950782e+2, 1.8502502e+2, -1228617.5, -1296031.0, 2262.7742, 0.061022185, -0.024183733, -1228541.6, -101792.45, 0.0, 9.999779, 9.998914 
9.950827e+2, 1.9502452e+2, -1063868.5, -1171863.3, -10437.018, -0.03776036, 0.0021453302, -1062869.1, -34111.594, 0.0, 10.000261, 9.998861 
9.950878e+2, 2.0502405e+2, -885357.94, -967193.7, -43170.71, -0.06656088, 0.044443313, -866794.9, 63967.184, 0.0, 10.000523, 9.999468 
9.9509346e+2, 2.150232e+2, -785229.1, -872693.8, -7336.4272, -0.034177743, -0.017907917, -784618.0, 48148.48, 0.0, 10.000565, 9.999419 
9.950991e+2, 2.2502196e+2, -759372.75, -920820.6, -4474.5815, -0.004760766, -0.028976765, -759248.8, -24472.045, 0.0, 10.000534, 9.998437 
9.9510485e+2, 2.3501994e+2, -683415.0, -839289.4, 16110.153, 0.015458608, -0.1064123, -681767.4, -44970.93, 0.0, 10.000416, 9.998377 
9.951106e+2, 2.450183e+2, -536070.9, -672224.56, 19043.537, 0.014399333, -0.120967224, -533457.44, 5353.601, 0.0, 10.000558, 9.998781 
9.951164e+2, 2.5501662e+2, -393747.03, -562889.4, 39400.34, -0.012300478, -0.19890207, -385019.38, 55805.543, 0.0, 10.000891, 9.998707 
9.9512136e+2, 2.650157e+2, -308165.8, -482695.4, -57368.3, -0.017789843, -0.15217808, -290997.53, 51836.24, 0.000000028595345, 10.000892, 9.998577 
9.9512553e+2, 2.7501503e+2, -269312.2, -428629.22, -41010.613, 0.0022092934, -0.10474918, -259375.23, -14533.336, 0.000003781716, 10.000537, 9.998453 
9.951309e+2, 2.850135e+2, -117976.664, -314409.63, 55152.695, -0.013775292, -0.08704001, -103550.805, 43306.04, 0.000036350866, 10.000925, 9.998381 
9.9513733e+2, 2.9501104e+2, 115570.88, -158350.08, 91904.445, -0.06916494, -0.21431251, 143548.58, 192428.48, 0.00015456251, 10.001878, 9.998316 
9.951428e+2, 3.050097e+2, 129950.3, -167946.69, -21721.504, -0.081177026, -0.14936624, 131525.81, 131525.81, 0.00041193186, 10.001887, 9.997896 
9.9514854e+2, 3.1501016e+2, 61802.008, 3722.9875, 30071.992, 0.049551826, 0.06621625, 74567.016, 74567.016, 0.0008105773, 10.00046, 9.999759 
1.0050426e+3, 1.2501982e+2, -2071422.1, -1863328.8, -6846.037, -0.14201534, -0.012804681, -1863103.8, -148306.58, 0.00014134821, 9.997361, 10.000234 
1.0050492e+3, 1.3501976e+2, -1532625.3, -1565776.1, -12771.367, -0.029990127, -0.069707364, -1528275.8, 88521.45, 0.000046426092, 10.000515, 10.000079 
1.00505605e+3, 1.4501895e+2, -1357152.8, -1436219.1, 8864.449, 0.10742588, -0.14262989, -1356171.1, 162632.03, 0.00000474816, 10.001058, 10.0000105 
1.0050612e+3, 1.5501866e+2, -1497031.6, -1461979.5, -39872.566, 0.029263787, -0.21111757, -1435951.1, -15149.041, 0.000000004412824, 9.999462, 9.999943 
1.0050666e+3, 1.6501883e+2, -1469839.1, -1447628.9, -46713.402, 0.010343149, -0.15998329, -1410718.8, -87918.33, 0.0, 9.999175, 9.999519 
1.0050725e+3, 1.7501909e+2, -1235627.0, -1288774.4, -61456.168, 0.048204716, -0.11820676, -1195245.4, 29556.29, 0.0, 10.000135, 9.99947 
1.005078e+3, 1.8501897e+2, -1134852.0, -1247764.0, -24499.121, 0.048578214, -0.042497087, -1129765.4, -2959.2114, 0.0, 10.000417, 9.998932 
1.0050833e+3, 1.9501817e+2, -1090189.6, -1183291.3, -12672.663, 0.014752761, -0.046585847, -1088495.5, -59678.23, 0.0, 10.000083, 9.998863 
1.00508854e+3, 2.0501776e+2, -949334.06, -982363.2, 5935.905, -0.008372782, -0.005624155, -948299.7, -17478.342, 0.0, 10.000003, 9.999619 
1.0050937e+3, 2.1501733e+2, -842900.2, -891666.44, -19585.225, -0.028851392, -0.04031524, -836008.44, -3186.1277, 0.0, 10.000102, 9.999528 
1.0050996e+3, 2.2501625e+2, -749424.2, -893104.7, 20173.662, -0.0010148811, -0.048286345, -746645.4, -11814.813, 0.0, 10.000524, 9.998627 
1.0051061e+3, 2.3501414e+2, -539364.7, -751184.06, 11480.643, 0.06978408, -0.15158303, -538744.25, 98105.77, 0.0, 10.001329, 9.998542 
1.0051121e+3, 2.4501257e+2, -443080.38, -646732.56, 20998.191, 0.07447552, -0.15848011, -440937.8, 97926.89, 0.0, 10.001281, 9.998611 
1.0051172e+3, 2.5501126e+2, -478957.9, -614766.4, -12171.848, 0.02158657, -0.18370101, -477875.63, -36998.266, 0.0, 10.000379, 9.998585 
1.0051222e+3, 2.6501042e+2, -378260.03, -525780.3, -57917.73, 0.012289151, -0.11762528, -358238.4, -15352.031, 0.000000017098808, 10.000438, 9.998502 
1.0051268e+3, 2.7500945e+2, -157968.05, -377038.38, -71535.83, 0.04861396, -0.09256333, -136677.66, 108219.06, 0.000003428396, 10.001305, 9.998433 
1.0051325e+3, 2.8500792e+2, -25558.35, -247227.58, 57652.3, 0.034292087, -0.08982023, -11460.584, 135450.61, 0.00003625069, 10.001479, 9.998561 
1.0051392e+3, 2.9500556e+2, -14001.326, -200974.14, 33278.555, -0.010496036, -0.22583838, -8254.823, 40677.023, 0.00015744341, 10.000901, 9.998488 
1.0051444e+3, 3.050038e+2, -3316.6052, -250602.63, -77055.82, -0.056494184, -0.20740503, 18729.07, 18729.07, 0.00042211023, 10.001015, 9.997777 
1.0051496e+3, 3.1500423e+2, 197635.3, 46249.76, -90357.89, 0.07760507, 0.027904676, 239815.1, 239815.1, 0.0008305699, 10.001434, 9.999624 
1.0150412e+3, 1.2501149e+2, -2083614.0, -1872135.4, 44346.492, -0.09587168, -0.31347165, -1863212.5, -148344.66, 0.0001798155, 9.997313, 10.000184 
1.01504914e+3, 1.3501287e+2, -1540541.3, -1578332.6, 119805.87, -0.12312181, -0.21925828, -1438150.1, 178706.03, 0.000062927356, 10.0005045, 9.999991 
1.0150563e+3, 1.4501272e+2, -1420308.5, -1555695.3, -75725.56, -0.026988294, -0.18145235, -1386430.4, 132428.98, 0.000007860604, 10.00101, 9.999211 
1.0150604e+3, 1.5501256e+2, -1557424.9, -1582161.3, -82699.08, -0.03599867, -0.15941726, -1486174.3, -65310.895, 0.000000028517778, 9.999447, 9.99912 
1.0150655e+3, 1.6501252e+2, -1466800.4, -1437728.1, -28648.5, -0.04943473, -0.090467595, -1420138.9, -97273.49, 0.0, 9.999153, 9.999599 
1.0150721e+3, 1.7501236e+2, -1231642.5, -1277394.6, -9322.47, -0.044138774, -0.099191286, -1229815.9, -4947.535, 0.0, 10.000115, 9.999559 
1.0150783e+3, 1.8501206e+2, -1097869.8, -1144335.3, -55658.71, -0.01282684, -0.086625166, -1060789.5, 66081.914, 0.0, 10.000303, 9.999697 
1.015084e+3, 1.9501114e+2, -1056806.0, -1079825.9, -10131.251, 0.036825802, -0.17993908, -1052982.3, -24103.182, 0.0, 9.999938, 9.9996395 
1.01508915e+3, 2.0501077e+2, -988059.3, -1024792.44, -8296.407, 0.019193362, -0.16225451, -986272.44, -55390.617, 0.0, 9.999839, 9.999406 
1.0150937e+3, 2.1501061e+2, -884305.44, -930610.75, -1578.7307, -0.0649307, -0.15174225, -884251.7, -51368.582, 0.0, 9.9999075, 9.999348 
1.0150997e+3, 2.2501e+2, -767855.6, -877900.0, 30630.197, -0.059608467, -0.115119115, -759904.44, -25016.15, 0.0, 10.000293, 9.998842 
1.0151073e+3, 2.350085e+2, -557079.3, -731729.0, 56522.953, 0.029629616, -0.1829975, -540382.6, 96518.88, 0.0, 10.00109, 9.998788 
1.0151134e+3, 2.4500747e+2, -501429.84, -720242.06, -33033.457, 0.04927997, -0.12696737, -496551.66, 42361.203, 0.0, 10.001075, 9.998209 
1.0151177e+3, 2.550066e+2, -529171.6, -686132.1, -28949.033, -0.006229441, -0.06877968, -524002.6, -83076.984, 0.0, 10.00023, 9.998173 
1.0151225e+3, 2.6500532e+2, -391674.06, -521868.7, -37869.992, -0.029720228, -0.02652499, -381460.06, -38520.19, 0.000000011022683, 10.000304, 9.998591 
1.0151277e+3, 2.7500325e+2, -171651.83, -369823.2, -15108.753, -0.03224269, -0.12487305, -170506.55, 74452.85, 0.0000031084232, 10.001153, 9.998553 
1.01513386e+3, 2.8500187e+2, -51957.72, -274219.16, 19945.494, -0.010895251, -0.10705552, -50182.02, 96789.45, 0.000035475467, 10.001364, 9.998428 
1.015141e+3, 2.9500085e+2, -49570.813, -236515.47, 35036.33, 0.030795395, -0.09373897, -43220.195, 5758.977, 0.00015874387, 10.000745, 9.998316 
1.0151457e+3, 3.0499807e+2, -24587.844, -268277.63, -69210.15, -0.05843081, -0.15983176, -6303.4307, -6303.4307, 0.00042931808, 10.000907, 9.997704 
1.01514935e+3, 3.1499606e+2, 139776.77, -272.81985, -27632.887, -0.16016608, -0.1723454, 145031.77, 145031.77, 0.00084597926, 10.0011425, 9.999432 
1.0250414e+3, 1.2500452e+2, -1606842.6, -1651262.1, -13136.8125, 0.05099343, -0.33278227, -1603248.4, 111686.92, 0.00022439056, 10.000604, 10.000125 
1.0250493e+3, 1.3500582e+2, -1729624.6, -1681047.5, 14639.096, -0.08331346, -0.2308849, -1676977.0, -60051.98, 0.0000828242, 9.999259, 9.999896 
1.02505624e+3, 1.45006e+2, -1695134.1, -1685832.4, -142343.55, -0.020677665, -0.15899028, -1548063.8, -29137.805, 0.000012107546, 9.999082, 9.999274 
1.0250604e+3, 1.5500619e+2, -1416180.4, -1508437.5, -120736.28, -0.0091632195, -0.10937653, -1333060.8, 87866.63, 0.00000009714164, 10.000368, 9.999196 
1.0250657e+3, 1.6500604e+2, -1289170.1, -1330016.6, 6443.41, -0.0066826534, -0.062697396, -1288177.8, 34752.22, 0.0, 10.000318, 9.999752 
1.02507204e+3, 1.7500539e+2, -1373778.3, -1324312.0, -9135.616, -0.0027159231, -0.135038, -1322678.8, -97742.734, 0.0, 9.999088, 9.999712 
1.02507815e+3, 1.8500513e+2, -1269047.0, -1187832.0, -20814.547, 0.025293663, -0.14346763, -1182808.1, -55871.17, 0.0, 9.99894, 10.000061 
1.0250839e+3, 1.9500485e+2, -1053432.3, -1039257.06, -34852.84, 0.05348436, -0.208093, -1010778.44, 18158.39, 0.0, 9.999781, 10.000005 
1.02508925e+3, 2.0500454e+2, -934387.1, -1032731.6, -24216.068, 0.03082555, -0.18696992, -928747.6, 2191.8784, 0.0, 10.000376, 9.999093 
1.02509424e+3, 2.150038e+2, -790670.2, -923756.1, -64684.277, -0.04021812, -0.19798586, -764412.2, 68536.484, 0.0, 10.000734, 9.998999 
1.0251005e+3, 2.2500327e+2, -672748.1, -788641.06, 3131.5037, -0.032502797, -0.1552301, -672663.56, 62290.32, 0.0, 10.000753, 9.999231 
1.0251082e+3, 2.3500255e+2, -638742.0, -728986.0, 10562.062, 0.042200163, -0.18069819, -637522.3, -563.53217, 0.0, 10.00035, 9.999163 
1.0251141e+3, 2.4500196e+2, -589539.1, -731486.44, -34399.344, 0.061943844, -0.11449902, -581642.1, -42676.55, 0.0, 10.000357, 9.998459 
1.0251184e+3, 2.5500113e+2, -439912.78, -618059.8, -22819.395, 0.023808021, -0.07740055, -437036.22, 3941.7893, 0.0, 10.000739, 9.998388 
1.02512345e+3, 2.6499978e+2, -281823.9, -486832.1, 47552.254, -0.003466681, -0.042412706, -271331.1, 71662.16, 0.00000001218603, 10.0011425, 9.998425 
1.0251292e+3, 2.7499762e+2, -127322.125, -363180.4, 13357.936, -0.008270414, -0.13426478, -126568.0, 118446.64, 0.0000027111198, 10.001538, 9.998408 
1.0251354e+3, 2.8499636e+2, -17450.756, -258323.95, 39541.18, 0.0071071535, -0.096889116, -11125.85, 135900.38, 0.00003356842, 10.001595, 9.998436 
1.025142e+3, 2.949956e+2, 15226.209, -203594.95, 24954.725, 0.04675562, -0.054868992, 18036.008, 67067.63, 0.00015737157, 10.001178, 9.998341 
1.02514684e+3, 3.0499277e+2, 38681.504, -192023.39, 12856.688, -0.030755293, -0.14920299, 39395.77, 39395.77, 0.00043278775, 10.001162, 9.998089 
1.0251514e+3, 3.1499055e+2, 158409.81, 27335.13, 14815.025, -0.053056445, -0.22370169, 160063.45, 160063.45, 0.00085735595, 10.001177, 9.999597 
1.03504226e+3, 1.24998644e+2, -1609124.8, -1659859.9, -131006.83, -0.01857307, -0.09313706, -1501052.1, 213949.83, 0.00027553758, 10.000621, 10.000055 
1.035049e+3, 1.3499872e+2, -1742861.0, -1706618.0, -27936.408, -0.062404532, -0.10000996, -1691440.4, -74437.664, 0.000106410545, 9.999251, 9.999724 
1.0350555e+3, 1.4499883e+2, -1626102.4, -1541455.0, -117124.695, -0.042929307, -0.07299732, -1459241.6, 59760.31, 0.000017580353, 9.999081, 10.000265 
1.0350609e+3, 1.5499957e+2, -1344358.9, -1358080.5, -55487.707, -0.038848646, -0.06908406, -1295309.4, 125684.375, 0.00000023822265, 10.000357, 10.0002365 
1.0350662e+3, 1.6499943e+2, -1291630.3, -1317653.3, -61324.336, -0.022837274, -0.08337763, -1241952.3, 81041.67, 0.0, 10.000251, 9.999865 
1.0350719e+3, 1.7499813e+2, -1375514.1, -1312786.4, -39091.664, 0.03884525, -0.2306663, -1294031.9, -69027.1, 0.0, 9.999028, 9.999817 
1.0350774e+3, 1.8499826e+2, -1281976.3, -1194214.4, -9251.272, 0.023803238, -0.20493412, -1193249.8, -66247.59, 0.0, 9.998853, 10.000061 
1.0350828e+3, 1.949994e+2, -1069904.8, -1048298.2, 9101.702, -0.07196025, -0.13311137, -1044975.2, -15985.105, 0.0, 9.999668, 9.999999 
1.0350885e+3, 2.0499906e+2, -1001224.06, -1126417.0, -29109.59, -0.10891548, -0.085873805, -994786.56, -63792.13, 0.0, 10.000178, 9.998546 
1.0350947e+3, 2.1499681e+2, -851240.5, -1012050.3, -31795.766, -0.07965529, -0.19343692, -845182.0, -12162.395, 0.0, 10.000563, 9.998478 
1.0351012e+3, 2.2499599e+2, -664597.25, -718332.2, -27234.387, -0.056734554, -0.18348636, -653208.06, 81819.82, 0.0, 10.00053, 9.999819 
1.0351079e+3, 2.3499629e+2, -628385.3, -656556.6, 12629.757, -0.039314456, -0.16757873, -623552.3, 13469.635, 0.0, 10.0001335, 9.999762 
1.0351138e+3, 2.4499603e+2, -570945.94, -641504.0, -32476.732, -0.03265568, -0.13364673, -558273.44, -19250.547, 0.0, 10.000139, 9.999181 
1.0351189e+3, 2.5499487e+2, -413351.34, -520719.97, 11628.642, -0.03408293, -0.20184638, -412106.3, 28927.56, 0.0, 10.000564, 9.999138 
1.0351245e+3, 2.649939e+2, -330509.5, -557516.25, 45544.258, -0.035681266, -0.15132535, -321712.84, 21332.684, 0.00000000560088, 10.001013, 9.998 
1.0351308e+3, 2.7499256e+2, -183219.88, -437991.94, 48043.715, -0.035145253, -0.11788554, -174461.14, 70601.48, 0.0000022721786, 10.001369, 9.997972 
1.0351366e+3, 2.8499135e+2, -24394.092, -241998.77, 8218.187, -0.05826369, -0.061670426, -24084.16, 122991.61, 0.000031172072, 10.001462, 9.998612 
1.0351419e+3, 2.9499006e+2, 2533.45, -191406.19, 36482.09, -0.12313784, -0.09144255, 9169.077, 58255.86, 0.00015322318, 10.001012, 9.998506 
1.03514746e+3, 3.0498788e+2, 69846.32, -94051.68, 4543.4585, -0.11561154, -0.16351263, 69972.18, 69972.18, 0.00043103905, 10.001031, 9.998818 
1.0351545e+3, 3.1498784e+2, 152188.28, 88186.67, 64789.73, 0.06437858, -0.09423637, 192449.23, 192449.23, 0.00086192216, 10.000895, 10.000137 
1.0450431e+3, 1.2499258e+2, -1693452.4, -1703253.9, -54165.855, 0.060038753, 0.021332568, -1643966.0, 71100.336, 0.0003338259, 10.000023, 10.000058 
1.0450488e+3, 1.349922e+2, -1634130.3, -1658284.4, 16497.914, -0.03589988, -0.031794425, -1625761.4, -8691.403, 0.00013404706, 9.999978, 9.999715 
1.0450547e+3, 1.449921e+2, -1557044.9, -1474755.8, -4778.301, -0.05307557, -0.0421905, -1474479.3, 44590.652, 0.000024406929, 9.999432, 10.000535 
1.0450609e+3, 1.549925e+2, -1555468.0, -1421017.3, -42926.19, 0.020705665, -0.09720277, -1408481.1, 12582.532, 0.0000004785213, 9.998777, 10.0005455 
1.0450668e+3, 1.6499263e+2, -1463015.6, -1363358.1, -48359.055, 0.08104565, -0.11830727, -1343749.8, -20689.633, 0.0, 9.998894, 10.000224 
1.0450723e+3, 1.7499211e+2, -1230697.5, -1204223.9, -39462.32, 0.15096118, -0.22458918, -1175837.5, 49225.117, 0.0, 9.999836, 10.000187 
1.0450777e+3, 1.8499243e+2, -1080258.4, -1111873.6, 51637.92, 0.0957261, -0.1898788, -1042062.7, 84995.664, 0.0, 10.00032, 9.999912 
1.0450825e+3, 1.949932e+2, -972250.3, -1016883.6, 19566.926, -0.09025275, -0.13610008, -964887.06, 64163.984, 0.0, 10.000418, 9.999848 
1.0450885e+3, 2.0499294e+2, -935953.25, -1059468.9, 30140.88, -0.13213377, -0.09014009, -928990.56, 2064.0825, 0.0, 10.000476, 9.998854 
1.0450957e+3, 2.1499124e+2, -852410.1, -972165.44, 54691.14, -0.027786883, -0.17694679, -831192.44, 1880.6112, 0.0, 10.0004015, 9.998814 
1.0451022e+3, 2.2499056e+2, -712139.9, -758346.3, 75773.48, 0.0010892183, -0.1640684, -656025.8, 79054.2, 0.0, 10.000262, 9.999686 
1.0451078e+3, 2.3499048e+2, -651219.0, -685018.5, 27050.188, -0.047655955, -0.1708287, -636223.4, 855.829, 0.0, 10.000028, 9.999632 
1.0451139e+3, 2.4499004e+2, -524815.6, -599183.75, 7150.6006, -0.041549407, -0.15723981, -524134.3, 14947.294, 0.0, 10.000355, 9.999381 
1.0451202e+3, 2.5498894e+2, -298042.63, -440246.2, -21042.156, 0.02683551, -0.23870726, -294994.3, 146095.64, 0.0, 10.001248, 9.999366 
1.0451263e+3, 2.6498815e+2, -256259.17, -520991.34, 12742.262, 0.03798337, -0.181888, -255647.27, 87451.87, 0.0000000009945924, 10.001499, 9.998035 
1.0451322e+3, 2.7498704e+2, -235316.11, -465956.38, 14744.664, -0.0024534897, -0.12544538, -234377.33, 10737.373, 0.0000020282196, 10.000979, 9.997991 
1.0451378e+3, 2.849859e+2, -122989.0, -279219.28, 21619.78, -0.038523518, -0.06588084, -120052.37, 27075.21, 0.00002862313, 10.000744, 9.998698 
1.04514316e+3, 2.9498464e+2, -27602.129, -187247.5, 1424.7734, -0.066518724, -0.10671393, -27589.414, 21549.479, 0.00014660136, 10.000741, 9.998653 
1.04514904e+3, 3.0498257e+2, 77596.0, -80939.99, -2266.3333, -0.043229826, -0.18063737, 77628.39, 77628.39, 0.00042212423, 10.001033, 9.998907 
1.0451563e+3, 3.1498265e+2, 192904.4, 97292.32, -57516.78, 0.15620711, -0.102885574, 219888.73, 219888.73, 0.00085377786, 10.001181, 10.000074 
1.0550432e+3, 1.2498624e+2, -1679303.0, -1668153.9, -107940.97, -0.016100157, -0.012542199, -1565643.6, 149485.8, 0.00039971265, 10.000011, 10.000297 
1.0550481e+3, 1.3498636e+2, -1625297.3, -1627942.3, 30902.303, -0.14980699, -0.034810495, -1595689.1, 21436.393, 0.00016604259, 9.999935, 9.999942 
1.05505295e+3, 1.4498597e+2, -1599085.9, -1554787.8, -52573.543, -0.21504112, -0.05858339, -1519888.1, -760.2791, 0.000032768716, 9.9994, 10.000002 
1.0550602e+3, 1.549851e+2, -1598937.6, -1508141.0, -51839.74, 0.025102846, -0.19047697, -1484631.0, -63495.117, 0.0000008393984, 9.998756, 9.999962 
1.05506666e+3, 1.6498573e+2, -1420668.1, -1267152.1, -31630.03, 0.14949708, -0.1633991, -1260890.5, 62237.49, 0.0, 9.9988575, 10.000899 
1.05507284e+3, 1.7498744e+2, -1187422.1, -1108387.4, 11630.987, 0.1888272, -0.116855055, -1106711.3, 118397.08, 0.0, 9.999806, 10.000859 
1.0550783e+3, 1.8498777e+2, -1123264.9, -1173342.6, 34355.44, 0.092912726, -0.09662036, -1105792.0, 21312.178, 0.0, 10.0002, 9.999548 
1.0550827e+3, 1.9498637e+2, -1015185.3, -1078316.1, 39322.83, -0.1423648, -0.22542872, -996325.94, 32793.113, 0.0, 10.000292, 9.999489 
1.0550889e+3, 2.049863e+2, -885742.7, -912019.4, 7569.391, -0.17584386, -0.19810745, -883718.2, 47401.16, 0.0, 10.000288, 9.99996 
1.0550965e+3, 2.149871e+2, -804335.8, -828500.7, 65988.305, -0.008186099, -0.14539312, -749332.94, 83776.29, 0.0, 10.000201, 9.999904 
1.05510265e+3, 2.2498685e+2, -808092.94, -902407.94, 50424.816, 0.011123342, -0.09846801, -786210.7, -51099.07, 0.0, 10.0000305, 9.998801 
1.0551074e+3, 2.3498513e+2, -740245.9, -823604.8, 33822.664, -0.11681554, -0.18628809, -728249.0, -91118.51, 0.0, 9.999833, 9.998768 
1.0551139e+3, 2.4498409e+2, -574288.94, -658873.7, 22403.986, -0.101817764, -0.17455937, -568721.25, -29580.596, 0.0, 10.000173, 9.999058 
1.0551222e+3, 2.549834e+2, -349948.72, -502946.16, 26876.85, 0.059802588, -0.18723659, -345364.66, 95780.98, 0.0, 10.001055, 9.999026 
1.0551286e+3, 2.6498255e+2, -251780.17, -468759.16, -22687.76, 0.0783698, -0.137776, -249433.28, 93720.87, 0.000000000012280949, 10.00132, 9.998474 
1.055133e+3, 2.7498123e+2, -226128.81, -409916.2, 17578.248, -0.056678943, -0.15294406, -224462.66, 20706.709, 0.0000016155456, 10.000823, 9.998445 
1.05513856e+3, 2.8498036e+2, -141403.36, -288666.72, 6879.13, -0.07356908, -0.09098951, -141082.7, 6096.307, 0.000025306648, 10.000623, 9.9986925 
1.0551454e+3, 2.949794e+2, -49313.207, -202602.19, 28023.271, 0.037259426, -0.09520171, -44350.824, 4836.7773, 0.00013793015, 10.000614, 9.998614 
1.055151e+3, 3.0497682e+2, 28809.299, -158700.14, -3243.8398, 0.018935246, -0.19726865, 28865.4, 28865.4, 0.00040720604, 10.000928, 9.998422 
1.0551559e+3, 3.1497535e+2, 107027.11, -22766.508, 1080.4216, -0.08350491, -0.22742593, 107036.1, 107036.1, 0.0008331317, 10.000931, 9.999371 
1.0650438e+3, 1.24980174e+2, -1797806.5, -1699850.0, -18864.107, 0.10518079, -0.060644083, -1696342.8, 18844.549, 0.00047318285, 9.99912, 10.000505 
1.0650484e+3, 1.3498028e+2, -1696653.8, -1627811.4, 41638.188, -0.056432493, -0.107942104, -1608208.9, 8973.382, 0.00020250746, 9.999329, 10.000228 
1.0650524e+3, 1.4498009e+2, -1604206.8, -1578073.1, 10803.9, -0.20809051, -0.11761168, -1574185.1, -55002.793, 0.000042863663, 9.999439, 9.999837 
1.0650597e+3, 1.5497933e+2, -1450703.4, -1453140.8, -3040.1702, 0.0587717, -0.21969809, -1448646.8, -27456.773, 0.0000013547858, 9.999837, 9.999824 
1.0650664e+3, 1.6497989e+2, -1296403.4, -1261232.3, 51553.875, 0.18955149, -0.1685964, -1224347.1, 98837.2, 0.0, 9.999936, 10.000425 
1.0650729e+3, 1.749814e+2, -1229238.8, -1181141.1, -28821.871, 0.2157027, -0.0912414, -1167652.6, 57516.42, 0.0, 9.999744, 10.000397 
1.0650784e+3, 1.8498167e+2, -1194715.8, -1208438.9, -6454.1045, 0.12293508, -0.05480257, -1192157.3, -64990.254, 0.0, 9.999697, 9.999555 
1.06508315e+3, 1.9498037e+2, -1080202.6, -1109741.6, -8295.295, -0.10009074, -0.17553107, -1078032.5, -48851.047, 0.0, 9.999833, 9.999498 
1.06508926e+3, 2.0498033e+2, -917053.8, -894086.75, -29531.314, -0.1309846, -0.15896343, -873884.8, 57296.0, 0.0, 9.999936, 10.000247 
1.0650971e+3, 2.1498123e+2, -805304.0, -793951.25, -68926.56, 0.037548214, -0.1245718, -730467.7, 102700.4, 0.0, 10.000054, 10.000206 
1.0651034e+3, 2.2498095e+2, -743120.06, -896662.75, -42953.133, 0.05171842, -0.0849697, -731920.94, 3249.315, 0.0, 10.000579, 9.99858 
1.06510825e+3, 2.349791e+2, -517665.8, -737535.1, -40896.98, -0.08266917, -0.16223276, -510305.13, 126885.56, 0.0, 10.001458, 9.998571 
1.06511496e+3, 2.4497797e+2, -400665.28, -584703.2, -6300.838, -0.057978213, -0.1472959, -400449.8, 138752.52, 0.0, 10.001394, 9.9989805 
1.0651234e+3, 2.549771e+2, -458034.06, -570489.8, -18159.926, 0.12361928, -0.16293423, -455174.22, -13964.937, 0.0, 10.000355, 9.998914 
1.06512964e+3, 2.6497617e+2, -364170.7, -465914.22, -12144.152, 0.119972385, -0.14231434, -362741.25, -19523.723, 0.0, 10.000305, 9.998973 
1.0651338e+3, 2.7497494e+2, -143161.03, -306137.34, -14326.585, -0.06439066, -0.20183897, -141911.22, 103317.76, 0.00000091217555, 10.001142, 9.998991 
1.0651396e+3, 2.8497413e+2, -36697.527, -271485.63, -6715.028, -0.06520748, -0.14733875, -36505.633, 110731.836, 0.000020761427, 10.0014715, 9.99841 
1.0651472e+3, 2.9497313e+2, 29256.738, -197006.23, -41834.895, 0.13267802, -0.12476051, 36744.04, 85992.53, 0.00012637535, 10.001267, 9.998345 
1.0651528e+3, 3.0497077e+2, 70720.914, -132525.1, -18700.176, 0.112603135, -0.19407427, 72427.15, 72427.15, 0.00038601994, 10.00119, 9.998467 
1.0651568e+3, 3.1496948e+2, 107287.91, -17580.145, -38647.332, -0.060418785, -0.21644898, 118281.555, 118281.555, 0.0008001297, 10.000919, 9.999393 
1.0750443e+3, 1.2497409e+2, -1794589.9, -1680267.3, -16921.537, 0.16872841, -0.15216203, -1677815.1, 37427.66, 0.00055371417, 9.999089, 10.000642 
1.0750494e+3, 1.34974e+2, -1688797.0, -1599429.8, 56527.99, 0.07457172, -0.24285819, -1572057.5, 45182.09, 0.00024334127, 9.99929, 10.000432 
1.07505225e+3, 1.4497446e+2, -1584279.8, -1542091.6, -2050.7822, -0.21204774, -0.21026585, -1541992.3, -22758.994, 0.00005483326, 9.999445, 10.000088 
1.07505895e+3, 1.549752e+2, -1429659.5, -1414279.1, 27507.998, -0.029698176, -0.19097142, -1393406.6, 27819.516, 0.000002073113, 9.9998455, 10.0000925 
1.0750654e+3, 1.6497518e+2, -1418454.3, -1498883.1, 23256.662, 0.06516621, -0.12957072, -1412213.6, -88984.984, 0.0000000000166348, 9.999881, 9.9988165 
1.0750718e+3, 1.7497407e+2, -1349953.5, -1416230.1, -18098.717, 0.10593507, -0.15749757, -1345333.1, -120089.016, 0.0, 9.999684, 9.998808 
1.07507765e+3, 1.8497421e+2, -1188655.8, -1167820.5, -18065.99, 0.04967457, -0.06937129, -1157383.8, -30137.838, 0.0, 9.999582, 9.9998865 
1.0750832e+3, 1.9497517e+2, -1077418.5, -1066667.0, 12320.227, -0.10719376, 0.0016216665, -1058600.8, -29362.645, 0.0, 9.99968, 9.999864 
1.0750895e+3, 2.0497508e+2, -982910.75, -991967.6, -45293.688, -0.13194396, 0.024080867, -941919.7, -10681.273, 0.0, 9.9997635, 9.999663 
1.07509665e+3, 2.149736e+2, -871989.25, -888508.06, -48427.45, -0.023945903, -0.1252, -831121.9, 2128.0295, 0.0, 9.999857, 9.999656 
1.07510366e+3, 2.2497287e+2, -745640.8, -842808.1, -23725.62, -0.004890139, -0.12719609, -740157.2, -4901.597, 0.0, 10.000329, 9.999069 
1.07511014e+3, 2.349725e+2, -519695.44, -684266.4, 14252.356, -0.07944054, -0.105692156, -518470.25, 118788.56, 0.0, 10.001213, 9.999057 
1.07511684e+3, 2.4497174e+2, -432855.47, -592830.0, -57937.066, -0.04754562, -0.080148734, -414077.03, 125188.88, 0.0, 10.001151, 9.999035 
1.0751236e+3, 2.5497016e+2, -474409.34, -565267.7, -37345.76, 0.08745216, -0.17792173, -461029.38, -19748.814, 0.0, 10.00019, 9.999022 
1.0751295e+3, 2.6496908e+2, -357338.6, -409985.47, 3190.2178, 0.047398094, -0.20040786, -357145.97, -13857.326, 0.000000000031670343, 10.000133, 9.999443 
1.0751341e+3, 2.7496812e+2, -137149.94, -256640.86, 40213.086, -0.1726003, -0.27947113, -124877.266, 120416.83, 0.00000057346807, 10.000982, 9.999414 
1.0751404e+3, 2.849672e+2, -87887.72, -348909.72, -32049.611, -0.16631119, -0.22640502, -84010.11, 63293.117, 0.000016841232, 10.001348, 9.997934 
1.0751482e+3, 2.949661e+2, -25117.332, -272551.94, -23913.428, 0.06655651, -0.179086, -22827.4, 26491.805, 0.000114238224, 10.001106, 9.997903 
1.0751543e+3, 3.049646e+2, 88237.26, -72356.766, -32738.2, 0.09532995, -0.16078408, 94654.72, 94654.72, 0.0003625103, 10.001091, 9.998928 
1.0751582e+3, 3.1496477e+2, 104969.58, 17438.86, 13057.91, -0.092360176, -0.0870575, 106876.05, 106876.05, 0.00076317973, 10.000744, 9.999725 
1.0850442e+3, 1.2496857e+2, -1736445.3, -1679515.4, 57095.848, 0.23703821, -0.1590309, -1644182.3, 71114.266, 0.00064071716, 9.999555, 10.000447 
1.0850494e+3, 1.3496856e+2, -1691878.1, -1617257.8, -8729.82, 0.15726583, -0.22662887, -1616250.1, 1043.2338, 0.00028839763, 9.999311, 10.000316 
1.0850521e+3, 1.4496897e+2, -1623717.3, -1578914.1, -26153.379, -0.1505234, -0.18278605, -1566879.9, -47591.535, 0.00006873226, 9.999301, 9.999875 
1.0850594e+3, 1.5496984e+2, -1420073.3, -1432548.4, -79595.4, 0.025488721, -0.1286902, -1346471.4, 74809.65, 0.0000030594845, 10.00004, 9.999857 
1.0850657e+3, 1.6496955e+2, -1353918.6, -1486077.5, -39736.77, 0.09034355, -0.07850812, -1342891.0, -19604.475, 0.000000000186287, 10.000391, 9.99866 
1.0850713e+3, 1.7496772e+2, -1258535.0, -1392714.6, -12255.213, 0.05999632, -0.16048397, -1257424.9, -32116.834, 0.0, 10.000386, 9.998632 
1.0850773e+3, 1.8496767e+2, -1093166.5, -1121223.4, 65401.688, 0.024304215, -0.08516169, -1040305.6, 87005.58, 0.0, 10.000233, 9.999902 
1.0850837e+3, 1.9496901e+2, -1045223.0, -1047652.2, 37009.496, -0.022794895, 0.024362616, -1009408.2, 19890.99, 0.0, 9.999901, 9.999888 
1.08509034e+3, 2.0496896e+2, -964172.75, -998010.06, 32532.748, -0.029791273, 0.057367854, -944422.4, -13123.172, 0.0, 9.999969, 9.999515 
1.08509704e+3, 2.1496712e+2, -799444.94, -872609.0, 20696.342, 0.000029142468, -0.112937324, -793996.25, 39319.13, 0.0, 10.000447, 9.999477 
1.0851039e+3, 2.2496633e+2, -686923.5, -768692.9, 87716.53, -0.006430006, -0.12854181, -631031.4, 104289.73, 0.0, 10.000539, 9.999481 
1.085111e+3, 2.3496632e+2, -636953.8, -696502.4, 77625.44, -0.05018239, -0.11090499, -583588.3, 53731.36, 0.0, 10.0002165, 9.99946 
1.0851178e+3, 2.449658e+2, -543818.2, -658725.75, 15059.746, -0.017863812, -0.076199114, -541877.25, -2552.8298, 0.0, 10.000424, 9.998952 
1.08512424e+3, 2.549644e+2, -360354.16, -518705.1, -6688.1694, 0.09517661, -0.1449835, -360072.16, 81266.65, 0.0, 10.001012, 9.998957 
1.0851303e+3, 2.6496348e+2, -232393.2, -364640.2, 53527.047, 0.068798, -0.14272562, -213443.42, 129903.15, 0.000000020287489, 10.001051, 9.999306 
1.08513564e+3, 2.7496254e+2, -209324.22, -308730.28, 6172.9233, -0.09735928, -0.2025505, -208942.36, 36409.75, 0.0000009682407, 10.000549, 9.999263 
1.08514175e+3, 2.8496155e+2, -189053.86, -371753.0, -27317.217, -0.11819732, -0.16552539, -185056.83, -37694.766, 0.000016002106, 10.000556, 9.998151 
1.0851488e+3, 2.9496017e+2, -35592.22, -243858.52, -16376.748, 0.028595125, -0.16409503, -34312.32, 15066.507, 0.00010691048, 10.000911, 9.998184 
1.0851553e+3, 3.0495876e+2, 126162.516, -56550.234, 24644.521, 0.0854796, -0.14816694, 129428.23, 129428.23, 0.00034615427, 10.001369, 9.998923 
1.08516075e+3, 3.1495947e+2, 228367.73, 69735.29, -27464.396, 0.057921644, -0.011007411, 232988.14, 232988.14, 0.00073994894, 10.001647, 9.9996605 
1.0950431e+3, 1.249636e+2, -1763566.4, -1722450.5, 69878.95, 0.10353737, -0.09073105, -1670168.3, 45180.47, 0.000734217, 9.999496, 10.000183 
1.095048e+3, 1.3496424e+2, -1709793.8, -1664671.0, -8013.6387, 0.04671155, -0.063354, -1663290.1, -45949.16, 0.00033773432, 9.999339, 9.999983 
1.09505154e+3, 1.4496377e+2, -1685172.4, -1699113.6, -21721.746, -0.18774171, -0.048505243, -1669330.3, -149983.77, 0.0000845864, 9.999276, 9.999061 
1.0950603e+3, 1.549633e+2, -1488755.4, -1556458.6, -33699.156, 0.07544349, -0.04517507, -1474841.3, -53486.855, 0.0000043925156, 9.999971, 9.999036 
1.09506674e+3, 1.64963e+2, -1269868.4, -1306257.8, -60376.188, 0.114075385, -0.014658877, -1225004.9, 98352.67, 0.0000000006358386, 10.000358, 9.999915 
1.0950708e+3, 1.7496237e+2, -1172047.3, -1211095.4, 4595.9233, -0.056320295, -0.10624068, -1171513.6, 53847.39, 0.0, 10.000364, 9.999894 
1.09507665e+3, 1.8496214e+2, -1126386.6, -1170651.0, 32102.807, -0.09245626, -0.09384602, -1109526.3, 17835.668, 0.0, 10.000154, 9.999597 
1.0950843e+3, 1.9496202e+2, -1086445.4, -1098451.9, 41683.742, 0.016189316, -0.10116759, -1050334.8, -20971.715, 0.0, 9.999756, 9.999605 
1.0950913e+3, 2.0496197e+2, -976108.06, -986273.4, 32002.139, 0.03846854, -0.062856555, -948787.5, -17424.309, 0.0, 9.999803, 9.99968 
1.09509744e+3, 2.1496165e+2, -815572.9, -861114.5, 55364.29, -0.029903894, -0.098379284, -778479.56, 54886.043, 0.0, 10.000246, 9.999657 
1.09510385e+3, 2.2496124e+2, -711568.4, -761699.94, 56144.7, -0.089313455, -0.09604062, -675148.25, 60220.19, 0.0, 10.000293, 9.999644 
1.0951106e+3, 2.3496032e+2, -657403.06, -686342.56, 81105.44, -0.13878332, -0.18942018, -589486.7, 47889.08, 0.0, 9.99999, 9.999637 
1.09511755e+3, 2.4495995e+2, -587183.0, -694759.9, 19267.98, -0.108791865, -0.140748, -583836.06, -44455.973, 0.0, 10.000201, 9.998808 
1.0951246e+3, 2.549598e+2, -403069.47, -555536.8, 34907.504, 0.0066286344, -0.07310777, -395457.4, 45927.043, 0.0, 10.000794, 9.998804 
1.09513134e+3, 2.6495942e+2, -317315.1, -491533.4, 22050.479, 0.047492355, 0.030610403, -314567.53, 28822.748, 0.00000010014453, 10.000842, 9.998532 
1.0951376e+3, 2.7495828e+2, -283265.66, -430167.9, 13004.695, 0.0064940355, 0.025376782, -282123.28, -36720.598, 0.0000018117424, 10.000408, 9.998499 
1.095143e+3, 2.8495684e+2, -152518.75, -265670.84, -29897.623, -0.070051074, 0.020155279, -145104.83, 2311.1675, 0.000017402066, 10.000429, 9.998937 
1.0951482e+3, 2.9495493e+2, -1454.6738, -141732.63, 18664.6, -0.15889268, -0.11658459, 986.25934, 50418.223, 0.00010435712, 10.000772, 9.998953 
1.09515525e+3, 3.049531e+2, 67833.96, -140430.73, 19158.06, -0.07432508, -0.15889311, 69581.625, 69581.625, 0.00033796718, 10.001223, 9.99841 
1.09516345e+3, 3.1495336e+2, 150532.52, -39815.703, 36600.527, 0.0916726, -0.009198708, 157327.56, 157327.56, 0.00073108607, 10.001419, 9.99902 
1.1050421e+3, 1.24957465e+2, -1980877.9, -1834787.3, 130544.734, 0.13566871, -0.04650597, -1758241.3, -42831.016, 0.00083503575, 9.998068, 10.00006 
1.105047e+3, 1.3495827e+2, -1652430.3, -1651863.5, -55721.797, 0.0048968396, 0.0064146947, -1596424.4, 20978.39, 0.0003918232, 9.999814, 9.999821 
1.105052e+3, 1.4495751e+2, -1551154.9, -1658759.5, -22287.262, -0.09663843, 0.007476973, -1546721.4, -27309.582, 0.000102570426, 10.000257, 9.99889 
1.1050606e+3, 1.5495645e+2, -1550381.1, -1608054.0, -18716.371, 0.13853768, -0.030236619, -1544839.6, -123414.38, 0.0000061708192, 9.999605, 9.998877 
1.1050669e+3, 1.6495621e+2, -1400580.5, -1330890.6, -7139.9336, 0.15889455, -0.0035395601, -1330166.6, -6739.27, 0.0000000015512864, 9.999312, 10.000235 
1.10507116e+3, 1.7495638e+2, -1257856.3, -1209174.9, -51589.234, -0.015210554, -0.05091206, -1176472.5, 48949.465, 0.0, 9.999617, 10.000249 
1.1050769e+3, 1.8495615e+2, -1156472.9, -1179519.5, -19384.533, -0.05723202, -0.059675198, -1145445.1, -18023.697, 0.0, 9.999929, 9.9996395 
1.10508434e+3, 1.9495513e+2, -1013018.6, -1057708.6, -21397.967, 0.031537045, -0.16236514, -1004425.44, 25004.63, 0.0, 10.0002365, 9.999653 
1.1050914e+3, 2.0495501e+2, -922055.94, -941823.4, 19394.785, 0.06591831, -0.14063857, -910171.7, 21258.129, 0.0, 10.000087, 9.999854 
1.1050979e+3, 2.1495551e+2, -904640.9, -884756.8, 6152.2437, 0.039781682, -0.11025974, -883007.25, -49583.355, 0.0, 9.999539, 9.999838 
1.10510446e+3, 2.249553e+2, -798071.7, -823172.94, 46918.063, -0.018505445, -0.08613306, -762054.56, -26629.168, 0.0, 9.999785, 9.99946 
1.10511124e+3, 2.3495406e+2, -547026.6, -652217.2, 12681.353, -0.10587877, -0.19408561, -545519.4, 91918.945, 0.0, 10.000838, 9.9994545 
1.1051182e+3, 2.4495383e+2, -438976.7, -590625.9, -26648.55, -0.09906243, -0.13600932, -434430.16, 105011.62, 0.0, 10.001092, 9.999078 
1.10512525e+3, 2.549543e+2, -417429.84, -531055.9, -26611.225, 0.010666747, -0.03316847, -411506.28, 29932.656, 0.0, 10.000564, 9.999069 
1.1051323e+3, 2.649538e+2, -378443.88, -554772.56, 25724.9, 0.08191148, 0.057902053, -374767.47, -31321.494, 0.00000018749917, 10.000557, 9.998249 
1.10513926e+3, 2.7495188e+2, -223600.66, -429940.22, 13822.025, 0.11856521, 0.0034009682, -222678.89, 22788.316, 0.0000025365616, 10.000949, 9.998243 
1.1051449e+3, 2.8495032e+2, -38863.22, -195584.81, 13926.4, 0.03816885, -0.005836402, -37635.33, 109846.234, 0.000019295574, 10.001133, 9.999096 
1.1051493e+3, 2.94949e+2, 41766.477, -107325.65, -25172.074, -0.12949324, -0.09181126, 45901.727, 95392.58, 0.00010487227, 10.001004, 9.999091 
1.10515624e+3, 3.0494732e+2, 82168.04, -136122.0, 20217.006, -0.07936417, -0.12682274, 84024.66, 84024.66, 0.00033641586, 10.001282, 9.998415 
1.10516526e+3, 3.1494737e+2, 155714.33, -23095.424, 16327.312, 0.14033416, -0.016126864, 157192.97, 157192.97, 0.0007307893, 10.001388, 9.99913 
1.1150398e+3, 1.2495068e+2, -1985742.6, -1844277.4, 157545.27, 0.012663264, -0.02116556, -1742314.9, -26838.307, 0.000944546, 9.998074, 9.999996 
1.115046e+3, 1.3495073e+2, -1670442.9, -1688110.4, 25450.352, -0.109471425, -0.014822606, -1652336.8, -34858.723, 0.00045159098, 9.999801, 9.999586 
1.1150534e+3, 1.4495021e+2, -1507780.5, -1561535.4, -71849.164, -0.043174718, -0.013664082, -1457946.1, 61538.38, 0.00012308804, 10.000235, 9.999564 
1.1150599e+3, 1.5494955e+2, -1509384.1, -1517531.9, -28517.973, 0.07225175, -0.07800708, -1484650.5, -63158.848, 0.000008505592, 9.999587, 9.999506 
1.1150658e+3, 1.649494e+2, -1449454.1, -1424961.3, -18041.94, 0.07878425, -0.037714962, -1415402.0, -91908.516, 0.0000000033697685, 9.999272, 9.999617 
1.1150716e+3, 1.7494981e+2, -1306013.4, -1300444.6, -23128.113, 0.038763374, 0.0037871501, -1279933.9, -54443.9, 0.0, 9.999566, 9.999659 
1.11507766e+3, 1.8494964e+2, -1142566.9, -1131194.8, -25740.426, -0.020677337, 0.009815898, -1110519.9, 16970.45, 0.0, 9.999844, 10.000013 
1.1150834e+3, 1.9494836e+2, -1011050.06, -1018176.56, 5724.826, -0.1185428, -0.15302072, -1007870.1, 21629.041, 0.0, 10.000089, 9.999993 
1.1150902e+3, 2.049482e+2, -933620.9, -928111.06, -23732.582, -0.08857441, -0.16304453, -906974.06, 24523.643, 0.0, 9.999925, 10.000022 
1.115098e+3, 2.1494868e+2, -925994.6, -877387.56, 2759.9194, 0.068215236, -0.1542319, -877231.3, -43741.46, 0.0, 9.999319, 9.999992 
1.11510545e+3, 2.2494863e+2, -862303.8, -907122.7, 69636.09, 0.065033495, -0.09925909, -811560.2, -76068.805, 0.0, 9.999577, 9.998984 
1.1151125e+3, 2.3494773e+2, -617628.5, -739093.3, 70715.375, -0.08752813, -0.12300204, -585145.6, 52359.816, 0.0, 10.000585, 9.998981 
1.1151192e+3, 2.4494758e+2, -434655.22, -527256.75, -60736.03, -0.12718979, -0.05976971, -404584.34, 134923.86, 0.0, 10.0008545, 9.999628 
1.11512564e+3, 2.5494784e+2, -406394.8, -467172.6, -26394.973, -0.046828683, -0.036452085, -396532.25, 44971.0, 0.0, 10.000381, 9.9995985 
1.1151326e+3, 2.6494655e+2, -390085.44, -541625.94, 22796.797, 0.022098282, -0.057252627, -386730.3, -43215.676, 0.00000020790911, 10.000398, 9.998413 
1.1151402e+3, 2.749433e+2, -231036.56, -412129.44, 51088.664, 0.08236401, -0.26546073, -217618.06, 27928.39, 0.0000030041283, 10.000798, 9.998439 
1.1151465e+3, 2.8494215e+2, -99270.48, -273758.66, -6828.121, 0.06091493, -0.22631218, -99003.68, 48554.273, 0.000021785861, 10.000944, 9.998644 
1.1151515e+3, 2.9494262e+2, -15485.358, -186970.95, 1213.7415, -0.059807304, -0.0858341, -15476.768, 34076.914, 0.00010887074, 10.000841, 9.998621 
1.115158e+3, 3.0494156e+2, 94412.836, -76680.19, 16782.857, -0.081898764, -0.054491915, 96043.555, 96043.555, 0.00034133886, 10.001143, 9.998887 
1.11516505e+3, 3.1494102e+2, 156012.55, 28566.82, 87940.16, -0.100806296, -0.050546207, 200890.2, 200890.2, 0.0007375019, 10.0011635, 9.999597 
1.12503946e+3, 1.2494308e+2, -1758898.1, -1707870.5, 154438.47, 0.12071815, -0.039672457, -1576852.5, 138697.9, 0.0010643419, 9.999509, 10.000257 
1.1250452e+3, 1.34943e+2, -1785276.6, -1714928.6, 32389.254, -0.10773175, -0.06984492, -1702287.6, -84733.98, 0.00051804923, 9.998895, 9.999843 
1.1250542e+3, 1.4494304e+2, -1687878.4, -1618409.0, -22580.678, 0.10015265, -0.038154714, -1611714.4, -92159.76, 0.00014661087, 9.998868, 9.999827 
1.1250597e+3, 1.5494303e+2, -1464890.9, -1461915.3, -52337.566, 0.09091635, -0.066567, -1411044.4, 10510.933, 0.00001150662, 9.999755, 9.999794 
1.1250652e+3, 1.6494316e+2, -1382158.5, -1394243.0, -3813.3699, 0.07172323, -0.015304666, -1381055.8, -57500.824, 0.0000000061074554, 9.999742, 9.999602 
1.1250713e+3, 1.7494328e+2, -1401885.6, -1345727.8, -1999.8977, 0.085220434, -0.0021118887, -1345656.6, -120101.664, 0.0, 9.99891, 9.999661 
1.1250774e+3, 1.849433e+2, -1277479.6, -1179616.3, 73227.83, 0.034783404, 0.015452111, -1140476.3, -12922.71, 0.0, 9.998842, 10.000168 
1.12508334e+3, 1.9494267e+2, -1068195.3, -1036289.3, 55778.28, -0.10164238, -0.0984075, -994227.5, 35328.656, 0.0, 9.999619, 10.000114 
1.1250902e+3, 2.0494245e+2, -907249.75, -934258.75, 22114.996, -0.081882186, -0.10874379, -894842.0, 36713.375, 0.0, 10.000209, 9.999833 
1.12509824e+3, 2.1494225e+2, -727805.7, -797686.9, -19505.512, 0.10074884, -0.14958096, -722729.9, 110825.2, 0.0, 10.000769, 9.999831 
1.1251057e+3, 2.249421e+2, -737214.06, -842815.6, 83001.516, 0.10616759, -0.09901442, -691642.25, 43915.566, 0.0, 10.0004, 9.9990425 
1.12511255e+3, 2.3494181e+2, -813634.56, -825301.9, 88001.3, -0.061981402, -0.06796366, -731273.75, -93707.91, 0.0, 9.9991865, 9.999067 
1.1251195e+3, 2.4494162e+2, -658489.75, -624387.06, 17783.16, -0.10107681, -0.020148985, -616801.25, -77232.79, 0.0, 9.999278, 9.999724 
1.1251265e+3, 2.549412e+2, -353805.3, -430259.94, -14353.303, -0.0044896095, -0.0687486, -351199.5, 90369.18, 0.0, 10.0007105, 9.999699 
1.1251336e+3, 2.6493996e+2, -254623.58, -461383.5, 35160.273, 0.05506882, -0.09391393, -248808.03, 94771.04, 0.00000016860811, 10.001277, 9.998534 
1.125141e+3, 2.7493748e+2, -200726.34, -383938.4, 15461.431, 0.080406554, -0.23617592, -199430.7, 46173.227, 0.0000038179373, 10.000963, 9.998544 
1.1251475e+3, 2.8493628e+2, -103928.56, -319191.2, 59.27835, 0.06708405, -0.18566427, -103928.55, 43687.617, 0.000026510976, 10.00108, 9.998265 
1.1251532e+3, 2.9493606e+2, 46434.39, -192696.23, -29884.848, 0.014144051, -0.085053794, 50112.61, 99732.164, 0.00011807009, 10.001425, 9.998288 
1.1251596e+3, 3.0493465e+2, 152599.06, -51162.59, 5995.1104, -0.02140399, -0.069091454, 152775.3, 152775.3, 0.0003550206, 10.001579, 9.998856 
1.1251661e+3, 3.149343e+2, 152663.95, 17988.385, -23607.46, -0.09043268, -0.028063234, 156682.25, 156682.25, 0.0007557848, 10.001173, 9.999538 
1.1350382e+3, 1.2493437e+2, -1725585.6, -1628715.5, -5646.8867, -0.04077418, -0.13500291, -1628387.4, 87247.59, 0.0011953667, 9.999486, 10.000801 
1.13504395e+3, 1.3493511e+2, -1732108.0, -1594307.1, 21444.064, -0.16246346, -0.16593826, -1591047.1, 26581.96, 0.00059164723, 9.998864, 10.00068 
1.1350541e+3, 1.449363e+2, -1692434.8, -1624813.8, -9762.658, 0.15544617, -0.061387848, -1623432.5, -103812.88, 0.00017336896, 9.998856, 9.999792 
1.13505945e+3, 1.5493727e+2, -1471578.9, -1470162.4, 2297.7678, 0.052007288, 0.016071955, -1468466.1, -46852.97, 0.000015247707, 9.999728, 9.999754 
1.13506444e+3, 1.6493763e+2, -1349355.4, -1318784.4, -55568.063, -0.022642432, 0.06622236, -1276437.8, 47172.363, 0.000000009421829, 9.999708, 10.000135 
1.1350694e+3, 1.7493692e+2, -1369056.0, -1274255.8, -19523.21, -0.019973315, -0.0577764, -1270392.6, -44777.254, 0.0, 9.998895, 10.000158 
1.1350759e+3, 1.8493718e+2, -1286744.1, -1184470.0, 81035.51, -0.030351082, -0.040016502, -1139785.6, -12174.543, 0.0, 9.998776, 10.000171 
1.1350836e+3, 1.9493808e+2, -1093126.6, -1045399.56, 102289.19, -0.06408514, -0.001152623, -964227.2, 65373.33, 0.0, 9.999434, 10.000144 
1.135091e+3, 2.0493789e+2, -980118.7, -1042631.44, 23307.082, -0.05553752, 0.02208048, -972385.56, -40783.664, 0.0, 10.000022, 9.999183 
1.1350984e+3, 2.1493623e+2, -810970.4, -911513.44, 15615.163, 0.012603888, -0.09573916, -808601.06, 25017.865, 0.0, 10.000519, 9.999173 
1.1351051e+3, 2.249358e+2, -726533.7, -771858.5, 17210.86, -0.025096813, -0.071142755, -720739.1, 14884.839, 0.0, 10.000182, 9.999634 
1.1351109e+3, 2.3493622e+2, -806216.3, -759044.6, 59151.86, -0.17184326, -0.031907897, -718949.75, -81329.28, 0.0, 9.998962, 9.999633 
1.1351183e+3, 2.4493586e+2, -712095.75, -689679.56, 53690.594, -0.17248613, -0.010642471, -646039.7, -106416.53, 0.0, 9.999081, 9.999369 
1.1351275e+3, 2.549344e+2, -403306.72, -491516.4, 57573.027, -0.0044749305, -0.13099343, -374886.47, 66748.62, 0.0, 10.000526, 9.999367 
1.13513514e+3, 2.6493403e+2, -276621.25, -469618.06, 8693.1455, 0.044297293, -0.056637112, -276230.47, 67408.74, 0.00000020663475, 10.001114, 9.998561 
1.1351411e+3, 2.7493417e+2, -224530.17, -401181.8, 27638.37, -0.03544377, 0.069116764, -220306.92, 25334.105, 0.0000055002247, 10.000816, 9.998501 
1.1351474e+3, 2.8493255e+2, -149747.56, -373851.03, -6166.3145, -0.08863942, 0.09270869, -149578.02, -1919.8807, 0.000033703815, 10.000918, 9.99796 
1.1351541e+3, 2.9492897e+2, 1072.799, -247117.75, 5546.939, -0.08631716, -0.11133848, 1196.7085, 50888.652, 0.00013271971, 10.00125, 9.997999 
1.1351612e+3, 3.0492637e+2, 88844.84, -136908.03, -21221.445, -0.059240546, -0.1784281, 90822.41, 90822.41, 0.00037893685, 10.001388, 9.998357 
1.13516726e+3, 3.1492722e+2, 86839.34, -60863.207, 13245.43, -0.16595483, 0.02985494, 88017.74, 88017.74, 0.00079122034, 10.000927, 9.999113 
1.14503734e+3, 1.2492765e+2, -2048441.9, -1796273.3, 5361.502, 0.05499828, -0.08274194, -1796159.3, -80456.234, 0.0013373722, 9.997286, 10.000733 
1.1450431e+3, 1.3492851e+2, -1691093.4, -1561291.9, 16429.773, -0.122743525, -0.11681526, -1559244.6, 58451.62, 0.000672049, 9.999047, 10.000839 
1.1450534e+3, 1.4492987e+2, -1588305.3, -1522595.3, -1881.3234, 0.18796767, -0.027337218, -1522541.5, -2857.1719, 0.0002032588, 9.999363, 10.000241 
1.1450587e+3, 1.5493098e+2, -1632318.8, -1498530.1, -4921.08, 0.08608647, 0.02318191, -1498349.4, -76675.055, 0.000019742625, 9.998426, 10.000184 
1.1450636e+3, 1.6493134e+2, -1523197.4, -1391853.9, -11690.931, 0.004989342, 0.04626833, -1390821.4, -67151.195, 0.000000013934886, 9.998478, 10.000226 
1.1450687e+3, 1.7493048e+2, -1247787.9, -1201355.0, -38198.21, -0.019951612, -0.10023289, -1179871.3, 45804.566, 0.0, 9.999679, 10.000276 
1.1450753e+3, 1.8493067e+2, -1126764.1, -1122251.8, 70763.05, -0.015750587, -0.08772849, -1053708.9, 73963.484, 0.0, 9.999948, 10.000023 
1.1450835e+3, 1.9493161e+2, -1129869.0, -1067403.8, 38969.59, -0.003327135, -0.034625344, -1048695.3, -19032.56, 0.0, 9.99924, 10.00006 
1.1450912e+3, 2.0493162e+2, -1104542.8, -1116183.6, 35256.527, 0.012648428, 0.015097389, -1074629.5, -142965.89, 0.0, 9.999193, 9.999093 
1.1450989e+3, 2.1493027e+2, -912075.56, -969173.75, 41910.465, 0.047511004, -0.0665069, -889914.3, -56235.48, 0.0, 9.999829, 9.999123 
1.1451054e+3, 2.2492982e+2, -703621.0, -759325.3, 46068.75, -0.0030414856, -0.038440708, -677639.4, 58044.375, 0.0, 10.000367, 9.999617 
1.14511095e+3, 2.3492992e+2, -527351.56, -619837.94, 1839.7534, -0.14903265, -0.02873962, -527315.0, 110366.97, 0.0, 10.000881, 9.999653 
1.1451186e+3, 2.4492924e+2, -458049.66, -608489.6, 42722.883, -0.13285154, -0.021234745, -446763.63, 92923.88, 0.0, 10.000986, 9.999014 
1.1451287e+3, 2.5492758e+2, -398271.7, -520743.03, 12842.52, 0.062500514, -0.12904307, -396939.5, 44763.188, 0.0, 10.000705, 9.999073 
1.1451365e+3, 2.6492715e+2, -347519.63, -525340.5, -29091.402, 0.096819125, -0.039104607, -342881.28, 827.632, 0.00000038376965, 10.000701, 9.998382 
1.14514194e+3, 2.7492744e+2, -215860.4, -412007.38, -59148.125, -0.03283288, 0.11404582, -199404.81, 46306.137, 0.0000075917305, 10.000936, 9.99837 
1.14514835e+3, 2.8492603e+2, -90911.04, -332112.4, -21929.508, -0.08070577, 0.1592906, -88933.47, 58792.94, 0.000041535674, 10.00126, 9.99809 
1.14515625e+3, 2.9492277e+2, 52546.547, -204594.45, -19461.24, 0.0014029959, -0.021924296, 54011.094, 103767.36, 0.00014998692, 10.001534, 9.998154 
1.14516355e+3, 3.0491984e+2, 126712.52, -138719.23, -261.27972, 0.039441995, -0.12178926, 126712.78, 126712.78, 0.00040888134, 10.001701, 9.998197 
1.14516884e+3, 3.149199e+2, 131623.63, -42897.938, -12667.445, -0.10475998, 0.015737204, 132538.28, 132538.28, 0.0008408799, 10.001264, 9.999058 
1.1550339e+3, 1.24922186e+2, -2083158.6, -1858701.4, -55933.574, -0.09086943, 0.037272032, -1845535.4, -129773.445, 0.001489488, 9.9972515, 10.000315 
1.15504235e+3, 1.3492346e+2, -1721444.0, -1615962.6, 98896.92, -0.14195591, 0.08162046, -1556622.1, 61130.44, 0.00075867696, 9.9990225, 10.0004635 
1.15505174e+3, 1.4492379e+2, -1538525.0, -1423326.5, -57635.96, 0.026784938, 0.0535232, -1399442.3, 120306.04, 0.0002361324, 9.99936, 10.000937 
1.1550571e+3, 1.5492411e+2, -1573450.4, -1385256.9, -24765.354, 0.03718322, -0.051936846, -1382052.5, 39687.273, 0.000024990082, 9.998449, 10.000959 
1.1550624e+3, 1.6492426e+2, -1538633.5, -1419496.8, 12367.708, -0.007625481, -0.078641556, -1418226.4, -94491.62, 0.000000023716384, 9.998467, 10.000036 
1.15506835e+3, 1.7492408e+2, -1274920.5, -1238179.5, 24355.053, -0.053154208, -0.13839453, -1226043.5, -308.12274, 0.0, 9.999604, 10.0000515 
1.15507506e+3, 1.8492392e+2, -1170631.5, -1191181.0, 24896.543, -0.067996636, -0.12681422, -1153972.9, -26236.56, 0.0, 9.999853, 9.999594 
1.1550824e+3, 1.9492334e+2, -1178319.5, -1138236.5, 24980.814, -0.069923066, -0.18584448, -1126251.4, -96509.33, 0.0, 9.999109, 9.999637 
1.1550903e+3, 2.0492363e+2, -1079929.9, -1028955.5, 34249.984, -0.030533073, -0.12040125, -1011750.06, -80010.08, 0.0, 9.999033, 9.999769 
1.1550991e+3, 2.1492441e+2, -899108.94, -890429.44, 81285.52, 0.06374114, -0.05696697, -813367.9, 20365.957, 0.0, 9.999597, 9.999778 
1.1551064e+3, 2.2492425e+2, -785579.5, -875761.75, 46723.707, 0.033391487, 0.0013857326, -765737.44, -30001.055, 0.0, 10.000136, 9.998928 
1.1551123e+3, 2.3492286e+2, -611137.0, -741133.0, 37919.793, -0.12802382, -0.068355866, -600884.44, 36866.535, 0.0, 10.000656, 9.99893 
1.1551201e+3, 2.4492179e+2, -508969.94, -662599.94, 10680.42, -0.117912374, -0.050442193, -508230.97, 31530.834, 0.0, 10.000761, 9.998751 
1.1551297e+3, 2.5492072e+2, -447907.22, -580383.8, 18765.283, 0.0599014, -0.07084591, -445300.4, -3528.3428, 0.0, 10.000506, 9.998762 
1.1551372e+3, 2.6491928e+2, -398837.8, -585518.8, -34637.45, 0.07597618, -0.047264423, -392618.28, -48829.723, 0.0000005356376, 10.000509, 9.9980545 
1.15514286e+3, 2.7491716e+2, -257674.81, -460688.22, -27269.338, -0.07603749, -0.11095932, -254075.72, -8261.15, 0.000008957139, 10.000772, 9.998112 
1.15515e+3, 2.8491676e+2, -69344.44, -248816.61, -25579.639, -0.068921246, 0.014990949, -65769.836, 82050.49, 0.000047577858, 10.001099, 9.998737 
1.1551592e+3, 2.9491758e+2, 74696.21, -134814.44, 20946.75, 0.092394605, 0.17665595, 76769.93, 126581.2, 0.00016516355, 10.001416, 9.998697 
1.15516625e+3, 3.04915e+2, 93149.61, -154727.23, -27419.96, 0.10710126, 0.09087806, 96146.555, 96146.555, 0.00043860512, 10.001493, 9.998173 
1.1551695e+3, 3.1491184e+2, 101292.39, -50785.07, 28104.281, -0.24100994, -0.093194745, 106319.92, 106319.92, 0.0008954558, 10.001029, 9.999111 
1.1650319e+3, 1.2491576e+2, -1861622.5, -1714774.4, -17869.863, -0.07119763, 0.056226246, -1712631.1, 3196.2678, 0.0016512593, 9.998611, 10.000637 
1.1650414e+3, 1.349172e+2, -1946536.6, -1714448.5, 124519.87, -0.042497255, 0.11395919, -1660282.6, -42468.477, 0.0008513687, 9.997455, 10.00054 
1.1650496e+3, 1.4491713e+2, -1802528.9, -1536292.5, 10038.638, -0.023869628, 0.03587572, -1535914.5, -16102.125, 0.00027198074, 9.997509, 10.001039 
1.165056e+3, 1.5491724e+2, -1477335.9, -1329230.3, -47092.438, 0.06665164, -0.101560615, -1315524.8, 106280.28, 0.00003101119, 9.999076, 10.001034 
1.16506204e+3, 1.649175e+2, -1390922.1, -1380946.3, -6631.1763, 0.06374837, -0.10876353, -1377636.5, -53836.58, 0.00000004774233, 9.999606, 9.999761 
1.1650684e+3, 1.7491768e+2, -1367280.4, -1320006.8, -37753.832, 0.0126151405, -0.09850338, -1299100.9, -73301.65, 0.0, 9.9991, 9.999752 
1.1650751e+3, 1.849174e+2, -1292553.3, -1257566.3, -2381.7002, -0.005555491, -0.0813053, -1257404.9, -129602.88, 0.0, 9.999045, 9.999526 
1.16508216e+3, 1.9491628e+2, -1110140.0, -1112687.8, -8229.415, -0.020145196, -0.18844469, -1103086.5, -73274.336, 0.0, 9.999605, 9.999577 
1.16509e+3, 2.0491639e+2, -941983.2, -952790.56, 44109.133, -0.0008356483, -0.14034851, -902948.0, 28863.281, 0.0, 9.999969, 9.999827 
1.16509885e+3, 2.1491739e+2, -816997.6, -836967.6, -211.0385, 0.060551662, -0.061445203, -816995.44, 16807.271, 0.0, 10.000136, 9.999869 
1.1651067e+3, 2.2491732e+2, -787325.94, -899176.5, -5620.414, 0.0517225, 0.008465585, -787044.25, -51239.51, 0.0, 10.0001955, 9.998752 
1.1651137e+3, 2.3491572e+2, -698808.6, -803432.25, -4091.313, -0.02474152, -0.061820436, -698648.9, -60827.285, 0.0, 10.00012, 9.998772 
1.1651215e+3, 2.4491464e+2, -596056.2, -712878.56, 24236.219, -0.018051272, -0.035817657, -591227.6, -51393.992, 0.0, 10.0001955, 9.998675 
1.16513014e+3, 2.5491372e+2, -459025.06, -593180.9, 8750.507, 0.068846144, -0.035132993, -458456.7, -16612.723, 0.0, 10.000455, 9.998699 
1.1651378e+3, 2.6491237e+2, -315478.66, -506340.72, 36940.656, 0.076961756, -0.018917916, -308578.38, 35281.027, 0.00000056359414, 10.000921, 9.998399 
1.16514474e+3, 2.7491024e+2, -124675.43, -358817.75, 51406.996, 0.014750076, -0.105907895, -113885.98, 131996.52, 0.00000928475, 10.001539, 9.998445 
1.1651521e+3, 2.8490987e+2, -15305.658, -236798.44, 57301.62, 0.012182429, 0.01048739, -1359.4722, 146528.03, 0.000050789153, 10.001509, 9.998628 
1.16515994e+3, 2.949108e+2, -38452.227, -197324.22, 3892.5505, 0.07523375, 0.19083494, -38356.91, 11521.792, 0.00017624088, 10.000684, 9.998613 
1.1651675e+3, 3.0490825e+2, 27664.217, -220031.69, -449.5584, 0.11431079, 0.12060753, 27665.033, 27665.033, 0.00046429865, 10.001166, 9.997899 
1.165173e+3, 3.1490475e+2, 295672.38, 35769.05, -21860.379, -0.046236776, -0.055952772, 297498.22, 297498.22, 0.00094360544, 10.002386, 9.999072 
1.1750317e+3, 1.2490854e+2, -1801586.3, -1555646.4, -29853.45, -0.030828035, -0.023872513, -1552074.5, 163823.25, 0.0018234614, 9.998497, 10.001778 
1.17504016e+3, 1.3490985e+2, -1912991.1, -1645171.4, 94400.98, 0.053256772, -0.02289161, -1615241.8, 2638.1863, 0.0009506097, 9.997468, 10.001007 
1.1750464e+3, 1.4491001e+2, -1842037.6, -1610064.4, 49584.23, -0.13667886, -0.079632975, -1599910.3, -80034.88, 0.00031097958, 9.9974785, 10.000542 
1.17505506e+3, 1.5491046e+2, -1520032.0, -1413562.4, 31473.076, 0.028039701, -0.12650807, -1404954.6, 16914.777, 0.00003785508, 9.999055, 10.000463 
1.1750621e+3, 1.6491094e+2, -1429192.1, -1451382.3, -44512.508, 0.06657745, -0.056385856, -1394412.8, -70546.53, 0.00000010132158, 9.999567, 9.999292 
1.175068e+3, 1.7491128e+2, -1404421.0, -1382803.8, -38828.64, 0.038075, 0.004383016, -1353307.4, -127440.01, 0.0, 9.999039, 9.999349 
1.1750748e+3, 1.8491125e+2, -1279569.0, -1213212.8, -1289.5686, 0.022655504, 0.04965414, -1213187.8, -85319.66, 0.0, 9.998971, 9.999868 
1.17508225e+3, 1.9491047e+2, -1104467.9, -1074240.1, 33052.477, 0.0058806897, -0.05621631, -1053009.9, -23137.693, 0.0, 9.999485, 9.999903 
1.17508985e+3, 2.0490989e+2, -1013148.6, -1060605.9, 30780.682, -0.04121776, -0.057738844, -998012.1, -66135.41, 0.0, 9.9998, 9.999166 
1.1750977e+3, 2.1490926e+2, -895806.6, -951836.0, 22346.275, -0.10150421, -0.07875423, -887985.9, -54101.113, 0.0, 9.999919, 9.999188 
1.1751059e+3, 2.2490892e+2, -793751.56, -851246.56, -28083.621, -0.085070126, -0.023761714, -782310.6, -46421.176, 0.0, 9.999938, 9.999202 
1.1751144e+3, 2.349086e+2, -701340.3, -746845.0, 11065.264, 0.0054382486, -0.015768114, -698792.3, -60898.953, 0.0, 9.999866, 9.999276 
1.1751223e+3, 2.449079e+2, -625820.3, -724342.2, 15937.643, 0.01773746, 0.022425644, -623306.25, -83404.12, 0.0, 9.99997, 9.998711 
1.1751296e+3, 2.5490648e+2, -478202.06, -589821.0, 35791.465, -0.05217697, -0.03440097, -467711.25, -25792.03, 0.0, 10.000266, 9.998813 
1.17513806e+3, 2.6490617e+2, -280292.34, -391552.22, 40954.71, -0.020566793, 0.037491783, -266842.75, 77080.23, 0.0000005132723, 10.000736, 9.999282 
1.1751474e+3, 2.7490652e+2, -84690.46, -242747.61, 95207.63, 0.086237, 0.104342744, -39985.41, 205932.23, 0.000009286575, 10.00139, 9.999317 
1.1751539e+3, 2.8490528e+2, -106334.766, -384448.44, 10528.104, 0.019822357, 0.14048463, -105936.8, 41992.703, 0.000051726838, 10.001336, 9.997695 
1.1751582e+3, 2.9490215e+2, -107940.72, -321480.47, -3653.222, -0.21221812, 0.0061652814, -107878.234, -57916.637, 0.00018255804, 10.0005865, 9.997809 
1.175167e+3, 3.0489916e+2, -25700.29, -284534.3, 36153.777, -0.078068316, -0.051709246, -20745.21, -20745.21, 0.0004800074, 10.00099, 9.997532 
1.1751784e+3, 3.1489867e+2, 251591.52, 21528.664, 69232.11, 0.1757743, 0.10434068, 270818.47, 270818.47, 0.0009690312, 10.002074, 9.999114 
1.1850299e+3, 1.2490139e+2, -1951887.8, -1600105.8, 26369.229, 0.024540573, -0.0065354495, -1598140.1, 117826.64, 0.0020081834, 9.997306, 10.002062 
1.1850387e+3, 1.349022e+2, -1815601.1, -1591565.1, -21396.67, 0.1507245, -0.07300861, -1589540.0, 28412.12, 0.0010574218, 9.998083, 10.001089 
1.18504465e+3, 1.4490257e+2, -1745501.5, -1589629.1, 6620.7314, -0.085065246, -0.099313274, -1589348.4, -69402.805, 0.00035351914, 9.998226, 10.000337 
1.1850538e+3, 1.5490302e+2, -1687275.4, -1510202.8, -26877.746, 0.06390644, -0.12719132, -1506213.0, -84270.414, 0.00004562391, 9.997975, 10.000327 
1.1850614e+3, 1.6490366e+2, -1566078.1, -1497017.5, -28012.154, 0.10635369, -0.045297977, -1487084.1, -163145.14, 0.00000019883093, 9.99855, 9.999471 
1.1850679e+3, 1.749041e+2, -1235489.6, -1275428.4, -15623.8125, 0.07309252, 0.005934787, -1230103.9, -4165.8774, 0.0, 10.000097, 9.999568 
1.1850748e+3, 1.8490425e+2, -1056065.8, -1127064.0, 38303.21, 0.054828838, 0.066650435, -1039341.1, 88596.375, 0.0, 10.000591, 9.999684 
1.1850823e+3, 1.9490372e+2, -1042335.25, -1062311.4, -6151.45, 0.035284925, 0.0054545593, -1040592.94, -10651.858, 0.0, 9.999985, 9.999746 
1.1850897e+3, 2.0490293e+2, -1042969.3, -1084155.3, 34725.08, -0.015619355, -0.0056049773, -1023190.25, -91242.445, 0.0, 9.999623, 9.999102 
1.18509755e+3, 2.1490157e+2, -953064.75, -979619.8, 42075.684, -0.08007867, -0.09197605, -922221.4, -88260.41, 0.0, 9.999534, 9.999183 
1.18510574e+3, 2.2490112e+2, -800386.44, -846838.56, 47925.633, -0.07478072, -0.04938288, -770355.44, -34389.305, 0.0, 9.999863, 9.999264 
1.1851144e+3, 2.3490126e+2, -593520.75, -689773.5, 15888.888, -0.0060010734, -0.002031961, -590965.7, 47001.18, 0.0, 10.000581, 9.999323 
1.1851224e+3, 2.4490088e+2, -519254.63, -651229.1, 25293.719, 0.013411373, 0.054418035, -514573.0, 25399.959, 0.0, 10.00062, 9.998899 
1.18513e+3, 2.5489956e+2, -512984.44, -595680.5, 18235.883, -0.019686976, -0.0035185697, -509141.7, -67153.47, 0.0, 9.999976, 9.998922 
1.1851387e+3, 2.6489934e+2, -372282.97, -398353.13, 69960.63, 0.018894864, 0.056902632, -314153.4, 29836.762, 0.0000005059796, 9.999958, 9.999598 
1.1851483e+3, 2.748998e+2, -180620.81, -258308.05, 37514.668, 0.10461494, 0.105517566, -165462.8, 80519.69, 0.000009353779, 10.000605, 9.999584 
1.1851553e+3, 2.8489837e+2, -127208.89, -407803.8, -25756.94, 0.027916698, 0.11263257, -124864.15, 23131.816, 0.000051580555, 10.001273, 9.997552 
1.1851597e+3, 2.9489478e+2, 75628.664, -252470.86, -24810.775, -0.17962454, -0.048772234, 77494.24, 127527.08, 0.00018437536, 10.001948, 9.997622 
1.1851687e+3, 3.0489197e+2, 123866.13, -222504.78, 88286.62, -0.040606767, -0.07704925, 145071.34, 145071.34, 0.00048100852, 10.002035, 9.997466 
1.1851802e+3, 3.1489193e+2, 116212.336, -41217.26, 67759.8, 0.2180268, 0.13144293, 141360.0, 141360.0, 0.00096257555, 10.001095, 9.9991665 
1.1950276e+3, 1.2489395e+2, -1993872.6, -1681246.9, 77036.77, -0.02406363, 0.062498383, -1663294.5, 52743.563, 0.0022081332, 9.997288, 10.001503 
1.1950365e+3, 1.3489404e+2, -1823826.6, -1611625.4, 19522.336, 0.082054816, -0.061595246, -1609844.4, 8188.0005, 0.0011730703, 9.998085, 10.00095 
1.1950437e+3, 1.4489472e+2, -1742374.0, -1574821.5, -24926.361, -0.050265193, -0.056766223, -1571192.0, -51167.57, 0.00040013902, 9.998198, 10.00045 
1.195052e+3, 1.5489508e+2, -1676529.6, -1493400.6, -18730.316, 0.04139333, -0.10699076, -1491504.5, -69481.6, 0.00005450229, 9.9979925, 10.000437 
1.1950597e+3, 1.6489571e+2, -1508749.6, -1376807.0, 7341.889, 0.04052912, -0.073600344, -1376399.8, -52382.47, 0.00000035173326, 9.998539, 10.000305 
1.1950674e+3, 1.7489626e+2, -1188107.4, -1165397.5, 58511.695, -0.016153535, -0.090656616, -1117149.1, 108860.99, 0.0, 10.000039, 10.000358 
1.1950746e+3, 1.8489647e+2, -1122672.3, -1241607.1, -3184.073, -0.055269428, -0.025373133, -1122587.0, 5422.478, 0.0, 10.000493, 9.998942 
1.1950814e+3, 1.9489604e+2, -1115943.5, -1182565.1, -12594.552, -0.07644832, -0.001670281, -1113642.1, -83623.516, 0.0, 9.999843, 9.998989 
1.19508915e+3, 2.0489548e+2, -1026378.1, -1006370.9, 10613.74, -0.06799046, 0.015096572, -1001789.44, -69765.03, 0.0, 9.999443, 9.999718 
1.1950979e+3, 2.1489441e+2, -942192.1, -905609.7, 55967.016, -0.020478353, -0.10471482, -865020.75, -30990.5, 0.0, 9.999313, 9.999796 
1.195106e+3, 2.2489399e+2, -864331.25, -922448.6, 54458.71, -0.06045484, -0.072261, -831663.44, -95628.72, 0.0, 9.999618, 9.998862 
1.1951134e+3, 2.3489387e+2, -655009.9, -760041.4, 56606.125, -0.1911375, -0.011674305, -630310.6, 7730.24, 0.0, 10.0003395, 9.998951 
1.19512156e+3, 2.448937e+2, -535347.9, -630896.56, -17316.992, -0.16691417, 0.07431215, -532306.2, 7738.614, 0.0, 10.000388, 9.999156 
1.1951305e+3, 2.5489312e+2, -521212.03, -562843.6, 13011.757, 0.010008547, 0.06021641, -517479.84, -75429.87, 0.0, 9.99977, 9.999245 
1.19513914e+3, 2.648921e+2, -428344.34, -470905.75, 76690.63, 0.0479089, 0.044434737, -370036.6, -25977.508, 0.0000006389743, 9.999766, 9.999197 
1.19514756e+3, 2.7489033e+2, -229718.52, -317061.34, 81790.234, -0.06430957, -0.095621176, -180670.81, 65404.72, 0.000009301616, 10.000425, 9.999266 
1.1951556e+3, 2.8488928e+2, -113240.4, -343201.88, -14955.424, -0.08970441, -0.0568208, -112271.86, 35813.438, 0.00005191434, 10.001113, 9.998077 
1.1951637e+3, 2.9488856e+2, 87453.48, -193747.14, 26801.984, -0.014996143, 0.013328833, 89985.25, 140078.33, 0.00018470343, 10.001789, 9.998107 
1.195172e+3, 3.0488646e+2, 91012.62, -233637.77, 45106.676, 0.061923753, 0.036075827, 97163.18, 97163.18, 0.00047307427, 10.001809, 9.997487 
1.1951779e+3, 3.1488448e+2, 73374.67, -56250.176, 81380.73, -0.19363542, 0.03700325, 112598.17, 112598.17, 0.0009340092, 10.000796, 9.999196 
1.2050271e+3, 1.2488574e+2, -1829190.9, -1689762.3, 175261.5, 0.13177022, -0.0061001303, -1570858.8, 145252.88, 0.0024257244, 9.998809, 10.000719 
1.205034e+3, 1.3488555e+2, -1803834.8, -1630173.4, 36760.637, 0.03195701, -0.121403374, -1622712.4, -4599.423, 0.0012988481, 9.998373, 10.000671 
1.2050426e+3, 1.4488655e+2, -1718140.0, -1583190.9, 30611.104, 0.017406158, -0.062326156, -1576571.9, -56467.074, 0.00045139206, 9.998432, 10.000286 
1.2050509e+3, 1.548873e+2, -1482153.3, -1414042.6, -29991.898, 0.07336578, -0.062284954, -1402718.6, 19382.459, 0.00006471426, 9.99938, 10.000315 
1.2050586e+3, 1.64888e+2, -1370342.3, -1277695.3, 6439.09, 0.04711271, -0.027335892, -1277249.9, 46844.48, 0.00000057087306, 9.999359, 10.00058 
1.2050663e+3, 1.7488833e+2, -1394944.4, -1228183.1, -19210.951, -0.040950537, -0.09610447, -1225998.6, 89.18018, 0.0, 9.998478, 10.000668 
1.205074e+3, 1.8488856e+2, -1435329.3, -1393057.6, -44869.105, -0.04775891, -0.044722795, -1364595.5, -236508.6, 0.0, 9.998363, 9.998921 
1.2050818e+3, 1.9488831e+2, -1220661.0, -1230396.9, -34449.9, 0.023856753, -0.0031916336, -1190736.8, -160641.13, 0.0, 9.999126, 9.998996 
1.2050897e+3, 2.0488809e+2, -963875.3, -942393.0, 46056.28, 0.042407524, 0.03093471, -905841.94, 26256.37, 0.0, 9.999697, 10.000043 
1.2050978e+3, 2.1488748e+2, -810547.1, -810852.5, 30745.064, 0.005764403, -0.07561767, -779954.4, 54144.3, 0.0, 10.000042, 10.000111 
1.2051057e+3, 2.2488709e+2, -790397.9, -899707.9, 76054.234, -0.061377544, -0.050135355, -751397.0, -15294.787, 0.0, 10.00018, 9.998753 
1.2051139e+3, 2.3488656e+2, -690731.44, -795055.3, 64884.71, -0.15510751, -0.014285618, -659641.4, -21529.037, 0.0, 10.000165, 9.998805 
1.2051225e+3, 2.4488619e+2, -525615.75, -616718.8, 8969.441, -0.10849683, 0.05521826, -524741.06, 15376.67, 0.0, 10.000431, 9.999212 
1.2051313e+3, 2.5488555e+2, -343251.25, -474247.88, -18884.768, 0.06028337, 0.031451058, -340583.13, 101539.195, 0.00000000020898414, 10.000985, 9.999256 
1.20513976e+3, 2.648845e+2, -301307.25, -453540.0, 64252.47, 0.07829657, 0.026883211, -277813.97, 66319.016, 0.00000074892756, 10.000814, 9.998813 
1.2051477e+3, 2.7488267e+2, -340013.03, -415197.38, 32029.604, -0.057652995, -0.077459574, -328218.3, -82065.67, 0.000009032264, 9.999842, 9.998873 
1.2051565e+3, 2.848818e+2, -225238.73, -342842.97, 13907.049, -0.05577353, -0.028092774, -223616.56, -75455.445, 0.000052136886, 10.000114, 9.998565 
1.2051663e+3, 2.948815e+2, 89147.87, -134762.92, 6437.6484, 0.08992156, 0.03992383, 89332.8, 139495.16, 0.0001849306, 10.001576, 9.998608 
1.2051749e+3, 3.0487964e+2, 175080.33, -185695.05, 6361.5713, 0.15305983, 0.05629292, 175192.47, 175192.47, 0.0004665325, 10.002348, 9.997557 
1.2051791e+3, 3.1487688e+2, 225537.25, 29510.313, -27923.967, -0.18470027, -0.023872722, 229437.42, 229437.42, 0.00090609276, 10.001814, 9.999285 
1.21502616e+3, 1.2487562e+2, -1892696.5, -1802494.3, 22726.334, 0.089801274, -0.32905358, -1797091.9, -80893.555, 0.0026624324, 9.998755, 9.99996 
1.21503115e+3, 1.3487682e+2, -1842330.5, -1708087.4, 27875.045, -0.12905441, -0.25050548, -1702529.4, -84336.33, 0.0014356553, 9.99837, 10.000139 
1.215041e+3, 1.4487815e+2, -1739506.5, -1625461.8, 42160.164, -0.029477423, -0.11890322, -1611568.5, -91382.38, 0.0005075534, 9.998428, 9.999994 
1.2150501e+3, 1.5487967e+2, -1511210.5, -1470759.4, 27094.617, 0.018082604, -0.00847736, -1457173.9, -34996.766, 0.000076397075, 9.99936, 9.999938 
1.2150576e+3, 1.6488048e+2, -1392290.4, -1315913.6, -43945.254, -0.03486196, 0.07142596, -1295882.3, 28288.824, 0.0000008702971, 9.999334, 10.000323 
1.2150642e+3, 1.7488031e+2, -1423117.4, -1271995.0, -35005.637, -0.13933821, -0.020800427, -1264280.3, -38109.375, 0.0, 9.998414, 10.000398 
1.2150725e+3, 1.8488045e+2, -1393519.8, -1286059.5, -35690.273, -0.06947443, -0.0042855632, -1275286.0, -147116.0, 0.0, 9.998279, 9.999697 
1.21508285e+3, 1.9488053e+2, -1187646.5, -1130728.9, 13077.667, 0.1848994, -0.006695007, -1127868.0, -97695.836, 0.0, 9.998993, 9.999745 
1.215091e+3, 2.0488076e+2, -990873.75, -953503.5, 38883.883, 0.16732235, 0.0357244, -929048.25, 3121.437, 0.0, 9.999506, 10.000056 
1.2150966e+3, 2.1488088e+2, -844749.5, -819443.8, 58219.188, -0.140823, -0.0028878266, -772518.4, 61646.695, 0.0, 9.999775, 10.000175 
1.21510476e+3, 2.2488059e+2, -816933.3, -899727.6, 55043.69, -0.2126233, 0.021188494, -789457.1, -53289.93, 0.0, 9.999936, 9.998875 
1.2151155e+3, 2.3487946e+2, -711041.9, -787198.5, 82517.26, -0.035309095, -0.015584031, -658240.9, -20061.041, 0.0, 9.999948, 9.998962 
1.21512465e+3, 2.448784e+2, -583597.2, -676300.44, 13896.399, 0.03484104, -0.010069695, -581558.9, -41367.973, 0.0, 10.000172, 9.998926 
1.21513195e+3, 2.54877e+2, -394242.6, -531299.4, 18921.424, -0.004434155, -0.08447894, -391678.38, 50525.785, 0.00000000018849695, 10.000774, 9.998962 
1.2151398e+3, 2.6487657e+2, -358118.47, -524636.25, 10907.937, -0.024038566, 0.011310394, -357406.97, -13196.139, 0.00000061447383, 10.000609, 9.998428 
1.2151482e+3, 2.7487674e+2, -385077.2, -478857.28, 16524.148, -0.027462285, 0.14351377, -382250.78, -136036.05, 0.000008322687, 9.999702, 9.998509 
1.2151571e+3, 2.848758e+2, -237570.13, -311379.28, 51991.063, -0.031420253, 0.19126712, -210717.2, -62493.305, 0.000050710027, 9.999888, 9.99888 
1.2151671e+3, 2.948736e+2, 86487.47, -93611.39, 87098.67, -0.020509437, 0.030490914, 121718.04, 171958.63, 0.00018357177, 10.001384, 9.998977 
1.215177e+3, 3.048714e+2, 146886.0, -196403.88, -25246.607, 0.09527094, -0.007841597, 148732.77, 148732.77, 0.00046227945, 10.002145, 9.997585 
1.2151828e+3, 3.1486893e+2, 189288.83, 28295.504, -8649.75, -0.06534822, -0.06336314, 189752.22, 189752.22, 0.0008888424, 10.001501, 9.999427 
1.22502565e+3, 1.24867775e+2, -1937781.6, -1834836.4, -64446.016, 0.1961422, -0.31976908, -1803830.4, -87553.8, 0.0029179724, 9.998466, 9.99988 
1.2250301e+3, 1.3486935e+2, -1753395.0, -1687856.8, -38689.08, -0.08047439, -0.18438458, -1669924.3, -51656.14, 0.0015834377, 9.999065, 9.999948 
1.2250399e+3, 1.4487028e+2, -1658131.0, -1580454.9, 48161.31, -0.0023279993, -0.08522045, -1557422.9, -37157.99, 0.00056846405, 9.998983, 10.000027 
1.225049e+3, 1.5487158e+2, -1626978.3, -1507934.9, 13769.469, 0.022862539, -0.006208378, -1506363.0, -84106.38, 0.00008951281, 9.998528, 10.00006 
1.22505665e+3, 1.648723e+2, -1513113.5, -1412656.8, -7533.4233, -0.015183581, 0.07165394, -1412094.9, -87842.95, 0.0000012652538, 9.998624, 10.000035 
1.2250635e+3, 1.7487212e+2, -1302666.9, -1241516.6, -32554.076, -0.083245106, 0.006757648, -1227430.8, -1176.5327, 0.0, 9.999336, 10.00018 
1.2250719e+3, 1.8487237e+2, -1167271.8, -1121337.9, 6278.844, -0.0068162074, 0.019762252, -1120495.0, 7756.4277, 0.0, 9.999562, 10.000222 
1.2250823e+3, 1.9487265e+2, -1105229.6, -1033846.8, -162.88934, 0.21392617, -0.015225659, -1033846.44, -3598.4426, 0.0, 9.999291, 10.00028 
1.2250905e+3, 2.0487286e+2, -1051921.0, -1037032.7, 42751.78, 0.18840878, 0.024063759, -1001081.8, -68836.125, 0.0, 9.999342, 9.999551 
1.22509666e+3, 2.1487276e+2, -888501.7, -896482.0, -14897.811, -0.10275372, 0.013908326, -877068.94, -42821.684, 0.0, 9.999746, 9.999647 
1.2251051e+3, 2.2487241e+2, -744637.25, -810586.44, 4508.617, -0.16063517, 0.03646027, -744330.44, -8080.599, 0.0, 10.000185, 9.999366 
1.2251162e+3, 2.3487143e+2, -580728.25, -672880.56, 16222.304, 0.015850352, -0.0366389, -577955.94, 60301.492, 0.0, 10.000602, 9.99944 
1.2251253e+3, 2.4487044e+2, -513510.75, -664092.8, 677.67566, 0.067794316, -0.03971355, -513507.7, 26759.008, 0.0, 10.000724, 9.998761 
1.2251324e+3, 2.548691e+2, -435145.53, -568366.3, -18376.842, -0.011514033, -0.08991743, -432657.06, 9623.719, 0.0, 10.000562, 9.99882 
1.2251405e+3, 2.6486865e+2, -329156.7, -532397.5, 12857.98, -0.019576471, 0.022560872, -328346.47, 15941.826, 0.0000003685213, 10.000928, 9.998205 
1.2251494e+3, 2.7486876e+2, -97964.875, -362297.28, -14883.096, 0.029981326, 0.17146643, -97129.53, 149163.3, 0.0000073761885, 10.001817, 9.998269 
1.2251584e+3, 2.848675e+2, 18093.82, -206716.95, 45633.496, 0.036659487, 0.20172983, 27003.672, 175309.03, 0.000049087277, 10.001679, 9.998747 
1.2251683e+3, 2.9486465e+2, -85154.42, -199514.94, 13679.996, 0.02699894, -0.006521021, -83540.766, -33212.785, 0.00018153466, 10.000264, 9.998806 
1.2251783e+3, 3.0486292e+2, -92265.39, -264227.16, -45859.582, 0.13183859, -0.0081883455, -80799.81, -80799.81, 0.00045750884, 10.000309, 9.997987 
1.225185e+3, 3.1486124e+2, 203720.22, 52205.01, -86670.98, 0.025755398, -0.024297966, 243075.92, 243075.92, 0.0008772591, 10.001489, 9.999599 
1.23502366e+3, 1.2486255e+2, -1878430.8, -1734920.0, -125706.195, 0.065799266, 0.0413599, -1661931.1, 54411.58, 0.0031899144, 9.998541, 10.000536 
1.2350304e+3, 1.3486315e+2, -1738197.9, -1668505.1, -7619.7695, -0.001557143, 0.060227834, -1667681.8, -49343.336, 0.0017411282, 9.999094, 10.000071 
1.2350385e+3, 1.4486285e+2, -1631969.6, -1536736.3, 6771.8936, -0.09636027, 0.014410385, -1536257.1, -15914.89, 0.0006337289, 9.999019, 10.000318 
1.2350471e+3, 1.548629e+2, -1600708.9, -1462473.9, 7887.9497, -0.051228117, -0.056494843, -1462025.1, -39683.98, 0.00010392506, 9.998545, 10.000378 
1.2350554e+3, 1.6486332e+2, -1517384.0, -1421637.8, -7865.6377, -0.03720376, -0.024940807, -1420995.9, -96657.164, 0.0000017603737, 9.998624, 9.99997 
1.23506375e+3, 1.7486373e+2, -1312303.9, -1260943.6, 9167.939, -0.024503754, -0.023102663, -1259356.3, -33018.242, 0.0, 9.999321, 10.000057 
1.2350718e+3, 1.8486427e+2, -1159688.0, -1089702.5, -21483.68, -0.017378144, 0.015243581, -1083633.8, 44698.223, 0.0, 9.999495, 10.000471 
1.2350795e+3, 1.9486472e+2, -1102591.0, -999327.4, 6527.5674, -0.02677601, -0.031510983, -998916.4, 31406.594, 0.0, 9.999165, 10.000576 
1.235088e+3, 2.0486449e+2, -1149608.0, -1198584.6, 35695.58, -0.027367359, -0.003786493, -1130808.4, -198482.75, 0.0, 9.999163, 9.99853 
1.2350975e+3, 2.1486318e+2, -993022.8, -1066448.9, 17752.479, -0.017211216, -0.02799719, -988956.0, -154611.92, 0.0, 9.999539, 9.998582 
1.23510666e+3, 2.2486262e+2, -722644.1, -714479.9, 4158.046, -0.050384827, -0.008351275, -712735.06, 23614.309, 0.0, 9.999962, 10.000139 
1.2351156e+3, 2.3486257e+2, -560367.5, -575756.4, 52214.75, -0.13247043, -0.07216353, -515283.3, 123060.734, 0.0, 10.00036, 10.000228 
1.235124e+3, 2.4486238e+2, -552469.8, -683658.8, -21790.967, -0.15610002, -0.030523252, -548944.94, -8601.035, 0.0, 10.000461, 9.998753 
1.2351323e+3, 2.5486177e+2, -465053.28, -582500.8, -4578.3047, -0.10394055, -0.006871013, -464875.1, -22522.68, 0.0, 10.000347, 9.998831 
1.2351414e+3, 2.6486066e+2, -381217.03, -579280.6, 30235.178, -0.059569996, 0.046187233, -376704.34, -32338.66, 0.00000016286783, 10.000671, 9.998006 
1.23515084e+3, 2.7485862e+2, -144558.44, -410119.0, 40480.16, -0.02840977, 0.003745569, -138525.02, 107862.7, 0.000006622681, 10.001609, 9.998039 
1.23516016e+3, 2.848567e+2, -47483.035, -290289.7, -17784.533, 0.001327894, 0.0060795513, -46187.313, 102218.94, 0.000048750662, 10.00146, 9.998278 
1.2351692e+3, 2.9485464e+2, -140176.83, -277353.03, -11273.279, 0.047067303, -0.079561986, -139256.55, -88832.27, 0.00018217463, 10.000102, 9.998353 
1.23517856e+3, 3.0485418e+2, -75876.1, -189186.89, -8156.777, 0.088266276, 0.03790501, -75291.945, -75291.945, 0.00045752534, 10.000136, 9.998587 
1.23518504e+3, 3.1485373e+2, 167954.34, 54055.32, -2498.1995, -0.19848356, 0.08076049, 168009.11, 168009.11, 0.00087459444, 10.001174, 9.99976 
1.2450216e+3, 1.2485392e+2, -1835843.6, -1656666.6, -80784.836, 0.020663727, 0.13179044, -1625622.3, 90812.72, 0.003475539, 9.998616, 10.001026 
1.24502964e+3, 1.3485448e+2, -1746691.6, -1634995.1, -45129.7, 0.030862853, 0.11038361, -1619040.1, -612.05133, 0.0019075654, 9.998872, 10.000415 
1.245037e+3, 1.448543e+2, -1641663.6, -1497085.3, 1380.4557, -0.12607478, 0.044094, -1497072.1, 23355.396, 0.0007030745, 9.998762, 10.00071 
1.2450461e+3, 1.5485437e+2, -1555897.8, -1403691.5, -32014.107, -0.0024953093, -0.06608248, -1397232.0, 25192.11, 0.00011956255, 9.998673, 10.000724 
1.2450546e+3, 1.6485494e+2, -1505783.4, -1392137.0, 26452.871, 0.021482667, -0.04451138, -1386281.5, -61862.453, 0.0000023468863, 9.998628, 10.000153 
1.24506265e+3, 1.748558e+2, -1380371.4, -1271696.1, 22213.7, -0.03338962, -0.014859178, -1267330.9, -40916.13, 0.0, 9.998783, 10.000228 
1.2450709e+3, 1.8485647e+2, -1221343.3, -1157848.4, 5344.815, -0.032705054, 0.041818723, -1157401.6, -28993.113, 0.0, 9.999249, 10.0001135 
1.24507934e+3, 1.9485654e+2, -998541.8, -992955.06, -47772.23, 0.010865526, -0.0065596104, -947894.6, 82509.64, 0.0, 10.000068, 10.000183 
1.24508835e+3, 2.0485595e+2, -948497.1, -1117332.0, 27028.676, 0.031223152, 0.013054646, -944275.7, -11864.934, 0.0, 10.0006075, 9.998391 
1.24509804e+3, 2.1485436e+2, -820676.3, -996467.5, 38267.79, 0.032788455, -0.027120505, -812707.1, 21724.809, 0.0, 10.000775, 9.9984665 
1.2451072e+3, 2.2485386e+2, -665037.2, -686713.5, 42988.316, -0.0071238126, 0.003956495, -631541.8, 104895.17, 0.0, 10.000394, 10.000102 
1.2451157e+3, 2.3485416e+2, -695381.44, -637427.56, -9088.763, -0.09724926, -0.019968472, -636035.6, 2392.9897, 0.0, 9.999457, 10.0002165 
1.2451243e+3, 2.4485402e+2, -679626.9, -732970.75, -42634.37, -0.12721106, 0.020359633, -656008.9, -115580.94, 0.0, 9.999537, 9.998853 
1.2451328e+3, 2.5485316e+2, -415201.75, -542443.44, -53174.543, -0.09312195, 0.005911704, -395906.13, 46531.73, 0.0, 10.000636, 9.998952 
1.2451424e+3, 2.6485175e+2, -308487.66, -536101.56, 23977.033, -0.038898766, 0.018363537, -305989.3, 38463.06, 0.000000050542315, 10.001099, 9.99811 
1.2451526e+3, 2.7484939e+2, -252437.36, -455341.4, 23216.883, 0.03443616, -0.06380083, -249814.7, -3339.316, 0.0000061370592, 10.000798, 9.998141 
1.24516174e+3, 2.848475e+2, -144222.66, -335309.25, 3021.2583, 0.05658316, -0.0656535, -144174.9, 4318.1147, 0.000049451548, 10.00081, 9.998274 
1.2451696e+3, 2.948457e+2, 10526.122, -196972.69, -2618.2952, 0.0361308, -0.122707695, 10559.155, 61067.715, 0.00018750013, 10.001139, 9.998388 
1.2451791e+3, 3.048452e+2, 113342.9, -98202.625, 82511.586, 0.06849037, -0.013143238, 141719.45, 141719.45, 0.000470274, 10.001409, 9.998617 
1.2451872e+3, 3.1484464e+2, 173511.33, 8033.3965, -26650.994, -0.08727357, 0.022115672, 177697.69, 177697.69, 0.0008945071, 10.001412, 9.999344 
1.2550206e+3, 1.2484192e+2, -1807318.1, -1614205.0, -4684.837, -0.02316013, -0.057301972, -1614091.5, 102461.836, 0.0037739007, 9.998675, 10.001293 
1.2550275e+3, 1.348436e+2, -1699565.5, -1544696.4, -23558.707, -0.101921916, -0.028360436, -1541191.9, 77342.55, 0.0020822603, 9.998899, 10.001026 
1.2550351e+3, 1.4484498e+2, -1603475.6, -1423007.9, -21991.215, -0.24181937, 0.0041644787, -1420366.8, 100151.484, 0.0007764397, 9.998781, 10.001207 
1.2550452e+3, 1.5484615e+2, -1520279.4, -1331102.3, -17991.264, 0.008928249, -0.045676604, -1329406.4, 93097.4, 0.00013646827, 9.998679, 10.001218 
1.2550536e+3, 1.6484734e+2, -1485540.4, -1354884.9, 9922.666, 0.0156354, 0.0019385598, -1354135.6, -29643.742, 0.0000030208696, 9.998639, 10.000408 
1.2550598e+3, 1.7484853e+2, -1361593.1, -1230043.3, 42832.89, -0.22959161, 0.034249656, -1217326.1, 9157.018, 0.0, 9.998763, 10.000525 
1.255069e+3, 1.8484893e+2, -1293771.0, -1294297.3, 15299.154, -0.18064511, 0.09461436, -1278732.8, -150251.33, 0.0, 9.9991865, 9.999211 
1.2550814e+3, 1.9484809e+2, -1077327.8, -1134812.4, -0.19976038, 0.18076243, 0.047645655, -1077327.8, -46836.09, 0.0, 9.9999695, 9.999257 
1.2550911e+3, 2.0484729e+2, -928097.6, -1030814.75, 15084.902, 0.21839167, 0.059685387, -925928.06, 6572.5083, 0.0, 10.000417, 9.999081 
1.2550978e+3, 2.1484631e+2, -806063.5, -910798.2, 62349.83, -0.091277994, 0.012375478, -777007.0, 57503.387, 0.0, 10.000532, 9.999178 
1.2551062e+3, 2.24846e+2, -763782.56, -827443.9, -9467.614, -0.1794437, 0.06849216, -762404.4, -25890.873, 0.0, 10.000123, 9.999263 
1.2551162e+3, 2.3484607e+2, -786118.5, -778133.44, -25026.328, -0.02225109, 0.10550561, -756783.2, -118270.45, 0.0, 9.99925, 9.999351 
1.2551254e+3, 2.4484526e+2, -695081.0, -713682.5, -19247.406, -0.00039963375, 0.108314544, -683005.0, -142485.55, 0.0, 9.999314, 9.999093 
1.2551336e+3, 2.5484315e+2, -432743.25, -531766.7, 6113.299, -0.12335038, -0.053049684, -432367.28, 10170.275, 0.0, 10.0004225, 9.999132 
1.2551431e+3, 2.648418e+2, -312707.06, -489384.7, -4965.343, -0.10643854, -0.06360341, -312567.63, 31981.715, 0.00000007625481, 10.000864, 9.998541 
1.2551539e+3, 2.7484095e+2, -249151.22, -401626.47, 33376.313, 0.060356647, -0.04172345, -242165.33, 4391.7993, 0.0000061507535, 10.000596, 9.998608 
1.2551627e+3, 2.8483972e+2, -149105.11, -299892.66, -274.3415, 0.042533636, -0.016731758, -149104.61, -537.96375, 0.000051588533, 10.000616, 9.998606 
1.2551692e+3, 2.9483768e+2, 10018.749, -161155.42, 31095.678, -0.15659398, -0.14040118, 15492.58, 66074.96, 0.00020006, 10.00098, 9.998706 
1.2551793e+3, 3.0483583e+2, 57743.29, -185182.9, 69467.516, -0.07649265, -0.156825, 76205.24, 76205.24, 0.0005036429, 10.001281, 9.998079 
1.2551904e+3, 3.148341e+2, 57989.324, -165902.5, 17040.51, 0.0074320617, -0.19005097, 59278.86, 59278.86, 0.0009532297, 10.001122, 9.998289 
1.2650199e+3, 1.24832705e+2, -1881088.1, -1665796.4, 162151.0, 0.076618195, -0.086696185, -1578813.0, 137830.42, 0.004085261, 9.998251, 10.001163 
1.2650256e+3, 1.3483454e+2, -1777702.4, -1568177.6, 2410.3667, -0.13824338, -0.034150206, -1568149.9, 50473.707, 0.0022650692, 9.998343, 10.0011215 
1.2650342e+3, 1.4483598e+2, -1670359.5, -1461698.6, 2456.9116, -0.16768685, -0.00084028725, -1461669.8, 58937.676, 0.00085386867, 9.998352, 10.001153 
1.265044e+3, 1.5483707e+2, -1524848.8, -1337450.3, -76208.83, 0.019416718, -0.05010678, -1310371.5, 112222.34, 0.00015477135, 9.998684, 10.001172 
1.2650523e+3, 1.6483824e+2, -1452914.0, -1321820.8, -32183.68, 0.019450944, -0.00782378, -1314345.8, 10235.291, 0.0000038088367, 9.998807, 10.000543 
1.2650587e+3, 1.7483938e+2, -1326978.1, -1201241.5, -47532.336, -0.21641585, 0.0077100107, -1185295.1, 41275.71, 0.0, 9.998957, 10.000629 
1.2650684e+3, 1.8483977e+2, -1275430.6, -1297536.9, 4673.652, -0.16315122, 0.066520624, -1274483.1, -145913.67, 0.0, 9.999361, 9.999105 
1.2650815e+3, 1.94839e+2, -1078208.5, -1146538.1, 11320.9795, 0.1920587, 0.041454963, -1076381.8, -45800.418, 0.0, 10.000025, 9.999148 
1.2650916e+3, 2.0483857e+2, -931451.06, -980442.6, 53127.43, 0.2439839, 0.07285825, -897444.1, 35142.645, 0.0, 10.000171, 9.99954 
1.2650985e+3, 2.1483818e+2, -888490.3, -897606.75, 42898.684, -0.036175765, 0.034985714, -849908.4, -15319.725, 0.0, 9.99974, 9.999643 
1.2651065e+3, 2.248378e+2, -824828.75, -898794.25, 17856.06, -0.1245957, 0.076968126, -820743.7, -84151.63, 0.0, 9.999865, 9.998909 
1.2651162e+3, 2.3483716e+2, -622346.7, -739330.9, 5727.696, -0.0032911727, 0.08121513, -622066.94, 16532.861, 0.0, 10.000534, 9.999008 
1.2651256e+3, 2.448361e+2, -475647.4, -622283.1, 72898.48, 0.027169226, 0.0831898, -445574.28, 95035.39, 0.0, 10.000867, 9.998986 
1.265135e+3, 2.5483426e+2, -377375.72, -518469.63, 41907.67, -0.03443002, -0.038152106, -365867.03, 76758.25, 0.0, 10.000844, 9.999035 
1.2651446e+3, 2.6483312e+2, -317907.16, -467213.25, 18480.055, -0.009887908, -0.032545395, -315653.84, 28981.234, 0.00000015326442, 10.000735, 9.998752 
1.2651548e+3, 2.748324e+2, -247944.64, -371515.22, -5056.968, 0.100420274, -0.021028653, -247738.03, -1096.3052, 0.0000068361555, 10.000494, 9.998851 
1.2651634e+3, 2.848315e+2, -163212.34, -301037.16, 909.2833, 0.072331965, 0.017378302, -163206.34, -14557.9375, 0.000055437977, 10.000473, 9.998679 
1.2651707e+3, 2.9482993e+2, -4493.1934, -164193.98, -24041.592, -0.081154495, -0.054112833, -952.4392, 49706.676, 0.00021969865, 10.000841, 9.998768 
1.2651813e+3, 3.0482727e+2, 77994.38, -163976.88, 53725.016, -0.009059069, -0.15883823, 89386.625, 89386.625, 0.00055763865, 10.001395, 9.998159 
1.2651926e+3, 3.1482494e+2, 141567.0, -129741.555, -35690.145, 0.10875351, -0.25267398, 146183.42, 146183.42, 0.001054668, 10.001744, 9.998228 
1.2750185e+3, 1.24826916e+2, -1889448.0, -1698319.4, 35025.645, 0.027269628, 0.10819041, -1692102.9, 24596.055, 0.0044096503, 9.998319, 10.000896 
1.2750232e+3, 1.3482742e+2, -1820890.4, -1657920.9, 14763.367, -0.24283145, 0.085896894, -1656594.3, -37899.65, 0.0024558255, 9.998335, 10.00051 
1.2750338e+3, 1.4482735e+2, -1705012.6, -1546978.3, -6234.968, -0.09550826, 0.027876098, -1546732.8, -26038.125, 0.00093550276, 9.998401, 10.0005455 
1.2750418e+3, 1.5482727e+2, -1562726.9, -1426258.6, -45672.973, -0.10205155, -0.07774753, -1412383.6, 10308.95, 0.00017466526, 9.998716, 10.000548 
1.2750502e+3, 1.6482767e+2, -1445871.9, -1321534.9, -46415.457, -0.11156584, -0.0835381, -1306119.1, 18567.414, 0.0000047674703, 9.998858, 10.000523 
1.2750588e+3, 1.7482834e+2, -1328448.3, -1205869.1, -24231.43, -0.13382077, -0.11285659, -1201252.9, 25425.133, 0.0, 9.998953, 10.000603 
1.2750684e+3, 1.84829e+2, -1247540.9, -1216860.3, 13710.491, -0.13198438, -0.0542146, -1211626.3, -82953.86, 0.0, 9.999269, 9.9997 
1.275079e+3, 1.9482934e+2, -1051809.8, -1064692.3, 55006.242, -0.092280045, -0.03204943, -1002868.9, 27803.85, 0.0, 9.999907, 9.999765 
1.2750892e+3, 2.0482977e+2, -943675.7, -963523.9, 18042.41, -0.031779937, 0.043265324, -933008.1, -338.3221, 0.0, 9.99999, 9.999745 
1.2750994e+3, 2.1482997e+2, -909728.25, -887565.56, 42186.332, 0.05723034, 0.04508741, -855029.44, -20362.805, 0.0, 9.999505, 9.999828 
1.275108e+3, 2.2482932e+2, -849278.9, -890521.3, 24964.402, 0.0132283, 0.041431185, -837520.25, -100848.08, 0.0, 9.999616, 9.9990835 
1.2751152e+3, 2.3482741e+2, -647911.25, -736185.06, 48960.777, -0.17646237, -0.09828845, -626129.9, 12560.524, 0.0, 10.000293, 9.9991455 
1.2751247e+3, 2.4482651e+2, -545303.06, -706459.2, 57391.887, -0.18248472, -0.061489545, -526953.6, 13746.015, 0.0, 10.000614, 9.998525 
1.2751366e+3, 2.5482652e+2, -439952.4, -593030.5, 61970.1, 0.019209666, 0.03958907, -418010.38, 24690.957, 0.0, 10.000609, 9.998632 
1.2751468e+3, 2.6482576e+2, -359462.28, -497544.6, -5652.255, 0.092649415, 0.109564975, -359231.28, -14522.084, 0.00000020123079, 10.000499, 9.998655 
1.2751548e+3, 2.7482376e+2, -286726.4, -403833.6, 7749.848, 0.016112575, -0.0022199757, -286215.75, -39486.9, 0.0000077157165, 10.000291, 9.998725 
1.2751636e+3, 2.8482273e+2, -201425.13, -345050.03, -3199.5964, 0.004074187, 0.04451016, -201353.88, -52615.777, 0.000060411407, 10.000318, 9.99845 
1.2751736e+3, 2.9482257e+2, -49659.625, -208197.34, 16693.973, 0.073310465, 0.12881714, -47920.824, 2817.1924, 0.00024271311, 10.000629, 9.998566 
1.2751842e+3, 3.0481952e+2, 76690.836, -124642.5, 57399.16, 0.10438484, -0.019956512, 91905.32, 91905.32, 0.0006225909, 10.001216, 9.998515 
1.2751935e+3, 3.1481758e+2, 130818.54, -60194.34, 24355.785, -0.04320108, -0.11993777, 133875.2, 133875.2, 0.0011840118, 10.001373, 9.998874 
1.2850182e+3, 1.2481929e+2, -1886974.3, -1704927.6, -12417.69, 0.1836866, 0.14572419, -1704084.5, 12689.003, 0.0047468157, 9.998325, 10.00085 
1.2850219e+3, 1.3481928e+2, -1805617.4, -1673075.1, 14284.29, -0.2025179, 0.08586224, -1671553.1, -52778.195, 0.0026545508, 9.998502, 10.000323 
1.2850328e+3, 1.4481924e+2, -1709239.8, -1562456.1, 76029.61, -0.029262435, 0.04577244, -1530174.6, -9399.826, 0.0010215283, 9.99846, 10.000405 
1.285041e+3, 1.5481931e+2, -1539104.1, -1423090.5, 33170.664, -0.063244104, -0.032036256, -1414276.1, 8495.579, 0.00019628371, 9.998933, 10.00046 
1.2850496e+3, 1.6481926e+2, -1425460.5, -1365831.6, 61339.83, -0.050214693, -0.05385783, -1327444.4, -2674.4346, 0.0000059623408, 9.99921, 10.000065 
1.285059e+3, 1.7481901e+2, -1308442.3, -1243927.5, 12484.826, -0.02239886, -0.12991065, -1241595.8, -14825.126, 0.0, 9.999292, 10.000181 
1.2850684e+3, 1.8481939e+2, -1249680.0, -1184263.3, 62234.105, -0.049384575, -0.09059506, -1146665.8, -17898.871, 0.0, 9.99913, 9.999982 
1.285078e+3, 1.948201e+2, -1176850.5, -1089652.0, 43876.027, -0.13516003, -0.059036985, -1071396.6, -40634.754, 0.0, 9.998921, 10.000063 
1.285088e+3, 2.0482074e+2, -1062381.8, -1012185.75, 18943.168, -0.09753929, 0.01923937, -1005839.3, -73082.98, 0.0, 9.999136, 9.9998255 
1.2850991e+3, 2.1482097e+2, -860808.8, -848983.44, 2948.0715, 0.07066722, 0.014771424, -848289.2, -13535.902, 0.0, 9.999789, 9.999952 
1.2851085e+3, 2.2482044e+2, -757021.4, -832787.7, 24202.355, 0.07330266, 0.011090431, -749950.25, -13192.361, 0.0, 10.000188, 9.999204 
1.2851162e+3, 2.3481879e+2, -638500.94, -714699.25, 8359.808, -0.10083966, -0.114622355, -637594.56, 1179.179, 0.0, 10.000292, 9.999287 
1.2851256e+3, 2.448181e+2, -568733.4, -698509.2, 61341.285, -0.12339983, -0.073586755, -544328.56, -3547.7813, 0.0, 10.000376, 9.99869 
1.2851371e+3, 2.548182e+2, -463066.84, -584727.0, 70109.22, 0.024147376, 0.023322962, -431076.66, 11704.192, 0.0, 10.000377, 9.998796 
1.2851469e+3, 2.648174e+2, -371426.16, -505429.84, 58170.36, 0.08282735, 0.07704364, -349697.88, -4908.8413, 0.00000014147287, 10.000414, 9.998648 
1.2851554e+3, 2.7481517e+2, -245461.84, -385531.75, 39404.37, 0.043219186, -0.050220035, -235137.61, 11672.549, 0.000007879153, 10.000573, 9.99872 
1.285165e+3, 2.8481412e+2, -140161.78, -373491.88, 78057.32, 0.07363009, 0.021217976, -116457.03, 32363.95, 0.00006527563, 10.0009985, 9.997925 
1.2851757e+3, 2.948139e+2, 56092.742, -216109.75, 28028.02, 0.18650678, 0.15580377, 58948.75, 109773.195, 0.000269289, 10.001611, 9.998036 
1.2851861e+3, 3.0481032e+2, 144923.55, -107508.24, 61126.387, 0.18007852, -0.013697838, 158946.33, 158946.33, 0.0006978728, 10.001722, 9.998406 
1.2851955e+3, 3.1480876e+2, 124635.24, -29421.229, -77202.49, 0.045812882, -0.06691752, 156664.67, 156664.67, 0.0013327203, 10.001116, 9.999232 
1.295015e+3, 1.2481014e+2, -1883716.0, -1687130.8, -130720.32, -0.048863113, 0.027565967, -1621871.4, 94992.98, 0.0050962004, 9.998295, 10.000989 
1.2950215e+3, 1.3481034e+2, -1800276.3, -1646864.5, 31387.838, -0.1297042, -0.03203536, -1640691.0, -21828.51, 0.0028611089, 9.998448, 10.00053 
1.2950309e+3, 1.4481175e+2, -1692892.8, -1525417.5, 67265.35, -0.123165354, 0.055159505, -1501746.5, 19101.076, 0.00111182, 9.998452, 10.000662 
1.2950408e+3, 1.5481319e+2, -1525750.0, -1389122.5, 70660.95, -0.007014825, 0.087465435, -1359152.3, 63678.68, 0.000219555, 9.998907, 10.000708 
1.2950502e+3, 1.6481312e+2, -1481767.1, -1483592.3, 43289.227, 0.041026346, 0.088356875, -1439380.9, -114550.08, 0.0000074533, 9.999209, 9.999255 
1.2950586e+3, 1.7481141e+2, -1372459.1, -1373516.1, 31026.215, -0.022046955, -0.048481382, -1341956.9, -115108.83, 0.0, 9.999272, 9.999302 
1.2950677e+3, 1.8481094e+2, -1259898.0, -1201675.8, 35375.6, -0.06973566, -0.044828817, -1184973.3, -56120.63, 0.0, 9.999107, 9.999875 
1.2950778e+3, 1.9481133e+2, -1195820.4, -1111768.3, 51778.438, -0.07529248, -0.038215518, -1087107.0, -56258.82, 0.0, 9.998833, 9.999957 
1.2950875e+3, 2.0481148e+2, -1089552.9, -1024641.56, 24100.424, -0.09766514, -0.003332637, -1016672.0, -83825.766, 0.0, 9.998954, 9.999823 
1.295097e+3, 2.148111e+2, -895855.1, -864449.1, 42859.035, -0.13644445, -0.07045329, -834506.94, 342.45956, 0.0, 9.999546, 9.999959 
1.2951073e+3, 2.2481108e+2, -794231.4, -844279.8, 12035.296, -0.085813135, -0.025425458, -791487.6, -54637.59, 0.0, 9.999906, 9.999261 
1.2951185e+3, 2.3481123e+2, -669306.7, -720907.5, 32819.098, 0.067533255, 0.02082996, -653360.75, -14510.374, 0.0, 10.000041, 9.999366 
1.295128e+3, 2.448108e+2, -564856.8, -616730.25, 43560.484, 0.047951367, 0.049453378, -540096.1, 757.448, 0.0, 10.000074, 9.99939 
1.2951359e+3, 2.5480932e+2, -455240.56, -500470.03, 89004.76, -0.15518051, -0.0832188, -386022.44, 56841.797, 0.0, 10.000101, 9.999499 
1.2951453e+3, 2.64808e+2, -397500.28, -518702.7, 44825.133, -0.16807906, -0.11474821, -382723.78, -37849.387, 0.000000052302592, 10.000223, 9.998655 
1.2951562e+3, 2.7480677e+2, -272456.94, -395584.16, 64323.277, 0.02571922, -0.14926274, -244983.7, 1901.2449, 0.000007172051, 10.000368, 9.998754 
1.2951666e+3, 2.8480566e+2, -234237.86, -518531.03, 83132.01, 0.117950656, -0.040872004, -211713.31, -62816.184, 0.00006969282, 10.000779, 9.997036 
1.2951767e+3, 2.9480413e+2, -47424.656, -372798.88, 77868.33, 0.1018081, 0.048611566, -29749.428, 21167.838, 0.0003009035, 10.001363, 9.997079 
1.2951872e+3, 3.047998e+2, 81455.97, -204883.31, 25837.072, 0.0720157, -0.11098275, 83768.625, 83768.625, 0.0007869782, 10.001571, 9.997812 
1.2951976e+3, 3.147989e+2, 90654.734, -23535.268, -44549.69, 0.08055396, -0.05289466, 105978.75, 105978.75, 0.0015032826, 10.000794, 9.999425 
1.305012e+3, 1.2480166e+2, -1993880.5, -1716716.5, -63668.434, -0.12222162, 0.010837604, -1702790.8, 14156.175, 0.0054552136, 9.997456, 10.001181 
1.3050212e+3, 1.3480231e+2, -1823266.3, -1617220.0, 590.98956, 0.03532263, -0.03587028, -1617218.3, 1721.2004, 0.003073975, 9.998141, 10.000872 
1.3050298e+3, 1.4480396e+2, -1708729.1, -1548675.3, 84889.72, -0.055140693, 0.061413247, -1512037.8, 8884.129, 0.0012055306, 9.998384, 10.000539 
1.3050398e+3, 1.5480494e+2, -1518253.1, -1396564.9, 25694.266, 0.010532309, 0.05696515, -1391362.0, 31548.303, 0.000244213, 9.998992, 10.000615 
1.3050495e+3, 1.6480494e+2, -1480575.3, -1483058.4, 36895.27, 0.06557149, 0.0722813, -1444900.6, -119990.484, 0.000009295233, 9.999262, 9.999222 
1.3050584e+3, 1.7480378e+2, -1346679.9, -1358761.8, 45137.24, 0.034523167, -0.005435378, -1307181.1, -80257.81, 0.0, 9.99948, 9.99929 
1.3050677e+3, 1.8480329e+2, -1188360.9, -1182568.1, 106671.09, 0.0034090106, 0.004497012, -1078754.1, 50173.758, 0.0, 9.999645, 9.99976 
1.3050775e+3, 1.9480322e+2, -1079092.0, -1062853.3, 87323.46, -0.0077206707, -0.024892485, -983272.56, 47653.902, 0.0, 9.999669, 9.99989 
1.3050872e+3, 2.0480296e+2, -1028910.8, -1019183.7, 95346.89, -0.030414006, -0.016459817, -928576.4, 4351.6387, 0.0, 9.999462, 9.99962 
1.3050969e+3, 2.1480224e+2, -992786.6, -933220.0, 61084.348, -0.0682589, -0.09750014, -895044.94, -60109.516, 0.0, 9.998977, 9.999764 
1.3051073e+3, 2.2480221e+2, -899116.1, -910661.2, 67170.7, -0.03727246, -0.036599025, -837470.4, -100533.52, 0.0, 9.999239, 9.999126 
1.3051185e+3, 2.3480266e+2, -653280.4, -729094.75, 36524.58, 0.07130171, 0.051225703, -638547.3, 387.6203, 0.0, 10.000204, 9.999232 
1.3051282e+3, 2.4480233e+2, -507836.0, -565572.75, 23677.398, 0.058578502, 0.08248528, -499368.03, 41568.914, 0.0, 10.000341, 9.99962 
1.3051364e+3, 2.5480077e+2, -508856.8, -502920.2, 105.63684, -0.0844856, -0.07869944, -502918.28, -59971.42, 0.0, 9.999611, 9.99973 
1.305146e+3, 2.6479936e+2, -419605.1, -546068.8, 18594.441, -0.08391362, -0.12566958, -416927.75, -71970.3, 0.000000026393016, 10.000138, 9.998513 
1.3051575e+3, 2.7479777e+2, -43395.914, -308849.22, -14026.958, 0.06358478, -0.17674787, -42656.766, 204314.78, 0.0000066700077, 10.002016, 9.9985695 
1.3051683e+3, 2.8479636e+2, 8339.393, -380887.78, 26875.816, 0.14241692, -0.09840553, 10186.382, 159172.58, 0.00007506801, 10.002359, 9.997207 
1.3051784e+3, 2.9479468e+2, -59436.535, -359317.56, 55373.543, 0.15228836, -0.040587384, -49538.42, 1467.9279, 0.00033561388, 10.001193, 9.997243 
1.3051885e+3, 3.0479077e+2, 1769.645, -291309.66, 114985.664, 0.09834644, -0.14775474, 41497.47, 41497.47, 0.0008838956, 10.001241, 9.997376 
1.3052e+3, 3.1478974e+2, 351496.8, 112536.52, -10038.06, 0.16098738, -0.050096758, 351917.72, 351917.72, 0.0016899819, 10.00254, 9.999535 
1.3150088e+3, 1.2479242e+2, -1967943.9, -1676388.1, 66387.5, -0.25087178, -0.06617274, -1661983.4, 55051.92, 0.005819013, 9.997503, 10.001439 
1.3150208e+3, 1.3479517e+2, -1794196.9, -1563622.6, 35084.598, 0.13763307, 0.06179672, -1558402.4, 60603.555, 0.0032902497, 9.998156, 10.00124 
1.3150291e+3, 1.4479584e+2, -1732075.6, -1596726.9, 77014.945, -0.009386872, 0.058618996, -1561877.5, -40879.742, 0.0013013786, 9.998396, 10.000199 
1.3150378e+3, 1.547948e+2, -1552028.9, -1458498.8, 60730.07, -0.14121005, -0.108410284, -1428614.5, -5607.17, 0.00026992275, 9.99896, 10.000207 
1.3150474e+3, 1.6479485e+2, -1431357.8, -1391346.1, 23105.01, -0.11243735, -0.09726352, -1380789.3, -55781.992, 0.00001153221, 9.999289, 9.999844 
1.3150582e+3, 1.7479594e+2, -1299036.3, -1261395.5, 68439.26, 0.019876026, -0.01666852, -1209236.0, 17761.908, 0.0, 9.999473, 9.999965 
1.315068e+3, 1.8479635e+2, -1203705.3, -1194014.3, 87385.54, 0.030256009, 0.04777812, -1111340.0, 17653.531, 0.0, 9.999565, 9.999714 
1.3150768e+3, 1.9479565e+2, -1102366.4, -1081914.5, 101310.25, -0.07327611, -0.03727604, -990315.4, 40682.543, 0.0, 9.999545, 9.999819 
1.315087e+3, 2.0479512e+2, -1084615.5, -1094014.6, 61189.305, -0.040981464, -0.032568064, -1027945.56, -94943.02, 0.0, 9.99929, 9.999187 
1.3150983e+3, 2.1479437e+2, -1053165.9, -1018634.7, 60763.676, 0.1352179, -0.069529764, -972731.25, -137719.97, 0.0, 9.998795, 9.999269 
1.315108e+3, 2.2479376e+2, -958376.75, -972436.5, 84502.586, 0.073900595, -0.026046501, -880612.1, -143593.33, 0.0, 9.998989, 9.998818 
1.3151161e+3, 2.3479299e+2, -713866.2, -793844.25, 92645.78, -0.22566731, -0.030190669, -652947.5, -13919.484, 0.0, 9.9999485, 9.998909 
1.315126e+3, 2.4479268e+2, -562680.75, -615791.6, -21343.209, -0.23225607, 0.03167161, -555166.75, -14136.189, 0.0, 10.00007, 9.999407 
1.3151379e+3, 2.547927e+2, -555611.9, -548377.9, -8882.691, 0.07956613, 0.042962927, -542404.0, -99376.47, 0.0, 9.999385, 9.99953 
1.315149e+3, 2.6479134e+2, -475557.34, -609111.8, 71021.08, 0.1701226, 0.032765772, -444850.25, -99811.6, 0.000000066602475, 9.999917, 9.998183 
1.3151594e+3, 2.747882e+2, -106464.016, -375372.13, 82200.516, 0.010677198, -0.14024663, -83327.41, 163741.64, 0.0000067822207, 10.001757, 9.99823 
1.3151696e+3, 2.847864e+2, 61167.125, -233360.17, -29799.047, 0.003321474, -0.13784619, 64151.82, 213237.36, 0.000081610815, 10.002183, 9.998313 
1.3151802e+3, 2.9478565e+2, -14270.447, -211441.31, 34167.7, 0.16819291, -0.10657034, -8517.396, 42573.375, 0.00036944333, 10.0009575, 9.998377 
1.3151902e+3, 3.0478314e+2, -52050.76, -365166.22, 148914.1, 0.09659457, -0.110509954, 7460.311, 7460.311, 0.000976967, 10.001081, 9.996942 
1.3152015e+3, 3.14781e+2, 288401.25, 86277.34, 106168.91, -0.0033411505, -0.07677547, 333918.13, 333918.13, 0.0018699723, 10.0021105, 9.999553 
1.3250075e+3, 1.2478315e+2, -2005072.5, -1704704.5, 96653.055, -0.101786494, -0.046905104, -1676291.0, 40834.184, 0.006183249, 9.99725, 10.001387 
1.3250184e+3, 1.347855e+2, -1860877.1, -1580988.3, -72084.555, 0.12074965, 0.03563677, -1563514.1, 55585.242, 0.0035072896, 9.997646, 10.001357 
1.325028e+3, 1.4478593e+2, -1811641.0, -1625671.6, 26833.36, 0.07770511, -0.0048327884, -1621877.3, -100783.414, 0.0013982238, 9.997802, 10.000288 
1.3250367e+3, 1.5478536e+2, -1609744.4, -1472529.9, 17704.56, -0.09093214, -0.13312934, -1470282.4, -47183.24, 0.00029637254, 9.998505, 10.000325 
1.3250467e+3, 1.6478586e+2, -1468160.8, -1376549.9, 9350.205, -0.08163152, -0.09913578, -1375605.3, -50510.215, 0.000014169166, 9.998897, 10.000127 
1.3250574e+3, 1.7478727e+2, -1343009.0, -1258813.3, -11953.024, 0.020273097, -0.014334773, -1257149.3, -30066.273, 0.0, 9.999047, 10.000195 
1.3250673e+3, 1.8478772e+2, -1261713.4, -1213837.9, 23929.445, 0.038647316, 0.040727682, -1203928.4, -74850.234, 0.0, 9.999134, 9.999788 
1.3250768e+3, 1.9478682e+2, -1134557.1, -1092638.3, 12242.678, -0.014181801, -0.070798725, -1089324.6, -58240.285, 0.0, 9.99929, 9.99987 
1.3250871e+3, 2.0478635e+2, -1020567.94, -1094835.6, 21370.697, 0.033695955, -0.047134157, -1014857.56, -81768.8, 0.0, 9.999891, 9.998882 
1.3250986e+3, 2.1478608e+2, -752691.25, -906089.4, -1204.0564, 0.17802382, -0.0034379314, -752681.8, 82411.93, 0.0, 10.00102, 9.998962 
1.3251081e+3, 2.247851e+2, -658610.25, -832490.8, 57869.168, 0.0999032, 0.022246446, -641111.75, 95992.24, 0.0, 10.00108, 9.998774 
1.3251162e+3, 2.3478313e+2, -707858.2, -788647.7, 47731.402, -0.19925831, -0.09781431, -685722.75, -46600.586, 0.0, 10.000001, 9.998916 
1.3251263e+3, 2.4478236e+2, -588775.4, -653883.25, -6986.901, -0.17920563, -0.07015664, -588034.06, -46906.043, 0.0, 10.000003, 9.999173 
1.3251391e+3, 2.5478262e+2, -313668.2, -454751.1, -33204.938, 0.17898344, -0.00995666, -306243.84, 136879.36, 0.0, 10.001154, 9.999311 
1.3251506e+3, 2.6478156e+2, -256912.77, -509511.25, 101629.69, 0.24843483, 0.02177629, -221100.64, 124032.19, 0.0000000978673, 10.001459, 9.998113 
1.3251604e+3, 2.7477872e+2, -233939.13, -439839.06, 89942.36, -0.0011025195, -0.113564506, -200183.84, 46978.316, 0.000006920427, 10.000909, 9.998185 
1.3251713e+3, 2.8477693e+2, -41264.445, -271885.56, -18870.166, -0.0143104885, -0.1128316, -39730.625, 109449.016, 0.000086783395, 10.00146, 9.998394 
1.3251829e+3, 2.947759e+2, 340250.84, -32195.428, -80003.945, 0.23579393, -0.10985537, 356708.97, 407896.47, 0.0003950438, 10.003367, 9.998449 
1.3251927e+3, 3.0477417e+2, 256698.42, -219091.44, 20691.39, 0.15684943, -0.039573595, 257596.56, 257596.56, 0.0010503886, 10.003236, 9.996899 
1.3252032e+3, 3.1477177e+2, 95236.945, -1389.9229, -47473.234, 0.03257213, -0.02668244, 114657.52, 114657.52, 0.0020140882, 10.00075, 9.9995985 
1.3350062e+3, 1.2477431e+2, -2012102.1, -1713841.5, -17902.938, -0.040276166, 0.11529352, -1712770.8, 4441.389, 0.0065457188, 9.9972315, 10.001328 
1.3350135e+3, 1.3477333e+2, -1878613.3, -1614373.8, -56037.76, -0.16004348, -0.11556349, -1602981.0, 16238.528, 0.0037237175, 9.997632, 10.001135 
1.3350259e+3, 1.4477402e+2, -1753107.6, -1517643.8, 28383.51, 0.039135683, -0.15224636, -1514270.6, 6940.8164, 0.0014951822, 9.997846, 10.001017 
1.3350368e+3, 1.5477674e+2, -1557850.9, -1368104.0, 61950.047, 0.01481227, -0.024667174, -1349669.1, 73515.61, 0.00032323142, 9.998505, 10.001049 
1.3350469e+3, 1.647781e+2, -1484621.0, -1403532.6, -5066.0786, 0.0022180688, 0.06795968, -1403217.4, -78044.9, 0.000017128494, 9.998868, 9.999955 
1.3350555e+3, 1.7477785e+2, -1365481.8, -1289059.4, 9256.281, -0.099553026, 0.004164264, -1287954.3, -60777.176, 0.00000000003443261, 9.9989805, 10.000016 
1.3350652e+3, 1.8477762e+2, -1260912.6, -1199540.1, 10966.951, -0.11146304, -0.008322158, -1197639.3, -68459.766, 0.0, 9.999071, 9.999923 
1.3350768e+3, 1.9477691e+2, -1140454.8, -1079701.0, 33827.945, 0.03106323, -0.11551036, -1064612.6, -33428.633, 0.0, 9.999173, 10.000021 
1.3350876e+3, 2.0477682e+2, -1061016.1, -1134980.6, 43542.895, 0.057051018, -0.05093952, -1040869.8, -107684.914, 0.0, 9.999704, 9.998699 
1.3350973e+3, 2.1477726e+2, -802599.4, -954411.1, 59551.27, -0.06509888, 0.082517, -782027.0, 53156.816, 0.0, 10.000779, 9.998753 
1.3351074e+3, 2.2477613e+2, -680724.94, -821283.5, 5513.7017, -0.10063243, 0.09410427, -680509.0, 56684.6, 0.0, 10.00083, 9.998966 
1.3351183e+3, 2.3477305e+2, -726312.2, -778159.5, 26342.799, -0.008843729, -0.15856838, -715276.75, -76059.26, 0.0, 9.9997835, 9.999091 
1.335129e+3, 2.4477133e+2, -638192.06, -703689.2, 16795.295, 0.04831593, -0.22388092, -634136.44, -92906.81, 0.0, 9.999785, 9.99893 
1.3351394e+3, 2.547707e+2, -366368.47, -510701.16, 27780.443, 0.0647176, -0.22731529, -361206.1, 82026.7, 0.0, 10.000929, 9.999031 
1.3351499e+3, 2.6477012e+2, -281541.88, -512911.38, 62928.64, 0.01318549, -0.13762882, -265533.88, 79705.04, 0.00000008871969, 10.00125, 9.998191 
1.3351604e+3, 2.7476925e+2, -260912.17, -437098.7, 88120.336, -0.116486624, -0.09023994, -224403.61, 22847.832, 0.000006673535, 10.000664, 9.998319 
1.3351725e+3, 2.8476784e+2, -137378.3, -425594.03, 29646.646, -0.069451004, -0.015184105, -134360.38, 14909.286, 0.00008871381, 10.001258, 9.9974375 
1.3351862e+3, 2.9476547e+2, 227879.44, -197934.9, 17166.234, 0.18312101, -0.04603146, 228570.34, 279866.44, 0.00040777776, 10.003074, 9.997457 
1.3351957e+3, 3.0476406e+2, 250242.16, -178624.4, -77943.305, 0.10240059, 0.08903108, 263968.44, 263968.44, 0.0010944809, 10.003008, 9.997281 
1.3352038e+3, 3.1476167e+2, 37089.88, -35343.563, -50707.766, -0.038084682, 0.057575975, 63186.305, 63186.305, 0.002108087, 10.000375, 9.999549 
1.3450047e+3, 1.2476454e+2, -2072406.9, -1749669.8, 31159.318, 0.12851715, 0.09008572, -1746688.9, -29383.752, 0.0069055543, 9.996862, 10.001251 
1.3450111e+3, 1.3476369e+2, -1847854.8, -1606139.4, 36223.453, -0.17293693, -0.12078452, -1600827.8, 18485.027, 0.0039389143, 9.997897, 10.001052 
1.3450238e+3, 1.4476462e+2, -1732451.8, -1497144.4, 117092.836, 0.04164378, -0.13444291, -1448806.8, 72496.36, 0.0015916337, 9.997952, 10.001107 
1.3450354e+3, 1.547673e+2, -1669438.6, -1411366.3, 65336.78, 0.08039166, -0.01811755, -1395767.6, 27509.043, 0.0003501717, 9.997704, 10.00114 
1.345046e+3, 1.6476864e+2, -1616015.4, -1464111.8, 32184.973, 0.082976274, 0.06749215, -1457573.9, -132309.34, 0.000020254476, 9.997942, 9.999995 
1.3450547e+3, 1.7476834e+2, -1404680.9, -1300444.0, 24024.875, -0.05865116, -0.00462378, -1295173.3, -67903.83, 0.0000000014653116, 9.998684, 10.000081 
1.3450646e+3, 1.8476816e+2, -1258185.8, -1213400.8, 48771.38, -0.07935699, -0.008117088, -1182126.9, -52855.2, 0.0, 9.999146, 9.999789 
1.3450763e+3, 1.9476771e+2, -1115002.8, -1082133.5, 16187.837, 0.06319562, -0.07517848, -1075499.9, -44224.72, 0.0, 9.999413, 9.9998865 
1.3450874e+3, 2.0476761e+2, -1045103.94, -1114046.0, 83019.38, 0.07434083, -0.013668064, -989683.5, -56407.215, 0.0, 9.999736, 9.99883 
1.3450974e+3, 2.1476766e+2, -883740.4, -971081.9, 84748.36, -0.080784805, 0.06472867, -832072.7, 3204.081, 0.0, 10.000118, 9.998947 
1.3451083e+3, 2.2476636e+2, -754717.4, -915599.75, 17013.307, -0.07432988, 0.07314637, -752937.94, -15650.002, 0.0, 10.000578, 9.998445 
1.34512e+3, 2.3476326e+2, -562684.56, -755007.75, -47565.715, 0.13201065, -0.12631632, -551563.56, 87749.91, 0.0, 10.00116, 9.998586 
1.3451308e+3, 2.4476099e+2, -434863.56, -654130.9, -31091.322, 0.17491701, -0.19976822, -430540.16, 110791.7, 0.0, 10.001393, 9.998504 
1.34514e+3, 2.5475928e+2, -351376.4, -547850.6, -67815.02, 0.034194436, -0.26686707, -330242.63, 113102.79, 0.0, 10.001235, 9.998634 
1.3451503e+3, 2.6475856e+2, -273602.66, -503043.7, -25392.582, -0.052093685, -0.17387916, -270826.03, 74527.055, 0.000000062099474, 10.001286, 9.998241 
1.3451618e+3, 2.747584e+2, -113906.83, -362703.97, -46696.88, -0.07295003, -0.058852743, -105431.016, 141927.81, 0.0000065347235, 10.001642, 9.998363 
1.3451743e+3, 2.8475705e+2, -86277.3, -389713.16, -1246.6104, -0.012462547, 0.021266745, -86272.17, 63103.984, 0.00008986311, 10.001544, 9.99755 
1.3451876e+3, 2.9475453e+2, -63878.777, -311774.66, 17208.975, 0.13416767, -0.042348087, -62689.832, -11284.925, 0.00041373618, 10.000958, 9.997686 
1.3451974e+3, 3.0475357e+2, 55149.496, -226059.0, -31703.816, 0.058979437, 0.09964827, 58679.516, 58679.516, 0.001115336, 10.001424, 9.997731 
1.3452068e+3, 3.147517e+2, 403469.13, 144897.06, -51856.31, 0.11269884, 0.07503739, 413481.2, 413481.2, 0.0021558118, 10.002878, 9.99957 
1.3550003e+3, 1.2475355e+2, -2079324.4, -1759365.3, -54479.324, -0.09053046, -0.18560338, -1750343.4, -32935.902, 0.0072628423, 9.996862, 10.0011835 
1.3550106e+3, 1.3475671e+2, -1853928.8, -1611361.9, 82626.34, -0.03896414, 0.011209657, -1585891.1, 33486.645, 0.004152666, 9.997877, 10.001027 
1.3550209e+3, 1.4475772e+2, -1786329.8, -1596251.3, 82090.58, -0.08458362, 0.045009922, -1565706.6, -44338.09, 0.0016872559, 9.997902, 10.000447 
1.3550323e+3, 1.5475707e+2, -1714683.8, -1505262.6, 73558.08, -0.03550644, -0.11212833, -1482008.0, -58633.05, 0.0003769789, 9.997699, 10.000498 
1.3550436e+3, 1.6475742e+2, -1595212.8, -1422862.6, 37568.99, 0.020006781, -0.10842052, -1415029.3, -89657.41, 0.000023370363, 9.997945, 10.000278 
1.3550544e+3, 1.7475855e+2, -1393876.9, -1265044.9, 66918.36, 0.018644659, -0.064240724, -1236576.6, -9215.139, 0.0000000068048798, 9.998623, 10.000356 
1.3550647e+3, 1.8475927e+2, -1301862.1, -1279244.5, 39925.707, -0.015178675, 0.028526181, -1249056.9, -119701.125, 0.0, 9.999048, 9.999379 
1.355075e+3, 1.9475923e+2, -1163741.3, -1154212.6, 44478.008, -0.054192074, 0.041802406, -1114244.5, -82886.234, 0.0, 9.999288, 9.999451 
1.3550861e+3, 2.0475867e+2, -1041108.6, -1065168.5, 77404.484, -0.055196844, 0.060554035, -974804.8, -41441.773, 0.0, 9.999563, 9.999246 
1.3550986e+3, 2.147573e+2, -888529.75, -926385.1, 112106.555, -0.0077812625, -0.05064964, -793764.25, 41608.816, 0.0, 9.99988, 9.99937 
1.3551103e+3, 2.2475572e+2, -877585.0, -1104420.6, 15413.038, 0.03926559, -0.03139412, -876542.5, -139154.6, 0.0, 10.0002985, 9.99728 
1.3551211e+3, 2.3475371e+2, -683263.44, -947096.8, -9191.109, 0.091617726, -0.0036883154, -682943.6, -43533.176, 0.0, 10.000914, 9.997382 
1.3551314e+3, 2.4475133e+2, -513169.06, -759467.3, -54121.777, 0.06593978, 0.0058650086, -501801.0, 39632.996, 0.0, 10.001147, 9.997902 
1.3551407e+3, 2.5474826e+2, -425653.16, -646245.5, -53311.246, -0.057621676, -0.1425896, -413444.9, 30016.383, 0.0, 10.000998, 9.998075 
1.3551515e+3, 2.647466e+2, -308251.9, -525685.5, -28822.28, -0.09765468, -0.10976687, -304496.22, 40980.758, 0.000000036385206, 10.001068, 9.998194 
1.3551643e+3, 2.7474612e+2, -156244.55, -391832.25, -7906.595, -0.027851723, -0.023235755, -155979.5, 91504.41, 0.0000068750182, 10.00139, 9.998285 
1.3551761e+3, 2.8474492e+2, -40505.914, -244661.45, -38691.832, -0.017232565, 0.018778631, -33419.0, 116077.88, 0.00009120505, 10.001332, 9.998645 
1.3551867e+3, 2.9474282e+2, -24292.16, -168818.83, 20502.926, -0.08570484, -0.11248189, -21439.854, 30077.031, 0.00041573873, 10.000696, 9.998797 
1.3551973e+3, 3.0474234e+2, 52806.797, -164194.03, 4537.346, -0.12162306, -0.0033911304, 52901.63, 52901.63, 0.0011165407, 10.001165, 9.99827 
1.3552108e+3, 3.1474134e+2, 319826.16, 86231.125, 67941.84, 0.15009712, 0.004188397, 338149.9, 338149.9, 0.0021572434, 10.002414, 9.999379 
1.364996e+3, 1.24743156e+2, -1986529.9, -1704426.9, -78064.305, -0.21509264, -0.23230584, -1684265.5, 33242.605, 0.0076198755, 9.997421, 10.0013 
1.3650094e+3, 1.3474704e+2, -1937202.5, -1665043.6, -54080.844, 0.090211034, 0.037359178, -1654691.0, -35219.438, 0.004366158, 9.997312, 10.00095 
1.3650185e+3, 1.4474799e+2, -1901160.8, -1668735.9, 3329.8108, -0.07420372, 0.0779272, -1668688.3, -147225.36, 0.0017823466, 9.997182, 10.000291 
1.36503e+3, 1.547466e+2, -1686045.4, -1506595.5, 964.5427, -0.035887443, -0.13683434, -1506590.4, -83114.15, 0.0004035849, 9.997969, 10.000347 
1.3650422e+3, 1.6474664e+2, -1496107.9, -1370573.1, 23733.465, 0.035298955, -0.16041607, -1366236.0, -40760.11, 0.000026350568, 9.9986, 10.000325 
1.3650537e+3, 1.7474796e+2, -1314630.9, -1217014.8, -4218.7236, 0.05460788, -0.10557955, -1216832.8, 10629.958, 0.000000016360648, 9.999127, 10.000444 
1.3650644e+3, 1.8474874e+2, -1240207.3, -1279368.1, -3429.0085, 0.030759156, 0.004118578, -1239909.4, -110453.03, 0.0, 9.9996195, 9.999096 
1.3650748e+3, 1.9474865e+2, -1058699.6, -1126990.8, -25952.318, -0.020844014, 0.0402345, -1049956.5, -18496.355, 0.0, 10.000142, 9.999209 
1.3650866e+3, 2.0474774e+2, -938632.6, -1042313.25, 13463.397, -0.00516872, 0.04551202, -936912.9, -3443.963, 0.0, 10.000363, 9.99903 
1.3650995e+3, 2.1474566e+2, -849626.25, -933109.3, -31951.867, 0.08218368, -0.11159951, -838800.9, -3314.9507, 0.0, 10.000242, 9.999162 
1.3651115e+3, 2.2474414e+2, -810103.5, -1062219.4, -38868.637, 0.1216756, -0.08186125, -804247.2, -66746.016, 0.0, 10.000719, 9.997365 
1.3651225e+3, 2.3474297e+2, -542497.0, -875242.25, -10483.664, 0.10224958, 0.021755539, -542167.0, 97350.164, 0.0, 10.001847, 9.997435 
1.3651328e+3, 2.4474102e+2, -393014.66, -722380.7, -5733.133, 0.062547065, 0.082243435, -392914.9, 148622.92, 0.0, 10.002068, 9.997707 
1.365142e+3, 2.5473797e+2, -387202.8, -648962.4, -20503.904, -0.014808319, -0.045367394, -385606.47, 57959.844, 0.0, 10.001354, 9.99788 
1.365153e+3, 2.647359e+2, -299063.28, -506543.06, 89120.42, -0.03302904, -0.05216837, -266039.1, 79546.0, 0.000000033203506, 10.001074, 9.998322 
1.365166e+3, 2.747346e+2, -144742.58, -362770.53, 85326.4, 0.016491238, -0.06377886, -115320.14, 132276.31, 0.0000069323874, 10.00138, 9.998483 
1.3651778e+3, 2.8473312e+2, -2749.059, -224504.86, 49282.285, 0.002044514, -0.05723878, 7709.9775, 157319.25, 0.00008948749, 10.0016165, 9.998633 
1.365188e+3, 2.947314e+2, 161153.66, -73007.8, -14752.096, -0.07526504, -0.15042482, 162079.38, 213703.9, 0.00040625758, 10.001961, 9.998836 
1.3651992e+3, 3.0473062e+2, 228821.1, -73796.38, -6488.284, -0.09304704, -0.079404816, 228960.16, 228960.16, 0.0010893871, 10.00235, 9.99834 
1.3652135e+3, 3.1472963e+2, 306727.44, 41640.51, -32261.023, 0.19875738, -0.053426284, 310597.1, 310597.1, 0.00210587, 10.002439, 9.999109 
1.3749953e+3, 1.2473314e+2, -1977370.8, -1676921.6, 59972.31, -0.11927519, -0.08203389, -1665393.0, 52216.42, 0.0079810945, 9.997406, 10.001481 
1.3750064e+3, 1.3473465e+2, -1940186.1, -1672979.9, -56661.688, 0.03104167, -0.047042426, -1661461.3, -41866.953, 0.0045821774, 9.997314, 10.000889 
1.3750158e+3, 1.447355e+2, -1874990.5, -1618648.4, 1466.0464, -0.09102155, -0.030431636, -1618640.0, -97054.73, 0.0018779465, 9.997196, 10.000633 
1.3750282e+3, 1.5473595e+2, -1663753.6, -1461283.8, 48099.51, -0.052732397, -0.09803908, -1450438.0, -26857.47, 0.00043006244, 9.997963, 10.000668 
1.3750406e+3, 1.6473635e+2, -1510071.0, -1396048.1, 21871.045, -0.025007645, -0.089877404, -1391996.9, -66420.98, 0.000029160963, 9.998581, 10.000162 
1.3750516e+3, 1.7473665e+2, -1329802.4, -1242036.1, 33092.195, -0.086251095, -0.12202949, -1230957.3, -3385.3281, 0.000000027808229, 9.999086, 10.0002985 
1.3750632e+3, 1.8473665e+2, -1260170.0, -1304459.1, -3313.9468, -0.08721844, -0.076804616, -1259923.4, -130350.96, 0.0, 9.999559, 9.998948 
1.3750759e+3, 1.9473585e+2, -1094134.9, -1167141.0, 6846.6626, 0.025969578, -0.091223374, -1093498.4, -61916.254, 0.0, 9.999998, 9.999005 
1.375088e+3, 2.047347e+2, -1014279.6, -1157066.0, -8197.081, 0.068727285, -0.064698204, -1013810.56, -80215.516, 0.0, 10.000183, 9.99833 
1.3750996e+3, 2.1473293e+2, -936983.7, -1058791.0, -16896.637, 0.042531874, -0.11962495, -934683.25, -99069.51, 0.0, 10.0, 9.998419 
1.3751115e+3, 2.2473182e+2, -767919.5, -905240.4, -12682.28, 0.02350164, -0.06914573, -766758.06, -29132.496, 0.0, 10.00043, 9.998579 
1.3751237e+3, 2.3473114e+2, -499249.72, -712468.3, 51930.58, 0.016561525, -0.0410458, -487274.34, 152358.2, 0.0, 10.001546, 9.99869 
1.3751346e+3, 2.4473007e+2, -421701.63, -724121.3, -52631.984, 0.015668899, 0.036882557, -412803.56, 128839.92, 0.0, 10.001808, 9.997826 
1.375144e+3, 2.547284e+2, -411563.8, -651975.56, -30851.572, 0.024665214, 0.03872504, -407667.8, 35992.504, 0.0, 10.001145, 9.997963 
1.3751549e+3, 2.6472643e+2, -300065.16, -470241.72, 82061.95, -0.0055942438, 0.021623058, -266941.0, 78736.13, 0.000000022673568, 10.000904, 9.9986515 
1.3751666e+3, 2.7472362e+2, -154207.67, -328746.28, 115589.36, -0.081743486, -0.17550157, -96643.17, 151055.23, 0.0000066245593, 10.001156, 9.998821 
1.3751787e+3, 2.847216e+2, -93671.12, -380523.94, 40658.05, -0.09839117, -0.1953314, -88019.66, 61695.42, 0.00008473701, 10.001462, 9.997641 
1.3751909e+3, 2.9472038e+2, 53356.996, -240692.55, 22833.639, -0.025149953, -0.14096607, 55119.52, 106846.86, 0.00038290335, 10.001713, 9.997808 
1.3752022e+3, 3.0471832e+2, 166717.52, -153122.86, -11275.293, -0.044901557, -0.11988546, 167114.52, 167114.52, 0.0010283956, 10.002143, 9.997882 
1.3752139e+3, 3.1471637e+2, 201811.72, -46253.266, 41389.055, -0.06450249, -0.15001117, 208535.16, 208535.16, 0.0019973381, 10.001917, 9.99873 
1.3849923e+3, 1.2472223e+2, -2164197.0, -1770325.6, 126663.44, -0.06131253, 0.015657118, -1733109.1, -15391.903, 0.008351057, 9.996151, 10.001449 
1.3850035e+3, 1.3472237e+2, -1873747.3, -1620237.3, -74669.4, -0.0007057391, -0.09841397, -1599878.9, 19835.262, 0.004803759, 9.997695, 10.001074 
1.385015e+3, 1.4472307e+2, -1748462.8, -1563042.6, 17534.98, 0.06818137, -0.104102135, -1561399.0, -39692.523, 0.0019753822, 9.998082, 10.000594 
1.385027e+3, 1.5472434e+2, -1627965.4, -1444290.1, -3883.3862, 0.018150883, -0.084685184, -1444208.0, -20513.93, 0.00045665295, 9.998215, 10.000665 
1.385039e+3, 1.6472505e+2, -1546306.1, -1417703.0, 1797.1173, -0.011540497, -0.04180772, -1417677.9, -91990.7, 0.00003186285, 9.998389, 10.00009 
1.3850504e+3, 1.7472504e+2, -1393089.3, -1277062.9, -22742.494, -0.09071955, -0.10052024, -1272764.3, -45077.586, 0.000000039188958, 9.998699, 10.000234 
1.3850626e+3, 1.8472469e+2, -1308093.4, -1309973.3, -1436.0978, -0.07470101, -0.0956804, -1307317.0, -177627.23, 0.0, 9.999121, 9.999143 
1.3850759e+3, 1.9472367e+2, -1090223.6, -1134339.6, 12210.431, 0.06379751, -0.15635246, -1087069.5, -55370.137, 0.0, 9.999872, 9.999301 
1.3850886e+3, 2.0472276e+2, -996591.6, -1157859.0, 54089.516, 0.11017574, -0.11707586, -980130.2, -46420.43, 0.0, 10.000356, 9.998233 
1.3851e+3, 2.147217e+2, -842958.06, -1018930.7, 52513.04, 0.058821075, -0.09280956, -828478.75, 7244.9287, 0.0, 10.00068, 9.998356 
1.3851123e+3, 2.2472073e+2, -697599.1, -853364.4, 97459.14, 0.039605547, -0.035982724, -650726.06, 87008.55, 0.0, 10.000809, 9.998764 
1.3851252e+3, 2.3471957e+2, -580658.6, -729689.06, 53175.305, 0.052605923, -0.074915834, -563630.8, 76114.31, 0.0, 10.000871, 9.998908 
1.3851365e+3, 2.4471848e+2, -475853.44, -742759.7, -63951.67, 0.057907302, -0.01486816, -461321.56, 80434.484, 0.0, 10.001409, 9.997882 
1.385146e+3, 2.5471723e+2, -201494.1, -546497.2, -89147.56, 0.042663917, 0.023795692, -179820.28, 263949.28, 0.0, 10.002558, 9.998006 
1.3851567e+3, 2.6471546e+2, -44596.24, -379055.78, 16327.235, 0.007303893, 0.03699467, -43801.086, 301984.25, 0.0000000049794013, 10.002792, 9.998374 
1.3851684e+3, 2.7471268e+2, -33800.297, -304976.34, -33209.44, -0.055239316, -0.12666509, -29792.55, 218014.73, 0.0000064670485, 10.002104, 9.998542 
1.3851808e+3, 2.8471038e+2, -42005.633, -390562.88, -45376.547, -0.04503385, -0.14147863, -36195.195, 113631.21, 0.00007994395, 10.001953, 9.9973545 
1.3851938e+3, 2.9470837e+2, 169721.81, -205329.45, -51045.184, 0.060031686, -0.1346618, 176545.03, 228389.77, 0.00035496187, 10.002591, 9.997635 
1.3852054e+3, 3.0470538e+2, 222357.94, -183675.44, -51976.125, 0.041098237, -0.17953992, 228905.78, 228905.78, 0.00095268304, 10.002759, 9.997377 
1.385216e+3, 3.1470317e+2, 216881.7, -65407.74, -63715.332, -0.045615625, -0.18562739, 230596.52, 230596.52, 0.001860375, 10.002095, 9.998515 
1.3949876e+3, 1.24709316e+2, -2185663.5, -1802940.4, -53509.277, -0.23148528, -0.028658355, -1795599.9, -77757.8, 0.008733579, 9.996123, 10.001226 
1.395e+3, 1.3471004e+2, -1843295.0, -1550852.5, -16523.145, -0.15409943, -0.13487086, -1549921.9, 69910.695, 0.005033633, 9.997673, 10.001558 
1.3950154e+3, 1.4471073e+2, -1772199.5, -1615075.1, -6296.552, 0.24530108, -0.14968234, -1614823.1, -92997.65, 0.002076125, 9.9980955, 10.00023 
1.3950256e+3, 1.5471189e+2, -1660320.8, -1504326.9, 19184.205, 0.012472312, -0.10425822, -1502002.3, -78185.625, 0.00048381835, 9.998184, 10.000267 
1.395037e+3, 1.6471265e+2, -1552788.3, -1430477.8, -9988.851, -0.08865603, -0.030939033, -1429667.4, -103856.76, 0.000034571214, 9.998385, 10.000006 
1.3950494e+3, 1.747128e+2, -1414939.3, -1303575.1, 1683.9977, -0.08321648, -0.05861794, -1303549.6, -75739.77, 0.00000005013657, 9.998619, 10.0000925 
1.395062e+3, 1.8471277e+2, -1257673.0, -1194302.1, 3433.9792, -0.08218067, -0.05277954, -1194116.5, -64307.63, 0.0, 9.999074, 9.999957 
1.395075e+3, 1.9471224e+2, -1055882.8, -1030416.9, 55236.008, -0.04927231, -0.14813031, -986465.2, 45345.23, 0.0, 9.999725, 10.00009 
1.3950878e+3, 2.0471199e+2, -986872.94, -1098427.0, 46609.184, -0.026354808, -0.106082216, -969962.3, -36149.9, 0.0, 10.000184, 9.998721 
1.3951002e+3, 2.1471182e+2, -848911.0, -971977.75, 78356.78, -0.011638964, -0.038457662, -810814.3, 25002.848, 0.0, 10.000427, 9.998797 
1.395113e+3, 2.2471075e+2, -774741.94, -968212.9, 82364.695, 0.0149594145, 0.017634714, -744427.44, -6597.66, 0.0, 10.000598, 9.998079 
1.3951264e+3, 2.3470841e+2, -662215.56, -851540.7, 75857.61, 0.07069942, -0.07143862, -635571.1, 4282.254, 0.0, 10.000654, 9.9981785 
1.395138e+3, 2.4470645e+2, -517540.16, -769701.5, -38826.996, 0.037321415, -0.05977182, -511697.1, 30176.34, 0.0, 10.001156, 9.997819 
1.3951476e+3, 2.5470445e+2, -251300.92, -578413.6, -26756.62, -0.08771764, -0.08836288, -249126.78, 194766.84, 0.0, 10.002261, 9.997925 
1.3951585e+3, 2.6470295e+2, -141786.94, -528542.75, -23957.44, -0.122058816, 0.0013583719, -140308.55, 205600.86, 0.0000000011462398, 10.002562, 9.997461 
1.395171e+3, 2.7470183e+2, -134256.33, -458598.0, -36674.215, -0.04460456, 0.09195927, -130161.17, 117760.38, 0.0000063015364, 10.001861, 9.997607 
1.3951835e+3, 2.8469962e+2, -53768.785, -359366.56, -39119.613, 0.00049046596, 0.11822538, -48840.55, 101100.65, 0.000075522126, 10.00172, 9.997676 
1.3951963e+3, 2.9469556e+2, 145500.48, -183165.3, -512.13684, 0.016165415, -0.11395349, 145501.28, 197476.45, 0.00033164787, 10.00229, 9.997929 
1.3952082e+3, 3.0469176e+2, 153629.44, -272469.53, -91981.695, 0.015192317, -0.22313708, 172637.52, 172637.52, 0.0008920203, 10.002526, 9.996881 
1.3952187e+3, 3.1469062e+2, 145660.22, -93937.375, -34885.906, -0.04178362, -0.082087465, 150636.34, 150636.34, 0.0017485601, 10.001609, 9.998546 
1.4049864e+3, 1.2469761e+2, -1997917.9, -1750812.8, -20266.857, -0.017376369, -0.02728704, -1749161.5, -31206.271, 0.009133226, 9.997543, 10.000902 
1.4049983e+3, 1.3469823e+2, -1817134.0, -1571154.8, -5154.9126, -0.08621563, -0.118811324, -1571046.8, 48900.484, 0.005275387, 9.997969, 10.001281 
1.4050135e+3, 1.446986e+2, -1770329.4, -1603808.1, 11999.486, 0.2641492, -0.15835264, -1602948.0, -81004.38, 0.0021822979, 9.998074, 10.000315 
1.4050241e+3, 1.5469983e+2, -1644056.4, -1490251.3, 26483.445, 0.05791657, -0.10987243, -1485818.9, -61884.9, 0.00051218417, 9.998277, 10.000318 
1.4050359e+3, 1.6470057e+2, -1519386.6, -1440967.1, 70778.11, -0.047774173, -0.03142172, -1399263.6, -73335.14, 0.000037386584, 9.998712, 9.999779 
1.4050488e+3, 1.7470062e+2, -1257298.5, -1243499.1, 39937.367, -0.054473877, -0.055085912, -1209869.8, 18059.2, 0.00000006103049, 9.9997635, 9.999949 
1.4050618e+3, 1.8470065e+2, -1133015.1, -1138207.9, 27254.871, -0.04824891, -0.035929978, -1108233.3, 21694.746, 0.0, 9.999961, 9.9999075 
1.4050749e+3, 1.9470033e+2, -1110274.5, -1057441.5, -24168.664, -0.01638013, -0.10683973, -1048053.56, -16125.471, 0.0, 9.999363, 10.000075 
1.4050879e+3, 2.0470017e+2, -1077699.9, -1116771.9, -15548.989, 0.0074402266, -0.06875491, -1072267.4, -138338.14, 0.0, 9.999446, 9.99896 
1.4051007e+3, 2.146999e+2, -815969.94, -920409.75, -32260.367, 0.008775279, -0.038031552, -806808.6, 29125.283, 0.0, 10.000502, 9.999118 
1.405114e+3, 2.2469884e+2, -704870.9, -935842.9, 6051.119, 0.02442241, 0.007937185, -704712.5, 33233.344, 0.0, 10.001104, 9.99805 
1.4051273e+3, 2.3469666e+2, -574593.9, -803620.44, 9681.663, 0.062707804, -0.06373508, -574185.4, 65782.984, 0.0, 10.001248, 9.99821 
1.4051393e+3, 2.4469468e+2, -465842.2, -733202.4, -14509.631, 0.038636718, -0.058655247, -465057.06, 76931.02, 0.0, 10.0014515, 9.997932 
1.4051497e+3, 2.5469264e+2, -309957.44, -585068.0, -20255.992, -0.06626385, -0.10631746, -308474.03, 135533.77, 0.0, 10.001773, 9.998112 
1.405161e+3, 2.6469082e+2, -239652.73, -627809.44, 13335.084, -0.08246151, -0.033855937, -239195.14, 106831.73, 0.0000000047036606, 10.002119, 9.99699 
1.4051735e+3, 2.746892e+2, -67542.0, -474468.28, -16635.8, 0.007998463, 0.058653485, -66863.04, 181182.53, 0.000006310061, 10.002551, 9.997156 
1.405186e+3, 2.8468704e+2, 74371.01, -293954.84, 33455.934, 0.054490875, 0.10947811, 77385.23, 227451.11, 0.00007178299, 10.002577, 9.99771 
1.4051987e+3, 2.946835e+2, 109293.28, -200943.53, 17565.387, 0.05568577, -0.07749918, 110284.65, 162379.97, 0.0003183702, 10.00203, 9.997937 
1.405211e+3, 3.046801e+2, 108819.42, -302528.94, -18319.477, 0.0661088, -0.14044578, 109633.67, 109633.67, 0.0008620041, 10.002259, 9.996796 
1.4052214e+3, 3.1467816e+2, 431650.8, 76782.734, -11292.175, 0.0021565268, -0.06981795, 432009.78, 432009.78, 0.0016920328, 10.003419, 9.998855 
1.4149836e+3, 1.2468701e+2, -2005320.5, -1775846.9, -96643.07, -0.14299896, -0.01768062, -1740569.0, -22511.457, 0.009556688, 9.997573, 10.000727 
1.4149982e+3, 1.3468713e+2, -1898041.9, -1728481.8, 24505.35, 0.06499572, -0.051261567, -1725011.1, -104954.664, 0.0055341963, 9.997929, 10.00022 
1.4150088e+3, 1.4468665e+2, -1731723.8, -1532246.1, -6305.4854, -0.0641112, -0.14721794, -1532047.0, -9985.944, 0.0022969088, 9.998109, 10.000789 
1.4150222e+3, 1.5468813e+2, -1619013.8, -1434681.9, 48141.184, 0.018923013, -0.11062315, -1422866.4, 1180.2914, 0.0005425403, 9.9982605, 10.000709 
1.4150351e+3, 1.646889e+2, -1524961.1, -1458652.9, 83395.516, -0.03547406, -0.041292094, -1402062.9, -76023.36, 0.000040406845, 9.998734, 9.999653 
1.415048e+3, 1.7468873e+2, -1282033.5, -1273402.9, 95299.305, -0.14438114, -0.07201411, -1182321.3, 45720.723, 0.00000007226826, 9.999669, 9.999798 
1.4150612e+3, 1.846885e+2, -1203833.6, -1268894.0, -13254.298, -0.12541309, -0.028614113, -1201237.1, -71191.71, 0.0, 9.999893, 9.999041 
1.4150748e+3, 1.9468789e+2, -1195179.9, -1206318.8, -32516.445, 0.025584405, -0.036105376, -1167759.4, -135706.22, 0.0, 9.999244, 9.999112 
1.4150882e+3, 2.0468715e+2, -1090760.5, -1110886.9, -1007.88605, 0.06458356, -0.008567295, -1090710.1, -156648.84, 0.0, 9.999298, 9.999072 
1.4151013e+3, 2.14686e+2, -847317.1, -926960.75, 23814.324, -0.005792216, -0.07826648, -840739.6, -4667.082, 0.0, 10.000241, 9.999204 
1.4151144e+3, 2.2468506e+2, -701702.25, -863912.4, -8158.773, -0.064374164, -0.05859318, -701292.94, 36789.137, 0.0, 10.000826, 9.998673 
1.4151272e+3, 2.3468414e+2, -577322.2, -741122.7, 30494.693, -0.10004933, -0.062248606, -571829.2, 68262.2, 0.0, 10.000962, 9.998775 
1.4151396e+3, 2.4468318e+2, -469145.88, -691781.9, -18691.924, -0.09793312, -0.0033822912, -467587.44, 74512.766, 0.0, 10.001233, 9.9983225 
1.4151518e+3, 2.546818e+2, -310366.6, -544019.9, 9665.951, -0.04680672, -0.026757643, -309967.4, 134144.44, 0.0, 10.001583, 9.9984865 
1.415164e+3, 2.646791e+2, -281282.13, -664768.56, 8862.244, -0.023301298, -0.053942926, -281077.44, 65060.01, 0.000000079284355, 10.00191, 9.996836 
1.415176e+3, 2.7467477e+2, -121328.12, -526672.1, 21938.0, -0.039935775, -0.21737745, -120144.24, 128036.52, 0.000007370644, 10.0022955, 9.996922 
1.415188e+3, 2.8467253e+2, 39985.86, -318048.84, -2941.542, -0.042870477, -0.15608747, 40010.023, 190212.63, 0.00007207351, 10.002371, 9.997642 
1.4152007e+3, 2.9467204e+2, 61274.53, -240284.0, 22125.543, 0.013277765, -0.03386126, 62889.25, 115095.89, 0.00031938194, 10.001762, 9.9978 
1.4152132e+3, 3.0467004e+2, 73052.125, -308598.9, 12116.64, 0.02724597, 0.047099415, 73436.414, 73436.414, 0.00086451345, 10.001992, 9.996864 
1.4152238e+3, 3.1466585e+2, 372188.34, 80150.24, 77758.06, -0.17895733, -0.1256714, 391601.72, 391601.72, 0.0016914787, 10.002917, 9.999095 
1.424981e+3, 1.2467354e+2, -1969544.4, -1742880.8, -72514.414, -0.1405052, -0.13779415, -1721667.3, -3480.7354, 0.010011913, 9.997786, 10.00085 
1.4249967e+3, 1.3467412e+2, -1993555.1, -1791726.0, -52545.832, 0.16795227, -0.097340494, -1778865.3, -158683.98, 0.0058154534, 9.99739, 10.000038 
1.425006e+3, 1.4467382e+2, -1795908.8, -1594251.4, -181.91116, -0.13502555, -0.15355137, -1594251.1, -72066.38, 0.002423067, 9.9978075, 10.000503 
1.425021e+3, 1.5467528e+2, -1524345.6, -1419777.3, -44194.98, 0.0402409, -0.09360135, -1403601.0, 20570.822, 0.00057589856, 9.99905, 10.000418 
1.4250346e+3, 1.646758e+2, -1429950.0, -1418429.3, -5329.2197, 0.01434452, -0.031790476, -1416342.3, -90175.055, 0.00004378684, 9.999406, 9.999598 
1.4250477e+3, 1.7467514e+2, -1365207.5, -1315620.1, -23171.21, -0.1088155, -0.10862507, -1306478.0, -78304.7, 0.00000008454083, 9.999098, 9.999776 
1.4250612e+3, 1.8467474e+2, -1301912.3, -1334725.1, -69466.87, -0.07806108, -0.074050896, -1246940.8, -116762.0, 0.0, 9.999291, 9.998882 
1.4250751e+3, 1.9467446e+2, -1058960.5, -1150852.0, -63958.297, 0.08319165, -0.035256673, -1026155.56, 6029.1465, 0.0, 10.000227, 9.999015 
1.4250885e+3, 2.046738e+2, -922799.06, -1037301.75, 34627.027, 0.113817126, 0.0061278017, -913141.94, 21050.965, 0.0, 10.00048, 9.999006 
1.4251016e+3, 2.1467228e+2, -875435.0, -947520.5, 8438.571, 0.013711719, -0.09340127, -874460.3, -38252.875, 0.0, 10.000059, 9.999153 
1.4251147e+3, 2.2467142e+2, -801077.6, -880402.6, -4360.426, -0.056096416, -0.077658795, -800838.7, -62622.66, 0.0, 9.999999, 9.998971 
1.4251278e+3, 2.3467113e+2, -623581.4, -726574.5, -21198.11, -0.100309476, -0.049689792, -619389.06, 20830.111, 0.0, 10.000473, 9.999125 
1.4251408e+3, 2.4467042e+2, -517844.94, -727057.5, -55503.184, -0.09169167, 0.023355713, -504032.16, 38193.69, 0.0, 10.00096, 9.998211 
1.4251536e+3, 2.546689e+2, -310354.8, -558675.5, -103770.625, -0.024933973, 0.0003587149, -272700.03, 171540.05, 0.00000000006254562, 10.001642, 9.998362 
1.4251664e+3, 2.6466626e+2, -203039.67, -579546.25, -70430.945, 0.014266966, -0.0369675, -190295.9, 155968.9, 0.00000036239143, 10.002234, 9.997261 
1.4251788e+3, 2.7466226e+2, -21392.332, -423365.66, -45153.355, 0.014426527, -0.21230374, -16382.723, 231919.36, 0.000010087366, 10.002735, 9.997417 
1.4251909e+3, 2.846599e+2, 86251.766, -323993.16, -40134.12, -0.00915565, -0.17838709, 90141.2, 240466.05, 0.00007872079, 10.002806, 9.997401 
1.4252023e+3, 2.946588e+2, 168637.84, -212822.84, -86817.734, -0.022096854, -0.08691431, 187467.47, 239804.27, 0.00033516844, 10.002607, 9.997579 
1.4252155e+3, 3.046573e+2, 225011.72, -262885.72, -12366.708, 0.022825051, 0.06506977, 225324.98, 225324.98, 0.0008965645, 10.003106, 9.996673 
1.425228e+3, 3.1465328e+2, 521228.5, 108106.164, -29388.338, -0.0866634, -0.07521382, 523308.63, 523308.63, 0.0017444047, 10.004085, 9.9987545 
1.4349818e+3, 1.2465846e+2, -1935393.5, -1685287.6, 159102.77, 0.069388725, -0.27425352, -1607974.8, 110355.24, 0.010506618, 9.997822, 10.001234 
1.4349934e+3, 1.346594e+2, -1958803.5, -1715106.3, -46441.035, 0.076807275, -0.2506551, -1706556.0, -86235.95, 0.006123269, 9.99737, 10.000566 
1.4350043e+3, 1.4466026e+2, -1847052.5, -1713661.3, 24529.494, -0.12040501, -0.18203059, -1709293.5, -186979.9, 0.002563054, 9.997857, 9.999667 
1.4350198e+3, 1.5466143e+2, -1598289.3, -1564075.8, 19617.357, -0.024157824, -0.054346632, -1555154.1, -130846.98, 0.0006133788, 9.999004, 9.999457 
1.4350337e+3, 1.6466136e+2, -1432585.0, -1418919.9, -39219.035, -0.06250274, -0.0025038817, -1385942.6, -59632.598, 0.000047750204, 9.999388, 9.999603 
1.4350472e+3, 1.746597e+2, -1370991.5, -1319842.3, -21450.375, -0.08859236, -0.18069975, -1312037.5, -83712.09, 0.00000010052836, 9.999058, 9.999771 
1.4350611e+3, 1.8465935e+2, -1264549.6, -1239942.5, -58295.492, -0.05469914, -0.17249626, -1192666.4, -62337.44, 0.0, 9.999221, 9.999565 
1.435075e+3, 1.946602e+2, -1033743.0, -1063375.5, -13228.417, 0.0142828785, -0.090501964, -1028696.94, 3624.84, 0.0, 10.000076, 9.999689 
1.435088e+3, 2.0466015e+2, -959592.1, -1075210.4, -945.9325, -0.0021023753, -0.015821151, -959584.4, -25260.797, 0.0, 10.000309, 9.998827 
1.435101e+3, 2.1465872e+2, -931176.75, -1007484.9, 8847.973, -0.07682293, -0.08460602, -930164.25, -93825.375, 0.0, 9.999812, 9.998862 
1.4351144e+3, 2.2465794e+2, -840552.75, -895387.94, -5473.512, -0.10345288, -0.042764015, -840011.7, -101664.28, 0.0, 9.9997225, 9.998995 
1.4351286e+3, 2.3465773e+2, -663874.3, -740698.1, 14871.32, -0.075617276, -0.014082956, -661096.06, -20745.771, 0.0, 10.00019, 9.999158 
1.4351422e+3, 2.4465646e+2, -598170.44, -835979.1, -51351.23, -0.086972326, 0.03147788, -587555.7, -45191.316, 0.0, 10.000708, 9.997587 
1.4351544e+3, 2.546538e+2, -401615.47, -679245.3, -59351.023, -0.13298556, -0.036391027, -389459.75, 54933.56, 0.000000006122379, 10.00135, 9.997673 
1.4351678e+3, 2.6465225e+2, -156780.61, -434520.6, -66773.875, -0.10436181, 0.01572818, -141560.94, 204847.47, 0.0000008787704, 10.002015, 9.998369 
1.435182e+3, 2.746516e+2, 23622.953, -275004.34, -5522.398, 0.020695318, 0.060181595, 23725.043, 272135.4, 0.000014147242, 10.002493, 9.998562 
1.435194e+3, 2.84649e+2, 18109.668, -412220.44, -65892.76, -0.007086613, 0.03625868, 27973.182, 178406.94, 0.000090681104, 10.002576, 9.996902 
1.4352036e+3, 2.9464376e+2, 78905.19, -337129.84, -68887.54, -0.20641647, -0.23259656, 90014.984, 142501.22, 0.0003647409, 10.002331, 9.996863 
1.4352176e+3, 3.0464205e+2, 173421.1, -303058.13, 8245.873, -0.11378459, -0.05268771, 173563.77, 173563.77, 0.0009617202, 10.002845, 9.99651 
1.4352332e+3, 3.1464064e+2, 394217.0, -27280.36, 57377.113, -0.018334962, 0.083114535, 401887.97, 401887.97, 0.001861219, 10.003546, 9.998082 
1.4449802e+3, 1.24644056e+2, -2028588.4, -1727938.1, 197184.77, 0.18076923, -0.22356896, -1630312.8, 88157.734, 0.011047917, 9.997142, 10.001271 
1.4449899e+3, 1.3464482e+2, -1749400.3, -1587135.4, -130941.07, -0.06459662, -0.25330383, -1514228.8, 106233.65, 0.00646129, 9.998659, 10.000829 
1.4450045e+3, 1.4464566e+2, -1630243.6, -1600580.3, -13560.263, 0.034258656, -0.20197372, -1595315.8, -72859.87, 0.0027186894, 9.999327, 9.999718 
1.4450191e+3, 1.5464658e+2, -1609473.4, -1557512.8, 4652.7397, 0.02175872, -0.11067377, -1557099.4, -132648.25, 0.0006559602, 9.99888, 9.999558 
1.4450327e+3, 1.6464661e+2, -1548459.6, -1468196.5, 16487.01, -0.043786317, -0.055109706, -1464941.8, -138488.95, 0.000052490832, 9.998571, 9.999661 
1.4450468e+3, 1.7464551e+2, -1392213.5, -1314115.6, 4168.7104, -0.029872403, -0.18440495, -1313893.8, -85430.7, 0.00000012546444, 9.998866, 9.999895 
1.4450608e+3, 1.8464527e+2, -1269117.3, -1256160.5, 7174.09, 0.0005916785, -0.1675685, -1252972.6, -122506.79, 0.0, 9.999231, 9.999458 
1.4450745e+3, 1.9464567e+2, -1090600.8, -1099224.3, -41796.547, -0.00042955158, -0.12169002, -1052894.1, -20431.22, 0.0, 9.999712, 9.9996195 
1.445088e+3, 2.0464557e+2, -1007808.2, -1086774.8, -48344.55, -0.020799138, -0.053195428, -984872.5, -50407.164, 0.0, 9.999948, 9.99892 
1.4451014e+3, 2.1464461e+2, -889389.5, -965866.9, -53665.426, -0.03312144, -0.08523558, -861733.0, -25256.924, 0.0, 10.000036, 9.999032 
1.445115e+3, 2.2464393e+2, -769563.44, -892852.44, 300.32947, -0.034100767, -0.02869527, -769562.7, -31078.592, 0.0, 10.000337, 9.998722 
1.4451295e+3, 2.3464328e+2, -580179.6, -731614.94, -35104.523, -0.031503838, -0.01543592, -572437.75, 68054.27, 0.0, 10.000883, 9.998889 
1.4451432e+3, 2.446418e+2, -509811.53, -780123.75, -50877.23, -0.058250498, 0.015837185, -500552.72, 41955.934, 0.0, 10.001261, 9.997701 
1.445156e+3, 2.5463912e+2, -351091.47, -641847.5, -37560.316, -0.118917175, -0.067388535, -346317.75, 98220.1, 0.000000012932129, 10.00162, 9.9978075 
1.4451697e+3, 2.6463795e+2, -198961.1, -432340.06, -23281.328, -0.086862326, 0.007500441, -196661.27, 149888.39, 0.0000016431604, 10.001636, 9.998566 
1.445184e+3, 2.7463818e+2, -116164.81, -314778.34, -75747.61, 0.05109461, 0.12197186, -90573.484, 157970.69, 0.000019343763, 10.001424, 9.998795 
1.4451964e+3, 2.846358e+2, -55013.332, -431541.47, -89506.51, 0.017445888, 0.10034227, -34819.313, 115746.5, 0.00010742439, 10.002014, 9.997032 
1.4452063e+3, 2.946303e+2, 255184.42, -229307.28, -73418.2, -0.19587317, -0.21035045, 266065.6, 318685.56, 0.0004102239, 10.003458, 9.997046 
1.4452209e+3, 3.046287e+2, 338564.28, -157415.95, 82468.664, -0.095506646, -0.058722015, 351917.22, 351917.22, 0.001066146, 10.00369, 9.997111 
1.4452367e+3, 3.14628e+2, 245986.56, -75451.17, 86399.51, 0.05071916, 0.085587926, 267738.03, 267738.03, 0.0020519032, 10.002438, 9.998272 
1.4549778e+3, 1.24629855e+2, -2043050.6, -1778643.0, -33524.89, 0.14990582, -0.06840847, -1774458.5, -55845.605, 0.011640448, 9.99723, 10.000878 
1.4549856e+3, 1.3463056e+2, -1760519.3, -1593559.0, -46388.52, -0.40071967, -0.11060254, -1581536.1, 39070.332, 0.0068325973, 9.998588, 10.000821 
1.4550056e+3, 1.446302e+2, -1571154.4, -1480114.9, -45251.4, 0.14286453, -0.21149679, -1461449.4, 61160.434, 0.0028915813, 9.999334, 10.00054 
1.4550184e+3, 1.5463059e+2, -1543039.9, -1413087.3, 1795.1866, 0.020051386, -0.27116755, -1413062.5, 11542.168, 0.00070428615, 9.998854, 10.000561 
1.4550313e+3, 1.6463153e+2, -1525890.0, -1428888.4, -471.1281, -0.0852091, -0.18882456, -1428886.1, -102290.78, 0.000058062662, 9.998601, 9.999919 
1.4550455e+3, 1.7463268e+2, -1388267.9, -1291476.6, 31670.846, -0.067000054, -0.11394832, -1282034.6, -53449.156, 0.00000016567238, 9.998804, 10.000083 
1.4550598e+3, 1.8463257e+2, -1332965.1, -1376236.3, 5338.7446, -0.061802402, -0.056032397, -1332316.1, -201727.27, 0.0, 9.999175, 9.998666 
1.4550737e+3, 1.9463088e+2, -1171490.0, -1237818.5, -7469.4463, -0.09905314, -0.13264312, -1170659.3, -138050.81, 0.0, 9.999578, 9.998741 
1.4550875e+3, 2.0463002e+2, -1012534.6, -1050602.4, -64253.367, -0.09022925, -0.10677404, -964555.2, -29936.838, 0.0, 9.999758, 9.999255 
1.455102e+3, 2.1462986e+2, -900588.2, -928014.3, -33352.516, 0.0015290403, -0.10042789, -878239.7, -41619.7, 0.0, 9.99978, 9.999414 
1.4551161e+3, 2.2462921e+2, -836304.1, -972169.0, 1048.7631, 0.00039622033, -0.040865738, -836296.06, -97668.54, 0.0, 10.00008, 9.998301 
1.4551298e+3, 2.3462787e+2, -662703.44, -826672.94, 4508.6035, -0.11061589, -0.04828851, -662579.56, -21935.959, 0.0, 10.000564, 9.998387 
1.4551438e+3, 2.4462652e+2, -491296.1, -681536.3, -52723.29, -0.16057487, -0.01513632, -477661.53, 64996.367, 0.0, 10.000991, 9.998512 
1.4551578e+3, 2.5462493e+2, -326477.28, -535074.2, -4062.1287, -0.12489395, -0.07783164, -326398.22, 118274.695, 0.000000017460069, 10.001375, 9.998664 
1.4551716e+3, 2.646235e+2, -281780.5, -551780.75, -47804.92, -0.089728735, -0.036241658, -273566.3, 73121.0, 0.000002726617, 10.001407, 9.997853 
1.4551848e+3, 2.7462205e+2, -211661.8, -449849.4, -62709.406, -0.0508541, -0.017599184, -196160.64, 52542.863, 0.000025176965, 10.001158, 9.997989 
1.4551978e+3, 2.8462037e+2, -32813.96, -320436.16, -55720.387, -0.0796716, 0.027888387, -22396.678, 128323.88, 0.00012773139, 10.0017395, 9.997927 
1.4552104e+3, 2.946182e+2, 282855.75, -102947.74, 5387.392, -0.16864155, -0.042401534, 282930.97, 335670.94, 0.00046808438, 10.00316, 9.998061 
1.4552249e+3, 3.046171e+2, 381669.63, -5641.715, 23363.605, -0.087953165, 0.045765396, 383073.88, 383073.88, 0.00120209, 10.003422, 9.998284 
1.4552379e+3, 3.1461495e+2, 219587.1, -35484.992, 77747.414, -0.15024213, -0.068354085, 241416.72, 241416.72, 0.0023053363, 10.002024, 9.998752 
1.4649768e+3, 1.24615e+2, -2029429.3, -1748066.6, -106427.32, 0.32863522, -0.022621766, -1712345.0, 6416.753, 0.012283002, 9.997243, 10.001078 
1.4649844e+3, 1.346161e+2, -1865484.0, -1626669.1, 1418.5448, -0.32930008, -0.039073303, -1626660.6, -5909.6177, 0.00723705, 9.99782, 10.00095 
1.4650047e+3, 1.4461544e+2, -1785501.6, -1579661.9, 2111.1294, 0.21621597, -0.17126743, -1579640.3, -56883.87, 0.0030819494, 9.997822, 10.000602 
1.4650172e+3, 1.5461579e+2, -1575253.4, -1402473.6, -51798.18, 0.046703644, -0.25905073, -1388134.9, 36615.85, 0.0007585455, 9.998503, 10.000812 
1.4650305e+3, 1.6461685e+2, -1477693.5, -1393785.6, -43723.336, -0.036090564, -0.18498866, -1375143.8, -48404.12, 0.00006440502, 9.998871, 10.000029 
1.465045e+3, 1.7461823e+2, -1334943.6, -1256868.8, -56949.62, -0.0010841907, -0.09906868, -1226861.4, 1866.434, 0.00000022299002, 9.99911, 10.000176 
1.4650595e+3, 1.8461818e+2, -1300539.3, -1332293.5, -7093.5303, -0.008703665, -0.047192596, -1299026.8, -168297.1, 0.0, 9.999318, 9.998876 
1.4650732e+3, 1.9461648e+2, -1121206.8, -1181189.0, 20117.283, -0.08666518, -0.14944826, -1115084.6, -82337.05, 0.0, 9.999817, 9.998995 
1.4650877e+3, 2.0461546e+2, -975999.6, -1094651.1, 4853.503, -0.071125604, -0.12773241, -975801.44, -41042.043, 0.0, 10.00026, 9.998719 
1.4651027e+3, 2.1461496e+2, -795542.3, -935215.94, -62599.715, 0.066270456, -0.099536076, -771592.6, 65174.113, 0.0, 10.000747, 9.9988985 
1.465117e+3, 2.2461413e+2, -724767.5, -914956.25, -18747.295, 0.0651261, -0.033720434, -722937.1, 15839.845, 0.0, 10.0008335, 9.998327 
1.4651303e+3, 2.3461267e+2, -650025.56, -814714.7, -16566.035, -0.1014408, -0.059341136, -648375.7, -7582.338, 0.0, 10.000609, 9.998449 
1.4651445e+3, 2.4461156e+2, -551633.3, -679083.4, -31479.813, -0.1513318, -0.019618373, -544281.94, -1477.1165, 0.0, 10.000448, 9.998789 
1.4651592e+3, 2.5461072e+2, -436945.56, -547944.4, -61612.43, -0.07252591, -0.035465572, -409521.66, 35290.473, 0.000000044837254, 10.000463, 9.999002 
1.4651732e+3, 2.6460922e+2, -370969.56, -612970.9, -67411.4, -0.028005514, -0.010853245, -353458.66, -6631.191, 0.0000038968087, 10.000871, 9.997695 
1.4651863e+3, 2.7460673e+2, -133071.28, -434468.7, -70293.37, -0.024631958, -0.0748463, -117483.31, 131371.38, 0.000030518888, 10.001773, 9.99781 
1.4651999e+3, 2.846051e+2, 41774.527, -250955.53, -12331.294, -0.053885933, -0.026426064, 42293.066, 193164.53, 0.00014669454, 10.0021, 9.998236 
1.4652134e+3, 2.9460448e+2, 107156.21, -147058.13, -55734.297, -0.10762497, 0.030610824, 118838.61, 171714.33, 0.00052534003, 10.00179, 9.998412 
1.4652282e+3, 3.0460304e+2, 256242.48, -60518.62, -70066.734, -0.040715806, 0.060279515, 271048.97, 271048.97, 0.0013448142, 10.002551, 9.998307 
1.4652415e+3, 3.1460014e+2, 536108.06, 107664.37, -167914.03, -0.087002076, -0.1225097, 594073.9, 594073.9, 0.0025808995, 10.00425, 9.998652 
1.474972e+3, 1.2459896e+2, -1956747.5, -1609963.0, -262896.75, 0.045001313, -0.12917064, -1468427.4, 250494.94, 0.012969953, 9.997307, 10.001996 
1.4749856e+3, 1.3460147e+2, -1861740.1, -1604392.3, 16544.256, -0.02205946, -0.030031046, -1603333.0, 17562.916, 0.0076708426, 9.997771, 10.001116 
1.4750016e+3, 1.4460142e+2, -1803363.6, -1641794.4, -5665.6055, 0.06961354, -0.08627785, -1641596.0, -118700.23, 0.0032881629, 9.99791, 10.000142 
1.4750151e+3, 1.546023e+2, -1614103.4, -1477094.1, -10319.969, -0.044990115, -0.06896034, -1476321.1, -51433.348, 0.00081847684, 9.99847, 10.00032 
1.4750296e+3, 1.6460274e+2, -1472418.3, -1391415.8, -55123.902, -0.06156913, -0.035053786, -1363513.9, -36629.984, 0.000071419374, 9.9989, 10.00003 
1.4750448e+3, 1.7460231e+2, -1346066.9, -1262819.5, -32605.482, 0.020731034, -0.12960717, -1251569.4, -22681.623, 0.0000002932695, 9.999042, 10.000163 
1.4750594e+3, 1.8460226e+2, -1223354.1, -1170841.6, -10334.91, 0.0073511675, -0.13069211, -1168880.9, -37994.496, 0.0, 9.999296, 10.0 
1.4750732e+3, 1.946024e+2, -1054667.4, -1018330.6, 53952.098, -0.10936751, -0.16851604, -979569.94, 53311.4, 0.0, 9.999699, 10.000175 
1.4750877e+3, 2.0460175e+2, -1087604.6, -1287789.3, -154.68411, -0.12080644, -0.11167497, -1087604.5, -152714.69, 0.0, 10.000093, 9.997471 
1.4751032e+3, 2.1460001e+2, -930236.2, -1154880.5, -30388.26, 0.008548721, -0.07479635, -926198.1, -89282.59, 0.0, 10.000493, 9.99751 
1.4751177e+3, 2.2459872e+2, -728759.7, -871873.6, -45979.56, 0.010780715, -0.00047031458, -715260.7, 23671.428, 0.0, 10.000596, 9.998747 
1.4751309e+3, 2.3459768e+2, -647766.2, -757783.44, -7262.354, -0.14454871, -0.035850845, -647288.9, -6347.574, 0.0, 10.000375, 9.9989605 
1.4751448e+3, 2.4459694e+2, -600904.4, -725847.1, -51629.113, -0.19485137, 0.02160432, -582331.06, -39382.063, 0.0, 10.00021, 9.998582 
1.4751595e+3, 2.5459632e+2, -492990.8, -606377.9, -44074.594, -0.11030043, 0.0525038, -477874.0, -32916.973, 0.000000082863835, 10.000212, 9.998724 
1.4751741e+3, 2.6459488e+2, -378357.44, -570709.6, -48619.63, -0.05316365, 0.079199776, -366766.63, -19794.799, 0.0000048986644, 10.000619, 9.998104 
1.4751884e+3, 2.7459213e+2, -138035.63, -383961.13, -8953.6, -0.029884763, -0.061482288, -137710.08, 111288.09, 0.00003489947, 10.0015135, 9.998276 
1.475202e+3, 2.8459015e+2, -31109.469, -346415.4, -40565.367, -0.078060165, -0.04669956, -25974.209, 125043.1, 0.00016199093, 10.001855, 9.997699 
1.4752147e+3, 2.945891e+2, 31569.94, -245988.77, -43413.25, -0.19660422, 0.012961229, 38201.793, 91229.86, 0.0005773318, 10.001537, 9.997853 
1.4752302e+3, 3.0458638e+2, 150892.58, -216765.63, -22127.65, -0.12456696, -0.004787, 152219.55, 152219.55, 0.0014793195, 10.002276, 9.997365 
1.4752464e+3, 3.1458336e+2, 418578.63, -12176.633, -48175.465, -0.09416429, -0.11327982, 423900.78, 423900.78, 0.0028372656, 10.003715, 9.998083 
1.4849691e+3, 1.24583706e+2, -1873846.8, -1598324.3, -178798.98, 0.0066878423, -0.18455458, -1510370.6, 208701.48, 0.013700781, 9.997969, 10.001768 
1.4849852e+3, 1.3458605e+2, -1789097.1, -1630524.0, -41107.82, 0.15238863, -0.04515642, -1620500.9, 547.5668, 0.00813248, 9.9984865, 10.000611 
1.4849992e+3, 1.4458622e+2, -1757114.1, -1606540.4, -10525.484, 0.03551389, -0.057585344, -1605808.3, -82761.56, 0.0035089266, 9.9982195, 10.000215 
1.4850138e+3, 1.5458721e+2, -1569601.0, -1440834.6, -12510.596, -0.023158189, -0.040428977, -1439630.4, -14592.996, 0.0008836724, 9.998737, 10.000426 
1.4850289e+3, 1.6458757e+2, -1490275.9, -1395208.8, -15125.093, 0.0071490393, -0.016547536, -1392860.4, -65826.46, 0.00007901186, 9.998804, 10.000037 
1.4850444e+3, 1.7458697e+2, -1400487.9, -1284017.4, -35240.668, 0.101232365, -0.13013965, -1274184.6, -45145.14, 0.00000037325287, 9.998678, 10.000189 
1.4850593e+3, 1.845869e+2, -1268792.0, -1188867.6, 15255.669, 0.092892006, -0.13654761, -1186054.6, -55016.152, 0.0, 9.998956, 10.000047 
1.4850736e+3, 1.9458729e+2, -1009424.56, -987457.6, -38334.445, -0.049047075, -0.15401073, -958564.25, 74467.15, 0.0, 9.999964, 10.000261 
1.4850883e+3, 2.0458682e+2, -994311.9, -1237393.6, -63181.49, -0.09448614, -0.08428612, -978870.7, -43832.625, 0.0, 10.000725, 9.997508 
1.4851037e+3, 2.1458516e+2, -818150.7, -1093328.9, -29774.111, -0.015325365, -0.040447988, -814966.0, 22096.47, 0.0, 10.00123, 9.997578 
1.4851183e+3, 2.2458388e+2, -656746.56, -816771.5, 1416.6097, 0.010850243, 0.020358112, -656734.0, 82344.516, 0.0, 10.001016, 9.998913 
1.485132e+3, 2.3458287e+2, -669800.94, -747157.94, -23409.99, -0.050618473, -0.025971308, -663268.2, -22181.736, 0.0, 10.000144, 9.999139 
1.4851457e+3, 2.4458207e+2, -622746.3, -735128.1, -4208.749, -0.09759875, 0.017071387, -622588.94, -79494.734, 0.0, 10.00005, 9.998601 
1.4851598e+3, 2.545814e+2, -395463.63, -555759.75, -14330.218, -0.1186306, 0.041010216, -394192.6, 50910.504, 0.00000011463164, 10.000868, 9.998757 
1.4851747e+3, 2.6458016e+2, -259601.42, -479195.47, 19957.217, -0.080328956, 0.07307628, -257802.4, 89313.3, 0.000005857849, 10.001303, 9.998394 
1.4851902e+3, 2.7457803e+2, -145539.67, -355560.84, -1223.723, 0.0139052365, -0.03232781, -145532.53, 103603.26, 0.000039275426, 10.001337, 9.998549 
1.4852045e+3, 2.8457618e+2, -29897.664, -387920.78, 12422.764, 0.0023168565, -0.0014958971, -29467.133, 121686.82, 0.00017769585, 10.002045, 9.997321 
1.485218e+3, 2.9457462e+2, 290235.88, -170520.02, -18977.014, -0.11735294, 0.052910253, 291016.16, 344186.78, 0.0006303682, 10.003512, 9.997435 
1.4852335e+3, 3.0457124e+2, 331626.8, -173263.64, 48240.313, -0.07390302, 0.008122072, 336194.66, 336194.66, 0.0016042597, 10.003676, 9.997009 
1.4852498e+3, 3.1456813e+2, 187454.05, -110002.586, -30382.096, -0.00763709, -0.067311294, 190525.55, 190525.55, 0.003054721, 10.002045, 9.9982195 
1.4949673e+3, 1.24569826e+2, -1926557.3, -1728141.9, -50106.375, -0.065741464, -0.12593581, -1716206.4, 2999.057, 0.014485426, 9.998069, 10.000804 
1.4949828e+3, 1.3457039e+2, -1878617.6, -1801122.5, -26576.361, 0.025959644, -0.050846405, -1792884.1, -171680.86, 0.008627366, 9.998435, 9.999457 
1.494997e+3, 1.4457017e+2, -1698306.8, -1520410.5, -25805.09, -0.06379319, -0.07133556, -1516743.0, 6462.8765, 0.0037456865, 9.998347, 10.000754 
1.4950128e+3, 1.545707e+2, -1534180.1, -1368316.5, 22086.74, -0.043302663, -0.15486006, -1365425.8, 59771.645, 0.0009542572, 9.998729, 10.0009365 
1.4950281e+3, 1.6457154e+2, -1478698.0, -1386798.9, -41074.71, -0.0025027199, -0.11240269, -1371116.5, -43928.457, 0.00008722728, 9.998862, 10.000068 
1.4950433e+3, 1.7457211e+2, -1408534.0, -1289911.5, -25885.854, 0.10678439, -0.10462525, -1284508.8, -55325.32, 0.0000004647829, 9.998633, 10.000168 
1.4950585e+3, 1.8457212e+2, -1337734.0, -1332231.6, 30181.324, 0.09112898, -0.05837103, -1304676.4, -173490.98, 0.0, 9.998948, 9.999072 
1.4950737e+3, 1.9457127e+2, -1104384.4, -1152251.0, 14215.175, -0.061815783, -0.09689009, -1100481.1, -67284.984, 0.0, 9.999823, 9.999202 
1.495089e+3, 2.045708e+2, -929317.0, -1060410.5, -62341.527, -0.14529818, -0.035227776, -904404.7, 30798.201, 0.0, 10.000539, 9.998814 
1.495104e+3, 2.1457048e+2, -756953.5, -906896.6, 5349.309, -0.1276647, 0.0020800806, -756762.9, 80444.34, 0.0, 10.000978, 9.998977 
1.4951187e+3, 2.2456968e+2, -704268.44, -857427.5, -49121.24, -0.07055848, 0.043621674, -689868.2, 49347.35, 0.0, 10.000755, 9.998765 
1.4951332e+3, 2.3456813e+2, -719149.0, -793671.06, -38936.49, 0.030494569, -0.03827838, -702517.25, -61287.285, 0.0, 9.999901, 9.998939 
1.4951469e+3, 2.4456699e+2, -643613.94, -721198.9, 9499.424, -0.0183233, -0.0290254, -642467.75, -99227.14, 0.0, 9.9998, 9.998817 
1.4951599e+3, 2.5456595e+2, -414844.5, -542564.8, 37974.223, -0.23529094, -0.06607322, -404406.88, 40843.477, 0.00000015644366, 10.000628, 9.998968 
1.4951746e+3, 2.6456505e+2, -301904.75, -499694.28, 3612.677, -0.2544177, -0.013099245, -301838.78, 45420.855, 0.000006865855, 10.001021, 9.998384 
1.4951913e+3, 2.7456415e+2, -186302.72, -377490.44, 19488.781, -0.04656022, 0.009524827, -184336.34, 64933.727, 0.00004412461, 10.0010805, 9.998519 
1.4952071e+3, 2.8456286e+2, -80506.98, -436365.97, 46448.84, 0.019274473, 0.10744723, -74544.11, 76740.07, 0.00019465707, 10.001793, 9.997113 
1.4952224e+3, 2.9456085e+2, 232754.44, -220717.38, 67574.26, -0.0570571, 0.13428007, 242609.86, 295915.03, 0.0006807664, 10.003204, 9.997243 
1.4952375e+3, 3.0455738e+2, 272865.13, -207952.31, -21122.48, -0.078360714, 0.094549716, 273791.25, 273791.25, 0.0017053906, 10.003318, 9.996936 
1.4952512e+3, 3.145541e+2, 150063.33, -86108.05, -37796.14, -0.14925116, 0.0028676149, 155964.66, 155964.66, 0.0032076885, 10.001613, 9.998592 
1.5049656e+3, 1.24554284e+2, -1869393.1, -1732942.1, -56553.094, -0.05250457, -0.08419702, -1712550.6, 6807.1025, 0.015336173, 9.998603, 10.0005245 
1.5049808e+3, 1.3455503e+2, -1910916.8, -1799003.3, -62068.91, 0.0045607663, -0.013920084, -1771391.4, -150037.66, 0.0091627855, 9.998108, 9.99965 
1.5049954e+3, 1.4455424e+2, -1770736.1, -1546571.3, 30107.072, -0.016206129, -0.1019005, -1542598.1, -19236.297, 0.0040015904, 9.997834, 10.000818 
1.5050119e+3, 1.5455492e+2, -1609693.8, -1388657.6, 2796.8313, 0.044158846, -0.1808599, -1388622.3, 36729.895, 0.001031135, 9.998161, 10.001065 
1.5050274e+3, 1.6455589e+2, -1524307.5, -1426633.4, -41605.96, 0.07038332, -0.12341736, -1411313.5, -83971.836, 0.000096309515, 9.998599, 9.999932 
1.5050425e+3, 1.7455667e+2, -1277464.8, -1237982.0, -72365.44, 0.11354463, -0.08467586, -1182713.5, 46622.254, 0.000000575819, 9.999559, 10.000081 
1.5050578e+3, 1.8455681e+2, -1236463.6, -1297450.6, 41798.316, 0.08976059, -0.014005717, -1215217.9, -83880.52, 0.0, 9.99972, 9.998924 
1.5050733e+3, 1.9455601e+2, -1201583.5, -1210708.8, 56453.246, -0.049524676, -0.033956792, -1149508.8, -116159.664, 0.0, 9.999215, 9.999079 
1.5050888e+3, 2.0455562e+2, -1081750.5, -1039617.75, 45778.227, -0.11289822, 0.0004691326, -1010291.3, -74937.586, 0.0, 9.999099, 9.999648 
1.5051046e+3, 2.1455547e+2, -900678.25, -879316.94, 35169.0, -0.08426651, -0.031236028, -853242.56, -15890.464, 0.0, 9.99958, 9.999841 
1.5051197e+3, 2.2455475e+2, -808937.8, -935332.1, -26696.152, -0.031234697, -0.010864399, -803530.56, -64172.605, 0.0, 10.000174, 9.998501 
1.5051335e+3, 2.345532e+2, -595086.06, -768942.1, -66027.58, 0.036101192, -0.061485928, -572853.1, 68521.33, 0.0, 10.000913, 9.998614 
1.5051475e+3, 2.4455191e+2, -446909.75, -628886.3, 13361.09, 0.0107623665, -0.04941862, -445933.97, 97453.234, 0.0, 10.001169, 9.998786 
1.5051615e+3, 2.5455067e+2, -373008.53, -521541.4, -16609.041, -0.13570878, -0.10605779, -371173.94, 74223.836, 0.00000020302433, 10.000922, 9.998962 
1.5051764e+3, 2.6454958e+2, -301931.84, -532245.44, -24038.828, -0.16678344, -0.05487777, -299449.56, 47958.76, 0.0000077496, 10.001152, 9.998102 
1.5051925e+3, 2.7454862e+2, -75777.516, -360183.5, -59087.613, -0.06262785, -0.013209409, -63990.13, 185430.53, 0.000048509926, 10.001966, 9.998225 
1.5052088e+3, 2.8454718e+2, 247.25539, -333171.56, 22492.584, -0.013456413, 0.06144361, 1757.7722, 153193.39, 0.00020995413, 10.002088, 9.99767 
1.5052252e+3, 2.9454514e+2, 34102.777, -240206.7, 42201.06, -0.016044168, 0.027025573, 40448.395, 93903.29, 0.0007220719, 10.001554, 9.997872 
1.5052406e+3, 3.045426e+2, 85290.99, -306408.8, 12019.234, -0.0060957433, 0.047429, 85659.45, 85659.45, 0.0017709631, 10.002039, 9.996891 
1.505255e+3, 3.1453988e+2, 389012.94, 39635.61, -65141.676, -0.007984426, 0.027457489, 400763.47, 400763.47, 0.0032780797, 10.003198, 9.998715 
1.5149646e+3, 1.245372e+2, -1807275.0, -1653722.9, -192135.9, -0.109178066, -0.07464068, -1523591.3, 195936.7, 0.016257107, 9.998806, 10.000993 
1.5149786e+3, 1.3454023e+2, -1829128.5, -1603272.4, -49959.875, -0.06184308, 0.07533327, -1592714.6, 28782.541, 0.009740974, 9.998017, 10.001032 
1.5149938e+3, 1.4453885e+2, -1781014.3, -1603170.5, 14606.455, -0.01990207, -0.119667254, -1601978.9, -78468.39, 0.0042781597, 9.997962, 10.000375 
1.5150109e+3, 1.5453987e+2, -1638915.1, -1457276.8, 30068.738, 0.088450305, -0.117055565, -1452428.5, -26927.262, 0.0011151112, 9.998185, 10.000585 
1.5150265e+3, 1.6454065e+2, -1524419.1, -1448831.4, -30691.447, 0.055469178, -0.045139648, -1437939.0, -110444.42, 0.000106548556, 9.998683, 9.99974 
1.5150411e+3, 1.7454074e+2, -1296193.0, -1271803.9, -21399.006, -0.012436407, -0.062993616, -1259368.6, -29873.174, 0.0000007145684, 9.999526, 9.99987 
1.5150563e+3, 1.8454108e+2, -1187170.6, -1192563.5, 5360.934, -0.06988723, 0.0052448045, -1183866.3, -52372.676, 0.0, 9.999708, 9.99965 
1.5150718e+3, 1.9454151e+2, -1167108.4, -1110509.3, 51523.54, -0.15071973, 0.03269104, -1080024.9, -46534.55, 0.0, 9.999096, 9.999824 
1.515088e+3, 2.0454136e+2, -1084383.8, -1005017.3, 40646.664, -0.15057833, 0.03584795, -987894.6, -52404.42, 0.0, 9.998921, 9.999974 
1.5151049e+3, 2.1454027e+2, -914324.1, -848081.9, 69320.49, -0.03152974, -0.12258487, -804376.3, 33119.3, 0.0, 9.99932, 10.000183 
1.51512e+3, 2.2453927e+2, -879839.7, -1017588.2, -16960.33, -0.03150494, -0.13011198, -877782.2, -138277.58, 0.0, 9.99989, 9.998076 
1.5151326e+3, 2.3453812e+2, -664693.56, -857281.7, -19596.16, -0.16434032, -0.09065907, -662719.9, -21199.814, 0.0, 10.000671, 9.998126 
1.5151474e+3, 2.4453688e+2, -505045.97, -696589.7, -13878.085, -0.16292067, -0.030764952, -504045.66, 39488.023, 0.0, 10.000929, 9.998443 
1.5151642e+3, 2.5453535e+2, -428855.38, -583969.9, -7618.3945, 0.014417058, -0.0862011, -428482.1, 17064.867, 0.00000026346208, 10.000681, 9.998654 
1.5151797e+3, 2.645336e+2, -374810.0, -615482.06, -9398.38, 0.015228513, -0.064783745, -374443.56, -26879.902, 0.000008336701, 10.000867, 9.997669 
1.5151934e+3, 2.7453148e+2, -149250.1, -444771.03, -1818.7081, -0.1857452, -0.089880675, -149238.9, 100347.19, 0.00005112129, 10.001686, 9.99778 
1.5152086e+3, 2.8452948e+2, 33042.227, -199429.64, -13247.9, -0.26340958, -0.10165451, 33794.75, 185399.72, 0.00022272031, 10.0018015, 9.998725 
1.5152255e+3, 2.9452747e+2, 67491.69, -102458.92, 46479.38, -0.17169316, -0.25297856, 79372.65, 132993.08, 0.0007570033, 10.001259, 9.998957 
1.5152428e+3, 3.045266e+2, 37563.152, -316521.53, 36362.67, -0.029160256, -0.1236369, 41258.836, 41258.836, 0.001811775, 10.001687, 9.996978 
1.5152597e+3, 3.1452537e+2, 316687.4, 23445.92, 47523.586, 0.100324504, -0.009929193, 324196.9, 324196.9, 0.0032877466, 10.002665, 9.99884 
1.5249632e+3, 1.2452004e+2, -1905148.3, -1731456.9, -111661.86, -0.084587604, -0.15755256, -1676844.0, 42851.215, 0.017244658, 9.998305, 10.000668 
1.524977e+3, 1.345245e+2, -1712352.3, -1436953.8, -58659.84, -0.019976249, 0.0334704, -1424979.9, 196668.94, 0.010359608, 9.998368, 10.001995 
1.5249927e+3, 1.4452307e+2, -1764247.8, -1629869.5, 71596.266, 0.06987836, -0.19534214, -1598873.0, -75210.875, 0.0045741852, 9.998244, 10.000045 
1.52501e+3, 1.5452467e+2, -1531224.6, -1433880.3, 56274.09, 0.14123155, -0.10748137, -1408149.8, 17498.963, 0.0012060112, 9.999037, 10.000333 
1.5250258e+3, 1.645254e+2, -1431207.9, -1409544.8, 51323.555, 0.09248599, -0.024437254, -1367922.3, -40278.53, 0.000118081814, 9.999385, 9.999663 
1.5250406e+3, 1.7452502e+2, -1260982.4, -1254713.4, 31683.023, -0.027926568, -0.07904575, -1226010.1, 3639.1003, 0.0000008766353, 9.9998, 9.9998455 
1.5250558e+3, 1.8452522e+2, -1150928.1, -1141582.4, 43285.668, -0.086826116, -0.039084215, -1102718.1, 28929.666, 0.0, 9.999807, 9.999964 
1.5250714e+3, 1.9452587e+2, -1071165.0, -1031353.44, 19026.89, -0.113096535, -0.019944655, -1023722.7, 9917.345, 0.0, 9.999599, 10.000142 
1.5250877e+3, 2.0452577e+2, -998649.2, -980149.0, 35230.27, -0.08336554, -0.017421417, -952974.7, -17336.303, 0.0, 9.999553, 9.9998455 
1.5251048e+3, 2.1452466e+2, -859762.0, -839822.25, -3981.3684, 0.008343771, -0.16701925, -839056.7, -1411.1555, 0.0, 9.999744, 10.000038 
1.5251203e+3, 2.2452374e+2, -810081.4, -975876.25, -31709.098, -0.0041309684, -0.16211176, -804223.8, -64569.547, 0.0, 10.0003195, 9.998164 
1.5251338e+3, 2.3452288e+2, -553532.06, -790561.6, -26070.61, -0.14802894, -0.10507226, -550698.44, 90968.22, 0.0, 10.0013685, 9.998251 
1.5251487e+3, 2.4452162e+2, -422847.44, -696877.44, -10386.992, -0.14585228, -0.03627032, -422454.3, 121226.7, 0.0, 10.0016985, 9.99805 
1.5251651e+3, 2.545197e+2, -376795.97, -600908.75, -52055.863, 0.0317531, -0.08303786, -365294.9, 80404.29, 0.0000003530132, 10.001246, 9.998248 
1.5251811e+3, 2.6451778e+2, -309435.1, -573383.8, 31521.031, 0.06328271, -0.067516856, -305723.0, 41994.957, 0.000008619123, 10.001242, 9.997785 
1.525196e+3, 2.745157e+2, -128911.4, -407842.3, 40944.727, -0.09032672, -0.108588375, -123025.266, 126713.42, 0.000051931653, 10.00172, 9.998003 
1.5252112e+3, 2.845136e+2, 9676.686, -234552.98, 6853.099, -0.17026848, -0.1359914, 9868.833, 161627.28, 0.00023518385, 10.001728, 9.998539 
1.5252268e+3, 2.945112e+2, 29024.91, -154669.31, -68971.75, -0.14371124, -0.29208735, 52038.56, 105817.375, 0.000791527, 10.001095, 9.998717 
1.5252444e+3, 3.0451086e+2, 38409.6, -235738.55, 1949.5259, -0.003967959, -0.13253506, 38423.465, 38423.465, 0.0018473114, 10.001328, 9.997719 
1.5252632e+3, 3.1451002e+2, 308241.28, 57217.96, -10823.319, 0.21019039, -0.05214088, 308707.1, 308707.1, 0.0032831845, 10.002411, 9.99921 
1.5349615e+3, 1.24503955e+2, -1981887.1, -1923068.9, -109478.35, -0.18789276, -0.23896898, -1839118.4, -119270.375, 0.018294634, 9.998431, 9.999291 
1.5349758e+3, 1.3450801e+2, -1679531.8, -1372013.1, -53005.51, -0.022733621, -0.1279128, -1363133.3, 258673.06, 0.011016667, 9.998381, 10.002441 
1.5349913e+3, 1.4450718e+2, -1750072.6, -1641564.3, 69200.36, 0.056807585, -0.30797812, -1607885.5, -84071.46, 0.0048880493, 9.998409, 9.999893 
1.5350084e+3, 1.5450956e+2, -1545920.9, -1447576.4, 97827.15, 0.05342852, -0.13368191, -1387258.6, 38534.043, 0.0013030368, 9.998973, 10.000272 
1.535025e+3, 1.6451037e+2, -1421195.0, -1408341.9, 42443.19, 0.027728718, -0.036665928, -1371841.5, -44054.8, 0.00013086536, 9.9994545, 9.999643 
1.5350401e+3, 1.7450958e+2, -1269679.8, -1261558.1, 59810.895, -0.07066932, -0.1317162, -1205670.4, 24126.518, 0.0000010420176, 9.999751, 9.999822 
1.5350556e+3, 1.8450923e+2, -1161777.1, -1165849.4, 12533.417, -0.12048555, -0.13464908, -1151115.5, -19315.547, 0.0, 9.999805, 9.999801 
1.5350716e+3, 1.9450906e+2, -1091142.6, -1054111.1, 23980.213, -0.07860238, -0.18683079, -1042330.25, -8532.278, 0.0, 9.999511, 10.000031 
1.5350878e+3, 2.0450892e+2, -1064660.9, -1072824.8, 23412.916, -0.06803435, -0.16033752, -1044976.8, -109178.76, 0.0, 9.999364, 9.999297 
1.5351038e+3, 2.1450862e+2, -941509.0, -947476.5, 18817.23, -0.101827234, -0.1680014, -925440.44, -87638.44, 0.0, 9.999482, 9.999421 
1.5351199e+3, 2.2450823e+2, -812025.7, -911053.4, -11785.043, -0.10788835, -0.10592533, -810642.5, -70835.71, 0.0, 10.00002, 9.998753 
1.5351363e+3, 2.3450746e+2, -543070.44, -708981.2, 32375.322, -0.0610484, -0.10868167, -536976.6, 104838.016, 0.0, 10.001104, 9.998941 
1.5351512e+3, 2.4450603e+2, -507024.44, -794171.2, -41296.145, -0.09849637, -0.069507495, -501203.4, 42626.688, 0.0, 10.001379, 9.997529 
1.5351643e+3, 2.5450367e+2, -458603.8, -711619.5, -48615.15, -0.21286038, -0.10432017, -449584.28, -3728.4595, 0.0000004707298, 10.001005, 9.9976 
1.5351802e+3, 2.6450205e+2, -297875.72, -492964.8, 27705.092, -0.17745697, -0.05682922, -294017.53, 53854.848, 0.0000086272985, 10.0009985, 9.998452 
1.5351993e+3, 2.74501e+2, -112698.9, -318878.6, 73555.19, 0.04333595, -0.06652831, -89147.984, 160732.42, 0.000052741245, 10.001482, 9.998729 
1.5352157e+3, 2.8449905e+2, -123949.08, -450274.06, -33087.113, 0.07700984, -0.048538, -120628.07, 31271.637, 0.00024875673, 10.001455, 9.997194 
1.5352285e+3, 2.9449615e+2, -109486.836, -384410.56, -61683.953, -0.111402914, -0.11957359, -96281.27, -42349.727, 0.00082812813, 10.000846, 9.997257 
1.5352449e+3, 3.0449533e+2, 79473.75, -87868.41, 24857.271, -0.10565967, 0.017836098, 83088.02, 83088.02, 0.001892961, 10.001069, 9.998855 
1.5352641e+3, 3.1449375e+2, 261582.36, 104036.484, 91516.32, 0.0060698874, -0.11205625, 303558.8, 303558.8, 0.0033092082, 10.001819, 9.999806 
1.5449607e+3, 1.24489084e+2, -2213146.8, -2094545.5, -29697.736, -0.015341637, -0.21629348, -2087524.8, -367531.28, 0.019406972, 9.997097, 9.998756 
1.5449747e+3, 1.3449216e+2, -1521051.5, -1345781.8, -93391.08, -0.00082868926, -0.1684804, -1305347.3, 316615.97, 0.0117135905, 9.999643, 10.002027 
1.5449905e+3, 1.4449225e+2, -1552860.5, -1555294.3, 12290.232, 0.06911686, -0.22785775, -1541727.0, -17765.357, 0.0052204016, 9.999821, 9.999804 
1.5450075e+3, 1.5449354e+2, -1482218.0, -1419348.3, 12828.302, 0.053155385, -0.15770888, -1416831.4, 9117.559, 0.0014059248, 9.99941, 10.000265 
1.5450244e+3, 1.644941e+2, -1492678.5, -1439592.4, 435.60806, 0.049643934, -0.08930687, -1439588.9, -111644.08, 0.00014487762, 9.998963, 9.999655 
1.5450397e+3, 1.7449401e+2, -1420487.1, -1336075.1, -18782.303, -0.033531882, -0.11566074, -1332084.6, -102136.234, 0.000001197513, 9.998713, 9.999812 
1.5450554e+3, 1.8449365e+2, -1299561.5, -1230069.3, -6961.6187, -0.06265365, -0.118663006, -1229378.8, -97427.54, 0.0, 9.998877, 9.999796 
1.545072e+3, 1.9449277e+2, -1033296.44, -1020349.44, -18446.445, -0.008341842, -0.24237537, -1007273.56, 26681.078, 0.0, 9.99991, 10.000058 
1.545088e+3, 2.0449239e+2, -946223.25, -1036954.2, 11398.582, -0.0107419435, -0.23088937, -944813.1, -8856.171, 0.0, 10.000283, 9.9991 
1.5451033e+3, 2.144925e+2, -891058.8, -947779.2, -4503.765, -0.10092681, -0.17557706, -890703.44, -52744.38, 0.0, 9.999941, 9.999204 
1.5451197e+3, 2.2449225e+2, -810307.1, -876302.5, 35586.28, -0.098904446, -0.098435566, -794774.06, -54811.402, 0.0, 9.999914, 9.999025 
1.5451376e+3, 2.3449145e+2, -621294.0, -707145.0, 9555.804, 0.0083023, -0.13432518, -620243.2, 21726.383, 0.0, 10.000435, 9.999257 
1.5451531e+3, 2.4448995e+2, -552463.1, -825549.44, -52004.676, -0.015566654, -0.1143551, -542894.94, 1090.1515, 0.000000000009610117, 10.001077, 9.99748 
1.545166e+3, 2.5448754e+2, -337660.4, -661323.3, -50573.05, -0.18961084, -0.14762276, -329942.28, 116069.48, 0.0000005675007, 10.0018425, 9.997563 
1.5451816e+3, 2.64486e+2, -195092.05, -451232.13, 39783.344, -0.16158883, -0.08092088, -189055.22, 158972.7, 0.000008574752, 10.001763, 9.998371 
1.545201e+3, 2.7448523e+2, -233890.14, -397731.28, -12653.455, 0.0958303, -0.050679844, -232918.67, 17116.752, 0.00005426492, 10.000726, 9.998565 
1.5452175e+3, 2.8448343e+2, -196991.17, -467621.28, -37594.133, 0.15836567, -0.015341131, -191865.9, -39812.02, 0.00026286932, 10.000908, 9.997306 
1.5452309e+3, 2.9448065e+2, 154943.06, -242171.08, -4671.2803, -0.035718486, -0.084474795, 154998.0, 209082.05, 0.0008685198, 10.002628, 9.99735 
1.5452473e+3, 3.0447945e+2, 347675.38, 34478.59, 107703.33, -0.048679005, 0.009221246, 381137.66, 381137.66, 0.001959959, 10.002929, 9.99881 
1.545266e+3, 3.1447816e+2, 130315.0, -36544.094, -4952.3716, 0.05732019, -0.07280703, 130461.86, 130461.86, 0.0033945085, 10.001222, 9.999133 
1.5549587e+3, 1.2447585e+2, -2135256.3, -1966179.3, -78358.99, -0.024381302, -0.03375074, -1935449.0, -215321.25, 0.020587768, 9.997256, 9.9995575 
1.5549734e+3, 1.3447712e+2, -1612246.0, -1513985.3, -26126.54, -0.13951792, -0.05063885, -1507470.4, 114647.02, 0.012455585, 9.99957, 10.0008955 
1.5549895e+3, 1.4447832e+2, -1533863.0, -1538441.8, -34285.438, -0.06873831, 0.052898027, -1501790.6, 22314.395, 0.0055746003, 9.999905, 9.999886 
1.5550067e+3, 1.5447684e+2, -1479071.0, -1410022.9, 15659.3, -0.012508764, -0.1661725, -1406637.5, 19478.527, 0.001515748, 9.999405, 10.00033 
1.555023e+3, 1.6447683e+2, -1471057.8, -1418980.3, -28544.246, -0.008536189, -0.16084373, -1406382.4, -78266.77, 0.00016035176, 9.999059, 9.999756 
1.5550385e+3, 1.7447841e+2, -1421441.3, -1326611.8, -16649.285, -0.050218802, -0.024132514, -1323773.6, -93670.68, 0.0000013687348, 9.998665, 9.999902 
1.5550546e+3, 1.8447864e+2, -1295459.5, -1208867.3, 8292.024, -0.064272724, 0.016965335, -1208080.4, -75980.695, 0.0, 9.998827, 9.999963 
1.5550718e+3, 1.9447704e+2, -1052105.0, -1015811.94, 36973.504, -0.04476359, -0.19102482, -992771.9, 41337.574, 0.0, 9.999736, 10.000169 
1.5550882e+3, 2.0447622e+2, -960980.9, -1036289.8, -17966.275, -0.06750774, -0.22977413, -956914.3, -20799.352, 0.0, 10.000131, 9.999188 
1.5551032e+3, 2.144763e+2, -912195.8, -946528.6, 41.036015, -0.123512395, -0.18690933, -912195.75, -74079.5, 0.0, 9.999731, 9.999322 
1.5551196e+3, 2.2447594e+2, -858709.3, -915893.56, 35586.348, -0.13772905, -0.123441294, -841651.7, -101530.86, 0.0, 9.999651, 9.99888 
1.5551375e+3, 2.3447475e+2, -670130.5, -759459.7, 46125.406, -0.081248894, -0.18007442, -650588.56, -8456.21, 0.0, 10.000214, 9.999011 
1.5551539e+3, 2.4447328e+2, -558914.56, -773481.56, -37558.133, -0.0641564, -0.16825794, -552530.25, -8383.209, 0.0, 10.000793, 9.997974 
1.5551692e+3, 2.544713e+2, -333494.38, -596816.1, -3324.3533, -0.062420886, -0.21089008, -333452.4, 112714.5, 0.0000005355393, 10.0016, 9.998124 
1.5551847e+3, 2.644697e+2, -295302.97, -599139.5, -8919.462, -0.059790153, -0.14196797, -295041.38, 53143.785, 0.000008556659, 10.001507, 9.997474 
1.5552004e+3, 2.744684e+2, -339179.44, -559145.75, -24728.684, -0.05567769, -0.071259275, -336433.72, -86230.83, 0.000056489618, 10.000484, 9.997566 
1.5552166e+3, 2.8446674e+2, -150548.7, -305918.56, 8306.848, -0.06609769, -0.02777568, -150105.84, 2114.2466, 0.00027893353, 10.000632, 9.998546 
1.5552334e+3, 2.9446456e+2, 207826.72, -52398.516, 83867.77, -0.08851709, -0.17754023, 232514.28, 286751.97, 0.0009153457, 10.002296, 9.998807 
1.5552509e+3, 3.044631e+2, 206387.47, -176787.97, 33254.03, -0.016314281, -0.13385141, 209252.02, 209252.02, 0.0020538478, 10.002593, 9.99751 
1.5552677e+3, 3.1446278e+2, -84720.68, -341540.4, -21920.91, 0.047931455, 0.02286909, -82863.055, -82863.055, 0.003548839, 10.000654, 9.997293 
1.5649574e+3, 1.2446139e+2, -1947436.0, -1832002.3, -37758.68, 0.07898881, 0.060583007, -1820748.4, -100479.164, 0.021849003, 9.998361, 9.999959 
1.5649734e+3, 1.3446082e+2, -1823901.0, -1701208.3, -23680.445, -0.017820992, -0.051380813, -1696796.4, -74518.516, 0.013250772, 9.9984865, 10.000136 
1.564989e+3, 1.4446147e+2, -1684004.9, -1610560.1, 1440.5795, -0.04866467, 0.02824088, -1610531.9, -86260.28, 0.0059556314, 9.998879, 9.999878 
1.5650061e+3, 1.5446055e+2, -1444732.3, -1404216.6, -4276.614, -0.009659325, -0.12665693, -1403770.1, 22507.365, 0.0016345053, 9.999689, 10.000224 
1.5650225e+3, 1.6446055e+2, -1354883.1, -1364094.0, -34312.914, -0.007477104, -0.115388796, -1324868.0, 3408.4136, 0.00017771397, 9.999846, 9.999766 
1.5650384e+3, 1.7446142e+2, -1251215.5, -1241887.5, -54216.227, 0.033105973, -0.052317224, -1192135.0, 38134.184, 0.0000016137079, 9.999795, 9.999951 
1.565055e+3, 1.8446158e+2, -1177407.9, -1136699.5, 23562.496, 0.048161767, -0.028426481, -1125917.1, 6349.0327, 0.0, 9.999561, 10.000107 
1.5650715e+3, 1.9446073e+2, -1098469.5, -1025781.06, 20971.932, -0.017175863, -0.1790889, -1020164.3, 14105.242, 0.0, 9.999335, 10.000303 
1.5650877e+3, 2.0446028e+2, -1057559.1, -1055368.4, 171.61728, -0.06758373, -0.19822495, -1055355.1, -119083.47, 0.0, 9.999406, 9.999379 
1.5651035e+3, 2.144603e+2, -821220.3, -869563.5, -15639.279, -0.0944494, -0.18181907, -816602.06, 21670.123, 0.0, 10.000274, 9.99956 
1.5651199e+3, 2.244598e+2, -727805.1, -867892.0, 53381.36, -0.09258729, -0.13857016, -709782.4, 30495.473, 0.0, 10.000584, 9.998779 
1.5651378e+3, 2.3445852e+2, -679460.9, -767269.25, 44554.81, -0.055288516, -0.19673319, -660813.44, -18522.537, 0.0, 10.0001545, 9.998984 
1.5651548e+3, 2.444573e+2, -597066.1, -739909.7, 24533.363, -0.020905538, -0.1807619, -592970.0, -48667.133, 0.0, 10.000294, 9.998449 
1.5651712e+3, 2.5445595e+2, -367770.0, -554015.75, 23434.682, 0.011359026, -0.2111125, -364866.56, 81449.086, 0.00000039469393, 10.001109, 9.998648 
1.5651868e+3, 2.6445442e+2, -285009.7, -597034.8, 27357.643, 0.00058206747, -0.16030963, -282629.2, 65703.234, 0.000008163994, 10.001582, 9.997456 
1.565201e+3, 2.7445257e+2, -186260.97, -490606.97, 32655.064, -0.07358665, -0.13827653, -182796.64, 67558.99, 0.000058543963, 10.001552, 9.997525 
1.5652172e+3, 2.84451e+2, -39257.055, -261154.72, 140998.48, -0.09228181, -0.07789922, 29210.438, 181583.02, 0.00029613846, 10.001428, 9.998493 
1.5652356e+3, 2.9444972e+2, 59320.31, -130376.195, 69454.89, -0.03687716, -0.12769036, 82031.29, 136414.64, 0.00096601876, 10.001288, 9.998776 
1.5652536e+3, 3.0444765e+2, 89155.05, -204221.6, 18358.666, 0.059744783, -0.15036318, 90299.42, 90299.42, 0.002166349, 10.00164, 9.997781 
1.5652698e+3, 3.144477e+2, 186992.73, -187571.8, 2721.626, 0.124886625, 0.01688571, 187012.5, 187012.5, 0.0037553748, 10.002362, 9.997549 
1.5749545e+3, 1.24444045e+2, -1923004.6, -1810471.0, -27790.121, -0.11646269, -0.08217108, -1803982.4, -83548.42, 0.023204513, 9.9984665, 10.000063 
1.5749744e+3, 1.3444357e+2, -1843172.0, -1741498.6, -1898.0519, 0.19279397, -0.13838606, -1741463.1, -119021.97, 0.014108494, 9.998492, 9.999851 
1.5749885e+3, 1.4444196e+2, -1662791.4, -1604391.0, 9089.737, -0.037034918, -0.28214073, -1603009.0, -78550.125, 0.0063687824, 9.999036, 9.99985 
1.5750055e+3, 1.5444466e+2, -1477550.1, -1461387.1, 34625.266, -0.064223684, -0.03533416, -1433912.8, -7479.0874, 0.00176415, 9.99965, 9.999851 
1.5750217e+3, 1.6444528e+2, -1342929.4, -1353047.5, -59076.695, -0.10759611, 0.054304235, -1288695.5, 39732.047, 0.00019721544, 9.999896, 9.99982 
1.5750389e+3, 1.7444316e+2, -1250986.4, -1232962.5, -39505.863, 0.07049106, -0.19446905, -1201453.8, 28992.658, 0.0000019795527, 9.999758, 10.00003 
1.5750556e+3, 1.844427e+2, -1160150.5, -1105853.4, -3100.8828, 0.1141028, -0.24602507, -1105676.8, 26771.936, 0.0, 9.999571, 10.000318 
1.5750706e+3, 1.9444413e+2, -1107242.8, -1009465.25, 25644.21, -0.06616608, -0.18604225, -1003147.7, 31284.748, 0.0, 9.999187, 10.000487 
1.5750864e+3, 2.0444477e+2, -1068762.5, -1042962.8, 9392.326, -0.17583488, -0.11680067, -1039905.8, -103480.99, 0.0, 9.99924, 9.999548 
1.5751034e+3, 2.1444425e+2, -847099.9, -871244.1, 29927.91, -0.15724087, -0.16757971, -826901.0, 11528.299, 0.0, 10.000045, 9.999664 
1.5751205e+3, 2.244436e+2, -753230.25, -862769.1, 24904.893, -0.121873185, -0.15133402, -747833.7, -7397.9785, 0.0, 10.000336, 9.998931 
1.5751381e+3, 2.3444267e+2, -708665.9, -768289.7, 42723.484, -0.056512132, -0.1893346, -686381.25, -43935.258, 0.0, 9.999899, 9.999101 
1.5751551e+3, 2.4444196e+2, -612051.25, -699744.4, 34956.594, -0.04335019, -0.1494495, -599822.06, -55368.734, 0.0, 9.999987, 9.99887 
1.5751715e+3, 2.5444135e+2, -377000.56, -514261.28, 69857.28, -0.0884442, -0.15333876, -347701.53, 98757.33, 0.00000029448665, 10.000854, 9.999042 
1.5751874e+3, 2.6444012e+2, -276789.84, -517473.53, 8716.601, -0.1119872, -0.12788817, -276474.56, 71996.37, 0.000007127328, 10.001312, 9.998136 
1.5752025e+3, 2.7443767e+2, -165668.78, -395806.88, 49536.02, -0.114828765, -0.23735672, -155459.33, 95035.69, 0.000059012113, 10.001331, 9.998283 
1.5752189e+3, 2.8443617e+2, -163561.86, -475236.53, 115026.35, -0.10068824, -0.15078934, -125707.84, 26805.15, 0.00030982727, 10.001229, 9.99712 
1.575237e+3, 2.94436e+2, -91316.34, -373785.94, 93459.63, -0.05084746, 0.05877443, -63193.617, -8672.305, 0.0010139579, 10.000988, 9.997249 
1.575255e+3, 3.0443317e+2, 153664.23, 13348.993, 30363.797, 0.00031433316, -0.03577614, 159953.02, 159953.02, 0.002282176, 10.001309, 9.999415 
1.5752713e+3, 3.1443274e+2, 249205.42, 96446.63, 82177.6, -0.021626858, -0.1082218, 285017.7, 285017.7, 0.0039773253, 10.001742, 9.999773 
1.5849523e+3, 1.2442507e+2, -1964717.0, -1813095.5, -33271.918, -0.16058996, -0.21925831, -1806115.6, -85498.02, 0.024665277, 9.998108, 10.000198 
1.5849726e+3, 1.3442665e+2, -1822267.4, -1686074.1, -55338.832, 0.1708293, -0.10858327, -1666423.8, -43818.77, 0.0150364665, 9.998431, 10.000254 
1.584988e+3, 1.4442483e+2, -1683808.1, -1586178.1, 16253.421, 0.025716819, -0.31359473, -1583543.4, -58918.152, 0.0068181083, 9.998757, 10.000114 
1.5850051e+3, 1.5442765e+2, -1607176.6, -1508811.0, 35525.867, -0.0082140155, -0.0693303, -1497322.3, -70722.71, 0.0019058621, 9.998669, 10.000008 
1.5850212e+3, 1.6442844e+2, -1520145.6, -1408774.5, 1519.7998, -0.074652754, 0.019150976, -1408753.8, -80162.06, 0.0002187055, 9.998573, 10.000065 
1.5850382e+3, 1.7442659e+2, -1342336.9, -1242251.0, -7214.8896, 0.06838484, -0.22904667, -1241733.6, -11126.684, 0.000002466339, 9.999006, 10.0003195 
1.585055e+3, 1.8442641e+2, -1223597.0, -1162447.0, 47155.58, 0.12621441, -0.25814447, -1136821.6, -4214.4937, 0.0, 9.999256, 10.000079 
1.5850703e+3, 1.9442804e+2, -1054899.0, -1011991.7, 8472.431, -0.027537856, -0.15048324, -1010379.3, 24211.59, 0.0, 9.999665, 10.000236 
1.5850863e+3, 2.0442846e+2, -970336.0, -1013069.9, 21911.469, -0.12960675, -0.08179169, -961098.06, -24512.236, 0.0, 9.999957, 9.999423 
1.5851036e+3, 2.1442729e+2, -816738.7, -870085.4, -2530.051, -0.13363351, -0.1904326, -816619.0, 21976.969, 0.0, 10.000265, 9.999579 
1.5851212e+3, 2.2442657e+2, -738147.7, -823826.2, -7667.488, -0.091392264, -0.19065398, -737466.94, 3135.529, 0.0, 10.000338, 9.999193 
1.5851387e+3, 2.3442632e+2, -615847.06, -698587.25, -18258.791, -0.009023823, -0.1792698, -611996.94, 30608.8, 0.0, 10.000424, 9.999343 
1.5851557e+3, 2.4442601e+2, -522422.94, -626107.8, 26288.164, 0.0055796835, -0.12210804, -516138.75, 28470.453, 0.0, 10.000486, 9.999128 
1.5851723e+3, 2.5442562e+2, -398811.53, -500625.66, 9479.573, -0.07984763, -0.12513798, -397936.44, 48676.51, 0.00000023115544, 10.000601, 9.999263 
1.5851885e+3, 2.6442447e+2, -315127.5, -503045.94, -39061.355, -0.10483919, -0.11267407, -307331.5, 41292.11, 0.0000061293663, 10.000919, 9.998413 
1.5852045e+3, 2.7442205e+2, -90756.39, -323920.4, -71931.266, -0.06339679, -0.24673378, -70351.27, 180294.75, 0.000060026516, 10.001712, 9.998578 
1.5852211e+3, 2.844206e+2, -42916.39, -432348.9, 28682.684, -0.029448178, -0.1589646, -40815.176, 111847.37, 0.0003212461, 10.002131, 9.996965 
1.5852389e+3, 2.9442048e+2, 49510.836, -325533.66, 51025.582, -0.0045536794, 0.07076514, 56329.02, 111000.66, 0.0010570007, 10.002028, 9.997071 
1.5852565e+3, 3.0441704e+2, 246200.1, 15372.718, 36797.61, -0.0000740539, -0.060934708, 251924.28, 251924.28, 0.0023874303, 10.0020895, 9.999082 
1.5852734e+3, 3.1441593e+2, 317207.5, 156337.66, -145845.23, 0.012855928, -0.15640642, 403327.7, 403327.7, 0.0041719265, 10.002062, 10.000057 
1.594953e+3, 1.24405295e+2, -1939678.1, -1820752.9, -15857.488, -0.0055938307, -0.3121968, -1818674.8, -97862.52, 0.026239868, 9.998324, 10.000059 
1.5949677e+3, 1.3441026e+2, -1759839.5, -1560111.1, -8149.574, -0.19231094, 0.036790296, -1559779.3, 62988.1, 0.016040104, 9.998446, 10.001114 
1.5949865e+3, 1.444099e+2, -1621396.6, -1500699.4, -5740.6484, -0.056352098, -0.081792764, -1500427.0, 24345.232, 0.0073062, 9.998928, 10.000627 
1.5950043e+3, 1.5440978e+2, -1550693.3, -1402826.1, 44386.01, 0.0065997443, -0.20754398, -1390525.8, 36246.477, 0.002060233, 9.998707, 10.000721 
1.5950203e+3, 1.6441044e+2, -1479449.9, -1347613.0, -7977.975, -0.06717519, -0.18539713, -1347132.0, -18367.604, 0.00024185247, 9.998665, 10.000443 
1.595036e+3, 1.7441186e+2, -1326668.1, -1201793.4, 22402.754, -0.09365147, -0.14075217, -1197896.0, 32853.516, 0.0000030340082, 9.998969, 10.000616 
1.5950526e+3, 1.8441261e+2, -1268376.1, -1255710.6, 42810.227, -0.07483586, -0.0625182, -1218767.3, -86025.26, 0.0, 9.999253, 9.99944 
1.59507e+3, 1.9441241e+2, -1127100.1, -1126038.9, 39831.813, -0.044130847, -0.069198005, -1086734.1, -51988.984, 0.0, 9.999521, 9.999518 
1.5950872e+3, 2.0441158e+2, -1015289.4, -1068755.4, 16955.082, -0.083313465, -0.07527512, -1010365.94, -73612.875, 0.0, 9.999795, 9.999116 
1.5951039e+3, 2.1440971e+2, -879362.5, -931158.2, 24019.05, -0.16292696, -0.2263134, -869938.75, -31169.549, 0.0, 9.999976, 9.999296 
1.595121e+3, 2.2440898e+2, -757388.9, -804962.25, -20610.0, -0.15870547, -0.22615218, -749702.1, -8927.009, 0.0, 10.00007, 9.999454 
1.5951389e+3, 2.3440954e+2, -634695.25, -679522.25, 6345.618, -0.049512014, -0.16652304, -633814.3, 8955.094, 0.0, 10.000167, 9.999599 
1.5951562e+3, 2.444096e+2, -565655.75, -649198.8, 17869.62, -0.033485167, -0.084382564, -561994.0, -17225.12, 0.0, 10.000204, 9.999099 
1.5951727e+3, 2.544088e+2, -442788.6, -519895.28, 30770.828, -0.11019943, -0.12679915, -432014.4, 14762.794, 0.00000009760233, 10.000309, 9.999258 
1.5951896e+3, 2.644076e+2, -368673.56, -557212.4, -26773.535, -0.12681378, -0.11045162, -364945.3, -16155.733, 0.0000054247644, 10.000663, 9.998167 
1.5952064e+3, 2.7440578e+2, -150471.13, -386324.94, -19362.635, -0.067314036, -0.16386136, -148892.1, 101915.42, 0.0000627863, 10.001435, 9.998284 
1.5952234e+3, 2.844044e+2, -31291.45, -325002.6, 7580.176, -0.045737516, -0.10108991, -31095.95, 121725.95, 0.0003316825, 10.001784, 9.997866 
1.5952405e+3, 2.9440296e+2, 71515.13, -200923.8, 73291.5, -0.07380179, -0.099377096, 89980.47, 144817.48, 0.0010854213, 10.001699, 9.998085 
1.5952575e+3, 3.0439916e+2, 36336.105, -334201.47, 17052.758, -0.122931294, -0.209675, 37119.246, 37119.246, 0.0024525027, 10.0017395, 9.9968405 
1.5952751e+3, 3.1439766e+2, 115323.62, -117330.76, -89119.086, -0.08305707, -0.10916015, 145537.3, 145537.3, 0.0042836345, 10.00147, 9.998447 
1.6049516e+3, 1.2438793e+2, -2028057.0, -1806620.6, 74927.35, 0.10984418, -0.26947322, -1783650.3, -62666.023, 0.027939666, 9.997512, 10.000555 
1.6049656e+3, 1.3439254e+2, -1767470.4, -1512140.1, 32442.834, -0.20411868, 0.0043209065, -1508082.4, 114858.01, 0.01712635, 9.9982, 10.001567 
1.6049854e+3, 1.4439303e+2, -1739913.8, -1544184.3, 28244.834, 0.015060495, -0.05268175, -1540189.9, -15253.37, 0.007836914, 9.998094, 10.00071 
1.6050027e+3, 1.5439285e+2, -1589546.1, -1396844.6, -11154.161, 0.00448104, -0.20123592, -1396201.1, 30736.994, 0.0022287087, 9.998359, 10.000915 
1.605019e+3, 1.6439372e+2, -1494225.8, -1338307.4, -41627.195, -0.050717592, -0.17848043, -1327889.8, 1039.1649, 0.00026665046, 9.998508, 10.000571 
1.6050349e+3, 1.743956e+2, -1298172.9, -1169867.1, -59345.535, -0.08501376, -0.0993026, -1146627.3, 84281.58, 0.0000036433328, 9.999099, 10.000764 
1.605052e+3, 1.843963e+2, -1245169.0, -1266873.0, -1169.8191, -0.06363231, -0.0235048, -1245106.3, -112204.695, 0.0, 9.9995, 9.999245 
1.60507e+3, 1.9439527e+2, -1066564.9, -1118317.5, -1250.4249, -0.020055017, -0.096259646, -1066534.8, -31622.105, 0.0, 10.000004, 9.999344 
1.6050875e+3, 2.0439413e+2, -985082.44, -1049957.5, 22265.498, -0.014053269, -0.12410259, -978176.0, -41252.617, 0.0, 10.0, 9.9991455 
1.6051047e+3, 2.143928e+2, -929779.5, -943851.0, 14687.549, -0.050480444, -0.22540237, -920529.5, -81595.21, 0.0, 9.999602, 9.999381 
1.6051218e+3, 2.2439207e+2, -814816.06, -845972.44, 25628.25, -0.066501945, -0.22182779, -800402.8, -59463.176, 0.0, 9.999724, 9.999335 
1.6051391e+3, 2.343921e+2, -574137.75, -650180.44, -9843.072, -0.06847352, -0.20804408, -572884.3, 70053.99, 0.0, 10.000597, 9.99957 
1.6051562e+3, 2.443918e+2, -483308.0, -639156.1, -10413.637, -0.069333926, -0.1492612, -482615.25, 62326.035, 0.0, 10.000904, 9.9988365 
1.6051736e+3, 2.543908e+2, -420176.22, -540474.6, -49356.66, -0.05088428, -0.17804356, -402517.94, 44434.664, 0.000000007673713, 10.000593, 9.998985 
1.6051911e+3, 2.643897e+2, -355029.6, -517864.06, -39509.82, -0.03192152, -0.1521627, -345949.34, 3015.0952, 0.0000049768487, 10.000607, 9.998474 
1.605208e+3, 2.7438852e+2, -194336.38, -375149.7, -39542.277, -0.02135127, -0.1662176, -186067.02, 64908.863, 0.00006482946, 10.000979, 9.998603 
1.605225e+3, 2.843871e+2, -70283.55, -340025.2, 17107.564, -0.020974018, -0.12238941, -69202.88, 83786.96, 0.00033743004, 10.001448, 9.997951 
1.6052426e+3, 2.94385e+2, 136759.6, -158676.77, -28097.725, -0.042042423, -0.19572134, 139408.11, 194419.03, 0.0010902435, 10.002079, 9.998205 
1.6052598e+3, 3.0438182e+2, 104419.5, -317620.94, -20666.531, -0.08921412, -0.24775799, 105429.086, 105429.086, 0.0024557933, 10.00228, 9.99669 
1.6052777e+3, 3.143802e+2, 186463.36, -64820.766, -56521.223, 0.03819168, -0.13362041, 198591.31, 198591.31, 0.004283157, 10.001844, 9.998639 
1.6149464e+3, 1.24373294e+2, -1908505.3, -1644287.9, -86872.195, -0.26383576, -0.062343664, -1618284.3, 102846.05, 0.02978273, 9.997842, 10.001544 
1.6149662e+3, 1.3437387e+2, -1756834.8, -1502092.3, 49062.297, 0.0005574348, -0.18879025, -1492969.8, 130150.8, 0.018308382, 9.998243, 10.001624 
1.6149844e+3, 1.4437473e+2, -1748788.1, -1590019.1, 16055.658, 0.04070474, -0.19258414, -1588411.8, -63299.035, 0.008418617, 9.998201, 10.000348 
1.6149999e+3, 1.5437694e+2, -1619242.6, -1463104.8, 16362.708, -0.15842544, -0.057017054, -1461408.5, -34311.516, 0.0024150687, 9.998378, 10.000453 
1.6150166e+3, 1.6437812e+2, -1478483.8, -1345454.9, -44026.184, -0.19573821, 0.029039448, -1332204.3, -3117.7903, 0.0002938315, 9.998663, 10.000451 
1.615035e+3, 1.7437787e+2, -1305433.0, -1187287.5, -24870.86, -0.037791543, -0.09905905, -1182265.5, 48818.94, 0.000004294035, 9.999091, 10.000654 
1.6150525e+3, 1.8437746e+2, -1228249.0, -1229136.1, -706.02106, -0.0014049477, -0.13988987, -1227858.8, -94773.29, 0.0, 9.999491, 9.999506 
1.6150695e+3, 1.9437665e+2, -1063430.5, -1087561.5, 32449.125, -0.0902458, -0.22121961, -1040876.3, -5783.471, 0.0, 9.999898, 9.999607 
1.6150872e+3, 2.0437627e+2, -990321.44, -1016197.56, -11833.522, -0.08209978, -0.20227309, -985725.94, -48630.348, 0.0, 9.999809, 9.999467 
1.6151057e+3, 2.143764e+2, -942733.0, -918815.8, 13811.403, 0.06999707, -0.18795395, -912505.25, -73412.766, 0.0, 9.999382, 9.999659 
1.6151229e+3, 2.2437578e+2, -890663.56, -930203.56, 37725.08, 0.041142866, -0.16945444, -867842.1, -126745.22, 0.0, 9.999421, 9.9988985 
1.6151385e+3, 2.3437397e+2, -651174.06, -740711.7, 41527.766, -0.2115474, -0.29233572, -634878.94, 8233.864, 0.0, 10.000311, 9.999082 
1.6151555e+3, 2.4437256e+2, -556398.5, -736185.8, -37546.586, -0.26509434, -0.29366475, -548872.4, -3745.5278, 0.0, 10.000652, 9.998296 
1.6151746e+3, 2.5437158e+2, -494850.3, -638936.2, -38678.38, -0.04900226, -0.27570468, -485124.03, -37984.992, 0.00000000987263, 10.000341, 9.998432 
1.6151924e+3, 2.6437083e+2, -355265.6, -445777.28, -44205.887, 0.017211111, -0.21685332, -337258.06, 11889.2705, 0.000004852571, 10.000304, 9.999105 
1.6152085e+3, 2.7437e+2, -179534.17, -284881.72, -2414.3076, -0.08896915, -0.2691753, -179478.88, 71674.48, 0.00006465758, 10.000739, 9.999327 
1.6152258e+3, 2.8436875e+2, -163014.11, -468113.72, 19180.87, -0.12839997, -0.21381822, -161812.98, -8646.103, 0.0003366383, 10.00117, 9.997206 
1.6152446e+3, 2.943668e+2, 31959.615, -300813.53, 22851.71, -0.09287102, -0.19501893, 33521.523, 88711.89, 0.0010768002, 10.001747, 9.997392 
1.6152622e+3, 3.0436465e+2, 157859.16, -109089.516, -55746.938, -0.094292164, -0.17849895, 169033.1, 169033.1, 0.0024103601, 10.001891, 9.998287 
1.6152802e+3, 3.143635e+2, 217397.05, 162782.14, -2289.0808, 0.031963892, -0.20209725, 217492.83, 217492.83, 0.0041886293, 10.001205, 10.000479 
1.6249442e+3, 1.2435666e+2, -1928845.0, -1626944.1, -62379.254, -0.23595984, -0.023795437, -1614563.0, 106729.9, 0.03179242, 9.997593, 10.001748 
1.6249652e+3, 1.343561e+2, -1816622.4, -1556657.8, -6622.0884, 0.09696635, -0.25596535, -1556489.1, 66805.27, 0.019603958, 9.997922, 10.001387 
1.624982e+3, 1.443575e+2, -1854637.4, -1634863.5, 16190.341, 0.038151715, -0.19420618, -1633677.1, -108396.13, 0.009062119, 9.997474, 10.000378 
1.6249985e+3, 1.5435997e+2, -1644529.1, -1461237.8, 29610.824, -0.12169721, -0.041298095, -1456572.9, -29310.406, 0.002624408, 9.99816, 10.00056 
1.6250159e+3, 1.6436087e+2, -1488325.8, -1378454.6, 24850.467, -0.121599406, 0.02259001, -1373095.4, -43840.92, 0.00032476612, 9.99872, 10.000202 
1.6250347e+3, 1.743598e+2, -1294636.4, -1204356.0, -5680.5303, 0.029780583, -0.16257334, -1204000.0, 27259.879, 0.000005034694, 9.999272, 10.000444 
1.6250525e+3, 1.8435918e+2, -1227577.4, -1218178.6, 35332.133, 0.0576165, -0.21796979, -1187234.8, -53971.64, 0.0, 9.999452, 9.999607 
1.6250695e+3, 1.9435899e+2, -1110170.0, -1083296.6, 24462.193, -0.06732782, -0.24991383, -1068823.8, -33559.36, 0.0, 9.999492, 9.999825 
1.6250871e+3, 2.0435911e+2, -998674.9, -1017156.7, -7567.503, -0.05221812, -0.19578458, -995971.7, -58709.223, 0.0, 9.999722, 9.99951 
1.625106e+3, 2.143594e+2, -811113.1, -854666.1, -32544.703, 0.14065816, -0.16894639, -793731.3, 45527.16, 0.0, 10.000259, 9.999687 
1.6251235e+3, 2.243587e+2, -739313.3, -878841.2, 32946.46, 0.12856768, -0.15085451, -731924.94, 9339.21, 0.0, 10.000542, 9.9987135 
1.6251393e+3, 2.3435652e+2, -637105.44, -760778.44, 20251.227, -0.15991686, -0.28770062, -633873.75, 9410.224, 0.0, 10.000505, 9.998858 
1.6251566e+3, 2.4435487e+2, -557894.0, -730342.75, -11679.05, -0.2182817, -0.30298147, -557106.6, -11806.527, 0.0, 10.000612, 9.998355 
1.6251755e+3, 2.5435382e+2, -395920.44, -583740.3, -11780.197, -0.0040096655, -0.29716653, -395184.44, 52127.566, 0.000000011745934, 10.000978, 9.998507 
1.6251935e+3, 2.64353e+2, -244124.38, -437902.34, 18217.992, 0.060621016, -0.22777231, -242426.5, 106894.92, 0.0000048598445, 10.001268, 9.998699 
1.6252099e+3, 2.7435213e+2, -100067.93, -298213.8, -63386.246, -0.048734535, -0.23723936, -81525.98, 169804.69, 0.00006306325, 10.001501, 9.998868 
1.6252276e+3, 2.843509e+2, -87385.29, -388120.75, -14235.215, -0.07561866, -0.17208973, -86712.98, 66631.586, 0.00033149842, 10.001525, 9.997569 
1.6252466e+3, 2.9434913e+2, 2812.9204, -271668.7, 13902.137, -0.029550571, -0.17276692, 3515.2485, 58879.973, 0.0010554205, 10.001371, 9.997764 
1.6252643e+3, 3.0434746e+2, 139480.4, -81134.266, -16296.827, -0.050970264, -0.14537135, 140677.77, 140677.77, 0.0023409713, 10.001578, 9.998647 
1.6252822e+3, 3.1434622e+2, 358785.88, 220966.66, -132853.1, 0.08313981, -0.20115404, 439537.5, 439537.5, 0.0040352517, 10.002157, 10.000457 
1.6349438e+3, 1.2433765e+2, -1930195.1, -1657308.3, 33677.04, -0.1388854, -0.21494156, -1653213.6, 68261.766, 0.03398967, 9.997721, 10.001465 
1.6349615e+3, 1.343391e+2, -1855257.1, -1640473.5, -8271.796, -0.0930337, -0.20256875, -1640155.4, -16692.51, 0.02102759, 9.997948, 10.000788 
1.6349782e+3, 1.4434126e+2, -1791478.8, -1552313.5, 260.45325, -0.1558145, -0.052164532, -1552313.3, -26870.832, 0.009775217, 9.997658, 10.000869 
1.6349977e+3, 1.5434209e+2, -1595499.9, -1367724.9, 66933.266, -0.043323096, -0.12955853, -1349512.4, 77921.19, 0.002860367, 9.998185, 10.001198 
1.6350162e+3, 1.6434208e+2, -1498687.1, -1417020.0, 24310.592, -0.0001912558, -0.18008964, -1410331.0, -80899.164, 0.00036087315, 9.998786, 9.999908 
1.6350338e+3, 1.743413e+2, -1329471.1, -1271475.9, 24989.59, -0.013746112, -0.2898232, -1262193.8, -30757.193, 0.000005927034, 9.9992485, 9.999996 
1.6350514e+3, 1.8434134e+2, -1221047.4, -1209684.0, 16351.769, -0.041028503, -0.2588806, -1198054.9, -64619.7, 0.0, 9.99947, 9.99966 
1.635069e+3, 1.9434217e+2, -1120039.4, -1080869.3, 39729.227, -0.08650898, -0.19878592, -1056160.0, -20731.334, 0.0, 9.999389, 9.999896 
1.635087e+3, 2.043424e+2, -1037937.25, -1056821.1, -5392.528, -0.072326474, -0.1274165, -1036505.8, -99078.96, 0.0, 9.999539, 9.999329 
1.6351055e+3, 2.1434167e+2, -856426.3, -900897.56, 6148.5044, 0.030744068, -0.18233708, -855591.9, -16158.527, 0.0, 10.000046, 9.999478 
1.6351233e+3, 2.243408e+2, -791671.25, -911550.3, 17713.78, 0.033114348, -0.16465792, -789108.6, -47667.086, 0.0, 10.00022, 9.998639 
1.635141e+3, 2.3433968e+2, -680306.44, -785061.25, 35974.863, -0.05838781, -0.19514689, -669141.9, -25689.537, 0.0, 10.00023, 9.998819 
1.6351587e+3, 2.443386e+2, -568525.44, -677084.7, -17224.79, -0.09027029, -0.17736298, -565858.0, -20395.697, 0.0, 10.000296, 9.998868 
1.6351762e+3, 2.543374e+2, -386849.47, -511312.4, 20521.191, -0.05623849, -0.24258366, -383553.28, 63919.46, 0.000000006263202, 10.000764, 9.999102 
1.635194e+3, 2.643363e+2, -374508.06, -665487.0, 9109.379, -0.051006604, -0.1666678, -374223.2, -24736.955, 0.000005059976, 10.001063, 9.997241 
1.6352117e+3, 2.74335e+2, -244953.38, -545109.06, -25181.713, -0.054683283, -0.06900474, -242855.4, 8650.64, 0.000060994436, 10.001253, 9.997295 
1.6352297e+3, 2.843335e+2, -54653.883, -239724.45, -34767.574, -0.0522279, -0.002264903, -48337.95, 105184.914, 0.0003219481, 10.001199, 9.998735 
1.6352484e+3, 2.9433167e+2, 47417.004, -99412.086, 37909.2, -0.03927981, -0.14060044, 56626.93, 112163.07, 0.0010251604, 10.001054, 9.99909 
1.6352652e+3, 3.0433002e+2, 25369.012, -231068.25, -17747.55, -0.14026824, -0.13856713, 26591.46, 26591.46, 0.0022563916, 10.001211, 9.997791 
1.6352834e+3, 3.1432828e+2, 162307.64, -41468.117, -31597.277, -0.08150928, -0.1577734, 167094.63, 167094.63, 0.003853191, 10.001546, 9.998935 
1.6449417e+3, 1.2432001e+2, -2023999.8, -1702201.4, 89290.336, -0.06894814, -0.27181283, -1679086.3, 42560.19, 0.036383986, 9.997113, 10.001449 
1.6449586e+3, 1.3432197e+2, -1938864.3, -1723026.0, -15740.216, -0.14977653, -0.16785188, -1721884.3, -98253.21, 0.022584815, 9.997563, 10.000415 
1.6449761e+3, 1.4432392e+2, -1734637.5, -1505829.0, 43421.35, -0.12940085, -0.028949657, -1497866.0, 27746.77, 0.010560797, 9.997957, 10.001052 
1.6449967e+3, 1.5432426e+2, -1531922.0, -1313109.0, 46011.496, 0.030871833, -0.17718789, -1303827.5, 123778.29, 0.0031241647, 9.998507, 10.001421 
1.6450156e+3, 1.6432425e+2, -1515001.4, -1424265.4, 23491.953, 0.07948963, -0.24226163, -1418543.9, -88940.59, 0.0004029895, 9.998685, 9.999905 
1.6450328e+3, 1.7432402e+2, -1398293.4, -1312663.9, 17860.344, -0.0031290618, -0.29164067, -1309088.0, -77483.61, 0.0000070009137, 9.998812, 9.999931 
1.6450505e+3, 1.843242e+2, -1307930.1, -1264515.1, 44756.426, -0.03296064, -0.23397668, -1236479.8, -102877.04, 0.0, 9.998941, 9.999522 
1.6450688e+3, 1.943247e+2, -1135218.1, -1104495.1, 13889.269, -0.024725918, -0.19258961, -1099147.0, -63547.07, 0.0, 9.999365, 9.99973 
1.6450872e+3, 2.0432469e+2, -1014226.4, -1059503.9, 6719.6416, -0.005274611, -0.13146245, -1013250.2, -75648.75, 0.0, 9.999772, 9.999187 
1.6451053e+3, 2.1432388e+2, -832543.4, -895985.9, -12331.972, 0.0129114725, -0.18409833, -830230.56, 9378.623, 0.0, 10.000261, 9.999388 
1.6451235e+3, 2.2432312e+2, -738210.6, -867536.8, 26784.96, 0.020226156, -0.16016445, -732882.6, 8733.4795, 0.0, 10.000497, 9.998823 
1.645142e+3, 2.3432223e+2, -642011.2, -746824.5, 28610.904, 0.020391902, -0.18325493, -634709.9, 8913.566, 0.0, 10.0004, 9.999016 
1.6451603e+3, 2.443213e+2, -512761.25, -683796.5, 23261.049, 0.023334626, -0.14717588, -509654.16, 35978.18, 0.0, 10.000825, 9.998565 
1.645178e+3, 2.5432003e+2, -234216.22, -483652.6, -42724.016, -0.0055285636, -0.18029101, -227101.31, 220544.38, 0.000000005166704, 10.002003, 9.998698 
1.6451956e+3, 2.6431867e+2, -215467.6, -589011.9, -56735.273, -0.023482699, -0.104632534, -207040.55, 142621.7, 0.000005473011, 10.002178, 9.997213 
1.6452129e+3, 2.7431703e+2, -248577.63, -538228.2, -35079.855, -0.036791075, -0.04464814, -244389.63, 7294.7915, 0.000058881178, 10.001232, 9.99733 
1.645231e+3, 2.8431532e+2, -58786.73, -240311.55, 47320.55, -0.036311153, -0.0020865973, -47191.68, 106510.58, 0.0003079229, 10.001151, 9.998778 
1.6452499e+3, 2.9431346e+2, 178166.31, -33812.367, -16465.428, -0.010223898, -0.1409732, 179437.64, 235152.95, 0.0009851817, 10.001935, 9.999129 
1.6452672e+3, 3.0431172e+2, 178439.98, -169071.58, -53687.598, -0.10509615, -0.14042723, 186545.22, 186545.22, 0.0021654046, 10.002276, 9.997721 
1.6452852e+3, 3.1431073e+2, 155413.67, -94794.875, -99339.586, -0.03178539, -0.0758008, 190057.42, 190057.42, 0.003679341, 10.001723, 9.998475 
1.6549385e+3, 1.2430419e+2, -1984901.1, -1679781.9, -115770.086, -0.188952, -0.14607942, -1640828.8, 80972.47, 0.03897044, 9.997334, 10.001522 
1.6549559e+3, 1.3430522e+2, -1945095.3, -1735848.4, 23754.908, -0.2108445, -0.10741219, -1733185.5, -109391.66, 0.024272982, 9.997559, 10.000336 
1.6549754e+3, 1.4430559e+2, -1725795.1, -1507322.5, 39707.93, -0.060272533, -0.1260036, -1500329.4, 25461.385, 0.0114189135, 9.998047, 10.000996 
1.654995e+3, 1.5430659e+2, -1545562.1, -1347444.0, 80343.53, -0.042430647, -0.18239565, -1318957.9, 108820.414, 0.0034161112, 9.998539, 10.00117 
1.6550136e+3, 1.6430749e+2, -1479251.4, -1377050.6, 6217.1865, -0.048224363, -0.15315537, -1376673.9, -46905.89, 0.00045137366, 9.998791, 10.000181 
1.6550313e+3, 1.7430799e+2, -1375157.1, -1254177.1, 35225.91, -0.06864798, -0.17120118, -1244667.9, -12905.017, 0.000008273259, 9.998772, 10.000347 
1.6550496e+3, 1.8430781e+2, -1334080.8, -1325080.3, 43866.97, -0.06600531, -0.15432316, -1285483.3, -151718.11, 0.0, 9.998956, 9.999106 
1.6550685e+3, 1.9430667e+2, -1184129.9, -1184759.9, 42032.543, -0.0197846, -0.22823681, -1142411.1, -106632.97, 0.0, 9.999263, 9.999236 
1.6550872e+3, 2.0430607e+2, -1050168.9, -1089533.0, 9430.277, -0.016718164, -0.19296846, -1048026.4, -110241.03, 0.0, 9.999582, 9.999072 
1.6551054e+3, 2.1430597e+2, -872005.9, -920935.3, 21798.924, -0.04574309, -0.16994767, -863703.0, -23916.223, 0.0, 10.000018, 9.999332 
1.6551235e+3, 2.2430542e+2, -749169.0, -823834.56, 5468.7676, -0.06341907, -0.14309491, -748770.56, -6980.0903, 0.0, 10.000211, 9.999263 
1.6551417e+3, 2.343041e+2, -642811.3, -693198.2, 44274.55, -0.061901275, -0.25615078, -617064.2, 26734.299, 0.0, 10.000162, 9.999501 
1.6551606e+3, 2.4430297e+2, -637150.4, -875941.0, 52071.32, -0.04909115, -0.20935734, -626289.56, -80479.195, 0.0, 10.000544, 9.99738 
1.6551805e+3, 2.5430182e+2, -369170.88, -693132.06, 21005.617, 0.008052332, -0.10755509, -367814.56, 80015.42, 0.00000000856411, 10.001712, 9.997392 
1.6551983e+3, 2.6430017e+2, -183139.98, -457760.78, -104457.67, -0.00907413, -0.03586315, -147923.44, 201925.98, 0.0000057188686, 10.001892, 9.998257 
1.6552135e+3, 2.7429795e+2, -186232.69, -365019.94, -47353.887, -0.13440321, -0.16028711, -174465.0, 77403.46, 0.00005720022, 10.001032, 9.99862 
1.6552308e+3, 2.842961e+2, -168802.0, -400301.25, 51232.457, -0.18736067, -0.15974128, -157970.66, -4085.3523, 0.0002952708, 10.000855, 9.997823 
1.6552511e+3, 2.942943e+2, 56181.32, -220991.11, 46275.254, -0.1208273, -0.18157656, 63703.07, 119606.555, 0.00095047243, 10.0016365, 9.9979925 
1.6552691e+3, 3.042924e+2, 140311.0, -138318.95, -87296.53, -0.16113794, -0.15979479, 165402.08, 165402.08, 0.0020977776, 10.001834, 9.998133 
1.655287e+3, 3.142927e+2, 91468.43, -100916.59, -48532.266, -0.085207194, -0.01747039, 103018.11, 103018.11, 0.00356369, 10.001176, 9.998697 
1.6649358e+3, 1.2428607e+2, -2231586.5, -1804436.1, -176718.75, -0.09452653, -0.10848269, -1740804.1, -18824.709, 0.041736465, 9.9956665, 10.001452 
1.6649549e+3, 1.3428691e+2, -1826816.9, -1633388.9, -3063.251, -0.08976099, -0.13224635, -1633340.4, -9368.956, 0.026087236, 9.998161, 10.000749 
1.6649742e+3, 1.4428669e+2, -1751411.6, -1554899.5, -237.58633, 0.032858483, -0.21050483, -1554899.3, -28925.557, 0.012349877, 9.998055, 10.000644 
1.6649927e+3, 1.5428805e+2, -1757341.5, -1481804.5, -2745.656, -0.036809526, -0.20054303, -1481777.1, -53816.695, 0.003737191, 9.997247, 10.000854 
1.6650116e+3, 1.6428946e+2, -1673298.3, -1448203.1, -12106.419, -0.048344586, -0.111776784, -1447553.9, -117606.84, 0.00050616945, 9.997379, 10.000365 
1.66503e+3, 1.7429025e+2, -1339132.6, -1214512.1, -28481.686, -0.06059366, -0.12172834, -1208311.3, 23628.338, 0.000009797576, 9.998911, 10.000555 
1.665049e+3, 1.8429023e+2, -1237893.0, -1251166.9, 7311.8125, -0.033713266, -0.10860919, -1234655.1, -100714.82, 0.0, 9.999518, 9.999332 
1.6650684e+3, 1.9428928e+2, -1137393.3, -1132177.6, 22988.77, 0.033530574, -0.18972836, -1111649.3, -75698.73, 0.0, 9.99947, 9.999484 
1.6650872e+3, 2.0428866e+2, -1053143.1, -1072427.4, 65654.68, 0.03710935, -0.17649165, -996426.3, -58469.938, 0.0, 9.999485, 9.99924 
1.665105e+3, 2.1428843e+2, -907605.5, -922620.8, 62617.582, -0.046760622, -0.18165189, -852047.1, -12089.201, 0.0, 9.9997015, 9.99948 
1.6651237e+3, 2.2428766e+2, -737027.8, -841749.4, 77612.914, -0.06880141, -0.17197224, -695764.75, 46198.56, 0.0, 10.000408, 9.999026 
1.665143e+3, 2.3428614e+2, -413245.1, -607668.6, 23355.852, -0.02578291, -0.28174603, -410478.75, 233495.63, 0.0, 10.001853, 9.999253 
1.6651623e+3, 2.4428488e+2, -415027.38, -795845.25, 38095.906, -0.0017029997, -0.22751349, -411253.78, 134734.86, 0.0, 10.002156, 9.997179 
1.6651815e+3, 2.5428367e+2, -493739.56, -775053.75, 53395.363, -0.0037181927, -0.103233814, -483945.72, -35936.574, 0.0000000057748837, 10.000935, 9.997225 
1.6651994e+3, 2.6428202e+2, -306457.9, -485319.72, 908.748, -0.021493023, -0.040869735, -306453.3, 43575.297, 0.0000055479773, 10.000904, 9.998544 
1.6652156e+3, 2.7427962e+2, 46662.316, -234301.06, -53020.992, -0.0850908, -0.20143624, 56334.984, 308381.88, 0.000055377644, 10.00252, 9.998819 
1.6652334e+3, 2.842779e+2, 92936.86, -299757.2, 37902.03, -0.101478666, -0.18662168, 96561.625, 250624.19, 0.00028510438, 10.002763, 9.997573 
1.6652527e+3, 2.9427683e+2, -37942.97, -292270.3, 28823.521, -0.07035206, -0.11196941, -34717.242, 21359.258, 0.000926934, 10.001144, 9.997707 
1.665271e+3, 3.0427438e+2, 67065.08, -162288.64, 10428.54, -0.10344703, -0.13669838, 67538.28, 67538.28, 0.00206355, 10.001259, 9.998247 
1.6652904e+3, 3.1427434e+2, 394262.75, 82180.69, -53150.324, 0.066150606, -0.041397367, 403066.38, 403066.38, 0.003521676, 10.003101, 9.9990225 
1.6749313e+3, 1.2426567e+2, -2218670.3, -1805611.6, -35944.16, -0.18896855, -0.18853833, -1802507.1, -80326.31, 0.044670317, 9.995785, 10.001385 
1.6749552e+3, 1.3426706e+2, -1762930.4, -1521448.3, 60443.938, 0.09453684, -0.25542617, -1507163.9, 116999.59, 0.028026333, 9.998227, 10.001513 
1.6749719e+3, 1.4426729e+2, -1781949.1, -1640338.4, -58733.91, -0.048343763, -0.2895453, -1619148.8, -92987.8, 0.013357116, 9.998145, 10.000016 
1.6749898e+3, 1.5426871e+2, -1787786.6, -1548626.3, -15304.087, -0.0982012, -0.22805381, -1547650.9, -119499.46, 0.004090086, 9.997254, 10.000397 
1.675009e+3, 1.6427004e+2, -1651379.9, -1427339.8, 20282.07, -0.08771374, -0.12646502, -1425518.5, -95377.26, 0.0005678562, 9.997477, 10.000466 
1.6750288e+3, 1.7427093e+2, -1340370.3, -1206051.3, 40083.195, -0.1125141, -0.1351794, -1194999.1, 37134.547, 0.000011659807, 9.998862, 10.000638 
1.6750482e+3, 1.8427174e+2, -1180785.9, -1134159.5, -10871.983, -0.10464704, -0.08036189, -1131749.0, 2376.7651, 0.0, 9.999514, 10.000146 
1.6750678e+3, 1.9427247e+2, -1093991.1, -1013367.75, 33893.508, 0.0011623757, -0.07930163, -1001012.5, 35104.99, 0.0, 9.999341, 10.000368 
1.6750866e+3, 2.0427243e+2, -1042645.2, -1018953.2, 55148.65, 0.005910085, -0.07895982, -974392.6, -36277.215, 0.0, 9.999339, 9.999681 
1.675104e+3, 2.1427116e+2, -912752.6, -885634.44, 87560.69, -0.13212454, -0.22339141, -810589.25, 29534.125, 0.0, 9.999483, 9.9998455 
1.6751234e+3, 2.2426987e+2, -850365.94, -1001362.5, 112986.5, -0.16322108, -0.2445351, -789974.75, -47840.26, 0.0, 10.000083, 9.998084 
1.6751453e+3, 2.3426838e+2, -529052.75, -784271.25, 93046.336, -0.014057068, -0.24739155, -498732.44, 145418.6, 0.0, 10.001578, 9.99817 
1.6751648e+3, 2.4426702e+2, -412350.25, -713196.75, -19782.135, -0.00050424703, -0.17840682, -411055.06, 135112.08, 0.0, 10.001827, 9.997901 
1.675181e+3, 2.5426567e+2, -468535.3, -661358.8, 28775.178, -0.17716023, -0.15811443, -464332.78, -16149.506, 0.0000000017385277, 10.000672, 9.998125 
1.6751987e+3, 2.642641e+2, -386820.28, -586602.2, 36860.78, -0.21881786, -0.112517804, -380236.28, -30035.842, 0.0000048816705, 10.000615, 9.9979925 
1.675219e+3, 2.7426183e+2, -38764.164, -356595.97, 33122.34, -0.051057056, -0.19300827, -35349.066, 216873.11, 0.000051551386, 10.002266, 9.998111 
1.6752377e+3, 2.842605e+2, 45508.316, -305397.1, -29840.145, 0.015025738, -0.10472756, 48027.76, 202264.0, 0.0002714196, 10.002374, 9.99772 
1.6752547e+3, 2.9426038e+2, -50407.668, -262921.6, -2524.956, -0.04603013, 0.035372023, -50377.67, 5862.18, 0.0008994481, 10.000891, 9.998038 
1.6752724e+3, 3.0425704e+2, -5606.255, -209893.58, 51559.05, -0.12837327, -0.09345064, 6668.89, 6668.89, 0.002033432, 10.000842, 9.998112 
1.6752943e+3, 3.1425506e+2, 343507.44, 101621.664, 79543.84, 0.07042132, -0.17737061, 367320.9, 367320.9, 0.003509679, 10.002583, 9.999397 
1.6849291e+3, 1.242461e+2, -1958745.5, -1688667.0, 16003.357, -0.057411164, -0.16465867, -1687722.0, 34654.1, 0.04776628, 9.9976225, 10.001289 
1.6849527e+3, 1.342482e+2, -1840181.6, -1501727.6, 16907.285, 0.0665119, -0.21914764, -1500885.1, 123466.13, 0.030093629, 9.997467, 10.002004 
1.6849704e+3, 1.4424945e+2, -1872241.1, -1677248.6, -73013.99, 0.021165533, -0.18133412, -1652939.5, -126600.96, 0.0144471, 9.997475, 10.000098 
1.6849881e+3, 1.5425023e+2, -1628865.6, -1460480.6, -18334.672, -0.010674796, -0.19136526, -1458507.4, -30171.951, 0.004479329, 9.998291, 10.000509 
1.6850075e+3, 1.6425122e+2, -1506151.0, -1349744.3, 98516.06, -0.025539942, -0.13410772, -1302165.3, 28163.107, 0.0006375465, 9.998436, 10.000541 
1.6850272e+3, 1.7425229e+2, -1431644.9, -1236528.9, 89029.52, -0.11116977, -0.13620453, -1202011.8, 30306.367, 0.00001399049, 9.9981785, 10.000753 
1.6850471e+3, 1.842533e+2, -1355554.1, -1212156.0, 33610.563, -0.09862816, -0.072049715, -1204669.1, -70361.28, 0.0, 9.998287, 10.0001955 
1.6850676e+3, 1.942542e+2, -1121978.6, -1025614.75, -14355.983, 0.046460617, -0.05768423, -1023521.5, 12776.605, 0.0, 9.999134, 10.000384 
1.6850868e+3, 2.042541e+2, -975112.06, -999118.75, -17030.33, 0.066226035, -0.05784943, -966280.06, -27982.973, 0.0, 9.999859, 9.999565 
1.6851044e+3, 2.142527e+2, -780347.7, -829952.2, -61022.813, -0.09681496, -0.2048611, -739279.4, 101027.72, 0.0, 10.000442, 9.999757 
1.685124e+3, 2.2425155e+2, -751740.8, -947524.75, 25182.785, -0.12488955, -0.20834026, -748553.56, -6236.3516, 0.0, 10.000705, 9.998181 
1.6851465e+3, 2.3425058e+2, -681760.5, -848270.06, 64167.582, 0.022566138, -0.16782326, -659901.8, -15572.592, 0.0, 10.000466, 9.998296 
1.6851662e+3, 2.4424942e+2, -523313.2, -706891.44, 4898.809, 0.032077484, -0.10533613, -523182.56, 23159.182, 0.0, 10.000809, 9.998419 
1.6851823e+3, 2.542479e+2, -235970.6, -497276.25, -18365.512, -0.17032507, -0.16027293, -234686.11, 213670.17, 0.0000000018399801, 10.002023, 9.998602 
1.6852005e+3, 2.6424623e+2, -168895.34, -516707.53, 29608.127, -0.18524125, -0.13622628, -166392.9, 183980.9, 0.0000039092515, 10.0022545, 9.997687 
1.6852215e+3, 2.7424416e+2, -201930.95, -460184.97, 6588.274, 0.057280812, -0.16131969, -201763.0, 50633.21, 0.000046409757, 10.001297, 9.997843 
1.6852407e+3, 2.842428e+2, -70631.164, -374712.4, -9211.97, 0.1444071, -0.055933613, -70352.35, 84059.11, 0.00025645504, 10.001603, 9.9976425 
1.6852573e+3, 2.9424238e+2, 315669.2, -93128.69, -50403.305, 0.016939553, 0.06268478, 321792.03, 378208.97, 0.0008664291, 10.003417, 9.998011 
1.6852748e+3, 3.0423865e+2, 391718.84, -80135.16, 19491.076, -0.09392177, -0.08197902, 392522.6, 392522.6, 0.0019907402, 10.003795, 9.997613 
1.6852973e+3, 3.1423566e+2, 243168.3, 28942.25, -57807.46, 0.17886615, -0.18847288, 257771.77, 257771.77, 0.0034830444, 10.001928, 9.999265 
1.6949283e+3, 1.2422679e+2, -1953481.3, -1720068.5, -181202.98, -0.010952939, -0.08407896, -1621240.9, 101330.2, 0.051028147, 9.997798, 10.001009 
1.6949458e+3, 1.3423009e+2, -1819699.8, -1460381.5, 17013.137, -0.39720827, -0.030467061, -1459577.8, 164959.58, 0.032295942, 9.997458, 10.002306 
1.6949691e+3, 1.4423306e+2, -1789124.1, -1536254.4, -68372.75, 0.09152857, 0.1079798, -1518951.3, 7556.3135, 0.015627254, 9.997601, 10.001009 
1.6949879e+3, 1.5423281e+2, -1580508.6, -1371517.4, 24215.955, 0.08715843, -0.068698406, -1368748.1, 59762.504, 0.004910431, 9.998337, 10.001101 
1.6950062e+3, 1.6423309e+2, -1478945.5, -1314110.8, 69193.78, -0.039187655, -0.122700684, -1288915.9, 41591.46, 0.0007170378, 9.998522, 10.000742 
1.695025e+3, 1.7423439e+2, -1423071.9, -1213401.6, 94774.42, -0.18898621, -0.11925678, -1176912.4, 55580.105, 0.000016975888, 9.998155, 10.000922 
1.6950451e+3, 1.84235e+2, -1400209.4, -1316415.3, 42687.152, -0.17777513, -0.07391162, -1298499.6, -164013.67, 0.0, 9.998326, 9.999464 
1.6950667e+3, 1.9423445e+2, -1193364.9, -1150722.1, 27824.521, 0.017602997, -0.12297302, -1136989.1, -100496.59, 0.0, 9.999031, 9.999574 
1.6950868e+3, 2.0423381e+2, -1056596.8, -1117338.1, -14376.825, 0.056802947, -0.10095131, -1053365.8, -114865.68, 0.0, 9.999637, 9.998866 
1.6951053e+3, 2.1423297e+2, -859452.1, -949686.25, -21885.686, -0.08583769, -0.120207235, -854424.06, -13914.66, 0.0, 10.000234, 9.999044 
1.6951248e+3, 2.2423258e+2, -715332.25, -792523.94, 2096.9526, -0.13440192, -0.06571524, -715275.3, 27237.326, 0.0, 10.000379, 9.999394 
1.6951464e+3, 2.3423265e+2, -633521.1, -671383.0, 76695.56, -0.054284614, -0.059076946, -573454.7, 71054.945, 0.0, 10.000149, 9.999656 
1.6951665e+3, 2.4423195e+2, -566134.94, -705493.56, 31771.725, -0.0570987, -0.034078874, -559233.25, -12719.03, 0.0, 10.000423, 9.998617 
1.695185e+3, 2.5423017e+2, -271470.66, -504207.13, 47273.25, -0.13172354, -0.12154587, -262235.06, 186295.16, 0.0000000033657745, 10.001737, 9.998695 
1.6952038e+3, 2.642283e+2, -227059.38, -556669.2, -16767.45, -0.10787746, -0.114723675, -226208.61, 124340.586, 0.0000030031388, 10.001917, 9.997568 
1.6952235e+3, 2.7422634e+2, -244643.47, -493333.25, -7350.884, 0.0876358, -0.12353728, -244426.38, 8145.287, 0.000041455987, 10.001064, 9.997722 
1.6952424e+3, 2.842245e+2, -136406.2, -437319.13, 30074.754, 0.12240652, -0.049963687, -133429.81, 21161.61, 0.00024337543, 10.001287, 9.997366 
1.6952604e+3, 2.942225e+2, 251877.8, -161673.45, 43588.1, -0.05831661, -0.053995743, 256422.03, 313032.78, 0.0008331997, 10.003119, 9.997695 
1.695278e+3, 3.0421883e+2, 242551.98, -256683.84, -55514.598, -0.19999279, -0.12797491, 248650.66, 248650.66, 0.0019314514, 10.003263, 9.996635 
1.6952989e+3, 3.1421673e+2, 126163.26, -54827.176, -61886.34, 0.06480205, -0.06290695, 145300.63, 145300.63, 0.0034111522, 10.001278, 9.998978 
1.704927e+3, 1.2420933e+2, -1914759.0, -1682359.1, -87696.6, 0.087173834, -0.036338966, -1652980.5, 69762.08, 0.054460447, 9.997989, 10.001183 
1.7049426e+3, 1.3421164e+2, -1895157.5, -1491764.4, 132870.8, -0.42057386, -0.06876798, -1451932.1, 172785.63, 0.034638863, 9.996929, 10.0023575 
1.7049664e+3, 1.4421497e+2, -1866017.9, -1568317.6, 85805.96, 0.10234756, 0.09453437, -1545356.8, -18672.756, 0.016903277, 9.997087, 10.00103 
1.7049864e+3, 1.5421481e+2, -1587039.9, -1385006.1, 86875.03, 0.11511986, -0.063443966, -1352787.5, 75898.08, 0.00538814, 9.998358, 10.000987 
1.7050053e+3, 1.6421492e+2, -1440035.4, -1350180.6, 75728.125, 0.0015882642, -0.10477248, -1307055.6, 23628.787, 0.0008082668, 9.999027, 10.000244 
1.7050242e+3, 1.7421587e+2, -1297486.8, -1205792.3, 14480.874, -0.13202034, -0.08818217, -1203559.8, 29115.113, 0.000020835996, 9.999246, 10.000449 
1.7050444e+3, 1.8421613e+2, -1253049.9, -1240524.4, 16300.199, -0.11977627, -0.05134471, -1229325.3, -94653.21, 0.0, 9.999319, 9.999519 
1.7050658e+3, 1.9421524e+2, -1116786.0, -1106731.8, 38694.887, 0.017863974, -0.14001031, -1072738.9, -36058.23, 0.0, 9.999521, 9.999659 
1.7050865e+3, 2.0421453e+2, -1040244.25, -1139493.5, 87289.89, 0.06309724, -0.11717989, -989459.06, -50769.97, 0.0, 9.999885, 9.998579 
1.705106e+3, 2.1421409e+2, -826661.5, -969428.44, 70939.64, -0.025741514, -0.06784926, -797406.8, 43290.13, 0.0, 10.000633, 9.998703 
1.705126e+3, 2.2421373e+2, -632277.25, -742525.56, 66904.586, -0.0741002, 0.0032412042, -600712.94, 141987.77, 0.0, 10.0009, 9.999482 
1.7051464e+3, 2.3421337e+2, -580610.6, -626713.56, 9705.102, -0.07378567, -0.047541797, -578650.9, 66049.414, 0.0, 10.000435, 9.999812 
1.7051667e+3, 2.4421251e+2, -577885.06, -695263.9, -9177.534, -0.059595756, -0.053500865, -577171.8, -30466.295, 0.0, 10.000277, 9.998763 
1.705187e+3, 2.5421086e+2, -428673.1, -553696.25, -20994.113, -0.037778433, -0.14137517, -425241.88, 23477.814, 0.0000000026261497, 10.000568, 9.998908 
1.7052063e+3, 2.642093e+2, -288022.34, -553660.3, -49999.12, -0.0020243318, -0.13049069, -278923.06, 71812.26, 0.0000021613648, 10.001344, 9.99788 
1.705225e+3, 2.742078e+2, 14435.925, -337500.2, -49571.5, 0.055367187, -0.120652966, 21284.963, 274037.56, 0.000036656253, 10.002691, 9.998027 
1.7052442e+3, 2.84206e+2, 139752.28, -294571.8, 68107.76, 0.07690401, -0.062242694, 150182.03, 304953.53, 0.00022921336, 10.003152, 9.9974375 
1.7052637e+3, 2.942034e+2, 149136.06, -205595.64, 56893.01, 0.017476743, -0.12406515, 158037.39, 214833.34, 0.00079328316, 10.002419, 9.997713 
1.7052814e+3, 3.0420032e+2, 87374.3, -340349.5, -1349.5261, -0.1023378, -0.13663882, 87378.555, 87378.555, 0.0018438247, 10.0022135, 9.996555 
1.7053008e+3, 3.141986e+2, 282142.06, 26900.066, -47694.613, 0.1020646, -0.025936102, 290763.1, 290763.1, 0.0032716861, 10.002347, 9.998988 
1.7149241e+3, 1.24193475e+2, -1828635.5, -1556503.6, -214866.97, -0.09386597, -0.07015641, -1438243.5, 284649.1, 0.058051143, 9.998168, 10.002047 
1.714943e+3, 1.3419347e+2, -1927894.5, -1551622.6, 137148.36, -0.086341865, -0.29673633, -1506939.4, 117947.23, 0.037118543, 9.996911, 10.001942 
1.7149614e+3, 1.4419535e+2, -1901190.0, -1683225.6, 114113.66, -0.16159381, -0.21271378, -1634413.5, -107547.61, 0.018276531, 9.997248, 10.00017 
1.7149831e+3, 1.5419611e+2, -1645286.1, -1512439.6, 152111.36, -0.08280003, -0.19349627, -1412881.1, 15980.451, 0.005915651, 9.998377, 10.000105 
1.7150043e+3, 1.6419674e+2, -1512496.0, -1514641.5, 64412.207, -0.058524225, -0.080475934, -1449147.6, -118288.125, 0.0009130136, 9.999092, 9.999081 
1.7150241e+3, 1.7419688e+2, -1388530.9, -1380084.9, 34897.406, -0.07628832, -0.02908549, -1349155.9, -116292.37, 0.000025810483, 9.999192, 9.999274 
1.7150444e+3, 1.8419687e+2, -1197457.9, -1124290.0, 6822.2334, -0.09324139, 0.00757156, -1123659.4, 11205.165, 0.0, 9.9993105, 10.000323 
1.7150646e+3, 1.9419657e+2, -1060799.5, -969722.9, 61388.95, -0.08823099, -0.12036753, -938826.0, 98036.33, 0.0, 9.999428, 10.000645 
1.7150854e+3, 2.041962e+2, -1063645.3, -1146646.9, 96469.56, -0.08244406, -0.11725777, -1000128.44, -61263.965, 0.0, 9.999708, 9.998616 
1.7151067e+3, 2.1419574e+2, -869376.06, -992310.6, 113390.7, -0.05945028, -0.064854, -801863.94, 39008.57, 0.0, 10.000353, 9.998681 
1.7151271e+3, 2.2419469e+2, -747119.2, -907459.5, 37066.42, -0.090286605, -0.019718388, -738965.06, 3919.0652, 0.0, 10.000574, 9.998513 
1.7151462e+3, 2.3419271e+2, -688808.5, -801582.6, 9623.062, -0.17516977, -0.12298626, -687993.25, -43091.695, 0.0, 10.000209, 9.998729 
1.7151661e+3, 2.4419113e+2, -617078.25, -696182.0, -17826.83, -0.16825494, -0.15082926, -613246.44, -66331.28, 0.0, 9.999945, 9.998909 
1.7151877e+3, 2.5418988e+2, -454835.47, -544219.4, 8767.437, -0.027641913, -0.22437918, -453983.63, -5057.832, 0.0000000000058928205, 10.000294, 9.999105 
1.7152077e+3, 2.6418892e+2, -285317.94, -475079.28, -19965.01, -0.025703812, -0.1952318, -283240.16, 67694.59, 0.0000014626683, 10.001032, 9.998569 
1.7152254e+3, 2.7418834e+2, 22487.0, -250446.66, 20379.146, -0.18700233, -0.16480018, 24000.26, 276940.94, 0.000032258973, 10.002383, 9.998774 
1.7152451e+3, 2.841871e+2, 97158.88, -290076.38, 26215.436, -0.17582592, -0.10119144, 98925.586, 253878.48, 0.00021422842, 10.002749, 9.997664 
1.7152669e+3, 2.9418474e+2, 121730.805, -193106.05, 59743.19, 0.048912812, -0.16946666, 132686.39, 189661.84, 0.00074612966, 10.002111, 9.99795 
1.715285e+3, 3.041826e+2, 47348.406, -305252.94, -17734.105, -0.003624284, -0.12778315, 48238.1, 48238.1, 0.001733618, 10.001744, 9.997009 
1.7153025e+3, 3.1418046e+2, 197626.97, 29136.938, 12108.131, -0.0259373, -0.10899705, 198492.64, 198492.64, 0.0030848195, 10.001631, 9.999329 
1.7249213e+3, 1.2417623e+2, -2029639.1, -1744950.0, -189682.81, -0.1259156, -0.124091856, -1650141.6, 72913.42, 0.06177432, 9.99719, 10.0011425 
1.7249429e+3, 1.3417517e+2, -1674248.5, -1572544.5, -11051.72, 0.09672331, -0.35504147, -1571357.4, 53706.45, 0.039721623, 9.999264, 10.000629 
1.7249595e+3, 1.4417596e+2, -1610129.4, -1604482.6, -12718.118, -0.17602465, -0.2778936, -1594278.3, -67222.42, 0.019743169, 9.99949, 9.999642 
1.7249817e+3, 1.5417682e+2, -1471453.6, -1452095.1, 30990.785, -0.114578106, -0.21888702, -1429307.3, -257.94504, 0.006494274, 9.9996395, 9.999937 
1.7250036e+3, 1.6417749e+2, -1487570.4, -1517870.0, 18753.932, -0.029115872, -0.08687708, -1478611.5, -147565.58, 0.001032908, 9.999317, 9.998961 
1.7250238e+3, 1.7417687e+2, -1439242.0, -1417376.1, 32673.72, -0.0055334945, -0.101259544, -1393854.8, -160798.1, 0.00003215152, 9.998886, 9.99917 
1.7250441e+3, 1.8417655e+2, -1267870.8, -1178410.9, 73840.43, -0.012334676, -0.081425875, -1136809.0, -1748.152, 0.0, 9.998913, 10.000141 
1.7250645e+3, 1.9417694e+2, -987425.5, -949354.9, 10182.788, -0.067581445, -0.121738456, -946802.44, 90251.13, 0.0, 10.000008, 10.000499 
1.7250854e+3, 2.0417692e+2, -935204.6, -1062979.0, 22316.89, -0.07753144, -0.086706765, -931419.0, 7633.862, 0.0, 10.000494, 9.998822 
1.7251071e+3, 2.1417604e+2, -845158.3, -957823.0, 29713.463, -0.036041748, -0.09417533, -837802.1, 3261.2004, 0.0, 10.000406, 9.998905 
1.725128e+3, 2.2417471e+2, -775070.8, -941258.0, 14266.869, -0.0352963, -0.07682022, -773854.94, -30777.541, 0.0, 10.0005045, 9.998297 
1.7251472e+3, 2.3417279e+2, -593272.9, -785002.2, 1841.8595, -0.109025896, -0.1482332, -593255.2, 51840.7, 0.0, 10.0010195, 9.998437 
1.7251673e+3, 2.4417117e+2, -430774.6, -627128.06, 30617.88, -0.09943602, -0.15546116, -426111.03, 121000.12, 0.0, 10.001286, 9.99874 
1.7251888e+3, 2.5416997e+2, -341693.56, -501395.38, 2480.8218, 0.007251953, -0.21388628, -341655.03, 107467.29, 0.0000000000049057277, 10.001109, 9.9990015 
1.7252089e+3, 2.641692e+2, -252876.95, -410587.2, 11074.506, 0.00343822, -0.17812157, -252103.08, 99025.81, 0.0000011502509, 10.001063, 9.998984 
1.7252275e+3, 2.741689e+2, -121210.7, -275011.3, -9684.68, -0.13673605, -0.16010904, -120603.266, 132527.14, 0.000029351942, 10.001205, 9.999172 
1.7252477e+3, 2.8416798e+2, -55038.5, -312979.28, 3749.8174, -0.11019887, -0.10707443, -54984.0, 100154.75, 0.00020332959, 10.001512, 9.998084 
1.7252693e+3, 2.941659e+2, 155635.64, -130569.69, -12375.561, 0.09952443, -0.18109255, 156169.77, 213328.22, 0.00070578046, 10.002175, 9.998325 
1.7252877e+3, 3.0416423e+2, 234693.34, -175338.44, -34164.34, 0.06080564, -0.12694937, 237520.47, 237520.47, 0.0016366781, 10.002807, 9.997424 
1.7253064e+3, 3.1416184e+2, 400789.1, 100597.13, -89033.32, 0.1436536, -0.16282496, 425208.8, 425208.8, 0.002919005, 10.003037, 9.99921 
1.7349188e+3, 1.2415706e+2, -2245006.3, -2205393.5, 43016.402, -0.18161923, -0.2726908, -2177842.8, -454607.9, 0.06561491, 9.997282, 9.997897 
1.7349415e+3, 1.3415653e+2, -1835155.3, -1913331.6, 24233.525, -0.032858055, -0.2555385, -1828252.8, -203000.69, 0.042436883, 9.999296, 9.998262 
1.7349601e+3, 1.4415644e+2, -1607000.9, -1619088.9, -40314.848, -0.13006055, -0.11078024, -1572279.5, -45021.914, 0.021297567, 9.999584, 9.999491 
1.7349814e+3, 1.5415698e+2, -1433756.5, -1377581.6, 47709.406, -0.13431552, -0.13483274, -1350305.8, 78943.01, 0.0071235094, 9.999658, 10.000439 
1.7350028e+3, 1.6415726e+2, -1397195.3, -1365928.4, -15849.496, -0.08780735, -0.115462765, -1359299.5, -28056.629, 0.0011691477, 9.9994545, 9.999942 
1.7350227e+3, 1.7415579e+2, -1372093.8, -1285016.9, 27646.563, -0.047096483, -0.30715215, -1276980.8, -43726.07, 0.00004011834, 9.998903, 10.000075 
1.7350431e+3, 1.8415524e+2, -1349156.6, -1349203.0, 87443.05, -0.048477713, -0.30469766, -1261736.8, -126476.125, 0.0, 9.99892, 9.998964 
1.7350647e+3, 1.9415632e+2, -1105252.4, -1158564.9, 63212.64, -0.06845004, -0.14360908, -1063305.5, -26050.59, 0.0, 9.999851, 9.999138 
1.735086e+3, 2.0415655e+2, -937246.06, -1021950.75, 4884.3013, -0.09043766, -0.028075524, -936965.3, 2289.7622, 0.0, 10.000293, 9.9992 
1.7351072e+3, 2.1415517e+2, -840457.5, -901104.0, 42287.957, -0.10173455, -0.14219917, -818744.5, 22522.959, 0.0, 10.000199, 9.999392 
1.7351282e+3, 2.2415401e+2, -792783.25, -908516.56, 15717.062, -0.09365709, -0.15178719, -790686.8, -47408.34, 0.0, 10.000206, 9.998662 
1.7351493e+3, 2.3415321e+2, -603631.06, -748282.6, 39843.684, -0.03028854, -0.14861213, -593382.44, 51904.484, 0.0, 10.00076, 9.998815 
1.7351697e+3, 2.4415228e+2, -506385.94, -699768.8, 12901.928, -0.021506954, -0.09410914, -505528.94, 41767.93, 0.0, 10.0009365, 9.998406 
1.7351893e+3, 2.5415105e+2, -409703.66, -574795.56, 18845.117, -0.08171639, -0.11432486, -407579.8, 41729.813, 0.000000000000012544113, 10.000827, 9.998631 
1.7352094e+3, 2.6415008e+2, -303990.25, -430601.63, 122.14478, -0.083727665, -0.082263805, -303990.13, 47328.36, 0.0000010511417, 10.000701, 9.999017 
1.7352307e+3, 2.7414945e+2, -159665.66, -281888.3, 20470.432, 0.025320292, -0.10963533, -156328.3, 96993.37, 0.000029114979, 10.000911, 9.999253 
1.7352514e+3, 2.8414837e+2, -84720.914, -299911.94, 3472.5498, 0.070433125, -0.08503455, -84664.89, 70665.42, 0.00019954766, 10.001184, 9.998335 
1.7352708e+3, 2.9414642e+2, 114390.234, -120343.04, 38027.184, -0.0086658215, -0.18597987, 120396.99, 177746.3, 0.0006844002, 10.001765, 9.998593 
1.7352892e+3, 3.0414498e+2, 175811.14, -169665.78, -50006.227, -0.11456138, -0.13501173, 182903.7, 182903.7, 0.0015865878, 10.002287, 9.997694 
1.7353109e+3, 3.1414175e+2, 269928.8, 22308.719, -18700.727, 0.22564508, -0.30059507, 271333.16, 271333.16, 0.0028415923, 10.002273, 9.9990015 
1.7449194e+3, 1.2413788e+2, -2016843.6, -2191175.8, 32856.16, 0.060733285, -0.21350756, -2010856.9, -287432.63, 0.06957688, 9.999298, 9.99702 
1.7449416e+3, 1.3413808e+2, -1862631.0, -1954216.4, -10241.472, 0.082223885, -0.08605452, -1861499.8, -236063.92, 0.045260757, 9.999239, 9.998014 
1.7449595e+3, 1.441363e+2, -1629129.9, -1652353.8, 46024.547, -0.13623324, -0.09154445, -1593275.0, -65816.43, 0.022935338, 9.999545, 9.999261 
1.7449813e+3, 1.541366e+2, -1573706.4, -1469739.3, 24812.275, -0.072388545, -0.11864247, -1464121.3, -34669.637, 0.0078018596, 9.998819, 10.00018 
1.7450023e+3, 1.6413677e+2, -1508001.4, -1382449.9, -35909.8, -0.027814182, -0.113118395, -1372904.8, -41459.24, 0.0013223152, 9.99854, 10.000276 
1.7450218e+3, 1.7413585e+2, -1223426.3, -1163414.1, -62168.523, -0.050759982, -0.2897379, -1124389.1, 109060.08, 0.000049909977, 9.999715, 10.000525 
1.7450427e+3, 1.8413535e+2, -1187983.4, -1319568.8, 41727.637, -0.048227623, -0.28676158, -1175866.6, -40412.793, 0.0000000000000006446772, 10.000253, 9.998509 
1.745065e+3, 1.9413552e+2, -1097921.4, -1214406.0, 42205.875, -0.024856072, -0.16599254, -1084236.6, -46777.574, 0.0, 10.000171, 9.998582 
1.7450866e+3, 2.0413539e+2, -955354.8, -996714.3, 28470.088, -0.030078964, -0.06709231, -940846.56, -1383.316, 0.0, 10.000008, 9.999518 
1.7451073e+3, 2.1413472e+2, -852247.25, -855722.06, 20219.303, -0.080345266, -0.15033841, -833690.8, 7776.8267, 0.0, 9.999898, 9.99985 
1.7451285e+3, 2.2413407e+2, -782945.8, -878650.6, 45490.953, -0.07600255, -0.14456353, -764773.4, -21300.23, 0.0, 10.000138, 9.998918 
1.7451502e+3, 2.3413354e+2, -570168.9, -701607.2, 34960.43, -0.0014495478, -0.13870579, -561448.5, 84030.84, 0.0, 10.000856, 9.999093 
1.7451711e+3, 2.4413283e+2, -472992.28, -685576.4, 12580.7705, 0.031057885, -0.075519495, -472250.34, 75237.13, 0.0, 10.001215, 9.998357 
1.7451906e+3, 2.5413162e+2, -382965.47, -571476.2, -6910.376, -0.014130495, -0.081354275, -382712.5, 66788.11, 0.0, 10.001092, 9.998516 
1.7452109e+3, 2.6413032e+2, -249019.34, -431397.9, 22500.79, -0.0070919152, -0.063135654, -246284.34, 105228.24, 0.0000010008785, 10.001167, 9.9987955 
1.7452322e+3, 2.7412894e+2, -77855.42, -271008.0, -16927.252, 0.062499605, -0.14099896, -76383.195, 177139.64, 0.000030147008, 10.001565, 9.999022 
1.745253e+3, 2.8412765e+2, -5375.987, -266635.75, -17024.025, 0.10455799, -0.1256811, -4271.3496, 151262.45, 0.00019899277, 10.0017185, 9.998323 
1.7452729e+3, 2.9412603e+2, 53225.883, -166230.39, -57204.887, 0.05858921, -0.18642037, 67242.09, 124792.35, 0.00068156485, 10.001356, 9.998505 
1.7452915e+3, 3.0412447e+2, 148244.64, -142195.77, -63172.31, -0.061324384, -0.15728351, 161389.98, 161389.98, 0.0015937911, 10.001902, 9.998085 
1.7453142e+3, 3.1412193e+2, 556905.2, 163232.61, -110275.67, 0.25098404, -0.2940382, 585690.8, 585690.8, 0.002881364, 10.004192, 9.999062 
1.7549184e+3, 1.2411708e+2, -1847579.1, -1879261.9, -128784.71, -0.060320985, -0.06345865, -1733665.1, -10025.997, 0.07366958, 9.999447, 9.999095 
1.7549427e+3, 1.3411967e+2, -1717591.3, -1651076.6, 29412.094, 0.22662269, 0.14013736, -1639936.6, -14320.129, 0.048192136, 9.999234, 10.000092 
1.7549573e+3, 1.4411598e+2, -1622655.3, -1675367.5, 15846.221, -0.36972338, -0.18524563, -1618258.4, -90604.234, 0.024652572, 9.999693, 9.999039 
1.7549805e+3, 1.541157e+2, -1644033.1, -1629669.5, 6177.876, -0.061704386, -0.16437574, -1627377.9, -197720.1, 0.008527423, 9.998864, 9.999072 
1.7550014e+3, 1.6411571e+2, -1517116.3, -1411929.5, -30587.664, -0.029423699, -0.09722951, -1403681.6, -72024.914, 0.0014925194, 9.998596, 10.000044 
1.7550208e+3, 1.741169e+2, -1233804.5, -1168356.1, -3143.8733, -0.15950954, -0.05955652, -1168205.5, 65435.695, 0.00006156021, 9.999657, 10.000514 
1.755042e+3, 1.8411686e+2, -1170694.1, -1281826.3, 23672.506, -0.17229696, -0.026101876, -1165861.8, -30221.352, 0.0000000010737394, 10.000243, 9.998773 
1.7550649e+3, 1.9411449e+2, -1098918.9, -1194649.8, 51051.04, -0.07819545, -0.17958294, -1076803.5, -39137.54, 0.0, 10.000073, 9.998765 
1.7550866e+3, 2.0411345e+2, -964183.25, -975420.1, 6462.579, -0.06324121, -0.19326371, -961238.3, -21560.988, 0.0, 9.999836, 9.999744 
1.7551072e+3, 2.141144e+2, -865435.25, -830852.75, 29516.514, -0.10676702, -0.14411876, -813935.6, 27731.54, 0.0, 9.999668, 10.000133 
1.7551282e+3, 2.2411469e+2, -814054.56, -873727.0, 52959.188, -0.14051352, -0.06836486, -783105.3, -39441.363, 0.0, 9.999841, 9.999095 
1.7551498e+3, 2.3411387e+2, -596418.8, -699128.1, 79003.56, -0.16162336, -0.10876001, -553545.75, 92126.63, 0.0, 10.000605, 9.999235 
1.7551711e+3, 2.4411283e+2, -520529.16, -705293.6, -3417.7192, -0.12196657, -0.08659694, -520465.97, 27216.973, 0.0, 10.000876, 9.998384 
1.7551926e+3, 2.541114e+2, -418866.84, -586542.9, 6655.988, 0.04249149, -0.11872549, -418603.03, 31094.62, 0.0, 10.000836, 9.998534 
1.755213e+3, 2.6410955e+2, -328870.94, -533815.1, 14756.204, 0.050981164, -0.12923196, -327813.94, 23901.084, 0.00000094846536, 10.000889, 9.998231 
1.7552318e+3, 2.7410734e+2, -158832.33, -370206.44, 19436.586, -0.16040607, -0.23883268, -157059.94, 96674.336, 0.000030605133, 10.001274, 9.998479 
1.7552523e+3, 2.8410584e+2, -77127.98, -336312.47, -43990.1, -0.17727534, -0.20346607, -69865.266, 85882.89, 0.00020047408, 10.001378, 9.998007 
1.7552748e+3, 2.9410487e+2, -25265.521, -243394.6, -46340.402, 0.08566542, -0.1712794, -15828.9795, 41931.066, 0.00069770816, 10.001, 9.998139 
1.7552942e+3, 3.0410305e+2, 92074.766, -152667.75, -16863.277, -0.024489988, -0.15055834, 93231.22, 93231.22, 0.001653074, 10.001457, 9.998218 
1.7553157e+3, 3.1410268e+2, 424296.13, 96319.305, 53180.58, -0.08409559, -0.11357281, 432703.72, 432703.72, 0.0030124004, 10.003351, 9.998979 
1.7649147e+3, 1.2409336e+2, -1992378.1, -1734105.8, -10871.182, -0.2537029, -0.18799995, -1733649.0, -9773.325, 0.07790593, 9.997493, 10.0010395 
1.7649426e+3, 1.3409741e+2, -1799856.6, -1602891.4, -34545.535, 0.3695795, 0.085036546, -1597008.3, 28825.252, 0.05123237, 9.998265, 10.000901 
1.7649561e+3, 1.4409517e+2, -1765563.9, -1716014.9, -90011.13, -0.37600842, -0.15907198, -1647431.0, -119575.82, 0.026445003, 9.9985895, 9.999303 
1.7649798e+3, 1.5409483e+2, -1650286.3, -1617397.5, -66640.46, -0.0123516135, -0.15074442, -1565202.4, -135341.17, 0.009296644, 9.998787, 9.999192 
1.7650007e+3, 1.640949e+2, -1469942.8, -1421064.5, 25497.049, 0.03944312, -0.0711098, -1410185.5, -78323.95, 0.0016790463, 9.999069, 9.999743 
1.765021e+3, 1.7409594e+2, -1245062.6, -1217129.9, -2951.8572, -0.09865309, -0.013492046, -1216821.4, 17028.096, 0.000074904594, 9.999759, 10.000127 
1.7650424e+3, 1.8409584e+2, -1198522.5, -1235764.8, 9711.662, -0.124465354, 0.009840916, -1196142.1, -60293.066, 0.000000009428086, 9.999787, 9.99932 
1.7650644e+3, 1.9409369e+2, -1154529.0, -1147299.8, 30783.53, -0.09360765, -0.18415566, -1119919.4, -82050.49, 0.0, 9.999369, 9.999444 
1.7650859e+3, 2.040928e+2, -1017192.94, -1013657.4, 49515.832, -0.08623053, -0.21276852, -965877.8, -26000.527, 0.0, 9.999543, 9.999618 
1.7651074e+3, 2.1409377e+2, -741335.9, -793977.9, 7589.9517, -0.085602626, -0.13647819, -740263.4, 101605.06, 0.0, 10.000636, 9.999913 
1.765129e+3, 2.2409412e+2, -625590.94, -757500.2, 30368.787, -0.098882474, -0.05448897, -618935.1, 124930.484, 0.0, 10.001041, 9.999307 
1.7651503e+3, 2.340934e+2, -575429.2, -657538.2, 20194.4, -0.16055577, -0.1070292, -570731.25, 75141.33, 0.0, 10.000632, 9.999498 
1.7651719e+3, 2.4409248e+2, -527935.4, -699747.44, -17660.037, -0.12226581, -0.092150085, -526138.94, 21742.688, 0.0, 10.000737, 9.998511 
1.7651938e+3, 2.5409123e+2, -312400.94, -526222.0, -26758.482, 0.05875823, -0.11386724, -309103.13, 140791.06, 0.0, 10.001489, 9.998653 
1.7652147e+3, 2.6408938e+2, -211181.98, -519547.78, 24071.023, 0.08649262, -0.11476897, -209314.31, 142597.95, 0.0000007067664, 10.001903, 9.997828 
1.7652336e+3, 2.740867e+2, -103310.06, -393587.56, -11209.964, -0.12593253, -0.22369066, -102877.8, 151060.1, 0.000029110019, 10.001887, 9.998013 
1.7652543e+3, 2.8408504e+2, 13214.721, -296415.03, -33080.95, -0.13705859, -0.17849986, 16709.652, 172664.2, 0.0002034409, 10.002036, 9.99796 
1.765277e+3, 2.940843e+2, 197841.63, -143019.28, -73848.93, 0.13524516, -0.10547427, 213153.48, 271116.9, 0.0007263894, 10.002585, 9.998063 
1.7652965e+3, 3.0408186e+2, 327356.22, -67367.85, 44716.477, 0.0031718777, -0.13703693, 332358.56, 332358.56, 0.0017327985, 10.003161, 9.997993 
1.7653188e+3, 3.140811e+2, 426050.72, 70796.0, 10954.847, -0.076284304, -0.09671852, 426388.2, 426388.2, 0.003152883, 10.0034075, 9.998804 
1.7749122e+3, 1.24070935e+2, -1868921.4, -1539879.8, 183977.05, -0.34860918, -0.20500137, -1457591.6, 266500.5, 0.08231803, 9.997666, 10.002448 
1.774942e+3, 1.3407171e+2, -1835951.8, -1686505.6, 2704.9514, 0.4348227, -0.23194876, -1686456.6, -60373.605, 0.054393712, 9.998298, 10.000303 
1.7749554e+3, 1.440734e+2, -1703825.9, -1609654.0, -104628.82, -0.3753997, -0.062280115, -1542004.3, -13937.856, 0.02831169, 9.998678, 9.999991 
1.7749782e+3, 1.5407395e+2, -1553204.5, -1424922.6, -46595.09, -0.08625863, -0.08941048, -1409784.5, 20278.01, 0.010105246, 9.998812, 10.000507 
1.775e+3, 1.6407436e+2, -1490291.6, -1475812.6, 29545.295, 0.019751206, -0.036739603, -1452632.8, -120572.766, 0.0018804772, 9.999122, 9.999342 
1.775022e+3, 1.7407303e+2, -1300163.4, -1324885.6, 36712.746, -0.008217421, -0.14605449, -1273786.6, -39712.754, 0.00008970714, 9.999733, 9.999398 
1.7750432e+3, 1.8407233e+2, -1141978.0, -1118829.3, -20830.87, -0.0793458, -0.17610258, -1106573.3, 29506.496, 0.000000028818846, 9.999788, 10.000121 
1.7750628e+3, 1.9407296e+2, -1096138.3, -1004450.56, 30086.443, -0.2135033, -0.19236307, -995459.6, 42609.723, 0.0, 9.999273, 10.000471 
1.7750841e+3, 2.040733e+2, -1080073.9, -1101977.1, 66178.04, -0.25954252, -0.13350296, -1023947.44, -83882.61, 0.0, 9.999368, 9.99909 
1.7751075e+3, 2.1407281e+2, -831999.75, -921578.3, 61932.598, -0.15149812, -0.13355842, -800357.9, 41714.22, 0.0, 10.000381, 9.999153 
1.7751302e+3, 2.2407235e+2, -663061.4, -769455.4, 3703.7666, -0.11059068, -0.091790564, -662932.6, 81145.49, 0.0, 10.000747, 9.99937 
1.7751513e+3, 2.340719e+2, -591477.06, -646385.4, 22534.71, -0.14386421, -0.14164077, -583413.0, 62669.273, 0.0, 10.000421, 9.999683 
1.7751727e+3, 2.4407147e+2, -555533.06, -676191.44, -11478.386, -0.14142957, -0.10446877, -554450.8, -6364.2866, 0.0, 10.0004015, 9.998829 
1.7751941e+3, 2.540711e+2, -330243.06, -499778.78, 18767.596, -0.08865316, -0.073322505, -328190.34, 121900.24, 0.0, 10.0012245, 9.998959 
1.7752154e+3, 2.6406977e+2, -286030.8, -598292.6, 10063.863, -0.051579617, -0.023354638, -285706.8, 66397.914, 0.00000032366296, 10.001582, 9.9974375 
1.7752369e+3, 2.7406698e+2, -187413.94, -485090.56, 10525.307, -0.016841972, -0.09000965, -187042.25, 67091.68, 0.00002512301, 10.001552, 9.997536 
1.775258e+3, 2.840651e+2, -45673.863, -337013.34, -39571.613, 0.007357121, -0.034878243, -40394.652, 115759.06, 0.00020101898, 10.0016775, 9.997856 
1.7752787e+3, 2.9406425e+2, 149562.13, -163100.33, -29720.996, 0.025255006, 0.01377799, 152362.25, 210524.06, 0.0007432089, 10.002245, 9.998084 
1.7752983e+3, 3.0406073e+2, 209870.3, -197044.2, 34403.1, -0.17452069, -0.09486057, 212758.45, 212758.45, 0.0017748394, 10.002687, 9.997323 
1.775323e+3, 3.1405923e+2, 274165.44, -7635.344, 103250.23, -0.06259754, -0.059993472, 307946.28, 307946.28, 0.0031987038, 10.002467, 9.998682 
1.7849107e+3, 1.2404998e+2, -1965807.4, -1478411.9, 169097.81, -0.17830472, -0.009575338, -1425490.9, 298806.7, 0.08696164, 9.99655, 10.003419 
1.7849396e+3, 1.3404691e+2, -2017644.6, -1789646.0, -41067.367, 0.4354856, -0.40244767, -1782474.5, -156149.19, 0.057701517, 9.997183, 10.000109 
1.784954e+3, 1.44051e+2, -1860749.8, -1613198.6, -70391.445, -0.28234985, -0.009740268, -1594582.6, -66297.76, 0.030258754, 9.9973, 10.00063 
1.7849772e+3, 1.5405153e+2, -1499951.5, -1315951.6, -81223.13, -0.04765142, -0.11743514, -1285227.5, 145052.86, 0.0109521225, 9.998811, 10.001262 
1.7849995e+3, 1.6405211e+2, -1443475.4, -1446652.0, -7042.752, 0.055006895, -0.09212796, -1437844.0, -105568.07, 0.0020959692, 9.999419, 9.99939 
1.7850219e+3, 1.7405087e+2, -1416980.9, -1381213.1, 6097.5225, 0.06229668, -0.19174857, -1380202.1, -145911.97, 0.000105867584, 9.99895, 9.999377 
1.7850432e+3, 1.840504e+2, -1239914.0, -1160893.9, 469.14352, 0.0011585205, -0.19780043, -1160891.0, -24596.398, 0.0000000562377, 9.999091, 10.000176 
1.7850627e+3, 1.9405167e+2, -915676.9, -906813.25, -42728.31, -0.1994906, -0.16109739, -868287.5, 169991.39, 0.0, 10.000456, 10.000573 
1.7850842e+3, 2.0405199e+2, -858345.1, -1018182.44, -10696.003, -0.2580607, -0.098514825, -857632.56, 82641.88, 0.0, 10.00099, 9.998884 
1.7851083e+3, 2.1405059e+2, -820538.8, -941909.44, -15785.698, -0.11371152, -0.16662346, -818519.3, 23770.432, 0.0, 10.000568, 9.998927 
1.7851311e+3, 2.2404973e+2, -752347.5, -804473.56, -41918.133, -0.040992443, -0.15350848, -729050.5, 15248.464, 0.0, 10.000113, 9.999434 
1.785152e+3, 2.3404971e+2, -696287.7, -687071.9, -69766.7, -0.077128105, -0.16458598, -621761.06, 24537.49, 0.0, 9.999676, 9.999764 
1.7851733e+3, 2.4404946e+2, -606512.3, -696956.0, -35689.86, -0.08611725, -0.112681225, -594125.3, -45824.22, 0.0, 10.0000515, 9.998845 
1.7851955e+3, 2.5404882e+2, -267364.5, -469304.2, -59239.867, -0.07985583, -0.106969476, -251269.1, 199038.88, 0.0, 10.00167, 9.998942 
1.7852175e+3, 2.6404765e+2, -153754.97, -514941.9, -85653.84, -0.034373224, -0.050338116, -134472.02, 217848.98, 0.00000018370703, 10.002374, 9.997648 
1.7852388e+3, 2.7404535e+2, -136362.78, -446286.56, -76174.234, 0.04319918, -0.084533, -118652.44, 135692.89, 0.000020759246, 10.001788, 9.99772 
1.7852604e+3, 2.8404343e+2, -50949.09, -381300.94, -21966.92, 0.075094275, -0.023291508, -49494.79, 106871.09, 0.00019262578, 10.001838, 9.997463 
1.7852813e+3, 2.94042e+2, 216622.69, -186333.69, -93695.516, 0.042278208, 0.017916596, 237343.31, 295724.13, 0.00073903677, 10.002943, 9.997584 
1.7853013e+3, 3.0403826e+2, 254011.9, -197938.86, -42394.42, -0.1359749, -0.074414626, 257954.25, 257954.25, 0.0017591042, 10.003095, 9.997114 
1.7853263e+3, 3.1403646e+2, 136863.63, -94375.87, -37409.297, 0.08934489, -0.033822786, 142764.98, 142764.98, 0.003118364, 10.001561, 9.998546 
1.794909e+3, 1.2402693e+2, -1903011.9, -1405432.8, -153368.11, -0.12321816, 0.02674837, -1361958.8, 362568.03, 0.09190124, 9.99676, 10.003879 
1.7949343e+3, 1.3402297e+2, -1976778.9, -1742672.1, -35839.55, 0.14800261, -0.44515404, -1737308.3, -110747.05, 0.06119029, 9.997308, 10.00039 
1.7949522e+3, 1.4402807e+2, -1821787.8, -1539029.5, -52942.348, -0.25721484, -0.004611589, -1529441.9, -932.3134, 0.03230053, 9.997339, 10.001116 
1.7949766e+3, 1.5402761e+2, -1495724.6, -1301031.6, -8791.05, -0.02704896, -0.22538619, -1300635.5, 129878.58, 0.011841973, 9.998793, 10.001369 
1.7949986e+3, 1.640281e+2, -1396279.4, -1371680.4, -38979.1, -0.019846803, -0.23370172, -1343106.3, -10595.976, 0.0023264778, 9.999506, 9.99987 
1.7950204e+3, 1.7402925e+2, -1369464.1, -1287879.5, -2419.1274, -0.014492005, -0.15331791, -1287807.8, -53307.17, 0.00012352158, 9.998961, 10.00002 
1.7950423e+3, 1.8402989e+2, -1279194.6, -1246414.6, 24582.045, -0.04805987, -0.061227214, -1233259.6, -96763.84, 0.000000085167756, 9.999115, 9.999573 
1.7950636e+3, 1.9402976e+2, -990440.06, -1035462.8, 19302.928, -0.19897655, -0.08395849, -983297.4, 55200.27, 0.0, 10.000343, 9.9997425 
1.7950855e+3, 2.04029e+2, -877577.56, -1013508.6, -39676.52, -0.25713947, -0.09031501, -866844.06, 73660.75, 0.0, 10.00079, 9.999018 
1.795109e+3, 2.140272e+2, -834585.75, -921256.94, -16421.74, -0.11368228, -0.22317456, -831578.6, 10941.75, 0.0, 10.000344, 9.999184 
1.7951314e+3, 2.2402625e+2, -802282.2, -836450.9, -74645.766, -0.04962625, -0.2302289, -742790.7, 1737.5304, 0.0, 9.999807, 9.999362 
1.7951517e+3, 2.3402666e+2, -741423.3, -721059.5, -68527.48, -0.094975375, -0.18886031, -661961.6, -15438.3955, 0.0, 9.999422, 9.99965 
1.7951733e+3, 2.4402624e+2, -678331.44, -773547.7, 4928.973, -0.11685905, -0.12945338, -678076.94, -129549.74, 0.0, 9.999738, 9.998471 
1.7951976e+3, 2.5402454e+2, -337196.34, -544738.8, 20558.945, -0.06957313, -0.194541, -335179.38, 115365.84, 0.0, 10.001378, 9.998561 
1.7952201e+3, 2.64023e+2, -156574.47, -437936.6, -115955.03, -0.04414152, -0.18051925, -114946.09, 237614.8, 0.00000013255313, 10.002014, 9.998353 
1.7952397e+3, 2.7402186e+2, -119647.9, -335644.2, -80432.97, -0.08826428, -0.19541311, -92986.984, 161584.81, 0.0000188634, 10.001477, 9.998621 
1.7952608e+3, 2.8402027e+2, -160082.3, -528157.9, -7290.5254, -0.103368856, -0.112435214, -159937.95, -3348.9204, 0.00018772876, 10.001488, 9.996628 
1.795284e+3, 2.9401794e+2, 85670.83, -351304.47, -17151.47, -0.017526573, -0.06281344, 86343.0, 144960.0, 0.00073121197, 10.002501, 9.996655 
1.7953049e+3, 3.0401465e+2, 164298.05, -271107.1, -107202.555, -0.12191653, -0.046939954, 189261.5, 189261.5, 0.0017173345, 10.00259, 9.996864 
1.7953275e+3, 3.1401327e+2, 60803.742, -90019.484, -9248.401, -0.0021556118, 0.026257576, 61368.734, 61368.734, 0.002973509, 10.000909, 9.998863 
1.8049072e+3, 1.2400471e+2, -1818992.1, -1380554.6, -82971.23, 0.004835138, 0.003780888, -1365378.3, 359366.6, 0.097200245, 9.997418, 10.003744 
1.804931e+3, 1.3400094e+2, -1895952.0, -1694691.6, 55133.824, 0.07513879, -0.4398834, -1680577.9, -53801.098, 0.06490086, 9.997841, 10.000457 
1.804951e+3, 1.4400618e+2, -1733409.4, -1520814.6, 61963.832, -0.13742694, 0.011243968, -1504072.8, 24650.852, 0.034457777, 9.998025, 10.00092 
1.8049759e+3, 1.5400535e+2, -1535384.8, -1350927.0, 48292.9, 0.039285157, -0.22317606, -1339048.4, 91683.39, 0.0127833225, 9.998644, 10.001097 
1.804998e+3, 1.6400555e+2, -1420491.5, -1356900.5, 9989.14, -0.0033865108, -0.2551437, -1355368.3, -22637.895, 0.0025744103, 9.999225, 10.000113 
1.8050198e+3, 1.7400725e+2, -1169458.0, -1151235.9, -12560.811, -0.017580617, -0.1538111, -1144829.6, 89884.86, 0.00014305822, 10.000167, 10.00037 
1.8050422e+3, 1.8400809e+2, -1135682.5, -1225757.4, 37511.26, -0.0114306295, -0.04149994, -1122107.1, 14601.045, 0.00000010953618, 10.000302, 9.999145 
1.8050644e+3, 1.9400758e+2, -1153847.6, -1168625.1, 19147.111, -0.099730834, -0.054418556, -1140713.0, -101996.42, 0.0, 9.999467, 9.999249 
1.8050866e+3, 2.0400666e+2, -1086151.0, -1083215.8, 10239.952, -0.13784821, -0.059464935, -1074338.8, -133612.84, 0.0, 9.999215, 9.999314 
1.8051097e+3, 2.1400519e+2, -861584.25, -889341.2, 11799.001, -0.064755015, -0.19688599, -857246.56, -14510.173, 0.0, 9.999964, 9.999592 
1.8051317e+3, 2.2400421e+2, -708675.25, -824627.1, -22081.727, -0.020476162, -0.21572492, -704612.4, 40130.934, 0.0, 10.000602, 9.999048 
1.8051523e+3, 2.34004e+2, -502001.25, -650738.0, -70794.086, -0.044456247, -0.1932315, -473693.16, 173051.5, 0.0, 10.001269, 9.999233 
1.8051745e+3, 2.4400319e+2, -440550.28, -669894.8, 39575.51, -0.056170467, -0.15041211, -433913.22, 114839.59, 0.0, 10.001398, 9.998406 
1.8051986e+3, 2.5400117e+2, -445708.75, -607384.56, 47119.133, -0.04119965, -0.23370945, -432978.6, 17794.752, 0.0, 10.00065, 9.998511 
1.8052213e+3, 2.6399973e+2, -346244.97, -499232.3, -63363.41, -0.030500561, -0.21880868, -323409.88, 29378.244, 0.00000007008213, 10.000601, 9.998599 
1.8052413e+3, 2.7399912e+2, -73410.32, -293468.16, -118349.08, -0.08541204, -0.19729696, -21844.477, 232949.66, 0.000018211349, 10.001705, 9.998804 
1.8052624e+3, 2.8399774e+2, -18545.318, -412834.7, 11709.956, -0.098363034, -0.123052664, -18197.854, 138611.3, 0.00018396454, 10.002245, 9.997058 
1.8052863e+3, 2.939951e+2, 74298.56, -311350.94, 52769.016, -0.018541977, -0.14042336, 81388.67, 140227.22, 0.0007180549, 10.002206, 9.997083 
1.8053077e+3, 3.0399236e+2, 164042.55, -238732.13, 44564.816, -0.069549836, -0.10665918, 168914.47, 168914.47, 0.0016645552, 10.002469, 9.997132 
1.8053299e+3, 3.1399158e+2, 331289.9, 38668.996, 55362.24, 0.08112808, 0.022823637, 341413.88, 341413.88, 0.002832551, 10.002679, 9.998945 
1.814905e+3, 1.2398381e+2, -1867115.0, -1516454.4, 1901.335, -0.04320739, -0.032309797, -1516444.0, 208502.45, 0.10291468, 9.997596, 10.002646 
1.8149292e+3, 1.339808e+2, -1914309.0, -1733534.1, 79093.4, 0.09216214, -0.38443497, -1703814.8, -76841.84, 0.06887483, 9.997846, 10.000189 
1.8149497e+3, 1.4398506e+2, -1764619.1, -1603928.0, 56294.137, -0.10950771, 0.018420374, -1586169.3, -57239.234, 0.036753505, 9.998103, 10.000309 
1.8149745e+3, 1.5398455e+2, -1567371.9, -1428451.4, 84508.73, 0.00034322814, -0.12605107, -1388520.4, 42415.242, 0.01378539, 9.998685, 10.000546 
1.814997e+3, 1.6398448e+2, -1404626.6, -1342342.0, 22981.69, -0.07707852, -0.16166496, -1334780.3, -1843.9733, 0.002842686, 9.999303, 10.000174 
1.8150198e+3, 1.7398493e+2, -1171643.6, -1156475.5, 36750.67, -0.07650724, -0.18754177, -1126534.5, 108396.81, 0.00016504708, 10.000159, 10.000341 
1.8150426e+3, 1.8398516e+2, -1152964.1, -1260351.3, -7296.2866, -0.042894762, -0.1220638, -1152470.6, -15540.145, 0.00000012908751, 10.000293, 9.998914 
1.8150647e+3, 1.9398512e+2, -1175724.6, -1202598.5, -215.53464, -0.034729265, -0.06370688, -1175722.9, -136787.44, 0.0, 9.999411, 9.999047 
1.8150868e+3, 2.0398495e+2, -1080952.3, -1032271.5, 17309.021, -0.06336057, -0.006684829, -1026744.56, -85806.18, 0.0, 9.999049, 9.999741 
1.8151096e+3, 2.1398437e+2, -863286.3, -837179.2, 56479.39, -0.095027365, -0.1013142, -792264.5, 50675.195, 0.0, 9.999723, 10.000066 
1.8151319e+3, 2.2398342e+2, -801398.8, -938008.9, -12639.091, -0.10529257, -0.117988385, -800239.25, -55292.6, 0.0, 10.000262, 9.998433 
1.8151537e+3, 2.3398186e+2, -594654.9, -780606.56, -29155.775, -0.06862503, -0.15941659, -590190.7, 56771.598, 0.0, 10.0009985, 9.998471 
1.8151757e+3, 2.4398018e+2, -481011.6, -680632.6, 3346.7837, -0.08248761, -0.16019452, -480955.5, 68023.2, 0.0, 10.001084, 9.998478 
1.8151985e+3, 2.5397846e+2, -463003.06, -583645.94, 37095.24, -0.13594644, -0.2451946, -452509.72, -1514.6885, 0.0, 10.000399, 9.998786 
1.815221e+3, 2.6397744e+2, -425727.53, -585983.7, -45005.52, -0.15031943, -0.18572721, -413953.47, -60947.484, 0.0000000874347, 10.000258, 9.998172 
1.8152429e+3, 2.7397713e+2, -157947.4, -386898.13, -52942.895, -0.11301358, -0.0894154, -146297.6, 108714.55, 0.00001648955, 10.001366, 9.998316 
1.8152648e+3, 2.8397593e+2, 22555.658, -247854.47, -6057.02, -0.12218421, -0.028627777, 22691.264, 179716.08, 0.00017264318, 10.001888, 9.998368 
1.8152875e+3, 2.9397342e+2, 139578.14, -97975.055, 76679.57, -0.1555699, -0.20099454, 162179.19, 221225.27, 0.000683164, 10.0018635, 9.9987135 
1.8153094e+3, 3.0397132e+2, 115903.17, -223362.9, 27122.693, -0.20515403, -0.21435595, 118057.82, 118057.82, 0.0015935485, 10.00199, 9.997463 
1.8153311e+3, 3.1396896e+2, 227789.86, 47283.105, 105042.42, -0.13582584, -0.27049, 276026.84, 276026.84, 0.0027236447, 10.0018015, 9.999383 
1.824903e+3, 1.2396144e+2, -1939364.3, -1603722.5, -8780.118, 0.049941175, -0.068957664, -1603493.0, 121670.73, 0.10907774, 9.997346, 10.002102 
1.8249266e+3, 1.3395944e+2, -1838902.8, -1799190.5, -72376.484, 0.006108096, -0.24146287, -1743995.9, -116811.88, 0.07313931, 9.99875, 9.999317 
1.8249495e+3, 1.4396149e+2, -1648065.3, -1536041.9, -66372.81, 0.02937635, -0.017733179, -1505205.1, 23958.904, 0.039204508, 9.998881, 10.000396 
1.8249735e+3, 1.5396163e+2, -1514943.0, -1383631.5, -21067.244, 0.036611624, -0.11044738, -1380334.4, 50826.094, 0.014855209, 9.998989, 10.000699 
1.824996e+3, 1.6396159e+2, -1464271.4, -1385766.3, -27540.72, -0.0723285, -0.14158887, -1377068.3, -43908.69, 0.0031336718, 9.998958, 10.000035 
1.8250194e+3, 1.739618e+2, -1368866.8, -1266873.3, -60572.816, -0.056217007, -0.17544803, -1238688.3, -3530.3403, 0.00019006866, 9.998885, 10.000194 
1.8250427e+3, 1.8396185e+2, -1296385.8, -1296038.6, -69665.97, 0.011325104, -0.13253559, -1226546.0, -89387.305, 0.00000015151502, 9.999167, 9.999208 
1.825065e+3, 1.9396149e+2, -1030221.8, -1088338.4, -56302.777, 0.03102262, -0.14117566, -995920.9, 43243.35, 0.0, 10.000255, 9.999411 
1.8250874e+3, 2.0396143e+2, -851526.5, -937697.9, -7238.609, 0.018976223, -0.084858716, -850922.7, 90242.875, 0.0, 10.000701, 9.999573 
1.8251102e+3, 2.1396159e+2, -799043.4, -825712.7, -49068.086, -0.023515245, -0.08864174, -761530.3, 81631.99, 0.0, 10.000266, 9.999859 
1.8251325e+3, 2.2396092e+2, -799230.8, -952830.06, -73420.84, -0.036076117, -0.061853744, -769781.7, -24613.244, 0.0, 10.000313, 9.998326 
1.825155e+3, 2.339589e+2, -588297.5, -781810.56, -70873.48, -0.02517354, -0.14178306, -565117.06, 82071.98, 0.0, 10.001048, 9.998449 
1.825177e+3, 2.4395718e+2, -442427.2, -646948.6, -20869.059, -0.045332275, -0.15213227, -440319.47, 108886.31, 0.0, 10.001277, 9.998612 
1.8251993e+3, 2.5395602e+2, -405173.13, -539408.8, -32038.678, -0.107054755, -0.19559553, -397918.38, 53297.75, 0.0, 10.000716, 9.998929 
1.825222e+3, 2.6395512e+2, -354899.84, -534672.5, -17507.42, -0.10003329, -0.13956147, -353210.72, 14.580307, 0.00000011582431, 10.000687, 9.998312 
1.825245e+3, 2.739542e+2, -125941.05, -363609.88, -24993.293, -0.031265218, -0.10847645, -123341.195, 131895.58, 0.000015405387, 10.001545, 9.998398 
1.8252675e+3, 2.8395304e+2, 34541.94, -204958.66, 15085.874, -0.021544443, -0.06321238, 35488.445, 192737.19, 0.00016033741, 10.001827, 9.998686 
1.8252894e+3, 2.939517e+2, 74460.01, -104853.03, -46021.26, -0.10314059, -0.13932112, 85581.695, 144840.36, 0.00064014964, 10.001301, 9.998944 
1.825312e+3, 3.0394968e+2, 99221.945, -176723.95, -57388.652, -0.10846613, -0.17574434, 110681.234, 110681.234, 0.0015227182, 10.001621, 9.997971 
1.8253346e+3, 3.1394574e+2, 438638.1, 171632.27, -100473.72, -0.0056116525, -0.42682716, 472221.97, 472221.97, 0.0026622775, 10.003079, 9.99968 
1.8349005e+3, 1.2393667e+2, -1912877.8, -1587245.0, -82679.81, -0.040612176, -0.19479525, -1567454.9, 157950.72, 0.11569034, 9.997491, 10.002177 
1.8349224e+3, 1.3393694e+2, -1914951.5, -1981620.9, -30649.113, -0.33579835, -0.0036725374, -1903003.0, -275593.22, 0.07769921, 9.998839, 9.998027 
1.8349493e+3, 1.4393556e+2, -1580227.1, -1427668.4, -91195.88, 0.06827282, -0.09056443, -1385056.0, 144368.61, 0.04181763, 9.999006, 10.001108 
1.8349725e+3, 1.5393654e+2, -1455007.9, -1276497.4, -2703.5679, -0.001780324, -0.17785221, -1276456.5, 154950.63, 0.015997248, 9.99904, 10.001426 
1.8349947e+3, 1.6393681e+2, -1472131.1, -1423574.8, -49959.395, -0.15007, -0.20111258, -1392306.9, -58905.582, 0.0034491862, 9.999048, 9.999733 
1.8350182e+3, 1.7393768e+2, -1383473.6, -1308810.6, -52843.836, -0.0907747, -0.13735501, -1281442.0, -46045.26, 0.00021871291, 9.998921, 9.999892 
1.835042e+3, 1.8393786e+2, -1246045.6, -1187487.9, -52217.387, -0.030194899, -0.099411204, -1156901.0, -19505.318, 0.00000018976193, 9.999156, 9.999957 
1.8350649e+3, 1.9393647e+2, -987967.06, -979254.94, -3716.0264, -0.040686414, -0.29546517, -977885.25, 61519.934, 0.0, 10.000157, 10.000209 
1.8350878e+3, 2.0393592e+2, -923545.56, -1045236.9, -35414.2, -0.04931179, -0.29951546, -913989.8, 27419.553, 0.0, 10.000519, 9.998924 
1.8351108e+3, 2.1393687e+2, -886326.8, -957723.4, -54040.594, 0.003856334, -0.14693503, -857258.2, -13853.921, 0.0, 10.000053, 9.999055 
1.8351337e+3, 2.2393675e+2, -812696.7, -913360.2, -62999.363, 0.01291436, -0.03558698, -782392.2, -36984.05, 0.0, 10.000019, 9.998742 
1.835156e+3, 2.3393495e+2, -584556.7, -715286.5, -25052.662, -0.045473542, -0.151024, -579920.1, 67506.59, 0.0, 10.0007925, 9.999036 
1.8351783e+3, 2.4393395e+2, -479017.25, -641008.2, -52859.54, -0.09669607, -0.1336632, -463294.56, 86142.07, 0.0, 10.00092, 9.998831 
1.8352002e+3, 2.53934e+2, -439940.8, -543994.3, -33137.914, -0.10199726, -0.06822466, -430283.66, 21151.37, 0.0, 10.000431, 9.999037 
1.8352231e+3, 2.63933e+2, -369446.28, -503180.22, -4735.15, -0.07498049, -0.03760346, -369278.8, -15835.606, 0.000000090536304, 10.00041, 9.998668 
1.8352471e+3, 2.7393037e+2, -128525.5, -307694.84, 30630.693, -0.0059808777, -0.2354276, -123433.6, 132034.42, 0.00001528185, 10.001278, 9.998911 
1.8352701e+3, 2.8392893e+2, -73493.625, -343629.63, -25936.205, 0.0046918206, -0.2126776, -71025.99, 86456.34, 0.00015301355, 10.001452, 9.997915 
1.8352915e+3, 2.9392964e+2, -39595.76, -257658.98, -36924.23, -0.056848582, 0.0025230288, -33513.12, 25965.21, 0.0006077412, 10.000947, 9.998057 
1.8353146e+3, 3.0392763e+2, 41941.832, -186552.55, -29353.623, -0.021251606, 0.013957773, 45652.496, 45652.496, 0.0014712458, 10.00116, 9.998121 
1.8353379e+3, 3.1392235e+2, 326575.97, 102866.83, -10984.617, -0.04617762, -0.4246734, 327114.03, 327114.03, 0.0026387856, 10.002406, 9.99951 
1.8448994e+3, 1.2391188e+2, -1848204.4, -1506898.1, -33307.105, 0.1099392, -0.31392306, -1503678.1, 221970.47, 0.12272786, 9.9977, 10.002707 
1.8449217e+3, 1.339148e+2, -2035765.3, -2066138.8, 70035.4, -0.2390934, 0.16552036, -1979289.0, -351662.25, 0.08254445, 9.998188, 9.997742 
1.8449484e+3, 1.4390972e+2, -1609200.5, -1474409.6, 10102.023, 0.096186, -0.25632504, -1473656.8, 56021.676, 0.04459436, 9.998929, 10.000814 
1.8449718e+3, 1.5391211e+2, -1447001.4, -1286134.9, -3886.7202, 0.0318714, -0.19186972, -1286041.0, 145607.36, 0.017215712, 9.999152, 10.001304 
1.8449944e+3, 1.6391319e+2, -1478647.1, -1425096.6, -46665.48, -0.07194598, -0.12764055, -1398070.6, -64435.41, 0.0037916328, 9.999011, 9.999746 
1.8450177e+3, 1.7391372e+2, -1377751.9, -1300240.5, -59262.73, -0.02153782, -0.098130465, -1268186.1, -32552.088, 0.00025177147, 9.998956, 9.999935 
1.8450414e+3, 1.8391375e+2, -1267072.1, -1170319.3, -9197.083, 0.029299773, -0.08739757, -1169452.8, -31819.176, 0.00000025167606, 9.998894, 10.000197 
1.8450648e+3, 1.9391255e+2, -1115279.6, -1011973.7, -28480.162, -0.014860151, -0.2911553, -1004642.3, 34997.17, 0.0, 9.999151, 10.000466 
1.845088e+3, 2.0391199e+2, -1040663.75, -1097380.9, -39297.176, -0.028407058, -0.31560728, -1020561.25, -78918.016, 0.0, 9.999703, 9.998964 
1.8451114e+3, 2.1391253e+2, -746712.75, -890505.4, -32630.5, 0.02010167, -0.19661425, -739654.44, 103987.71, 0.0, 10.001024, 9.999058 
1.8451345e+3, 2.2391266e+2, -591926.5, -770127.2, 1803.0355, 0.040438373, -0.07783733, -591908.25, 153735.9, 0.0, 10.001388, 9.999054 
1.8451567e+3, 2.3391186e+2, -618263.9, -694722.9, -10027.636, -0.025715632, -0.12816368, -616970.6, 30682.635, 0.0, 10.000397, 9.999354 
1.8451792e+3, 2.4391124e+2, -570163.8, -678048.25, -4986.0776, -0.04969756, -0.09660709, -569933.8, -20274.344, 0.0, 10.000292, 9.998858 
1.845202e+3, 2.5391078e+2, -269862.2, -467210.44, -35856.594, -0.0178061, -0.07640509, -263549.25, 188113.22, 0.0, 10.001621, 9.998985 
1.8452251e+3, 2.6390952e+2, -160855.64, -420286.6, -14761.713, 0.0115939155, -0.06595585, -160018.4, 193654.95, 0.00000009817215, 10.001922, 9.998508 
1.845248e+3, 2.7390704e+2, -227881.05, -378975.78, -63453.254, 0.0027934003, -0.22078021, -204768.8, 50927.707, 0.000013983738, 10.000699, 9.998698 
1.8452708e+3, 2.839055e+2, -211333.98, -403432.34, -63830.164, 0.0048837364, -0.19617917, -192058.69, -34346.855, 0.00014297613, 10.000476, 9.997978 
1.8452933e+3, 2.9390574e+2, 100428.73, -173808.88, -63405.68, 0.008801909, -0.034979403, 114378.94, 174091.1, 0.0005747027, 10.001839, 9.998208 
1.845318e+3, 3.039034e+2, 291284.16, -100555.625, 43426.67, 0.10577071, -0.05669635, 296039.3, 296039.3, 0.0014161514, 10.003012, 9.9978285 
1.8453416e+3, 3.1389925e+2, 503661.16, 139211.53, -117915.24, 0.046709932, -0.32276914, 538484.44, 538484.44, 0.0025925355, 10.003807, 9.99909 
1.8548964e+3, 1.2388967e+2, -1760468.5, -1409637.3, -65844.39, -0.06302831, -0.18765397, -1397686.6, 328180.72, 0.13014582, 9.99795, 10.003393 
1.8549241e+3, 1.3389297e+2, -1998096.5, -1995252.0, 125802.164, 0.1494859, 0.24307333, -1870864.0, -243028.75, 0.08765755, 9.998203, 9.998227 
1.8549465e+3, 1.4388391e+2, -1673583.8, -1637185.5, 8803.908, -0.05316002, -0.53579766, -1635167.9, -105242.086, 0.04753598, 9.999064, 9.999619 
1.8549709e+3, 1.5388824e+2, -1506525.5, -1427522.6, 15069.704, -0.009796965, -0.16527928, -1424745.8, 7138.934, 0.01851746, 9.999231, 10.000283 
1.8549943e+3, 1.6389064e+2, -1448546.6, -1379359.1, -73462.09, -0.031457685, 0.06987253, -1332753.1, 1109.1583, 0.0041650403, 9.999084, 10.000022 
1.8550174e+3, 1.7388986e+2, -1356949.6, -1254945.1, -47404.98, 0.01660458, -0.06714349, -1236316.5, -446.13, 0.00029041685, 9.998938, 10.000257 
1.8550406e+3, 1.8388943e+2, -1282646.3, -1202353.9, -20755.195, 0.02706147, -0.10974603, -1197306.1, -59432.56, 0.0000003514084, 9.998895, 9.99998 
1.855064e+3, 1.9388972e+2, -1147935.3, -1055850.6, -7905.4297, -0.029460378, -0.13534582, -1055176.9, -15309.29, 0.0, 9.999045, 10.000218 
1.8550876e+3, 2.038895e+2, -1028434.0, -1025409.75, -11055.954, -0.084052555, -0.13517572, -1015763.0, -73895.37, 0.0, 9.999503, 9.999555 
1.8551116e+3, 2.1388856e+2, -735194.7, -807962.25, 32226.209, -0.09656971, -0.24050702, -722974.94, 120902.08, 0.0, 10.000774, 9.999743 
1.8551348e+3, 2.2388846e+2, -616717.3, -751061.94, -41880.47, -0.10596757, -0.19323558, -604730.94, 141147.5, 0.0, 10.001075, 9.999341 
1.8551566e+3, 2.3388956e+2, -638455.44, -683537.56, -31737.705, -0.10628556, -0.07347998, -622068.56, 25800.707, 0.0, 10.000161, 9.99955 
1.8551794e+3, 2.4388915e+2, -637781.4, -746307.56, 20783.39, -0.07850175, -0.014470511, -633937.44, -84063.984, 0.0, 9.999981, 9.998537 
1.8552043e+3, 2.5388637e+2, -333537.1, -530628.9, 31684.652, 0.014372461, -0.19928043, -328568.7, 123329.836, 0.0, 10.001333, 9.998681 
1.8552274e+3, 2.6388457e+2, -258800.78, -542582.25, -70115.33, 0.00873444, -0.19891487, -242422.33, 111493.78, 0.00000008466028, 10.001576, 9.997834 
1.8552475e+3, 2.738841e+2, -321191.38, -507483.6, -85598.27, -0.14324528, -0.081169195, -287833.47, -31909.621, 0.000011476472, 10.000429, 9.997941 
1.8552697e+3, 2.8388274e+2, -224524.83, -355423.63, -43086.45, -0.19678514, -0.015943173, -211615.66, -53678.15, 0.00012753624, 10.000146, 9.998473 
1.8552947e+3, 2.938802e+2, 110427.83, -68063.77, 12533.003, -0.08106883, -0.21149832, 111303.555, 171262.1, 0.0005324824, 10.001477, 9.999109 
1.8553205e+3, 3.0387717e+2, 151849.39, -270668.94, 49542.03, 0.044602685, -0.318556, 157580.66, 157580.66, 0.0013398622, 10.002501, 9.9969015 
1.8553461e+3, 3.1387803e+2, 336182.44, -4380.6646, -64689.26, 0.04567503, 0.027631579, 348056.06, 348056.06, 0.0024846024, 10.002967, 9.998486 
1.864893e+3, 1.2386578e+2, -1810802.4, -1443724.8, -120349.766, -0.16806744, -0.16131394, -1407785.6, 318316.4, 0.1378835, 9.997726, 10.003227 
1.8649243e+3, 1.3386975e+2, -1841576.4, -1813943.0, 102287.875, 0.3397217, 0.23074426, -1724542.9, -96482.63, 0.09301642, 9.998846, 9.999145 
1.8649447e+3, 1.4386092e+2, -1748623.4, -1700155.5, 60213.254, -0.09092662, -0.5640086, -1659482.5, -129335.06, 0.050644647, 9.998676, 9.99937 
1.8649699e+3, 1.5386532e+2, -1617219.4, -1517204.6, 74780.9, 0.0058723716, -0.15341704, -1477251.4, -45143.41, 0.01991141, 9.99864, 9.999952 
1.864994e+3, 1.6386756e+2, -1490449.8, -1416541.1, 48585.664, 0.052128553, 0.09279011, -1392452.9, -58364.863, 0.0045744055, 9.9988575, 9.999872 
1.8650173e+3, 1.7386605e+2, -1242554.9, -1206616.5, 12277.32, 0.08053368, -0.11503976, -1202822.8, 33279.61, 0.0003360051, 9.99976, 10.000177 
1.8650407e+3, 1.8386549e+2, -1132889.4, -1154726.4, 39863.227, 0.08805791, -0.15865064, -1102476.4, 35630.54, 0.00000050835786, 10.000021, 9.999766 
1.8650638e+3, 1.9386664e+2, -1071122.3, -1045209.0, 19955.346, 0.01831875, -0.07712182, -1034372.94, 5721.9272, 0.0, 9.999676, 9.999996 
1.8650873e+3, 2.0386676e+2, -1033605.06, -1019232.44, 61408.2, -0.036347106, -0.03708401, -964591.5, -22499.15, 0.0, 9.999417, 9.999644 
1.8651116e+3, 2.1386513e+2, -910877.06, -881663.94, 36833.223, -0.08896754, -0.22164871, -856646.8, -12540.287, 0.0, 9.999496, 9.99986 
1.8651353e+3, 2.2386454e+2, -799360.6, -852423.9, -66011.1, -0.09148986, -0.22440356, -754748.75, -8636.789, 0.0, 9.999892, 9.999219 
1.8651576e+3, 2.3386563e+2, -545180.2, -656258.94, -125782.836, -0.04527404, -0.085892744, -463220.7, 184883.4, 0.0, 10.000896, 9.999389 
1.8651809e+3, 2.4386522e+2, -439159.72, -646465.6, -36609.813, 0.0101359105, -0.016757082, -432884.44, 117223.914, 0.0, 10.001314, 9.99859 
1.8652056e+3, 2.5386244e+2, -404006.2, -557432.7, -22488.201, 0.055738095, -0.20529531, -400777.94, 51354.41, 0.0, 10.000816, 9.998752 
1.8652286e+3, 2.6386043e+2, -356004.34, -582024.56, -67685.48, 0.04309003, -0.22915278, -337285.16, 16865.703, 0.000000065173005, 10.000877, 9.997901 
1.8652491e+3, 2.7385974e+2, -106149.23, -401748.34, -76553.69, -0.07695354, -0.13783692, -87500.06, 168660.55, 0.000009433609, 10.00189, 9.997971 
1.8652715e+3, 2.8385848e+2, 75241.76, -229997.48, 29507.396, -0.11346758, -0.056372125, 78068.055, 236240.83, 0.00011541344, 10.0023, 9.9982815 
1.8652964e+3, 2.9385623e+2, 145222.63, -80545.37, -32237.46, -0.06294927, -0.19424449, 149735.61, 209926.81, 0.0004967766, 10.001847, 9.998836 
1.865322e+3, 3.0385247e+2, 53464.797, -322974.9, 45124.08, -0.0030706339, -0.35342935, 58798.28, 58798.28, 0.0012631787, 10.001825, 9.996863 
1.8653496e+3, 3.1385377e+2, 294215.72, -10661.54, -111750.87, 0.12823169, 0.03530269, 330789.75, 330789.75, 0.0023412816, 10.002567, 9.998641 
1.8748896e+3, 1.2384047e+2, -1872511.3, -1565248.5, -270065.16, -0.37680012, -0.27521867, -1408174.6, 318175.72, 0.14588223, 9.997832, 10.002296 
1.8749222e+3, 1.3384506e+2, -1755251.8, -1649770.4, 115424.54, 0.19924112, 0.09938703, -1575607.9, 52694.24, 0.0986057, 9.998906, 10.000276 
1.8749425e+3, 1.4384083e+2, -1683893.0, -1594461.0, 38441.21, -0.23031524, -0.33603728, -1580208.8, -49866.375, 0.053927336, 9.998789, 10.000043 
1.8749681e+3, 1.5384322e+2, -1585712.0, -1460996.3, 90464.305, -0.067256525, -0.16608053, -1413480.1, 18839.203, 0.021407956, 9.998667, 10.000333 
1.874993e+3, 1.6384394e+2, -1506802.1, -1467849.9, 63427.355, 0.01608362, -0.076940075, -1420975.8, -86662.98, 0.0050250688, 9.998937, 9.999483 
1.8750168e+3, 1.7384224e+2, -1281908.4, -1285877.5, 60038.023, 0.028999187, -0.24630985, -1223822.1, 12507.996, 0.00038988978, 9.99974, 9.999653 
1.8750404e+3, 1.8384174e+2, -1149902.9, -1182683.6, 10517.672, 0.017733745, -0.24852622, -1146818.5, -8482.653, 0.000000733184, 9.999994, 9.999588 
1.8750633e+3, 1.9384322e+2, -1102245.1, -1080813.5, 18685.736, -0.0072555183, -0.113251224, -1069988.9, -29666.652, 0.0, 9.999558, 9.999808 
1.8750869e+3, 2.0384362e+2, -1076315.1, -1078218.1, 42082.563, -0.05052009, -0.019467484, -1035173.3, -92854.88, 0.0, 9.99928, 9.9993105 
1.8751112e+3, 2.1384229e+2, -969878.2, -952902.0, 52413.914, -0.102015, -0.13662691, -908293.4, -63962.848, 0.0, 9.999275, 9.999478 
1.8751353e+3, 2.2384101e+2, -894801.0, -979124.7, -49673.324, -0.09755688, -0.1550315, -871808.7, -125464.94, 0.0, 9.999572, 9.998508 
1.8751593e+3, 2.3383994e+2, -634145.25, -777814.25, -71111.03, 0.015806355, -0.16323084, -604900.7, 43457.484, 0.0, 10.000625, 9.998681 
1.8751828e+3, 2.4383922e+2, -460641.06, -615260.44, -64715.145, 0.050106857, -0.105417855, -437129.94, 113236.07, 0.0, 10.000981, 9.998972 
1.8752056e+3, 2.5383878e+2, -407764.44, -497776.63, -21614.846, -0.037901014, -0.11504606, -402843.1, 49522.824, 0.0, 10.000532, 9.999299 
1.8752287e+3, 2.6383716e+2, -359893.9, -523004.44, -51319.71, -0.059592523, -0.15829621, -345090.63, 9287.422, 0.00000004605578, 10.000571, 9.998463 
1.8752524e+3, 2.7383408e+2, -106424.23, -334397.7, -15582.538, 0.035194043, -0.35904503, -105364.055, 151041.45, 0.000008319171, 10.001591, 9.998584 
1.8752757e+3, 2.8383282e+2, -44415.805, -394935.9, 9.598156, 0.02732024, -0.27328902, -44415.805, 114001.34, 0.00010877433, 10.001938, 9.997327 
1.875298e+3, 2.9383335e+2, 111.73403, -291454.97, -18041.703, -0.11608631, -0.013850803, 1223.885, 61638.36, 0.00047285456, 10.001469, 9.997568 
1.8753217e+3, 3.0382884e+2, 29278.021, -260615.56, 43675.78, -0.268076, -0.20591554, 35715.332, 35715.332, 0.0011966277, 10.001362, 9.997509 
1.8753527e+3, 3.1382602e+2, 215532.55, 45880.99, -24206.766, 0.14075129, -0.32118407, 218918.9, 218918.9, 0.0021936095, 10.001678, 9.999437 
1.8848884e+3, 1.23816825e+2, -1840596.3, -1644950.9, -208424.03, -0.27569947, -0.23766813, -1512534.9, 214046.56, 0.15411249, 9.998408, 10.001416 
1.8849212e+3, 1.338189e+2, -1835105.5, -1678454.5, 66492.61, 0.24630755, -0.11422257, -1654036.9, -25477.191, 0.10442951, 9.998267, 10.000377 
1.8849412e+3, 1.4381932e+2, -1652047.0, -1561573.3, -46789.242, -0.23836266, -0.1039322, -1541728.6, -11173.928, 0.057399224, 9.998972, 10.000154 
1.8849672e+3, 1.5381941e+2, -1517912.9, -1421810.1, -69740.13, -0.038924344, -0.16628237, -1385170.1, 47383.008, 0.023018045, 9.99916, 10.000333 
1.8849921e+3, 1.6381924e+2, -1509216.0, -1453614.5, -56429.836, 0.06712561, -0.17200644, -1418508.9, -83954.41, 0.005521801, 9.998846, 9.999624 
1.885016e+3, 1.7381883e+2, -1452112.1, -1347274.5, -35644.848, 0.04539571, -0.23054998, -1336303.3, -99744.555, 0.0004532519, 9.998473, 9.999845 
1.8850398e+3, 1.8381874e+2, -1368330.0, -1309736.0, -12052.942, 0.043959208, -0.19351138, -1307353.6, -168793.47, 0.0000010252129, 9.998586, 9.999387 
1.8850636e+3, 1.9381906e+2, -1070332.4, -1088440.3, -30087.602, 0.048503384, -0.15496975, -1047966.0, -7408.089, 0.0, 9.999874, 9.999592 
1.8850873e+3, 2.0381899e+2, -928328.8, -1033484.9, 2191.899, 0.02385996, -0.089581974, -928283.2, 14276.131, 0.0, 10.000415, 9.999069 
1.885111e+3, 2.1381806e+2, -877691.2, -937600.56, -16352.217, -0.06446162, -0.1366119, -873518.44, -28950.17, 0.0, 10.000026, 9.999227 
1.8851353e+3, 2.2381698e+2, -839967.0, -939823.6, -23131.71, -0.06531792, -0.12716095, -834868.8, -88288.82, 0.0, 9.999922, 9.998587 
1.8851599e+3, 2.3381563e+2, -646656.25, -775143.7, -12017.1455, 0.034473553, -0.16920958, -645542.0, 3054.077, 0.0, 10.000513, 9.998744 
1.8851839e+3, 2.4381487e+2, -476960.0, -623178.6, 10593.569, 0.081213824, -0.11766274, -476196.5, 74407.54, 0.0, 10.000887, 9.998951 
1.8852068e+3, 2.5381476e+2, -353524.0, -483193.1, -38762.664, 0.01005874, -0.08595714, -342820.06, 109781.58, 0.0, 10.000955, 9.999193 
1.8852302e+3, 2.6381314e+2, -287692.47, -478377.16, -49235.137, 0.013937731, -0.12434471, -275730.3, 78883.164, 0.000000017635879, 10.001056, 9.998517 
1.8852544e+3, 2.738097e+2, -132041.98, -325854.5, -82546.125, 0.09389539, -0.37329802, -101650.62, 154992.27, 0.000007223604, 10.001369, 9.998719 
1.8852781e+3, 2.8380817e+2, -76662.56, -439309.66, -35037.035, 0.10475946, -0.31163356, -73308.49, 85348.21, 0.00010058898, 10.001858, 9.997057 
1.8853013e+3, 2.938084e+2, 167931.28, -255716.53, -45172.207, 0.021963753, -0.045578327, 172694.3, 233352.39, 0.00044370364, 10.002802, 9.997178 
1.8853237e+3, 3.0380443e+2, 298296.8, -59373.945, 69861.62, -0.24086754, -0.19463982, 311458.16, 311458.16, 0.0011208182, 10.002843, 9.9982195 
1.8853544e+3, 3.138018e+2, 125702.82, 19966.307, -93723.8, 0.19090027, -0.3649083, 180441.27, 180441.27, 0.002039731, 10.000928, 9.999655 
1.8948889e+3, 1.23794705e+2, -1857436.4, -1759747.5, -90744.33, -0.17328316, -0.054409903, -1705537.0, 21259.51, 0.16258536, 9.998717, 10.000341 
1.89492e+3, 1.337915e+2, -1878487.3, -1775009.8, 110507.625, 0.27920732, -0.37434313, -1704728.6, -75898.3, 0.110513955, 9.998281, 9.999723 
1.8949401e+3, 1.4379631e+2, -1666599.8, -1601625.4, -46215.81, -0.29648575, 0.11636654, -1577620.9, -46835.86, 0.06108175, 9.999024, 9.999848 
1.8949667e+3, 1.5379375e+2, -1555139.9, -1500347.6, -51974.203, -0.04478973, -0.15808147, -1468991.1, -36180.33, 0.024752133, 9.999167, 9.999785 
1.8949911e+3, 1.6379327e+2, -1432676.5, -1330119.4, -90228.555, 0.016143024, -0.19733341, -1277616.0, 57199.117, 0.0060684755, 9.998988, 10.000407 
1.8950143e+3, 1.7379566e+2, -1381676.8, -1205557.1, -40082.48, -0.008385831, -0.072842956, -1196864.0, 39925.676, 0.0005270964, 9.998487, 10.0008135 
1.8950385e+3, 1.8379633e+2, -1366698.4, -1311229.9, 10577.47, 0.004241879, -0.012710829, -1309281.4, -170499.94, 0.0000013718216, 9.998617, 9.999354 
1.8950637e+3, 1.9379438e+2, -1101581.4, -1125814.0, 28102.803, 0.037148453, -0.18391344, -1083094.3, -42294.62, 0.0, 9.999764, 9.999383 
1.895088e+3, 2.0379302e+2, -967639.94, -1078898.6, -20992.018, 0.0025560388, -0.22528753, -963811.0, -20998.084, 0.0, 10.000247, 9.998847 
1.8951109e+3, 2.1379253e+2, -921818.8, -980795.0, -14663.989, -0.10331229, -0.21080132, -918373.94, -73555.12, 0.0, 9.999811, 9.999039 
1.8951344e+3, 2.2379231e+2, -833595.7, -853825.56, -21930.28, -0.15494543, -0.13648102, -819560.06, -72738.62, 0.0, 9.999607, 9.999329 
1.895159e+3, 2.3379263e+2, -622594.2, -665737.44, 30174.984, -0.1324008, -0.10200031, -607073.1, 41745.023, 0.0, 10.0002575, 9.999617 
1.8951836e+3, 2.437922e+2, -562986.06, -735750.9, -2162.7485, -0.0742925, -0.03865802, -562959.0, -12136.821, 0.0, 10.0005865, 9.998331 
1.8952085e+3, 2.537904e+2, -446192.38, -617821.06, -19640.152, 0.060994275, -0.09719517, -443973.53, 8865.92, 0.0, 10.000703, 9.998391 
1.8952323e+3, 2.6378834e+2, -361528.16, -564790.7, -55652.887, 0.096357115, -0.116331846, -347288.13, 7570.3716, 0.0000000071100716, 10.000765, 9.998064 
1.8952547e+3, 2.737862e+2, -202122.4, -397935.94, -50611.98, -0.044653885, -0.20109864, -189814.34, 67061.95, 0.0000064443307, 10.001063, 9.998366 
1.8952785e+3, 2.8378418e+2, -107956.586, -422254.13, -25599.111, -0.07056999, -0.18257673, -105885.23, 53008.992, 0.0000894982, 10.001493, 9.997352 
1.8953058e+3, 2.9378134e+2, 117370.92, -257305.42, 22389.135, 0.14714013, -0.26339862, 118704.06, 179626.53, 0.00040238924, 10.002351, 9.997388 
1.8953274e+3, 3.0377918e+2, 265059.94, 4922.8535, -3390.902, -0.20422323, -0.26973185, 265104.16, 265104.16, 0.0010279405, 10.002303, 9.9989 
1.8953536e+3, 3.137807e+2, -58746.0, -134442.48, -47377.234, -0.03567378, -0.10785023, -35955.215, -35955.215, 0.0018811835, 10.000034, 9.998986 
1.9048885e+3, 1.2376991e+2, -1792428.6, -1817907.1, -27880.914, -0.12085333, -0.015775513, -1774514.4, -47475.914, 0.1713416, 9.999649, 9.999419 
1.9049184e+3, 1.3376595e+2, -1703059.5, -1631361.4, 103621.77, 0.24453598, -0.47932446, -1557562.8, 71517.76, 0.11689223, 9.999306, 10.000216 
1.90494e+3, 1.4377245e+2, -1718898.0, -1645995.1, 38999.574, -0.18639974, 0.17104799, -1629064.3, -98045.82, 0.06499328, 9.998698, 9.999733 
1.904966e+3, 1.537694e+2, -1561815.9, -1494642.0, 41432.414, -0.018886207, -0.15953054, -1474893.0, -41844.348, 0.026617203, 9.999025, 9.999927 
1.9049901e+3, 1.6376893e+2, -1431014.5, -1355560.0, 29494.01, 0.023952313, -0.19498602, -1345399.5, -10346.321, 0.0066676727, 9.999129, 10.000165 
1.9050136e+3, 1.737711e+2, -1237189.8, -1163651.4, -46299.18, 0.01781225, -0.06421965, -1141297.0, 95733.86, 0.0006122247, 9.999621, 10.000545 
1.9050379e+3, 1.837715e+2, -1211128.5, -1232587.8, -5462.3975, 0.053579282, -0.017784473, -1209818.1, -70792.43, 0.0000017786746, 9.99968, 9.99939 
1.9050635e+3, 1.9376954e+2, -1133319.6, -1135501.1, -259.2734, 0.07738541, -0.19056948, -1133289.3, -92245.94, 0.0, 9.999525, 9.999448 
1.9050881e+3, 2.0376836e+2, -1064377.8, -1075815.0, -7649.2695, 0.055481125, -0.23113847, -1060545.8, -117491.86, 0.0, 9.999406, 9.999248 
1.905111e+3, 2.1376826e+2, -904917.5, -922555.06, 4148.3247, -0.05470088, -0.22137992, -903990.56, -58935.46, 0.0, 9.99974, 9.999454 
1.9051346e+3, 2.2376816e+2, -744834.6, -811451.9, 53758.305, -0.120689146, -0.16158548, -714902.25, 32153.375, 0.0, 10.000194, 9.99935 
1.9051594e+3, 2.3376808e+2, -528321.56, -630226.75, 14448.66, -0.1438396, -0.16288659, -526312.56, 122742.04, 0.0, 10.000916, 9.9995575 
1.9051844e+3, 2.4376737e+2, -467433.03, -712064.0, -26806.08, -0.07086185, -0.11605542, -464530.13, 86530.99, 0.0, 10.001365, 9.998104 
1.9052102e+3, 2.5376534e+2, -329740.5, -585249.0, -43654.266, 0.13354461, -0.17295347, -322487.9, 130594.766, 0.0, 10.00162, 9.998162 
1.9052345e+3, 2.6376337e+2, -218322.19, -523812.16, -11044.329, 0.18252067, -0.15913689, -217923.42, 137178.86, 0.000000016068412, 10.0018425, 9.997836 
1.9052559e+3, 2.737618e+2, -66951.48, -371463.8, -37551.438, -0.055106957, -0.15800266, -62389.113, 194726.86, 0.000006020835, 10.002093, 9.998079 
1.9052802e+3, 2.8375968e+2, -10758.362, -342515.25, 29006.438, -0.07731199, -0.14777894, -8241.344, 150893.9, 0.00007835106, 10.002003, 9.997663 
1.9053087e+3, 2.9375613e+2, 33497.99, -246703.05, 27180.28, 0.2512874, -0.33871564, 36110.2, 97279.37, 0.00035568743, 10.001559, 9.997835 
1.9053301e+3, 3.0375516e+2, 143256.56, -28959.248, 2758.1582, -0.0918338, -0.26184002, 143300.73, 143300.73, 0.00092660607, 10.001369, 9.999121 
1.9053556e+3, 3.1375587e+2, 129296.2, -95746.1, -152010.17, 0.10579931, -0.1845633, 205899.61, 205899.61, 0.001727788, 10.001467, 9.998606 
1.9148879e+3, 1.23742074e+2, -1903049.8, -2060856.4, -87683.32, -0.2421144, -0.18165281, -1863995.0, -136684.22, 0.18042894, 9.9997225, 9.997707 
1.914916e+3, 1.3374178e+2, -1601871.3, -1443369.8, 79031.875, 0.047490634, -0.4605351, -1410697.6, 218616.72, 0.12358676, 9.999334, 10.001624 
1.9149399e+3, 1.4374736e+2, -1672322.8, -1598809.3, 18757.277, -0.13064869, 0.04934585, -1594299.9, -63041.38, 0.069141634, 9.998902, 9.999962 
1.9149642e+3, 1.537464e+2, -1490575.0, -1354532.4, 61642.78, -0.12662333, -0.16376519, -1330756.5, 102510.31, 0.028615344, 9.99905, 10.000894 
1.9149886e+3, 1.6374645e+2, -1501641.1, -1529363.1, 25589.059, -0.08735681, -0.15287365, -1486400.1, -151133.23, 0.0073205116, 9.999244, 9.998915 
1.915013e+3, 1.7374532e+2, -1356578.6, -1404843.5, -17800.219, -0.020338338, -0.19127949, -1350724.0, -113442.82, 0.00070924795, 9.999597, 9.998896 
1.9150378e+3, 1.8374434e+2, -1204886.6, -1229412.5, -30818.758, 0.015713396, -0.1874944, -1183980.6, -44688.54, 0.0000023137907, 9.999712, 9.999402 
1.915063e+3, 1.9374456e+2, -1127417.1, -1097866.0, 5649.7983, 0.039286654, -0.17126513, -1096822.6, -55533.973, 0.0, 9.999413, 9.999763 
1.9150876e+3, 2.0374489e+2, -1030357.3, -968035.56, -14125.771, 0.013920913, -0.11559277, -964983.3, -21699.703, 0.0, 9.999236, 10.000072 
1.915111e+3, 2.1374513e+2, -870549.9, -803083.5, 28288.656, -0.062471174, -0.16411594, -792791.94, 52486.688, 0.0, 9.999524, 10.000377 
1.9151351e+3, 2.2374442e+2, -835586.25, -924731.6, 63921.96, -0.1244336, -0.19248511, -802231.1, -54947.633, 0.0, 9.999868, 9.998732 
1.9151606e+3, 2.3374218e+2, -632357.6, -772303.75, 57070.277, -0.13534394, -0.3252652, -612035.4, 37268.082, 0.0, 10.000613, 9.998724 
1.915186e+3, 2.4374041e+2, -514823.94, -728472.56, -30648.56, -0.084823556, -0.33684936, -510514.25, 40806.18, 0.0, 10.001007, 9.998167 
1.9152115e+3, 2.5373945e+2, -352857.4, -568816.4, -15299.072, 0.07414672, -0.30785418, -351778.97, 101552.93, 0.0, 10.001346, 9.9984045 
1.9152357e+3, 2.6373833e+2, -271167.56, -562407.0, -20453.71, 0.09339824, -0.2200158, -269738.13, 85606.2, 0.000000038925435, 10.001529, 9.997729 
1.9152579e+3, 2.737367e+2, -123781.49, -417886.9, -9199.92, -0.10605955, -0.21085213, -123493.99, 133866.61, 0.0000054500297, 10.001795, 9.997902 
1.915282e+3, 2.8373474e+2, -47519.69, -337667.03, -5195.292, -0.124329925, -0.18344088, -47426.695, 111953.01, 0.00006657065, 10.001655, 9.997865 
1.9153094e+3, 2.937324e+2, -15941.512, -240852.89, 37219.918, 0.15816554, -0.28115153, -9942.128, 51459.53, 0.00030471265, 10.001104, 9.998094 
1.9153315e+3, 3.037323e+2, 44793.28, -120366.26, -22590.453, -0.12860292, -0.11418276, 47827.453, 47827.453, 0.000814986, 10.000887, 9.998714 
1.9153565e+3, 3.1372944e+2, -3932.0134, -149749.38, -40386.426, 0.008576917, -0.37023413, 6506.4067, 6506.4067, 0.0015623207, 10.000583, 9.998621 
1.9248906e+3, 1.2371832e+2, -1892006.0, -2123701.0, 96762.19, 0.06340384, -0.012591208, -1856911.3, -129369.46, 0.18987963, 10.000067, 9.99713 
1.9249158e+3, 1.3371713e+2, -1516351.0, -1392135.5, -18178.66, 0.07725216, -0.42215195, -1389529.8, 240024.5, 0.13060497, 9.999913, 10.001779 
1.9249392e+3, 1.4372113e+2, -1745679.9, -1636213.4, -62719.938, -0.04262393, -0.063105434, -1607703.0, -76188.95, 0.07352615, 9.998448, 9.999901 
1.9249634e+3, 1.5372153e+2, -1564510.9, -1355031.9, -96847.41, -0.06378339, -0.16600543, -1317118.8, 116390.37, 0.030745408, 9.998425, 10.001175 
1.9249882e+3, 1.6372177e+2, -1599070.0, -1603850.8, -82287.49, -0.020781146, -0.14019842, -1519138.3, -183630.36, 0.008026891, 9.998698, 9.998661 
1.9250132e+3, 1.7372003e+2, -1337519.9, -1433067.9, -57017.74, 0.023442809, -0.20799653, -1310907.3, -73378.164, 0.0008187495, 9.999882, 9.99857 
1.9250378e+3, 1.8371895e+2, -1138499.5, -1177376.1, -13650.754, 0.058340605, -0.20605427, -1134185.1, 5356.028, 0.0000031359323, 10.0000515, 9.999599 
1.9250621e+3, 1.9371946e+2, -1136378.5, -1065378.3, -11001.049, 0.041902527, -0.194223, -1063712.8, -22179.713, 0.0, 9.99916, 10.000104 
1.9250865e+3, 2.0372005e+2, -1077828.1, -1001610.1, 14637.049, 0.023102885, -0.13436586, -998895.9, -55370.824, 0.0, 9.998952, 9.999982 
1.9251113e+3, 2.1372044e+2, -779098.7, -776581.44, -42989.523, -0.01730742, -0.14998129, -734832.1, 110687.77, 0.0, 10.00023, 10.000221 
1.9251361e+3, 2.2371978e+2, -699915.5, -841563.0, -20491.967, -0.042823162, -0.16872191, -697010.5, 50514.16, 0.0, 10.000747, 9.998872 
1.9251613e+3, 2.3371726e+2, -684865.7, -776548.56, 5063.457, -0.075233266, -0.3428552, -684586.9, -35040.523, 0.0, 10.000168, 9.99891 
1.925187e+3, 2.4371551e+2, -604218.75, -750037.7, 21366.71, -0.038296785, -0.37533665, -601152.44, -49589.69, 0.0, 10.000277, 9.998375 
1.9252129e+3, 2.537151e+2, -291463.53, -526981.9, 5677.0957, 0.07268854, -0.30846727, -291326.78, 162242.1, 0.0, 10.001678, 9.9985485 
1.9252376e+3, 2.6371422e+2, -160696.75, -520868.63, 1091.9624, 0.1093102, -0.20128937, -160693.44, 194886.45, 0.000000047147957, 10.00236, 9.997606 
1.9252604e+3, 2.7371216e+2, -112311.15, -432556.06, -35215.684, -0.016252328, -0.21485472, -108484.39, 149118.06, 0.0000044268, 10.001968, 9.997719 
1.9252844e+3, 2.8371024e+2, -64082.773, -319743.16, -9102.797, -0.021080859, -0.18221202, -63759.08, 95863.12, 0.000054025306, 10.001449, 9.998075 
1.9253103e+3, 2.937089e+2, -5717.2744, -217158.95, -19274.861, 0.14587015, -0.19955966, -3974.5566, 57659.3, 0.00025237876, 10.001072, 9.998275 
1.9253328e+3, 3.0370778e+2, 60412.324, -135661.52, 10449.567, -0.06427061, -0.13546965, 60967.652, 60967.652, 0.0006960178, 10.001075, 9.9985285 
1.9253594e+3, 3.1370562e+2, 173623.61, -27819.996, -58311.938, 0.20664349, -0.28808698, 189285.5, 189285.5, 0.0013738545, 10.001548, 9.99904 
1.9348918e+3, 1.2369324e+2, -1819429.4, -2003127.4, 176398.06, 0.090530574, -0.05431206, -1712400.3, 15384.351, 0.1997211, 10.000204, 9.997904 
1.9349161e+3, 1.3369206e+2, -1584245.0, -1526850.1, -66297.32, 0.07169567, -0.36513907, -1483305.8, 146494.05, 0.13795441, 9.999891, 10.0007305 
1.9349377e+3, 1.4369409e+2, -1746601.3, -1683658.0, -96307.67, -0.112892374, -0.13715254, -1613810.1, -82028.414, 0.07814733, 9.998629, 9.9994955 
1.9349633e+3, 1.5369484e+2, -1592734.5, -1430750.6, -87663.914, 0.039940316, -0.15434201, -1392391.6, 41383.73, 0.033007, 9.998487, 10.000621 
1.9349879e+3, 1.6369474e+2, -1525571.6, -1478131.8, -63021.46, 0.028920578, -0.16198029, -1434514.1, -98736.43, 0.008786739, 9.998804, 9.999478 
1.9350132e+3, 1.736951e+2, -1260975.9, -1278996.8, -1825.2185, 0.012867192, -0.1228984, -1260792.9, -23016.744, 0.00094156526, 9.999893, 9.999629 
1.9350378e+3, 1.8369526e+2, -1095314.9, -1097942.3, -56318.574, -0.0011100087, -0.083103225, -1040294.7, 99478.79, 0.0000044945964, 10.000092, 10.000127 
1.9350606e+3, 1.9369449e+2, -1124548.9, -1021100.44, -32612.484, -0.053418603, -0.23964107, -1011677.56, 30097.094, 0.0, 9.999066, 10.00046 
1.9350848e+3, 2.0369403e+2, -1167749.3, -1152645.5, 34196.55, -0.093116134, -0.26000527, -1125176.9, -181400.3, 0.0, 9.998794, 9.999024 
1.9351111e+3, 2.1369429e+2, -900317.5, -967532.1, 20087.47, -0.05754578, -0.17253008, -894771.8, -48994.008, 0.0, 9.999971, 9.999035 
1.9351369e+3, 2.2369412e+2, -701480.7, -755482.06, -48688.41, -0.056833882, -0.106914185, -672807.4, 74972.9, 0.0, 10.000366, 9.999644 
1.9351614e+3, 2.3369323e+2, -647247.56, -636076.75, -1278.2794, -0.11198821, -0.22873524, -635932.3, 13852.544, 0.0, 9.999903, 9.999999 
1.9351868e+3, 2.4369253e+2, -631979.5, -732714.2, 45514.19, -0.11649088, -0.22708808, -614461.56, -62672.02, 0.0, 9.999949, 9.998657 
1.935214e+3, 2.5369212e+2, -322141.25, -523694.53, 73264.95, -0.008497395, -0.17808875, -298323.8, 155471.39, 0.0, 10.001395, 9.998709 
1.9352399e+3, 2.6369077e+2, -237934.48, -586555.8, -25839.398, 0.060700096, -0.112774305, -236029.7, 119781.53, 0.00000001782158, 10.001965, 9.99734 
1.9352633e+3, 2.7368796e+2, -189216.63, -497427.03, -32825.7, 0.055445265, -0.17227162, -185759.34, 72084.02, 0.0000033385966, 10.00159, 9.99744 
1.9352867e+3, 2.8368625e+2, -110146.97, -338370.4, -51105.094, 0.027795993, -0.10778153, -99225.836, 60636.4, 0.00004416703, 10.001104, 9.998119 
1.9353104e+3, 2.9368562e+2, -38908.633, -206761.2, -10927.634, 0.0065443553, -0.07042461, -38200.207, 23665.473, 0.00021030588, 10.000744, 9.9985 
1.9353338e+3, 3.0368194e+2, -14902.289, -198033.52, 415.46844, -0.12821536, -0.26426017, -14901.346, -14901.346, 0.00059174973, 10.000675, 9.998291 
1.9353616e+3, 3.136822e+2, 88370.87, 15119.074, 40072.496, 0.20574577, -0.15973797, 106033.66, 106033.66, 0.0011892852, 10.000678, 9.999719 
1.9448902e+3, 1.23666845e+2, -1870040.5, -1782348.8, 179715.27, 0.001420889, -0.2523454, -1641208.0, 86835.09, 0.20999403, 9.998789, 10.0001955 
1.9449142e+3, 1.336678e+2, -1922201.0, -1756838.4, -76860.11, 0.02263332, -0.28303897, -1726631.9, -96595.19, 0.14565058, 9.997835, 10.000051 
1.9449376e+3, 1.4366847e+2, -1707804.4, -1674122.3, 18021.475, 0.025621649, -0.16446526, -1666297.6, -134265.03, 0.083007626, 9.998898, 9.999455 
1.9449632e+3, 1.5366933e+2, -1387703.4, -1361944.1, 5622.0396, 0.10921907, -0.14984995, -1360770.6, 73255.07, 0.03539992, 10.000007, 10.000385 
1.9449873e+3, 1.6366903e+2, -1331540.3, -1345330.3, 56474.508, 0.04318343, -0.17927271, -1281541.4, 54488.406, 0.009600047, 9.999969, 9.999835 
1.945013e+3, 1.736699e+2, -1312471.1, -1251687.1, 42828.242, 0.038001783, -0.13464533, -1229563.1, 8459.119, 0.0010784023, 9.999318, 10.000093 
1.9450378e+3, 1.836705e+2, -1229257.4, -1169211.0, -36427.016, 0.058524232, -0.07404487, -1152029.1, -12014.332, 0.0000066792873, 9.999225, 10.0000515 
1.9450606e+3, 1.9366966e+2, -937259.4, -945440.9, -86604.6, -0.017851824, -0.2214967, -854648.94, 187368.33, 0.0, 10.000455, 10.0002985 
1.9450848e+3, 2.0366885e+2, -901182.06, -1060935.3, 8914.068, -0.05797876, -0.25105122, -900686.2, 43336.684, 0.0, 10.000793, 9.998692 
1.9451115e+3, 2.1366827e+2, -924378.2, -1017746.3, 23125.432, -0.024105096, -0.2089092, -918964.44, -72932.21, 0.0, 9.999977, 9.998689 
1.9451374e+3, 2.2366787e+2, -816435.7, -813706.25, -10731.505, 0.00034051153, -0.14690648, -804253.06, -56215.656, 0.0, 9.99957, 9.999628 
1.9451621e+3, 2.3366767e+2, -629105.9, -628629.1, -67923.59, -0.030041667, -0.19765316, -560943.5, 89093.08, 0.0, 10.000011, 10.000009 
1.9451879e+3, 2.4366748e+2, -542268.06, -647055.06, 4403.6733, -0.023613678, -0.16314751, -542083.3, 9953.723, 0.0, 10.000406, 9.999024 
1.9452152e+3, 2.5366706e+2, -361723.7, -501058.44, 15966.451, 0.015534363, -0.15113002, -359917.47, 94124.35, 0.0, 10.000952, 9.999077 
1.9452414e+3, 2.6366574e+2, -303597.56, -568945.56, -59729.355, 0.06522498, -0.12298856, -290772.47, 65284.28, 0.000000002142629, 10.001271, 9.997806 
1.945265e+3, 2.7366337e+2, -205696.98, -461586.47, -53959.64, 0.08586255, -0.18244499, -194783.89, 63300.098, 0.0000030022966, 10.00124, 9.99788 
1.9452885e+3, 2.8366208e+2, -56660.03, -298429.1, 13668.426, 0.08423405, -0.10342649, -55889.74, 104208.63, 0.00003904193, 10.001404, 9.998255 
1.9453119e+3, 2.9366186e+2, 164818.98, -94552.9, 2194.7932, 0.03655086, -0.029571006, 164837.55, 226935.5, 0.00018459432, 10.002061, 9.998648 
1.945336e+3, 3.0365708e+2, 216091.38, -119069.9, 49063.93, -0.03759817, -0.33335298, 223126.14, 223126.14, 0.0005147773, 10.002428, 9.997968 
1.945363e+3, 3.1365782e+2, 333171.44, 110554.91, -22475.768, 0.21479914, -0.12137734, 335417.97, 335417.97, 0.0010277403, 10.002407, 9.999557 
1.9548902e+3, 1.23643115e+2, -1556349.1, -1271105.5, -77761.07, 0.010102232, -0.22450665, -1251284.3, 476994.4, 0.22070916, 9.999172, 10.004346 
1.9549103e+3, 1.3364457e+2, -1920980.0, -1786838.3, -39706.875, -0.18685432, -0.1727044, -1775965.9, -145703.05, 0.15369554, 9.997953, 9.999797 
1.9549386e+3, 1.4364433e+2, -1658438.9, -1613264.0, 57355.4, 0.1733054, -0.15391171, -1574208.6, -41942.938, 0.08810495, 9.999082, 9.999782 
1.9549623e+3, 1.5364501e+2, -1379214.9, -1355931.9, 54704.62, -0.011400173, -0.16619258, -1311643.8, 122616.195, 0.037922986, 10.000054, 10.000409 
1.9549857e+3, 1.6364472e+2, -1317560.4, -1352943.0, 14052.854, -0.17196925, -0.19286896, -1312658.3, 23605.404, 0.010466628, 10.000119, 9.999714 
1.955012e+3, 1.7364454e+2, -1320034.9, -1282217.3, 30004.545, -0.031076815, -0.23286979, -1265660.4, -27393.83, 0.0012294218, 9.999368, 9.999866 
1.9550376e+3, 1.8364468e+2, -1269174.0, -1264367.1, -13625.64, 0.059466157, -0.1738554, -1252934.6, -112669.24, 0.000009908067, 9.999283, 9.999366 
1.9550617e+3, 1.936449e+2, -1007412.1, -1064797.8, -28725.848, 0.0070102643, -0.13746113, -995503.8, 46757.938, 0.0, 10.000345, 9.99953 
1.955086e+3, 2.0364425e+2, -915414.25, -1042975.3, -30128.762, -0.0487085, -0.1201262, -908656.1, 35610.605, 0.0, 10.0005865, 9.998914 
1.9551112e+3, 2.1364225e+2, -931174.5, -973975.9, 5852.896, -0.06282253, -0.2593257, -930388.56, -84103.93, 0.0, 9.999737, 9.999099 
1.9551368e+3, 2.2364095e+2, -913388.2, -946302.6, -14159.412, -0.050135728, -0.280166, -908135.25, -159838.22, 0.0, 9.999264, 9.99887 
1.9551629e+3, 2.3364073e+2, -734016.3, -782544.94, -34984.426, 0.024678474, -0.242295, -715705.2, -65404.29, 0.0, 9.999747, 9.999074 
1.9551893e+3, 2.4364048e+2, -576570.8, -633362.8, 11352.614, 0.04064532, -0.17072874, -574385.56, -22081.459, 0.0, 10.000041, 9.999291 
1.9552162e+3, 2.5363997e+2, -370057.38, -447502.94, 55438.344, -0.008047488, -0.21935251, -341157.22, 113151.18, 0.0, 10.000655, 9.999578 
1.9552419e+3, 2.636393e+2, -280942.4, -439128.72, -76590.4, -0.05345306, -0.20020764, -249936.44, 106377.945, 0.00000003752054, 10.000908, 9.998876 
1.955265e+3, 2.736385e+2, -166461.95, -312356.8, -38624.727, -0.06913551, -0.22573227, -156867.3, 101456.28, 0.0000033251551, 10.000955, 9.999039 
1.9552888e+3, 2.8363797e+2, -117968.06, -324120.25, 11563.944, -0.049316462, -0.1352442, -117321.42, 43007.645, 0.000036409245, 10.000974, 9.998282 
1.9553144e+3, 2.9363793e+2, 98669.34, -120058.93, 52420.023, 0.047776993, -0.04004364, 110583.29, 172911.92, 0.00016708692, 10.001599, 9.998685 
1.9553389e+3, 3.036333e+2, 99652.36, -246884.2, 19880.11, -0.038455117, -0.30551124, 100789.12, 100789.12, 0.00045041234, 10.001916, 9.99735 
1.9553642e+3, 3.1363225e+2, 180685.03, -36063.563, 7554.356, 0.04150849, -0.20661074, 180948.02, 180948.02, 0.00087258307, 10.001726, 9.998854 
1.96489e+3, 1.23619564e+2, -1626778.9, -1181128.9, -101364.92, 0.15895109, -0.20215966, -1159156.4, 569351.1, 0.23177752, 9.997938, 10.005743 
1.9649096e+3, 1.3361993e+2, -1837614.0, -1850590.8, -56666.953, -0.09206053, -0.15929633, -1787065.3, -156562.45, 0.1620495, 9.999077, 9.998763 
1.9649382e+3, 1.436186e+2, -1644549.6, -1606863.5, 18939.254, 0.22989124, -0.19535369, -1598990.4, -66472.91, 0.093428105, 9.999207, 9.999737 
1.9649614e+3, 1.5361977e+2, -1472427.3, -1387551.4, -25055.97, -0.050152376, -0.16585466, -1380706.6, 53799.97, 0.04057487, 9.999366, 10.000488 
1.9649853e+3, 1.6361973e+2, -1435150.5, -1408373.3, -58154.613, -0.17464346, -0.17885259, -1362086.0, -25578.088, 0.011385711, 9.999314, 9.999713 
1.9650117e+3, 1.7361952e+2, -1327537.6, -1285001.1, -62399.484, 0.015274103, -0.21974911, -1240344.9, -1833.967, 0.0013940044, 9.9993305, 9.999854 
1.9650376e+3, 1.8361956e+2, -1271783.8, -1276774.3, -13710.099, 0.1410545, -0.1667841, -1260343.6, -119833.07, 0.000014255441, 9.999307, 9.999273 
1.9650623e+3, 1.9361937e+2, -1112505.6, -1129064.1, -4326.273, 0.097549744, -0.15999398, -1111443.4, -68932.61, 0.0, 9.999674, 9.999417 
1.965087e+3, 2.0361851e+2, -977742.0, -1065618.9, 19908.105, 0.037130672, -0.15878703, -973442.25, -28925.107, 0.0, 10.00011, 9.998988 
1.9651113e+3, 2.136167e+2, -773783.7, -892985.75, 1182.9802, -0.061129786, -0.2907242, -773772.0, 72760.336, 0.0, 10.000757, 9.999173 
1.9651367e+3, 2.2361536e+2, -694586.1, -876721.9, 15201.19, -0.05863762, -0.3047466, -693326.1, 55218.75, 0.0, 10.000931, 9.998545 
1.9651632e+3, 2.3361467e+2, -633174.0, -783314.25, -7192.3247, 0.058445156, -0.27011162, -632830.25, 17724.516, 0.0, 10.000638, 9.998646 
1.9651899e+3, 2.4361403e+2, -529891.3, -618646.1, 82591.56, 0.10453543, -0.21120512, -480509.88, 72052.95, 0.0, 10.000353, 9.999267 
1.9652164e+3, 2.5361365e+2, -461663.25, -493628.8, 60965.676, 0.00008241143, -0.24233653, -414620.16, 39945.82, 0.0, 10.000009, 9.999598 
1.965242e+3, 2.636133e+2, -383303.7, -432278.25, -64873.62, -0.0509151, -0.2138271, -338449.7, 18118.918, 0.00000006167767, 9.999988, 9.999357 
1.9652659e+3, 2.736127e+2, -179227.75, -260115.72, -119072.164, -0.03563899, -0.2644453, -93918.42, 164654.88, 0.000003603985, 10.000637, 9.999537 
1.9652903e+3, 2.836121e+2, -110013.4, -304322.97, -55141.16, 0.017798694, -0.21742192, -95456.055, 65123.023, 0.00003430298, 10.000958, 9.998427 
1.965316e+3, 2.9361203e+2, -7582.5967, -172769.22, -52025.063, 0.100928225, -0.120676324, 7436.911, 70017.79, 0.00015136057, 10.000867, 9.99869 
1.9653407e+3, 3.0360907e+2, 19407.047, -264859.9, -15116.885, 0.0070945034, -0.22829066, 20208.68, 20208.68, 0.00039140973, 10.001253, 9.997564 
1.965366e+3, 3.136066e+2, 248287.56, 33054.39, -116656.41, 0.046797805, -0.27874988, 299384.72, 299384.72, 0.00072701665, 10.001975, 9.999248 
1.974886e+3, 1.2359589e+2, -1675828.3, -1352452.0, -50156.875, -0.13284077, -0.2463207, -1344851.1, 383881.28, 0.24301729, 9.998293, 10.004097 
1.9749118e+3, 1.3359383e+2, -1948160.6, -2127260.8, -28528.2, 0.18869564, -0.2500686, -1943726.3, -312969.03, 0.17062773, 9.999252, 9.996794 
1.9749352e+3, 1.43591e+2, -1641239.0, -1634715.0, -1567.2742, -0.036553603, -0.31084368, -1634358.0, -101568.28, 0.09895461, 9.999346, 9.999486 
1.9749603e+3, 1.5359363e+2, -1456657.8, -1365203.8, -8777.259, -0.1515639, -0.14497742, -1364369.0, 70396.73, 0.04335473, 9.999404, 10.000635 
1.9749855e+3, 1.63594e+2, -1398207.9, -1363328.0, -74846.41, -0.1320297, -0.13298225, -1303916.5, 32846.637, 0.012356995, 9.999458, 9.999954 
1.9750115e+3, 1.7359474e+2, -1311255.0, -1252890.8, -51969.313, 0.042459566, -0.09627246, -1222470.8, 16285.411, 0.0015709848, 9.999345, 10.000067 
1.9750372e+3, 1.8359494e+2, -1229924.8, -1204747.0, -21838.582, 0.12975936, -0.05815073, -1192128.6, -51376.465, 0.000019593592, 9.999359, 9.999751 
1.9750625e+3, 1.9359294e+2, -1085340.0, -1053174.8, 21828.44, 0.102724805, -0.28692177, -1042144.0, 621.8301, 0.0, 9.999588, 9.999981 
1.9750872e+3, 2.0359159e+2, -1013421.9, -1092342.8, 29760.146, 0.017646052, -0.36538166, -1003457.7, -58682.215, 0.0, 9.9999075, 9.9989 
1.9751115e+3, 2.1359172e+2, -824433.5, -937936.4, 38702.195, -0.151639, -0.28553975, -812493.0, 34281.176, 0.0, 10.000498, 9.998989 
1.9751364e+3, 2.2359128e+2, -754378.1, -918388.4, -8331.864, -0.21204197, -0.19604746, -753955.94, -5176.6387, 0.0, 10.000567, 9.998436 
1.9751629e+3, 2.3358943e+2, -670659.0, -809562.0, 1502.512, -0.05433938, -0.2728364, -670642.75, -19843.686, 0.0, 10.000408, 9.998576 
1.9751894e+3, 2.4358818e+2, -603670.8, -701584.3, 52172.984, 0.001919918, -0.25672913, -581081.9, -28268.727, 0.0, 10.000044, 9.998848 
1.9752155e+3, 2.5358817e+2, -522280.03, -570085.56, 63989.82, -0.10283689, -0.21004336, -477874.38, -23059.379, 0.0, 9.999793, 9.999176 
1.9752418e+3, 2.6358765e+2, -453715.34, -498849.78, -62785.71, -0.12768885, -0.16265166, -409564.3, -52744.188, 0.000000055759365, 9.999642, 9.999064 
1.9752674e+3, 2.7358612e+2, -235836.81, -306559.28, -72651.266, 0.021184396, -0.29205218, -190398.14, 68434.29, 0.0000036492006, 10.000335, 9.999355 
1.9752923e+3, 2.8358477e+2, -158503.14, -328379.22, -76326.55, 0.08301218, -0.3116745, -129247.42, 31597.775, 0.00003270768, 10.000616, 9.998435 
1.9753163e+3, 2.9358426e+2, -42321.168, -186599.53, -24201.068, 0.011502729, -0.27198714, -38369.92, 24483.924, 0.00013942833, 10.00061, 9.998721 
1.9753407e+3, 3.0358434e+2, -39047.6, -249123.56, -13187.061, -0.15567517, -0.08510471, -38223.047, -38223.047, 0.00034788318, 10.000702, 9.997922 
1.9753695e+3, 3.1358105e+2, 232397.73, 212909.52, -51639.215, 0.14531866, -0.29430237, 275204.13, 275204.13, 0.0006200004, 10.001124, 10.00086 
1.9848844e+3, 1.2356815e+2, -1844001.0, -1567375.4, -60175.766, -0.094170995, -0.4882841, -1554852.0, 174151.95, 0.25424254, 9.99784, 10.002429 
1.9849117e+3, 1.3356815e+2, -1779894.5, -2046544.6, -36310.6, 0.20844638, -0.26318, -1775038.4, -144028.19, 0.17932345, 10.000379, 9.996826 
1.9849345e+3, 1.4356634e+2, -1566279.4, -1622293.3, 48026.2, -0.068702675, -0.21804091, -1538690.4, -5657.317, 0.104643695, 9.999972, 9.999275 
1.9849598e+3, 1.5356801e+2, -1577661.1, -1447701.8, -11467.566, -0.07563482, -0.12230156, -1446697.6, -11679.57, 0.046255346, 9.998693, 10.000401 
1.9849855e+3, 1.6356792e+2, -1570279.5, -1434208.9, -29361.725, -0.0022637118, -0.1491061, -1428143.4, -91124.234, 0.013380272, 9.998229, 10.000054 
1.9850115e+3, 1.7356868e+2, -1292933.3, -1228139.8, -32553.938, 0.101868145, -0.12702137, -1214609.3, 24400.951, 0.0017591557, 9.999398, 10.000213 
1.9850372e+3, 1.8356891e+2, -1141821.3, -1173055.5, -2860.7847, 0.15991963, -0.09133687, -1141561.4, -556.27545, 0.0000256483, 10.000004, 9.999653 
1.9850622e+3, 1.9356689e+2, -1020248.06, -1039425.3, -41940.043, 0.116155066, -0.3099257, -986814.5, 56204.99, 0.0, 10.000082, 9.999842 
1.9850874e+3, 2.0356557e+2, -993863.44, -1072698.3, -23585.938, 0.051527925, -0.38108408, -987345.8, -42316.355, 0.0, 10.000002, 9.998993 
1.9851121e+3, 2.1356592e+2, -879059.0, -948925.7, -26907.604, -0.086453915, -0.28822532, -869897.44, -22871.045, 0.0, 10.0000725, 9.999115 
1.9851375e+3, 2.2356564e+2, -779455.4, -904600.9, -28340.65, -0.13106598, -0.19855626, -773336.5, -24306.87, 0.0, 10.0002775, 9.998671 
1.9851637e+3, 2.3356405e+2, -613994.94, -756272.7, -27471.969, -0.02599893, -0.27345297, -608874.7, 42171.063, 0.0, 10.000685, 9.998807 
1.9851899e+3, 2.4356288e+2, -529250.25, -678713.25, 56770.418, 0.023217408, -0.25424433, -510132.53, 42925.797, 0.0, 10.000659, 9.998682 
1.9852157e+3, 2.535624e+2, -492627.47, -585668.5, 41594.367, -0.079928905, -0.22819667, -476744.06, -21678.813, 0.0, 10.000149, 9.998885 
1.9852418e+3, 2.6356152e+2, -398410.56, -476217.38, -6423.4585, -0.082269736, -0.19496362, -397883.8, -40809.965, 0.00000004684117, 10.000041, 9.999023 
1.9852683e+3, 2.7356014e+2, -184544.9, -285604.5, -39859.78, 0.074737504, -0.30125082, -170715.84, 88368.914, 0.000003631824, 10.00071, 9.999312 
1.9852936e+3, 2.8355896e+2, -71730.19, -278869.88, -22974.244, 0.14961351, -0.30401936, -69212.67, 91883.38, 0.000030883682, 10.001204, 9.99848 
1.9853173e+3, 2.93558e+2, 44507.867, -147864.7, -36476.027, 0.040595457, -0.30409315, 51191.9, 114300.91, 0.00012822116, 10.001259, 9.998656 
1.9853416e+3, 3.0355784e+2, 91669.6, -155708.27, 32589.252, -0.15350176, -0.15104951, 95890.836, 95890.836, 0.0003141248, 10.001422, 9.998224 
1.985372e+3, 3.1355596e+2, 333677.8, 270628.9, -113047.7, 0.27863285, -0.24561734, 419514.22, 419514.22, 0.00054966006, 10.001706, 10.000997 
1.9948843e+3, 1.2354275e+2, -1960144.0, -1824944.5, -74723.71, 0.011127004, -0.25495753, -1791780.4, -62520.71, 0.26535824, 9.99812, 10.000141 
1.994908e+3, 1.3354267e+2, -1615858.3, -1719947.3, 17092.273, -0.23545206, -0.20988013, -1613123.4, 18140.4, 0.18805622, 10.000461, 9.99903 
1.9949354e+3, 1.4354457e+2, -1544982.5, -1624863.5, -26743.8, -0.03417059, 0.077157296, -1536855.6, -3608.0044, 0.11045076, 10.0001745, 9.999163 
1.99496e+3, 1.5354276e+2, -1617998.4, -1534750.9, -49529.76, 0.04577372, -0.10935159, -1511677.4, -76412.26, 0.04926506, 9.998721, 9.999786 
1.9949846e+3, 1.6354126e+2, -1553072.8, -1421066.3, -12673.219, 0.04123224, -0.24216503, -1419860.5, -82582.484, 0.014456319, 9.998324, 10.000098 
1.9950107e+3, 1.7354129e+2, -1281187.4, -1200743.4, 20506.291, 0.0634724, -0.31003255, -1195817.6, 43455.78, 0.0019582892, 9.999393, 10.000399 
1.9950366e+3, 1.8354136e+2, -1184285.9, -1270610.5, -10944.023, 0.068447866, -0.27028736, -1182920.0, -41649.84, 0.000032105352, 10.000044, 9.998965 
1.9950616e+3, 1.9354117e+2, -1092388.9, -1163083.5, -29001.055, 0.011894683, -0.22672558, -1082014.3, -38741.734, 0.0, 9.999978, 9.999039 
1.995087e+3, 2.0354058e+2, -1006531.0, -1060643.1, -40754.32, -0.031007998, -0.18685989, -984669.3, -39391.19, 0.0, 9.999828, 9.999162 
1.9951133e+3, 2.135392e+2, -884809.2, -914674.3, -9805.884, -0.007919852, -0.30048218, -881877.3, -34587.438, 0.0, 9.999868, 9.999448 
1.9951393e+3, 2.2353838e+2, -791740.3, -853541.9, -27250.348, -0.001207406, -0.3072817, -781441.1, -32144.504, 0.0, 9.999946, 9.999182 
1.9951648e+3, 2.3353854e+2, -611602.9, -694820.25, 6518.8516, 0.00009091122, -0.2646935, -611095.3, 40199.31, 0.0, 10.000435, 9.999351 
1.9951904e+3, 2.43538e+2, -589669.0, -721400.7, 25182.463, -0.024182845, -0.21072544, -585019.1, -31719.334, 0.0, 10.000299, 9.998565 
1.9952162e+3, 2.5353625e+2, -540067.5, -630437.75, 40164.605, -0.062750824, -0.29459912, -524796.94, -69479.164, 0.0, 9.999915, 9.99869 
1.9952422e+3, 2.6353487e+2, -451904.6, -507062.22, -3472.9084, -0.08141034, -0.29863966, -451686.78, -94355.78, 0.000000042002604, 9.999703, 9.998972 
1.9952683e+3, 2.7353463e+2, -227575.02, -303556.38, 4165.6777, -0.022167332, -0.29653352, -227347.31, 31985.293, 0.0000035134383, 10.000417, 9.999324 
1.9952938e+3, 2.835342e+2, -149240.78, -352565.25, -40324.074, 0.0075138835, -0.20922421, -141535.56, 19801.05, 0.00002820436, 10.000824, 9.998157 
1.9953185e+3, 2.9353273e+2, -28769.625, -221235.44, -14446.211, -0.0122551005, -0.23999378, -27691.354, 35661.15, 0.00011358975, 10.00091, 9.998321 
1.9953425e+3, 3.0352944e+2, 8187.4126, -178914.64, 15796.517, -0.23046306, -0.38992482, 9511.696, 9511.696, 0.00027761882, 10.000816, 9.99834 
1.9953719e+3, 3.135313e+2, 106564.22, -14710.145, 4678.377, 0.021518288, -0.1385852, 106744.43, 106744.43, 0.0004902181, 10.000961, 9.999362 
2.0048843e+3, 1.2351722e+2, -1829808.6, -1857087.5, 97327.875, 0.14496325, -0.051661033, -1745169.1, -15660.084, 0.27641812, 9.999438, 9.999255 
2.0049073e+3, 1.3351628e+2, -1687960.3, -1574255.4, 13756.637, -0.26749963, -0.2656048, -1572614.8, 58904.96, 0.1968332, 9.999097, 10.00077 
2.004935e+3, 1.4351974e+2, -1817685.1, -1751474.6, -32940.203, 0.009942207, 0.07296599, -1737878.5, -204392.22, 0.11636926, 9.998278, 9.999206 
2.00496e+3, 1.5351711e+2, -1498754.9, -1515691.6, -41967.93, 0.13479468, -0.17240375, -1464409.5, -28897.568, 0.05238356, 9.999674, 9.999468 
2.0049846e+3, 1.6351531e+2, -1305784.8, -1360741.8, 38047.05, 0.12019665, -0.29417318, -1286330.9, 51197.496, 0.015589432, 10.000245, 9.9996 
2.0050105e+3, 1.7351502e+2, -1242810.3, -1243565.8, -6815.349, 0.08881733, -0.34965628, -1236362.3, 3166.5903, 0.0021699998, 9.999872, 9.999891 
2.0050366e+3, 1.835149e+2, -1255002.6, -1292463.0, -16160.067, 0.106401294, -0.30542186, -1248994.9, -107465.9, 0.00003871999, 9.999537, 9.999047 
2.0050621e+3, 1.9351526e+2, -1063409.9, -1132176.8, 4012.0244, 0.06666531, -0.21809284, -1063176.5, -19650.139, 0.0, 10.0001335, 9.999172 
2.0050876e+3, 2.0351489e+2, -944487.8, -1026372.25, 37699.914, 0.038582888, -0.16298373, -929774.44, 15755.425, 0.0, 10.000256, 9.999187 
2.0051135e+3, 2.1351309e+2, -889887.8, -918608.0, 13799.295, 0.03564897, -0.31888962, -884332.25, -36787.082, 0.0, 9.999845, 9.999438 
2.0051396e+3, 2.2351207e+2, -819686.8, -856604.25, 15993.881, 0.04989294, -0.3471418, -813721.6, -64168.137, 0.0, 9.999734, 9.999253 
2.0051655e+3, 2.3351249e+2, -612020.94, -680565.9, -19832.977, 0.044396374, -0.28199372, -606696.06, 44852.86, 0.0, 10.000412, 9.999444 
2.0051916e+3, 2.4351206e+2, -498431.1, -672154.2, -12226.792, 0.04687974, -0.22271481, -497574.78, 55977.727, 0.0, 10.000869, 9.998641 
2.0052174e+3, 2.5351006e+2, -403216.66, -555780.56, -15290.205, 0.03470266, -0.33803448, -401699.34, 53872.453, 0.0, 10.000805, 9.998773 
2.0052432e+3, 2.635087e+2, -318919.25, -457847.97, -83.80404, 0.01093415, -0.34635904, -318919.2, 38665.55, 0.000000029896977, 10.000658, 9.99886 
2.0052685e+3, 2.735084e+2, -223847.7, -328287.03, -31463.195, -0.03387794, -0.3257353, -215101.6, 44485.656, 0.0000031274246, 10.000512, 9.999131 
2.0052943e+3, 2.8350797e+2, -171119.5, -391092.13, -32652.545, -0.0116046965, -0.22124763, -166374.92, -4783.056, 0.000025154262, 10.000782, 9.997919 
2.00532e+3, 2.9350626e+2, 72356.98, -210586.55, -64550.56, 0.038257692, -0.23524898, 86387.734, 149997.5, 0.00009776422, 10.001763, 9.997984 
2.005345e+3, 3.0350214e+2, 255390.55, -46133.863, -7888.2305, -0.12861896, -0.45797116, 255596.77, 255596.77, 0.00024035286, 10.002428, 9.9985 
2.0053738e+3, 3.135044e+2, 203496.58, -117149.164, -70747.414, 0.07367779, -0.16011286, 218412.45, 218412.45, 0.000433908, 10.002218, 9.998096 
2.0148835e+3, 1.234878e+2, -1806466.9, -1809514.1, 220628.52, 0.0136878155, -0.32281023, -1587356.8, 142432.1, 0.28771394, 9.999593, 9.9997 
2.0149097e+3, 1.33489e+2, -1614767.4, -1466604.4, -25346.662, 0.016918257, -0.44154617, -1462388.1, 169388.73, 0.20582092, 9.9991865, 10.001671 
2.0149323e+3, 1.4349146e+2, -1781010.8, -1714073.3, -25206.258, -0.13710663, -0.25547352, -1705643.3, -171890.3, 0.12247417, 9.998436, 9.99939 
2.0149592e+3, 1.5349092e+2, -1484263.1, -1487346.9, 18657.81, 0.043862067, -0.3080028, -1467083.5, -31323.984, 0.055639356, 9.999684, 9.999656 
2.0149848e+3, 1.6349025e+2, -1353707.1, -1485324.3, 15813.402, 0.053689566, -0.29167724, -1351833.8, -14065.208, 0.016791714, 10.000348, 9.998699 
2.0150104e+3, 1.7348994e+2, -1325151.0, -1406285.6, -11437.488, 0.06004992, -0.23250249, -1323569.4, -83793.8, 0.0023981123, 9.999846, 9.998788 
2.0150366e+3, 1.8348962e+2, -1191956.1, -1180578.4, -23691.494, 0.09900284, -0.18001527, -1161902.3, -20121.994, 0.000045425786, 9.999604, 9.99979 
2.0150632e+3, 1.9348912e+2, -1004007.9, -990826.6, 35093.098, 0.13590397, -0.2778376, -961710.6, 82071.28, 0.0, 10.0000515, 10.000185 
2.0150886e+3, 2.0348853e+2, -978885.3, -1057508.8, 11165.817, 0.08128097, -0.29930562, -977330.3, -31545.459, 0.0, 10.000076, 9.999063 
2.0151123e+3, 2.1348754e+2, -950786.9, -989718.0, 12123.8545, -0.08143392, -0.33956027, -947320.0, -99527.37, 0.0, 9.999606, 9.999066 
2.0151375e+3, 2.2348654e+2, -903054.56, -955912.06, 21181.107, -0.1498459, -0.32124156, -895614.2, -145812.75, 0.0, 9.999405, 9.998734 
2.0151655e+3, 2.3348567e+2, -677166.56, -771259.4, 23285.31, -0.01965053, -0.3345934, -671719.44, -19908.615, 0.0, 10.000203, 9.998928 
2.0151928e+3, 2.4348477e+2, -538144.8, -669741.7, -21928.268, 0.057500705, -0.30297783, -534587.06, 19232.518, 0.0, 10.000514, 9.998825 
2.0152187e+3, 2.5348368e+2, -420384.16, -527515.9, -3192.9192, 0.06546899, -0.3564436, -420289.06, 35539.66, 0.0, 10.000538, 9.999095 
2.015244e+3, 2.6348254e+2, -383728.72, -511473.8, -22440.268, 0.0013507566, -0.35012594, -379901.44, -22062.805, 0.0000000091701935, 10.000314, 9.998657 
2.0152685e+3, 2.7348155e+2, -281966.16, -382741.8, -16099.151, -0.11596001, -0.3764291, -279456.78, -19608.855, 0.0000023642951, 10.000239, 9.998883 
2.0152941e+3, 2.8348053e+2, -261880.66, -486667.0, -23499.82, -0.13193922, -0.2968123, -259450.2, -97591.555, 0.000021595964, 10.000393, 9.997445 
2.0153219e+3, 2.9347846e+2, -10864.492, -313878.94, -738.27203, 0.0036740035, -0.30085397, -10862.694, 53019.242, 0.000083873885, 10.001442, 9.997438 
2.015348e+3, 3.0347532e+2, 150129.42, -117806.22, -28737.84, -0.12127392, -0.3882319, 153177.08, 153177.08, 0.00020823602, 10.001834, 9.99827 
2.015375e+3, 3.134775e+2, 2006.3838, -275391.6, 39111.72, -0.07863075, -0.10187152, 7415.466, 7415.466, 0.00038362973, 10.001189, 9.99746 
2.0248818e+3, 1.2346184e+2, -1974308.0, -1805452.1, 204298.36, -0.0008869393, -0.31430796, -1668823.8, 61214.3, 0.29983783, 9.997961, 10.000421 
2.0249082e+3, 1.3346206e+2, -1787369.1, -1536093.5, -36504.457, 0.0290606, -0.56474423, -1530897.8, 101137.945, 0.21537028, 9.998002, 10.001638 
2.0249324e+3, 1.4346443e+2, -1511116.3, -1575573.4, -29925.834, -0.053545237, -0.3876161, -1499364.9, 34647.676, 0.12892798, 10.000287, 9.99945 
2.024959e+3, 1.5346469e+2, -1438204.6, -1456797.3, -42299.152, 0.056890793, -0.36815873, -1404192.3, 31820.094, 0.05909158, 9.9999895, 9.999715 
2.0249845e+3, 1.6346441e+2, -1499507.4, -1522358.9, -11145.254, 0.07081818, -0.32477382, -1494971.8, -156953.63, 0.018083457, 9.999246, 9.998954 
2.0250098e+3, 1.7346458e+2, -1384692.3, -1400756.3, 34513.266, 0.06267868, -0.24557824, -1357288.8, -117268.01, 0.0026487417, 9.999339, 9.999046 
2.025036e+3, 1.8346459e+2, -1228509.0, -1218643.0, 103382.68, 0.10923822, -0.16805941, -1120075.8, 21946.97, 0.000052423693, 9.999429, 9.999612 
2.0250633e+3, 1.9346371e+2, -1042724.56, -1046395.25, 44402.805, 0.1605141, -0.27803993, -1000119.2, 43910.246, 0.0, 9.999919, 9.99987 
2.0250893e+3, 2.0346288e+2, -968382.94, -1060420.4, -23223.293, 0.14341348, -0.30378878, -962855.1, -16819.717, 0.0, 10.000188, 9.99898 
2.0251128e+3, 2.1346198e+2, -841823.75, -945269.44, -39490.465, -0.024298467, -0.32973674, -828471.6, 19570.195, 0.0, 10.000385, 9.998987 
2.025138e+3, 2.2346082e+2, -763274.5, -908133.06, 40364.176, -0.08614839, -0.31698504, -752786.5, -2734.8044, 0.0, 10.000444, 9.998556 
2.025166e+3, 2.3345949e+2, -655596.56, -781824.5, 42538.695, 0.011855615, -0.35805345, -642599.4, 9466.293, 0.0, 10.000442, 9.998733 
2.0251934e+3, 2.4345842e+2, -570867.06, -698995.3, 15398.481, 0.091790356, -0.32752943, -569042.44, -14966.104, 0.0, 10.000361, 9.998687 
2.0252194e+3, 2.5345755e+2, -463867.7, -568809.4, -31685.357, 0.09370835, -0.34045526, -455042.94, 1041.4215, 0.0, 10.000333, 9.998907 
2.025245e+3, 2.6345628e+2, -351812.3, -515078.22, -27162.652, 0.06407539, -0.32916903, -347411.88, 10684.273, 0.000000001074916, 10.000623, 9.998482 
2.0252699e+3, 2.734546e+2, -121121.984, -322199.34, -55233.063, -0.03905337, -0.40094414, -106949.21, 153162.69, 0.0000018159459, 10.001445, 9.998706 
2.0252958e+3, 2.8345346e+2, -40754.742, -348044.94, -11945.567, -0.06304298, -0.33656713, -40291.074, 121832.625, 0.000018189116, 10.001742, 9.997757 
2.0253229e+3, 2.9345244e+2, -49650.074, -270463.03, 28650.018, -0.0003316617, -0.27448517, -45993.348, 18142.809, 0.000072171526, 10.00092, 9.997975 
2.0253506e+3, 3.0344996e+2, 33382.57, -197328.83, 104397.414, 0.032283876, -0.32429442, 73608.87, 73608.87, 0.00017993047, 10.001056, 9.998139 
2.025377e+3, 3.1345034e+2, 191925.25, -113830.695, 45499.652, -0.02082254, -0.17653829, 198552.42, 198552.42, 0.00033599298, 10.002102, 9.998165 
2.0348804e+3, 1.2343795e+2, -1913628.3, -1750032.0, -281962.8, -0.049320493, -0.18972632, -1538242.1, 192028.52, 0.3135409, 9.998257, 10.000951 
2.0349023e+3, 1.3343526e+2, -1823035.4, -1624611.0, 74906.94, -0.40360323, -0.64154106, -1599508.6, 32788.867, 0.22593072, 9.9981365, 10.000845 
2.0349345e+3, 1.4343856e+2, -1478585.0, -1564160.8, -18526.37, 0.04751871, -0.32529628, -1474746.4, 59519.97, 0.13594478, 10.000563, 9.999393 
2.0349592e+3, 1.5343839e+2, -1429324.3, -1457972.5, -54495.07, 0.039033417, -0.3520832, -1387302.3, 48968.176, 0.06282382, 10.000077, 9.9996605 
2.0349835e+3, 1.6343766e+2, -1390721.4, -1323528.6, -40399.535, -0.016227303, -0.4060337, -1304581.4, 33696.74, 0.019494196, 9.999359, 10.000265 
2.0350085e+3, 1.7343883e+2, -1262679.5, -1157964.1, 50056.36, -0.041771267, -0.38931772, -1137885.9, 102379.125, 0.0029308582, 9.999377, 10.000694 
2.0350346e+3, 1.8343972e+2, -1297688.5, -1370833.5, 104421.79, -0.04170054, -0.27789226, -1223619.9, -81362.97, 0.00006041413, 9.999467, 9.998551 
2.035062e+3, 1.9343905e+2, -1167588.5, -1280531.8, 73251.22, 0.010695798, -0.21124618, -1131568.0, -87299.195, 0.0, 9.999816, 9.998312 
2.0350887e+3, 2.0343797e+2, -1001748.75, -1084721.4, -32522.543, 0.037059627, -0.17012192, -990520.44, -44238.805, 0.0, 10.000001, 9.998901 
2.0351143e+3, 2.1343628e+2, -861657.94, -929641.6, -19117.986, 0.06903972, -0.29212818, -856650.5, -8356.431, 0.0, 10.000144, 9.999211 
2.0351401e+3, 2.2343487e+2, -806289.1, -906823.75, 28607.684, 0.05346571, -0.32742733, -798718.7, -48413.695, 0.0, 10.000071, 9.998736 
2.0351665e+3, 2.3343389e+2, -688074.56, -782961.0, 60926.367, -0.00034356848, -0.3483342, -658298.06, -5984.055, 0.0, 10.000169, 9.99885 
2.0351928e+3, 2.4343285e+2, -653380.7, -799153.25, -1887.4967, -0.03848278, -0.29940397, -653356.25, -99031.54, 0.0, 10.000055, 9.998148 
2.0352189e+3, 2.5343162e+2, -536634.3, -677006.6, -19479.111, -0.012262784, -0.28604347, -533981.4, -77642.086, 0.0, 10.000142, 9.99826 
2.0352453e+3, 2.6342988e+2, -428358.1, -589398.7, -16322.639, 0.0036170725, -0.27186838, -426720.34, -68362.53, 0.000000023664393, 10.000275, 9.99813 
2.0352723e+3, 2.734272e+2, -179644.66, -382118.16, -4178.9272, 0.03130059, -0.42436808, -179558.45, 80824.58, 0.0000019634658, 10.001175, 9.998423 
2.0352983e+3, 2.834262e+2, -40674.34, -234357.02, -54962.09, -0.017183928, -0.36781034, -26164.54, 136227.44, 0.000016146072, 10.001277, 9.998753 
2.0353228e+3, 2.9342797e+2, -8341.289, -99330.42, 20309.607, -0.14414665, -0.15613486, -4013.8152, 60361.426, 0.00006227005, 10.0005455, 9.999336 
2.035352e+3, 3.0342567e+2, -91552.95, -287454.94, 110815.74, 0.022933975, -0.24774309, -41603.56, -41603.56, 0.00015437642, 10.000368, 9.9978285 
2.03538e+3, 3.1342104e+2, 210356.02, 138641.73, 111869.445, 0.003041183, -0.57498896, 291974.44, 291974.44, 0.00029131802, 10.0012455, 10.000281 
2.0448804e+3, 1.2341275e+2, -1757846.8, -1633746.8, -250433.75, 0.0988795, -0.26726598, -1437790.4, 292727.22, 0.3294151, 9.99923, 10.001529 
2.044901e+3, 1.3340826e+2, -1825199.1, -1771761.6, 102370.86, -0.3649515, -0.7387151, -1692680.1, -60116.32, 0.23787552, 9.998824, 9.999448 
2.0449351e+3, 1.4341368e+2, -1791721.6, -1692988.3, 6443.344, 0.19278306, -0.14094995, -1692569.5, -158056.84, 0.14372098, 9.998242, 9.999625 
2.0449585e+3, 1.5341263e+2, -1588981.8, -1484483.1, -62194.684, 0.034155052, -0.29713786, -1455503.4, -18980.146, 0.06692591, 9.998749, 10.0001135 
2.0449823e+3, 1.6341126e+2, -1431476.6, -1351072.9, -26644.336, -0.041685726, -0.44352308, -1343045.0, -4508.9473, 0.021061258, 9.999091, 10.000216 
2.0450084e+3, 1.7341214e+2, -1189902.5, -1143879.1, -93262.81, -0.003509559, -0.43755195, -1070831.0, 169694.02, 0.003256253, 9.999954, 10.0005245 
2.045035e+3, 1.834129e+2, -1175532.5, -1322057.5, -70573.164, 0.034558207, -0.32270917, -1147070.0, -4551.98, 0.00007088071, 10.000362, 9.998451 
2.045062e+3, 1.9341226e+2, -1077804.8, -1242067.9, -25324.719, 0.012514914, -0.24626248, -1073989.0, -29459.713, 0.0, 10.000476, 9.998249 
2.0450886e+3, 2.0341113e+2, -957831.6, -1062066.6, -46478.418, 0.032598075, -0.20299259, -940117.4, 6424.921, 0.0, 10.000278, 9.998935 
2.0451148e+3, 2.1340947e+2, -891274.44, -928176.5, -73845.37, 0.11902765, -0.3318845, -833609.9, 14944.845, 0.0, 9.99988, 9.999346 
2.0451409e+3, 2.234082e+2, -818432.75, -912086.44, 12494.649, 0.14282191, -0.36140352, -816794.44, -66230.086, 0.0, 9.999968, 9.998765 
2.0451675e+3, 2.3340724e+2, -557042.6, -718925.25, 11844.528, 0.04108198, -0.37852097, -556180.6, 96392.625, 0.0, 10.00105, 9.998875 
2.0451939e+3, 2.4340612e+2, -435501.78, -729271.94, -36021.047, -0.010317032, -0.327267, -431149.5, 123435.95, 0.0, 10.001695, 9.997846 
2.0452197e+3, 2.5340474e+2, -351791.3, -624683.94, -69837.57, 0.0026369058, -0.29133767, -334957.22, 121645.89, 0.0, 10.001573, 9.997928 
2.0452464e+3, 2.6340306e+2, -271038.34, -509209.66, -1863.8591, 0.047761664, -0.25184444, -271023.78, 87598.016, 0.00000011200642, 10.001308, 9.998186 
2.0452742e+3, 2.7340084e+2, -208156.81, -387336.16, 428.20145, 0.12648661, -0.36257842, -208155.8, 52486.54, 0.000002326167, 10.000925, 9.998509 
2.0453e+3, 2.8339976e+2, -125996.93, -271641.03, -50242.746, 0.0713696, -0.32597518, -110346.47, 52305.883, 0.000014696717, 10.000653, 9.9988 
2.0453227e+3, 2.9340053e+2, -15056.106, -93959.58, -115014.07, -0.19421533, -0.20786327, 67084.41, 131729.05, 0.00005375532, 10.000475, 9.999402 
2.0453526e+3, 3.0339915e+2, 12586.893, -189992.42, 51362.0, 0.055118024, -0.22918132, 24865.055, 24865.055, 0.00013254509, 10.000861, 9.998256 
2.0453827e+3, 3.133945e+2, 357483.78, 254652.22, -94668.11, 0.13596344, -0.58930534, 413797.44, 413797.44, 0.00025431596, 10.001994, 10.000731 
2.0548785e+3, 1.2338811e+2, -1645366.1, -1527720.1, -24947.105, -0.13522363, -0.32645124, -1522648.6, 208112.16, 0.3476065, 9.999601, 10.002209 
2.0549034e+3, 1.3338126e+2, -1928031.4, -2012533.0, 78616.36, -0.05386242, -0.8261724, -1881031.6, -248198.9, 0.2513395, 9.998932, 9.997746 
2.0549336e+3, 1.4338961e+2, -1734712.8, -1611473.5, 866.3517, 0.15804523, 0.13842623, -1611467.4, -76714.16, 0.15236652, 9.998401, 10.000107 
2.0549561e+3, 1.5338758e+2, -1514209.8, -1349992.8, -27669.262, -0.113751814, -0.20158638, -1345456.0, 91313.42, 0.071473114, 9.998807, 10.001057 
2.0549804e+3, 1.6338524e+2, -1516372.0, -1570730.4, -17635.85, -0.2022844, -0.43090934, -1511151.6, -172360.72, 0.022826005, 9.999265, 9.9986315 
2.0550093e+3, 1.7338453e+2, -1327446.3, -1437561.1, -52368.98, 0.037606735, -0.3853279, -1306518.0, -65717.305, 0.0036400491, 9.999981, 9.998497 
2.0550372e+3, 1.8338396e+2, -1113986.4, -1212914.9, -80202.75, 0.14363699, -0.31143236, -1069221.1, 73586.125, 0.00008593674, 10.000429, 9.999176 
2.055063e+3, 1.9338307e+2, -988696.1, -1046733.75, -12098.175, 0.021672765, -0.39148822, -986275.2, 58537.88, 0.0, 10.000418, 9.999623 
2.0550884e+3, 2.0338221e+2, -976910.6, -1055455.3, -74705.195, -0.05568646, -0.41104496, -931784.0, 15035.039, 0.0, 10.000081, 9.999075 
2.0551135e+3, 2.1338141e+2, -931721.4, -957837.1, -75718.67, -0.015830735, -0.4479735, -867942.94, -19117.89, 0.0, 9.999644, 9.999255 
2.0551397e+3, 2.2338057e+2, -879798.4, -956250.25, 28040.773, -0.0013216527, -0.42445108, -870616.44, -119784.05, 0.0, 9.999617, 9.998629 
2.0551682e+3, 2.3337948e+2, -603531.3, -751983.4, 68480.305, -0.00460111, -0.44319236, -576766.94, 76076.945, 0.0, 10.00078, 9.998778 
2.0551959e+3, 2.433782e+2, -500550.28, -772276.06, -48306.273, -0.013183397, -0.39795437, -492218.1, 62640.445, 0.0, 10.001308, 9.997731 
2.0552215e+3, 2.5337666e+2, -405338.88, -663890.56, -55779.54, -0.0030155028, -0.3702188, -393818.4, 63059.676, 0.0, 10.001274, 9.997798 
2.0552479e+3, 2.633756e+2, -305934.5, -487499.0, -29993.494, 0.016254338, -0.27393642, -301108.03, 57782.574, 0.00000017468948, 10.000914, 9.99852 
2.0552751e+3, 2.7337533e+2, -220762.8, -354303.13, 4694.016, 0.09301012, -0.23254795, -220598.02, 40294.875, 0.0000023499456, 10.000665, 9.998866 
2.0553003e+3, 2.833738e+2, -270589.72, -457816.72, -73496.055, -0.016940616, -0.21350439, -245185.73, -82278.07, 0.000012296112, 10.000188, 9.997735 
2.0553218e+3, 2.9337016e+2, -152089.13, -305339.4, -94157.74, -0.3476635, -0.42934108, -107317.83, -42374.047, 0.000044415407, 10.000164, 9.998094 
2.055352e+3, 3.0336964e+2, -24693.611, -115784.055, 62901.1, -0.13209172, -0.3294791, 7420.1377, 7420.1377, 0.00011238728, 10.000256, 9.999035 
2.0553842e+3, 3.1336975e+2, 95479.35, -40399.383, -109136.81, 0.026936645, -0.3259696, 156095.81, 156095.81, 0.00022372513, 10.000978, 9.999171 
2.064876e+3, 1.2336159e+2, -2164609.0, -1641715.0, 28576.475, -0.09628266, -0.24543163, -1640157.9, 90865.766, 0.36771804, 9.995287, 10.003092 
2.064905e+3, 1.3335563e+2, -1868554.4, -1959881.3, -7384.69, 0.23990332, -0.6923251, -1867961.1, -234875.39, 0.26616043, 9.999202, 9.997964 
2.0649318e+3, 1.4336221e+2, -1678731.6, -1614203.8, 4690.8647, 0.11874465, 0.08802274, -1613864.5, -78841.625, 0.1618756, 9.998886, 9.9998665 
2.0649548e+3, 1.533604e+2, -1419786.3, -1315694.1, -101620.58, -0.14595214, -0.21893871, -1253566.9, 183469.42, 0.07651462, 9.999506, 10.00099 
2.0649797e+3, 1.6335855e+2, -1447042.9, -1571186.8, -67087.555, -0.20343876, -0.38339874, -1417716.4, -78663.55, 0.024829434, 9.999925, 9.998286 
2.0650095e+3, 1.7335738e+2, -1384356.5, -1512109.4, -20801.268, 0.09394999, -0.34072495, -1381054.9, -139986.67, 0.0041003036, 9.999825, 9.99804 
2.0650378e+3, 1.8335633e+2, -1220534.8, -1232298.8, 31021.936, 0.2462007, -0.2995355, -1194842.1, -51762.83, 0.000108260756, 9.999573, 9.99944 
2.0650634e+3, 1.933555e+2, -1034811.7, -1016711.5, 2056.6042, 0.06500662, -0.41657704, -1016480.75, 28601.336, 0.0, 9.999881, 10.00008 
2.0650886e+3, 2.0335476e+2, -976345.06, -1060687.0, -86812.32, -0.032547697, -0.44680113, -922003.0, 25082.885, 0.0, 10.000105, 9.999023 
2.0651135e+3, 2.1335408e+2, -825192.9, -928122.1, -127034.05, -0.00727874, -0.45360225, -739594.5, 109497.836, 0.0, 10.000473, 9.9990635 
2.0651399e+3, 2.233533e+2, -734830.8, -893693.7, 23460.518, 0.017490158, -0.40710214, -731438.7, 19661.855, 0.0, 10.000637, 9.9985695 
2.0651689e+3, 2.3335229e+2, -648462.4, -776754.8, 39409.098, 0.013822344, -0.41495785, -637323.7, 15788.485, 0.0, 10.000493, 9.998739 
2.0651971e+3, 2.4335119e+2, -585705.2, -776758.8, -43809.168, 0.03694806, -0.36347377, -576138.6, -21013.668, 0.0, 10.000564, 9.998058 
2.0652232e+3, 2.5334972e+2, -404819.94, -615422.7, -52119.18, 0.07537591, -0.3638581, -392627.56, 64513.973, 0.0, 10.00107, 9.998223 
2.0652495e+3, 2.633486e+2, -276730.8, -504836.75, -8401.871, 0.09803156, -0.2927905, -276421.78, 82732.63, 0.00000012472299, 10.001229, 9.998264 
2.0652756e+3, 2.7334818e+2, -218979.67, -385954.13, -63523.613, 0.07715829, -0.22620735, -197560.42, 63599.492, 0.0000018192295, 10.000826, 9.99857 
2.0653005e+3, 2.8334677e+2, -180192.6, -416976.72, -83571.195, -0.0029063881, -0.18001692, -153668.05, 9506.107, 0.000008845643, 10.0008, 9.997738 
2.065324e+3, 2.93343e+2, 11569.634, -230610.64, -69294.03, -0.19659297, -0.39751694, 29994.67, 95204.445, 0.000033872344, 10.001307, 9.998063 
2.0653531e+3, 3.033416e+2, 189366.66, 24841.564, 162509.9, -0.08322277, -0.40727073, 289248.56, 289248.56, 0.00009226976, 10.001478, 9.999459 
2.0653857e+3, 3.1334355e+2, 17346.18, -103462.3, -217715.92, 0.13455941, -0.25466678, 182881.97, 182881.97, 0.0001939828, 10.000489, 9.999007 
2.0748714e+3, 1.2333316e+2, -2091121.6, -1586700.1, 89050.3, -0.22104423, -0.06962888, -1571440.9, 159865.5, 0.38886976, 9.995533, 10.003668 
2.0749058e+3, 1.3333128e+2, -1722921.1, -1684892.0, 31254.459, 0.33202234, -0.3531112, -1667322.5, -33998.582, 0.28190908, 9.9993105, 9.9998045 
2.0749287e+3, 1.433314e+2, -1711435.9, -1723371.0, -28614.762, -0.14048071, -0.27311745, -1688173.1, -152850.7, 0.17213808, 9.999061, 9.999037 
2.074954e+3, 1.5333094e+2, -1473829.0, -1436911.3, -68136.62, -0.21692683, -0.34876567, -1384777.4, 52547.867, 0.08207624, 9.999565, 10.000071 
2.07498e+3, 1.6333099e+2, -1361413.9, -1429097.9, -80486.18, -0.23417147, -0.3108292, -1307944.4, 31379.41, 0.027111659, 10.000079, 9.99919 
2.075009e+3, 1.733306e+2, -1301460.1, -1344261.8, -18282.887, 0.03454794, -0.30035794, -1294713.9, -53386.004, 0.0046569863, 9.999851, 9.999174 
2.075037e+3, 1.8332998e+2, -1225282.9, -1262404.8, 20320.168, 0.16734019, -0.27327597, -1216322.6, -72988.96, 0.00014131474, 9.999658, 9.999193 
2.075063e+3, 1.933294e+2, -1081831.8, -1099815.8, 21480.05, 0.011803766, -0.3188165, -1067537.5, -22199.814, 0.0000000002137382, 9.999814, 9.999545 
2.0750886e+3, 2.033286e+2, -1022541.44, -1118212.5, -92993.32, -0.082941465, -0.3121974, -965801.7, -18457.057, 0.0, 9.99993, 9.998714 
2.0751143e+3, 2.1332729e+2, -871724.75, -978175.9, -98412.54, -0.0014152391, -0.35789528, -813066.5, 36292.066, 0.0, 10.000267, 9.998819 
2.0751409e+3, 2.2332619e+2, -792957.0, -930443.9, 9908.354, 0.02294504, -0.3276799, -792246.6, -40875.953, 0.0, 10.000288, 9.998479 
2.0751692e+3, 2.333255e+2, -696198.0, -804461.0, 49151.37, -0.03865367, -0.29885238, -677212.6, -23833.29, 0.0, 10.000203, 9.998681 
2.0751972e+3, 2.4332477e+2, -598668.06, -707870.1, -42727.105, -0.044948887, -0.23566464, -583937.44, -28550.172, 0.0, 10.000156, 9.998725 
2.0752247e+3, 2.5332364e+2, -386929.94, -516705.22, -18746.768, 0.08861231, -0.28147766, -384276.13, 73120.59, 0.0, 10.00081, 9.999024 
2.075251e+3, 2.6332188e+2, -394184.47, -650147.5, -39220.863, 0.09742833, -0.29104385, -388309.56, -28894.805, 0.000000021824269, 10.000819, 9.997459 
2.0752752e+3, 2.733192e+2, -333198.38, -556209.75, -60827.78, -0.069730714, -0.34443247, -317686.2, -56241.203, 0.00000084431264, 10.000552, 9.997531 
2.0753008e+3, 2.833181e+2, -192450.27, -335888.97, -91576.2, -0.11296599, -0.24050313, -147851.67, 15605.176, 0.000005133315, 10.000364, 9.998493 
2.0753281e+3, 2.933184e+2, 23064.057, -129931.62, -25904.393, 0.056574702, -0.16115336, 27331.043, 92781.06, 0.000023723636, 10.000962, 9.998922 
2.0753552e+3, 3.033147e+2, 64062.863, -41076.324, 108812.64, -0.07000669, -0.43685964, 132339.25, 132339.25, 0.00007270888, 10.0007105, 9.999343 
2.0753855e+3, 3.133171e+2, -82776.76, -62997.81, -181523.81, -0.007094324, -0.2512435, 108905.72, 108905.72, 0.00016093491, 9.999526, 9.999701 
2.0848674e+3, 1.2330348e+2, -1812224.9, -1587989.4, 33485.98, -0.25302944, -0.095303595, -1583095.5, 148502.1, 0.40993002, 9.998034, 10.002458 
2.0849028e+3, 1.3330266e+2, -1829128.3, -1616150.4, 19371.54, 0.21010473, -0.38463685, -1614402.8, 19200.906, 0.29801235, 9.998033, 10.000945 
2.0849282e+3, 1.4330363e+2, -1657350.3, -1689455.8, -32204.838, -0.09347681, -0.29194117, -1637419.1, -101826.24, 0.18298064, 9.999438, 9.999068 
2.0849544e+3, 1.5330255e+2, -1474495.0, -1490477.8, -63215.605, -0.13670707, -0.3881852, -1418767.6, 18834.98, 0.088167645, 9.999798, 9.9995775 
2.0849812e+3, 1.6330256e+2, -1392550.1, -1429983.4, -61617.71, -0.10133804, -0.33178157, -1346869.1, -7267.4688, 0.029713616, 9.999768, 9.999357 
2.085009e+3, 1.733023e+2, -1245360.5, -1282648.9, -96690.664, 0.041989453, -0.3424472, -1165532.9, 76070.11, 0.005333032, 10.00005, 9.999532 
2.0850363e+3, 1.8330173e+2, -1185008.5, -1250363.6, -55764.39, 0.12936589, -0.32671592, -1153052.5, -9444.792, 0.00018960002, 9.999972, 9.999133 
2.085063e+3, 1.933013e+2, -1066760.6, -1111286.9, -53882.98, 0.039680943, -0.33533397, -1030722.6, 14889.624, 0.000000020895914, 10.000019, 9.999361 
2.0850894e+3, 2.0330074e+2, -986328.75, -1102956.6, -105568.38, -0.008689867, -0.28910932, -924039.2, 23579.43, 0.0, 10.000234, 9.998653 
2.085115e+3, 2.1329974e+2, -740521.7, -916977.8, -128388.06, 0.0024586704, -0.29922402, -672968.9, 176661.95, 0.0, 10.001201, 9.998772 
2.0851415e+3, 2.232987e+2, -623331.4, -857327.9, -24071.502, 0.019341618, -0.25679365, -620880.75, 130762.25, 0.0, 10.001464, 9.998429 
2.0851697e+3, 2.3329763e+2, -656935.5, -790979.94, -20242.564, 0.00726983, -0.26045793, -653945.25, -289.84564, 0.0, 10.000466, 9.998662 
2.0851977e+3, 2.4329677e+2, -615015.7, -680848.0, -54699.773, 0.038880356, -0.22415978, -584091.9, -28427.701, 0.0, 9.99989, 9.999037 
2.0852253e+3, 2.53296e+2, -437139.2, -502656.3, -86314.45, 0.113221005, -0.26775905, -377575.97, 80093.125, 0.0, 10.0003, 9.999365 
2.085252e+3, 2.632944e+2, -374391.4, -624065.2, -74865.51, 0.114671, -0.28027248, -353663.56, 6020.1836, 0.0, 10.000882, 9.99761 
2.0852765e+3, 2.7329153e+2, -160599.3, -465082.38, -54034.234, -0.026099406, -0.36308977, -151294.61, 110420.56, 0.000000115745564, 10.001699, 9.997602 
2.0853029e+3, 2.8329006e+2, 62310.555, -190284.7, -36277.027, 0.0035522992, -0.31226453, 67417.32, 231147.33, 0.0000020138657, 10.001987, 9.998719 
2.0853306e+3, 2.9329047e+2, 63499.195, -68272.22, -77129.28, 0.21798947, -0.2407607, 99052.39, 164773.36, 0.000014504671, 10.001073, 9.999289 
2.0853557e+3, 3.032887e+2, 82763.945, -36469.402, 98848.86, -0.066028185, -0.35388935, 138582.3, 138582.3, 0.000053405533, 10.00079, 9.999368 
2.0853867e+3, 3.1329006e+2, 171746.72, -39911.824, -239537.39, 0.064510904, -0.23105522, 327791.47, 327791.47, 0.000125829, 10.001567, 9.998935 
2.0948674e+3, 1.23271964e+2, -2006235.6, -1909222.5, -331058.66, -0.16656874, -0.38962775, -1623135.6, 108767.12, 0.42994058, 9.998214, 9.999803 
2.0948967e+3, 1.3326949e+2, -1784206.6, -1565204.4, 88405.95, -0.25712866, -0.8065879, -1533971.3, 99956.29, 0.31401625, 9.998128, 10.001473 
2.0949297e+3, 1.4327891e+2, -1569531.8, -1560868.8, -25989.24, 0.021584503, 0.043973748, -1538852.5, -3017.8433, 0.19429262, 9.999653, 9.999855 
2.0949553e+3, 1.5327519e+2, -1468128.0, -1498325.0, -47043.895, -0.07195668, -0.32391164, -1433819.1, 4049.9297, 0.094824284, 9.999878, 9.999482 
2.0949824e+3, 1.6327314e+2, -1401882.1, -1491885.1, -77059.76, -0.004198586, -0.43824533, -1357646.1, -17758.854, 0.032688897, 9.999947, 9.998849 
2.0950088e+3, 1.7327245e+2, -1268061.6, -1336957.1, -78626.766, -0.018859405, -0.45192683, -1216667.5, 25225.354, 0.0061590113, 10.000078, 9.9991455 
2.0950352e+3, 1.8327165e+2, -1163951.6, -1230429.3, -71598.54, -0.06034699, -0.44178614, -1118252.6, 25647.605, 0.00026052183, 10.00007, 9.999224 
2.095063e+3, 1.9327137e+2, -1066323.1, -1097662.8, -43134.574, 0.003540935, -0.45007023, -1036100.3, 9804.1, 0.00000016154512, 9.999961, 9.999484 
2.0950902e+3, 2.032713e+2, -1014203.9, -1115738.1, -90445.914, 0.0055961404, -0.36536518, -961251.4, -13344.136, 0.0, 10.000038, 9.998658 
2.095115e+3, 2.132714e+2, -781618.2, -938337.56, -79622.2, -0.124273986, -0.26426613, -748264.25, 101645.47, 0.0, 10.000936, 9.998747 
2.0951414e+3, 2.2327077e+2, -676167.56, -883049.75, -63205.785, -0.1688232, -0.1820545, -658385.56, 93533.12, 0.0, 10.001102, 9.9984255 
2.0951705e+3, 2.3326871e+2, -695779.0, -808393.8, -42523.465, -0.003451204, -0.28631523, -681526.0, -27585.535, 0.0, 10.000195, 9.9986725 
2.0951985e+3, 2.4326724e+2, -679181.0, -722523.1, -61806.246, 0.08062343, -0.30736405, -635356.6, -79401.48, 0.0, 9.999497, 9.99894 
2.0952249e+3, 2.5326678e+2, -477883.9, -534306.0, -53171.48, 0.014464548, -0.31035152, -445903.0, 12054.83, 0.0, 10.000067, 9.999262 
2.0952515e+3, 2.6326618e+2, -366332.34, -515633.8, -63129.59, -0.044115417, -0.26245904, -343217.66, 16744.406, 0.0, 10.000502, 9.998531 
2.0952792e+3, 2.732648e+2, -137607.58, -339350.97, -5136.935, 0.03152389, -0.30236036, -137476.86, 124497.48, 0.0, 10.001369, 9.998621 
2.0953067e+3, 2.8326243e+2, -48490.03, -282144.34, -80450.85, 0.12865968, -0.38242754, -23468.945, 140526.72, 0.00000039293647, 10.001406, 9.998366 
2.0953311e+3, 2.932595e+2, -7716.9985, -130790.85, -83259.08, 0.12023923, -0.59911424, 34278.035, 100298.26, 0.000007667558, 10.000704, 9.99904 
2.0953538e+3, 3.032621e+2, -47406.01, -105596.38, 93998.46, -0.37706977, -0.26775265, 21897.182, 21897.182, 0.000037309022, 9.999992, 9.999248 
2.0953889e+3, 3.132619e+2, -89320.47, -312900.47, 20686.281, 0.059539232, -0.27244398, -87422.625, -87422.625, 0.0000961441, 10.0005045, 9.99753 
2.1048707e+3, 1.2324583e+2, -1678448.9, -1756278.6, -188244.38, 0.20933084, -0.19872057, -1525139.1, 207019.9, 0.44859928, 10.000983, 9.999644 
2.104896e+3, 1.332414e+2, -1653022.3, -1586852.1, 107842.04, -0.19675069, -0.7738397, -1507134.1, 127068.766, 0.3298663, 9.999525, 10.000665 
2.1049285e+3, 1.4325017e+2, -1690612.9, -1635128.0, -55307.188, 0.00026368105, 0.07297137, -1600995.3, -64878.78, 0.20615475, 9.998903, 9.999697 
2.1049553e+3, 1.5324663e+2, -1520851.1, -1491660.4, -113011.04, -0.0033581795, -0.30147475, -1392306.1, 45842.348, 0.10215144, 9.999419, 9.999746 
2.1049832e+3, 1.6324411e+2, -1455345.8, -1509720.0, -71038.25, 0.111080356, -0.48123372, -1406469.9, -66298.84, 0.036114734, 9.99957, 9.998883 
2.1050096e+3, 1.7324358e+2, -1226909.5, -1311094.8, -65135.703, 0.03927187, -0.48301682, -1191449.3, 50726.22, 0.007176738, 10.000342, 9.999179 
2.1050356e+3, 1.832432e+2, -1097017.5, -1206689.5, -43341.65, -0.010181869, -0.43322647, -1081957.3, 62221.996, 0.0003661867, 10.000562, 9.999151 
2.1050635e+3, 1.9324292e+2, -1031858.5, -1091144.8, -67074.92, 0.041261908, -0.4304877, -988168.44, 58015.734, 0.00000091193453, 10.00024, 9.999394 
2.1050903e+3, 2.0324272e+2, -988851.3, -1087106.3, -60412.42, 0.049271706, -0.36121428, -960112.44, -11924.449, 0.0, 10.000091, 9.998858 
2.105116e+3, 2.1324244e+2, -814964.8, -937018.0, -50343.363, -0.096599035, -0.31822333, -796879.44, 53313.0, 0.0, 10.00057, 9.99897 
2.1051426e+3, 2.2324185e+2, -745460.9, -902148.9, -36221.92, -0.12573673, -0.24835344, -737492.6, 14707.743, 0.0, 10.000595, 9.998521 
2.105171e+3, 2.3324049e+2, -688676.0, -798846.94, -59961.402, 0.034520928, -0.28615305, -662338.0, -8121.2456, 0.0, 10.000243, 9.998696 
2.1051988e+3, 2.4323925e+2, -571462.7, -676147.8, -16623.31, 0.13943462, -0.2809863, -568886.44, -12656.321, 0.0, 10.00023, 9.998922 
2.1052256e+3, 2.532384e+2, -387448.84, -495445.34, -23746.842, 0.05800328, -0.31760913, -382457.9, 75778.67, 0.0, 10.000695, 9.999238 
2.1052527e+3, 2.6323798e+2, -282126.8, -418006.2, -22893.389, 0.019524004, -0.27440846, -278373.34, 81865.734, 0.0, 10.000815, 9.999061 
2.1052805e+3, 2.7323756e+2, -254248.77, -328840.28, -35045.758, 0.08976245, -0.27265647, -240366.61, 21874.438, 0.0, 10.000271, 9.9992285 
2.1053076e+3, 2.832357e+2, -210380.19, -326975.1, -73667.15, 0.17979397, -0.34643388, -174733.81, -10477.061, 0.00000006547354, 10.000191, 9.998616 
2.1053317e+3, 2.9323214e+2, 30429.457, -105863.19, -97237.51, 0.12105724, -0.6285566, 81022.57, 147310.16, 0.000004738257, 10.000981, 9.999057 
2.1053554e+3, 3.0323476e+2, 117002.836, -95063.42, 112659.71, -0.23611829, -0.2699083, 165679.88, 165679.88, 0.00002905632, 10.0013895, 9.99865 
2.1053904e+3, 3.1323317e+2, 52371.906, -118537.22, -28998.81, 0.14730005, -0.3492836, 57158.207, 57158.207, 0.00007991688, 10.000913, 9.998665 
2.1148701e+3, 1.23218e+2, -1607829.0, -1651903.9, -117.1999, -0.08928463, -0.23547502, -1607828.6, 124607.05, 0.46656317, 10.001212, 10.000267 
2.1148995e+3, 1.3321833e+2, -1745782.5, -1818403.6, 84103.07, 0.15755944, -0.2834935, -1690486.4, -56056.047, 0.34608045, 9.99967, 9.998723 
2.1149245e+3, 1.4321725e+2, -1732326.6, -1787632.6, -43018.04, -0.36256418, -0.2247915, -1708840.1, -172400.45, 0.21890919, 9.999175, 9.998524 
2.1149546e+3, 1.5321685e+2, -1456906.3, -1396960.5, -86994.3, -0.07877379, -0.31837884, -1334920.5, 103520.375, 0.110347085, 9.999572, 10.00036 
2.1149826e+3, 1.6321525e+2, -1385539.1, -1406429.9, -68942.33, 0.04256307, -0.47597328, -1326255.4, 14199.467, 0.040102176, 9.9997425, 9.999514 
2.1150105e+3, 1.7321561e+2, -1192499.0, -1250248.6, -26515.273, 0.074185595, -0.43378022, -1182171.5, 60279.793, 0.008443992, 10.000376, 9.999584 
2.1150379e+3, 1.832162e+2, -1107627.3, -1239241.9, -70129.234, 0.087845564, -0.30181807, -1077264.4, 67182.125, 0.00052604213, 10.000606, 9.998906 
2.1150637e+3, 1.932158e+2, -1071933.1, -1149382.8, -72172.7, 0.015821954, -0.27460366, -1028752.44, 17700.299, 0.0000034897541, 10.000138, 9.999039 
2.1150899e+3, 2.0321484e+2, -998400.9, -1051818.0, -65102.305, -0.060606223, -0.27693442, -954741.44, -6278.678, 0.0, 9.999857, 9.999212 
2.1151172e+3, 2.13213e+2, -821206.4, -880734.1, -21108.646, -0.06308665, -0.44104645, -814481.06, 35997.086, 0.0, 10.000298, 9.999479 
2.1151443e+3, 2.2321208e+2, -800206.0, -930394.6, -59725.906, -0.057540003, -0.43394193, -776957.5, -24470.318, 0.0, 10.000219, 9.998509 
2.115171e+3, 2.3321271e+2, -729740.75, -834022.1, -58416.652, -0.011774908, -0.26260462, -703579.75, -49092.62, 0.0, 10.000019, 9.998565 
2.1151982e+3, 2.4321248e+2, -626747.5, -702374.4, -17392.326, 0.020187926, -0.15121664, -622939.44, -66447.05, 0.0, 9.999855, 9.998915 
2.1152268e+3, 2.5321054e+2, -424018.78, -510689.84, 9006.065, 0.09064701, -0.30335125, -423092.84, 35415.684, 0.0, 10.000441, 9.999247 
2.1152547e+3, 2.632095e+2, -346643.8, -440944.25, -49030.934, 0.097172506, -0.3236269, -325770.7, 34746.59, 0.0, 10.000352, 9.999118 
2.11528e+3, 2.7320978e+2, -272960.03, -312490.5, -33668.44, -0.0039716647, -0.27407983, -253683.89, 8831.042, 0.0, 10.000032, 9.999452 
2.1153057e+3, 2.832093e+2, -243287.42, -296892.66, -70232.95, -0.08409519, -0.24812834, -194916.6, -30397.943, 0.00000005479561, 9.999769, 9.999026 
2.115332e+3, 2.932075e+2, -7313.1904, -120505.41, -36905.027, 0.009588685, -0.4045722, 3656.2295, 70188.375, 0.0000044706885, 10.000687, 9.9991045 
2.1153599e+3, 3.032061e+2, -120071.914, -348451.44, 68501.49, 0.0019651023, -0.3624438, -101101.03, -101101.03, 0.000027145721, 10.000441, 9.997329 
2.1153906e+3, 3.1320393e+2, 51945.434, 156058.42, 71547.52, 0.003867082, -0.42623684, 192483.16, 192483.16, 0.00007500438, 9.999811, 10.00105 
2.1248655e+3, 1.23191126e+2, -1814327.1, -1256388.8, -137662.56, -0.37655303, -0.15950933, -1224271.5, 508427.13, 0.48543465, 9.995123, 10.008586 
2.1249e+3, 1.3319044e+2, -1816825.8, -1928107.8, 32137.234, 0.28490806, -0.24366476, -1808211.6, -173510.34, 0.3637423, 9.999556, 9.997999 
2.1249238e+3, 1.4318652e+2, -1639258.0, -1763346.3, 53537.906, -0.372098, -0.4107614, -1619352.3, -82613.65, 0.23315269, 9.999888, 9.99835 
2.1249543e+3, 1.5318778e+2, -1421187.6, -1372192.6, -42995.79, -0.05350743, -0.34624028, -1347205.1, 91519.93, 0.1197026, 9.999729, 10.000486 
2.1249826e+3, 1.6318719e+2, -1421661.3, -1434112.6, -35721.387, 0.08409288, -0.40699586, -1391627.1, -50896.48, 0.044803485, 9.999514, 9.999454 
2.1250105e+3, 1.7318742e+2, -1294358.1, -1320515.4, -62230.145, 0.09281278, -0.35756153, -1243847.1, -1116.3479, 0.01004214, 9.999759, 9.99941 
2.125038e+3, 1.8318795e+2, -1211659.4, -1275754.5, -106830.1, 0.1200089, -0.22719118, -1132173.4, 12554.281, 0.0007722133, 9.999829, 9.999024 
2.125064e+3, 1.9318736e+2, -1026865.4, -1114432.9, -100965.55, 0.029630575, -0.23429, -960598.9, 86135.26, 0.000010944595, 10.000369, 9.999178 
2.12509e+3, 2.0318633e+2, -898101.3, -990039.9, -55981.605, -0.025078164, -0.25438166, -871633.6, 77110.02, 0.0, 10.000509, 9.999305 
2.1251176e+3, 2.1318462e+2, -821142.7, -866189.4, -75592.97, -0.028626561, -0.41548437, -764788.94, 85968.48, 0.0, 10.000264, 9.999569 
2.1251447e+3, 2.2318372e+2, -784210.1, -906958.56, -93425.33, -0.0011510391, -0.42111805, -733802.9, 18963.045, 0.0, 10.00025, 9.998662 
2.1251711e+3, 2.3318425e+2, -612647.94, -756881.1, -96895.45, -0.0017022537, -0.27252507, -563977.4, 90788.06, 0.0, 10.000733, 9.998752 
2.1251985e+3, 2.4318418e+2, -488358.06, -596193.6, -23008.092, 0.036097676, -0.17319705, -483654.16, 73114.0, 0.0, 10.000664, 9.999245 
2.1252273e+3, 2.531826e+2, -528614.6, -525763.3, -15675.807, 0.13560806, -0.31515604, -511448.47, -52668.375, 0.0, 9.999591, 9.999553 
2.1252552e+3, 2.6318163e+2, -502329.4, -517967.06, -15213.185, 0.18477899, -0.33899498, -493043.4, -132255.4, 0.0, 9.999304, 9.999084 
2.1252805e+3, 2.7318168e+2, -224057.88, -302193.16, -59310.324, 0.022992581, -0.29609957, -192104.42, 70686.414, 0.0, 10.000453, 9.999309 
2.125306e+3, 2.831817e+2, -8177.09, -191329.89, -87541.25, -0.08180479, -0.20837657, 26933.95, 191725.27, 0.000000117451826, 10.001372, 9.999009 
2.1253332e+3, 2.9318106e+2, 132803.23, -55521.6, -130555.12, 0.03429257, -0.23756354, 199610.38, 266404.28, 0.0000050467984, 10.001641, 9.9991045 
2.1253628e+3, 3.0317777e+2, 72520.87, -292649.34, 26843.066, 0.22045846, -0.3703065, 74483.51, 74483.51, 0.00002697455, 10.001801, 9.997132 
2.125391e+3, 3.131768e+2, 194256.14, 256599.5, -68384.39, 0.07113635, -0.27054065, 300581.66, 300581.66, 0.00007158717, 10.000506, 10.001494 
2.134898e+3, 1.3315856e+2, -1774452.3, -1848477.8, 61446.04, 0.073371835, -0.51259154, -1739732.5, -104725.14, 0.38411817, 9.99961, 9.9984865 
2.1349256e+3, 1.4315753e+2, -1563193.1, -1655479.0, 7978.7373, -0.27238885, -0.50727344, -1562508.5, -25490.555, 0.24951555, 10.000094, 9.998985 
2.134954e+3, 1.5315922e+2, -1422328.3, -1402272.9, -42753.0, -0.079602644, -0.38465568, -1368387.3, 70615.39, 0.13052814, 9.999861, 10.000191 
2.1349822e+3, 1.6315992e+2, -1440496.9, -1523820.5, -48224.465, 0.035593506, -0.2729472, -1418430.4, -77431.695, 0.050404422, 9.999727, 9.998734 
2.1350093e+3, 1.7315903e+2, -1345309.6, -1432924.5, -45330.223, -0.04282029, -0.25837386, -1326078.0, -83064.31, 0.012084308, 9.999786, 9.998623 
2.1350364e+3, 1.8315831e+2, -1173373.1, -1216154.5, -103845.06, -0.1056871, -0.22138306, -1088738.5, 56285.477, 0.001155736, 9.999912, 9.999393 
2.1350637e+3, 1.9315761e+2, -994516.7, -1034170.75, -69286.336, -0.059472986, -0.29901254, -942276.3, 104751.97, 0.000030850606, 10.000306, 9.999763 
2.1350908e+3, 2.0315714e+2, -944258.0, -1031829.2, -75669.84, -0.05512758, -0.29164413, -900618.75, 48412.645, 0.0, 10.00028, 9.999128 
2.1351172e+3, 2.1315704e+2, -881396.1, -931065.6, -71436.95, -0.111306764, -0.2562797, -830600.2, 20432.846, 0.0, 10.00001, 9.999245 
2.135144e+3, 2.2315665e+2, -820969.4, -884433.44, -89595.414, -0.13892335, -0.20864226, -757652.7, -4615.3447, 0.0, 9.999842, 9.999004 
2.1351714e+3, 2.3315522e+2, -621879.3, -715230.6, -62431.89, -0.07453862, -0.30013922, -590603.94, 64446.777, 0.0, 10.000477, 9.999162 
2.1351987e+3, 2.4315432e+2, -514375.6, -563342.4, -66930.96, -0.024663733, -0.32370016, -467590.56, 89467.23, 0.0, 10.000296, 9.999644 
2.1352263e+3, 2.5315428e+2, -522046.28, -472122.56, -41056.16, 0.060600065, -0.3591812, -449035.47, 10018.077, 0.0, 9.999416, 10.000001 
2.1352537e+3, 2.6315394e+2, -578345.7, -593830.6, -690.1835, 0.09089505, -0.3372586, -578315.0, -217259.06, 0.0, 9.99897, 9.998717 
2.135281e+3, 2.7315283e+2, -305465.47, -415025.84, 4081.4631, 0.014405212, -0.35521904, -305313.66, -42240.695, 0.00000000014169585, 10.000207, 9.998653 
2.1353078e+3, 2.8315234e+2, -135427.42, -315412.06, -88438.98, -0.08382106, -0.25094005, -99244.984, 65835.74, 0.000000256191, 10.000807, 9.998406 
2.1353349e+3, 2.931526e+2, 61398.6, -125800.195, -81863.6, 0.010499051, -0.15419087, 92147.49, 159222.84, 0.0000052967753, 10.0013, 9.998781 
2.1353638e+3, 3.031487e+2, -12362.458, -238911.88, -14750.579, 0.071155615, -0.3761664, -11406.089, -11406.089, 0.000025200057, 10.000906, 9.997889 
2.1353894e+3, 3.1314772e+2, -86089.32, 5701.5063, -83983.78, -0.22985758, -0.35408705, 55512.23, 55512.23, 0.00006359548, 9.999209, 10.000337 
2.1448977e+3, 1.3312906e+2, -1621745.4, -1672968.9, 74547.81, 0.08594189, -0.50565845, -1568532.4, 66765.27, 0.40760165, 10.000396, 9.99939 
2.144926e+3, 1.4312941e+2, -1797021.5, -1699743.9, -49005.3, -0.10382221, -0.44517213, -1679337.4, -142043.36, 0.26811564, 9.998198, 9.999594 
2.1449539e+3, 1.5313084e+2, -1493966.8, -1401558.0, -56825.773, -0.045434173, -0.38760298, -1374523.0, 64757.547, 0.14296411, 9.999207, 10.00052 
2.1449822e+3, 1.631318e+2, -1436525.8, -1530964.3, 3849.7688, 0.07327553, -0.26358408, -1436369.0, -95095.18, 0.057087187, 9.999825, 9.9986315 
2.1450095e+3, 1.7313056e+2, -1278682.9, -1415362.1, 21006.95, -0.026996054, -0.27112004, -1275527.0, -32233.945, 0.014719365, 10.000343, 9.998462 
2.1450363e+3, 1.8312953e+2, -1107621.6, -1170183.3, -2305.5742, -0.09400502, -0.2594137, -1107536.8, 37769.79, 0.0017550356, 10.000305, 9.99952 
2.145064e+3, 1.9312917e+2, -1024969.3, -1021343.94, -22111.742, -0.041848615, -0.32771903, -1000970.75, 46335.816, 0.00008036648, 9.999992, 9.999991 
2.145091e+3, 2.0312902e+2, -1020996.0, -1071758.0, -8919.438, -0.011667389, -0.2986826, -1019474.4, -70168.516, 0.000000018813253, 9.999768, 9.999105 
2.1451174e+3, 2.1312913e+2, -861055.1, -933215.2, -13133.394, -0.09602619, -0.23637478, -858739.1, -7432.4595, 0.0, 10.000184, 9.999158 
2.1451443e+3, 2.2312872e+2, -730061.44, -804451.5, 3462.1948, -0.10610688, -0.19802666, -729900.6, 23410.158, 0.0, 10.000313, 9.999331 
2.145172e+3, 2.3312706e+2, -651266.0, -680842.6, -1539.932, -0.015070027, -0.35053656, -651186.06, 4137.312, 0.0, 10.000079, 9.99959 
2.1451998e+3, 2.4312599e+2, -538046.6, -601189.4, -2838.197, 0.05667085, -0.4049394, -537919.3, 19411.203, 0.0, 10.000237, 9.99942 
2.1452263e+3, 2.5312597e+2, -287877.97, -401867.47, -63666.848, 0.051937766, -0.40077215, -259421.73, 199906.72, 0.0, 10.001203, 9.999625 
2.1452537e+3, 2.6312554e+2, -198008.58, -418018.53, -19832.615, 0.06988915, -0.36327353, -196235.08, 165097.73, 0.0, 10.001584, 9.998681 
2.145282e+3, 2.731244e+2, -225270.75, -367311.38, -9451.377, 0.07507464, -0.3848869, -224644.61, 38704.527, 0.00000000016893417, 10.000719, 9.998738 
2.1453096e+3, 2.8312403e+2, -184967.8, -340740.56, -1664.5396, 0.0551143, -0.27761248, -184950.0, -19594.977, 0.0000002738674, 10.000423, 9.998432 
2.1453364e+3, 2.9312408e+2, 78515.54, -94704.18, -3693.487, 0.033140864, -0.19676611, 78594.26, 145945.89, 0.0000047479944, 10.001324, 9.998977 
2.1453647e+3, 3.0312082e+2, 212380.38, -67809.29, 73722.36, 0.06174288, -0.4177776, 230593.94, 230593.94, 0.000021563434, 10.002063, 9.998553 
2.1453921e+3, 3.1312034e+2, 145108.23, -19579.85, -177659.56, 0.047271434, -0.3761637, 258579.06, 258579.06, 0.000054127682, 10.001293, 9.999173 
2.1548986e+3, 1.3310163e+2, -1550854.8, -1555505.1, -24784.56, 0.020152396, -0.22942728, -1528286.5, 107288.91, 0.43279883, 10.000656, 10.000369 
2.1549243e+3, 1.4310199e+2, -1694275.8, -1583860.5, -91548.73, -0.20131487, -0.2561836, -1532161.4, 5407.534, 0.28823382, 9.9985895, 10.000218 
2.1549529e+3, 1.5310276e+2, -1420555.6, -1296080.1, -12943.084, -0.10649583, -0.35076243, -1294748.6, 144809.36, 0.15688464, 9.999333, 10.001306 
2.1549816e+3, 1.6310284e+2, -1378480.1, -1460568.1, 8462.732, -0.020520633, -0.38351893, -1377616.8, -36060.43, 0.06501248, 10.000046, 9.999002 
2.1550103e+3, 1.7310192e+2, -1254978.4, -1366255.5, 42537.168, -0.013115479, -0.38889673, -1240580.9, 2989.2744, 0.018139776, 10.000354, 9.998786 
2.1550378e+3, 1.8310146e+2, -1099069.9, -1172805.3, -28230.316, -0.040259022, -0.33653334, -1089503.0, 56074.05, 0.0026903055, 10.000385, 9.999469 
2.1550639e+3, 1.9310196e+2, -1038588.9, -1033651.8, -25752.607, -0.06638217, -0.30990878, -1010249.7, 37319.934, 0.00019736934, 9.999929, 9.999935 
2.1550903e+3, 2.0310198e+2, -1039776.56, -1072045.8, -16289.423, -0.09857488, -0.2677195, -1032983.7, -83415.805, 0.0000007869328, 9.999596, 9.999189 
2.1551174e+3, 2.1310076e+2, -883255.2, -933612.0, 12456.889, -0.1310109, -0.34972137, -880342.2, -28762.125, 0.0, 9.999979, 9.999257 
2.1551448e+3, 2.2309983e+2, -764769.3, -796644.8, -16231.075, -0.11699878, -0.37656954, -757959.3, -4371.6797, 0.0, 9.999966, 9.999552 
2.1551728e+3, 2.3309948e+2, -662104.0, -651589.7, 3052.1057, 0.025413264, -0.42966124, -650767.94, 4818.243, 0.0, 9.999852, 9.999899 
2.1552007e+3, 2.4309888e+2, -658937.1, -757304.7, 9478.284, 0.08100209, -0.4217024, -658032.1, -100442.586, 0.0, 9.999844, 9.998531 
2.155227e+3, 2.5309741e+2, -406765.3, -594115.44, -12229.444, -0.019979732, -0.44561297, -405970.4, 53636.223, 0.0, 10.000965, 9.99842 
2.1552542e+3, 2.6309624e+2, -243864.05, -416848.44, -49864.09, -0.084688246, -0.42077377, -230519.75, 131100.48, 0.0, 10.001178, 9.99888 
2.1552826e+3, 2.730959e+2, -217937.92, -301485.3, -25571.436, 0.044626758, -0.41668582, -210732.64, 52891.32, 0.0, 10.000492, 9.999304 
2.1553108e+3, 2.8309587e+2, -230206.84, -305632.78, 2921.2385, 0.09398072, -0.33159965, -230093.88, -64470.34, 0.000000100631844, 9.999914, 9.9988985 
2.1553372e+3, 2.9309523e+2, 34510.13, -75591.53, 64257.47, -0.07351261, -0.36337957, 64073.813, 131699.95, 0.0000031808167, 10.000856, 9.99933 
2.1553645e+3, 3.0309272e+2, 67969.21, -109245.86, 34261.668, -0.22079068, -0.5417097, 74362.5, 74362.5, 0.000016664693, 10.001021, 9.998735 
2.155397e+3, 3.1309548e+2, -134309.92, -376100.97, -36058.313, 0.32772443, -0.21424885, -129047.086, -129047.086, 0.000045618737, 10.000373, 9.9971485 
2.1648991e+3, 1.3307332e+2, -1705760.9, -1572608.4, 67880.55, 0.12759282, -0.23877944, -1544104.9, 91750.73, 0.45757636, 9.998921, 10.001178 
2.1649235e+3, 1.4307438e+2, -1556666.3, -1519571.1, 17298.082, -0.15914732, -0.20717965, -1512756.6, 25084.889, 0.3088363, 9.999538, 10.000262 
2.1649526e+3, 1.5307434e+2, -1458602.5, -1361623.5, -11122.777, -0.05732251, -0.3565073, -1360364.1, 79474.914, 0.17204043, 9.999301, 10.000786 
2.1649817e+3, 1.6307396e+2, -1515547.0, -1487607.3, -22710.293, 0.051741894, -0.41375634, -1474914.1, -133072.6, 0.07433442, 9.9988985, 9.999385 
2.1650107e+3, 1.730739e+2, -1196609.5, -1258706.4, 32467.236, 0.013056218, -0.4038193, -1182734.4, 61109.58, 0.022589553, 10.000376, 9.999543 
2.1650386e+3, 1.8307403e+2, -1004656.2, -1127814.4, -31632.334, -0.013394434, -0.33434305, -997006.75, 148836.66, 0.00413868, 10.001077, 9.999437 
2.1650645e+3, 1.9307433e+2, -935540.7, -1018986.7, -89431.72, -0.03581745, -0.29776475, -878578.1, 169261.14, 0.00045452762, 10.000807, 9.99962 
2.1650909e+3, 2.0307398e+2, -917243.2, -1015806.0, -54015.87, -0.03632592, -0.27056772, -893405.75, 56435.55, 0.000007502901, 10.000428, 9.999175 
2.1651179e+3, 2.1307239e+2, -816167.1, -893481.3, -52198.066, -0.07632645, -0.39354736, -789870.3, 61985.176, 0.0, 10.000406, 9.999324 
2.1651456e+3, 2.2307137e+2, -697891.25, -776354.4, -66635.81, -0.053835478, -0.42868823, -659795.94, 94067.54, 0.0, 10.000484, 9.999435 
2.1651736e+3, 2.3307128e+2, -509686.94, -601502.06, -109079.305, 0.06394851, -0.43773583, -437248.4, 218612.47, 0.0, 10.000991, 9.999699 
2.1652015e+3, 2.4307078e+2, -463785.75, -671565.8, -69524.09, 0.13445523, -0.4027932, -442668.8, 115195.81, 0.0, 10.001202, 9.998471 
2.1652283e+3, 2.5306928e+2, -426920.94, -592453.5, -37583.516, 0.024902696, -0.42942664, -418787.4, 41095.348, 0.0, 10.000805, 9.998491 
2.1652554e+3, 2.6306832e+2, -300847.75, -435661.0, -12965.6, -0.037181173, -0.3936563, -299612.13, 62281.8, 0.0, 10.000733, 9.99897 
2.1652834e+3, 2.7306795e+2, -80888.414, -224737.77, -52074.08, 0.041696325, -0.39696768, -64016.305, 199879.66, 0.0, 10.00139, 9.999397 
2.1653116e+3, 2.8306723e+2, -11959.763, -202362.98, -31016.38, 0.11779684, -0.38774166, -7034.6406, 158866.47, 0.0000000029805467, 10.001392, 9.998908 
2.165338e+3, 2.9306582e+2, -102613.11, -140401.25, -51138.32, -0.011491239, -0.48100758, -66990.086, 922.9227, 0.000001345268, 9.999922, 9.999326 
2.165366e+3, 3.0306605e+2, -50477.027, -88393.44, 2434.671, -0.0979951, -0.42953047, -50321.336, -50321.336, 0.000010778314, 9.999858, 9.999439 
2.1653989e+3, 3.1306672e+2, 226234.7, -204276.75, -84865.01, 0.3612366, -0.35683632, 242359.83, 242359.83, 0.00003608632, 10.002863, 9.99713 
2.1749009e+3, 1.3304605e+2, -1657885.0, -1532276.4, -37857.215, 0.29652914, -0.323848, -1521748.9, 114370.47, 0.48078975, 9.99929, 10.001345 
2.1749239e+3, 1.4304727e+2, -1591269.0, -1671122.0, 53952.543, -0.20498988, -0.30698562, -1564076.1, -25971.469, 0.32934, 9.999929, 9.99896 
2.1749526e+3, 1.5304573e+2, -1605448.5, -1670980.3, -26877.313, -0.035870712, -0.39059445, -1595835.3, -155712.6, 0.18832743, 9.999381, 9.998509 
2.1749814e+3, 1.6304494e+2, -1461016.4, -1421143.9, -1923.4752, 0.061434343, -0.3571101, -1421051.3, -78919.46, 0.0852701, 9.999089, 9.999747 
2.1750104e+3, 1.7304659e+2, -1093950.4, -1060601.6, 100709.99, -0.10218143, -0.30735075, -975194.94, 268918.78, 0.028395085, 10.000444, 10.000896 
2.1750383e+3, 1.8304732e+2, -1014627.2, -1168530.0, -46336.43, -0.20877801, -0.24951948, -1001753.25, 144351.88, 0.006367479, 10.001165, 9.999111 
2.175065e+3, 1.9304608e+2, -994179.1, -1127031.5, -93549.97, -0.09352971, -0.30025154, -945870.7, 102246.44, 0.0009868387, 10.000752, 9.998897 
2.1750918e+3, 2.0304486e+2, -953372.75, -1054455.1, -71733.87, -0.035293248, -0.30914438, -916163.4, 33964.543, 0.000047582707, 10.000258, 9.998999 
2.1751186e+3, 2.130439e+2, -845828.75, -901906.06, -42771.7, -0.07121254, -0.37197968, -822724.6, 29409.535, 0.00000000032497088, 10.000173, 9.99938 
2.1751457e+3, 2.2304308e+2, -798951.4, -885997.2, -63647.14, -0.09557318, -0.3673621, -765369.1, -11228.966, 0.0, 10.000064, 9.998881 
2.1751738e+3, 2.3304217e+2, -600589.8, -722039.3, -74487.74, -0.03568219, -0.3945308, -565210.9, 90939.1, 0.0, 10.000709, 9.998999 
2.1752016e+3, 2.4304138e+2, -487112.06, -606923.3, -92204.984, 0.0060259895, -0.37509432, -437061.16, 121096.99, 0.0, 10.0007305, 9.999133 
2.1752295e+3, 2.5304118e+2, -393529.44, -459745.34, -38666.367, 0.04095167, -0.37387726, -375733.34, 84426.61, 0.0, 10.000537, 9.999528 
2.1752569e+3, 2.630413e+2, -376323.13, -476548.4, -11812.242, 0.005539814, -0.29183188, -374949.78, -12791.451, 0.0, 10.000263, 9.998902 
2.1752839e+3, 2.7304038e+2, -157060.06, -302328.6, -6104.4556, -0.07849483, -0.32147655, -156803.98, 107362.07, 0.0, 10.001068, 9.999008 
2.175311e+3, 2.830379e+2, -130354.04, -317061.3, -86431.51, -0.11015356, -0.43884516, -96486.18, 69703.48, 0.0, 10.000853, 9.998369 
2.1753381e+3, 2.9303542e+2, -190341.98, -256780.53, -86470.65, -0.018380377, -0.60106915, -130929.23, -62713.707, 0.00000028754212, 9.99964, 9.998658 
2.1753679e+3, 3.0303913e+2, -117559.19, -48527.258, 52036.758, 0.0729687, -0.16468099, -20599.84, -20599.84, 0.0000061263827, 9.999158, 10.000013 
2.1753985e+3, 3.1303704e+2, 172872.9, -24891.672, 166368.14, -0.034584627, -0.5067683, 267526.3, 267526.3, 0.000027574106, 10.001672, 9.998907 
2.1849248e+3, 1.4301983e+2, -1676195.1, -1783914.8, 15398.539, -0.043780223, -0.305705, -1674037.1, -135662.14, 0.34983045, 9.99957, 9.998346 
2.1849538e+3, 1.5301889e+2, -1407651.3, -1637514.6, -118963.375, 0.09275343, -0.22985293, -1357169.6, 83217.8, 0.2059314, 10.001126, 9.997945 
2.1849802e+3, 1.6301633e+2, -1459990.5, -1414560.6, 59945.99, 0.042227462, -0.3478174, -1373170.3, -30756.164, 0.09816949, 9.999095, 9.999781 
2.1850108e+3, 1.7301843e+2, -1292136.4, -1141093.8, 70806.01, -0.039673015, -0.25912547, -1113092.3, 131298.27, 0.036017943, 9.999054, 10.000981 
2.185039e+3, 1.8301916e+2, -1283011.4, -1325086.9, -114318.8, -0.135355, -0.19909897, -1187810.6, -41429.223, 0.009796201, 9.999383, 9.998912 
2.1850659e+3, 1.930172e+2, -1031753.0, -1175128.4, -153660.06, -0.05327173, -0.30112404, -933880.9, 114519.9, 0.0020521113, 10.000576, 9.998658 
2.185093e+3, 2.030156e+2, -845036.4, -1002884.25, -90960.086, 0.036621056, -0.33449286, -803533.06, 146882.27, 0.00020967671, 10.001026, 9.9989805 
2.1851197e+3, 2.1301472e+2, -777366.94, -867326.5, -101158.3, 0.0017648608, -0.38734898, -711639.06, 140781.06, 0.00000086887735, 10.000643, 9.999395 
2.1851467e+3, 2.2301398e+2, -758436.4, -875310.56, -61515.094, -0.016591543, -0.37259007, -732026.5, 22399.074, 0.0, 10.000355, 9.998827 
2.1851745e+3, 2.330133e+2, -625562.5, -733407.9, -47582.215, -0.009919073, -0.36740583, -607570.5, 48863.703, 0.0, 10.000544, 9.998997 
2.1852024e+3, 2.4301273e+2, -472697.53, -571788.44, -35373.477, 0.028129205, -0.3411504, -461365.78, 97075.18, 0.0, 10.000691, 9.9994 
2.1852303e+3, 2.5301242e+2, -329486.2, -396941.78, -67246.66, 0.07497506, -0.3792365, -287983.16, 172459.34, 0.0, 10.0008135, 9.999837 
2.1852581e+3, 2.6301274e+2, -296884.97, -405429.66, -34441.64, 0.09145459, -0.31232458, -286878.9, 75559.31, 0.0, 10.000636, 9.99923 
2.185285e+3, 2.7301234e+2, -278806.72, -326341.84, -15461.817, -0.004275815, -0.3095478, -274220.0, -9779.414, 0.0, 10.000067, 9.999338 
2.185312e+3, 2.8301033e+2, -220841.23, -349227.4, -20869.715, -0.046810422, -0.4121755, -217533.97, -51074.387, 0.0, 10.000145, 9.99851 
2.1853386e+3, 2.9300758e+2, 72770.06, -147422.13, -31583.98, -0.009650317, -0.5910961, 77210.85, 145698.95, 0.000000027227998, 10.0014925, 9.998536 
2.1853691e+3, 3.0301124e+2, 252794.27, 21505.598, 150619.97, 0.1540688, -0.11137075, 327044.6, 327044.6, 0.0000044959556, 10.002076, 9.999138 
2.1853992e+3, 3.1300715e+2, 93000.24, 91877.75, -14706.723, -0.029877136, -0.54319066, 107156.43, 107156.43, 0.000025056477, 10.000309, 10.0004425 
2.1949248e+3, 1.4298946e+2, -1567354.4, -1538158.6, 181222.23, -0.11429879, -0.2494691, -1370947.3, 167730.66, 0.371045, 9.999703, 10.000316 
2.1949562e+3, 1.5299311e+2, -1302367.6, -1417107.3, -161318.9, 0.16208331, 0.1253817, -1188521.0, 252119.55, 0.22535217, 10.001302, 9.999522 
2.1949773e+3, 1.62988e+2, -1448650.5, -1426235.9, -1731.3402, -0.22657472, -0.3726154, -1426103.0, -83413.5, 0.113554515, 9.999256, 9.99962 
2.195011e+3, 1.729891e+2, -1387310.8, -1333198.3, 82464.875, 0.06811458, -0.260233, -1273464.5, -28786.969, 0.046104282, 9.99905, 9.999637 
2.1950406e+3, 1.8298909e+2, -1265681.8, -1304599.6, -85790.37, 0.013146914, -0.19835146, -1197171.1, -50494.367, 0.015073848, 9.999449, 9.9990225 
2.195067e+3, 1.9298768e+2, -1010288.4, -1113659.0, -102589.94, -0.05323507, -0.2829576, -947099.56, 101590.414, 0.004138987, 10.000511, 9.999113 
2.1950938e+3, 2.0298627e+2, -873558.06, -1016391.44, -115624.99, -0.03793038, -0.32701972, -809072.3, 141630.3, 0.00072646124, 10.000835, 9.998977 
2.1951206e+3, 2.1298468e+2, -824605.25, -902714.06, -107759.52, -0.010839155, -0.44214436, -749041.3, 103673.79, 0.000022642807, 10.000382, 9.9992695 
2.1951474e+3, 2.229839e+2, -787095.56, -841426.9, -71142.39, -0.019208888, -0.44105002, -738108.6, 16612.174, 0.000000000011542125, 9.99995, 9.999251 
2.1951753e+3, 2.329846e+2, -618747.1, -663370.2, -26193.459, -0.009968255, -0.36156118, -606650.75, 50064.15, 0.0, 10.000301, 9.999592 
2.1952032e+3, 2.4298468e+2, -558994.06, -636439.3, -45349.61, -0.023646457, -0.29450327, -538084.25, 20630.303, 0.0, 10.000215, 9.999179 
2.1952304e+3, 2.5298297e+2, -397506.88, -478911.34, -47889.14, -0.020294763, -0.43587235, -375359.75, 85370.85, 0.0, 10.000559, 9.999395 
2.195258e+3, 2.6298237e+2, -335071.06, -368164.44, -66585.59, -0.0023114749, -0.45101413, -283007.03, 79728.56, 0.0, 10.000159, 9.999699 
2.1952862e+3, 2.7298346e+2, -266423.9, -229414.08, -20122.348, 0.08434387, -0.3825451, -220581.47, 44141.75, 0.0, 9.999784, 10.000121 
2.1953134e+3, 2.8298366e+2, -250833.14, -299802.5, -4211.4478, 0.043627314, -0.3392988, -250473.58, -83754.13, 0.0, 9.999694, 9.999054 
2.195339e+3, 2.9298213e+2, 35989.484, -134662.94, 43057.207, -0.14735055, -0.4383574, 46237.773, 114970.664, 0.000000020729713, 10.0011215, 9.998796 
2.1953684e+3, 3.0298164e+2, -35706.535, -373169.8, 100558.57, -0.19412549, -0.26975274, -8014.1636, -8014.1636, 0.0000055230016, 10.001252, 9.996788 
2.1954001e+3, 3.129752e+2, -121645.586, -60154.723, -55585.06, -0.03078548, -0.7107961, -27378.66, -27378.66, 0.000029811183, 9.999152, 9.999901 
2.2049226e+3, 1.4295726e+2, -1692591.9, -1415091.4, 275668.47, -0.18619482, -0.45342413, -1245224.1, 293768.5, 0.39437363, 9.997782, 10.002665 
2.204957e+3, 1.529623e+2, -1637736.8, -1492529.6, -199946.92, 0.27709055, 0.030152543, -1352412.6, 88526.65, 0.24751917, 9.998325, 10.000402 
2.2049768e+3, 1.6295849e+2, -1222176.5, -1318071.9, -85969.79, -0.25729972, -0.4054337, -1171687.5, 171287.27, 0.13222682, 10.000932, 9.999625 
2.205011e+3, 1.7295858e+2, -1202505.4, -1331844.4, 11963.87, 0.09685284, -0.33009195, -1201408.0, 43566.527, 0.059555795, 10.000642, 9.998922 
2.2050415e+3, 1.8295822e+2, -1165598.6, -1207138.9, -62078.21, 0.16724467, -0.27649182, -1120908.1, 26070.229, 0.023171267, 9.999918, 9.999481 
2.2050679e+3, 1.9295783e+2, -1043917.5, -1048183.44, -81105.04, 0.030478962, -0.3283944, -964917.4, 84063.46, 0.008108057, 9.999928, 9.999867 
2.2050945e+3, 2.0295733e+2, -986273.6, -1049275.8, -67578.38, 0.008364518, -0.3309682, -943214.94, 7769.766, 0.0021629941, 9.999963, 9.99918 
2.2051214e+3, 2.1295615e+2, -801019.06, -889468.56, -74995.195, 0.049871728, -0.41146857, -758180.0, 94815.74, 0.00023583506, 10.00051, 9.99931 
2.2051485e+3, 2.2295548e+2, -660074.25, -734087.7, -14882.345, 0.07477741, -0.41880736, -657193.9, 97807.66, 0.0000019906881, 10.00062, 9.999675 
2.2051758e+3, 2.3295632e+2, -624946.25, -615162.4, -13938.672, 0.03947766, -0.3719335, -605282.1, 51710.37, 0.0, 10.000024, 10.000074 
2.2052033e+3, 2.4295646e+2, -629414.94, -656333.9, 13668.66, 0.03762897, -0.32758388, -623691.4, -64701.44, 0.0, 9.999658, 9.999318 
2.2052312e+3, 2.5295502e+2, -479941.38, -497911.4, 14702.853, 0.034848362, -0.45333523, -471695.5, -10692.647, 0.0, 9.999961, 9.999532 
2.2052588e+3, 2.629543e+2, -316661.72, -402651.8, 17883.246, 0.060365576, -0.47383812, -313090.84, 49918.535, 0.0, 10.000454, 9.99933 
2.2052869e+3, 2.7295473e+2, -54876.625, -196276.72, -46231.46, 0.09901306, -0.41334933, -41102.746, 223903.02, 0.0, 10.001487, 9.99955 
2.2053146e+3, 2.8295523e+2, 72224.42, -137314.38, -66958.695, 0.09656629, -0.31620437, 91793.66, 258794.4, 0.0, 10.001882, 9.999115 
2.205341e+3, 2.929539e+2, 81756.21, -88098.36, -97767.88, -0.05507963, -0.39080784, 126332.6, 195342.73, 0.00000007580395, 10.001334, 9.999017 
2.2053696e+3, 3.02952e+2, -120337.414, -444290.63, 33602.598, -0.14088763, -0.38246042, -116888.64, -116888.64, 0.0000083740215, 10.000752, 9.996573 
2.2054018e+3, 3.1294805e+2, 58810.758, 45921.473, -114684.555, 0.19879112, -0.50667596, 167231.61, 167231.61, 0.000042885644, 10.000242, 10.0001135 
2.2149222e+3, 1.4292899e+2, -1487982.8, -1158447.4, 3965.2866, -0.11781797, -0.31423151, -1158399.6, 380862.34, 0.4221777, 9.997774, 10.005392 
2.214956e+3, 1.5292588e+2, -1639328.4, -1484594.4, -39510.598, 0.30715197, -0.5422309, -1475089.4, -33800.36, 0.27423543, 9.99829, 10.000346 
2.2149785e+3, 1.6292745e+2, -1181309.4, -1270460.5, -79104.46, -0.2675544, -0.4420916, -1135085.8, 208187.13, 0.15564767, 10.001158, 9.999882 
2.2150101e+3, 1.7292686e+2, -1192950.9, -1311803.9, -2977.6013, -0.10932267, -0.45964447, -1192876.4, 52405.04, 0.07778218, 10.000666, 9.999037 
2.2150418e+3, 1.8292658e+2, -1115510.9, -1110391.1, -85472.914, 0.12022734, -0.4285083, -1027439.75, 119845.875, 0.035576556, 9.999952, 10.000145 
2.2150683e+3, 1.9292758e+2, -997527.4, -919662.3, -69769.14, 0.059173044, -0.43157342, -878698.2, 170575.83, 0.0154146915, 9.999796, 10.000817 
2.2150944e+3, 2.0292862e+2, -988359.56, -1008696.56, -61127.684, -0.02714009, -0.35583013, -936560.4, 14703.293, 0.005714695, 9.999764, 9.999554 
2.2151221e+3, 2.1292894e+2, -819606.94, -873141.44, -41874.68, 0.027695587, -0.3092521, -796675.4, 56588.566, 0.0013616167, 10.000275, 9.999531 
2.2151491e+3, 2.2292885e+2, -711569.9, -735742.8, -45956.563, 0.04214441, -0.28030488, -676137.0, 79129.17, 0.00013056793, 10.000171, 9.999879 
2.2151758e+3, 2.3292819e+2, -643769.56, -593478.8, -23547.943, -0.002503693, -0.40862727, -584174.25, 73095.0, 0.0000045921656, 9.99976, 10.00035 
2.2152029e+3, 2.429279e+2, -674177.9, -633666.75, -3719.3928, -0.007923217, -0.43929085, -633328.06, -74059.28, 0.000000030624218, 9.999186, 9.999691 
2.215232e+3, 2.5292814e+2, -490082.47, -448571.66, 37454.754, 0.091363676, -0.44485208, -426506.0, 34757.207, 0.0, 9.999677, 9.999997 
2.2152598e+3, 2.6292774e+2, -472131.34, -612223.25, 29756.791, 0.07258463, -0.40822923, -466072.75, -102806.08, 0.0, 9.99999, 9.998105 
2.2152866e+3, 2.7292612e+2, -221899.08, -456288.16, 6396.6597, -0.0967806, -0.40474713, -221724.64, 43564.29, 0.0, 10.001134, 9.997921 
2.2153147e+3, 2.8292507e+2, -74464.95, -290169.88, -93483.88, -0.13736042, -0.32827622, -39589.04, 127713.39, 0.0, 10.001257, 9.998351 
2.2153437e+3, 2.9292288e+2, 2278.8132, -155165.3, -89767.9, 0.06310547, -0.4580193, 42952.895, 112272.86, 0.00000027397763, 10.000935, 9.998734 
2.2153719e+3, 3.0292183e+2, -100534.75, -240666.52, -2814.5286, -0.045048844, -0.43338004, -100478.25, -100478.25, 0.000015050563, 10.000105, 9.998252 
2.2154014e+3, 3.1292343e+2, -109823.375, -34699.773, 41940.77, 0.04647438, -0.19608653, -15959.559, -15959.559, 0.00007034586, 9.99916, 10.000049 
2.2249214e+3, 1.4289829e+2, -1879125.6, -1669578.5, -256246.69, 0.014213318, -0.23236696, -1497513.0, 42046.27, 0.45833316, 9.997302, 10.000301 
2.2249553e+3, 1.5289538e+2, -1299791.0, -1364585.6, 137585.25, 0.2816103, -0.7300898, -1190840.1, 250745.25, 0.30885017, 10.001246, 10.0000105 
2.2249797e+3, 1.6289844e+2, -1148241.0, -1300584.8, 19329.344, -0.2610721, -0.4173735, -1145826.8, 197728.97, 0.18666483, 10.001702, 9.999391 
2.2250098e+3, 1.7289793e+2, -1269188.9, -1318830.3, 25785.031, -0.14274819, -0.43973428, -1258219.4, -12654.583, 0.103338934, 10.000002, 9.999297 
2.2250412e+3, 1.8289803e+2, -1312792.5, -1183940.1, 5944.4863, 0.17931013, -0.3970707, -1183666.5, -36100.313, 0.054786276, 9.99847, 10.00035 
2.225068e+3, 1.92899e+2, -1063609.5, -931369.2, -36091.047, 0.09477604, -0.4254521, -922160.44, 127393.945, 0.028543482, 9.999209, 10.001031 
2.2250943e+3, 2.0290005e+2, -997085.4, -986507.1, -42894.6, -0.0006664062, -0.37542227, -948576.8, 2967.1223, 0.013685946, 9.999583, 9.999797 
2.2251219e+3, 2.1290097e+2, -947541.1, -910265.9, -59164.016, 0.041501887, -0.28817967, -866873.3, -13333.997, 0.005262215, 9.999295, 9.999756 
2.2251491e+3, 2.2290137e+2, -823466.2, -792188.56, -32439.56, 0.087635495, -0.22263016, -771814.94, -16277.227, 0.001420654, 9.999382, 9.99988 
2.2251761e+3, 2.3290083e+2, -559996.1, -555538.8, -51586.773, 0.037304897, -0.3377907, -506132.6, 151407.44, 0.0002619265, 10.000318, 10.000352 
2.2252034e+3, 2.4290045e+2, -434716.72, -524700.6, -33314.293, 0.04623798, -0.37173283, -423725.5, 135814.89, 0.000035642544, 10.00085, 9.999643 
2.2252324e+3, 2.529004e+2, -318086.0, -374450.28, -49868.504, 0.12827468, -0.40061635, -288987.25, 172549.67, 0.0000011567587, 10.000845, 9.99997 
2.2252604e+3, 2.628998e+2, -390179.72, -588465.2, -19226.768, 0.12752008, -0.3774286, -388332.6, -24790.1, 0.0, 10.000613, 9.997977 
2.2252876e+3, 2.728983e+2, -332832.34, -515839.6, 14893.77, -0.07137178, -0.34062582, -331628.16, -66063.74, 0.0, 10.00044, 9.997843 
2.2253154e+3, 2.828972e+2, -202919.23, -316424.28, 19326.76, -0.0969792, -0.27613646, -199718.67, -32140.379, 0.0, 10.000197, 9.998703 
2.2253448e+3, 2.9289442e+2, -18134.621, -110498.58, 43569.457, 0.100072674, -0.5001232, -825.87067, 68775.08, 0.00000073017384, 10.000568, 9.999217 
2.2253735e+3, 3.0289447e+2, 88540.95, -111334.805, 145807.45, 0.09477406, -0.4280479, 165372.39, 165372.39, 0.00002755439, 10.001212, 9.998634 
2.2254016e+3, 3.1289542e+2, 269187.47, 134061.19, -46882.355, 0.025087543, -0.22103435, 283860.2, 283860.2, 0.000118261974, 10.001756, 10.000009 
2.2349545e+3, 1.5287182e+2, -1394469.5, -1485821.6, 143434.08, 0.024577307, -0.41065434, -1289614.4, 152204.23, 0.35698506, 10.000956, 9.999166 
2.2349802e+3, 1.628706e+2, -1240948.8, -1513434.1, -28145.342, -0.47187695, -0.40134108, -1238072.0, 105759.5, 0.23053116, 10.001703, 9.997865 
2.23501e+3, 1.7287146e+2, -1260748.3, -1278159.0, -42778.758, -0.14753203, -0.29383337, -1225798.1, 20030.059, 0.14104874, 9.999915, 9.99962 
2.2350398e+3, 1.8287241e+2, -1333986.3, -1223146.8, -5904.3813, 0.119527996, -0.19154455, -1222833.1, -75011.695, 0.08532412, 9.998454, 10.000086 
2.2350666e+3, 1.9287197e+2, -1116676.6, -1011472.44, 583.60236, -0.0036358617, -0.30991906, -1011469.2, 38353.813, 0.05187056, 9.999087, 10.000531 
2.235093e+3, 2.0287175e+2, -1034590.25, -1001955.0, -62641.5, -0.12338428, -0.35732707, -953540.7, -1716.4314, 0.030293982, 9.999318, 9.999817 
2.2351204e+3, 2.1287212e+2, -964124.5, -889910.56, -61913.72, -0.045572646, -0.34835112, -854835.56, -1012.1923, 0.015773455, 9.999057, 10.00001 
2.235148e+3, 2.2287287e+2, -903815.75, -848187.4, -18237.22, 0.009191907, -0.25375175, -842741.56, -86923.67, 0.0069356123, 9.99892, 9.999708 
2.2351763e+3, 2.328741e+2, -612136.06, -603278.56, 405.64493, -0.0010586549, -0.17687012, -603260.0, 54545.863, 0.002541045, 10.000059, 10.000141 
2.2352038e+3, 2.4287413e+2, -550553.06, -645498.5, -45208.12, -0.028789936, -0.12954375, -532470.94, 27333.523, 0.00075579167, 10.000352, 9.999043 
2.2352321e+3, 2.5287196e+2, -400138.97, -467959.3, -37525.355, -0.0005118536, -0.32770896, -383471.97, 78350.59, 0.00014769337, 10.00052, 9.999477 
2.23526e+3, 2.6287052e+2, -443355.3, -555868.5, -52970.566, -0.0071601365, -0.37323895, -422341.7, -58506.207, 0.000007045108, 10.000027, 9.998466 
2.2352888e+3, 2.7287093e+2, -316718.78, -401896.7, 20208.023, -0.005404833, -0.23776838, -312167.7, -46332.61, 0.00000000065814787, 10.000101, 9.998775 
2.2353166e+3, 2.8287086e+2, -218919.72, -196202.0, -8820.297, -0.04824346, -0.18704565, -193179.58, -25342.994, 0.0, 9.999586, 9.999798 
2.2353435e+3, 2.9286796e+2, -37414.617, -18290.863, 73233.76, -0.12933522, -0.53748995, 46002.61, 115860.85, 0.0000012574419, 10.000044, 10.000077 
2.235374e+3, 3.0286872e+2, -161933.19, -410184.06, 134581.39, -0.05361958, -0.37085047, -102975.914, -102975.914, 0.000044073433, 10.000318, 9.996987 
2.2354028e+3, 3.128672e+2, 27969.168, -38676.566, 68857.68, -0.07157076, -0.2328567, 71143.31, 71143.31, 0.00018419352, 10.000452, 9.999414 
2.244956e+3, 1.5284272e+2, -1898757.5, -1490779.9, -121277.34, 0.29375228, -0.23202488, -1457451.1, -15341.319, 0.42759266, 9.996088, 10.001134 
2.2449821e+3, 1.6284242e+2, -1655289.4, -1544314.9, 520.84674, -0.24035563, -0.38612956, -1544312.4, -200201.84, 0.29616648, 9.997837, 9.999529 
2.2450112e+3, 1.7284428e+2, -1106031.6, -1152450.4, -14608.43, -0.051940233, -0.24805292, -1101816.9, 144277.81, 0.19952731, 10.000948, 10.000147 
2.2450401e+3, 1.8284531e+2, -893349.2, -1053969.6, -3108.658, 0.14274766, -0.15041983, -893289.0, 254797.08, 0.13536815, 10.001965, 9.999647 
2.2450665e+3, 1.9284447e+2, -1051304.5, -1058620.4, -51103.63, 0.051181093, -0.24527746, -1003728.1, 46365.75, 0.09319166, 9.999885, 9.999838 
2.245093e+3, 2.0284387e+2, -1119669.3, -1040446.9, -53637.78, -0.0027196587, -0.28966504, -1013379.3, -61280.18, 0.06306426, 9.998674, 9.999892 
2.2451209e+3, 2.1284357e+2, -842152.56, -806651.5, -71038.21, 0.065039605, -0.36304745, -751179.7, 102922.05, 0.0400799, 9.99977, 10.000274 
2.2451487e+3, 2.2284377e+2, -667500.25, -739465.5, -572.8575, 0.10675666, -0.333089, -667495.7, 88604.4, 0.023131557, 10.000543, 9.999699 
2.2451767e+3, 2.3284526e+2, -594563.8, -601303.2, -13569.957, 0.06171932, -0.2252788, -583951.44, 74135.99, 0.011994159, 10.000198, 10.000105 
2.2452046e+3, 2.4284537e+2, -597049.4, -720907.4, -24568.58, 0.046390984, -0.143815, -592353.94, -32266.734, 0.0054928027, 10.000187, 9.998639 
2.2452329e+3, 2.5284314e+2, -397765.63, -509565.22, -35766.91, 0.022265038, -0.30378878, -387302.3, 74805.484, 0.002050329, 10.000696, 9.999123 
2.2452605e+3, 2.628417e+2, -348222.63, -472130.03, -44402.914, 0.032676592, -0.33398464, -333953.78, 30167.492, 0.0004876709, 10.000492, 9.998831 
2.2452895e+3, 2.7284208e+2, -262232.38, -295633.78, -6978.8325, 0.0730818, -0.2689699, -260832.88, 5286.3315, 0.000047167257, 10.000113, 9.999515 
2.2453171e+3, 2.8284243e+2, -177950.94, -165720.83, -29221.918, 0.07326502, -0.22896765, -141980.98, 26134.557, 0.00000034188096, 9.999799, 9.999916 
2.2453445e+3, 2.9284093e+2, 143917.0, 29152.814, -66691.83, -0.07519618, -0.3961073, 174515.05, 244641.73, 0.0000013302117, 10.00141, 9.999774 
2.2453755e+3, 3.0284137e+2, 42666.957, -364703.16, -6048.951, 0.03522528, -0.24018238, 42756.758, 42756.758, 0.0000584347, 10.0018835, 9.996557 
2.2454046e+3, 3.128379e+2, 55154.367, 73517.89, -114092.43, 0.07936309, -0.21934739, 178797.42, 178797.42, 0.00025945, 10.000098, 10.0003605 
2.2549841e+3, 1.6281497e+2, -1450165.0, -1144651.9, 58852.258, 0.05366915, -0.2548922, -1133707.0, 210675.0, 0.39765337, 9.9974165, 10.003369 
2.2550134e+3, 1.728162e+2, -1092056.4, -1093066.0, 59163.152, -0.0072331396, -0.30292273, -1033395.94, 212970.28, 0.29298013, 10.000895, 10.000836 
2.2550417e+3, 1.8281637e+2, -1012287.44, -1211194.3, -83623.23, 0.017451666, -0.2920381, -981803.06, 166560.31, 0.21888196, 10.001639, 9.998644 
2.2550671e+3, 1.9281596e+2, -1158873.1, -1215850.8, -135408.55, 0.09722419, -0.25752187, -1048988.9, 1382.6498, 0.16615056, 9.999603, 9.998856 
2.2550935e+3, 2.028161e+2, -1170000.5, -1064264.3, -46874.023, 0.1215756, -0.1893129, -1046476.8, -94105.11, 0.12546477, 9.998339, 9.9998665 
2.255122e+3, 2.1281508e+2, -867749.5, -799549.3, -14794.143, 0.19270313, -0.36257085, -796478.4, 57898.477, 0.0914258, 9.999502, 10.000447 
2.25515e+3, 2.2281407e+2, -762473.75, -812384.7, -14365.984, 0.14818919, -0.45580813, -758634.1, -2249.8826, 0.062582165, 9.999995, 9.999457 
2.2551778e+3, 2.3281427e+2, -639854.8, -630976.94, -16325.77, 0.09774944, -0.47252646, -618497.44, 39887.918, 0.039919913, 9.999908, 10.000044 
2.255205e+3, 2.4281418e+2, -736039.0, -828821.0, -36510.91, 0.038932923, -0.38634685, -723394.6, -163005.7, 0.023601582, 9.999444, 9.998239 
2.2552337e+3, 2.5281394e+2, -475884.7, -566872.2, -8564.953, 0.022425199, -0.33380195, -475085.47, -12692.325, 0.012405956, 10.000275, 9.998912 
2.255261e+3, 2.6281315e+2, -449167.47, -518344.4, -91161.875, 0.008150636, -0.27445886, -386252.88, -21850.578, 0.005154125, 9.999827, 9.998818 
2.2552891e+3, 2.7281168e+2, -300111.4, -249586.48, -10715.096, -0.013352764, -0.45221347, -247408.0, 19008.604, 0.0013586987, 9.999611, 10.000054 
2.2553167e+3, 2.828119e+2, -388143.06, -409442.56, -31570.455, -0.01217278, -0.40784866, -365474.47, -197058.92, 0.00015517221, 9.999022, 9.998593 
2.2553477e+3, 2.9281366e+2, -44474.734, -219493.36, 22155.146, 0.052870657, -0.08736604, -41713.727, 28688.855, 0.0000026982873, 10.000873, 9.998283 
2.2553776e+3, 3.028128e+2, -64024.348, -383997.03, -80945.81, -0.027842162, -0.0031928145, -44712.465, -44712.465, 0.000065484004, 10.001082, 9.996782 
2.2554031e+3, 3.1280446e+2, 3478.7024, 230564.0, 33693.64, -0.15667789, -0.5074031, 235457.81, 235457.81, 0.00034262822, 9.999047, 10.001926 
2.2650127e+3, 1.7278557e+2, -1085790.6, -1341814.4, -35009.234, -0.2136189, -0.5422716, -1081089.8, 165572.88, 0.44342524, 10.0021105, 9.998307 
2.2650422e+3, 1.8278673e+2, -1220176.9, -1416921.3, -120534.375, -0.050006136, -0.5252819, -1162967.5, -14315.635, 0.3585124, 10.000104, 9.997981 
2.2650667e+3, 1.9278714e+2, -964156.44, -1070099.8, -99498.91, 0.008716132, -0.37951565, -904407.06, 146244.4, 0.29413474, 10.00104, 9.999213 
2.2650918e+3, 2.0278692e+2, -793191.94, -919348.7, 23074.14, -0.022005912, -0.36736208, -789104.1, 163550.7, 0.24160613, 10.001336, 9.999559 
2.2651179e+3, 2.127853e+2, -1038813.3, -975217.5, -46842.957, -0.12935193, -0.51469964, -950399.4, -95732.766, 0.1940874, 9.998663, 9.9996605 
2.2651462e+3, 2.2278413e+2, -1073562.3, -1051816.9, -1193.3496, -0.12945694, -0.5486329, -1051751.6, -295075.25, 0.14888066, 9.998183, 9.998714 
2.2651763e+3, 2.327843e+2, -567737.9, -697574.4, -83557.555, -0.060938153, -0.4576801, -526843.8, 131835.13, 0.108788945, 10.000943, 9.999111 
2.2652054e+3, 2.427842e+2, -312545.44, -535353.75, -140437.25, 0.0012792384, -0.34021533, -244691.39, 315992.78, 0.07581198, 10.00204, 9.9990635 
2.2652341e+3, 2.52785e+2, -451089.9, -435927.44, -73631.66, 0.07692007, -0.2990951, -369487.75, 93192.35, 0.048806984, 9.99981, 10.000128 
2.265261e+3, 2.6278493e+2, -594544.0, -580354.06, -16541.336, 0.08631844, -0.23436214, -569450.3, -204767.38, 0.026684597, 9.99869, 9.998986 
2.2652893e+3, 2.727839e+2, -53161.723, -143112.73, 13916.655, 0.0009747276, -0.36144271, -51057.832, 215633.63, 0.010897145, 10.00127, 10.000049 
2.2653171e+3, 2.8278375e+2, -100495.01, -347513.25, -33326.87, 0.040698286, -0.32188967, -96077.66, 72615.9, 0.002788968, 10.001271, 9.997971 
2.2653492e+3, 2.9278386e+2, 27319.594, -255519.63, 97453.36, 0.10584589, -0.085300766, 57645.91, 128344.445, 0.0003034348, 10.001691, 9.997654 
2.2653787e+3, 3.0278146e+2, 80124.68, -243080.28, 11018.118, -0.046568803, -0.18285051, 80499.85, 80499.85, 0.000074942734, 10.001803, 9.997426 
2.2654048e+3, 3.1277615e+2, 333539.84, 310492.84, 42448.188, -0.013371712, -0.29999644, 366000.9, 366000.9, 0.00045627946, 10.001496, 10.001418 
2.2750926e+3, 2.0275964e+2, -691564.3, -1070946.4, 62867.914, -0.17057155, -0.43248883, -681417.75, 271498.78, 0.4526298, 10.004468, 9.996905 
2.2751187e+3, 2.1275866e+2, -723695.3, -994996.1, -122176.61, 0.05925407, -0.35804012, -676785.75, 178141.64, 0.38963944, 10.002446, 9.997694 
2.27515e+3, 2.2275792e+2, -864635.2, -1185882.4, -89463.414, 0.36488014, -0.19703285, -841401.1, -84463.68, 0.32267725, 10.00067, 9.996535 
2.2751775e+3, 2.3275515e+2, -691330.6, -961550.44, 15651.666, -0.046433393, -0.23949748, -690427.06, -31457.229, 0.25840095, 10.000925, 9.997208 
2.2752051e+3, 2.4275385e+2, -494828.97, -553919.3, -152340.48, -0.33177632, -0.15020433, -369195.06, 191792.83, 0.20062341, 10.000527, 9.999728 
2.2752342e+3, 2.527559e+2, -422215.97, -182609.73, -116530.63, 0.046169136, -0.27083746, -135283.63, 327688.47, 0.14660953, 9.998884, 10.002571 
2.2752598e+3, 2.627574e+2, -919758.4, -830844.44, -4527.6016, 0.04065765, -0.1616443, -830614.5, -465654.97, 0.09444842, 9.996911, 9.998077 
2.2752908e+3, 2.727593e+2, -186114.73, -268457.47, 111768.31, -0.038332622, 0.025025621, -108175.914, 158762.38, 0.04983968, 10.000689, 9.999425 
2.275318e+3, 2.8275838e+2, -323485.06, -533264.8, -133348.7, -0.03336335, 0.060053106, -258717.14, -89771.5, 0.019500945, 10.000142, 9.997203 
2.2753485e+3, 2.9275185e+2, -104430.45, -333293.66, 128602.3, -0.16510938, -0.39402044, -46719.26, 24292.164, 0.004786881, 10.000913, 9.997456 
2.2753772e+3, 3.0274746e+2, -115074.0, -308069.8, -71039.05, -0.43567622, -0.72448355, -91745.4, -91745.4, 0.0007184054, 10.000461, 9.997567 
2.2754067e+3, 3.1275314e+2, -165762.14, -248840.81, 158985.72, -0.026325738, 0.23445334, -42978.695, -42978.695, 0.0007782504, 9.999681, 9.998335 
2.2852121e+3, 2.4273184e+2, -508796.28, -1313370.3, -226563.45, 0.028721849, -0.6039199, -449384.44, 111815.92, 0.45869297, 10.00319, 9.9937725 
2.285228e+3, 2.5273806e+2, -1085180.4, -1022307.7, 50302.652, -0.3506711, 0.4538937, -994426.25, -531277.25, 0.36361384, 9.996611, 9.997728 
2.2852583e+3, 2.6272506e+2, -507587.38, -685846.25, 115380.1, -0.008893563, -0.5978788, -450920.28, -85639.7, 0.26167566, 9.999682, 9.997836 
2.2852954e+3, 2.7272865e+2, 347776.3, -50710.92, 225790.34, 0.17632611, -0.18397844, 449662.72, 716905.75, 0.1640845, 10.005231, 9.999133 
2.2853215e+3, 2.8272817e+2, 290016.47, -132070.52, -122363.36, 0.102259725, -0.07311644, 322924.1, 492169.13, 0.0825175, 10.004105, 9.998142 
2.2853504e+3, 2.927253e+2, 433013.38, 93288.01, 325181.13, -0.18948749, -0.29852587, 630024.06, 701297.06, 0.030766662, 10.003782, 9.999156 
2.2853822e+3, 3.02725e+2, 433963.53, 123628.94, 163461.6, -0.09691445, -0.38377547, 504177.2, 504177.2, 0.009050716, 10.003303, 9.999274 
2.2854063e+3, 3.12726e+2, -34520.113, 65245.96, 58856.938, -0.03946283, 0.026150966, 92515.086, 92515.086, 0.003968377, 9.999436, 10.000605 
2.2953e+3, 2.7270368e+2, -1148637.4, -722234.06, -805032.44, 0.08325044, 0.22867662, -102649.9, 164841.34, 0.4346383, 9.994054, 9.999963 
2.2953257e+3, 2.8269196e+2, -1145892.1, -1058507.8, -514219.25, -0.011505012, -0.8630416, -586127.8, -416524.22, 0.2542175, 9.995014, 9.996035 
2.2953545e+3, 2.9270685e+2, 360960.5, 370759.03, 371852.6, -0.24017768, 0.16494635, 737744.6, 809200.6, 0.12190971, 10.002262, 10.0020075 
2.2953928e+3, 3.027164e+2, -688161.5, -813268.75, -2887.9211, 0.46679455, 1.0722864, -688094.9, -688094.9, 0.05433024, 9.99748, 9.995484 
2.2954057e+3, 3.1269482e+2, -286293.72, 440686.97, -312043.28, -0.24394615, -1.2844121, 556254.3, 556254.3, 0.03209224, 9.9959, 10.004754 
2.3053579e+3, 2.9268306e+2, -1429337.9, -1084300.9, -439022.13, -0.14319164, 0.37020764, -785117.1, -713423.5, 0.36375964, 9.99157, 9.997374 
2.3054007e+3, 3.0267125e+2, 1798667.3, 1008385.1, -329392.4, -0.11308817, -1.3476263, 1917953.9, 1917953.9, 0.21879475, 10.0146265, 10.001882 
2.305408e+3, 3.12691e+2, -632357.3, -1104210.0, 388944.66, 0.035845842, 0.8078961, -413377.97, -413377.97, 0.17229669, 9.998215, 9.993996 
2.3436104e+3, 2.877831e+2, -4123893.5, -355905.8, -1118261.1, 0.13775955, -0.2634468, -49022.95, 70680.125, 0.4761363, 9.964924, 10.014836 
2.3575601e+3, 1.7822783e+2, -730871.25, -608044.9, -322554.88, -0.00778234, -0.41233495, -341108.78, 852231.6, 0.43659896, 10.001945, 10.005532 
2.3572e+3, 1.8822472e+2, -1142551.5, -1594892.3, -581607.06, -0.7598528, -0.06856254, -744686.75, 350681.72, 0.37773374, 10.002383, 9.995125 
2.3568526e+3, 1.982212e+2, -935563.0, -1539828.6, 130628.75, 0.2665059, 0.47277844, -908533.06, 88871.336, 0.3336363, 10.002565, 9.9944315 
2.3564836e+3, 2.0820002e+2, -593362.0, -748635.9, -108028.195, -0.68353367, -0.74778277, -537966.6, 361641.4, 0.30109763, 10.00259, 9.999429 
2.3561272e+3, 2.1818915e+2, -1092565.3, -1189359.1, 10445.48, -0.05688427, -1.2900043, -1091450.9, -289742.03, 0.2783399, 9.998036, 9.997862 
2.3557705e+3, 2.2818993e+2, -161206.06, -767299.0, 224864.02, -0.1262594, -0.3035832, -86891.97, 616813.1, 0.2613125, 10.005947, 9.996352 
2.3554158e+3, 2.3818354e+2, -585393.8, -827788.25, 359674.13, -0.27519938, -0.13767049, -327046.25, 278729.8, 0.24582522, 10.000423, 9.998137 
2.3550671e+3, 2.4818213e+2, -355901.38, -123371.55, 109305.03, 0.692424, 0.21416503, -80058.516, 427734.13, 0.2302187, 9.998947, 10.003357 
2.3547053e+3, 2.5817803e+2, -1535269.1, -928416.25, -381280.2, 0.33833686, 0.058957707, -744562.25, -334730.94, 0.21018535, 9.991108, 10.000361 
2.354336e+3, 2.6816994e+2, 194672.73, -237758.1, -194065.9, -0.1343191, -0.085360214, 268992.47, 580901.7, 0.17674823, 10.004178, 9.998248 
2.3539788e+3, 2.781561e+2, 891863.94, -725938.6, 552366.75, -0.24813263, -0.37387803, 1062467.9, 1276512.6, 0.13580167, 10.012912, 9.990041 
2.3536204e+3, 2.881468e+2, 1965433.6, 1037100.6, 141827.4, 0.13994995, -0.2536102, 1986618.0, 2102754.3, 0.12682611, 10.015009, 10.001473 
2.353275e+3, 2.9814693e+2, -216046.56, 92185.46, 457383.9, 0.67824143, -0.37945962, 420720.25, 438854.8, 0.18576388, 9.997418, 10.002519 
2.3529233e+3, 3.081393e+2, 209996.14, -565316.56, -281677.16, 0.23747188, -0.059769038, 301526.03, 301526.03, 0.31001014, 10.006055, 9.99351 
2.3682588e+3, 1.5860566e+2, -1382071.8, -1603615.8, -116327.414, 0.058126997, 0.026750622, -1332212.1, 53424.727, 0.40917975, 10.000254, 9.997946 
2.3679075e+3, 1.6859248e+2, -1351252.1, -2066715.9, 135436.78, 0.22190848, -0.13895626, -1326472.3, -38698.246, 0.3191439, 10.0023365, 9.992918 
2.3675498e+3, 1.785802e+2, -1538774.5, -1913743.8, 327012.6, -0.52999824, -0.16057529, -1349313.9, -159416.86, 0.25440213, 9.999284, 9.994949 
2.3671968e+3, 1.8857017e+2, -1002206.94, -631484.1, 131119.08, -0.33567384, -0.56583405, -589796.94, 502191.84, 0.20803183, 9.998116, 10.00432 
2.3668459e+3, 1.9856553e+2, -1129179.8, -904967.94, -52701.15, 0.2903938, -0.83488095, -893198.3, 100827.5, 0.17323136, 9.997645, 10.001451 
2.3664832e+3, 2.0856577e+2, -951500.44, -1048826.9, -132549.69, -0.06858292, -0.114273086, -858963.3, 37057.67, 0.14628568, 9.99968, 9.998573 
2.36612e+3, 2.18567e+2, -492115.9, -789209.94, -81024.96, -0.24626634, 0.72620857, -471455.2, 326552.8, 0.12553912, 10.002356, 9.998509 
2.3657648e+3, 2.2855508e+2, -346246.0, -508406.9, 110957.86, -0.1935223, 0.22229739, -289901.25, 410220.72, 0.108313076, 10.002006, 9.9999895 
2.3654082e+3, 2.3853683e+2, -608597.44, -814718.75, -23952.523, -0.35904914, -0.9488186, -605850.6, -3552.2178, 0.092006706, 10.000113, 9.998049 
2.3650461e+3, 2.4853003e+2, -362417.47, -499463.7, -206662.2, -0.5358868, -0.8589548, -213214.4, 291159.03, 0.07587349, 10.000804, 9.99922 
2.3646887e+3, 2.5852558e+2, -292398.97, -710159.94, -82602.625, -0.35986558, -0.47715232, -276659.22, 129768.58, 0.059167173, 10.00179, 9.996575 
2.3643363e+3, 2.685221e+2, 357276.5, 449163.7, -95098.125, 0.14679259, -0.30923095, 508834.8, 817296.5, 0.040480368, 10.002352, 10.003702 
2.36399e+3, 2.7851757e+2, -229486.56, -537348.9, 33575.055, 0.6572289, -0.41506946, -225867.45, -15364.524, 0.022792675, 10.000964, 9.996664 
2.3636216e+3, 2.8850824e+2, -123804.98, -752953.94, -350402.06, -0.003818781, -0.22867692, 32511.943, 145108.64, 0.018048093, 10.002578, 9.993606 
2.363253e+3, 2.98501e+2, -277584.22, -279973.53, 234228.7, -0.8318049, -0.19821547, -44547.133, -29876.043, 0.038622525, 9.998769, 9.998479 
2.3629236e+3, 3.0849773e+2, -103095.11, 837629.6, 88641.9, 0.84585345, -0.32841337, 845909.25, 845909.25, 0.0855374, 9.995521, 10.008111 
2.378612e+3, 1.489557e+2, -1590017.9, -1953636.0, -58266.652, 0.10529675, -0.54375505, -1580909.3, -100709.6, 0.38968346, 10.000709, 9.995739 
2.3782495e+3, 1.589491e+2, -1451923.3, -1819479.4, -191925.3, -0.5143307, -0.3744559, -1369976.4, 12298.075, 0.27836236, 10.000831, 9.996143 
2.3779006e+3, 1.6894422e+2, -1124314.4, -981460.06, 116542.21, -0.08294654, -0.24945532, -916198.06, 368124.28, 0.19862524, 9.999905, 10.001989 
2.377553e+3, 1.789415e+2, -1480094.5, -1368622.8, 199187.84, 0.32621077, -0.18721774, -1217519.9, -31173.637, 0.1461588, 9.997707, 9.999372 
2.3771928e+3, 1.8893395e+2, -1423405.5, -1244734.9, 90991.375, -0.040000603, -0.24461257, -1206554.6, -118142.25, 0.11113541, 9.997414, 9.999566 
2.3768325e+3, 1.9892396e+2, -1576373.6, -1435086.1, -47947.477, -0.3304064, -0.6524039, -1420351.3, -429848.97, 0.08556882, 9.996155, 9.9983635 
2.3764764e+3, 2.0891693e+2, -1098014.1, -1037914.94, -35593.215, -0.18742284, -0.64269453, -1021382.8, -128810.39, 0.065839775, 9.998441, 9.99917 
2.3761174e+3, 2.1891014e+2, -899008.2, -1094097.5, -15603.692, -0.26090634, -0.66121596, -897768.06, -103126.09, 0.050802168, 9.999819, 9.997579 
2.3757605e+3, 2.2890449e+2, -691466.44, -705795.3, 32587.475, -0.3169495, -0.5043561, -665265.1, 31432.969, 0.03888462, 9.999716, 9.999502 
2.3754068e+3, 2.3889798e+2, -1116621.9, -1201255.4, -83780.99, -0.10711486, -0.4554883, -1065077.3, -466314.8, 0.028499532, 9.997454, 9.99665 
2.3750463e+3, 2.4889044e+2, -577871.8, -713308.44, -211399.03, -0.09504668, -0.3624597, -423609.66, 77235.04, 0.019239584, 9.99988, 9.998048 
2.3746882e+3, 2.588817e+2, -575553.9, -960626.9, -94138.07, -0.12572813, -0.36438102, -553772.2, -150831.77, 0.01143259, 10.00047, 9.995439 
2.3743322e+3, 2.688777e+2, -5328.7964, -134309.34, -233769.19, 0.062043287, 0.0057533635, 172682.53, 477667.4, 0.005417436, 10.001743, 9.999697 
2.3739797e+3, 2.7887323e+2, -496862.7, -645379.56, -228337.1, 0.13012964, 0.1499242, -331012.53, -123980.18, 0.0017240121, 9.999103, 9.996836 
2.3736177e+3, 2.8886157e+2, 99171.305, -169316.67, -417171.13, -0.045746237, -0.14977027, 403166.06, 512310.22, 0.0009965353, 10.002038, 9.997922 
2.3732606e+3, 2.988553e+2, -33168.61, -190062.84, 57574.234, 0.04683089, -0.2954748, -14308.264, -3106.221, 0.0037784507, 10.000495, 9.998354 
2.3729126e+3, 3.088504e+2, -163989.03, 231800.06, -20646.303, 0.06690403, -0.022131376, 232874.16, 232874.16, 0.011109927, 9.997802, 10.002461 
2.3889622e+3, 1.3931605e+2, -1693929.6, -2158706.8, 258825.08, 0.017881637, -0.41000193, -1578475.0, -3799.4395, 0.42782903, 10.001061, 9.994723 
2.3886089e+3, 1.4931194e+2, -1164706.4, -1275371.4, -117163.016, 0.10998148, -0.13671418, -1090467.0, 386248.38, 0.29985446, 10.002345, 10.000323 
2.3882478e+3, 1.5930308e+2, -979704.9, -1265733.9, 32980.727, -0.41295603, -0.45460093, -975951.3, 402850.16, 0.19614406, 10.003151, 9.999119 
2.3878957e+3, 1.6929947e+2, -917876.7, -912354.56, 28822.73, -0.12073056, -0.2830997, -886160.94, 394678.1, 0.12585048, 10.001404, 10.001739 
2.3875457e+3, 1.7929687e+2, -1233879.0, -1167946.0, -119570.17, 0.31445122, -0.14337932, -1076881.0, 105984.89, 0.083471425, 9.998916, 10.00027 
2.387187e+3, 1.8929031e+2, -1100400.9, -1028501.1, -118913.27, 0.12223074, -0.21268827, -940222.3, 144701.7, 0.057587944, 9.999277, 10.000239 
2.3868264e+3, 1.992819e+2, -990139.6, -1105787.4, -45763.24, -0.2087826, -0.46753234, -974221.56, 12778.038, 0.03970386, 9.999797, 9.998917 
2.3864688e+3, 2.0927326e+2, -855327.8, -909375.2, -34357.53, -0.2649194, -0.65102595, -838639.7, 50445.145, 0.026570952, 9.999898, 9.999424 
2.3861118e+3, 2.192648e+2, -821812.75, -998193.9, -13347.162, -0.25447324, -0.8206543, -820808.44, -29638.146, 0.017417854, 10.000015, 9.998162 
2.3857565e+3, 2.2926097e+2, -461031.47, -640218.5, 10102.671, -0.18328544, -0.46902525, -460463.7, 232746.52, 0.011141793, 10.001518, 9.999101 
2.3854026e+3, 2.3925681e+2, -281988.78, -788210.56, -36015.938, -0.020714952, -0.10780649, -279439.22, 315814.1, 0.0065593217, 10.003166, 9.9966955 
2.3850435e+3, 2.4924734e+2, -72520.984, -562411.56, -134373.58, 0.017884666, -0.15290438, -38084.004, 459268.0, 0.0032030866, 10.003708, 9.99724 
2.3846857e+3, 2.5923684e+2, -241583.58, -784265.25, -24058.652, 0.020080753, -0.25769833, -240519.08, 158942.58, 0.0011282732, 10.002672, 9.995551 
2.3843269e+3, 2.692316e+2, -245171.98, -446588.44, -59724.363, -0.040369045, 0.10345572, -228794.16, 72724.57, 0.00023273825, 10.000874, 9.997982 
2.3839702e+3, 2.7922595e+2, -604931.2, -578145.5, 55445.34, -0.11733543, 0.2953754, -534498.4, -330919.4, 0.000018977813, 9.997717, 9.997967 
2.383614e+3, 2.8921458e+2, 35446.89, 69346.125, -99780.39, 0.084394395, -0.18557134, 153606.27, 259292.88, 0.000039610317, 10.000381, 10.000335 
2.3832634e+3, 2.9920912e+2, 4371.109, -340202.4, 27352.113, 0.872449, -0.27291524, 6528.798, 14263.387, 0.00031053094, 10.001418, 9.996836 
2.3829019e+3, 3.0920228e+2, -255728.44, -164270.02, -329584.25, -0.14743075, 0.12566604, 122742.33, 122742.33, 0.0010092406, 9.998887, 9.9989805 
2.3993161e+3, 1.2966788e+2, -1033490.44, -1181871.0, 27099.225, 0.41235974, -0.09047249, -1028696.1, 640557.25, 0.4904385, 10.007179, 10.002086 
2.3989597e+3, 1.3966897e+2, -1546257.5, -1442647.4, -52196.785, 0.060668807, 0.1499956, -1420911.5, 150319.63, 0.36336115, 9.999205, 10.001208 
2.398605e+3, 1.4966457e+2, -1166098.8, -855656.56, 3322.0803, 0.10237031, -0.11272436, -855621.06, 617641.44, 0.24041095, 10.000037, 10.004872 
2.3982488e+3, 1.5965888e+2, -1241848.0, -1251378.1, -6851.0405, 0.008125992, -0.5517063, -1238267.9, 137040.94, 0.14389461, 10.000387, 10.000359 
2.3978913e+3, 1.6965456e+2, -1276498.8, -1357063.1, -16905.807, -0.08468115, -0.304546, -1273095.0, 4263.5664, 0.08188297, 10.00009, 9.998885 
2.3975347e+3, 1.7964953e+2, -1451777.8, -1408822.8, -101893.38, -0.07499499, -0.14210321, -1326167.9, -146751.45, 0.047678713, 9.998095, 9.998985 
2.3971799e+3, 1.8964566e+2, -1013376.75, -737601.8, -54365.855, 0.11999856, -0.07631723, -727271.2, 354181.0, 0.028905774, 9.998906, 10.0023985 
2.3968245e+3, 1.9964175e+2, -1150996.6, -1124880.4, -56430.996, 0.24167451, -0.07802439, -1080016.4, -96530.266, 0.017015342, 9.998648, 9.999302 
2.3964651e+3, 2.096345e+2, -989497.94, -971184.1, -45684.457, 0.0024672195, -0.13195477, -933747.9, -48191.938, 0.00915297, 9.999165, 9.999289 
2.3961064e+3, 2.1962632e+2, -1127498.6, -1227373.0, -1673.2539, -0.1569814, -0.25285724, -1127470.6, -339834.84, 0.0045936005, 9.998456, 9.997328 
2.395751e+3, 2.2962068e+2, -609979.06, -746071.44, 67831.19, -0.25983453, -0.059483994, -581945.3, 107749.47, 0.0022051786, 10.000733, 9.998712 
2.395396e+3, 2.396138e+2, -566168.06, -1006235.0, -31688.95, -0.37561432, 0.045346662, -563897.9, 27868.15, 0.0009056362, 10.001659, 9.995925 
2.395039e+3, 2.496035e+2, -189335.28, -603791.44, -166326.3, -0.17825359, -0.07571119, -130841.87, 363026.4, 0.00023937336, 10.003062, 9.997152 
2.3946826e+3, 2.5959253e+2, -421890.06, -853768.44, -117580.414, 0.016174607, -0.27266863, -391953.5, 4023.2378, 0.000025130046, 10.001447, 9.995674 
2.3943205e+3, 2.695854e+2, -180346.23, -263274.22, -141485.16, -0.1602487, -0.1941519, -74374.44, 223670.42, 0.00000030344088, 10.000754, 9.999272 
2.3939602e+3, 2.7957913e+2, -678416.1, -542387.94, 46689.97, -0.3871989, -0.22729915, -527904.4, -327800.4, 0.0000000068303647, 9.996965, 9.9986 
2.393608e+3, 2.8957096e+2, -68738.89, -62188.113, 93373.64, 0.0039686006, -0.36655512, 27967.568, 130150.13, 0.0000039429096, 10.00013, 9.999517 
2.3932584e+3, 2.9956543e+2, -261581.14, -738653.44, 106714.586, 0.4190305, -0.23941393, -238798.53, -234563.0, 0.00006190627, 10.000818, 9.994372 
2.3928982e+3, 3.0955425e+2, -23552.566, -27225.535, -43839.66, -0.25555673, -0.24474005, 18489.057, 18489.057, 0.0002690841, 10.0001745, 9.999309 
2.409315e+3, 1.3002893e+2, -1350071.6, -1248471.5, -20456.135, 0.37867385, 0.18729733, -1244507.6, 421201.06, 0.44510007, 10.001483, 10.003899 
2.4089533e+3, 1.400246e+2, -1801825.9, -1515307.4, 81020.68, 0.16574997, -0.06498994, -1493983.6, 73756.41, 0.31930807, 9.996994, 10.001701 
2.4085976e+3, 1.5001953e+2, -1495976.0, -1169531.4, 80241.44, 0.06388732, -0.23415408, -1150874.1, 318908.1, 0.20041417, 9.997962, 10.002978 
2.408242e+3, 1.6001369e+2, -1394267.9, -1282190.4, -60194.086, -0.10004423, -0.5168114, -1255987.6, 115845.73, 0.110025235, 9.998912, 10.000824 
2.407885e+3, 1.700101e+2, -1210627.6, -1132232.0, -23625.36, -0.08310629, -0.34972113, -1125662.8, 148208.5, 0.054970514, 9.999597, 10.000783 
2.4075283e+3, 1.8000612e+2, -1181877.0, -1209546.0, 84753.59, -0.05318113, -0.19502224, -1109836.1, 66079.05, 0.027314784, 9.999499, 9.99972 
2.4071738e+3, 1.9000131e+2, -843287.75, -829486.9, 54618.094, 0.11338549, -0.11972785, -781335.06, 296631.6, 0.013986388, 10.000737, 10.000903 
2.4068192e+3, 1.9999623e+2, -714800.7, -923509.56, -73723.64, 0.22287449, -0.08369717, -691385.7, 288633.25, 0.006556314, 10.001597, 9.999286 
2.4064602e+3, 2.0999008e+2, -564966.9, -721997.1, -112460.62, 0.06186599, -0.05685204, -506325.06, 375750.88, 0.002469395, 10.001894, 9.9997 
2.4061015e+3, 2.1998318e+2, -553296.3, -898086.6, 3035.1714, -0.1390519, -0.058956023, -553269.56, 230871.23, 0.00078321603, 10.002012, 9.997909 
2.4057469e+3, 2.2997534e+2, -449879.47, -729437.3, 71618.9, -0.23304017, -0.07890568, -432599.75, 253620.97, 0.00023610769, 10.001857, 9.998372 
2.4053925e+3, 2.399669e+2, -500733.44, -848747.56, -7810.5977, -0.31645435, -0.11963008, -500558.22, 87748.73, 0.000047296035, 10.001353, 9.997202 
2.4050349e+3, 2.4995874e+2, -357695.63, -518177.22, -58687.5, -0.19983132, -0.16375092, -338524.1, 151860.5, 0.0000020598873, 10.001113, 9.998727 
2.4046774e+3, 2.5995e+2, -410051.22, -662014.1, 68222.195, -0.03806827, -0.26085138, -392765.1, -297.56668, 0.0, 10.000644, 9.997382 
2.4043162e+3, 2.699417e+2, -3606.9517, -211202.8, -73740.98, -0.12534373, -0.310266, 19920.46, 314468.78, 0.0, 10.002082, 9.999008 
2.4039556e+3, 2.799342e+2, 107478.16, -156512.22, -31499.416, -0.22299609, -0.40995473, 111184.64, 307804.84, 0.0, 10.002203, 9.998748 
2.403603e+3, 2.8992742e+2, 93044.97, -35655.777, 49366.836, 0.031766944, -0.40329602, 109799.805, 208484.72, 0.00000028208012, 10.001339, 9.999172 
2.4032527e+3, 2.9992282e+2, -486796.06, -799901.44, 177952.39, 0.41178188, -0.12187916, -406334.4, -405604.53, 0.000017512673, 9.998937, 9.994897 
2.4028975e+3, 3.0990702e+2, 180143.6, 102817.375, -63596.99, 0.13419257, -0.6199846, 215907.72, 215907.72, 0.0001005609, 10.001374, 9.999701 
2.4193111e+3, 1.303805e+2, -1580220.6, -1323005.1, -96597.164, 0.5415811, -0.50979525, -1290768.4, 371481.88, 0.41411307, 9.998432, 10.0040865 
2.4189468e+3, 1.4038034e+2, -1738403.0, -1717969.1, -52737.066, 0.38171554, -0.37836745, -1674468.4, -110224.08, 0.28877336, 9.998603, 9.999275 
2.4185899e+3, 1.5037493e+2, -1566628.3, -1476267.8, 160973.61, 0.08038491, -0.32364422, -1354254.3, 112043.05, 0.17287979, 9.998936, 10.000004 
2.4182339e+3, 1.6036865e+2, -1511300.9, -1408849.3, 4736.393, -0.19875346, -0.41077283, -1408630.8, -40272.31, 0.08747846, 9.998412, 10.000174 
2.4178791e+3, 1.7036644e+2, -1064859.5, -701381.9, -17720.076, -0.0049648094, -0.3450765, -700520.06, 569855.0, 0.038149297, 9.999128, 10.003986 
2.4175245e+3, 1.8036407e+2, -1379717.5, -1340190.4, 46208.14, 0.22698367, -0.278869, -1309696.8, -137301.25, 0.01570925, 9.998429, 9.999266 
2.4171688e+3, 1.9035637e+2, -1156762.3, -1300553.4, 72980.98, 0.14344096, -0.2904128, -1126211.8, -51728.664, 0.0064830934, 10.000028, 9.997917 
2.4168128e+3, 2.0034799e+2, -1078271.5, -1307648.6, -66956.37, 0.06402088, -0.3356132, -1060157.1, -83581.74, 0.0021827125, 10.000087, 9.997351 
2.4164546e+3, 2.103424e+2, -640218.8, -726930.1, -101283.91, -0.06045328, -0.24404281, -573401.25, 305223.03, 0.00044835047, 10.001277, 9.999929 
2.4160972e+3, 2.203364e+2, -825594.94, -1078712.6, -8910.388, -0.16212304, -0.19125624, -825281.6, -44605.14, 0.000068581576, 10.0005045, 9.997364 
2.415744e+3, 2.3032707e+2, -581814.1, -769608.94, 46479.332, -0.073930584, -0.36012617, -570940.06, 111829.19, 0.0000096515805, 10.001109, 9.998337 
2.4153914e+3, 2.4031791e+2, -667497.7, -790742.9, -65673.69, 0.023942608, -0.5330094, -639062.6, -54202.668, 0.00000040342232, 9.999808, 9.998302 
2.4150299e+3, 2.503149e+2, -208323.8, -86663.61, -79426.484, -0.18190563, -0.35236156, -47449.38, 439434.06, 0.0, 10.000702, 10.001832 
2.4146692e+3, 2.603112e+2, -632011.44, -806141.6, 50016.156, -0.35207945, -0.20034465, -618667.6, -229751.98, 0.0, 9.999385, 9.997012 
2.4143133e+3, 2.7030215e+2, -272910.75, -636829.4, -21776.285, -0.0058158534, -0.13148896, -271612.3, 19402.53, 0.0, 10.001636, 9.996232 
2.4139576e+3, 2.802927e+2, -185586.38, -558536.44, -59366.297, 0.23428501, -0.16283962, -176364.45, 16752.793, 0.0, 10.001406, 9.996372 
2.4135989e+3, 2.9028475e+2, 87746.945, 48999.184, -17289.002, 0.030525338, -0.25590703, 94339.516, 189530.05, 0.0000000009564638, 10.00109, 9.9998 
2.4132448e+3, 3.0027896e+2, -624246.6, -710531.1, 222885.56, 0.0056672706, -0.21154824, -440366.34, -440366.34, 0.0000015325257, 9.997462, 9.996207 
2.4128945e+3, 3.1026998e+2, 187425.42, 110316.51, 74673.13, 0.0094644595, -0.26306623, 232909.78, 232909.78, 0.000021924814, 10.001367, 9.999793 
2.429304e+3, 1.3074441e+2, -1768228.0, -1529660.3, 29133.45, 0.5568606, -0.08675783, -1526154.0, 132526.13, 0.3927152, 9.997685, 10.002039 
2.4289402e+3, 1.407368e+2, -1108309.8, -1352102.1, 23163.469, 0.010421194, -0.4609766, -1106128.5, 454625.66, 0.26710206, 10.003722, 9.999877 
2.4285847e+3, 1.5073298e+2, -1068757.1, -1162846.8, 132591.75, 0.0148252705, -0.31714436, -975111.56, 487678.3, 0.15331793, 10.002293, 10.000921 
2.42823e+3, 1.6072859e+2, -1376982.9, -1369445.4, 131241.13, 0.022747267, -0.21668586, -1241918.9, 122912.11, 0.07196278, 9.999346, 10.000068 
2.4278733e+3, 1.7072266e+2, -1164073.0, -981350.5, -33078.33, 0.071621075, -0.34097356, -975546.6, 291338.84, 0.027363949, 9.999434, 10.001822 
2.4275169e+3, 1.8071677e+2, -1276968.9, -1359895.0, -101334.36, 0.09705516, -0.44298074, -1208943.0, -40000.605, 0.009079448, 9.999343, 9.998678 
2.4271624e+3, 1.9071117e+2, -1185460.9, -1312533.6, -9680.099, 0.09605111, -0.2365964, -1184727.8, -113716.26, 0.002868925, 9.999715, 9.998028 
2.4268074e+3, 2.0070492e+2, -1024032.3, -1170317.4, -5937.2715, 0.048487008, -0.08257106, -1023791.75, -50707.355, 0.00059867656, 9.999824, 9.998459 
2.4264497e+3, 2.1069768e+2, -612412.3, -658373.06, -2566.9624, -0.07420239, -0.22229797, -612269.44, 262875.9, 0.000045539302, 10.001032, 10.000616 
2.4260928e+3, 2.2069038e+2, -590096.56, -846663.25, 88357.055, -0.16655493, -0.34209782, -562612.1, 214594.48, 0.0000022398012, 10.001481, 9.998504 
2.4257395e+3, 2.3068216e+2, -695645.1, -782855.06, 128433.75, -0.015460689, -0.433441, -603615.94, 75671.16, 0.000000052409952, 10.0001, 9.99877 
2.425386e+3, 2.4067436e+2, -698765.5, -638423.44, 49094.895, 0.123183355, -0.5030126, -610969.8, -29606.576, 0.0, 9.998806, 9.9998255 
2.425025e+3, 2.506712e+2, -216799.78, -27441.959, -110822.36, -0.11858668, -0.4051773, 23638.145, 507025.28, 0.0, 10.000271, 10.002498 
2.424664e+3, 2.6066783e+2, -296030.63, -576245.25, -130572.164, -0.31253582, -0.26099497, -244619.92, 140796.4, 0.0, 10.001246, 9.997708 
2.4243091e+3, 2.706593e+2, -395481.75, -786158.3, -94861.24, 0.035919197, -0.12099949, -373666.4, -86150.9, 0.0, 10.001037, 9.99554 
2.4239549e+3, 2.8065032e+2, -264362.13, -547992.44, 18636.262, 0.4089492, -0.028967675, -263142.84, -73525.18, 0.0, 10.000518, 9.996892 
2.4235952e+3, 2.9064226e+2, 353439.5, 200476.42, 30221.846, 0.09856462, -0.156779, 359194.13, 450885.6, 0.0, 10.002621, 10.000202 
2.4232395e+3, 3.0063573e+2, 215620.95, -120537.75, 227844.17, -0.026072761, -0.2323321, 330673.44, 330673.44, 0.000000086511356, 10.002262, 9.997999 
2.4228927e+3, 3.1063268e+2, -96683.93, -12041.734, -257943.16, 0.3344289, 0.23755777, 207029.11, 207029.11, 0.0000026170453, 9.999105, 10.000159 
2.4396487e+3, 1.2110131e+2, -2246975.3, -1992144.8, -642084.75, 0.026919931, -0.93710905, -1464955.1, 288213.5, 0.4945734, 9.996569, 10.000613 
2.439296e+3, 1.3110876e+2, -1704877.3, -1720848.4, 256730.28, 0.51082987, 0.40835485, -1456008.4, 199099.4, 0.3775347, 10.00008, 9.99936 
2.4389347e+3, 1.410937e+2, -1375023.4, -1497649.1, 82011.63, -0.257889, -0.49274415, -1333939.1, 223322.63, 0.25111946, 10.001448, 9.999535 
2.438581e+3, 1.510922e+2, -1161536.0, -1068752.9, 27287.785, 0.06083314, -0.24043792, -1061322.5, 397949.13, 0.13882844, 10.000935, 10.002201 
2.4382272e+3, 1.6108951e+2, -1634243.5, -1704375.1, 14136.554, 0.44340733, -0.011176927, -1631501.3, -270207.75, 0.060861234, 9.998614, 9.998036 
2.4378677e+3, 1.71078e+2, -1387810.8, -1509829.9, -36772.355, 0.17222324, -0.38350514, -1377585.8, -114178.53, 0.02025213, 9.999803, 9.997917 
2.4375086e+3, 1.8106776e+2, -1364199.9, -1552347.4, -59256.984, -0.06342609, -0.6086658, -1347092.4, -181580.9, 0.0052852775, 9.999486, 9.9973 
2.4371555e+3, 1.9106683e+2, -1137270.4, -1131516.6, 17837.531, 0.059828788, -0.031414725, -1116325.4, -48790.16, 0.0012089658, 9.999474, 9.999363 
2.4368025e+3, 2.0106484e+2, -1184262.4, -1141704.5, 23592.918, 0.20183681, 0.4242223, -1131212.0, -161647.48, 0.00012403581, 9.99846, 9.999269 
2.436445e+3, 2.1105526e+2, -673931.0, -551644.2, 34438.6, 0.008282627, -0.08381211, -542612.56, 329031.56, 0.000001917801, 10.000217, 10.00162 
2.4360882e+3, 2.2104584e+2, -837557.6, -971769.25, 49272.492, -0.14218226, -0.50274575, -821411.0, -47687.848, 0.000000018702426, 9.999956, 9.9983225 
2.4357325e+3, 2.3104076e+2, -732320.56, -749567.2, 60662.477, -0.10154354, -0.33247748, -679671.56, -3899.2075, 0.0, 9.999676, 9.999146 
2.4353772e+3, 2.410352e+2, -990101.6, -936392.44, 34751.133, -0.037196383, -0.20056285, -919328.8, -341502.0, 0.0, 9.997588, 9.998357 
2.43502e+3, 2.5102767e+2, -427113.1, -335651.75, -57923.805, 0.0033502516, -0.37689924, -307582.28, 172314.0, 0.0, 9.999874, 10.000515 
2.4346621e+3, 2.6102027e+2, -532431.0, -784177.56, -141824.08, -0.042424023, -0.47848368, -468677.94, -86710.49, 0.0, 10.000169, 9.996785 
2.4343015e+3, 2.7101356e+2, -355167.13, -579210.06, -125400.32, -0.20353626, -0.27674332, -299039.72, -14995.034, 0.0, 10.000601, 9.997135 
2.4339436e+3, 2.810068e+2, -438675.47, -598686.9, 40165.285, -0.19351195, -0.1090897, -429159.3, -243038.11, 0.0, 9.999282, 9.9971485 
2.4335925e+3, 2.909999e+2, 228371.66, 77468.51, 131347.14, 0.11382191, -0.13210338, 304396.2, 392582.84, 0.0, 10.002138, 9.99956 
2.4332395e+3, 3.0099338e+2, -81878.56, -378836.25, 145189.66, 0.09581378, -0.10483884, -22689.396, -22689.396, 0.0, 10.000835, 9.996909 
2.4328826e+3, 3.1098697e+2, -340115.47, -107570.625, -57191.85, -0.19344829, -0.051982917, -94266.1, -94266.1, 0.00000012758136, 9.997563, 10.000133 
2.4496545e+3, 1.21470235e+2, -1452142.6, -1474073.5, -166922.06, 1.0185617, -0.27416304, -1295826.3, 453722.25, 0.48541966, 10.002275, 10.002211 
2.4492864e+3, 1.31464e+2, -1428952.9, -1714118.6, 232239.48, -0.1249268, -0.18148914, -1299019.6, 352600.34, 0.3659335, 10.003171, 9.9979725 
2.4489321e+3, 1.4145568e+2, -1505562.3, -1703491.8, 137395.69, -0.110250875, -0.24761055, -1435200.1, 118510.56, 0.23856215, 10.00082, 9.998381 
2.4485764e+3, 1.514505e+2, -1334989.3, -1324329.3, -18867.406, 0.15318419, -0.18352458, -1310053.4, 145709.48, 0.1275105, 10.000298, 10.000509 
2.448221e+3, 1.6144468e+2, -1444339.5, -1618336.5, -14152.986, 0.38276297, -0.13677034, -1443195.8, -85375.51, 0.052560914, 9.999838, 9.998053 
2.4478623e+3, 1.7143533e+2, -991016.8, -1303539.5, 92185.9, 0.088227525, -0.30437583, -965850.94, 294060.75, 0.01541553, 10.002335, 9.998196 
2.4475041e+3, 1.8142666e+2, -735893.44, -1138232.4, 105318.24, -0.17634921, -0.38394937, -709992.25, 452006.28, 0.0031067657, 10.003215, 9.998383 
2.4471496e+3, 1.9142357e+2, -921471.1, -971418.9, 112595.695, 0.05829109, -0.06394246, -831112.94, 232924.22, 0.00048131414, 10.000616, 9.999983 
2.4467959e+3, 2.0141988e+2, -1190639.0, -1105849.5, 165610.5, 0.2518192, 0.2029237, -977293.56, -11214.435, 0.000015932997, 9.998152, 9.9996605 
2.44644e+3, 2.1141179e+2, -894232.06, -732242.1, 105537.26, 0.107819594, -0.091075554, -680202.1, 187948.52, 0.0000000054715246, 9.998983, 10.0009985 
2.4460834e+3, 2.2140372e+2, -751140.06, -804411.5, 32733.668, -0.06174085, -0.34037828, -735574.44, 34646.504, 0.0, 9.999858, 9.999549 
2.4457262e+3, 2.3139864e+2, -499802.78, -533108.44, 38082.844, -0.15206265, -0.27241373, -474890.97, 197375.08, 0.0, 10.00068, 10.000226 
2.4453697e+3, 2.4139303e+2, -470860.13, -709807.2, 58483.445, -0.18528132, -0.18068567, -457313.97, 117004.36, 0.0, 10.001042, 9.998305 
2.4450144e+3, 2.5138423e+2, -344515.06, -507062.56, 9598.727, -0.02592675, -0.32902136, -343950.2, 132456.23, 0.0, 10.001157, 9.998831 
2.444658e+3, 2.6137578e+2, -341230.13, -608231.8, -84148.04, 0.04500892, -0.40981948, -316922.97, 61568.395, 0.0, 10.000965, 9.997653 
2.4442962e+3, 2.7136943e+2, -166625.39, -362258.75, -123745.31, -0.21751252, -0.2812706, -106704.93, 173854.75, 0.0, 10.001245, 9.998372 
2.4439372e+3, 2.813632e+2, -66692.05, -326931.25, 56969.543, -0.31054708, -0.1515326, -54767.152, 127858.61, 0.0, 10.001263, 9.998093 
2.4435881e+3, 2.9135612e+2, 103939.48, -26565.805, 132912.1, 0.09189385, -0.17745191, 186752.81, 271446.4, 0.0, 10.001277, 9.9993305 
2.4432369e+3, 3.0134964e+2, -119252.53, -350793.72, 98217.29, 0.24353418, -0.12182925, -83202.62, -83202.62, 0.0, 10.000155, 9.997477 
2.4428745e+3, 3.1134325e+2, 172920.83, 265141.0, -68679.74, -0.38232014, -0.0242133, 301753.63, 301753.63, 0.000000000000427524, 10.000316, 10.001427 
2.4596468e+3, 1.2182617e+2, -1570451.1, -1617792.6, -80328.95, 0.58546644, -0.7968472, -1510377.9, 235678.69, 0.47724012, 10.001511, 10.00061 
2.4592786e+3, 1.3181873e+2, -1525738.6, -1817762.1, 71721.76, -0.608013, -0.77254486, -1509074.5, 139063.92, 0.3557266, 10.002289, 9.997353 
2.4589306e+3, 1.4181836e+2, -1676724.1, -2003656.8, -6290.2476, 0.2572999, 0.07024608, -1676603.1, -126450.586, 0.22774403, 10.000466, 9.996422 
2.4585721e+3, 1.5180802e+2, -1490529.5, -1643129.3, -101847.46, 0.30969238, -0.17914364, -1439571.5, 12691.695, 0.11809006, 10.000388, 9.998081 
2.4582142e+3, 1.617987e+2, -1526780.0, -1676943.6, 20255.865, 0.31628755, -0.31152788, -1524095.6, -169734.95, 0.04605504, 9.999471, 9.997798 
2.4578577e+3, 1.7179443e+2, -1053005.4, -1145689.4, 159489.02, 0.0056199897, -0.13100776, -933262.06, 323137.06, 0.012013259, 10.001195, 9.999783 
2.457501e+3, 1.817893e+2, -1035577.9, -1249914.9, 15637.693, -0.17005156, 0.013016108, -1034443.0, 124003.336, 0.0018483637, 10.001133, 9.998593 
2.4571443e+3, 1.9178057e+2, -996816.94, -998844.4, -40982.813, 0.09734054, -0.26937407, -956835.3, 103695.805, 0.00018026956, 10.000118, 9.999992 
2.4567886e+3, 2.0177276e+2, -1395609.6, -1392889.9, 105786.82, 0.32596764, -0.37480944, -1288454.3, -325845.72, 0.0000007906511, 9.99769, 9.997907 
2.4564338e+3, 2.1176806e+2, -1064845.6, -1025901.6, 119178.83, 0.22488138, -0.16309913, -924614.56, -59955.91, 0.0, 9.998825, 9.99905 
2.4560787e+3, 2.2176272e+2, -979625.7, -919809.7, 32002.486, 0.07606783, -0.0139780305, -905915.3, -139204.05, 0.0, 9.998531, 9.99937 
2.4557205e+3, 2.3175596e+2, -522837.03, -350030.78, 41052.066, -0.16956188, -0.2608482, -340774.25, 327991.72, 0.0, 9.999955, 10.001719 
2.455363e+3, 2.4174921e+2, -791538.25, -991538.6, 37504.43, -0.32885668, -0.35345414, -784736.6, -213911.0, 0.0, 9.999577, 9.997035 
2.4550065e+3, 2.5174192e+2, -547282.9, -785593.56, -8809.22, -0.27597368, -0.21790403, -546957.7, -74050.24, 0.0, 10.000603, 9.997149 
2.4546507e+3, 2.6173458e+2, -609890.56, -807958.1, -108713.04, -0.18689731, -0.069764696, -561865.8, -186878.92, 0.0, 9.999542, 9.996944 
2.454294e+3, 2.7172723e+2, -195550.55, -296229.25, -107369.484, 0.03352349, -0.11426267, -127305.516, 149751.75, 0.0, 10.0008135, 9.998978 
2.4539372e+3, 2.8171977e+2, -278228.13, -468869.5, 65315.023, 0.10589249, -0.12884314, -257997.6, -78869.664, 0.0, 10.000148, 9.997627 
2.4535805e+3, 2.9171067e+2, -54397.047, -117032.266, 124995.55, -0.21565245, -0.37836477, 43144.492, 124358.81, 0.0, 10.000377, 9.999091 
2.4532278e+3, 3.0170193e+2, -553641.44, -636329.75, 77829.4, -0.18475121, -0.47987032, -506856.38, -506856.38, 0.0, 9.9976845, 9.996677 
2.452873e+3, 3.117009e+2, 8924.343, 374968.94, 113819.555, -0.17772073, 0.036406144, 407474.03, 407474.03, 0.0, 9.998688, 10.002844 
2.4696377e+3, 1.2218233e+2, -1595603.4, -1859936.1, -152460.6, -0.07346135, -0.5278758, -1525997.1, 216582.0, 0.46785268, 10.002601, 9.997849 
2.4692756e+3, 1.321758e+2, -1441856.5, -1643564.1, -82108.164, -0.56215185, -0.46472478, -1412659.4, 231993.77, 0.34520847, 10.002494, 9.998535 
2.4689265e+3, 1.4217329e+2, -1534563.6, -1866182.5, -150565.72, 0.25303793, 0.06566951, -1476402.5, 70283.96, 0.21743059, 10.00119, 9.997044 
2.4685659e+3, 1.5216434e+2, -1312842.6, -1550417.5, -155157.16, 0.15671591, -0.06294547, -1236222.3, 212559.67, 0.109704144, 10.001714, 9.998107 
2.468207e+3, 1.6215621e+2, -1148273.3, -1315037.4, 31022.314, 0.06088831, -0.12454939, -1142689.3, 208176.03, 0.040704507, 10.001302, 9.999411 
2.4678518e+3, 1.7215155e+2, -1124727.8, -1042549.94, 131012.02, -0.045007747, -0.099190734, -946334.6, 306568.47, 0.00953522, 10.000023, 10.001126 
2.4674957e+3, 1.8214625e+2, -1325552.3, -1337153.4, -10798.524, -0.13031481, -0.04367168, -1319095.0, -164146.2, 0.0011160366, 9.998836, 9.999116 
2.4671379e+3, 1.9213776e+2, -977553.3, -1060125.8, -102612.85, 0.03410392, -0.24854158, -908232.4, 148799.45, 0.00006263998, 10.000495, 9.999427 
2.4667814e+3, 2.0212981e+2, -827064.94, -1099497.6, 41350.332, 0.17896126, -0.32275504, -820927.0, 138183.48, 0.0000000031066179, 10.001394, 9.998162 
2.4664284e+3, 2.1212429e+2, -691927.5, -899803.1, 112411.164, 0.23837355, -0.15722768, -642766.2, 218402.83, 0.0, 10.001481, 9.998711 
2.4660738e+3, 2.2211854e+2, -606718.06, -703675.4, 44497.973, 0.17394648, -0.012732812, -589392.06, 173834.48, 0.0, 10.000786, 9.999816 
2.4657151e+3, 2.3211172e+2, -605438.7, -424125.28, -53441.1, -0.09393948, -0.24176247, -409546.13, 255738.34, 0.0, 9.999391, 10.001574 
2.4653569e+3, 2.4210507e+2, -815466.9, -902013.0, -57342.848, -0.3089454, -0.32873416, -786901.5, -219557.39, 0.0, 9.998839, 9.99803 
2.4650005e+3, 2.5209886e+2, -459419.9, -689944.94, 27640.768, -0.36685944, -0.13931501, -456152.03, 13261.058, 0.0, 10.000867, 9.997722 
2.4646448e+3, 2.620921e+2, -191265.36, -541217.5, 3214.2295, -0.2950581, 0.034664277, -191235.84, 180250.38, 0.0, 10.001954, 9.997645 
2.4642906e+3, 2.72084e+2, -117559.67, -288211.97, -93181.414, 0.17842674, -0.06579903, -76539.76, 197024.13, 0.0, 10.001323, 9.998851 
2.4639346e+3, 2.8207627e+2, -166841.69, -303782.25, 29779.232, 0.35755375, -0.116970494, -160646.16, 14989.612, 0.0, 10.000315, 9.998693 
2.4635735e+3, 2.9206705e+2, -80064.83, -87684.57, 101499.13, -0.34710208, -0.40957424, 17695.912, 95416.664, 0.0, 9.999889, 9.999609 
2.4632205e+3, 3.0205783e+2, -277223.16, -393929.2, 158769.08, -0.24220453, -0.5890182, -166423.28, -166423.28, 0.0, 9.998957, 9.997765 
2.4628691e+3, 3.1205603e+2, 42710.14, 426827.66, 40240.285, 0.061706256, -0.13907431, 430997.97, 430997.97, 0.0, 9.998434, 10.003454 
2.479634e+3, 1.2254128e+2, -1844160.4, -2233883.5, -74404.13, -0.13375437, 0.06485281, -1830438.6, -91361.15, 0.45571712, 10.0007515, 9.99595 
2.479274e+3, 1.3253269e+2, -1519483.9, -1628944.4, -60996.926, -0.3642592, -0.13349761, -1492262.8, 148909.47, 0.33319858, 10.001369, 9.999142 
2.4789219e+3, 1.4252673e+2, -1589162.4, -1822579.1, -120292.84, 0.28475824, -0.0026084832, -1538266.5, 4971.0894, 0.20679392, 10.000513, 9.99763 
2.4785598e+3, 1.5252097e+2, -1306501.8, -1466213.6, -98288.52, -0.017497411, 0.09526264, -1259718.0, 185579.97, 0.10179194, 10.001402, 9.998838 
2.4782005e+3, 1.6251478e+2, -1228435.1, -1260632.0, 28962.29, -0.10569105, 0.15314296, -1211397.9, 135959.95, 0.036105353, 10.000443, 10.000188 
2.477846e+3, 1.725079e+2, -1077538.4, -893411.25, 65414.805, -0.010429837, -0.16410884, -872537.7, 376875.4, 0.0076701324, 9.999952, 10.002125 
2.47749e+3, 1.8250144e+2, -1403940.9, -1488274.9, -8457.224, 0.027416406, -0.24691647, -1403101.1, -251632.25, 0.000687035, 9.998926, 9.9979925 
2.4771313e+3, 1.9249582e+2, -1020137.2, -1184517.9, -54008.523, -0.05648432, -0.08674261, -1003980.4, 49547.973, 0.000019881356, 10.0007925, 9.998352 
2.4767749e+3, 2.0248921e+2, -958933.1, -1199666.3, 50241.184, -0.000542405, 0.050522037, -948868.56, 6727.38, 0.0, 10.000787, 9.997703 
2.4764234e+3, 2.1248072e+2, -792211.7, -889044.3, 106014.4, 0.21005844, -0.1402177, -724081.06, 133596.22, 0.0, 10.000678, 9.999057 
2.4760693e+3, 2.2247307e+2, -959691.3, -1042955.0, -13603.018, 0.29406735, -0.1710177, -957525.25, -197773.89, 0.0, 9.999208, 9.9981985 
2.4757095e+3, 2.324668e+2, -805460.2, -708013.0, -113970.266, 0.033965465, -0.20733069, -632788.2, 29025.027, 0.0, 9.998866, 9.999843 
2.4753508e+3, 2.4246076e+2, -975866.0, -882272.5, -26040.844, -0.1926364, -0.159164, -875515.0, -311644.25, 0.0, 9.997493, 9.998776 
2.4749956e+3, 2.5245517e+2, -381668.6, -352561.13, 106582.164, -0.3393327, -0.16751967, -259543.64, 206377.2, 0.0, 10.000269, 10.000233 
2.4746402e+3, 2.624485e+2, -489405.16, -808800.3, -18289.406, -0.34473586, -0.11016684, -488361.28, -120375.34, 0.0, 10.000617, 9.99643 
2.4742839e+3, 2.7243924e+2, -358825.66, -580456.0, -129922.31, 0.0054586693, -0.17895019, -298878.4, -28794.469, 0.0, 10.00058, 9.997162 
2.473927e+3, 2.8243166e+2, -378950.72, -400119.5, -18637.283, 0.11452463, -0.1108715, -368102.0, -195941.13, 0.0, 9.998934, 9.998693 
2.4735683e+3, 2.9242647e+2, -107528.516, 91315.695, 90033.42, -0.2689232, -0.17263661, 126023.27, 200227.75, 0.0, 9.999022, 10.001191 
2.4732175e+3, 3.0242065e+2, -642349.7, -647019.5, 114733.26, 0.08502898, -0.09732843, -529927.6, -529927.6, 0.0, 9.996931, 9.996983 
2.4728604e+3, 3.12413e+2, -405960.4, 68539.09, 2425.1016, -0.17682116, -0.19654804, 68551.484, 68551.484, 0.0, 9.996074, 10.002116 
2.489632e+3, 1.2289941e+2, -1716284.1, -1667690.5, -27373.14, 0.15358514, 0.08030955, -1655386.4, 80187.3, 0.43991777, 9.999358, 10.000876 
2.4892706e+3, 1.3289097e+2, -1647031.6, -1848378.5, 50478.29, -0.2150752, -0.036684703, -1635085.4, 2580.477, 0.31901658, 10.0006695, 9.997921 
2.488916e+3, 1.4288397e+2, -1464598.3, -1601678.0, -20220.193, 0.14730003, 0.03332491, -1461677.9, 78061.914, 0.19536594, 10.000729, 9.999074 
2.4885555e+3, 1.5287864e+2, -1198769.9, -1231082.0, 37548.613, 0.009875478, 0.030905291, -1174049.1, 267739.56, 0.094030365, 10.001244, 10.000709 
2.4881965e+3, 1.6287276e+2, -1153514.1, -1261860.4, 162164.17, -0.04869258, 0.041357815, -1036713.75, 307129.16, 0.032013185, 10.001064, 9.999886 
2.4878405e+3, 1.7286593e+2, -938371.4, -994071.4, 107267.49, -0.06434367, -0.11762226, -855397.5, 390507.34, 0.0062260167, 10.001567, 10.000671 
2.487484e+3, 1.8285912e+2, -916600.94, -1225165.9, 25808.635, -0.12104279, -0.14153737, -914457.1, 233511.0, 0.00043419475, 10.002028, 9.998322 
2.4871269e+3, 1.9285253e+2, -591347.94, -960515.7, 32742.572, -0.15892358, -0.091362715, -588466.4, 461568.7, 0.0000058323185, 10.003535, 9.99862 
2.4867707e+3, 2.0284572e+2, -531048.2, -898031.25, 84106.766, -0.13066839, 0.0008727098, -512690.53, 439412.06, 0.000000000090419006, 10.003223, 9.998604 
2.486417e+3, 2.1283793e+2, -769516.56, -838059.7, 111998.27, 0.07651392, -0.14634736, -686663.6, 167511.81, 0.0, 10.000536, 9.999529 
2.4860618e+3, 2.2283038e+2, -978013.75, -1069069.9, 68584.94, 0.16556478, -0.16771637, -941221.1, -184972.14, 0.0, 9.999031, 9.998111 
2.4857037e+3, 2.3282385e+2, -572440.1, -741599.2, 21459.611, 0.05518387, -0.096949935, -569760.2, 88559.14, 0.0, 10.000989, 9.9986515 
2.4853465e+3, 2.4281746e+2, -287113.7, -439345.1, 85222.68, -0.05679563, -0.015821122, -248964.31, 311418.94, 0.0, 10.00162, 9.99983 
2.4849913e+3, 2.5281116e+2, -438386.7, -307167.34, 66130.836, -0.16953729, -0.16835852, -279621.7, 182813.05, 0.0, 9.999399, 10.001034 
2.4846353e+3, 2.6280424e+2, -737570.44, -830546.0, -92417.69, -0.1998942, -0.20355155, -680607.06, -316109.22, 0.0, 9.99831, 9.997426 
2.4842773e+3, 2.7279574e+2, -394033.47, -589807.2, -49369.516, -0.053141035, -0.2252123, -382288.28, -115699.1, 0.0, 10.000104, 9.997422 
2.4839199e+3, 2.827886e+2, -31238.225, -152853.08, 129226.984, 0.004739061, -0.12726066, 50772.965, 219436.75, 0.0, 10.000801, 9.999538 
2.4835633e+3, 2.9278475e+2, 125502.43, 227443.69, 71742.0, -0.15446754, -0.06256567, 264478.28, 335175.16, 0.0, 10.000357, 10.001553 
2.4832116e+3, 3.0278036e+2, -206076.22, -336120.97, 66540.914, 0.24908662, 0.10316565, -178063.11, -178063.11, 0.0, 9.999411, 9.99793 
2.4828516e+3, 3.1277084e+2, -187197.0, 115781.12, -70165.664, -0.17486766, -0.13238554, 131241.61, 131241.61, 0.0, 9.997544, 10.001862 
2.4996275e+3, 1.23255946e+2, -1561219.5, -1434070.1, -70749.11, 0.3092939, -0.12873803, -1402528.1, 329554.38, 0.42027465, 10.000086, 10.003267 
2.4992672e+3, 1.332504e+2, -1746964.0, -1996642.1, 25246.357, 0.020053854, 0.10142848, -1744436.9, -110291.66, 0.30251706, 10.000554, 9.996947 
2.4989101e+3, 1.432425e+2, -1510371.0, -1515972.0, -3983.948, 0.10786981, 0.11848252, -1508301.8, 27923.602, 0.18302314, 9.999836, 10.000122 
2.498552e+3, 1.5323654e+2, -1088363.3, -1007279.25, -16326.478, 0.16528821, -0.14255804, -1004115.3, 434157.9, 0.08629053, 10.001246, 10.002374 
2.4981941e+3, 1.6323076e+2, -1293089.4, -1533074.6, 77535.59, 0.1891515, -0.15198138, -1270218.5, 70106.234, 0.028287582, 10.001006, 9.998007 
2.4978355e+3, 1.7322473e+2, -1161910.5, -1386791.9, 62568.17, -0.11492745, -0.038289696, -1145674.5, 96714.28, 0.0050760456, 10.001209, 9.998137 
2.497478e+3, 1.832176e+2, -1140893.6, -1355540.3, 56257.89, -0.28890255, 0.06885887, -1127042.5, 17418.295, 0.00028139996, 10.000758, 9.997993 
2.4971233e+3, 1.932087e+2, -740554.44, -927971.7, 62785.625, -0.23198901, -0.20643915, -721465.3, 325079.72, 0.0000014559199, 10.002245, 9.999403 
2.4967673e+3, 2.0320109e+2, -763028.7, -998792.25, -10456.378, -0.15119535, -0.24188542, -762565.8, 186050.81, 0.0, 10.00173, 9.998614 
2.4964091e+3, 2.13196e+2, -850721.0, -801298.94, -5274.64, -0.120421216, -0.19285169, -800742.25, 49921.55, 0.0, 9.999855, 10.000045 
2.4960522e+3, 2.2319025e+2, -1235358.9, -1327906.0, 89183.33, -0.06339772, -0.010078009, -1181159.0, -428437.3, 0.0, 9.998002, 9.996825 
2.4956977e+3, 2.331828e+2, -754447.0, -925573.25, 97290.47, 0.006398774, 0.046577558, -710447.44, -55643.094, 0.0, 10.000273, 9.997691 
2.4953431e+3, 2.4317522e+2, -627029.1, -752913.7, 19547.334, 0.05602013, 0.11107873, -624063.7, -67181.555, 0.0, 10.00003, 9.998434 
2.4949865e+3, 2.5316694e+2, -659702.6, -515196.66, -26288.541, 0.055914186, -0.16350454, -510562.84, -51608.305, 0.0, 9.99844, 10.000024 
2.4946296e+3, 2.6316e+2, -844147.25, -700475.0, -68222.734, 0.018032143, -0.19892858, -673241.6, -312226.16, 0.0, 9.99694, 9.998951 
2.494272e+3, 2.7315474e+2, -279518.94, -224430.66, 51870.5, 0.0055791563, -0.18406777, -193244.67, 69820.27, 0.0, 9.999611, 10.0001545 
2.4939144e+3, 2.831485e+2, -300279.3, -457825.63, 124570.12, -0.08432035, -0.09049436, -231665.48, -66538.47, 0.0, 9.999849, 9.997869 
2.4935554e+3, 2.9314086e+2, -136509.36, -152375.95, 69883.62, -0.39481005, -0.21391317, -74110.18, -6902.964, 0.0, 9.999746, 9.99919 
2.4932005e+3, 3.031352e+2, -298098.9, -214726.75, -28753.025, -0.31071362, -0.08664076, -205772.28, -205772.28, 0.0, 9.998238, 9.999292 
2.4928448e+3, 3.1313136e+2, -342010.75, 211022.8, 15305.28, -0.16506647, -0.03266517, 211446.05, 211446.05, 0.0, 9.99607, 10.003121 
2.509619e+3, 1.2360749e+2, -1513815.3, -1664436.1, -93437.36, -0.2601733, -0.46273503, -1469116.5, 259523.27, 0.39734322, 10.002263, 9.999472 
2.5092638e+3, 1.3360877e+2, -1464133.8, -1520634.1, -14841.611, 0.14526251, 0.17566276, -1460472.4, 170154.72, 0.28406283, 10.001304, 10.000189 
2.5089046e+3, 1.4359945e+2, -1543066.8, -1635645.9, 94340.016, 0.06759083, -0.08051092, -1484271.8, 48446.867, 0.16993596, 10.00003, 9.999192 
2.5085494e+3, 1.53593e+2, -1056133.3, -1193859.6, -8251.59, 0.3027228, -0.19516814, -1055640.6, 379138.94, 0.078587286, 10.002337, 10.000463 
2.508192e+3, 1.6358702e+2, -1022278.5, -1353534.5, -62289.477, 0.30965945, -0.1332452, -1010952.8, 325884.28, 0.024857625, 10.002634, 9.998464 
2.5078312e+3, 1.7358105e+2, -1113505.3, -1302847.6, 12894.4375, -0.094086155, -0.05213643, -1112631.1, 126266.625, 0.0041356636, 10.001223, 9.99874 
2.5074726e+3, 1.8357421e+2, -1189989.4, -1259886.3, 95796.91, -0.33179024, 0.017862301, -1122965.1, 17999.895, 0.00018434241, 9.99982, 9.999122 
2.507119e+3, 1.9356614e+2, -1027685.56, -1019849.3, 125707.02, -0.16444145, -0.19986461, -897999.4, 145040.95, 0.00000026313862, 9.999967, 9.999934 
2.506763e+3, 2.035591e+2, -911126.5, -1007355.75, -13614.568, -0.106822275, -0.2180295, -909237.4, 35869.316, 0.0, 10.000334, 9.999267 
2.506403e+3, 2.1355398e+2, -621723.0, -715048.56, -50585.54, -0.17986198, -0.14026985, -599564.94, 247590.88, 0.0, 10.001408, 9.99998 
2.5060457e+3, 2.235481e+2, -616046.1, -926600.8, 80482.19, -0.17856535, 0.0063056736, -596427.94, 152786.75, 0.0, 10.001597, 9.9979105 
2.5056916e+3, 2.3354031e+2, -709009.0, -850187.06, 161433.7, -0.04341943, -0.023495512, -603405.94, 47890.42, 0.0, 10.000161, 9.99834 
2.505337e+3, 2.4353254e+2, -703894.4, -804425.9, 140690.92, 0.033436, 0.009428877, -604759.4, -51383.902, 0.0, 9.999472, 9.9983635 
2.5049797e+3, 2.5352395e+2, -408458.53, -506200.2, 77503.71, 0.019179871, -0.17062245, -365704.13, 89752.76, 0.0, 10.000543, 9.999133 
2.504623e+3, 2.6351693e+2, -195611.67, -231246.55, 32154.709, 0.020685429, -0.1981014, -176667.9, 180852.27, 0.0, 10.000626, 10.000413 
2.5042662e+3, 2.7351248e+2, -213809.34, -56484.633, 479.6343, 0.04816003, -0.20156065, -56483.17, 203071.5, 0.0, 9.999413, 10.0014515 
2.5039083e+3, 2.8350654e+2, -431953.94, -539557.3, 52401.293, -0.07493835, -0.14151041, -410652.25, -249041.11, 0.0, 9.998877, 9.997803 
2.503548e+3, 2.9349735e+2, -197347.84, -333392.97, 74671.17, -0.50679535, -0.3206807, -164361.23, -100649.64, 0.0, 9.999731, 9.998059 
2.5031927e+3, 3.0349165e+2, -4367.6177, 13786.256, 663.5048, -0.39864552, -0.14729083, 13810.475, 13810.475, 0.0, 9.999711, 10.000179 
2.502841e+3, 3.134905e+2, 86807.41, 465985.72, -164912.38, 0.3542879, 0.08719895, 527673.56, 527673.56, 0.0, 9.998553, 10.003722 
2.5196156e+3, 1.2396588e+2, -1769793.1, -1947409.1, -108875.41, -0.19341396, -0.15987767, -1718099.5, 7030.108, 0.3720952, 10.000244, 9.998154 
2.519259e+3, 1.3396637e+2, -1356090.0, -1207211.6, -93855.016, 0.1679806, 0.09563718, -1161859.5, 465256.13, 0.26429757, 10.000812, 10.003267 
2.5189003e+3, 1.4395694e+2, -1693827.3, -1921475.0, 94730.07, 0.23147957, -0.25732365, -1659564.4, -130358.04, 0.15642525, 10.000051, 9.997102 
2.5185475e+3, 1.5394989e+2, -1379456.4, -1639844.3, 67469.195, 0.4793499, -0.20042405, -1363012.9, 68271.83, 0.071005836, 10.001427, 9.997587 
2.51819e+3, 1.6394342e+2, -1194096.0, -1360883.4, -39403.93, 0.49857825, -0.035265524, -1185255.3, 148096.19, 0.021693112, 10.001267, 9.999034 
2.5178272e+3, 1.7393695e+2, -1092796.5, -1094546.0, -27440.746, 0.0137953125, -0.15436731, -1066216.5, 169193.6, 0.00335279, 10.000756, 10.000329 
2.5174677e+3, 1.8393095e+2, -1235695.9, -1278885.3, 98462.94, -0.18036796, -0.08790166, -1156487.4, -19021.994, 0.00011963712, 9.999559, 9.999089 
2.5171146e+3, 1.9392495e+2, -1079143.9, -1027213.4, 122362.09, 0.010136367, -0.15092853, -928092.0, 111429.875, 0.00000002568285, 9.999564, 10.000031 
2.5167584e+3, 2.0391886e+2, -1153085.5, -1242315.5, 20554.896, 0.06053178, -0.03963964, -1148578.3, -206997.53, 0.0, 9.999254, 9.998147 
2.5163984e+3, 2.1391188e+2, -836143.44, -902025.1, -21359.793, -0.14783287, -0.10420044, -829824.4, 13826.209, 0.0, 10.000325, 9.999181 
2.5160405e+3, 2.2390486e+2, -830185.0, -914078.3, 43370.156, -0.2163373, -0.06615536, -811795.1, -66077.055, 0.0, 9.999812, 9.998789 
2.515685e+3, 2.338973e+2, -721844.4, -657307.3, 94569.836, -0.13219373, -0.27685988, -589652.3, 58135.047, 0.0, 9.9993515, 9.999998 
2.5153282e+3, 2.4389006e+2, -981086.1, -1075851.8, 137948.5, -0.13805746, -0.21885836, -882609.6, -332750.97, 0.0, 9.998313, 9.997036 
2.514971e+3, 2.538826e+2, -605893.1, -719979.3, 115396.836, -0.30223456, -0.2093091, -534210.4, -82270.98, 0.0, 9.999815, 9.997981 
2.514614e+3, 2.638753e+2, -486824.6, -526048.94, -28456.227, -0.3315367, -0.13149647, -471876.75, -117866.82, 0.0, 9.999461, 9.998897 
2.5142574e+3, 2.7386796e+2, -419255.78, -262063.67, -54884.97, -0.123084486, -0.3530745, -244796.8, 11273.142, 0.0, 9.998622, 10.000333 
2.513901e+3, 2.838612e+2, -559389.56, -493706.8, 50752.895, -0.1245596, -0.35282776, -466096.44, -307964.53, 0.0, 9.997726, 9.99862 
2.5135434e+3, 2.9385513e+2, -183145.36, -145644.08, 151436.83, -0.40183425, -0.38522932, -11801.463, 48396.938, 0.0, 9.99921, 9.999538 
2.513189e+3, 3.038509e+2, -227210.23, -314944.0, -26144.945, -0.1982735, -0.05392453, -220009.89, -220009.89, 0.0, 9.999284, 9.998084 
2.5128326e+3, 3.138427e+2, -179334.78, 60543.816, -79109.93, 0.019370208, -0.30677125, 84284.08, 84284.08, 0.0, 9.99813, 10.001066 
2.52961e+3, 1.2433089e+2, -1719779.5, -1526863.3, -76483.72, -0.22362626, 0.3719809, -1500220.0, 221332.47, 0.34545994, 9.998434, 10.002655 
2.529253e+3, 1.3432069e+2, -1479658.6, -1426088.4, -69412.08, 0.124924436, -0.24280913, -1378472.8, 245170.89, 0.24384509, 10.000465, 10.001396 
2.5288954e+3, 1.4431441e+2, -1541258.3, -1682628.5, 56486.637, 0.21154332, -0.2350969, -1521460.6, 4242.532, 0.14280653, 10.00036, 9.998592 
2.52854e+3, 1.543092e+2, -1399369.0, -1479780.1, 168862.61, 0.22567238, -0.12816378, -1265991.5, 161770.0, 0.06363834, 10.000519, 9.999166 
2.528183e+3, 1.6430339e+2, -1230076.0, -1340795.3, 112687.43, 0.20335542, 0.01642917, -1159884.3, 169936.72, 0.0187796, 10.000707, 9.999491 
2.5278223e+3, 1.7429622e+2, -934451.44, -1039349.2, 90238.66, 0.00061178836, -0.14288224, -882526.5, 349360.6, 0.0026956536, 10.001735, 10.000326 
2.5274637e+3, 1.842895e+2, -941805.6, -1136347.5, 129271.016, -0.10742194, -0.13348855, -877297.0, 256652.27, 0.00007576087, 10.001515, 9.999118 
2.5271088e+3, 1.9428292e+2, -960794.8, -1028965.6, 107689.5, 0.019396625, -0.18532428, -881925.2, 154086.45, 0.00000000011876218, 10.000523, 9.999594 
2.526752e+3, 2.042762e+2, -1059950.3, -1136816.8, 21965.021, 0.027278747, -0.13086203, -1054116.4, -116040.45, 0.0, 9.999524, 9.998752 
2.526392e+3, 2.1426864e+2, -1006203.1, -988733.6, 38615.36, -0.14801453, -0.23723066, -957877.44, -117727.836, 0.0, 9.999023, 9.9992695 
2.526034e+3, 2.2426154e+2, -871672.1, -882284.75, 99919.12, -0.21976966, -0.2214713, -776918.5, -34700.684, 0.0, 9.999209, 9.999301 
2.5256792e+3, 2.342547e+2, -496518.66, -570390.2, 29084.605, -0.10887116, -0.31896046, -486442.03, 157839.36, 0.0, 10.000854, 9.999942 
2.5253224e+3, 2.44248e+2, -531443.6, -822339.56, 15614.198, -0.13339739, -0.22126079, -530607.94, 15741.479, 0.0, 10.001093, 9.997454 
2.5249642e+3, 2.5424135e+2, -626140.1, -758522.7, 36876.953, -0.3470963, -0.10193461, -616560.7, -168135.2, 0.0, 9.999682, 9.997814 
2.524607e+3, 2.6423386e+2, -456490.7, -530002.25, -31973.307, -0.39171195, -0.033137795, -444530.13, -94030.66, 0.0, 9.999562, 9.998879 
2.524251e+3, 2.7422455e+2, -127196.766, -216825.94, -64672.465, -0.13655484, -0.35972962, -93329.24, 159248.55, 0.0, 10.000844, 9.999657 
2.523895e+3, 2.8421736e+2, -82601.19, -164484.47, 46498.902, -0.02834268, -0.3961215, -61588.277, 93054.53, 0.0, 10.000515, 9.999525 
2.5235385e+3, 2.9421282e+2, -192674.48, -81702.9, 1600.3126, -0.19362289, -0.32936895, -81679.83, -24988.191, 0.0, 9.998794, 10.000202 
2.5231844e+3, 3.0420786e+2, -340150.28, -461231.97, -101805.6, 0.01895382, -0.07033501, -282244.63, -282244.63, 0.0, 9.998844, 9.997313 
2.5228274e+3, 3.1419906e+2, 67693.875, 27555.523, -102760.26, 0.18478787, -0.21769534, 152326.38, 152326.38, 0.0, 10.0003395, 9.999873 
2.5396103e+3, 1.246851e+2, -1887775.8, -1669264.1, -114153.69, 0.5400902, -0.11731918, -1620507.6, 97574.08, 0.31815657, 9.997982, 10.001368 
2.5392488e+3, 1.3467556e+2, -1701981.0, -1743581.5, -85017.37, 0.30609939, -0.4880883, -1635256.4, -15087.758, 0.22319712, 9.99979, 9.999059 
2.5388893e+3, 1.446719e+2, -1445136.0, -1408732.5, 63208.03, 0.18072587, -0.19346064, -1361157.6, 161044.27, 0.12934339, 10.000107, 10.000708 
2.5385314e+3, 1.5466924e+2, -1289052.4, -1186237.6, 95046.94, -0.06011796, -0.08347791, -1129586.5, 294643.66, 0.05657354, 10.000211, 10.001433 
2.5381747e+3, 1.6466463e+2, -1394443.9, -1478066.8, 72022.73, -0.07307706, 0.099410295, -1352975.9, -26700.281, 0.016116831, 9.99993, 9.998867 
2.537818e+3, 1.7465714e+2, -1107808.6, -1190056.5, 43659.234, 0.0037301364, -0.081754126, -1088955.0, 139392.3, 0.0021455006, 10.000877, 9.999664 
2.5374603e+3, 1.8464935e+2, -1207337.0, -1400922.3, 48734.395, 0.02225358, -0.086470164, -1195760.6, -65339.383, 0.000046550977, 10.00036, 9.99785 
2.537103e+3, 1.9464068e+2, -1164419.3, -1239049.4, 27933.844, 0.00009562961, -0.27457207, -1155121.9, -122618.45, 0.0, 9.999673, 9.998558 
2.5367448e+3, 2.046328e+2, -1189555.4, -1169691.6, -28297.35, -0.026544718, -0.28207418, -1149633.8, -215056.81, 0.0, 9.998676, 9.998864 
2.5363848e+3, 2.1462502e+2, -1052929.4, -939474.94, -20333.832, -0.15658394, -0.50420284, -935940.75, -99292.52, 0.0, 9.998548, 9.999767 
2.536028e+3, 2.2461835e+2, -1133000.1, -1201581.0, 125365.98, -0.15050372, -0.38116303, -1037319.5, -298605.16, 0.0, 9.998394, 9.997471 
2.5356746e+3, 2.3461235e+2, -759668.0, -858665.75, 83709.06, -0.03168144, -0.27133897, -711918.0, -71138.17, 0.0, 9.999897, 9.998363 
2.5353187e+3, 2.4460666e+2, -753947.4, -923480.9, -47810.88, -0.024397247, 0.020820618, -741393.6, -198550.69, 0.0, 9.999722, 9.997359 
2.5349593e+3, 2.5460023e+2, -738279.1, -756550.7, -12288.825, -0.20611002, 0.08329497, -732102.25, -287187.66, 0.0, 9.998783, 9.998206 
2.534602e+3, 2.6459274e+2, -665282.1, -673645.6, -2170.6978, -0.22775084, 0.15538383, -664752.3, -317764.38, 0.0, 9.998468, 9.99837 
2.5342473e+3, 2.7458367e+2, -233277.34, -287317.22, 6671.5615, -0.0073858746, -0.15973625, -232465.88, 16599.77, 0.0, 10.000309, 9.9993925 
2.533891e+3, 2.845763e+2, -317259.88, -479021.56, -47907.266, 0.040885545, -0.10020369, -304136.38, -153002.34, 0.0, 9.999878, 9.997658 
2.533532e+3, 2.945695e+2, -415723.8, -350673.03, -72278.82, -0.16787066, -0.14077143, -303938.56, -250732.95, 0.0, 9.998052, 9.998687 
2.5331762e+3, 3.0456126e+2, -364026.44, -238574.33, -45917.45, -0.098864615, -0.21918768, -223563.84, -223563.84, 0.0, 9.997813, 9.999299 
2.5328222e+3, 3.1455588e+2, 252670.14, 533902.06, 99673.19, 0.06408607, -0.28085724, 565645.0, 565645.0, 0.0, 9.999918, 10.003535 
2.5496027e+3, 1.250405e+2, -1811171.9, -1680653.8, 258232.3, 0.36866575, -0.27543613, -1479562.1, 235043.88, 0.29081753, 9.998819, 10.001073 
2.5492424e+3, 1.3503706e+2, -1535060.0, -1555957.4, 49738.223, 0.22137484, -0.13560398, -1494684.9, 121947.69, 0.2027681, 10.000514, 10.00015 
2.5488815e+3, 1.4503132e+2, -1335819.4, -1404201.6, 88745.195, -0.18248712, -0.06429179, -1274906.6, 243778.44, 0.11625642, 10.001097, 10.000274 
2.5485262e+3, 1.5502618e+2, -1276188.9, -1263226.8, 32191.072, -0.026820568, -0.1222711, -1236870.8, 183863.95, 0.04988728, 10.000547, 10.000747 
2.5481698e+3, 1.6502059e+2, -1399268.4, -1498888.8, -42544.4, 0.015547565, 0.0005743983, -1383572.3, -60782.855, 0.013707004, 9.999952, 9.998728 
2.5478122e+3, 1.7501365e+2, -1213977.8, -1302034.0, -53459.21, -0.028331487, -0.057246383, -1188750.1, 36107.285, 0.0016894786, 10.000372, 9.999172 
2.5474545e+3, 1.850062e+2, -1164239.6, -1295357.6, -84096.18, -0.031571712, -0.050484408, -1123167.8, 3760.7258, 0.000027889511, 10.000196, 9.998675 
2.547097e+3, 1.9499774e+2, -1141583.3, -1197966.6, -43470.324, 0.023238547, -0.24505205, -1117963.4, -88955.914, 0.0, 9.999605, 9.998923 
2.5467393e+3, 2.0499031e+2, -959869.2, -1049174.9, -38713.902, 0.021428969, -0.23379987, -945423.44, -14346.23, 0.0, 10.000118, 9.999019 
2.5463808e+3, 2.149831e+2, -549523.44, -758887.2, -83215.6, -0.042006657, -0.33919007, -520477.47, 312667.63, 0.0, 10.002124, 9.999339 
2.546023e+3, 2.2497618e+2, -598741.5, -913886.8, -3852.3267, -0.102028064, -0.24298123, -598694.4, 136519.31, 0.0, 10.001881, 9.997776 
2.5456673e+3, 2.3496932e+2, -816152.1, -931540.1, 15625.517, -0.14592329, -0.17427652, -814073.56, -176787.45, 0.0, 9.999627, 9.998032 
2.5453112e+3, 2.4496305e+2, -710164.94, -785198.56, -35389.81, -0.12380022, 0.018337684, -696107.06, -156754.66, 0.0, 9.999325, 9.998592 
2.544954e+3, 2.549565e+2, -390257.97, -541978.5, -17150.506, -0.088281676, 0.03823101, -388343.44, 53076.926, 0.0, 10.000743, 9.998862 
2.5445977e+3, 2.6494935e+2, -291544.6, -468174.06, 24449.139, -0.05182546, 0.100484915, -288222.78, 55268.297, 0.0, 10.000862, 9.998653 
2.5442418e+3, 2.7494127e+2, -277991.25, -367877.2, -21536.701, 0.050351262, -0.045709215, -273097.47, -27532.146, 0.0, 10.0001745, 9.998965 
2.5438848e+3, 2.8493387e+2, -324726.25, -464968.13, -60992.285, 0.070999734, 0.025822863, -301911.72, -154275.64, 0.0, 9.999595, 9.997949 
2.5435248e+3, 2.9492608e+2, -298234.56, -340709.72, -40422.777, -0.083517514, -0.061824054, -273809.94, -224094.94, 0.0, 9.998927, 9.998411 
2.5431696e+3, 3.0491742e+2, -29849.7, 187367.14, 140468.3, 0.00028986947, -0.2761623, 256317.53, 256317.53, 0.0, 9.998796, 10.001831 
2.542812e+3, 3.1491047e+2, 2993.3904, 327417.97, 33563.793, -0.3265173, -0.65139836, 330853.97, 330853.97, 0.0, 9.998327, 10.002992 
2.5595957e+3, 1.254067e+2, -1612417.0, -1476157.5, -241342.27, 0.30420354, 0.5343252, -1293512.9, 417511.44, 0.26403108, 9.999875, 10.002185 
2.559235e+3, 1.3539961e+2, -1504301.3, -1493677.1, 31143.89, 0.041144084, 0.22864534, -1467395.5, 145690.47, 0.18292536, 10.000643, 10.000569 
2.5588748e+3, 1.453915e+2, -1541132.5, -1664035.0, 34655.242, -0.34722218, 0.13761447, -1532034.1, -16873.242, 0.1037245, 10.00032, 9.99872 
2.5585228e+3, 1.5538244e+2, -1404936.8, -1514013.3, -42691.62, 0.16199201, -0.20090015, -1390214.8, 27033.008, 0.043632858, 10.000496, 9.99897 
2.5581664e+3, 1.6537528e+2, -1400684.8, -1541167.5, -27362.906, 0.27010474, -0.12076398, -1395543.3, -76225.28, 0.011545959, 10.000271, 9.998218 
2.5578064e+3, 1.7536888e+2, -1243207.9, -1386528.9, -43563.004, -0.029882897, -0.09507794, -1231005.6, -9623.411, 0.0013158798, 10.000596, 9.998429 
2.5574479e+3, 1.8536223e+2, -1134725.9, -1172014.9, -102057.97, -0.074057646, -0.007470778, -1049623.3, 73822.27, 0.000016496271, 10.000109, 9.9995165 
2.557091e+3, 1.9535467e+2, -1163211.8, -1140581.3, -94567.14, 0.098022185, -0.22481899, -1056654.9, -31139.846, 0.0, 9.999284, 9.999453 
2.5567347e+3, 2.0534848e+2, -1149150.8, -1244239.1, 11151.279, 0.19436835, -0.046057478, -1147860.5, -220284.73, 0.0, 9.999433, 9.9979725 
2.5563785e+3, 2.153428e+2, -819926.94, -1005711.4, -24524.027, 0.15710445, 0.06753386, -816744.25, 12891.588, 0.0, 10.000933, 9.998181 
2.556019e+3, 2.2533536e+2, -771162.2, -967876.3, -96755.52, -0.054875217, 0.17330347, -731549.2, 158.97176, 0.0, 10.000696, 9.997926 
2.5556573e+3, 2.353256e+2, -951788.6, -962493.25, -74246.39, -0.44909352, -0.119681306, -882701.9, -248902.73, 0.0, 9.998644, 9.998249 
2.5553015e+3, 2.4531761e+2, -844936.8, -770867.1, 4683.857, -0.386648, -0.14022389, -770572.1, -234698.63, 0.0, 9.9981985, 9.999177 
2.5549495e+3, 2.5531024e+2, -514502.84, -545383.9, 36416.484, -0.014635309, -0.3120924, -490388.7, -52446.508, 0.0, 9.999773, 9.999264 
2.5545934e+3, 2.653035e+2, -532500.56, -686851.1, -28354.387, 0.041560736, -0.15646352, -527456.7, -187447.0, 0.0, 9.999838, 9.997557 
2.5542343e+3, 2.752963e+2, -452622.97, -562654.75, -36407.145, -0.14014833, -0.15736699, -441667.44, -199581.83, 0.0, 9.999572, 9.997867 
2.5538763e+3, 2.852894e+2, -319978.4, -277367.34, -100471.18, -0.13372803, -0.062244736, -195967.53, -51814.438, 0.0, 9.998944, 9.999504 
2.553519e+3, 2.952829e+2, -260473.89, -174403.69, -22194.38, -0.014286749, -0.19866121, -169017.61, -122805.1, 0.0, 9.998614, 9.999665 
2.5531635e+3, 3.0527636e+2, -208739.0, -72240.914, 88714.445, 0.09856766, -0.16829054, -28560.588, -28560.588, 0.0, 9.99852, 10.000075 
2.5528038e+3, 3.1527263e+2, -478095.75, -415768.7, 34668.777, -0.4826236, -0.099495254, -400315.8, -400315.8, 0.0, 9.9974785, 9.998184 
2.5695917e+3, 1.2575784e+2, -1450813.4, -1625489.0, 74500.13, 0.2185248, -0.08941398, -1423355.0, 284224.0, 0.23823552, 10.00235, 9.99953 
2.5692308e+3, 1.3575475e+2, -1559413.8, -1626447.5, -92266.71, 0.097929366, 0.1342034, -1494764.8, 114840.945, 0.16394834, 10.000618, 9.999564 
2.568872e+3, 1.4574741e+2, -1606019.3, -1659209.1, 895.73126, -0.086070284, 0.14294828, -1606004.1, -94328.38, 0.09188186, 9.99967, 9.999098 
2.5685176e+3, 1.5573938e+2, -1250192.4, -1434621.5, -5350.044, 0.093851276, -0.07739284, -1250037.4, 163716.5, 0.03784501, 10.001488, 9.9991 
2.568161e+3, 1.6573255e+2, -1025199.8, -1271517.3, -3268.6768, 0.11302275, -0.016762353, -1025156.44, 290664.72, 0.009625426, 10.002434, 9.999047 
2.5678024e+3, 1.757259e+2, -885088.6, -1173365.1, 40635.527, -0.083157085, -0.033791885, -879470.1, 338416.88, 0.0010124295, 10.002795, 9.998878 
2.5674433e+3, 1.8571924e+2, -823863.5, -1030368.5, -103004.85, -0.13153414, 0.04173757, -781269.9, 338681.16, 0.000009793076, 10.0022, 9.99951 
2.5670847e+3, 1.9571197e+2, -905896.75, -1052249.6, -114017.89, 0.009982891, -0.082096696, -843593.06, 178426.03, 0.0, 10.0010805, 9.999244 
2.5667283e+3, 2.0570543e+2, -920179.44, -1121833.4, 36508.492, 0.08436479, 0.052368946, -913773.25, 10311.083, 0.0, 10.000829, 9.998176 
2.5663733e+3, 2.1569924e+2, -741602.25, -999317.4, 37437.953, 0.11134367, 0.16636437, -736273.9, 89875.9, 0.0, 10.001453, 9.99804 
2.5660145e+3, 2.2569127e+2, -538411.7, -761664.44, -80041.27, -0.07258757, 0.1755758, -512680.7, 215543.92, 0.0, 10.001705, 9.99891 
2.565652e+3, 2.3568113e+2, -489351.03, -704736.25, -54368.254, -0.41289735, -0.17615156, -476405.3, 153909.33, 0.0, 10.001438, 9.998762 
2.5652957e+3, 2.4567299e+2, -424506.66, -519592.8, 47880.215, -0.35597566, -0.25526616, -404574.88, 127812.59, 0.0, 10.000794, 9.999649 
2.5649437e+3, 2.5566596e+2, -461176.1, -513572.1, 6899.996, 0.022169154, -0.37354276, -460282.7, -25831.963, 0.0, 10.000007, 9.999393 
2.5645873e+3, 2.6565918e+2, -486811.4, -623465.3, -25509.893, 0.012029844, -0.26311925, -482204.66, -145685.2, 0.0, 9.999847, 9.997994 
2.5642267e+3, 2.7565175e+2, -337425.6, -499468.75, 1977.3724, -0.26788136, -0.26764753, -337401.47, -98800.84, 0.0, 10.000197, 9.997998 
2.56387e+3, 2.856456e+2, 2598.588, -51840.547, -51093.94, -0.18026644, -0.13994187, 33271.125, 173932.84, 0.0, 10.000796, 10.00015 
2.563515e+3, 2.9564044e+2, 167614.47, 43210.945, -107377.914, 0.19928989, -0.1520411, 229505.72, 272212.38, 0.0, 10.001402, 9.999836 
2.5631577e+3, 3.056334e+2, 50093.13, -120761.52, 19676.568, 0.1456807, -0.11385613, 52329.906, 52329.906, 0.0, 10.000882, 9.998651 
2.5627995e+3, 3.1562677e+2, -111059.266, -94315.75, -91723.52, -0.17780805, -0.1356664, -10582.72, -10582.72, 0.0, 9.999094, 9.999694 
2.5795883e+3, 1.2611257e+2, -1616274.8, -1803221.8, -130901.76, 0.2280022, -0.1494035, -1548898.8, 155199.64, 0.21373183, 10.001328, 9.998622 
2.5792277e+3, 1.3610876e+2, -1459105.4, -1656999.3, -183139.33, 0.31863558, -0.0052409554, -1349892.5, 256243.16, 0.14603193, 10.001792, 9.998796 
2.5788698e+3, 1.4610256e+2, -1433190.8, -1501964.4, 72001.23, 0.2969902, 0.12188958, -1387786.4, 120410.414, 0.080827504, 10.0007105, 9.999651 
2.578512e+3, 1.560968e+2, -1391158.4, -1479410.4, 32596.674, 0.034557123, 0.07103224, -1380424.1, 29830.357, 0.032553293, 10.000476, 9.999243 
2.5781554e+3, 1.6609083e+2, -1206086.3, -1272230.0, 20731.293, -0.055505205, 0.17847925, -1200125.6, 112187.664, 0.007938516, 10.000887, 9.999717 
2.5777987e+3, 1.7608379e+2, -1108332.9, -1244555.0, 20592.393, -0.083772056, 0.01323792, -1105288.0, 109094.0, 0.00076767127, 10.001175, 9.999115 
2.5774392e+3, 1.8607692e+2, -1032224.7, -1220866.3, -138576.72, -0.10618037, 0.11218537, -958915.2, 157533.81, 0.000005913737, 10.001305, 9.998567 
2.577078e+3, 1.9606978e+2, -1066544.4, -1236813.9, -151053.13, -0.10521384, 0.055376668, -978286.56, 40231.934, 0.0, 10.000615, 9.998125 
2.5767213e+3, 2.0606217e+2, -1002187.8, -1175136.9, 66999.516, -0.08142727, 0.15333295, -979269.56, -58676.324, 0.0, 10.000414, 9.997967 
2.5763667e+3, 2.1605352e+2, -934175.56, -1114517.0, 47913.426, -0.073551215, -0.010460106, -922236.25, -99557.34, 0.0, 10.000295, 9.997779 
2.5760096e+3, 2.2604534e+2, -717050.25, -765848.3, -93784.71, -0.07268732, -0.040513344, -644542.7, 80210.09, 0.0, 10.000364, 9.999451 
2.5756505e+3, 2.3603654e+2, -678283.25, -758224.56, -64789.137, -0.10021084, -0.34118345, -642127.1, -15299.604, 0.0, 10.000187, 9.998936 
2.5752926e+3, 2.4602999e+2, -644825.3, -697812.06, 6480.413, -0.123857565, -0.22133936, -644044.25, -115157.5, 0.0, 9.999765, 9.998857 
2.5749362e+3, 2.5602397e+2, -690531.0, -717006.44, -10405.871, -0.1268952, -0.20040403, -686930.7, -255986.38, 0.0, 9.998961, 9.998462 
2.5745782e+3, 2.660169e+2, -562395.9, -533564.44, -21863.209, -0.22728951, -0.12714009, -521792.13, -188777.47, 0.0, 9.99889, 9.999055 
2.5742197e+3, 2.7600878e+2, -426813.8, -467350.0, 39004.996, -0.4122382, -0.33641994, -403125.28, -168028.33, 0.0, 9.999373, 9.99859 
2.5738648e+3, 2.8600308e+2, -160279.06, -268265.5, -10705.47, -0.19381066, -0.11737391, -159227.98, -22071.963, 0.0, 10.000384, 9.99882 
2.5735116e+3, 2.9599792e+2, 52597.645, -173407.7, -35075.566, 0.24758862, -0.02162823, 57916.145, 97125.28, 0.0, 10.001394, 9.998335 
2.5731522e+3, 3.0598938e+2, 59461.97, -92868.22, -34827.313, 0.024910474, -0.061069086, 67046.88, 67046.88, 0.0, 10.000962, 9.998763 
2.5727952e+3, 3.1598115e+2, -150766.75, -129501.05, 73752.13, -0.0816492, -0.27170765, -65619.234, -65619.234, 0.0, 9.9990425, 9.999443 
2.589583e+3, 1.2647045e+2, -1492970.0, -1529425.8, -98190.33, 0.006417783, 0.00897256, -1411330.0, 289266.88, 0.19077115, 10.001216, 10.000795 
2.5892225e+3, 1.3646543e+2, -1071451.9, -1372651.6, -59425.406, 0.01123766, -0.01366398, -1060151.5, 542489.2, 0.12932457, 10.0042925, 9.999741 
2.5888646e+3, 1.4645825e+2, -1121533.8, -1328982.5, 31772.201, 0.09389785, -0.037449483, -1116776.6, 387930.6, 0.07062259, 10.00283, 9.999924 
2.5885075e+3, 1.5645245e+2, -1502387.6, -1510860.0, 47101.695, 0.13559355, -0.06747505, -1459332.0, -52570.34, 0.027766839, 9.999522, 9.9995165 
2.5881502e+3, 1.6644683e+2, -1481428.5, -1355018.0, 80509.47, 0.04735471, 0.0336171, -1315867.6, -7049.8833, 0.0064744665, 9.998649, 10.000285 
2.5877932e+3, 1.764405e+2, -1381251.4, -1348280.6, 82313.734, -0.034356646, -0.0658482, -1280817.8, -69935.44, 0.0005723583, 9.999003, 9.999519 
2.5874344e+3, 1.8643418e+2, -1108785.0, -1248835.4, -58720.64, -0.0896578, 0.06249507, -1087422.9, 25523.23, 0.0000035552432, 10.00066, 9.998712 
2.587074e+3, 1.9642733e+2, -714183.7, -1082183.0, -22874.023, -0.14865929, 0.08516535, -712767.4, 302246.97, 0.0, 10.002934, 9.998135 
2.5867164e+3, 2.064191e+2, -677400.4, -990390.3, 98419.734, -0.13164768, 0.10236573, -649024.8, 268069.56, 0.0, 10.002437, 9.998303 
2.5863615e+3, 2.1640971e+2, -898103.8, -1095660.0, 93097.21, -0.051045563, -0.08662054, -861146.1, -41961.555, 0.0, 10.000383, 9.997936 
2.5860044e+3, 2.2640166e+2, -704973.2, -765139.7, -15967.24, -0.04903641, -0.112014286, -700998.4, 20259.998, 0.0, 10.000369, 9.999473 
2.5856456e+3, 2.3639399e+2, -470942.06, -681456.94, -44838.504, -0.07109295, -0.24680664, -461789.63, 161536.44, 0.0, 10.001583, 9.998834 
2.5852877e+3, 2.4638738e+2, -389925.06, -546288.4, -32658.615, -0.09684512, -0.14952669, -383378.0, 142008.73, 0.0, 10.001288, 9.999204 
2.5849298e+3, 2.56381e+2, -515324.3, -612491.44, -19200.998, -0.13573016, -0.13594016, -511667.66, -84219.98, 0.0, 9.999981, 9.998721 
2.5845718e+3, 2.6637384e+2, -361544.63, -353083.72, 26167.387, -0.251111, -0.1319004, -330807.03, -1290.3721, 0.0, 9.999797, 9.999898 
2.5842142e+3, 2.7636585e+2, -272511.25, -353509.97, 13491.157, -0.35300738, -0.34888133, -270323.28, -38729.64, 0.0, 10.000112, 9.999098 
2.5838593e+3, 2.863604e+2, -179743.13, -284611.94, 4426.428, -0.16753456, -0.13192491, -179556.63, -45904.76, 0.0, 10.000171, 9.998852 
2.5835055e+3, 2.9635555e+2, -177041.14, -327200.13, -8039.76, 0.13560511, 0.04528277, -176611.9, -140903.9, 0.0, 9.999854, 9.998079 
2.5831467e+3, 3.0634698e+2, 108151.67, 8879.939, 102.36812, 0.00057140115, -0.022390738, 108151.77, 108151.77, 0.0, 10.000942, 9.9995 
2.5827923e+3, 3.1633848e+2, 39051.914, -122054.55, 144260.23, 0.20762065, -0.25169936, 123725.31, 123725.31, 0.0, 10.000572, 9.998836 
2.5995797e+3, 1.2683089e+2, -1357665.3, -1530609.6, 1919.143, 0.07488481, 0.29969558, -1357644.0, 339426.66, 0.16949552, 10.002759, 9.999988 
2.5992167e+3, 1.3682234e+2, -1305939.9, -1519399.6, -72762.25, -0.30369785, -0.09247107, -1283497.0, 315646.63, 0.11391175, 10.00261, 9.999378 
2.5988588e+3, 1.4681457e+2, -1243485.4, -1356908.1, -96389.62, -0.106335655, -0.1735549, -1188361.4, 312849.53, 0.061296463, 10.0019245, 10.00004 
2.5985035e+3, 1.5680788e+2, -1366862.4, -1490513.5, -87740.76, 0.3483688, -0.32127056, -1321352.8, 81916.11, 0.023481611, 10.000768, 9.999007 
2.5981456e+3, 1.6680256e+2, -1321189.4, -1257908.8, 56517.543, 0.34151572, -0.17310625, -1224777.6, 80545.14, 0.005220199, 9.999731, 10.000434 
2.597788e+3, 1.7679738e+2, -1500541.3, -1438284.6, 29994.305, 0.13060035, -0.1810493, -1426185.4, -218805.95, 0.00041937284, 9.998395, 9.999207 
2.5974295e+3, 1.8679157e+2, -1235907.5, -1296356.5, -4828.8833, -0.012097056, 0.005632974, -1235524.1, -126084.305, 0.0000020172258, 9.999808, 9.998751 
2.5970706e+3, 1.9678473e+2, -931290.8, -1230266.6, -6274.3374, -0.124219276, -0.0046518072, -931159.2, 80349.98, 0.0, 10.001718, 9.99767 
2.5967136e+3, 2.0677651e+2, -809535.06, -1037374.75, -4642.3667, -0.036927696, 0.03651037, -809440.56, 104147.17, 0.0, 10.001623, 9.998308 
2.5963575e+3, 2.1676718e+2, -1105923.1, -1241184.6, 17066.506, 0.146741, -0.17556822, -1103803.0, -288127.8, 0.0, 9.999325, 9.997392 
2.5959986e+3, 2.2675996e+2, -888097.1, -958975.75, 22387.793, -0.025770761, -0.030991446, -881617.94, -163872.8, 0.0, 9.999682, 9.998431 
2.595638e+3, 2.3675305e+2, -747354.7, -937940.75, -20154.35, -0.34429112, -0.016980918, -745246.7, -125433.71, 0.0, 10.00033, 9.997638 
2.595281e+3, 2.4674554e+2, -531464.4, -559327.06, -90437.31, -0.2628505, 0.018344263, -453891.66, 67991.31, 0.0, 10.000196, 9.999604 
2.5949246e+3, 2.567372e+2, -718264.3, -714021.2, -48143.164, -0.031979155, -0.24067087, -667952.9, -243993.4, 0.0, 9.998684, 9.998637 
2.5945672e+3, 2.6672962e+2, -529168.0, -471675.03, 23717.682, -0.07889831, -0.24368708, -463153.72, -137124.6, 0.0, 9.99895, 9.999445 
2.5942096e+3, 2.7672175e+2, -437026.7, -507162.53, 24540.99, -0.22408502, -0.4339581, -429292.53, -201190.23, 0.0, 9.999383, 9.998385 
2.5938526e+3, 2.8671688e+2, -266714.9, -281170.97, -47401.336, -0.26777396, -0.1427172, -225993.69, -95837.51, 0.0, 9.999483, 9.999185 
2.593494e+3, 2.9671323e+2, -351290.06, -400056.6, -25308.676, -0.37554383, 0.104484856, -340529.72, -308326.56, 0.0, 9.998735, 9.998094 
2.59314e+3, 3.0670276e+2, 33594.313, 241.35558, 26331.969, -0.16939323, -0.16917637, 48086.367, 48086.367, 0.0, 10.000473, 9.999596 
2.59278e+3, 3.166979e+2, 96825.414, 100822.58, 108380.164, -0.6279596, -0.08027304, 207222.58, 207222.58, 0.0, 10.000303, 10.00044 
2.6095805e+3, 1.2719014e+2, -1160063.3, -1552887.6, -128790.45, 0.15921295, 0.34503117, -1121603.6, 571944.8, 0.14988421, 10.004759, 9.998864 
2.609215e+3, 1.3718066e+2, -1632419.3, -1855320.3, -155136.55, -0.052241217, 0.065238014, -1552850.0, 42788.793, 0.09979623, 10.000746, 9.997974 
2.6088554e+3, 1.4717272e+2, -1293406.3, -1337964.4, -50217.945, -0.030834913, -0.0046349135, -1260747.3, 236961.63, 0.05285716, 10.001291, 10.0005045 
2.6084992e+3, 1.5716499e+2, -840452.06, -1244865.8, -50617.438, 0.16196886, -0.25153676, -834212.94, 565562.25, 0.019694533, 10.004368, 9.999035 
2.6081407e+3, 1.6715947e+2, -911544.7, -1159731.0, -114483.18, 0.20591755, -0.0789352, -866802.06, 435028.66, 0.004163879, 10.002935, 9.9995575 
2.6077813e+3, 1.7715462e+2, -1419328.3, -1463403.8, -132350.38, 0.1442519, 0.047430508, -1307193.4, -103308.94, 0.00030229846, 9.9991665, 9.998666 
2.607423e+3, 1.8714775e+2, -1209947.9, -1200849.3, -28304.242, -0.022636678, 0.086702645, -1176731.0, -70779.12, 0.0000010444409, 9.999494, 9.999621 
2.6070657e+3, 1.9713959e+2, -904466.25, -1143952.8, -9899.698, -0.22844991, -0.10480456, -904057.75, 103972.016, 0.0, 10.001406, 9.998475 
2.6067096e+3, 2.0713228e+2, -604364.9, -895807.3, -77462.03, -0.0908436, -0.049707055, -585055.7, 325044.03, 0.0, 10.002718, 9.9987955 
2.6063538e+3, 2.1712476e+2, -454220.88, -892586.0, -47365.082, 0.18948753, -0.09242651, -449161.5, 363009.97, 0.0, 10.003475, 9.997832 
2.6059943e+3, 2.2711729e+2, -408891.38, -720359.75, -5983.236, 0.017168555, -0.01422311, -408776.5, 305467.44, 0.0, 10.0027895, 9.998632 
2.6056334e+3, 2.371097e+2, -583482.94, -850799.2, 4535.293, -0.34439674, -0.038480625, -583406.0, 32912.324, 0.0, 10.001225, 9.9978695 
2.6052755e+3, 2.4710238e+2, -380943.03, -460084.38, -57473.61, -0.27565655, -0.013381997, -350735.1, 167652.64, 0.0, 10.001039, 9.999889 
2.604919e+3, 2.5709456e+2, -267729.3, -499975.7, -58529.223, 0.002127166, -0.19158816, -253813.03, 166647.4, 0.0, 10.001626, 9.998743 
2.6045623e+3, 2.670867e+2, -172579.11, -334687.47, 33972.406, 0.01919295, -0.22123049, -165747.55, 156785.25, 0.0, 10.001405, 9.999274 
2.6042056e+3, 2.770786e+2, -266568.66, -443836.3, -3143.3752, -0.048968863, -0.3688178, -266512.9, -41905.582, 0.0, 10.000501, 9.998325 
2.6038462e+3, 2.870731e+2, -322236.75, -292540.13, -81539.37, -0.2245142, -0.15544325, -224508.16, -97842.234, 0.0, 9.998996, 9.999342 
2.603485e+3, 2.9706895e+2, -586012.7, -515738.72, -67283.49, -0.5231271, 0.07192314, -474970.0, -446253.7, 0.0, 9.99704, 9.998141 
2.6031333e+3, 3.0705774e+2, -249793.47, -133064.7, 88275.68, -0.18418884, -0.2985413, -85603.77, -85603.77, 0.0, 9.998299, 9.999784 
2.6027864e+3, 3.1705493e+2, 146625.48, 318282.8, -103341.234, 0.5622327, -0.009223107, 366789.44, 366789.44, 0.0, 9.999676, 10.002235 
2.6195797e+3, 1.2754723e+2, -1816404.8, -1998504.0, -316308.03, 0.351505, 0.22868301, -1578302.8, 111744.484, 0.13183987, 10.000394, 9.997664 
2.6192138e+3, 1.3753971e+2, -1652718.8, -1992766.1, -228151.3, 0.38436168, 0.24355493, -1538205.9, 53920.895, 0.08692974, 10.001339, 9.996667 
2.6188532e+3, 1.4753164e+2, -1216970.1, -1323832.0, 79597.805, 0.18853064, 0.22299357, -1174533.1, 319667.72, 0.045284748, 10.001914, 10.000318 
2.6184952e+3, 1.5752304e+2, -1178951.3, -1478548.0, -31738.36, -0.032301385, -0.107960604, -1175625.9, 220650.44, 0.01638905, 10.002331, 9.998409 
2.6181352e+3, 1.6751722e+2, -1132216.5, -1415239.5, -222200.33, 0.03282982, 0.14150587, -1010292.06, 288042.75, 0.0032885466, 10.002152, 9.998149 
2.617775e+3, 1.7751203e+2, -1363546.9, -1563584.6, -180617.31, 0.18979685, 0.3616026, -1257104.1, -56713.105, 0.00021471751, 10.000158, 9.997503 
2.6174167e+3, 1.8750358e+2, -1047910.56, -1007457.44, 71803.766, 0.0031991848, 0.2207185, -953085.75, 149383.55, 0.00000047553752, 10.000172, 10.000594 
2.61706e+3, 1.9749376e+2, -1060952.8, -1173680.0, 43240.18, -0.30450165, -0.24806868, -1046277.1, -41719.977, 0.0, 10.000247, 9.998811 
2.6167047e+3, 2.0748773e+2, -756709.6, -931873.1, -46561.293, -0.17553419, -0.08874995, -745102.1, 161514.11, 0.0, 10.001609, 9.999041 
2.6163504e+3, 2.1748263e+2, -722651.25, -1017321.1, -52443.063, 0.12822169, 0.056273974, -713596.1, 95072.805, 0.0, 10.001736, 9.99779 
2.6159915e+3, 2.274743e+2, -517394.4, -663674.94, -73021.01, 0.073213935, 0.0018543099, -487183.0, 223563.77, 0.0, 10.00174, 9.999462 
2.61563e+3, 2.374647e+2, -801660.4, -929764.1, -44064.55, -0.14521682, -0.32965687, -787966.94, -175131.64, 0.0, 9.999789, 9.997973 
2.6152706e+3, 2.4745865e+2, -550448.2, -597096.2, -33995.363, -0.22042453, -0.14739612, -532544.9, -17650.072, 0.0, 10.00026, 9.999256 
2.6149124e+3, 2.5745344e+2, -534897.25, -742627.1, -39483.715, -0.2059766, -0.024823165, -527645.7, -110697.49, 0.0, 10.000424, 9.99761 
2.6145563e+3, 2.674461e+2, -296272.56, -424280.22, -5662.0063, -0.096045196, 0.06394448, -296022.6, 22996.242, 0.0, 10.000773, 9.998901 
2.6142007e+3, 2.7743754e+2, -434810.94, -601048.4, -36126.34, 0.00915102, -0.12984926, -427299.44, -206198.98, 0.0, 9.999765, 9.99756 
2.61384e+3, 2.8742924e+2, -427489.4, -343411.66, -168969.7, -0.11498454, -0.16360444, -211329.81, -88148.305, 0.0, 9.998417, 9.999213 
2.6134777e+3, 2.9742116e+2, -778768.4, -664981.4, -73886.99, -0.3407799, -0.3350148, -628621.7, -603360.25, 0.0, 9.99606, 9.997574 
2.6131254e+3, 3.074147e+2, -443852.88, -260315.52, 145882.6, -0.16094896, -0.18804224, -179737.97, -179737.97, 0.0, 9.99718, 9.99944 
2.6127708e+3, 3.1741315e+2, -65999.48, 114815.45, -11963.554, -0.4722891, 0.24543948, 115603.58, 115603.58, 0.0, 9.998778, 10.001267 
2.6295722e+3, 1.2790172e+2, -2204380.0, -1825045.0, -221719.42, 0.3448684, 0.09252483, -1722936.5, -36362.33, 0.11528824, 9.996059, 10.000918 
2.6292104e+3, 1.3789615e+2, -1246027.0, -1575271.8, -8452.921, 0.31184396, 0.004204825, -1245810.1, 342816.28, 0.07524984, 10.0032625, 9.9986515 
2.6288497e+3, 1.4788926e+2, -1191401.8, -1511315.0, 66741.92, 0.12035641, 0.145617, -1178036.0, 312656.22, 0.038529176, 10.002912, 9.998539 
2.62849e+3, 1.5788127e+2, -1553230.4, -1755927.5, -33546.98, -0.08155756, 0.06739156, -1547822.6, -155054.14, 0.013527696, 10.000041, 9.997656 
2.6281312e+3, 1.6787335e+2, -1051503.4, -1287779.5, -99271.9, 0.033479027, 0.07478435, -1015331.7, 279512.06, 0.0025719018, 10.002207, 9.999061 
2.6277733e+3, 1.7786561e+2, -526832.44, -1090205.8, 3441.5671, 0.22586733, -0.010197366, -526811.4, 670106.5, 0.00015054179, 10.005457, 9.998252 
2.6274142e+3, 1.8785857e+2, -550849.56, -838248.44, 92942.26, 0.07824549, 0.0059099784, -523412.22, 575572.44, 0.0000001940375, 10.003799, 10.000035 
2.6270553e+3, 1.978512e+2, -1092513.6, -1199241.4, 48898.95, -0.21199481, -0.14186677, -1073497.9, -72444.09, 0.0, 9.99991, 9.998847 
2.6266998e+3, 2.0784499e+2, -1026784.56, -1020347.25, 20955.883, -0.11611034, -0.032610234, -1002364.3, -99248.37, 0.0, 9.999466, 9.999523 
2.6263455e+3, 2.1783915e+2, -865732.06, -1016716.56, 33517.09, 0.10255973, 0.029198702, -858626.0, -53450.098, 0.0, 10.000293, 9.998545 
2.625986e+3, 2.278313e+2, -510057.94, -645717.1, -40207.51, -0.0004425879, -0.02470966, -499036.44, 208212.22, 0.0, 10.001609, 9.9997015 
2.625625e+3, 2.3782247e+2, -309433.22, -654561.1, -62409.664, -0.20987746, -0.26757616, -298494.34, 310834.1, 0.0, 10.002822, 9.998463 
2.6252657e+3, 2.4781604e+2, -277896.7, -508107.44, -66720.516, -0.24189645, -0.14003076, -259957.42, 251435.27, 0.0, 10.002174, 9.999006 
2.624907e+3, 2.578105e+2, -470491.25, -693412.5, -42405.27, -0.22512543, 0.005187793, -462697.2, -49246.46, 0.0, 10.000638, 9.997891 
2.6245508e+3, 2.6780388e+2, -351340.94, -428629.78, 31137.697, -0.10000683, 0.12775856, -340357.28, -24839.387, 0.0, 10.000225, 9.999161 
2.6241952e+3, 2.7779627e+2, -352215.5, -513472.3, -986.14246, 0.06323754, 0.04854853, -352209.47, -134616.72, 0.0, 9.99999, 9.998094 
2.6238346e+3, 2.8778684e+2, -50119.973, -154647.72, -110388.15, -0.009907097, -0.12981902, 19751.555, 139432.52, 0.0, 10.000838, 9.999395 
2.6234722e+3, 2.9777703e+2, 29095.645, -231729.08, -3396.6702, -0.1489471, -0.45956984, 29139.871, 50911.746, 0.0, 10.0013075, 9.998059 
2.6231188e+3, 3.077732e+2, 16240.368, -124734.33, 245531.22, -0.11137014, -0.04113409, 201201.73, 201201.73, 0.0, 10.00063, 9.998745 
2.622768e+3, 3.1776056e+2, -106704.484, 181526.64, 104059.695, 0.009364747, -0.5926686, 215168.55, 215168.55, 0.0, 9.997957, 10.002177 
2.6395646e+3, 1.2825668e+2, -1610778.0, -1258568.6, 55926.79, 0.4578181, 0.002359289, -1249901.4, 433194.16, 0.10017185, 9.998814, 10.003821 
2.6392066e+3, 1.3825251e+2, -1216018.4, -1422647.4, -58572.563, 0.2338684, -0.23650971, -1200570.0, 384556.16, 0.06469282, 10.002895, 9.999935 
2.638846e+3, 1.4824672e+2, -1353876.4, -1801080.8, -152765.75, 0.102716975, 0.06779538, -1306673.6, 180510.55, 0.032530583, 10.002738, 9.9965725 
2.6384848e+3, 1.5823923e+2, -1588303.6, -1915536.4, -126239.47, 0.02228979, 0.1996011, -1545264.0, -156002.19, 0.011066901, 10.000504, 9.996296 
2.6381284e+3, 1.6822897e+2, -1006395.0, -1090398.9, 12132.175, 0.15027003, -0.09162279, -1004677.94, 286676.13, 0.0019930317, 10.001828, 10.0005455 
2.6377732e+3, 1.7821828e+2, -857080.94, -1236493.6, 10099.081, 0.32133114, -0.616316, -856812.3, 336635.8, 0.00010503105, 10.003189, 9.998332 
2.6374128e+3, 1.8821388e+2, -838409.56, -1086214.6, -60973.36, 0.21271612, -0.27507022, -824219.44, 271274.38, 0.00000008640195, 10.0025015, 9.998843 
2.6370516e+3, 1.9821079e+2, -1237895.5, -1396375.4, -63747.02, 0.027239049, 0.09975843, -1215436.6, -217906.33, 0.0, 9.999628, 9.997575 
2.636695e+3, 2.0820352e+2, -952732.25, -926000.0, 40416.12, 0.04966216, 0.1098943, -896797.2, 2806.464, 0.0, 9.999783, 9.999994 
2.6363397e+3, 2.181951e+2, -1047003.0, -1133682.6, 33502.19, 0.13581198, -0.14956287, -1035563.9, -233877.22, 0.0, 9.999254, 9.998244 
2.63598e+3, 2.2818889e+2, -658851.6, -757283.7, -5690.304, -0.14807151, -0.0099512255, -658523.75, 45220.66, 0.0, 10.00085, 9.999246 
2.6356187e+3, 2.3818289e+2, -628756.2, -907723.0, -50318.066, -0.50511277, 0.044389877, -619957.6, -14158.481, 0.0, 10.001158, 9.997511 
2.6352602e+3, 2.4817461e+2, -411334.06, -567300.8, -134771.38, -0.36427665, 0.024091495, -333610.25, 174270.11, 0.0, 10.001338, 9.998965 
2.6349026e+3, 2.5816572e+2, -689119.1, -818468.7, -84483.93, -0.11552928, -0.19078873, -647396.75, -237427.47, 0.0, 9.99932, 9.997665 
2.6345453e+3, 2.6815978e+2, -422205.06, -369616.03, 13858.955, -0.03628572, -0.042043183, -366187.28, -54156.133, 0.0, 9.999479, 9.99987 
2.6341885e+3, 2.781544e+2, -527676.06, -589684.44, 19307.357, -0.017212303, 0.014570443, -522155.8, -308068.38, 0.0, 9.998874, 9.998098 
2.6338288e+3, 2.8814724e+2, -91882.06, -149669.38, -60063.977, -0.06660416, 0.05860986, -54123.453, 62028.598, 0.0, 10.000535, 9.999544 
2.633468e+3, 2.9813948e+2, -1583.0889, -290861.94, 37286.8, -0.22366476, -0.09286633, 3145.7188, 21366.771, 0.0, 10.001371, 9.997616 
2.6331136e+3, 3.0813214e+2, -1974.9563, -226945.69, 175945.17, -0.15753251, 0.03038446, 94368.945, 94368.945, 0.0, 10.001016, 9.997799 
2.63276e+3, 3.1812203e+2, -478043.4, -449615.53, 25896.69, -0.09587734, -0.16507295, -434288.4, -434288.4, 0.0, 9.997462, 9.998045 
2.64956e+3, 1.2861386e+2, -1510025.6, -1750285.4, 92923.25, 0.33174112, 0.06089513, -1478280.8, 201311.81, 0.08643013, 10.002013, 9.998638 
2.6492044e+3, 1.3860843e+2, -1306970.4, -1731722.8, -189739.03, 0.2214608, 0.18422823, -1234558.0, 347099.22, 0.055199515, 10.003226, 9.997669 
2.648844e+3, 1.4860141e+2, -1096214.4, -1390796.6, -320760.9, 0.16553232, 0.23471884, -890543.4, 593179.75, 0.027235242, 10.003219, 9.999224 
2.6484826e+3, 1.5859312e+2, -1130636.5, -1460058.8, -146470.42, 0.13860753, 0.047948666, -1074931.3, 310867.47, 0.0089680515, 10.002537, 9.998468 
2.648124e+3, 1.6858597e+2, -1068908.9, -1060699.3, -35077.633, 0.14538883, -0.04642984, -1029487.06, 258373.64, 0.0015322798, 10.001176, 10.001047 
2.6477665e+3, 1.7857864e+2, -1372148.4, -1414238.5, -47956.207, 0.13017058, -0.26199833, -1340822.8, -150899.0, 0.00007382683, 9.999261, 9.9990225 
2.6474077e+3, 1.885728e+2, -1026353.94, -1173545.0, -65513.145, 0.116151296, -0.09988118, -1001418.9, 90562.12, 0.000000036839044, 10.00112, 9.998954 
2.6470482e+3, 1.9856752e+2, -644029.8, -1108671.1, -22415.867, 0.053108886, 0.08079763, -642950.9, 351085.06, 0.0, 10.003565, 9.997684 
2.6466906e+3, 2.0855969e+2, -472762.06, -829405.25, -26127.79, 0.029018134, 0.10098936, -470858.1, 425258.13, 0.0, 10.003567, 9.998861 
2.646334e+3, 2.1855114e+2, -570838.8, -910448.6, -92357.23, -0.015106035, -0.056915663, -547347.2, 250855.39, 0.0, 10.0024185, 9.9982815 
2.6459748e+3, 2.2854501e+2, -448697.84, -575488.2, -86734.73, -0.19111788, 0.015434668, -404659.97, 295598.38, 0.0, 10.001832, 10.000078 
2.6456153e+3, 2.3853938e+2, -511942.97, -750500.44, -80439.15, -0.40375787, 0.05542812, -487354.16, 114953.56, 0.0, 10.0013485, 9.998553 
2.645256e+3, 2.48531e+2, -473921.56, -594338.44, -168410.92, -0.2849127, -0.025913676, -355280.1, 149109.4, 0.0, 10.00075, 9.99914 
2.644897e+3, 2.5852183e+2, -516531.16, -680653.94, -105274.29, -0.06572345, -0.25019577, -465113.16, -58632.35, 0.0, 10.00007, 9.998312 
2.6445392e+3, 2.6851675e+2, -229663.36, -256883.47, -1841.6184, -0.080293246, -0.06726769, -229539.33, 78995.62, 0.0, 10.000568, 10.000167 
2.6441818e+3, 2.7851257e+2, -176665.44, -379986.97, -42614.777, -0.088844314, 0.10556107, -168094.94, 42485.664, 0.0, 10.000933, 9.998585 
2.6438236e+3, 2.8850514e+2, 2165.068, -171015.97, -136866.34, -0.078234434, 0.11768515, 77532.31, 190181.06, 0.0, 10.001362, 9.999026 
2.6434636e+3, 2.9849723e+2, -11330.008, -302287.03, -128090.414, -0.18165822, 0.016164936, 37024.273, 51743.777, 0.0, 10.00119, 9.997643 
2.6431084e+3, 3.084899e+2, -101957.24, -241702.38, -7933.85, -0.12109082, 0.100515865, -101508.25, -101508.25, 0.0, 10.000078, 9.998186 
2.6427537e+3, 3.1848568e+2, -345099.34, -457526.34, -101692.266, 0.04605399, 0.4932589, -285117.84, -285117.84, 0.0, 9.998497, 9.997537 
2.659557e+3, 1.2897152e+2, -1849875.3, -2542665.5, 151682.69, 0.35480994, 0.18306042, -1818120.6, -142033.45, 0.073999934, 10.002312, 9.992958 
2.6592025e+3, 1.3896489e+2, -1671203.9, -2232683.5, -43266.805, 0.32014307, 0.6650509, -1667889.4, -89703.75, 0.04671151, 10.00203, 9.994761 
2.6588422e+3, 1.4895636e+2, -990296.0, -954774.2, -203913.61, 0.31284657, 0.44313985, -767849.44, 712412.0, 0.022592498, 10.002418, 10.002615 
2.6584813e+3, 1.5894744e+2, -1128062.0, -1252296.8, -174886.48, 0.35491407, -0.11803029, -1004588.9, 377743.6, 0.0071954923, 10.00178, 10.000264 
2.6581192e+3, 1.6894428e+2, -1096044.0, -1099234.8, -108905.07, 0.16868728, 0.14532112, -988722.7, 295635.28, 0.001170623, 10.001155, 10.000773 
2.6577577e+3, 1.7894177e+2, -1424813.9, -1467860.8, -88873.984, -0.03295638, 0.4178749, -1354894.1, -168514.52, 0.00005271245, 9.999161, 9.998675 
2.6574013e+3, 1.8893269e+2, -966197.75, -1076538.3, 17064.53, -0.002171759, 0.21698779, -963618.94, 124844.3, 0.000000014947995, 10.001321, 9.999491 
2.657046e+3, 1.9892263e+2, -893106.06, -1339454.3, 5763.4893, 0.08858387, -0.118375376, -893031.6, 97525.78, 0.0, 10.002458, 9.996624 
2.656687e+3, 2.08915e+2, -775346.6, -1176882.9, -61461.785, -0.06594359, 0.07442789, -766149.56, 126489.15, 0.0, 10.002566, 9.996837 
2.6563275e+3, 2.1890761e+2, -981850.4, -1245518.4, -110785.07, -0.24146973, 0.19204286, -941482.4, -146764.13, 0.0, 10.000394, 9.9968815 
2.6559708e+3, 2.2890024e+2, -472752.53, -394103.06, -82884.38, -0.137521, 0.06735171, -341687.63, 355095.4, 0.0, 10.000996, 10.001625 
2.6556143e+3, 2.3889296e+2, -702747.4, -783986.9, -106487.125, -0.00688258, -0.22562195, -629395.75, -30551.275, 0.0, 9.999948, 9.998954 
2.6552522e+3, 2.4888612e+2, -572803.75, -620636.44, -208347.69, -0.07817262, -0.18054025, -387004.2, 113907.25, 0.0, 10.000095, 9.999221 
2.6548892e+3, 2.5887936e+2, -803873.75, -876905.2, -101788.11, -0.2153226, -0.18906432, -732249.6, -329269.28, 0.0, 9.998509, 9.997677 
2.654531e+3, 2.6887533e+2, -372747.16, -334493.2, 25820.684, -0.3135619, 0.12673439, -321486.84, -16463.105, 0.0, 9.999827, 9.999891 
2.6541746e+3, 2.7887103e+2, -408727.56, -629576.5, -9897.729, -0.34819695, 0.3099973, -408284.84, -201215.0, 0.0, 10.000109, 9.997218 
2.6538178e+3, 2.8885877e+2, -165984.45, -422421.56, -152843.36, -0.17766252, -0.01447688, -94700.91, 14487.477, 0.0, 10.001108, 9.997336 
2.6534593e+3, 2.9884645e+2, -223289.16, -503852.1, -164983.11, -0.17840625, -0.42133448, -147010.42, -135704.27, 0.0, 10.000322, 9.996638 
2.653101e+3, 3.088466e+2, -77360.99, -29933.594, -111698.78, -0.24252674, 0.30839148, 60540.957, 60540.957, 0.0, 9.999489, 9.999859 
2.6527447e+3, 3.188396e+2, -398651.22, -396594.84, -16499.79, -0.21552478, 0.23831159, -381091.25, -381091.25, 0.0, 9.997881, 9.998215 
2.6695547e+3, 1.2932755e+2, -1457092.9, -1822904.6, 18947.805, 0.28571865, 0.090999335, -1456114.1, 216487.66, 0.062782116, 10.002799, 9.997706 
2.6691964e+3, 1.393228e+2, -1701916.1, -2000558.1, 202873.5, 0.15307656, 0.41011593, -1599335.5, -24670.943, 0.039146993, 10.000688, 9.9970455 
2.6688364e+3, 1.4931577e+2, -1287098.3, -1299431.9, 28684.525, 0.17109978, 0.41803846, -1263925.1, 212807.98, 0.018543638, 10.001241, 10.000756 
2.668476e+3, 1.5930802e+2, -1193504.9, -1432351.0, -75240.24, 0.21019712, 0.19175181, -1171779.1, 207024.86, 0.005710664, 10.0018835, 9.998995 
2.6681146e+3, 1.693017e+2, -973732.4, -1177380.4, -117730.5, 0.093551375, 0.25196326, -919901.0, 360961.34, 0.0008890518, 10.0024605, 9.999641 
2.667753e+3, 1.7929593e+2, -938446.0, -1243137.3, -86747.266, -0.07527394, 0.3079423, -915479.7, 267435.6, 0.000037964888, 10.002405, 9.998667 
2.6673976e+3, 1.892879e+2, -667935.0, -871229.56, 30692.256, -0.024789874, 0.16516179, -663402.3, 421583.9, 0.0000000057994387, 10.002993, 10.00015 
2.667043e+3, 1.9927917e+2, -723139.6, -1116410.1, -15883.165, 0.056950554, -0.09226288, -722499.2, 264565.3, 0.0, 10.002862, 9.997999 
2.6666826e+3, 2.0927176e+2, -882064.2, -1108446.9, -29588.332, -0.06114768, 0.007344055, -878260.9, 10879.576, 0.0, 10.001263, 9.997985 
2.6663217e+3, 2.1926452e+2, -1009396.3, -1126984.5, 95675.02, -0.22393276, 0.08241327, -955894.1, -164677.73, 0.0, 9.999458, 9.998205 
2.6659656e+3, 2.2925812e+2, -577809.56, -447516.22, 144899.25, -0.10878628, 0.030400593, -353792.25, 339482.75, 0.0, 10.000173, 10.001718 
2.6656097e+3, 2.392516e+2, -446217.22, -628838.9, 19063.578, 0.053718064, -0.14246216, -444248.4, 151084.42, 0.0, 10.001414, 9.999351 
2.6652467e+3, 2.4924485e+2, -255760.83, -487440.4, -137365.06, -0.10039029, -0.08204822, -191911.95, 305488.7, 0.0, 10.002286, 9.999096 
2.6648825e+3, 2.5923833e+2, -169516.53, -525838.4, -60385.633, -0.3314162, -0.029331082, -159561.16, 239906.52, 0.0, 10.002553, 9.998151 
2.6645246e+3, 2.6923323e+2, -214234.34, -293384.38, 53748.742, -0.39310333, 0.17864312, -187062.75, 114456.7, 0.0, 10.000937, 9.999707 
2.6641685e+3, 2.792276e+2, -519468.78, -655133.2, 31486.7, -0.34330037, 0.27513757, -512517.16, -308940.94, 0.0, 9.999101, 9.99757 
2.6638126e+3, 2.8921488e+2, -252693.73, -499206.88, 33825.734, -0.18565863, -0.08592044, -248136.52, -142434.28, 0.0, 10.000539, 9.997179 
2.6634547e+3, 2.992021e+2, 6156.437, -350903.88, 57596.656, -0.122375675, -0.4789099, 15217.303, 23045.602, 0.0, 10.001554, 9.997164 
2.663094e+3, 3.0920488e+2, 146542.9, 131790.48, -14929.701, -0.3133152, 0.48271823, 155819.16, 155819.16, 0.0, 10.00075, 10.000397 
2.6627377e+3, 3.1919292e+2, -263911.25, -221126.67, 37413.938, -0.17140183, -0.093548976, -199421.02, -199421.02, 0.0, 9.998171, 9.9993305 
2.679552e+3, 1.2968388e+2, -1338291.5, -1122217.9, -32162.645, 0.39011216, 0.032444872, -1117532.1, 551580.2, 0.05267765, 10.000828, 10.003655 
2.6791903e+3, 1.3968122e+2, -1538747.1, -1704851.9, 21156.979, 0.08719414, 0.00958753, -1536094.6, 35037.363, 0.03242507, 10.000991, 9.998869 
2.6788297e+3, 1.4967634e+2, -1411211.8, -1688391.4, 12297.57, 0.025906237, 0.36244857, -1410667.3, 62522.23, 0.015032841, 10.001812, 9.997724 
2.6784703e+3, 1.5966992e+2, -1412601.1, -1841311.8, -42464.234, 0.08270627, 0.5422589, -1408435.4, -33173.168, 0.0044764117, 10.001764, 9.996212 
2.6781103e+3, 1.6965862e+2, -1025609.3, -1344534.8, -67526.63, 0.057488486, 0.28154197, -1011901.0, 265469.13, 0.00066900725, 10.002861, 9.99825 
2.6777506e+3, 1.7964758e+2, -1016356.6, -1364790.5, -37433.953, 0.021495638, -0.07022628, -1012380.25, 167092.13, 0.000027210404, 10.0023575, 9.997842 
2.6773947e+3, 1.8964228e+2, -733796.75, -830179.4, 69793.766, 0.013953198, 0.031451378, -697173.1, 384342.3, 0.000000001728097, 10.002338, 10.000702 
2.6770392e+3, 1.9963753e+2, -982836.44, -1139300.8, -49463.18, 0.047650263, 0.099844255, -968511.2, 15042.128, 0.0, 10.00078, 9.998815 
2.6766786e+3, 2.0962977e+2, -794677.8, -784787.44, -119964.63, 0.036851738, -0.04923438, -669666.1, 215959.84, 0.0, 10.000713, 10.000434 
2.6763168e+3, 2.196221e+2, -1122567.9, -1128427.6, 42512.723, -0.0045057307, -0.23915407, -1082884.3, -295184.13, 0.0, 9.998559, 9.998624 
2.6759595e+3, 2.296183e+2, -720631.25, -638572.1, 159537.28, -0.10427064, 0.0061567235, -514872.88, 174867.53, 0.0, 9.999765, 10.0005665 
2.6756024e+3, 2.3961458e+2, -835999.3, -1009704.0, 30172.764, -0.1864827, 0.21410204, -830907.5, -239127.13, 0.0, 9.999698, 9.997545 
2.6752403e+3, 2.4960692e+2, -425671.38, -620794.6, -114443.89, -0.3453191, 0.26141563, -372847.9, 121011.695, 0.0, 10.001503, 9.99845 
2.6748773e+3, 2.5959864e+2, -472679.66, -786924.44, -72498.53, -0.50868744, 0.17656104, -456760.2, -60816.094, 0.0, 10.001108, 9.997016 
2.6745194e+3, 2.695902e+2, -338436.03, -395129.44, -38980.156, -0.37420455, 0.09714543, -318585.34, -20561.023, 0.0, 10.000342, 9.999253 
2.674163e+3, 2.79582e+2, -697130.8, -737259.0, 15009.979, -0.19166279, -0.048691023, -692137.6, -492035.5, 0.0, 9.997946, 9.997562 
2.6738068e+3, 2.8957528e+2, -186829.47, -236192.7, 105760.22, -0.20396875, 0.036469158, -102909.02, -738.16187, 0.0, 10.00006, 9.999178 
2.673449e+3, 2.9956886e+2, -99081.65, -404747.1, 98510.516, -0.31928188, 0.101638675, -70084.33, -65846.555, 0.0, 10.00094, 9.997081 
2.6730898e+3, 3.095644e+2, -18185.883, -178328.47, -55219.086, -0.22213238, 0.4811123, -991.7691, -991.7691, 0.0, 10.000693, 9.99826 
2.672732e+3, 3.1955263e+2, -445249.22, -311787.5, -44278.563, -0.03188105, 0.08292624, -298433.4, -298433.4, 0.0, 9.997109, 9.999186 
2.6895452e+3, 1.3004152e+2, -1566124.8, -1247944.5, -37055.57, 0.16353738, 0.14719874, -1243686.0, 421923.63, 0.043619167, 9.999236, 10.003451 
2.6891857e+3, 1.4003648e+2, -1364601.9, -1521893.6, -96030.01, -0.0151265375, -0.123178124, -1319123.1, 248523.1, 0.02648621, 10.001707, 9.999807 
2.6888266e+3, 1.5003198e+2, -1157256.8, -1411658.3, -53308.7, 0.034199137, 0.12149165, -1146537.8, 323159.66, 0.012009438, 10.002816, 9.999195 
2.6884684e+3, 1.6002658e+2, -1111536.9, -1602635.1, 40750.61, 0.14510456, 0.28998876, -1108178.5, 263581.22, 0.003455713, 10.00329, 9.997147 
2.6881084e+3, 1.7001711e+2, -723908.06, -1244518.5, 79771.414, 0.060847193, 0.20688356, -711959.25, 561894.25, 0.00049606664, 10.004973, 9.997988 
2.6877484e+3, 1.800074e+2, -543920.94, -1154280.6, 85599.586, -0.090026066, 0.038445745, -532143.4, 643803.1, 0.00001910138, 10.005507, 9.99782 
2.6873899e+3, 1.9000082e+2, -759336.06, -902275.94, 66439.98, -0.091701545, 0.05671001, -733224.1, 344778.6, 0.0000000002885943, 10.002246, 10.000328 
2.687032e+3, 1.9999509e+2, -1263258.1, -1274850.8, -10034.692, -0.080724135, 0.08386687, -1257466.0, -277415.16, 0.0, 9.998705, 9.998916 
2.6866725e+3, 2.0998761e+2, -696683.4, -771086.75, -107211.92, -0.032055993, -0.018327642, -620402.2, 261720.4, 0.0, 10.001446, 10.000205 
2.686313e+3, 2.1998024e+2, -288741.2, -712886.44, -129214.414, -0.013196563, -0.153214, -252477.03, 531717.44, 0.0, 10.004098, 9.998822 
2.685954e+3, 2.2997586e+2, -530990.56, -629403.4, -99642.016, -0.13607247, 0.06356265, -469067.3, 217174.16, 0.0, 10.001281, 9.999987 
2.685595e+3, 2.3997198e+2, -996817.94, -968512.44, -143864.03, -0.26668927, 0.29375094, -838106.7, -249822.9, 0.0, 9.997925, 9.998731 
2.6852342e+3, 2.4996518e+2, -673752.25, -611915.2, -103106.2, -0.34342626, 0.2850484, -535191.5, -44840.445, 0.0, 9.999088, 9.999772 
2.6848736e+3, 2.599573e+2, -431979.53, -670796.56, 7346.8667, -0.3974532, 0.16545428, -431753.72, -39325.266, 0.0, 10.000787, 9.998023 
2.6845154e+3, 2.6994807e+2, -188068.33, -361757.13, 6158.6265, -0.25028947, 0.013428906, -187850.23, 106665.52, 0.0, 10.001449, 9.999004 
2.684158e+3, 2.7993926e+2, -186922.2, -434280.63, 74697.73, -0.069862954, -0.14237544, -166115.1, 30483.873, 0.0, 10.001093, 9.998133 
2.6838005e+3, 2.8993517e+2, -133817.48, -135124.53, 108419.35, -0.23064175, 0.1377076, -26049.695, 72594.09, 0.0, 10.000013, 9.999905 
2.6834422e+3, 2.999315e+2, -351288.44, -463229.06, -13137.021, -0.39684522, 0.41889495, -349767.4, -349082.3, 0.0, 9.998834, 9.997689 
2.6830858e+3, 3.099223e+2, -101069.93, -253053.61, -54937.5, -0.027309198, 0.31607327, -83291.37, -83291.37, 0.0, 10.000181, 9.998016 
2.6827255e+3, 3.199144e+2, -35148.754, -108218.06, -99005.84, 0.08942709, 0.355007, 33848.28, 33848.28, 0.0, 9.999789, 9.999293 
2.6995382e+3, 1.303999e+2, -1422642.6, -1359654.6, 82925.51, 0.061562143, 0.30933827, -1302444.0, 359655.44, 0.03555016, 10.00116, 10.001658 
2.699182e+3, 1.4039162e+2, -1497571.8, -1598162.6, -63573.875, 0.057640526, -0.16193824, -1466803.9, 97362.336, 0.021269776, 10.000853, 9.999697 
2.6988244e+3, 1.5038694e+2, -1116480.6, -1126108.5, -71513.59, 0.17169783, -0.12371579, -1049619.1, 416594.84, 0.009415533, 10.001987, 10.00156 
2.6984677e+3, 1.6038223e+2, -1259246.9, -1580616.1, -10844.078, 0.35196635, -0.086022876, -1258881.4, 109383.62, 0.0026134893, 10.001965, 9.997923 
2.6981074e+3, 1.7037648e+2, -890985.3, -1294698.1, 55087.105, 0.09251946, 0.15212739, -883603.56, 386722.78, 0.0003600524, 10.003801, 9.998139 
2.6977465e+3, 1.8037005e+2, -883887.1, -1387906.6, -19573.107, -0.19556475, 0.3042652, -883128.1, 289264.4, 0.000012952271, 10.003613, 9.997089 
2.6973847e+3, 1.9036108e+2, -843275.4, -1014518.9, -108693.234, -0.19725053, 0.13706389, -790530.56, 283942.5, 0.000000000007316074, 10.002143, 9.999531 
2.6970237e+3, 2.0035252e+2, -1388107.5, -1537680.4, -24042.096, -0.16848102, -0.018195976, -1384338.0, -407787.56, 0.0, 9.998831, 9.997049 
2.6966664e+3, 2.1034563e+2, -891131.3, -1063831.4, 26192.865, -0.16124249, 0.10203676, -887246.1, -8623.473, 0.0, 10.001049, 9.99835 
2.6963094e+3, 2.2033884e+2, -756196.9, -1116517.0, -117710.28, -0.15064406, 0.19087467, -721151.5, 59542.91, 0.0, 10.00182, 9.99711 
2.695948e+3, 2.3033182e+2, -712339.3, -728682.5, -222236.61, -0.18367994, 0.18432124, -498124.13, 184640.23, 0.0, 10.0003, 9.999655 
2.695587e+3, 2.4032545e+2, -1155926.6, -962187.6, -158049.14, -0.21663544, 0.15306313, -873683.9, -288857.8, 0.0, 9.99662, 9.999371 
2.6952294e+3, 2.503204e+2, -540353.7, -217509.2, -37461.254, -0.13266571, 0.0670738, -213219.39, 273648.38, 0.0, 9.998689, 10.002615 
2.6948717e+3, 2.6031512e+2, -633335.1, -698215.5, 44337.41, -0.059924405, -0.041985855, -610837.44, -221925.02, 0.0, 9.999274, 9.998521 
2.6945123e+3, 2.7030793e+2, -310159.22, -442715.56, 22853.762, -0.08551064, 0.008316986, -306329.7, -15347.169, 0.0, 10.000848, 9.998657 
2.6941526e+3, 2.8030065e+2, -404130.22, -663125.6, 70343.51, -0.1601611, 0.035016466, -386258.1, -193203.13, 0.0, 10.000296, 9.996917 
2.6937935e+3, 2.9029396e+2, -311301.44, -352056.5, 40295.645, -0.328373, 0.17910829, -286523.88, -191398.4, 0.0, 9.999525, 9.998589 
2.6934344e+3, 3.0028734e+2, -524581.94, -489573.94, -16720.791, -0.49477085, 0.24819355, -482871.0, -482871.0, 0.0, 9.997532, 9.99812 
2.6930797e+3, 3.1027865e+2, 46446.867, 166277.16, 36390.59, -0.040924996, -0.06588379, 176462.66, 176462.66, 0.0, 9.999787, 10.001065 
2.6927188e+3, 3.202716e+2, -240727.78, -533303.4, -84385.79, -0.10957712, -0.09822131, -218133.72, -218133.72, 0.0, 9.999939, 9.996296 
2.7095377e+3, 1.3075776e+2, -1251246.3, -1549562.3, -45212.383, 0.15534231, 0.25336567, -1244544.5, 414047.8, 0.028415078, 10.003505, 9.999216 
2.7091798e+3, 1.4074902e+2, -1578037.3, -1749956.5, -64825.355, 0.2763564, -0.029174328, -1556333.5, 4340.7393, 0.016713178, 10.000726, 9.998726 
2.7088192e+3, 1.5074527e+2, -1232153.5, -1205162.5, -90158.31, 0.09444267, 0.13042471, -1127495.3, 335219.28, 0.0071980846, 10.001198, 10.001437 
2.70846e+3, 1.6074118e+2, -1280696.1, -1494700.8, -87924.71, -0.03967161, 0.2312861, -1249205.6, 115552.53, 0.0019202423, 10.001303, 9.99886 
2.7081028e+3, 1.7073496e+2, -1065134.0, -1244644.3, -2922.7417, -0.0439259, 0.298821, -1065086.4, 201733.44, 0.00025324232, 10.001996, 9.999387 
2.7077445e+3, 1.8072838e+2, -1015213.75, -1336595.5, -75819.15, -0.096081555, 0.34227282, -998224.9, 170658.81, 0.000008369746, 10.002132, 9.998163 
2.7073827e+3, 1.9071999e+2, -649990.1, -923614.2, -153050.48, -0.04336312, 0.20000279, -581517.06, 489443.44, 0.0, 10.003464, 9.999525 
2.7070212e+3, 2.007117e+2, -610013.1, -1111878.0, -44586.844, -0.03966725, 0.08052293, -606082.7, 366954.34, 0.0, 10.003836, 9.997588 
2.7066615e+3, 2.1070434e+2, -857463.3, -1062603.1, 69621.13, -0.1964745, 0.15968934, -836066.75, 39046.027, 0.0, 10.001193, 9.998378 
2.7063018e+3, 2.2069739e+2, -1118186.1, -1152096.1, 24083.18, -0.32952407, 0.23137248, -1105688.3, -328503.88, 0.0, 9.998586, 9.9984665 
2.7059418e+3, 2.3069012e+2, -675472.7, -626615.4, 7576.191, -0.2103788, 0.13389055, -625467.5, 53783.73, 0.0, 10.000087, 10.000534 
2.7055818e+3, 2.4068312e+2, -396192.78, -546545.3, 106383.88, -0.09309884, 0.021590482, -341103.94, 240211.44, 0.0, 10.001483, 9.999901 
2.705224e+3, 2.506776e+2, -333638.4, -206952.47, 20961.379, -0.015493049, -0.035774183, -203574.3, 279791.44, 0.0, 10.000403, 10.001906 
2.7048662e+3, 2.6067242e+2, -590731.7, -596525.9, -93894.336, 0.05544688, -0.07273991, -499689.75, -114277.95, 0.0, 9.9991255, 9.999287 
2.7045068e+3, 2.7066654e+2, -369147.8, -409822.66, -66944.54, -0.07166284, 0.017656095, -319519.66, -32051.602, 0.0, 10.000062, 9.999307 
2.704147e+3, 2.8065988e+2, -325163.2, -606852.8, -9130.601, -0.18697931, 0.07812321, -324867.53, -135334.36, 0.0, 10.000616, 9.9971695 
2.7037877e+3, 2.9065144e+2, -205683.4, -401134.34, -30233.303, -0.29795286, 0.10459735, -201113.63, -109492.46, 0.0, 10.000635, 9.997759 
2.703428e+3, 3.0064318e+2, -121898.45, -176506.72, -44786.72, -0.37999445, 0.06879004, -96749.125, -96749.125, 0.0, 9.99966, 9.999282 
2.7030736e+3, 3.1063628e+2, 20105.209, 367425.56, -53854.074, 0.061993986, -0.24032079, 375584.3, 375584.3, 0.0, 9.998594, 10.003073 
2.702713e+3, 3.2062984e+2, -549570.2, -758737.94, -221023.73, 0.01343819, -0.31747168, -409635.6, -409635.6, 0.0, 9.998057, 9.995673 
2.719538e+3, 1.3111539e+2, -1629924.3, -1944708.1, -145677.53, 0.46609828, 0.18082906, -1572853.8, 82235.66, 0.02219124, 10.001884, 9.997223 
2.719178e+3, 1.4110722e+2, -1395828.0, -1851177.4, -92799.67, 0.60338104, 0.13905631, -1377641.9, 179534.31, 0.01278431, 10.002846, 9.997021 
2.7188137e+3, 1.5110457e+2, -1151850.8, -1249316.4, -62374.28, 0.019530166, 0.49516645, -1121429.0, 337779.66, 0.00532732, 10.002225, 10.000597 
2.7184516e+3, 1.611011e+2, -1393426.5, -1517599.8, -56252.45, -0.38624647, 0.7122786, -1371733.1, -10486.58, 0.0013580795, 10.000537, 9.999052 
2.718098e+3, 1.7109324e+2, -1027286.2, -1054074.5, 19154.645, -0.09625046, 0.47761548, -1017307.2, 246010.19, 0.00016970174, 10.001622, 10.000834 
2.7177435e+3, 1.8108551e+2, -1150267.8, -1374051.1, -51237.56, 0.18947701, 0.2916987, -1139094.3, 26292.992, 0.0000049540654, 10.001182, 9.99836 
2.717383e+3, 1.9107857e+2, -809711.75, -978842.3, -114950.34, 0.25402704, 0.25334036, -751571.5, 315880.8, 0.0, 10.002311, 9.999661 
2.717021e+3, 2.0107147e+2, -972145.06, -1279156.0, -92126.57, 0.24481441, 0.23536702, -946621.94, 22897.303, 0.0, 10.001475, 9.997527 
2.7166563e+3, 2.1106374e+2, -900835.1, -949038.5, -49347.887, -0.15698016, 0.17431572, -870017.75, 1576.4373, 0.0, 10.000525, 9.999373 
2.7162927e+3, 2.2105645e+2, -1204315.3, -1104051.6, 15160.372, -0.4476301, 0.109676, -1101809.5, -328146.75, 0.0, 9.997758, 9.999178 
2.7159357e+3, 2.3105039e+2, -623356.75, -425181.66, 70502.05, -0.16904698, -0.023339355, -402659.66, 273049.94, 0.0, 9.999794, 10.00201 
2.7155784e+3, 2.4104424e+2, -833830.06, -1019580.06, 97020.31, 0.05738791, -0.091869555, -792396.8, -214635.13, 0.0, 9.999795, 9.9974165 
2.7152175e+3, 2.5103655e+2, -746671.25, -852930.44, -37229.81, -0.051505767, -0.020380449, -734925.5, -255077.36, 0.0, 9.999631, 9.997765 
2.7148572e+3, 2.6102933e+2, -908472.44, -908266.56, -95906.06, -0.17330442, 0.05599241, -812463.4, -430536.47, 0.0, 9.99773, 9.99783 
2.7144986e+3, 2.710235e+2, -348490.4, -207021.28, -30137.467, -0.25411665, 0.037232593, -200868.63, 83107.625, 0.0, 9.999498, 10.000937 
2.7141407e+3, 2.8101686e+2, -505592.34, -726710.6, -7997.699, -0.30461603, -0.00847693, -505303.44, -319268.63, 0.0, 9.999627, 9.996819 
2.7137825e+3, 2.9100698e+2, -293465.06, -511466.8, -54857.17, -0.26265553, -0.09044378, -280439.3, -192303.11, 0.0, 10.000374, 9.997092 
2.7134234e+3, 3.0099866e+2, -258645.67, -317109.06, -116322.22, -0.26763937, -0.090018354, -167938.4, -167938.4, 0.0, 9.999146, 9.998538 
2.713069e+3, 3.1099555e+2, -138662.48, 252739.47, -181554.48, 0.38371325, -0.001416969, 323985.88, 323985.88, 0.0, 9.997751, 10.002628 
2.7127033e+3, 3.2098928e+2, -382584.0, -157055.16, 2911.7207, -0.17940365, -0.17202957, -157017.58, -157017.58, 0.0, 9.9971075, 10.000198 
2.7295342e+3, 1.3147287e+2, -1605345.5, -1719704.1, -41444.75, 0.44029787, 0.33913383, -1591905.1, 59691.406, 0.016854309, 10.001102, 9.999137 
2.7291736e+3, 1.4146632e+2, -750092.06, -1487829.5, -68303.73, 0.0965812, 0.3262183, -743821.44, 809837.94, 0.009467287, 10.007044, 9.997508 
2.7288115e+3, 1.5146104e+2, -954151.2, -1235483.5, -145200.98, 0.04355664, 0.47648528, -892653.3, 563063.9, 0.0037924994, 10.003947, 9.999846 
2.728451e+3, 1.6145565e+2, -1317063.3, -1382927.6, -28969.467, 0.01480798, 0.5391858, -1306134.8, 51638.176, 0.0009170214, 10.000584, 9.999943 
2.7280954e+3, 1.7144905e+2, -917107.75, -867309.06, 97905.23, 0.052318014, 0.32765186, -791186.56, 468640.84, 0.0001065257, 10.001716, 10.002105 
2.7277386e+3, 1.8144278e+2, -956370.8, -1153456.5, -56192.387, 0.09894942, 0.1836828, -941475.2, 220405.58, 0.0000025959862, 10.0018635, 9.999562 
2.7273768e+3, 1.9143686e+2, -1169124.4, -1110538.4, -134172.58, 0.22500573, 0.21398869, -1002498.4, 61442.43, 0.0, 9.9995575, 10.000164 
2.727015e+3, 2.01431e+2, -1359072.0, -1282617.4, -23917.508, 0.2515595, 0.2596209, -1275751.8, -309752.22, 0.0, 9.997906, 9.999243 
2.7266523e+3, 2.1142466e+2, -597144.56, -676522.75, 81163.555, -0.055117548, 0.21877408, -546485.75, 321572.88, 0.0, 10.001935, 10.000636 
2.7262902e+3, 2.2141802e+2, -167361.75, -608823.3, 50634.52, -0.30286947, 0.16851768, -161628.56, 608490.6, 0.0, 10.004744, 9.99923 
2.725931e+3, 2.3141022e+2, -419233.44, -507928.34, -102525.266, -0.12226078, -0.011545561, -351875.38, 320311.8, 0.0, 10.00185, 10.000482 
2.7255717e+3, 2.4140307e+2, -894947.5, -1046564.56, -156818.78, 0.035598353, -0.07833967, -796574.9, -222323.05, 0.0, 9.999221, 9.997524 
2.7252105e+3, 2.5139648e+2, -631857.94, -822067.56, -29392.959, -0.1386275, 0.11223492, -627419.44, -151091.33, 0.0, 10.000409, 9.997669 
2.72485e+3, 2.613896e+2, -334044.03, -596708.4, 122454.35, -0.2740926, 0.261762, -285812.28, 92592.03, 0.0, 10.001386, 9.998226 
2.724493e+3, 2.713823e+2, -83410.21, -122490.47, 66502.35, -0.24580583, 0.1416399, -33636.707, 246830.63, 0.0, 10.001407, 10.00065 
2.724136e+3, 2.8137463e+2, -276303.44, -534101.56, -40649.043, -0.17524949, 0.016082183, -270045.88, -87511.664, 0.0, 10.000707, 9.99765 
2.723777e+3, 2.9136512e+2, -363679.4, -480552.13, -20604.572, -0.20018955, -0.09669242, -360153.25, -275523.9, 0.0, 9.999464, 9.997795 
2.723417e+3, 3.0135724e+2, -383335.63, -338293.38, -16742.326, -0.17398052, -0.08635319, -332751.97, -332751.97, 0.0, 9.998, 9.99896 
2.723062e+3, 3.1135455e+2, -103961.31, 164240.28, -121597.79, 0.52709997, 0.110670164, 211161.72, 211161.72, 0.0, 9.998278, 10.001863 
2.7226925e+3, 3.213499e+2, -239310.16, 252025.48, 46868.547, -0.3710219, 0.1024899, 256456.33, 256456.33, 0.0, 9.996384, 10.003452 
2.7395305e+3, 1.3183048e+2, -1251461.5, -1256040.0, 329401.06, 0.48322454, 0.5217355, -924341.7, 723758.94, 0.012358647, 10.002386, 10.001667 
2.7391693e+3, 1.4182542e+2, -1407531.8, -1787808.1, -56930.72, -0.3306209, 0.48770306, -1399191.6, 150947.2, 0.0067449408, 10.002473, 9.997594 
2.7388102e+3, 1.5181696e+2, -1177828.9, -1413326.4, -237422.31, 0.18495932, 0.33996627, -1030560.44, 421666.2, 0.0025850076, 10.002694, 9.999195 
2.738452e+3, 1.6180937e+2, -1239603.0, -1308554.6, 11976.649, 0.65360576, 0.21170546, -1237581.9, 116720.55, 0.0005889778, 10.001012, 10.000225 
2.738093e+3, 1.7180477e+2, -927964.9, -760864.8, 167205.11, 0.2760064, 0.08720001, -657497.3, 598836.94, 0.00006228534, 10.001185, 10.003077 
2.7377325e+3, 1.8180035e+2, -1228570.6, -1269045.6, -105657.7, -0.02535525, 0.07205045, -1141229.8, 17138.748, 0.0000011486238, 10.000041, 9.999621 
2.7373686e+3, 1.9179545e+2, -1195748.6, -1053140.3, -224246.64, 0.11814515, 0.13086945, -889134.3, 171289.61, 0.0, 9.999203, 10.000646 
2.7370065e+3, 2.0179097e+2, -1366457.4, -1212320.3, 70182.14, 0.23326173, 0.25289962, -1185153.0, -222679.63, 0.0, 9.997683, 9.999796 
2.7366498e+3, 2.117868e+2, -602599.0, -546430.75, 229238.89, 0.12663963, 0.29187897, -343562.13, 520948.06, 0.0, 10.001366, 10.00177 
2.7362916e+3, 2.2178091e+2, -701851.5, -1171770.5, -1714.9658, -0.004906113, 0.32908267, -701845.25, 64720.33, 0.0, 10.002505, 9.996418 
2.7359265e+3, 2.3176935e+2, -831856.44, -1115891.9, -239817.67, -0.09090128, 0.100017436, -695160.06, -26477.068, 0.0, 10.000907, 9.996698 
2.7355626e+3, 2.4176005e+2, -1088446.3, -1104485.4, -153630.7, -0.17178987, 0.057303127, -942626.0, -371848.94, 0.0, 9.997861, 9.997762 
2.735203e+3, 2.5175765e+2, -477247.25, -351673.47, 24261.932, -0.29304606, 0.34204844, -347148.9, 125651.875, 0.0, 9.999866, 10.001096 
2.7348444e+3, 2.6175377e+2, -629273.94, -871691.56, 134858.9, -0.354233, 0.58318144, -569158.44, -194319.11, 0.0, 10.000074, 9.99693 
2.7344897e+3, 2.7174312e+2, -358422.0, -559763.5, 59337.766, -0.104039624, 0.35239878, -342235.72, -65295.453, 0.0, 10.000908, 9.997837 
2.7341333e+3, 2.8173342e+2, -411809.34, -565416.25, -91800.43, 0.04265694, 0.19617838, -368921.16, -189889.83, 0.0, 9.999789, 9.997839 
2.7337706e+3, 2.9172736e+2, -255893.19, -114604.73, -62879.37, -0.15850224, 0.17055073, -90674.0, -9588.016, 0.0, 9.9989805, 10.000494 
2.733407e+3, 3.0172104e+2, -557230.2, -458413.47, -6709.393, -0.3834053, 0.1743349, -457960.0, -457960.0, 0.0, 9.997092, 9.998551 
2.7330476e+3, 3.117129e+2, -242575.75, -40034.957, -69385.49, -0.124980785, -0.09798018, -18545.266, -18545.266, 0.0, 9.99806, 10.000482 
2.7326834e+3, 3.2171157e+2, -727348.44, -448640.6, -184204.98, -0.36166635, 0.45344558, -357016.16, -357016.16, 0.0, 9.995198, 9.99915 
2.7495265e+3, 1.3218628e+2, -912393.06, -952205.8, 95392.55, 0.13705888, 0.16832021, -834852.0, 809754.44, 0.00868548, 10.003963, 10.003096 
2.7491674e+3, 1.421846e+2, -2038163.3, -1948291.8, 26248.52, 0.07489281, 0.36768728, -1941187.0, -394577.78, 0.0045926278, 9.997422, 9.998954 
2.7488056e+3, 1.5217671e+2, -1291693.4, -1386557.5, 21362.908, 0.17379603, 0.19834752, -1287104.6, 161587.14, 0.0016782226, 10.001438, 10.000064 
2.748446e+3, 1.6216955e+2, -866817.7, -1090967.8, 160693.22, 0.30636516, 0.08383628, -782976.6, 567787.9, 0.0003582281, 10.003357, 10.000592 
2.7480868e+3, 1.7216599e+2, -1087360.9, -888964.9, 203006.39, 0.15975334, 0.116008475, -762216.4, 490575.28, 0.000033741435, 10.000313, 10.002616 
2.747726e+3, 1.8216203e+2, -1481057.4, -1341962.6, -45083.074, 0.0070260717, 0.18720289, -1328628.6, -173803.64, 0.00000040337267, 9.99802, 10.000094 
2.747363e+3, 1.9215581e+2, -989399.1, -938026.1, -124417.91, 0.14918312, 0.10071028, -836670.9, 220219.7, 0.0, 10.000433, 10.000881 
2.747001e+3, 2.0215055e+2, -760778.94, -938715.3, 123140.31, 0.22187823, 0.1567579, -697829.8, 261116.55, 0.0, 10.001795, 9.999709 
2.7466446e+3, 2.1214691e+2, -779141.5, -724968.75, 177606.78, 0.08503916, 0.32763463, -572394.8, 288588.25, 0.0, 10.000441, 10.001032 
2.746286e+3, 2.2214165e+2, -1065095.9, -1280441.8, -115901.31, -0.04489488, 0.45296177, -1014570.94, -251534.75, 0.0, 9.999568, 9.997131 
2.745921e+3, 2.3213087e+2, -732453.94, -1040190.5, -125719.25, -0.13354039, 0.28696415, -687624.56, -22476.959, 0.0, 10.001307, 9.997133 
2.7455565e+3, 2.4212168e+2, -333746.53, -638259.4, 129177.12, -0.22059588, 0.24017891, -286331.38, 280909.66, 0.0, 10.002451, 9.998789 
2.745198e+3, 2.5211796e+2, -127562.484, -185918.44, 89576.445, -0.2749356, 0.40820983, -62531.68, 406741.66, 0.0, 10.002155, 10.001224 
2.7448407e+3, 2.621131e+2, -380563.28, -708426.5, 37969.62, -0.24421877, 0.5641734, -376223.47, -4906.2344, 0.0, 10.001449, 9.997427 
2.7444857e+3, 2.721021e+2, -428693.0, -654818.5, 92831.375, 0.0012739224, 0.3279349, -395465.44, -122039.74, 0.0, 10.000547, 9.997416 
2.744128e+3, 2.8209275e+2, -380522.84, -410207.16, 8658.345, 0.16651246, 0.21930744, -378181.97, -202665.58, 0.0, 9.999285, 9.999161 
2.743764e+3, 2.9208955e+2, -238947.14, 42682.64, -99253.305, -0.04904715, 0.37954986, 74146.75, 151688.45, 0.0, 9.998423, 10.001872 
2.7433985e+3, 3.020841e+2, -446579.97, -348557.6, -46677.79, -0.34598747, 0.37543738, -329886.34, -329886.34, 0.0, 9.997528, 9.99912 
2.7430356e+3, 3.1207082e+2, -122104.63, -30405.875, -23642.504, -0.5339895, -0.3703615, -24669.078, -24669.078, 0.0, 9.999009, 10.0001335 
2.7426776e+3, 3.2207403e+2, -258287.03, -500081.75, -220668.45, -0.008576184, 0.77092636, -127568.13, -127568.13, 0.0, 9.999496, 9.9967165 
2.759523e+3, 1.3254407e+2, -1133500.9, -941931.25, -92486.79, 0.04401747, -0.13994634, -904567.5, 736522.3, 0.0058229626, 10.002086, 10.003947 
2.7591655e+3, 1.4254518e+2, -1707442.8, -1728927.5, 52265.9, 0.7284027, 0.25981417, -1664826.8, -121761.0, 0.0029696852, 9.999571, 9.99938 
2.7588007e+3, 1.5253815e+2, -1205812.3, -1204188.8, 160520.06, 0.15034252, 0.065291084, -1044478.4, 400661.2, 0.0010279784, 10.001592, 10.001161 
2.758438e+3, 1.6253208e+2, -1183319.8, -1336906.3, 102450.93, -0.15943484, 0.020867307, -1132076.3, 215126.86, 0.0002033788, 10.001637, 9.999734 
2.7580792e+3, 1.725293e+2, -1209087.8, -1080228.4, 72339.38, 0.021842023, 0.22598319, -1047786.06, 201444.22, 0.000016580547, 10.000054, 10.001426 
2.7577198e+3, 1.8252526e+2, -1512855.8, -1417995.9, -8529.506, 0.18088008, 0.3841553, -1417235.0, -265966.1, 0.00000009587778, 9.998188, 9.999469 
2.7573583e+3, 1.9251686e+2, -946363.56, -905183.1, -55122.09, 0.2936235, 0.066983715, -866931.2, 186418.92, 0.0, 10.000785, 10.000906 
2.7569973e+3, 2.0250987e+2, -985927.9, -1254036.8, 110707.766, 0.28227025, 0.023576131, -946123.75, 9296.634, 0.0, 10.001249, 9.997798 
2.7566373e+3, 2.1250579e+2, -978805.0, -1019575.94, 114533.625, -0.033046186, 0.3108617, -882856.8, -25387.787, 0.0, 10.000032, 9.999164 
2.7562773e+3, 2.2250132e+2, -1188966.9, -1169240.1, -84605.43, -0.22923662, 0.58440113, -1093925.0, -334406.47, 0.0, 9.998204, 9.998488 
2.755915e+3, 2.324947e+2, -615215.6, -613935.8, -60823.93, -0.20869832, 0.5062899, -553748.44, 107834.805, 0.0, 10.000684, 10.000286 
2.755553e+3, 2.4248706e+2, -707455.44, -1035639.6, 125287.94, -0.18922251, 0.49037093, -665093.5, -101437.16, 0.0, 10.001015, 9.996695 
2.7551952e+3, 2.5247678e+2, -471082.03, -711096.2, 66949.77, -0.12362422, 0.2738707, -453670.16, 12082.052, 0.0, 10.001435, 9.997904 
2.7548373e+3, 2.6246735e+2, -585240.75, -798637.2, 5171.5796, -0.07956338, 0.16945744, -585115.5, -217274.23, 0.0, 10.000142, 9.997421 
2.7544793e+3, 2.7245906e+2, -407293.56, -399411.66, 52242.977, -0.020099103, 0.007728809, -350961.22, -81038.62, 0.0, 9.999804, 9.99948 
2.7541202e+3, 2.8245267e+2, -614693.2, -593979.94, -47114.574, 0.03907883, 0.09110924, -556097.1, -384111.5, 0.0, 9.998113, 9.998448 
2.7537566e+3, 2.9245105e+2, -426518.0, -197209.42, -144940.48, 0.023392908, 0.5054598, -127057.46, -53054.805, 0.0, 9.997823, 10.000503 
2.7533925e+3, 3.0244526e+2, -520539.75, -327329.72, -53298.164, -0.14347176, 0.5422064, -313602.4, -313602.4, 0.0, 9.996882, 9.999561 
2.753031e+3, 3.1242824e+2, -61811.938, 170680.11, 27724.574, -0.31142205, -0.74360085, 173940.53, 173940.53, 0.0, 9.998751, 10.001624 
2.75267e+3, 3.2243416e+2, -22830.48, -151778.83, 65945.94, -0.31312928, 0.4959936, 4922.1626, 4922.1626, 0.0, 10.000303, 9.998654 
2.76952e+3, 1.3291197e+2, -1576944.8, -1563322.1, 58148.17, 0.1284128, 0.0481648, -1511587.8, 125892.26, 0.003689337, 10.000775, 10.000268 
2.7691618e+3, 1.4290793e+2, -1202990.6, -1586670.0, 101434.75, 0.661465, 0.22290625, -1177824.6, 361692.44, 0.001804221, 10.003475, 9.998452 
2.7687964e+3, 1.5290153e+2, -1198488.6, -1250927.4, 133946.34, 0.14290142, 0.14313072, -1088219.6, 353361.56, 0.00058557204, 10.001852, 10.000704 
2.768433e+3, 1.628956e+2, -1350246.8, -1395231.4, 35213.11, -0.17348698, 0.13364057, -1330955.5, 12684.618, 0.00010501939, 10.000304, 9.999988 
2.768073e+3, 1.728911e+2, -1110820.3, -1047217.8, 60393.633, -0.03436178, 0.17257999, -1010764.3, 234918.53, 0.0000068884756, 10.000661, 10.001434 
2.767713e+3, 1.8288611e+2, -1090234.3, -1250211.6, 67401.75, 0.086637504, 0.26615325, -1065622.9, 82108.5, 0.00000000965895, 10.001152, 9.999218 
2.7673534e+3, 1.9287856e+2, -642010.0, -853878.56, 43062.363, 0.18077382, 0.12569205, -633592.0, 416214.4, 0.0, 10.003203, 10.00015 
2.766993e+3, 2.0287143e+2, -615331.06, -1046124.6, 65838.766, 0.15935141, 0.11807789, -605493.44, 346384.7, 0.0, 10.003569, 9.998134 
2.7666318e+3, 2.1286526e+2, -805729.1, -970190.7, 108746.92, -0.0626207, 0.23567834, -751622.8, 102320.99, 0.0, 10.001259, 9.99899 
2.7662706e+3, 2.228595e+2, -897520.56, -989790.2, 939.87634, -0.22083697, 0.40291882, -897511.0, -141506.22, 0.0, 9.999904, 9.99893 
2.7659097e+3, 2.3285341e+2, -520084.13, -596365.8, -112780.97, -0.19743505, 0.4105568, -439169.22, 218896.17, 0.0, 10.001301, 10.00019 
2.7655494e+3, 2.4284625e+2, -523377.16, -876440.1, -73147.164, -0.1611494, 0.41556817, -508822.63, 51311.664, 0.0, 10.001822, 9.997438 
2.7651906e+3, 2.5283572e+2, -577017.7, -771460.6, 44811.79, -0.09319403, 0.18078746, -567187.25, -104955.06, 0.0, 10.000651, 9.997914 
2.7648318e+3, 2.6282632e+2, -580366.7, -586644.4, 109191.65, -0.031046374, 0.035154283, -474268.78, -109948.74, 0.0, 9.999196, 9.999326 
2.764472e+3, 2.7281997e+2, -569905.4, -307876.25, 111699.77, -0.047564916, -0.05874002, -266723.3, -342.49826, 0.0, 9.997864, 10.001101 
2.7641115e+3, 2.8281498e+2, -661117.5, -581004.44, 78397.98, -0.007374083, 0.073471196, -533022.56, -364592.03, 0.0, 9.9975, 9.998851 
2.7637497e+3, 2.9281253e+2, -107708.48, -160915.02, 21302.639, 0.06683137, 0.49363235, -100230.42, -29771.55, 0.0, 10.000281, 9.99966 
2.7633867e+3, 3.0280602e+2, 44775.34, -40750.227, 82321.1, 0.021505533, 0.52838343, 94777.95, 94777.95, 0.0, 10.000592, 9.999738 
2.7630255e+3, 3.1278917e+2, -169949.05, 133596.86, -9801.451, -0.07324698, -0.73689324, 133913.02, 133913.02, 0.0, 9.997891, 10.001771 
2.7626613e+3, 3.2279447e+2, -135584.22, 160939.92, 116050.58, -0.5508799, 0.30349416, 200957.9, 200957.9, 0.0, 9.99786, 10.001957 
2.7795172e+3, 1.3328071e+2, -1732041.5, -2067407.6, 188204.08, 0.33652413, 0.30316657, -1647656.4, -13791.685, 0.00217142, 10.001654, 9.996351 
2.779158e+3, 1.432709e+2, -1349313.8, -1849960.5, 80535.71, 0.5678182, 0.17566624, -1336677.4, 199291.47, 0.0010072395, 10.003258, 9.996798 
2.778793e+3, 1.532655e+2, -1212531.6, -1354761.8, 75659.65, 0.22569354, 0.26602286, -1179811.6, 258207.58, 0.00030058212, 10.002103, 9.999931 
2.7784294e+3, 1.6325952e+2, -1380946.4, -1404993.1, 62721.348, 0.040575534, 0.30804044, -1329106.4, 10968.184, 0.000046417692, 10.000162, 9.999981 
2.7780676e+3, 1.732525e+2, -1097743.0, -996960.2, 56741.07, 0.009818196, 0.04173955, -971464.56, 270674.38, 0.0000020738605, 10.000665, 10.001744 
2.777707e+3, 1.832464e+2, -1291258.4, -1483608.5, 132548.34, -0.021234265, 0.07281187, -1223669.3, -79471.47, 0.00000000000031198744, 10.000474, 9.997905 
2.7773485e+3, 1.9324099e+2, -865602.75, -1074237.0, 103251.18, 0.00032887197, 0.22194013, -823145.0, 223112.19, 0.0, 10.002262, 9.999028 
2.776989e+3, 2.0323439e+2, -863912.1, -1198869.0, 15183.075, 0.035905395, 0.347982, -863225.3, 85099.05, 0.0, 10.002149, 9.997728 
2.7766272e+3, 2.13225e+2, -839432.7, -930784.44, 7107.948, -0.002672718, 0.08316613, -838882.94, 11529.292, 0.0, 10.000916, 9.999374 
2.7762657e+3, 2.232164e+2, -1206121.9, -1412155.3, 28160.566, -0.05152052, 0.049484253, -1202342.3, -449845.66, 0.0, 9.999064, 9.996406 
2.775905e+3, 2.332081e+2, -785996.06, -994938.8, -48541.625, -0.10987501, 0.048870217, -775269.56, -120684.28, 0.0, 10.000732, 9.997669 
2.7755448e+3, 2.4320118e+2, -642855.9, -770375.75, -87658.76, -0.15494753, 0.17005658, -598221.2, -41565.65, 0.0, 10.00046, 9.998788 
2.7751842e+3, 2.531956e+2, -513108.3, -419002.63, -263.477, -0.1824242, 0.14289875, -419001.88, 39702.168, 0.0, 9.999832, 10.000701 
2.7748233e+3, 2.6319024e+2, -750268.5, -554606.8, 52601.99, -0.18720143, 0.20392409, -541361.8, -180610.66, 0.0, 9.997713, 10.000198 
2.774462e+3, 2.731852e+2, -647160.56, -238309.2, 67415.63, -0.15753542, 0.115056746, -227479.86, 35316.746, 0.0, 9.996986, 10.00194 
2.7741018e+3, 2.8317985e+2, -812751.9, -633163.4, 159721.13, -0.12994383, 0.16256335, -539725.94, -374878.78, 0.0, 9.9965315, 9.998919 
2.7737427e+3, 2.9317346e+2, -129033.44, -120221.3, 171395.11, -0.06294045, 0.1356133, 46824.367, 113736.42, 0.0, 10.0000925, 9.9999485 
2.7733803e+3, 3.0316687e+2, -198537.69, -458564.9, 6623.987, -0.15041728, 0.268067, -198369.06, -198369.06, 0.0, 10.000382, 9.996936 
2.773016e+3, 3.1315807e+2, -549347.0, -388737.16, -151987.5, -0.14274944, 0.092265904, -297143.63, -297143.63, 0.0, 9.996864, 9.998659 
2.7726537e+3, 3.231531e+2, -141660.66, 585339.06, 308765.5, -0.52678823, 0.1604691, 698775.56, 698775.56, 0.0, 9.996144, 10.005698 
2.7895135e+3, 1.336444e+2, -1438557.8, -1861380.0, 176096.08, 0.17995529, 0.3251954, -1374824.4, 255477.75, 0.0011689387, 10.003258, 9.99708 
2.7891546e+3, 1.4363368e+2, -1103805.1, -1608910.3, 55233.51, 0.3488855, 0.0637263, -1097835.8, 434574.28, 0.0005049565, 10.0043745, 9.997928 
2.7887887e+3, 1.5362921e+2, -1050852.1, -1185275.9, 98592.06, 0.13146318, 0.16672724, -998741.6, 435707.38, 0.00013439951, 10.002791, 10.000784 
2.788425e+3, 1.6362353e+2, -1245140.1, -1437626.0, 136910.06, 0.051967204, 0.24674249, -1174029.9, 162471.7, 0.000016423304, 10.001442, 9.999155 
2.7880633e+3, 1.736154e+2, -1065605.6, -1147426.6, 93242.99, 0.047178857, 0.033837546, -1004693.06, 233887.6, 0.0000003300107, 10.001519, 10.000326 
2.7877024e+3, 1.8360862e+2, -1178743.9, -1411327.0, 121266.94, -0.017794894, 0.06780197, -1127019.4, 13629.142, 0.0, 10.00105, 9.998166 
2.7873433e+3, 1.93603e+2, -1077068.5, -1199420.8, 158196.6, -0.042294562, 0.23344757, -968631.3, 74077.92, 0.0, 10.00075, 9.9990015 
2.786984e+3, 2.0359625e+2, -972960.56, -1130048.9, 81275.836, -0.0020540755, 0.32253045, -938478.4, 6298.001, 0.0, 10.000824, 9.998826 
2.786624e+3, 2.1358688e+2, -576296.06, -755235.75, 93696.95, 0.11050733, 0.032526072, -536212.94, 310648.22, 0.0, 10.002466, 9.999853 
2.7862632e+3, 2.2357826e+2, -500849.75, -985989.75, 182528.44, 0.10186289, -0.044788547, -439846.3, 309097.13, 0.0, 10.003393, 9.997277 
2.7859017e+3, 2.3357046e+2, -394407.28, -798662.06, 264364.13, -0.09512477, 0.017079297, -263752.7, 387273.94, 0.0, 10.003235, 9.997882 
2.7855396e+3, 2.4356359e+2, -375104.2, -578809.0, 176097.06, -0.2079044, 0.15040135, -273525.8, 279571.94, 0.0, 10.001956, 9.999381 
2.7851772e+3, 2.5355783e+2, -571686.6, -442620.2, 48275.094, -0.20511098, 0.14801492, -426561.72, 28590.795, 0.0, 9.999332, 10.000808 
2.784815e+3, 2.6355273e+2, -646566.7, -447217.66, 13989.792, -0.1835515, 0.20994334, -446240.7, -89042.016, 0.0, 9.998038, 10.000817 
2.7844542e+3, 2.7354783e+2, -306018.94, -92482.0, -43152.555, -0.15165669, 0.15493847, -84091.24, 175149.0, 0.0, 9.999236, 10.001938 
2.784094e+3, 2.8354225e+2, -383086.84, -364430.13, 61359.727, -0.108110264, 0.15237159, -311693.72, -150401.97, 0.0, 9.999138, 9.999505 
2.7837354e+3, 2.9353458e+2, -351277.72, -204354.23, 50895.55, -0.12148565, -0.016633814, -188446.05, -125077.1, 0.0, 9.998404, 10.0001955 
2.7833733e+3, 3.035281e+2, -497814.28, -679292.6, -133153.11, -0.19968483, 0.1280781, -427421.97, -427421.97, 0.0, 9.998499, 9.996366 
2.783008e+3, 3.1352386e+2, -140075.81, -365437.75, -160429.27, -0.15432726, 0.54892796, -56709.46, -56709.46, 0.0, 10.000224, 9.9973 
2.7826476e+3, 3.2351115e+2, 249269.36, 1022535.6, 415499.13, -0.22967356, -0.1425961, 1203462.8, 1203462.8, 0.0, 9.997584, 10.008077 
2.79951e+3, 1.3400741e+2, -1439514.5, -1684376.5, 256455.8, 0.10854989, 0.34765825, -1277764.4, 348981.97, 0.0005685035, 10.002534, 9.998586 
2.7991512e+3, 1.4399716e+2, -1347687.6, -1644304.1, -19305.56, 0.24361655, -0.025460534, -1346436.4, 182405.64, 0.00022583413, 10.002439, 9.998554 
2.798784e+3, 1.5399289e+2, -1094216.6, -1124658.9, -43719.074, 0.07994387, 0.0009263113, -1063144.8, 367732.56, 0.00005282333, 10.002201, 10.001431 
2.7984208e+3, 1.6398712e+2, -1426988.5, -1728276.9, 67022.95, 0.09706821, 0.117269516, -1412751.8, -79819.77, 0.000004777361, 10.001208, 9.997187 
2.7980596e+3, 1.7397872e+2, -1169776.6, -1415473.9, 41807.168, 0.14983432, 0.03617528, -1162857.8, 72161.78, 0.00000002399446, 10.00182, 9.99827 
2.7976987e+3, 1.8397143e+2, -1193478.4, -1449050.9, 94859.53, 0.13236547, 0.15306024, -1162117.9, -25023.232, 0.0, 10.001226, 9.997768 
2.7973384e+3, 1.9396487e+2, -1066491.3, -1143035.5, 107276.375, 0.04071931, 0.16778125, -990864.4, 48296.688, 0.0, 10.000728, 9.99934 
2.7969795e+3, 2.0395806e+2, -1094112.9, -1182893.0, 109952.59, 0.08991326, 0.23190324, -1019927.9, -78701.18, 0.0, 10.000057, 9.998811 
2.796622e+3, 2.139499e+2, -684991.06, -759749.4, 120568.63, 0.30527633, -0.010567189, -596140.25, 247159.84, 0.0, 10.001561, 10.000226 
2.796262e+3, 2.2394346e+2, -682193.3, -899350.4, 165881.5, 0.27449647, 0.046549544, -592514.5, 152845.33, 0.0, 10.001616, 9.998659 
2.795898e+3, 2.3393859e+2, -452069.2, -587401.6, 228417.19, -0.11427213, 0.17638639, -281506.25, 365902.22, 0.0, 10.00198, 9.999886 
2.795534e+3, 2.4393182e+2, -798320.5, -1075643.9, 62655.004, -0.29578885, 0.3348837, -784822.06, -235343.45, 0.0, 10.000462, 9.996647 
2.7951702e+3, 2.5392166e+2, -915933.44, -917830.6, -54182.184, -0.17362502, 0.13793361, -862691.56, -411106.3, 0.0, 9.998414, 9.997938 
2.7948076e+3, 2.639135e+2, -963782.75, -767726.8, 39198.85, -0.108066, 0.12594675, -760180.06, -406514.63, 0.0, 9.996728, 9.999214 
2.7944478e+3, 2.7390707e+2, -494088.6, -303614.6, 6554.108, -0.08788248, 0.0026165412, -303389.34, -47669.438, 0.0, 9.998579, 10.000766 
2.7940875e+3, 2.839014e+2, -549075.8, -538774.56, -5883.448, -0.11615595, 0.1071964, -536105.7, -378332.9, 0.0, 9.998529, 9.998568 
2.7937266e+3, 2.938956e+2, -503642.7, -307925.94, -26288.082, -0.21472077, 0.13465987, -304456.53, -244620.9, 0.0, 9.997581, 9.999859 
2.7933636e+3, 3.0388904e+2, -532125.4, -456852.66, -113534.8, -0.36546907, 0.19724093, -374878.63, -374878.63, 0.0, 9.9973955, 9.998355 
2.7930012e+3, 3.1388134e+2, 38432.68, 20822.78, -30514.652, -0.28735307, -0.00024831013, 61387.313, 61387.313, 0.0, 10.000287, 9.999848 
2.7926412e+3, 3.2387358e+2, -151778.05, 402605.6, 189886.52, -0.15069, -0.19924703, 461408.1, 461408.1, 0.0, 9.996942, 10.003997 
2.8095034e+3, 1.3436808e+2, -1350386.9, -1378683.4, 82300.67, -0.29525775, 0.25947964, -1281027.3, 342187.53, 0.00025074874, 10.001877, 10.0010805 
2.8091478e+3, 1.443615e+2, -1599823.9, -1773266.1, -114484.84, 0.3157581, 0.14161861, -1542922.8, -17652.645, 0.00009142473, 10.0007, 9.998529 
2.8087804e+3, 1.543554e+2, -1286665.3, -1320402.4, -131849.2, 0.14891016, 0.06885984, -1170609.9, 256718.97, 0.000018191195, 10.001259, 10.00059 
2.8084168e+3, 1.643486e+2, -1266451.5, -1606994.6, -11425.063, 0.07778949, 0.109836295, -1266068.6, 63326.6, 0.000001253609, 10.002035, 9.997647 
2.8080553e+3, 1.7434084e+2, -899098.94, -1278211.3, 59065.695, 0.032503612, 0.08904557, -890109.6, 341362.84, 0.0000000065346386, 10.00354, 9.998446 
2.8076947e+3, 1.843336e+2, -815999.1, -1220643.6, 48727.348, 0.01167994, 0.19181776, -810214.06, 323331.03, 0.0, 10.003571, 9.9982 
2.8073344e+3, 1.9432615e+2, -803386.94, -1039894.4, 55477.563, 0.04351732, 0.14780541, -791020.2, 244599.05, 0.0, 10.002564, 9.999194 
2.8069746e+3, 2.0431891e+2, -878058.5, -1064848.4, 29595.783, 0.08702998, 0.17253228, -873481.4, 64208.113, 0.0, 10.001402, 9.998969 
2.8066152e+3, 2.1431123e+2, -873026.1, -902298.56, 5829.2944, 0.13469441, 0.031116141, -871907.94, -32146.316, 0.0, 10.000398, 9.999852 
2.8062546e+3, 2.2430533e+2, -882931.1, -876799.9, -30627.316, 0.08175975, 0.10652046, -849085.1, -107267.836, 0.0, 9.999631, 9.99979 
2.8058925e+3, 2.3430102e+2, -765603.56, -665086.44, -42130.973, -0.117203504, 0.22328177, -649763.44, -5904.548, 0.0, 9.999392, 10.000642 
2.8055292e+3, 2.4429433e+2, -798099.1, -1076364.8, -185094.08, -0.20002027, 0.31808615, -705676.9, -159749.97, 0.0, 10.000292, 9.996759 
2.8051654e+3, 2.542838e+2, -294627.13, -702291.5, -156064.02, -0.10458302, 0.14191014, -241742.48, 206294.55, 0.0, 10.002848, 9.997364 
2.8048024e+3, 2.6427495e+2, -43494.938, -373499.6, 27225.502, -0.04456727, 0.10794878, -41263.906, 308860.4, 0.0, 10.003112, 9.998899 
2.8044418e+3, 2.7426752e+2, -228737.98, -286770.9, -12119.113, -0.029828545, -0.004090795, -226308.81, 25880.6, 0.0, 10.000719, 9.999926 
2.8040805e+3, 2.8426126e+2, -435949.13, -494962.8, -5508.409, -0.06882026, 0.09195331, -435439.38, -281189.72, 0.0, 9.999186, 9.998622 
2.8037184e+3, 2.942559e+2, -305433.5, -282209.2, -55714.563, -0.22243215, 0.2326448, -236909.52, -180599.06, 0.0, 9.999052, 9.999431 
2.8033555e+3, 3.0424926e+2, -234449.78, -83053.25, -91887.08, -0.37157682, 0.22952902, -39699.168, -39699.168, 0.0, 9.998397, 10.000424 
2.8029943e+3, 3.1424055e+2, -106586.59, 161533.42, -109977.375, -0.2851278, -0.2578307, 200872.11, 200872.11, 0.0, 9.998302, 10.001799 
2.8026345e+3, 3.242368e+2, -77658.55, -33069.94, -211393.55, -0.026016293, 0.019137207, 157201.67, 157201.67, 0.0, 9.999329, 9.999914 
2.8194973e+3, 1.3472842e+2, -1374378.3, -1116259.8, 71757.96, -0.45824295, 0.14428863, -1097652.1, 522032.44, 0.00010745089, 10.000749, 10.003334 
2.8191444e+3, 1.447258e+2, -1679488.4, -1927375.5, -117866.51, 0.5197106, 0.37639928, -1632392.4, -110692.11, 0.00003510944, 10.00079, 9.997372 
2.818777e+3, 1.5471743e+2, -1198066.8, -1394221.3, -125153.01, 0.31082523, 0.16337061, -1137139.5, 286648.75, 0.0000055355054, 10.002498, 9.999441 
2.8184134e+3, 1.6470987e+2, -1169445.3, -1492221.5, 61343.453, 0.1512306, 0.17231238, -1158180.1, 167683.2, 0.0000002527922, 10.002535, 9.998179 
2.8180516e+3, 1.7470294e+2, -996867.3, -1221402.1, 85671.984, -0.0713424, 0.1368808, -967912.7, 260013.63, 0.0, 10.00256, 9.999297 
2.8176904e+3, 1.8469587e+2, -1086282.8, -1396187.1, 21860.145, -0.10880556, 0.24319276, -1084748.3, 45245.285, 0.0, 10.002006, 9.99773 
2.817331e+3, 1.9468743e+2, -975057.2, -1176675.0, 19782.93, 0.097196676, 0.118182115, -973134.44, 58943.06, 0.0, 10.001671, 9.998678 
2.8169698e+3, 2.0467956e+2, -1123408.4, -1325940.8, 4229.4976, 0.07850663, 0.18362047, -1123320.1, -189163.97, 0.0, 10.000504, 9.997541 
2.8166056e+3, 2.1467155e+2, -1048879.1, -1101369.9, -34079.41, -0.20612283, 0.08183369, -1032110.3, -195873.88, 0.0, 9.999828, 9.998691 
2.8162444e+3, 2.2466499e+2, -1052897.8, -1014929.75, -34487.207, -0.2760517, 0.18754837, -994546.75, -256244.55, 0.0, 9.998857, 9.999164 
2.8158858e+3, 2.3465897e+2, -898659.4, -732365.75, -54288.363, -0.070090525, 0.11880047, -716211.94, -75849.484, 0.0, 9.99866, 10.000458 
2.8155252e+3, 2.446527e+2, -896030.3, -997589.9, -105230.055, -0.012399389, 0.22845416, -829968.5, -287544.25, 0.0, 9.999247, 9.997747 
2.815162e+3, 2.5464463e+2, -320474.72, -544118.06, -61051.55, -0.071311966, 0.11809194, -304893.97, 139609.36, 0.0, 10.002051, 9.998785 
2.814799e+3, 2.6463714e+2, -283848.34, -596616.4, -63418.97, -0.096381426, 0.20058528, -271478.3, 75096.8, 0.0, 10.002101, 9.9977865 
2.8144357e+3, 2.7462938e+2, -400117.63, -452291.7, -93347.32, -0.07683257, 0.10841742, -329280.7, -80633.74, 0.0, 10.000041, 9.999049 
2.814073e+3, 2.8462225e+2, -619046.75, -664010.6, -30889.248, -0.14318748, 0.2145119, -603324.2, -452605.56, 0.0, 9.998466, 9.997741 
2.8137112e+3, 2.9461494e+2, -418791.66, -372846.75, -50537.496, -0.2537041, 0.17187887, -340305.47, -287506.13, 0.0, 9.998579, 9.998971 
2.8133482e+3, 3.0460885e+2, -341110.22, -180967.48, -152993.13, -0.37902194, 0.2744617, -88359.04, -88359.04, 0.0, 9.997949, 9.999957 
2.8129864e+3, 3.1460348e+2, -358486.75, 8300.917, -171747.1, -0.25636056, 0.13139497, 76164.65, 76164.65, 0.0, 9.996767, 10.001473 
2.812625e+3, 3.245973e+2, -294590.16, -460660.53, 68977.19, -0.47205564, 0.31303528, -269677.7, -269677.7, 0.0, 9.999448, 9.99684 
2.8294948e+3, 1.3508971e+2, -1657050.9, -1512335.0, 53881.34, -0.26978353, -0.02687449, -1494477.3, 121660.07, 0.000050640916, 9.999782, 10.001146 
2.829137e+3, 1.4508691e+2, -1450903.6, -1752546.3, -44817.73, 0.21607134, 0.32037762, -1444385.5, 73777.43, 0.00001538915, 10.002048, 9.997968 
2.8287733e+3, 1.550795e+2, -861511.2, -1255550.1, 12246.89, 0.09010896, 0.20756431, -861130.9, 559110.9, 0.0000020566958, 10.004832, 9.99931 
2.8284103e+3, 1.6507232e+2, -855789.25, -1273799.4, 5932.8, 0.039908007, 0.2435144, -855705.06, 466607.53, 0.00000005936716, 10.004338, 9.998825 
2.8280473e+3, 1.7506492e+2, -1195306.1, -1316736.4, 31723.72, -0.052913465, 0.16222435, -1187517.8, 36862.3, 0.0, 10.001119, 9.99937 
2.8276858e+3, 1.8505737e+2, -1341113.5, -1487715.3, 25790.482, -0.0649665, 0.20067723, -1336708.8, -210256.4, 0.0, 10.000028, 9.998096 
2.827326e+3, 1.9504876e+2, -1069648.5, -1246029.4, 50093.473, 0.05927397, 0.08610938, -1056414.5, -27876.553, 0.0, 10.001026, 9.998562 
2.8269643e+3, 2.050411e+2, -913588.3, -1177686.0, 38309.4, 0.0062600113, 0.15170966, -908143.5, 22471.094, 0.0, 10.001615, 9.998088 
2.8266e+3, 2.1503344e+2, -719771.1, -972322.75, 76871.89, -0.27768037, 0.13775358, -698213.06, 134478.02, 0.0, 10.002071, 9.99857 
2.826239e+3, 2.2502653e+2, -592394.2, -830738.8, 61758.21, -0.29589576, 0.24004577, -577342.4, 157420.8, 0.0, 10.002055, 9.99893 
2.8258803e+3, 2.3501962e+2, -553703.56, -698581.1, -5622.11, -0.035123404, 0.20980829, -553485.75, 83351.95, 0.0, 10.001415, 9.999449 
2.8255197e+3, 2.4501331e+2, -478134.28, -598343.44, -24071.166, 0.028484568, 0.28307262, -473493.34, 65406.94, 0.0, 10.001162, 9.999603 
2.8251573e+3, 2.550066e+2, -303054.56, -415598.28, 1638.7656, -0.09325895, 0.21445931, -303030.72, 137930.47, 0.0, 10.001519, 9.999992 
2.824794e+3, 2.649996e+2, -370747.88, -612894.8, -92194.72, -0.09144784, 0.27193254, -339641.7, 3384.8132, 0.0, 10.001329, 9.998045 
2.8244302e+3, 2.7499163e+2, -349013.84, -495060.53, -122926.46, -0.02348202, 0.22392279, -279057.03, -33955.24, 0.0, 10.000619, 9.998496 
2.8240672e+3, 2.8498372e+2, -344427.7, -549201.6, 50129.246, -0.062076796, 0.29069382, -332814.53, -185632.63, 0.0, 10.000336, 9.997629 
2.823705e+3, 2.9497498e+2, -127971.5, -336738.28, -14219.168, -0.2226075, 0.19219844, -127007.48, -77731.75, 0.0, 10.000894, 9.998132 
2.8233415e+3, 3.049686e+2, 45347.0, -32377.902, -161745.98, -0.32722986, 0.31762773, 172833.73, 172833.73, 0.0, 10.0006695, 9.999691 
2.8229794e+3, 3.149645e+2, 54625.242, 71298.234, -261384.4, -0.1313009, 0.39794728, 324479.06, 324479.06, 0.0, 10.00004, 10.000377 
2.8226173e+3, 3.2495567e+2, -316705.66, -623755.2, 256586.34, -0.6262704, 0.4340764, -171221.39, -171221.39, 0.0, 9.99979, 9.99562 
2.839492e+3, 1.3545136e+2, -1783968.4, -1886314.4, 81011.37, 0.07314288, -0.1351183, -1739321.1, -126733.03, 0.000026719768, 10.000201, 9.998417 
2.83913e+3, 1.4544757e+2, -1462189.4, -1706682.9, 51347.34, -0.08418137, 0.23115993, -1451843.5, 62786.637, 0.000008259606, 10.001781, 9.998387 
2.8387696e+3, 1.5544187e+2, -1101603.4, -1343423.3, 62885.977, -0.09897192, 0.24170281, -1086227.4, 330463.06, 0.0000013335809, 10.00308, 9.999531 
2.8384075e+3, 1.654352e+2, -1160562.3, -1430310.1, -118903.78, 0.0037021942, 0.3255246, -1115633.3, 203122.83, 0.000000073245815, 10.002418, 9.998615 
2.8380436e+3, 1.7542666e+2, -1309617.8, -1415992.3, -111721.945, 0.10996347, 0.13623634, -1239068.6, -18232.414, 0.0, 10.000612, 9.998893 
2.8376812e+3, 1.8541858e+2, -1360405.9, -1505629.1, 58963.242, 0.09823343, 0.15951805, -1339480.9, -216565.86, 0.0, 10.000058, 9.9978895 
2.83732e+3, 1.9540985e+2, -1071804.9, -1270915.0, 53228.973, 0.019754434, 0.0038297249, -1058468.3, -33465.777, 0.0, 10.001208, 9.998244 
2.8369588e+3, 2.0540279e+2, -909928.25, -1106006.9, 37964.996, -0.054590903, 0.12018369, -902834.06, 24237.521, 0.0, 10.001465, 9.998603 
2.836597e+3, 2.1539623e+2, -844144.6, -990957.8, 61940.406, -0.14079681, 0.121462, -821503.6, 7630.644, 0.0, 10.001172, 9.998822 
2.8362358e+3, 2.2538969e+2, -922348.8, -1169412.0, 26643.838, -0.13720882, 0.3437826, -919508.2, -188302.88, 0.0, 10.000704, 9.997216 
2.835875e+3, 2.353823e+2, -854256.0, -1027238.0, -25724.5, -0.043553453, 0.39210734, -850511.56, -217219.78, 0.0, 10.000255, 9.997722 
2.8355134e+3, 2.4537599e+2, -587193.2, -565180.3, -4298.4746, -0.085871644, 0.52417463, -564370.75, -29014.445, 0.0, 10.000172, 10.00029 
2.8351513e+3, 2.5536948e+2, -408191.72, -396043.72, 5719.802, -0.1917852, 0.356687, -393774.5, 43638.613, 0.0, 10.000622, 10.000538 
2.834789e+3, 2.6536238e+2, -538441.56, -681254.2, -135280.63, -0.11805944, 0.3943967, -456878.25, -117400.71, 0.0, 10.000287, 9.9980135 
2.8344256e+3, 2.7535385e+2, -497650.84, -585330.44, -134381.69, 0.10030841, 0.24529886, -400138.72, -158580.75, 0.0, 9.999802, 9.998222 
2.8340626e+3, 2.853457e+2, -493443.66, -713825.44, 70121.695, 0.03634084, 0.35572422, -473024.13, -329385.25, 0.0, 9.99985, 9.99669 
2.8336996e+3, 2.9533672e+2, -263213.47, -517729.94, 22873.473, -0.269058, 0.30380452, -261174.16, -215442.61, 0.0, 10.000579, 9.99702 
2.833336e+3, 3.0532837e+2, -103675.86, -283240.75, -193038.47, -0.3967067, 0.37869248, 19437.764, 19437.764, 0.0, 10.000582, 9.997954 
2.8329745e+3, 3.1532025e+2, -144788.86, -254036.27, -256593.28, -0.053007208, 0.21554954, 62930.457, 62930.457, 0.0, 9.9998045, 9.998214 
2.8326115e+3, 3.2531178e+2, -259871.47, -238529.66, 330136.44, -0.66842526, 0.18551682, 81108.28, 81108.28, 0.0, 9.998861, 9.998605 
2.8494903e+3, 1.3581544e+2, -1479890.4, -1541155.9, 49003.297, 0.30238476, 0.22473265, -1452733.1, 156294.34, 0.000013315561, 10.001291, 10.00035 
2.8491232e+3, 1.458071e+2, -1363420.3, -1565561.3, -456.24615, -0.40969235, 0.043002613, -1363419.3, 147686.42, 0.0000038169696, 10.001978, 9.999289 
2.848766e+3, 1.5580365e+2, -1455183.5, -1511513.3, 51323.492, 0.007267341, 0.25124714, -1424804.6, -11661.152, 0.0000005153316, 10.00054, 9.999641 
2.8484046e+3, 1.6579725e+2, -1445182.6, -1571488.3, -141253.97, 0.19099286, 0.35811746, -1353606.8, -38398.582, 0.00000002542409, 10.000407, 9.998624 
2.8480387e+3, 1.7578813e+2, -1255066.5, -1429504.1, -102960.234, 0.1265978, 0.15157013, -1207348.5, 9949.175, 0.0, 10.001063, 9.998611 
2.8476763e+3, 1.8578044e+2, -969919.56, -1271978.8, 109825.54, 0.031951945, 0.20239429, -934209.8, 185164.47, 0.0, 10.002449, 9.998364 
2.8473166e+3, 1.9577287e+2, -590989.56, -1025642.4, 124139.67, -0.0650942, 0.1731284, -558033.25, 463417.13, 0.0, 10.004317, 9.998469 
2.846955e+3, 2.05766e+2, -567499.3, -920612.0, -49025.895, -0.10401763, 0.27986535, -560818.94, 362698.88, 0.0, 10.00363, 9.998862 
2.8465924e+3, 2.1575905e+2, -863519.1, -1007461.8, -48893.855, -0.10643939, 0.26860937, -848481.94, -22897.129, 0.0, 10.000919, 9.998884 
2.8462306e+3, 2.25752e+2, -965193.6, -1089380.6, 12293.102, -0.084471904, 0.37728468, -963988.44, -236330.28, 0.0, 9.999919, 9.998147 
2.8458688e+3, 2.357441e+2, -806699.0, -946909.5, 79510.5, -0.08791731, 0.36341032, -770801.1, -141056.4, 0.0, 10.000207, 9.998333 
2.8455073e+3, 2.4573797e+2, -569613.44, -548892.8, 115348.34, -0.10829265, 0.47700188, -443440.44, 88367.32, 0.0, 10.000125, 10.000475 
2.8451458e+3, 2.5573245e+2, -542315.56, -480771.66, 52242.465, -0.15262245, 0.46433997, -450912.03, -17052.77, 0.0, 9.999641, 10.000489 
2.8447837e+3, 2.6572514e+2, -397968.72, -563440.5, -63200.457, -0.0867299, 0.4544443, -376591.56, -40664.6, 0.0, 10.000948, 9.998549 
2.8444207e+3, 2.75716e+2, 117816.58, -264352.4, -74167.49, 0.07373317, 0.2701126, 131705.5, 369717.38, 0.0, 10.003816, 9.998551 
2.844058e+3, 2.857076e+2, 100095.24, -437258.88, 107597.05, 0.016751904, 0.3391415, 120839.13, 260933.39, 0.0, 10.003876, 9.996695 
2.8436947e+3, 2.9569885e+2, -73945.04, -460048.22, 65693.55, -0.2600164, 0.3750094, -63073.703, -20890.424, 0.0, 10.001966, 9.996771 
2.843331e+3, 3.0568936e+2, -130864.09, -394248.38, -81444.055, -0.3019761, 0.3926688, -107714.53, -107714.53, 0.0, 10.00069, 9.997191 
2.8429702e+3, 3.1567928e+2, -191375.27, -381761.6, -108244.41, 0.12586363, 0.17689951, -142420.63, -142420.63, 0.0, 9.999838, 9.997376 
2.842604e+3, 3.256721e+2, -539374.25, -71865.35, 319811.0, -0.60352653, 0.17550188, 90511.76, 90511.76, 0.0, 9.995403, 10.001527 
2.8594878e+3, 1.3617894e+2, -1280007.9, -1200269.6, 207363.9, 0.4919854, 0.54033035, -1028976.94, 576495.56, 0.0000059672575, 10.001776, 10.002393 
2.859117e+3, 1.4616694e+2, -1451105.4, -1559014.6, -46934.24, -0.5428795, -0.10726649, -1433548.3, 74029.61, 0.0000015122073, 10.001269, 9.999632 
2.858763e+3, 1.5616526e+2, -1498513.6, -1531100.5, -32893.727, 0.27639243, 0.23282926, -1478099.1, -68501.164, 0.0000000966577, 10.000307, 9.999589 
2.8584012e+3, 1.6615891e+2, -1420365.4, -1586580.8, -118030.44, 0.47614765, 0.36741796, -1359119.0, -47454.67, 0.00000000026919006, 10.000764, 9.9983425 
2.8580338e+3, 1.761494e+2, -1178416.8, -1443921.8, -87780.82, 0.15473567, 0.12806492, -1152019.4, 61742.895, 0.0, 10.001874, 9.998111 
2.8576717e+3, 1.8614289e+2, -1002114.94, -1244966.4, 174330.8, -0.0478307, 0.317208, -911089.6, 204739.1, 0.0, 10.002205, 9.998627 
2.8573143e+3, 1.9613734e+2, -911829.44, -1172037.4, 143071.78, -0.089242265, 0.43961796, -848551.44, 169333.61, 0.0, 10.002234, 9.998429 
2.8569523e+3, 2.0613056e+2, -882479.44, -1127369.5, -131893.69, -0.07323191, 0.59540224, -824955.75, 94997.35, 0.0, 10.001788, 9.998306 
2.8565872e+3, 2.1612203e+2, -1062250.1, -1177221.3, -131101.34, -0.044472497, 0.45178065, -976584.9, -154546.58, 0.0, 9.999928, 9.998201 
2.8562242e+3, 2.2611381e+2, -982886.8, -912150.8, 33693.484, -0.0734072, 0.3974558, -898670.6, -174554.28, 0.0, 9.999129, 9.999664 
2.855862e+3, 2.3610513e+2, -890113.2, -853195.94, 75433.26, -0.12254626, 0.10163992, -793995.7, -167798.36, 0.0, 9.999229, 9.999367 
2.855501e+3, 2.460998e+2, -807993.3, -764227.0, 82875.94, -0.101119176, 0.30900452, -700393.8, -172141.55, 0.0, 9.99914, 9.999337 
2.8551403e+3, 2.5609553e+2, -819604.25, -763413.25, 43037.004, -0.033727303, 0.48331147, -740112.8, -309812.56, 0.0, 9.998539, 9.998982 
2.8547782e+3, 2.660881e+2, -494898.38, -605657.3, 43227.465, -0.094512634, 0.5445208, -480024.72, -147653.64, 0.0, 10.000347, 9.998507 
2.8544155e+3, 2.7607793e+2, 21769.363, -345333.72, 35574.57, -0.2235393, 0.21073522, 25184.98, 259649.39, 0.0, 10.003347, 9.998211 
2.854053e+3, 2.860693e+2, 39850.273, -429844.1, 15967.404, -0.25975937, 0.2743416, 40392.465, 176941.27, 0.0, 10.003491, 9.996855 
2.8536904e+3, 2.960607e+2, -190912.05, -521973.66, 3030.8975, -0.28588057, 0.27952933, -190884.31, -152246.89, 0.0, 10.001316, 9.996613 
2.8533265e+3, 3.0605263e+2, -229596.27, -402516.4, -119641.25, -0.22490491, 0.43664494, -168444.1, -168444.1, 0.0, 10.000007, 9.99739 
2.8529632e+3, 3.160451e+2, -403848.1, -462386.78, -97495.31, 0.08190309, 0.42834333, -331323.38, -331323.38, 0.0, 9.998442, 9.997436 
2.852593e+3, 3.2603818e+2, -640145.4, 293520.3, 149926.86, -0.5754292, 0.24340986, 317004.7, 317004.7, 0.0, 9.993127, 10.005074 
2.86948e+3, 1.3654082e+2, -1275590.4, -1420664.5, 84883.75, -0.041776333, 0.4704794, -1236472.4, 365453.06, 0.0000021514043, 10.002597, 10.000567 
2.8691176e+3, 1.4652845e+2, -1455363.5, -1537259.5, -62112.78, -0.075333044, -0.11550005, -1421915.8, 82120.36, 0.00000043033984, 10.001046, 9.999923 
2.868756e+3, 1.5652557e+2, -1475022.9, -1551007.0, -19688.828, 0.10006275, 0.12489498, -1470224.3, -64159.727, 0.000000019645139, 10.000507, 9.999398 
2.868395e+3, 1.6651955e+2, -1177029.5, -1469823.9, -50180.863, 0.22110166, 0.29909572, -1168668.0, 139461.75, 0.0, 10.002399, 9.998371 
2.868031e+3, 1.765113e+2, -708560.44, -1220313.3, -20990.541, 0.07936772, 0.23532175, -707700.9, 502518.78, 0.0, 10.005044, 9.998156 
2.867669e+3, 1.8650493e+2, -800758.2, -1053452.5, 44542.86, -0.018651206, 0.36899772, -793136.44, 319147.72, 0.0, 10.003016, 9.999623 
2.8673086e+3, 1.9649886e+2, -1484089.8, -1386786.1, 92777.42, -0.029032692, 0.40151283, -1330678.0, -316335.84, 0.0, 9.997834, 9.999174 
2.8669462e+3, 2.064921e+2, -1325620.9, -1218915.8, -16570.855, -0.023277171, 0.4644778, -1216401.6, -299993.1, 0.0, 9.998201, 9.999407 
2.866582e+3, 2.1648416e+2, -753074.2, -936290.8, 39487.902, -0.056742094, 0.34574082, -744925.9, 73561.46, 0.0, 10.001566, 9.999097 
2.8662187e+3, 2.264764e+2, -538383.44, -671166.1, 103361.2, -0.07851514, 0.28228506, -481927.94, 238632.58, 0.0, 10.001879, 10.000069 
2.8658566e+3, 2.3646842e+2, -708321.94, -749951.5, 81780.64, -0.08799422, 0.07748561, -644748.75, -22115.654, 0.0, 10.000215, 9.999679 
2.8654948e+3, 2.4646258e+2, -655513.3, -755941.3, 93198.086, -0.092628315, 0.2409735, -599862.6, -75168.58, 0.0, 10.000333, 9.998856 
2.865134e+3, 2.564574e+2, -389698.3, -612447.8, 51170.5, -0.0886437, 0.43171838, -378505.72, 48248.516, 0.0, 10.001589, 9.998595 
2.8647724e+3, 2.6644996e+2, -329400.84, -462303.06, 102967.65, -0.13454984, 0.4590034, -273303.66, 55522.973, 0.0, 10.001057, 9.99921 
2.864411e+3, 2.7644035e+2, -468390.66, -530265.3, 93168.78, -0.23631178, 0.17417683, -401157.03, -170242.69, 0.0, 9.999577, 9.998817 
2.8640488e+3, 2.8643277e+2, -410297.94, -464260.5, 107800.375, -0.24250552, 0.22443824, -326153.56, -193166.0, 0.0, 9.999542, 9.998533 
2.863686e+3, 2.9642576e+2, -245855.13, -407211.63, 158064.84, -0.20233127, 0.28441125, -149069.36, -114010.055, 0.0, 10.000213, 9.997975 
2.8633204e+3, 3.0641866e+2, -135938.86, -279855.44, 104558.52, -0.19527005, 0.4638028, -80970.09, -80970.09, 0.0, 10.0002365, 9.998158 
2.8629547e+3, 3.164121e+2, -119029.805, -224977.48, 63002.31, -0.06944852, 0.5440765, -89690.11, -89690.11, 0.0, 9.999832, 9.99845 
2.8625837e+3, 3.2640478e+2, -180246.77, 633981.8, -92510.73, -0.31777483, 0.22510009, 644360.4, 644360.4, 0.0, 9.995653, 10.006213 
2.8794736e+3, 1.3690226e+2, -1547004.6, -1734482.0, -101001.625, -0.30373996, 0.3905869, -1502945.4, 95437.94, 0.00000033823923, 10.001627, 9.998818 
2.879118e+3, 1.4689057e+2, -1323943.0, -1455750.0, -112703.336, 0.516247, -0.05640484, -1259288.8, 241200.9, 0.000000039050374, 10.001965, 9.999994 
2.8787482e+3, 1.56886e+2, -1454855.0, -1594122.0, -54916.89, -0.104154654, 0.017908711, -1435805.4, -33274.723, 0.0000000006124831, 10.000928, 9.998895 
2.8783876e+3, 1.6688044e+2, -1344341.9, -1566404.5, 64574.13, -0.07958421, 0.27720425, -1326929.5, -22336.748, 0.0, 10.001418, 9.998107 
2.8780296e+3, 1.7687355e+2, -1127657.8, -1458550.8, 48240.59, 0.090621114, 0.3392675, -1120768.3, 85905.086, 0.0, 10.00239, 9.997754 
2.8776664e+3, 1.8686676e+2, -978986.3, -1014525.8, -93910.47, 0.10545338, 0.39100334, -901179.2, 207560.77, 0.0, 10.001447, 10.000565 
2.877302e+3, 1.9685937e+2, -1385678.1, -1265306.4, -35273.547, 0.13444641, 0.17227153, -1255731.5, -244925.44, 0.0, 9.998344, 9.999719 
2.876939e+3, 2.0685294e+2, -1227778.0, -1040599.6, 126745.06, 0.06606708, 0.19123791, -976634.9, -63769.06, 0.0, 9.998458, 10.00046 
2.8765768e+3, 2.168462e+2, -929595.2, -974366.44, 124541.305, -0.064515814, 0.057993416, -825443.7, -10513.331, 0.0, 10.000311, 9.999396 
2.876214e+3, 2.268399e+2, -780040.5, -837306.0, 34130.13, -0.06144328, 0.16910931, -764123.3, -47131.21, 0.0, 10.000617, 9.999472 
2.875851e+3, 2.3683348e+2, -1010056.56, -1032363.6, 35957.426, 0.027039, 0.15691197, -983562.56, -364506.63, 0.0, 9.998913, 9.9983225 
2.8754884e+3, 2.4682634e+2, -831701.8, -910183.8, 145288.55, -0.11125019, 0.30237344, -720448.25, -199316.66, 0.0, 9.999532, 9.998171 
2.8751266e+3, 2.5681826e+2, -625615.8, -823246.0, 89975.95, -0.34749165, 0.25062963, -590789.25, -167570.33, 0.0, 10.0005045, 9.997668 
2.874766e+3, 2.6681116e+2, -422329.2, -408082.7, 33810.07, -0.23522142, 0.30539, -380653.63, -55364.58, 0.0, 10.000134, 9.999976 
2.874407e+3, 2.7680358e+2, -663423.25, -549231.6, 58784.332, 0.035386894, 0.12352674, -524379.1, -297019.78, 0.0, 9.998045, 9.999392 
2.8740445e+3, 2.8679928e+2, -329714.4, -56189.715, 153462.13, 0.022252247, 0.28772858, 12607.089, 142005.58, 0.0, 9.998568, 10.001778 
2.8736806e+3, 2.967958e+2, -235940.52, -167168.13, 234564.81, -0.14599276, 0.36592555, 35517.535, 66948.06, 0.0, 9.999331, 10.000048 
2.8733128e+3, 3.0678815e+2, -189896.5, -233091.31, 110007.805, -0.35882398, 0.3755863, -99386.086, -99386.086, 0.0, 9.999702, 9.998708 
2.8729445e+3, 3.1677848e+2, -395750.03, -463383.34, 82788.484, -0.43476245, 0.10090721, -340137.94, -340137.94, 0.0, 9.998509, 9.997446 
2.872577e+3, 3.2677388e+2, -688441.25, -101611.96, -201234.3, -0.030194242, 0.27360466, -39235.38, -39235.38, 0.0, 9.994622, 10.001505 
2.8894708e+3, 1.372617e+2, -1484018.3, -1524601.6, -43104.83, -0.23202299, 0.49230465, -1456667.8, 138202.48, 0.0000000032251708, 10.001157, 10.0005455 
2.8891146e+3, 1.4725107e+2, -1022821.7, -1207458.5, -224095.88, 0.43222183, 0.02202997, -872773.3, 624192.25, 0.0, 10.003529, 10.000966 
2.888744e+3, 1.572483e+2, -1226533.3, -1376377.8, -97737.83, -0.1435275, 0.20887248, -1178305.0, 220682.4, 0.0, 10.001906, 9.999971 
2.8883824e+3, 1.672434e+2, -1367715.9, -1352178.9, 54850.805, -0.109872974, 0.35668597, -1304549.3, -3509.9097, 0.0, 10.000173, 10.00022 
2.8880233e+3, 1.7723724e+2, -1608715.8, -1499549.5, 151869.64, 0.073536836, 0.32970715, -1392752.0, -189644.22, 0.0, 9.998113, 9.999592 
2.887661e+3, 1.872309e+2, -1095566.1, -1031950.0, 73889.26, 0.11776034, 0.33073604, -983313.2, 121855.52, 0.0, 10.000327, 10.001042 
2.887297e+3, 1.9722421e+2, -540382.94, -805803.56, 99761.945, 0.113174304, 0.18946235, -507067.72, 500161.06, 0.0, 10.003764, 10.000322 
2.8869337e+3, 2.0721808e+2, -625214.56, -734418.75, 135937.75, 0.052713796, 0.19759758, -533322.8, 375963.03, 0.0, 10.002362, 10.000731 
2.8865704e+3, 2.172117e+2, -1099282.6, -1018861.56, 138890.97, -0.079231076, 0.11446424, -914477.5, -103131.26, 0.0, 9.998789, 9.999883 
2.886208e+3, 2.2720572e+2, -938342.0, -912935.0, 90797.45, -0.042628575, 0.22211856, -833956.6, -120549.21, 0.0, 9.999415, 9.999579 
2.8858456e+3, 2.3719962e+2, -571313.94, -781601.8, 134059.98, 0.057101417, 0.28269243, -506083.8, 109387.914, 0.0, 10.001572, 9.998827 
2.8854835e+3, 2.4719238e+2, -464120.34, -677139.44, 302580.34, -0.07723855, 0.3574281, -249850.92, 267697.03, 0.0, 10.001751, 9.998744 
2.8851214e+3, 2.571839e+2, -484573.13, -676278.2, 302890.78, -0.33968216, 0.27346975, -262730.0, 156906.95, 0.0, 10.00099, 9.998506 
2.8847608e+3, 2.6717728e+2, -303794.53, -255274.84, 225099.16, -0.16855447, 0.30505747, -53132.008, 268570.4, 0.0, 10.000503, 10.000848 
2.884401e+3, 2.771712e+2, -278506.38, -242918.6, 221662.38, 0.18201925, 0.25541118, -38337.05, 185422.66, 0.0, 10.000084, 10.000537 
2.8840384e+3, 2.871676e+2, -170334.42, 127058.16, 242183.92, 0.15293986, 0.38395637, 262551.3, 388342.97, 0.0, 9.999026, 10.002883 
2.8836742e+3, 2.971648e+2, -366729.66, -72691.17, 141943.6, -0.051662777, 0.43926233, -15351.319, 12463.291, 0.0, 9.997593, 10.001589 
2.8833064e+3, 3.0715728e+2, -293135.03, -122485.875, 86385.37, -0.24416731, 0.29772073, -86390.87, -86390.87, 0.0, 9.998265, 10.000218 
2.882939e+3, 3.1714734e+2, -186558.92, -259045.05, 81815.07, -0.2567244, -0.08270695, -133318.66, -133318.66, 0.0, 9.999377, 9.998554 
2.88257e+3, 3.2714692e+2, -8093.675, -30555.205, -233788.56, 0.24661157, 0.69195557, 214733.72, 214733.72, 0.0, 10.000174, 9.999616 
2.899468e+3, 1.3762079e+2, -1378491.1, -1313321.8, 315622.78, -0.04554839, 0.5257573, -1028606.06, 562754.7, 0.000000008553674, 10.001232, 10.001973 
2.8991097e+3, 1.4761189e+2, -1281738.6, -1213789.4, -154730.23, 0.3028865, 0.1135943, -1089347.8, 404091.13, 0.0, 10.001322, 10.001968 
2.8987408e+3, 1.5761122e+2, -1341373.1, -1304990.3, -67831.484, -0.007996051, 0.40156433, -1252953.3, 142486.19, 0.0, 10.000669, 10.001029 
2.8983775e+3, 1.6760722e+2, -1233950.4, -1020183.5, 29130.514, 0.027155567, 0.46532935, -1016284.9, 281192.66, 0.0, 10.000075, 10.002486 
2.898016e+3, 1.7760141e+2, -1461830.0, -1269893.1, 105235.71, 0.14466168, 0.23407888, -1223437.9, -23902.574, 0.0, 9.998534, 10.000943 
2.897655e+3, 1.875964e+2, -1136484.5, -1040132.6, 192306.95, 0.1272775, 0.31130588, -890059.0, 211524.11, 0.0, 10.000078, 10.001053 
2.8972945e+3, 1.9759125e+2, -819434.0, -967995.1, 144046.92, 0.10442339, 0.28680715, -731643.2, 271987.66, 0.0, 10.002071, 9.99996 
2.896929e+3, 2.075856e+2, -821774.94, -857773.9, 517.2057, 0.037380934, 0.3684338, -821767.56, 83917.21, 0.0, 10.001242, 10.000352 
2.896563e+3, 2.1757922e+2, -1283463.4, -1176733.1, 63705.906, -0.030820087, 0.29319236, -1146994.3, -339247.56, 0.0, 9.997954, 9.999145 
2.8962013e+3, 2.2757334e+2, -1002514.06, -881401.44, 191865.97, -0.019932585, 0.4104107, -740762.3, -30953.213, 0.0, 9.998892, 9.999952 
2.8958407e+3, 2.3756713e+2, -763348.5, -873382.75, 198130.69, 0.031598583, 0.39574704, -612738.2, -861.65295, 0.0, 10.000372, 9.998735 
2.8954795e+3, 2.4756096e+2, -518835.5, -544251.2, 267428.78, -0.011458238, 0.50547093, -263812.8, 250127.45, 0.0, 10.000866, 9.999972 
2.8951183e+3, 2.5755414e+2, -680710.1, -694283.06, 273869.22, -0.08915613, 0.43186405, -413543.25, 2465.9382, 0.0, 9.999479, 9.999033 
2.8947562e+3, 2.6754856e+2, -403223.2, -254699.8, 225278.98, -0.043138538, 0.52354354, -91758.16, 226305.88, 0.0, 9.999727, 10.001174 
2.8943938e+3, 2.7754316e+2, -449656.6, -393916.63, 230094.47, 0.048049908, 0.48554456, -190010.44, 30105.47, 0.0, 9.999298, 9.999866 
2.8940293e+3, 2.8753704e+2, -377898.56, -157831.14, 157514.47, -0.029559033, 0.49949223, -75723.695, 46450.62, 0.0, 9.9985485, 10.001111 
2.8936642e+3, 2.9753056e+2, -616550.0, -301407.44, 93153.78, -0.1496768, 0.33956882, -275931.34, -251694.95, 0.0, 9.996486, 10.000511 
2.8932995e+3, 3.0752888e+2, -30840.207, 434176.3, 142978.03, -0.093619995, 0.5562097, 474620.1, 474620.1, 0.0, 9.998445, 10.003736 
2.892935e+3, 3.1752875e+2, -135419.02, -198699.45, 206972.36, -0.0252684, 0.82078457, 42317.598, 42317.598, 0.0, 9.999797, 9.998632 
2.8925583e+3, 3.2751504e+2, -197202.42, 56169.9, -82998.31, -0.45023215, 0.096017934, 80937.05, 80937.05, 0.0, 9.998626, 10.000584 
2.9094642e+3, 1.3798577e+2, -1538484.3, -1573940.4, 102946.586, -0.032727767, 0.50066656, -1451750.5, 136031.0, 0.000000011355019, 10.000757, 10.000498 
2.9091027e+3, 1.4797844e+2, -1610879.4, -1266147.9, 32987.207, 0.2703867, 0.2568035, -1263019.6, 226826.36, 0.0, 9.998484, 10.003039 
2.908736e+3, 1.5797643e+2, -1416190.8, -1293627.6, 131109.75, 0.060476996, 0.34613144, -1210184.6, 181673.11, 0.0, 9.999826, 10.001566 
2.9083726e+3, 1.6797131e+2, -1201363.4, -1146633.9, 97469.92, 0.0763971, 0.36202565, -1072760.3, 221147.55, 0.0, 10.000844, 10.001272 
2.90801e+3, 1.7796482e+2, -1092179.0, -1146733.1, 69176.125, 0.052712917, 0.19596569, -1045096.3, 150877.03, 0.0, 10.001177, 10.000557 
2.907649e+3, 1.8796006e+2, -993220.1, -916803.44, 119543.04, 0.075238414, 0.2601918, -829511.1, 268506.94, 0.0, 10.000718, 10.001643 
2.907289e+3, 1.9795574e+2, -1132564.3, -1026198.5, 95273.25, 0.0978304, 0.28429016, -970269.5, 29787.56, 0.0, 9.999383, 10.000906 
2.906924e+3, 2.0795047e+2, -884775.56, -787645.44, -39781.004, 0.055272095, 0.29446548, -773432.4, 128673.46, 0.0, 10.00024, 10.001361 
2.906557e+3, 2.179445e+2, -706599.75, -798903.8, 94754.086, -0.051330674, 0.1972125, -647355.6, 156806.56, 0.0, 10.001328, 10.0001545 
2.906195e+3, 2.2793896e+2, -638086.56, -743283.6, 238878.89, -0.069965795, 0.32914197, -446083.94, 260139.75, 0.0, 10.001441, 9.999724 
2.9058343e+3, 2.3793314e+2, -610316.56, -751275.56, 203061.5, -0.082537256, 0.39999166, -465851.13, 142439.34, 0.0, 10.001045, 9.999305 
2.9054734e+3, 2.4792728e+2, -483677.4, -471612.44, 191884.64, -0.08257005, 0.46961004, -285665.47, 224685.81, 0.0, 10.0006695, 10.000648 
2.9051122e+3, 2.5792134e+2, -478007.6, -466647.88, 152461.0, -0.070467874, 0.428885, -319760.97, 92649.695, 0.0, 10.000093, 10.000354 
2.9047504e+3, 2.6791716e+2, -333685.7, -170289.63, 150437.75, 0.037168056, 0.5531545, -80797.47, 233653.0, 0.0, 9.999765, 10.001817 
2.9043877e+3, 2.7791306e+2, -397907.4, -329739.9, 157978.48, 0.12017867, 0.60189253, -202210.22, 14279.071, 0.0, 9.999299, 10.000358 
2.9040214e+3, 2.879045e+2, -294982.2, -275892.7, 128050.35, -0.08673081, 0.42995802, -157031.84, -38457.957, 0.0, 9.999751, 9.99973 
2.9036546e+3, 2.9789633e+2, -210388.92, -115531.94, 46584.03, -0.28873652, 0.25489247, -96480.86, -75825.31, 0.0, 9.999088, 10.000558 
2.9194605e+3, 1.3835254e+2, -1627013.0, -1776694.4, -198753.14, 0.12155466, 0.5337547, -1489476.8, 94705.26, 0.00000000463828, 10.00095, 9.998934 
2.9190955e+3, 1.4834668e+2, -1339000.5, -1067213.0, 98586.17, 0.31984788, 0.4225378, -1035218.8, 451015.56, 0.0, 10.000134, 10.003542 
2.918731e+3, 1.5834215e+2, -1451371.9, -1381601.1, 101880.0, 0.21661507, 0.21394636, -1308799.4, 79469.71, 0.0, 9.99996, 10.000869 
2.9183677e+3, 1.6833548e+2, -1373707.0, -1490794.9, 81734.29, 0.14671925, 0.24357262, -1331713.0, -41376.37, 0.0, 10.000808, 9.998926 
2.918004e+3, 1.7832777e+2, -1294336.8, -1425728.6, 59116.418, 0.021033216, 0.16066046, -1271654.5, -79237.17, 0.0, 10.000663, 9.998881 
2.9176432e+3, 1.8832316e+2, -1048861.4, -844190.94, 79661.36, 0.058121312, 0.23118691, -816840.3, 277619.5, 0.0, 10.000058, 10.002371 
2.917283e+3, 1.9831897e+2, -1292393.4, -1070122.4, 62048.813, 0.20476948, 0.17596933, -1053974.1, -57478.516, 0.0, 9.998208, 10.0011635 
2.916918e+3, 2.0831396e+2, -906906.75, -629095.7, 2516.882, 0.1110595, 0.11257216, -629072.94, 269465.7, 0.0, 9.999514, 10.0027485 
2.9165515e+3, 2.1830839e+2, -900215.2, -869654.44, 97081.8, -0.064946726, -0.09061756, -786657.8, 13930.002, 0.0, 10.000039, 10.000274 
2.9161888e+3, 2.2830307e+2, -833619.2, -914713.94, 200280.45, -0.17803428, 0.10383059, -669822.9, 32826.4, 0.0, 10.000546, 9.998923 
2.915827e+3, 2.3829748e+2, -932906.56, -1008162.8, 169957.3, -0.26071602, 0.2444657, -796461.8, -191744.63, 0.0, 9.999426, 9.998277 
2.9154652e+3, 2.482913e+2, -619938.6, -507244.47, 161630.92, -0.3072163, 0.2955717, -392420.44, 114361.7, 0.0, 9.999738, 10.00078 
2.9151034e+3, 2.582851e+2, -700601.56, -575930.94, 139773.34, -0.3236369, 0.17906941, -485222.88, -76378.35, 0.0, 9.998696, 10.000249 
2.9147437e+3, 2.682829e+2, -380110.5, -43672.957, 125100.25, 0.023819637, 0.42025164, -2254.8296, 308608.44, 0.0, 9.999017, 10.002925 
2.9143828e+3, 2.7828076e+2, -589539.1, -425454.0, 168243.9, 0.3311028, 0.5348772, -320314.84, -107433.88, 0.0, 9.998143, 10.000212 
2.9140142e+3, 2.8826952e+2, -438883.4, -476307.5, 153426.36, -0.17565398, 0.17188354, -303032.25, -188038.45, 0.0, 9.999458, 9.998424 
2.9136458e+3, 2.9826295e+2, -409960.3, -327703.53, -33649.832, -0.5179949, 0.21094087, -315691.97, -298627.94, 0.0, 9.998379, 9.999405 
2.9294568e+3, 1.3871668e+2, -1413589.8, -1546532.5, -147402.25, 0.13853456, 0.18349758, -1318364.4, 262240.75, 0.0, 10.001741, 10.000187 
2.9290897e+3, 1.4871323e+2, -1178128.9, -1320298.6, 19420.643, 0.14033039, 0.46720564, -1175523.8, 307115.78, 0.0, 10.002529, 10.00072 
2.928725e+3, 1.5870462e+2, -1437093.3, -1553738.5, -27144.184, 0.109324895, 0.12894952, -1431086.0, -46365.426, 0.0, 10.000695, 9.999386 
2.9283634e+3, 1.6869909e+2, -1266330.3, -1384794.3, 31264.613, 0.20076539, 0.2701092, -1258585.3, 28193.32, 0.0, 10.001229, 9.999494 
2.9280007e+3, 1.7869367e+2, -1110050.0, -1258507.1, 83980.94, 0.1275467, 0.38868758, -1072195.3, 116641.47, 0.0, 10.00146, 9.999693 
2.927637e+3, 1.886879e+2, -1048614.8, -849452.75, 16801.951, 0.061823715, 0.3120755, -848045.25, 242843.83, 0.0, 9.999987, 10.002409 
2.9272738e+3, 1.9868214e+2, -1309990.8, -1019001.4, 19596.326, 0.06192076, 0.11829143, -1017687.6, -24748.398, 0.0, 9.997706, 10.001784 
2.926911e+3, 2.086781e+2, -931350.9, -647543.2, -8581.816, 0.09252639, 0.11710685, -647283.9, 247691.08, 0.0, 9.999253, 10.002814 
2.9265472e+3, 2.1867408e+2, -700148.44, -729655.4, 2443.0679, 0.034029383, 0.07558598, -699947.5, 97064.31, 0.0, 10.000993, 10.000861 
2.9261836e+3, 2.2866896e+2, -748233.44, -844671.25, 75297.04, -0.13673249, 0.23140416, -707039.2, -7969.2686, 0.0, 10.000755, 9.99945 
2.92582e+3, 2.3866339e+2, -769664.94, -797477.44, 125873.086, -0.3299702, 0.34903204, -656932.25, -55797.25, 0.0, 9.999705, 9.999702 
2.9254588e+3, 2.486577e+2, -537959.7, -358756.4, 183531.86, -0.29734483, 0.3129595, -244121.9, 259070.88, 0.0, 9.999682, 10.001892 
2.9250982e+3, 2.5865188e+2, -427731.1, -334874.13, 182397.6, -0.2076396, 0.17308506, -193088.66, 212160.7, 0.0, 9.999892, 10.001402 
2.9247367e+3, 2.6864937e+2, -159155.89, 17631.953, 121366.37, -0.00069123285, 0.3611449, 79382.23, 386653.5, 0.0, 10.000583, 10.002665 
2.924375e+3, 2.7864704e+2, -76592.89, -149879.8, 46994.953, 0.19090821, 0.4925947, -53643.824, 155647.31, 0.0, 10.001324, 10.00064 
2.9240093e+3, 2.886363e+2, -187793.73, -373180.0, 104364.06, -0.03187613, 0.15047976, -140902.22, -29502.203, 0.0, 10.001024, 9.998508 
2.9236448e+3, 2.9863197e+2, -92383.664, -192659.84, -77576.35, 0.081812724, 0.4531111, -50153.363, -36704.426, 0.0, 10.000334, 9.999491 
2.939453e+3, 1.3908131e+2, -1597708.5, -1544988.4, -95724.89, 0.25548902, -0.034237314, -1472060.4, 104964.55, 0.0, 10.000154, 10.000952 
2.9390845e+3, 1.4907873e+2, -1489623.9, -1777277.4, -67564.67, 0.02804323, 0.48885402, -1474544.6, 4512.0957, 0.0, 10.001873, 9.997836 
2.938719e+3, 1.5906686e+2, -1496671.9, -1756995.6, -10650.428, 0.0988057, 0.083743796, -1496236.9, -115060.125, 0.0, 10.001171, 9.997732 
2.938359e+3, 1.6906321e+2, -1146104.3, -1174628.5, 99572.67, 0.29856044, 0.38416743, -1059777.5, 223439.69, 0.0, 10.001518, 10.000735 
2.9379982e+3, 1.7906062e+2, -1182812.0, -1249092.6, 63011.117, 0.36760378, 0.65224975, -1144757.6, 40489.14, 0.0, 10.000887, 9.999973 
2.937631e+3, 1.8905345e+2, -1106428.3, -923142.7, -49773.07, 0.11017426, 0.44815677, -910498.56, 176813.48, 0.0, 9.999885, 10.001912 
2.9372638e+3, 1.9904555e+2, -1416754.3, -1165222.0, 18792.521, -0.06994527, 0.08178026, -1163825.8, -174442.78, 0.0, 9.997528, 10.000834 
2.9369038e+3, 2.0904282e+2, -1024569.25, -755726.8, 78904.35, 0.09440361, 0.26569504, -734279.6, 157131.78, 0.0, 9.999024, 10.002104 
2.9365438e+3, 2.1904065e+2, -985369.25, -959229.4, 31349.895, 0.2713934, 0.47089565, -938334.06, -144898.05, 0.0, 9.999554, 9.999959 
2.9361793e+3, 2.2903605e+2, -796205.7, -697455.75, 49877.47, 0.0084967585, 0.6033987, -676647.75, 18838.48, 0.0, 9.999878, 10.000757 
2.9358137e+3, 2.390308e+2, -936047.6, -770459.6, 120258.42, -0.29763588, 0.5858038, -707250.44, -109707.74, 0.0, 9.9983, 10.000485 
2.9354542e+3, 2.4902627e+2, -564121.7, -188544.13, 187180.67, -0.089867696, 0.53332484, -111189.11, 388395.0, 0.0, 9.998921, 10.003331 
2.9350954e+3, 2.5902164e+2, -682432.6, -473748.9, 201864.2, 0.17909648, 0.36970896, -350854.38, 50770.957, 0.0, 9.998422, 10.00111 
2.9347295e+3, 2.690164e+2, -370797.63, -281138.22, 149873.02, -0.16628252, 0.40955538, -169533.83, 134142.78, 0.0, 10.000064, 10.000848 
2.9343632e+3, 2.7901116e+2, -318119.47, -365320.47, 67737.52, -0.5257461, 0.39565977, -269988.84, -64260.105, 0.0, 10.000243, 9.999656 
2.934009e+3, 2.8900588e+2, -111010.62, -111300.305, 66788.484, 0.45230624, 0.4961633, -44366.82, 63416.79, 0.0, 10.000778, 10.000344 
2.933641e+3, 2.9900017e+2, -15489.825, 184509.56, 88404.695, 0.2112967, 0.46459857, 217983.94, 227823.97, 0.0, 9.999709, 10.002282 
2.9494488e+3, 1.3944519e+2, -1942697.3, -1895384.0, -169919.16, 0.41056406, 0.22398603, -1747482.6, -174014.81, 0.0, 9.998466, 9.999414 
2.9490787e+3, 1.4944167e+2, -1367780.5, -1448325.8, -121346.945, -0.09955381, 0.5009612, -1280197.9, 195309.73, 0.0, 10.001503, 10.000309 
2.9487163e+3, 1.5943363e+2, -1165110.4, -1447254.3, 68213.64, 0.12566604, 0.28819385, -1149483.9, 228100.9, 0.0, 10.002672, 9.999197 
2.9483542e+3, 1.6942786e+2, -1033167.06, -1187235.5, 110887.28, 0.18587522, 0.3646549, -975181.75, 304462.84, 0.0, 10.002412, 10.000305 
2.9479906e+3, 1.794229e+2, -1064875.0, -1138556.9, 26938.477, 0.030463923, 0.4472773, -1056076.8, 125619.8, 0.0, 10.001294, 10.000596 
2.9476243e+3, 1.8941842e+2, -833374.56, -715209.06, -50644.125, -0.026195236, 0.4292433, -696474.1, 387262.66, 0.0, 10.0013, 10.002712 
2.9472584e+3, 1.9941363e+2, -893070.4, -898239.6, 93821.34, -0.04099667, 0.33999974, -801798.06, 183981.56, 0.0, 10.000896, 10.001094 
2.9468971e+3, 2.0940913e+2, -822524.75, -792311.75, 159164.94, 0.04095968, 0.43450204, -647538.06, 240289.14, 0.0, 10.0008335, 10.001058 
2.9465365e+3, 2.1940465e+2, -813696.9, -823371.8, 71332.67, 0.08746357, 0.5195657, -747037.8, 42837.832, 0.0, 10.000329, 10.000563 
2.946173e+3, 2.2939962e+2, -686297.94, -518866.22, 66278.414, -0.0076088523, 0.50888807, -495805.8, 196118.47, 0.0, 9.999986, 10.001987 
2.9458085e+3, 2.3939477e+2, -640104.94, -508394.03, 120051.19, -0.14036606, 0.44453004, -437321.66, 156649.53, 0.0, 9.99964, 10.001687 
2.9454485e+3, 2.4939144e+2, -369735.84, -189135.44, 126372.72, -0.031349175, 0.51772755, -124116.0, 371888.75, 0.0, 10.000446, 10.002728 
2.9450887e+3, 2.593878e+2, -204155.0, -218774.94, 10650.666, 0.12823196, 0.51601803, -198547.06, 199493.77, 0.0, 10.001366, 10.00154 
2.944723e+3, 2.6938194e+2, -229475.25, -173776.16, 63086.23, -0.20620325, 0.42877838, -132665.78, 167431.5, 0.0, 10.000735, 10.001316 
2.9443568e+3, 2.7937594e+2, -313702.06, -286231.94, 100078.07, -0.5625974, 0.32673505, -198950.8, 3204.8242, 0.0, 9.999776, 10.000474 
2.944006e+3, 2.893724e+2, -184740.72, -115427.15, 52382.96, 0.78177387, 0.5418733, -87274.164, 16920.348, 0.0, 9.999939, 10.000838 
2.943629e+3, 2.9936615e+2, 232899.2, 479601.53, 37911.01, -0.40159133, 0.42306095, 485295.9, 491550.38, 0.0, 10.000316, 10.004128 
2.9594427e+3, 1.3980727e+2, -2007546.1, -2059724.6, 52789.727, 0.5913744, 0.40416712, -1974750.8, -404818.7, 0.00000000001490612, 9.99871, 9.998152 
2.9590738e+3, 1.4980403e+2, -1185323.3, -1002286.9, -24180.352, -0.09311907, 0.5123769, -999146.4, 472819.06, 0.0, 10.001292, 10.003451 
2.958714e+3, 1.5980041e+2, -1172325.3, -1326036.9, 31385.203, 0.28772575, 0.47360283, -1166163.9, 207828.17, 0.0, 10.00216, 10.000256 
2.9583487e+3, 1.6979176e+2, -1267604.5, -1379380.1, 53047.97, 0.05358279, 0.27834588, -1246437.0, 29640.87, 0.0, 10.001233, 9.999511 
2.9579815e+3, 1.7978339e+2, -1367053.3, -1275072.8, 30098.39, -0.34401435, 0.06273803, -1266099.1, -87937.086, 0.0, 9.99929, 10.000602 
2.9576173e+3, 1.8978333e+2, -871760.25, -586275.7, -49033.484, -0.15833366, 0.37818596, -578088.7, 502072.28, 0.0, 10.000548, 10.003886 
2.957255e+3, 1.997832e+2, -1052555.1, -1061649.6, 77628.76, 0.18009226, 0.6766693, -979340.56, 2820.1697, 0.0, 10.000312, 10.000225 
2.956891e+3, 2.0977566e+2, -985984.06, -1003454.1, 147912.89, -0.020074125, 0.5798248, -846548.5, 37689.617, 0.0, 10.000473, 9.999687 
2.956527e+3, 2.19767e+2, -1063427.6, -1015198.7, 68198.48, -0.2654148, 0.34143078, -966976.9, -180651.39, 0.0, 9.999134, 9.999749 
2.9561657e+3, 2.297607e+2, -690263.25, -407438.22, 51216.77, -0.08187118, 0.14158027, -398449.06, 289929.47, 0.0, 9.999573, 10.002896 
2.9558042e+3, 2.3975568e+2, -924195.44, -758815.9, 128336.2, 0.11428599, -0.015171737, -688836.8, -98416.15, 0.0, 9.998315, 10.00059 
2.9554412e+3, 2.4975333e+2, -605105.8, -525408.0, 160322.22, -0.1727038, 0.3213962, -400056.56, 92398.234, 0.0, 9.99992, 10.000596 
2.9550785e+3, 2.5975084e+2, -457297.0, -404763.22, 30460.076, -0.41160157, 0.58910644, -390808.66, 3681.5698, 0.0, 10.0000725, 10.000827 
2.9547182e+3, 2.6974675e+2, -169169.94, 149093.48, 24956.559, -0.1272579, 0.5033023, 151038.56, 447562.7, 0.0, 10.000017, 10.003792 
2.9543564e+3, 2.7974194e+2, -507284.34, -345847.28, 73402.695, 0.06250358, 0.2991642, -317462.94, -118898.01, 0.0, 9.998462, 10.000651 
2.9539967e+3, 2.897349e+2, -340953.47, -294583.2, 61051.38, 0.46432003, 0.20182553, -252462.73, -151821.77, 0.0, 9.999469, 9.999748 
2.9536226e+3, 2.9973164e+2, -67632.305, 92128.77, 97100.58, -0.5273479, 0.48434317, 137983.77, 140661.94, 0.0, 9.999469, 10.001834 
2.9694313e+3, 1.4017296e+2, -1846739.1, -1908257.0, 19569.836, 0.00027262745, 0.5479869, -1841041.4, -274685.88, 0.00000010737005, 9.999379, 9.998908 
2.9690737e+3, 1.50168e+2, -1339058.9, -1252063.8, 87751.24, 0.42206162, 0.57747537, -1197621.0, 270781.63, 0.0, 10.000901, 10.001961 
2.9687104e+3, 1.6016145e+2, -1074724.9, -1229402.5, -80375.7, 0.24974905, 0.3644712, -1040522.0, 329936.0, 0.0, 10.002495, 10.000795 
2.9683432e+3, 1.701564e+2, -1284178.5, -1159873.4, -76204.75, 0.08070772, 0.34236428, -1123689.3, 148820.5, 0.0, 10.000035, 10.001657 
2.967975e+3, 1.8015125e+2, -1560717.5, -1279412.0, 59022.887, -0.24885948, 0.29788676, -1267529.9, -92966.97, 0.0, 9.99743, 10.001511 
2.9676118e+3, 1.9014852e+2, -953478.06, -733823.94, 5215.421, -0.11856667, 0.39031795, -733700.2, 342886.1, 0.0, 10.000293, 10.003066 
2.96725e+3, 2.001456e+2, -673009.5, -856400.75, -276.03534, 0.09403834, 0.48060307, -673009.06, 305602.3, 0.0, 10.002618, 10.000579 
2.966886e+3, 2.1013895e+2, -754109.5, -873099.06, 71187.65, -0.053173658, 0.44541153, -720828.7, 159849.88, 0.0, 10.001867, 9.999973 
2.9665214e+3, 2.201319e+2, -748530.56, -772292.25, 90508.7, -0.2684932, 0.35050908, -669126.25, 113622.586, 0.0, 10.000715, 10.000723 
2.9661602e+3, 2.301261e+2, -346884.88, -254293.8, 77499.84, -0.07464903, 0.17912199, -210314.73, 474482.03, 0.0, 10.001814, 10.002967 
2.965799e+3, 2.4012072e+2, -269152.44, -411117.97, 88527.85, 0.097505294, 0.011179189, -226663.9, 360177.88, 0.0, 10.002499, 10.001004 
2.9654348e+3, 2.5011724e+2, -533449.56, -522448.5, 186541.6, -0.21176873, 0.24827853, -341326.34, 147560.94, 0.0, 10.000419, 10.0004225 
2.965071e+3, 2.6011422e+2, -639864.25, -456512.03, 140384.53, -0.5003006, 0.5120072, -380520.84, 10407.793, 0.0, 9.998475, 10.001268 
2.964712e+3, 2.701112e+2, -79173.13, 149952.16, 18859.271, -0.14296716, 0.54636526, 151494.1, 444447.25, 0.0, 10.000619, 10.003624 
2.9643524e+3, 2.801071e+2, 102207.484, -42503.063, -119234.484, 0.19771309, 0.45401686, 169323.17, 364310.34, 0.0, 10.002397, 10.0009165 
2.963989e+3, 2.9009837e+2, -24931.344, -159790.0, -122424.055, 0.319024, 0.17198832, 47404.715, 144483.92, 0.0, 10.001625, 9.999692 
2.96362e+3, 3.0009833e+2, 15334.727, 5259.887, -24834.656, -0.18163735, 0.84037584, 35637.703, 35637.703, 0.0, 10.000464, 10.000795 
2.9794255e+3, 1.4053996e+2, -1580985.0, -1698768.1, -201314.6, 0.03012236, 0.81745875, -1430124.9, 132640.0, 0.00000019973128, 10.000933, 9.999607 
2.979074e+3, 1.5053187e+2, -1493399.3, -1533042.6, 147365.67, 0.95600504, 0.6573872, -1364528.1, 100312.2, 0.000000000008976791, 10.000833, 10.000057 
2.9787064e+3, 1.6052209e+2, -1461703.6, -1387846.9, -40327.797, 0.2526372, 0.23750758, -1370094.0, -3164.7358, 0.0, 9.99981, 10.00102 
2.978338e+3, 1.7052239e+2, -1157137.3, -793749.9, -182946.1, 0.22044407, 0.5411823, -717602.8, 551328.0, 0.0, 9.9997225, 10.004293 
2.97797e+3, 1.8052189e+2, -1493339.4, -1291512.9, 33358.227, 0.12195362, 0.7711266, -1286142.4, -115203.05, 0.0, 9.99821, 10.001056 
2.9776073e+3, 1.9051355e+2, -1129045.6, -1004334.44, 78951.445, 0.012333636, 0.44767496, -966084.1, 106930.234, 0.0, 10.000016, 10.001318 
2.9772452e+3, 2.0050545e+2, -992368.56, -1056119.8, -7759.522, -0.010827131, 0.13208532, -991437.7, -16350.843, 0.0, 10.000765, 10.000083 
2.9768816e+3, 2.1050115e+2, -791539.5, -790446.2, -12022.583, -0.007649067, 0.24582213, -778957.8, 98171.164, 0.0, 10.001186, 10.000871 
2.9765183e+3, 2.2049819e+2, -969067.94, -887537.75, 64496.56, 0.039616816, 0.4628408, -852003.44, -72845.23, 0.0, 9.999367, 10.000576 
2.976156e+3, 2.3049462e+2, -578951.3, -403260.6, 97764.23, -0.0021166988, 0.5243021, -359672.88, 321516.16, 0.0, 10.000571, 10.002472 
2.975793e+3, 2.4048948e+2, -649642.1, -650938.25, 50087.47, -0.07654973, 0.4363036, -600198.5, -16963.13, 0.0, 10.000313, 10.000384 
2.9754296e+3, 2.5048333e+2, -620036.94, -410462.16, 71640.27, -0.11751724, 0.32272774, -388313.66, 96985.195, 0.0, 9.999365, 10.00164 
2.9750663e+3, 2.6047772e+2, -1043431.44, -847295.25, 153874.42, -0.19411711, 0.2917513, -762895.06, -375536.88, 0.0, 9.996718, 9.999418 
2.9747042e+3, 2.7047467e+2, -392716.75, -314989.94, 104589.0, -0.38492215, 0.5695753, -242277.27, 47114.08, 0.0, 10.000007, 10.000656 
2.9743424e+3, 2.804707e+2, -205199.48, -395883.0, -120190.85, -0.4475636, 0.7372226, -147127.13, 44304.81, 0.0, 10.001374, 9.998956 
2.9739866e+3, 2.904616e+2, -109793.47, -139490.16, -213826.25, 0.53367275, 0.43610713, 89699.37, 183219.22, 0.0, 10.00096, 10.00012 
2.9736164e+3, 3.004607e+2, -133279.94, -43759.258, 106941.86, -0.094102345, 0.956887, 27411.627, 27411.627, 0.0, 9.999648, 10.000792 
2.9894316e+3, 1.408964e+2, -1285853.9, -1509090.0, -228880.63, 0.8497296, 0.47065985, -1142825.3, 416456.7, 0.000000019519112, 10.002735, 10.000126 
2.9890612e+3, 1.508903e+2, -1326264.0, -1001768.7, -33151.707, 0.21540122, 0.192345, -998416.44, 462921.44, 0.0, 10.000044, 10.004169 
2.988693e+3, 1.6088705e+2, -2060383.9, -1656558.5, 68217.086, -0.24530162, 0.16360041, -1645346.1, -281983.84, 0.0, 9.995561, 10.001258 
2.9883292e+3, 1.7088804e+2, -1429651.4, -1211045.0, -129594.11, -0.0032362102, 0.7537401, -1150814.1, 114543.22, 0.0, 9.999065, 10.001762 
2.9879645e+3, 1.8088768e+2, -977054.25, -1090143.9, -136536.66, 0.031869702, 1.1951078, -885816.9, 281547.7, 0.0, 10.0019045, 10.000673 
2.9876003e+3, 1.9087829e+2, -1093201.6, -1015953.5, -84540.49, -0.10067973, 0.7863117, -961631.8, 107819.23, 0.0, 10.000334, 10.00116 
2.9872376e+3, 2.0086941e+2, -1377785.1, -1168533.0, -100153.07, -0.13988638, 0.4222207, -1128323.9, -156792.03, 0.0, 9.997701, 10.000835 
2.986875e+3, 2.1086527e+2, -815189.2, -677928.56, -65862.45, -0.16275516, 0.46178564, -651438.0, 222132.02, 0.0, 10.000439, 10.002062 
2.9865104e+3, 2.2086044e+2, -501728.78, -644503.4, -101043.38, -0.3049288, 0.43320346, -449399.03, 326216.94, 0.0, 10.002306, 10.000887 
2.9861447e+3, 2.3085456e+2, -857937.8, -670707.6, -147839.3, -0.47364667, 0.3499119, -589336.3, 88336.26, 0.0, 9.999079, 10.001451 
2.9857817e+3, 2.4085033e+2, -1022644.7, -723924.9, -147742.97, -0.50190127, 0.39510843, -663198.2, -83486.11, 0.0, 9.997114, 10.001507 
2.9854232e+3, 2.5084767e+2, -297549.1, -167167.47, -109648.63, -0.1708306, 0.5262582, -104793.94, 376939.7, 0.0, 10.001114, 10.002552 
2.9850632e+3, 2.6084358e+2, 9446.46, -316249.94, -45519.465, 0.03933453, 0.58438396, 15688.644, 399459.34, 0.0, 10.003645, 9.999822 
2.9846993e+3, 2.7083662e+2, -299937.44, -415368.3, 44063.363, -0.30818805, 0.5817252, -285039.84, 803.84735, 0.0, 10.001183, 9.999527 
2.9843357e+3, 2.8082922e+2, -391509.5, -438757.0, -76733.76, -0.5637429, 0.52073807, -334845.3, -146925.08, 0.0, 9.999689, 9.99963 
2.983981e+3, 2.9081458e+2, 160008.75, 87943.54, -113645.92, 0.5260055, -0.4108494, 243197.55, 333256.03, 0.0, 10.002256, 10.001304 
2.98361e+3, 3.0081514e+2, 186962.9, 96440.36, 277574.94, -0.18021281, 0.25305223, 422942.5, 422942.5, 0.0, 10.001587, 10.001122 
2.999426e+3, 1.4126332e+2, -1738909.9, -2111918.3, 633669.75, 0.6152556, 0.6847859, -1264867.9, 290820.5, 0.000000013810121, 10.001101, 9.996824 
2.9990494e+3, 1.5126586e+2, -1126561.9, -823624.25, -71326.09, -0.2904149, 1.289146, -807670.8, 649996.2, 0.0, 10.00111, 10.00476 
2.9986894e+3, 1.6126165e+2, -1636346.6, -1652357.0, -323128.2, 0.36120057, 1.1061535, -1321124.5, 38579.496, 0.0, 9.999242, 9.999451 
2.9983258e+3, 1.7124926e+2, -1238547.9, -1446511.3, -20746.357, 0.37735462, 0.5490514, -1236498.4, 25330.021, 0.0, 10.001776, 9.998676 
2.9979634e+3, 1.812417e+2, -887880.56, -1314683.6, 85525.26, 0.2912509, 0.5181593, -871380.44, 292525.2, 0.0, 10.003571, 9.998304 
2.997597e+3, 1.9123968e+2, -1133674.3, -1085952.0, -193688.89, 0.1752281, 0.87397283, -914660.06, 151263.56, 0.0, 10.000233, 10.0006075 
2.9972312e+3, 2.0123218e+2, -1416034.9, -1333984.1, -174148.19, 0.0023977947, 0.721285, -1196094.3, -228100.34, 0.0, 9.998031, 9.999489 
2.99687e+3, 2.112277e+2, -780943.5, -524449.3, 30172.219, -0.08042416, 0.61990666, -520947.88, 349085.13, 0.0, 10.000186, 10.003048 
2.9965067e+3, 2.2122405e+2, -632405.6, -900224.8, -79777.57, -0.28796178, 0.69109994, -610442.75, 161622.95, 0.0, 10.002266, 9.999079 
2.9961437e+3, 2.312213e+2, -407421.16, -625235.94, -24791.898, 0.15379791, 1.0486082, -404634.97, 269459.47, 0.0, 10.0029955, 9.999689 
2.995779e+3, 2.4121498e+2, -940993.5, -814588.4, 86298.64, 0.099249974, 1.0079799, -770823.56, -194667.81, 0.0, 9.998266, 10.00024 
2.9954156e+3, 2.5120145e+2, -1019952.9, -469783.66, -97857.055, -0.37548178, -0.018743886, -452896.44, 25380.215, 0.0, 9.9960375, 10.002714 
2.995058e+3, 2.612028e+2, -641226.56, -643799.94, -147814.72, -0.27365506, 0.47838333, -494692.94, -114439.36, 0.0, 9.99938, 9.999479 
2.994698e+3, 2.711953e+2, 32824.324, -178327.39, 98283.734, 0.112162136, 0.3291913, 71491.164, 353818.16, 0.0, 10.003374, 9.999832 
2.994334e+3, 2.8118995e+2, -990050.6, -715243.9, -35522.902, -0.072099954, 0.42694366, -710726.3, -526347.56, 0.0, 9.99563, 9.9995775 
2.9939732e+3, 2.9118422e+2, 78689.64, 196082.34, 205753.4, 0.16835102, 0.22889933, 351347.97, 437777.56, 0.0, 10.001384, 10.0022 
2.9936063e+3, 3.011808e+2, 157629.17, -1277.458, -309085.94, -0.106704526, 0.44146082, 397310.53, 397310.53, 0.0, 10.002087, 9.999977 
