coord_x,coord_y,stress_xx,stress_yy,tau_xy,velocity_x,velocity_y,stress_1,eps,damage,lx,ly
5.003176e+0, 1.228682e+2, -1048233.6, -1812019.3, -551.259, -0.0019756116, 0.051131427, -1048233.2, 687659.4, 0.0011220466, 10.006387, 9.996254 
5.0028956e+0, 1.3286424e+2, -1005499.8, -1711931.4, 6802.032, -0.0046667396, 0.007228315, -1005434.4, 632500.7, 0.0007005584, 10.005881, 9.996511 
5.002664e+0, 1.428619e+2, -927067.1, -1529356.8, 9584.994, -0.0007556479, 0.08981263, -926914.6, 613043.94, 0.00033630943, 10.00534, 9.99735 
5.002452e+0, 1.5285869e+2, -907035.1, -1449416.8, 10927.537, 0.0091375755, 0.012675478, -906815.0, 535170.44, 0.000106381216, 10.004719, 9.997524 
5.0021636e+0, 1.6285586e+2, -879709.06, -1355726.9, 12810.9, 0.011040945, -0.031369567, -879364.56, 464645.66, 0.0000148823165, 10.004106, 9.997791 
5.001714e+0, 1.728539e+2, -861152.0, -1287872.5, 13034.687, -0.0048490167, -0.01736372, -860754.25, 385275.9, 0.00000013818298, 10.003525, 9.997865 
5.00136e+0, 1.8285207e+2, -796474.0, -1120760.1, 11076.261, -0.010443914, -0.013772512, -796096.1, 351951.97, 0.0, 10.002929, 9.998627 
5.001228e+0, 1.9285068e+2, -775844.0, -1037389.06, 7109.7393, 0.007762912, -0.040320225, -775650.9, 274409.44, 0.0, 10.0023, 9.998829 
5.000998e+0, 2.0284949e+2, -750754.1, -954640.56, 7776.3804, 0.014074119, -0.046710905, -750457.94, 201613.03, 0.0, 10.001714, 9.999007 
5.0005376e+0, 2.1284884e+2, -721138.06, -884479.8, 11950.902, -0.0073728054, -0.020330427, -720268.25, 133809.6, 0.0, 10.001222, 9.999052 
5.000158e+0, 2.2284804e+2, -700038.6, -808238.2, 9183.882, -0.015657067, -0.008874203, -699264.6, 56821.844, 0.0, 10.0006275, 9.999189 
4.9999705e+0, 2.3284706e+2, -719819.75, -763100.8, 6930.6626, 0.006906446, -0.034770556, -718737.06, -60639.88, 0.0, 9.999803, 9.999224 
4.9997196e+0, 2.4284644e+2, -701185.06, -663768.6, 11709.824, 0.017592143, -0.028737478, -660406.1, -100301.73, 0.0, 9.999087, 9.9995775 
4.9993157e+0, 2.5284675e+2, -662960.1, -583914.9, 12402.414, 0.000007341023, 0.028771145, -582014.56, -119911.05, 0.0, 9.998631, 9.999673 
4.998981e+0, 2.6284674e+2, -615992.06, -475171.94, 9769.594, -0.008324167, 0.052209835, -474497.4, -110392.59, 0.0, 9.998128, 9.999989 
4.9988136e+0, 2.7284652e+2, -601543.3, -407173.0, 10110.128, 0.00584853, 0.01697127, -406648.56, -140541.67, 0.0, 9.99751, 10.00008 
4.9985972e+0, 2.828468e+2, -562969.1, -296108.5, 11054.5205, 0.013566649, 0.025999662, -295651.34, -127547.7, 0.000000004221918, 9.9969225, 10.000452 
4.9982515e+0, 2.9284772e+2, -533890.2, -220858.64, 7085.1704, 0.0048821457, 0.055976577, -220698.36, -150603.78, 0.0000065845143, 9.996405, 10.0005455 
4.9979243e+0, 3.0284724e+2, -564902.06, -223365.42, 6573.214, -0.0031544545, -0.03574708, -223238.95, -223238.95, 0.00007539241, 9.995912, 10.000433 
4.9977136e+0, 3.128496e+2, -490863.53, 20465.402, 11805.097, -0.0048550963, 0.14862879, 20737.803, 20737.803, 0.00026927676, 9.9955225, 10.0022955 
1.5009524e+1, 1.2286822e+2, -1038871.5, -1791972.1, -22436.387, -0.0061687725, 0.02497592, -1038203.7, 697688.7, 0.0011015569, 10.006385, 9.996392 
1.5008686e+1, 1.3286471e+2, -994631.4, -1689030.5, -11995.301, -0.014036399, 0.011143703, -994424.2, 643505.8, 0.00068626733, 10.00588, 9.99667 
1.500799e+1, 1.4286257e+2, -922210.5, -1518955.4, -13069.86, -0.0022576891, 0.10185048, -921924.4, 618026.75, 0.00032790008, 10.005339, 9.997421 
1.5007356e+1, 1.5285906e+2, -903929.8, -1442733.8, -12573.185, 0.027425446, -0.011203869, -903636.56, 538344.25, 0.000102386424, 10.004718, 9.997571 
1.500649e+1, 1.6285607e+2, -879135.94, -1354317.6, -9438.628, 0.033119332, -0.072007105, -878948.5, 465058.25, 0.00001376567, 10.004105, 9.997802 
1.5005141e+1, 1.7285444e+2, -861356.6, -1288062.4, -8756.628, -0.01456094, -0.028263243, -861177.0, 384847.16, 0.00000010029712, 10.003524, 9.997864 
1.500408e+1, 1.8285276e+2, -802084.9, -1132191.6, -12237.433, -0.031328138, -0.006269965, -801631.8, 346409.16, 0.0, 10.002928, 9.9985485 
1.5003683e+1, 1.9285117e+2, -782828.4, -1051827.6, -16523.438, 0.023282424, -0.041657962, -781817.25, 268237.94, 0.0, 10.002299, 9.998731 
1.5002994e+1, 2.0284985e+2, -746748.6, -946215.44, -11746.1, 0.042215798, -0.056803346, -746059.3, 206007.92, 0.0, 10.001713, 9.999065 
1.5001611e+1, 2.1284926e+2, -714241.1, -869972.9, -6346.912, -0.022122849, -0.03530767, -713982.9, 140090.66, 0.0, 10.001222, 9.999152 
1.5000473e+1, 2.2284855e+2, -699731.3, -807407.0, -19372.06, -0.046982273, -0.019286899, -696352.06, 59729.066, 0.0, 10.0006275, 9.999195 
1.4999911e+1, 2.3284781e+2, -721568.5, -766578.56, -24439.5, 0.020716242, -0.019427555, -710850.56, -52760.594, 0.0, 9.999802, 9.999201 
1.4999159e+1, 2.4284728e+2, -702890.75, -667180.3, -8256.828, 0.052759934, -0.0045925286, -665363.6, -105266.88, 0.0, 9.999086, 9.999555 
1.4997947e+1, 2.5284725e+2, -664274.75, -586563.3, -4423.178, 0.0000030629758, 0.023191236, -586312.4, -124213.74, 0.0, 9.998631, 9.999655 
1.4996943e+1, 2.6284707e+2, -614469.8, -471926.9, -12276.264, -0.024966, 0.029744046, -470877.34, -106776.11, 0.0, 9.998128, 10.000011 
1.4996442e+1, 2.7284706e+2, -599705.1, -403181.03, -13256.251, 0.017554607, 0.011438608, -402290.9, -136189.33, 0.0, 9.99751, 10.000108 
1.4995791e+1, 2.8284743e+2, -569077.8, -308487.28, -9111.341, 0.040696844, 0.0314027, -308169.1, -140071.66, 0.0000000059189293, 9.996922, 10.000367 
1.4994755e+1, 2.9284817e+2, -542030.1, -237575.11, -12362.625, 0.014672764, 0.056462195, -237073.95, -166984.4, 0.0000065077284, 9.996404, 10.000431 
1.4993773e+1, 3.028474e+2, -562944.8, -219192.3, -9523.914, -0.009487483, -0.060149558, -218928.63, -218928.63, 0.00007423676, 9.995911, 10.000462 
1.4993139e+1, 3.1284916e+2, -486463.2, 29873.506, 1758.071, -0.014689726, 0.057739828, 29879.492, 29879.492, 0.0002657484, 9.995522, 10.00236 
2.5015724e+1, 1.2286887e+2, -1074865.3, -1793125.8, -10522.777, -0.009223301, 0.020280883, -1074711.1, 661174.9, 0.0010719184, 10.006067, 9.996537 
2.5014493e+1, 1.3286547e+2, -1011088.94, -1679062.6, 3842.2231, -0.01204575, 0.002681408, -1011066.8, 626854.94, 0.00066553924, 10.005691, 9.99683 
2.5013345e+1, 1.4286347e+2, -931915.2, -1515178.9, -2919.8396, 0.004453011, 0.09153146, -931900.56, 608040.9, 0.00031552842, 10.005236, 9.997498 
2.5011998e+1, 1.5286e+2, -916742.9, -1443247.8, -3686.6082, 0.025188738, -0.02017467, -916717.06, 525253.6, 0.00009643677, 10.004606, 9.9976225 
2.5010502e+1, 1.6285707e+2, -892951.06, -1358397.5, 2276.5803, 0.02918841, -0.080783084, -892939.9, 451056.4, 0.0000121517905, 10.003999, 9.997826 
2.5008753e+1, 1.728554e+2, -869082.6, -1290069.3, 4836.695, -0.0028452931, -0.038957085, -869027.06, 376986.6, 0.00000006017621, 10.003463, 9.99788 
2.5007182e+1, 1.8285374e+2, -801693.56, -1134605.4, 3755.8618, -0.014908358, -0.01739316, -801651.2, 346379.34, 0.0, 10.002942, 9.998526 
2.5006017e+1, 1.9285214e+2, -763284.44, -1046237.5, 4374.4897, 0.01904196, -0.049283978, -763216.8, 286828.22, 0.0, 10.002451, 9.998696 
2.5004625e+1, 2.0285085e+2, -726780.4, -936384.56, 7186.606, 0.027331198, -0.06089449, -726534.25, 225522.92, 0.0, 10.001849, 9.999067 
2.5002706e+1, 2.1285032e+2, -744950.4, -883627.44, 5131.2627, -0.024110978, -0.035198595, -744760.75, 109302.664, 0.0, 10.001005, 9.999163 
2.5000975e+1, 2.2284968e+2, -748362.7, -825193.25, -10102.6, -0.041603517, -0.014948722, -747056.5, 9014.156, 0.0, 10.000269, 9.999247 
2.4999696e+1, 2.3284903e+2, -719622.25, -758893.5, -9172.004, 0.019840969, -0.010609264, -717585.7, -59507.33, 0.0, 9.999786, 9.999261 
2.4998312e+1, 2.4284853e+2, -679208.56, -655853.56, 14365.453, 0.05131432, 0.00394001, -649018.06, -88933.41, 0.0, 9.999249, 9.999554 
2.4996658e+1, 2.528484e+2, -673016.3, -592602.7, 19317.803, 0.01075948, 0.021696549, -588202.7, -126115.266, 0.0, 9.998578, 9.999639 
2.4995142e+1, 2.6284814e+2, -640226.0, -485301.16, 10600.026, -0.009245248, 0.022109922, -484579.28, -120488.53, 0.0, 9.997955, 10.000002 
2.4993974e+1, 2.7284816e+2, -608304.06, -408254.84, 6771.9116, 0.02253136, 0.007892507, -408025.88, -141934.89, 0.0, 9.997455, 10.000099 
2.4992767e+1, 2.8284854e+2, -558773.44, -308449.34, 14764.812, 0.04152731, 0.03188638, -307581.47, -139494.72, 0.0000000086392555, 9.997014, 10.000323 
2.4991398e+1, 2.9284924e+2, -504955.1, -225641.63, 16871.146, 0.024636025, 0.059924357, -224626.27, -154547.5, 0.0000063841276, 9.996685, 10.000378 
2.498989e+1, 3.0284834e+2, -531014.5, -201338.9, 13318.559, 0.0004999796, -0.06989897, -200801.72, -200801.72, 0.00007243093, 9.99612, 10.000484 
2.4988411e+1, 3.128497e+2, -546072.0, 4685.306, 25222.994, -0.018581372, 0.006766044, 5838.0293, 5838.0293, 0.00026027678, 9.995098, 10.002392 
3.502177e+1, 1.22870155e+2, -1064234.8, -1770809.9, -28537.74, -0.011724967, 0.03665863, -1063084.0, 672789.3, 0.0010323715, 10.006067, 9.996692 
3.5020316e+1, 1.3286656e+2, -999492.94, -1655011.3, -9935.604, 0.0009453063, -0.017869893, -999342.4, 638567.75, 0.00063776626, 10.005691, 9.996995 
3.501873e+1, 1.4286456e+2, -926434.1, -1503845.0, -24816.25, 0.018861413, 0.059327595, -925369.5, 614559.9, 0.0002987607, 10.005236, 9.997576 
3.5016373e+1, 1.5286152e+2, -913047.6, -1435453.8, -27652.69, 0.0021859393, -0.014039095, -911588.0, 530367.0, 0.00008833907, 10.004605, 9.997676 
3.5014203e+1, 1.6285883e+2, -890527.94, -1353046.0, -18726.27, -0.0008804958, -0.057765268, -889771.0, 454207.88, 0.000010076931, 10.003997, 9.997863 
3.5012546e+1, 1.7285685e+2, -866793.6, -1285208.3, -15136.831, 0.029954117, -0.04946052, -866246.75, 379751.9, 0.000000028001313, 10.003463, 9.997913 
3.5010654e+1, 1.8285502e+2, -799540.56, -1130067.9, -15068.815, 0.03836916, -0.047086135, -798855.0, 349161.78, 0.0, 10.002942, 9.998557 
3.5008225e+1, 1.9285363e+2, -761262.75, -1041804.7, -14001.923, -0.0051152534, -0.06311796, -760565.6, 289464.16, 0.0, 10.00245, 9.998728 
3.5005894e+1, 2.0285247e+2, -730768.75, -944421.7, -21951.232, -0.03071357, -0.058929253, -728536.75, 223504.22, 0.0, 10.001848, 9.999013 
3.5003817e+1, 2.1285199e+2, -750526.44, -895085.4, -26941.629, -0.013570365, -0.019856952, -745668.56, 108379.01, 0.0, 10.001005, 9.999084 
3.5001662e+1, 2.228514e+2, -741764.7, -811349.06, -31048.32, 0.00017061505, 0.004215311, -729925.44, 26129.506, 0.0, 10.000268, 9.999342 
3.4999326e+1, 2.328507e+2, -709492.2, -737865.75, -27003.434, 0.0040234206, -0.008483579, -693175.7, -35113.305, 0.0, 9.999786, 9.999406 
3.499718e+1, 2.4285021e+2, -677648.75, -652642.44, -9533.925, 0.013007103, -0.0033073162, -649422.25, -89354.02, 0.0, 9.999249, 9.999577 
3.4995452e+1, 2.5285015e+2, -674126.94, -594694.94, -6228.6997, 0.032181975, 0.02441083, -594209.5, -132139.44, 0.0, 9.998577, 9.999625 
3.4993577e+1, 2.6284996e+2, -643354.2, -491451.94, -9638.661, 0.038657326, 0.029529475, -490842.78, -126769.53, 0.0, 9.997954, 9.999961 
3.499141e+1, 2.728498e+2, -611658.1, -414981.4, -11873.659, 0.020512016, 0.0063696755, -414267.2, -148192.03, 0.0, 9.997455, 10.000053 
3.4989524e+1, 2.8285015e+2, -559131.4, -309049.63, 1097.5342, 0.01565902, 0.027293522, -309044.8, -140973.17, 0.000000011844628, 9.997014, 10.0003195 
3.4988183e+1, 2.9285094e+2, -504547.28, -224640.52, 4358.9404, 0.034528736, 0.06624072, -224572.64, -154510.36, 0.0000061783935, 9.996684, 10.000384 
3.498627e+1, 3.0285004e+2, -529932.6, -198956.52, -20749.879, 0.026750147, -0.06494993, -197660.72, -197660.72, 0.00006978909, 9.99612, 10.000501 
3.4983528e+1, 3.1285125e+2, -546357.9, 4347.6963, -9721.385, -0.016930828, -0.0040572984, 4519.2505, 4519.2505, 0.00025241746, 9.995098, 10.00239 
4.502781e+1, 1.22871794e+2, -1054004.4, -1757127.6, -3440.605, -0.016123533, 0.028274534, -1053987.5, 681869.0, 0.0009836684, 10.0061, 9.99677 
4.5025924e+1, 1.3286823e+2, -1017447.2, -1655440.6, 11411.729, 0.0007926809, -0.032016743, -1017243.1, 620649.7, 0.000603389, 10.005532, 9.997069 
4.5023888e+1, 1.4286625e+2, -958696.06, -1514913.6, -11144.108, 0.023221614, 0.04344126, -958472.9, 581438.75, 0.00027790974, 10.004994, 9.997617 
4.5020926e+1, 1.5286337e+2, -919855.4, -1435194.5, -16115.448, 0.000039867795, -0.019646322, -919351.94, 522584.6, 0.00007836992, 10.004543, 9.997708 
4.5018172e+1, 1.6286077e+2, -876774.3, -1332528.0, -6837.5806, -0.0051544956, -0.059257794, -876671.75, 467287.72, 0.000007735562, 10.004032, 9.997987 
4.5016018e+1, 1.7285883e+2, -866956.7, -1268662.8, 4741.3623, 0.03448141, -0.061253507, -866900.75, 379077.3, 0.000000008983813, 10.00339, 9.998062 
4.5013547e+1, 1.8285707e+2, -825368.8, -1138772.3, 10959.037, 0.04294019, -0.06345648, -824986.06, 323009.22, 0.0, 10.0027485, 9.99859 
4.5010352e+1, 1.9285576e+2, -809211.5, -1064645.0, 10365.5, -0.020883853, -0.07031655, -808791.56, 241216.4, 0.0, 10.002119, 9.99873 
4.500735e+1, 2.028547e+2, -784543.5, -970191.6, -3000.9229, -0.05125613, -0.058824256, -784495.0, 167524.06, 0.0, 10.001478, 9.999014 
4.500483e+1, 2.1285424e+2, -778584.9, -908457.2, -3953.9036, -0.0032319447, -0.017586071, -778464.6, 75561.1, 0.0, 10.000812, 9.999086 
4.5002136e+1, 2.2285365e+2, -747403.06, -811377.56, 2639.4238, 0.023469511, 0.0069259857, -747294.3, 8738.789, 0.0, 10.000217, 9.999366 
4.4999054e+1, 2.3285297e+2, -707887.8, -733642.9, 948.0736, -0.0016003364, -0.008384561, -707853.0, -49812.473, 0.0, 9.999783, 9.999436 
4.4996244e+1, 2.428525e+2, -674396.75, -651492.8, 5733.0776, -0.0066968873, -0.0031235495, -650137.9, -90091.72, 0.0, 9.999274, 9.999573 
4.4994056e+1, 2.5285247e+2, -671625.56, -595151.0, 6696.6504, 0.033627734, 0.030833552, -594569.0, -132521.2, 0.0, 9.998602, 9.99961 
4.49917e+1, 2.6285228e+2, -639896.3, -495101.78, 9633.433, 0.05327984, 0.041300196, -494463.66, -130412.67, 0.0, 9.998001, 9.999913 
4.4989005e+1, 2.7285212e+2, -598967.1, -414970.34, 8486.144, 0.029041756, 0.021153282, -414579.78, -148526.33, 0.0, 9.997568, 9.999999 
4.498662e+1, 2.8285247e+2, -548038.6, -297092.63, 21738.46, 0.02167328, 0.043666717, -295223.44, -127173.44, 0.000000014278152, 9.997062, 10.000379 
4.498483e+1, 2.9285336e+2, -542054.8, -232540.31, 30505.033, 0.045787994, 0.080392905, -229562.45, -159522.69, 0.0000058442592, 9.996384, 10.000476 
4.4982338e+1, 3.0285248e+2, -571464.3, -212910.38, 5370.7144, 0.036900826, -0.052587956, -212829.94, -212829.94, 0.0000661976, 9.995809, 10.000555 
4.497886e+1, 3.1285387e+2, -483599.4, 36870.195, 21718.154, -0.01446744, 0.020292437, 37774.88, 37774.88, 0.00024196846, 9.995519, 10.002411 
5.5033827e+1, 1.2287382e+2, -1053591.0, -1756831.5, -27656.283, -0.024741717, -0.0033539054, -1052505.0, 683330.4, 0.0009277911, 10.006102, 9.996772 
5.5031323e+1, 1.3287045e+2, -1018947.06, -1658294.1, -9983.045, -0.01275986, -0.039700486, -1018791.25, 619078.56, 0.0005639177, 10.00553, 9.99705 
5.5028826e+1, 1.4286856e+2, -958624.9, -1514283.3, -29059.838, 0.017551513, 0.043523964, -957109.25, 582779.0, 0.0002541059, 10.0049925, 9.997622 
5.502565e+1, 1.5286551e+2, -918915.06, -1433405.1, -32847.49, 0.017716227, -0.036948435, -916826.4, 525088.8, 0.000067303445, 10.004544, 9.99772 
5.502241e+1, 1.6286291e+2, -862020.0, -1302048.3, -29563.99, 0.015235432, -0.084968805, -860042.6, 483895.5, 0.000005427135, 10.004033, 9.998197 
5.501917e+1, 1.7286138e+2, -848802.7, -1230623.8, -19571.055, 0.010672982, -0.07407397, -847802.2, 398149.72, 0.00000000116644, 10.003389, 9.998324 
5.5015856e+1, 1.8285988e+2, -823203.44, -1133761.3, -12838.641, -0.0011708576, -0.06642526, -822673.6, 325292.44, 0.0, 10.002747, 9.998626 
5.5012393e+1, 1.9285858e+2, -811102.0, -1068452.0, -13203.806, -0.028821543, -0.07083645, -810426.4, 239553.34, 0.0, 10.002119, 9.998704 
5.5008996e+1, 2.028575e+2, -780490.1, -961786.2, -27838.346, -0.03494381, -0.0605815, -776311.8, 175679.61, 0.0, 10.001478, 9.999072 
5.5005735e+1, 2.1285702e+2, -772915.3, -896704.5, -29023.645, 0.0065480047, -0.028609317, -766448.25, 87549.67, 0.0, 10.000812, 9.999167 
5.50024e+1, 2.2285645e+2, -750797.5, -818350.0, -15435.676, 0.027962767, -0.0070836525, -747437.56, 8567.671, 0.0, 10.000217, 9.999318 
5.499888e+1, 2.3285581e+2, -713752.56, -745717.44, -15244.321, 0.00273459, -0.010155639, -707648.2, -49635.48, 0.0, 9.999782, 9.999354 
5.49955e+1, 2.4285536e+2, -676712.3, -656074.1, -17827.232, -0.008225478, 0.0046910145, -645794.8, -85776.234, 0.0, 9.999273, 9.999541 
5.499247e+1, 2.5285536e+2, -672890.75, -597710.56, -18840.033, 0.0144773545, 0.04092978, -593253.5, -131232.88, 0.0, 9.998602, 9.999593 
5.498951e+1, 2.628552e+2, -643571.6, -502773.2, -8535.084, 0.034128945, 0.057228647, -502257.66, -138233.67, 0.0, 9.998001, 9.999861 
5.4986763e+1, 2.728551e+2, -603481.9, -424291.8, -7721.291, 0.047843713, 0.052252848, -423959.72, -157933.83, 0.0, 9.997568, 9.999935 
5.4984057e+1, 2.8285554e+2, -539608.75, -279294.84, -2002.8055, 0.059456743, 0.08111247, -279279.44, -111257.586, 0.000000014996283, 9.997061, 10.000502 
5.4981333e+1, 2.9285645e+2, -530067.8, -207144.31, 4561.018, 0.058256824, 0.102514066, -207079.9, -137068.7, 0.0000053587105, 9.996382, 10.000651 
5.497808e+1, 3.0285567e+2, -565130.75, -199405.88, -9104.81, 0.03054819, -0.032984972, -199179.36, -199179.36, 0.00006167391, 9.995808, 10.0006485 
5.49744e+1, 3.1285754e+2, -480336.38, 43347.234, 15292.577, -0.012462931, 0.07943467, 43793.43, 43793.43, 0.00022898198, 9.99552, 10.002455 
6.5039927e+1, 1.22876704e+2, -1087583.8, -1770254.0, -13381.723, -0.012547126, 0.0029239506, -1087321.5, 648485.44, 0.00086787617, 10.005855, 9.996798 
6.5036714e+1, 1.328732e+2, -1038707.9, -1666592.6, 9663.313, -0.019798791, -0.048535377, -1038559.2, 599283.1, 0.00052192825, 10.005389, 9.997062 
6.5033644e+1, 1.428713e+2, -966131.8, -1508053.9, -4981.753, 0.005012049, 0.02949605, -966086.0, 573774.8, 0.00022919523, 10.004899, 9.997709 
6.503013e+1, 1.528685e+2, -937934.4, -1430487.6, -1718.9178, 0.020332946, -0.036373187, -937928.4, 503957.4, 0.0000562248, 10.004362, 9.997828 
6.502637e+1, 1.6286607e+2, -890958.6, -1301610.0, -1773.0066, 0.021592982, -0.07910824, -890951.0, 452956.13, 0.0000034422021, 10.003773, 9.998324 
6.502223e+1, 1.7286451e+2, -883510.3, -1232279.6, -2288.4788, -0.0068648537, -0.083794616, -883495.3, 362425.03, 0.00000000000024211628, 10.003086, 9.998458 
6.501819e+1, 1.8286304e+2, -870546.94, -1151783.1, -413.37183, -0.024780318, -0.08358767, -870546.3, 277387.66, 0.0, 10.002401, 9.998669 
6.5014434e+1, 1.9286188e+2, -866580.44, -1093174.0, 2244.9814, -0.01696697, -0.0761076, -866558.2, 183388.78, 0.0, 10.00173, 9.998722 
6.5010566e+1, 2.0286089e+2, -825860.94, -979108.5, -7252.8047, -0.008964331, -0.05933549, -825518.5, 126439.734, 0.0, 10.001148, 9.999112 
6.5006423e+1, 2.1286038e+2, -777341.44, -893582.9, -9837.296, -0.0033801983, -0.03431464, -776514.8, 77449.84, 0.0, 10.000759, 9.999214 
6.500239e+1, 2.228598e+2, -741312.4, -815853.5, 2450.2212, 0.0016050427, -0.015109103, -741231.9, 14740.072, 0.0, 10.000292, 9.9993 
6.4998627e+1, 2.3285922e+2, -736749.6, -760740.25, 5705.2114, 0.0062807896, -0.008606905, -735461.94, -77482.59, 0.0, 9.999641, 9.999319 
6.499484e+1, 2.4285883e+2, -710656.8, -674108.8, 5264.3296, 0.009872683, 0.0139471, -673365.6, -113380.42, 0.0, 9.999047, 9.999527 
6.499102e+1, 2.5285885e+2, -675123.0, -599825.8, 4626.855, 0.010328685, 0.05228492, -599542.56, -137555.19, 0.0, 9.99859, 9.999583 
6.498739e+1, 2.6285866e+2, -629624.1, -495960.78, 18664.166, 0.01692039, 0.06922776, -493403.53, -129412.71, 0.0, 9.998096, 9.999862 
6.498423e+1, 2.728586e+2, -610869.5, -427720.3, 24795.617, 0.04072695, 0.06334414, -424422.75, -158430.17, 0.0, 9.997517, 9.999936 
6.498108e+1, 2.82859e+2, -557737.9, -286997.4, 26299.605, 0.061674178, 0.09107054, -284466.34, -116477.83, 0.000000013847158, 9.996932, 10.000511 
6.4977753e+1, 2.9285988e+2, -536055.75, -208480.75, 19618.45, 0.06459964, 0.1091582, -207309.98, -137331.81, 0.0000047556837, 9.996334, 10.000665 
6.497395e+1, 3.028591e+2, -562506.9, -193783.45, 7005.073, 0.03688744, -0.031523883, -193650.42, -193650.42, 0.00005639522, 9.995807, 10.000688 
6.496997e+1, 3.1286108e+2, -485022.0, 42341.94, 36348.68, -0.005251885, 0.087857276, 44835.492, 44835.492, 0.00021376522, 9.995482, 10.002465 
7.5046104e+1, 1.2288043e+2, -1084303.5, -1763148.6, -33983.082, 0.019127317, 0.04504331, -1082606.6, 653164.7, 0.00080802164, 10.005853, 9.996848 
7.5042075e+1, 1.3287647e+2, -1035746.6, -1660802.5, -7467.77, -0.022243958, -0.059009902, -1035657.44, 602153.06, 0.00048066454, 10.00539, 9.997101 
7.503834e+1, 1.4287446e+2, -954403.9, -1483842.8, -24622.123, -0.016010575, 0.0013929985, -953261.25, 586568.1, 0.00020537776, 10.0049, 9.997875 
7.503436e+1, 1.5287232e+2, -924329.8, -1401597.5, -21998.496, 0.007886478, -0.01812132, -923318.0, 518530.25, 0.00004625412, 10.004359, 9.998028 
7.5030077e+1, 1.6287023e+2, -887955.9, -1294649.4, -26527.35, 0.014048274, -0.042016845, -886232.9, 457633.63, 0.0000019704935, 10.00377, 9.998374 
7.5025195e+1, 1.7286824e+2, -882899.5, -1231033.1, -28113.484, -0.019027783, -0.09070167, -880643.8, 365239.7, 0.0, 10.003086, 9.9984665 
7.502055e+1, 1.8286653e+2, -867059.2, -1144639.0, -25789.14, -0.028813891, -0.115011096, -864683.56, 283215.56, 0.0, 10.002401, 9.998717 
7.501648e+1, 1.9286564e+2, -862441.5, -1084414.8, -22929.064, 0.014510338, -0.0860848, -860097.8, 189812.05, 0.0, 10.001729, 9.998782 
7.501207e+1, 2.0286486e+2, -824455.8, -976031.5, -23919.246, 0.026546696, -0.055093717, -820770.9, 131148.56, 0.0, 10.001147, 9.999134 
7.5006884e+1, 2.1286432e+2, -776605.25, -891955.8, -24157.775, -0.033443823, -0.034653798, -771750.25, 82175.695, 0.0, 10.000758, 9.999226 
7.5002104e+1, 2.2286372e+2, -740729.5, -814510.0, -20069.314, -0.056078702, -0.016980033, -735623.7, 20309.559, 0.0, 10.000291, 9.99931 
7.499829e+1, 2.3286323e+2, -736010.5, -759238.6, -19032.436, 0.008635272, -0.0037566936, -725328.4, -67387.86, 0.0, 9.999641, 9.999329 
7.499426e+1, 2.428629e+2, -710568.56, -673960.3, -13407.51, 0.047360614, 0.024482831, -669575.2, -109629.04, 0.0, 9.999047, 9.999528 
7.498972e+1, 2.528629e+2, -675275.44, -600064.56, -12418.367, 0.020939015, 0.064845234, -598067.2, -136119.13, 0.0, 9.99859, 9.999582 
7.498533e+1, 2.6286274e+2, -625869.44, -488027.97, -2328.5803, 0.0013315995, 0.07734301, -487988.63, -124037.234, 0.0, 9.998096, 9.999916 
7.4981415e+1, 2.7286255e+2, -606291.44, -417988.03, 2865.5532, 0.007268211, 0.05422834, -417944.44, -151990.95, 0.0, 9.997516, 10.000004 
7.4977666e+1, 2.8286287e+2, -565162.9, -302228.47, 3870.8557, 0.027797401, 0.07320274, -302171.5, -134221.5, 0.000000011324871, 9.996931, 10.000406 
7.4974084e+1, 2.9286367e+2, -546414.9, -229966.36, -3205.5632, 0.064133964, 0.10000903, -229933.89, -159993.23, 0.000004098041, 9.996334, 10.000518 
7.496994e+1, 3.0286273e+2, -563574.8, -195807.44, -7906.2397, 0.055515584, -0.048417192, -195637.55, -195637.55, 0.000050636227, 9.995806, 10.000674 
7.496558e+1, 3.1286448e+2, -486713.97, 39339.04, 27815.441, 0.006633013, 0.045141988, 40805.71, 40805.71, 0.00019685416, 9.995481, 10.002445 
8.5051835e+1, 1.2288438e+2, -1119550.9, -1756595.6, -15669.511, 0.02455635, 0.05789843, -1119165.8, 616567.6, 0.00075215206, 10.005509, 9.997058 
8.5047346e+1, 1.328804e+2, -1056125.9, -1646511.9, 27320.826, -0.021624248, -0.0668688, -1054864.3, 582907.1, 0.00044308644, 10.005146, 9.997315 
8.504311e+1, 1.4287852e+2, -979791.8, -1483864.4, 9824.161, -0.017536104, -0.012962602, -979600.44, 560188.4, 0.00018458901, 10.004673, 9.997985 
8.503845e+1, 1.5287663e+2, -976294.4, -1417710.3, 2265.3694, 0.0003683727, -0.014832556, -976282.75, 465523.0, 0.00003827102, 10.003964, 9.998107 
8.5033506e+1, 1.6287471e+2, -945584.25, -1310204.6, -4245.263, 0.0035205397, -0.030781593, -945534.8, 398287.8, 0.0000010479538, 10.003322, 9.998483 
8.5028106e+1, 1.7287269e+2, -909769.94, -1231020.1, 2063.4192, -0.024304504, -0.093609445, -909756.7, 336082.8, 0.0, 10.002847, 9.998582 
8.502291e+1, 1.82871e+2, -879137.06, -1151207.5, 5167.741, -0.02878314, -0.12472371, -879038.94, 268816.06, 0.0, 10.002322, 9.998711 
8.501822e+1, 1.9287017e+2, -872068.2, -1093280.4, 347.00665, 0.017997494, -0.085701905, -872067.6, 177797.89, 0.0, 10.001681, 9.998744 
8.501323e+1, 2.028694e+2, -832025.44, -977582.7, 1454.3729, 0.03086073, -0.050272983, -832010.94, 119864.09, 0.0, 10.001086, 9.999152 
8.500756e+1, 2.1286882e+2, -797481.2, -898151.8, 4397.2036, -0.033310853, -0.038202062, -797289.5, 56592.117, 0.0, 10.000599, 9.999259 
8.5002255e+1, 2.228682e+2, -772663.5, -832642.56, 3025.0764, -0.059523426, -0.022814527, -772511.3, -16622.273, 0.0, 10.000084, 9.999285 
8.499781e+1, 2.3286778e+2, -759063.2, -774755.0, -1249.138, 0.0034524123, 0.0016028144, -758964.4, -101068.08, 0.0, 9.999502, 9.9992895 
8.4993225e+1, 2.4286751e+2, -718740.8, -673809.2, 8815.204, 0.042763814, 0.03631349, -672141.6, -112239.875, 0.0, 9.998973, 9.999564 
8.4988296e+1, 2.5286755e+2, -675148.0, -593652.25, 15557.289, 0.020956296, 0.07250393, -590783.44, -128880.39, 0.0, 9.998564, 9.999639 
8.4983426e+1, 2.628673e+2, -624072.94, -484387.1, 22575.215, 0.0019077088, 0.076723225, -480829.22, -116922.94, 0.0, 9.998096, 9.999942 
8.497885e+1, 2.7286696e+2, -608473.94, -417316.8, 22527.838, 0.00054154225, 0.03682892, -414697.8, -148788.36, 0.0, 9.997493, 10.00002 
8.497453e+1, 2.8286725e+2, -564504.1, -313197.8, 26042.414, 0.017889526, 0.053074107, -310527.47, -142621.06, 0.000000007967864, 9.996984, 10.000307 
8.4970534e+1, 2.9286823e+2, -504229.47, -224189.38, 21379.26, 0.058610436, 0.107593365, -222566.61, -152670.36, 0.0000034232567, 9.996685, 10.000389 
8.4965944e+1, 3.028672e+2, -507852.88, -164997.13, 12939.533, 0.056725066, -0.03995808, -164509.47, -164509.47, 0.00004462947, 9.996171, 10.0007105 
8.496113e+1, 3.1286862e+2, -524034.7, 24127.975, 55159.5, 0.027910907, 0.015817264, 29623.37, 29623.37, 0.00017880679, 9.995213, 10.002471 
9.505711e+1, 1.2288851e+2, -1093823.4, -1702960.3, -32960.42, 0.0012533512, 0.041478023, -1092045.1, 643648.06, 0.00070286455, 10.005507, 9.997427 
9.5052534e+1, 1.3288504e+2, -1029050.25, -1590110.5, 13997.655, -0.01809136, -0.07246001, -1028701.25, 609023.94, 0.00041104836, 10.005145, 9.997704 
9.5047957e+1, 1.4288345e+2, -976407.9, -1476336.5, -14360.604, 0.00008066768, -0.013990872, -975995.7, 563743.56, 0.00016795377, 10.00467, 9.998037 
9.5042366e+1, 1.5288144e+2, -979085.56, -1423384.1, -24680.844, -0.0039760545, -0.026920909, -977718.75, 464039.53, 0.00003269821, 10.003963, 9.998069 
9.503668e+1, 1.6287951e+2, -933908.5, -1285974.4, -23856.389, -0.011551863, -0.045681424, -932299.3, 411476.16, 0.00000057940093, 10.003322, 9.998649 
9.503097e+1, 1.7287788e+2, -894483.25, -1199072.4, -15558.04, -0.022986075, -0.09259948, -893690.6, 352097.84, 0.0, 10.002846, 9.998802 
9.502527e+1, 1.8287641e+2, -883671.75, -1160383.5, -17676.953, -0.024970971, -0.112822175, -882547.06, 265254.75, 0.0, 10.002321, 9.998648 
9.5019644e+1, 1.9287543e+2, -881678.44, -1113252.6, -23834.752, -0.0068936045, -0.07509194, -879250.75, 170563.39, 0.0, 10.001681, 9.998607 
9.5014036e+1, 2.0287453e+2, -831015.94, -975542.6, -18037.371, 0.0037710657, -0.04490582, -828798.8, 123026.195, 0.0, 10.001086, 9.9991665 
9.500845e+1, 2.1287388e+2, -793574.56, -890065.0, -13770.786, -0.0033093204, -0.04484336, -791647.7, 62184.086, 0.0, 10.000599, 9.999315 
9.500285e+1, 2.2287326e+2, -776975.06, -841547.06, -18215.26, -0.009162331, -0.03253308, -772191.1, -16351.772, 0.0, 10.000084, 9.999224 
9.499718e+1, 2.3287289e+2, -765586.0, -788150.75, -23256.225, -0.009544648, 0.007266187, -751019.94, -93173.086, 0.0, 9.999501, 9.999198 
9.499173e+1, 2.4287267e+2, -713730.25, -663290.06, -7924.9873, -0.004288734, 0.049340766, -662074.2, -102222.06, 0.0, 9.998973, 9.999637 
9.498675e+1, 2.528727e+2, -667070.25, -576854.2, 294.9131, 0.0100021055, 0.07535349, -576853.25, -115000.84, 0.0, 9.998564, 9.999755 
9.498169e+1, 2.6287243e+2, -624411.94, -485105.16, 1275.999, 0.018516224, 0.06738381, -485093.47, -121238.0, 0.0, 9.998096, 9.999937 
9.497654e+1, 2.7287188e+2, -610963.6, -422454.6, -433.95215, 0.020322535, 0.011073506, -422453.6, -156593.16, 0.0, 9.997493, 9.999985 
9.497165e+1, 2.8287214e+2, -571073.6, -326850.53, 12481.243, 0.03165596, 0.030686272, -326214.3, -158356.55, 0.0000000042394483, 9.996984, 10.000213 
9.4967115e+1, 2.9287347e+2, -511919.28, -240151.02, 10178.722, 0.04792665, 0.13177449, -239770.31, -169925.47, 0.000002739973, 9.996685, 10.000279 
9.496195e+1, 3.0287254e+2, -501592.97, -151858.42, -18904.426, 0.04027785, -0.0061906395, -150839.53, -150839.53, 0.000038513957, 9.99617, 10.000801 
9.4956636e+1, 3.1287357e+2, -519216.7, 34889.39, 21668.832, 0.05732804, -0.00022750128, 35735.477, 35735.477, 0.00016003304, 9.995209, 10.002546 
1.0506242e+2, 1.2289344e+2, -1108115.9, -1698881.5, 12235.232, -0.011554542, 0.013809923, -1107862.6, 627781.6, 0.00066121476, 10.0053625, 9.997525 
1.050575e+2, 1.3289036e+2, -1084286.4, -1607508.4, 39413.977, -0.014735289, -0.0679585, -1081334.0, 556338.8, 0.00038511824, 10.004726, 9.997786 
1.0505246e+2, 1.42889e+2, -1046179.56, -1498893.6, -4151.267, 0.010871051, 0.0024682176, -1046141.5, 493543.63, 0.00015569467, 10.004144, 9.9981365 
1.0504612e+2, 1.5288682e+2, -1012622.7, -1428093.9, -5373.2314, -0.010660547, -0.03466509, -1012553.2, 429152.1, 0.000029462259, 10.003684, 9.998171 
1.0503981e+2, 1.6288489e+2, -945864.7, -1285239.4, 1435.5784, -0.024913836, -0.064255394, -945858.6, 397864.16, 0.0000004316036, 10.003211, 9.998707 
1.0503377e+2, 1.7288351e+2, -912759.94, -1202656.0, -2070.2896, -0.019403998, -0.09059889, -912745.2, 332988.53, 0.0, 10.002698, 9.998849 
1.05027586e+2, 1.8288222e+2, -902192.8, -1162220.5, -11649.521, -0.017119043, -0.096979246, -901671.94, 246073.45, 0.0, 10.002164, 9.998711 
1.0502113e+2, 1.9288127e+2, -889234.56, -1109303.1, -4036.7898, -0.022742543, -0.06259939, -889160.5, 160596.63, 0.0, 10.001597, 9.998674 
1.05014876e+2, 2.0288034e+2, -842950.94, -984224.0, 11638.111, -0.01739634, -0.03949604, -841998.56, 109769.61, 0.0, 10.001018, 9.99914 
1.050091e+2, 2.1287951e+2, -825084.56, -910791.25, 8800.409, 0.011176477, -0.05257113, -824190.25, 29586.227, 0.0, 10.000407, 9.999265 
1.0500311e+2, 2.228788e+2, -807615.8, -857562.9, 3491.3455, 0.020144474, -0.044517193, -807372.94, -51588.22, 0.0, 9.999879, 9.999212 
1.0499665e+2, 2.3287858e+2, -761614.3, -786398.8, 5603.2666, -0.013415378, 0.009991407, -760406.4, -102615.234, 0.0, 9.999529, 9.999196 
1.0499054e+2, 2.4287842e+2, -694245.7, -654661.9, 21780.281, -0.027502883, 0.05954882, -645024.2, -85228.31, 0.0, 9.999109, 9.99963 
1.049852e+2, 2.5287837e+2, -672761.75, -580501.8, 20518.37, 0.0006607284, 0.07597961, -576144.4, -114347.586, 0.0, 9.9985285, 9.999746 
1.04979776e+2, 2.62878e+2, -639634.06, -499087.56, 14990.096, 0.021109132, 0.06122828, -497506.56, -133705.92, 0.0, 9.998019, 9.999878 
1.04974195e+2, 2.7287742e+2, -589853.2, -420559.13, 10567.386, 0.028529476, 0.0067172963, -419902.06, -154095.84, 0.0, 9.997673, 9.999911 
1.04968846e+2, 2.8287762e+2, -534236.3, -311739.97, 24587.457, 0.04025693, 0.030199088, -309055.25, -141251.44, 0.0000000012344323, 9.997248, 10.000191 
1.0496373e+2, 2.92879e+2, -520170.7, -245007.9, 29709.785, 0.044293936, 0.13733873, -241836.64, -172046.19, 0.0000020653147, 9.996632, 10.000273 
1.04957916e+2, 3.0287805e+2, -529998.0, -165925.63, -8802.354, 0.030029058, -0.00058564893, -165712.94, -165712.94, 0.00003243676, 9.9959755, 10.000798 
1.04951955e+2, 3.1287915e+2, -514047.78, 28770.48, 21319.713, 0.06515224, 0.011513771, 29606.547, 29606.547, 0.00014091349, 9.995281, 10.00247 
1.1506775e+2, 1.2289913e+2, -1120098.6, -1724237.6, -13726.97, -0.014671861, -0.024694858, -1119786.9, 615799.8, 0.00062713854, 10.005364, 9.99735 
1.1506223e+2, 1.3289638e+2, -1100369.3, -1640128.0, 15565.274, -0.0137713, -0.05464519, -1099920.8, 537693.6, 0.00036497976, 10.004723, 9.997564 
1.1505663e+2, 1.4289512e+2, -1036439.06, -1478074.8, -22550.209, 0.0125898225, 0.03488705, -1035290.6, 504336.0, 0.00014740865, 10.004141, 9.9982815 
1.1504971e+2, 1.5289283e+2, -995554.25, -1393011.3, -22224.402, -0.020256259, -0.038225025, -994315.44, 447331.5, 0.000028168095, 10.003685, 9.998411 
1.1504291e+2, 1.6289082e+2, -949212.3, -1292326.3, -17438.709, -0.036687844, -0.08616999, -948328.3, 395336.2, 0.0000005104879, 10.003212, 9.998658 
1.1503652e+2, 1.7288958e+2, -921772.9, -1221041.1, -21409.52, -0.0143838525, -0.08774083, -920249.06, 325426.25, 0.0, 10.002696, 9.998723 
1.15029864e+2, 1.8288843e+2, -889273.0, -1135096.3, -32584.273, -0.00607788, -0.07760019, -885027.25, 262658.63, 0.0, 10.002162, 9.9988985 
1.1502265e+2, 1.9288771e+2, -870308.25, -1069983.6, -25313.809, -0.029841011, -0.048469644, -867149.06, 182545.56, 0.0, 10.001596, 9.998944 
1.1501574e+2, 2.0288682e+2, -847762.75, -994186.75, -11005.851, -0.03294571, -0.03407515, -846940.1, 104764.41, 0.0, 10.001018, 9.999071 
1.150095e+2, 2.128857e+2, -836103.25, -933717.4, -14187.168, 0.00998906, -0.061425727, -834083.06, 19632.682, 0.0, 10.000407, 9.999107 
1.1500307e+2, 2.2288486e+2, -804997.4, -852146.8, -11635.495, 0.028275367, -0.058847167, -802282.3, -46556.96, 0.0, 9.999879, 9.999249 
1.1499623e+2, 2.3288487e+2, -755458.4, -773584.94, -7349.7095, -0.008405455, 0.009998662, -752852.8, -95123.54, 0.0, 9.999529, 9.999285 
1.14989646e+2, 2.428848e+2, -700429.3, -667479.44, 1586.1555, -0.027239531, 0.06716839, -667403.3, -107670.28, 0.0, 9.999109, 9.999543 
1.1498364e+2, 2.528845e+2, -682171.1, -599940.56, -1549.0458, -0.007311253, 0.07421271, -599911.4, -138175.03, 0.0, 9.998528, 9.999614 
1.14977665e+2, 2.62884e+2, -647560.7, -515485.63, 100.35768, 0.009407904, 0.058134448, -515485.56, -151743.77, 0.0, 9.998019, 9.999765 
1.1497183e+2, 2.728835e+2, -597576.2, -436725.16, -2320.8843, 0.024920618, 0.023816762, -436691.66, -170944.83, 0.0, 9.997673, 9.999801 
1.14966124e+2, 2.8288373e+2, -530526.06, -304107.16, 3362.145, 0.043422416, 0.0516206, -304057.25, -136312.7, 0.00000000006210851, 9.997248, 10.000243 
1.14960395e+2, 2.9288486e+2, -513214.1, -230315.33, 6120.3228, 0.047394764, 0.1241664, -230182.98, -160450.0, 0.0000014487281, 9.99663, 10.000374 
1.14953846e+2, 3.0288386e+2, -537290.94, -180404.36, -34888.37, 0.025504105, -0.023203915, -177025.75, -177025.75, 0.000026628812, 9.995973, 10.0007 
1.1494709e+2, 3.128854e+2, -530973.5, -5576.5, -2058.16, 0.05031597, 0.051142745, -5568.4375, -5568.4375, 0.00012196141, 9.995278, 10.002235 
1.2507322e+2, 1.22905865e+2, -1130978.5, -1734674.0, -3346.6501, -0.0005285653, -0.010675055, -1130960.0, 604561.2, 0.0005998915, 10.005312, 9.997304 
1.2506686e+2, 1.3290292e+2, -1123021.6, -1660619.6, 38561.42, -0.017569935, -0.0504884, -1120269.8, 517281.5, 0.00034984888, 10.004608, 9.9974785 
1.2506057e+2, 1.4290161e+2, -1050929.6, -1476750.3, 11766.185, 0.0010237648, 0.036375687, -1050604.8, 488959.53, 0.00014235271, 10.0040045, 9.998356 
1.250533e+2, 1.5289956e+2, -1001526.94, -1382824.6, 4866.9067, -0.023937711, -0.023816949, -1001464.8, 440116.97, 0.000028310245, 10.003588, 9.9985285 
1.2504606e+2, 1.6289769e+2, -966055.44, -1298954.5, 780.1259, -0.036063958, -0.06644162, -966053.6, 377544.34, 0.00000076062963, 10.003089, 9.998672 
1.2503903e+2, 1.7289633e+2, -964124.0, -1243064.3, 3482.3162, -0.017895505, -0.078254975, -964080.56, 281529.63, 0.0, 10.002412, 9.998709 
1.2503183e+2, 1.8289515e+2, -930320.94, -1145561.1, -1096.0017, -0.010010921, -0.074750274, -930315.4, 217305.89, 0.0, 10.00184, 9.998981 
1.2502424e+2, 1.9289455e+2, -876883.9, -1061006.1, -4362.647, -0.025991183, -0.04365662, -876780.56, 172847.69, 0.0, 10.001499, 9.999053 
1.2501684e+2, 2.0289375e+2, -834374.94, -984918.7, 1478.7344, -0.028380267, -0.028090479, -834360.44, 117276.484, 0.0, 10.001097, 9.999097 
1.2500986e+2, 2.128926e+2, -815130.7, -923352.94, 8714.781, -0.0004453261, -0.05761351, -814433.44, 39214.54, 0.0, 10.00055, 9.99911 
1.2500288e+2, 2.228917e+2, -787307.6, -848618.7, 21253.006, 0.013692402, -0.059114076, -780661.0, -25003.135, 0.0, 10.000022, 9.999205 
1.2499582e+2, 2.328916e+2, -756909.2, -780565.0, 16336.0, -0.0029977332, 0.0026341903, -748568.7, -90905.734, 0.0, 9.999546, 9.9992285 
1.249889e+2, 2.4289143e+2, -704803.3, -673423.75, 17720.65, -0.01247299, 0.056059867, -665445.2, -105777.78, 0.0, 9.999096, 9.999509 
1.24982245e+2, 2.5289115e+2, -660794.1, -592867.75, 21471.053, -0.00790295, 0.06681818, -586650.06, -124979.44, 0.0, 9.998689, 9.999585 
1.2497569e+2, 2.6289067e+2, -617222.06, -505279.5, 32015.414, -0.0021566811, 0.054316998, -496770.0, -133094.06, 0.0, 9.998246, 9.999726 
1.2496943e+2, 2.7289015e+2, -593071.7, -439493.03, 35121.28, 0.014263921, 0.022478573, -431842.4, -166161.23, 0.0, 9.997725, 9.999757 
1.2496326e+2, 2.828903e+2, -539544.1, -309734.66, 37229.66, 0.03568696, 0.047687378, -303853.84, -136174.47, 0.0, 9.99719, 10.000232 
1.2495698e+2, 2.928913e+2, -514552.06, -230681.22, 31131.9, 0.04395878, 0.1066422, -227307.11, -157638.13, 0.00000094519226, 9.996619, 10.000377 
1.2494986e+2, 3.0289024e+2, -520712.3, -176861.84, -10675.187, 0.024380425, -0.04490956, -176530.73, -176530.73, 0.000021325412, 9.996105, 10.000661 
1.2494268e+2, 3.1289205e+2, -473815.44, 5768.1245, 33121.598, 0.0589414, 0.06155053, 8044.802, 8044.802, 0.00010374891, 9.99574, 10.00209 
1.3507883e+2, 1.2291361e+2, -1126125.1, -1723285.1, -31987.893, 0.028996412, 0.053846613, -1124416.5, 611031.4, 0.00057811197, 10.005306, 9.997385 
1.3507138e+2, 1.3291003e+2, -1118873.6, -1652936.4, 12798.335, -0.026829185, -0.054575462, -1118567.1, 518916.16, 0.000338482, 10.004612, 9.99753 
1.3506433e+2, 1.4290851e+2, -1050238.3, -1476032.0, -5895.637, -0.02414101, 0.008323987, -1050156.6, 489341.3, 0.00013949658, 10.004007, 9.998359 
1.350569e+2, 1.5290706e+2, -1002592.9, -1384069.3, -10600.842, -0.023033557, 0.007824172, -1002298.5, 439211.66, 0.000029304783, 10.003583, 9.998522 
1.3504925e+2, 1.629055e+2, -961236.06, -1288064.9, -22720.662, -0.02455561, -0.0065254057, -959664.1, 383859.38, 0.0000011234471, 10.003085, 9.998749 
1.3504133e+2, 1.7290378e+2, -957146.2, -1228883.4, -22006.002, -0.03044209, -0.06263138, -955375.56, 290162.88, 0.0, 10.002413, 9.998806 
1.3503346e+2, 1.8290237e+2, -931502.6, -1148412.0, -16279.974, -0.028943226, -0.08813029, -930287.56, 217263.92, 0.0, 10.001842, 9.998961 
1.3502587e+2, 1.929018e+2, -880594.3, -1068789.6, -16801.225, -0.011591645, -0.04776106, -879106.2, 170451.94, 0.0, 10.001499, 9.999 
1.3501817e+2, 2.0290112e+2, -826194.9, -967933.7, -17625.527, -0.0043464475, -0.02151494, -824036.0, 127529.34, 0.0, 10.001097, 9.999213 
1.3501021e+2, 2.1290024e+2, -803823.06, -899880.9, -12055.938, -0.02045716, -0.04122921, -802333.06, 51240.07, 0.0, 10.000549, 9.999271 
1.3500252e+2, 2.2289936e+2, -796431.0, -867481.25, 2767.6135, -0.023885483, -0.045334768, -796323.3, -40741.066, 0.0, 10.000021, 9.999076 
1.3499542e+2, 2.3289876e+2, -771231.8, -810289.7, -1454.2239, 0.0025801375, -0.012286575, -771177.75, -113585.58, 0.0, 9.999546, 9.999024 
1.3498828e+2, 2.4289834e+2, -703420.7, -670574.25, 1834.8176, 0.016694346, 0.02609405, -670472.06, -110872.95, 0.0, 9.999096, 9.999528 
1.34981e+2, 2.528983e+2, -655370.3, -581715.25, 6193.2466, -0.0013164858, 0.053876787, -581198.1, -119598.586, 0.0, 9.998689, 9.999661 
1.3497381e+2, 2.6289794e+2, -614688.75, -500211.97, 13216.436, -0.01398147, 0.04966455, -498705.94, -135102.86, 0.0, 9.998247, 9.999761 
1.3496697e+2, 2.728973e+2, -591337.1, -435884.78, 15560.498, -0.0038181078, 0.0025111078, -434342.5, -168733.3, 0.0, 9.997725, 9.999782 
1.3496025e+2, 2.8289735e+2, -544957.44, -320803.2, 16194.73, 0.016574007, 0.018240366, -319639.2, -152030.89, 0.0, 9.9971895, 10.000156 
1.3495348e+2, 2.9289833e+2, -521593.47, -245184.55, 9555.848, 0.033457804, 0.08443022, -244854.6, -175256.16, 0.0000005800232, 9.996619, 10.0002775 
1.3494599e+2, 3.028972e+2, -518996.78, -173096.31, -26149.855, 0.026277088, -0.06632265, -171130.58, -171130.58, 0.000016654767, 9.996105, 10.000688 
1.3493873e+2, 3.1289908e+2, -477320.06, -1115.5934, 22138.625, 0.09064322, 0.041725, -88.589165, -88.589165, 0.00008670888, 9.995739, 10.002044 
1.4508404e+2, 1.2292171e+2, -1171776.5, -1737584.1, -5874.185, 0.037652165, 0.087931745, -1171715.5, 563655.0, 0.00055966154, 10.004958, 9.997454 
1.4507587e+2, 1.329181e+2, -1131501.3, -1654296.1, 40698.6, -0.032985352, -0.028252285, -1128351.9, 509054.16, 0.00032903545, 10.004504, 9.997572 
1.4506826e+2, 1.4291656e+2, -1050186.3, -1471763.1, 22786.36, -0.03165605, 0.02887088, -1048958.3, 490462.38, 0.00013742305, 10.003989, 9.998397 
1.4506039e+2, 1.5291512e+2, -1040612.7, -1398398.9, 21569.844, -0.01745282, 0.026168264, -1039317.0, 402115.6, 0.000030403968, 10.0033045, 9.998558 
1.4505225e+2, 1.629136e+2, -1010315.7, -1308555.1, 11790.028, -0.01514384, 0.012041116, -1009850.3, 333595.16, 0.0000014997779, 10.002734, 9.998776 
1.4504366e+2, 1.7291196e+2, -955936.4, -1225712.6, 7320.407, -0.038003035, -0.0392964, -955737.9, 289721.8, 0.0, 10.00241, 9.99883 
1.4503527e+2, 1.829105e+2, -909256.7, -1141671.6, 10392.35, -0.042039353, -0.06723351, -908792.94, 238679.92, 0.0, 10.00201, 9.998926 
1.450274e+2, 1.9290973e+2, -893235.8, -1080618.3, 10142.428, -0.0046778503, -0.044828586, -892688.44, 156792.95, 0.0, 10.001437, 9.998949 
1.4501935e+2, 2.0290895e+2, -843003.94, -967544.44, 9195.422, 0.010751537, -0.028197547, -842328.6, 109160.53, 0.0, 10.000945, 9.9992895 
1.4501077e+2, 2.1290825e+2, -783019.75, -877633.06, 11107.965, -0.02408638, -0.03827994, -781733.1, 71761.3, 0.0, 10.00064, 9.99938 
1.4500253e+2, 2.2290744e+2, -768649.44, -864033.2, 21908.748, -0.036829, -0.039768633, -763857.94, -8355.321, 0.0, 10.000255, 9.998987 
1.4499503e+2, 2.3290655e+2, -760618.6, -821052.94, 21538.1, 0.0025483917, -0.020782473, -753728.25, -96213.14, 0.0, 9.999687, 9.998882 
1.449875e+2, 2.4290596e+2, -693997.1, -669970.8, 30049.035, 0.023885494, 0.008558153, -649622.56, -90098.74, 0.0, 9.999178, 9.999493 
1.4497973e+2, 2.5290594e+2, -639131.25, -574829.0, 29125.143, -0.0013705749, 0.039690487, -563598.44, -102074.65, 0.0, 9.998804, 9.999653 
1.4497206e+2, 2.6290557e+2, -598355.94, -490601.75, 25687.412, -0.018538896, 0.036347896, -484791.44, -121264.445, 0.0, 9.998352, 9.999777 
1.4496467e+2, 2.729049e+2, -592337.4, -433616.94, 26025.365, -0.005356155, -0.016603278, -429458.5, -163925.34, 0.0, 9.997706, 9.999805 
1.4495741e+2, 2.8290492e+2, -556378.06, -334813.7, 30374.502, 0.016225819, -0.002441112, -330725.06, -163192.61, 0.0, 9.9971485, 10.00008 
1.4495015e+2, 2.9290587e+2, -503593.97, -247754.27, 24722.611, 0.028495507, 0.07264539, -245387.14, -175864.16, 0.00000034163278, 9.996791, 10.000176 
1.4494213e+2, 3.0290473e+2, -481313.63, -147500.94, -12094.808, 0.019861609, -0.08041737, -147063.3, -147063.3, 0.000012640429, 9.996331, 10.000754 
1.4493454e+2, 3.129065e+2, -492729.4, -9375.901, 41217.133, 0.102200076, 0.008737498, -5886.374, -5886.374, 0.000071064576, 9.995637, 10.002036 
1.5508887e+2, 1.22930184e+2, -1167640.8, -1729517.0, -25382.447, 0.024617532, 0.093042515, -1166496.4, 568792.75, 0.00054183044, 10.00496, 9.997509 
1.5508033e+2, 1.329271e+2, -1129906.4, -1650111.5, 24245.898, -0.037112083, 0.02716717, -1128778.8, 508541.0, 0.0003192829, 10.0045, 9.997602 
1.5507233e+2, 1.4292574e+2, -1045552.8, -1461222.8, -1033.5717, -0.023059415, 0.09625778, -1045550.25, 493782.44, 0.00013456425, 10.003985, 9.998471 
1.550638e+2, 1.5292376e+2, -1034739.4, -1386587.8, -4141.27, -0.008106062, 0.031793945, -1034690.6, 406658.5, 0.000030851406, 10.003305, 9.998638 
1.5505506e+2, 1.6292201e+2, -1011749.5, -1311981.3, -3016.4387, -0.00836556, -0.009324527, -1011719.2, 331644.7, 0.0000017715286, 10.002736, 9.998753 
1.5504602e+2, 1.7292084e+2, -959776.0, -1233428.9, -4555.711, -0.041221656, -0.008067529, -959700.2, 285673.78, 0.0, 10.002408, 9.998777 
1.5503718e+2, 1.8291959e+2, -912997.56, -1149053.0, -9326.963, -0.050046206, -0.012716376, -912629.6, 234755.88, 0.0, 10.002008, 9.998877 
1.5502883e+2, 1.9291829e+2, -896501.4, -1087598.9, -11572.86, -0.0055455314, -0.03530882, -895803.1, 153595.17, 0.0, 10.001437, 9.998901 
1.5502034e+2, 2.029172e+2, -840530.2, -962681.5, -4291.973, 0.016869217, -0.04812165, -840379.56, 111028.91, 0.0, 10.000945, 9.999323 
1.5501153e+2, 2.1291666e+2, -779096.2, -869602.0, -94.33609, -0.011609306, -0.04854077, -779096.1, 74315.79, 0.0, 10.00064, 9.999436 
1.5500289e+2, 2.2291593e+2, -772150.06, -871303.44, 2400.3416, -0.025571262, -0.04226034, -772092.0, -16673.146, 0.0, 10.000255, 9.998937 
1.5499467e+2, 2.32915e+2, -766158.8, -832536.8, -63.94805, -0.0033939863, -0.022763005, -766158.75, -108726.91, 0.0, 9.999687, 9.998804 
1.5498652e+2, 2.4291426e+2, -700504.56, -683569.8, 14514.32, 0.008681535, 0.0034993102, -675233.56, -115792.1, 0.0, 9.999178, 9.999399 
1.5497847e+2, 2.5291404e+2, -645857.9, -588874.75, 15377.891, -0.008316771, 0.024187401, -584989.6, -123546.19, 0.0, 9.998804, 9.999557 
1.5497044e+2, 2.6291358e+2, -598767.8, -491421.03, 3389.8005, -0.015923249, 0.014407883, -491314.1, -127866.31, 0.0, 9.998352, 9.999771 
1.5496251e+2, 2.7291292e+2, -590945.3, -430672.7, 1444.0864, 0.009416654, -0.03488348, -430659.7, -165206.55, 0.0, 9.997706, 9.9998255 
1.5495475e+2, 2.8291303e+2, -561754.1, -346049.34, 14842.648, 0.03451566, -0.0144347735, -345032.8, -177580.94, 0.0, 9.9971485, 10.000003 
1.5494694e+2, 2.9291397e+2, -510577.25, -262370.28, 11835.044, 0.029232053, 0.07159568, -261807.23, -192364.64, 0.00000019535571, 9.996791, 10.000076 
1.5493831e+2, 3.0291274e+2, -473919.22, -132060.53, -35845.89, 0.004724981, -0.086691186, -128342.31, -128342.31, 0.000009261703, 9.99633, 10.00086 
1.5493006e+2, 3.1291428e+2, -490951.34, -5094.9404, 16963.383, 0.091186315, -0.037441835, -4503.394, -4503.394, 0.000056915687, 9.995634, 10.002067 
1.650938e+2, 1.2293922e+2, -1165262.6, -1727557.8, 8117.4707, 0.0212411, 0.07860332, -1165145.5, 570054.7, 0.0005216966, 10.004973, 9.997516 
1.6508473e+2, 1.3293628e+2, -1156517.5, -1665893.5, 56622.797, -0.037565783, 0.027751172, -1150299.1, 486930.88, 0.00030717356, 10.00433, 9.997577 
1.6507623e+2, 1.4293496e+2, -1078823.9, -1477509.3, 25275.625, -0.019534497, 0.10453524, -1077227.9, 462014.84, 0.00012975914, 10.003757, 9.998469 
1.6506702e+2, 1.5293299e+2, -1038342.6, -1388140.9, 15495.802, -0.015218881, 0.03941601, -1037657.56, 403601.78, 0.00003022276, 10.00328, 9.99864 
1.6505775e+2, 1.629312e+2, -1006363.5, -1315607.0, 17251.156, -0.016175613, -0.0027723785, -1005404.1, 337870.4, 0.0000018603824, 10.0028, 9.998697 
1.650485e+2, 1.7292996e+2, -979955.0, -1251044.8, 15600.496, -0.028856546, -0.0013056406, -979060.2, 266225.3, 0.0, 10.002304, 9.998707 
1.650393e+2, 1.8292867e+2, -932330.06, -1156781.5, 10997.648, -0.03161316, -0.005571283, -931792.5, 215504.86, 0.0, 10.001869, 9.998891 
1.6503027e+2, 1.9292742e+2, -876048.8, -1073758.0, 14486.501, -0.011803525, -0.02810314, -874993.0, 174316.27, 0.0, 10.001561, 9.998937 
1.6502126e+2, 2.029263e+2, -809262.8, -954993.94, 23739.746, 0.0010981997, -0.042279102, -805493.1, 145826.3, 0.0, 10.001192, 9.999257 
1.6501229e+2, 2.1292563e+2, -778461.7, -879747.5, 17475.297, -0.0029981458, -0.046305556, -775531.4, 77792.96, 0.0, 10.0006895, 9.999343 
1.6500331e+2, 2.2292483e+2, -775075.3, -869938.7, 13381.885, -0.00776141, -0.04285628, -773223.75, -17891.748, 0.0, 10.000223, 9.998961 
1.6499436e+2, 2.3292392e+2, -739104.3, -813240.7, 19930.484, -0.01082485, -0.025200728, -734086.0, -76742.125, 0.0, 9.999846, 9.998859 
1.6498564e+2, 2.4292317e+2, -674722.9, -682872.4, 40160.902, -0.008056514, -0.00097399123, -638430.56, -79077.23, 0.0, 9.999406, 9.999294 
1.6497739e+2, 2.529228e+2, -653547.9, -608772.94, 37526.37, 0.0014779163, 0.017721703, -587463.4, -126106.3, 0.0, 9.998822, 9.999412 
1.6496898e+2, 2.6292217e+2, -612422.25, -506222.1, 19728.037, 0.0058158264, 0.0070284694, -502675.78, -139312.94, 0.0, 9.998294, 9.999697 
1.6496032e+2, 2.729215e+2, -568178.3, -425870.9, 11687.356, 0.010677139, -0.04123134, -424917.44, -159548.75, 0.0, 9.9978895, 9.99977 
1.6495195e+2, 2.8292152e+2, -525176.7, -332619.28, 23572.498, 0.027339907, -0.020878956, -329775.6, -162407.7, 0.0, 9.997418, 9.999965 
1.6494381e+2, 2.9292244e+2, -513998.94, -267065.1, 25553.785, 0.03936639, 0.06452144, -264448.4, -195089.64, 0.00000010392393, 9.996782, 10.000048 
1.6493468e+2, 3.0292124e+2, -483981.53, -136026.45, -21798.945, 0.013266472, -0.09277474, -134666.1, -134666.1, 0.0000064948904, 9.996258, 10.000868 
1.6492566e+2, 3.129227e+2, -449009.94, 1821.2388, 22227.697, 0.07041962, -0.047367364, 2914.498, 2914.498, 0.00004432351, 9.995978, 10.001947 
1.7509884e+2, 1.22948825e+2, -1168063.0, -1733220.6, -17727.404, 0.026482504, 0.045785908, -1167507.5, 567596.3, 0.0004966031, 10.0049715, 9.997478 
1.7508909e+2, 1.3294561e+2, -1162143.4, -1677747.1, 33311.926, -0.0353578, -0.023916746, -1160000.0, 477136.75, 0.00029122975, 10.004331, 9.997495 
1.7507996e+2, 1.4294425e+2, -1084482.1, -1489336.3, 6412.6113, -0.021879992, 0.056152564, -1084380.6, 454770.1, 0.00012246918, 10.003757, 9.998388 
1.7507005e+2, 1.5294276e+2, -1044057.1, -1399801.3, -2233.5652, -0.038941998, 0.049281627, -1044043.1, 397120.16, 0.000028455253, 10.003279, 9.998561 
1.7506032e+2, 1.6294113e+2, -1012458.4, -1328063.4, -1168.4143, -0.03856276, 0.03105544, -1012454.06, 330723.47, 0.0000017482938, 10.002798, 9.998612 
1.7505108e+2, 1.729393e+2, -985988.7, -1263800.6, -2839.2056, -0.0015388466, -0.018713716, -985959.6, 259234.73, 0.0, 10.002304, 9.998619 
1.7504162e+2, 1.8293776e+2, -926969.9, -1145857.6, -1942.5007, 0.012322376, -0.044912625, -926952.6, 220255.78, 0.0, 10.001869, 9.998966 
1.750317e+2, 1.9293708e+2, -867889.1, -1056799.5, 3049.8938, -0.023755593, -0.0228159, -867839.9, 181374.61, 0.0, 10.00156, 9.999054 
1.7502207e+2, 2.0293623e+2, -820966.9, -979166.94, 6214.8184, -0.036697987, -0.010879674, -820723.1, 130498.92, 0.0, 10.001191, 9.999091 
1.7501302e+2, 2.1293516e+2, -795385.9, -914850.9, -1610.1981, 0.0015305775, -0.031716794, -795364.2, 57867.59, 0.0, 10.000689, 9.999102 
1.7500377e+2, 2.2293413e+2, -768212.5, -855717.06, -1778.2709, 0.016320148, -0.04159418, -768176.4, -12934.433, 0.0, 10.000223, 9.99906 
1.749941e+2, 2.3293334e+2, -725824.56, -785811.06, 5899.296, -0.01995983, -0.028092504, -725249.9, -67998.67, 0.0, 9.999846, 9.999048 
1.7498484e+2, 2.4293265e+2, -683008.56, -700172.6, 19641.695, -0.026563287, -0.004784131, -670155.9, -110896.516, 0.0, 9.999406, 9.999175 
1.7497645e+2, 2.5293213e+2, -667385.75, -637502.3, 15405.645, 0.027766796, 0.020396836, -630982.7, -169717.88, 0.0, 9.998822, 9.999214 
1.7496766e+2, 2.629314e+2, -622572.06, -527370.7, 3155.6367, 0.04655376, 0.014302686, -527266.2, -163993.9, 0.0, 9.998294, 9.999552 
1.7495808e+2, 2.7293056e+2, -577444.0, -445284.7, -3140.5767, -0.0019386221, -0.03559467, -445210.1, -179930.23, 0.0, 9.9978895, 9.999637 
1.7494904e+2, 2.8293046e+2, -525304.44, -333001.03, 1384.8488, -0.0059900964, -0.021583224, -332991.06, -165710.6, 0.0, 9.997418, 9.999962 
1.749408e+2, 2.929313e+2, -511296.13, -261332.13, 1551.7502, 0.05832149, 0.05165703, -261322.48, -192050.97, 0.00000004563321, 9.996781, 10.000088 
1.7493126e+2, 3.0293015e+2, -490464.94, -149503.55, -34785.137, 0.04530444, -0.09856862, -145990.94, -145990.94, 0.000004309572, 9.996257, 10.000775 
1.7492132e+2, 3.129318e+2, -467772.03, -37637.77, 13248.704, 0.039030477, -0.020337945, -37230.08, -37230.08, 0.000033325945, 9.99598, 10.001676 
1.8510355e+2, 1.22958966e+2, -1179120.8, -1732402.9, -10168.259, 0.006599916, 0.023990553, -1178933.9, 556069.5, 0.00046471547, 10.00487, 9.997532 
1.8509331e+2, 1.3295588e+2, -1171896.6, -1679860.3, 50843.113, -0.04217459, -0.037645925, -1166857.6, 470177.63, 0.0002706428, 10.004252, 9.997518 
1.8508372e+2, 1.429545e+2, -1101016.6, -1508797.3, 31957.148, -0.018901404, 0.043902308, -1098527.4, 440522.06, 0.00011256849, 10.003694, 9.998285 
1.8507323e+2, 1.5295291e+2, -1064339.6, -1424569.0, 20411.277, -0.045406654, 0.039433483, -1063186.8, 377876.84, 0.000025628871, 10.003204, 9.998426 
1.85063e+2, 1.6295122e+2, -1023817.2, -1340559.3, 20811.584, -0.04774606, 0.02557576, -1022455.56, 320623.3, 0.0000014601997, 10.00275, 9.99855 
1.8505344e+2, 1.7294942e+2, -981313.6, -1266598.0, 22269.775, 0.002250504, -0.015339829, -979585.7, 265509.94, 0.0, 10.002358, 9.998574 
1.8504362e+2, 1.8294787e+2, -916953.3, -1143726.8, 24053.352, 0.022997253, -0.03787374, -914430.1, 232679.58, 0.0, 10.00195, 9.998942 
1.8503326e+2, 1.929471e+2, -877643.56, -1063625.0, 19595.996, -0.020290947, -0.022778409, -875601.25, 173514.95, 0.0, 10.001502, 9.999035 
1.8502317e+2, 2.0294619e+2, -842111.25, -996651.06, 17900.705, -0.03811378, -0.01411099, -840064.8, 111059.41, 0.0, 10.001078, 9.999026 
1.850137e+2, 2.1294509e+2, -798240.3, -925018.8, 21112.918, 0.0010287251, -0.029710859, -794816.75, 58317.996, 0.0, 10.000708, 9.999023 
1.8500406e+2, 2.2294404e+2, -752888.5, -848994.94, 26904.398, 0.019199155, -0.03667735, -745869.44, 9275.912, 0.0, 10.000331, 9.999053 
1.849941e+2, 2.3294324e+2, -710846.8, -776943.3, 22471.92, -0.0089868745, -0.025657462, -703930.44, -46776.293, 0.0, 9.999943, 9.999063 
1.8498445e+2, 2.4294247e+2, -669137.3, -699972.44, 25721.604, -0.013139112, -0.0076591983, -654566.5, -95404.06, 0.0, 9.99953, 9.999117 
1.8497543e+2, 2.529418e+2, -637736.4, -631958.4, 28863.295, 0.03154129, 0.007952453, -605839.9, -144670.31, 0.0, 9.9990635, 9.999136 
1.8496607e+2, 2.6294097e+2, -589895.44, -524416.94, 24410.047, 0.0446218, 0.0025820707, -516318.56, -153140.6, 0.0, 9.998574, 9.999436 
1.8495606e+2, 2.7294022e+2, -566275.94, -453604.22, 19102.602, -0.0002816473, -0.027477594, -450453.63, -185268.11, 0.0, 9.998027, 9.999514 
1.849465e+2, 2.8294003e+2, -519579.97, -335838.06, 19253.715, -0.003914209, -0.00951042, -333842.2, -166655.22, 0.0, 9.997482, 9.999911 
1.849376e+2, 2.9294056e+2, -488281.8, -253260.69, 13808.596, 0.0525469, 0.03846351, -252452.14, -183271.75, 0.000000013949684, 9.996953, 10.00006 
1.8492743e+2, 3.0293947e+2, -471347.28, -138609.94, -19389.064, 0.03168994, -0.10743116, -137483.92, -137483.92, 0.0000026617806, 9.996382, 10.00079 
1.8491706e+2, 3.1294155e+2, -517281.94, -74833.375, 41376.727, 0.029707417, 0.012110279, -70997.19, -70997.19, 0.00002394661, 9.9957, 10.0015545 
1.9510795e+2, 1.2296967e+2, -1169702.1, -1712476.5, -35742.387, -0.038372178, 0.013367261, -1167358.6, 567540.3, 0.00042539337, 10.004868, 9.997669 
1.950974e+2, 1.3296704e+2, -1163497.0, -1662400.5, 28387.303, -0.05786169, -0.014542494, -1161887.0, 475038.5, 0.00024527192, 10.0042515, 9.997638 
1.9508748e+2, 1.4296569e+2, -1109873.9, -1527235.8, 12975.056, -0.0109774675, 0.06670781, -1109470.9, 429468.25, 0.00010016457, 10.003694, 9.998159 
1.9507653e+2, 1.5296338e+2, -1077568.1, -1452077.9, 2357.2566, -0.035479985, 0.010328745, -1077553.3, 363407.06, 0.000021878992, 10.003204, 9.998239 
1.9506578e+2, 1.6296141e+2, -1026858.56, -1346841.8, 5519.9478, -0.044552997, -0.018063342, -1026763.4, 316215.25, 0.0000010578777, 10.00275, 9.9985075 
1.950556e+2, 1.729603e+2, -981639.7, -1267346.5, 7702.059, -0.017374156, 0.008677216, -981432.25, 263557.1, 0.0, 10.002358, 9.9985695 
1.9504535e+2, 1.8295899e+2, -925571.4, -1161636.1, 7649.012, 0.00077875814, 0.0147748, -925323.8, 221677.52, 0.0, 10.00195, 9.998819 
1.9503495e+2, 1.9295748e+2, -888372.4, -1085958.9, 2754.8435, -0.00170375, -0.02809462, -888333.94, 160680.44, 0.0, 10.001502, 9.998881 
1.950246e+2, 2.0295615e+2, -839794.6, -991930.1, 3408.5688, -0.003842202, -0.0515582, -839718.3, 111307.75, 0.0, 10.001078, 9.999059 
1.9501434e+2, 2.1295542e+2, -792493.7, -913200.06, 7283.2954, -0.0049229036, -0.040136904, -792055.8, 60977.508, 0.0, 10.000708, 9.9991045 
1.9500421e+2, 2.2295454e+2, -760834.06, -865485.94, 12372.871, 0.00061558245, -0.028069234, -759391.1, -4348.9424, 0.0, 10.000331, 9.99894 
1.9499435e+2, 2.3295358e+2, -722162.4, -800479.2, 7891.4673, 0.021969145, -0.018031029, -721375.1, -64322.45, 0.0, 9.999943, 9.998901 
1.9498442e+2, 2.4295262e+2, -669059.8, -699902.5, 8673.3545, 0.03202049, -0.00972144, -666788.1, -107725.336, 0.0, 9.99953, 9.999118 
1.949743e+2, 2.5295174e+2, -634847.6, -626116.5, 11360.314, 0.012240569, -0.019848287, -618311.8, -157240.52, 0.0, 9.9990635, 9.999175 
1.949642e+2, 2.6295087e+2, -595906.06, -537153.0, 4412.5254, -0.0006728424, -0.028388398, -536823.5, -173743.44, 0.0, 9.998575, 9.999349 
1.9495425e+2, 2.729504e+2, -574455.4, -470748.97, -1545.749, 0.015544652, -0.016573057, -470725.94, -205640.31, 0.0, 9.998027, 9.999395 
1.9494437e+2, 2.8295025e+2, -526640.4, -350519.53, -793.0681, 0.033692908, 0.015792085, -350515.97, -183428.56, 0.0, 9.997482, 9.99981 
1.9493423e+2, 2.9295033e+2, -494987.72, -267309.78, -5707.069, 0.021368194, 0.024732148, -267166.8, -198081.34, 0.0000000023315327, 9.996953, 9.999964 
1.949232e+2, 3.0294922e+2, -462709.13, -120859.65, -43971.008, -0.028714262, -0.119692154, -115294.4, -115294.4, 0.0000014940416, 9.996383, 10.000912 
1.9491287e+2, 3.1295195e+2, -515528.88, -70507.77, 16526.3, 0.04185781, 0.05054026, -69894.89, -69894.89, 0.000016254342, 9.995697, 10.001586 
2.0511258e+2, 1.229813e+2, -1188250.9, -1719992.4, -21181.88, -0.055669338, 0.041828357, -1187408.4, 547377.1, 0.00037952178, 10.004735, 9.997682 
2.0510148e+2, 1.3297848e+2, -1182041.5, -1673053.1, 35567.03, -0.069606766, -0.003178483, -1179478.6, 457334.94, 0.00021578284, 10.004132, 9.9976225 
2.0509112e+2, 1.4297694e+2, -1123329.5, -1534566.6, 21985.107, -0.011501854, 0.062005185, -1122157.5, 416670.88, 0.00008567869, 10.003605, 9.998152 
2.0507978e+2, 1.5297465e+2, -1080864.4, -1454244.8, 25383.287, -0.029293738, 0.0060710753, -1079146.6, 361702.66, 0.000017460272, 10.003184, 9.998233 
2.0506859e+2, 1.6297266e+2, -1032753.2, -1364646.5, 35632.543, -0.038947172, -0.019895058, -1028970.7, 313897.22, 0.0000006346763, 10.002774, 9.998373 
2.0505784e+2, 1.7297143e+2, -991205.94, -1290510.0, 26620.156, -0.028164223, 0.013433294, -988856.75, 256023.42, 0.0, 10.002373, 9.998404 
2.0504716e+2, 1.8297002e+2, -925061.7, -1164964.8, 21177.826, -0.012979898, 0.019748349, -923206.56, 223686.9, 0.0, 10.001969, 9.998787 
2.0503661e+2, 1.9296835e+2, -879641.6, -1081553.9, 26961.717, 0.01093082, -0.037186176, -876103.4, 172803.94, 0.0, 10.001562, 9.998883 
2.0502596e+2, 2.0296694e+2, -830238.06, -997463.1, 33847.402, 0.019956393, -0.065888025, -823646.94, 127272.76, 0.0, 10.001187, 9.998968 
2.0501514e+2, 2.1296623e+2, -774249.75, -916933.7, 24396.527, -0.0039020432, -0.04011271, -770193.6, 82733.78, 0.0, 10.000887, 9.998992 
2.0500454e+2, 2.2296536e+2, -733249.44, -852962.56, 20596.482, -0.00689325, -0.020785425, -729804.94, 25131.643, 0.0, 10.000524, 9.998934 
2.0499448e+2, 2.3296434e+2, -708854.06, -791850.8, 28373.672, 0.038163424, -0.019422272, -700081.4, -43134.082, 0.0, 10.000025, 9.99892 
2.049842e+2, 2.4296331e+2, -667964.9, -699412.2, 36851.41, 0.057096783, -0.017912567, -643622.9, -84665.35, 0.0, 9.999538, 9.999117 
2.0497337e+2, 2.529624e+2, -632570.06, -625679.0, 36112.277, 0.012663221, -0.029564682, -592848.25, -131882.13, 0.0, 9.999083, 9.999169 
2.0496263e+2, 2.6296154e+2, -602401.1, -547608.4, 23276.379, -0.01394459, -0.03440199, -539055.44, -176080.55, 0.0, 9.998562, 9.999284 
2.0495218e+2, 2.729611e+2, -599028.2, -491831.1, 18732.96, 0.014781727, -0.010428412, -488651.75, -223671.05, 0.0, 9.997898, 9.999313 
2.049418e+2, 2.8296095e+2, -557557.3, -365787.16, 26016.035, 0.039537907, 0.023983687, -362320.44, -195337.27, 0.0, 9.9972725, 9.999807 
2.0493104e+2, 2.9296088e+2, -526376.4, -280293.16, 30168.307, 0.01793854, 0.020354271, -276648.7, -207666.55, 0.000000000097020676, 9.996729, 9.999983 
2.0491932e+2, 3.0295995e+2, -483300.06, -115214.64, -5857.5327, -0.04429675, -0.11617427, -115121.45, -115121.45, 0.00000072960836, 9.996174, 10.001051 
2.0490831e+2, 3.1296283e+2, -531993.8, -74609.07, 53542.64, 0.021579681, 0.05434093, -68424.84, -68424.84, 0.000010315381, 9.995567, 10.00162 
2.151174e+2, 1.2299382e+2, -1196680.1, -1736660.9, -45563.934, -0.047293123, 0.10755636, -1192862.4, 541801.3, 0.0003294782, 10.00473, 9.99757 
2.1510552e+2, 1.3299018e+2, -1192571.9, -1694899.4, 13778.409, -0.077805124, -0.0031523746, -1192194.3, 444504.94, 0.00018377845, 10.004131, 9.997474 
2.1509464e+2, 1.4298831e+2, -1115697.8, -1518894.4, 5349.4434, -0.020454349, 0.030951193, -1115626.8, 423090.34, 0.00007005206, 10.003605, 9.99826 
2.1508297e+2, 1.5298669e+2, -1068746.3, -1429117.0, 9868.078, -0.02701077, 0.02616468, -1068476.1, 372254.56, 0.000012824217, 10.003184, 9.998405 
2.1507144e+2, 1.629849e+2, -1048525.0, -1397573.0, 20479.146, -0.0313512, 0.018907443, -1047327.56, 295419.63, 0.0000002911807, 10.002774, 9.998148 
2.1506019e+2, 1.7298281e+2, -1013816.7, -1337724.6, 11698.662, -0.030604795, -0.00075206184, -1013394.75, 231373.48, 0.0, 10.002374, 9.998079 
2.1504907e+2, 1.8298095e+2, -920985.94, -1156671.0, 6087.6484, -0.018761154, -0.021990132, -920828.8, 225957.23, 0.0, 10.001969, 9.998844 
2.1503823e+2, 1.9297974e+2, -868747.94, -1059119.4, 11737.278, 0.017416533, -0.04989781, -868027.0, 180768.03, 0.0, 10.001562, 9.999037 
2.1502727e+2, 2.0297855e+2, -845214.8, -1028738.75, 21786.555, 0.033170138, -0.05734309, -842663.94, 108141.28, 0.0, 10.001188, 9.998753 
2.150161e+2, 2.1297756e+2, -795721.44, -961606.0, 13246.015, 0.0038585349, -0.029735098, -794670.44, 58146.7, 0.0, 10.000887, 9.998686 
2.150051e+2, 2.229765e+2, -726348.6, -838541.8, 3220.9675, -0.00373369, -0.014895346, -726256.25, 28572.469, 0.0, 10.000524, 9.999033 
2.1499452e+2, 2.329755e+2, -694872.0, -762747.2, 9450.458, 0.039281145, -0.0297798, -693580.75, -36742.83, 0.0, 10.000024, 9.999121 
2.1498379e+2, 2.4297455e+2, -668272.1, -700111.2, 19370.443, 0.06189484, -0.032170914, -659118.8, -100272.164, 0.0, 9.999538, 9.999112 
2.1497266e+2, 2.5297382e+2, -636441.5, -633683.06, 19080.979, 0.032797128, -0.020861384, -615931.5, -155077.55, 0.0, 9.999083, 9.999115 
2.1496138e+2, 2.62973e+2, -605659.0, -554300.0, -308.40283, 0.0048200963, -0.014995777, -554298.1, -191435.6, 0.0, 9.998562, 9.999238 
2.1494989e+2, 2.7297238e+2, -602567.0, -498999.63, -6292.125, -0.0032683185, -0.009449095, -498618.75, -233747.94, 0.0, 9.997897, 9.999265 
2.1493877e+2, 2.8297207e+2, -551089.5, -352255.9, 4683.4414, 0.012687887, 0.014518037, -352145.66, -185271.36, 0.0, 9.997272, 9.999901 
2.1492802e+2, 2.9297233e+2, -517145.0, -260873.56, 10078.652, 0.04256463, 0.026182838, -260477.8, -191607.5, 0.0, 9.996727, 10.000117 
2.1491578e+2, 3.029717e+2, -472696.06, -92629.24, -27796.406, -0.014340398, -0.095977776, -90607.09, -90607.09, 0.0000002906552, 9.996172, 10.001207 
2.1490332e+2, 3.1297418e+2, -529857.5, -69739.91, 31175.691, -0.03300844, 0.022004174, -67637.18, -67637.18, 0.0000060416633, 9.995565, 10.001655 
2.2512196e+2, 1.2300587e+2, -1253727.8, -1754866.8, -38288.35, -0.041714378, 0.09031453, -1250819.4, 483725.22, 0.00027822854, 10.004297, 9.997654 
2.2510953e+2, 1.3300234e+2, -1202788.5, -1692131.1, 40332.2, -0.083833136, -0.018122392, -1199486.6, 437092.3, 0.0001513747, 10.004028, 9.997542 
2.2509824e+2, 1.4300041e+2, -1105075.3, -1520828.0, 35461.67, -0.025936944, 0.012193155, -1102072.3, 436524.63, 0.00005459471, 10.003709, 9.998197 
2.2508618e+2, 1.5299875e+2, -1068099.6, -1439388.4, 20280.418, -0.026889436, 0.011799104, -1066995.3, 373616.06, 0.000008547725, 10.003235, 9.998311 
2.2507426e+2, 1.6299692e+2, -1044916.7, -1394348.4, 28367.883, -0.02655015, 0.0065709925, -1042628.7, 299999.4, 0.000000089216506, 10.002793, 9.99816 
2.2506265e+2, 1.7299485e+2, -1002218.94, -1327521.6, 46186.875, -0.024395166, -0.016347848, -995788.4, 248860.45, 0.0, 10.002434, 9.99812 
2.2505113e+2, 1.8299296e+2, -913674.6, -1166794.0, 51560.73, -0.014377332, -0.037508305, -903574.6, 243092.31, 0.0, 10.002079, 9.998722 
2.2503982e+2, 1.9299166e+2, -855539.2, -1070924.9, 34506.03, 0.013589716, -0.057982035, -850146.1, 198531.39, 0.0, 10.001732, 9.998875 
2.250285e+2, 2.0299043e+2, -824517.1, -1023972.94, 35660.53, 0.02927629, -0.0582296, -818333.1, 132355.66, 0.0, 10.001353, 9.998706 
2.2501712e+2, 2.1298946e+2, -793686.3, -962708.5, 47880.22, 0.016999364, -0.024058864, -781065.4, 71635.21, 0.0, 10.000911, 9.998667 
2.2500578e+2, 2.2298843e+2, -726625.75, -834447.56, 47733.2, 0.01336249, -0.006903569, -708530.8, 46181.23, 0.0, 10.000504, 9.99907 
2.2499454e+2, 2.3298742e+2, -669504.06, -744911.44, 42873.293, 0.032039247, -0.028887073, -650114.1, 6607.0474, 0.0, 10.0001745, 9.99917 
2.2498326e+2, 2.4298647e+2, -641455.75, -686975.2, 40988.234, 0.04691976, -0.03527518, -617332.2, -58602.414, 0.0, 9.999722, 9.999114 
2.2497183e+2, 2.5298578e+2, -648584.6, -640765.6, 42327.1, 0.04626645, -0.018845271, -602167.8, -141431.16, 0.0, 9.999004, 9.999104 
2.2496007e+2, 2.62985e+2, -635250.2, -572043.4, 26201.35, 0.028396118, -0.01021104, -562594.56, -199849.3, 0.0, 9.998374, 9.999207 
2.2494772e+2, 2.7298424e+2, -600828.06, -502139.7, 21198.244, -0.009854055, -0.011587209, -497779.0, -233024.3, 0.0, 9.997926, 9.999229 
2.2493593e+2, 2.8298387e+2, -530289.75, -343474.94, 28469.963, -0.0073299287, 0.0073892795, -339232.53, -172473.45, 0.0, 9.997419, 9.99989 
2.2492479e+2, 2.9298416e+2, -510160.94, -258249.92, 23390.004, 0.046062984, 0.028761994, -256096.56, -187342.06, 0.0, 9.996778, 10.000112 
2.24912e+2, 3.0298376e+2, -472244.8, -77795.55, -24135.5, -0.005890167, -0.07456696, -76324.234, -76324.234, 0.000000085825576, 9.996111, 10.001339 
2.248986e+2, 3.1298605e+2, -554930.44, -76290.97, 34018.457, -0.050544325, 0.0064346604, -73885.26, -73885.26, 0.0000031779714, 9.995369, 10.001705 
2.3512627e+2, 1.2301746e+2, -1234561.5, -1715511.1, -52029.813, -0.039657593, -0.0054510976, -1228997.3, 505430.6, 0.00022830692, 10.004299, 9.997923 
2.3511352e+2, 1.3301487e+2, -1183560.8, -1651839.0, 30916.742, -0.08828681, -0.047401514, -1181528.4, 454924.3, 0.000120438315, 10.004026, 9.99782 
2.3510191e+2, 1.4301325e+2, -1121633.8, -1554944.4, 19299.889, -0.028560992, 0.0049761822, -1120775.9, 417692.22, 0.000040458563, 10.003707, 9.997964 
2.3508939e+2, 1.5301085e+2, -1092832.9, -1491143.3, 2418.0125, -0.029202826, -0.035778407, -1092818.1, 347672.7, 0.000005095673, 10.003236, 9.997956 
2.3507707e+2, 1.6300876e+2, -1027386.0, -1358293.3, 14209.169, -0.024759727, -0.05497664, -1026776.94, 315733.6, 0.000000013161695, 10.002794, 9.998407 
2.3506522e+2, 1.7300752e+2, -974295.25, -1269624.8, 32811.26, -0.01000988, -0.03321814, -970693.8, 273828.38, 0.0, 10.002434, 9.998518 
2.3505335e+2, 1.8300602e+2, -934825.75, -1210794.5, 38328.758, -0.0005180999, -0.027402598, -929601.25, 216935.16, 0.0, 10.002079, 9.99842 
2.3504141e+2, 1.930041e+2, -888803.9, -1140127.4, 21512.13, -0.00077293004, -0.0614143, -886975.8, 161579.08, 0.0, 10.001733, 9.998399 
2.3502964e+2, 2.0300257e+2, -816116.06, -1006609.94, 19790.266, 0.00818121, -0.068330534, -814081.8, 136488.55, 0.0, 10.001353, 9.998825 
2.3501822e+2, 2.1300198e+2, -774964.6, -923883.25, 31241.752, 0.035360925, -0.023040881, -768676.0, 83901.84, 0.0, 10.000911, 9.998933 
2.3500659e+2, 2.2300121e+2, -728696.8, -838651.1, 34552.387, 0.044117544, 0.003247012, -718740.5, 35846.04, 0.0, 10.000503, 9.999042 
2.3499453e+2, 2.3300008e+2, -676657.8, -759733.6, 30630.14, 0.016131064, -0.01669187, -666585.56, -9988.651, 0.0, 10.0001745, 9.999069 
2.3498262e+2, 2.4299905e+2, -641048.2, -686181.8, 16627.809, 0.011734525, -0.027203249, -635583.8, -76977.05, 0.0, 9.999722, 9.99912 
2.3497088e+2, 2.5299826e+2, -646619.2, -636566.6, 15063.963, 0.05278145, -0.023799643, -625712.5, -165098.17, 0.0, 9.999003, 9.999133 
2.3495872e+2, 2.6299742e+2, -636455.3, -574488.2, 7428.147, 0.056670886, -0.020341707, -573610.2, -210987.1, 0.0, 9.998373, 9.999191 
2.349457e+2, 2.7299666e+2, -602465.25, -505592.66, 4671.1963, -0.0050157243, -0.016589258, -505367.94, -240735.66, 0.0, 9.997926, 9.999206 
2.349332e+2, 2.8299627e+2, -538682.9, -361154.16, 5763.4917, -0.020797824, 0.0029243985, -360967.22, -194329.78, 0.0, 9.997419, 9.999769 
2.3492137e+2, 2.9299647e+2, -520696.25, -280450.34, -739.37933, 0.027458016, 0.02770251, -280448.06, -211813.3, 0.0, 9.9967785, 9.999959 
2.3490795e+2, 3.0299628e+2, -464613.78, -61939.164, -51319.22, -0.019962985, -0.052393664, -55501.66, -55501.66, 0.000000016806371, 9.996111, 10.001449 
2.3489417e+2, 3.129985e+2, -550506.7, -66297.34, 5550.9805, -0.030707335, 0.008921206, -66233.72, -66233.72, 0.0000014346882, 9.995365, 10.001776 
2.4513045e+2, 1.2303008e+2, -1216500.6, -1703230.9, -23277.287, -0.05649901, -0.06132254, -1215389.9, 518911.56, 0.0001817259, 10.004409, 9.997954 
2.4511755e+2, 1.330279e+2, -1184567.4, -1650518.8, 44563.4, -0.08707661, -0.06490012, -1180343.6, 455979.22, 0.000092306895, 10.004012, 9.997835 
2.4510571e+2, 1.4302635e+2, -1135766.5, -1566586.9, 24208.824, -0.015094806, -0.0033971828, -1134410.4, 403927.4, 0.000028341776, 10.003632, 9.99792 
2.4509262e+2, 1.5302366e+2, -1094376.0, -1498252.8, 27423.613, -0.030104063, -0.06635942, -1092522.4, 347840.97, 0.000002657614, 10.003253, 9.997899 
2.4507982e+2, 1.6302145e+2, -1016352.25, -1353482.5, 46380.457, -0.03218498, -0.09493635, -1010087.9, 332296.5, 0.00000000018007511, 10.002873, 9.998403 
2.450677e+2, 1.7302041e+2, -966077.75, -1264482.6, 37461.75, -0.006740326, -0.053344578, -961446.7, 282947.28, 0.0, 10.002485, 9.998528 
2.450555e+2, 1.8301903e+2, -935594.7, -1218637.8, 33589.41, 0.0057993107, -0.033618525, -931663.2, 214744.17, 0.0, 10.002107, 9.998353 
2.4504307e+2, 1.9301704e+2, -892138.75, -1151434.6, 44713.074, -0.008002156, -0.06833151, -884645.0, 163782.67, 0.0, 10.001752, 9.998312 
2.4503088e+2, 2.0301546e+2, -808858.3, -999344.94, 55959.44, -0.0040068203, -0.07592617, -793635.56, 156808.52, 0.0, 10.001387, 9.998859 
2.4501918e+2, 2.1301493e+2, -756800.7, -908028.25, 52400.563, 0.036790606, -0.029596968, -740418.5, 112032.25, 0.0, 10.001005, 9.998997 
2.450072e+2, 2.2301424e+2, -715764.2, -828679.2, 48072.383, 0.05220733, 0.0015253371, -698070.5, 56387.99, 0.0, 10.000576, 9.999076 
2.4499464e+2, 2.3301327e+2, -693051.25, -764630.94, 53298.066, 0.015342579, -0.007087654, -664641.44, -8173.6445, 0.0, 10.000049, 9.999096 
2.4498218e+2, 2.4301226e+2, -666565.4, -697884.56, 40083.75, 0.0044085486, -0.01580661, -639190.94, -80713.44, 0.0, 9.999544, 9.9991255 
2.4496984e+2, 2.5301132e+2, -635066.3, -631039.44, 35166.14, 0.044914916, -0.028421499, -597829.1, -137342.56, 0.0, 9.9990835, 9.999133 
2.4495715e+2, 2.630104e+2, -606894.2, -559084.7, 28766.06, 0.05307018, -0.029639104, -545587.25, -183091.55, 0.0, 9.998571, 9.999201 
2.4494372e+2, 2.7300987e+2, -599098.25, -502656.7, 28913.068, 0.00533083, -0.010440813, -494652.84, -230149.58, 0.0, 9.997944, 9.999218 
2.449307e+2, 2.8300947e+2, -555279.94, -376644.7, 31297.791, -0.007942049, 0.011360736, -371319.9, -204811.28, 0.0, 9.997338, 9.9997015 
2.4491805e+2, 2.930094e+2, -525378.6, -292598.84, 28900.428, 0.017892884, 0.021251768, -289064.4, -220555.61, 0.0, 9.99679, 9.99987 
2.4490394e+2, 3.0300936e+2, -456073.06, -57097.973, -27619.088, -0.03696179, -0.038083147, -55195.113, -55195.113, 0.0000000018495133, 9.996167, 10.001454 
2.4488968e+2, 3.1301162e+2, -555462.06, -73253.95, 16470.604, -0.013884813, 0.025033608, -72692.02, -72692.02, 0.00000052479436, 9.995352, 10.001734 
2.551345e+2, 1.23043664e+2, -1230530.0, -1732189.8, -41603.53, -0.09164062, -0.07917969, -1227103.1, 507062.84, 0.00014040877, 10.004407, 9.997757 
2.551216e+2, 1.3304137e+2, -1200569.3, -1684669.9, 30244.299, -0.0810183, -0.07035982, -1198687.0, 437502.56, 0.000068048066, 10.004015, 9.997601 
2.551096e+2, 1.4303972e+2, -1125650.1, -1546441.4, 10234.05, 0.0131140435, -0.011866599, -1125401.4, 412804.7, 0.000018610497, 10.003634, 9.998057 
2.5509587e+2, 1.5303719e+2, -1078210.9, -1464960.5, 13172.823, -0.03026281, -0.08065185, -1077762.8, 362466.38, 0.000001166653, 10.003254, 9.998127 
2.5508252e+2, 1.6303495e+2, -1033940.56, -1390227.1, 31692.639, -0.049174268, -0.11429667, -1031143.4, 311106.5, 0.0, 10.002874, 9.998151 
2.550701e+2, 1.7303352e+2, -991581.56, -1317951.9, 22935.625, -0.014822587, -0.07623026, -989977.6, 254286.7, 0.0, 10.002488, 9.99816 
2.5505757e+2, 1.8303199e+2, -923830.06, -1194613.3, 20208.803, 0.0043985764, -0.055266924, -922330.1, 223949.52, 0.0, 10.002109, 9.998517 
2.5504482e+2, 1.930304e+2, -871381.5, -1108508.5, 31471.809, -0.0084144445, -0.07850595, -867275.6, 181020.17, 0.0, 10.001752, 9.998607 
2.550322e+2, 2.0302902e+2, -812678.0, -1007265.8, 41753.29, -0.007733212, -0.08108685, -804097.3, 146212.83, 0.0, 10.001387, 9.998805 
2.5502002e+2, 2.1302828e+2, -766674.4, -928465.5, 38075.266, 0.021023067, -0.043691006, -758161.8, 94157.56, 0.0, 10.001005, 9.998857 
2.5500762e+2, 2.2302754e+2, -709092.94, -814772.75, 29192.496, 0.037437413, -0.012062623, -701565.2, 52762.65, 0.0, 10.000575, 9.999171 
2.5499484e+2, 2.3302694e+2, -682328.6, -742323.2, 33383.285, 0.029519249, -0.000022790127, -667445.2, -11111.405, 0.0, 10.000049, 9.999249 
2.549819e+2, 2.430261e+2, -666282.2, -697271.44, 22196.049, 0.024734521, -0.0009880981, -654707.5, -96365.56, 0.0, 9.999543, 9.99913 
2.549687e+2, 2.530249e+2, -637109.0, -635344.25, 17962.078, 0.022084411, -0.03259658, -618242.9, -157889.53, 0.0, 9.9990835, 9.999104 
2.5495535e+2, 2.6302397e+2, -604496.3, -554404.0, 6286.187, 0.016817309, -0.0380078, -553627.2, -191264.1, 0.0, 9.998572, 9.999233 
2.5494182e+2, 2.7302375e+2, -595919.44, -496332.03, 5186.891, 0.021027187, 0.0069021704, -496062.6, -231694.95, 0.0, 9.997944, 9.999261 
2.549284e+2, 2.830234e+2, -556079.4, -378308.7, 10021.962, 0.031543557, 0.032904252, -377745.47, -211373.0, 0.0, 9.997338, 9.999691 
2.5491482e+2, 2.93023e+2, -527339.44, -296485.94, 8553.645, 0.017314706, 0.009441171, -296169.44, -227792.98, 0.0, 9.996789, 9.999845 
2.5489986e+2, 3.0302307e+2, -463435.28, -72417.05, -55899.95, -0.057205167, -0.03181832, -64582.57, -64582.57, 0.000000000039700524, 9.996166, 10.001349 
2.5488517e+2, 3.1302544e+2, -567000.56, -97240.35, -14660.599, -0.0009863452, 0.055236038, -96783.26, -96783.26, 0.00000015406697, 9.995351, 10.00157 
2.6513907e+2, 1.2305785e+2, -1225419.0, -1732790.1, -33408.543, -0.07671327, -0.070956275, -1223228.6, 510797.5, 0.00010608415, 10.0044565, 9.997728 
2.651256e+2, 1.3305531e+2, -1191120.5, -1684928.3, 55615.81, -0.08434873, -0.0816164, -1184934.1, 451117.56, 0.000048554684, 10.004102, 9.997557 
2.6511323e+2, 1.430535e+2, -1107275.6, -1541796.3, 39559.46, 0.004805943, -0.034432635, -1103703.4, 434366.3, 0.000011445763, 10.00378, 9.998019 
2.6509917e+2, 1.530512e+2, -1046198.4, -1453086.3, 23989.215, -0.034592442, -0.077566236, -1044788.9, 395302.06, 0.00000040636226, 10.00349, 9.998095 
2.650855e+2, 1.63049e+2, -998507.3, -1379576.0, 34380.836, -0.051881667, -0.10306664, -995430.25, 346681.3, 0.0, 10.003146, 9.998093 
2.650726e+2, 1.730472e+2, -966532.06, -1313309.6, 46099.41, -0.022093771, -0.094696164, -960508.4, 283620.88, 0.0, 10.002692, 9.998094 
2.6505965e+2, 1.8304554e+2, -902339.94, -1182288.5, 53359.027, -0.0034169813, -0.08508347, -892514.44, 253631.63, 0.0, 10.002248, 9.998535 
2.650466e+2, 1.9304425e+2, -857337.7, -1097422.3, 46581.11, -0.008126628, -0.07987778, -848616.8, 199542.8, 0.0, 10.001831, 9.998645 
2.650336e+2, 2.0304307e+2, -808753.75, -1002124.5, 46944.164, -0.007007963, -0.066706456, -797959.75, 152212.7, 0.0, 10.0014, 9.998834 
2.6502085e+2, 2.1304221e+2, -773916.25, -929132.5, 54828.992, 0.0057085007, -0.04204111, -756502.06, 95680.45, 0.0, 10.000943, 9.998882 
2.6500794e+2, 2.2304143e+2, -722075.25, -818105.3, 48680.625, 0.01758895, -0.019605903, -701714.5, 52477.09, 0.0, 10.000473, 9.999198 
2.6499483e+2, 2.3304084e+2, -689967.25, -743080.0, 42984.293, 0.029612852, -0.0077747516, -665997.5, -9799.938, 0.0, 9.999983, 9.999276 
2.649815e+2, 2.4304007e+2, -667093.75, -687027.0, 29863.348, 0.033696823, -0.0060070436, -645577.75, -87372.65, 0.0, 9.999492, 9.999225 
2.6496765e+2, 2.530391e+2, -641812.06, -625003.25, 36226.406, 0.015584214, -0.0281471, -596219.1, -136004.42, 0.0, 9.998997, 9.999216 
2.6495373e+2, 2.6303834e+2, -611251.4, -552704.6, 28746.512, 0.003030899, -0.025755567, -540950.06, -178727.1, 0.0, 9.998505, 9.999277 
2.6493976e+2, 2.7303812e+2, -583167.7, -486860.9, 25811.295, 0.018636953, 0.01939136, -480379.38, -216152.1, 0.0, 9.998018, 9.9992895 
2.6492587e+2, 2.8303775e+2, -535843.8, -359837.4, 29511.559, 0.037108883, 0.039651107, -355020.9, -188788.64, 0.0, 9.997441, 9.999767 
2.649116e+2, 2.9303735e+2, -538528.0, -292490.1, 35460.09, 0.02197702, 0.009907958, -287481.38, -219245.22, 0.0, 9.996673, 9.9999275 
2.64896e+2, 3.0303773e+2, -479549.38, -82941.31, -18244.617, -0.056729186, -0.007428809, -82103.8, -82103.8, 0.0, 9.996069, 10.001324 
2.648807e+2, 3.1303987e+2, -508027.66, -75223.234, 28150.084, -0.004269334, 0.059558254, -73400.0, -73400.0, 0.000000038019415, 9.995786, 10.001511 
2.751441e+2, 1.2307261e+2, -1216109.5, -1714331.0, -49821.24, -0.016315635, -0.037525184, -1211176.4, 522705.44, 0.000079617465, 10.00446, 9.997853 
2.751296e+2, 1.3306972e+2, -1181094.4, -1665044.9, 42596.566, -0.09770322, -0.09868601, -1177373.6, 458535.94, 0.000034200533, 10.004105, 9.997691 
2.7511653e+2, 1.430677e+2, -1121314.4, -1571709.6, 28209.154, -0.039287027, -0.070611686, -1119554.4, 418374.6, 0.000006781498, 10.003783, 9.997813 
2.7510256e+2, 1.530657e+2, -1065868.4, -1494096.5, 13204.769, -0.04361441, -0.05655827, -1065461.5, 374487.47, 0.00000010702594, 10.00349, 9.997813 
2.7508876e+2, 1.6306359e+2, -989880.25, -1361406.1, 18704.387, -0.041482605, -0.06119839, -988940.94, 353028.3, 0.0, 10.003144, 9.998219 
2.7507523e+2, 1.7306145e+2, -950979.3, -1280964.3, 29001.688, -0.029169355, -0.1088676, -948449.8, 295539.1, 0.0, 10.002691, 9.998316 
2.7506176e+2, 1.8305962e+2, -911377.9, -1201097.5, 37343.87, -0.018056156, -0.12297935, -906641.8, 239364.86, 0.0, 10.002248, 9.998405 
2.7504843e+2, 1.9305858e+2, -872341.5, -1128616.3, 31023.8, -0.0074625686, -0.072406396, -868639.3, 179379.95, 0.0, 10.00183, 9.998431 
2.7503505e+2, 2.0305759e+2, -800991.9, -985960.56, 30138.064, -0.002208545, -0.03287485, -796205.2, 153825.89, 0.0, 10.001399, 9.998945 
2.750216e+2, 2.1305674e+2, -760618.5, -901517.4, 37716.535, -0.009416172, -0.024637988, -751157.6, 100882.586, 0.0, 10.000942, 9.999072 
2.7500814e+2, 2.2305587e+2, -725287.75, -824786.2, 30407.584, -0.0076545505, -0.021099659, -716730.8, 37318.91, 0.0, 10.000473, 9.999152 
2.7499467e+2, 2.3305497e+2, -697150.94, -758044.06, 24536.9, 0.015394957, -0.03049924, -688494.4, -32435.295, 0.0, 9.999983, 9.999174 
2.7498096e+2, 2.430542e+2, -654156.44, -660206.75, 11126.781, 0.031066837, -0.030953605, -645650.9, -87583.83, 0.0, 9.999492, 9.99941 
2.7496675e+2, 2.5305384e+2, -624090.6, -588213.94, 17547.643, 0.025297036, -0.014909045, -581058.4, -120987.75, 0.0, 9.998997, 9.999469 
2.7495232e+2, 2.6305348e+2, -607381.0, -544656.25, 10316.089, 0.011620486, 0.007440667, -543003.2, -180927.83, 0.0, 9.998505, 9.999332 
2.7493757e+2, 2.73053e+2, -582365.0, -485205.47, 7708.8906, -0.0026833215, 0.026795747, -484597.63, -220515.44, 0.0, 9.998018, 9.999302 
2.74923e+2, 2.8305256e+2, -524364.8, -336085.06, 2513.4014, 0.0076269843, 0.031145936, -336051.5, -169963.5, 0.0, 9.997441, 9.999931 
2.7490836e+2, 2.9305258e+2, -525119.7, -264583.72, 6501.175, 0.031952165, 0.023108527, -264421.6, -196333.86, 0.0, 9.996672, 10.000119 
2.7489227e+2, 3.0305335e+2, -475897.28, -75387.555, -31314.783, -0.03510576, 0.035588842, -72953.92, -72953.92, 0.0, 9.996069, 10.001376 
2.7487624e+2, 3.1305486e+2, -504469.78, -69106.875, 17765.525, -0.026106456, 0.03714213, -68383.13, -68383.13, 0.00000000643165, 9.9957905, 10.001551 
2.8514877e+2, 1.2308737e+2, -1200890.0, -1706363.8, -31306.236, -0.0005911202, -0.046694823, -1198958.5, 534778.1, 0.000060548024, 10.004562, 9.997859 
2.8513372e+2, 1.3308448e+2, -1133914.1, -1641774.9, 55605.973, -0.10839885, -0.10881693, -1127897.1, 507866.94, 0.000024549381, 10.004427, 9.997696 
2.8512037e+2, 1.4308242e+2, -1072263.8, -1551572.4, 33547.395, -0.05344512, -0.08302324, -1069927.1, 467856.66, 0.000004171591, 10.004136, 9.997781 
2.8510612e+2, 1.5308045e+2, -1068295.0, -1499682.9, 33297.125, -0.03787921, -0.06109599, -1065740.0, 374063.88, 0.000000028310161, 10.003494, 9.997774 
2.850919e+2, 1.6307838e+2, -1012679.8, -1366795.0, 50356.15, -0.028662633, -0.06156901, -1005658.25, 336165.8, 0.0, 10.002965, 9.998268 
2.850778e+2, 1.7307627e+2, -946454.94, -1270429.5, 50966.758, -0.036596794, -0.11260586, -938626.2, 305216.84, 0.0, 10.002688, 9.99839 
2.8506386e+2, 1.8307447e+2, -899608.94, -1195203.1, 53224.527, -0.035127614, -0.12811087, -890317.44, 255542.95, 0.0, 10.002329, 9.998407 
2.8505018e+2, 1.9307345e+2, -878990.75, -1133886.6, 59829.14, -0.01151736, -0.07431338, -865646.25, 182227.1, 0.0, 10.001794, 9.998413 
2.850364e+2, 2.0307247e+2, -816048.2, -987563.6, 65996.41, 0.0013992148, -0.032867514, -793593.56, 156291.52, 0.0, 10.001271, 9.998997 
2.8502247e+2, 2.130717e+2, -778595.56, -902579.06, 64940.523, -0.010155001, -0.02584825, -750808.44, 101085.055, 0.0, 10.000787, 9.999141 
2.8500846e+2, 2.2307085e+2, -748610.25, -831527.25, 53810.895, -0.014053462, -0.024467045, -722139.25, 31763.316, 0.0, 10.000294, 9.999192 
2.849944e+2, 2.3306994e+2, -724227.56, -767461.75, 57658.207, 0.0014305804, -0.03776231, -684267.4, -28355.238, 0.0, 9.999782, 9.999207 
2.849802e+2, 2.4306923e+2, -679335.8, -664219.7, 47544.066, 0.016044922, -0.03685265, -623636.7, -65716.945, 0.0, 9.999285, 9.999481 
2.849656e+2, 2.530691e+2, -643953.94, -588572.44, 41469.887, 0.022505334, -0.0071871364, -566398.06, -106476.35, 0.0, 9.998821, 9.999551 
2.8495073e+2, 2.6306885e+2, -625877.7, -541218.0, 26539.482, 0.0126424115, 0.02176968, -533586.25, -171661.16, 0.0, 9.998325, 9.999442 
2.849353e+2, 2.730684e+2, -612407.25, -486371.22, 31057.6, -0.015822047, 0.028501129, -479133.7, -215202.1, 0.0, 9.997756, 9.99942 
2.8492013e+2, 2.8306794e+2, -549419.94, -334338.1, 26301.588, -0.009375251, 0.020845098, -331168.47, -165231.4, 0.0, 9.9972105, 10.000053 
2.8490505e+2, 2.9306808e+2, -508219.1, -243528.6, 23719.068, 0.033112958, 0.0145263765, -241419.92, -173484.4, 0.0, 9.996734, 10.000234 
2.848885e+2, 3.030692e+2, -447072.94, -63685.465, -12137.404, -0.026107006, 0.054313418, -63301.6, -63301.6, 0.0, 9.996277, 10.001356 
2.8487203e+2, 3.1307042e+2, -502525.88, -66980.63, 32342.809, -0.025913732, 0.02849659, -64592.016, -64592.016, 0.00000000043435586, 9.995798, 10.001562 
2.9515305e+2, 1.2310214e+2, -1206744.8, -1721173.5, -40042.47, -0.028439874, -0.09623575, -1203646.6, 529943.75, 0.00004754304, 10.004573, 9.997752 
2.9513806e+2, 1.330996e+2, -1142055.8, -1658991.8, 51413.71, -0.11748505, -0.11076483, -1136991.8, 498623.16, 0.000018613404, 10.004428, 9.997578 
2.9512462e+2, 1.4309767e+2, -1064087.3, -1533689.6, 13376.421, -0.04016999, -0.07142182, -1063706.6, 473927.25, 0.000002962463, 10.004132, 9.997906 
2.9510978e+2, 1.5309545e+2, -1055391.0, -1473177.9, 8890.245, -0.019103868, -0.09016686, -1055201.9, 384453.8, 0.00000001616714, 10.003495, 9.997955 
2.95095e+2, 1.6309337e+2, -1013843.7, -1369933.5, 37388.285, -0.014395976, -0.10258062, -1009960.44, 331715.6, 0.0, 10.002967, 9.998245 
2.9508042e+2, 1.7309168e+2, -951473.75, -1280585.3, 40930.0, -0.04485768, -0.105659924, -946459.9, 297231.84, 0.0, 10.0026865, 9.998322 
2.9506597e+2, 1.830901e+2, -891443.1, -1177563.3, 35047.066, -0.054944877, -0.10094492, -887212.75, 258494.63, 0.0, 10.002325, 9.99853 
2.9505187e+2, 1.9308886e+2, -867265.94, -1109406.8, 39694.465, -0.020545566, -0.0853539, -860924.9, 186797.0, 0.0, 10.001793, 9.998582 
2.950377e+2, 2.0308775e+2, -816787.75, -989188.8, 47407.383, 0.0035731662, -0.0661311, -804611.5, 145123.06, 0.0, 10.001271, 9.998985 
2.9502338e+2, 2.1308707e+2, -782380.06, -910489.7, 46838.996, 0.0032035098, -0.045509044, -767081.8, 84660.6, 0.0, 10.000786, 9.999086 
2.9500884e+2, 2.2308637e+2, -739911.25, -813407.3, 34686.375, -0.0019752348, -0.029645044, -726126.5, 27623.592, 0.0, 10.000293, 9.999317 
2.9499403e+2, 2.3308577e+2, -712417.9, -742993.8, 38374.844, -0.012777633, -0.029425152, -686397.9, -30641.316, 0.0, 9.999782, 9.999374 
2.9497918e+2, 2.4308519e+2, -682434.75, -670727.8, 29722.5, -0.011856683, -0.02367351, -646287.9, -88524.77, 0.0, 9.999285, 9.999437 
2.9496425e+2, 2.5308487e+2, -650590.25, -602295.75, 24197.969, 0.0068848757, -0.0052483473, -592257.75, -132489.72, 0.0, 9.99882, 9.999457 
2.9494897e+2, 2.6308456e+2, -614777.56, -517891.5, 5737.658, 0.005831729, 0.016907116, -517552.88, -155780.66, 0.0, 9.998324, 9.999603 
2.94933e+2, 2.7308428e+2, -597086.9, -454005.3, 9497.756, -0.02079613, 0.024468305, -453377.63, -189602.17, 0.0, 9.997753, 9.999643 
2.949173e+2, 2.8308392e+2, -544472.7, -323636.88, 7798.092, -0.013935514, 0.0085785, -323361.84, -157582.42, 0.0, 9.997209, 10.000129 
2.949017e+2, 2.9308397e+2, -506205.7, -239376.08, 6346.1216, 0.024490992, -0.016747307, -239225.23, -171445.69, 0.0, 9.996734, 10.000262 
2.9488474e+2, 3.0308527e+2, -453553.88, -77630.12, -29424.627, -0.030598512, 0.04801323, -75340.914, -75340.914, 0.0, 9.996279, 10.00126 
2.9486805e+2, 3.1308648e+2, -503635.0, -69990.57, 13859.506, -0.0027504868, 0.03432106, -69548.07, -69548.07, 0.0, 9.995801, 10.00154 
3.0515766e+2, 1.2311776e+2, -1136443.5, -1691136.6, -21915.596, -0.048986338, -0.10920693, -1135578.9, 597857.9, 0.000039203802, 10.0050745, 9.997717 
3.0514252e+2, 1.331152e+2, -1147760.5, -1666047.4, 77772.93, -0.112220265, -0.12124849, -1136341.6, 499119.94, 0.000015308538, 10.004408, 9.997539 
3.0512884e+2, 1.4311327e+2, -1095069.5, -1544861.9, 39695.793, -0.017446926, -0.081578985, -1091593.1, 445887.5, 0.0000025791605, 10.003904, 9.997938 
3.0511335e+2, 1.5311116e+2, -1023523.06, -1451871.3, 25772.82, -0.020709243, -0.09533599, -1021977.94, 417523.66, 0.000000026095975, 10.00369, 9.998008 
3.05098e+2, 1.6310912e+2, -962655.94, -1341825.8, 47763.88, -0.02712363, -0.10507428, -956731.7, 384789.53, 0.0, 10.003305, 9.998275 
3.0508307e+2, 1.7310743e+2, -965784.8, -1285102.5, 56603.297, -0.0413691, -0.10987221, -956048.0, 287489.13, 0.0, 10.002579, 9.9983425 
3.0506822e+2, 1.8310593e+2, -931225.06, -1181979.6, 57847.082, -0.045521628, -0.10457958, -918523.56, 227028.58, 0.0, 10.001988, 9.998662 
3.0505356e+2, 1.931049e+2, -869837.6, -1092501.8, 62716.434, -0.026793212, -0.0845347, -853387.94, 194176.39, 0.0, 10.0016985, 9.998743 
3.0503884e+2, 2.031039e+2, -808600.5, -981708.06, 67395.28, -0.010361355, -0.06619464, -785456.1, 164119.67, 0.0, 10.001313, 9.999017 
3.050241e+2, 2.1310309e+2, -791251.1, -914925.5, 69763.43, -0.0015964833, -0.055604085, -759864.0, 91720.664, 0.0, 10.000727, 9.999084 
3.0500907e+2, 2.2310242e+2, -750105.44, -808490.6, 60736.605, -0.002971428, -0.042282652, -711910.0, 41682.277, 0.0, 10.000181, 9.999405 
3.049937e+2, 2.3310202e+2, -711847.94, -730526.7, 60435.414, -0.02152001, -0.03050052, -660034.5, -4437.8276, 0.0, 9.999733, 9.999483 
3.0497834e+2, 2.431016e+2, -688695.8, -672999.2, 49039.836, -0.02403618, -0.017333586, -631183.6, -73581.5, 0.0, 9.999239, 9.999443 
3.0496293e+2, 2.5310123e+2, -677408.44, -617030.8, 48648.023, 0.00017236262, 0.0008361279, -589965.9, -130358.055, 0.0, 9.998645, 9.99944 
3.0494714e+2, 2.6310095e+2, -632295.25, -509336.56, 35598.453, 0.00214925, 0.021091612, -499773.97, -138162.13, 0.0, 9.998132, 9.999754 
3.049307e+2, 2.731008e+2, -578070.25, -423334.75, 37433.387, -0.026281988, 0.021445833, -414754.7, -151141.63, 0.0, 9.997792, 9.999835 
3.0491453e+2, 2.831005e+2, -516897.9, -310969.72, 30357.92, -0.021183744, -0.002944654, -306587.6, -140971.28, 0.0, 9.997401, 10.000122 
3.048984e+2, 2.9310042e+2, -487226.9, -237128.72, 21686.447, 0.0151832495, -0.031299043, -235262.17, -167644.53, 0.0, 9.996895, 10.000199 
3.0488098e+2, 3.031019e+2, -444541.06, -86085.35, -18427.031, -0.037128113, 0.056875467, -85140.57, -85140.57, 0.0, 9.996397, 10.001144 
3.04864e+2, 3.1310287e+2, -488581.63, -61125.33, 23233.469, 0.006733178, 0.030002782, -59866.23, -59866.23, 0.0, 9.995899, 10.001554 
3.1516257e+2, 1.2313422e+2, -1134693.6, -1687535.1, -47212.043, -0.064929776, -0.0869927, -1130690.8, 602585.44, 0.000034254797, 10.0050745, 9.997742 
3.151471e+2, 1.3313127e+2, -1144757.9, -1661399.4, 53677.133, -0.094800495, -0.14007494, -1139240.0, 496064.06, 0.000013738513, 10.004415, 9.997568 
3.1513306e+2, 1.4312921e+2, -1097839.8, -1552233.3, 29105.525, 0.013036292, -0.1124761, -1095983.0, 441341.03, 0.0000026358327, 10.00391, 9.997886 
3.151168e+2, 1.5312752e+2, -1028427.0, -1461941.4, 18313.57, -0.04266457, -0.0770276, -1027654.7, 411686.72, 0.000000048117403, 10.003688, 9.997939 
3.1510088e+2, 1.6312565e+2, -958435.25, -1332226.3, 24116.404, -0.066377215, -0.070153005, -956885.75, 384474.13, 0.0, 10.003302, 9.9983425 
3.150858e+2, 1.7312357e+2, -958930.06, -1270811.9, 29078.854, -0.027012391, -0.124881685, -956242.0, 287137.3, 0.0, 10.002578, 9.998441 
3.150706e+2, 1.8312198e+2, -921223.56, -1161570.3, 43988.297, -0.00833846, -0.13795643, -913425.75, 231968.9, 0.0, 10.001989, 9.998802 
3.150552e+2, 1.9312155e+2, -859286.7, -1070524.9, 52157.387, -0.03066313, -0.07203093, -847110.25, 200290.6, 0.0, 10.001698, 9.998895 
3.150398e+2, 2.0312086e+2, -803863.8, -971551.4, 47326.574, -0.0404271, -0.033682585, -791428.94, 157980.08, 0.0, 10.001311, 9.999087 
3.1502452e+2, 2.1311979e+2, -787827.5, -907711.2, 47537.992, -0.024790114, -0.056297973, -771265.2, 80155.08, 0.0, 10.000725, 9.999135 
3.150091e+2, 2.2311896e+2, -746758.25, -801707.9, 43006.63, -0.017301109, -0.062334646, -723199.4, 30229.83, 0.0, 10.000181, 9.999452 
3.1499338e+2, 2.3311871e+2, -708470.8, -723684.94, 43749.46, -0.024753869, -0.041016962, -671672.0, -16239.406, 0.0, 9.999734, 9.99953 
3.1497756e+2, 2.4311844e+2, -684835.1, -664973.56, 27564.146, -0.02058858, -0.017753806, -645605.9, -88169.02, 0.0, 9.999239, 9.999499 
3.1496158e+2, 2.5311825e+2, -673383.94, -608394.56, 26116.703, 0.0019735992, 0.011228489, -599200.06, -139758.97, 0.0, 9.998644, 9.999501 
3.1494525e+2, 2.631181e+2, -622777.3, -489455.2, 21200.547, 0.001155115, 0.0344235, -486165.13, -124721.29, 0.0, 9.998131, 9.999891 
3.149284e+2, 2.7311796e+2, -567150.3, -400791.3, 25158.8, -0.032690752, 0.01955346, -397069.75, -133625.38, 0.0, 9.997792, 9.9999895 
3.149118e+2, 2.831176e+2, -523418.7, -324778.22, 12437.168, -0.031473722, -0.013366633, -324002.53, -158554.86, 0.0, 9.997402, 10.000027 
3.1489518e+2, 2.931175e+2, -498188.28, -260387.73, 2538.4453, 0.005234584, -0.028798327, -260360.64, -192910.89, 0.0, 9.996897, 10.000039 
3.1487727e+2, 3.03119e+2, -454022.4, -106446.64, -36872.965, -0.046199724, 0.08118014, -102577.99, -102577.99, 0.0, 9.996399, 10.001003 
3.148598e+2, 3.131195e+2, -485877.06, -55781.16, 3715.481, -0.00048001803, 0.014189929, -55749.066, -55749.066, 0.0, 9.995899, 10.00159 
3.2516778e+2, 1.2315124e+2, -1121983.5, -1683822.8, -24902.557, -0.053200986, -0.06689894, -1120882.0, 612228.7, 0.000031467458, 10.005173, 9.997719 
3.2515165e+2, 1.331483e+2, -1101952.8, -1643266.3, 73961.68, -0.0941951, -0.11767548, -1092029.0, 543109.1, 0.000013185639, 10.00472, 9.997545 
3.251371e+2, 1.4314614e+2, -1054552.1, -1538728.1, 51203.832, 0.013442903, -0.09578796, -1049196.4, 487962.53, 0.0000028505588, 10.00424, 9.997818 
3.2512036e+2, 1.5314424e+2, -1036454.2, -1474208.5, 40376.61, -0.053022034, -0.07435305, -1032761.2, 406417.16, 0.00000007732541, 10.00367, 9.997864 
3.2510397e+2, 1.6314231e+2, -980911.06, -1337063.3, 38888.39, -0.07888398, -0.07180692, -976714.3, 364483.13, 0.0, 10.003122, 9.998396 
3.250884e+2, 1.7314044e+2, -945125.75, -1254718.1, 41286.78, -0.023764828, -0.11170052, -939714.4, 303500.28, 0.0, 10.002633, 9.998524 
3.2507274e+2, 1.8313897e+2, -898404.4, -1145412.3, 58639.86, 0.0028651296, -0.12079879, -885190.1, 260038.69, 0.0, 10.002125, 9.998847 
3.2505685e+2, 1.9313838e+2, -874302.1, -1073878.8, 59409.52, -0.028528986, -0.072709024, -857956.06, 189279.86, 0.0, 10.001577, 9.998929 
3.2504094e+2, 2.0313767e+2, -833273.7, -973122.1, 47151.73, -0.047207456, -0.04473709, -818861.2, 130382.805, 0.0, 10.001056, 9.9992 
3.2502505e+2, 2.1313676e+2, -798876.1, -898334.25, 52044.12, -0.038899, -0.06247321, -776622.06, 74631.2, 0.0, 10.0005865, 9.999266 
3.250091e+2, 2.2313607e+2, -759718.6, -807347.6, 50713.145, -0.031181123, -0.06406586, -727506.75, 25754.277, 0.0, 10.000091, 9.999457 
3.24993e+2, 2.3313582e+2, -738416.8, -740510.94, 46592.406, -0.024066173, -0.0399487, -692859.7, -37594.637, 0.0, 9.999538, 9.999509 
3.2497677e+2, 2.4313557e+2, -703426.94, -656777.56, 30444.463, -0.014473933, -0.018458849, -641749.9, -84480.66, 0.0, 9.999038, 9.999652 
3.2496014e+2, 2.5313547e+2, -660324.56, -580463.2, 38749.633, -0.0047654044, 0.00081448647, -564752.2, -105480.41, 0.0, 9.99864, 9.999694 
3.249433e+2, 2.6313543e+2, -606496.7, -474934.5, 39940.59, -0.009724908, 0.022455255, -463758.44, -102485.58, 0.0, 9.998214, 9.99995 
3.2492617e+2, 2.7313545e+2, -574389.5, -400722.9, 35130.387, -0.030373113, 0.02071533, -393885.7, -130613.54, 0.0, 9.997728, 10.000021 
3.249092e+2, 2.8313515e+2, -534545.75, -326400.25, 21481.178, -0.025119063, -0.011780339, -324206.47, -158931.36, 0.0, 9.997311, 10.00006 
3.2489207e+2, 2.9313487e+2, -475573.97, -246615.69, 25455.629, -0.0026838235, -0.047870424, -243819.66, -176541.34, 0.0, 9.99704, 10.000065 
3.2487372e+2, 3.0313635e+2, -417554.53, -112032.63, -9216.023, -0.058203615, 0.0654807, -111754.88, -111754.88, 0.0, 9.99675, 10.000795 
3.2485598e+2, 3.1313652e+2, -420481.84, -30629.086, 20846.928, 0.006865581, -0.008045044, -29517.49, -29517.49, 0.0, 9.996377, 10.001533 
3.3517328e+2, 1.2316885e+2, -1125846.3, -1693414.4, -43114.023, -0.018327879, -0.048695885, -1122589.9, 610350.44, 0.000029800007, 10.005179, 9.99765 
3.351562e+2, 1.3316625e+2, -1106712.0, -1653463.0, 57893.723, -0.11025462, -0.05623861, -1100649.1, 534315.06, 0.000012970354, 10.004721, 9.997475 
3.3514106e+2, 1.4316404e+2, -1060973.8, -1551844.0, 31258.258, -0.015081818, -0.03408833, -1058991.3, 477994.03, 0.0000030239657, 10.004239, 9.997729 
3.3512402e+2, 1.5316129e+2, -1042794.9, -1487494.4, 19397.527, -0.053414974, -0.08684463, -1041950.4, 397061.9, 0.00000010458557, 10.003671, 9.997772 
3.351072e+2, 1.6315909e+2, -978089.7, -1331509.9, 20328.848, -0.066917, -0.108408816, -976924.2, 364109.6, 0.0, 10.003122, 9.998434 
3.3509094e+2, 1.7315805e+2, -940193.75, -1244849.8, 23305.156, -0.031560957, -0.07123642, -938421.3, 304621.97, 0.0, 10.002634, 9.998591 
3.350747e+2, 1.8315685e+2, -902072.56, -1153199.5, 38684.297, -0.011220574, -0.05498155, -896248.6, 248806.16, 0.0, 10.002126, 9.998794 
3.3505848e+2, 1.9315538e+2, -880275.8, -1086247.4, 39027.633, -0.020681003, -0.08650857, -873128.9, 173940.69, 0.0, 10.001577, 9.998844 
3.3504215e+2, 2.0315428e+2, -822763.44, -951168.25, 29153.215, -0.03144275, -0.09838036, -816454.44, 132626.28, 0.0, 10.001055, 9.9993515 
3.3502558e+2, 2.13154e+2, -784422.06, -868329.0, 34621.363, -0.044318702, -0.073898345, -771981.25, 79102.33, 0.0, 10.0005865, 9.999473 
3.3500904e+2, 2.2315368e+2, -762332.44, -812857.56, 30446.06, -0.045012917, -0.047574136, -748032.9, 5054.9097, 0.0, 10.000091, 9.999419 
3.349926e+2, 2.3315331e+2, -744814.7, -753852.9, 25771.232, -0.019835625, -0.027203493, -723169.3, -68075.15, 0.0, 9.999538, 9.999417 
3.3497587e+2, 2.4315299e+2, -685930.56, -620541.56, 14490.305, -0.006047941, -0.019430898, -617474.4, -60375.04, 0.0, 9.999038, 9.999901 
3.3495858e+2, 2.531529e+2, -637450.44, -533058.44, 24000.217, -0.020372117, -0.030864565, -527805.06, -68705.11, 0.0, 9.99864, 10.00002 
3.3494133e+2, 2.63153e+2, -608161.0, -478435.47, 22110.889, -0.030746613, -0.015231472, -474770.34, -113671.37, 0.0, 9.998214, 9.999927 
3.34924e+2, 2.7315333e+2, -581510.25, -415218.13, 16548.24, -0.019196557, 0.024897948, -413587.38, -150490.94, 0.0, 9.997726, 9.999923 
3.349067e+2, 2.8315312e+2, -523075.66, -302445.4, 9774.176, -0.0020848396, 0.0017316346, -302013.25, -136914.61, 0.0, 9.99731, 10.000225 
3.34889e+2, 2.931525e+2, -460258.03, -215196.11, 15798.549, -0.0093680145, -0.08937557, -214181.81, -147078.5, 0.0, 9.997041, 10.00028 
3.348703e+2, 3.0315384e+2, -436653.2, -152630.55, -22012.955, -0.07363304, 0.008685831, -150934.58, -150934.58, 0.0, 9.996754, 10.000515 
3.3485258e+2, 3.131539e+2, -430594.0, -53823.156, 6018.524, 0.029144818, -0.038875956, -53727.04, -53727.04, 0.0, 9.996386, 10.001369 
3.451787e+2, 1.2318697e+2, -1105151.9, -1693008.3, -27551.764, -0.0048206737, -0.025014944, -1103863.4, 628900.8, 0.000028425759, 10.0053625, 9.997564 
3.451609e+2, 1.3318421e+2, -1089039.1, -1655104.1, 72936.67, -0.12011747, -0.040492937, -1079792.4, 554997.25, 0.000012550565, 10.004886, 9.997384 
3.451453e+2, 1.4318189e+2, -1043028.5, -1539384.8, 43983.77, -0.020861708, -0.024162175, -1039161.06, 497650.44, 0.0000030205188, 10.004347, 9.997763 
3.451278e+2, 1.5317914e+2, -1039719.75, -1479060.6, 41682.004, -0.04185107, -0.082286775, -1035800.2, 403037.8, 0.00000011794277, 10.003662, 9.997833 
3.4511045e+2, 1.6317694e+2, -982751.25, -1335268.3, 54815.918, -0.050919108, -0.10507463, -974424.1, 366434.9, 0.0, 10.003098, 9.99842 
3.450936e+2, 1.7317595e+2, -920973.6, -1239057.8, 52219.01, -0.037843246, -0.06012545, -912620.4, 330248.06, 0.0, 10.002782, 9.99856 
3.4507674e+2, 1.8317474e+2, -871591.7, -1137016.3, 57818.848, -0.02693059, -0.043944653, -859543.6, 285336.4, 0.0, 10.002329, 9.998806 
3.4506008e+2, 1.9317314e+2, -874566.06, -1080829.5, 64079.96, -0.018923203, -0.09171387, -856279.56, 190615.98, 0.0, 10.001605, 9.998868 
3.4504324e+2, 2.0317198e+2, -834538.8, -950529.5, 60524.418, -0.019031541, -0.11323321, -808708.94, 140197.92, 0.0, 10.000947, 9.999407 
3.4502617e+2, 2.131718e+2, -803395.94, -870305.44, 56759.246, -0.036294587, -0.08463736, -770965.7, 79942.914, 0.0, 10.000425, 9.999536 
3.4500906e+2, 2.2317158e+2, -785704.44, -825027.7, 46953.406, -0.042069945, -0.052939292, -754462.2, -1550.0975, 0.0, 9.999934, 9.999411 
3.4499204e+2, 2.3317125e+2, -753448.0, -760852.2, 46830.695, -0.022205241, -0.025192894, -710173.3, -55254.56, 0.0, 9.999492, 9.999392 
3.4497485e+2, 2.4317096e+2, -670477.25, -594961.6, 38773.652, -0.011384561, -0.017126042, -578598.75, -21675.219, 0.0, 9.999065, 10.000063 
3.4495717e+2, 2.5317094e+2, -618827.3, -501120.72, 39830.824, -0.024556575, -0.04224001, -488909.22, -29986.725, 0.0, 9.99867, 10.000225 
3.449395e+2, 2.631711e+2, -597576.75, -472208.9, 32647.918, -0.033720754, -0.03151195, -464216.38, -103296.1, 0.0, 9.9982815, 9.999937 
3.449218e+2, 2.7317154e+2, -556424.3, -406891.72, 31766.363, -0.020415474, 0.021835892, -400423.16, -137505.88, 0.0, 9.997914, 9.999889 
3.4490412e+2, 2.8317136e+2, -485827.1, -273448.44, 27851.037, -0.0018182371, 0.00022299746, -269856.84, -104937.63, 0.0, 9.997517, 10.000324 
3.4488603e+2, 2.9317066e+2, -448992.22, -196112.39, 27255.99, -0.008561297, -0.113508426, -193208.03, -126284.125, 0.0, 9.997059, 10.000402 
3.4486702e+2, 3.0317193e+2, -452670.0, -177942.39, -6855.179, -0.071128406, -0.02025679, -177771.44, -177771.44, 0.0, 9.996719, 10.000359 
3.4484914e+2, 3.1317198e+2, -397851.9, -36167.145, 33748.035, 0.039154604, -0.050547436, -33045.133, -33045.133, 0.0, 9.996602, 10.001387 
3.5518396e+2, 1.2320557e+2, -1112772.6, -1708398.3, -45272.16, -0.012626569, 0.0028487782, -1109351.3, 623231.1, 0.000026809686, 10.005361, 9.99746 
3.5516572e+2, 1.3320215e+2, -1097191.8, -1671851.4, 56019.73, -0.12573303, -0.0678032, -1091781.8, 542832.7, 0.000011719897, 10.004884, 9.997271 
3.5514975e+2, 1.4319971e+2, -1032926.1, -1518080.9, 20129.654, -0.006664962, -0.062990084, -1032092.4, 504545.03, 0.000002806387, 10.004344, 9.9979105 
3.5513166e+2, 1.5319775e+2, -1025292.5, -1449243.3, 16054.919, -0.018995829, -0.06170087, -1024685.4, 413970.34, 0.00000011236697, 10.003662, 9.998038 
3.5511374e+2, 1.6319586e+2, -987538.06, -1345569.8, 40702.15, -0.03110819, -0.064119935, -982969.25, 357704.44, 0.0, 10.0030985, 9.998349 
3.5509628e+2, 1.7319416e+2, -930475.6, -1258486.9, 40854.85, -0.043374717, -0.07762084, -925463.6, 317226.47, 0.0, 10.002779, 9.998428 
3.5507888e+2, 1.8319266e+2, -866522.8, -1126025.3, 33421.41, -0.044951938, -0.08573823, -862287.56, 282416.9, 0.0, 10.002326, 9.998883 
3.5506162e+2, 1.9319162e+2, -865708.4, -1062611.0, 36830.645, -0.023416888, -0.088359706, -859044.75, 187669.33, 0.0, 10.001605, 9.998993 
3.5504428e+2, 2.0319071e+2, -837236.6, -956479.5, 39640.855, -0.010065468, -0.09016912, -825261.2, 123461.44, 0.0, 10.000948, 9.999366 
3.5502675e+2, 2.1319014e+2, -808736.9, -881579.9, 37409.75, -0.015093664, -0.09482669, -792947.1, 57781.188, 0.0, 10.000425, 9.999459 
3.5500917e+2, 2.231897e+2, -784520.9, -822700.2, 29915.92, -0.02268457, -0.07997994, -768122.8, -15388.893, 0.0, 9.999934, 9.999427 
3.5499144e+2, 2.331896e+2, -750817.25, -755580.56, 30282.623, -0.031535756, -0.033957977, -722822.75, -68083.99, 0.0, 9.999493, 9.999428 
3.5497373e+2, 2.431895e+2, -665379.75, -584526.5, 23490.875, -0.03081756, -0.011585153, -578197.06, -21455.244, 0.0, 9.999065, 10.000134 
3.5495594e+2, 2.531896e+2, -613148.1, -489300.72, 24838.834, -0.017351137, -0.032952487, -484504.75, -25765.324, 0.0, 9.998669, 10.000307 
3.5493794e+2, 2.631898e+2, -594407.56, -465711.97, 18563.555, -0.018696433, -0.02595583, -463087.78, -102351.05, 0.0, 9.9982815, 9.999982 
3.5491955e+2, 2.7319008e+2, -553894.06, -401912.75, 18065.402, -0.035066105, 0.011533545, -399794.9, -137060.17, 0.0, 9.997915, 9.999924 
3.549014e+2, 2.831899e+2, -483642.56, -269214.2, 10980.12, -0.025366897, -0.016580822, -268653.38, -103916.6, 0.0, 9.997518, 10.000354 
3.5488316e+2, 2.931893e+2, -447373.6, -192691.17, 9629.214, 0.0002557826, -0.1203909, -192327.63, -125587.52, 0.0, 9.997059, 10.000427 
3.5486394e+2, 3.0319065e+2, -454588.5, -181835.69, -13390.692, -0.050307494, -0.02032896, -181179.86, -181179.86, 0.0, 9.996718, 10.000332 
3.548457e+2, 3.1319076e+2, -382891.97, -5855.8325, 29366.805, 0.033366084, -0.044332415, -3582.2048, -3582.2048, 0.0, 9.996605, 10.001594 
3.6518937e+2, 1.23224355e+2, -1090892.4, -1698412.1, -35419.586, -0.014619848, 0.0027333742, -1088834.4, 643564.2, 0.000024762669, 10.005513, 9.997454 
3.6517048e+2, 1.3322091e+2, -1117135.3, -1681835.1, 73487.39, -0.12854804, -0.06884527, -1107728.6, 526702.4, 0.000010530972, 10.004749, 9.997266 
3.651541e+2, 1.432185e+2, -1065224.5, -1531979.6, 40449.01, 0.003922558, -0.060922686, -1061745.1, 474708.63, 0.00000243215, 10.004115, 9.997925 
3.6513537e+2, 1.5321662e+2, -1017868.7, -1443162.6, 23492.604, -0.014056203, -0.054605085, -1016574.94, 421896.4, 0.00000009127955, 10.003702, 9.99806 
3.651169e+2, 1.6321477e+2, -967357.4, -1329243.1, 46385.168, -0.03050915, -0.056124926, -961506.5, 378982.28, 0.0, 10.003209, 9.998407 
3.6509892e+2, 1.7321305e+2, -956495.5, -1263522.5, 61098.203, -0.043631237, -0.078337945, -944783.75, 297721.44, 0.0, 10.002568, 9.998495 
3.6508104e+2, 1.8321157e+2, -907207.1, -1142249.8, 59470.91, -0.04592031, -0.090197794, -893016.5, 251502.73, 0.0, 10.002031, 9.998914 
3.6506322e+2, 1.9321062e+2, -850373.4, -1052661.6, 55277.8, -0.025521327, -0.085342444, -836253.6, 210274.27, 0.0, 10.001699, 9.999016 
3.6504534e+2, 2.0320974e+2, -792799.94, -936087.5, 52540.438, -0.009766375, -0.08394308, -775599.3, 172936.72, 0.0, 10.001258, 9.999356 
3.6502734e+2, 2.132091e+2, -785306.4, -872117.7, 53987.813, -0.0053655263, -0.09475771, -759439.1, 91103.38, 0.0, 10.000595, 9.999442 
3.6500925e+2, 2.2320862e+2, -770161.1, -808704.1, 55333.85, -0.00959963, -0.0850652, -730838.9, 21709.443, 0.0, 10.000003, 9.99949 
3.6499098e+2, 2.3320857e+2, -735766.94, -739266.75, 59871.484, -0.027271114, -0.04138433, -677619.75, -23067.533, 0.0, 9.9995575, 9.999508 
3.6497277e+2, 2.4320851e+2, -661463.3, -588695.06, 52050.504, -0.030361798, -0.016999302, -561572.8, -5018.077, 0.0, 9.999119, 10.00008 
3.6495465e+2, 2.532086e+2, -615872.8, -500079.03, 41193.246, -0.010568395, -0.02898705, -486920.1, -28367.203, 0.0, 9.998691, 10.000222 
3.6493626e+2, 2.632088e+2, -590486.06, -460148.0, 29015.375, -0.01289486, -0.020541726, -453980.53, -93429.94, 0.0, 9.998292, 10.000015 
3.6491737e+2, 2.7320904e+2, -543763.94, -390184.34, 30405.752, -0.044953074, 0.004646564, -384383.7, -121835.016, 0.0, 9.997955, 9.999985 
3.648988e+2, 2.832088e+2, -470095.63, -265534.75, 21672.941, -0.038439363, -0.0275253, -263263.72, -98713.16, 0.0, 9.9976225, 10.000328 
3.6488044e+2, 2.9320827e+2, -416401.22, -183516.84, 14769.942, 0.008899716, -0.12275396, -182583.84, -116030.06, 0.0, 9.997295, 10.000377 
3.648609e+2, 3.032095e+2, -423259.34, -178422.25, -7508.403, -0.037117712, -0.024253296, -178192.2, -178192.2, 0.0, 9.996983, 10.000228 
3.648422e+2, 3.1320962e+2, -359360.22, 18543.676, 29449.84, 0.02058975, -0.038470183, 20824.914, 20824.914, 0.0, 9.996709, 10.001711 
3.7519485e+2, 1.2324331e+2, -1085987.3, -1686801.9, -62470.39, -0.013023431, -0.02294527, -1079560.5, 652652.06, 0.00002232368, 10.0055065, 9.997538 
3.751752e+2, 1.3324045e+2, -1110658.3, -1668185.8, 45200.785, -0.1286396, -0.045741774, -1107017.4, 527222.25, 0.000009112767, 10.004747, 9.997361 
3.7515822e+2, 1.4323822e+2, -1072945.0, -1548337.5, 23069.592, 0.011025114, -0.02113284, -1071828.1, 464432.9, 0.0000019708841, 10.004116, 9.997812 
3.751389e+2, 1.5323573e+2, -1028802.75, -1465779.0, 8470.483, -0.027149351, -0.060412433, -1028638.56, 409646.34, 0.00000006215504, 10.003701, 9.997906 
3.751199e+2, 1.6323368e+2, -954561.44, -1302525.6, 24078.95, -0.04906807, -0.079236306, -952903.1, 387401.06, 0.0, 10.003207, 9.998592 
3.7510157e+2, 1.732326e+2, -938426.4, -1226217.0, 37150.906, -0.03878336, -0.06291786, -933707.94, 308605.78, 0.0, 10.002568, 9.998752 
3.750832e+2, 1.8323141e+2, -908458.2, -1145146.1, 45149.8, -0.03057063, -0.058798585, -900138.0, 244186.48, 0.0, 10.002032, 9.998894 
3.750649e+2, 1.9323012e+2, -856043.7, -1064312.4, 43172.137, -0.02566639, -0.08289963, -847449.2, 198887.89, 0.0, 10.0016985, 9.998937 
3.7504652e+2, 2.0322908e+2, -791553.06, -933323.44, 29767.854, -0.018350925, -0.09415212, -785556.3, 162790.8, 0.0, 10.001256, 9.999376 
3.7502792e+2, 2.1322867e+2, -782421.3, -866273.06, 28919.547, -0.0073404824, -0.08433533, -773414.7, 76936.47, 0.0, 10.000595, 9.999482 
3.750093e+2, 2.2322832e+2, -762585.75, -793174.8, 37210.836, -0.0031032301, -0.06825246, -737648.8, 14706.519, 0.0, 10.000003, 9.999597 
3.749907e+2, 2.3322816e+2, -726956.2, -721113.8, 43254.0, -0.009460506, -0.047577623, -680682.44, -26323.29, 0.0, 9.9995575, 9.999633 
3.749721e+2, 2.4322802e+2, -674416.8, -615725.1, 35855.703, -0.010161156, -0.033439673, -598737.25, -42374.89, 0.0, 9.999119, 9.999895 
3.749534e+2, 2.53228e+2, -633728.06, -537303.6, 25080.244, -0.00466853, -0.03018768, -531170.3, -72807.516, 0.0, 9.998691, 9.999967 
3.7493446e+2, 2.6322812e+2, -588941.0, -457074.9, 15553.919, -0.016727904, -0.015207443, -455265.13, -94903.24, 0.0, 9.998293, 10.000036 
3.7491524e+2, 2.7322838e+2, -537668.06, -377505.28, 17615.555, -0.050073482, 0.00088425254, -375590.72, -113231.54, 0.0, 9.997954, 10.0000725 
3.748964e+2, 2.8322813e+2, -475623.16, -277074.44, 9148.779, -0.041116897, -0.032578368, -276653.78, -112293.22, 0.0, 9.9976225, 10.00025 
3.7487778e+2, 2.9322758e+2, -424809.72, -201549.25, 2288.6218, 0.016499888, -0.1196917, -201525.78, -135160.98, 0.0, 9.997297, 10.000252 
3.748579e+2, 3.0322853e+2, -436181.8, -206046.56, -18433.299, -0.032733284, -0.031065082, -204579.45, -204579.45, 0.0, 9.996986, 10.000037 
3.7483868e+2, 3.1322855e+2, -358090.78, 21143.77, 17767.416, -0.0011013068, -0.037726425, 21974.365, 21974.365, 0.0, 9.996709, 10.001729 
3.8520023e+2, 1.2326297e+2, -1112013.6, -1698523.1, -47840.6, -0.016807968, -0.02981083, -1108137.0, 623882.7, 0.0000196019, 10.005325, 9.997544 
3.8517997e+2, 1.3326024e+2, -1105653.5, -1665134.6, 52173.19, -0.12856714, -0.040916502, -1100829.8, 533216.1, 0.0000075753433, 10.004779, 9.997367 
3.851625e+2, 1.4325806e+2, -1056204.1, -1536564.5, 35126.047, 0.02279805, -0.010116541, -1053649.1, 482417.63, 0.0000014778136, 10.004215, 9.997845 
3.8514248e+2, 1.5325554e+2, -1039209.4, -1466504.8, 34804.848, -0.034979243, -0.057404153, -1036392.94, 401698.1, 0.000000033263483, 10.003611, 9.997945 
3.8512287e+2, 1.632535e+2, -975376.4, -1308376.1, 52614.465, -0.06301733, -0.080690615, -967260.94, 372849.3, 0.0, 10.003046, 9.99863 
3.8510415e+2, 1.7325248e+2, -936402.3, -1220931.3, 49758.664, -0.03203587, -0.060810387, -927951.5, 314167.47, 0.0, 10.002563, 9.99879 
3.8508537e+2, 1.8325134e+2, -903611.3, -1138691.9, 53405.605, -0.014117448, -0.055256348, -892047.5, 252081.66, 0.0, 10.0020485, 9.99893 
3.8506654e+2, 1.9325005e+2, -886809.0, -1075126.1, 60208.19, -0.021527467, -0.083029196, -869205.0, 176936.72, 0.0, 10.001471, 9.998972 
3.8504758e+2, 2.0324901e+2, -832993.94, -955300.1, 49447.09, -0.021448674, -0.09536545, -815504.06, 132647.78, 0.0, 10.00098, 9.999358 
3.8502854e+2, 2.1324861e+2, -775249.4, -866181.75, 43161.406, -0.0070571997, -0.08088721, -758025.2, 92130.96, 0.0, 10.000659, 9.999452 
3.8500947e+2, 2.2324827e+2, -721640.0, -765301.25, 46452.973, 0.001741488, -0.063642725, -692143.7, 60016.336, 0.0, 10.00025, 9.999669 
3.849904e+2, 2.3324816e+2, -704349.5, -699434.0, 50091.32, 0.0014643456, -0.04892242, -651740.1, 2422.473, 0.0, 9.999666, 9.999729 
3.8497135e+2, 2.4324799e+2, -675931.3, -629179.6, 47686.07, 0.0017863213, -0.037153948, -599448.1, -43282.465, 0.0, 9.999164, 9.999781 
3.8495216e+2, 2.532479e+2, -625796.1, -551354.7, 44577.746, -0.0012828534, -0.03008979, -530501.7, -72333.65, 0.0, 9.998823, 9.999806 
3.8493282e+2, 2.6324785e+2, -566963.0, -448110.0, 38173.176, -0.017668594, -0.018042214, -436905.78, -76737.01, 0.0, 9.99845, 10.000022 
3.8491327e+2, 2.7324796e+2, -527361.6, -370710.53, 35409.0, -0.046739325, -0.014712424, -363078.63, -100912.05, 0.0, 9.998016, 10.00009 
3.8489404e+2, 2.8324777e+2, -473369.16, -279783.38, 28696.99, -0.036502764, -0.04504383, -275618.94, -111451.51, 0.0, 9.997654, 10.000216 
3.8487512e+2, 2.932474e+2, -409472.44, -199565.5, 27476.521, 0.016034959, -0.107087106, -196028.47, -129858.33, 0.0, 9.997425, 10.000203 
3.8485488e+2, 3.0324814e+2, -419843.47, -210933.98, 11835.756, -0.04036014, -0.03461434, -210265.56, -210265.56, 0.0, 9.997153, 9.999923 
3.848353e+2, 3.1324783e+2, -339173.22, 36892.547, 52376.984, -0.014637641, -0.06063156, 44051.145, 44051.145, 0.000000000002787424, 9.996811, 10.001787 
3.952054e+2, 1.232833e+2, -1118064.0, -1708854.0, -67653.66, -0.02615489, -0.019970596, -1110415.8, 621404.4, 0.000016742506, 10.005315, 9.9974785 
3.9518473e+2, 1.3328026e+2, -1112085.3, -1677172.1, 31955.754, -0.12905565, -0.05288181, -1110284.0, 523565.8, 0.0000060140947, 10.004772, 9.997288 
3.9516687e+2, 1.4327809e+2, -1045001.8, -1512575.5, 13093.055, 0.038250767, -0.025623431, -1044635.44, 491235.34, 0.000000994006, 10.00421, 9.998013 
3.9514607e+2, 1.5327604e+2, -1024061.25, -1434947.4, 12166.673, -0.03799052, -0.046188653, -1023701.25, 414188.75, 0.000000011845625, 10.00361, 9.998162 
3.951258e+2, 1.6327415e+2, -982651.3, -1323697.3, 33826.79, -0.07273727, -0.06184132, -979328.5, 360578.97, 0.0, 10.003046, 9.998525 
3.9510682e+2, 1.7327267e+2, -948356.4, -1245891.3, 31936.26, -0.02372164, -0.071578816, -944967.06, 296953.94, 0.0, 10.002563, 9.998619 
3.9508763e+2, 1.8327135e+2, -897266.44, -1125714.4, 32468.889, 0.0031194543, -0.07852144, -892741.4, 251191.73, 0.0, 10.0020485, 9.99902 
3.9506805e+2, 1.932704e+2, -876455.25, -1053913.9, 38611.113, -0.013376311, -0.085480094, -868418.3, 177523.6, 0.0, 10.001471, 9.999118 
3.9504856e+2, 2.0326953e+2, -837177.4, -964173.4, 35809.02, -0.019404652, -0.08761954, -827776.25, 120174.13, 0.0, 10.000981, 9.999297 
3.950292e+2, 2.132689e+2, -782451.9, -881215.25, 31317.084, -0.00485462, -0.08452078, -773358.7, 76598.77, 0.0, 10.000659, 9.999349 
3.950097e+2, 2.2326851e+2, -719153.44, -760134.5, 26158.06, 0.004538409, -0.071244545, -706415.9, 45546.523, 0.0, 10.000249, 9.999705 
3.949901e+2, 2.3326856e+2, -699771.75, -690055.9, 28019.793, 0.005212229, -0.04515618, -666476.0, -12513.355, 0.0, 9.999666, 9.999794 
3.949705e+2, 2.4326846e+2, -678932.4, -635531.9, 33312.465, 0.0051968875, -0.02799129, -617475.1, -61510.48, 0.0, 9.999164, 9.999738 
3.9495096e+2, 2.532682e+2, -630197.7, -560593.06, 31881.14, -0.00068885006, -0.029004645, -548197.8, -90229.17, 0.0, 9.998823, 9.999743 
3.949313e+2, 2.63268e+2, -570472.06, -455580.78, 22391.105, -0.015947996, -0.029366907, -451371.25, -91400.05, 0.0, 9.99845, 9.999971 
3.9491138e+2, 2.7326792e+2, -531114.9, -378632.7, 19010.355, -0.03508244, -0.0418969, -376298.34, -114327.56, 0.0, 9.998016, 10.000035 
3.948918e+2, 2.8326777e+2, -472636.78, -278194.72, 18894.145, -0.024874786, -0.064623885, -276375.75, -112404.68, 0.0, 9.997653, 10.000227 
3.9487243e+2, 2.9326782e+2, -407513.25, -195407.42, 18995.674, 0.006597263, -0.084862284, -193719.66, -127750.01, 0.0, 9.997425, 10.000233 
3.948518e+2, 3.032683e+2, -422293.78, -216162.52, -361.7542, -0.061055228, -0.034833994, -216161.89, -216161.89, 0.0, 9.997153, 9.9998865 
3.9483202e+2, 3.132675e+2, -331896.94, 52027.645, 39321.254, -0.02116677, -0.11416665, 56013.516, 56013.516, 0.000000001718879, 9.996811, 10.001892 
4.052104e+2, 1.2330392e+2, -1162097.0, -1720711.6, -61258.59, -0.03818086, -0.013685949, -1155458.1, 576159.56, 0.000013940002, 10.004972, 9.997561 
4.0518925e+2, 1.3330078e+2, -1150229.1, -1685902.3, 48745.383, -0.13845608, -0.06608687, -1145829.6, 487818.66, 0.0000045445445, 10.004469, 9.997375 
4.0517104e+2, 1.4329864e+2, -1071399.5, -1516353.4, 34456.67, 0.047748405, -0.042986996, -1068747.0, 466921.78, 0.00000056521225, 10.003991, 9.998093 
4.051497e+2, 1.5329686e+2, -1025895.7, -1426897.8, 23512.355, -0.029850855, -0.04435171, -1024521.75, 413163.88, 0.0000000017552746, 10.003559, 9.998241 
4.051289e+2, 1.632951e+2, -975234.5, -1319588.0, 43344.54, -0.06740303, -0.051412188, -969862.44, 369839.47, 0.0, 10.003096, 9.998529 
4.0510935e+2, 1.7329349e+2, -946569.4, -1246495.0, 52787.04, -0.022852879, -0.074009396, -937550.06, 304166.75, 0.0, 10.002583, 9.998606 
4.0508962e+2, 1.8329206e+2, -897065.8, -1129972.1, 54718.96, 0.0016657469, -0.088253975, -884850.8, 258879.03, 0.0, 10.0020685, 9.9989805 
4.0506956e+2, 1.9329111e+2, -866858.2, -1054171.5, 46763.18, -0.013132992, -0.09057994, -855832.6, 189906.17, 0.0, 10.001558, 9.999074 
4.050496e+2, 2.0329027e+2, -826085.56, -958456.6, 42026.03, -0.01615237, -0.087682456, -813870.1, 133877.13, 0.0, 10.001057, 9.9993 
4.0502983e+2, 2.1328971e+2, -794726.94, -885576.5, 46680.914, 0.003383007, -0.08015209, -775017.1, 74736.81, 0.0, 10.000568, 9.999363 
4.0500998e+2, 2.232893e+2, -735955.5, -768975.94, 43657.72, 0.013026624, -0.067677684, -705790.4, 45968.523, 0.0, 10.000137, 9.999698 
4.049898e+2, 2.3328923e+2, -679679.75, -681660.7, 39214.656, 0.0051265396, -0.051130455, -641443.06, 12316.935, 0.0, 9.99981, 9.999782 
4.0496975e+2, 2.4328911e+2, -643871.06, -620431.2, 42658.85, 0.0018977689, -0.03498996, -587911.6, -32149.498, 0.0, 9.999413, 9.999722 
4.0494984e+2, 2.5328898e+2, -622453.1, -558482.56, 44870.496, 0.0029481442, -0.02247635, -535364.1, -77598.96, 0.0, 9.998882, 9.999729 
4.049298e+2, 2.6328877e+2, -576738.7, -465355.94, 39627.395, -0.00795567, -0.019847514, -452696.3, -92928.45, 0.0, 9.998437, 9.99991 
4.0490952e+2, 2.7328846e+2, -515488.88, -378916.44, 35100.21, -0.027428413, -0.04592257, -370423.53, -108654.055, 0.0, 9.9981575, 9.999966 
4.0488958e+2, 2.8328827e+2, -445555.78, -272094.4, 34837.28, -0.01930309, -0.06693399, -265359.34, -101588.98, 0.0, 9.9978695, 10.000165 
4.0486988e+2, 2.9328847e+2, -392988.2, -194803.83, 29043.799, 0.0056640725, -0.065826036, -190635.16, -124867.52, 0.0, 9.997552, 10.000175 
4.0484887e+2, 3.0328873e+2, -417514.72, -219905.4, 2837.3948, -0.0701088, -0.03699637, -219864.67, -219864.67, 0.0, 9.997212, 9.999832 
4.048287e+2, 3.1328785e+2, -322797.88, 62524.8, 39904.324, -0.03280246, -0.11550078, 66613.93, 66613.93, 0.00000001196501, 9.996846, 10.001946 
4.1521522e+2, 1.23324834e+2, -1148702.6, -1689710.0, -78118.75, -0.053782932, -0.010802382, -1137648.5, 593764.0, 0.000011410484, 10.004958, 9.997782 
4.1519347e+2, 1.3332175e+2, -1134601.5, -1651779.9, 29825.137, -0.15628725, -0.08068101, -1132887.1, 500554.5, 0.0000032934781, 10.00446, 9.997613 
4.1517505e+2, 1.4331971e+2, -1072496.3, -1517444.4, 17873.412, 0.051452164, -0.06209984, -1071779.5, 463681.66, 0.00000025491462, 10.003985, 9.998088 
4.151534e+2, 1.53318e+2, -1030184.8, -1434815.6, 7489.826, -0.011304581, -0.051186986, -1030046.25, 407431.7, 0.000000000010806448, 10.003554, 9.99819 
4.1513216e+2, 1.6331635e+2, -968277.9, -1304467.6, 24705.77, -0.047996998, -0.048818775, -966472.0, 373021.47, 0.0, 10.003092, 9.998635 
4.1511184e+2, 1.733149e+2, -937198.75, -1226788.5, 33638.9, -0.029537322, -0.06838439, -933342.56, 308163.8, 0.0, 10.002581, 9.998742 
4.1509145e+2, 1.8331346e+2, -909047.25, -1154769.5, 35547.7, -0.018221017, -0.08483394, -904008.0, 239511.56, 0.0, 10.0020685, 9.998811 
4.15071e+2, 1.9331217e+2, -883326.9, -1088310.1, 27829.78, -0.020807704, -0.09839948, -879615.7, 165916.9, 0.0, 10.001557, 9.998839 
4.1505066e+2, 2.0331122e+2, -821476.8, -948972.3, 23639.334, -0.011971124, -0.09543606, -817234.9, 130307.53, 0.0, 10.001056, 9.999366 
4.1503054e+2, 2.1331097e+2, -785739.9, -867150.4, 28504.037, 0.017458657, -0.06771588, -776752.06, 72793.45, 0.0, 10.000569, 9.999489 
4.150102e+2, 2.2331063e+2, -739860.94, -777148.0, 30458.697, 0.026890447, -0.053021535, -722792.94, 28756.621, 0.0, 10.000137, 9.999642 
4.1498956e+2, 2.3331018e+2, -686184.1, -695292.6, 27059.752, 0.0007600511, -0.06721733, -663298.06, -9743.271, 0.0, 9.99981, 9.999689 
4.1496903e+2, 2.4330993e+2, -642967.0, -618704.8, 23902.7, -0.008603734, -0.058365528, -604031.0, -48472.766, 0.0, 9.999413, 9.999733 
4.1494876e+2, 2.533102e+2, -620169.7, -553751.7, 24816.207, 0.009482991, -0.009883801, -545503.75, -87946.195, 0.0, 9.998882, 9.999762 
4.1492835e+2, 2.6331016e+2, -581928.3, -476014.06, 27639.22, 0.006115779, 0.011512337, -469235.25, -109676.61, 0.0, 9.998436, 9.999838 
4.149077e+2, 2.7330965e+2, -521834.22, -392224.9, 24872.295, -0.024490856, -0.02610846, -387615.78, -126053.14, 0.0, 9.9981575, 9.999874 
4.1488743e+2, 2.8330928e+2, -454938.72, -291873.2, 23118.092, -0.020598264, -0.051442277, -288659.06, -125093.78, 0.0, 9.9978695, 10.00003 
4.148675e+2, 2.933094e+2, -403152.88, -215954.14, 16838.305, 0.013440394, -0.05000992, -214451.61, -148887.45, 0.0, 9.997551, 10.0000305 
4.148461e+2, 3.033093e+2, -423494.94, -231971.2, -10736.678, -0.06718964, -0.04040496, -231371.2, -231371.2, 0.0, 9.9972105, 9.99975 
4.1482535e+2, 3.1330886e+2, -323290.13, 62139.35, 24923.795, -0.052267674, -0.06585166, 63744.363, 63744.363, 0.000000036873733, 9.996843, 10.0019455 
4.2521995e+2, 1.2334602e+2, -1231622.1, -1715065.4, -57718.89, -0.041201383, -0.024888042, -1224826.5, 506377.2, 0.0000093323315, 10.004328, 9.997911 
4.2519766e+2, 1.333431e+2, -1184524.6, -1660971.5, 40548.74, -0.16151486, -0.09276928, -1181098.4, 452133.1, 0.0000023582813, 10.004055, 9.997745 
4.2517892e+2, 1.4334118e+2, -1104384.4, -1521662.3, 25419.54, 0.056152634, -0.073002405, -1102841.6, 432407.97, 0.00000009011166, 10.003719, 9.998186 
4.2515692e+2, 1.5333952e+2, -1065610.9, -1441736.5, 24596.357, 0.00082454056, -0.065797634, -1064009.3, 373256.63, 0.0, 10.003268, 9.998281 
4.2513523e+2, 1.6333795e+2, -1003685.0, -1321352.0, 45215.766, -0.035927914, -0.0626665, -997374.5, 341906.44, 0.0, 10.002849, 9.998636 
4.2511436e+2, 1.7333655e+2, -949086.3, -1234281.6, 43086.273, -0.031662412, -0.073543735, -942719.2, 298574.5, 0.0, 10.002508, 9.998725 
4.2509344e+2, 1.8333516e+2, -905597.56, -1153700.3, 40128.01, -0.026214048, -0.08440064, -899268.7, 244038.14, 0.0, 10.002095, 9.998804 
4.2507258e+2, 1.9333386e+2, -885290.75, -1089818.6, 48198.46, -0.01878813, -0.09806005, -874501.56, 170818.5, 0.0, 10.001548, 9.998834 
4.2505175e+2, 2.033329e+2, -823003.8, -949829.56, 54480.832, -0.006005648, -0.0951641, -802814.3, 144515.64, 0.0, 10.001047, 9.999364 
4.250311e+2, 2.1333265e+2, -775793.7, -862448.5, 50361.957, 0.015549133, -0.067767926, -752686.2, 96646.73, 0.0, 10.000639, 9.999488 
4.2501032e+2, 2.2333227e+2, -733477.75, -781408.0, 48012.508, 0.021615414, -0.05394186, -703781.6, 47555.715, 0.0, 10.000214, 9.999576 
4.249893e+2, 2.3333173e+2, -699920.2, -710548.8, 45730.617, 0.0010040042, -0.069383375, -659196.1, -5852.317, 0.0, 9.999754, 9.999611 
4.2496845e+2, 2.4333143e+2, -649041.3, -623358.9, 42897.313, -0.0064528408, -0.059182405, -591422.06, -36074.18, 0.0, 9.999379, 9.999717 
4.249477e+2, 2.5333172e+2, -579644.4, -534483.56, 40761.195, 0.0064407364, -0.00612656, -510466.22, -53119.625, 0.0, 9.999162, 9.999759 
4.249269e+2, 2.6333165e+2, -528375.7, -464698.0, 40748.33, -0.00013617259, 0.0175167, -444824.78, -85476.64, 0.0, 9.998866, 9.999708 
4.249059e+2, 2.7333102e+2, -494114.72, -395886.94, 33437.1, -0.030075857, -0.018605262, -385585.25, -124231.19, 0.0, 9.998422, 9.999722 
4.2488533e+2, 2.8333062e+2, -437559.84, -294619.4, 32328.762, -0.022040715, -0.034094617, -287647.7, -124290.25, 0.0, 9.998037, 9.999929 
4.2486522e+2, 2.933308e+2, -377151.6, -213026.47, 30304.832, 0.022178834, -0.017671807, -207609.63, -142253.75, 0.0, 9.997771, 9.999945 
4.2484343e+2, 3.033304e+2, -398468.3, -239136.75, -59.942436, -0.063413925, -0.027126357, -239136.73, -239136.73, 0.0, 9.997465, 9.999578 
4.248221e+2, 3.1333005e+2, -302141.63, 53733.29, 24093.627, -0.07281752, -0.02336298, 55357.08, 55357.08, 0.00000007454206, 9.997069, 10.001779 
4.3522462e+2, 1.233675e+2, -1229736.0, -1709617.0, -66157.23, -0.004372668, -0.05408852, -1220782.5, 510208.97, 0.000007742666, 10.00432, 9.997952 
4.352018e+2, 1.333648e+2, -1183150.6, -1657208.4, 30650.574, -0.15544418, -0.10236893, -1181177.1, 451840.5, 0.0000017474287, 10.004049, 9.997774 
4.351827e+2, 1.4336306e+2, -1091590.5, -1493997.4, 9673.413, 0.061560597, -0.076491326, -1091358.1, 443676.25, 0.000000031525722, 10.003715, 9.99838 
4.3516022e+2, 1.5336142e+2, -1050325.4, -1409483.9, 7519.316, 0.006526456, -0.087954074, -1050168.0, 386881.44, 0.0, 10.003265, 9.998504 
4.351381e+2, 1.6335987e+2, -1011320.25, -1336836.0, 31763.371, -0.031271823, -0.09203931, -1008249.75, 330814.56, 0.0, 10.002847, 9.998531 
4.3511686e+2, 1.7335844e+2, -961439.44, -1259132.6, 30601.39, -0.029725822, -0.08893292, -958326.3, 282752.3, 0.0, 10.002504, 9.998557 
4.3509555e+2, 1.8335715e+2, -895464.3, -1131853.6, 20797.162, -0.02301797, -0.08677016, -893648.56, 249443.0, 0.0, 10.002091, 9.998957 
4.350742e+2, 1.9335616e+2, -870339.06, -1058575.6, 27579.91, -0.007592324, -0.08970568, -866381.3, 178719.98, 0.0, 10.001546, 9.999049 
4.3505284e+2, 2.0335528e+2, -828268.3, -960831.2, 38363.484, 0.0012971058, -0.08713671, -817966.56, 129143.49, 0.0, 10.001047, 9.999289 
4.3503156e+2, 2.133547e+2, -785184.1, -882013.2, 35200.35, -0.0026573974, -0.08035258, -773740.2, 75376.04, 0.0, 10.000638, 9.999353 
4.3501028e+2, 2.2335419e+2, -738942.6, -792810.06, 30954.584, -0.0029964575, -0.07022123, -724844.5, 26277.793, 0.0, 10.000213, 9.999498 
4.349891e+2, 2.3335385e+2, -704576.0, -720271.6, 28409.09, 0.005846253, -0.057191443, -682950.7, -29823.545, 0.0, 9.999754, 9.999545 
4.3496794e+2, 2.433536e+2, -652396.56, -630400.0, 33400.523, 0.00812848, -0.03719169, -606233.56, -51102.582, 0.0, 9.999378, 9.999669 
4.3494675e+2, 2.5335357e+2, -582426.3, -540731.56, 32855.004, -0.00713222, -0.011732642, -522667.97, -65535.49, 0.0, 9.999164, 9.999716 
4.3492547e+2, 2.6335323e+2, -541184.5, -492057.97, 25349.516, -0.027838722, -0.0026513112, -481323.2, -122186.74, 0.0, 9.998869, 9.999519 
4.3490416e+2, 2.7335253e+2, -509090.47, -427398.44, 16457.094, -0.044618677, -0.023647305, -424207.72, -163063.9, 0.0, 9.998423, 9.999505 
4.3488333e+2, 2.8335226e+2, -442028.63, -304005.6, 21359.016, -0.023831978, -0.014471729, -300775.88, -137629.03, 0.0, 9.998037, 9.999866 
4.3486306e+2, 2.9335266e+2, -379094.3, -217351.8, 20546.684, 0.031205568, 0.032677006, -214782.5, -149639.84, 0.0, 9.997772, 9.999915 
4.3484095e+2, 3.0335197e+2, -417099.94, -278295.4, -14121.911, -0.059504516, 0.004082309, -276873.22, -276873.22, 0.0, 9.997467, 9.99931 
4.3481886e+2, 3.1335127e+2, -325776.63, 4330.5254, 7415.115, -0.09621328, 0.0054557826, 4497.0054, 4497.0054, 0.0000001100893, 9.99707, 10.001439 
4.4522884e+2, 1.2338932e+2, -1266899.4, -1713381.6, -53913.29, 0.0063718325, -0.07708553, -1260481.5, 470294.8, 0.00000650325, 10.004005, 9.998077 
4.4520563e+2, 1.3338682e+2, -1225360.0, -1664619.4, 46365.773, -0.15410745, -0.11587254, -1220519.3, 412281.44, 0.0000013495525, 10.003704, 9.9978895 
4.4518632e+2, 1.4338522e+2, -1130134.3, -1503708.5, 23298.574, 0.07230159, -0.084317714, -1128686.8, 406129.16, 0.000000013876045, 10.003412, 9.998458 
4.4516343e+2, 1.5338364e+2, -1062147.5, -1407149.8, 9663.836, 0.007334128, -0.099695526, -1061877.0, 374953.63, 0.0, 10.00315, 9.998574 
4.4514084e+2, 1.633821e+2, -1019732.5, -1338628.1, 28112.932, -0.035249367, -0.10516995, -1017273.1, 321572.22, 0.0, 10.00278, 9.99855 
4.451192e+2, 1.7338072e+2, -1002856.0, -1278023.4, 39117.16, -0.027826894, -0.09856227, -997403.25, 243456.45, 0.0, 10.002215, 9.998566 
4.450975e+2, 1.8337952e+2, -942532.44, -1148199.6, 34980.227, -0.018140672, -0.09047453, -936745.75, 206126.47, 0.0, 10.001741, 9.999012 
4.450757e+2, 1.9337869e+2, -880772.25, -1056292.0, 30882.4, -0.0057965536, -0.08344827, -875497.06, 169383.42, 0.0, 10.001444, 9.999114 
4.450539e+2, 2.0337789e+2, -822462.0, -959861.25, 36643.3, -0.0006499139, -0.07814028, -813300.44, 133588.28, 0.0, 10.001096, 9.999271 
4.450321e+2, 2.1337716e+2, -786541.5, -886269.6, 40623.414, -0.009206273, -0.08157994, -772088.44, 76807.7, 0.0, 10.000646, 9.99932 
4.450104e+2, 2.2337656e+2, -740243.2, -800683.94, 42067.87, -0.010507953, -0.07496315, -718666.1, 32236.94, 0.0, 10.0002365, 9.999433 
4.449889e+2, 2.3337625e+2, -688042.4, -720259.25, 39112.41, 0.00396757, -0.052589525, -661851.1, -8943.193, 0.0, 9.999902, 9.999473 
4.449674e+2, 2.4337596e+2, -628968.5, -625510.0, 47401.97, 0.0077432864, -0.0291149, -579805.75, -24893.549, 0.0, 9.999568, 9.999612 
4.4494584e+2, 2.5337577e+2, -575978.56, -543481.3, 46655.39, -0.014075295, -0.01287255, -510326.06, -53411.184, 0.0, 9.999233, 9.999662 
4.4492427e+2, 2.6337534e+2, -532795.56, -493316.16, 41702.3, -0.03681121, -0.010833633, -466917.63, -107997.695, 0.0, 9.99895, 9.999472 
4.449027e+2, 2.7337462e+2, -463611.78, -410794.9, 44927.855, -0.04644564, -0.030716883, -385088.88, -124161.086, 0.0, 9.998758, 9.999457 
4.448816e+2, 2.8337434e+2, -390880.66, -295555.75, 52786.734, -0.021603515, -0.012465684, -272097.53, -109166.55, 0.0, 9.998459, 9.99972 
4.448609e+2, 2.933747e+2, -363775.84, -227682.39, 41806.836, 0.030836115, 0.049186338, -215865.69, -150938.44, 0.0, 9.997954, 9.999756 
4.4483837e+2, 3.0337363e+2, -412007.25, -278260.94, 10224.499, -0.061481666, -0.004650694, -277483.8, -277483.8, 0.00000000000009396187, 9.997513, 9.999287 
4.4481605e+2, 3.1337306e+2, -313985.0, 3346.6072, 53427.53, -0.09147694, 0.0036556034, 12100.451, 12100.451, 0.00000013361628, 9.997181, 10.001379 
4.552327e+2, 1.23411454e+2, -1253585.1, -1684676.4, -61535.53, -0.008173861, -0.09550096, -1244973.4, 485585.16, 0.0000053973713, 10.004001, 9.998278 
4.5520929e+2, 1.3340916e+2, -1212349.6, -1636589.8, 35194.766, -0.15737027, -0.13318734, -1209449.8, 423130.75, 0.0000010357862, 10.003699, 9.998085 
4.5518985e+2, 1.4340772e+2, -1133572.0, -1509453.9, 13347.854, 0.08734181, -0.096145034, -1133098.6, 401495.72, 0.000000007555667, 10.003406, 9.998422 
4.5516652e+2, 1.5340614e+2, -1068550.5, -1419147.4, 221.07953, 0.0027231176, -0.101634085, -1068550.4, 368058.97, 0.0, 10.003144, 9.998495 
4.5514348e+2, 1.6340467e+2, -1010735.2, -1318699.0, 8789.279, -0.047915082, -0.103032924, -1010484.5, 328139.34, 0.0, 10.002774, 9.99869 
4.5512143e+2, 1.7340341e+2, -990785.44, -1252170.6, 17927.096, -0.026066931, -0.10289836, -989561.6, 251075.27, 0.0, 10.002212, 9.998745 
4.5509928e+2, 1.8340228e+2, -946025.25, -1155037.5, 22338.258, -0.011902991, -0.095607676, -943664.5, 198984.25, 0.0, 10.0017395, 9.998966 
4.5507702e+2, 1.9340146e+2, -887264.8, -1069346.1, 20036.377, -0.013574631, -0.079252146, -885086.06, 159571.58, 0.0, 10.001442, 9.999025 
4.5505485e+2, 2.0340069e+2, -819772.6, -954041.7, 20607.662, -0.011923028, -0.06802895, -816680.94, 129985.05, 0.0, 10.001094, 9.999312 
4.5503277e+2, 2.1340002e+2, -781997.4, -876892.8, 23695.404, -0.004339726, -0.07144114, -776409.6, 72263.086, 0.0, 10.000646, 9.999385 
4.550107e+2, 2.2339939e+2, -744345.75, -809362.5, 28839.441, -0.0013421851, -0.06831954, -733397.1, 17282.56, 0.0, 10.0002365, 9.999373 
4.549887e+2, 2.333989e+2, -693788.44, -732321.6, 26576.033, -0.005121005, -0.05581348, -680229.94, -27543.67, 0.0, 9.999902, 9.999391 
4.5496675e+2, 2.4339852e+2, -633711.56, -635630.9, 34805.797, -0.00799019, -0.03504127, -599852.2, -45160.723, 0.0, 9.999568, 9.999542 
4.5494506e+2, 2.5339836e+2, -580571.1, -553045.0, 34027.195, -0.014266611, -0.009247355, -530102.9, -73409.04, 0.0, 9.999233, 9.999598 
4.5492327e+2, 2.6339796e+2, -526206.0, -479744.5, 33801.934, -0.026656436, -0.006664125, -461960.13, -103261.59, 0.0, 9.99895, 9.999565 
4.5490155e+2, 2.7339718e+2, -454520.3, -392705.2, 38166.227, -0.03571341, -0.039766032, -374501.28, -113795.35, 0.0, 9.998761, 9.99958 
4.548801e+2, 2.8339678e+2, -406566.84, -329026.3, 35801.66, -0.015977187, -0.028833374, -315024.5, -152314.64, 0.0, 9.998462, 9.999489 
4.5485872e+2, 2.9339686e+2, -384389.56, -270551.47, 22680.176, 0.02030236, 0.029642858, -266199.25, -201489.48, 0.0, 9.997954, 9.999462 
4.5483577e+2, 3.033954e+2, -395668.8, -244015.5, -2739.4265, -0.0695045, -0.056234214, -243966.03, -243966.03, 0.00000000000087855477, 9.997511, 9.999523 
4.5481354e+2, 3.1339523e+2, -297627.34, 37618.406, 40106.914, -0.057595592, -0.0354957, 42349.797, 42349.797, 0.00000014519496, 9.997179, 10.001616 
4.6523654e+2, 1.2343413e+2, -1281915.0, -1689211.5, -38750.58, -0.0075701117, -0.102106966, -1278261.0, 452074.7, 0.0000043059417, 10.003768, 9.998358 
4.6521285e+2, 1.3343197e+2, -1247952.4, -1646615.9, 43929.76, -0.15450282, -0.1313173, -1243169.1, 389187.2, 0.0000007438799, 10.003425, 9.998148 
4.6519324e+2, 1.434306e+2, -1180267.0, -1528874.9, 19142.736, 0.10478885, -0.092597105, -1179219.0, 355150.63, 0.0000000034677494, 10.003072, 9.998449 
4.651694e+2, 1.5342896e+2, -1129323.0, -1446235.3, 12926.801, 0.003975385, -0.10835689, -1128796.6, 307589.0, 0.0, 10.002718, 9.998514 
4.6514598e+2, 1.6342749e+2, -1066539.4, -1336346.6, 18719.83, -0.053535774, -0.11278769, -1065246.8, 273153.25, 0.0, 10.002352, 9.998773 
4.6512353e+2, 1.734264e+2, -1018786.5, -1255233.9, 20568.3, -0.020883415, -0.10316889, -1017010.6, 223400.69, 0.0, 10.001975, 9.998837 
4.6510097e+2, 1.8342538e+2, -963669.06, -1158316.6, 28238.32, -0.0049344986, -0.09249293, -959655.2, 182766.97, 0.0, 10.001596, 9.999012 
4.6507823e+2, 1.9342452e+2, -918641.25, -1080235.4, 35975.656, -0.0212499, -0.083383664, -910993.94, 133437.58, 0.0, 10.001208, 9.999063 
4.6505567e+2, 2.0342377e+2, -855593.94, -970805.94, 39388.164, -0.024177691, -0.073006965, -843415.44, 103024.44, 0.0, 10.000847, 9.999316 
4.6503332e+2, 2.134232e+2, -799134.3, -885488.9, 36985.215, -0.0032924665, -0.06604386, -785459.25, 62986.61, 0.0, 10.000529, 9.999381 
4.65011e+2, 2.2342259e+2, -742476.25, -812458.8, 44134.48, 0.0038590024, -0.058444697, -721144.9, 29307.887, 0.0, 10.000267, 9.999337 
4.6498856e+2, 2.33422e+2, -667884.0, -724288.75, 45555.04, -0.012696043, -0.05188103, -642508.06, 9952.22, 0.0, 10.0001, 9.99935 
4.6496633e+2, 2.4342154e+2, -596474.25, -623589.5, 52266.74, -0.019820176, -0.034734882, -556035.4, -1569.2256, 0.0, 9.99985, 9.999489 
4.6494436e+2, 2.5342134e+2, -552981.56, -546212.56, 51188.49, -0.014077637, -0.008504147, -498296.8, -41827.863, 0.0, 9.999451, 9.999538 
4.6492237e+2, 2.6342088e+2, -508947.4, -473891.28, 51099.617, -0.019107323, -0.0045146174, -437397.1, -78923.164, 0.0, 9.999079, 9.999543 
4.649003e+2, 2.7342013e+2, -456017.84, -394971.25, 45410.508, -0.030185008, -0.03272889, -370779.06, -110297.914, 0.0, 9.998758, 9.999566 
4.6487853e+2, 2.8341976e+2, -408470.9, -333882.34, 39344.426, -0.015258289, -0.019455373, -316965.47, -154480.38, 0.0, 9.9984665, 9.999454 
4.6485668e+2, 2.9341972e+2, -347634.8, -256739.03, 44824.54, 0.011667098, 0.031206831, -238353.16, -173867.19, 0.0, 9.998223, 9.999427 
4.6483344e+2, 3.0341804e+2, -334557.13, -206139.81, 24328.566, -0.072411776, -0.07931755, -201685.3, -201685.3, 0.00000000000042122027, 9.997894, 9.999599 
4.6481112e+2, 3.1341824e+2, -272767.47, 44996.39, 45991.867, -0.023426397, -0.02893151, 51519.17, 51519.17, 0.00000014428599, 9.997369, 10.001575 
4.752404e+2, 1.23457305e+2, -1286062.3, -1695203.9, -46410.53, 0.004840074, -0.09836775, -1280863.8, 449244.3, 0.0000032345054, 10.003756, 9.9983225 
4.7521633e+2, 1.3345526e+2, -1253161.0, -1656505.6, 31127.896, -0.14709121, -0.11186872, -1250772.9, 381355.4, 0.00000048107097, 10.003419, 9.998083 
4.7519648e+2, 1.4345385e+2, -1174634.1, -1516602.4, 6131.6714, 0.123262204, -0.075006485, -1174524.3, 359617.7, 0.000000000765976, 10.003069, 9.998535 
4.751722e+2, 1.5345202e+2, -1121839.8, -1430136.0, -125.956345, 0.010541686, -0.11973843, -1121839.8, 314319.56, 0.0, 10.002715, 9.998627 
4.751483e+2, 1.6345054e+2, -1065307.8, -1333357.1, 4797.1055, -0.05263197, -0.13378349, -1065221.9, 272951.84, 0.0, 10.00235, 9.998795 
4.7512558e+2, 1.7344972e+2, -1018640.56, -1254526.6, 6846.254, -0.013432598, -0.09951248, -1018442.0, 221740.89, 0.0, 10.001973, 9.998844 
4.7510263e+2, 1.8344882e+2, -954222.5, -1138473.3, 14009.429, 0.0016551858, -0.08132768, -953163.4, 189029.05, 0.0, 10.001595, 9.999149 
4.750794e+2, 1.9344789e+2, -907477.5, -1057005.0, 21594.627, -0.029045302, -0.095685355, -904421.25, 139780.78, 0.0, 10.001207, 9.999223 
4.7505638e+2, 2.0344713e+2, -858362.75, -976658.4, 27053.426, -0.037509404, -0.092885956, -852469.44, 93740.93, 0.0, 10.000846, 9.999276 
4.7503382e+2, 2.134467e+2, -804384.75, -896658.9, 25108.521, -0.0062746387, -0.06524901, -797995.0, 50220.703, 0.0, 10.00053, 9.999305 
4.7501123e+2, 2.2344616e+2, -743269.06, -814428.8, 36967.652, 0.0048559643, -0.045172576, -727540.7, 22681.576, 0.0, 10.000267, 9.999324 
4.7498858e+2, 2.3344555e+2, -667788.94, -724310.7, 39356.45, -0.019042984, -0.040720455, -647597.7, 4632.212, 0.0, 10.0001, 9.99935 
4.7496608e+2, 2.4344502e+2, -599466.44, -630131.4, 38462.117, -0.028075637, -0.028118787, -573393.4, -19157.063, 0.0, 9.999851, 9.999444 
4.7494382e+2, 2.5344467e+2, -556729.6, -554372.4, 36085.082, -0.013924402, -0.010643507, -519446.66, -63206.402, 0.0, 9.999452, 9.999483 
4.7492144e+2, 2.6344416e+2, -518999.56, -495076.75, 38539.715, -0.014644147, -0.004264491, -466684.9, -108438.77, 0.0, 9.99908, 9.999397 
4.7489905e+2, 2.734435e+2, -467441.03, -418591.03, 33242.89, -0.030333845, -0.009057035, -401764.72, -141511.17, 0.0, 9.998757, 9.999405 
4.748769e+2, 2.834432e+2, -396682.25, -309285.78, 29777.467, -0.019785162, 0.016792033, -300104.6, -137847.83, 0.0, 9.998466, 9.999623 
4.7485483e+2, 2.9344326e+2, -330786.72, -222320.39, 36349.598, 0.004615034, 0.055406466, -211265.52, -147009.84, 0.0, 9.998225, 9.999662 
4.7483134e+2, 3.034415e+2, -341154.1, -220534.88, 6677.1445, -0.07055956, -0.07196167, -220166.38, -220166.38, 0.0, 9.997897, 9.999499 
4.748088e+2, 3.13442e+2, -295956.47, -3090.8474, 23837.664, 0.009355098, 0.02300943, -1163.2782, -1163.2782, 0.00000012581201, 9.997368, 10.0012455 
4.8524415e+2, 1.2348067e+2, -1337332.1, -1711427.4, -32028.418, 0.025740944, -0.10240891, -1334609.8, 395269.1, 0.000002270887, 10.003368, 9.998397 
4.852195e+2, 1.3347864e+2, -1292415.0, -1670036.1, 46692.01, -0.1511983, -0.11775851, -1286727.4, 345171.38, 0.0000002759338, 10.003127, 9.998131 
4.851994e+2, 1.4347729e+2, -1203855.4, -1523008.5, 23794.244, 0.122719675, -0.081816144, -1202091.1, 331820.84, 0.000000000009128432, 10.002835, 9.998604 
4.8517475e+2, 1.5347555e+2, -1152031.3, -1436875.4, 14418.463, 0.013473467, -0.12397221, -1151303.3, 284625.3, 0.0, 10.002474, 9.998696 
4.8515055e+2, 1.6347417e+2, -1090874.4, -1333850.4, 20211.137, -0.04956236, -0.13664883, -1089204.8, 248737.45, 0.0, 10.002123, 9.998899 
4.8512742e+2, 1.7347343e+2, -1037571.44, -1251190.4, 29761.166, -0.014970139, -0.1036324, -1033502.6, 206447.47, 0.0, 10.001789, 9.998956 
4.8510408e+2, 1.8347262e+2, -974930.94, -1144850.5, 37180.547, -0.0009495121, -0.08550135, -967151.56, 174807.28, 0.0, 10.001437, 9.999182 
4.8508048e+2, 1.9347173e+2, -928873.75, -1065258.0, 34200.063, -0.027376741, -0.09807377, -920778.2, 123190.19, 0.0, 10.001052, 9.999241 
4.8505715e+2, 2.0347099e+2, -871951.5, -981936.7, 39947.547, -0.035096277, -0.09383767, -858973.6, 87002.93, 0.0, 10.000748, 9.999288 
4.8503435e+2, 2.1347058e+2, -796163.3, -891438.06, 45196.54, -0.008768437, -0.06524412, -778134.5, 69847.16, 0.0, 10.000582, 9.999316 
4.850115e+2, 2.2347005e+2, -734227.1, -815263.0, 59190.27, -0.00040574372, -0.044629328, -703015.06, 46973.242, 0.0, 10.000353, 9.999276 
4.8498857e+2, 2.3346937e+2, -685529.1, -739318.1, 57001.324, -0.023280747, -0.040086478, -649396.1, 2600.574, 0.0, 10.000007, 9.999291 
4.8496583e+2, 2.434688e+2, -617386.4, -641339.56, 53971.375, -0.031512447, -0.026145758, -574078.75, -20075.324, 0.0, 9.99974, 9.99942 
4.8494327e+2, 2.5346845e+2, -534206.75, -545337.25, 53998.71, -0.01740183, -0.0059518735, -485487.28, -29480.215, 0.0, 9.999616, 9.999466 
4.8492062e+2, 2.6346788e+2, -480890.75, -492084.72, 55807.547, -0.01947352, -0.0011609546, -430400.22, -72386.47, 0.0, 9.999409, 9.999259 
4.8489785e+2, 2.7346694e+2, -436241.3, -421515.1, 50095.313, -0.03885325, -0.013423641, -378244.66, -118220.84, 0.0, 9.999049, 9.999244 
4.8487544e+2, 2.834666e+2, -364016.03, -297210.63, 41899.402, -0.025436886, 0.017345224, -277028.8, -115000.92, 0.0, 9.998706, 9.99959 
4.848532e+2, 2.934669e+2, -307681.16, -211506.56, 30619.94, 0.013623757, 0.07878397, -202585.36, -138560.45, 0.0, 9.998385, 9.99966 
4.8482943e+2, 3.0346513e+2, -313691.75, -201947.02, -10147.27, -0.054267757, -0.052499365, -201033.03, -201033.03, 0.0, 9.998062, 9.999547 
4.848064e+2, 3.1346565e+2, -257376.89, 1100.3823, 19654.668, 0.01945058, 0.046475995, 2586.3845, 2586.3845, 0.00000009052117, 9.997695, 10.001117 
4.9524775e+2, 1.235042e+2, -1326619.4, -1687252.6, -34569.86, 0.051833667, -0.114155784, -1323335.5, 406312.6, 0.0000015131092, 10.00336, 9.998568 
4.9522248e+2, 1.3350214e+2, -1282851.3, -1649126.1, 37203.605, -0.16613197, -0.1472662, -1279110.6, 352557.16, 0.00000014199817, 10.003121, 9.998278 
4.9520203e+2, 1.435009e+2, -1201143.9, -1516136.3, 10424.043, 0.10433138, -0.111111686, -1200799.3, 332880.56, 0.0, 10.00283, 9.998654 
4.9517718e+2, 1.5349951e+2, -1150651.3, -1432990.1, 750.4817, 0.0115988515, -0.12105466, -1150649.3, 285044.4, 0.0, 10.002469, 9.998726 
4.9515265e+2, 1.6349834e+2, -1078332.0, -1307126.8, 7553.912, -0.045992374, -0.12223895, -1078082.9, 259622.44, 0.0, 10.002119, 9.999085 
4.9512905e+2, 1.7349756e+2, -1022945.06, -1220455.4, 17357.62, -0.025199514, -0.11522778, -1021431.25, 218281.78, 0.0, 10.001787, 9.999167 
4.951054e+2, 1.8349677e+2, -980171.56, -1155509.4, 22900.969, -0.012139199, -0.104362436, -977229.8, 164491.63, 0.0, 10.001435, 9.99911 
4.950816e+2, 1.9349602e+2, -937437.9, -1083176.6, 19795.873, -0.016898517, -0.09065408, -934796.8, 108933.69, 0.0, 10.001052, 9.999118 
4.9505803e+2, 2.0349535e+2, -867260.4, -972647.25, 32558.443, -0.017924996, -0.07617145, -858013.06, 87725.37, 0.0, 10.000749, 9.9993515 
4.9503484e+2, 2.1349484e+2, -789146.5, -877230.6, 39096.582, -0.011213466, -0.066234015, -774296.75, 73447.01, 0.0, 10.000583, 9.9994135 
4.9501166e+2, 2.234942e+2, -740336.4, -828075.44, 47120.56, -0.012187242, -0.05693103, -719825.1, 29925.846, 0.0, 10.000353, 9.999189 
4.9498853e+2, 2.3349343e+2, -694035.8, -757163.44, 43832.637, -0.025495747, -0.049818702, -671585.06, -19824.451, 0.0, 10.000007, 9.999169 
4.9496555e+2, 2.4349287e+2, -617513.7, -641884.94, 48043.688, -0.03027544, -0.028661367, -580134.4, -26366.912, 0.0, 9.99974, 9.999416 
4.9494278e+2, 2.5349268e+2, -532604.8, -542554.7, 49554.81, -0.024953123, 0.0057268543, -487775.84, -32006.484, 0.0, 9.999617, 9.999485 
4.9491987e+2, 2.63492e+2, -489934.38, -511608.06, 43576.38, -0.03421588, 0.004629663, -455867.56, -98090.76, 0.0, 9.999411, 9.999124 
4.948967e+2, 2.7349055e+2, -447412.38, -445307.3, 36599.156, -0.056425344, -0.047277227, -409745.56, -149953.52, 0.0, 9.999051, 9.99908 
4.9487406e+2, 2.8348997e+2, -381382.1, -333676.56, 29652.957, -0.03250729, -0.019438857, -319473.4, -157674.7, 0.0, 9.998707, 9.999339 
4.948518e+2, 2.9349056e+2, -325711.28, -249140.33, 18627.258, 0.039584782, 0.10189764, -244849.38, -181055.53, 0.0, 9.998386, 9.999401 
4.9482778e+2, 3.0348882e+2, -299353.1, -172122.84, -23693.975, -0.023056008, -0.02040618, -167853.6, -167853.6, 0.0, 9.998062, 9.999752 
4.9480394e+2, 3.1348923e+2, -251156.48, 13661.882, 4221.275, 0.003713522, 0.036200806, 13729.152, 13729.152, 0.000000050936965, 9.997696, 10.001204 
5.052511e+2, 1.2352823e+2, -1356695.3, -1687661.8, -13499.6, 0.06728379, -0.10826397, -1356145.5, 373267.75, 0.0000009949754, 10.003093, 9.998693 
5.052253e+2, 1.3352627e+2, -1325656.4, -1658233.1, 47260.934, -0.17655979, -0.14367214, -1319070.8, 312361.06, 0.000000065122016, 10.002778, 9.998381 
5.0520456e+2, 1.435251e+2, -1250892.1, -1532478.0, 17144.738, 0.09768792, -0.107731745, -1249852.1, 283590.9, 0.0, 10.002455, 9.998722 
5.051795e+2, 1.535238e+2, -1195147.0, -1447718.8, 9004.502, 0.017480113, -0.11460597, -1194826.4, 240629.78, 0.0, 10.002134, 9.998786 
5.0515467e+2, 1.6352272e+2, -1113539.9, -1310987.0, 15740.8125, -0.03752322, -0.11467803, -1112292.9, 225174.17, 0.0, 10.001821, 9.999203 
5.051306e+2, 1.7352206e+2, -1053972.0, -1221165.3, 19400.936, -0.030970473, -0.11030609, -1051750.3, 187723.27, 0.0, 10.001513, 9.999295 
5.0510657e+2, 1.8352133e+2, -1004566.75, -1163248.6, 25846.49, -0.021465188, -0.10107261, -1000462.94, 141018.1, 0.0, 10.00125, 9.9991455 
5.050827e+2, 1.935206e+2, -934837.0, -1079763.4, 33132.71, -0.0107827885, -0.08663665, -927621.5, 115868.375, 0.0, 10.0010605, 9.999138 
5.050589e+2, 2.0351993e+2, -855435.3, -966960.06, 51676.355, -0.0073004714, -0.07193105, -835172.1, 110325.57, 0.0, 10.000831, 9.9993515 
5.0503534e+2, 2.1351941e+2, -797508.6, -881626.7, 50903.15, -0.015942916, -0.063126825, -773536.7, 73966.41, 0.0, 10.000526, 9.99941 
5.0501186e+2, 2.2351874e+2, -754252.44, -839094.0, 55594.32, -0.022871096, -0.056605835, -726742.9, 22767.76, 0.0, 10.000277, 9.99915 
5.0498855e+2, 2.3351787e+2, -681051.6, -755944.44, 57591.703, -0.025226332, -0.055130754, -649802.8, 1718.2341, 0.0, 10.000118, 9.999124 
5.0496536e+2, 2.4351722e+2, -599305.6, -643778.0, 63587.04, -0.026159754, -0.03546809, -554178.94, -650.3621, 0.0, 9.999912, 9.99932 
5.049423e+2, 2.5351697e+2, -539744.44, -557756.1, 56052.87, -0.029770158, 0.0050966325, -491978.56, -36447.547, 0.0, 9.9996195, 9.999379 
5.049192e+2, 2.635162e+2, -493888.78, -521116.2, 46695.688, -0.042672165, 0.003620217, -458862.78, -101323.42, 0.0, 9.999418, 9.999055 
5.0489587e+2, 2.7351454e+2, -405896.38, -432358.0, 46817.094, -0.059309814, -0.06054943, -370476.44, -110920.35, 0.0, 9.999368, 9.999016 
5.04873e+2, 2.835138e+2, -322211.97, -318303.88, 42676.348, -0.030755267, -0.037348703, -277536.88, -115972.86, 0.0, 9.99917, 9.999221 
5.048504e+2, 2.935144e+2, -286549.63, -243992.33, 40909.273, 0.044817973, 0.093751475, -219158.61, -155598.88, 0.0, 9.998715, 9.999277 
5.0482607e+2, 3.0351263e+2, -253235.13, -146922.08, 1730.6289, -0.016040975, -0.02902707, -146893.9, -146893.9, 0.0, 9.998366, 9.999778 
5.048018e+2, 3.1351307e+2, -194682.06, 23077.635, 9744.002, 0.0058106934, 0.027902674, 23512.777, 23512.777, 0.000000020855737, 9.998161, 10.001043 
5.152542e+2, 1.23552725e+2, -1351396.8, -1675844.5, -17346.182, 0.07137582, -0.086300224, -1350472.0, 378702.66, 0.00000067894854, 10.003089, 9.998777 
5.15228e+2, 1.3355094e+2, -1322452.0, -1649796.6, 34558.777, -0.18429728, -0.10860984, -1318843.3, 312347.84, 0.000000029496794, 10.0027685, 9.998444 
5.1520705e+2, 1.4354984e+2, -1246730.1, -1521682.8, 4769.8354, 0.09998912, -0.07359408, -1246647.4, 286554.3, 0.0, 10.002445, 9.998801 
5.151818e+2, 1.535484e+2, -1189786.1, -1435700.1, -2994.7073, 0.030419653, -0.105069034, -1189749.8, 245466.72, 0.0, 10.0021305, 9.998871 
5.151566e+2, 1.635473e+2, -1110003.3, -1303243.6, 3971.3027, -0.024262918, -0.11345711, -1109921.6, 227305.75, 0.0, 10.001818, 9.999258 
5.1513207e+2, 1.7354688e+2, -1050851.6, -1214469.6, 7960.468, -0.033512253, -0.089351214, -1050465.3, 188766.34, 0.0, 10.001512, 9.999342 
5.1510775e+2, 1.8354627e+2, -994785.25, -1142952.9, 18231.676, -0.030145282, -0.07638527, -992574.9, 148662.84, 0.0, 10.00125, 9.999286 
5.1508373e+2, 1.9354546e+2, -923867.1, -1057066.9, 26130.295, -0.009136556, -0.0860505, -918924.44, 124322.02, 0.0, 10.0010605, 9.999294 
5.1505977e+2, 2.0354475e+2, -860100.8, -976697.2, 40854.508, -0.0031369554, -0.080836974, -847210.75, 98043.46, 0.0, 10.00083, 9.999285 
5.1503575e+2, 2.135443e+2, -804774.5, -897030.4, 39388.5, -0.023092035, -0.055724673, -790245.7, 57013.938, 0.0, 10.000527, 9.999305 
5.15012e+2, 2.2354363e+2, -753504.44, -838006.5, 48868.09, -0.032784753, -0.043534387, -731154.8, 18112.424, 0.0, 10.0002775, 9.999157 
5.1498866e+2, 2.3354264e+2, -678758.56, -751673.56, 51731.33, -0.022734351, -0.056212746, -651928.8, -650.848, 0.0, 10.000119, 9.999153 
5.1496536e+2, 2.4354182e+2, -612791.3, -672217.1, 53221.81, -0.019434603, -0.04683382, -581550.0, -28263.273, 0.0, 9.999913, 9.999125 
5.149419e+2, 2.5354135e+2, -556251.9, -592258.75, 44956.043, -0.03200224, -0.00812381, -525828.4, -70536.29, 0.0, 9.9996195, 9.999142 
5.149185e+2, 2.6354045e+2, -494029.97, -521726.7, 43627.973, -0.04479782, -0.0042384877, -462105.22, -104803.78, 0.0, 9.999418, 9.999051 
5.148953e+2, 2.73539e+2, -402609.7, -426641.2, 45293.918, -0.047178272, -0.052047335, -367764.8, -108448.87, 0.0, 9.999372, 9.999053 
5.148722e+2, 2.8353828e+2, -320408.38, -315793.44, 27700.148, -0.020390313, -0.035362095, -290304.8, -128981.13, 0.0, 9.999175, 9.999236 
5.148489e+2, 2.9353842e+2, -285378.7, -242092.5, 24132.42, 0.027501456, 0.052085295, -231319.6, -167996.9, 0.0, 9.998717, 9.9992895 
5.148242e+2, 3.0353647e+2, -264917.84, -171699.83, -6441.618, -0.03505718, -0.08160235, -171256.8, -171256.8, 0.0, 9.998368, 9.999607 
5.148002e+2, 3.1353715e+2, -223537.84, -38189.12, 235.44315, 0.026132507, 0.022058887, -38188.82, -38188.82, 0.0000000053166334, 9.998166, 10.000621 
5.2525723e+2, 1.2357749e+2, -1371125.3, -1670034.1, -7093.159, 0.07912645, -0.05850084, -1370957.0, 357976.78, 0.0000005002885, 10.002889, 9.998912 
5.252306e+2, 1.3357577e+2, -1374189.4, -1662460.0, 37189.445, -0.17343415, -0.08734126, -1369468.9, 261480.56, 0.000000016983103, 10.002361, 9.998553 
5.2520937e+2, 1.4357473e+2, -1307650.4, -1534396.6, 17947.305, 0.11702909, -0.059159886, -1306238.6, 226720.63, 0.0, 10.001955, 9.99895 
5.251836e+2, 1.535734e+2, -1229729.9, -1437805.4, 16358.214, 0.024668675, -0.0929903, -1228451.8, 206520.86, 0.0, 10.001782, 9.999023 
5.2515817e+2, 1.6357239e+2, -1140005.4, -1313396.4, 24523.969, -0.037695542, -0.10264204, -1136603.6, 200379.03, 0.0, 10.001595, 9.999296 
5.2513355e+2, 1.7357197e+2, -1071081.8, -1222390.1, 25806.746, -0.027722549, -0.078473754, -1066801.4, 172185.34, 0.0, 10.001365, 9.999358 
5.25109e+2, 1.8357141e+2, -1002261.7, -1133204.3, 36298.824, -0.017912028, -0.06824057, -992872.5, 148119.81, 0.0, 10.001142, 9.999405 
5.250847e+2, 1.9357064e+2, -934274.56, -1046766.2, 42837.305, -0.013251425, -0.085500106, -919819.4, 123180.36, 0.0, 10.000923, 9.999431 
5.2506036e+2, 2.0356998e+2, -878720.4, -991747.06, 56426.926, -0.014003194, -0.083022855, -855372.8, 89634.12, 0.0, 10.000729, 9.999229 
5.250363e+2, 2.1356949e+2, -804202.8, -906434.25, 55909.277, -0.02388104, -0.05188285, -779564.56, 67448.49, 0.0, 10.000573, 9.999217 
5.250123e+2, 2.2356877e+2, -740075.56, -837183.7, 65712.234, -0.028536463, -0.036540627, -706925.3, 42095.914, 0.0, 10.000395, 9.999106 
5.249888e+2, 2.3356771e+2, -673382.1, -753800.8, 63242.61, -0.022471454, -0.05148386, -638648.7, 12383.356, 0.0, 10.000177, 9.99911 
5.249652e+2, 2.4356677e+2, -610561.94, -684422.4, 62989.305, -0.021612847, -0.048156653, -574475.06, -21433.156, 0.0, 9.999987, 9.999005 
5.2494156e+2, 2.5356603e+2, -534062.7, -596425.06, 61833.082, -0.033497535, -0.021306554, -495993.63, -40943.8, 0.0, 9.999837, 9.999008 
5.24918e+2, 2.6356503e+2, -470672.4, -510484.9, 64322.313, -0.043390512, -0.018141655, -423246.5, -66186.5, 0.0, 9.99958, 9.999049 
5.248946e+2, 2.735638e+2, -435104.66, -439581.63, 64583.297, -0.03982363, -0.048423026, -372721.06, -113648.625, 0.0, 9.999139, 9.999076 
5.2487123e+2, 2.8356308e+2, -368164.97, -340503.53, 44989.43, -0.016880559, -0.02942791, -307266.88, -146187.19, 0.0, 9.998857, 9.99922 
5.2484745e+2, 2.9356298e+2, -269071.7, -236453.42, 38928.188, 0.011309783, 0.03664928, -210556.02, -147475.28, 0.0, 9.998839, 9.9992695 
5.248226e+2, 3.03561e+2, -212700.11, -146017.77, 12005.129, -0.0495915, -0.10208744, -143922.27, -143922.27, 0.0, 9.998726, 9.999611 
5.247986e+2, 3.1356168e+2, -202964.34, -50610.19, 31754.156, 0.04443431, 0.004407356, -44256.83, -44256.83, 0.00000000056215, 9.9984045, 10.00042 
5.352602e+2, 1.2360254e+2, -1360152.3, -1646036.9, -15936.144, 0.08712144, -0.025336264, -1359266.6, 369423.78, 0.00000041209, 10.002883, 9.99908 
5.352332e+2, 1.336007e+2, -1364352.1, -1641827.9, 16907.879, -0.14578289, -0.07886823, -1363325.6, 267381.06, 0.000000018082496, 10.002359, 9.998696 
5.3521156e+2, 1.4359972e+2, -1292980.8, -1503770.9, 9463.081, 0.14723188, -0.06255292, -1292556.8, 240158.7, 0.0, 10.001953, 9.999162 
5.351851e+2, 1.5359879e+2, -1214809.3, -1406463.9, 10047.581, 0.000064885025, -0.07759343, -1214283.9, 220440.77, 0.0, 10.0017805, 9.99924 
5.351593e+2, 1.6359796e+2, -1139213.6, -1311176.8, 16195.763, -0.07739252, -0.08231449, -1137701.6, 199031.2, 0.0, 10.001591, 9.999313 
5.3513503e+2, 1.7359735e+2, -1072598.0, -1224936.0, 17365.602, -0.013928193, -0.077189, -1070643.5, 168095.42, 0.0, 10.001361, 9.999343 
5.351105e+2, 1.8359673e+2, -995810.0, -1119362.8, 28156.984, 0.014268809, -0.07587631, -989695.75, 151049.06, 0.0, 10.001139, 9.999502 
5.3508544e+2, 1.9359617e+2, -926082.9, -1029950.8, 34554.594, -0.023563685, -0.08473056, -915637.75, 127112.09, 0.0, 10.000923, 9.999547 
5.350608e+2, 2.0359558e+2, -881751.7, -998455.06, 50163.254, -0.039977133, -0.07842393, -863153.56, 81602.375, 0.0, 10.00073, 9.999184 
5.3503686e+2, 2.1359499e+2, -809058.6, -916913.6, 50033.78, -0.018448891, -0.05177604, -789422.9, 57340.59, 0.0, 10.000574, 9.9991455 
5.350129e+2, 2.2359417e+2, -747717.94, -853384.0, 57835.54, -0.010443404, -0.03581993, -722216.56, 26555.947, 0.0, 10.000395, 9.998995 
5.349889e+2, 2.3359309e+2, -681489.0, -771056.2, 55042.273, -0.024763938, -0.04076338, -655313.3, -4529.912, 0.0, 10.000178, 9.998992 
5.349651e+2, 2.4359205e+2, -613418.6, -690909.2, 57073.01, -0.033110414, -0.03920558, -583181.9, -30387.8, 0.0, 9.999988, 9.9989605 
5.3494143e+2, 2.5359106e+2, -535952.3, -601147.94, 56388.082, -0.034530666, -0.034390774, -503417.7, -48613.535, 0.0, 9.99984, 9.998975 
5.349176e+2, 2.6359e+2, -470653.9, -510912.3, 49149.56, -0.038667005, -0.038200278, -437671.3, -80856.27, 0.0, 9.999581, 9.999046 
5.3489375e+2, 2.7358893e+2, -435604.84, -439876.97, 47905.48, -0.037755664, -0.05024106, -389787.8, -130962.164, 0.0, 9.999135, 9.999076 
5.3486997e+2, 2.8358832e+2, -372599.7, -348606.5, 42579.973, -0.020894308, -0.019428277, -316365.4, -155533.33, 0.0, 9.998851, 9.999167 
5.348461e+2, 2.935882e+2, -273103.53, -244939.2, 39241.12, -0.0040442836, 0.05015369, -217329.97, -154496.23, 0.0, 9.998839, 9.999211 
5.3482115e+2, 3.0358624e+2, -199173.14, -118633.086, 2054.1472, -0.05989576, -0.08809943, -118580.73, -118580.73, 0.0, 9.998728, 9.999799 
5.3479713e+2, 3.135867e+2, -200731.84, -46194.746, 18432.053, 0.059604898, -0.026338877, -44026.723, -44026.723, 0.0000000000003731001, 9.9984045, 10.00045 
5.4526293e+2, 1.2362795e+2, -1395844.4, -1656184.6, 30274.863, 0.09333614, -0.029378952, -1392370.1, 336071.38, 0.00000036785775, 10.002609, 9.999142 
5.452354e+2, 1.3362612e+2, -1393795.8, -1652578.4, 43767.684, -0.14604634, -0.08530848, -1386593.8, 243864.17, 0.000000024396927, 10.002144, 9.998726 
5.4521346e+2, 1.4362521e+2, -1312215.4, -1502701.9, 39081.19, 0.14930011, -0.066446766, -1304509.0, 227957.31, 0.0, 10.001779, 9.999253 
5.4518676e+2, 1.5362462e+2, -1232334.3, -1403833.9, 32513.434, -0.0032066558, -0.058402054, -1226377.1, 208095.61, 0.0, 10.001613, 9.999338 
5.451608e+2, 1.6362394e+2, -1162993.3, -1314370.1, 31915.88, -0.07947007, -0.055796564, -1156539.4, 179940.03, 0.0, 10.001393, 9.999386 
5.451363e+2, 1.736232e+2, -1110362.1, -1235349.3, 38212.215, -0.0024558266, -0.070118815, -1099605.4, 138880.73, 0.0, 10.001069, 9.999412 
5.451116e+2, 1.836225e+2, -1037187.0, -1143246.3, 54140.23, 0.02803026, -0.07941444, -1014432.0, 126060.445, 0.0, 10.000873, 9.999466 
5.450863e+2, 1.9362193e+2, -935257.3, -1040169.8, 49060.875, -0.027138637, -0.08309618, -915890.0, 126607.71, 0.0, 10.000886, 9.999495 
5.4506147e+2, 2.0362134e+2, -868254.4, -992782.56, 56490.223, -0.04958997, -0.0740046, -846447.3, 98056.64, 0.0, 10.000827, 9.999176 
5.4503745e+2, 2.136207e+2, -799264.06, -912180.2, 60785.074, -0.0143976305, -0.049342047, -772762.25, 73749.125, 0.0, 10.000642, 9.999145 
5.4501337e+2, 2.2361988e+2, -742495.94, -856587.4, 72484.59, -0.0025932486, -0.035539567, -707301.56, 41219.05, 0.0, 10.000456, 9.998943 
5.4498905e+2, 2.336187e+2, -672617.94, -773425.0, 73773.9, -0.030108573, -0.04247908, -633673.25, 16858.78, 0.0, 10.000269, 9.998932 
5.4496497e+2, 2.4361756e+2, -614679.3, -703327.25, 75252.83, -0.041564766, -0.04244612, -571667.1, -19123.582, 0.0, 10.000031, 9.998854 
5.449412e+2, 2.5361645e+2, -562287.25, -626356.44, 68173.66, -0.029044071, -0.03799171, -518996.78, -64441.707, 0.0, 9.999714, 9.998861 
5.449172e+2, 2.6361534e+2, -486864.13, -519895.78, 55441.4, -0.028992409, -0.041203722, -445530.84, -88964.21, 0.0, 9.999476, 9.999035 
5.4489297e+2, 2.7361426e+2, -402065.66, -423296.47, 53896.707, -0.040631026, -0.05293726, -357748.9, -99172.04, 0.0, 9.999364, 9.999079 
5.448689e+2, 2.836136e+2, -335092.94, -337581.06, 50528.55, -0.027531743, -0.024206324, -285793.16, -125209.47, 0.0, 9.99914, 9.999103 
5.44845e+2, 2.936134e+2, -294503.88, -262955.4, 46354.855, 0.0012300622, 0.04430426, -229764.34, -167177.89, 0.0, 9.998727, 9.999141 
5.4481983e+2, 3.0361164e+2, -222013.88, -110054.63, 9715.184, -0.05191265, -0.07949836, -109217.86, -109217.86, 0.0, 9.998488, 9.999971 
5.447954e+2, 3.1361213e+2, -183348.14, -33569.39, 23291.814, 0.046692193, -0.031518154, -30030.918, -30030.918, 0.000000000015387011, 9.998507, 10.000487 
5.5526555e+2, 1.2365374e+2, -1397793.8, -1660773.1, 23224.338, 0.09610165, -0.06652976, -1395758.5, 332428.75, 0.0000003291145, 10.002611, 9.999109 
5.552373e+2, 1.33652e+2, -1398732.1, -1663548.5, 25209.809, -0.17314295, -0.104326636, -1396353.6, 233849.86, 0.000000025104656, 10.002145, 9.998651 
5.552149e+2, 1.4365122e+2, -1314050.8, -1506700.6, 31151.117, 0.124452956, -0.070101455, -1309139.0, 223072.89, 0.0, 10.001779, 9.999227 
5.551885e+2, 1.5365085e+2, -1234364.5, -1407106.3, 26441.393, 0.013363726, -0.03549945, -1230407.8, 203809.14, 0.0, 10.001608, 9.999319 
5.5516243e+2, 1.6365033e+2, -1154962.1, -1296707.8, 20465.244, -0.046401106, -0.02333508, -1152066.5, 184155.89, 0.0, 10.001388, 9.999511 
5.5513746e+2, 1.7364952e+2, -1099958.5, -1214142.9, 25928.795, 0.005974365, -0.057395972, -1094346.4, 143881.86, 0.0, 10.00107, 9.9995575 
5.5511236e+2, 1.836487e+2, -1048471.4, -1167594.0, 52939.234, 0.023565874, -0.078898735, -1028345.1, 111890.21, 0.0, 10.000875, 9.999298 
5.5508715e+2, 1.9364795e+2, -950431.75, -1071867.0, 49701.598, -0.024208797, -0.08082065, -932683.56, 109559.79, 0.0, 10.000886, 9.999277 
5.550623e+2, 2.0364726e+2, -866561.0, -989228.7, 50483.375, -0.043368634, -0.06996273, -848456.75, 95794.07, 0.0, 10.000826, 9.999201 
5.5503815e+2, 2.1364671e+2, -794611.06, -902760.06, 53778.24, -0.012181595, -0.0444368, -772421.9, 73835.02, 0.0, 10.000643, 9.99921 
5.550138e+2, 2.2364584e+2, -741912.06, -855699.3, 65405.92, -0.0053415825, -0.035504036, -712117.7, 36147.918, 0.0, 10.000457, 9.998949 
5.549892e+2, 2.3364455e+2, -672678.06, -774014.7, 66764.68, -0.03874192, -0.056851905, -639532.25, 10745.676, 0.0, 10.00027, 9.998927 
5.549649e+2, 2.4364331e+2, -626654.2, -728577.2, 63842.7, -0.04711252, -0.058118075, -595927.5, -43637.07, 0.0, 10.000032, 9.99868 
5.54941e+2, 2.5364223e+2, -576338.4, -655617.75, 56253.06, -0.017145602, -0.031798523, -547161.56, -92858.945, 0.0, 9.999714, 9.998661 
5.549168e+2, 2.6364106e+2, -488491.28, -523428.53, 50371.105, -0.014644533, -0.026750598, -452645.72, -96330.875, 0.0, 9.999476, 9.999011 
5.548922e+2, 2.736398e+2, -401506.34, -422880.56, 50039.79, -0.04917513, -0.056498364, -361025.16, -102698.98, 0.0, 9.999366, 9.999082 
5.548679e+2, 2.8363895e+2, -340710.2, -349727.3, 36273.64, -0.03726139, -0.044230267, -308666.0, -148331.38, 0.0, 9.999141, 9.99902 
5.5484396e+2, 2.936386e+2, -301982.9, -277187.97, 30617.436, 0.02804759, 0.018083481, -256553.27, -194214.05, 0.0, 9.998721, 9.999046 
5.548186e+2, 3.0363715e+2, -212054.4, -87561.87, 8844.891, -0.025252499, -0.076721795, -86936.59, -86936.59, 0.0, 9.99848, 10.000131 
5.547935e+2, 3.1363803e+2, -180347.02, -27337.186, 22850.867, 0.001812693, -0.0075763594, -23997.475, -23997.475, 0.0000000020600701, 9.998506, 10.000531 
5.65268e+2, 1.2368002e+2, -1425396.5, -1674121.9, 36928.75, 0.093255416, -0.07599098, -1420029.4, 307899.72, 0.00000027083397, 10.002422, 9.999108 
5.652392e+2, 1.3367838e+2, -1410701.8, -1673698.1, 28779.574, -0.18763922, -0.10233755, -1407589.3, 222355.95, 0.000000017878008, 10.002082, 9.998611 
5.6521654e+2, 1.4367758e+2, -1326455.5, -1514609.6, 40869.965, 0.115378514, -0.06358974, -1317961.4, 213992.66, 0.0, 10.001702, 9.9992075 
5.651901e+2, 1.5367731e+2, -1279236.0, -1430566.0, 37013.906, 0.029537994, -0.018990815, -1270667.9, 163290.9, 0.0, 10.001309, 9.999301 
5.6516385e+2, 1.636768e+2, -1195101.4, -1309599.4, 33746.637, -0.025561623, -0.0066381614, -1185895.3, 150068.77, 0.0, 10.001086, 9.999567 
5.651384e+2, 1.7367591e+2, -1086183.4, -1199893.0, 33901.613, -0.0027202999, -0.056228355, -1076843.1, 161126.97, 0.0, 10.001133, 9.999624 
5.651132e+2, 1.8367502e+2, -1026806.94, -1167376.5, 60334.375, 0.006192727, -0.084060974, -1004462.44, 135514.98, 0.0, 10.001069, 9.999206 
5.650881e+2, 1.9367424e+2, -968972.75, -1093799.8, 64045.87, -0.01539923, -0.07732962, -941958.5, 100027.734, 0.0, 10.000815, 9.99916 
5.650632e+2, 2.0367351e+2, -895690.7, -1002029.4, 68017.0, -0.027429016, -0.062800094, -862527.56, 81466.484, 0.0, 10.000621, 9.999211 
5.6503856e+2, 2.1367294e+2, -809074.7, -906307.56, 68567.07, -0.021105845, -0.04155516, -773637.56, 72362.12, 0.0, 10.000529, 9.99924 
5.65014e+2, 2.2367202e+2, -753040.06, -867683.9, 75265.82, -0.022739893, -0.038526062, -715753.6, 32255.063, 0.0, 10.00041, 9.998889 
5.6498945e+2, 2.3367055e+2, -681208.6, -786211.9, 70986.65, -0.03727891, -0.06858039, -645418.0, 4604.738, 0.0, 10.000247, 9.998854 
5.64965e+2, 2.4366926e+2, -624718.1, -732751.2, 66269.09, -0.037280314, -0.07016959, -593239.75, -41203.88, 0.0, 10.000069, 9.998633 
5.6494075e+2, 2.5366825e+2, -557977.75, -651528.8, 69949.58, -0.01632689, -0.029611606, -520605.25, -66558.13, 0.0, 9.999861, 9.998618 
5.649163e+2, 2.6366705e+2, -477167.2, -536402.25, 68600.51, -0.016350087, -0.017414145, -432063.72, -76003.94, 0.0, 9.999635, 9.998845 
5.648916e+2, 2.7366555e+2, -413187.06, -448797.2, 54202.277, -0.043198712, -0.054635808, -373940.34, -115866.32, 0.0, 9.999375, 9.9988985 
5.6486714e+2, 2.836645e+2, -341892.28, -347661.06, 30826.025, -0.02937893, -0.053903893, -313816.0, -153731.55, 0.0, 9.999123, 9.999042 
5.648427e+2, 2.9366407e+2, -275675.66, -258679.73, 35664.188, 0.029732086, -0.0023699242, -230515.05, -168426.19, 0.0, 9.998877, 9.999098 
5.64817e+2, 3.036629e+2, -194753.77, -77654.01, 20902.717, -0.0278863, -0.07345702, -74034.67, -74034.67, 0.0, 9.998592, 10.000145 
5.647917e+2, 3.1366378e+2, -230273.39, -64390.91, 19076.932, -0.011206025, -0.0038145932, -62225.285, -62225.285, 0.000000017271022, 9.9982195, 10.000415 
5.7527024e+2, 1.23706795e+2, -1424651.1, -1671983.1, 34654.47, 0.08259579, -0.06017863, -1419887.4, 307779.75, 0.00000019303324, 10.0024185, 9.999125 
5.752412e+2, 1.3370518e+2, -1412811.8, -1676428.4, 14476.165, -0.19078863, -0.08086617, -1412019.3, 217663.89, 0.000000007774616, 10.002073, 9.998597 
5.7521826e+2, 1.4370432e+2, -1328823.0, -1517640.1, 25794.984, 0.12068322, -0.04755142, -1325362.5, 206330.23, 0.0, 10.001694, 9.999192 
5.7519156e+2, 1.5370397e+2, -1280935.0, -1433623.4, 22270.576, 0.04469627, -0.008609986, -1277753.0, 155945.16, 0.0, 10.001307, 9.999282 
5.75165e+2, 1.6370337e+2, -1195833.5, -1311587.6, 33580.688, -0.016924035, -0.004745208, -1186797.1, 148907.08, 0.0, 10.001087, 9.999554 
5.751393e+2, 1.7370234e+2, -1086945.4, -1201803.3, 35901.313, -0.027838985, -0.06586068, -1076647.0, 161064.13, 0.0, 10.001134, 9.999611 
5.751139e+2, 1.8370143e+2, -1028562.25, -1171077.8, 52252.793, -0.023515694, -0.0945377, -1011457.0, 128261.664, 0.0, 10.001069, 9.999181 
5.75089e+2, 1.9370078e+2, -970663.06, -1097527.4, 54395.29, -0.0010504683, -0.07249235, -950533.94, 91192.38, 0.0, 10.000815, 9.999135 
5.75064e+2, 2.0370011e+2, -896052.9, -1003153.94, 63691.793, -0.0025280977, -0.052429203, -866391.0, 77342.59, 0.0, 10.000622, 9.999204 
5.7503885e+2, 2.1369943e+2, -809298.44, -907219.25, 65126.758, -0.041402, -0.040898293, -776781.1, 68958.59, 0.0, 10.00053, 9.999233 
5.7501405e+2, 2.2369836e+2, -762018.3, -886693.7, 69408.6, -0.054846194, -0.044834685, -731063.25, 16686.688, 0.0, 10.000411, 9.998758 
5.749898e+2, 2.3369673e+2, -691342.9, -807658.94, 64869.227, -0.025676679, -0.07756432, -662378.1, -12611.821, 0.0, 10.000248, 9.998707 
5.7496536e+2, 2.436954e+2, -618793.3, -720897.5, 58689.285, -0.012244155, -0.078523286, -592058.9, -40278.887, 0.0, 10.00007, 9.998714 
5.749405e+2, 2.536946e+2, -549670.0, -634753.5, 62284.297, -0.027351543, -0.031638637, -516785.4, -62996.777, 0.0, 9.999863, 9.998733 
5.749157e+2, 2.6369336e+2, -499493.4, -583223.9, 59076.527, -0.034760766, -0.013330049, -468951.9, -113150.484, 0.0, 9.999636, 9.998524 
5.748911e+2, 2.736915e+2, -440338.28, -505088.56, 44360.734, -0.02233722, -0.04698873, -417795.1, -159974.56, 0.0, 9.999373, 9.998512 
5.748665e+2, 2.836902e+2, -332662.53, -328155.94, 21476.12, -0.003928163, -0.0526228, -308815.22, -148981.86, 0.0, 9.99912, 9.999177 
5.748413e+2, 2.9368985e+2, -260942.92, -228370.8, 26855.758, 0.0037471068, -0.016923537, -213248.77, -151413.27, 0.0, 9.998878, 9.999307 
5.748152e+2, 3.036889e+2, -205492.05, -99653.18, 7450.8237, -0.062240794, -0.07042239, -99131.234, -99131.234, 0.00000000021282408, 9.99859, 9.999994 
5.7479006e+2, 3.136894e+2, -253063.02, -108755.26, 2530.0798, 0.009281074, -0.019755471, -108710.914, -108710.914, 0.0000000699572, 9.998206, 10.000116 
5.852724e+2, 1.2373344e+2, -1464541.9, -1677285.9, 21559.4, 0.07122335, -0.04235379, -1462379.1, 265028.1, 0.00000011738098, 10.002086, 9.9992485 
5.8524305e+2, 1.3373202e+2, -1474407.6, -1694195.9, -2947.9377, -0.18789019, -0.05379028, -1474368.1, 155053.1, 0.0000000014227642, 10.0016, 9.998703 
5.8521974e+2, 1.4373116e+2, -1387147.4, -1533694.1, 23455.104, 0.12553851, -0.032401152, -1383484.9, 147945.73, 0.0, 10.001243, 9.999298 
5.851926e+2, 1.5373065e+2, -1296902.3, -1429431.5, 29551.186, 0.03898946, -0.019555204, -1290611.5, 142824.95, 0.0, 10.001147, 9.999387 
5.85166e+2, 1.6373001e+2, -1198789.6, -1317771.8, 53317.555, -0.026154492, -0.023278365, -1178393.6, 157048.95, 0.0, 10.001088, 9.999509 
5.8514035e+2, 1.7372914e+2, -1099475.0, -1215171.5, 52737.9, -0.029278219, -0.06211498, -1079043.5, 158405.28, 0.0, 10.0010805, 9.999544 
5.851149e+2, 1.8372831e+2, -1039387.3, -1175059.0, 59338.05, -0.020893676, -0.08039904, -1017097.1, 122358.836, 0.0, 10.00099, 9.99919 
5.850898e+2, 1.9372757e+2, -976436.6, -1097543.6, 63429.883, -0.00023593465, -0.0674304, -949297.06, 92166.78, 0.0, 10.000765, 9.999158 
5.8506465e+2, 2.037268e+2, -901941.9, -1013305.25, 78909.96, -0.003788569, -0.05572113, -861045.94, 82425.78, 0.0, 10.000614, 9.999137 
5.850394e+2, 2.1372597e+2, -806991.94, -914948.7, 75593.984, -0.04539867, -0.05121007, -768082.7, 77396.54, 0.0, 10.000585, 9.999153 
5.850144e+2, 2.2372484e+2, -758535.44, -893329.1, 73576.61, -0.05902887, -0.05476273, -726153.25, 21337.0, 0.0, 10.000471, 9.998684 
5.8498996e+2, 2.3372324e+2, -700951.0, -820384.8, 73644.234, -0.025770968, -0.07557175, -665854.5, -16347.696, 0.0, 10.000217, 9.998633 
5.849654e+2, 2.4372192e+2, -620505.25, -716866.3, 71759.73, -0.009686909, -0.07150639, -582251.9, -30731.537, 0.0, 10.000037, 9.998757 
5.849404e+2, 2.5372112e+2, -529306.8, -618054.25, 71308.63, -0.024877138, -0.030239942, -489692.75, -36164.38, 0.0, 9.999973, 9.998794 
5.8491546e+2, 2.6371986e+2, -482109.53, -591627.2, 66934.53, -0.03267391, -0.012827617, -450388.53, -94847.05, 0.0, 9.999827, 9.998373 
5.8489054e+2, 2.7371785e+2, -428243.66, -519681.38, 66758.74, -0.020764465, -0.04167717, -393049.34, -135486.77, 0.0, 9.999545, 9.99833 
5.848656e+2, 2.8371644e+2, -312346.34, -314465.03, 48481.09, -0.0021006358, -0.05188874, -264913.03, -105336.15, 0.0, 9.999244, 9.999212 
5.8484024e+2, 2.93716e+2, -251457.61, -216622.8, 42540.637, 0.007082341, -0.029925745, -188072.05, -126493.05, 0.0, 9.998912, 9.99937 
5.848138e+2, 3.0371526e+2, -210326.8, -106325.15, 17716.014, -0.060771935, -0.06325249, -103390.164, -103390.164, 0.000000006848287, 9.998577, 9.999954 
5.847881e+2, 3.1371555e+2, -258617.05, -123180.195, 21904.533, -0.00413145, -0.031128336, -119725.63, -119725.63, 0.00000018333391, 9.998219, 10.0000105 
5.9527427e+2, 1.2375999e+2, -1450821.4, -1646559.8, 14761.852, 0.05778462, -0.023244552, -1449714.4, 277434.4, 0.000000058921596, 10.002075, 9.999464 
5.952447e+2, 1.3375893e+2, -1460581.0, -1664189.5, -21997.57, -0.18003725, -0.021987656, -1458231.5, 170927.6, 0.000000000010343272, 10.001594, 9.998913 
5.95221e+2, 1.4375809e+2, -1372508.3, -1502930.6, 17879.068, 0.12927558, -0.01843043, -1370101.8, 161065.47, 0.0, 10.00124, 9.999512 
5.951935e+2, 1.5375735e+2, -1281587.4, -1398159.9, 26106.582, 0.013530644, -0.05004758, -1276007.8, 157165.86, 0.0, 10.001148, 9.999601 
5.9516674e+2, 1.6375671e+2, -1204188.1, -1329455.3, 52575.492, -0.052129183, -0.060504135, -1185046.8, 150132.47, 0.0, 10.001089, 9.999429 
5.951416e+2, 1.7375627e+2, -1108304.6, -1233163.9, 52427.133, -0.008322292, -0.04564688, -1089210.9, 147972.22, 0.0, 10.001078, 9.999423 
5.951162e+2, 1.8375559e+2, -1036751.0, -1169316.0, 51730.83, 0.011941064, -0.04295948, -1018953.5, 120235.875, 0.0, 10.000988, 9.999231 
5.950904e+2, 1.9375461e+2, -971464.2, -1087905.5, 54753.07, -0.013073294, -0.062348254, -949762.75, 91436.06, 0.0, 10.000767, 9.999224 
5.9506494e+2, 2.0375359e+2, -910354.94, -1031586.9, 76851.87, -0.030554773, -0.07247746, -873090.9, 70117.62, 0.0, 10.000616, 9.999011 
5.9504e+2, 2.1375257e+2, -817551.6, -937405.25, 74518.63, -0.03330009, -0.07225913, -781852.9, 63365.207, 0.0, 10.0005865, 9.998999 
5.9501505e+2, 2.2375143e+2, -759975.5, -896569.75, 64990.047, -0.035935637, -0.06810177, -733995.3, 13234.341, 0.0, 10.000471, 9.998662 
5.949901e+2, 2.3375008e+2, -701078.7, -820847.75, 64047.74, -0.03816286, -0.06250603, -673280.44, -24036.31, 0.0, 10.000217, 9.998631 
5.9496516e+2, 2.4374886e+2, -620300.0, -716765.3, 68548.03, -0.030037958, -0.049103234, -584716.06, -33459.105, 0.0, 10.000038, 9.998758 
5.949405e+2, 2.5374788e+2, -528972.0, -617889.5, 69048.28, -0.008609577, -0.025216665, -491307.38, -38040.945, 0.0, 9.999974, 9.998795 
5.9491545e+2, 2.6374656e+2, -480076.38, -587990.25, 57360.465, -0.010002636, -0.0159494, -455283.25, -100003.24, 0.0, 9.999829, 9.998398 
5.948899e+2, 2.7374467e+2, -426190.72, -515902.1, 56346.37, -0.040151756, -0.039465908, -399025.97, -141725.77, 0.0, 9.999546, 9.998356 
5.948646e+2, 2.8374317e+2, -317999.28, -326300.66, 36358.242, -0.025554767, -0.05222179, -285555.56, -126240.58, 0.0, 9.999243, 9.999131 
5.948394e+2, 2.9374254e+2, -258982.94, -231394.9, 30173.133, 0.04139289, -0.040385306, -212012.23, -150692.92, 0.0, 9.998908, 9.999271 
5.948127e+2, 3.03742e+2, -205351.52, -94512.31, 4777.5815, -0.021825422, -0.050744634, -94306.76, -94306.76, 0.000000033052434, 9.99857, 10.000039 
5.9478575e+2, 3.1374222e+2, -252096.56, -108794.83, 7707.0986, -0.055982143, -0.036310416, -108381.516, -108381.516, 0.00000037488923, 9.998214, 10.000113 
6.0527587e+2, 1.2378673e+2, -1517213.1, -1664958.5, 40915.676, 0.037920956, -0.027697617, -1506639.0, 220247.52, 0.000000021349177, 10.001563, 9.999584 
6.052461e+2, 1.3378574e+2, -1506865.9, -1673859.1, -14909.816, -0.1685126, -0.0300538, -1505545.0, 123350.914, 0.0, 10.001223, 9.999024 
6.052222e+2, 1.4378491e+2, -1396665.8, -1500372.5, 32453.033, 0.14211084, -0.036888503, -1387347.5, 143556.14, 0.0, 10.001014, 9.999637 
6.0519445e+2, 1.5378435e+2, -1282104.8, -1384082.3, 36306.316, 0.0016844008, -0.06347138, -1270499.6, 162408.16, 0.0, 10.001083, 9.999728 
6.051676e+2, 1.6378382e+2, -1217008.6, -1343663.1, 55337.33, -0.06934333, -0.068866916, -1196237.4, 138675.05, 0.0, 10.001037, 9.999356 
6.051426e+2, 1.7378333e+2, -1156840.5, -1267506.0, 55930.1, 0.00032557108, -0.047926646, -1133497.4, 103420.29, 0.0, 10.0007925, 9.999324 
6.0511714e+2, 1.8378262e+2, -1077976.5, -1187236.9, 58464.824, 0.02675216, -0.041808885, -1052590.5, 86334.11, 0.0, 10.000697, 9.9992485 
6.0509104e+2, 1.9378164e+2, -958395.5, -1077938.8, 59207.27, -0.02425225, -0.06290108, -934035.4, 106898.07, 0.0, 10.000842, 9.999256 
6.050654e+2, 2.037806e+2, -883072.8, -1024991.3, 78594.22, -0.048748873, -0.07494093, -848144.06, 94799.18, 0.0, 10.000833, 9.998952 
6.0504067e+2, 2.137795e+2, -823802.5, -948260.7, 81720.94, -0.027488187, -0.07645879, -783314.7, 61639.293, 0.0, 10.000578, 9.998928 
6.050157e+2, 2.2377834e+2, -769938.06, -903134.6, 75943.195, -0.020481942, -0.06917854, -735527.94, 11438.031, 0.0, 10.000411, 9.998646 
6.0499036e+2, 2.337771e+2, -677297.1, -810279.56, 74413.64, -0.036733832, -0.052933976, -643996.2, 4983.454, 0.0, 10.000385, 9.998622 
6.049652e+2, 2.4377586e+2, -593464.8, -707722.25, 75436.375, -0.035701063, -0.038546517, -555966.2, -4973.4263, 0.0, 10.000239, 9.998724 
6.0494035e+2, 2.537747e+2, -542686.44, -628988.3, 72388.305, -0.009479445, -0.028265353, -501563.6, -48559.46, 0.0, 9.9999, 9.9987545 
6.049152e+2, 2.637734e+2, -496498.2, -580537.9, 62664.33, -0.008234737, -0.019517768, -463069.47, -108052.14, 0.0, 9.99965, 9.998535 
6.048894e+2, 2.7377185e+2, -415952.44, -492677.63, 71659.71, -0.040267594, -0.024914792, -373032.78, -115999.016, 0.0, 9.999538, 9.998519 
6.048638e+2, 2.8377038e+2, -310775.84, -336494.7, 52096.215, -0.02640305, -0.037864003, -269975.4, -110927.2, 0.0, 9.9993515, 9.999009 
6.048384e+2, 2.937694e+2, -250572.47, -246482.86, 39929.64, 0.043327227, -0.04885239, -208545.7, -147488.67, 0.00000000003092486, 9.999048, 9.9991 
6.048113e+2, 3.03769e+2, -177241.97, -77278.836, 9274.135, -0.019284494, -0.037866764, -76425.7, -76425.7, 0.00000008707832, 9.998748, 10.000072 
6.0478395e+2, 3.1376922e+2, -212383.64, -79543.71, 6623.0303, -0.06522312, -0.026057271, -79214.32, -79214.32, 0.0000006525611, 9.998444, 10.000202 
6.152772e+2, 1.23813674e+2, -1516433.9, -1661545.4, 38076.813, 0.01064121, -0.05269298, -1507049.5, 219571.06, 0.0000000039655865, 10.0015545, 9.999612 
6.152475e+2, 1.338125e+2, -1505680.5, -1671552.6, -29035.664, -0.15380813, -0.07406275, -1500744.6, 127887.03, 0.0, 10.001222, 9.999041 
6.152234e+2, 1.4381166e+2, -1393486.5, -1494537.0, 32904.848, 0.16303562, -0.084612474, -1383716.4, 146923.25, 0.0, 10.001016, 9.999677 
6.151955e+2, 1.5381165e+2, -1279307.8, -1378300.4, 38878.402, 0.0019888896, -0.061040774, -1265864.3, 166774.56, 0.0, 10.001082, 9.999769 
6.151685e+2, 1.6381127e+2, -1221758.8, -1353552.3, 47175.08, -0.07888143, -0.0506165, -1206613.1, 128029.26, 0.0, 10.001036, 9.9992895 
6.151433e+2, 1.7381032e+2, -1161911.5, -1278894.3, 46437.38, -0.002933288, -0.06809604, -1145719.0, 90933.53, 0.0, 10.000795, 9.999245 
6.151178e+2, 1.8380943e+2, -1078205.4, -1188894.3, 62104.836, 0.024171984, -0.075016506, -1050363.1, 88298.336, 0.0, 10.000701, 9.999235 
6.1509174e+2, 1.9380873e+2, -958407.8, -1078503.1, 64708.67, -0.03407227, -0.06865366, -930177.94, 110489.83, 0.0, 10.000843, 9.999252 
6.150662e+2, 2.0380786e+2, -882599.2, -1024224.2, 70546.266, -0.058962394, -0.06325583, -853455.75, 89220.19, 0.0, 10.000833, 9.998958 
6.150412e+2, 2.1380678e+2, -822948.9, -946909.5, 71900.98, -0.028257364, -0.06406514, -790001.25, 54685.613, 0.0, 10.000579, 9.998938 
6.150161e+2, 2.2380559e+2, -770831.7, -905338.44, 73918.55, -0.012793898, -0.058273643, -738150.25, 8548.894, 0.0, 10.000412, 9.998631 
6.1499083e+2, 2.3380429e+2, -678197.56, -812646.56, 73594.14, -0.021486456, -0.04696298, -645746.44, 2966.891, 0.0, 10.000387, 9.998606 
6.149655e+2, 2.4380293e+2, -598554.56, -718775.94, 63924.47, -0.026855346, -0.03999061, -570917.7, -20190.014, 0.0, 10.00024, 9.998648 
6.1494005e+2, 2.5380158e+2, -548851.1, -641779.06, 59488.055, -0.028516538, -0.039937235, -519831.78, -67090.2, 0.0, 9.999899, 9.998668 
6.149146e+2, 2.638004e+2, -478914.2, -543824.3, 57488.984, -0.028353583, -0.02370357, -445351.72, -90598.125, 0.0, 9.999648, 9.998789 
6.148891e+2, 2.737995e+2, -394771.13, -448585.25, 67776.17, -0.020238291, 0.003462536, -348756.3, -91993.16, 0.0, 9.9995365, 9.998823 
6.148634e+2, 2.8379816e+2, -322904.44, -361704.8, 41654.734, -0.0040155305, -0.007284493, -296353.75, -137577.36, 0.0, 9.999351, 9.9988365 
6.1483705e+2, 2.937965e+2, -267990.94, -282953.3, 28719.793, 0.009387356, -0.056553517, -245793.94, -185001.64, 0.0000000010306047, 9.999048, 9.99885 
6.148097e+2, 3.0379617e+2, -179207.92, -81482.95, -1921.2086, -0.056566946, -0.025804043, -81445.195, -81445.195, 0.00000016756015, 9.998748, 10.000043 
6.147827e+2, 3.137966e+2, -208158.0, -70180.15, -6160.611, -0.02904695, 0.005143342, -69905.625, -69905.625, 0.000001002472, 9.998441, 10.000269 
6.2527853e+2, 1.2384075e+2, -1571368.5, -1677896.3, 47837.215, 0.017533902, -0.07227321, -1553040.1, 173313.88, 0.00000000008306351, 10.001134, 9.999702 
6.252486e+2, 1.338397e+2, -1520563.3, -1668610.6, -25426.043, -0.15669404, -0.09123662, -1516318.3, 112045.43, 0.0, 10.001077, 9.999131 
6.252242e+2, 1.4383882e+2, -1402073.9, -1506632.8, 43284.62, 0.14812069, -0.10710338, -1386480.8, 143891.2, 0.0, 10.000992, 9.999605 
6.251965e+2, 1.5383884e+2, -1308373.4, -1402842.5, 40770.23, 0.006741449, -0.07038704, -1293211.5, 139159.89, 0.0, 10.000929, 9.999674 
6.251695e+2, 1.6383848e+2, -1244105.8, -1363137.8, 41353.395, -0.07013048, -0.05369569, -1231149.3, 103226.0, 0.0, 10.000877, 9.999299 
6.2514395e+2, 1.738375e+2, -1153489.1, -1272207.6, 46900.348, -0.01580866, -0.076386616, -1137196.8, 99188.88, 0.0, 10.000842, 9.999268 
6.251183e+2, 1.838366e+2, -1064707.9, -1183272.1, 72840.305, 0.0054072454, -0.086065, -1030074.7, 108320.07, 0.0, 10.000798, 9.999227 
6.250925e+2, 1.9383588e+2, -973859.9, -1087213.9, 75442.125, -0.03360229, -0.07796864, -936176.94, 104224.055, 0.0, 10.000743, 9.99924 
6.250669e+2, 2.0383506e+2, -907219.2, -1038924.25, 72891.266, -0.05252903, -0.06825034, -874838.9, 67570.34, 0.0, 10.000676, 9.998931 
6.250416e+2, 2.1383402e+2, -822250.4, -949434.44, 70556.516, -0.037321877, -0.06121785, -790857.3, 53562.895, 0.0, 10.000597, 9.998911 
6.250164e+2, 2.2383288e+2, -756970.0, -890329.4, 75782.9, -0.024529569, -0.05255579, -722708.0, 23724.209, 0.0, 10.000472, 9.998704 
6.2499124e+2, 2.338316e+2, -688449.9, -807704.4, 83480.71, -0.015684864, -0.046141434, -645488.44, 2957.1223, 0.0, 10.000275, 9.998693 
6.249658e+2, 2.4383028e+2, -616089.1, -726900.06, 77104.03, -0.0152751105, -0.04227152, -576548.3, -26088.62, 0.0, 10.000119, 9.998651 
6.2494e+2, 2.538289e+2, -531323.3, -634254.4, 77860.65, -0.029723333, -0.04233727, -489456.22, -36981.99, 0.0, 10.000024, 9.998659 
6.249142e+2, 2.6382786e+2, -448427.25, -520318.06, 72503.695, -0.034729112, -0.0197621, -403447.63, -48962.023, 0.0, 9.999821, 9.998867 
6.248886e+2, 2.7382714e+2, -401208.94, -441463.8, 66344.914, -0.01947678, 0.022863418, -352005.56, -95512.945, 0.0, 9.999449, 9.998914 
6.248627e+2, 2.8382587e+2, -344227.94, -375445.66, 38544.81, -0.0036815775, 0.011831398, -318251.47, -159746.0, 0.0, 9.999219, 9.998805 
6.24836e+2, 2.9382396e+2, -248164.95, -279497.38, 40524.566, -0.0027066653, -0.05828876, -220383.83, -159859.66, 0.000000004235602, 9.99921, 9.998795 
6.248085e+2, 3.0382368e+2, -139193.03, -75496.57, 9926.837, -0.06596094, -0.013965164, -73985.37, -73985.37, 0.000000262113, 9.999081, 9.999924 
6.2478137e+2, 3.1382385e+2, -163945.63, -51876.332, -6958.7583, -0.018246679, 0.004225517, -51445.89, -51445.89, 0.0000013873902, 9.998757, 10.000241 
6.3527995e+2, 1.2386798e+2, -1561132.8, -1656951.0, 54085.99, 0.053109884, -0.08724322, -1536788.3, 189298.45, 0.0, 10.001134, 9.999846 
6.3524944e+2, 1.338673e+2, -1509486.1, -1646575.3, -29332.443, -0.17653091, -0.083901756, -1503473.6, 124618.33, 0.0, 10.00108, 9.999281 
6.352247e+2, 1.4386636e+2, -1413900.1, -1532290.9, 40009.418, 0.10000002, -0.10655447, -1401647.3, 128453.36, 0.0, 10.000995, 9.999428 
6.351975e+2, 1.5386595e+2, -1323666.9, -1435168.8, 38039.566, 0.015821537, -0.09067796, -1311925.8, 120179.44, 0.0, 10.000931, 9.999453 
6.3517064e+2, 1.6386546e+2, -1238429.0, -1351926.3, 39666.996, -0.04476513, -0.07636987, -1225939.8, 108170.73, 0.0, 10.000879, 9.999376 
6.3514453e+2, 1.7386487e+2, -1144852.8, -1255058.5, 45347.6, -0.038613755, -0.073108375, -1128592.3, 107524.69, 0.0, 10.000845, 9.999385 
6.351187e+2, 1.838641e+2, -1064951.1, -1184463.3, 70559.38, -0.029200314, -0.07591035, -1032244.1, 105880.36, 0.0, 10.0008, 9.999218 
6.3509333e+2, 1.9386314e+2, -975272.7, -1090640.3, 73167.63, -0.02317071, -0.090785295, -939785.0, 100348.195, 0.0, 10.000744, 9.999216 
6.350678e+2, 2.0386218e+2, -911158.44, -1047584.7, 69709.734, -0.030363102, -0.0894818, -881839.6, 60303.336, 0.0, 10.000678, 9.998872 
6.350421e+2, 2.1386123e+2, -826481.94, -958776.6, 67484.805, -0.055091847, -0.06773803, -798132.4, 46021.56, 0.0, 10.000598, 9.998847 
6.3501656e+2, 2.2386019e+2, -745524.06, -866902.06, 68755.586, -0.05580181, -0.05195438, -714504.4, 31660.738, 0.0, 10.000472, 9.998865 
6.349914e+2, 2.3385908e+2, -675038.1, -780085.56, 76054.93, -0.019566497, -0.05055366, -635133.0, 13043.356, 0.0, 10.000275, 9.998883 
6.34966e+2, 2.4385788e+2, -610377.8, -715332.44, 73118.39, -0.0012721827, -0.04536721, -572854.2, -22665.5, 0.0, 10.000119, 9.99873 
6.3494015e+2, 2.5385672e+2, -526159.25, -624164.94, 74526.336, -0.012796452, -0.034750566, -485968.72, -33766.785, 0.0, 10.000026, 9.998728 
6.349141e+2, 2.6385567e+2, -455851.22, -536365.56, 59635.45, -0.027290735, -0.007140238, -424156.84, -69943.516, 0.0, 9.999822, 9.998756 
6.348878e+2, 2.7385482e+2, -411047.88, -461572.78, 52159.246, -0.039878473, 0.032165032, -378355.34, -122132.99, 0.0, 9.999446, 9.998777 
6.348616e+2, 2.8385344e+2, -336234.56, -358219.16, 36737.75, -0.027278973, 0.01829512, -308879.84, -150644.11, 0.0, 9.999216, 9.998925 
6.348353e+2, 2.938517e+2, -237498.31, -257368.45, 40728.367, 0.008812296, -0.05248518, -205510.77, -145258.31, 0.000000008608103, 9.99921, 9.998947 
6.3480777e+2, 3.038515e+2, -154757.66, -108396.01, -488.48715, -0.045632083, -0.0009442567, -108390.86, -108390.86, 0.00000035003856, 9.999083, 9.999697 
6.3477993e+2, 3.138509e+2, -173729.31, -72879.734, -20211.441, -0.03761868, -0.030313531, -68979.92, -68979.92, 0.0000017531552, 9.998759, 10.000097 
6.4528114e+2, 1.2389541e+2, -1580576.6, -1664473.4, 64889.527, 0.06431918, -0.082872696, -1545257.3, 180560.7, 0.0, 10.000993, 9.999863 
6.4525044e+2, 1.3389479e+2, -1507100.0, -1642199.1, -36364.24, -0.17926222, -0.076291226, -1497933.8, 129888.336, 0.0, 10.001082, 9.99931 
6.4522547e+2, 1.4389373e+2, -1409458.6, -1534616.5, 28605.498, 0.07883795, -0.1095709, -1403230.6, 126601.06, 0.0, 10.001046, 9.999387 
6.451984e+2, 1.5389323e+2, -1334224.9, -1445995.6, 38090.973, 0.018430525, -0.099693745, -1322478.1, 109359.41, 0.0, 10.000883, 9.9994 
6.451716e+2, 1.6389272e+2, -1246864.1, -1354018.9, 49011.977, -0.03413383, -0.08633091, -1227828.1, 106015.234, 0.0, 10.0008135, 9.999393 
6.451453e+2, 1.7389221e+2, -1137602.6, -1248753.9, 48336.58, -0.04464411, -0.0755707, -1119523.1, 116325.67, 0.0, 10.000883, 9.99941 
6.4511937e+2, 1.8389152e+2, -1055341.8, -1173989.1, 66629.086, -0.0411841, -0.07376732, -1025453.7, 112401.82, 0.0, 10.000842, 9.9992695 
6.45094e+2, 1.9389063e+2, -987528.7, -1090497.6, 74049.3, -0.02478058, -0.0889143, -948824.75, 91038.84, 0.0, 10.000635, 9.9992695 
6.4506835e+2, 2.0388967e+2, -932348.8, -1058429.8, 79749.66, -0.027168537, -0.08915554, -893732.44, 48140.93, 0.0, 10.000536, 9.998865 
6.450426e+2, 2.1388866e+2, -826626.3, -960487.3, 81537.6, -0.0556979, -0.07041763, -788067.1, 55818.113, 0.0, 10.000606, 9.998831 
6.4501697e+2, 2.2388767e+2, -728993.5, -849255.94, 74650.12, -0.06060263, -0.05378518, -693268.56, 52627.78, 0.0, 10.000545, 9.998951 
6.449916e+2, 2.338867e+2, -666582.8, -764808.5, 74059.41, -0.029330667, -0.046263594, -626831.3, 21074.676, 0.0, 10.000285, 9.998983 
6.44966e+2, 2.4388565e+2, -614162.94, -706338.0, 70695.305, -0.008695539, -0.0373014, -575859.2, -25942.313, 0.0, 10.000048, 9.998826 
6.4494014e+2, 2.5388455e+2, -545461.1, -622589.0, 74337.87, -0.006698811, -0.026070504, -500279.66, -48350.84, 0.0, 9.999847, 9.998824 
6.449139e+2, 2.638835e+2, -471468.63, -551314.25, 61333.047, -0.019344244, -0.002065612, -438209.66, -84269.36, 0.0, 9.999747, 9.998689 
6.4488727e+2, 2.7388248e+2, -366117.4, -449525.16, 57303.066, -0.04820121, 0.025983121, -336949.2, -80997.516, 0.0, 9.999797, 9.998691 
6.4486086e+2, 2.8388107e+2, -277447.0, -326374.28, 37114.88, -0.039103165, 0.011608335, -257458.6, -99492.93, 0.0, 9.999605, 9.998956 
6.4483446e+2, 2.9387954e+2, -257677.16, -262432.94, 31854.367, 0.0141609125, -0.04035585, -228112.05, -168131.95, 0.000000011710588, 9.999053, 9.998988 
6.4480674e+2, 3.0387938e+2, -194332.72, -145335.72, -1329.7155, -0.034301445, 0.02487508, -145299.66, -145299.66, 0.00000040808163, 9.998889, 9.999536 
6.447788e+2, 3.1387818e+2, -95031.52, -38287.496, -13987.553, -0.044997573, -0.053749904, -35026.887, -35026.887, 0.0000020409286, 9.999315, 10.000066 
6.5528196e+2, 1.23923056e+2, -1585694.5, -1678190.4, 74438.164, 0.05219266, -0.061323754, -1544307.4, 181240.08, 0.0, 10.001005, 9.999763 
6.5525156e+2, 1.339222e+2, -1512343.3, -1654476.6, -34547.93, -0.16637082, -0.06861257, -1504390.8, 123163.086, 0.0, 10.001087, 9.999224 
6.552265e+2, 1.43921e+2, -1403439.3, -1522731.1, 22688.982, 0.081979476, -0.11580784, -1399269.6, 130295.05, 0.0, 10.001047, 9.999469 
6.551992e+2, 1.5392068e+2, -1326680.6, -1430877.8, 31610.385, 0.01390009, -0.097788155, -1317840.9, 113727.42, 0.0, 10.000885, 9.999504 
6.551723e+2, 1.639202e+2, -1249991.9, -1361012.1, 50369.195, -0.037941672, -0.0840427, -1230545.9, 103027.71, 0.0, 10.000814, 9.999345 
6.5514624e+2, 1.7391953e+2, -1142147.1, -1258605.1, 50801.254, -0.034683265, -0.08359192, -1123101.4, 112479.734, 0.0, 10.000884, 9.999342 
6.551203e+2, 1.8391888e+2, -1047739.4, -1158638.4, 59621.574, -0.031988207, -0.07915083, -1021767.9, 115819.734, 0.0, 10.000843, 9.999375 
6.5509444e+2, 1.9391832e+2, -978427.8, -1072151.5, 65924.75, -0.038593825, -0.07263016, -944406.4, 95185.83, 0.0, 10.000636, 9.999395 
6.5506876e+2, 2.0391749e+2, -929327.75, -1052721.5, 81018.31, -0.042454474, -0.06786679, -889189.06, 52411.45, 0.0, 10.000538, 9.998904 
6.5504336e+2, 2.1391632e+2, -824500.7, -956401.1, 84070.28, -0.039421532, -0.06943045, -783599.4, 60014.813, 0.0, 10.000606, 9.998859 
6.550177e+2, 2.239153e+2, -728324.2, -848081.3, 65976.9, -0.039744314, -0.05794674, -699105.1, 46520.805, 0.0, 10.000545, 9.99896 
6.549916e+2, 2.3391451e+2, -665903.56, -763876.6, 64169.664, -0.045449134, -0.03307814, -634159.56, 13474.896, 0.0, 10.000286, 9.998989 
6.549657e+2, 2.4391358e+2, -606341.3, -690568.25, 62818.29, -0.03793062, -0.017928954, -572826.2, -23182.06, 0.0, 10.000049, 9.998934 
6.549399e+2, 2.539125e+2, -537116.5, -605216.06, 66756.875, -0.012040994, -0.016481312, -496227.22, -44572.313, 0.0, 9.9998455, 9.998944 
6.549138e+2, 2.639114e+2, -473150.47, -554805.44, 62382.113, -0.011323837, -0.0049804985, -439423.22, -85756.625, 0.0, 9.999747, 9.998666 
6.548871e+2, 2.7391014e+2, -368121.34, -454708.44, 59619.176, -0.043928374, 0.004209658, -337734.66, -82054.125, 0.0, 9.999801, 9.998653 
6.5486044e+2, 2.8390872e+2, -281963.7, -336865.2, 18388.89, -0.038771037, -0.007989657, -276373.63, -118678.375, 0.0, 9.999609, 9.998882 
6.5483344e+2, 2.9390746e+2, -264560.34, -275601.3, 10549.183, 0.011795833, -0.021956576, -258174.48, -198467.17, 0.000000011654482, 9.999046, 9.998901 
6.5480566e+2, 3.0390745e+2, -201517.33, -158838.6, 11393.885, -0.03360806, 0.064088956, -155987.27, -155987.27, 0.00000041978168, 9.998882, 9.999447 
6.547782e+2, 3.1390563e+2, -88112.85, -25760.072, 2178.2769, -0.039896194, -0.06271285, -25684.066, -25684.066, 0.000002202322, 9.999322, 10.000149 
6.6528296e+2, 1.23950355e+2, -1549551.0, -1661611.5, 73127.805, 0.039907016, -0.060288582, -1513456.0, 211823.98, 0.0, 10.001259, 9.999754 
6.652528e+2, 1.3394952e+2, -1506655.9, -1650000.5, -37236.574, -0.15154189, -0.06676611, -1497560.1, 129726.055, 0.0, 10.00112, 9.999238 
6.6522753e+2, 1.439483e+2, -1411569.0, -1520539.4, 20185.865, 0.08540007, -0.11996827, -1407949.9, 121347.36, 0.0, 10.000966, 9.999522 
6.6519994e+2, 1.5394808e+2, -1326749.5, -1424348.0, 25434.338, 0.006078332, -0.09582449, -1320519.0, 110780.59, 0.0, 10.000857, 9.999561 
6.65173e+2, 1.6394767e+2, -1249853.0, -1357448.5, 50767.645, -0.046396352, -0.08072719, -1229680.8, 103623.46, 0.0, 10.000802, 9.999375 
6.6514707e+2, 1.7394698e+2, -1149590.9, -1259094.6, 58324.65, -0.029218985, -0.08531025, -1124345.6, 110966.39, 0.0, 10.000821, 9.999369 
6.6512114e+2, 1.8394636e+2, -1052847.8, -1156479.8, 62097.984, -0.024819113, -0.08249471, -1023786.94, 113531.57, 0.0, 10.00079, 9.999414 
6.65095e+2, 1.9394585e+2, -968065.44, -1062519.5, 61011.785, -0.047552805, -0.072419986, -938137.9, 101184.53, 0.0, 10.000689, 9.999435 
6.650691e+2, 2.0394513e+2, -924385.9, -1042142.56, 76237.61, -0.054836452, -0.06400834, -886937.5, 54392.426, 0.0, 10.000537, 9.998977 
6.6504383e+2, 2.1394406e+2, -861466.7, -965387.06, 82989.38, -0.03653971, -0.061842103, -815513.1, 27829.387, 0.0, 10.000315, 9.998938 
6.650181e+2, 2.239431e+2, -782073.94, -875054.44, 64377.18, -0.0315377, -0.04774786, -749155.3, -3801.4993, 0.0, 10.000181, 9.998949 
6.649918e+2, 2.339423e+2, -682765.6, -774297.5, 60152.91, -0.047084987, -0.021921374, -652947.9, -5584.806, 0.0, 10.000181, 9.998968 
6.649657e+2, 2.439414e+2, -583884.0, -664434.44, 57534.926, -0.047463737, -0.010844315, -553928.44, -4555.847, 0.0, 10.000138, 9.99907 
6.6493964e+2, 2.5394037e+2, -499996.22, -570028.94, 63769.895, -0.02597363, -0.020765526, -462261.3, -10879.45, 0.0, 10.000027, 9.999098 
6.649134e+2, 2.639393e+2, -459424.7, -542225.44, 63507.977, -0.020728603, -0.013341419, -425014.44, -71622.03, 0.0, 9.999817, 9.998717 
6.648868e+2, 2.7393815e+2, -414901.78, -472488.66, 66483.34, -0.036041718, 0.002304624, -371244.56, -115838.87, 0.0, 9.99946, 9.998695 
6.6485995e+2, 2.8393677e+2, -321407.38, -358609.84, 29627.336, -0.030021884, -0.0079244515, -305025.97, -147605.58, 0.0, 9.9993515, 9.998857 
6.648326e+2, 2.9393545e+2, -185086.4, -241899.56, 25050.717, -0.0029936002, -0.026024092, -175618.55, -116185.15, 0.000000008469742, 9.999614, 9.998858 
6.648047e+2, 3.039354e+2, -113508.23, -133549.11, 29822.232, -0.0464449, 0.07009959, -92067.98, -92067.98, 0.00000038345433, 9.999561, 9.999292 
6.647775e+2, 3.1393352e+2, -127546.53, -42397.66, 13557.011, -0.018037735, -0.050780624, -40291.28, -40291.28, 0.0000022156387, 9.9990425, 10.000169 
6.75284e+2, 1.239774e+2, -1543680.3, -1651414.8, 74193.08, 0.025718236, -0.07841854, -1505861.6, 219153.28, 0.0, 10.0012665, 9.999821 
6.752541e+2, 1.3397682e+2, -1499150.1, -1635071.9, -43638.477, -0.13609038, -0.069404766, -1486345.9, 140672.75, 0.0, 10.0011215, 9.99934 
6.752285e+2, 1.4397568e+2, -1410024.0, -1517781.9, 15288.247, 0.08794346, -0.121556856, -1407896.9, 121132.21, 0.0, 10.000967, 9.999541 
6.752007e+2, 1.5397552e+2, -1325499.1, -1422985.3, 21277.227, -0.0049589416, -0.09396241, -1321057.5, 109973.69, 0.0, 10.000861, 9.999569 
6.751736e+2, 1.6397516e+2, -1242233.4, -1342835.6, 51003.977, -0.05931625, -0.076514184, -1220899.3, 112135.82, 0.0, 10.000806, 9.999474 
6.751479e+2, 1.7397457e+2, -1141843.9, -1243019.0, 58912.906, -0.028581465, -0.080798894, -1114779.5, 120261.96, 0.0, 10.00082, 9.999479 
6.7512196e+2, 1.8397394e+2, -1055280.8, -1161290.3, 58449.945, -0.020128898, -0.083750546, -1029381.2, 107666.75, 0.0, 10.000788, 9.999383 
6.7509556e+2, 1.9397327e+2, -971348.5, -1069606.0, 56976.62, -0.052160673, -0.0878767, -945244.5, 93809.65, 0.0, 10.000689, 9.999388 
6.750695e+2, 2.0397258e+2, -916874.4, -1027106.6, 68124.484, -0.06491853, -0.07693975, -884362.1, 56699.316, 0.0, 10.000538, 9.99908 
6.7504394e+2, 2.1397191e+2, -852473.3, -947334.9, 74452.42, -0.047138333, -0.04752837, -811627.0, 31443.094, 0.0, 10.000317, 9.999061 
6.750182e+2, 2.239711e+2, -784163.9, -880038.75, 63413.434, -0.035836875, -0.023311613, -752607.56, -7527.4834, 0.0, 10.000183, 9.998915 
6.7499214e+2, 2.3397009e+2, -686168.3, -781935.2, 60233.91, -0.034247484, -0.012881147, -657104.06, -10012.238, 0.0, 10.000182, 9.998916 
6.7496586e+2, 2.4396907e+2, -572290.6, -640958.1, 53825.14, -0.03766917, -0.016186714, -542781.2, 6321.0195, 0.0, 10.000139, 9.99923 
6.749394e+2, 2.5396812e+2, -486605.16, -542975.4, 59684.277, -0.049307473, -0.03918745, -448785.63, 2324.1516, 0.0, 10.00003, 9.999283 
6.749129e+2, 2.6396725e+2, -450528.63, -524157.2, 50848.09, -0.04844746, -0.026877256, -424566.97, -71449.23, 0.0, 9.999818, 9.998841 
6.748863e+2, 2.7396652e+2, -407375.47, -455741.72, 52974.246, -0.024706742, 0.021457987, -373325.5, -118198.42, 0.0, 9.9994545, 9.998814 
6.7485946e+2, 2.8396523e+2, -320673.34, -355965.1, 37728.902, -0.013068321, 0.012317662, -296667.72, -139526.66, 0.0, 9.999347, 9.998878 
6.748319e+2, 2.9396343e+2, -183736.8, -240996.4, 36079.12, -0.03124539, -0.054613814, -166308.28, -107149.766, 0.0000000040864183, 9.999621, 9.998861 
6.74804e+2, 3.0396327e+2, -128260.805, -166676.4, 13110.108, -0.07362727, 0.04150407, -124213.18, -124213.18, 0.0000003121116, 9.999572, 9.999061 
6.747769e+2, 3.1396183e+2, -133397.66, -52360.53, -7340.071, 0.02029441, -0.013287563, -51701.063, -51701.063, 0.0000020914758, 9.999031, 10.000106 
6.852853e+2, 1.2400466e+2, -1535428.9, -1646823.4, 78126.74, 0.022075918, -0.08160957, -1495178.4, 229570.17, 0.0, 10.001322, 9.999825 
6.852552e+2, 1.340043e+2, -1510503.6, -1635353.4, -50372.953, -0.11936538, -0.05712322, -1492714.4, 134036.11, 0.0, 10.001022, 9.999385 
6.8522936e+2, 1.4400318e+2, -1417306.6, -1512835.3, 16628.521, 0.08720648, -0.110388905, -1414494.9, 114265.64, 0.0, 10.000883, 9.999615 
6.8520147e+2, 1.5400304e+2, -1296893.3, -1400724.5, 28333.986, -0.014192851, -0.08791282, -1289664.5, 141097.6, 0.0, 10.001023, 9.999643 
6.851744e+2, 1.6400273e+2, -1213428.3, -1322508.9, 53390.484, -0.07046887, -0.0720973, -1191645.6, 141119.69, 0.0, 10.000978, 9.999529 
6.8514854e+2, 1.7400225e+2, -1160447.6, -1245717.4, 56063.973, -0.0324504, -0.07309655, -1132648.8, 102122.0, 0.0, 10.000668, 9.999534 
6.8512255e+2, 1.8400164e+2, -1092028.6, -1174794.9, 60602.11, -0.019867264, -0.07772793, -1060028.0, 76748.984, 0.0, 10.000519, 9.999419 
6.850962e+2, 1.940009e+2, -979677.94, -1069517.0, 65632.48, -0.052902114, -0.0905753, -945065.1, 93718.62, 0.0, 10.000616, 9.999422 
6.8507e+2, 2.0400026e+2, -900621.1, -1008264.9, 73266.63, -0.067764424, -0.08095031, -863532.06, 77258.52, 0.0, 10.000604, 9.999176 
6.850442e+2, 2.139998e+2, -828017.44, -923712.25, 77226.43, -0.053757835, -0.0420165, -785017.2, 57779.902, 0.0, 10.000435, 9.999166 
6.850183e+2, 2.239991e+2, -766050.75, -868291.9, 72397.79, -0.04324841, -0.013715174, -728544.25, 16261.7, 0.0, 10.000296, 9.99894 
6.8499225e+2, 2.3399806e+2, -682473.6, -778101.25, 74763.96, -0.038077235, -0.0070568, -641541.7, 5276.466, 0.0, 10.0002, 9.998933 
6.849659e+2, 2.4399704e+2, -582684.06, -639109.2, 63086.355, -0.03946745, -0.0146980835, -541789.2, 7039.402, 0.0, 10.00004, 9.99929 
6.8493927e+2, 2.5399607e+2, -517608.72, -550410.4, 59203.85, -0.051725235, -0.043282878, -472575.97, -21740.26, 0.0, 9.999785, 9.999349 
6.8491256e+2, 2.639953e+2, -469017.1, -524096.63, 44491.758, -0.053416356, -0.032537535, -444231.38, -91388.49, 0.0, 9.999654, 9.99892 
6.8488574e+2, 2.7399468e+2, -366011.5, -426556.53, 43600.563, -0.034669958, 0.02086311, -343204.5, -88353.66, 0.0, 9.999701, 9.998895 
6.848588e+2, 2.839935e+2, -275382.78, -326997.06, 34137.504, -0.021394273, 0.013697136, -258395.31, -101531.47, 0.0, 9.999628, 9.99894 
6.848314e+2, 2.9399168e+2, -214258.83, -249144.63, 36897.934, -0.02806956, -0.05776566, -190888.6, -132007.45, 0.0000000009738006, 9.999385, 9.998919 
6.848035e+2, 3.0399153e+2, -169720.95, -206571.98, 13477.723, -0.064944066, 0.04042256, -165317.8, -165317.8, 0.00000022618863, 9.999373, 9.998881 
6.8477625e+2, 3.139901e+2, -36180.39, -7095.9575, -4406.6914, 0.020138865, 0.0066134557, -6442.945, -6442.945, 0.0000018666766, 9.999707, 10.000092 
6.9528663e+2, 1.2403219e+2, -1538491.9, -1654573.4, 71690.35, 0.025146844, -0.06984354, -1504292.5, 220187.72, 0.0, 10.0013275, 9.99977 
6.952564e+2, 1.3403192e+2, -1510505.3, -1636606.3, -61944.74, -0.101693146, -0.031773828, -1485167.3, 141314.06, 0.0, 10.001027, 9.999375 
6.952302e+2, 1.4403085e+2, -1408344.6, -1495507.1, 20678.066, 0.08343816, -0.088113844, -1403687.9, 124803.23, 0.0, 10.000888, 9.999732 
6.952024e+2, 1.540307e+2, -1287379.3, -1381511.0, 34080.945, -0.022646355, -0.07784661, -1276335.8, 154156.33, 0.0, 10.001025, 9.999775 
6.951752e+2, 1.6403043e+2, -1213098.9, -1322130.3, 43403.723, -0.08095721, -0.06717546, -1197930.6, 134564.06, 0.0, 10.000978, 9.999532 
6.951491e+2, 1.7402998e+2, -1160783.1, -1247003.4, 44365.875, -0.040888052, -0.06229623, -1142032.0, 92467.82, 0.0, 10.000669, 9.999524 
6.951231e+2, 1.8402943e+2, -1084685.3, -1160362.5, 62749.85, -0.02405901, -0.06462623, -1049248.4, 87257.055, 0.0, 10.000522, 9.999517 
6.950968e+2, 1.9402878e+2, -971632.06, -1053304.5, 69310.086, -0.050033294, -0.08103827, -932022.75, 106488.47, 0.0, 10.000617, 9.999534 
6.950706e+2, 2.0402819e+2, -894561.7, -996040.75, 67634.94, -0.06375979, -0.0765134, -860749.56, 79767.766, 0.0, 10.000605, 9.999261 
6.9504464e+2, 2.1402773e+2, -822050.8, -911821.8, 70699.09, -0.05680113, -0.045250043, -783192.25, 59331.273, 0.0, 10.000436, 9.999248 
6.950185e+2, 2.2402708e+2, -759872.5, -856083.25, 68483.195, -0.054318406, -0.018691052, -724287.5, 20243.998, 0.0, 10.000297, 9.999024 
6.949922e+2, 2.3402622e+2, -676251.7, -765960.94, 71241.24, -0.05905865, -0.0042898385, -636920.5, 9621.463, 0.0, 10.000202, 9.999016 
6.949658e+2, 2.4402529e+2, -585657.2, -645779.8, 53998.914, -0.05312272, -0.0061833044, -553915.9, -5364.1616, 0.0, 10.000041, 9.999245 
6.949392e+2, 2.5402427e+2, -521969.1, -559318.25, 49588.754, -0.032661144, -0.032518916, -487655.16, -37095.426, 0.0, 9.999784, 9.9992895 
6.949124e+2, 2.6402336e+2, -467164.78, -520056.6, 45253.645, -0.03534285, -0.030208884, -441196.2, -88628.234, 0.0, 9.999652, 9.998949 
6.948851e+2, 2.7402258e+2, -363021.78, -421046.03, 45653.97, -0.067568846, -0.0006393443, -337941.5, -83364.22, 0.0, 9.999702, 9.998932 
6.94858e+2, 2.840215e+2, -267620.94, -311714.4, 25687.887, -0.05635043, -0.0044677686, -255816.14, -99227.13, 0.0, 9.999631, 9.999044 
6.9483113e+2, 2.9402024e+2, -207446.77, -233746.98, 27409.928, 0.008561002, -0.033590924, -190195.73, -131594.44, 0.000000000021633938, 9.999378, 9.999028 
6.948033e+2, 3.040201e+2, -179318.84, -225287.1, 24572.113, -0.01880872, 0.06895692, -168656.89, -168656.89, 0.00000014519733, 9.999368, 9.998756 
6.947755e+2, 3.1401825e+2, -32668.648, -2608.7537, 8690.729, -0.023945719, 0.0066118315, -277.01672, -277.01672, 0.0000015881137, 9.999719, 10.000117 
7.0528805e+2, 1.24060184e+2, -1545105.0, -1659165.3, 86736.305, 0.041832395, -0.03688004, -1498329.4, 225878.44, 0.0, 10.001289, 9.999756 
7.0525753e+2, 1.3405977e+2, -1491136.3, -1623539.3, -48567.375, -0.09891544, -0.016267978, -1475231.5, 150978.47, 0.0, 10.001145, 9.999408 
7.0523083e+2, 1.4405863e+2, -1386889.6, -1479374.3, 43059.664, 0.061983045, -0.083643496, -1369945.8, 158274.38, 0.0, 10.001012, 9.999782 
7.0520335e+2, 1.540586e+2, -1293741.5, -1378622.5, 51700.715, -0.01963649, -0.06553037, -1269292.8, 160927.08, 0.0, 10.0009575, 9.999826 
7.0517623e+2, 1.6405842e+2, -1222372.1, -1319880.4, 51331.26, -0.07049042, -0.051908985, -1200331.8, 131889.9, 0.0, 10.000888, 9.99959 
7.051497e+2, 1.74058e+2, -1138089.3, -1229117.1, 56324.945, -0.049056806, -0.04969149, -1111187.6, 123038.55, 0.0, 10.000796, 9.999584 
7.051235e+2, 1.8405746e+2, -1059571.6, -1146291.0, 81056.85, -0.035937183, -0.054561798, -1011005.94, 125225.46, 0.0, 10.000687, 9.999534 
7.0509744e+2, 1.940568e+2, -979940.5, -1056009.3, 80581.81, -0.04379283, -0.07363693, -928867.94, 109369.43, 0.0, 10.000556, 9.999543 
7.050712e+2, 2.040562e+2, -910528.75, -995086.9, 71422.72, -0.05251969, -0.072867565, -869809.5, 70433.89, 0.0, 10.000459, 9.999337 
7.05045e+2, 2.1405576e+2, -819837.2, -901328.3, 74086.15, -0.059393972, -0.04734067, -776031.25, 66217.83, 0.0, 10.000411, 9.9993305 
7.050187e+2, 2.240552e+2, -751522.5, -840049.3, 71271.125, -0.062060952, -0.021930149, -711888.25, 32367.771, 0.0, 10.000303, 9.999131 
7.049923e+2, 2.340545e+2, -682279.25, -756616.25, 75553.92, -0.059757404, -0.0016589055, -635246.25, 11018.32, 0.0, 10.000109, 9.999125 
7.049658e+2, 2.440536e+2, -598353.44, -658968.2, 58750.49, -0.051234536, -0.0016952708, -562553.6, -14279.828, 0.0, 9.999986, 9.999181 
7.04939e+2, 2.540525e+2, -501958.1, -558910.94, 52372.652, -0.034374632, -0.03197217, -470820.75, -20537.375, 0.0, 9.999962, 9.999206 
7.0491207e+2, 2.6405153e+2, -429965.03, -499700.06, 50294.402, -0.038599048, -0.0344815, -403633.94, -51341.484, 0.0, 9.999898, 9.99897 
7.0488477e+2, 2.7405068e+2, -349634.16, -410688.88, 50400.46, -0.06995946, -0.010261282, -321236.75, -66935.305, 0.0, 9.999779, 9.998965 
7.0485765e+2, 2.840496e+2, -260031.92, -315975.97, 21240.188, -0.059183218, -0.011734637, -252881.6, -96568.7, 0.0, 9.999718, 9.998973 
7.048306e+2, 2.9404837e+2, -160654.28, -220525.0, 7724.83, 0.004164048, -0.029797161, -159673.66, -101348.44, 0.0, 9.999741, 9.998944 
7.0480275e+2, 3.0404803e+2, -130033.79, -214419.42, 7697.955, -0.021251658, 0.061785128, -129337.305, -129337.305, 0.00000008201181, 9.999763, 9.99864 
7.047752e+2, 3.14046e+2, -18403.91, 9358.067, -5749.9595, -0.025657378, -0.0075125177, 10501.8545, 10501.8545, 0.0000012936833, 9.999796, 10.000162 
7.1528953e+2, 1.2408862e+2, -1544353.5, -1656778.1, 84852.18, 0.067911886, 0.013524508, -1498783.1, 225148.3, 0.0, 10.001285, 9.999775 
7.152585e+2, 1.3408785e+2, -1485620.3, -1613504.6, -54119.313, -0.11111592, -0.009363027, -1465791.9, 160144.33, 0.0, 10.001151, 9.999475 
7.152314e+2, 1.4408655e+2, -1387377.9, -1482147.6, 40767.016, 0.023303825, -0.09472495, -1372254.6, 155692.89, 0.0, 10.001019, 9.99976 
7.152045e+2, 1.5408674e+2, -1296227.9, -1383457.8, 49976.773, -0.006116327, -0.051045295, -1273510.8, 156434.73, 0.0, 10.000956, 9.999794 
7.1517736e+2, 1.640867e+2, -1215133.1, -1304397.0, 48123.39, -0.040887013, -0.027155181, -1194130.8, 137815.19, 0.0, 10.000885, 9.999698 
7.151505e+2, 1.7408629e+2, -1128959.9, -1211089.4, 52950.453, -0.057626437, -0.03579413, -1103016.6, 130932.94, 0.0, 10.0008, 9.999707 
7.151239e+2, 1.8408573e+2, -1064080.1, -1156813.9, 76138.266, -0.055511843, -0.047687855, -1021301.5, 114653.375, 0.0, 10.00069, 9.999459 
7.15098e+2, 1.9408493e+2, -986147.1, -1069513.3, 75518.234, -0.034490354, -0.06808821, -941572.0, 96390.15, 0.0, 10.000557, 9.999451 
7.1507186e+2, 2.040843e+2, -905641.25, -985539.9, 69109.7, -0.034600463, -0.06968735, -865765.1, 74203.43, 0.0, 10.00046, 9.999402 
7.1504533e+2, 2.1408391e+2, -813754.75, -889458.75, 72212.39, -0.061905887, -0.04842212, -770075.1, 71898.59, 0.0, 10.000413, 9.999412 
7.150189e+2, 2.2408345e+2, -742375.6, -821712.1, 64297.832, -0.06671404, -0.023619583, -706494.0, 37485.43, 0.0, 10.000305, 9.999256 
7.149926e+2, 2.3408292e+2, -672831.75, -737525.56, 68277.07, -0.040091973, 0.00084328494, -629626.9, 16359.085, 0.0, 10.000111, 9.999255 
7.149659e+2, 2.4408203e+2, -604217.56, -671614.75, 57320.89, -0.034040827, -0.0012555268, -571423.44, -23428.582, 0.0, 9.999987, 9.999094 
7.149387e+2, 2.540807e+2, -509409.13, -575131.3, 51665.305, -0.05806069, -0.0420304, -481039.88, -31033.139, 0.0, 9.999965, 9.999094 
7.149117e+2, 2.6407966e+2, -428784.78, -498118.7, 46132.383, -0.06390377, -0.045526706, -405745.63, -53729.22, 0.0, 9.999901, 9.9989805 
7.148848e+2, 2.7407902e+2, -347775.47, -407074.0, 45952.754, -0.04036442, -0.0073290914, -322737.13, -68713.734, 0.0, 9.999779, 9.998991 
7.148576e+2, 2.8407782e+2, -278436.44, -354253.7, 21612.69, -0.029208483, -0.007903996, -272708.25, -116672.57, 0.0, 9.999718, 9.998711 
7.148298e+2, 2.9407609e+2, -180836.53, -263506.78, 8503.583, -0.04471125, -0.04838714, -179970.9, -121917.46, 0.0, 9.999745, 9.998647 
7.1480197e+2, 3.0407527e+2, -136578.13, -229720.97, 8301.831, -0.075447485, 0.016536994, -135843.97, -135843.97, 0.00000004119849, 9.999769, 9.998533 
7.147754e+2, 3.1407326e+2, -14628.97, 17023.256, -5373.605, 0.017254362, -0.036893226, 17910.654, 17910.654, 0.0000010048329, 9.999795, 10.000216 
7.252909e+2, 1.2411693e+2, -1573250.8, -1674548.9, 111085.195, 0.084575586, 0.015791923, -1501812.8, 221841.89, 0.0, 10.001103, 9.99974 
7.252596e+2, 1.3411628e+2, -1477217.4, -1608275.5, -34123.52, -0.11354018, 0.0054988964, -1468865.0, 156793.5, 0.0, 10.0012045, 9.999483 
7.2523224e+2, 1.4411497e+2, -1380060.1, -1486514.8, 51044.324, -0.0029431325, -0.07699778, -1359540.1, 168129.83, 0.0, 10.001104, 9.999687 
7.252053e+2, 1.5411504e+2, -1328375.0, -1408052.9, 56059.215, -0.0033459167, -0.03916681, -1299440.6, 130229.0, 0.0, 10.000775, 9.999711 
7.2517824e+2, 1.6411494e+2, -1242431.1, -1308228.0, 60065.266, -0.024955373, -0.018737618, -1206845.0, 124825.31, 0.0, 10.000659, 9.99978 
7.2515124e+2, 1.7411463e+2, -1115322.4, -1193555.3, 63640.875, -0.052630745, -0.02760939, -1079737.6, 153934.69, 0.0, 10.000848, 9.999804 
7.2512466e+2, 1.8411407e+2, -1044462.1, -1155054.8, 77748.945, -0.056534942, -0.039852355, -1004351.0, 131326.19, 0.0, 10.000859, 9.99939 
7.2509855e+2, 1.9411321e+2, -982320.1, -1077120.4, 76783.055, -0.033913925, -0.060482297, -939484.94, 98200.766, 0.0, 10.000626, 9.999365 
7.2507226e+2, 2.0411254e+2, -905656.9, -982685.0, 73184.266, -0.032834757, -0.06247167, -861471.06, 78221.73, 0.0, 10.000448, 9.999427 
7.2504574e+2, 2.1411216e+2, -820087.0, -888404.44, 72968.08, -0.06007907, -0.042084787, -773678.0, 68019.586, 0.0, 10.000353, 9.999448 
7.2501916e+2, 2.2411175e+2, -740072.44, -810898.3, 59907.082, -0.065379895, -0.018990807, -705894.1, 37808.484, 0.0, 10.00028, 9.999342 
7.249927e+2, 2.3411128e+2, -647800.5, -715028.56, 60563.793, -0.03974718, 0.0025699805, -612147.8, 33560.156, 0.0, 10.000238, 9.999348 
7.2496593e+2, 2.4411044e+2, -571265.3, -658983.1, 54186.45, -0.035547916, -0.0004737365, -545412.1, 2304.3032, 0.0, 10.000227, 9.999064 
7.2493875e+2, 2.5410908e+2, -469155.7, -560266.0, 53996.094, -0.062793106, -0.039638836, -444064.9, 5663.861, 0.0, 10.000261, 9.999053 
7.2491163e+2, 2.6410794e+2, -397154.63, -490989.6, 40883.754, -0.06565156, -0.04431346, -381840.84, -30101.643, 0.0, 10.000154, 9.998907 
7.248847e+2, 2.741072e+2, -342602.06, -413020.78, 32226.521, -0.030613853, -0.009693864, -330080.44, -76333.23, 0.0, 9.999851, 9.998916 
7.2485745e+2, 2.8410593e+2, -271722.28, -357758.13, 23341.324, -0.020935282, -0.010286253, -265797.8, -110037.805, 0.0, 9.999793, 9.99865 
7.2482955e+2, 2.9410416e+2, -135839.44, -248353.4, 28980.266, -0.055971432, -0.049872976, -128813.695, -71035.68, 0.0, 10.000083, 9.998589 
7.248018e+2, 3.0410302e+2, -88884.14, -223365.31, 29149.063, -0.08828235, -0.0032951206, -82837.87, -82837.87, 0.000000018939705, 10.000169, 9.9983835 
7.2477525e+2, 3.14101e+2, 10500.9795, 24490.037, 8558.769, 0.023433207, -0.045575075, 28548.832, 28548.832, 0.0000007295325, 9.9999895, 10.000173 
7.35292e+2, 1.2414516e+2, -1578454.0, -1686388.6, 114715.5, 0.08965688, -0.023545468, -1505645.5, 217731.7, 0.0, 10.001107, 9.999658 
7.352608e+2, 1.3414508e+2, -1480811.8, -1614861.5, -31247.938, -0.10744407, 0.027710956, -1473885.5, 151491.3, 0.0, 10.0012, 9.99944 
7.3523307e+2, 1.4414391e+2, -1389081.8, -1504886.3, 39570.406, -0.018470367, -0.03366277, -1376852.1, 150535.64, 0.0, 10.0011015, 9.999562 
7.3520595e+2, 1.541435e+2, -1336351.0, -1426922.5, 43608.254, -0.011377188, -0.030028157, -1318768.0, 110624.07, 0.0, 10.000784, 9.9995775 
7.351789e+2, 1.641432e+2, -1237153.4, -1300156.1, 65449.29, -0.022245046, -0.025465414, -1196019.0, 135375.47, 0.0, 10.00067, 9.999831 
7.3515224e+2, 1.7414305e+2, -1110173.3, -1183712.3, 70627.64, -0.03486539, -0.024447773, -1067317.0, 166077.11, 0.0, 10.00085, 9.999871 
7.3512566e+2, 1.8414256e+2, -1049335.5, -1165212.5, 69908.94, -0.040320158, -0.030835275, -1016476.8, 118921.33, 0.0, 10.000858, 9.999321 
7.3509914e+2, 1.9414161e+2, -987662.4, -1088854.0, 67745.54, -0.042319745, -0.051153157, -953704.1, 83703.945, 0.0, 10.000627, 9.999284 
7.3507255e+2, 2.041409e+2, -906629.5, -985572.25, 68925.39, -0.047041014, -0.05159012, -866673.56, 72742.3, 0.0, 10.000451, 9.999407 
7.350461e+2, 2.1414055e+2, -820719.5, -890504.5, 69240.82, -0.05396436, -0.028391097, -778076.4, 63344.23, 0.0, 10.000355, 9.999433 
7.3501945e+2, 2.2414011e+2, -736555.9, -804353.8, 58023.96, -0.058427896, -0.008049371, -703254.25, 40171.28, 0.0, 10.000282, 9.999387 
7.3499274e+2, 2.341396e+2, -643872.4, -707660.4, 59029.457, -0.05937433, 0.0034744013, -608671.6, 36759.145, 0.0, 10.00024, 9.999398 
7.349659e+2, 2.4413878e+2, -568942.44, -654999.94, 55249.555, -0.05617881, 0.0006563331, -541942.75, 5495.796, 0.0, 10.00023, 9.999091 
7.349391e+2, 2.5413758e+2, -466850.28, -556284.75, 55394.883, -0.048179433, -0.024551462, -440376.06, 9073.3955, 0.0, 10.000264, 9.999079 
7.34912e+2, 2.641364e+2, -408351.34, -514794.0, 30415.46, -0.04384346, -0.030576127, -400273.34, -48812.457, 0.0, 10.000155, 9.998744 
7.348844e+2, 2.7413523e+2, -355516.3, -440006.06, 20665.48, -0.041997675, -0.017442007, -350732.56, -97259.47, 0.0, 9.999851, 9.998731 
7.348571e+2, 2.8413394e+2, -260594.78, -335132.47, 32618.355, -0.035064258, -0.018823195, -248336.63, -92850.57, 0.0, 9.999794, 9.998805 
7.348299e+2, 2.941326e+2, -121420.03, -219990.4, 40563.54, -0.027673507, -0.03347009, -106873.95, -49375.1, 0.0, 10.000089, 9.998781 
7.348022e+2, 3.041314e+2, -102454.02, -253111.66, 23868.355, -0.058801234, 0.0042231586, -98763.04, -98763.04, 0.0000000073965225, 10.0001745, 9.998178 
7.347749e+2, 3.141292e+2, -658.52734, 1095.1937, 1698.905, -0.012430665, -0.032450233, 2130.1812, 2130.1812, 0.0000004773962, 9.999989, 10.000013 
7.452929e+2, 1.241737e+2, -1579722.5, -1705255.9, 110950.266, 0.06625625, -0.026087381, -1515015.3, 208081.66, 0.0, 10.001178, 9.999494 
7.452621e+2, 1.3417354e+2, -1516488.3, -1645577.0, -41597.98, -0.08351703, 0.028618652, -1504244.8, 120853.766, 0.0, 10.001014, 9.999319 
7.4523425e+2, 1.4417239e+2, -1410914.0, -1514501.4, 29019.871, -0.002730848, -0.024842318, -1403338.1, 123771.83, 0.0, 10.000948, 9.999571 
7.452067e+2, 1.5417211e+2, -1293497.8, -1404212.4, 43704.313, -0.024935218, -0.0099109495, -1278325.0, 150787.89, 0.0, 10.00107, 9.999596 
7.4517953e+2, 1.6417176e+2, -1185230.3, -1281329.6, 70707.34, -0.041669007, -0.007959889, -1147791.4, 183324.06, 0.0, 10.001054, 9.999775 
7.451531e+2, 1.7417134e+2, -1114516.1, -1193175.1, 66442.664, -0.028543405, -0.027232727, -1076635.3, 156482.19, 0.0, 10.000853, 9.9998045 
7.4512655e+2, 1.841708e+2, -1069222.6, -1170943.5, 59199.297, -0.024511332, -0.037834495, -1042036.0, 93085.984, 0.0, 10.000706, 9.999355 
7.450997e+2, 1.9417006e+2, -983048.75, -1081816.6, 65381.266, -0.039910033, -0.040792953, -950496.9, 86633.055, 0.0, 10.000638, 9.999327 
7.45073e+2, 2.0416944e+2, -892095.06, -981490.8, 73252.7, -0.049043864, -0.034415215, -850980.0, 88157.03, 0.0, 10.000565, 9.99938 
7.450465e+2, 2.1416895e+2, -804823.4, -886513.7, 72194.73, -0.047712557, -0.01926454, -762720.3, 78422.48, 0.0, 10.000482, 9.999399 
7.4501985e+2, 2.2416843e+2, -715290.06, -793015.56, 60755.93, -0.051916797, -0.0057858066, -682030.75, 61117.684, 0.0, 10.000424, 9.999395 
7.449929e+2, 2.3416789e+2, -619773.94, -694571.6, 58778.242, -0.0640728, 0.0013049842, -587505.3, 57648.35, 0.0, 10.000401, 9.999411 
7.4496615e+2, 2.4416709e+2, -561752.6, -652315.56, 49552.89, -0.061949015, -0.00013599255, -539908.06, 7253.1943, 0.0, 10.000284, 9.999083 
7.4493927e+2, 2.5416598e+2, -500098.9, -573354.8, 46583.86, -0.040851664, -0.016525563, -477467.6, -28295.854, 0.0, 10.000041, 9.999069 
7.449121e+2, 2.641648e+2, -428611.1, -528683.8, 28236.04, -0.036044423, -0.020692984, -421193.9, -70010.58, 0.0, 10.000034, 9.998707 
7.448843e+2, 2.741635e+2, -284426.44, -409983.13, 29507.58, -0.051479325, -0.014361919, -277837.5, -24641.014, 0.0, 10.000359, 9.998692 
7.44857e+2, 2.841622e+2, -174775.05, -291785.75, 40769.063, -0.044323865, -0.016275257, -161971.27, -6761.772, 0.0, 10.000376, 9.998822 
7.4483e+2, 2.9416093e+2, -136641.34, -224773.83, 35665.977, -0.01175071, -0.026032902, -124016.36, -66794.945, 0.0, 9.999973, 9.998803 
7.448023e+2, 3.0415964e+2, -141073.25, -274330.13, 24234.652, -0.044321373, 0.002013011, -136802.7, -136802.7, 0.0000000015345106, 9.999921, 9.998154 
7.447747e+2, 3.1415778e+2, 57789.074, 33049.746, 18516.934, -0.04207216, 0.0005958147, 67687.9, 67687.9, 0.00000026410652, 10.000375, 10.000047 
7.552935e+2, 1.2420254e+2, -1597593.4, -1741710.9, 102931.16, 0.014112735, 0.003124258, -1544004.8, 178809.03, 0.0, 10.001174, 9.999246 
7.552635e+2, 1.342017e+2, -1531479.6, -1675618.1, -48753.62, -0.043774642, 0.010263883, -1516538.0, 108285.24, 0.0, 10.001009, 9.999116 
7.552356e+2, 1.4420047e+2, -1402197.1, -1495818.5, 32338.984, 0.040783536, -0.046733893, -1392112.6, 134723.2, 0.0, 10.000945, 9.9997015 
7.552076e+2, 1.5420087e+2, -1282519.1, -1381328.0, 48046.83, -0.044268437, 0.020851346, -1263008.4, 165823.28, 0.0, 10.001069, 9.999754 
7.551801e+2, 1.6420062e+2, -1196574.8, -1305165.6, 63639.4, -0.08205752, 0.032044183, -1167216.3, 163616.78, 0.0, 10.001054, 9.999612 
7.551539e+2, 1.7419952e+2, -1127901.4, -1221387.6, 58679.15, -0.033352684, -0.036071215, -1099623.4, 133218.58, 0.0, 10.000853, 9.999611 
7.551274e+2, 1.8419881e+2, -1059852.6, -1152146.6, 56119.027, -0.009610995, -0.060225062, -1033343.6, 101504.66, 0.0, 10.000708, 9.999484 
7.551005e+2, 1.9419856e+2, -971502.94, -1058851.1, 62684.934, -0.027103035, -0.029242825, -938777.94, 98073.21, 0.0, 10.000642, 9.999483 
7.5507367e+2, 2.0419812e+2, -894329.4, -987038.1, 69870.38, -0.039286215, -0.011012652, -856835.1, 82021.086, 0.0, 10.0005665, 9.999341 
7.550471e+2, 2.141974e+2, -808377.75, -894602.06, 68931.7, -0.0418261, -0.014800663, -770186.56, 70677.63, 0.0, 10.000483, 9.999344 
7.550203e+2, 2.2419673e+2, -717165.44, -797498.1, 59605.977, -0.046296775, -0.012189723, -685455.44, 57415.773, 0.0, 10.000426, 9.999365 
7.549934e+2, 2.3419617e+2, -621662.56, -699078.2, 57872.45, -0.053913355, -0.0040680887, -590746.25, 54130.5, 0.0, 10.000402, 9.999379 
7.5496644e+2, 2.4419536e+2, -564868.7, -659177.2, 40977.637, -0.053057585, -0.00293805, -549551.44, -2666.7617, 0.0, 10.000284, 9.999036 
7.5493926e+2, 2.5419423e+2, -503544.0, -580552.8, 37374.02, -0.041257795, -0.015463712, -488388.3, -39492.676, 0.0, 10.00004, 9.999021 
7.54912e+2, 2.6419312e+2, -421928.78, -515192.88, 38965.313, -0.042711064, -0.014450243, -407792.06, -56885.47, 0.0, 10.000034, 9.998799 
7.548846e+2, 2.74192e+2, -275751.47, -393692.75, 42349.152, -0.05990953, -0.0003635378, -262120.53, -9203.073, 0.0, 10.000364, 9.998801 
7.548573e+2, 2.841907e+2, -183303.0, -310938.6, 27579.389, -0.04993664, -0.0024346276, -177598.61, -22668.201, 0.0, 10.0003805, 9.998689 
7.5483e+2, 2.9418913e+2, -148470.94, -248501.08, 19989.943, -0.009090788, -0.027072452, -144624.1, -87678.18, 0.0, 9.999969, 9.998643 
7.5480217e+2, 3.0418772e+2, -129675.555, -249732.7, 39121.46, -0.045585703, -0.009144608, -118052.766, -118052.766, 0.00000000001992495, 9.999916, 9.998325 
7.5477487e+2, 3.141867e+2, 75871.88, 68604.195, 36903.63, -0.06800912, 0.05339071, 109320.15, 109320.15, 0.000000109993245, 10.000382, 10.000288 
7.6529443e+2, 1.2423093e+2, -1611459.6, -1741593.0, 70341.05, -0.003219301, 0.020119755, -1580706.0, 141830.39, 0.0, 10.00105, 9.999306 
7.6526433e+2, 1.3423006e+2, -1561019.5, -1677429.4, -59031.496, -0.037276044, 0.013519918, -1536323.8, 88222.19, 0.0, 10.000753, 9.999226 
7.652364e+2, 1.4422883e+2, -1445674.1, -1515989.6, 43996.836, 0.04146439, -0.047721658, -1424513.3, 102044.984, 0.0, 10.000644, 9.999707 
7.652085e+2, 1.5422928e+2, -1317002.9, -1398542.3, 49161.047, -0.042756595, 0.024392633, -1293905.8, 134647.78, 0.0, 10.000834, 9.999749 
7.6518106e+2, 1.6422905e+2, -1222787.6, -1320320.0, 51680.742, -0.07911022, 0.038237385, -1200497.3, 130057.695, 0.0, 10.000885, 9.99959 
7.651547e+2, 1.7422794e+2, -1144671.1, -1232023.8, 57672.055, -0.029875824, -0.029826965, -1116003.1, 116561.234, 0.0, 10.000749, 9.999588 
7.651281e+2, 1.8422721e+2, -1055631.5, -1142390.3, 65871.234, -0.0064474563, -0.054770328, -1020138.9, 114431.77, 0.0, 10.000704, 9.999553 
7.6510113e+2, 1.9422704e+2, -945718.75, -1037949.4, 66970.79, -0.024715383, -0.025377471, -910521.7, 126050.83, 0.0, 10.000783, 9.999558 
7.6507425e+2, 2.0422663e+2, -869197.25, -970007.25, 67459.13, -0.03779437, -0.009957832, -835391.8, 103185.0, 0.0, 10.000719, 9.999384 
7.650475e+2, 2.1422589e+2, -809224.94, -890541.06, 72680.586, -0.041592773, -0.018355215, -766603.06, 73981.48, 0.0, 10.000459, 9.999382 
7.650206e+2, 2.2422521e+2, -737544.06, -816896.2, 71329.37, -0.044624474, -0.017024206, -695598.6, 46993.29, 0.0, 10.000329, 9.999278 
7.6499385e+2, 2.3422456e+2, -632660.1, -715424.06, 64633.2, -0.047289405, -0.0054870383, -597296.25, 47302.43, 0.0, 10.000375, 9.99928 
7.649668e+2, 2.4422373e+2, -548812.94, -654715.56, 41089.645, -0.04751009, -0.00086042704, -534740.4, 11866.868, 0.0, 10.00041, 9.999005 
7.649394e+2, 2.542226e+2, -447992.88, -556167.75, 38674.742, -0.04503046, -0.010216563, -435588.3, 13029.695, 0.0, 10.000433, 9.998998 
7.649121e+2, 2.6422146e+2, -373653.53, -492754.28, 44371.645, -0.04805983, -0.007759113, -358940.25, -8311.288, 0.0, 10.000371, 9.998791 
7.648849e+2, 2.742204e+2, -300902.75, -406859.75, 39445.91, -0.056338537, 0.006713464, -287830.5, -35190.566, 0.0, 10.000196, 9.998792 
7.648576e+2, 2.8421903e+2, -217945.3, -341868.0, 14240.309, -0.04524263, 0.0072123245, -216329.97, -61676.563, 0.0, 10.000204, 9.998561 
7.648301e+2, 2.9421735e+2, -86172.87, -233606.75, 7220.3604, -0.014012669, -0.015720623, -85820.11, -29149.791, 0.0, 10.000462, 9.9985075 
7.648022e+2, 3.0421567e+2, -44749.746, -206450.36, 28453.305, -0.055158496, -0.017345648, -39889.13, -39889.13, 0.0, 10.00049, 9.998345 
7.64775e+2, 3.142149e+2, 55269.656, 62838.734, 13587.091, -0.07931466, 0.06476227, 73158.516, 73158.516, 0.000000028836135, 10.000223, 10.000324 
7.7529556e+2, 1.24258935e+2, -1591735.0, -1694255.6, 57690.08, 0.0065936423, 0.027621582, -1565821.8, 156442.13, 0.00000000003061157, 10.001021, 9.999645 
7.7526486e+2, 1.3425861e+2, -1533529.0, -1620133.3, -71083.67, -0.062086236, 0.036537748, -1493596.8, 130669.73, 0.0, 10.0007515, 9.99962 
7.7523655e+2, 1.4425749e+2, -1452603.9, -1532697.8, 49158.27, 0.0026140623, -0.030193053, -1429245.0, 97031.94, 0.0, 10.000652, 9.99959 
7.752095e+2, 1.5425739e+2, -1328342.3, -1422127.3, 56239.094, -0.021909384, 0.0025631199, -1302010.9, 126267.09, 0.0, 10.0008335, 9.999588 
7.7518237e+2, 1.642571e+2, -1215320.4, -1304345.3, 47274.797, -0.03641647, 0.013415159, -1194900.1, 135380.25, 0.0, 10.000881, 9.9997015 
7.7515554e+2, 1.7425656e+2, -1134888.5, -1212409.0, 52276.168, -0.019054886, -0.008806449, -1108570.8, 123713.81, 0.0, 10.000751, 9.9997225 
7.7512866e+2, 1.8425603e+2, -1054727.6, -1141435.1, 67866.4, -0.014527049, -0.022805596, -1017549.4, 116739.58, 0.0, 10.000707, 9.999558 
7.751018e+2, 1.9425549e+2, -946070.5, -1038885.4, 69745.984, -0.032693915, -0.029316891, -908703.56, 127590.305, 0.0, 10.000782, 9.999554 
7.750749e+2, 2.0425496e+2, -860949.2, -952863.56, 58336.86, -0.044942945, -0.030772265, -832641.6, 105657.14, 0.0, 10.000718, 9.999503 
7.7504784e+2, 2.1425445e+2, -800073.94, -872062.25, 62605.086, -0.047072884, -0.02975959, -763853.3, 76450.445, 0.0, 10.000461, 9.999509 
7.7502096e+2, 2.2425383e+2, -747701.44, -838727.4, 72002.086, -0.0469238, -0.020248327, -708033.8, 34276.695, 0.0, 10.000331, 9.999127 
7.749942e+2, 2.342531e+2, -644260.94, -740244.06, 66430.49, -0.044395592, -0.0028357415, -610300.06, 34019.46, 0.0, 10.000377, 9.999108 
7.7496713e+2, 2.4425218e+2, -549586.2, -657031.06, 42010.58, -0.04568161, 0.0061511663, -535110.44, 11218.504, 0.0, 10.000412, 9.998989 
7.749398e+2, 2.542511e+2, -447697.16, -556486.5, 39716.984, -0.05289315, -0.001061035, -434740.38, 13598.562, 0.0, 10.000436, 9.998995 
7.749124e+2, 2.642499e+2, -381480.7, -509642.72, 38307.348, -0.05265981, -0.00071713305, -370903.63, -20553.084, 0.0, 10.000372, 9.998674 
7.748852e+2, 2.742486e+2, -310219.03, -425996.7, 32815.617, -0.040261164, 0.007538481, -301564.78, -49200.707, 0.0, 10.000195, 9.998662 
7.7485794e+2, 2.842472e+2, -226769.47, -360247.1, 23003.203, -0.03009004, 0.013487809, -222916.38, -68537.77, 0.0, 10.000203, 9.998436 
7.748304e+2, 2.9424554e+2, -93223.02, -250335.1, 17406.186, -0.028683798, 0.008293992, -91317.73, -34922.85, 0.0, 10.000469, 9.998389 
7.7480257e+2, 3.0424345e+2, -54222.87, -228059.73, 19079.49, -0.07509756, -0.023237847, -52153.434, -52153.434, 0.0, 10.000497, 9.998194 
7.747752e+2, 3.1424218e+2, 41638.82, 36002.91, 2277.9849, -0.0761001, 0.03019386, 42444.41, 42444.41, 0.0000000029769756, 10.000216, 10.000144 
7.852961e+2, 1.24287e+2, -1715802.1, -1744933.9, 78297.34, 0.010876467, 0.017064711, -1650727.3, 71261.28, 0.0000000009851104, 10.000131, 9.999726 
7.8526545e+2, 1.3428691e+2, -1544452.3, -1611326.8, -67644.47, -0.065780915, 0.03684804, -1502432.1, 121556.85, 0.0, 10.000616, 9.999745 
7.8523713e+2, 1.442859e+2, -1428085.3, -1515848.4, 44125.82, -0.0111219855, -0.02782772, -1409736.0, 116262.125, 0.0, 10.000798, 9.999635 
7.852103e+2, 1.5428564e+2, -1356003.4, -1431062.9, 64969.67, -0.008898203, -0.013984953, -1318502.9, 109497.22, 0.0, 10.000625, 9.999627 
7.851833e+2, 1.6428536e+2, -1260260.3, -1329969.6, 59111.6, -0.015603825, -0.003821403, -1226492.5, 103510.12, 0.0, 10.00059, 9.999665 
7.8515625e+2, 1.7428504e+2, -1138965.6, -1219339.3, 51328.438, -0.016596586, -0.00096016825, -1113963.5, 118042.23, 0.0, 10.000744, 9.999678 
7.851293e+2, 1.8428457e+2, -1043691.75, -1129302.6, 59473.273, -0.018979654, -0.008762725, -1013221.1, 120788.77, 0.0, 10.000753, 9.999619 
7.851025e+2, 1.9428389e+2, -971613.4, -1043532.44, 66133.37, -0.028848436, -0.034699976, -932295.4, 103720.16, 0.0, 10.000575, 9.999621 
7.850755e+2, 2.0428337e+2, -889316.4, -960327.8, 53685.918, -0.039403874, -0.041780706, -860457.25, 77562.805, 0.0, 10.000498, 9.9995575 
7.850483e+2, 2.1428305e+2, -782319.44, -857578.5, 52043.0, -0.04857554, -0.027525699, -755727.06, 84296.08, 0.0, 10.000558, 9.999561 
7.850213e+2, 2.2428246e+2, -722540.56, -839898.06, 62417.38, -0.05098856, -0.012800761, -695550.6, 46479.293, 0.0, 10.000563, 9.999007 
7.8499454e+2, 2.3428153e+2, -636636.6, -751125.1, 59505.832, -0.04530114, -0.0011301908, -611310.6, 32730.822, 0.0, 10.000494, 9.998977 
7.849676e+2, 2.4428053e+2, -537972.6, -647446.56, 39750.742, -0.045504622, 0.0055252807, -525061.56, 20990.215, 0.0, 10.000476, 9.999023 
7.849402e+2, 2.5427952e+2, -432058.6, -544015.25, 41015.223, -0.05419726, 0.00071006047, -418640.8, 29419.678, 0.0, 10.000523, 9.999039 
7.849128e+2, 2.6427826e+2, -368537.16, -523713.56, 34842.734, -0.053717714, 0.0033830618, -361072.75, -11000.232, 0.0, 10.000549, 9.998492 
7.848856e+2, 2.7427682e+2, -271463.06, -429464.03, 23251.57, -0.03928506, 0.01439586, -268112.38, -16023.726, 0.0, 10.000557, 9.998463 
7.848582e+2, 2.8427532e+2, -177021.52, -343339.8, 21082.463, -0.030166583, 0.026834827, -174390.73, -20286.463, 0.0, 10.000576, 9.998372 
7.8483087e+2, 2.942737e+2, -76676.99, -248406.55, 21364.281, -0.032808222, 0.030983051, -74059.05, -17939.195, 0.0, 10.000609, 9.998335 
7.84803e+2, 3.0427137e+2, -43555.516, -225838.66, 18062.52, -0.07800588, -0.023990175, -41782.93, -41782.93, 0.0, 10.000584, 9.998167 
7.847755e+2, 3.1427002e+2, 77719.54, 45758.465, 9606.275, -0.076876655, 0.023077387, 80384.59, 80384.59, 0.0, 10.000498, 10.000074 
7.9529613e+2, 1.2431516e+2, -1727011.1, -1767776.8, 91209.13, 0.0061348313, -0.010203379, -1653935.1, 67775.5, 0.0000000034592607, 10.000128, 9.999572 
7.9526615e+2, 1.3431501e+2, -1553692.0, -1629622.1, -50621.58, -0.050306678, 0.01732718, -1528380.8, 95331.95, 0.0, 10.000612, 9.999622 
7.9523796e+2, 1.4431414e+2, -1414639.0, -1487511.5, 38306.203, -0.0021914518, -0.038395207, -1398207.9, 127513.18, 0.0, 10.000795, 9.999831 
7.9521096e+2, 1.5431409e+2, -1340175.5, -1398739.3, 57488.445, -0.0037967274, -0.025440888, -1304941.1, 122778.62, 0.0, 10.000626, 9.999849 
7.9518384e+2, 1.6431384e+2, -1272343.6, -1356068.3, 63183.57, -0.015567155, -0.014078109, -1238412.6, 91309.14, 0.0, 10.000594, 9.999485 
7.951569e+2, 1.7431335e+2, -1153514.3, -1250160.1, 56771.33, -0.02222692, -0.0057086544, -1127284.5, 104443.375, 0.0, 10.000746, 9.999467 
7.9513e+2, 1.8431284e+2, -1036147.44, -1113869.4, 53187.984, -0.0205322, -0.011795326, -1009136.3, 124596.82, 0.0, 10.000753, 9.999725 
7.951032e+2, 1.9431227e+2, -962378.06, -1024609.8, 58922.926, -0.013792265, -0.04130025, -926859.8, 108877.42, 0.0, 10.000575, 9.999751 
7.950762e+2, 2.0431188e+2, -889943.25, -962239.5, 54792.695, -0.021652905, -0.042950608, -860449.0, 77291.49, 0.0, 10.000499, 9.999544 
7.9504883e+2, 2.1431169e+2, -783710.6, -861127.1, 54024.5, -0.04652467, -0.011853092, -755958.56, 83783.984, 0.0, 10.00056, 9.9995365 
7.950218e+2, 2.2431105e+2, -729021.25, -853903.6, 59986.895, -0.05727402, 0.0049606035, -704875.3, 36874.7, 0.0, 10.000564, 9.998911 
7.94995e+2, 2.3430985e+2, -643393.2, -765654.2, 56869.957, -0.05042333, -0.00068074814, -621030.44, 22734.055, 0.0, 10.000495, 9.998877 
7.94968e+2, 2.4430875e+2, -532055.7, -635649.9, 41212.957, -0.047250587, -0.0027783413, -517660.28, 28115.379, 0.0, 10.000477, 9.9991045 
7.949407e+2, 2.5430784e+2, -425208.38, -530513.6, 43020.133, -0.049179345, -0.0046018627, -409868.13, 37914.54, 0.0, 10.0005245, 9.999131 
7.949134e+2, 2.643066e+2, -386083.72, -561175.5, 35255.777, -0.051922422, 0.004792993, -379251.34, -29456.398, 0.0, 10.000552, 9.998235 
7.9488593e+2, 2.74305e+2, -290596.16, -470287.03, 23638.746, -0.054863576, 0.027097283, -287538.47, -35724.516, 0.0, 10.00056, 9.998181 
7.9485863e+2, 2.8430343e+2, -176411.92, -342958.84, 22280.08, -0.046688084, 0.04746654, -173482.89, -19652.217, 0.0, 10.000579, 9.998374 
7.9483145e+2, 2.9430184e+2, -74851.96, -245330.34, 22765.426, -0.026783869, 0.05395185, -71864.26, -16018.948, 0.0, 10.000611, 9.998356 
7.9480374e+2, 3.0429938e+2, -36398.855, -211921.98, 15381.493, -0.06435104, -0.017609894, -35061.133, -35061.133, 0.0, 10.0005865, 9.998262 
7.947759e+2, 3.1429827e+2, 81205.58, 51914.188, 7268.039, -0.08358294, 0.04257106, 82909.83, 82909.83, 0.0, 10.000501, 10.000116 
8.05296e+2, 1.2434304e+2, -1762784.1, -1784418.1, 77382.734, -0.0014243108, -0.022010082, -1695466.0, 25970.107, 0.0000000057252847, 9.99988, 9.999578 
8.0526674e+2, 1.343429e+2, -1590710.4, -1642807.0, -49889.21, -0.034880683, 0.0009225467, -1560478.5, 62960.07, 0.0, 10.000339, 9.999663 
8.052387e+2, 1.443421e+2, -1443076.6, -1496058.8, 20706.953, 0.0068145017, -0.049240347, -1435944.0, 89502.09, 0.0, 10.000579, 9.999877 
8.052115e+2, 1.5434217e+2, -1344287.4, -1395685.6, 25887.12, -0.006043083, -0.029529877, -1333509.3, 93934.48, 0.0, 10.000576, 9.999894 
8.051843e+2, 1.6434199e+2, -1270242.3, -1355851.9, 37759.133, -0.021005519, -0.015608783, -1255968.1, 73477.31, 0.0, 10.000612, 9.999477 
8.051576e+2, 1.7434146e+2, -1160937.4, -1254979.8, 45782.176, -0.022135872, -0.010268306, -1142330.8, 89121.586, 0.0, 10.000701, 9.9994545 
8.051307e+2, 1.8434095e+2, -1044087.0, -1112835.8, 37294.793, -0.018552845, -0.015552144, -1027741.56, 105716.02, 0.0, 10.000679, 9.999767 
8.051037e+2, 1.943405e+2, -968394.2, -1022565.3, 35989.41, -0.013962487, -0.038785774, -950436.8, 85023.87, 0.0, 10.000513, 9.999795 
8.050766e+2, 2.0434016e+2, -895371.44, -962384.94, 38002.95, -0.020960335, -0.036776476, -878213.4, 59249.984, 0.0, 10.000453, 9.999564 
8.0504936e+2, 2.1434e+2, -786704.94, -860299.4, 40630.703, -0.041733105, -0.0060129273, -768685.25, 70780.125, 0.0, 10.00053, 9.999556 
8.050223e+2, 2.2433937e+2, -735868.2, -857258.1, 45376.48, -0.05334121, 0.009990882, -720781.25, 20691.719, 0.0, 10.000518, 9.998909 
8.0499536e+2, 2.3433815e+2, -659067.8, -773471.9, 48769.53, -0.0533033, 0.0035071361, -641099.75, 2387.717, 0.0, 10.000389, 9.998874 
8.0496836e+2, 2.4433708e+2, -545989.0, -643734.6, 40608.027, -0.05087949, 0.0029257191, -531319.94, 14178.717, 0.0, 10.000388, 9.999091 
8.0494124e+2, 2.543362e+2, -422001.53, -530348.44, 34427.152, -0.046031035, 0.005227286, -411987.8, 35517.805, 0.0, 10.000554, 9.999117 
8.04914e+2, 2.6433492e+2, -362308.4, -554829.44, 29846.555, -0.04841658, 0.013988909, -357787.47, -8269.076, 0.0, 10.000739, 9.998187 
8.048866e+2, 2.7433318e+2, -237433.7, -450144.25, 35825.703, -0.058990236, 0.03039935, -231561.86, 19976.527, 0.0, 10.00095, 9.998132 
8.0485934e+2, 2.843316e+2, -119681.64, -323159.72, 35442.2, -0.050313883, 0.055162292, -113684.98, 39870.324, 0.0, 10.001001, 9.998306 
8.048323e+2, 2.9433015e+2, -44626.617, -238131.75, 28031.654, -0.019815097, 0.07704045, -40647.695, 14921.618, 0.0, 10.000853, 9.998288 
8.048044e+2, 3.043275e+2, -10817.952, -208697.56, 12286.112, -0.057128847, -0.004718034, -10058.04, -10058.04, 0.0, 10.000802, 9.998179 
8.0477643e+2, 3.1432635e+2, 124257.71, 54048.33, -10079.812, -0.09363974, 0.06325532, 125676.195, 125676.195, 0.0, 10.000878, 9.9999485 
8.1529576e+2, 1.2437074e+2, -1750640.4, -1761475.3, 89643.41, -0.015170631, -0.018628677, -1666250.9, 54913.402, 0.000000004999778, 9.999888, 9.999732 
8.1526715e+2, 1.3437061e+2, -1578309.8, -1616085.6, -34080.79, -0.020102145, -0.013006084, -1558232.9, 64933.04, 0.0, 10.000334, 9.99985 
8.1523937e+2, 1.4436989e+2, -1451212.0, -1511189.8, 20659.604, 0.015124721, -0.060764354, -1444784.5, 80388.195, 0.0, 10.00057, 9.999778 
8.152119e+2, 1.5436998e+2, -1352853.0, -1413326.5, 25350.127, -0.015424775, -0.026675306, -1343632.4, 83538.97, 0.0, 10.000574, 9.999774 
8.1518483e+2, 1.6436982e+2, -1259809.4, -1334157.3, 40486.926, -0.031791873, -0.008964442, -1242018.8, 87154.2, 0.0, 10.000611, 9.999627 
8.151583e+2, 1.7436936e+2, -1149810.0, -1230682.1, 48832.027, -0.016872948, -0.014680227, -1126845.5, 104333.29, 0.0, 10.000695, 9.999624 
8.151314e+2, 1.8436895e+2, -1046522.1, -1116884.8, 31247.97, -0.013711862, -0.019696448, -1034648.56, 98534.46, 0.0, 10.000674, 9.999743 
8.15104e+2, 1.943686e+2, -970982.4, -1028414.25, 29508.621, -0.029155845, -0.027433282, -958523.56, 76662.05, 0.0, 10.000514, 9.999755 
8.150768e+2, 2.043683e+2, -891642.44, -955531.7, 40068.047, -0.03708398, -0.023875954, -872343.44, 64844.93, 0.0, 10.000455, 9.999611 
8.1504995e+2, 2.1436802e+2, -782708.94, -852408.3, 43323.645, -0.034438048, -0.009989849, -761957.94, 77233.53, 0.0, 10.000531, 9.99961 
8.1502295e+2, 2.2436741e+2, -729443.0, -844428.3, 40741.395, -0.03956035, 0.0027916445, -716471.0, 24727.473, 0.0, 10.000519, 9.998998 
8.149957e+2, 2.3436645e+2, -652344.8, -760196.44, 43853.38, -0.054348405, 0.01172791, -636764.44, 6445.939, 0.0, 10.000391, 9.998964 
8.149687e+2, 2.4436548e+2, -553988.3, -661045.44, 46090.83, -0.056982405, 0.022794902, -536879.25, 8341.53, 0.0, 10.00039, 9.998972 
8.1494176e+2, 2.5436452e+2, -431140.7, -549784.06, 40668.34, -0.04493487, 0.030421903, -418538.97, 28690.555, 0.0, 10.000554, 9.998983 
8.1491476e+2, 2.643632e+2, -349823.47, -529566.56, 37778.19, -0.04313046, 0.031205421, -342206.13, 7036.825, 0.0, 10.00074, 9.998361 
8.148876e+2, 2.7436143e+2, -222877.33, -421619.25, 44340.88, -0.052586988, 0.024282327, -213433.3, 37828.703, 0.0, 10.000956, 9.998325 
8.1486034e+2, 2.8435987e+2, -129357.64, -345184.4, 30873.06, -0.042434145, 0.049649753, -125028.234, 28249.965, 0.0, 10.001009, 9.998152 
8.148331e+2, 2.943585e+2, -56503.33, -263422.4, 22589.117, -0.012017044, 0.100023046, -54066.008, 1226.0795, 0.0, 10.000854, 9.998115 
8.1480515e+2, 3.043556e+2, -30043.486, -248880.36, 14868.746, -0.056256678, 0.014717191, -29037.857, -29037.857, 0.0, 10.000803, 9.997904 
8.147771e+2, 3.1435418e+2, 98493.75, -1300.796, -7103.9766, -0.1102429, 0.083261274, 98996.92, 98996.92, 0.0000000016901937, 10.000885, 9.999565 
8.252957e+2, 1.24397956e+2, -1722869.4, -1730387.6, 64595.74, -0.012358899, -0.016304415, -1661923.5, 58974.24, 0.0000000017683296, 10.000003, 9.999888 
8.252674e+2, 1.34398e+2, -1614390.6, -1612247.8, -56055.645, -0.012064352, -0.013321001, -1557253.4, 65643.69, 0.0, 9.999996, 10.000038 
8.252396e+2, 1.4439741e+2, -1518694.1, -1539678.4, 300.17557, 0.014127512, -0.05917262, -1518689.9, 6212.484, 0.0, 10.000091, 9.999813 
8.2521236e+2, 1.5439747e+2, -1385171.4, -1426103.4, 14753.295, -0.017046994, -0.031833496, -1380408.1, 46493.766, 0.0, 10.000342, 9.999798 
8.251853e+2, 1.6439739e+2, -1279470.0, -1325721.1, 28990.035, -0.03233025, -0.016015418, -1265511.8, 63391.324, 0.0, 10.000401, 9.999786 
8.251588e+2, 1.7439714e+2, -1208027.1, -1240166.0, 36497.953, -0.015335758, -0.016829956, -1184217.6, 46688.785, 0.0, 10.0002165, 9.999789 
8.2513183e+2, 1.8439686e+2, -1106487.1, -1136939.6, 25812.861, -0.013866188, -0.020403683, -1091744.4, 41164.84, 0.0, 10.000225, 9.999822 
8.251044e+2, 1.9439656e+2, -971373.56, -1020528.1, 32168.477, -0.035804287, -0.031330295, -955468.06, 79443.27, 0.0, 10.000478, 9.9998255 
8.2507724e+2, 2.0439628e+2, -880718.3, -952214.3, 41079.707, -0.044380262, -0.02780841, -862010.3, 74903.82, 0.0, 10.00054, 9.999593 
8.2505035e+2, 2.1439601e+2, -809893.0, -868061.06, 38182.844, -0.03469725, -0.010123665, -790979.0, 47938.54, 0.0, 10.000357, 9.999586 
8.2502335e+2, 2.2439547e+2, -747269.1, -843620.56, 35856.492, -0.036654945, 0.00425941, -735390.0, 5534.2036, 0.0, 10.000358, 9.999081 
8.249962e+2, 2.3439457e+2, -616971.2, -732901.8, 38709.637, -0.05369175, 0.012274568, -605234.2, 37700.508, 0.0, 10.000591, 9.999055 
8.249692e+2, 2.4439363e+2, -515654.78, -655215.75, 41424.953, -0.057863347, 0.02600804, -504285.16, 40659.883, 0.0, 10.000709, 9.998858 
8.2494235e+2, 2.543926e+2, -421046.47, -558954.6, 36267.04, -0.04613483, 0.040430807, -412090.6, 34864.85, 0.0, 10.000686, 9.9988575 
8.2491547e+2, 2.6439127e+2, -341835.28, -507542.1, 36044.543, -0.043090712, 0.041213315, -334334.4, 14634.499, 0.0, 10.000718, 9.998522 
8.248884e+2, 2.743896e+2, -230104.28, -404569.53, 41411.31, -0.049909294, 0.026025426, -220773.83, 30212.059, 0.0, 10.000819, 9.9985075 
8.248614e+2, 2.843881e+2, -137982.44, -366099.1, 24831.457, -0.042206887, 0.052666586, -135310.72, 17690.771, 0.0, 10.001023, 9.998 
8.248341e+2, 2.9438666e+2, 4618.9004, -252689.83, 16541.383, -0.019969324, 0.11556129, 5677.9233, 60694.688, 0.0, 10.001355, 9.997946 
8.248062e+2, 3.0438355e+2, 62055.83, -214356.98, 11612.258, -0.060646936, 0.0211609, 62542.81, 62542.81, 0.0, 10.001478, 9.997815 
8.2477826e+2, 3.1438205e+2, 148429.94, 678.6124, 4089.3928, -0.101333946, 0.089941904, 148543.03, 148543.03, 0.000000023716037, 10.001324, 9.999368 
8.352958e+2, 1.24424815e+2, -1713201.1, -1708542.1, 59688.99, 0.0004341749, -0.01597748, -1651137.3, 69498.13, 0.000000000051048894, 9.999993, 10.000044 
8.352673e+2, 1.3442515e+2, -1601303.3, -1585530.6, -56852.824, -0.010839631, -0.001003104, -1536019.8, 86611.29, 0.0, 9.999996, 10.000221 
8.3523965e+2, 1.4442477e+2, -1507626.8, -1517414.9, 8623.914, 0.004445679, -0.04546813, -1502605.0, 22029.23, 0.0, 10.0000925, 9.999966 
8.352127e+2, 1.544247e+2, -1375451.1, -1404657.9, 24024.533, -0.011663887, -0.04455338, -1361939.9, 64694.92, 0.0, 10.000336, 9.9999485 
8.351857e+2, 1.644247e+2, -1269070.8, -1302758.0, 22714.225, -0.02385896, -0.035590384, -1257636.4, 70998.72, 0.0, 10.000393, 9.9999485 
8.351589e+2, 1.7442483e+2, -1196871.3, -1217099.3, 29332.158, -0.017751195, -0.016777229, -1175958.4, 54676.55, 0.0, 10.000216, 9.9999485 
8.3513194e+2, 1.8442473e+2, -1094381.8, -1112094.1, 33936.676, -0.019130316, -0.018245146, -1068164.8, 64470.918, 0.0, 10.000225, 9.999992 
8.351049e+2, 1.9442438e+2, -959752.06, -995795.44, 41323.465, -0.03448319, -0.049952783, -932691.5, 101946.26, 0.0, 10.000474, 9.999998 
8.3507776e+2, 2.0442413e+2, -887029.0, -965062.8, 34686.01, -0.04361279, -0.047618765, -873840.2, 62800.13, 0.0, 10.000538, 9.999506 
8.350506e+2, 2.1442401e+2, -816649.3, -882942.06, 30891.914, -0.0427225, -0.0062834057, -804485.75, 34157.77, 0.0, 10.000359, 9.999483 
8.3502364e+2, 2.244235e+2, -741732.8, -833176.25, 43549.273, -0.044745207, 0.014015746, -724311.7, 16338.227, 0.0, 10.0003605, 9.999151 
8.3499676e+2, 2.3442252e+2, -610697.5, -720757.5, 47422.113, -0.051308386, 0.0050328276, -593083.44, 49576.93, 0.0, 10.000593, 9.999138 
8.3496994e+2, 2.444215e+2, -523186.66, -671709.0, 40949.78, -0.05364235, 0.012555131, -512644.47, 32026.973, 0.0, 10.0007105, 9.998745 
8.3494294e+2, 2.5442043e+2, -429448.7, -577234.6, 35458.91, -0.050758384, 0.034885734, -421381.28, 25302.2, 0.0, 10.000688, 9.998732 
8.3491606e+2, 2.644192e+2, -331678.44, -486958.75, 39597.91, -0.049779862, 0.043676615, -322163.63, 26532.793, 0.0, 10.000719, 9.998664 
8.3488923e+2, 2.7441773e+2, -219180.78, -381786.88, 45223.523, -0.05083085, 0.035897415, -207449.69, 43260.59, 0.0, 10.000817, 9.998665 
8.3486223e+2, 2.8441626e+2, -148405.3, -388036.22, 37145.277, -0.04958965, 0.06455653, -142779.47, 9946.024, 0.0, 10.001023, 9.99785 
8.3483523e+2, 2.9441464e+2, -5707.056, -276510.5, 29622.123, -0.04684116, 0.123120084, -2504.678, 52239.074, 0.0, 10.001365, 9.997779 
8.348076e+2, 3.0441132e+2, 71389.41, -198073.03, 7087.468, -0.07302801, 0.013118428, 71575.69, 71575.69, 0.0, 10.001491, 9.997922 
8.347799e+2, 3.144099e+2, 149548.63, 1273.9346, -1167.2559, -0.064892404, 0.078477785, 149557.81, 149557.81, 0.00000010288848, 10.001329, 9.99937 
8.4529567e+2, 1.2445152e+2, -1764518.9, -1718539.9, 55966.8, 0.010009428, -0.020321883, -1681024.9, 39349.098, 0.0, 9.99958, 10.000174 
8.452673e+2, 1.34452e+2, -1613153.3, -1573904.1, -59541.44, -0.005937781, -0.006061525, -1530836.5, 91531.41, 0.0, 9.999844, 10.000374 
8.452396e+2, 1.4445184e+2, -1514843.9, -1500375.8, 4049.2656, 0.00091501063, -0.04324503, -1499319.6, 25049.11, 0.0, 9.999956, 10.000147 
8.452128e+2, 1.54452e+2, -1424080.8, -1407095.6, 21726.885, -0.009345169, -0.04019811, -1392260.5, 34106.754, 0.0, 9.999912, 10.000135 
8.4518594e+2, 1.6445214e+2, -1331703.0, -1321948.3, 14156.814, -0.019568436, -0.032743327, -1311852.3, 16514.133, 0.0, 9.999916, 10.000046 
8.4515893e+2, 1.7445228e+2, -1225264.9, -1220308.6, 15240.494, -0.017271392, -0.01960047, -1207346.1, 23019.838, 0.0, 9.999976, 10.000042 
8.45132e+2, 1.8445231e+2, -1118059.0, -1106532.0, 22151.424, -0.020855317, -0.020816544, -1089406.6, 42958.82, 0.0, 9.9999895, 10.000143 
8.4510505e+2, 1.9445221e+2, -1026207.75, -1010323.8, 28581.398, -0.036010433, -0.044949424, -988601.5, 45763.547, 0.0, 9.999943, 10.000154 
8.45078e+2, 2.0445204e+2, -955490.56, -998430.06, 23563.037, -0.0460275, -0.042312622, -945082.94, -8716.127, 0.0, 10.00007, 9.999502 
8.4505093e+2, 2.1445182e+2, -809902.9, -881092.7, 25939.537, -0.047825087, -0.009700609, -801454.0, 36917.246, 0.0, 10.000412, 9.99947 
8.45024e+2, 2.2445129e+2, -706203.56, -807983.3, 41829.74, -0.049426667, 0.008172192, -691218.5, 49159.13, 0.0, 10.00057, 9.999222 
8.449972e+2, 2.3445044e+2, -618662.56, -715764.9, 44991.83, -0.051527593, 0.004161167, -601020.94, 41365.523, 0.0, 10.000502, 9.999215 
8.449705e+2, 2.4444948e+2, -546765.56, -688237.94, 41299.33, -0.052867256, 0.014533215, -535591.8, 8805.332, 0.0, 10.000572, 9.998697 
8.4494364e+2, 2.5444835e+2, -415280.06, -576575.44, 40732.73, -0.053502575, 0.03755516, -405577.28, 40832.86, 0.0, 10.000813, 9.998675 
8.449169e+2, 2.6444706e+2, -297144.3, -474178.28, 40127.93, -0.052956156, 0.04665754, -288473.3, 59950.453, 0.0, 10.000975, 9.998628 
8.4489006e+2, 2.744456e+2, -188904.05, -370833.16, 30791.29, -0.050601773, 0.03887779, -183833.95, 66603.836, 0.0, 10.001042, 9.998631 
8.4486336e+2, 2.8444415e+2, -119802.34, -371994.47, 29074.234, -0.051673844, 0.07036515, -116493.89, 35958.887, 0.0, 10.001211, 9.997869 
8.448365e+2, 2.944426e+2, 14517.96, -263932.3, 36275.76, -0.05789459, 0.13445544, 19166.273, 73636.72, 0.0, 10.0014925, 9.997803 
8.448091e+2, 3.0443925e+2, 107264.33, -174725.77, 7563.1104, -0.07448221, 0.01628702, 107467.02, 107467.02, 0.00000000024035085, 10.001712, 9.997974 
8.4478176e+2, 3.1443784e+2, 219178.08, 26986.549, -7199.0254, -0.039196976, 0.077723816, 219447.36, 219447.36, 0.00000026211356, 10.001843, 9.999297 
8.5529524e+2, 1.2447814e+2, -1756910.3, -1704236.0, 61981.84, 0.011913121, -0.02873005, -1663227.9, 56884.957, 0.0, 9.999584, 10.000271 
8.5526717e+2, 1.3447861e+2, -1605613.5, -1557855.0, -49858.543, 0.0022477345, -0.02694167, -1526452.3, 95654.79, 0.0, 9.99984, 10.000486 
8.552395e+2, 1.4447874e+2, -1500834.4, -1470645.3, 2682.258, 0.0027674516, -0.051262915, -1470408.8, 53696.39, 0.0, 9.999951, 10.000354 
8.552126e+2, 1.5447938e+2, -1409128.1, -1376147.1, 19840.854, -0.010600955, -0.019755641, -1366838.5, 59260.395, 0.0, 9.999911, 10.000349 
8.551858e+2, 1.6447969e+2, -1329163.9, -1316994.8, 15685.141, -0.019748839, -0.009270156, -1306255.4, 21841.193, 0.0, 9.999916, 10.00008 
8.551589e+2, 1.7447957e+2, -1223535.8, -1216860.3, 17260.354, -0.014345426, -0.025273174, -1202617.9, 27481.088, 0.0, 9.999975, 10.000067 
8.55132e+2, 1.8447967e+2, -1108523.8, -1087227.6, 20341.512, -0.01966167, -0.027338518, -1074915.8, 57182.13, 0.0, 9.99999, 10.000276 
8.5510486e+2, 1.9448005e+2, -1015977.44, -990192.25, 26426.328, -0.040541682, -0.016960053, -973681.25, 60411.637, 0.0, 9.999947, 10.000291 
8.550779e+2, 2.0447999e+2, -949810.4, -987781.7, 35169.656, -0.051720668, -0.0130848475, -928829.06, 7264.3296, 0.0, 10.000073, 9.999574 
8.550513e+2, 2.1447943e+2, -804658.25, -870772.1, 38504.6, -0.05034504, -0.020484881, -786967.1, 51133.445, 0.0, 10.000413, 9.99954 
8.5502446e+2, 2.244789e+2, -701403.94, -798512.6, 39709.69, -0.05117706, -0.012723218, -687233.6, 52873.52, 0.0, 10.000571, 9.999288 
8.549977e+2, 2.3447838e+2, -613403.44, -705685.5, 42313.305, -0.05482754, 0.009669213, -596939.25, 45173.645, 0.0, 10.0005045, 9.999284 
8.54971e+2, 2.4447757e+2, -545598.25, -686568.25, 49770.4, -0.05600175, 0.0318083, -529797.56, 14324.495, 0.0, 10.000574, 9.998709 
8.549444e+2, 2.544764e+2, -414275.5, -575465.44, 49935.848, -0.054227777, 0.048610445, -400059.4, 46076.113, 0.0, 10.000815, 9.998682 
8.5491776e+2, 2.6447493e+2, -312548.84, -507242.16, 43051.863, -0.0524187, 0.050277524, -303453.8, 44697.242, 0.0, 10.0009775, 9.9984 
8.548911e+2, 2.744731e+2, -205176.19, -405639.66, 33395.9, -0.050228707, 0.034210004, -199759.05, 50409.73, 0.0, 10.001046, 9.998391 
8.5486454e+2, 2.844717e+2, -105901.54, -343987.38, 39414.277, -0.049458526, 0.069284245, -99546.29, 52637.504, 0.0, 10.001214, 9.998061 
8.54838e+2, 2.944705e+2, 30241.797, -231954.94, 47259.12, -0.05209145, 0.15005548, 38499.83, 92696.91, 0.0, 10.001494, 9.998022 
8.548109e+2, 3.0446726e+2, 106837.44, -176536.0, 13369.242, -0.064220384, 0.03131379, 107466.79, 107466.79, 0.0000000059514194, 10.001715, 9.997961 
8.5478365e+2, 3.1446573e+2, 209418.67, 4439.4575, -1306.6122, -0.027719911, 0.08398927, 209427.0, 209427.0, 0.0000005093443, 10.001852, 9.999139 
8.652949e+2, 1.24504775e+2, -1759638.9, -1698427.5, 74678.22, 0.024261689, -0.048178647, -1648326.6, 71524.83, 0.00000000000000000000885557, 9.9995365, 10.000334 
8.6526686e+2, 1.3450556e+2, -1635173.4, -1563850.3, -36752.234, 0.0060664285, -0.022745762, -1548301.8, 73541.54, 0.0, 9.999603, 10.000558 
8.652392e+2, 1.4450589e+2, -1542996.1, -1484771.4, 3002.6707, -0.0017097202, -0.033229366, -1484617.0, 39222.816, 0.0, 9.999637, 10.000408 
8.652124e+2, 1.5450647e+2, -1445551.6, -1387610.5, 8242.799, -0.009253804, -0.013831138, -1386460.6, 39373.605, 0.0, 9.999636, 10.000402 
8.6518556e+2, 1.645068e+2, -1352609.9, -1311915.3, 5416.0894, -0.017779252, -0.009649484, -1311206.8, 16624.678, 0.0, 9.999685, 10.000226 
8.651587e+2, 1.7450684e+2, -1238858.1, -1207035.1, 16253.413, -0.019943753, -0.025268806, -1200201.4, 29630.63, 0.0, 9.999797, 10.000219 
8.651318e+2, 1.8450709e+2, -1120115.0, -1091152.1, 18050.262, -0.028543064, -0.022478089, -1082492.3, 49337.49, 0.0, 9.999905, 10.00029 
8.6510473e+2, 1.9450757e+2, -1007507.25, -985297.25, 14137.508, -0.04684938, -0.0015621422, -978424.75, 55399.367, 0.0, 10.000002, 10.000298 
8.650779e+2, 2.0450756e+2, -945805.8, -974905.5, 23689.004, -0.05643504, 0.001629909, -932555.2, 3269.0347, 0.0, 10.000054, 9.999671 
8.650514e+2, 2.1450695e+2, -850165.9, -880878.0, 29577.182, -0.05517691, -0.020175193, -832196.0, 5635.194, 0.0, 10.000051, 9.999645 
8.650248e+2, 2.2450645e+2, -751866.3, -817788.56, 30105.736, -0.058152627, -0.016235605, -740186.75, -349.55472, 0.0, 10.000204, 9.999331 
8.6499804e+2, 2.3450607e+2, -604441.6, -696629.94, 29950.422, -0.06607903, 0.015340476, -595565.8, 46276.12, 0.0, 10.000546, 9.999326 
8.649716e+2, 2.4450536e+2, -511474.97, -665840.8, 38832.457, -0.06344157, 0.042979605, -502256.72, 41593.406, 0.0, 10.000792, 9.998746 
8.649453e+2, 2.5450423e+2, -395902.4, -562101.0, 41182.56, -0.048423126, 0.060731724, -386257.44, 59605.28, 0.0, 10.000924, 9.998721 
8.649189e+2, 2.6450264e+2, -296665.22, -513105.38, 39620.48, -0.04699568, 0.055368263, -289640.47, 58238.746, 0.0, 10.001146, 9.998277 
8.648922e+2, 2.7450055e+2, -152444.84, -394889.94, 37847.758, -0.061280556, 0.022656858, -146673.84, 103226.26, 0.0, 10.001472, 9.998259 
8.648658e+2, 2.8449905e+2, -47287.64, -308423.8, 38909.87, -0.05908826, 0.05763635, -41613.28, 110302.234, 0.0, 10.001586, 9.998125 
8.6483955e+2, 2.9449818e+2, 28787.645, -223458.92, 35299.64, -0.03932453, 0.15816553, 33634.387, 87560.16, 0.0, 10.001447, 9.998102 
8.6481273e+2, 3.04495e+2, 96065.4, -185727.13, 5410.4556, -0.047075775, 0.042888608, 96169.24, 96169.24, 0.000000027135602, 10.001659, 9.997924 
8.647857e+2, 3.1449333e+2, 257908.53, 8397.208, -10101.145, -0.031605855, 0.08600387, 258316.78, 258316.78, 0.00000083365, 10.002271, 9.998963 
8.7529457e+2, 1.2453148e+2, -1758060.6, -1694847.6, 72422.0, 0.04228992, -0.07654174, -1647435.8, 72153.66, 0.0000000055054987, 9.999533, 10.0003605 
8.7526643e+2, 1.3453285e+2, -1632648.1, -1559482.6, -35150.695, 0.004760915, 0.004438375, -1545332.0, 76244.305, 0.0, 9.999605, 10.000588 
8.752387e+2, 1.4453329e+2, -1548803.0, -1498092.0, 2428.69, -0.012941396, 0.008184707, -1497975.9, 25596.352, 0.0, 9.99964, 10.000316 
8.75212e+2, 1.5453328e+2, -1452214.0, -1402146.4, 7951.8975, -0.0055048857, -0.021413991, -1400913.8, 24658.95, 0.0, 9.999638, 10.000302 
8.7518525e+2, 1.6453354e+2, -1334812.6, -1275530.6, 9136.228, -0.0140829645, -0.031520993, -1274154.6, 53415.78, 0.0, 9.999686, 10.000476 
8.751583e+2, 1.7453411e+2, -1219877.6, -1167948.0, 20164.943, -0.034123775, -0.019510366, -1161037.4, 68527.305, 0.0, 9.999797, 10.000488 
8.751315e+2, 1.8453455e+2, -1127373.5, -1106372.0, 21317.771, -0.04744864, -0.0070707067, -1093109.0, 38451.508, 0.0, 9.999904, 10.000187 
8.751046e+2, 1.945348e+2, -1016052.4, -1003270.9, 17503.012, -0.055268135, 0.001528396, -991028.4, 42530.01, 0.0, 10.000001, 10.0001745 
8.7507796e+2, 2.0453475e+2, -937031.5, -957212.2, 23383.172, -0.060730927, 0.0026346515, -921654.44, 13904.558, 0.0, 10.000055, 9.999793 
8.750513e+2, 2.1453439e+2, -840108.0, -861038.9, 29073.916, -0.06255895, -0.008750213, -819673.3, 17889.63, 0.0, 10.000053, 9.999781 
8.7502486e+2, 2.2453399e+2, -750154.8, -815501.5, 42109.203, -0.07056151, -0.0027594091, -729529.6, 10038.119, 0.0, 10.000208, 9.999347 
8.749984e+2, 2.3453353e+2, -603335.06, -695419.4, 42772.07, -0.08553928, 0.021075925, -586533.5, 55040.02, 0.0, 10.000549, 9.999333 
8.749722e+2, 2.4453285e+2, -506812.44, -657100.25, 44084.844, -0.07552117, 0.048193026, -494835.28, 48746.098, 0.0, 10.000794, 9.998805 
8.749463e+2, 2.5453186e+2, -390855.47, -552513.3, 46272.313, -0.036309913, 0.073797055, -378547.72, 67044.19, 0.0, 10.000927, 9.998786 
8.749201e+2, 2.6453024e+2, -297424.7, -515852.1, 51858.957, -0.03701616, 0.061539855, -285737.66, 61870.746, 0.0, 10.00115, 9.998257 
8.748934e+2, 2.7452785e+2, -153120.42, -398205.75, 50583.754, -0.08477947, 0.0038971703, -143090.77, 106541.19, 0.0, 10.001479, 9.998234 
8.7486714e+2, 2.8452632e+2, -52246.336, -320048.47, 34382.02, -0.08155726, 0.03511046, -47902.62, 103745.58, 0.0, 10.001591, 9.998043 
8.748412e+2, 2.9452553e+2, 22977.83, -235068.86, 29966.158, -0.019296939, 0.15792696, 26412.004, 80069.01, 0.0, 10.001444, 9.998025 
8.7481457e+2, 3.0452237e+2, 91237.75, -195558.97, 27621.93, -0.022936722, 0.049940504, 93873.84, 93873.84, 0.00000006425192, 10.0016575, 9.997858 
8.747877e+2, 3.1452048e+2, 245607.13, -19341.838, 13701.315, -0.054286078, 0.07901718, 246313.78, 246313.78, 0.0000011924308, 10.002278, 9.99877 
8.852941e+2, 1.2455851e+2, -1794763.8, -1718480.3, 62501.78, 0.057157703, -0.05256703, -1683401.4, 35924.168, 0.00000006865042, 9.999308, 10.000307 
8.8526595e+2, 1.3455977e+2, -1649880.0, -1573604.4, -47233.086, 0.004196212, 0.022436975, -1551034.3, 70279.88, 0.0, 9.999515, 10.000534 
8.852382e+2, 1.4456025e+2, -1547665.5, -1486277.3, -12361.532, -0.022292377, 0.026729705, -1483881.6, 39428.355, 0.0, 9.999601, 10.000416 
8.852116e+2, 1.5456027e+2, -1456249.0, -1392059.5, 7199.829, -0.008570191, -0.009484247, -1391261.8, 34047.85, 0.0, 9.999559, 10.000409 
8.851848e+2, 1.645606e+2, -1346805.9, -1265296.3, 14966.104, -0.014871127, -0.023253707, -1262635.3, 64670.92, 0.0, 9.9995365, 10.000618 
8.8515794e+2, 1.7456134e+2, -1249914.6, -1166504.0, 16678.656, -0.037438944, -0.010870454, -1163292.6, 66005.88, 0.0, 9.999523, 10.000629 
8.851312e+2, 1.8456185e+2, -1173654.0, -1126432.9, 19698.879, -0.04954563, 0.00077238696, -1119294.4, 11999.061, 0.0, 9.9995775, 10.000206 
8.851045e+2, 1.9456208e+2, -1057321.4, -1021352.44, 25612.809, -0.052231837, 0.006915587, -1008040.6, 25251.0, 0.0, 9.999711, 10.00019 
8.850779e+2, 2.0456201e+2, -964266.25, -973508.75, 31090.787, -0.06051048, 0.006717747, -937455.1, -2162.613, 0.0, 9.999883, 9.9997635 
8.8505125e+2, 2.1456163e+2, -836123.25, -862221.0, 24134.654, -0.0742188, -0.004395121, -821735.75, 15560.968, 0.0, 10.000095, 9.999752 
8.8502496e+2, 2.2456123e+2, -738312.4, -807855.44, 35819.29, -0.08078575, 0.0026406648, -723163.2, 16138.266, 0.0, 10.000282, 9.999362 
8.849989e+2, 2.3456082e+2, -617769.4, -700110.56, 37000.555, -0.07914511, 0.028475752, -603586.06, 37720.68, 0.0, 10.0004425, 9.999352 
8.84973e+2, 2.4456011e+2, -526335.94, -664052.2, 35290.53, -0.067144185, 0.051259052, -517819.22, 25495.293, 0.0, 10.00065, 9.998825 
8.849471e+2, 2.5455904e+2, -390480.28, -549601.9, 33809.074, -0.042982772, 0.06503863, -383594.72, 61730.754, 0.0, 10.000918, 9.998809 
8.849211e+2, 2.645574e+2, -297531.3, -517015.22, 40311.004, -0.047313213, 0.05229163, -290361.88, 56980.01, 0.0, 10.001155, 9.998246 
8.8489485e+2, 2.7455515e+2, -171448.75, -408015.8, 39926.01, -0.085736014, 0.00751929, -164892.06, 84472.58, 0.0, 10.001359, 9.998223 
8.8486874e+2, 2.8455356e+2, -53511.824, -324378.25, 18458.621, -0.08094209, 0.03925742, -52259.72, 99121.27, 0.0, 10.001599, 9.998009 
8.848427e+2, 2.9455265e+2, 82590.65, -210045.44, 17058.871, -0.025267972, 0.1484787, 83581.72, 136972.61, 0.0, 10.00187, 9.997991 
8.848164e+2, 3.0454943e+2, 149081.69, -170996.3, 29027.254, -0.023192145, 0.040353402, 151692.81, 151692.81, 0.00000010587227, 10.002069, 9.997828 
8.8479e+2, 3.145476e+2, 221314.17, -47895.594, 18113.568, -0.039542146, 0.078026935, 222527.45, 222527.45, 0.0000015115112, 10.002185, 9.998618 
8.952935e+2, 1.2458588e+2, -1802823.4, -1737099.4, 65475.223, 0.06481867, 0.018237978, -1696702.1, 22357.475, 0.00000033535434, 9.999314, 10.000176 
8.9526546e+2, 1.345864e+2, -1660101.1, -1593366.4, -39573.777, 0.004525223, 0.032142647, -1574970.3, 46085.44, 0.00000000007521531, 9.999507, 10.000402 
8.952377e+2, 1.4458682e+2, -1529988.1, -1447836.8, -13722.481, -0.029814988, 0.025237622, -1445605.1, 77446.67, 0.0, 9.999592, 10.000685 
8.95211e+2, 1.5458746e+2, -1435923.8, -1349673.5, 5274.4307, -0.018904503, 0.020796936, -1349352.1, 75692.77, 0.0, 9.999557, 10.000702 
8.951843e+2, 1.6458803e+2, -1344263.3, -1260574.9, 14022.19, -0.020678295, 0.012711348, -1258287.9, 68750.77, 0.0, 9.999537, 10.00065 
8.9515746e+2, 1.7458852e+2, -1248109.1, -1163636.4, 15837.405, -0.030681597, 0.0003091001, -1160764.8, 68268.4, 0.0, 9.999525, 10.000649 
8.951308e+2, 1.84589e+2, -1163699.1, -1106962.8, 24056.688, -0.03609736, 0.0017214211, -1098135.8, 32892.21, 0.0, 9.999581, 10.000339 
8.951043e+2, 1.9458944e+2, -1046908.94, -1000868.5, 30100.955, -0.03852462, 0.0147402175, -985994.2, 47029.313, 0.0, 9.999715, 10.00033 
8.9507776e+2, 2.0458935e+2, -976402.0, -999828.75, 38421.39, -0.056231637, 0.013742712, -947948.1, -12923.482, 0.0, 9.9998865, 9.999581 
8.950511e+2, 2.1458869e+2, -849173.94, -890367.3, 31720.865, -0.090532355, -0.0071439096, -831949.5, 5082.9165, 0.0, 10.000098, 9.999558 
8.950251e+2, 2.245882e+2, -736825.44, -805701.6, 41666.516, -0.08920052, 0.00010851128, -717207.25, 21830.875, 0.0, 10.000285, 9.999376 
8.949996e+2, 2.3458792e+2, -615645.4, -696723.56, 42964.94, -0.046920925, 0.0375607, -597113.3, 43928.125, 0.0, 10.000445, 9.999374 
8.949739e+2, 2.4458712e+2, -527422.06, -667425.75, 45167.293, -0.03858945, 0.051960476, -514115.2, 28934.344, 0.0, 10.000654, 9.998801 
8.9494777e+2, 2.5458568e+2, -391793.25, -553344.3, 44004.9, -0.06961508, 0.03390939, -380584.44, 64479.16, 0.0, 10.000921, 9.998783 
8.9492196e+2, 2.6458412e+2, -297636.38, -517889.28, 47988.016, -0.07877358, 0.027637545, -287635.06, 59444.74, 0.0, 10.001157, 9.9982395 
8.948964e+2, 2.745824e+2, -171518.83, -408341.88, 47668.957, -0.06283111, 0.0345588, -162283.89, 86814.46, 0.0, 10.001359, 9.998221 
8.9487046e+2, 2.8458083e+2, -52519.574, -322924.22, 28963.48, -0.05630298, 0.07093242, -49452.047, 101662.11, 0.0, 10.0016, 9.998019 
8.9484423e+2, 2.9457942e+2, 84411.52, -208207.4, 27743.688, -0.060435995, 0.12923887, 87018.72, 140146.55, 0.0, 10.001876, 9.998001 
8.948182e+2, 3.0457613e+2, 149783.06, -170836.64, 33440.453, -0.050501674, 0.013113092, 153233.75, 153233.75, 0.00000013409642, 10.002074, 9.997828 
8.947927e+2, 3.145746e+2, 212581.44, -64794.742, 22745.127, 0.015353316, 0.07940266, 214434.19, 214434.19, 0.0000016978646, 10.002178, 9.998506 
9.052928e+2, 1.2461271e+2, -1783577.5, -1711815.3, 54455.48, 0.06632348, 0.045867745, -1682482.5, 36316.164, 0.0000010631732, 9.999378, 10.0003195 
9.052648e+2, 1.3461322e+2, -1717572.1, -1604804.8, -28734.176, 0.017997157, 0.043743152, -1597905.1, 22888.889, 0.000000007369457, 9.999044, 10.000547 
9.05237e+2, 1.4461373e+2, -1613587.9, -1481901.4, 7311.0894, -0.018468836, 0.03493875, -1481496.6, 41292.5, 0.0, 9.998993, 10.000739 
9.052103e+2, 1.5461443e+2, -1475989.3, -1363215.4, 9141.249, -0.0247658, 0.03466697, -1362479.3, 62302.645, 0.0, 9.999258, 10.000752 
9.051837e+2, 1.6461511e+2, -1353952.9, -1255079.3, 7422.3726, -0.02748386, 0.029967017, -1254525.1, 72249.56, 0.0, 9.999429, 10.00074 
9.05157e+2, 1.7461573e+2, -1246870.6, -1152577.4, 13735.863, -0.021460498, 0.019226803, -1150617.3, 78150.586, 0.0, 9.999491, 10.000741 
9.051305e+2, 1.8461621e+2, -1160962.4, -1102572.8, 24759.568, -0.024461675, 0.01604882, -1093487.4, 37274.81, 0.0, 9.999588, 10.000364 
9.05104e+2, 1.9461656e+2, -1044608.0, -997010.56, 22329.564, -0.039371934, 0.017813636, -988175.1, 44582.867, 0.0, 9.999721, 10.000353 
9.050776e+2, 2.0461644e+2, -980092.4, -1010509.9, 32970.195, -0.0601956, 0.014326904, -958992.2, -24232.557, 0.0, 9.999901, 9.9995 
9.050513e+2, 2.1461575e+2, -849118.2, -899609.25, 34004.383, -0.08741457, 0.0009397354, -832012.4, 4755.5103, 0.0, 10.00014, 9.999474 
9.050254e+2, 2.246152e+2, -724994.94, -801397.9, 45483.93, -0.08400234, 0.008825492, -703798.25, 34975.758, 0.0, 10.000374, 9.999363 
9.050002e+2, 2.3461485e+2, -593902.0, -687272.25, 43928.758, -0.04514248, 0.038627595, -576483.8, 64293.707, 0.0, 10.0006, 9.999365 
9.049745e+2, 2.4461398e+2, -509453.53, -667946.0, 43998.49, -0.04161388, 0.048399992, -498058.53, 44727.81, 0.0, 10.000818, 9.998718 
9.049486e+2, 2.5461245e+2, -382394.88, -558224.8, 38138.402, -0.0794944, 0.029577002, -374478.84, 70322.72, 0.0, 10.001027, 9.998697 
9.0492296e+2, 2.6461086e+2, -298207.9, -519796.63, 35207.54, -0.08476218, 0.029166115, -292748.4, 54069.5, 0.0, 10.001162, 9.998224 
9.048977e+2, 2.746093e+2, -195028.22, -420929.22, 33712.87, -0.05180451, 0.049766187, -190104.33, 58731.043, 0.0, 10.001204, 9.99821 
9.0487206e+2, 2.846077e+2, -77620.375, -336025.25, 22363.355, -0.046695318, 0.08337833, -75699.24, 75152.07, 0.0, 10.001433, 9.998009 
9.0484595e+2, 2.9460606e+2, 84385.58, -208778.78, 19545.512, -0.07453485, 0.119878255, 85682.95, 138549.48, 0.0, 10.001881, 9.997994 
9.048202e+2, 3.0460274e+2, 165989.78, -159775.6, 16429.867, -0.05976615, 0.0013558376, 166816.33, 166816.33, 0.0000001316986, 10.002172, 9.997855 
9.047951e+2, 3.1460124e+2, 221362.22, -69085.01, 8088.2104, 0.040616103, 0.07150598, 221587.28, 221587.28, 0.0000016698094, 10.002276, 9.998428 
9.15292e+2, 1.2463914e+2, -1757434.5, -1657156.9, 39550.926, 0.05784823, 0.036156747, -1643435.0, 75106.266, 0.0000026057617, 9.999374, 10.000697 
9.15264e+2, 1.3464026e+2, -1690341.1, -1548743.3, -41757.418, 0.042205777, 0.05721311, -1537346.3, 83182.67, 0.00000007607973, 9.999044, 10.000933 
9.152363e+2, 1.4464097e+2, -1623810.4, -1504000.8, 16418.182, 0.008830518, 0.05477647, -1501791.6, 20730.383, 0.0, 9.998995, 10.000587 
9.1520953e+2, 1.546413e+2, -1488396.4, -1389155.4, 19126.162, -0.026724948, 0.03362873, -1385596.9, 38922.99, 0.0, 9.999258, 10.000576 
9.1518295e+2, 1.6464195e+2, -1344306.8, -1235337.1, 9696.655, -0.035366092, 0.030352991, -1234481.0, 92032.51, 0.0, 9.999428, 10.000877 
9.151566e+2, 1.7464298e+2, -1235720.0, -1130402.5, 15598.341, -0.010379801, 0.045706216, -1128140.9, 100361.32, 0.0, 9.999494, 10.000893 
9.1513014e+2, 1.846435e+2, -1166030.1, -1114288.1, 29085.365, -0.015055995, 0.04293619, -1101232.6, 29262.967, 0.0, 9.999593, 10.000283 
9.151035e+2, 1.9464348e+2, -1050215.5, -1009951.2, 26718.775, -0.05454399, 0.016050514, -996628.94, 35865.86, 0.0, 9.999724, 10.000263 
9.150773e+2, 2.0464326e+2, -978790.3, -1009080.0, 41365.707, -0.072363935, 0.008641733, -949884.2, -15387.102, 0.0, 9.999906, 9.999509 
9.150516e+2, 2.1464284e+2, -847588.7, -897474.44, 42550.027, -0.06535711, 0.019847369, -823209.6, 13293.299, 0.0, 10.000144, 9.999488 
9.15026e+2, 2.246423e+2, -727742.0, -808045.9, 53727.004, -0.06590994, 0.028614007, -700821.06, 37687.83, 0.0, 10.000376, 9.999317 
9.1500044e+2, 2.3464161e+2, -596667.9, -694058.44, 52337.977, -0.07439162, 0.031432252, -573875.44, 66639.58, 0.0, 10.000603, 9.999317 
9.14975e+2, 2.4464062e+2, -519267.5, -689370.1, 51979.418, -0.07653925, 0.04065237, -504641.4, 37883.516, 0.0, 10.000821, 9.99857 
9.1494966e+2, 2.5463927e+2, -392334.2, -579978.7, 46184.16, -0.072069064, 0.052779183, -381583.06, 62956.297, 0.0, 10.001031, 9.998548 
9.149243e+2, 2.6463768e+2, -299889.1, -524182.1, 37117.52, -0.06501059, 0.057328314, -293906.22, 52650.086, 0.0, 10.0011635, 9.998194 
9.148989e+2, 2.7463576e+2, -196964.86, -425102.22, 35408.05, -0.054244176, 0.052196916, -191595.72, 56980.266, 0.0, 10.001203, 9.998182 
9.148734e+2, 2.8463405e+2, -80632.61, -341949.66, 38642.54, -0.053470932, 0.07588966, -75038.08, 75554.78, 0.0, 10.0014305, 9.997971 
9.1484785e+2, 2.9463243e+2, 81951.42, -214048.86, 36502.652, -0.06576778, 0.12148951, 86386.47, 138993.86, 0.0, 10.00188, 9.997959 
9.148224e+2, 3.046292e+2, 170459.23, -150904.4, 20850.008, -0.04985272, 0.0058547985, 171806.33, 171806.33, 0.00000009563079, 10.002173, 9.997917 
9.147973e+2, 3.1462753e+2, 218896.44, -73991.61, 12710.342, 0.030927245, 0.048748054, 219447.0, 219447.0, 0.0000014046396, 10.002274, 9.998397 
9.252911e+2, 1.2466595e+2, -1811819.5, -1678193.8, 60510.715, 0.05395925, 0.026233016, -1654865.0, 63413.38, 0.000005355975, 9.9989805, 10.000741 
9.25263e+2, 1.3466714e+2, -1700376.3, -1548605.8, -41987.555, 0.04323145, 0.04941441, -1537764.3, 82501.195, 0.00000033393198, 9.998957, 10.000974 
9.252353e+2, 1.4466791e+2, -1629332.5, -1507227.4, 20651.32, 0.0154447835, 0.052921943, -1503829.3, 18428.652, 0.0, 9.998962, 10.00058 
9.252087e+2, 1.5466827e+2, -1526130.6, -1407972.3, 34823.92, -0.018579125, 0.034358583, -1398472.6, 25783.143, 0.0, 9.999003, 10.000567 
9.251822e+2, 1.6466893e+2, -1386778.8, -1263139.3, 25632.26, -0.028607298, 0.034799214, -1258036.0, 68213.734, 0.0, 9.99917, 10.000809 
9.2515606e+2, 1.7466994e+2, -1244254.3, -1142181.8, 15437.019, -0.008450994, 0.055498112, -1139898.1, 88340.68, 0.0, 9.99947, 10.000822 
9.251298e+2, 1.846704e+2, -1152803.0, -1113519.9, 20490.084, -0.014893578, 0.053139947, -1104777.8, 25455.285, 0.0, 9.999709, 10.000231 
9.2510325e+2, 1.9467027e+2, -1030983.2, -1005878.7, 20401.24, -0.05296998, 0.020707533, -994477.44, 37755.49, 0.0, 9.999881, 10.000215 
9.2507726e+2, 2.0467001e+2, -963233.8, -1003385.8, 36125.688, -0.07012888, 0.011812216, -941980.56, -7745.1157, 0.0, 10.000022, 9.999492 
9.2505175e+2, 2.1466962e+2, -851527.9, -900881.56, 34835.92, -0.06302898, 0.026554404, -833514.06, 2726.774, 0.0, 10.000125, 9.999473 
9.2502624e+2, 2.2466901e+2, -742153.9, -822004.6, 46963.28, -0.06692221, 0.033578444, -720438.5, 17808.72, 0.0, 10.000309, 9.999252 
9.250009e+2, 2.3466818e+2, -604228.4, -704956.8, 43752.906, -0.08313043, 0.028225305, -587877.75, 52376.844, 0.0, 10.000584, 9.999251 
9.249757e+2, 2.4466713e+2, -524921.56, -701820.25, 42973.26, -0.082031704, 0.038249593, -515034.78, 27230.498, 0.0, 10.000826, 9.998483 
9.249508e+2, 2.546658e+2, -398495.97, -592669.56, 41484.863, -0.061477836, 0.06197875, -390004.16, 54275.68, 0.0, 10.001032, 9.99846 
9.249256e+2, 2.6466414e+2, -292654.06, -525470.9, 31043.258, -0.05202879, 0.0679082, -288585.94, 57711.332, 0.0, 10.001235, 9.99815 
9.249002e+2, 2.746621e+2, -166264.86, -414736.47, 27770.338, -0.055017952, 0.051865265, -163198.95, 85118.945, 0.0, 10.001434, 9.998141 
9.248749e+2, 2.8466025e+2, -58888.176, -334860.84, 36938.99, -0.05667087, 0.0660944, -54029.43, 96306.3, 0.0, 10.001596, 9.997939 
9.248497e+2, 2.9465857e+2, 55706.082, -229705.44, 35409.77, -0.05783657, 0.10505143, 60033.6, 112384.69, 0.0, 10.001714, 9.9979315 
9.248245e+2, 3.0465546e+2, 136899.47, -155727.56, 17343.31, -0.044543944, -0.00023332523, 137923.78, 137923.78, 0.00000004550982, 10.001895, 9.998016 
9.247993e+2, 3.1465393e+2, 203028.11, -79258.6, 12084.615, 0.013457002, 0.048045333, 203544.5, 203544.5, 0.0000009683944, 10.002156, 9.998416 
9.3529004e+2, 1.246932e+2, -1831609.6, -1716882.9, 55062.137, 0.048798233, 0.015937928, -1694732.8, 23276.963, 0.000009813605, 9.998969, 10.000483 
9.352617e+2, 1.3469395e+2, -1719095.8, -1588496.5, -43477.754, 0.022762317, 0.02274753, -1575346.4, 44656.43, 0.0000009955157, 9.99896, 10.000699 
9.3523407e+2, 1.4469469e+2, -1619416.0, -1489367.1, 21714.61, 0.003111166, 0.031815745, -1485837.3, 36158.676, 0.00000000002439963, 9.998972, 10.000699 
9.3520784e+2, 1.5469542e+2, -1515353.6, -1387652.9, 35788.313, -0.0015322074, 0.03684551, -1378307.1, 45681.844, 0.0, 9.999011, 10.000705 
9.3518156e+2, 1.6469608e+2, -1404740.5, -1301852.5, 36110.94, -0.008925113, 0.042949073, -1290443.6, 35539.273, 0.0, 9.999175, 10.000542 
9.3515545e+2, 1.7469665e+2, -1263642.0, -1183387.5, 26313.951, -0.015584667, 0.049438987, -1175529.1, 52448.324, 0.0, 9.999473, 10.000539 
9.3512934e+2, 1.8469697e+2, -1154583.8, -1118052.1, 26620.393, -0.023811597, 0.04754739, -1104033.5, 25940.176, 0.0, 9.999711, 10.0002 
9.3510336e+2, 1.94697e+2, -1031735.44, -1008561.56, 26247.758, -0.035462, 0.03176294, -991457.0, 40514.914, 0.0, 9.999885, 10.0001955 
9.3507737e+2, 2.046967e+2, -965997.1, -1010216.4, 39511.51, -0.05437479, 0.023569748, -942829.9, -8855.519, 0.0, 10.000025, 9.999444 
9.350516e+2, 2.1469608e+2, -854134.56, -907484.9, 38248.74, -0.0804708, 0.020997383, -834177.9, 1803.5662, 0.0, 10.000129, 9.999426 
9.3502635e+2, 2.2469537e+2, -747779.3, -834839.1, 56924.145, -0.08690584, 0.023710648, -719648.9, 18339.854, 0.0, 10.000313, 9.999164 
9.350016e+2, 2.3469457e+2, -610003.1, -717971.06, 54022.77, -0.07139331, 0.029175062, -587614.8, 52381.42, 0.0, 10.0005865, 9.999161 
9.3497676e+2, 2.4469347e+2, -526765.06, -706621.9, 50782.477, -0.058417078, 0.041226987, -513417.25, 28590.225, 0.0, 10.000829, 9.998449 
9.349519e+2, 2.5469202e+2, -400077.38, -596928.5, 49451.516, -0.04819158, 0.056494024, -388352.84, 55670.246, 0.0, 10.001035, 9.99843 
9.3492687e+2, 2.6469028e+2, -296525.5, -534377.44, 38681.043, -0.04629444, 0.060091827, -290393.06, 55647.906, 0.0, 10.001237, 9.998089 
9.3490154e+2, 2.7468824e+2, -169863.19, -423408.16, 35537.766, -0.054304924, 0.04865519, -164976.28, 83084.984, 0.0, 10.001437, 9.998081 
9.3487644e+2, 2.8468624e+2, -60335.03, -338665.2, 41506.02, -0.056720898, 0.053658374, -54277.29, 95802.91, 0.0, 10.001598, 9.997912 
9.3485147e+2, 2.946843e+2, 53365.668, -233615.48, 39860.566, -0.051797185, 0.06895359, 58799.27, 110897.33, 0.0, 10.001708, 9.997909 
9.348264e+2, 3.0468142e+2, 144771.2, -137403.39, 27074.816, -0.045098793, -0.017893981, 147345.56, 147345.56, 0.000000010385675, 10.001885, 9.998148 
9.3480116e+2, 3.146804e+2, 206544.14, -70631.95, 22920.45, -0.014001752, 0.0676147, 208426.7, 208426.7, 0.00000050425, 10.00215, 9.99848 
9.452887e+2, 1.2472023e+2, -1913168.3, -1766908.3, 35455.625, 0.048655894, 0.02463294, -1758766.5, -41021.965, 0.000016619406, 9.998458, 10.000384 
9.452605e+2, 1.3472083e+2, -1743114.3, -1611561.8, -49325.91, 0.012970643, 0.025616333, -1595121.4, 24618.725, 0.0000023427797, 9.998847, 10.000594 
9.4523305e+2, 1.4472152e+2, -1597568.6, -1475043.9, 14669.58, -0.0024973862, 0.034633238, -1473312.0, 48421.79, 0.0000000053592455, 9.999108, 10.00073 
9.45207e+2, 1.5472232e+2, -1482966.6, -1367657.1, 20814.188, 0.0035742025, 0.04189326, -1364015.0, 59710.41, 0.0, 9.999217, 10.000742 
9.451809e+2, 1.6472292e+2, -1393705.0, -1312622.8, 26111.91, -0.0010830044, 0.04775556, -1304941.4, 20778.195, 0.0, 9.999323, 10.000396 
9.4515485e+2, 1.7472331e+2, -1281139.9, -1208340.5, 25372.002, -0.015141168, 0.050821625, -1200370.5, 27345.887, 0.0, 9.999426, 10.000388 
9.45129e+2, 1.8472348e+2, -1178610.0, -1143192.3, 27968.217, -0.025114749, 0.04742266, -1127797.9, 1916.4614, 0.0, 9.999607, 10.000076 
9.451032e+2, 1.9472338e+2, -1042424.25, -1027130.9, 19943.807, -0.031501304, 0.032869104, -1013418.06, 18295.766, 0.0, 9.99987, 10.000073 
9.4507754e+2, 2.0472303e+2, -954967.94, -1008642.56, 27650.363, -0.049349815, 0.026574869, -943272.4, -9555.57, 0.0, 10.000118, 9.999409 
9.450519e+2, 2.147224e+2, -824726.25, -896607.94, 27043.44, -0.07946144, 0.02603636, -815688.25, 20035.309, 0.0, 10.000346, 9.999395 
9.4502676e+2, 2.2472163e+2, -732851.1, -843522.56, 43566.336, -0.08472192, 0.029334245, -717759.06, 19972.594, 0.0, 10.000484, 9.999021 
9.450022e+2, 2.3472066e+2, -629294.9, -743530.44, 36086.082, -0.062263276, 0.03425018, -618850.5, 20890.646, 0.0, 10.000525, 9.999014 
9.449776e+2, 2.4471948e+2, -547840.0, -715343.9, 35004.65, -0.04691284, 0.04515884, -540819.06, 934.18475, 0.0, 10.000679, 9.998461 
9.4495296e+2, 2.5471804e+2, -410894.88, -600048.2, 37049.613, -0.03962173, 0.05819362, -403896.84, 39871.684, 0.0, 10.000953, 9.998447 
9.449281e+2, 2.6471627e+2, -302500.2, -539476.06, 28641.857, -0.04269104, 0.059184805, -299087.56, 46698.766, 0.0, 10.001206, 9.998068 
9.4490296e+2, 2.7471417e+2, -171013.92, -426156.22, 28261.207, -0.05782837, 0.045121305, -167921.02, 79885.89, 0.0, 10.00144, 9.99806 
9.44878e+2, 2.8471217e+2, -59097.29, -337240.38, 32593.553, -0.05843134, 0.046523955, -55328.94, 94497.26, 0.0, 10.001604, 9.997919 
9.448532e+2, 2.9471013e+2, 51023.37, -233558.48, 32656.846, -0.04166768, 0.057791706, 54722.777, 106567.29, 0.0, 10.001688, 9.997917 
9.448282e+2, 3.0470747e+2, 138942.61, -131825.83, 23444.727, -0.040797036, -0.014955161, 140957.6, 140957.6, 0.00000000032400083, 10.001811, 9.998222 
9.4480294e+2, 3.147066e+2, 182624.22, -80534.586, 15102.212, -0.038403757, 0.07826899, 183488.08, 183488.08, 0.00000016973306, 10.00198, 9.998493 
9.552871e+2, 1.2474717e+2, -1910019.9, -1761496.6, 46490.72, 0.04711005, 0.051040806, -1748144.5, -30662.943, 0.000026449812, 9.998461, 10.000422 
9.5525926e+2, 1.3474783e+2, -1740803.4, -1606353.3, -35780.023, 0.012364743, 0.055089105, -1597424.4, 22052.316, 0.0000047469885, 9.998843, 10.000633 
9.5523214e+2, 1.4474848e+2, -1602460.5, -1484392.8, 18607.99, -0.0023233013, 0.059100267, -1481529.5, 39941.3, 0.000000046136613, 9.999104, 10.000669 
9.552061e+2, 1.5474902e+2, -1487524.0, -1377338.0, 24282.996, -0.002777701, 0.04917046, -1372223.8, 51240.4, 0.0, 9.999216, 10.000676 
9.5518017e+2, 1.6474952e+2, -1395849.6, -1318182.9, 29280.967, -0.004635311, 0.04952408, -1308380.9, 17078.135, 0.0, 9.999326, 10.000357 
9.5515436e+2, 1.7474994e+2, -1282648.3, -1213215.3, 28578.313, -0.007715357, 0.059282232, -1202965.5, 24489.55, 0.0, 9.999432, 10.000353 
9.551286e+2, 1.8474996e+2, -1192949.8, -1174781.1, 37072.574, -0.019637473, 0.052510947, -1145696.1, -16241.348, 0.0, 9.999614, 9.999857 
9.55103e+2, 1.9474949e+2, -1057315.6, -1059534.3, 29325.94, -0.04099373, 0.024177337, -1029078.0, 2380.2917, 0.0, 9.999875, 9.999849 
9.550775e+2, 2.0474905e+2, -956423.2, -1012831.9, 35766.906, -0.05493075, 0.020956734, -939078.06, -5615.6733, 0.0, 10.000121, 9.999379 
9.550524e+2, 2.147486e+2, -825747.25, -899708.8, 35166.473, -0.060498916, 0.04174795, -811696.1, 23771.021, 0.0, 10.000349, 9.999373 
9.550274e+2, 2.2474776e+2, -746638.75, -873058.75, 44923.027, -0.061096042, 0.050472043, -732301.44, 5174.5425, 0.0, 10.000487, 9.998817 
9.550027e+2, 2.3474647e+2, -643175.1, -773477.94, 37541.38, -0.056092657, 0.043103747, -633133.06, 6356.3145, 0.0, 10.000529, 9.998808 
9.549783e+2, 2.4474517e+2, -543650.94, -707715.94, 45134.13, -0.047858458, 0.049623758, -532054.25, 9448.482, 0.0, 10.000682, 9.998512 
9.549539e+2, 2.5474384e+2, -406135.72, -590983.3, 47544.29, -0.03626712, 0.06721245, -394623.88, 48892.3, 0.0, 10.000955, 9.998509 
9.5492923e+2, 2.647421e+2, -301171.53, -537422.9, 37587.453, -0.04185292, 0.065482534, -295335.53, 50197.97, 0.0, 10.001208, 9.998082 
9.5490426e+2, 2.747399e+2, -169816.77, -424159.0, 37326.523, -0.066158876, 0.040815752, -164451.98, 83103.07, 0.0, 10.001441, 9.998075 
9.548795e+2, 2.847379e+2, -56826.523, -332483.7, 36085.05, -0.06240049, 0.0444563, -52181.074, 97393.01, 0.0, 10.001603, 9.997953 
9.5485497e+2, 2.9473612e+2, 53309.684, -228775.38, 36135.19, -0.028272681, 0.07281702, 57865.047, 109455.734, 0.0, 10.001687, 9.9979515 
9.5483e+2, 3.0473354e+2, 139080.95, -130621.805, 29720.898, -0.03258078, 0.009496341, 142317.33, 142317.33, 0.0, 10.001805, 9.998234 
9.548046e+2, 3.1473243e+2, 177847.98, -87741.8, 22394.482, -0.06159387, 0.074121356, 179723.05, 179723.05, 0.000000027453995, 10.001966, 9.998451 
9.6528536e+2, 1.2477344e+2, -1945014.5, -1768936.3, 20688.768, 0.039233193, 0.06961836, -1766538.0, -49313.36, 0.00003990401, 9.998181, 10.0005045 
9.6525794e+2, 1.3477409e+2, -1778162.0, -1614726.4, -56442.008, 0.010719792, 0.06360525, -1597129.0, 22090.805, 0.000008636752, 9.9985485, 10.000716 
9.6523106e+2, 1.4477473e+2, -1641865.8, -1503045.4, -6401.846, 0.004440609, 0.063412555, -1502750.8, 18462.928, 0.00000019058375, 9.998835, 10.0006695 
9.6520525e+2, 1.5477529e+2, -1515971.9, -1390722.8, 2773.4558, 0.0029516974, 0.05451793, -1390661.4, 32545.469, 0.0, 9.9990225, 10.000676 
9.6517944e+2, 1.6477574e+2, -1407098.0, -1328036.0, 12066.24, -0.0018831592, 0.052466612, -1326235.5, -1033.6113, 0.0, 9.99927, 10.000315 
9.6515375e+2, 1.7477608e+2, -1263890.3, -1208558.6, 10621.284, -0.0108042825, 0.056306623, -1206589.8, 20608.787, 0.0, 9.999581, 10.000312 
9.6512824e+2, 1.8477601e+2, -1167208.1, -1171780.8, 24008.932, -0.024095686, 0.04695496, -1145376.9, -16177.872, 0.0, 9.999832, 9.999771 
9.6510285e+2, 1.9477546e+2, -1043270.0, -1062106.8, 25850.182, -0.041821796, 0.019654408, -1025175.9, 6027.655, 0.0, 10.000014, 9.9997635 
9.650777e+2, 2.0477496e+2, -954340.2, -1022732.8, 33735.746, -0.050539855, 0.019740965, -940500.2, -7291.781, 0.0, 10.000184, 9.99928 
9.650528e+2, 2.1477447e+2, -833867.6, -914381.2, 27178.62, -0.049150344, 0.046360478, -825551.94, 9661.768, 0.0, 10.00034, 9.999276 
9.65028e+2, 2.2477356e+2, -747152.75, -887472.2, 34999.188, -0.049773503, 0.05837895, -738907.56, -1683.9268, 0.0, 10.0005455, 9.99869 
9.6500343e+2, 2.3477215e+2, -612523.4, -772886.0, 33005.758, -0.05275784, 0.051237598, -605995.9, 33242.844, 0.0, 10.000802, 9.99868 
9.64979e+2, 2.4477077e+2, -502886.28, -684299.44, 42536.426, -0.048995346, 0.054985262, -493407.88, 47844.875, 0.0, 10.000947, 9.998546 
9.6495485e+2, 2.547694e+2, -401173.44, -584144.94, 42744.16, -0.037847236, 0.06686788, -391680.44, 51585.363, 0.0, 10.000971, 9.9985485 
9.649304e+2, 2.647677e+2, -314376.72, -542203.06, 35297.438, -0.0422122, 0.06772162, -309033.38, 36249.094, 0.0, 10.001113, 9.998095 
9.649056e+2, 2.7476567e+2, -178058.45, -426427.0, 34626.13, -0.06342543, 0.054295104, -173321.42, 73981.59, 0.0, 10.001379, 9.998089 
9.648811e+2, 2.8476366e+2, -76227.16, -348895.6, 21394.62, -0.056755375, 0.06159745, -74558.66, 74763.7, 0.0, 10.001501, 9.997889 
9.648566e+2, 2.9476178e+2, 17290.988, -253106.03, 13357.254, -0.019906873, 0.08614997, 17949.217, 69289.805, 0.0, 10.001471, 9.997889 
9.648317e+2, 3.047593e+2, 116453.05, -126418.414, 14427.421, -0.029265074, 0.028451046, 117307.086, 117307.086, 0.0, 10.001586, 9.998367 
9.648064e+2, 3.1475818e+2, 169514.47, -81208.04, 17056.775, -0.07459113, 0.081955016, 170669.52, 170669.52, 0.00000000015790982, 10.001865, 9.998544 
9.752833e+2, 1.247992e+2, -1936282.1, -1751645.1, 31932.648, 0.021009114, 0.08046662, -1746278.4, -29305.705, 0.000057479218, 9.998183, 10.000623 
9.752564e+2, 1.3479975e+2, -1769808.5, -1597969.9, -42831.7, 0.0072488836, 0.053140808, -1587885.6, 31082.451, 0.000014404859, 9.998549, 10.000832 
9.7523004e+2, 1.4480044e+2, -1637893.0, -1495756.4, 588.0828, 0.016321186, 0.04957438, -1495753.9, 25207.246, 0.0000005546723, 9.9988365, 10.000719 
9.752044e+2, 1.5480123e+2, -1511557.9, -1383082.8, 9238.334, 0.019614888, 0.058001883, -1382421.9, 40530.664, 0.0, 9.999026, 10.000728 
9.751788e+2, 1.6480169e+2, -1410041.0, -1335529.6, 23067.143, 0.006369257, 0.056294776, -1328966.6, -4019.1602, 0.0, 9.999274, 10.000262 
9.751532e+2, 1.7480177e+2, -1267314.3, -1216456.5, 21735.023, -0.024233436, 0.04244111, -1208433.4, 18512.814, 0.0, 9.999583, 10.0002575 
9.751279e+2, 1.8480167e+2, -1164320.0, -1166559.0, 30161.281, -0.038238432, 0.03126807, -1135257.4, -6310.7764, 0.0, 9.999834, 9.999807 
9.751029e+2, 1.9480133e+2, -1039842.1, -1056275.5, 31868.021, -0.034438435, 0.019181203, -1015148.56, 15800.65, 0.0, 10.000018, 9.999803 
9.75078e+2, 2.048008e+2, -965678.5, -1047594.5, 38797.53, -0.036908012, 0.02279665, -950220.1, -17265.502, 0.0, 10.000189, 9.999108 
9.750532e+2, 2.1480004e+2, -845383.1, -939567.94, 32542.793, -0.04569965, 0.039851733, -835232.8, -269.72757, 0.0, 10.000344, 9.999102 
9.750285e+2, 2.24799e+2, -750827.5, -896163.8, 44221.305, -0.050922163, 0.053004596, -738429.94, -1455.4757, 0.0, 10.000549, 9.998629 
9.750042e+2, 2.3479769e+2, -615996.75, -780943.4, 42563.063, -0.052417196, 0.058828164, -605661.4, 33327.625, 0.0, 10.000804, 9.998624 
9.7497994e+2, 2.4479626e+2, -502015.3, -683366.4, 43651.13, -0.050515346, 0.061401945, -492055.5, 48947.832, 0.0, 10.000949, 9.998551 
9.749557e+2, 2.5479475e+2, -400165.1, -582946.3, 43884.62, -0.04472909, 0.05669055, -390174.72, 52842.797, 0.0, 10.000973, 9.998556 
9.749315e+2, 2.6479313e+2, -313812.75, -541640.94, 45399.082, -0.044258192, 0.06534136, -305099.38, 39933.996, 0.0, 10.001114, 9.998099 
9.7490716e+2, 2.7479142e+2, -177377.58, -425592.38, 45055.066, -0.050149042, 0.08595462, -169452.39, 77598.58, 0.0, 10.00138, 9.998095 
9.7488266e+2, 2.8478938e+2, -88574.195, -374508.06, 20507.766, -0.042109102, 0.09866833, -87110.82, 61960.473, 0.0, 10.0015, 9.997715 
9.748581e+2, 2.947871e+2, 4161.733, -279014.28, 12342.66, -0.01750294, 0.097587354, 4698.6885, 55793.434, 0.0, 10.001463, 9.997715 
9.7483325e+2, 3.0478466e+2, 133003.98, -89904.9, 25019.799, -0.03189811, 0.04137817, 135777.75, 135777.75, 0.0, 10.001575, 9.998624 
9.7480816e+2, 3.1478384e+2, 184104.3, -48948.844, 28804.965, -0.0794622, 0.09731139, 187611.75, 187611.75, 0.0, 10.001856, 9.998771 
9.8528117e+2, 1.24824315e+2, -1930330.5, -1735066.3, 29402.102, -0.004754371, 0.048534777, -1730735.1, -14009.411, 0.00007951568, 9.998166, 10.000744 
9.852549e+2, 1.3482514e+2, -1783479.8, -1590880.9, -43561.227, 0.012662707, 0.03558317, -1581486.6, 37231.465, 0.000022398126, 9.998399, 10.000952 
9.8522896e+2, 1.448259e+2, -1662166.8, -1513429.0, -4074.4717, 0.033483937, 0.037757505, -1513317.5, 7392.826, 0.0000013019285, 9.998697, 10.000664 
9.852033e+2, 1.5482664e+2, -1510084.8, -1388261.4, -3519.4436, 0.012977049, 0.045238357, -1388159.9, 34542.883, 0.0, 9.9990635, 10.000673 
9.8517793e+2, 1.6482705e+2, -1403919.0, -1334849.5, 5481.933, -0.005997466, 0.04218617, -1334417.1, -9718.912, 0.0, 9.999328, 10.00024 
9.851527e+2, 1.748271e+2, -1284476.6, -1226594.9, 6156.313, -0.022969948, 0.02615187, -1225947.3, 749.6838, 0.0, 9.9994755, 10.000239 
9.851277e+2, 1.84827e+2, -1191018.6, -1188685.8, 12059.412, -0.033445064, 0.020334981, -1177736.5, -49038.76, 0.0, 9.999692, 9.999723 
9.8510283e+2, 1.948267e+2, -1050661.4, -1070599.9, 4410.1094, -0.03695629, 0.021879397, -1049729.5, -19028.959, 0.0, 9.999984, 9.999721 
9.850781e+2, 2.0482615e+2, -959602.56, -1050284.5, 9729.511, -0.04050212, 0.029051876, -958570.4, -25863.824, 0.0, 10.000256, 9.999057 
9.8505354e+2, 2.1482527e+2, -825666.7, -935482.25, 12112.082, -0.043939106, 0.038528312, -824346.7, 10369.324, 0.0, 10.0005045, 9.999052 
9.850291e+2, 2.2482422e+2, -735152.7, -888433.5, 28562.504, -0.047779124, 0.052070606, -730003.3, 6724.2793, 0.0, 10.000657, 9.998629 
9.8500496e+2, 2.3482299e+2, -630596.25, -787480.44, 30645.154, -0.051940076, 0.066829175, -624822.6, 13918.865, 0.0, 10.000703, 9.998627 
9.8498076e+2, 2.4482155e+2, -519944.1, -696570.4, 31344.61, -0.05194279, 0.07082045, -514546.53, 26209.41, 0.0, 10.000848, 9.998508 
9.849567e+2, 2.5481993e+2, -385680.94, -580606.25, 27107.54, -0.04764572, 0.05934618, -381981.4, 60789.746, 0.0, 10.001094, 9.998513 
9.849326e+2, 2.648183e+2, -300555.1, -533248.5, 25990.244, -0.041106053, 0.06738309, -297687.5, 47099.668, 0.0, 10.001198, 9.998115 
9.849086e+2, 2.7481666e+2, -209531.83, -438720.53, 26226.648, -0.03254527, 0.09392236, -206568.95, 40235.03, 0.0, 10.001151, 9.998114 
9.848842e+2, 2.8481466e+2, -120991.23, -394472.3, 8512.218, -0.027612897, 0.108018145, -120726.54, 28098.016, 0.0, 10.001298, 9.997674 
9.848596e+2, 2.948123e+2, 28001.994, -271876.78, 10040.032, -0.02482457, 0.10371315, 28337.762, 79187.04, 0.0, 10.001648, 9.997674 
9.848348e+2, 3.0480993e+2, 160698.53, -62155.695, 17831.094, -0.041392863, 0.052750804, 162116.22, 162116.22, 0.0, 10.001706, 9.998752 
9.848099e+2, 3.1480914e+2, 133003.8, -61897.336, 11331.593, -0.07188589, 0.09753914, 133660.4, 133660.4, 0.0, 10.001456, 9.998873 
9.9527895e+2, 1.2484894e+2, -1921967.3, -1717721.1, 36051.047, -0.043150023, -0.021244278, -1711544.6, 4937.6113, 0.00010622788, 9.998164, 10.000865 
9.9525344e+2, 1.3485032e+2, -1774318.9, -1573334.5, -35502.19, 0.026279554, 0.011502345, -1567247.6, 51221.406, 0.00003292342, 9.998403, 10.001071 
9.9522775e+2, 1.4485122e+2, -1671955.8, -1535954.6, 9026.114, 0.055425666, 0.027364181, -1535358.1, -14897.722, 0.0000026281716, 9.998705, 10.000506 
9.9520206e+2, 1.5485163e+2, -1520151.1, -1411036.5, 9767.645, -0.01593269, 0.0175229, -1410169.0, 12287.482, 0.00000000019976186, 9.99907, 10.000515 
9.9517685e+2, 1.6485192e+2, -1402741.4, -1334298.1, 10574.232, -0.037898757, 0.011471022, -1332701.8, -8248.404, 0.0, 9.999333, 10.000242 
9.951523e+2, 1.748521e+2, -1282838.0, -1225144.9, 10904.4, -0.007958619, 0.007474791, -1223152.8, 3297.8535, 0.0, 9.999481, 10.000247 
9.9512756e+2, 1.8485202e+2, -1204415.9, -1218196.1, 22029.352, -0.01132281, 0.013946261, -1188224.3, -59772.58, 0.0, 9.999698, 9.999518 
9.9510264e+2, 1.9485165e+2, -1064300.1, -1100243.1, 14643.149, -0.04940768, 0.027633708, -1059089.9, -28632.922, 0.0, 9.999988, 9.999516 
9.950782e+2, 2.0485105e+2, -954740.6, -1041325.8, 18510.34, -0.060880944, 0.03823931, -950949.5, -18485.787, 0.0, 10.000258, 9.999118 
9.95054e+2, 2.1485019e+2, -820447.0, -925746.8, 21003.139, -0.04396277, 0.04226918, -816412.25, 18059.893, 0.0, 10.000507, 9.999118 
9.9502987e+2, 2.248492e+2, -730983.1, -880721.44, 30066.584, -0.040666908, 0.05561693, -725171.5, 11311.44, 0.0, 10.00066, 9.998682 
9.950056e+2, 2.3484805e+2, -626220.75, -779378.2, 32247.36, -0.05170728, 0.075151615, -619708.0, 18788.053, 0.0, 10.000706, 9.998682 
9.949816e+2, 2.4484664e+2, -526473.6, -711012.9, 40583.313, -0.05380616, 0.08313012, -517943.0, 22567.64, 0.0, 10.00085, 9.998409 
9.9495775e+2, 2.5484496e+2, -392171.53, -595184.7, 36719.95, -0.04691006, 0.07504884, -385733.94, 56792.81, 0.0, 10.001098, 9.998412 
9.949339e+2, 2.648432e+2, -298631.13, -530273.2, 24474.063, -0.03290576, 0.07400463, -296073.56, 48470.438, 0.0, 10.001201, 9.998135 
9.949099e+2, 2.7484134e+2, -208020.36, -435285.4, 24654.656, -0.0110005755, 0.07754402, -205376.47, 41185.938, 0.0, 10.001147, 9.998139 
9.948856e+2, 2.848394e+2, -115301.586, -381951.75, 22128.607, -0.014336865, 0.08846804, -113477.664, 35104.906, 0.0, 10.001293, 9.997763 
9.9486095e+2, 2.9483727e+2, 34886.99, -258591.86, 24215.873, -0.043997843, 0.10359085, 36871.695, 87476.305, 0.0, 10.001651, 9.997765 
9.948363e+2, 3.0483505e+2, 159510.64, -64980.156, 8894.627, -0.059569962, 0.061952967, 159862.5, 159862.5, 0.0, 10.001705, 9.998733 
9.948115e+2, 3.1483394e+2, 127727.57, -69037.29, 2554.881, -0.053152453, 0.07722518, 127760.734, 127760.734, 0.0, 10.001438, 9.998834 
1.00527704e+3, 1.2487394e+2, -1954960.9, -1738717.6, 36869.547, -0.035152577, -0.031589106, -1732604.1, -16367.92, 0.00013782152, 9.997961, 10.000819 
1.00525156e+3, 1.3487536e+2, -1769058.4, -1576458.8, -45370.355, 0.00578124, 0.008653087, -1566306.1, 51916.973, 0.000046236724, 9.998465, 10.0010195 
1.0052264e+3, 1.4487618e+2, -1648746.0, -1531237.3, -4350.2773, 0.037930973, 0.022311911, -1531076.4, -10861.231, 0.00000474816, 9.998893, 10.000447 
1.0052013e+3, 1.5487644e+2, -1502071.9, -1408550.5, 3003.3943, -0.015078496, 0.003641195, -1408454.1, 13758.185, 0.000000004412824, 9.999222, 10.000458 
1.0051763e+3, 1.6487665e+2, -1393179.9, -1340438.8, -3987.448, -0.034557037, -0.0018798889, -1340139.0, -15929.114, 0.0, 9.999447, 10.000145 
1.00515164e+3, 1.7487684e+2, -1276995.5, -1232857.5, -11490.515, -0.01928072, 0.0046555493, -1230045.4, -3837.9663, 0.0, 9.999568, 10.000152 
1.0051271e+3, 1.8487673e+2, -1203076.0, -1231016.9, 4342.7373, -0.024653943, 0.017796315, -1202416.5, -74207.04, 0.0, 9.999766, 9.999397 
1.0051027e+3, 1.9487627e+2, -1064966.4, -1113705.6, 2853.6829, -0.05150937, 0.033898685, -1064799.8, -34583.41, 0.0, 10.000041, 9.999396 
1.0050784e+3, 2.0487565e+2, -944914.4, -1022608.9, 9361.186, -0.057253953, 0.041758902, -943802.4, -11579.015, 0.0, 10.000268, 9.999241 
1.0050545e+3, 2.1487483e+2, -820682.5, -911407.5, 16011.907, -0.04031188, 0.0378801, -817939.56, 16290.903, 0.0, 10.000445, 9.999246 
1.0050304e+3, 2.2487389e+2, -741989.7, -889474.94, 19378.848, -0.03882263, 0.052332476, -739485.94, -3245.435, 0.0, 10.000601, 9.998649 
1.0050063e+3, 2.3487282e+2, -624879.75, -782153.2, 14266.627, -0.053839333, 0.081931114, -623596.06, 14657.612, 0.0, 10.000731, 9.99865 
1.0049824e+3, 2.4487147e+2, -526686.94, -705375.06, 26771.021, -0.055702105, 0.09363128, -522762.28, 17505.742, 0.0, 10.000825, 9.998458 
1.00495875e+3, 2.548698e+2, -420470.44, -602760.75, 33968.207, -0.04398903, 0.08290347, -414346.47, 27937.201, 0.0, 10.000879, 9.998464 
1.004935e+3, 2.64868e+2, -324558.13, -543359.4, 23974.287, -0.030370472, 0.07600021, -321962.03, 22339.207, 0.0, 10.001027, 9.998127 
1.004911e+3, 2.7486604e+2, -190768.55, -427484.44, 21133.596, -0.014356692, 0.06982127, -188896.58, 57424.19, 0.0, 10.00127, 9.998133 
1.0048869e+3, 2.8486413e+2, -99682.625, -360977.72, 19612.525, -0.0131712165, 0.08210932, -98218.734, 50121.582, 0.0, 10.001345, 9.997881 
1.00486256e+3, 2.948623e+2, -15313.823, -268833.6, 23639.146, -0.027595393, 0.110806346, -13128.457, 37231.336, 0.0, 10.001248, 9.997887 
1.0048379e+3, 3.0486026e+2, 102179.06, -89590.88, 4511.242, -0.044666752, 0.07796858, 102285.125, 102285.125, 0.0, 10.001301, 9.998757 
1.0048129e+3, 3.1485897e+2, 137435.56, -63572.55, 978.2224, -0.058483418, 0.07531239, 137440.33, 137440.33, 0.0, 10.001503, 9.998838 
1.0152754e+3, 1.2489935e+2, -1968172.6, -1767808.0, 52816.504, 0.008597387, 0.009709279, -1754738.1, -38750.73, 0.00017450533, 9.997967, 10.000617 
1.0152495e+3, 1.349003e+2, -1782794.6, -1606801.9, -27586.842, -0.0469855, 0.025154106, -1602578.9, 15400.132, 0.000062540406, 9.998471, 10.000809 
1.01522475e+3, 1.4490086e+2, -1646079.6, -1527176.4, 7336.441, -0.016029181, 0.022447584, -1526725.4, -6752.024, 0.000007860604, 9.998898, 10.000475 
1.0152007e+3, 1.5490113e+2, -1499610.0, -1403865.9, 14264.56, 0.013473679, 0.0023476, -1401785.9, 20183.666, 0.000000028517778, 9.999222, 10.000491 
1.0151761e+3, 1.6490132e+2, -1406857.3, -1369251.6, -565.8639, 0.0008661153, 0.0009435592, -1369243.1, -45275.69, 0.0, 9.999447, 9.999948 
1.01515085e+3, 1.7490141e+2, -1290162.5, -1261404.9, -7697.65, -0.055939317, 0.016868057, -1259474.0, -33507.145, 0.0, 9.999572, 9.999955 
1.0151264e+3, 1.8490118e+2, -1205568.5, -1237796.1, 13983.127, -0.071604386, 0.031170167, -1200347.3, -72376.67, 0.0, 9.999771, 9.999349 
1.0151027e+3, 1.949006e+2, -1067247.8, -1119876.1, 12622.663, -0.04393634, 0.040459704, -1064376.9, -34398.332, 0.0, 10.000046, 9.999353 
1.01507895e+3, 2.0489997e+2, -931757.2, -996499.2, 15417.597, -0.031095816, 0.039903726, -928273.1, 3712.0981, 0.0, 10.000271, 9.999419 
1.01505496e+3, 2.1489923e+2, -807342.25, -884779.6, 22205.215, -0.033493735, 0.025462976, -801426.8, 32563.748, 0.0, 10.000448, 9.999428 
1.01503104e+3, 2.2489835e+2, -750323.1, -907723.56, 23879.371, -0.042546075, 0.042144097, -746780.06, -10779.968, 0.0, 10.000604, 9.998523 
1.0150069e+3, 2.3489729e+2, -633205.06, -800567.3, 19074.938, -0.0584853, 0.087261155, -631058.56, 6955.5674, 0.0, 10.000734, 9.998523 
1.0149831e+3, 2.44896e+2, -512555.72, -677084.1, 28849.984, -0.057750333, 0.102525115, -507643.56, 32384.518, 0.0, 10.000828, 9.998652 
1.0149597e+3, 2.5489447e+2, -406293.22, -573811.56, 36273.188, -0.039371323, 0.083102785, -398776.2, 43265.734, 0.0, 10.000879, 9.998663 
1.0149359e+3, 2.648927e+2, -327792.66, -550385.6, 33603.883, -0.034592107, 0.0735021, -322830.25, 21228.725, 0.0, 10.001027, 9.99808 
1.014912e+3, 2.7489075e+2, -193461.6, -434291.38, 31029.695, -0.04451479, 0.070817836, -189527.83, 56551.465, 0.0, 10.001274, 9.998085 
1.01488814e+3, 2.8488895e+2, -89415.71, -340430.34, 16296.361, -0.025173418, 0.08954965, -88362.14, 59735.895, 0.0, 10.001346, 9.998022 
1.0148643e+3, 2.9488733e+2, -6267.9263, -248102.7, 20421.512, 0.026078748, 0.1270189, -4555.575, 45559.49, 0.0, 10.001238, 9.9980345 
1.0148396e+3, 3.0488548e+2, 104530.914, -81898.19, 13329.322, 0.004015689, 0.10244207, 105479.12, 105479.12, 0.0, 10.001287, 9.998817 
1.0148139e+3, 3.1488413e+2, 140179.33, -57638.85, 10593.543, -0.09355699, 0.087308496, 140745.02, 140745.02, 0.0, 10.001501, 9.998881 
1.0252736e+3, 1.24923736e+2, -1944149.4, -1758415.8, 14328.921, 0.016168099, 0.033897113, -1757316.9, -41567.62, 0.0002164286, 9.998142, 10.000596 
1.02524795e+3, 1.3492455e+2, -1764564.5, -1601075.8, -52837.137, -0.0535317, 0.038413603, -1585486.1, 32255.87, 0.00008198819, 9.998611, 10.000779 
1.0252235e+3, 1.4492501e+2, -1645338.4, -1526603.3, -22603.834, -0.020050202, 0.026420524, -1522445.8, -2708.6833, 0.000012107449, 9.998902, 10.000475 
1.02519974e+3, 1.549253e+2, -1531325.5, -1418740.3, -18579.568, 0.009688114, 0.007862946, -1415753.4, 5979.304, 0.00000009714164, 9.999003, 10.000494 
1.0251753e+3, 1.6492544e+2, -1442888.6, -1393787.5, -28791.904, -0.0031128959, 0.0050578015, -1380500.3, -56769.188, 0.0, 9.999231, 9.999883 
1.0251504e+3, 1.7492543e+2, -1292813.9, -1269817.3, -26801.678, -0.060178444, 0.016057756, -1252151.5, -26419.494, 0.0, 9.999585, 9.99989 
1.0251261e+3, 1.8492518e+2, -1186132.1, -1217145.9, 4782.562, -0.07662081, 0.028171513, -1185411.4, -57675.73, 0.0, 9.999857, 9.999448 
1.02510266e+3, 1.9492473e+2, -1058805.3, -1104137.8, 13791.454, -0.050441287, 0.038280696, -1054939.1, -25197.092, 0.0, 10.000055, 9.999455 
1.0250791e+3, 2.0492417e+2, -936092.5, -996224.3, 13384.912, -0.035846565, 0.039419368, -933247.75, -1499.9615, 0.0, 10.000234, 9.999438 
1.0250554e+3, 2.1492346e+2, -814390.0, -885793.06, 7751.0293, -0.033638533, 0.027255949, -813558.25, 20194.531, 0.0, 10.000392, 9.999447 
1.0250315e+3, 2.2492257e+2, -759236.56, -908465.2, 7117.9224, -0.042515263, 0.03937138, -758897.9, -23135.334, 0.0, 10.000528, 9.998552 
1.0250076e+3, 2.3492143e+2, -644135.7, -802016.3, 13711.991, -0.062609814, 0.073419146, -642953.6, -5176.5444, 0.0, 10.000646, 9.998554 
1.02498375e+3, 2.4492021e+2, -526515.2, -677572.9, 20165.66, -0.064342365, 0.091370866, -523869.47, 15920.994, 0.0, 10.000708, 9.998705 
1.02496035e+3, 2.5491887e+2, -427264.66, -577577.44, 15981.147, -0.046912123, 0.08851793, -425584.34, 16218.307, 0.0, 10.0007105, 9.998717 
1.0249367e+3, 2.6491722e+2, -351924.28, -556691.75, 19561.258, -0.040624462, 0.08535832, -350072.38, -6253.4683, 0.0, 10.00084, 9.998125 
1.0249131e+3, 2.7491528e+2, -215169.39, -439032.88, 23880.383, -0.046624683, 0.0785731, -212650.31, 33188.973, 0.0, 10.001102, 9.998134 
1.0248894e+3, 2.8491357e+2, -98984.53, -332891.72, -769.2246, -0.023581475, 0.097818956, -98982.01, 48875.22, 0.0, 10.00123, 9.998128 
1.0248656e+3, 2.9491213e+2, -1712.2952, -233675.03, -141.9529, 0.031636722, 0.14053456, -1712.2084, 48160.305, 0.0, 10.001218, 9.998142 
1.0248409e+3, 3.049104e+2, 105362.09, -84231.89, -2372.0398, 0.010939503, 0.12313288, 105391.766, 105391.766, 0.0, 10.001306, 9.998792 
1.0248155e+3, 3.1490892e+2, 136983.02, -63489.227, -11374.611, -0.09023389, 0.10007488, 137626.33, 137626.33, 0.0, 10.001498, 9.998841 
1.03527136e+3, 1.2494728e+2, -1933609.0, -1738675.0, 30737.79, -0.01282525, 0.0424621, -1733943.0, -18422.994, 0.0002637313, 9.99815, 10.000729 
1.03524685e+3, 1.3494824e+2, -1755298.9, -1582344.4, -35522.152, -0.017981889, 0.04845847, -1575332.9, 42177.566, 0.00010469639, 9.998611, 10.000909 
1.0352229e+3, 1.4494874e+2, -1647062.0, -1530710.1, -19185.557, 0.02098889, 0.033544194, -1527628.3, -8123.1147, 0.000017566988, 9.998902, 10.000448 
1.03519835e+3, 1.5494904e+2, -1532188.9, -1422566.9, -15109.05, -0.024624389, 0.019846663, -1420522.5, 978.4065, 0.00000023822265, 9.99901, 10.000465 
1.03517406e+3, 1.6494912e+2, -1438232.4, -1386225.0, -15989.656, -0.043732826, 0.010299755, -1381702.3, -58202.336, 0.0, 9.999239, 9.999931 
1.03515014e+3, 1.7494898e+2, -1288463.3, -1261941.9, -13995.169, -0.03406889, 0.0028664502, -1255922.8, -30420.88, 0.0, 9.999588, 9.999944 
1.0351264e+3, 1.8494882e+2, -1169263.1, -1183051.0, 11465.525, -0.04288228, 0.009880089, -1162778.6, -35274.555, 0.0, 9.999859, 9.999682 
1.0351025e+3, 1.9494867e+2, -1041683.3, -1069616.4, 20558.23, -0.07081397, 0.027769791, -1030796.2, -1289.7887, 0.0, 10.000057, 9.999692 
1.035079e+3, 2.0494826e+2, -945724.25, -1017147.1, 18622.84, -0.07043011, 0.04010251, -941160.2, -9649.487, 0.0, 10.000236, 9.999294 
1.0350557e+3, 2.1494757e+2, -824001.9, -906896.0, 13199.07, -0.040789586, 0.04302872, -821951.0, 11565.902, 0.0, 10.000395, 9.999302 
1.0350321e+3, 2.2494657e+2, -746128.5, -882386.56, 11138.759, -0.039210875, 0.04400586, -745224.0, -9696.549, 0.0, 10.000532, 9.998731 
1.0350082e+3, 2.3494525e+2, -630868.9, -775509.4, 17998.764, -0.06662048, 0.040301323, -628662.8, 8879.552, 0.0, 10.0006485, 9.998735 
1.0349844e+3, 2.449441e+2, -532936.2, -691776.9, 20372.604, -0.076140344, 0.06003523, -530364.9, 9190.325, 0.0, 10.00071, 9.998608 
1.0349608e+3, 2.5494307e+2, -433635.38, -591917.7, 16370.845, -0.06735788, 0.09925096, -431959.88, 9605.997, 0.0, 10.000713, 9.998618 
1.0349375e+3, 2.6494163e+2, -342027.0, -537079.56, 29662.955, -0.048773453, 0.1120814, -337615.72, 5965.38, 0.0, 10.000842, 9.99826 
1.0349144e+3, 2.749397e+2, -205500.39, -418890.8, 34201.508, -0.019942403, 0.09437431, -200152.7, 45448.168, 0.0, 10.001101, 9.998274 
1.0348907e+3, 2.8493804e+2, -95324.04, -324715.63, -575.1766, -0.008969109, 0.10790404, -95322.6, 52295.53, 0.0, 10.001225, 9.998187 
1.03486635e+3, 2.9493666e+2, 2549.1921, -225210.16, 237.98701, -0.015372881, 0.1507129, 2549.4407, 52182.113, 0.0, 10.001218, 9.998201 
1.0348419e+3, 3.0493495e+2, 97016.58, -102330.35, 5221.956, -0.027367279, 0.13940553, 97153.28, 97153.28, 0.0, 10.001307, 9.998668 
1.0348174e+3, 3.1493333e+2, 127498.05, -82817.08, -3302.032, -0.0462501, 0.11324528, 127549.875, 127549.875, 0.0, 10.001495, 9.998712 
1.0452695e+3, 1.2497056e+2, -1899291.8, -1718103.9, 43345.754, -0.013276055, 0.02666485, -1708268.1, 7023.6235, 0.00031664252, 9.998368, 10.000763 
1.0452454e+3, 1.3497162e+2, -1767737.0, -1584306.1, -29228.484, -0.017894864, 0.038192447, -1579761.4, 37519.836, 0.00013079311, 9.99851, 10.000943 
1.0452217e+3, 1.4497215e+2, -1664640.3, -1540118.6, -17010.854, 0.025862545, 0.026594147, -1537836.6, -18561.008, 0.000024312307, 9.998788, 10.000438 
1.0451974e+3, 1.549726e+2, -1507170.1, -1411256.4, -12345.093, -0.03346617, 0.027595444, -1409692.9, 11577.674, 0.0000004785213, 9.9991865, 10.000457 
1.0451733e+3, 1.6497271e+2, -1405793.1, -1364375.8, -13539.158, -0.054734223, 0.018509053, -1360342.6, -37073.145, 0.0, 9.999436, 9.999986 
1.04514964e+3, 1.7497247e+2, -1291245.6, -1256495.3, -11453.3545, -0.034942344, -0.002889684, -1253060.0, -27787.996, 0.0, 9.999542, 10.000002 
1.0451261e+3, 1.849724e+2, -1182909.6, -1176861.4, 9461.544, -0.0397055, 0.0042398768, -1169952.4, -42679.45, 0.0, 9.999713, 9.999794 
1.04510255e+3, 1.9497252e+2, -1049196.1, -1060416.8, 9103.477, -0.070513554, 0.03627115, -1044113.0, -14840.613, 0.0, 9.999952, 9.9998045 
1.0450791e+3, 2.0497213e+2, -964176.4, -1034537.75, 2437.0044, -0.07469442, 0.049531717, -964092.06, -32815.55, 0.0, 10.000147, 9.999216 
1.0450559e+3, 2.1497126e+2, -843113.25, -924328.0, 1699.9259, -0.050881896, 0.040605135, -843077.7, -9792.402, 0.0, 10.000301, 9.999226 
1.04503244e+3, 2.2497025e+2, -754830.4, -868923.25, -1991.7317, -0.04665999, 0.037345313, -754795.6, -19499.91, 0.0, 10.000398, 9.998887 
1.0450087e+3, 2.3496911e+2, -650889.44, -767314.94, 2619.3066, -0.06299875, 0.036435217, -650830.56, -13522.69, 0.0, 10.000435, 9.998894 
1.044985e+3, 2.44968e+2, -563099.0, -716674.8, 4773.835, -0.07039443, 0.05795659, -562950.75, -23630.553, 0.0, 10.000548, 9.998513 
1.0449615e+3, 2.549669e+2, -436403.34, -603532.25, 537.46313, -0.06876271, 0.09853653, -436401.6, 4931.047, 0.0, 10.00074, 9.998525 
1.0449383e+3, 2.649655e+2, -336725.16, -517472.06, 14318.201, -0.05149615, 0.11335041, -335597.97, 7749.66, 0.0, 10.000807, 9.99841 
1.0449154e+3, 2.7496377e+2, -246101.06, -421228.5, 19487.707, -0.01759688, 0.09794545, -243958.72, 1406.3375, 0.0, 10.000749, 9.998426 
1.0448917e+3, 2.8496215e+2, -139914.61, -346316.4, -13802.252, -0.012807835, 0.109644346, -138995.73, 8385.83, 0.0, 10.000921, 9.998184 
1.0448673e+3, 2.949607e+2, 19295.723, -216960.78, -17964.531, -0.037630517, 0.14635436, 20653.906, 70050.78, 0.0, 10.001334, 9.9982 
1.0448431e+3, 3.0495894e+2, 124223.27, -98488.4, -17927.031, -0.037744563, 0.135986, 125657.07, 125657.07, 0.0, 10.001535, 9.998583 
1.0448192e+3, 3.1495732e+2, 125020.86, -94285.86, -23651.615, -0.0132288225, 0.11328687, 127542.625, 127542.625, 0.0, 10.001523, 9.998618 
1.05526805e+3, 1.2499368e+2, -1902756.5, -1726349.6, 48785.695, 0.005067946, -0.012072178, -1713756.8, 1306.9495, 0.0003754382, 9.998372, 10.000706 
1.0552435e+3, 1.3499478e+2, -1770081.8, -1591542.3, -24085.924, -0.05069145, 0.009733459, -1588350.0, 28703.23, 0.00016041061, 9.998519, 10.000891 
1.0552202e+3, 1.4499538e+2, -1663858.8, -1540487.4, -2064.242, -0.0025387725, 0.007123918, -1540452.9, -21405.246, 0.000032450233, 9.998795, 10.000433 
1.0551967e+3, 1.5499607e+2, -1506983.1, -1411290.1, 2187.869, -0.019006062, 0.031525657, -1411240.1, 9800.841, 0.0000008393984, 9.9991865, 10.000458 
1.0551728e+3, 1.6499627e+2, -1401570.1, -1356293.8, -10224.16, -0.03913005, 0.029574737, -1354092.0, -31052.9, 0.0, 9.999437, 10.000042 
1.0551489e+3, 1.7499599e+2, -1286031.9, -1247824.3, -8061.026, -0.06157692, -0.0016855214, -1246193.3, -21151.383, 0.0, 9.99955, 10.000059 
1.0551255e+3, 1.8499601e+2, -1182720.5, -1178494.6, 17682.78, -0.06529116, 0.010495284, -1162799.0, -35756.977, 0.0, 9.999721, 9.99978 
1.05510265e+3, 1.9499631e+2, -1049482.3, -1062095.5, 17429.35, -0.050556816, 0.06305066, -1037253.6, -8213.996, 0.0, 9.999955, 9.999793 
1.0550795e+3, 2.0499581e+2, -965066.6, -1037422.2, 7568.092, -0.050386015, 0.067445174, -964283.5, -33238.715, 0.0, 10.00015, 9.999196 
1.055056e+3, 2.1499452e+2, -843722.0, -926769.7, 7038.715, -0.06440959, 0.020063559, -843129.7, -10072.03, 0.0, 10.000304, 9.999208 
1.0550326e+3, 2.249936e+2, -745231.06, -850180.75, -962.35016, -0.0649299, 0.019458514, -745222.25, -10155.09, 0.0, 10.0004015, 9.999015 
1.05500914e+3, 2.3499304e+2, -640906.0, -747993.7, 3957.9531, -0.05186681, 0.061987486, -640759.9, -3686.5186, 0.0, 10.00044, 9.999025 
1.0549858e+3, 2.4499196e+2, -569350.06, -730969.5, 12067.976, -0.047205552, 0.08532849, -568453.94, -29368.58, 0.0, 10.000552, 9.998414 
1.0549624e+3, 2.549904e+2, -442760.16, -617663.8, 8103.9697, -0.05116151, 0.08642649, -442385.47, -1282.5114, 0.0, 10.000742, 9.998427 
1.0549391e+3, 2.649889e+2, -325360.94, -494438.84, 12457.448, -0.049370326, 0.088973045, -324448.03, 18670.574, 0.0, 10.000808, 9.9985695 
1.05491586e+3, 2.7498746e+2, -234896.66, -398035.53, 17706.268, -0.04173228, 0.08864668, -232997.02, 12135.13, 0.0, 10.000747, 9.998588 
1.0548925e+3, 2.849859e+2, -145387.95, -357690.7, 2055.2522, -0.036671713, 0.10230776, -145368.06, 1779.8387, 0.0, 10.000919, 9.998108 
1.0548686e+3, 2.9498425e+2, 14432.16, -227638.53, -1780.325, -0.03346602, 0.12749003, 14445.253, 63610.844, 0.0, 10.001334, 9.998128 
1.05484486e+3, 3.0498242e+2, 121239.25, -105299.99, -18032.236, -0.01874344, 0.11316668, 122665.61, 122665.61, 0.0, 10.001536, 9.998536 
1.05482094e+3, 3.1498083e+2, 121596.08, -101639.305, -23577.12, 0.0050264006, 0.102681495, 124059.01, 124059.01, 0.0, 10.001523, 9.998569 
1.0652665e+3, 1.2501714e+2, -1902574.1, -1737596.3, 60632.555, 0.009956297, -0.016937586, -1717709.8, -2876.2551, 0.00044022893, 9.998424, 10.000604 
1.0652419e+3, 1.3501823e+2, -1745595.1, -1590760.6, -15759.146, -0.06588191, 0.014882295, -1589172.9, 27650.59, 0.0001936281, 9.998735, 10.000791 
1.065219e+3, 1.4501873e+2, -1642455.6, -1533432.0, 4987.54, -0.009568173, 0.008872509, -1533204.3, -14385.218, 0.00004209593, 9.998958, 10.0004015 
1.0651958e+3, 1.5501936e+2, -1524187.5, -1422805.8, 6492.361, -0.012051078, 0.032183383, -1422391.8, -1578.755, 0.0000013547506, 9.999085, 10.000426 
1.0651723e+3, 1.650196e+2, -1415005.5, -1365372.1, -9673.345, -0.032096412, 0.036598355, -1363553.5, -40742.516, 0.0, 9.999359, 10.000015 
1.06514856e+3, 1.7501944e+2, -1254151.6, -1235123.9, -13858.577, -0.0675953, 0.018545525, -1227827.8, -3014.8916, 0.0, 9.999782, 10.000033 
1.06512524e+3, 1.8501942e+2, -1149172.1, -1164399.6, 1585.0233, -0.07268204, 0.029490154, -1149009.0, -22195.584, 0.0, 9.999961, 9.99976 
1.0651025e+3, 1.9501954e+2, -1058456.5, -1068173.8, 574.37445, -0.047960006, 0.06664508, -1058422.8, -29610.479, 0.0, 9.999904, 9.999775 
1.0650795e+3, 2.0501901e+2, -984656.5, -1039841.6, -2909.0193, -0.04862915, 0.06361977, -984503.56, -53685.836, 0.0, 9.999988, 9.999257 
1.0650562e+3, 2.150178e+2, -852538.8, -924143.8, 2044.7719, -0.07459879, 0.016777188, -852480.44, -19650.605, 0.0, 10.000216, 9.999269 
1.06503285e+3, 2.2501698e+2, -745104.8, -847456.9, -11385.103, -0.074322715, 0.022666788, -743853.7, -9015.304, 0.0, 10.000392, 9.999038 
1.0650096e+3, 2.3501655e+2, -627979.44, -738777.4, -15073.797, -0.047634576, 0.077785395, -625965.3, 10877.956, 0.0, 10.000517, 9.99905 
1.06498644e+3, 2.4501549e+2, -555188.06, -716469.75, -3234.5166, -0.038094312, 0.096477054, -555123.25, -16268.229, 0.0, 10.000618, 9.998481 
1.0649631e+3, 2.5501373e+2, -445070.97, -610854.44, 4834.245, -0.045693543, 0.07531753, -444930.13, -4056.5837, 0.0, 10.000693, 9.998497 
1.0649398e+3, 2.6501223e+2, -327094.66, -489366.5, 6581.4155, -0.049771614, 0.071945235, -326828.16, 16060.746, 0.0, 10.0007715, 9.99862 
1.0649165e+3, 2.7501097e+2, -215358.92, -382320.88, 3269.6902, -0.05082453, 0.08232587, -215294.9, 29606.094, 0.0, 10.000855, 9.998642 
1.0648933e+3, 2.850095e+2, -141490.2, -353470.7, -3889.8604, -0.04135618, 0.099411234, -141418.86, 5497.2275, 0.0, 10.000938, 9.998127 
1.0648698e+3, 2.9500785e+2, -29501.379, -246373.72, -759.8784, -0.020251798, 0.12067794, -29498.717, 19435.176, 0.0, 10.001023, 9.998149 
1.06484644e+3, 3.050059e+2, 96099.86, -119464.69, -11109.258, -0.004065733, 0.09863664, 96670.87, 96670.87, 0.0, 10.001374, 9.998516 
1.0648226e+3, 3.1500432e+2, 189939.77, -70270.22, -15501.7705, 0.003924218, 0.08990932, 190860.02, 190860.02, 0.0, 10.002002, 9.998552 
1.0752649e+3, 1.2504098e+2, -1911472.0, -1758632.0, 71035.34, 0.000081830534, 0.009353172, -1730715.9, -16115.468, 0.0005108164, 9.998434, 10.000454 
1.07524075e+3, 1.3504203e+2, -1755999.9, -1612492.5, -5020.037, -0.065434985, 0.05059118, -1612317.1, 4274.2847, 0.00023041679, 9.998734, 10.000643 
1.075218e+3, 1.4504227e+2, -1646584.4, -1542474.5, 9233.188, 0.00227957, 0.02990628, -1541661.9, -23072.451, 0.000053336094, 9.998958, 10.00034 
1.07519485e+3, 1.5504262e+2, -1527182.6, -1431712.1, 10652.004, -0.012411506, 0.029600026, -1430538.1, -9952.169, 0.0000020676762, 9.999095, 10.000361 
1.0751716e+3, 1.6504282e+2, -1421589.0, -1381484.4, 5544.9863, -0.033034816, 0.03995377, -1380731.9, -58147.52, 0.0000000000166348, 9.999369, 9.999902 
1.0751484e+3, 1.750429e+2, -1261688.4, -1251358.1, 1566.4808, -0.054506198, 0.056941465, -1251125.9, -26541.271, 0.0, 9.999783, 9.999922 
1.07512526e+3, 1.8504272e+2, -1151300.1, -1169385.6, -1237.214, -0.063745275, 0.060458995, -1151215.9, -24629.375, 0.0, 9.999962, 9.999726 
1.0751023e+3, 1.9504231e+2, -1059800.4, -1072625.4, -2062.4229, -0.06251373, 0.04762969, -1059476.9, -30887.088, 0.0, 9.999909, 9.9997425 
1.0750792e+3, 2.0504177e+2, -974317.5, -1020299.4, 5035.0527, -0.068645544, 0.038789544, -973772.6, -43177.773, 0.0, 9.999993, 9.99939 
1.0750563e+3, 2.1504107e+2, -842613.3, -904904.5, 10197.288, -0.081567466, 0.030733176, -840986.44, -8384.81, 0.0, 10.000219, 9.9994 
1.0750332e+3, 2.2504038e+2, -750782.6, -860440.7, -6965.4507, -0.075418524, 0.04679502, -750342.0, -15732.777, 0.0, 10.000395, 9.998947 
1.07501015e+3, 2.3503968e+2, -633622.2, -751675.06, -10342.373, -0.05071799, 0.0836201, -632722.94, 3894.4695, 0.0, 10.00052, 9.998961 
1.0749869e+3, 2.4503857e+2, -538600.8, -683191.25, -286.0408, -0.04358998, 0.09116276, -538600.25, 28.934439, 0.0, 10.000621, 9.99871 
1.0749637e+3, 2.55037e+2, -428335.34, -577166.1, 8089.9473, -0.05319709, 0.065221876, -427896.88, 12747.48, 0.0, 10.000696, 9.998728 
1.07494056e+3, 2.650356e+2, -331154.7, -498631.34, 10154.627, -0.05314672, 0.062485706, -330541.25, 12117.411, 0.0, 10.000773, 9.998557 
1.0749175e+3, 2.7503434e+2, -219343.31, -391456.63, 7048.1084, -0.0441857, 0.079455525, -219055.17, 25616.633, 0.0, 10.000857, 9.998579 
1.0748943e+3, 2.8503293e+2, -133355.98, -336961.44, -457.1435, -0.02632756, 0.10162676, -133354.95, 13331.4, 0.0, 10.000938, 9.998241 
1.0748711e+3, 2.9503143e+2, -22009.39, -230181.14, 3034.3267, 0.0012265268, 0.12630661, -21965.172, 26736.896, 0.0, 10.0010195, 9.998262 
1.0748479e+3, 3.0502945e+2, 95704.164, -120542.79, 13520.99, 0.004820006, 0.092265315, 96546.3, 96546.3, 0.0, 10.001373, 9.99851 
1.0748243e+3, 3.1502777e+2, 191744.08, -69190.05, 9278.013, -0.018607052, 0.07536035, 192073.56, 192073.56, 0.0, 10.002011, 9.998556 
1.08526334e+3, 1.2506437e+2, -1865741.4, -1738920.9, 40759.188, -0.008997956, 0.041587435, -1726951.0, -12578.0, 0.0005868399, 9.998759, 10.000432 
1.08523935e+3, 1.3506532e+2, -1765925.8, -1619351.4, -25420.244, -0.060427707, 0.07719199, -1615067.9, 1296.4165, 0.00027068684, 9.998678, 10.000622 
1.0852171e+3, 1.4506541e+2, -1658661.4, -1552786.9, 2377.4114, 0.0151541075, 0.043643538, -1552733.5, -34369.746, 0.00006622561, 9.998898, 10.000297 
1.085194e+3, 1.5506567e+2, -1485579.0, -1416816.9, 4091.8564, -0.02474354, 0.039540496, -1416574.3, 3786.6702, 0.000003027, 9.999405, 10.000313 
1.085171e+3, 1.6506584e+2, -1381787.1, -1363605.6, -1916.1167, -0.045941282, 0.049476642, -1363405.9, -41046.273, 0.000000000186287, 9.999649, 9.999887 
1.0851482e+3, 1.7506593e+2, -1284170.1, -1263274.9, 931.3148, -0.04269708, 0.06921148, -1263233.4, -38873.773, 0.0, 9.999636, 9.999909 
1.0851252e+3, 1.8506572e+2, -1175059.3, -1178693.8, 1294.0303, -0.04972723, 0.068089105, -1174645.5, -48283.855, 0.0, 9.999792, 9.9997425 
1.0851022e+3, 1.9506522e+2, -1028318.0, -1055667.6, 3635.7239, -0.06891094, 0.043250266, -1027842.94, 522.71173, 0.0, 10.000119, 9.999757 
1.08507924e+3, 2.0506468e+2, -939121.25, -1001788.94, 4807.42, -0.077518314, 0.034503303, -938754.6, -8384.192, 0.0, 10.00023, 9.999402 
1.0850565e+3, 2.1506412e+2, -854877.25, -908883.2, 720.4765, -0.075258106, 0.038540427, -854867.6, -22491.732, 0.0, 10.000129, 9.999415 
1.0850336e+3, 2.2506341e+2, -777667.4, -871573.4, -12409.43, -0.067891136, 0.052351143, -776055.1, -41671.707, 0.0, 10.000204, 9.998962 
1.0850105e+3, 2.3506257e+2, -642283.9, -753860.1, -8374.647, -0.05600971, 0.07268951, -641658.8, -5265.827, 0.0, 10.000454, 9.998978 
1.0849875e+3, 2.4506146e+2, -531973.3, -670498.75, -3890.6504, -0.05032418, 0.07606803, -531864.1, 6540.2104, 0.0, 10.0006275, 9.998793 
1.0849645e+3, 2.5506008e+2, -418071.1, -562377.8, -7054.512, -0.050280925, 0.058147587, -417727.06, 22690.367, 0.0, 10.000726, 9.998815 
1.0849414e+3, 2.6505876e+2, -337801.75, -507125.94, -12664.4, -0.04436457, 0.06139645, -336859.78, 5571.3354, 0.0, 10.000752, 9.998508 
1.0849183e+3, 2.7505746e+2, -244180.77, -408567.2, -14931.922, -0.03299154, 0.08244439, -242835.45, 1609.7013, 0.0, 10.0007105, 9.998531 
1.0848953e+3, 2.850561e+2, -132970.22, -323789.47, -14117.103, -0.018462207, 0.104332775, -131931.47, 14527.968, 0.0, 10.000886, 9.998357 
1.0848722e+3, 2.9505464e+2, 23933.678, -194925.5, -10799.997, 0.00007144694, 0.12424756, 24465.332, 72939.1, 0.0, 10.00128, 9.998378 
1.08484924e+3, 3.0505267e+2, 124325.03, -105087.14, 7015.795, 0.0019765452, 0.084151246, 124539.39, 124539.39, 0.0, 10.001565, 9.998524 
1.0848263e+3, 3.1505117e+2, 156210.39, -83510.48, 3640.1228, -0.015844144, 0.080949575, 156265.66, 156265.66, 0.0, 10.001757, 9.99858 
1.09526195e+3, 1.250874e+2, -1859863.5, -1725761.1, 35584.18, -0.020091588, 0.07658224, -1716903.8, -2753.7993, 0.00066826155, 9.998754, 10.000525 
1.0952382e+3, 1.350883e+2, -1757674.0, -1605221.4, -28574.482, -0.05183682, 0.095646836, -1600041.5, 16099.465, 0.00031450897, 9.998689, 10.000714 
1.09521605e+3, 1.4508829e+2, -1659650.9, -1557791.1, 21208.246, 0.028674558, 0.0507279, -1553551.9, -35411.05, 0.000080840386, 9.998909, 10.000258 
1.0951931e+3, 1.5508863e+2, -1488671.1, -1423085.4, 22592.648, -0.04858864, 0.061128974, -1416056.1, 4081.007, 0.0000043066148, 9.999403, 10.000272 
1.0951704e+3, 1.6508876e+2, -1377017.4, -1353469.1, -2950.7476, -0.07056412, 0.06459715, -1353105.0, -30968.926, 0.0000000006358386, 9.999646, 9.99996 
1.09514795e+3, 1.7508866e+2, -1278018.0, -1252438.3, 29.448717, -0.032308985, 0.05669706, -1252438.3, -28300.832, 0.0, 9.999642, 9.999982 
1.0951252e+3, 1.8508849e+2, -1169769.0, -1170061.4, 12817.979, -0.031009112, 0.053778756, -1157096.4, -30957.742, 0.0, 9.9998, 9.999799 
1.0951023e+3, 1.9508827e+2, -1023855.94, -1047630.4, 15240.21, -0.067713745, 0.05320303, -1016415.2, 11724.424, 0.0, 10.000123, 9.999811 
1.0950795e+3, 2.0508777e+2, -946622.3, -1018309.44, 385.13928, -0.07609382, 0.049938362, -946620.25, -16476.006, 0.0, 10.000232, 9.999289 
1.09505676e+3, 2.1508695e+2, -861789.6, -924690.25, -3444.6772, -0.056271743, 0.03987936, -861601.5, -29449.113, 0.0, 10.0001335, 9.999306 
1.09503396e+3, 2.2508611e+2, -768690.8, -854662.0, -3455.192, -0.052303724, 0.03939613, -768552.2, -34391.195, 0.0, 10.00021, 9.999077 
1.09501086e+3, 2.3508525e+2, -633462.8, -737029.44, 961.71985, -0.063930735, 0.04528021, -633453.9, 2715.956, 0.0, 10.000458, 9.999092 
1.0949881e+3, 2.4508418e+2, -536069.4, -680153.8, -5.641973, -0.058579054, 0.051509406, -536069.4, 2111.163, 0.0, 10.00063, 9.998726 
1.0949652e+3, 2.5508294e+2, -422181.47, -571886.4, -2948.8765, -0.037009638, 0.054109637, -422123.4, 18069.393, 0.0, 10.000729, 9.998749 
1.09494224e+3, 2.6508167e+2, -340411.06, -513207.6, -13910.722, -0.023594923, 0.06871961, -339298.38, 2908.09, 0.0, 10.000753, 9.9984665 
1.0949192e+3, 2.7508035e+2, -246690.98, -414115.28, -15870.675, -0.0177634, 0.09138102, -245199.83, -978.5364, 0.0, 10.0007105, 9.998494 
1.0948961e+3, 2.8507897e+2, -125132.17, -308154.97, 1232.6388, -0.018664327, 0.10740947, -125123.87, 21111.848, 0.0, 10.000887, 9.998465 
1.0948733e+3, 2.950775e+2, 32387.143, -178777.66, 4820.607, -0.025462264, 0.11427052, 32497.133, 80746.63, 0.0, 10.001285, 9.998488 
1.0948507e+3, 3.050756e+2, 126762.02, -101067.02, 14143.454, -0.013682151, 0.07463019, 127636.68, 127636.68, 0.0, 10.001568, 9.99855 
1.09482825e+3, 3.1507453e+2, 158532.44, -77726.65, 11060.507, 0.012575214, 0.11181963, 159049.11, 159049.11, 0.0, 10.001751, 9.998623 
1.1052606e+3, 1.2511002e+2, -1884938.4, -1734254.6, 42937.223, -0.010941369, 0.07271778, -1722878.6, -8949.678, 0.00075576623, 9.998568, 10.000556 
1.1052369e+3, 1.3511096e+2, -1703941.6, -1576758.3, -24101.396, -0.06546047, 0.09737242, -1572344.3, 43574.754, 0.00036234639, 9.999048, 10.000736 
1.1052151e+3, 1.4511093e+2, -1613180.3, -1539984.1, 22438.193, 0.024224484, 0.050164837, -1533653.3, -15734.054, 0.00009737699, 9.999249, 10.000216 
1.1051925e+3, 1.5511134e+2, -1526536.1, -1445706.3, 23118.832, -0.041368708, 0.06875374, -1439561.0, -19645.35, 0.0000060098255, 9.999165, 10.00023 
1.10516995e+3, 1.6511148e+2, -1411812.0, -1359614.9, -97.22068, -0.06329658, 0.07141432, -1359614.6, -37700.418, 0.0000000015512864, 9.999365, 10.0000515 
1.1051476e+3, 1.7511135e+2, -1241941.1, -1224785.4, 3915.293, -0.034827687, 0.05341685, -1223934.1, -19.237076, 0.0, 9.999847, 10.000072 
1.1051251e+3, 1.8511121e+2, -1135218.3, -1158257.4, 9422.401, -0.03269535, 0.050155994, -1131855.5, -5939.8325, 0.0, 10.00006, 9.999754 
1.10510245e+3, 1.9511105e+2, -1043172.5, -1061496.1, 4108.0996, -0.05915754, 0.05898981, -1042293.6, -14377.082, 0.0, 10.000012, 9.999768 
1.1050797e+3, 2.0511052e+2, -967280.56, -1029503.7, -13654.438, -0.06635094, 0.05721615, -964416.06, -34494.68, 0.0, 10.000097, 9.999275 
1.105057e+3, 2.1510963e+2, -836815.0, -913953.8, -10478.369, -0.053772308, 0.040922165, -835417.0, -3486.7559, 0.0, 10.000312, 9.999292 
1.1050343e+3, 2.2510873e+2, -727216.94, -835358.75, -6401.38, -0.053083465, 0.035729393, -726839.3, 7099.792, 0.0, 10.0005, 9.999069 
1.1050115e+3, 2.3510784e+2, -604624.0, -723773.94, -11886.422, -0.06416232, 0.03814152, -603449.8, 32498.2, 0.0, 10.000661, 9.999084 
1.10498875e+3, 2.4510679e+2, -519593.6, -673986.94, -21338.787, -0.056061458, 0.046152182, -516698.63, 21259.957, 0.0, 10.000752, 9.998709 
1.104966e+3, 2.5510558e+2, -415957.7, -570608.75, -21188.021, -0.02986116, 0.05601137, -413107.34, 26863.29, 0.0, 10.00078, 9.998732 
1.1049431e+3, 2.6510426e+2, -325216.03, -505885.4, -29793.49, -0.018519364, 0.06920086, -320429.7, 21554.863, 0.0, 10.000859, 9.998465 
1.1049199e+3, 2.751029e+2, -206026.42, -394395.97, -29056.93, -0.021054849, 0.081852935, -201646.11, 42354.01, 0.0, 10.000991, 9.998494 
1.1048971e+3, 2.851015e+2, -92487.555, -292026.1, -6990.0977, -0.026024967, 0.097268544, -92242.98, 53771.555, 0.0, 10.001111, 9.9984665 
1.1048744e+3, 2.9510012e+2, 23920.951, -182528.39, -11837.322, -0.03298512, 0.11275982, 24597.459, 72625.04, 0.0, 10.001226, 9.998489 
1.1048522e+3, 3.050982e+2, 114029.87, -108528.15, -7141.5044, -0.014581269, 0.072001114, 114258.8, 114258.8, 0.0, 10.001488, 9.998537 
1.1048302e+3, 3.1509727e+2, 182518.33, -64646.96, -14039.365, 0.025561564, 0.124828845, 183313.23, 183313.23, 0.0, 10.001911, 9.998634 
1.1152595e+3, 1.2513228e+2, -1886183.0, -1738439.3, 56346.176, 0.0134477485, 0.028858153, -1719402.9, -5693.71, 0.0008505687, 9.998573, 10.000525 
1.1152356e+3, 1.351335e+2, -1708044.0, -1584798.5, -6719.066, -0.100040354, 0.08427739, -1584433.3, 31264.018, 0.00041499882, 9.999044, 10.000684 
1.1152141e+3, 1.4513347e+2, -1616821.9, -1547525.4, 18686.383, 0.0031532708, 0.04288414, -1542807.6, -25109.51, 0.00011616446, 9.999248, 10.000165 
1.1151919e+3, 1.5513383e+2, -1528531.9, -1452322.8, 19467.455, -0.0055437833, 0.06368114, -1447637.8, -27942.242, 0.000008247579, 9.999173, 10.000181 
1.1151697e+3, 1.6513404e+2, -1402682.8, -1343746.8, 17288.764, -0.026943605, 0.07060419, -1339049.5, -17356.156, 0.0000000033697685, 9.999375, 10.000156 
1.1151473e+3, 1.751341e+2, -1233922.9, -1209805.4, 21067.518, -0.050134316, 0.05868818, -1197589.6, 26102.086, 0.0, 9.999853, 10.000174 
1.115125e+3, 1.8513392e+2, -1145181.1, -1180110.1, 6634.8774, -0.05403101, 0.056406293, -1143963.3, -18270.623, 0.0, 10.000063, 9.999604 
1.11510254e+3, 1.9513358e+2, -1052447.9, -1082438.6, 1576.109, -0.043617636, 0.060710367, -1052365.3, -24669.252, 0.0, 10.000017, 9.999623 
1.11508e+3, 2.0513299e+2, -960706.75, -1017790.5, -6319.8975, -0.048965324, 0.056803156, -960015.44, -30313.889, 0.0, 10.000104, 9.999353 
1.1150571e+3, 2.151322e+2, -830660.75, -902589.06, -2938.7651, -0.06788575, 0.04177969, -830540.9, 1168.1832, 0.0, 10.000316, 9.99937 
1.1150345e+3, 2.2513132e+2, -736423.5, -855560.0, -696.8493, -0.070226416, 0.041211512, -736419.44, -2701.7131, 0.0, 10.000503, 9.99893 
1.1150121e+3, 2.3513035e+2, -613540.7, -743394.1, -5953.2144, -0.056892633, 0.051026747, -613268.4, 22459.037, 0.0, 10.000664, 9.998949 
1.1149896e+3, 2.4512924e+2, -517437.7, -670536.7, -20188.58, -0.04326222, 0.059903797, -514820.25, 22918.299, 0.0, 10.000755, 9.998732 
1.1149668e+3, 2.5512803e+2, -413777.63, -567088.9, -19679.88, -0.029328683, 0.06396622, -411291.72, 28459.318, 0.0, 10.000783, 9.998755 
1.11494385e+3, 2.6512662e+2, -322244.06, -500837.06, -24440.348, -0.029683972, 0.06266166, -318959.8, 22805.793, 0.0, 10.000863, 9.998499 
1.1149207e+3, 2.7512503e+2, -203309.03, -389752.56, -23367.219, -0.04424123, 0.0531512, -200425.0, 43356.906, 0.0, 10.000994, 9.998526 
1.11489795e+3, 2.8512362e+2, -100189.25, -308830.25, -2213.1626, -0.041663792, 0.07369518, -100165.78, 45630.473, 0.0, 10.001113, 9.998351 
1.11487575e+3, 2.9512247e+2, 16163.693, -199359.55, -6776.184, -0.021621088, 0.12069101, 16376.53, 64184.957, 0.0, 10.001227, 9.998374 
1.1148538e+3, 3.051204e+2, 109738.984, -118580.79, 9042.226, -0.00012443705, 0.07676369, 110096.52, 110096.52, 0.0, 10.001491, 9.998467 
1.114832e+3, 3.1511936e+2, 180914.06, -69089.38, 2334.8708, 0.020014303, 0.12302533, 180935.86, 180935.86, 0.0, 10.001914, 9.998604 
1.12525806e+3, 1.2515454e+2, -1858864.4, -1729560.6, 47243.305, 0.0063428436, 0.009552252, -1714138.9, -649.12305, 0.0009537774, 9.998781, 10.000485 
1.1252345e+3, 1.3515584e+2, -1738168.1, -1606361.4, -12216.414, -0.09814974, 0.0809328, -1605238.6, 10239.206, 0.00047316175, 9.99887, 10.000619 
1.12521335e+3, 1.4515582e+2, -1635455.8, -1555194.6, 10395.077, 0.013117822, 0.04263095, -1553870.1, -36391.1, 0.00013752929, 9.999116, 10.000175 
1.12519115e+3, 1.5515625e+2, -1481434.0, -1428619.9, 14558.674, -0.013582463, 0.06794355, -1424872.6, -5396.6606, 0.00001111389, 9.999494, 10.000189 
1.1251691e+3, 1.6515647e+2, -1351700.8, -1325607.3, 13953.84, -0.037145443, 0.07715305, -1319551.0, 1922.8304, 0.0000000061074554, 9.999755, 10.000097 
1.1251472e+3, 1.7515643e+2, -1230686.6, -1214488.0, 5674.349, -0.04647055, 0.06471687, -1212698.0, 10774.708, 0.0, 9.999904, 10.000115 
1.125125e+3, 1.851562e+2, -1151059.1, -1188165.0, -20474.93, -0.04581217, 0.059257355, -1141981.8, -16507.174, 0.0, 10.000047, 9.999556 
1.12510264e+3, 1.9515572e+2, -1030976.5, -1077469.1, -18681.207, -0.039851315, 0.0580646, -1024400.4, 3078.6167, 0.0, 10.00019, 9.999574 
1.1250802e+3, 2.0515513e+2, -936351.1, -1009481.56, -24305.18, -0.048879724, 0.056736615, -929010.1, 474.66205, 0.0, 10.000288, 9.999321 
1.1250575e+3, 2.1515442e+2, -828518.9, -904740.6, -29815.97, -0.071049005, 0.052048616, -818241.44, 13250.381, 0.0, 10.000346, 9.999339 
1.12503506e+3, 2.2515352e+2, -742568.6, -855336.8, -25014.69, -0.07054646, 0.05041202, -737268.8, -3768.4429, 0.0, 10.000448, 9.998957 
1.1250128e+3, 2.3515247e+2, -622802.25, -744570.9, -18585.814, -0.04883158, 0.048596345, -620028.6, 15481.768, 0.0, 10.000588, 9.998977 
1.12499036e+3, 2.4515134e+2, -522165.4, -677579.0, -31623.46, -0.035851303, 0.05574955, -515977.1, 21544.732, 0.0, 10.000746, 9.998687 
1.1249676e+3, 2.5515014e+2, -396912.3, -563570.5, -36971.832, -0.030825669, 0.06711252, -389078.6, 50456.0, 0.0, 10.00092, 9.998713 
1.1249447e+3, 2.6514873e+2, -293823.06, -474783.16, -42974.04, -0.03541021, 0.06294142, -284136.22, 57412.62, 0.0, 10.001006, 9.998608 
1.1249217e+3, 2.7514714e+2, -193137.78, -372712.5, -36482.152, -0.04991947, 0.041280586, -186009.11, 57555.11, 0.0, 10.001013, 9.998632 
1.124899e+3, 2.8514576e+2, -104033.195, -321149.94, -8078.3257, -0.04470609, 0.061023362, -103733.04, 41845.363, 0.0, 10.001133, 9.998256 
1.1248771e+3, 2.951446e+2, 29892.79, -203204.6, -11305.493, -0.019483525, 0.11780765, 30439.834, 78030.99, 0.0, 10.0013685, 9.998279 
1.12485535e+3, 3.0514237e+2, 129226.43, -114458.18, 12958.938, -0.00016484832, 0.062860265, 129913.64, 129913.64, 0.0, 10.001649, 9.99842 
1.1248339e+3, 3.1514123e+2, 190155.77, -65047.027, 7358.626, 0.011966413, 0.10767998, 190367.77, 190367.77, 0.0, 10.00198, 9.998599 
1.13525644e+3, 1.2517685e+2, -1863884.6, -1738478.1, 43368.31, -0.029858349, 0.010721895, -1724941.6, -11671.535, 0.001065781, 9.998774, 10.000428 
1.13523364e+3, 1.351781e+2, -1743424.3, -1618631.1, -9912.033, -0.06328563, 0.08650284, -1617848.8, -2589.1243, 0.00053702114, 9.998874, 10.000533 
1.1352128e+3, 1.4517808e+2, -1630109.3, -1546340.5, 23523.55, 0.050322447, 0.048534125, -1540186.8, -22925.707, 0.00016162105, 9.999124, 10.000234 
1.1351902e+3, 1.5517864e+2, -1476992.4, -1420881.5, 27461.05, -0.06308206, 0.08079209, -1409678.6, 9577.4375, 0.000014669085, 9.999498, 10.000241 
1.1351683e+3, 1.6517876e+2, -1366213.1, -1356995.0, 18448.516, -0.09074127, 0.09072089, -1342588.5, -21333.678, 0.000000009421829, 9.999758, 9.999882 
1.1351474e+3, 1.7517847e+2, -1244742.1, -1245070.0, 10339.323, -0.024714576, 0.07175875, -1234565.5, -11308.0625, 0.0, 9.999908, 9.999905 
1.13512546e+3, 1.8517806e+2, -1147474.4, -1182292.0, -16055.665, -0.010106906, 0.059034478, -1141200.9, -15940.03, 0.0, 10.0000515, 9.999595 
1.1351028e+3, 1.9517757e+2, -1027588.2, -1071887.1, -14105.397, -0.0480157, 0.050954252, -1023478.1, 3786.8372, 0.0, 10.000194, 9.999611 
1.1350802e+3, 2.0517698e+2, -946260.5, -1031436.1, -22789.855, -0.065815516, 0.05684849, -940546.1, -11275.338, 0.0, 10.000292, 9.999169 
1.1350579e+3, 2.1517631e+2, -837919.2, -925757.7, -27905.328, -0.06362564, 0.07162167, -829803.75, 1474.4202, 0.0, 10.000351, 9.999193 
1.1350355e+3, 2.2517537e+2, -728965.06, -828378.9, -20099.662, -0.054742996, 0.06334491, -725055.06, 8231.884, 0.0, 10.000452, 9.999141 
1.1350134e+3, 2.351742e+2, -609563.9, -718169.0, -13342.823, -0.04022267, 0.030774169, -607948.6, 27348.215, 0.0, 10.000591, 9.999157 
1.1349911e+3, 2.4517305e+2, -530206.2, -695346.5, -24998.654, -0.033968452, 0.03350447, -526504.9, 10803.526, 0.0, 10.00075, 9.998565 
1.1349685e+3, 2.5517192e+2, -404702.34, -580522.9, -30135.465, -0.035051156, 0.06551888, -399680.56, 39640.85, 0.0, 10.000922, 9.998596 
1.1349457e+3, 2.6517066e+2, -280969.0, -448799.66, -42210.67, -0.03636955, 0.07064001, -270950.72, 70383.695, 0.0, 10.001008, 9.998786 
1.1349227e+3, 2.7516922e+2, -180194.88, -347000.53, -35244.17, -0.037760895, 0.047127098, -173053.88, 70293.36, 0.0, 10.001017, 9.998808 
1.1349003e+3, 2.851678e+2, -108916.4, -332780.0, 1187.2755, -0.03501012, 0.05962222, -108910.1, 36451.19, 0.0, 10.001138, 9.998175 
1.1348783e+3, 2.9516643e+2, 24446.44, -215144.58, -1653.8088, -0.028397592, 0.10354695, 24457.854, 71834.11, 0.0, 10.001369, 9.998198 
1.1348568e+3, 3.0516395e+2, 127490.25, -118725.914, 26237.066, -0.016919, 0.029885383, 130255.055, 130255.055, 0.0, 10.001649, 9.998391 
1.1348357e+3, 3.151629e+2, 193184.84, -60494.426, 20835.809, 0.00014678783, 0.08530404, 194884.78, 194884.78, 0.0, 10.001986, 9.998629 
1.1452551e+3, 1.2519859e+2, -1895852.9, -1757341.0, 8346.767, -0.031155566, 0.018237703, -1756839.9, -43783.434, 0.0011861974, 9.9985695, 10.000397 
1.14523254e+3, 1.351997e+2, -1724930.1, -1615837.3, -36932.727, -0.06566093, 0.083281875, -1604510.0, 10537.867, 0.00060623896, 9.999029, 10.000477 
1.14521205e+3, 1.4519961e+2, -1589429.3, -1519543.8, -2456.9084, 0.05322779, 0.03902815, -1519457.5, -2407.8064, 0.00018835878, 9.999373, 10.000297 
1.14518955e+3, 1.5520026e+2, -1462791.6, -1407497.6, 860.54456, -0.07033865, 0.074413896, -1407484.3, 11559.003, 0.000018936791, 9.999569, 10.0002985 
1.14516795e+3, 1.6520041e+2, -1374434.6, -1369723.9, -7989.6035, -0.09978391, 0.08835316, -1363749.6, -42707.883, 0.000000013934886, 9.999741, 9.999802 
1.1451471e+3, 1.7520007e+2, -1251084.3, -1256681.4, -6757.9697, -0.026020372, 0.07324501, -1246568.3, -23522.852, 0.0, 9.999903, 9.999827 
1.1451255e+3, 1.851996e+2, -1143829.1, -1180021.5, -29548.979, -0.00700843, 0.057433605, -1127275.4, -2225.5903, 0.0, 10.000076, 9.999598 
1.14510305e+3, 1.9519904e+2, -1017710.94, -1066271.9, -30875.834, -0.044618864, 0.040274017, -1002712.2, 24342.307, 0.0, 10.00026, 9.999617 
1.14508055e+3, 2.051985e+2, -927552.5, -1015166.94, -36320.848, -0.06275089, 0.047247365, -914453.8, 14605.863, 0.0, 10.000391, 9.999232 
1.1450582e+3, 2.1519798e+2, -815888.1, -907887.8, -25972.914, -0.06093924, 0.07209792, -809062.0, 22003.457, 0.0, 10.000473, 9.999256 
1.145036e+3, 2.2519709e+2, -717515.44, -821603.44, -17124.28, -0.053801328, 0.065676436, -714770.56, 18303.123, 0.0, 10.000527, 9.999149 
1.145014e+3, 2.3519588e+2, -613715.75, -718993.6, -24120.281, -0.042707443, 0.027602844, -608452.6, 26631.408, 0.0, 10.00056, 9.999166 
1.1449917e+3, 2.4519469e+2, -546610.1, -702828.75, -35566.71, -0.03703779, 0.02570681, -538893.75, -1797.719, 0.0, 10.000636, 9.998567 
1.14496924e+3, 2.5519356e+2, -428863.84, -591383.25, -32017.992, -0.036020588, 0.05425819, -422783.47, 16325.876, 0.0, 10.000755, 9.998601 
1.1449467e+3, 2.6519233e+2, -293327.22, -454507.53, -48158.734, -0.032344107, 0.06432096, -280034.25, 61087.68, 0.0, 10.000924, 9.998786 
1.1449238e+3, 2.75191e+2, -162174.97, -338304.88, -54955.426, -0.026093768, 0.05302844, -146434.66, 96699.13, 0.0, 10.001142, 9.998807 
1.1449015e+3, 2.851896e+2, -82461.73, -324751.47, -20590.8, -0.026687443, 0.068745226, -80724.29, 64423.516, 0.0, 10.001342, 9.998131 
1.1448796e+3, 2.9518813e+2, 44393.813, -210102.95, -20671.645, -0.033402983, 0.10769229, 46061.945, 93225.555, 0.0, 10.001528, 9.998155 
1.1448583e+3, 3.0518553e+2, 135469.75, -115175.9, 11199.884, -0.027992327, 0.02148382, 135969.22, 135969.22, 0.0, 10.001709, 9.998385 
1.1448375e+3, 3.1518456e+2, 184568.81, -56912.76, 6348.4746, -0.009352534, 0.08756413, 184735.6, 184735.6, 0.0, 10.001897, 9.998694 
1.1552539e+3, 1.252199e+2, -1896713.1, -1758462.3, 17170.412, -0.0039369473, 0.028949214, -1756361.6, -43513.96, 0.001314158, 9.998566, 10.000392 
1.1552312e+3, 1.3522074e+2, -1726699.1, -1620609.9, -20398.7, -0.10263207, 0.07222119, -1616822.9, -1981.564, 0.0006802459, 9.999032, 10.000443 
1.1552112e+3, 1.4522055e+2, -1584356.0, -1510478.3, 4209.517, 0.025040254, 0.0155788, -1510239.3, 6604.494, 0.00021757523, 9.999377, 10.000358 
1.1551894e+3, 1.5522125e+2, -1458442.4, -1399252.4, 6998.0405, -0.038341485, 0.050308634, -1398436.3, 20400.021, 0.000023929451, 9.99957, 10.000355 
1.155168e+3, 1.6522153e+2, -1371291.3, -1363971.5, -3082.2139, -0.06820091, 0.071140096, -1362846.6, -42012.844, 0.000000023716384, 9.9997425, 9.999842 
1.1551469e+3, 1.7522135e+2, -1247588.4, -1250610.5, -1597.8545, -0.049908105, 0.069474496, -1246900.3, -24063.959, 0.0, 9.999906, 9.999868 
1.1551253e+3, 1.852209e+2, -1145863.0, -1185664.6, -23557.59, -0.035102535, 0.05451058, -1134925.5, -10084.707, 0.0, 10.00008, 9.9995575 
1.1551034e+3, 1.9522019e+2, -1019216.94, -1070830.3, -24749.11, -0.030053249, 0.026335841, -1009267.44, 17579.523, 0.0, 10.000264, 9.999584 
1.1550812e+3, 2.0521972e+2, -908384.9, -976644.2, -33868.527, -0.040709823, 0.028377498, -894432.2, 34418.914, 0.0, 10.000395, 9.9994955 
1.15505874e+3, 2.1521947e+2, -797314.2, -870333.75, -23464.729, -0.06322151, 0.053579457, -790424.0, 40429.414, 0.0, 10.000476, 9.999514 
1.1550364e+3, 2.2521871e+2, -729284.1, -847073.94, -16440.676, -0.06776649, 0.057429913, -727032.44, 5828.091, 0.0, 10.00053, 9.998974 
1.1550144e+3, 2.3521753e+2, -625044.6, -743584.25, -23011.275, -0.056719325, 0.03933868, -620734.3, 14137.448, 0.0, 10.000563, 9.998997 
1.1549923e+3, 2.4521627e+2, -537685.1, -685264.7, -31022.074, -0.045594856, 0.03262453, -531429.3, 5455.221, 0.0, 10.000638, 9.998687 
1.1549701e+3, 2.5521496e+2, -420150.38, -574463.1, -27112.543, -0.03390884, 0.03291082, -415525.34, 23373.086, 0.0, 10.000758, 9.998716 
1.15494765e+3, 2.6521373e+2, -305886.44, -481895.34, -39584.21, -0.023615327, 0.043335102, -297393.78, 43517.906, 0.0, 10.000928, 9.998597 
1.1549251e+3, 2.7521247e+2, -175053.03, -365724.8, -46249.07, -0.015612928, 0.05907876, -164427.1, 78497.08, 0.0, 10.0011425, 9.998619 
1.15490295e+3, 2.8521112e+2, -82863.13, -326099.88, -12937.937, -0.020667264, 0.08953836, -82176.89, 62761.375, 0.0, 10.001342, 9.998122 
1.1548811e+3, 2.9520968e+2, 44845.645, -211074.28, -12669.588, -0.03589249, 0.13197058, 45471.336, 92424.88, 0.0, 10.001534, 9.998146 
1.15485996e+3, 3.0520698e+2, 136833.2, -114578.48, 18275.068, -0.034526594, 0.039309554, 138154.67, 138154.67, 0.0, 10.001716, 9.998387 
1.1548393e+3, 3.1520617e+2, 190591.5, -44813.613, 13268.388, -0.016713858, 0.12060046, 191337.0, 191337.0, 0.0, 10.001896, 9.998779 
1.1652525e+3, 1.252405e+2, -1897968.0, -1749667.1, 587.0549, 0.0023770083, 0.018606294, -1749664.9, -37019.797, 0.0014486734, 9.998518, 10.000475 
1.1652302e+3, 1.3524133e+2, -1710300.1, -1606266.6, -23183.654, -0.10790242, 0.054759793, -1601334.1, 13304.145, 0.0007585872, 9.999118, 10.000501 
1.1652106e+3, 1.4524119e+2, -1574302.0, -1502808.1, -13091.877, 0.025794953, -0.00352715, -1500486.1, 16154.094, 0.00024917058, 9.999434, 10.000381 
1.1651891e+3, 1.552419e+2, -1473454.0, -1403701.1, -13826.815, -0.029070992, 0.03268262, -1401060.3, 17572.197, 0.000029664654, 9.999456, 10.000379 
1.1651677e+3, 1.6524225e+2, -1386875.1, -1364798.5, -20323.89, -0.06109623, 0.055709504, -1352708.9, -32079.254, 0.00000004774233, 9.999608, 9.9999 
1.1651466e+3, 1.7524217e+2, -1247491.9, -1243963.6, -18260.828, -0.053845532, 0.05667564, -1227381.9, -4750.4634, 0.0, 9.99988, 9.999926 
1.1651252e+3, 1.8524182e+2, -1140218.8, -1173675.5, -37285.832, -0.042904556, 0.045863997, -1116080.6, 8554.445, 0.0, 10.000081, 9.999639 
1.1651036e+3, 1.9524124e+2, -1019376.6, -1061859.0, -30272.617, -0.03554521, 0.023418, -1003636.44, 23003.455, 0.0, 10.000226, 9.999663 
1.16508156e+3, 2.0524083e+2, -917492.1, -979028.44, -48460.992, -0.042709596, 0.026006361, -890856.94, 37786.707, 0.0, 10.000326, 9.999512 
1.16505906e+3, 2.1524057e+2, -809191.3, -873930.8, -57043.645, -0.060635198, 0.046524666, -775973.1, 54673.13, 0.0, 10.000387, 9.999531 
1.16503686e+3, 2.2523986e+2, -737491.0, -849179.0, -52155.0, -0.06611066, 0.05193799, -716923.7, 15729.617, 0.0, 10.000468, 9.998989 
1.1650149e+3, 2.3523875e+2, -623568.3, -740742.2, -45038.797, -0.06089252, 0.041337434, -608257.2, 26406.832, 0.0, 10.000566, 9.999013 
1.1649929e+3, 2.4523754e+2, -519543.9, -668479.9, -44601.09, -0.051590543, 0.03679696, -507209.0, 29467.088, 0.0, 10.000731, 9.998756 
1.16497084e+3, 2.552363e+2, -386405.97, -550897.5, -45079.977, -0.03844575, 0.033823628, -374861.7, 63827.535, 0.0, 10.00096, 9.99878 
1.16494864e+3, 2.6523498e+2, -284112.97, -484206.22, -57231.242, -0.02757947, 0.044394072, -268900.13, 71802.766, 0.0, 10.001134, 9.998482 
1.1649263e+3, 2.752337e+2, -166320.42, -373914.84, -58659.59, -0.019409727, 0.06388332, -150891.77, 91825.19, 0.0, 10.001258, 9.998507 
1.1649043e+3, 2.8523234e+2, -71812.06, -319202.47, -21318.27, -0.022598462, 0.097760566, -69988.45, 74742.914, 0.0, 10.001413, 9.998135 
1.1648827e+3, 2.9523093e+2, 54482.76, -205096.7, -19945.668, -0.034802794, 0.14285263, 56006.41, 102752.29, 0.0, 10.001596, 9.998157 
1.1648617e+3, 3.052281e+2, 136147.42, -127843.57, 5909.858, -0.03581902, 0.045141786, 136279.66, 136279.66, 0.0, 10.001769, 9.99827 
1.1648412e+3, 3.152274e+2, 194564.22, -44805.734, -8076.196, -0.023412216, 0.14212067, 194836.39, 194836.39, 0.0, 10.001933, 9.998761 
1.17525086e+3, 1.2526056e+2, -1885813.4, -1727106.9, 13648.009, -0.009971868, -0.012463892, -1725941.9, -13494.553, 0.0015891484, 9.998527, 10.000627 
1.1752296e+3, 1.3526161e+2, -1700935.8, -1587423.9, -1913.9542, -0.0847016, 0.031428725, -1587391.6, 27045.977, 0.0008411648, 9.999118, 10.000631 
1.1752102e+3, 1.4526159e+2, -1575511.1, -1505610.0, -13200.032, 0.051776838, -0.018493623, -1503200.4, 13237.901, 0.0002831922, 9.999434, 10.000363 
1.17518835e+3, 1.5526235e+2, -1473196.5, -1404876.6, -13991.812, -0.04158947, 0.021359915, -1402122.1, 16308.975, 0.000036181405, 9.999461, 10.000369 
1.1751671e+3, 1.652627e+2, -1381235.0, -1355076.6, -11271.711, -0.07684064, 0.04190047, -1350889.8, -30461.256, 0.00000010132158, 9.999615, 9.999965 
1.1751466e+3, 1.752626e+2, -1242215.9, -1234005.8, -9143.222, -0.038865626, 0.03529433, -1228088.4, -5658.074, 0.0, 9.999882, 9.999994 
1.1751255e+3, 1.8526246e+2, -1126821.5, -1146569.1, -32884.08, -0.03203326, 0.032057315, -1102360.9, 22071.02, 0.0, 10.000082, 9.9998255 
1.1751035e+3, 1.9526228e+2, -1006552.7, -1036010.2, -25788.967, -0.060750663, 0.031113364, -991582.9, 34850.023, 0.0, 10.000227, 9.999842 
1.1750815e+3, 2.0526189e+2, -933440.7, -1013241.4, -46964.89, -0.06817057, 0.039404705, -911715.25, 16721.688, 0.0, 10.000328, 9.999276 
1.1750596e+3, 2.1526131e+2, -824181.0, -906359.3, -55190.67, -0.053685274, 0.050949786, -796463.7, 33980.004, 0.0, 10.000391, 9.999308 
1.1750375e+3, 2.252605e+2, -723205.4, -820870.6, -48829.063, -0.049544115, 0.049468756, -702980.75, 29470.959, 0.0, 10.000472, 9.999183 
1.1750155e+3, 2.3525953e+2, -609362.4, -712674.25, -41344.797, -0.0553313, 0.033307895, -594853.9, 39606.82, 0.0, 10.000569, 9.999205 
1.1749935e+3, 2.4525853e+2, -518140.66, -666951.4, -36025.504, -0.05536553, 0.03791047, -509878.03, 26592.74, 0.0, 10.000735, 9.998766 
1.1749717e+3, 2.5525752e+2, -385294.3, -549548.5, -36235.184, -0.0502355, 0.057542212, -377655.9, 60825.832, 0.0, 10.000962, 9.99879 
1.17494956e+3, 2.652562e+2, -287049.0, -491285.3, -52056.734, -0.04501033, 0.06828246, -274545.94, 65949.76, 0.0, 10.001136, 9.998433 
1.1749273e+3, 2.7525464e+2, -168718.28, -380503.13, -53057.445, -0.039783206, 0.06725675, -156169.6, 86342.76, 0.0, 10.001263, 9.99846 
1.1749055e+3, 2.8525317e+2, -69239.734, -315401.56, -14058.867, -0.03482584, 0.09237786, -68439.41, 76088.12, 0.0, 10.001418, 9.998159 
1.1748843e+3, 2.952518e+2, 55973.14, -202581.6, -12709.377, -0.029701391, 0.13918765, 56596.375, 103137.52, 0.0, 10.001596, 9.998175 
1.1748634e+3, 3.0524886e+2, 119363.69, -163000.73, 12818.055, -0.031233348, 0.038422044, 119944.375, 119944.375, 0.0, 10.001768, 9.99803 
1.174843e+3, 3.1524807e+2, 186836.64, -62663.586, -966.6871, -0.033004254, 0.15565139, 186840.38, 186840.38, 0.0, 10.001939, 9.998637 
1.1852496e+3, 1.2528054e+2, -1834167.9, -1700003.5, 9917.495, 0.0042631226, -0.032038655, -1699274.4, 12976.043, 0.0017358299, 9.998874, 10.000645 
1.1852286e+3, 1.3528165e+2, -1703995.5, -1587568.3, -5746.293, -0.08783484, 0.017818935, -1587285.3, 26954.314, 0.00092824973, 9.999094, 10.00064 
1.18520945e+3, 1.4528167e+2, -1591534.4, -1520054.4, -32828.793, 0.043172307, -0.023492562, -1507265.3, 8974.818, 0.0003198089, 9.999356, 10.0003 
1.1851878e+3, 1.5528242e+2, -1457969.0, -1403628.5, -38406.77, -0.053412583, 0.020041922, -1383753.0, 34481.223, 0.0000435681, 9.999594, 10.000312 
1.1851666e+3, 1.6528279e+2, -1357666.6, -1328128.8, -34849.906, -0.08501402, 0.03934701, -1305047.5, 15183.838, 0.00000019883093, 9.999711, 10.000102 
1.1851465e+3, 1.7528279e+2, -1254790.9, -1224454.1, -27836.121, -0.035748973, 0.026824772, -1207921.9, 14309.814, 0.0, 9.99973, 10.000132 
1.1851253e+3, 1.8528278e+2, -1158154.5, -1155368.4, -53298.758, -0.029878857, 0.027767818, -1103444.5, 20787.482, 0.0, 9.999842, 9.999879 
1.1851035e+3, 1.952828e+2, -1031018.9, -1041375.2, -56555.043, -0.071088046, 0.039859757, -979405.44, 46826.395, 0.0, 10.000033, 9.999897 
1.1850817e+3, 2.0528245e+2, -946301.56, -1013990.4, -73296.22, -0.08189541, 0.047689337, -899413.25, 28822.43, 0.0, 10.000218, 9.999323 
1.18505985e+3, 2.1528178e+2, -819517.2, -898511.75, -61111.93, -0.06254721, 0.047114722, -786249.75, 43993.23, 0.0, 10.000401, 9.999355 
1.18503794e+3, 2.2528104e+2, -712477.94, -808703.25, -52151.992, -0.055475548, 0.045424804, -689635.25, 42615.348, 0.0, 10.000518, 9.999243 
1.18501596e+3, 2.3528025e+2, -604283.1, -703296.94, -55230.492, -0.06051572, 0.03932937, -579619.0, 54639.293, 0.0, 10.000576, 9.999266 
1.1849943e+3, 2.4527936e+2, -522035.47, -661318.7, -49048.895, -0.05743967, 0.048547942, -506496.4, 29770.97, 0.0, 10.000678, 9.998832 
1.1849725e+3, 2.552784e+2, -401763.44, -549999.75, -45765.395, -0.046601444, 0.068027504, -388772.63, 49504.86, 0.0, 10.000819, 9.998855 
1.18495055e+3, 2.6527706e+2, -301791.34, -497770.03, -57214.184, -0.04517603, 0.07525646, -286310.97, 53980.46, 0.0, 10.001035, 9.998436 
1.18492834e+3, 2.7527544e+2, -161080.23, -376440.84, -54929.816, -0.052922204, 0.067476906, -147879.06, 94429.7, 0.0, 10.001316, 9.998461 
1.1849069e+3, 2.85274e+2, -57399.2, -310907.88, -18036.86, -0.04426331, 0.092571065, -56122.33, 88201.68, 0.0, 10.001507, 9.998146 
1.184886e+3, 2.9527268e+2, 58398.793, -202642.16, -19486.012, -0.019576525, 0.14556405, 59845.355, 106182.48, 0.0, 10.001621, 9.998161 
1.1848652e+3, 3.052696e+2, 116143.164, -166183.17, 13745.476, -0.020554416, 0.03306667, 116810.805, 116810.805, 0.0, 10.001755, 9.998013 
1.1848448e+3, 3.152687e+2, 187249.28, -50074.063, 15162.9795, -0.037397165, 0.1417514, 188214.14, 188214.14, 0.0, 10.00189, 9.998745 
1.1952489e+3, 1.2530051e+2, -1840417.1, -1714724.0, 7269.594, 0.04013199, -0.040832605, -1714305.0, -2251.5542, 0.0018895771, 9.998879, 10.000542 
1.1952274e+3, 1.3530156e+2, -1710040.6, -1602503.6, 2052.54, -0.11545603, 0.013078427, -1602464.4, 11578.732, 0.0010202293, 9.999103, 10.000535 
1.19520836e+3, 1.4530158e+2, -1598433.3, -1536599.1, -24511.893, 0.0029569524, -0.019384474, -1528061.1, -12016.684, 0.00035921202, 9.999363, 10.000185 
1.1951873e+3, 1.5530223e+2, -1465127.9, -1419393.0, -30823.04, -0.064620174, 0.02785311, -1403881.0, 14159.66, 0.00005194898, 9.999596, 10.000204 
1.1951664e+3, 1.6530266e+2, -1343428.5, -1299326.0, -35071.754, -0.08673572, 0.04752759, -1279949.1, 40088.25, 0.00000035173326, 9.999712, 10.0003 
1.19514614e+3, 1.753028e+2, -1240519.8, -1196212.6, -27769.02, -0.044334523, 0.030635023, -1182842.9, 39192.133, 0.0, 9.999734, 10.000324 
1.1951251e+3, 1.8530285e+2, -1163091.4, -1167057.5, -46948.426, -0.036393348, 0.03231845, -1118084.1, 5950.695, 0.0, 9.9998455, 9.999798 
1.1951036e+3, 1.9530286e+2, -1035290.8, -1051239.6, -50053.902, -0.06734016, 0.0497183, -992580.1, 33456.055, 0.0, 10.000035, 9.999829 
1.1950818e+3, 2.0530257e+2, -923728.94, -968114.1, -66943.625, -0.08468975, 0.05142083, -875395.25, 52643.99, 0.0, 10.00022, 9.999639 
1.19505994e+3, 2.1530207e+2, -797532.94, -854067.25, -54797.484, -0.08692426, 0.034933094, -764141.4, 65902.375, 0.0, 10.000403, 9.9996605 
1.1950382e+3, 2.2530149e+2, -717580.7, -820529.25, -50292.86, -0.08366949, 0.039558712, -697089.9, 34959.824, 0.0, 10.000521, 9.999161 
1.19501635e+3, 2.3530087e+2, -608990.0, -714231.25, -52997.246, -0.07674223, 0.05962882, -586927.0, 47129.68, 0.0, 10.00058, 9.999189 
1.1949949e+3, 2.4530001e+2, -513455.25, -644763.6, -43705.43, -0.058154922, 0.068956986, -500238.4, 35827.37, 0.0, 10.000681, 9.998944 
1.1949735e+3, 2.552989e+2, -393205.4, -533572.25, -39948.11, -0.028392494, 0.06479279, -382632.63, 55444.0, 0.0, 10.000823, 9.998966 
1.19495176e+3, 2.6529762e+2, -298161.38, -491346.8, -46145.35, -0.02913478, 0.064563215, -287704.84, 52385.48, 0.0, 10.001038, 9.99848 
1.1949297e+3, 2.7529612e+2, -157785.36, -370467.38, -43940.164, -0.057915762, 0.06415057, -149064.88, 93041.6, 0.0, 10.001318, 9.998503 
1.1949083e+3, 2.852947e+2, -60802.867, -318809.75, -12999.4795, -0.050155208, 0.098471425, -60149.555, 83971.555, 0.0, 10.001508, 9.998093 
1.1948877e+3, 2.9529345e+2, 55477.457, -209802.89, -14000.588, -0.008539304, 0.16243735, 56214.313, 102348.43, 0.0, 10.001623, 9.998112 
1.1948672e+3, 3.0529025e+2, 130223.27, -137847.83, 19699.703, -0.007896431, 0.028501108, 131663.2, 131663.2, 0.0, 10.001757, 9.998208 
1.1948468e+3, 3.1528923e+2, 210167.75, -2819.4048, 20999.611, -0.034026798, 0.102257915, 212218.47, 212218.47, 0.0, 10.00189, 9.999071 
1.2052478e+3, 1.2532017e+2, -1804517.3, -1700386.3, -22557.95, 0.033975087, -0.03404068, -1695709.5, 16151.191, 0.0020512166, 9.999141, 10.000512 
1.20522656e+3, 1.35321e+2, -1669777.6, -1584829.8, -12465.538, -0.12257942, 0.0006366118, -1583038.3, 30813.863, 0.0011174043, 9.999388, 10.000517 
1.2052078e+3, 1.4532101e+2, -1576804.9, -1528571.8, -37837.18, -0.0042123594, -0.02981453, -1507819.0, 8034.5107, 0.00040150605, 9.999524, 10.000161 
1.2051866e+3, 1.5532175e+2, -1478963.4, -1427875.3, -38895.227, -0.06912049, 0.028048059, -1406886.1, 10963.442, 0.000061428385, 9.999512, 10.000185 
1.2051659e+3, 1.6532226e+2, -1353461.3, -1289331.0, -43756.355, -0.09304682, 0.051497616, -1267148.6, 52696.7, 0.00000057087306, 9.999582, 10.00043 
1.20514564e+3, 1.7532255e+2, -1233092.9, -1178444.0, -42156.53, -0.05582218, 0.032725077, -1155531.0, 66310.516, 0.0, 9.999726, 10.000449 
1.20512486e+3, 1.8532263e+2, -1163446.5, -1159845.4, -57419.313, -0.046840116, 0.030207423, -1104198.4, 19642.377, 0.0, 9.999813, 9.999863 
1.20510355e+3, 1.9532263e+2, -1057622.3, -1054162.1, -50547.234, -0.07158201, 0.041311637, -1005315.3, 20527.027, 0.0, 9.99985, 9.999897 
1.20508194e+3, 2.0532247e+2, -946994.06, -959151.3, -65199.098, -0.08724481, 0.043467492, -887590.8, 40253.297, 0.0, 9.999976, 9.999817 
1.2050602e+3, 2.1532221e+2, -818303.25, -844446.44, -63720.96, -0.091897815, 0.033031523, -766326.94, 63519.05, 0.0, 10.000178, 9.999834 
1.2050386e+3, 2.2532175e+2, -734572.44, -824830.56, -61827.8, -0.089377806, 0.03950004, -703155.4, 28695.465, 0.0, 10.000389, 9.999194 
1.2050168e+3, 2.3532115e+2, -602348.44, -706745.4, -56540.44, -0.081537835, 0.058237813, -577595.6, 56262.363, 0.0, 10.000608, 9.999226 
1.2049955e+3, 2.4532035e+2, -496028.88, -627655.94, -45710.13, -0.064505555, 0.06719273, -481712.28, 54154.367, 0.0, 10.000766, 9.999021 
1.2049743e+3, 2.5531933e+2, -381387.53, -519087.03, -45133.93, -0.03896224, 0.06317869, -367912.56, 69963.97, 0.0, 10.000869, 9.999043 
1.20495275e+3, 2.653181e+2, -290571.22, -483294.4, -47305.43, -0.033983536, 0.063331276, -279585.88, 60303.7, 0.0, 10.001073, 9.998517 
1.2049311e+3, 2.7531663e+2, -147966.31, -361322.16, -45978.234, -0.047545623, 0.063382305, -138479.8, 103425.54, 0.0, 10.0013685, 9.99854 
1.2049099e+3, 2.8531528e+2, -50975.434, -317156.34, -20384.37, -0.041441187, 0.10292599, -49423.43, 94496.27, 0.0, 10.001591, 9.998062 
1.2048893e+3, 2.9531407e+2, 70590.4, -205100.33, -20406.063, -0.017171223, 0.17598186, 72092.63, 118025.17, 0.0, 10.001741, 9.998086 
1.2048689e+3, 3.0531082e+2, 140073.89, -133231.73, 4397.5527, -0.013175161, 0.036294766, 140144.64, 140144.64, 0.0, 10.001828, 9.998203 
1.2048487e+3, 3.153097e+2, 215076.63, 15434.846, -9226.108, -0.013804635, 0.100566365, 215502.1, 215502.1, 0.0, 10.001858, 9.99921 
1.2152465e+3, 1.253396e+2, -1801627.9, -1696948.6, -24609.564, -0.009755482, -0.01297015, -1691451.6, 20219.268, 0.0022208358, 9.999149, 10.000533 
1.21522605e+3, 1.3534008e+2, -1665863.8, -1578000.1, -4002.4368, -0.111283235, -0.01905966, -1577818.1, 35847.01, 0.0012198023, 9.999391, 10.000564 
1.2152075e+3, 1.453401e+2, -1572360.5, -1520492.6, -38753.36, 0.017645728, -0.05338464, -1499796.1, 15869.839, 0.0004465886, 9.999527, 10.0002165 
1.2151862e+3, 1.5534106e+2, -1474068.3, -1419498.8, -39748.66, -0.06802, 0.021232393, -1398571.3, 19088.418, 0.00007201624, 9.999517, 10.000241 
1.2151654e+3, 1.653417e+2, -1349081.8, -1281868.1, -39081.543, -0.10399416, 0.051379796, -1263931.0, 55723.465, 0.0000008702971, 9.999587, 10.000481 
1.2151453e+3, 1.7534202e+2, -1228964.6, -1170575.5, -37491.094, -0.07014644, 0.03326732, -1152252.6, 69397.74, 0.0, 9.999727, 10.000504 
1.2151245e+3, 1.8534216e+2, -1149592.5, -1131823.1, -56675.97, -0.0613494, 0.021999719, -1083339.8, 40309.46, 0.0, 9.999814, 10.000055 
1.2151031e+3, 1.9534218e+2, -1043573.4, -1026451.5, -49497.88, -0.083736114, 0.015075303, -984779.7, 40870.34, 0.0, 9.999854, 10.000087 
1.2150818e+3, 2.053422e+2, -943656.4, -953823.75, -58262.164, -0.08992657, 0.023904204, -890256.56, 37393.582, 0.0, 9.999981, 9.999852 
1.2150604e+3, 2.1534225e+2, -814885.5, -838477.5, -56531.836, -0.07839764, 0.041639525, -768932.06, 60717.395, 0.0, 10.00018, 9.999875 
1.21503904e+3, 2.2534186e+2, -724297.4, -804644.8, -53882.586, -0.073511586, 0.045509897, -697260.5, 34393.26, 0.0, 10.000392, 9.999332 
1.2150176e+3, 2.3534112e+2, -592065.06, -686914.94, -48419.69, -0.07535942, 0.03498601, -571713.94, 61948.125, 0.0, 10.000613, 9.999361 
1.2149961e+3, 2.4534036e+2, -493035.63, -622871.3, -41779.5, -0.0770904, 0.04301103, -480753.38, 54916.574, 0.0, 10.00077, 9.999052 
1.21497475e+3, 2.5533965e+2, -378501.25, -514298.34, -40575.168, -0.078496784, 0.06313742, -367301.4, 70375.914, 0.0, 10.000872, 9.999076 
1.2149536e+3, 2.653385e+2, -288314.97, -479827.56, -35485.594, -0.059782133, 0.071403705, -281951.25, 57738.16, 0.0, 10.001076, 9.998541 
1.21493265e+3, 2.75337e+2, -145841.4, -358160.3, -34034.19, -0.02414351, 0.06498622, -140519.22, 101186.414, 0.0, 10.001371, 9.998561 
1.2149117e+3, 2.8533566e+2, -51806.066, -319909.88, -13952.689, -0.02089511, 0.10544172, -51081.895, 92638.305, 0.0, 10.001594, 9.998043 
1.2148908e+3, 2.9533455e+2, 69664.59, -208296.14, -14393.112, -0.044607427, 0.18517558, 70407.9, 116140.95, 0.0, 10.001745, 9.998063 
1.2148705e+3, 3.0533123e+2, 126124.25, -163350.88, 6283.1265, -0.03514982, 0.05649981, 126260.56, 126260.56, 0.0, 10.00183, 9.997996 
1.2148509e+3, 3.1533012e+2, 211206.23, 7438.9307, -7143.8564, 0.018956678, 0.1423085, 211456.38, 211456.38, 0.0, 10.001856, 9.999158 
1.2252455e+3, 1.2535883e+2, -1774004.5, -1690278.9, -30085.732, -0.032832947, -0.0044697337, -1680589.3, 30893.744, 0.0023973119, 9.999371, 10.000471 
1.2252253e+3, 1.3535929e+2, -1665127.6, -1579211.0, -4469.5083, -0.11619243, -0.010338018, -1578979.1, 34498.766, 0.0013268631, 9.999407, 10.0005455 
1.225207e+3, 1.4535937e+2, -1561929.5, -1495038.3, -40550.83, 0.019008406, -0.048254315, -1475919.8, 39557.99, 0.00049408624, 9.999515, 10.000395 
1.2251858e+3, 1.5536036e+2, -1447315.5, -1387228.0, -34503.24, -0.062135935, 0.011088667, -1371521.4, 45948.61, 0.000083587045, 9.9996195, 10.000412 
1.2251649e+3, 1.6536105e+2, -1345719.1, -1278820.4, -33032.51, -0.102279305, 0.038642418, -1265259.1, 54204.797, 0.0000012652538, 9.999606, 10.00049 
1.2251448e+3, 1.7536148e+2, -1261706.1, -1184181.8, -34615.69, -0.079202935, 0.029749604, -1170975.3, 50484.402, 0.0, 9.9994955, 10.000521 
1.225124e+3, 1.8536171e+2, -1179840.4, -1134311.8, -54635.766, -0.07256945, 0.021819355, -1097887.5, 25570.186, 0.0, 9.9995575, 10.000161 
1.2251029e+3, 1.9536181e+2, -1049241.4, -1017238.7, -54245.55, -0.09021095, 0.012772041, -976683.7, 48773.816, 0.0, 9.999766, 10.000191 
1.2250817e+3, 2.0536195e+2, -951354.8, -951406.8, -65295.09, -0.09024638, 0.02537515, -886085.75, 41370.86, 0.0, 9.999904, 9.999905 
1.2250605e+3, 2.1536215e+2, -841037.2, -844557.3, -62795.97, -0.07115159, 0.052517217, -779976.6, 49478.266, 0.0, 9.999975, 9.999931 
1.2250393e+3, 2.2536181e+2, -754091.8, -807467.44, -58018.504, -0.06928225, 0.05400937, -716917.4, 14541.279, 0.0, 10.000139, 9.9994335 
1.225018e+3, 2.3536104e+2, -618579.94, -688123.1, -55915.594, -0.08372662, 0.030710809, -587506.1, 45960.734, 0.0, 10.000382, 9.999463 
1.2249967e+3, 2.4536034e+2, -505059.75, -623467.5, -51272.04, -0.08954107, 0.037290804, -485944.25, 49529.766, 0.0, 10.000667, 9.999097 
1.2249754e+3, 2.5535977e+2, -358494.22, -499449.78, -49753.02, -0.08753502, 0.06576332, -342702.2, 94777.92, 0.0, 10.000989, 9.99912 
1.2249546e+3, 2.653587e+2, -270924.84, -471814.5, -46181.465, -0.06571052, 0.07689297, -260817.0, 78674.74, 0.0, 10.0012, 9.998535 
1.2249339e+3, 2.7535716e+2, -155178.95, -363030.94, -47687.3, -0.027483108, 0.068726845, -144760.34, 96747.81, 0.0, 10.001311, 9.998554 
1.2249132e+3, 2.8535578e+2, -63706.14, -328179.84, -28055.98, -0.022657908, 0.10745872, -60762.66, 82760.48, 0.0, 10.001525, 9.998017 
1.22489244e+3, 2.9535457e+2, 79633.766, -206821.25, -29155.082, -0.04519065, 0.1852701, 82571.02, 128107.64, 0.0, 10.00183, 9.998032 
1.2248725e+3, 3.053513e+2, 150954.42, -172640.45, -12611.157, -0.03276985, 0.06631206, 151445.16, 151445.16, 0.0, 10.002094, 9.997805 
1.2248532e+3, 3.1535012e+2, 273819.47, 33924.15, -26347.396, 0.029421186, 0.16672511, 276679.1, 276679.1, 0.0, 10.002303, 9.999123 
1.2352449e+3, 1.2537801e+2, -1783665.4, -1711079.5, -39714.152, -0.038565055, -0.006133915, -1693572.9, 17722.87, 0.0025786909, 9.999371, 10.000329 
1.2352246e+3, 1.353787e+2, -1670058.0, -1591004.9, -2794.006, -0.13619463, 0.02437509, -1590906.3, 22383.191, 0.0014374945, 9.999411, 10.000464 
1.2352063e+3, 1.4537886e+2, -1541695.4, -1454728.3, -36807.164, 0.001550826, -0.016952142, -1441241.8, 74046.164, 0.00054345187, 9.999518, 10.000671 
1.2351856e+3, 1.5537968e+2, -1428397.6, -1348998.8, -31810.594, -0.05194402, -0.0021331592, -1337826.3, 79453.2, 0.00009593835, 9.999621, 10.000674 
1.2351647e+3, 1.6538039e+2, -1347583.6, -1283956.8, -38192.863, -0.08932201, 0.014336565, -1266063.1, 53209.83, 0.0000017602412, 9.999609, 10.000455 
1.23514414e+3, 1.7538093e+2, -1262829.1, -1188652.9, -39176.125, -0.08381026, 0.022122795, -1171793.9, 49474.84, 0.0, 9.999502, 10.000487 
1.2351235e+3, 1.8538132e+2, -1177609.1, -1131815.3, -47602.617, -0.081237525, 0.02903461, -1101889.1, 21376.947, 0.0, 9.999564, 10.000175 
1.23510264e+3, 1.9538157e+2, -1047297.06, -1014459.25, -47129.41, -0.0915777, 0.03388274, -980970.6, 44293.82, 0.0, 9.999769, 10.00021 
1.2350816e+3, 2.0538177e+2, -946598.5, -942716.06, -63008.082, -0.08864411, 0.04766281, -881619.25, 45643.91, 0.0, 9.999907, 9.999965 
1.23506054e+3, 2.1538192e+2, -835895.6, -835758.0, -60217.59, -0.07024495, 0.06507006, -775609.2, 53652.832, 0.0, 9.999981, 9.9999895 
1.23503946e+3, 2.2538163e+2, -748980.25, -798729.2, -49133.734, -0.07688351, 0.06448503, -718783.25, 12482.083, 0.0, 10.000145, 9.999492 
1.2350181e+3, 2.3538095e+2, -613843.44, -679679.94, -46630.402, -0.10668142, 0.045373365, -589682.75, 43589.58, 0.0, 10.000386, 9.99952 
1.2349972e+3, 2.453803e+2, -500959.38, -616177.2, -39007.934, -0.1019592, 0.050054908, -488995.25, 46283.65, 0.0, 10.0006695, 9.999146 
1.23497665e+3, 2.5537968e+2, -354795.7, -493052.78, -37353.605, -0.06697529, 0.071145326, -345349.13, 91935.93, 0.0, 10.000992, 9.999164 
1.2349559e+3, 2.6537853e+2, -273553.47, -478579.78, -41311.26, -0.052944615, 0.0799622, -265542.56, 73754.27, 0.0, 10.001203, 9.998488 
1.2349349e+3, 2.75377e+2, -157701.45, -369491.94, -42470.543, -0.057520945, 0.07415163, -149502.22, 91811.14, 0.0, 10.001314, 9.99851 
1.2349144e+3, 2.8537554e+2, -65960.055, -333822.84, -15865.004, -0.04654463, 0.1081215, -65023.67, 78305.445, 0.0, 10.001527, 9.997979 
1.23489454e+3, 2.9537424e+2, 76659.56, -213645.73, -16749.389, -0.02113912, 0.175303, 77622.734, 122966.63, 0.0, 10.00183, 9.997985 
1.2348747e+3, 3.0537087e+2, 137574.81, -201551.83, -3622.3398, -0.00879144, 0.06475488, 137613.5, 137613.5, 0.0, 10.002097, 9.997606 
1.23485535e+3, 3.1536964e+2, 272379.5, 28418.418, -17386.523, 0.0167798, 0.17670886, 273612.38, 273612.38, 0.0, 10.002313, 9.999083 
1.2452443e+3, 1.2539722e+2, -1791777.4, -1720829.9, -43069.348, -0.028373115, 0.0005168394, -1700506.1, 10602.167, 0.0027632532, 9.999344, 10.000274 
1.245224e+3, 1.3539806e+2, -1660083.0, -1586026.0, 9941.464, -0.1397729, 0.045022123, -1584714.8, 28386.592, 0.0015506876, 9.99948, 10.0004635 
1.2452057e+3, 1.4539826e+2, -1526869.4, -1432818.3, -29395.479, -0.012003368, 0.0010692937, -1424386.6, 90712.336, 0.00059425965, 9.999559, 10.000801 
1.24518506e+3, 1.5539896e+2, -1433316.6, -1337101.1, -36069.84, -0.054757938, -0.0060965726, -1325080.8, 92009.35, 0.00010892868, 9.99953, 10.000798 
1.2451642e+3, 1.6539967e+2, -1357106.4, -1292863.5, -49209.82, -0.08906399, 0.00645462, -1266219.4, 52864.22, 0.0000023447426, 9.999565, 10.000413 
1.2451437e+3, 1.7540032e+2, -1242976.8, -1182802.8, -51014.594, -0.086771354, 0.02616833, -1153663.8, 67415.55, 0.0, 9.999658, 10.000452 
1.2451231e+3, 1.8540078e+2, -1152685.1, -1104005.9, -52397.652, -0.08143599, 0.038355615, -1070570.6, 52505.09, 0.0, 9.999669, 10.000315 
1.2451024e+3, 1.9540118e+2, -1061605.4, -1006098.1, -43570.14, -0.08423725, 0.043126833, -982193.0, 42879.152, 0.0, 9.999608, 10.000343 
1.2450814e+3, 2.0540138e+2, -968528.25, -953484.44, -53325.68, -0.084968194, 0.05137089, -907152.75, 19917.951, 0.0, 9.999759, 9.99996 
1.2450604e+3, 2.1540144e+2, -820353.9, -828108.06, -55754.375, -0.0799915, 0.05845787, -768341.94, 60728.895, 0.0, 10.00009, 9.999989 
1.24503955e+3, 2.254012e+2, -722466.06, -781127.9, -48730.67, -0.0854614, 0.06133617, -694920.06, 36153.637, 0.0, 10.000309, 9.999533 
1.24501854e+3, 2.354007e+2, -604282.5, -670097.1, -47880.734, -0.101510376, 0.05722877, -579091.1, 53987.55, 0.0, 10.000433, 9.999562 
1.2449979e+3, 2.4540007e+2, -510356.84, -621466.2, -40495.664, -0.09404522, 0.06100646, -497164.0, 37921.105, 0.0, 10.00061, 9.999137 
1.2449776e+3, 2.553993e+2, -378685.8, -505193.97, -43977.973, -0.06574204, 0.06779366, -364900.03, 72192.56, 0.0, 10.000833, 9.999155 
1.244957e+3, 2.6539811e+2, -283165.28, -482967.97, -49343.945, -0.054730635, 0.06907641, -271643.53, 67461.34, 0.0, 10.001138, 9.998487 
1.2449363e+3, 2.7539653e+2, -128511.98, -355020.0, -47331.4, -0.05921978, 0.061216135, -119019.37, 122101.84, 0.0, 10.001515, 9.998511 
1.2449162e+3, 2.853951e+2, -33952.86, -314525.6, -18824.916, -0.046036303, 0.09326279, -32695.443, 110441.31, 0.0, 10.001733, 9.998012 
1.24489635e+3, 2.9539376e+2, 74346.43, -211274.58, -15273.61, -0.016599538, 0.15867025, 75160.86, 120312.125, 0.0, 10.001802, 9.9980135 
1.2448768e+3, 3.0539045e+2, 117258.64, -224272.64, 7043.9834, -0.0066424194, 0.05523652, 117403.86, 117403.86, 0.0, 10.002015, 9.997488 
1.2448575e+3, 3.15389e+2, 279701.5, 36190.973, -352.31027, 0.01499218, 0.15981473, 279702.0, 279702.0, 0.0, 10.002346, 9.999118 
1.2552437e+3, 1.2541659e+2, -1790150.5, -1720092.1, -48590.15, -0.0038287237, 0.015430051, -1695221.0, 15698.311, 0.002950289, 9.999353, 10.000276 
1.2552235e+3, 1.3541742e+2, -1655271.4, -1577733.3, 14996.696, -0.12870775, 0.052802652, -1574933.8, 37978.688, 0.0016660808, 9.999485, 10.00052 
1.2552051e+3, 1.4541762e+2, -1526824.6, -1434330.4, -30701.123, -0.023021724, 0.0068595265, -1425067.6, 89842.41, 0.00064646767, 9.999563, 10.00079 
1.2551843e+3, 1.5541832e+2, -1433143.3, -1338798.4, -37732.21, -0.07008476, -0.00174596, -1325564.1, 91337.01, 0.00012257921, 9.999536, 10.000786 
1.2551637e+3, 1.6541901e+2, -1360313.9, -1301314.3, -46579.04, -0.1009835, 0.013726262, -1275679.3, 43215.582, 0.0000030126384, 9.999571, 10.000354 
1.2551433e+3, 1.7541966e+2, -1245381.1, -1189220.9, -48216.164, -0.08833486, 0.041534025, -1161504.1, 59386.816, 0.0, 9.9996605, 10.000407 
1.2551229e+3, 1.8542022e+2, -1134705.3, -1068238.4, -55201.73, -0.07395115, 0.049910493, -1037038.2, 85848.0, 0.0, 9.999674, 10.00056 
1.255102e+3, 1.954207e+2, -1044172.25, -972006.3, -45910.984, -0.06888291, 0.040338833, -949695.8, 75184.58, 0.0, 9.999615, 10.000576 
1.2550813e+3, 2.0542085e+2, -972597.7, -963972.4, -41503.79, -0.07985109, 0.0364403, -926557.75, 321.20645, 0.0, 9.999765, 9.999886 
1.2550603e+3, 2.1542074e+2, -824481.0, -838146.75, -43956.027, -0.10056105, 0.033436872, -786829.94, 42051.156, 0.0, 10.000093, 9.999919 
1.2550397e+3, 2.2542056e+2, -720609.5, -778496.1, -44383.2, -0.095117666, 0.04532813, -696566.2, 34317.387, 0.0, 10.000312, 9.999551 
1.2550193e+3, 2.3542035e+2, -602445.56, -667767.25, -43051.035, -0.068808176, 0.06632156, -581068.25, 51817.79, 0.0, 10.000437, 9.9995775 
1.2549987e+3, 2.4541967e+2, -514973.88, -632582.1, -31924.26, -0.06659011, 0.069862366, -506866.97, 28025.816, 0.0, 10.000614, 9.99906 
1.2549783e+3, 2.554186e+2, -383006.44, -515483.03, -34892.55, -0.084005065, 0.055340413, -374378.2, 62524.77, 0.0, 10.000836, 9.999084 
1.254958e+3, 2.6541728e+2, -279730.06, -477123.13, -34470.676, -0.07095312, 0.04361225, -273883.63, 65032.61, 0.0, 10.001141, 9.998528 
1.2549381e+3, 2.754157e+2, -124952.17, -348935.06, -32536.885, -0.03336734, 0.029469652, -120321.445, 120610.7, 0.0, 10.001519, 9.998552 
1.2549181e+3, 2.854143e+2, -27174.813, -301701.2, -15274.408, -0.022318533, 0.06270659, -26327.574, 116618.984, 0.0, 10.001736, 9.998099 
1.254898e+3, 2.9541314e+2, 81115.42, -198618.13, -11357.942, -0.03181851, 0.13530664, 81575.83, 126535.15, 0.0, 10.001805, 9.9981 
1.2548786e+3, 3.0540988e+2, 115523.375, -228863.17, 20518.957, -0.02669793, 0.03709583, 116741.61, 116741.61, 0.0, 10.002017, 9.997457 
1.25486e+3, 3.154082e+2, 287586.25, 52630.67, 13495.844, 0.021584844, 0.11670302, 288358.9, 288358.9, 0.0, 10.002343, 9.999233 
1.2652433e+3, 1.25436e+2, -1752777.3, -1705602.1, -37097.156, -0.008967429, 0.012061565, -1685228.8, 25500.908, 0.003140056, 9.999625, 10.000243 
1.2652232e+3, 1.3543692e+2, -1640837.6, -1567758.6, 34249.426, -0.12083527, 0.056879748, -1554216.6, 58505.113, 0.0017839194, 9.999574, 10.000545 
1.2652047e+3, 1.4543712e+2, -1529716.9, -1447211.8, -17763.854, -0.023718216, 0.016164705, -1443549.6, 71169.73, 0.00070036505, 9.999596, 10.000685 
1.265184e+3, 1.5543777e+2, -1427685.6, -1347299.5, -32746.52, -0.07110282, 0.012749207, -1335648.4, 81063.234, 0.0001370497, 9.999623, 10.000684 
1.2651633e+3, 1.654384e+2, -1349636.0, -1288025.6, -39330.87, -0.099402145, 0.023567429, -1268872.0, 49833.68, 0.0000037895563, 9.999611, 10.000424 
1.265143e+3, 1.7543902e+2, -1254240.4, -1185258.9, -32208.207, -0.08167596, 0.03858495, -1172558.8, 48142.727, 0.0, 9.999568, 10.000478 
1.2651224e+3, 1.8543956e+2, -1140194.3, -1068145.4, -43242.656, -0.06853289, 0.043463703, -1047887.6, 74808.71, 0.0, 9.999627, 10.000581 
1.2651019e+3, 1.9544011e+2, -1020347.7, -958013.6, -50433.2, -0.07022927, 0.038040996, -929894.1, 94795.82, 0.0, 9.99977, 10.000596 
1.265081e+3, 2.0544028e+2, -955045.5, -954138.2, -44845.477, -0.07930252, 0.03380253, -909744.06, 16944.295, 0.0, 9.999883, 9.999896 
1.2650605e+3, 2.1544012e+2, -842897.06, -846095.06, -41945.16, -0.09078663, 0.026737267, -802520.44, 26170.025, 0.0, 9.999966, 9.999925 
1.26504e+3, 2.254399e+2, -747197.9, -799262.4, -43499.72, -0.083436, 0.038643707, -722535.94, 8157.426, 0.0, 10.000166, 9.999477 
1.2650198e+3, 2.3543967e+2, -603777.06, -676069.4, -49637.793, -0.061445285, 0.06326696, -578519.2, 54177.348, 0.0, 10.0004635, 9.999506 
1.2649995e+3, 2.4543893e+2, -501511.66, -628423.7, -39644.445, -0.061575726, 0.066662036, -490145.56, 44558.28, 0.0, 10.000719, 9.999037 
1.2649791e+3, 2.5543782e+2, -368867.47, -510283.06, -39110.047, -0.079923354, 0.048459157, -358771.88, 77942.55, 0.0, 10.000942, 9.999068 
1.2649593e+3, 2.654365e+2, -271438.72, -459660.47, -32189.814, -0.06682477, 0.032451726, -266085.84, 72641.24, 0.0, 10.001142, 9.998646 
1.2649395e+3, 2.7543497e+2, -146208.53, -346222.63, -25160.545, -0.028069973, 0.0139184445, -143092.05, 97649.4, 0.0, 10.001319, 9.998667 
1.2649196e+3, 2.854336e+2, -54768.78, -316204.38, -13006.861, -0.017046569, 0.04268422, -54123.26, 88632.33, 0.0, 10.001553, 9.998086 
1.2649e+3, 2.954324e+2, 84584.414, -197655.22, -16991.775, -0.027902626, 0.11048949, 85603.695, 130372.83, 0.0, 10.001834, 9.998092 
1.2648806e+3, 3.0542925e+2, 115806.03, -221345.61, 15123.145, -0.028974151, 0.022106614, 116483.02, 116483.02, 0.0, 10.001989, 9.99752 
1.2648621e+3, 3.1542745e+2, 255717.13, 59215.89, 14914.969, 0.013670053, 0.08493867, 256842.77, 256842.77, 0.0, 10.002031, 9.999427 
1.2752426e+3, 1.2545553e+2, -1757365.3, -1715382.4, -49356.027, -0.041261453, -0.0064124414, -1682739.4, 27798.611, 0.003333262, 9.999624, 10.000178 
1.2752227e+3, 1.3545664e+2, -1640201.5, -1568622.0, 32565.818, -0.11582492, 0.057217184, -1556023.4, 56504.867, 0.001904636, 9.99958, 10.000537 
1.2752044e+3, 1.4545685e+2, -1542619.9, -1476648.6, -17097.852, -0.015151429, 0.028462853, -1472480.6, 42045.75, 0.00075628085, 9.999604, 10.00048 
1.2751836e+3, 1.554574e+2, -1440005.4, -1375063.5, -32425.205, -0.05933663, 0.036912195, -1361645.9, 54874.797, 0.00015251894, 9.99963, 10.000491 
1.275163e+3, 1.6545792e+2, -1335785.1, -1261348.8, -41539.402, -0.085803784, 0.035721533, -1242793.1, 75722.27, 0.000004722807, 9.999618, 10.000606 
1.2751427e+3, 1.7545839e+2, -1241505.6, -1160921.0, -34140.38, -0.06761998, 0.017966673, -1148402.0, 72108.63, 0.0, 9.999574, 10.000644 
1.2751222e+3, 1.8545888e+2, -1153005.8, -1096871.8, -38599.67, -0.065671295, 0.01983359, -1077213.6, 45292.156, 0.0, 9.999634, 10.000381 
1.2751013e+3, 1.9545946e+2, -1032195.1, -984826.4, -45627.207, -0.08790854, 0.036582682, -957102.7, 67397.86, 0.0, 9.999777, 10.000409 
1.2750809e+3, 2.0545968e+2, -948568.2, -942755.7, -42187.977, -0.08317951, 0.0433595, -903373.94, 23124.504, 0.0, 9.999889, 9.999971 
1.2750608e+3, 2.1545963e+2, -837237.3, -836232.1, -38892.33, -0.051729005, 0.03760852, -797839.2, 30659.652, 0.0, 9.999971, 9.99999 
1.2750405e+3, 2.2545926e+2, -758305.3, -824080.6, -32599.742, -0.05162484, 0.040631708, -744885.94, -14382.875, 0.0, 10.000171, 9.999306 
1.2750201e+3, 2.3545867e+2, -614373.9, -699648.25, -38549.78, -0.07951857, 0.04812794, -599530.5, 32979.69, 0.0, 10.000468, 9.999344 
1.275e+3, 2.4545787e+2, -499343.34, -625338.0, -31114.924, -0.07878299, 0.051610075, -492078.28, 42440.035, 0.0, 10.000723, 9.999058 
1.2749803e+3, 2.5545692e+2, -366106.4, -505935.72, -30239.676, -0.053808536, 0.04732168, -359846.94, 76680.195, 0.0, 10.000946, 9.999097 
1.2749606e+3, 2.6545575e+2, -257529.4, -432227.28, -24779.496, -0.042962253, 0.035989918, -254082.64, 84455.02, 0.0, 10.001145, 9.998834 
1.2749407e+3, 2.754544e+2, -133151.7, -320532.47, -17378.486, -0.04395334, 0.0150146885, -131553.58, 108995.89, 0.0, 10.001322, 9.998842 
1.2749211e+3, 2.8545293e+2, -62941.21, -334298.8, -1520.4882, -0.030616777, 0.03334237, -62932.69, 79631.65, 0.0, 10.001555, 9.997962 
1.274902e+3, 2.9545143e+2, 76718.25, -214444.53, -5815.8022, -0.004935937, 0.08379498, 76834.375, 121415.73, 0.0, 10.001834, 9.997978 
1.2748827e+3, 3.0544847e+2, 126344.7, -199542.98, 17587.326, -0.014027662, 0.010373387, 127291.1, 127291.1, 0.0, 10.0019865, 9.997672 
1.274864e+3, 3.154468e+2, 274051.94, 97291.3, 18487.703, -0.010839474, 0.06971902, 275964.9, 275964.9, 0.0, 10.002028, 9.999691 
1.285242e+3, 1.254754e+2, -1777819.5, -1734604.3, -43643.066, -0.05560942, 0.00018566182, -1707512.8, 2830.4155, 0.0035307019, 9.999527, 10.000092 
1.2852225e+3, 1.3547638e+2, -1623863.1, -1564131.5, 44889.055, -0.115993716, 0.053780235, -1540080.8, 72253.8, 0.0020284813, 9.999709, 10.0005045 
1.285204e+3, 1.4547652e+2, -1522246.0, -1478586.1, -5781.684, -0.020026445, 0.023953842, -1477833.4, 36500.36, 0.00081431924, 9.999797, 10.000372 
1.2851833e+3, 1.554771e+2, -1429672.6, -1381343.9, -15375.001, -0.054022137, 0.047549155, -1376867.3, 39460.973, 0.00016905463, 9.999752, 10.000387 
1.2851627e+3, 1.6547756e+2, -1317646.6, -1246273.8, -27272.559, -0.075063094, 0.04245571, -1237045.6, 81277.414, 0.00000585612, 9.999717, 10.00066 
1.2851423e+3, 1.7547788e+2, -1221378.4, -1146179.6, -29119.73, -0.05579707, 0.0052518602, -1136222.0, 84096.375, 0.0, 9.999692, 10.000687 
1.2851219e+3, 1.8547828e+2, -1143883.3, -1112920.5, -30376.34, -0.05588025, 0.0051197284, -1094308.0, 28006.504, 0.0, 9.999787, 10.000196 
1.2851012e+3, 1.9547881e+2, -1015825.5, -996463.5, -37304.65, -0.08263887, 0.03428435, -967604.1, 56706.645, 0.0, 9.999977, 10.000232 
1.2850809e+3, 2.0547897e+2, -920773.0, -933420.2, -41806.44, -0.07723496, 0.04636883, -884814.56, 41494.914, 0.0, 10.0001, 9.999933 
1.285061e+3, 2.1547887e+2, -811825.94, -828151.94, -47159.996, -0.040917046, 0.039764605, -772127.7, 56182.23, 0.0, 10.000167, 9.99995 
1.2850408e+3, 2.2547843e+2, -740713.3, -824280.94, -34464.258, -0.042150415, 0.040152706, -728333.75, 1981.2156, 0.0, 10.000332, 9.999226 
1.2850206e+3, 2.354777e+2, -603509.5, -702516.44, -34408.402, -0.0767467, 0.04338365, -592725.9, 39597.62, 0.0, 10.00058, 9.999269 
1.2850007e+3, 2.4547689e+2, -490717.0, -617533.6, -27275.771, -0.07479901, 0.0459262, -485099.38, 49232.582, 0.0, 10.000768, 9.999089 
1.2849814e+3, 2.5547597e+2, -369703.56, -504012.38, -26354.357, -0.04186865, 0.04383974, -364717.38, 71622.66, 0.0, 10.000907, 9.999128 
1.2849618e+3, 2.6547486e+2, -264659.56, -434592.5, -27658.027, -0.03213719, 0.036382746, -260271.31, 78078.56, 0.0, 10.001094, 9.998841 
1.284942e+3, 2.7547356e+2, -132718.81, -319243.38, -34381.535, -0.042011205, 0.020532757, -126583.195, 113777.766, 0.0, 10.001322, 9.998851 
1.2849227e+3, 2.85472e+2, -72846.586, -339733.0, -20360.057, -0.031952143, 0.029303472, -71302.305, 71074.266, 0.0, 10.001492, 9.997954 
1.2849036e+3, 2.9547027e+2, 43129.438, -231607.77, -16473.469, -0.004667261, 0.05773269, 44113.676, 88509.2, 0.0, 10.001609, 9.997968 
1.2848845e+3, 3.0546755e+2, 86789.27, -225813.17, -1784.0891, -0.01521083, 0.010219892, 86799.45, 86799.45, 0.0, 10.001748, 9.997605 
1.2848659e+3, 3.1546596e+2, 258042.78, 93941.73, -17385.959, -0.011877894, 0.08248716, 259864.55, 259864.55, 0.0, 10.001904, 9.999727 
1.2952414e+3, 1.2549569e+2, -1785076.9, -1752194.0, -46499.676, -0.054047372, 0.029008612, -1719314.6, -9170.135, 0.0037326978, 9.999535, 9.999968 
1.295222e+3, 1.3549623e+2, -1628028.8, -1574063.9, 50819.28, -0.121424906, 0.047012784, -1543508.0, 68631.78, 0.0021553372, 9.999712, 10.000436 
1.2952036e+3, 1.454962e+2, -1523297.4, -1482187.6, -8233.557, -0.03810715, 0.004177677, -1480599.9, 33540.715, 0.0008742596, 9.999801, 10.000347 
1.2951832e+3, 1.5549694e+2, -1430568.9, -1385400.6, -18119.094, -0.05478329, 0.04547867, -1379030.6, 37102.992, 0.00018656113, 9.999759, 10.000358 
1.2951624e+3, 1.6549738e+2, -1321596.4, -1257056.3, -29394.947, -0.06707329, 0.044130813, -1245675.3, 72453.05, 0.0000072252774, 9.999725, 10.000584 
1.2951422e+3, 1.7549755e+2, -1225477.0, -1157382.5, -30594.29, -0.046365526, -0.000035389934, -1145656.1, 74468.19, 0.0, 9.9997015, 10.000607 
1.2951218e+3, 1.854978e+2, -1155444.5, -1139286.0, -24086.65, -0.03991162, -0.001347347, -1121959.8, 162.24677, 0.0, 9.999795, 10.000013 
1.2951015e+3, 1.9549817e+2, -1027700.44, -1022855.06, -31020.19, -0.055756416, 0.03115695, -994163.06, 29957.336, 0.0, 9.999982, 10.00005 
1.2950812e+3, 2.0549817e+2, -930954.4, -956247.3, -39875.105, -0.062521264, 0.043105893, -901768.4, 24352.828, 0.0, 10.000105, 9.999775 
1.295061e+3, 2.1549788e+2, -821197.5, -849696.6, -44624.04, -0.057863206, 0.033457942, -788603.1, 39520.344, 0.0, 10.000174, 9.999801 
1.295041e+3, 2.254974e+2, -739654.75, -824076.1, -25347.408, -0.05446033, 0.037238214, -732628.94, -2500.048, 0.0, 10.000338, 9.999225 
1.2950213e+3, 2.3549676e+2, -602449.2, -701903.8, -25182.72, -0.053742684, 0.048839726, -596436.25, 35700.28, 0.0, 10.000584, 9.999272 
1.2950017e+3, 2.4549595e+2, -487772.9, -612862.44, -21826.416, -0.05049408, 0.04950163, -484073.88, 50070.953, 0.0, 10.0007715, 9.999121 
1.2949821e+3, 2.5549498e+2, -367318.28, -500577.28, -20471.227, -0.04438644, 0.038103133, -364244.4, 71908.89, 0.0, 10.000911, 9.999151 
1.2949628e+3, 2.654938e+2, -276741.25, -461385.1, -18330.422, -0.034402415, 0.033618182, -274939.1, 63224.92, 0.0, 10.001099, 9.998656 
1.2949435e+3, 2.7549246e+2, -144113.0, -344023.78, -25052.99, -0.022395067, 0.030387625, -141021.16, 99155.234, 0.0, 10.001325, 9.998681 
1.2949242e+3, 2.8549078e+2, -65408.97, -324951.4, -15168.125, -0.021674411, 0.03064317, -64525.523, 77667.32, 0.0, 10.0014925, 9.998057 
1.2949051e+3, 2.954889e+2, 49462.18, -219362.3, -11042.698, -0.028364088, 0.03278186, 49915.027, 94127.24, 0.0, 10.00161, 9.998053 
1.2948862e+3, 3.054864e+2, 65291.418, -270992.6, 4776.5444, -0.033125114, 0.022782702, 65359.25, 65359.25, 0.0, 10.001748, 9.997296 
1.294868e+3, 3.1548482e+2, 241510.56, 60527.016, -10434.967, 0.01108184, 0.12784533, 242110.22, 242110.22, 0.0, 10.001897, 9.999502 
1.3052408e+3, 1.2551545e+2, -1759271.5, -1741676.1, -66708.055, -0.07499432, 0.035149295, -1683188.1, 26763.215, 0.0039383247, 9.999724, 9.999948 
1.3052218e+3, 1.3551599e+2, -1624515.1, -1570090.1, 44181.258, -0.11544194, 0.0525343, -1545413.3, 66532.7, 0.0022845622, 9.999729, 10.000454 
1.3052034e+3, 1.4551583e+2, -1526965.3, -1489646.8, -16153.271, -0.03896181, -0.001576313, -1483626.1, 30321.541, 0.0009356566, 9.999803, 10.000294 
1.305183e+3, 1.5551646e+2, -1415998.3, -1384398.1, -28990.746, -0.05257381, 0.034321688, -1367181.5, 48760.05, 0.0002048525, 9.999887, 10.000302 
1.3051623e+3, 1.6551682e+2, -1297825.8, -1257212.6, -43350.145, -0.063093595, 0.03404449, -1229648.6, 88288.24, 0.000008878654, 9.999941, 10.000477 
1.3051419e+3, 1.7551695e+2, -1193630.6, -1153143.4, -46973.715, -0.04272407, -0.004185749, -1122236.9, 97696.47, 0.0, 9.99997, 10.0005045 
1.3051218e+3, 1.855171e+2, -1132483.0, -1137143.6, -34351.426, -0.031783074, -0.0062144822, -1100382.9, 21549.004, 0.0, 9.999993, 9.999931 
1.3051015e+3, 1.9551735e+2, -1030035.7, -1032986.6, -34216.99, -0.03914494, 0.020343436, -997262.4, 26669.18, 0.0, 10.000007, 9.999967 
1.3050814e+3, 2.055172e+2, -927653.7, -968289.1, -35262.07, -0.052240886, 0.029423114, -907274.7, 18659.037, 0.0, 10.000189, 9.999651 
1.3050611e+3, 2.155168e+2, -781090.8, -843333.2, -38529.406, -0.06622403, 0.019510513, -762683.8, 65253.824, 0.0, 10.000506, 9.999682 
1.3050413e+3, 2.2551629e+2, -699486.44, -804514.3, -22442.041, -0.061932582, 0.028361063, -694892.06, 35051.207, 0.0, 10.000614, 9.999225 
1.305022e+3, 2.3551576e+2, -607652.8, -704329.06, -22670.32, -0.044014957, 0.049201, -602600.7, 29349.191, 0.0, 10.00055, 9.999271 
1.3050026e+3, 2.4551493e+2, -506746.72, -626332.94, -18958.684, -0.036234107, 0.051368453, -503813.03, 30145.232, 0.0, 10.000662, 9.99908 
1.3049832e+3, 2.5551388e+2, -369272.22, -506393.38, -23824.07, -0.036335547, 0.03519902, -365250.84, 70716.836, 0.0, 10.00092, 9.999106 
1.304964e+3, 2.6551265e+2, -280379.53, -473246.7, -21268.018, -0.029076917, 0.030499795, -278062.1, 59917.273, 0.0, 10.001119, 9.998565 
1.3049448e+3, 2.7551123e+2, -158130.11, -360142.47, -21880.959, -0.016714111, 0.030824669, -155787.25, 84205.39, 0.0, 10.00127, 9.998595 
1.3049257e+3, 2.8550953e+2, -73383.31, -321615.72, -13211.687, -0.016162103, 0.029126994, -72682.125, 69327.06, 0.0, 10.001409, 9.998119 
1.3049066e+3, 2.9550764e+2, 41693.055, -216833.73, -12729.897, -0.023538783, 0.024292361, 42318.367, 86346.33, 0.0, 10.001532, 9.998107 
1.3048877e+3, 3.055053e+2, 32112.29, -300696.3, 7229.462, -0.035238434, 0.032682635, 32269.258, 32269.258, 0.0, 10.001582, 9.997171 
1.3048695e+3, 3.1550336e+2, 189532.73, 26864.332, 6470.853, -0.0003234307, 0.11323394, 189789.73, 189789.73, 0.0, 10.001578, 9.999424 
1.3152401e+3, 1.2553483e+2, -1754476.5, -1733106.1, -74853.56, -0.11640698, 0.022524772, -1668178.9, 41583.043, 0.0041457373, 9.999727, 10.000006 
1.3152216e+3, 1.3553576e+2, -1617138.8, -1557650.9, 44157.17, -0.09881758, 0.06902443, -1534154.3, 77597.86, 0.0024150494, 9.999739, 10.000536 
1.3152033e+3, 1.455355e+2, -1531563.4, -1502032.3, -13843.295, -0.024265883, 0.00493021, -1496557.9, 17196.42, 0.0009980269, 9.999812, 10.000205 
1.3151829e+3, 1.5553577e+2, -1421433.6, -1397414.8, -26900.45, -0.048147906, 0.014545101, -1379964.6, 35786.418, 0.00022377247, 9.999892, 10.000212 
1.3151622e+3, 1.65536e+2, -1307076.0, -1278041.4, -43181.84, -0.063547105, 0.013011941, -1247001.9, 70746.055, 0.000010883257, 9.999946, 10.000333 
1.3151419e+3, 1.7553619e+2, -1202102.8, -1172768.0, -46575.777, -0.044910513, -0.007043123, -1138604.8, 81140.086, 0.0, 9.999977, 10.000368 
1.3151218e+3, 1.8553627e+2, -1130591.3, -1135483.8, -34677.457, -0.031520244, -0.00934904, -1098273.9, 23469.922, 0.0, 10.000001, 9.99994 
1.3151017e+3, 1.9553636e+2, -1028317.6, -1031874.3, -33722.426, -0.03244547, 0.0018450087, -996326.7, 27417.15, 0.0, 10.000015, 9.999972 
1.3150817e+3, 2.055361e+2, -933781.8, -983127.1, -23867.43, -0.046408843, 0.0052530523, -924126.75, 1620.1973, 0.0, 10.0001955, 9.999547 
1.3150616e+3, 2.1553561e+2, -787370.0, -857657.5, -27643.027, -0.06688701, -0.0018357381, -777801.1, 49951.0, 0.0, 10.00051, 9.999584 
1.315042e+3, 2.2553514e+2, -699488.3, -805788.25, -25196.668, -0.06538707, 0.013879235, -693818.3, 35939.574, 0.0, 10.000617, 9.999216 
1.3150224e+3, 2.355347e+2, -607714.5, -706099.0, -24452.895, -0.047439534, 0.04465031, -601972.06, 29791.535, 0.0, 10.000555, 9.999258 
1.3150033e+3, 2.4553382e+2, -514618.78, -644408.25, -8943.879, -0.031956878, 0.05136274, -514005.34, 19767.115, 0.0, 10.000668, 9.998955 
1.3149843e+3, 2.5553268e+2, -376815.25, -523540.1, -13632.274, -0.018288748, 0.03492887, -375559.4, 60224.03, 0.0, 10.000924, 9.998988 
1.3149652e+3, 2.655313e+2, -280487.84, -474746.84, -14851.404, -0.016846634, 0.02683399, -279359.0, 58437.207, 0.0, 10.0011215, 9.998554 
1.314946e+3, 2.7552983e+2, -157943.47, -361291.9, -15218.012, -0.02548874, 0.0217285, -156810.9, 82999.18, 0.0, 10.001274, 9.998587 
1.3149272e+3, 2.855282e+2, -72148.37, -320349.7, -7428.1987, -0.015575569, 0.024861276, -71926.25, 69899.82, 0.0, 10.001411, 9.998128 
1.3149084e+3, 2.9552644e+2, 42360.133, -215565.52, -7129.2427, 0.010025122, 0.032605387, 42557.043, 86400.41, 0.0, 10.00153, 9.998117 
1.3148893e+3, 3.0552414e+2, 35934.48, -292227.3, 8021.71, -0.02239462, 0.03899793, 36130.45, 36130.45, 0.0, 10.001577, 9.997233 
1.3148706e+3, 3.1552142e+2, 194300.33, 37088.785, 9192.94, -0.049260315, 0.03904037, 194836.06, 194836.06, 0.0, 10.0015745, 9.999496 
1.3252398e+3, 1.2555428e+2, -1731704.1, -1720826.9, -75620.69, -0.12275503, 0.018779417, -1650449.5, 59121.89, 0.004353529, 9.999881, 10.000015 
1.3252215e+3, 1.3555528e+2, -1576687.9, -1535050.9, 44904.547, -0.09174034, 0.070272386, -1506373.6, 105186.664, 0.002545688, 10.000005, 10.000563 
1.3252032e+3, 1.4555486e+2, -1503106.4, -1494151.1, -16984.148, -0.027516825, -0.007943144, -1481064.4, 32499.076, 0.0010608588, 10.000035, 10.000151 
1.3251829e+3, 1.5555495e+2, -1416143.8, -1401422.8, -28400.111, -0.042187296, -0.010867115, -1379444.9, 36116.625, 0.00024319715, 9.99996, 10.000151 
1.3251622e+3, 1.655551e+2, -1312403.3, -1297083.5, -41853.496, -0.056930434, -0.009973245, -1262194.8, 55364.625, 0.000013283229, 9.999983, 10.000184 
1.325142e+3, 1.7555527e+2, -1196935.5, -1185916.5, -46272.05, -0.04562238, -0.015425814, -1144827.0, 74730.07, 0.0, 10.000082, 10.000226 
1.3251218e+3, 1.855553e+2, -1105995.6, -1127262.0, -36730.258, -0.034990396, -0.014621194, -1078390.5, 43166.24, 0.0, 10.000188, 9.999906 
1.3251019e+3, 1.955553e+2, -990181.9, -1017496.4, -39300.184, -0.034635514, -0.010059352, -962233.56, 61323.44, 0.0, 10.000297, 9.999934 
1.3250819e+3, 2.0555496e+2, -921013.6, -990995.25, -29055.045, -0.044384975, -0.005888293, -910523.06, 15037.923, 0.0, 10.000345, 9.999419 
1.325062e+3, 2.1555443e+2, -820153.06, -886690.6, -35311.273, -0.05843987, -0.005843583, -804906.94, 22660.594, 0.0, 10.000344, 9.999464 
1.3250425e+3, 2.255539e+2, -723271.94, -818405.75, -37195.574, -0.057535496, 0.012061866, -710455.75, 19118.258, 0.0, 10.000462, 9.999204 
1.325023e+3, 2.3555344e+2, -590911.4, -699078.94, -37407.137, -0.046166867, 0.041058734, -579235.4, 52344.484, 0.0, 10.000677, 9.999247 
1.3250041e+3, 2.4555258e+2, -496258.25, -635335.5, -14998.478, -0.031410396, 0.049908806, -494659.16, 38929.36, 0.0, 10.000794, 9.998955 
1.3249852e+3, 2.5555146e+2, -390226.6, -529738.9, -11014.826, -0.013639212, 0.038615618, -389362.3, 46236.656, 0.0, 10.0008335, 9.998987 
1.3249663e+3, 2.6555008e+2, -310377.06, -491418.44, -9222.443, -0.013364522, 0.027880317, -309908.47, 27703.729, 0.0, 10.000929, 9.998531 
1.3249472e+3, 2.7554852e+2, -189625.72, -378271.78, -11268.819, -0.027369466, 0.014208593, -188954.97, 50672.277, 0.0, 10.001067, 9.998569 
1.3249284e+3, 2.855469e+2, -107115.586, -329449.2, -4379.8364, -0.013019826, 0.018112946, -107029.34, 34613.73, 0.0, 10.001141, 9.998195 
1.3249099e+3, 2.9554528e+2, -5627.1416, -230112.16, -660.31854, 0.024679858, 0.03376279, -5625.199, 38033.89, 0.0, 10.001165, 9.998192 
1.3248907e+3, 3.0554324e+2, -16809.178, -292993.88, 17814.29, -0.017205806, 0.053883597, -15664.874, -15664.874, 0.0, 10.001111, 9.997451 
1.3248718e+3, 3.1554028e+2, 121492.71, 23802.19, 31725.266, -0.068062395, 0.004657583, 130891.35, 130891.35, 0.0, 10.000983, 9.999688 
1.33524e+3, 1.2557386e+2, -1734943.4, -1728174.3, -77316.875, -0.097845756, 0.022344701, -1654167.9, 55210.902, 0.0045616506, 9.999882, 9.999966 
1.3352215e+3, 1.3557467e+2, -1578352.1, -1540127.0, 48636.47, -0.0938593, 0.058061894, -1506982.5, 104386.87, 0.002675973, 10.00001, 10.000526 
1.335203e+3, 1.4557402e+2, -1504289.8, -1498906.1, -20943.742, -0.04789587, -0.038272806, -1480481.9, 32892.184, 0.0011236158, 10.000043, 10.000115 
1.335183e+3, 1.5557408e+2, -1417451.6, -1407278.5, -31982.906, -0.0350008, -0.041795332, -1379980.3, 35391.637, 0.00026292363, 9.99997, 10.000106 
1.3351624e+3, 1.6557418e+2, -1322255.6, -1320607.4, -39092.793, -0.044035476, -0.034924187, -1282330.0, 35040.43, 0.000016032998, 9.999993, 10.000018 
1.335142e+3, 1.7557429e+2, -1206598.0, -1208626.5, -43353.33, -0.045223415, -0.029154155, -1164247.1, 55122.62, 0.00000000003443261, 10.000091, 10.000067 
1.335122e+3, 1.8557426e+2, -1110575.6, -1139134.3, -33571.098, -0.042531017, -0.022214374, -1088373.3, 32996.863, 0.0, 10.0001955, 9.999822 
1.3351019e+3, 1.9557421e+2, -995459.44, -1030343.5, -36106.86, -0.04579415, -0.01543962, -972802.5, 50568.188, 0.0, 10.000301, 9.999845 
1.3350822e+3, 2.0557383e+2, -931331.7, -1013998.94, -29736.988, -0.04645294, -0.004020014, -921746.2, 3629.4373, 0.0, 10.00035, 9.999261 
1.3350627e+3, 2.1557322e+2, -829779.94, -908553.06, -35287.008, -0.041164085, 0.007015131, -816284.8, 11098.894, 0.0, 10.00035, 9.999312 
1.3350432e+3, 2.2557259e+2, -724251.7, -822270.94, -29248.33, -0.038859718, 0.022326924, -716187.6, 13203.925, 0.0, 10.000467, 9.999175 
1.3350238e+3, 2.3557197e+2, -591661.25, -701963.3, -29476.814, -0.040830355, 0.03826148, -584278.1, 47120.586, 0.0, 10.00068, 9.999227 
1.3350047e+3, 2.4557117e+2, -487666.84, -618711.44, -13224.036, -0.035087146, 0.04710137, -486345.7, 47060.867, 0.0, 10.000797, 9.999068 
1.334986e+3, 2.5557026e+2, -382185.47, -514374.06, -8699.977, -0.022498408, 0.046402093, -381615.34, 53799.12, 0.0, 10.000837, 9.999093 
1.334967e+3, 2.6556888e+2, -313043.94, -498169.75, -3061.846, -0.01890355, 0.033652313, -312993.3, 24434.348, 0.0, 10.000932, 9.998486 
1.3349482e+3, 2.7556714e+2, -191869.2, -383529.75, -5064.9707, -0.023188226, 0.008012346, -191735.45, 47709.13, 0.0, 10.001067, 9.998534 
1.3349296e+3, 2.8556556e+2, -99208.35, -313214.0, -2413.4846, -0.009583366, 0.008555825, -99181.13, 42279.598, 0.0, 10.001139, 9.998308 
1.334911e+3, 2.955641e+2, 3372.0579, -211847.02, 1354.2826, 0.01953722, 0.027551098, 3380.5796, 46856.37, 0.0, 10.001165, 9.998319 
1.3348919e+3, 3.055626e+2, 8742.596, -239848.92, 14560.713, -0.020044522, 0.07796383, 9592.552, 9592.552, 0.0, 10.001108, 9.997819 
1.3348728e+3, 3.155599e+2, 140568.02, 65843.42, 30043.492, -0.056927245, 0.01715467, 151148.94, 151148.94, 0.0, 10.000971, 9.999985 
1.34524e+3, 1.2559322e+2, -1749572.3, -1745230.3, -67267.02, -0.08352866, 0.0019691477, -1680099.1, 29088.059, 0.004771566, 9.999827, 9.999873 
1.3452217e+3, 1.3559397e+2, -1568328.5, -1545718.9, 58374.547, -0.08401488, 0.040717535, -1497564.5, 113614.28, 0.0028062875, 10.000126, 10.000431 
1.345203e+3, 1.4559318e+2, -1473589.4, -1491948.1, -23724.154, -0.0592296, -0.05977303, -1457330.6, 55854.23, 0.001185947, 10.00029, 10.000043 
1.3451828e+3, 1.5559325e+2, -1372267.5, -1393825.0, -38022.28, -0.040124796, -0.05626285, -1343525.8, 71656.71, 0.00028263815, 10.0003195, 10.00003 
1.3451625e+3, 1.6559327e+2, -1282649.8, -1321451.9, -43886.07, -0.04373453, -0.043819346, -1254067.6, 63114.39, 0.000018979208, 10.000354, 9.999838 
1.3451423e+3, 1.7559324e+2, -1174834.3, -1212308.8, -49656.8, -0.04179495, -0.034499552, -1140497.3, 78686.016, 0.0000000014653116, 10.000393, 9.999895 
1.3451222e+3, 1.8559308e+2, -1087275.1, -1137885.3, -41981.156, -0.043425865, -0.029217519, -1063562.3, 57623.03, 0.0, 10.000401, 9.99973 
1.3451022e+3, 1.9559287e+2, -991156.06, -1038042.44, -45698.473, -0.056444257, -0.027536623, -963238.44, 59948.67, 0.0, 10.000376, 9.999755 
1.3450825e+3, 2.0559247e+2, -928305.0, -1021941.94, -36713.195, -0.054197006, -0.007994147, -915627.06, 9565.45, 0.0, 10.000414, 9.999175 
1.3450631e+3, 2.1559198e+2, -813585.94, -909328.4, -37359.19, -0.03640943, 0.020769257, -800733.5, 26466.813, 0.0, 10.000501, 9.999233 
1.3450436e+3, 2.2559127e+2, -716696.06, -819773.5, -26955.557, -0.031251375, 0.035061385, -710072.6, 19136.248, 0.0, 10.000526, 9.999163 
1.3450244e+3, 2.355905e+2, -617959.8, -715097.75, -26732.475, -0.037906792, 0.035584256, -611089.0, 20128.352, 0.0, 10.0005045, 9.999219 
1.3450053e+3, 2.4558969e+2, -519817.8, -628041.5, -13887.395, -0.03719948, 0.041280393, -518064.2, 15160.975, 0.0, 10.000553, 9.99912 
1.3449866e+3, 2.5558892e+2, -404750.2, -519161.13, -14935.374, -0.029966475, 0.04718099, -402832.66, 32399.322, 0.0, 10.000659, 9.999144 
1.344968e+3, 2.6558763e+2, -341258.2, -507733.5, -8047.5737, -0.020596607, 0.04087001, -340870.06, -3625.7227, 0.0, 10.000724, 9.998518 
1.3449492e+3, 2.75586e+2, -234290.75, -399513.78, -5139.661, -0.010378365, 0.021562714, -234131.02, 5129.6196, 0.0, 10.00076, 9.99857 
1.3449305e+3, 2.8558442e+2, -149643.86, -329072.38, -5365.2773, 0.0014881892, 0.019876232, -149483.56, -8206.738, 0.0, 10.00076, 9.998381 
1.3449119e+3, 2.9558295e+2, -54805.293, -229853.08, -5626.1846, 0.016183108, 0.029424643, -54624.65, -11332.203, 0.0, 10.000727, 9.9984045 
1.3448925e+3, 3.055819e+2, -45412.246, -230827.9, -2854.9712, -0.025867779, 0.10552289, -45368.293, -45368.293, 0.0, 10.000589, 9.99813 
1.3448735e+3, 3.1557944e+2, 67424.195, 54462.355, 9213.005, -0.053919673, 0.037944257, 72207.46, 72207.46, 0.0, 10.000369, 10.0001955 
1.3552397e+3, 1.2561248e+2, -1757722.0, -1765303.4, -62009.797, -0.078817226, -0.04004127, -1699387.1, 9608.409, 0.004985992, 9.999838, 9.999732 
1.355222e+3, 1.3561325e+2, -1577967.9, -1568319.4, 67599.15, -0.06324683, 0.018129405, -1505372.5, 105615.25, 0.0029378452, 10.000135, 10.000273 
1.3552032e+3, 1.4561243e+2, -1481003.8, -1509183.5, -24175.684, -0.06297172, -0.07360252, -1467111.8, 45883.168, 0.0012478596, 10.000296, 9.999923 
1.355183e+3, 1.5561251e+2, -1379738.3, -1411161.9, -38293.29, -0.05722641, -0.054925214, -1354058.8, 60933.66, 0.0003020518, 10.000325, 9.999908 
1.3551627e+3, 1.6561243e+2, -1295569.1, -1350361.6, -43762.06, -0.055602476, -0.03764449, -1271335.1, 45658.203, 0.00002192539, 10.00036, 9.999638 
1.3551427e+3, 1.7561217e+2, -1187334.1, -1240385.6, -49178.137, -0.03572788, -0.032258034, -1157984.1, 61013.047, 0.0000000068048798, 10.0004, 9.999701 
1.3551226e+3, 1.8561175e+2, -1093666.5, -1153066.8, -43763.32, -0.038506553, -0.03557876, -1070476.9, 50524.75, 0.0, 10.000406, 9.999624 
1.3551024e+3, 1.9561133e+2, -996942.75, -1052181.8, -46940.652, -0.06696144, -0.046250567, -970098.9, 52906.98, 0.0, 10.000382, 9.999656 
1.3550827e+3, 2.0561096e+2, -929089.44, -1025495.1, -34020.473, -0.06792262, -0.018135564, -918293.06, 6718.2, 0.0, 10.00042, 9.999149 
1.3550635e+3, 2.1561068e+2, -814423.75, -912407.06, -34685.9, -0.044249624, 0.035571378, -803387.94, 23629.27, 0.0, 10.000504, 9.999212 
1.3550442e+3, 2.2560999e+2, -716510.2, -820550.0, -27943.346, -0.034722373, 0.05050831, -709480.1, 19545.66, 0.0, 10.000529, 9.999157 
1.3550249e+3, 2.3560901e+2, -617816.25, -716106.25, -27146.057, -0.037416015, 0.032989956, -610817.3, 20218.42, 0.0, 10.000508, 9.999212 
1.3550058e+3, 2.4560812e+2, -520783.44, -631308.5, -9467.348, -0.038082916, 0.03237871, -519978.34, 13066.156, 0.0, 10.000557, 9.999098 
1.3549872e+3, 2.5560737e+2, -405182.13, -521161.5, -10391.599, -0.036769133, 0.04088444, -404258.4, 30793.332, 0.0, 10.000662, 9.99913 
1.3549687e+3, 2.6560625e+2, -333928.25, -493457.56, -5928.2437, -0.019032495, 0.04954137, -333708.25, 3354.4084, 0.0, 10.000726, 9.998616 
1.3549502e+3, 2.75605e+2, -227473.45, -386030.7, -2856.7407, 0.010912336, 0.055320952, -227422.0, 11653.906, 0.0, 10.00076, 9.998664 
1.3549316e+3, 2.8560346e+2, -148585.16, -327161.13, -5284.241, 0.019857902, 0.05257203, -148428.92, -7336.9233, 0.0, 10.000758, 9.998396 
1.3549127e+3, 2.956018e+2, -53316.473, -226314.5, -5956.7754, 0.013454582, 0.039746467, -53111.61, -10001.738, 0.0, 10.000722, 9.998432 
1.354893e+3, 3.0560106e+2, -29168.082, -196326.16, -10178.183, -0.036309566, 0.13702218, -28550.62, -28550.62, 0.0, 10.000583, 9.998371 
1.3548736e+3, 3.155989e+2, 74061.46, 69146.73, 4033.8875, -0.06139443, 0.07245428, 76327.54, 76327.54, 0.0, 10.000362, 10.0003 
1.3652399e+3, 1.2563153e+2, -1704530.4, -1750383.3, -86159.875, -0.06764557, -0.054464225, -1638298.9, 70508.41, 0.005208112, 10.000254, 9.999633 
1.3652223e+3, 1.3563219e+2, -1556488.4, -1571652.9, 47840.85, -0.05218985, 0.004793868, -1515632.8, 95168.18, 0.0030723868, 10.000344, 10.000148 
1.3652036e+3, 1.4563127e+2, -1469295.8, -1512522.0, -47548.023, -0.07132589, -0.08552721, -1438679.3, 74130.125, 0.0013097484, 10.000418, 9.999841 
1.3651833e+3, 1.5563145e+2, -1363539.5, -1411934.9, -59642.563, -0.06114408, -0.050491557, -1323372.9, 91433.68, 0.00032103658, 10.000476, 9.999829 
1.365163e+3, 1.6563125e+2, -1280661.0, -1349966.0, -60110.816, -0.061116394, -0.0358613, -1245929.8, 70878.67, 0.00002472805, 10.000493, 9.999576 
1.3651429e+3, 1.7563076e+2, -1181043.4, -1244125.5, -56087.49, -0.04921339, -0.04837063, -1148236.6, 70577.43, 0.000000016360648, 10.000474, 9.999638 
1.365123e+3, 1.8563029e+2, -1086696.6, -1157956.9, -45387.78, -0.049752135, -0.050146896, -1064624.5, 56194.684, 0.0, 10.000492, 9.999549 
1.365103e+3, 1.9562994e+2, -979465.2, -1051660.6, -46976.78, -0.06762945, -0.044637356, -956318.8, 66504.266, 0.0, 10.000539, 9.999582 
1.3650833e+3, 2.0562956e+2, -920186.5, -1022533.06, -34423.85, -0.063594945, -0.014299414, -909685.56, 15143.3125, 0.0, 10.000489, 9.999134 
1.365064e+3, 2.1562919e+2, -835944.44, -923925.2, -34937.977, -0.039526306, 0.03133853, -823758.2, 3077.4304, 0.0, 10.000363, 9.999199 
1.3650447e+3, 2.256285e+2, -739271.44, -829353.1, -25379.688, -0.035293646, 0.045545075, -732613.1, -3768.8733, 0.0, 10.000367, 9.999173 
1.3650253e+3, 2.3562759e+2, -622498.1, -716381.1, -23874.635, -0.047563106, 0.03280033, -616775.56, 14078.122, 0.0, 10.00047, 9.999227 
1.3650064e+3, 2.4562672e+2, -534774.7, -638488.1, -6651.6313, -0.047802743, 0.034164008, -534349.8, -1487.3523, 0.0, 10.000466, 9.999089 
1.3649876e+3, 2.5562593e+2, -446813.78, -541267.8, -7213.8833, -0.03851562, 0.042321954, -446266.0, -11395.753, 0.0, 10.00038, 9.9991255 
1.3649692e+3, 2.6562497e+2, -381513.5, -510152.38, -3732.33, -0.020281669, 0.06065002, -381405.3, -44524.96, 0.0, 10.000376, 9.998668 
1.3649507e+3, 2.7562392e+2, -271617.53, -400792.25, -5411.869, 0.0044356333, 0.08421256, -271391.2, -32499.498, 0.0, 10.000434, 9.998717 
1.364932e+3, 2.856224e+2, -190490.42, -338766.94, -10173.242, 0.018579995, 0.07490992, -189795.69, -48887.918, 0.0, 10.000438, 9.998468 
1.3649131e+3, 2.956205e+2, -94962.62, -237538.08, -7405.9414, 0.025531529, 0.035760973, -94578.96, -51651.86, 0.0, 10.0004015, 9.9985075 
1.3648936e+3, 3.0562004e+2, -53312.164, -195451.4, -19135.764, -0.031591155, 0.1470666, -50781.05, -50781.05, 0.0, 10.000366, 9.99848 
1.3648738e+3, 3.1561798e+2, 64320.29, 59515.54, -13735.529, -0.08068249, 0.08383845, 75861.95, 75861.95, 0.0, 10.0003195, 10.000255 
1.3752404e+3, 1.256505e+2, -1708051.0, -1760251.9, -86557.8, -0.051379997, -0.043843348, -1643744.1, 64876.977, 0.0054401793, 10.000262, 9.999562 
1.3752227e+3, 1.3565089e+2, -1562796.3, -1586319.0, 50169.25, -0.050407123, 0.0005613856, -1523028.1, 87588.67, 0.003211325, 10.000348, 10.000047 
1.3752037e+3, 1.4564984e+2, -1472893.4, -1521380.4, -46693.28, -0.08423129, -0.09545317, -1444525.0, 68101.87, 0.0013721316, 10.000421, 9.99978 
1.3751839e+3, 1.5565012e+2, -1366560.0, -1419534.3, -58545.176, -0.053052116, -0.04381669, -1328789.0, 85834.71, 0.0003396191, 10.000479, 9.999778 
1.3751636e+3, 1.6564986e+2, -1275643.5, -1341012.9, -61825.813, -0.061224613, -0.038511466, -1238394.5, 78231.69, 0.000027345353, 10.000497, 9.999636 
1.3751431e+3, 1.756491e+2, -1175906.5, -1235645.5, -57438.52, -0.08169315, -0.08167349, -1141035.1, 77597.91, 0.000000027808229, 10.000481, 9.999694 
1.3751231e+3, 1.8564874e+2, -1089816.4, -1166491.1, -44535.81, -0.076862596, -0.07266959, -1069389.9, 51247.457, 0.0, 10.000498, 9.999488 
1.3751034e+3, 1.9564877e+2, -982678.0, -1059795.4, -46226.633, -0.058989238, -0.023480099, -961039.7, 61598.793, 0.0, 10.000543, 9.999526 
1.3750839e+3, 2.0564832e+2, -920553.25, -1024591.0, -39785.203, -0.041988347, 0.0031308641, -907083.0, 17562.084, 0.0, 10.000492, 9.99912 
1.3750644e+3, 2.1564753e+2, -835926.1, -925514.25, -39350.4, -0.022861604, 0.008223115, -821096.7, 5558.6157, 0.0, 10.000368, 9.999187 
1.375045e+3, 2.2564682e+2, -736810.56, -825886.56, -21553.21, -0.03360919, 0.020314977, -731869.56, -3205.4775, 0.0, 10.000371, 9.999196 
1.3750255e+3, 2.356462e+2, -620213.06, -712994.1, -20192.037, -0.0687371, 0.035335086, -616009.1, 14661.991, 0.0, 10.000474, 9.999249 
1.3750066e+3, 2.4564545e+2, -534508.5, -639217.6, -9638.949, -0.06665258, 0.04679128, -533628.56, -949.2799, 0.0, 10.000469, 9.999084 
1.3749881e+3, 2.5564465e+2, -446999.13, -542309.3, -9455.582, -0.035433274, 0.051510487, -446070.1, -11382.36, 0.0, 10.0003805, 9.99912 
1.3749693e+3, 2.6564372e+2, -382262.22, -512328.1, -546.8206, -0.024977159, 0.07437332, -382259.9, -45562.074, 0.0, 10.000377, 9.998654 
1.3749509e+3, 2.7564272e+2, -271406.25, -401302.88, -2311.0806, -0.03135755, 0.10859255, -271365.13, -32656.578, 0.0, 10.000436, 9.998714 
1.3749322e+3, 2.8564113e+2, -181666.2, -321271.63, -10607.929, -0.003874722, 0.087068625, -180864.77, -40139.953, 0.0, 10.000439, 9.9985895 
1.3749139e+3, 2.956391e+2, -87433.664, -221823.25, -7654.543, 0.0516514, 0.017455952, -86999.08, -44254.156, 0.0, 10.000399, 9.998618 
1.3748942e+3, 3.0563873e+2, -56384.633, -201978.23, -19364.11, -0.012761907, 0.13500045, -53853.2, -53853.2, 0.0, 10.000364, 9.998438 
1.3748738e+3, 3.1563666e+2, 49274.45, 27315.2, -12353.213, -0.11435714, 0.0760051, 54822.2, 54822.2, 0.0, 10.000321, 10.000033 
1.3852407e+3, 1.256692e+2, -1656775.9, -1732044.1, -88732.125, -0.055055004, -0.05079782, -1598026.9, 110410.68, 0.005682768, 10.000604, 9.999591 
1.3852231e+3, 1.3566956e+2, -1542914.1, -1578571.5, 55613.223, -0.044868305, -0.010571178, -1502341.8, 108091.555, 0.0033551985, 10.000495, 10.000029 
1.385204e+3, 1.4566843e+2, -1478600.3, -1534230.5, -39557.305, -0.09033647, -0.10704215, -1458057.8, 54386.36, 0.0014353532, 10.000427, 9.999687 
1.3851844e+3, 1.5566874e+2, -1385217.5, -1437137.3, -53754.004, -0.051186856, -0.045381114, -1351483.0, 62958.355, 0.000357883, 10.00039, 9.999699 
1.3851641e+3, 1.6566843e+2, -1279651.1, -1338693.3, -57144.324, -0.060790904, -0.04134425, -1244852.9, 71591.125, 0.00002981328, 10.000454, 9.999672 
1.3851435e+3, 1.7566761e+2, -1156959.5, -1223351.4, -55423.285, -0.09180871, -0.094781846, -1125551.1, 92899.79, 0.000000039188958, 10.0006, 9.99972 
1.3851236e+3, 1.8566726e+2, -1084114.3, -1174376.5, -49554.06, -0.08608662, -0.079965524, -1062219.9, 58235.406, 0.0, 10.000586, 9.999391 
1.385104e+3, 1.9566739e+2, -1002985.8, -1078819.3, -54745.137, -0.057774737, -0.012052668, -974308.9, 48147.527, 0.0, 10.000445, 9.999441 
1.3850844e+3, 2.0566688e+2, -931984.1, -1022168.9, -47037.395, -0.04182136, 0.009302982, -911916.4, 12547.035, 0.0, 10.000382, 9.999188 
1.3850647e+3, 2.1566592e+2, -830066.56, -915228.94, -40701.945, -0.03285719, -0.009927885, -813742.7, 12731.71, 0.0, 10.000379, 9.999251 
1.3850453e+3, 2.2566526e+2, -740312.7, -827617.1, -18788.385, -0.041948386, 0.004733023, -736441.06, -7958.4067, 0.0, 10.000351, 9.999193 
1.3850258e+3, 2.3566489e+2, -644946.9, -724725.3, -20220.992, -0.06651878, 0.043063782, -640114.3, -9626.242, 0.0, 10.000306, 9.999248 
1.3850069e+3, 2.4566418e+2, -559609.1, -651950.44, -13372.423, -0.06375623, 0.06171982, -557711.6, -25215.523, 0.0, 10.000303, 9.999075 
1.3849883e+3, 2.556633e+2, -454354.3, -545646.3, -14290.38, -0.03947932, 0.06141442, -452169.63, -17664.207, 0.0, 10.000332, 9.999118 
1.3849697e+3, 2.6566237e+2, -390276.47, -504945.1, -1354.0591, -0.031418674, 0.07968433, -390260.47, -53745.016, 0.0, 10.000277, 9.998751 
1.3849509e+3, 2.7566147e+2, -304923.88, -406128.84, 4393.107, -0.036578756, 0.10957594, -304733.53, -66208.23, 0.0, 10.00016, 9.998813 
1.3849325e+3, 2.8565994e+2, -219305.36, -328573.03, -756.0321, -0.010965631, 0.086222075, -219300.13, -78759.61, 0.0, 10.000137, 9.998683 
1.384914e+3, 2.95658e+2, -111931.18, -222620.84, -758.32635, 0.04019959, 0.01670349, -111925.984, -69366.55, 0.0, 10.000187, 9.9987135 
1.3848943e+3, 3.0565774e+2, -84537.71, -202725.33, -10701.27, -0.013035207, 0.13452701, -83576.586, -83576.586, 0.0, 10.000118, 9.998549 
1.3848741e+3, 3.156556e+2, -11199.138, -11595.794, 9182.582, -0.092584155, 0.054848034, -2212.743, -2212.743, 0.0, 9.99995, 9.999943 
1.395241e+3, 1.2568775e+2, -1648779.6, -1715798.0, -94781.195, -0.07714657, -0.07520883, -1581758.6, 126496.97, 0.005936022, 10.000603, 9.999704 
1.3952237e+3, 1.3568825e+2, -1538674.6, -1571855.3, 50554.2, -0.03627742, -0.028237903, -1502058.1, 108191.26, 0.003504624, 10.000502, 10.0000725 
1.3952045e+3, 1.4568712e+2, -1485727.4, -1551898.4, -42544.92, -0.09092683, -0.12029717, -1464917.4, 47342.88, 0.0014999988, 10.000436, 9.999563 
1.3951847e+3, 1.5568735e+2, -1391442.9, -1452604.9, -55682.81, -0.055420533, -0.0541548, -1358496.1, 55762.547, 0.00037601448, 10.000398, 9.99959 
1.3951644e+3, 1.6568704e+2, -1278660.0, -1338736.5, -52507.32, -0.060149007, -0.044052638, -1248206.0, 68055.34, 0.00003219319, 10.000461, 9.999669 
1.3951442e+3, 1.7568633e+2, -1156880.6, -1224843.0, -51342.637, -0.08104192, -0.08904415, -1129292.4, 88974.79, 0.00000005013657, 10.000605, 9.999709 
1.3951242e+3, 1.8568592e+2, -1093328.0, -1195110.1, -55680.797, -0.07871521, -0.073032014, -1068785.3, 51487.24, 0.0, 10.000589, 9.999248 
1.3951042e+3, 1.9568583e+2, -1010583.44, -1096681.9, -60204.043, -0.064157896, -0.010061314, -979620.75, 42655.65, 0.0, 10.000451, 9.999317 
1.3950844e+3, 2.0568527e+2, -921089.75, -1001553.0, -47635.625, -0.06301065, 0.0043315394, -898969.7, 25313.908, 0.0, 10.000388, 9.999328 
1.3950647e+3, 2.1568437e+2, -820242.4, -896539.94, -41140.33, -0.069179334, -0.022925634, -802285.44, 24007.336, 0.0, 10.000383, 9.999378 
1.3950454e+3, 2.2568381e+2, -742312.44, -833402.8, -20583.135, -0.06022527, -0.0009860385, -737877.3, -9577.462, 0.0, 10.000355, 9.999152 
1.3950264e+3, 2.3568358e+2, -646936.56, -730194.4, -21428.826, -0.04121477, 0.055775613, -641744.94, -11440.315, 0.0, 10.000309, 9.999209 
1.3950074e+3, 2.4568291e+2, -560675.06, -655468.0, -11863.139, -0.039687805, 0.07877278, -559212.94, -26899.896, 0.0, 10.000306, 9.999051 
1.3949886e+3, 2.5568193e+2, -454302.66, -546886.0, -12938.047, -0.051425323, 0.07247338, -452528.63, -18205.043, 0.0, 10.000336, 9.999109 
1.3949698e+3, 2.6568097e+2, -375937.0, -476594.84, -4999.256, -0.04019907, 0.076938845, -375689.3, -39355.74, 0.0, 10.000279, 9.998945 
1.3949513e+3, 2.756801e+2, -291769.78, -379217.1, 1484.2007, -0.011514496, 0.086947605, -291744.6, -53402.184, 0.0, 10.000158, 9.999 
1.3949326e+3, 2.8567874e+2, -215755.86, -321412.8, 2312.2852, -0.0037733137, 0.07261248, -215705.27, -75349.77, 0.0, 10.000135, 9.9987335 
1.3949136e+3, 2.9567716e+2, -107063.9, -213523.36, 1713.3064, -0.011031223, 0.034835033, -107036.336, -64665.055, 0.0, 10.000188, 9.998776 
1.3948943e+3, 3.05677e+2, -65588.57, -164517.14, -15984.651, -0.033647005, 0.14652802, -63069.93, -63069.93, 0.0, 10.00012, 9.998813 
1.3948749e+3, 3.156747e+2, -8662.352, -6304.0415, 6066.407, -0.014730536, 0.024314497, -1303.2532, -1303.2532, 0.0, 9.999948, 9.999983 
1.4052416e+3, 1.257069e+2, -1654151.4, -1731904.3, -71252.16, -0.0821891, -0.06758205, -1611859.8, 96208.3, 0.006201865, 10.000627, 9.999579 
1.4052244e+3, 1.3570723e+2, -1517700.3, -1579852.0, 56822.23, -0.028998457, -0.019396469, -1484011.4, 126052.766, 0.0036618048, 10.000726, 9.999908 
1.405205e+3, 1.4570597e+2, -1446719.4, -1533533.8, -41406.137, -0.09502183, -0.11690166, -1430137.8, 81938.37, 0.0015676026, 10.000709, 9.999557 
1.4051852e+3, 1.5570611e+2, -1358855.6, -1437353.6, -45834.984, -0.056599457, -0.060323138, -1337761.3, 76313.52, 0.0003944276, 10.000626, 9.999583 
1.405165e+3, 1.6570577e+2, -1268166.5, -1344182.6, -39147.203, -0.05636782, -0.047901366, -1251611.6, 64465.926, 0.00003454244, 10.00058, 9.999574 
1.405145e+3, 1.7570506e+2, -1170984.9, -1242121.8, -45879.477, -0.072373815, -0.08123417, -1148501.3, 69582.34, 0.00000006103049, 10.000555, 9.999613 
1.4051248e+3, 1.8570453e+2, -1107535.1, -1213968.4, -56509.09, -0.078376845, -0.066319965, -1083129.0, 36961.316, 0.0, 10.000546, 9.999138 
1.4051045e+3, 1.9570424e+2, -1002257.8, -1103496.4, -59009.184, -0.081738405, -0.014509966, -975131.4, 46965.168, 0.0, 10.000558, 9.999218 
1.4050847e+3, 2.0570365e+2, -897964.9, -983816.94, -48572.355, -0.08373181, -0.0011271588, -876068.75, 48035.074, 0.0, 10.000521, 9.999384 
1.4050649e+3, 2.1570286e+2, -807228.56, -884384.3, -48976.164, -0.082277864, -0.021396497, -783461.25, 42649.934, 0.0, 10.00045, 9.999428 
1.4050457e+3, 2.2570235e+2, -744091.7, -835844.44, -32343.271, -0.06548152, 0.0023287472, -733836.7, -5718.801, 0.0, 10.000352, 9.999135 
1.4050268e+3, 2.3570207e+2, -659291.9, -737573.8, -32353.502, -0.038078252, 0.056620248, -647651.3, -17528.05, 0.0, 10.000234, 9.999194 
1.4050077e+3, 2.4570137e+2, -593313.5, -668947.5, -20682.82, -0.036977164, 0.077653274, -588027.06, -55895.0, 0.0, 10.000074, 9.999068 
1.4049885e+3, 2.557004e+2, -517456.8, -573873.44, -19077.266, -0.056083146, 0.06993631, -511611.47, -77468.69, 0.0, 9.999889, 9.999137 
1.4049698e+3, 2.6569957e+2, -422978.22, -476235.13, -7955.944, -0.04464607, 0.07246196, -421815.1, -85663.555, 0.0, 9.99986, 9.999148 
1.4049514e+3, 2.756988e+2, -308647.25, -364866.6, -1799.1191, -0.009977517, 0.08011233, -308589.72, -70431.74, 0.0, 9.9999485, 9.999197 
1.4049326e+3, 2.8569767e+2, -241354.98, -322541.6, 526.3191, -0.0047757877, 0.06581218, -241351.58, -101182.1, 0.0, 9.999913, 9.998832 
1.4049135e+3, 2.956962e+2, -157952.23, -225743.72, 2914.4626, -0.021126388, 0.029891409, -157827.17, -115642.94, 0.0, 9.999788, 9.998883 
1.4048941e+3, 3.056962e+2, -105161.07, -154675.58, -15857.934, -0.02716481, 0.13826115, -100517.72, -100517.72, 0.0, 9.999726, 9.999068 
1.404875e+3, 3.1569412e+2, -40259.844, -17229.488, 6798.64, 0.02476763, 0.01660075, -15372.276, -15372.276, 0.0, 9.999715, 10.000018 
1.4152423e+3, 1.2572666e+2, -1676851.0, -1782267.8, -69728.086, -0.07221997, -0.031496793, -1642151.3, 65723.53, 0.006484508, 10.000637, 9.99923 
1.4152251e+3, 1.3572656e+2, -1542514.8, -1632719.6, 58518.766, -0.02304783, 0.013824685, -1513734.4, 96142.266, 0.003830431, 10.00073, 9.999545 
1.4152056e+3, 1.4572504e+2, -1439678.5, -1520103.1, -46431.03, -0.10260721, -0.098147996, -1418467.1, 93423.89, 0.0016404892, 10.000711, 9.999649 
1.4151858e+3, 1.5572503e+2, -1352255.4, -1425758.6, -49904.95, -0.055448662, -0.06427769, -1327029.6, 86859.26, 0.0004137889, 10.000632, 9.999661 
1.4151657e+3, 1.6572462e+2, -1280307.3, -1372047.5, -41285.797, -0.05016488, -0.05297101, -1264463.6, 51428.594, 0.000036936333, 10.000588, 9.999379 
1.4151455e+3, 1.7572388e+2, -1182702.6, -1269083.0, -47672.77, -0.0659456, -0.07130464, -1161564.9, 56334.688, 0.00000007226826, 10.000564, 9.999425 
1.4151253e+3, 1.8572317e+2, -1112525.0, -1226502.3, -56928.004, -0.085168906, -0.059800934, -1088962.4, 30945.758, 0.0, 10.000553, 9.999049 
1.4151049e+3, 1.9572262e+2, -1007207.2, -1115515.6, -59115.266, -0.11027796, -0.025123537, -981191.0, 40725.586, 0.0, 10.000563, 9.999134 
1.4150849e+3, 2.0572202e+2, -899644.56, -989055.56, -51611.85, -0.10409542, -0.006875849, -876068.56, 47855.313, 0.0, 10.000525, 9.999347 
1.4150655e+3, 2.1572143e+2, -808710.9, -889243.06, -51788.89, -0.073057316, -0.005967028, -783376.3, 42553.37, 0.0, 10.000455, 9.999393 
1.4150462e+3, 2.2572084e+2, -743702.0, -836646.06, -36694.434, -0.058703225, 0.013970569, -730961.44, -3024.6462, 0.0, 10.000357, 9.999129 
1.4150268e+3, 2.3572035e+2, -658729.6, -737906.94, -36686.94, -0.057386175, 0.04610722, -644344.25, -14400.251, 0.0, 10.0002365, 9.999192 
1.4150076e+3, 2.4571958e+2, -589158.0, -661949.06, -27285.86, -0.05583922, 0.059141025, -580065.56, -48112.316, 0.0, 10.000078, 9.999116 
1.4149883e+3, 2.557187e+2, -512888.6, -565332.9, -24652.709, -0.05375735, 0.053836994, -503119.7, -69156.375, 0.0, 9.99989, 9.999197 
1.4149697e+3, 2.6571807e+2, -408648.97, -447381.72, -3662.4336, -0.045482136, 0.06624807, -408305.72, -72336.0, 0.0, 9.999861, 9.999348 
1.4149512e+3, 2.757177e+2, -294236.3, -336431.94, 1950.6481, -0.03333655, 0.08973544, -294146.34, -56173.914, 0.0, 9.999952, 9.9993925 
1.4149325e+3, 2.8571662e+2, -231025.94, -302331.0, -3415.7747, -0.014877099, 0.066293456, -230862.67, -90879.68, 0.0, 9.999916, 9.998971 
1.4149137e+3, 2.95715e+2, -148210.36, -205379.03, -647.3994, 0.009969932, 0.0015895097, -148203.02, -106204.06, 0.0, 9.999784, 9.999027 
1.4148943e+3, 3.0571517e+2, -88919.195, -120731.516, -15304.948, 0.005459381, 0.109758385, -82751.68, -82751.68, 0.0, 9.9997225, 9.999305 
1.4148748e+3, 3.1571382e+2, -38097.0, -13804.992, 9164.052, 0.022632482, 0.03642386, -10735.699, -10735.699, 0.0, 9.999717, 10.000042 
1.4252433e+3, 1.2574589e+2, -1626488.9, -1764520.6, -92411.8, -0.05228737, -0.010925397, -1580165.6, 127521.875, 0.0067884563, 10.001017, 9.999167 
1.4252259e+3, 1.357458e+2, -1545782.6, -1646307.5, 54489.117, -0.017210875, 0.043131143, -1521914.3, 87775.69, 0.0040137353, 10.000761, 9.999434 
1.4252062e+3, 1.4574413e+2, -1442403.1, -1523066.8, -43810.27, -0.11160474, -0.07465685, -1423186.8, 88518.61, 0.0017207431, 10.000703, 9.999632 
1.4251864e+3, 1.5574391e+2, -1329150.9, -1416469.5, -55520.94, -0.054203317, -0.062352795, -1302179.4, 111525.266, 0.00043489484, 10.000802, 9.999642 
1.4251664e+3, 1.6574343e+2, -1257656.4, -1373267.3, -49602.082, -0.047000833, -0.050351024, -1239292.1, 76416.42, 0.00003950126, 10.000799, 9.999268 
1.4251462e+3, 1.7574273e+2, -1166221.8, -1272567.4, -50548.184, -0.068811476, -0.051232826, -1146029.3, 71686.42, 0.00000008454083, 10.000729, 9.99932 
1.4251257e+3, 1.8574193e+2, -1098300.6, -1220804.3, -54101.82, -0.08825027, -0.04512584, -1077828.6, 41896.664, 0.0, 10.000659, 9.999037 
1.4251055e+3, 1.9574115e+2, -1004520.25, -1114976.1, -51484.496, -0.10874879, -0.033219628, -984244.7, 37490.69, 0.0, 10.000587, 9.999125 
1.4250855e+3, 2.0574054e+2, -899923.75, -989342.2, -41670.695, -0.10495444, -0.014019064, -883515.3, 40227.09, 0.0, 10.000527, 9.999343 
1.4250658e+3, 2.1574013e+2, -805480.25, -887639.7, -40358.715, -0.08178589, 0.005385633, -788972.0, 36774.58, 0.0, 10.00048, 9.999392 
1.4250463e+3, 2.2573951e+2, -752730.25, -840683.8, -29353.318, -0.06827235, 0.020688843, -743833.8, -16079.861, 0.0, 10.000296, 9.999129 
1.4250268e+3, 2.3573878e+2, -691594.06, -753062.06, -29001.664, -0.062776476, 0.031238051, -680070.8, -50307.973, 0.0, 10.0000105, 9.999196 
1.4250074e+3, 2.45738e+2, -611339.7, -666699.6, -15451.8955, -0.059585094, 0.039076842, -607318.9, -75546.875, 0.0, 9.999903, 9.999167 
1.4249882e+3, 2.5573725e+2, -503747.0, -554851.1, -13358.167, -0.05758529, 0.040415224, -500465.94, -66685.305, 0.0, 9.999928, 9.999249 
1.4249694e+3, 2.657367e+2, -418348.13, -449487.9, -379.91495, -0.0494569, 0.059718646, -418343.5, -82557.29, 0.0, 9.999784, 9.999369 
1.4249508e+3, 2.7573645e+2, -355169.13, -362537.63, -8518.94, -0.037828106, 0.090574004, -349571.88, -111783.48, 0.0, 9.99952, 9.99942 
1.4249322e+3, 2.857354e+2, -288770.28, -317219.75, -18394.334, -0.01671833, 0.06618837, -279742.16, -139943.77, 0.0, 9.999465, 9.999084 
1.4249133e+3, 2.9573384e+2, -171550.47, -203657.97, -18220.465, 0.013311012, -0.00568094, -163320.31, -121506.65, 0.0, 9.99957, 9.999141 
1.424894e+3, 3.0573407e+2, -101263.83, -109138.95, -38273.105, 0.018259931, 0.09247319, -66726.27, -66726.27, 0.0, 9.999565, 9.999458 
1.4248745e+3, 3.1573313e+2, -74933.586, -35132.938, -19032.934, 0.041941598, 0.045140546, -27496.459, -27496.459, 0.0, 9.999481, 10.000007 
1.4352447e+3, 1.2576474e+2, -1613783.6, -1737977.1, -101994.86, -0.02381396, -0.0054641706, -1556469.5, 151035.11, 0.007116287, 10.001015, 9.999352 
1.4352266e+3, 1.3576499e+2, -1537051.3, -1630245.9, 44432.727, -0.012204849, 0.069187686, -1519262.4, 90240.77, 0.0042130575, 10.000768, 9.999543 
1.4352068e+3, 1.4576332e+2, -1449744.8, -1541236.6, -41778.93, -0.12259627, -0.046802413, -1433537.8, 77980.69, 0.0018095016, 10.000712, 9.999504 
1.4351873e+3, 1.5576278e+2, -1336282.9, -1433426.8, -53221.723, -0.05306056, -0.055133536, -1312800.8, 100720.35, 0.00045852302, 10.000808, 9.999524 
1.435167e+3, 1.6576223e+2, -1259999.6, -1379857.6, -53332.625, -0.047011547, -0.04051927, -1239704.9, 75820.84, 0.00004241332, 10.000804, 9.999221 
1.4351466e+3, 1.757617e+2, -1167978.5, -1278077.6, -53773.203, -0.08074169, -0.021652974, -1146073.4, 71458.14, 0.00000010052836, 10.000734, 9.999281 
1.4351265e+3, 1.8576084e+2, -1093782.8, -1213423.5, -57401.996, -0.08810274, -0.023066144, -1070696.8, 48844.44, 0.0, 10.000665, 9.999085 
1.4351064e+3, 1.9575982e+2, -1000084.6, -1107857.0, -54500.215, -0.07881947, -0.039043713, -977328.8, 44223.805, 0.0, 10.000593, 9.999171 
1.4350861e+3, 2.0575921e+2, -897591.0, -986355.4, -43792.49, -0.08781912, -0.022588495, -879622.9, 43936.473, 0.0, 10.000533, 9.999362 
1.435066e+3, 2.15759e+2, -803388.2, -884973.94, -42831.11, -0.108306915, 0.013058747, -785032.4, 40529.508, 0.0, 10.000484, 9.999409 
1.4350462e+3, 2.257583e+2, -751842.9, -840561.9, -40103.824, -0.09395882, 0.022806812, -736402.0, -8832.545, 0.0, 10.0003, 9.99913 
1.4350268e+3, 2.3575737e+2, -690569.4, -752651.6, -38558.938, -0.054623578, 0.011770789, -672109.56, -42529.75, 0.0, 10.000015, 9.999198 
1.4350075e+3, 2.457566e+2, -607278.0, -659931.6, -13871.713, -0.04898314, 0.016973987, -603847.0, -72258.555, 0.0, 9.999907, 9.999213 
1.4349882e+3, 2.55756e+2, -500763.2, -550275.25, -12482.549, -0.068444714, 0.029901324, -497794.22, -64199.188, 0.0, 9.999932, 9.99928 
1.4349692e+3, 2.6575544e+2, -429136.66, -473243.3, -9533.874, -0.057215188, 0.05342482, -427164.1, -91562.75, 0.0, 9.999787, 9.999206 
1.4349504e+3, 2.75755e+2, -365377.97, -384135.44, -16471.254, -0.02335468, 0.08257696, -355802.47, -118196.07, 0.0, 9.999519, 9.999273 
1.4349316e+3, 2.85754e+2, -283355.66, -306297.2, -13472.484, -0.010997948, 0.0655798, -277132.2, -137515.92, 0.0, 9.999464, 9.999162 
1.4349125e+3, 2.9575264e+2, -165936.11, -193117.77, -13964.965, -0.013449477, 0.008900946, -160040.25, -118411.32, 0.0, 9.999572, 9.999213 
1.4348935e+3, 3.0575272e+2, -97005.195, -101357.23, -40980.426, 0.009692981, 0.08673347, -58143.055, -58143.055, 0.0, 9.999567, 9.999512 
1.4348744e+3, 3.1575188e+2, -82382.54, -50707.94, -20367.031, 0.08260194, 0.04448054, -40745.32, -40745.32, 0.0, 9.999479, 9.999902 
1.4452457e+3, 1.2578374e+2, -1622584.4, -1736955.5, -80554.07, -0.011398247, -0.01207215, -1580981.6, 126337.12, 0.007468242, 10.000934, 9.999396 
1.4452277e+3, 1.3578396e+2, -1504532.4, -1615234.6, 54751.656, 0.00002173977, 0.06023159, -1482027.9, 127289.62, 0.004428334, 10.000998, 9.999534 
1.4452076e+3, 1.4578238e+2, -1419451.3, -1535600.6, -31007.752, -0.123995915, -0.0414088, -1411691.6, 99640.59, 0.0019071586, 10.000963, 9.999419 
1.445188e+3, 1.5578188e+2, -1330595.1, -1438768.5, -39600.754, -0.057568703, -0.03666112, -1317647.5, 95687.414, 0.00048528938, 10.000886, 9.999448 
1.4451678e+3, 1.6578126e+2, -1260658.8, -1384546.1, -41224.95, -0.04900937, -0.023633529, -1248194.8, 67145.65, 0.000045834735, 10.000822, 9.999179 
1.4451474e+3, 1.7578058e+2, -1167177.5, -1281437.8, -42196.332, -0.07753739, -0.016663868, -1153283.9, 64063.707, 0.00000012546444, 10.000759, 9.999244 
1.4451271e+3, 1.8577968e+2, -1087841.4, -1206914.4, -47147.188, -0.08282652, -0.01964798, -1071434.1, 47923.04, 0.0, 10.000693, 9.999115 
1.4451069e+3, 1.9577876e+2, -993207.25, -1101808.1, -46361.785, -0.073669076, -0.02959517, -976107.75, 45259.555, 0.0, 10.000632, 9.999193 
1.4450866e+3, 2.0577814e+2, -904043.5, -996016.7, -41448.684, -0.08337289, -0.012784093, -888120.8, 35253.273, 0.0, 10.000519, 9.999301 
1.4450665e+3, 2.1577781e+2, -824870.3, -901643.44, -47276.48, -0.10511658, 0.019316765, -802358.6, 23019.09, 0.0, 10.000366, 9.99935 
1.4450467e+3, 2.2577706e+2, -753103.7, -842126.3, -49678.047, -0.09648999, 0.025528338, -730912.94, -3527.092, 0.0, 10.000298, 9.999119 
1.4450268e+3, 2.3577608e+2, -651010.7, -734074.94, -49604.79, -0.066049986, 0.010234286, -627847.0, 1549.3772, 0.0, 10.000291, 9.999191 
1.4450073e+3, 2.4577528e+2, -577453.44, -639527.8, -25873.564, -0.056983303, 0.012386098, -568083.3, -36678.74, 0.0, 10.000088, 9.999266 
1.444988e+3, 2.5577474e+2, -526116.25, -557834.9, -24621.547, -0.06442395, 0.023905883, -512688.4, -79278.25, 0.0, 9.99974, 9.999321 
1.4449689e+3, 2.6577407e+2, -462869.44, -499518.28, -17798.832, -0.05136181, 0.04139056, -455648.16, -120230.875, 0.0, 9.9996, 9.999115 
1.44495e+3, 2.7577344e+2, -357275.38, -388975.78, -19780.168, -0.022673832, 0.06070929, -347778.3, -110353.84, 0.0, 9.999615, 9.999194 
1.444931e+3, 2.857725e+2, -281177.84, -300345.94, -14171.081, -0.014532062, 0.051136043, -273654.2, -134220.27, 0.0, 9.999459, 9.999204 
1.4449118e+3, 2.9577142e+2, -218670.44, -213921.23, -17211.688, -0.021059185, 0.0150369005, -198921.11, -157476.84, 0.0, 9.999191, 9.999253 
1.4448929e+3, 3.0577132e+2, -143265.0, -117329.93, -39828.08, 0.01322993, 0.071465164, -88411.516, -88411.516, 0.0, 9.999225, 9.999566 
1.444874e+3, 3.157706e+2, -84889.37, -58580.434, -18820.97, 0.09972707, 0.036715843, -48772.563, -48772.563, 0.0, 9.999494, 9.99984 
1.4552465e+3, 1.2580293e+2, -1627585.8, -1749764.3, -78067.63, -0.014558623, -0.030569883, -1589546.5, 117582.6, 0.007843074, 10.000941, 9.999307 
1.4552289e+3, 1.3580279e+2, -1512617.3, -1633289.5, 55358.29, 0.018768854, 0.01860506, -1491069.4, 118062.74, 0.004659246, 10.001, 9.99941 
1.4552087e+3, 1.458014e+2, -1422729.3, -1543777.4, -35833.74, -0.11685778, -0.05709842, -1412916.9, 98229.125, 0.0020138784, 10.000966, 9.999363 
1.4551888e+3, 1.558013e+2, -1332920.9, -1445732.3, -43343.57, -0.067846656, -0.0075887516, -1318191.0, 94954.67, 0.00051554677, 10.000893, 9.999398 
1.4551687e+3, 1.6580057e+2, -1262649.1, -1391451.4, -44457.242, -0.053432796, -0.00030328913, -1248794.6, 66357.53, 0.000049828708, 10.000831, 9.999128 
1.4551483e+3, 1.7579943e+2, -1168959.8, -1288035.3, -45255.3, -0.060483567, -0.03494426, -1153712.5, 63450.797, 0.00000016567238, 10.000769, 9.999195 
1.4551279e+3, 1.8579854e+2, -1086330.5, -1206493.1, -50300.574, -0.07343556, -0.033564426, -1068054.3, 51118.344, 0.0, 10.000702, 9.999115 
1.4551075e+3, 1.95798e+2, -992588.25, -1103128.6, -49314.066, -0.092473224, -0.005451756, -973786.4, 47392.863, 0.0, 10.000641, 9.999182 
1.4550872e+3, 2.0579731e+2, -913423.7, -1017916.1, -47615.555, -0.09114205, 0.014323363, -894981.1, 28205.586, 0.0, 10.000526, 9.999148 
1.4550671e+3, 2.1579662e+2, -833811.94, -922226.8, -52677.824, -0.07346177, 0.023918523, -809249.8, 15944.158, 0.0, 10.000372, 9.9992075 
1.455047e+3, 2.2579576e+2, -754514.2, -846758.56, -49686.703, -0.077373035, 0.028832024, -732842.4, -5639.32, 0.0, 10.000302, 9.999086 
1.4550269e+3, 2.3579489e+2, -651854.9, -737458.0, -50313.254, -0.097398706, 0.0267755, -628600.44, 612.1876, 0.0, 10.000295, 9.999167 
1.4550072e+3, 2.4579409e+2, -573314.0, -632366.0, -38456.97, -0.08363088, 0.02557815, -554355.75, -23135.213, 0.0, 10.000091, 9.999314 
1.454988e+3, 2.5579342e+2, -522659.44, -551800.06, -35835.74, -0.04543721, 0.022241887, -498545.22, -65318.883, 0.0, 9.9997425, 9.999363 
1.4549686e+3, 2.657926e+2, -464313.66, -503539.7, -16139.108, -0.032274354, 0.02306097, -458527.03, -123292.62, 0.0, 9.999602, 9.999087 
1.4549495e+3, 2.7579176e+2, -358308.38, -392481.6, -18907.012, -0.037325386, 0.02465592, -349911.13, -112668.06, 0.0, 9.999618, 9.99917 
1.4549303e+3, 2.857909e+2, -280519.75, -300260.13, -23514.281, -0.028525695, 0.022754615, -264888.13, -125636.19, 0.0, 9.999462, 9.999205 
1.4549112e+3, 2.9579008e+2, -218873.72, -214407.56, -25061.055, -0.008955746, 0.012569625, -191480.3, -150220.05, 0.0, 9.999189, 9.999252 
1.4548922e+3, 3.0578977e+2, -140448.66, -111883.086, -28676.732, 0.02881687, 0.046025794, -94129.125, -94129.125, 0.0, 9.999224, 9.999605 
1.4548734e+3, 3.157892e+2, -86018.195, -62443.273, -7252.474, 0.090710975, 0.020484002, -60390.844, -60390.844, 0.0, 9.999497, 9.999813 
1.4652476e+3, 1.2582225e+2, -1608800.3, -1750054.1, -56817.44, -0.016392598, -0.057645544, -1588782.9, 118155.336, 0.008238633, 10.001115, 9.999219 
1.46523e+3, 1.358222e+2, -1520588.8, -1649859.8, 74292.32, 0.029391391, 0.01094268, -1486750.4, 122190.94, 0.00490526, 10.001004, 9.999293 
1.4652096e+3, 1.4582084e+2, -1428964.4, -1556559.6, -18113.021, -0.110323064, -0.047333855, -1426443.0, 84512.195, 0.0021295876, 10.000969, 9.999272 
1.4651898e+3, 1.5582067e+2, -1321600.1, -1449133.3, -28239.844, -0.06390206, 0.0006580099, -1315626.6, 97329.64, 0.0005493483, 10.001012, 9.999316 
1.4651695e+3, 1.6581982e+2, -1236924.8, -1382914.4, -31199.738, -0.051115073, 0.0019139975, -1230536.5, 84427.41, 0.00005433663, 10.001028, 9.99909 
1.4651492e+3, 1.7581855e+2, -1134697.1, -1276195.4, -32079.787, -0.06055116, -0.041250914, -1127763.9, 89211.93, 0.00000022299002, 10.001028, 9.99915 
1.4651287e+3, 1.8581763e+2, -1057664.3, -1206377.0, -44533.06, -0.0751109, -0.033561625, -1045348.44, 73637.086, 0.0, 10.000961, 9.998989 
1.4651081e+3, 1.9581713e+2, -971544.6, -1105768.1, -53392.633, -0.09459279, 0.011014827, -952896.44, 68095.82, 0.0, 10.000843, 9.9990635 
1.4650878e+3, 2.0581631e+2, -891118.44, -1009454.75, -53284.38, -0.088048846, 0.024799138, -870661.9, 52338.92, 0.0, 10.000692, 9.9991255 
1.4650677e+3, 2.1581538e+2, -814126.8, -915480.1, -49309.668, -0.061653413, 0.012382025, -794095.9, 30913.871, 0.0, 10.000523, 9.99918 
1.4650474e+3, 2.2581445e+2, -750102.25, -850266.94, -41029.38, -0.0682966, 0.0143217435, -735441.6, -8422.296, 0.0, 10.00036, 9.999034 
1.465027e+3, 2.3581365e+2, -669153.6, -750897.06, -44486.62, -0.099584475, 0.023121653, -649613.75, -20585.332, 0.0, 10.000201, 9.999119 
1.4650072e+3, 2.4581285e+2, -584541.44, -640582.9, -43521.535, -0.087564826, 0.027943224, -560800.4, -29764.055, 0.0, 10.000029, 9.999287 
1.4649877e+3, 2.5581217e+2, -509731.66, -547471.8, -46797.508, -0.04370012, 0.02680425, -478142.97, -45100.727, 0.0, 9.999842, 9.999343 
1.4649683e+3, 2.6581126e+2, -461816.75, -494052.97, -21218.363, -0.028616322, 0.015000805, -451288.8, -116238.08, 0.0, 9.999586, 9.99916 
1.4649488e+3, 2.7581027e+2, -402306.25, -406773.94, -17294.31, -0.035043903, -0.0064640488, -387102.1, -150042.23, 0.0, 9.999288, 9.999229 
1.4649297e+3, 2.8580946e+2, -329277.6, -331620.66, -21896.047, -0.02500058, -0.0019824184, -308521.75, -169453.42, 0.0, 9.999164, 9.999132 
1.4649104e+3, 2.9580885e+2, -225876.47, -224374.14, -28562.693, -0.0019821879, 0.015873043, -196552.73, -155477.28, 0.0, 9.999171, 9.999191 
1.4648914e+3, 3.0580828e+2, -142123.6, -102487.01, -22714.072, 0.033162575, 0.023267118, -92160.75, -92160.75, 0.0, 9.99917, 9.999694 
1.4648725e+3, 3.1580785e+2, -127662.35, -74886.84, 2194.97, 0.076042295, 0.0034000922, -74795.71, -74795.71, 0.0, 9.999181, 9.999879 
1.4752486e+3, 1.2584177e+2, -1615319.6, -1764126.0, -61195.586, -0.016884727, -0.09403882, -1593386.3, 113359.2, 0.008652812, 10.001114, 9.999125 
1.4752309e+3, 1.358422e+2, -1528036.0, -1667092.5, 68169.664, 0.032021966, 0.03477764, -1500192.4, 108552.33, 0.005165371, 10.001009, 9.999174 
1.4752106e+3, 1.4584082e+2, -1437037.8, -1575837.4, -18875.582, -0.105009355, -0.013991865, -1434516.6, 76242.69, 0.0022538214, 10.0009775, 9.999138 
1.475191e+3, 1.5584005e+2, -1329008.4, -1467033.9, -28217.127, -0.04714326, -0.010862838, -1323462.6, 89303.62, 0.0005865562, 10.0010195, 9.99919 
1.4751707e+3, 1.6583906e+2, -1238292.4, -1388183.8, -32735.266, -0.042998135, -0.01568685, -1231455.1, 83319.91, 0.00005926558, 10.001036, 9.999052 
1.47515e+3, 1.7583798e+2, -1137451.6, -1284245.9, -33454.543, -0.07705756, -0.036396928, -1130186.9, 86597.97, 0.0000002932695, 10.001036, 9.999093 
1.4751296e+3, 1.8583699e+2, -1074276.3, -1243255.6, -49877.29, -0.087600864, -0.02083007, -1060652.5, 58143.23, 0.0, 10.000969, 9.998734 
1.475109e+3, 1.958362e+2, -986310.4, -1138715.5, -58423.86, -0.081153624, 0.020255193, -966491.2, 54314.98, 0.0, 10.000851, 9.998836 
1.4750886e+3, 2.058352e+2, -883669.0, -996192.94, -60049.22, -0.075264856, 0.019629898, -857642.94, 65173.246, 0.0, 10.000699, 9.999215 
1.4750682e+3, 2.1583411e+2, -807889.4, -904717.4, -55631.43, -0.06951826, -0.014828216, -782555.3, 42269.625, 0.0, 10.000529, 9.999252 
1.4750478e+3, 2.2583313e+2, -754795.3, -861966.75, -46864.145, -0.069066614, -0.017752107, -737193.4, -10358.727, 0.0, 10.000365, 9.998952 
1.4750275e+3, 2.358323e+2, -674308.6, -763193.3, -50070.258, -0.072942704, -0.0006471547, -651802.06, -22958.045, 0.0, 10.000205, 9.999034 
1.4750074e+3, 2.4583158e+2, -591803.44, -656966.56, -49817.76, -0.06955257, 0.0193896, -564858.8, -34006.68, 0.0, 10.000031, 9.999174 
1.4749873e+3, 2.55831e+2, -515596.66, -560769.6, -53259.52, -0.060307603, 0.037805386, -480332.25, -47474.0, 0.0, 9.999844, 9.999252 
1.4749676e+3, 2.6583004e+2, -449792.25, -470285.56, -31549.986, -0.041093167, 0.017615102, -426866.7, -92000.08, 0.0, 9.999589, 9.999323 
1.4749484e+3, 2.7582893e+2, -392610.94, -387281.94, -26518.896, -0.015200542, -0.032590386, -363294.0, -126418.625, 0.0, 9.999288, 9.999365 
1.474929e+3, 2.858281e+2, -340139.44, -354762.25, -20477.398, -0.0035599188, -0.023195345, -325707.3, -186823.66, 0.0, 9.999163, 9.998975 
1.4749095e+3, 2.9582763e+2, -234912.77, -244187.56, -27262.867, -0.0016261851, 0.024970777, -211895.7, -171005.1, 0.0, 9.999173, 9.999056 
1.4748906e+3, 3.058268e+2, -132235.69, -83439.305, -21868.078, 0.024632702, 0.0034475734, -75073.42, -75073.42, 0.0, 9.999173, 9.9998255 
1.4748716e+3, 3.1582654e+2, -116026.305, -51307.27, 3270.17, 0.055064436, -0.014317856, -51142.453, -51142.453, 0.0, 9.99918, 10.000043 
1.4852495e+3, 1.2586139e+2, -1631952.8, -1768480.1, -82468.45, -0.035344485, -0.077337556, -1593160.5, 113392.77, 0.009085709, 10.000987, 9.999154 
1.4852321e+3, 1.3586165e+2, -1519412.1, -1662808.6, 52489.766, 0.03974252, 0.030848593, -1502251.9, 106302.0, 0.0054392107, 10.001071, 9.999171 
1.4852118e+3, 1.4586022e+2, -1421315.5, -1578883.8, -28009.2, -0.09376926, -0.014685147, -1416484.8, 94083.99, 0.0023862578, 10.001134, 9.999039 
1.485192e+3, 1.5585935e+2, -1309118.4, -1467182.9, -35244.066, -0.041922398, -0.013563811, -1301616.0, 110961.0, 0.0006271354, 10.001202, 9.9991 
1.4851718e+3, 1.6585831e+2, -1221416.9, -1385564.3, -43318.656, -0.040576436, -0.016936619, -1210686.5, 103899.88, 0.00006459244, 10.001179, 9.999 
1.485151e+3, 1.758572e+2, -1133936.4, -1288247.4, -45871.227, -0.07637134, -0.033051595, -1121330.4, 95265.77, 0.00000037325287, 10.001087, 9.999039 
1.4851305e+3, 1.8585613e+2, -1069293.5, -1245569.8, -55584.902, -0.08471895, -0.02127666, -1053229.9, 65378.01, 0.0, 10.001026, 9.998689 
1.4851099e+3, 1.958552e+2, -968902.9, -1134466.5, -49871.58, -0.07302518, 0.009860186, -955041.0, 65578.8, 0.0, 10.000991, 9.9987955 
1.4850895e+3, 2.0585418e+2, -857269.44, -982670.25, -52317.504, -0.06703821, 0.00912768, -838309.2, 84320.66, 0.0, 10.00088, 9.999219 
1.4850688e+3, 2.1585317e+2, -780844.6, -890965.4, -54834.875, -0.065245606, -0.01896211, -758197.1, 66440.45, 0.0, 10.000714, 9.999255 
1.4850484e+3, 2.2585213e+2, -735017.75, -852687.6, -46923.47, -0.060295686, -0.027368981, -718597.4, 8050.1255, 0.0, 10.000505, 9.998947 
1.485028e+3, 2.3585117e+2, -667170.06, -761484.8, -45079.9, -0.05339897, -0.02337628, -649089.25, -20431.482, 0.0, 10.000264, 9.999016 
1.4850076e+3, 2.4585038e+2, -599810.7, -675971.5, -44022.43, -0.056212276, 0.0011104543, -579683.8, -49017.133, 0.0, 10.000045, 9.999036 
1.484987e+3, 2.5584984e+2, -525060.3, -578658.8, -50595.133, -0.06580217, 0.036214206, -494605.16, -61931.7, 0.0, 9.99984, 9.99913 
1.4849672e+3, 2.658489e+2, -442981.1, -460136.47, -37553.266, -0.04757639, 0.021442022, -413038.3, -78356.66, 0.0, 9.999609, 9.999381 
1.4849478e+3, 2.7584785e+2, -378908.3, -375023.25, -40219.977, -0.009511319, -0.031672623, -336698.9, -100009.24, 0.0, 9.99936, 9.999413 
1.4849283e+3, 2.8584698e+2, -343047.16, -361638.78, -25763.39, 0.0035420717, -0.024107633, -324953.84, -186255.75, 0.0, 9.999169, 9.998922 
1.4849088e+3, 2.9584646e+2, -259873.48, -261249.23, -25043.482, -0.0013997646, 0.023936287, -235508.44, -194802.77, 0.0, 9.999026, 9.999008 
1.4848895e+3, 3.0584547e+2, -156226.66, -88602.69, -16985.639, 0.019508058, -0.018134303, -84576.04, -84576.04, 0.0, 9.998984, 9.999879 
1.4848703e+3, 3.1584555e+2, -128388.305, -40829.12, 1541.0148, 0.03322596, -0.0028567552, -40802.008, -40802.008, 0.0, 9.999027, 10.000186 
1.4952502e+3, 1.2588124e+2, -1621794.8, -1749926.0, -78816.336, -0.07092179, -0.013036347, -1584290.6, 122070.055, 0.009540628, 10.000996, 9.999279 
1.4952333e+3, 1.3588065e+2, -1511911.6, -1649433.3, 53634.594, 0.051978704, 0.00065253593, -1493467.4, 114900.32, 0.0057284096, 10.001079, 9.999261 
1.495213e+3, 1.4587921e+2, -1425163.5, -1589191.1, -27696.088, -0.07743654, -0.047022752, -1420613.3, 89768.97, 0.002527607, 10.001142, 9.998966 
1.4951932e+3, 1.5587865e+2, -1312861.3, -1477183.9, -34464.68, -0.04800248, -0.007883564, -1305925.5, 106462.19, 0.00067147135, 10.001208, 9.99903 
1.495173e+3, 1.6587761e+2, -1225644.8, -1396703.9, -47924.13, -0.043966476, -0.0029736648, -1213133.4, 101263.91, 0.0000704572, 10.001186, 9.99892 
1.4951524e+3, 1.7587632e+2, -1137063.5, -1297106.3, -49993.742, -0.05967162, -0.031076822, -1122730.3, 93678.984, 0.00000046463128, 10.001095, 9.998976 
1.4951317e+3, 1.8587513e+2, -1058039.5, -1224368.9, -57671.133, -0.06776583, -0.033915862, -1039999.8, 78421.74, 0.0, 10.001032, 9.998833 
1.4951111e+3, 1.9587417e+2, -959033.4, -1115997.0, -52134.582, -0.07038181, -0.019367011, -943295.2, 77137.72, 0.0, 10.000997, 9.998921 
1.4950903e+3, 2.058733e+2, -862521.75, -995473.8, -58954.938, -0.0634885, -0.0067038056, -840145.4, 82296.266, 0.0, 10.000886, 9.99913 
1.4950696e+3, 2.1587254e+2, -785176.6, -901678.94, -61414.71, -0.049365945, -0.00048653607, -758781.7, 65665.984, 0.0, 10.000719, 9.999182 
1.495049e+3, 2.2587144e+2, -730069.5, -843988.9, -55768.453, -0.04271703, -0.014880608, -707313.94, 19143.938, 0.0, 10.000509, 9.999006 
1.4950283e+3, 2.358702e+2, -663774.6, -755928.56, -53601.508, -0.04148493, -0.04508805, -639167.75, -10697.862, 0.0, 10.000269, 9.999053 
1.4950076e+3, 2.4586928e+2, -611604.44, -701838.06, -51110.297, -0.04787145, -0.026775515, -588546.56, -58066.332, 0.0, 10.000048, 9.9988575 
1.494987e+3, 2.558687e+2, -536285.56, -603053.9, -57493.254, -0.06005031, 0.021962194, -503186.78, -70698.51, 0.0, 9.999842, 9.998962 
1.4949667e+3, 2.6586786e+2, -446490.84, -468432.53, -45875.906, -0.048256107, 0.02660377, -410292.22, -75795.836, 0.0, 9.999611, 9.999325 
1.4949471e+3, 2.7586696e+2, -381838.9, -382189.5, -48164.836, -0.019262291, -0.0031102377, -333849.03, -97345.71, 0.0, 9.999363, 9.999363 
1.4949273e+3, 2.8586602e+2, -339478.5, -355456.2, -30333.322, -0.005007277, -0.0043470203, -316099.66, -177587.38, 0.0, 9.999172, 9.998965 
1.4949077e+3, 2.9586524e+2, -257539.78, -257223.56, -29031.027, -0.001310306, 0.0124122985, -228350.22, -187828.75, 0.0, 9.999027, 9.999037 
1.4948884e+3, 3.0586407e+2, -158332.67, -94071.3, -14681.844, 0.017967077, -0.04139577, -90875.83, -90875.83, 0.0, 9.998986, 9.999843 
1.4948691e+3, 3.158648e+2, -119892.33, -24473.727, 2894.1511, 0.009207034, 0.036538236, -24386.023, -24386.023, 0.0, 9.99903, 10.0002985 
1.5052511e+3, 1.259005e+2, -1587885.9, -1733401.3, -65667.07, -0.07476315, -0.010106864, -1562634.1, 143537.83, 0.010022336, 10.001233, 9.999277 
1.5052344e+3, 1.3589977e+2, -1490917.0, -1639842.0, 55515.66, 0.052579194, -0.011038357, -1472499.8, 135679.94, 0.006035899, 10.001229, 9.999252 
1.5052143e+3, 1.4589836e+2, -1414451.5, -1586492.5, -27311.852, -0.07344473, -0.054488603, -1410219.8, 99973.98, 0.002679399, 10.001229, 9.998941 
1.5051945e+3, 1.5589769e+2, -1307930.6, -1476992.9, -31572.184, -0.04167563, -0.021843594, -1302227.0, 109973.28, 0.00072023395, 10.001254, 9.999008 
1.5051742e+3, 1.6589668e+2, -1215553.3, -1390581.1, -44196.33, -0.03689862, -0.015128419, -1205026.4, 109183.664, 0.00007712446, 10.001252, 9.99893 
1.5051536e+3, 1.7589548e+2, -1117148.4, -1285872.4, -40935.957, -0.053806987, -0.034660716, -1107740.9, 108480.32, 0.00000057502143, 10.001227, 9.998987 
1.5051328e+3, 1.8589438e+2, -1044623.56, -1212779.3, -52425.223, -0.061348863, -0.032709844, -1029618.1, 88614.8, 0.0, 10.001105, 9.998876 
1.505112e+3, 1.9589348e+2, -967991.75, -1115823.8, -55043.797, -0.062276244, -0.016699575, -949748.1, 70495.48, 0.0, 10.000918, 9.998959 
1.5050912e+3, 2.058926e+2, -879387.3, -1005477.06, -63352.5, -0.05757158, -0.004711385, -853055.44, 69197.02, 0.0, 10.000781, 9.99911 
1.5050703e+3, 2.158918e+2, -792246.25, -906387.4, -61833.62, -0.04829011, 0.00019353628, -765171.44, 59087.695, 0.0, 10.000679, 9.9991665 
1.5050495e+3, 2.2589074e+2, -725972.8, -837443.1, -58653.977, -0.041004892, -0.011117444, -700796.3, 25472.502, 0.0, 10.000521, 9.999043 
1.5050286e+3, 2.358896e+2, -654104.0, -747703.1, -58756.605, -0.035361648, -0.03579434, -625786.7, 2492.8289, 0.0, 10.000322, 9.999083 
1.5050077e+3, 2.4588855e+2, -602025.5, -700932.75, -50366.563, -0.03982438, -0.028794957, -580892.6, -50601.934, 0.0, 10.000133, 9.998821 
1.5049869e+3, 2.5588772e+2, -524308.44, -602193.5, -47218.133, -0.05195851, -0.0026101223, -502045.8, -69744.84, 0.0, 9.9999485, 9.998916 
1.5049665e+3, 2.6588687e+2, -438159.94, -479954.06, -37016.47, -0.046149466, 0.01421109, -416549.28, -82239.7, 0.0, 9.999738, 9.999183 
1.5049464e+3, 2.758862e+2, -369137.28, -389635.25, -46342.08, -0.027445633, 0.020734724, -331924.4, -95608.54, 0.0, 9.999512, 9.999239 
1.5049264e+3, 2.8588527e+2, -320445.28, -335074.2, -28139.877, -0.0130390255, 0.019276993, -298684.78, -160360.1, 0.0, 9.999258, 9.999063 
1.5049067e+3, 2.958843e+2, -258340.3, -249097.23, -22609.682, -0.0016355921, 0.010846068, -230641.6, -190307.6, 0.0, 9.998988, 9.999109 
1.5048873e+3, 3.0588293e+2, -192405.02, -125421.945, -4784.816, 0.018593261, -0.06213742, -125081.88, -125081.88, 0.0, 9.998819, 9.999706 
1.504868e+3, 3.1588385e+2, -159750.1, -37879.582, 3200.5178, -0.007512621, 0.0471375, -37795.586, -37795.586, 0.0, 9.998734, 10.000348 
1.5152526e+3, 1.2591937e+2, -1594310.4, -1750636.4, -65136.137, -0.05089877, -0.061734524, -1570727.8, 135257.89, 0.010534585, 10.001246, 9.999153 
1.5152356e+3, 1.3591911e+2, -1496201.9, -1654076.3, 53778.56, 0.041756447, -0.005225321, -1479623.5, 128365.63, 0.0063640033, 10.001241, 9.999151 
1.5152155e+3, 1.4591776e+2, -1412699.6, -1585635.0, -27951.365, -0.081078015, -0.039065316, -1408294.1, 101708.68, 0.0028427918, 10.001238, 9.998944 
1.515196e+3, 1.5591662e+2, -1306639.1, -1476041.4, -31783.893, -0.02393237, -0.054339044, -1300872.0, 111141.93, 0.00077386264, 10.001259, 9.999014 
1.5151756e+3, 1.6591561e+2, -1208794.0, -1378253.1, -46326.742, -0.020594355, -0.051411632, -1196956.1, 117067.62, 0.00008481934, 10.001256, 9.999014 
1.5151547e+3, 1.7591476e+2, -1111013.4, -1275387.4, -43364.836, -0.058871835, -0.043320533, -1100274.5, 115757.31, 0.00000071310234, 10.001234, 9.999058 
1.515134e+3, 1.8591388e+2, -1047902.94, -1222033.3, -60279.492, -0.06547111, -0.018511055, -1029072.1, 88969.63, 0.0, 10.001113, 9.99881 
1.515113e+3, 1.959131e+2, -970899.44, -1124129.3, -62198.53, -0.048888568, 0.016513033, -948830.5, 71221.22, 0.0, 10.000925, 9.998899 
1.5150921e+3, 2.0591207e+2, -875808.94, -1000014.2, -67496.45, -0.04958328, 0.014583875, -846191.9, 75870.3, 0.0, 10.000787, 9.999146 
1.5150708e+3, 2.1591097e+2, -789160.44, -901694.2, -66025.695, -0.06216829, -0.016434321, -758678.5, 65393.31, 0.0, 10.000684, 9.999198 
1.5150498e+3, 2.2591004e+2, -724809.94, -836701.8, -65893.9, -0.055263046, -0.015663318, -694315.44, 31764.918, 0.0, 10.000525, 9.999048 
1.5150289e+3, 2.3590934e+2, -652532.94, -746058.0, -65646.73, -0.035028055, 0.004342444, -618696.25, 9390.664, 0.0, 10.000327, 9.999093 
1.5150079e+3, 2.4590819e+2, -594817.5, -687401.6, -56659.445, -0.03233808, -0.0051365364, -567943.7, -37845.313, 0.0, 10.000136, 9.998915 
1.5149869e+3, 2.5590685e+2, -519301.4, -592986.56, -53475.62, -0.04207635, -0.037814815, -491205.4, -59093.504, 0.0, 9.99995, 9.998979 
1.5149662e+3, 2.6590598e+2, -454597.9, -515396.3, -44488.984, -0.041724283, -0.016090978, -431114.06, -96992.33, 0.0, 9.999741, 9.9989395 
1.5149458e+3, 2.7590552e+2, -383244.16, -420439.66, -53786.168, -0.0342877, 0.03981704, -344931.22, -108803.38, 0.0, 9.999516, 9.999027 
1.5149255e+3, 2.8590468e+2, -309515.34, -313933.03, -37476.582, -0.02093224, 0.046999454, -274182.56, -136046.66, 0.0, 9.999262, 9.9992075 
1.5149057e+3, 2.9590368e+2, -250287.02, -233498.84, -31416.273, -0.003430073, 0.019860387, -209374.6, -169230.66, 0.0, 9.99899, 9.999218 
1.5148862e+3, 3.059019e+2, -209842.86, -162915.38, -7363.941, 0.020380113, -0.08021843, -161786.95, -161786.95, 0.0, 9.998821, 9.99945 
1.5148665e+3, 3.1590253e+2, -161192.45, -41664.434, -1059.795, -0.016707432, 0.022894086, -41655.04, -41655.04, 0.0, 9.998734, 10.000324 
1.5252541e+3, 1.2593868e+2, -1545836.1, -1734316.6, -47946.79, -0.03699647, -0.083137356, -1534340.4, 171454.63, 0.011079115, 10.001617, 9.999084 
1.525237e+3, 1.3593838e+2, -1449707.4, -1637859.0, 70500.14, 0.041094083, -0.025267692, -1426222.4, 181576.5, 0.006713826, 10.001592, 9.999092 
1.5252167e+3, 1.4593709e+2, -1387708.6, -1579348.6, -15677.878, -0.08379797, -0.045431625, -1386434.5, 123377.516, 0.0030180488, 10.001437, 9.998891 
1.525197e+3, 1.5593585e+2, -1318584.0, -1486838.1, -23130.152, -0.026431719, -0.065082386, -1315462.1, 96362.28, 0.000832263, 10.001201, 9.998966 
1.5251768e+3, 1.6593486e+2, -1220530.6, -1380847.0, -36991.934, -0.022619348, -0.059585948, -1212406.6, 101427.805, 0.000093586605, 10.001165, 9.999038 
1.5251559e+3, 1.7593412e+2, -1104176.1, -1269215.4, -39869.582, -0.06120685, -0.04297844, -1095049.3, 120792.52, 0.0000008739153, 10.00127, 9.999082 
1.525135e+3, 1.859333e+2, -1030665.7, -1209532.9, -62426.176, -0.06658482, -0.015705138, -1011033.25, 106818.086, 0.0, 10.001216, 9.998845 
1.525114e+3, 1.9593254e+2, -950476.9, -1110224.6, -57518.836, -0.047304023, 0.017410127, -931921.8, 87939.33, 0.0, 10.001051, 9.998934 
1.5250929e+3, 2.0593153e+2, -862653.94, -990977.3, -59954.58, -0.04661159, 0.01563442, -839001.75, 82869.73, 0.0, 10.000869, 9.999167 
1.5250716e+3, 2.1593046e+2, -789362.56, -899536.9, -60440.42, -0.05928361, -0.013599817, -762671.7, 61209.234, 0.0, 10.000675, 9.999216 
1.5250503e+3, 2.2592956e+2, -729616.9, -837761.4, -62658.258, -0.053382266, -0.011224083, -700925.2, 24964.148, 0.0, 10.000489, 9.999057 
1.5250292e+3, 2.359289e+2, -653788.9, -744197.3, -62739.383, -0.03487167, 0.010099754, -621664.9, 6231.0205, 0.0, 10.000311, 9.999112 
1.5250081e+3, 2.4592778e+2, -589541.0, -671092.1, -53146.49, -0.031175252, -0.003391171, -563330.06, -33423.52, 0.0, 10.000117, 9.999034 
1.5249869e+3, 2.5592646e+2, -518387.2, -581372.2, -48636.965, -0.037691724, -0.043602567, -491937.2, -60018.426, 0.0, 9.999912, 9.999076 
1.5249659e+3, 2.6592556e+2, -473433.88, -534652.1, -34966.09, -0.036419302, -0.022409355, -457572.1, -123643.13, 0.0, 9.999659, 9.998846 
1.5249452e+3, 2.7592507e+2, -410582.4, -442523.1, -33496.84, -0.029957915, 0.037455823, -389443.6, -153506.97, 0.0, 9.999369, 9.998944 
1.5249248e+3, 2.8592426e+2, -314378.56, -312459.2, -14461.358, -0.021946132, 0.048658565, -298925.72, -160980.98, 0.0, 9.999215, 9.999239 
1.5249045e+3, 2.9592335e+2, -224907.84, -219209.58, -17652.664, -0.013055966, 0.02719658, -204177.6, -164226.14, 0.0, 9.999159, 9.999233 
1.524885e+3, 3.0592147e+2, -208138.66, -175713.08, 5942.091, 0.015201958, -0.0781806, -174658.47, -174658.47, 0.0, 9.998896, 9.999324 
1.5248652e+3, 3.159219e+2, -189637.88, -43051.54, 19479.912, -0.019358395, 0.020302495, -40507.016, -40507.016, 0.0, 9.998489, 10.00043 
1.5352559e+3, 1.2595847e+2, -1547207.4, -1739331.8, -49072.918, -0.03229792, -0.07856864, -1535398.8, 170200.44, 0.011656279, 10.001625, 9.999049 
1.5352386e+3, 1.3595764e+2, -1451137.1, -1642845.6, 66342.195, 0.04921307, -0.069475874, -1430418.1, 177190.05, 0.0070863036, 10.001598, 9.999056 
1.5352182e+3, 1.4595647e+2, -1393870.1, -1595120.9, -27012.656, -0.0829713, -0.07147012, -1390307.4, 119313.164, 0.0032053825, 10.001447, 9.998779 
1.535198e+3, 1.5595548e+2, -1323638.0, -1501141.0, -32276.545, -0.048469614, -0.05532139, -1317951.1, 93680.1, 0.000895085, 10.001215, 9.998863 
1.5351777e+3, 1.659545e+2, -1221783.5, -1386999.0, -34084.66, -0.042183015, -0.04177956, -1215027.9, 98613.68, 0.000103323626, 10.001178, 9.998992 
1.5351571e+3, 1.7595363e+2, -1105588.3, -1274027.1, -37592.574, -0.060837165, -0.03433338, -1097579.1, 118071.53, 0.0000010362653, 10.001275, 9.999048 
1.5351363e+3, 1.8595268e+2, -1021587.3, -1191858.3, -69405.53, -0.06513044, -0.0234958, -996881.2, 120780.086, 0.0, 10.001218, 9.998967 
1.535115e+3, 1.9595183e+2, -942029.25, -1094191.5, -64231.6, -0.057747997, -0.012451238, -918541.1, 101130.484, 0.0, 10.001055, 9.999043 
1.5350938e+3, 2.0595099e+2, -862212.44, -991858.44, -67552.54, -0.04911633, -0.0007067584, -833411.94, 88268.336, 0.0, 10.000873, 9.999161 
1.5350723e+3, 2.159503e+2, -789037.5, -900668.1, -67566.21, -0.04006685, 0.008198121, -757214.1, 66472.39, 0.0, 10.00068, 9.9992075 
1.535051e+3, 2.2594932e+2, -728581.4, -837214.44, -69215.4, -0.03591157, 0.001744138, -694914.6, 30781.396, 0.0, 10.000494, 9.99906 
1.5350296e+3, 2.3594822e+2, -652008.4, -741974.7, -68994.625, -0.035250712, -0.018312551, -614628.06, 13078.564, 0.0, 10.000314, 9.999127 
1.5350083e+3, 2.4594729e+2, -579103.75, -650968.0, -60171.836, -0.036562316, -0.02323841, -544951.9, -15236.428, 0.0, 10.00012, 9.999172 
1.5349868e+3, 2.5594655e+2, -508846.66, -563124.4, -55631.086, -0.03934425, -0.019653264, -474087.75, -42365.902, 0.0, 9.999916, 9.999201 
1.5349656e+3, 2.6594567e+2, -469496.2, -527905.25, -44809.582, -0.030974992, -0.004728584, -445214.22, -111482.58, 0.0, 9.999661, 9.998892 
1.5349448e+3, 2.759448e+2, -407657.6, -437694.88, -42434.84, -0.014770596, 0.012884653, -377662.06, -141919.31, 0.0, 9.999372, 9.998978 
1.534924e+3, 2.8594393e+2, -320291.47, -326139.78, -15313.748, -0.016504206, 0.023467554, -307625.2, -169873.47, 0.0, 9.999218, 9.9991455 
1.5349035e+3, 2.9594323e+2, -230059.45, -231958.98, -19998.62, -0.03146451, 0.032418888, -210988.06, -171230.73, 0.0, 9.999165, 9.999145 
1.5348838e+3, 3.059415e+2, -207283.08, -175829.89, -8425.718, 0.0022547834, -0.05549072, -173715.0, -173715.0, 0.0, 9.9989, 9.999322 
1.5348637e+3, 3.1594187e+2, -173291.98, -9288.471, 3397.1738, -0.01614684, 0.036461454, -9218.132, -9218.132, 0.0, 9.998487, 10.000666 
1.5452574e+3, 1.2597796e+2, -1528460.9, -1741083.0, -62703.69, -0.036151078, -0.07670999, -1511346.6, 194060.88, 0.012267676, 10.001805, 9.998949 
1.5452401e+3, 1.3597687e+2, -1444896.0, -1647346.5, 45758.797, 0.043231327, -0.0863473, -1435033.9, 172385.19, 0.0074834554, 10.0016775, 9.998985 
1.5452196e+3, 1.4597577e+2, -1364346.9, -1576371.9, -44472.563, -0.08490836, -0.07940042, -1355396.5, 154034.14, 0.003405831, 10.001635, 9.9988165 
1.5451993e+3, 1.5597484e+2, -1256646.3, -1464575.6, -40147.31, -0.05438372, -0.061140034, -1249163.8, 162276.89, 0.0009623528, 10.001659, 9.9988985 
1.5451789e+3, 1.6597387e+2, -1176653.1, -1361497.5, -35729.38, -0.04536625, -0.04756255, -1169987.3, 143463.58, 0.000113970855, 10.001473, 9.999023 
1.5451585e+3, 1.7597304e+2, -1122242.8, -1277563.4, -34337.12, -0.056872208, -0.040514942, -1114990.4, 100469.42, 0.0000011877057, 10.001144, 9.999084 
1.5451373e+3, 1.8597217e+2, -1049776.6, -1194810.0, -65077.863, -0.060386345, -0.029986462, -1024857.2, 92612.79, 0.0, 10.000981, 9.99906 
1.545116e+3, 1.9597138e+2, -953838.94, -1089606.8, -62993.14, -0.057022553, -0.019535463, -929114.2, 90365.32, 0.0, 10.000932, 9.999133 
1.5450945e+3, 2.0597067e+2, -867993.0, -987074.2, -67408.26, -0.047915455, -0.003547196, -837594.94, 83892.15, 0.0, 10.000803, 9.999227 
1.545073e+3, 2.1597014e+2, -793250.2, -895719.6, -62783.16, -0.03541013, 0.013114834, -763449.6, 60042.508, 0.0, 10.000624, 9.999267 
1.5450513e+3, 2.2596915e+2, -738442.1, -838626.8, -62558.98, -0.03205068, 0.0032841193, -708391.7, 17109.953, 0.0, 10.000415, 9.999086 
1.5450297e+3, 2.35968e+2, -668882.6, -746230.3, -61206.547, -0.034824688, -0.0277039, -635155.44, -7642.4487, 0.0, 10.000184, 9.99916 
1.5450081e+3, 2.4596715e+2, -596210.56, -645850.4, -53761.516, -0.038433146, -0.029268775, -561816.2, -32295.402, 0.0, 9.999948, 9.9992895 
1.5449865e+3, 2.5596666e+2, -531706.94, -562187.56, -51247.387, -0.043166455, -0.012279797, -493481.72, -61956.977, 0.0, 9.99971, 9.999306 
1.5449652e+3, 2.6596582e+2, -477055.8, -530037.44, -40522.098, -0.031074833, 0.0015958184, -455133.78, -121599.69, 0.0, 9.999606, 9.998902 
1.5449442e+3, 2.7596486e+2, -374897.56, -420987.75, -41759.934, -0.006950298, 0.0074714194, -350246.03, -114699.9, 0.0, 9.999596, 9.998983 
1.5449233e+3, 2.8596398e+2, -302137.66, -316749.66, -14500.197, -0.009510194, 0.020047352, -293206.88, -155651.61, 0.0, 9.999344, 9.999148 
1.5449026e+3, 2.959634e+2, -265646.75, -249215.78, -12766.839, -0.031617265, 0.042264543, -242249.48, -202689.13, 0.0, 9.998924, 9.999141 
1.5448825e+3, 3.0596182e+2, -233388.23, -191948.69, 1012.91296, -0.0024049117, -0.028731128, -191923.95, -191923.95, 0.0, 9.99874, 9.999288 
1.5448621e+3, 3.1596208e+2, -127002.1, 33159.953, 6494.882, -0.03180423, 0.050928544, 33422.9, 33422.9, 0.0, 9.998722, 10.000842 
1.5552592e+3, 1.259973e+2, -1537957.0, -1764065.6, -67853.766, -0.049286515, -0.0753807, -1519157.6, 186060.69, 0.012919443, 10.001816, 9.998788 
1.5552416e+3, 1.3599613e+2, -1450869.8, -1662649.8, 39778.2, 0.024229433, -0.07838601, -1443644.8, 163585.84, 0.007909282, 10.001688, 9.998877 
1.5552212e+3, 1.4599507e+2, -1351857.5, -1552977.4, -45046.758, -0.08931707, -0.07105238, -1342228.9, 167012.56, 0.0036216094, 10.001642, 9.998975 
1.5552011e+3, 1.5599401e+2, -1245628.4, -1442979.0, -41656.18, -0.04582142, -0.08129898, -1237196.0, 174055.92, 0.0010349307, 10.001661, 9.999047 
1.5551805e+3, 1.6599312e+2, -1169609.1, -1347867.9, -49444.934, -0.034074936, -0.07486964, -1156812.8, 156448.64, 0.0001257149, 10.001475, 9.999118 
1.5551595e+3, 1.7599243e+2, -1115198.0, -1264555.6, -46648.79, -0.050138, -0.06061378, -1101825.5, 113443.375, 0.0000013544981, 10.001149, 9.999174 
1.5551384e+3, 1.8599178e+2, -1045015.25, -1186886.6, -67653.11, -0.05327706, -0.0352424, -1017926.4, 99350.82, 0.0, 10.000987, 9.999113 
1.5551169e+3, 1.9599126e+2, -948813.6, -1080934.0, -65688.14, -0.045582186, -0.0047847843, -921713.3, 97571.39, 0.0, 10.0009365, 9.999192 
1.5550953e+3, 2.0599058e+2, -858530.8, -968990.94, -74399.836, -0.043247484, 0.006502973, -821101.9, 100190.086, 0.0, 10.000807, 9.99935 
1.5550736e+3, 2.1598996e+2, -784515.75, -879102.44, -69663.625, -0.04548206, 0.0016629791, -747608.9, 75688.91, 0.0, 10.0006275, 9.999381 
1.5550518e+3, 2.2598906e+2, -734762.44, -832800.6, -70914.64, -0.041985895, -0.005964282, -697573.9, 27732.377, 0.0, 10.00042, 9.999126 
1.5550299e+3, 2.3598813e+2, -664968.4, -739996.3, -69308.81, -0.033952866, -0.01818023, -623672.4, 3642.9458, 0.0, 10.000189, 9.999202 
1.555008e+3, 2.4598734e+2, -589332.9, -633376.25, -61957.055, -0.037522472, -0.021801358, -545600.25, -16277.457, 0.0, 9.999952, 9.999374 
1.5549862e+3, 2.5598675e+2, -525988.8, -551909.8, -58421.43, -0.049476147, -0.02184924, -479107.53, -47779.684, 0.0, 9.999714, 9.999375 
1.5549648e+3, 2.65986e+2, -478509.66, -534828.0, -39654.305, -0.036935046, -0.003634605, -458033.4, -124696.664, 0.0, 9.999611, 9.998869 
1.5549439e+3, 2.7598518e+2, -375654.9, -424663.25, -42227.766, -0.0076886844, 0.021177473, -351336.56, -115989.336, 0.0, 9.999601, 9.998958 
1.5549228e+3, 2.8598437e+2, -294949.53, -303656.28, -29305.035, -0.0021625974, 0.038251065, -269676.28, -132320.31, 0.0, 9.999349, 9.999237 
1.5549016e+3, 2.9598385e+2, -260405.6, -239218.64, -26351.129, -0.013954066, 0.057135027, -221411.34, -182050.16, 0.0, 9.998924, 9.99921 
1.5548812e+3, 3.059824e+2, -239043.48, -204967.48, 1727.1129, 0.00010661154, 0.0025461493, -204880.17, -204880.17, 0.0, 9.998742, 9.999199 
1.5548603e+3, 3.1598234e+2, -119029.64, 47230.996, 3432.9102, -0.0678013, 0.058010954, 47301.848, 47301.848, 0.0, 9.99873, 10.0009365 
1.565261e+3, 1.2601675e+2, -1492345.8, -1737208.6, -68629.64, -0.04336301, -0.056562487, -1474422.4, 230606.06, 0.013621915, 10.002118, 9.998825 
1.5652435e+3, 1.3601534e+2, -1408589.1, -1635698.6, 48431.54, 0.017904496, -0.09042214, -1398692.3, 208350.05, 0.0083697075, 10.001957, 9.99893 
1.5652229e+3, 1.4601439e+2, -1339308.1, -1540921.6, -36069.72, -0.086632885, -0.07730637, -1333049.4, 176002.53, 0.0038559153, 10.001707, 9.999024 
1.5652028e+3, 1.5601341e+2, -1279131.0, -1453122.6, -40948.77, -0.038329553, -0.08301547, -1269975.5, 141086.23, 0.001114356, 10.00141, 9.999098 
1.5651819e+3, 1.6601259e+2, -1201968.3, -1354139.4, -56054.297, -0.026369596, -0.07500639, -1183549.4, 129521.21, 0.00013896721, 10.001217, 9.999197 
1.5651608e+3, 1.7601201e+2, -1118462.5, -1256445.5, -54880.43, -0.04531341, -0.059781484, -1099296.9, 115780.5, 0.0000015912761, 10.001088, 9.999257 
1.5651393e+3, 1.8601145e+2, -1042373.2, -1168453.5, -68591.12, -0.049779676, -0.036751848, -1012253.25, 104831.28, 0.0, 10.000934, 9.999264 
1.5651178e+3, 1.9601102e+2, -963522.44, -1072118.4, -60521.69, -0.042468727, -0.011156229, -936511.5, 82579.11, 0.0, 10.00077, 9.9993305 
1.5650961e+3, 2.0601048e+2, -872918.4, -967966.4, -69537.65, -0.044172864, 0.0032365748, -836216.4, 84880.3, 0.0, 10.000677, 9.999418 
1.565074e+3, 2.1601e+2, -779584.1, -868676.6, -70179.89, -0.052858893, 0.0068657314, -741006.44, 82095.02, 0.0, 10.000629, 9.999451 
1.5650521e+3, 2.2600918e+2, -721232.2, -813122.7, -74612.51, -0.049698103, -0.0039487113, -679553.25, 45555.953, 0.0, 10.000459, 9.999241 
1.56503e+3, 2.3600824e+2, -655907.94, -724547.3, -68159.65, -0.03830152, -0.026917687, -613915.25, 13202.339, 0.0, 10.000207, 9.999298 
1.565008e+3, 2.460075e+2, -583511.2, -635929.25, -63397.785, -0.036851127, -0.024800815, -541118.56, -11993.775, 0.0, 10.000019, 9.999323 
1.564986e+3, 2.5600705e+2, -505306.47, -545861.3, -70503.984, -0.04235277, -0.0083296625, -452221.84, -21092.15, 0.0, 9.999876, 9.999338 
1.5649645e+3, 2.6600632e+2, -467186.84, -515595.72, -48310.137, -0.032834493, 0.0073566795, -437356.8, -104218.63, 0.0, 9.999633, 9.99899 
1.5649432e+3, 2.7600545e+2, -409715.3, -429595.97, -40220.62, -0.013087169, 0.01650226, -378224.88, -143076.8, 0.0, 9.999321, 9.999058 
1.564922e+3, 2.8600466e+2, -323775.78, -323526.84, -31473.01, -0.0067606415, 0.032363698, -292178.03, -155020.98, 0.0, 9.999179, 9.999181 
1.5649007e+3, 2.960042e+2, -230825.81, -230349.73, -39694.195, -0.011145853, 0.062093966, -190892.88, -151729.98, 0.0, 9.999154, 9.999159 
1.5648802e+3, 3.06003e+2, -211647.52, -195395.56, -11252.677, 0.001597074, 0.033530522, -189641.55, -189641.55, 0.0, 9.99895, 9.999163 
1.5648589e+3, 3.1600258e+2, -128820.734, 52639.72, -10337.593, -0.077073865, 0.0591499, 53226.74, 53226.74, 0.0, 9.998622, 10.001024 
1.5752634e+3, 1.2603644e+2, -1477046.0, -1708372.1, -74431.76, -0.02103738, -0.021575818, -1455166.3, 249670.67, 0.014385021, 10.00213, 9.99902 
1.5752454e+3, 1.3603456e+2, -1395455.8, -1609929.5, 40120.848, 0.021945784, -0.120474435, -1388196.3, 218656.92, 0.008871077, 10.001962, 9.999105 
1.5752245e+3, 1.4603376e+2, -1342439.0, -1549043.4, -48903.84, -0.07840059, -0.09635185, -1331448.0, 177412.98, 0.0041123773, 10.001711, 9.998968 
1.5752041e+3, 1.5603308e+2, -1281572.9, -1460629.5, -52185.848, -0.031803835, -0.06781625, -1267473.6, 143395.67, 0.0012023009, 10.001417, 9.999043 
1.5751833e+3, 1.6603236e+2, -1196820.5, -1346082.4, -61552.9, -0.022225218, -0.05011825, -1174711.9, 138165.92, 0.00015407543, 10.0012245, 9.99925 
1.5751618e+3, 1.7603178e+2, -1112697.8, -1246425.6, -60448.492, -0.042616706, -0.03917733, -1089424.0, 125460.734, 0.0000019351096, 10.001093, 9.999325 
1.5751402e+3, 1.8603119e+2, -1025265.75, -1134841.5, -75235.56, -0.050090697, -0.034709778, -986983.25, 129908.34, 0.0, 10.000939, 9.999494 
1.5751186e+3, 1.9603072e+2, -948134.9, -1042368.25, -66448.07, -0.047901276, -0.03779811, -913794.06, 105102.93, 0.0, 10.000776, 9.999534 
1.5750967e+3, 2.0603038e+2, -871808.2, -967575.4, -71424.08, -0.05110937, -0.012561025, -833702.06, 87199.18, 0.0, 10.000682, 9.99942 
1.5750746e+3, 2.1603027e+2, -777530.56, -865977.56, -72655.81, -0.057798877, 0.02836787, -736697.7, 86205.69, 0.0, 10.000633, 9.999469 
1.5750524e+3, 2.2602946e+2, -707927.4, -787256.8, -83750.79, -0.055652015, 0.008818368, -654923.44, 69987.27, 0.0, 10.000463, 9.999418 
1.5750301e+3, 2.360283e+2, -645382.9, -704464.5, -76562.86, -0.048008226, -0.053842507, -592859.5, 34060.625, 0.0, 10.000211, 9.999435 
1.575008e+3, 2.4602766e+2, -596500.2, -664638.75, -67851.23, -0.036447924, -0.03798945, -554645.1, -25718.152, 0.0, 10.000024, 9.9991255 
1.5749861e+3, 2.5602752e+2, -515009.9, -567749.6, -75322.45, -0.0226065, 0.028354762, -461574.72, -30643.988, 0.0, 9.99988, 9.9991865 
1.5749642e+3, 2.6602674e+2, -447931.06, -477400.44, -58825.53, -0.0199115, 0.034240715, -402022.9, -69083.93, 0.0, 9.999637, 9.999251 
1.5749423e+3, 2.7602562e+2, -394056.38, -398647.72, -49627.707, -0.023817725, -0.007108883, -346671.28, -111721.984, 0.0, 9.999325, 9.9992695 
1.5749209e+3, 2.8602475e+2, -338174.1, -355157.06, -31204.693, -0.024495168, 0.0016958689, -314326.16, -177366.78, 0.0, 9.999184, 9.998963 
1.5748997e+3, 2.9602432e+2, -242967.5, -257999.75, -40869.0, -0.025373781, 0.05527808, -208929.23, -169962.69, 0.0, 9.999162, 9.998967 
1.574879e+3, 3.060234e+2, -209525.0, -193439.28, -22716.273, 0.00072785356, 0.06250337, -177384.08, -177384.08, 0.0, 9.998957, 9.999174 
1.5748577e+3, 3.160226e+2, -123370.62, 62963.55, -25586.328, -0.059469696, 0.052534837, 66413.055, 66413.055, 0.0, 9.998623, 10.001097 
1.5852657e+3, 1.2605597e+2, -1438146.8, -1676111.9, -52459.414, -0.019777272, -0.035002004, -1427095.3, 277550.22, 0.015213406, 10.002348, 9.999135 
1.5852472e+3, 1.3605434e+2, -1390443.3, -1594405.3, 54551.75, 0.016774498, -0.12382759, -1376769.5, 229889.56, 0.009417304, 10.001946, 9.999218 
1.5852265e+3, 1.4605375e+2, -1347181.3, -1549673.6, -32906.22, -0.07108903, -0.084798925, -1341968.0, 166696.94, 0.0043936227, 10.001677, 9.998979 
1.5852056e+3, 1.5605302e+2, -1270383.4, -1454378.6, -32282.06, -0.0226977, -0.061158873, -1264883.9, 145790.33, 0.00129988, 10.001494, 9.999047 
1.5851845e+3, 1.6605227e+2, -1189762.4, -1341176.8, -40397.676, -0.016533595, -0.047160465, -1179658.5, 133024.84, 0.00017108548, 10.001271, 9.99926 
1.5851629e+3, 1.7605168e+2, -1120845.8, -1247315.1, -42852.1, -0.04308271, -0.037633665, -1107693.8, 106996.7, 0.0000023797534, 10.001028, 9.999348 
1.5851411e+3, 1.860512e+2, -1017924.25, -1112868.9, -59517.766, -0.050660823, -0.030047428, -989265.2, 127430.62, 0.0, 10.000914, 9.999654 
1.5851194e+3, 1.9605094e+2, -923972.9, -1014921.4, -56671.113, -0.044989694, -0.027645508, -896786.8, 121911.78, 0.0, 10.000877, 9.999671 
1.5850973e+3, 2.0605059e+2, -872054.44, -970271.94, -67600.59, -0.049759284, -0.009306009, -837607.75, 83095.34, 0.0, 10.000694, 9.999394 
1.5850751e+3, 2.1605031e+2, -809935.94, -882084.94, -71513.86, -0.0614309, 0.016968938, -765913.0, 56794.277, 0.0, 10.000416, 9.999461 
1.5850528e+3, 2.2604962e+2, -721851.4, -775141.56, -83683.7, -0.059060458, 0.0017574094, -660673.2, 64040.004, 0.0, 10.000289, 9.999583 
1.5850304e+3, 2.360488e+2, -628192.1, -680669.56, -78411.89, -0.047752026, -0.04426244, -571745.3, 54973.684, 0.0, 10.000265, 9.999571 
1.585008e+3, 2.4604814e+2, -596747.75, -675411.56, -69271.66, -0.034794193, -0.03071435, -556420.6, -27694.39, 0.0, 10.000071, 9.999027 
1.5849859e+3, 2.5604776e+2, -537737.2, -586624.2, -69856.195, -0.021288598, 0.02140855, -488171.4, -57438.46, 0.0, 9.999762, 9.999113 
1.5849638e+3, 2.6604703e+2, -438654.75, -455646.4, -53772.95, -0.019198775, 0.02776207, -392710.63, -59970.19, 0.0, 9.99963, 9.999402 
1.5849419e+3, 2.760462e+2, -342827.06, -359088.53, -53524.133, -0.023827825, -0.0038219164, -296819.63, -62072.12, 0.0, 9.999617, 9.999399 
1.5849201e+3, 2.8604528e+2, -305832.56, -345364.78, -31103.332, -0.027379043, 0.000023425046, -288746.03, -151988.28, 0.0, 9.999434, 9.998907 
1.5848987e+3, 2.9604465e+2, -250779.25, -267172.16, -29423.203, -0.032623284, 0.039983146, -228432.17, -189664.92, 0.0, 9.999135, 9.998916 
1.584878e+3, 3.0604392e+2, -209716.56, -200321.83, -10713.018, -0.0034074048, 0.07573458, -193321.58, -193321.58, 0.0, 9.998988, 9.99911 
1.5848565e+3, 3.1604287e+2, -81547.88, 75364.1, -24621.59, -0.052821696, 0.044550058, 79136.84, 79136.84, 0.0, 9.998947, 10.001023 
1.5952678e+3, 1.2607555e+2, -1433437.9, -1669673.1, -67019.03, -0.039141536, -0.08939021, -1415749.3, 288703.78, 0.016105518, 10.002361, 9.999176 
1.595249e+3, 1.360747e+2, -1384983.3, -1586883.3, 38936.746, 0.0035640306, -0.10332227, -1377734.5, 228724.92, 0.010008357, 10.001961, 9.999265 
1.5952282e+3, 1.4607434e+2, -1341565.4, -1541536.9, -41297.633, -0.06442301, -0.04596335, -1333372.3, 175091.05, 0.004700221, 10.00169, 9.99903 
1.5952073e+3, 1.5607327e+2, -1266355.9, -1448320.3, -40544.656, -0.0120214885, -0.062188186, -1257730.8, 152745.05, 0.0014073198, 10.001501, 9.999087 
1.5951858e+3, 1.6607234e+2, -1191479.5, -1347320.3, -50537.832, -0.010266646, -0.06432506, -1176525.4, 135961.14, 0.00018981677, 10.001279, 9.999215 
1.5951638e+3, 1.7607173e+2, -1121426.6, -1251866.8, -51612.34, -0.04685791, -0.05398456, -1103475.3, 111018.84, 0.0000028938316, 10.0010395, 9.999313 
1.595142e+3, 1.8607152e+2, -1010602.1, -1100362.5, -61315.19, -0.051825207, -0.022676049, -979496.9, 137000.13, 0.0, 10.000923, 9.999738 
1.5951204e+3, 1.9607171e+2, -918677.94, -1005354.1, -59343.535, -0.034242768, 0.017547399, -888532.4, 129963.13, 0.0, 10.000881, 9.999737 
1.5950981e+3, 2.0607111e+2, -875715.4, -979576.0, -78214.95, -0.04085632, 0.011774376, -833761.0, 86741.38, 0.0, 10.000699, 9.99933 
1.5950754e+3, 2.1607013e+2, -811903.44, -888352.9, -80714.5, -0.06427729, -0.026398972, -760819.94, 61693.234, 0.0, 10.0004225, 9.999416 
1.595053e+3, 2.2606967e+2, -710868.3, -754377.5, -84111.84, -0.060369406, -0.023920828, -645743.3, 78773.55, 0.0, 10.000295, 9.999725 
1.5950306e+3, 2.3606971e+2, -618757.44, -662777.2, -79606.66, -0.038111582, 0.0016273223, -558174.0, 68340.56, 0.0, 10.00027, 9.999693 
1.5950082e+3, 2.4606891e+2, -596736.0, -677160.06, -80047.62, -0.0326914, -0.0034972962, -547367.75, -18844.742, 0.0, 10.000075, 9.999015 
1.5949854e+3, 2.5606772e+2, -537464.6, -587850.44, -79102.89, -0.03869216, -0.029694403, -479639.78, -49102.895, 0.0, 9.999766, 9.9991045 
1.5949632e+3, 2.6606712e+2, -436065.94, -452272.44, -52829.35, -0.03098852, -0.012210096, -390721.97, -58178.78, 0.0, 9.999636, 9.999424 
1.5949415e+3, 2.76067e+2, -339843.66, -355055.7, -53803.49, -0.014121154, 0.02637961, -293111.22, -58567.65, 0.0, 9.999623, 9.999425 
1.5949197e+3, 2.8606614e+2, -297463.4, -330199.88, -41325.195, -0.016303862, 0.027054936, -269382.9, -132829.73, 0.0, 9.99944, 9.99901 
1.5948978e+3, 2.960651e+2, -244154.58, -255469.77, -38730.83, -0.033318583, 0.016381506, -210670.31, -172104.47, 0.0, 9.999141, 9.998995 
1.5948768e+3, 3.0606452e+2, -219953.36, -223847.84, -10988.446, -0.012209636, 0.07308528, -210740.95, -210740.95, 0.0, 9.998995, 9.998947 
1.5948553e+3, 3.160632e+2, -98134.02, 38387.94, -29801.625, -0.05978756, 0.032160446, 44609.832, 44609.832, 0.0, 9.998955, 10.000768 
1.6052702e+3, 1.260961e+2, -1413968.0, -1680684.9, -38387.02, -0.05045994, -0.09562945, -1408553.1, 295697.97, 0.01705759, 10.002592, 9.998986 
1.6052511e+3, 1.3609508e+2, -1354278.1, -1589588.9, 48882.816, -0.0019007177, -0.10698426, -1344527.4, 261732.73, 0.010642419, 10.0022545, 9.999104 
1.60523e+3, 1.460948e+2, -1303757.9, -1517112.0, -34397.51, -0.05680936, -0.037518125, -1298349.4, 209914.13, 0.005031729, 10.001928, 9.999081 
1.6052088e+3, 1.5609376e+2, -1245103.9, -1432405.1, -34037.023, -0.01403383, -0.05418599, -1239110.4, 171164.95, 0.0015245486, 10.001628, 9.999133 
1.6051872e+3, 1.6609284e+2, -1166052.9, -1330275.6, -39211.207, -0.01102773, -0.060356576, -1157170.9, 155114.94, 0.00021015473, 10.001438, 9.999253 
1.605165e+3, 1.760922e+2, -1080745.4, -1229418.4, -35374.535, -0.03831882, -0.054613005, -1072757.6, 141535.5, 0.0000034510517, 10.001311, 9.999334 
1.6051431e+3, 1.8609199e+2, -1000232.25, -1104471.1, -51463.207, -0.044609513, -0.020660225, -979106.25, 137190.22, 0.0, 10.001037, 9.999652 
1.605121e+3, 1.9609217e+2, -954028.5, -1029046.8, -62118.656, -0.03577185, 0.026229668, -918972.75, 99323.02, 0.0, 10.00067, 9.999674 
1.6050987e+3, 2.060916e+2, -885720.2, -967177.6, -73851.71, -0.043083522, 0.017992308, -842110.9, 78191.34, 0.0, 10.00056, 9.99948 
1.6050759e+3, 2.1609068e+2, -775444.1, -856473.56, -62028.324, -0.061881527, -0.028192842, -741871.3, 80440.36, 0.0, 10.000614, 9.999541 
1.6050534e+3, 2.2609028e+2, -696457.2, -753582.0, -71347.766, -0.05644253, -0.020885605, -648167.06, 76147.875, 0.0, 10.000423, 9.999666 
1.6050309e+3, 2.360904e+2, -650956.6, -682564.94, -82263.945, -0.034831416, 0.017994985, -582992.5, 43320.18, 0.0, 10.000071, 9.999652 
1.6050081e+3, 2.460896e+2, -611928.0, -669489.3, -82241.72, -0.03218259, 0.007456854, -553576.44, -25255.629, 0.0, 9.99991, 9.9991455 
1.6049853e+3, 2.5608838e+2, -513630.66, -563830.7, -71204.67, -0.042519085, -0.03672978, -463231.56, -32897.43, 0.0, 9.99988, 9.999212 
1.604963e+3, 2.6608774e+2, -420649.4, -451124.66, -42289.145, -0.035826672, -0.022041423, -390936.44, -58596.04, 0.0, 9.999773, 9.999364 
1.604941e+3, 2.760876e+2, -344855.72, -362816.78, -50609.86, -0.017508086, 0.024018193, -302435.78, -68094.74, 0.0, 9.999616, 9.999373 
1.6049191e+3, 2.860868e+2, -289426.28, -318436.5, -47268.824, -0.017244712, 0.024686547, -254487.08, -118136.58, 0.0, 9.999466, 9.999077 
1.6048971e+3, 2.9608575e+2, -213538.34, -232054.14, -47753.832, -0.031828597, 0.009806897, -174153.28, -135790.64, 0.0, 9.999318, 9.999068 
1.6048758e+3, 3.0608544e+2, -202840.61, -209418.94, -8865.99, -0.015013863, 0.08363247, -196673.33, -196673.33, 0.0, 9.999089, 9.998999 
1.6048543e+3, 3.1608382e+2, -128133.664, 10622.154, -17198.426, -0.05953573, 0.009912791, 12722.074, 12722.074, 0.0, 9.99881, 10.000645 
1.6152728e+3, 1.2611763e+2, -1440692.1, -1740338.3, -51828.918, -0.05552009, -0.05774941, -1431980.6, 272058.6, 0.018069396, 10.002606, 9.99857 
1.6152532e+3, 1.3611558e+2, -1378711.3, -1642952.1, 34777.61, -0.001579723, -0.132062, -1374210.6, 231849.2, 0.011320139, 10.002263, 9.9987335 
1.615232e+3, 1.4611521e+2, -1299399.8, -1511259.5, -47179.906, -0.0495149, -0.055773422, -1289368.0, 218696.36, 0.005389168, 10.00194, 9.999117 
1.6152102e+3, 1.5611458e+2, -1240018.4, -1426362.1, -45462.637, -0.02809627, -0.037843056, -1229518.5, 180553.73, 0.0016523544, 10.001644, 9.999168 
1.6151884e+3, 1.6611378e+2, -1156806.6, -1314785.3, -44895.74, -0.018442055, -0.036995523, -1144939.3, 167141.5, 0.0002323929, 10.001451, 9.999355 
1.6151665e+3, 1.7611316e+2, -1075690.5, -1220645.3, -41819.863, -0.018414725, -0.040760785, -1064490.6, 149596.81, 0.0000040571285, 10.001315, 9.999394 
1.6151442e+3, 1.8611266e+2, -1017399.5, -1142059.1, -65833.266, -0.030204486, -0.02399471, -989070.5, 127023.46, 0.0, 10.001042, 9.999393 
1.6151215e+3, 1.9611235e+2, -966174.56, -1057254.9, -74036.35, -0.04967745, 0.0004673254, -924793.56, 93305.42, 0.0, 10.000681, 9.999477 
1.6150992e+3, 2.0611206e+2, -860270.75, -916998.5, -71618.914, -0.056418903, 0.01087188, -811603.6, 108498.81, 0.0, 10.000567, 9.999823 
1.6150767e+3, 2.1611194e+2, -755446.75, -816681.44, -61336.07, -0.054701924, 0.010201378, -717510.94, 104592.266, 0.0, 10.000619, 9.999814 
1.6150539e+3, 2.2611146e+2, -714136.25, -792087.4, -84427.766, -0.048038416, 0.009490614, -660121.8, 63986.04, 0.0, 10.000428, 9.999402 
1.6150309e+3, 2.3611085e+2, -664736.94, -713076.25, -93510.15, -0.038031902, 0.0050975983, -592323.4, 33790.242, 0.0, 10.000075, 9.999441 
1.615008e+3, 2.461102e+2, -593141.94, -632327.9, -82363.84, -0.033397496, 0.0028961424, -528072.7, 47.285763, 0.0, 9.999915, 9.999399 
1.6149852e+3, 2.5610963e+2, -498248.1, -533648.3, -71498.63, -0.03344558, 0.00076926214, -442291.25, -12166.071, 0.0, 9.999885, 9.999418 
1.6149627e+3, 2.661088e+2, -430729.38, -474134.75, -46935.367, -0.03452907, -0.0016662001, -400721.94, -68589.22, 0.0, 9.999778, 9.999205 
1.6149406e+3, 2.76108e+2, -353800.53, -383610.22, -55338.75, -0.034762595, -0.011529126, -311394.53, -77253.664, 0.0, 9.999621, 9.999229 
1.6149184e+3, 2.8610712e+2, -287804.13, -317225.53, -51960.457, -0.031249877, -0.00755134, -248512.11, -112361.2, 0.0, 9.999472, 9.9990835 
1.6148964e+3, 2.9610655e+2, -209420.39, -225525.89, -53360.215, -0.029500412, 0.019894034, -163508.72, -125349.766, 0.0, 9.999324, 9.999112 
1.6148749e+3, 3.0610654e+2, -182914.72, -170184.23, -18645.512, -0.0131894825, 0.10665444, -156847.4, -156847.4, 0.0, 9.999095, 9.999268 
1.6148531e+3, 3.1610462e+2, -126737.055, 11883.738, -30881.594, -0.053191096, -0.019750755, 18452.219, 18452.219, 0.0, 9.998814, 10.000653 
1.6252755e+3, 1.2613891e+2, -1406683.8, -1728002.5, -68887.734, -0.055370968, -0.03219713, -1392537.6, 311294.1, 0.019146228, 10.002869, 9.998528 
1.6252556e+3, 1.3613662e+2, -1359300.1, -1638996.0, 41185.207, -0.00900538, -0.123740606, -1353361.8, 252492.7, 0.012046025, 10.002428, 9.998679 
1.625234e+3, 1.4613616e+2, -1270434.9, -1503363.3, -29572.074, -0.04323448, -0.051514253, -1266739.1, 241120.53, 0.0057756244, 10.0021715, 9.999057 
1.625212e+3, 1.5613538e+2, -1186739.3, -1406059.6, -35458.223, -0.026143722, -0.042045414, -1181149.0, 228719.58, 0.0017925717, 10.002038, 9.999117 
1.6251901e+3, 1.6613461e+2, -1114321.9, -1288985.4, -43141.418, -0.01945325, -0.037869543, -1104247.1, 207629.73, 0.00025728068, 10.001723, 9.999399 
1.6251679e+3, 1.7613415e+2, -1076210.3, -1215763.8, -44630.03, -0.019493518, -0.029829387, -1063158.0, 150724.08, 0.0000047593935, 10.001294, 9.999436 
1.6251452e+3, 1.8613364e+2, -1009869.5, -1132504.4, -55497.746, -0.03042957, -0.019342553, -988483.7, 127404.82, 0.0, 10.001072, 9.999442 
1.6251224e+3, 1.961332e+2, -920044.56, -1030545.8, -42066.047, -0.04931264, -0.012981709, -905853.25, 112041.27, 0.0, 10.000981, 9.999514 
1.6250998e+3, 2.0613295e+2, -839775.1, -909168.25, -45575.242, -0.05618524, 0.00307936, -817192.06, 102705.41, 0.0, 10.000721, 9.999801 
1.6250771e+3, 2.1613301e+2, -796536.5, -838504.6, -62472.79, -0.05488306, 0.023519484, -751617.75, 70279.08, 0.0, 10.000349, 9.999792 
1.6250542e+3, 2.2613253e+2, -743579.44, -804991.2, -84489.91, -0.04725613, 0.022434207, -684388.7, 39513.055, 0.0, 10.000224, 9.99941 
1.625031e+3, 2.361318e+2, -637341.94, -698628.56, -74085.24, -0.035771925, 0.00373507, -587812.75, 38096.156, 0.0, 10.000261, 9.999449 
1.625008e+3, 2.4613109e+2, -553594.44, -609808.1, -64083.71, -0.032237925, -0.0034799564, -511724.75, 16190.384, 0.0, 10.0001745, 9.999427 
1.624985e+3, 2.5613058e+2, -479589.06, -522441.25, -71336.22, -0.034832463, -0.004183979, -426530.7, 3388.4063, 0.0, 10.000007, 9.999434 
1.6249624e+3, 2.661298e+2, -432351.5, -480328.2, -52474.22, -0.03821567, -0.0045375377, -398642.5, -66715.74, 0.0, 9.999794, 9.999152 
1.62494e+3, 2.7612892e+2, -367502.25, -394731.03, -53120.5, -0.040736955, -0.01247576, -326279.25, -92343.43, 0.0, 9.999552, 9.999184 
1.6249177e+3, 2.8612795e+2, -308031.7, -324525.25, -45726.344, -0.03544144, -0.015000859, -269814.4, -133867.84, 0.0, 9.999327, 9.999102 
1.6248956e+3, 2.961273e+2, -237087.4, -233087.08, -47368.465, -0.029406661, 0.0010264404, -187676.56, -149721.44, 0.0, 9.999112, 9.99916 
1.6248739e+3, 3.061275e+2, -184740.88, -144887.02, -14467.177, -0.015303996, 0.098476574, -140189.13, -140189.13, 0.0, 9.998973, 9.999498 
1.6248521e+3, 3.1612593e+2, -120828.67, 9131.111, -34232.684, -0.042122662, -0.019562434, 17596.867, 17596.867, 0.0, 9.998881, 10.0006 
1.6352782e+3, 1.2616007e+2, -1384589.8, -1684898.1, -84638.35, -0.054175433, -0.014362458, -1362378.3, 341248.38, 0.020295972, 10.002882, 9.99882 
1.6352578e+3, 1.3615826e+2, -1341686.5, -1606254.9, 24522.248, -0.023934925, -0.085762165, -1339432.8, 266210.38, 0.012825848, 10.002444, 9.998898 
1.6352361e+3, 1.4615767e+2, -1280004.4, -1526749.1, -36052.72, -0.03792276, -0.027860444, -1274844.5, 232804.64, 0.0061944732, 10.002184, 9.998893 
1.6352142e+3, 1.5615624e+2, -1196712.1, -1427919.3, -42169.508, -0.0097314445, -0.065125495, -1189261.0, 220403.02, 0.0019469969, 10.00204, 9.998967 
1.6351917e+3, 1.6615541e+2, -1115334.9, -1292535.0, -59775.633, -0.0152809275, -0.060675453, -1097056.1, 214617.3, 0.00028565683, 10.001726, 9.999375 
1.6351688e+3, 1.7615524e+2, -1073574.0, -1213395.9, -59529.703, -0.041027453, -0.021067565, -1051662.8, 162013.81, 0.000005611926, 10.001304, 9.999449 
1.6351461e+3, 1.8615493e+2, -985339.06, -1084521.5, -59128.582, -0.044888727, -0.006708352, -957758.5, 157921.52, 0.0, 10.001081, 9.999769 
1.6351235e+3, 1.9615468e+2, -902145.3, -995048.4, -46892.3, -0.03543669, -0.015300592, -882592.06, 135090.5, 0.0, 10.000986, 9.999757 
1.6351004e+3, 2.0615427e+2, -865901.0, -965194.5, -59756.023, -0.04350547, -0.0060910773, -837858.7, 81828.91, 0.0, 10.000726, 9.999415 
1.6350774e+3, 2.1615393e+2, -817446.75, -884274.0, -74403.414, -0.0624924, 0.012863493, -769298.5, 52394.063, 0.0, 10.000356, 9.999476 
1.6350543e+3, 2.2615351e+2, -723895.44, -766591.44, -82482.42, -0.054081667, 0.019274693, -660043.1, 63653.56, 0.0, 10.000231, 9.999672 
1.6350314e+3, 2.3615319e+2, -621768.56, -668539.1, -72747.336, -0.028649671, 0.013763086, -568740.2, 56958.63, 0.0, 10.000268, 9.999654 
1.6350082e+3, 2.4615225e+2, -567503.8, -640740.9, -69471.766, -0.0293871, -0.012056919, -525590.56, 2116.156, 0.0, 10.00018, 9.999213 
1.6349849e+3, 2.561511e+2, -491711.63, -549687.5, -76691.89, -0.04696189, -0.05192061, -438712.1, -8995.487, 0.0, 10.000011, 9.999247 
1.634962e+3, 2.6615047e+2, -428459.63, -474337.88, -60547.66, -0.04722354, -0.03062243, -386651.38, -54928.156, 0.0, 9.9998, 9.999193 
1.6349396e+3, 2.7615026e+2, -364210.28, -389721.94, -61305.023, -0.035746183, 0.022059884, -314348.1, -80621.38, 0.0, 9.999556, 9.999218 
1.6349171e+3, 2.8614917e+2, -306123.66, -322257.3, -52975.547, -0.03030671, 0.002893384, -260604.27, -124865.76, 0.0, 9.9993305, 9.999117 
1.6348946e+3, 2.9614785e+2, -233610.34, -227658.23, -54116.242, -0.03253961, -0.04727063, -176436.27, -138683.95, 0.0, 9.999116, 9.999197 
1.6348727e+3, 3.061483e+2, -171751.36, -119669.85, -17313.252, -0.022637982, 0.058536205, -114439.7, -114439.7, 0.0, 9.998977, 9.999671 
1.6348511e+3, 3.1614757e+2, -129541.76, -10818.816, -41203.336, -0.026946722, 0.015180033, 2079.6533, 2079.6533, 0.0, 9.998886, 10.000463 
1.6452813e+3, 1.2618144e+2, -1359201.0, -1674185.0, -65116.816, -0.04764744, -0.012794614, -1346270.3, 357147.75, 0.021526078, 10.003075, 9.9988 
1.6452603e+3, 1.3617969e+2, -1293895.1, -1584818.1, 20197.34, -0.024832822, -0.07469311, -1292499.6, 312934.5, 0.013663919, 10.0027895, 9.998878 
1.6452387e+3, 1.4617914e+2, -1239407.6, -1490016.5, -34599.45, -0.027274761, -0.019834798, -1234718.6, 272720.56, 0.006647754, 10.002394, 9.9990425 
1.6452162e+3, 1.5617767e+2, -1204170.4, -1417582.0, -19246.658, -0.009552221, -0.07434365, -1202448.5, 207004.86, 0.0021164347, 10.001931, 9.999088 
1.6451934e+3, 1.6617687e+2, -1128916.5, -1305160.8, -29330.01, -0.019313896, -0.070094444, -1124163.6, 187298.95, 0.0003179836, 10.001662, 9.999317 
1.6451703e+3, 1.7617674e+2, -1046437.06, -1205565.9, -32085.363, -0.04382587, -0.01851924, -1040211.25, 173254.61, 0.0000066388466, 10.001515, 9.999399 
1.6451472e+3, 1.8617646e+2, -962789.06, -1068743.3, -44774.445, -0.044066843, -0.002405788, -946402.44, 169066.77, 0.0, 10.001219, 9.999809 
1.6451244e+3, 1.9617619e+2, -924032.25, -1001959.6, -53725.59, -0.030142518, -0.016446741, -896628.75, 120842.74, 0.0, 10.000823, 9.999786 
1.6451012e+3, 2.0617574e+2, -877569.8, -971745.7, -57009.332, -0.036755174, -0.010368404, -850716.3, 68760.35, 0.0, 10.000652, 9.999404 
1.6450779e+3, 2.1617538e+2, -780096.06, -869086.2, -45158.836, -0.056165464, 0.007237327, -761194.5, 60287.43, 0.0, 10.0006275, 9.999448 
1.6450547e+3, 2.2617489e+2, -691970.6, -763201.5, -55682.086, -0.052811734, 0.014651223, -661488.0, 61998.984, 0.0, 10.000505, 9.999561 
1.6450314e+3, 2.3617448e+2, -620803.6, -677970.1, -74646.59, -0.035449617, 0.011843334, -569454.94, 56035.38, 0.0, 10.00032, 9.999562 
1.6450083e+3, 2.4617356e+2, -566446.0, -628938.7, -72036.9, -0.034218702, -0.016546665, -519170.72, 8327.346, 0.0, 10.000142, 9.999311 
1.644985e+3, 2.5617245e+2, -493466.44, -542353.9, -57248.445, -0.04385692, -0.062628165, -455661.63, -26154.605, 0.0, 9.999968, 9.999316 
1.644962e+3, 2.6617184e+2, -438823.25, -489238.16, -40356.438, -0.045078676, -0.037302356, -416448.6, -84934.94, 0.0, 9.999775, 9.999101 
1.644939e+3, 2.7617162e+2, -367294.78, -399213.03, -51621.063, -0.039575808, 0.026719656, -329222.2, -95704.49, 0.0, 9.999572, 9.999143 
1.6449164e+3, 2.8617054e+2, -294547.72, -305518.03, -43537.78, -0.03373762, 0.0049899453, -256150.92, -120621.7, 0.0, 9.999365, 9.999213 
1.6448937e+3, 2.9616916e+2, -222597.55, -210425.28, -39042.34, -0.03226832, -0.058322333, -176997.56, -139455.14, 0.0, 9.999145, 9.999299 
1.6448715e+3, 3.0616957e+2, -182927.8, -114719.41, -3566.589, -0.029165836, 0.03477071, -114533.42, -114533.42, 0.0, 9.998859, 9.99976 
1.64485e+3, 3.1616923e+2, -192442.25, -60997.266, -37376.91, -0.018156342, 0.022697542, -51112.355, -51112.355, 0.0, 9.998543, 10.00028 
1.6552845e+3, 1.2620309e+2, -1379571.3, -1719199.3, -74452.02, -0.038950093, -0.02480847, -1363967.1, 339237.94, 0.02284279, 10.003084, 9.9984865 
1.6552633e+3, 1.3620101e+2, -1310082.8, -1620028.0, 8958.1875, -0.013747848, -0.08720728, -1309824.0, 295402.2, 0.014563232, 10.002794, 9.998633 
1.6552411e+3, 1.4620066e+2, -1208582.3, -1428709.9, -52302.086, -0.012451659, -0.02512774, -1196787.4, 310441.53, 0.007136725, 10.002403, 9.999464 
1.655218e+3, 1.5619971e+2, -1176387.3, -1364746.6, -35946.08, -0.02520683, -0.07081329, -1169760.5, 239475.92, 0.0023011304, 10.001949, 9.999445 
1.6551949e+3, 1.6619897e+2, -1133461.1, -1319018.5, -35769.06, -0.03168072, -0.06741344, -1126804.9, 184439.7, 0.00035434496, 10.0016775, 9.999217 
1.6551718e+3, 1.761987e+2, -1053716.3, -1222966.4, -39200.23, -0.029000223, -0.022083655, -1045077.94, 168172.08, 0.000007849871, 10.001522, 9.999278 
1.6551486e+3, 1.8619822e+2, -978879.44, -1104090.0, -60005.984, -0.029188855, -0.005942973, -954765.94, 160490.0, 0.0, 10.001224, 9.999566 
1.6551252e+3, 1.9619775e+2, -935158.94, -1027934.5, -66898.06, -0.03346263, -0.015870817, -900139.25, 117121.8, 0.0, 10.000833, 9.999605 
1.6551019e+3, 2.0619741e+2, -852778.5, -923043.2, -57727.734, -0.036131755, -0.009237915, -820332.94, 98931.57, 0.0, 10.000661, 9.999736 
1.6550787e+3, 2.1619736e+2, -762728.6, -835049.4, -46616.383, -0.036948986, 0.0061480105, -739891.9, 81373.3, 0.0, 10.000633, 9.9996805 
1.6550551e+3, 2.2619665e+2, -725158.56, -834084.8, -62257.25, -0.044479843, 0.00813998, -696904.1, 26368.816, 0.0, 10.00051, 9.999074 
1.6550316e+3, 2.3619568e+2, -647095.5, -734551.0, -80664.484, -0.056097493, -0.0017915593, -599068.8, 26214.775, 0.0, 10.000325, 9.999173 
1.6550083e+3, 2.4619493e+2, -538020.7, -571955.5, -77530.3, -0.04681184, -0.016488696, -475622.88, 51666.656, 0.0, 10.000148, 9.9997015 
1.654985e+3, 2.561945e+2, -470572.75, -496830.3, -62728.477, -0.02570974, -0.03588755, -419613.88, 9676.94, 0.0, 9.999973, 9.999628 
1.6549619e+3, 2.6619372e+2, -454568.4, -524339.56, -46799.05, -0.03206284, -0.024270589, -431083.13, -99784.375, 0.0, 9.999781, 9.998858 
1.6549385e+3, 2.761929e+2, -379745.72, -427861.3, -58084.82, -0.053434763, 0.0009233127, -340933.63, -107623.984, 0.0, 9.99958, 9.998944 
1.6549157e+3, 2.861919e+2, -281891.53, -281500.75, -50980.242, -0.046918105, -0.008868332, -230715.52, -95395.79, 0.0, 9.999372, 9.999377 
1.654893e+3, 2.9619113e+2, -211458.17, -188950.0, -47195.965, -0.02852002, -0.030704208, -151684.88, -114358.51, 0.0, 9.999148, 9.999447 
1.6548704e+3, 3.0619127e+2, -183149.02, -116378.37, -15211.843, -0.035296794, 0.027566183, -113076.09, -113076.09, 0.0, 9.99886, 9.999749 
1.6548485e+3, 3.161908e+2, -209545.42, -96927.25, -50848.9, -0.017676782, 0.007504851, -77365.89, -77365.89, 0.0, 9.998541, 10.000036 
1.6652878e+3, 1.2622511e+2, -1355927.3, -1707674.6, -45190.734, -0.02150519, -0.050421912, -1350214.1, 352773.88, 0.024249518, 10.003259, 9.998479 
1.665266e+3, 1.3622314e+2, -1312579.8, -1624046.5, 55999.797, -0.017127309, -0.09933873, -1302817.3, 302191.38, 0.015526202, 10.002795, 9.998605 
1.6652437e+3, 1.4622286e+2, -1189258.3, -1421425.3, -12785.4795, -0.007746625, -0.02788366, -1188556.3, 318454.63, 0.0076631065, 10.002549, 9.999443 
1.6652201e+3, 1.5622196e+2, -1106703.9, -1333804.8, -27637.715, -0.03023634, -0.06692593, -1103388.8, 305629.28, 0.002501808, 10.002443, 9.999419 
1.6651967e+3, 1.6622117e+2, -1076073.8, -1296967.8, -39854.26, -0.03596272, -0.06519754, -1069103.1, 241923.69, 0.000394817, 10.002098, 9.999164 
1.6651735e+3, 1.7622077e+2, -1046114.94, -1225066.9, -40311.953, -0.023337992, -0.026309816, -1037453.25, 175580.27, 0.000009278141, 10.001601, 9.999225 
1.66515e+3, 1.8622026e+2, -970337.6, -1103905.6, -49524.793, -0.02527745, -0.009817714, -953978.3, 161061.73, 0.0, 10.001302, 9.999528 
1.6651261e+3, 1.9621979e+2, -894849.3, -1012091.9, -42035.453, -0.039838526, -0.015081961, -881335.75, 135709.55, 0.0, 10.001127, 9.99957 
1.6651025e+3, 2.0621946e+2, -824974.0, -908496.2, -38985.875, -0.041251175, -0.005448437, -809604.6, 109443.96, 0.0, 10.000851, 9.9997425 
1.6650793e+3, 2.1621944e+2, -781305.25, -843494.75, -51845.945, -0.03332296, 0.011850028, -751944.3, 69104.445, 0.0, 10.000506, 9.999682 
1.6650556e+3, 2.2621867e+2, -753194.7, -847431.3, -53625.44, -0.042184874, 0.008827636, -728927.94, -5870.927, 0.0, 10.00032, 9.999072 
1.6650319e+3, 2.362176e+2, -661231.56, -742023.5, -37634.914, -0.061644718, -0.010253516, -646416.8, -21348.104, 0.0, 10.000235, 9.999165 
1.6650084e+3, 2.4621694e+2, -545173.94, -576986.44, -40555.37, -0.05074749, -0.014705396, -517517.06, 9557.078, 0.0, 10.000108, 9.999685 
1.664985e+3, 2.562167e+2, -473578.66, -499447.13, -56909.184, -0.021883577, -0.011581826, -428152.38, 921.4914, 0.0, 9.99996, 9.999616 
1.6649616e+3, 2.6621586e+2, -449603.13, -514808.06, -40293.984, -0.029609315, -0.010467859, -430373.9, -99291.51, 0.0, 9.999787, 9.9989195 
1.664938e+3, 2.7621478e+2, -374189.06, -419275.2, -29654.58, -0.05851637, -0.016211798, -359481.84, -126386.69, 0.0, 9.999596, 9.998994 
1.664915e+3, 2.8621393e+2, -283045.16, -280047.22, -22496.244, -0.05295106, -0.015682256, -259000.05, -123896.25, 0.0, 9.999357, 9.999392 
1.664892e+3, 2.962135e+2, -218657.61, -189892.63, -31216.229, -0.031212423, -0.0035647599, -169904.94, -132797.84, 0.0, 9.99909, 9.999466 
1.664869e+3, 3.062133e+2, -194973.31, -116586.805, -4911.9663, -0.046790466, 0.01818972, -116280.2, -116280.2, 0.0, 9.998759, 9.999795 
1.664847e+3, 3.1621295e+2, -237674.58, -119894.73, -36961.16, -0.008623952, 0.009153413, -109256.59, -109256.59, 0.0, 9.998392, 9.9999485 
1.6752912e+3, 1.2624761e+2, -1336722.8, -1670179.1, -60173.32, -0.00028637325, -0.08622193, -1326196.5, 376569.78, 0.02574369, 10.003271, 9.998737 
1.6752687e+3, 1.362461e+2, -1299192.9, -1601091.3, 38698.734, -0.034538306, -0.111839786, -1294311.1, 310470.53, 0.016553722, 10.002817, 9.998753 
1.675246e+3, 1.4624575e+2, -1216511.1, -1482787.4, -18109.443, -0.013008512, -0.029352393, -1215285.1, 291500.22, 0.008229214, 10.002567, 9.999011 
1.6752225e+3, 1.5624446e+2, -1132322.0, -1389353.0, -33821.168, -0.025427831, -0.062619366, -1127946.1, 280851.56, 0.0027201835, 10.00245, 9.999035 
1.6751988e+3, 1.6624348e+2, -1076514.5, -1299863.9, -58975.53, -0.03289681, -0.06309942, -1061898.4, 248910.42, 0.0004397844, 10.002104, 9.999144 
1.675175e+3, 1.7624299e+2, -1044661.3, -1225075.0, -57680.953, -0.027125154, -0.031041147, -1027796.4, 185019.6, 0.000010990718, 10.001611, 9.999222 
1.6751511e+3, 1.8624257e+2, -958512.4, -1082206.4, -56266.973, -0.03271482, -0.01385342, -936747.0, 178074.34, 0.0, 10.00131, 9.999675 
1.6751271e+3, 1.9624229e+2, -887859.1, -999504.1, -49384.14, -0.049375687, -0.014254819, -869150.1, 147674.28, 0.0, 10.001132, 9.999656 
1.6751033e+3, 2.0624188e+2, -846209.4, -954287.0, -52021.824, -0.0521541, 0.0008185586, -825238.44, 93590.69, 0.0, 10.0008545, 9.999428 
1.6750796e+3, 2.1624161e+2, -796159.3, -876393.75, -63121.027, -0.04478859, 0.024435202, -761485.75, 59347.047, 0.0, 10.000512, 9.999455 
1.6750559e+3, 2.2624095e+2, -719920.44, -780581.7, -56127.0, -0.045879, 0.016932048, -686453.06, 36386.33, 0.0, 10.000326, 9.99953 
1.6750321e+3, 2.3624022e+2, -635806.56, -691385.6, -40277.957, -0.052856356, -0.013745847, -614661.75, 10184.366, 0.0, 10.00024, 9.999511 
1.6750084e+3, 2.4623953e+2, -574529.06, -640305.3, -45259.766, -0.046775166, -0.011183352, -551470.1, -24617.643, 0.0, 10.000114, 9.999249 
1.6749848e+3, 2.5623906e+2, -496555.8, -549545.06, -61472.69, -0.033009943, 0.01034946, -456111.25, -27254.494, 0.0, 9.999967, 9.99927 
1.6749611e+3, 2.6623818e+2, -423568.66, -463068.97, -46248.125, -0.03828763, 0.0040706443, -393030.06, -62164.844, 0.0, 9.999793, 9.999273 
1.6749376e+3, 2.7623722e+2, -352829.9, -377091.9, -35972.188, -0.0543809, -0.024468279, -326998.3, -94123.42, 0.0, 9.999601, 9.999283 
1.6749142e+3, 2.862365e+2, -292700.8, -302281.16, -31570.066, -0.051648896, -0.015046593, -265559.56, -130677.336, 0.0, 9.999363, 9.999238 
1.674891e+3, 2.962362e+2, -226112.42, -207800.7, -40817.93, -0.04216583, 0.023566116, -175124.36, -138238.75, 0.0, 9.999097, 9.999342 
1.6748676e+3, 3.0623555e+2, -188350.78, -104474.086, -18262.037, -0.065244466, 0.0073556774, -100670.48, -100670.48, 0.0, 9.998763, 9.999878 
1.6748455e+3, 3.1623572e+2, -233574.72, -112161.7, -49777.367, 0.010310026, 0.035659317, -94363.01, -94363.01, 0.0, 9.998392, 10.000003 
1.6852945e+3, 1.2627079e+2, -1303828.9, -1670769.6, -35738.742, 0.00043074228, -0.093385346, -1300380.5, 402157.84, 0.027317146, 10.003585, 9.998581 
1.6852717e+3, 1.362692e+2, -1222909.8, -1583396.3, 31022.047, -0.0410944, -0.109062314, -1220259.6, 384295.47, 0.017643854, 10.003441, 9.998574 
1.685249e+3, 1.4626868e+2, -1156508.6, -1467946.3, -25866.25, -0.0054220436, -0.026573066, -1154374.9, 352185.7, 0.008836569, 10.003049, 9.998881 
1.6852249e+3, 1.5626727e+2, -1132908.0, -1402408.8, -21651.322, -0.02518565, -0.06004266, -1131179.6, 277394.88, 0.0029583357, 10.002504, 9.998919 
1.6852008e+3, 1.6626619e+2, -1073377.8, -1297124.0, -39340.246, -0.03782511, -0.06496888, -1066662.3, 243924.11, 0.0004900227, 10.002122, 9.999152 
1.6851766e+3, 1.7626564e+2, -1011626.7, -1208988.3, -36022.85, -0.03380768, -0.04021923, -1005257.3, 207336.44, 0.000013084683, 10.00184, 9.999221 
1.6851525e+3, 1.8626525e+2, -935822.8, -1077019.5, -39909.145, -0.036626212, -0.016566217, -925323.25, 189275.72, 0.0, 10.001494, 9.99962 
1.6851282e+3, 1.9626506e+2, -895396.44, -1008341.6, -47856.668, -0.0486704, -0.0018735426, -877846.0, 138755.64, 0.0, 10.001105, 9.999607 
1.685104e+3, 2.062646e+2, -850030.8, -954048.56, -41585.715, -0.052856337, 0.009426555, -835449.2, 83157.7, 0.0, 10.000822, 9.999444 
1.6850801e+3, 2.1626417e+2, -781558.0, -867003.25, -29084.873, -0.050329275, 0.017876472, -772597.44, 48014.434, 0.0, 10.000606, 9.999474 
1.6850561e+3, 2.262636e+2, -705384.5, -765468.0, -26770.613, -0.049872447, 0.012716429, -695187.3, 27430.229, 0.0, 10.000395, 9.999599 
1.6850324e+3, 2.3626307e+2, -639651.5, -687168.44, -39995.78, -0.051719736, -0.0045767324, -616889.75, 7732.2827, 0.0, 10.000191, 9.999562 
1.6850084e+3, 2.4626237e+2, -587564.7, -650950.25, -37983.95, -0.048184615, -0.00097314775, -569788.1, -43159.41, 0.0, 10.000047, 9.999207 
1.6849846e+3, 2.5626177e+2, -502971.28, -555368.44, -26457.725, -0.041660476, 0.013641762, -491935.78, -63300.82, 0.0, 9.999937, 9.999243 
1.6849609e+3, 2.6626095e+2, -431480.84, -452258.25, -15622.599, -0.04526332, 0.005019849, -423108.13, -92465.09, 0.0, 9.999679, 9.999402 
1.684937e+3, 2.7626014e+2, -384078.5, -379125.34, -22604.277, -0.053907182, -0.021871576, -358862.38, -126211.695, 0.0, 9.999333, 9.999397 
1.6849135e+3, 2.8625956e+2, -337338.78, -319369.84, -15751.88, -0.046379928, -0.005223639, -310220.3, -175563.73, 0.0, 9.999041, 9.999275 
1.68489e+3, 2.9625934e+2, -271189.2, -225455.73, -11734.011, -0.03427556, 0.040956467, -222620.83, -185961.7, 0.0, 9.998773, 9.999375 
1.6848661e+3, 3.0625835e+2, -227417.1, -120272.28, 10669.187, -0.07555024, -0.014666392, -119220.2, -119220.2, 0.0, 9.998485, 9.999902 
1.6848437e+3, 3.1625888e+2, -253171.3, -107998.41, -23030.453, 0.013360834, 0.049750037, -104432.414, -104432.414, 0.0, 9.998201, 10.000122 
1.695298e+3, 1.2629466e+2, -1338130.6, -1747163.8, -39531.484, -0.020504262, -0.07358694, -1334345.1, 367958.78, 0.028961463, 10.003604, 9.998043 
1.6952752e+3, 1.3629249e+2, -1255309.3, -1652521.9, 23303.762, -0.038150672, -0.09252198, -1253946.8, 350381.2, 0.018792752, 10.003446, 9.998096 
1.6952522e+3, 1.4629173e+2, -1146774.5, -1449413.1, -46622.22, 0.013279007, -0.020108111, -1139755.0, 366580.84, 0.00948498, 10.003054, 9.999009 
1.6952275e+3, 1.562904e+2, -1122627.4, -1385045.0, -41418.797, -0.030451398, -0.059495334, -1116245.3, 292102.94, 0.003217808, 10.002519, 9.999033 
1.6952027e+3, 1.662893e+2, -1069399.4, -1292419.6, -50508.754, -0.051446375, -0.070905834, -1058493.6, 251865.73, 0.0005465136, 10.002133, 9.999181 
1.6951783e+3, 1.7628871e+2, -1011418.2, -1210531.1, -47365.156, -0.043104194, -0.053730685, -1000725.1, 211641.61, 0.00001570412, 10.001844, 9.999209 
1.6951539e+3, 1.8628828e+2, -952786.06, -1113926.6, -54668.598, -0.037054982, -0.0177789, -935989.9, 178382.94, 0.0, 10.001498, 9.999368 
1.6951294e+3, 1.962881e+2, -907127.1, -1034801.2, -61404.563, -0.038645566, 0.021663547, -882388.25, 133988.52, 0.0, 10.001111, 9.999424 
1.695105e+3, 2.0628761e+2, -826708.75, -907729.9, -49508.082, -0.04456742, 0.020155849, -803249.4, 115132.664, 0.0, 10.000828, 9.999761 
1.6950807e+3, 2.1628715e+2, -764189.25, -832790.4, -36837.4, -0.050838195, -0.0074664606, -748155.7, 72230.41, 0.0, 10.00061, 9.999707 
1.6950566e+3, 2.2628658e+2, -727006.5, -812345.94, -34130.53, -0.054739017, -0.003096763, -715035.6, 7356.285, 0.0, 10.0004, 9.999277 
1.6950324e+3, 2.362861e+2, -655723.25, -722593.8, -46212.258, -0.058094367, 0.017316293, -632119.1, -7722.202, 0.0, 10.000196, 9.999318 
1.6950084e+3, 2.4628545e+2, -563236.2, -602515.3, -40880.46, -0.05503256, 0.015606233, -537522.44, -11118.961, 0.0, 10.000052, 9.999538 
1.6949844e+3, 2.5628486e+2, -482733.78, -515528.63, -30332.998, -0.048165735, -0.0020617456, -464649.8, -36240.72, 0.0, 9.999943, 9.999516 
1.6949604e+3, 2.662841e+2, -438285.4, -468653.2, -27616.691, -0.050924405, -0.007372162, -421953.72, -91537.17, 0.0, 9.999684, 9.999289 
1.6949363e+3, 2.7628344e+2, -388178.13, -389929.3, -34130.4, -0.058171805, -0.007814666, -354912.1, -122488.734, 0.0, 9.999339, 9.999322 
1.6949126e+3, 2.86283e+2, -321170.75, -287455.72, -24805.459, -0.037805002, 0.013875964, -274321.78, -139894.08, 0.0, 9.999043, 9.999495 
1.6948889e+3, 2.9628286e+2, -258545.1, -199808.89, -20947.422, -0.0062665264, 0.047700267, -193103.73, -156675.1, 0.0, 9.998772, 9.999554 
1.6948645e+3, 3.0628157e+2, -230488.0, -127233.21, 542.3455, -0.07732046, -0.0483763, -127230.36, -127230.36, 0.0, 9.998484, 9.999857 
1.6948418e+3, 3.1628248e+2, -239369.36, -81391.99, -29299.305, -0.002032465, 0.059380308, -76133.06, -76133.06, 0.0, 9.998207, 10.000304 
1.7053019e+3, 1.2631851e+2, -1255261.3, -1711933.5, -48464.992, -0.016687354, -0.056689136, -1250174.5, 451896.16, 0.030670425, 10.004225, 9.997985 
1.7052786e+3, 1.3631612e+2, -1266164.4, -1666039.0, 42455.586, -0.036450565, -0.08991881, -1261706.4, 342390.0, 0.019995846, 10.003411, 9.998019 
1.7052552e+3, 1.4631519e+2, -1155368.9, -1457235.0, -16713.717, 0.02154475, -0.02905592, -1154446.3, 351659.6, 0.010172725, 10.003015, 9.998973 
1.70523e+3, 1.563138e+2, -1073188.1, -1364201.5, -23710.469, -0.043176364, -0.06807679, -1071269.0, 336849.66, 0.0034992052, 10.002874, 9.999003 
1.705205e+3, 1.663128e+2, -1022868.0, -1268206.0, -41919.426, -0.066626064, -0.071478345, -1015903.2, 294225.88, 0.00061012566, 10.002448, 9.999194 
1.7051801e+3, 1.7631233e+2, -1011205.1, -1210083.6, -40065.176, -0.046662632, -0.042330924, -1003437.2, 208697.92, 0.000019016989, 10.001846, 9.99921 
1.7051554e+3, 1.8631178e+2, -967798.4, -1127775.0, -36246.305, -0.034305785, -0.016053537, -959969.1, 154173.27, 0.0, 10.001426, 9.999306 
1.7051305e+3, 1.9631131e+2, -910611.94, -1042927.75, -29339.373, -0.034291416, 0.0012137096, -904398.1, 111750.88, 0.0, 10.001118, 9.999364 
1.7051059e+3, 2.0631087e+2, -824304.6, -909327.2, -24447.984, -0.04396249, 0.009741812, -817776.0, 100378.086, 0.0, 10.00086, 9.999733 
1.7050812e+3, 2.1631067e+2, -762894.44, -833787.7, -37729.7, -0.05691739, 0.011311482, -746572.4, 73583.85, 0.0, 10.000629, 9.99969 
1.7050567e+3, 2.2631006e+2, -725127.1, -800604.9, -26876.92, -0.063342646, 0.008136038, -716534.7, 5627.4775, 0.0, 10.00037, 9.99937 
1.7050324e+3, 2.363094e+2, -665468.1, -718055.8, -9490.859, -0.06664253, -0.00037034764, -663807.7, -39639.176, 0.0, 10.000093, 9.999397 
1.7050083e+3, 2.4630885e+2, -601343.25, -618194.2, -6967.777, -0.059531044, 0.0063611255, -598835.3, -72661.16, 0.0, 9.999783, 9.999558 
1.7049842e+3, 2.563086e+2, -551645.06, -544294.4, -20166.623, -0.046482366, 0.01894246, -527470.94, -99293.234, 0.0, 9.9994545, 9.999551 
1.7049599e+3, 2.6630792e+2, -489766.94, -475687.28, -14435.598, -0.050115786, 0.013302754, -466666.4, -136482.22, 0.0, 9.999259, 9.999443 
1.7049356e+3, 2.7630726e+2, -407717.8, -383518.7, -1433.409, -0.06245721, -0.0048484686, -383434.06, -151243.36, 0.0, 9.999141, 9.999459 
1.7049114e+3, 2.8630692e+2, -329786.38, -284843.06, 6878.363, -0.03624833, 0.020570738, -283813.94, -149620.2, 0.0, 9.99896, 9.999552 
1.7048877e+3, 2.96307e+2, -262413.84, -198077.06, -2917.737, 0.007977896, 0.06811435, -197945.02, -161752.05, 0.0, 9.9987335, 9.999583 
1.7048629e+3, 3.0630535e+2, -255988.31, -150431.64, 7141.9087, -0.085590445, -0.054177623, -149950.63, -149950.63, 0.0, 9.99836, 9.999756 
1.7048398e+3, 3.1630632e+2, -264513.9, -67405.03, -20294.547, -0.0096244775, 0.06774406, -65337.176, -65337.176, 0.0, 9.997926, 10.000534 
1.7153063e+3, 1.2634245e+2, -1232695.6, -1662887.0, -75353.336, 0.004948258, -0.041462407, -1219878.4, 481959.25, 0.03243811, 10.004222, 9.998333 
1.715282e+3, 1.3634011e+2, -1245871.9, -1627134.1, 14181.264, -0.036425654, -0.099982515, -1245345.1, 358515.06, 0.021248672, 10.00343, 9.998279 
1.7152582e+3, 1.4633906e+2, -1166387.4, -1483834.0, -22884.746, 0.019723736, -0.05213903, -1164746.0, 341124.56, 0.010897813, 10.00303, 9.998783 
1.7152327e+3, 1.5633757e+2, -1084755.1, -1388883.5, -31802.824, -0.06290107, -0.08510942, -1081465.1, 326420.34, 0.0038027188, 10.002875, 9.998835 
1.7152071e+3, 1.6633669e+2, -1023313.2, -1270312.5, -65126.63, -0.08342543, -0.06679338, -1007193.2, 302701.97, 0.00068158866, 10.00245, 9.999181 
1.715182e+3, 1.7633651e+2, -1009452.7, -1209434.0, -61657.89, -0.045690995, -0.0075980723, -991970.7, 219927.94, 0.00002321552, 10.001856, 9.999212 
1.7151567e+3, 1.8633571e+2, -958432.1, -1111386.6, -48179.477, -0.02982954, -0.012095251, -944521.1, 169386.44, 0.0, 10.001435, 9.999415 
1.7151316e+3, 1.9633467e+2, -906422.3, -1036537.5, -40525.785, -0.035624888, -0.061400592, -894832.5, 121085.83, 0.0, 10.001124, 9.999406 
1.7151065e+3, 2.0633438e+2, -849676.56, -963921.06, -32914.867, -0.05079904, -0.020064877, -840872.06, 77051.14, 0.0, 10.000865, 9.999357 
1.7150816e+3, 2.1633472e+2, -780745.7, -872561.25, -45989.98, -0.068498224, 0.07326627, -761671.94, 58250.535, 0.0, 10.000633, 9.999423 
1.715057e+3, 2.2633402e+2, -690518.6, -730480.4, -36575.242, -0.07592989, 0.04517693, -668822.4, 53106.313, 0.0, 10.000374, 9.999851 
1.7150323e+3, 2.3633286e+2, -638347.3, -663471.6, -19264.78, -0.07795518, -0.05754948, -627910.8, -3973.6829, 0.0, 10.000097, 9.999771 
1.715008e+3, 2.4633257e+2, -621630.06, -662228.6, -18441.492, -0.062380403, -0.027890956, -614504.0, -88562.625, 0.0, 9.999787, 9.999256 
1.7149836e+3, 2.563329e+2, -565655.44, -575323.75, -30354.758, -0.036811832, 0.07746494, -539752.3, -111810.95, 0.0, 9.999459, 9.999337 
1.7149593e+3, 2.6633236e+2, -459790.9, -415380.03, -17700.355, -0.04296271, 0.06721992, -409188.56, -79241.76, 0.0, 9.999264, 9.999857 
1.7149346e+3, 2.7633145e+2, -383366.78, -334569.8, -5087.754, -0.06686914, -0.013762408, -334045.0, -102091.33, 0.0, 9.999145, 9.999796 
1.7149104e+3, 2.8633124e+2, -337754.94, -302964.88, -545.96075, -0.042313125, 0.014601725, -302956.3, -169000.64, 0.0, 9.998962, 9.999428 
1.7148864e+3, 2.963316e+2, -270887.16, -218295.0, -11825.277, 0.0063185217, 0.103437796, -215758.45, -179805.31, 0.0, 9.998741, 9.999442 
1.714861e+3, 3.0632967e+2, -267096.75, -175795.95, -9814.45, -0.101981856, -0.030038225, -174752.86, -174752.86, 0.0, 9.998365, 9.99958 
1.7148377e+3, 3.1633043e+2, -246328.64, -30174.1, -27797.25, -0.008679045, 0.082283385, -26656.643, -26656.643, 0.0, 9.997925, 10.000792 
1.7253104e+3, 1.2636653e+2, -1248455.1, -1654310.8, -47774.688, 0.016724633, -0.061186824, -1242907.3, 458694.47, 0.034260124, 10.004048, 9.998476 
1.7252854e+3, 1.3636455e+2, -1169021.4, -1579557.5, 22910.945, -0.055125352, -0.09756146, -1167746.8, 435873.28, 0.022548225, 10.003934, 9.998364 
1.7252614e+3, 1.4636344e+2, -1122297.6, -1476671.9, -17910.027, 0.015949473, -0.05146473, -1121394.8, 384236.34, 0.011658559, 10.003403, 9.9986515 
1.7252354e+3, 1.5636179e+2, -1127257.1, -1422029.3, -23394.883, -0.053488176, -0.08657863, -1125412.0, 282236.1, 0.004128136, 10.002641, 9.998718 
1.7252097e+3, 1.6636084e+2, -1055444.3, -1287483.5, -53040.32, -0.076441355, -0.069994986, -1043894.9, 265763.88, 0.0007614899, 10.002239, 9.999164 
1.7251839e+3, 1.763606e+2, -981673.6, -1196918.4, -50365.137, -0.048655633, -0.013267321, -970471.6, 241191.03, 0.000028535813, 10.002053, 9.999202 
1.7251584e+3, 1.863599e+2, -913491.0, -1083198.9, -39560.08, -0.034568883, -0.011105324, -904722.3, 208948.17, 0.0, 10.0017185, 9.999471 
1.7251328e+3, 1.9635904e+2, -880637.4, -1021288.6, -36333.19, -0.037867833, -0.048189506, -871806.25, 143872.94, 0.0, 10.001292, 9.999429 
1.7251074e+3, 2.0635857e+2, -856076.4, -983327.9, -18385.678, -0.053494256, -0.01639278, -853473.2, 64212.77, 0.0, 10.000895, 9.999208 
1.7250821e+3, 2.1635854e+2, -805564.1, -896260.2, -16171.158, -0.073227845, 0.055155765, -802767.06, 16922.4, 0.0, 10.000517, 9.999315 
1.7250572e+3, 2.2635803e+2, -710185.7, -719963.0, -15648.871, -0.07826311, 0.042189244, -698679.6, 23014.37, 0.0, 10.000156, 10.000026 
1.7250323e+3, 2.3635744e+2, -671029.3, -662684.0, -21227.824, -0.075630054, -0.024113605, -645222.6, -21525.318, 0.0, 9.999806, 9.999915 
1.7250077e+3, 2.463571e+2, -653494.4, -679263.1, -13899.736, -0.060884286, -0.0015526887, -647425.9, -121724.086, 0.0, 9.99958, 9.999236 
1.724983e+3, 2.563571e+2, -570078.5, -576954.1, -5637.989, -0.039225936, 0.07155295, -566912.9, -139207.78, 0.0, 9.999432, 9.999338 
1.7249584e+3, 2.6635665e+2, -464388.6, -398415.75, 2871.4, -0.044847243, 0.06332853, -398291.0, -68581.58, 0.0, 9.999154, 10.000024 
1.7249335e+3, 2.7635613e+2, -423383.16, -337131.97, -3090.7644, -0.065513395, 0.0044872295, -337021.34, -105308.86, 0.0, 9.998802, 9.999941 
1.7249092e+3, 2.86356e+2, -391475.72, -325128.66, 3510.5713, -0.040112924, 0.033274688, -324943.4, -191229.72, 0.0, 9.998582, 9.999456 
1.7248851e+3, 2.9635626e+2, -316040.34, -239945.53, 1914.2654, 0.007703254, 0.10889883, -239897.4, -204185.14, 0.0, 9.998435, 9.999439 
1.724859e+3, 3.063543e+2, -313029.13, -207224.73, 2609.5635, -0.115334086, -0.02200326, -207160.4, -207160.4, 0.0, 9.998094, 9.999494 
1.7248355e+3, 3.1635493e+2, -261195.88, -1122.8282, 1854.0708, -0.005899076, 0.0827908, -1109.6112, -1109.6112, 0.0, 9.997671, 10.001113 
1.7353144e+3, 1.2639089e+2, -1251618.3, -1661919.9, -49014.223, 0.016625948, -0.10950399, -1245844.4, 455517.75, 0.036136504, 10.004058, 9.99842 
1.735289e+3, 1.3638946e+2, -1175282.0, -1591228.4, 13847.183, -0.09154425, -0.08386875, -1174821.5, 428553.94, 0.023893, 10.00393, 9.998286 
1.7352647e+3, 1.4638834e+2, -1128774.6, -1490710.6, -47547.77, 0.009607966, -0.029673405, -1122632.5, 382754.56, 0.012452724, 10.003405, 9.998555 
1.7352384e+3, 1.5638651e+2, -1130679.6, -1433658.6, -50002.77, -0.017810876, -0.0738347, -1122640.6, 284765.6, 0.004474135, 10.002658, 9.998632 
1.735212e+3, 1.6638525e+2, -1054950.6, -1290866.6, -60540.9, -0.04849638, -0.080708645, -1040321.7, 269098.0, 0.0008499968, 10.002255, 9.999134 
1.7351858e+3, 1.7638467e+2, -982573.94, -1201417.8, -58783.13, -0.05571408, -0.056820974, -967783.94, 243642.84, 0.000035226243, 10.002062, 9.999168 
1.7351598e+3, 1.8638436e+2, -913272.1, -1084762.5, -55824.863, -0.048108768, -0.012090789, -896700.9, 216730.02, 0.0, 10.001724, 9.999459 
1.735134e+3, 1.9638436e+2, -879831.8, -1021785.44, -52155.234, -0.041404616, 0.037371628, -862729.8, 152702.0, 0.0, 10.001298, 9.999424 
1.7351083e+3, 2.063834e+2, -851492.0, -975823.06, -32581.412, -0.05303333, 0.018261828, -843471.4, 73971.42, 0.0, 10.000899, 9.999259 
1.7350827e+3, 2.1638213e+2, -803129.5, -892853.0, -29791.07, -0.07191127, -0.04092201, -794138.8, 25318.53, 0.0, 10.000521, 9.999338 
1.7350574e+3, 2.2638209e+2, -718935.25, -739821.3, -28252.62, -0.071086034, 0.0016382876, -699257.4, 22200.953, 0.0, 10.000161, 9.999889 
1.7350322e+3, 2.36383e+2, -676474.5, -675854.4, -32463.918, -0.059882723, 0.09954351, -643699.06, -20249.506, 0.0, 9.999811, 9.999824 
1.7350073e+3, 2.4638239e+2, -635401.06, -643673.9, -18481.982, -0.055172473, 0.08412563, -620598.25, -95142.164, 0.0, 9.999586, 9.99948 
1.7349823e+3, 2.5638106e+2, -555408.94, -548435.56, -11040.918, -0.05432728, -0.00015060756, -540343.9, -112874.21, 0.0, 9.999436, 9.999533 
1.7349574e+3, 2.6638073e+2, -470494.8, -412973.66, -9572.944, -0.056452487, 0.0013084295, -411422.3, -81949.37, 0.0, 9.999158, 9.999924 
1.7349324e+3, 2.7638122e+2, -427083.78, -346773.34, -14587.31, -0.059460882, 0.051776092, -344205.84, -112737.74, 0.0, 9.998807, 9.999874 
1.7349078e+3, 2.863811e+2, -378409.44, -299482.7, -1459.1023, -0.030518694, 0.07744652, -299455.72, -165986.77, 0.0, 9.998585, 9.999633 
1.7348835e+3, 2.9638082e+2, -306744.9, -221335.89, -4610.9146, 0.012855813, 0.08223864, -221087.69, -185615.94, 0.0, 9.998435, 9.999569 
1.7348571e+3, 3.063791e+2, -313479.22, -209100.5, -14052.288, -0.12505662, -0.030734478, -207241.77, -207241.77, 0.0, 9.998095, 9.999483 
1.7348331e+3, 3.163798e+2, -234022.22, 52273.73, -1023.2042, -0.003893005, 0.077968344, 52277.39, 52277.39, 0.0, 9.99768, 10.001477 
1.7453186e+3, 1.2641601e+2, -1217272.4, -1650886.8, -39492.926, 0.012231898, -0.10469068, -1213704.8, 487411.38, 0.038068116, 10.00434, 9.998362 
1.7452927e+3, 1.3641448e+2, -1224966.9, -1622141.3, 18222.387, -0.09107309, -0.08178367, -1224132.5, 378998.1, 0.02527939, 10.003618, 9.99822 
1.7452681e+3, 1.4641325e+2, -1152946.1, -1505687.0, -40444.184, 0.020812385, -0.032329276, -1148368.4, 356774.94, 0.013275602, 10.003258, 9.99852 
1.7452413e+3, 1.5641148e+2, -1065857.9, -1406228.0, -39337.2, -0.01954999, -0.06645842, -1061370.8, 345791.03, 0.0048376145, 10.003127, 9.998593 
1.7452145e+3, 1.664102e+2, -990534.0, -1265164.9, -48190.54, -0.053007193, -0.074317805, -982323.3, 326852.38, 0.0009464091, 10.002725, 9.999083 
1.745188e+3, 1.7640945e+2, -971958.6, -1202693.1, -49165.86, -0.054874655, -0.05951542, -961919.0, 249265.02, 0.000043436936, 10.002166, 9.999107 
1.7451616e+3, 1.8640909e+2, -919096.0, -1096366.1, -51006.387, -0.049780264, -0.012579599, -905467.56, 207721.27, 0.0000000000000006446772, 10.001725, 9.999377 
1.7451352e+3, 1.964091e+2, -875536.75, -1025869.6, -53341.676, -0.051358316, 0.046516035, -858533.1, 156657.0, 0.0, 10.001358, 9.999366 
1.745109e+3, 2.0640816e+2, -838759.0, -954654.8, -33746.57, -0.059376184, 0.024682678, -829648.75, 87551.734, 0.0, 10.000926, 9.99939 
1.7450832e+3, 2.1640691e+2, -806705.06, -884405.06, -25706.396, -0.067208044, -0.04476083, -798970.3, 20243.727, 0.0, 10.000456, 9.999426 
1.7450576e+3, 2.2640692e+2, -738549.94, -764503.1, -19690.2, -0.06416609, 0.0060615926, -727944.9, -6729.5874, 0.0, 10.000095, 9.999749 
1.745032e+3, 2.3640788e+2, -684467.6, -689617.25, -24739.05, -0.0563234, 0.1234887, -662169.75, -38962.42, 0.0, 9.999803, 9.999732 
1.7450069e+3, 2.4640727e+2, -639819.6, -618126.1, -9982.647, -0.052513253, 0.09934794, -614231.6, -89018.25, 0.0, 9.99944, 9.999723 
1.7449816e+3, 2.5640595e+2, -600311.06, -548236.0, -3154.0283, -0.050979514, -0.0108318515, -548045.6, -120820.08, 0.0, 9.999039, 9.999723 
1.7449562e+3, 2.6640567e+2, -528560.6, -453747.03, -1618.823, -0.055750944, -0.003914078, -453712.03, -124483.55, 0.0, 9.998819, 9.9998045 
1.744931e+3, 2.764063e+2, -447269.13, -364077.56, -8190.0034, -0.063900955, 0.07100111, -363278.94, -132055.2, 0.0, 9.998706, 9.999802 
1.7449063e+3, 2.864062e+2, -380998.94, -272306.2, 6865.3486, -0.0292756, 0.08721354, -271874.28, -138649.9, 0.0, 9.998449, 9.999883 
1.744882e+3, 2.9640585e+2, -341900.13, -215005.66, 7155.258, 0.02778855, 0.06343812, -214603.45, -179376.86, 0.0, 9.998097, 9.999772 
1.7448549e+3, 3.0640456e+2, -376734.78, -236474.14, -5060.655, -0.12049205, -0.017144904, -236291.78, -236291.78, 0.0, 9.997651, 9.999506 
1.7448306e+3, 3.1640494e+2, -283726.25, 58604.426, 25236.857, -0.0052820323, 0.055582333, 60454.902, 60454.902, 0.0, 9.997212, 10.001744 
1.7553228e+3, 1.264419e+2, -1223273.6, -1662024.0, -63136.723, 0.00004360998, -0.052421823, -1214368.9, 486494.84, 0.040051453, 10.004339, 9.998284 
1.7552966e+3, 1.364397e+2, -1227399.5, -1631166.4, -6823.7495, -0.05722468, -0.09006655, -1227284.1, 375600.56, 0.026700601, 10.003635, 9.998152 
1.7552716e+3, 1.4643827e+2, -1150246.8, -1503883.6, -46060.324, 0.04758504, -0.056595597, -1144346.0, 360552.94, 0.01412061, 10.003274, 9.998528 
1.755244e+3, 1.5643679e+2, -1065792.0, -1407704.9, -47057.535, -0.056435205, -0.0640649, -1059433.6, 347480.78, 0.005214319, 10.003132, 9.998583 
1.7552169e+3, 1.6643563e+2, -996013.56, -1278124.8, -69682.22, -0.087881766, -0.05207564, -979740.5, 329186.22, 0.0010491273, 10.002728, 9.998994 
1.75519e+3, 1.7643493e+2, -977400.9, -1216812.3, -69535.43, -0.04696265, -0.02394265, -958670.2, 252264.3, 0.000053070675, 10.002174, 9.999008 
1.7551634e+3, 1.8643408e+2, -929041.8, -1119839.4, -64911.418, -0.041351188, -0.013238463, -909052.44, 203891.88, 0.0000000010737394, 10.001735, 9.999214 
1.7551364e+3, 1.964333e+2, -882583.5, -1042801.44, -67338.375, -0.06787866, -0.017049482, -858041.1, 156912.45, 0.0, 10.001364, 9.9992485 
1.7551099e+3, 2.0643286e+2, -824545.6, -927062.5, -51156.91, -0.0723032, 0.0054272017, -803385.44, 113573.47, 0.0, 10.000931, 9.999578 
1.7550838e+3, 2.1643282e+2, -796116.8, -864517.25, -41990.93, -0.05935599, 0.04097023, -776160.8, 42799.137, 0.0, 10.000462, 9.999561 
1.7550577e+3, 2.2643243e+2, -748595.1, -787477.6, -30107.586, -0.058156963, 0.052822623, -732197.44, -11232.096, 0.0, 10.000101, 9.999591 
1.7550318e+3, 2.3643202e+2, -690984.44, -705033.1, -35267.15, -0.065462686, 0.048238225, -662048.9, -39077.754, 0.0, 9.999807, 9.999625 
1.7550062e+3, 2.4643171e+2, -623109.25, -585291.3, -24363.36, -0.053417798, 0.045722745, -573360.0, -48385.953, 0.0, 9.999445, 9.9999485 
1.7549808e+3, 2.5643164e+2, -587466.44, -523525.44, -15740.77, -0.02975457, 0.04138265, -519860.5, -92887.17, 0.0, 9.999043, 9.999892 
1.7549552e+3, 2.6643136e+2, -538015.06, -475413.53, -4966.2373, -0.0433985, 0.048381135, -475022.0, -146045.2, 0.0, 9.998825, 9.999655 
1.7549296e+3, 2.7643117e+2, -452595.38, -377266.25, -12599.894, -0.07880982, 0.059915427, -375214.6, -144234.03, 0.0, 9.998712, 9.99971 
1.7549047e+3, 2.864311e+2, -358498.66, -227413.88, -5991.0083, -0.036379434, 0.061148573, -227140.64, -94159.48, 0.0, 9.998453, 10.000191 
1.7548802e+3, 2.9643124e+2, -322987.9, -177155.78, -7266.752, 0.050102465, 0.054511216, -176794.58, -141816.73, 0.0, 9.9981, 10.000032 
1.7548527e+3, 3.0643055e+2, -373176.88, -229839.63, -23339.797, -0.103976406, 0.02090142, -226134.92, -226134.92, 0.0, 9.997651, 9.999554 
1.7548276e+3, 3.1643033e+2, -273481.94, 79696.5, 25401.014, -0.010208115, 0.028434837, 81514.016, 81514.016, 0.0, 9.99721, 10.001892 
1.7653272e+3, 1.264679e+2, -1242822.9, -1681655.1, -38804.11, 0.013792493, -0.032836523, -1239418.0, 461191.94, 0.042083267, 10.004257, 9.998181 
1.7653005e+3, 1.3646558e+2, -1162301.5, -1608170.4, 9889.655, -0.05937017, -0.07129316, -1162082.3, 440550.22, 0.028152369, 10.004145, 9.998063 
1.7652752e+3, 1.4646402e+2, -1092122.0, -1474915.4, -29872.178, 0.053160816, -0.0482119, -1089804.9, 414843.0, 0.014982959, 10.003682, 9.998529 
1.7652471e+3, 1.5646254e+2, -1078095.8, -1414424.9, -31765.902, -0.055440713, -0.054751217, -1075121.9, 331540.88, 0.005600271, 10.003056, 9.99857 
1.7652194e+3, 1.664613e+2, -1016816.44, -1299840.1, -56570.184, -0.08595234, -0.042605933, -1005928.2, 302747.3, 0.0011561537, 10.002641, 9.998884 
1.7651924e+3, 1.7646049e+2, -960104.3, -1220461.4, -58808.19, -0.039064057, -0.01590824, -947437.25, 263247.2, 0.00006374245, 10.002349, 9.998898 
1.7651652e+3, 1.8645947e+2, -909097.56, -1121269.4, -53282.58, -0.033896938, -0.010859308, -896468.5, 216227.55, 0.000000009428086, 10.001923, 9.999111 
1.7651378e+3, 1.9645852e+2, -880848.7, -1051566.6, -52578.836, -0.0650084, -0.022357453, -865954.56, 148752.64, 0.0, 10.001421, 9.999159 
1.7651108e+3, 2.0645808e+2, -821363.6, -923923.25, -44419.047, -0.06967007, 0.004774131, -804800.5, 111911.72, 0.0, 10.000949, 9.99959 
1.7650843e+3, 2.1645817e+2, -791682.2, -862157.2, -48464.797, -0.054443017, 0.051985543, -766998.75, 51712.8, 0.0, 10.000494, 9.999559 
1.7650577e+3, 2.2645766e+2, -763198.75, -800280.7, -34551.37, -0.05286321, 0.05524939, -742527.94, -21809.848, 0.0, 10.00003, 9.999536 
1.7650315e+3, 2.3645699e+2, -730136.4, -728031.7, -32574.752, -0.06109574, 0.030002104, -696492.3, -73765.65, 0.0, 9.999559, 9.999585 
1.7650054e+3, 2.4645676e+2, -648448.5, -589082.06, -24711.73, -0.051828977, 0.03390846, -580141.94, -55413.23, 0.0, 9.999238, 10.00002 
1.7649798e+3, 2.56457e+2, -588543.4, -515973.66, -27633.65, -0.031998802, 0.053046837, -506649.2, -79924.336, 0.0, 9.999004, 9.999962 
1.764954e+3, 2.664568e+2, -555933.7, -474895.16, -8664.864, -0.043295804, 0.06239854, -473979.06, -145251.67, 0.0, 9.998666, 9.999733 
1.7649281e+3, 2.764566e+2, -512537.8, -397959.88, 474.6164, -0.07258486, 0.061539374, -397957.9, -167226.25, 0.0, 9.998269, 9.99978 
1.7649029e+3, 2.8645647e+2, -416865.03, -251433.78, 539.9828, -0.034797728, 0.05493468, -251432.02, -118699.125, 0.0, 9.998038, 10.000224 
1.764878e+3, 2.9645663e+2, -348777.0, -183700.95, -23605.328, 0.040796265, 0.04830849, -180391.8, -145662.13, 0.0, 9.997902, 10.000082 
1.7648502e+3, 3.0645654e+2, -381313.97, -205983.34, -46703.12, -0.10424406, 0.0599872, -194318.95, -194318.95, 0.0, 9.997479, 9.999798 
1.7648248e+3, 3.1645605e+2, -301875.6, 82640.17, 33407.785, 0.0005181768, 0.01377291, 85521.15, 85521.15, 0.0, 9.996947, 10.002036 
1.7753318e+3, 1.2649408e+2, -1251977.8, -1701485.0, -38818.99, 0.04721769, -0.040833242, -1248650.1, 451703.9, 0.04417041, 10.004266, 9.998038 
1.7753042e+3, 1.3649216e+2, -1171008.8, -1626288.8, 1370.0438, -0.09535822, -0.028202333, -1171004.6, 431369.03, 0.02963907, 10.004145, 9.99794 
1.7752786e+3, 1.4649048e+2, -1092766.6, -1477079.6, -54295.547, 0.038473982, -0.010436525, -1085243.0, 419147.06, 0.01586308, 10.003685, 9.998515 
1.7752504e+3, 1.5648876e+2, -1078076.1, -1418122.4, -54058.88, -0.019577052, -0.039036747, -1069688.9, 336717.5, 0.0059935036, 10.003069, 9.998541 
1.7752224e+3, 1.6648726e+2, -1024415.75, -1319668.6, -67968.805, -0.05052587, -0.04489182, -1009520.44, 298901.22, 0.0012658964, 10.002655, 9.998743 
1.7751949e+3, 1.7648615e+2, -967783.3, -1239463.5, -70965.266, -0.031858727, -0.033537265, -950363.5, 260070.06, 0.000074936936, 10.002359, 9.998764 
1.7751671e+3, 1.8648526e+2, -912039.1, -1130131.0, -72068.15, -0.027577061, -0.005139582, -890376.06, 222067.78, 0.000000028818846, 10.001931, 9.999048 
1.7751393e+3, 1.9648468e+2, -884752.9, -1062741.4, -70906.086, -0.044086747, 0.02751768, -859959.4, 154491.95, 0.0, 10.0014305, 9.999079 
1.7751119e+3, 2.0648378e+2, -832058.9, -948870.06, -61092.1, -0.05318295, 0.020844983, -805945.5, 110515.18, 0.0, 10.0009575, 9.999416 
1.7750846e+3, 2.1648292e+2, -800711.9, -883189.0, -64818.94, -0.05290766, -0.009371215, -765125.2, 53343.613, 0.0, 10.000501, 9.999414 
1.7750579e+3, 2.2648259e+2, -759724.4, -795314.4, -51552.563, -0.048353706, 0.015829988, -722982.0, -2508.3833, 0.0, 10.000035, 9.999568 
1.7750311e+3, 2.3648272e+2, -727906.75, -725944.9, -48035.33, -0.043568328, 0.068613335, -678880.44, -56406.047, 0.0, 9.999567, 9.999598 
1.7750047e+3, 2.4648234e+2, -653874.4, -602833.6, -32498.78, -0.04847799, 0.06270032, -587032.56, -62554.51, 0.0, 9.999246, 9.999925 
1.7749785e+3, 2.5648192e+2, -590676.6, -522615.0, -36208.05, -0.058111534, 0.022558596, -506955.56, -80474.54, 0.0, 9.999011, 9.999915 
1.7749526e+3, 2.6648194e+2, -533871.9, -431215.53, -23144.502, -0.05563903, 0.03758303, -426238.72, -97757.66, 0.0, 9.998672, 10.000032 
1.7749266e+3, 2.7648243e+2, -496393.47, -366191.0, -12412.05, -0.04684236, 0.07798516, -365018.34, -134540.67, 0.0, 9.998273, 9.999998 
1.774901e+3, 2.8648221e+2, -434725.56, -289868.28, -4069.8962, -0.027060771, 0.070190854, -289754.03, -157273.6, 0.0, 9.998041, 9.99996 
1.7748755e+3, 2.9648194e+2, -360192.88, -209367.45, -31433.045, -0.00034629327, 0.043306373, -203078.8, -168595.3, 0.0, 9.997907, 9.999905 
1.7748475e+3, 3.0648246e+2, -350099.97, -142990.88, -68695.15, -0.120191924, 0.099125504, -122277.29, -122277.29, 0.0, 9.997483, 10.000231 
1.7748219e+3, 3.1648213e+2, -293338.6, 98888.984, 30565.26, 0.022090197, 0.029428098, 101256.56, 101256.56, 0.0, 9.99695, 10.002149 
1.7853361e+3, 1.265207e+2, -1220694.1, -1693435.6, -21175.092, 0.057974994, -0.036319785, -1219747.6, 480346.0, 0.04632941, 10.004539, 9.997961 
1.7853083e+3, 1.3651869e+2, -1197567.4, -1645496.3, 16699.686, -0.09848115, -0.023707338, -1196945.8, 405168.5, 0.031171087, 10.003993, 9.997879 
1.7852823e+3, 1.4651692e+2, -1102630.5, -1484637.3, -40007.945, 0.0493512, -0.0109434575, -1098485.4, 405646.16, 0.016765475, 10.003636, 9.998483 
1.7852537e+3, 1.5651526e+2, -1030703.7, -1399378.9, -41510.914, -0.0024416933, -0.030809855, -1026087.56, 380059.53, 0.0063945167, 10.00342, 9.998498 
1.7852253e+3, 1.6651367e+2, -976654.6, -1306082.6, -53790.395, -0.03875177, -0.03751063, -968094.0, 340069.13, 0.0013775685, 10.003029, 9.998654 
1.7851973e+3, 1.7651239e+2, -948241.75, -1240052.6, -54485.297, -0.029982094, -0.03420686, -938400.5, 271776.25, 0.00008619833, 10.002541, 9.99867 
1.7851691e+3, 1.8651143e+2, -892828.94, -1130861.3, -57946.45, -0.024906246, -0.0026143847, -879472.0, 232715.72, 0.0000000562377, 10.0021105, 9.998955 
1.785141e+3, 1.9651087e+2, -850543.56, -1056606.4, -60219.332, -0.03588377, 0.04047307, -834235.8, 179959.44, 0.0, 10.001714, 9.998982 
1.7851129e+3, 2.0650983e+2, -805126.06, -945801.1, -50842.613, -0.04507153, 0.030245109, -788674.56, 127531.28, 0.0, 10.001188, 9.999324 
1.7850852e+3, 2.1650878e+2, -794335.0, -890661.8, -48785.727, -0.04761036, -0.011713394, -773943.56, 44272.277, 0.0, 10.000593, 9.999316 
1.785058e+3, 2.2650829e+2, -745517.8, -800568.6, -36092.875, -0.04416266, 0.0112037035, -727652.25, -7430.4976, 0.0, 10.000188, 9.999457 
1.7850308e+3, 2.3650834e+2, -688083.56, -717095.44, -43848.508, -0.039785564, 0.06722651, -656403.9, -34180.8, 0.0, 9.999887, 9.999502 
1.785004e+3, 2.4650791e+2, -628646.25, -590929.06, -28808.014, -0.046957057, 0.06055431, -575355.9, -51128.55, 0.0, 9.999422, 9.999919 
1.7849775e+3, 2.5650746e+2, -612740.56, -534017.0, -26314.154, -0.059500944, 0.017263597, -526031.3, -99800.44, 0.0, 9.998865, 9.999906 
1.7849511e+3, 2.665075e+2, -571632.8, -448755.28, -25158.223, -0.053285684, 0.03535362, -443803.84, -115573.24, 0.0, 9.998411, 10.000036 
1.7849249e+3, 2.7650803e+2, -532690.1, -382455.28, -35691.883, -0.03825301, 0.081876636, -374406.97, -144180.63, 0.0, 9.99802, 10.000007 
1.7848988e+3, 2.8650782e+2, -485692.72, -308281.03, -15282.177, -0.025644882, 0.0682276, -306974.25, -174744.77, 0.0, 9.997667, 10.000012 
1.784873e+3, 2.965075e+2, -438487.47, -237731.17, -21162.334, -0.01029499, 0.03325172, -235524.63, -201291.53, 0.0, 9.997332, 9.999986 
1.7848448e+3, 3.065084e+2, -396470.34, -137576.5, -62728.836, -0.11238886, 0.1099143, -123178.32, -123178.32, 0.0, 9.997048, 10.000476 
1.7848188e+3, 3.1650814e+2, -317993.7, 69451.81, 38202.523, 0.01204899, 0.025082571, 73182.695, 73182.695, 0.0, 9.996859, 10.001989 
1.7953406e+3, 1.2654777e+2, -1222536.5, -1698626.8, -37151.164, 0.04434286, -0.019491708, -1219655.0, 480173.2, 0.04857617, 10.004551, 9.99792 
1.7953123e+3, 1.3654529e+2, -1196936.8, -1647696.1, -3166.29, -0.07149764, -0.054009087, -1196914.5, 404938.7, 0.032758567, 10.00401, 9.997858 
1.7952862e+3, 1.4654341e+2, -1105129.8, -1492995.3, -49319.293, 0.0835439, -0.04605491, -1098956.8, 404914.72, 0.017695894, 10.00365, 9.99842 
1.7952572e+3, 1.5654205e+2, -1034253.2, -1408691.6, -51830.9, -0.0036475332, -0.029221443, -1027211.0, 378673.44, 0.0068058535, 10.003427, 9.998433 
1.7952283e+3, 1.6654056e+2, -979981.0, -1314831.5, -72649.95, -0.049709067, -0.021040201, -964898.06, 343001.66, 0.0014913033, 10.003034, 9.998594 
1.7951997e+3, 1.765392e+2, -952062.3, -1250396.4, -72707.164, -0.033128984, -0.019137073, -935286.2, 274627.84, 0.00009724471, 10.002547, 9.998598 
1.7951712e+3, 1.8653798e+2, -901234.7, -1150738.3, -72948.21, -0.026294079, -0.0032690347, -881471.94, 230455.8, 0.000000085167756, 10.002117, 9.9988165 
1.7951426e+3, 1.9653706e+2, -858119.25, -1074443.0, -75924.914, -0.04009376, 0.018665465, -834131.3, 179807.58, 0.0, 10.001719, 9.998859 
1.7951141e+3, 2.065362e+2, -805893.8, -949842.9, -72916.09, -0.044945925, 0.034098223, -775413.06, 140534.7, 0.0, 10.001196, 9.999295 
1.7950858e+3, 2.1653563e+2, -797456.56, -900226.25, -68966.15, -0.03891907, 0.042739145, -762837.2, 55116.094, 0.0, 10.000603, 9.999248 
1.7950581e+3, 2.265347e+2, -762488.2, -838563.94, -46525.51, -0.041198, 0.03919604, -740430.3, -20467.158, 0.0, 10.000196, 9.999194 
1.7950307e+3, 2.3653382e+2, -702028.06, -748278.4, -55551.582, -0.05004247, 0.025962964, -664980.56, -43007.383, 0.0, 9.999894, 9.999287 
1.7950034e+3, 2.4653342e+2, -622325.25, -579841.9, -48833.83, -0.04723483, 0.028497685, -547829.94, -23852.986, 0.0, 9.999428, 9.999994 
1.7949764e+3, 2.5653353e+2, -610399.94, -531274.2, -45239.633, -0.036816802, 0.03850838, -510738.47, -84763.57, 0.0, 9.998871, 9.999924 
1.7949496e+3, 2.665334e+2, -592210.8, -493707.28, -39174.992, -0.037393462, 0.056078013, -480027.22, -152050.48, 0.0, 9.998418, 9.999726 
1.7949228e+3, 2.7653337e+2, -546514.5, -413606.94, -49387.19, -0.04690601, 0.07076833, -397264.56, -167285.67, 0.0, 9.998027, 9.999791 
1.7948964e+3, 2.8653315e+2, -458842.34, -254383.11, -27819.846, -0.029827861, 0.047194548, -250665.39, -118684.195, 0.0, 9.997672, 10.000382 
1.7948705e+3, 2.9653326e+2, -415329.38, -189840.88, -33702.793, 0.009162898, 0.019467175, -184911.23, -150931.97, 0.0, 9.997328, 10.000319 
1.794842e+3, 3.065343e+2, -394477.03, -133236.67, -70956.48, -0.083874546, 0.09147725, -115208.09, -115208.09, 0.0, 9.997045, 10.000509 
1.794815e+3, 3.1653413e+2, -348640.78, 3185.335, 44769.707, -0.03280358, 0.016965032, 8792.884, 8792.884, 0.0, 9.996867, 10.001532 
1.8053451e+3, 1.2657498e+2, -1186687.0, -1688916.8, -18700.668, 0.028334167, -0.02652931, -1185991.6, 513569.8, 0.05091858, 10.00486, 9.997839 
1.8053167e+3, 1.365725e+2, -1139878.5, -1624815.8, 6236.259, -0.06875617, -0.054568302, -1139798.4, 461788.16, 0.034408752, 10.00445, 9.997801 
1.8052901e+3, 1.4657053e+2, -1066463.6, -1482611.5, -37868.96, 0.09587984, -0.05050918, -1063045.6, 440560.34, 0.018660272, 10.003964, 9.998339 
1.8052606e+3, 1.5656912e+2, -1032973.06, -1417236.0, -43205.254, -0.008187944, -0.028647568, -1028175.1, 377444.38, 0.007231395, 10.00348, 9.998346 
1.8052313e+3, 1.6656756e+2, -988966.2, -1328751.0, -70002.5, -0.053495478, -0.017116155, -975109.3, 332526.1, 0.001608138, 10.003017, 9.998504 
1.8052022e+3, 1.7656615e+2, -954934.3, -1260768.3, -72721.78, -0.025129046, -0.014188667, -938523.0, 271127.53, 0.00010803382, 10.00257, 9.998513 
1.8051733e+3, 1.8656483e+2, -905041.6, -1156513.9, -68606.12, -0.01553882, -0.00008558775, -887542.4, 224122.56, 0.000000109468616, 10.002112, 9.998777 
1.8051443e+3, 1.9656384e+2, -872665.25, -1088119.4, -65780.26, -0.032077774, 0.018845392, -854169.6, 159506.98, 0.0, 10.001653, 9.9987955 
1.8051153e+3, 2.0656292e+2, -801546.8, -967346.0, -68026.266, -0.040277023, 0.040801477, -777208.75, 138477.63, 0.0, 10.001313, 9.999116 
1.8050867e+3, 2.1656229e+2, -745143.2, -891532.6, -75635.37, -0.037968773, 0.06132276, -713085.0, 104607.88, 0.0, 10.001038, 9.999097 
1.8050584e+3, 2.265612e+2, -715870.6, -812881.25, -45846.18, -0.04114917, 0.04782005, -697632.8, 22070.95, 0.0, 10.000505, 9.99922 
1.8050306e+3, 2.3656012e+2, -712102.1, -754588.06, -34812.99, -0.049428906, 0.012679715, -692562.6, -70847.76, 0.0, 9.999833, 9.999271 
1.8050028e+3, 2.465597e+2, -655209.3, -618305.9, -35138.906, -0.044510398, 0.025272973, -597068.7, -73349.44, 0.0, 9.999301, 9.99979 
1.8049753e+3, 2.565599e+2, -626281.9, -557851.5, -52290.41, -0.031031702, 0.06328254, -529577.0, -103859.48, 0.0, 9.998845, 9.999752 
1.8049479e+3, 2.665596e+2, -600098.8, -496928.4, -36808.844, -0.03287705, 0.069422, -485142.28, -157421.33, 0.0, 9.9983635, 9.999729 
1.8049206e+3, 2.7655917e+2, -569372.94, -424666.6, -23390.023, -0.046215307, 0.049391367, -420979.8, -191254.19, 0.0, 9.997872, 9.999789 
1.8048939e+3, 2.8655902e+2, -489561.53, -269629.94, -8915.042, -0.03367155, 0.03272382, -269269.13, -137541.86, 0.0, 9.997464, 10.000377 
1.8048677e+3, 2.965595e+2, -444614.97, -198370.86, -43389.453, 0.0018463107, 0.039102476, -190949.11, -157226.7, 0.0, 9.997106, 10.000366 
1.8048392e+3, 3.065603e+2, -419854.78, -118720.45, -77237.62, -0.062316764, 0.07342712, -100065.516, -100065.516, 0.0, 9.996759, 10.000744 
1.8048115e+3, 3.1656033e+2, -419776.4, -45943.91, 65182.445, -0.046754487, 0.0010470683, -34904.52, -34904.52, 0.0, 9.996447, 10.001394 
1.8153498e+3, 1.266024e+2, -1194993.0, -1706252.9, -27790.057, 0.0079560885, -0.054281536, -1193486.9, 505805.88, 0.053357467, 10.004868, 9.997715 
1.8153208e+3, 1.3660038e+2, -1146642.5, -1639173.9, -10884.8, -0.08946256, -0.02842948, -1146402.1, 454911.63, 0.036127, 10.004453, 9.997704 
1.8152939e+3, 1.4659825e+2, -1074059.8, -1499390.1, -56848.805, 0.086748384, -0.02750806, -1066592.5, 436742.22, 0.019665373, 10.003969, 9.998222 
1.815264e+3, 1.565965e+2, -1040228.56, -1435117.5, -61751.582, -0.015426721, -0.02929501, -1030797.25, 374554.56, 0.0076760068, 10.003489, 9.998221 
1.8152341e+3, 1.6659474e+2, -996039.6, -1347048.4, -87221.664, -0.050587118, -0.024671132, -975560.8, 331809.03, 0.0017300096, 10.00303, 9.998375 
1.8152049e+3, 1.7659321e+2, -959997.6, -1275130.4, -89516.164, -0.007432746, -0.018423466, -936345.06, 273040.94, 0.000118796386, 10.0025835, 9.99841 
1.8151757e+3, 1.86592e+2, -900645.25, -1151164.4, -85931.57, 0.005928316, 0.006816237, -874002.94, 237396.39, 0.00000012626741, 10.002125, 9.99881 
1.815146e+3, 1.9659117e+2, -872545.0, -1091461.6, -81881.92, -0.012863232, 0.039552797, -845307.4, 168101.44, 0.0, 10.001665, 9.998769 
1.8151167e+3, 2.0658994e+2, -823536.5, -1015740.94, -77796.695, -0.03208251, 0.04986756, -795994.25, 119427.79, 0.0, 10.001322, 9.998781 
1.8150875e+3, 2.1658872e+2, -760851.6, -926078.25, -87213.97, -0.044997975, 0.045553196, -723334.9, 94100.02, 0.0, 10.001042, 9.998859 
1.8150589e+3, 2.2658777e+2, -694537.9, -770507.8, -70260.34, -0.044033173, 0.038465936, -652651.9, 66792.11, 0.0, 10.00051, 9.999511 
1.8150304e+3, 2.365872e+2, -699344.2, -730348.75, -57866.15, -0.038351025, 0.027154304, -654939.8, -33490.98, 0.0, 9.99984, 9.999437 
1.8150021e+3, 2.4658667e+2, -688857.2, -690502.06, -51305.25, -0.03955944, 0.050068762, -638367.75, -114912.7, 0.0, 9.999308, 9.999293 
1.814974e+3, 2.5658643e+2, -651287.0, -612188.5, -68713.31, -0.042809233, 0.09064894, -560297.6, -134838.11, 0.0, 9.998852, 9.999377 
1.8149462e+3, 2.6658592e+2, -576744.4, -450719.88, -54541.863, -0.040030245, 0.074894, -430393.3, -102929.21, 0.0, 9.998369, 10.000046 
1.8149185e+3, 2.7658543e+2, -554258.3, -394894.2, -39881.496, -0.03717492, 0.018783089, -385470.9, -156003.75, 0.0, 9.997875, 9.999994 
1.8148914e+3, 2.8658536e+2, -517380.53, -329109.16, -21880.527, -0.03913711, 0.02623322, -326599.7, -195131.25, 0.0, 9.997468, 9.999969 
1.8148644e+3, 2.9658604e+2, -461298.6, -235860.64, -57106.39, -0.033299666, 0.091876574, -222220.19, -188756.44, 0.0, 9.997114, 10.000107 
1.8148361e+3, 3.0658627e+2, -388279.38, -55135.18, -89625.11, -0.046978284, 0.053278983, -32554.1, -32554.1, 0.0, 9.996764, 10.00118 
1.8148081e+3, 3.1658676e+2, -406345.8, -17818.781, 61248.656, -0.03140271, -0.011330283, -8392.063, -8392.063, 0.0, 9.996441, 10.001593 
1.8253545e+3, 1.2663041e+2, -1169995.5, -1696687.3, -18667.508, -0.006129569, -0.04481172, -1169334.6, 529684.75, 0.055891894, 10.005079, 9.997677 
1.8253252e+3, 1.3662845e+2, -1141440.9, -1637303.3, -4522.4487, -0.09566771, -0.010791939, -1141399.6, 459639.75, 0.037918497, 10.004504, 9.997689 
1.8252979e+3, 1.4662622e+2, -1075781.6, -1510744.5, -45377.484, 0.08981993, -0.014101323, -1071098.0, 431963.38, 0.020718543, 10.00401, 9.998122 
1.8252675e+3, 1.5662435e+2, -1029780.9, -1440486.1, -48690.348, -0.01778795, -0.018780112, -1024087.4, 380992.5, 0.008145094, 10.0036125, 9.998123 
1.8252373e+3, 1.6662249e+2, -968296.94, -1339972.0, -69696.55, -0.0528839, -0.01664283, -955657.3, 351441.53, 0.0018595328, 10.003252, 9.998313 
1.8252078e+3, 1.7662087e+2, -918200.4, -1262728.6, -69111.56, -0.0054773176, -0.013182798, -904853.8, 304261.9, 0.000130009, 10.002908, 9.998337 
1.825178e+3, 1.8661955e+2, -858179.44, -1142927.5, -73903.945, 0.009759037, 0.012685295, -840141.06, 270988.75, 0.00000013249935, 10.002473, 9.998696 
1.8251479e+3, 1.9661863e+2, -832341.9, -1082625.1, -80421.98, -0.009213742, 0.0481268, -808728.25, 204411.8, 0.0, 10.001989, 9.998671 
1.825118e+3, 2.0661725e+2, -807582.2, -1007213.8, -63881.22, -0.027931098, 0.046829272, -788890.56, 126263.836, 0.0, 10.001431, 9.998785 
1.8250886e+3, 2.1661583e+2, -792808.75, -943298.5, -50749.668, -0.039589457, 0.023314497, -777293.94, 39874.754, 0.0, 10.0008335, 9.998839 
1.8250594e+3, 2.2661492e+2, -724326.2, -799478.7, -48908.195, -0.037465505, 0.02968151, -700225.94, 18951.668, 0.0, 10.000372, 9.999377 
1.8250303e+3, 2.3661453e+2, -687865.44, -738618.75, -67691.99, -0.031225646, 0.04929904, -640949.75, -19768.346, 0.0, 9.999982, 9.99931 
1.8250015e+3, 2.4661383e+2, -673379.44, -692330.44, -52706.7, -0.038228907, 0.06659425, -629303.25, -106113.91, 0.0, 9.999457, 9.999207 
1.8249728e+3, 2.5661325e+2, -655471.8, -622269.56, -40465.72, -0.050179984, 0.08194915, -595132.0, -169935.02, 0.0, 9.99886, 9.999303 
1.8249445e+3, 2.6661274e+2, -588207.56, -452571.63, -30273.021, -0.040767994, 0.06740434, -446121.63, -118920.2, 0.0, 9.998277, 10.000076 
1.8249165e+3, 2.7661243e+2, -579704.75, -406234.06, -36685.09, -0.024104286, 0.027440438, -398795.0, -169592.67, 0.0, 9.9977, 9.999999 
1.8248887e+3, 2.866124e+2, -571687.0, -371661.56, -10060.677, -0.036222834, 0.045444302, -371156.8, -239953.0, 0.0, 9.997169, 9.99982 
1.824861e+3, 2.9661298e+2, -530275.25, -277013.22, -25350.354, -0.04969106, 0.11632458, -274500.7, -241299.94, 0.0, 9.996676, 10.000033 
1.8248327e+3, 3.0661267e+2, -441841.8, -61469.46, -60793.35, -0.022666197, 0.018037457, -51989.383, -51989.383, 0.0, 9.996316, 10.00135 
1.8248044e+3, 3.1661394e+2, -454258.72, -12761.001, 73994.75, -0.033615783, 0.0152121065, -689.5811, -689.5811, 0.0, 9.995994, 10.001842 
1.8353593e+3, 1.2665904e+2, -1171151.1, -1695387.5, -33218.625, -0.019684816, -0.0030653803, -1169054.6, 529686.3, 0.058525227, 10.005073, 9.997691 
1.8353298e+3, 1.3665682e+2, -1138696.0, -1631578.5, -26470.465, -0.08846726, -0.0013248714, -1137278.5, 463484.28, 0.039790105, 10.00451, 9.997728 
1.8353021e+3, 1.4665452e+2, -1081154.5, -1524105.1, -61414.47, 0.104162276, -0.009365075, -1072797.1, 429988.4, 0.021827675, 10.004019, 9.998029 
1.835271e+3, 1.5665269e+2, -1034308.5, -1452071.3, -63511.016, -0.01706713, 0.001673926, -1024866.56, 379936.88, 0.008644457, 10.003619, 9.998042 
1.8352404e+3, 1.666508e+2, -968571.3, -1342740.8, -82724.484, -0.06121758, 0.005361267, -951097.94, 355724.44, 0.001999787, 10.003259, 9.998294 
1.8352105e+3, 1.7664908e+2, -921468.56, -1272019.4, -82938.77, -0.018340647, 0.0007091275, -902835.94, 306003.8, 0.0001423853, 10.002915, 9.998272 
1.8351804e+3, 1.8664749e+2, -875254.94, -1180887.3, -91908.3, -0.003229506, 0.017827898, -849745.75, 261110.7, 0.00000012564814, 10.00248, 9.998435 
1.8351497e+3, 1.9664624e+2, -842945.44, -1107196.6, -98572.055, -0.020630317, 0.04540794, -810226.8, 202643.45, 0.0, 10.001997, 9.998501 
1.8351196e+3, 2.0664483e+2, -784597.4, -962207.5, -85812.06, -0.027829137, 0.032204457, -749911.4, 164972.39, 0.0, 10.001439, 9.999092 
1.8350895e+3, 2.1664359e+2, -779733.4, -918907.44, -71414.98, -0.02244482, -0.0054061767, -749608.56, 67286.33, 0.0, 10.000842, 9.999004 
1.8350598e+3, 2.2664262e+2, -762311.4, -880678.3, -62772.37, -0.022381783, 0.021372603, -735221.75, -16316.369, 0.0, 10.000379, 9.998818 
1.8350303e+3, 2.3664206e+2, -716195.94, -799628.4, -82456.42, -0.02855116, 0.079308085, -665503.8, -44590.613, 0.0, 9.999988, 9.99889 
1.8350008e+3, 2.4664116e+2, -650611.56, -647219.7, -74063.96, -0.04069958, 0.07492359, -574832.25, -51909.52, 0.0, 9.999463, 9.9995165 
1.8349716e+3, 2.5664032e+2, -639528.2, -591171.56, -61527.61, -0.053354744, 0.03684964, -549242.1, -124311.51, 0.0, 9.998865, 9.9995165 
1.8349427e+3, 2.6663998e+2, -606527.94, -492782.84, -51040.125, -0.03564347, 0.04715759, -473238.22, -146304.61, 0.0, 9.998282, 9.9998 
1.8349142e+3, 2.7664012e+2, -593780.0, -437841.88, -57403.91, -0.007701484, 0.07586571, -418989.53, -190057.38, 0.0, 9.997706, 9.999782 
1.8348859e+3, 2.8664002e+2, -562442.5, -354338.53, -28514.227, -0.02488776, 0.0899843, -350502.25, -219567.81, 0.0, 9.997173, 9.999938 
1.8348576e+3, 2.966402e+2, -522422.6, -261313.66, -41637.547, -0.04719824, 0.11126625, -254834.72, -221900.36, 0.0, 9.9966755, 10.000144 
1.8348293e+3, 3.0663946e+2, -450606.66, -80324.18, -71870.23, 0.009430087, -0.031792022, -66863.79, -66863.79, 0.0, 9.996315, 10.0012245 
1.8348001e+3, 3.166418e+2, -433258.72, 28666.422, 59949.652, -0.05550569, 0.0877388, 36320.008, 36320.008, 0.0, 9.995999, 10.002126 
1.8453646e+3, 1.2668788e+2, -1189971.6, -1704639.0, -11956.076, -0.011789111, 0.023353642, -1189694.1, 508765.44, 0.06126451, 10.0049515, 9.997683 
1.8453342e+3, 1.3668557e+2, -1129519.3, -1623278.3, -15436.208, -0.09133064, 0.010945135, -1129037.1, 471445.03, 0.041749645, 10.004572, 9.997753 
1.8453062e+3, 1.4668317e+2, -1067436.8, -1521127.9, -46316.613, 0.10389765, -0.0041427175, -1062756.6, 439748.9, 0.023000019, 10.004141, 9.997988 
1.8452747e+3, 1.5668128e+2, -1021714.6, -1450021.3, -45938.527, -0.018701395, 0.0060781455, -1016842.8, 387681.0, 0.009179403, 10.00373, 9.998001 
1.8452437e+3, 1.6667943e+2, -961580.6, -1340888.9, -63605.375, -0.062409498, 0.015492996, -951198.94, 355343.47, 0.002153755, 10.003317, 9.998277 
1.8452133e+3, 1.7667776e+2, -926271.25, -1278001.0, -64497.117, -0.018088432, 0.019279184, -914817.3, 293741.84, 0.0001568468, 10.002901, 9.998236 
1.8451826e+3, 1.8667597e+2, -886516.2, -1197841.1, -69521.44, -0.0054456806, 0.022321025, -871696.9, 238880.95, 0.00000011027377, 10.002456, 9.998328 
1.8451516e+3, 1.9667435e+2, -849356.4, -1119630.4, -66790.234, -0.027390668, 0.024537466, -833752.06, 178842.83, 0.0, 10.001997, 9.998413 
1.845121e+3, 2.0667304e+2, -765188.44, -949887.6, -65516.945, -0.03026511, 0.023193642, -744308.5, 170298.9, 0.0, 10.001564, 9.999115 
1.8450904e+3, 2.1667211e+2, -737185.1, -899412.7, -71857.13, -0.016111447, 0.016683783, -709934.3, 106681.13, 0.0, 10.0011425, 9.998992 
1.8450603e+3, 2.2667098e+2, -745720.2, -890213.94, -52476.086, -0.017566672, 0.0356401, -728673.44, -10045.698, 0.0, 10.000572, 9.998657 
1.8450302e+3, 2.3666997e+2, -735342.8, -822964.94, -44820.617, -0.030533329, 0.06565736, -716477.75, -95837.73, 0.0, 9.99992, 9.99876 
1.8450002e+3, 2.4666902e+2, -670319.7, -650697.56, -41712.18, -0.038731027, 0.06058225, -617658.1, -95008.43, 0.0, 9.999305, 9.999567 
1.8449703e+3, 2.5666836e+2, -661208.3, -598803.7, -48299.41, -0.041840903, 0.035438403, -572504.5, -147849.06, 0.0, 9.998709, 9.999537 
1.8449411e+3, 2.6666796e+2, -625693.25, -516114.66, -34635.5, -0.026623653, 0.048012745, -506085.1, -179425.92, 0.0, 9.998217, 9.999669 
1.844912e+3, 2.7666798e+2, -590652.56, -448057.38, -31614.098, -0.008448874, 0.075649366, -441362.66, -212703.0, 0.0, 9.997781, 9.999673 
1.844883e+3, 2.866679e+2, -573103.2, -353847.16, -7953.0547, -0.030354181, 0.098276965, -353559.06, -222897.52, 0.0, 9.997079, 9.999986 
1.844854e+3, 2.9666823e+2, -584216.8, -289118.66, -24033.701, -0.050841242, 0.12667765, -287174.1, -254513.73, 0.0, 9.996247, 10.000157 
1.8448257e+3, 3.0666718e+2, -535699.3, -151529.92, -51996.973, 0.04147849, -0.031893793, -144616.6, -144616.6, 0.0, 9.995865, 10.00095 
1.8447956e+3, 3.1666964e+2, -461103.2, 55339.484, 62986.797, -0.0690226, 0.12190897, 62910.535, 62910.535, 0.0, 9.995639, 10.0024805 
1.8553697e+3, 1.2671703e+2, -1192580.9, -1708886.6, -18116.59, 0.011930585, 0.036252268, -1191946.0, 506228.63, 0.064112306, 10.004956, 9.997653 
1.8553387e+3, 1.3671474e+2, -1130306.9, -1623005.5, -31192.691, -0.10501203, 0.025464965, -1128339.9, 471857.1, 0.04380089, 10.004569, 9.997759 
1.85531e+3, 1.4671223e+2, -1069227.8, -1524356.8, -62361.53, 0.088857345, 0.0011797501, -1060837.8, 441383.44, 0.024239331, 10.004139, 9.997969 
1.8552782e+3, 1.5671021e+2, -1022822.6, -1454160.0, -61696.777, -0.022614896, -0.0037887911, -1014171.25, 390069.5, 0.0097532375, 10.003736, 9.997972 
1.855247e+3, 1.6670841e+2, -961934.2, -1344104.5, -79615.625, -0.057301115, 0.015416126, -946011.7, 360247.2, 0.002323737, 10.0033245, 9.998253 
1.8552163e+3, 1.7670695e+2, -926258.7, -1280160.0, -80518.85, -0.00626848, 0.042151045, -908800.5, 299473.5, 0.00017441528, 10.002907, 9.99822 
1.8551852e+3, 1.8670496e+2, -883970.8, -1195055.3, -86706.336, 0.001720855, 0.025700573, -861436.1, 248857.92, 0.00000010372912, 10.002463, 9.998345 
1.8551536e+3, 1.9670294e+2, -849991.8, -1123973.5, -83351.35, -0.030118108, -0.01337155, -826627.0, 185687.19, 0.0, 10.002007, 9.998381 
1.8551224e+3, 2.0670182e+2, -781998.0, -987390.06, -80741.06, -0.035603527, 0.020400235, -754058.7, 160267.11, 0.0, 10.001572, 9.998856 
1.8550916e+3, 2.1670137e+2, -749155.94, -926366.25, -88076.4, -0.020625146, 0.08824976, -712827.8, 103502.92, 0.0, 10.001147, 9.998806 
1.8550608e+3, 2.2669992e+2, -730281.94, -860088.7, -76039.14, -0.023067806, 0.071246766, -695213.3, 23132.018, 0.0, 10.000576, 9.998864 
1.85503e+3, 2.3669818e+2, -725095.1, -803657.75, -67911.87, -0.03726463, 0.008281785, -685922.3, -65559.85, 0.0, 9.999926, 9.998893 
1.8549995e+3, 2.4669737e+2, -684824.9, -682831.94, -63339.89, -0.032733604, 0.024161505, -620480.7, -98109.73, 0.0, 9.9993105, 9.999346 
1.8549694e+3, 2.566973e+2, -673159.0, -625698.3, -68852.5, -0.016083885, 0.078778684, -576601.5, -152229.1, 0.0, 9.998714, 9.9993515 
1.8549393e+3, 2.6669663e+2, -624030.0, -514923.2, -49974.324, -0.014058986, 0.06992152, -495493.44, -169114.48, 0.0, 9.998222, 9.999676 
1.8549095e+3, 2.766959e+2, -589787.2, -448605.2, -49495.91, -0.02700623, 0.024689578, -432981.72, -204595.81, 0.0, 9.997787, 9.999668 
1.8548797e+3, 2.8669602e+2, -575505.8, -360940.03, -39379.996, -0.05385215, 0.06919555, -353940.78, -223554.6, 0.0, 9.997084, 9.999936 
1.8548502e+3, 2.9669693e+2, -591216.75, -305326.16, -50277.594, -0.062386587, 0.16316529, -296741.94, -264362.06, 0.0, 9.99625, 10.000047 
1.8548219e+3, 3.0669573e+2, -566252.0, -216337.58, -59025.07, 0.07230326, 0.020032497, -206649.22, -206649.22, 0.0, 9.995868, 10.000505 
1.8547912e+3, 3.1669736e+2, -434709.53, 109189.04, 43825.484, -0.073884614, 0.1278942, 112697.71, 112697.71, 0.0, 9.995639, 10.002852 
1.8653747e+3, 1.2674628e+2, -1184306.1, -1706630.3, 639.74164, 0.03270985, 0.023036903, -1184305.4, 513582.7, 0.06706102, 10.005044, 9.997624 
1.8653432e+3, 1.3674419e+2, -1148883.5, -1629375.5, -22182.465, -0.10046059, 0.032683846, -1147861.5, 452047.3, 0.045939256, 10.004435, 9.997778 
1.8653141e+3, 1.4674172e+2, -1083921.4, -1526266.0, -44787.54, 0.089490905, 0.008086314, -1079432.3, 422500.4, 0.025543615, 10.004021, 9.998011 
1.8652819e+3, 1.5673956e+2, -1019348.5, -1450179.0, -40406.13, -0.02079876, -0.011625012, -1015591.7, 388361.3, 0.010366203, 10.003756, 9.997988 
1.8652502e+3, 1.6673778e+2, -963840.7, -1352327.5, -63027.227, -0.05567951, 0.013049341, -953871.1, 352100.22, 0.0025108724, 10.003347, 9.998183 
1.8652192e+3, 1.7673641e+2, -935456.4, -1288612.6, -68271.21, -0.006032155, 0.055635624, -922717.9, 285268.6, 0.00019592533, 10.002865, 9.99818 
1.8651874e+3, 1.8673447e+2, -871473.75, -1174535.6, -69234.43, -0.00053176575, 0.03874242, -856406.25, 253599.5, 0.00000012857653, 10.00249, 9.998472 
1.8651555e+3, 1.9673248e+2, -822255.94, -1102923.4, -59534.496, -0.03534125, -0.009090371, -810149.8, 201874.9, 0.0, 10.002168, 9.998446 
1.865124e+3, 2.0673127e+2, -783658.5, -1010951.7, -56271.547, -0.041720286, 0.026576173, -770490.1, 143547.38, 0.0, 10.001661, 9.998649 
1.8650925e+3, 2.1673071e+2, -772241.2, -953320.44, -61670.48, -0.026665494, 0.10198796, -753233.25, 62811.508, 0.0, 10.001061, 9.998661 
1.8650612e+3, 2.2672926e+2, -734591.5, -843000.6, -54059.914, -0.025139835, 0.08229257, -712241.44, 5817.43, 0.0, 10.000468, 9.999031 
1.86503e+3, 2.367276e+2, -724933.06, -791455.44, -48805.664, -0.033550166, 0.011364339, -699132.44, -79058.27, 0.0, 9.999878, 9.998997 
1.864999e+3, 2.4672674e+2, -694120.4, -707114.1, -41744.8, -0.027718173, 0.028209038, -658369.94, -136286.72, 0.0, 9.999336, 9.999164 
1.8649681e+3, 2.5672653e+2, -668654.56, -639480.75, -45394.7, -0.011665589, 0.08813969, -606386.9, -182300.34, 0.0, 9.998818, 9.999205 
1.8649377e+3, 2.6672578e+2, -629413.56, -511614.44, -24575.723, -0.007815019, 0.07542137, -506692.94, -180599.08, 0.0, 9.998164, 9.999725 
1.8649071e+3, 2.76725e+2, -638677.7, -467994.53, -21867.68, -0.018851765, 0.023346521, -465237.4, -237136.58, 0.0, 9.997439, 9.999701 
1.8648766e+3, 2.8672513e+2, -598038.9, -376552.0, -11322.602, -0.059154004, 0.066396385, -375974.7, -245873.17, 0.0, 9.996954, 9.999888 
1.8648463e+3, 2.9672593e+2, -546552.0, -295009.9, -20584.752, -0.08570114, 0.1553647, -293336.5, -261240.0, 0.0, 9.996609, 9.999942 
1.8648179e+3, 3.0672505e+2, -583621.2, -257758.63, -24774.441, 0.08888019, 0.070742235, -255885.86, -255885.86, 0.0, 9.995895, 10.000205 
1.8647864e+3, 3.167258e+2, -531671.7, 96124.82, 71717.95, -0.07127797, 0.11548852, 104213.49, 104213.49, 0.0, 9.994834, 10.003148 
1.8753798e+3, 1.2677568e+2, -1189022.1, -1714754.0, -13702.433, 0.04700086, -0.013250749, -1188665.3, 508933.88, 0.07010093, 10.005046, 9.99757 
1.8753478e+3, 1.3677397e+2, -1148295.4, -1628690.9, -44154.188, -0.080009535, 0.034315884, -1144270.8, 455346.3, 0.048156668, 10.004443, 9.997782 
1.8753183e+3, 1.4677162e+2, -1077238.4, -1512894.9, -55042.816, 0.103388086, 0.017208396, -1070391.6, 431248.03, 0.026907846, 10.004026, 9.998102 
1.8752858e+3, 1.5676941e+2, -1016204.4, -1443298.9, -51831.754, -0.014719305, -0.01792513, -1010004.1, 393656.22, 0.011016816, 10.003753, 9.998038 
1.8752535e+3, 1.6676758e+2, -973109.1, -1372465.8, -81417.35, -0.057927195, 0.008059818, -957148.3, 348531.56, 0.002715594, 10.003347, 9.998047 
1.8752217e+3, 1.7676619e+2, -939818.44, -1300507.8, -85109.85, -0.016938226, 0.06081061, -920744.25, 286952.22, 0.00022189613, 10.002873, 9.998096 
1.8751898e+3, 1.8676451e+2, -854788.75, -1142428.4, -80765.234, -0.012123001, 0.06176412, -833662.6, 276050.3, 0.00000020880177, 10.002497, 9.998691 
1.8751577e+3, 1.9676295e+2, -811145.7, -1081558.4, -72883.31, -0.04336465, 0.03494566, -792752.75, 218974.08, 0.0, 10.002171, 9.998593 
1.8751253e+3, 2.0676139e+2, -795343.6, -1036869.2, -78315.17, -0.04901983, 0.04027139, -772172.7, 141570.34, 0.0, 10.001665, 9.998471 
1.8750936e+3, 2.1676008e+2, -780282.7, -971961.94, -83172.375, -0.034373794, 0.0597245, -749225.2, 66532.64, 0.0, 10.001066, 9.998532 
1.8750617e+3, 2.2675896e+2, -725214.56, -825489.7, -75437.56, -0.02417659, 0.07067402, -684772.9, 32995.984, 0.0, 10.000473, 9.999151 
1.87503e+3, 2.3675817e+2, -719151.1, -781577.25, -69428.13, -0.019874444, 0.074853346, -674242.44, -54466.836, 0.0, 9.999884, 9.9990635 
1.8749982e+3, 2.4675703e+2, -704366.5, -730683.8, -60169.45, -0.024067793, 0.071853966, -655933.7, -134146.48, 0.0, 9.999343, 9.999001 
1.8749666e+3, 2.5675598e+2, -676125.06, -657550.9, -65078.707, -0.029243339, 0.062351823, -601099.94, -177301.16, 0.0, 9.998825, 9.999079 
1.8749356e+3, 2.6675537e+2, -623054.75, -500716.03, -51413.195, -0.008497898, 0.0646772, -481979.16, -156174.31, 0.0, 9.99817, 9.999799 
1.874905e+3, 2.7675527e+2, -634298.06, -460567.3, -46486.668, 0.01631208, 0.07351087, -448910.6, -221105.38, 0.0, 9.997442, 9.999752 
1.8748736e+3, 2.8675508e+2, -601008.94, -385078.97, -23577.158, -0.045816503, 0.09034332, -382534.56, -252726.1, 0.0, 9.996961, 9.999829 
1.8748425e+3, 2.9675508e+2, -551723.0, -310099.34, -35083.848, -0.12119735, 0.10090903, -305108.25, -273296.72, 0.0, 9.996624, 9.999834 
1.8748137e+3, 3.067551e+2, -593495.94, -281527.1, -62122.414, 0.08986561, 0.12058112, -269611.75, -269611.75, 0.0, 9.995905, 10.00004 
1.8747814e+3, 3.1675532e+2, -522514.25, 115461.04, 14015.936, -0.06414732, 0.1225956, 115768.81, 115768.81, 0.0, 9.994827, 10.003286 
1.8853849e+3, 1.268059e+2, -1182644.4, -1712046.5, 10560.826, 0.045541815, -0.015582438, -1182433.9, 514869.47, 0.07323518, 10.005116, 9.997552 
1.8853523e+3, 1.3680425e+2, -1124060.4, -1613891.4, -27433.771, -0.07030018, 0.039040137, -1122528.8, 476792.28, 0.05045141, 10.0046215, 9.997794 
1.8853223e+3, 1.4680205e+2, -1070824.9, -1502092.6, -34658.438, 0.11187627, 0.030898064, -1068057.3, 433285.13, 0.028329216, 10.004048, 9.998163 
1.8852894e+3, 1.5679988e+2, -1049831.8, -1453604.9, -33905.44, -0.007263154, -0.0039708526, -1047004.44, 356358.1, 0.011703874, 10.003498, 9.998088 
1.8852568e+3, 1.6679803e+2, -995490.6, -1379188.5, -54671.664, -0.054191805, 0.0154587785, -987852.7, 317529.7, 0.0029381227, 10.00318, 9.99808 
1.8852247e+3, 1.7679657e+2, -924443.7, -1288914.4, -47984.668, -0.01974523, 0.059543215, -918232.1, 289167.44, 0.00025257785, 10.002964, 9.998131 
1.8851922e+3, 1.8679506e+2, -848039.44, -1131645.3, -50603.645, -0.016486058, 0.072918035, -839280.75, 270133.8, 0.0000003626038, 10.002515, 9.9987545 
1.8851596e+3, 1.967938e+2, -839654.7, -1088567.5, -55118.707, -0.046272416, 0.06815069, -827995.44, 183430.48, 0.0, 10.001949, 9.99865 
1.885127e+3, 2.0679215e+2, -823007.1, -1044238.3, -56636.664, -0.05194152, 0.060890842, -809350.75, 104091.86, 0.0, 10.001452, 9.998521 
1.8850943e+3, 2.1679059e+2, -790180.0, -974266.25, -46159.223, -0.03812089, 0.05077316, -779254.2, 36205.246, 0.0, 10.000991, 9.998551 
1.8850622e+3, 2.2678949e+2, -727277.1, -837188.94, -44382.24, -0.02507563, 0.06946014, -711593.56, 5876.894, 0.0, 10.000509, 9.999051 
1.8850298e+3, 2.3678887e+2, -705193.75, -782475.5, -55470.805, -0.016233388, 0.10028469, -676231.94, -56755.855, 0.0, 10.000016, 9.998991 
1.8849975e+3, 2.4678767e+2, -692725.4, -717481.1, -42920.62, -0.025474701, 0.09095009, -660433.44, -138945.31, 0.0, 9.999394, 9.999064 
1.8849653e+3, 2.5678644e+2, -691405.94, -659999.1, -31742.645, -0.04052699, 0.057972886, -640287.94, -216786.88, 0.0, 9.998704, 9.999119 
1.8849337e+3, 2.6678592e+2, -638782.9, -514794.7, -21008.525, -0.012971986, 0.07265056, -511331.72, -185825.28, 0.0, 9.9980955, 9.999735 
1.8849024e+3, 2.7678606e+2, -624243.56, -457974.47, -26406.295, 0.026893351, 0.11303133, -453881.47, -226376.52, 0.0, 9.997526, 9.999727 
1.8848707e+3, 2.8678578e+2, -607720.25, -367462.0, 7913.4653, -0.03953101, 0.10665203, -367201.63, -237692.39, 0.0, 9.99683, 10.000011 
1.8848388e+3, 2.9678538e+2, -623183.56, -329944.9, 14783.279, -0.12697548, 0.064000614, -329201.5, -297686.56, 0.0, 9.996076, 9.999959 
1.8848096e+3, 3.067864e+2, -635586.6, -293111.94, -1681.384, 0.102075316, 0.17250657, -293103.7, -293103.7, 0.0, 9.995584, 10.000113 
1.884776e+3, 3.1678575e+2, -495267.47, 115728.94, 62816.574, -0.075535156, 0.08752846, 122120.26, 122120.26, 0.0, 9.995074, 10.003167 
1.8953897e+3, 1.2683691e+2, -1183414.5, -1712070.8, 1253.5912, 0.026418708, 0.010373109, -1183411.5, 513588.97, 0.07648166, 10.005123, 9.997551 
1.8953569e+3, 1.368351e+2, -1124342.5, -1612709.5, -46611.51, -0.07079516, 0.04582483, -1119933.5, 479086.56, 0.05283131, 10.004621, 9.997806 
1.8953262e+3, 1.4683299e+2, -1069813.3, -1500835.5, -55285.32, 0.114837915, 0.04813188, -1062835.0, 438205.63, 0.029809242, 10.004054, 9.998173 
1.895293e+3, 1.56831e+2, -1045560.0, -1448616.4, -51998.156, 0.0007220824, 0.028742503, -1038959.9, 364099.6, 0.012426814, 10.003513, 9.998117 
1.89526e+3, 1.6682912e+2, -981342.44, -1353077.9, -62162.285, -0.045944534, 0.035066534, -971223.0, 333855.84, 0.0031781998, 10.00319, 9.998256 
1.8952277e+3, 1.7682758e+2, -914973.44, -1270493.9, -57992.676, -0.01560232, 0.052115906, -905752.8, 301343.2, 0.0002879766, 10.002966, 9.998259 
1.8951946e+3, 1.8682612e+2, -854693.1, -1146522.3, -71555.47, -0.014468065, 0.072440475, -838092.3, 271018.5, 0.0000005824179, 10.002515, 9.998654 
1.8951616e+3, 1.9682498e+2, -841858.6, -1094939.3, -74977.53, -0.044548813, 0.09153203, -821313.7, 189808.36, 0.0, 10.001953, 9.998606 
1.8951283e+3, 2.0682353e+2, -804180.06, -1007199.1, -73189.625, -0.051017955, 0.089038126, -780546.0, 132590.48, 0.0, 10.001458, 9.9987755 
1.8950954e+3, 2.1682216e+2, -779036.7, -953223.8, -62726.793, -0.03863596, 0.073798575, -758799.25, 56350.934, 0.0, 10.000996, 9.998695 
1.8950625e+3, 2.2682077e+2, -749538.25, -885553.06, -61938.26, -0.02842598, 0.07726976, -725560.0, -8395.652, 0.0, 10.000514, 9.998719 
1.8950297e+3, 2.3681962e+2, -720004.3, -815456.56, -74206.66, -0.022888258, 0.08809778, -679501.1, -60324.992, 0.0, 10.000022, 9.998764 
1.8949968e+3, 2.4681857e+2, -671855.8, -676424.75, -68030.21, -0.03228937, 0.086535595, -606071.75, -84885.08, 0.0, 9.9994, 9.999346 
1.8949638e+3, 2.5681785e+2, -677026.7, -632251.1, -55857.664, -0.045539107, 0.07553012, -594461.75, -171267.64, 0.0, 9.998709, 9.999309 
1.8949316e+3, 2.6681736e+2, -653078.56, -547058.4, -41474.73, -0.021478627, 0.099165164, -532761.56, -207561.97, 0.0, 9.998102, 9.999513 
1.8948998e+3, 2.7681732e+2, -630903.94, -475218.34, -48389.438, 0.011018044, 0.14106902, -461403.97, -234202.8, 0.0, 9.997537, 9.999606 
1.8948673e+3, 2.86817e+2, -576952.1, -305867.22, -20664.178, -0.041448906, 0.11539594, -304301.1, -175096.33, 0.0, 9.996836, 10.000433 
1.8948351e+3, 2.9681677e+2, -598269.7, -278628.75, -9909.929, -0.10135163, 0.04597889, -278321.8, -247114.3, 0.0, 9.996074, 10.000314 
1.8948053e+3, 3.0681875e+2, -613198.25, -248643.55, -15382.492, 0.12582853, 0.22459067, -247995.63, -247995.63, 0.0, 9.995586, 10.000419 
1.8947709e+3, 3.168178e+2, -522972.34, 53038.504, 16764.078, -0.10748618, 0.07208905, 53525.99, 53525.99, 0.0, 9.995091, 10.00273 
1.9053951e+3, 1.2686871e+2, -1167420.1, -1715437.3, 44346.74, 0.039837655, 0.031164203, -1163854.6, 532834.9, 0.07985197, 10.005314, 9.997436 
1.9053614e+3, 1.3686654e+2, -1141225.9, -1629836.8, -18801.785, -0.06992193, 0.044507064, -1140503.4, 458209.44, 0.055302087, 10.00455, 9.997719 
1.9053303e+3, 1.4686452e+2, -1057670.3, -1488372.9, -19464.25, 0.102044016, 0.055226985, -1056792.4, 443940.44, 0.031348433, 10.004121, 9.998224 
1.9052964e+3, 1.568627e+2, -987943.44, -1413455.1, -13337.574, -0.011736515, 0.049565688, -987525.8, 415224.1, 0.013183319, 10.003891, 9.998174 
1.9052632e+3, 1.6686088e+2, -944150.75, -1321807.1, -26941.035, -0.04881237, 0.05241489, -942238.5, 362529.97, 0.0034339998, 10.003395, 9.99837 
1.9052306e+3, 1.7685932e+2, -937397.8, -1270712.4, -29047.92, -0.0069386833, 0.05764063, -934885.25, 271899.8, 0.00032763038, 10.00277, 9.998349 
1.9051972e+3, 1.8685785e+2, -892175.9, -1162630.5, -41870.438, -0.005776179, 0.07200342, -885842.06, 222958.13, 0.00000084087617, 10.002253, 9.998668 
1.9051634e+3, 1.968567e+2, -864597.0, -1103542.5, -37538.7, -0.04083277, 0.088925146, -858838.4, 151973.5, 0.0, 10.001791, 9.998624 
1.9051297e+3, 2.0685534e+2, -809052.5, -1002332.0, -39790.547, -0.05365839, 0.09371351, -801181.4, 111643.9, 0.0, 10.001397, 9.998836 
1.9050962e+3, 2.1685416e+2, -769897.9, -942983.2, -44827.09, -0.048756614, 0.089409396, -758977.2, 55859.85, 0.0, 10.001038, 9.998743 
1.9050628e+3, 2.2685269e+2, -753502.2, -885812.06, -37155.363, -0.038828414, 0.08450048, -743782.25, -26930.459, 0.0, 10.0004835, 9.99873 
1.9050296e+3, 2.3685138e+2, -747206.0, -827398.5, -25363.447, -0.029817529, 0.078172974, -739857.4, -120992.06, 0.0, 9.999834, 9.998771 
1.904996e+3, 2.4685043e+2, -692627.1, -684005.75, -25949.334, -0.034923244, 0.08544806, -662011.5, -141136.34, 0.0, 9.999251, 9.999363 
1.9049625e+3, 2.568499e+2, -677443.5, -630041.56, -33768.89, -0.043346748, 0.09628406, -612486.4, -189605.75, 0.0, 9.9987, 9.999327 
1.9049297e+3, 2.6684946e+2, -655456.0, -544060.4, -13433.927, -0.022034207, 0.119998135, -542463.2, -217577.16, 0.0, 9.998073, 9.999545 
1.9048971e+3, 2.7684933e+2, -647137.6, -477349.56, -2921.2034, 0.0033681714, 0.1496253, -477299.34, -250410.75, 0.0, 9.997405, 9.999652 
1.904864e+3, 2.8684902e+2, -596339.44, -299770.13, 10829.187, -0.047547992, 0.115446195, -299375.22, -170483.33, 0.0, 9.996641, 10.0005665 
1.904831e+3, 2.968489e+2, -623164.3, -273475.78, 3893.3025, -0.100325264, 0.044994246, -273432.44, -242539.39, 0.0, 9.995833, 10.0004635 
1.9048008e+3, 3.0685142e+2, -596320.56, -193128.7, 13220.981, 0.12785079, 0.24707803, -192695.66, -192695.66, 0.0, 9.995503, 10.000838 
1.904766e+3, 3.1685057e+2, -527602.44, 1338.9941, 17293.559, -0.107977465, 0.072864324, 1903.798, 1903.798, 0.0, 9.995278, 10.002282 
1.9154008e+3, 1.2690125e+2, -1183027.4, -1748683.6, 23574.045, 0.07727713, 0.045118935, -1182046.6, 514324.22, 0.08332767, 10.005321, 9.997205 
1.9153659e+3, 1.3689864e+2, -1153062.3, -1657267.6, -44003.88, -0.06877908, 0.037097674, -1149250.8, 449148.34, 0.05785243, 10.004563, 9.997528 
1.915334e+3, 1.4689665e+2, -1051627.8, -1476966.8, -27797.527, 0.07441775, 0.05461506, -1049818.8, 450600.13, 0.032939248, 10.004128, 9.998304 
1.9152999e+3, 1.5689503e+2, -983319.56, -1403419.6, -24605.936, -0.042846445, 0.059543885, -981883.3, 420550.75, 0.013967409, 10.003889, 9.998246 
1.9152664e+3, 1.6689329e+2, -941711.25, -1317220.0, -50470.844, -0.06190383, 0.067096666, -935045.94, 369405.47, 0.0037018466, 10.003394, 9.9984045 
1.9152334e+3, 1.7689179e+2, -933663.6, -1264876.8, -51183.707, 0.0054898607, 0.075236134, -925934.4, 280532.72, 0.0003705665, 10.002774, 9.998389 
1.9151995e+3, 1.8689023e+2, -883454.25, -1146922.5, -58924.043, 0.00833183, 0.07218966, -870876.5, 237606.3, 0.0000011196438, 10.002259, 9.998775 
1.915165e+3, 1.968889e+2, -859438.1, -1095235.6, -53874.063, -0.03579129, 0.061767653, -847712.25, 162783.52, 0.0, 10.001798, 9.998679 
1.9151309e+3, 2.0688759e+2, -817965.25, -1022829.2, -52383.85, -0.060190603, 0.07582949, -805347.75, 107161.51, 0.0, 10.001402, 9.998694 
1.9150971e+3, 2.1688652e+2, -773111.7, -951326.8, -59213.773, -0.06838899, 0.098439015, -755231.25, 59289.176, 0.0, 10.00104, 9.998687 
1.9150631e+3, 2.2688523e+2, -729137.94, -837034.06, -60749.043, -0.05625391, 0.09191545, -701840.44, 14692.832, 0.0, 10.000487, 9.999065 
1.9150291e+3, 2.3688407e+2, -730677.3, -795118.1, -48136.973, -0.037150502, 0.069858775, -704972.56, -86428.234, 0.0, 9.999839, 9.998993 
1.9149953e+3, 2.4688315e+2, -710096.6, -722648.44, -45590.13, -0.033716924, 0.086821705, -670352.44, -149798.0, 0.0, 9.999257, 9.999097 
1.9149613e+3, 2.568826e+2, -688228.9, -655046.75, -54273.363, -0.034945667, 0.12098377, -614885.2, -192323.78, 0.0, 9.998707, 9.999153 
1.9149278e+3, 2.6688218e+2, -634058.2, -502475.03, -37825.457, -0.015410977, 0.13566023, -492376.6, -167810.08, 0.0, 9.99808, 9.999829 
1.9148944e+3, 2.7688202e+2, -631701.2, -447998.7, -27961.836, 0.0046934704, 0.13664688, -443836.8, -217268.7, 0.0, 9.997413, 9.999852 
1.9148605e+3, 2.8688172e+2, -608299.4, -326823.06, -19586.914, -0.057805605, 0.10555717, -325466.6, -196895.0, 0.0, 9.996647, 10.0003805 
1.9148265e+3, 2.9688168e+2, -628476.7, -286933.1, -21468.445, -0.12756076, 0.06294417, -285588.94, -255016.34, 0.0, 9.99584, 10.00037 
1.9147961e+3, 3.068842e+2, -558327.06, -118158.164, 9417.344, 0.1046235, 0.23714703, -117956.77, -117956.77, 0.0, 9.995515, 10.001349 
1.9147617e+3, 3.1688458e+2, -553612.9, -57465.008, -22935.729, -0.070057094, 0.13811, -56407.0, -56407.0, 0.0, 9.995294, 10.001874 
1.9254062e+3, 1.269342e+2, -1159099.4, -1729954.9, 34987.523, 0.074087724, 0.06090773, -1156963.0, 539086.06, 0.086858205, 10.005496, 9.997247 
1.9253705e+3, 1.3693148e+2, -1116984.4, -1637135.0, -22012.486, -0.060526334, 0.041236952, -1116054.5, 482023.2, 0.06044991, 10.004836, 9.997532 
1.9253382e+3, 1.4692947e+2, -1041801.8, -1473046.9, 5656.6924, 0.07164305, 0.05805284, -1041727.6, 458369.94, 0.034563024, 10.004214, 9.998288 
1.9253036e+3, 1.5692778e+2, -1016036.7, -1418679.9, 1022.6457, -0.045278315, 0.058535505, -1016034.1, 386079.5, 0.014768977, 10.003665, 9.998247 
1.9252697e+3, 1.669261e+2, -965179.56, -1317482.1, -28857.926, -0.062377766, 0.06694626, -962831.44, 341298.9, 0.0039769793, 10.003189, 9.998499 
1.9252361e+3, 1.7692474e+2, -934233.6, -1256881.5, -25850.338, 0.0045398865, 0.07923989, -932175.6, 273968.84, 0.00041562846, 10.002739, 9.998459 
1.9252017e+3, 1.8692319e+2, -878612.6, -1145013.9, -35514.695, 0.0069507235, 0.07620413, -873959.3, 234200.63, 0.0000014320457, 10.002299, 9.998766 
1.9251668e+3, 1.9692183e+2, -849875.2, -1090314.0, -39750.27, -0.036339056, 0.06311153, -843473.94, 166699.44, 0.0, 10.001865, 9.998678 
1.9251323e+3, 2.069205e+2, -825586.3, -1018538.2, -32419.52, -0.05900719, 0.072987065, -820284.94, 91901.96, 0.0, 10.001319, 9.998761 
1.9250979e+3, 2.1691947e+2, -816113.0, -965189.56, -26191.55, -0.065861, 0.09185829, -811645.25, 2552.453, 0.0, 10.00072, 9.998744 
1.9250633e+3, 2.269183e+2, -765697.44, -849157.3, -39858.418, -0.05709659, 0.09355826, -749720.56, -33511.063, 0.0, 10.0002165, 9.99911 
1.9250289e+3, 2.3691732e+2, -739082.0, -793531.4, -48678.62, -0.04328731, 0.084064655, -710532.25, -92313.02, 0.0, 9.999761, 9.99904 
1.9249944e+3, 2.469164e+2, -709510.6, -714540.94, -37096.582, -0.04059819, 0.096497, -674844.06, -154614.83, 0.0, 9.999231, 9.999163 
1.9249599e+3, 2.569158e+2, -690636.5, -649483.5, -22563.313, -0.040674116, 0.11966617, -639523.25, -217286.75, 0.0, 9.998666, 9.999209 
1.9249257e+3, 2.669154e+2, -637630.8, -499520.25, -13837.703, -0.022933666, 0.13504578, -498147.44, -173906.22, 0.0, 9.99804, 9.9998665 
1.9248918e+3, 2.769153e+2, -634571.1, -445645.94, -23062.045, -0.004842677, 0.1395095, -442871.5, -216629.13, 0.0, 9.997381, 9.999882 
1.924857e+3, 2.8691512e+2, -596169.2, -321485.88, -14821.147, -0.06381269, 0.11758265, -320688.47, -192443.61, 0.0, 9.996737, 10.000372 
1.9248223e+3, 2.969153e+2, -589140.8, -265974.28, 492.54495, -0.13060239, 0.094473585, -265973.53, -235729.6, 0.0, 9.996106, 10.000383 
1.9247912e+3, 3.0691713e+2, -520789.38, -84106.59, 34745.082, 0.070922226, 0.19750601, -81359.35, -81359.35, 0.0, 9.995709, 10.001488 
1.924757e+3, 3.169185e+2, -570175.1, -99327.05, -55241.953, -0.05328445, 0.18587972, -92932.664, -92932.664, 0.0, 9.995331, 10.001566 
1.9354111e+3, 1.269676e+2, -1143956.9, -1691539.9, 16845.744, 0.033717453, 0.076491214, -1143439.1, 552284.7, 0.09038419, 10.005496, 9.997514 
1.9353756e+3, 1.3696507e+2, -1107611.9, -1614727.0, -46567.117, -0.046690386, 0.055086885, -1103371.1, 494377.6, 0.063052684, 10.004837, 9.997688 
1.9353424e+3, 1.4696297e+2, -1050042.0, -1490290.6, -15151.026, 0.08966678, 0.06425664, -1049521.1, 450248.1, 0.03619523, 10.004217, 9.998167 
1.9353075e+3, 1.56961e+2, -1020568.5, -1429701.4, -18598.346, -0.02278328, 0.048048694, -1019724.75, 382063.7, 0.015576591, 10.00367, 9.998172 
1.9352728e+3, 1.6695935e+2, -954827.5, -1298041.8, -45499.883, -0.05244034, 0.054408338, -948898.0, 354906.94, 0.0042552953, 10.003195, 9.9986315 
1.9352387e+3, 1.7695814e+2, -927465.75, -1245225.8, -42529.12, -0.009116347, 0.07091777, -921872.06, 283945.22, 0.00046201874, 10.002746, 9.998538 
1.9352038e+3, 1.869567e+2, -886974.0, -1164741.8, -51376.66, -0.008933091, 0.083635144, -877775.9, 230056.11, 0.0000018185868, 10.002305, 9.998631 
1.9351685e+3, 1.9695543e+2, -853242.3, -1099567.8, -56277.78, -0.042380963, 0.09129579, -840993.6, 168851.45, 0.0, 10.001871, 9.998614 
1.9351335e+3, 2.0695406e+2, -807124.56, -982374.9, -54219.06, -0.05078459, 0.08441452, -791706.7, 120151.84, 0.0, 10.001325, 9.999009 
1.9350988e+3, 2.1695292e+2, -804787.44, -943712.56, -46813.35, -0.042378742, 0.06969416, -790485.25, 23384.096, 0.0, 10.000725, 9.998891 
1.9350637e+3, 2.2695182e+2, -782538.8, -886278.94, -55984.906, -0.042385142, 0.089416385, -758088.44, -42207.387, 0.0, 10.000222, 9.998855 
1.9350286e+3, 2.3695102e+2, -747385.6, -813164.4, -65428.973, -0.048884038, 0.12172474, -707044.8, -89154.266, 0.0, 9.999767, 9.998903 
1.9349934e+3, 2.4695009e+2, -681102.44, -658326.44, -57409.61, -0.05614359, 0.11503453, -611186.25, -91286.14, 0.0, 9.999239, 9.999547 
1.9349582e+3, 2.569494e+2, -670313.44, -610287.56, -43371.297, -0.060906313, 0.09006453, -587557.3, -165650.47, 0.0, 9.998674, 9.999476 
1.9349235e+3, 2.6694906e+2, -652498.8, -532951.75, -38086.797, -0.04489917, 0.11670541, -521848.8, -197937.6, 0.0, 9.998047, 9.999636 
1.9348888e+3, 2.7694917e+2, -645082.9, -469696.5, -47297.297, -0.027003946, 0.1606535, -457754.7, -231842.52, 0.0, 9.997386, 9.999717 
1.9348536e+3, 2.8694916e+2, -582774.1, -297075.56, -38528.18, -0.06700229, 0.15369733, -291971.0, -164058.34, 0.0, 9.996746, 10.000537 
1.9348188e+3, 2.9694954e+2, -578379.4, -249592.4, -20208.658, -0.10754207, 0.13790943, -248354.95, -218446.67, 0.0, 9.996127, 10.000488 
1.9347864e+3, 3.069501e+2, -537800.25, -125017.75, 22915.844, 0.026535498, 0.1250775, -123749.46, -123749.46, 0.0, 9.9957285, 10.0012 
1.9347523e+3, 3.1695202e+2, -575549.75, -113573.84, -90651.414, -0.055989906, 0.19657503, -96422.49, -96422.49, 0.0, 9.995339, 10.001467 
1.9454165e+3, 1.2700137e+2, -1137557.5, -1669435.0, 32722.094, 0.027391307, 0.08623325, -1135551.9, 559842.4, 0.09386795, 10.005478, 9.997688 
1.9453803e+3, 1.3699904e+2, -1107700.5, -1601562.1, -42503.39, -0.05148839, 0.07197538, -1104069.3, 493347.5, 0.06563047, 10.004795, 9.997797 
1.9453466e+3, 1.46997e+2, -1048260.5, -1480880.4, -427.4186, 0.08161993, 0.0787599, -1048260.1, 451176.3, 0.037817065, 10.004203, 9.998239 
1.9453113e+3, 1.5699503e+2, -1015951.94, -1420145.3, 8924.706, -0.009852838, 0.055183973, -1015754.94, 385700.72, 0.016382268, 10.003678, 9.99823 
1.9452761e+3, 1.6699341e+2, -950785.9, -1294149.0, -16728.04, -0.04268629, 0.06196509, -949972.8, 353499.1, 0.0045347083, 10.0032215, 9.998643 
1.9452412e+3, 1.7699225e+2, -919162.9, -1238823.4, -23080.271, -0.017446535, 0.08181888, -917505.0, 287979.0, 0.0005095191, 10.002798, 9.998554 
1.945206e+3, 1.8699081e+2, -880258.3, -1155071.4, -26960.203, -0.016564377, 0.09138787, -877638.4, 229860.11, 0.0000023367377, 10.002328, 9.998683 
1.9451705e+3, 1.9698954e+2, -855985.4, -1095287.5, -20609.063, -0.0391512, 0.093621455, -854223.44, 155287.95, 0.0, 10.001833, 9.998659 
1.9451348e+3, 2.069882e+2, -807224.7, -978742.56, -28907.168, -0.04473208, 0.08975764, -802483.75, 109040.45, 0.0, 10.001312, 9.999038 
1.9450995e+3, 2.1698715e+2, -795587.6, -936665.44, -37278.95, -0.03796281, 0.08091207, -786342.7, 27191.695, 0.0, 10.00078, 9.99891 
1.9450638e+3, 2.26986e+2, -780268.94, -883615.4, -36830.297, -0.04353552, 0.09390168, -768486.7, -52940.098, 0.0, 10.000235, 9.998864 
1.945028e+3, 2.3698509e+2, -758477.3, -815665.7, -28826.129, -0.057210755, 0.115056746, -746468.9, -128911.79, 0.0, 9.999683, 9.998924 
1.9449924e+3, 2.4698432e+2, -699134.7, -656924.6, -33011.58, -0.06239378, 0.11825049, -638848.2, -119282.96, 0.0, 9.999077, 9.999633 
1.9449568e+3, 2.5698388e+2, -699751.44, -617640.94, -40661.54, -0.061249714, 0.11156708, -600913.0, -179343.44, 0.0, 9.998446, 9.999534 
1.9449213e+3, 2.6698345e+2, -667437.3, -544239.7, -31733.92, -0.05356851, 0.12808138, -536546.0, -212970.92, 0.0, 9.997967, 9.999596 
1.944886e+3, 2.769833e+2, -622803.06, -460542.06, -28495.082, -0.049243085, 0.14907742, -455683.44, -230104.72, 0.0, 9.997551, 9.999697 
1.9448505e+3, 2.8698346e+2, -551242.75, -272236.0, -23124.559, -0.06749851, 0.15955035, -270332.38, -142755.34, 0.0, 9.996926, 10.000618 
1.944815e+3, 2.9698431e+2, -564262.1, -237032.47, -8722.577, -0.07428909, 0.18269119, -236800.13, -207232.14, 0.0, 9.996203, 10.000535 
1.9447817e+3, 3.0698407e+2, -562823.75, -165541.81, 42545.152, -0.014054788, 0.10019347, -161036.7, -161036.7, 0.0, 9.995685, 10.00094 
1.9447476e+3, 3.169861e+2, -570726.9, -80880.76, -75229.21, -0.049142946, 0.2101607, -69587.62, -69587.62, 0.0, 9.995248, 10.001733 
1.9554222e+3, 1.270356e+2, -1134917.3, -1660201.4, 14058.671, 0.04484767, 0.089444526, -1134541.3, 560519.1, 0.09731207, 10.005477, 9.997762 
1.9553848e+3, 1.3703346e+2, -1104877.4, -1594622.6, -65704.64, -0.07244259, 0.09201098, -1096215.5, 500865.53, 0.0681829, 10.004799, 9.997847 
1.9553503e+3, 1.470316e+2, -1032761.56, -1449155.8, -19425.1, 0.051232778, 0.101217784, -1031857.3, 467241.4, 0.039427396, 10.004208, 9.998465 
1.9553149e+3, 1.5702984e+2, -1004942.3, -1397698.6, -10134.705, -0.006055725, 0.07779372, -1004681.0, 396434.34, 0.017185615, 10.003681, 9.998385 
1.9552793e+3, 1.6702825e+2, -958391.5, -1311291.0, -32577.387, -0.033886623, 0.08715802, -955409.3, 347722.28, 0.004815333, 10.003223, 9.998527 
1.955244e+3, 1.7702699e+2, -922047.25, -1246681.9, -39039.887, -0.021242253, 0.11026436, -917418.4, 287726.53, 0.0005582625, 10.002802, 9.998501 
1.9552082e+3, 1.8702547e+2, -864395.06, -1124096.5, -44938.49, -0.017126478, 0.09935862, -856838.8, 250320.95, 0.000003033972, 10.002333, 9.998896 
1.9551724e+3, 1.9702408e+2, -846045.9, -1076729.9, -38879.13, -0.027689315, 0.071430035, -839669.5, 169503.1, 0.0, 10.001839, 9.998787 
1.9551362e+3, 2.0702292e+2, -820037.6, -1007779.7, -48162.18, -0.04127278, 0.08959659, -808403.4, 102781.1, 0.0, 10.001319, 9.998837 
1.9551001e+3, 2.170221e+2, -801924.8, -952565.1, -56303.61, -0.052363586, 0.12493178, -783206.56, 29986.814, 0.0, 10.000788, 9.998799 
1.9550638e+3, 2.2702076e+2, -761315.9, -846948.0, -56559.89, -0.060409825, 0.106614314, -733193.7, -17986.826, 0.0, 10.000242, 9.999115 
1.9550276e+3, 2.3701943e+2, -746636.06, -793335.3, -49108.04, -0.06846315, 0.06336312, -715609.2, -98389.625, 0.0, 9.999689, 9.999077 
1.9549915e+3, 2.4701898e+2, -713946.4, -690070.2, -56013.434, -0.059498925, 0.10605738, -644736.8, -125511.33, 0.0, 9.999083, 9.999404 
1.9549553e+3, 2.570192e+2, -710230.8, -641608.6, -62078.066, -0.04197567, 0.1866264, -604990.6, -183765.17, 0.0, 9.998452, 9.999369 
1.9549192e+3, 2.6701847e+2, -656836.7, -524886.0, -46555.586, -0.04961664, 0.17054026, -510113.78, -186880.11, 0.0, 9.997973, 9.999727 
1.9548833e+3, 2.7701747e+2, -612955.3, -444401.6, -45841.36, -0.07220454, 0.10159105, -432740.88, -207497.47, 0.0, 9.997565, 9.999804 
1.9548473e+3, 2.870179e+2, -550226.44, -274429.06, -51117.188, -0.065152556, 0.13199498, -265259.7, -138020.1, 0.0, 9.99694, 10.000599 
1.9548117e+3, 2.970195e+2, -564862.5, -241189.48, -33839.156, -0.03120352, 0.22883368, -237689.55, -208465.1, 0.0, 9.996211, 10.000505 
1.954777e+3, 3.0701897e+2, -578460.75, -201062.88, 25334.336, -0.051480696, 0.13034448, -199369.8, -199369.8, 0.0, 9.995693, 10.000694 
1.954743e+3, 3.1702003e+2, -522877.66, 12966.093, -83043.336, -0.032682627, 0.16316889, 25540.79, 25540.79, 0.0, 9.995267, 10.002371 
1.9654275e+3, 1.270707e+2, -1146335.6, -1666556.9, 60331.977, 0.045240004, 0.082384005, -1139430.4, 555285.94, 0.10075127, 10.005419, 9.99774 
1.9653897e+3, 1.3706857e+2, -1110431.5, -1602731.3, -27240.957, -0.06620438, 0.09409008, -1108928.8, 487808.53, 0.07073613, 10.004801, 9.997785 
1.9653544e+3, 1.4706673e+2, -1034817.8, -1446956.9, 11404.924, 0.04295007, 0.10642702, -1034502.44, 464252.72, 0.041040972, 10.004191, 9.998486 
1.9653185e+3, 1.5706506e+2, -1015207.4, -1399783.5, 7511.7715, -0.0063020326, 0.09133758, -1015060.75, 385710.28, 0.017992051, 10.003604, 9.998405 
1.9652824e+3, 1.6706347e+2, -970304.94, -1313025.5, -8474.104, -0.028635437, 0.099429786, -970095.56, 332691.56, 0.0050981916, 10.003129, 9.998557 
1.9652466e+3, 1.770622e+2, -933075.1, -1246877.4, -6283.1934, -0.01592457, 0.11560689, -932949.4, 271851.16, 0.0006082642, 10.002709, 9.998541 
1.9652106e+3, 1.8706068e+2, -867482.25, -1115155.4, -17310.174, -0.013060323, 0.10194091, -866278.25, 240536.63, 0.0000039260876, 10.002272, 9.998983 
1.9651741e+3, 1.970594e+2, -844690.0, -1069763.5, -21000.02, -0.023820972, 0.073918745, -842747.4, 166079.39, 0.0, 10.001825, 9.998838 
1.9651374e+3, 2.0705822e+2, -816710.2, -1011503.44, -27115.99, -0.04187224, 0.095308885, -813006.0, 97832.87, 0.0, 10.001369, 9.998785 
1.9651008e+3, 2.1705742e+2, -786461.4, -946842.6, -26837.09, -0.060067795, 0.13520607, -782089.8, 30758.545, 0.0, 10.000907, 9.998779 
1.9650641e+3, 2.270561e+2, -738296.2, -821492.25, -33265.02, -0.06487696, 0.11531362, -726631.1, -11770.043, 0.0, 10.000343, 9.999238 
1.9650273e+3, 2.3705485e+2, -736531.75, -781863.9, -35803.406, -0.06464462, 0.06721432, -716822.9, -99950.39, 0.0, 9.999734, 9.999132 
1.9649905e+3, 2.4705431e+2, -714478.4, -710998.56, -44274.51, -0.055941503, 0.11088236, -668429.75, -149550.13, 0.0, 9.999172, 9.999215 
1.9649537e+3, 2.570544e+2, -692216.56, -644310.6, -47790.97, -0.042961005, 0.19578022, -614805.94, -193924.11, 0.0, 9.998631, 9.999261 
1.9649172e+3, 2.6705372e+2, -642731.94, -493402.78, -26078.943, -0.053054918, 0.17764981, -488979.38, -166090.36, 0.0, 9.99797, 9.999942 
1.9648807e+3, 2.770529e+2, -647930.4, -445083.6, -19126.223, -0.07532278, 0.10371356, -443295.97, -218399.78, 0.0, 9.99726, 9.999943 
1.9648442e+3, 2.8705323e+2, -568124.2, -300034.94, -27285.922, -0.055581328, 0.129308, -297286.0, -170392.47, 0.0, 9.996895, 10.000442 
1.9648083e+3, 2.970546e+2, -503371.4, -222936.72, -21904.863, -0.010487122, 0.22008234, -221236.05, -192354.67, 0.0, 9.996689, 10.000398 
1.9647723e+3, 3.0705446e+2, -561241.5, -199968.0, 31136.67, -0.08652044, 0.17154057, -197304.11, -197304.11, 0.0, 9.995847, 10.000626 
1.964738e+3, 3.17055e+2, -565629.56, 43545.74, -40949.203, -0.011577283, 0.156334, 46286.047, 46286.047, 0.0, 9.994757, 10.002825 
1.9754328e+3, 1.2710668e+2, -1153335.1, -1681033.8, 39746.6, 0.03097682, 0.0673519, -1150358.1, 544004.4, 0.1042243, 10.005435, 9.997623 
1.9753946e+3, 1.371044e+2, -1121792.5, -1628046.9, -49808.31, -0.03802109, 0.08064262, -1116938.6, 479446.94, 0.07331835, 10.004808, 9.997611 
1.9753586e+3, 1.471024e+2, -1046705.5, -1472484.5, -9895.913, 0.05151701, 0.09641625, -1046475.6, 451930.0, 0.04267323, 10.004198, 9.998302 
1.975322e+3, 1.5710072e+2, -1021663.3, -1416551.9, -12819.666, -0.010175367, 0.097294785, -1021247.56, 379174.88, 0.018807104, 10.003616, 9.998286 
1.9752857e+3, 1.6709912e+2, -957863.8, -1290890.5, -24311.664, -0.026262041, 0.10046325, -956098.3, 346339.94, 0.0053842026, 10.003142, 9.998706 
1.9752495e+3, 1.7709781e+2, -924021.3, -1231291.8, -22159.668, -0.0029491982, 0.09971135, -922431.44, 282019.7, 0.0006593564, 10.00272, 9.998646 
1.9752128e+3, 1.8709646e+2, -869436.9, -1121869.0, -33674.35, -0.0055895955, 0.099769644, -865021.94, 241442.22, 0.000004997438, 10.002279, 9.998937 
1.9751757e+3, 1.9709538e+2, -845275.44, -1073507.0, -37218.344, -0.027456336, 0.099956445, -839359.5, 169114.92, 0.0, 10.001832, 9.998812 
1.9751386e+3, 2.0709412e+2, -810703.1, -1001429.5, -43653.14, -0.046589207, 0.10619858, -801186.7, 109301.09, 0.0, 10.001375, 9.998854 
1.9751015e+3, 2.1709304e+2, -782156.2, -939952.75, -44294.156, -0.061556507, 0.112376414, -770572.94, 41926.88, 0.0, 10.000912, 9.998827 
1.9750643e+3, 2.2709201e+2, -738473.7, -824162.56, -55236.246, -0.057559628, 0.1205263, -711413.25, 3096.6338, 0.0, 10.000349, 9.99922 
1.9750272e+3, 2.3709127e+2, -739105.25, -789762.9, -57187.68, -0.046420183, 0.12703551, -701888.25, -85371.73, 0.0, 9.999741, 9.999077 
1.9749896e+3, 2.4709022e+2, -724998.6, -735611.1, -63806.57, -0.052446984, 0.1324634, -666278.0, -147749.42, 0.0, 9.99918, 9.999044 
1.9749522e+3, 2.5708932e+2, -695790.4, -654886.75, -68810.36, -0.065471254, 0.13661577, -603553.2, -183013.16, 0.0, 9.99864, 9.999186 
1.974915e+3, 2.6708907e+2, -620911.5, -451013.0, -53146.523, -0.06417973, 0.14851385, -435757.8, -113215.6, 0.0, 9.997978, 10.000231 
1.9748779e+3, 2.7708942e+2, -636428.75, -422693.94, -42403.883, -0.05722197, 0.15863416, -414588.6, -190050.81, 0.0, 9.997263, 10.000098 
1.9748414e+3, 2.870893e+2, -589875.25, -347982.03, -34478.848, -0.03937493, 0.15267064, -343163.5, -216623.5, 0.0, 9.996902, 10.000112 
1.9748048e+3, 2.9708943e+2, -514579.38, -252953.2, -35891.203, -0.016928272, 0.15180443, -248118.8, -219577.98, 0.0, 9.996713, 10.000182 
1.9747679e+3, 3.0709052e+2, -549219.5, -180797.44, -16031.67, -0.11953162, 0.2246685, -180101.14, -180101.14, 0.0, 9.995867, 10.000751 
1.974733e+3, 3.1709087e+2, -557166.8, 59799.02, -46505.664, 0.012009273, 0.1850114, 63284.83, 63284.83, 0.0, 9.994759, 10.002937 
1.985438e+3, 1.2714316e+2, -1132416.8, -1665714.6, 45084.914, 0.01374736, 0.06970567, -1128632.1, 565373.06, 0.10774742, 10.005596, 9.997662 
1.9853996e+3, 1.3714091e+2, -1109579.0, -1623523.8, -35779.25, -0.026124898, 0.08807219, -1107100.1, 488927.44, 0.075938545, 10.004925, 9.997583 
1.9853628e+3, 1.4713873e+2, -1035209.0, -1479775.8, 12971.917, 0.048884965, 0.094315484, -1034830.8, 463218.88, 0.044328198, 10.004351, 9.998175 
1.9853257e+3, 1.5713696e+2, -1000502.5, -1415503.6, 13738.661, -0.011375655, 0.099268794, -1000048.2, 400019.53, 0.019632198, 10.003814, 9.998196 
1.9852889e+3, 1.6713533e+2, -924809.2, -1265640.1, 3337.0278, -0.025591642, 0.09837959, -924776.56, 377307.0, 0.005673619, 10.003337, 9.998783 
1.9852522e+3, 1.7713399e+2, -896070.25, -1211143.9, -679.8778, -0.005061272, 0.08753497, -896068.8, 308027.28, 0.00071145245, 10.002888, 9.9987 
1.985215e+3, 1.8713272e+2, -858283.5, -1118281.9, -14986.891, -0.009620042, 0.094502255, -857422.44, 248686.2, 0.000006217688, 10.002368, 9.998917 
1.9851775e+3, 1.9713177e+2, -847725.94, -1074259.0, -17327.418, -0.031339493, 0.10969201, -846408.25, 161710.05, 0.0, 10.001818, 9.998811 
1.98514e+3, 2.0713052e+2, -814038.8, -993167.75, -22446.107, -0.045746136, 0.11361834, -811269.0, 98862.52, 0.0, 10.001314, 9.998938 
1.9851024e+3, 2.1712941e+2, -790186.4, -937027.56, -23675.754, -0.054608148, 0.109763205, -786463.44, 25680.172, 0.0, 10.000832, 9.998883 
1.9850647e+3, 2.2712848e+2, -745592.25, -830192.0, -38214.715, -0.050516427, 0.12633076, -730886.5, -16733.48, 0.0, 10.000316, 9.999192 
1.9850269e+3, 2.3712789e+2, -733850.7, -788517.44, -40391.68, -0.041637883, 0.14945467, -712413.1, -96254.57, 0.0, 9.999787, 9.99906 
1.9849889e+3, 2.4712668e+2, -706339.8, -722899.3, -35457.965, -0.050214127, 0.13973281, -678207.75, -160035.97, 0.0, 9.999298, 9.999072 
1.9849508e+3, 2.571255e+2, -669983.25, -642295.94, -27862.074, -0.06670361, 0.11407951, -625027.8, -204842.5, 0.0, 9.998821, 9.999183 
1.9849129e+3, 2.6712537e+2, -589002.3, -447174.4, -33957.668, -0.06461459, 0.14177173, -439463.22, -117276.41, 0.0, 9.998252, 10.000123 
1.9848754e+3, 2.7712595e+2, -589538.5, -411519.03, -50950.473, -0.05247343, 0.18977858, -397968.13, -173788.0, 0.0, 9.997641, 9.999989 
1.9848382e+3, 2.871255e+2, -578165.9, -353459.34, -31859.426, -0.03314866, 0.16329648, -349029.56, -222844.13, 0.0, 9.997037, 10.000006 
1.9848014e+3, 2.97125e+2, -560383.6, -280420.47, -20498.408, -0.017951105, 0.11097055, -278927.6, -250735.42, 0.0, 9.996427, 10.000129 
1.9847636e+3, 3.0712685e+2, -559714.9, -168390.02, -14702.484, -0.119590856, 0.25321716, -167838.4, -167838.4, 0.0, 9.995724, 10.000902 
1.984728e+3, 3.1712702e+2, -525847.75, 44136.727, -4425.677, 0.016041374, 0.17842375, 44171.09, 44171.09, 0.0, 9.9951105, 10.002657 
1.9954433e+3, 1.2718019e+2, -1126660.0, -1648550.0, 21871.234, -0.010612991, 0.086563334, -1125745.0, 567898.8, 0.11130996, 10.0055895, 9.9978 
1.9954044e+3, 1.3717817e+2, -1104355.8, -1612891.1, -58696.926, -0.028087003, 0.11428671, -1097668.6, 497994.72, 0.07858904, 10.004938, 9.997655 
1.995367e+3, 1.4717573e+2, -1039087.5, -1491756.9, -6771.7036, 0.037156824, 0.10013772, -1038986.25, 458701.06, 0.04600274, 10.004371, 9.998082 
1.9953294e+3, 1.571738e+2, -1003721.44, -1426389.1, -5556.787, -0.011259712, 0.097564526, -1003648.4, 396058.47, 0.020466939, 10.00383, 9.9981165 
1.995292e+3, 1.6717209e+2, -923915.06, -1266546.6, -13169.274, -0.027886475, 0.09329912, -923409.6, 378313.44, 0.005966654, 10.0033455, 9.9987755 
1.9952549e+3, 1.7717071e+2, -895696.7, -1212575.4, -17835.473, -0.020951733, 0.07906768, -894695.94, 309039.63, 0.0007647542, 10.002893, 9.998691 
1.9952172e+3, 1.8716943e+2, -857722.25, -1119579.0, -35294.56, -0.024268439, 0.08618793, -853048.5, 252700.08, 0.0000075719613, 10.002375, 9.998906 
1.9951792e+3, 1.971685e+2, -845855.4, -1073208.0, -36724.715, -0.035708103, 0.10393066, -840070.4, 167688.27, 0.0, 10.001826, 9.9988165 
1.9951414e+3, 2.071674e+2, -806989.3, -981519.0, -39788.164, -0.040063947, 0.118176885, -798346.6, 111423.836, 0.0, 10.001323, 9.999016 
1.9951034e+3, 2.171665e+2, -785392.94, -929988.5, -41175.75, -0.040215157, 0.12733488, -774489.7, 37290.72, 0.0, 10.000839, 9.99893 
1.995065e+3, 2.2716543e+2, -747527.1, -837156.1, -57334.91, -0.044387233, 0.13251682, -719570.5, -5779.4053, 0.0, 10.000324, 9.999143 
1.9950265e+3, 2.3716459e+2, -732395.4, -788078.6, -58822.367, -0.05039151, 0.13426943, -695158.4, -79359.01, 0.0, 9.999794, 9.999062 
1.9949882e+3, 2.471636e+2, -689953.25, -691659.9, -52488.848, -0.049245518, 0.13306394, -638310.8, -120500.91, 0.0, 9.999306, 9.999286 
1.9949497e+3, 2.5716284e+2, -664849.1, -634706.75, -45948.02, -0.046197712, 0.12938312, -601421.3, -181602.78, 0.0, 9.99883, 9.999233 
1.9949113e+3, 2.6716238e+2, -625452.3, -526543.06, -56896.004, -0.054483783, 0.15761408, -500612.56, -178788.75, 0.0, 9.998263, 9.999575 
1.9948728e+3, 2.771623e+2, -615900.6, -471296.25, -74491.805, -0.06412339, 0.19533081, -439787.88, -215962.95, 0.0, 9.997658, 9.999573 
1.9948351e+3, 2.871617e+2, -567225.8, -334366.1, -56361.97, -0.039041694, 0.16126752, -321441.44, -195610.03, 0.0, 9.997049, 10.0001335 
1.9947977e+3, 2.9716125e+2, -552763.75, -264997.34, -46005.56, -0.010951042, 0.10116932, -257821.33, -229984.9, 0.0, 9.996425, 10.000237 
1.9947596e+3, 3.0716333e+2, -547225.0, -145482.55, -43262.934, -0.08248424, 0.25056538, -140876.45, -140876.45, 0.0, 9.99573, 10.00106 
1.9947228e+3, 3.1716394e+2, -576959.94, -71120.664, 5421.8867, -0.0028597699, 0.21541321, -71062.555, -71062.555, 0.0, 9.995146, 10.00185 
2.0054488e+3, 1.272178e+2, -1132139.3, -1646727.6, 38011.414, -0.0072683543, 0.10894689, -1129346.6, 563930.06, 0.114899114, 10.00555, 9.997832 
2.0054094e+3, 1.3721572e+2, -1089713.5, -1600147.3, -44315.96, -0.020132586, 0.12793426, -1085894.6, 509401.56, 0.081264846, 10.005045, 9.997686 
2.0053713e+3, 1.4721315e+2, -1005135.75, -1473124.5, 12729.562, 0.024771987, 0.09687308, -1004789.75, 492531.4, 0.04769776, 10.00462, 9.998094 
2.0053333e+3, 1.5721124e+2, -951910.9, -1399822.8, 18654.451, -0.019258065, 0.098312974, -951135.3, 448204.72, 0.021313664, 10.004197, 9.998119 
2.0052955e+3, 1.6720955e+2, -891679.7, -1249873.8, 10635.93, -0.028204963, 0.09540894, -891364.1, 409991.8, 0.006264568, 10.00357, 9.99878 
2.0052578e+3, 1.7720814e+2, -900440.8, -1214536.5, 6637.7573, -0.01709679, 0.07866101, -900300.6, 303068.1, 0.00081961654, 10.002865, 9.998688 
2.0052195e+3, 1.8720682e+2, -858249.9, -1120619.0, -7984.3345, -0.02266227, 0.08337545, -858007.1, 247375.02, 0.000009033603, 10.002379, 9.998895 
2.005181e+3, 1.9720587e+2, -823696.7, -1062625.4, -10899.5625, -0.037028093, 0.100289896, -823200.5, 184192.2, 0.0, 10.001984, 9.998811 
2.0051426e+3, 2.0720483e+2, -783788.5, -965530.7, -18451.629, -0.042407252, 0.11929144, -781934.06, 127469.805, 0.0, 10.001466, 9.999055 
2.0051041e+3, 2.1720402e+2, -774945.6, -921046.56, -23391.7, -0.043513853, 0.13455148, -771291.9, 40120.902, 0.0, 10.000899, 9.9989605 
2.0050654e+3, 2.272029e+2, -734182.56, -828472.06, -36383.297, -0.04717507, 0.13319594, -721775.9, -8351.955, 0.0, 10.00041, 9.999159 
2.0050262e+3, 2.3720194e+2, -709298.6, -776400.1, -34532.277, -0.051616978, 0.1238811, -694702.4, -79269.16, 0.0, 9.999954, 9.999063 
2.0049874e+3, 2.4720106e+2, -680162.25, -690274.3, -41535.37, -0.043828364, 0.13425912, -643376.3, -125933.41, 0.0, 9.999392, 9.999251 
2.0049486e+3, 2.5720048e+2, -675306.75, -645306.6, -52622.85, -0.032472175, 0.15077938, -605587.7, -186137.78, 0.0, 9.998788, 9.999178 
2.0049095e+3, 2.6719972e+2, -625345.94, -542066.9, -46933.938, -0.04524537, 0.16444425, -520963.72, -199505.92, 0.0, 9.998337, 9.99943 
2.0048706e+3, 2.7719927e+2, -584034.6, -469773.06, -35949.105, -0.06429511, 0.1740713, -459403.75, -235940.45, 0.0, 9.99794, 9.999445 
2.0048322e+3, 2.8719878e+2, -531463.06, -320453.1, -22736.934, -0.050464347, 0.16016135, -318030.94, -192562.34, 0.0, 9.997314, 10.000098 
2.0047939e+3, 2.9719868e+2, -534398.0, -258857.39, -26329.7, -0.036034998, 0.1380495, -256363.98, -228893.84, 0.0, 9.996569, 10.000207 
2.0047557e+3, 3.072001e+2, -521125.53, -122579.22, -30375.85, -0.04703377, 0.22204147, -120277.37, -120277.37, 0.0, 9.995871, 10.001146 
2.0047179e+3, 3.1720096e+2, -583924.75, -125497.78, 42153.227, -0.015252961, 0.2038307, -121653.94, -121653.94, 0.0, 9.995326, 10.001387 
2.0154546e+3, 1.2725604e+2, -1135645.6, -1654491.3, 18452.033, 0.0168044, 0.13843797, -1134990.3, 557913.06, 0.11854318, 10.00557, 9.997766 
2.0154144e+3, 1.3725363e+2, -1088988.3, -1600330.0, -60105.37, -0.00507068, 0.12934999, -1082018.3, 512907.28, 0.08398745, 10.005061, 9.997682 
2.0153758e+3, 1.4725097e+2, -999726.7, -1462715.5, -1354.7747, 0.010702464, 0.08421417, -999722.75, 497228.3, 0.04942787, 10.004626, 9.998167 
2.0153372e+3, 1.572493e+2, -947858.0, -1392081.0, 1233.8524, -0.034686703, 0.10173652, -947854.56, 451112.6, 0.022180779, 10.004199, 9.998175 
2.0152989e+3, 1.6724768e+2, -890746.56, -1250172.9, -15825.939, -0.026957951, 0.10474367, -890051.06, 410931.28, 0.0065709474, 10.003576, 9.998778 
2.0152608e+3, 1.7724624e+2, -899533.94, -1216364.4, -17042.826, 0.0041676057, 0.08548623, -898619.8, 304375.78, 0.00087677274, 10.002876, 9.998672 
2.0152219e+3, 1.8724486e+2, -858447.56, -1124342.0, -22129.12, -0.006885407, 0.08565599, -856618.44, 248391.34, 0.000010560831, 10.002389, 9.998866 
2.015183e+3, 1.9724384e+2, -824390.1, -1066816.8, -26434.465, -0.036088012, 0.09906894, -821541.2, 185479.61, 0.0, 10.001991, 9.99878 
2.015144e+3, 2.0724277e+2, -783625.8, -967983.0, -38983.57, -0.052854635, 0.11693511, -775721.4, 133310.81, 0.0, 10.001473, 9.999037 
2.0151047e+3, 2.1724193e+2, -773820.3, -921401.5, -42791.42, -0.06384497, 0.13139024, -762310.5, 48730.7, 0.0, 10.000906, 9.998957 
2.0150656e+3, 2.2724083e+2, -728211.4, -818867.7, -52483.883, -0.058659386, 0.12863731, -704191.1, 8860.936, 0.0, 10.000418, 9.999223 
2.0150262e+3, 2.3723993e+2, -709262.9, -779162.1, -52124.277, -0.04602936, 0.118732825, -681455.7, -66394.8, 0.0, 9.999962, 9.9990425 
2.0149869e+3, 2.4723898e+2, -699731.2, -733984.25, -63847.477, -0.034666695, 0.14352268, -650753.06, -133681.44, 0.0, 9.9994, 9.99895 
2.0149474e+3, 2.5723827e+2, -686582.9, -671622.1, -73293.766, -0.02622487, 0.17891309, -605428.0, -186347.45, 0.0, 9.9987955, 9.998996 
2.0149079e+3, 2.6723737e+2, -605154.6, -503519.75, -61482.83, -0.03726278, 0.16237962, -474571.6, -153481.72, 0.0, 9.998347, 9.999692 
2.0148686e+3, 2.7723664e+2, -570730.4, -446656.1, -52925.35, -0.05200369, 0.12339931, -427147.53, -204051.13, 0.0, 9.997955, 9.9995985 
2.0148292e+3, 2.8723657e+2, -545421.9, -353818.78, -51432.727, -0.067784525, 0.15949434, -340885.53, -215787.5, 0.0, 9.997329, 9.999865 
2.0147897e+3, 2.9723713e+2, -547358.2, -289624.56, -56298.934, -0.09836878, 0.22694322, -277863.4, -250769.2, 0.0, 9.99658, 9.999993 
2.0147519e+3, 3.0723697e+2, -520422.6, -125578.086, -55602.68, -0.016652362, 0.16450298, -117897.43, -117897.43, 0.0, 9.995885, 10.0011215 
2.0147133e+3, 3.172384e+2, -581041.8, -123821.64, 27249.111, -0.00039160237, 0.20274714, -122203.4, -122203.4, 0.0, 9.995341, 10.001392 
2.0254602e+3, 1.2729466e+2, -1120441.5, -1653006.1, 55398.574, 0.012000158, 0.12559164, -1114739.9, 577784.8, 0.12232457, 10.005746, 9.997691 
2.0254196e+3, 1.3729237e+2, -1041463.6, -1575197.6, -18964.342, -0.020036325, 0.13077536, -1040790.7, 553755.2, 0.08681084, 10.005433, 9.997681 
2.0253803e+3, 1.4728965e+2, -970063.94, -1444783.6, 33836.78, -0.006065747, 0.07813445, -967664.25, 528907.6, 0.05122269, 10.004838, 9.998194 
2.0253414e+3, 1.5728806e+2, -965120.25, -1400922.3, 32643.385, -0.01777955, 0.10312279, -962688.7, 435898.4, 0.023082418, 10.004087, 9.998164 
2.0253026e+3, 1.6728644e+2, -894839.7, -1259769.9, 11964.925, -0.011109826, 0.11066303, -894447.8, 406154.78, 0.0068915747, 10.003586, 9.998704 
2.0252636e+3, 1.7728493e+2, -857763.6, -1201896.0, 5771.6187, 0.0008692459, 0.0916863, -857666.9, 344950.16, 0.00093767035, 10.003193, 9.998616 
2.0252244e+3, 1.8728355e+2, -821046.94, -1103262.8, 2323.3474, -0.011536656, 0.09349681, -821027.8, 283603.34, 0.000012160716, 10.002638, 9.998889 
2.025185e+3, 1.9728257e+2, -820610.9, -1063770.4, 257.1877, -0.03341778, 0.10941482, -820610.6, 186030.94, 0.0, 10.002016, 9.998787 
2.0251454e+3, 2.0728137e+2, -781376.56, -968704.94, -12313.275, -0.046108596, 0.11805657, -780570.7, 128083.15, 0.0, 10.001501, 9.999016 
2.0251057e+3, 2.1728037e+2, -758316.9, -916980.2, -17213.643, -0.055113144, 0.11874518, -756470.8, 54193.402, 0.0, 10.00103, 9.998925 
2.0250659e+3, 2.272793e+2, -716387.25, -818223.8, -32267.066, -0.05310059, 0.124333695, -707024.25, 5650.849, 0.0, 10.000525, 9.999173 
2.0250261e+3, 2.3727854e+2, -705459.8, -781046.44, -40724.082, -0.045434877, 0.13148873, -687694.3, -73011.016, 0.0, 10.000009, 9.999005 
2.0249861e+3, 2.4727753e+2, -677755.7, -719435.94, -39313.73, -0.036502793, 0.15057111, -654100.0, -137405.48, 0.0, 9.999538, 9.9989805 
2.0249462e+3, 2.572767e+2, -643437.6, -646951.8, -25511.48, -0.029405648, 0.17195782, -619622.8, -200918.67, 0.0, 9.999079, 9.999026 
2.0249063e+3, 2.672758e+2, -593462.4, -492427.3, -19075.037, -0.03549263, 0.15547065, -488945.97, -168232.83, 0.0, 9.998408, 9.999737 
2.0248663e+3, 2.7727517e+2, -612606.2, -462342.0, -26701.188, -0.042570207, 0.12061637, -457738.38, -235019.36, 0.0, 9.997654, 9.999634 
2.0248263e+3, 2.8727525e+2, -580506.06, -370067.28, -20354.8, -0.07276276, 0.17312449, -368116.53, -243397.55, 0.0, 9.997089, 9.999866 
2.024786e+3, 2.9727605e+2, -552179.9, -297861.84, -10249.077, -0.12632896, 0.2657195, -297449.47, -270736.56, 0.0, 9.996577, 9.999935 
2.024748e+3, 3.072749e+2, -528965.1, -159383.44, -12576.368, 0.019641716, 0.121315494, -158955.97, -158955.97, 0.0, 9.995957, 10.000853 
2.0247084e+3, 3.1727672e+2, -564771.75, -86114.19, 47867.85, -0.01880047, 0.21841057, -81374.13, -81374.13, 0.0, 9.995329, 10.001655 
2.0354654e+3, 1.2733372e+2, -1124937.0, -1664951.1, 41056.723, -0.018358685, 0.07590189, -1121833.4, 570307.0, 0.1263358, 10.00578, 9.997584 
2.0354244e+3, 1.3733192e+2, -1042201.06, -1576903.4, -31712.582, -0.06244262, 0.13398094, -1040326.75, 553830.5, 0.089797735, 10.005446, 9.9976635 
2.0353848e+3, 1.4732918e+2, -971196.8, -1449261.6, 6974.0586, -0.026692165, 0.07966434, -971095.06, 525088.9, 0.05311772, 10.004851, 9.9981575 
2.0353459e+3, 1.5732752e+2, -967882.75, -1411423.5, 7378.7188, 0.027279299, 0.101792395, -967760.0, 430440.03, 0.024035549, 10.0041065, 9.998085 
2.0353064e+3, 1.673258e+2, -903566.44, -1281675.5, -2376.099, 0.01716461, 0.11226, -903551.5, 396665.56, 0.0072332397, 10.003599, 9.9985485 
2.0352665e+3, 1.7732418e+2, -864217.8, -1217563.3, -10197.336, -0.025420172, 0.09743335, -863923.8, 338309.25, 0.0010042702, 10.003198, 9.998508 
2.0352267e+3, 1.8732284e+2, -816276.8, -1095708.8, -20723.996, -0.03549537, 0.106645964, -814748.2, 289498.34, 0.000013938443, 10.002644, 9.99894 
2.0351869e+3, 1.97322e+2, -817349.3, -1059963.8, -21304.893, -0.029065127, 0.13063535, -815492.6, 190762.83, 0.0, 10.002025, 9.998812 
2.035147e+3, 2.0732063e+2, -782781.2, -974494.75, -29221.648, -0.02307698, 0.12261717, -778426.06, 129843.09, 0.0, 10.00151, 9.998975 
2.035107e+3, 2.1731932e+2, -762278.5, -927741.8, -34244.496, -0.019301951, 0.097521126, -755471.25, 54811.0, 0.0, 10.001037, 9.998851 
2.0350666e+3, 2.273183e+2, -727590.44, -844388.2, -50814.27, -0.0319335, 0.12070509, -708577.94, 3715.5862, 0.0, 10.000533, 9.998993 
2.035026e+3, 2.3731768e+2, -708419.94, -790094.44, -58665.73, -0.04993481, 0.16180457, -677777.44, -63476.246, 0.0, 10.000016, 9.998941 
2.0349856e+3, 2.473166e+2, -651924.7, -668822.3, -55626.25, -0.049357254, 0.1549858, -604109.3, -87797.06, 0.0, 9.999547, 9.999327 
2.034945e+3, 2.5731564e+2, -625950.6, -614206.9, -44439.51, -0.04271927, 0.12830575, -575253.0, -156931.34, 0.0, 9.99909, 9.9992485 
2.0349045e+3, 2.6731503e+2, -605729.06, -521251.56, -48017.758, -0.04078144, 0.1436557, -499538.63, -179210.16, 0.0, 9.998418, 9.9995365 
2.034864e+3, 2.773148e+2, -619165.44, -477855.88, -53149.88, -0.037201837, 0.17031097, -460096.8, -237765.05, 0.0, 9.997657, 9.999528 
2.0348233e+3, 2.8731483e+2, -562936.2, -335868.97, -39477.113, -0.06478843, 0.20224044, -329201.4, -204868.92, 0.0, 9.997095, 10.0001 
2.0347826e+3, 2.9731533e+2, -543480.4, -285240.16, -32250.906, -0.11583047, 0.24643397, -281273.34, -254945.45, 0.0, 9.996596, 10.000016 
2.0347443e+3, 3.0731383e+2, -564892.5, -238524.02, -36692.223, 0.06075062, 0.09723977, -234449.72, -234449.72, 0.0, 9.995973, 10.000304 
2.0347032e+3, 3.1731537e+2, -521184.1, 4654.738, 290.335, -0.05719169, 0.21242777, 4654.898, 4654.898, 0.0, 9.995322, 10.002284 
2.0454714e+3, 1.2737389e+2, -1052087.8, -1646362.0, 63892.15, -0.04489656, 0.062419888, -1045296.2, 646449.75, 0.13061607, 10.006469, 9.997397 
2.0454301e+3, 1.3737224e+2, -1029422.25, -1578588.8, -4878.3306, -0.049192205, 0.14328964, -1029378.94, 564383.1, 0.09298078, 10.005603, 9.997573 
2.0453897e+3, 1.4736927e+2, -957253.3, -1460181.4, 26325.7, -0.02796753, 0.08097252, -955879.06, 539912.06, 0.055135984, 10.005047, 9.997982 
2.0453501e+3, 1.5736733e+2, -913542.44, -1399132.1, 17929.084, 0.018200781, 0.09523028, -912881.4, 484928.53, 0.025053414, 10.00456, 9.99795 
2.04531e+3, 1.673656e+2, -857252.06, -1256441.1, 15990.879, 0.011808274, 0.10812708, -856612.5, 443214.47, 0.0076016537, 10.003913, 9.99857 
2.0452695e+3, 1.7736407e+2, -862740.56, -1217159.4, 19003.445, -0.026787054, 0.099079624, -861724.56, 340117.63, 0.0010784217, 10.003214, 9.998502 
2.0452292e+3, 1.8736267e+2, -815438.25, -1104099.1, 5149.037, -0.03375863, 0.108561315, -815346.44, 288509.94, 0.00001608478, 10.00269, 9.9988575 
2.0451891e+3, 1.9736172e+2, -790402.6, -1051628.9, -5410.087, -0.022739673, 0.131011, -790290.6, 215575.86, 0.0, 10.0022335, 9.998766 
2.0451486e+3, 2.0736042e+2, -758789.0, -952484.4, -11004.064, -0.016026706, 0.12598506, -758165.9, 149713.6, 0.0, 10.001634, 9.9990635 
2.0451081e+3, 2.1735924e+2, -766825.94, -923542.25, -6804.61, -0.013898903, 0.105314, -766531.06, 43360.02, 0.0, 10.000982, 9.998903 
2.0450671e+3, 2.273582e+2, -733310.75, -850770.44, -10567.859, -0.027104748, 0.1278589, -732367.56, -20464.8, 0.0, 10.000514, 9.998956 
2.045026e+3, 2.3735751e+2, -694097.1, -782221.56, -10126.014, -0.04507479, 0.16644278, -692948.5, -79037.016, 0.0, 10.000115, 9.998945 
2.044985e+3, 2.4735652e+2, -649923.6, -649237.5, -18034.236, -0.0450424, 0.1595836, -631543.06, -115621.57, 0.0, 9.999485, 9.999489 
2.044944e+3, 2.5735572e+2, -665545.6, -620528.6, -20543.213, -0.039064873, 0.13374943, -612563.25, -194634.28, 0.0, 9.998767, 9.999359 
2.0449029e+3, 2.673552e+2, -629717.0, -536667.0, -20263.975, -0.036221538, 0.1563282, -532445.56, -212510.34, 0.0, 9.998274, 9.999497 
2.0448618e+3, 2.7735505e+2, -590114.6, -463852.38, -14326.56, -0.031621624, 0.19252966, -462247.22, -240308.84, 0.0, 9.997861, 9.999523 
2.0448205e+3, 2.873549e+2, -543623.7, -314203.06, -5586.9214, -0.06263849, 0.20344055, -314067.1, -190126.72, 0.0, 9.997179, 10.000206 
2.044779e+3, 2.973552e+2, -569858.06, -291755.47, -7866.9546, -0.11536066, 0.21729273, -291533.13, -265595.72, 0.0, 9.996393, 10.000067 
2.0447403e+3, 3.0735418e+2, -598978.4, -280949.53, 5840.6563, 0.07988098, 0.12890157, -280842.3, -280842.3, 0.0, 9.995855, 10.000066 
2.0446981e+3, 3.173553e+2, -490800.3, 69814.5, 28703.236, -0.087950274, 0.22562306, 71280.266, 71280.266, 0.0, 9.995317, 10.002732 
2.0554774e+3, 1.2741514e+2, -1071686.8, -1680252.6, 27731.803, -0.071600385, 0.081862256, -1070425.6, 620916.0, 0.13512978, 10.006463, 9.997135 
2.0554361e+3, 1.3741325e+2, -1037504.5, -1599294.6, -30609.52, 0.011850221, 0.15479952, -1035841.7, 557518.9, 0.096343644, 10.005634, 9.99741 
2.0553948e+3, 1.474099e+2, -974904.3, -1501629.6, 9754.325, -0.01272826, 0.07893538, -974723.75, 520669.84, 0.057275627, 10.005074, 9.997674 
2.055354e+3, 1.574076e+2, -926109.2, -1427905.6, -952.963, -0.040148035, 0.08450837, -926107.4, 471308.88, 0.026140148, 10.004569, 9.99775 
2.0553134e+3, 1.674059e+2, -844747.06, -1232811.0, -9796.31, -0.024638021, 0.100175895, -844499.94, 454932.4, 0.00800039, 10.00392, 9.998733 
2.0552729e+3, 1.7740455e+2, -856305.75, -1207490.3, -4877.109, -0.005498735, 0.09693881, -856238.06, 345206.75, 0.0011617533, 10.003225, 9.998565 
2.0552322e+3, 1.8740298e+2, -829403.7, -1135868.0, -11192.613, -0.00861889, 0.09965873, -828995.44, 274465.56, 0.000018863731, 10.002698, 9.998638 
2.0551911e+3, 1.9740173e+2, -798447.44, -1069742.5, -23228.072, -0.01539733, 0.111908406, -796473.06, 209001.78, 0.0, 10.002235, 9.998643 
2.0551501e+3, 2.0740071e+2, -744385.7, -924635.8, -34811.02, -0.024940757, 0.12856314, -737896.4, 169588.66, 0.0, 10.001638, 9.999254 
2.0551087e+3, 2.1740006e+2, -754228.7, -900258.44, -28180.367, -0.03776588, 0.14121017, -748979.25, 60512.082, 0.0, 10.000991, 9.999062 
2.0550674e+3, 2.2739895e+2, -725919.0, -838258.1, -24225.197, -0.037925735, 0.1451932, -720917.7, -9414.202, 0.0, 10.000522, 9.999041 
2.0550261e+3, 2.3739795e+2, -689147.56, -774497.2, -26915.512, -0.03143518, 0.14576013, -681368.56, -67853.695, 0.0, 10.000122, 9.998998 
2.0549846e+3, 2.4739721e+2, -651609.3, -655498.9, -44984.26, -0.024103526, 0.16516887, -608527.8, -93004.78, 0.0, 9.999492, 9.999445 
2.0549428e+3, 2.5739688e+2, -665505.56, -622896.3, -44687.035, -0.018358886, 0.18965302, -594695.2, -177168.2, 0.0, 9.998773, 9.999342 
2.0549011e+3, 2.6739624e+2, -620449.56, -520333.78, -35241.598, -0.02162407, 0.19400795, -509172.7, -189638.5, 0.0, 9.9982815, 9.999609 
2.0548595e+3, 2.7739573e+2, -582259.4, -452016.3, -32991.266, -0.02656108, 0.1849937, -444136.22, -222596.25, 0.0, 9.997875, 9.9996 
2.0548177e+3, 2.8739536e+2, -544951.3, -320978.78, -36657.055, -0.06762872, 0.17415573, -315131.84, -191587.86, 0.0, 9.997191, 10.000156 
2.0547752e+3, 2.973955e+2, -568507.06, -291104.38, -35847.62, -0.1265372, 0.1774422, -286546.8, -261004.13, 0.0, 9.996397, 10.000072 
2.054736e+3, 3.0739594e+2, -590873.2, -265395.38, -11106.093, 0.07463694, 0.22461095, -265016.84, -265016.84, 0.0, 9.995857, 10.0001745 
2.0546931e+3, 3.1739604e+2, -482213.75, 85290.7, -28199.627, -0.11025789, 0.21034625, 86688.52, 86688.52, 0.0, 9.995322, 10.002839 
2.065484e+3, 1.2745674e+2, -1103472.0, -1718172.5, 37027.31, -0.050282635, 0.09579939, -1101249.6, 589684.44, 0.13979635, 10.00634, 9.996923 
2.0654422e+3, 1.3745464e+2, -968098.0, -1570625.9, -11982.867, 0.018887263, 0.15711649, -967859.8, 625095.56, 0.09983467, 10.006216, 9.997339 
2.0653999e+3, 1.4745122e+2, -911287.2, -1476969.1, 32333.555, -0.023210358, 0.07950952, -909445.0, 585544.06, 0.059513044, 10.005583, 9.997602 
2.0653585e+3, 1.5744884e+2, -913137.7, -1429851.4, 35873.406, -0.050174247, 0.08687144, -910659.06, 486353.03, 0.027290199, 10.004704, 9.99767 
2.0653173e+3, 1.6744712e+2, -832112.7, -1235375.1, 22154.22, -0.027871665, 0.10703457, -830899.2, 468129.47, 0.008430366, 10.004048, 9.9986515 
2.0652764e+3, 1.7744574e+2, -822673.8, -1197070.5, 11525.888, -0.0005894895, 0.10900006, -822319.3, 378722.4, 0.0012554873, 10.003485, 9.998509 
2.065235e+3, 1.8744408e+2, -812799.1, -1124204.1, 13140.861, -0.0031367966, 0.10356474, -812245.56, 290813.0, 0.000022594933, 10.002801, 9.998667 
2.0651934e+3, 1.9744271e+2, -820872.1, -1078313.1, 17282.502, -0.012390774, 0.102535926, -819717.1, 185355.94, 0.0, 10.002076, 9.998658 
2.0651516e+3, 2.074417e+2, -754132.9, -930640.4, 1743.3241, -0.023657901, 0.12009889, -754115.7, 152967.6, 0.0, 10.001582, 9.999238 
2.0651096e+3, 2.1744108e+2, -726329.94, -883378.94, -7303.219, -0.037680574, 0.13962705, -725991.06, 83098.17, 0.0, 10.001172, 9.999087 
2.0650679e+3, 2.2744007e+2, -711377.6, -810187.8, -4119.007, -0.03542959, 0.14364627, -711206.25, -106.0719, 0.0, 10.000536, 9.999224 
2.0650262e+3, 2.3743924e+2, -723709.6, -774730.06, -325.61548, -0.025222817, 0.14141601, -723707.56, -110597.61, 0.0, 9.999819, 9.99914 
2.0649841e+3, 2.474386e+2, -667312.56, -658933.9, -11426.538, -0.020581929, 0.1626303, -650952.94, -135835.56, 0.0, 9.999371, 9.999477 
2.0649417e+3, 2.5743833e+2, -626801.44, -598885.56, -6283.4395, -0.019654777, 0.19068816, -597536.5, -180415.58, 0.0, 9.999021, 9.999385 
2.0648994e+3, 2.674378e+2, -596174.25, -496626.6, 3527.0542, -0.020184478, 0.19854875, -496501.78, -177374.61, 0.0, 9.998401, 9.999712 
2.0648575e+3, 2.7743742e+2, -606810.25, -455350.88, 3454.6377, -0.020519705, 0.19370593, -455272.13, -234140.39, 0.0, 9.997673, 9.999673 
2.0648144e+3, 2.874369e+2, -564933.0, -331200.2, -1961.907, -0.06738339, 0.16821562, -331183.72, -208046.73, 0.0, 9.99706, 10.000148 
2.0647715e+3, 2.974368e+2, -550361.5, -276781.34, 3227.199, -0.13287398, 0.14618301, -276743.28, -251605.11, 0.0, 9.996502, 10.000116 
2.0647317e+3, 3.0743816e+2, -574435.0, -231770.64, 35967.098, 0.06002476, 0.27338496, -228036.13, -228036.13, 0.0, 9.995865, 10.000399 
2.0646882e+3, 3.174378e+2, -536323.2, 37938.664, -11836.735, -0.10200332, 0.19610706, 38182.543, 38182.543, 0.0, 9.995047, 10.002645 
2.0754907e+3, 1.2749876e+2, -1109904.3, -1740379.6, 26054.084, 0.009669095, 0.102673374, -1108829.4, 581693.3, 0.14453788, 10.006398, 9.996744 
2.0754477e+3, 1.374965e+2, -968977.3, -1570455.8, -20718.834, -0.023126608, 0.15268563, -968264.5, 624281.5, 0.10339947, 10.006226, 9.997338 
2.075405e+3, 1.4749324e+2, -904744.25, -1462545.0, 1328.4684, -0.057890553, 0.084311076, -904741.06, 589836.5, 0.061819173, 10.005587, 9.997709 
2.0753632e+3, 1.5749103e+2, -911468.9, -1429500.1, 6449.2246, -0.017891303, 0.09951667, -911388.56, 485209.63, 0.028493091, 10.004719, 9.997667 
2.0753215e+3, 1.6748916e+2, -851553.25, -1279039.1, 1694.7677, -0.0019107877, 0.12523101, -851546.5, 447070.34, 0.008889769, 10.00406, 9.998346 
2.0752795e+3, 1.7748757e+2, -833888.9, -1222120.1, -10194.675, -0.011592165, 0.13350575, -833621.4, 367011.94, 0.0013599199, 10.003489, 9.998339 
2.0752375e+3, 1.874859e+2, -795075.6, -1089579.5, -13679.903, -0.016670577, 0.11944439, -794441.56, 308207.84, 0.000027570592, 10.002806, 9.998904 
2.0751953e+3, 1.9748458e+2, -810875.1, -1060976.9, -6517.644, -0.013561166, 0.10265287, -810705.4, 193956.33, 0.0, 10.002087, 9.998775 
2.0751533e+3, 2.0748329e+2, -768627.9, -963500.4, -12349.6, -0.012574122, 0.10098179, -767848.4, 138826.4, 0.0, 10.001589, 9.999011 
2.0751111e+3, 2.1748227e+2, -733633.5, -900092.6, -24072.318, -0.0151680475, 0.10171336, -730222.2, 78463.1, 0.0, 10.001174, 9.998974 
2.0750687e+3, 2.2748159e+2, -692405.75, -772807.2, -30401.428, -0.020875081, 0.12425142, -682204.6, 28488.723, 0.0, 10.00054, 9.99948 
2.0750259e+3, 2.3748131e+2, -707569.06, -743936.44, -23307.617, -0.026858607, 0.1535491, -696191.1, -83493.65, 0.0, 9.9998255, 9.999351 
2.0749831e+3, 2.4748056e+2, -659134.75, -645016.06, -23674.678, -0.03489345, 0.1513506, -627370.6, -112665.32, 0.0, 9.999379, 9.999571 
2.0749405e+3, 2.574799e+2, -618900.4, -585858.25, -22348.326, -0.04404133, 0.13566343, -574587.4, -157875.69, 0.0, 9.99903, 9.999473 
2.0748977e+3, 2.6747975e+2, -589141.5, -485351.75, -24209.75, -0.03260808, 0.16919062, -479982.4, -161267.25, 0.0, 9.99841, 9.999787 
2.074855e+3, 2.7747998e+2, -601710.25, -447504.63, -23272.357, -0.013351092, 0.21878599, -444068.97, -223354.36, 0.0, 9.997681, 9.999726 
2.0748115e+3, 2.8747943e+2, -562353.9, -328631.22, -23684.582, -0.06180511, 0.18747179, -326255.28, -203535.13, 0.0, 9.997067, 10.000164 
2.0747678e+3, 2.9747897e+2, -543340.56, -266079.3, -18719.313, -0.13596947, 0.12707546, -264821.2, -240096.7, 0.0, 9.996513, 10.000187 
2.0747273e+3, 3.074807e+2, -549203.8, -182184.48, 8030.988, 0.03431696, 0.26441064, -182008.83, -182008.83, 0.0, 9.9958725, 10.000738 
2.0746836e+3, 3.174812e+2, -582633.9, -60412.543, -71243.414, -0.07000605, 0.25336236, -50867.703, -50867.703, 0.0, 9.99505, 10.00197 
2.0854975e+3, 1.2754135e+2, -999377.75, -1697465.3, 39396.45, -0.001447223, 0.10214509, -997161.44, 692944.1, 0.14930671, 10.007411, 9.996551 
2.0854539e+3, 1.3753904e+2, -952081.8, -1562408.4, -1434.4319, -0.035485346, 0.15652016, -952078.44, 640051.44, 0.10700413, 10.006386, 9.997321 
2.0854104e+3, 1.4753595e+2, -890375.06, -1441046.0, 16477.502, -0.06647353, 0.097346425, -889882.44, 604277.06, 0.06417215, 10.005643, 9.997838 
2.0853682e+3, 1.5753376e+2, -874474.6, -1405251.5, 23977.17, -0.008739482, 0.104544386, -873393.7, 522785.44, 0.029736722, 10.004965, 9.997713 
2.0853257e+3, 1.6753173e+2, -839706.56, -1292291.0, 29250.38, 0.0023026804, 0.123514935, -837824.0, 460375.63, 0.009373548, 10.0042305, 9.99817 
2.0852827e+3, 1.7752993e+2, -842806.9, -1239431.3, 24814.717, -0.022724202, 0.12964569, -841260.4, 358958.06, 0.0014738889, 10.003487, 9.998219 
2.08524e+3, 1.8752833e+2, -779524.75, -1075403.8, 14916.814, -0.028912533, 0.12209304, -778774.56, 323459.47, 0.000033957902, 10.002887, 9.9989605 
2.0851976e+3, 1.9752714e+2, -770073.1, -1034282.5, 10207.088, -0.019835465, 0.113092996, -769679.4, 234565.52, 0.0, 10.00234, 9.998834 
2.0851548e+3, 2.0752579e+2, -753299.9, -947236.94, 17410.258, -0.0052764993, 0.10034318, -751749.3, 154508.83, 0.0, 10.001661, 9.999085 
2.085112e+3, 2.1752466e+2, -764450.25, -907645.0, 25242.209, 0.0070614484, 0.08374184, -760130.9, 48138.543, 0.0, 10.0009365, 9.999034 
2.0850691e+3, 2.2752407e+2, -713785.3, -779212.0, 11791.207, -0.0088992985, 0.114337645, -711725.1, -1448.6013, 0.0, 10.000381, 9.999511 
2.0850256e+3, 2.37524e+2, -692478.6, -727383.8, 3792.8076, -0.034112357, 0.1604686, -692071.25, -79792.19, 0.0, 9.999894, 9.999429 
2.0849824e+3, 2.475233e+2, -647177.9, -611929.5, 10646.094, -0.041441627, 0.14491916, -608963.6, -94677.6, 0.0, 9.999349, 9.999811 
2.0849392e+3, 2.5752264e+2, -643586.4, -577933.25, 19860.805, -0.04232964, 0.10564518, -572392.75, -156101.05, 0.0, 9.998779, 9.999645 
2.0848958e+3, 2.675226e+2, -621641.44, -501889.53, 10011.737, -0.035254806, 0.14979799, -501058.28, -182764.14, 0.0, 9.998195, 9.999776 
2.0848523e+3, 2.7752307e+2, -612011.2, -448882.66, 4686.184, -0.02464384, 0.22315583, -448748.16, -228455.78, 0.0, 9.997599, 9.999754 
2.0848086e+3, 2.875227e+2, -573542.75, -315383.0, 11281.38, -0.05992163, 0.19773911, -314890.94, -192594.89, 0.0, 9.996914, 10.000327 
2.0847644e+3, 2.9752234e+2, -582058.1, -270670.4, 27558.727, -0.11393716, 0.1325172, -268250.2, -243951.42, 0.0, 9.996191, 10.00031 
2.0847227e+3, 3.0752376e+2, -560802.94, -170503.42, 47793.547, 0.0036607424, 0.22747034, -164736.16, -164736.16, 0.0, 9.995722, 10.000889 
2.0846787e+3, 3.175246e+2, -561261.7, -86585.95, -58758.547, -0.060489956, 0.23639777, -79420.59, -79420.59, 0.0, 9.995358, 10.001639 
2.0955041e+3, 1.275845e+2, -1017334.2, -1730597.8, -1439.4869, -0.072314166, 0.094933644, -1017331.25, 672351.4, 0.15408947, 10.007401, 9.996328 
2.0954601e+3, 1.3758223e+2, -956341.44, -1569187.8, -30824.39, -0.022507887, 0.16647989, -954794.94, 636912.25, 0.11063857, 10.006396, 9.997267 
2.0954162e+3, 1.475793e+2, -880027.8, -1421402.1, -5997.7407, -0.053484887, 0.115680896, -879961.4, 613773.7, 0.06656004, 10.00566, 9.997977 
2.095373e+3, 1.5757705e+2, -867003.4, -1392687.3, -790.4313, -0.021136321, 0.10312959, -867002.2, 528752.6, 0.031009167, 10.004981, 9.997795 
2.0953296e+3, 1.6757481e+2, -843167.94, -1303722.3, 1741.7074, -0.013893291, 0.10500733, -843161.4, 454615.56, 0.009874441, 10.004246, 9.998087 
2.0952861e+3, 1.7757283e+2, -847175.56, -1253301.9, -561.9418, -0.034427762, 0.10016356, -847174.8, 352622.75, 0.0015950555, 10.003503, 9.998117 
2.0952427e+3, 1.875713e+2, -786318.94, -1092777.1, -4487.167, -0.040189195, 0.112459764, -786253.25, 315559.75, 0.000041748957, 10.002896, 9.998839 
2.0951995e+3, 1.9757031e+2, -770236.94, -1035766.4, -10864.55, -0.031332705, 0.1329009, -769793.1, 234029.8, 0.0, 10.00234, 9.998826 
2.0951565e+3, 2.0756914e+2, -728538.75, -897462.25, -9118.292, -0.0021738494, 0.11719223, -728048.0, 177785.8, 0.0, 10.001663, 9.999429 
2.0951132e+3, 2.1756819e+2, -749123.44, -878593.8, 1088.4108, 0.028703138, 0.085621186, -749114.3, 58728.01, 0.0, 10.000944, 9.999232 
2.0950693e+3, 2.2756752e+2, -727070.75, -809546.5, -5612.667, 0.00042665636, 0.113672055, -726690.56, -16839.99, 0.0, 10.000389, 9.999301 
2.0950252e+3, 2.3756726e+2, -695993.25, -737097.0, -14389.651, -0.04722951, 0.1615528, -691456.5, -79600.92, 0.0, 9.9999, 9.999361 
2.0949817e+3, 2.4756674e+2, -620211.9, -558710.0, -10398.306, -0.040292565, 0.14358199, -556999.5, -43139.31, 0.0, 9.999355, 10.000175 
2.0949382e+3, 2.575664e+2, -625518.6, -543071.94, -1677.123, -0.014506805, 0.10143169, -543037.8, -127176.03, 0.0, 9.998787, 9.999884 
2.094894e+3, 2.6756632e+2, -628712.0, -519145.0, -12776.861, -0.028739898, 0.1402878, -517674.78, -199809.67, 0.0, 9.998201, 9.999657 
2.0948496e+3, 2.7756658e+2, -611384.8, -450595.13, -19316.826, -0.055960797, 0.2053753, -448307.03, -228440.88, 0.0, 9.997606, 9.999741 
2.0948054e+3, 2.8756663e+2, -550963.0, -270931.4, -17326.494, -0.061728187, 0.19882995, -269863.4, -147997.7, 0.0, 9.99692, 10.000632 
2.094761e+3, 2.9756683e+2, -570532.75, -248228.17, 2290.2363, -0.06457615, 0.1648423, -248211.89, -224350.31, 0.0, 9.996192, 10.000466 
2.0947178e+3, 3.0756718e+2, -567312.94, -186305.9, 33270.703, -0.0332478, 0.15662469, -183422.44, -183422.44, 0.0, 9.995728, 10.00078 
2.0946738e+3, 3.1756854e+2, -544920.44, -59601.234, -75374.26, -0.08320018, 0.21853694, -48164.477, -48164.477, 0.0, 9.995382, 10.001817 
2.1055113e+3, 1.2762873e+2, -1038513.2, -1744928.6, 22493.36, -0.09315226, 0.09996154, -1037797.7, 651451.1, 0.15889166, 10.007282, 9.996285 
2.1054667e+3, 1.3762608e+2, -939127.75, -1560553.3, 12340.272, -0.009221751, 0.13321827, -938882.75, 652394.06, 0.114298865, 10.006558, 9.997253 
2.1054219e+3, 1.476233e+2, -850531.75, -1414889.4, 35369.758, -0.046476103, 0.10626556, -848323.7, 644979.56, 0.06897005, 10.005933, 9.997892 
2.1053779e+3, 1.5762118e+2, -826970.06, -1379855.0, 25662.443, -0.033758413, 0.11184681, -825781.44, 569541.1, 0.03229584, 10.005304, 9.997727 
2.1053338e+3, 1.6761884e+2, -793469.75, -1281139.4, 25033.533, -0.027516594, 0.107589364, -792188.06, 505157.5, 0.010383423, 10.004603, 9.998069 
2.1052895e+3, 1.776167e+2, -795637.1, -1231516.8, 27122.1, -0.041421983, 0.09116332, -793956.0, 405411.34, 0.0017203173, 10.003876, 9.998086 
2.1052456e+3, 1.8761513e+2, -770023.4, -1092322.6, 27433.357, -0.038764287, 0.106177785, -767705.0, 333678.44, 0.000050741073, 10.003045, 9.998769 
2.105202e+3, 1.9761413e+2, -795186.56, -1050701.1, 24239.803, -0.022115648, 0.13402385, -792907.4, 210486.47, 0.0, 10.002187, 9.9987955 
2.105158e+3, 2.0761314e+2, -734984.0, -889719.44, 15963.559, -0.00296046, 0.13215148, -733354.25, 172048.92, 0.0, 10.001577, 9.999521 
2.105114e+3, 2.1761243e+2, -726734.44, -858802.56, 8711.781, 0.012648792, 0.11579337, -726162.25, 81247.18, 0.0, 10.001063, 9.999309 
2.1050696e+3, 2.2761162e+2, -713286.94, -796866.4, 11847.403, -0.0077735707, 0.12466392, -711640.0, -2221.2932, 0.0, 10.000463, 9.999351 
2.1050252e+3, 2.3761111e+2, -702090.8, -730993.06, 19975.475, -0.039490785, 0.14216745, -691887.25, -80461.4, 0.0, 9.999825, 9.999436 
2.104981e+3, 2.4761091e+2, -638021.06, -548535.5, 16277.47, -0.030666908, 0.14415738, -545666.6, -32239.104, 0.0, 9.999157, 10.000338 
2.1049368e+3, 2.5761113e+2, -660416.9, -545042.56, 10959.68, -0.008492486, 0.13916783, -544010.7, -128586.34, 0.0, 9.998487, 10.000012 
2.1048918e+3, 2.676109e+2, -662272.3, -527440.4, 7919.114, -0.02976247, 0.15850696, -526976.9, -209548.23, 0.0, 9.997942, 9.9997225 
2.104847e+3, 2.7761084e+2, -629867.1, -449869.53, 13209.387, -0.0644823, 0.18267383, -448905.3, -229472.63, 0.0, 9.997443, 9.999822 
2.1048023e+3, 2.876111e+2, -543889.1, -253206.34, 5492.108, -0.059251618, 0.18911655, -253102.63, -131672.63, 0.0, 9.996911, 10.000756 
2.1047573e+3, 2.976118e+2, -545403.4, -229536.08, 11790.088, -0.046062216, 0.19460623, -229096.63, -205675.53, 0.0, 9.996341, 10.000521 
2.1047132e+3, 3.0761176e+2, -596167.6, -208697.5, 44994.242, -0.06399788, 0.15151155, -203541.23, -203541.23, 0.0, 9.995571, 10.000699 
2.1046689e+3, 3.176131e+2, -606642.1, -57374.28, -52016.57, -0.07092739, 0.21426034, -52491.63, -52491.63, 0.0, 9.994827, 10.002096 
2.1155186e+3, 1.2767394e+2, -1036573.6, -1732100.4, -8798.537, -0.07511, 0.11131326, -1036462.3, 652342.94, 0.16371173, 10.007283, 9.996374 
2.1154734e+3, 1.3767058e+2, -938878.7, -1559578.9, -10065.737, 0.002842927, 0.06402341, -938715.5, 652123.4, 0.117965244, 10.006578, 9.997254 
2.1154277e+3, 1.47668e+2, -868518.25, -1454273.5, 13338.928, -0.045638125, 0.07460551, -868214.6, 624649.56, 0.0713764, 10.005952, 9.997597 
2.115383e+3, 1.5766606e+2, -840363.4, -1410256.8, 1969.9286, -0.04751019, 0.12922524, -840356.56, 554526.4, 0.033576656, 10.005316, 9.997513 
2.1153381e+3, 1.6766368e+2, -790903.56, -1277441.9, -1487.5895, -0.039628007, 0.12811333, -790899.0, 506007.28, 0.010890263, 10.004608, 9.998095 
2.1152934e+3, 1.7766146e+2, -794584.8, -1230365.0, -823.1599, -0.044539906, 0.100796744, -794583.25, 404345.1, 0.0018462891, 10.003877, 9.9980955 
2.1152487e+3, 1.8765976e+2, -771759.6, -1097899.8, -4779.8594, -0.026299756, 0.10314022, -771689.6, 329256.22, 0.000060592425, 10.003049, 9.998731 
2.115204e+3, 1.976586e+2, -798376.25, -1060946.3, -4028.4348, 0.0056677456, 0.11796407, -798314.5, 204643.61, 0.0, 10.002197, 9.998722 
2.1151595e+3, 2.0765775e+2, -744769.75, -913240.56, -2153.5525, -0.008040558, 0.14553824, -744742.2, 160224.61, 0.0, 10.001586, 9.999358 
2.1151145e+3, 2.1765733e+2, -729539.3, -866366.2, -10328.312, -0.04008658, 0.17243387, -728764.06, 78207.34, 0.0, 10.001066, 9.999258 
2.1150698e+3, 2.2765633e+2, -692789.2, -756234.94, -11052.998, -0.033157457, 0.14648937, -690918.8, 18062.941, 0.0, 10.000466, 9.99963 
2.115025e+3, 2.3765549e+2, -687159.25, -702696.4, -3733.9631, -0.011367599, 0.103277154, -686308.44, -75317.85, 0.0, 9.999832, 9.99963 
2.1149802e+3, 2.4765573e+2, -640864.1, -557130.75, -8965.331, -0.013190288, 0.14737466, -556181.6, -43192.87, 0.0, 9.999165, 10.0002775 
2.114935e+3, 2.5765663e+2, -658878.1, -544437.06, -12829.171, -0.02519743, 0.21924107, -543016.5, -128036.17, 0.0, 9.998494, 10.000015 
2.1148896e+3, 2.6765624e+2, -644467.1, -493145.75, -11545.765, -0.038327716, 0.20524779, -492269.88, -175284.27, 0.0, 9.997949, 9.999957 
2.1148445e+3, 2.7765566e+2, -617805.3, -427271.06, -6783.425, -0.049708966, 0.15546745, -427029.84, -208036.88, 0.0, 9.997449, 9.999977 
2.114799e+3, 2.8765598e+2, -548064.2, -265075.22, -16696.865, -0.05388606, 0.16721672, -264093.5, -143103.23, 0.0, 9.99692, 10.000672 
2.1147534e+3, 2.976571e+2, -547034.75, -238123.44, -14213.146, -0.061934978, 0.21848045, -237470.86, -214491.81, 0.0, 9.996358, 10.000456 
2.1147083e+3, 3.076575e+2, -601216.06, -221027.64, 10458.975, -0.08615404, 0.22774024, -220740.14, -220740.14, 0.0, 9.995575, 10.000614 
2.114664e+3, 3.176576e+2, -574065.7, 11838.32, -58744.777, -0.024878468, 0.17204171, 17670.229, 17670.229, 0.0, 9.994815, 10.002581 
2.1255259e+3, 1.2771979e+2, -1034721.75, -1729335.1, 7766.0327, -0.051155306, 0.12582466, -1034634.94, 653720.94, 0.16851725, 10.007335, 9.9963665 
2.12548e+3, 1.3771619e+2, -898389.56, -1544998.9, 5108.5396, -0.009727175, 0.05667876, -898349.2, 692042.5, 0.12159328, 10.006951, 9.997186 
2.1254335e+3, 1.4771359e+2, -837568.5, -1455797.0, 26384.678, -0.055202954, 0.07951215, -836444.5, 655972.9, 0.07373981, 10.006279, 9.997426 
2.1253882e+3, 1.5771145e+2, -828708.7, -1418112.6, 21688.875, -0.04704135, 0.13079521, -827911.7, 566526.9, 0.034827814, 10.005469, 9.997382 
2.1253428e+3, 1.6770902e+2, -791337.94, -1278805.3, 16222.35, -0.03616536, 0.131093, -790798.6, 505663.8, 0.0113846455, 10.004618, 9.998077 
2.1252972e+3, 1.7770685e+2, -812211.06, -1239488.6, 13686.289, -0.039353333, 0.11074144, -811773.1, 386710.8, 0.001969618, 10.003763, 9.998085 
2.1252517e+3, 1.877051e+2, -766045.56, -1093236.1, 12590.999, -0.028880142, 0.10859744, -765561.75, 334939.8, 0.000070876886, 10.003084, 9.998744 
2.1252063e+3, 1.9770382e+2, -760213.2, -1044029.2, 16946.438, -0.008362648, 0.112961, -759204.94, 243309.56, 0.0, 10.00247, 9.998705 
2.1251607e+3, 2.0770292e+2, -729862.9, -915533.6, 25140.12, -0.024161234, 0.14088435, -726519.06, 178005.1, 0.0, 10.001734, 9.999269 
2.1251152e+3, 2.1770246e+2, -747349.44, -876220.6, 20809.242, -0.054630235, 0.17338799, -744072.6, 62456.94, 0.0, 10.000954, 9.999242 
2.1250698e+3, 2.277016e+2, -711310.2, -741489.8, 16917.057, -0.04011321, 0.14872378, -703730.9, 4807.3813, 0.0, 10.000241, 9.999837 
2.1250246e+3, 2.3770092e+2, -718231.0, -704030.4, 18848.723, -0.008453883, 0.10432884, -690989.0, -80444.18, 0.0, 9.999564, 9.999748 
2.124979e+3, 2.4770117e+2, -669336.25, -581587.0, 11326.414, -0.01409836, 0.15047765, -580148.6, -67604.984, 0.0, 9.99902, 10.000177 
2.1249333e+3, 2.5770202e+2, -656888.7, -544469.06, 3873.4797, -0.03459885, 0.22639087, -544335.75, -129799.03, 0.0, 9.998517, 10.000001 
2.1248874e+3, 2.677018e+2, -639884.0, -463368.53, 4728.316, -0.039558165, 0.21535929, -463241.97, -146702.02, 0.0, 9.997867, 10.000198 
2.1248418e+3, 2.7770147e+2, -648621.9, -425228.34, 10848.917, -0.03738421, 0.16652611, -424702.72, -206158.52, 0.0, 9.9971695, 10.000123 
2.1247959e+3, 2.8770167e+2, -591514.44, -295965.34, 2970.315, -0.044452783, 0.17043056, -295935.5, -175392.69, 0.0, 9.996669, 10.000579 
2.1247497e+3, 2.9770264e+2, -564141.4, -245657.89, 2058.4368, -0.059879564, 0.21547925, -245644.58, -223110.6, 0.0, 9.9962435, 10.000456 
2.1247038e+3, 3.0770352e+2, -589146.4, -202285.84, 29058.559, -0.08726503, 0.26430872, -200115.31, -200115.31, 0.0, 9.995607, 10.000725 
2.124659e+3, 3.1770343e+2, -556761.4, 37556.945, -11125.697, -0.016500268, 0.18236992, 37765.145, 37765.145, 0.0, 9.994862, 10.002733 
2.1355334e+3, 1.277663e+2, -1044998.25, -1746350.8, -11759.888, -0.023839343, 0.14017676, -1044801.06, 643099.9, 0.17324428, 10.007332, 9.996254 
2.1354863e+3, 1.3776283e+2, -910412.94, -1565096.0, -10427.923, -0.044134665, 0.101545714, -910246.9, 679688.7, 0.1251276, 10.006949, 9.997032 
2.1354397e+3, 1.4776003e+2, -844063.7, -1466436.4, -1651.0432, -0.07438354, 0.11494974, -844059.3, 647903.75, 0.07602169, 10.006276, 9.997351 
2.1353938e+3, 1.5775734e+2, -834541.9, -1429618.1, -8070.83, -0.034491867, 0.11887723, -834432.44, 559556.9, 0.036028896, 10.005467, 9.997307 
2.1353474e+3, 1.6775486e+2, -795531.7, -1289632.4, -15200.68, -0.01957254, 0.11944574, -795064.5, 500949.53, 0.0118581215, 10.004624, 9.998001 
2.1353011e+3, 1.7775282e+2, -813020.25, -1245941.6, -15249.6, -0.027790226, 0.120757334, -812483.75, 385550.6, 0.002087352, 10.003779, 9.998035 
2.1352544e+3, 1.877511e+2, -761014.2, -1086777.5, -9540.397, -0.04615971, 0.1212522, -760735.0, 339316.06, 0.000081117694, 10.003098, 9.998784 
2.135208e+3, 1.977498e+2, -757872.2, -1041328.56, -6817.2485, -0.061368793, 0.11803781, -757708.3, 244355.33, 0.0, 10.002475, 9.998723 
2.135162e+3, 2.0774859e+2, -731835.44, -921652.9, -3408.664, -0.05037479, 0.11909987, -731774.25, 172301.52, 0.0, 10.001738, 9.999228 
2.1351162e+3, 2.1774781e+2, -746013.5, -876172.5, -6377.5444, -0.03287984, 0.12172563, -745701.8, 60382.504, 0.0, 10.000961, 9.999241 
2.1350701e+3, 2.2774737e+2, -701836.5, -724826.3, -7928.9634, -0.029941099, 0.13284114, -699367.1, 8721.856, 0.0, 10.00025, 9.999949 
2.1350239e+3, 2.3774736e+2, -714872.4, -699710.4, -4269.497, -0.031131623, 0.14433707, -698590.8, -88501.44, 0.0, 9.999571, 9.999777 
2.1349777e+3, 2.4774712e+2, -679398.94, -605354.6, -7190.8467, -0.03366746, 0.15222101, -604662.75, -92569.664, 0.0, 9.999027, 10.000012 
2.1349317e+3, 2.5774714e+2, -659083.75, -552194.5, -17177.973, -0.03724249, 0.15897469, -549501.7, -135407.06, 0.0, 9.998527, 9.999947 
2.1348852e+3, 2.6774743e+2, -621829.6, -428726.88, -22844.576, -0.03379422, 0.18839933, -426061.1, -109968.38, 0.0, 9.997873, 10.000435 
2.1348388e+3, 2.777481e+2, -638461.8, -406949.38, -14264.669, -0.027538953, 0.21813521, -406073.75, -187986.55, 0.0, 9.997176, 10.000248 
2.1347925e+3, 2.8774804e+2, -599998.94, -316220.9, -14459.911, -0.030479783, 0.19977508, -315486.0, -195397.17, 0.0, 9.9966755, 10.00044 
2.1347462e+3, 2.9774827e+2, -560025.44, -239510.44, -17569.996, -0.040140852, 0.18203302, -238550.16, -216462.47, 0.0, 9.996248, 10.000499 
2.1346995e+3, 3.0774966e+2, -562432.0, -149649.77, -1615.971, -0.06562892, 0.2566257, -149643.45, -149643.45, 0.0, 9.995615, 10.001085 
2.1346533e+3, 3.1775007e+2, -582280.25, -19989.814, -29512.117, -0.06887284, 0.20347449, -18445.098, -18445.098, 0.0, 9.994877, 10.002333 
2.1455407e+3, 1.27813e+2, -1053845.8, -1742050.1, 1768.7642, -0.01974211, 0.130343, -1053841.1, 633602.3, 0.17781866, 10.007259, 9.996315 
2.1454932e+3, 1.3780977e+2, -923504.6, -1573003.0, 13401.984, -0.040827926, 0.11669655, -923228.25, 666247.56, 0.1285204, 10.006886, 9.996999 
2.1454458e+3, 1.4780694e+2, -862993.9, -1478479.6, 14295.938, -0.06543772, 0.13289586, -862662.0, 628841.5, 0.07819453, 10.006168, 9.99731 
2.1453992e+3, 1.5780398e+2, -858167.8, -1443287.6, 11202.816, -0.032190856, 0.11441815, -857953.44, 535578.94, 0.03716519, 10.005319, 9.997281 
2.145352e+3, 1.6780148e+2, -786398.75, -1284923.8, 12298.948, -0.023583597, 0.11511657, -786095.56, 509461.63, 0.01230381, 10.004694, 9.997997 
2.1453047e+3, 1.7779952e+2, -762752.8, -1225678.4, 15336.6455, -0.035503253, 0.12648852, -762245.25, 435331.3, 0.0021970458, 10.0041485, 9.997993 
2.1452576e+3, 1.8779768e+2, -729521.94, -1083706.0, 12277.14, -0.05340453, 0.124292, -729096.9, 370497.53, 0.00009083706, 10.003371, 9.998671 
2.1452105e+3, 1.977962e+2, -756307.6, -1045855.56, 3566.8518, -0.06763606, 0.11319729, -756263.7, 245345.03, 0.0, 10.002514, 9.998671 
2.1451639e+3, 2.0779498e+2, -722878.1, -903393.8, 11350.654, -0.053741194, 0.10782503, -722167.2, 181453.4, 0.0, 10.001744, 9.999348 
2.1451172e+3, 2.1779424e+2, -734774.8, -863939.0, 18976.082, -0.03201515, 0.10503919, -732044.6, 73583.66, 0.0, 10.001014, 9.999297 
2.1450703e+3, 2.2779384e+2, -692406.25, -729056.3, 11991.009, -0.032669496, 0.124181464, -688831.7, 18801.145, 0.0, 10.000357, 9.9998665 
2.1450235e+3, 2.3779386e+2, -695167.3, -692915.94, 2253.4338, -0.040558107, 0.14802966, -691522.7, -81889.39, 0.0, 9.999722, 9.999748 
2.1449766e+3, 2.4779361e+2, -677467.6, -589822.0, 12449.863, -0.038580958, 0.14699595, -588087.8, -76450.81, 0.0, 9.998982, 10.000139 
2.1449299e+3, 2.5779358e+2, -698984.3, -562753.94, 22793.563, -0.033439416, 0.13707209, -559041.4, -145402.67, 0.0, 9.998219, 10.00002 
2.1448831e+3, 2.6779395e+2, -647657.94, -445054.2, 8926.883, -0.032504898, 0.17335016, -444661.63, -129025.11, 0.0, 9.997717, 10.000397 
2.1448359e+3, 2.7779475e+2, -622499.06, -399853.63, -3182.456, -0.032161634, 0.22151107, -399808.16, -182177.97, 0.0, 9.997293, 10.000237 
2.1447891e+3, 2.8779483e+2, -612944.75, -314592.88, 1649.4113, -0.032221444, 0.21455991, -314583.75, -194953.17, 0.0, 9.996557, 10.0005045 
2.144742e+3, 2.977951e+2, -627372.75, -261635.16, 15171.973, -0.03659757, 0.19288625, -261006.86, -239377.52, 0.0, 9.995747, 10.0005865 
2.144695e+3, 3.0779627e+2, -584311.75, -141843.73, 20832.412, -0.04812582, 0.23132415, -140865.06, -140865.06, 0.0, 9.995391, 10.001245 
2.144648e+3, 3.1779686e+2, -562158.75, -20086.889, -14836.133, -0.081875935, 0.18609925, -19681.137, -19681.137, 0.0, 9.995064, 10.002238 
2.1555476e+3, 1.2786e+2, -1046674.8, -1716153.5, -14151.981, -0.035626635, 0.099536255, -1046375.8, 640606.8, 0.18218352, 10.007257, 9.996496 
2.1555005e+3, 1.3785706e+2, -924166.4, -1569008.1, -2076.237, -0.0068223854, 0.107636966, -924159.7, 664852.06, 0.1317395, 10.006879, 9.997036 
2.1554522e+3, 1.4785436e+2, -865467.44, -1482331.0, -15234.48, -0.034173872, 0.13632022, -865091.44, 625947.2, 0.080241024, 10.006171, 9.997282 
2.1554042e+3, 1.5785137e+2, -856793.9, -1443334.8, -16563.637, -0.039626766, 0.11627137, -856326.5, 536741.5, 0.03822614, 10.005332, 9.997277 
2.1553564e+3, 1.6784887e+2, -782083.8, -1278711.5, -7646.6563, -0.046183378, 0.116861016, -781966.06, 513126.34, 0.012716061, 10.0047035, 9.998038 
2.1553086e+3, 1.7784695e+2, -765681.44, -1233206.1, -8260.964, -0.0605207, 0.12872896, -765535.5, 431575.72, 0.002296898, 10.00415, 9.997944 
2.1552607e+3, 1.8784483e+2, -748320.3, -1124566.0, -19441.057, -0.051385053, 0.119127765, -747318.44, 351813.53, 0.0000996374, 10.003374, 9.998391 
2.1552132e+3, 1.97843e+2, -764045.9, -1064671.1, -26177.951, -0.0313447, 0.099507265, -761783.4, 239366.55, 0.0, 10.002521, 9.998541 
2.1551655e+3, 2.0784204e+2, -703833.0, -866788.94, -15303.629, -0.03678587, 0.10652936, -702408.25, 200750.95, 0.0, 10.001752, 9.999598 
2.155118e+3, 2.1784168e+2, -727248.56, -850493.94, -6629.358, -0.0517166, 0.12142349, -726893.0, 78269.48, 0.0, 10.001019, 9.99939 
2.1550703e+3, 2.2784096e+2, -712023.5, -772024.2, -10747.602, -0.047884442, 0.121827506, -710156.44, -2985.778, 0.0, 10.000361, 9.999572 
2.1550229e+3, 2.3784043e+2, -700545.6, -706891.8, -22246.383, -0.03713147, 0.11618096, -681247.2, -72070.05, 0.0, 9.999729, 9.999651 
2.1549755e+3, 2.478406e+2, -647811.56, -531339.2, -16739.314, -0.029138481, 0.1357419, -528981.2, -17805.127, 0.0, 9.99899, 10.00054 
2.1549283e+3, 2.578413e+2, -684942.06, -536508.5, -2646.2065, -0.023746988, 0.16162328, -536461.3, -123291.69, 0.0, 9.998226, 10.000199 
2.1548806e+3, 2.6784122e+2, -669877.9, -494487.78, -6872.2075, -0.036608387, 0.16937807, -494218.94, -179046.55, 0.0, 9.997726, 10.000055 
2.1548331e+3, 2.7784124e+2, -632481.6, -424404.25, -24680.703, -0.053131346, 0.17239505, -421516.88, -204342.23, 0.0, 9.997306, 10.000066 
2.1547851e+3, 2.8784195e+2, -592832.1, -274405.25, -32131.041, -0.051539432, 0.21531671, -271195.38, -152026.25, 0.0, 9.99656, 10.000782 
2.1547373e+3, 2.9784307e+2, -619620.2, -244963.58, -9557.755, -0.050932296, 0.25628766, -244719.9, -223560.86, 0.0, 9.995739, 10.000707 
2.1546905e+3, 3.07843e+2, -589706.0, -156211.73, 10425.66, -0.03567294, 0.17545356, -155961.14, -155961.14, 0.0, 9.995398, 10.001145 
2.1546431e+3, 3.1784448e+2, -547999.3, 2248.4167, -42354.41, -0.056052953, 0.22111079, 5489.487, 5489.487, 0.0, 9.995089, 10.002382 
2.1655549e+3, 1.2790787e+2, -1042569.9, -1685698.1, 14253.448, -0.017904809, 0.08261443, -1042254.1, 644258.94, 0.18630405, 10.00721, 9.996726 
2.1655068e+3, 1.3790514e+2, -941369.7, -1571749.9, 31004.672, -0.022611085, 0.09841733, -939848.4, 648691.44, 0.13475989, 10.0067425, 9.997077 
2.1654582e+3, 1.4790234e+2, -872433.1, -1495832.6, 8176.505, -0.03843273, 0.12686315, -872325.94, 618241.56, 0.08214492, 10.006182, 9.997176 
2.1654096e+3, 1.578992e+2, -832138.94, -1441640.6, 1915.4202, -0.037501182, 0.10381592, -832132.94, 560465.6, 0.03920202, 10.005565, 9.997173 
2.165361e+3, 1.678967e+2, -770133.94, -1283234.1, 4285.3257, -0.048038535, 0.1129484, -770098.1, 524525.5, 0.013090173, 10.004839, 9.997939 
2.1653125e+3, 1.7789479e+2, -778780.75, -1243551.9, -6961.158, -0.066080645, 0.13581726, -778676.56, 417966.13, 0.0023855239, 10.004084, 9.997902 
2.1652639e+3, 1.8789265e+2, -747021.56, -1111887.9, -5440.855, -0.053281106, 0.11793065, -746940.44, 351722.94, 0.00010718313, 10.003337, 9.998493 
2.1652156e+3, 1.9789074e+2, -752469.5, -1056705.8, 11815.898, -0.028684713, 0.08500078, -752011.25, 248670.0, 0.0, 10.002595, 9.998557 
2.1651672e+3, 2.0788978e+2, -705501.8, -886201.4, 7105.884, -0.034921445, 0.10262717, -705222.8, 197468.23, 0.0, 10.001825, 9.999426 
2.1651186e+3, 2.1788944e+2, -728731.94, -858888.25, -12652.945, -0.052037507, 0.13447632, -727513.3, 77181.62, 0.0, 10.001045, 9.999316 
2.1650706e+3, 2.2788869e+2, -718413.56, -755448.94, 1456.3995, -0.048320677, 0.124769606, -718356.4, -11653.424, 0.0, 10.000238, 9.9997425 
2.1650225e+3, 2.3788813e+2, -737679.8, -714134.94, 21643.813, -0.03665316, 0.101356074, -701269.06, -92560.1, 0.0, 9.9994335, 9.999742 
2.1649744e+3, 2.4788836e+2, -680910.25, -557070.3, 9315.793, -0.027980154, 0.12992647, -556373.44, -45665.945, 0.0, 9.99881, 10.000447 
2.1649262e+3, 2.578891e+2, -686351.7, -543180.94, -9764.11, -0.022642555, 0.17243287, -542518.1, -129817.39, 0.0, 9.998247, 10.000141 
2.1648781e+3, 2.678889e+2, -685879.44, -498334.25, 1525.1515, -0.037483897, 0.1672142, -498321.84, -183617.13, 0.0, 9.997604, 10.000086 
2.1648301e+3, 2.7788877e+2, -682919.56, -444653.84, 9167.404, -0.05519947, 0.14923242, -444301.66, -227592.98, 0.0, 9.996944, 10.000099 
2.1647815e+3, 2.8788966e+2, -593572.2, -266794.2, -4965.5435, -0.056462657, 0.20811298, -266718.75, -148017.34, 0.0, 9.996525, 10.00085 
2.1647331e+3, 2.9789108e+2, -562364.0, -220018.95, 2787.1284, -0.06325308, 0.27519348, -219996.27, -199307.66, 0.0, 9.996148, 10.000679 
2.1646857e+3, 3.0789077e+2, -602264.75, -173804.78, 18596.744, -0.040566605, 0.17935641, -172999.14, -172999.14, 0.0, 9.995366, 10.001038 
2.1646379e+3, 3.1789213e+2, -620678.25, -4452.7173, -43997.297, -0.03285602, 0.21261746, -1327.2484, -1327.2484, 0.0, 9.994476, 10.002627 
2.1755625e+3, 1.2795657e+2, -1029213.75, -1655552.5, -3033.1833, 0.023009509, 0.07662705, -1029199.06, 656836.1, 0.19015612, 10.007225, 9.996975 
2.1755129e+3, 1.3795394e+2, -939686.3, -1567944.6, 14198.39, -0.080323316, 0.08878793, -939365.56, 648694.6, 0.13756013, 10.006758, 9.997103 
2.1754642e+3, 1.479509e+2, -884294.06, -1523545.0, -13432.69, -0.07198412, 0.106359944, -884011.94, 606078.3, 0.083891846, 10.006192, 9.9969845 
2.175415e+3, 1.5794754e+2, -846015.1, -1472170.1, -21488.297, -0.027483812, 0.07954416, -845278.56, 546845.44, 0.040086232, 10.005567, 9.996966 
2.175366e+3, 1.6794497e+2, -786468.3, -1318568.0, -22940.047, -0.032715917, 0.1046986, -785481.2, 508669.47, 0.01342393, 10.004841, 9.997697 
2.1753164e+3, 1.7794304e+2, -781109.75, -1250586.8, -33961.19, -0.054970138, 0.1472504, -778665.75, 417505.1, 0.0024623012, 10.004088, 9.997853 
2.175267e+3, 1.8794106e+2, -715440.1, -1049074.0, -32373.771, -0.05959034, 0.11988071, -712327.75, 385861.2, 0.00011320597, 10.003344, 9.998924 
2.1752177e+3, 1.9793938e+2, -742206.0, -1038187.56, -15889.993, -0.05739167, 0.06970733, -741355.4, 258848.03, 0.0, 10.002603, 9.998683 
2.1751687e+3, 2.0793815e+2, -745604.94, -971895.56, -21189.703, -0.04683289, 0.096466176, -743637.9, 158578.88, 0.0, 10.001831, 9.998837 
2.1751198e+3, 2.1793745e+2, -744691.44, -894195.8, -40744.906, -0.034246895, 0.14495245, -734308.25, 69917.91, 0.0, 10.00105, 9.999075 
2.1750708e+3, 2.2793698e+2, -674619.44, -667314.06, -28073.586, -0.035319105, 0.13354231, -642656.5, 63573.758, 0.0, 10.000245, 10.000347 
2.1750218e+3, 2.379369e+2, -718970.06, -678028.7, -5696.3345, -0.039795503, 0.10320572, -677250.9, -69021.25, 0.0, 9.99944, 9.999989 
2.1749732e+3, 2.4793679e+2, -721941.1, -645137.0, -11677.717, -0.035524096, 0.1289334, -643400.7, -133168.42, 0.0, 9.998817, 9.999842 
2.1749243e+3, 2.5793698e+2, -706554.8, -588271.44, -32480.953, -0.030610252, 0.16935582, -579939.06, -167706.05, 0.0, 9.998256, 9.99983 
2.1748757e+3, 2.6793694e+2, -655992.5, -438999.97, -24659.344, -0.03501927, 0.16767037, -436232.94, -121998.46, 0.0, 9.997611, 10.000492 
2.1748269e+3, 2.779372e+2, -665438.2, -410838.4, -12837.122, -0.038363874, 0.15257247, -410192.78, -193959.8, 0.0, 9.99695, 10.000332 
2.1747781e+3, 2.8793788e+2, -603989.3, -291966.25, -19186.47, -0.04673085, 0.19020015, -290790.9, -172562.39, 0.0, 9.996535, 10.000674 
2.174729e+3, 2.97939e+2, -574473.06, -250692.89, -19310.564, -0.07313854, 0.24565214, -249545.27, -229325.64, 0.0, 9.996166, 10.000462 
2.1746807e+3, 3.0793956e+2, -612962.4, -198793.9, -17958.865, -0.06756543, 0.2561587, -198016.66, -198016.66, 0.0, 9.995372, 10.000867 
2.1746328e+3, 3.1794006e+2, -583931.4, 73379.266, -84349.16, 0.006044564, 0.20820852, 84030.74, 84030.74, 0.0, 9.994465, 10.00317 
2.1855694e+3, 1.2800595e+2, -1002892.3, -1654908.5, 24460.096, -0.011976426, 0.064624906, -1001976.0, 683574.5, 0.1937191, 10.00755, 9.996822 
2.1855198e+3, 1.3800333e+2, -922097.94, -1573889.6, 23770.314, -0.07263635, 0.10133991, -921232.2, 666343.9, 0.1401289, 10.006995, 9.996938 
2.1854702e+3, 1.4800017e+2, -868018.2, -1511040.6, -3949.26, -0.05897719, 0.10965751, -867993.94, 621613.5, 0.08547792, 10.006313, 9.997009 
2.1854204e+3, 1.5799677e+2, -845605.4, -1471302.9, 361.08517, -0.04068056, 0.0784159, -845605.2, 546035.94, 0.040879514, 10.005576, 9.996964 
2.1853703e+3, 1.6799408e+2, -793595.5, -1328286.5, 10175.489, -0.040930755, 0.095688015, -793401.9, 500267.1, 0.013719093, 10.004824, 9.997636 
2.1853206e+3, 1.7799199e+2, -785974.75, -1257003.4, 9539.156, -0.04570966, 0.12843715, -785781.6, 409909.4, 0.002528071, 10.004077, 9.997813 
2.1852705e+3, 1.8799017e+2, -707049.75, -1042399.06, -6683.5654, -0.057520658, 0.120055735, -706916.6, 390791.06, 0.000117688316, 10.003395, 9.998942 
2.1852203e+3, 1.9798876e+2, -723025.6, -1025902.5, -18430.037, -0.07106978, 0.09643606, -721908.25, 277811.34, 0.0000000000000090331685, 10.002727, 9.998705 
2.1851704e+3, 2.0798741e+2, -739768.94, -965895.44, -2414.817, -0.05349262, 0.106253974, -739743.2, 161991.02, 0.0, 10.0018635, 9.99886 
2.1851209e+3, 2.1798642e+2, -760730.56, -902356.0, 18567.13, -0.026360374, 0.12599795, -758336.9, 45409.07, 0.0, 10.000947, 9.999065 
2.1850711e+3, 2.2798602e+2, -683711.0, -679447.06, 7376.846, -0.02635922, 0.12788287, -673900.3, 31849.24, 0.0, 10.000221, 10.000273 
2.1850212e+3, 2.3798612e+2, -706951.2, -679729.5, -15483.624, -0.034621917, 0.12249955, -672724.9, -64977.363, 0.0, 9.999559, 9.999917 
2.1849717e+3, 2.4798582e+2, -712612.94, -645853.9, 903.5949, -0.035817843, 0.13716616, -645841.6, -136089.7, 0.0, 9.998909, 9.99979 
2.1849224e+3, 2.5798574e+2, -708106.9, -591506.4, 17398.496, -0.03651179, 0.15708289, -588965.6, -177210.34, 0.0, 9.9982605, 9.999804 
2.184873e+3, 2.6798588e+2, -658035.44, -432920.34, 12630.387, -0.04004598, 0.16932075, -432213.94, -118458.83, 0.0, 9.997571, 10.000551 
2.1848238e+3, 2.7798638e+2, -673371.7, -410327.22, 2807.2703, -0.039332237, 0.17382741, -410297.28, -194546.23, 0.0, 9.996882, 10.000365 
2.1847747e+3, 2.8798673e+2, -627316.44, -303998.97, 6293.25, -0.03758377, 0.18097894, -303876.53, -186127.05, 0.0, 9.996383, 10.000662 
2.1847251e+3, 2.9798758e+2, -610518.0, -263800.06, 12179.114, -0.056814816, 0.20886712, -263372.78, -243629.36, 0.0, 9.995906, 10.000496 
2.1846758e+3, 3.07989e+2, -634640.94, -197256.28, 26791.742, -0.07578304, 0.30029723, -195621.28, -195621.28, 0.0, 9.995175, 10.00097 
2.1846272e+3, 3.1798932e+2, -584474.9, 65268.246, -29635.768, 0.015160373, 0.22547957, 66617.18, 66617.18, 0.0, 9.994499, 10.003096 
2.195576e+3, 1.2805605e+2, -1031858.9, -1720289.8, 5960.1826, -0.10797579, 0.05076569, -1031807.3, 653251.6, 0.19698645, 10.0075655, 9.996319 
2.1955274e+3, 1.3805337e+2, -944496.56, -1621476.8, 5165.5796, -0.01158284, 0.13256322, -944457.1, 642629.8, 0.14247358, 10.0069895, 9.996602 
2.195477e+3, 1.4805011e+2, -857759.0, -1485113.0, -28314.502, -0.009557156, 0.13312274, -856483.7, 632635.2, 0.08691591, 10.006304, 9.997196 
2.1954255e+3, 1.5804686e+2, -835720.06, -1449546.8, -25849.912, -0.074867286, 0.09651028, -834633.4, 556517.0, 0.041593105, 10.005573, 9.997118 
2.195375e+3, 1.6804397e+2, -787407.7, -1316893.6, -17313.0, -0.06953801, 0.08523449, -786842.25, 506337.06, 0.013982526, 10.0048275, 9.997715 
2.1953247e+3, 1.7804159e+2, -788908.4, -1265649.0, -17105.26, -0.03830747, 0.08313267, -788295.44, 406908.22, 0.002585611, 10.004084, 9.997753 
2.195274e+3, 1.8803997e+2, -732536.7, -1096739.4, -30286.13, -0.04832667, 0.119709775, -730035.4, 367184.47, 0.00012105641, 10.003396, 9.998571 
2.195223e+3, 1.980389e+2, -728993.5, -1038697.44, -44713.94, -0.07147644, 0.16233112, -722667.1, 276563.2, 0.00000000000007150772, 10.002723, 9.998621 
2.1951722e+3, 2.0803748e+2, -698262.3, -881474.75, -36384.11, -0.05601774, 0.13057098, -691301.3, 209942.63, 0.0, 10.001865, 9.999441 
2.1951216e+3, 2.1803628e+2, -746823.56, -876361.9, -12359.6, -0.028274624, 0.078573965, -745654.9, 57600.242, 0.0, 10.000955, 9.999243 
2.1950713e+3, 2.2803573e+2, -734951.8, -788877.1, -16703.389, -0.021267798, 0.10827775, -730197.2, -24935.648, 0.0, 10.00023, 9.99952 
2.1950208e+3, 2.380357e+2, -732680.44, -736047.8, -39530.523, -0.021536658, 0.15940574, -694797.75, -87534.445, 0.0, 9.999567, 9.999529 
2.1949707e+3, 2.4803539e+2, -677099.4, -575116.5, -23372.393, -0.02935039, 0.15490486, -570015.2, -60748.01, 0.0, 9.998917, 10.000275 
2.1949205e+3, 2.5803533e+2, -690073.06, -557019.3, -7726.818, -0.041066095, 0.13473327, -556572.06, -145303.72, 0.0, 9.998268, 10.000039 
2.1948704e+3, 2.6803562e+2, -679586.3, -480303.72, -14656.742, -0.053763177, 0.17231725, -479231.5, -165964.02, 0.0, 9.997578, 10.000225 
2.1948203e+3, 2.780362e+2, -685611.44, -437853.47, -21455.922, -0.059538487, 0.21649054, -436009.1, -220745.42, 0.0, 9.996886, 10.000177 
2.194771e+3, 2.8803617e+2, -616092.06, -283216.4, -12397.1875, -0.02868407, 0.18109398, -282755.34, -165489.94, 0.0, 9.996388, 10.000805 
2.1947214e+3, 2.9803666e+2, -587525.9, -220312.63, -11523.904, -0.012260784, 0.15623885, -219951.34, -200689.56, 0.0, 9.995918, 10.000792 
2.1946709e+3, 3.0803913e+2, -604686.6, -137526.4, -3225.3735, -0.06469915, 0.31304353, -137504.14, -137504.14, 0.0, 9.995182, 10.001379 
2.1946216e+3, 3.1803897e+2, -639092.8, -48887.402, -44340.18, 0.0018087204, 0.17815228, -45574.863, -45574.863, 0.0, 9.994498, 10.002315 
2.2055835e+3, 1.28107e+2, -1010446.0, -1719393.6, 14366.181, -0.113659576, 0.07633775, -1010155.0, 674404.8, 0.1999765, 10.007832, 9.996195 
2.2055341e+3, 1.3810378e+2, -949673.2, -1632268.5, 33953.055, -0.0009627896, 0.11853356, -947988.5, 638604.4, 0.14461657, 10.007001, 9.996523 
2.2054832e+3, 1.4810045e+2, -868459.0, -1483507.1, 1141.6814, 0.004860573, 0.11104652, -868456.9, 620168.56, 0.08822797, 10.006205, 9.997253 
2.2054309e+3, 1.5809748e+2, -853304.94, -1451845.6, -3124.7744, -0.08155336, 0.09825313, -853288.6, 537365.4, 0.04224395, 10.005426, 9.99717 
2.2053795e+3, 1.6809474e+2, -792485.75, -1312715.8, 4290.6006, -0.07837132, 0.09716191, -792450.4, 500231.03, 0.014223591, 10.004768, 9.997769 
2.2053286e+3, 1.780924e+2, -779954.4, -1259724.9, 1462.0841, -0.039237715, 0.09513121, -779949.94, 414755.25, 0.0026384601, 10.004144, 9.997763 
2.2052771e+3, 1.8809053e+2, -758502.94, -1119391.6, -1395.502, -0.038727958, 0.1128525, -758497.56, 338226.3, 0.00012397267, 10.003266, 9.998476 
2.2052254e+3, 1.9808917e+2, -789960.6, -1072303.9, 1287.1986, -0.0535397, 0.13598078, -789954.75, 208782.56, 0.00000000000029186663, 10.002327, 9.998579 
2.2051738e+3, 2.0808794e+2, -716415.7, -879278.6, -10504.573, -0.051712044, 0.12136777, -715740.94, 185007.94, 0.0, 10.0016985, 9.999535 
2.2051223e+3, 2.1808708e+2, -715661.9, -859041.8, -19147.506, -0.042290673, 0.093556136, -713148.9, 89608.0, 0.0, 10.0011635, 9.999258 
2.2050713e+3, 2.2808628e+2, -715071.94, -796661.5, 507.9973, -0.030214062, 0.10933792, -715068.75, -10303.143, 0.0, 10.000446, 9.999359 
2.2050202e+3, 2.3808585e+2, -726933.8, -746429.4, 17731.66, -0.018760478, 0.13794836, -716447.2, -109675.88, 0.0, 9.999669, 9.999406 
2.2049695e+3, 2.480856e+2, -685188.56, -580535.75, 15222.966, -0.022478983, 0.14537063, -578366.4, -69591.39, 0.0, 9.998873, 10.000256 
2.2049187e+3, 2.5808576e+2, -717913.94, -570636.8, -3001.2434, -0.032888614, 0.14567038, -570575.6, -159800.89, 0.0, 9.998083, 10.000032 
2.2048679e+3, 2.6808596e+2, -686418.4, -480064.25, 4338.9453, -0.050944913, 0.18001008, -479973.06, -167199.0, 0.0, 9.99752, 10.000252 
2.2048171e+3, 2.780865e+2, -666171.3, -425100.25, 21972.08, -0.063103236, 0.2162032, -423114.0, -208343.33, 0.0, 9.99701, 10.000202 
2.204767e+3, 2.880865e+2, -634869.1, -288408.8, 29415.996, -0.025834233, 0.18416317, -285929.03, -169157.3, 0.0, 9.996248, 10.000834 
2.2047171e+3, 2.9808703e+2, -645985.9, -228985.94, 19991.295, -0.0001096817, 0.15782216, -228029.73, -209262.08, 0.0, 9.99544, 10.000959 
2.204666e+3, 3.0808955e+2, -633211.5, -115465.08, 17392.2, -0.059899766, 0.29106107, -114881.49, -114881.49, 0.0, 9.994838, 10.001694 
2.2046159e+3, 3.180899e+2, -673739.1, -86795.82, -6402.8755, 0.010726821, 0.18975997, -86725.984, -86725.984, 0.0, 9.994355, 10.002121 
2.2155918e+3, 1.2815878e+2, -1006448.9, -1698796.9, -9448.523, -0.052263275, 0.136944, -1006319.94, 677733.2, 0.20273137, 10.007809, 9.996349 
2.2155407e+3, 1.3815461e+2, -947558.4, -1618862.0, 7681.8945, -0.034180705, 0.06703437, -947470.44, 638623.25, 0.14658882, 10.006976, 9.996627 
2.2154893e+3, 1.481512e+2, -873574.4, -1493498.8, -25161.488, -0.010495445, 0.05128208, -872554.8, 615572.4, 0.089437604, 10.006201, 9.997188 
2.2154362e+3, 1.5814863e+2, -854863.8, -1458794.0, -28668.19, -0.065006845, 0.0874473, -853506.0, 536646.1, 0.042848732, 10.005439, 9.99712 
2.2153842e+3, 1.6814633e+2, -790926.6, -1310514.3, -17533.377, -0.07096082, 0.12976582, -790335.6, 501840.1, 0.014450927, 10.004769, 9.997787 
2.2153325e+3, 1.7814432e+2, -777463.44, -1252751.0, -24995.95, -0.04835262, 0.15737331, -776152.5, 418044.13, 0.0026895422, 10.004131, 9.997819 
2.2152802e+3, 1.8814178e+2, -748663.1, -1099937.5, -36813.44, -0.029237181, 0.098725855, -744846.56, 351373.94, 0.00012699867, 10.003265, 9.998612 
2.2152281e+3, 1.9813958e+2, -790000.56, -1076359.9, -28742.96, -0.019109635, 0.024979942, -787144.0, 211096.88, 0.0, 10.002339, 9.998548 
2.2151755e+3, 2.081388e+2, -741588.1, -935025.75, -29330.955, -0.041414667, 0.08228089, -737238.5, 163010.94, 0.0, 10.001709, 9.999149 
2.2151233e+3, 2.1813872e+2, -724962.06, -880358.75, -40620.99, -0.068525344, 0.16885783, -714984.3, 87267.44, 0.0, 10.001167, 9.999113 
2.2150713e+3, 2.2813758e+2, -686176.56, -738967.2, -27831.133, -0.053236008, 0.12984444, -674214.56, 30047.9, 0.0, 10.000451, 9.999756 
2.2150198e+3, 2.381365e+2, -718494.0, -731519.9, -11151.535, -0.026378741, 0.05823488, -712092.8, -105820.56, 0.0, 9.999675, 9.999508 
2.2149682e+3, 2.4813637e+2, -722200.1, -659979.7, -15289.51, -0.015248527, 0.10896297, -656425.56, -148149.3, 0.0, 9.998879, 9.99971 
2.2149168e+3, 2.5813684e+2, -735440.7, -609540.94, -30091.203, -0.011891042, 0.19122773, -602718.56, -192443.17, 0.0, 9.998089, 9.999764 
2.2148655e+3, 2.6813686e+2, -658640.06, -425410.44, -15133.627, -0.030932551, 0.19177315, -424432.56, -112156.734, 0.0, 9.997528, 10.000626 
2.2148143e+3, 2.7813715e+2, -648797.2, -392768.34, -2007.1022, -0.049758855, 0.16826417, -392752.63, -178479.34, 0.0, 9.997022, 10.000422 
2.2147632e+3, 2.8813773e+2, -642433.5, -306052.0, -3801.0586, -0.03112138, 0.19147646, -306009.03, -189739.78, 0.0, 9.996251, 10.000714 
2.2147122e+3, 2.981387e+2, -646375.1, -229107.13, -8674.397, -0.024826203, 0.2238018, -228926.88, -210665.53, 0.0, 9.995431, 10.000966 
2.2146606e+3, 3.0814007e+2, -617504.44, -83372.58, -5819.152, -0.060873307, 0.22228944, -83309.19, -83309.19, 0.0, 9.994834, 10.001919 
2.2146103e+3, 3.1814194e+2, -652873.25, -49982.37, -10963.843, 0.035859782, 0.25243908, -49783.055, -49783.055, 0.0, 9.994376, 10.002367 
2.2255996e+3, 1.2821072e+2, -1014998.44, -1686809.9, 5906.344, -0.029052552, 0.14099781, -1014946.5, 668597.7, 0.20530103, 10.007688, 9.996489 
2.2255474e+3, 1.3820666e+2, -985382.75, -1623269.0, 26848.352, -0.046013705, 0.06203576, -984254.75, 601328.25, 0.14842473, 10.006616, 9.99677 
2.2254951e+3, 1.4820315e+2, -891558.75, -1503134.3, 7945.103, -0.012009417, 0.03340631, -891455.56, 596161.5, 0.090567, 10.006078, 9.997178 
2.225442e+3, 1.5820064e+2, -821729.7, -1444544.6, 4474.4297, -0.057319365, 0.07612312, -821697.5, 567944.1, 0.043420408, 10.005695, 9.997092 
2.2253889e+3, 1.6819827e+2, -801881.0, -1322315.9, 4631.627, -0.06244662, 0.11849316, -801839.8, 489826.2, 0.014670445, 10.004726, 9.9977255 
2.2253361e+3, 1.7819615e+2, -854502.94, -1290029.9, -5364.2188, -0.04017255, 0.14244269, -854436.9, 339251.2, 0.0027406537, 10.003605, 9.997815 
2.2252834e+3, 1.8819375e+2, -773720.7, -1098010.6, -13931.839, -0.024929142, 0.08960832, -773123.25, 322587.16, 0.0001305314, 10.003037, 9.9987335 
2.2252302e+3, 1.981917e+2, -749091.94, -1057529.9, -8703.56, -0.019749597, 0.022913761, -748846.56, 248882.36, 0.000000000039864764, 10.002628, 9.998536 
2.2251773e+3, 2.0819066e+2, -742594.6, -968114.06, -6419.3535, -0.039052114, 0.07388536, -742412.06, 157328.5, 0.0, 10.001848, 9.998853 
2.2251242e+3, 2.1819024e+2, -765122.06, -915527.25, -12539.236, -0.061571226, 0.15275833, -764083.9, 37663.2, 0.0, 10.000966, 9.998966 
2.2250715e+3, 2.2818926e+2, -694262.9, -721409.0, -9744.649, -0.05302078, 0.122988686, -691127.1, 12628.912, 0.0, 10.000309, 9.999942 
2.2250193e+3, 2.3818845e+2, -707995.1, -718151.75, -8270.5, -0.03548233, 0.063188866, -703368.25, -97605.68, 0.0, 9.999718, 9.999577 
2.224967e+3, 2.4818815e+2, -714358.75, -675208.7, 2897.181, -0.022818202, 0.108417, -674995.5, -167227.23, 0.0, 9.999022, 9.999534 
2.2249147e+3, 2.5818837e+2, -712095.7, -606127.2, 15462.81, -0.014155423, 0.18084617, -603917.0, -194146.72, 0.0, 9.998289, 9.999688 
2.2248627e+3, 2.6818845e+2, -645327.25, -401753.56, 27445.379, -0.028592935, 0.17876637, -398699.38, -86929.25, 0.0, 9.997552, 10.000773 
2.224811e+3, 2.7818888e+2, -672899.75, -393629.75, 21780.428, -0.04420964, 0.15750024, -391941.28, -178175.64, 0.0, 9.996816, 10.000511 
2.2247593e+3, 2.8818953e+2, -661717.7, -316915.4, 17884.096, -0.032557957, 0.19226179, -315990.28, -200229.66, 0.0, 9.996131, 10.000695 
2.2247073e+3, 2.9819053e+2, -647274.5, -234585.52, 20275.79, -0.03350544, 0.22595963, -233591.73, -215838.45, 0.0, 9.995452, 10.000916 
2.2246553e+3, 3.081916e+2, -633269.7, -88569.04, 8420.218, -0.052153956, 0.19943623, -88438.91, -88438.91, 0.0, 9.994722, 10.001934 
2.2246045e+3, 3.1819358e+2, -680890.44, -31505.174, 10248.797, 0.038172316, 0.2315657, -31343.465, -31343.465, 0.0, 9.994055, 10.0026455 
2.2356069e+3, 1.2826297e+2, -1012721.94, -1673488.8, -24573.227, -0.040345993, 0.10531169, -1011809.4, 671222.44, 0.20772958, 10.007664, 9.99661 
2.235554e+3, 1.3825981e+2, -976670.9, -1600245.6, -1553.9933, -0.04036391, 0.09655041, -976667.0, 608394.5, 0.15016305, 10.006616, 9.996928 
2.2355013e+3, 1.4825621e+2, -892093.8, -1501542.6, -4017.1013, -0.0024081438, 0.05088693, -892067.4, 595028.8, 0.091641985, 10.006066, 9.997197 
2.2354473e+3, 1.582534e+2, -828382.1, -1452340.8, -17323.785, -0.058823436, 0.06352425, -827901.56, 561221.75, 0.043971054, 10.005664, 9.997056 
2.2353935e+3, 1.6825055e+2, -812635.0, -1343442.4, -37664.375, -0.054491818, 0.06870522, -809975.75, 481176.53, 0.014886579, 10.004715, 9.997588 
2.23534e+3, 1.78248e+2, -856764.9, -1299625.3, -38218.438, -0.01717895, 0.06074644, -853490.8, 339688.06, 0.0027932883, 10.003621, 9.997744 
2.2352864e+3, 1.8824641e+2, -765737.2, -1085566.6, -27448.285, -0.025668126, 0.08703853, -763398.7, 331795.25, 0.00013499039, 10.00305, 9.998816 
2.2352324e+3, 1.9824544e+2, -749895.06, -1060721.8, -29002.527, -0.053029917, 0.121318355, -747212.06, 249990.52, 0.0000000005492505, 10.00263, 9.998515 
2.235179e+3, 2.0824344e+2, -757340.1, -1000971.75, -39529.965, -0.043995347, 0.092709795, -751086.75, 148136.33, 0.0, 10.001852, 9.998628 
2.2351255e+3, 2.1824156e+2, -775165.75, -939554.5, -41088.6, -0.023104275, 0.049010213, -765467.9, 35775.117, 0.0, 10.000975, 9.998799 
2.235072e+3, 2.282412e+2, -695873.4, -727816.75, -30719.389, -0.030847944, 0.091004215, -677221.75, 26025.018, 0.0, 10.000317, 9.999896 
2.2350188e+3, 2.382416e+2, -705269.25, -715139.7, -31536.549, -0.04682741, 0.15278545, -678284.06, -73040.984, 0.0, 9.999723, 9.999597 
2.2349656e+3, 2.4824087e+2, -700310.06, -648867.6, -24742.3, -0.045757275, 0.14301215, -638899.06, -131647.34, 0.0, 9.999028, 9.999714 
2.2349128e+3, 2.582402e+2, -704063.4, -592723.56, -12433.146, -0.040914662, 0.112636894, -591352.06, -182091.78, 0.0, 9.998298, 9.999779 
2.23486e+3, 2.6824054e+2, -651912.25, -418163.5, -1550.9281, -0.04515036, 0.1406748, -418153.2, -106895.39, 0.0, 9.997559, 10.000661 
2.2348076e+3, 2.7824154e+2, -676290.2, -402876.6, -6587.9233, -0.04725412, 0.18521224, -402717.94, -189469.14, 0.0, 9.99682, 10.000448 
2.2347553e+3, 2.882419e+2, -656042.6, -307030.6, -9318.16, -0.029815799, 0.18464878, -306781.97, -191534.89, 0.0, 9.996135, 10.000764 
2.2347027e+3, 2.9824233e+2, -656544.06, -256105.84, -7724.563, -0.025119044, 0.16074835, -255956.89, -238712.06, 0.0, 9.995457, 10.000768 
2.2346501e+3, 3.08244e+2, -652637.56, -130897.61, -22506.064, -0.03316358, 0.22482476, -129928.57, -129928.57, 0.0, 9.994725, 10.001645 
2.2345981e+3, 3.182458e+2, -654674.6, 17502.217, -5371.966, 0.0068424516, 0.24679008, 17545.146, 17545.146, 0.0, 9.994069, 10.002979 
2.2456145e+3, 1.2831613e+2, -1036711.75, -1692599.4, -937.397, -0.04171778, 0.08004992, -1036710.4, 645799.3, 0.21004169, 10.00751, 9.996533 
2.2455603e+3, 1.3831323e+2, -956238.7, -1581750.5, 12041.419, -0.044080626, 0.09457472, -956007.0, 628530.3, 0.15183468, 10.006766, 9.996984 
2.2455071e+3, 1.483097e+2, -918871.9, -1511778.4, 14416.23, 0.005181086, 0.051965397, -918521.56, 568050.0, 0.09268585, 10.005858, 9.997225 
2.2454527e+3, 1.583069e+2, -924927.6, -1496284.3, 1373.6272, -0.047612865, 0.064298406, -924924.3, 463674.4, 0.044510834, 10.004957, 9.997093 
2.245398e+3, 1.6830401e+2, -850777.75, -1351876.0, -10548.653, -0.047996577, 0.05957109, -850555.8, 440072.0, 0.015102261, 10.004411, 9.997675 
2.2453438e+3, 1.7830141e+2, -810344.25, -1278837.6, 2684.7378, -0.015412855, 0.0399117, -810328.9, 382325.72, 0.0028486773, 10.003953, 9.997725 
2.2452892e+3, 1.8829982e+2, -759512.56, -1107976.5, 3832.2366, -0.022667507, 0.083053045, -759470.44, 335199.88, 0.0001407693, 10.003207, 9.998584 
2.2452348e+3, 1.9829886e+2, -793950.56, -1095623.3, -18697.697, -0.04849701, 0.14201216, -792796.06, 203883.61, 0.0000000024737916, 10.002392, 9.998388 
2.2451806e+3, 2.0829675e+2, -758612.06, -989810.4, -19505.781, -0.042472627, 0.09939249, -756977.94, 141722.97, 0.0, 10.001798, 9.998728 
2.2451265e+3, 2.182947e+2, -733823.7, -918880.5, -931.74664, -0.024814026, 0.030118756, -733819.0, 66902.76, 0.0, 10.00126, 9.998802 
2.2450723e+3, 2.2829436e+2, -687113.44, -744278.4, 5330.335, -0.033490542, 0.08630589, -686620.6, 16105.352, 0.0, 10.000471, 9.999706 
2.2450183e+3, 2.382948e+2, -725190.0, -731599.4, -4519.0547, -0.050291333, 0.17363155, -722854.7, -118132.164, 0.0, 9.999622, 9.99953 
2.2449645e+3, 2.4829401e+2, -692342.7, -621958.94, 2553.117, -0.05253825, 0.14638756, -621866.5, -115135.414, 0.0, 9.99899, 9.999914 
2.2449109e+3, 2.5829324e+2, -682336.8, -571549.7, 14151.875, -0.051000163, 0.087416306, -569770.5, -161030.95, 0.0, 9.998407, 9.999868 
2.2448574e+3, 2.6829368e+2, -653600.4, -434463.53, 19156.715, -0.050260596, 0.1306415, -432801.47, -122064.805, 0.0, 9.99762, 10.000516 
2.2448042e+3, 2.7829474e+2, -689303.5, -417496.6, 12770.555, -0.04595114, 0.19921021, -416897.9, -204170.36, 0.0, 9.996774, 10.000367 
2.2447512e+3, 2.882949e+2, -668749.8, -305376.7, 10577.057, -0.03158376, 0.1805207, -305069.06, -190341.66, 0.0, 9.99602, 10.000827 
2.244698e+3, 2.9829523e+2, -680552.9, -267753.72, 13630.762, -0.0277493, 0.13952394, -267304.13, -250578.14, 0.0, 9.995298, 10.00076 
2.2446448e+3, 3.082972e+2, -640783.0, -127249.8, 22498.168, -0.017196627, 0.23566662, -126266.03, -126266.03, 0.0, 9.9948225, 10.001619 
2.2445919e+3, 3.182987e+2, -636290.2, -6697.289, 45217.426, -0.024345025, 0.23268522, -3466.3494, -3466.3494, 0.0, 9.994345, 10.002677 
2.2556219e+3, 1.2837015e+2, -1056479.1, -1731311.0, -19886.729, -0.037615426, 0.06406737, -1055893.5, 626085.0, 0.21223117, 10.007466, 9.996292 
2.2555669e+3, 1.3836697e+2, -962933.1, -1590765.6, -13300.773, -0.058471583, 0.0627797, -962651.5, 621358.3, 0.1534425, 10.0067425, 9.996933 
2.2555126e+3, 1.4836365e+2, -919084.9, -1510365.8, -17025.21, 0.008050257, 0.039971814, -918595.06, 567447.8, 0.09370515, 10.005851, 9.997241 
2.2554575e+3, 1.5836114e+2, -917942.56, -1483454.3, -25702.262, -0.026041247, 0.07759173, -916776.8, 471291.06, 0.045044072, 10.004964, 9.997181 
2.2554024e+3, 1.6835858e+2, -832486.06, -1315754.0, -26580.107, -0.042472783, 0.0862618, -831028.56, 459064.63, 0.015318774, 10.004416, 9.997923 
2.2553472e+3, 1.7835623e+2, -810785.75, -1280523.0, -18912.164, -0.033119608, 0.07243691, -810025.56, 382090.88, 0.002907266, 10.003951, 9.997717 
2.2552925e+3, 1.8835391e+2, -795569.06, -1184260.9, -26905.12, -0.017034568, 0.07688704, -793715.56, 300424.7, 0.0001480046, 10.003208, 9.998062 
2.2552375e+3, 1.9835204e+2, -808373.75, -1128389.1, -44520.242, -0.009836565, 0.09156223, -802295.56, 193864.19, 0.0000000066937957, 10.0023985, 9.998163 
2.2551824e+3, 2.0835055e+2, -731168.6, -935574.7, -37613.086, -0.035690267, 0.09588897, -724467.06, 173707.14, 0.0, 10.001804, 9.9991 
2.255127e+3, 2.183495e+2, -723699.44, -899656.5, -23722.785, -0.065406166, 0.09306639, -720557.2, 79627.12, 0.0, 10.001262, 9.998935 
2.2550723e+3, 2.2834855e+2, -710556.75, -795247.5, -26404.01, -0.059967726, 0.10728196, -702999.2, -804.5198, 0.0, 10.000476, 9.999357 
2.2550178e+3, 2.3834799e+2, -735781.7, -756408.06, -32948.254, -0.046041336, 0.12538524, -711570.25, -107368.67, 0.0, 9.999629, 9.999359 
2.2549634e+3, 2.4834749e+2, -676948.94, -592980.8, -18890.37, -0.043408293, 0.11889631, -588926.8, -82719.76, 0.0, 9.998998, 10.000112 
2.2549091e+3, 2.5834736e+2, -676315.8, -562373.2, -11334.09, -0.044423204, 0.10664015, -561256.7, -153047.95, 0.0, 9.998417, 9.999929 
2.254855e+3, 2.6834765e+2, -666139.2, -463175.0, -14340.495, -0.04355959, 0.14975207, -462166.78, -151959.2, 0.0, 9.997626, 10.000319 
2.2548011e+3, 2.7834836e+2, -697308.0, -436224.4, -19118.258, -0.040295344, 0.19982107, -434831.88, -222628.89, 0.0, 9.996778, 10.00024 
2.254747e+3, 2.883485e+2, -665403.25, -300321.8, -19104.752, -0.03908928, 0.18039398, -299324.78, -185122.02, 0.0, 9.996023, 10.000863 
2.2546929e+3, 2.9834908e+2, -670329.4, -249471.72, -12440.793, -0.044631295, 0.16170971, -249104.28, -232906.33, 0.0, 9.995305, 10.000886 
2.2546397e+3, 3.0835104e+2, -622859.3, -94468.586, 6792.2725, -0.0034874952, 0.23735344, -94381.29, -94381.29, 0.0, 9.994836, 10.001842 
2.2545856e+3, 3.183519e+2, -693110.06, -129648.9, 15025.804, -0.06337466, 0.16867217, -129248.49, -129248.49, 0.0, 9.99436, 10.001828 
2.2656292e+3, 1.284247e+2, -1106230.6, -1742566.6, 351.5275, -0.007784191, 0.047323156, -1106230.4, 575213.06, 0.21425633, 10.00697, 9.99645 
2.265573e+3, 1.3842185e+2, -984597.6, -1583333.0, 18722.467, -0.081863895, 0.05378435, -984012.75, 599458.8, 0.15495181, 10.006496, 9.997101 
2.2655183e+3, 1.4841862e+2, -932302.6, -1523824.6, 13580.165, -0.004296252, 0.042228308, -931991.0, 553512.8, 0.09468032, 10.005789, 9.997175 
2.2654626e+3, 1.5841603e+2, -906192.7, -1481044.5, 3173.5854, -0.0138969, 0.07903933, -906175.1, 481355.03, 0.045564167, 10.005072, 9.997142 
2.2654067e+3, 1.6841356e+2, -833389.3, -1312450.5, -4075.2576, -0.03380693, 0.09586663, -833354.6, 456200.1, 0.015534329, 10.004401, 9.99795 
2.2653508e+3, 1.7841135e+2, -840934.7, -1292937.3, -11342.742, -0.03547175, 0.0935001, -840650.25, 350926.44, 0.0029681637, 10.00374, 9.99773 
2.2652954e+3, 1.8840888e+2, -813769.7, -1193807.6, -350.0932, -0.015336594, 0.08377787, -813769.4, 279832.44, 0.0001564385, 10.003093, 9.99805 
2.2652398e+3, 1.9840676e+2, -803312.1, -1128154.3, 13633.457, -0.00041228163, 0.07712609, -802740.94, 192882.72, 0.000000012732063, 10.002448, 9.998138 
2.2651838e+3, 2.0840536e+2, -743452.4, -944902.94, 7699.106, -0.03631797, 0.09414353, -743158.56, 154478.69, 0.0, 10.00174, 9.9990635 
2.2651279e+3, 2.1840449e+2, -761587.3, -922500.0, -6624.0337, -0.080047734, 0.11340989, -761315.1, 38330.492, 0.0, 10.001028, 9.998888 
2.2650725e+3, 2.2840331e+2, -720751.44, -807715.6, -2372.0159, -0.06923334, 0.11364899, -720686.8, -19028.762, 0.0, 10.000444, 9.999284 
2.2650173e+3, 2.3840246e+2, -703758.06, -746469.1, 8641.276, -0.044767432, 0.10795107, -702076.0, -98407.92, 0.0, 9.999878, 9.999305 
2.2649623e+3, 2.4840206e+2, -674699.2, -591430.1, 13896.061, -0.038581952, 0.116005085, -589172.3, -83499.87, 0.0, 9.999017, 10.000111 
2.2649075e+3, 2.5840217e+2, -725182.94, -587216.25, 8434.009, -0.038004946, 0.12898593, -586702.56, -179030.67, 0.0, 9.998093, 9.999912 
2.2648525e+3, 2.6840234e+2, -687291.06, -475611.47, 13611.231, -0.0380409, 0.16283596, -474739.84, -165067.72, 0.0, 9.997498, 10.000292 
2.2647975e+3, 2.7840284e+2, -670412.06, -422169.6, 18678.125, -0.03665525, 0.19372804, -420772.1, -209102.22, 0.0, 9.9969635, 10.000243 
2.2647429e+3, 2.884031e+2, -647777.3, -282929.94, 19572.629, -0.041720837, 0.18245426, -281882.94, -168214.64, 0.0, 9.996112, 10.0009365 
2.264688e+3, 2.9840392e+2, -679891.4, -246729.98, 32769.777, -0.05368392, 0.18283246, -244264.9, -228604.11, 0.0, 9.995215, 10.000944 
2.2646342e+3, 3.0840564e+2, -645664.7, -118675.805, 44026.4, -0.006618943, 0.2400902, -115023.016, -115023.016, 0.0, 9.994742, 10.001717 
2.2645795e+3, 3.1840664e+2, -711440.56, -119082.77, 21293.299, -0.0721732, 0.20057237, -118318.336, -118318.336, 0.0, 9.994155, 10.001998 
2.2756365e+3, 1.2847978e+2, -1083440.1, -1677085.0, -9001.797, 0.03619008, 0.029449439, -1083303.6, 597600.3, 0.2160576, 10.006954, 9.996916 
2.2755791e+3, 1.3847774e+2, -967322.06, -1544124.0, -1044.9121, -0.1133208, 0.06445843, -967320.1, 615603.1, 0.1563101, 10.006485, 9.997425 
2.2755237e+3, 1.4847457e+2, -943197.25, -1547713.4, -12460.273, -0.028739972, 0.056519877, -942940.56, 542014.56, 0.09557592, 10.005783, 9.997017 
2.2754675e+3, 1.5847158e+2, -918319.6, -1506819.4, -22194.71, -0.01094729, 0.07029176, -917483.75, 469501.97, 0.046054818, 10.005066, 9.996971 
2.2754109e+3, 1.6846897e+2, -845702.06, -1338633.4, -27896.063, -0.024202477, 0.090910345, -844128.4, 444884.03, 0.015743561, 10.004397, 9.997775 
2.2753547e+3, 1.7846677e+2, -838548.7, -1289656.9, -34532.277, -0.024908442, 0.1046079, -835920.56, 355114.28, 0.003029613, 10.003742, 9.997754 
2.2752984e+3, 1.8846466e+2, -783842.5, -1133873.9, -23586.205, -0.017300561, 0.102368526, -782260.4, 310795.16, 0.00016557239, 10.003097, 9.998462 
2.2752419e+3, 1.984629e+2, -794219.44, -1111171.8, -11301.009, -0.018110558, 0.096339636, -793817.06, 201255.42, 0.00000001851255, 10.002451, 9.998257 
2.2751853e+3, 2.0846108e+2, -772317.0, -1007373.44, -18885.984, -0.043852895, 0.09407409, -770809.25, 126281.6, 0.0, 10.001746, 9.998635 
2.275129e+3, 2.1845959e+2, -775796.7, -955136.75, -30028.77, -0.07041683, 0.09232838, -770902.25, 28203.791, 0.0, 10.001036, 9.998663 
2.275073e+3, 2.284586e+2, -707380.3, -782744.5, -21818.709, -0.06258469, 0.105829835, -701519.4, -402.73978, 0.0, 10.000451, 9.9994545 
2.275017e+3, 2.3845808e+2, -699943.2, -741139.5, -16468.406, -0.046760865, 0.122002855, -694169.2, -91046.445, 0.0, 9.999884, 9.999341 
2.2749612e+3, 2.4845764e+2, -689401.94, -624500.44, -22263.541, -0.038072303, 0.13845211, -617597.44, -112469.37, 0.0, 9.9990225, 9.999884 
2.2749053e+3, 2.5845754e+2, -731892.8, -603636.75, -22031.006, -0.032545064, 0.1536645, -599957.94, -192827.98, 0.0, 9.998098, 9.9998 
2.2748499e+3, 2.6845762e+2, -677074.06, -457173.03, -6578.527, -0.03439643, 0.1690639, -456976.4, -147845.16, 0.0, 9.997503, 10.000418 
2.2747944e+3, 2.7845803e+2, -660332.9, -405002.28, -7709.4634, -0.03553847, 0.18071745, -404769.72, -193640.61, 0.0, 9.996974, 10.000359 
2.2747387e+3, 2.8845856e+2, -640773.25, -270887.1, -17238.164, -0.039152145, 0.18707637, -270085.47, -156960.6, 0.0, 9.996118, 10.0010195 
2.2746831e+3, 2.984596e+2, -682244.5, -253543.86, 4949.7085, -0.055047557, 0.20112178, -253486.72, -238371.06, 0.0, 9.995218, 10.000899 
2.2746287e+3, 3.084609e+2, -679053.25, -190749.98, 27075.686, -0.029781157, 0.24572746, -189253.27, -189253.27, 0.0, 9.994748, 10.001222 
2.2745737e+3, 3.184616e+2, -626935.8, 56959.313, -26642.555, -0.07476687, 0.20731919, 57995.66, 57995.66, 0.0, 9.994148, 10.003212 
2.2856428e+3, 1.2853596e+2, -1090309.0, -1681735.3, 30694.902, 0.009005875, 0.030871088, -1088720.1, 591633.6, 0.21757506, 10.006913, 9.996898 
2.2855854e+3, 1.3853413e+2, -982151.3, -1545408.1, 7536.337, -0.09124489, 0.08549208, -982050.5, 600320.75, 0.15746598, 10.006347, 9.9974785 
2.2855292e+3, 1.48531e+2, -963493.56, -1552802.6, -4802.704, -0.016927915, 0.07617343, -963454.44, 520948.03, 0.0963518, 10.005615, 9.997059 
2.2854722e+3, 1.5852773e+2, -937726.56, -1511101.9, -761.4936, -0.021757388, 0.057351425, -937725.5, 448709.88, 0.046491522, 10.00491, 9.997013 
2.2854151e+3, 1.6852511e+2, -858808.94, -1338842.4, 9585.14, -0.0297802, 0.07500436, -858617.6, 429844.25, 0.01593616, 10.004287, 9.997823 
2.2853582e+3, 1.7852305e+2, -847929.8, -1291022.1, 14004.046, -0.01912747, 0.09924076, -847487.7, 342995.3, 0.0030887914, 10.00367, 9.997776 
2.2853012e+3, 1.8852104e+2, -797539.5, -1140508.6, 4161.2197, -0.021279603, 0.10698081, -797489.0, 295013.94, 0.00017479192, 10.003009, 9.998455 
2.2852442e+3, 1.9851935e+2, -809359.8, -1117995.3, -9767.862, -0.036035527, 0.10736038, -809050.94, 185468.56, 0.000000023014687, 10.002352, 9.998254 
2.285187e+3, 2.085174e+2, -768454.6, -1004680.8, 365.6907, -0.048703115, 0.094535775, -768454.06, 128084.71, 0.0, 10.001775, 9.998636 
2.2851299e+3, 2.1851577e+2, -753910.75, -948008.4, 15460.201, -0.055922285, 0.07972596, -752687.0, 45868.203, 0.0, 10.001206, 9.998627 
2.2850733e+3, 2.2851482e+2, -713824.2, -794236.44, 14067.006, -0.04960795, 0.104102895, -711434.4, -10868.614, 0.0, 10.000448, 9.999374 
2.2850168e+3, 2.3851438e+2, -738802.4, -767187.94, 1347.1959, -0.04108091, 0.13622127, -738738.6, -136167.08, 0.0, 9.999655, 9.9992695 
2.28496e+3, 2.4851377e+2, -689824.06, -630573.7, -330.91827, -0.03861444, 0.14510244, -630571.8, -125993.51, 0.0, 9.99905, 9.9998255 
2.2849034e+3, 2.5851348e+2, -679979.4, -579807.5, 11386.872, -0.038423475, 0.14747363, -578529.44, -171947.38, 0.0, 9.998465, 9.9997835 
2.2848472e+3, 2.6851365e+2, -671377.5, -447396.22, 24884.773, -0.035206605, 0.16985983, -444664.78, -136082.52, 0.0, 9.997518, 10.000476 
2.2847913e+3, 2.7851427e+2, -724155.7, -427843.34, 19179.338, -0.026579177, 0.1938177, -426607.1, -216028.8, 0.0, 9.996508, 10.000424 
2.2847348e+3, 2.8851464e+2, -651887.44, -266901.25, 11029.983, -0.026446529, 0.18125468, -266585.47, -154010.3, 0.0, 9.996006, 10.001098 
2.2846782e+3, 2.9851544e+2, -631161.25, -232912.34, 31850.943, -0.051167835, 0.16633055, -230381.06, -215812.75, 0.0, 9.995591, 10.000858 
2.2846231e+3, 3.0851746e+2, -728455.5, -243650.89, 57112.824, -0.051395778, 0.30220154, -237013.53, -237013.53, 0.0, 9.994539, 10.0009575 
2.2845672e+3, 3.18517e+2, -664925.6, 150073.05, 10306.468, -0.08189512, 0.1527788, 150203.36, 150203.36, 0.0, 9.993417, 10.004199 
2.2956489e+3, 1.2859306e+2, -1112170.4, -1740296.6, 16878.834, -0.075587176, 0.042082936, -1111717.1, 568077.25, 0.21874641, 10.006922, 9.996491 
2.2955923e+3, 1.3859108e+2, -995608.25, -1568412.5, -13414.771, -0.02671436, 0.11470509, -995294.25, 586520.7, 0.1583711, 10.006324, 9.997304 
2.2955352e+3, 1.4858797e+2, -953859.4, -1527710.5, -29325.904, 0.022210654, 0.100161895, -952364.56, 531480.7, 0.096969165, 10.005599, 9.997243 
2.2954768e+3, 1.5858448e+2, -924658.3, -1482955.4, -24219.164, -0.04522797, 0.04046839, -923609.7, 462269.44, 0.04684674, 10.004908, 9.9972105 
2.2954191e+3, 1.6858199e+2, -843677.25, -1308285.4, -12614.103, -0.04831101, 0.0494209, -843335.0, 444568.5, 0.016098328, 10.004288, 9.998035 
2.2953618e+3, 1.7858015e+2, -848199.94, -1292976.1, -9829.099, -0.017822562, 0.080220595, -847982.8, 341939.0, 0.0031415024, 10.003671, 9.997766 
2.295304e+3, 1.8857798e+2, -824984.9, -1199282.6, -20476.762, -0.02783722, 0.09967436, -823868.0, 268076.44, 0.00018337466, 10.003012, 9.998054 
2.2952461e+3, 1.9857603e+2, -816682.1, -1135655.0, -31919.525, -0.054674294, 0.11011318, -813519.3, 180445.6, 0.00000002796664, 10.002357, 9.998133 
2.2951885e+3, 2.0857428e+2, -740848.25, -949714.6, -19138.13, -0.051203698, 0.09481827, -739109.1, 156872.39, 0.0, 10.00178, 9.999014 
2.2951311e+3, 2.1857294e+2, -744806.5, -930923.2, -7728.284, -0.03688058, 0.0760003, -744486.1, 53507.797, 0.0, 10.001208, 9.998746 
2.2950737e+3, 2.2857186e+2, -737447.25, -845555.44, -15555.096, -0.030659528, 0.10892382, -735253.6, -35247.36, 0.0, 10.000453, 9.9990225 
2.2950163e+3, 2.385712e+2, -750948.06, -795318.44, -25403.096, -0.028758874, 0.1496058, -739406.44, -137391.08, 0.0, 9.999661, 9.999076 
2.294959e+3, 2.4857037e+2, -681431.9, -616382.1, -21442.445, -0.041078858, 0.13484836, -609950.06, -105925.99, 0.0, 9.999059, 9.999922 
2.2949016e+3, 2.5856993e+2, -673801.4, -570663.1, -16689.988, -0.056358214, 0.10985455, -568029.56, -162000.73, 0.0, 9.998475, 9.999844 
2.2948445e+3, 2.685704e+2, -672645.3, -452330.28, -16096.969, -0.04066106, 0.16580895, -451160.4, -143134.52, 0.0, 9.997522, 10.0004425 
2.2947879e+3, 2.7857137e+2, -724277.56, -429237.9, -12340.123, -0.010368108, 0.23283215, -428722.7, -218704.36, 0.0, 9.996507, 10.000418 
2.294731e+3, 2.8857127e+2, -647444.7, -259886.45, -3814.5112, -0.0029089202, 0.16285934, -259848.92, -147828.6, 0.0, 9.996011, 10.001146 
2.2946738e+3, 2.9857138e+2, -633419.44, -241195.98, 4962.912, -0.03967547, 0.07869615, -241133.19, -227113.48, 0.0, 9.995601, 10.000799 
2.2946171e+3, 3.0857524e+2, -730703.7, -247944.17, 8140.4165, -0.07617344, 0.4098075, -247806.94, -247806.94, 0.0, 9.994531, 10.000935 
2.2945605e+3, 3.1857407e+2, -629898.0, 225706.39, -24051.889, -0.07558311, 0.16665578, 226381.98, 226381.98, 0.0, 9.9934, 10.004729 
2.3056558e+3, 1.2865081e+2, -1094209.1, -1731819.4, 22809.373, -0.07322335, 0.07549176, -1093394.3, 585835.3, 0.21948619, 10.0071, 9.996462 
2.3055984e+3, 1.3864838e+2, -1030814.56, -1579923.0, 7133.391, -0.02637319, 0.10582674, -1030721.9, 550532.56, 0.1589645, 10.006017, 9.9973545 
2.3055406e+3, 1.4864556e+2, -974167.25, -1509981.5, 5822.6333, 0.017975243, 0.10356485, -974103.94, 509177.22, 0.097385705, 10.005331, 9.997489 
2.3054814e+3, 1.5864223e+2, -930460.5, -1468943.0, 14462.503, -0.047832027, 0.03808184, -930072.3, 455240.3, 0.047092486, 10.0048, 9.9973545 
2.305423e+3, 1.686397e+2, -859024.2, -1317976.6, 13534.02, -0.047770046, 0.04277288, -858625.44, 428711.7, 0.016214965, 10.004197, 9.998009 
2.3053652e+3, 1.7863786e+2, -865134.7, -1303935.0, 1724.2086, -0.015470844, 0.07458656, -865127.94, 324227.72, 0.003182343, 10.003573, 9.997733 
2.305307e+3, 1.8863559e+2, -835643.0, -1207488.3, 7086.3857, -0.026357446, 0.08919946, -835508.0, 255871.25, 0.00019047804, 10.002958, 9.998018 
2.3052482e+3, 1.9863354e+2, -820404.1, -1138801.3, 16615.723, -0.05328561, 0.09307557, -819539.3, 173861.58, 0.000000034904282, 10.002343, 9.998115 
2.3051901e+3, 2.0863192e+2, -754403.56, -952704.1, 13873.752, -0.042551026, 0.09015205, -753437.6, 141978.98, 0.0, 10.0016775, 9.99904 
2.3051323e+3, 2.1863073e+2, -774386.7, -944303.06, 796.2164, -0.020817902, 0.08733781, -774382.94, 23044.652, 0.0, 10.001008, 9.998747 
2.305074e+3, 2.2862956e+2, -749182.5, -854425.94, 3658.4614, -0.025622547, 0.1122799, -749055.44, -49614.65, 0.0, 10.000392, 9.998987 
2.3050159e+3, 2.3862872e+2, -736201.8, -789958.75, 15636.903, -0.037657082, 0.13973026, -731984.25, -130532.81, 0.0, 9.999776, 9.999055 
2.3049578e+3, 2.4862792e+2, -690497.0, -618441.06, 19492.355, -0.04394484, 0.12830447, -613506.0, -110046.15, 0.0, 9.998992, 9.999936 
2.3048997e+3, 2.5862753e+2, -719428.2, -594584.6, 15454.203, -0.04969944, 0.11090525, -592700.0, -187235.98, 0.0, 9.998176, 9.999821 
2.3048417e+3, 2.6862794e+2, -680678.4, -465443.72, 6748.41, -0.042195886, 0.16490464, -465232.34, -157770.25, 0.0, 9.997512, 10.000354 
2.3047842e+3, 2.7862877e+2, -673704.4, -409424.44, 10164.888, -0.02199428, 0.22649501, -409034.06, -199578.05, 0.0, 9.996879, 10.000371 
2.3047268e+3, 2.886287e+2, -634100.0, -250692.78, 20563.94, -0.006417742, 0.1630664, -249593.0, -138135.75, 0.0, 9.996096, 10.001166 
2.3046692e+3, 2.98629e+2, -684644.6, -258024.38, 20741.24, -0.035379693, 0.09314583, -257018.36, -243563.53, 0.0, 9.995221, 10.000865 
2.3046114e+3, 3.0863255e+2, -746200.94, -226790.23, 33185.832, -0.077148534, 0.37456346, -224678.53, -224678.53, 0.0, 9.994307, 10.001186 
2.3045537e+3, 3.1863168e+2, -619629.06, 176147.86, 19461.813, -0.09031941, 0.14898056, 176623.55, 176623.55, 0.0, 9.993712, 10.004235 
2.3156634e+3, 1.2870917e+2, -1084263.1, -1696902.1, -7018.687, -0.007913303, 0.11734114, -1084182.8, 594476.9, 0.21967822, 10.00706, 9.996722 
2.3156038e+3, 1.3870612e+2, -1019170.56, -1554491.5, -21416.56, -0.080176644, 0.06630416, -1018315.1, 562374.0, 0.15916216, 10.006006, 9.997569 
2.3155452e+3, 1.4870381e+2, -956339.6, -1472646.4, -11870.807, -0.021898188, 0.09061341, -956066.9, 526643.3, 0.09754924, 10.005337, 9.997752 
2.3154864e+3, 1.5870093e+2, -924080.94, -1458597.5, -5808.4067, -0.032809272, 0.04865165, -924017.8, 460718.8, 0.04720049, 10.00481, 9.997423 
2.3154272e+3, 1.6869825e+2, -875002.2, -1354491.9, -9526.831, -0.031780697, 0.05251168, -874813.0, 411950.1, 0.016272506, 10.004204, 9.997758 
2.3153687e+3, 1.7869614e+2, -868653.06, -1313267.0, -20852.17, -0.013097104, 0.07955135, -867677.25, 321107.44, 0.0032064996, 10.003577, 9.99767 
2.3153096e+3, 1.8869385e+2, -816168.0, -1169123.8, -15010.566, -0.018018335, 0.074998744, -815530.75, 275276.97, 0.00019542009, 10.002962, 9.998283 
2.3152505e+3, 1.9869182e+2, -816491.0, -1132840.9, -6495.8135, -0.033862643, 0.058900844, -816357.6, 176470.56, 0.000000043907978, 10.002347, 9.998156 
2.3151919e+3, 2.0869023e+2, -775911.0, -1000109.25, -10565.724, -0.023978997, 0.08185358, -775414.2, 119430.54, 0.0, 10.001684, 9.9987135 
2.3151334e+3, 2.1868911e+2, -781019.94, -961034.06, -22410.47, -0.008515409, 0.11236287, -778271.94, 18584.953, 0.0, 10.001016, 9.9986315 
2.3150742e+3, 2.2868784e+2, -730218.4, -817824.0, -17935.932, -0.034767177, 0.11337449, -726688.44, -27818.32, 0.0, 10.000399, 9.999239 
2.3150152e+3, 2.3868686e+2, -725828.6, -771094.6, -9863.398, -0.06779804, 0.10697498, -723772.75, -122892.44, 0.0, 9.999783, 9.999184 
2.3149565e+3, 2.4868636e+2, -695709.8, -631892.4, -12006.018, -0.046764877, 0.12649839, -629708.44, -126822.01, 0.0, 9.998998, 9.999844 
2.3148982e+3, 2.5868627e+2, -727484.56, -613645.4, -13720.263, -0.01791783, 0.15163247, -612015.06, -207126.75, 0.0, 9.99818, 9.999691 
2.3148394e+3, 2.6868612e+2, -691193.6, -489983.25, -17847.264, -0.0408273, 0.16622268, -488412.47, -181520.63, 0.0, 9.997519, 10.000186 
2.3147805e+3, 2.7868626e+2, -679462.8, -425270.75, -16739.953, -0.06546851, 0.17193867, -424173.06, -215280.52, 0.0, 9.99689, 10.00026 
2.3147224e+3, 2.8868693e+2, -634576.9, -253917.77, -13850.224, -0.0400256, 0.18605682, -253414.5, -142527.95, 0.0, 9.996099, 10.001144 
2.3146641e+3, 2.9868823e+2, -671483.9, -231832.42, -15966.624, -0.03812378, 0.21743801, -231253.33, -218379.47, 0.0, 9.995219, 10.001048 
2.3146057e+3, 3.0868894e+2, -710928.44, -154095.16, -614.0014, -0.051365998, 0.17231092, -154094.48, -154094.48, 0.0, 9.994303, 10.00169 
2.3145473e+3, 3.1869048e+2, -718775.0, -34625.203, 19171.867, -0.07835587, 0.17579006, -34088.37, -34088.37, 0.0, 9.993725, 10.002785 
2.32567e+3, 1.2876824e+2, -1131754.5, -1698280.9, 31309.715, 0.002140068, 0.12207106, -1130029.4, 548052.06, 0.21918376, 10.006518, 9.996974 
2.3256093e+3, 1.3876514e+2, -1028023.1, -1550538.9, 16499.488, -0.08623764, 0.05249808, -1027502.6, 552608.0, 0.15885924, 10.005894, 9.997652 
2.3255503e+3, 1.4876305e+2, -949863.3, -1468277.4, 24592.756, -0.028134732, 0.09765289, -948699.3, 533430.3, 0.09739428, 10.005385, 9.997759 
2.325491e+3, 1.587602e+2, -910442.94, -1453717.4, 15182.421, -0.025012027, 0.060919557, -910019.0, 474136.84, 0.047138557, 10.004924, 9.997399 
2.3254314e+3, 1.6875736e+2, -872928.4, -1361198.8, 12513.507, -0.02687077, 0.053786926, -872607.9, 413576.2, 0.016258743, 10.004258, 9.997682 
2.3253721e+3, 1.7875507e+2, -873004.3, -1313033.8, 11671.429, -0.016378194, 0.07094096, -872694.94, 315512.3, 0.0032107753, 10.003543, 9.9976845 
2.3253125e+3, 1.8875293e+2, -813288.44, -1147912.8, 15468.781, -0.014557042, 0.069627024, -812574.9, 277653.66, 0.00019790434, 10.002903, 9.998454 
2.3252529e+3, 1.9875108e+2, -822225.94, -1131184.1, 17515.092, -0.020530026, 0.05797067, -821236.1, 171010.69, 0.000000051889515, 10.0022955, 9.998189 
2.3251933e+3, 2.0874943e+2, -782605.5, -1024355.1, 19219.09, -0.018733643, 0.08669572, -781087.1, 113177.54, 0.0, 10.001735, 9.998519 
2.325134e+3, 2.1874818e+2, -763008.0, -958051.9, 13683.592, -0.014685018, 0.12308363, -762052.7, 34226.11, 0.0, 10.00117, 9.998574 
2.3250745e+3, 2.2874689e+2, -715076.3, -789347.44, 13278.872, -0.035589594, 0.11299947, -712773.6, -14482.104, 0.0, 10.000418, 9.999422 
2.3250146e+3, 2.3874594e+2, -744938.4, -773679.8, 15694.6455, -0.060639508, 0.09309667, -738029.06, -137728.45, 0.0, 9.999628, 9.999237 
2.3249553e+3, 2.4874549e+2, -708774.2, -654462.7, 8008.832, -0.048092186, 0.12705371, -653306.3, -150999.64, 0.0, 9.998984, 9.999692 
2.324896e+3, 2.5874546e+2, -708447.2, -615186.6, 3319.5117, -0.02916259, 0.17131624, -615068.6, -210759.69, 0.0, 9.9983635, 9.999588 
2.3248367e+3, 2.6874506e+2, -676290.7, -481220.8, 9380.999, -0.045364752, 0.16710278, -480770.72, -174456.28, 0.0, 9.99762, 10.000194 
2.3247771e+3, 2.7874494e+2, -689289.94, -430219.2, 20257.393, -0.0632817, 0.1475022, -428644.78, -220327.6, 0.0, 9.99683, 10.000252 
2.3247182e+3, 2.887459e+2, -647395.0, -260769.22, 21457.293, -0.049634974, 0.19318813, -259582.0, -149273.7, 0.0, 9.996021, 10.001132 
2.3246592e+3, 2.987476e+2, -664026.25, -221685.69, 18184.822, -0.0512972, 0.26505697, -220939.36, -208647.52, 0.0, 9.99525, 10.0011 
2.3246004e+3, 3.0874714e+2, -646605.4, -110345.23, 11701.542, -0.033907976, 0.09491884, -110090.01, -110090.01, 0.0, 9.994696, 10.001798 
2.3245412e+3, 3.1875026e+2, -720512.75, -95044.77, 25101.666, -0.06306562, 0.26360714, -94038.99, -94038.99, 0.0, 9.993973, 10.002249 
2.335676e+3, 1.2882796e+2, -1118181.1, -1668880.1, 13698.118, -0.032837313, 0.09118208, -1117840.6, 559655.3, 0.21787062, 10.006523, 9.997188 
2.3356155e+3, 1.3882533e+2, -1027529.94, -1555203.0, -2942.281, -0.054243784, 0.060099147, -1027513.5, 552006.6, 0.15795124, 10.005912, 9.997607 
2.3355557e+3, 1.4882322e+2, -962761.8, -1499844.9, 8706.594, -0.008351112, 0.1209206, -962620.75, 518919.28, 0.09685364, 10.00539, 9.997534 
2.3354958e+3, 1.5882008e+2, -920334.8, -1472813.1, -4382.306, -0.02467177, 0.07402071, -920300.06, 463270.0, 0.046874225, 10.004906, 9.997279 
2.3354356e+3, 1.6881703e+2, -870522.1, -1354938.0, -13292.101, -0.03195276, 0.04752945, -870157.6, 415442.34, 0.016163157, 10.004248, 9.997732 
2.3353752e+3, 1.7881466e+2, -868564.44, -1305532.0, -12729.481, -0.024528142, 0.05125125, -868193.9, 319429.7, 0.0031933193, 10.003546, 9.997738 
2.3353152e+3, 1.888128e+2, -807358.5, -1138591.1, -6785.3726, -0.015633233, 0.07285666, -807219.56, 282422.5, 0.00019783608, 10.002911, 9.998517 
2.3352551e+3, 1.9881126e+2, -820288.7, -1130414.6, -3837.7185, -0.013590769, 0.086884744, -820241.2, 171416.28, 0.000000054038466, 10.002304, 9.998193 
2.3351948e+3, 2.0880942e+2, -787615.44, -1037436.44, -388.36908, -0.026528312, 0.102919206, -787614.9, 106062.33, 0.0, 10.001741, 9.998429 
2.3351347e+3, 2.188079e+2, -763487.0, -961094.0, -9001.477, -0.03852731, 0.120268695, -763077.8, 32616.096, 0.0, 10.001174, 9.998554 
2.3350747e+3, 2.2880669e+2, -707540.56, -776347.5, -16137.846, -0.027828867, 0.11186222, -703943.6, -6238.09, 0.0, 10.000423, 9.999511 
2.3350146e+3, 2.3880586e+2, -746266.56, -779272.7, -11524.628, -0.016795378, 0.09796893, -742640.8, -142927.75, 0.0, 9.999635, 9.999198 
2.3349541e+3, 2.4880521e+2, -723590.0, -688191.75, -15402.332, -0.0493813, 0.12953502, -682428.3, -180706.8, 0.0, 9.998991, 9.99946 
2.3348938e+3, 2.5880492e+2, -712796.44, -627571.25, -22767.11, -0.086654864, 0.16855296, -621870.56, -218143.67, 0.0, 9.998373, 9.999501 
2.334834e+3, 2.6880467e+2, -663221.6, -456560.75, -21669.209, -0.055240683, 0.16829225, -454313.1, -148582.58, 0.0, 9.997625, 10.000362 
2.3347744e+3, 2.7880475e+2, -682890.8, -419254.6, -11430.166, -0.009962091, 0.15567002, -418759.97, -211029.61, 0.0, 9.996835, 10.000328 
2.3347141e+3, 2.8880548e+2, -649346.25, -267320.4, -10029.076, -0.034217335, 0.17995372, -267057.3, -157333.47, 0.0, 9.996026, 10.001088 
2.3346537e+3, 2.9880685e+2, -672522.1, -242575.56, -7867.66, -0.08195254, 0.22498432, -242431.64, -230720.64, 0.0, 9.995258, 10.000956 
2.334595e+3, 3.088073e+2, -667929.3, -159034.72, -12404.806, -0.020739809, 0.17252468, -158732.52, -158732.52, 0.0, 9.994711, 10.001458 
2.3345347e+3, 3.188089e+2, -695070.75, -47006.555, -20396.207, -0.09159319, 0.21174414, -46365.27, -46365.27, 0.0, 9.993985, 10.002577 
2.3456824e+3, 1.2888873e+2, -1107140.8, -1667937.8, 38332.1, -0.040415, 0.09703364, -1104532.9, 572367.44, 0.21565181, 10.00663, 9.997142 
2.3456213e+3, 1.3888592e+2, -1008512.8, -1560599.6, 6887.71, -0.04249925, 0.064134285, -1008426.94, 570499.8, 0.15636694, 10.006135, 9.997452 
2.3455611e+3, 1.4888379e+2, -971197.75, -1505822.1, 22055.441, -0.006547794, 0.13356565, -970289.4, 510657.56, 0.09588042, 10.005333, 9.997517 
2.3455003e+3, 1.5888064e+2, -974856.6, -1493596.4, 22070.06, -0.027189113, 0.08617051, -973919.3, 409058.2, 0.046384137, 10.004488, 9.997335 
2.3454395e+3, 1.6887765e+2, -903497.06, -1350643.5, 24581.674, -0.029542446, 0.05024939, -902149.75, 382856.8, 0.01597769, 10.003935, 9.99791 
2.3453787e+3, 1.7887533e+2, -877059.94, -1302089.0, 31661.982, -0.01830263, 0.0457538, -874714.25, 312314.66, 0.003152311, 10.003461, 9.997799 
2.3453179e+3, 1.888735e+2, -809091.5, -1150736.8, 29800.676, -0.016093409, 0.07870363, -806511.56, 282535.7, 0.0001949189, 10.002954, 9.998409 
2.3452571e+3, 1.9887199e+2, -805579.6, -1125735.8, 20309.273, -0.020926137, 0.10562903, -804296.44, 186766.45, 0.00000004796778, 10.002422, 9.998165 
2.3451966e+3, 2.0887004e+2, -783515.94, -1022265.56, 30109.334, -0.029478151, 0.10517344, -779777.3, 113305.78, 0.0, 10.0017185, 9.998541 
2.3451358e+3, 2.188684e+2, -788601.2, -970038.5, 32419.385, -0.035794377, 0.10253739, -782982.5, 12117.897, 0.0, 10.000993, 9.998577 
2.345075e+3, 2.2886726e+2, -713123.5, -790869.8, 15694.192, -0.027881673, 0.10895141, -710074.94, -12963.258, 0.0, 10.000442, 9.999399 
2.3450142e+3, 2.3886652e+2, -710787.2, -769293.3, 7118.5107, -0.020247083, 0.114700384, -709933.56, -110814.68, 0.0, 9.999916, 9.999128 
2.3449531e+3, 2.4886568e+2, -697025.4, -674208.2, 13614.885, -0.052743275, 0.12974478, -667853.8, -166724.89, 0.0, 9.999175, 9.999465 
2.3448919e+3, 2.5886518e+2, -711029.9, -624951.1, 21294.447, -0.08969159, 0.14746512, -619971.3, -216835.27, 0.0, 9.9983835, 9.999512 
2.3448312e+3, 2.688651e+2, -654441.94, -449344.0, 15462.441, -0.05469823, 0.1660944, -448184.8, -143047.11, 0.0, 9.99768, 10.000383 
2.344771e+3, 2.7886546e+2, -662035.06, -408544.0, 13299.91, -0.005360363, 0.17753421, -407848.1, -200712.94, 0.0, 9.996982, 10.000327 
2.3447102e+3, 2.8886572e+2, -625378.1, -258049.3, 12934.156, -0.036536727, 0.1597491, -257594.44, -148461.36, 0.0, 9.996206, 10.001062 
2.344649e+3, 2.988666e+2, -653019.0, -242236.47, 22266.605, -0.08920643, 0.15989035, -241033.03, -229907.92, 0.0, 9.995437, 10.000869 
2.3445895e+3, 3.0886856e+2, -648987.56, -154732.36, 34589.355, -0.005665934, 0.2680677, -152323.44, -152323.44, 0.0, 9.994868, 10.001409 
2.3445287e+3, 3.188682e+2, -678608.25, -11305.721, 17399.016, -0.08129899, 0.10678517, -10852.372, -10852.372, 0.0, 9.993987, 10.002816 
2.355689e+3, 1.2895036e+2, -1116180.3, -1702268.1, 23927.586, -0.030649452, 0.121687174, -1115205.0, 561091.3, 0.21253073, 10.006652, 9.996884 
2.3556273e+3, 1.3894694e+2, -1025594.5, -1595246.9, -12227.908, -0.048041, 0.065409094, -1025332.1, 552997.44, 0.15410611, 10.006096, 9.997212 
2.3555659e+3, 1.4894482e+2, -964334.8, -1490408.9, -6882.559, -0.019256577, 0.13785923, -964244.75, 516105.0, 0.094472826, 10.005321, 9.997631 
2.3555043e+3, 1.5894188e+2, -959271.6, -1466784.9, -3270.8108, -0.032315373, 0.09774403, -959250.56, 423127.75, 0.045665577, 10.00451, 9.997512 
2.3554431e+3, 1.689391e+2, -882642.8, -1311882.5, 7312.913, -0.021288132, 0.060743943, -882518.25, 401886.1, 0.01569932, 10.00395, 9.998171 
2.3553821e+3, 1.7893697e+2, -873172.2, -1295909.5, 13086.255, -0.00042559346, 0.05237802, -872767.5, 313656.72, 0.0030857339, 10.003464, 9.997843 
2.3553206e+3, 1.8893498e+2, -828392.8, -1192341.0, 10716.583, -0.016740656, 0.08668582, -828077.56, 260367.2, 0.00018864853, 10.002955, 9.998126 
2.3552592e+3, 1.9893323e+2, -809753.3, -1136243.5, -1535.4446, -0.041339513, 0.11534063, -809746.06, 180717.25, 0.000000035210917, 10.002424, 9.998095 
2.355198e+3, 2.0893125e+2, -762957.75, -982281.94, 3111.6792, -0.0276597, 0.094639495, -762913.6, 129569.33, 0.0, 10.001725, 9.998816 
2.355137e+3, 2.1892965e+2, -784489.06, -964568.2, 8587.806, -0.00860931, 0.0707235, -784080.44, 10418.398, 0.0, 10.001001, 9.998613 
2.3550752e+3, 2.2892854e+2, -734306.1, -838147.5, -2624.4321, -0.036905084, 0.10458547, -734239.9, -37729.3, 0.0, 10.000451, 9.999073 
2.3550135e+3, 2.3892784e+2, -717431.7, -785980.4, -16008.735, -0.07154801, 0.14296696, -713877.4, -115358.65, 0.0, 9.999923, 9.999013 
2.354952e+3, 2.489268e+2, -680013.4, -641581.25, -16744.314, -0.057360265, 0.12772536, -635309.5, -134779.92, 0.0, 9.999182, 9.999688 
2.3548906e+3, 2.5892612e+2, -703855.25, -612982.6, -7701.401, -0.03593147, 0.10743824, -612334.56, -209797.42, 0.0, 9.99839, 9.999594 
2.3548292e+3, 2.6892632e+2, -664301.2, -472946.8, -11739.568, -0.0447227, 0.16000906, -472229.28, -167692.5, 0.0, 9.997687, 10.00022 
2.3547673e+3, 2.789269e+2, -667896.0, -424119.72, -15859.604, -0.05543576, 0.2114001, -423092.28, -216559.56, 0.0, 9.99699, 10.000218 
2.3547058e+3, 2.8892654e+2, -625602.4, -260849.11, -18442.365, -0.058049433, 0.13292705, -259919.02, -151382.1, 0.0, 9.996211, 10.001042 
2.3546442e+3, 2.9892683e+2, -653954.7, -247371.02, -4053.768, -0.06999786, 0.07462611, -247330.61, -236796.13, 0.0, 9.995445, 10.000832 
2.3545845e+3, 3.089307e+2, -628777.7, -117378.2, 12683.258, 0.009508181, 0.36813045, -117063.836, -117063.836, 0.0, 9.994882, 10.001661 
2.3545225e+3, 3.1892937e+2, -682773.06, -20879.957, -53335.008, -0.0734853, 0.077947825, -16609.799, -16609.799, 0.0, 9.993988, 10.002753 
2.3656955e+3, 1.290125e+2, -1083298.6, -1678202.1, 29769.924, -0.02435357, 0.1377907, -1081812.6, 593874.75, 0.20861554, 10.006892, 9.996932 
2.3656328e+3, 1.3900873e+2, -1100534.6, -1642991.1, 16578.254, -0.04474086, 0.05646225, -1100028.5, 477695.22, 0.15124625, 10.005496, 9.997172 
2.3655711e+3, 1.4900659e+2, -991557.8, -1494676.8, 37318.164, -0.022168381, 0.1208055, -988804.9, 490939.4, 0.09267444, 10.005066, 9.997724 
2.365509e+3, 1.5900373e+2, -913611.6, -1438452.9, 37333.61, -0.03156171, 0.08406339, -910969.25, 470802.44, 0.044735096, 10.004818, 9.997555 
2.365447e+3, 1.6900113e+2, -856612.2, -1301509.0, 29618.846, -0.025939591, 0.06446935, -854649.0, 429147.47, 0.015330357, 10.004148, 9.998144 
2.3653853e+3, 1.7899911e+2, -884196.0, -1302128.4, 20080.072, -0.012548729, 0.072000004, -883233.5, 302581.84, 0.0029922973, 10.003397, 9.997829 
2.3653233e+3, 1.8899693e+2, -847825.06, -1199823.3, 32475.213, -0.01960942, 0.08702442, -844853.94, 242983.55, 0.00017869432, 10.002819, 9.998137 
2.3652615e+3, 1.9899496e+2, -828639.56, -1141959.6, 34766.08, -0.03280076, 0.09249873, -824828.25, 165029.77, 0.000000020158883, 10.002286, 9.998118 
2.3651995e+3, 2.0899315e+2, -758217.0, -974096.4, 26583.09, -0.029517887, 0.08500439, -754991.75, 136884.13, 0.0, 10.001738, 9.998862 
2.3651376e+3, 2.1899174e+2, -759273.9, -953037.9, 18911.814, -0.023591982, 0.07936852, -757445.3, 36444.367, 0.0, 10.001183, 9.998602 
2.3650755e+3, 2.289905e+2, -723400.25, -843308.4, 19785.293, -0.04581848, 0.10496269, -720219.94, -24316.69, 0.0, 10.000576, 9.998975 
2.3650132e+3, 2.3898958e+2, -714219.3, -784069.1, 18513.316, -0.07107806, 0.13159852, -709615.8, -111702.125, 0.0, 9.9999485, 9.999011 
2.3649509e+3, 2.4898866e+2, -660773.0, -615659.5, 11010.993, -0.052807212, 0.11922317, -613115.5, -113192.56, 0.0, 9.9992485, 9.999831 
2.364889e+3, 2.5898814e+2, -678914.8, -593121.94, 16322.511, -0.028734097, 0.10332409, -590121.44, -188193.19, 0.0, 9.998534, 9.999657 
2.3648266e+3, 2.6898822e+2, -641307.56, -468088.38, 18575.938, -0.046556562, 0.14660998, -466118.72, -162189.6, 0.0, 9.997878, 10.000158 
2.3647642e+3, 2.7898863e+2, -636706.44, -410996.53, 19693.314, -0.065783516, 0.1886783, -409291.2, -203364.38, 0.0, 9.99722, 10.000195 
2.3647021e+3, 2.8898847e+2, -583990.0, -236785.94, 18264.125, -0.05618755, 0.12993076, -235827.81, -127898.61, 0.0, 9.996487, 10.001072 
2.36464e+3, 2.98989e+2, -618335.25, -228460.94, 35070.74, -0.062801406, 0.093639255, -225331.31, -215406.69, 0.0, 9.995688, 10.000842 
2.3645788e+3, 3.089923e+2, -639432.1, -112014.67, 50285.81, -0.012363739, 0.32587472, -107263.055, -107263.055, 0.0, 9.994768, 10.001752 
2.3645166e+3, 3.1899178e+2, -664466.44, -11695.289, -44450.914, -0.0648044, 0.10177675, -8682.279, -8682.279, 0.0, 9.994119, 10.002749 
2.3757021e+3, 1.2907515e+2, -1071594.0, -1652475.1, -15815.557, -0.022998093, 0.1394784, -1071163.8, 603910.0, 0.20408756, 10.006846, 9.997169 
2.3756385e+3, 1.3907132e+2, -1087773.5, -1628539.0, -14515.853, -0.036869217, 0.03923531, -1087384.1, 489725.3, 0.14791153, 10.005543, 9.9972515 
2.3755759e+3, 1.4906906e+2, -983010.5, -1485149.9, 29728.877, -0.019143702, 0.086831376, -981256.56, 497874.3, 0.09055263, 10.005091, 9.997779 
2.3755136e+3, 1.5906624e+2, -920634.94, -1452735.3, 20907.332, -0.026275681, 0.04986241, -919814.7, 461343.38, 0.043619797, 10.004803, 9.997466 
2.3754509e+3, 1.6906372e+2, -876806.94, -1344608.4, 1316.634, -0.041583244, 0.063125335, -876803.25, 406379.72, 0.0148787275, 10.004143, 9.997853 
2.3753881e+3, 1.7906179e+2, -887505.6, -1313114.6, -4033.4548, -0.05093415, 0.102975145, -887467.44, 297734.78, 0.0028734764, 10.003409, 9.997751 
2.3753259e+3, 1.8905938e+2, -828545.6, -1163286.8, 13322.334, -0.024341462, 0.079932824, -828016.25, 259209.44, 0.0001653837, 10.00283, 9.998385 
2.3752639e+3, 1.9905715e+2, -822547.06, -1131636.3, 14712.731, 0.0014740652, 0.040162418, -821848.3, 167398.98, 0.0000000080542115, 10.002292, 9.99819 
2.375201e+3, 2.0905568e+2, -769008.9, -999469.25, 6521.989, -0.03589316, 0.077190176, -768824.44, 122437.98, 0.0, 10.001745, 9.998688 
2.3751383e+3, 2.1905467e+2, -762522.75, -962978.2, -1623.9066, -0.07928609, 0.12648878, -762509.56, 30763.787, 0.0, 10.001191, 9.998533 
2.3750757e+3, 2.2905304e+2, -715048.5, -828737.25, -2722.7483, -0.053921487, 0.10939351, -714983.3, -19693.104, 0.0, 10.000583, 9.999074 
2.3750134e+3, 2.3905165e+2, -707433.06, -772581.4, -6318.483, -0.019216228, 0.08033345, -706825.94, -109521.33, 0.0, 9.999955, 9.999089 
2.3749502e+3, 2.4905118e+2, -656393.94, -609575.9, -16612.883, -0.04036889, 0.10467045, -604280.0, -104970.35, 0.0, 9.999255, 9.999872 
2.374887e+3, 2.5905114e+2, -675571.44, -589288.7, -10478.763, -0.07129073, 0.13611121, -588034.3, -186724.27, 0.0, 9.998543, 9.999682 
2.3748243e+3, 2.690507e+2, -638434.44, -464789.8, -7027.496, -0.06048643, 0.12495643, -464505.88, -161190.3, 0.0, 9.997885, 10.00018 
2.3747614e+3, 2.7905053e+2, -631511.6, -403989.6, -6933.4956, -0.034207825, 0.105292864, -403778.5, -198460.02, 0.0, 9.9972315, 10.00024 
2.3746987e+3, 2.890515e+2, -577430.3, -227254.84, -12384.778, -0.029304901, 0.15393826, -226817.38, -119507.125, 0.0, 9.996498, 10.001135 
2.3746352e+3, 2.9905313e+2, -613694.06, -222371.84, -103.56965, -0.06685273, 0.22281763, -222371.81, -213076.28, 0.0, 9.995697, 10.000882 
2.3745728e+3, 3.090531e+2, -648334.06, -129328.35, 16650.559, -0.08369503, 0.12381455, -128794.73, -128794.73, 0.0, 9.994758, 10.00164 
2.3745109e+3, 3.1905466e+2, -632480.25, 53931.902, -51162.41, -0.0050020097, 0.11594871, 57724.39, 57724.39, 0.0, 9.99412, 10.0032015 
2.3857087e+3, 1.291384e+2, -1123267.6, -1659330.8, 8961.465, -0.0068480256, 0.12213234, -1123117.9, 551335.75, 0.19913848, 10.0062685, 9.997384 
2.385644e+3, 1.3913485e+2, -1003277.7, -1584481.3, 12475.9795, -0.043308932, 0.045037232, -1003010.0, 573476.0, 0.14422773, 10.006219, 9.997225 
2.3855808e+3, 1.491324e+2, -951362.4, -1484974.0, 46147.84, -0.026793646, 0.08660047, -947400.8, 531108.8, 0.08817486, 10.005394, 9.997631 
2.3855181e+3, 1.5912949e+2, -977260.44, -1486670.6, 28681.58, -0.020986103, 0.05294754, -975650.7, 404887.72, 0.042349957, 10.004419, 9.997416 
2.3854548e+3, 1.6912699e+2, -897334.2, -1345702.8, 29487.604, -0.037582718, 0.06423203, -895403.2, 387159.84, 0.014357366, 10.003965, 9.997929 
2.3853913e+3, 1.7912504e+2, -856868.44, -1294945.0, 42724.56, -0.0540438, 0.098666795, -852740.5, 331841.7, 0.0027340727, 10.003612, 9.997774 
2.3853286e+3, 1.8912259e+2, -811691.1, -1159109.9, 45390.754, -0.034902208, 0.07431395, -805858.6, 280747.25, 0.00014974258, 10.002968, 9.998344 
2.3852658e+3, 1.9912033e+2, -826824.2, -1136398.5, 30404.117, -0.013344298, 0.034996413, -823866.4, 164761.36, 0.0000000017673162, 10.002279, 9.998159 
2.3852026e+3, 2.0911883e+2, -764807.7, -997333.3, 30797.758, -0.04152323, 0.07161567, -760797.7, 129845.555, 0.0, 10.00178, 9.998683 
2.3851392e+3, 2.1911782e+2, -744988.9, -949430.7, 29150.729, -0.07553547, 0.12077125, -740913.6, 51740.895, 0.0, 10.001295, 9.998573 
2.3850761e+3, 2.2911626e+2, -712158.6, -814771.75, 25819.648, -0.054120447, 0.103825316, -706028.06, -11357.697, 0.0, 10.000554, 9.999181 
2.385013e+3, 2.3911496e+2, -727958.94, -776782.94, 24973.822, -0.024029544, 0.07466901, -717447.6, -120763.98, 0.0, 9.999795, 9.999135 
2.3849492e+3, 2.4911447e+2, -642434.1, -606296.7, 13372.143, -0.04450548, 0.10056417, -601886.7, -103197.76, 0.0, 9.9993725, 9.999835 
2.3848853e+3, 2.5911444e+2, -612932.56, -556372.5, 9997.517, -0.074672066, 0.13383666, -554657.4, -153967.7, 0.0, 9.998967, 9.999701 
2.3848218e+3, 2.69114e+2, -601407.94, -434632.4, 10916.024, -0.06334568, 0.11664311, -433920.94, -131226.25, 0.0, 9.998094, 10.000284 
2.3847586e+3, 2.7911386e+2, -644574.25, -407300.7, 17183.82, -0.034696598, 0.09247436, -406062.66, -201365.77, 0.0, 9.997135, 10.00026 
2.3846951e+3, 2.8911486e+2, -586359.5, -240883.11, 3868.297, -0.021867694, 0.15098639, -240839.8, -134151.22, 0.0, 9.996485, 10.001044 
2.384631e+3, 2.991164e+2, -584804.8, -204777.28, 1516.8909, -0.056459833, 0.22004557, -204771.22, -196096.3, 0.0, 9.995889, 10.000907 
2.3845674e+3, 3.091163e+2, -589497.44, -93682.04, 26557.74, -0.10774287, 0.10601038, -92263.56, -92263.56, 0.0, 9.995136, 10.001699 
2.3845051e+3, 3.1911865e+2, -579564.6, 70527.06, -22510.607, 0.0024983278, 0.1804778, 71305.6, 71305.6, 0.0, 9.994525, 10.0031185 
2.3957151e+3, 1.2920219e+2, -1105636.6, -1635946.8, 5946.0137, 0.015419606, 0.086378604, -1105570.0, 568257.7, 0.19393161, 10.006294, 9.997571 
2.3956499e+3, 1.3919932e+2, -1009868.3, -1602989.1, -583.4711, -0.06078627, 0.06821487, -1009867.75, 565986.06, 0.14030094, 10.006197, 9.99711 
2.3955859e+3, 1.4919658e+2, -971659.56, -1534969.5, 10865.338, -0.042767957, 0.11208886, -971450.06, 506431.0, 0.08560276, 10.005392, 9.99729 
2.3955224e+3, 1.5919346e+2, -976261.8, -1491858.5, 2542.7668, -0.017240051, 0.086420044, -976249.25, 403663.44, 0.040959563, 10.00444, 9.997373 
2.3954587e+3, 1.691909e+2, -870239.94, -1292130.4, 17727.973, -0.017965646, 0.066706754, -869496.3, 412440.7, 0.013783609, 10.003973, 9.998295 
2.395395e+3, 1.7918889e+2, -852230.6, -1284810.6, 24031.166, -0.027196111, 0.06364742, -850899.7, 333055.88, 0.0025810264, 10.003604, 9.99785 
2.3953311e+3, 1.8918656e+2, -832998.3, -1204963.6, 18773.305, -0.051633146, 0.07128115, -832053.2, 253925.39, 0.00013311963, 10.00297, 9.998032 
2.3952673e+3, 1.9918442e+2, -834031.4, -1155230.8, 8736.693, -0.07311291, 0.072715595, -833793.94, 154206.0, 0.000000000116293294, 10.002291, 9.998028 
2.3952042e+3, 2.0918256e+2, -754723.56, -978964.1, 14751.843, -0.045630235, 0.066927925, -753757.3, 136261.52, 0.0, 10.001785, 9.998809 
2.3951408e+3, 2.1918114e+2, -736830.1, -933604.44, 7477.038, -0.015492778, 0.06459765, -736546.4, 55487.008, 0.0, 10.001295, 9.998685 
2.3950765e+3, 2.2918011e+2, -703974.0, -800496.75, -3658.9866, -0.048275407, 0.08986335, -703835.5, -9791.303, 0.0, 10.000561, 9.999279 
2.395012e+3, 2.3917943e+2, -726914.3, -777547.5, 2031.6725, -0.086651795, 0.11465458, -726832.9, -130781.266, 0.0, 9.999803, 9.999129 
2.3949483e+3, 2.491785e+2, -650731.5, -626704.06, -240.6217, -0.06484101, 0.106399305, -626701.7, -128640.23, 0.0, 9.999381, 9.999694 
2.3948845e+3, 2.591779e+2, -611679.3, -557967.94, -14031.382, -0.037441887, 0.093904756, -554523.4, -154455.36, 0.0, 9.9989805, 9.999686 
2.3948199e+3, 2.6917803e+2, -588347.56, -410390.78, -28174.88, -0.055750843, 0.123863004, -406036.53, -103969.414, 0.0, 9.9981, 10.000449 
2.3947552e+3, 2.791786e+2, -646760.5, -412938.84, -15352.402, -0.070818536, 0.15725671, -411935.16, -207872.89, 0.0, 9.997135, 10.000225 
2.3946911e+3, 2.8917834e+2, -607974.06, -286647.9, -20275.463, -0.03553917, 0.114355244, -285373.6, -179307.53, 0.0, 9.996484, 10.000733 
2.3946269e+3, 2.9917842e+2, -584715.0, -207736.31, -26387.56, -0.03117741, 0.06426809, -205898.22, -197831.66, 0.0, 9.995897, 10.000885 
2.3945625e+3, 3.0918226e+2, -564957.2, -47789.51, -4383.416, -0.077092595, 0.3173674, -47752.36, -47752.36, 0.0, 9.9951515, 10.00201 
2.394499e+3, 3.1918216e+2, -653158.8, -92161.914, -38143.715, -0.04663958, 0.15401363, -89580.305, -89580.305, 0.0, 9.994559, 10.001988 
2.4057212e+3, 1.2926659e+2, -1067006.8, -1610930.4, 12381.23, 0.017183138, 0.079227276, -1066725.1, 606471.2, 0.188589, 10.006551, 9.997654 
2.4056555e+3, 1.3926391e+2, -1065229.4, -1629907.0, 4728.575, -0.050346546, 0.078836285, -1065189.8, 510030.94, 0.1362163, 10.005714, 9.997156 
2.405591e+3, 1.4926112e+2, -984367.06, -1533943.6, 30893.643, -0.043462988, 0.10940873, -982635.9, 494612.8, 0.0828935, 10.005253, 9.997362 
2.4055266e+3, 1.5925807e+2, -924318.7, -1464498.0, 45128.746, -0.024353694, 0.086658336, -920574.44, 458705.2, 0.03948504, 10.0048065, 9.997381 
2.4054624e+3, 1.6925552e+2, -863302.94, -1295790.3, 44318.113, -0.020967599, 0.07395572, -858808.25, 422495.6, 0.013176314, 10.004055, 9.998227 
2.4053982e+3, 1.7925346e+2, -898082.4, -1307672.0, 27433.445, -0.025237989, 0.072473355, -896253.1, 287069.97, 0.0024213223, 10.003297, 9.997838 
2.405334e+3, 1.8925108e+2, -834995.3, -1197465.5, 40186.4, -0.047771666, 0.07170626, -830593.4, 254752.8, 0.000116737436, 10.002926, 9.998101 
2.4052696e+3, 1.9924894e+2, -789014.2, -1128605.3, 48695.99, -0.06866702, 0.06679618, -782169.4, 205197.97, 0.000000000004061441, 10.002584, 9.998066 
2.4052055e+3, 2.0924714e+2, -757755.56, -980071.44, 46587.633, -0.04269638, 0.0671259, -748387.56, 140998.28, 0.0, 10.001769, 9.998806 
2.4051419e+3, 2.1924578e+2, -792432.06, -959465.2, 32668.357, -0.013759, 0.07117822, -786270.1, 5130.191, 0.0, 10.000916, 9.998687 
2.4050769e+3, 2.2924477e+2, -698921.1, -795240.25, 18808.295, -0.054156054, 0.09728884, -695378.7, -1967.7335, 0.0, 10.000589, 9.999298 
2.4050117e+3, 2.3924409e+2, -651732.9, -736377.25, 17053.041, -0.100374006, 0.122723, -648426.4, -53008.227, 0.0, 10.000303, 9.999167 
2.4049476e+3, 2.4924318e+2, -645076.25, -615560.2, 22777.373, -0.06712036, 0.11038804, -603177.7, -105749.89, 0.0, 9.999389, 9.9997635 
2.404883e+3, 2.5924256e+2, -691350.44, -590270.25, 23337.348, -0.025611296, 0.092548795, -585142.25, -185707.94, 0.0, 9.998412, 9.999735 
2.4048176e+3, 2.6924276e+2, -598390.25, -411017.0, 3412.4756, -0.053485177, 0.12522125, -410954.88, -109522.0, 0.0, 9.998019, 10.000482 
2.4047522e+3, 2.792434e+2, -566894.6, -370577.25, 5503.5483, -0.08197483, 0.1646887, -370423.1, -166996.02, 0.0, 9.997673, 10.000253 
2.4046876e+3, 2.892431e+2, -570605.1, -267237.03, 16055.337, -0.04181626, 0.11479647, -266389.7, -160958.69, 0.0, 9.99674, 10.000739 
2.4046226e+3, 2.9924297e+2, -607536.9, -219019.02, 33970.758, -0.025564568, 0.046121027, -216071.1, -208638.13, 0.0, 9.995747, 10.000878 
2.4045576e+3, 3.092468e+2, -533062.56, -33515.25, 39978.938, -0.07862053, 0.30009723, -30335.959, -30335.959, 0.0, 9.995382, 10.001994 
2.4044937e+3, 3.1924528e+2, -644198.2, -140351.53, -14374.013, -0.043490387, 0.0035111932, -139941.8, -139941.8, 0.0, 9.994859, 10.001507 
2.4157272e+3, 1.2933153e+2, -1062152.0, -1613818.8, -15439.76, -0.00016875802, 0.08499323, -1061720.3, 610839.75, 0.18318799, 10.006574, 9.997617 
2.4156614e+3, 1.393288e+2, -1050724.3, -1608221.9, -15290.734, -0.019478723, 0.08058, -1050305.1, 524280.3, 0.13204451, 10.00574, 9.997296 
2.4155962e+3, 1.4932607e+2, -954397.7, -1475462.8, 16559.791, -0.033387937, 0.08574241, -953871.94, 522740.13, 0.08010478, 10.005272, 9.997757 
2.4155313e+3, 1.5932329e+2, -919539.94, -1459886.1, 23246.656, -0.04143626, 0.059001688, -918541.7, 460097.72, 0.037964486, 10.004819, 9.997409 
2.415466e+3, 1.6932082e+2, -891038.25, -1360801.8, 14596.28, -0.043714892, 0.08518901, -890585.2, 390078.9, 0.01255391, 10.004076, 9.997773 
2.4154012e+3, 1.7931874e+2, -900555.2, -1320338.9, 6755.9316, -0.04508209, 0.11897434, -900446.5, 282238.3, 0.002261168, 10.003324, 9.997742 
2.415337e+3, 1.8931617e+2, -806927.75, -1142021.1, 30366.275, -0.025406137, 0.0739875, -804198.2, 280510.63, 0.00010154104, 10.002933, 9.998481 
2.4152727e+3, 1.9931388e+2, -779142.44, -1106945.3, 28048.938, -0.006802192, 0.02149664, -776759.75, 209970.39, 0.000000000003904099, 10.002575, 9.998222 
2.4152073e+3, 2.0931253e+2, -766763.56, -1000540.06, 12462.578, -0.034986, 0.07347997, -766101.06, 122643.875, 0.0, 10.001772, 9.998667 
2.4151419e+3, 2.1931162e+2, -798462.94, -976212.56, 10403.17, -0.06862826, 0.13759343, -797856.1, -7100.1245, 0.0, 10.000929, 9.998568 
2.415077e+3, 2.2931014e+2, -702938.94, -806832.7, 11721.45, -0.070676014, 0.12442372, -701632.94, -8861.514, 0.0, 10.000598, 9.999217 
2.4150123e+3, 2.3930891e+2, -646290.1, -727399.56, -4422.658, -0.065237954, 0.09833816, -646049.7, -51265.76, 0.0, 10.000308, 9.999229 
2.4149467e+3, 2.4930847e+2, -625667.75, -577290.1, -17619.373, -0.0521883, 0.11341382, -571553.4, -74764.81, 0.0, 9.9993925, 10.000028 
2.4148811e+3, 2.5930843e+2, -684808.2, -577552.2, -4491.3423, -0.041706387, 0.13158287, -577364.44, -178575.34, 0.0, 9.99841, 9.999826 
2.4148154e+3, 2.6930812e+2, -606802.0, -431106.72, -7429.8286, -0.056397133, 0.11885296, -430793.1, -130000.31, 0.0, 9.998025, 10.000344 
2.4147497e+3, 2.7930817e+2, -557635.2, -357819.16, -18623.81, -0.0667972, 0.10815211, -356098.16, -153305.31, 0.0, 9.997695, 10.000333 
2.4146841e+3, 2.8930917e+2, -543782.0, -214353.61, -26046.986, -0.042020626, 0.16047642, -212306.86, -107523.93, 0.0, 9.996748, 10.0011015 
2.414618e+3, 2.9931027e+2, -610974.2, -224522.78, 7769.034, -0.0443176, 0.18624024, -224366.66, -217594.67, 0.0, 9.995734, 10.000849 
2.4145524e+3, 3.0930924e+2, -569897.94, -113996.48, 30355.676, -0.1129938, -0.002917163, -111984.16, -111984.16, 0.0, 9.995393, 10.00144 
2.4144888e+3, 3.1931207e+2, -582676.06, -22028.736, -68264.04, 0.0013282916, 0.16650385, -13836.653, -13836.653, 0.0, 9.994889, 10.00231 
2.425734e+3, 1.2939733e+2, -1043067.6, -1628698.9, 22313.566, -0.009821352, 0.061876778, -1042218.7, 629695.44, 0.17775315, 10.00682, 9.997369 
2.425667e+3, 1.3939461e+2, -1015601.06, -1601093.6, 22379.514, -0.024564793, 0.08097348, -1014746.9, 559193.94, 0.12783454, 10.006047, 9.997195 
2.4256013e+3, 1.4939196e+2, -920003.75, -1446657.5, 45464.703, -0.03989528, 0.09002258, -916107.7, 559858.75, 0.07728683, 10.005462, 9.997875 
2.4255356e+3, 1.5938939e+2, -905462.75, -1453071.5, 35788.395, -0.04779454, 0.07510241, -903133.75, 474857.84, 0.0364314, 10.004918, 9.997405 
2.4254702e+3, 1.6938663e+2, -846902.3, -1357465.5, 37668.527, -0.05012264, 0.08513558, -844138.2, 435880.97, 0.01193155, 10.004464, 9.997607 
2.4254045e+3, 1.7938422e+2, -806492.9, -1275478.6, 44013.94, -0.05101333, 0.09973336, -802397.94, 379645.4, 0.0021054142, 10.003978, 9.997731 
2.4253397e+3, 1.8938191e+2, -779074.1, -1106066.6, 58193.6, -0.02169944, 0.06975486, -769026.4, 315038.0, 0.00008815149, 10.003034, 9.998676 
2.4252748e+3, 1.9937998e+2, -847940.3, -1132430.1, 46046.633, 0.007087835, 0.036369614, -840673.0, 145409.05, 0.0000000000084542815, 10.002076, 9.998284 
2.425209e+3, 2.0937851e+2, -778492.5, -1017455.06, 32402.652, -0.031139977, 0.08179562, -774176.75, 113921.734, 0.0, 10.001745, 9.99856 
2.4251428e+3, 2.1937741e+2, -720974.75, -938933.44, 30762.732, -0.07720065, 0.13598074, -716716.1, 73395.695, 0.0, 10.001466, 9.998563 
2.4250774e+3, 2.2937599e+2, -702186.56, -791688.75, 42860.58, -0.066414006, 0.122751676, -684972.44, 7153.9673, 0.0, 10.0005455, 9.999344 
2.425012e+3, 2.3937489e+2, -748664.06, -766609.06, 38491.082, -0.044949543, 0.09864617, -718113.56, -123975.984, 0.0, 9.999567, 9.999314 
2.4249458e+3, 2.4937458e+2, -656139.3, -587671.0, 12487.503, -0.04344053, 0.12450638, -585464.56, -89323.68, 0.0, 9.999171, 10.00006 
2.4248794e+3, 2.593747e+2, -620680.44, -539448.6, 12465.066, -0.04857175, 0.15276968, -537578.9, -139438.58, 0.0, 9.998826, 9.999885 
2.4248132e+3, 2.693742e+2, -599292.2, -416561.16, 23397.156, -0.06344991, 0.11657305, -413612.9, -113467.664, 0.0, 9.998035, 10.000436 
2.424747e+3, 2.793741e+2, -621982.44, -375975.34, 23306.299, -0.06936828, 0.07900838, -373786.8, -171640.1, 0.0, 9.997203, 10.0004425 
2.4246806e+3, 2.8937557e+2, -529295.25, -190610.36, -527.28577, -0.034790568, 0.16791601, -190609.53, -86477.77, 0.0, 9.99678, 10.001246 
2.4246138e+3, 2.9937726e+2, -520022.28, -181110.45, 21197.66, -0.033991463, 0.2412462, -179789.77, -173674.75, 0.0, 9.9963665, 10.000838 
2.4245471e+3, 3.0937448e+2, -596833.2, -161635.67, 59718.74, -0.15011247, -0.10097372, -153589.7, -153589.7, 0.0, 9.995362, 10.001124 
2.4244834e+3, 3.1937948e+2, -600504.25, 56235.895, -28207.13, 0.040421516, 0.29924625, 57445.168, 57445.168, 0.0, 9.994398, 10.003081 
2.4357402e+3, 1.29464e+2, -1063798.5, -1681121.8, -5745.886, -0.015755108, 0.020554874, -1063745.0, 607514.44, 0.17226622, 10.006812, 9.996951 
2.4356726e+3, 1.3946128e+2, -1023843.1, -1639905.9, 1123.6226, -0.06148018, 0.07766419, -1023841.06, 549446.56, 0.123602696, 10.006099, 9.996905 
2.4356063e+3, 1.494587e+2, -922132.06, -1463354.4, 26773.799, -0.06220844, 0.11373384, -920810.8, 554502.1, 0.074467815, 10.005496, 9.997737 
2.4355406e+3, 1.594563e+2, -906505.0, -1460318.3, 17371.463, -0.045513988, 0.12731583, -905960.6, 471375.88, 0.034906898, 10.004927, 9.997354 
2.4354744e+3, 1.6945295e+2, -842844.0, -1349967.1, 22029.764, -0.04299619, 0.07569739, -841888.8, 437480.3, 0.011319176, 10.00446, 9.997663 
2.4354084e+3, 1.7944992e+2, -804576.4, -1270403.5, 18464.816, -0.046326708, 0.024414063, -803845.56, 377552.9, 0.0019570747, 10.003967, 9.997774 
2.4353422e+3, 1.8944833e+2, -776572.1, -1103385.5, 19548.93, -0.03576952, 0.061293047, -775406.94, 308006.28, 0.00007680817, 10.003038, 9.998694 
2.4352764e+3, 1.9944715e+2, -847684.4, -1137643.4, 21408.213, -0.022726266, 0.10531698, -846112.3, 139311.63, 0.00000000002968512, 10.002095, 9.998241 
2.4352105e+3, 2.0944501e+2, -784557.9, -1032461.6, 25811.51, -0.030048618, 0.090179585, -781898.94, 105548.01, 0.0, 10.001751, 9.998457 
2.4351445e+3, 2.1944308e+2, -716131.7, -928259.44, 10190.239, -0.041731957, 0.06949895, -715643.3, 73824.53, 0.0, 10.001458, 9.998642 
2.4350779e+3, 2.2944231e+2, -680243.9, -747662.3, 3878.636, -0.0429398, 0.094399974, -680021.44, 11454.755, 0.0, 10.000546, 9.999648 
2.4350114e+3, 2.3944199e+2, -742347.9, -755912.6, 11608.418, -0.041156895, 0.12452257, -735685.7, -142206.02, 0.0, 9.999573, 9.999388 
2.4349448e+3, 2.494415e+2, -670317.75, -619952.06, 1214.027, -0.04132446, 0.14355017, -619922.8, -124437.26, 0.0, 9.999178, 9.999838 
2.4348782e+3, 2.5944126e+2, -617943.4, -537698.06, -9303.299, -0.046706773, 0.1544034, -536633.6, -139144.75, 0.0, 9.998837, 9.999893 
2.434811e+3, 2.69441e+2, -576261.1, -370381.75, -11900.701, -0.07559111, 0.11957277, -369696.13, -70205.375, 0.0, 9.998037, 10.000754 
2.4347436e+3, 2.7944112e+2, -615110.6, -360514.78, -2166.6094, -0.09058696, 0.08079438, -360496.34, -159007.44, 0.0, 9.997192, 10.000557 
2.4346772e+3, 2.8944215e+2, -537156.4, -210029.83, -12993.44, -0.018542757, 0.12899318, -209514.55, -106035.44, 0.0, 9.996787, 10.001113 
2.4346103e+3, 2.9944363e+2, -515030.53, -180429.11, -5273.6064, 0.0054980316, 0.19479878, -180346.02, -174881.02, 0.0, 9.996403, 10.000829 
2.434542e+3, 3.0944297e+2, -600920.75, -169408.75, 9922.954, -0.19130349, 0.061536342, -169180.67, -169180.67, 0.0, 9.995355, 10.001077 
2.4344775e+3, 3.1944495e+2, -572049.44, 125523.21, -28180.227, 0.027039096, 0.15788034, 126659.77, 126659.77, 0.0, 9.99435, 10.003583 
2.4457468e+3, 1.2953171e+2, -1084117.1, -1696369.4, 14153.56, -0.0057547055, 0.046742428, -1083790.1, 586805.9, 0.16669086, 10.006618, 9.996939 
2.4456787e+3, 1.3952863e+2, -942873.75, -1611581.4, 32997.914, -0.07813958, 0.07160021, -941249.4, 631377.7, 0.119336516, 10.006775, 9.996774 
2.4456118e+3, 1.4952575e+2, -876743.0, -1473615.9, 43280.047, -0.07066844, 0.101067655, -873621.06, 601034.9, 0.07164959, 10.00597, 9.997432 
2.4455452e+3, 1.5952314e+2, -897675.94, -1463792.3, 29264.92, -0.039512224, 0.12200325, -896167.2, 480514.63, 0.033396535, 10.005021, 9.997283 
2.4454786e+3, 1.6952e+2, -851236.94, -1329756.6, 45833.22, -0.03732339, 0.077820495, -846886.5, 431825.56, 0.010720547, 10.0043, 9.997876 
2.4454118e+3, 1.7951718e+2, -846893.56, -1284523.9, 47615.582, -0.044879943, 0.0299023, -841772.8, 338966.34, 0.0018170414, 10.0036545, 9.997825 
2.4453452e+3, 1.8951546e+2, -762547.25, -1112880.4, 36693.598, -0.045926604, 0.0653721, -758745.25, 324010.25, 0.00006739381, 10.00321, 9.998545 
2.4452783e+3, 1.9951417e+2, -755088.3, -1092419.4, 28890.832, -0.041688785, 0.10865639, -752631.8, 232136.27, 0.00000000008671795, 10.002733, 9.998243 
2.4452119e+3, 2.0951207e+2, -781819.0, -1009468.4, 48768.887, -0.02470417, 0.086999334, -771811.3, 114978.75, 0.0, 10.001682, 9.998646 
2.4451455e+3, 2.1951024e+2, -830838.8, -970176.8, 50820.848, -0.010055013, 0.05887694, -814272.5, -25462.936, 0.0, 10.00062, 9.9987545 
2.4450783e+3, 2.295096e+2, -714886.56, -761667.25, 31176.309, -0.025314845, 0.09506076, -699301.6, -8484.953, 0.0, 10.000304, 9.999665 
2.445011e+3, 2.3950943e+2, -668694.4, -716375.56, 21888.725, -0.042789504, 0.13776344, -660170.0, -67350.945, 0.0, 10.000067, 9.999418 
2.4449438e+3, 2.4950877e+2, -649648.7, -604913.25, 25699.996, -0.040478207, 0.13818763, -593210.4, -98384.125, 0.0, 9.999303, 9.999878 
2.4448767e+3, 2.5950837e+2, -664403.06, -550152.75, 29592.627, -0.040402308, 0.12930767, -542942.75, -146111.86, 0.0, 9.998481, 9.999977 
2.4448088e+3, 2.6950848e+2, -577689.8, -356097.78, 15002.181, -0.07322432, 0.12015889, -355086.72, -56257.324, 0.0, 9.997968, 10.000884 
2.4447407e+3, 2.79509e+2, -568629.25, -332093.44, 15026.697, -0.09243821, 0.10907454, -331142.63, -130318.555, 0.0, 9.997491, 10.000606 
2.4446738e+3, 2.8950965e+2, -524772.6, -210422.33, 11910.704, -0.025653603, 0.124171644, -209971.67, -107153.64, 0.0, 9.996904, 10.001051 
2.4446064e+3, 2.9951078e+2, -544965.9, -204079.2, 13261.085, -0.005690931, 0.15918233, -203564.11, -198756.3, 0.0, 9.996242, 10.000741 
2.4445373e+3, 3.095111e+2, -610791.06, -178442.97, 6759.503, -0.15450795, 0.13536052, -178337.31, -178337.31, 0.0, 9.99531, 10.001035 
2.4444711e+3, 3.1951195e+2, -494471.0, 218210.6, 15867.662, -0.026858918, 0.1142359, 218563.7, 218563.7, 0.0, 9.994648, 10.004075 
2.4557534e+3, 1.2960033e+2, -1055694.9, -1652010.6, 22168.633, 0.011802079, 0.11774304, -1054871.9, 615053.1, 0.16100031, 10.006668, 9.997243 
2.455685e+3, 1.395967e+2, -945912.3, -1620031.3, 21342.611, -0.07995307, 0.06613318, -945237.25, 626722.06, 0.115018435, 10.006744, 9.996731 
2.4556175e+3, 1.4959314e+2, -905851.9, -1541306.5, 8808.053, -0.06891899, 0.06280392, -905729.8, 568265.1, 0.06882314, 10.005959, 9.996974 
2.45555e+3, 1.5959002e+2, -900975.5, -1476392.4, 310.2039, -0.032401316, 0.06985735, -900975.4, 475051.0, 0.03189708, 10.005033, 9.997193 
2.4554826e+3, 1.6958775e+2, -826654.1, -1281547.5, 21685.137, -0.034290187, 0.08929973, -825622.7, 452425.63, 0.010134919, 10.004307, 9.998206 
2.4554153e+3, 1.795858e+2, -844231.25, -1280450.5, 26966.291, -0.046804678, 0.10364937, -842570.56, 337496.25, 0.0016845469, 10.0036545, 9.997855 
2.455348e+3, 1.8958327e+2, -786433.56, -1161493.6, 22437.916, -0.05277205, 0.07909424, -785096.0, 296995.78, 0.00005957078, 10.003201, 9.998218 
2.4552807e+3, 1.9958103e+2, -755294.9, -1089941.6, 2169.6187, -0.051333077, 0.053774495, -755280.8, 228833.08, 0.00000000016280782, 10.002715, 9.998271 
2.4552137e+3, 2.0957969e+2, -750401.1, -945569.6, 5768.7275, -0.015968788, 0.07490924, -750230.75, 135897.14, 0.0, 10.001682, 9.999087 
2.4551463e+3, 2.1957879e+2, -820429.6, -953043.25, 24741.521, 0.016591942, 0.101894975, -815964.0, -27826.111, 0.0, 10.000633, 9.998869 
2.4550787e+3, 2.2957782e+2, -733097.1, -803125.2, 25607.707, -0.013951383, 0.12308927, -724732.2, -34583.617, 0.0, 10.000315, 9.999378 
2.4550107e+3, 2.3957713e+2, -669287.56, -720341.0, 3474.8953, -0.04972908, 0.137037, -669052.1, -76895.67, 0.0, 10.000073, 9.999391 
2.4549429e+3, 2.4957637e+2, -628401.8, -563240.7, -7907.3267, -0.040665925, 0.1074147, -562294.9, -68131.23, 0.0, 9.999309, 10.000164 
2.454875e+3, 2.5957602e+2, -654777.06, -531569.6, 3040.4497, -0.03009807, 0.077751026, -531494.6, -135327.66, 0.0, 9.998482, 10.000108 
2.4548066e+3, 2.695766e+2, -583716.5, -370540.13, -3190.1013, -0.055859353, 0.11815624, -370492.38, -72330.414, 0.0, 9.997971, 10.000786 
2.4547383e+3, 2.7957758e+2, -569711.4, -338221.7, -5970.0693, -0.076199315, 0.16246966, -338067.8, -137914.34, 0.0, 9.997502, 10.000561 
2.4546702e+3, 2.8957805e+2, -523112.38, -209818.58, -14380.147, -0.060411185, 0.16066685, -209159.92, -107011.125, 0.0, 9.996911, 10.001055 
2.4546018e+3, 2.995787e+2, -557100.9, -230385.63, -18656.336, -0.06959164, 0.15140262, -229323.75, -225181.16, 0.0, 9.996241, 10.000565 
2.4545337e+3, 3.0957833e+2, -611258.2, -179674.97, -29904.244, -0.028189944, 0.07287685, -177612.77, -177612.77, 0.0, 9.995306, 10.00103 
2.454465e+3, 3.195803e+2, -520112.44, 162073.42, 9529.797, -0.082030356, 0.14895849, 162206.52, 162206.52, 0.0, 9.994656, 10.003687 
2.46576e+3, 1.2966864e+2, -982880.6, -1623960.6, 31146.328, -0.021254186, 0.12645671, -981370.94, 687884.75, 0.15518272, 10.007254, 9.997186 
2.4656917e+3, 1.3966496e+2, -1006554.44, -1650248.4, 11925.038, -0.054237556, 0.072720505, -1006333.6, 564956.8, 0.110634476, 10.006237, 9.996766 
2.4656233e+3, 1.496614e+2, -937594.56, -1543652.5, 21190.135, -0.05316819, 0.059094343, -936854.6, 536471.06, 0.065974854, 10.005652, 9.997103 
2.4655549e+3, 1.5965828e+2, -882700.44, -1462504.9, 41553.434, -0.03645902, 0.055155944, -879737.56, 495619.47, 0.030398345, 10.005139, 9.997234 
2.4654868e+3, 1.6965608e+2, -817034.06, -1283805.4, 45919.977, -0.03778828, 0.08678937, -812559.44, 464819.2, 0.009556781, 10.004406, 9.998141 
2.4654187e+3, 1.7965424e+2, -846730.75, -1278200.9, 31937.512, -0.045176852, 0.11672023, -844379.56, 335017.06, 0.001557217, 10.003627, 9.997883 
2.4653508e+3, 1.8965171e+2, -837103.44, -1172407.0, 51559.547, -0.0404253, 0.08568363, -829354.2, 252067.2, 0.00005281826, 10.002799, 9.998334 
2.4652833e+3, 1.9964947e+2, -851984.94, -1130378.1, 53452.547, -0.031030618, 0.051346626, -842074.6, 141369.08, 0.00000000021615258, 10.00203, 9.998321 
2.465215e+3, 2.0964828e+2, -751281.3, -948301.7, 30936.137, -0.014750382, 0.08770938, -746537.94, 138918.8, 0.0, 10.001692, 9.999061 
2.4651468e+3, 2.1964753e+2, -712381.25, -896986.6, 23662.357, -0.0007040825, 0.13132705, -709396.56, 78069.07, 0.0, 10.001364, 9.998899 
2.4650788e+3, 2.2964649e+2, -698226.56, -777470.6, 44849.36, -0.014430573, 0.13847889, -678004.0, 11472.558, 0.0, 10.000521, 9.999453 
2.4650107e+3, 2.3964567e+2, -727158.1, -738076.25, 44084.85, -0.031690255, 0.13405256, -688195.6, -96710.52, 0.0, 9.999638, 9.9994755 
2.4649419e+3, 2.4964501e+2, -641800.4, -558529.94, 22707.068, -0.0378184, 0.105331324, -552740.5, -59249.0, 0.0, 9.999174, 10.000258 
2.4648733e+3, 2.5964478e+2, -612801.94, -505750.0, 21316.457, -0.0428255, 0.081277475, -501661.53, -106167.89, 0.0, 9.998751, 10.000153 
2.4648045e+3, 2.6964548e+2, -569081.1, -365877.0, 17365.307, -0.04855519, 0.13394944, -364403.7, -66915.734, 0.0, 9.998086, 10.00076 
2.4647358e+3, 2.7964652e+2, -584880.7, -343567.78, 20613.525, -0.052235816, 0.1884158, -341819.6, -142340.48, 0.0, 9.997395, 10.000573 
2.4646668e+3, 2.896469e+2, -520672.2, -201451.97, 15002.678, -0.08311222, 0.17003548, -200748.42, -99272.9, 0.0, 9.996901, 10.001115 
2.4645974e+3, 2.996474e+2, -527804.4, -211362.78, 11787.799, -0.12090557, 0.14441532, -210924.28, -207454.0, 0.0, 9.996424, 10.000605 
2.46453e+3, 3.0964747e+2, -512638.97, -123925.01, 14445.508, 0.060591824, 0.10143418, -123388.914, -123388.914, 0.0, 9.995953, 10.001099 
2.4644592e+3, 3.1965e+2, -546721.25, 20455.113, 10288.542, -0.13361035, 0.24661261, 20641.686, 20641.686, 0.0, 9.995034, 10.002528 
2.4757661e+3, 1.2973695e+2, -995856.8, -1664619.4, -1593.0283, -0.0921394, 0.092039935, -995853.0, 672733.0, 0.14922646, 10.007271, 9.996847 
2.475698e+3, 1.3973351e+2, -999092.4, -1637924.4, -13087.211, -0.009000431, 0.0874123, -998824.4, 571795.1, 0.10616246, 10.006226, 9.996858 
2.4756289e+3, 1.4973046e+2, -898698.2, -1461993.8, 5289.4478, -0.028379932, 0.080446795, -898648.5, 574000.5, 0.06308056, 10.005647, 9.997674 
2.4755599e+3, 1.5972774e+2, -874336.4, -1446754.4, 18974.889, -0.050459754, 0.07102976, -873708.06, 500967.3, 0.02888192, 10.0051365, 9.997347 
2.475491e+3, 1.6972497e+2, -845574.3, -1345031.3, 17956.762, -0.047254924, 0.073945194, -844929.56, 431773.72, 0.00897613, 10.004405, 9.997724 
2.4754223e+3, 1.7972258e+2, -844804.7, -1275549.3, 3235.3635, -0.04124512, 0.08002459, -844780.44, 333947.1, 0.00143152, 10.003627, 9.997904 
2.4753538e+3, 1.8972081e+2, -800893.56, -1100341.6, 20837.643, -0.011655639, 0.08697415, -799450.5, 281294.22, 0.000046539175, 10.002807, 9.998828 
2.4752854e+3, 1.9971938e+2, -847299.2, -1125053.8, 32177.615, 0.014900968, 0.095181204, -843620.2, 139138.61, 0.00000000023303823, 10.002044, 9.998354 
2.4752162e+3, 2.0971777e+2, -784061.25, -1019067.75, 21877.932, -0.02162363, 0.12239757, -782041.9, 102735.516, 0.0, 10.0016985, 9.998574 
2.4751474e+3, 2.1971641e+2, -716440.1, -906282.56, 3219.079, -0.059548784, 0.14785412, -716385.56, 70407.414, 0.0, 10.001363, 9.998838 
2.4750789e+3, 2.2971553e+2, -668612.44, -717848.56, 10065.732, -0.025580326, 0.14160545, -666634.1, 22167.004, 0.0, 10.000524, 9.999864 
2.4750105e+3, 2.3971501e+2, -714471.9, -714051.0, 18182.26, 0.009895962, 0.13027148, -696077.94, -105272.52, 0.0, 9.999642, 9.999641 
2.4749409e+3, 2.4971461e+2, -649250.3, -576707.8, 7472.578, -0.033289827, 0.13350959, -575946.06, -83135.86, 0.0, 9.999181, 10.0001335 
2.4748713e+3, 2.597146e+2, -615476.75, -514852.66, -37.61614, -0.08057439, 0.1412493, -514852.63, -120040.95, 0.0, 9.998761, 10.000088 
2.4748023e+3, 2.6971507e+2, -565562.75, -361282.25, -11390.094, -0.051473275, 0.1685761, -360649.13, -63841.07, 0.0, 9.998092, 10.000792 
2.4747331e+3, 2.7971578e+2, -580124.9, -335485.44, -3030.418, -0.019106917, 0.1886708, -335447.9, -136646.38, 0.0, 9.997396, 10.000631 
2.4746633e+3, 2.8971598e+2, -512989.56, -186972.64, -4302.134, -0.09271579, 0.14543961, -186915.88, -86116.25, 0.0, 9.9969015, 10.001217 
2.4745932e+3, 2.9971665e+2, -509045.0, -173998.63, -8223.69, -0.16195033, 0.12017944, -173796.89, -171003.56, 0.0, 9.996426, 10.000863 
2.4745262e+3, 3.097189e+2, -499043.28, -102677.35, -424.8956, 0.10500286, 0.27558348, -102676.9, -102676.9, 0.0, 9.995977, 10.001235 
2.4744533e+3, 3.1971925e+2, -606234.8, -111771.41, -86621.33, -0.1942711, 0.23587815, -97036.0, -97036.0, 0.0, 9.995061, 10.001613 
2.4857733e+3, 1.2980628e+2, -969587.4, -1657002.5, 15142.051, -0.10422524, 0.06567536, -969253.94, 698651.7, 0.14309421, 10.007459, 9.996816 
2.4857041e+3, 1.3980298e+2, -1002640.8, -1635057.8, 28674.396, -0.0022413444, 0.07636494, -1001343.4, 568594.75, 0.10155798, 10.006151, 9.996912 
2.4856342e+3, 1.4980014e+2, -909141.2, -1451529.3, 44064.316, -0.023548642, 0.079420194, -905584.6, 566381.0, 0.060102068, 10.005488, 9.997823 
2.4855645e+3, 1.5979762e+2, -896512.8, -1451320.8, 33058.74, -0.050280884, 0.07813493, -894549.94, 479440.3, 0.027323836, 10.00495, 9.997403 
2.485495e+3, 1.6979474e+2, -870693.8, -1363611.1, 43544.0, -0.041721955, 0.072957225, -866876.75, 409142.8, 0.008381882, 10.00426, 9.9976635 
2.4854258e+3, 1.797922e+2, -856568.94, -1284083.4, 46275.74, -0.030755036, 0.07077265, -851617.25, 326428.34, 0.0013041621, 10.003563, 9.997873 
2.4853565e+3, 1.8979059e+2, -778601.44, -1089225.1, 38115.004, -0.013220239, 0.09524658, -773992.94, 306068.75, 0.000040263076, 10.002964, 9.998826 
2.4852873e+3, 1.9978935e+2, -798294.0, -1098448.1, 25947.71, 0.0021080475, 0.122582465, -796067.4, 186006.95, 0.00000000017417703, 10.002373, 9.998375 
2.4852178e+3, 2.0978767e+2, -784077.9, -1015360.56, 46279.246, -0.02434716, 0.14302398, -775161.25, 108932.08, 0.0, 10.001688, 9.998603 
2.4851485e+3, 2.1978624e+2, -764663.56, -920969.0, 52529.754, -0.052080862, 0.15631999, -748650.4, 37459.402, 0.0, 10.000999, 9.99891 
2.4850792e+3, 2.2978534e+2, -678130.5, -708898.2, 39561.633, -0.027238453, 0.13917786, -651066.94, 37050.703, 0.0, 10.000406, 9.999979 
2.4850097e+3, 2.3978487e+2, -682923.8, -689100.56, 33089.137, -0.00015559596, 0.122410536, -652779.25, -62658.1, 0.0, 9.999823, 9.9997225 
2.48494e+3, 2.4978477e+2, -647516.8, -571709.3, 34408.28, -0.033875033, 0.1516749, -558421.06, -66297.46, 0.0, 9.99918, 10.000166 
2.4848698e+3, 2.59785e+2, -644701.3, -523719.13, 36374.15, -0.07098931, 0.18270534, -513625.16, -119501.96, 0.0, 9.998544, 10.000129 
2.4848002e+3, 2.6978523e+2, -567098.56, -355973.63, 26326.93, -0.04548017, 0.18217055, -352740.22, -56618.68, 0.0, 9.99806, 10.00084 
2.4847305e+3, 2.797857e+2, -555090.0, -321610.44, 33479.83, -0.017432721, 0.17405552, -316904.47, -118787.42, 0.0, 9.997565, 10.000643 
2.4846599e+3, 2.8978607e+2, -525063.9, -195922.53, 23160.271, -0.08633378, 0.15003125, -194300.83, -94186.86, 0.0, 9.996838, 10.0011835 
2.4845894e+3, 2.997869e+2, -534422.94, -161086.56, 16289.913, -0.15051815, 0.14239317, -160377.13, -158270.94, 0.0, 9.996149, 10.001082 
2.4845217e+3, 3.0978975e+2, -485151.06, -53821.57, 36340.82, 0.0928598, 0.3185831, -50781.176, -50781.176, 0.0, 9.995898, 10.001605 
2.484449e+3, 3.1978825e+2, -542674.7, -127374.38, -55090.55, -0.1548924, 0.09100899, -120190.76, -120190.76, 0.0, 9.995702, 10.001194 
2.4957807e+3, 1.2987654e+2, -958499.94, -1635407.1, -29161.107, -0.0743564, 0.044417717, -957246.0, 709970.1, 0.13672192, 10.00741, 9.99701 
2.4957097e+3, 1.3987333e+2, -995493.56, -1632689.8, -3758.9316, -0.028156428, 0.048849653, -995471.4, 573775.56, 0.09676509, 10.006179, 9.996916 
2.4956395e+3, 1.4987047e+2, -917520.5, -1480073.8, 27007.01, -0.03603395, 0.06434507, -916226.94, 555048.75, 0.057001125, 10.005513, 9.99761 
2.4955693e+3, 1.5986794e+2, -894857.06, -1451241.1, 11472.867, -0.039027825, 0.078816354, -894620.6, 478680.75, 0.025705446, 10.0049515, 9.997405 
2.4954993e+3, 1.698653e+2, -853896.25, -1331076.4, 17374.285, -0.02399993, 0.080866784, -853264.5, 422063.72, 0.007768034, 10.004264, 9.997888 
2.4954292e+3, 1.7986295e+2, -862277.5, -1299164.8, 22059.406, -0.015876934, 0.08341434, -861166.5, 316185.84, 0.0011739179, 10.003571, 9.997768 
2.4953589e+3, 1.89861e+2, -809831.1, -1156414.6, 17366.072, -0.04257198, 0.109664306, -808963.2, 270409.66, 0.00003377425, 10.002969, 9.998364 
2.4952888e+3, 1.9985941e+2, -797401.7, -1097905.6, 3541.2422, -0.06331073, 0.13696429, -797360.0, 184029.83, 0.00000000005180779, 10.002374, 9.998382 
2.4952193e+3, 2.0985803e+2, -749144.2, -944283.44, 20899.588, -0.021938894, 0.15097728, -746930.94, 136473.73, 0.0, 10.001689, 9.999093 
2.49515e+3, 2.1985693e+2, -752570.6, -897545.25, 29117.715, 0.01655092, 0.15694584, -746941.06, 38475.48, 0.0, 10.001001, 9.999072 
2.4950793e+3, 2.2985585e+2, -691243.6, -738616.75, 18475.867, -0.02181481, 0.13146855, -684890.0, 2536.626, 0.0, 10.000412, 9.999774 
2.4950089e+3, 2.3985517e+2, -683048.6, -692068.8, 9835.716, -0.062051218, 0.11066238, -676738.25, -87305.445, 0.0, 9.999829, 9.999702 
2.4949387e+3, 2.498554e+2, -633619.8, -545497.6, 8742.19, -0.038306255, 0.15921254, -544638.75, -53206.504, 0.0, 9.999186, 10.000345 
2.4948686e+3, 2.5985596e+2, -634769.44, -504972.13, 14332.493, -0.012806898, 0.20545089, -503408.3, -109979.664, 0.0, 9.998547, 10.000258 
2.4947982e+3, 2.6985592e+2, -562823.94, -349287.2, 8196.578, -0.031685516, 0.17240275, -348973.03, -53543.953, 0.0, 9.998065, 10.000887 
2.4947275e+3, 2.7985618e+2, -558017.06, -330802.72, 9347.668, -0.05053255, 0.14049713, -330418.8, -132992.33, 0.0, 9.997573, 10.000579 
2.4946567e+3, 2.8985712e+2, -539931.0, -227102.6, -7149.8184, -0.06069511, 0.19123541, -226939.27, -127520.8, 0.0, 9.996833, 10.000975 
2.494586e+3, 2.998583e+2, -525016.3, -139053.58, -1101.5104, -0.08191281, 0.22950576, -139050.44, -137642.55, 0.0, 9.996133, 10.001244 
2.4945167e+3, 3.0985934e+2, -443281.97, 32402.047, 24722.273, 0.014638845, 0.17790903, 33683.46, 33683.46, 0.0, 9.995895, 10.002202 
2.4944448e+3, 3.1986082e+2, -585660.75, -231338.73, -36907.09, -0.11111186, 0.21391465, -227535.23, -227535.23, 0.0, 9.99576, 10.000454 
2.5057882e+3, 1.2994803e+2, -997932.94, -1635158.9, -210.04068, -0.039315473, 0.054553334, -997932.9, 668582.56, 0.13005556, 10.00695, 9.997229 
2.5057155e+3, 1.3994464e+2, -948996.06, -1609780.3, 28363.613, -0.051830795, 0.027260074, -947780.8, 620766.2, 0.091748215, 10.006509, 9.996913 
2.5056446e+3, 1.4994168e+2, -906768.4, -1502679.3, 60994.875, -0.05028347, 0.05100448, -900589.25, 569988.06, 0.053760163, 10.005699, 9.997364 
2.505574e+3, 1.5993907e+2, -911845.94, -1469916.6, 43772.3, -0.034260556, 0.07898796, -908433.5, 464170.97, 0.024022732, 10.004874, 9.997312 
2.5055033e+3, 1.6993652e+2, -851468.3, -1321846.8, 41716.066, -0.027889442, 0.08923506, -847797.3, 426833.2, 0.0071362923, 10.00425, 9.997954 
2.5054324e+3, 1.7993426e+2, -850248.25, -1291827.9, 39624.344, -0.030630259, 0.09632468, -846720.8, 329932.88, 0.0010419629, 10.003654, 9.997776 
2.5053614e+3, 1.8993211e+2, -815921.3, -1167312.9, 56170.926, -0.04768764, 0.108568944, -807160.6, 271515.34, 0.000027156255, 10.002967, 9.998288 
2.5052908e+3, 1.9993031e+2, -811991.1, -1102823.5, 60733.973, -0.05828064, 0.12206014, -799817.7, 180877.16, 0.0000000000010010511, 10.002269, 9.998395 
2.5052208e+3, 2.0992906e+2, -759222.06, -936380.2, 55877.91, -0.02356791, 0.1410931, -743070.06, 139638.36, 0.0, 10.00157, 9.999201 
2.5051504e+3, 2.1992815e+2, -762805.4, -892565.56, 43552.137, 0.008323828, 0.15456696, -749543.2, 35175.355, 0.0, 10.0008955, 9.999155 
2.5050792e+3, 2.2992715e+2, -697854.6, -737982.06, 47068.99, -0.029589327, 0.13531853, -666751.56, 19976.293, 0.0, 10.000356, 9.999804 
2.5050083e+3, 2.3992652e+2, -684470.4, -691091.5, 50437.65, -0.06790528, 0.11826818, -637234.75, -48501.004, 0.0, 9.999819, 9.999711 
2.5049376e+3, 2.4992666e+2, -634569.4, -546758.5, 36518.953, -0.033269014, 0.15860048, -533555.94, -42821.574, 0.0, 9.999188, 10.000333 
2.5048673e+3, 2.5992712e+2, -629345.5, -495901.34, 31973.932, 0.0027633451, 0.19820215, -488635.8, -95904.12, 0.0, 9.998562, 10.000312 
2.5047958e+3, 2.6992726e+2, -557745.5, -335420.38, 30273.965, -0.026882304, 0.17612389, -331371.7, -36641.645, 0.0, 9.998055, 10.000983 
2.5047246e+3, 2.799277e+2, -559828.7, -331729.75, 31654.17, -0.05500672, 0.15436004, -327418.47, -130692.734, 0.0, 9.997566, 10.000572 
2.5046536e+3, 2.8992862e+2, -517912.94, -229915.0, 16615.668, -0.041099556, 0.20968397, -228959.56, -130241.03, 0.0, 9.997047, 10.000849 
2.5045824e+3, 2.999297e+2, -474573.13, -119218.41, 29510.496, -0.050848864, 0.25049248, -116784.375, -116075.37, 0.0, 9.996503, 10.0012 
2.5045118e+3, 3.099301e+2, -424880.25, 54544.336, 24451.658, -0.0428027, 0.13048977, 55788.195, 55788.195, 0.0, 9.99597, 10.0023155 
2.5044402e+3, 3.1993225e+2, -603608.6, -240872.44, -20715.97, -0.11791938, 0.21946497, -239693.17, -239693.17, 0.0, 9.99565, 10.000437 
2.515795e+3, 1.300206e+2, -982568.7, -1608940.5, -13297.967, -0.0052095735, 0.08910914, -982286.5, 683518.3, 0.12309408, 10.006923, 9.997445 
2.5157216e+3, 1.4001684e+2, -946031.75, -1613971.1, 6223.4404, -0.07331303, 0.009283096, -945973.75, 621865.1, 0.086519234, 10.006517, 9.9968815 
2.5156498e+3, 1.500137e+2, -920867.06, -1543458.9, 30119.992, -0.06535605, 0.03821376, -919413.3, 550457.94, 0.050395273, 10.005717, 9.997076 
2.5155786e+3, 1.6001095e+2, -921032.56, -1496090.3, 17713.826, -0.036028538, 0.07894944, -920487.44, 451412.8, 0.02228935, 10.0048895, 9.997127 
2.515507e+3, 1.700084e+2, -855323.1, -1333927.9, 20871.207, -0.051057875, 0.09926446, -854414.7, 419511.84, 0.00649497, 10.00426, 9.9978695 
2.5154352e+3, 1.8000615e+2, -842840.7, -1278780.9, 16330.315, -0.07047965, 0.11075607, -842229.8, 333719.8, 0.00091099535, 10.003657, 9.997866 
2.5153646e+3, 1.900039e+2, -798058.9, -1131999.0, 30389.326, -0.030751703, 0.09345121, -795315.9, 282655.72, 0.000020743495, 10.002969, 9.998532 
2.5152934e+3, 2.0000201e+2, -812240.25, -1104767.4, 34763.41, 0.008115822, 0.0797574, -808165.75, 171824.56, 0.0, 10.00227, 9.9983835 
2.5152218e+3, 2.1000074e+2, -777249.7, -976212.4, 30061.48, -0.031200282, 0.11518154, -772806.9, 109198.3, 0.0, 10.001575, 9.998927 
2.5151503e+3, 2.1999983e+2, -762175.0, -893730.75, 21422.418, -0.07280938, 0.15112098, -758774.5, 25241.572, 0.0, 10.0009, 9.999146 
2.5150794e+3, 2.299992e+2, -679513.75, -702451.0, 28075.043, -0.04848731, 0.15067996, -660655.25, 25366.36, 0.0, 10.000361, 10.000048 
2.5150084e+3, 2.3999888e+2, -682243.06, -689237.3, 28327.201, -0.018901886, 0.14462104, -657197.94, -69173.53, 0.0, 9.9998255, 9.999723 
2.5149366e+3, 2.4999848e+2, -650285.4, -581922.44, 11443.222, -0.020409701, 0.14890233, -580057.8, -90027.17, 0.0, 9.999194, 10.000091 
2.514865e+3, 2.5999847e+2, -631677.8, -503260.66, 9473.055, -0.027228964, 0.15998809, -502565.63, -110532.58, 0.0, 9.998567, 10.00026 
2.5147936e+3, 2.699993e+2, -547713.1, -316278.38, 10507.674, -0.030791132, 0.19581686, -315802.28, -21777.309, 0.0, 9.998057, 10.001117 
2.5147223e+3, 2.800003e+2, -556700.56, -326094.8, 11631.349, -0.028958477, 0.22162549, -325509.63, -129494.664, 0.0, 9.997565, 10.000614 
2.5146505e+3, 2.900004e+2, -519526.63, -236369.97, -4387.231, -0.029706579, 0.1998044, -236302.02, -138286.83, 0.0, 9.997055, 10.000804 
2.5145784e+3, 3.000009e+2, -493184.78, -164352.38, 8338.6, -0.060836084, 0.19296159, -164141.06, -164129.88, 0.0, 9.996525, 10.000882 
2.5145072e+3, 3.1000212e+2, -460558.78, -21014.898, 390.92365, -0.08010381, 0.20195854, -21014.55, -21014.55, 0.0, 9.995972, 10.001798 
2.514436e+3, 3.200021e+2, -518763.22, -61446.09, -22310.31, -0.06978142, 0.07713494, -60360.258, -60360.258, 0.0, 9.995629, 10.001682 
2.5258017e+3, 1.3009325e+2, -1015484.0, -1632468.4, 20403.094, 0.011877889, 0.07433087, -1014810.06, 650282.56, 0.11589179, 10.006651, 9.997389 
2.5257277e+3, 1.4008984e+2, -937728.75, -1613941.6, 17928.293, -0.09680073, 0.034963097, -937253.8, 629870.1, 0.081129365, 10.006566, 9.996856 
2.5256553e+3, 1.5008658e+2, -900147.0, -1533225.3, 42233.383, -0.07807499, 0.051931657, -897341.94, 571815.4, 0.046945453, 10.005856, 9.997076 
2.5255835e+3, 1.6008364e+2, -898483.25, -1489024.8, 47706.996, -0.033233173, 0.075451344, -894654.06, 476533.84, 0.02052876, 10.005064, 9.997088 
2.525511e+3, 1.7008099e+2, -848936.0, -1340456.5, 56789.945, -0.04994841, 0.09486599, -842459.9, 430755.34, 0.005854838, 10.004349, 9.997779 
2.5254387e+3, 1.8007867e+2, -844078.3, -1279485.3, 48382.402, -0.072871275, 0.10861481, -838766.9, 336472.13, 0.0007841083, 10.0036545, 9.99786 
2.525367e+3, 1.9007649e+2, -799407.4, -1124544.6, 49533.066, -0.033099853, 0.09374514, -792028.7, 285231.44, 0.000014969731, 10.002931, 9.998599 
2.5252953e+3, 2.0007466e+2, -819423.4, -1107609.5, 45642.246, 0.006171353, 0.080897294, -812367.4, 166910.78, 0.0, 10.002224, 9.998383 
2.5252232e+3, 2.1007328e+2, -775087.7, -983940.44, 52275.73, -0.038321443, 0.11387367, -762733.9, 118560.195, 0.0, 10.001634, 9.998843 
2.5251508e+3, 2.2007228e+2, -744160.8, -887745.7, 52583.656, -0.08411268, 0.14797816, -726963.44, 56342.668, 0.0, 10.001041, 9.999117 
2.5250793e+3, 2.3007168e+2, -685166.3, -703025.1, 45214.563, -0.048054345, 0.15089759, -648007.9, 37303.637, 0.0, 10.0003195, 10.00006 
2.525008e+3, 2.400714e+2, -712176.6, -702053.7, 33703.24, -0.006183772, 0.1492617, -673033.94, -85719.945, 0.0, 9.999619, 9.999732 
2.524936e+3, 2.50071e+2, -657701.25, -586604.2, 31243.26, -0.01686552, 0.15526634, -574825.75, -85505.58, 0.0, 9.999154, 10.000075 
2.5248635e+3, 2.6007098e+2, -612830.06, -496058.16, 42939.91, -0.034852184, 0.16555004, -481968.22, -90645.29, 0.0, 9.998711, 10.000238 
2.5247914e+3, 2.7007174e+2, -528955.94, -310598.28, 34455.01, -0.036525395, 0.19948669, -305290.56, -11975.161, 0.0, 9.998207, 10.0010805 
2.5247198e+3, 2.8007272e+2, -537603.44, -312124.47, 24258.938, -0.028300425, 0.22515714, -309544.0, -114238.4, 0.0, 9.997683, 10.00065 
2.5246474e+3, 2.9007283e+2, -498698.9, -212902.94, 15875.295, -0.013639188, 0.19440661, -212023.8, -114718.39, 0.0, 9.997147, 10.000917 
2.524575e+3, 3.0007324e+2, -499141.13, -191450.72, 37922.563, -0.036351625, 0.17732868, -186845.72, -186845.72, 0.0, 9.996597, 10.000656 
2.5245026e+3, 3.1007445e+2, -502726.78, -102958.97, 28792.334, -0.11787264, 0.23701398, -100895.914, -100895.914, 0.0, 9.9959545, 10.001239 
2.5244316e+3, 3.2007554e+2, -526650.56, 59133.043, -10304.726, -0.014190337, 0.23850149, 59314.26, 59314.26, 0.0, 9.99504, 10.002795 
2.535808e+3, 1.3016613e+2, -1018550.56, -1662392.9, 19246.129, 0.014373718, 0.024916515, -1017975.75, 646401.94, 0.1085281, 10.006709, 9.9971285 
2.5357336e+3, 1.401636e+2, -938917.8, -1619738.4, 3139.5156, -0.12263546, 0.095297344, -938903.4, 627498.8, 0.07564347, 10.006538, 9.996831 
2.5356606e+3, 1.5016024e+2, -887068.7, -1505999.5, 12459.361, -0.089800514, 0.08649183, -886817.94, 581618.0, 0.043455444, 10.0058365, 9.997274 
2.5355884e+3, 1.6015704e+2, -894514.06, -1482344.3, 19122.338, -0.027201064, 0.06890905, -893892.6, 476575.5, 0.018765628, 10.005058, 9.997139 
2.5355154e+3, 1.7015423e+2, -856208.7, -1357143.9, 31056.648, -0.028730191, 0.0781539, -854290.6, 418206.3, 0.005226278, 10.004348, 9.997667 
2.5354424e+3, 1.801518e+2, -851221.4, -1295553.5, 22321.367, -0.04489142, 0.09238823, -850102.9, 324419.03, 0.00066433277, 10.0036545, 9.997752 
2.5353697e+3, 1.9014983e+2, -806244.6, -1140907.5, 22713.252, -0.05405691, 0.1084598, -804710.1, 271831.72, 0.000010195159, 10.002935, 9.9984865 
2.535297e+3, 2.0014818e+2, -818652.8, -1108752.3, 21769.77, -0.05681684, 0.122485526, -817028.25, 161530.52, 0.0, 10.002232, 9.998374 
2.5352246e+3, 2.1014664e+2, -768485.56, -973005.7, 31334.578, -0.043225043, 0.13477471, -763792.5, 116783.0, 0.0, 10.001641, 9.998918 
2.535152e+3, 2.2014543e+2, -748360.2, -898864.56, 28523.94, -0.030846315, 0.14380002, -743135.6, 39453.42, 0.0, 10.001047, 9.999041 
2.5350797e+3, 2.3014455e+2, -700690.7, -737994.3, 17806.691, -0.030850708, 0.13619307, -693555.56, -8957.636, 0.0, 10.000326, 9.99982 
2.535007e+3, 2.4014406e+2, -712070.06, -704072.0, 11596.123, -0.030280884, 0.13378742, -695804.75, -109201.87, 0.0, 9.999623, 9.999718 
2.5349346e+3, 2.501442e+2, -642611.1, -557595.5, 14314.818, -0.022072988, 0.17915428, -555249.94, -66646.54, 0.0, 9.999159, 10.000275 
2.5348622e+3, 2.601446e+2, -612843.5, -499083.72, 24509.656, -0.019760864, 0.21693513, -494027.78, -103426.22, 0.0, 9.998718, 10.0002165 
2.5347894e+3, 2.701445e+2, -544933.6, -346774.44, 13662.553, -0.045404248, 0.18418002, -345836.88, -53234.605, 0.0, 9.998215, 10.000832 
2.5347167e+3, 2.8014478e+2, -535835.6, -311635.16, 2472.8726, -0.056531075, 0.15684725, -311607.88, -117008.59, 0.0, 9.99769, 10.000652 
2.5346446e+3, 2.9014575e+2, -480364.72, -176724.97, -7018.317, 0.00818402, 0.19535965, -176562.84, -79972.94, 0.0, 9.99715, 10.001166 
2.534572e+3, 3.0014667e+2, -510555.78, -214961.34, 13491.028, 0.027246347, 0.21250388, -214346.89, -214346.89, 0.0, 9.996592, 10.000501 
2.5344977e+3, 3.1014702e+2, -541397.9, -183053.73, 2429.6426, -0.15451661, 0.22981834, -183037.27, -183037.27, 0.0, 9.995948, 10.000696 
2.5344265e+3, 3.2014883e+2, -493193.72, 130064.625, -66998.5, -0.013885124, 0.3364163, 137185.42, 137185.42, 0.0, 9.995022, 10.003298 
2.5458142e+3, 1.3023983e+2, -945363.8, -1643474.8, 18984.531, -0.041075606, 0.030177012, -944847.94, 718807.1, 0.10107012, 10.007295, 9.996989 
2.54574e+3, 1.402372e+2, -988237.56, -1642107.6, 8686.87, -0.09130569, 0.09814936, -988122.2, 577559.5, 0.07011768, 10.006126, 9.996874 
2.5456664e+3, 1.5023395e+2, -922554.1, -1501737.3, 19598.793, -0.076425485, 0.08715756, -921891.7, 545822.2, 0.03996506, 10.005473, 9.997476 
2.5455928e+3, 1.602309e+2, -907381.0, -1473359.8, 26460.098, -0.041384045, 0.066716924, -906146.7, 463597.44, 0.017021812, 10.0049, 9.997274 
2.5455192e+3, 1.7022817e+2, -866740.5, -1354999.4, 47635.473, -0.034822136, 0.07456655, -862136.5, 409635.5, 0.0046180272, 10.004246, 9.997728 
2.545446e+3, 1.8022576e+2, -863797.0, -1305261.9, 47764.477, -0.040014327, 0.088054724, -858688.25, 315108.4, 0.00055400276, 10.003589, 9.997715 
2.5453722e+3, 1.902237e+2, -812548.06, -1159021.5, 47659.504, -0.055390973, 0.10807108, -806111.75, 269706.13, 0.0000065919644, 10.002962, 9.998346 
2.545299e+3, 2.0022197e+2, -803230.9, -1102444.3, 45675.29, -0.06467073, 0.12655747, -796413.8, 181422.19, 0.0, 10.002348, 9.998359 
2.545226e+3, 2.1022047e+2, -751453.75, -954294.25, 56184.16, -0.041690376, 0.13717544, -736931.2, 142920.81, 0.0, 10.0017185, 9.999005 
2.5451532e+3, 2.202193e+2, -741496.06, -894213.94, 53198.414, -0.01917438, 0.14369105, -724791.8, 57073.098, 0.0, 10.001094, 9.999047 
2.54508e+3, 2.3021837e+2, -683301.75, -739354.94, 50257.875, -0.02578315, 0.13941109, -653784.06, 30090.43, 0.0, 10.000493, 9.999726 
2.5450066e+3, 2.4021782e+2, -676204.44, -693211.0, 54884.188, -0.033385806, 0.1398666, -629168.75, -43288.223, 0.0, 9.999904, 9.999655 
2.5449336e+3, 2.5021788e+2, -615176.94, -547596.8, 46282.215, -0.024486573, 0.18166429, -524082.3, -36200.664, 0.0, 9.999368, 10.000239 
2.5448605e+3, 2.602182e+2, -598189.7, -491553.88, 41115.28, -0.018498708, 0.21606934, -477542.25, -87662.05, 0.0, 9.998823, 10.000214 
2.5447872e+3, 2.7021807e+2, -548233.7, -347187.88, 42962.387, -0.0378868, 0.17949356, -338391.88, -46510.727, 0.0, 9.998193, 10.000836 
2.5447142e+3, 2.8021827e+2, -550724.94, -321670.94, 48724.152, -0.046888415, 0.14740525, -311737.2, -117858.45, 0.0, 9.997605, 10.000622 
2.5446415e+3, 2.9021925e+2, -459174.56, -173434.31, 22916.697, 0.0014606469, 0.1910208, -171608.05, -75738.84, 0.0, 9.99733, 10.0011015 
2.5445685e+3, 3.0022016e+2, -462869.56, -201274.73, 16548.377, 0.01366072, 0.21623611, -200232.05, -200232.05, 0.0, 9.996961, 10.000416 
2.5444937e+3, 3.102201e+2, -548048.6, -196361.23, 22723.34, -0.12456627, 0.20383097, -194899.11, -194899.11, 0.0, 9.995951, 10.000601 
2.5444213e+3, 3.2021958e+2, -475667.9, 113442.055, -9829.041, -0.0017249665, 0.08473559, 113606.0, 113606.0, 0.0, 9.995264, 10.003059 
2.5558203e+3, 1.3031429e+2, -948424.4, -1653894.0, -22156.719, -0.1366269, 0.074135095, -947729.2, 715196.1, 0.09356612, 10.007254, 9.996929 
2.5557464e+3, 1.4031078e+2, -984438.06, -1633907.4, -20661.508, -0.017724123, 0.056602027, -983781.44, 581179.3, 0.0645949, 10.006091, 9.996949 
2.555672e+3, 1.5030786e+2, -909272.0, -1476525.9, 1291.8694, -0.045675103, 0.06193968, -909269.06, 557720.75, 0.036507256, 10.005463, 9.997657 
2.555597e+3, 1.6030526e+2, -892749.94, -1446456.4, 5127.2803, -0.07279426, 0.06892195, -892702.44, 476313.06, 0.015316246, 10.004905, 9.997459 
2.555523e+3, 1.7030276e+2, -853376.3, -1328629.4, 23195.719, -0.06373504, 0.08236727, -852246.9, 418793.7, 0.00403715, 10.004246, 9.997911 
2.555449e+3, 1.8030047e+2, -864002.0, -1306019.6, 23222.688, -0.0545436, 0.09424784, -862785.25, 310278.38, 0.00045428533, 10.003585, 9.997713 
2.555375e+3, 1.9029808e+2, -824685.2, -1185757.6, 24927.398, -0.03898179, 0.09418502, -822972.4, 252116.11, 0.0000041140547, 10.002964, 9.998164 
2.5553012e+3, 2.0029604e+2, -805114.25, -1108119.4, 23336.527, -0.024811381, 0.09698934, -803327.5, 173782.42, 0.0, 10.002351, 9.998321 
2.5552276e+3, 2.1029477e+2, -745347.6, -943476.75, 33274.28, -0.0360057, 0.12338075, -739908.75, 139214.98, 0.0, 10.001721, 9.999081 
2.5551537e+3, 2.2029385e+2, -736735.75, -885656.6, 30802.988, -0.04687612, 0.1490038, -730615.94, 50517.98, 0.0, 10.001095, 9.999108 
2.55508e+3, 2.3029312e+2, -680262.1, -735144.94, 28075.922, -0.031635024, 0.16053453, -668444.3, 14697.38, 0.0, 10.000498, 9.999756 
2.5550064e+3, 2.4029262e+2, -684638.75, -713450.25, 33584.055, -0.016738003, 0.16676427, -662501.2, -77353.734, 0.0, 9.99991, 9.999515 
2.5549325e+3, 2.5029194e+2, -634630.44, -591010.9, 25681.86, -0.025064908, 0.16104878, -579127.56, -91971.91, 0.0, 9.999375, 9.999941 
2.5548592e+3, 2.602917e+2, -596815.06, -491053.5, 17896.244, -0.032375615, 0.15942198, -488107.28, -98947.56, 0.0, 9.998828, 10.000217 
2.5547856e+3, 2.7029243e+2, -529429.0, -309419.5, 17511.154, -0.011913477, 0.18816198, -308034.47, -16882.209, 0.0, 9.998194, 10.001099 
2.5547123e+3, 2.802933e+2, -556499.3, -335101.0, 32487.889, 0.004556152, 0.20675704, -330432.2, -137289.0, 0.0, 9.997606, 10.000532 
2.554638e+3, 2.9029322e+2, -487107.28, -234812.16, 13661.302, -0.04041527, 0.17923251, -234074.58, -138930.6, 0.0, 9.997338, 10.000678 
2.554564e+3, 3.0029348e+2, -460308.47, -200334.75, -10922.88, -0.09242429, 0.17265831, -199876.63, -199876.63, 0.0, 9.996974, 10.000419 
2.5544906e+3, 3.102937e+2, -528792.1, -156404.05, -22452.434, -0.008478261, 0.16309188, -155055.2, -155055.2, 0.0, 9.995945, 10.00088 
2.554416e+3, 3.2029372e+2, -492244.8, 74879.13, 19189.102, -0.038698, 0.086657435, 75527.67, 75527.67, 0.0, 9.995279, 10.002789 
2.565827e+3, 1.3038915e+2, -989868.7, -1669876.4, -7399.0605, -0.1279717, 0.06449987, -989788.2, 672403.1, 0.08607493, 10.006865, 9.997001 
2.5657523e+3, 1.4038561e+2, -1032747.3, -1649501.1, 16484.887, -0.018220475, 0.038432006, -1032307.0, 531920.1, 0.059117716, 10.005671, 9.997043 
2.565677e+3, 1.5038292e+2, -932396.3, -1477002.3, 50967.83, -0.049752418, 0.05518481, -927667.5, 538586.6, 0.033110525, 10.005237, 9.997762 
2.5656015e+3, 1.6038051e+2, -898231.94, -1448163.4, 42603.03, -0.080706164, 0.07400519, -894951.06, 473326.9, 0.013664588, 10.004859, 9.997468 
2.565527e+3, 1.7037787e+2, -874255.06, -1347582.9, 40106.31, -0.07049151, 0.08139419, -870880.8, 399423.56, 0.0034890072, 10.004143, 9.997829 
2.5654522e+3, 1.8037546e+2, -886476.8, -1313325.3, 30039.318, -0.0583499, 0.08610343, -884373.2, 287955.5, 0.0003654528, 10.00342, 9.997741 
2.5653777e+3, 1.9037315e+2, -834679.5, -1178571.9, 48729.387, -0.038033452, 0.08731958, -827907.9, 246444.56, 0.000002561901, 10.002849, 9.998267 
2.5653034e+3, 2.0037122e+2, -812314.3, -1106325.9, 60411.17, -0.020324051, 0.09138608, -800385.5, 175987.31, 0.0, 10.002282, 9.998364 
2.5652286e+3, 2.103699e+2, -762810.44, -953759.25, 64264.797, -0.037392266, 0.11554843, -743196.5, 135190.44, 0.0, 10.001616, 9.999059 
2.5651544e+3, 2.2036892e+2, -759313.06, -899961.8, 55917.227, -0.053374466, 0.14033704, -739791.7, 40605.914, 0.0, 10.00096, 9.999071 
2.5650802e+3, 2.3036821e+2, -695746.4, -749111.1, 47654.305, -0.031540606, 0.15942505, -667813.0, 14592.578, 0.0, 10.000425, 9.999692 
2.565006e+3, 2.4036771e+2, -685296.94, -711267.7, 51214.973, -0.010431893, 0.17148796, -645446.75, -61035.26, 0.0, 9.999901, 9.999532 
2.5649318e+3, 2.50367e+2, -636425.3, -583632.6, 66904.21, -0.025445774, 0.15403531, -538105.8, -51685.93, 0.0, 9.999333, 10.000008 
2.5648573e+3, 2.6036665e+2, -607841.6, -503261.06, 77921.24, -0.037839286, 0.14191538, -461711.1, -73286.695, 0.0, 9.998788, 10.000151 
2.5647837e+3, 2.7036732e+2, -511922.75, -321844.22, 49362.34, -0.0035441208, 0.18471639, -309789.6, -19371.9, 0.0, 9.998409, 10.000906 
2.5647098e+3, 2.8036815e+2, -502306.4, -313494.06, 40709.72, 0.02150365, 0.2170259, -305090.66, -112681.39, 0.0, 9.998004, 10.000486 
2.564635e+3, 2.90368e+2, -474473.34, -220452.11, 52266.9, -0.06663049, 0.17533779, -210118.17, -115707.54, 0.0, 9.997396, 10.000745 
2.5645602e+3, 3.0036816e+2, -481753.75, -204355.77, 50106.637, -0.14157142, 0.15523055, -195582.44, -195582.44, 0.0, 9.99681, 10.000465 
2.5644875e+3, 3.103684e+2, -458776.72, -123309.48, 12898.281, 0.09249425, 0.14194442, -122814.29, -122814.29, 0.0, 9.996435, 10.000869 
2.5644106e+3, 3.2037103e+2, -423495.34, 107178.83, 51960.266, -0.11605707, 0.3430263, 112218.586, 112218.586, 0.0, 9.995753, 10.002783 
2.5758344e+3, 1.3046448e+2, -990064.1, -1655981.4, -52753.383, -0.048883967, 0.015840244, -985910.94, 675541.94, 0.07868694, 10.006745, 9.997157 
2.5757572e+3, 1.404616e+2, -1018494.3, -1634909.1, -10394.844, -0.07675884, 0.040295374, -1018319.06, 545163.3, 0.05374263, 10.005709, 9.997127 
2.5756815e+3, 1.5045899e+2, -925460.9, -1471903.8, 39104.31, -0.08021835, 0.064046845, -922676.7, 542831.44, 0.02980595, 10.005257, 9.997789 
2.5756064e+3, 1.6045654e+2, -909553.9, -1471442.1, 20394.586, -0.06957081, 0.081184186, -908814.56, 458717.84, 0.012081666, 10.004845, 9.997317 
2.5755307e+3, 1.7045347e+2, -896056.25, -1393700.0, 12119.511, -0.05953653, 0.072586715, -895761.25, 373802.2, 0.0029783433, 10.004139, 9.997517 
2.5754553e+3, 1.8045072e+2, -882233.5, -1306938.9, 7346.2104, -0.054642722, 0.066239275, -882106.5, 289484.84, 0.00028769358, 10.003426, 9.997785 
2.5753802e+3, 1.904489e+2, -810954.2, -1131033.0, 28670.064, -0.051557112, 0.08736726, -808406.44, 265203.44, 0.0000016628666, 10.002851, 9.998595 
2.575305e+3, 2.0044738e+2, -806172.0, -1094234.1, 36951.13, -0.04708648, 0.10811812, -801507.6, 174117.77, 0.0, 10.00228, 9.998451 
2.57523e+3, 2.104458e+2, -771311.3, -973180.44, 38723.953, -0.044558786, 0.11323766, -764137.94, 113504.266, 0.0, 10.001618, 9.998927 
2.575155e+3, 2.204445e+2, -768514.4, -921404.6, 34028.23, -0.041159518, 0.11827562, -761282.9, 18373.395, 0.0, 10.000966, 9.998924 
2.5750804e+3, 2.3044361e+2, -706647.2, -774430.8, 28663.785, -0.026661567, 0.13661394, -696151.3, -14484.88, 0.0, 10.000432, 9.999517 
2.5750056e+3, 2.4044307e+2, -673358.4, -688512.06, 30590.75, -0.014448378, 0.1540221, -649420.1, -65747.14, 0.0, 9.999906, 9.999688 
2.5749308e+3, 2.5044295e+2, -606404.7, -523002.84, 44635.906, -0.02532785, 0.16226166, -503619.13, -17944.73, 0.0, 9.999336, 10.000425 
2.574856e+3, 2.6044303e+2, -619331.9, -529478.94, 60458.8, -0.0355408, 0.16696467, -499081.75, -111407.68, 0.0, 9.998794, 9.99997 
2.5747818e+3, 2.7044272e+2, -559941.94, -424819.4, 34909.617, -0.0155068375, 0.1664139, -416333.28, -126654.99, 0.0, 9.998418, 10.000197 
2.5747073e+3, 2.8044274e+2, -500724.78, -313922.94, 19764.104, -0.0015872075, 0.16775502, -311854.75, -120175.9, 0.0, 9.998014, 10.000481 
2.5746322e+3, 2.9044357e+2, -433144.78, -135932.53, 26475.861, -0.07344426, 0.182673, -133592.47, -39923.246, 0.0, 9.997396, 10.001328 
2.5745568e+3, 3.0044442e+2, -478023.97, -197527.19, 32917.676, -0.12044284, 0.1832359, -193715.92, -193715.92, 0.0, 9.996808, 10.000516 
2.5744843e+3, 3.1044394e+2, -473068.78, -159413.31, 158.5535, 0.16515024, 0.12671998, -159413.23, -159413.23, 0.0, 9.996458, 10.000612 
2.5744057e+3, 3.2044548e+2, -494465.25, -41582.402, -18836.418, -0.14527275, 0.25228468, -40800.305, -40800.305, 0.0, 9.995752, 10.001764 
2.5858408e+3, 1.3054113e+2, -1119685.4, -1700992.6, -8401.459, -0.0003212196, 0.027090596, -1119564.0, 541138.3, 0.071499646, 10.005643, 9.9973755 
2.585762e+3, 1.4053835e+2, -959073.3, -1612397.6, 24063.777, -0.1323237, 0.049895175, -958188.2, 604542.06, 0.048532262, 10.006146, 9.997069 
2.585686e+3, 1.5053555e+2, -927311.56, -1505723.5, 48735.652, -0.10260492, 0.07776864, -923233.94, 541524.5, 0.0266279, 10.005374, 9.997498 
2.5856107e+3, 1.6053288e+2, -959128.75, -1500554.3, 16869.62, -0.05128486, 0.095925055, -958603.6, 408181.47, 0.010583106, 10.00452, 9.997272 
2.5855348e+3, 1.7052977e+2, -913902.75, -1386135.0, 32591.68, -0.054220024, 0.07250525, -911664.06, 357152.0, 0.0025099427, 10.003949, 9.997659 
2.5854585e+3, 1.80527e+2, -884149.2, -1302532.0, 48702.37, -0.06503723, 0.054148164, -878554.7, 292288.88, 0.0002212983, 10.003392, 9.9978285 
2.5853825e+3, 1.9052525e+2, -831471.25, -1145226.5, 50601.746, -0.05853481, 0.08616941, -823512.2, 249349.31, 0.0000011356803, 10.002733, 9.998552 
2.5853068e+3, 2.0052381e+2, -834689.9, -1106956.3, 38176.61, -0.049259804, 0.117202826, -829438.2, 145438.33, 0.0, 10.002086, 9.998454 
2.5852314e+3, 2.1052217e+2, -785890.44, -977496.7, 46277.19, -0.044855263, 0.11690905, -775298.94, 101594.67, 0.0, 10.001513, 9.998945 
2.5851557e+3, 2.2052081e+2, -767039.75, -914944.75, 54397.41, -0.039297752, 0.11394856, -749187.9, 29720.283, 0.0, 10.000957, 9.99897 
2.5850806e+3, 2.3051985e+2, -703174.1, -766334.44, 65855.195, -0.02292783, 0.11967022, -661718.56, 19200.111, 0.0, 10.000434, 9.999569 
2.5850055e+3, 2.4051927e+2, -668642.9, -684627.2, 77454.32, -0.010435407, 0.1307844, -598769.44, -15844.128, 0.0, 9.999936, 9.999698 
2.58493e+3, 2.505194e+2, -580436.9, -513808.5, 62248.613, -0.02748434, 0.16644081, -476520.13, 8404.687, 0.0, 9.999535, 10.00039 
2.5848547e+3, 2.6051965e+2, -575408.6, -510254.72, 56507.867, -0.04342324, 0.191833, -477605.94, -90682.86, 0.0, 9.999109, 9.999948 
2.58478e+3, 2.7051893e+2, -546657.44, -421351.6, 73389.66, -0.028253011, 0.15512228, -387508.75, -98578.24, 0.0, 9.998528, 10.000166 
2.5847048e+3, 2.805186e+2, -513955.66, -321958.34, 92618.43, -0.014345366, 0.12511389, -284563.16, -93629.07, 0.0, 9.997937, 10.00046 
2.5846294e+3, 2.9051968e+2, -430046.3, -135899.08, 59754.566, -0.056004588, 0.16865025, -124223.66, -31301.266, 0.0, 9.997428, 10.001311 
2.5845537e+3, 3.0052078e+2, -463933.44, -193294.83, 33606.063, -0.08279159, 0.19781095, -189184.28, -189184.28, 0.0, 9.996917, 10.000492 
2.5844803e+3, 3.105203e+2, -468071.56, -151930.25, 21691.89, 0.12627876, 0.13887854, -150448.81, -150448.81, 0.0, 9.996476, 10.000652 
2.584402e+3, 3.2051978e+2, -490083.66, -101512.266, 2298.631, -0.100484386, 0.06136382, -101498.664, -101498.664, 0.0, 9.996061, 10.001199 
2.5958464e+3, 1.3061891e+2, -1100371.1, -1664714.4, 15080.827, 0.023769245, 0.08403103, -1099968.5, 559973.0, 0.06458612, 10.005631, 9.997631 
2.5957674e+3, 1.4061582e+2, -970249.3, -1640793.5, 12762.005, -0.18558979, 0.06268027, -970006.5, 591965.25, 0.04353983, 10.00613, 9.996883 
2.595691e+3, 1.5061258e+2, -966433.44, -1588451.9, 13399.165, -0.11881511, 0.09328282, -966144.94, 497859.9, 0.023609009, 10.005351, 9.996943 
2.5956154e+3, 1.6060959e+2, -959850.9, -1497874.3, -8518.352, -0.029480252, 0.11719537, -959716.06, 406319.16, 0.009184393, 10.004492, 9.997307 
2.5955382e+3, 1.7060672e+2, -881318.6, -1316101.9, 12385.035, -0.054767366, 0.080741875, -880966.1, 387096.1, 0.0020882585, 10.003933, 9.99815 
2.5954613e+3, 1.8060419e+2, -883577.7, -1301538.1, 24578.469, -0.086763516, 0.049889598, -882137.3, 287949.03, 0.00016632692, 10.003388, 9.99784 
2.595385e+3, 1.9060217e+2, -857387.44, -1200651.5, 25476.752, -0.05957511, 0.0839484, -855506.9, 216600.75, 0.00000077863837, 10.002735, 9.998173 
2.5953087e+3, 2.0060048e+2, -839397.44, -1118620.9, 15992.037, -0.03097328, 0.11934809, -838484.5, 135641.38, 0.0, 10.0020895, 9.998375 
2.5952327e+3, 2.1059902e+2, -774990.25, -957061.5, 25732.344, -0.039762214, 0.1261821, -771423.4, 104717.83, 0.0, 10.001516, 9.999086 
2.5951564e+3, 2.2059783e+2, -751728.25, -884945.0, 34842.844, -0.046873823, 0.12565503, -743165.5, 34987.973, 0.0, 10.00096, 9.999178 
2.5950807e+3, 2.3059689e+2, -685089.25, -730846.06, 46708.785, -0.020028453, 0.108431086, -655956.75, 24205.908, 0.0, 10.000439, 9.999813 
2.595005e+3, 2.4059626e+2, -679643.4, -709850.3, 60574.004, 0.00027112875, 0.102796264, -632318.3, -50149.426, 0.0, 9.999942, 9.999524 
2.5949293e+3, 2.5059623e+2, -615411.5, -589537.1, 46749.59, -0.03279643, 0.1663374, -553967.7, -69796.05, 0.0, 9.999543, 9.999869 
2.5948533e+3, 2.6059636e+2, -563518.2, -488739.66, 36234.34, -0.06291398, 0.21420299, -474062.75, -87890.46, 0.0, 9.999118, 10.000093 
2.594778e+3, 2.7059597e+2, -498197.94, -322411.34, 49773.15, -0.041954234, 0.15210432, -309296.75, -21122.395, 0.0, 9.99853, 10.000846 
2.5947025e+3, 2.805958e+2, -519845.94, -335492.84, 72679.99, -0.0150183495, 0.093306325, -310285.84, -120111.664, 0.0, 9.997938, 10.000369 
2.5946268e+3, 2.9059622e+2, -479369.03, -239546.8, 39804.45, -0.010707504, 0.12811266, -233112.88, -140941.86, 0.0, 9.997429, 10.000602 
2.5945508e+3, 3.0059704e+2, -471417.06, -208885.47, 13143.128, -0.03183779, 0.18331388, -208229.13, -208229.13, 0.0, 9.996912, 10.00039 
2.5944746e+3, 3.105976e+2, -447322.6, -109074.72, 4448.587, -0.046857998, 0.20596683, -109016.22, -109016.22, 0.0, 9.99647, 10.000953 
2.5943986e+3, 3.2059687e+2, -420534.6, 31797.465, -869.679, -0.01269737, 0.06508637, 31799.137, 31799.137, 0.0, 9.996101, 10.002099 
2.6058516e+3, 1.3069625e+2, -1119854.8, -1690549.9, 44665.27, 0.007349893, 0.10581115, -1116380.1, 542803.9, 0.057990804, 10.005521, 9.997508 
2.6057732e+3, 1.4069307e+2, -1002346.4, -1655816.9, -6345.8286, -0.16921537, 0.08338997, -1002284.8, 558930.8, 0.038802903, 10.005874, 9.996902 
2.605696e+3, 1.5068972e+2, -1014476.5, -1599035.6, 1023.9782, -0.120216645, 0.09309359, -1014474.75, 448774.66, 0.020774158, 10.0049515, 9.997061 
2.605619e+3, 1.6068669e+2, -1023557.5, -1515985.5, 20349.504, -0.04680404, 0.10257141, -1022718.0, 342561.78, 0.007897393, 10.003996, 9.997419 
2.6055416e+3, 1.7068416e+2, -930664.8, -1328572.5, 31253.033, -0.055853292, 0.08979181, -928225.06, 339078.6, 0.0017162623, 10.003549, 9.998247 
2.6054645e+3, 1.8068188e+2, -916562.2, -1310738.1, 21131.3, -0.07420962, 0.07691537, -915432.56, 253892.67, 0.00012243741, 10.003139, 9.997894 
2.6053876e+3, 1.9067962e+2, -882633.94, -1212066.1, 39254.117, -0.0594394, 0.085506916, -878021.1, 193327.52, 0.00000050618763, 10.002565, 9.998175 
2.6053107e+3, 2.0067771e+2, -853509.44, -1121598.1, 51101.563, -0.04099685, 0.09923595, -844099.06, 129269.836, 0.0, 10.001982, 9.9984045 
2.6052338e+3, 2.1067643e+2, -785054.2, -957221.7, 57040.934, -0.039248407, 0.12136687, -767870.94, 107511.68, 0.0, 10.001433, 9.999123 
2.6051572e+3, 2.2067542e+2, -755132.9, -880240.8, 58494.316, -0.038095202, 0.13579252, -732044.6, 45348.605, 0.0, 10.000915, 9.999229 
2.605081e+3, 2.3067449e+2, -674858.2, -719920.7, 57521.254, -0.023350533, 0.11533678, -635612.8, 43789.05, 0.0, 10.000488, 9.999861 
2.6050046e+3, 2.4067383e+2, -666574.9, -702854.25, 63424.785, -0.011298444, 0.10262983, -618746.75, -37338.72, 0.0, 10.000034, 9.999524 
2.6049286e+3, 2.506736e+2, -640428.94, -607354.25, 78881.31, -0.0265623, 0.14888734, -543295.44, -59882.605, 0.0, 9.999402, 9.999812 
2.604852e+3, 2.6067355e+2, -608452.94, -504316.63, 90949.914, -0.04324199, 0.18613851, -451585.06, -66170.18, 0.0, 9.99879, 10.000142 
2.604776e+3, 2.7067348e+2, -512074.47, -314866.88, 68549.08, -0.041574985, 0.14717065, -293380.34, -5966.778, 0.0, 9.998379, 10.000968 
2.6047003e+3, 2.806736e+2, -517548.47, -339037.75, 62174.184, -0.026834708, 0.10607763, -319517.4, -130106.586, 0.0, 9.997978, 10.000323 
2.6046243e+3, 2.9067355e+2, -475810.6, -257637.22, 62135.453, 0.009480739, 0.11176982, -241182.2, -149770.05, 0.0, 9.997544, 10.00042 
2.6045477e+3, 3.00674e+2, -453060.84, -203536.72, 64058.67, -0.0028984284, 0.14457595, -188052.27, -188052.27, 0.0, 9.997062, 10.00035 
2.60447e+3, 3.1067502e+2, -456560.13, -111362.65, 36315.61, -0.11908325, 0.21189375, -107583.53, -107583.53, 0.0, 9.996403, 10.000967 
2.6043946e+3, 3.2067513e+2, -412495.7, 130350.77, 23118.469, 0.031321682, 0.14482442, 131333.55, 131333.55, 0.0, 9.995751, 10.002943 
2.6158565e+3, 1.3077343e+2, -1142256.3, -1748359.6, 64381.844, -0.03695554, 0.09968355, -1135493.0, 522934.9, 0.051740166, 10.005523, 9.997112 
2.6157796e+3, 1.4077036e+2, -1003824.94, -1638486.9, -19427.45, -0.10356981, 0.11268304, -1003230.8, 557228.6, 0.034344368, 10.005757, 9.997079 
2.6157007e+3, 1.5076712e+2, -979831.44, -1516179.1, -38805.84, -0.11311715, 0.08274093, -977038.3, 485452.5, 0.018137902, 10.004893, 9.997661 
2.6156223e+3, 1.6076423e+2, -1013729.94, -1497361.0, -6147.2393, -0.09490852, 0.0605942, -1013651.8, 350866.88, 0.006728247, 10.003996, 9.997549 
2.6155448e+3, 1.7076209e+2, -947691.6, -1363963.8, 16684.82, -0.05681348, 0.09944357, -947023.94, 319516.4, 0.0013947315, 10.003543, 9.998009 
2.6154676e+3, 1.8076009e+2, -912868.9, -1300096.0, 2638.9927, -0.034508046, 0.1288242, -912850.9, 255709.48, 0.00008883098, 10.003121, 9.997978 
2.6153895e+3, 1.907576e+2, -861841.6, -1167685.0, 17490.041, -0.059503715, 0.08953148, -860844.7, 209740.0, 0.0000003029647, 10.002555, 9.9984865 
2.615312e+3, 2.0075549e+2, -846911.25, -1108514.9, 30371.07, -0.07559057, 0.059678044, -843431.6, 129174.04, 0.0, 10.00198, 9.998497 
2.615235e+3, 2.1075441e+2, -789996.7, -969571.8, 37114.977, -0.042465955, 0.10442402, -782628.0, 91990.02, 0.0, 10.001437, 9.999039 
2.615158e+3, 2.2075358e+2, -762235.8, -897258.56, 41525.93, -0.015476768, 0.14590447, -750486.94, 26140.643, 0.0, 10.000919, 9.999112 
2.615081e+3, 2.3075265e+2, -684869.1, -743101.94, 42329.26, -0.033780746, 0.14019927, -662609.2, 16027.41, 0.0, 10.000494, 9.9997015 
2.6150042e+3, 2.4075192e+2, -653743.0, -678583.56, 42522.27, -0.045031443, 0.12745908, -621864.25, -41220.887, 0.0, 10.00004, 9.999691 
2.6149276e+3, 2.507514e+2, -611882.25, -549377.3, 53535.965, -0.007613935, 0.11229548, -518639.3, -35990.62, 0.0, 9.999403, 10.000212 
2.6148513e+3, 2.6075122e+2, -615365.44, -519468.22, 71887.98, 0.017292082, 0.10618188, -481005.3, -96354.27, 0.0, 9.998788, 10.000041 
2.6147744e+3, 2.7075148e+2, -547399.25, -389085.2, 52802.49, -0.026719853, 0.14142226, -373090.03, -86441.28, 0.0, 9.998378, 10.000462 
2.6146975e+3, 2.8075185e+2, -516124.16, -337253.16, 44717.113, -0.053381953, 0.16533197, -326697.0, -138051.92, 0.0, 9.997978, 10.000339 
2.6146215e+3, 2.9075167e+2, -447790.25, -200755.03, 44407.637, -0.00054359145, 0.12369335, -193014.73, -102368.96, 0.0, 9.997545, 10.000812 
2.6145446e+3, 3.0075172e+2, -453057.13, -206407.69, 42519.58, 0.0036149123, 0.087570645, -199283.56, -199283.56, 0.0, 9.997069, 10.00033 
2.6144665e+3, 3.1075212e+2, -478364.97, -155952.53, 8458.909, -0.06927673, 0.12292972, -155730.75, -155730.75, 0.0, 9.996395, 10.000668 
2.6143897e+3, 3.2075337e+2, -415013.0, 136328.86, -2395.9785, 0.009458086, 0.17806251, 136339.28, 136339.28, 0.0, 9.995703, 10.003008 
2.6258612e+3, 1.3085058e+2, -1112470.9, -1686847.1, 65104.848, -0.090193726, 0.0814617, -1105183.8, 552488.0, 0.045849513, 10.005507, 9.997541 
2.6257846e+3, 1.4084807e+2, -1160786.0, -1678059.8, 12649.812, -0.05474711, 0.108861886, -1160476.9, 399220.38, 0.03017511, 10.00446, 9.997431 
2.625705e+3, 1.5084514e+2, -1065911.0, -1525412.3, -19993.457, -0.08688579, 0.07999146, -1065042.8, 396682.97, 0.015706029, 10.004147, 9.997953 
2.625626e+3, 1.6084246e+2, -1023203.8, -1484509.9, -106.390045, -0.09953509, 0.0556039, -1023203.8, 340547.78, 0.0056779953, 10.0038595, 9.9977 
2.625548e+3, 1.7084032e+2, -990406.5, -1380192.0, 36722.5, -0.06584838, 0.089828216, -986977.0, 278796.44, 0.0011220336, 10.003238, 9.998041 
2.62547e+3, 1.8083836e+2, -975454.8, -1312263.9, 35891.54, -0.041547935, 0.118571244, -971672.56, 196120.55, 0.00006410776, 10.002622, 9.998133 
2.6253918e+3, 1.908362e+2, -902536.7, -1161039.3, 46735.67, -0.053889565, 0.0907017, -894346.6, 175467.48, 0.00000016598092, 10.002169, 9.998714 
2.6253137e+3, 2.0083435e+2, -874879.9, -1113892.4, 55398.574, -0.062164124, 0.06784363, -862663.94, 109168.62, 0.0, 10.001759, 9.998564 
2.6252362e+3, 2.1083312e+2, -798158.9, -980130.9, 63486.492, -0.043015704, 0.10246062, -778199.0, 95647.4, 0.0, 10.001416, 9.998973 
2.6251587e+3, 2.2083217e+2, -746411.56, -888236.6, 68533.49, -0.026195956, 0.13640907, -718706.5, 57150.723, 0.0, 10.001029, 9.999118 
2.625081e+3, 2.3083131e+2, -696902.8, -744946.06, 80086.31, -0.033628855, 0.13744633, -637313.06, 40552.3, 0.0, 10.0004, 9.999732 
2.6250038e+3, 2.4083066e+2, -686874.25, -689848.7, 88357.7, -0.03588939, 0.13018084, -599991.25, -20119.816, 0.0, 9.999798, 9.999727 
2.624927e+3, 2.5083008e+2, -605040.9, -541268.7, 75080.99, -0.0033507117, 0.10605826, -491583.47, -9706.625, 0.0, 9.999434, 10.00025 
2.62485e+3, 2.608298e+2, -583580.1, -513949.3, 74584.17, 0.018435257, 0.090972446, -466454.88, -82575.12, 0.0, 9.999052, 9.999949 
2.6247725e+3, 2.7082992e+2, -542821.7, -408964.38, 73752.22, -0.022570012, 0.12925315, -376299.7, -90420.164, 0.0, 9.998509, 10.000259 
2.6246953e+3, 2.808302e+2, -519184.3, -341497.75, 82431.7, -0.049241934, 0.16106176, -309146.5, -121269.305, 0.0, 9.997976, 10.000307 
2.6246187e+3, 2.9083025e+2, -431844.06, -183800.94, 62087.76, -0.011490812, 0.13626881, -169127.73, -79252.484, 0.0, 9.997621, 10.00089 
2.6245412e+3, 3.008303e+2, -434721.66, -198380.66, 34707.793, -0.01311036, 0.098653086, -193389.08, -193389.08, 0.0, 9.997202, 10.0003195 
2.6244628e+3, 3.1082985e+2, -472532.03, -157122.22, 10434.347, -0.036967892, 0.045793265, -156777.4, -156777.4, 0.0, 9.996457, 10.000627 
2.624385e+3, 3.2083154e+2, -355624.66, 100077.7, 36238.47, -0.031409953, 0.16451672, 102941.47, 102941.47, 0.0, 9.9964, 10.0024185 
2.6358658e+3, 1.3092797e+2, -1048351.56, -1549000.3, 24913.209, -0.1513702, 0.05683173, -1047114.94, 609798.6, 0.04033093, 10.005463, 9.998538 
2.6357892e+3, 1.4092624e+2, -1133865.4, -1617078.8, -12684.796, -0.02042802, 0.08048417, -1133532.6, 425396.22, 0.026302911, 10.004428, 9.997867 
2.6357093e+3, 1.5092374e+2, -1065960.0, -1521874.8, -28406.957, -0.047071166, 0.082762964, -1064196.9, 396757.3, 0.01348203, 10.004117, 9.997994 
2.6356298e+3, 1.6092135e+2, -1016930.3, -1464295.9, -17078.201, -0.07173851, 0.07855741, -1016279.3, 346699.2, 0.004745714, 10.003821, 9.99786 
2.6355508e+3, 1.7091893e+2, -976302.5, -1348299.1, 12990.568, -0.08275071, 0.06390694, -975849.44, 289152.9, 0.0008948813, 10.0032215, 9.998271 
2.6354718e+3, 1.8091686e+2, -962068.0, -1286428.4, 16741.654, -0.08705068, 0.05807024, -961206.2, 205816.66, 0.000046516947, 10.002625, 9.99831 
2.6353937e+3, 1.9091545e+2, -892687.44, -1142505.0, 30858.18, -0.042870875, 0.091196254, -888932.2, 180104.9, 0.00000008213487, 10.002172, 9.998842 
2.6353157e+3, 2.0091419e+2, -872983.4, -1111031.0, 41431.496, -0.007961766, 0.11861044, -865978.5, 105071.766, 0.0, 10.001759, 9.998587 
2.635237e+3, 2.1091251e+2, -802018.3, -989348.7, 51284.406, -0.04248268, 0.112922154, -788897.44, 84170.6, 0.0, 10.001417, 9.998912 
2.635159e+3, 2.2091113e+2, -738743.2, -873503.2, 49524.24, -0.06789835, 0.10600058, -722500.75, 52581.844, 0.0, 10.00103, 9.999221 
2.6350814e+3, 2.3091048e+2, -682650.9, -716760.06, 55690.832, -0.022141742, 0.10750853, -641461.75, 35626.84, 0.0, 10.0004015, 9.999927 
2.6350036e+3, 2.4091005e+2, -694891.1, -708079.0, 70804.14, 0.014891064, 0.11276867, -630374.56, -51282.176, 0.0, 9.9998, 9.999603 
2.6349258e+3, 2.509096e+2, -629210.6, -593751.3, 61773.563, -0.0160601, 0.1327287, -547213.44, -66115.92, 0.0, 9.99944, 9.999888 
2.634848e+3, 2.6090926e+2, -587757.3, -525886.5, 55906.97, -0.044655237, 0.1423264, -492926.75, -109825.26, 0.0, 9.999062, 9.999866 
2.634771e+3, 2.7090874e+2, -534305.1, -393093.53, 51105.402, -0.02934552, 0.10801338, -376538.9, -91432.49, 0.0, 9.998512, 10.000369 
2.6346934e+3, 2.8090852e+2, -527549.9, -360148.34, 65659.29, -0.010955366, 0.08746112, -337467.9, -150360.05, 0.0, 9.997977, 10.00018 
2.634616e+3, 2.909092e+2, -452337.1, -227674.27, 47778.938, -0.02427518, 0.15109825, -217935.31, -128834.05, 0.0, 9.997622, 10.000589 
2.6345378e+3, 3.0090973e+2, -434014.97, -197875.36, 9441.93, -0.059295163, 0.18188892, -197498.42, -197498.42, 0.0, 9.997201, 10.000326 
2.634459e+3, 3.109081e+2, -456722.25, -124706.695, -20609.916, -0.024214711, -0.004444185, -123432.23, -123432.23, 0.0, 9.996453, 10.0008545 
2.634381e+3, 3.209102e+2, -421944.34, -56902.355, 101650.87, -0.04016876, 0.16959155, -30505.154, -30505.154, 0.0, 9.996472, 10.001311 
2.6458704e+3, 1.3100667e+2, -1092928.1, -1567883.1, 59962.797, -0.17624398, 0.038957153, -1085474.8, 570666.1, 0.035198737, 10.005108, 9.998569 
2.6457933e+3, 1.4100502e+2, -1182969.1, -1621122.6, -538.637, -0.0056718546, 0.06507786, -1182968.5, 375187.3, 0.022739004, 10.003985, 9.998049 
2.6457128e+3, 1.5100287e+2, -1130395.9, -1521685.6, 6619.743, -0.0485211, 0.07615608, -1130284.0, 329894.0, 0.011470905, 10.003534, 9.998272 
2.645633e+3, 1.6100079e+2, -1091660.3, -1473419.5, 24930.783, -0.08512725, 0.078322, -1090039.0, 272160.28, 0.0039296965, 10.003193, 9.998096 
2.6455534e+3, 1.7099848e+2, -1008544.94, -1340779.0, 51615.867, -0.07823316, 0.054495502, -1000710.7, 263511.3, 0.0007089958, 10.002906, 9.998471 
2.6454744e+3, 1.8099648e+2, -962490.9, -1277378.5, 50158.836, -0.070354335, 0.04122384, -954694.06, 211547.55, 0.00003425103, 10.002588, 9.998386 
2.6453954e+3, 1.9099517e+2, -905934.25, -1150295.4, 54156.23, -0.042812448, 0.08544807, -894469.8, 173785.45, 0.000000036221024, 10.002095, 9.998822 
2.645317e+3, 2.0099401e+2, -891025.56, -1110520.4, 60188.91, -0.017921207, 0.12266639, -875604.3, 94663.375, 0.0, 10.001603, 9.99866 
2.6452383e+3, 2.1099232e+2, -830048.2, -989271.0, 81348.87, -0.03171336, 0.105592646, -795836.9, 76448.28, 0.0, 10.001172, 9.999027 
2.6451597e+3, 2.2099093e+2, -779641.06, -892805.3, 81792.58, -0.042890172, 0.08816024, -736766.9, 37532.78, 0.0, 10.000752, 9.99922 
2.6450816e+3, 2.3099025e+2, -697976.44, -733636.3, 66349.21, -0.015704427, 0.09662952, -647103.25, 29202.93, 0.0, 10.000342, 9.999836 
2.6450032e+3, 2.4098982e+2, -681794.4, -710310.06, 70902.85, 0.006490022, 0.11067422, -623730.0, -45419.65, 0.0, 9.999931, 9.999522 
2.644925e+3, 2.5098938e+2, -624522.7, -601564.4, 81208.695, -0.020368233, 0.13806054, -531027.56, -50711.773, 0.0, 9.99952, 9.999794 
2.644847e+3, 2.6098898e+2, -585504.9, -529254.6, 87357.72, -0.04506179, 0.1507775, -465606.2, -83285.95, 0.0, 9.999104, 9.999819 
2.644769e+3, 2.7098823e+2, -510994.72, -384148.38, 72105.32, -0.029129652, 0.09957323, -351541.97, -67215.234, 0.0, 9.998688, 10.000343 
2.6446912e+3, 2.8098786e+2, -501303.06, -362675.1, 78963.484, -0.0114520015, 0.067527555, -326919.28, -140589.55, 0.0, 9.998226, 10.000041 
2.644613e+3, 2.9098853e+2, -470324.34, -260826.22, 65251.16, -0.032183837, 0.15154359, -242165.08, -153841.17, 0.0, 9.997609, 10.000365 
2.6445347e+3, 3.0098897e+2, -444458.28, -209961.38, 35156.695, -0.065559216, 0.19605573, -204803.97, -204803.97, 0.0, 9.997168, 10.000256 
2.644456e+3, 3.1098706e+2, -291790.28, -40702.746, -4827.6875, -0.016557371, -0.021805184, -40609.96, -40609.96, 0.0, 9.997573, 10.000889 
2.6443774e+3, 3.209891e+2, -439660.44, -139135.72, 99790.1, -0.026831146, 0.17030805, -109018.37, -109018.37, 0.0, 9.996672, 10.000648 
2.6558754e+3, 1.3108645e+2, -1139702.9, -1660871.4, 12628.322, -0.1790375, 0.02561355, -1139397.0, 515959.56, 0.030466394, 10.005064, 9.997931 
2.655797e+3, 1.4108443e+2, -1185760.1, -1622081.5, -25559.512, -0.0068653845, 0.058956277, -1184267.9, 373109.4, 0.01949318, 10.003949, 9.998062 
2.655716e+3, 1.5108255e+2, -1101536.9, -1461941.6, -5245.1514, -0.081485465, 0.062491745, -1101460.6, 357935.84, 0.009674764, 10.003528, 9.998688 
2.6556352e+3, 1.610808e+2, -1072248.4, -1435543.8, 13424.61, -0.13117564, 0.061407063, -1071753.0, 289661.0, 0.0032256066, 10.003199, 9.998356 
2.6555565e+3, 1.710789e+2, -999051.06, -1319769.8, 40507.055, -0.056907002, 0.059692048, -994014.1, 269418.84, 0.0005591863, 10.002895, 9.998622 
2.6554772e+3, 1.8107714e+2, -967316.06, -1283859.6, 33357.195, -0.004187605, 0.059978157, -963839.06, 201611.6, 0.000025614043, 10.002569, 9.998354 
2.6553974e+3, 1.9107538e+2, -916865.0, -1174123.9, 34904.6, -0.05389967, 0.072626896, -912213.3, 155255.5, 0.000000014940245, 10.002095, 9.998661 
2.6553175e+3, 2.0107387e+2, -881819.56, -1095170.0, 43497.992, -0.08367715, 0.08393578, -873292.0, 96192.51, 0.0, 10.001615, 9.998762 
2.6552394e+3, 2.1107258e+2, -811427.2, -952231.06, 65568.85, -0.009959973, 0.08271088, -785622.56, 85875.016, 0.0, 10.001175, 9.999282 
2.655161e+3, 2.210715e+2, -788995.8, -912110.6, 66296.7, 0.043067895, 0.08391139, -760084.6, 13424.024, 0.0, 10.000747, 9.999092 
2.6550815e+3, 2.3107062e+2, -724624.7, -790954.2, 51104.4, -0.016479596, 0.10473317, -696866.9, -21348.451, 0.0, 10.000347, 9.999443 
2.6550022e+3, 2.4106993e+2, -683516.5, -716732.8, 55407.344, -0.062042587, 0.12225294, -642281.75, -64755.727, 0.0, 9.99994, 9.999476 
2.6549244e+3, 2.510693e+2, -611470.44, -576683.06, 64766.53, -0.0146734975, 0.12005645, -527015.25, -47483.29, 0.0, 9.999525, 9.999965 
2.6548463e+3, 2.6106885e+2, -587086.8, -534128.56, 71363.37, 0.020445563, 0.11429281, -484490.16, -102953.875, 0.0, 9.999106, 9.999786 
2.6547673e+3, 2.710684e+2, -523678.75, -412554.6, 55699.98, -0.022598663, 0.106601246, -389442.47, -105901.84, 0.0, 9.9986925, 10.000148 
2.6546884e+3, 2.8106812e+2, -511473.0, -386577.7, 57219.63, -0.05564794, 0.105404295, -364327.06, -178784.06, 0.0, 9.998234, 9.999876 
2.6546103e+3, 2.9106808e+2, -482167.0, -285139.53, 39373.12, -0.034496654, 0.13364269, -277562.75, -190018.81, 0.0, 9.997603, 10.000204 
2.6545316e+3, 3.0106795e+2, -458731.25, -239986.23, 36914.98, -0.03014079, 0.13592137, -233924.52, -233924.52, 0.0, 9.997164, 10.000053 
2.6544535e+3, 3.1106657e+2, -297764.06, -69876.73, 13641.461, -0.011317341, -0.005986459, -69063.05, -69063.05, 0.0, 9.997641, 10.000658 
2.6543736e+3, 3.210679e+2, -463423.63, -183532.67, -55783.35, -0.04286222, 0.14005946, -172824.52, -172824.52, 0.0, 9.996647, 10.000357 
2.66588e+3, 1.3116689e+2, -1211087.5, -1687544.4, 9996.257, -0.15744564, 0.022263732, -1210877.9, 443689.3, 0.026137672, 10.004504, 9.998017 
2.6658002e+3, 1.411647e+2, -1229992.1, -1631387.4, 23034.75, -0.009272158, 0.031174818, -1228674.6, 327914.8, 0.016561987, 10.00358, 9.998175 
2.6657188e+3, 1.5116297e+2, -1116375.9, -1456172.9, 44264.016, -0.0881853, 0.039113216, -1110704.4, 347902.8, 0.008085072, 10.003369, 9.998801 
2.665638e+3, 1.6116141e+2, -1076695.3, -1432872.4, 39673.355, -0.13778087, 0.04735867, -1072329.8, 288293.53, 0.002624086, 10.003151, 9.998394 
2.6655585e+3, 1.7115967e+2, -1047596.56, -1344318.4, 51480.75, -0.059419088, 0.064722985, -1038918.56, 223722.61, 0.00043920142, 10.002573, 9.998606 
2.6654792e+3, 1.81158e+2, -1036418.75, -1310168.0, 42114.676, -0.0017893481, 0.07719939, -1030086.1, 134572.0, 0.00001925341, 10.002071, 9.998409 
2.665399e+3, 1.9115615e+2, -930397.9, -1171008.8, 60016.89, -0.048430532, 0.06916003, -916258.44, 150418.73, 0.0000000057994387, 10.001967, 9.998741 
2.6653188e+3, 2.0115453e+2, -855568.4, -1080257.8, 70119.56, -0.07871961, 0.06447293, -835481.7, 133212.03, 0.0, 10.00179, 9.998777 
2.6652402e+3, 2.1115337e+2, -818341.06, -958283.5, 69202.164, -0.013123987, 0.07961156, -789900.3, 80805.29, 0.0, 10.001144, 9.999252 
2.6651615e+3, 2.2115238e+2, -821934.5, -936190.9, 63043.16, 0.03698623, 0.09506518, -793985.8, -21269.916, 0.0, 10.000563, 9.999012 
2.6650816e+3, 2.3115131e+2, -725650.75, -806503.6, 68239.96, -0.014273491, 0.10976416, -686761.44, -12033.98, 0.0, 10.00041, 9.999303 
2.665002e+3, 2.4115041e+2, -652169.06, -709034.0, 78343.766, -0.05507806, 0.11939258, -597257.94, -20520.895, 0.0, 10.000193, 9.999404 
2.6649237e+3, 2.5114965e+2, -611570.7, -580286.9, 69123.2, -0.012748166, 0.10796191, -525057.9, -46313.63, 0.0, 9.999545, 9.9999275 
2.664845e+3, 2.611491e+2, -614353.7, -556571.75, 70051.84, 0.019655855, 0.09847078, -509687.06, -128937.67, 0.0, 9.998962, 9.999699 
2.664766e+3, 2.711487e+2, -516061.25, -423810.16, 60642.727, -0.022207502, 0.110378236, -393744.47, -110991.16, 0.0, 9.998815, 10.00001 
2.6646867e+3, 2.8114846e+2, -461269.06, -363391.06, 59480.445, -0.053475242, 0.120942846, -335304.4, -150548.64, 0.0, 9.9985895, 9.999861 
2.6646078e+3, 2.9114816e+2, -427379.84, -253134.88, 50102.453, -0.034119435, 0.12154081, -239755.7, -152996.9, 0.0, 9.99796, 10.000249 
2.6645288e+3, 3.011479e+2, -431076.44, -232770.45, 82671.195, -0.03453194, 0.11040516, -202827.19, -202827.19, 0.0, 9.997385, 9.999994 
2.6644507e+3, 3.1114694e+2, -371160.97, -122087.805, 79637.87, 0.0019661332, 0.025381716, -98801.69, -98801.69, 0.0, 9.997214, 10.000503 
2.66437e+3, 3.2114795e+2, -399235.53, -131092.56, -84594.516, -0.0802071, 0.1399757, -106635.195, -106635.195, 0.0, 9.997001, 10.000543 
2.6758844e+3, 1.3124794e+2, -1176792.5, -1607925.6, -29352.906, -0.11880053, 0.025697066, -1174803.3, 478968.97, 0.022201087, 10.004453, 9.998595 
2.6758036e+3, 1.4124575e+2, -1219567.6, -1611337.6, 4288.427, -0.016667793, -0.010368396, -1219520.8, 336272.13, 0.013925711, 10.003576, 9.998315 
2.675722e+3, 1.5124406e+2, -1125251.8, -1476152.0, 38826.68, -0.077690005, 0.009658719, -1121007.0, 336803.84, 0.006682809, 10.0033655, 9.998669 
2.6756412e+3, 1.6124254e+2, -1088181.4, -1455764.1, 22977.256, -0.11479806, 0.035159536, -1086750.6, 273076.72, 0.0021116943, 10.00314, 9.998244 
2.6755607e+3, 1.7124079e+2, -1057536.6, -1368587.8, 29032.44, -0.081724636, 0.0689263, -1054850.1, 206996.06, 0.00034239684, 10.002584, 9.998436 
2.6754808e+3, 1.8123919e+2, -1025145.1, -1292525.9, 32609.004, -0.051564272, 0.092389315, -1021225.7, 142637.77, 0.000014309305, 10.002091, 9.998523 
2.675401e+3, 1.9123743e+2, -912270.56, -1133072.6, 57750.87, -0.02770612, 0.07427639, -898078.06, 167802.33, 0.000000001728097, 10.001962, 9.999006 
2.675321e+3, 2.0123592e+2, -864805.3, -1095574.9, 52640.38, -0.01388269, 0.06345337, -853364.75, 114530.76, 0.0, 10.001769, 9.998685 
2.6752406e+3, 2.1123464e+2, -839516.94, -1004269.2, 42882.855, -0.041835416, 0.09470286, -829023.44, 40885.957, 0.0, 10.001149, 9.998937 
2.6751608e+3, 2.2123352e+2, -822189.7, -941654.9, 50790.69, -0.05610934, 0.11945753, -803515.1, -31593.496, 0.0, 10.00058, 9.998968 
2.6750818e+3, 2.312323e+2, -717289.25, -791594.75, 64179.17, -0.00690641, 0.110931955, -680284.8, -6351.2573, 0.0, 10.000417, 9.999404 
2.6750028e+3, 2.4123126e+2, -660373.9, -727015.4, 60725.3, 0.026773209, 0.102226876, -624428.25, -48484.504, 0.0, 10.000193, 9.999283 
2.6749226e+3, 2.512304e+2, -630747.25, -621178.5, 42501.43, -0.0169051, 0.10272332, -583193.0, -105240.13, 0.0, 9.999546, 9.999648 
2.674843e+3, 2.612297e+2, -624278.5, -579438.8, 56853.117, -0.053192068, 0.10478091, -540744.6, -160784.58, 0.0, 9.998968, 9.999541 
2.6747644e+3, 2.7122915e+2, -521238.1, -437104.22, 55022.0, -0.028124325, 0.11023939, -409910.4, -127944.875, 0.0, 9.99882, 9.999918 
2.6746854e+3, 2.8122878e+2, -449868.6, -342804.13, 41081.47, -0.0024486065, 0.11307775, -328857.6, -144888.75, 0.0, 9.998598, 10.0 
2.6746055e+3, 2.912288e+2, -406760.06, -213704.14, 23547.768, -0.030736767, 0.11645372, -210873.44, -124904.66, 0.0, 9.997971, 10.000517 
2.6745254e+3, 3.0122888e+2, -422494.9, -218762.75, 69138.664, -0.07754561, 0.12098928, -197515.66, -197515.66, 0.0, 9.997396, 10.000088 
2.6744476e+3, 3.1122836e+2, -381379.53, -137031.4, 73152.73, 0.010719283, 0.082250796, -116805.24, -116805.24, 0.0, 9.997181, 10.000419 
2.6743665e+3, 3.2122925e+2, -337233.3, -5198.866, -109703.89, -0.09346972, 0.16908808, 27773.014, 27773.014, 0.0, 9.997008, 10.001407 
2.6858884e+3, 1.3132966e+2, -1236117.9, -1610538.6, -10863.207, -0.08290477, 0.024595888, -1235802.9, 417168.56, 0.018631663, 10.003907, 9.998838 
2.6858065e+3, 1.4132749e+2, -1233946.5, -1617196.6, 19572.91, -0.056385662, -0.0250471, -1232949.5, 322041.56, 0.011557888, 10.003468, 9.998325 
2.6857248e+3, 1.513258e+2, -1168126.1, -1511554.6, 59689.863, -0.081614986, 0.007805464, -1158047.4, 298961.66, 0.0054463535, 10.003134, 9.998534 
2.685644e+3, 1.6132426e+2, -1132757.8, -1479028.4, 41910.1, -0.086946085, 0.042290885, -1127757.5, 231268.6, 0.0016745208, 10.002845, 9.998224 
2.685563e+3, 1.7132242e+2, -1047752.2, -1359583.9, 57929.91, -0.080974124, 0.06302714, -1037338.1, 223707.75, 0.00026296228, 10.002638, 9.998469 
2.6854822e+3, 1.8132071e+2, -991463.44, -1280301.5, 65448.48, -0.07320571, 0.07780832, -977325.3, 185738.77, 0.000010321066, 10.002344, 9.998483 
2.6854023e+3, 1.9131902e+2, -963109.5, -1167176.8, 67724.54, -0.030161116, 0.071927875, -942678.94, 122402.03, 0.0000000002885943, 10.001658, 9.998916 
2.6853222e+3, 2.0131752e+2, -964949.1, -1151065.9, 50020.08, -0.00016434117, 0.07223638, -952357.75, 14738.451, 0.0, 10.001119, 9.998614 
2.6852414e+3, 2.113162e+2, -832106.94, -1009512.9, 56422.555, -0.045480587, 0.10647089, -815682.7, 53428.035, 0.0, 10.001244, 9.998852 
2.6851612e+3, 2.2131498e+2, -733361.1, -904214.2, 68388.41, -0.0740102, 0.13008504, -709358.8, 61765.117, 0.0, 10.001218, 9.998916 
2.6850817e+3, 2.3131354e+2, -723478.3, -798575.56, 67730.33, -0.008439767, 0.104257956, -683584.75, -10447.362, 0.0, 10.000397, 9.999363 
2.6850024e+3, 2.4131231e+2, -740864.5, -780322.0, 62243.246, 0.038946196, 0.08516621, -695298.2, -120149.28, 0.0, 9.999707, 9.999148 
2.6849222e+3, 2.5131148e+2, -607609.94, -633552.0, 51266.246, -0.023633257, 0.109446116, -567699.25, -90540.86, 0.0, 9.999811, 9.999433 
2.6848418e+3, 2.613108e+2, -512593.8, -528003.9, 66013.09, -0.074431404, 0.12705894, -453837.6, -74671.484, 0.0, 9.999751, 9.999515 
2.6847628e+3, 2.7131006e+2, -507643.13, -421442.75, 72006.21, -0.032948215, 0.10788597, -380623.22, -99450.38, 0.0, 9.99888, 9.999993 
2.6846835e+3, 2.8130957e+2, -521956.4, -376418.44, 66077.99, 0.008090959, 0.09300782, -350893.88, -167716.94, 0.0, 9.998104, 10.000005 
2.6846033e+3, 2.9130968e+2, -412375.03, -221512.05, 27149.258, -0.021814471, 0.11476389, -217725.34, -132549.16, 0.0, 9.997959, 10.000465 
2.6845226e+3, 3.0131e+2, -370183.75, -183252.84, 54315.047, -0.073979616, 0.13970834, -168616.89, -168616.89, 0.0, 9.997716, 10.0001745 
2.6844442e+3, 3.1130987e+2, -399058.4, -124792.48, 70228.55, -0.009916348, 0.12510745, -107855.66, -107855.66, 0.0, 9.996976, 10.000598 
2.684363e+3, 3.2131043e+2, -352706.25, 27904.24, -89309.94, -0.07018305, 0.15808527, 47818.766, 47818.766, 0.0, 9.996733, 10.001763 
2.6958925e+3, 1.3141194e+2, -1242187.6, -1612070.3, -31948.45, -0.054611474, 0.022059895, -1239448.4, 412716.84, 0.01539987, 10.003846, 9.998857 
2.6958087e+3, 1.4140983e+2, -1232913.5, -1626689.9, 3273.3506, -0.11914503, -0.020211753, -1232886.3, 321297.88, 0.009434645, 10.003508, 9.998243 
2.6957276e+3, 1.5140815e+2, -1174638.4, -1532318.5, 46440.3, -0.09492812, 0.026086688, -1168707.0, 287495.1, 0.0043574837, 10.003158, 9.9983835 
2.6956466e+3, 1.6140658e+2, -1127970.4, -1469479.1, 31950.574, -0.056169145, 0.06386039, -1125007.0, 233212.58, 0.001300889, 10.002842, 9.998294 
2.6955655e+3, 1.7140453e+2, -1036882.75, -1334782.5, 49854.176, -0.06285256, 0.048793394, -1028761.0, 231479.47, 0.0001967556, 10.002624, 9.998649 
2.6954845e+3, 1.8140264e+2, -1007134.0, -1310480.0, 44608.387, -0.07379471, 0.039333224, -1000710.2, 161549.89, 0.000007082741, 10.00233, 9.998285 
2.6954034e+3, 1.9140087e+2, -989470.94, -1227173.8, 40494.176, -0.05401089, 0.06377975, -982761.9, 81516.98, 0.000000000007316074, 10.0016775, 9.998497 
2.6953226e+3, 2.0139931e+2, -963965.9, -1157725.8, 45017.19, -0.031213623, 0.08916014, -954017.56, 12277.952, 0.0, 10.001152, 9.998554 
2.6952428e+3, 2.11398e+2, -822429.1, -991594.6, 63710.184, -0.024418047, 0.1147046, -801119.4, 67190.25, 0.0, 10.001248, 9.998975 
2.6951623e+3, 2.2139673e+2, -740990.7, -917375.0, 49869.39, -0.022727046, 0.12750366, -727867.44, 42455.457, 0.0, 10.001203, 9.998835 
2.6950818e+3, 2.31395e+2, -737930.44, -829524.1, 34143.344, -0.02135236, 0.090318784, -726603.56, -54264.52, 0.0, 10.000397, 9.999152 
2.6950014e+3, 2.4139357e+2, -750869.9, -803998.2, 53997.887, -0.020847641, 0.0700237, -717255.75, -142903.05, 0.0, 9.999716, 9.998983 
2.6949215e+3, 2.5139293e+2, -616643.1, -655884.4, 56951.46, -0.0319136, 0.12896898, -576027.25, -99666.164, 0.0, 9.999823, 9.999276 
2.6948416e+3, 2.6139235e+2, -503333.97, -512456.84, 44989.03, -0.04179177, 0.16581677, -462675.72, -84307.75, 0.0, 9.999763, 9.999618 
2.6947612e+3, 2.713914e+2, -491185.6, -387316.66, 35013.516, -0.03758894, 0.102413304, -376616.2, -96240.8, 0.0, 9.998877, 10.000232 
2.6946813e+3, 2.8139073e+2, -536529.94, -404439.03, 50393.004, -0.025522918, 0.059081793, -387409.47, -205029.0, 0.0, 9.99809, 9.999821 
2.694601e+3, 2.9139084e+2, -442888.84, -285944.0, 22573.805, -0.006763222, 0.1172836, -282761.7, -198379.81, 0.0, 9.997959, 10.000026 
2.6945207e+3, 3.0139115e+2, -363577.0, -172525.36, 31601.648, -0.025415378, 0.16993158, -167433.86, -167433.86, 0.0, 9.997725, 10.000246 
2.6944405e+3, 3.113913e+2, -370714.13, -61733.98, 35957.117, -0.0567879, 0.14941563, -57604.707, -57604.707, 0.0, 9.996954, 10.001044 
2.6943597e+3, 3.2139146e+2, -384084.16, -36628.473, -44706.49, -0.045877874, 0.12069916, -30968.373, -30968.373, 0.0, 9.996722, 10.00133 
2.705896e+3, 1.3149428e+2, -1344782.9, -1661715.8, -16430.959, -0.011338588, 0.03477504, -1343933.4, 307425.66, 0.0124828275, 10.003122, 9.99886 
2.705812e+3, 1.4149228e+2, -1191846.8, -1599424.0, -457.75208, -0.1555196, 0.001268502, -1191846.3, 361530.66, 0.0075380052, 10.003757, 9.998308 
2.7057302e+3, 1.5149045e+2, -1160008.6, -1515568.1, 43775.527, -0.10610267, 0.023371805, -1154698.4, 300697.38, 0.003402424, 10.003219, 9.998466 
2.7056494e+3, 1.6148876e+2, -1152949.3, -1475170.8, 42010.53, -0.042880923, 0.04448664, -1147562.0, 209851.5, 0.0009823536, 10.0026455, 9.998346 
2.7055675e+3, 1.7148693e+2, -1092043.1, -1357695.8, 53982.492, -0.05616647, 0.046838935, -1081492.5, 177940.19, 0.0001415321, 10.0022335, 9.998676 
2.705486e+3, 1.8148516e+2, -1064124.8, -1338128.9, 46153.17, -0.07547064, 0.04982331, -1056559.6, 104891.555, 0.000004518096, 10.001945, 9.998278 
2.7054048e+3, 1.9148326e+2, -944262.25, -1210044.3, 64920.207, -0.06426672, 0.06413168, -929252.44, 134218.69, 0.0, 10.002013, 9.99845 
2.705324e+3, 2.0148155e+2, -861727.56, -1121235.4, 82538.19, -0.04358012, 0.08193746, -837700.3, 127788.984, 0.0, 10.001913, 9.998436 
2.7052435e+3, 2.114801e+2, -854758.4, -1025162.7, 81674.54, -0.014084263, 0.10916007, -821934.5, 45570.652, 0.0, 10.001108, 9.998809 
2.705163e+3, 2.2147873e+2, -849679.7, -973504.44, 54906.06, 0.0014784985, 0.12404173, -828840.5, -59320.832, 0.0, 10.000477, 9.9987955 
2.7050817e+3, 2.3147705e+2, -701936.2, -811439.9, 53122.836, -0.029285256, 0.09361823, -680400.44, -8865.52, 0.0, 10.000646, 9.999154 
2.7050006e+3, 2.4147561e+2, -621035.2, -751573.06, 85134.73, -0.05018918, 0.07627187, -579029.0, -5480.522, 0.0, 10.000656, 9.998887 
2.7049208e+3, 2.5147468e+2, -621935.25, -675107.56, 87862.44, -0.028396381, 0.12131152, -556724.75, -81165.016, 0.0, 9.999864, 9.999122 
2.704841e+3, 2.614739e+2, -592358.1, -559135.4, 67715.88, -0.014003501, 0.15065953, -506023.16, -128454.5, 0.0, 9.999174, 9.9995775 
2.70476e+3, 2.714731e+2, -463444.2, -374094.25, 37190.727, -0.036911324, 0.107170686, -360640.0, -81065.625, 0.0, 9.999073, 10.000225 
2.704679e+3, 2.8147256e+2, -430437.9, -365732.13, 45182.15, -0.045707613, 0.07749103, -342514.03, -160935.25, 0.0, 9.998877, 9.999705 
2.7045986e+3, 2.9147238e+2, -416750.63, -293204.1, 36181.555, -0.014927335, 0.123237185, -283387.97, -199804.45, 0.0, 9.998229, 9.999844 
2.7045178e+3, 3.0147249e+2, -386366.16, -186625.8, 49023.426, -0.021733703, 0.16974697, -175242.44, -175242.44, 0.0, 9.997588, 10.000213 
2.7044374e+3, 3.1147286e+2, -339944.7, -44783.223, 22669.65, -0.036001727, 0.17213611, -43052.25, -43052.25, 0.0, 9.997161, 10.001059 
2.7043563e+3, 3.2147273e+2, -383615.22, -49000.035, -23395.135, -0.035060905, 0.11874563, -47372.246, -47372.246, 0.0, 9.996783, 10.001213 
2.715899e+3, 1.3157678e+2, -1339099.6, -1660390.0, 16923.783, 0.04153929, 0.05723307, -1338210.8, 312340.9, 0.009871466, 10.003161, 9.99885 
2.715815e+3, 1.4157493e+2, -1188241.1, -1580387.0, -5384.324, -0.17460512, 0.035166055, -1188167.3, 364400.9, 0.005859108, 10.003699, 9.998468 
2.715733e+3, 1.5157281e+2, -1147741.4, -1483233.1, 18512.44, -0.11758394, 0.0046848813, -1146723.0, 307865.56, 0.002573527, 10.003182, 9.998707 
2.7156517e+3, 1.6157097e+2, -1152737.5, -1473405.5, 22257.537, -0.044312444, -0.005873831, -1151200.0, 205406.9, 0.00071428594, 10.002636, 9.998365 
2.7155694e+3, 1.7156966e+2, -1097080.8, -1372715.6, 37853.363, -0.05866327, 0.055843897, -1091976.8, 166645.47, 0.000096502925, 10.002249, 9.998568 
2.7154875e+3, 1.8156828e+2, -1050425.6, -1315865.8, 42480.914, -0.07796469, 0.100207694, -1043792.75, 116844.914, 0.000002610615, 10.001967, 9.998421 
2.7154064e+3, 1.915662e+2, -926331.56, -1172601.0, 67625.14, -0.062729806, 0.07055812, -908983.8, 153674.3, 0.0, 10.002008, 9.998712 
2.7153254e+3, 2.0156422e+2, -878559.0, -1151800.3, 61488.453, -0.041053217, 0.052665755, -865359.7, 99318.13, 0.0, 10.001891, 9.998239 
2.7152443e+3, 2.1156248e+2, -885903.94, -1091812.0, 48833.215, -0.015052496, 0.09146561, -874909.7, -8212.232, 0.0, 10.001114, 9.99835 
2.7151632e+3, 2.2156096e+2, -847412.75, -974061.8, 49423.844, -0.0018322256, 0.12229319, -830408.5, -61694.3, 0.0, 10.000496, 9.998784 
2.7150822e+3, 2.315597e+2, -685601.56, -780880.6, 61826.848, -0.031797264, 0.11457046, -655189.25, 15535.805, 0.0, 10.000656, 9.99936 
2.715001e+3, 2.4155843e+2, -623477.2, -757428.2, 67428.62, -0.049390964, 0.10197914, -595414.06, -22677.645, 0.0, 10.000656, 9.998849 
2.7149206e+3, 2.5155672e+2, -634367.56, -701190.9, 55082.61, -0.013523462, 0.08372903, -603355.3, -128600.72, 0.0, 9.999862, 9.998945 
2.7148402e+3, 2.6155543e+2, -607881.4, -591666.4, 54845.164, 0.0068749264, 0.08040896, -544332.7, -167564.23, 0.0, 9.999171, 9.999357 
2.7147588e+3, 2.7155527e+2, -482052.1, -415846.25, 34433.86, -0.030722817, 0.12523185, -401184.2, -122414.14, 0.0, 9.999082, 9.999936 
2.7146775e+3, 2.815551e+2, -429597.25, -369945.53, 26430.777, -0.054342005, 0.15539728, -359919.56, -179147.6, 0.0, 9.998898, 9.999668 
2.714596e+3, 2.915543e+2, -409503.94, -279758.03, 8203.776, -0.051584754, 0.13252512, -279241.38, -196459.9, 0.0, 9.998232, 9.999936 
2.7145147e+3, 3.0155393e+2, -401763.6, -216662.92, 29094.555, -0.06551567, 0.13359393, -212197.5, -212197.5, 0.0, 9.997575, 10.000014 
2.7144352e+3, 3.115545e+2, -371393.5, -111926.234, 6302.2793, 0.065768585, 0.19201086, -111773.25, -111773.25, 0.0, 9.997163, 10.000599 
2.7143523e+3, 3.2155427e+2, -367266.3, -9144.938, -33208.4, -0.070990965, 0.14887995, -6091.5757, -6091.5757, 0.0, 9.99676, 10.001496 
2.725902e+3, 1.3165902e+2, -1309745.1, -1633669.4, 30428.361, 0.016582396, 0.0500242, -1306911.6, 342834.63, 0.007570624, 10.003304, 9.998965 
2.7258182e+3, 1.4165747e+2, -1295927.4, -1612171.3, -1818.0859, -0.15038797, 0.045216642, -1295916.9, 255842.95, 0.0044005574, 10.002868, 9.998649 
2.7257356e+3, 1.5165555e+2, -1227279.3, -1498495.4, 13229.813, -0.10268869, 0.014486342, -1226635.4, 227142.67, 0.0018707194, 10.002539, 9.99891 
2.725654e+3, 1.6165382e+2, -1194861.1, -1485719.5, 22681.373, -0.04230956, 0.00015373845, -1193103.0, 162692.17, 0.0004952354, 10.002316, 9.998432 
2.7255714e+3, 1.7165244e+2, -1085262.4, -1368373.5, 46786.387, -0.06533759, 0.054744907, -1077730.9, 180080.44, 0.00006139788, 10.002341, 9.99855 
2.725489e+3, 1.8165104e+2, -1009648.44, -1293646.8, 48132.035, -0.08626954, 0.09868493, -1001712.8, 158114.19, 0.0000013215272, 10.00224, 9.998441 
2.725408e+3, 1.9164914e+2, -977022.44, -1193722.4, 56300.7, -0.053748764, 0.08578505, -963268.0, 98577.64, 0.0, 10.001651, 9.998735 
2.725327e+3, 2.0164727e+2, -978161.9, -1199782.5, 42288.195, -0.024120755, 0.07455878, -970366.94, -6502.465, 0.0, 10.001212, 9.998233 
2.725245e+3, 2.1164525e+2, -853907.8, -1080922.6, 55063.215, -0.02674778, 0.08852552, -841257.06, 24629.299, 0.0, 10.001358, 9.998305 
2.7251637e+3, 2.2164351e+2, -731169.4, -930328.6, 74195.95, -0.028399032, 0.105352834, -706567.06, 61337.9, 0.0, 10.001351, 9.998671 
2.7250826e+3, 2.3164234e+2, -690285.0, -800639.7, 62932.996, -0.022145536, 0.12238261, -661765.9, 8149.7188, 0.0, 10.000704, 9.999199 
2.7250016e+3, 2.4164112e+2, -699226.1, -792363.94, 44967.188, -0.016296716, 0.12604988, -681059.3, -109132.58, 0.0, 10.000134, 9.998858 
2.7249202e+3, 2.516393e+2, -608934.6, -680509.4, 45602.105, -0.012776687, 0.08975134, -586754.0, -112808.87, 0.0, 10.000005, 9.999016 
2.724839e+3, 2.6163784e+2, -529258.6, -571986.6, 63676.016, -0.0137093635, 0.07184589, -483458.22, -107498.2, 0.0, 9.999794, 9.99919 
2.7247575e+3, 2.716375e+2, -479236.1, -447768.25, 44003.87, -0.029028026, 0.12564147, -416770.0, -138805.56, 0.0, 9.999251, 9.999632 
2.724676e+3, 2.8163722e+2, -456351.28, -384409.25, 30187.926, -0.036793068, 0.16472575, -373420.44, -193452.13, 0.0, 9.998729, 9.999647 
2.7245942e+3, 2.9163647e+2, -376417.88, -252228.94, 9254.094, -0.04900961, 0.14180575, -251543.14, -169566.78, 0.0, 9.998416, 10.000033 
2.7245122e+3, 3.016361e+2, -343437.25, -201531.2, 32729.701, -0.07287799, 0.14004228, -194346.11, -194346.11, 0.0, 9.998037, 9.999892 
2.724432e+3, 3.1163636e+2, -353955.3, -129049.484, 21451.693, 0.07521493, 0.18786064, -127021.69, -127021.69, 0.0, 9.997399, 10.000363 
2.7243483e+3, 3.2163602e+2, -347248.06, 1362.9398, -17768.834, -0.1166195, 0.15153287, 2266.2832, 2266.2832, 0.0, 9.9969015, 10.001497 
2.7359042e+3, 1.317412e+2, -1294823.9, -1603541.6, 13582.119, -0.062081236, 0.023263728, -1294227.5, 354713.5, 0.0055938545, 10.003304, 9.999172 
2.7358213e+3, 1.4174004e+2, -1280487.9, -1584806.9, -16277.605, -0.0951774, 0.037560064, -1279619.8, 271330.88, 0.0031717154, 10.002883, 9.998831 
2.7357382e+3, 1.5173867e+2, -1211960.4, -1474517.4, 845.9038, -0.06873452, 0.045743585, -1211957.6, 241006.48, 0.001297253, 10.002567, 9.999063 
2.735656e+3, 1.6173726e+2, -1185069.0, -1471445.9, 18855.99, -0.038597565, 0.049131285, -1183832.9, 171145.78, 0.00032432747, 10.002338, 9.998521 
2.7355734e+3, 1.7173533e+2, -1082418.8, -1362846.9, 47681.17, -0.076163515, 0.044266287, -1074533.3, 182466.02, 0.000035830955, 10.002339, 9.998591 
2.735491e+3, 1.817336e+2, -1018746.4, -1310155.6, 32005.346, -0.10035262, 0.05472994, -1015272.6, 143745.36, 0.00000054868656, 10.002227, 9.998335 
2.7354094e+3, 1.9173221e+2, -989246.75, -1221987.4, 32844.773, -0.038595855, 0.11021346, -984700.44, 76332.54, 0.0, 10.001659, 9.998539 
2.735328e+3, 2.0173068e+2, -964185.6, -1176025.3, 39723.766, 0.003567416, 0.14282069, -956981.7, 6067.261, 0.0, 10.001232, 9.998388 
2.7352458e+3, 2.1172838e+2, -829723.9, -1033342.25, 61954.387, -0.04882778, 0.098449945, -812354.8, 52716.996, 0.0, 10.001367, 9.99863 
2.7351642e+3, 2.2172634e+2, -748396.06, -965339.94, 58678.926, -0.0768298, 0.071886666, -733541.7, 33550.504, 0.0, 10.001345, 9.998435 
2.735083e+3, 2.3172496e+2, -728016.44, -879734.56, 36761.81, -0.0003714874, 0.116766274, -719578.25, -50471.72, 0.0, 10.000705, 9.998657 
2.735002e+3, 2.4172373e+2, -694886.06, -785470.9, 33595.72, 0.04598152, 0.15243556, -683786.3, -112667.125, 0.0, 10.00014, 9.998904 
2.7349198e+3, 2.5172246e+2, -585388.56, -634274.5, 41138.426, -0.028198248, 0.14307484, -561979.4, -88848.195, 0.0, 10.000012, 9.999331 
2.7348375e+3, 2.6172122e+2, -536206.4, -589632.56, 47682.184, -0.07998433, 0.12782863, -508264.38, -133121.13, 0.0, 9.9998045, 9.999066 
2.7347565e+3, 2.7171975e+2, -503196.0, -498071.56, 21049.18, -0.03171073, 0.10390586, -479429.22, -202270.98, 0.0, 9.99925, 9.999289 
2.734675e+3, 2.817188e+2, -458995.97, -389445.94, 14437.909, 0.012057495, 0.09763567, -386567.88, -207398.92, 0.0, 9.998723, 9.999617 
2.734593e+3, 2.917189e+2, -369154.53, -239196.38, -3150.0747, -0.000077321485, 0.1530303, -239120.06, -157951.44, 0.0, 9.99842, 10.000124 
2.7345103e+3, 3.0171907e+2, -344082.63, -206628.89, 11722.038, -0.044560272, 0.19720724, -205636.4, -205636.4, 0.0, 9.998049, 9.999854 
2.7344283e+3, 3.117183e+2, -356567.47, -134853.33, -5122.098, -0.03346056, 0.15251279, -134735.06, -134735.06, 0.0, 9.997398, 10.000326 
2.7343455e+3, 3.2171807e+2, -373068.94, -61288.63, -45006.05, -0.056634378, 0.14022616, -54921.934, -54921.934, 0.0, 9.9969225, 10.001065 
2.7459067e+3, 1.3182417e+2, -1314564.0, -1604537.6, 40859.1, -0.09615914, 0.017837103, -1308916.8, 339210.56, 0.0039526187, 10.003123, 9.999252 
2.745824e+3, 1.4182304e+2, -1283750.4, -1583438.3, 5425.367, -0.07734616, 0.029024027, -1283652.3, 266484.53, 0.0021774448, 10.002848, 9.998856 
2.7457404e+3, 1.5182178e+2, -1198441.5, -1469561.1, 14357.421, -0.06755099, 0.048803452, -1197683.4, 254466.58, 0.0008516583, 10.002671, 9.999044 
2.745658e+3, 1.6182047e+2, -1162243.0, -1452889.4, 24912.668, -0.04935475, 0.062168956, -1160123.0, 194040.89, 0.00019843952, 10.002467, 9.998585 
2.7455753e+3, 1.718186e+2, -1110823.9, -1366504.1, 56300.582, -0.069107845, 0.055043213, -1098975.6, 157208.17, 0.000018874509, 10.002106, 9.998676 
2.745493e+3, 1.8181688e+2, -1072980.4, -1329799.1, 42549.37, -0.08326827, 0.05909674, -1066114.5, 92087.76, 0.0000001651746, 10.001832, 9.998387 
2.7454108e+3, 1.918154e+2, -966051.8, -1208588.3, 54888.324, -0.042217202, 0.1033769, -954208.4, 106009.55, 0.0, 10.001815, 9.998553 
2.745329e+3, 2.0181385e+2, -895266.75, -1144013.3, 70700.305, -0.0112006925, 0.13430113, -876576.25, 85657.91, 0.0, 10.001715, 9.998374 
2.7452472e+3, 2.1181172e+2, -840936.3, -1042194.1, 71384.695, -0.04081007, 0.1101329, -818187.94, 46067.625, 0.0, 10.001308, 9.998594 
2.7451652e+3, 2.2180972e+2, -806005.06, -996118.44, 48915.84, -0.05479248, 0.09071058, -794157.44, -27881.742, 0.0, 10.000967, 9.998404 
2.745084e+3, 2.31808e+2, -709808.75, -877920.3, 55018.58, 0.0018200655, 0.10811881, -693403.5, -25110.729, 0.0, 10.000864, 9.998591 
2.745002e+3, 2.4180655e+2, -620320.2, -755656.1, 74711.445, 0.036746074, 0.12899153, -587187.56, -16880.201, 0.0, 10.000683, 9.998845 
2.7449197e+3, 2.5180545e+2, -561922.7, -629457.8, 56614.703, -0.023940947, 0.1448278, -529770.06, -57452.2, 0.0, 10.000206, 9.999269 
2.744837e+3, 2.618043e+2, -548215.1, -596622.9, 42406.543, -0.06858433, 0.14509396, -523591.28, -149262.3, 0.0, 9.999734, 9.999049 
2.7447554e+3, 2.7180266e+2, -487282.44, -492260.4, 35841.918, -0.032344475, 0.10148584, -453843.2, -177497.33, 0.0, 9.999373, 9.999267 
2.7446735e+3, 2.818015e+2, -424928.1, -378083.25, 46630.28, 0.012172794, 0.08109626, -349323.38, -170965.19, 0.0, 9.998983, 9.999567 
2.7445912e+3, 2.918017e+2, -365854.5, -245105.34, 17269.021, 0.03362171, 0.1506794, -242684.14, -162326.83, 0.0, 9.99848, 10.0000515 
2.744508e+3, 3.0180186e+2, -348661.75, -204575.69, 23918.656, -0.013880972, 0.20052382, -200708.9, -200708.9, 0.0, 9.998006, 9.999886 
2.7444246e+3, 3.1180093e+2, -298785.75, -97412.8, 14749.1045, -0.12006161, 0.12891717, -96338.266, -96338.266, 0.0, 9.997759, 10.000407 
2.7443436e+3, 3.21801e+2, -336493.13, -87192.43, -6338.1113, 0.051386874, 0.15672295, -87031.4, -87031.4, 0.0, 9.997365, 10.000673 
2.7559096e+3, 1.3190782e+2, -1308965.3, -1603151.1, 28303.514, -0.10162953, 0.02586128, -1306266.9, 341039.8, 0.0026450194, 10.003165, 9.999242 
2.7558264e+3, 1.4190648e+2, -1292550.3, -1600028.9, -3926.568, -0.08852742, 0.020745434, -1292500.1, 256818.23, 0.0014097068, 10.002836, 9.998749 
2.7557427e+3, 1.5190499e+2, -1208997.1, -1493712.0, 8880.912, -0.09173874, 0.031140327, -1208720.4, 242614.13, 0.0005235456, 10.002676, 9.998878 
2.7556595e+3, 1.6190359e+2, -1157660.9, -1446980.8, 14514.053, -0.07173204, 0.048045967, -1156934.6, 196415.13, 0.00011162491, 10.00248, 9.998621 
2.7555773e+3, 1.7190227e+2, -1102697.1, -1350559.8, 43511.22, -0.04709273, 0.083537035, -1095280.9, 160083.8, 0.000008820601, 10.002107, 9.998786 
2.755495e+3, 1.8190081e+2, -1062316.9, -1306260.1, 38987.465, -0.041645832, 0.1021185, -1056237.4, 101142.82, 0.000000030933013, 10.001823, 9.998554 
2.7554122e+3, 1.9189875e+2, -953926.75, -1183033.8, 55319.367, -0.06365186, 0.068109736, -941268.9, 118131.51, 0.0, 10.001811, 9.998733 
2.75533e+3, 2.0189683e+2, -908849.56, -1172078.3, 59754.836, -0.06313417, 0.058052264, -895919.9, 65499.67, 0.0, 10.001711, 9.998184 
2.7552482e+3, 2.1189526e+2, -867372.6, -1097673.8, 56182.84, -0.004010562, 0.12503104, -854397.6, 9039.894, 0.0, 10.0013075, 9.998216 
2.755167e+3, 2.2189364e+2, -794627.0, -973459.75, 42446.797, 0.029379623, 0.16122463, -785063.5, -19608.336, 0.0, 10.000969, 9.99856 
2.755084e+3, 2.3189145e+2, -681435.5, -821579.75, 51751.8, -0.017748877, 0.09624901, -664396.5, 3077.8882, 0.0, 10.000872, 9.998976 
2.7550015e+3, 2.4188954e+2, -633479.2, -783890.56, 60770.754, -0.04364521, 0.05368993, -611994.75, -42503.086, 0.0, 10.000684, 9.998653 
2.7549195e+3, 2.5188825e+2, -594952.4, -698401.56, 37392.684, 0.0027614892, 0.09206143, -582851.8, -111346.29, 0.0, 10.000206, 9.998796 
2.7548376e+3, 2.6188713e+2, -541195.5, -583348.56, 26641.984, 0.023876198, 0.124222055, -528301.25, -154783.75, 0.0, 9.999737, 9.999141 
2.7547544e+3, 2.7188623e+2, -464196.16, -446133.9, 22091.588, -0.03325608, 0.12305318, -431298.75, -155771.84, 0.0, 9.999377, 9.999584 
2.7546716e+3, 2.8188542e+2, -430636.4, -391529.66, 29590.863, -0.04710002, 0.12181053, -375615.4, -198080.13, 0.0, 9.998986, 9.9994755 
2.7545896e+3, 2.9188472e+2, -387310.5, -288022.3, -3298.7954, 0.050189044, 0.1292321, -287912.84, -208369.78, 0.0, 9.998471, 9.999763 
2.7545062e+3, 3.0188435e+2, -344096.9, -192363.75, 10998.193, 0.025816824, 0.13832416, -191570.7, -191570.7, 0.0, 9.997991, 9.999979 
2.7544215e+3, 3.1188422e+2, -281538.38, -66574.69, 6113.489, -0.18345842, 0.12687048, -66400.96, -66400.96, 0.0, 9.997774, 10.000615 
2.7543408e+3, 3.2188454e+2, -361982.16, -134877.25, -8699.649, 0.08715044, 0.18034711, -134544.48, -134544.48, 0.0, 9.9973545, 10.000344 
2.765912e+3, 1.3199165e+2, -1287416.5, -1596688.1, 19054.547, -0.122202724, 0.029341884, -1286246.9, 360237.63, 0.0016527727, 10.003327, 9.9992075 
2.765829e+3, 1.4199029e+2, -1337639.0, -1616158.6, 7245.544, -0.06789226, 0.023055568, -1337450.6, 211045.97, 0.0008475377, 10.002504, 9.998796 
2.765745e+3, 1.5198871e+2, -1231361.0, -1496610.5, 42776.516, -0.0923167, 0.018882122, -1224633.1, 225880.34, 0.00029579987, 10.002493, 9.998944 
2.7656615e+3, 1.6198733e+2, -1159579.8, -1437081.5, 47863.86, -0.08636854, 0.029219188, -1151556.1, 200972.72, 0.000056229168, 10.002424, 9.9987135 
2.765579e+3, 1.7198628e+2, -1116664.9, -1347198.9, 71243.44, -0.046407968, 0.083730325, -1096425.0, 158116.2, 0.0000035428636, 10.001972, 9.998873 
2.7654964e+3, 1.8198502e+2, -1087287.9, -1307190.6, 74546.055, -0.028203774, 0.11388953, -1064399.4, 92155.586, 0.000000001954365, 10.001608, 9.998651 
2.7654135e+3, 1.9198287e+2, -984861.25, -1188406.3, 89681.1, -0.052694917, 0.0640274, -950985.9, 107589.72, 0.0, 10.001561, 9.998814 
2.7653313e+3, 2.0198087e+2, -939773.1, -1183908.6, 85902.02, -0.055511113, 0.04169889, -912577.0, 48018.203, 0.0, 10.00149, 9.998207 
2.7652493e+3, 2.119794e+2, -878772.7, -1105416.0, 101244.914, 0.0012177385, 0.11859026, -840132.75, 22479.889, 0.0, 10.001245, 9.998191 
2.7651674e+3, 2.2197782e+2, -790021.0, -974255.5, 105165.125, 0.032808002, 0.16471301, -742333.75, 22296.121, 0.0, 10.001018, 9.9985285 
2.7650845e+3, 2.3197556e+2, -681846.44, -826773.1, 87683.52, -0.020759927, 0.0960949, -640558.6, 26091.316, 0.0, 10.0008955, 9.998927 
2.7650017e+3, 2.419735e+2, -635980.9, -789544.7, 69476.69, -0.048775468, 0.0455574, -609213.44, -40545.016, 0.0, 10.00069, 9.998609 
2.7649197e+3, 2.5197208e+2, -596544.6, -706538.4, 68943.14, 0.013042199, 0.07657987, -563349.56, -92665.914, 0.0, 10.000232, 9.998726 
2.764837e+3, 2.619709e+2, -533537.9, -578647.25, 78637.41, 0.045752518, 0.10832084, -474284.53, -101588.266, 0.0, 9.999789, 9.9991455 
2.7647537e+3, 2.7197018e+2, -452517.16, -437649.8, 53554.184, -0.02563059, 0.12461069, -391015.84, -116312.02, 0.0, 9.999451, 9.999604 
2.7646703e+3, 2.819695e+2, -420445.16, -389287.28, 44183.566, -0.05224452, 0.13457033, -358016.53, -181305.47, 0.0, 9.999075, 9.999444 
2.764588e+3, 2.9196858e+2, -366435.53, -286641.84, 23854.717, 0.04925873, 0.1290215, -280054.22, -201333.36, 0.0, 9.998658, 9.999679 
2.764504e+3, 3.0196795e+2, -308988.8, -176324.25, 49381.832, 0.028893918, 0.124071, -159961.08, -159961.08, 0.0, 9.99824, 9.999966 
2.7644187e+3, 3.1196782e+2, -278884.28, -67534.46, 29037.29, -0.19365041, 0.11130947, -63617.625, -63617.625, 0.0, 9.997807, 10.00059 
2.7643374e+3, 3.2196826e+2, -366809.0, -143258.33, -7436.9746, 0.053040422, 0.18176647, -143011.19, -143011.19, 0.0, 9.997354, 10.000284 
2.7759147e+3, 1.3207574e+2, -1290863.8, -1603982.3, -21243.111, -0.1523811, 0.031151738, -1289429.1, 356230.9, 0.00094472204, 10.003327, 9.999157 
2.7758312e+3, 1.420745e+2, -1323436.3, -1591859.3, -2955.9583, -0.02649287, 0.032571577, -1323403.8, 224267.53, 0.00046214432, 10.002524, 9.998955 
2.7757472e+3, 1.5207294e+2, -1215830.9, -1464140.3, 45691.152, -0.07628619, 0.009581551, -1207690.3, 241997.08, 0.00014888143, 10.002487, 9.999172 
2.7756634e+3, 1.6207162e+2, -1154070.1, -1421593.4, 36295.965, -0.09513858, 0.006016704, -1149233.1, 202468.58, 0.000024304103, 10.002403, 9.998832 
2.7755803e+3, 1.7207064e+2, -1111777.6, -1339364.0, 53768.01, -0.06409694, 0.06149581, -1099714.1, 153999.5, 0.0000010959823, 10.00198, 9.998924 
2.7754974e+3, 1.8206953e+2, -1082231.6, -1302601.6, 68511.66, -0.039046668, 0.10157722, -1062668.5, 93058.01, 0.00000000000031093438, 10.001631, 9.9986725 
2.7754152e+3, 1.9206771e+2, -984971.7, -1189984.1, 89298.586, -0.0129690925, 0.087894924, -951530.25, 106213.77, 0.0, 10.001564, 9.998803 
2.775333e+3, 2.0206593e+2, -926862.5, -1155186.0, 79341.6, 0.0018812492, 0.07800597, -901999.1, 57762.7, 0.0, 10.001479, 9.998411 
2.77525e+3, 2.1206409e+2, -857685.9, -1063806.9, 91445.13, -0.024902014, 0.09134636, -822965.1, 38816.168, 0.0, 10.001251, 9.998474 
2.7751672e+3, 2.2206227e+2, -805004.5, -1008452.25, 98948.36, -0.03847257, 0.10472123, -764818.06, -1017.9038, 0.0, 10.001028, 9.99829 
2.7750853e+3, 2.3206028e+2, -714920.1, -896725.06, 83537.56, -0.0053863567, 0.10823274, -682364.94, -16545.361, 0.0, 10.000898, 9.998447 
2.775003e+3, 2.4205847e+2, -628481.1, -774837.7, 55324.117, 0.01728513, 0.1073295, -609921.6, -42084.316, 0.0, 10.000691, 9.998711 
2.7749196e+3, 2.52057e+2, -573261.25, -659234.4, 50724.207, 0.0032214022, 0.10016584, -549758.8, -79906.86, 0.0, 10.000233, 9.999052 
2.774836e+3, 2.6205564e+2, -541404.4, -595735.8, 65004.824, -0.008571726, 0.096943244, -498117.28, -126252.11, 0.0, 9.999789, 9.99903 
2.774753e+3, 2.7205446e+2, -475626.84, -485210.22, 40443.69, -0.0063985856, 0.1022676, -439691.97, -165815.02, 0.0, 9.999447, 9.999281 
2.7746695e+3, 2.8205362e+2, -418487.8, -385506.5, 28619.65, 0.005045872, 0.1164376, -368966.47, -193080.4, 0.0, 9.999074, 9.999472 
2.774586e+3, 2.9205334e+2, -356007.03, -266367.94, 8042.542, 0.024296364, 0.15700899, -265652.06, -187762.14, 0.0, 9.99866, 9.999819 
2.7745014e+3, 3.0205292e+2, -318144.2, -198056.67, 34552.64, -0.019413922, 0.16903418, -188824.63, -188824.63, 0.0, 9.998248, 9.999815 
2.7744168e+3, 3.1205162e+2, -301810.38, -111712.89, 11689.655, -0.1269677, 0.0693663, -110996.76, -110996.76, 0.0, 9.997789, 10.000297 
2.7743343e+3, 3.2205245e+2, -351874.5, -113565.305, -43993.887, 0.029540008, 0.18801193, -105703.055, -105703.055, 0.0, 9.997341, 10.000504 
2.7859178e+3, 1.3216007e+2, -1326278.6, -1620053.0, -22995.262, -0.14786091, 0.013044922, -1324489.6, 320343.3, 0.00048016405, 10.003077, 9.999168 
2.7858335e+3, 1.4215885e+2, -1311702.3, -1567224.0, 14264.499, -0.028179184, 0.013258821, -1310908.4, 235935.52, 0.00022062259, 10.002523, 9.999124 
2.785749e+3, 1.5215768e+2, -1248919.0, -1456400.6, 70421.984, -0.0679143, 0.007833344, -1227274.8, 221581.42, 0.00006335136, 10.002161, 9.999382 
2.7856654e+3, 1.621566e+2, -1216871.0, -1442209.5, 58764.76, -0.08174864, 0.013673981, -1202466.9, 148401.27, 0.000008291806, 10.001934, 9.998916 
2.785582e+3, 1.721555e+2, -1113106.1, -1337375.1, 74226.484, -0.068353206, 0.053809904, -1090764.9, 162116.55, 0.00000018034233, 10.001962, 9.998945 
2.7854988e+3, 1.8215433e+2, -1038485.94, -1272124.3, 87227.47, -0.052485805, 0.08525339, -1009512.94, 145381.86, 0.0, 10.001894, 9.998754 
2.7854165e+3, 1.9215277e+2, -989883.3, -1182483.5, 113030.94, -0.007375655, 0.08678572, -937692.0, 119218.086, 0.0, 10.0014925, 9.998888 
2.785334e+3, 2.0215116e+2, -956029.9, -1157118.1, 110459.01, 0.017484078, 0.08649538, -907207.6, 51718.516, 0.0, 10.001231, 9.998516 
2.7852508e+3, 2.1214928e+2, -829131.3, -1039012.56, 112453.87, -0.030240767, 0.08474168, -780259.0, 80686.695, 0.0, 10.001404, 9.9985695 
2.785168e+3, 2.221474e+2, -753534.7, -986933.3, 106808.79, -0.05471161, 0.08789267, -712035.25, 50929.797, 0.0, 10.001399, 9.998258 
2.7850857e+3, 2.3214549e+2, -733950.6, -917238.94, 112666.34, -0.0009832163, 0.10790963, -680362.7, -15378.243, 0.0, 10.000821, 9.998342 
2.7850032e+3, 2.4214374e+2, -676741.7, -798986.75, 102752.26, 0.0337216, 0.12192966, -618306.75, -51304.664, 0.0, 10.000368, 9.998698 
2.7849194e+3, 2.5214222e+2, -553687.44, -648816.9, 76428.31, -0.0019111565, 0.11365486, -511231.66, -42215.008, 0.0, 10.000367, 9.999057 
2.7848357e+3, 2.6214078e+2, -478774.75, -568358.25, 71976.7, -0.027567033, 0.10254087, -438790.63, -67760.2, 0.0, 10.0002365, 9.999 
2.7847522e+3, 2.7213937e+2, -438638.1, -475101.97, 62514.016, -0.008668132, 0.08917872, -391751.63, -118707.45, 0.0, 9.999739, 9.9992075 
2.7846685e+3, 2.8213838e+2, -397021.56, -376129.88, 60568.29, 0.013178747, 0.09338482, -325113.25, -150058.72, 0.0, 9.999229, 9.99946 
2.784584e+3, 2.9213822e+2, -344617.97, -261245.44, 27950.469, 0.0071920236, 0.14806609, -252742.33, -175685.19, 0.0, 9.998744, 9.999811 
2.784499e+3, 3.0213785e+2, -313181.56, -206455.64, 53655.01, -0.039266825, 0.17097504, -184145.19, -184145.19, 0.0, 9.998336, 9.999712 
2.7844152e+3, 3.1213638e+2, -251842.36, -102963.13, 39306.875, -0.061471913, 0.066518776, -93222.66, -93222.66, 0.0, 9.998205, 10.000153 
2.7843314e+3, 3.2213694e+2, -332111.9, -82814.766, -42384.652, 0.04333153, 0.1618786, -75805.73, -75805.73, 0.0, 9.99739, 10.000689 
2.7959207e+3, 1.322446e+2, -1323834.8, -1612480.6, -42666.82, -0.12339648, -0.020165121, -1317660.0, 326343.25, 0.0002084969, 10.003065, 9.999226 
2.7958354e+3, 1.4224344e+2, -1295989.0, -1540732.3, 1112.3486, -0.06082617, -0.025258739, -1295984.0, 250030.17, 0.000087081266, 10.002548, 9.999295 
2.795751e+3, 1.522429e+2, -1229871.6, -1426623.5, 58977.477, -0.06516822, 0.013852786, -1213547.3, 234473.16, 0.000020796237, 10.0022, 9.999568 
2.7956674e+3, 1.6224222e+2, -1208982.1, -1432674.3, 56317.047, -0.054250315, 0.045918394, -1195603.8, 154424.88, 0.0000018268473, 10.001961, 9.998969 
2.7955836e+3, 1.7224082e+2, -1113730.9, -1339094.6, 76348.97, -0.062520854, 0.056700993, -1090301.1, 161743.72, 0.0000000041088697, 10.001962, 9.998935 
2.7955002e+3, 1.8223946e+2, -1031895.9, -1255569.3, 76732.03, -0.067768455, 0.06410089, -1008103.5, 145956.6, 0.0, 10.001879, 9.998876 
2.7954176e+3, 1.9223805e+2, -977590.25, -1159699.5, 97148.234, -0.03222854, 0.06416844, -935495.6, 120578.07, 0.0, 10.001502, 9.999041 
2.7953348e+3, 2.0223661e+2, -953425.44, -1156628.1, 110976.836, -0.00421553, 0.07133657, -904565.2, 53522.797, 0.0, 10.00125, 9.998511 
2.7952522e+3, 2.1223493e+2, -835282.44, -1051570.4, 119950.31, -0.015405488, 0.09766076, -781923.5, 78182.555, 0.0, 10.0014, 9.9984865 
2.7951694e+3, 2.2223319e+2, -744808.4, -965282.2, 92364.9, -0.02290146, 0.11252498, -711227.9, 50896.566, 0.0, 10.001382, 9.998416 
2.7950862e+3, 2.3223113e+2, -716891.2, -882527.56, 89542.55, -0.009552898, 0.09525004, -677739.2, -13594.789, 0.0, 10.000821, 9.99858 
2.795003e+3, 2.4222928e+2, -687055.7, -821953.8, 96649.79, 0.0011283619, 0.08939602, -636646.56, -70483.836, 0.0, 10.000373, 9.99854 
2.7949193e+3, 2.522278e+2, -576531.94, -697493.7, 76910.44, -0.0007314625, 0.11645002, -539170.3, -70992.375, 0.0, 10.00037, 9.998723 
2.7948356e+3, 2.6222637e+2, -473605.7, -559943.9, 57658.613, -0.011325993, 0.12664099, -444746.4, -74554.36, 0.0, 10.000244, 9.999055 
2.7947512e+3, 2.7222487e+2, -425092.9, -448526.8, 42677.254, -0.037222702, 0.08689172, -392553.4, -120348.14, 0.0, 9.9997425, 9.99939 
2.794667e+3, 2.822237e+2, -402574.6, -388298.1, 42317.35, -0.038045533, 0.06404831, -352521.16, -178304.83, 0.0, 9.9992285, 9.999378 
2.7945822e+3, 2.9222313e+2, -360053.84, -291791.28, 8663.147, 0.0017520529, 0.0940031, -290709.03, -214485.7, 0.0, 9.998735, 9.999607 
2.7944973e+3, 3.0222267e+2, -319606.53, -217300.47, 45201.434, -0.017146418, 0.123232074, -200190.75, -200190.75, 0.0, 9.9983225, 9.999645 
2.7944133e+3, 3.1222218e+2, -251128.1, -104265.086, 34515.17, -0.012599222, 0.11769016, -96557.92, -96557.92, 0.0, 9.998213, 10.000143 
2.794328e+3, 3.222214e+2, -330896.84, -70213.945, -111013.16, 0.014732482, 0.079058014, -29345.541, -29345.541, 0.0, 9.997352, 10.000792 
2.8059232e+3, 1.3233009e+2, -1347113.9, -1616678.0, -11106.774, -0.108491056, -0.043279454, -1346657.0, 296507.13, 0.00007196516, 10.002875, 9.999288 
2.8058374e+3, 1.4232913e+2, -1325293.8, -1561710.8, 39420.742, -0.07385202, -0.027831985, -1318893.9, 226279.4, 0.000025492809, 10.0023775, 9.999233 
2.805753e+3, 1.5232849e+2, -1227557.0, -1439450.0, 82270.81, -0.07904237, 0.011691097, -1199365.0, 247816.27, 0.000004397771, 10.002279, 9.999441 
2.805669e+3, 1.6232772e+2, -1180487.0, -1413310.9, 66573.695, -0.059855737, 0.04285844, -1162795.3, 186395.33, 0.00000013286218, 10.002134, 9.999018 
2.8055853e+3, 1.723264e+2, -1136211.5, -1339270.8, 92902.44, -0.047124654, 0.051060062, -1100121.6, 151084.16, 0.0, 10.001764, 9.999028 
2.8055018e+3, 1.8232511e+2, -1078497.5, -1270356.4, 97959.33, -0.045662727, 0.057293918, -1037319.3, 115900.88, 0.0, 10.00153, 9.998941 
2.8054184e+3, 1.9232376e+2, -954170.2, -1144394.3, 111562.61, -0.03904486, 0.06070054, -902678.94, 152554.36, 0.0, 10.001648, 9.999074 
2.8053358e+3, 2.0232236e+2, -901320.2, -1128683.6, 118142.55, -0.024504192, 0.069836855, -851047.06, 106200.305, 0.0, 10.001597, 9.998534 
2.8052533e+3, 2.1232069e+2, -887834.25, -1075747.6, 130979.914, -0.008302179, 0.09501426, -820596.6, 38668.695, 0.0, 10.001038, 9.998493 
2.80517e+3, 2.2231899e+2, -838785.6, -993862.6, 107611.82, -0.0026495005, 0.10971826, -783687.3, -22404.191, 0.0, 10.0006695, 9.998561 
2.8050867e+3, 2.323171e+2, -697062.25, -853077.5, 100436.49, -0.018042354, 0.092301115, -647898.0, 15403.176, 0.0, 10.000875, 9.9987545 
2.805003e+3, 2.4231532e+2, -611141.9, -785377.75, 106114.336, -0.024512725, 0.083093636, -560965.3, 4353.299, 0.0, 10.000897, 9.998537 
2.8049195e+3, 2.523137e+2, -584634.44, -711138.9, 102797.52, -0.011012443, 0.102181055, -527188.0, -59852.652, 0.0, 10.0003605, 9.9986315 
2.8048354e+3, 2.623122e+2, -515061.8, -573281.75, 93899.78, -0.0091605475, 0.10930706, -445863.28, -76513.15, 0.0, 9.999935, 9.999111 
2.8047508e+3, 2.7231085e+2, -401091.66, -427056.38, 71158.664, -0.03914792, 0.07671843, -341740.78, -70379.11, 0.0, 9.999867, 9.999475 
2.804666e+3, 2.8230968e+2, -340539.5, -364548.66, 61093.695, -0.045140862, 0.055125177, -290282.13, -116909.93, 0.0, 9.999685, 9.999319 
2.804581e+3, 2.9230887e+2, -301748.34, -279522.97, 29259.732, -0.005618238, 0.07359578, -259336.7, -183955.22, 0.0, 9.9992075, 9.999463 
2.8044954e+3, 3.023083e+2, -276701.34, -201203.9, 71670.43, -0.015592801, 0.10096427, -157948.83, -157948.83, 0.0, 9.998639, 9.999602 
2.8044114e+3, 3.1230795e+2, -296749.84, -129823.24, 60853.91, 0.016093425, 0.11597822, -109994.13, -109994.13, 0.0, 9.997916, 10.00011 
2.804325e+3, 3.22307e+2, -237719.36, -13037.123, -92893.234, -0.010636104, 0.05425341, 20394.459, 20394.459, 0.0, 9.997942, 10.000898 
2.8159258e+3, 1.3241637e+2, -1344258.5, -1608490.0, -37121.97, -0.10289354, -0.057391178, -1339142.4, 303175.1, 0.000016905276, 10.002867, 9.999348 
2.8158394e+3, 1.424157e+2, -1335836.9, -1594657.5, 30420.592, -0.07468834, -0.0060100756, -1332309.5, 212014.36, 0.0000044627095, 10.002424, 9.998984 
2.8157544e+3, 1.5241438e+2, -1250062.1, -1492432.1, 80116.22, -0.106161125, 0.0013654461, -1225973.5, 220365.6, 0.00000037420037, 10.002303, 9.999068 
2.8156704e+3, 1.6241321e+2, -1175001.9, -1405619.8, 56269.563, -0.09009519, 0.012545064, -1162004.9, 186348.05, 0.0000000005064632, 10.002148, 9.999065 
2.815587e+3, 1.7241225e+2, -1120134.1, -1312961.3, 79380.664, -0.024697194, 0.040130433, -1091660.4, 158703.7, 0.0, 10.001792, 9.999196 
2.8155035e+3, 1.8241121e+2, -1074000.0, -1267917.8, 98167.33, 0.0040719374, 0.063485146, -1032981.2, 119394.27, 0.0, 10.001557, 9.998946 
2.81542e+3, 1.9240989e+2, -959156.9, -1155234.9, 116863.41, -0.031235581, 0.0735022, -904655.06, 149734.03, 0.0, 10.001648, 9.9990015 
2.8153366e+3, 2.0240842e+2, -900749.2, -1123870.8, 103437.945, -0.04408381, 0.07964571, -860174.5, 96229.62, 0.0, 10.00158, 9.998577 
2.8152537e+3, 2.1240656e+2, -882040.1, -1064774.6, 109106.84, -0.008764595, 0.07776437, -831096.9, 27326.51, 0.0, 10.00104, 9.998569 
2.8151706e+3, 2.2240484e+2, -829000.6, -976772.1, 108461.016, 0.0064183366, 0.08128609, -771650.3, -11209.329, 0.0, 10.000681, 9.998674 
2.8150868e+3, 2.3240341e+2, -688927.3, -837679.25, 109442.55, -0.026356433, 0.0987096, -630979.94, 31474.902, 0.0, 10.000879, 9.99886 
2.815003e+3, 2.4240187e+2, -601125.9, -764644.06, 92630.5, -0.046592154, 0.1025277, -559333.56, 5136.1973, 0.0, 10.0008955, 9.998681 
2.814919e+3, 2.523999e+2, -574561.75, -690451.6, 81236.85, -0.034272354, 0.070041955, -532721.75, -66232.945, 0.0, 10.000359, 9.9987755 
2.814835e+3, 2.623982e+2, -512960.22, -568949.7, 87075.12, -0.022453139, 0.04907987, -449490.3, -80985.63, 0.0, 9.999932, 9.999144 
2.8147504e+3, 2.7239728e+2, -402902.22, -431945.25, 69339.29, -0.0105271, 0.058648136, -346580.16, -76066.766, 0.0, 9.99987, 9.999441 
2.8146654e+3, 2.8239644e+2, -341948.7, -370401.94, 46730.64, -0.0012161266, 0.07095882, -307327.1, -134805.31, 0.0, 9.999696, 9.999275 
2.8145796e+3, 2.9239556e+2, -305775.2, -290571.84, 10618.23, -0.018204665, 0.092800654, -285114.72, -210583.8, 0.0, 9.999216, 9.999384 
2.8144935e+3, 3.0239475e+2, -277557.75, -204674.5, 46914.887, -0.04938691, 0.102888525, -181710.75, -181710.75, 0.0, 9.998643, 9.999578 
2.8144088e+3, 3.1239372e+2, -306533.53, -142393.6, 32328.316, 0.031005953, 0.052672982, -136255.84, -136255.84, 0.0, 9.997879, 10.000042 
2.814323e+3, 3.2239383e+2, -223538.53, 6929.2407, -40075.883, 0.019595176, 0.09925095, 13699.1455, 13699.1455, 0.0, 9.997973, 10.001024 
2.8259283e+3, 1.3250299e+2, -1401733.4, -1634665.9, -28424.809, -0.09430162, -0.037506633, -1398314.8, 243153.38, 0.00000202772, 10.002465, 9.999362 
2.8258416e+3, 1.4250194e+2, -1287448.0, -1576280.0, 31225.227, -0.08799192, -0.02404281, -1284110.9, 259367.5, 0.00000028941432, 10.00278, 9.998939 
2.8257567e+3, 1.5250063e+2, -1248425.4, -1501178.3, 94989.58, -0.09614267, -0.008815745, -1216706.8, 228786.75, 0.0000000018666946, 10.002359, 9.998979 
2.8256723e+3, 1.6249946e+2, -1188945.5, -1409709.0, 82766.85, -0.072350584, 0.007551794, -1161361.8, 186145.6, 0.0, 10.002044, 9.999086 
2.8255883e+3, 1.7249846e+2, -1088394.4, -1293769.9, 98650.82, -0.038167972, 0.030118464, -1048685.6, 200832.56, 0.0, 10.001996, 9.999229 
2.8255045e+3, 1.8249743e+2, -1033256.06, -1253016.6, 111515.62, -0.021636717, 0.05354148, -986581.5, 164948.03, 0.0, 10.001859, 9.998902 
2.825421e+3, 1.9249614e+2, -994002.7, -1181507.8, 128803.79, -0.02419907, 0.07596774, -928444.3, 125099.28, 0.0, 10.001452, 9.998914 
2.825338e+3, 2.0249473e+2, -949351.5, -1127000.8, 115402.305, -0.024264295, 0.08503742, -892548.2, 63010.4, 0.0, 10.0011635, 9.9987545 
2.8252545e+3, 2.1249287e+2, -843937.2, -1018434.2, 131587.83, -0.02511842, 0.060676407, -773300.75, 84275.8, 0.0, 10.001185, 9.998816 
2.8251708e+3, 2.2249117e+2, -765077.1, -938547.4, 141341.38, -0.025890088, 0.0515538, -685979.9, 73613.13, 0.0, 10.001091, 9.998737 
2.8250873e+3, 2.3248991e+2, -721976.0, -855273.5, 134866.31, -0.02738634, 0.084527135, -638188.8, 23417.303, 0.0, 10.000663, 9.998842 
2.8250036e+3, 2.4248852e+2, -665645.6, -771480.7, 110040.64, -0.029746035, 0.09630239, -596459.9, -32840.063, 0.0, 10.000352, 9.998895 
2.8249192e+3, 2.5248665e+2, -550843.8, -648027.94, 105621.8, -0.035136376, 0.04816793, -483172.56, -17535.797, 0.0, 10.000391, 9.99905 
2.8248346e+3, 2.6248506e+2, -464715.44, -547544.8, 115337.31, -0.03199682, 0.018148912, -383582.7, -15931.11, 0.0, 10.000274, 9.999125 
2.82475e+3, 2.724841e+2, -425822.97, -458402.47, 89579.88, -0.0042179897, 0.040851645, -351063.78, -81402.46, 0.0, 9.999782, 9.999301 
2.824665e+3, 2.824833e+2, -382518.94, -388435.28, 62921.324, 0.015461589, 0.06799508, -322486.28, -150816.45, 0.0, 9.999414, 9.999286 
2.8245786e+3, 2.9248255e+2, -278255.13, -273746.22, 34513.03, -0.01583164, 0.0979165, -241414.08, -167736.61, 0.0, 9.9993925, 9.9994135 
2.824492e+3, 3.0248162e+2, -211980.36, -189603.1, 58853.723, -0.058592007, 0.10053645, -140883.9, -140883.9, 0.0, 9.999167, 9.999428 
2.8244066e+3, 3.1248003e+2, -245063.0, -140533.61, 22295.338, 0.02754851, 0.018259577, -135976.83, -135976.83, 0.0, 9.9984255, 9.999789 
2.8243205e+3, 3.2248068e+2, -220475.66, 38786.434, -670.91754, 0.024662046, 0.12308198, 38788.17, 38788.17, 0.0, 9.997869, 10.001291 
2.8359303e+3, 1.3258992e+2, -1399806.1, -1635795.9, -6867.508, -0.08199984, 0.0037053558, -1399606.5, 241010.22, 0.0000000446266, 10.002487, 9.999343 
2.8358436e+3, 1.4258806e+2, -1280995.4, -1561666.1, 22790.17, -0.1151929, -0.06780642, -1279157.0, 263477.75, 0.000000000017311715, 10.002773, 9.9990425 
2.835759e+3, 1.5258722e+2, -1239406.6, -1485000.6, 77350.26, -0.061698165, -0.016554927, -1217075.5, 227568.98, 0.0, 10.002368, 9.999087 
2.8356746e+3, 1.6258632e+2, -1188083.9, -1411664.1, 76611.75, -0.019891506, 0.021840652, -1164351.4, 182303.56, 0.0, 10.002058, 9.999066 
2.8355896e+3, 1.7258503e+2, -1093477.3, -1305683.3, 97193.266, -0.081215546, 0.019557208, -1055690.1, 192978.53, 0.0, 10.002, 9.999146 
2.835505e+3, 1.8258376e+2, -1040227.1, -1266448.3, 99829.42, -0.107934035, 0.029273033, -1002473.8, 148208.6, 0.0, 10.001853, 9.998814 
2.8354225e+3, 1.9258256e+2, -1001254.3, -1197182.3, 113525.65, -0.017088136, 0.06984231, -949268.25, 103428.42, 0.0, 10.001453, 9.998807 
2.8353393e+3, 2.0258126e+2, -928667.94, -1085014.4, 113004.34, 0.02733104, 0.086567394, -869432.9, 85277.805, 0.0, 10.001165, 9.9990425 
2.835255e+3, 2.1257961e+2, -816590.7, -961158.3, 133137.19, -0.0576572, 0.043751676, -737380.4, 119344.516, 0.0, 10.001181, 9.999211 
2.835171e+3, 2.2257803e+2, -766778.4, -939674.4, 129192.72, -0.09837556, 0.020728199, -697778.56, 60960.797, 0.0, 10.001079, 9.998736 
2.8350878e+3, 2.3257661e+2, -732343.7, -877057.3, 117999.66, -0.020359209, 0.050713122, -666282.94, -5528.005, 0.0, 10.000663, 9.998693 
2.835004e+3, 2.4257526e+2, -645908.06, -731947.75, 107274.77, 0.025758557, 0.065578744, -573348.56, -10579.82, 0.0, 10.000356, 9.999165 
2.8349194e+3, 2.5257397e+2, -522335.53, -590502.3, 107557.87, -0.013800499, 0.037071757, -443589.97, 21189.307, 0.0, 10.000396, 9.999444 
2.8348342e+3, 2.6257268e+2, -470407.97, -560930.0, 100776.61, -0.040230718, 0.017102135, -405195.06, -38404.29, 0.0, 10.000278, 9.999032 
2.8347492e+3, 2.7257133e+2, -445207.06, -497466.66, 69781.17, -0.023643734, 0.022583993, -396823.9, -128018.4, 0.0, 9.999775, 9.999038 
2.8346637e+3, 2.8257027e+2, -379396.03, -380056.47, 58007.824, -0.0015083194, 0.041223437, -321717.47, -150900.64, 0.0, 9.999404, 9.99935 
2.8345776e+3, 2.9256985e+2, -268125.13, -253749.63, 35019.3, 0.004672206, 0.0874436, -225188.03, -152366.95, 0.0, 9.999395, 9.999551 
2.8344908e+3, 3.02569e+2, -233382.92, -236546.02, 37487.27, -0.03413962, 0.10113488, -197443.84, -197443.84, 0.0, 9.999176, 9.999103 
2.8344044e+3, 3.1256694e+2, -279474.44, -213986.64, -8140.483, -0.0075015523, 0.016004074, -212989.9, -212989.9, 0.0, 9.998431, 9.999284 
2.8343177e+3, 3.2256764e+2, -201278.14, 88419.18, -13992.949, -0.019628791, 0.14343283, 89093.5, 89093.5, 0.0, 9.997827, 10.001653 
2.8459325e+3, 1.3267644e+2, -1426030.0, -1665235.6, 8679.794, -0.07070191, 0.0032156582, -1425715.5, 214053.5, 0.0, 10.002379, 9.999194 
2.8458458e+3, 1.4267473e+2, -1332734.6, -1577621.5, 13519.388, -0.11983016, -0.046213128, -1331990.5, 209795.53, 0.0, 10.00238, 9.999123 
2.845761e+3, 1.526738e+2, -1264702.9, -1484407.5, 62668.848, -0.07025004, -0.016781425, -1248084.1, 195711.88, 0.0, 10.002141, 9.999199 
2.8456762e+3, 1.6267289e+2, -1194599.6, -1398231.1, 72442.87, -0.023868825, 0.0086486265, -1171457.6, 174348.06, 0.0, 10.001944, 9.999213 
2.8455913e+3, 1.7267182e+2, -1112919.0, -1299094.8, 108476.38, -0.072319955, 0.015521902, -1063064.6, 184752.08, 0.0, 10.001801, 9.999286 
2.8455067e+3, 1.8267067e+2, -1071707.0, -1278283.9, 115927.61, -0.09941608, 0.02578464, -1019728.8, 130100.56, 0.0, 10.001627, 9.998839 
2.8454232e+3, 1.9266927e+2, -1015978.0, -1206838.6, 132718.2, -0.0331958, 0.046986315, -947942.5, 103903.38, 0.0, 10.001367, 9.998781 
2.8453398e+3, 2.0266795e+2, -924982.94, -1064016.0, 138431.77, 0.0044444776, 0.05894892, -839593.4, 114266.69, 0.0, 10.00111, 9.999213 
2.8452557e+3, 2.126668e+2, -850749.0, -953889.44, 147244.81, -0.05248418, 0.045575537, -746304.7, 109564.516, 0.0, 10.000846, 9.999421 
2.8451717e+3, 2.226655e+2, -823099.7, -955312.25, 134638.55, -0.07909736, 0.033401433, -739214.0, 18666.9, 0.0, 10.000646, 9.9988365 
2.8450882e+3, 2.3266377e+2, -739221.4, -874743.75, 135012.97, -0.017058594, 0.027942438, -655919.4, 3979.9036, 0.0, 10.000594, 9.998741 
2.8450042e+3, 2.4266234e+2, -617177.4, -704828.3, 133383.92, 0.022703076, 0.027400216, -520603.63, 41310.457, 0.0, 10.000498, 9.999282 
2.8449196e+3, 2.526615e+2, -530740.06, -581643.1, 114608.9, -0.006052549, 0.033527, -438790.66, 25129.906, 0.0, 10.000285, 9.9995575 
2.8448343e+3, 2.6266053e+2, -488715.56, -560279.0, 94275.31, -0.030309193, 0.033775184, -423659.97, -57730.535, 0.0, 10.000115, 9.999113 
2.8447485e+3, 2.7265903e+2, -395680.4, -466708.25, 85146.17, -0.034372393, 0.019411996, -338938.66, -70993.43, 0.0, 10.000087, 9.999098 
2.844663e+3, 2.826579e+2, -300550.2, -338973.47, 88663.67, -0.019350432, 0.02394266, -229040.64, -59083.19, 0.0, 9.99993, 9.999378 
2.8445768e+3, 2.9265752e+2, -249268.34, -244977.1, 56652.594, 0.015497778, 0.076799795, -190429.5, -118468.39, 0.0, 9.999527, 9.999546 
2.8444898e+3, 3.026567e+2, -241471.28, -254486.48, 48470.168, -0.019960715, 0.099595316, -199073.81, -199073.81, 0.0, 9.999186, 9.998973 
2.8444025e+3, 3.1265447e+2, -214575.8, -206789.25, 22606.256, -0.048919644, 0.019315366, -187743.47, -187743.47, 0.0, 9.998985, 9.999064 
2.8443152e+3, 3.2265496e+2, -119331.41, 156113.31, 9431.347, -0.030050468, 0.12903553, 156435.86, 156435.86, 0.0, 9.998271, 10.001903 
2.8559345e+3, 1.3276277e+2, -1444601.4, -1701496.5, 10986.681, -0.06680548, -0.021797484, -1444132.4, 194790.55, 0.0, 10.002371, 9.998948 
2.8558478e+3, 1.4276186e+2, -1326070.9, -1568349.4, 7420.096, -0.106142074, 0.021187922, -1325843.9, 215089.63, 0.0, 10.002399, 9.999177 
2.8557622e+3, 1.527604e+2, -1252559.8, -1466368.6, 53923.945, -0.10956207, -0.012988296, -1239729.8, 203217.98, 0.0, 10.00217, 9.9993105 
2.8556773e+3, 1.627593e+2, -1172093.0, -1356137.3, 66153.836, -0.07139791, -0.025089249, -1150782.0, 194176.58, 0.0, 10.001963, 9.999494 
2.8555933e+3, 1.7275892e+2, -1090167.1, -1253473.6, 101749.125, -0.022341724, 0.017990887, -1041359.06, 205603.22, 0.0, 10.001806, 9.999597 
2.855509e+3, 1.8275811e+2, -1064082.3, -1263132.0, 105380.14, -0.016756702, 0.039417636, -1018658.3, 130312.72, 0.0, 10.001628, 9.998943 
2.8554237e+3, 1.9275622e+2, -1012182.3, -1201692.1, 122224.984, -0.0719046, 0.009083711, -952284.56, 98706.95, 0.0, 10.001376, 9.998813 
2.8553396e+3, 2.0275481e+2, -920236.25, -1056080.3, 128497.02, -0.08317551, 0.005966299, -842814.25, 110192.48, 0.0, 10.001117, 9.999265 
2.8552565e+3, 2.1275443e+2, -847555.5, -948930.9, 136681.6, -0.010622712, 0.065386266, -752465.6, 102543.99, 0.0, 10.000853, 9.999454 
2.8551728e+3, 2.2275354e+2, -809479.56, -927670.75, 130598.016, 0.023950681, 0.08552552, -725228.94, 31788.934, 0.0, 10.000647, 9.999026 
2.8550884e+3, 2.3275138e+2, -722873.5, -841933.0, 132895.5, -0.020531511, 0.014621063, -636783.9, 22255.56, 0.0, 10.000597, 9.998966 
2.8550038e+3, 2.4274974e+2, -621076.6, -713649.56, 126635.555, -0.041361474, -0.018110331, -532533.56, 28522.398, 0.0, 10.0005, 9.999222 
2.854919e+3, 2.5274926e+2, -542652.1, -607013.75, 105657.71, -0.011083592, 0.038833022, -464383.16, -1322.428, 0.0, 10.000286, 9.999384 
2.8548342e+3, 2.6274857e+2, -469232.6, -521064.1, 91387.945, -0.0019621414, 0.068818174, -400156.88, -35089.336, 0.0, 10.000118, 9.999382 
2.8547484e+3, 2.7274725e+2, -366097.13, -408188.8, 84826.63, -0.03678409, 0.03254347, -299744.53, -32664.324, 0.0, 10.000097, 9.999496 
2.8546622e+3, 2.827462e+2, -301013.56, -343216.75, 75252.086, -0.03812349, 0.019077456, -243960.48, -74869.46, 0.0, 9.999943, 9.999345 
2.854576e+3, 2.9274556e+2, -262911.0, -271678.47, 41304.523, 0.015224032, 0.065342724, -225758.23, -154660.67, 0.0, 9.999519, 9.999368 
2.8544885e+3, 3.027447e+2, -235285.56, -239031.97, 39858.867, -0.02333357, 0.08816074, -197255.9, -197255.9, 0.0, 9.999173, 9.999085 
2.8544003e+3, 3.1274283e+2, -202181.9, -185220.86, 18647.578, -0.10192248, 0.029127453, -173215.98, -173215.98, 0.0, 9.9990015, 9.999206 
2.8543136e+3, 3.227425e+2, -114546.3, 169820.48, -53902.12, 0.012603186, 0.04218127, 179694.84, 179694.84, 0.0, 9.998252, 10.0020075 
2.8659362e+3, 1.3284928e+2, -1473409.8, -1684227.0, 16939.424, -0.08761753, -0.023509461, -1472057.3, 166017.8, 0.0, 10.002036, 9.999229 
2.86585e+3, 1.4284848e+2, -1348588.1, -1561571.4, 25866.719, -0.07715953, 0.009688196, -1345491.8, 194592.0, 0.0, 10.002169, 9.999333 
2.865764e+3, 1.5284719e+2, -1251855.9, -1454796.3, 69235.08, -0.09946483, -0.021078164, -1230486.0, 211610.64, 0.0, 10.00213, 9.999408 
2.865679e+3, 1.6284615e+2, -1166243.5, -1351616.6, 70550.44, -0.0787279, -0.031882077, -1142447.6, 201659.3, 0.0, 10.001998, 9.999506 
2.8655946e+3, 1.7284574e+2, -1112232.6, -1266273.1, 83385.984, -0.035063773, 0.009495561, -1075739.3, 170371.97, 0.0, 10.001666, 9.999575 
2.8655097e+3, 1.8284498e+2, -1073731.6, -1239824.6, 80832.01, -0.027682113, 0.029894976, -1040888.0, 107231.04, 0.0, 10.001442, 9.999193 
2.8654248e+3, 1.9284339e+2, -980582.4, -1151243.3, 115784.32, -0.073751636, -0.0024191344, -922082.06, 128053.56, 0.0, 10.001444, 9.9991255 
2.8653407e+3, 2.0284212e+2, -889454.44, -1041960.5, 126117.01, -0.08096435, -0.009585607, -818330.3, 133818.63, 0.0, 10.001334, 9.999255 
2.865257e+3, 2.1284159e+2, -839321.94, -957932.3, 121931.17, -0.008362693, 0.043765366, -763038.3, 91116.04, 0.0, 10.000968, 9.999334 
2.8651732e+3, 2.2284073e+2, -792212.0, -896446.25, 116237.984, 0.0280724, 0.066705875, -716942.06, 39220.82, 0.0, 10.000669, 9.9992285 
2.8650883e+3, 2.3283905e+2, -714225.5, -806990.56, 123032.04, -0.021644684, 0.014277977, -629123.4, 29056.143, 0.0, 10.000525, 9.999239 
2.865004e+3, 2.428377e+2, -627235.94, -704930.4, 122414.0, -0.04627625, -0.009360224, -537653.0, 22540.0, 0.0, 10.00041, 9.999323 
2.8649193e+3, 2.5283715e+2, -531461.8, -599387.6, 114304.57, -0.010217971, 0.037016466, -446181.22, 16017.972, 0.0, 10.000356, 9.999401 
2.8648344e+3, 2.628365e+2, -444375.56, -488636.16, 105406.234, 0.001705122, 0.061979365, -358801.53, 5404.5435, 0.0, 10.000201, 9.999565 
2.864748e+3, 2.7283546e+2, -382767.7, -392559.84, 84856.94, -0.04120255, 0.03276335, -302665.72, -36450.24, 0.0, 9.999883, 9.999706 
2.8646615e+3, 2.828345e+2, -336717.72, -357711.84, 67771.28, -0.04218898, 0.020778121, -278635.38, -110410.79, 0.0, 9.999693, 9.999363 
2.8645754e+3, 2.9283372e+2, -212274.17, -252912.98, 47239.617, 0.025254909, 0.048542194, -181169.27, -110935.49, 0.0, 9.999895, 9.999314 
2.8644878e+3, 3.028328e+2, -125909.164, -160620.4, 42146.63, -0.007888271, 0.06940398, -97684.57, -97684.57, 0.0, 9.999815, 9.999315 
2.8643993e+3, 3.128317e+2, -177795.81, -146609.97, 29129.299, -0.10024183, 0.054981805, -129162.69, -129162.69, 0.0, 9.999058, 9.999442 
2.8643116e+3, 3.2283044e+2, -7923.9453, 165242.02, -54178.54, 0.03034508, -0.019575965, 180795.83, 180795.83, 0.0, 9.999229, 10.001504 
2.8759375e+3, 1.3293591e+2, -1415603.0, -1581309.0, 25898.01, -0.123121455, -0.01206955, -1411649.8, 225575.95, 0.0, 10.0021105, 9.999899 
2.8758523e+3, 1.4293483e+2, -1333475.5, -1529246.9, 25145.994, -0.040606953, -0.058065467, -1330297.1, 208937.95, 0.0, 10.002164, 9.999558 
2.8757662e+3, 1.5293415e+2, -1248567.6, -1444695.6, 66402.42, -0.055208232, -0.036753997, -1228200.9, 213041.86, 0.0, 10.002113, 9.999485 
2.8756806e+3, 1.6293336e+2, -1183447.4, -1384539.3, 59725.836, -0.058060434, -0.018302301, -1167046.0, 176205.48, 0.0, 10.001985, 9.999287 
2.875595e+3, 1.7293234e+2, -1131887.8, -1310259.9, 71697.28, -0.099589825, -0.008653557, -1106641.9, 138620.77, 0.0, 10.001678, 9.999269 
2.8755102e+3, 1.8293145e+2, -1045077.0, -1184103.8, 79687.26, -0.113907605, 0.0014930613, -1008844.6, 138427.34, 0.0, 10.001457, 9.999569 
2.8754264e+3, 1.929308e+2, -942542.7, -1071596.5, 115259.76, -0.04195681, 0.009462647, -874976.7, 174301.23, 0.0, 10.001439, 9.999675 
2.8753424e+3, 2.0292987e+2, -897243.6, -1055281.8, 113733.805, -0.0030777382, 0.0063908827, -837773.06, 113514.07, 0.0, 10.001321, 9.99917 
2.8752574e+3, 2.1292832e+2, -857305.0, -996322.8, 107580.35, -0.045646593, -0.016845576, -798731.8, 54571.273, 0.0, 10.000971, 9.99907 
2.8751725e+3, 2.2292715e+2, -776834.94, -865513.8, 109528.66, -0.061797004, -0.017043795, -703011.25, 52303.87, 0.0, 10.000671, 9.99944 
2.8750888e+3, 2.3292677e+2, -691486.25, -760550.56, 117750.0, -0.01798729, 0.028473362, -603309.3, 54009.965, 0.0, 10.000528, 9.9995575 
2.8750044e+3, 2.4292618e+2, -609022.8, -668123.3, 120130.12, 0.0075247684, 0.051136483, -514861.88, 44463.53, 0.0, 10.000413, 9.999575 
2.8749192e+3, 2.5292513e+2, -517162.06, -571062.2, 111362.875, -0.0055941893, 0.025525136, -429534.66, 31801.477, 0.0, 10.00036, 9.999596 
2.8748336e+3, 2.6292422e+2, -439154.97, -478422.06, 94724.414, -0.023143107, 0.010943699, -362050.78, 1294.5673, 0.0, 10.000202, 9.999635 
2.8747472e+3, 2.729236e+2, -383853.0, -393008.1, 71014.59, -0.047174677, 0.020060012, -317268.56, -51917.33, 0.0, 9.999873, 9.999708 
2.874661e+3, 2.8292286e+2, -331693.5, -347379.63, 69075.61, -0.033280633, 0.026653616, -270017.13, -102658.43, 0.0, 9.99969, 9.999436 
2.8745753e+3, 2.9292184e+2, -203454.11, -239357.05, 58697.06, 0.04328209, 0.024303561, -160024.8, -90654.53, 0.0, 9.999914, 9.999399 
2.874488e+3, 3.0292118e+2, -97712.11, -106168.46, 16989.604, 0.03132491, 0.047220785, -84432.45, -84432.45, 0.0, 9.999833, 9.99968 
2.8743985e+3, 3.1292123e+2, -159412.33, -99387.55, 1181.3594, -0.02327252, 0.11363067, -99364.305, -99364.305, 0.0, 9.9990225, 9.999783 
2.8743106e+3, 3.2291898e+2, -96326.35, -29585.31, 14681.315, -0.00031491715, -0.035061322, -26498.56, -26498.56, 0.0, 9.999274, 10.000145 
2.8859395e+3, 1.3302249e+2, -1371779.6, -1567441.5, 40229.29, -0.119194806, -0.053883746, -1363831.1, 272544.3, 0.0, 10.00244, 9.999836 
2.8858536e+3, 1.4302175e+2, -1386414.4, -1548362.9, 19050.27, -0.041118164, -0.06469216, -1384203.6, 154178.84, 0.0, 10.001774, 9.999614 
2.8857675e+3, 1.530213e+2, -1321337.6, -1473646.1, 59128.402, -0.06123995, -0.02633846, -1301078.0, 139310.13, 0.0, 10.00159, 9.999537 
2.885682e+3, 1.630206e+2, -1244452.5, -1405252.4, 60334.496, -0.06295664, -0.0055034133, -1224331.9, 118064.35, 0.0, 10.001529, 9.999364 
2.8855965e+3, 1.7301936e+2, -1127070.0, -1300070.3, 95981.96, -0.08979686, -0.02449582, -1084361.8, 160047.22, 0.0, 10.001678, 9.999338 
2.8855115e+3, 1.8301839e+2, -1023052.8, -1175863.8, 102714.84, -0.09920809, -0.025994387, -971442.1, 174977.02, 0.0, 10.00162, 9.999545 
2.8854272e+3, 1.9301796e+2, -988835.75, -1098084.0, 97702.62, -0.03955284, 0.009012743, -931524.2, 116899.484, 0.0, 10.001142, 9.999635 
2.885343e+3, 2.0301722e+2, -951978.75, -1061623.4, 84149.19, -0.0076174987, 0.020160666, -906369.2, 44062.016, 0.0, 10.000858, 9.99935 
2.885258e+3, 2.1301574e+2, -837739.0, -960965.5, 111242.35, -0.05433827, -0.019999309, -772186.8, 80258.95, 0.0, 10.000994, 9.999302 
2.885173e+3, 2.2301462e+2, -729652.0, -830932.7, 125145.09, -0.06925413, -0.03345362, -645289.6, 109167.32, 0.0, 10.000946, 9.999545 
2.885089e+3, 2.3301429e+2, -690176.2, -751667.25, 113761.76, -0.0066622393, 0.011268077, -603078.5, 53382.195, 0.0, 10.000504, 9.99963 
2.8850043e+3, 2.4301387e+2, -629463.8, -651133.5, 111387.664, 0.024179919, 0.037244573, -528385.25, 30079.998, 0.0, 10.000159, 9.999813 
2.884919e+3, 2.5301313e+2, -547094.3, -556903.7, 106819.055, -0.019367708, 0.01708907, -445067.4, 15405.377, 0.0, 10.000034, 9.999847 
2.8848332e+3, 2.6301247e+2, -456160.1, -464955.72, 96066.45, -0.046825297, 0.006608166, -364390.84, -1911.4775, 0.0, 10.0, 9.999822 
2.884747e+3, 2.73012e+2, -347175.7, -363300.78, 77413.34, -0.03851064, 0.018128682, -277406.16, -12922.158, 0.0, 10.000078, 9.999809 
2.8846607e+3, 2.830114e+2, -278815.66, -293517.56, 86868.98, -0.009399689, 0.022426032, -198987.17, -32496.836, 0.0, 9.999933, 9.999687 
2.8845748e+3, 2.930105e+2, -212215.03, -229872.1, 101181.45, 0.045787245, 0.011221108, -119477.68, -50977.145, 0.0, 9.999802, 9.999515 
2.884487e+3, 3.0301002e+2, -72272.87, -79551.88, 34665.387, 0.027792765, 0.037006956, -41056.457, -41056.457, 0.0, 9.999957, 9.9998 
2.8843978e+3, 3.1301022e+2, -6798.0225, -37685.203, -16742.879, -0.0021140652, 0.120720915, 536.1942, 536.1942, 0.0, 10.000128, 9.999677 
2.88431e+3, 3.230075e+2, 11693.691, -91522.29, 44079.426, -0.002993195, -0.01590931, 27956.021, 27956.021, 0.0, 10.000504, 9.999136 
2.895942e+3, 1.3310912e+2, -1416542.3, -1654691.6, 5289.695, -0.09128803, -0.12967493, -1416424.9, 219099.11, 0.0, 10.0024185, 9.999246 
2.895855e+3, 1.4310913e+2, -1385577.3, -1556156.1, 8993.399, -0.07026999, -0.026367843, -1385104.4, 152421.84, 0.0, 10.001815, 9.99954 
2.8957683e+3, 1.5310863e+2, -1313704.1, -1468236.4, 53433.184, -0.10489651, 0.003417401, -1297027.9, 142504.78, 0.0, 10.001633, 9.999555 
2.895683e+3, 1.6310789e+2, -1218756.3, -1358183.3, 64563.395, -0.085442446, 0.0068939785, -1193451.9, 148088.69, 0.0, 10.001555, 9.999675 
2.8955984e+3, 1.7310674e+2, -1102763.4, -1246649.1, 100519.164, -0.019652631, -0.039209787, -1051094.4, 192456.42, 0.0, 10.001664, 9.999712 
2.8955138e+3, 1.831057e+2, -1053344.8, -1233089.0, 87842.2, -0.0056618345, -0.05316289, -1017545.7, 128015.74, 0.0, 10.001595, 9.999166 
2.8954276e+3, 1.9310492e+2, -1025864.44, -1178090.9, 79958.23, -0.065760985, -0.0019463421, -991585.0, 55987.297, 0.0, 10.001153, 9.999082 
2.8953427e+3, 2.0310426e+2, -918909.4, -997712.94, 86619.58, -0.08484917, 0.032731004, -863151.0, 86429.09, 0.0, 10.000877, 9.99978 
2.8952587e+3, 2.1310379e+2, -790075.9, -862354.0, 116857.62, -0.034742292, 0.029708993, -703896.8, 147685.78, 0.0, 10.000995, 9.999979 
2.8951743e+3, 2.23103e+2, -732419.6, -834905.1, 112027.67, -0.000378539, 0.010205275, -660471.4, 93117.71, 0.0, 10.000937, 9.999523 
2.8950894e+3, 2.3310158e+2, -702264.6, -777105.3, 96452.62, 0.009442734, -0.03831726, -636227.8, 19376.162, 0.0, 10.000504, 9.999455 
2.8950042e+3, 2.4310078e+2, -614332.4, -619303.1, 104029.18, 0.0001290966, -0.04886824, -512758.9, 44853.594, 0.0, 10.000156, 10.000033 
2.8949183e+3, 2.5310117e+2, -526205.25, -512734.3, 102048.65, -0.05205014, 0.014181274, -417199.1, 42409.85, 0.0, 10.0000305, 10.000153 
2.8948325e+3, 2.6310128e+2, -435094.22, -422083.97, 99809.99, -0.07048692, 0.04991993, -328567.34, 33040.848, 0.0, 10.000002, 10.000115 
2.894747e+3, 2.731007e+2, -331685.38, -334649.9, 76447.516, -0.014448327, 0.026859593, -256705.75, 6908.217, 0.0, 10.00009, 10.000003 
2.8946605e+3, 2.8310016e+2, -245192.73, -227606.0, 72462.58, 0.03151828, 0.007107126, -163405.2, 2214.4126, 0.0, 9.999948, 10.000134 
2.894574e+3, 2.9309976e+2, -203944.92, -205730.69, 108237.23, 0.030616712, 0.011195909, -96596.89, -28972.998, 0.0, 9.999777, 9.99969 
2.8944862e+3, 3.0309924e+2, -89420.81, -106150.24, 43339.598, -0.03552249, 0.030621983, -53646.098, -53646.098, 0.0, 9.999923, 9.999631 
2.894397e+3, 3.1309807e+2, -48598.586, -129305.06, -11353.154, -0.058579903, 0.022510707, -47031.926, -47031.926, 0.0, 10.000153, 9.999035 
2.8943107e+3, 3.2309613e+2, -18839.777, -162518.31, 69744.53, 0.045251306, 0.04593652, 9446.773, 9446.773, 0.0, 10.000539, 9.9986315 
2.905944e+3, 1.3319668e+2, -1500048.3, -1713626.4, -9500.113, -0.0822456, -0.10503371, -1499626.6, 135038.92, 0.0, 10.001923, 9.999082 
2.9058564e+3, 1.4319633e+2, -1359396.4, -1542108.0, 17823.842, -0.08595019, -0.028843135, -1357673.9, 178998.02, 0.0, 10.001987, 9.999555 
2.9057696e+3, 1.5319563e+2, -1273750.9, -1445301.9, 63207.9, -0.10348113, -0.022240797, -1252977.4, 185702.06, 0.0, 10.001891, 9.999587 
2.9056844e+3, 1.6319488e+2, -1203526.3, -1348668.6, 65810.14, -0.07677668, -0.02189021, -1178130.4, 162556.72, 0.0, 10.00165, 9.999695 
2.9055995e+3, 1.7319414e+2, -1173051.0, -1277006.9, 78245.69, -0.02336697, -0.03178857, -1131092.4, 111601.734, 0.0, 10.001166, 9.999743 
2.9055145e+3, 1.8319328e+2, -1140938.1, -1268769.4, 70201.88, -0.010926411, -0.031993177, -1109914.3, 34788.863, 0.0, 10.000963, 9.999226 
2.9054287e+3, 1.9319226e+2, -996574.44, -1156904.0, 103243.53, -0.05648797, -0.010504267, -946027.25, 100688.81, 0.0, 10.001322, 9.999146 
2.9053438e+3, 2.0319152e+2, -838212.5, -943806.9, 120116.17, -0.06934967, 0.008058324, -759802.06, 188922.38, 0.0, 10.001366, 9.999915 
2.905259e+3, 2.1319132e+2, -808627.94, -852377.1, 114298.67, -0.023466226, 0.017232021, -714129.5, 136594.47, 0.0, 10.000784, 10.00015 
2.9051748e+3, 2.2319078e+2, -795464.2, -852396.4, 96237.19, 0.0038351363, 0.0071948473, -723571.3, 29156.57, 0.0, 10.000448, 9.9996395 
2.9050893e+3, 2.3318946e+2, -676817.25, -750034.8, 101598.81, -0.0059828274, -0.041473288, -605432.9, 49308.797, 0.0, 10.000614, 9.999589 
2.905004e+3, 2.4318874e+2, -548334.3, -574558.06, 113810.15, -0.016241759, -0.05824587, -446883.22, 109866.21, 0.0, 10.000555, 10.000148 
2.9049182e+3, 2.5318912e+2, -511400.78, -486724.03, 97710.17, -0.031346496, -0.009364884, -400576.3, 58169.043, 0.0, 10.000052, 10.00032 
2.9048324e+3, 2.6318938e+2, -467089.7, -415293.63, 97762.44, -0.044002403, 0.021793585, -340057.1, 20685.947, 0.0, 9.999688, 10.000312 
2.9047462e+3, 2.7318916e+2, -377779.34, -324221.4, 73288.11, -0.039004207, 0.009287877, -272973.06, -10227.253, 0.0, 9.999637, 10.00029 
2.9046598e+3, 2.8318894e+2, -236669.38, -190358.56, 73253.555, 0.0038518007, -0.006756742, -136687.83, 28060.365, 0.0, 9.999874, 10.000419 
2.9045734e+3, 2.9318887e+2, -194835.0, -127255.14, 81667.59, 0.05763282, -0.012686869, -72663.195, -5915.3545, 0.0, 9.999533, 10.000339 
2.9159454e+3, 1.332849e+2, -1486915.1, -1690379.9, -4085.407, -0.08688895, -0.011988822, -1486833.1, 146968.98, 0.0, 10.001944, 9.999229 
2.915858e+3, 1.4328341e+2, -1358194.9, -1533088.6, 18355.992, -0.09229081, -0.061233185, -1356289.1, 179529.39, 0.0, 10.00196, 9.99963 
2.9157716e+3, 1.532824e+2, -1272995.9, -1440465.0, 59213.188, -0.06888598, -0.089869, -1254174.8, 183653.22, 0.0, 10.001876, 9.999629 
2.915686e+3, 1.6328168e+2, -1218898.6, -1380025.9, 50978.945, -0.047493357, -0.08127927, -1204124.1, 135711.13, 0.0, 10.001647, 9.999481 
2.9155996e+3, 1.7328154e+2, -1186669.0, -1311961.3, 61624.8, -0.088194095, -0.0047271173, -1161439.3, 80398.875, 0.0, 10.001193, 9.999492 
2.915514e+3, 1.8328106e+2, -1106267.4, -1203331.8, 80778.31, -0.09588863, 0.029104413, -1060563.1, 83280.89, 0.0, 10.000991, 9.999662 
2.91543e+3, 1.9327992e+2, -957392.1, -1072098.3, 117056.76, -0.014488173, -0.018496798, -884393.1, 161462.52, 0.0, 10.001306, 9.999737 
2.9153457e+3, 2.0327896e+2, -853053.75, -967849.3, 103681.33, 0.025654292, -0.05026072, -791942.8, 155922.11, 0.0, 10.001336, 9.999765 
2.91526e+3, 2.1327838e+2, -828674.94, -894780.06, 91555.63, -0.022895237, -0.05115509, -764388.4, 85481.19, 0.0, 10.000786, 9.999859 
2.9151744e+3, 2.2327802e+2, -775952.5, -814304.94, 97949.44, -0.055267487, -0.03679399, -695319.8, 56552.832, 0.0, 10.000458, 9.999897 
2.915089e+3, 2.3327799e+2, -646702.9, -687753.44, 107745.81, -0.05136504, 0.00242092, -557544.8, 96328.96, 0.0, 10.000615, 10.000016 
2.915004e+3, 2.432777e+2, -548689.75, -575760.25, 99046.58, -0.023607442, 0.0061580953, -462257.88, 93618.58, 0.0, 10.000556, 10.00014 
2.9149187e+3, 2.5327694e+2, -510317.8, -484842.25, 77524.56, 0.044796284, -0.056840535, -419015.97, 38866.35, 0.0, 10.000052, 10.000334 
2.9148325e+3, 2.6327664e+2, -461834.94, -405594.0, 91073.93, 0.030616434, -0.08184457, -338398.03, 21486.5, 0.0, 9.999691, 10.000378 
2.9147446e+3, 2.7327722e+2, -355116.9, -275722.13, 70201.22, -0.12263804, -0.035295695, -234771.56, 27108.625, 0.0, 9.999629, 10.0006275 
2.9146585e+3, 2.8327757e+2, -236230.11, -191041.55, 96082.35, -0.109757975, -0.019018024, -114932.63, 48944.7, 0.0, 9.999882, 10.000413 
2.9145736e+3, 2.9327753e+2, -116549.0, 13790.313, 19956.953, 0.13875769, -0.06450242, 16777.564, 82652.914, 0.0, 9.999616, 10.001275 
2.925947e+3, 1.3337229e+2, -1480593.9, -1661559.6, -11919.065, -0.0634615, -0.014920359, -1479812.3, 153133.44, 0.0, 10.001876, 9.99946 
2.925859e+3, 1.4337093e+2, -1439800.8, -1571561.6, 25504.396, -0.106360726, -0.06744222, -1435036.3, 99924.38, 0.0, 10.001393, 9.9996395 
2.925773e+3, 1.5337004e+2, -1341221.5, -1478356.4, 60666.715, -0.070692725, -0.07951754, -1318235.9, 118733.2, 0.0, 10.001428, 9.999586 
2.925687e+3, 1.6336933e+2, -1245443.6, -1388914.1, 52222.13, -0.0396242, -0.06864834, -1228448.5, 110528.06, 0.0, 10.001445, 9.999519 
2.9256007e+3, 1.7336899e+2, -1140782.1, -1283411.4, 80413.41, -0.0828421, -0.017225308, -1104616.1, 136364.92, 0.0, 10.001477, 9.999552 
2.925515e+3, 1.833685e+2, -1058323.1, -1170393.0, 104081.6, -0.093368456, 0.0076763085, -996151.06, 146835.7, 0.0, 10.001272, 9.999754 
2.9254308e+3, 1.9336763e+2, -1040496.9, -1099001.1, 109609.08, -0.011393513, -0.022176096, -956303.7, 88691.82, 0.0, 10.000675, 9.999858 
2.9253462e+3, 2.0336685e+2, -982083.8, -1027613.94, 87289.18, 0.03157415, -0.04495256, -914640.0, 32362.91, 0.0, 10.000437, 9.999789 
2.9252604e+3, 2.1336623e+2, -817105.06, -888539.56, 95273.09, -0.016020924, -0.050459687, -751074.2, 97934.016, 0.0, 10.00086, 9.9998665 
2.9251745e+3, 2.2336583e+2, -702991.3, -778657.56, 103238.49, -0.050363425, -0.040608946, -630872.0, 120139.8, 0.0, 10.000954, 9.999904 
2.9250893e+3, 2.333658e+2, -671767.8, -693472.4, 85254.82, -0.049890663, -0.0040459833, -596677.3, 56335.4, 0.0, 10.000412, 10.000077 
2.9250038e+3, 2.4336554e+2, -602454.5, -596920.4, 66196.234, -0.024975581, -0.0028568925, -533433.4, 21581.42, 0.0, 10.000162, 10.000187 
2.9249185e+3, 2.533648e+2, -439084.44, -437287.6, 52926.883, 0.04109866, -0.07218304, -385251.5, 71768.516, 0.0, 10.00048, 10.000458 
2.924832e+3, 2.6336455e+2, -360144.75, -359780.22, 60230.527, 0.033051524, -0.09937873, -299731.66, 59289.805, 0.0, 10.000396, 10.000358 
2.9247442e+3, 2.7336526e+2, -348635.22, -262283.78, 23119.355, -0.10600139, -0.044674348, -256483.53, 4532.5493, 0.0, 9.999621, 10.000728 
2.9246578e+3, 2.833656e+2, -320133.34, -226135.19, 75123.52, -0.09662328, -0.037103817, -184520.17, -21507.12, 0.0, 9.9992695, 10.000475 
2.9245728e+3, 2.9336533e+2, -13734.319, 63741.813, -50987.508, 0.11916635, -0.11265454, 89037.83, 154051.05, 0.0, 10.000297, 10.001308 
2.935949e+3, 1.3345914e+2, -1468049.6, -1623333.4, -42036.156, -0.023285959, -0.08477156, -1457400.5, 174693.6, 0.0, 10.001825, 9.999745 
2.93586e+3, 1.4345871e+2, -1440905.6, -1576673.4, 24693.492, -0.1267927, -0.055344604, -1436553.8, 97545.79, 0.0, 10.001407, 9.999598 
2.9357737e+3, 1.534583e+2, -1347087.1, -1493474.0, 61866.715, -0.10049272, -0.011239107, -1324443.4, 111661.766, 0.0, 10.001439, 9.999476 
2.9356882e+3, 1.634576e+2, -1229229.8, -1354949.8, 54620.313, -0.047880437, -0.0028412924, -1208814.5, 129298.195, 0.0, 10.001443, 9.999753 
2.9356027e+3, 1.7345642e+2, -1122296.3, -1240497.1, 80716.15, -0.020902693, -0.064330265, -1081357.0, 158766.23, 0.0, 10.001457, 9.999857 
2.9355165e+3, 1.8345562e+2, -1074746.1, -1200832.9, 84546.86, -0.021632025, -0.08007216, -1032325.56, 109805.67, 0.0, 10.001256, 9.999554 
2.9354307e+3, 1.9345538e+2, -1056098.9, -1137557.3, 86946.164, -0.044939823, -0.019427747, -1000815.0, 43320.42, 0.0, 10.0007, 9.999581 
2.9353455e+3, 2.0345512e+2, -963858.5, -997635.75, 98395.16, -0.0416218, 0.01676093, -880913.06, 65225.56, 0.0, 10.000469, 9.99998 
2.935261e+3, 2.1345477e+2, -796950.56, -846948.56, 110837.31, -0.0012546413, 0.011965275, -708328.0, 139812.53, 0.0, 10.00086, 10.000153 
2.935176e+3, 2.2345412e+2, -721581.2, -814421.1, 88409.984, 0.01508191, -0.009815288, -668145.56, 82000.59, 0.0, 10.00094, 9.999665 
2.9350898e+3, 2.3345292e+2, -692494.0, -736146.5, 63544.156, -0.0043869293, -0.06060107, -647132.1, 5026.481, 0.0, 10.000409, 9.999785 
2.9350036e+3, 2.4345231e+2, -594744.94, -581827.5, 73414.164, -0.024456477, -0.08129543, -514588.5, 39575.613, 0.0, 10.000164, 10.000291 
2.9349178e+3, 2.5345278e+2, -420707.63, -402919.8, 64999.51, -0.04827361, -0.050346494, -346208.53, 109949.49, 0.0, 10.000494, 10.000688 
2.9348314e+3, 2.6345316e+2, -362842.78, -372170.3, 36880.887, -0.041532952, -0.024455091, -330331.94, 27821.52, 0.0, 10.000423, 10.000259 
2.9347447e+3, 2.7345324e+2, -355726.16, -281104.25, -8898.872, 0.025207594, -0.017032802, -280057.72, -19904.295, 0.0, 9.999636, 10.000591 
2.9346582e+3, 2.8345302e+2, -303361.84, -201616.97, 84522.92, 0.048211515, -0.06256878, -153837.84, 8318.103, 0.0, 9.999309, 10.000628 
2.9345712e+3, 2.9345283e+2, -45857.426, -1008.02893, 6104.1885, -0.038515657, -0.11225596, -192.06862, 63964.65, 0.0, 10.000293, 10.000862 
2.94595e+3, 1.3354665e+2, -1552079.4, -1659269.9, -55632.133, -0.022323377, -0.08139174, -1528425.8, 102811.164, 0.0, 10.001223, 9.999793 
2.945861e+3, 1.4354624e+2, -1437872.0, -1565635.8, 17169.016, -0.12402827, -0.057655808, -1435605.0, 97637.12, 0.0, 10.001385, 9.999685 
2.9457748e+3, 1.5354587e+2, -1351706.8, -1488482.9, 60583.176, -0.09015439, -0.016731353, -1328731.5, 106515.67, 0.0, 10.001373, 9.999545 
2.9456893e+3, 1.6354524e+2, -1256510.1, -1363208.1, 51445.035, -0.03681245, -0.0059149284, -1235746.4, 101507.71, 0.0, 10.001231, 9.999801 
2.945603e+3, 1.7354433e+2, -1187173.6, -1263395.3, 62215.234, -0.013897752, -0.04784418, -1152324.4, 86937.68, 0.0, 10.000972, 9.999936 
2.9455173e+3, 1.835436e+2, -1127109.1, -1222779.1, 66350.836, -0.017827798, -0.062211502, -1093147.9, 48121.293, 0.0, 10.00088, 9.999586 
2.9454315e+3, 1.9354315e+2, -984334.25, -1102181.4, 88084.94, -0.04267629, -0.024488766, -937281.7, 105993.32, 0.0, 10.001184, 9.999594 
2.945346e+3, 2.0354277e+2, -862664.2, -960042.7, 104094.76, -0.038409982, 0.002581601, -796434.5, 148844.86, 0.0, 10.0012045, 9.999888 
2.9452616e+3, 2.135424e+2, -832730.5, -876248.8, 88929.4, 0.0069910204, 0.006494529, -762936.94, 84345.02, 0.0, 10.000659, 10.000052 
2.9451764e+3, 2.2354174e+2, -791262.25, -851260.9, 59994.082, 0.02988377, -0.010060655, -754185.1, -4897.187, 0.0, 10.000469, 9.999642 
2.9450902e+3, 2.3354049e+2, -621094.9, -701041.3, 56004.684, 0.014890876, -0.064758286, -592261.25, 59039.074, 0.0, 10.000889, 9.999799 
2.945004e+3, 2.435399e+2, -488627.1, -533915.0, 73151.445, -0.009462481, -0.08503566, -434695.06, 118610.71, 0.0, 10.0009, 10.000268 
2.9449177e+3, 2.535405e+2, -456730.47, -423796.88, 47615.01, -0.052581444, -0.037387118, -389881.7, 65417.17, 0.0, 10.000255, 10.000664 
2.9448313e+3, 2.635409e+2, -424359.34, -408102.22, 9313.912, -0.04622065, -0.00664006, -403868.66, -46574.414, 0.0, 10.000022, 10.000211 
2.9447445e+3, 2.7354065e+2, -229664.61, -235984.17, -29460.45, 0.057528976, -0.024699083, -203194.97, 56101.918, 0.0, 10.000558, 10.000464 
2.9446578e+3, 2.8354013e+2, -139187.88, -130731.4, 52813.008, 0.07265997, -0.087407075, -81977.64, 79324.734, 0.0, 10.000462, 10.000562 
2.9445702e+3, 2.93541e+2, -160811.36, -57559.977, -270.5079, -0.0767772, -0.0148255965, -57559.27, 5734.7817, 0.0, 9.9995, 10.000853 
2.9559508e+3, 1.3363467e+2, -1568165.5, -1677865.4, -48608.766, -0.04885942, -0.018064262, -1549726.0, 80649.59, 0.0, 10.001163, 9.999694 
2.955862e+3, 1.436336e+2, -1432748.9, -1543326.4, 20850.094, -0.106074214, -0.0626665, -1428948.1, 103438.7, 0.0, 10.001336, 9.999862 
2.9557765e+3, 1.5363292e+2, -1344701.8, -1463785.8, 57317.664, -0.05008534, -0.072821334, -1321596.5, 112797.18, 0.0, 10.001329, 9.999736 
2.9556903e+3, 1.6363241e+2, -1268106.3, -1379236.4, 42449.656, -0.011396679, -0.056519907, -1253746.6, 82652.55, 0.0, 10.001196, 9.999708 
2.9556036e+3, 1.736326e+2, -1192330.0, -1274985.8, 52322.523, -0.0524197, 0.021825207, -1166982.3, 71416.04, 0.0, 10.000975, 9.999855 
2.9555175e+3, 1.8363225e+2, -1109320.0, -1189404.6, 74015.125, -0.06970984, 0.038970888, -1065210.0, 75192.27, 0.0, 10.000895, 9.999808 
2.9554325e+3, 1.9363089e+2, -968618.2, -1066235.9, 99331.78, -0.0074822926, -0.039074276, -906751.4, 135663.17, 0.0, 10.001169, 9.999848 
2.9553476e+3, 2.0362987e+2, -890890.5, -1012708.25, 88278.2, 0.031468675, -0.075597204, -844547.6, 99876.66, 0.0, 10.001178, 9.999539 
2.9552618e+3, 2.1362922e+2, -864750.5, -942386.5, 67220.17, 0.006596265, -0.057318464, -825945.1, 20486.416, 0.0, 10.000657, 9.999599 
2.955176e+3, 2.2362874e+2, -777125.0, -823106.1, 71944.766, -0.005570296, -0.03594331, -724586.7, 23849.695, 0.0, 10.000473, 9.999835 
2.9550907e+3, 2.3362854e+2, -599299.6, -655543.94, 71299.945, 0.009223238, -0.01635819, -550776.25, 99661.59, 0.0, 10.000887, 10.000112 
2.955005e+3, 2.4362828e+2, -498413.53, -553938.6, 53132.94, 0.0213987, -0.01627144, -466227.22, 86212.78, 0.0, 10.000897, 10.000133 
2.9549184e+3, 2.53628e+2, -474357.4, -460080.97, 22989.115, 0.031246293, -0.036288444, -443147.34, 11295.212, 0.0, 10.000252, 10.000417 
2.9548314e+3, 2.636278e+2, -421811.06, -404227.0, 22472.553, 0.017194342, -0.048163027, -388887.8, -32444.19, 0.0, 10.000027, 10.000236 
2.9547438e+3, 2.7362752e+2, -229587.08, -243917.11, -1471.2815, -0.026315553, -0.06948207, -229437.58, 29008.365, 0.0, 10.000594, 10.000392 
2.9546568e+3, 2.8362706e+2, -152469.16, -169262.53, 13198.398, -0.043393612, -0.10896252, -145222.89, 15228.005, 0.0, 10.0005045, 10.000278 
2.9545704e+3, 2.9362902e+2, -151300.39, -26091.53, -30841.447, 0.0009843413, 0.09099049, -18906.924, 43526.81, 0.0, 9.999453, 10.001091 
2.9659516e+3, 1.337219e+2, -1631626.9, -1670987.5, -69122.95, -0.00847573, 0.0065400293, -1579437.1, 50084.113, 0.0, 10.000564, 10.00003 
2.9658625e+3, 1.4372109e+2, -1505246.9, -1561373.6, 11447.846, -0.12537085, -0.03886306, -1503001.8, 28528.428, 0.0, 10.000761, 10.000017 
2.9657766e+3, 1.5372045e+2, -1421398.4, -1482176.5, 38346.89, -0.0776994, -0.060148526, -1402859.1, 30677.168, 0.0, 10.00072, 9.999906 
2.9656908e+3, 1.6372e+2, -1338236.4, -1407347.6, 33192.355, -0.03538767, -0.051036067, -1324877.3, 10663.611, 0.0, 10.000687, 9.999763 
2.965604e+3, 1.7371994e+2, -1202084.8, -1284253.9, 48307.563, -0.0708372, 0.0011592645, -1179753.6, 57788.53, 0.0, 10.000921, 9.999821 
2.965518e+3, 1.8371956e+2, -1101034.8, -1192263.8, 62309.723, -0.0781745, 0.021453094, -1069427.6, 70118.48, 0.0, 10.000972, 9.999757 
2.965433e+3, 1.9371858e+2, -1029045.44, -1095938.9, 70092.55, -0.010930215, -0.017322099, -984828.44, 56726.797, 0.0, 10.0007515, 9.999848 
2.965348e+3, 2.0371763e+2, -965602.0, -1049391.3, 52281.24, 0.025187623, -0.045214213, -940500.44, 3063.9656, 0.0, 10.000667, 9.999536 
2.965262e+3, 2.1371678e+2, -847344.06, -929404.6, 61758.297, -0.0034613162, -0.048961133, -814228.75, 31344.53, 0.0, 10.000753, 9.999644 
2.9651764e+3, 2.2371627e+2, -725941.8, -787743.44, 98416.05, -0.0139562, -0.038667303, -653689.44, 93889.09, 0.0, 10.000773, 9.999936 
2.9650912e+3, 2.3371625e+2, -623765.4, -660505.6, 83427.86, 0.010600767, -0.011625994, -556709.1, 92869.46, 0.0, 10.000681, 10.000182 
2.9650053e+3, 2.4371605e+2, -550706.2, -586862.44, 40103.65, 0.03761847, -0.006526751, -524794.3, 26786.197, 0.0, 10.000563, 10.000073 
2.9649186e+3, 2.5371554e+2, -452928.6, -470543.28, 14989.426, 0.065766454, -0.03156698, -444350.53, 9235.301, 0.0, 10.000478, 10.000241 
2.964832e+3, 2.6371533e+2, -350480.47, -354677.5, 42427.543, 0.049562935, -0.044543784, -310099.56, 45488.19, 0.0, 10.0004425, 10.0003805 
2.9647443e+3, 2.737153e+2, -237833.81, -241503.78, 37725.535, -0.035792865, -0.054595932, -201898.66, 55688.313, 0.0, 10.0005045, 10.000455 
2.9646564e+3, 2.8371483e+2, -195240.97, -194186.7, 17050.81, -0.07208973, -0.09668367, -177654.88, -18063.363, 0.0, 10.000231, 10.000245 
2.9645693e+3, 2.9371628e+2, -153552.75, -24982.871, -15278.358, -0.0025937222, 0.06337545, -23192.234, 38387.2, 0.0, 9.99944, 10.001109 
2.9759523e+3, 1.3380821e+2, -1613881.9, -1592975.4, -61174.4, 0.07404133, -0.029176265, -1541367.5, 87307.945, 0.0, 10.000388, 10.000648 
2.9758626e+3, 1.4380832e+2, -1494604.9, -1538075.1, 17155.06, -0.1713656, -0.02088541, -1488650.4, 42025.32, 0.0, 10.000758, 10.000178 
2.9757762e+3, 1.5380816e+2, -1389200.5, -1446793.1, 31832.389, -0.15708606, -0.011582743, -1375072.1, 57605.83, 0.0, 10.000855, 10.000083 
2.9756904e+3, 1.6380782e+2, -1301924.3, -1371587.5, 36508.996, -0.1008439, -0.011143765, -1286296.5, 48384.35, 0.0, 10.000858, 9.999926 
2.9756045e+3, 1.7380646e+2, -1192440.9, -1281450.1, 54531.184, -0.07399852, -0.093507655, -1166558.6, 70133.67, 0.0, 10.000996, 9.9998045 
2.9755187e+3, 1.8380581e+2, -1118703.9, -1232224.9, 54142.66, -0.05190086, -0.08486448, -1097022.1, 41676.32, 0.0, 10.000986, 9.999475 
2.9754332e+3, 1.9380622e+2, -1041674.7, -1125642.4, 61142.848, -0.051352486, 0.038023308, -1009489.2, 31207.79, 0.0, 10.000767, 9.999637 
2.9753476e+3, 2.038059e+2, -941465.4, -1002732.2, 55033.53, -0.051328283, 0.07343328, -909113.94, 33587.242, 0.0, 10.000681, 9.999849 
2.975262e+3, 2.1380502e+2, -810523.6, -853737.3, 64279.82, -0.020821521, 0.019715285, -764316.4, 80391.99, 0.0, 10.000755, 10.000163 
2.975177e+3, 2.238043e+2, -726802.9, -787020.2, 96050.97, 0.003702129, -0.022460492, -656252.1, 90462.91, 0.0, 10.000761, 9.999947 
2.9750916e+3, 2.3380361e+2, -635642.6, -683860.1, 79800.84, 0.017743582, -0.047476154, -576388.25, 72333.77, 0.0, 10.000674, 10.000026 
2.9750055e+3, 2.4380329e+2, -550810.4, -585626.25, 34910.824, 0.035449665, -0.04868365, -529208.0, 21518.299, 0.0, 10.000555, 10.000085 
2.9749188e+3, 2.538033e+2, -460378.66, -486792.34, 13753.369, 0.048338782, -0.018771777, -454517.84, -1789.7828, 0.0, 10.000482, 10.000128 
2.9748318e+3, 2.6380357e+2, -327362.9, -309837.9, 42606.32, 0.05012149, 0.008652523, -275102.38, 79623.53, 0.0, 10.000455, 10.000683 
2.9747447e+3, 2.738041e+2, -219352.4, -201928.73, 43542.543, 0.037598327, 0.02580005, -166235.06, 90483.53, 0.0, 10.0005, 10.0007305 
2.974657e+3, 2.8380367e+2, -177806.22, -153744.48, -8798.023, -0.013638902, -0.04296125, -150870.77, 7851.0127, 0.0, 10.000219, 10.000526 
2.9745677e+3, 2.9380292e+2, -181653.19, -81800.195, -31479.715, -0.07471553, -0.11321869, -72704.43, -11975.376, 0.0, 9.999446, 10.0007105 
2.9859495e+3, 1.3389494e+2, -1823619.8, -1716258.9, 73395.164, -0.15844516, -0.14197424, -1679008.4, -51183.332, 0.0, 9.999051, 10.000446 
2.9858634e+3, 1.4389543e+2, -1529671.6, -1578515.6, 87371.16, -0.099276334, -0.07072859, -1463373.5, 66447.484, 0.0, 10.000629, 9.999958 
2.9857785e+3, 1.5389648e+2, -1273372.4, -1431566.4, 64162.77, -0.020307256, 0.09181226, -1250620.5, 181190.58, 0.0, 10.001835, 9.999711 
2.985693e+3, 1.6389585e+2, -1135074.0, -1312462.9, -2496.1887, 0.043375183, 0.09373341, -1135038.9, 198778.14, 0.0, 10.002105, 9.999726 
2.9856065e+3, 1.7389376e+2, -1124868.5, -1244950.3, 8320.918, 0.043273933, -0.055239532, -1124294.6, 111540.95, 0.0, 10.0014515, 9.99983 
2.9855198e+3, 1.838923e+2, -1109928.6, -1220970.6, 26854.145, 0.0011987872, -0.13604942, -1103775.3, 34074.836, 0.0, 10.001027, 9.999527 
2.985434e+3, 1.9389202e+2, -1025975.94, -1123834.1, 45769.79, -0.024705553, -0.079029456, -1007905.56, 31949.9, 0.0, 10.000902, 9.999583 
2.9853487e+3, 2.0389205e+2, -894682.56, -950902.9, 57313.035, 0.013109171, -0.017787103, -858957.25, 82898.67, 0.0, 10.000873, 10.000116 
2.9852638e+3, 2.1389198e+2, -793226.44, -824955.6, 44556.824, 0.08585805, -0.015097316, -761794.1, 82060.91, 0.0, 10.000782, 10.000352 
2.9851782e+3, 2.2389175e+2, -770292.0, -801701.56, 54288.93, 0.11132056, -0.017833007, -729481.94, 16374.876, 0.0, 10.000432, 10.000007 
2.985092e+3, 2.3389134e+2, -703071.7, -704812.8, 58618.836, 0.07445527, -0.027385434, -645316.94, 2545.6353, 0.0, 10.000162, 10.000129 
2.9850057e+3, 2.4389118e+2, -576574.3, -582459.8, 38370.0, 0.036077365, -0.023701413, -541034.4, 8831.612, 0.0, 10.000311, 10.000225 
2.9849184e+3, 2.5389132e+2, -422176.4, -454932.3, 32073.525, 0.0066628437, 0.0062754285, -402541.2, 49325.2, 0.0, 10.000683, 10.000251 
2.9848316e+3, 2.6389173e+2, -300085.16, -278285.75, 49356.617, 0.017324524, 0.034780566, -238639.63, 115223.48, 0.0, 10.000557, 10.000855 
2.9847452e+3, 2.738925e+2, -309523.7, -231451.25, 38624.48, 0.08239468, 0.05648833, -215572.28, 40282.164, 0.0, 9.99981, 10.000866 
2.9846567e+3, 2.838925e+2, -231189.3, -152335.19, -13071.61, 0.021602357, 0.016866231, -150224.8, 7628.2256, 0.0, 9.999733, 10.00078 
2.9845667e+3, 2.9389116e+2, -28769.658, -46924.3, -24922.947, -0.13186498, -0.12741227, -11322.443, 48543.254, 0.0, 10.000636, 10.00041 
2.99595e+3, 1.3398531e+2, -1567764.9, -1683808.1, -137319.47, 0.023687549, 0.048189413, -1476712.3, 150226.17, 0.0, 10.001178, 9.999656 
2.9958642e+3, 1.4398342e+2, -1514725.1, -1623327.8, -105978.33, -0.06408319, -0.06714267, -1449946.5, 79010.17, 0.0, 10.000935, 9.999516 
2.9957795e+3, 1.5398096e+2, -1544640.9, -1651386.0, 5256.17, -0.060814068, -0.19641602, -1544382.6, -113402.33, 0.0, 10.000327, 9.998944 
2.9956934e+3, 1.6397984e+2, -1470113.5, -1524660.9, 10491.292, -0.07931584, -0.17216675, -1468165.3, -135174.1, 0.0, 9.999995, 9.999299 
2.995606e+3, 1.7398043e+2, -1291774.1, -1322120.6, 38368.035, -0.12183445, -0.04658432, -1265688.0, -30702.055, 0.0, 10.000264, 9.999886 
2.9955196e+3, 1.8398075e+2, -1205877.4, -1240563.4, 31032.96, -0.09197769, 0.033444267, -1187670.0, -50686.598, 0.0, 10.000225, 9.999793 
2.9954347e+3, 1.9397886e+2, -1103708.1, -1156585.6, 22418.086, -0.013136137, -0.08271647, -1095483.1, -56480.668, 0.0, 10.000323, 9.99965 
2.9953492e+3, 2.0397834e+2, -971459.25, -972946.2, 20026.813, 0.022980312, -0.09926835, -952162.1, -11154.497, 0.0, 10.000264, 10.000265 
2.995263e+3, 2.1397829e+2, -842844.7, -863723.0, 16689.607, -0.010665833, -0.08922951, -833598.4, 9408.799, 0.0, 10.000496, 10.000226 
2.9951772e+3, 2.2397834e+2, -722047.6, -766943.44, 13024.776, 0.02469847, -0.060632464, -718542.6, 26464.785, 0.0, 10.0007105, 10.000112 
2.9950917e+3, 2.3397894e+2, -674522.25, -650352.3, 8454.974, 0.062108092, 0.0024780596, -647688.25, -683.6507, 0.0, 10.00018, 10.000494 
2.9950052e+3, 2.4397942e+2, -536947.9, -530293.25, 30201.463, 0.016132975, 0.040443983, -503236.34, 45765.59, 0.0, 10.00044, 10.000521 
2.994918e+3, 2.5397968e+2, -384883.9, -392200.1, 43345.938, -0.06345398, 0.03972602, -345041.97, 105958.44, 0.0, 10.000747, 10.0006485 
2.994831e+3, 2.6397994e+2, -299723.25, -278271.1, 24888.441, -0.05064304, 0.03337864, -261895.83, 91102.586, 0.0, 10.000558, 10.000856 
2.9947448e+3, 2.739804e+2, -316881.0, -243118.78, 13723.374, 0.0922735, 0.031951133, -240648.3, 14346.475, 0.0, 9.999791, 10.000796 
2.9946563e+3, 2.839814e+2, -224703.38, -127773.16, 15644.237, 0.020820431, 0.08147484, -125310.78, 31674.836, 0.0, 9.999701, 10.000956 
2.9945663e+3, 2.939825e+2, -21280.55, -27066.938, 22210.365, -0.165419, 0.15748583, -1775.7328, 57199.563, 0.0, 10.00064, 10.000535 
