coord_x,coord_y,stress_xx,stress_yy,tau_xy,velocity_x,velocity_y,stress_1,eps,damage,lx,ly
5.0020695e+0, 1.2441469e+2, -1281254.4, -1669293.1, -23034.74, 0.023377687, -0.02648255, -1279891.8, 440838.72, 0.0027102246, 10.00351, 9.998616 
5.001803e+0, 1.3441113e+2, -1381312.3, -1883163.8, -20617.248, 0.018909821, -0.15233645, -1380466.8, 242302.77, 0.0016001622, 10.003144, 9.996638 
5.0016755e+0, 1.4441064e+2, -1224873.5, -1646111.9, 20509.178, 0.0084822215, 0.09982013, -1223877.4, 300899.94, 0.00071385584, 10.003087, 9.997605 
5.00145e+0, 1.5440856e+2, -1068359.8, -1511195.3, 18285.902, -0.031829335, 0.05134761, -1067606.0, 359193.44, 0.00020880907, 10.003454, 9.9976845 
5.001236e+0, 1.6440696e+2, -1002771.6, -1418346.3, 20607.193, -0.03961658, 0.12180351, -1001752.3, 327065.06, 0.00003056022, 10.00319, 9.997778 
5.0010264e+0, 1.7440496e+2, -1070063.8, -1413545.8, 29239.54, -0.006726774, 0.08916027, -1067592.5, 163247.19, 0.0000010193884, 10.002112, 9.997659 
5.0009644e+0, 1.8440309e+2, -976334.7, -1231625.3, 77642.234, 0.0060537625, 0.10613905, -954575.7, 178283.97, 0.0, 10.001726, 9.998416 
5.001057e+0, 1.9440107e+2, -813999.2, -1110426.8, 57646.047, -0.007937173, 0.0031324208, -803183.44, 231696.28, 0.0, 10.002199, 9.998353 
5.000988e+0, 2.044002e+2, -675021.9, -949367.5, 31453.197, -0.019912858, 0.06777922, -671462.0, 265427.13, 0.0, 10.002301, 9.998729 
5.000652e+0, 2.1440022e+2, -635468.94, -887906.94, -22205.95, -0.035224028, 0.13683276, -633530.44, 205359.73, 0.0, 10.001933, 9.998657 
5.0005794e+0, 2.2439946e+2, -592944.5, -812215.2, -17561.523, -0.022410328, 0.20090258, -591546.9, 149350.06, 0.0, 10.001536, 9.998695 
5.000875e+0, 2.3439744e+2, -562957.56, -751774.56, 884.5412, 0.029137248, 0.06764616, -562953.4, 79960.164, 0.0, 10.001088, 9.998655 
5.0007164e+0, 2.4439579e+2, -500790.0, -640519.7, 25910.223, 0.033003516, 0.029204927, -496140.2, 48787.457, 0.0, 10.000706, 9.998931 
4.999985e+0, 2.5439397e+2, -458803.53, -587022.2, 4266.0054, -0.02481409, -0.10339964, -458661.75, -11716.691, 0.000000000017365094, 10.000392, 9.998781 
4.9996504e+0, 2.6439294e+2, -383300.22, -440926.97, 10580.25, -0.03790753, -0.099226184, -381419.1, -32464.578, 0.000000288742, 9.999989, 9.999296 
4.9998045e+0, 2.743933e+2, -362755.97, -379420.78, 1147.8062, 0.003750193, -0.057107564, -362677.28, -111726.63, 0.0000033591298, 9.999449, 9.999306 
4.9996838e+0, 2.843947e+2, -308793.6, -294940.72, 15184.023, 0.008712736, 0.15632975, -285177.94, -132241.63, 0.000018802597, 9.999117, 9.999367 
4.9991122e+0, 2.9439512e+2, -201289.77, -174432.3, -2504.364, -0.048168384, 0.19177714, -174200.78, -119268.0, 0.000081046455, 9.9990835, 9.999543 
4.9989763e+0, 3.0439043e+2, -230637.27, -247436.22, 12302.615, -0.05162918, -0.20650749, -224140.25, -224140.25, 0.0003038914, 9.998901, 9.998794 
4.9995142e+0, 3.1439394e+2, -156650.31, 33120.117, 46399.5, 0.028228557, 0.22383589, 43857.426, 43857.426, 0.00078894256, 9.998266, 10.001048 
1.5006179e+1, 1.2441505e+2, -1291683.5, -1601809.6, -75057.61, 0.071165964, 0.061321888, -1274473.0, 446259.8, 0.0026043395, 10.003185, 9.999256 
1.5005487e+1, 1.3441168e+2, -1352749.8, -1776197.6, -21244.572, 0.06820969, -0.06413451, -1351686.6, 271078.75, 0.0015429672, 10.002985, 9.997472 
1.5005012e+1, 1.4441076e+2, -1226185.1, -1591845.0, 19738.805, 0.02578918, 0.07863352, -1225122.6, 299651.63, 0.0006869522, 10.002868, 9.998097 
1.500433e+1, 1.5440778e+2, -1068738.6, -1464261.6, 46898.2, -0.09564279, -0.06680287, -1063253.9, 363549.88, 0.0001968844, 10.003276, 9.998103 
1.5003729e+1, 1.6440615e+2, -984208.06, -1329519.9, -28605.146, -0.11506078, -0.05551897, -981854.5, 346966.53, 0.000026649353, 10.003, 9.998491 
1.5003121e+1, 1.7440557e+2, -1039221.8, -1308800.3, 1609.8157, -0.01613464, 0.01229587, -1039212.2, 191616.38, 0.00000066228677, 10.001955, 9.998467 
1.5002862e+1, 1.8440479e+2, -1016113.2, -1255101.8, 79777.414, 0.018147804, 0.093206584, -991929.6, 140908.78, 0.0, 10.001506, 9.998368 
1.5003175e+1, 1.9440354e+2, -853104.2, -1140158.0, 89473.31, -0.021352414, 0.11057122, -827499.6, 207352.89, 0.0, 10.002002, 9.998255 
1.5002942e+1, 2.04402e+2, -771541.56, -1092928.0, 9480.027, -0.060215283, 0.15401395, -771262.1, 165608.78, 0.0, 10.002088, 9.997854 
1.5001939e+1, 2.1439983e+2, -730364.94, -1031344.3, -20588.668, -0.10679477, 0.1283455, -728963.06, 109933.586, 0.0, 10.001729, 9.99778 
1.5001725e+1, 2.2439839e+2, -564516.94, -698104.8, -48105.094, -0.06469342, 0.1255406, -548997.25, 191914.33, 0.0, 10.001331, 9.999588 
1.5002593e+1, 2.3439781e+2, -529008.2, -623763.75, -2159.043, 0.08712319, 0.07381707, -528959.0, 113954.36, 0.0, 10.000873, 9.999644 
1.5002158e+1, 2.4439776e+2, -536986.4, -671000.3, 1190.5925, 0.10092771, 0.14712961, -536975.8, 7937.279, 0.0, 10.000539, 9.998814 
1.499996e+1, 2.5439802e+2, -496288.84, -609617.6, 3993.0676, -0.07223876, 0.26982984, -496148.34, -49234.863, 0.0, 10.000178, 9.998739 
1.4998941e+1, 2.6439673e+2, -395816.3, -420248.8, -20362.154, -0.11336306, 0.23248425, -384286.97, -35361.566, 0.00000013049092, 9.99982, 9.99953 
1.4999425e+1, 2.7439365e+2, -386127.3, -372516.44, -8832.927, 0.0133727435, -0.05529015, -368171.34, -117221.266, 0.0000024373799, 9.999235, 9.999468 
1.4999004e+1, 2.8439325e+2, -340328.22, -314830.03, 1651.1832, 0.023691151, -0.03038364, -314723.53, -161772.17, 0.000015368285, 9.998952, 9.999322 
1.4997321e+1, 2.943948e+2, -239719.63, -192508.7, 16301.963, -0.1464226, 0.16009992, -187426.69, -132489.7, 0.000069496324, 9.998836, 9.999553 
1.4996997e+1, 3.0439213e+2, -164118.22, -44014.145, -19312.895, -0.14161524, -0.10573019, -40985.004, -40985.004, 0.00026841622, 9.998696, 10.00031 
1.4998493e+1, 3.143944e+2, -204819.14, 52542.84, 64909.06, 0.08774125, 0.09837638, 67986.74, 67986.74, 0.0007052667, 9.99783, 10.001411 
2.500967e+1, 1.2441488e+2, -1335133.9, -1602438.9, -15934.358, 0.13565563, 0.10439823, -1334187.4, 386550.2, 0.0024837567, 10.002826, 9.999396 
2.5009257e+1, 1.3441178e+2, -1266453.3, -1692615.3, -24306.098, 0.13726689, -0.047252916, -1265071.5, 357693.66, 0.0014731403, 10.003435, 9.99781 
2.5008664e+1, 1.4441079e+2, -1160328.8, -1536539.8, 24838.11, 0.09595982, 0.058555663, -1158696.0, 366077.6, 0.00065158884, 10.003243, 9.998277 
2.5007287e+1, 1.54408e+2, -1211567.0, -1517828.4, 14088.788, -0.066806674, -0.09587585, -1210920.3, 215880.86, 0.0001815959, 10.002242, 9.998221 
2.500611e+1, 1.6440654e+2, -1114441.4, -1379385.6, -37745.67, -0.12161993, -0.07413563, -1109168.8, 219647.5, 0.000022322774, 10.002063, 9.998587 
2.5005257e+1, 1.7440625e+2, -893011.94, -1223112.9, -69701.07, -0.03782263, -0.000888303, -878897.94, 351922.97, 0.00000035252413, 10.002916, 9.998575 
2.5005063e+1, 1.8440562e+2, -794617.9, -1168112.5, 16451.44, 0.015854342, 0.099805556, -793894.6, 338934.75, 0.0, 10.0031, 9.99819 
2.5005853e+1, 1.9440457e+2, -822294.06, -1142180.9, 8430.181, 0.040194742, 0.14275, -822072.06, 212770.53, 0.0, 10.002291, 9.998085 
2.5005525e+1, 2.0440301e+2, -844856.9, -1106861.9, -10160.405, 0.02659238, 0.18482426, -844463.44, 92397.555, 0.0, 10.001491, 9.998041 
2.5003737e+1, 2.1440053e+2, -878381.75, -1082255.3, 31900.021, -0.037613913, 0.09722358, -873506.94, -34618.273, 0.0, 10.0006275, 9.997954 
2.5002977e+1, 2.2439916e+2, -701764.5, -777148.8, 77577.586, -0.021732844, 0.10022146, -653207.1, 87696.05, 0.0, 10.000439, 9.99946 
2.5003606e+1, 2.3439911e+2, -518412.66, -641831.06, 30182.086, 0.09925375, 0.103678316, -511427.0, 131475.7, 0.0, 10.001029, 9.999437 
2.50028e+1, 2.4439938e+2, -485166.9, -649682.75, 5926.8237, 0.09861579, 0.22425255, -484953.66, 59947.12, 0.0, 10.000926, 9.998756 
2.5000125e+1, 2.5439978e+2, -530612.0, -630852.06, -288.43344, -0.05514402, 0.3566469, -530611.1, -83711.336, 0.0, 9.999974, 9.998674 
2.4998836e+1, 2.643984e+2, -451655.53, -475323.72, 15363.77, -0.08590895, 0.3280401, -444096.56, -95183.984, 0.00000003137998, 9.999572, 9.99926 
2.4999306e+1, 2.743949e+2, -313213.28, -368353.28, -22594.076, 0.05364599, 0.016306274, -305137.84, -54196.008, 0.0000016497497, 9.999882, 9.999176 
2.4998558e+1, 2.8439382e+2, -241266.23, -290059.13, -1719.6394, 0.05285411, -0.0005824145, -241205.7, -88256.04, 0.000012071121, 9.999739, 9.999102 
2.4996367e+1, 2.9439497e+2, -240404.9, -218715.89, -13041.355, -0.12134783, 0.1569867, -212599.27, -157660.06, 0.00005739791, 9.998971, 9.99929 
2.4995822e+1, 3.043937e+2, -136534.31, -2800.416, -44831.066, -0.11835285, 0.04040969, 10837.376, 10837.376, 0.00023072664, 9.998784, 10.000548 
2.4997044e+1, 3.1439462e+2, -74186.445, 20887.732, -91835.41, 0.11622927, 0.060486645, 76760.11, 76760.11, 0.000617959, 9.9991665, 10.000528 
3.5012218e+1, 1.2441404e+2, -1372131.1, -1636865.5, -34721.465, 0.0418184, 0.034816824, -1367653.0, 353093.6, 0.0023583595, 10.002659, 9.999238 
3.501268e+1, 1.3441145e+2, -1254796.6, -1647091.9, 6103.9365, 0.10255062, -0.07714086, -1254701.6, 368067.13, 0.0013953737, 10.003366, 9.998148 
3.5012263e+1, 1.4441058e+2, -1167237.8, -1524398.9, -25642.104, 0.091886275, 0.017487243, -1165406.3, 359370.1, 0.0006105934, 10.003133, 9.998412 
3.5009947e+1, 1.5440916e+2, -1209306.5, -1490962.1, -9791.934, -0.06013135, -0.010870394, -1208966.5, 217825.06, 0.00016453842, 10.002163, 9.998438 
3.5008147e+1, 1.6440807e+2, -1142090.5, -1418299.5, -25466.162, -0.15783286, 0.04400142, -1139762.1, 189041.58, 0.000017966355, 10.001972, 9.998373 
3.5007107e+1, 1.7440674e+2, -919971.56, -1269022.1, -23265.186, -0.17744787, 0.047694918, -918427.7, 312391.1, 0.00000014192928, 10.002866, 9.998292 
3.5007247e+1, 1.8440543e+2, -814150.44, -1173955.0, -22756.924, -0.105934486, 0.095986806, -812716.8, 320117.34, 0.0, 10.002962, 9.998212 
3.5008776e+1, 1.9440408e+2, -835365.25, -1140227.9, -8796.361, 0.07211213, 0.11050208, -835111.7, 199738.92, 0.0, 10.0021715, 9.998155 
3.5008448e+1, 2.0440312e+2, -761022.06, -895608.44, -57914.95, 0.14372718, 0.13659292, -739531.7, 197328.92, 0.0, 10.001338, 9.999564 
3.500576e+1, 2.1440229e+2, -786459.7, -854385.1, 12281.375, 0.07378866, 0.060525216, -784307.4, 54558.78, 0.0, 10.000474, 9.999593 
3.500404e+1, 2.2440171e+2, -788075.75, -910770.4, 87682.71, 0.012888743, 0.09466663, -742410.25, -1537.7101, 0.0, 10.000256, 9.998627 
3.500357e+1, 2.3440142e+2, -611913.4, -790545.2, 65990.52, -0.037067927, 0.17762843, -590179.4, 52701.375, 0.0, 10.000848, 9.998498 
3.5002378e+1, 2.4440072e+2, -492087.3, -635072.2, -38641.89, -0.0629755, 0.24464048, -482312.5, 62577.65, 0.0, 10.000797, 9.998924 
3.500021e+1, 2.543993e+2, -537204.0, -609375.3, -22136.682, -0.073013775, 0.17841673, -530955.2, -84051.734, 0.0, 9.999825, 9.998897 
3.499905e+1, 2.6439807e+2, -500351.13, -556940.5, 13537.294, -0.048518274, 0.17664555, -497279.47, -148364.22, 0.0000000045955626, 9.999489, 9.998736 
3.4999055e+1, 2.7439708e+2, -368625.1, -452886.97, 4704.7866, 0.008995998, 0.17638764, -368363.22, -117438.29, 0.0000011896407, 9.999752, 9.998656 
3.4998065e+1, 2.843964e+2, -260478.67, -309710.1, -40650.24, -0.00061285275, 0.2333569, -237572.02, -84641.06, 0.000009641755, 9.999662, 9.999002 
3.4995896e+1, 2.9439548e+2, -276590.66, -262520.34, -29757.2, -0.10160381, 0.20142774, -238977.98, -184038.28, 0.0000464018, 9.998846, 9.999052 
3.4995002e+1, 3.0439496e+2, -189914.78, -107834.72, -43079.38, -0.10588045, 0.20343345, -89375.87, -89375.87, 0.00019513248, 9.998742, 9.999845 
3.499445e+1, 3.1439504e+2, -224373.28, -273955.78, -37828.008, -0.1255942, 0.2096221, -203936.63, -203936.63, 0.00053834624, 9.99908, 9.998543 
4.501619e+1, 1.2441396e+2, -1245607.6, -1610074.0, 70827.88, 0.148298, -0.0022586118, -1232327.4, 488419.9, 0.0022337737, 10.00371, 9.998895 
4.5015866e+1, 1.3441207e+2, -1191420.8, -1612616.4, 24007.275, 0.083491385, -0.0509507, -1190056.8, 432708.2, 0.0013153872, 10.003789, 9.998178 
4.5015323e+1, 1.4441122e+2, -1096172.3, -1471286.0, -18210.332, 0.080546655, 0.03907879, -1095290.3, 429482.8, 0.00056916923, 10.003531, 9.998598 
4.5013082e+1, 1.5441048e+2, -1079100.9, -1412768.9, -36707.863, 0.010697007, 0.06695037, -1075110.3, 351671.28, 0.00014812649, 10.002977, 9.998599 
4.5011237e+1, 1.6440941e+2, -1073332.3, -1390189.3, 19319.705, -0.05897545, 0.11737535, -1072158.6, 256634.47, 0.000013959289, 10.00248, 9.998318 
4.501003e+1, 1.7440724e+2, -1034268.1, -1331647.9, 10860.639, -0.123864934, 0.04486231, -1033872.0, 196943.42, 0.000000037538413, 10.00212, 9.998222 
4.500965e+1, 1.8440555e+2, -959965.9, -1208112.6, 26845.139, -0.09301798, 0.046178844, -957094.9, 175738.67, 0.0, 10.001806, 9.998545 
4.5010188e+1, 1.9440453e+2, -924150.75, -1144846.4, 40560.258, 0.04603882, 0.058610786, -916932.56, 117913.37, 0.0, 10.001396, 9.998504 
4.5009476e+1, 2.0440404e+2, -752800.8, -861330.75, -4865.659, 0.12734303, 0.10166028, -752583.1, 184267.58, 0.0, 10.001252, 9.9998455 
4.5007193e+1, 2.1440396e+2, -641509.0, -754530.75, -60798.24, 0.13918017, 0.072146155, -615014.4, 223834.13, 0.0, 10.00133, 9.999868 
4.500539e+1, 2.244035e+2, -684991.0, -897840.75, 21666.25, 0.090978205, 0.117811784, -682807.94, 58046.31, 0.0, 10.001116, 9.998312 
4.5004213e+1, 2.3440246e+2, -693769.4, -871296.25, 24192.434, -0.027059563, 0.16577254, -690531.56, -47660.566, 0.0, 10.000466, 9.998139 
4.5002833e+1, 2.4440137e+2, -545634.75, -660667.06, -38408.992, -0.06817997, 0.21150757, -533989.1, 10895.789, 0.0, 10.000438, 9.998914 
4.5001128e+1, 2.543998e+2, -336001.38, -515759.78, -64188.27, -0.024266405, 0.13061549, -315434.2, 131464.84, 0.0, 10.001216, 9.998867 
4.4999608e+1, 2.6439872e+2, -299293.78, -474206.34, -16594.254, -0.004798469, 0.14939709, -297733.38, 51176.55, 0.000000013083459, 10.000935, 9.998608 
4.4998425e+1, 2.7439824e+2, -423033.25, -495755.22, -17512.568, -0.0032754643, 0.21610554, -419035.7, -168119.6, 0.0000010541644, 9.99945, 9.998514 
4.4996956e+1, 2.8439763e+2, -375261.2, -343425.5, 4158.711, -0.023545673, 0.27914652, -342891.22, -189969.36, 0.000008106713, 9.998778, 9.999208 
4.49951e+1, 2.9439634e+2, -218069.03, -218247.23, 13624.863, -0.07074225, 0.19117029, -204532.97, -149600.02, 0.000037622078, 9.999169, 9.999212 
4.4994396e+1, 3.0439633e+2, -141984.39, -117188.766, 70904.96, -0.0522641, 0.25084272, -57605.89, -57605.89, 0.00016443121, 9.999203, 9.999552 
4.4993228e+1, 3.1439626e+2, -315493.7, -371364.63, 68446.44, -0.12094674, 0.26533887, -269501.44, -269501.44, 0.00047154687, 9.998668, 9.998071 
5.50202e+1, 1.2441499e+2, -1294988.4, -1731245.3, 35036.715, 0.08927227, -0.0022313576, -1292192.5, 428544.22, 0.0021078985, 10.003765, 9.998043 
5.501838e+1, 1.3441367e+2, -1202273.0, -1654192.8, 41037.64, -0.092638195, 0.039297663, -1198576.8, 424176.1, 0.0012334009, 10.003859, 9.99786 
5.501748e+1, 1.4441282e+2, -1081247.5, -1444011.8, -56584.402, -0.10829993, 0.1313094, -1072626.3, 452136.75, 0.00052778376, 10.00354, 9.998784 
5.5016214e+1, 1.544121e+2, -1064898.9, -1388519.9, -44078.613, -0.01600085, 0.14389472, -1059002.6, 367767.06, 0.00013278752, 10.002993, 9.998761 
5.501474e+1, 1.6441068e+2, -1081384.3, -1392559.4, -9142.776, 0.006480919, 0.15075763, -1081115.9, 247667.23, 0.0000106646075, 10.00242, 9.998326 
5.5013484e+1, 1.7440766e+2, -1033075.6, -1324219.6, 9605.95, -0.027779799, -0.011580332, -1032759.06, 198052.7, 0.000000007551507, 10.0021, 9.99828 
5.501184e+1, 1.8440595e+2, -924294.2, -1114718.1, -2583.4868, -0.08749482, -0.050820775, -924259.2, 208568.86, 0.0, 10.001722, 9.999227 
5.500963e+1, 1.9440587e+2, -884078.5, -1044963.3, 36772.926, -0.18386051, -0.014034599, -876071.9, 158757.25, 0.0, 10.0013275, 9.999222 
5.5008143e+1, 2.0440581e+2, -838405.75, -1005781.25, -13444.18, -0.1608897, 0.077147804, -837332.75, 99498.055, 0.0, 10.001117, 9.998915 
5.500757e+1, 2.1440554e+2, -730626.25, -912875.06, -45252.49, 0.010270564, 0.13328442, -720008.56, 118827.336, 0.0, 10.001219, 9.998832 
5.5006593e+1, 2.2440453e+2, -686673.5, -873795.06, -13182.304, 0.0693014, 0.16549136, -685749.44, 55099.156, 0.0, 10.000999, 9.998532 
5.500515e+1, 2.344024e+2, -690513.9, -837990.3, 12967.951, -0.009341112, 0.07712833, -689382.3, -46510.098, 0.0, 10.000352, 9.998423 
5.500368e+1, 2.444013e+2, -573754.1, -700193.9, -21799.912, -0.060052667, 0.11973941, -570101.06, -25215.957, 0.0, 10.0003605, 9.998676 
5.500231e+1, 2.5440124e+2, -375330.9, -558265.9, -23123.484, -0.06304652, 0.21257178, -372453.3, 74433.8, 0.0, 10.0010605, 9.998642 
5.500014e+1, 2.6440036e+2, -286405.28, -441299.0, -80913.6, -0.079067044, 0.25158736, -251847.56, 97048.97, 0.000000016276152, 10.000898, 9.998857 
5.4997075e+1, 2.743983e+2, -416188.06, -465016.2, -61138.5, -0.11676174, 0.13235265, -374769.28, -123853.0, 0.00000094951764, 9.999368, 9.998772 
5.499474e+1, 2.8439742e+2, -341503.5, -263495.6, 2503.7463, -0.1551167, 0.12710184, -263415.3, -110492.17, 0.0000068871877, 9.998744, 9.999768 
5.49935e+1, 2.9439756e+2, -192630.22, -143124.2, 42764.867, -0.18731974, 0.12791546, -118465.22, -63546.56, 0.00003070153, 9.999071, 9.999775 
5.499356e+1, 3.0439785e+2, -131985.03, -78986.984, 48424.29, -0.08773288, 0.17704625, -50285.375, -50285.375, 0.00013855331, 9.999142, 9.999844 
5.4992557e+1, 3.1439823e+2, -254132.02, -214870.5, 85266.555, -0.12183962, 0.20599712, -147004.11, -147004.11, 0.0004144919, 9.998559, 9.999192 
6.502459e+1, 1.2441657e+2, -1280729.4, -1774260.3, 33195.52, 0.15850781, 0.058000244, -1278506.6, 442216.75, 0.0019834668, 10.004036, 9.997643 
6.502176e+1, 1.3441542e+2, -1323041.8, -1689815.3, 29234.492, -0.07729685, 0.10425159, -1320726.1, 302012.1, 0.001149572, 10.002905, 9.998093 
6.5020555e+1, 1.4441428e+2, -1270143.8, -1529186.9, -77.407196, -0.07632164, 0.15215366, -1270143.6, 254607.5, 0.00048384682, 10.002231, 9.998825 
6.501917e+1, 1.5441328e+2, -1132575.9, -1413844.4, -32687.92, 0.017133307, 0.13450465, -1128827.0, 297932.9, 0.00011744106, 10.00252, 9.9988 
6.501776e+1, 1.6441196e+2, -1025597.0, -1354314.1, 27684.732, 0.059717737, 0.1441861, -1023281.7, 305490.38, 0.000008467286, 10.002757, 9.9984255 
6.5016574e+1, 1.7440946e+2, -938224.06, -1267554.0, 24951.273, 0.04888269, 0.025278961, -936344.4, 294451.34, 0.000000004638606, 10.002717, 9.998365 
6.5014267e+1, 1.8440807e+2, -832130.56, -1054651.0, 724.58685, -0.034644622, 0.006732415, -832128.2, 300680.72, 0.0, 10.00229, 9.999362 
6.501053e+1, 1.9440798e+2, -877806.7, -1027274.94, -31285.926, -0.21551147, 0.02952374, -871522.25, 163287.22, 0.0, 10.001304, 9.999356 
6.5008616e+1, 2.0440775e+2, -873312.75, -1049336.5, -24363.809, -0.20925583, 0.10658373, -870002.75, 66810.41, 0.0, 10.0009775, 9.9986925 
6.5008944e+1, 2.144071e+2, -740259.9, -943828.5, -15634.646, 0.03249584, 0.15070549, -739066.06, 99756.51, 0.0, 10.001264, 9.998602 
6.500816e+1, 2.2440596e+2, -631332.2, -836000.5, 43503.18, 0.11818021, 0.17941253, -622469.2, 118367.21, 0.0, 10.001327, 9.998634 
6.500595e+1, 2.3440407e+2, -570757.2, -764176.44, 30488.512, 0.0069428887, 0.09855085, -566065.2, 76791.62, 0.0, 10.001099, 9.998568 
6.500402e+1, 2.4440305e+2, -555541.44, -690658.2, 31369.955, -0.057973757, 0.1392277, -548613.5, -3744.8508, 0.0, 10.000473, 9.998707 
6.500254e+1, 2.5440294e+2, -621813.75, -673831.94, 26380.998, -0.04916405, 0.22802882, -610776.56, -163905.08, 0.0, 9.999346, 9.998693 
6.500024e+1, 2.6440206e+2, -541936.0, -533612.0, -1669.9655, -0.055575237, 0.25563017, -533289.44, -184408.98, 0.00000000394634, 9.999013, 9.999136 
6.4996934e+1, 2.7440017e+2, -327813.34, -382163.72, -3978.6748, -0.08005231, 0.12292958, -327523.63, -76626.11, 0.0000007712445, 9.999822, 9.999109 
6.4994276e+1, 2.843994e+2, -193973.84, -231673.44, 58539.14, -0.12392843, 0.124768585, -151324.48, 1579.5153, 0.000006042053, 9.99993, 9.999411 
6.4992744e+1, 2.9439953e+2, -229675.1, -193869.47, -2351.5237, -0.15317556, 0.16332391, -193715.7, -138813.86, 0.000026519589, 9.998985, 9.999453 
6.499247e+1, 3.0439922e+2, -246107.45, -107495.94, -14938.079, -0.053073566, 0.15626976, -105904.34, -105904.34, 0.00012024143, 9.998232, 10.000096 
6.499135e+1, 3.1440032e+2, -311121.97, -116775.27, -20082.58, -0.033848483, 0.23655227, -114721.76, -114721.76, 0.00036921015, 9.997602, 10.000353 
7.50285e+1, 1.2441848e+2, -1251612.1, -1721222.0, -55958.105, 0.06784096, 0.18250851, -1245036.3, 475673.13, 0.0018629195, 10.004077, 9.997982 
7.502543e+1, 1.3441718e+2, -1259123.5, -1569708.4, -8326.447, -0.042851087, 0.13036634, -1258900.4, 363822.06, 0.0010666472, 10.002958, 9.998893 
7.5023824e+1, 1.4441562e+2, -1281836.4, -1545497.4, -8258.763, -0.015129068, 0.099345446, -1281577.9, 243159.72, 0.0004391749, 10.002198, 9.998728 
7.502157e+1, 1.5441397e+2, -1140153.0, -1440542.9, -5799.0, -0.035304222, 0.031685077, -1140041.1, 286711.72, 0.00010226521, 10.002556, 9.998607 
7.501983e+1, 1.6441321e+2, -1023543.75, -1335795.1, 13107.046, -0.04351814, 0.10072282, -1022994.56, 305765.9, 0.000007138289, 10.002701, 9.998576 
7.5018877e+1, 1.7441264e+2, -932418.6, -1249522.6, 33764.28, -0.028443089, 0.15607081, -928863.3, 301904.16, 0.00000003688298, 10.002688, 9.998504 
7.501652e+1, 1.8441184e+2, -875929.56, -1127916.8, -47985.035, -0.06996493, 0.21139435, -867101.25, 265675.56, 0.0, 10.002211, 9.998901 
7.5012475e+1, 1.9441074e+2, -917198.75, -1097989.8, -56942.914, -0.18606398, 0.17996976, -900758.6, 134029.98, 0.0, 10.001257, 9.998894 
7.5010484e+1, 2.0440976e+2, -851821.0, -982132.0, -26819.734, -0.14865366, 0.1840744, -846517.06, 90281.38, 0.0, 10.000882, 9.999199 
7.5010926e+1, 2.1440864e+2, -715275.9, -869172.5, 6767.255, 0.0729104, 0.119307436, -714978.9, 123829.91, 0.0, 10.00116, 9.9991665 
7.5009644e+1, 2.2440787e+2, -650616.56, -848326.8, 25448.412, 0.106483854, 0.15638612, -647393.5, 93423.97, 0.0, 10.001207, 9.998607 
7.500622e+1, 2.3440741e+2, -595158.1, -785554.56, 36273.934, -0.105460465, 0.22460407, -588481.4, 54343.94, 0.0, 10.000966, 9.998487 
7.5003403e+1, 2.4440658e+2, -545918.1, -654035.44, -20915.246, -0.19495712, 0.27446195, -542013.1, 2822.277, 0.0, 10.000401, 9.99899 
7.5001436e+1, 2.54405e+2, -618741.6, -643905.06, -4430.9077, -0.12466056, 0.18105516, -617984.2, -171133.02, 0.0, 9.999236, 9.998953 
7.4999434e+1, 2.6440403e+2, -531409.7, -492552.47, 13348.659, -0.06567167, 0.17297406, -488408.7, -139548.72, 0.00000000015133415, 9.998939, 9.99945 
7.4997514e+1, 2.7440393e+2, -323134.97, -345917.22, 43791.36, -0.03904315, 0.1872686, -289277.44, -38418.098, 0.00000065427645, 9.99971, 9.99941 
7.4995214e+1, 2.844036e+2, -282297.7, -410049.28, 15649.017, -0.05713766, 0.2744125, -280408.7, -127544.51, 0.0000058927376, 9.999902, 9.998202 
7.4992394e+1, 2.9440218e+2, -330030.06, -387282.84, -24873.807, -0.1259139, 0.288643, -320733.16, -265849.88, 0.000025865007, 9.9989, 9.998176 
7.499063e+1, 3.044003e+2, -245765.1, -85583.266, -42756.55, -0.09038861, 0.18128875, -74884.99, -74884.99, 0.00011203884, 9.998159, 10.00027 
7.4988765e+1, 3.144024e+2, -245027.9, 59779.992, 4903.2505, -0.11587608, 0.33377868, 59858.848, 59858.848, 0.00034091447, 9.997443, 10.001633 
8.5032296e+1, 1.2441948e+2, -1335337.5, -1767706.0, -349.89923, 0.081178956, 0.15346311, -1335337.3, 385363.72, 0.0017451695, 10.003544, 9.997909 
8.502933e+1, 1.3441887e+2, -1195749.3, -1503416.0, -52097.465, 0.052261118, 0.1460388, -1187166.9, 435540.13, 0.0009891815, 10.00326, 9.999189 
8.5027456e+1, 1.4441763e+2, -1166006.6, -1496003.0, -7121.7305, 0.10077083, 0.13196576, -1165853.0, 358866.4, 0.000399723, 10.002997, 9.998693 
8.50243e+1, 1.5441562e+2, -1097752.9, -1427791.8, -22586.97, -0.024493827, 0.034675106, -1096214.3, 330525.06, 0.00008899464, 10.002875, 9.998541 
8.502201e+1, 1.6441493e+2, -1042281.3, -1324455.1, 9995.862, -0.07492402, 0.10524664, -1041927.7, 286818.88, 0.000006071428, 10.002479, 9.998767 
8.5020983e+1, 1.7441493e+2, -1074391.8, -1292139.3, 7639.841, -0.021943785, 0.19760297, -1074124.0, 156623.27, 0.000000076650345, 10.0016, 9.998738 
8.501863e+1, 1.8441413e+2, -1037208.44, -1233324.5, -37539.98, -0.020736663, 0.25413734, -1030268.25, 102487.97, 0.0, 10.001215, 9.998661 
8.501473e+1, 1.9441243e+2, -928149.3, -1135668.6, -54794.156, -0.07956703, 0.19128478, -914569.9, 120204.55, 0.0, 10.001314, 9.9986105 
8.501236e+1, 2.0441121e+2, -788730.25, -934244.7, 3974.272, -0.05965628, 0.17793024, -788621.8, 148164.8, 0.0, 10.001254, 9.999342 
8.501169e+1, 2.144103e+2, -733121.0, -860853.8, -20799.129, 0.051424466, 0.123182215, -729819.5, 108974.234, 0.0, 10.000975, 9.999312 
8.5009974e+1, 2.2440982e+2, -742498.9, -871653.0, -9719.503, 0.06171215, 0.17274909, -741771.5, -972.1896, 0.0, 10.000499, 9.998779 
8.500705e+1, 2.344098e+2, -766337.8, -846934.8, -8262.071, -0.048708595, 0.26674017, -765499.6, -122696.086, 0.0, 9.999714, 9.99866 
8.5004026e+1, 2.4440907e+2, -697274.0, -694665.06, -35525.297, -0.10546641, 0.30526072, -660420.3, -115608.39, 0.0, 9.999211, 9.99928 
8.500096e+1, 2.544073e+2, -609910.56, -603822.6, -42328.98, -0.08116783, 0.16546082, -564428.3, -117600.75, 0.0, 9.999147, 9.999262 
8.499863e+1, 2.644064e+2, -489494.44, -487007.03, 25391.215, -0.04727112, 0.15060109, -462829.06, -113993.87, 0.0000000019213902, 9.999255, 9.999348 
8.499742e+1, 2.7440652e+2, -383421.9, -392096.38, -1327.4336, 0.007935977, 0.20007679, -383223.3, -132389.88, 0.0000006294421, 9.999337, 9.999287 
8.499516e+1, 2.8440633e+2, -396492.44, -450353.7, -15074.501, -0.00040197637, 0.30022597, -392560.47, -239722.77, 0.0000062489003, 9.999047, 9.998341 
8.499157e+1, 2.944052e+2, -363275.2, -379898.78, 26722.64, -0.06948874, 0.3209851, -343601.53, -288746.84, 0.000027811611, 9.998575, 9.998381 
8.4989005e+1, 3.0440304e+2, -219548.89, -87722.74, 95079.02, -0.06730414, 0.18786982, -37944.18, -37944.18, 0.00011222166, 9.998377, 10.000165 
8.498703e+1, 3.1440437e+2, -141720.23, 161218.3, 74534.73, -0.03954036, 0.269787, 178563.61, 178563.61, 0.00032900518, 9.997923, 10.002092 
9.5035136e+1, 1.2441972e+2, -1375901.0, -1844187.4, -45434.39, -0.061685916, -0.017476566, -1371533.6, 349162.84, 0.0016362383, 10.003512, 9.997396 
9.50329e+1, 1.3442045e+2, -1204129.4, -1543242.1, -51267.246, 0.043487426, 0.14037128, -1196548.3, 426144.13, 0.0009229167, 10.003348, 9.998875 
9.5031047e+1, 1.4442028e+2, -1162857.1, -1488155.3, -25139.207, 0.118918315, 0.24492443, -1160925.9, 363771.03, 0.00036888671, 10.002994, 9.998748 
9.5026934e+1, 1.5441827e+2, -1095177.9, -1425387.9, -13541.111, -0.087576695, 0.14342411, -1094623.5, 332095.34, 0.00007923838, 10.002885, 9.998553 
9.502398e+1, 1.6441719e+2, -1032055.2, -1291800.3, -32992.965, -0.15707009, 0.1639268, -1027929.94, 300799.5, 0.0000051224774, 10.002425, 9.999019 
9.502244e+1, 1.744164e+2, -1054159.5, -1250601.8, -10879.036, -0.07166199, 0.14883766, -1053558.9, 177175.36, 0.00000007826353, 10.001599, 9.999024 
9.5020175e+1, 1.8441509e+2, -1051608.0, -1249766.6, -45523.33, -0.018193597, 0.14175355, -1041650.2, 91095.766, 0.0, 10.001155, 9.998576 
9.5016944e+1, 1.9441314e+2, -944654.3, -1157126.9, -37048.15, -0.02312154, 0.061365593, -938379.7, 96386.68, 0.0, 10.001254, 9.99849 
9.5013845e+1, 2.0441216e+2, -828282.44, -992586.94, -17370.936, -0.06450702, 0.09382713, -826466.0, 110310.93, 0.0, 10.001144, 9.998996 
9.5010805e+1, 2.1441202e+2, -772363.9, -919690.7, -16113.378, -0.16489477, 0.14957105, -770622.06, 68156.37, 0.0, 10.000871, 9.9989605 
9.5008713e+1, 2.244117e+2, -736798.6, -834721.75, -47377.957, -0.14472976, 0.21919233, -717628.7, 23154.48, 0.0, 10.00039, 9.999084 
9.5007956e+1, 2.3441096e+2, -756413.56, -805842.4, -26925.563, 0.03942778, 0.20626059, -744579.56, -101786.05, 0.0, 9.999617, 9.998992 
9.5005476e+1, 2.4441037e+2, -688206.7, -652897.5, -52072.945, 0.089552514, 0.22362426, -615567.75, -70768.3, 0.0, 9.999113, 9.999614 
9.500076e+1, 2.5440976e+2, -597584.06, -562864.25, -28051.412, -0.04884669, 0.16728355, -547235.56, -100433.93, 0.0, 9.99907, 9.999584 
9.4997483e+1, 2.64409e+2, -535221.94, -563451.8, 16906.375, -0.11635995, 0.17066601, -527312.9, -178504.67, 0.0000000017799018, 9.999186, 9.998851 
9.499616e+1, 2.744078e+2, -439471.44, -479922.7, 12995.254, -0.08367143, 0.14157566, -435656.4, -184834.61, 0.0000005677249, 9.999217, 9.998738 
9.499371e+1, 2.8440762e+2, -302333.22, -242292.7, -44804.297, -0.08133501, 0.20309572, -218381.16, -65556.48, 0.0000064583187, 9.998993, 9.999793 
9.4989854e+1, 2.9440838e+2, -269610.5, -161736.92, 31645.139, -0.13592726, 0.25600755, -153138.98, -98322.29, 0.000029725905, 9.9984665, 9.999932 
9.4987166e+1, 3.0440748e+2, -246895.25, -129608.695, 73794.89, -0.116873085, 0.17333251, -93993.18, -93993.18, 0.0001135958, 9.998318, 9.999897 
9.498525e+1, 3.144063e+2, -192908.97, 85022.38, 101369.01, -0.07708269, 0.04737871, 118065.82, 118065.82, 0.00032168903, 9.997793, 10.00163 
1.0503896e+2, 1.2442233e+2, -1349350.3, -1799861.4, 17196.51, -0.013295121, -0.0117911035, -1348694.8, 371977.88, 0.0015480418, 10.003532, 9.997702 
1.05035864e+2, 1.3442297e+2, -1256711.4, -1533218.9, -1142.519, 0.04414482, 0.108126044, -1256706.6, 365960.63, 0.00087241904, 10.002826, 9.999202 
1.0503373e+2, 1.444234e+2, -1292298.5, -1559338.6, 83441.414, 0.13948247, 0.25714806, -1268370.0, 256295.81, 0.0003471946, 10.002167, 9.998648 
1.0502982e+2, 1.5442173e+2, -1275865.1, -1539539.9, 51844.625, -0.018992, 0.21453473, -1266037.5, 160649.5, 0.000073446034, 10.001761, 9.998316 
1.05026625e+2, 1.6442046e+2, -1121520.3, -1331192.4, 49794.414, -0.09479043, 0.2266843, -1110295.6, 218404.67, 0.000004420773, 10.00181, 9.999032 
1.0502453e+2, 1.7441888e+2, -937151.44, -1195042.6, 24755.547, -0.055320162, 0.1314413, -934796.6, 295914.72, 0.000000050630582, 10.002419, 9.999003 
1.05022006e+2, 1.8441737e+2, -847670.94, -1149167.3, -240.69429, -0.013789787, 0.10419363, -847670.75, 285053.56, 0.0, 10.002555, 9.998586 
1.0501887e+2, 1.9441599e+2, -852602.3, -1109569.1, -12722.867, 0.021060934, 0.078252956, -851973.9, 182765.31, 0.0, 10.001889, 9.998502 
1.0501537e+2, 2.0441508e+2, -808305.25, -1019678.25, 37904.965, -0.033897914, 0.13572812, -801713.44, 135035.88, 0.0, 10.001446, 9.998662 
1.05011426e+2, 2.1441455e+2, -761849.25, -951431.2, 12004.604, -0.19316281, 0.18601032, -761092.1, 77663.59, 0.0, 10.00111, 9.998621 
1.05008766e+2, 2.244139e+2, -720287.4, -811972.3, -25036.092, -0.17277199, 0.23331504, -713896.4, 26867.365, 0.0, 10.000429, 9.999238 
1.0500784e+2, 2.3441294e+2, -789672.1, -800439.2, -42491.37, 0.09075359, 0.18469603, -752224.6, -109449.59, 0.0, 9.9993, 9.99919 
1.0500529e+2, 2.4441247e+2, -691662.9, -652632.4, -12158.29, 0.1680184, 0.2026699, -649154.8, -104375.74, 0.0, 9.999086, 9.999625 
1.0500078e+2, 2.5441238e+2, -470553.16, -499963.88, -33640.54, 0.009104502, 0.1955683, -448544.3, -1768.1526, 0.0, 9.999952, 9.999584 
1.0499727e+2, 2.6441157e+2, -459600.72, -540783.75, -6103.899, -0.07807921, 0.20292927, -459144.34, -110361.4, 0.00000000014537505, 9.999785, 9.998711 
1.0499521e+2, 2.7440968e+2, -572389.75, -561756.8, -10796.824, -0.049996443, 0.120724075, -555038.5, -304234.7, 0.00000042821608, 9.998398, 9.998569 
1.0499241e+2, 2.8440928e+2, -435358.6, -246326.83, -39883.664, -0.04299213, 0.14392099, -238256.38, -85448.61, 0.0000059800022, 9.997802, 10.000348 
1.04988664e+2, 2.9441062e+2, -283406.34, -105898.61, -65824.47, -0.07247925, 0.19306305, -84153.11, -29361.889, 0.000029321069, 9.99809, 10.000504 
1.04985915e+2, 3.044105e+2, -280530.84, -166495.52, -39138.855, -0.05608748, 0.16973273, -154354.92, -154354.92, 0.000109980174, 9.998184, 9.999703 
1.0498405e+2, 3.1440878e+2, -208385.11, 23850.957, -43811.742, 0.030391974, 0.009454392, 31841.209, 31841.209, 0.0003078243, 9.997927, 10.00114 
1.1504287e+2, 1.2442709e+2, -1269464.4, -1644824.0, -39695.633, -0.05118627, 0.16126908, -1265312.3, 455319.5, 0.0014882531, 10.003572, 9.998751 
1.1503786e+2, 1.3442631e+2, -1182890.1, -1389296.8, -20948.19, -0.075533286, 0.04612106, -1180785.6, 441846.97, 0.000840427, 10.002865, 10.000169 
1.1503525e+2, 1.4442688e+2, -1320977.5, -1607193.8, 51513.68, 0.037583478, 0.1706221, -1311988.3, 212638.64, 0.00033535642, 10.002112, 9.998347 
1.15032345e+2, 1.5442602e+2, -1299582.1, -1590377.6, 53766.176, 0.020633379, 0.24407193, -1289959.5, 136684.17, 0.0000716502, 10.00178, 9.9979515 
1.15029536e+2, 1.6442476e+2, -1145742.9, -1380808.3, 59492.918, -0.021083863, 0.29354638, -1131543.5, 197115.6, 0.0000041980056, 10.001797, 9.998705 
1.1502696e+2, 1.7442231e+2, -957220.0, -1236089.8, 59902.246, -0.089023806, 0.13783646, -944897.3, 285782.34, 0.000000024917117, 10.002417, 9.998723 
1.1502389e+2, 1.8442093e+2, -858725.9, -1146895.0, -33975.89, -0.10906888, 0.13867597, -854774.25, 277917.5, 0.0, 10.002445, 9.998659 
1.1502007e+2, 1.9442086e+2, -850853.1, -1095803.1, -24556.55, -0.0839781, 0.23347679, -848415.56, 186278.63, 0.0, 10.0018425, 9.998623 
1.150165e+2, 2.0441996e+2, -850272.8, -1080856.6, 12149.236, -0.09374965, 0.302868, -849634.44, 87069.81, 0.0, 10.001334, 9.998296 
1.1501316e+2, 2.1441777e+2, -807209.56, -1017523.9, 9731.081, -0.15830407, 0.22539513, -806760.25, 31966.63, 0.0, 10.000986, 9.998229 
1.1500976e+2, 2.2441633e+2, -739722.25, -821952.2, -77786.84, -0.1395336, 0.21845329, -692852.94, 47888.797, 0.0, 10.000302, 9.9992285 
1.150063e+2, 2.3441568e+2, -803580.56, -803665.75, -71178.53, -0.023018874, 0.19388178, -732444.56, -89696.03, 0.0, 9.999182, 9.999228 
1.1500315e+2, 2.4441528e+2, -730895.5, -706755.25, 4379.1973, 0.017014368, 0.2336863, -705985.4, -161233.97, 0.0, 9.998978, 9.999304 
1.1500055e+2, 2.54415e+2, -511671.56, -557315.1, 8394.893, -0.037452206, 0.24520306, -510176.53, -63425.082, 0.0, 9.999836, 9.999246 
1.1499762e+2, 2.6441407e+2, -453431.66, -518340.0, -64578.805, -0.0488937, 0.24683467, -413610.7, -64850.926, 0.0, 9.999739, 9.998894 
1.14994235e+2, 2.7441204e+2, -570506.4, -538321.0, -47618.363, -0.019488202, 0.13282456, -504149.56, -253369.3, 0.0000002594802, 9.998302, 9.998784 
1.1499085e+2, 2.8441122e+2, -470991.9, -300816.56, -42346.97, -0.008975251, 0.11665375, -290861.22, -138073.5, 0.000005001763, 9.997728, 10.000008 
1.1498757e+2, 2.9441175e+2, -339832.13, -188400.9, -40704.336, -0.027719533, 0.12906621, -178153.17, -123373.91, 0.000026475647, 9.997947, 10.000007 
1.1498486e+2, 3.0441204e+2, -296491.56, -179857.58, -50293.07, -0.008622946, 0.18205689, -161166.36, -161166.36, 0.000100772006, 9.998118, 9.999637 
1.14982605e+2, 3.1441173e+2, -259164.81, -54253.797, -17716.883, 0.024698352, 0.15621848, -52733.254, -52733.254, 0.00028477798, 9.997819, 10.000653 
1.2504573e+2, 1.24431744e+2, -1451278.4, -1692511.5, 31130.84, -0.03878432, 0.27366546, -1447325.8, 273263.72, 0.0014562852, 10.002169, 9.999088 
1.2504104e+2, 1.3442983e+2, -1190449.9, -1395335.9, -74148.055, -0.027682241, 0.045702837, -1166431.5, 456167.6, 0.0008261713, 10.002822, 10.000151 
1.250382e+2, 1.4442997e+2, -1198219.6, -1544996.9, -1212.0413, 0.094002284, 0.12688889, -1198215.4, 326380.72, 0.00033346904, 10.002942, 9.99837 
1.2503439e+2, 1.5442936e+2, -1154395.6, -1519604.8, -4255.376, 0.0041527543, 0.22390035, -1154346.0, 272264.13, 0.00007407354, 10.002771, 9.997953 
1.2503138e+2, 1.6442822e+2, -1063474.9, -1357785.1, 54504.168, -0.03977392, 0.29050153, -1053705.4, 274919.38, 0.000004716059, 10.002421, 9.998574 
1.2502946e+2, 1.7442583e+2, -1078037.1, -1314285.0, 44624.168, -0.032585263, 0.15963958, -1069889.1, 160756.64, 0.000000012759114, 10.001649, 9.998572 
1.2502633e+2, 1.844246e+2, -1026422.6, -1214444.9, -23605.104, -0.038621984, 0.17483763, -1023504.44, 109152.69, 0.0, 10.001238, 9.99877 
1.250217e+2, 1.9442482e+2, -934955.94, -1125877.1, -40462.207, -0.06606156, 0.29003513, -926734.75, 107921.25, 0.0, 10.001219, 9.998715 
1.250177e+2, 2.0442379e+2, -895529.9, -1087119.5, 28470.014, -0.07927666, 0.33352143, -891388.75, 45277.508, 0.0, 10.000957, 9.998435 
1.2501456e+2, 2.1442097e+2, -902500.9, -1047366.1, 41549.113, -0.07239898, 0.18121287, -891430.1, -52737.16, 0.0, 10.000266, 9.998369 
1.2501083e+2, 2.2441931e+2, -765101.06, -865072.7, 3080.0613, -0.052922603, 0.15605119, -765006.3, -24297.053, 0.0, 10.000255, 9.998948 
1.2500641e+2, 2.3441899e+2, -548808.3, -712531.25, -38719.098, -0.016401062, 0.19604851, -540113.4, 102600.13, 0.0, 10.0010805, 9.998925 
1.2500277e+2, 2.4441852e+2, -485894.16, -621325.2, 39707.37, -0.0017857179, 0.25452283, -475110.84, 69607.28, 0.0, 10.000793, 9.999021 
1.2500036e+2, 2.5441757e+2, -634580.5, -652773.2, 24447.73, 0.002436536, 0.22919135, -617591.7, -170866.13, 0.0, 9.99913, 9.998941 
1.2499738e+2, 2.644164e+2, -615536.7, -584649.75, -21347.662, 0.018597249, 0.21706422, -573745.1, -225008.45, 0.0, 9.998583, 9.998984 
1.24993734e+2, 2.7441466e+2, -391000.84, -435514.44, -36157.395, 0.05172083, 0.11930877, -370799.16, -120045.336, 0.00000012209664, 9.999487, 9.998903 
1.24989994e+2, 2.8441402e+2, -247472.22, -207172.17, -14316.52, 0.0613185, 0.122926734, -202604.06, -49845.227, 0.000003888246, 9.999331, 9.999876 
1.2498633e+2, 2.9441464e+2, -366750.44, -214449.03, -19978.742, 0.07191179, 0.15691695, -211871.86, -157122.89, 0.00002250982, 9.9978285, 9.99988 
1.249835e+2, 3.0441403e+2, -374818.88, -246742.58, 55832.668, 0.07851666, 0.13461876, -225820.9, -225820.9, 0.000088219014, 9.997663, 9.999428 
1.249815e+2, 3.144143e+2, -155371.89, -82046.61, 17205.51, 0.095547125, 0.18954054, -78210.13, -78210.13, 0.00025421134, 9.998855, 9.999979 
1.3504682e+2, 1.2443615e+2, -1485206.4, -1756181.1, 8375.924, -0.21550319, 0.31389454, -1484947.8, 235599.53, 0.0014504807, 10.002139, 9.998665 
1.3504486e+2, 1.3443352e+2, -1244758.3, -1516003.3, -40371.977, 0.03655562, 0.09975499, -1238876.9, 383689.78, 0.0008289551, 10.002864, 9.999295 
1.3504215e+2, 1.4443277e+2, -1178362.8, -1513698.0, -23232.926, 0.15118057, 0.12665118, -1176760.8, 347811.63, 0.0003411424, 10.00297, 9.998578 
1.3503559e+2, 1.5443178e+2, -1136210.6, -1478092.6, 1603.4873, -0.18704925, 0.15645798, -1136203.1, 290383.28, 0.00008049032, 10.002748, 9.998255 
1.3503177e+2, 1.6443084e+2, -1074989.4, -1351313.0, 12892.583, -0.26936972, 0.22455512, -1074389.1, 254208.34, 0.0000062176173, 10.002303, 9.99867 
1.3503148e+2, 1.744295e+2, -1080342.5, -1306280.8, 31524.479, -0.027809743, 0.19161041, -1076026.4, 154583.14, 0.000000017143847, 10.001611, 9.998638 
1.3502882e+2, 1.844285e+2, -1028198.56, -1210281.0, -37084.15, 0.052470334, 0.22354667, -1020935.5, 111683.34, 0.0, 10.001187, 9.998828 
1.350232e+2, 1.9442786e+2, -938253.1, -1119655.3, -27319.984, -0.07161167, 0.24301253, -934227.94, 100397.11, 0.0, 10.001155, 9.99879 
1.3501859e+2, 2.0442653e+2, -867331.8, -1004502.5, -9755.26, -0.11345839, 0.22554418, -866641.5, 69994.266, 0.0, 10.00085, 9.999057 
1.3501516e+2, 2.144241e+2, -873519.06, -958266.75, 30214.7, -0.06767253, 0.04368605, -863849.94, -25195.365, 0.0, 10.000139, 9.9990425 
1.3501157e+2, 2.2442283e+2, -821161.1, -957428.75, 18568.234, -0.033865847, 0.048305713, -818676.3, -78010.06, 0.0, 10.000145, 9.998368 
1.3500768e+2, 2.3442283e+2, -611065.4, -813589.25, 4689.3447, -0.02601208, 0.18512791, -610956.9, 31713.697, 0.0, 10.000955, 9.998291 
1.3500375e+2, 2.4442206e+2, -516224.06, -662381.56, -28725.088, -0.013166454, 0.2578105, -510781.28, 33898.934, 0.0, 10.000701, 9.998781 
1.3499978e+2, 2.5442004e+2, -667964.2, -692473.4, -24368.61, 0.002813894, 0.14450784, -652942.3, -206243.67, 0.0, 9.999004, 9.998727 
1.349962e+2, 2.6441848e+2, -629499.44, -596509.0, -4492.6626, 0.014220613, 0.11246335, -595908.1, -247194.36, 0.0, 9.998513, 9.998934 
1.3499323e+2, 2.7441737e+2, -410378.03, -446361.34, 10365.233, 0.020475598, 0.07537356, -407605.84, -156879.84, 0.000000046518082, 9.999365, 9.998884 
1.3498944e+2, 2.8441757e+2, -240490.03, -186844.75, -77159.92, 0.040707096, 0.1571048, -131978.3, 20744.145, 0.0000029362805, 9.999302, 10.00003 
1.3498455e+2, 2.9441908e+2, -365483.97, -195135.47, -60868.977, 0.07526207, 0.25950342, -175621.2, -120918.75, 0.000019015239, 9.9977455, 10.000056 
1.3498133e+2, 3.044163e+2, -403095.1, -288439.66, 88942.77, 0.07270194, 0.022776162, -239950.16, -239950.16, 0.000075927965, 9.9976015, 9.999164 
1.349799e+2, 3.1441635e+2, -236648.33, -223876.36, 89518.625, -0.014346231, 0.091853164, -140516.22, -140516.22, 0.0002226974, 9.99874, 9.99906 
1.4504978e+2, 1.24439865e+2, -1491294.5, -1775195.4, 101289.4, -0.119004674, 0.2346787, -1458861.9, 261645.97, 0.0014659849, 10.002185, 9.99851 
1.4504726e+2, 1.344376e+2, -1357078.0, -1619906.1, 23766.98, 0.027229434, 0.101206966, -1354946.0, 267580.47, 0.0008466132, 10.002314, 9.99884 
1.450446e+2, 1.4443643e+2, -1266259.1, -1568963.6, 65115.797, 0.13653179, 0.11549571, -1252846.1, 271691.03, 0.00035647568, 10.002415, 9.998473 
1.4503859e+2, 1.5443514e+2, -1162210.6, -1497691.9, 36361.02, -0.14262755, 0.12389234, -1158314.9, 268237.16, 0.00008921642, 10.002592, 9.998201 
1.4503454e+2, 1.6443418e+2, -1063999.3, -1342569.1, 36309.19, -0.21764319, 0.18690337, -1059344.5, 269218.38, 0.000008328298, 10.002372, 9.998687 
1.4503306e+2, 1.7443319e+2, -1075708.1, -1303878.4, 19297.197, -0.02274235, 0.18667334, -1074087.6, 156484.36, 0.0000000715251, 10.001639, 9.998636 
1.4502998e+2, 1.8443201e+2, -1028122.4, -1221191.4, -11187.275, 0.05385906, 0.20834537, -1027476.3, 105106.51, 0.0, 10.001244, 9.9987335 
1.4502467e+2, 1.944305e+2, -938861.56, -1134777.3, -39152.777, -0.03298829, 0.1542266, -931326.9, 103270.16, 0.0, 10.001208, 9.998674 
1.4502013e+2, 2.0442897e+2, -804183.2, -978312.1, -33982.79, -0.06060167, 0.1244457, -797786.2, 138823.27, 0.0, 10.001303, 9.999012 
1.4501646e+2, 2.1442728e+2, -683371.94, -872736.6, -75915.61, -0.010900733, 0.018936435, -656695.6, 181925.72, 0.0, 10.001475, 9.9989805 
1.4501244e+2, 2.244262e+2, -698232.06, -887271.7, -68543.47, 0.004951405, 0.042131137, -675994.9, 64635.82, 0.0, 10.000956, 9.99846 
1.4500795e+2, 2.3442572e+2, -804109.0, -899775.7, -55237.07, -0.018644093, 0.12335013, -778872.8, -136234.34, 0.0, 9.999601, 9.998359 
1.4500381e+2, 2.4442479e+2, -712560.06, -773060.2, -29598.729, -0.003834329, 0.1857033, -700488.1, -155838.4, 0.0, 9.999417, 9.998645 
1.4500016e+2, 2.5442308e+2, -430204.22, -591327.8, -45964.3, 0.06365954, 0.11781807, -418014.1, 28653.225, 0.0, 10.000701, 9.998602 
1.4499621e+2, 2.6442176e+2, -329585.9, -430640.22, -2302.8926, 0.073206484, 0.10485651, -329533.44, 19147.445, 0.0, 10.000471, 9.999138 
1.4499201e+2, 2.7442083e+2, -536565.44, -485737.0, 5895.767, 0.020808091, 0.07007561, -485062.1, -234372.42, 0.00000002138944, 9.998388, 9.9991 
1.4498766e+2, 2.8442115e+2, -489187.16, -356013.8, -50048.945, 0.016460823, 0.17010504, -339301.75, -186616.39, 0.0000023054517, 9.997799, 9.999594 
1.4498305e+2, 2.9442248e+2, -191960.22, -156339.83, -112590.71, 0.08982088, 0.30380708, -60159.36, -5490.8438, 0.000016570593, 9.999134, 9.999645 
1.4498007e+2, 3.044185e+2, -127471.805, -118935.71, 67099.805, 0.109898046, -0.049552772, -55968.348, -55968.348, 0.0000664134, 9.999358, 9.999468 
1.4497872e+2, 3.1441987e+2, -369927.44, -307078.63, 54068.67, 0.049289558, 0.12099425, -275965.72, -275965.72, 0.0001967113, 9.997921, 9.998876 
1.5505385e+2, 1.2444328e+2, -1475641.0, -1768589.1, 76565.32, -0.00382905, 0.0707485, -1456836.9, 263630.6, 0.0014879738, 10.002281, 9.99852 
1.5504783e+2, 1.3444221e+2, -1363595.3, -1636018.6, 33146.785, -0.17800564, 0.06955916, -1359620.3, 262857.3, 0.0008684092, 10.00232, 9.998735 
1.5504515e+2, 1.44441e+2, -1294771.0, -1616580.6, 54771.945, -0.0852612, 0.10086404, -1285704.3, 238785.98, 0.00037251608, 10.00237, 9.998164 
1.5504286e+2, 1.5443957e+2, -1190266.9, -1543471.1, 56932.29, -0.01121572, 0.12575851, -1181316.9, 245189.44, 0.00009664872, 10.002552, 9.997899 
1.5503924e+2, 1.6443832e+2, -1080247.0, -1364025.4, -2627.1436, -0.016730683, 0.18402712, -1080222.6, 248296.77, 0.000009881803, 10.002313, 9.998575 
1.5503395e+2, 1.7443703e+2, -1091290.6, -1320010.5, 5262.5557, -0.12999281, 0.16268604, -1091169.6, 139362.06, 0.00000020107916, 10.001571, 9.998563 
1.550294e+2, 1.8443526e+2, -1058287.6, -1268964.8, -26100.91, -0.15650508, 0.14167301, -1055102.3, 77446.07, 0.0, 10.001175, 9.998441 
1.5502569e+2, 1.9443272e+2, -972335.5, -1185387.1, -24973.852, -0.081839554, 0.016918115, -969447.2, 65124.867, 0.0, 10.001135, 9.998362 
1.5502192e+2, 2.0443112e+2, -869227.0, -1091149.9, -38582.492, -0.038430084, 0.030739756, -862710.56, 73876.695, 0.0, 10.0012, 9.998294 
1.5501796e+2, 2.1443054e+2, -754269.4, -987975.1, -56644.523, -0.03742826, 0.112516195, -741263.9, 97329.2, 0.0, 10.001338, 9.998259 
1.5501302e+2, 2.2442946e+2, -668418.6, -802437.0, -127947.65, -0.05863203, 0.14379553, -590995.0, 149607.28, 0.0, 10.000849, 9.999097 
1.5500687e+2, 2.3442759e+2, -770227.7, -805999.44, -92179.57, -0.115491025, 0.011023936, -694214.8, -51597.11, 0.0, 9.999491, 9.999059 
1.5500264e+2, 2.4442667e+2, -724981.7, -778806.4, 830.7196, -0.08995511, 0.0369696, -724968.9, -180341.73, 0.0, 9.999331, 9.998645 
1.5500104e+2, 2.5442663e+2, -452390.63, -610830.8, 17136.373, 0.051834047, 0.14098568, -450558.4, -3925.9622, 0.0, 10.000579, 9.998531 
1.5499693e+2, 2.6442617e+2, -308452.22, -369731.0, -85562.31, 0.06973269, 0.19705853, -248208.81, 100429.36, 0.0, 10.000403, 9.999584 
1.549897e+2, 2.744251e+2, -525428.75, -435409.94, -57076.62, -0.07726111, 0.09642692, -407731.03, -157085.61, 0.000000019825112, 9.99827, 9.999501 
1.549843e+2, 2.8442472e+2, -568078.1, -510604.78, -17879.4, -0.13010246, 0.1598872, -505496.66, -352848.66, 0.0000019865888, 9.997758, 9.998553 
1.5498139e+2, 2.944248e+2, -278480.94, -315212.9, -46629.676, -0.030275129, 0.2799781, -246730.7, -192081.94, 0.000014949104, 9.999037, 9.998606 
1.5497929e+2, 3.0442068e+2, -75536.24, 7658.7065, 12395.873, 0.06892578, -0.077789634, 9466.388, 9466.388, 0.000059797247, 9.999297, 10.00035 
1.5497705e+2, 3.1442484e+2, -356089.6, -242694.78, 22251.018, 0.029840596, 0.27741995, -238484.86, -238484.86, 0.00017773658, 9.997783, 9.999372 
1.65057e+2, 1.2444709e+2, -1478329.4, -1794238.0, 40664.813, 0.09296662, 0.066091664, -1473178.9, 247250.95, 0.0014964563, 10.00236, 9.9983 
1.6505039e+2, 1.3444665e+2, -1306801.6, -1631771.1, -60916.547, -0.16779833, 0.13935214, -1295757.9, 326678.25, 0.0008776996, 10.002787, 9.998546 
1.650476e+2, 1.4444508e+2, -1242672.9, -1563387.0, -7046.7754, -0.0814131, 0.13650236, -1242518.1, 281934.22, 0.00037921302, 10.002642, 9.998383 
1.6504577e+2, 1.544436e+2, -1230465.8, -1539398.8, 2701.4387, 0.05267232, 0.1331507, -1230442.1, 196024.3, 0.00009882513, 10.002182, 9.998101 
1.65042e+2, 1.6444218e+2, -1168827.1, -1422871.0, -23193.352, 0.065423176, 0.17191264, -1166727.0, 161753.13, 0.000009884257, 10.001763, 9.998435 
1.6503572e+2, 1.7444073e+2, -1135701.6, -1357475.3, -46705.652, -0.089179076, 0.14666851, -1126266.9, 104228.016, 0.0000002904704, 10.001321, 9.9984255 
1.6503079e+2, 1.8443896e+2, -1054592.0, -1273261.4, -17735.023, -0.1299097, 0.13586806, -1053162.9, 79349.164, 0.0, 10.001244, 9.99836 
1.6502757e+2, 1.9443662e+2, -901438.1, -1158213.6, -23196.805, -0.02412865, 0.035672788, -899359.44, 135175.16, 0.0, 10.001656, 9.9982815 
1.650237e+2, 2.0443518e+2, -816120.5, -1063964.0, 8883.547, 0.0065587065, 0.06838377, -815802.5, 120746.18, 0.0, 10.001577, 9.998295 
1.6501884e+2, 2.1443473e+2, -815890.3, -1016925.44, 19967.727, -0.05234603, 0.16517457, -813926.2, 24627.16, 0.0, 10.000915, 9.998264 
1.6501354e+2, 2.244334e+2, -688484.56, -815054.75, -29908.928, -0.07914484, 0.17484559, -681772.94, 58791.555, 0.0, 10.000729, 9.999064 
1.6500752e+2, 2.3443098e+2, -535490.75, -691179.2, -76921.89, -0.07060641, -0.009691011, -503896.84, 138687.11, 0.0, 10.001109, 9.999061 
1.6500293e+2, 2.444299e+2, -540899.1, -686001.0, 25792.416, -0.049793553, -0.0009285189, -536450.8, 8144.068, 0.0, 10.000584, 9.998679 
1.6500026e+2, 2.5443032e+2, -681629.0, -710806.7, 21288.66, 0.0061800703, 0.14547858, -670410.06, -223813.47, 0.0, 9.998973, 9.99861 
1.649958e+2, 2.6443014e+2, -573858.25, -471783.66, -73814.305, 0.02237419, 0.21539281, -433080.44, -84481.336, 0.0, 9.998448, 9.99983 
1.6498908e+2, 2.7442908e+2, -351643.16, -314094.63, -87650.3, -0.0069547812, 0.08325294, -243230.47, 7373.853, 0.000000024295247, 9.999302, 9.999826 
1.649836e+2, 2.8442842e+2, -370075.78, -441499.7, 33164.484, -0.038781285, 0.110836506, -357051.44, -204441.97, 0.0000019697127, 9.999242, 9.998312 
1.6498014e+2, 2.9442796e+2, -405752.2, -396032.97, 43694.184, -0.008586321, 0.20732532, -356929.0, -302312.16, 0.000013995548, 9.998248, 9.998438 
1.6497798e+2, 3.044245e+2, -255890.55, -68244.08, 116023.76, 0.085999854, -0.08694084, -12855.009, -12855.009, 0.000055183133, 9.997969, 10.000489 
1.6497582e+2, 3.1442893e+2, -257297.05, -157225.03, -3353.3972, 0.11879531, 0.2854313, -157112.78, -157112.78, 0.00016346599, 9.998261, 9.99974 
1.7505835e+2, 1.244514e+2, -1508252.5, -1854831.0, 27575.52, -0.077658564, 0.21848816, -1506072.1, 214321.81, 0.0014785845, 10.002353, 9.997882 
1.7505433e+2, 1.3445106e+2, -1329806.9, -1664341.6, -37530.184, -0.083658084, 0.31683132, -1325648.1, 296752.6, 0.00086354057, 10.002741, 9.99833 
1.7505157e+2, 1.444488e+2, -1203241.1, -1479922.1, -37332.37, 0.013755261, 0.22965011, -1198292.4, 326129.97, 0.00037008742, 10.002616, 9.998978 
1.7504697e+2, 1.5444727e+2, -1183252.3, -1436879.0, 556.892, -0.08025996, 0.1499384, -1183251.0, 243181.2, 0.000094032526, 10.002162, 9.998816 
1.7504245e+2, 1.6444585e+2, -1178710.3, -1439785.4, -52768.51, -0.098347574, 0.15609153, -1168448.0, 159996.05, 0.000008393363, 10.001736, 9.998337 
1.7503794e+2, 1.7444439e+2, -1152474.3, -1383746.5, -50483.684, -0.032362506, 0.14822724, -1141934.6, 88525.83, 0.00000020811186, 10.0012865, 9.9982605 
1.7503373e+2, 1.8444327e+2, -1050589.6, -1258396.4, -15292.596, 0.00906932, 0.20302838, -1049470.3, 83003.0, 0.0, 10.001201, 9.998489 
1.7502989e+2, 1.944423e+2, -901794.6, -1137882.8, 4985.943, 0.010062706, 0.22388394, -901689.4, 132794.3, 0.0, 10.001563, 9.998467 
1.7502496e+2, 2.044412e+2, -784006.7, -974472.3, -28402.734, -0.049057715, 0.2492993, -779861.4, 156631.7, 0.0, 10.001471, 9.998962 
1.7501874e+2, 2.1443975e+2, -786743.25, -929510.6, 8027.757, -0.18148495, 0.1732674, -786293.25, 52210.11, 0.0, 10.000796, 9.998921 
1.7501357e+2, 2.2443804e+2, -750260.3, -917993.06, -29840.156, -0.1758952, 0.13924381, -745109.8, -4592.2505, 0.0, 10.000617, 9.99841 
1.7500952e+2, 2.3443583e+2, -604843.44, -808000.06, -49314.137, -0.008919183, 0.050301712, -593505.7, 49032.785, 0.0, 10.000987, 9.998318 
1.7500424e+2, 2.4443449e+2, -551412.94, -689250.25, -42514.855, -0.0033463421, 0.07245208, -539354.5, 5198.386, 0.0, 10.0005045, 9.99869 
1.7499746e+2, 2.544341e+2, -698532.0, -717110.4, -27175.764, -0.1989458, 0.13137016, -679101.6, -232541.06, 0.0, 9.998849, 9.998627 
1.749926e+2, 2.6443368e+2, -564647.6, -448947.4, -60080.36, -0.17296973, 0.16417888, -423393.16, -74828.79, 0.0, 9.998425, 9.999999 
1.7498983e+2, 2.7443287e+2, -350856.88, -294905.7, -44173.688, 0.106125675, 0.039404504, -270594.1, -20027.828, 0.000000035492793, 9.999218, 10.000003 
1.7498517e+2, 2.8443226e+2, -331066.84, -357183.56, -14445.202, 0.16285726, 0.038968373, -324652.53, -172083.48, 0.0000021240596, 9.99923, 9.998891 
1.7497869e+2, 2.9443198e+2, -375927.13, -309079.22, 23134.553, -0.01271682, 0.08798427, -301853.84, -247281.05, 0.000013429294, 9.998154, 9.99907 
1.7497578e+2, 3.044298e+2, -292786.06, -144298.19, 119428.88, 0.043262634, -0.08433363, -77917.01, -77917.01, 0.000050919698, 9.997962, 9.999976 
1.7497419e+2, 3.144325e+2, -254055.81, -121341.16, 33003.426, 0.064860806, 0.17279048, -113586.94, -113586.94, 0.00014908816, 9.998158, 10.000029 
1.8506134e+2, 1.244548e+2, -1445232.0, -1830031.9, 89065.9, -0.02575935, 0.24098012, -1425616.8, 294746.28, 0.0014297328, 10.002809, 9.99783 
1.8505715e+2, 1.3445473e+2, -1374686.1, -1659942.9, -7448.238, -0.04435966, 0.34451964, -1374491.9, 247874.8, 0.00082590414, 10.002323, 9.998557 
1.8505405e+2, 1.4445248e+2, -1301747.3, -1509839.1, 24525.59, 0.046993956, 0.23861724, -1298895.8, 225491.86, 0.00034715154, 10.001853, 9.999135 
1.8504891e+2, 1.544509e+2, -1237309.0, -1441435.8, -2668.9717, -0.06936458, 0.13476574, -1237274.1, 189123.44, 0.0000844504, 10.001682, 9.999019 
1.8504412e+2, 1.6444969e+2, -1189596.4, -1415425.4, -34802.055, -0.08858482, 0.13743351, -1184354.8, 144052.31, 0.000006352812, 10.00157, 9.998569 
1.850398e+2, 1.744486e+2, -1084935.4, -1326930.3, -28400.469, 0.015820615, 0.14380111, -1081647.0, 148772.44, 0.000000056960435, 10.001659, 9.998466 
1.8503563e+2, 1.844477e+2, -998524.0, -1227674.6, 48187.426, 0.068513215, 0.21055165, -988803.2, 143626.5, 0.0, 10.00155, 9.998527 
1.8503143e+2, 1.9444697e+2, -966095.56, -1163920.9, 32391.291, 0.037964076, 0.2513718, -960926.94, 73511.46, 0.0, 10.00111, 9.998505 
1.8502627e+2, 2.0444588e+2, -844968.5, -983084.6, -6956.042, -0.031322856, 0.26618463, -844619.0, 91828.86, 0.0, 10.000948, 9.999155 
1.8501994e+2, 2.1444422e+2, -727982.2, -877098.6, -31456.197, -0.14931205, 0.14944583, -721618.06, 116841.65, 0.0, 10.001084, 9.999144 
1.8501464e+2, 2.2444275e+2, -724131.7, -905506.1, -39833.38, -0.13250081, 0.12652232, -715769.06, 24703.078, 0.0, 10.000799, 9.998412 
1.8501055e+2, 2.3444131e+2, -753876.94, -882134.6, -29740.662, 0.053656824, 0.11589584, -747316.2, -104828.89, 0.0, 9.999971, 9.9983 
1.850048e+2, 2.4444017e+2, -639017.8, -696573.3, 28831.594, 0.046986163, 0.1439267, -627059.6, -82560.23, 0.0, 9.999743, 9.99901 
1.8499708e+2, 2.544393e+2, -472696.56, -566882.6, 43288.355, -0.18320677, 0.11753161, -455823.72, -9315.223, 0.0, 10.000213, 9.9990015 
1.849918e+2, 2.6443857e+2, -356589.1, -380463.63, 48339.438, -0.16636771, 0.118232235, -318734.8, 29779.326, 0.0, 10.000009, 9.999704 
1.8498941e+2, 2.7443776e+2, -388965.5, -348401.28, 788.94635, 0.15366185, 0.029109089, -348385.94, -97867.44, 0.000000044067633, 9.999118, 9.999686 
1.8498467e+2, 2.8443727e+2, -364888.38, -331863.3, 14430.811, 0.21740724, 0.03746155, -326446.16, -173925.08, 0.000002141611, 9.998789, 9.99929 
1.8497764e+2, 2.9443744e+2, -213580.25, -186927.52, 7938.525, 0.031238548, 0.08782825, -184742.2, -130222.6, 0.000012353572, 9.999045, 9.9994955 
1.8497458e+2, 3.0443606e+2, -259084.16, -136353.34, 126101.86, 0.122149944, -0.022547148, -57478.277, -57478.277, 0.00004451732, 9.998233, 9.999894 
1.8497136e+2, 3.1443697e+2, -473603.44, -155442.31, 33619.684, 0.07263232, 0.07491589, -151928.58, -151928.58, 0.00012893318, 9.99629, 10.000722 
1.950652e+2, 1.24457404e+2, -1435287.9, -1791310.0, 39873.75, 0.009901191, 0.1551593, -1430876.8, 289459.1, 0.0013506947, 10.002746, 9.998123 
1.950585e+2, 1.3445769e+2, -1340517.5, -1571452.5, -19834.947, -0.17009048, 0.23297213, -1338826.3, 283506.94, 0.00077082973, 10.002273, 9.999182 
1.9505464e+2, 1.4445615e+2, -1318878.8, -1539588.4, 1338.786, -0.118515894, 0.17453384, -1318870.6, 205477.14, 0.0003170448, 10.001816, 9.998954 
1.9505118e+2, 1.544547e+2, -1256989.3, -1476770.4, 2333.1155, -0.043611888, 0.10566597, -1256964.5, 169396.2, 0.000073711046, 10.0016575, 9.998789 
1.9504663e+2, 1.6445388e+2, -1156628.3, -1342808.0, -42087.816, -0.024447773, 0.13477205, -1147556.0, 180811.52, 0.0000047225935, 10.001536, 9.999092 
1.9504103e+2, 1.7445338e+2, -1049600.1, -1244844.5, -9812.219, -0.06091848, 0.14252603, -1049108.3, 181262.67, 0.0000000036456946, 10.001617, 9.999054 
1.9503611e+2, 1.8445231e+2, -1014147.2, -1245541.1, 19789.494, -0.06734855, 0.16529416, -1012466.94, 119914.16, 0.0, 10.001478, 9.9984455 
1.9503188e+2, 1.9445048e+2, -987370.9, -1191308.3, 28163.53, -0.057249304, 0.1113462, -983553.0, 50847.008, 0.0, 10.001033, 9.99836 
1.9502722e+2, 2.0444916e+2, -879889.44, -1025220.8, -12921.441, -0.05800841, 0.12111719, -878749.5, 57663.797, 0.0, 10.000821, 9.998924 
1.9502203e+2, 2.1444817e+2, -762412.5, -918110.8, -13941.905, -0.07660745, 0.09411766, -761173.94, 77248.52, 0.0, 10.000952, 9.998925 
1.9501638e+2, 2.244476e+2, -702173.44, -827574.94, -82440.664, -0.059852093, 0.14321274, -661298.9, 79129.35, 0.0, 10.000666, 9.99901 
1.950102e+2, 2.3444736e+2, -728195.25, -794871.06, -49044.824, -0.0053825467, 0.19020344, -702230.44, -59799.23, 0.0, 9.999831, 9.998964 
1.9500427e+2, 2.4444687e+2, -607261.3, -603549.44, 31866.379, -0.004628509, 0.21474333, -573485.0, -29050.402, 0.0, 9.999632, 9.999701 
1.9499865e+2, 2.5444588e+2, -444765.25, -474341.66, 73032.5, -0.07433007, 0.10890088, -385038.78, 61401.074, 0.0, 10.000071, 9.999702 
1.949931e+2, 2.64445e+2, -416762.25, -498344.03, 4998.451, -0.06799013, 0.09003422, -416457.16, -68010.06, 0.0, 9.9999695, 9.998922 
1.9498739e+2, 2.7444372e+2, -462598.9, -488657.3, -16648.682, 0.010092521, 0.04914092, -454487.2, -204025.98, 0.000000036761158, 9.999053, 9.998764 
1.9498172e+2, 2.8444326e+2, -358824.38, -308030.7, 12187.3, 0.01571187, 0.10103992, -305257.88, -152790.97, 0.0000018181237, 9.998745, 9.999475 
1.9497669e+2, 2.9444435e+2, -214687.25, -158031.56, 32300.14, -0.0017347313, 0.22015408, -143397.03, -88940.49, 0.000010151812, 9.998924, 9.999748 
1.9497396e+2, 3.0444333e+2, -237607.42, -84023.31, 47457.703, 0.20638947, 0.111840904, -70542.16, -70542.16, 0.00003534469, 9.998206, 10.000259 
1.9496651e+2, 3.1444284e+2, -392723.53, 44979.27, 14421.352, -0.10260541, 0.020318506, 45453.906, 45453.906, 0.000103030594, 9.996177, 10.002135 
2.0506904e+2, 1.2446199e+2, -1356573.8, -1745198.1, 167833.06, 0.10673549, 0.11865136, -1294127.0, 426161.75, 0.0012481128, 10.0032625, 9.998196 
2.0506077e+2, 1.3446176e+2, -1315091.5, -1542351.1, 12417.77, -0.16206565, 0.12885594, -1314415.0, 307874.9, 0.0007037624, 10.002347, 9.99937 
2.050562e+2, 1.4446093e+2, -1360501.9, -1560858.5, 75861.02, -0.121827394, 0.13438752, -1335019.6, 189278.36, 0.00028324383, 10.001553, 9.998933 
2.0505321e+2, 1.544601e+2, -1314595.4, -1509837.0, 54920.97, 0.020478196, 0.13316537, -1300206.6, 126100.92, 0.000063005726, 10.001292, 9.998737 
2.0504867e+2, 1.6445939e+2, -1194552.9, -1364131.9, 37248.54, 0.0446869, 0.17914566, -1186731.9, 141582.6, 0.0000035155435, 10.001288, 9.999068 
2.0504242e+2, 1.7445843e+2, -1068808.1, -1258826.8, -705.6766, -0.06921289, 0.14545776, -1068805.5, 161516.72, 0.0000000004928599, 10.001501, 9.99902 
2.0503715e+2, 1.8445723e+2, -1009540.3, -1203555.5, 22681.574, -0.099435136, 0.13888526, -1006924.0, 125409.09, 0.0, 10.00134, 9.998796 
2.0503289e+2, 1.9445568e+2, -1002104.8, -1159556.1, 40641.004, -0.038149364, 0.07544819, -992233.5, 42114.523, 0.0, 10.000754, 9.998711 
2.0502815e+2, 2.0445465e+2, -962854.9, -1054022.4, 67738.58, -0.009239944, 0.09143418, -926790.6, 9567.79, 0.0, 10.000209, 9.9990225 
2.050229e+2, 2.1445403e+2, -951273.7, -1000593.9, 67972.99, -0.012002184, 0.09555272, -903625.8, -65260.3, 0.0, 9.999626, 9.998999 
2.0501709e+2, 2.2445363e+2, -800623.25, -852876.6, 37577.203, -0.009763401, 0.15048566, -780982.56, -40612.64, 0.0, 9.999883, 9.999214 
2.0501067e+2, 2.3445335e+2, -524114.25, -676400.5, 14433.113, 0.00019585084, 0.17050153, -522758.4, 119614.32, 0.0, 10.001131, 9.999157 
2.0500447e+2, 2.4445295e+2, -429657.66, -508611.8, 39542.758, 0.0011024204, 0.1901124, -413259.25, 131115.3, 0.0, 10.000811, 9.999782 
2.0499867e+2, 2.5445226e+2, -651893.1, -567312.3, 6498.8047, 0.0008227535, 0.10500909, -566815.94, -120439.2, 0.0, 9.998619, 9.999762 
2.0499286e+2, 2.6445144e+2, -682839.2, -639579.4, 7710.709, 0.00865494, 0.096539475, -638246.06, -289862.7, 0.0, 9.998204, 9.9987955 
2.0498677e+2, 2.7445003e+2, -338312.8, -442782.1, 16114.928, 0.0052932464, 0.05336086, -335883.5, -85483.41, 0.00000002096579, 9.999976, 9.998624 
2.0498072e+2, 2.8444952e+2, -176984.34, -225920.2, 48373.31, -0.014827156, 0.113610454, -147242.89, 5164.101, 0.0000012828043, 10.000038, 9.999409 
2.0497535e+2, 2.9445082e+2, -344734.9, -221135.22, 18429.922, 0.026274681, 0.25416654, -218445.67, -164050.47, 0.000007381431, 9.998049, 9.999729 
2.0497261e+2, 3.0444968e+2, -356564.8, -134386.94, 51100.977, 0.3047461, 0.13417073, -123197.26, -123197.26, 0.00002618385, 9.997357, 10.000336 
2.0496377e+2, 3.144493e+2, -64511.684, 225926.22, -26944.754, -0.08957871, 0.047092114, 228404.81, 228404.81, 0.000078949044, 9.9983635, 10.002317 
2.1507184e+2, 1.2446848e+2, -1374090.6, -1769670.1, 106536.97, -0.005872738, 0.13189816, -1347223.1, 372999.53, 0.0011286415, 10.003203, 9.998057 
2.1506356e+2, 1.3446704e+2, -1320693.6, -1564422.8, -10521.42, -0.14915907, 0.03643618, -1320240.3, 301995.53, 0.00062779407, 10.002385, 9.999201 
2.1505827e+2, 1.4446701e+2, -1362776.1, -1562559.5, 49030.69, -0.10807806, 0.13139874, -1351391.9, 172844.77, 0.00024660726, 10.001535, 9.998928 
2.1505463e+2, 1.5446717e+2, -1309787.5, -1505168.1, 59473.914, -0.0025596751, 0.22376297, -1293107.6, 133129.95, 0.000052325075, 10.001308, 9.998762 
2.1504979e+2, 1.6446625e+2, -1244910.3, -1455927.6, 31884.256, -0.0009989252, 0.27676547, -1240197.9, 88050.336, 0.000002586899, 10.001232, 9.998464 
2.1504362e+2, 1.7446373e+2, -1121491.5, -1352119.4, 20881.879, -0.12739064, 0.14726369, -1119616.0, 110657.69, 0.000000000052014764, 10.001437, 9.9984045 
2.1503828e+2, 1.8446244e+2, -971987.8, -1105079.6, -7669.0815, -0.14462003, 0.13083771, -971547.4, 160738.39, 0.0, 10.0012455, 9.99952 
2.1503407e+2, 1.944625e+2, -950732.25, -1039454.1, 33452.332, -0.026591426, 0.14277272, -939532.9, 94750.08, 0.0, 10.000692, 9.999564 
2.1502875e+2, 2.0446232e+2, -948618.44, -1000994.0, 33269.973, 0.002806133, 0.18063378, -932466.06, 3817.3652, 0.0, 10.000107, 9.999434 
2.1502215e+2, 2.144617e+2, -941729.1, -952242.9, 56623.477, -0.07719298, 0.1458285, -890119.0, -51829.188, 0.0, 9.999501, 9.999389 
2.1501635e+2, 2.2446078e+2, -835824.7, -890149.0, 69129.51, -0.09515818, 0.13614926, -788712.56, -48414.03, 0.0, 9.999735, 9.999024 
2.1501154e+2, 2.3445933e+2, -563065.0, -717441.9, 75947.445, -0.051396415, 0.05682162, -531966.44, 110345.17, 0.0, 10.000966, 9.998949 
2.1500508e+2, 2.4445851e+2, -480509.56, -597761.44, -48456.1, -0.047509044, 0.07411195, -463076.34, 81242.15, 0.0, 10.000735, 9.999209 
2.1499678e+2, 2.544584e+2, -710724.2, -660783.94, -63466.797, -0.0804487, 0.11025953, -617551.8, -171233.19, 0.0, 9.998496, 9.99918 
2.1499076e+2, 2.6445794e+2, -657543.25, -570443.56, 54439.38, -0.049975853, 0.14270523, -544278.06, -195955.31, 0.0, 9.998136, 9.999297 
2.1498714e+2, 2.7445656e+2, -317347.75, -371829.94, 97232.51, 0.01491131, 0.044847287, -243612.42, 6723.4478, 0.00000000626477, 9.999859, 9.999165 
2.1498127e+2, 2.8445598e+2, -194462.11, -255964.55, -32171.24, 0.0059106387, 0.07560185, -180709.11, -28367.053, 0.00000075455597, 10.000012, 9.999214 
2.1497338e+2, 2.9445672e+2, -377686.53, -274704.63, -45534.996, -0.010223971, 0.19002332, -257458.72, -203122.98, 0.0000049684672, 9.997983, 9.999394 
2.1497028e+2, 3.0445507e+2, -378907.4, -184473.81, 70490.23, 0.3113481, 0.054184876, -161607.4, -161607.4, 0.000019575336, 9.997369, 9.99999 
2.1496268e+2, 3.1445634e+2, -166340.23, 28446.15, 92155.87, -0.09865405, 0.16614349, 65135.535, 65135.535, 0.00006230811, 9.9983, 10.000999 
2.2507432e+2, 1.24475926e+2, -1472188.6, -1820670.6, 163798.02, -0.027809504, 0.19091657, -1407285.9, 312864.44, 0.0009987325, 10.002527, 9.9980345 
2.250667e+2, 1.3447362e+2, -1380895.3, -1621330.8, -31277.627, -0.04661714, 0.031495605, -1376893.0, 245278.69, 0.0005469882, 10.0021105, 9.998926 
2.2506078e+2, 1.4447364e+2, -1326537.9, -1556091.5, 76750.164, -0.01890488, 0.15000017, -1303241.1, 220930.14, 0.00020906689, 10.001831, 9.998841 
2.2505605e+2, 1.5447314e+2, -1226911.8, -1472241.4, 57256.316, -0.012751499, 0.19008665, -1214207.0, 211970.34, 0.000042237294, 10.001915, 9.998701 
2.2505082e+2, 1.6447224e+2, -1179985.8, -1401808.6, 71423.35, -0.031880077, 0.23645823, -1158978.1, 169209.67, 0.0000020119714, 10.001587, 9.998654 
2.2504498e+2, 1.7447041e+2, -1215216.0, -1377567.5, 90636.39, -0.09279125, 0.15516616, -1174718.1, 55489.59, 0.0, 10.000714, 9.998569 
2.2503966e+2, 1.8446955e+2, -1102766.9, -1137337.3, 100709.99, -0.07359527, 0.15813814, -1017869.56, 114346.76, 0.0, 10.00021, 9.999799 
2.2503507e+2, 1.944698e+2, -1031746.7, -1047827.8, 75567.414, 0.044623908, 0.16235168, -963793.25, 70418.26, 0.0, 10.000014, 9.999836 
2.2502947e+2, 2.0446977e+2, -936139.5, -1011912.75, 71801.04, 0.063700356, 0.20962003, -892842.44, 43368.145, 0.0, 10.0002575, 9.999298 
2.250227e+2, 2.1446921e+2, -742856.8, -875123.0, 34038.766, -0.036307722, 0.19701795, -734611.0, 103606.08, 0.0, 10.00094, 9.999234 
2.250167e+2, 2.2446817e+2, -687209.9, -807414.56, 54035.902, -0.07668613, 0.17881455, -666490.4, 73736.53, 0.0, 10.000701, 9.99913 
2.2501163e+2, 2.3446636e+2, -801543.5, -817465.4, 58772.11, -0.04443891, 0.052720737, -750195.56, -107952.695, 0.0, 9.999266, 9.999082 
2.2500512e+2, 2.4446552e+2, -702027.4, -705545.9, -13067.504, -0.034081493, 0.060057737, -690601.25, -146351.53, 0.0, 9.999219, 9.999201 
2.249969e+2, 2.5446567e+2, -352596.9, -494724.0, -11814.217, -0.034833044, 0.12392507, -351621.56, 94625.68, 0.0, 10.000966, 9.999142 
2.249909e+2, 2.6446506e+2, -227657.72, -385665.8, 141822.75, 0.0051164064, 0.15545626, -144318.52, 203934.17, 0.0, 10.001184, 9.9991 
2.2498746e+2, 2.744633e+2, -358310.13, -411889.72, 101998.62, 0.07847975, 0.034379195, -279641.8, -29371.564, 0.00000000006385136, 9.999663, 9.998985 
2.2498126e+2, 2.8446245e+2, -301232.03, -335178.34, -51649.836, 0.043571793, 0.061673593, -263837.97, -111558.69, 0.00000032397858, 9.999389, 9.998973 
2.2497223e+2, 2.9446307e+2, -20962.521, -137849.78, -95989.414, -0.043332428, 0.18798938, 32975.457, 87250.625, 0.000003287384, 10.000585, 9.999078 
2.2496851e+2, 3.0446142e+2, -40423.0, -6632.9287, 40292.758, 0.29544765, 0.0643826, 20163.55, 20163.55, 0.00001601569, 9.999632, 10.000116 
2.249608e+2, 3.144637e+2, -523707.4, -219540.48, 106249.91, 0.0049139704, 0.25484523, -186101.92, -186101.92, 0.000054019332, 9.99617, 10.000318 
2.350759e+2, 1.2448426e+2, -1471540.3, -1816554.9, 107740.61, -0.19278814, 0.28127766, -1440659.3, 279413.34, 0.0008678289, 10.0025215, 9.998068 
2.350698e+2, 1.3448133e+2, -1408967.5, -1692661.4, -46679.832, 0.019130984, 0.11667705, -1401484.1, 220615.1, 0.00046623294, 10.002149, 9.998428 
2.3506315e+2, 1.4448057e+2, -1342898.9, -1564956.8, 63618.88, 0.0064403685, 0.18232056, -1325963.9, 198140.52, 0.00017258529, 10.001733, 9.998827 
2.3505712e+2, 1.5447804e+2, -1234405.3, -1481110.8, 76465.086, -0.13121255, 0.02471198, -1212627.6, 213499.38, 0.000033446406, 10.001888, 9.998654 
2.3505136e+2, 1.6447727e+2, -1132669.0, -1284181.9, 26369.564, -0.16711323, 0.04870368, -1128210.9, 199923.45, 0.0000017722703, 10.001507, 9.999502 
2.3504615e+2, 1.7447825e+2, -1154273.3, -1240419.9, 69930.984, -0.07811949, 0.15507278, -1115214.6, 114912.21, 0.0000000001389195, 10.000665, 9.999537 
2.3504086e+2, 1.8447839e+2, -1133988.8, -1175438.6, 78988.8, -0.0014474586, 0.21824282, -1073051.3, 59074.785, 0.0, 10.000101, 9.999591 
2.3503545e+2, 1.9447745e+2, -1062018.5, -1095333.1, 78450.09, 0.053528897, 0.1347724, -998476.8, 35657.85, 0.0, 9.9999485, 9.999544 
2.3502986e+2, 2.0447688e+2, -1001638.6, -1113725.8, 83849.37, 0.054684732, 0.171782, -956827.8, -20686.813, 0.0, 10.000114, 9.998667 
2.3502414e+2, 2.1447648e+2, -810223.2, -979213.8, 74424.35, -0.01337746, 0.24070086, -782119.94, 56027.527, 0.0, 10.000785, 9.998594 
2.3501778e+2, 2.2447579e+2, -685503.2, -766028.75, -5513.9644, -0.06355962, 0.2729541, -685127.4, 55027.703, 0.0, 10.000545, 9.999491 
2.3501062e+2, 2.3447452e+2, -792357.1, -766987.8, 18711.797, -0.100542426, 0.16331932, -757066.44, -114900.375, 0.0, 9.999132, 9.999495 
2.3500413e+2, 2.444739e+2, -674029.1, -631501.7, 33574.75, -0.08535236, 0.14624774, -613023.6, -68854.72, 0.0, 9.999147, 9.999744 
2.3499852e+2, 2.5447395e+2, -333118.97, -422511.97, 66560.63, 0.0017637238, 0.14244536, -297640.06, 148523.23, 0.0, 10.000831, 9.999701 
2.3499294e+2, 2.6447287e+2, -300807.5, -520499.34, 77972.914, 0.06269693, 0.13883846, -275946.7, 72226.09, 0.0, 10.001114, 9.998209 
2.3498735e+2, 2.744701e+2, -442136.97, -561241.5, 59809.918, 0.072997086, 0.01898242, -417287.22, -167083.56, 0.0, 9.999554, 9.998016 
2.3498023e+2, 2.8446895e+2, -324784.88, -375818.16, -21960.957, -0.030233258, 0.07862024, -316635.78, -164417.36, 0.00000009734078, 9.999352, 9.998712 
2.3497148e+2, 2.9446986e+2, -55640.11, -193332.83, -38337.832, -0.21671137, 0.2567526, -45685.387, 8528.166, 0.0000024854203, 10.000504, 9.998743 
2.349668e+2, 3.044687e+2, 14407.69, 107735.58, -92602.25, 0.13174747, 0.16702025, 164766.86, 164766.86, 0.000014818684, 9.99963, 10.000904 
2.3495731e+2, 3.144715e+2, -533602.4, -224819.22, 56097.85, -0.024406573, 0.32296282, -214943.55, -214943.55, 0.00005156838, 9.996098, 10.000321 
2.4507867e+2, 1.2449142e+2, -1561775.9, -1799087.6, 104298.27, -0.11299876, 0.31873932, -1522452.8, 197551.95, 0.00074233726, 10.00167, 9.998594 
2.4507256e+2, 1.344886e+2, -1323607.9, -1647453.1, -52951.047, 0.06232403, 0.163164, -1315169.8, 306859.16, 0.00038816038, 10.002736, 9.998457 
2.4506496e+2, 1.4448756e+2, -1229856.1, -1507753.3, 72710.17, -0.015317572, 0.1978826, -1211981.6, 312054.4, 0.00013769997, 10.002487, 9.998851 
2.4505866e+2, 1.5448464e+2, -1390787.1, -1557865.8, 55334.64, -0.102928884, -0.003167559, -1374123.0, 51939.383, 0.000025817635, 10.000829, 9.99863 
2.450525e+2, 1.6448382e+2, -1315563.3, -1343414.9, 33406.2, -0.12685154, 0.004915099, -1293296.5, 34772.926, 0.0000016011192, 10.000115, 9.999777 
2.4504699e+2, 1.7448522e+2, -1168188.8, -1212696.5, 7740.012, -0.039748754, 0.12663436, -1166881.1, 63174.74, 0.0000000006420841, 10.000421, 9.99985 
2.4504153e+2, 1.8448557e+2, -1041670.9, -1163244.5, 31423.693, 0.02404012, 0.20732287, -1034029.0, 98024.17, 0.0, 10.000889, 9.999286 
2.4503605e+2, 1.9448447e+2, -866700.7, -1038300.75, 2674.7998, 0.05100633, 0.14098269, -866659.06, 167406.19, 0.0, 10.001466, 9.999193 
2.4503042e+2, 2.0448364e+2, -806098.2, -1000076.0, 42047.29, 0.04379126, 0.16200794, -797376.06, 138698.4, 0.0, 10.001374, 9.998836 
2.4502485e+2, 2.1448296e+2, -867628.6, -984252.25, 68399.984, 0.012641643, 0.18092473, -836058.1, 2023.9164, 0.0, 10.0003, 9.998789 
2.4501833e+2, 2.2448239e+2, -774163.94, -813183.3, 21607.139, -0.02502496, 0.21841566, -764561.8, -24473.732, 0.0, 9.999952, 9.999452 
2.4501064e+2, 2.3448181e+2, -598204.6, -676548.56, -9328.647, -0.06989164, 0.18143235, -597109.1, 44984.61, 0.0, 10.0004835, 9.999462 
2.4500424e+2, 2.4448133e+2, -459231.25, -536973.25, 34112.496, -0.057470158, 0.18178557, -446385.53, 97710.945, 0.0, 10.000659, 9.999674 
2.4499944e+2, 2.5448078e+2, -398837.2, -458308.7, -2680.7732, 0.04134398, 0.12552713, -398716.56, 47380.715, 0.0, 10.000407, 9.99966 
2.4499385e+2, 2.6447958e+2, -430693.66, -570355.0, -13996.734, 0.097333126, 0.10966031, -429304.75, -81196.73, 0.0, 10.000154, 9.998334 
2.4498726e+2, 2.7447754e+2, -379150.0, -511868.47, 24774.146, 0.098863535, 0.046808295, -374676.28, -124544.29, 0.0, 9.999907, 9.998184 
2.4497977e+2, 2.844769e+2, -303158.0, -366416.84, 71058.09, -0.010506528, 0.14601305, -257007.78, -104865.65, 0.00000009803459, 9.999509, 9.998704 
2.4497129e+2, 2.9447764e+2, -279973.84, -300585.56, 44476.86, -0.20072097, 0.30838442, -244624.45, -190485.98, 0.0000023443192, 9.998969, 9.998742 
2.4496573e+2, 3.0447587e+2, -125026.96, 43490.99, -68435.836, 0.12107866, 0.15737253, 67781.72, 67781.72, 0.000014153015, 9.998669, 10.000925 
2.4495535e+2, 3.1447825e+2, -184512.45, -73898.99, 3548.1646, 0.060865283, 0.2646623, -73785.3, -73785.3, 0.00004937861, 9.9986, 10.000139 
2.5508165e+2, 1.2449768e+2, -1497788.9, -1659910.1, 92764.58, -0.04300389, 0.32212213, -1455658.1, 264286.28, 0.00062344765, 10.001641, 9.999567 
2.5507468e+2, 1.3449533e+2, -1280520.0, -1551759.6, -3138.1355, -0.026928447, 0.154526, -1280483.6, 341478.28, 0.0003143659, 10.002718, 9.99912 
2.5506598e+2, 1.4449452e+2, -1241567.8, -1517431.1, -2437.7046, -0.19878633, 0.18022016, -1241546.3, 282420.8, 0.00010539114, 10.002425, 9.998811 
2.550601e+2, 1.544928e+2, -1398501.6, -1565165.1, 4867.6504, -0.07237319, 0.101296864, -1398359.5, 27625.135, 0.000019009012, 10.000794, 9.998591 
2.5505376e+2, 1.6449177e+2, -1341040.9, -1378856.5, 28325.19, -0.039372623, 0.10145052, -1325892.5, 2101.0603, 0.0000013062046, 10.000044, 9.999566 
2.5504708e+2, 1.7449147e+2, -1191076.8, -1250188.0, 34116.887, -0.102350526, 0.07706724, -1175493.8, 54499.973, 0.000000000635992, 10.000383, 9.999607 
2.550413e+2, 1.8449122e+2, -1081723.0, -1229921.3, 41672.668, -0.118110746, 0.13076073, -1070808.6, 61187.496, 0.0, 10.000812, 9.998866 
2.5503644e+2, 1.9449078e+2, -905915.5, -1101578.5, 37996.69, -0.08731778, 0.16802056, -898795.8, 135208.2, 0.0, 10.001382, 9.998799 
2.5503087e+2, 2.0448995e+2, -768934.06, -883313.5, -6127.851, -0.0736841, 0.1683124, -768606.7, 167405.3, 0.0, 10.001208, 9.999717 
2.550245e+2, 2.1448846e+2, -819633.3, -852511.8, 39677.88, -0.08091382, 0.012291944, -793123.94, 44898.188, 0.0, 10.000167, 9.999755 
2.5501797e+2, 2.2448789e+2, -817629.0, -876344.44, 25443.727, -0.08107797, 0.01533309, -808137.56, -68110.76, 0.0, 9.999833, 9.999076 
2.550113e+2, 2.3448816e+2, -648467.7, -751089.25, 23600.69, -0.0798286, 0.10547519, -643300.25, -1273.4331, 0.0, 10.000353, 9.999013 
2.550051e+2, 2.4448767e+2, -520575.66, -643361.06, 13235.6875, -0.063639715, 0.16187583, -519165.1, 24868.277, 0.0, 10.000572, 9.998983 
2.5499934e+2, 2.54486e+2, -467960.4, -572085.7, -1364.1835, -0.036183313, 0.06364862, -467942.53, -21891.889, 0.0, 10.000277, 9.998942 
2.5499326e+2, 2.6448524e+2, -358395.66, -400083.47, -35863.945, -0.006130121, 0.07000608, -337758.34, 10300.473, 0.0, 10.000074, 9.999539 
2.5498673e+2, 2.7448553e+2, -302873.66, -328746.34, 29371.592, 0.025484975, 0.11443705, -283715.78, -33659.34, 0.0, 9.999797, 9.999498 
2.5497952e+2, 2.8448614e+2, -292558.13, -330234.94, 37420.34, -0.016354293, 0.255171, -269501.8, -117450.22, 0.00000013920514, 9.9994545, 9.998975 
2.549712e+2, 2.944863e+2, -287892.5, -282195.53, 33831.47, -0.13643932, 0.34093037, -251092.84, -197042.0, 0.0000022917138, 9.998827, 9.998933 
2.5496492e+2, 3.0448273e+2, -179355.53, -64819.16, -80108.07, 0.14518163, 0.03145915, -23614.264, -23614.264, 0.0000129202135, 9.998646, 10.000191 
2.5495416e+2, 3.144834e+2, -233486.69, -166957.08, 75478.38, 0.015594179, 0.051739324, -117738.35, -117738.35, 0.000045825393, 9.998559, 9.999524 
2.650838e+2, 1.24503255e+2, -1484064.1, -1621438.8, 138562.06, 0.026610456, 0.2191402, -1398099.0, 321786.38, 0.00051409315, 10.001553, 9.99988 
2.6507702e+2, 1.345018e+2, -1566031.1, -1676829.5, -20684.053, 0.055026054, 0.1168768, -1562295.8, 59600.25, 0.0002486299, 10.000655, 9.99927 
2.650676e+2, 1.4450128e+2, -1523602.3, -1646236.3, -9425.643, -0.17035407, 0.16045816, -1522882.0, 1018.2649, 0.00007773356, 10.000465, 9.998871 
2.650615e+2, 1.5450057e+2, -1252702.5, -1487931.8, -22954.092, -0.052313447, 0.17778237, -1250483.6, 175425.95, 0.000013419433, 10.001755, 9.998666 
2.650552e+2, 1.6449952e+2, -1036938.0, -1264344.5, 34516.242, -0.0023731973, 0.18217073, -1031814.5, 296104.75, 0.0000010267595, 10.00227, 9.999282 
2.6504877e+2, 1.7449795e+2, -1015011.44, -1201199.0, 7444.0327, -0.03453308, 0.060488407, -1014714.25, 215216.0, 0.0000000012219834, 10.001737, 9.999294 
2.650426e+2, 1.8449715e+2, -1032937.56, -1189386.5, 54089.934, -0.07574937, 0.069557786, -1016057.94, 115878.945, 0.0, 10.001076, 9.999021 
2.650368e+2, 1.9449708e+2, -1069375.8, -1161809.1, 65949.5, -0.12052769, 0.13220926, -1035060.94, -1120.7484, 0.0, 10.000176, 9.998971 
2.6503086e+2, 2.0449659e+2, -940103.4, -932594.1, 43852.75, -0.12071514, 0.141991, -892335.56, 43609.11, 0.0, 9.99989, 10.000013 
2.6502472e+2, 2.144954e+2, -792909.6, -809112.1, 14253.444, -0.067930095, -0.013717548, -784616.0, 53336.25, 0.0, 10.000217, 10.000032 
2.6501843e+2, 2.2449493e+2, -724762.1, -811849.06, 38619.83, -0.040933304, -0.021941416, -710103.1, 29852.385, 0.0, 10.0003805, 9.99926 
2.6501194e+2, 2.3449521e+2, -640590.94, -732267.06, 53553.613, -0.041977685, 0.052647006, -615937.0, 26017.613, 0.0, 10.000332, 9.999161 
2.6500562e+2, 2.4449492e+2, -610823.2, -710252.3, 86625.09, -0.034968078, 0.13175552, -560660.6, -16700.04, 0.0, 10.000069, 9.998758 
2.6499936e+2, 2.5449365e+2, -581068.7, -651951.5, 83871.79, -0.020660548, 0.10134341, -525457.5, -79480.23, 0.0, 9.99962, 9.998702 
2.6499286e+2, 2.6449314e+2, -430316.53, -381545.63, 74859.08, -0.0076450845, 0.121468045, -327200.34, 20784.008, 0.0, 9.999347, 10.000021 
2.6498622e+2, 2.7449366e+2, -330030.5, -276317.47, 54282.77, 0.02528205, 0.13211879, -242610.88, 7367.0605, 0.0, 9.999341, 10.000072 
2.6497918e+2, 2.844945e+2, -270403.56, -303220.22, 54783.895, 0.012410975, 0.25872654, -229623.53, -77654.82, 0.00000017298198, 9.999526, 9.999127 
2.649713e+2, 2.944947e+2, -107825.31, -176168.39, 21987.234, -0.057554223, 0.33426946, -101362.73, -47396.906, 0.000002277503, 9.99996, 9.999124 
2.6496434e+2, 3.044904e+2, -7955.1094, -56570.508, -60329.91, 0.16612297, -0.028957263, 32779.965, 32779.965, 0.000011809922, 10.000124, 9.999551 
2.6495397e+2, 3.144908e+2, -131588.33, -167739.33, 83376.55, 0.112188585, 0.036634877, -64350.453, -64350.453, 0.000042458643, 9.999442, 9.999104 
2.7508458e+2, 1.2450805e+2, -1504067.9, -1663320.4, 38749.434, -0.12524225, -0.00015961932, -1495139.9, 224688.72, 0.00042131313, 10.001543, 9.999602 
2.7507895e+2, 1.3450812e+2, -1579800.9, -1707554.1, -52017.223, 0.14691165, 0.07161301, -1561300.3, 60529.824, 0.0001952308, 10.000668, 9.99905 
2.7506927e+2, 1.4450796e+2, -1515256.6, -1623969.3, 13821.76, -0.08813175, 0.15576713, -1513526.9, 10307.159, 0.000056360343, 10.000444, 9.999036 
2.7506253e+2, 1.5450811e+2, -1243223.3, -1459897.6, 40346.152, -0.15560478, 0.23934098, -1235954.4, 189881.44, 0.000009372096, 10.001725, 9.998873 
2.7505654e+2, 1.6450709e+2, -1067354.8, -1315694.6, 5425.5894, -0.12660237, 0.2529559, -1067236.4, 260609.25, 0.0000008660051, 10.002219, 9.99895 
2.7505144e+2, 1.7450456e+2, -1051035.9, -1261779.1, -221.44891, 0.02752295, 0.07223445, -1051035.6, 178830.47, 0.000000004874734, 10.001681, 9.998901 
2.7504498e+2, 1.8450329e+2, -1002747.8, -1100951.0, 8182.121, 0.02769459, 0.02396761, -1002070.75, 129805.3, 0.0, 10.000966, 9.99968 
2.7503675e+2, 1.9450341e+2, -1030302.7, -1060578.3, 47217.48, -0.1750495, 0.031986237, -995855.8, 38018.18, 0.0, 10.000095, 9.999702 
2.7503002e+2, 2.0450369e+2, -978652.25, -985883.4, 41825.094, -0.21776469, 0.09526533, -940286.75, -4415.0586, 0.0, 9.999777, 9.999702 
2.750252e+2, 2.1450378e+2, -841110.0, -870789.6, 40078.18, -0.07222432, 0.101797745, -813212.44, 24659.988, 0.0, 10.000055, 9.999684 
2.7501932e+2, 2.2450356e+2, -703077.2, -729612.8, 25748.281, -0.014764382, 0.10526271, -687379.4, 52494.953, 0.0, 10.000218, 9.999906 
2.7501217e+2, 2.3450282e+2, -612824.56, -641061.75, 63577.137, -0.07563995, 0.010975461, -561817.25, 80061.445, 0.0, 10.000184, 9.999862 
2.7500543e+2, 2.4450292e+2, -607585.2, -680386.7, 58923.793, -0.087246634, 0.081373066, -574725.3, -30846.18, 0.0, 9.99997, 9.999009 
2.7499902e+2, 2.5450367e+2, -583117.25, -630842.7, 79834.54, -0.04610024, 0.22826217, -523655.38, -77776.97, 0.0, 9.999504, 9.998905 
2.7499232e+2, 2.6450324e+2, -459049.53, -421091.56, 58332.23, -0.025040418, 0.25918108, -378728.47, -30843.281, 0.0, 9.9992695, 9.999782 
2.749853e+2, 2.745016e+2, -369354.75, -329673.88, 66108.34, -0.0254974, 0.081608616, -280492.9, -30593.848, 0.00000000009324417, 9.999224, 9.999761 
2.749785e+2, 2.8450164e+2, -270545.5, -291603.03, 56325.04, -0.04050516, 0.14279985, -223773.61, -71877.09, 0.00000023612336, 9.999479, 9.999225 
2.7497107e+2, 2.9450268e+2, -105422.88, -153883.52, 55001.023, -0.1142848, 0.28518197, -69551.445, -15666.871, 0.0000024951785, 9.999881, 9.999315 
2.749636e+2, 3.04499e+2, -38358.344, -107352.23, -88733.29, 0.050736196, -0.011820428, 22347.844, 22347.844, 0.0000116764495, 10.000091, 9.999206 
2.7495396e+2, 3.1450063e+2, -176143.38, -219482.25, 99676.08, 0.09812575, 0.22861777, -95808.48, -95808.48, 0.000040637482, 9.999285, 9.9988165 
2.8508624e+2, 1.245139e+2, -1673197.3, -1752481.1, 4969.3315, -0.0431562, -0.059479214, -1672887.0, 46879.965, 0.00034670465, 10.000452, 9.999497 
2.8507963e+2, 1.3451456e+2, -1414403.9, -1606972.5, -79614.65, 0.10640789, 0.056311507, -1385751.6, 236012.33, 0.00015383656, 10.001741, 9.999208 
2.8506976e+2, 1.4451437e+2, -1287491.8, -1498640.6, 35443.055, -0.15029424, 0.123272434, -1281701.1, 242067.63, 0.00004093297, 10.0019455, 9.999171 
2.850643e+2, 1.5451469e+2, -1319103.5, -1478301.8, 30363.617, -0.11021159, 0.20731431, -1313508.9, 112259.53, 0.0000066741927, 10.001117, 9.999044 
2.8505862e+2, 1.6451386e+2, -1323571.5, -1436345.6, 8446.243, -0.043765638, 0.23021215, -1322942.5, 4834.423, 0.00000074756446, 10.000456, 9.998975 
2.8505278e+2, 1.7451155e+2, -1284529.5, -1376750.0, 3782.8708, 0.07829671, 0.07424375, -1284374.5, -54577.188, 0.000000006090155, 10.000083, 9.998893 
2.8504562e+2, 1.845105e+2, -1128255.6, -1100480.4, 48721.242, 0.060882803, 0.022978961, -1063706.1, 68098.83, 0.0, 9.999847, 10.0002165 
2.850369e+2, 1.945108e+2, -1049148.0, -1009741.75, 49806.863, -0.14106238, -0.0062168944, -975882.44, 57916.207, 0.0, 9.9997015, 10.000242 
2.850301e+2, 2.0451137e+2, -1001665.3, -1006124.5, 89594.5, -0.17449045, 0.060543217, -914272.7, 21520.795, 0.0, 9.999667, 9.99961 
2.8502566e+2, 2.1451195e+2, -909635.5, -918217.1, 80103.03, 0.001736586, 0.130512, -833708.44, 4083.7346, 0.0, 9.999652, 9.999551 
2.8501984e+2, 2.245119e+2, -762053.94, -732773.06, 84489.125, 0.048698697, 0.15045512, -661665.25, 78128.03, 0.0, 9.999718, 10.000117 
2.8501227e+2, 2.3451105e+2, -637506.2, -624089.56, 61590.074, -0.06422568, 0.01891008, -568843.56, 72954.34, 0.0, 9.999905, 10.000104 
2.8500515e+2, 2.4451111e+2, -591697.06, -635462.7, 54914.207, -0.100832075, 0.057639074, -554466.2, -10668.859, 0.0, 9.999904, 9.999351 
2.8499863e+2, 2.5451213e+2, -527820.5, -561419.56, 59685.84, -0.038906913, 0.1954177, -482615.03, -36822.81, 0.0, 9.999708, 9.999278 
2.849918e+2, 2.6451188e+2, -417301.03, -424689.66, 84576.055, -0.01580477, 0.23078099, -336338.66, 11458.305, 0.0, 9.999656, 9.999574 
2.849849e+2, 2.7450997e+2, -314074.6, -329317.44, 70222.22, -0.0054362426, 0.05368735, -251061.42, -1247.8708, 0.0000000018932573, 9.999699, 9.999542 
2.8497836e+2, 2.8450954e+2, -269898.03, -288970.4, 96405.16, 0.0066349283, 0.07583016, -182558.56, -30742.533, 0.00000028816427, 9.999472, 9.99925 
2.849715e+2, 2.9451022e+2, -194258.94, -182437.52, 65618.35, -0.015945142, 0.17604078, -122464.2, -68656.23, 0.0000027347362, 9.999225, 9.999427 
2.8496328e+2, 3.045074e+2, -125742.67, -135727.66, -59051.027, 0.058139905, -0.04831915, -71473.46, -71473.46, 0.000012525966, 9.999414, 9.999337 
2.8495306e+2, 3.1451002e+2, -167054.95, -161453.19, 114794.02, 0.1083279, 0.27390838, -49425.883, -49425.883, 0.00004059471, 9.999107, 9.999298 
2.950877e+2, 1.2452099e+2, -1665339.8, -1752764.1, -31879.39, -0.022690592, 0.054876037, -1654949.8, 64748.43, 0.00028489743, 10.000507, 9.999474 
2.9507875e+2, 1.3452113e+2, -1384653.4, -1547390.3, -24055.484, -0.18900456, 0.06868695, -1381172.0, 240525.69, 0.000121053716, 10.001754, 9.999609 
2.950688e+2, 1.4452046e+2, -1279810.0, -1483616.4, -11938.911, -0.4833646, 0.06361153, -1279113.0, 244591.98, 0.000029834508, 10.001936, 9.999284 
2.950663e+2, 1.5452024e+2, -1316789.3, -1465127.9, 9440.505, -0.05959124, 0.08217397, -1316190.9, 109516.836, 0.000004731658, 10.001081, 9.999151 
2.9506093e+2, 1.6451982e+2, -1308099.3, -1387660.3, -17535.924, 0.11463206, 0.12334582, -1304405.6, 23307.418, 0.00000054097734, 10.000392, 9.999333 
2.9505232e+2, 1.7451906e+2, -1261914.3, -1317370.9, 6871.412, -0.008475373, 0.07909641, -1261075.5, -31353.09, 0.0000000012704189, 10.000042, 9.9993105 
2.950442e+2, 1.8451889e+2, -1113227.0, -1053414.4, 30186.797, -0.09547306, 0.075349614, -1040828.0, 90894.72, 0.0, 9.999773, 10.00058 
2.9503682e+2, 1.9451915e+2, -1036435.56, -963882.56, 56577.188, -0.148468, 0.006894273, -932950.75, 100764.42, 0.0, 9.999619, 10.000596 
2.9503068e+2, 2.045195e+2, -1015481.0, -999276.06, 77168.01, -0.11019234, 0.029890666, -929786.3, 5924.667, 0.0, 9.999517, 9.999726 
2.950258e+2, 2.1451983e+2, -925851.56, -912709.6, 94313.79, 0.021296687, 0.06297132, -824738.2, 12974.257, 0.0, 9.999488, 9.999663 
2.950196e+2, 2.2451998e+2, -801786.7, -778093.2, 78318.45, 0.026261432, 0.108817056, -710730.56, 28982.035, 0.0, 9.99956, 9.99988 
2.9501182e+2, 2.3451984e+2, -678148.25, -672167.06, 83261.91, -0.12354326, 0.07403437, -591842.06, 49870.54, 0.0, 9.999752, 9.9998455 
2.9500458e+2, 2.4451955e+2, -569092.56, -570335.7, 34478.17, -0.17939095, 0.067996725, -535230.4, 8484.121, 0.0, 9.99982, 9.999843 
2.9499775e+2, 2.5451896e+2, -506955.4, -494625.7, 64127.85, -0.12807344, -0.0059957514, -436367.06, 9352.969, 0.0, 9.999601, 9.999794 
2.9499093e+2, 2.6451877e+2, -434328.63, -442779.3, 75467.52, -0.09682339, 0.01675692, -362968.25, -15246.371, 0.0, 9.999586, 9.999479 
2.9498437e+2, 2.7451882e+2, -339920.34, -353668.7, 82875.7, -0.058124505, 0.04389408, -263634.22, -13912.659, 0.0000000016821552, 9.9995775, 9.999431 
2.9497832e+2, 2.845184e+2, -274917.1, -292019.7, 73046.11, 0.026791371, 0.07270235, -209923.45, -58197.836, 0.00000022409213, 9.999436, 9.99925 
2.9497224e+2, 2.9451728e+2, -208006.28, -201674.9, 81337.45, 0.094486006, -0.0011515861, -123441.555, -69705.05, 0.0000026534976, 9.99917, 9.999331 
2.9496306e+2, 3.0451545e+2, -82571.97, -35699.11, -68571.58, 0.06405356, -0.15230452, 13330.502, 13330.502, 0.00001292508, 9.999375, 10.00004 
2.9495043e+2, 3.145185e+2, -90487.836, 15627.713, 128591.1, -0.137761, 0.13627441, 101677.09, 101677.09, 0.000040888393, 9.999027, 10.000553 
3.0508816e+2, 1.2452741e+2, -1646476.6, -1742273.0, 17934.656, -0.017439555, 0.053482316, -1643229.0, 76404.89, 0.00023189843, 10.000648, 9.999482 
3.0507988e+2, 1.3452747e+2, -1561744.9, -1605847.5, -3150.965, -0.17364848, 0.038799144, -1561520.9, 60112.016, 0.000094942065, 10.000411, 9.999865 
3.0507028e+2, 1.4452694e+2, -1530197.9, -1566308.9, 7482.7397, -0.4234889, 0.017028455, -1528708.8, -5071.0674, 0.000021738364, 10.000083, 9.999595 
3.050673e+2, 1.5452631e+2, -1443182.0, -1491534.9, 6194.718, -0.0036051215, -0.037103485, -1442401.0, -16757.506, 0.0000030875526, 10.000076, 9.999445 
3.0506152e+2, 1.6452622e+2, -1334730.3, -1364630.3, 20973.994, 0.16130257, 0.0065569975, -1323923.5, 3722.3093, 0.0000002653173, 10.000036, 9.999666 
3.0505234e+2, 1.7452674e+2, -1270369.6, -1284234.8, 13027.17, 0.013106305, 0.058667358, -1262545.3, -32900.43, 0.0, 9.999811, 9.999655 
3.050441e+2, 1.8452717e+2, -1132320.0, -1073523.4, 48899.848, -0.06955417, 0.10236417, -1045865.06, 85775.695, 0.0, 9.999681, 10.000496 
3.0503705e+2, 1.9452722e+2, -1054532.9, -993251.94, 13012.952, -0.0768719, 0.025080146, -990603.1, 43033.246, 0.0, 9.999559, 10.0004425 
3.0503076e+2, 2.0452736e+2, -1007474.94, -975693.94, 49407.176, -0.04130849, 0.026951775, -939684.8, -4050.5833, 0.0, 9.999478, 9.999914 
3.050254e+2, 2.1452755e+2, -918888.1, -892404.44, 45329.66, 0.043910455, 0.02642035, -858422.06, -20786.395, 0.0, 9.999446, 9.999833 
3.0501902e+2, 2.245278e+2, -819480.2, -796057.44, 69611.01, 0.024872065, 0.07682866, -737179.56, 2455.4417, 0.0, 9.99948, 9.999797 
3.0501154e+2, 2.34528e+2, -707027.25, -696477.4, 60925.934, -0.111825325, 0.08638454, -640598.5, 1034.8182, 0.0, 9.999599, 9.999754 
3.0500454e+2, 2.4452782e+2, -603028.75, -557797.6, 23343.977, -0.13802958, 0.08303847, -547910.8, -4276.631, 0.0, 9.999492, 10.000079 
3.04998e+2, 2.54527e+2, -531430.94, -472696.28, 7205.6235, -0.03773953, -0.038429875, -471825.2, -26185.602, 0.0, 9.999311, 10.000076 
3.0499104e+2, 2.6452678e+2, -464428.97, -470254.4, 50325.36, -0.030273683, -0.028409509, -416932.13, -69291.33, 0.0, 9.999425, 9.9993725 
3.049837e+2, 2.7452707e+2, -290232.3, -343670.75, 34161.387, -0.09530921, 0.033783328, -273582.0, -23942.7, 0.00000000014964384, 9.999975, 9.999308 
3.0497742e+2, 2.8452688e+2, -233300.06, -253487.9, 19249.145, -0.010883062, 0.08374, -221658.83, -70016.33, 0.00000013461268, 9.999661, 9.999398 
3.0497187e+2, 2.9452622e+2, -339064.56, -247797.23, 15095.723, 0.19491568, 0.039982833, -245365.19, -191714.86, 0.0000024184974, 9.998224, 9.9994545 
3.049627e+2, 3.045247e+2, -206193.81, -136358.39, -68403.08, 0.13670494, -0.06497497, -94476.19, -94476.19, 0.00001259153, 9.998696, 9.999685 
3.0494976e+2, 3.1452578e+2, 219687.47, 212633.86, -13170.477, -0.18758427, 0.056683175, 229795.17, 229795.17, 0.000039642433, 10.000939, 10.001 
3.150872e+2, 1.24533355e+2, -1639582.8, -1730098.8, -71759.555, -0.24902639, -0.038712736, -1600001.4, 119571.17, 0.0001887222, 10.000661, 9.9995575 
3.1508237e+2, 1.3453387e+2, -1564507.4, -1591826.6, -4510.058, 0.007057985, -0.018213717, -1563782.1, 57785.13, 0.00007509751, 10.000352, 9.999982 
3.1507367e+2, 1.4453399e+2, -1504701.3, -1513272.1, -9400.349, -0.13405205, 0.0015478188, -1498655.5, 24909.818, 0.00001598166, 10.000067, 9.9999695 
3.1506705e+2, 1.5453279e+2, -1415779.5, -1435013.5, 19710.795, -0.073192105, -0.15026753, -1403464.8, 22111.477, 0.00000170519, 10.000076, 9.999831 
3.1506014e+2, 1.6453296e+2, -1321777.8, -1329005.8, -6266.028, -0.010248985, -0.113657616, -1318158.3, 9417.799, 0.000000057148895, 9.9999895, 9.99994 
3.1505257e+2, 1.7453454e+2, -1256578.6, -1245199.4, 13237.068, 0.024243338, 0.017503705, -1236480.9, -6915.907, 0.0, 9.9997635, 9.999948 
3.1504485e+2, 1.845354e+2, -1184243.9, -1159380.1, 31054.313, 0.009925324, 0.113086425, -1138361.6, -6802.7236, 0.0, 9.999584, 9.999954 
3.1503707e+2, 1.9453508e+2, -1105821.5, -1077482.4, 22774.402, -0.059872176, 0.053937484, -1064829.4, -31267.752, 0.0, 9.999467, 9.999907 
3.150301e+2, 2.0453507e+2, -1017144.75, -957912.0, 34964.824, -0.082606666, 0.058474563, -941706.25, -6144.446, 0.0, 9.999321, 10.000112 
3.1502408e+2, 2.1453524e+2, -926386.75, -869248.75, 58317.36, -0.055784922, 0.03485268, -832878.5, 4682.0894, 0.0, 9.999287, 10.000067 
3.150177e+2, 2.2453548e+2, -829528.25, -787006.44, 61761.805, -0.07851074, 0.06540028, -742948.5, -3389.326, 0.0, 9.99935, 9.999927 
3.150109e+2, 2.345356e+2, -719216.25, -689373.9, 78571.586, -0.15946077, 0.059563875, -624319.2, 17240.3, 0.0, 9.999459, 9.999875 
3.1500468e+2, 2.4453585e+2, -614939.3, -571002.1, 3839.7095, -0.10430409, 0.09565812, -570669.06, -27112.055, 0.0, 9.999435, 10.000016 
3.1499898e+2, 2.5453612e+2, -553815.44, -490246.78, 10832.681, 0.10387498, 0.09142543, -488451.5, -42899.555, 0.0, 9.999182, 10.000021 
3.1499174e+2, 2.6453593e+2, -475096.13, -480305.2, 57964.23, 0.068832494, 0.10534086, -419677.94, -72124.39, 0.0, 9.999371, 9.999331 
3.149825e+2, 2.745347e+2, -305074.38, -356639.25, 68404.07, -0.24261905, 0.021875087, -257755.16, -8187.927, 0.00000000001473293, 9.99989, 9.999264 
3.1497517e+2, 2.845349e+2, -222341.45, -217281.45, -45043.348, -0.23126607, 0.10108089, -174697.11, -23129.582, 0.000000108201135, 9.999608, 9.999668 
3.1496975e+2, 2.9453686e+2, -340791.9, -225623.05, -22483.65, 0.124762736, 0.2914901, -221389.36, -167838.19, 0.0000023186144, 9.998109, 9.999663 
3.149618e+2, 3.0453506e+2, -304201.25, -334464.94, 5879.488, 0.14430751, 0.21649446, -303099.16, -303099.16, 0.000012381474, 9.998668, 9.99834 
3.1495053e+2, 3.1453162e+2, 199858.11, 170248.84, 102141.23, -0.27538037, 0.010591616, 288262.03, 288262.03, 0.000038038284, 10.000932, 10.000717 
3.2508805e+2, 1.2454129e+2, -1716456.8, -1740583.9, 32006.89, -0.18053891, -0.07051497, -1694315.5, 25176.572, 0.0001575099, 9.999983, 9.999821 
3.250829e+2, 1.3454136e+2, -1591583.1, -1601983.6, 71628.414, 0.049814582, -0.10437813, -1524966.4, 96523.52, 0.00006189271, 10.000104, 10.000047 
3.2507455e+2, 1.4454192e+2, -1536683.4, -1533456.6, 88929.31, -0.030534996, -0.04281021, -1446126.0, 77358.07, 0.000012633238, 9.999859, 9.999941 
3.2506734e+2, 1.5454134e+2, -1469625.1, -1465243.3, 62002.45, -0.021063907, -0.128191, -1405393.0, 20097.547, 0.0000008198343, 9.999706, 9.999814 
3.250601e+2, 1.6454154e+2, -1398019.0, -1378159.5, 32757.2, 0.013649782, -0.07985641, -1353860.1, -26369.316, 0.000000004124255, 9.999556, 9.999796 
3.2505232e+2, 1.7454256e+2, -1315070.6, -1293243.5, -10690.009, 0.043211356, 0.011577806, -1288880.1, -59394.867, 0.0, 9.999464, 9.999757 
3.2504457e+2, 1.845431e+2, -1195435.8, -1178894.3, 33379.406, 0.03039576, 0.093473986, -1152776.3, -21293.469, 0.0, 9.9995775, 9.99981 
3.2503697e+2, 1.9454293e+2, -1062272.9, -1068156.4, 25964.648, -0.025917912, 0.06064506, -1039083.9, -5598.4585, 0.0, 9.999839, 9.999774 
3.2502997e+2, 2.0454296e+2, -947323.25, -937775.0, 58198.785, -0.04290663, 0.082515344, -884154.8, 51330.664, 0.0, 9.999842, 10.000002 
3.2502374e+2, 2.1454313e+2, -917089.3, -874982.6, 33178.113, -0.0162615, 0.06722641, -856741.8, -19257.613, 0.0, 9.999386, 9.999981 
3.2501733e+2, 2.2454323e+2, -871023.9, -818854.1, 52572.05, -0.031880196, 0.09109874, -786251.4, -46767.043, 0.0, 9.999106, 9.999826 
3.2501078e+2, 2.3454304e+2, -779279.44, -729791.25, 31140.547, -0.09205666, 0.060856294, -714760.94, -73273.06, 0.0, 9.999086, 9.999777 
3.2500443e+2, 2.4454324e+2, -634276.75, -594470.7, -20468.758, -0.060018063, 0.10321392, -585823.75, -42337.574, 0.0, 9.999348, 9.999905 
3.2499832e+2, 2.5454378e+2, -425602.66, -440513.3, -35343.75, 0.08129992, 0.13193749, -396936.5, 48542.703, 0.0, 10.000089, 9.999931 
3.2499105e+2, 2.6454368e+2, -388479.88, -397309.38, 23911.889, 0.050548818, 0.14423923, -368578.63, -21099.332, 0.0, 9.999799, 9.999697 
3.2498237e+2, 2.7454245e+2, -501836.9, -405059.28, 39021.07, -0.16118653, 0.021115227, -391286.03, -141794.44, 0.00000000010851988, 9.998355, 9.999664 
3.2497483e+2, 2.8454262e+2, -385332.06, -323350.06, -19843.6, -0.16671722, 0.09213163, -317541.47, -166049.97, 0.00000014604628, 9.9985895, 9.999442 
3.2496852e+2, 2.9454467e+2, 25719.729, -74629.77, -61805.92, 0.06968978, 0.31150445, 55153.254, 108628.63, 0.0000023415487, 10.000732, 9.999441 
3.2496098e+2, 3.0454266e+2, 3884.0483, -182386.48, 11664.539, 0.104366936, 0.22796127, 4611.657, 4611.657, 0.000012312151, 10.000807, 9.998335 
3.249516e+2, 3.145391e+2, -166810.2, 28912.791, 157057.8, -0.11821212, 0.0066959015, 116102.71, 116102.71, 0.000036624067, 9.998306, 10.000989 
3.3508974e+2, 1.24551184e+2, -1695175.6, -1681222.1, -21368.53, -0.076017074, -0.031977627, -1665720.3, 53672.277, 0.00013854062, 9.999931, 10.000247 
3.3508113e+2, 1.3455011e+2, -1595028.3, -1589566.1, 75896.086, -0.1686845, -0.19107625, -1516352.0, 105047.875, 0.000055370125, 10.000052, 10.000139 
3.350728e+2, 1.4455083e+2, -1569467.4, -1590481.6, 61299.703, -0.2329325, -0.09841043, -1517780.9, 5612.1943, 0.000011804474, 9.999808, 9.999576 
3.3506784e+2, 1.545521e+2, -1494271.8, -1509894.1, 68122.766, 0.024624784, 0.038185902, -1433513.9, -8128.97, 0.00000057438905, 9.999684, 9.9995165 
3.3506083e+2, 1.6455215e+2, -1449231.9, -1476246.1, 16362.294, 0.101526536, 0.11343608, -1441521.9, -114133.45, 0.00000000201948, 9.999516, 9.999146 
3.3505115e+2, 1.7455068e+2, -1365856.4, -1395006.3, 1043.5527, -0.053858966, 0.02519768, -1365819.1, -136412.73, 0.0, 9.999445, 9.999069 
3.3504286e+2, 1.8455018e+2, -1199479.8, -1161726.5, 28014.893, -0.12912151, 0.031123416, -1146822.0, -15408.857, 0.0, 9.999467, 9.999982 
3.3503637e+2, 1.945506e+2, -1058794.0, -1040750.0, 46948.934, -0.09970539, 0.035410665, -1001964.06, 31445.041, 0.0, 9.999756, 10.000001 
3.3503005e+2, 2.04551e+2, -990141.75, -997734.4, 27992.906, -0.04026988, 0.09744166, -965688.9, -30282.41, 0.0, 9.99972, 9.99965 
3.3502397e+2, 2.1455117e+2, -966410.25, -937572.94, 28086.242, 0.04231924, 0.118262276, -920420.5, -83012.98, 0.0, 9.999219, 9.999631 
3.3501747e+2, 2.2455099e+2, -916564.4, -878034.1, 37591.04, 0.04997703, 0.15135428, -855059.1, -115648.08, 0.0, 9.998959, 9.999488 
3.350107e+2, 2.3455034e+2, -827191.1, -784933.2, 40192.8, -0.02847749, 0.103747755, -760654.06, -119235.67, 0.0, 9.998908, 9.999477 
3.350035e+2, 2.4455005e+2, -644659.4, -606155.44, -6186.1436, -0.11553399, 0.114718616, -605185.94, -61764.777, 0.0, 9.999297, 9.999851 
3.3499563e+2, 2.5454998e+2, -446912.97, -456124.53, 4454.7056, -0.2237756, 0.086628966, -445111.13, 309.58823, 0.0, 9.9999695, 9.999879 
3.349887e+2, 2.6455015e+2, -346103.7, -299856.97, -40822.723, -0.18815003, 0.09430555, -276063.53, 71353.59, 0.0, 9.999757, 10.000383 
3.3498278e+2, 2.7455023e+2, -468827.72, -307367.2, -1831.0791, 0.015642727, 0.031234201, -307346.4, -57933.59, 0.000000000044508567, 9.998231, 10.000393 
3.34976e+2, 2.8455007e+2, -429274.94, -412061.0, 43045.02, 0.06109643, 0.055152353, -376770.88, -225356.7, 0.00000018851506, 9.998567, 9.998848 
3.3496773e+2, 2.945496e+2, -27331.666, -178666.34, 34147.293, -0.120627545, 0.09250476, -19983.441, 33439.117, 0.0000023038672, 10.000689, 9.998756 
3.3495986e+2, 3.0454722e+2, 82882.42, -15878.187, -84978.805, -0.11663475, -0.046290874, 131786.45, 131786.45, 0.000011796056, 10.000799, 9.999482 
3.3495203e+2, 3.1454784e+2, -132215.9, 127674.79, 115923.266, 0.029818414, 0.03263552, 171867.31, 171867.31, 0.000034748333, 9.99818, 10.001739 
3.4509096e+2, 1.2456006e+2, -1611342.4, -1631410.6, -65616.25, 0.038779743, 0.0024894087, -1554997.5, 164309.55, 0.00012841672, 10.000484, 10.000315 
3.450809e+2, 1.3455883e+2, -1633116.5, -1640385.9, -51057.934, -0.17528304, -0.14650652, -1585564.0, 35751.53, 0.00005393956, 9.999911, 9.999876 
3.4507293e+2, 1.4455913e+2, -1596679.6, -1604698.1, -9968.546, -0.17863077, -0.081700094, -1589944.4, -66631.64, 0.00001321429, 9.99964, 9.999548 
3.450681e+2, 1.5456021e+2, -1440336.4, -1493036.8, -19119.334, 0.07011708, 0.040149413, -1434130.8, -8824.59, 0.00000089811203, 10.000099, 9.999427 
3.4506097e+2, 1.6456008e+2, -1333931.9, -1432838.4, -26116.541, 0.13418514, 0.10720444, -1327459.3, -148.56712, 0.0000000015154811, 10.00034, 9.999053 
3.450509e+2, 1.7455846e+2, -1255127.0, -1350236.6, -22219.984, -0.052892063, 0.011039616, -1250192.0, -20862.969, 0.0, 10.0002365, 9.998998 
3.4504244e+2, 1.8455775e+2, -1142444.0, -1163003.5, 38484.03, -0.13526295, 0.012927256, -1112890.4, 18446.967, 0.0, 9.999979, 9.999733 
3.450361e+2, 1.9455788e+2, -1118323.4, -1101096.1, 658.2766, -0.0799384, 0.015644073, -1101071.0, -67734.14, 0.0, 9.999474, 9.999731 
3.450299e+2, 2.0455821e+2, -1035932.56, -1032561.4, -2830.046, -0.011695802, 0.092606924, -1030952.94, -95617.24, 0.0, 9.999467, 9.999529 
3.4502366e+2, 2.1455856e+2, -865656.94, -905911.8, -12920.576, 0.0618043, 0.14580019, -861866.7, -24530.475, 0.0, 9.999982, 9.999481 
3.4501728e+2, 2.2455846e+2, -737725.7, -785156.94, 36862.496, 0.078707665, 0.18869273, -717608.94, 21730.443, 0.0, 10.000156, 9.999552 
3.4501067e+2, 2.3455761e+2, -673030.44, -705208.1, 43950.668, 0.0357558, 0.11868395, -642316.4, -969.016, 0.0, 9.999926, 9.999544 
3.450032e+2, 2.4455728e+2, -643558.3, -581718.9, 39136.42, -0.066980734, 0.110193856, -562761.9, -19411.998, 0.0, 9.999215, 10.000056 
3.449944e+2, 2.545572e+2, -718571.56, -571239.06, 40214.824, -0.24324499, 0.06369758, -560977.06, -115627.914, 0.0, 9.998026, 10.000035 
3.4498745e+2, 2.6455727e+2, -591528.7, -450042.28, 8771.701, -0.20384407, 0.074021414, -449500.53, -102154.484, 0.0, 9.998222, 10.000086 
3.4498274e+2, 2.7455738e+2, -216541.17, -218093.94, -55760.84, 0.10484828, 0.04184402, -161551.31, 87790.96, 0.0, 10.0001135, 10.000096 
3.4497622e+2, 2.8455687e+2, -183377.1, -303526.56, -7550.0015, 0.14821684, 0.051649965, -182904.52, -31557.672, 0.00000016974016, 10.000327, 9.998733 
3.4496713e+2, 2.9455563e+2, -324082.94, -331060.53, -1964.6823, -0.14292516, 0.026071746, -323567.78, -270205.9, 0.0000020169734, 9.998706, 9.998659 
3.4495905e+2, 3.045536e+2, -209265.27, -149343.42, -127963.89, -0.16235468, -0.07952688, -47879.785, -47879.785, 0.0000103175025, 9.998735, 9.999573 
3.4495285e+2, 3.1455472e+2, 139619.28, 218027.33, -39397.13, 0.20871991, 0.036965854, 234402.88, 234402.88, 0.000031962787, 10.000218, 10.0013685 
3.5509086e+2, 1.2456797e+2, -1642973.0, -1688763.6, -110431.82, -0.09648503, 0.03607217, -1553088.1, 166146.83, 0.00012227354, 10.000447, 9.999938 
3.5508168e+2, 1.3456756e+2, -1662354.4, -1701383.5, -62422.95, -0.12203056, 0.02094946, -1616466.8, 4770.064, 0.00005490219, 9.999931, 9.999437 
3.550745e+2, 1.4456701e+2, -1585418.0, -1588090.3, -10343.602, -0.028499369, 0.014408157, -1576324.6, -53083.55, 0.000015641235, 9.99966, 9.999661 
3.5506776e+2, 1.545657e+2, -1432929.8, -1485175.8, 12081.537, -0.012294006, -0.10926438, -1430271.3, -5017.322, 0.0000017221555, 10.000125, 9.999475 
3.5506016e+2, 1.6456535e+2, -1307826.5, -1361053.0, -45288.023, -0.015962068, -0.08956455, -1281911.0, 45346.6, 0.000000007086625, 10.000264, 9.999579 
3.5505113e+2, 1.7456593e+2, -1220103.9, -1268712.3, -13140.986, -0.08561156, -0.023487892, -1216778.8, 12473.999, 0.0, 10.000197, 9.999575 
3.5504285e+2, 1.8456587e+2, -1204743.6, -1268736.1, 9602.853, -0.11979062, 0.04287131, -1203333.6, -72078.57, 0.0, 9.999878, 9.999056 
3.550358e+2, 1.9456494e+2, -1182019.5, -1213025.5, -4029.3442, -0.08668914, 0.01446121, -1181504.4, -148237.55, 0.0, 9.999386, 9.999005 
3.5502905e+2, 2.0456482e+2, -1054379.0, -1040740.3, 2633.877, -0.064550035, 0.082124904, -1040249.3, -104977.88, 0.0, 9.999332, 9.999541 
3.5502258e+2, 2.1456544e+2, -882301.0, -907215.6, 20155.676, -0.06795231, 0.15607549, -871063.7, -33794.12, 0.0, 9.999837, 9.999544 
3.5501635e+2, 2.2456563e+2, -726124.75, -731559.75, 20082.25, -0.051799525, 0.20553026, -708576.94, 30692.305, 0.0, 10.00003, 9.999982 
3.5501033e+2, 2.3456508e+2, -665382.75, -652884.4, 48056.625, -0.016239794, 0.11978865, -610672.3, 30600.74, 0.0, 9.999773, 9.999976 
3.55003e+2, 2.4456507e+2, -636342.8, -538867.2, -15501.3125, -0.03154318, 0.106276415, -536461.4, 6809.482, 0.0, 9.999103, 10.000401 
3.549941e+2, 2.5456542e+2, -715132.25, -532021.94, 7904.021, -0.10327776, 0.06783545, -531681.44, -86416.98, 0.0, 9.997897, 10.000363 
3.549869e+2, 2.6456517e+2, -686033.8, -636045.2, 65135.016, -0.10872669, 0.08701774, -591273.56, -244007.88, 0.0, 9.998174, 9.998832 
3.5498187e+2, 2.7456397e+2, -325333.53, -423210.6, 30683.543, -0.02699824, 0.05790723, -316509.97, -67231.05, 0.0, 10.000024, 9.998731 
3.5497513e+2, 2.8456303e+2, -166856.61, -261938.52, -75750.84, -0.025324974, 0.08538986, -124964.17, 26325.014, 0.00000011654808, 10.000298, 9.999032 
3.549662e+2, 2.9456264e+2, -311986.75, -283301.78, -44802.754, -0.14412972, 0.10330841, -250601.8, -197307.61, 0.0000016052002, 9.998613, 9.999032 
3.5495812e+2, 3.0456164e+2, -262459.25, -264848.13, -82955.8, -0.15840428, 0.12058011, -180689.28, -180689.28, 0.000008325357, 9.99874, 9.998784 
3.54953e+2, 3.1456047e+2, 22908.412, -15803.614, 65223.29, 0.12825787, 0.09171431, 71587.19, 71587.19, 0.000028551576, 10.000169, 9.999793 
3.650911e+2, 1.2457578e+2, -1765074.4, -1765241.8, -11265.855, -0.05929984, 0.019872917, -1753891.9, -34731.605, 0.000118926524, 9.99967, 9.999801 
3.6508283e+2, 1.345758e+2, -1554293.4, -1659994.3, -19228.78, -0.025972942, 0.06070028, -1550904.0, 70254.055, 0.000056465244, 10.000714, 9.999345 
3.6507615e+2, 1.4457497e+2, -1434246.4, -1514416.1, 55860.67, 0.12885964, 0.029011743, -1405576.6, 117588.03, 0.00001794202, 10.000694, 9.999669 
3.6506733e+2, 1.545734e+2, -1517905.1, -1522059.4, 42941.19, -0.027742418, -0.12130173, -1476990.9, -51812.14, 0.000002788093, 9.999528, 9.999511 
3.6505926e+2, 1.6457295e+2, -1434003.9, -1403011.6, 31605.727, -0.07130597, -0.119876616, -1383307.5, -56125.156, 0.00000008230677, 9.999318, 9.999751 
3.6505157e+2, 1.7457373e+2, -1216753.4, -1246084.9, 4699.4155, -0.047827005, -0.050422277, -1216018.9, 13156.154, 0.0, 10.000132, 9.9997635 
3.6504376e+2, 1.8457371e+2, -1103696.3, -1238229.8, 33374.77, -0.047387015, 0.018122109, -1095871.8, 35304.406, 0.0, 10.000653, 9.998892 
3.6503616e+2, 1.9457251e+2, -997670.3, -1144658.5, 35074.55, -0.049812146, -0.018616142, -989729.75, 43460.375, 0.0, 10.000742, 9.998823 
3.6502886e+2, 2.0457199e+2, -918977.3, -1004832.5, 80383.41, -0.06203096, 0.032552395, -870777.1, 64421.17, 0.0, 10.000383, 9.999284 
3.650219e+2, 2.1457209e+2, -957636.94, -971902.75, 46215.332, -0.09324418, 0.07904306, -918007.3, -80805.336, 0.0, 9.99944, 9.99929 
3.6501554e+2, 2.245723e+2, -877960.6, -779095.94, 52167.254, -0.07240066, 0.13201015, -756660.5, -17458.834, 0.0, 9.998879, 10.00021 
3.650099e+2, 2.345724e+2, -795686.3, -686299.5, 40585.92, 0.02118855, 0.08769657, -672885.75, -31686.984, 0.0, 9.998757, 10.000234 
3.6500287e+2, 2.4457255e+2, -617456.2, -561764.94, -16528.54, 0.042753555, 0.090347044, -557228.94, -14033.753, 0.0, 9.999348, 10.000139 
3.6499414e+2, 2.5457266e+2, -320767.66, -365128.6, -62407.14, -0.017520739, 0.05289326, -276716.53, 168475.31, 0.0, 10.000708, 10.0001545 
3.6498684e+2, 2.6457223e+2, -311333.88, -472167.16, 42471.695, -0.055984654, 0.072859004, -300807.22, 46387.64, 0.0, 10.000824, 9.998678 
3.6498138e+2, 2.7457082e+2, -406220.22, -478835.28, 72845.16, -0.043816954, 0.040274005, -361135.75, -111925.95, 0.0, 9.999538, 9.998585 
3.649748e+2, 2.8456968e+2, -310251.78, -345326.4, 7316.6753, -0.032648686, 0.054961156, -308786.7, -157564.36, 0.000000055764154, 9.999354, 9.998923 
3.6496654e+2, 2.9456913e+2, -57751.113, -174552.52, -24066.81, -0.050946943, 0.066217944, -52986.527, 242.262, 0.0000011855267, 10.00042, 9.998908 
3.6495793e+2, 3.0456877e+2, -6186.899, -157584.3, -16731.902, -0.13352694, 0.1625463, -4359.799, -4359.799, 0.0000067298934, 10.000598, 9.998615 
3.649525e+2, 3.145669e+2, -107186.625, -91231.055, 130887.86, 0.11859895, 0.08340758, 31921.928, 31921.928, 0.00002565761, 9.999349, 9.99967 
3.7509075e+2, 1.2458367e+2, -1750819.0, -1736060.0, 43321.85, -0.12828296, -0.00045917556, -1699493.6, 19587.74, 0.0001191897, 9.999672, 9.99999 
3.7508392e+2, 1.3458364e+2, -1529325.5, -1608290.6, 27365.146, -0.024034211, -0.008757966, -1520769.4, 100309.484, 0.00005856906, 10.000716, 9.999691 
3.7507746e+2, 1.44583e+2, -1447944.6, -1525800.3, -3118.745, 0.15073325, -0.035107974, -1447820.0, 75263.33, 0.000020069963, 10.000624, 9.999624 
3.750664e+2, 1.5458314e+2, -1515069.9, -1524286.4, 13218.856, -0.1070754, -0.009263919, -1505679.1, -80597.02, 0.0000038584762, 9.9995575, 9.999484 
3.7505803e+2, 1.6458277e+2, -1456276.4, -1438300.0, 47297.22, -0.16108602, 0.010672795, -1399144.5, -72058.71, 0.00000020238203, 9.999272, 9.999529 
3.750519e+2, 1.7458193e+2, -1241110.5, -1289208.4, 49947.383, -0.060748268, -0.058931544, -1209724.0, 19370.73, 0.0, 10.000095, 9.999487 
3.7504473e+2, 1.8458125e+2, -1093662.3, -1192809.8, 25512.713, -0.04204193, -0.059377786, -1087482.5, 43618.63, 0.0, 10.000549, 9.999251 
3.7503675e+2, 1.9458048e+2, -986411.3, -1094237.5, 52061.55, -0.091615744, -0.09257162, -965377.56, 67729.82, 0.0, 10.000631, 9.999218 
3.7502894e+2, 2.0457965e+2, -978502.4, -1098882.4, 33649.01, -0.11853939, -0.06603652, -969735.25, -34618.023, 0.0, 10.000252, 9.998703 
3.750211e+2, 2.1457857e+2, -1023859.8, -1070786.5, 21528.482, -0.1417651, -0.074028954, -1015479.75, -178346.84, 0.0, 9.999278, 9.998688 
3.750144e+2, 2.245785e+2, -894533.1, -786649.2, 30183.463, -0.09612419, -0.016723985, -778778.75, -39642.793, 0.0, 9.998751, 10.000226 
3.7500897e+2, 2.3457938e+2, -809291.5, -688360.3, 46873.516, 0.026880832, 0.009541749, -672319.6, -31193.188, 0.0, 9.998632, 10.000284 
3.750024e+2, 2.4457964e+2, -685464.5, -681247.3, 20883.75, 0.03867144, 0.05658807, -662366.0, -119242.33, 0.0, 9.999256, 9.999362 
3.749942e+2, 2.5457892e+2, -396194.28, -497002.25, 2609.955, -0.11088106, 0.021887217, -396126.75, 49004.426, 0.0, 10.000597, 9.999304 
3.7498692e+2, 2.6457843e+2, -251190.97, -335673.3, -13401.423, -0.1617551, 0.032785356, -249116.06, 98018.17, 0.0, 10.000773, 9.999639 
3.749809e+2, 2.7457786e+2, -344331.88, -330293.56, 38440.504, -0.07759321, -0.021024268, -298236.63, -49100.81, 0.0, 9.99945, 9.999649 
3.749747e+2, 2.845767e+2, -345817.8, -411270.3, 33856.465, -0.0066053146, -0.038735792, -331456.2, -180310.13, 0.00000003400916, 9.999318, 9.998488 
3.749677e+2, 2.9457512e+2, -113779.05, -272567.06, 33258.875, -0.014178258, -0.08081841, -107094.25, -53929.375, 0.000000899484, 10.000332, 9.9982815 
3.7495795e+2, 3.0457488e+2, 16348.572, -102483.42, -63069.035, -0.21640311, 0.048450984, 43581.082, 43581.082, 0.000005766145, 10.000566, 9.999011 
3.7495056e+2, 3.1457356e+2, -37233.848, 69001.37, 101917.56, -0.07707978, -0.031399038, 130812.734, 130812.734, 0.000023929499, 9.999279, 10.00081 
3.8509226e+2, 1.2459174e+2, -1598819.1, -1691911.8, 137981.81, 0.0075239427, -0.0031397343, -1499744.3, 219255.44, 0.00012316402, 10.000843, 9.999735 
3.8508436e+2, 1.3459118e+2, -1619064.1, -1665328.4, -14765.613, -0.011822113, -0.05460337, -1614753.3, 6249.9683, 0.000061385945, 10.000138, 9.999597 
3.8507733e+2, 1.445905e+2, -1552565.8, -1560270.5, -44079.316, 0.12486813, -0.087041505, -1512170.8, 10838.264, 0.000022093489, 9.999838, 9.9997635 
3.850667e+2, 1.545915e+2, -1429706.1, -1464356.1, -53962.66, -0.05120579, 0.0096760895, -1390355.6, 34644.426, 0.000004863891, 10.000075, 9.999638 
3.8505852e+2, 1.6459142e+2, -1320851.0, -1399585.5, 44187.87, -0.07935305, 0.058568094, -1301037.6, 25964.102, 0.00000029520132, 10.000298, 9.99931 
3.8505238e+2, 1.7459016e+2, -1209322.0, -1297622.0, 29322.557, -0.028073603, -0.032361526, -1200471.8, 28543.355, 0.0, 10.000405, 9.999281 
3.8504523e+2, 1.8458939e+2, -1099652.6, -1182386.1, 9230.061, -0.03529225, -0.035640065, -1098635.4, 32386.785, 0.0, 10.00044, 9.999379 
3.8503736e+2, 1.9458884e+2, -1015803.5, -1098779.3, -11856.238, -0.07209652, -0.06172433, -1014142.6, 18883.463, 0.0, 10.000363, 9.999326 
3.8502952e+2, 2.0458807e+2, -939616.9, -1049695.1, 3137.902, -0.08495361, -0.047461756, -939527.5, -4493.5894, 0.0, 10.000398, 9.998968 
3.8502148e+2, 2.1458685e+2, -822164.9, -949346.6, 33500.367, -0.08697684, -0.093813285, -813880.3, 23168.045, 0.0, 10.000546, 9.99892 
3.850144e+2, 2.245866e+2, -669609.56, -718816.1, 97843.484, -0.051350743, -0.04767432, -593323.44, 145728.81, 0.0, 10.0004835, 9.9998455 
3.8500836e+2, 2.3458737e+2, -604684.56, -634104.8, 51529.496, 0.027751409, 0.0055841315, -565806.7, 75238.64, 0.0, 10.000242, 9.999872 
3.850019e+2, 2.4458727e+2, -619714.7, -693437.2, 67660.48, 0.034877658, 0.05559563, -579526.0, -36478.785, 0.0, 9.999913, 9.998945 
3.849947e+2, 2.5458586e+2, -580714.4, -638083.3, 53804.473, -0.061474822, -0.0048943483, -548425.75, -103363.695, 0.0, 9.999549, 9.9988365 
3.8498753e+2, 2.6458514e+2, -433210.3, -424878.5, 8843.095, -0.10804201, 0.0059439656, -419269.2, -72200.87, 0.0, 9.99952, 9.999639 
3.8498068e+2, 2.7458498e+2, -277386.22, -291090.63, -43610.6, -0.05662107, -0.009150139, -240092.78, 8973.5, 0.0, 9.999883, 9.999709 
3.8497436e+2, 2.8458408e+2, -248218.56, -327335.28, -6342.804, 0.011844221, -0.025086887, -247713.3, -96639.56, 0.000000026095549, 9.999839, 9.998812 
3.84968e+2, 2.945822e+2, -242058.97, -297224.63, 35204.625, 0.044829775, -0.12907197, -224918.45, -171825.44, 0.00000066980994, 9.9993, 9.998605 
3.8495788e+2, 3.0458158e+2, -166580.36, -192018.83, -29119.76, -0.20139198, -0.050669175, -147523.2, -147523.2, 0.000005131084, 9.999319, 9.998987 
3.8495013e+2, 3.1458127e+2, 17768.797, 128928.04, 10914.619, -0.045534827, -0.03223219, 129989.59, 129989.59, 0.000023471404, 9.999534, 10.001085 
3.9509505e+2, 1.2460004e+2, -1669443.9, -1808705.4, 118199.97, 0.13304046, 0.009097457, -1601889.8, 117025.0, 0.0001272644, 10.000752, 9.99897 
3.9508373e+2, 1.3459845e+2, -1664572.0, -1744113.5, -29815.148, -0.115515225, -0.08856018, -1654637.1, -33705.953, 0.00006380605, 10.000098, 9.999068 
3.9507535e+2, 1.4459755e+2, -1548799.4, -1542244.1, -52316.31, -0.091969304, -0.123427056, -1493102.9, 29837.957, 0.000023677207, 9.999778, 9.999923 
3.9506763e+2, 1.5459849e+2, -1413192.5, -1433250.9, -32040.883, -0.00024098817, -0.056003273, -1389647.9, 35284.645, 0.000005569423, 10.000081, 9.99985 
3.9506045e+2, 1.6459872e+2, -1336806.8, -1414484.6, 31886.47, 0.051290963, 0.018680312, -1325394.3, 1537.0691, 0.00000035120044, 10.00023, 9.999238 
3.9505276e+2, 1.7459828e+2, -1225393.1, -1311216.5, 46098.676, -0.059786033, 0.020466395, -1205324.6, 23612.26, 0.0, 10.00033, 9.999223 
3.9504498e+2, 1.8459804e+2, -1125030.1, -1209283.0, -5541.57, -0.13092314, 0.07790109, -1124667.1, 6273.288, 0.0, 10.000324, 9.999255 
3.950376e+2, 1.9459775e+2, -1041203.1, -1119647.3, -2080.3013, -0.11423351, 0.091646545, -1041147.94, -8203.408, 0.0, 10.000233, 9.999243 
3.950302e+2, 2.0459743e+2, -882840.1, -895597.25, -5335.032, -0.07629789, 0.10049689, -880903.1, 54043.7, 0.0, 10.000241, 10.000102 
3.9502266e+2, 2.1459696e+2, -767721.6, -787546.1, 54068.914, -0.046843372, 0.009453318, -722663.9, 114284.32, 0.0, 10.000347, 10.000121 
3.9501518e+2, 2.2459666e+2, -747160.44, -847895.1, 78041.18, -0.047591653, 0.027130654, -704644.56, 34305.71, 0.0, 10.00034, 9.999033 
3.9500767e+2, 2.3459636e+2, -689646.2, -775093.8, 56785.207, -0.0931062, 0.066411406, -661307.44, -20351.822, 0.0, 10.000092, 9.998977 
3.9500096e+2, 2.4459541e+2, -636131.3, -709270.75, 42326.76, -0.07801121, 0.08476401, -616764.44, -73798.38, 0.0, 9.999829, 9.998884 
3.9499518e+2, 2.5459346e+2, -596481.4, -647148.94, 53698.87, 0.0006573635, -0.03002718, -562440.3, -117455.05, 0.0, 9.99944, 9.998834 
3.949883e+2, 2.6459238e+2, -510188.8, -568478.6, 10521.761, -0.0069142454, -0.007005248, -508347.7, -161350.69, 0.0, 9.999449, 9.99869 
3.9498034e+2, 2.745922e+2, -362081.53, -446590.97, -15819.817, -0.10750499, 0.07630257, -359217.22, -110215.64, 0.0, 9.999787, 9.9986925 
3.9497343e+2, 2.8459162e+2, -177726.66, -161443.47, -37293.125, -0.09536675, 0.09264407, -131413.58, 19592.42, 0.000000010243951, 9.999769, 9.99998 
3.9496705e+2, 2.945903e+2, -171852.23, -117718.805, 34650.418, -0.014947079, -0.07522759, -100816.68, -47803.516, 0.0000005130985, 9.9991665, 9.999901 
3.9495742e+2, 3.0458885e+2, -196201.11, -252761.9, -24631.484, -0.2107477, -0.12973467, -186978.3, -186978.3, 0.0000059963604, 9.999307, 9.998578 
3.9495042e+2, 3.145896e+2, -36233.066, 34936.867, 13234.864, -0.0318788, 0.04624725, 37318.355, 37318.355, 0.000027747768, 9.999455, 10.000477 
4.05096e+2, 1.24607064e+2, -1666783.4, -1769323.3, 60527.313, 0.18290442, 0.025610039, -1638730.1, 80118.84, 0.0001282802, 10.000581, 9.99933 
4.0508458e+2, 1.3460615e+2, -1686891.1, -1704727.0, -100855.63, -0.004518621, -0.053400304, -1594559.9, 26297.477, 0.00006493345, 9.999721, 9.999523 
4.0507507e+2, 1.4460576e+2, -1584163.3, -1573760.5, -10948.108, -0.07913611, -0.05542823, -1566841.0, -43979.105, 0.00002457309, 9.999597, 9.999792 
4.050681e+2, 1.5460601e+2, -1407245.0, -1449387.4, -47585.418, 0.04250463, -0.042240597, -1376274.3, 48586.965, 0.000005781208, 10.000189, 9.999693 
4.050613e+2, 1.6460599e+2, -1285922.3, -1364759.5, 30170.07, 0.11062785, 0.0037739498, -1275701.5, 51160.676, 0.0000003430959, 10.000467, 9.999463 
4.0505335e+2, 1.746058e+2, -1194527.4, -1271185.5, 35991.15, -0.030037416, 0.0075504407, -1180278.1, 48585.375, 0.0, 10.0004225, 9.9994545 
4.0504536e+2, 1.8460567e+2, -1125252.9, -1206401.5, 17918.563, -0.11865058, 0.06193514, -1121472.4, 9392.837, 0.0, 10.000322, 9.999271 
4.050378e+2, 1.946052e+2, -1071163.1, -1134742.8, 10097.964, -0.09830985, 0.061143134, -1069597.9, -36726.71, 0.0, 10.000038, 9.999234 
4.0503043e+2, 2.0460497e+2, -937368.6, -931621.75, -909.6767, -0.053310074, 0.08287942, -931481.2, 3391.9094, 0.0, 9.999905, 10.000015 
4.050232e+2, 2.1460481e+2, -834506.5, -833616.5, -65841.03, -0.0000115520625, 0.031250753, -768218.94, 68653.24, 0.0, 9.999936, 10.000005 
4.0501565e+2, 2.2460444e+2, -803839.4, -896236.1, -47455.75, -0.011637733, 0.05536384, -783808.3, -44932.938, 0.0, 10.000047, 9.99884 
4.0500766e+2, 2.3460358e+2, -679391.6, -797977.75, -40001.273, -0.1027374, 0.059840217, -667160.06, -26274.242, 0.0, 10.000271, 9.998739 
4.0500095e+2, 2.4460247e+2, -559895.94, -649396.06, -2702.8208, -0.07660886, 0.06543539, -559814.4, -16917.43, 0.0, 10.000257, 9.999086 
4.0499565e+2, 2.5460097e+2, -495970.97, -563833.9, 3826.9248, 0.08213763, -0.027352354, -495755.84, -50845.81, 0.0, 10.00001, 9.999118 
4.049888e+2, 2.646001e+2, -442545.1, -535912.8, 50626.883, 0.08183791, -0.0017416998, -420363.38, -73443.63, 0.0, 9.999903, 9.99869 
4.049803e+2, 2.7459973e+2, -344631.3, -442549.66, 77222.836, -0.08769735, 0.06081643, -302155.44, -53227.71, 0.0, 9.99991, 9.998658 
4.0497285e+2, 2.845994e+2, -191538.27, -155081.2, 59749.617, -0.10924044, 0.09714059, -110841.375, 40089.008, 0.0000000008315615, 9.999599, 10.000109 
4.0496632e+2, 2.9459876e+2, -178160.84, -94553.02, 22760.895, 0.018910475, -0.022716627, -88758.35, -35827.875, 0.0000007104038, 9.998999, 10.000135 
4.0495732e+2, 3.045972e+2, -180991.66, -260443.14, 12852.684, -0.14795367, -0.09825352, -178964.25, -178964.25, 0.000009515816, 9.999477, 9.998446 
4.0495092e+2, 3.1459767e+2, 105855.195, 22914.035, -9165.7295, 0.026042545, 0.07228817, 106856.016, 106856.016, 0.000039448827, 10.000735, 9.999795 
4.1509447e+2, 1.2461268e+2, -1550834.1, -1544931.4, 8029.278, -0.10454373, 0.036864996, -1539328.3, 179475.06, 0.00012596608, 10.00063, 10.000846 
4.1508645e+2, 1.3461435e+2, -1568048.1, -1483943.6, -122624.02, 0.1718371, 0.060200613, -1396361.6, 224419.53, 0.00006410072, 9.9998, 10.001005 
4.15076e+2, 1.4461505e+2, -1616242.3, -1629298.8, -2063.6406, 0.015916727, 0.10838828, -1615923.9, -93150.875, 0.00002430965, 9.999566, 9.999423 
4.1506782e+2, 1.5461408e+2, -1443922.8, -1511718.5, -9256.307, -0.037513755, 0.043328915, -1442681.8, -17895.709, 0.0000053776803, 10.000145, 9.999282 
4.1506076e+2, 1.6461326e+2, -1269311.0, -1308575.1, 16586.623, -0.020098034, 0.011767423, -1263242.3, 63551.605, 0.0000002359893, 10.000374, 9.999891 
4.1505367e+2, 1.7461285e+2, -1169894.1, -1206323.4, 49679.645, -0.071718104, -0.05499353, -1135195.3, 93598.25, 0.0, 10.000364, 9.999926 
4.150458e+2, 1.8461229e+2, -1127216.5, -1188128.0, -5826.97, -0.13329355, -0.07566996, -1126664.1, 4132.175, 0.0, 10.000231, 9.999437 
4.150375e+2, 1.9461122e+2, -1074978.8, -1117133.6, 10059.187, -0.15674925, -0.15438902, -1072701.4, -39895.61, 0.0, 9.999938, 9.999395 
4.1502982e+2, 2.0461068e+2, -1050185.8, -1140666.1, -12944.763, -0.13193826, -0.10617986, -1048370.1, -113557.24, 0.0, 9.999783, 9.998648 
4.1502267e+2, 2.1461052e+2, -957912.44, -1047265.44, -53576.65, -0.07224074, -0.015226958, -932829.0, -96009.734, 0.0, 9.999753, 9.998626 
4.150154e+2, 2.2461006e+2, -798870.6, -849312.1, -51388.16, -0.0642752, 0.052000355, -766847.8, -28021.598, 0.0, 9.999888, 9.99924 
4.1500795e+2, 2.3460901e+2, -665717.56, -737749.3, -18494.678, -0.1266113, -0.011178294, -661246.44, -20410.299, 0.0, 10.000134, 9.999218 
4.150013e+2, 2.4460848e+2, -535339.94, -579331.06, -22205.389, -0.09510362, -0.0007276369, -526080.3, 16759.383, 0.0, 10.000172, 9.999607 
4.1499558e+2, 2.546083e+2, -474719.75, -495547.03, 7789.0337, 0.045653906, -0.012007865, -472129.06, -27291.055, 0.0, 9.999902, 9.999638 
4.149886e+2, 2.6460811e+2, -379381.6, -387999.84, 39619.332, 0.04533949, 0.004214106, -343837.72, 3000.8892, 0.0, 9.999837, 9.999734 
4.1498014e+2, 2.7460766e+2, -286737.97, -296493.78, 89856.18, -0.12998924, -0.04747403, -201627.39, 47216.88, 0.0, 9.99981, 9.999705 
4.1497236e+2, 2.846075e+2, -249986.38, -283227.88, 24325.26, -0.15382984, -0.0021697767, -237145.83, -86300.016, 0.00000000001177225, 9.999612, 9.99923 
4.149654e+2, 2.946076e+2, -252567.17, -233060.64, 15644.425, -0.018277364, 0.043913104, -224378.23, -171533.8, 0.0000013022876, 9.998918, 9.99923 
4.149571e+2, 3.0460653e+2, -165564.28, -219322.69, 56601.184, -0.14999968, 0.04901179, -129784.2, -129784.2, 0.000014575742, 9.999453, 9.9987335 
4.14951e+2, 3.1460598e+2, 45435.734, -72960.77, 34598.48, -0.107711986, 0.089133956, 54804.88, 54804.88, 0.000055427667, 10.000626, 9.999183 
4.250941e+2, 1.24620125e+2, -1670624.4, -1560538.9, 166130.4, -0.14133738, 0.020397127, -1440570.1, 278160.75, 0.00012015749, 9.999618, 10.0012245 
4.2508766e+2, 1.3462235e+2, -1521137.8, -1432922.8, -76845.73, 0.31116775, 0.06757561, -1388425.9, 232277.66, 0.00006079175, 9.999995, 10.001254 
4.2507613e+2, 1.4462335e+2, -1499527.0, -1572655.6, 59882.01, 0.043795448, 0.13381594, -1465928.6, 56763.57, 0.00002257458, 10.000369, 9.999421 
4.2506802e+2, 1.5462218e+2, -1410479.6, -1494869.1, 44525.73, -0.031598266, 0.04906344, -1391331.6, 33375.2, 0.0000044461326, 10.000381, 9.999279 
4.2506105e+2, 1.6462144e+2, -1291800.8, -1318449.3, 81879.0, -0.013925803, 0.027227132, -1222169.0, 104545.24, 0.00000009724189, 10.000226, 9.99989 
4.2505413e+2, 1.746212e+2, -1248370.3, -1242851.6, 54971.47, -0.027191745, -0.022249367, -1190570.3, 38142.84, 0.0, 9.999827, 9.999932 
4.2504647e+2, 1.8462065e+2, -1173090.9, -1201416.0, 16119.137, -0.06285137, -0.047859132, -1165796.4, -35080.64, 0.0, 9.999864, 9.999531 
4.2503837e+2, 1.9461939e+2, -1006429.44, -1077102.4, 4721.4155, -0.0792473, -0.15535405, -1006115.44, 26610.775, 0.0, 10.000358, 9.999477 
4.2503053e+2, 2.046187e+2, -934196.1, -1091367.0, 44640.37, -0.07441085, -0.12194686, -922402.2, 12331.928, 0.0, 10.000625, 9.9985695 
4.2502284e+2, 2.1461844e+2, -846230.7, -1007451.4, 76362.47, -0.064683706, -0.029744998, -815803.9, 20937.975, 0.0, 10.000586, 9.998498 
4.250157e+2, 2.2461791e+2, -695484.7, -787540.1, 146137.56, -0.04947144, 0.033304967, -588297.75, 150451.47, 0.0, 10.000554, 9.999339 
4.250091e+2, 2.34617e+2, -602363.3, -691059.25, 123280.46, -0.03716807, -0.027006803, -515696.72, 125060.32, 0.0, 10.000511, 9.999353 
4.2500225e+2, 2.4461642e+2, -518414.75, -576927.9, 92496.54, -0.015867371, -0.024248315, -450658.13, 92102.5, 0.0, 10.000309, 9.999564 
4.249952e+2, 2.5461596e+2, -471884.1, -505101.34, 53701.355, 0.025430819, -0.05711607, -432281.7, 12480.346, 0.0, 9.999953, 9.999558 
4.24988e+2, 2.6461583e+2, -417265.53, -395311.25, 54085.355, 0.025182053, -0.03296116, -351100.3, -4338.2354, 0.0, 9.999534, 9.999837 
4.2498052e+2, 2.7461585e+2, -392796.6, -332406.2, 7126.162, -0.0232036, -0.046810906, -331576.7, -82813.65, 0.0, 9.999025, 9.99984 
4.249726e+2, 2.8461567e+2, -341636.3, -355801.03, -34980.438, -0.056810062, -0.0010638539, -313028.47, -162262.97, 0.0000000012455732, 9.999139, 9.998942 
4.2496452e+2, 2.946151e+2, -116396.59, -200102.98, -24487.395, -0.04239099, 0.013799622, -109759.35, -56987.93, 0.0000019825331, 10.000005, 9.998929 
4.2495722e+2, 3.0461454e+2, -49240.773, -153087.6, 71740.44, -0.105168805, 0.075438626, -12604.988, -12604.988, 0.000019679212, 10.000202, 9.998831 
4.2495176e+2, 3.1461385e+2, -122956.18, -163536.98, -36336.555, -0.023848068, 0.091794565, -101628.73, -101628.73, 0.00007104561, 9.999498, 9.999104 
4.3509415e+2, 1.24629386e+2, -1733578.1, -1664672.9, 87171.88, -0.16536088, -0.029751107, -1605392.3, 113240.08, 0.00011272219, 9.999542, 10.000536 
4.3508792e+2, 1.3463019e+2, -1584604.1, -1562127.6, -44661.36, 0.30323234, -0.031274386, -1527312.3, 93311.69, 0.00005585788, 10.000005, 10.00036 
4.3507513e+2, 1.446306e+2, -1485028.5, -1537339.1, 51948.387, -0.13568287, 0.011360397, -1453022.5, 69597.664, 0.000019900395, 10.000335, 9.999685 
4.3506822e+2, 1.5463032e+2, -1379575.1, -1442388.1, 59985.027, -0.08615213, -0.018609952, -1343272.1, 81351.82, 0.0000034951138, 10.000414, 9.99963 
4.350616e+2, 1.6463041e+2, -1331296.4, -1379813.4, 54031.453, -0.0068978453, 0.041466214, -1296327.5, 30297.111, 0.000000032016867, 10.000149, 9.999502 
4.3505433e+2, 1.7463084e+2, -1287274.1, -1306822.3, 52486.484, -0.02377773, 0.09934603, -1243659.4, -15036.69, 0.0, 9.9997635, 9.99952 
4.3504694e+2, 1.846307e+2, -1187817.3, -1204737.0, 21761.303, -0.031285934, 0.1387546, -1172929.3, -42305.195, 0.0, 9.999749, 9.999564 
4.350399e+2, 1.9462979e+2, -1018728.3, -1073986.3, 38234.953, 0.012103116, 0.06048033, -999184.5, 33446.645, 0.0, 10.00024, 9.999555 
4.3503213e+2, 2.0462912e+2, -879127.75, -941595.2, 31927.057, -0.0013154137, 0.037555452, -865697.4, 68938.57, 0.0, 10.000473, 9.999669 
4.3502328e+2, 2.146285e+2, -789727.06, -853692.1, 87263.71, -0.10449737, -0.021844728, -728769.6, 107870.9, 0.0, 10.000431, 9.999625 
4.3501607e+2, 2.2462806e+2, -734362.8, -833455.5, 132612.11, -0.092200436, 0.0028112289, -642343.56, 96300.31, 0.0, 10.000403, 9.999096 
4.350107e+2, 2.3462753e+2, -642682.56, -741580.4, 134134.81, 0.046022117, 0.011089341, -549172.25, 91476.33, 0.0, 10.000366, 9.999075 
4.350035e+2, 2.4462631e+2, -582864.7, -684890.6, 66846.29, 0.051454872, -0.003601911, -549789.94, -7130.039, 0.0, 10.000203, 9.998869 
4.349941e+2, 2.5462407e+2, -537807.56, -614278.94, 53858.27, -0.10723816, -0.14884101, -509992.63, -65311.766, 0.0, 9.999842, 9.998856 
4.3498656e+2, 2.6462343e+2, -480452.72, -520208.9, 24895.768, -0.09865608, -0.09808054, -468472.72, -121784.43, 0.0, 9.999501, 9.998998 
4.34981e+2, 2.7462432e+2, -461996.78, -459344.25, 3113.9277, 0.08832767, 0.061182655, -457285.9, -208602.55, 0.0, 9.998945, 9.999009 
4.3497315e+2, 2.846237e+2, -332473.94, -323573.06, -15108.121, 0.051525876, 0.09529015, -312273.53, -161583.58, 0.000000012355592, 9.999093, 9.999181 
4.349634e+2, 2.9462126e+2, -113414.69, -175771.27, 23277.498, -0.19086815, -0.10968926, -105683.76, -52972.574, 0.0000027662056, 9.999937, 9.9991255 
4.3495733e+2, 3.0462107e+2, -53581.055, -169328.92, 37107.688, -0.14220995, -0.011764018, -42706.367, -42706.367, 0.000024180765, 10.000221, 9.9987135 
4.3495235e+2, 3.1462115e+2, -122964.516, -141345.95, -24818.963, 0.020373423, 0.089301676, -105689.21, -105689.21, 0.00008333817, 9.999399, 9.999307 
4.4509393e+2, 1.2463831e+2, -1852956.9, -1753151.0, -550.7933, -0.090115316, -0.01611843, -1753147.9, -34604.87, 0.00010688196, 9.998891, 10.000237 
4.4508865e+2, 1.3463852e+2, -1624536.9, -1620325.3, -64701.527, 0.3948153, -0.039309382, -1557695.3, 62847.656, 0.000051033883, 9.999926, 10.000002 
4.4507542e+2, 1.4463867e+2, -1420161.1, -1484200.1, 63330.137, -0.14554216, -0.010974313, -1381216.1, 141325.78, 0.000017295639, 10.000683, 9.999879 
4.4506904e+2, 1.5463877e+2, -1304689.5, -1378721.1, 25963.658, -0.05621982, -0.031227797, -1296491.6, 128048.44, 0.0000027656245, 10.000814, 9.999867 
4.450625e+2, 1.6463904e+2, -1270516.6, -1374697.1, 33916.984, 0.05037962, 0.04342276, -1260447.8, 66091.04, 0.000000035556127, 10.000641, 9.999317 
4.4505468e+2, 1.7463939e+2, -1255906.1, -1315529.3, 24711.629, 0.03192981, 0.11515415, -1246995.6, -18455.992, 0.0, 10.000066, 9.999326 
4.4504714e+2, 1.8463938e+2, -1164363.4, -1175866.3, 61264.152, 0.020113759, 0.16780569, -1108581.3, 21959.717, 0.0, 9.999851, 9.9997015 
4.4504043e+2, 1.9463861e+2, -1050600.3, -1073305.9, 55904.23, 0.06374244, 0.09009701, -1004907.75, 27638.44, 0.0, 9.999963, 9.999683 
4.4503286e+2, 2.046381e+2, -901334.06, -930584.1, 39435.082, 0.043287493, 0.06857146, -873899.4, 60649.563, 0.0, 10.000245, 9.999847 
4.4502413e+2, 2.1463767e+2, -739798.7, -806792.9, -2486.8674, -0.06645316, 0.011215728, -739706.5, 96844.73, 0.0, 10.000686, 9.99982 
4.4501668e+2, 2.2463733e+2, -706959.75, -802176.06, 20550.574, -0.0663938, 0.026888331, -702713.7, 35839.293, 0.0, 10.000507, 9.999263 
4.4501078e+2, 2.3463678e+2, -749535.1, -779345.75, 29161.537, 0.06573732, 0.019249931, -731690.44, -91133.35, 0.0, 9.999566, 9.999206 
4.450034e+2, 2.4463555e+2, -699705.25, -771661.44, 47091.215, 0.06241934, 0.01066151, -676421.1, -133852.72, 0.0, 9.999529, 9.998595 
4.4499433e+2, 2.5463337e+2, -462799.94, -608853.4, 40372.445, -0.095148735, -0.100778066, -452383.03, -7793.1143, 0.0, 10.000492, 9.998576 
4.4498682e+2, 2.6463228e+2, -332542.9, -529638.9, 30346.852, -0.08569351, -0.04875196, -327976.2, 18626.818, 0.0, 10.000869, 9.998268 
4.449808e+2, 2.7463216e+2, -266785.44, -451614.97, -12396.3125, 0.09836155, 0.08257071, -265957.75, -17348.293, 0.0, 10.000657, 9.998236 
4.449729e+2, 2.8463104e+2, -145170.95, -248082.84, 5600.259, 0.060825653, 0.11368094, -144867.1, 5754.3135, 0.00000003062236, 10.000426, 9.999066 
4.449638e+2, 2.9462862e+2, -116590.58, -179001.53, -15898.64, -0.13438031, -0.075123586, -112773.94, -60132.535, 0.0000032986038, 9.999928, 9.999105 
4.4495848e+2, 3.046285e+2, -155505.11, -191046.61, 12048.146, 0.00084441015, 0.012923626, -151805.94, -151805.94, 0.000027227657, 9.999416, 9.998935 
4.4495186e+2, 3.1462795e+2, -102246.59, -68644.67, -42396.473, 0.05091139, 0.028825212, -39841.54, -39841.54, 0.000091368296, 9.999293, 9.999838 
4.550924e+2, 1.2464684e+2, -1853439.0, -1755429.3, -102237.73, -0.2039856, 0.041718923, -1691058.5, 27404.963, 0.000102696926, 9.998893, 10.000221 
4.5508927e+2, 1.3464727e+2, -1606504.8, -1603415.1, -8323.137, 0.42723876, 0.030959807, -1596494.6, 23966.396, 0.000047349753, 9.999995, 10.000091 
4.5507658e+2, 1.4464736e+2, -1418058.6, -1466686.0, 62549.773, -0.13768302, 0.042224377, -1375263.3, 147196.34, 0.000015080613, 10.000638, 10.000016 
4.5507014e+2, 1.546474e+2, -1301204.8, -1362899.4, 45886.03, -0.066004336, 0.006794409, -1276761.1, 147694.92, 0.0000021144335, 10.000786, 9.999987 
4.5506325e+2, 1.6464728e+2, -1270858.6, -1363764.0, -3273.6716, 0.029847888, 0.030862488, -1270743.4, 55713.78, 0.00000004449902, 10.000583, 9.999421 
4.550549e+2, 1.7464691e+2, -1250203.5, -1304006.3, 16405.738, 0.014736314, 0.020732122, -1245595.6, -17131.51, 0.0, 10.000059, 9.99941 
4.5504677e+2, 1.8464658e+2, -1166363.1, -1159341.8, 51671.8, -0.02823785, 0.029824845, -1111061.5, 19406.023, 0.0, 9.999764, 9.999854 
4.5503953e+2, 1.9464587e+2, -1060074.0, -1061173.0, 70448.8, -0.052731514, -0.05799836, -990172.56, 42298.363, 0.0, 9.999831, 9.9998255 
4.5503226e+2, 2.0464571e+2, -973850.2, -1048431.0, 41883.266, -0.065219134, -0.016648894, -955062.25, -20589.86, 0.0, 10.000099, 9.999111 
4.5502496e+2, 2.1464598e+2, -817723.25, -924525.94, 27382.21, -0.07910713, 0.07098358, -811112.2, 25360.98, 0.0, 10.000499, 9.999098 
4.5501724e+2, 2.2464578e+2, -692267.44, -736604.3, -24269.578, -0.0876919, 0.11265923, -681565.6, 56909.844, 0.0, 10.00035, 9.999794 
4.550089e+2, 2.3464477e+2, -725531.0, -699798.1, 8326.757, -0.106621034, -0.0021280798, -697338.75, -56856.645, 0.0, 9.999434, 9.999815 
4.5500153e+2, 2.4464422e+2, -707283.8, -756212.9, 69183.18, -0.10107325, 0.017838316, -658366.94, -115880.98, 0.0, 9.999404, 9.998765 
4.5499548e+2, 2.546439e+2, -469269.75, -591338.8, 90357.91, -0.056905486, 0.079188526, -421264.06, 23225.518, 0.0, 10.000361, 9.998764 
4.5498836e+2, 2.6464227e+2, -393403.53, -637947.06, 13364.583, -0.04573029, 0.10574441, -392675.3, -46167.96, 0.0, 10.000793, 9.997557 
4.5497963e+2, 2.7463916e+2, -335470.16, -571815.2, -2708.749, -0.11918461, 0.0087492755, -335439.13, -86896.74, 0.0, 10.000564, 9.99745 
4.5497152e+2, 2.8463763e+2, -178611.77, -313431.66, -24397.434, -0.14926906, 0.05965966, -174332.55, -23773.207, 0.000000022691747, 10.000398, 9.998635 
4.5496526e+2, 2.946373e+2, -143742.77, -229603.28, -23159.146, -0.017700257, 0.12083946, -137894.4, -85332.99, 0.0000033720132, 9.999882, 9.998791 
4.5496014e+2, 3.046367e+2, -117742.52, -105501.945, -3060.548, 0.19484326, 0.14661388, -104779.37, -104779.37, 0.000028360193, 9.999396, 9.999525 
4.549496e+2, 3.1463373e+2, -57116.69, 39994.61, 36789.156, -0.17333917, -0.14351262, 52357.703, 52357.703, 0.00009465621, 9.999229, 10.000614 
4.6509197e+2, 1.2465549e+2, -1889010.0, -1783223.1, -59786.984, -0.11074027, 0.034385983, -1756290.5, -37912.14, 0.00009773488, 9.998654, 10.000144 
4.6508905e+2, 1.3465601e+2, -1426689.0, -1524743.4, 95457.336, 0.3604265, 0.030820938, -1368404.6, 251969.97, 0.000043477085, 10.001223, 10.000049 
4.6507746e+2, 1.4465596e+2, -1269869.0, -1439765.4, 85267.28, -0.16496202, 0.04894798, -1234456.4, 287918.47, 0.000012657647, 10.001837, 9.99963 
4.65071e+2, 1.5465578e+2, -1419672.9, -1463579.1, -5942.595, -0.016702378, 0.029001748, -1418882.8, 5492.297, 0.0000014631825, 10.000154, 9.999608 
4.6506384e+2, 1.6465545e+2, -1425955.4, -1425605.1, -15381.089, 0.09487042, 0.045621473, -1410398.1, -84019.734, 0.000000030371112, 9.999487, 9.999512 
4.650552e+2, 1.7465477e+2, -1251502.8, -1292531.6, -24069.07, 0.04842588, -0.0062723174, -1240391.9, -12004.508, 0.0, 10.000012, 9.999505 
4.6504697e+2, 1.8465437e+2, -1088468.5, -1115905.3, 31900.184, -0.0026988287, -0.012062114, -1067462.0, 62928.75, 0.0, 10.000255, 9.999926 
4.6503964e+2, 1.9465397e+2, -1014743.06, -1031913.25, 22965.146, -0.02571007, -0.07576929, -998810.75, 33580.055, 0.0, 10.000087, 9.999917 
4.6503237e+2, 2.0465386e+2, -1000897.3, -1086480.1, 48227.11, -0.04949975, -0.026782993, -979214.25, -44822.29, 0.0, 10.000005, 9.9989 
4.650251e+2, 2.1465376e+2, -905374.2, -997609.9, 44257.63, -0.082144305, 0.0494405, -887573.4, -51176.637, 0.0, 10.000015, 9.9988365 
4.6501726e+2, 2.2465342e+2, -769412.2, -788646.25, -16970.031, -0.08816005, 0.09832106, -759523.56, -21122.318, 0.0, 9.999903, 9.999637 
4.6500874e+2, 2.3465256e+2, -700065.6, -704616.8, -68858.46, -0.07268865, 0.01292977, -633445.2, 6962.593, 0.0, 9.999698, 9.999646 
4.6500155e+2, 2.4465206e+2, -625917.7, -693351.5, 38518.49, -0.053499233, 0.035725307, -608443.75, -66032.66, 0.0, 9.999843, 9.998986 
4.6499622e+2, 2.5465173e+2, -450061.06, -558684.44, 43232.203, -0.013449073, 0.07307886, -434955.3, 9458.045, 0.0, 10.000375, 9.998983 
4.6498936e+2, 2.6465023e+2, -389612.25, -612617.25, -5607.5625, -0.015224543, 0.08569558, -389471.34, -43042.64, 0.0, 10.000703, 9.997784 
4.6498027e+2, 2.746472e+2, -298885.56, -529434.7, 28177.693, -0.105253905, -0.020537913, -295491.66, -47031.28, 0.0, 10.0007, 9.9976845 
4.649721e+2, 2.8464556e+2, -165446.72, -374025.47, 69587.445, -0.14052644, 0.03596103, -144361.9, 6116.738, 0.00000001636591, 10.000784, 9.998029 
4.649661e+2, 2.946449e+2, -7592.9316, -218232.94, 12322.79, 0.02581053, 0.123805456, -6874.4785, 45612.176, 0.0000038591365, 10.001065, 9.998287 
4.6496072e+2, 3.0464417e+2, 43049.586, -53877.363, -1766.617, 0.26335526, 0.16767292, 43081.773, 43081.773, 0.000029778155, 10.000574, 9.999349 
4.6494934e+2, 3.1464097e+2, -71910.66, 23332.885, -14704.709, -0.10360952, -0.11633606, 25551.473, 25551.473, 0.00009717631, 9.999159, 10.000551 
4.7509146e+2, 1.2466413e+2, -1907702.6, -1788104.9, -110583.96, -0.10218635, -0.03820348, -1722186.9, -3897.8035, 0.00009217974, 9.998545, 10.000147 
4.7508773e+2, 1.3466474e+2, -1431100.3, -1522922.4, 208643.52, 0.06990415, -0.031665888, -1263376.3, 356907.72, 0.00003847725, 10.001204, 10.000055 
4.7507763e+2, 1.4466453e+2, -1332208.5, -1564849.5, 11514.804, -0.37530613, 0.011070838, -1331640.0, 190647.95, 0.000009911169, 10.001802, 9.9987955 
4.7507113e+2, 1.546639e+2, -1471723.0, -1581824.0, -56470.586, -0.051227473, 0.0317851, -1447909.8, -23613.133, 0.0000009593812, 10.000184, 9.998788 
4.7506392e+2, 1.6466348e+2, -1429972.0, -1422765.3, -11080.405, 0.121471904, 0.078282624, -1414717.0, -88414.0, 0.000000014696447, 9.999441, 9.9995575 
4.7505525e+2, 1.7466289e+2, -1254346.5, -1286957.6, 10928.857, 0.020374365, 0.03192513, -1251022.8, -22712.559, 0.0, 9.999965, 9.99957 
4.7504723e+2, 1.8466274e+2, -1094730.9, -1109746.0, 15816.592, -0.030952618, 0.04575339, -1084730.5, 45580.125, 0.0, 10.000167, 10.000013 
4.7504047e+2, 1.9466291e+2, -1021387.94, -1027558.5, 31367.848, 0.016912017, 0.03112588, -992954.0, 39351.633, 0.0, 10.000003, 9.999993 
4.7503284e+2, 2.0466249e+2, -1002651.0, -1056572.5, 36441.88, -0.030381134, 0.034059547, -984280.8, -49972.87, 0.0, 9.999868, 9.9991665 
4.7502416e+2, 2.1466112e+2, -910965.75, -966855.25, 57731.66, -0.20133509, -0.047531337, -874771.2, -38450.13, 0.0, 9.999842, 9.9991255 
4.7501644e+2, 2.246603e+2, -848531.06, -928924.44, -36395.973, -0.18689254, -0.017536132, -834501.94, -96172.04, 0.0, 9.999783, 9.998742 
4.7500983e+2, 2.3465998e+2, -785419.1, -850794.3, -63333.824, 0.042322956, 0.046537027, -746835.06, -106499.625, 0.0, 9.999556, 9.998716 
4.7500303e+2, 2.4465896e+2, -622346.8, -661472.6, 46664.414, 0.0801995, 0.050729256, -591310.56, -48965.453, 0.0, 9.999734, 9.999259 
4.749961e+2, 2.5465688e+2, -448014.44, -529749.9, 78030.56, -0.09478047, -0.11988563, -400797.3, 43564.668, 0.0, 10.000259, 9.999241 
4.7498935e+2, 2.6465607e+2, -316067.56, -439864.28, -16492.035, -0.11099364, -0.10731024, -313908.2, 32459.123, 0.0, 10.000624, 9.999004 
4.7498244e+2, 2.7465636e+2, -222722.55, -348383.53, 43375.465, 0.009242826, -0.010041364, -209204.48, 39158.723, 0.0, 10.000609, 9.998968 
4.749743e+2, 2.846548e+2, -228380.33, -502888.88, 65903.484, -0.032701492, 0.031938206, -213378.22, -62998.406, 0.0000000367379, 10.000767, 9.997155 
4.7496575e+2, 2.9465112e+2, -85201.016, -365501.97, 36193.17, -0.15227924, -0.08902835, -80603.086, -28183.03, 0.000004901276, 10.000986, 9.997322 
4.7495976e+2, 3.046506e+2, -28119.398, -186176.48, -69155.52, 0.08612536, 0.069306545, -2133.668, -2133.668, 0.000032907166, 10.000517, 9.998463 
4.7495022e+2, 3.1464967e+2, -142925.53, -114037.32, 17422.021, -0.0017604276, 0.10710874, -105850.49, -105850.49, 0.00010232853, 9.999123, 9.9996195 
4.85092e+2, 1.24672204e+2, -1715768.3, -1715427.6, -186317.13, 0.046153244, -0.04678837, -1529280.8, 188930.14, 0.00008688649, 9.999938, 9.999994 
4.8508757e+2, 1.346728e+2, -1604296.4, -1635364.3, 130868.42, 0.0011102828, -0.011107304, -1488043.1, 132163.1, 0.000032757685, 10.000127, 9.999823 
4.8507938e+2, 1.4467259e+2, -1540722.3, -1640450.1, -74014.59, -0.29305285, 0.03440223, -1501341.8, 20868.42, 0.000007215262, 10.000278, 9.999003 
4.8507163e+2, 1.546719e+2, -1382103.1, -1518067.5, -102241.81, -0.03844802, 0.027230067, -1327305.1, 96914.164, 0.00000059770906, 10.000715, 9.998967 
4.850637e+2, 1.6467161e+2, -1243333.8, -1319357.0, 34922.9, 0.10207769, 0.07200725, -1229726.6, 96497.05, 0.0000000048834687, 10.000666, 9.999675 
4.8505524e+2, 1.7467141e+2, -1232739.8, -1258818.3, 40507.914, 0.02756698, 0.05034209, -1203224.1, 25001.822, 0.0, 10.000052, 9.999709 
4.850475e+2, 1.8467139e+2, -1162840.5, -1183284.9, 60930.008, 0.000066899964, 0.08536252, -1111281.1, 18944.744, 0.0, 9.9998865, 9.999633 
4.8504093e+2, 1.9467138e+2, -1023429.75, -1066654.3, 17523.713, 0.06147797, 0.08634964, -1017218.1, 15006.883, 0.0, 10.000172, 9.999625 
4.8503327e+2, 2.0467061e+2, -919609.06, -1012955.7, 21236.92, 0.00417263, 0.07345015, -915004.7, 19225.914, 0.0, 10.000414, 9.999218 
4.8502445e+2, 2.1466872e+2, -817427.9, -910377.6, 9028.139, -0.17922354, -0.06640619, -816559.1, 19687.143, 0.0, 10.000432, 9.999238 
4.850169e+2, 2.2466768e+2, -768544.8, -924078.6, -51801.207, -0.14734128, -0.051674668, -752871.6, -14615.048, 0.0, 10.000481, 9.99844 
4.850107e+2, 2.3466735e+2, -658223.9, -830322.6, -58425.39, 0.13094077, 0.04660277, -640263.56, -0.16252194, 0.0, 10.000592, 9.998364 
4.850039e+2, 2.4466619e+2, -548809.75, -649902.0, 83147.39, 0.17055704, 0.066526115, -502050.16, 40225.305, 0.0, 10.000342, 9.999043 
4.8499638e+2, 2.5466397e+2, -555097.7, -601540.8, 45668.5, -0.05309495, -0.09648281, -527085.94, -82791.24, 0.0, 9.999625, 9.999047 
4.8498958e+2, 2.6466322e+2, -466868.1, -480448.72, -64338.957, -0.08338262, -0.082881145, -408962.1, -62662.945, 0.0, 9.999446, 9.999292 
4.8498338e+2, 2.7466363e+2, -303860.16, -353906.06, -102861.59, 0.08611196, -0.0008279452, -223021.63, 25270.22, 0.0, 9.999896, 9.999277 
4.8497555e+2, 2.8466192e+2, -258640.28, -497399.34, -39839.902, 0.0396505, 0.0018699081, -252167.95, -101859.27, 0.00000008825205, 10.000465, 9.99734 
4.8496675e+2, 2.9465818e+2, -54897.918, -335809.25, -19709.318, -0.14874686, -0.14747652, -53521.813, -1172.1997, 0.0000056092463, 10.001126, 9.997458 
4.8495975e+2, 3.0465794e+2, -43877.15, -241904.06, -105839.266, 0.044044323, 0.05532524, 2042.5354, 2042.5354, 0.000035389916, 10.000617, 9.998019 
4.8495018e+2, 3.1465742e+2, -175886.89, -125526.18, 7810.1074, 0.11053769, 0.1789227, -124342.766, -124342.766, 0.00010599746, 9.998873, 9.999655 
4.9509227e+2, 1.24679655e+2, -1726590.1, -1754569.3, -265812.53, 0.0044142082, 0.01113278, -1474399.3, 243744.58, 0.00007926606, 10.000006, 9.999693 
4.9508798e+2, 1.346802e+2, -1629661.9, -1695389.0, 147029.19, -0.0014812641, 0.07916127, -1511868.3, 108272.94, 0.000026309035, 10.000155, 9.999394 
4.950823e+2, 1.4468019e+2, -1472412.5, -1484986.8, -73261.8, -0.07149857, 0.113823794, -1405168.5, 116972.7, 0.0000047383246, 10.000219, 10.000099 
4.9507195e+2, 1.5467983e+2, -1306352.1, -1355061.0, -71679.64, -0.11043813, 0.025756884, -1255002.5, 169139.75, 0.0000002991547, 10.000692, 10.000097 
4.9506277e+2, 1.6467991e+2, -1230545.0, -1283208.9, -1452.9363, -0.08904639, 0.038664147, -1230504.9, 95634.85, 0.0000000005507737, 10.000618, 9.9999485 
4.9505487e+2, 1.7468028e+2, -1220055.0, -1225019.8, 27527.793, -0.04447495, 0.049799863, -1194897.9, 33237.645, 0.0, 10.000016, 9.99996 
4.9504742e+2, 1.846802e+2, -1233070.0, -1307414.5, 58170.902, -0.023741277, 0.103007965, -1201208.8, -71071.2, 0.0, 9.999797, 9.998823 
4.950406e+2, 1.9467929e+2, -1096037.1, -1197606.9, 38003.242, -0.020328922, 0.09990671, -1083392.1, -51242.707, 0.0, 10.000083, 9.998772 
4.9503326e+2, 2.046782e+2, -940326.25, -1026799.1, 7274.8735, -0.05753393, 0.09871742, -939718.5, -5558.4434, 0.0, 10.00028, 9.999192 
4.9502555e+2, 2.1467663e+2, -838508.44, -926308.25, 22614.1, -0.14043975, -0.0057887333, -833026.2, 3145.4236, 0.0, 10.0002985, 9.9992 
4.950181e+2, 2.2467546e+2, -778167.06, -906022.0, -57926.875, -0.10036379, -0.011221826, -755826.06, -17644.107, 0.0, 10.000326, 9.998632 
4.9501097e+2, 2.3467453e+2, -666032.7, -807580.6, -38454.516, 0.06943438, 0.0033228893, -656260.4, -16067.788, 0.0, 10.00043, 9.998595 
4.950038e+2, 2.4467377e+2, -614915.9, -760529.7, 45675.07, 0.09793675, 0.083964154, -601774.8, -59572.9, 0.0, 10.000233, 9.998337 
4.9499658e+2, 2.5467286e+2, -621395.1, -716731.7, 32662.195, -0.024589812, 0.13031732, -611278.6, -167065.9, 0.0, 9.999527, 9.998305 
4.9498963e+2, 2.6467144e+2, -524327.44, -578798.5, -63442.51, -0.05361632, 0.14565755, -482521.5, -136295.2, 0.0, 9.999364, 9.9986515 
4.949826e+2, 2.7466908e+2, -370150.13, -458066.7, -71355.07, -0.0098141935, 0.008101234, -330299.84, -82053.266, 0.0, 9.999763, 9.998621 
4.949754e+2, 2.846672e+2, -176956.48, -313287.9, -25645.271, -0.05357407, -0.03266242, -172291.95, -22028.762, 0.00000018947561, 10.000406, 9.998631 
4.9496865e+2, 2.9466608e+2, 27341.506, -153118.38, 20939.65, -0.11127794, -0.04730368, 29739.375, 82014.055, 0.000005650319, 10.001081, 9.998731 
4.949605e+2, 3.0466613e+2, -38091.527, -236491.81, -177449.25, 0.023942327, 0.12127519, 66003.45, 66003.45, 0.00003451672, 10.000632, 9.998053 
4.9494815e+2, 3.146642e+2, -117497.9, 11084.857, 4394.8867, -0.051727515, 0.08593172, 11234.897, 11234.897, 0.00010176044, 9.998803, 10.000625 
5.050935e+2, 1.24688275e+2, -1527855.4, -1649225.8, -147864.44, 0.07453154, 0.07457798, -1428707.6, 289355.75, 0.000066640154, 10.001362, 9.9997425 
5.050878e+2, 1.3468839e+2, -1575759.8, -1677537.1, 219544.2, -0.0396228, 0.10751853, -1401283.6, 218779.31, 0.0000195532, 10.000561, 9.99932 
5.050844e+2, 1.4468814e+2, -1508052.9, -1468743.5, 37806.336, 0.146216, 0.10871656, -1445788.0, 76275.805, 0.0000028130235, 9.999846, 10.000384 
5.050725e+2, 1.54688e+2, -1430859.1, -1377453.4, -54248.15, -0.06660842, 0.013635732, -1343692.1, 80369.01, 0.00000011765629, 9.999696, 10.000415 
5.050627e+2, 1.6468805e+2, -1356621.4, -1378115.5, -14683.89, -0.1163052, 0.019483138, -1349171.9, -23112.92, 0.000000000026416515, 9.99989, 9.999651 
5.0505537e+2, 1.7468804e+2, -1188309.4, -1247661.0, -53702.04, -0.004349823, 0.025498306, -1156629.1, 71430.29, 0.0, 10.000382, 9.999634 
5.0504804e+2, 1.8468775e+2, -1124935.3, -1244651.5, 15503.229, 0.03377906, 0.071407154, -1122960.1, 7103.528, 0.0, 10.000497, 9.998918 
5.050408e+2, 1.9468686e+2, -1077034.3, -1175438.9, 45502.76, -0.0019258024, 0.06388054, -1059218.9, -27144.219, 0.0, 10.000168, 9.998881 
5.050335e+2, 2.0468606e+2, -982522.44, -1037949.6, 74106.88, -0.036812067, 0.08460891, -931116.7, 2965.5676, 0.0, 9.999973, 9.999243 
5.050263e+2, 2.1468516e+2, -909617.4, -953067.3, 60705.594, -0.059886854, 0.036819004, -866866.44, -30777.904, 0.0, 9.9998045, 9.999235 
5.0501883e+2, 2.246839e+2, -816123.4, -951849.06, 14211.537, -0.03961338, 0.036372013, -814651.25, -76551.6, 0.0, 10.000173, 9.998401 
5.050112e+2, 2.3468217e+2, -599148.2, -796416.2, -26180.268, 0.033176534, -0.0053452454, -595732.8, 44384.703, 0.0, 10.000993, 9.998395 
5.0500387e+2, 2.4468113e+2, -510865.22, -733804.1, 42369.3, 0.054174475, 0.067558475, -503084.53, 39045.04, 0.0, 10.001047, 9.998129 
5.04997e+2, 2.546805e+2, -521288.78, -690815.6, 44690.355, 0.03640132, 0.16243286, -510229.13, -66090.81, 0.0, 10.00031, 9.998107 
5.0499004e+2, 2.6467898e+2, -424234.44, -542693.75, 57861.875, 0.02222308, 0.18072397, -400662.22, -54508.813, 0.0, 10.000096, 9.998557 
5.049826e+2, 2.746761e+2, -286917.97, -429196.44, 59115.473, -0.006333746, 0.0053986087, -265561.66, -17383.193, 0.00000000061010413, 10.000377, 9.9985285 
5.049758e+2, 2.846745e+2, -200236.28, -268810.72, 105057.734, -0.027062042, -0.03033922, -124012.23, 26179.965, 0.00000027597625, 10.000014, 9.999126 
5.0496995e+2, 2.946743e+2, -261411.64, -243940.25, 53550.547, 0.027954146, 0.0011182887, -198417.55, -146224.13, 0.0000049916057, 9.998891, 9.99917 
5.049608e+2, 3.0467358e+2, -236527.88, -317396.25, -131498.39, 0.073118545, 0.06398933, -139387.53, -139387.53, 0.000030276777, 9.999208, 9.998183 
5.049474e+2, 3.1467193e+2, 234744.97, 230387.03, 22106.568, -0.099920474, 0.038903236, 254779.69, 254779.69, 0.000090633286, 10.001009, 10.001071 
5.150947e+2, 1.24698125e+2, -1501519.5, -1605686.9, -151243.84, -0.015847059, 0.1526349, -1393642.5, 324326.22, 0.000052165007, 10.001395, 10.000029 
5.150867e+2, 1.346975e+2, -1550987.0, -1638133.6, 199933.48, -0.2364113, 0.07872463, -1389933.8, 230037.03, 0.000013925394, 10.0006075, 9.999568 
5.150854e+2, 1.4469653e+2, -1545620.6, -1546892.8, 12887.13, 0.22115524, 0.02386969, -1533353.9, -11376.769, 0.000001645238, 9.999841, 9.999856 
5.150728e+2, 1.5469638e+2, -1470757.1, -1458864.8, -44265.45, -0.0344623, -0.01744013, -1420147.9, 3828.7495, 0.00000003629146, 9.999686, 9.999866 
5.150629e+2, 1.6469592e+2, -1429285.3, -1510385.4, -6187.366, -0.1072214, 0.008798581, -1428815.9, -102834.16, 0.0, 9.999816, 9.998774 
5.1505625e+2, 1.7469478e+2, -1259814.3, -1382766.6, -21054.89, 0.014576937, -0.014118734, -1256308.8, -28312.059, 0.0, 10.000333, 9.998725 
5.150489e+2, 1.8469425e+2, -1064812.8, -1102400.0, -7953.2773, 0.04510104, 0.0058397083, -1063199.1, 66803.09, 0.0, 10.00042, 9.9999275 
5.150412e+2, 1.9469415e+2, -1009429.25, -1023191.44, 47137.8, -0.014923863, -0.032758888, -968672.94, 63327.156, 0.0, 10.000108, 9.999955 
5.150336e+2, 2.0469414e+2, -1007454.56, -1054861.3, 54960.895, -0.0503802, 0.012569862, -971303.5, -37305.15, 0.0, 9.99982, 9.999203 
5.150264e+2, 2.1469405e+2, -931379.0, -968058.3, 66032.45, -0.059600454, 0.050364055, -881186.75, -45187.934, 0.0, 9.999667, 9.999201 
5.1501894e+2, 2.2469284e+2, -876127.4, -1050293.1, 28511.055, -0.07483875, 0.084508635, -871578.9, -133567.69, 0.0, 10.000052, 9.997789 
5.150111e+2, 2.346902e+2, -663174.0, -900127.94, 17175.893, -0.112785995, 0.015254425, -661935.44, -21896.412, 0.0, 10.000862, 9.99775 
5.1500374e+2, 2.4468827e+2, -497307.53, -688193.9, 3693.814, -0.09429329, 0.01708573, -497236.1, 44822.703, 0.0, 10.00097, 9.998479 
5.149972e+2, 2.546869e+2, -510353.47, -642362.3, 31578.643, -0.012218483, -0.0053231083, -503188.28, -59116.51, 0.0, 10.000193, 9.998497 
5.149903e+2, 2.6468584e+2, -405795.13, -486820.78, 55250.902, 0.017427418, 0.021749493, -377795.53, -31715.193, 0.0, 10.000025, 9.998979 
5.149832e+2, 2.7468476e+2, -267091.03, -372295.7, 89990.89, -0.02653535, -0.013787675, -215456.3, 32631.56, 0.0000000018853024, 10.000302, 9.998961 
5.149763e+2, 2.8468376e+2, -229708.81, -322832.94, 52191.223, -0.009122314, 0.009299415, -206328.4, -56232.363, 0.00000034894228, 9.999988, 9.998765 
5.1497e+2, 2.9468277e+2, -304501.84, -315060.44, 29095.916, 0.10757403, -0.009673969, -280210.16, -228103.13, 0.000004315403, 9.99881, 9.998719 
5.149601e+2, 3.0468014e+2, -225236.2, -282431.13, -72849.63, 0.051555045, -0.12091345, -175572.02, -175572.02, 0.000026122347, 9.999174, 9.998439 
5.1494735e+2, 3.1468013e+2, 215672.95, 213967.22, 149860.3, -0.2812713, -0.008004933, 364682.8, 364682.8, 0.000081293096, 10.000929, 10.000995 
5.250972e+2, 1.2470731e+2, -1409407.0, -1588520.6, -27638.965, 0.064514905, 0.11685592, -1405239.0, 312636.47, 0.000041919076, 10.002139, 9.999783 
5.250864e+2, 1.3470659e+2, -1567312.8, -1666860.9, 125981.77, -0.3192783, 0.054462142, -1481628.9, 138249.66, 0.000010470756, 10.0005865, 9.999375 
5.250862e+2, 1.4470534e+2, -1565581.8, -1585444.9, 24145.559, 0.33215252, -0.00781507, -1549405.0, -27516.365, 0.0000009776196, 9.999831, 9.999593 
5.250741e+2, 1.5470526e+2, -1371831.0, -1439193.4, -39122.49, 0.09145656, -0.018616715, -1353888.6, 70000.75, 0.000000005050013, 10.000484, 9.99961 
5.2506405e+2, 1.6470477e+2, -1309639.5, -1462929.3, 60432.336, -0.0132665, 0.023456128, -1288680.6, 37214.977, 0.0, 10.000677, 9.998693 
5.250567e+2, 1.7470351e+2, -1258911.9, -1391779.3, 78108.68, 0.029391484, -0.0009893639, -1222805.9, 5105.4727, 0.0, 10.000365, 9.998659 
5.250492e+2, 1.8470281e+2, -1118649.8, -1136958.5, 90922.8, 0.0457998, 0.013365766, -1036421.6, 93496.59, 0.0, 10.000086, 9.999863 
5.250416e+2, 1.9470261e+2, -1075395.5, -1060165.3, 30784.086, 0.041504405, -0.026559029, -1036068.4, -4151.1665, 0.0, 9.999697, 9.999904 
5.250341e+2, 2.0470235e+2, -1013783.94, -1086059.4, 39047.14, 0.020393174, 0.008792238, -996718.1, -62800.09, 0.0, 9.9998865, 9.998959 
5.2502686e+2, 2.1470177e+2, -804361.9, -939378.2, 13798.486, -0.021006353, 0.025600987, -802966.1, 32957.277, 0.0, 10.000666, 9.998922 
5.2501947e+2, 2.247005e+2, -739313.7, -962964.25, 16620.576, -0.06263263, 0.0576601, -738085.25, -149.0304, 0.0, 10.000921, 9.997953 
5.250118e+2, 2.3469813e+2, -688652.7, -896628.4, 37245.043, -0.10726539, -0.00084666844, -682183.94, -42223.277, 0.0, 10.000622, 9.997888 
5.2500445e+2, 2.4469626e+2, -558527.2, -706804.2, 45240.633, -0.092706025, -0.0050243437, -545813.9, -3834.9714, 0.0, 10.000505, 9.998578 
5.2499753e+2, 2.546948e+2, -449188.66, -600576.06, 23662.783, -0.004074528, -0.04538874, -445576.22, -1584.371, 0.0, 10.000571, 9.998601 
5.249906e+2, 2.6469368e+2, -365521.5, -477234.94, 52586.918, 0.033489153, -0.026596934, -344662.13, 1338.7275, 0.0, 10.000349, 9.998877 
5.249836e+2, 2.7469265e+2, -346972.75, -413642.7, 19466.094, 0.024187485, -0.046110626, -341705.25, -93697.35, 0.00000000009174081, 9.999793, 9.998902 
5.249768e+2, 2.8469187e+2, -276101.56, -367619.25, -7500.725, 0.059531767, 0.0054398556, -275490.88, -125476.055, 0.00000033351301, 9.999763, 9.998565 
5.2497005e+2, 2.9469094e+2, -101670.17, -236231.22, -48775.15, 0.16043714, 0.017412694, -85850.25, -33825.184, 0.0000041082662, 10.000281, 9.998547 
5.2495974e+2, 3.046878e+2, -19486.625, -155751.9, -71208.2, 0.047962658, -0.15250814, 10933.589, 10933.589, 0.000024723933, 10.000468, 9.9986925 
5.249485e+2, 3.1468746e+2, 11718.095, 59536.87, 92175.32, -0.1846214, -0.08274057, 130853.266, 130853.266, 0.00007789345, 9.999771, 10.000497 
5.351002e+2, 1.2471573e+2, -1447470.8, -1676840.6, 5862.773, 0.07520573, -0.040912893, -1447321.0, 270463.72, 0.000035694404, 10.002192, 9.999147 
5.350864e+2, 1.3471574e+2, -1617924.1, -1764957.9, 69147.56, -0.41238013, 0.038602147, -1590514.8, 29270.795, 0.000008273398, 10.00056, 9.998721 
5.3508645e+2, 1.447146e+2, -1571823.1, -1590017.8, 31163.014, 0.327514, 0.021265537, -1548456.6, -26658.783, 0.00000061502607, 9.999792, 9.999576 
5.350758e+2, 1.5471466e+2, -1376957.0, -1446205.8, -1696.2823, 0.18232208, 0.020272065, -1376915.5, 46883.473, 0.00000000036285042, 10.000466, 9.999569 
5.350656e+2, 1.6471455e+2, -1269242.4, -1368314.6, 33339.887, 0.046726428, 0.068837196, -1259067.8, 66733.16, 0.0, 10.00063, 9.999367 
5.3505635e+2, 1.747141e+2, -1214367.5, -1293363.6, 78850.82, -0.07310041, 0.05836982, -1165675.1, 62129.766, 0.0, 10.000339, 9.999351 
5.3504825e+2, 1.8471341e+2, -1210669.8, -1312731.5, 64094.613, -0.08351519, 0.093168184, -1179772.3, -49959.81, 0.0, 10.000019, 9.998687 
5.350415e+2, 1.9471218e+2, -1175571.6, -1252529.8, 29579.379, 0.04221624, 0.072834134, -1165516.5, -133689.88, 0.0, 9.999621, 9.998623 
5.3503454e+2, 2.0471065e+2, -1064500.1, -1154767.9, 54763.523, 0.049642242, 0.06753457, -1038668.5, -104826.9, 0.0, 9.999738, 9.998554 
5.350273e+2, 2.1470857e+2, -854012.44, -1005121.2, 54356.152, -0.06579794, -0.028294202, -836491.25, -631.4158, 0.0, 10.000508, 9.998543 
5.350201e+2, 2.2470707e+2, -702985.1, -856436.3, -6414.2695, -0.11024567, -0.038713306, -702717.5, 35155.35, 0.0, 10.00078, 9.998757 
5.3501296e+2, 2.34706e+2, -649874.5, -778059.7, 38818.105, -0.07918091, -0.055316083, -639035.75, 846.1933, 0.0, 10.000459, 9.998777 
5.3500557e+2, 2.4470504e+2, -588014.1, -743205.4, 34946.707, -0.05650861, -0.0045148525, -580507.75, -38617.27, 0.0, 10.000404, 9.998375 
5.349979e+2, 2.5470394e+2, -481212.47, -643565.2, 40963.965, -0.06247126, 0.018785961, -471462.22, -27561.56, 0.0, 10.000473, 9.998351 
5.349905e+2, 2.647023e+2, -412120.5, -564267.06, 18943.576, -0.04404315, 0.02674099, -409797.3, -63881.355, 0.0, 10.000299, 9.998305 
5.349835e+2, 2.746997e+2, -399209.3, -506983.9, 13679.025, 0.0004804251, -0.09733445, -397500.25, -149560.25, 0.0, 9.999714, 9.998309 
5.349767e+2, 2.8469855e+2, -278788.38, -365356.16, 75.95606, 0.0442664, -0.0524781, -278788.3, -128837.664, 0.00000019037492, 9.999734, 9.99859 
5.349697e+2, 2.946988e+2, -108331.66, -233016.81, -7478.5483, 0.054636236, 0.07325794, -107884.7, -55935.92, 0.0000040138116, 10.000207, 9.998607 
5.349594e+2, 3.0469638e+2, -11195.688, -142760.0, -100961.8, -0.06491958, -0.030342124, 43523.51, 43523.51, 0.000024880646, 10.000476, 9.998778 
5.349499e+2, 3.1469405e+2, -49633.305, -82034.74, 109280.95, -0.098454446, -0.16747284, 44641.266, 44641.266, 0.00007745561, 9.99981, 9.999511 
5.451025e+2, 1.2472387e+2, -1569750.4, -1768436.1, 39368.71, 0.12832333, -0.113136366, -1562234.0, 155467.6, 0.00003031358, 10.001483, 9.9988985 
5.450875e+2, 1.347239e+2, -1600144.5, -1755113.1, -47024.81, -0.3403335, -0.020823527, -1586991.4, 32711.582, 0.000006366235, 10.000689, 9.998732 
5.4508674e+2, 1.4472306e+2, -1544450.8, -1578827.9, 38982.84, 0.38001373, -0.0068946565, -1519035.3, 2678.374, 0.00000037085837, 9.999982, 9.999574 
5.4507625e+2, 1.5472366e+2, -1430581.1, -1469680.6, -20584.912, 0.21073759, 0.04791903, -1421742.0, 1968.7217, 0.00000000007720086, 10.00008, 9.999601 
5.4506606e+2, 1.647237e+2, -1312795.4, -1370931.9, 14486.326, 0.05346117, 0.101616405, -1309385.8, 16325.711, 0.0, 10.00028, 9.999502 
5.4505664e+2, 1.7472301e+2, -1183676.6, -1260424.5, -12275.285, -0.07758955, 0.053810872, -1181761.1, 45955.965, 0.0, 10.000501, 9.999486 
5.450487e+2, 1.8472224e+2, -1133127.5, -1321166.3, 3453.0774, -0.06455329, 0.09380365, -1133064.1, -3338.4749, 0.0, 10.000727, 9.998298 
5.450425e+2, 1.947212e+2, -999898.4, -1210035.3, 8425.341, 0.12327718, 0.12977283, -999561.06, 32178.623, 0.0, 10.000989, 9.998258 
5.450357e+2, 2.0471956e+2, -900060.56, -1086433.9, 112122.234, 0.1429482, 0.13525271, -847455.75, 86300.78, 0.0, 10.000914, 9.9984665 
5.450282e+2, 2.1471696e+2, -890056.3, -1026978.44, 111096.05, -0.011674698, -0.0023172903, -828021.2, 7757.9253, 0.0, 10.000293, 9.998497 
5.4502076e+2, 2.2471537e+2, -813413.25, -882760.9, 52560.3, -0.0787185, -0.03146427, -785119.94, -47327.715, 0.0, 9.999897, 9.999003 
5.450133e+2, 2.347146e+2, -736131.4, -798166.8, 22659.71, -0.046734687, -0.039631423, -728736.06, -88938.41, 0.0, 9.999763, 9.998985 
5.4500604e+2, 2.4471377e+2, -644807.94, -771509.9, 49386.95, -0.0217541, 0.0151397465, -627831.94, -86027.766, 0.0, 10.000018, 9.998366 
5.449988e+2, 2.5471267e+2, -444015.25, -629030.06, 42793.35, -0.016413637, 0.03673968, -434596.75, 9217.414, 0.0, 10.000741, 9.998325 
5.449913e+2, 2.6471072e+2, -364082.6, -573459.8, 29773.514, -0.0060580764, 0.033490285, -359931.1, -14098.938, 0.0, 10.000784, 9.998003 
5.449836e+2, 2.747075e+2, -359521.97, -520908.0, 14325.751, 0.032467462, -0.12372771, -358260.2, -110397.27, 0.0, 10.000134, 9.99801 
5.4497665e+2, 2.8470603e+2, -264289.8, -345963.06, 72209.9, 0.066433765, -0.1012261, -222169.22, -72292.445, 0.00000011177434, 9.99979, 9.9987 
5.4496974e+2, 2.9470652e+2, -159040.64, -236313.13, 46957.29, 0.075930804, 0.038322408, -136867.8, -84996.13, 0.0000045059896, 9.999799, 9.998771 
5.4495955e+2, 3.04705e+2, -74373.125, -205360.75, -40627.31, -0.07206873, 0.028771745, -62795.426, -62795.426, 0.000026381855, 10.000173, 9.9984865 
5.4495096e+2, 3.1470168e+2, -21229.404, -112671.984, 90503.96, 0.025376365, -0.18286994, 34446.56, 34446.56, 0.00007890932, 10.000203, 9.999095 
5.5510324e+2, 1.24731936e+2, -1546897.0, -1718155.5, 92505.234, 0.0005398639, -0.06874158, -1506472.3, 211151.38, 0.000026661766, 10.001479, 9.999238 
5.550896e+2, 1.3473117e+2, -1562617.9, -1678087.5, -75973.13, -0.2299127, -0.11053013, -1524931.4, 94698.695, 0.0000052899522, 10.000683, 9.99927 
5.550869e+2, 1.4473067e+2, -1543405.0, -1563110.9, 22417.77, 0.36256793, -0.09696166, -1528770.4, -7134.1265, 0.00000021782215, 9.999935, 9.999699 
5.550751e+2, 1.5473229e+2, -1428032.5, -1460350.9, 114.4008, 0.061058357, 0.05375252, -1428032.0, -4407.519, 0.00000000000011946363, 10.000063, 9.999679 
5.550649e+2, 1.6473228e+2, -1345908.9, -1436344.0, 10459.543, -0.11674956, 0.1226493, -1344715.0, -19088.072, 0.0, 10.000262, 9.9990635 
5.550571e+2, 1.7473023e+2, -1222793.3, -1333343.0, 8065.712, -0.10644624, -0.016248759, -1222207.9, 5439.971, 0.0, 10.00046, 9.999009 
5.5505025e+2, 1.847294e+2, -1113025.6, -1257221.3, 1040.1993, -0.010632069, 0.0172523, -1113018.1, 16639.254, 0.0, 10.000632, 9.998783 
5.550443e+2, 1.9472972e+2, -978330.3, -1147256.3, 32234.063, 0.17019445, 0.14202559, -972388.5, 59268.117, 0.0, 10.000905, 9.998736 
5.5503726e+2, 2.0472904e+2, -900807.94, -1054123.5, 77922.77, 0.18057743, 0.20649695, -868157.1, 65506.086, 0.0, 10.000776, 9.998748 
5.55029e+2, 2.1472695e+2, -895286.9, -1000670.8, 101423.95, 0.011539303, 0.09387387, -833684.25, 1996.572, 0.0, 10.000132, 9.998754 
5.5502075e+2, 2.247253e+2, -865389.9, -952494.06, 34396.695, -0.09094288, 0.065542236, -853444.94, -115749.805, 0.0, 9.999735, 9.998604 
5.5501246e+2, 2.3472394e+2, -790851.2, -868986.25, 31622.355, -0.12850252, 0.038104307, -779656.94, -139949.22, 0.0, 9.999584, 9.998582 
5.5500555e+2, 2.4472257e+2, -648799.44, -759160.7, 65239.285, -0.098306835, 0.053809095, -618533.8, -76814.56, 0.0, 9.999916, 9.998509 
5.55e+2, 2.54721e+2, -446203.8, -609483.75, 85577.875, -0.0031061932, 0.011966084, -409570.13, 34161.746, 0.0, 10.000629, 9.998518 
5.5499274e+2, 2.6471895e+2, -377104.1, -586538.44, -6006.92, 0.029003514, -0.011491247, -376931.94, -31182.17, 0.0, 10.000726, 9.997941 
5.549837e+2, 2.7471593e+2, -379720.4, -544459.94, 3684.3215, -0.0045829313, -0.13516442, -379638.06, -131859.94, 0.0, 10.000053, 9.9978895 
5.549763e+2, 2.8471413e+2, -255416.77, -319378.3, 57490.46, 0.022297123, -0.14462546, -221610.6, -71816.08, 0.00000024371042, 9.99975, 9.998907 
5.5496985e+2, 2.9471388e+2, -150888.47, -212775.8, 67453.16, 0.06480281, -0.10257641, -107620.016, -55823.938, 0.0000058589785, 9.999757, 9.9989605 
5.5495954e+2, 3.0471343e+2, -124031.805, -294185.97, -43496.492, -0.11280668, 0.014551219, -113557.56, -113557.56, 0.000029984647, 10.000122, 9.997895 
5.549511e+2, 3.1471017e+2, -29423.06, -110664.14, 128749.72, -0.055089146, -0.13535671, 64962.023, 64962.023, 0.00008416486, 10.000114, 9.999156 
5.651042e+2, 1.2474051e+2, -1631989.0, -1722188.1, 209135.73, -0.0040000076, -0.004505711, -1463145.3, 254395.06, 0.000022362967, 10.000724, 9.999562 
5.6509125e+2, 1.3473962e+2, -1638937.4, -1658821.3, -110224.93, -0.08323565, -0.111377686, -1538206.9, 81339.6, 0.000004259607, 9.999915, 9.999756 
5.65086e+2, 1.4473906e+2, -1613537.1, -1617642.6, 50280.14, 0.3099174, -0.121825665, -1565267.9, -43715.58, 0.00000013010742, 9.9995165, 9.999538 
5.6507474e+2, 1.5474015e+2, -1463888.6, -1490112.0, -13230.915, 0.03847438, -0.0074937968, -1458373.1, -34828.453, 0.0, 9.9998665, 9.99957 
5.650652e+2, 1.647401e+2, -1393975.3, -1479598.8, 26412.445, -0.09614729, 0.06734619, -1386483.3, -60935.53, 0.0, 10.000007, 9.998895 
5.6505823e+2, 1.747383e+2, -1293255.5, -1381572.0, 22222.805, -0.014616871, -0.03077511, -1287979.0, -60412.06, 0.0, 10.000029, 9.998883 
5.6505144e+2, 1.8473738e+2, -1142607.5, -1262043.8, 50994.9, 0.06817349, -0.004682275, -1123797.1, 5780.181, 0.0, 10.000398, 9.998854 
5.650449e+2, 1.9473726e+2, -957744.8, -1121354.5, 29345.84, 0.14104891, 0.064329974, -952640.44, 78939.32, 0.0, 10.000995, 9.998854 
5.650375e+2, 2.0473668e+2, -866424.3, -1031246.4, 38551.773, 0.12587243, 0.12888037, -857852.8, 75732.61, 0.0, 10.000983, 9.998804 
5.650294e+2, 2.1473539e+2, -873966.75, -980560.2, 20166.23, 0.037039727, 0.08790746, -870279.1, -34682.41, 0.0, 10.000244, 9.998833 
5.6502134e+2, 2.2473405e+2, -808506.06, -924560.25, 19818.113, -0.015779415, 0.0871284, -805215.06, -67606.8, 0.0, 10.000125, 9.998605 
5.650135e+2, 2.3473242e+2, -634301.2, -791306.8, 26231.37, -0.025116881, 0.031967204, -630034.6, 9588.343, 0.0, 10.000648, 9.998598 
5.6500655e+2, 2.4473079e+2, -547336.5, -713579.94, 91166.77, -0.021970894, 0.022256292, -507086.44, 34550.55, 0.0, 10.000659, 9.998445 
5.6500024e+2, 2.5472888e+2, -516547.66, -654164.9, 62116.305, -0.008704076, -0.043380756, -492657.53, -49004.336, 0.0, 10.000208, 9.998405 
5.6499285e+2, 2.6472706e+2, -436562.13, -592527.56, -10595.108, 0.0031668649, -0.04841395, -435845.7, -90176.23, 0.0, 10.000212, 9.998148 
5.649843e+2, 2.7472505e+2, -269398.9, -461324.0, -2513.7432, 0.029200254, -0.09778908, -269366.0, -21677.498, 0.0, 10.000689, 9.998146 
5.649769e+2, 2.8472337e+2, -128338.57, -278514.34, 77879.15, 0.07509437, -0.10284869, -95244.42, 54459.773, 0.00000046127252, 10.0006895, 9.998737 
5.6497014e+2, 2.9472223e+2, -103465.77, -218170.84, 35276.934, 0.10657742, -0.13197747, -93484.99, -41770.387, 0.000007820285, 10.000183, 9.998723 
5.6495965e+2, 3.0472153e+2, -93015.28, -255858.73, -12951.272, -0.10977369, -0.03450445, -91991.67, -91991.67, 0.00003595913, 10.0002365, 9.998108 
5.6495255e+2, 3.147196e+2, 68994.164, 23985.281, 158439.25, 0.08301826, -0.08258609, 206519.23, 206519.23, 0.000094486146, 10.000428, 9.999927 
5.751047e+2, 1.24749325e+2, -1614149.0, -1665361.0, 182502.88, -0.088638395, 0.05215456, -1455464.5, 261989.73, 0.000015098279, 10.000652, 9.999975 
5.750919e+2, 1.3474904e+2, -1615795.8, -1608569.0, -138368.44, -0.037603803, -0.03450157, -1473766.8, 145687.89, 0.0000026568694, 9.999905, 10.000104 
5.7508373e+2, 1.447481e+2, -1636324.3, -1659271.3, 40920.33, 0.09551422, -0.08529057, -1605299.4, -83836.64, 0.000000050157187, 9.999498, 9.99926 
5.750748e+2, 1.547473e+2, -1491110.5, -1540043.9, 12402.779, 0.021597024, -0.12735406, -1488146.4, -64675.316, 0.0, 9.999839, 9.999245 
5.750664e+2, 1.6474707e+2, -1387340.8, -1451819.3, 10810.2, -0.0066787284, -0.06493368, -1385576.6, -60102.086, 0.0, 9.999945, 9.999112 
5.750594e+2, 1.7474717e+2, -1285007.0, -1357880.9, 35278.51, 0.07045418, 0.002655376, -1270726.9, -43251.91, 0.0, 9.999996, 9.999063 
5.7505196e+2, 1.8474624e+2, -1169337.0, -1300723.8, 61462.074, 0.049584523, 0.029448455, -1145068.1, -15582.978, 0.0, 10.000332, 9.998617 
5.7504386e+2, 1.9474386e+2, -992749.7, -1165001.8, 64442.94, -0.09128541, -0.099212475, -971309.06, 60200.117, 0.0, 10.000875, 9.99861 
5.7503617e+2, 2.0474255e+2, -897850.7, -1060994.1, -3584.5994, -0.12568703, -0.08753081, -897771.94, 35750.605, 0.0, 10.000826, 9.998678 
5.7502896e+2, 2.1474226e+2, -909088.6, -1014117.5, 4371.389, -0.05472925, -0.013703437, -908907.0, -73380.86, 0.0, 10.0000725, 9.998688 
5.7502216e+2, 2.2474158e+2, -795358.5, -863579.8, 26289.502, 0.028684156, 0.033666607, -786403.25, -48871.617, 0.0, 9.999974, 9.999099 
5.7501596e+2, 2.3474015e+2, -620200.06, -727122.25, 59773.867, 0.12894872, -0.051138066, -593467.6, 46074.523, 0.0, 10.000495, 9.999113 
5.750085e+2, 2.4473846e+2, -585747.3, -778392.6, 60624.547, 0.079187624, -0.07469005, -568257.06, -26700.03, 0.0, 10.00058, 9.998047 
5.7499933e+2, 2.547362e+2, -561371.1, -723132.5, 60064.21, -0.15416048, -0.13220236, -541507.6, -97928.445, 0.0, 10.000094, 9.9979925 
5.7499146e+2, 2.6473498e+2, -403534.78, -517409.38, -6233.242, -0.19121015, -0.080706015, -403194.6, -57603.2, 0.0, 10.000171, 9.998691 
5.7498497e+2, 2.7473468e+2, -234936.42, -379336.97, 26709.758, -0.006795732, -0.016598517, -230154.28, 17440.8, 0.0, 10.0006275, 9.998747 
5.749781e+2, 2.8473362e+2, -165463.77, -343138.63, 45373.938, 0.09472715, 0.02568904, -154547.1, -4940.853, 0.0000006054728, 10.000638, 9.99832 
5.749701e+2, 2.9473144e+2, -150710.69, -297674.66, 35571.934, 0.053352218, -0.059308987, -142553.44, -90925.42, 0.000009307056, 10.000107, 9.998215 
5.7495946e+2, 3.0472937e+2, -28805.61, -113772.59, -10345.473, -0.17924324, -0.116759494, -27564.098, -27564.098, 0.000040671366, 10.000204, 9.999104 
5.7495487e+2, 3.147291e+2, 155397.02, 216471.48, 193062.36, 0.199795, -0.101860814, 381396.78, 381396.78, 0.000103750725, 10.000369, 10.0012865 
5.8510447e+2, 1.2475647e+2, -1961681.5, -1827527.6, 157468.25, -0.03946458, 0.009455112, -1723445.1, -6061.8447, 0.000008007214, 9.99821, 10.000061 
5.850927e+2, 1.3475713e+2, -1648305.3, -1616537.0, -218666.83, 0.07769886, 0.013932617, -1413178.1, 206198.19, 0.0000012151539, 9.999639, 10.000188 
5.850824e+2, 1.4475642e+2, -1526687.3, -1607780.9, -4781.5645, -0.019295728, -0.0147242285, -1526406.4, -5024.043, 0.000000012980553, 10.000293, 9.999207 
5.8507556e+2, 1.5475483e+2, -1384341.8, -1488028.5, -48836.406, 0.08442564, -0.13656569, -1364962.0, 58434.387, 0.0, 10.000596, 9.999211 
5.850678e+2, 1.6475417e+2, -1282441.1, -1414957.8, -34784.246, 0.107534654, -0.10912023, -1273865.6, 51537.297, 0.0, 10.000713, 9.9990015 
5.8505994e+2, 1.7475438e+2, -1200931.0, -1325316.1, -57678.707, 0.09793545, -0.017714838, -1178301.8, 49100.78, 0.0, 10.000604, 9.998997 
5.8505213e+2, 1.8475361e+2, -1171212.3, -1301370.5, -7263.1934, 0.038532518, 0.02877788, -1170808.1, -41396.766, 0.0, 10.000314, 9.99863 
5.8504426e+2, 1.9475135e+2, -1151694.1, -1245619.0, -10595.733, -0.07914311, -0.08533966, -1150513.6, -119079.19, 0.0, 9.999785, 9.998598 
5.8503664e+2, 2.0474997e+2, -1042973.94, -1102832.0, -35029.324, -0.10396104, -0.0956111, -1026829.1, -93380.63, 0.0, 9.999707, 9.998924 
5.8502924e+2, 2.1474937e+2, -881491.94, -976086.0, -23265.781, -0.028791726, -0.08220441, -876079.3, -40624.93, 0.0, 10.000142, 9.998919 
5.8502257e+2, 2.2474886e+2, -749430.0, -818902.3, 37857.53, 0.066231765, -0.036243476, -732787.2, 4670.65, 0.0, 10.00021, 9.999295 
5.8501667e+2, 2.3474821e+2, -697613.5, -746908.06, 17462.627, 0.182569, -0.05830174, -692054.3, -52592.7, 0.0, 9.999892, 9.999276 
5.850092e+2, 2.447468e+2, -686455.06, -797900.5, 47302.313, 0.14243162, -0.07295671, -669085.1, -127611.45, 0.0, 9.999756, 9.998303 
5.85e+2, 2.5474438e+2, -566612.3, -693943.25, 71340.42, -0.08111666, -0.17884453, -534660.06, -91163.0, 0.0, 9.999923, 9.998265 
5.8499193e+2, 2.647433e+2, -439294.0, -531345.75, 54831.36, -0.13759194, -0.12806405, -413731.75, -68223.336, 0.0, 9.999935, 9.9987 
5.8498544e+2, 2.747435e+2, -346416.5, -432226.38, 17887.428, 0.016241636, -0.011428714, -342837.1, -95328.11, 0.0, 9.999881, 9.998736 
5.8497846e+2, 2.8474268e+2, -223370.03, -353923.84, 54020.848, 0.09734759, 0.050678566, -203916.03, -54397.902, 0.00000055145284, 10.000167, 9.998468 
5.8497065e+2, 2.947404e+2, -56335.01, -234537.39, 60760.11, 0.06667647, -0.05899472, -37589.953, 13949.984, 0.000008783807, 10.00068, 9.998366 
5.8495975e+2, 3.0473804e+2, 86168.45, -57056.27, 39367.094, -0.20109399, -0.1564151, 96275.73, 96275.73, 0.000039667964, 10.00098, 9.999111 
5.849564e+2, 3.1473872e+2, 178191.72, 209518.17, 76248.57, 0.32052836, -0.054736923, 271695.7, 271695.7, 0.00010388018, 10.000599, 10.001115 
5.9510297e+2, 1.24761954e+2, -1954724.9, -1812670.5, 98452.19, -0.090335146, -0.12017845, -1762298.8, -44971.613, 0.0000033727015, 9.998233, 10.00014 
5.9509325e+2, 1.3476396e+2, -1661255.0, -1640114.9, -159839.45, 0.13935691, 0.03197238, -1490496.4, 128814.76, 0.00000044999516, 9.999634, 10.000026 
5.9508157e+2, 1.4476404e+2, -1519020.1, -1585094.1, -12410.217, -0.17585805, 0.08089553, -1516766.1, 4544.422, 0.000000014541682, 10.000263, 9.999373 
5.9507656e+2, 1.5476263e+2, -1378858.3, -1471696.0, -25381.3, 0.092268586, -0.040436745, -1372372.3, 50948.973, 0.0, 10.00057, 9.999339 
5.95069e+2, 1.6476142e+2, -1316552.9, -1469782.8, -52991.652, 0.1265555, -0.054756563, -1300012.3, 25320.293, 0.0, 10.000656, 9.998649 
5.9505945e+2, 1.747601e+2, -1233463.4, -1379009.0, -48969.902, -0.043040257, -0.08126182, -1218521.0, 8827.055, 0.0, 10.000551, 9.998651 
5.950515e+2, 1.8475957e+2, -1165463.0, -1273235.1, -41517.484, -0.07770726, -0.0039886357, -1151324.0, -21968.322, 0.0, 10.000241, 9.998858 
5.950454e+2, 1.9475971e+2, -1152379.1, -1218455.8, -17989.008, 0.033658855, 0.0940164, -1147799.1, -116442.78, 0.0, 9.999667, 9.998839 
5.9503824e+2, 2.047589e+2, -1016960.56, -1016936.06, -31466.059, 0.05934715, 0.09712181, -985482.25, -52118.777, 0.0, 9.999566, 9.999583 
5.950299e+2, 2.1475674e+2, -857989.94, -890156.75, 6746.228, -0.0019342054, -0.10848244, -856632.4, -21252.014, 0.0, 9.999984, 9.999583 
5.950222e+2, 2.2475602e+2, -778115.8, -853461.2, 11748.03, -0.01635222, -0.112261035, -776326.5, -38940.645, 0.0, 10.00009, 9.999123 
5.9501505e+2, 2.3475654e+2, -734242.56, -788570.5, 19195.723, 0.011612116, 0.003027436, -728144.56, -88762.766, 0.0, 9.999736, 9.99907 
5.950083e+2, 2.4475577e+2, -635670.75, -670069.6, 40678.58, 0.043338403, 0.01658114, -608705.0, -67317.234, 0.0, 9.999653, 9.999234 
5.9500176e+2, 2.547534e+2, -513861.16, -557751.6, 88566.08, 0.07289733, -0.17933798, -444561.97, -1155.5868, 0.0, 9.999807, 9.999256 
5.94994e+2, 2.64752e+2, -484384.72, -613300.7, 38175.504, 0.044752624, -0.1852791, -473928.1, -128508.22, 0.0, 9.999883, 9.998167 
5.9498507e+2, 2.7475142e+2, -400242.3, -526683.44, 31323.328, -0.038667228, -0.08642253, -392908.0, -145477.56, 0.0, 9.9998045, 9.998129 
5.9497756e+2, 2.8475058e+2, -181080.08, -252644.44, 61431.445, -0.04105019, -0.03241988, -145769.45, 3670.467, 0.0000003359344, 10.000113, 9.999187 
5.9497094e+2, 2.9474908e+2, -13682.366, -121177.28, 96951.03, -0.0073932796, -0.1412521, 43422.742, 94873.79, 0.000006914508, 10.000583, 9.9991865 
5.949601e+2, 3.0474743e+2, 13006.218, -204791.05, 20578.545, -0.29803738, -0.16256085, 14933.524, 14933.524, 0.000035638073, 10.000953, 9.998115 
5.949562e+2, 3.147486e+2, 64509.375, -15455.621, 55479.82, 0.16327293, 0.098741524, 92912.625, 92912.625, 0.00009897654, 10.00055, 9.999591 
6.051018e+2, 1.2476812e+2, -1978251.5, -1801452.1, 74715.16, -0.00044776604, -0.14925577, -1774107.0, -56841.156, 0.0000011596172, 9.997972, 10.000349 
6.0509425e+2, 1.3477008e+2, -1583022.5, -1570728.6, -113996.75, 0.2607526, -0.021216292, -1462713.3, 156536.14, 0.00000014603442, 10.000064, 10.000277 
6.050817e+2, 1.4477025e+2, -1448177.5, -1567136.6, 4854.6025, -0.20303594, 0.030548004, -1447979.8, 73268.805, 0.0000000031309833, 10.0007925, 9.999264 
6.050774e+2, 1.547693e+2, -1408959.0, -1498887.0, -62850.023, 0.13579883, -0.027697688, -1376645.0, 46611.668, 0.0, 10.000405, 9.999247 
6.050698e+2, 1.6476825e+2, -1375803.1, -1498583.4, -56094.76, 0.17450641, -0.023783278, -1354034.6, -28767.03, 0.0, 10.000234, 9.998662 
6.0505944e+2, 1.7476672e+2, -1275325.3, -1397943.1, -48866.863, -0.06958003, -0.074395046, -1258232.9, -30948.104, 0.0, 10.000246, 9.9986725 
6.0505134e+2, 1.8476622e+2, -1146685.4, -1207857.5, -5322.266, -0.10489133, -0.018908953, -1146225.8, -16934.727, 0.0, 10.000148, 9.999345 
6.050457e+2, 1.9476664e+2, -1078082.1, -1123774.1, 8933.551, 0.08374235, 0.058598667, -1076397.6, -45110.48, 0.0, 9.999938, 9.999354 
6.0503864e+2, 2.047662e+2, -953822.4, -979210.44, 36416.83, 0.13325097, 0.069282115, -927950.56, 5339.3877, 0.0, 9.99997, 9.999657 
6.0503036e+2, 2.1476442e+2, -823702.0, -868999.56, 3211.2576, 0.037885755, -0.1026025, -823475.5, 11828.326, 0.0, 10.000195, 9.999636 
6.050222e+2, 2.2476381e+2, -780842.8, -849907.7, -8217.314, -0.012710773, -0.09873929, -779878.56, -42569.664, 0.0, 10.000061, 9.9991455 
6.050143e+2, 2.3476422e+2, -757359.06, -789651.75, -11318.402, -0.018781874, 0.00094010984, -753787.1, -114480.56, 0.0, 9.9995575, 9.999129 
6.050078e+2, 2.4476378e+2, -658340.6, -652011.5, 45544.87, 0.048866026, 0.03213784, -609521.4, -68211.25, 0.0, 9.999398, 9.999474 
6.0500264e+2, 2.5476214e+2, -518220.0, -534351.1, 12258.816, 0.19522227, -0.11259383, -511611.38, -68288.55, 0.0, 9.99968, 9.999478 
6.049951e+2, 2.6476085e+2, -446669.78, -572666.75, -17123.648, 0.16383527, -0.12783153, -444384.03, -99049.23, 0.0, 10.000034, 9.998378 
6.0498506e+2, 2.7475974e+2, -293879.1, -452427.44, 7413.1265, -0.04299902, -0.106496975, -293533.25, -46184.387, 0.0, 10.000419, 9.998347 
6.049774e+2, 2.8475878e+2, -141084.53, -235333.3, 66451.14, -0.06939047, -0.070388, -106744.44, 42613.855, 0.00000016006682, 10.000404, 9.999166 
6.049719e+2, 2.9475784e+2, -97429.11, -163619.61, 15358.642, 0.06535534, -0.119637206, -94038.97, -42674.434, 0.0000052467194, 10.000012, 9.999177 
6.0496134e+2, 3.0475622e+2, -66017.68, -291453.66, -25425.531, -0.23581555, -0.118080154, -63185.668, -63185.668, 0.000031333126, 10.000638, 9.997668 
6.04957e+2, 3.1475607e+2, 220964.02, -6167.597, -50553.3, 0.12729499, 0.06894881, 231707.61, 231707.61, 0.00009226463, 10.001902, 9.9990225 
6.151002e+2, 1.2477494e+2, -1941509.0, -1719530.5, -10638.652, -0.02569136, -0.08093641, -1719021.9, -1822.3843, 0.000000319301, 9.997961, 10.000908 
6.1509514e+2, 1.3477552e+2, -1549177.9, -1498891.0, -24473.79, 0.31249252, -0.14107178, -1488946.5, 130244.51, 0.000000018009526, 10.000064, 10.000769 
6.1508244e+2, 1.447751e+2, -1475286.4, -1624801.9, -31241.31, -0.24555819, -0.15400541, -1469021.0, 52175.063, 0.0, 10.0007925, 9.998867 
6.150777e+2, 1.5477486e+2, -1434837.3, -1560724.1, -66747.23, 0.09327518, -0.102135316, -1406036.1, 17166.992, 0.0, 10.000421, 9.998822 
6.150699e+2, 1.6477464e+2, -1354313.3, -1439370.3, -69643.51, 0.13083354, -0.01483101, -1315239.8, 9968.305, 0.0, 10.000176, 9.999096 
6.150597e+2, 1.7477418e+2, -1251526.3, -1342206.3, -34465.703, -0.1011142, -0.00038488256, -1239913.6, -12700.611, 0.0, 10.000213, 9.999075 
6.150512e+2, 1.8477352e+2, -1108938.9, -1107784.5, -25240.395, -0.16519569, -0.018289344, -1083114.8, 46103.09, 0.0, 10.000055, 10.000073 
6.150446e+2, 1.9477233e+2, -1040667.44, -1028416.94, 15755.97, -0.04264781, -0.17521362, -1017637.5, 13587.565, 0.0, 9.999857, 10.000051 
6.1503756e+2, 2.0477204e+2, -1007799.1, -1061521.9, 31154.883, 0.0017104157, -0.16030109, -993524.6, -60298.086, 0.0, 9.999844, 9.999151 
6.150301e+2, 2.1477237e+2, -885771.75, -961021.9, 24110.209, -0.030789021, -0.06923304, -878709.56, -43484.734, 0.0, 10.000032, 9.999084 
6.1502224e+2, 2.2477221e+2, -789155.1, -828142.6, -36882.652, -0.04542694, -0.0008565972, -766931.56, -29704.678, 0.0, 9.999897, 9.9993725 
6.1501396e+2, 2.3477133e+2, -765096.75, -765110.3, -16669.232, -0.03708352, -0.05772294, -748434.3, -109199.27, 0.0, 9.999386, 9.999378 
6.1500734e+2, 2.4477085e+2, -705332.25, -729321.44, 39856.313, 0.032453205, -0.020845907, -675704.8, -134464.0, 0.0, 9.999305, 9.998991 
6.150022e+2, 2.5477058e+2, -568902.75, -619683.3, 35044.62, 0.15397367, 0.018800579, -551017.25, -107770.82, 0.0, 9.999585, 9.998943 
6.149947e+2, 2.6476982e+2, -389680.9, -438882.44, -15528.479, 0.09674119, 0.039708186, -385189.9, -39936.715, 0.0, 9.9999695, 9.999327 
6.149848e+2, 2.7476838e+2, -242063.17, -316548.16, 37034.41, -0.14004253, -0.07325268, -226783.75, 20480.23, 0.0, 10.000302, 9.999333 
6.1497766e+2, 2.8476733e+2, -202231.48, -353788.78, 38608.05, -0.11661725, -0.05592109, -192963.17, -43690.555, 0.00000012615395, 10.000361, 9.998372 
6.149729e+2, 2.9476684e+2, -164058.06, -284525.06, 19477.8, 0.12437339, 0.01491879, -160987.06, -109708.18, 0.000004351736, 9.999943, 9.998373 
6.149632e+2, 3.0476436e+2, -67004.65, -297372.88, 14327.292, -0.14475447, -0.025353825, -66117.016, -66117.016, 0.000027327982, 10.000645, 9.997638 
6.1495775e+2, 3.1476137e+2, 232856.66, 36550.95, -6054.275, -0.05370955, -0.115000084, 233043.19, 233043.19, 0.00008384043, 10.001826, 9.999358 
6.2509906e+2, 1.2478169e+2, -1925058.4, -1708853.5, -45612.105, 0.07868181, -0.013251435, -1699624.8, 17513.223, 0.00000004128188, 9.9980345, 10.00097 
6.25095e+2, 1.3478202e+2, -1657760.0, -1532994.4, -22707.21, 0.35147238, -0.11190524, -1528990.3, 90139.7, 0.000000000001578113, 9.999216, 10.000963 
6.2508297e+2, 1.4478149e+2, -1652267.8, -1713141.3, -53562.875, -0.20619504, -0.14306529, -1621097.9, -99962.25, 0.0, 9.999591, 9.998845 
6.250777e+2, 1.5478162e+2, -1540552.6, -1602643.5, -81721.31, 0.095490605, -0.05233415, -1484178.4, -61038.09, 0.0, 9.999686, 9.998874 
6.2507004e+2, 1.6478172e+2, -1361813.1, -1380977.1, -26824.258, 0.14487223, 0.035728112, -1342910.8, -17769.098, 0.0, 9.999879, 9.99963 
6.250606e+2, 1.7478146e+2, -1238116.4, -1266506.9, -19607.734, -0.014477352, 0.01385626, -1228104.9, -962.8622, 0.0, 10.000046, 9.99966 
6.2505203e+2, 1.8478088e+2, -1103950.3, -1144690.0, -21542.066, -0.08233202, -0.008305124, -1094672.4, 34473.043, 0.0, 10.000224, 9.999752 
6.250444e+2, 1.9477963e+2, -997622.6, -1041691.4, -80593.47, -0.05589184, -0.142124, -936105.7, 95049.66, 0.0, 10.000281, 9.999757 
6.250371e+2, 2.0477927e+2, -953939.2, -1036260.56, -57023.402, -0.042448018, -0.117531165, -924773.0, 8385.355, 0.0, 10.000209, 9.999154 
6.2503004e+2, 2.1477959e+2, -888674.06, -952730.8, -48458.56, -0.027330212, -0.030093566, -862615.9, -27459.072, 0.0, 9.99998, 9.999162 
6.250225e+2, 2.2477931e+2, -767849.56, -800364.8, -71457.9, -0.0051812083, 0.012863975, -710823.2, 26335.629, 0.0, 9.999961, 9.99954 
6.250144e+2, 2.3477812e+2, -641895.75, -692621.44, -80683.24, 0.03868841, -0.08845884, -582682.8, 56484.742, 0.0, 10.000156, 9.999522 
6.2500757e+2, 2.4477752e+2, -589834.44, -705129.2, 18621.56, 0.086755045, -0.05601508, -586901.4, -45726.72, 0.0, 10.000218, 9.998726 
6.2500185e+2, 2.5477737e+2, -493324.47, -610723.94, 2928.0503, 0.13054085, 0.026491323, -493251.5, -50069.44, 0.0, 10.000221, 9.998699 
6.249945e+2, 2.6477695e+2, -307492.25, -353654.75, -31329.756, 0.07088311, 0.06913604, -291659.5, 53527.02, 0.0, 10.00033, 9.999736 
6.249857e+2, 2.7477586e+2, -187084.03, -244876.56, -51016.1, -0.07848233, -0.047446273, -157348.94, 89842.67, 0.0, 10.000473, 9.999745 
6.2497896e+2, 2.8477496e+2, -170352.78, -381754.8, -31728.523, -0.040286828, -0.020868467, -165693.45, -16494.334, 0.000000116905284, 10.000763, 9.997994 
6.249738e+2, 2.9477417e+2, -5869.025, -260876.25, -49416.71, 0.1589717, 0.06685903, 3372.3164, 54582.305, 0.000004287332, 10.001231, 9.997934 
6.249646e+2, 3.0477098e+2, 56474.93, -199041.63, 16116.845, -0.088957295, -0.041231092, 57487.496, 57487.496, 0.000025852014, 10.001349, 9.997959 
6.249592e+2, 3.1476793e+2, 101843.12, 6586.355, -62240.926, -0.02945933, -0.17465258, 132588.17, 132588.17, 0.00007870898, 10.000796, 9.999639 
6.350974e+2, 1.24788225e+2, -1938354.9, -1751139.4, -160550.05, 0.035616398, 0.056415964, -1658901.1, 58181.645, 0.000000010756334, 9.998095, 10.000653 
6.3509357e+2, 1.3478932e+2, -1668109.3, -1562001.1, 21868.258, 0.25272116, 0.054803833, -1557671.0, 61397.035, 0.0, 9.999236, 10.000763 
6.350828e+2, 1.4478932e+2, -1620277.0, -1632922.1, -69442.86, -0.21574551, 0.059649035, -1556869.5, -35801.81, 0.0, 9.999538, 9.999416 
6.35077e+2, 1.5478964e+2, -1502355.0, -1526410.9, -60158.01, 0.025359534, 0.109908834, -1453034.3, -29966.072, 0.0, 9.999694, 9.999396 
6.350698e+2, 1.647894e+2, -1326765.6, -1301626.8, -35146.707, 0.09811238, 0.11153578, -1276869.5, 48200.008, 0.0, 9.999846, 10.000193 
6.3506186e+2, 1.7478836e+2, -1201427.9, -1191185.1, -623.0023, 0.07280166, -0.043340147, -1191147.4, 35926.293, 0.0, 10.000032, 10.000193 
6.350536e+2, 1.847881e+2, -1203743.4, -1328996.4, -33679.375, 0.019618534, -0.0019003974, -1195261.6, -66185.625, 0.0, 10.000134, 9.998525 
6.3504475e+2, 1.9478834e+2, -1103778.4, -1237522.5, -67419.19, -0.084773324, 0.14172123, -1075691.4, -44611.773, 0.0, 10.000175, 9.998464 
6.3503677e+2, 2.0478778e+2, -940608.44, -970487.94, -78400.72, -0.11998694, 0.18718742, -875736.75, 57349.773, 0.0, 10.000047, 9.9996805 
6.3502973e+2, 2.1478605e+2, -874517.56, -881561.9, -42499.055, -0.07768264, 0.012265112, -835395.0, -295.06857, 0.0, 9.999798, 9.999737 
6.350226e+2, 2.2478507e+2, -784723.44, -795481.94, -76909.7, -0.009980911, -0.05161333, -713005.1, 24099.852, 0.0, 9.999793, 9.999652 
6.350152e+2, 2.3478456e+2, -659819.56, -691093.9, -57334.656, 0.08170169, -0.09707656, -616027.94, 23076.256, 0.0, 9.99999, 9.999612 
6.3500804e+2, 2.4478382e+2, -613494.2, -729068.44, 8090.5547, 0.08657628, -0.07884753, -612930.56, -71819.17, 0.0, 10.000115, 9.998608 
6.35001e+2, 2.5478256e+2, -519910.2, -637719.94, 15876.663, -0.004518617, -0.092813976, -517808.06, -74678.5, 0.0, 10.000101, 9.998571 
6.3499415e+2, 2.6478216e+2, -329718.06, -380375.34, -40568.15, -0.02930121, -0.03436668, -307220.8, 37914.316, 0.0, 10.000251, 9.999588 
6.349875e+2, 2.7478233e+2, -213000.17, -273985.4, -30940.145, 0.014373915, -0.016780954, -200052.13, 47078.73, 0.0, 10.000372, 9.999591 
6.349808e+2, 2.847816e+2, -171172.47, -373472.03, -30338.49, 0.03736089, 0.03432839, -166720.63, -17583.047, 0.0000001448745, 10.000724, 9.998073 
6.349739e+2, 2.9477993e+2, -22432.367, -265063.06, -11461.125, 0.009804932, 0.029743614, -21892.182, 29264.59, 0.000005079309, 10.00112, 9.997954 
6.3496494e+2, 3.0477622e+2, 92172.734, -133809.34, -8036.4185, -0.22101483, -0.14778909, 92458.164, 92458.164, 0.000027855136, 10.00136, 9.998414 
6.349601e+2, 3.1477538e+2, 88190.31, -3594.1577, -50264.793, -0.08288975, -0.11845911, 110361.625, 110361.625, 0.00008149468, 10.000706, 9.999618 
6.450969e+2, 1.2479556e+2, -1891617.1, -1740497.0, -115510.81, 0.17587174, 0.16256514, -1678027.9, 38988.41, 0.0000000047013002, 9.998477, 10.000531 
6.450922e+2, 1.347963e+2, -1640496.4, -1545778.9, 89386.6, 0.19254923, 0.1264162, -1491980.3, 127024.01, 0.0, 9.999452, 10.000744 
6.4508307e+2, 1.4479637e+2, -1544530.0, -1551612.8, -2626.1177, -0.14892654, 0.118364684, -1543662.6, -22661.0, 0.0, 9.999864, 9.999817 
6.4507735e+2, 1.5479647e+2, -1439649.0, -1449315.8, -36958.676, 0.08354792, 0.10532255, -1407209.0, 15792.359, 0.0, 9.999915, 9.99982 
6.450701e+2, 1.6479616e+2, -1304324.0, -1329721.8, -10983.191, 0.13846979, 0.09690462, -1300233.3, 24769.955, 0.0, 10.000159, 9.999854 
6.4506227e+2, 1.7479527e+2, -1138991.8, -1196910.5, -65033.69, 0.08796375, -0.008034233, -1096761.1, 130247.63, 0.0, 10.000614, 9.999872 
6.4505404e+2, 1.8479508e+2, -1153437.3, -1286214.9, -82987.48, 0.044629145, 0.04920484, -1113550.9, 15460.433, 0.0, 10.000403, 9.998689 
6.450452e+2, 1.9479534e+2, -1207365.3, -1263329.0, -39417.695, -0.003948505, 0.17608055, -1187007.3, -155993.56, 0.0, 9.999379, 9.998663 
6.450372e+2, 2.047949e+2, -1063915.9, -1019874.94, 40727.242, -0.02655414, 0.21675296, -995596.3, -62577.4, 0.0, 9.999158, 9.999765 
6.4503014e+2, 2.1479334e+2, -884066.2, -880192.0, 11394.477, -0.00621834, 0.05051707, -870571.1, -35540.652, 0.0, 9.999706, 9.999789 
6.4502287e+2, 2.2479212e+2, -743039.1, -792270.3, -20369.043, 0.027830215, -0.030527757, -735704.4, 1333.0327, 0.0, 10.000127, 9.999518 
6.4501536e+2, 2.3479103e+2, -603272.2, -674021.75, -48498.047, 0.08420576, -0.12763724, -578618.3, 60423.883, 0.0, 10.000412, 9.99952 
6.450082e+2, 2.4479021e+2, -510579.63, -659395.1, 46925.375, 0.068560295, -0.120250225, -497018.63, 44030.39, 0.0, 10.000746, 9.998786 
6.450015e+2, 2.5478944e+2, -353928.72, -534255.25, 57347.844, -0.012020538, -0.10232801, -337236.06, 105824.29, 0.0, 10.001146, 9.998779 
6.449947e+2, 2.647891e+2, -259208.92, -384783.4, 14880.701, -0.026224945, -0.033688508, -257469.63, 87596.28, 0.0, 10.000906, 9.999242 
6.44988e+2, 2.7478883e+2, -286724.8, -351535.8, -25902.662, 0.055837993, -0.016510919, -277644.6, -30576.105, 0.000000000000000000046744374, 10.000048, 9.999219 
6.4498144e+2, 2.8478822e+2, -257877.33, -365413.66, 38963.08, 0.080822, 0.041888885, -245244.16, -96169.164, 0.00000034821963, 9.999914, 9.998511 
6.4497465e+2, 2.9478702e+2, -90652.19, -251253.34, 55651.07, 0.020853389, 0.03780827, -73253.1, -22164.938, 0.0000068469953, 10.000443, 9.998369 
6.449666e+2, 3.04784e+2, 28863.791, -118594.23, 80527.9, -0.15289675, -0.10983217, 64316.78, 64316.78, 0.00003364889, 10.0007515, 9.998789 
6.4496183e+2, 3.1478372e+2, 78574.22, -26727.176, -39958.4, 0.037018236, -0.068409644, 92020.19, 92020.19, 0.000093661416, 10.000726, 9.999431 
6.550965e+2, 1.24803565e+2, -1876258.3, -1712065.3, -149069.8, 0.21887165, 0.2823353, -1623980.5, 92959.53, 0.000000001405694, 9.998494, 10.000715 
6.550904e+2, 1.3480303e+2, -1623302.9, -1516220.9, 131358.97, 0.03529202, 0.10218804, -1427910.5, 191027.72, 0.0, 9.999478, 10.00093 
6.550834e+2, 1.4480266e+2, -1538788.5, -1530558.1, -19226.436, -0.13101587, 0.032652806, -1515011.4, 5925.5293, 0.0, 9.999824, 9.999986 
6.550781e+2, 1.5480213e+2, -1433575.1, -1430476.0, -21775.43, 0.14175065, -0.058355607, -1410195.1, 12744.557, 0.0, 9.99988, 9.999974 
6.550705e+2, 1.6480199e+2, -1390728.5, -1492925.4, -9620.657, 0.13291775, -0.0040449332, -1389830.8, -64887.87, 0.0, 10.000091, 9.998762 
6.550613e+2, 1.7480218e+2, -1223795.6, -1364419.9, -34057.53, -0.10230491, 0.11105215, -1215981.5, 10965.863, 0.0, 10.000578, 9.998736 
6.55053e+2, 1.848019e+2, -1058662.0, -1067967.0, -133997.36, -0.12339933, 0.141786, -929236.44, 199714.48, 0.0, 10.000313, 10.00023 
6.550455e+2, 1.9480073e+2, -1107524.1, -1033146.2, -62768.223, 0.062328324, -0.034704093, -997377.2, 33579.656, 0.0, 9.999283, 10.000289 
6.5503806e+2, 2.0480062e+2, -1111017.3, -1087889.6, 45886.195, 0.12393215, -0.024559868, -1052132.6, -119176.94, 0.0, 9.999028, 9.999366 
6.550307e+2, 2.148013e+2, -938751.56, -953307.3, 44606.973, 0.056479305, 0.07966728, -900832.6, -65882.97, 0.0, 9.999537, 9.999369 
6.5502286e+2, 2.2480045e+2, -793065.44, -856534.06, -22463.594, -0.007083391, 0.070165664, -785919.44, -48962.637, 0.0, 9.999959, 9.999155 
6.550144e+2, 2.3479752e+2, -653679.6, -738538.44, -25138.89, -0.08085778, -0.17073396, -646791.5, -7809.8613, 0.0, 10.000243, 9.999156 
6.550076e+2, 2.4479674e+2, -489837.4, -587786.9, 46618.066, -0.086418144, -0.1677675, -471197.28, 69789.945, 0.0, 10.0006275, 9.999332 
6.550028e+2, 2.54798e+2, -332601.56, -458426.47, 87022.13, -0.027411062, -0.0074084997, -288132.3, 154842.17, 0.0, 10.0010195, 9.999355 
6.5499574e+2, 2.6479772e+2, -307192.75, -477030.34, -30133.041, -0.038899776, 0.069772035, -302004.9, 42973.53, 0.0, 10.000863, 9.998632 
6.5498674e+2, 2.7479553e+2, -338861.53, -449564.16, -39916.99, -0.10515978, -0.04210417, -325969.63, -78966.53, 0.0000000002377775, 9.99999, 9.998578 
6.5498024e+2, 2.8479496e+2, -211438.8, -250051.84, 44758.074, -0.06526109, 0.010632625, -182000.81, -32990.895, 0.0000008000927, 9.999845, 9.99933 
6.549758e+2, 2.9479563e+2, -48663.016, -133352.08, 91922.98, 0.043278076, 0.10529013, 10199.635, 61201.758, 0.000010270006, 10.000324, 9.99923 
6.5496904e+2, 3.0479443e+2, 43923.734, -91697.484, 72578.87, -0.02038154, 0.087533005, 75440.72, 75440.72, 0.00004390313, 10.000755, 9.9989805 
6.549637e+2, 3.1479254e+2, 48636.88, -79882.62, 9034.896, 0.07123207, -0.046954982, 49268.92, 49268.92, 0.00011355634, 10.000684, 9.99909 
6.650958e+2, 1.24809526e+2, -1654045.8, -1629000.6, -140581.14, 0.23829047, 0.25031108, -1500385.4, 216495.55, 0.00000000035571668, 10.00012, 10.000501 
6.650895e+2, 1.3480873e+2, -1681290.4, -1594037.5, 38388.03, 0.017716452, 0.08115254, -1579552.9, 39331.066, 0.0, 9.999274, 10.00051 
6.650844e+2, 1.448086e+2, -1671350.9, -1552350.3, -88910.414, 0.043399844, 0.039116085, -1504867.6, 16013.096, 0.0, 9.998739, 10.000354 
6.6507804e+2, 1.548085e+2, -1519999.5, -1425902.1, -104603.71, 0.19310454, -0.052291475, -1358253.4, 64624.504, 0.0, 9.999104, 10.000368 
6.650699e+2, 1.6480865e+2, -1509687.6, -1534171.3, -9052.044, 0.12013699, 0.0031514263, -1506704.4, -181826.3, 0.0, 9.999208, 9.998906 
6.650609e+2, 1.7480889e+2, -1460331.3, -1461748.8, 30460.69, -0.10912802, 0.108883336, -1430571.1, -203687.64, 0.0, 9.998881, 9.998886 
6.6505295e+2, 1.8480878e+2, -1156717.9, -1059865.3, -27105.742, -0.10531991, 0.12471733, -1052795.4, 76089.35, 0.0, 9.999413, 10.000716 
6.6504616e+2, 1.9480789e+2, -847927.25, -858339.56, -67129.445, 0.12458987, -0.070267566, -785802.4, 245082.77, 0.0, 10.00084, 10.000743 
6.6503894e+2, 2.0480789e+2, -792288.3, -956568.4, 23382.799, 0.199767, -0.062359862, -789024.94, 143857.31, 0.0, 10.00131, 9.999172 
6.6503143e+2, 2.1480855e+2, -785641.75, -905076.1, 10039.326, 0.12195263, 0.060615543, -784803.75, 50074.465, 0.0, 10.000693, 9.999149 
6.650235e+2, 2.248079e+2, -738358.94, -842905.25, -6931.7466, 0.045493897, 0.0917965, -737901.3, -1016.25006, 0.0, 10.000405, 9.999036 
6.6501516e+2, 2.348056e+2, -632969.44, -744455.2, -17401.654, -0.038398728, -0.07222695, -630316.4, 8590.022, 0.0, 10.000465, 9.999014 
6.650085e+2, 2.4480475e+2, -483594.1, -575179.56, 77946.68, -0.055930972, -0.07275273, -438984.06, 101928.266, 0.0, 10.000601, 9.999441 
6.650038e+2, 2.5480524e+2, -367304.8, -467147.4, 50608.44, 0.00060100213, -0.0017615076, -346139.2, 96764.836, 0.0, 10.000716, 9.9994545 
6.6499674e+2, 2.6480454e+2, -346483.94, -524253.4, -72748.31, -0.009043683, 0.04042103, -320508.7, 24402.385, 0.0, 10.00071, 9.998386 
6.649873e+2, 2.7480236e+2, -266824.3, -437335.53, -82557.68, -0.06968051, -0.04305526, -233402.67, 13533.784, 0.0000000023427176, 10.000598, 9.998362 
6.6498053e+2, 2.848016e+2, -127749.28, -192960.17, 45894.816, -0.034134142, -0.0046521868, -104056.87, 44887.9, 0.0000014418595, 10.00033, 9.999499 
6.649761e+2, 2.9480186e+2, -112743.4, -139349.13, 11728.418, 0.0856632, 0.023480227, -108311.5, -57371.797, 0.000014823799, 9.999768, 9.99946 
6.6497016e+2, 3.0480176e+2, -90149.69, -144533.36, 2068.3628, 0.07364961, 0.09908081, -90071.14, -90071.14, 0.000057815294, 9.999796, 9.999074 
6.649652e+2, 3.147998e+2, -8748.411, -73917.27, -118759.56, 0.19378936, -0.047515437, 81815.76, 81815.76, 0.00014076945, 10.000141, 9.999395 
6.7509437e+2, 1.2481372e+2, -1707687.6, -1735266.9, -173242.06, 0.01422752, 0.074366294, -1547687.3, 169149.05, 0.0000000023126079, 10.000109, 9.999776 
6.75089e+2, 1.3481341e+2, -1752974.1, -1742242.9, 13209.351, 0.013862929, 0.054129157, -1733351.0, -114509.805, 0.0, 9.99928, 9.99949 
6.750853e+2, 1.4481425e+2, -1635832.6, -1466922.8, -93907.87, 0.22707728, 0.13293195, -1425079.1, 95752.99, 0.0, 9.998692, 10.00096 
6.750765e+2, 1.5481569e+2, -1471705.9, -1326769.5, -74096.49, 0.08960619, 0.13408855, -1295594.4, 127220.03, 0.0, 9.99911, 10.001045 
6.75068e+2, 1.648162e+2, -1417015.3, -1336922.5, -35152.223, -0.022573328, 0.1234733, -1323683.0, 1124.8751, 0.0, 9.999182, 10.000277 
6.750607e+2, 1.7481545e+2, -1368016.6, -1260933.9, 31151.824, -0.05046066, -0.009195467, -1252530.8, -25714.686, 0.0, 9.99884, 10.000284 
6.7505354e+2, 1.8481572e+2, -1207699.9, -1146826.6, 8119.2007, -0.022338638, 0.0016023237, -1145762.4, -16949.922, 0.0, 9.999329, 10.000164 
6.750465e+2, 1.9481687e+2, -908870.25, -951683.94, -431.76617, 0.04877565, 0.07289102, -908865.9, 121932.14, 0.0, 10.000705, 10.000168 
6.750393e+2, 2.0481682e+2, -818043.8, -978403.4, -10951.379, 0.080745034, 0.109400034, -817299.4, 115498.27, 0.0, 10.001162, 9.999099 
6.750318e+2, 2.1481515e+2, -812821.0, -922269.8, -656.3404, 0.070024334, 0.001709601, -812817.06, 21998.105, 0.0, 10.000521, 9.999114 
6.750244e+2, 2.2481471e+2, -756272.25, -840568.8, -18708.066, 0.07549632, 0.049249984, -752306.9, -15486.122, 0.0, 10.000235, 9.999136 
6.75017e+2, 2.348153e+2, -651579.1, -740477.56, 792.74634, 0.08609436, 0.16459425, -651572.0, -12755.835, 0.0, 10.000284, 9.999127 
6.750104e+2, 2.448143e+2, -531786.44, -641456.75, 71630.16, 0.045623716, 0.16175257, -496411.97, 44411.848, 0.0, 10.000462, 9.999051 
6.750042e+2, 2.5481126e+2, -417218.1, -539711.3, 68641.93, -0.057334557, -0.076550364, -386470.88, 56376.99, 0.0, 10.000581, 9.99902 
6.7499727e+2, 2.6480967e+2, -352709.3, -512807.3, -91813.16, -0.058499206, -0.10848109, -310949.06, 33913.313, 0.0, 10.000609, 9.998512 
6.7498934e+2, 2.7480936e+2, -271265.47, -423955.16, -71280.086, 0.040024903, -0.022251468, -243162.31, 3706.6843, 0.0000000015372758, 10.000502, 9.998502 
6.749822e+2, 2.848082e+2, -160975.95, -253469.31, 12496.601, 0.06814337, -0.010221937, -159317.3, -10437.318, 0.0000017821444, 10.000296, 9.999097 
6.7497534e+2, 2.9480585e+2, -156426.94, -203205.25, 10309.249, -0.0113855805, -0.1954017, -154255.7, -103356.91, 0.000019076204, 9.999659, 9.999072 
6.749693e+2, 3.0480593e+2, -107487.58, -165479.75, 7196.7603, -0.023195643, -0.07983019, -106607.81, -106607.81, 0.000073988194, 9.99974, 9.998954 
6.7496544e+2, 3.1480545e+2, 41835.02, 61277.0, -62409.594, 0.13116744, -0.06221939, 114718.15, 114718.15, 0.00017626988, 10.000028, 10.00037 
6.8509495e+2, 1.2482066e+2, -1725213.3, -1761704.4, 1023.67804, 0.08370738, 0.027671684, -1725184.5, -8419.596, 0.0000000036242784, 10.000046, 9.999634 
6.8508834e+2, 1.348203e+2, -1716836.8, -1754834.6, 122532.12, 0.015455166, 0.035402216, -1611839.4, 6932.6533, 0.0, 9.999691, 9.999187 
6.850849e+2, 1.4482105e+2, -1547471.1, -1430862.1, 86813.08, 0.29358953, 0.12210646, -1384591.6, 136174.0, 0.0, 9.999314, 10.000914 
6.850753e+2, 1.5482269e+2, -1465704.1, -1330355.3, 29754.479, 0.06614282, 0.14976782, -1324103.0, 98644.63, 0.0, 9.999166, 10.001004 
6.8506706e+2, 1.6482352e+2, -1365037.8, -1256266.8, 35008.695, -0.025348028, 0.14586388, -1245973.1, 78764.375, 0.0, 9.999288, 10.000785 
6.8506104e+2, 1.7482318e+2, -1214916.1, -1134755.0, 8975.787, 0.07242063, 0.0036545484, -1133762.3, 92976.45, 0.0, 9.999654, 10.00077 
6.8505424e+2, 1.848235e+2, -1182563.6, -1198702.1, 3030.0154, 0.10894582, 0.024782209, -1182013.5, -53279.027, 0.0, 9.99977, 9.999592 
6.850466e+2, 1.948242e+2, -1121878.0, -1119010.4, -30387.977, 0.062957175, 0.10566954, -1090022.4, -59294.785, 0.0, 9.999511, 9.99959 
6.8503934e+2, 2.0482384e+2, -1043946.4, -1061447.0, -31848.268, 0.063337855, 0.12843616, -1019668.2, -86936.945, 0.0, 9.999536, 9.9992895 
6.850324e+2, 2.1482198e+2, -886583.06, -936633.75, -30928.543, 0.11297536, -0.016889306, -871823.44, -37074.15, 0.0, 9.999937, 9.999286 
6.850254e+2, 2.2482166e+2, -722060.3, -829433.75, -1214.2762, 0.14102958, 0.037806164, -722046.6, 14706.801, 0.0, 10.000479, 9.999094 
6.8501824e+2, 2.348228e+2, -530547.8, -689456.2, -20735.72, 0.14530182, 0.21317987, -527886.56, 110858.11, 0.0, 10.001125, 9.999076 
6.850115e+2, 2.448218e+2, -470199.6, -610734.56, 55299.223, 0.10250105, 0.21173336, -451049.4, 89703.77, 0.0, 10.000891, 9.999043 
6.8500495e+2, 2.5481823e+2, -527872.0, -590683.25, 57775.457, 0.0041853376, -0.08068517, -493518.1, -50735.387, 0.0, 9.999831, 9.999019 
6.8499786e+2, 2.6481676e+2, -439893.44, -515539.66, -13651.976, -0.011530352, -0.115977645, -437505.03, -92710.19, 0.0, 9.999835, 9.998863 
6.8499035e+2, 2.7481726e+2, -194109.47, -348652.8, -6218.115, 0.08042364, 0.012711009, -193859.69, 52931.797, 0.00000000039754933, 10.000851, 9.998853 
6.8498325e+2, 2.84816e+2, -50142.36, -267407.5, 80089.086, 0.104956634, 0.027866198, -23810.873, 124992.234, 0.000001935021, 10.001359, 9.998482 
6.849764e+2, 2.9481262e+2, 71098.445, -162958.95, 28662.871, 0.04676412, -0.19510007, 74557.41, 125391.63, 0.000022833043, 10.001516, 9.998454 
6.8497e+2, 3.0481184e+2, 57459.133, -110095.77, 29923.854, 0.029688748, -0.12664838, 62642.9, 62642.9, 0.00009092674, 10.000976, 9.998741 
6.8496495e+2, 3.148119e+2, -69531.17, 44948.465, -94732.086, 0.146108, -0.026641063, 98390.914, 98390.914, 0.00021663251, 9.999069, 10.00074 
6.950971e+2, 1.2483045e+2, -1686290.0, -1683115.3, 24098.307, 0.21825355, 0.11869217, -1660552.1, 56113.88, 0.00000000017840025, 10.00007, 10.000152 
6.9508713e+2, 1.3482937e+2, -1688567.4, -1701570.0, 117103.42, -0.107399285, 0.024590421, -1577784.9, 40891.695, 0.0, 9.999718, 9.999537 
6.9508284e+2, 1.4482884e+2, -1594323.5, -1524642.1, 64659.848, 0.117008254, -0.0058693574, -1486033.8, 34648.793, 0.0, 9.999295, 10.000281 
6.9507414e+2, 1.5482944e+2, -1513949.8, -1435666.6, 39178.285, 0.0031610606, -0.017483285, -1419427.6, 3250.4644, 0.0, 9.999176, 10.000283 
6.9506675e+2, 1.6483055e+2, -1397502.3, -1309923.4, 35112.24, -0.017210256, 0.06414129, -1297584.5, 27082.766, 0.0, 9.999239, 10.000434 
6.9506156e+2, 1.7483218e+2, -1246838.8, -1187977.0, 39150.8, 0.13450608, 0.15472329, -1168428.6, 58221.332, 0.0, 9.999599, 10.000429 
6.950549e+2, 1.848322e+2, -1236758.3, -1285842.9, -17154.932, 0.16489382, 0.18699907, -1231357.0, -102707.04, 0.0, 9.999665, 9.999041 
6.9504625e+2, 1.9483003e+2, -1178860.1, -1210135.3, -26154.377, 0.04447236, 0.036381032, -1164025.0, -133352.66, 0.0, 9.999406, 9.99901 
6.950388e+2, 2.0482899e+2, -1032275.94, -1011871.2, -32345.076, 0.027601099, 0.003724108, -988157.6, -55475.285, 0.0, 9.999417, 9.99969 
6.950327e+2, 2.1482895e+2, -882698.06, -888466.9, -3124.706, 0.12737167, -0.0007241622, -881330.0, -46648.938, 0.0, 9.9997635, 9.999701 
6.950259e+2, 2.2482878e+2, -760718.9, -869311.8, 10885.743, 0.12905951, 0.054974347, -759638.4, -22955.273, 0.0, 10.000303, 9.998902 
6.9501835e+2, 2.3482814e+2, -568982.8, -730678.6, 16366.421, 0.018040814, 0.07201424, -567342.9, 71349.08, 0.0, 10.000964, 9.998866 
6.950116e+2, 2.4482737e+2, -454623.28, -555246.2, 3736.1572, -0.0058522527, 0.084594846, -454484.75, 86214.68, 0.0, 10.000787, 9.9994755 
6.950056e+2, 2.548262e+2, -509567.88, -529429.2, 32677.014, 0.058098786, -0.018229356, -485345.84, -42637.676, 0.0, 9.999726, 9.99949 
6.949983e+2, 2.6482588e+2, -413613.13, -440613.25, 13009.383, 0.027534893, 0.009239573, -408364.97, -63656.426, 0.0, 9.99975, 9.999418 
6.9498974e+2, 2.7482617e+2, -171133.25, -277857.16, 46912.64, -0.09450468, 0.066709585, -153443.84, 93259.31, 0.0000000054780975, 10.000754, 9.999385 
6.949833e+2, 2.848251e+2, -119393.055, -400158.03, 71672.414, -0.06128412, 0.11239209, -102155.19, 46558.945, 0.000002364329, 10.00131, 9.997591 
6.9497883e+2, 2.948222e+2, -4297.0137, -299998.72, 55850.977, 0.09632541, 0.026450936, 5900.247, 56645.98, 0.000027093956, 10.001437, 9.997546 
6.9497204e+2, 3.0481946e+2, 34253.027, -157718.0, -45616.598, 0.10396503, -0.035652354, 44541.184, 44541.184, 0.00010798756, 10.000962, 9.998422 
6.9496334e+2, 3.1481916e+2, -96571.3, 1696.1956, -124229.19, -0.00052752596, 0.054684464, 86155.17, 86155.17, 0.00025661878, 9.999009, 10.00047 
7.050977e+2, 1.2483827e+2, -1587489.0, -1632643.4, 42905.547, 0.25386766, 0.074045844, -1561583.1, 155004.81, 0.0, 10.000707, 10.000208 
7.0508665e+2, 1.3483793e+2, -1686911.4, -1692986.5, 8703.088, -0.10895811, 0.042718735, -1680731.0, -62140.18, 0.0, 9.99966, 9.999636 
7.050818e+2, 1.4483707e+2, -1643778.0, -1590642.4, 27681.775, 0.11107405, -0.007749219, -1578841.9, -58241.66, 0.0, 9.9991455, 9.999894 
7.05074e+2, 1.5483725e+2, -1446301.0, -1442386.6, -5764.7173, 0.0477701, -0.01919347, -1438255.9, -15654.87, 0.0, 9.999829, 9.999907 
7.0506686e+2, 1.64838e+2, -1308752.8, -1322535.3, 19306.152, 0.02754567, 0.069273405, -1295144.9, 29450.05, 0.0, 10.000104, 9.999918 
7.050612e+2, 1.7483915e+2, -1258014.6, -1245962.4, -20968.654, 0.13627705, 0.16353764, -1230171.1, -3587.9055, 0.0, 9.999769, 9.999933 
7.0505464e+2, 1.8483882e+2, -1217439.3, -1260479.1, -32928.53, 0.17989837, 0.17726137, -1199622.3, -71035.836, 0.0, 9.999729, 9.999184 
7.0504683e+2, 1.9483642e+2, -1081233.1, -1147837.1, -15861.3545, 0.13744469, -0.010153013, -1077648.8, -47038.73, 0.0, 10.000003, 9.999156 
7.050397e+2, 2.0483568e+2, -902364.25, -946043.25, 31596.887, 0.13459936, -0.022823479, -885793.8, 46823.305, 0.0, 10.000272, 9.9997425 
7.0503324e+2, 2.1483651e+2, -780149.0, -832453.56, 9637.698, 0.17896555, 0.053991854, -778429.7, 56178.883, 0.0, 10.00042, 9.999777 
7.050263e+2, 2.248363e+2, -763557.44, -849144.1, 41586.152, 0.14495578, 0.0939336, -746679.4, -10068.62, 0.0, 10.000205, 9.9990835 
7.0501864e+2, 2.348347e+2, -747546.75, -794049.8, 49032.05, 0.016237171, -0.0042136237, -716532.5, -77905.086, 0.0, 9.999656, 9.999058 
7.0501184e+2, 2.4483421e+2, -612422.7, -622177.0, 51702.4, 0.0027203609, 0.022426862, -565367.94, -24735.705, 0.0, 9.999659, 9.999568 
7.050061e+2, 2.5483462e+2, -433846.22, -483730.06, 27566.232, 0.11887639, 0.070359394, -421612.94, 21014.42, 0.0, 10.0002, 9.999586 
7.049992e+2, 2.6483437e+2, -307682.7, -399141.8, 24876.957, 0.10455649, 0.10738662, -301354.06, 43273.117, 0.0, 10.000521, 9.999335 
7.049909e+2, 2.7483326e+2, -196895.95, -295294.75, -19347.582, -0.038356047, 0.030238872, -193228.45, 53406.22, 0.000000016182126, 10.00061, 9.999329 
7.0498437e+2, 2.8483224e+2, -255730.52, -453407.7, 15334.106, -0.022774352, 0.080901876, -254548.1, -105903.1, 0.0000030357212, 10.000292, 9.997733 
7.0497954e+2, 2.9483113e+2, -301286.7, -429984.7, 52223.813, 0.14185885, 0.15596256, -282761.56, -232100.38, 0.000031540207, 9.999311, 9.997696 
7.049727e+2, 3.0482826e+2, -210413.53, -262762.22, 36636.617, 0.16612466, 0.06552638, -191561.9, -191561.9, 0.00012311795, 9.999237, 9.998519 
7.0496345e+2, 3.14827e+2, 24556.94, 31006.17, -73182.67, 0.0754036, 0.048583094, 101035.234, 101035.234, 0.0002906225, 9.999984, 10.000184 
7.150962e+2, 1.2484421e+2, -1597485.4, -1655669.5, 10173.74, -0.03669917, -0.08967489, -1595757.8, 120772.4, 0.0, 10.000717, 10.000041 
7.150866e+2, 1.3484585e+2, -1682121.3, -1697386.5, -25234.7, -0.1178956, 0.07508159, -1663390.1, -44874.816, 0.0, 9.99971, 9.999586 
7.150817e+2, 1.448457e+2, -1654216.4, -1611896.9, 33409.35, 0.13409658, 0.10514218, -1593510.3, -72991.68, 0.0, 9.999151, 9.999739 
7.150744e+2, 1.5484622e+2, -1458203.9, -1464771.6, 36007.273, 0.06925764, 0.14199297, -1425331.1, -2815.5564, 0.0, 9.999818, 9.999759 
7.1506685e+2, 1.6484582e+2, -1365891.3, -1424449.0, -5627.7993, -0.011492247, 0.15602767, -1365355.3, -40834.523, 0.0, 10.000036, 9.99925 
7.150596e+2, 1.7484409e+2, -1312873.4, -1353476.8, -19483.48, -0.03985006, 0.028590648, -1305036.8, -78498.6, 0.0, 9.999743, 9.999209 
7.150532e+2, 1.8484333e+2, -1166707.3, -1141698.0, -35937.51, 0.03443663, -0.0009890622, -1116151.8, 12392.334, 0.0, 9.999668, 10.000031 
7.150479e+2, 1.9484341e+2, -1038135.2, -1029921.7, 9658.045, 0.21521644, -0.02888281, -1023533.56, 7006.3706, 0.0, 9.99988, 10.000029 
7.150414e+2, 2.0484397e+2, -946897.44, -995061.7, 26064.875, 0.25664023, 0.055774536, -935492.56, -2957.988, 0.0, 10.000096, 9.999485 
7.1503365e+2, 2.1484472e+2, -832313.9, -888978.7, 26810.582, 0.1499738, 0.15083969, -821639.44, 12891.661, 0.0, 10.000212, 9.999482 
7.15026e+2, 2.2484435e+2, -748789.25, -781593.25, 6330.146, 0.072204195, 0.16495909, -747610.06, -11074.886, 0.0, 10.000042, 9.999629 
7.150185e+2, 2.3484255e+2, -732948.5, -725211.8, 41732.457, 0.016218971, -0.0062344675, -687168.8, -48618.82, 0.0, 9.999487, 9.999614 
7.1501184e+2, 2.4484234e+2, -652480.44, -671985.8, 57502.56, 0.011821104, 0.031135483, -603909.4, -63358.336, 0.0, 9.999516, 9.999297 
7.15006e+2, 2.5484347e+2, -473502.2, -535635.44, 61235.727, 0.05661403, 0.18344317, -435903.3, 6637.172, 0.0, 10.000076, 9.999289 
7.1499985e+2, 2.6484233e+2, -363116.2, -508027.25, 13726.124, 0.09106584, 0.18178996, -361827.5, -17276.77, 0.0, 10.000485, 9.998609 
7.149934e+2, 2.748385e+2, -261285.2, -409035.03, 77.04906, 0.11659163, -0.09623913, -261285.17, -14698.858, 0.000000020828322, 10.000518, 9.998596 
7.1498626e+2, 2.848375e+2, -180208.69, -274183.4, -33210.035, 0.10687709, -0.06614008, -169657.22, -21061.188, 0.0000037854625, 10.000211, 9.998997 
7.149781e+2, 2.9483947e+2, -228933.61, -249871.02, 36550.01, 0.0277824, 0.19340958, -201382.63, -150802.92, 0.000035842306, 9.999206, 9.998973 
7.149713e+2, 3.0483833e+2, -180997.39, -209379.23, 56162.168, 0.072295114, 0.18831557, -137261.02, -137261.02, 0.000135526, 9.999255, 9.998887 
7.149646e+2, 3.1483504e+2, -21196.86, -45845.51, -4447.05, 0.11823902, -0.06616872, -20419.076, -20419.076, 0.00031586387, 9.999895, 9.999708 
7.250963e+2, 1.2485191e+2, -1769531.9, -1741046.6, 28158.18, -0.017078921, -0.029452464, -1723734.0, -7275.65, 0.0, 9.999518, 10.000062 
7.2508687e+2, 1.3485344e+2, -1575919.9, -1599265.3, -68695.805, -0.07954158, 0.095679104, -1517912.1, 100530.84, 0.0, 10.000268, 9.999984 
7.25081e+2, 1.4485323e+2, -1477489.3, -1528521.0, 53323.55, 0.10567996, 0.102527276, -1443891.3, 76554.125, 0.0, 10.000354, 9.999747 
7.250744e+2, 1.5485401e+2, -1446161.6, -1453337.9, 41515.28, 0.09109104, 0.16503954, -1408079.8, 14358.936, 0.0, 9.999871, 9.999817 
7.250672e+2, 1.648535e+2, -1421448.8, -1485795.6, 47177.105, 0.04704421, 0.17692408, -1396518.6, -72073.13, 0.0, 9.999771, 9.998976 
7.2506e+2, 1.7485122e+2, -1286343.4, -1368238.3, 37922.95, 0.025234468, 0.021862732, -1271480.0, -45009.914, 0.0, 10.000029, 9.998977 
7.250536e+2, 1.8485059e+2, -1104773.3, -1094086.9, 38698.234, 0.092726454, 0.0058851736, -1060364.6, 68110.84, 0.0, 10.000017, 10.00019 
7.250478e+2, 1.948514e+2, -1056548.5, -1016033.0, 3264.6128, 0.24190381, 0.034695566, -1015771.6, 14691.929, 0.0, 9.9996605, 10.000225 
7.250411e+2, 2.0485196e+2, -1054981.5, -1062798.8, 26002.959, 0.25930923, 0.11746337, -1032595.0, -100137.06, 0.0, 9.999431, 9.999348 
7.250333e+2, 2.1485189e+2, -980901.0, -979267.25, 13239.309, 0.14760333, 0.14952828, -966819.7, -132356.83, 0.0, 9.9992695, 9.999325 
7.25026e+2, 2.248516e+2, -780669.5, -773358.25, 25364.182, 0.08777492, 0.167309, -751387.6, -14921.387, 0.0, 9.999714, 9.99985 
7.250193e+2, 2.348508e+2, -524471.3, -600969.6, 6983.0767, 0.08928371, 0.073095694, -523839.06, 114631.555, 0.0, 10.000805, 9.999839 
7.250128e+2, 2.448504e+2, -461139.3, -606947.75, 27632.604, 0.087832384, 0.093567885, -456078.25, 84394.47, 0.0, 10.000955, 9.999041 
7.2500616e+2, 2.5485015e+2, -473084.6, -566104.25, 6980.0293, 0.07095713, 0.1335604, -472563.75, -30088.566, 0.0, 10.000206, 9.999013 
7.2499996e+2, 2.6484883e+2, -472346.9, -541510.44, 18741.725, 0.097856484, 0.11902589, -467594.8, -123107.27, 0.0, 9.999671, 9.998762 
7.2499406e+2, 2.7484605e+2, -412152.66, -465882.78, 41099.766, 0.19425462, -0.06949557, -389916.56, -143402.36, 0.000000011844985, 9.99941, 9.998741 
7.249866e+2, 2.8484523e+2, -237052.56, -255497.14, 43442.723, 0.157934, -0.046590824, -201864.03, -53342.0, 0.000004675658, 9.999644, 9.999387 
7.2497725e+2, 2.948465e+2, -22691.773, -104103.79, 8044.395, -0.03208907, 0.09963724, -21904.512, 28606.912, 0.000040333267, 10.000437, 9.9993725 
7.249708e+2, 3.0484635e+2, -2883.0073, -85188.86, 17893.004, 0.056502335, 0.1635698, 838.5907, 838.5907, 0.00014552829, 10.000315, 9.999245 
7.2496486e+2, 3.148444e+2, -134420.19, -54876.18, -89737.89, 0.21778281, 0.004082018, 3508.3303, 3508.3303, 0.00033116215, 9.998919, 10.00013 
7.3509765e+2, 1.24861374e+2, -1752305.3, -1701746.0, 25961.846, 0.10062232, 0.26117718, -1690789.3, 25583.229, 0.0, 9.99951, 10.000327 
7.3508704e+2, 1.3486071e+2, -1534648.8, -1518945.1, -35986.74, -0.12281203, 0.10692905, -1489963.6, 128410.37, 0.0, 10.000273, 10.000538 
7.3507947e+2, 1.4485957e+2, -1474753.8, -1497996.8, 18233.822, -0.12347132, -0.021504398, -1464752.8, 55629.156, 0.0, 10.00026, 9.999991 
7.3507357e+2, 1.5486056e+2, -1437115.0, -1434155.6, 40299.273, -0.01564955, 0.036672063, -1395308.9, 27062.813, 0.0, 9.999867, 9.99995 
7.350676e+2, 1.6486101e+2, -1406708.4, -1452672.4, 41464.293, 0.07939558, 0.13027637, -1382283.0, -57913.594, 0.0, 9.99976, 9.999206 
7.3506224e+2, 1.7486067e+2, -1278376.1, -1339262.8, 62924.723, 0.21405075, 0.14569966, -1238917.3, -12539.321, 0.0, 9.999969, 9.999208 
7.350552e+2, 1.8486057e+2, -1162570.1, -1184040.5, 13607.974, 0.22701171, 0.1988618, -1155972.6, -27591.936, 0.0, 9.999896, 9.999624 
7.350463e+2, 1.9486037e+2, -1116429.8, -1111515.6, 2244.4978, 0.09435994, 0.18507627, -1110644.8, -80264.13, 0.0, 9.999546, 9.999619 
7.3503846e+2, 2.0485967e+2, -1071442.1, -1068877.0, 4787.781, 0.032571413, 0.1736029, -1065203.0, -132816.14, 0.0, 9.999304, 9.999368 
7.350317e+2, 2.1485819e+2, -1001888.7, -981984.1, 21551.002, 0.04164077, 0.05623648, -968198.44, -133796.05, 0.0, 9.999094, 9.999388 
7.3502576e+2, 2.2485816e+2, -816635.0, -806153.8, 52821.207, 0.07132458, 0.104962125, -758313.9, -21911.387, 0.0, 9.999534, 9.999712 
7.350206e+2, 2.3485939e+2, -561163.56, -633182.7, 62804.742, 0.114707395, 0.22489141, -524777.5, 113611.84, 0.0, 10.000621, 9.999704 
7.3501414e+2, 2.4485841e+2, -489022.66, -642987.4, -11804.813, 0.10703472, 0.20525324, -488122.8, 52274.223, 0.0, 10.000855, 9.998841 
7.350064e+2, 2.548548e+2, -508913.03, -606943.3, -7746.619, 0.044582084, -0.07183121, -508304.63, -65874.71, 0.0, 10.000061, 9.998803 
7.349991e+2, 2.648541e+2, -418420.44, -405168.34, -1777.216, 0.023085468, -0.062468514, -404934.13, -60498.703, 0.0, 9.999569, 9.999745 
7.349924e+2, 2.7485606e+2, -355971.28, -328070.53, 51545.51, 0.051013228, 0.124732636, -288620.97, -42204.496, 0.000000051096855, 9.999323, 9.999727 
7.3498493e+2, 2.8485548e+2, -266022.8, -326378.22, 59845.277, -0.013114593, 0.1435751, -229177.0, -80754.76, 0.0000058850314, 9.999673, 9.998891 
7.349766e+2, 2.9485217e+2, -69856.836, -193937.23, 57719.95, -0.18874383, -0.11901077, -47158.742, 3297.2273, 0.000044056193, 10.00039, 9.998782 
7.3497075e+2, 3.0485243e+2, 16139.9375, -42525.457, -40149.242, -0.012387104, 0.002747269, 36530.16, 36530.16, 0.00015023243, 10.000302, 9.999542 
7.34963e+2, 3.1485462e+2, -64089.01, 117921.75, -84781.56, 0.0716687, 0.22559696, 151294.39, 151294.39, 0.0003329124, 9.998806, 10.001368 
7.450974e+2, 1.2486832e+2, -1740176.6, -1686892.1, 87806.21, 0.13453335, 0.27316144, -1621775.3, 94529.914, 0.0, 9.999591, 10.00036 
7.450872e+2, 1.3486786e+2, -1675337.6, -1556563.9, -49917.918, -0.060290016, 0.11596202, -1538371.1, 79933.47, 0.0, 9.999212, 10.000771 
7.450789e+2, 1.4486708e+2, -1631751.4, -1551450.8, 14883.283, -0.13544779, 0.00025777126, -1548781.0, -28472.27, 0.0, 9.999094, 10.000179 
7.4507356e+2, 1.5486757e+2, -1483468.1, -1429194.9, -205.0161, 0.024841098, -0.011600118, -1429194.1, -6891.865, 0.0, 9.99945, 10.000171 
7.450679e+2, 1.6486827e+2, -1423498.6, -1418139.4, 37668.477, 0.14859618, 0.07677809, -1383055.3, -58758.594, 0.0, 9.999468, 9.999586 
7.450625e+2, 1.7486891e+2, -1369132.6, -1335371.9, 42194.92, 0.28997126, 0.15050232, -1306806.0, -80510.81, 0.0, 9.999147, 9.999631 
7.450553e+2, 1.8486911e+2, -1236610.8, -1243378.1, 54494.938, 0.27682993, 0.22197495, -1185394.6, -57099.203, 0.0, 9.999471, 9.9994335 
7.4504614e+2, 1.9486846e+2, -1006084.6, -1084779.5, 50140.69, 0.08804046, 0.18443835, -981695.8, 48605.227, 0.0, 10.000397, 9.999403 
7.4503815e+2, 2.0486753e+2, -869689.7, -968635.2, 73503.766, 0.01011377, 0.15765373, -830560.2, 101749.125, 0.0, 10.000676, 9.999381 
7.450314e+2, 2.1486601e+2, -829703.4, -899294.44, 55482.17, 0.049565077, 0.036976025, -799008.44, 35314.69, 0.0, 10.000277, 9.99938 
7.4502575e+2, 2.2486572e+2, -793036.75, -841218.56, 125180.65, 0.1079612, 0.08020549, -689649.94, 46675.96, 0.0, 9.9999, 9.999292 
7.4502116e+2, 2.3486643e+2, -751832.5, -775170.56, 84605.56, 0.17735834, 0.18983948, -678095.06, -39774.77, 0.0, 9.999511, 9.99927 
7.450149e+2, 2.4486545e+2, -663691.25, -675921.7, 31636.781, 0.17399696, 0.16999462, -637584.06, -97255.914, 0.0, 9.999435, 9.999308 
7.4500686e+2, 2.5486243e+2, -508163.75, -549870.5, 56703.973, 0.10522083, -0.09434604, -468600.2, -26247.04, 0.0, 9.999825, 9.9993105 
7.449994e+2, 2.6486215e+2, -355080.88, -385484.06, 79981.37, 0.07625104, -0.064252466, -288869.28, 55485.395, 0.0, 10.00005, 9.999652 
7.449925e+2, 2.748644e+2, -251930.72, -282422.47, 20904.814, 0.098978825, 0.16514471, -241302.9, 5031.8667, 0.00000017449423, 10.000076, 9.999671 
7.44985e+2, 2.8486392e+2, -221212.77, -316048.84, 45739.06, 0.01839079, 0.19723369, -202748.1, -54407.426, 0.0000070145306, 10.000034, 9.998791 
7.4497694e+2, 2.9486018e+2, -143931.48, -239189.72, 43058.15, -0.15836464, -0.09116055, -127353.625, -76977.04, 0.00004543542, 9.999918, 9.998704 
7.449716e+2, 3.0485952e+2, -8009.406, -138675.2, -54464.113, 0.0421904, -0.0228774, 11714.897, 11714.897, 0.00014809403, 10.000506, 9.998772 
7.449631e+2, 3.1486136e+2, 317911.2, 271658.2, -213111.86, 0.0814606, 0.23965642, 509147.7, 509147.7, 0.00032280377, 10.001582, 10.001067 
7.5509477e+2, 1.2487267e+2, -1761518.9, -1718766.8, 11299.573, -0.15080579, -0.015013777, -1715964.0, 293.13943, 0.0, 9.999537, 10.00017 
7.5508726e+2, 1.3487485e+2, -1683297.4, -1579722.0, -51600.254, -0.012263203, 0.1056246, -1558403.3, 59832.234, 0.0, 9.99923, 10.00061 
7.5507915e+2, 1.4487565e+2, -1627507.6, -1534289.6, 10263.035, -0.055315856, 0.15073687, -1533173.0, -12946.392, 0.0, 9.9990635, 10.000311 
7.550738e+2, 1.5487519e+2, -1479100.4, -1409597.1, 25731.893, 0.07302752, 0.032781143, -1401107.5, 21121.516, 0.0, 9.999407, 10.000328 
7.550674e+2, 1.648753e+2, -1389920.0, -1338165.1, 8554.275, 0.124183506, 0.02444632, -1336787.9, -12560.601, 0.0, 9.999419, 10.00016 
7.550604e+2, 1.7487586e+2, -1337384.5, -1261042.4, 43266.723, 0.13008428, 0.036409188, -1241515.6, -15292.958, 0.0, 9.999111, 10.000159 
7.550535e+2, 1.8487614e+2, -1225752.0, -1203344.6, 72770.266, 0.12642126, 0.07634603, -1140920.6, -12700.507, 0.0, 9.999396, 9.999746 
7.5504696e+2, 1.9487575e+2, -1000849.6, -1043923.06, 98915.85, 0.09940007, 0.034055527, -921153.06, 109070.734, 0.0, 10.000272, 9.9997425 
7.5503975e+2, 2.0487556e+2, -901364.5, -997148.3, 44797.81, 0.07536946, 0.0708156, -883678.4, 48546.32, 0.0, 10.000511, 9.99927 
7.55032e+2, 2.1487537e+2, -865739.06, -925401.9, 52363.74, 0.05338262, 0.093635194, -835305.44, -1080.4994, 0.0, 10.000076, 9.999296 
7.550256e+2, 2.2487435e+2, -866391.9, -952981.8, 98197.09, 0.08317189, 0.09968602, -802369.0, -66133.0, 0.0, 9.999726, 9.998609 
7.5502074e+2, 2.348721e+2, -830033.7, -890344.6, 85729.77, 0.15756315, -0.013602945, -769310.44, -131048.76, 0.0, 9.999316, 9.998571 
7.5501454e+2, 2.4487175e+2, -605336.0, -527599.75, 32108.951, 0.1687579, 0.010880277, -516052.47, 24211.441, 0.0, 9.999314, 10.000383 
7.550071e+2, 2.5487298e+2, -445891.28, -397616.63, 84709.305, 0.11496779, 0.059311587, -333672.88, 108572.805, 0.0, 9.999724, 10.000403 
7.5500023e+2, 2.6487285e+2, -441918.1, -553628.7, 68012.54, 0.12955123, 0.10913958, -409764.75, -65518.477, 0.0, 9.999998, 9.998522 
7.5499403e+2, 2.7487117e+2, -351627.4, -463037.22, 39116.785, 0.21106136, 0.05781807, -339265.0, -92996.016, 0.0000002213921, 9.999964, 9.998486 
7.549865e+2, 2.8487056e+2, -210033.67, -281803.34, 29452.549, 0.13923083, 0.12677862, -199494.66, -51217.95, 0.000006961638, 9.99998, 9.999055 
7.549778e+2, 2.9487064e+2, -129328.91, -194888.2, 58182.04, -0.09834487, 0.18823956, -95327.91, -45054.49, 0.00004401986, 9.999848, 9.999047 
7.549727e+2, 3.0486748e+2, -147086.4, -412655.44, -21599.49, 0.07429712, 0.07999353, -145341.14, -145341.14, 0.0001416952, 10.000454, 9.996907 
7.549642e+2, 3.1486496e+2, 177394.38, -2493.5293, -95807.984, -0.050408043, 0.09797203, 218862.31, 218862.31, 0.0003069929, 10.001516, 9.999207 
7.650935e+2, 1.24880515e+2, -1917590.9, -1798547.9, 87509.07, -0.1654958, -0.04914567, -1752236.3, -36060.41, 0.00000000032551553, 9.998425, 10.000175 
7.6508725e+2, 1.3488255e+2, -1693203.0, -1597471.6, 3854.0806, 0.07804401, 0.064522825, -1597316.8, 20839.793, 0.0, 9.99919, 10.000512 
7.6507914e+2, 1.4488356e+2, -1603911.3, -1564841.4, 95834.71, 0.029827297, 0.15311843, -1486570.9, 33575.56, 0.0, 9.999377, 9.999967 
7.650736e+2, 1.5488258e+2, -1493290.6, -1455146.5, 48291.348, 0.117625855, 0.016009582, -1422297.5, -142.4814, 0.0, 9.999452, 10.00001 
7.6506686e+2, 1.6488253e+2, -1354909.6, -1304408.9, 23482.896, 0.12723534, -0.0009962914, -1295176.9, 28978.018, 0.0, 9.999599, 10.000296 
7.650593e+2, 1.7488317e+2, -1226907.0, -1192962.0, -1309.007, 0.08484014, 0.0055975057, -1192911.6, 33236.71, 0.0, 9.999807, 10.000286 
7.6505256e+2, 1.8488349e+2, -1158774.0, -1165343.3, 46003.82, 0.07447976, 0.036283575, -1115937.8, 12207.768, 0.0, 9.999845, 9.999782 
7.650467e+2, 1.94883e+2, -1081211.1, -1080762.8, 21828.123, 0.08539294, -0.016653245, -1059157.6, -29007.354, 0.0, 9.999713, 9.99976 
7.650402e+2, 2.0488296e+2, -1008238.4, -1041398.94, -26067.95, 0.117531955, 0.028388975, -993924.6, -61774.688, 0.0, 9.999756, 9.9993305 
7.6503307e+2, 2.1488298e+2, -875083.75, -928923.0, -30827.953, 0.16709366, 0.06801321, -861076.25, -26928.76, 0.0, 9.999992, 9.999321 
7.6502657e+2, 2.2488189e+2, -807740.06, -925569.2, 66406.21, 0.18467018, 0.06694333, -777881.25, -41722.566, 0.0, 10.000145, 9.998592 
7.6502043e+2, 2.3487936e+2, -698679.06, -825859.5, 74891.16, 0.1633046, -0.07289566, -664022.7, -25835.969, 0.0, 10.000229, 9.998565 
7.6501405e+2, 2.44879e+2, -472722.3, -483537.38, 41811.28, 0.14455368, -0.040223613, -435970.34, 104219.34, 0.0, 10.000308, 10.000206 
7.6500714e+2, 2.5488064e+2, -373628.06, -384074.2, -26109.496, 0.1288697, 0.06836881, -352224.3, 89944.984, 0.0, 10.000309, 10.0002165 
7.650007e+2, 2.6488042e+2, -381461.78, -545718.25, -32230.795, 0.15515324, 0.1238735, -375363.75, -31191.863, 0.0, 10.000508, 9.998332 
7.649945e+2, 2.74878e+2, -232101.05, -428017.97, -19735.375, 0.23028055, 0.019017931, -230132.81, 16068.164, 0.00000016204108, 10.00088, 9.998289 
7.649872e+2, 2.8487718e+2, -73215.484, -234736.4, 12661.451, 0.16101271, 0.085220955, -72228.99, 75981.73, 0.000006290961, 10.001008, 9.998874 
7.649785e+2, 2.9487762e+2, -1274.5377, -141128.94, -26888.219, -0.053514622, 0.20312338, 3716.815, 53920.58, 0.000041719115, 10.000795, 9.998937 
7.6497346e+2, 3.0487403e+2, -77911.03, -374547.8, 7018.251, 0.099111095, 0.04910536, -77745.08, -77745.08, 0.00013461517, 10.000886, 9.996977 
7.6496553e+2, 3.148716e+2, 34690.39, -122540.586, 66315.68, -0.016939614, 0.077185854, 58925.1, 58925.1, 0.00029005748, 10.000733, 9.998779 
7.750925e+2, 1.2489173e+2, -1909015.5, -1765174.4, 19765.178, -0.18873884, 0.16076262, -1762507.9, -46445.383, 0.0000000023621072, 9.998364, 10.000435 
7.7508664e+2, 1.348909e+2, -1699448.5, -1608249.3, 34617.098, 0.06394306, -0.00048612466, -1596598.0, 21470.393, 0.0, 9.999186, 10.000441 
7.750783e+2, 1.4489082e+2, -1646092.4, -1652805.4, 76184.37, -0.032041676, 0.008837102, -1573190.6, -53121.895, 0.0, 9.999372, 9.999368 
7.750725e+2, 1.5488988e+2, -1539018.4, -1550189.4, 66682.31, 0.031892855, -0.057232767, -1477688.0, -55608.98, 0.0, 9.999449, 9.99936 
7.7506584e+2, 1.6489007e+2, -1381277.8, -1345586.3, 15617.8545, 0.041700184, -0.0034085447, -1339717.3, -15638.6455, 0.0, 9.999546, 10.000039 
7.750589e+2, 1.7489101e+2, -1249801.1, -1228707.9, 22842.123, 0.032290883, 0.056002975, -1214095.1, 11976.032, 0.0, 9.999762, 10.000063 
7.7505195e+2, 1.8489121e+2, -1190192.6, -1213964.5, 28866.09, -0.0025432038, 0.10312756, -1170861.1, -42790.8, 0.0, 9.999763, 9.999497 
7.750451e+2, 1.9489037e+2, -1116934.8, -1130219.8, 31564.227, -0.07778557, 0.042438027, -1091321.6, -61242.44, 0.0, 9.999599, 9.999479 
7.7503914e+2, 2.0488974e+2, -1015875.7, -1017788.5, -32096.559, 0.007921859, 0.032440234, -984721.3, -52636.875, 0.0, 9.999588, 9.999572 
7.7503437e+2, 2.1488899e+2, -886522.7, -907283.94, -10001.686, 0.2704919, -0.029311035, -882488.4, -48399.152, 0.0, 9.999804, 9.999557 
7.75028e+2, 2.2488853e+2, -793013.7, -852756.94, 54647.54, 0.29505017, -0.0061595477, -760606.4, -24514.1, 0.0, 9.99996, 9.9991865 
7.7502e+2, 2.3488806e+2, -678859.1, -748076.1, 91718.47, 0.06650655, -0.0009307599, -615436.9, 22659.959, 0.0, 10.000065, 9.999182 
7.7501285e+2, 2.4488716e+2, -591852.44, -694699.9, 28157.027, -0.024171103, 0.013057301, -584648.4, -44542.063, 0.0, 10.000158, 9.998827 
7.750068e+2, 2.5488558e+2, -493796.2, -598746.56, -10591.831, 0.027909083, -0.05910832, -492737.9, -50614.83, 0.0, 10.000164, 9.998811 
7.750004e+2, 2.648849e+2, -345265.1, -450965.28, -30494.799, 0.043885846, -0.013553389, -337098.25, 7032.269, 0.0, 10.000425, 9.999024 
7.749936e+2, 2.7488464e+2, -193227.16, -328363.2, 9750.846, 0.016599072, 0.034495603, -192527.2, 53605.418, 0.00000014054619, 10.000795, 9.999019 
7.749863e+2, 2.8488347e+2, -127347.76, -328240.75, -7282.139, -0.055558726, 0.057371035, -127084.13, 21060.494, 0.0000059856334, 10.000932, 9.998263 
7.749786e+2, 2.9488105e+2, -53576.348, -238478.22, -15118.297, -0.17175718, -0.056325518, -52348.37, -2178.8804, 0.0000396548, 10.000743, 9.998292 
7.7497363e+2, 3.0487907e+2, 61984.227, -70266.37, -5722.5786, -0.00020665482, -0.11671413, 62231.383, 62231.383, 0.00012692052, 10.000836, 9.999092 
7.749662e+2, 3.1488177e+2, 84747.16, 5684.29, 138904.0, -0.09580477, 0.21748005, 189635.44, 189635.44, 0.00027215088, 10.000627, 9.999719 
7.8509134e+2, 1.2489864e+2, -1996343.5, -1781759.5, -72224.63, -0.078555904, 0.13641559, -1759714.9, -43723.05, 0.0000000040597263, 9.997697, 10.000625 
7.8508645e+2, 1.3489741e+2, -1696891.9, -1613766.8, -80299.16, 0.1337404, -0.0545431, -1564911.4, 53090.215, 0.0, 9.999266, 10.000347 
7.8507847e+2, 1.448973e+2, -1572924.6, -1583990.3, -23820.494, 0.036630463, -0.060011186, -1554002.9, -34000.598, 0.0, 9.9997425, 9.999653 
7.8507227e+2, 1.5489686e+2, -1543776.5, -1522883.4, -346.6623, 0.0773293, -0.102065004, -1522877.6, -100870.32, 0.0, 9.9993, 9.999614 
7.850655e+2, 1.6489723e+2, -1416945.4, -1392664.6, 37598.316, 0.06578095, -0.028688727, -1365295.3, -41289.496, 0.0, 9.999426, 9.999768 
7.850587e+2, 1.7489812e+2, -1231597.5, -1248780.0, 9336.272, 0.030896274, 0.052360423, -1227501.1, -1500.6244, 0.0, 10.00002, 9.999792 
7.8505194e+2, 1.8489835e+2, -1126121.9, -1178550.4, 28948.064, 0.0063022966, 0.11290799, -1113282.6, 14717.502, 0.0, 10.000187, 9.999529 
7.850452e+2, 1.9489756e+2, -1090071.1, -1109766.6, 28225.572, -0.022922214, 0.0533674, -1070024.8, -40016.93, 0.0, 9.999768, 9.999526 
7.8503925e+2, 2.0489688e+2, -975439.0, -993609.3, 24230.834, 0.0548511, 0.032152627, -958646.06, -26632.438, 0.0, 9.999837, 9.999623 
7.850341e+2, 2.1489595e+2, -815383.44, -865520.4, 5875.2803, 0.2550593, -0.050388392, -814704.1, 19316.645, 0.0, 10.000261, 9.999625 
7.8502804e+2, 2.2489558e+2, -702038.75, -787047.1, 66814.8, 0.28214154, -0.032323226, -665354.44, 70668.11, 0.0, 10.0004835, 9.999383 
7.850207e+2, 2.3489548e+2, -610141.5, -695283.56, 45244.24, 0.12098115, -0.009289742, -590589.0, 47432.773, 0.0, 10.000447, 9.999363 
7.8501374e+2, 2.4489452e+2, -569229.6, -745002.1, 30100.646, 0.030482804, 0.01698519, -564217.9, -24185.475, 0.0, 10.0005865, 9.99827 
7.8500706e+2, 2.5489232e+2, -421969.66, -628223.75, 24468.951, 0.016178166, -0.05982745, -419106.53, 22951.297, 0.0, 10.000931, 9.998237 
7.850005e+2, 2.648913e+2, -265788.28, -377950.78, 38673.867, 0.0045058643, -0.033046354, -253746.3, 90322.01, 0.0, 10.00083, 9.999325 
7.849938e+2, 2.748911e+2, -252744.47, -320945.3, 19334.18, 0.00052994787, -0.01290811, -247644.77, -1577.7974, 0.0000001311964, 10.000239, 9.999329 
7.84987e+2, 2.8488997e+2, -234272.56, -398149.56, 45906.098, -0.040737186, 0.0020443297, -222289.34, -74211.28, 0.0000058891046, 10.00027, 9.99811 
7.8498e+2, 2.9488763e+2, -56724.363, -264040.53, 40498.57, -0.09860102, -0.07554369, -49093.938, 1008.9418, 0.000037489564, 10.000813, 9.9980955 
7.84975e+2, 3.0488628e+2, 135394.45, 8433.413, 25902.87, 0.046280492, -0.0809709, 140475.84, 140475.84, 0.00011865352, 10.001144, 9.999481 
7.8496754e+2, 3.148886e+2, 129757.46, 41448.9, 6377.177, -0.023533434, 0.16197652, 130215.61, 130215.61, 0.00025448482, 10.000874, 9.999836 
7.950893e+2, 1.2490196e+2, -1973015.9, -1768235.1, -84899.3, -0.13638866, -0.076497704, -1737615.4, -21658.406, 0.0000000034592607, 9.997825, 10.000666 
7.950862e+2, 1.3490224e+2, -1694845.6, -1626961.1, -11952.037, 0.1452953, -0.105628185, -1624918.3, -6963.329, 0.0, 9.999326, 10.000233 
7.950793e+2, 1.4490306e+2, -1505603.4, -1432261.0, -59615.61, 0.09867303, -0.061771788, -1398940.8, 121005.414, 0.0, 9.999697, 10.000712 
7.950723e+2, 1.549035e+2, -1466665.0, -1361130.9, -242.42818, 0.11737874, -0.13121276, -1361130.4, 60809.45, 0.0, 9.999297, 10.00072 
7.950652e+2, 1.6490407e+2, -1440243.6, -1439214.4, 45308.977, 0.06261712, -0.078426674, -1394417.1, -70481.445, 0.0, 9.999409, 9.999464 
7.9505825e+2, 1.7490454e+2, -1252606.6, -1295802.1, 45842.37, -0.048985284, -0.0065124375, -1223529.1, 2407.071, 0.0, 10.000021, 9.999474 
7.9505205e+2, 1.8490483e+2, -1120676.9, -1139018.5, -411.41843, -0.02747038, 0.060981676, -1120667.6, 7267.5815, 0.0, 10.0000725, 9.999851 
7.950467e+2, 1.9490455e+2, -1079221.4, -1063363.0, 25979.309, 0.11559793, 0.014407538, -1044129.75, -14193.329, 0.0, 9.99967, 9.9998865 
7.9504e+2, 2.0490435e+2, -1002363.44, -1015746.94, 25096.791, 0.12965712, 0.026084444, -983081.56, -51143.98, 0.0, 9.999691, 9.99954 
7.950321e+2, 2.149038e+2, -846812.75, -891751.25, 35306.508, 0.0009691467, -0.01044166, -827432.06, 6510.546, 0.0, 10.000091, 9.999527 
7.950261e+2, 2.2490303e+2, -746315.0, -833115.44, 54900.652, 0.027171737, -0.017671062, -719731.94, 16217.333, 0.0, 10.000286, 9.999162 
7.9502225e+2, 2.3490173e+2, -648000.7, -739417.44, 60183.816, 0.20480546, -0.09105583, -618135.6, 19824.68, 0.0, 10.000295, 9.999134 
7.950161e+2, 2.449011e+2, -572114.25, -719007.1, 29382.668, 0.1824012, -0.030397171, -566454.94, -26487.506, 0.0, 10.000452, 9.998512 
7.950077e+2, 2.549008e+2, -425419.38, -603998.6, 52344.223, -0.046791673, 0.058335483, -411207.53, 30766.828, 0.0, 10.000796, 9.998468 
7.9500055e+2, 2.6489967e+2, -278933.63, -390379.97, 4818.1553, -0.09498651, 0.06213411, -278725.72, 65259.88, 0.0, 10.000759, 9.999274 
7.949949e+2, 2.7489737e+2, -269476.6, -339705.7, 16440.62, 0.045513883, -0.12224553, -265818.4, -19814.502, 0.000000103459534, 10.000166, 9.999236 
7.949888e+2, 2.8489667e+2, -220736.7, -358865.16, 54319.137, 0.0844622, -0.06907686, -201934.92, -53925.14, 0.0000054454867, 10.000223, 9.998404 
7.949822e+2, 2.9489744e+2, -50984.07, -230537.23, 84139.33, 0.0006683372, 0.1321848, -17718.95, 32285.07, 0.00003447301, 10.000719, 9.998373 
7.949769e+2, 3.048958e+2, 30516.258, -197335.0, 13706.336, 0.09078, 0.14901568, 31337.797, 31337.797, 0.0001104858, 10.001086, 9.9980955 
7.949688e+2, 3.1489047e+2, 43542.62, -118683.195, 59585.113, -0.058535922, -0.22978897, 63076.07, 63076.07, 0.000240168, 10.000782, 9.998782 
8.050887e+2, 1.24907345e+2, -1833123.1, -1640953.6, 5550.176, 0.0014343896, -0.15778902, -1640793.5, 75110.5, 0.0000000057252847, 9.998556, 10.001195 
8.050848e+2, 1.349086e+2, -1848775.3, -1660496.0, 79496.484, 0.1491676, -0.122154556, -1631420.5, -13529.373, 0.0, 9.998094, 10.000615 
8.050784e+2, 1.4490983e+2, -1693014.1, -1505571.9, 51328.87, 0.119874865, -0.06007206, -1492436.5, 27441.799, 0.0, 9.998346, 10.00086 
8.0507195e+2, 1.5491095e+2, -1404543.5, -1321353.1, 919.08124, 0.14318696, -0.07229382, -1321343.0, 100523.8, 0.0, 9.999676, 10.000818 
8.050653e+2, 1.649114e+2, -1344435.4, -1395374.1, 34384.125, 0.096320555, -0.03487566, -1327115.1, -3250.9268, 0.0, 10.000093, 9.999436 
8.050584e+2, 1.7491098e+2, -1317586.8, -1335083.5, 24682.107, -0.004203945, -0.044674195, -1300148.5, -74275.914, 0.0, 9.9996195, 9.999405 
8.050524e+2, 1.8491101e+2, -1163206.4, -1123247.0, 10065.029, 0.031492, -0.014627856, -1120855.0, 7017.8286, 0.0, 9.999634, 10.000172 
8.050472e+2, 1.9491118e+2, -1005729.3, -999428.06, 2581.3606, 0.19513485, -0.043332476, -998505.6, 31362.582, 0.0, 10.000051, 10.000154 
8.0504054e+2, 2.0491129e+2, -911218.2, -1001369.2, 29343.395, 0.18028332, 0.0021109139, -902508.6, 29358.271, 0.0, 10.000443, 9.999282 
8.0503225e+2, 2.14911e+2, -775755.0, -886589.4, -4417.471, -0.019178957, 0.017110026, -775579.25, 58293.15, 0.0, 10.00071, 9.999265 
8.0502623e+2, 2.249102e+2, -693043.25, -811509.56, 18817.445, -0.0015613372, 0.023510583, -690126.06, 45754.477, 0.0, 10.000678, 9.999111 
8.050228e+2, 2.3490864e+2, -658592.1, -747494.3, 10129.409, 0.23337641, -0.07269724, -657452.6, -19558.488, 0.0, 10.000254, 9.999087 
8.0501693e+2, 2.44908e+2, -564485.4, -683412.9, 41835.246, 0.23213111, -0.025582846, -551243.4, -11343.074, 0.0, 10.000342, 9.998822 
8.050089e+2, 2.5490797e+2, -390519.7, -551378.44, 42687.59, -0.0010823231, 0.05761575, -379893.5, 62009.086, 0.0, 10.000869, 9.998806 
8.050018e+2, 2.6490688e+2, -288870.25, -460291.38, -26165.79, -0.050955735, 0.08076555, -284965.25, 58948.25, 0.0, 10.000954, 9.9987135 
8.0499566e+2, 2.7490443e+2, -244206.9, -389507.66, -78398.125, 0.09899647, -0.06867125, -209972.56, 35964.22, 0.00000004701224, 10.000582, 9.998708 
8.049899e+2, 2.8490338e+2, -148507.19, -310585.16, 5541.3804, 0.15840243, -0.028262647, -148317.95, -371.98264, 0.000004093495, 10.000659, 9.998526 
8.049843e+2, 2.9490364e+2, 39635.39, -170846.22, -10132.853, 0.11733313, 0.10331885, 40122.074, 90064.83, 0.000029631305, 10.001276, 9.998513 
8.0497855e+2, 3.0490184e+2, 24135.166, -270931.4, -65977.73, 0.15216593, 0.13040201, 38216.02, 38216.02, 0.00010221737, 10.001346, 9.997475 
8.0497026e+2, 3.1489643e+2, -13152.514, -160842.66, 1560.3163, 0.041042864, -0.19658493, -13136.03, -13136.03, 0.00023173698, 10.000473, 9.998642 
8.1508857e+2, 1.24915116e+2, -1761553.5, -1515585.1, -60523.81, 0.055554252, -0.0807126, -1501499.1, 214330.58, 0.000000004999778, 9.998645, 10.002016 
8.150818e+2, 1.3491659e+2, -1783373.9, -1538132.9, 70668.57, 0.0020720144, -0.10666525, -1519226.5, 98582.805, 0.0, 9.998157, 10.00142 
8.1507546e+2, 1.4491776e+2, -1747493.0, -1631089.3, 81408.64, -0.04961031, -0.04892986, -1589217.0, -69419.516, 0.0, 9.998391, 9.999983 
8.150708e+2, 1.5491928e+2, -1463635.9, -1443784.9, 64278.324, 0.02160458, 0.070072785, -1388670.3, 33117.402, 0.0, 9.999674, 9.999979 
8.150651e+2, 1.6491932e+2, -1343336.0, -1380824.0, 628.8369, 0.039730724, 0.10038133, -1343325.5, -19535.172, 0.0, 10.000042, 9.9995575 
8.150587e+2, 1.7491744e+2, -1310117.9, -1311432.9, 21250.354, 0.03242817, -0.07143372, -1289514.9, -63705.77, 0.0, 9.99959, 9.999575 
8.1505257e+2, 1.8491694e+2, -1158918.9, -1100408.8, 13159.512, 0.054819964, -0.113645434, -1097585.4, 30226.816, 0.0, 9.999564, 10.000366 
8.150464e+2, 1.9491751e+2, -1004848.4, -979037.94, 33258.566, 0.082057886, -0.1217709, -956268.56, 73533.64, 0.0, 9.999963, 10.000338 
8.150403e+2, 2.0491782e+2, -974869.25, -1094218.6, 24672.307, 0.089825474, -0.037544776, -969970.06, -38169.83, 0.0, 10.000274, 9.998729 
8.150341e+2, 2.1491756e+2, -838541.5, -975531.3, 20424.982, 0.07474111, 0.033773325, -835561.06, -1751.5635, 0.0, 10.00053, 9.99874 
8.150279e+2, 2.2491711e+2, -713744.56, -806410.94, -11868.8125, 0.07106306, 0.09484514, -712248.56, 23567.621, 0.0, 10.000475, 9.999244 
8.1502163e+2, 2.349161e+2, -675985.4, -739515.6, 7894.478, 0.070179515, 0.038636953, -675019.06, -37195.063, 0.0, 10.000064, 9.999231 
8.150158e+2, 2.4491511e+2, -563531.8, -639877.1, 46498.11, 0.058566388, 0.023176784, -541544.44, -1712.6471, 0.0, 10.000168, 9.999207 
8.1501037e+2, 2.5491387e+2, -384975.16, -507070.5, 76016.05, 0.033318203, -0.05172271, -348527.9, 93314.23, 0.0, 10.0007305, 9.999177 
8.1500375e+2, 2.6491305e+2, -369587.1, -605991.2, -53471.03, 0.022713548, 0.025680697, -358055.28, -14203.211, 0.0, 10.000865, 9.997754 
8.1499577e+2, 2.7491227e+2, -338817.28, -545460.06, -74370.945, 0.02170786, 0.14727849, -314834.5, -68969.07, 0.000000004527389, 10.000418, 9.997714 
8.1498975e+2, 2.8491005e+2, -161175.88, -324779.75, 15563.988, 0.04562956, 0.12286937, -159708.39, -11821.279, 0.0000024308686, 10.000599, 9.998459 
8.149857e+2, 2.9490623e+2, 13715.985, -200369.11, 34440.727, 0.09317342, -0.14581919, 19120.184, 69039.125, 0.00002455122, 10.001174, 9.99836 
8.149797e+2, 3.0490437e+2, 37530.78, -245850.8, -106634.49, 0.0966653, -0.12374038, 73173.56, 73173.56, 0.00009685274, 10.001357, 9.997639 
8.1497055e+2, 3.149054e+2, 23866.11, -46649.637, 22984.113, -0.04543172, 0.17269666, 30696.086, 30696.086, 0.00023260372, 10.000324, 9.999497 
8.2508856e+2, 1.2492278e+2, -1745566.4, -1553499.4, -10229.723, 0.19330768, -0.028916335, -1552956.0, 162798.84, 0.0000000017683296, 9.998939, 10.00161 
8.250805e+2, 1.3492377e+2, -1565366.0, -1480350.3, -17673.818, -0.014773566, -0.069676995, -1476822.5, 140916.89, 0.0, 9.999838, 10.00101 
8.250747e+2, 1.4492404e+2, -1536491.8, -1568908.0, 20575.791, -0.04202956, -0.062461782, -1526507.0, -6770.336, 0.0, 10.000023, 9.999614 
8.2507074e+2, 1.5492511e+2, -1477761.5, -1493347.3, 5806.4883, 0.0543609, 0.047882043, -1475836.1, -54103.78, 0.0, 9.999775, 9.999578 
8.2506543e+2, 1.6492522e+2, -1344500.6, -1350329.6, -25503.305, 0.086947754, 0.0928673, -1321745.9, 1988.1627, 0.0, 9.999881, 9.999846 
8.2505906e+2, 1.749241e+2, -1193801.1, -1229501.4, -25455.764, 0.085782655, -0.034333248, -1180560.6, 45183.61, 0.0, 10.000248, 9.999831 
8.2505274e+2, 1.8492378e+2, -1050935.1, -1074916.4, -7984.5977, 0.07835586, -0.059540268, -1048519.94, 79225.49, 0.0, 10.000417, 10.000129 
8.250461e+2, 1.9492394e+2, -966403.44, -988382.9, -50765.84, 0.040784806, -0.08520724, -925451.4, 104289.25, 0.0, 10.000346, 10.000083 
8.2504016e+2, 2.0492385e+2, -963688.75, -1093337.0, -28751.975, 0.05212053, -0.024392469, -957598.5, -25855.861, 0.0, 10.000377, 9.998671 
8.25035e+2, 2.1492334e+2, -855026.06, -992207.8, -27683.441, 0.12112611, 0.026803447, -849650.2, -15896.193, 0.0, 10.000456, 9.998658 
8.250289e+2, 2.2492288e+2, -691903.25, -800017.9, -27736.826, 0.12248695, 0.09193514, -685202.7, 50558.14, 0.0, 10.000624, 9.999235 
8.2502186e+2, 2.3492213e+2, -564590.3, -690816.6, -49081.99, 0.055426955, 0.06507604, -547751.5, 90015.19, 0.0, 10.0008335, 9.999212 
8.250161e+2, 2.4492112e+2, -467400.16, -570207.5, 11985.177, 0.048577245, 0.040272754, -466021.44, 73752.7, 0.0, 10.000735, 9.999404 
8.250115e+2, 2.549196e+2, -424618.66, -501157.84, -2153.0466, 0.09811107, -0.08214592, -424558.13, 17227.576, 0.0, 10.000366, 9.999387 
8.2500505e+2, 2.6491892e+2, -385799.56, -596279.25, -63176.754, 0.08876667, -0.01245685, -368292.8, -24498.908, 0.0, 10.000686, 9.9979 
8.2499677e+2, 2.749186e+2, -148803.58, -434535.28, -29892.78, 0.028433131, 0.13791756, -145709.75, 100093.125, 0.0, 10.001649, 9.99787 
8.2499075e+2, 2.8491652e+2, 3607.4993, -262656.44, 120923.94, 0.030746628, 0.12794873, 50327.47, 198150.95, 0.000001518397, 10.001815, 9.9983 
8.2498693e+2, 2.949123e+2, -4729.6694, -225339.5, 100412.84, 0.1123412, -0.16107494, 34129.465, 83988.74, 0.000022026383, 10.001106, 9.998222 
8.2498074e+2, 3.0491012e+2, 12460.186, -258866.1, -9179.558, 0.08150628, -0.1608176, 12770.395, 12770.395, 0.00009707927, 10.0012045, 9.997613 
8.2497233e+2, 3.149119e+2, 260462.66, 58705.4, 42498.516, 0.028052839, 0.20597665, 269049.2, 269049.2, 0.00024343748, 10.001971, 9.999424 
8.350876e+2, 1.2493076e+2, -1861064.5, -1786472.3, -10408.469, 0.13546449, 0.03757597, -1785047.0, -69371.55, 0.000000000051048894, 9.998914, 10.000025 
8.350805e+2, 1.3493031e+2, -1655039.9, -1670463.6, 28460.244, -0.02951462, -0.0061297896, -1633265.1, -15586.18, 0.0, 9.999862, 9.99969 
8.350755e+2, 1.4492886e+2, -1542223.8, -1578192.5, -6733.442, -0.0016294409, -0.10170589, -1541004.5, -21310.62, 0.0, 10.000011, 9.999556 
8.3507127e+2, 1.5492848e+2, -1479013.6, -1492976.4, 10181.7705, 0.09475728, -0.1377999, -1473649.6, -51949.344, 0.0, 9.999764, 9.999582 
8.350658e+2, 1.6492921e+2, -1323614.1, -1287756.0, -26779.629, 0.10570556, -0.054462127, -1273457.8, 50236.844, 0.0, 9.999801, 10.000318 
8.350592e+2, 1.7493108e+2, -1166164.1, -1159606.9, 5046.51, 0.037009586, 0.07144751, -1156867.5, 68809.164, 0.0, 10.000204, 10.000328 
8.3505255e+2, 1.849316e+2, -1111509.5, -1188202.9, -26561.604, -0.012048707, 0.14591622, -1103208.6, 24463.027, 0.0, 10.000358, 9.999386 
8.350458e+2, 1.9493037e+2, -1031561.94, -1096205.0, -39964.508, -0.055791095, 0.051328797, -1012484.6, 17199.61, 0.0, 10.000232, 9.999397 
8.3503973e+2, 2.0492938e+2, -961887.94, -1050490.3, -40103.84, -0.054646403, 0.035130307, -946432.0, -14737.491, 0.0, 10.000204, 9.999049 
8.350344e+2, 2.1492834e+2, -853355.4, -946582.3, -9678.143, -0.013270993, -0.005795364, -852361.3, -18655.617, 0.0, 10.000276, 9.999054 
8.350288e+2, 2.2492756e+2, -730193.6, -839568.3, -35125.938, 0.030367333, 0.016059086, -719884.56, 15829.154, 0.0, 10.000443, 9.999053 
8.35023e+2, 2.3492675e+2, -600390.3, -731082.2, -24661.973, 0.06269441, 0.00080369756, -595891.4, 41830.156, 0.0, 10.000675, 9.999016 
8.350173e+2, 2.449261e+2, -486780.38, -579416.7, -15048.729, 0.074725814, 0.021772087, -484397.03, 55329.504, 0.0, 10.000596, 9.99941 
8.350118e+2, 2.5492528e+2, -442067.66, -512859.22, 790.4501, 0.061773416, -0.03470786, -442058.84, -326.40695, 0.0, 10.000252, 9.999364 
8.350054e+2, 2.649245e+2, -312772.94, -422199.47, -39252.496, 0.028696002, -0.03116105, -300149.0, 43589.63, 0.0, 10.000588, 9.999144 
8.3499825e+2, 2.7492347e+2, -78027.7, -261285.25, 24641.748, -0.026351584, -0.08061696, -74772.08, 170976.19, 0.0, 10.001535, 9.999117 
8.349923e+2, 2.849228e+2, -16871.42, -290756.72, 80505.62, -0.021235835, -0.0010481365, 5039.4595, 152793.89, 0.0000012583888, 10.001756, 9.998136 
8.349876e+2, 2.949221e+2, -38997.855, -263450.5, 92330.17, 0.02871013, 0.078276165, -5898.3115, 43863.52, 0.000022671806, 10.000966, 9.998032 
8.349811e+2, 3.049192e+2, -10349.612, -291919.2, 16063.084, -0.030252099, 0.027917137, -9436.202, -9436.202, 0.0001036696, 10.001147, 9.997412 
8.349744e+2, 3.1491813e+2, 170727.48, -95596.06, 105965.71, -0.030931655, 0.13206837, 207744.4, 207744.4, 0.00026239955, 10.001847, 9.99842 
8.450871e+2, 1.2493661e+2, -1678347.3, -1778429.4, -45678.02, 0.1336743, 0.02699876, -1660634.4, 54983.97, 0.0, 10.000511, 9.999306 
8.450809e+2, 1.3493608e+2, -1660076.4, -1738779.3, -20327.217, 0.022955323, 0.03206057, -1655136.4, -37510.313, 0.0, 10.0001135, 9.999101 
8.450763e+2, 1.4493464e+2, -1551096.1, -1561383.3, 9600.978, 0.09729098, -0.044252302, -1545347.8, -25706.268, 0.0, 9.999853, 9.999749 
8.450715e+2, 1.5493411e+2, -1410106.0, -1444276.1, 9110.678, 0.12724492, -0.11267549, -1407828.6, 13817.991, 0.0, 10.000157, 9.999738 
8.4506565e+2, 1.6493472e+2, -1261081.6, -1260483.4, -4759.44, 0.09758958, -0.04845011, -1256013.6, 67627.164, 0.0, 10.000252, 10.000285 
8.45059e+2, 1.749364e+2, -1205933.8, -1184336.5, -41905.066, 0.01396487, 0.0649634, -1151861.1, 73763.6, 0.0, 9.999966, 10.000271 
8.450528e+2, 1.8493691e+2, -1138482.1, -1222430.3, -36951.953, -0.012093336, 0.14745206, -1124534.3, 3086.783, 0.0, 10.000272, 9.999184 
8.4504706e+2, 1.9493575e+2, -914482.0, -1069820.1, -41217.24, 0.00984471, 0.086240366, -904223.0, 125411.375, 0.0, 10.001157, 9.999139 
8.450412e+2, 2.049349e+2, -765046.2, -910611.2, -19762.844, 0.020487498, 0.07408197, -762410.75, 169232.39, 0.0, 10.001359, 9.999458 
8.4503514e+2, 2.1493395e+2, -760795.2, -863225.06, -20409.918, 0.021688499, 0.005954844, -756878.1, 76772.52, 0.0, 10.000735, 9.999414 
8.450295e+2, 2.2493318e+2, -712390.4, -810924.8, 13126.308, 0.05534334, 0.0041055297, -710671.75, 24985.379, 0.0, 10.000497, 9.999208 
8.450241e+2, 2.3493244e+2, -597926.1, -708645.4, 13588.6, 0.11718765, -0.019658534, -596282.75, 41381.277, 0.0, 10.000628, 9.999177 
8.450184e+2, 2.4493194e+2, -507633.03, -618263.75, 36688.715, 0.12926523, 0.018451422, -496571.8, 43097.01, 0.0, 10.00058, 9.99915 
8.450123e+2, 2.5493124e+2, -451931.28, -542867.9, 1627.638, 0.093956664, 0.0034376173, -451902.16, -10226.773, 0.0, 10.000306, 9.999124 
8.4500587e+2, 2.6493025e+2, -350433.56, -419921.25, -24872.51, 0.035787724, -0.012605806, -342448.3, 1235.0555, 0.0, 10.000232, 9.9993305 
8.44999e+2, 2.749287e+2, -230602.02, -314177.03, -69688.86, -0.03506603, -0.13353163, -191132.33, 54563.195, 0.0000000050987805, 10.000383, 9.999315 
8.4499353e+2, 2.849283e+2, -170366.63, -367850.5, -42769.305, -0.016520023, -0.03807307, -161501.95, -13802.697, 0.0000017149706, 10.000702, 9.998111 
8.449891e+2, 2.949286e+2, -18534.965, -245701.5, -53563.26, 0.09189437, 0.14360903, -6538.8486, 43160.395, 0.0000255943, 10.001076, 9.998092 
8.449826e+2, 3.049261e+2, 61495.12, -220000.94, -40581.242, 0.009821369, 0.103865854, 67228.64, 67228.64, 0.000114914044, 10.001467, 9.997763 
8.4497654e+2, 3.1492332e+2, 124247.305, -110393.516, 19668.105, 0.024793502, 0.010037266, 125884.51, 125884.51, 0.00028702893, 10.001456, 9.998522 
8.550863e+2, 1.249403e+2, -1695401.8, -1798117.8, -83121.05, -0.06826623, -0.09032215, -1649052.3, 66531.336, 0.0, 10.000461, 9.99919 
8.5508114e+2, 1.3494122e+2, -1657947.6, -1718957.1, -27542.523, -0.00083631225, 0.04959541, -1647353.4, -29774.086, 0.0, 10.000079, 9.999237 
8.5507673e+2, 1.449415e+2, -1520023.6, -1500449.0, 2696.4976, 0.11168548, 0.11506418, -1500084.4, 19493.861, 0.0, 9.999852, 10.000178 
8.5507095e+2, 1.5494207e+2, -1376614.1, -1376118.4, 39689.832, 0.017272387, 0.11433031, -1336675.6, 84895.086, 0.0, 10.000165, 10.0002 
8.550647e+2, 1.6494174e+2, -1313371.9, -1361069.5, -32023.596, -0.05558316, 0.098149516, -1297292.3, 26280.191, 0.0, 10.000214, 9.999615 
8.5505795e+2, 1.7494012e+2, -1254644.0, -1276492.4, -40398.38, -0.10681927, -0.057024527, -1223718.9, 1868.767, 0.0, 9.999931, 9.999651 
8.550529e+2, 1.8493974e+2, -1130561.3, -1190208.9, -17420.744, -0.053483598, -0.046301506, -1125846.1, 1746.1862, 0.0, 10.000189, 9.999453 
8.550494e+2, 1.949403e+2, -903292.4, -1031614.56, 6242.6304, 0.095863834, 0.033689994, -902989.44, 126600.055, 0.0, 10.001081, 9.999438 
8.550441e+2, 2.0494056e+2, -763619.2, -873602.7, -58052.613, 0.15331367, 0.10505709, -738647.25, 192939.89, 0.0, 10.001209, 9.999791 
8.550369e+2, 2.1494012e+2, -761534.8, -819052.9, -28707.848, 0.105434775, 0.05134148, -749658.6, 83930.68, 0.0, 10.00054, 9.999811 
8.550305e+2, 2.2493972e+2, -712706.0, -765092.8, 3711.5417, 0.08458186, 0.04490764, -712444.3, 23146.822, 0.0, 10.000294, 9.999625 
8.5502464e+2, 2.3493914e+2, -591075.1, -657232.3, 35323.72, 0.087784365, -0.003983044, -575759.94, 61834.895, 0.0, 10.000465, 9.99961 
8.5501873e+2, 2.4493857e+2, -568799.8, -710067.7, 12303.777, 0.08491617, 0.032590903, -567736.25, -28135.172, 0.0, 10.000432, 9.998592 
8.550127e+2, 2.5493747e+2, -513851.2, -635972.3, 5933.582, 0.07693992, 0.031530857, -513563.56, -71948.93, 0.0, 10.000152, 9.99856 
8.550061e+2, 2.6493603e+2, -424282.13, -548519.25, -33759.96, 0.011004701, 0.042325903, -415700.97, -72072.05, 0.0, 10.000123, 9.998503 
8.5499877e+2, 2.7493408e+2, -305136.6, -444585.1, -45620.31, -0.12899785, -0.033382863, -291538.1, -45892.082, 0.0000001292932, 10.000281, 9.99847 
8.549938e+2, 2.849329e+2, -169837.0, -348499.53, -39265.805, -0.0862315, 0.018127207, -161588.16, -13930.223, 0.0000031613251, 10.000624, 9.998281 
8.549911e+2, 2.949319e+2, -18165.385, -229272.77, -20365.393, 0.13476464, 0.044888265, -16218.7, 33452.863, 0.000030116835, 10.0009985, 9.998246 
8.549849e+2, 3.049305e+2, 117544.06, -76421.27, -48381.434, 0.061381396, 0.06390622, 128942.21, 128942.21, 0.00012742863, 10.001372, 9.998786 
8.5497814e+2, 3.1492817e+2, 159592.0, 491.94986, 31081.992, -0.03374755, -0.08316426, 165448.64, 165448.64, 0.00031382052, 10.001312, 9.999351 
8.650864e+2, 1.2494578e+2, -1787963.9, -1799463.6, -17263.107, -0.048860256, -0.052014384, -1775518.3, -59986.62, 0.00000000000000000000885557, 9.999626, 9.999587 
8.650815e+2, 1.3494653e+2, -1595342.6, -1649080.9, 898.5476, 0.031322353, 0.025353847, -1595327.6, 22198.43, 0.0, 10.000303, 9.999625 
8.65077e+2, 1.449469e+2, -1475746.5, -1492560.3, 50930.063, 0.14936844, 0.08927378, -1432534.1, 86988.48, 0.0, 10.000221, 10.0000515 
8.6507064e+2, 1.5494755e+2, -1459955.8, -1443613.1, 8112.6655, 0.0031712262, 0.11524786, -1440269.9, -18754.252, 0.0, 9.99969, 9.999982 
8.6506444e+2, 1.64947e+2, -1396619.9, -1419465.0, -24859.303, -0.0666385, 0.09653154, -1380684.4, -57164.22, 0.0, 9.999732, 9.999434 
8.650586e+2, 1.7494492e+2, -1197548.5, -1277937.5, -33021.164, -0.060517542, -0.08412882, -1185723.9, 39816.133, 0.0, 10.000437, 9.999399 
8.650538e+2, 1.8494439e+2, -1076423.8, -1133508.5, 26899.168, 0.009485201, -0.08766553, -1065745.9, 61799.633, 0.0, 10.000455, 9.999701 
8.6505014e+2, 1.9494523e+2, -1083133.0, -1091204.9, 19934.275, 0.13072301, -0.0006401345, -1066830.3, -37291.65, 0.0, 9.999756, 9.999656 
8.650448e+2, 2.0494564e+2, -969656.56, -959159.4, -33479.563, 0.18261524, 0.06725371, -930519.5, 1015.0796, 0.0, 9.999747, 9.999897 
8.650378e+2, 2.149452e+2, -788370.44, -825847.06, -56950.305, 0.151026, 0.0025772352, -747154.9, 86382.37, 0.0, 10.000334, 9.999861 
8.6503124e+2, 2.2494498e+2, -663113.56, -730949.75, -16096.806, 0.12367439, 0.008350393, -659487.75, 76049.805, 0.0, 10.000599, 9.99971 
8.650253e+2, 2.3494478e+2, -576251.2, -640709.25, -40105.598, 0.10225935, -0.0109421015, -557029.56, 80507.92, 0.0, 10.000532, 9.999688 
8.650193e+2, 2.4494423e+2, -562232.5, -731288.25, -39839.5, 0.09881094, 0.036183055, -553314.4, -13770.38, 0.0, 10.0005865, 9.998367 
8.650135e+2, 2.5494292e+2, -433381.16, -622549.1, -51288.402, 0.11393516, 0.037259504, -420370.38, 21190.848, 0.0, 10.000819, 9.99833 
8.6500704e+2, 2.6494136e+2, -306687.8, -519430.88, -16510.844, 0.051118795, 0.05904743, -305414.06, 38163.582, 0.0000000005766255, 10.001058, 9.998248 
8.6499995e+2, 2.749393e+2, -172447.38, -410256.34, -21492.875, -0.087738164, -0.0012210135, -170520.5, 75075.5, 0.000000514823, 10.001327, 9.9981985 
8.649947e+2, 2.849377e+2, -110206.89, -308327.03, 15263.01, -0.07089778, 0.017114535, -109037.94, 38573.695, 0.0000054394536, 10.00099, 9.998386 
8.6499137e+2, 2.9493612e+2, -157541.27, -279047.66, -288.57996, 0.12094343, -0.017673433, -157540.58, -107911.336, 0.000035908153, 9.999983, 9.998394 
8.649858e+2, 3.049352e+2, 21945.857, -103875.18, 22902.768, 0.07679738, 0.026561283, 25985.098, 25985.098, 0.00014009468, 10.000612, 9.998964 
8.6498064e+2, 3.14934e+2, 341598.5, 146197.61, -30354.738, 0.048027147, -0.028340472, 346205.38, 346205.38, 0.00033844914, 10.002328, 9.999848 
8.750863e+2, 1.2495335e+2, -1723386.4, -1667551.9, -21151.951, -0.092051275, 0.17775184, -1660443.8, 55015.945, 0.0000000055054987, 9.999629, 10.000488 
8.7508166e+2, 1.3495205e+2, -1536933.3, -1515262.9, 37017.73, -0.011764081, -0.043778602, -1487527.1, 129938.17, 0.0, 10.000262, 10.000551 
8.750769e+2, 1.4495106e+2, -1542215.3, -1626623.8, 12074.495, 0.07657006, -0.11687829, -1540522.0, -21048.871, 0.0, 10.000201, 9.999143 
8.7507015e+2, 1.5495083e+2, -1523872.4, -1565228.3, 2991.0664, -0.046936553, -0.09569192, -1523657.1, -102178.24, 0.0, 9.99966, 9.999153 
8.7506443e+2, 1.6495082e+2, -1383885.4, -1390678.9, -13517.194, -0.071437664, -0.030755248, -1373344.6, -49863.86, 0.0, 9.999706, 9.999652 
8.750602e+2, 1.7495097e+2, -1184902.6, -1247560.0, 7586.801, 0.023891162, -0.008673513, -1183997.1, 41482.773, 0.0, 10.000416, 9.999618 
8.75055e+2, 1.8495107e+2, -1076207.8, -1116914.1, -13522.492, 0.052016456, 0.03287792, -1072125.1, 55353.465, 0.0, 10.000387, 9.999848 
8.750488e+2, 1.949506e+2, -1086388.4, -1069302.1, 9377.227, -0.0009961337, -0.029872987, -1065159.9, -35678.105, 0.0, 9.999639, 9.99986 
8.750429e+2, 2.049501e+2, -1007117.7, -1001880.75, -25278.824, -0.0048160153, -0.052434318, -979085.1, -47599.313, 0.0, 9.999589, 9.999683 
8.750372e+2, 2.1494932e+2, -827306.4, -867154.0, -22532.412, 0.03372812, -0.1272478, -817152.5, 16340.538, 0.0, 10.000161, 9.99966 
8.7503135e+2, 2.2494918e+2, -711487.8, -788852.75, -34025.813, 0.054886524, -0.08781183, -698652.44, 36841.6, 0.0, 10.000414, 9.999404 
8.7502545e+2, 2.3494935e+2, -627620.9, -697233.75, -27138.564, 0.047492955, -0.041498713, -618291.3, 19200.668, 0.0, 10.0003195, 9.999402 
8.750198e+2, 2.4494891e+2, -576184.7, -729314.9, -46214.766, 0.056489903, 0.026791617, -563318.1, -23820.146, 0.0, 10.000442, 9.998456 
8.750141e+2, 2.549476e+2, -447801.88, -619247.6, -26350.127, 0.072098166, 0.020052588, -443843.44, -2328.5017, 0.0, 10.000676, 9.998422 
8.7500817e+2, 2.649462e+2, -299126.2, -492750.53, -20598.758, 0.034416817, 0.041519012, -296959.03, 46570.39, 0.0000000691861, 10.001, 9.998463 
8.7500197e+2, 2.7494428e+2, -171898.03, -383307.97, 5121.029, -0.05323612, -0.032447256, -171774.05, 73771.734, 0.000001269736, 10.001214, 9.998437 
8.7499577e+2, 2.8494275e+2, -111296.055, -299684.38, -37304.93, -0.08945642, -0.024145095, -104177.836, 43381.285, 0.000008255043, 10.000934, 9.998481 
8.749897e+2, 2.9494116e+2, -155998.16, -269757.38, -17449.895, -0.086605355, -0.0661266, -153381.64, -103807.29, 0.000042714033, 9.999944, 9.998486 
8.749853e+2, 3.0494004e+2, -34382.273, -201513.56, 83253.38, -0.067633845, -0.014943523, 11.1542845, 11.1542845, 0.00015288098, 10.000537, 9.998324 
8.7498355e+2, 3.1493846e+2, 320234.75, 115377.305, 68852.67, 0.022290941, -0.04135695, 341225.34, 341225.34, 0.00035815634, 10.002258, 9.999676 
8.850865e+2, 1.2495751e+2, -1673950.0, -1614057.4, 351.0846, -0.029447738, 0.10546663, -1614055.4, 101361.2, 0.00000006865043, 9.999837, 10.000764 
8.850819e+2, 1.3495669e+2, -1596003.1, -1526480.4, -59734.68, 0.026424924, -0.08485115, -1492128.9, 125288.35, 0.0, 9.999767, 10.000725 
8.8507706e+2, 1.4495587e+2, -1590847.4, -1645400.6, -48066.723, 0.10057032, -0.14938056, -1562857.1, -43433.766, 0.0, 9.999873, 9.999159 
8.850703e+2, 1.5495536e+2, -1392492.4, -1502508.6, -29182.813, -0.028795842, -0.15431617, -1385230.6, 36201.72, 0.0, 10.000573, 9.999133 
8.85065e+2, 1.6495553e+2, -1244431.6, -1316849.8, 11150.895, -0.0275677, -0.0755676, -1242753.5, 80679.84, 0.0, 10.000641, 9.999708 
8.850612e+2, 1.7495637e+2, -1231636.9, -1264485.0, -9274.713, 0.109434545, 0.012513947, -1229199.0, -3772.883, 0.0, 10.000074, 9.99967 
8.850557e+2, 1.8495657e+2, -1147975.5, -1142694.5, -26364.105, 0.12505563, 0.05792884, -1118839.0, 8584.774, 0.0, 9.999852, 9.999929 
8.8504857e+2, 1.9495556e+2, -1033429.7, -1038472.0, -40892.258, 0.002844214, -0.064305484, -994980.94, 34450.246, 0.0, 9.999971, 9.999916 
8.8504255e+2, 2.0495489e+2, -930502.75, -994900.75, -22880.19, -0.027735056, -0.092916355, -923201.44, 8235.435, 0.0, 10.000248, 9.999415 
8.8503754e+2, 2.1495436e+2, -767926.3, -871458.9, -49320.223, 0.036577858, -0.11458825, -748192.75, 85250.03, 0.0, 10.000708, 9.999374 
8.850321e+2, 2.2495404e+2, -660561.44, -786455.8, -56531.02, 0.07228914, -0.0695662, -638903.06, 96543.47, 0.0, 10.000856, 9.9992 
8.8502604e+2, 2.3495358e+2, -590676.1, -707442.8, -77451.24, 0.06948384, -0.06524088, -552068.2, 85383.21, 0.0, 10.000681, 9.999158 
8.8502026e+2, 2.4495313e+2, -543983.75, -678307.7, -45543.31, 0.068187185, -0.0022472336, -529998.2, 9459.093, 0.0, 10.000515, 9.998763 
8.850145e+2, 2.5495228e+2, -453254.72, -590071.4, -40641.59, 0.056748696, 0.004103301, -442092.7, -624.6284, 0.00000000006372724, 10.000478, 9.998719 
8.850088e+2, 2.6495108e+2, -379845.75, -517094.16, -315.3327, 0.03134983, 0.026218988, -379845.03, -36365.316, 0.00000025387644, 10.000391, 9.998584 
8.8500315e+2, 2.7494922e+2, -287855.38, -425912.47, -16731.121, 0.002074385, -0.050330155, -285856.7, -40361.082, 0.0000021793016, 10.000358, 9.998556 
8.849972e+2, 2.849477e+2, -139003.77, -339665.7, -43879.22, -0.033632338, -0.03708218, -129828.16, 17680.395, 0.000011106664, 10.000875, 9.998216 
8.8499063e+2, 2.949461e+2, 126416.65, -163646.36, -84697.26, -0.07703087, -0.05038771, 149336.81, 198859.3, 0.000049522223, 10.002019, 9.998207 
8.849867e+2, 3.0494407e+2, 133155.95, -174072.69, 38233.07, -0.042813156, -0.053640515, 137842.38, 137842.38, 0.00016467013, 10.001921, 9.997852 
8.849851e+2, 3.149422e+2, -18666.82, -93500.85, -13581.087, 0.07640097, -0.054421924, -16278.322, -16278.322, 0.00037312726, 10.000145, 9.999263 
8.9508605e+2, 1.2495829e+2, -1712429.8, -1675039.0, -38311.65, -0.12087767, -0.26595533, -1651104.5, 64297.66, 0.00000033567557, 9.999782, 10.00036 
8.9508194e+2, 1.3496076e+2, -1635523.3, -1600432.9, -54950.137, 0.02065525, -0.07077136, -1560294.9, 57083.17, 0.00000000007521531, 9.999751, 10.000215 
8.9507705e+2, 1.4496168e+2, -1533763.1, -1524767.9, -40377.457, 0.06746289, 0.020092549, -1488638.3, 30731.174, 0.0, 9.999858, 9.999998 
8.950708e+2, 1.549613e+2, -1339789.4, -1385871.1, 15223.931, -0.0724149, -0.053823162, -1335214.1, 86160.26, 0.0, 10.000544, 9.9999485 
8.9506555e+2, 1.6496116e+2, -1260126.9, -1342502.3, -26238.438, -0.07073719, -0.03490594, -1252479.4, 70897.58, 0.0, 10.000609, 9.999546 
8.950613e+2, 1.749611e+2, -1250102.3, -1285653.4, -15402.773, 0.085283466, -0.026175095, -1244357.3, -18978.51, 0.0, 10.000008, 9.999552 
8.950557e+2, 1.8496095e+2, -1163622.5, -1154656.0, -35927.75, 0.11184425, -0.009357718, -1122932.9, 4447.206, 0.0, 9.999754, 9.999898 
8.9504886e+2, 1.9496033e+2, -1057480.5, -1055076.0, -23420.451, 0.0042786677, -0.09145738, -1032826.94, -3442.1123, 0.0, 9.999828, 9.999869 
8.950431e+2, 2.0496021e+2, -972527.5, -1051679.8, -19988.719, -0.01965795, -0.045474466, -967766.06, -36380.184, 0.0, 10.000111, 9.999095 
8.950385e+2, 2.149603e+2, -816949.25, -927060.25, -14188.234, 0.03726269, 0.026967699, -815150.44, 18235.822, 0.0, 10.000514, 9.9990835 
8.9503306e+2, 2.2495958e+2, -702601.0, -831045.9, -75481.27, 0.06009938, 0.055318154, -667717.75, 67676.8, 0.0, 10.000664, 9.998991 
8.9502674e+2, 2.3495768e+2, -631288.0, -746717.7, -69841.51, 0.03769175, -0.06624587, -598400.2, 39013.56, 0.0, 10.000486, 9.9989805 
8.950204e+2, 2.4495699e+2, -526798.94, -610555.4, -62066.367, 0.003288843, -0.04563776, -493803.78, 45616.793, 0.0, 10.000377, 9.999297 
8.9501417e+2, 2.5495708e+2, -444019.38, -526561.7, -26424.098, -0.049448628, 0.0020631487, -436285.0, 5134.0366, 0.0000000002378373, 10.000293, 9.999247 
8.9500844e+2, 2.649563e+2, -391886.0, -519910.47, -13507.871, -0.06980211, 0.037672807, -390476.3, -47050.746, 0.00000030747992, 10.000295, 9.9986105 
8.9500326e+2, 2.749543e+2, -307187.88, -438767.0, 2345.0981, -0.05748836, -0.051594973, -307146.1, -61701.875, 0.0000026197797, 10.000245, 9.998521 
8.949984e+2, 2.8495252e+2, -194785.48, -448687.44, -14630.526, -0.041902907, -0.02390453, -193945.2, -46484.973, 0.000013171274, 10.000835, 9.997487 
8.949938e+2, 2.949508e+2, 67372.55, -270956.1, -25500.98, -0.0121763265, 0.017684791, 69283.84, 118759.44, 0.000055655084, 10.001941, 9.997508 
8.9498955e+2, 3.0494723e+2, 94801.98, -222055.19, -38824.17, 0.02773305, -0.091454156, 99489.71, 99489.71, 0.00017580122, 10.001806, 9.99757 
8.949844e+2, 3.1494346e+2, -80629.1, -173895.67, -27327.137, -0.072145306, -0.25335488, -73212.086, -73212.086, 0.00038747952, 9.999963, 9.998784 
9.0508705e+2, 1.24963254e+2, -1678452.0, -1688070.6, 33374.387, -0.0040920256, -0.27135837, -1649542.1, 65811.06, 0.0000010657902, 10.0001, 10.000128 
9.050818e+2, 1.3496543e+2, -1625207.6, -1638620.0, -20169.117, 0.03132625, -0.07255383, -1610659.0, 6673.669, 0.000000007369457, 9.999985, 9.9998455 
9.0507686e+2, 1.4496641e+2, -1521251.1, -1503423.9, 32098.094, 0.07249953, 0.033907875, -1479024.8, 40299.043, 0.0, 9.999861, 10.000145 
9.050719e+2, 1.5496638e+2, -1407842.8, -1402500.6, 2016.5946, 0.018020691, -0.02352725, -1401824.9, 19499.807, 0.0, 9.999989, 10.000107 
9.0506667e+2, 1.6496624e+2, -1334008.6, -1381766.6, -48709.26, 0.013151247, -0.011463983, -1303640.0, 19687.074, 0.0, 10.00012, 9.99952 
9.0506124e+2, 1.7496563e+2, -1219434.3, -1274366.1, -63911.094, 0.07125262, -0.05289217, -1177337.3, 47997.316, 0.0, 10.000228, 9.999528 
9.0505546e+2, 1.8496549e+2, -1096118.4, -1143993.5, -46706.652, 0.09247827, -0.026207792, -1067572.5, 59764.22, 0.0, 10.000299, 9.999709 
9.050495e+2, 1.9496547e+2, -987405.7, -1046950.9, -70042.445, 0.06670054, -0.026249288, -941070.75, 88265.8, 0.0, 10.000389, 9.999665 
9.050443e+2, 2.049653e+2, -917128.25, -1019618.6, -25299.775, 0.07625025, 0.020591652, -911223.2, 20115.324, 0.0, 10.000474, 9.999129 
9.050397e+2, 2.1496455e+2, -806804.7, -919257.75, -30388.342, 0.115112446, 0.0047302116, -799118.2, 34227.973, 0.0, 10.00057, 9.9991045 
9.0503395e+2, 2.2496378e+2, -725059.75, -815299.94, -53491.793, 0.10150616, 0.018660925, -700199.9, 35154.105, 0.0, 10.000409, 9.999221 
9.050268e+2, 2.349627e+2, -676332.7, -743834.75, -43638.02, 0.028081998, -0.041354075, -654916.6, -17551.645, 0.0, 10.000077, 9.999199 
9.050205e+2, 2.4496207e+2, -530010.25, -603446.7, 15239.801, -0.024398962, -0.028850526, -526973.25, 12397.031, 0.0, 10.000319, 9.999371 
9.050147e+2, 2.5496158e+2, -310858.25, -450955.72, -15607.921, -0.055179942, -0.047785733, -309140.47, 132232.16, 0.0, 10.001164, 9.999339 
9.050095e+2, 2.6496074e+2, -245056.64, -468904.9, -18996.547, -0.038402386, -0.014245593, -243455.97, 99923.4, 0.0000002007212, 10.001399, 9.998428 
9.050047e+2, 2.7495912e+2, -199368.89, -402069.28, -47506.875, 0.032838963, -0.046678837, -188787.13, 56607.586, 0.0000025589381, 10.0010605, 9.998376 
9.050003e+2, 2.8495708e+2, -168072.47, -459690.28, 22635.55, 0.06326093, -0.02677294, -166325.94, -18911.957, 0.000014749117, 10.001112, 9.997295 
9.049962e+2, 2.949546e+2, -14270.445, -325688.72, 19839.92, 0.07518308, -0.041867506, -13011.567, 36426.195, 0.00006245814, 10.001459, 9.997369 
9.0499187e+2, 3.0495128e+2, 59598.02, -207009.72, 7506.368, 0.110323645, -0.13066193, 59809.195, 59809.195, 0.00018874744, 10.001409, 9.997876 
9.049856e+2, 3.149485e+2, 4468.1113, -146571.81, 18163.605, 0.035398398, -0.22164007, 6621.705, 6621.705, 0.0004049675, 10.000565, 9.998707 
9.150881e+2, 1.2497264e+2, -1677937.4, -1684559.8, -19268.713, 0.030082075, 0.10613651, -1661697.4, 53569.81, 0.000002613721, 10.000109, 10.000142 
9.150811e+2, 1.349707e+2, -1633061.5, -1649121.9, -15028.348, -0.07124771, -0.10054495, -1624052.4, -6770.8486, 0.00000007607973, 9.99997, 9.999776 
9.1507614e+2, 1.4496996e+2, -1563824.6, -1583598.1, 18477.773, -0.028802501, -0.13414462, -1552754.9, -33467.33, 0.0, 9.9998255, 9.999612 
9.150731e+2, 1.5497078e+2, -1446306.3, -1476190.3, 23188.314, 0.10647544, -0.053622115, -1433662.8, -12381.202, 0.0, 9.999969, 9.999608 
9.150678e+2, 1.6497098e+2, -1334024.1, -1376907.0, -62350.926, 0.08730836, 0.014570934, -1289531.0, 33750.574, 0.0, 10.000094, 9.999566 
9.150604e+2, 1.7497015e+2, -1221674.0, -1271782.6, -44915.535, -0.064014286, -0.052829932, -1195297.6, 29993.813, 0.0, 10.000194, 9.999562 
9.1505456e+2, 1.8497027e+2, -1127694.0, -1192569.1, -56346.313, -0.066562645, 0.014408844, -1095115.4, 32176.545, 0.0, 10.000225, 9.999413 
9.150502e+2, 1.9497108e+2, -1030755.9, -1102763.1, -49769.816, 0.07207525, 0.12774424, -1005332.3, 23953.248, 0.0, 10.000248, 9.999351 
9.150457e+2, 2.0497023e+2, -922435.3, -991824.0, -34221.273, 0.13822024, 0.10952764, -908397.8, 22895.852, 0.0, 10.000307, 9.999398 
9.1504085e+2, 2.1496727e+2, -818882.94, -896258.8, -13861.335, 0.14154626, -0.15717708, -816474.7, 16845.73, 0.0, 10.000368, 9.999355 
9.1503423e+2, 2.2496678e+2, -700724.2, -731741.6, -82639.99, 0.067145936, -0.16054988, -632150.25, 103173.43, 0.0, 10.000256, 9.999873 
9.15026e+2, 2.349686e+2, -659015.94, -663608.8, -40212.742, -0.08400941, 0.0033402413, -621034.1, 16271.395, 0.0, 9.9998865, 9.999841 
9.1501987e+2, 2.4496844e+2, -577885.44, -669587.1, 33782.566, -0.13919626, 0.051087346, -566784.0, -27478.64, 0.0, 10.00017, 9.998991 
9.150158e+2, 2.549659e+2, -358437.7, -520925.0, 32095.205, -0.09530513, -0.13242438, -352327.84, 88999.8, 0.0, 10.001032, 9.998929 
9.150115e+2, 2.649644e+2, -281859.5, -523757.56, -45269.715, -0.0047793007, -0.12509449, -273665.16, 69675.484, 0.00000011562638, 10.001313, 9.99809 
9.150072e+2, 2.7496368e+2, -239029.81, -456630.8, -43091.586, 0.14107047, -0.036811557, -230807.1, 14540.545, 0.0000025826089, 10.000945, 9.998056 
9.1500264e+2, 2.849615e+2, -153882.28, -407835.06, 20489.66, 0.15775813, -0.039618474, -152239.73, -4870.4106, 0.000017159802, 10.001023, 9.997691 
9.149977e+2, 2.9495758e+2, -2986.3904, -284851.5, 53469.84, 0.036919843, -0.23089617, 6815.9497, 56223.805, 0.00007135739, 10.001387, 9.997685 
9.149931e+2, 3.0495626e+2, 101592.08, -96400.09, -30292.982, 0.06676013, -0.17536867, 106123.23, 106123.23, 0.00020564985, 10.001319, 9.998668 
9.149875e+2, 3.149579e+2, 19505.6, -68398.4, 49877.758, 0.10165372, 0.08437064, 42033.438, 42033.438, 0.00042848263, 10.000391, 9.999307 
9.2508906e+2, 1.249789e+2, -1687214.8, -1719129.3, -3420.3813, 0.11621238, 0.21949215, -1686852.4, 28355.846, 0.0000053718704, 10.000179, 9.999875 
9.2508155e+2, 1.34976e+2, -1458877.8, -1589229.1, -59951.91, -0.0749, -0.061546754, -1435497.8, 181733.47, 0.00000033393198, 10.001271, 9.999572 
9.250763e+2, 1.449745e+2, -1418386.6, -1523555.0, -21619.91, -0.03701837, -0.15431662, -1414115.6, 105128.19, 0.0, 10.000873, 9.999519 
9.250733e+2, 1.549752e+2, -1547307.5, -1539334.0, -21380.336, 0.16959171, -0.075579174, -1521571.9, -100333.76, 0.0, 9.999338, 9.999477 
9.2506814e+2, 1.6497546e+2, -1455885.5, -1409118.8, 109.27388, 0.16780819, -0.0069309943, -1409118.5, -85881.99, 0.0, 9.999143, 9.999797 
9.2506087e+2, 1.7497505e+2, -1183221.6, -1228524.0, -1803.0724, -0.039062623, -0.05654819, -1183150.0, 42091.37, 0.0, 10.000355, 9.99978 
9.25055e+2, 1.8497518e+2, -1050865.8, -1175874.1, -5379.3647, -0.06324529, 0.010077517, -1050634.6, 76607.66, 0.0, 10.000848, 9.9992285 
9.250507e+2, 1.9497551e+2, -1002628.75, -1105817.3, -23798.723, 0.08847986, 0.092029914, -997404.44, 31838.227, 0.0, 10.00052, 9.999194 
9.2504597e+2, 2.0497485e+2, -934242.06, -976732.6, 23227.393, 0.1537978, 0.09114545, -924009.2, 7240.666, 0.0, 10.000135, 9.999595 
9.2504084e+2, 2.149728e+2, -888241.5, -906173.75, 17483.623, 0.14663379, -0.100302026, -877559.0, -44291.676, 0.0, 9.999783, 9.999579 
9.250344e+2, 2.2497249e+2, -755030.8, -767751.4, -41627.9, 0.08001079, -0.09301078, -719280.1, 15988.391, 0.0, 9.999918, 9.999787 
9.250265e+2, 2.3497374e+2, -573190.9, -635730.1, -88879.14, -0.050418317, 0.022852138, -510241.13, 127014.445, 0.0, 10.000516, 9.999734 
9.2502075e+2, 2.4497323e+2, -517440.53, -657889.44, 2342.8904, -0.08652554, 0.04843004, -517401.44, 21857.178, 0.0, 10.000669, 9.998834 
9.250172e+2, 2.549706e+2, -450530.47, -577580.5, -12772.051, -0.028569842, -0.12617736, -449259.25, -7978.052, 0.0, 10.000471, 9.998807 
9.2501307e+2, 2.649689e+2, -341394.9, -555296.75, -39275.395, 0.04669806, -0.1351798, -334411.4, 8884.573, 0.00000007319143, 10.000888, 9.998092 
9.250087e+2, 2.749677e+2, -104459.25, -392453.13, -35643.492, 0.16238812, -0.0930883, -100113.42, 145193.4, 0.0000027897247, 10.001846, 9.998074 
9.25004e+2, 2.849658e+2, -47327.125, -310896.06, 42132.76, 0.17578335, -0.0846079, -40755.836, 106570.14, 0.000020180585, 10.001559, 9.998091 
9.2499876e+2, 2.9496303e+2, -166917.38, -320222.25, 39671.08, 0.08587724, -0.20545574, -157259.97, -107904.63, 0.00008285034, 10.000065, 9.998073 
9.2499405e+2, 3.0496255e+2, -21753.936, -117353.5, 9575.03, 0.097060375, -0.104903586, -20804.355, -20804.355, 0.0002292469, 10.000262, 9.999047 
9.249893e+2, 3.1496334e+2, 257017.33, 93101.12, 19401.316, 0.18246172, 0.03496924, 259282.39, 259282.39, 0.0004645645, 10.001774, 9.99977 
9.3508863e+2, 1.2498191e+2, -1729691.6, -1784640.9, -7315.766, -0.0129930405, 0.049379535, -1728734.3, -13556.931, 0.000009857008, 10.000108, 9.999451 
9.350826e+2, 1.3498153e+2, -1473895.9, -1621774.6, -8171.9824, -0.12092729, 0.042888653, -1473445.8, 143734.28, 0.0000009955157, 10.001298, 9.999324 
9.350769e+2, 1.4498028e+2, -1400287.5, -1491458.6, -96035.62, -0.099688716, -0.01988569, -1339567.5, 179622.97, 0.00000000002439963, 10.000894, 9.999734 
9.350721e+2, 1.5497969e+2, -1532965.1, -1501357.6, -63356.105, 0.08057728, -0.09218734, -1451864.0, -30669.791, 0.0, 9.999307, 9.999753 
9.3506724e+2, 1.6497977e+2, -1431222.8, -1350960.9, 27521.174, 0.12849328, -0.08019556, -1342430.6, -19239.041, 0.0, 9.999103, 10.000221 
9.350621e+2, 1.7498036e+2, -1156690.9, -1169827.1, 59209.91, 0.025766958, -0.07031268, -1103685.9, 121498.13, 0.0, 10.000331, 10.000198 
9.350565e+2, 1.8498021e+2, -1075128.4, -1204934.1, -29395.734, -0.025449814, -0.043212477, -1068781.8, 58405.82, 0.0, 10.00076, 9.999073 
9.350504e+2, 1.9497879e+2, -1031926.1, -1139355.3, -22462.326, -0.020327171, -0.120373555, -1027418.56, 1788.8612, 0.0, 10.000403, 9.999023 
9.3504477e+2, 2.0497915e+2, -934480.5, -947775.1, -5094.118, -0.00564734, -0.021431962, -932753.0, -1546.4313, 0.0, 10.000005, 9.999856 
9.350396e+2, 2.1498108e+2, -897886.44, -888226.5, 20288.004, 0.016297594, 0.16024481, -872201.44, -39014.117, 0.0, 9.99961, 9.99979 
9.350339e+2, 2.2498086e+2, -845750.4, -909544.56, -31937.871, 0.021140704, 0.210185, -832509.3, -97320.47, 0.0, 9.999721, 9.998908 
9.3502784e+2, 2.3497817e+2, -662363.06, -778399.8, -52550.527, 0.008151117, 0.0194446, -642101.9, -4887.138, 0.0, 10.000333, 9.998845 
9.350226e+2, 2.4497648e+2, -533850.06, -659803.56, -20143.326, 0.0040534176, -0.031683244, -530707.0, 8522.21, 0.0, 10.00053, 9.998888 
9.3501836e+2, 2.549755e+2, -467657.16, -585472.06, -4613.243, 0.018456325, -0.04536052, -467476.8, -26241.83, 0.0, 10.00034, 9.998823 
9.350138e+2, 2.6497394e+2, -328707.0, -495133.84, -13161.261, 0.005099848, -0.06355722, -327672.63, 15574.654, 0.00000003612581, 10.000753, 9.998562 
9.350088e+2, 2.7497134e+2, -95094.48, -339233.44, 19218.135, -0.035419535, -0.20921378, -93590.92, 151680.0, 0.0000027030533, 10.001714, 9.998497 
9.3500406e+2, 2.8497037e+2, -30342.662, -262005.34, -25138.916, -0.0115683405, -0.14925319, -27646.096, 119635.61, 0.000022488803, 10.001492, 9.998462 
9.3499917e+2, 2.9497102e+2, -150212.52, -275360.0, 4882.4463, 0.07251153, 0.030280864, -150022.33, -100742.516, 0.00009525127, 10.000011, 9.998408 
9.3499446e+2, 3.0497015e+2, -32182.955, -121864.15, 60644.355, 0.07416327, 0.08163171, -1601.9587, -1601.9587, 0.00025879213, 10.000205, 9.999042 
9.3498987e+2, 3.1496567e+2, 262232.66, 141179.75, 132477.22, 0.0045428067, -0.3085381, 347355.3, 347355.3, 0.0005142612, 10.001635, 10.000162 
9.4508916e+2, 1.2498563e+2, -1582497.1, -1723285.8, 43191.375, -0.0035214666, -0.07451461, -1570302.9, 144833.88, 0.000016753027, 10.001129, 9.999388 
9.4508386e+2, 1.3498639e+2, -1661195.9, -1725911.3, 5645.1177, -0.054230306, 0.0427532, -1660707.1, -43575.223, 0.000002343361, 10.000052, 9.999217 
9.450781e+2, 1.4498553e+2, -1525577.4, -1549765.5, -51520.81, -0.025301002, 0.019098079, -1484750.1, 34390.297, 0.0000000053592455, 10.000017, 9.999758 
9.4507223e+2, 1.5498456e+2, -1236948.1, -1366851.3, -71070.945, 0.066964515, -0.08968834, -1205620.0, 215527.23, 0.0, 10.001351, 9.999704 
9.4506705e+2, 1.649844e+2, -1136756.5, -1203646.0, 21784.5, 0.11191603, -0.099342346, -1130287.4, 192858.47, 0.0, 10.001106, 10.000261 
9.450625e+2, 1.7498489e+2, -1309240.4, -1239500.4, -7187.1, 0.08793124, -0.10349101, -1238767.4, -13629.801, 0.0, 9.999272, 10.000224 
9.45057e+2, 1.8498486e+2, -1320944.3, -1303010.9, -38552.277, 0.03787252, -0.07446155, -1272396.3, -145256.84, 0.0, 9.999007, 9.9992285 
9.4505066e+2, 1.9498385e+2, -1022821.4, -1115046.9, -36882.383, -0.029697789, -0.12663522, -1009885.9, 19269.758, 0.0, 10.000403, 9.999174 
9.450449e+2, 2.049843e+2, -781209.25, -880403.75, -20619.418, -0.03802686, -0.025090361, -777093.8, 154060.16, 0.0, 10.001066, 9.999812 
9.4503975e+2, 2.1498607e+2, -721504.56, -803648.75, -45306.61, 0.019113017, 0.13996808, -701424.4, 131711.7, 0.0, 10.000819, 9.999783 
9.4503456e+2, 2.2498563e+2, -696261.44, -866687.3, -19842.219, 0.057493035, 0.18049265, -693981.75, 41158.094, 0.0, 10.000894, 9.998629 
9.450294e+2, 2.3498264e+2, -529198.56, -742122.56, -22029.479, 0.08322426, -0.010336965, -526943.2, 110225.67, 0.0, 10.001386, 9.99858 
9.4502425e+2, 2.4498074e+2, -420774.03, -630309.0, 17871.137, 0.080304496, -0.054124255, -419260.75, 119925.266, 0.0, 10.001412, 9.998662 
9.4501936e+2, 2.5497973e+2, -392704.16, -568069.06, -14340.768, 0.06444679, -0.052241612, -391539.16, 49654.438, 0.0, 10.000938, 9.998644 
9.4501454e+2, 2.6497844e+2, -346658.63, -473293.25, 8788.562, 0.026399797, -0.051970955, -346051.6, -2847.402, 0.000000027783642, 10.000492, 9.998842 
9.450098e+2, 2.7497637e+2, -319230.88, -415301.06, -3667.4197, -0.02167748, -0.16620177, -319091.1, -73868.83, 0.000002329391, 10.0000305, 9.998791 
9.450048e+2, 2.849756e+2, -200210.55, -353241.84, -57159.582, -0.0142908795, -0.09702927, -181217.75, -33986.344, 0.000023981273, 10.000376, 9.998376 
9.4499964e+2, 2.9497597e+2, 47613.11, -190285.13, -93382.77, 0.059014004, 0.06529067, 79889.766, 129122.43, 0.00010679835, 10.001424, 9.998319 
9.44995e+2, 3.0497465e+2, 145606.48, -69263.41, -11471.728, 0.050813977, 0.08968652, 146217.22, 146217.22, 0.00028981623, 10.001591, 9.998732 
9.4499177e+2, 3.1497008e+2, 117833.336, 80201.625, -21094.436, 0.09499411, -0.27434775, 127284.27, 127284.27, 0.00057081727, 10.000618, 10.00023 
9.550896e+2, 1.2499019e+2, -1589778.9, -1713934.3, -42114.797, -0.13888128, -0.14765266, -1576841.3, 138243.8, 0.00002677623, 10.001058, 9.999467 
9.5508474e+2, 1.3499075e+2, -1665641.4, -1715008.1, -23150.27, 0.0014940547, -0.061447114, -1656483.9, -39398.168, 0.0000047533053, 9.999991, 9.999303 
9.550792e+2, 1.4499016e+2, -1550870.1, -1592611.9, -21202.504, 0.046749786, -0.04827917, -1541989.6, -22895.426, 0.000000046136613, 9.999965, 9.999495 
9.550731e+2, 1.5498988e+2, -1249884.4, -1400365.6, -6608.099, -0.015504484, -0.064990975, -1249594.8, 171501.67, 0.0, 10.00138, 9.999459 
9.550672e+2, 1.6498955e+2, -1166107.3, -1261037.1, -61592.152, -0.020065544, -0.058705185, -1135812.9, 187284.39, 0.0, 10.001092, 9.999873 
9.550615e+2, 1.749888e+2, -1340573.0, -1295842.1, -62190.04, 0.03064043, -0.15068078, -1252118.1, -27017.744, 0.0, 9.999238, 9.999852 
9.55056e+2, 1.8498926e+2, -1294783.8, -1242424.6, -594.35364, 0.013120516, -0.07746709, -1242417.9, -115321.4, 0.0, 9.998965, 9.999671 
9.550509e+2, 1.9499056e+2, -1003301.75, -1056190.5, 30065.836, -0.07632123, 0.057327244, -989705.4, 39383.438, 0.0, 10.000313, 9.999626 
9.550459e+2, 2.049902e+2, -823630.4, -930955.0, -46432.95, -0.064777486, 0.06726518, -806330.3, 124762.93, 0.0, 10.000907, 9.999542 
9.55041e+2, 2.149878e+2, -772950.9, -861081.0, -42259.652, 0.03993286, -0.15332857, -755961.8, 77151.35, 0.0, 10.0006075, 9.999493 
9.5503587e+2, 2.2498685e+2, -699362.25, -826051.06, -16138.498, 0.07822764, -0.16704942, -697338.75, 37781.945, 0.0, 10.000692, 9.999003 
9.550306e+2, 2.3498704e+2, -534100.6, -707906.44, 12882.555, 0.051122345, -0.07584861, -533150.94, 103968.04, 0.0, 10.00119, 9.998912 
9.5502526e+2, 2.4498595e+2, -478840.94, -707390.8, -12090.943, 0.016979123, -0.033772152, -478203.06, 60926.953, 0.0, 10.001235, 9.998211 
9.550197e+2, 2.549833e+2, -448295.72, -651001.8, -16400.857, -0.02403251, -0.15072234, -446977.28, -5820.103, 0.0, 10.000801, 9.9981365 
9.5501494e+2, 2.6498237e+2, -360916.88, -471719.2, -21961.05, -0.003334279, -0.08978529, -356722.94, -13556.416, 0.000000030362223, 10.000366, 9.99891 
9.5501107e+2, 2.7498278e+2, -331965.2, -412947.28, -1606.9039, 0.067149, 0.03296817, -331933.3, -86771.7, 0.000002140531, 9.999914, 9.998858 
9.5500606e+2, 2.8498134e+2, -250526.52, -435417.53, -30998.219, 0.037052043, 0.061922822, -245467.86, -98291.055, 0.000025889522, 10.000282, 9.997854 
9.549999e+2, 2.949779e+2, -2390.879, -273948.56, -32824.203, -0.09574848, -0.105705045, 1520.3727, 50734.344, 0.00011778403, 10.00134, 9.99778 
9.5499533e+2, 3.0497614e+2, 89973.71, -171006.63, -50211.7, -0.09464658, -0.06655523, 99300.92, 99300.92, 0.00031950467, 10.001522, 9.99807 
9.5499396e+2, 3.1497604e+2, 83311.96, 26680.8, -21179.229, 0.18011332, 0.0798485, 90356.41, 90356.41, 0.00062882464, 10.00053, 9.9999075 
9.6509033e+2, 1.2499545e+2, -1843655.8, -1848039.0, -12687.534, -0.06869341, -0.17286177, -1832972.0, -117940.766, 0.000040530904, 9.999319, 9.999408 
9.650849e+2, 1.3499604e+2, -1666437.1, -1713681.3, -42722.906, 0.03208363, -0.083101235, -1641240.6, -24208.32, 0.000008656152, 9.999956, 9.999346 
9.650797e+2, 1.4499564e+2, -1533773.0, -1591012.3, 45391.44, 0.10557543, -0.04803887, -1508732.0, 10308.066, 0.00000019058375, 10.000145, 9.999398 
9.650744e+2, 1.5499562e+2, -1418949.3, -1495392.8, 30854.275, 0.035634324, -0.025912045, -1408049.8, 12991.282, 0.0, 10.000309, 9.999311 
9.650682e+2, 1.6499516e+2, -1250806.5, -1325388.3, -39346.49, 0.0050379857, -0.014319925, -1233887.1, 89156.54, 0.0, 10.000633, 9.999644 
9.650615e+2, 1.749939e+2, -1078776.1, -1201159.8, -60678.023, 0.016246686, -0.13346851, -1053792.1, 171259.13, 0.0, 10.001173, 9.999568 
9.650559e+2, 1.8499386e+2, -1016934.56, -1110548.3, 43725.18, 0.014938139, -0.09307128, -999688.56, 127362.03, 0.0, 10.000862, 9.999676 
9.6505153e+2, 1.9499479e+2, -1099606.1, -1106667.4, 14307.149, -0.0068957834, 0.0056812484, -1088400.4, -59356.15, 0.0, 9.999649, 9.999615 
9.6504676e+2, 2.0499417e+2, -1036569.3, -1041282.75, -32981.195, 0.0045605088, -0.0033434294, -1005860.75, -74810.484, 0.0, 9.999517, 9.999437 
9.6504164e+2, 2.1499169e+2, -793646.0, -881344.06, -50855.51, 0.055249386, -0.2247383, -770345.75, 62726.09, 0.0, 10.000535, 9.999375 
9.6503663e+2, 2.2499074e+2, -664938.25, -811106.94, -10779.546, 0.078612186, -0.23084322, -664147.56, 70932.11, 0.0, 10.000918, 9.999007 
9.6503186e+2, 2.3499109e+2, -611500.1, -737587.75, -36335.79, 0.087457955, -0.12522405, -601778.5, 35298.0, 0.0, 10.000622, 9.99898 
9.6502656e+2, 2.4499023e+2, -541938.3, -727752.5, -27254.04, 0.054945048, -0.07101198, -538023.4, 1062.1925, 0.0, 10.000744, 9.998319 
9.650209e+2, 2.5498796e+2, -371836.3, -603223.2, -16395.45, -0.0070739253, -0.15727107, -370680.34, 70428.875, 0.0, 10.001279, 9.998242 
9.650161e+2, 2.64987e+2, -205626.78, -437703.9, 5821.7144, 0.017296715, -0.08473355, -205480.83, 137638.73, 0.000000012060779, 10.0015955, 9.998551 
9.6501225e+2, 2.74987e+2, -112410.2, -351118.6, -38999.35, 0.12491782, 0.029938286, -106200.17, 138920.44, 0.0000023356135, 10.001599, 9.998472 
9.650073e+2, 2.8498524e+2, -118989.6, -377733.1, -21757.0, 0.104602806, 0.045601137, -117172.875, 29966.393, 0.000028869204, 10.001213, 9.997792 
9.650013e+2, 2.9498154e+2, -141833.88, -349672.06, -27942.58, -0.036952123, -0.13735396, -138142.72, -88965.58, 0.00012892728, 10.000427, 9.997692 
9.649964e+2, 3.0497944e+2, -79649.39, -275283.97, 8634.773, -0.0760192, -0.11685886, -79269.016, -79269.016, 0.00034703137, 10.000439, 9.997873 
9.6499485e+2, 3.1498042e+2, 101282.21, 15298.5205, 3218.3958, 0.22211008, 0.15147315, 101402.51, 101402.51, 0.0006841425, 10.000737, 9.999722 
9.750904e+2, 1.2500101e+2, -1845088.3, -1838155.6, -43149.58, -0.07028929, -0.17583074, -1798333.4, -83354.58, 0.000058506626, 9.999273, 9.999495 
9.750839e+2, 1.3500237e+2, -1647336.6, -1678616.3, -11592.092, -0.09663015, -0.026067797, -1643509.0, -26538.393, 0.00001444443, 9.999983, 9.999569 
9.7507924e+2, 1.4500223e+2, -1540785.3, -1608567.1, 34996.543, -0.0021169982, 0.024306232, -1525959.1, -6983.4697, 0.0000005546723, 10.000155, 9.999277 
9.7507566e+2, 1.5500188e+2, -1432681.0, -1515449.8, 55429.555, 0.10206293, 0.026677942, -1404890.9, 16089.505, 0.0, 10.0002775, 9.9991865 
9.750698e+2, 1.6500124e+2, -1264579.5, -1347488.8, -36019.574, 0.06768064, 0.033880807, -1251117.0, 71867.82, 0.0, 10.000595, 9.999516 
9.75062e+2, 1.7500009e+2, -1090556.1, -1221140.1, -28295.229, -0.079009905, -0.059486065, -1084688.8, 140302.0, 0.0, 10.001148, 9.999445 
9.750561e+2, 1.8499872e+2, -1060620.1, -1179844.0, -14298.521, -0.081104755, -0.12573949, -1058929.4, 68072.04, 0.0, 10.000772, 9.999242 
9.7505206e+2, 1.9499674e+2, -1146421.8, -1175517.3, -15949.458, 0.052858785, -0.27571753, -1139382.0, -110361.76, 0.0, 9.999534, 9.999192 
9.7504705e+2, 2.049965e+2, -1060379.3, -1058388.6, -10432.707, 0.059057143, -0.2243203, -1048903.9, -117880.9, 0.0, 9.999369, 9.999398 
9.750412e+2, 2.1499762e+2, -821253.25, -900470.2, 2005.1788, -0.06672921, -0.07818696, -821202.5, 11810.511, 0.0, 10.000364, 9.999331 
9.7503626e+2, 2.2499716e+2, -712661.06, -865978.0, -38487.08, -0.06948855, -0.020144695, -703542.06, 31476.06, 0.0, 10.000729, 9.998718 
9.750324e+2, 2.3499478e+2, -665641.06, -797610.56, -35319.434, 0.056394618, -0.15883023, -656783.0, -19741.445, 0.0, 10.000401, 9.99867 
9.750278e+2, 2.4499372e+2, -516869.06, -641205.9, -22085.553, 0.07556891, -0.14429337, -513062.63, 25988.742, 0.0, 10.000591, 9.998991 
9.750223e+2, 2.5499362e+2, -342691.3, -511685.66, 20599.582, -0.016638244, -0.08141098, -340216.56, 100834.16, 0.0, 10.001143, 9.998939 
9.750174e+2, 2.6499215e+2, -276021.2, -557662.75, -8008.724, -0.03568452, -0.057405792, -275793.63, 67271.945, 0.0000000034767167, 10.001483, 9.997781 
9.7501314e+2, 2.74989e+2, -181120.16, -469642.7, -20290.795, 0.01658016, -0.17928448, -179700.16, 65399.195, 0.0000028342504, 10.001494, 9.997708 
9.750084e+2, 2.8498733e+2, -107450.6, -333211.06, -62806.555, 0.057034906, -0.1333195, -91154.17, 55963.105, 0.000032313746, 10.001131, 9.998137 
9.750032e+2, 2.9498687e+2, -133729.39, -307576.1, -32737.176, 0.06944283, -0.028447952, -127768.99, -78646.93, 0.0001399921, 10.000325, 9.998028 
9.749976e+2, 3.0498427e+2, -83166.04, -261289.95, 11835.008, -0.03664281, -0.07858794, -82383.13, -82383.13, 0.00037284024, 10.000345, 9.998019 
9.749934e+2, 3.1498227e+2, 73801.84, -10225.399, 51087.957, -0.06857168, -0.12489021, 97932.94, 97932.94, 0.00073526404, 10.000607, 9.999606 
9.8509026e+2, 1.2500651e+2, -1825759.0, -1781046.4, -35160.207, 0.011749288, -0.099408194, -1761736.8, -46807.344, 0.00008108169, 9.999199, 9.999925 
9.8508424e+2, 1.3500758e+2, -1506724.9, -1572101.3, -37273.91, -0.08298093, -0.01894718, -1489836.3, 127084.12, 0.000022462764, 10.000758, 9.999938 
9.8507977e+2, 1.4500742e+2, -1394770.8, -1507792.4, 11819.357, 0.0031998996, 0.0005744917, -1393548.0, 125374.66, 0.0000013019285, 10.00101, 9.9995575 
9.850756e+2, 1.5500733e+2, -1413074.1, -1474419.9, 24517.125, 0.078888565, -0.002662279, -1404479.8, 16443.674, 0.0, 10.000264, 9.99947 
9.8507017e+2, 1.650068e+2, -1345451.4, -1396534.9, 20197.623, 0.07807415, 0.0050717886, -1338430.5, -15503.558, 0.0, 10.00008, 9.999432 
9.850637e+2, 1.7500563e+2, -1183512.5, -1273504.0, 2429.4353, 0.010903483, -0.08044371, -1183447.0, 41487.55, 0.0, 10.000548, 9.999375 
9.850578e+2, 1.8500412e+2, -1054926.3, -1201433.5, 13216.766, 0.013887706, -0.14568323, -1053743.5, 73203.555, 0.0, 10.000927, 9.999012 
9.8505247e+2, 1.9500193e+2, -935423.44, -1102920.4, -7401.253, 0.0713181, -0.2949625, -935097.0, 93870.695, 0.0, 10.001116, 9.998927 
9.8504734e+2, 2.0500162e+2, -815779.56, -964389.44, 63505.934, 0.07199229, -0.2257901, -792338.8, 138632.34, 0.0, 10.001124, 9.999207 
9.8504245e+2, 2.1500288e+2, -764477.44, -895358.44, 36670.28, 0.0095025, -0.046609607, -754903.5, 78056.96, 0.0, 10.00084, 9.999142 
9.850376e+2, 2.250022e+2, -704060.2, -897596.2, 8181.4478, -0.01248066, 0.01287078, -703714.94, 31253.654, 0.0, 10.000931, 9.998409 
9.8503286e+2, 2.3499925e+2, -547295.56, -775803.2, -15891.863, 0.016798237, -0.15113585, -546195.6, 90802.84, 0.0, 10.001358, 9.998364 
9.850283e+2, 2.4499796e+2, -435918.44, -598435.5, -4993.7983, 0.050084766, -0.14261848, -435765.13, 103245.09, 0.0, 10.001144, 9.999012 
9.8502386e+2, 2.5499794e+2, -463656.6, -571369.3, -45269.156, 0.07743036, -0.07467879, -447158.1, -6149.975, 0.0, 10.000312, 9.998933 
9.8501897e+2, 2.6499632e+2, -481418.66, -662107.7, -32537.38, 0.047881614, -0.062386647, -475738.13, -132713.5, 0.00000001775074, 10.000105, 9.997733 
9.8501366e+2, 2.7499288e+2, -319425.88, -543343.94, -26988.947, -0.022611171, -0.20364341, -316218.8, -71156.58, 0.000003544514, 10.000575, 9.997656 
9.8500884e+2, 2.849915e+2, -122203.32, -314672.56, -40793.62, 0.005939377, -0.13786556, -113914.16, 33162.723, 0.00003520851, 10.000894, 9.998401 
9.8500437e+2, 2.9499185e+2, -21966.174, -227997.16, -46058.895, 0.1348049, 0.022327993, -12138.353, 36933.527, 0.00014922032, 10.000952, 9.998291 
9.8499864e+2, 3.049891e+2, -9190.722, -202943.28, 47289.367, 0.030618995, -0.06659791, 1735.121, 1735.121, 0.00039592202, 10.000783, 9.998196 
9.849937e+2, 3.149865e+2, -17989.693, -79161.58, 16841.002, -0.060656805, -0.18037944, -13659.748, -13659.748, 0.0007798097, 10.000091, 9.999382 
9.9508905e+2, 1.2501198e+2, -1785556.3, -1690980.4, -25718.348, -0.10546799, 0.0568315, -1684439.1, 30443.238, 0.000108580556, 9.999184, 10.00054 
9.950857e+2, 1.350117e+2, -1472706.5, -1489049.5, 32409.557, -0.044004247, -0.06075793, -1447454.1, 169426.44, 0.000033028722, 10.00072, 10.000516 
9.950811e+2, 1.4501132e+2, -1351112.1, -1416279.8, -37898.06, -0.010201606, -0.12239111, -1333716.3, 185164.22, 0.0000026281716, 10.000996, 10.0002 
9.9507385e+2, 1.550121e+2, -1359676.9, -1368830.5, 8819.517, -0.16272809, -0.10494669, -1354317.3, 66552.516, 0.00000000019976186, 10.000279, 10.000194 
9.9506885e+2, 1.6501197e+2, -1352765.1, -1401081.1, 21353.412, -0.10274281, -0.093350135, -1344680.8, -21811.4, 0.0, 10.000042, 9.9994135 
9.9506617e+2, 1.7501059e+2, -1189405.5, -1277913.3, 34827.785, 0.17075618, -0.1985406, -1177344.4, 47537.906, 0.0, 10.000515, 9.99936 
9.950607e+2, 1.8501005e+2, -1076751.4, -1225499.3, 4353.1914, 0.1773731, -0.16008143, -1076624.1, 50263.992, 0.0, 10.00084, 9.998889 
9.950524e+2, 1.9501007e+2, -958529.9, -1122624.5, 14270.217, -0.07893162, -0.07331276, -957298.2, 71590.984, 0.0, 10.0009985, 9.998847 
9.9504715e+2, 2.0500934e+2, -867537.75, -1025945.1, 35494.74, -0.08178782, -0.026245015, -859948.0, 70948.734, 0.0, 10.000935, 9.998872 
9.950451e+2, 2.1500751e+2, -815482.9, -952200.6, 38372.945, 0.16279434, -0.12542306, -805449.06, 27465.068, 0.0, 10.000637, 9.998844 
9.950403e+2, 2.2500603e+2, -756332.5, -954242.8, 9676.562, 0.1392499, -0.11786289, -755860.5, -20930.744, 0.0, 10.0007105, 9.998127 
9.950327e+2, 2.3500453e+2, -597581.2, -831325.4, 16375.586, -0.1566675, -0.10707628, -596439.5, 40507.24, 0.0, 10.001151, 9.998082 
9.950277e+2, 2.4500297e+2, -507775.8, -711060.5, -50683.426, -0.15145765, -0.0769543, -495840.1, 43122.492, 0.0, 10.000981, 9.998317 
9.950252e+2, 2.55001e+2, -534888.25, -681608.0, -60959.508, 0.15199506, -0.134521, -512866.1, -71885.234, 0.0, 10.000145, 9.998256 
9.9502045e+2, 2.649997e+2, -464193.28, -595171.7, -27897.6, 0.15462518, -0.08623946, -458498.84, -115503.59, 0.000000028595345, 9.999975, 9.998255 
9.9501336e+2, 2.7499864e+2, -302108.0, -478371.84, 9922.527, -0.14201704, -0.041543927, -301551.2, -56541.71, 0.000003781716, 10.000456, 9.9981575 
9.950081e+2, 2.849976e+2, -118022.91, -283934.16, -51209.152, -0.18716966, 0.02520514, -103490.01, 43529.49, 0.000036350866, 10.000798, 9.998655 
9.9500453e+2, 2.9499653e+2, -10399.904, -184699.61, -22252.223, 0.01604773, 0.01354115, -7603.8945, 41422.434, 0.00015456251, 10.000874, 9.998622 
9.949994e+2, 3.0499405e+2, -15415.377, -204050.08, 16226.336, -0.0020663328, -0.07170202, -14029.768, -14029.768, 0.00041193186, 10.000731, 9.998215 
9.949945e+2, 3.1499305e+2, -65969.734, -138949.69, 26436.26, -0.059352748, -0.025901722, -57399.816, -57399.816, 0.0008105773, 9.999925, 9.999051 
1.0050892e+3, 1.2501672e+2, -1733598.9, -1632190.8, 79240.84, -0.0064180694, 0.059572995, -1588820.4, 126016.85, 0.00014134821, 9.999395, 10.000842 
1.0050859e+3, 1.3501666e+2, -1669597.9, -1551460.8, 73789.36, -0.0014574052, -0.06470258, -1516009.6, 100820.81, 0.000046426092, 9.999232, 10.000799 
1.00508176e+3, 1.4501616e+2, -1600635.4, -1523754.0, -9694.102, 0.050378535, -0.15617599, -1522550.5, -3720.508, 0.00000474816, 9.999258, 10.000284 
1.0050744e+3, 1.550165e+2, -1404931.6, -1385081.5, -49850.953, -0.109962836, -0.18720375, -1344177.3, 76646.4, 0.000000004412824, 9.999956, 10.000238 
1.00506924e+3, 1.6501656e+2, -1328143.5, -1383827.6, -24707.594, -0.059814587, -0.16131938, -1318761.4, 4061.0947, 0.0, 10.000171, 9.999482 
1.00506656e+3, 1.7501602e+2, -1283790.4, -1314236.0, -34028.74, 0.19762515, -0.1902628, -1261734.6, -36905.105, 0.0, 9.99982, 9.999453 
1.0050613e+3, 1.8501584e+2, -1192206.6, -1276226.6, -6891.26, 0.20166762, -0.120883144, -1191645.1, -64812.855, 0.0, 10.00003, 9.998929 
1.0050536e+3, 1.9501574e+2, -973486.56, -1126099.6, -14557.607, -0.042523585, -0.052326903, -972110.4, 56723.117, 0.0, 10.000883, 9.998875 
1.0050486e+3, 2.0501468e+2, -851392.06, -1047028.25, 13804.533, -0.038961794, -0.02845596, -850422.8, 80421.59, 0.0, 10.0011635, 9.998617 
1.0050462e+3, 2.150123e+2, -810011.1, -985568.0, -10584.981, 0.2061936, -0.15449129, -809375.2, 23493.166, 0.0, 10.000809, 9.998544 
1.0050413e+3, 2.2501084e+2, -751265.1, -925339.06, 31391.275, 0.18172607, -0.1386718, -745777.25, -10893.483, 0.0, 10.000644, 9.998354 
1.0050339e+3, 2.3500998e+2, -647733.2, -832108.44, 40169.434, -0.1194164, -0.08660785, -639361.7, -2467.9792, 0.0, 10.0007105, 9.998288 
1.00502886e+3, 2.450084e+2, -527295.25, -755571.25, 20108.275, -0.12034912, -0.053003743, -525537.5, 13372.5, 0.0, 10.0009985, 9.998004 
1.0050263e+3, 2.5500584e+2, -358630.78, -623606.56, 7770.9155, 0.19020823, -0.14046033, -358403.1, 82532.08, 0.0, 10.001493, 9.997991 
1.0050215e+3, 2.6500452e+2, -267568.63, -481951.06, 67866.58, 0.20599976, -0.087472595, -247890.5, 95058.61, 0.000000017098808, 10.0012455, 9.998415 
1.00501426e+3, 2.7500397e+2, -333875.78, -470979.25, 49908.918, -0.07459844, -0.011778799, -317632.25, -72675.836, 0.000003428396, 10.000141, 9.998351 
1.0050088e+3, 2.8500274e+2, -250128.72, -347692.1, 26828.432, -0.14561845, 0.023632491, -243238.0, -96270.42, 0.00003625069, 9.999906, 9.998634 
1.0050051e+3, 2.9500067e+2, -69091.37, -216423.89, -3577.8, 0.010016102, -0.08302226, -69004.54, -20020.3, 0.00015744341, 10.000481, 9.9985895 
1.005e+3, 3.0499867e+2, -7666.5493, -176230.56, 23399.379, 0.0022522581, -0.13011082, -4478.632, -4478.632, 0.00042211023, 10.000653, 9.998463 
1.0049953e+3, 3.1499913e+2, -36483.176, -126683.94, -6476.9375, 0.036955845, 0.040330086, -36020.47, -36020.47, 0.0008305699, 10.000094, 9.999079 
1.01508975e+3, 1.2502077e+2, -1734360.9, -1619533.0, 12602.278, 0.041592058, -0.090187, -1618166.3, 96626.96, 0.0001798155, 9.999354, 10.000938 
1.0150845e+3, 1.3502248e+2, -1664000.0, -1541261.3, 78744.33, -0.09854311, -0.0431226, -1502796.4, 113973.07, 0.000062927356, 9.999247, 10.000855 
1.0150811e+3, 1.4502195e+2, -1644986.0, -1615076.3, -5549.6924, 0.014233016, -0.11380447, -1614079.6, -95308.33, 0.000007860604, 9.999253, 9.99966 
1.01507686e+3, 1.5502058e+2, -1451723.1, -1479931.3, -8079.5884, 0.10618682, -0.251119, -1449572.9, -28788.39, 0.000000028517778, 9.9999485, 9.999587 
1.0150712e+3, 1.6502066e+2, -1320873.9, -1362486.5, -53171.53, 0.083797336, -0.19719145, -1284582.9, 38202.348, 0.0, 10.000143, 9.99964 
1.0150644e+3, 1.7502195e+2, -1271986.4, -1290628.0, -33863.207, -0.028672485, -0.063721254, -1246184.6, -21408.617, 0.0, 9.99982, 9.999615 
1.0150592e+3, 1.8502155e+2, -1189358.3, -1252841.6, 9355.336, -0.03747328, -0.033871964, -1188008.3, -61228.895, 0.0, 9.999957, 9.999124 
1.0150557e+3, 1.9501913e+2, -977744.6, -1105443.3, 31290.244, 0.052694533, -0.21723856, -970489.7, 58309.113, 0.0, 10.000759, 9.999074 
1.0150511e+3, 2.050178e+2, -888496.56, -1090369.6, -14279.854, 0.069095574, -0.21666582, -887491.44, 43320.8, 0.0, 10.001017, 9.99839 
1.0150453e+3, 2.1501729e+2, -849540.5, -1026865.0, -11339.827, 0.014239486, -0.13659199, -848818.25, -15995.594, 0.0, 10.000636, 9.99834 
1.0150403e+3, 2.2501673e+2, -740430.3, -850858.4, 18154.691, -0.0077389004, -0.052252974, -737522.25, -2692.187, 0.0, 10.000423, 9.998969 
1.015036e+3, 2.3501576e+2, -632028.06, -752363.56, 56673.51, -0.003177486, -0.07456655, -609539.6, 27298.158, 0.0, 10.000511, 9.998928 
1.01503156e+3, 2.450144e+2, -549347.7, -759030.25, 21095.227, 0.021916252, -0.05312796, -547246.44, -8395.833, 0.0, 10.000817, 9.99807 
1.0150269e+3, 2.5501233e+2, -375565.56, -625422.25, 41311.723, 0.06201857, -0.09660312, -368912.2, 71959.35, 0.0, 10.001348, 9.998052 
1.01502165e+3, 2.6501063e+2, -291122.84, -502750.6, 14911.182, 0.07481948, -0.08093502, -290077.38, 52810.42, 0.000000011022683, 10.001125, 9.998329 
1.0150159e+3, 2.7500895e+2, -355925.38, -487578.66, 28990.299, 0.050504003, -0.11243612, -349824.38, -104921.76, 0.0000031084232, 10.000017, 9.998296 
1.01501055e+3, 2.850069e+2, -292965.75, -412529.66, 34660.8, 0.011784806, -0.13703488, -283644.5, -136723.42, 0.000035475467, 9.999807, 9.998232 
1.0150054e+3, 2.9500425e+2, -121889.25, -288943.97, 38492.47, -0.04459301, -0.26232702, -113446.555, -64500.695, 0.00015874387, 10.000334, 9.998154 
1.015e+3, 3.0500296e+2, 14895.823, -110299.84, -5658.978, -0.10072006, -0.23756196, 15151.095, 15151.095, 0.00042931808, 10.00057, 9.998955 
1.0149952e+3, 3.1500483e+2, -45053.945, -87527.03, 17372.59, -0.054227617, 0.016278876, -38853.332, -38853.332, 0.00084597495, 9.999869, 9.999447 
1.02509044e+3, 1.250266e+2, -1606998.6, -1603730.0, 98008.05, 0.1375976, -0.1543041, -1507342.6, 207388.73, 0.00022439056, 10.000409, 10.00055 
1.0250849e+3, 1.3502817e+2, -1476121.9, -1501320.3, 87448.95, -0.044901244, -0.07201818, -1400369.1, 216343.34, 0.0000828242, 10.000752, 10.000416 
1.0250812e+3, 1.4502774e+2, -1487064.1, -1545743.3, 37660.707, 0.054671746, -0.10665265, -1468663.4, 50051.434, 0.000012107546, 10.000353, 9.999619 
1.02507666e+3, 1.5502658e+2, -1520852.3, -1517821.6, 46612.62, 0.12668517, -0.22142252, -1472699.6, -51973.73, 0.00000009714164, 9.999486, 9.999554 
1.0250713e+3, 1.6502658e+2, -1417612.4, -1430012.0, 63890.047, 0.11100208, -0.16322146, -1359622.0, -36893.805, 0.0, 9.9995985, 9.999419 
1.0250652e+3, 1.7502756e+2, -1141880.5, -1247535.8, 21286.32, 0.023669086, -0.034905322, -1137753.1, 86970.09, 0.0, 10.000831, 9.999405 
1.0250603e+3, 1.8502702e+2, -973531.75, -1121404.4, 71274.87, 0.01627074, -0.022460047, -944771.06, 181956.75, 0.0, 10.001297, 9.999389 
1.0250566e+3, 1.9502462e+2, -937259.44, -1058133.0, 72801.414, 0.06879485, -0.2301103, -903077.75, 125667.586, 0.0, 10.0009, 9.999342 
1.0250518e+3, 2.0502356e+2, -967100.1, -1134987.6, 40082.133, 0.06486712, -0.2140999, -958021.6, -27265.26, 0.0, 10.0005245, 9.9983225 
1.0250457e+3, 2.1502349e+2, -922089.1, -1070671.6, 21306.48, 0.009395414, -0.07704155, -919094.2, -86330.164, 0.0, 10.000197, 9.998251 
1.02504075e+3, 2.2502287e+2, -755792.44, -850585.1, 87180.766, 0.015310388, 0.0036233938, -703957.25, 30814.762, 0.0, 10.000278, 9.999041 
1.02503724e+3, 2.3502141e+2, -608837.4, -735786.7, 57699.375, 0.07285396, -0.07482855, -586531.8, 50251.527, 0.0, 10.000648, 9.998979 
1.02503285e+3, 2.4502015e+2, -555235.3, -724567.94, 29942.752, 0.08261666, -0.062160682, -550096.56, -11302.234, 0.0, 10.000635, 9.998377 
1.0250273e+3, 2.5501874e+2, -524514.0, -666355.7, 31712.574, 0.04127138, -0.06899339, -517746.66, -76938.2, 0.0, 10.0001955, 9.9983225 
1.02502234e+3, 2.6501697e+2, -391891.7, -581202.4, 35991.73, 0.06223445, -0.058615018, -385279.88, -42454.703, 0.00000001218603, 10.000562, 9.998063 
1.0250178e+3, 2.7501452e+2, -128748.5, -403379.88, 3353.313, 0.15534078, -0.13949089, -128707.56, 116139.64, 0.0000027111198, 10.001697, 9.998061 
1.02501236e+3, 2.850123e+2, -55346.492, -332937.75, 20978.555, 0.12768184, -0.15848522, -53770.02, 93098.48, 0.00003356842, 10.001584, 9.9979315 
1.0250059e+3, 2.9500988e+2, -175683.3, -350275.34, -2563.794, -0.01710111, -0.22623244, -175645.66, -126753.15, 0.00015737157, 10.000108, 9.997854 
1.025e+3, 3.0500853e+2, -55182.383, -98815.58, 13363.485, -0.10607987, -0.20759003, -51414.87, -51414.87, 0.00043278775, 9.999928, 9.999322 
1.02499574e+3, 3.150092e+2, 112484.02, 24038.453, -33758.35, -0.017326834, -0.11118753, 123896.49, 123896.49, 0.00085734465, 10.000803, 9.999752 
1.03509024e+3, 1.2503394e+2, -1658972.3, -1725710.1, 44929.63, -0.006512512, -0.14987253, -1636375.5, 78278.78, 0.00027553758, 10.000463, 9.999687 
1.03508666e+3, 1.350338e+2, -1547712.5, -1648639.8, 106752.46, 0.024051687, -0.14487414, -1480097.0, 136561.36, 0.000106410545, 10.000741, 9.999412 
1.0350817e+3, 1.4503363e+2, -1447681.1, -1463378.9, -15861.807, 0.023517888, -0.12831621, -1437832.5, 80827.234, 0.000017580353, 10.000353, 10.000184 
1.0350735e+3, 1.5503436e+2, -1475141.6, -1428764.9, 27587.766, -0.1755603, -0.113025926, -1415914.6, 4734.747, 0.00000023822265, 9.999506, 10.000158 
1.035069e+3, 1.6503416e+2, -1469055.1, -1526803.9, 90168.1, -0.1151704, -0.0723042, -1403251.0, -80598.33, 0.0, 9.999561, 9.99877 
1.0350683e+3, 1.7503287e+2, -1195946.9, -1347571.6, 81169.78, 0.23310788, -0.108114004, -1160691.5, 63979.945, 0.0, 10.000779, 9.998743 
1.0350641e+3, 1.8503237e+2, -962614.4, -1075829.5, 38755.9, 0.23322485, -0.07809915, -950618.5, 176058.63, 0.0, 10.001201, 9.999747 
1.03505604e+3, 1.9503224e+2, -928441.06, -1014929.3, 68182.31, -0.114769086, -0.09594298, -890945.56, 137727.86, 0.0, 10.000792, 9.999692 
1.03505015e+3, 2.0503184e+2, -994457.1, -1151409.3, 10856.913, -0.16845955, -0.027883882, -993709.7, -63031.99, 0.0, 10.000348, 9.998296 
1.0350467e+3, 2.1503077e+2, -940399.1, -1079947.5, 24814.953, 0.07906124, 0.010148658, -936117.8, -103424.19, 0.0, 10.000063, 9.998254 
1.0350423e+3, 2.2502919e+2, -815850.1, -929406.44, 86962.586, 0.12799247, 0.014068525, -768771.4, -34060.746, 0.0, 10.000088, 9.9985895 
1.0350373e+3, 2.3502682e+2, -666619.8, -811441.6, 85960.95, -0.022190088, -0.11020219, -626635.8, 10095.317, 0.0, 10.000461, 9.998547 
1.0350322e+3, 2.4502555e+2, -555956.0, -679514.56, 2464.834, -0.06669064, -0.097670145, -555906.9, -17165.03, 0.0, 10.000438, 9.998782 
1.03502735e+3, 2.5502506e+2, -517220.9, -614103.7, 33061.52, -0.002363375, -0.056598973, -507013.9, -66268.19, 0.0, 10.00004, 9.998754 
1.0350231e+3, 2.6502362e+2, -440701.16, -653979.06, 64181.85, 0.053774238, -0.013358866, -422876.56, -80116.234, 0.00000000560088, 10.000442, 9.99762 
1.0350193e+3, 2.7502078e+2, -182238.69, -479200.44, 63925.902, 0.09962252, -0.08779415, -169062.23, 75727.58, 0.0000022721786, 10.001556, 9.997604 
1.0350136e+3, 2.850189e+2, -81834.92, -364420.06, -48237.645, 0.06721519, -0.04077728, -73827.586, 72982.41, 0.000031172072, 10.001484, 9.997763 
1.0350058e+3, 2.9501778e+2, -207742.23, -383139.16, -34777.285, -0.056389295, 0.038518887, -201098.34, -152276.48, 0.00015322318, 9.9999695, 9.997691 
1.03499986e+3, 3.050156e+2, -63334.47, -94316.8, 38217.582, -0.13980457, -0.027205007, -37587.785, -37587.785, 0.00043103905, 9.999842, 9.9993925 
1.034996e+3, 3.1501266e+2, 87847.06, 35547.117, 47835.508, -0.14545113, -0.29526746, 116213.664, 116213.664, 0.0008619147, 10.000568, 9.999929 
1.0450909e+3, 1.2504108e+2, -1719246.0, -1775933.9, -6672.4863, 0.06018752, -0.09680617, -1718471.3, -3885.7212, 0.0003338259, 10.000121, 9.999512 
1.04508705e+3, 1.3504036e+2, -1785423.5, -1788285.1, 81212.37, 0.072827674, -0.12710945, -1705629.4, -89033.49, 0.00013404706, 9.999196, 9.999198 
1.0450814e+3, 1.4504012e+2, -1605270.0, -1521792.3, 36800.14, 0.022799432, -0.11560961, -1507885.9, 10711.518, 0.000024406929, 9.999206, 10.000327 
1.04507335e+3, 1.55041e+2, -1324739.4, -1334434.6, 8902.692, -0.18346637, -0.09935256, -1319450.0, 101134.305, 0.0000004785213, 10.000464, 10.000335 
1.04506925e+3, 1.6504067e+2, -1306370.5, -1469396.4, 107278.88, -0.095811605, -0.07407377, -1253149.9, 69437.96, 0.0, 10.000753, 9.998607 
1.0450695e+3, 1.7503886e+2, -1299547.1, -1416608.0, 107061.58, 0.30337116, -0.14332011, -1236061.3, -11450.836, 0.0, 10.000138, 9.998589 
1.0450653e+3, 1.850383e+2, -1160189.0, -1202280.6, 75622.375, 0.30064267, -0.0961617, -1102738.5, 23879.457, 0.0, 9.999997, 9.999452 
1.04505666e+3, 1.950386e+2, -1011737.5, -1085854.5, 21536.184, -0.10298937, -0.039699417, -1005934.1, 22679.898, 0.0, 10.000366, 9.999402 
1.0450508e+3, 2.0503826e+2, -915006.2, -1076792.8, -16069.3545, -0.15677473, 0.03255093, -913425.56, 17192.426, 0.0, 10.000734, 9.998618 
1.0450477e+3, 2.1503696e+2, -781009.1, -963221.56, -6396.382, 0.13854127, 0.010878501, -780784.9, 51848.277, 0.0, 10.0009985, 9.998596 
1.0450435e+3, 2.2503516e+2, -704461.25, -914965.44, 98265.53, 0.19039734, -0.004944349, -665719.9, 68931.195, 0.0, 10.001013, 9.99825 
1.04503796e+3, 2.3503254e+2, -646985.75, -843829.44, 73550.92, -0.0022166383, -0.11582379, -622539.4, 14135.588, 0.0, 10.000756, 9.998193 
1.04503274e+3, 2.4503106e+2, -525500.75, -685222.94, -3493.8765, -0.062138684, -0.098984815, -525424.4, 13264.586, 0.0, 10.000718, 9.998619 
1.045028e+3, 2.550304e+2, -404297.84, -576974.2, -45933.395, 0.01447615, -0.05985078, -392839.5, 47856.09, 0.0, 10.000884, 9.998607 
1.04502365e+3, 2.650291e+2, -372625.53, -605782.7, 31491.838, 0.059252165, 0.000687095, -368446.9, -25737.697, 0.0000000009945924, 10.000835, 9.997772 
1.0450199e+3, 2.7502674e+2, -330116.8, -539621.1, 45570.97, 0.07391679, -0.04208728, -320633.56, -75898.69, 0.0000020282196, 10.000459, 9.997737 
1.0450144e+3, 2.8502512e+2, -177736.63, -394499.94, -23631.578, 0.050610367, 0.019497402, -175190.22, -28438.191, 0.00002862313, 10.0007515, 9.9979105 
1.0450071e+3, 2.950242e+2, 51256.875, -234981.64, -23041.283, -0.003946845, 0.09857221, 53099.76, 101860.945, 0.00014660136, 10.001655, 9.997893 
1.0450011e+3, 3.050219e+2, 160612.95, -23409.742, 83863.08, -0.06527661, 0.02768007, 193097.0, 193097.0, 0.00042212423, 10.001518, 9.999079 
1.0449967e+3, 3.1501797e+2, -11895.727, -50107.363, 11553.07, -0.082032315, -0.30754673, -8674.303, -8674.303, 0.0008537748, 9.999972, 9.999659 
1.0550919e+3, 1.250479e+2, -1679715.3, -1684260.0, -96636.54, 0.07098398, -0.018308891, -1585324.4, 129201.086, 0.00039971265, 10.000095, 10.000144 
1.0550856e+3, 1.3504791e+2, -1747287.0, -1705060.1, 59576.805, -0.028179757, -0.030777413, -1662966.3, -46442.063, 0.00016604259, 9.999187, 9.99977 
1.05507985e+3, 1.4504735e+2, -1625831.9, -1567740.6, 62495.348, -0.098404296, -0.06499556, -1527871.0, -9344.166, 0.000032768716, 9.999214, 10.00001 
1.0550757e+3, 1.5504664e+2, -1352168.9, -1389128.8, 68419.45, -0.029551905, -0.17717521, -1299777.6, 120751.914, 0.0000008393984, 10.000444, 9.999973 
1.0550715e+3, 1.6504619e+2, -1288449.4, -1421841.4, 67321.43, 0.029183013, -0.16178556, -1260379.8, 62152.844, 0.0, 10.00071, 9.99895 
1.055068e+3, 1.7504562e+2, -1277090.8, -1367838.4, 96083.45, 0.1108309, -0.14398499, -1216206.3, 8332.934, 0.0, 10.000127, 9.998926 
1.05506346e+3, 1.850449e+2, -1241920.6, -1352825.5, 71400.23, 0.09458049, -0.07805153, -1206968.5, -80418.81, 0.0, 9.999913, 9.998461 
1.055058e+3, 1.9504376e+2, -1093686.9, -1236013.1, 50461.797, -0.022921322, -0.070531845, -1077611.4, -49044.62, 0.0, 10.000272, 9.998422 
1.05505295e+3, 2.0504296e+2, -893747.8, -995166.9, -23285.3, -0.026109627, -0.029142724, -888657.1, 41918.938, 0.0, 10.000573, 9.999258 
1.0550485e+3, 2.1504207e+2, -763183.75, -887662.44, 16524.363, 0.08128896, -0.07139925, -761027.56, 71554.25, 0.0, 10.000822, 9.999205 
1.0550437e+3, 2.2504073e+2, -757544.0, -974799.44, 75651.55, 0.09189508, -0.053596247, -733796.75, 796.8393, 0.0, 10.0008, 9.997936 
1.0550391e+3, 2.3503864e+2, -692278.25, -896431.25, 79091.164, 0.01233774, -0.088916294, -665222.94, -28608.201, 0.0, 10.000581, 9.997912 
1.055034e+3, 2.450368e+2, -603759.5, -807165.3, -12133.408, -0.03091653, -0.057102837, -603038.25, -64403.477, 0.0, 10.0005455, 9.997864 
1.0550286e+3, 2.5503486e+2, -478935.9, -697346.9, -26669.73, -0.037168406, -0.069855615, -475726.47, -35069.41, 0.0, 10.000735, 9.997849 
1.0550237e+3, 2.650335e+2, -342607.6, -510023.13, 4374.423, -0.041896716, -0.013768462, -342493.38, 178.19852, 0.000000000012280949, 10.000697, 9.99849 
1.0550194e+3, 2.7503246e+2, -298225.56, -442129.47, 51264.063, -0.05071031, 0.0011226207, -281831.1, -37149.813, 0.0000016155456, 10.000328, 9.998464 
1.0550145e+3, 2.8503117e+2, -161124.16, -334288.3, -2620.7542, -0.0413389, 0.03471829, -161084.52, -14391.81, 0.000025306648, 10.000645, 9.998377 
1.0550091e+3, 2.9502922e+2, 63855.066, -180438.9, 34918.805, -0.011977149, -0.03298156, 68748.266, 117457.45, 0.00013793015, 10.001538, 9.998327 
1.0550033e+3, 3.0502746e+2, 104770.3, -122735.94, 20428.58, -0.03262058, -0.038724843, 106590.09, 106590.09, 0.00040720604, 10.001438, 9.998437 
1.0549971e+3, 3.1502533e+2, -88958.61, -161830.02, 6730.1846, -0.10825119, -0.13148679, -88342.24, -88342.24, 0.00083313056, 9.999768, 9.99899 
1.0650912e+3, 1.2505461e+2, -1866587.0, -1753686.8, -34182.08, 0.07021958, 0.044795476, -1744144.3, -29682.46, 0.00047318285, 9.998737, 10.000328 
1.0650864e+3, 1.35054e+2, -1525275.4, -1570879.0, 33145.81, 0.085783586, -0.04822602, -1507845.8, 108618.17, 0.00020250746, 10.000614, 10.000005 
1.0650807e+3, 1.450533e+2, -1449357.1, -1545206.3, 30576.262, 0.0006073366, -0.07916108, -1440433.9, 78034.664, 0.000042863663, 10.000688, 9.999464 
1.0650769e+3, 1.5505248e+2, -1547401.5, -1540099.5, -17262.05, 0.11975386, -0.14636306, -1526106.6, -105630.91, 0.0000013547858, 9.999353, 9.999463 
1.06507264e+3, 1.6505186e+2, -1428249.9, -1454422.9, 36897.33, 0.12546425, -0.13917212, -1402187.0, -79706.734, 0.0, 9.999592, 9.9992695 
1.0650681e+3, 1.7505111e+2, -1076668.1, -1236174.1, 30807.229, 0.05486731, -0.1702709, -1070924.9, 153560.55, 0.0, 10.001347, 9.99925 
1.0650635e+3, 1.8505044e+2, -1022646.5, -1263874.0, 28357.572, 0.03217892, -0.107518986, -1019357.75, 107136.82, 0.0, 10.001478, 9.99832 
1.06505886e+3, 1.9504964e+2, -1130734.3, -1269683.5, 40283.445, 0.045058742, -0.052619107, -1119900.3, -91389.66, 0.0, 10.000075, 9.998287 
1.0650541e+3, 2.0504875e+2, -990186.1, -1037494.2, 45544.227, 0.063808925, -0.013791506, -962519.7, -31998.678, 0.0, 9.9999, 9.999285 
1.0650493e+3, 2.150475e+2, -742661.25, -871160.94, 6171.356, 0.09423055, -0.09575504, -742365.56, 90163.52, 0.0, 10.000948, 9.9992485 
1.06504455e+3, 2.250463e+2, -665242.9, -902253.1, 61174.504, 0.07634661, -0.08037245, -650384.6, 84154.125, 0.0, 10.001302, 9.998197 
1.0650399e+3, 2.3504487e+2, -621427.7, -828590.75, 80353.93, 0.020928536, -0.07640167, -593914.25, 42638.91, 0.0, 10.000927, 9.998205 
1.06503494e+3, 2.450432e+2, -575875.7, -810101.3, 74409.1, -0.0045282333, -0.03404893, -554236.44, -15664.65, 0.0, 10.000812, 9.997713 
1.06502965e+3, 2.550409e+2, -461876.9, -710960.2, 74515.64, -0.005800712, -0.061230194, -441286.88, -688.43585, 0.0, 10.00094, 9.997665 
1.0650248e+3, 2.6503938e+2, -256621.63, -450253.66, 127357.625, -0.020608148, -0.02095794, -193458.56, 149155.95, 0.0, 10.001197, 9.99866 
1.0650204e+3, 2.7503845e+2, -124498.805, -333352.8, 94830.54, -0.038992926, -0.015905194, -87866.13, 156755.86, 0.00000091217555, 10.001423, 9.998677 
1.0650157e+3, 2.85037e+2, -34442.67, -284229.66, 52495.34, -0.023295043, -0.0030699756, -23858.695, 122775.41, 0.000020761427, 10.001551, 9.998289 
1.06501095e+3, 2.950346e+2, 63230.117, -194534.7, 16096.423, 0.032909255, -0.11091384, 64231.387, 112887.11, 0.00012637535, 10.001561, 9.998228 
1.06500536e+3, 3.0503315e+2, 116372.35, -158608.52, -17232.018, 0.03149378, -0.05997346, 117448.01, 117448.01, 0.00038601994, 10.001708, 9.998045 
1.0649988e+3, 3.1503192e+2, 179224.52, -56627.707, -65958.97, 0.0042916588, -0.029354384, 196417.44, 196417.44, 0.0008001297, 10.001739, 9.998735 
1.0750882e+3, 1.2506092e+2, -1888004.4, -1791485.6, 25374.803, -0.17167246, 0.06380731, -1785221.1, -70823.695, 0.00055371417, 9.998732, 10.000059 
1.0750892e+3, 1.3505873e+2, -1547456.8, -1603614.8, 109263.266, 0.2670144, -0.16882387, -1462722.3, 153692.23, 0.00024334127, 10.0005665, 9.999797 
1.0750834e+3, 1.4505805e+2, -1502152.5, -1654554.4, -43589.54, 0.16467592, -0.15136243, -1490566.0, 27855.912, 0.00005483326, 10.000673, 9.998727 
1.07507676e+3, 1.5505853e+2, -1594014.3, -1642921.3, -51904.285, 0.13221373, -0.017898405, -1561091.5, -140668.53, 0.000002073113, 9.999371, 9.998754 
1.075072e+3, 1.6505772e+2, -1413364.5, -1412285.8, 85702.56, 0.072788574, -0.0075887707, -1327120.9, -4690.03, 0.0000000000166348, 9.999553, 9.999573 
1.0750693e+3, 1.7505537e+2, -1063180.9, -1193718.5, 111411.91, 0.021995345, -0.23188914, -999327.1, 225120.8, 0.0, 10.0012865, 9.999567 
1.07506484e+3, 1.8505502e+2, -993517.6, -1175185.1, -40123.27, -0.008759114, -0.1864623, -985050.6, 141400.77, 0.0, 10.001364, 9.998981 
1.0750585e+3, 1.9505624e+2, -1102143.1, -1178820.3, 1359.7678, -0.024198232, 0.0054391893, -1102119.0, -73673.734, 0.0, 9.999948, 9.998968 
1.0750536e+3, 2.0505568e+2, -1057185.3, -1143107.0, 66185.195, -0.0019264488, 0.075839825, -1021240.4, -90787.56, 0.0, 9.999751, 9.998636 
1.07505016e+3, 2.1505313e+2, -810304.56, -971449.0, 59168.914, 0.05591797, -0.075762756, -790912.56, 41563.598, 0.0, 10.00077, 9.99865 
1.0750457e+3, 2.2505179e+2, -633506.06, -785908.9, 33192.95, 0.027498838, -0.09045487, -626590.5, 107896.74, 0.0, 10.001087, 9.999099 
1.07503995e+3, 2.350513e+2, -589163.6, -713417.94, 83577.74, -0.089645065, -0.08123171, -547151.3, 89338.35, 0.0, 10.000719, 9.999099 
1.075035e+3, 2.450503e+2, -583853.94, -775718.0, 67228.945, -0.10084145, -0.03254609, -562642.1, -24142.176, 0.0, 10.000603, 9.998043 
1.0750308e+3, 2.5504845e+2, -455698.63, -665283.0, 96679.35, -0.0099472, -0.053394042, -417913.47, 22607.525, 0.0, 10.000802, 9.998039 
1.0750266e+3, 2.650467e+2, -311216.34, -524015.94, 121884.96, 0.01546444, -0.03579138, -255823.5, 86715.37, 0.000000000031670343, 10.001034, 9.998233 
1.0750222e+3, 2.7504468e+2, -176506.03, -409450.06, 123660.96, -0.027878447, -0.09502388, -123102.31, 121454.79, 0.00000057346807, 10.001289, 9.998222 
1.07501745e+3, 2.8504267e+2, -87351.445, -374711.4, 37636.824, -0.03404457, -0.083781235, -82503.76, 64072.48, 0.000016841232, 10.001467, 9.9977045 
1.0750126e+3, 2.950404e+2, 6473.2095, -281666.2, 39533.98, -0.0071965805, -0.12098596, 11799.005, 60397.832, 0.000114238224, 10.001432, 9.997689 
1.0750071e+3, 3.0503902e+2, 87243.664, -203027.95, -19503.238, -0.0004769179, -0.024609266, 88548.21, 88548.21, 0.0003625103, 10.001636, 9.997778 
1.075001e+3, 3.1503752e+2, 138536.77, -107119.89, -5685.4014, -0.029917585, 0.00024467256, 138668.28, 138668.28, 0.00076317973, 10.001587, 9.99847 
1.08508825e+3, 1.2506507e+2, -1660385.1, -1689893.4, 59785.195, -0.11048002, -0.0568419, -1613560.4, 100793.62, 0.00064071716, 10.000286, 10.000026 
1.0850892e+3, 1.3506398e+2, -1817639.4, -1728588.0, 60383.984, 0.3225529, -0.1852553, -1698088.6, -81727.18, 0.00028839763, 9.998665, 9.999865 
1.08508304e+3, 1.450638e+2, -1791041.4, -1779129.3, 1971.4137, 0.1616972, -0.1271156, -1778811.5, -260446.16, 0.00006873226, 9.998666, 9.9988165 
1.085077e+3, 1.5506436e+2, -1403698.8, -1541788.6, 11391.6875, 0.1595585, 0.007191733, -1402765.3, 17601.625, 0.0000030594845, 10.000654, 9.998819 
1.08507276e+3, 1.6506374e+2, -1226490.9, -1321538.3, 186829.28, 0.13315734, 0.029872444, -1081235.6, 241138.14, 0.000000000186287, 10.000824, 9.999587 
1.0850703e+3, 1.7506169e+2, -1355025.4, -1333819.1, 157779.56, 0.10047198, -0.16526364, -1186286.9, 38101.75, 0.0, 9.999278, 9.999575 
1.0850655e+3, 1.8506122e+2, -1276308.8, -1303749.4, 6961.686, 0.037317798, -0.13519157, -1274643.6, -148251.27, 0.0, 9.999386, 9.999059 
1.0850586e+3, 1.95062e+2, -940806.5, -1092233.0, -26262.922, -0.0589684, 0.0056176903, -936380.94, 92007.67, 0.0, 10.001031, 9.999042 
1.0850536e+3, 2.0506129e+2, -821574.6, -1067632.6, 62319.957, -0.05579834, 0.075424396, -806690.94, 123706.65, 0.0, 10.001547, 9.99828 
1.0850508e+3, 2.1505876e+2, -805665.8, -1012268.6, 39737.094, 0.04043633, -0.036144383, -798286.5, 34136.17, 0.0, 10.000996, 9.998257 
1.0850465e+3, 2.250574e+2, -696232.25, -792666.25, 1941.898, 0.040532626, -0.04298512, -696193.2, 38242.066, 0.0, 10.000565, 9.999307 
1.08504064e+3, 2.3505686e+2, -644504.8, -717704.5, -36802.38, -0.053409893, -0.05464982, -629201.25, 7237.1685, 0.0, 10.000248, 9.999301 
1.085036e+3, 2.450562e+2, -524517.3, -683182.06, -178.37985, -0.055071123, -0.013898847, -524517.1, 13927.561, 0.0, 10.0007, 9.998658 
1.08503245e+3, 2.5505504e+2, -273015.8, -510341.1, 21927.727, 0.03868308, -0.023732167, -271006.78, 169450.08, 0.0, 10.001754, 9.998664 
1.0850284e+3, 2.650535e+2, -215402.08, -509559.22, 57243.387, 0.06670526, -0.0030407207, -204655.08, 137817.31, 0.000000020287489, 10.00183, 9.997939 
1.0850238e+3, 2.750511e+2, -242071.98, -477108.38, 32958.656, 0.028459627, -0.072276615, -237537.73, 6957.7017, 0.0000009682407, 10.000983, 9.997903 
1.0850192e+3, 2.8504884e+2, -150703.5, -418965.8, 31233.701, 0.019557262, -0.063432425, -147114.97, -596.8705, 0.000016002106, 10.001105, 9.997566 
1.0850148e+3, 2.950465e+2, 88246.11, -250423.56, 22451.797, 0.057902746, -0.09171585, 89728.05, 138270.33, 0.00010691048, 10.002048, 9.997598 
1.0850094e+3, 3.050452e+2, 158948.56, -147369.3, -2795.0408, 0.05336142, 0.008194768, 158974.06, 158974.06, 0.00034615427, 10.002054, 9.997969 
1.0850027e+3, 3.1504408e+2, 52974.77, -128466.38, -9006.536, 0.02470166, 0.05997368, 53420.75, 53420.75, 0.0007399488, 10.00094, 9.998637 
1.09509096e+3, 1.2506711e+2, -1641415.0, -1634178.1, 27532.906, 0.0717927, -0.3242724, -1610026.9, 104304.445, 0.000734217, 10.000222, 10.000438 
1.0950862e+3, 1.3506998e+2, -1783621.9, -1665087.5, 8586.983, 0.12338598, -0.10221612, -1664468.6, -48165.7, 0.00033773432, 9.998687, 10.000293 
1.09507896e+3, 1.450706e+2, -1739813.6, -1668435.4, 55229.37, -0.14765231, -0.020280734, -1638367.4, -120069.13, 0.0000845864, 9.998652, 9.99958 
1.095077e+3, 1.5506998e+2, -1360388.1, -1436013.1, 99773.72, 0.074368015, -0.080175765, -1291502.0, 128805.74, 0.0000043925156, 10.000596, 9.99957 
1.0950742e+3, 1.6506994e+2, -1247949.9, -1363514.8, 108921.055, 0.17411561, -0.021962687, -1182433.5, 139875.95, 0.0000000006358386, 10.000803, 9.999313 
1.0950707e+3, 1.7506996e+2, -1371423.4, -1372749.3, 114744.16, 0.16752127, 0.017382836, -1257340.3, -33032.008, 0.0, 9.999285, 9.999309 
1.0950653e+3, 1.8506907e+2, -1321159.5, -1380565.0, 50650.05, 0.043049496, 0.043425195, -1292145.4, -165828.0, 0.0, 9.999323, 9.998558 
1.0950586e+3, 1.9506703e+2, -993559.94, -1170593.3, 50716.7, -0.18240027, -0.04860921, -980060.0, 48278.94, 0.0, 10.000901, 9.998562 
1.09505385e+3, 2.0506555e+2, -854876.75, -1105367.6, 25048.22, -0.21897955, -0.022536458, -852396.56, 77958.664, 0.0, 10.001401, 9.998096 
1.0950509e+3, 2.1506435e+2, -842013.75, -1048798.3, 33452.813, -0.07521045, 0.015916988, -836736.56, -4367.4443, 0.0, 10.000822, 9.998094 
1.0950468e+3, 2.2506309e+2, -772169.8, -899431.2, -26118.879, -0.0055091404, 0.058298647, -767017.8, -32634.611, 0.0, 10.00035, 9.998674 
1.0950416e+3, 2.3506139e+2, -718087.06, -822321.3, -33094.824, -0.00451183, -0.011220242, -708467.1, -72065.9, 0.0, 10.000042, 9.99868 
1.09503746e+3, 2.4506073e+2, -484997.78, -554752.8, 25104.814, 0.001058164, 0.014067808, -476902.13, 61505.45, 0.0, 10.0005045, 9.999632 
1.0950343e+3, 2.550608e+2, -231357.53, -381880.66, 78651.2, 0.014562076, 0.026252244, -197759.94, 242645.19, 0.0, 10.001575, 9.999631 
1.09503e+3, 2.6505995e+2, -257928.16, -556469.44, 15358.397, 0.015801076, 0.080641285, -257140.13, 85273.266, 0.00000010014453, 10.001657, 9.9977 
1.0950248e+3, 2.750577e+2, -275536.7, -518278.4, 24713.72, -0.0018766876, 0.0555354, -273046.13, -28609.885, 0.0000018117424, 10.000861, 9.99768 
1.0950205e+3, 2.8505534e+2, -150415.64, -394838.4, 52399.746, 0.008120405, 0.050908178, -139655.77, 6805.1177, 0.000017402066, 10.001005, 9.997778 
1.09501734e+3, 2.9505256e+2, 86039.89, -229808.52, 77551.12, 0.065064795, -0.04897507, 104053.83, 152543.05, 0.00010435712, 10.001939, 9.997792 
1.0950116e+3, 3.050515e+2, 184091.77, -72481.125, -57188.25, 0.04272748, 0.039473414, 196261.39, 196261.39, 0.00033796718, 10.001959, 9.998526 
1.095003e+3, 3.1505153e+2, 62646.3, -76244.18, -805.8061, -0.10285605, 0.15396743, 62650.977, 62650.977, 0.00073106954, 10.000791, 9.999074 
1.1050916e+3, 1.2507221e+2, -1820016.9, -1695122.6, 57128.58, 0.18856995, -0.20626216, -1672933.4, 41354.074, 0.00083503575, 9.998919, 10.00061 
1.1050847e+3, 1.3507476e+2, -1669129.3, -1592738.4, -107875.76, 0.07827854, -0.035319243, -1516495.8, 99765.35, 0.0003918232, 9.999408, 10.000428 
1.105078e+3, 1.4507504e+2, -1559819.4, -1552295.6, 15007.321, -0.1469919, -0.012583074, -1540585.9, -22327.998, 0.000102570426, 9.999724, 9.999879 
1.1050773e+3, 1.5507436e+2, -1404066.3, -1426030.6, -3860.5537, 0.06569852, -0.10762488, -1403407.5, 16857.47, 0.0000061708192, 10.000132, 9.999873 
1.1050747e+3, 1.6507448e+2, -1312461.8, -1402972.6, -32347.172, 0.15915337, -0.0440187, -1302089.9, 20174.904, 0.0000000015512864, 10.000418, 9.999212 
1.1050704e+3, 1.75075e+2, -1165101.5, -1278869.8, -50207.113, 0.15668584, 0.05139357, -1146113.6, 78147.91, 0.0, 10.0007515, 9.999229 
1.1050656e+3, 1.8507423e+2, -1091149.0, -1240574.6, -4359.7173, 0.06415723, 0.078600936, -1091022.0, 35247.637, 0.0, 10.000784, 9.998812 
1.1050599e+3, 1.9507183e+2, -1030448.4, -1158101.5, 18166.227, -0.116099216, -0.072008245, -1027913.5, 378.24954, 0.0, 10.0005245, 9.998825 
1.1050554e+3, 2.0507032e+2, -968205.6, -1138213.4, 39125.93, -0.146811, -0.07381483, -959633.4, -29326.174, 0.0, 10.000524, 9.998298 
1.105052e+3, 2.1506934e+2, -825563.56, -1018972.56, 42791.53, -0.03632739, -0.03223324, -816518.94, 15799.905, 0.0, 10.000832, 9.998298 
1.1050476e+3, 2.2506827e+2, -667619.9, -847406.25, 54741.918, 0.0142901065, 0.01820893, -652263.56, 82067.625, 0.0, 10.001054, 9.998691 
1.1050423e+3, 2.3506679e+2, -550160.94, -739862.06, 68071.58, 0.008147259, -0.030812727, -528262.4, 108085.1, 0.0, 10.001185, 9.998693 
1.1050383e+3, 2.4506633e+2, -433516.63, -551796.06, 147401.06, 0.016231433, 0.024966955, -333833.88, 204519.22, 0.0, 10.000977, 9.999406 
1.10503554e+3, 2.550666e+2, -408415.4, -488185.9, 71219.164, 0.04371943, 0.07669868, -366673.44, 73677.74, 0.0, 10.000471, 9.999411 
1.1050315e+3, 2.650657e+2, -344686.88, -569858.44, 9836.9, 0.0434196, 0.12684214, -344257.94, -1897.9515, 0.00000018749917, 10.000924, 9.9979725 
1.10502645e+3, 2.750634e+2, -65416.656, -385405.97, 24141.447, 0.019697772, 0.06424708, -63605.566, 180777.19, 0.0000025365616, 10.00217, 9.997969 
1.10502236e+3, 2.8506118e+2, 38548.59, -308687.8, 90221.82, 0.033936556, 0.070258416, 60591.465, 206996.78, 0.000019295574, 10.002319, 9.997752 
1.1050194e+3, 2.9505897e+2, -5896.8267, -278723.47, 60070.223, 0.11334957, 0.030631026, 6743.6196, 55173.54, 0.00010487227, 10.001326, 9.997761 
1.10501364e+3, 3.0505767e+2, 170305.55, -90345.14, -58301.18, 0.07997296, 0.10078389, 182751.78, 182751.78, 0.00033641586, 10.001873, 9.998452 
1.1050055e+3, 3.1505695e+2, 445629.75, 109223.0, -99065.266, -0.051731136, 0.13767852, 472634.72, 472634.72, 0.00073074934, 10.00342, 9.99907 
1.1150892e+3, 1.2508067e+2, -1827125.5, -1708579.8, 69794.086, -0.018595226, 0.2827061, -1676285.8, 37933.37, 0.000944546, 9.998925, 10.000517 
1.1150842e+3, 1.3507849e+2, -1692958.8, -1641706.0, -75696.84, 0.060621835, 0.018242773, -1587415.4, 28819.121, 0.00045159098, 9.999402, 10.000101 
1.1150798e+3, 1.4507724e+2, -1558795.4, -1548073.9, 8902.664, 0.01091515, -0.09684589, -1543042.5, -24799.773, 0.00012308804, 9.999722, 9.999907 
1.11507714e+3, 1.550778e+2, -1405028.3, -1427306.6, 26157.521, 0.0013158913, -0.07002274, -1387736.9, 32498.416, 0.000008505592, 10.000132, 9.999865 
1.1150735e+3, 1.6507769e+2, -1314324.5, -1403977.3, -39464.96, -0.040881272, -0.028899336, -1299427.4, 22809.527, 0.0000000033697685, 10.000395, 9.999226 
1.1150695e+3, 1.750769e+2, -1165243.6, -1276598.5, -23534.941, -0.05292474, -0.061955627, -1160473.8, 63773.59, 0.0, 10.000724, 9.99927 
1.1150657e+3, 1.8507664e+2, -1031747.4, -1102280.3, -30566.605, -0.030669326, -0.033467527, -1020344.4, 105904.766, 0.0, 10.000719, 9.999792 
1.1150619e+3, 1.9507651e+2, -981236.75, -1027579.56, 21600.89, 0.0077950126, -0.058258228, -972729.9, 55516.492, 0.0, 10.000404, 9.999779 
1.115058e+3, 2.0507564e+2, -947993.5, -1064113.3, 29129.605, 0.027228883, -0.070734434, -941095.8, -10842.8, 0.0, 10.000385, 9.99887 
1.11505374e+3, 2.1507366e+2, -817080.7, -953144.6, 68554.13, 0.031534635, -0.18862568, -788530.94, 43741.55, 0.0, 10.000624, 9.998848 
1.11504845e+3, 2.2507295e+2, -648326.44, -758826.25, 45043.7, -0.025724795, -0.16340756, -632291.8, 101987.305, 0.0, 10.000852, 9.999394 
1.11504234e+3, 2.3507324e+2, -531548.56, -652972.06, 87825.25, -0.13235624, -0.10547114, -485493.3, 150782.31, 0.0, 10.000982, 9.999389 
1.1150381e+3, 2.4507311e+2, -567453.5, -787702.2, 114694.86, -0.1277838, 0.024048964, -518573.8, 19706.648, 0.0, 10.000793, 9.997874 
1.11503564e+3, 2.550722e+2, -538812.25, -723871.2, 70157.66, -0.011861674, 0.11385692, -515221.97, -74925.36, 0.0, 10.000317, 9.997867 
1.11503236e+3, 2.6507062e+2, -311158.75, -466953.22, 41426.76, 0.012647586, 0.13048871, -300828.13, 41485.82, 0.00000020790911, 10.000783, 9.998743 
1.1150282e+3, 2.7506796e+2, -28167.441, -278266.75, 90082.93, -0.051475335, -0.047741644, 900.87836, 245236.83, 0.0000030041283, 10.00204, 9.998764 
1.1150243e+3, 2.8506652e+2, -4132.76, -360580.97, 39272.402, -0.0343012, 0.0049722823, 142.8698, 146493.7, 0.000021785861, 10.002171, 9.997461 
1.1150205e+3, 2.9506585e+2, -46012.668, -331911.88, 50908.844, 0.051724765, 0.15343341, -37218.082, 11144.713, 0.00010887074, 10.0012, 9.997454 
1.1150155e+3, 3.0506372e+2, 103740.05, -205673.4, -6457.2217, 0.03415511, 0.1939806, 103874.74, 103874.74, 0.00034133886, 10.00178, 9.997704 
1.11500904e+3, 3.1505993e+2, 367246.44, -15229.263, 19950.113, -0.105638325, -0.0023475045, 368284.25, 368284.25, 0.0007374856, 10.003253, 9.998298 
1.1250888e+3, 1.2508543e+2, -1752287.8, -1676628.0, 152496.27, 0.027996205, 0.35785812, -1557339.5, 156836.2, 0.0010643419, 9.999452, 10.000503 
1.1250842e+3, 1.350829e+2, -1586244.9, -1599640.8, -23284.6, 0.08721822, 0.071404964, -1568714.0, 47480.4, 0.00051804923, 10.000177, 10.000022 
1.1250816e+3, 1.4508153e+2, -1484357.0, -1531974.5, 94181.18, 0.20510752, -0.044030994, -1411021.8, 107182.27, 0.00014661087, 10.000331, 9.999717 
1.1250774e+3, 1.5508173e+2, -1410568.0, -1447290.4, 55398.668, 0.027327754, -0.034885004, -1370567.0, 49633.266, 0.00001150662, 10.00019, 9.999689 
1.1250731e+3, 1.650816e+2, -1355818.3, -1388250.4, 30204.664, -0.07566228, -0.0029817836, -1337751.9, -15550.161, 0.0000000061074554, 9.999954, 9.999546 
1.1250695e+3, 1.7508103e+2, -1285614.8, -1293953.5, 37424.67, -0.06310072, -0.049074497, -1252127.9, -27918.857, 0.0, 9.999733, 9.999623 
1.12506606e+3, 1.8508111e+2, -1128881.6, -1128685.0, 49371.813, -0.014293758, -0.014509108, -1079411.4, 46796.03, 0.0, 9.999955, 9.999982 
1.12506285e+3, 1.9508138e+2, -929373.8, -988210.6, 14035.642, 0.051140543, -0.01701902, -926197.1, 102004.664, 0.0, 10.000661, 9.999942 
1.125059e+3, 2.05081e+2, -876780.6, -958506.8, 11137.038, 0.083539, -0.01997001, -875290.1, 54913.07, 0.0, 10.000587, 9.999491 
1.1250546e+3, 2.1507959e+2, -877639.9, -907037.9, 17974.838, 0.091458604, -0.14240389, -869119.1, -36903.95, 0.0, 9.999903, 9.999502 
1.1250493e+3, 2.2507901e+2, -782466.0, -841567.4, 21754.512, 0.026792586, -0.13187037, -775322.0, -41102.477, 0.0, 9.999992, 9.99925 
1.12504356e+3, 2.35079e+2, -546584.94, -675386.75, -29891.902, -0.100604124, -0.08630276, -539985.8, 96232.47, 0.0, 10.00093, 9.999264 
1.1250393e+3, 2.4507822e+2, -502775.56, -788726.25, 13889.009, -0.108147815, -0.0028529216, -502102.53, 36126.203, 0.0, 10.001386, 9.997582 
1.1250366e+3, 2.5507632e+2, -401289.63, -692206.1, 33274.68, 0.0041647763, 0.020633454, -397532.25, 42721.105, 0.0, 10.001419, 9.997561 
1.1250334e+3, 2.6507467e+2, -221053.2, -431414.03, 81074.95, 0.021852145, 0.051338617, -193432.77, 148838.98, 0.00000016860811, 10.001451, 9.998661 
1.1250299e+3, 2.750728e+2, -113418.58, -328885.4, 23776.998, -0.049309075, -0.03509677, -110825.95, 133462.11, 0.0000038179373, 10.00151, 9.998663 
1.1250261e+3, 2.850716e+2, -47867.19, -400312.06, -52604.887, -0.041230883, 0.05566805, -40183.074, 106118.61, 0.000026510976, 10.001935, 9.9973 
1.12502225e+3, 2.9507077e+2, 139593.11, -254761.36, -69305.08, 0.04556444, 0.19712321, 151418.39, 199733.98, 0.00011807009, 10.00253, 9.9973345 
1.1250177e+3, 3.050682e+2, 205608.78, -155793.81, -34938.297, 0.05478305, 0.19761346, 208955.42, 208955.42, 0.0003550206, 10.002506, 9.997695 
1.1250125e+3, 3.1506404e+2, 117717.73, -145891.88, -8962.333, 0.008766522, -0.020000188, 118022.086, 118022.086, 0.0007557831, 10.001578, 9.99822 
1.1350875e+3, 1.2508649e+2, -1751010.5, -1669621.1, 77032.77, -0.10541549, 0.017681304, -1623194.6, 90962.79, 0.0011953667, 9.99945, 10.000543 
1.1350839e+3, 1.3508804e+2, -1574728.5, -1566332.9, 14858.061, 0.0024697992, 0.115250915, -1555091.0, 61049.637, 0.00059164723, 10.00015, 10.00026 
1.1350833e+3, 1.4508806e+2, -1508643.9, -1583531.4, 69978.65, 0.2797611, 0.14394857, -1466721.1, 51419.2, 0.00017336896, 10.000334, 9.999367 
1.13507785e+3, 1.5508638e+2, -1435912.3, -1500919.0, 68086.21, 0.018672388, 0.004071602, -1392969.0, 27189.023, 0.000015247707, 10.000189, 9.999327 
1.1350734e+3, 1.6508631e+2, -1314820.3, -1299200.3, 4068.8242, -0.09330917, 0.030056, -1298203.9, 23954.545, 0.000000009421829, 9.999939, 10.000162 
1.1350701e+3, 1.7508742e+2, -1246785.8, -1211652.8, 41773.44, -0.010649976, 0.08916514, -1183902.6, 40243.754, 0.0, 9.999727, 10.000189 
1.1350664e+3, 1.850876e+2, -1171090.6, -1206653.5, 56273.51, -0.013792968, 0.13144542, -1129856.1, -3711.1802, 0.0, 9.999908, 9.999474 
1.1350621e+3, 1.9508658e+2, -987477.8, -1071405.8, 54234.38, -0.11079574, 0.05161174, -960868.2, 67288.75, 0.0, 10.000498, 9.999453 
1.13505796e+3, 2.0508654e+2, -860709.4, -888041.3, -32672.816, -0.100389555, 0.07987292, -838959.6, 91196.71, 0.0, 10.000426, 10.000052 
1.1350541e+3, 2.1508716e+2, -870676.56, -842699.2, 3403.8625, 0.031584896, 0.104550764, -842291.0, -10144.46, 0.0, 9.999692, 10.000046 
1.1350499e+3, 2.2508642e+2, -875108.7, -992426.94, 37918.75, 0.05388808, 0.12119133, -863919.94, -129767.85, 0.0, 9.999807, 9.998305 
1.13504544e+3, 2.3508406e+2, -644745.56, -831947.0, 20110.316, -0.03009667, 0.02092883, -642609.56, -6433.845, 0.0, 10.000721, 9.998291 
1.1350414e+3, 2.4508165e+2, -466271.44, -670160.7, 837.73883, -0.064879544, -0.051398337, -466268.0, 71929.805, 0.0, 10.001201, 9.998486 
1.135038e+3, 2.5507897e+2, -359955.56, -569801.6, 50555.543, -0.0320073, -0.1992437, -348411.0, 91809.586, 0.0, 10.001261, 9.998478 
1.13503456e+3, 2.6507792e+2, -308412.13, -587635.2, 71370.98, -0.045295782, -0.10563257, -291227.0, 51005.723, 0.00000020663475, 10.001335, 9.997649 
1.1350313e+3, 2.750779e+2, -203938.25, -493198.5, 47821.676, -0.10731698, 0.09600669, -196237.2, 48002.156, 0.0000055002247, 10.001398, 9.997594 
1.13502756e+3, 2.850764e+2, -69934.16, -413011.84, -46514.64, -0.121442035, 0.21336198, -63739.53, 82519.23, 0.000033703815, 10.001804, 9.997271 
1.13502406e+3, 2.9507342e+2, 117674.03, -266537.56, -27261.68, -0.06659799, 0.14245172, 119598.734, 167890.08, 0.00013271971, 10.002384, 9.997324 
1.1350199e+3, 3.0507082e+2, 232988.78, -61224.176, -79425.15, -0.0018329801, 0.10371772, 253060.86, 253060.86, 0.00037893685, 10.002352, 9.998418 
1.1350147e+3, 3.1506932e+2, 136629.97, -55815.88, 4664.3975, 0.0035066502, 0.07385143, 136742.95, 136742.95, 0.0007912106, 10.001369, 9.998936 
1.14508815e+3, 1.2508927e+2, -1799099.0, -1730026.9, -7485.078, 0.03825825, -0.05673505, -1729225.0, -15098.317, 0.0013373722, 9.999234, 10.000254 
1.1450836e+3, 1.3509105e+2, -1589767.1, -1579807.9, -57225.42, -0.011226506, 0.06417085, -1527345.8, 88764.97, 0.000672049, 10.000032, 10.000242 
1.14508376e+3, 1.4509185e+2, -1483907.0, -1534835.4, 22182.93, 0.30490053, 0.15356547, -1475599.8, 42504.703, 0.0002032588, 10.000348, 9.999688 
1.14507824e+3, 1.5509097e+2, -1388623.9, -1441913.9, 25676.373, 0.035001855, 0.06561628, -1378265.8, 41849.004, 0.000019742625, 10.000361, 9.999644 
1.1450737e+3, 1.650911e+2, -1236221.3, -1238757.8, 7901.029, -0.05809993, 0.08444501, -1229487.4, 92625.445, 0.000000013934886, 10.000384, 10.000362 
1.1450708e+3, 1.7509182e+2, -1114535.0, -1123894.5, -10064.937, 0.061772723, 0.08517936, -1108115.1, 115987.46, 0.0, 10.000535, 10.0004 
1.1450669e+3, 1.85092e+2, -1119472.0, -1167906.5, 44857.46, 0.0438602, 0.11096373, -1092712.1, 33388.91, 0.0, 10.000217, 9.999581 
1.1450618e+3, 1.9509135e+2, -1129759.0, -1116788.1, 51432.605, -0.12994616, 0.055858973, -1071433.6, -43322.883, 0.0, 9.99946, 9.999618 
1.1450576e+3, 2.050915e+2, -947938.25, -946088.3, 12804.903, -0.14178178, 0.09882255, -934175.0, -4065.894, 0.0, 9.9998665, 9.99994 
1.1450545e+3, 2.1509208e+2, -631572.5, -742082.25, -25650.586, 0.021652251, 0.1292505, -625909.0, 206190.67, 0.0, 10.001366, 9.999947 
1.14505105e+3, 2.2509116e+2, -606803.6, -881797.0, 36344.098, 0.09768319, 0.14243986, -602081.4, 132025.66, 0.0, 10.001757, 9.998112 
1.1450474e+3, 2.3508845e+2, -594586.5, -821256.44, 37967.18, 0.08147667, 0.027678993, -588396.06, 47737.863, 0.0, 10.001149, 9.998145 
1.14504345e+3, 2.4508591e+2, -458344.2, -666060.7, 52464.605, 0.029467305, -0.054260463, -445844.94, 92311.56, 0.0, 10.001233, 9.998505 
1.1450393e+3, 2.5508326e+2, -247950.86, -508117.3, 7150.8467, -0.043263797, -0.20313038, -247754.45, 192422.48, 0.0, 10.001995, 9.998544 
1.1450358e+3, 2.6508194e+2, -222996.73, -591291.94, 26994.777, -0.08012969, -0.12022697, -221028.63, 121162.6, 0.00000038376965, 10.0021, 9.997261 
1.1450329e+3, 2.7508146e+2, -205849.22, -533605.75, 21348.242, -0.080878004, 0.07069901, -204464.56, 39739.004, 0.0000075917305, 10.001548, 9.997248 
1.1450295e+3, 2.850797e+2, -79499.47, -368023.34, 39147.02, -0.08001112, 0.15406926, -74282.33, 71942.47, 0.000041535674, 10.001523, 9.99772 
1.1450262e+3, 2.950766e+2, 76065.71, -235537.05, 55953.594, -0.039264612, 0.033352856, 85808.51, 134063.72, 0.00014998692, 10.001884, 9.997778 
1.1450224e+3, 3.0507436e+2, 259798.97, -45324.305, 6206.87, 0.030674625, 0.0053564715, 259925.19, 259925.19, 0.00040887797, 10.002487, 9.998465 
1.14501745e+3, 3.1507412e+2, 362845.03, 64021.246, -21007.39, 0.07718139, 0.09236062, 364314.63, 364314.63, 0.0008407425, 10.00288, 9.999019 
1.15508765e+3, 1.2509303e+2, -1835752.9, -1795399.1, -122171.83, -0.004656297, 0.048583396, -1691749.3, 22341.936, 0.001489488, 9.999195, 9.999818 
1.15508325e+3, 1.3509223e+2, -1603060.8, -1601171.0, -11365.731, -0.089836225, -0.07155315, -1590710.9, 25390.615, 0.00075867696, 10.000019, 10.00009 
1.1550827e+3, 1.4509295e+2, -1424011.6, -1417150.9, 4746.2334, 0.12705801, -0.022000844, -1414725.1, 103370.59, 0.0002361324, 10.00036, 10.000502 
1.15507804e+3, 1.5509543e+2, -1324488.9, -1315651.9, 39870.727, -0.06358628, 0.13783439, -1279955.5, 140116.03, 0.000024990082, 10.000378, 10.00051 
1.15507394e+3, 1.6509596e+2, -1243188.8, -1248273.0, -4529.216, -0.11298678, 0.15625048, -1240537.0, 81527.53, 0.000000023716384, 10.00037, 10.0002985 
1.1550714e+3, 1.7509443e+2, -1129751.1, -1139883.8, 10800.217, 0.0323277, -0.061512496, -1122888.0, 101188.01, 0.0, 10.000477, 10.000312 
1.1550672e+3, 1.850945e+2, -1088106.0, -1088283.3, -699.65375, 0.025511418, -0.06858836, -1087489.4, 38584.61, 0.0, 10.000153, 10.000159 
1.1550614e+3, 1.9509575e+2, -1103054.5, -1040291.6, 34601.63, -0.14669684, 0.0018786731, -1024960.44, 3102.814, 0.0, 9.999362, 10.000191 
1.1550574e+3, 2.0509584e+2, -1010417.75, -1042783.06, 47088.35, -0.1772626, 0.040817473, -976808.94, -46747.0, 0.0, 9.9997225, 9.999346 
1.1550552e+3, 2.1509448e+2, -703437.4, -845131.5, 44263.316, -0.061249413, -0.062318552, -690746.75, 141326.38, 0.0, 10.001157, 9.999343 
1.1550523e+3, 2.2509335e+2, -604589.7, -829619.4, -1888.105, 0.037621085, -0.06335549, -604573.9, 129508.836, 0.0, 10.001554, 9.998567 
1.1550492e+3, 2.3509216e+2, -592388.2, -773503.5, 30328.516, 0.12037015, -0.0714103, -587444.5, 48648.87, 0.0, 10.000964, 9.998563 
1.15504526e+3, 2.4509084e+2, -539477.06, -790217.6, 61253.52, 0.058193088, -0.0123226335, -525313.5, 12792.583, 0.0, 10.001041, 9.997744 
1.15504056e+3, 2.550891e+2, -328649.5, -635919.4, 48794.867, -0.15081105, 0.0036228085, -321086.94, 119036.234, 0.0, 10.001818, 9.997752 
1.1550368e+3, 2.6508668e+2, -228871.77, -563269.0, -7401.853, -0.20529103, 0.0023654255, -228708.0, 113439.83, 0.0000005356376, 10.001932, 9.997529 
1.15503445e+3, 2.750832e+2, -203189.55, -493609.22, 20172.64, -0.11269606, -0.13094144, -201795.05, 42387.773, 0.000008957139, 10.0014, 9.99759 
1.1550316e+3, 2.8508136e+2, -31071.93, -232974.16, 39875.973, -0.053026468, -0.12719014, -23481.713, 122718.39, 0.000047577858, 10.001377, 9.998715 
1.1550287e+3, 2.950805e+2, 127357.586, -114045.44, 96549.09, -0.030067177, -0.12498124, 161221.86, 209427.27, 0.00016516355, 10.001806, 9.998656 
1.1550249e+3, 3.0507886e+2, 178081.5, -171739.36, 11796.924, 0.0024085315, -0.09516919, 178478.88, 178478.88, 0.00043857994, 10.002319, 9.997664 
1.15501955e+3, 3.1507814e+2, 281382.16, -59424.293, 46457.91, -0.07380371, 0.0188568, 287601.7, 287601.7, 0.0008950193, 10.0026865, 9.998257 
1.16508715e+3, 1.250976e+2, -1797243.9, -1788889.8, 22596.807, 0.027412485, 0.04723651, -1770087.3, -56043.65, 0.0016512593, 9.9995165, 9.999696 
1.16508365e+3, 1.350966e+2, -1608853.3, -1623320.9, 131513.98, -0.037225816, -0.07025827, -1484374.3, 131681.64, 0.0008513687, 10.000086, 9.999899 
1.1650823e+3, 1.450968e+2, -1460316.4, -1427932.8, 125603.2, 0.068149656, -0.066760875, -1317482.0, 200573.6, 0.00027198074, 10.000097, 10.000545 
1.165078e+3, 1.5509921e+2, -1414632.1, -1356769.1, 63308.977, -0.054879684, 0.08242202, -1316094.1, 103938.4, 0.00003101119, 9.999752, 10.000526 
1.1650741e+3, 1.6509992e+2, -1357114.6, -1289781.5, 32209.563, -0.08373806, 0.11161099, -1276855.1, 45169.13, 0.00000004774233, 9.999526, 10.000425 
1.1650713e+3, 1.7509872e+2, -1265890.4, -1196660.8, 26768.447, 0.025868261, -0.07941736, -1187517.9, 36514.75, 0.0, 9.999483, 10.000416 
1.1650674e+3, 1.8509883e+2, -1150496.5, -1124474.6, 29270.77, 0.051367655, -0.08625599, -1105453.4, 20576.924, 0.0, 9.999743, 10.000109 
1.1650624e+3, 1.9509993e+2, -953307.8, -974629.1, -10364.075, -0.032952074, -0.023944357, -949100.25, 78920.23, 0.0, 10.000414, 10.000141 
1.1650587e+3, 2.0509975e+2, -877607.06, -1011431.9, 52279.563, -0.05864266, 0.0062135123, -859605.3, 70416.96, 0.0, 10.000796, 9.999028 
1.1650565e+3, 2.1509804e+2, -760982.06, -899612.06, 29852.24, -0.02215615, -0.105163515, -754827.0, 77211.164, 0.0, 10.000909, 9.999068 
1.1650535e+3, 2.2509696e+2, -669126.8, -850329.4, -23336.482, 0.02242605, -0.09274953, -666169.7, 67877.76, 0.0, 10.001055, 9.998674 
1.1650498e+3, 2.3509613e+2, -548757.1, -741794.06, -41159.73, 0.08479983, -0.07443022, -540347.4, 95706.57, 0.0, 10.001207, 9.998674 
1.16504624e+3, 2.4509497e+2, -526007.8, -806632.8, 51983.77, 0.05880275, 0.007281986, -516687.72, 21377.717, 0.0, 10.001232, 9.997536 
1.1650428e+3, 2.5509328e+2, -439948.84, -713140.2, 46838.934, -0.059671283, 0.04752104, -432141.38, 7942.7866, 0.0, 10.001147, 9.997547 
1.1650395e+3, 2.6509076e+2, -311639.72, -555600.25, 24506.12, -0.1013917, 0.028304214, -309202.38, 32906.613, 0.00000056359414, 10.001168, 9.997946 
1.1650361e+3, 2.750872e+2, -198655.98, -444854.25, 25504.04, -0.06033497, -0.15476537, -196041.75, 48100.52, 0.00000928475, 10.001252, 9.997994 
1.16503306e+3, 2.850854e+2, -36873.23, -230060.5, 57267.51, -0.029882737, -0.16783729, -21173.06, 124984.266, 0.000050789153, 10.001294, 9.99878 
1.1650303e+3, 2.9508492e+2, 41096.977, -144319.66, 6200.866, -0.0062084333, -0.1350905, 41304.12, 89462.61, 0.00017624088, 10.001174, 9.998746 
1.1650271e+3, 3.05083e+2, 88971.34, -253149.1, -24904.193, 0.025902929, -0.11896086, 90774.71, 90774.71, 0.0004642717, 10.001853, 9.99735 
1.16502255e+3, 3.1508178e+2, 282550.56, -78509.35, -3292.5227, -0.024999928, -0.015846694, 282580.6, 282580.6, 0.0009430791, 10.002762, 9.998116 
1.17508605e+3, 1.2510273e+2, -1794390.6, -1756784.4, 17693.635, -0.10890118, -0.0998154, -1749768.4, -35782.184, 0.0018234614, 9.999435, 9.999949 
1.17508486e+3, 1.3510412e+2, -1630996.3, -1667720.1, 164519.56, 0.037995674, 0.056270596, -1483817.1, 132157.03, 0.0009506097, 10.000092, 9.999592 
1.1750819e+3, 1.4510335e+2, -1516743.9, -1535711.6, 95047.18, -0.024834858, 0.013697989, -1430708.6, 87275.68, 0.00031097958, 10.000062, 9.999816 
1.175078e+3, 1.5510245e+2, -1470389.4, -1470044.3, 67067.414, -0.07030956, -0.09383492, -1403149.3, 16847.16, 0.00003785508, 9.999741, 9.999752 
1.17507376e+3, 1.6510293e+2, -1347143.9, -1263935.6, 11922.459, -0.10801258, -0.054611966, -1262261.0, 59731.02, 0.00000010132158, 9.999504, 10.000609 
1.17506996e+3, 1.7510459e+2, -1257007.4, -1166263.9, 40479.793, -0.078098334, 0.010411813, -1150831.0, 73142.95, 0.0, 9.999433, 10.000647 
1.1750669e+3, 1.8510503e+2, -1202690.4, -1219188.1, 36762.21, -0.007905068, 0.054527506, -1173263.0, -47293.406, 0.0, 9.999686, 9.999487 
1.1750643e+3, 1.9510396e+2, -1012379.9, -1075297.9, 32643.367, 0.08675975, -0.034578107, -998503.94, 29477.723, 0.0, 10.000316, 9.999499 
1.1750613e+3, 2.0510331e+2, -906671.9, -1039065.4, 38825.14, 0.083981566, -0.014137703, -896126.2, 33862.836, 0.0, 10.000657, 9.998904 
1.17505796e+3, 2.1510272e+2, -796940.6, -934333.75, 47237.95, 0.008963236, -0.00012173979, -782266.7, 49728.152, 0.0, 10.000728, 9.998921 
1.1750539e+3, 2.2510181e+2, -710098.4, -885016.2, -35676.52, -0.07144172, 0.043362785, -703101.56, 30901.275, 0.0, 10.00084, 9.998538 
1.1750488e+3, 2.3510034e+2, -587983.25, -769772.2, -19082.463, -0.161374, 0.007920082, -586001.75, 50013.688, 0.0, 10.000984, 9.998584 
1.1750461e+3, 2.4509838e+2, -537886.0, -784639.9, 33404.387, -0.1020694, 0.0024823314, -533443.8, 4589.993, 0.0, 10.001025, 9.997791 
1.1750459e+3, 2.5509572e+2, -437368.9, -674086.3, 59453.145, 0.10293268, -0.083354004, -423275.9, 16784.6, 0.0, 10.000999, 9.997885 
1.17504306e+3, 2.6509416e+2, -300362.78, -499716.56, 10638.168, 0.1233292, -0.048118155, -299796.7, 42278.734, 0.0000005132723, 10.001025, 9.9984045 
1.1750377e+3, 2.7509326e+2, -185052.9, -391258.4, 46982.066, -0.058061853, -0.013560744, -174853.0, 69230.01, 0.000009286575, 10.001139, 9.998421 
1.1750336e+3, 2.8509176e+2, -123194.4, -376732.47, 40072.086, -0.14219539, 0.03437604, -117011.71, 29084.906, 0.000051726838, 10.001158, 9.997837 
1.1750308e+3, 2.950895e+2, -24668.648, -266602.78, 22654.377, -0.12127366, -0.022205375, -22565.605, 25552.4, 0.00018255804, 10.001101, 9.997944 
1.1750287e+3, 3.0508652e+2, 84324.97, -221192.88, 1951.1187, -0.025782414, -0.09691027, 84337.43, 84337.43, 0.00047999644, 10.001697, 9.997636 
1.17502585e+3, 3.150853e+2, 291925.6, 3866.5688, 72594.9, -0.03250603, -0.019530088, 309186.25, 309186.25, 0.0009686636, 10.002517, 9.998787 
1.18508585e+3, 1.251065e+2, -1713370.5, -1678135.6, -102504.47, -0.07939576, -0.09897035, -1591745.6, 122204.2, 0.0020081834, 9.999793, 10.000328 
1.18508495e+3, 1.3510773e+2, -1790683.1, -1745400.9, -35975.02, 0.11752035, 0.030961944, -1725535.3, -109598.59, 0.0010574218, 9.998973, 9.999608 
1.1850808e+3, 1.4510688e+2, -1718881.1, -1651820.3, -21097.03, -0.052038774, -0.010162737, -1645735.4, -127788.29, 0.00035351914, 9.998739, 9.999663 
1.1850777e+3, 1.5510601e+2, -1537681.6, -1512661.3, -42967.97, -0.035747916, -0.10322437, -1480419.3, -60458.188, 0.00004562391, 9.999327, 9.999661 
1.18507385e+3, 1.6510671e+2, -1307113.5, -1235391.1, -39562.063, -0.047719214, -0.040049896, -1217855.9, 104099.586, 0.00000019883093, 9.999737, 10.000701 
1.1850698e+3, 1.7510873e+2, -1154926.0, -1100935.6, -54348.664, -0.055316154, 0.04937011, -1067247.0, 156686.4, 0.0, 10.000069, 10.000785 
1.185067e+3, 1.8510917e+2, -1115259.9, -1211836.9, -6112.516, 0.0053531122, 0.10121505, -1114874.5, 11054.853, 0.0, 10.000434, 9.999179 
1.18506506e+3, 1.9510773e+2, -950785.8, -1076055.9, -21469.367, 0.11777117, 0.0036782369, -947208.44, 80737.34, 0.0, 10.000869, 9.9992285 
1.1850622e+3, 2.0510688e+2, -861775.1, -1024285.25, 12570.339, 0.11533293, 0.023155237, -860808.56, 69146.625, 0.0, 10.000991, 9.998858 
1.1850588e+3, 2.151063e+2, -782932.2, -925856.4, 1761.3346, 0.021971105, 0.043986704, -782910.5, 49050.45, 0.0, 10.000829, 9.998932 
1.1850548e+3, 2.2510535e+2, -679951.2, -865794.56, -26118.904, -0.0620752, 0.08089696, -676350.2, 57619.18, 0.0, 10.001029, 9.998573 
1.18505016e+3, 2.3510371e+2, -504466.63, -725942.44, -35079.098, -0.1460672, 0.025111299, -499043.3, 136940.11, 0.0, 10.001538, 9.998614 
1.18504785e+3, 2.4510176e+2, -421296.75, -701417.4, 38501.92, -0.066043206, 0.0029438958, -416101.13, 121900.32, 0.0, 10.001714, 9.998031 
1.18504785e+3, 2.5509915e+2, -336457.63, -607624.5, 30105.62, 0.17306924, -0.09477662, -333155.44, 106871.164, 0.0, 10.001611, 9.9980545 
1.185045e+3, 2.6509783e+2, -252182.44, -464088.66, -12710.875, 0.20484735, -0.04800049, -251422.72, 90616.31, 0.0000005059796, 10.00132, 9.998497 
1.1850393e+3, 2.7509737e+2, -227667.14, -405791.78, -43844.754, 0.01417215, 0.024167884, -217459.83, 26582.86, 0.000009353779, 10.000825, 9.998469 
1.1850349e+3, 2.850959e+2, -146748.22, -421008.13, 22221.504, -0.10642961, 0.08333776, -144959.42, 1097.9518, 0.000051580555, 10.001151, 9.997526 
1.18503235e+3, 2.9509327e+2, 122543.57, -233310.55, 15714.986, -0.1266651, 0.02390344, 123236.22, 171320.27, 0.00018437536, 10.002285, 9.997598 
1.18503064e+3, 3.0508992e+2, 207694.0, -131133.98, 14044.107, -0.02110182, -0.07810476, 208275.13, 208275.13, 0.0004810056, 10.002394, 9.997922 
1.1850282e+3, 3.1508878e+2, 121186.1, -35076.098, 20343.244, 0.03523309, -0.022994783, 123791.09, 123791.09, 0.0009623852, 10.001121, 9.999201 
1.1950871e+3, 1.2510924e+2, -1669378.3, -1585002.5, -87414.08, 0.008108239, 0.070280686, -1530128.4, 183802.6, 0.0022081332, 9.999787, 10.000962 
1.1950836e+3, 1.351074e+2, -1750938.4, -1669248.3, -56279.473, 0.049964406, -0.16276568, -1640554.1, -24610.572, 0.0011730703, 9.998989, 10.000121 
1.1950789e+3, 1.4510743e+2, -1691374.5, -1593193.5, -19120.62, -0.1736277, -0.16020969, -1589601.3, -71657.33, 0.00040013902, 9.998736, 10.000067 
1.195077e+3, 1.5510996e+2, -1505812.4, -1452826.4, -5017.843, -0.07100569, 0.045985173, -1452355.4, -32429.498, 0.00005450229, 9.999347, 10.000064 
1.1950741e+3, 1.6511135e+2, -1304437.6, -1231221.0, -47359.21, -0.033443984, 0.15110096, -1207970.6, 113943.15, 0.00000035173326, 9.999738, 10.000732 
1.1950705e+3, 1.7511134e+2, -1161487.0, -1107038.6, -27865.898, -0.027410101, 0.040859077, -1095305.6, 128604.16, 0.0, 10.0000305, 10.000767 
1.19506724e+3, 1.8511139e+2, -1126252.9, -1219864.3, -6513.834, -0.04051428, 0.0578843, -1125801.8, 106.92411, 0.0, 10.000373, 9.999151 
1.1950645e+3, 1.951112e+2, -969674.1, -1088889.5, 9145.513, -0.06542579, 0.088212, -968976.6, 58936.426, 0.0, 10.000752, 9.999197 
1.1950615e+3, 2.0511048e+2, -875467.56, -1017055.56, -12026.268, -0.0896565, 0.1128232, -874453.4, 55467.684, 0.0, 10.000841, 9.998976 
1.1950586e+3, 2.1510889e+2, -805250.5, -925390.8, 10618.236, -0.106565274, 0.020725975, -804319.25, 27616.371, 0.0, 10.0006275, 9.999031 
1.1950559e+3, 2.2510763e+2, -702789.8, -862374.94, -24489.879, -0.07567056, 0.01537589, -699116.2, 34830.49, 0.0, 10.000811, 9.9987 
1.19505346e+3, 2.3510638e+2, -523132.66, -716045.5, -4297.9956, 0.00659357, -0.016713113, -523036.94, 112919.92, 0.0, 10.001335, 9.998776 
1.1950508e+3, 2.4510519e+2, -437286.56, -690479.8, 16913.465, 0.03881308, 0.020789606, -436161.72, 101805.63, 0.0, 10.00152, 9.998205 
1.1950481e+3, 2.551037e+2, -350470.78, -590019.0, 41453.066, 0.016434528, 0.018011427, -343500.28, 96480.9, 0.0, 10.001415, 9.998268 
1.1950447e+3, 2.6510194e+2, -307629.38, -541285.25, -45314.164, 0.015248953, 0.030089786, -299149.13, 42849.23, 0.0000006389743, 10.00115, 9.998054 
1.1950405e+3, 2.7509958e+2, -272417.53, -467027.3, -43628.676, 0.031397093, -0.047104735, -263084.22, -19062.795, 0.000009301616, 10.000694, 9.998111 
1.19503714e+3, 2.850978e+2, -142582.58, -391657.13, 51858.3, -0.03567243, -0.011424159, -132216.86, 13822.321, 0.00005191434, 10.001054, 9.99778 
1.1950345e+3, 2.9509616e+2, 122529.39, -210634.05, 81403.484, -0.17501236, -0.0010152109, 141355.31, 189411.56, 0.00018470343, 10.002173, 9.997812 
1.19503245e+3, 3.0509335e+2, 183147.03, -132270.08, -39067.113, -0.099122584, -0.062027156, 187913.78, 187913.78, 0.0004730737, 10.002194, 9.998002 
1.1950288e+3, 3.1509218e+2, 96490.625, -25478.975, 21512.137, -0.086630724, -0.02781992, 100173.58, 100173.58, 0.0009339275, 10.000873, 9.999376 
1.2050866e+3, 1.2511173e+2, -1872792.8, -1678806.8, 61401.33, 0.06736558, 0.12543373, -1661005.3, 52902.977, 0.0024257244, 9.998386, 10.001002 
1.2050823e+3, 1.3510963e+2, -1699624.6, -1604659.9, -27785.734, 0.019132523, -0.1556527, -1597127.5, 18795.863, 0.0012988481, 9.9991865, 10.000466 
1.2050784e+3, 1.4511016e+2, -1584841.1, -1513269.6, 49035.91, -0.1191457, -0.13785094, -1488350.1, 29567.8, 0.00045139206, 9.999336, 10.000329 
1.2050764e+3, 1.5511282e+2, -1500953.8, -1418798.4, 10270.739, -0.049386222, 0.05506911, -1417533.8, 2361.8582, 0.00006471426, 9.999242, 10.000349 
1.2050738e+3, 1.6511387e+2, -1371660.3, -1308395.8, -7018.096, -0.016152361, 0.13341738, -1307626.5, 14259.579, 0.00000057087306, 9.999481, 10.000314 
1.2050708e+3, 1.7511304e+2, -1167752.9, -1150277.4, -52609.31, 0.00054767344, -0.01960524, -1105685.1, 118206.45, 0.0, 10.000177, 10.000385 
1.20506786e+3, 1.8511286e+2, -1096101.3, -1202810.3, -18093.691, -0.025246518, -0.007034318, -1093116.8, 32776.3, 0.0, 10.000574, 9.999168 
1.2050648e+3, 1.9511297e+2, -968516.75, -1079939.4, -28321.234, -0.09191001, 0.048295487, -961731.3, 66162.516, 0.0, 10.000733, 9.999258 
1.20506205e+3, 2.0511247e+2, -896133.56, -1032442.1, -37065.348, -0.10979272, 0.093138136, -886706.6, 43192.92, 0.0, 10.000699, 9.998943 
1.2050593e+3, 2.15111e+2, -825776.6, -942335.4, -58245.203, -0.07791785, 0.01569323, -801660.7, 30252.803, 0.0, 10.0004835, 9.998995 
1.205057e+3, 2.2510968e+2, -737276.2, -894778.75, -46332.324, -0.02420856, 0.013837937, -724657.6, 9268.632, 0.0, 10.000644, 9.998563 
1.2050552e+3, 2.3510821e+2, -551484.25, -747421.56, -77289.95, 0.057047408, -0.024015984, -524666.7, 111273.99, 0.0, 10.001215, 9.998626 
1.2050525e+3, 2.4510723e+2, -462998.7, -646658.94, -66069.61, 0.07455983, 0.0181756, -441700.72, 96248.266, 0.0, 10.00112, 9.99868 
1.20504886e+3, 2.5510636e+2, -471109.75, -597444.5, -55105.1, 0.0091255475, 0.028092299, -450451.78, -10496.836, 0.00000000020898414, 10.000374, 9.998709 
1.2050454e+3, 2.651046e+2, -361177.9, -584148.7, -52843.195, -0.0016603724, 0.025791785, -349288.28, -7316.863, 0.00000074892756, 10.000849, 9.997902 
1.2050422e+3, 2.751017e+2, -19844.307, -364622.97, -64208.59, 0.043742377, -0.09154294, -8274.88, 235725.6, 0.000009032264, 10.002492, 9.997948 
1.2050392e+3, 2.8509992e+2, 85926.15, -249328.5, 36976.5, -0.0029015073, -0.061255723, 89955.99, 235974.48, 0.000052136886, 10.0025, 9.99806 
1.2050363e+3, 2.9509893e+2, -58790.766, -263420.1, 24407.914, -0.13678478, -0.009259785, -55919.703, -7890.1304, 0.0001849306, 10.000812, 9.998096 
1.20503396e+3, 3.0509686e+2, -18138.734, -188086.36, -40226.348, -0.07699699, -0.030060286, -9098.145, -9098.145, 0.0004665325, 10.000626, 9.998372 
1.20502956e+3, 3.1509608e+2, 207578.58, 92272.1, -21447.092, -0.10358915, 0.0065975715, 211438.53, 211438.53, 0.00090606173, 10.001389, 9.999924 
1.21508434e+3, 1.2511316e+2, -1912544.4, -1750884.1, 37706.18, -0.07615386, -0.010614816, -1742522.0, -28632.332, 0.0026624324, 9.998369, 10.000505 
1.21508054e+3, 1.3511452e+2, -1695872.8, -1595249.0, 7894.6826, -0.092210434, 0.048491355, -1594633.4, 21242.64, 0.0014356553, 9.999186, 10.000533 
1.2150791e+3, 1.4511505e+2, -1568009.3, -1477743.3, 23042.254, -0.02239326, 0.050926223, -1472201.5, 45667.516, 0.0005075534, 9.999338, 10.00057 
1.21507555e+3, 1.5511462e+2, -1490332.6, -1398970.5, 24712.273, -0.096283525, -0.08437754, -1392714.5, 27155.578, 0.000076397075, 9.999248, 10.000486 
1.2150725e+3, 1.651143e+2, -1430834.3, -1429142.6, 1958.3519, -0.13699776, -0.10480001, -1427855.3, -105982.555, 0.0000008702971, 9.999479, 9.99948 
1.2150704e+3, 1.7511384e+2, -1234789.9, -1276666.6, -12497.125, -0.090714194, -0.13686654, -1231343.9, -7465.017, 0.0, 10.000123, 9.999544 
1.21506825e+3, 1.8511355e+2, -1092930.1, -1182948.3, -29574.982, -0.077342086, -0.10355259, -1084082.9, 41799.883, 0.0, 10.000517, 9.999333 
1.2150658e+3, 1.9511311e+2, -976229.56, -1070011.3, -7355.8438, -0.0973371, -0.11910538, -975656.1, 52231.324, 0.0, 10.00062, 9.999383 
1.21506326e+3, 2.0511296e+2, -932233.94, -1069856.9, -63995.133, -0.078630134, -0.034283604, -907075.2, 22814.834, 0.0, 10.000541, 9.99876 
1.21506065e+3, 2.151128e+2, -868793.0, -979024.5, -52806.777, -0.020889398, 0.03486753, -847578.56, -15685.313, 0.0, 10.000259, 9.998848 
1.2150579e+3, 2.2511168e+2, -796789.4, -973334.1, -42196.07, -0.032225523, 0.07925706, -787222.5, -53315.504, 0.0, 10.000442, 9.998126 
1.2150549e+3, 2.3510931e+2, -607312.1, -819241.2, -40153.47, -0.10935217, -0.0044007874, -599959.5, 35974.08, 0.0, 10.0010195, 9.998228 
1.2150522e+3, 2.4510795e+2, -450693.38, -566415.44, -106794.24, -0.08765222, -0.014607737, -387092.84, 150852.69, 0.0, 10.000886, 9.999342 
1.2150497e+3, 2.5510722e+2, -448864.2, -513697.63, -67128.51, 0.03152995, -0.060463894, -406735.1, 33211.758, 0.00000000018849695, 10.000213, 9.999359 
1.2150469e+3, 2.6510593e+2, -375748.47, -578755.44, -6152.1025, 0.033635218, -0.052309055, -375562.2, -33605.07, 0.00000061447383, 10.0006895, 9.998021 
1.2150438e+3, 2.751037e+2, -29655.664, -355092.0, 15045.638, -0.078979194, -0.1121871, -28961.553, 215018.14, 0.000008322687, 10.002352, 9.998086 
1.2150405e+3, 2.851023e+2, 64149.848, -242257.28, -39949.96, -0.14484479, -0.061918836, 69272.945, 215267.84, 0.000050710027, 10.002291, 9.998204 
1.21503726e+3, 2.951015e+2, -64601.66, -244069.83, -14191.012, -0.15562408, -0.005023414, -63486.47, -15481.782, 0.00018357177, 10.000683, 9.998286 
1.21503495e+3, 3.0510026e+2, -359.4682, -116323.55, -21424.861, -0.079992816, 0.019557998, 3472.2578, 3472.2578, 0.00046227945, 10.0004835, 9.998936 
1.2150299e+3, 3.1510013e+2, 233303.48, 204642.92, 43599.305, -0.27122784, 0.06775053, 264867.16, 264867.16, 0.000888819, 10.001144, 10.0008135 
1.2250842e+3, 1.251147e+2, -1801139.9, -1735130.3, -1507.2448, 0.052371766, -0.063756876, -1735095.9, -21223.295, 0.0029179724, 9.9992695, 10.000187 
1.2250796e+3, 1.3511686e+2, -1665416.1, -1595984.6, -58969.332, -0.10391828, 0.09239337, -1562271.1, 53581.977, 0.0015834377, 9.99946, 10.000397 
1.2250791e+3, 1.451171e+2, -1557955.1, -1501326.8, -47143.016, 0.03992395, 0.08486481, -1474648.6, 43201.055, 0.00056846405, 9.999537, 10.000309 
1.2250754e+3, 1.5511577e+2, -1425495.9, -1383243.1, -118689.234, -0.050816603, -0.122199975, -1283814.6, 136044.22, 0.00008951281, 9.999788, 10.000315 
1.2250724e+3, 1.6511531e+2, -1394605.1, -1439197.4, -82826.055, -0.10583935, -0.13922481, -1331126.8, -9263.538, 0.0000012652538, 9.999811, 9.999278 
1.2250703e+3, 1.7511538e+2, -1309069.9, -1330561.0, -76384.24, -0.083401315, -0.09881588, -1242679.0, -18813.36, 0.0, 9.999671, 9.999407 
1.2250685e+3, 1.851152e+2, -1173141.6, -1201517.6, -33722.516, -0.056269374, -0.057988197, -1150744.0, -24875.46, 0.0, 9.999866, 9.999529 
1.2250669e+3, 1.9511442e+2, -988915.2, -1056219.4, -42164.848, -0.03701637, -0.124681644, -968619.75, 59255.574, 0.0, 10.000437, 9.999578 
1.2250645e+3, 2.0511407e+2, -879135.9, -1021638.2, -62824.664, -0.016707253, -0.07942165, -855394.06, 74484.65, 0.0, 10.000825, 9.998946 
1.2250615e+3, 2.1511382e+2, -746247.1, -896437.6, -57999.652, 0.0035711434, -0.037508205, -726456.9, 105424.75, 0.0, 10.001025, 9.999034 
1.2250584e+3, 2.2511318e+2, -697603.44, -892271.75, 29254.693, -0.026059208, 0.03324016, -693302.06, 40588.215, 0.0, 10.000965, 9.998432 
1.2250557e+3, 2.3511188e+2, -646396.7, -808271.2, 49349.902, -0.1087606, 0.023902908, -632538.06, 3369.5498, 0.0, 10.000606, 9.99851 
1.2250531e+3, 2.4511066e+2, -469823.53, -576476.6, 10678.4795, -0.07431995, 0.013195852, -468764.84, 69153.56, 0.0, 10.000734, 9.999363 
1.22505076e+3, 2.5510925e+2, -282732.44, -430794.16, -25575.445, 0.07283926, -0.100873105, -278439.13, 161486.45, 0.0, 10.00133, 9.999401 
1.22504845e+3, 2.6510802e+2, -225498.2, -493107.06, 75944.75, 0.08057249, -0.09077694, -205448.06, 136487.1, 0.0000003685213, 10.001687, 9.998114 
1.225046e+3, 2.7510664e+2, -114311.914, -380894.44, 56038.11, -0.056913212, -0.07620357, -103011.234, 140939.3, 0.0000073761885, 10.001753, 9.998175 
1.2250425e+3, 2.851052e+2, -21761.035, -300898.53, -45947.855, -0.14073005, -0.029378854, -14392.243, 131573.84, 0.000049087277, 10.001739, 9.998073 
1.2250383e+3, 2.9510352e+2, 44981.406, -213990.95, -71357.1, -0.15183257, -0.04875449, 63341.453, 111324.95, 0.00018153466, 10.0015, 9.998114 
1.225036e+3, 3.0510226e+2, 136037.86, -78737.19, -33202.883, -0.063040726, -0.004568512, 141053.69, 141053.69, 0.00045750884, 10.001557, 9.998665 
1.2250318e+3, 3.1510177e+2, 273130.0, 188490.3, -105676.95, -0.20676336, 0.035546906, 344645.94, 344645.94, 0.0008771986, 10.001534, 10.000522 
1.2350847e+3, 1.2511596e+2, -1784480.5, -1725239.4, -139674.22, 0.0925376, -0.082904786, -1612079.4, 101781.09, 0.0031899144, 9.99935, 10.000225 
1.2350787e+3, 1.3511677e+2, -1683821.9, -1648445.8, -43366.26, -0.17201088, -0.031837977, -1619299.0, -3444.9485, 0.0017411282, 9.999498, 10.000022 
1.2350776e+3, 1.4511628e+2, -1604365.8, -1608831.5, -57151.344, -0.101866215, -0.055229936, -1549403.8, -31543.504, 0.0006337289, 9.999578, 9.9995575 
1.2350758e+3, 1.5511616e+2, -1472645.3, -1489208.5, -97428.734, -0.035562966, -0.06442928, -1383146.9, 36716.047, 0.00010392506, 9.9998045, 9.999592 
1.235073e+3, 1.651167e+2, -1348502.3, -1343753.0, -109678.23, -0.050577242, 0.02097759, -1236423.6, 85435.37, 0.0000017603737, 9.999815, 9.999926 
1.2350701e+3, 1.7511761e+2, -1268634.8, -1246009.9, -68383.41, -0.110693425, 0.081978, -1188009.5, 35842.28, 0.0, 9.99966, 9.999994 
1.2350682e+3, 1.8511774e+2, -1167176.0, -1178613.1, -28167.629, -0.100116074, 0.11594297, -1144152.4, -18301.705, 0.0, 9.99982, 9.999708 
1.2350676e+3, 1.9511686e+2, -990228.5, -1034220.56, -5362.265, -0.036126208, 0.019931823, -989584.3, 38273.23, 0.0, 10.000327, 9.999781 
1.2350653e+3, 2.0511572e+2, -864917.1, -954184.4, -74154.37, -0.043723688, -0.05052926, -823000.0, 106865.77, 0.0, 10.000661, 9.99949 
1.2350615e+3, 2.1511404e+2, -737321.94, -834261.9, -35669.23, -0.1194935, -0.20561224, -725611.94, 106266.35, 0.0, 10.000832, 9.999557 
1.2350587e+3, 2.2511424e+2, -658026.44, -764008.56, 1656.0638, -0.12600632, -0.12732393, -658000.56, 75875.51, 0.0, 10.000762, 9.999414 
1.2350569e+3, 2.3511595e+2, -608019.4, -683473.1, 54245.754, -0.0664977, 0.06545897, -579671.1, 56191.445, 0.0, 10.000407, 9.999465 
1.2350546e+3, 2.4511538e+2, -540900.8, -675086.0, 17788.082, -0.026861688, 0.10495685, -538582.8, -715.72784, 0.0, 10.000524, 9.998788 
1.23505175e+3, 2.551124e+2, -344960.88, -521237.0, 13733.383, 0.0047216634, -0.11024682, -343897.34, 95994.03, 0.0, 10.001157, 9.998867 
1.2350497e+3, 2.6511088e+2, -261725.22, -515145.38, 65633.43, 0.010288279, -0.10555999, -245735.64, 96170.35, 0.00000016286783, 10.001465, 9.99807 
1.2350485e+3, 2.751104e+2, -144317.7, -402252.25, 78327.414, -0.017461432, 0.0039775916, -122395.15, 121519.266, 0.000006622681, 10.001581, 9.99811 
1.2350447e+3, 2.8510845e+2, -71605.83, -361478.3, -65374.395, -0.122418754, 0.026238069, -57544.19, 88389.58, 0.000048750662, 10.001558, 9.997745 
1.2350388e+3, 2.951049e+2, 3084.143, -271923.22, -55796.68, -0.28425533, -0.15029015, 13973.628, 61940.29, 0.00018217463, 10.001369, 9.997784 
1.2350366e+3, 3.0510277e+2, 29413.092, -265957.56, -38474.38, -0.18331818, -0.11728523, 34342.42, 34342.42, 0.00045752534, 10.001414, 9.997447 
1.2350343e+3, 3.1510082e+2, 129250.39, -45450.035, -73668.99, -0.18119514, -0.10009926, 156168.19, 156168.19, 0.0008745043, 10.00127, 9.999034 
1.2450851e+3, 1.2511887e+2, -1662855.1, -1671189.8, -59956.45, 0.16609678, -0.03671634, -1606921.3, 106912.75, 0.003475539, 10.000237, 10.000146 
1.24507934e+3, 1.3511851e+2, -1715369.5, -1710060.4, 2390.1743, -0.055476956, -0.064513266, -1709142.9, -93304.27, 0.0019075654, 9.99948, 9.999607 
1.245077e+3, 1.4511795e+2, -1652388.0, -1635981.8, 78102.85, -0.10272456, -0.07320393, -1565652.4, -47806.734, 0.0007030745, 9.999266, 9.999519 
1.2450758e+3, 1.5511833e+2, -1463611.1, -1494997.5, 53141.277, -0.0042003584, -0.025476946, -1423894.3, -4050.267, 0.00011956255, 9.999891, 9.9995165 
1.24507345e+3, 1.65119e+2, -1294597.5, -1313671.8, 59083.508, -0.0011758532, 0.07427662, -1244286.4, 77552.875, 0.0000023468863, 10.000177, 9.99995 
1.2450704e+3, 1.7511974e+2, -1174424.8, -1196025.5, 22033.902, -0.06288485, 0.11538477, -1160686.5, 63146.883, 0.0, 10.0003, 10.000023 
1.2450686e+3, 1.8511999e+2, -1120761.8, -1161952.4, 64616.594, -0.057444997, 0.16234222, -1073537.6, 52293.86, 0.0, 10.00017, 9.999645 
1.245068e+3, 1.951194e+2, -1067688.9, -1081036.8, 39462.637, 0.000015190223, 0.101902716, -1034339.8, -6502.8306, 0.0, 9.99983, 9.999698 
1.2450658e+3, 2.0511843e+2, -956049.7, -961971.6, -6855.8657, -0.009450878, 0.0368068, -951542.7, -21699.57, 0.0, 9.999874, 9.999814 
1.24506235e+3, 2.1511686e+2, -798363.0, -825052.7, -17776.48, -0.0752696, -0.1436705, -789479.75, 42372.805, 0.0, 10.000239, 9.999905 
1.2450598e+3, 2.2511683e+2, -691085.75, -763849.4, -3423.035, -0.07713053, -0.11100536, -690925.06, 42925.383, 0.0, 10.000493, 9.999531 
1.2450579e+3, 2.35118e+2, -562232.0, -644471.06, -48195.99, -0.021455364, 0.015052452, -539998.0, 95842.69, 0.0, 10.000672, 9.999592 
1.2450556e+3, 2.4511741e+2, -466453.94, -646446.75, -37740.535, 0.004028201, 0.049353004, -458860.9, 78984.43, 0.0, 10.001079, 9.998709 
1.245053e+3, 2.5511494e+2, -274938.25, -492862.03, -38998.605, 0.001526255, -0.1073552, -268169.5, 171696.56, 0.0, 10.001682, 9.998795 
1.2450512e+3, 2.6511356e+2, -246214.06, -522903.34, 21019.924, 0.009440743, -0.075921305, -244626.3, 97253.805, 0.000000050542315, 10.001609, 9.997956 
1.2450499e+3, 2.75113e+2, -260903.58, -478039.28, -3719.8755, 0.019905161, 0.03420351, -260839.88, -16949.07, 0.0000061370592, 10.000827, 9.997973 
1.2450465e+3, 2.851109e+2, -128946.15, -393012.4, -67624.72, -0.06478625, 0.051121283, -112635.586, 33275.715, 0.000049451548, 10.001196, 9.997697 
1.2450413e+3, 2.951071e+2, 186632.73, -180554.14, -76701.305, -0.22897689, -0.14080864, 202010.75, 249955.17, 0.00018750013, 10.002648, 9.997779 
1.2450394e+3, 3.051047e+2, 253787.06, -227418.72, -16575.275, -0.12297771, -0.10399689, 254357.33, 254357.33, 0.000470274, 10.003217, 9.996865 
1.2450373e+3, 3.151015e+2, 283840.53, -82677.7, -70392.81, -0.0673597, -0.15309669, 296895.06, 296895.06, 0.0008943994, 10.002794, 9.99806 
1.2550844e+3, 1.2512408e+2, -1664881.6, -1697784.1, -64976.766, 0.008296513, 0.12471915, -1614305.9, 99480.91, 0.0037739007, 10.000318, 9.99993 
1.255081e+3, 1.3512221e+2, -1743017.9, -1775098.8, -14305.089, 0.14151624, -0.010401253, -1737565.8, -121760.11, 0.0020822603, 9.99951, 9.99915 
1.2550768e+3, 1.4512223e+2, -1603224.6, -1540109.1, 83334.59, -0.09606038, 0.031120446, -1482557.1, 35247.637, 0.0007764397, 9.9992895, 10.000163 
1.2550752e+3, 1.551224e+2, -1416454.0, -1399876.5, 91075.78, -0.09509906, -0.008913632, -1316713.0, 103088.56, 0.00013646827, 9.999906, 10.000159 
1.2550732e+3, 1.651223e+2, -1339284.9, -1413656.8, 42905.27, -0.07949078, 0.017304303, -1319693.5, 2109.455, 0.0000030208696, 10.0002, 9.999258 
1.2550712e+3, 1.7512186e+2, -1221629.9, -1292008.6, 39004.414, -0.04822752, 0.007556523, -1204287.0, 19522.18, 0.0, 10.000285, 9.9993725 
1.2550692e+3, 1.8512192e+2, -1143965.4, -1201342.4, 34217.633, -0.04175994, 0.079848826, -1128001.1, -2189.697, 0.0, 10.000128, 9.9994 
1.2550674e+3, 1.9512205e+2, -1096659.3, -1122922.0, 41989.43, -0.053823892, 0.11559281, -1065795.8, -37982.2, 0.0, 9.999746, 9.999453 
1.2550656e+3, 2.0512222e+2, -973150.56, -958914.94, -9145.904, -0.03623097, 0.1710014, -954443.5, -24633.01, 0.0, 9.99971, 9.999918 
1.2550637e+3, 2.1512221e+2, -823105.94, -827834.25, 11601.708, 0.006422667, 0.1406231, -813629.94, 18174.484, 0.0, 10.000032, 9.99999 
1.255061e+3, 2.2512087e+2, -774915.06, -886479.25, -12570.035, -0.018211033, 0.07412957, -773516.3, -39701.875, 0.0, 10.000272, 9.998794 
1.255058e+3, 2.3511797e+2, -640776.8, -764652.4, -24897.8, -0.096423626, -0.13310412, -635959.94, -117.45283, 0.0, 10.000483, 9.998859 
1.2550558e+3, 2.4511671e+2, -466915.1, -600362.8, -30329.402, -0.1086886, -0.152022, -460345.4, 77507.734, 0.0, 10.000875, 9.999124 
1.2550543e+3, 2.5511673e+2, -277742.1, -456508.13, -820.7325, -0.06090897, -0.097869575, -277738.3, 162111.89, 0.0, 10.001493, 9.999138 
1.2550524e+3, 2.65116e+2, -288967.0, -565557.2, -24456.28, -0.055001073, -0.008719338, -286821.22, 55037.555, 0.00000007625481, 10.001411, 9.997757 
1.2550499e+3, 2.7511433e+2, -295762.1, -513169.22, -12134.589, -0.084099054, 0.010057635, -295086.9, -51206.387, 0.0000061507535, 10.000666, 9.99781 
1.2550476e+3, 2.8511247e+2, -138514.77, -381180.56, -24754.467, -0.11208437, 0.049341176, -136015.3, 9883.417, 0.000051588533, 10.0010605, 9.99784 
1.2550452e+3, 2.951101e+2, 176683.55, -170501.38, -2513.863, -0.1284298, -0.02076015, 176701.75, 224619.08, 0.00020006, 10.002517, 9.997908 
1.2550439e+3, 3.05108e+2, 240042.86, -229916.53, -43895.848, -0.01983788, 0.03723317, 244107.73, 244107.73, 0.00050364254, 10.003103, 9.996899 
1.2550397e+3, 3.1510383e+2, 204393.14, -189655.81, -50507.477, -0.16712914, -0.12045744, 210763.97, 210763.97, 0.00095308194, 10.0025425, 9.997446 
1.2650844e+3, 1.2512645e+2, -1704590.0, -1727900.9, -86280.8, 0.00026263017, 0.15948604, -1629181.0, 84586.04, 0.004085261, 10.00011, 9.99984 
1.2650813e+3, 1.351251e+2, -1638708.0, -1691109.5, -121382.13, 0.19527677, 0.06501864, -1540731.1, 75049.484, 0.0022650692, 10.000116, 9.999427 
1.2650768e+3, 1.4512545e+2, -1493083.0, -1487144.8, 50472.773, -0.043733843, 0.1236425, -1439553.9, 78222.58, 0.00085386867, 10.00005, 10.000165 
1.2650755e+3, 1.5512507e+2, -1350022.9, -1364142.1, -26724.217, -0.07832739, 0.028869491, -1329441.5, 90336.766, 0.00015477135, 10.000362, 10.000183 
1.2650736e+3, 1.651248e+2, -1301567.0, -1366831.0, -44963.293, -0.0572839, 0.026614593, -1278642.4, 43137.66, 0.0000038088367, 10.00035, 9.999497 
1.2650716e+3, 1.7512451e+2, -1214192.6, -1265513.0, -15324.793, -0.019745508, 0.010248384, -1209964.8, 13818.057, 0.0, 10.000239, 9.9995775 
1.2650697e+3, 1.8512443e+2, -1151102.9, -1225662.3, 37966.14, -0.009263918, 0.06703066, -1135173.5, -9387.733, 0.0, 10.000168, 9.999213 
1.2650678e+3, 1.9512418e+2, -1049204.8, -1117384.6, 15255.7705, -0.023754403, 0.085480005, -1045946.9, -18154.943, 0.0, 10.000164, 9.999283 
1.2650661e+3, 2.0512432e+2, -886669.44, -942755.75, 8825.636, 0.010505582, 0.15539943, -885313.44, 44476.95, 0.0, 10.000413, 9.999685 
1.2650648e+3, 2.1512447e+2, -714634.56, -801738.75, -28534.273, 0.07993345, 0.16407935, -706119.5, 125665.05, 0.0, 10.000885, 9.999754 
1.2650622e+3, 2.2512303e+2, -694535.0, -866800.25, -30358.975, 0.053002942, 0.10812896, -689341.3, 44454.605, 0.0, 10.000884, 9.998646 
1.2650587e+3, 2.3511991e+2, -663881.5, -789818.9, -26878.3, -0.054755107, -0.10676504, -658384.9, -22559.266, 0.0, 10.000374, 9.998746 
1.2650566e+3, 2.451186e+2, -549832.94, -650453.0, 23630.625, -0.09028075, -0.12201649, -544559.6, -6722.5073, 0.0, 10.000333, 9.999053 
1.2650554e+3, 2.5511876e+2, -391141.2, -520036.03, -10283.421, -0.055537686, -0.047391683, -390325.9, 49508.44, 0.0, 10.000735, 9.99908 
1.2650537e+3, 2.6511797e+2, -306570.53, -540694.0, -23799.04, -0.038934954, 0.027249448, -304175.8, 37666.465, 0.00000015326442, 10.001157, 9.998049 
1.2650514e+3, 2.7511603e+2, -138675.58, -398808.56, -14181.001, -0.040150892, -0.007354345, -137904.78, 105958.39, 0.0000068361555, 10.001589, 9.998139 
1.2650494e+3, 2.8511426e+2, -45258.426, -329846.72, 48178.74, -0.053738747, 0.016498659, -37323.363, 108556.54, 0.000055437977, 10.00166, 9.997912 
1.265048e+3, 2.9511225e+2, 42334.742, -229989.84, 30931.496, -0.061823428, -0.018756127, 45803.848, 93699.875, 0.00021969865, 10.001551, 9.997978 
1.2650469e+3, 3.0511048e+2, 94929.42, -239319.13, 11731.186, 0.03281388, 0.041894387, 95340.65, 95340.65, 0.00055763713, 10.00187, 9.997416 
1.2650429e+3, 3.151074e+2, 170912.5, -194277.25, -34566.055, -0.09090825, -0.051776264, 174155.45, 174155.45, 0.0010544788, 10.002291, 9.997523 
1.2750855e+3, 1.2512591e+2, -1690501.3, -1714598.5, -39538.277, 0.027496489, 0.06295618, -1661216.5, 52558.797, 0.0044096503, 10.000177, 9.999889 
1.2750794e+3, 1.3512737e+2, -1578505.3, -1570579.1, -115258.02, -0.03703118, 0.16301952, -1459216.0, 156545.9, 0.0024558255, 10.000124, 10.000254 
1.2750767e+3, 1.4512768e+2, -1525455.0, -1569446.3, 43439.69, -0.11233784, 0.20476487, -1498759.6, 18999.947, 0.00093550276, 10.000109, 9.999572 
1.2750761e+3, 1.5512645e+2, -1388887.8, -1452779.4, 901.0055, -0.073446736, 0.08598114, -1388875.0, 30897.27, 0.00017466526, 10.00039, 9.999562 
1.2750743e+3, 1.6512652e+2, -1215612.0, -1202745.0, -66408.22, -0.065248735, 0.090401, -1142459.4, 179310.6, 0.0000047674703, 10.0004015, 10.000604 
1.2750714e+3, 1.7512766e+2, -1137551.0, -1108633.1, -4624.5933, -0.09714932, 0.104622975, -1107911.5, 115843.1, 0.0, 10.000241, 10.000655 
1.2750693e+3, 1.8512748e+2, -1173764.5, -1259429.9, 22727.213, -0.09137925, 0.11301872, -1168108.4, -42353.84, 0.0, 10.0001135, 9.999003 
1.275068e+3, 1.9512582e+2, -1076321.9, -1153351.5, 30998.83, -0.038393427, 0.0055988766, -1065396.6, -37625.008, 0.0, 10.000076, 9.999076 
1.2750666e+3, 2.0512466e+2, -946578.7, -1035915.1, 8802.674, -0.0014424729, -0.014265819, -945719.6, -15936.4375, 0.0, 10.0002775, 9.999112 
1.2750654e+3, 2.1512368e+2, -784751.5, -899161.4, 1932.2582, 0.025581919, -0.06204778, -784718.9, 47073.383, 0.0, 10.000675, 9.9991865 
1.2750632e+3, 2.251235e+2, -693625.44, -810486.5, -65190.04, 0.018822303, 0.0077364645, -664512.44, 69281.32, 0.0, 10.000657, 9.999138 
1.2750597e+3, 2.3512374e+2, -662070.25, -737554.75, -29933.768, -0.022164728, 0.07990169, -651640.9, -15849.889, 0.0, 10.000169, 9.999201 
1.2750572e+3, 2.4512294e+2, -622041.25, -748943.06, 25369.111, -0.07058625, 0.12502901, -617157.6, -79358.95, 0.0, 10.000117, 9.998476 
1.2750559e+3, 2.55121e+2, -455051.03, -605369.25, 23466.826, -0.117806524, 0.041559223, -451472.72, -11654.735, 0.0, 10.000535, 9.998587 
1.2750548e+3, 2.6511958e+2, -285677.78, -452059.13, -21138.12, -0.081523314, 0.037765767, -283034.28, 58795.375, 0.00000020123079, 10.000965, 9.998748 
1.2750539e+3, 2.751182e+2, -121709.31, -317336.66, 20330.143, 0.023375863, -0.0144435065, -119618.88, 124219.71, 0.0000077157165, 10.001398, 9.998789 
1.2750518e+3, 2.8511623e+2, -69179.3, -347311.34, 26661.256, -0.0182781, -0.036050685, -66646.66, 79208.625, 0.000060411407, 10.001518, 9.997859 
1.2750486e+3, 2.9511356e+2, 12457.764, -246471.86, 49433.176, -0.18329474, -0.13416506, 21574.25, 69454.65, 0.00024271311, 10.001361, 9.997953 
1.2750477e+3, 3.0511212e+2, 128084.97, -140133.3, 19038.54, -0.10349593, -0.077631466, 129429.61, 129429.61, 0.00062258844, 10.001736, 9.998162 
1.2750457e+3, 3.1511283e+2, 161247.58, -138377.1, 15311.685, -0.08848792, 0.12373634, 162028.02, 162028.02, 0.0011836756, 10.001989, 9.99804 
1.2850864e+3, 1.2512688e+2, -1789208.6, -1748835.1, 96458.79, 0.13984695, -0.013487734, -1670473.4, 43290.73, 0.0047468157, 9.999407, 10.0000305 
1.2850787e+3, 1.3512936e+2, -1553139.1, -1518587.5, -59159.574, -0.095126435, 0.1528278, -1474232.9, 141507.61, 0.0026545508, 10.000097, 10.000623 
1.2850778e+3, 1.4512949e+2, -1522219.0, -1579039.3, 128975.77, -0.013173214, 0.15891497, -1418561.4, 99179.125, 0.0010215283, 10.000204, 9.999456 
1.2850767e+3, 1.5512858e+2, -1395966.8, -1464004.8, 90264.88, -0.042572908, 0.08669071, -1333523.1, 86227.96, 0.00019628371, 10.000388, 9.999483 
1.2850748e+3, 1.6512868e+2, -1244500.4, -1256429.1, 6082.557, -0.049365174, 0.11677375, -1241945.9, 79803.86, 0.0000059623408, 10.00036, 10.000267 
1.285072e+3, 1.7512964e+2, -1168544.6, -1156858.4, -72007.33, -0.066843614, 0.14604962, -1090457.5, 133280.86, 0.0, 10.000168, 10.000362 
1.2850699e+3, 1.8512933e+2, -1135363.6, -1209667.6, -31233.016, -0.048365023, 0.14139895, -1123979.4, 1759.6041, 0.0, 10.000254, 9.999276 
1.2850688e+3, 1.9512752e+2, -955330.9, -1064303.6, -19454.277, 0.004673227, -0.00628426, -951962.0, 75792.08, 0.0, 10.000785, 9.999346 
1.2850676e+3, 2.0512629e+2, -888386.94, -1038656.9, 6460.962, 0.043811794, -0.0306886, -888109.7, 41656.586, 0.0, 10.000813, 9.998839 
1.2850663e+3, 2.1512535e+2, -849587.44, -954923.6, -7096.316, 0.07220935, -0.047382303, -849111.5, -17333.32, 0.0, 10.00035, 9.99896 
1.285064e+3, 2.2512534e+2, -689974.5, -779566.7, -36612.133, 0.06882108, 0.03811199, -676916.1, 56862.406, 0.0, 10.000564, 9.999393 
1.285061e+3, 2.3512588e+2, -466359.8, -613105.94, -53473.727, 0.033897154, 0.11821345, -448941.66, 186829.1, 0.0, 10.001396, 9.999458 
1.2850587e+3, 2.4512516e+2, -392038.9, -654462.4, 40695.574, -0.0039741853, 0.16394682, -385872.88, 151904.4, 0.0, 10.001768, 9.998326 
1.2850577e+3, 2.5512302e+2, -304585.2, -548741.56, 31314.633, -0.039653163, 0.07668734, -300632.84, 139166.56, 0.0, 10.001645, 9.998435 
1.2850566e+3, 2.6512122e+2, -230555.16, -422226.75, -2702.2883, -0.0017481251, 0.039405376, -230517.06, 111297.12, 0.00000014147287, 10.001311, 9.998795 
1.2850557e+3, 2.7511933e+2, -198219.67, -348812.94, -41925.45, 0.10107324, -0.064847514, -187334.36, 56491.402, 0.000007879153, 10.000834, 9.998854 
1.2850533e+3, 2.8511757e+2, -192005.08, -390871.6, -17980.582, 0.04298327, -0.07413465, -190392.44, -44552.01, 0.00006527563, 10.000609, 9.998 
1.2850496e+3, 2.9511562e+2, -92677.15, -279608.06, -22134.092, -0.15562865, -0.11636311, -90092.05, -42231.137, 0.000269289, 10.000553, 9.998117 
1.285049e+3, 3.0511376e+2, 48966.254, -128456.88, 6010.16, -0.10136936, -0.13012445, 49169.613, 49169.613, 0.0006978516, 10.000958, 9.9986315 
1.2850483e+3, 3.1511527e+2, 165514.72, -86118.74, -90675.07, -0.0057254005, 0.1088019, 194784.47, 194784.47, 0.0013320218, 10.001729, 9.998556 
1.2950845e+3, 1.2512945e+2, -1758830.8, -1682545.1, -64516.438, -0.054868516, -0.07244537, -1645739.8, 67992.836, 0.0050962004, 9.999403, 10.000489 
1.2950793e+3, 1.3513127e+2, -1571329.4, -1540193.5, -24394.56, -0.086780384, 0.03766681, -1526822.6, 88892.04, 0.0028611089, 10.000043, 10.000499 
1.2950797e+3, 1.4513092e+2, -1499029.4, -1533464.3, 113351.26, 0.11819769, -0.006987797, -1401595.4, 116123.33, 0.00111182, 10.0002165, 9.999763 
1.2950768e+3, 1.5513152e+2, -1378457.8, -1424185.5, 113985.3, -0.10790309, 0.038726266, -1285065.9, 134648.23, 0.000219555, 10.000375, 9.999765 
1.2950745e+3, 1.651314e+2, -1359101.5, -1498376.9, -20637.281, -0.15315676, 0.11669444, -1356107.9, -34389.035, 0.0000074533, 10.000371, 9.998599 
1.2950724e+3, 1.7513056e+2, -1287757.5, -1403920.9, -64594.797, -0.05369619, 0.13381092, -1258971.6, -35238.62, 0.0, 10.000161, 9.998671 
1.2950708e+3, 1.8513002e+2, -1088440.8, -1111200.0, -27596.371, -0.014895086, 0.15437056, -1069969.9, 55768.074, 0.0, 10.000245, 9.999959 
1.2950698e+3, 1.9512936e+2, -918797.7, -972704.8, 14090.585, -0.01110684, 0.052239552, -915336.8, 112401.414, 0.0, 10.000707, 10.000015 
1.2950684e+3, 2.0512919e+2, -910916.06, -1046038.0, -27954.865, 0.024523549, 0.100765936, -905361.0, 24378.537, 0.0, 10.000649, 9.998862 
1.295067e+3, 2.1512932e+2, -878014.9, -965417.7, -10650.826, 0.089753546, 0.1856436, -876735.7, -44991.96, 0.0, 10.000145, 9.998982 
1.295065e+3, 2.2512844e+2, -726072.75, -799221.44, -19590.256, 0.0714016, 0.1867301, -721156.6, 12594.725, 0.0, 10.000327, 9.9993725 
1.2950622e+3, 2.351264e+2, -497791.53, -629942.4, -3381.566, -0.017118203, 0.008090119, -497705.06, 138059.5, 0.0, 10.0011835, 9.999448 
1.2950605e+3, 2.4512531e+2, -420133.3, -645885.06, 19928.38, -0.023338422, 0.0065750536, -418387.63, 119385.1, 0.0, 10.001496, 9.998509 
1.2950604e+3, 2.5512475e+2, -329726.66, -540915.94, 43234.223, 0.052982487, 0.059365433, -321218.6, 118560.805, 0.0, 10.001404, 9.998598 
1.295059e+3, 2.6512283e+2, -298285.3, -525710.1, -37348.15, 0.080253474, 0.03805461, -292308.97, 49487.35, 0.000000052302592, 10.001142, 9.99817 
1.2950563e+3, 2.7511957e+2, -267938.72, -446812.38, -41592.637, 0.05845328, -0.14688945, -258740.4, -14916.627, 0.000007172051, 10.000632, 9.998279 
1.2950537e+3, 2.8511834e+2, -201463.69, -363234.16, -34283.03, -0.013233192, -0.08914814, -194498.22, -48663.375, 0.00006969282, 10.000404, 9.998286 
1.2950508e+3, 2.9511857e+2, -106776.56, -259435.69, -431.80377, -0.12764938, 0.053912528, -106775.336, -58939.56, 0.0003009035, 10.000348, 9.99835 
1.2950502e+3, 3.0511558e+2, 41706.8, -121590.92, 22314.168, -0.09735959, -0.08854513, 44701.066, 44701.066, 0.0007869178, 10.000857, 9.998733 
1.2950498e+3, 3.1511518e+2, 166597.02, -16023.47, -21812.393, -0.083539985, -0.06042129, 169166.17, 169166.17, 0.0015023105, 10.001448, 9.99917 
1.3050853e+3, 1.2513298e+2, -1720279.6, -1692196.3, -36763.926, 0.0692812, -0.07628763, -1666883.8, 46809.3, 0.0054552136, 9.999803, 10.000223 
1.30508e+3, 1.351335e+2, -1487680.1, -1581304.8, -33062.832, -0.041903373, -0.020286059, -1477181.5, 138507.98, 0.003073975, 10.000985, 9.999754 
1.3050799e+3, 1.4513275e+2, -1434581.0, -1523610.0, 60427.86, 0.090266086, -0.060156923, -1404041.8, 113656.42, 0.0012055306, 10.0007305, 9.999586 
1.305077e+3, 1.551334e+2, -1472961.9, -1484593.3, -3565.987, -0.09259084, 0.0021498231, -1471955.8, -52262.617, 0.000244213, 9.999777, 9.999638 
1.3050748e+3, 1.6513322e+2, -1455454.1, -1539680.9, -26117.209, -0.10708962, 0.0807947, -1448013.1, -126315.13, 0.000009295233, 9.999727, 9.998613 
1.3050732e+3, 1.751322e+2, -1194654.6, -1351102.3, 20401.52, -0.021630373, 0.07926615, -1192038.0, 31675.324, 0.0, 10.000805, 9.998708 
1.3050717e+3, 1.8513161e+2, -977434.1, -1078876.3, 101839.6, 0.015025692, 0.10170158, -914383.75, 211335.38, 0.0, 10.001084, 9.9997835 
1.3050705e+3, 1.9513111e+2, -954353.44, -1005145.06, 49303.727, 0.019245848, 0.032798894, -924289.3, 103429.875, 0.0, 10.000531, 9.999879 
1.3050695e+3, 2.0513108e+2, -926491.0, -1053768.6, 10557.798, 0.06352293, 0.103048876, -925621.2, 4098.1445, 0.0, 10.00053, 9.998874 
1.3050681e+3, 2.1513134e+2, -746033.9, -900847.0, -4921.5444, 0.13790534, 0.20039785, -745877.6, 85843.96, 0.0, 10.001044, 9.998997 
1.305066e+3, 2.2513013e+2, -586015.25, -773492.2, 22006.654, 0.10794866, 0.18530373, -583466.7, 150265.86, 0.0, 10.00146, 9.999001 
1.3050635e+3, 2.3512727e+2, -447673.72, -644045.5, -21612.05, -0.012329746, -0.040343102, -445323.3, 190430.98, 0.0, 10.001693, 9.999099 
1.3050622e+3, 2.4512595e+2, -444731.4, -652337.7, -24622.895, -0.001722264, -0.051117685, -441851.0, 95913.87, 0.0, 10.001278, 9.998577 
1.305062e+3, 2.5512576e+2, -488807.53, -612747.06, -37413.594, 0.13444133, 0.032576736, -478389.25, -38621.242, 0.0, 10.000261, 9.998667 
1.3050604e+3, 2.651242e+2, -379549.0, -536253.44, -20861.648, 0.15461928, 0.027887456, -376819.3, -35037.355, 0.000000026393016, 10.000465, 9.998425 
1.3050576e+3, 2.7512103e+2, -73753.01, -331486.0, 364.24826, 0.058013704, -0.16808473, -73752.49, 170056.28, 0.0000066700077, 10.001854, 9.998493 
1.3050549e+3, 2.8512013e+2, -80.234604, -272077.72, 17448.115, -0.0073826336, -0.089938775, 1034.4602, 146852.08, 0.00007506801, 10.001821, 9.998221 
1.3050522e+3, 2.951209e+2, -82178.26, -257137.72, -12696.839, -0.038949188, 0.11760402, -81261.65, -33448.168, 0.00033561388, 10.000554, 9.99826 
1.3050516e+3, 3.0511722e+2, 13254.9, -170060.53, 87552.5, -0.029847747, -0.07229843, 48351.188, 48351.188, 0.00088381814, 10.000821, 9.998411 
1.3050523e+3, 3.1511566e+2, 335412.56, 96399.625, -54948.92, -0.009456875, -0.122820675, 347440.03, 347440.03, 0.0016890818, 10.00247, 9.999457 
1.3150851e+3, 1.251375e+2, -1785256.3, -1842073.9, -41643.51, 0.017340992, -0.045467857, -1763254.3, -49608.703, 0.005819013, 9.999854, 9.999174 
1.315081e+3, 1.351361e+2, -1590606.9, -1798564.8, 20011.145, -0.083649494, -0.030586362, -1588698.8, 26965.68, 0.0032902497, 10.000989, 9.998266 
1.3150775e+3, 1.4513505e+2, -1467924.9, -1593728.9, -2689.2092, -0.2575946, -0.0026730555, -1467867.4, 49810.87, 0.0013013786, 10.000745, 9.999095 
1.3150768e+3, 1.551344e+2, -1511999.6, -1560394.0, -27067.445, -0.11410289, -0.015846472, -1499890.5, -80204.414, 0.00026992275, 9.999756, 9.999131 
1.3150758e+3, 1.6513424e+2, -1339284.9, -1311754.4, -4261.984, -0.03365523, 0.010044104, -1311109.6, 10576.802, 0.00001153221, 9.999767, 10.000166 
1.3150737e+3, 1.751344e+2, -1084537.3, -1125722.0, 73350.47, -0.07972505, -0.030275485, -1028943.44, 194737.4, 0.0, 10.000804, 10.000261 
1.3150722e+3, 1.8513396e+2, -1054401.3, -1220511.0, 62891.56, -0.08461663, -0.023175886, -1033276.1, 92407.76, 0.0, 10.001015, 9.998838 
1.315071e+3, 1.9513264e+2, -1034500.7, -1149756.0, 40262.71, -0.030755814, -0.078186415, -1021828.75, 5869.2573, 0.0, 10.000441, 9.998928 
1.3150698e+3, 2.0513195e+2, -947494.1, -1064362.3, 16162.143, 0.03304406, -0.029586518, -945300.2, -15594.391, 0.0, 10.00039, 9.998868 
1.315069e+3, 2.1513152e+2, -774783.7, -922855.75, 31468.871, 0.1034457, 0.0012100287, -768373.3, 63337.69, 0.0, 10.000871, 9.998934 
1.3150673e+3, 2.2513035e+2, -669921.9, -890619.1, 16591.201, 0.054493118, 0.03206211, -668681.56, 65040.695, 0.0, 10.001226, 9.998304 
1.3150647e+3, 2.3512831e+2, -529891.94, -763369.6, 5018.347, -0.082849145, -0.044180825, -529784.1, 105957.445, 0.0, 10.001475, 9.998385 
1.315063e+3, 2.4512698e+2, -479867.3, -668743.6, -78413.96, -0.07387254, -0.01725901, -451556.47, 86198.32, 0.0, 10.001038, 9.99858 
1.3150619e+3, 2.5512624e+2, -519465.03, -624953.06, -57890.184, 0.072843224, 0.009291994, -493894.28, -54130.734, 0.0, 10.000041, 9.998691 
1.3150606e+3, 2.651253e+2, -336024.7, -397204.47, 16639.672, 0.08514647, 0.011225572, -331791.9, 9978.928, 0.000000066602475, 10.000259, 9.9994755 
1.3150588e+3, 2.7512378e+2, -35657.582, -197077.13, 72748.71, -0.034862265, -0.12744276, -7709.901, 236070.5, 0.0000067822207, 10.001633, 9.999515 
1.3150562e+3, 2.8512302e+2, -50207.656, -351634.16, -44570.14, -0.07017882, -0.0570346, -43755.45, 102031.32, 0.000081610815, 10.001694, 9.997747 
1.3150533e+3, 2.9512265e+2, -144216.55, -341213.5, -36922.797, -0.026034316, 0.07882087, -137523.56, -89730.31, 0.0003694415, 10.000352, 9.997789 
1.3150527e+3, 3.0511868e+2, -73328.58, -309207.44, 141271.19, -0.04028381, -0.07195758, -7237.4272, -7237.4272, 0.0009768684, 10.000654, 9.99753 
1.315055e+3, 3.1511655e+2, 279879.25, 65645.2, 62149.35, -0.054410826, -0.09586161, 296603.25, 296603.25, 0.001869303, 10.002126, 9.999404 
1.3250853e+3, 1.2513979e+2, -1775066.3, -1851703.6, -113430.03, 0.052935753, 0.0096814055, -1693657.4, 19968.162, 0.006183249, 9.999943, 9.999085 
1.3250813e+3, 1.35138e+2, -1791965.5, -1888516.0, -62465.207, -0.06204808, -0.0137379365, -1761295.1, -145647.44, 0.0035072896, 9.999588, 9.998316 
1.325077e+3, 1.4513725e+2, -1646179.1, -1679583.8, 16914.031, -0.3113716, 0.0415713, -1639110.6, -121453.13, 0.0013982238, 9.99952, 9.999092 
1.3250773e+3, 1.5513617e+2, -1395026.3, -1500192.1, 4739.631, -0.07184272, -0.018259652, -1394813.0, 24855.166, 0.00029637254, 10.000548, 9.999156 
1.3250765e+3, 1.6513579e+2, -1207502.4, -1228049.3, 32059.213, 0.04362186, -0.025842143, -1184110.8, 137558.36, 0.000014169166, 10.000594, 10.000331 
1.3250741e+3, 1.751359e+2, -1224642.0, -1179669.6, -27728.646, -0.060867537, -0.086086415, -1166455.5, 57206.48, 0.0, 9.999779, 10.000383 
1.3250725e+3, 1.8513542e+2, -1236242.8, -1348497.3, -30864.637, -0.08767863, -0.06897329, -1228316.1, -102650.49, 0.0, 9.999941, 9.998481 
1.3250718e+3, 1.951341e+2, -957611.6, -1152547.6, -40481.086, -0.015660934, -0.08719744, -949539.44, 78142.56, 0.0, 10.001135, 9.998576 
1.3250709e+3, 2.0513304e+2, -789182.25, -977263.1, -26355.758, 0.050223414, -0.06366321, -785558.8, 144134.14, 0.0, 10.001445, 9.998948 
1.3250698e+3, 2.1513195e+2, -760490.4, -901843.06, -31006.277, 0.09772519, -0.108191215, -753988.1, 77713.39, 0.0, 10.000931, 9.999038 
1.3250682e+3, 2.2513081e+2, -727351.4, -942585.75, 21975.44, 0.052916992, -0.071116194, -725130.56, 8581.985, 0.0, 10.000937, 9.998093 
1.3250664e+3, 2.3512943e+2, -548119.5, -787829.56, 16436.727, -0.05729007, -0.059062924, -546997.75, 88730.17, 0.0, 10.001429, 9.998238 
1.3250645e+3, 2.4512823e+2, -418835.78, -635338.7, -53223.43, -0.036249507, -0.013725366, -406459.25, 131281.36, 0.0, 10.001444, 9.998612 
1.3250627e+3, 2.55127e+2, -377098.5, -550211.44, -62721.695, 0.10234095, -0.04028504, -356762.34, 82990.91, 0.0, 10.001, 9.998735 
1.3250609e+3, 2.651262e+2, -301482.7, -397379.5, 41833.527, 0.09692826, -0.01831836, -285798.63, 55961.805, 0.0000000978673, 10.000574, 9.999317 
1.3250594e+3, 2.751254e+2, -252915.77, -317953.22, -27628.508, -0.049351715, -0.064045206, -242763.64, 1002.3789, 0.000006920427, 10.000206, 9.99937 
1.3250576e+3, 2.8512445e+2, -170587.94, -417794.78, -146301.75, -0.05727272, -0.00381106, -102665.88, 43109.594, 0.000086783395, 10.000938, 9.997645 
1.3250557e+3, 2.9512298e+2, 214796.03, -178981.47, -158704.73, 0.06679834, 0.03636557, 270795.34, 318586.7, 0.00039501933, 10.002886, 9.997677 
1.3250546e+3, 3.051193e+2, 133007.33, -236463.48, 56431.13, 0.036575343, -0.0684566, 141434.14, 141434.14, 0.0010501491, 10.002201, 9.99728 
1.3250563e+3, 3.1511757e+2, -182171.58, -127636.984, -29793.957, 0.034471318, -0.027641036, -114516.34, -114516.34, 0.0020132647, 9.998824, 9.999658 
1.335085e+3, 1.2513916e+2, -1703402.0, -1695492.5, -21893.965, -0.05160791, 0.018596102, -1677199.0, 36440.516, 0.0065457188, 9.999921, 10.000162 
1.3350807e+3, 1.3513926e+2, -1686148.6, -1667042.0, -79227.914, -0.1139239, 0.025446085, -1596793.5, 18845.324, 0.0037237175, 9.999577, 9.99984 
1.3350779e+3, 1.4513922e+2, -1596140.3, -1588204.1, 33227.813, -0.22215086, 0.045539193, -1558708.3, -41070.605, 0.0014951822, 9.999559, 9.99971 
1.335078e+3, 1.5513875e+2, -1351967.1, -1416931.1, 57955.555, -0.088998765, -0.009888913, -1318011.8, 101627.375, 0.00032323142, 10.000559, 9.999729 
1.335077e+3, 1.6513795e+2, -1299876.6, -1416217.1, -17696.023, -0.011020281, -0.02202243, -1297244.5, 24400.602, 0.000017128494, 10.000582, 9.9990425 
1.335074e+3, 1.7513674e+2, -1318491.3, -1366470.8, -44536.375, -0.08679919, -0.08894576, -1291894.4, -68238.336, 0.00000000003443261, 9.999748, 9.999112 
1.3350724e+3, 1.8513611e+2, -1223419.6, -1322086.1, -3064.927, -0.11833462, -0.0357716, -1223324.5, -97661.35, 0.0, 9.99993, 9.998674 
1.3350728e+3, 1.951356e+2, -953819.75, -1131418.6, 17647.922, -0.052207466, 0.0068296855, -952083.06, 75587.21, 0.0, 10.001061, 9.998765 
1.335072e+3, 2.0513444e+2, -798355.25, -960109.44, -62159.18, -0.0079872925, 0.0021687255, -777228.1, 152452.2, 0.0, 10.001291, 9.999142 
1.33507e+3, 2.1513249e+2, -778245.5, -894317.75, -35154.75, 0.0018281147, -0.14529382, -768428.5, 63266.29, 0.0, 10.000732, 9.999193 
1.3350686e+3, 2.2513129e+2, -736058.56, -909536.94, 29115.25, -0.02590595, -0.13756724, -731302.5, 2402.645, 0.0, 10.000718, 9.99842 
1.335068e+3, 2.3513064e+2, -558010.56, -761067.5, 51819.324, -0.06553656, -0.086804464, -545551.0, 90162.266, 0.0, 10.001221, 9.998521 
1.3350663e+3, 2.4512964e+2, -443450.53, -637039.0, -84905.9, -0.02954232, -0.03999812, -411488.66, 126234.14, 0.0, 10.00124, 9.9986925 
1.3350637e+3, 2.55128e+2, -402856.72, -559380.4, -63138.69, 0.081199355, -0.11494777, -380563.06, 59174.203, 0.0, 10.000814, 9.998757 
1.3350613e+3, 2.6512685e+2, -422498.4, -612051.2, 13102.751, 0.05354844, -0.054425973, -421596.97, -79846.16, 0.00000008871969, 10.000413, 9.99792 
1.3350593e+3, 2.7512598e+2, -378421.28, -526900.06, -21349.973, -0.115040764, 0.019911736, -375412.34, -131646.5, 0.000006673535, 9.999992, 9.998033 
1.3350584e+3, 2.851244e+2, -186941.19, -409394.56, -91036.12, -0.10941836, 0.0782599, -154435.66, -8651.563, 0.00008871381, 10.000755, 9.997791 
1.3350591e+3, 2.9512188e+2, 193527.8, -173982.78, -65022.188, 0.0830008, -0.001480973, 204692.73, 252500.73, 0.00040769653, 10.002675, 9.997814 
1.3350573e+3, 3.0511925e+2, 141829.38, -182402.39, -76706.01, 0.041050166, -0.03230975, 159060.56, 159060.56, 0.0010939079, 10.0020485, 9.997722 
1.3350552e+3, 3.151182e+2, -198399.16, -90547.96, -78408.29, -0.005134827, 0.033913895, -49311.434, -49311.434, 0.0021064403, 9.998509, 10.000072 
1.3450845e+3, 1.2513958e+2, -1895559.0, -1739419.6, 98610.89, -0.003061854, 0.059657253, -1691715.8, 21923.256, 0.0069055543, 9.998409, 10.00058 
1.3450803e+3, 1.3514033e+2, -1542971.0, -1506254.4, -71005.72, -0.12658213, 0.054216262, -1451272.1, 164357.33, 0.0039389143, 10.000183, 10.0006485 
1.3450798e+3, 1.451404e+2, -1425749.8, -1482263.9, 19221.41, -0.031476505, 0.03176738, -1419831.9, 97794.17, 0.0015916337, 10.000636, 9.999917 
1.3450788e+3, 1.5514025e+2, -1356635.8, -1397240.8, -18797.742, -0.05803088, -0.009909543, -1349269.8, 70354.17, 0.0003501717, 10.000443, 9.999918 
1.3450773e+3, 1.6513954e+2, -1321003.3, -1460440.9, -56574.668, -0.03486008, -0.0069628814, -1300936.8, 20692.72, 0.000020254476, 10.000573, 9.998751 
1.3450746e+3, 1.7513812e+2, -1156217.0, -1318638.6, -43211.668, -0.05230116, -0.06334871, -1145436.3, 78207.44, 0.0000000014653116, 10.000992, 9.998845 
1.3450734e+3, 1.8513735e+2, -1025969.5, -1198381.6, 93878.086, -0.06459089, -0.023884138, -984721.3, 140930.11, 0.0, 10.00117, 9.9989195 
1.345074e+3, 1.9513683e+2, -912373.1, -1080765.6, 87265.21, -0.04086805, -0.006879924, -875308.4, 152347.95, 0.0, 10.001234, 9.999018 
1.3450731e+3, 2.0513573e+2, -842259.06, -1031796.75, -18256.69, -0.012019568, 0.005415395, -840516.5, 89149.31, 0.0, 10.001193, 9.9987 
1.3450709e+3, 2.1513392e+2, -760490.94, -925223.94, -69483.72, 0.0093974145, -0.08814741, -735097.4, 96583.99, 0.0, 10.001024, 9.998831 
1.3450696e+3, 2.2513257e+2, -691368.5, -852771.44, 22993.266, 0.0020882068, -0.09574462, -688156.8, 45536.434, 0.0, 10.000879, 9.998733 
1.3450694e+3, 2.3513138e+2, -595419.44, -741173.56, 18914.986, -0.014137709, -0.12759228, -593004.75, 42699.24, 0.0, 10.000812, 9.998852 
1.3450679e+3, 2.451303e+2, -446556.16, -646045.9, -91452.484, 0.010400705, -0.10229535, -410976.97, 126736.43, 0.0, 10.001253, 9.998634 
1.3450651e+3, 2.5512907e+2, -210161.25, -468999.94, -109396.72, 0.075535856, -0.1312067, -170119.66, 269604.44, 0.0, 10.00216, 9.998734 
1.3450626e+3, 2.6512787e+2, -205642.25, -566023.06, -4783.9067, 0.051072773, -0.046813697, -205578.75, 136160.42, 0.000000062099474, 10.002164, 9.997395 
1.3450603e+3, 2.7512637e+2, -213496.77, -508107.38, -14300.033, -0.058971997, 0.021606253, -212804.28, 30957.883, 0.0000065347235, 10.001374, 9.997502 
1.3450599e+3, 2.8512457e+2, -112565.34, -346847.66, 52338.84, -0.03650757, 0.07022534, -101404.49, 44379.043, 0.00008986311, 10.001121, 9.998056 
1.3450612e+3, 2.9512253e+2, 31434.195, -210671.81, 43991.4, 0.118918, 0.008902363, 39179.766, 86982.33, 0.00041362355, 10.001374, 9.998188 
1.345059e+3, 3.0512086e+2, 56649.83, -167190.63, -39820.445, 0.05870651, 0.027219955, 63522.72, 63522.72, 0.0011143722, 10.0011835, 9.998258 
1.3450558e+3, 3.151198e+2, 101255.58, 93098.88, -77307.0, 0.116719656, 0.03693911, 174591.73, 174591.73, 0.0021528488, 10.000401, 10.000413 
1.3550834e+3, 1.2514098e+2, -1907691.9, -1761284.6, -19394.367, -0.009333107, 0.104842156, -1758759.1, -45134.56, 0.0072628423, 9.998409, 10.000428 
1.35508e+3, 1.3514137e+2, -1544918.9, -1504111.5, 2581.458, -0.21583791, 0.06172719, -1503948.9, 111669.67, 0.004152666, 10.000167, 10.0006695 
1.3550822e+3, 1.4514086e+2, -1452606.3, -1528395.1, -11009.815, 0.11608635, -0.0015444024, -1451039.3, 66582.71, 0.0016872559, 10.000597, 9.999618 
1.3550791e+3, 1.5514065e+2, -1376789.0, -1438540.4, -9665.3545, -0.10697137, -0.02214758, -1375311.5, 44311.133, 0.0003769789, 10.000436, 9.9996395 
1.355077e+3, 1.6514044e+2, -1271080.5, -1355739.6, -59985.703, -0.15222709, 0.007316485, -1239992.9, 81630.055, 0.000023370363, 10.000567, 9.999473 
1.3550758e+3, 1.751399e+2, -1115725.1, -1223168.4, -15031.6875, -0.06446053, -0.031765305, -1113661.8, 109964.3, 0.0000000068048798, 10.00094, 9.999527 
1.3550751e+3, 1.851391e+2, -1018842.3, -1163946.6, 78304.26, -0.056016956, -0.04164445, -984645.4, 140985.81, 0.0, 10.001093, 9.999189 
1.355075e+3, 1.9513778e+2, -912359.8, -1054659.8, 104392.1, -0.104505524, -0.13183823, -857176.75, 170463.73, 0.0, 10.001122, 9.99925 
1.3550739e+3, 2.0513687e+2, -937306.5, -1192963.0, -42415.867, -0.08567657, -0.059427116, -930453.0, -802.8027, 0.0, 10.00104, 9.997665 
1.355072e+3, 2.1513616e+2, -863751.7, -1091167.3, -63479.82, 0.003958828, 0.058854423, -847232.2, -15569.854, 0.0, 10.000813, 9.997796 
1.3550709e+3, 2.2513446e+2, -701409.06, -818036.56, 1787.4609, 0.02069114, 0.052517697, -701381.7, 32296.79, 0.0, 10.000642, 9.999084 
1.3550703e+3, 2.3513162e+2, -603541.5, -707104.1, 31294.508, -0.026425675, -0.18087219, -594819.5, 40881.1, 0.0, 10.000594, 9.999189 
1.3550688e+3, 2.451303e+2, -488727.9, -682879.7, -72582.664, -0.042096034, -0.18941353, -464593.34, 73118.2, 0.0, 10.001035, 9.998488 
1.3550663e+3, 2.5513017e+2, -252065.06, -504260.72, -59195.51, -0.036501817, -0.09386168, -238861.89, 200852.03, 0.0, 10.00194, 9.9986 
1.3550642e+3, 2.6512903e+2, -216057.64, -543177.6, -50687.215, -0.032473847, -0.009962178, -208383.69, 133343.89, 0.000000036385206, 10.001972, 9.997646 
1.3550624e+3, 2.7512658e+2, -230671.7, -492253.5, -22763.436, -0.01637757, -0.05858078, -228705.55, 15050.26, 0.0000068750182, 10.001161, 9.997715 
1.3550618e+3, 2.8512508e+2, -108832.95, -300841.22, 47651.426, 0.0020056448, -0.007786186, -97657.555, 48115.285, 0.00009120505, 10.000955, 9.998452 
1.355062e+3, 2.9512453e+2, 25082.912, -172108.5, 74825.37, 0.017156223, 0.038168207, 50260.984, 98040.29, 0.0004156126, 10.001144, 9.998569 
1.3550593e+3, 3.0512378e+2, 63913.74, -89151.01, -83660.67, -0.042551387, 0.09977836, 100767.05, 100767.05, 0.0011151334, 10.000939, 9.998901 
1.3550568e+3, 3.151218e+2, 48433.863, 71532.03, -42473.332, 0.100882694, -0.048967585, 103998.46, 103998.46, 0.0021524278, 10.000051, 10.000423 
1.3650826e+3, 1.2514226e+2, -1692201.9, -1684054.3, -21905.01, -0.008219643, 0.09623165, -1665847.5, 47762.945, 0.0076198755, 9.999976, 10.000212 
1.3650806e+3, 1.351424e+2, -1533089.6, -1561125.8, 14274.517, -0.16754565, 0.07658328, -1527101.0, 88507.76, 0.004366158, 10.0004835, 10.000136 
1.3650826e+3, 1.4514168e+2, -1508190.0, -1535041.4, -19216.98, 0.10991585, 0.012257793, -1498173.4, 19441.76, 0.0017823466, 10.000131, 9.999789 
1.3650793e+3, 1.5514193e+2, -1484191.0, -1468518.5, -10203.215, -0.08606888, 0.018734511, -1463489.6, -43878.215, 0.0004035849, 9.999615, 9.999822 
1.3650776e+3, 1.6514182e+2, -1352697.8, -1377850.9, 9839.55, -0.1009427, 0.038554348, -1349306.0, -27695.848, 0.000026350568, 9.999912, 9.99965 
1.3650773e+3, 1.7514104e+2, -1087536.9, -1187492.5, -18632.04, 0.0026587208, -0.04405054, -1084176.8, 139437.3, 0.000000016360648, 10.001027, 9.999739 
1.3650766e+3, 1.8514009e+2, -1003817.44, -1170909.0, 39729.01, -0.004820111, -0.0694666, -994852.2, 130767.49, 0.0, 10.001267, 9.99905 
1.3650757e+3, 1.9513881e+2, -975674.4, -1094655.8, 4780.844, -0.10643348, -0.14646356, -975482.56, 52146.316, 0.0, 10.000744, 9.999148 
1.3650748e+3, 2.0513779e+2, -957061.2, -1206233.4, -67400.586, -0.083914585, -0.07996707, -939997.94, -10358.031, 0.0, 10.000913, 9.997642 
1.3650739e+3, 2.1513683e+2, -725852.6, -1027597.3, -43462.664, 0.055462595, 0.017311916, -719717.1, 111937.85, 0.0, 10.001762, 9.99778 
1.3650726e+3, 2.2513519e+2, -589130.56, -773741.6, 38135.934, 0.09442918, 0.021964591, -581562.9, 152107.9, 0.0, 10.001452, 9.998998 
1.3650712e+3, 2.3513272e+2, -690117.44, -761732.25, 1479.031, 0.033074908, -0.16580844, -690086.94, -54397.207, 0.0, 10.000039, 9.99909 
1.3650693e+3, 2.4513139e+2, -656636.56, -763568.5, -17442.922, -0.022313267, -0.16836627, -653863.2, -116162.336, 0.0, 9.999888, 9.998481 
1.3650672e+3, 2.5513092e+2, -382960.03, -567895.9, -29294.914, -0.08276851, -0.10819046, -378430.5, 61276.574, 0.0, 10.001039, 9.998595 
1.3650657e+3, 2.6512957e+2, -239198.58, -542607.7, -31765.217, -0.055174824, -0.050184738, -235908.61, 105812.85, 0.000000033203506, 10.001768, 9.997743 
1.3650647e+3, 2.751272e+2, -70150.26, -394742.72, -47933.117, 0.05914478, -0.105419874, -63219.867, 180526.38, 0.0000069323874, 10.002188, 9.997877 
1.3650638e+3, 2.851257e+2, -23667.645, -259751.97, 23866.402, 0.07571264, -0.06571975, -21279.092, 124483.39, 0.000089487476, 10.001582, 9.998415 
1.3650624e+3, 2.9512498e+2, -114298.23, -234967.02, -13867.081, 0.008515384, -0.029832277, -112725.15, -64954.086, 0.0004060462, 10.000194, 9.998583 
1.3650598e+3, 3.051242e+2, 14985.784, -125937.9, -128231.195, -0.057444315, 0.0335428, 90839.05, 90839.05, 0.0010871664, 10.000663, 9.998794 
1.3650584e+3, 3.1512243e+2, 377219.5, 160072.03, -191453.69, 0.15985051, -0.065829396, 488742.94, 488742.94, 0.0020984344, 10.002574, 9.999857 
1.3750808e+3, 1.2514332e+2, -1716618.3, -1736174.1, -120476.47, -0.25576413, 0.011405671, -1605523.6, 108074.02, 0.0079810945, 9.999995, 9.999838 
1.3750818e+3, 1.3514343e+2, -1609388.5, -1719088.9, 40313.797, -0.12774672, 0.09596176, -1596167.1, 19432.852, 0.0045821774, 10.000476, 9.999052 
1.3750799e+3, 1.451429e+2, -1464739.5, -1447992.4, -66483.77, -0.19834635, 0.076176964, -1389356.9, 128248.234, 0.0018779465, 10.000139, 10.000388 
1.3750789e+3, 1.5514402e+2, -1443368.8, -1383764.1, -14586.725, -0.11770488, 0.10510343, -1380385.8, 39205.09, 0.00043006244, 9.999609, 10.000409 
1.3750787e+3, 1.6514361e+2, -1372398.8, -1419010.1, 32345.209, -0.018186526, 0.08389015, -1355837.5, -34246.3, 0.000029160963, 9.9999075, 9.999374 
1.3750789e+3, 1.751416e+2, -1108898.0, -1228001.8, 38490.31, 0.024241092, -0.095492505, -1097542.0, 126064.56, 0.000000027808229, 10.000998, 9.999482 
1.3750778e+3, 1.8514046e+2, -1048104.0, -1249572.4, 3413.6138, -0.043133136, -0.10391062, -1048046.2, 77569.625, 0.0, 10.001218, 9.99853 
1.3750762e+3, 1.9513977e+2, -1032475.0, -1183095.3, -2263.072, -0.16601445, -0.06373907, -1032441.0, -4818.563, 0.0, 10.000618, 9.998604 
1.3750754e+3, 2.0513837e+2, -905678.7, -1063715.6, -51211.934, -0.14103009, -0.06246723, -890534.6, 39101.355, 0.0, 10.000758, 9.998694 
1.3750756e+3, 2.1513608e+2, -690048.56, -898382.75, 3322.2087, 0.02952761, -0.20243429, -689995.56, 141662.23, 0.0, 10.001528, 9.998781 
1.3750742e+3, 2.2513495e+2, -664117.56, -870314.56, -30111.158, 0.08556813, -0.16745795, -659810.4, 73858.08, 0.0, 10.001203, 9.998452 
1.3750714e+3, 2.351347e+2, -763978.0, -856772.56, -34173.94, 0.03482003, -0.07890687, -752750.94, -117080.16, 0.0, 9.9998, 9.998547 
1.3750692e+3, 2.4513355e+2, -678620.9, -767864.7, 6707.0576, -0.05700098, -0.04166959, -678119.6, -140437.67, 0.0, 9.9997, 9.998547 
1.3750675e+3, 2.551313e+2, -406031.47, -570485.44, 27790.195, -0.18370971, -0.16399738, -401462.28, 38240.777, 0.0, 10.000844, 9.998673 
1.3750668e+3, 2.6512966e+2, -261315.61, -551269.56, -30224.676, -0.14752626, -0.14403094, -258198.52, 83520.7, 0.000000022673568, 10.001603, 9.997762 
1.3750671e+3, 2.7512816e+2, -101291.29, -407945.78, -15262.248, 0.041717075, -0.11758779, -100533.56, 143200.9, 0.0000066245593, 10.001974, 9.997887 
1.3750654e+3, 2.8512627e+2, -69583.75, -326598.56, -46671.242, 0.06111051, -0.094044596, -61371.156, 84382.164, 0.000084736, 10.00145, 9.998022 
1.3750623e+3, 2.9512402e+2, -173034.27, -307765.63, -41225.355, -0.062455792, -0.17381991, -161421.06, -113644.81, 0.0003824706, 9.99998, 9.998189 
1.37506e+3, 3.0512214e+2, -74558.125, -275142.3, -60503.73, -0.14684977, -0.15777647, -57721.207, -57721.207, 0.0010250094, 10.000504, 9.997838 
1.37506e+3, 3.1512123e+2, 226162.48, -44686.09, -48405.77, -0.004577421, -0.069768734, 234553.55, 234553.55, 0.0019870058, 10.002134, 9.998639 
1.3850804e+3, 1.2514456e+2, -1701284.8, -1709784.8, -10098.149, -0.2895591, -0.055188585, -1694578.8, 19002.686, 0.008351057, 10.000038, 9.999993 
1.3850828e+3, 1.351445e+2, -1788187.8, -1841137.1, 61868.45, -0.017897861, 0.0452703, -1747367.5, -131781.95, 0.004803759, 9.999413, 9.9987335 
1.3850784e+3, 1.4514396e+2, -1625987.4, -1546813.6, 17882.205, -0.29858884, 0.052356705, -1542962.1, -25371.01, 0.0019753822, 9.999112, 10.000214 
1.3850792e+3, 1.5514448e+2, -1341267.6, -1347394.9, -20042.023, -0.06435743, 0.034285862, -1324056.4, 95526.94, 0.00045665295, 10.000363, 10.000299 
1.38508e+3, 1.6514404e+2, -1245182.3, -1364939.8, 48531.293, 0.080153845, 0.020417433, -1227984.8, 93600.27, 0.00003186285, 10.000852, 9.99927 
1.3850798e+3, 1.7514259e+2, -1168836.4, -1262452.4, 27218.457, 0.046884175, -0.09498288, -1161497.9, 62098.535, 0.000000039188958, 10.000643, 9.9994 
1.3850787e+3, 1.8514164e+2, -1156426.4, -1294437.1, 24511.684, -0.030293826, -0.08538874, -1152202.1, -26597.568, 0.0, 10.00041, 9.998632 
1.3850771e+3, 1.9514087e+2, -1057583.6, -1175855.5, 46045.477, -0.118321836, -0.06730438, -1041771.25, -14159.146, 0.0, 10.0003395, 9.998796 
1.3850763e+3, 2.051396e+2, -969257.3, -1042551.3, 55764.438, -0.09202317, -0.085609354, -939175.94, -9552.696, 0.0, 10.000107, 9.999149 
1.3850763e+3, 2.1513765e+2, -902425.0, -946834.4, 33780.633, 0.042015452, -0.23934957, -884204.7, -52564.758, 0.0, 9.99984, 9.999262 
1.385075e+3, 2.2513679e+2, -798166.94, -965951.94, 15207.69, 0.09092715, -0.1909408, -796799.7, -63151.293, 0.0, 10.000399, 9.998193 
1.3850723e+3, 2.3513669e+2, -472149.47, -745141.44, 2994.2786, 0.059413355, -0.05936362, -472116.63, 163534.97, 0.0, 10.001911, 9.998304 
1.3850704e+3, 2.4513535e+2, -377544.13, -667270.56, 66997.1, -0.01335074, -0.007519653, -362801.7, 174864.3, 0.0, 10.0019655, 9.9981365 
1.3850686e+3, 2.5513265e+2, -452555.25, -637840.6, 13918.237, -0.13599488, -0.13610148, -451515.56, -11823.12, 0.0, 10.000709, 9.998273 
1.3850679e+3, 2.651308e+2, -416762.8, -576948.3, 1379.6323, -0.12753972, -0.13928655, -416750.94, -75041.53, 0.0000000049794013, 10.0003195, 9.998207 
1.385068e+3, 2.751294e+2, -227608.1, -423180.28, 16149.359, 0.002100799, -0.14364897, -226283.53, 17437.094, 0.0000064670485, 10.000881, 9.9983225 
1.3850667e+3, 2.851276e+2, -100145.805, -390296.53, -1272.0204, 0.049395815, -0.107758835, -100140.234, 45597.6, 0.00007993784, 10.001433, 9.997611 
1.3850643e+3, 2.9512537e+2, 117377.01, -202236.1, -34128.246, 0.02694763, -0.14995128, 120980.586, 168743.11, 0.00035414053, 10.002111, 9.997892 
1.3850619e+3, 3.051227e+2, 150673.5, -187151.33, 41793.234, -0.06786621, -0.18799865, 155767.06, 155767.06, 0.0009478654, 10.002129, 9.997662 
1.3850608e+3, 3.1512168e+2, 106655.016, -114230.76, 69165.27, -0.068427734, -0.10070016, 126525.086, 126525.086, 0.0018472242, 10.001325, 9.998554 
1.3950823e+3, 1.2514526e+2, -1663366.4, -1610338.0, 165761.55, -0.15834813, -0.15585223, -1468983.5, 244585.69, 0.008733579, 9.999988, 10.000689 
1.3950829e+3, 1.351454e+2, -1754241.4, -1768211.0, 28048.404, 0.020329127, -0.09175699, -1732321.1, -116753.555, 0.005033633, 9.999405, 9.999232 
1.3950777e+3, 1.4514495e+2, -1681128.5, -1668369.4, 35314.52, -0.3298864, -0.05835454, -1638862.8, -121290.61, 0.002076125, 9.999142, 9.999365 
1.39508e+3, 1.5514344e+2, -1403671.0, -1471301.6, 43675.656, -0.072140425, -0.19478431, -1382250.1, 37337.44, 0.00048381835, 10.000338, 9.999461 
1.395081e+3, 1.6514309e+2, -1248426.3, -1372151.6, 21147.898, 0.045007385, -0.15631825, -1244911.4, 76680.27, 0.000034571214, 10.000851, 9.999223 
1.39508e+3, 1.751437e+2, -1186380.8, -1280071.5, 30080.86, -0.03579024, -0.05744656, -1177554.4, 46032.176, 0.00000005013657, 10.000562, 9.999321 
1.3950787e+3, 1.851435e+2, -1093181.4, -1152748.6, 1441.9833, -0.09602654, -0.017617334, -1093146.5, 32440.988, 0.0, 10.000367, 9.999623 
1.3950779e+3, 1.9514224e+2, -1009773.06, -1048759.0, 55523.08, -0.09334883, -0.14526448, -970420.6, 57175.86, 0.0, 10.000217, 9.999731 
1.395077e+3, 2.0514163e+2, -996102.56, -1068255.0, 28684.957, -0.07013502, -0.13766156, -986088.44, -56487.71, 0.0, 9.999975, 9.999034 
1.3950756e+3, 2.1514145e+2, -944155.4, -981377.5, 37528.652, -0.03372472, -0.10098624, -920876.44, -89274.26, 0.0, 9.999621, 9.9991255 
1.3950744e+3, 2.2514059e+2, -815991.94, -965568.44, 56151.83, -0.020389417, -0.050291885, -797258.44, -63646.992, 0.0, 10.00022, 9.998285 
1.3950738e+3, 2.3513885e+2, -496504.56, -750722.4, 75333.18, -0.011981445, -0.09616303, -475857.72, 159772.69, 0.0, 10.001707, 9.998368 
1.3950725e+3, 2.4513704e+2, -475625.7, -818517.75, 4112.986, -0.024518339, -0.04784598, -475576.38, 62074.41, 0.0, 10.001743, 9.997205 
1.3950704e+3, 2.5513482e+2, -556966.44, -793658.8, -15819.097, -0.05575051, -0.031908557, -555913.9, -116238.016, 0.0, 10.000459, 9.997319 
1.3950686e+3, 2.651329e+2, -386032.13, -471028.34, 8082.593, -0.11057592, -0.035787217, -385270.34, -43577.465, 0.0000000011462398, 10.000134, 9.999026 
1.3950673e+3, 2.7513108e+2, -204246.92, -324092.75, 56491.92, -0.17790473, -0.1656801, -181816.38, 61887.25, 0.0000063015364, 10.000659, 9.999115 
1.3950668e+3, 2.8512993e+2, -164710.6, -474104.66, 9906.259, -0.09919068, -0.08125158, -164393.75, -18679.326, 0.00007549819, 10.001224, 9.997132 
1.3950676e+3, 2.9512894e+2, 44143.797, -295658.78, 13968.664, 0.12759046, 0.05372878, 44717.055, 92447.22, 0.0003302732, 10.001867, 9.997366 
1.3950653e+3, 3.0512586e+2, 172821.61, -99266.516, -3944.2957, 0.038615763, -0.033978995, 172878.77, 172878.77, 0.0008854581, 10.001947, 9.998353 
1.3950607e+3, 3.151242e+2, 116288.22, 13084.988, 90945.75, -0.2834994, -0.08568531, 169251.69, 169251.69, 0.0017326016, 10.000885, 9.999638 
1.4050828e+3, 1.2514631e+2, -1772181.8, -1660512.3, 226364.38, -0.05266176, -0.0998083, -1483198.3, 230359.11, 0.009133226, 9.999188, 10.00074 
1.4050816e+3, 1.3514581e+2, -1665230.6, -1664636.6, -91644.31, -0.03493182, -0.15677123, -1573288.9, 42271.746, 0.005275387, 9.999724, 9.999799 
1.4050789e+3, 1.45146e+2, -1575633.4, -1622153.6, 27258.383, -0.14602813, -0.09147397, -1563059.8, -45500.652, 0.0021822979, 9.99989, 9.999319 
1.4050803e+3, 1.5514474e+2, -1458561.1, -1508529.3, 50799.02, -0.036073375, -0.19171119, -1426934.8, -7361.101, 0.00051218417, 10.0000105, 9.999363 
1.4050807e+3, 1.6514458e+2, -1404773.3, -1422781.0, 66100.09, 0.0054285293, -0.13989316, -1347066.6, -25489.916, 0.000037386584, 9.999661, 9.999451 
1.4050798e+3, 1.7514537e+2, -1362170.0, -1331177.4, 68892.21, -0.030605948, -0.05414939, -1276060.1, -52490.7, 0.00000006103049, 9.999206, 9.9996195 
1.405079e+3, 1.8514527e+2, -1215491.5, -1214338.8, 84485.38, -0.055705953, -0.016783709, -1130427.8, -4857.937, 0.0, 9.999554, 9.999589 
1.4050786e+3, 1.9514412e+2, -929770.44, -1009812.9, 29429.879, -0.06277929, -0.13474762, -920114.56, 107464.82, 0.0, 10.000772, 9.999729 
1.4050776e+3, 2.051436e+2, -842830.56, -1009176.1, -36386.543, -0.05121534, -0.11212865, -835219.56, 94363.83, 0.0, 10.001089, 9.998911 
1.4050756e+3, 2.1514344e+2, -787679.44, -913676.94, -56681.574, -0.031798337, -0.060546763, -765933.6, 65650.87, 0.0, 10.00073, 9.999059 
1.4050749e+3, 2.251426e+2, -757291.44, -932530.7, 38197.42, -0.009168531, -0.006357783, -749327.4, -15733.229, 0.0, 10.000618, 9.998317 
1.4050753e+3, 2.3514086e+2, -627173.06, -802329.4, 19295.848, 0.022531832, -0.05733197, -625072.56, 10541.46, 0.0, 10.000765, 9.998464 
1.4050743e+3, 2.451391e+2, -566188.2, -844682.9, -25108.23, 0.026422275, -0.015144963, -563942.6, -26309.209, 0.0, 10.001046, 9.997362 
1.4050718e+3, 2.5513712e+2, -384888.0, -687056.9, 8476.702, -0.009591019, 0.0055917082, -384650.38, 55004.605, 0.0, 10.001548, 9.997523 
1.4050698e+3, 2.6513505e+2, -198827.97, -391864.22, 85016.9, -0.06434793, -0.015087505, -166724.1, 174948.66, 0.0000000047036606, 10.001473, 9.998925 
1.4050685e+3, 2.7513295e+2, -170517.16, -309509.16, 23286.924, -0.12747574, -0.16289695, -166719.39, 76967.25, 0.000006310061, 10.000925, 9.999075 
1.4050683e+3, 2.8513172e+2, -171553.95, -469689.6, 31729.098, -0.06327274, -0.090330996, -168214.58, -22517.047, 0.00007173929, 10.001141, 9.997198 
1.4050695e+3, 2.9513064e+2, 64449.6, -282837.8, 46231.844, 0.13177563, 0.03295154, 70498.74, 118210.75, 0.00031660267, 10.001991, 9.9973955 
1.4050674e+3, 3.051276e+2, 183049.53, -109848.79, -1491.1666, 0.066654004, -0.045047317, 183057.13, 183057.13, 0.0008541431, 10.002091, 9.998208 
1.4050622e+3, 3.1512594e+2, 232709.5, 107101.11, -32544.424, -0.22816771, -0.08043906, 240640.78, 240640.78, 0.0016740352, 10.001516, 9.999987 
1.4150809e+3, 1.2514724e+2, -1799193.6, -1721883.8, 127580.805, -0.23497003, 0.055945706, -1627230.5, 86319.76, 0.009556688, 9.999202, 10.000317 
1.4150788e+3, 1.3514581e+2, -1621732.0, -1563403.0, -58948.98, -0.32582185, -0.15304452, -1526798.6, 88764.89, 0.0055341963, 9.9996805, 10.000521 
1.4150818e+3, 1.4514698e+2, -1521425.6, -1515079.0, 10283.056, 0.09229192, -0.07019066, -1507490.8, 10062.05, 0.0022969088, 9.999915, 10.000041 
1.4150803e+3, 1.5514825e+2, -1425198.0, -1433745.6, 67619.15, -0.073873386, 0.030320797, -1361717.8, 57825.133, 0.0005425403, 9.999989, 9.999887 
1.415079e+3, 1.6514854e+2, -1350786.1, -1317633.4, 26394.75, -0.16743572, 0.067104414, -1303041.5, 18497.89, 0.000040406845, 9.999688, 10.000165 
1.415079e+3, 1.7514782e+2, -1324500.0, -1237753.8, 66489.59, -0.06375944, -0.067333505, -1201741.3, 21802.123, 0.00000007226826, 9.999139, 10.0002985 
1.415079e+3, 1.851472e+2, -1294475.8, -1366365.4, 113198.78, -0.047945462, -0.06371861, -1211651.9, -86102.16, 0.0, 9.999506, 9.998564 
1.4150788e+3, 1.9514646e+2, -1023260.0, -1174362.5, 87448.445, -0.1473101, -0.036024388, -983246.44, 44314.74, 0.0, 10.0006485, 9.998656 
1.4150779e+3, 2.0514536e+2, -865674.0, -1026851.6, -70926.45, -0.15780114, -0.013831552, -838907.7, 90664.79, 0.0, 10.000953, 9.9988575 
1.4150763e+3, 2.1514373e+2, -825949.2, -942479.7, -55590.35, -0.06452619, -0.105969995, -803684.1, 27901.967, 0.0, 10.000506, 9.998973 
1.415076e+3, 2.2514288e+2, -788686.94, -944546.7, 26783.117, 0.00072630047, -0.0489878, -784212.94, -50617.27, 0.0, 10.000391, 9.99834 
1.4150766e+3, 2.3514259e+2, -666405.7, -824352.25, 40796.164, 0.041120257, 0.047999855, -656490.8, -20887.46, 0.0, 10.000517, 9.998429 
1.4150754e+3, 2.4514158e+2, -502696.4, -670345.44, -18618.857, -0.0058340193, 0.100093216, -500653.53, 36960.07, 0.0, 10.000853, 9.9986515 
1.4150724e+3, 2.551396e+2, -321674.7, -516228.78, 44658.285, -0.1287788, -0.012085301, -311913.5, 127715.56, 0.0, 10.001371, 9.998781 
1.415071e+3, 2.6513737e+2, -300449.06, -561561.0, 48310.23, -0.11637187, -0.057943862, -291797.5, 49850.625, 0.000000079284355, 10.001296, 9.997844 
1.4150712e+3, 2.7513474e+2, -278953.3, -486061.84, 24518.928, 0.016585998, -0.14762923, -276090.2, -32418.104, 0.000007370644, 10.000715, 9.997964 
1.4150704e+3, 2.8513265e+2, -142644.2, -370676.94, 49318.953, 0.005494187, -0.14264934, -132434.61, 13255.371, 0.00007202747, 10.000971, 9.997957 
1.4150694e+3, 2.9513046e+2, 74724.78, -205924.31, 101442.516, -0.10414393, -0.21150222, 107552.086, 155260.39, 0.00031764805, 10.001742, 9.998048 
1.4150679e+3, 3.0512777e+2, 61538.375, -296208.22, -31709.693, -0.13154894, -0.22553599, 64327.297, 64327.297, 0.00085660315, 10.001834, 9.997034 
1.4150652e+3, 3.1512693e+2, 116878.14, -26391.953, -5345.336, -0.14893399, -0.072876416, 117077.3, 117077.3, 0.0016729925, 10.001096, 9.999248 
1.4250813e+3, 1.2514755e+2, -1800732.0, -1713016.3, 144856.83, -0.098002374, -0.0034471594, -1605523.5, 108023.19, 0.010011913, 9.99917, 10.000394 
1.4250775e+3, 1.3514733e+2, -1702051.5, -1535810.4, 39147.285, -0.3802995, -0.13702977, -1527053.1, 88494.73, 0.0058154534, 9.998882, 10.001083 
1.4250825e+3, 1.4514878e+2, -1589337.6, -1504358.5, 130411.08, 0.21987848, -0.07784927, -1409689.8, 107843.836, 0.002423067, 9.999272, 10.00042 
1.4250803e+3, 1.5515016e+2, -1453436.8, -1409048.1, 128697.15, -0.04316537, 0.00050286535, -1300645.5, 118874.94, 0.00057589856, 9.99964, 10.000214 
1.4250785e+3, 1.6515046e+2, -1338740.1, -1327807.0, 72254.56, -0.18440714, 0.028962903, -1260812.5, 60704.46, 0.00004378684, 9.99984, 10.000014 
1.4250788e+3, 1.7514966e+2, -1173243.9, -1178526.6, 17643.201, -0.03690677, -0.103652835, -1158045.5, 65477.945, 0.00000008454083, 10.00023, 10.000176 
1.4250794e+3, 1.8514912e+2, -1199418.0, -1317168.0, 124152.43, 0.006005393, -0.08859158, -1120888.1, 4641.6504, 0.0, 10.000137, 9.998598 
1.4250793e+3, 1.9514869e+2, -1153911.6, -1229848.0, 150014.27, -0.111769974, -0.032767557, -1037135.3, -9597.45, 0.0, 9.999722, 9.998721 
1.4250787e+3, 2.051476e+2, -987290.5, -1097627.1, 67445.445, -0.12695982, -0.009243743, -955324.25, -25774.807, 0.0, 10.000164, 9.998749 
1.4250776e+3, 2.1514556e+2, -685858.0, -889985.94, 45291.113, -0.026471341, -0.13073921, -676260.25, 155307.25, 0.0, 10.001506, 9.998858 
1.4250772e+3, 2.2514454e+2, -604049.3, -861046.75, 123951.67, 0.027811335, -0.08312622, -554009.7, 179569.5, 0.0, 10.001685, 9.998294 
1.425077e+3, 2.3514436e+2, -612689.4, -798981.56, 102899.05, 0.023984954, 0.029943792, -567039.2, 68546.92, 0.0, 10.000886, 9.99843 
1.4250757e+3, 2.4514365e+2, -535927.44, -618789.06, 67143.07, -0.021658497, 0.080305025, -498461.47, 39131.027, 0.0, 10.000334, 9.999261 
1.4250733e+3, 2.5514212e+2, -456660.06, -514236.94, 45821.484, -0.101664476, -0.044073127, -431333.97, 8266.905, 0.00000000006254562, 10.000144, 9.999392 
1.4250727e+3, 2.6514012e+2, -418370.66, -694698.3, 83511.54, -0.04647935, -0.06518654, -395092.78, -53473.94, 0.00000036239143, 10.000809, 9.997161 
1.4250736e+3, 2.751375e+2, -96380.445, -469938.53, 59830.086, 0.13083017, -0.08778475, -87031.85, 156614.9, 0.000010087366, 10.002266, 9.997328 
1.4250727e+3, 2.8513506e+2, 67241.484, -231732.06, 96791.31, 0.077795595, -0.105357185, 95841.36, 241510.44, 0.000078694284, 10.002249, 9.998303 
1.4250702e+3, 2.9513228e+2, -561.81366, -198825.92, 66873.89, -0.15895063, -0.26683974, 19885.734, 67576.69, 0.0003338223, 10.001041, 9.998432 
1.425069e+3, 3.0513018e+2, -75485.56, -406593.75, 8480.156, -0.15557292, -0.22248499, -75268.516, -75268.516, 0.00088968594, 10.001037, 9.996684 
1.4250675e+3, 3.1512946e+2, 216760.2, -3923.0706, 42542.266, -0.048483834, -0.028014949, 224677.27, 224677.27, 0.0017268027, 10.001854, 9.999055 
1.4350815e+3, 1.251481e+2, -1741401.3, -1611754.3, -113441.06, -0.07254345, -0.21982431, -1545921.9, 167616.0, 0.010506618, 9.999222, 10.00108 
1.4350773e+3, 1.3515069e+2, -1696795.0, -1516184.8, 63713.363, -0.30522186, -0.093031205, -1495971.1, 119539.74, 0.006123269, 9.998848, 10.001227 
1.4350809e+3, 1.4515153e+2, -1565262.5, -1471244.4, 129842.39, 0.07867533, -0.11360627, -1380163.3, 137336.84, 0.002563054, 9.999334, 10.000626 
1.43508e+3, 1.5515074e+2, -1448874.3, -1391893.1, 156568.92, -0.07640493, -0.26879552, -1261243.8, 158260.61, 0.0006133788, 9.999599, 10.000359 
1.4350787e+3, 1.6515051e+2, -1412347.5, -1476665.5, 63794.48, -0.1903341, -0.24777576, -1373064.6, -51556.82, 0.000047750204, 9.999824, 9.999002 
1.4350791e+3, 1.7515066e+2, -1247433.8, -1327534.8, 43286.863, -0.072129026, -0.17917404, -1228511.4, -4999.43, 0.00000010052836, 10.000203, 9.999171 
1.4350794e+3, 1.8515089e+2, -1124299.8, -1149152.4, 88003.64, -0.021199055, -0.09772673, -1047849.44, 77661.85, 0.0, 10.000088, 9.999775 
1.4350794e+3, 1.9515093e+2, -1091831.5, -1073451.8, 148093.16, -0.08760452, -0.11333793, -934263.56, 93245.29, 0.0, 9.999603, 9.999852 
1.4350793e+3, 2.0515037e+2, -1016730.25, -1126763.0, 97902.24, -0.108337425, -0.08748396, -959445.06, -29931.195, 0.0, 10.000022, 9.998617 
1.4350793e+3, 2.1514894e+2, -733656.0, -936352.0, 108507.43, -0.04656226, -0.13051629, -686527.44, 145001.2, 0.0, 10.001274, 9.9986515 
1.4350782e+3, 2.2514762e+2, -650227.4, -895364.06, 77480.305, -0.058691885, -0.096861124, -627791.56, 105752.734, 0.0, 10.001428, 9.9981785 
1.4350764e+3, 2.351462e+2, -658358.7, -831381.0, 89636.37, -0.14546952, -0.09909418, -620295.1, 15267.073, 0.0, 10.000631, 9.998326 
1.4350751e+3, 2.4514523e+2, -571169.1, -642594.56, 40349.12, -0.14669842, -0.06461389, -552998.2, -15427.26, 0.0, 10.000117, 9.999204 
1.4350742e+3, 2.551445e+2, -500081.66, -545030.94, 54154.707, -0.054884575, -0.10170082, -463923.2, -24350.527, 0.000000006122379, 9.999896, 9.999298 
1.4350745e+3, 2.6514328e+2, -455326.16, -730753.56, 123519.39, 0.020487338, -0.032558993, -408047.7, -66462.39, 0.0000008787704, 10.000627, 9.997007 
1.4350758e+3, 2.7514124e+2, -136319.14, -510124.88, 133299.17, 0.08480698, 0.022006014, -93654.266, 149956.39, 0.000014147242, 10.002078, 9.99715 
1.4350747e+3, 2.8513888e+2, 28317.014, -269648.06, 34325.387, 0.012857856, 0.028976336, 32220.148, 177855.27, 0.000090676775, 10.00206, 9.998133 
1.4350712e+3, 2.9513577e+2, -55450.78, -261270.3, 45336.094, -0.18452296, -0.14893852, -45907.082, 1755.7291, 0.00036389777, 10.000806, 9.998123 
1.4350702e+3, 3.0513465e+2, -60194.344, -312686.9, 25129.764, -0.16230594, -0.025336973, -57717.56, -57717.56, 0.0009561929, 10.000801, 9.997429 
1.4350685e+3, 3.1513375e+2, 186050.86, 40577.83, 117484.414, -0.17611985, 0.07910578, 251492.45, 251492.45, 0.0018452968, 10.001406, 9.999577 
1.44508e+3, 1.2515064e+2, -1935162.0, -1706520.6, -130281.65, -0.062891014, -0.19311887, -1647513.5, 66000.91, 0.011047917, 9.99789, 10.001063 
1.4450777e+3, 1.3515258e+2, -1625278.3, -1537565.6, 18485.236, -0.18636003, -0.09200419, -1533829.1, 81664.22, 0.00646129, 9.99957, 10.000726 
1.4450796e+3, 1.4515278e+2, -1482414.4, -1445568.5, 36114.254, -0.0069026365, -0.13844495, -1423449.5, 94038.73, 0.0027186894, 9.999983, 10.000471 
1.4450794e+3, 1.5515189e+2, -1505312.3, -1423447.3, -4115.4194, -0.058326494, -0.2994452, -1423240.9, -3748.034, 0.0006559602, 9.999237, 10.000312 
1.4450788e+3, 1.6515177e+2, -1507857.4, -1530292.5, 2912.8162, -0.11420602, -0.26044884, -1507485.3, -185990.0, 0.000052490832, 9.999207, 9.998931 
1.4450796e+3, 1.7515226e+2, -1248113.3, -1329033.6, 23878.252, -0.029517232, -0.15488608, -1241592.6, -18095.293, 0.00000012546444, 10.000219, 9.9991455 
1.44508e+3, 1.8515243e+2, -1034862.25, -1103301.4, 59653.055, 0.0057190056, -0.08099115, -1000310.7, 125186.266, 0.0, 10.000674, 9.999812 
1.4450799e+3, 1.9515207e+2, -934182.5, -989015.56, 6587.356, -0.062124383, -0.14175987, -933402.25, 94094.43, 0.0, 10.00064, 9.999931 
1.4450797e+3, 2.0515163e+2, -970323.3, -1081362.9, -21016.87, -0.07009235, -0.11820326, -966478.5, -36978.254, 0.0, 10.000268, 9.998806 
1.4450802e+3, 2.1515083e+2, -951267.9, -1008974.9, -19660.904, 0.011548418, -0.11848211, -945206.1, -113696.31, 0.0, 9.99968, 9.998909 
1.4450793e+3, 2.2514972e+2, -843938.06, -963524.06, 5090.53, -0.021947416, -0.087068655, -843721.75, -110199.39, 0.0, 9.999966, 9.998425 
1.4450768e+3, 2.3514806e+2, -579830.3, -766190.3, 15212.785, -0.17624323, -0.1413528, -578596.6, 56943.57, 0.0, 10.001027, 9.998588 
1.4450757e+3, 2.4514689e+2, -389563.8, -613517.8, -9086.885, -0.1622099, -0.11604533, -389195.72, 148355.64, 0.0, 10.001623, 9.9986725 
1.4450757e+3, 2.551459e+2, -238999.77, -479878.63, -59669.086, 0.010100745, -0.12590988, -225029.16, 214529.52, 0.000000012932129, 10.001929, 9.998774 
1.4450763e+3, 2.6514456e+2, -256170.5, -581855.75, 66360.17, 0.08710545, -0.063228, -243168.33, 98403.92, 0.0000016431604, 10.001776, 9.997474 
1.4450772e+3, 2.751427e+2, -213691.72, -491731.22, 80295.49, 0.0722131, -0.041431695, -192169.1, 51424.56, 0.000019343763, 10.001319, 9.997634 
1.4450763e+3, 2.8514084e+2, -90388.38, -377029.06, 2352.8613, 0.01780893, 0.014923031, -90369.07, 55245.71, 0.00010742406, 10.001459, 9.997681 
1.4450738e+3, 2.9513884e+2, 100255.766, -227812.88, -32568.418, -0.061827816, -0.009890596, 103457.69, 151095.03, 0.0004097107, 10.002063, 9.997735 
1.4450726e+3, 3.0513787e+2, 155385.66, -133687.53, -1744.484, -0.036138233, 0.11708977, 155396.19, 155396.19, 0.0010616613, 10.001948, 9.99812 
1.4450698e+3, 3.1513548e+2, 167900.16, 71733.23, 92.56362, -0.16211785, -0.0027965296, 167900.25, 167900.25, 0.0020378157, 10.001117, 9.999927 
1.4550784e+3, 1.2515557e+2, -1982183.8, -1827090.6, 7278.496, -0.097775586, 0.074473865, -1826749.8, -113277.68, 0.011640448, 9.997985, 10.000191 
1.455078e+3, 1.3515319e+2, -1718848.4, -1718789.8, 100042.81, -0.14052653, -0.14495671, -1618776.3, -3283.09, 0.0068325973, 9.99951, 9.999515 
1.4550781e+3, 1.451528e+2, -1523945.0, -1531428.0, -5680.2935, -0.20695779, -0.14931282, -1520884.8, -3389.5522, 0.0028915813, 9.999984, 9.999878 
1.4550784e+3, 1.5515356e+2, -1536915.6, -1479761.9, -18429.86, -0.12869374, -0.10501671, -1474334.4, -54848.215, 0.00070428615, 9.999205, 9.999938 
1.4550787e+3, 1.6515428e+2, -1433491.4, -1386195.6, 18453.166, -0.092348225, -0.016200379, -1379847.9, -58368.582, 0.000058062662, 9.999243, 9.999906 
1.45508e+3, 1.7515452e+2, -1191743.3, -1201557.1, 76942.02, -0.030830104, -0.028422642, -1119551.9, 103926.65, 0.00000016567238, 10.000172, 10.000045 
1.4550805e+3, 1.8515381e+2, -1110530.8, -1251507.8, 42152.707, -0.049137108, -0.0355458, -1098888.4, 26597.346, 0.0, 10.000632, 9.998818 
1.4550798e+3, 1.9515218e+2, -1021005.9, -1144363.6, 19833.918, -0.1584812, -0.12115713, -1017895.4, 9605.584, 0.0, 10.000526, 9.998927 
1.4550796e+3, 2.0515136e+2, -962618.5, -1024631.56, -60647.56, -0.13948897, -0.104757614, -925510.94, 3997.7332, 0.0, 10.000101, 9.999271 
1.4550802e+3, 2.1515109e+2, -949709.5, -953087.2, -26457.197, 0.02266849, -0.10373393, -924887.3, -93375.375, 0.0, 9.999462, 9.999394 
1.4550796e+3, 2.2515067e+2, -822266.94, -868803.56, 28801.715, 0.00065494445, -0.06562101, -808508.9, -74993.76, 0.0, 9.999749, 9.99918 
1.4550778e+3, 2.3515e+2, -573781.75, -685586.2, 70631.43, -0.20109427, -0.09301359, -539607.06, 95912.64, 0.0, 10.000743, 9.999276 
1.4550771e+3, 2.4514867e+2, -490142.25, -770907.94, -11920.047, -0.20961656, -0.0664744, -489637.06, 47895.844, 0.0, 10.001393, 9.997706 
1.4550774e+3, 2.5514647e+2, -333856.63, -631114.9, -30234.068, -0.03112294, -0.101447046, -330812.7, 108744.13, 0.000000017460069, 10.001731, 9.997834 
1.4550777e+3, 2.651442e+2, -213726.98, -453524.75, 34673.652, 0.016981443, -0.13550769, -208813.98, 132763.69, 0.000002726617, 10.001597, 9.998441 
1.4550777e+3, 2.7514166e+2, -181416.64, -370919.56, 81600.445, -0.050770193, -0.28167427, -151122.22, 92475.266, 0.000025176965, 10.001092, 9.998568 
1.4550775e+3, 2.851408e+2, -160753.97, -466299.78, 10423.06, -0.03854798, -0.14328985, -160398.83, -14789.672, 0.00012772984, 10.001221, 9.997181 
1.4550775e+3, 2.9514143e+2, 35293.43, -309724.13, 13091.034, 0.05796672, 0.14312162, 35789.434, 83404.31, 0.0004676586, 10.001836, 9.997284 
1.455076e+3, 3.0514e+2, 163000.03, -70961.41, -44581.285, 0.08070544, 0.213461, 171207.1, 171207.1, 0.0011983007, 10.001744, 9.9986515 
1.4550705e+3, 3.1513426e+2, 94643.04, 3749.6082, 5170.853, -0.26510024, -0.28746986, 94936.26, 94936.26, 0.002292943, 10.000749, 9.999641 
1.4650771e+3, 1.2515739e+2, -1905610.1, -1785577.9, 84126.89, -0.03988377, 0.11325648, -1742253.4, -28798.496, 0.012283002, 9.998514, 10.000214 
1.4650781e+3, 1.3515519e+2, -1731442.4, -1720243.3, 135575.03, -0.06635342, -0.09474064, -1590152.1, 25322.277, 0.00723705, 9.999422, 9.99954 
1.4650778e+3, 1.4515461e+2, -1649353.1, -1659934.8, 79992.82, -0.1806674, -0.08133558, -1574476.4, -56997.242, 0.0030819494, 9.999392, 9.9993 
1.4650781e+3, 1.551544e+2, -1476245.4, -1495542.8, 30858.217, -0.092741765, -0.09126291, -1453562.6, -34081.313, 0.0007585455, 9.999791, 9.999559 
1.4650789e+3, 1.6515495e+2, -1326776.5, -1309368.0, 99752.914, -0.03107326, -0.014933726, -1217940.3, 103535.36, 0.00006440502, 9.999868, 10.000126 
1.4650802e+3, 1.7515571e+2, -1223881.4, -1194201.0, 69984.72, -0.012037976, 0.0039040998, -1137500.4, 85967.27, 0.00000022299002, 9.999844, 10.000251 
1.4650808e+3, 1.8515505e+2, -1213647.5, -1304795.0, 65743.875, -0.047763214, -0.0042193206, -1179226.1, -53752.297, 0.0, 9.999975, 9.9987545 
1.4650804e+3, 1.9515306e+2, -1026839.7, -1146018.8, 79483.03, -0.1378107, -0.12187503, -987089.1, 40404.063, 0.0, 10.000507, 9.998911 
1.4650804e+3, 2.0515217e+2, -840274.9, -971181.5, 38110.95, -0.11139932, -0.112536654, -829988.0, 99514.18, 0.0, 10.0009365, 9.999251 
1.4650805e+3, 2.1515207e+2, -672679.94, -821402.5, 13501.292, 0.028516028, -0.09189547, -671464.2, 160039.38, 0.0, 10.001346, 9.999405 
1.4650804e+3, 2.2515176e+2, -595244.1, -742942.8, 72368.3, 0.028477898, -0.050525445, -565696.7, 167808.42, 0.0, 10.001268, 9.999299 
1.4650795e+3, 2.3515101e+2, -541452.2, -658219.0, 30762.193, -0.1099333, -0.09658153, -533843.6, 101665.484, 0.0, 10.000917, 9.999378 
1.465079e+3, 2.4514963e+2, -566495.0, -829996.6, -9768.529, -0.13155241, -0.06906253, -566133.4, -28610.031, 0.0, 10.000969, 9.997505 
1.4650787e+3, 2.5514758e+2, -382892.6, -670184.4, -4827.025, -0.05128546, -0.070596576, -382811.5, 56736.582, 0.000000044837254, 10.001474, 9.997682 
1.465079e+3, 2.651453e+2, -153679.0, -385077.97, 75118.33, -0.011430225, -0.11555457, -131432.36, 210136.05, 0.0000038968087, 10.001837, 9.998798 
1.4650796e+3, 2.7514258e+2, -9361.943, -250679.27, 50598.28, -0.007674354, -0.31056726, 817.8396, 244404.58, 0.000030518888, 10.002093, 9.998921 
1.4650795e+3, 2.851416e+2, -31660.46, -388820.47, 25796.168, 0.0030854573, -0.20813602, -29806.932, 115791.625, 0.00014669313, 10.002043, 9.99732 
1.4650789e+3, 2.9514232e+2, 30709.48, -291349.84, 21458.207, 0.025682513, 0.07798607, 32132.91, 79737.0, 0.00052498176, 10.00173, 9.997456 
1.4650778e+3, 3.051407e+2, 220739.02, -26317.154, 879.4159, 0.085827954, 0.11574988, 220742.14, 220742.14, 0.0013417992, 10.002085, 9.998775 
1.4650741e+3, 3.1513587e+2, 382644.53, 119557.336, -40420.11, -0.069182105, -0.30367646, 388714.53, 388714.53, 0.0025704885, 10.002826, 9.999429 
1.4750752e+3, 1.2515503e+2, -1833829.3, -1643562.9, 56515.105, -0.16237797, -0.15715846, -1628042.1, 85431.27, 0.012969953, 9.998556, 10.001156 
1.475077e+3, 1.3515851e+2, -1654162.3, -1545699.8, 154040.13, -0.14936218, 0.07280064, -1436623.3, 178814.48, 0.0076708426, 9.9993725, 10.000756 
1.4750789e+3, 1.4515811e+2, -1661962.0, -1706647.1, 62159.71, -0.08589862, 0.061467227, -1618251.5, -100810.21, 0.0032881629, 9.999462, 9.998954 
1.4750783e+3, 1.5515462e+2, -1507160.1, -1551080.9, 59277.918, -0.08211658, -0.24223745, -1465905.5, -46429.25, 0.00081847684, 9.999753, 9.999199 
1.4750786e+3, 1.6515405e+2, -1353224.0, -1377638.9, 79456.766, -0.08019961, -0.23485364, -1285042.4, 36439.73, 0.000071419374, 9.999916, 9.999635 
1.4750795e+3, 1.7515603e+2, -1268202.9, -1271155.6, 81107.39, -0.10309139, -0.04619122, -1188558.5, 34904.297, 0.0000002932695, 9.999785, 9.999746 
1.4750804e+3, 1.8515626e+2, -1157598.1, -1191551.5, 66191.29, -0.12266445, 0.020967616, -1106241.1, 19218.879, 0.0, 9.999972, 9.999539 
1.4750813e+3, 1.9515462e+2, -986105.9, -1040240.6, 112026.33, -0.13022527, -0.14172524, -897923.3, 129551.52, 0.0, 10.000408, 9.99969 
1.4750814e+3, 2.0515391e+2, -884349.25, -1029948.75, 33275.195, -0.12622115, -0.13504495, -877105.0, 52377.047, 0.0, 10.0007925, 9.998914 
1.4750808e+3, 2.1515395e+2, -734212.44, -892215.9, 40458.62, -0.10157468, -0.06881764, -724455.1, 107028.3, 0.0, 10.001108, 9.999029 
1.4750808e+3, 2.251531e+2, -667172.8, -849352.4, 41309.863, -0.06794361, -0.029218815, -658243.3, 75247.85, 0.0, 10.001064, 9.998676 
1.4750814e+3, 2.3515114e+2, -609730.6, -757495.56, 34012.137, -0.030345134, -0.13746867, -602277.75, 33230.227, 0.0, 10.000728, 9.998794 
1.4750808e+3, 2.451498e+2, -555085.2, -764748.9, -8027.5205, -0.07403129, -0.103714556, -554778.3, -17256.35, 0.0, 10.000785, 9.998043 
1.4750792e+3, 2.5514895e+2, -380547.97, -612874.5, 28034.418, -0.18101436, -0.04080196, -377212.97, 62321.77, 0.000000082863835, 10.001246, 9.998185 
1.4750798e+3, 2.651476e+2, -198412.22, -426487.06, 72499.1, -0.13320349, -0.008553331, -177317.66, 164229.05, 0.0000048986644, 10.001612, 9.99862 
1.4750826e+3, 2.7514544e+2, -51634.12, -287535.56, 84068.15, 0.059821118, -0.13729334, -24740.697, 218820.61, 0.00003489947, 10.001876, 9.998767 
1.4750816e+3, 2.8514335e+2, -28942.521, -337670.56, -2680.4058, -0.010773288, -0.16494626, -28919.252, 116662.4, 0.00016199093, 10.001839, 9.997772 
1.4750776e+3, 2.9514134e+2, 29827.8, -238927.31, 29798.654, -0.3212033, -0.20177501, 33092.125, 80699.086, 0.0005771533, 10.001495, 9.997929 
1.4750777e+3, 3.051399e+2, 175275.63, -65964.93, 15390.725, -0.16905631, -0.1634814, 176253.56, 176253.56, 0.0014773308, 10.001845, 9.998615 
1.4750797e+3, 3.1513998e+2, 314603.16, 81307.05, 29684.387, 0.13392791, -0.0796679, 318320.9, 318320.9, 0.002829432, 10.00239, 9.99937 
1.4850743e+3, 1.251536e+2, -1820282.9, -1634890.0, -9755.183, -0.08758108, -0.21524607, -1634378.1, 79110.01, 0.013700781, 9.998616, 10.001203 
1.4850765e+3, 1.3515778e+2, -1788780.3, -1591732.0, -46946.926, -0.067649916, 0.0751696, -1581118.5, 34328.305, 0.00813248, 9.998322, 10.000965 
1.4850788e+3, 1.4515795e+2, -1805295.0, -1718802.1, -70620.62, 0.03347884, 0.08436256, -1679238.4, -161793.0, 0.0035089266, 9.99827, 9.999426 
1.4850782e+3, 1.5515551e+2, -1481213.1, -1485900.6, -48969.047, -0.06276076, -0.1612981, -1434531.8, -15061.837, 0.0008836724, 9.999719, 9.999651 
1.4850785e+3, 1.6515483e+2, -1319764.6, -1366187.6, 13237.589, -0.090912685, -0.18225658, -1316255.3, 5220.6836, 0.00007901186, 10.000205, 9.999566 
1.4850795e+3, 1.7515558e+2, -1232645.5, -1259022.3, 10594.201, -0.09418872, -0.10625661, -1228917.4, -5450.65, 0.00000037325287, 10.000068, 9.999698 
1.4850804e+3, 1.8515587e+2, -1141162.5, -1136271.8, 48129.996, -0.09380087, -0.05183143, -1090525.0, 34937.625, 0.0, 9.999882, 9.999962 
1.4850816e+3, 1.9515559e+2, -1030048.6, -1012780.75, 34014.36, -0.10151464, -0.122371815, -986321.6, 41143.063, 0.0, 9.999895, 10.000125 
1.485082e+3, 2.0515528e+2, -961608.06, -1066504.4, -4040.716, -0.109889366, -0.09504664, -961452.6, -31984.566, 0.0, 10.000289, 9.998891 
1.4850816e+3, 2.1515484e+2, -736308.6, -891113.4, -8979.954, -0.115330845, -0.07356117, -735789.44, 95684.375, 0.0, 10.001097, 9.999032 
1.4850819e+3, 2.2515379e+2, -630647.94, -842210.3, 28704.04, -0.075590685, -0.050855253, -626822.7, 106661.32, 0.0, 10.001356, 9.998582 
1.4850825e+3, 2.3515205e+2, -540791.7, -731714.3, 29109.521, -0.013282144, -0.1266901, -536452.06, 99047.336, 0.0, 10.001228, 9.998729 
1.485082e+3, 2.4515072e+2, -468874.03, -673867.3, 48806.043, -0.042073905, -0.11457457, -457847.16, 79665.484, 0.0, 10.001165, 9.998489 
1.4850806e+3, 2.551496e+2, -356804.8, -550446.7, 45479.78, -0.14967695, -0.11576002, -346655.16, 92869.734, 0.00000011463164, 10.001194, 9.998642 
1.4850815e+3, 2.6514873e+2, -241647.22, -438277.03, 121414.6, -0.105094224, -0.062095106, -183733.67, 157798.95, 0.000005857849, 10.001293, 9.998684 
1.4850843e+3, 2.751478e+2, -102845.87, -306223.63, 104913.7, 0.07270308, -0.07093418, -58426.867, 185111.8, 0.000039275426, 10.001513, 9.998809 
1.4850834e+3, 2.851458e+2, -14595.591, -305263.0, 46315.625, -0.016253626, -0.103601694, -7393.9795, 138163.39, 0.00017769585, 10.001826, 9.998 
1.485079e+3, 2.951427e+2, 147382.66, -163975.03, 28075.805, -0.34642395, -0.26456112, 149894.06, 197482.58, 0.000630339, 10.002201, 9.998119 
1.4850801e+3, 3.0514055e+2, 292146.3, -83205.38, 51611.254, -0.16694476, -0.2706375, 299113.6, 299113.6, 0.001603161, 10.002944, 9.99798 
1.485084e+3, 3.1514165e+2, 503972.78, 139138.61, -58002.68, 0.28274086, -0.022358753, 512972.25, 512972.25, 0.0030493059, 10.003823, 9.999079 
1.4950715e+3, 1.2515369e+2, -1831985.6, -1678990.5, -94031.49, -0.3224943, 0.0047906446, -1634270.1, 79222.67, 0.014485426, 9.998706, 10.000852 
1.4950761e+3, 1.3515355e+2, -1852030.1, -1708268.9, -55870.1, 0.038315155, -0.05594179, -1689109.5, -73613.63, 0.008627366, 9.998272, 10.000183 
1.4950775e+3, 1.4515449e+2, -1699577.9, -1533621.1, -46417.703, 0.01776603, 0.0039283913, -1521520.5, -4033.069, 0.0037456865, 9.998392, 10.0006485 
1.4950772e+3, 1.5515727e+2, -1406798.8, -1328224.9, 18154.809, -0.17134792, 0.16675779, -1324232.9, 95227.15, 0.0009542572, 9.999697, 10.00075 
1.4950779e+3, 1.6515738e+2, -1285985.5, -1310969.9, -10745.996, -0.21768108, 0.15234584, -1281999.5, 39456.344, 0.00008722728, 10.000259, 9.999918 
1.4950797e+3, 1.751544e+2, -1216410.5, -1214258.0, 17866.176, -0.10809169, -0.17857447, -1197435.6, 26043.248, 0.0000004647829, 10.000024, 10.000021 
1.4950807e+3, 1.8515407e+2, -1134041.5, -1125391.5, 29007.469, -0.10389067, -0.20814812, -1100388.4, 25091.63, 0.0, 9.999888, 10.000039 
1.4950809e+3, 1.9515613e+2, -1045139.6, -1016488.7, 47501.65, -0.18938708, -0.051071096, -981199.4, 46261.64, 0.0, 9.999774, 10.00016 
1.4950818e+3, 2.0515642e+2, -962749.75, -1037594.9, 8818.535, -0.19851176, 0.01838756, -961724.75, -32265.951, 0.0, 10.000148, 9.99916 
1.495083e+3, 2.1515478e+2, -748243.0, -866623.4, 34290.293, -0.123007566, -0.10664081, -739027.75, 92446.91, 0.0, 10.00089, 9.999297 
1.4950831e+3, 2.2515391e+2, -632460.25, -798810.25, 6225.8164, -0.118181884, -0.09917603, -632227.56, 101255.01, 0.0, 10.001143, 9.998987 
1.4950822e+3, 2.3515366e+2, -547303.06, -690367.6, 39315.227, -0.18298073, -0.070053786, -537210.9, 98273.47, 0.0, 10.000991, 9.999129 
1.4950821e+3, 2.4515228e+2, -481029.13, -644073.4, 35635.95, -0.17334485, -0.095772475, -473580.6, 63914.98, 0.0, 10.000926, 9.998808 
1.4950827e+3, 2.5514957e+2, -366315.0, -523319.0, 65089.195, -0.085023865, -0.2941014, -342840.7, 96677.8, 0.00000015644366, 10.000987, 9.998931 
1.4950836e+3, 2.651487e+2, -268200.53, -438876.7, 114284.52, -0.061548386, -0.2579491, -210907.84, 130618.195, 0.000006865855, 10.001062, 9.998788 
1.4950843e+3, 2.7514943e+2, -130923.02, -308227.44, 130608.37, -0.10097988, -0.108845115, -61721.637, 181798.89, 0.00004412461, 10.001279, 9.998905 
1.4950842e+3, 2.8514868e+2, -43221.727, -314581.97, 43932.543, -0.15965624, -0.02333264, -36286.406, 109241.55, 0.00019465707, 10.001606, 9.998043 
1.4950828e+3, 2.951463e+2, 117993.04, -173161.72, 69523.95, -0.21711865, -0.12377741, 133742.52, 181292.14, 0.0006807663, 10.001974, 9.998167 
1.4950842e+3, 3.0514273e+2, 157612.83, -297353.47, 72907.36, -0.07688093, -0.20797992, 169010.53, 169010.53, 0.0017048066, 10.002674, 9.9966345 
1.4950866e+3, 3.1514072e+2, 383739.72, -17831.809, 16971.045, 0.08980469, -0.14056621, 384455.66, 384455.66, 0.0032039285, 10.003432, 9.998184 
1.5050703e+3, 1.251528e+2, -1781426.5, -1649750.9, 40572.305, -0.30961612, 0.015487149, -1638253.5, 75248.34, 0.015336173, 9.999037, 10.000894 
1.5050745e+3, 1.3515228e+2, -1780481.0, -1668540.1, 63108.723, 0.030716604, -0.09625108, -1640157.8, -24649.979, 0.0091627855, 9.998716, 10.000253 
1.5050758e+3, 1.4515352e+2, -1641927.1, -1498643.4, 147007.95, 0.0064279465, -0.011482328, -1406749.6, 110746.664, 0.0040015904, 9.998789, 10.0006895 
1.5050773e+3, 1.5515643e+2, -1423674.3, -1325000.9, 91584.836, -0.11267502, 0.15840542, -1270309.3, 149158.95, 0.001031135, 9.999554, 10.000834 
1.5050785e+3, 1.651567e+2, -1381536.9, -1345407.1, 2225.0159, -0.14434011, 0.15113923, -1345270.6, -23807.924, 0.000096309515, 9.999531, 10.000046 
1.5050797e+3, 1.75154e+2, -1335048.3, -1253870.5, -15893.542, -0.055187482, -0.16740252, -1250869.6, -27386.355, 0.000000575819, 9.999112, 10.0001955 
1.5050806e+3, 1.851538e+2, -1235716.8, -1161299.8, 46406.266, -0.061277237, -0.19944565, -1139027.0, -13543.772, 0.0, 9.999147, 10.000135 
1.5050808e+3, 1.9515581e+2, -1022032.44, -988809.56, 37930.32, -0.18518677, -0.059065636, -964012.7, 63451.98, 0.0, 9.999869, 10.000291 
1.505082e+3, 2.0515618e+2, -906892.9, -962413.0, 49837.766, -0.19292048, -0.010099795, -877605.4, 51855.402, 0.0, 10.000329, 9.999591 
1.505084e+3, 2.1515478e+2, -751748.6, -823380.1, 52782.734, -0.090497494, -0.15047641, -723777.4, 107695.47, 0.0, 10.000666, 9.999709 
1.5050843e+3, 2.2515433e+2, -682370.2, -804793.25, 25752.916, -0.08145158, -0.12964311, -677173.4, 56303.7, 0.0, 10.00075, 9.999123 
1.5050831e+3, 2.351546e+2, -588351.75, -692908.2, 2026.0087, -0.171766, -0.05960956, -588312.5, 47162.594, 0.0, 10.00065, 9.999266 
1.5050833e+3, 2.4515344e+2, -464323.75, -613221.44, 32437.975, -0.14271493, -0.08090162, -457563.88, 79920.14, 0.0, 10.000951, 9.999 
1.5050848e+3, 2.5515074e+2, -252606.25, -444882.63, 15420.734, -0.0069658174, -0.29935533, -251377.34, 188127.64, 0.00000020302433, 10.001672, 9.99913 
1.5050854e+3, 2.6514962e+2, -188396.22, -439216.97, 59470.285, -0.0057457043, -0.2805472, -175010.06, 166504.89, 0.0000077496, 10.001766, 9.998452 
1.5050854e+3, 2.7514988e+2, -145949.95, -354427.84, 16914.092, -0.12942441, -0.14701101, -144586.6, 98929.59, 0.000048509926, 10.001315, 9.998584 
1.5050857e+3, 2.85149e+2, -45638.07, -315599.66, -20460.064, -0.14559148, -0.053913247, -44096.23, 101428.92, 0.00020995413, 10.001602, 9.998033 
1.5050867e+3, 2.95147e+2, 224896.83, -112895.305, -52920.62, -0.047423787, -0.11596597, 232993.63, 280536.0, 0.00072207046, 10.002714, 9.998198 
1.5050884e+3, 3.051436e+2, 258044.58, -320356.6, 14218.257, 0.037472624, -0.15878417, 258393.88, 258393.88, 0.0017705777, 10.0036545, 9.996022 
1.5050896e+3, 3.1514046e+2, 442482.22, -28922.479, -43074.54, 0.03264242, -0.12783276, 446385.84, 446385.84, 0.0032754042, 10.003984, 9.99787 
1.5150723e+3, 1.2515189e+2, -1729240.5, -1574661.5, 59210.15, -0.10044356, -0.11806279, -1554588.3, 158917.48, 0.016257107, 9.999173, 10.001357 
1.5150711e+3, 1.3515417e+2, -1742789.8, -1563044.3, 76934.69, -0.22517693, -0.03952183, -1534612.0, 80868.734, 0.009740974, 9.998624, 10.001018 
1.5150733e+3, 1.4515534e+2, -1703227.1, -1661340.1, 152727.19, -0.17463596, 0.061001137, -1528127.3, -10657.819, 0.0042781597, 9.998918, 9.999517 
1.515078e+3, 1.5515307e+2, -1500206.4, -1488789.4, 132288.73, -0.02626858, -0.17232807, -1362086.0, 57407.7, 0.0011151112, 9.999566, 9.999706 
1.5150796e+3, 1.6515292e+2, -1369503.3, -1338632.9, -36186.387, -0.027267674, -0.16729249, -1314727.3, 6768.2144, 0.000106548556, 9.999599, 10.000059 
1.5150791e+3, 1.7515443e+2, -1339102.3, -1256893.3, -17871.146, -0.054426946, -0.06974892, -1253176.4, -29697.127, 0.0000007145684, 9.9990835, 10.000191 
1.5150796e+3, 1.8515506e+2, -1221665.8, -1134198.9, 57772.168, -0.10479248, -0.02670441, -1105473.8, 19998.152, 0.0, 9.999156, 10.000319 
1.5150806e+3, 1.9515464e+2, -1028369.06, -973942.06, 77709.625, -0.212883, -0.14642993, -918818.7, 108656.63, 0.0, 9.999754, 10.000448 
1.5150821e+3, 2.0515467e+2, -889663.94, -892593.7, 43729.6, -0.2309018, -0.1656457, -847374.7, 82098.36, 0.0, 10.000177, 10.000147 
1.5150844e+3, 2.15155e+2, -746166.25, -757699.5, 79065.016, -0.14253108, -0.19201565, -672657.9, 158809.3, 0.0, 10.000431, 10.000275 
1.5150851e+3, 2.2515513e+2, -731100.25, -848891.9, 5853.1943, -0.10533229, -0.13079396, -730810.1, 2656.0835, 0.0, 10.000501, 9.998942 
1.5150847e+3, 2.351549e+2, -633979.8, -738267.94, 14768.071, -0.10912179, -0.09095953, -631928.9, 3542.7544, 0.0, 10.00044, 9.999057 
1.515085e+3, 2.4515419e+2, -493151.97, -626328.06, 42411.137, -0.09512781, -0.0572394, -480792.72, 56685.008, 0.0, 10.00074, 9.999018 
1.5150861e+3, 2.5515288e+2, -283188.44, -457939.25, 57552.664, -0.05138871, -0.13669753, -265937.03, 173548.86, 0.00000026346208, 10.001448, 9.999153 
1.5150867e+3, 2.651512e+2, -269971.94, -551733.1, 28284.574, -0.07472668, -0.1420099, -267160.66, 74340.82, 0.000008336701, 10.001527, 9.997795 
1.5150867e+3, 2.7514908e+2, -227494.86, -466704.94, 22980.588, -0.15538542, -0.18232684, -225307.14, 18218.004, 0.00005112129, 10.001084, 9.997921 
1.5150878e+3, 2.8514698e+2, -94773.38, -368843.28, 4676.3647, -0.13415144, -0.16863072, -94693.61, 50852.934, 0.00022272031, 10.001383, 9.997773 
1.5150903e+3, 2.951447e+2, 170469.56, -172292.42, 11980.035, 0.0003501923, -0.23434712, 170887.77, 218454.97, 0.0007570027, 10.002479, 9.997902 
1.5150921e+3, 3.0514273e+2, 224763.42, -314856.4, 15526.998, 0.02088567, -0.12440243, 225209.83, 225209.83, 0.0018115009, 10.003358, 9.996191 
1.5150921e+3, 3.1514078e+2, 408773.06, 12788.908, 32986.688, -0.16405497, -0.00097638264, 411502.16, 411502.16, 0.0032857955, 10.003545, 9.99835 
1.5250714e+3, 1.2515177e+2, -1918367.0, -1699907.4, 88194.58, -0.04004745, -0.15247878, -1668746.9, 44755.707, 0.017244658, 9.998058, 10.001011 
1.5250698e+3, 1.3515382e+2, -1582941.3, -1498677.6, -8032.7417, -0.24332216, -0.089027606, -1497918.8, 117561.69, 0.010359608, 9.999791, 10.000889 
1.5250732e+3, 1.4515465e+2, -1583659.9, -1628888.6, 86227.34, -0.11091649, 0.0014703675, -1517130.8, 341.5808, 0.0045741852, 9.999861, 9.999277 
1.5250775e+3, 1.5515204e+2, -1582438.1, -1545305.1, 96371.76, -0.0020341, -0.2510124, -1465727.8, -46227.43, 0.0012060112, 9.999061, 9.999564 
1.525079e+3, 1.6515204e+2, -1449324.0, -1356947.1, 18048.434, -0.008571648, -0.23231007, -1353546.1, -32044.58, 0.000118081814, 9.999003, 10.000209 
1.5250786e+3, 1.7515442e+2, -1172976.9, -1153216.6, 11502.181, -0.053982187, -0.062148247, -1147933.8, 75544.67, 0.0000008766353, 10.000154, 10.000376 
1.5250795e+3, 1.8515521e+2, -1068820.0, -1076871.1, 94926.68, -0.07914044, -0.0036878595, -977833.6, 147636.69, 0.0, 10.000263, 10.000195 
1.5250812e+3, 1.9515431e+2, -1057123.0, -1005494.25, 62429.02, -0.12665543, -0.15403825, -963753.0, 63725.37, 0.0, 9.999611, 10.0003195 
1.5250827e+3, 2.0515439e+2, -972849.75, -923564.25, 48357.66, -0.1471957, -0.16675414, -893932.44, 35543.336, 0.0, 9.999547, 10.000239 
1.5250845e+3, 2.1515527e+2, -787918.44, -766596.5, 18078.56, -0.13988054, -0.15060472, -756269.6, 75194.625, 0.0, 10.000077, 10.000385 
1.5250857e+3, 2.251553e+2, -713699.75, -838503.0, -37184.563, -0.09282156, -0.107896045, -703460.8, 30003.094, 0.0, 10.000596, 9.998977 
1.5250863e+3, 2.3515436e+2, -530927.6, -683173.6, -39876.027, -0.013265962, -0.14304979, -521115.7, 114359.87, 0.0, 10.001111, 9.999115 
1.5250869e+3, 2.4515375e+2, -423744.8, -591741.7, 28076.227, 0.012948636, -0.10241302, -419176.8, 118304.41, 0.0, 10.001238, 9.998999 
1.5250878e+3, 2.5515333e+2, -335887.9, -480984.03, 7783.597, -0.009095994, -0.09212643, -335471.56, 104011.016, 0.0000003530132, 10.001094, 9.99915 
1.5250885e+3, 2.6515168e+2, -267797.13, -576666.6, 26036.693, -0.047130957, -0.08422437, -265617.7, 75880.48, 0.000008619123, 10.001641, 9.997571 
1.525089e+3, 2.7514878e+2, 10023.612, -369404.28, 15643.161, -0.10627742, -0.1785793, 10667.46, 254195.75, 0.000051931653, 10.0028, 9.997752 
1.5250903e+3, 2.8514618e+2, 132642.88, -305555.44, 41876.473, -0.09057695, -0.18694969, 136608.92, 282163.88, 0.00023518385, 10.003142, 9.997371 
1.5250929e+3, 2.9514363e+2, 176754.27, -221464.08, 2564.9844, 0.0046964595, -0.23322073, 176770.78, 224351.03, 0.000791527, 10.002715, 9.997479 
1.5250951e+3, 3.051423e+2, 177617.06, -257056.4, 59596.64, 0.03960558, -0.07304609, 185640.08, 185640.08, 0.001847163, 10.002667, 9.996934 
1.5250961e+3, 3.1514037e+2, 327515.3, 24477.412, 49198.414, -0.056449972, -0.020892397, 335302.6, 335302.6, 0.0032816848, 10.002736, 9.998833 
1.5350674e+3, 1.251523e+2, -1992464.8, -1883015.8, -10106.826, -0.32675, -0.11529401, -1882090.3, -168596.55, 0.018294634, 9.998165, 9.999704 
1.5350708e+3, 1.3515158e+2, -1657365.0, -1649964.3, 65424.938, -0.16413137, -0.21795802, -1588135.1, 27367.213, 0.011016667, 9.999784, 9.999845 
1.535075e+3, 1.4515184e+2, -1512901.6, -1517365.1, 29429.947, 0.018386748, -0.16594793, -1485618.9, 31882.33, 0.0048880493, 10.000003, 9.999983 
1.5350752e+3, 1.5515347e+2, -1537219.9, -1432578.8, 77594.91, -0.16769755, -0.069801345, -1391312.9, 28173.459, 0.0013030368, 9.998991, 10.000373 
1.5350763e+3, 1.6515422e+2, -1423839.1, -1321673.5, 39633.58, -0.21857807, -0.02971279, -1308101.3, 13377.914, 0.00013086536, 9.999065, 10.000427 
1.5350778e+3, 1.7515399e+2, -1167589.3, -1131010.9, 65011.543, -0.17193896, -0.13899572, -1081765.0, 141715.3, 0.0000010420176, 10.000106, 10.000551 
1.5350798e+3, 1.8515426e+2, -1100189.1, -1144610.5, 49756.418, -0.12612423, -0.11422706, -1067911.1, 57566.656, 0.0, 10.00027, 9.999728 
1.5350817e+3, 1.9515483e+2, -1096248.3, -1069576.4, 49338.223, -0.055406127, -0.079129286, -1031803.56, -4329.623, 0.0, 9.999535, 9.999916 
1.5350832e+3, 2.051553e+2, -1019559.9, -981291.5, 51532.324, -0.08263624, -0.016867576, -945455.7, -15986.722, 0.0, 9.999382, 9.999921 
1.5350842e+3, 2.1515556e+2, -849278.56, -835350.44, 51606.36, -0.2069585, -0.028322525, -790240.4, 41224.043, 0.0, 9.999833, 10.000028 
1.5350857e+3, 2.2515483e+2, -731051.1, -815187.8, -33153.348, -0.18365705, -0.05678551, -719557.44, 13912.488, 0.0, 10.000337, 9.999262 
1.5350877e+3, 2.3515297e+2, -542488.8, -653922.6, -3726.8047, -0.005066312, -0.21645065, -542364.3, 93122.516, 0.0, 10.000879, 9.999431 
1.5350887e+3, 2.4515207e+2, -471126.4, -624797.94, 7763.715, 0.04260643, -0.2164104, -470735.16, 66759.59, 0.0, 10.000966, 9.998897 
1.5350892e+3, 2.55152e+2, -378726.6, -518584.5, 19717.504, -0.011577037, -0.16329809, -375999.94, 63495.215, 0.0000004707298, 10.000885, 9.998988 
1.5350902e+3, 2.6515096e+2, -279658.66, -557336.6, 51093.473, -0.070148274, -0.09478682, -270555.75, 70949.47, 0.0000086272985, 10.001447, 9.9978 
1.5350918e+3, 2.7514893e+2, -2424.4468, -352164.16, 71583.5, -0.13308735, -0.1285534, 11659.829, 255186.14, 0.000052741245, 10.002614, 9.997962 
1.535093e+3, 2.8514642e+2, 59311.375, -408235.28, 9899.579, -0.16932276, -0.1046676, 59520.89, 205073.47, 0.00024875673, 10.00292, 9.9967785 
1.535094e+3, 2.9514357e+2, 101393.67, -323459.25, 13606.0625, -0.18079452, -0.12851632, 101828.97, 149412.42, 0.00082812813, 10.002479, 9.996892 
1.535097e+3, 3.0514222e+2, 220593.58, -107364.14, 48320.266, -0.061732255, 0.0017577106, 227564.77, 227564.77, 0.0018929114, 10.0024185, 9.9980755 
1.5351006e+3, 3.151392e+2, 294782.97, 70212.18, 105195.414, 0.059745315, -0.17779668, 336361.44, 336361.44, 0.0033080075, 10.00227, 9.999362 
1.5450667e+3, 1.251516e+2, -2049064.4, -1865511.6, -56647.21, -0.17050786, -0.077892356, -1849437.1, -135934.3, 0.019406972, 9.99759, 10.000092 
1.5450713e+3, 1.351505e+2, -1717361.3, -1686867.4, 78870.56, -0.061091207, -0.21843809, -1621783.5, -6269.347, 0.0117135905, 9.999374, 9.999793 
1.5450743e+3, 1.451509e+2, -1630078.8, -1539244.3, 30258.572, 0.013028409, -0.1633731, -1530087.6, -12576.883, 0.0052204016, 9.999065, 10.000281 
1.5450743e+3, 1.55153e+2, -1517064.5, -1383622.1, 22518.941, -0.13926142, -0.05661057, -1379924.4, 39565.875, 0.0014059248, 9.998943, 10.000739 
1.5450756e+3, 1.6515383e+2, -1459140.1, -1344416.8, 35190.414, -0.1733833, -0.024746865, -1334482.6, -13000.327, 0.00014487762, 9.998856, 10.000364 
1.5450773e+3, 1.7515343e+2, -1345814.1, -1226939.4, 7379.536, -0.18003811, -0.14672576, -1226483.0, -2996.968, 0.000001197513, 9.998908, 10.000473 
1.5450792e+3, 1.851536e+2, -1262173.5, -1230137.4, 14879.916, -0.13258207, -0.1230197, -1224292.5, -98807.89, 0.0, 9.999215, 9.999638 
1.5450819e+3, 1.9515428e+2, -1025764.44, -1040815.94, 10873.139, -0.012421017, -0.06815067, -1020066.6, 7411.9683, 0.0, 10.000066, 9.999851 
1.5450837e+3, 2.051544e+2, -892511.44, -957016.7, 56402.758, -0.017299725, -0.022826964, -859791.0, 69686.234, 0.0, 10.000423, 9.999588 
1.5450847e+3, 2.1515384e+2, -788383.7, -843636.5, 24454.318, -0.15811169, -0.0801284, -779115.2, 52366.184, 0.0, 10.000414, 9.999696 
1.5450862e+3, 2.2515309e+2, -718912.0, -789537.8, -32916.19, -0.15066235, -0.10077669, -705949.9, 27537.555, 0.0, 10.0003605, 9.999413 
1.5450883e+3, 2.3515204e+2, -608073.1, -662997.75, -55047.414, -0.0061173653, -0.19527331, -574018.0, 61478.473, 0.0, 10.000365, 9.999599 
1.5450898e+3, 2.451511e+2, -471843.56, -647114.94, -11166.13, 0.045087975, -0.19769573, -471135.06, 66369.87, 0.000000000009610117, 10.001031, 9.998733 
1.545091e+3, 2.5515017e+2, -182269.02, -444078.53, -27357.693, 0.0173479, -0.20659737, -179440.83, 260072.98, 0.0000005675007, 10.002297, 9.998843 
1.5450928e+3, 2.6514927e+2, -80248.93, -444246.53, 27341.191, -0.020097066, -0.12922388, -78206.69, 263316.5, 0.000008574752, 10.002759, 9.997946 
1.5450947e+3, 2.75148e+2, -6927.084, -348373.22, 5837.9595, -0.08823085, -0.09102662, -6827.2974, 236708.9, 0.00005426492, 10.002538, 9.99804 
1.5450962e+3, 2.8514576e+2, 21087.432, -396392.06, -19781.283, -0.11360025, -0.061010856, 22022.627, 167581.81, 0.00026286932, 10.002559, 9.997003 
1.5450972e+3, 2.9514268e+2, 166017.56, -267143.78, -531.3978, -0.11205298, -0.1283424, 166018.2, 213608.8, 0.0008685198, 10.002839, 9.997081 
1.5451002e+3, 3.05141e+2, 332711.78, -50225.43, 67396.29, -0.014410732, -0.04147866, 344227.13, 344227.13, 0.0019599411, 10.003168, 9.9981165 
1.5451033e+3, 3.1513798e+2, 413150.63, 54597.965, -32123.969, 0.06726951, -0.21361205, 416005.97, 416005.97, 0.003393183, 10.003389, 9.998719 
1.5550661e+3, 1.2514985e+2, -1866490.0, -1517881.9, -3928.0923, -0.059891384, -0.01786134, -1517837.6, 195690.42, 0.020587768, 9.997729, 10.002432 
1.5550707e+3, 1.351505e+2, -1661053.4, -1544631.6, 109054.45, -0.08758969, -0.082114756, -1479224.6, 136292.05, 0.012455585, 9.999283, 10.000823 
1.5550709e+3, 1.4515175e+2, -1619021.6, -1531410.1, -9444.916, -0.2808701, 0.0061325366, -1530403.4, -12901.652, 0.0055746003, 9.999117, 10.000316 
1.5550745e+3, 1.5515083e+2, -1522623.0, -1389044.6, 33632.445, -0.057763398, -0.19277762, -1381054.5, 38455.434, 0.001515748, 9.998928, 10.000707 
1.5550764e+3, 1.651512e+2, -1462817.8, -1375182.1, 20982.605, -0.023473665, -0.18867896, -1370417.4, -48909.74, 0.00016035176, 9.998945, 10.000116 
1.5550762e+3, 1.7515282e+2, -1368011.1, -1263588.9, 19974.799, -0.19447105, -0.08005458, -1259898.4, -36403.34, 0.0000013687348, 9.998868, 10.000243 
1.5550779e+3, 1.8515337e+2, -1247367.0, -1191200.8, 29272.357, -0.23074402, -0.024688385, -1178718.8, -53229.406, 0.0, 9.999183, 9.999917 
1.5550812e+3, 1.9515274e+2, -1032201.94, -1019339.75, 57402.117, -0.12317933, -0.12523735, -968009.56, 59482.29, 0.0, 9.999926, 10.000062 
1.5550837e+3, 2.0515169e+2, -935391.9, -1023193.44, 39298.086, -0.08990746, -0.18438148, -920372.25, 9127.979, 0.0, 10.000306, 9.999199 
1.5550858e+3, 2.1515018e+2, -839384.44, -909455.4, 39230.79, -0.11539574, -0.29853606, -821822.0, 9692.586, 0.0, 10.000228, 9.999344 
1.555087e+3, 2.251502e+2, -756945.44, -817450.06, -48368.33, -0.13996561, -0.22392122, -730147.75, 3367.5784, 0.0, 10.000135, 9.9993305 
1.5550874e+3, 2.351514e+2, -643918.0, -700181.8, -39395.16, -0.14652921, -0.08193052, -623641.4, 11864.253, 0.0, 10.000194, 9.999433 
1.5550892e+3, 2.4515066e+2, -516333.2, -684632.06, 23732.016, -0.12583517, -0.04808725, -513050.75, 24462.447, 0.0, 10.000795, 9.998587 
1.5550928e+3, 2.55148e+2, -221498.44, -474442.94, 35160.418, -0.053485952, -0.22074579, -216701.94, 222836.0, 0.0000005355393, 10.002081, 9.998736 
1.5550955e+3, 2.6514652e+2, -116247.08, -466973.03, 7849.209, -0.042502675, -0.191528, -116071.5, 225480.64, 0.000008556659, 10.002536, 9.997895 
1.5550974e+3, 2.7514604e+2, -44946.74, -372864.2, 20590.715, -0.09084871, -0.07744848, -43658.855, 199899.06, 0.000056489618, 10.00231, 9.997976 
1.5550996e+3, 2.851441e+2, 44960.29, -291100.78, -22842.43, -0.060110882, -0.05181801, 46505.805, 192080.67, 0.00027893353, 10.002323, 9.997837 
1.555102e+3, 2.9514077e+2, 190963.45, -153480.97, 29243.48, 0.049989317, -0.23248021, 193428.6, 241031.52, 0.0009153457, 10.002587, 9.997976 
1.5551038e+3, 3.051386e+2, 209900.72, -243547.0, 58449.543, 0.016885674, -0.18485698, 217313.7, 217313.7, 0.0020537302, 10.002913, 9.996902 
1.5551038e+3, 3.1513625e+2, 210219.36, -241209.22, 12997.546, -0.29575014, -0.16998567, 210593.28, 210593.28, 0.003546435, 10.002882, 9.996913 
1.5650652e+3, 1.2514806e+2, -1638363.9, -1377523.8, 86152.91, 0.0075109596, 0.0024912488, -1351637.4, 361909.13, 0.021849003, 9.999157, 10.002749 
1.5650691e+3, 1.3514844e+2, -1979744.5, -1710273.8, 1928.7722, -0.05385982, -0.068976894, -1710259.9, -94720.836, 0.013250772, 9.997127, 10.000738 
1.565069e+3, 1.4515e+2, -1883408.3, -1593855.1, -41139.355, -0.27203178, 0.01975191, -1588123.5, -70602.72, 0.0059556314, 9.99703, 10.00089 
1.5650739e+3, 1.5514956e+2, -1505340.6, -1332060.4, 2351.351, -0.0013503782, -0.17845225, -1332028.4, 87494.44, 0.0016345053, 9.998836, 10.00114 
1.5650761e+3, 1.6515006e+2, -1411366.8, -1385518.4, 4933.5923, 0.021972505, -0.16815634, -1384608.8, -63089.305, 0.00017771397, 9.999448, 9.99981 
1.5650758e+3, 1.7515156e+2, -1308850.6, -1266220.8, -23881.049, -0.14794733, -0.042189807, -1255525.9, -32016.377, 0.0000016137079, 9.999397, 9.999977 
1.5650776e+3, 1.8515202e+2, -1165074.6, -1122823.5, 41584.625, -0.17751518, 0.0030890724, -1097306.0, 28198.33, 0.0, 9.999611, 10.000184 
1.5650813e+3, 1.9515128e+2, -965986.5, -961902.4, 42535.508, -0.10388008, -0.13620219, -921359.94, 106146.06, 0.0, 10.000241, 10.000312 
1.5650843e+3, 2.051503e+2, -934345.25, -1024091.75, 39858.516, -0.06334562, -0.19852556, -919199.25, 10314.297, 0.0, 10.000365, 9.999139 
1.5650867e+3, 2.1514907e+2, -827357.44, -899388.9, 30189.758, -0.050983626, -0.28056598, -816377.94, 15148.411, 0.0, 10.000338, 9.999332 
1.5650879e+3, 2.2514912e+2, -667572.4, -792564.4, 2602.2004, -0.08171327, -0.19477664, -667518.2, 66009.375, 0.0, 10.000808, 9.999187 
1.5650882e+3, 2.3515019e+2, -426322.44, -604452.5, -12903.026, -0.15060666, -0.054575056, -425392.66, 210126.78, 0.0, 10.0017185, 9.999353 
1.5650906e+3, 2.4514958e+2, -337897.9, -604465.8, 84043.31, -0.13299094, -0.00306486, -313613.2, 223912.45, 0.0, 10.002028, 9.998549 
1.5650947e+3, 2.5514725e+2, -267663.94, -498592.88, 72664.83, -0.0371024, -0.1379937, -246701.81, 192844.98, 0.00000039469393, 10.001763, 9.998721 
1.565098e+3, 2.6514545e+2, -209498.92, -513493.13, 59225.48, -0.0040547955, -0.14152226, -198367.92, 143195.7, 0.000008163994, 10.001903, 9.997878 
1.5651003e+3, 2.7514395e+2, -36260.582, -370691.06, 36989.477, -0.035009727, -0.123870164, -32218.244, 211360.05, 0.000058543963, 10.002377, 9.997956 
1.5651028e+3, 2.851418e+2, 101837.3, -279067.34, 1639.4027, 0.005958191, -0.11486237, 101844.35, 247441.88, 0.00029613846, 10.002765, 9.997734 
1.5651055e+3, 2.9513893e+2, 269212.94, -128502.36, -58881.348, 0.11684494, -0.22918451, 277747.13, 325368.56, 0.00096601865, 10.003155, 9.9979 
1.5651074e+3, 3.051363e+2, 288049.88, -209505.48, 11385.056, 0.060272288, -0.22209147, 288310.25, 288310.25, 0.0021659639, 10.003451, 9.996874 
1.5651071e+3, 3.151349e+2, 288251.0, -243068.5, -17947.379, -0.26429683, -0.10277271, 288856.56, 288856.56, 0.0037513892, 10.003518, 9.996615 
1.5750633e+3, 1.2514567e+2, -1734988.9, -1597168.9, 10243.472, -0.16851898, -0.049020007, -1596411.6, 117152.44, 0.023204513, 9.999225, 10.001185 
1.5750657e+3, 1.3514484e+2, -2048000.5, -1853264.6, -57565.094, -0.13813375, -0.12503651, -1837520.9, -221944.8, 0.014108494, 9.997136, 9.999748 
1.5750682e+3, 1.451461e+2, -1780716.8, -1417328.3, 9137.568, -0.09756924, -0.091114774, -1417098.6, 100465.07, 0.0063687824, 9.997179, 10.002036 
1.5750721e+3, 1.5514924e+2, -1454990.3, -1216265.6, 77198.72, -0.07992982, -0.014505812, -1193476.6, 226052.47, 0.00176415, 9.998795, 10.001952 
1.5750739e+3, 1.6515037e+2, -1425622.4, -1426008.5, -18354.088, -0.17862773, 0.037177492, -1407460.4, -85942.234, 0.00019721544, 9.999485, 9.9995165 
1.5750754e+3, 1.7514971e+2, -1330938.8, -1308164.5, -10667.329, -0.17111097, -0.02965416, -1303948.5, -80419.555, 0.0000019795527, 9.999378, 9.999699 
1.5750782e+3, 1.8514971e+2, -1136760.8, -1070435.5, 49228.387, -0.117600776, -0.03332851, -1044241.6, 81286.57, 0.0, 9.999632, 10.000535 
1.5750821e+3, 1.9515021e+2, -966254.06, -927718.3, 77375.734, -0.07989612, -0.08054171, -867247.5, 160271.06, 0.0, 10.000097, 10.000615 
1.5750848e+3, 2.0515044e+2, -940899.44, -1006411.6, 20745.896, -0.085215986, -0.046450347, -934882.44, -5367.294, 0.0, 10.000218, 9.999333 
1.5750869e+3, 2.1515034e+2, -845554.2, -894923.75, 40620.766, -0.09260139, -0.034402914, -822705.94, 8812.781, 0.0, 10.000152, 9.999456 
1.5750888e+3, 2.251497e+2, -699855.25, -811221.5, 24731.572, -0.11304905, -0.020342624, -694610.06, 38915.867, 0.0, 10.000601, 9.999157 
1.5750903e+3, 2.3514844e+2, -463941.5, -627276.6, 33404.84, -0.14297491, -0.11101785, -457373.75, 178164.14, 0.0, 10.001483, 9.99931 
1.575093e+3, 2.451479e+2, -374682.1, -617860.75, 57834.063, -0.120926715, -0.053076796, -361628.4, 175913.94, 0.0, 10.001756, 9.998586 
1.5750967e+3, 2.551479e+2, -299334.6, -515531.8, 76903.914, -0.046333965, 0.038671825, -274770.0, 164771.1, 0.00000029448665, 10.001552, 9.998704 
1.5751e+3, 2.6514596e+2, -248097.89, -546111.7, 62090.14, -0.025166675, 0.029107055, -235679.13, 105879.41, 0.000007127328, 10.001694, 9.997758 
1.5751027e+3, 2.751418e+2, -68302.945, -393116.84, 72392.92, -0.05961447, -0.21258396, -52898.89, 190698.23, 0.000059012113, 10.002191, 9.997891 
1.575105e+3, 2.851388e+2, -681.2607, -454838.56, -113.049255, -0.07168584, -0.22994766, -681.2325, 144945.53, 0.00030982727, 10.002596, 9.99661 
1.5751073e+3, 2.9513717e+2, 150412.77, -312409.22, -16362.447, -0.05350369, -0.112552, 150990.52, 198635.31, 0.0010139557, 10.002887, 9.996764 
1.5751101e+3, 3.0513412e+2, 320225.25, -71905.3, 4383.5317, -0.038227227, -0.14028308, 320274.25, 320274.25, 0.002281504, 10.003171, 9.997937 
1.5751125e+3, 3.151337e+2, 292422.5, -96251.484, 32466.324, -0.1331573, -0.048535276, 295115.78, 295115.78, 0.003972573, 10.002971, 9.997858 
1.5850608e+3, 1.25143e+2, -2053060.8, -1736848.1, -11282.357, -0.22084384, -0.07652581, -1736446.0, -22856.057, 0.024665277, 9.997017, 10.001248 
1.585064e+3, 1.351423e+2, -1895466.0, -1781795.1, -16371.401, -0.06740857, -0.13879094, -1779484.3, -163883.17, 0.0150364665, 9.998196, 9.999717 
1.5850677e+3, 1.4514361e+2, -1548515.1, -1314615.9, 78121.21, 0.04858221, -0.0987518, -1290923.5, 226665.11, 0.0068181083, 9.998808, 10.001965 
1.58507e+3, 1.5514685e+2, -1580966.9, -1295660.3, 31215.146, -0.119418494, 0.009136135, -1292285.0, 127268.95, 0.0019058621, 9.997998, 10.001798 
1.5850718e+3, 1.6514796e+2, -1569894.5, -1453755.6, -26726.057, -0.24969819, 0.046786267, -1447900.5, -126358.5, 0.0002187055, 9.998318, 9.999886 
1.5850756e+3, 1.7514701e+2, -1186839.6, -1192779.9, -4334.548, -0.110526375, -0.087564595, -1184555.3, 38996.984, 0.000002466339, 10.000178, 10.000101 
1.5850793e+3, 1.851471e+2, -1061945.5, -1056774.9, 36831.59, -0.0067590913, -0.0944146, -1022437.94, 103113.0, 0.0, 10.000252, 10.000329 
1.585082e+3, 1.9514795e+2, -1148230.4, -1034136.4, -2366.5925, -0.036068138, -0.083194286, -1034087.3, -6546.2686, 0.0, 9.99893, 10.0004425 
1.5850843e+3, 2.0514871e+2, -1075869.8, -1030900.94, 8977.746, -0.078127824, -0.009481755, -1029174.9, -99641.15, 0.0, 9.999092, 9.999724 
1.5850872e+3, 2.1514921e+2, -724712.0, -794983.0, 20888.805, -0.09363413, 0.023631316, -718971.5, 112558.805, 0.0, 10.000764, 9.999863 
1.5850897e+3, 2.2514847e+2, -616375.94, -796815.94, 13458.34, -0.091618955, 0.018722996, -615377.7, 118160.53, 0.0, 10.0013075, 9.998919 
1.585092e+3, 2.3514646e+2, -549685.6, -702481.9, -24447.553, -0.09261705, -0.112755336, -545869.3, 89688.33, 0.0, 10.00103, 9.999033 
1.5850948e+3, 2.4514551e+2, -456222.84, -638585.75, 16507.389, -0.06959625, -0.08811274, -454740.66, 82825.086, 0.0, 10.001142, 9.998728 
1.5850984e+3, 2.551455e+2, -271119.84, -490458.66, 6370.2617, -0.032253876, -0.008003629, -270934.97, 168628.48, 0.00000023115544, 10.001703, 9.998804 
1.585102e+3, 2.6514366e+2, -212770.4, -536891.06, 34117.516, -0.007261205, -0.0032480727, -209218.06, 132361.88, 0.0000061293663, 10.001988, 9.997667 
1.5851054e+3, 2.7513984e+2, -71712.54, -398219.28, 7338.905, -0.0035451963, -0.20319378, -71547.664, 172069.45, 0.000060026516, 10.002212, 9.9978285 
1.585108e+3, 2.8513724e+2, 18006.5, -436998.1, 9750.167, -0.027395053, -0.1802322, 18215.338, 163859.11, 0.0003212461, 10.002698, 9.996666 
1.5851101e+3, 2.9513595e+2, 224252.7, -267928.88, 36443.95, -0.073457114, -0.035777066, 226936.6, 274595.75, 0.001056996, 10.003347, 9.996837 
1.5851131e+3, 3.0513254e+2, 383873.84, -16577.68, 83019.78, -0.06620129, -0.1209607, 400402.88, 400402.88, 0.0023867078, 10.00347, 9.998205 
1.5851162e+3, 3.151322e+2, 339584.38, 10839.732, -23456.771, -0.033296537, -0.027723148, 341249.63, 341249.63, 0.004167416, 10.0029, 9.998662 
1.5950575e+3, 1.2514107e+2, -1912536.6, -1515187.0, -112775.79, -0.3220404, -0.03856945, -1485410.4, 228204.0, 0.026239868, 9.997237, 10.0027275 
1.5950641e+3, 1.3514084e+2, -1855433.8, -1697100.5, 72372.25, 0.088709846, -0.13212359, -1669005.4, -53391.508, 0.016040104, 9.998193, 10.000294 
1.5950663e+3, 1.4514236e+2, -1619437.1, -1503825.6, 34896.86, -0.013346651, -0.018235894, -1494108.8, 23488.877, 0.0073062, 9.998971, 10.000588 
1.5950671e+3, 1.551427e+2, -1650530.6, -1453995.0, 11886.318, -0.25413004, -0.09074165, -1453278.8, -33684.0, 0.002060233, 9.998049, 10.00069 
1.5950699e+3, 1.651432e+2, -1488546.1, -1305754.8, 21367.344, -0.32862726, -0.10852167, -1303290.3, 18297.14, 0.00024185247, 9.998404, 10.000861 
1.5950765e+3, 1.7514366e+2, -1129973.6, -1063869.9, 75145.305, -0.074316576, -0.19854346, -1014828.8, 208749.03, 0.0000030340082, 10.000133, 10.001006 
1.59508e+3, 1.8514417e+2, -1110927.0, -1159925.3, -30218.246, 0.015213803, -0.17428237, -1096524.4, 29048.475, 0.0, 10.000254, 9.9996195 
1.5950805e+3, 1.9514456e+2, -1216013.1, -1145020.8, -36563.785, -0.09682765, -0.13811468, -1129557.3, -101983.93, 0.0, 9.998811, 9.999735 
1.5950829e+3, 2.0514524e+2, -1047896.9, -944442.1, 57732.453, -0.17279023, -0.070796005, -918653.3, 10914.66, 0.0, 9.998969, 10.000374 
1.5950873e+3, 2.1514595e+2, -716302.25, -717162.2, 94512.586, -0.174269, -0.084657915, -622218.6, 209340.11, 0.0, 10.000515, 10.000512 
1.5950906e+3, 2.251457e+2, -686391.4, -890303.5, -12417.901, -0.15457538, -0.048415765, -685637.9, 47923.94, 0.0, 10.001071, 9.998394 
1.5950929e+3, 2.3514438e+2, -621433.0, -799771.1, -14876.053, -0.1221868, -0.059667416, -620200.6, 15377.18, 0.0, 10.000803, 9.998476 
1.5950957e+3, 2.451426e+2, -486108.94, -642337.2, 28630.287, -0.11933183, -0.09443344, -481027.44, 56566.633, 0.0, 10.0008955, 9.998816 
1.5950994e+3, 2.551402e+2, -299751.3, -487415.25, 43466.117, -0.120376304, -0.2678366, -290172.72, 149439.8, 0.00000009760233, 10.001452, 9.998935 
1.5951034e+3, 2.6513872e+2, -257104.27, -582503.7, 27858.422, -0.07535752, -0.22456323, -254736.45, 86890.31, 0.0000054247644, 10.00178, 9.9974575 
1.5951079e+3, 2.7513808e+2, -121554.61, -448481.25, 36087.766, 0.007998766, -0.08899273, -117618.46, 126019.43, 0.0000627863, 10.001975, 9.9976 
1.5951112e+3, 2.8513688e+2, 55553.46, -290178.8, 18970.1, -0.0031413184, 0.029366842, 56591.223, 202242.06, 0.0003316825, 10.002408, 9.997813 
1.5951136e+3, 2.9513484e+2, 262126.38, -118344.805, 84341.766, -0.1016358, -0.016278462, 279984.78, 327653.34, 0.0010854187, 10.003051, 9.998008 
1.5951157e+3, 3.0513114e+2, 291431.53, -128974.93, 44620.414, -0.1901677, -0.15617073, 296115.2, 296115.2, 0.0024519642, 10.003151, 9.997577 
1.5951177e+3, 3.1513056e+2, 275411.2, 8458.531, 368.2872, -0.22405995, -0.031345032, 275411.72, 275411.72, 0.004279934, 10.0023775, 9.998885 
1.6050562e+3, 1.2513871e+2, -1850834.3, -1497665.3, -62239.117, -0.18469138, 0.0060872333, -1487017.8, 226621.4, 0.027939666, 9.997752, 10.002604 
1.6050632e+3, 1.3513884e+2, -1770428.9, -1636164.3, 13624.815, 0.17698695, -0.062388025, -1634795.6, -19161.7, 0.01712635, 9.998726, 10.000448 
1.6050646e+3, 1.4513952e+2, -1723507.9, -1609055.1, -16925.096, -0.05089915, -0.009690097, -1606604.8, -88978.78, 0.007836914, 9.998528, 10.000056 
1.6050659e+3, 1.5513906e+2, -1558301.9, -1448710.1, -28617.393, -0.20172374, -0.12402871, -1441687.4, -22055.742, 0.0022287087, 9.998865, 10.000317 
1.6050696e+3, 1.651395e+2, -1418301.5, -1218679.8, 57080.57, -0.19516179, -0.15467429, -1203510.6, 118113.055, 0.00026665046, 9.998678, 10.001317 
1.6050763e+3, 1.7514053e+2, -1352865.4, -1119812.1, 43075.914, -0.002277982, -0.2271239, -1112105.1, 111500.5, 0.0000036433328, 9.998396, 10.001454 
1.6050798e+3, 1.8514125e+2, -1337579.6, -1273850.1, -61310.445, 0.034453202, -0.19972864, -1236618.4, -111020.6, 0.0, 9.998708, 9.999582 
1.6050798e+3, 1.9514145e+2, -1061136.4, -1073650.6, -46855.348, -0.10742994, -0.18593463, -1020122.25, 7479.335, 0.0, 9.999861, 9.999724 
1.6050825e+3, 2.0514181e+2, -878231.1, -883023.56, 100057.16, -0.16897173, -0.1372993, -780541.5, 149058.3, 0.0, 10.000245, 10.000177 
1.6050878e+3, 2.1514228e+2, -788294.3, -769370.7, 40762.51, -0.15407951, -0.15388738, -736986.25, 94606.984, 0.0, 10.000117, 10.0003395 
1.6050917e+3, 2.2514218e+2, -765419.94, -905713.06, -58268.508, -0.119160496, -0.10152315, -744375.7, -10780.898, 0.0, 10.000431, 9.998586 
1.6050942e+3, 2.3514152e+2, -538446.4, -725440.6, -38368.582, -0.0765232, -0.07327179, -530879.8, 104724.56, 0.0, 10.001245, 9.998745 
1.6050974e+3, 2.4514e+2, -371151.72, -606629.44, 56730.156, -0.0757201, -0.08816526, -358197.25, 179421.63, 0.0, 10.001764, 9.998653 
1.6051014e+3, 2.5513744e+2, -221427.03, -468066.66, 25493.508, -0.09688877, -0.25218523, -218819.5, 220820.66, 0.000000007673713, 10.002054, 9.998788 
1.6051057e+3, 2.6513594e+2, -177546.61, -506730.75, 36128.46, -0.040635843, -0.22211261, -173628.1, 168026.66, 0.0000049768487, 10.002151, 9.99781 
1.6051106e+3, 2.7513552e+2, -92854.29, -401924.2, 40896.023, 0.08102986, -0.09303911, -87534.51, 156128.06, 0.00006482946, 10.002003, 9.9979315 
1.605114e+3, 2.8513446e+2, 46751.66, -245480.19, 77618.445, 0.06587613, -0.00007948423, 66088.1, 211761.11, 0.00033743004, 10.002095, 9.99829 
1.6051163e+3, 2.9513255e+2, 221429.55, -83223.016, 51190.254, -0.08438238, -0.082964554, 229800.92, 277489.47, 0.0010902431, 10.002518, 9.998515 
1.6051182e+3, 3.051292e+2, 207085.45, -228469.16, 4040.8674, -0.20423613, -0.1859885, 207122.94, 207122.94, 0.0024554476, 10.00281, 9.997051 
1.6051209e+3, 3.1512764e+2, 338499.78, 29935.742, -108956.39, -0.1596972, -0.103928305, 373094.53, 373094.53, 0.004280209, 10.002806, 9.998831 
1.6150565e+3, 1.2513493e+2, -1949433.8, -1754835.8, 115033.766, -0.015371404, -0.046441372, -1701470.0, 12204.359, 0.02978273, 9.997992, 10.000688 
1.6150613e+3, 1.3513687e+2, -1783644.8, -1674801.6, 22674.068, 0.07228002, 0.10652945, -1670267.1, -54611.477, 0.018308382, 9.998764, 10.000173 
1.6150618e+3, 1.4513552e+2, -1688501.9, -1559760.1, -27232.912, -0.23592013, -0.041761287, -1554236.5, -36567.76, 0.008418617, 9.998618, 10.000355 
1.6150662e+3, 1.5513591e+2, -1541219.9, -1413961.9, -1312.79, -0.09026235, -0.094821505, -1413948.4, 5715.954, 0.0024150687, 9.998872, 10.000552 
1.6150708e+3, 1.6513675e+2, -1398207.0, -1218095.8, 24867.824, 0.0008972263, -0.09632614, -1214725.4, 106926.47, 0.0002938315, 9.998837, 10.001248 
1.615075e+3, 1.7513767e+2, -1357142.1, -1133597.9, 43110.457, -0.0067809667, -0.17494366, -1125572.3, 98063.05, 0.000004294035, 9.998401, 10.001364 
1.6150777e+3, 1.8513831e+2, -1294197.5, -1185201.9, -34221.73, -0.084801756, -0.17716469, -1175348.0, -49721.86, 0.0, 9.998715, 10.000184 
1.615079e+3, 1.9513863e+2, -1033825.2, -995172.56, 7795.2637, -0.1893582, -0.21657051, -993659.7, 33965.79, 0.0, 9.99977, 10.000305 
1.6150825e+3, 2.0513858e+2, -976407.8, -1049228.8, 75087.47, -0.21107832, -0.18430512, -929368.6, 259.45752, 0.0, 10.000083, 9.999112 
1.6150881e+3, 2.1513815e+2, -893463.5, -940757.7, 48618.285, -0.14951806, -0.18412498, -863046.5, -31412.262, 0.0, 9.999919, 9.999256 
1.6150925e+3, 2.2513793e+2, -745079.9, -797678.44, -43115.28, -0.111366525, -0.1340712, -720875.9, 12761.26, 0.0, 10.000155, 9.999456 
1.6150957e+3, 2.3513778e+2, -514094.75, -615974.06, 7061.3623, -0.08658185, -0.14617303, -513607.66, 122030.81, 0.0, 10.001, 9.999611 
1.6150993e+3, 2.4513751e+2, -430210.25, -681291.56, 50292.406, -0.08515995, -0.05677472, -420511.16, 117130.77, 0.0, 10.001546, 9.998249 
1.6151036e+3, 2.551371e+2, -284282.1, -543823.06, 54666.227, -0.0944963, 0.025920484, -273237.9, 166410.16, 0.00000000987263, 10.001816, 9.998383 
1.6151081e+3, 2.6513532e+2, -168022.48, -419350.66, 14768.692, -0.047696494, 0.006644823, -167157.61, 174507.16, 0.000004852571, 10.001868, 9.998538 
1.6151127e+3, 2.75132e+2, -75984.8, -309692.16, 56115.83, 0.06359605, -0.23107782, -63209.125, 180484.42, 0.00006465758, 10.001776, 9.998661 
1.6151161e+3, 2.8512996e+2, -6118.799, -300710.1, 73673.33, 0.018497605, -0.25254822, 11278.502, 156989.06, 0.0003366383, 10.001859, 9.998026 
1.6151182e+3, 2.9512924e+2, 163727.67, -138717.22, 89905.375, -0.18165232, -0.20198022, 188434.78, 236151.42, 0.0010768, 10.002238, 9.998269 
1.6151206e+3, 3.0512655e+2, 125500.92, -315865.84, -15970.145, -0.27560776, -0.20467457, 126078.02, 126078.02, 0.0024101299, 10.002485, 9.996587 
1.6151242e+3, 3.1512386e+2, 232881.88, -42719.234, -45246.613, -0.15063119, -0.19396207, 240120.1, 240120.1, 0.004186122, 10.00224, 9.998568 
1.6250563e+3, 1.2512971e+2, -1893964.8, -1871631.8, 100422.2, 0.11219621, -0.09314628, -1781757.1, -68032.5, 0.03179242, 9.998994, 9.999368 
1.6250587e+3, 1.3513272e+2, -1757434.4, -1575027.1, -31902.328, -0.048671316, 0.08049584, -1569608.5, 46088.402, 0.019603958, 9.99853, 10.00097 
1.6250607e+3, 1.4513242e+2, -1759869.8, -1594743.1, 14789.164, -0.17524903, -0.0072248057, -1593429.0, -75728.77, 0.009062119, 9.9981575, 10.000327 
1.6250664e+3, 1.5513268e+2, -1519412.5, -1408194.1, -5174.932, 0.031064818, -0.06639594, -1407953.9, 11742.939, 0.002624408, 9.999056, 10.000497 
1.6250709e+3, 1.6513333e+2, -1367923.1, -1224195.1, -2709.6914, 0.103798695, -0.07110453, -1224144.1, 97542.516, 0.00032476612, 9.999145, 10.001055 
1.6250736e+3, 1.751342e+2, -1340939.8, -1138405.8, -24876.16, 0.00073620834, -0.1395452, -1135395.1, 88276.59, 0.000005034694, 9.99858, 10.001232 
1.6250762e+3, 1.8513495e+2, -1300977.0, -1184870.9, -36713.848, -0.08934113, -0.12831415, -1174235.8, -48573.82, 0.0, 9.998662, 10.000218 
1.6250789e+3, 1.9513552e+2, -1050533.1, -988897.9, -66361.8, -0.1556699, -0.14511698, -946547.1, 81110.41, 0.0, 9.999622, 10.000415 
1.6250831e+3, 2.051354e+2, -1000869.25, -1073233.6, 1203.9677, -0.1490084, -0.12191451, -1000849.2, -71189.03, 0.0, 9.999948, 9.999021 
1.6250886e+3, 2.1513446e+2, -926544.5, -968791.6, 22225.648, -0.077892594, -0.1623983, -917005.6, -85334.43, 0.0, 9.99972, 9.999169 
1.625093e+3, 2.2513409e+2, -742594.8, -746364.0, 12719.427, -0.054835297, -0.14635116, -731621.1, 2053.0583, 0.0, 9.999943, 9.999915 
1.6250965e+3, 2.351341e+2, -541259.3, -583487.7, -989.0596, -0.087338634, -0.18557799, -541236.2, 94434.9, 0.0, 10.000597, 10.000039 
1.6251007e+3, 2.45134e+2, -491096.75, -717720.44, 52421.86, -0.07577149, -0.095619574, -479558.2, 58114.586, 0.0, 10.001164, 9.998175 
1.6251059e+3, 2.5513378e+2, -301493.25, -561315.2, 42289.67, -0.03859183, 0.013614362, -294783.3, 144896.52, 0.000000011745934, 10.001731, 9.9983 
1.6251102e+3, 2.6513216e+2, -145391.48, -391373.8, 5992.6196, -0.0045400336, 0.0116792135, -145245.58, 196450.02, 0.0000048598445, 10.001956, 9.998688 
1.6251141e+3, 2.7512905e+2, -51923.406, -284561.44, -32620.334, 0.039905842, -0.2151658, -47435.97, 196285.97, 0.00006306325, 10.001876, 9.998783 
1.625118e+3, 2.8512707e+2, 5628.643, -303786.75, 21723.188, 0.01920603, -0.23687893, 7146.3228, 152885.58, 0.00033149842, 10.002002, 9.997922 
1.6251215e+3, 2.9512614e+2, 176596.88, -147786.72, -7441.6147, -0.085611, -0.19078018, 176767.5, 224516.11, 0.0010554205, 10.0023985, 9.998125 
1.6251242e+3, 3.051238e+2, 259868.63, -222415.34, -30236.535, -0.18438485, -0.1620891, 261756.89, 261756.89, 0.0023408108, 10.003276, 9.996862 
1.6251281e+3, 3.1512102e+2, 564233.94, 104593.84, -74363.98, -0.09255392, -0.17827184, 575965.6, 575965.6, 0.0040329522, 10.004521, 9.998523 
1.6350539e+3, 1.251244e+2, -1924030.3, -1962367.4, -69115.13, -0.0956372, -0.011709821, -1871474.8, -157697.97, 0.03398967, 9.999105, 9.998693 
1.6350543e+3, 1.3512625e+2, -1624137.9, -1305927.6, -46804.25, -0.3574733, -0.14349897, -1299186.3, 316572.84, 0.02102759, 9.998543, 10.002849 
1.6350612e+3, 1.451301e+2, -1749626.6, -1619915.8, 13046.954, 0.0022157712, 0.098749414, -1618616.5, -100894.89, 0.009775217, 9.998335, 10.000081 
1.6350657e+3, 1.5512946e+2, -1541304.6, -1457562.4, 38498.332, 0.026049104, -0.016972868, -1442553.8, -22825.746, 0.002860367, 9.999068, 10.000156 
1.6350688e+3, 1.6512942e+2, -1377401.1, -1256823.4, -41720.137, -0.038244423, -0.06274528, -1243795.6, 77930.67, 0.00036087315, 9.999194, 10.00081 
1.6350713e+3, 1.7513014e+2, -1365627.1, -1184529.1, -37294.14, -0.09761148, -0.1161142, -1177149.6, 46565.598, 0.000005927034, 9.998559, 10.000925 
1.6350749e+3, 1.8513106e+2, -1321944.9, -1242974.6, -19643.475, -0.11625384, -0.053512808, -1238358.3, -112652.695, 0.0, 9.998715, 9.9998 
1.6350791e+3, 1.9513197e+2, -1091437.8, -1057016.8, -18704.623, -0.12476057, 0.0104883555, -1048809.5, -21110.488, 0.0, 9.999544, 9.99999 
1.6350837e+3, 2.0513204e+2, -961478.1, -954755.6, -21637.783, -0.11235476, 0.027844595, -936219.56, -6521.1323, 0.0, 9.999786, 9.999915 
1.6350888e+3, 2.1513109e+2, -890164.56, -853336.8, 30646.268, -0.057853755, -0.1030276, -835997.9, -4292.5356, 0.0, 9.999541, 10.000052 
1.6350928e+3, 2.2513063e+2, -784327.25, -771488.1, 25268.326, -0.09667663, -0.13723591, -751836.6, -18130.533, 0.0, 9.999682, 9.999865 
1.635096e+3, 2.351305e+2, -577990.75, -604103.9, 38261.91, -0.19846469, -0.18772341, -550619.0, 85082.94, 0.0, 10.000363, 10.000005 
1.6351011e+3, 2.4512951e+2, -523742.78, -717557.94, 58165.55, -0.18117192, -0.19539179, -507626.88, 30084.27, 0.0, 10.000881, 9.998308 
1.6351077e+3, 2.5512758e+2, -322266.47, -550988.3, 80552.68, -0.05777592, -0.26821566, -296744.75, 142989.47, 0.000000006263202, 10.001519, 9.998466 
1.6351122e+3, 2.651268e+2, -205219.89, -475706.97, -13280.121, -0.04468933, -0.17192332, -204569.44, 137175.39, 0.000005059976, 10.001767, 9.998207 
1.6351146e+3, 2.7512693e+2, -113382.05, -366682.97, -10683.846, -0.12005348, -0.03632487, -112932.22, 130813.586, 0.000060994436, 10.001669, 9.9983225 
1.635119e+3, 2.8512564e+2, -46049.273, -343116.66, 21284.838, -0.09577696, 0.04093688, -44531.97, 101227.48, 0.0003219481, 10.001728, 9.997775 
1.6351254e+3, 2.95123e+2, 121751.68, -189678.63, 35853.14, 0.029172854, -0.061799254, 125825.94, 173611.33, 0.0010251604, 10.002112, 9.997965 
1.6351287e+3, 3.0512086e+2, 266219.8, -127180.766, -1369.1794, -0.105383165, -0.050110847, 266224.56, 266224.56, 0.002256268, 10.002929, 9.997683 
1.6351317e+3, 3.15119e+2, 510768.5, 120733.88, 43769.99, -0.23759641, -0.07207407, 515620.06, 515620.06, 0.0038509592, 10.003991, 9.998879 
1.6450529e+3, 1.2512039e+2, -2012333.0, -1979949.1, 51191.824, -0.075771436, -0.01380474, -1942449.5, -228636.03, 0.036383986, 9.998439, 9.998895 
1.6450538e+3, 1.3512114e+2, -1512438.8, -1299348.6, -63781.68, -0.31126153, -0.2118802, -1281716.5, 334092.4, 0.022584815, 9.999554, 10.002412 
1.645061e+3, 1.4512631e+2, -1576044.5, -1503973.3, -62435.78, 0.10078342, 0.17054924, -1467920.0, 49838.74, 0.010560797, 9.9993725, 10.000387 
1.6450642e+3, 1.5512523e+2, -1650405.5, -1475972.0, -19685.258, 0.016796138, -0.024440568, -1473778.0, -54009.9, 0.0031241647, 9.998152, 10.000478 
1.6450673e+3, 1.6512497e+2, -1550755.4, -1371086.9, -19281.838, -0.06074388, -0.09757961, -1369040.9, -47271.977, 0.0004029895, 9.998132, 10.000545 
1.6450706e+3, 1.7512572e+2, -1233824.4, -1157552.3, -42387.24, -0.07481166, -0.11644905, -1138670.5, 85089.125, 0.0000070009137, 9.999606, 10.000622 
1.6450748e+3, 1.8512656e+2, -1126888.6, -1134401.1, 14825.669, -0.058901686, -0.049227856, -1115350.8, 10400.031, 0.0, 10.000013, 9.999896 
1.6450794e+3, 1.9512731e+2, -1069539.9, -1035079.6, 22163.867, -0.060959373, -0.016548676, -1024236.4, 3508.1245, 0.0, 9.999662, 10.000066 
1.645084e+3, 2.0512733e+2, -957981.8, -945146.4, 35312.58, -0.05142178, -0.007226467, -915673.06, 14070.307, 0.0, 9.999786, 9.9999695 
1.645089e+3, 2.1512663e+2, -755030.06, -774178.0, -6238.423, -0.031453215, -0.124837294, -753176.94, 78570.945, 0.0, 10.000431, 10.000147 
1.6450933e+3, 2.2512616e+2, -612374.06, -720844.9, -6915.98, -0.07291589, -0.15106443, -611934.9, 121814.07, 0.0, 10.001003, 9.999589 
1.6450973e+3, 2.3512572e+2, -429559.0, -563024.56, -40441.418, -0.16787493, -0.20169811, -418261.22, 217487.3, 0.0, 10.001517, 9.999743 
1.6451026e+3, 2.4512464e+2, -385803.75, -618969.94, -5037.8784, -0.14402834, -0.21955782, -385694.94, 152063.36, 0.0, 10.001676, 9.998612 
1.6451094e+3, 2.5512275e+2, -304242.34, -517530.34, -3964.442, -0.03309297, -0.31287023, -304168.66, 135611.14, 0.000000005166704, 10.0015135, 9.998715 
1.6451138e+3, 2.651222e+2, -198886.13, -469243.9, -42083.652, -0.03779284, -0.20764104, -192486.89, 149301.64, 0.000005473011, 10.001822, 9.998209 
1.6451165e+3, 2.7512267e+2, 47111.215, -281672.5, -53447.93, -0.16045351, -0.034336776, 55581.625, 299368.44, 0.000058881178, 10.002777, 9.998353 
1.6451213e+3, 2.851216e+2, 153652.45, -237519.14, 23818.426, -0.11043013, 0.05537036, 155097.4, 300896.0, 0.0003079229, 10.003052, 9.997883 
1.6451283e+3, 2.9511902e+2, 172840.8, -156837.98, 13742.971, 0.11481146, -0.045933835, 173412.7, 221235.89, 0.0009851817, 10.002427, 9.99805 
1.6451323e+3, 3.051165e+2, 242226.73, -137195.89, 49404.31, -0.0030971295, -0.068895854, 248554.11, 248554.11, 0.0021653068, 10.002715, 9.997729 
1.645136e+3, 3.151145e+2, 438382.9, 48878.918, -47150.77, -0.18018034, -0.111055836, 444009.4, 444009.4, 0.0036772224, 10.003653, 9.998538 
1.6550517e+3, 1.2511769e+2, -1888868.9, -1778534.5, -30114.248, -0.11809357, -0.117698, -1770850.4, -57015.33, 0.03897044, 9.998645, 10.000193 
1.6550568e+3, 1.3511777e+2, -1710328.9, -1704251.9, -6367.6133, 0.002572312, -0.09972983, -1700235.0, -84392.19, 0.024272982, 9.999535, 9.9995985 
1.655059e+3, 1.4512123e+2, -1504660.1, -1371406.0, -126862.99, -0.060392845, 0.21214285, -1294738.4, 223071.84, 0.0114189135, 9.999438, 10.001274 
1.6550612e+3, 1.5512004e+2, -1580549.8, -1339135.4, -53342.242, -0.12783323, -0.08527415, -1327874.3, 91942.17, 0.0034161112, 9.998189, 10.001401 
1.6550653e+3, 1.6512004e+2, -1549416.5, -1399266.8, 15589.565, -0.10774703, -0.16426754, -1397665.3, -75851.49, 0.00045137366, 9.998254, 10.000297 
1.6550708e+3, 1.7512108e+2, -1250784.9, -1182891.3, 24169.068, -0.044828303, -0.13618153, -1175166.4, 48636.848, 0.000008273259, 9.999566, 10.000464 
1.6550753e+3, 1.851216e+2, -1090044.6, -1062040.8, -11889.886, -0.048331544, -0.1208135, -1057673.5, 68122.87, 0.0, 10.00002, 10.000397 
1.655079e+3, 1.951215e+2, -1047810.2, -973115.1, 19656.426, -0.08546664, -0.21994978, -968258.25, 59536.16, 0.0, 9.99958, 10.000536 
1.6550834e+3, 2.0512135e+2, -1035060.2, -1068787.4, 44613.934, -0.11134184, -0.21195546, -1004229.1, -74434.195, 0.0, 9.999633, 9.999194 
1.6550888e+3, 2.1512105e+2, -839331.25, -898247.6, 29368.934, -0.11276747, -0.21378839, -827192.3, 4606.833, 0.0, 10.000216, 9.999397 
1.6550942e+3, 2.2512048e+2, -680991.44, -807828.8, -5278.5967, -0.11916756, -0.18789844, -680772.1, 53032.402, 0.0, 10.000762, 9.999109 
1.6550994e+3, 2.3511957e+2, -496141.03, -648056.8, -4461.543, -0.12534691, -0.23784716, -496010.1, 139801.88, 0.0, 10.001288, 9.999271 
1.6551049e+3, 2.4511924e+2, -397419.3, -579845.0, -20855.758, -0.12258526, -0.17601594, -395065.34, 142749.86, 0.0, 10.001407, 9.999007 
1.6551104e+3, 2.5511926e+2, -313365.9, -475269.72, 5965.3877, -0.08768921, -0.12694313, -313146.4, 126670.48, 0.00000000856411, 10.0012665, 9.999113 
1.6551152e+3, 2.6511818e+2, -216850.94, -454639.84, -23401.018, -0.11430291, -0.09898404, -214569.89, 127257.52, 0.0000057188686, 10.001587, 9.998426 
1.6551189e+3, 2.7511612e+2, 37828.813, -254728.06, 3097.4058, -0.21452223, -0.21057373, 37861.6, 281708.4, 0.00005720022, 10.002566, 9.998643 
1.6551238e+3, 2.8511477e+2, 133669.86, -209575.42, -18630.45, -0.17820674, -0.18109344, 134678.11, 280536.13, 0.0002952708, 10.00275, 9.998221 
1.65513e+3, 2.9511383e+2, 162896.69, -127304.84, 18544.326, 0.012853682, -0.15502128, 164076.89, 211941.33, 0.00095047243, 10.002199, 9.998366 
1.6551347e+3, 3.0511054e+2, 123134.83, -294027.63, 67003.805, -0.06587044, -0.22865884, 133632.67, 133632.67, 0.0020977126, 10.00235, 9.996819 
1.65514e+3, 3.1510693e+2, 276905.1, -166487.53, 53150.43, -0.1983221, -0.3406339, 283187.34, 283187.34, 0.0035619321, 10.003132, 9.997308 
1.6650502e+3, 1.251137e+2, -1882425.5, -1675035.8, -114145.16, -0.08532518, -0.13273616, -1624517.4, 89356.13, 0.041736465, 9.998223, 10.001137 
1.665056e+3, 1.351133e+2, -1970878.0, -1856627.9, 9345.957, 0.07316557, -0.14640428, -1855868.5, -239985.48, 0.026087236, 9.997833, 9.999381 
1.6650575e+3, 1.4511587e+2, -1793789.9, -1516798.5, -4296.293, -0.059724256, 0.096057415, -1516731.9, 1126.5397, 0.012349877, 9.997513, 10.001173 
1.6650608e+3, 1.5511538e+2, -1381820.9, -1236836.8, -24757.629, -0.044666067, -0.13341777, -1232725.6, 187133.1, 0.003737191, 9.99955, 10.001434 
1.6650656e+3, 1.6511579e+2, -1326903.0, -1307775.5, 32699.516, 0.01644707, -0.16469975, -1283269.9, 38582.89, 0.00050616945, 9.999875, 10.000126 
1.6650704e+3, 1.7511664e+2, -1401375.5, -1276587.6, 10617.949, 0.007839733, -0.14060521, -1275690.6, -51845.78, 0.000009797576, 9.998624, 10.00027 
1.6650748e+3, 1.8511686e+2, -1320952.8, -1194915.6, -3520.7478, -0.018295566, -0.13447246, -1194817.4, -68975.64, 0.0, 9.998535, 10.0001955 
1.6650791e+3, 1.951165e+2, -997328.06, -966611.7, -50292.297, -0.046115793, -0.24125057, -929384.8, 98458.26, 0.0, 10.0000105, 10.000365 
1.6650839e+3, 2.0511629e+2, -888091.9, -1022673.2, -7939.899, -0.08359872, -0.22269395, -887625.06, 42219.86, 0.0, 10.000746, 9.99898 
1.665089e+3, 2.1511608e+2, -763758.3, -888730.2, -9111.064, -0.14030421, -0.18956998, -763097.56, 68751.07, 0.0, 10.000838, 9.999172 
1.6650948e+3, 2.2511552e+2, -672583.9, -812421.94, 15448.387, -0.11726485, -0.1472578, -670897.56, 62957.367, 0.0, 10.000865, 9.999011 
1.6651013e+3, 2.3511453e+2, -554969.6, -683100.5, 9674.333, -0.029339768, -0.19825605, -554243.3, 81621.15, 0.0, 10.000912, 9.999196 
1.6651069e+3, 2.4511425e+2, -457243.22, -610619.94, 6709.105, -0.026523456, -0.12932892, -456950.3, 80916.92, 0.0, 10.000987, 9.999015 
1.6651115e+3, 2.5511447e+2, -333983.63, -483397.44, -23305.5, -0.10343649, -0.055785395, -330432.84, 109432.9, 0.0000000057748837, 10.00111, 9.999144 
1.6651164e+3, 2.65113e+2, -248675.39, -442203.53, -9497.704, -0.13389024, -0.08367841, -248210.39, 93667.48, 0.0000055479773, 10.00124, 9.998679 
1.6651215e+3, 2.751099e+2, -120491.98, -320374.7, -23794.752, -0.14551504, -0.31286266, -117698.41, 126204.93, 0.000055377644, 10.001395, 9.998774 
1.6651268e+3, 2.8510836e+2, 10912.906, -295846.22, -49228.594, -0.10861844, -0.2966103, 18619.484, 164535.97, 0.00028510438, 10.00202, 9.997959 
1.6651322e+3, 2.9510814e+2, 266902.94, -101824.95, -110943.84, -0.028994843, -0.172291, 297710.1, 345629.06, 0.000926934, 10.003056, 9.998101 
1.6651371e+3, 3.0510476e+2, 296306.53, -187296.06, 756.8144, -0.09871195, -0.25515428, 296307.72, 296307.72, 0.0020635044, 10.003433, 9.997027 
1.6651441e+3, 3.1510192e+2, 238557.64, -147062.58, -5109.7554, -0.07254797, -0.30747065, 238625.34, 238625.34, 0.0035203707, 10.002707, 9.997637 
1.675048e+3, 1.2510812e+2, -1833365.9, -1589346.5, -3351.4758, -0.20203644, -0.102174796, -1589300.5, 124630.97, 0.044670317, 9.998285, 10.001703 
1.675051e+3, 1.3510795e+2, -1799341.0, -1522306.8, -43894.35, -0.24426536, -0.33549753, -1515518.4, 100409.4, 0.028026333, 9.997901, 10.001667 
1.6750555e+3, 1.4511019e+2, -1849772.9, -1652481.1, 39451.023, -0.050706446, -0.18881011, -1644884.9, -126980.96, 0.013357116, 9.997592, 10.000205 
1.6750626e+3, 1.5511131e+2, -1443176.6, -1365780.1, 67188.09, 0.13716753, -0.16817597, -1326942.6, 92951.625, 0.004090086, 9.999553, 10.000547 
1.6750672e+3, 1.6511215e+2, -1321432.1, -1318678.8, -29637.506, 0.15909953, -0.10772316, -1290386.0, 31500.695, 0.0005678562, 9.999966, 10.000013 
1.6750689e+3, 1.751124e+2, -1417046.9, -1302532.3, -27700.068, -0.033317216, -0.12404889, -1296183.8, -72299.72, 0.000011659807, 9.998597, 10.000106 
1.6750728e+3, 1.8511246e+2, -1377855.9, -1322371.8, 33732.13, -0.115803026, -0.08110208, -1306439.1, -180553.69, 0.0, 9.998564, 9.999316 
1.6750793e+3, 1.9511227e+2, -1072094.0, -1099266.9, 15216.178, -0.06088374, -0.081886664, -1065281.4, -37390.695, 0.0, 9.999909, 9.999509 
1.6750847e+3, 2.0511207e+2, -879762.75, -977340.4, -18940.26, -0.1019212, -0.04018647, -876215.3, 53678.527, 0.0, 10.000618, 9.999355 
1.675089e+3, 2.1511166e+2, -770106.25, -856267.3, 10233.581, -0.23909178, -0.062093753, -768907.5, 62989.156, 0.0, 10.000634, 9.999497 
1.675095e+3, 2.2511122e+2, -698190.44, -801165.9, 5890.965, -0.21284257, -0.034579705, -697854.56, 36045.695, 0.0, 10.000587, 9.999221 
1.6751027e+3, 2.351106e+2, -575385.6, -673728.3, 25321.635, -0.002270166, -0.0694833, -569248.7, 66657.28, 0.0, 10.000689, 9.999367 
1.6751084e+3, 2.4510968e+2, -521010.2, -681136.7, -5073.0596, -0.0013788338, -0.054118633, -520849.63, 17064.594, 0.0, 10.000723, 9.998654 
1.6751117e+3, 2.5510845e+2, -391440.84, -546540.7, 1145.3516, -0.20530093, -0.09215942, -391432.38, 48493.15, 0.0000000017385277, 10.000873, 9.998818 
1.6751169e+3, 2.651066e+2, -276782.97, -438448.7, -18193.768, -0.24123365, -0.1546216, -274760.75, 67178.59, 0.0000048816705, 10.000969, 9.998841 
1.6751237e+3, 2.7510384e+2, -140680.48, -318994.5, 4468.1367, -0.09447792, -0.3621893, -140568.6, 103389.875, 0.000051551386, 10.0012, 9.998884 
1.6751295e+3, 2.8510213e+2, -111843.55, -474832.16, -23461.193, -0.07544512, -0.30826524, -110333.45, 35642.21, 0.0002714196, 10.0016985, 9.996887 
1.6751343e+3, 2.951016e+2, 163934.97, -255692.44, -43549.7, -0.17048797, -0.11866177, 168406.98, 216396.33, 0.0008994481, 10.00278, 9.997186 
1.6751392e+3, 3.050988e+2, 314541.2, -35513.25, -40835.98, -0.27295035, -0.1691742, 319241.84, 319241.84, 0.0020333803, 10.002974, 9.998282 
1.6751468e+3, 3.1509864e+2, 296205.4, 78572.664, 27396.236, -0.119011104, -0.07839809, 299601.13, 299601.13, 0.0035085906, 10.0022745, 9.999387 
1.6850466e+3, 1.2510441e+2, -2178206.8, -1733628.8, 188781.05, -0.060832106, -0.051143788, -1664283.3, 49683.695, 0.04776628, 9.995884, 10.0018215 
1.6850483e+3, 1.3510413e+2, -1716615.6, -1423350.1, -50028.008, -0.31490976, -0.35096148, -1415050.8, 200910.16, 0.030093629, 9.998228, 10.002197 
1.6850553e+3, 1.4510591e+2, -1604645.8, -1614686.5, 20354.55, 0.0680454, -0.24582903, -1588701.6, -70760.27, 0.0144471, 9.999604, 9.999502 
1.685062e+3, 1.5510638e+2, -1504467.9, -1482165.4, 28653.295, 0.13669735, -0.21381682, -1462569.9, -42629.36, 0.004479329, 9.999497, 9.9997835 
1.6850665e+3, 1.6510679e+2, -1382846.1, -1385281.9, -80892.31, 0.107515834, -0.14055131, -1303162.6, 18775.871, 0.0006375465, 9.999701, 9.999687 
1.6850688e+3, 1.7510706e+2, -1129000.0, -1193494.9, -114364.94, -0.008250346, -0.12815106, -1042423.06, 181512.86, 0.00001399049, 10.000708, 9.999831 
1.685073e+3, 1.8510707e+2, -1090810.9, -1211144.9, 4904.9917, -0.050515577, -0.06401714, -1090611.4, 35326.832, 0.0, 10.000659, 9.999063 
1.6850792e+3, 1.9510676e+2, -1116413.9, -1152688.0, 6589.327, -0.04679299, -0.049788255, -1115254.0, -87308.14, 0.0, 9.999739, 9.999227 
1.6850848e+3, 2.0510656e+2, -966499.94, -970235.6, 32123.629, -0.0998961, -0.015922818, -936189.9, -6241.165, 0.0, 9.999817, 9.999786 
1.6850899e+3, 2.1510641e+2, -701395.1, -768842.2, 31661.06, -0.20934914, -0.05666866, -688861.8, 143085.13, 0.0, 10.000887, 9.999967 
1.6850962e+3, 2.2510605e+2, -615796.3, -803134.0, 18399.314, -0.17231244, -0.02853338, -614006.4, 119943.22, 0.0, 10.001306, 9.998887 
1.6851036e+3, 2.3510523e+2, -549477.56, -699966.75, -22750.533, -0.0021348288, -0.04440356, -546113.4, 89845.07, 0.0, 10.001017, 9.99905 
1.6851094e+3, 2.4510396e+2, -461880.47, -662798.0, -15126.661, 0.017309817, -0.04357945, -460748.0, 77222.805, 0.0, 10.001173, 9.998551 
1.6851138e+3, 2.5510213e+2, -262556.34, -505004.78, -30666.346, -0.1241439, -0.13048573, -258737.64, 181249.89, 0.0000000018399801, 10.001821, 9.998653 
1.6851194e+3, 2.6510033e+2, -128159.43, -373763.0, -31448.057, -0.13181828, -0.17566821, -124196.63, 217804.48, 0.0000039092515, 10.002009, 9.998792 
1.685126e+3, 2.7509835e+2, -48346.902, -266482.5, -59324.996, -0.0074963416, -0.30200773, -33256.574, 210756.81, 0.000046409757, 10.001838, 9.99892 
1.6851318e+3, 2.8509676e+2, -100839.38, -483170.56, 2737.9282, -0.004064384, -0.23657884, -100819.77, 45210.6, 0.00025645504, 10.001809, 9.996799 
1.6851369e+3, 2.9509568e+2, 13148.274, -340259.25, 6620.7397, -0.11719035, -0.0878632, 13272.264, 61322.26, 0.0008664291, 10.001777, 9.997108 
1.6851418e+3, 3.0509275e+2, 182501.11, -89747.63, 16255.11, -0.23865095, -0.15366788, 183468.22, 183468.22, 0.0019906836, 10.001966, 9.998429 
1.6851494e+3, 3.150925e+2, 311465.0, 137767.08, -66573.38, -0.06406387, -0.06155023, 334045.28, 334045.28, 0.0034818049, 10.002085, 9.999943 
1.6950431e+3, 1.2510175e+2, -2182607.0, -1788487.9, 15451.274, -0.058332212, -0.05503011, -1787883.1, -73895.25, 0.051028147, 9.996052, 10.001368 
1.6950469e+3, 1.3510156e+2, -1801219.9, -1585215.0, 68279.19, -0.31558856, -0.22008376, -1565442.0, 50543.742, 0.032295942, 9.998188, 10.001076 
1.6950563e+3, 1.4510301e+2, -1618496.3, -1669402.5, 3951.1301, 0.1575876, -0.08181593, -1618191.4, -100220.47, 0.015627254, 9.999707, 9.999082 
1.6950588e+3, 1.5510076e+2, -1550292.3, -1586087.1, 34634.14, -0.16427058, -0.25068557, -1529204.6, -109208.88, 0.004910431, 9.999534, 9.999053 
1.6950628e+3, 1.6509983e+2, -1400490.6, -1438281.9, -63788.223, -0.2881659, -0.2533849, -1352858.3, -30851.54, 0.0007170378, 9.999768, 9.9992895 
1.6950695e+3, 1.7510067e+2, -1158920.6, -1248887.9, -62957.4, -0.036227547, -0.14907119, -1126527.5, 97471.875, 0.000016975888, 10.000679, 9.999462 
1.6950749e+3, 1.8510078e+2, -1063143.1, -1163255.8, -46134.066, 0.031557195, -0.07310813, -1045126.06, 80873.25, 0.0, 10.000694, 9.999376 
1.6950783e+3, 1.9509995e+2, -1109823.9, -1115838.0, -18577.13, -0.13494205, -0.14291205, -1094012.0, -66003.0, 0.0, 9.99964, 9.999523 
1.6950838e+3, 2.050998e+2, -965236.2, -923375.44, 54720.67, -0.2159338, -0.13634856, -885718.9, 44290.027, 0.0, 9.999622, 10.000207 
1.6950914e+3, 2.1510032e+2, -700269.1, -726140.7, 83499.27, -0.17909493, -0.15393981, -628709.56, 203290.28, 0.0, 10.000699, 10.000359 
1.6950978e+3, 2.250999e+2, -706856.4, -922481.8, -8081.4478, -0.15556769, -0.11545092, -706553.94, 27449.988, 0.0, 10.001019, 9.998199 
1.6951032e+3, 2.350984e+2, -640562.25, -821236.4, -14489.334, -0.1500923, -0.1302814, -639407.6, -3385.1946, 0.0, 10.000733, 9.99835 
1.6951098e+3, 2.450969e+2, -509321.13, -682219.6, -3145.165, -0.10514351, -0.1184994, -509263.94, 28774.766, 0.0, 10.000837, 9.998582 
1.6951172e+3, 2.5509536e+2, -294931.47, -518280.22, 12223.168, 0.011833311, -0.17730983, -294264.53, 145788.84, 0.0000000033657745, 10.001591, 9.998675 
1.6951233e+3, 2.6509416e+2, -192020.1, -434926.13, -50656.81, 0.031090712, -0.15033185, -181879.23, 160184.58, 0.0000030031388, 10.001713, 9.9985075 
1.695128e+3, 2.750932e+2, -99819.625, -317338.84, -44645.53, -0.019234633, -0.1521691, -91012.76, 153057.63, 0.000041455987, 10.001605, 9.998676 
1.6951336e+3, 2.8509182e+2, -89207.695, -387563.8, -16924.19, -0.046625655, -0.09718247, -88250.74, 57833.22, 0.00024337543, 10.001505, 9.997602 
1.6951397e+3, 2.950898e+2, 33612.11, -247103.38, 27486.355, -0.0396638, -0.11584421, 36278.125, 84384.06, 0.0008331997, 10.001542, 9.997869 
1.6951445e+3, 3.0508617e+2, 42631.44, -269179.53, 6172.479, -0.1903039, -0.23898542, 42753.582, 42753.582, 0.0019313671, 10.001523, 9.997392 
1.6951506e+3, 3.1508428e+2, 208436.88, 62111.715, -4857.703, -0.20314917, -0.22194871, 208597.97, 208597.97, 0.0034096164, 10.001518, 9.999673 
1.7050405e+3, 1.2509635e+2, -1825577.8, -1617926.5, -167786.55, -0.045512337, -0.051964097, -1524439.9, 189602.31, 0.054460447, 9.998494, 10.001428 
1.7050458e+3, 1.3509546e+2, -1953295.8, -1749602.6, -90236.14, -0.19159725, -0.1955703, -1715378.3, -99328.64, 0.034638863, 9.997545, 10.000252 
1.7050557e+3, 1.4509755e+2, -1874082.6, -1718149.3, -91386.945, 0.22927909, 0.014582558, -1675989.4, -157961.27, 0.016903277, 9.997664, 9.999724 
1.7050579e+3, 1.5509531e+2, -1567423.5, -1521959.6, 476.45465, -0.17789064, -0.21983159, -1521954.6, -101905.46, 0.00538814, 9.999125, 9.999679 
1.7050621e+3, 1.6509408e+2, -1405971.3, -1464681.0, -13445.621, -0.3156652, -0.27166784, -1403038.4, -80976.92, 0.0008082668, 9.999832, 9.999071 
1.7050698e+3, 1.7509456e+2, -1265947.9, -1322064.8, -27999.984, -0.030665925, -0.18114111, -1254367.0, -30308.79, 0.000020835996, 10.0000305, 9.999276 
1.7050754e+3, 1.8509443e+2, -1160381.8, -1205930.3, -25786.258, 0.05229645, -0.12323506, -1148752.6, -22692.977, 0.0, 10.000005, 9.999431 
1.7050782e+3, 1.9509332e+2, -1050498.6, -1086193.1, -43579.02, -0.13282338, -0.22132336, -1021253.9, 6815.4546, 0.0, 10.000029, 9.99956 
1.705084e+3, 2.0509295e+2, -936428.4, -947816.3, 60853.457, -0.17312549, -0.2213091, -881003.06, 49068.246, 0.0, 9.999997, 9.999844 
1.7050928e+3, 2.1509339e+2, -825455.8, -827086.7, 2421.124, -0.07073276, -0.21216223, -823716.5, 8348.606, 0.0, 10.000035, 9.999972 
1.7050993e+3, 2.250929e+2, -776979.4, -935353.94, -72098.76, -0.08175592, -0.17037709, -749073.94, -15003.511, 0.0, 10.000446, 9.998379 
1.7051037e+3, 2.3509137e+2, -567970.3, -760676.2, -48636.72, -0.20664479, -0.20953459, -556390.8, 79697.58, 0.0, 10.001129, 9.998562 
1.70511e+3, 2.4509023e+2, -431502.22, -641099.5, 29501.252, -0.16425852, -0.17693014, -427429.0, 110672.445, 0.0, 10.001355, 9.998619 
1.7051187e+3, 2.550893e+2, -352131.7, -531778.06, 15882.821, 0.03471388, -0.1769573, -350738.28, 89372.54, 0.0000000026261497, 10.00116, 9.998777 
1.7051254e+3, 2.650884e+2, -265926.88, -503650.66, -16521.344, 0.093880765, -0.11063008, -264784.2, 77336.32, 0.0000021613648, 10.001335, 9.998225 
1.70513e+3, 2.7508742e+2, -87370.66, -347801.3, -47302.938, 0.014995704, -0.085479535, -79045.016, 165086.14, 0.000036656253, 10.001829, 9.998373 
1.7051356e+3, 2.85086e+2, 13396.728, -278136.38, -3651.593, -0.0040331814, -0.043654595, 13442.458, 159587.33, 0.00022921336, 10.001956, 9.998129 
1.7051418e+3, 2.9508385e+2, 94718.11, -161094.23, -21674.41, 0.019225352, -0.123160765, 96541.53, 144705.8, 0.00079328316, 10.001738, 9.998355 
1.7051466e+3, 3.0508068e+2, 70151.47, -294027.66, 22531.621, -0.12788399, -0.20041765, 71540.195, 71540.195, 0.001843639, 10.001864, 9.997044 
1.7051533e+3, 3.150785e+2, 266904.4, 70858.12, -31578.695, -0.096422076, -0.18736337, 271865.47, 271865.47, 0.0032697637, 10.0020275, 9.99945 
1.7150386e+3, 1.2508866e+2, -1766901.8, -1519359.8, -87596.086, -0.17490393, -0.03223081, -1491498.5, 222627.02, 0.058051143, 9.998562, 10.0021 
1.7150454e+3, 1.3508646e+2, -2013316.8, -1865827.8, -106467.45, -0.017419057, -0.23974444, -1810059.5, -193912.69, 0.037118543, 9.997521, 9.999464 
1.7150524e+3, 1.4508972e+2, -1733713.1, -1460216.4, -51052.785, 0.08697995, 0.05449979, -1450997.3, 67113.51, 0.018276531, 9.997786, 10.0014515 
1.7150587e+3, 1.5508978e+2, -1431261.4, -1243620.3, 70433.516, -0.04582642, -0.1430183, -1220124.3, 199978.63, 0.005915651, 9.99913, 10.001597 
1.7150645e+3, 1.6508946e+2, -1401064.8, -1462464.9, -25110.36, -0.11312174, -0.20042823, -1392103.5, -70000.03, 0.0009130136, 9.999874, 9.999061 
1.7150693e+3, 1.7508891e+2, -1278617.3, -1331875.3, -10516.675, -0.10951359, -0.21190634, -1276615.8, -52504.96, 0.000025810483, 9.999972, 9.99923 
1.7150739e+3, 1.8508814e+2, -1175841.6, -1236732.6, -39931.496, -0.13328224, -0.20194577, -1156073.0, -29955.26, 0.0, 9.999994, 9.999226 
1.715078e+3, 1.9508697e+2, -1074575.8, -1117611.1, -29177.861, -0.16411589, -0.29022652, -1059839.4, -31713.002, 0.0, 9.9999485, 9.999383 
1.7150849e+3, 2.0508605e+2, -1039842.3, -1129261.0, 48804.29, -0.12505019, -0.2763669, -1018364.1, -88228.93, 0.0, 9.999856, 9.998668 
1.7150937e+3, 2.1508543e+2, -941102.9, -1011206.25, 18139.543, -0.010771333, -0.25430977, -936687.3, -104543.03, 0.0, 9.999794, 9.998824 
1.7151001e+3, 2.2508481e+2, -750585.94, -810413.75, -58111.895, -0.07755206, -0.22089607, -715140.56, 19010.543, 0.0, 10.000138, 9.99939 
1.715104e+3, 2.3508409e+2, -530428.25, -634837.1, -7332.379, -0.3023853, -0.27892902, -529915.8, 106241.04, 0.0, 10.000913, 9.9995365 
1.71511e+3, 2.4508378e+2, -471402.78, -645901.8, 5833.923, -0.3339609, -0.21568736, -471207.97, 66952.05, 0.0, 10.001034, 9.9987335 
1.715118e+3, 2.5508374e+2, -386506.13, -540296.94, 25019.69, -0.1722186, -0.14084665, -382538.16, 57623.945, 0.0000000000058928205, 10.000892, 9.998847 
1.7151253e+3, 2.6508275e+2, -328877.2, -568229.1, -14627.594, -0.08052064, -0.071049385, -327986.56, 14188.124, 0.0000014626683, 10.001055, 9.997917 
1.7151314e+3, 2.750808e+2, -146174.78, -409158.84, -11907.501, -0.044199165, -0.106912196, -145636.72, 98560.64, 0.000032258973, 10.001567, 9.998078 
1.7151374e+3, 2.8507915e+2, -25931.121, -282204.8, -29619.184, -0.04762123, -0.0800717, -22552.389, 123661.664, 0.00021422842, 10.00162, 9.998265 
1.7151427e+3, 2.9507762e+2, 70555.414, -150980.19, -1061.0565, -0.10156342, -0.12560335, 70560.5, 118787.04, 0.0007461243, 10.001474, 9.998551 
1.715148e+3, 3.0507603e+2, 5523.0127, -321497.06, 12628.83, -0.21487924, -0.060712863, 6009.9863, 6009.9863, 0.0017331633, 10.001439, 9.99705 
1.7151567e+3, 3.1507424e+2, 156806.11, 8809.904, 24177.658, -0.029362591, -0.0051707686, 160655.8, 160655.8, 0.0030820344, 10.001362, 9.999325 
1.7250377e+3, 1.2508179e+2, -1692373.1, -1502264.1, 122231.945, -0.1289747, -0.032834385, -1442476.8, 271716.47, 0.06177432, 9.999151, 10.001935 
1.7250441e+3, 1.3507931e+2, -1787455.6, -1803216.8, -43543.15, 0.02383104, -0.24841091, -1751085.6, -134867.86, 0.039721623, 9.99926, 9.999037 
1.725051e+3, 1.4508262e+2, -1628519.4, -1418637.0, 48579.113, 0.1415263, 0.078517236, -1407938.3, 110243.51, 0.019743169, 9.998525, 10.001401 
1.7250583e+3, 1.5508261e+2, -1521816.5, -1269504.6, 1798.68, 0.03439963, -0.13612907, -1269491.8, 150683.03, 0.006494274, 9.9984045, 10.001795 
1.7250645e+3, 1.6508277e+2, -1577728.0, -1497368.8, -118332.266, -0.012548907, -0.17806634, -1412580.6, -90410.38, 0.001032908, 9.998428, 9.999534 
1.7250691e+3, 1.750827e+2, -1392894.0, -1335773.5, -94950.55, -0.072448015, -0.18793277, -1265180.9, -41009.09, 0.00003215152, 9.998951, 9.999705 
1.7250738e+3, 1.8508205e+2, -1246315.3, -1286794.0, -67104.44, -0.115168326, -0.18499656, -1196464.5, -70286.94, 0.0, 9.999585, 9.999073 
1.7250785e+3, 1.9508082e+2, -982979.25, -1087073.9, -83607.59, -0.14656425, -0.26334214, -936542.3, 91644.87, 0.0, 10.000643, 9.999251 
1.7250852e+3, 2.0507976e+2, -933155.9, -1113744.8, 20612.367, -0.109198354, -0.24230155, -930833.06, -634.9812, 0.0, 10.000737, 9.998359 
1.7250936e+3, 2.1507874e+2, -920412.6, -1037897.3, 27867.56, -0.012835501, -0.22366993, -914137.56, -81925.93, 0.0, 10.000084, 9.998512 
1.7251003e+3, 2.2507791e+2, -769635.1, -804531.6, 12942.974, -0.05156789, -0.19983612, -765358.7, -31138.338, 0.0, 9.99997, 9.9994955 
1.7251053e+3, 2.3507728e+2, -593002.5, -652764.75, -39362.043, -0.23406182, -0.25800765, -573464.5, 62759.902, 0.0, 10.000461, 9.999618 
1.7251115e+3, 2.4507701e+2, -501464.8, -644790.2, -52597.547, -0.26921985, -0.20280194, -484234.06, 53992.043, 0.0, 10.000736, 9.998887 
1.7251188e+3, 2.5507697e+2, -399429.75, -526815.44, -53161.082, -0.17087714, -0.14402103, -380159.47, 60067.27, 0.0000000000049057277, 10.000705, 9.999028 
1.7251258e+3, 2.650759e+2, -364222.53, -579419.7, -27027.752, -0.11204098, -0.09257674, -360879.88, -18640.342, 0.0000011502509, 10.000798, 9.997955 
1.7251322e+3, 2.7507374e+2, -225130.67, -448586.03, -36522.652, -0.087278664, -0.1530895, -219312.72, 24952.455, 0.000029351942, 10.001026, 9.998071 
1.7251387e+3, 2.850721e+2, -62290.883, -287513.4, -18098.488, -0.058844473, -0.12814647, -60845.793, 85436.5, 0.00020332959, 10.001343, 9.998345 
1.7251448e+3, 2.9507077e+2, 123327.984, -115855.65, -53550.555, -0.053359684, -0.15589295, 134770.0, 183063.13, 0.0007057303, 10.001826, 9.998603 
1.7251502e+3, 3.0506983e+2, 165253.84, -175493.3, 16730.82, -0.15368538, -0.05846607, 166073.36, 166073.36, 0.0016357158, 10.002187, 9.9977255 
1.725159e+3, 3.1506824e+2, 292629.84, 78755.4, 5857.0186, 0.038933616, -0.04050797, 292790.13, 292790.13, 0.0029145537, 10.002167, 9.999483 
1.7350376e+3, 1.2507522e+2, -1766530.0, -1660230.3, 185931.53, -0.13526376, -0.1011228, -1520001.1, 194248.94, 0.06561491, 9.999223, 10.000767 
1.7350411e+3, 1.3507386e+2, -1791548.8, -1815755.1, -68017.555, -0.2374625, -0.22373821, -1734565.9, -118301.24, 0.042436883, 9.999267, 9.998952 
1.735051e+3, 1.4507574e+2, -1743539.5, -1667770.5, 12169.134, 0.24680178, 0.059939794, -1665864.1, -147617.66, 0.021297567, 9.998585, 9.9996395 
1.7350557e+3, 1.5507378e+2, -1630182.0, -1492533.5, 7126.8413, -0.07401266, -0.194268, -1492165.4, -71900.29, 0.0071235094, 9.998409, 10.000249 
1.7350617e+3, 1.6507411e+2, -1486586.0, -1337796.1, -115309.586, -0.17922978, -0.1947538, -1274965.3, 47295.37, 0.0011691477, 9.998541, 10.00058 
1.7350687e+3, 1.7507593e+2, -1322375.8, -1196318.6, -64874.33, -0.03716121, -0.11623102, -1168896.9, 55344.24, 0.00004011834, 9.998969, 10.000658 
1.7350744e+3, 1.8507604e+2, -1256798.9, -1309228.5, -46891.14, -0.047466584, -0.07319048, -1229292.3, -103053.0, 0.0, 9.999591, 9.998914 
1.7350788e+3, 1.9507469e+2, -1017231.7, -1121822.6, -34909.27, -0.2094161, -0.15082058, -1006650.5, 21602.58, 0.0, 10.000488, 9.999085 
1.7350847e+3, 2.0507388e+2, -921465.9, -1048833.5, -20275.303, -0.2678754, -0.12382521, -918316.2, 11945.079, 0.0, 10.000557, 9.998891 
1.735092e+3, 2.1507335e+2, -909578.94, -977761.94, 16573.871, -0.20571028, -0.11419493, -905763.7, -73497.06, 0.0, 9.999916, 9.999005 
1.7350994e+3, 2.2507223e+2, -870974.8, -952726.4, 16470.422, -0.16816427, -0.097470805, -867781.25, -133503.6, 0.0, 9.999706, 9.998603 
1.735107e+3, 2.350706e+2, -684585.7, -792806.75, -4705.5195, -0.13942684, -0.17074014, -684381.44, -48087.46, 0.0, 10.000237, 9.998763 
1.735114e+3, 2.450696e+2, -527130.5, -622222.7, -65057.074, -0.12114119, -0.1631741, -494097.13, 44205.242, 0.0, 10.000424, 9.999189 
1.7351204e+3, 2.5506908e+2, -413954.4, -496795.9, -34295.28, -0.10538255, -0.18232189, -401599.28, 38704.61, 0.000000000000012544113, 10.000458, 9.999351 
1.7351264e+3, 2.6506793e+2, -391320.16, -560383.06, -32142.467, -0.15774037, -0.17197224, -385415.4, -43100.484, 0.0000010511417, 10.000482, 9.998236 
1.7351317e+3, 2.7506617e+2, -243432.2, -422383.4, -5473.874, -0.25818947, -0.2237567, -243264.9, 1069.7195, 0.000029114979, 10.000766, 9.998365 
1.7351389e+3, 2.8506458e+2, -128352.125, -355609.47, -20387.809, -0.19954698, -0.19170424, -126537.57, 19813.74, 0.00019954766, 10.001041, 9.998027 
1.7351474e+3, 2.9506284e+2, 49730.465, -187190.78, -10884.608, -0.004222692, -0.23543827, 50229.473, 98597.96, 0.0006841952, 10.001478, 9.998281 
1.7351529e+3, 3.0506188e+2, 182296.61, -23599.852, -5720.112, -0.14825876, -0.18638335, 182455.4, 182455.4, 0.0015848163, 10.001718, 9.998976 
1.7351592e+3, 3.1505963e+2, 241382.84, 149589.92, 62017.246, -0.21385317, -0.38018867, 272639.63, 272639.63, 0.0028348158, 10.001465, 10.000276 
1.7450385e+3, 1.2506966e+2, -1905636.8, -1705540.6, 267906.16, 0.08810774, -0.08262574, -1519610.9, 194688.72, 0.06957688, 9.998215, 10.000948 
1.7450401e+3, 1.3506679e+2, -1834747.3, -1897253.8, -123787.26, -0.24933645, -0.2878444, -1738328.9, -121999.77, 0.045260757, 9.999253, 9.998404 
1.7450505e+3, 1.4506772e+2, -1608230.5, -1660932.3, 1998.452, 0.29618555, -0.051316295, -1608154.9, -89832.78, 0.022935338, 9.999775, 9.999097 
1.7450546e+3, 1.5506658e+2, -1600841.9, -1543005.6, 27675.5, -0.050875865, -0.16788441, -1531896.4, -111560.51, 0.0078018596, 9.998897, 9.999646 
1.7450604e+3, 1.6506682e+2, -1500152.3, -1353830.4, -32557.582, -0.15086982, -0.14428644, -1346913.1, -24579.348, 0.0013223152, 9.998501, 10.000492 
1.7450684e+3, 1.7506793e+2, -1297447.0, -1190146.6, -90651.52, 0.046110336, -0.1256791, -1138459.1, 85861.9, 0.000049909977, 9.999176, 10.000606 
1.745075e+3, 1.8506816e+2, -1236822.4, -1288090.3, -64786.625, 0.053878862, -0.0743457, -1192782.8, -66463.92, 0.0000000000000006446772, 9.999681, 9.999008 
1.7450795e+3, 1.9506755e+2, -1059258.5, -1131444.6, -65391.344, -0.16148064, -0.0889156, -1020660.6, 7666.415, 0.0, 10.0001545, 9.999167 
1.7450851e+3, 2.0506704e+2, -934221.3, -1019130.5, -58169.363, -0.25090012, -0.05368784, -904661.5, 25670.602, 0.0, 10.000302, 9.999224 
1.745092e+3, 2.150665e+2, -830864.94, -898196.44, -67175.914, -0.21223089, -0.07665731, -789390.94, 42944.477, 0.0, 10.000275, 9.999383 
1.7450996e+3, 2.2506538e+2, -763263.06, -916919.4, 14750.7705, -0.14179032, -0.073326655, -761859.8, -27514.428, 0.0, 10.000487, 9.998488 
1.7451084e+3, 2.3506372e+2, -595069.9, -762236.25, 24269.385, -0.047067642, -0.13627525, -591617.75, 44744.215, 0.0, 10.000899, 9.998662 
1.7451157e+3, 2.4506232e+2, -451507.38, -606583.9, -23862.023, -0.015199549, -0.15319471, -447918.7, 90455.74, 0.0, 10.00107, 9.998971 
1.7451215e+3, 2.5506097e+2, -349850.44, -489400.66, -71606.32, -0.059119478, -0.23007646, -319645.4, 120739.39, 0.0, 10.001037, 9.99911 
1.7451273e+3, 2.6505992e+2, -276997.4, -470343.16, -51850.04, -0.12461503, -0.21496773, -263970.38, 78423.99, 0.0000010008785, 10.00109, 9.998568 
1.7451331e+3, 2.7505904e+2, -151375.39, -343854.84, -57983.836, -0.22259638, -0.2050979, -135257.61, 109145.8, 0.000030147008, 10.001224, 9.998689 
1.7451404e+3, 2.8505772e+2, -98417.79, -335736.34, -23296.576, -0.15061806, -0.16859011, -96152.484, 50264.492, 0.00019898178, 10.001197, 9.998099 
1.7451492e+3, 2.9505548e+2, -34201.16, -236878.66, -34917.1, 0.06418773, -0.26496264, -28354.34, 20085.027, 0.00068108423, 10.000889, 9.998249 
1.7451544e+3, 3.050542e+2, 84618.22, -50150.938, -1853.8237, -0.09744322, -0.25084597, 84643.71, 84643.71, 0.0015910955, 10.0009365, 9.999187 
1.7451608e+3, 3.1505314e+2, 265685.84, 146753.0, -93575.266, -0.17792448, -0.34712145, 317091.34, 317091.34, 0.002872257, 10.001667, 10.000166 
1.755037e+3, 1.2506437e+2, -1768544.9, -1463032.3, 140496.5, 0.04643249, -0.0358162, -1408246.4, 306102.44, 0.07366958, 9.998306, 10.002655 
1.7550404e+3, 1.3505802e+2, -1910020.5, -2045381.1, -47929.707, -0.17689759, -0.46047336, -1894767.8, -278355.66, 0.048192136, 9.999223, 9.997396 
1.7550491e+3, 1.4505905e+2, -1538697.4, -1545781.4, -38895.598, 0.11540101, -0.21521245, -1503182.9, 15220.87, 0.024652572, 9.999891, 9.99984 
1.7550541e+3, 1.5506102e+2, -1574177.5, -1498893.6, 3118.3904, -0.01854246, -0.05298221, -1498764.8, -78377.91, 0.008527423, 9.998933, 9.999941 
1.7550601e+3, 1.6506062e+2, -1578382.0, -1528329.4, -35728.03, -0.08275862, -0.042264447, -1509734.5, -187342.13, 0.0014925194, 9.998559, 9.999265 
1.755068e+3, 1.7505865e+2, -1380246.5, -1348367.6, -52318.0, 0.05176765, -0.22130103, -1309614.9, -85202.7, 0.00006156021, 9.999128, 9.9995365 
1.755075e+3, 1.8505847e+2, -1209012.4, -1232651.0, -61694.504, 0.046654616, -0.17951241, -1158015.3, -31599.785, 0.0000000010737394, 9.999689, 9.999385 
1.7550804e+3, 1.9505946e+2, -1048958.4, -1093156.5, -36901.1, -0.1322217, -0.06708607, -1028045.1, 363.14078, 0.0, 10.000079, 9.999467 
1.7550862e+3, 2.0505922e+2, -948127.7, -1015282.56, -75547.08, -0.21212293, -0.022541499, -899032.25, 31378.182, 0.0, 10.000159, 9.999318 
1.755093e+3, 2.1505795e+2, -850249.3, -892732.7, -55579.13, -0.15663865, -0.13383599, -811991.0, 20429.332, 0.0, 10.000072, 9.999519 
1.7551006e+3, 2.2505717e+2, -757424.8, -841402.0, 16549.139, -0.1145378, -0.13734739, -754281.2, -19855.799, 0.0, 10.000218, 9.999136 
1.7551091e+3, 2.350567e+2, -583098.7, -688835.3, 55620.28, -0.08584598, -0.14577124, -559229.3, 77198.19, 0.0, 10.000685, 9.999271 
1.755116e+3, 2.4505512e+2, -556843.5, -758389.7, -36251.816, -0.11606716, -0.16366935, -550521.3, -12078.6455, 0.0, 10.000782, 9.998069 
1.7551216e+3, 2.550524e+2, -443743.88, -633008.94, -55703.098, -0.17130564, -0.2940476, -428566.8, 11904.681, 0.0, 10.000814, 9.99823 
1.7551284e+3, 2.6505142e+2, -293515.94, -449718.44, -63829.773, -0.1699303, -0.23805127, -270750.7, 71731.06, 0.00000094846536, 10.000847, 9.998831 
1.7551355e+3, 2.7505225e+2, -165908.69, -312123.53, -33958.71, -0.12621363, -0.09339302, -158406.63, 86066.016, 0.000030605133, 10.000965, 9.999027 
1.7551425e+3, 2.8505147e+2, -116638.78, -301390.63, -49877.637, -0.08695838, -0.045037463, -104033.32, 42446.137, 0.0002004244, 10.000888, 9.998482 
1.7551494e+3, 2.9504862e+2, -64467.87, -216266.7, -26413.041, -0.02935157, -0.24126758, -60003.305, -11496.962, 0.000696978, 10.000542, 9.99855 
1.7551546e+3, 3.0504695e+2, -60171.016, -248545.34, -2986.102, -0.2105319, -0.22095837, -60123.69, -60123.69, 0.0016497148, 10.000504, 9.998026 
1.7551635e+3, 3.1504878e+2, 62518.438, -103932.47, 4079.3923, -0.15059064, 0.06479472, 62618.355, 62618.355, 0.0030015628, 10.000972, 9.998753 
1.7650357e+3, 1.2505597e+2, -1532851.3, -1251642.8, 41874.332, 0.0402601, -0.10501228, -1245539.9, 468894.8, 0.07790593, 9.999495, 10.00366 
1.7650399e+3, 1.3505088e+2, -2012601.9, -2116689.8, -107653.96, -0.10233187, -0.38806778, -1945071.8, -328587.2, 0.05123237, 9.998579, 9.997223 
1.7650473e+3, 1.450517e+2, -1710604.1, -1584281.9, -59934.96, 0.022847064, -0.17619129, -1560371.0, -41894.563, 0.026445003, 9.998519, 10.000244 
1.7650537e+3, 1.5505324e+2, -1420323.5, -1382122.1, -57093.105, 0.004262083, -0.09352329, -1341019.4, 79442.18, 0.009296644, 9.999828, 10.000315 
1.7650601e+3, 1.6505276e+2, -1358273.1, -1458830.1, -25509.244, -0.0071157548, -0.0917781, -1352172.1, -29704.76, 0.0016790463, 10.000238, 9.998917 
1.765068e+3, 1.7505084e+2, -1288107.1, -1348860.1, -18934.44, 0.10136942, -0.23184608, -1282689.1, -58200.88, 0.000074904594, 9.999942, 9.999136 
1.765075e+3, 1.8505056e+2, -1205300.9, -1233100.4, 17103.898, 0.09554092, -0.17955698, -1197161.0, -70667.57, 0.000000009428086, 9.999729, 9.999366 
1.7650808e+3, 1.9505146e+2, -1057941.4, -1094294.9, -13967.128, -0.07918735, -0.07088325, -1053194.9, -24707.672, 0.0, 10.000019, 9.999494 
1.765087e+3, 2.0505114e+2, -951865.0, -1008049.44, -55945.17, -0.14103696, -0.041490834, -917355.0, 13135.405, 0.0, 10.000112, 9.999383 
1.7650938e+3, 2.1504964e+2, -857179.44, -888328.6, -67842.234, -0.07627249, -0.1766702, -803147.0, 29354.85, 0.0, 10.000012, 9.999567 
1.7651013e+3, 2.25049e+2, -737787.1, -802467.6, 34817.29, -0.054344926, -0.18132408, -722607.5, 11897.714, 0.0, 10.000236, 9.999389 
1.7651097e+3, 2.3504907e+2, -539342.0, -635394.5, 9077.772, -0.094745375, -0.16098316, -538491.6, 98010.39, 0.0, 10.000858, 9.999548 
1.7651168e+3, 2.4504796e+2, -516273.5, -761740.56, -64907.38, -0.13297592, -0.13919464, -500167.22, 38346.563, 0.0, 10.001108, 9.997915 
1.7651226e+3, 2.550456e+2, -436517.16, -652553.3, -52448.52, -0.16384628, -0.21307918, -424457.13, 16084.051, 0.0, 10.000918, 9.99807 
1.7651293e+3, 2.6504448e+2, -274698.44, -433464.53, 1949.8679, -0.14727074, -0.16413124, -274674.47, 67878.586, 0.0000007067664, 10.000974, 9.998869 
1.7651367e+3, 2.750446e+2, -114846.69, -283829.22, -30457.838, -0.10861001, -0.09647207, -109524.516, 135025.48, 0.000029110019, 10.001319, 9.999044 
1.7651437e+3, 2.8504375e+2, -83077.19, -286543.06, -70813.34, -0.058647364, -0.05121106, -60858.04, 85698.86, 0.00020337792, 10.001133, 9.998468 
1.7651504e+3, 2.9504165e+2, -75982.75, -230017.61, -127574.164, 0.025690988, -0.15571731, -3980.5444, 44595.97, 0.00072560523, 10.000506, 9.998475 
1.7651556e+3, 3.0503926e+2, -40227.73, -249985.2, 13045.045, -0.14335091, -0.20109665, -39419.56, -39419.56, 0.0017290524, 10.000667, 9.997935 
1.7651655e+3, 3.1504017e+2, 116348.586, -89011.22, 25643.637, -0.045908194, 0.0117318975, 119502.32, 119502.32, 0.0031406845, 10.001334, 9.998702 
1.7750357e+3, 1.2504596e+2, -1523884.0, -1266130.0, 83717.51, -0.000998104, -0.16176109, -1241325.9, 473215.84, 0.08231803, 9.999623, 10.003521 
1.7750387e+3, 1.3504568e+2, -1962298.4, -2020230.3, -137874.84, -0.117389016, -0.05205992, -1850379.6, -233836.47, 0.054393712, 9.998604, 9.997874 
1.7750445e+3, 1.4504527e+2, -1703083.5, -1583543.4, -33573.34, -0.1637478, 0.01972484, -1574759.6, -56215.316, 0.02831169, 9.998578, 10.000222 
1.7750525e+3, 1.5504321e+2, -1387868.3, -1315994.8, 4207.34, -0.12574826, -0.29636678, -1315749.4, 104810.44, 0.010105246, 9.9998255, 10.000774 
1.7750601e+3, 1.6504331e+2, -1320421.9, -1388698.8, -53011.926, -0.06798696, -0.2911843, -1291507.3, 31050.924, 0.0018804772, 10.000275, 9.999381 
1.775068e+3, 1.7504445e+2, -1271734.0, -1306058.3, -18186.492, 0.07206454, -0.15779012, -1263890.4, -39340.617, 0.00008970714, 9.99991, 9.999443 
1.7750748e+3, 1.850444e+2, -1233177.3, -1297361.4, 11095.39, 0.048309524, -0.073631495, -1231313.4, -104760.07, 0.000000028818846, 9.999752, 9.998915 
1.7750806e+3, 1.9504346e+2, -1096066.6, -1156536.1, 11539.696, -0.130031, -0.10967662, -1093939.4, -65373.926, 0.0, 9.999941, 9.999106 
1.775087e+3, 2.0504259e+2, -975449.1, -1019222.5, -73909.54, -0.18163504, -0.11533768, -920253.75, 10319.854, 0.0, 9.999957, 9.999374 
1.7750938e+3, 2.1504146e+2, -893437.6, -913178.2, -59635.395, -0.090336345, -0.21288253, -842861.2, -10280.196, 0.0, 9.9998045, 9.99949 
1.7751014e+3, 2.2504081e+2, -790371.8, -858701.5, 45124.586, -0.10020213, -0.20182234, -767937.5, -33351.832, 0.0, 9.999997, 9.999122 
1.7751099e+3, 2.3504059e+2, -581765.94, -684272.9, 48685.14, -0.193569, -0.19128801, -562328.8, 74259.02, 0.0, 10.00067, 9.99931 
1.7751174e+3, 2.4504045e+2, -516857.06, -687430.25, -87208.63, -0.21079634, -0.09186312, -480163.53, 58427.473, 0.0, 10.000797, 9.998569 
1.7751238e+3, 2.5504047e+2, -426325.7, -575016.25, -43507.844, -0.15521789, 0.004405703, -414530.66, 26064.172, 0.0, 10.0006895, 9.998707 
1.7751302e+3, 2.6503903e+2, -340383.88, -504743.13, 2011.9342, -0.19217184, 0.004379369, -340359.25, 2250.0127, 0.00000032366296, 10.000701, 9.998508 
1.7751363e+3, 2.75036e+2, -187013.94, -355705.88, 1862.766, -0.3120109, -0.19872034, -186993.38, 57641.883, 0.00002512301, 10.001007, 9.998689 
1.7751434e+3, 2.8503457e+2, -175063.02, -405486.72, -116717.87, -0.23431617, -0.16139853, -126272.336, 20376.352, 0.00020098852, 10.000816, 9.997807 
1.7751515e+3, 2.950346e+2, -153325.67, -331390.16, -128843.17, 0.060036026, -0.0055793114, -85745.98, -37095.887, 0.0007425487, 10.000255, 9.997896 
1.7751572e+3, 3.0503115e+2, -39663.863, -159290.27, 23373.27, -0.08492884, -0.16807826, -35259.242, -35259.242, 0.0017707977, 10.000295, 9.9987335 
1.7751665e+3, 3.150293e+2, 91525.43, 57895.14, 128773.84, -0.13834743, -0.31040642, 204577.33, 204577.33, 0.0031853206, 10.000548, 10.000062 
1.7850356e+3, 1.250392e+2, -1662953.8, -1440789.0, 262356.63, 0.08091395, -0.0611258, -1266967.3, 447642.78, 0.08696164, 9.999201, 10.00242 
1.785039e+3, 1.3503872e+2, -1666601.0, -1834983.6, -75435.44, -0.034053504, -0.0045868154, -1637749.5, -21136.287, 0.057701517, 10.000515, 9.998198 
1.785044e+3, 1.4503807e+2, -1533895.3, -1546681.0, 46465.734, -0.11967737, 0.050126094, -1493384.6, 25232.73, 0.030258754, 9.999946, 9.999814 
1.7850524e+3, 1.5503548e+2, -1593193.3, -1456464.8, -4554.791, -0.06324795, -0.28360662, -1456313.1, -35673.17, 0.0109521225, 9.998587, 10.000402 
1.7850599e+3, 1.6503581e+2, -1561740.4, -1469101.4, -49040.523, -0.018236356, -0.2530961, -1447963.8, -125327.73, 0.0020959692, 9.998457, 9.999707 
1.7850678e+3, 1.7503756e+2, -1264167.9, -1263830.3, -53106.582, 0.07128339, -0.0918853, -1210892.3, 13727.904, 0.000105867584, 9.999809, 9.999776 
1.7850748e+3, 1.8503746e+2, -1162756.4, -1272576.9, 4102.7114, 0.057907354, -0.024007564, -1162603.4, -35980.33, 0.0000000562377, 10.000271, 9.998842 
1.7850809e+3, 1.9503601e+2, -1075235.3, -1152394.8, 5423.4253, -0.085350916, -0.10775233, -1074855.9, -46216.375, 0.0, 10.000092, 9.999066 
1.7850877e+3, 2.0503503e+2, -919410.7, -1025395.9, -35381.895, -0.11281783, -0.10774489, -908684.44, 21964.703, 0.0, 10.00047, 9.999096 
1.785095e+3, 2.150342e+2, -651823.7, -829457.6, -68553.28, -0.026994731, -0.14810021, -628444.4, 204210.98, 0.0, 10.001586, 9.999222 
1.7851025e+3, 2.2503343e+2, -614884.56, -780948.75, 27205.828, -0.058820006, -0.12807034, -610541.1, 124120.875, 0.0, 10.00124, 9.999059 
1.7851096e+3, 2.3503283e+2, -759925.94, -777051.5, 10430.802, -0.20734814, -0.1468081, -754993.44, -118324.95, 0.0, 9.999492, 9.999241 
1.7851172e+3, 2.4503271e+2, -698090.06, -735164.56, -58653.574, -0.20330985, -0.05817366, -655114.1, -116443.28, 0.0, 9.999403, 9.998897 
1.7851254e+3, 2.5503302e+2, -358365.16, -507498.1, -71456.32, -0.06829664, 0.036317732, -329654.5, 111015.195, 0.0, 10.001022, 9.998999 
1.7851321e+3, 2.6503155e+2, -257393.88, -504064.66, -50162.62, -0.07982305, 0.037770383, -247583.08, 95100.94, 0.00000018370703, 10.001405, 9.998193 
1.7851375e+3, 2.750281e+2, -268663.72, -446821.0, -76550.33, -0.25577417, -0.17535411, -240290.42, 4425.814, 0.000020759246, 10.000599, 9.998298 
1.7851448e+3, 2.8502634e+2, -151072.22, -389935.78, -97796.96, -0.18001546, -0.14861432, -116140.16, 30593.205, 0.0001926232, 10.000988, 9.997814 
1.7851539e+3, 2.9502642e+2, 201412.3, -160496.66, -115321.25, 0.1602825, 0.018275384, 235035.34, 283768.84, 0.00073852565, 10.002704, 9.99788 
1.7851596e+3, 3.050231e+2, 291165.25, -28663.912, 6882.852, 0.007910187, -0.1210571, 291313.28, 291313.28, 0.001755, 10.002698, 9.998474 
1.7851673e+3, 3.1502074e+2, 96552.31, 35529.32, -47281.0, -0.107172385, -0.26837906, 122311.984, 122311.984, 0.0031042786, 10.000652, 9.999879 
1.7950349e+3, 1.2503366e+2, -1788283.5, -1732023.5, 174900.66, -0.013777239, -0.015902774, -1583005.1, 131654.23, 0.09190124, 9.999342, 10.0002165 
1.7950399e+3, 1.3502985e+2, -1648503.9, -1823070.9, -35930.984, -0.037413303, -0.26341033, -1641397.6, -24701.576, 0.06119029, 10.000597, 9.998255 
1.7950456e+3, 1.450302e+2, -1590706.6, -1677493.3, -31462.977, 0.00079873967, -0.0771724, -1580500.5, -61805.81, 0.03230053, 10.000006, 9.998883 
1.7950526e+3, 1.5503001e+2, -1683659.1, -1638639.6, -42893.902, 0.07232394, -0.0497241, -1612707.9, -192005.98, 0.011841973, 9.998574, 9.999153 
1.7950591e+3, 1.650302e+2, -1536571.5, -1438902.9, -17529.121, -0.0040318496, 0.024536898, -1435852.1, -113150.48, 0.0023264778, 9.998538, 9.999883 
1.7950669e+3, 1.7503005e+2, -1239414.5, -1218202.0, 7190.471, -0.015574672, -0.03182945, -1215994.4, 8706.207, 0.00012352158, 9.999822, 10.000091 
1.7950746e+3, 1.8502964e+2, -1135494.3, -1222121.5, -20260.744, -0.024722883, -0.030986879, -1130989.9, -4286.0176, 0.000000085167756, 10.000302, 9.99917 
1.7950813e+3, 1.9502902e+2, -1073262.6, -1124141.8, 7096.8916, -0.075144865, -0.05985484, -1072291.3, -43580.746, 0.0, 9.999992, 9.999307 
1.7950888e+3, 2.0502846e+2, -975994.2, -1107991.8, -10437.519, -0.086243026, -0.0042301808, -975173.94, -44456.902, 0.0, 10.000313, 9.99861 
1.795097e+3, 2.1502784e+2, -712711.1, -911200.25, -12853.047, -0.010196224, 0.023585575, -711882.25, 120842.41, 0.0, 10.001386, 9.998763 
1.7951037e+3, 2.2502685e+2, -655284.5, -800218.8, -51708.563, -0.06770174, 0.04127118, -638727.75, 96007.07, 0.0, 10.000963, 9.99906 
1.7951089e+3, 2.3502554e+2, -793736.06, -793122.9, -38403.574, -0.25683346, -0.045996483, -755024.7, -118278.31, 0.0, 9.999262, 9.999238 
1.7951165e+3, 2.4502444e+2, -745946.5, -768444.44, -8326.592, -0.2550853, -0.05339432, -743200.06, -204444.1, 0.0, 9.999122, 9.998802 
1.795127e+3, 2.5502336e+2, -401795.7, -535667.06, 5150.8633, -0.035054833, -0.093221605, -401597.8, 39167.375, 0.0, 10.000769, 9.99892 
1.795135e+3, 2.650221e+2, -322712.88, -571079.25, -94111.83, 0.033493303, -0.049393486, -291080.47, 51697.285, 0.00000013255313, 10.001108, 9.997878 
1.79514e+3, 2.7502072e+2, -324447.3, -498349.78, -89272.75, -0.08572616, -0.028421318, -286778.56, -41985.176, 0.0000188634, 10.000344, 9.998055 
1.7951472e+3, 2.8501916e+2, -162494.33, -347252.5, -51498.293, -0.06897512, 0.0054669715, -149109.66, -2300.462, 0.00018772867, 10.000692, 9.998256 
1.7951569e+3, 2.950174e+2, 177799.8, -112412.07, -20697.342, 0.14688551, -0.061535444, 179268.45, 228093.6, 0.00073078944, 10.002299, 9.998398 
1.7951618e+3, 3.05015e+2, 104015.89, -309690.6, -86718.77, -0.06900703, -0.047683123, 121458.01, 121458.01, 0.0017134675, 10.002219, 9.996783 
1.7951664e+3, 3.1501463e+2, -74065.63, -178558.03, -48518.19, -0.2977835, 0.15307681, -55011.902, -55011.902, 0.0029593005, 10.000093, 9.998653 
1.8050346e+3, 1.2502643e+2, -1778420.3, -1787628.6, 136139.4, 0.020515744, -0.0068491497, -1646807.1, 67924.77, 0.097200245, 9.999705, 9.999627 
1.8050407e+3, 1.3502346e+2, -1715479.5, -1757008.0, -71792.59, 0.033368077, -0.2440889, -1661508.8, -44749.438, 0.06490086, 9.999717, 9.999134 
1.8050462e+3, 1.4502352e+2, -1666696.0, -1751703.9, -7098.969, 0.08883911, -0.12020403, -1666107.3, -147346.25, 0.034457777, 9.999631, 9.998556 
1.8050528e+3, 1.5502398e+2, -1425593.6, -1556705.9, 15099.803, 0.1389118, 0.0050107823, -1423877.1, -3113.2637, 0.0127833225, 10.000523, 9.998775 
1.8050589e+3, 1.6502391e+2, -1230350.4, -1320076.3, 126177.13, 0.023611091, 0.08880655, -1141297.9, 181468.58, 0.0025744103, 10.000773, 9.999622 
1.8050672e+3, 1.7502318e+2, -1140723.0, -1191178.4, 81821.55, -0.007101908, -0.0056282096, -1080328.3, 144442.66, 0.00014305822, 10.0006, 9.999892 
1.8050753e+3, 1.8502243e+2, -1119162.4, -1219921.8, 21995.395, 0.010189731, -0.026245564, -1114570.3, 12206.343, 0.00000010953618, 10.000429, 9.999126 
1.8050821e+3, 1.9502164e+2, -1004213.75, -1094470.6, -2396.4114, -0.024348643, -0.06790678, -1004150.2, 24633.602, 0.0, 10.000484, 9.999272 
1.8050894e+3, 2.0502123e+2, -968175.94, -1076735.4, 43435.68, -0.044293523, -0.008864127, -952936.25, -22147.84, 0.0, 10.000247, 9.998863 
1.8050975e+3, 2.1502112e+2, -921528.1, -980597.3, 65245.34, -0.013872542, 0.04576581, -879443.94, -46652.93, 0.0, 9.999823, 9.999039 
1.8051043e+3, 2.2502029e+2, -815579.4, -909020.25, 38603.605, -0.03964201, 0.080398254, -801694.25, -66894.42, 0.0, 10.000013, 9.998756 
1.80511e+3, 2.3501875e+2, -568878.9, -721106.8, -1670.113, -0.1455754, 0.0009867409, -568860.56, 67954.23, 0.0, 10.000971, 9.998899 
1.8051177e+3, 2.4501707e+2, -432775.22, -637138.9, 78423.69, -0.13774441, -0.039975744, -406149.44, 132680.03, 0.0, 10.001323, 9.998674 
1.805128e+3, 2.5501502e+2, -379737.06, -547797.9, 59026.652, -0.00449323, -0.15098749, -361077.38, 79768.43, 0.0, 10.000976, 9.998773 
1.8051364e+3, 2.650137e+2, -302669.34, -553258.56, -21591.969, 0.06597839, -0.10887442, -300822.5, 42036.348, 0.00000007008213, 10.001227, 9.9979315 
1.8051423e+3, 2.7501303e+2, -57307.266, -373265.34, -35190.73, 0.020163821, -0.01650709, -53435.25, 191433.75, 0.000018211349, 10.002191, 9.998031 
1.8051493e+3, 2.8501162e+2, 26778.26, -266094.0, 29618.78, 0.011883474, 0.040441792, 29743.645, 176628.34, 0.00018396281, 10.002024, 9.998174 
1.8051577e+3, 2.9500946e+2, -30749.191, -228099.64, -24631.848, 0.083335415, -0.05102643, -27721.28, 21184.95, 0.0007176876, 10.000909, 9.998283 
1.8051633e+3, 3.050076e+2, -34347.47, -375246.44, -22428.977, -0.070380114, 0.02090453, -32878.117, -32878.117, 0.0016608936, 10.001286, 9.996769 
1.8051697e+3, 3.1500778e+2, 313178.63, -22308.67, 36515.4, -0.11613741, 0.3003803, 317107.06, 317107.06, 0.0028185374, 10.002792, 9.998475 
1.8150336e+3, 1.2501712e+2, -1703118.6, -1656015.8, 177822.44, -0.12445968, -0.06702582, -1500191.9, 214639.19, 0.10291468, 9.99981, 10.00056 
1.8150409e+3, 1.3501944e+2, -1604123.5, -1524726.8, -74975.69, 0.04951135, 0.05563364, -1479588.1, 137215.83, 0.06887483, 9.999702, 10.000788 
1.8150455e+3, 1.4501782e+2, -1626125.9, -1678719.9, -1588.6439, -0.013983749, -0.096022755, -1626077.9, -107259.09, 0.036753505, 9.999672, 9.999041 
1.8150522e+3, 1.5501717e+2, -1383665.0, -1474936.3, 61796.14, 0.005429278, -0.13044432, -1352480.1, 68347.29, 0.01378539, 10.000544, 9.999331 
1.8150589e+3, 1.6501696e+2, -1267396.4, -1412643.9, 102312.78, -0.09666693, -0.059518028, -1214552.5, 108277.984, 0.002842686, 10.000842, 9.998951 
1.815068e+3, 1.750169e+2, -1200298.6, -1312652.0, 86624.0, -0.013158045, -0.010943356, -1153230.3, 71601.13, 0.00016504708, 10.000582, 9.99907 
1.8150762e+3, 1.8501586e+2, -1143727.9, -1270900.6, 6665.8345, 0.02918083, -0.00040886147, -1143379.5, -16538.342, 0.00000012908751, 10.000429, 9.998777 
1.8150826e+3, 1.9501391e+2, -1034170.8, -1141324.4, 11245.163, -0.051971167, -0.12549087, -1033003.4, -4144.4053, 0.0, 10.000419, 9.998982 
1.8150891e+3, 2.0501332e+2, -926387.75, -952441.2, 13413.619, -0.12765259, -0.117553174, -920716.3, 10147.071, 0.0, 10.0000925, 9.999787 
1.8150961e+3, 2.1501392e+2, -888197.44, -863571.4, 62498.996, -0.14835408, -0.08348953, -812184.06, 20671.59, 0.0, 9.99962, 9.999938 
1.815104e+3, 2.2501364e+2, -904112.4, -1029752.7, 59887.367, -0.108437575, -0.0049633635, -880140.44, -145281.55, 0.0, 9.999741, 9.998061 
1.8151125e+3, 2.350124e+2, -652316.56, -840959.3, 48349.566, -0.005706498, 0.014971272, -640646.44, -3772.5444, 0.0, 10.000741, 9.998188 
1.8151206e+3, 2.4501045e+2, -492959.66, -695555.56, 54246.934, -0.011380229, -0.0010169179, -479348.94, 59543.492, 0.0, 10.001038, 9.998405 
1.8151283e+3, 2.5500786e+2, -423856.16, -586676.7, 63021.555, -0.09998191, -0.15399458, -402313.28, 38600.688, 0.0, 10.000754, 9.998604 
1.8151361e+3, 2.6500615e+2, -334560.44, -549395.0, 912.6971, -0.11866965, -0.15272498, -334556.56, 8373.253, 0.0000000874347, 10.000923, 9.998106 
1.8151438e+3, 2.750051e+2, -92402.164, -367970.72, 22237.713, -0.07244999, -0.12461616, -90619.164, 154323.6, 0.00001648955, 10.001871, 9.99821 
1.8151504e+3, 2.850039e+2, -80463.84, -412316.38, -29674.34, -0.11309984, -0.009922415, -77831.24, 69127.234, 0.00017264257, 10.001686, 9.997334 
1.8151562e+3, 2.9500267e+2, -117381.586, -351007.22, -40439.35, -0.19765729, 0.058135565, -110579.77, -61603.285, 0.00068283465, 10.000661, 9.997557 
1.8151636e+3, 3.050009e+2, -5572.0586, -227695.66, 17219.316, -0.20682465, 0.115490325, -4245.121, -4245.121, 0.0015899244, 10.000922, 9.9979515 
1.8151739e+3, 3.1499803e+2, 282863.2, 127719.15, 130859.49, -0.024793131, -0.041368164, 357414.88, 357414.88, 0.0027097075, 10.001957, 9.999867 
1.8250328e+3, 1.2500864e+2, -1941420.3, -1788331.0, 277032.03, -0.08205076, -0.09242446, -1577463.4, 137452.4, 0.10907774, 9.998224, 10.000378 
1.82504e+3, 1.3501337e+2, -1546923.1, -1417275.4, -101594.88, 0.005525871, 0.18986188, -1361585.1, 255282.11, 0.07313931, 9.9997015, 10.001592 
1.8250461e+3, 1.4501092e+2, -1505083.5, -1561111.9, -17661.598, 0.077856004, -0.11636086, -1499980.9, 18909.25, 0.039204508, 10.000285, 9.999541 
1.8250532e+3, 1.5501134e+2, -1347447.9, -1417670.6, -433.27313, 0.045607705, -0.079302736, -1347445.1, 73440.6, 0.014855209, 10.000644, 9.999668 
1.8250597e+3, 1.65011e+2, -1306506.8, -1485161.1, 41887.54, -0.0911078, -0.013114514, -1297173.4, 25716.346, 0.0031336718, 10.000795, 9.998473 
1.8250687e+3, 1.7501e+2, -1179707.8, -1351860.5, 20221.268, -0.011981578, -0.013797167, -1177364.5, 47536.633, 0.00019006866, 10.000938, 9.998629 
1.8250771e+3, 1.8500881e+2, -1086002.8, -1218493.9, -1333.3239, 0.062216125, -0.0054629263, -1085989.4, 40922.773, 0.00000015151502, 10.000722, 9.998997 
1.8250833e+3, 1.9500741e+2, -1029030.9, -1112379.8, 11150.997, -0.00028415298, -0.09677595, -1027564.8, 1358.4452, 0.0, 10.000364, 9.999203 
1.8250899e+3, 2.0500664e+2, -901531.4, -983949.5, 17467.523, -0.06920614, -0.09731227, -897982.2, 32946.813, 0.0, 10.000454, 9.99938 
1.8250968e+3, 2.1500632e+2, -707732.44, -819303.0, -56874.5, -0.114706926, -0.11980521, -683851.5, 149079.7, 0.0, 10.001053, 9.999533 
1.8251048e+3, 2.2500566e+2, -663700.1, -899039.4, -31915.178, -0.06523826, -0.06580173, -659448.8, 75488.66, 0.0, 10.001307, 9.998216 
1.825114e+3, 2.3500465e+2, -572008.56, -778958.3, -7593.964, 0.05247764, -0.039671224, -571730.25, 65217.87, 0.0, 10.00119, 9.998403 
1.8251222e+3, 2.4500301e+2, -487700.1, -712964.9, 41890.895, 0.042071868, -0.027441585, -480162.2, 58801.62, 0.0, 10.001168, 9.99821 
1.8251292e+3, 2.5500074e+2, -369160.56, -582621.56, 20002.945, -0.09115544, -0.12750112, -367302.3, 73682.35, 0.0, 10.001232, 9.998386 
1.825137e+3, 2.649991e+2, -297492.44, -511173.88, -3620.8547, -0.118972085, -0.122322544, -297431.1, 45569.816, 0.00000011582431, 10.001097, 9.998286 
1.825145e+3, 2.7499774e+2, -238193.5, -424864.63, -26012.299, -0.0656387, -0.13052532, -234636.52, 10378.794, 0.000015405387, 10.000797, 9.998349 
1.8251517e+3, 2.8499648e+2, -154811.25, -451667.06, -18629.129, -0.11018165, -0.024165485, -153646.75, -6615.8047, 0.00016033727, 10.001202, 9.997296 
1.825157e+3, 2.9499555e+2, 119089.625, -251905.72, -22588.518, -0.25477886, 0.0878208, 120459.89, 169506.19, 0.0006397898, 10.002341, 9.997435 
1.8251656e+3, 3.0499345e+2, 245058.89, -67102.44, 69915.125, -0.17261907, 0.09758174, 260002.48, 260002.48, 0.0015189088, 10.002458, 9.9983225 
1.825177e+3, 3.149894e+2, 234333.78, 112384.96, -7567.28, 0.14757657, -0.19845216, 234801.56, 234801.56, 0.0026480635, 10.001509, 10.000028 
1.8350326e+3, 1.2500158e+2, -2009908.9, -1964860.1, 184027.52, -0.016418846, -0.03558266, -1801983.6, -87003.23, 0.11569034, 9.9983425, 9.999043 
1.8350376e+3, 1.350053e+2, -1529834.9, -1395737.4, -47526.984, -0.23734641, 0.15884942, -1380601.4, 236347.42, 0.07769921, 9.999755, 10.001733 
1.8350479e+3, 1.4500299e+2, -1466855.4, -1500170.1, -26787.854, 0.17907582, -0.17501259, -1451968.3, 67005.18, 0.04181763, 10.000369, 9.999924 
1.8350549e+3, 1.5500641e+2, -1342558.6, -1413431.1, 24773.701, 0.12153105, 0.15473105, -1334757.6, 86182.016, 0.015997248, 10.000662, 9.99969 
1.8350609e+3, 1.6500594e+2, -1310497.1, -1511635.6, 27732.88, -0.10387558, 0.22171046, -1306743.4, 16201.342, 0.0034491862, 10.000871, 9.998257 
1.8350689e+3, 1.7500229e+2, -1182846.9, -1366353.9, 35235.207, -0.12438446, -0.029433703, -1176313.9, 48667.777, 0.00021871291, 10.00096, 9.998521 
1.835077e+3, 1.8500105e+2, -1037828.7, -1115865.0, -32348.207, -0.051077485, -0.060887545, -1026163.3, 100828.8, 0.00000018976193, 10.000715, 9.999701 
1.8350841e+3, 1.9500186e+2, -996970.75, -1027090.75, 8025.7666, 0.0051344926, 0.0048154644, -994965.7, 34013.527, 0.0, 10.000283, 9.999826 
1.8350911e+3, 2.0500094e+2, -1036665.2, -1230590.5, 24612.633, -0.014604031, 0.037934866, -1033590.1, -102602.41, 0.0, 10.000305, 9.997761 
1.8350987e+3, 2.1499823e+2, -849193.56, -1066762.5, -23954.574, -0.045325454, -0.05890678, -846587.4, -13569.476, 0.0, 10.000853, 9.99793 
1.8351065e+3, 2.2499642e+2, -635533.0, -773304.7, -46803.074, -0.06339447, -0.091992766, -621137.44, 113897.23, 0.0, 10.001017, 9.999222 
1.835114e+3, 2.3499537e+2, -533009.8, -644769.6, 4336.39, -0.08093703, -0.17248416, -532841.8, 104197.266, 0.0, 10.000963, 9.999437 
1.8351223e+3, 2.4499454e+2, -541253.7, -754470.94, 30347.32, -0.10457183, -0.12391228, -537018.44, 2027.4185, 0.0, 10.000864, 9.998076 
1.8351305e+3, 2.549938e+2, -424025.94, -630745.1, 40705.723, -0.10562143, -0.052860122, -416299.25, 24757.443, 0.0, 10.000956, 9.998191 
1.8351385e+3, 2.6499265e+2, -343281.78, -544676.1, -24857.836, -0.10507301, 0.019825965, -340259.0, 2811.0078, 0.000000090536304, 10.000825, 9.998189 
1.8351458e+3, 2.749909e+2, -266845.63, -436560.03, -13521.994, -0.10577558, -0.032491375, -265775.0, -20687.46, 0.00001528185, 10.000593, 9.9983635 
1.8351528e+3, 2.8498924e+2, -157681.55, -391729.78, 3833.5405, -0.16098541, -0.0013114488, -157618.78, -10514.591, 0.00015301339, 10.000913, 9.997848 
1.8351595e+3, 2.9498786e+2, 108205.52, -192531.78, 47273.08, -0.26225618, 0.01544802, 115461.34, 164579.55, 0.00060731446, 10.001997, 9.998002 
1.8351683e+3, 3.0498528e+2, 110565.59, -228194.14, 15446.086, -0.172273, -0.004242498, 111268.414, 111268.414, 0.0014671788, 10.001962, 9.997447 
1.8351771e+3, 3.1498218e+2, 50789.76, -116293.07, -13831.409, -0.055900108, -0.14538635, 51927.01, 51927.01, 0.0026243313, 10.00089, 9.998731 
1.845032e+3, 1.2499229e+2, -2106582.0, -2088459.4, 126636.08, 0.11887927, -0.16695398, -1970560.9, -255492.31, 0.12272786, 9.998033, 9.998351 
1.8450366e+3, 1.3499768e+2, -1616560.5, -1408464.9, -16516.105, -0.27447557, 0.18323065, -1407162.3, 209861.61, 0.08254445, 9.999022, 10.001987 
1.8450479e+3, 1.4499561e+2, -1525024.4, -1541590.6, -28133.316, 0.17458254, -0.13401514, -1503980.1, 15067.746, 0.04459436, 9.999984, 9.999837 
1.8450549e+3, 1.5499866e+2, -1412586.6, -1461274.0, -22477.525, 0.08862614, 0.16770138, -1403796.5, 17221.646, 0.017215712, 10.000226, 9.999576 
1.8450613e+3, 1.6499846e+2, -1377209.8, -1471504.9, 30783.398, -0.09138252, 0.23614411, -1368050.0, -45030.27, 0.0037916328, 10.00013, 9.998889 
1.8450695e+3, 1.7499544e+2, -1258658.1, -1330177.6, 62617.723, -0.10297459, -0.012984104, -1222308.6, 2740.4067, 0.00025177147, 10.0001545, 9.999155 
1.8450777e+3, 1.8499449e+2, -1117196.5, -1187329.3, 8972.769, -0.018493436, -0.031550173, -1116066.8, 10989.8545, 0.00000025167606, 10.000303, 9.99941 
1.845085e+3, 1.9499539e+2, -944401.5, -1036270.94, -45882.19, 0.05188987, 0.06898124, -925411.9, 103633.16, 0.0, 10.000775, 9.999526 
1.8450925e+3, 2.049943e+2, -966826.7, -1211422.0, 23558.53, 0.05121116, 0.10890841, -964578.25, -33522.324, 0.0, 10.000856, 9.997629 
1.8451e+3, 2.1499129e+2, -868231.1, -1090631.4, 53693.99, 0.0075003584, -0.003453744, -855946.4, -22857.348, 0.0, 10.000801, 9.997797 
1.8451078e+3, 2.2498937e+2, -661017.5, -784720.75, 70415.08, -0.007109513, -0.039845347, -629146.6, 105960.15, 0.0, 10.000843, 9.999218 
1.8451154e+3, 2.3498832e+2, -523991.97, -645183.0, 18926.89, -0.03252262, -0.11997508, -521104.88, 116006.66, 0.0, 10.001032, 9.999393 
1.8451235e+3, 2.4498756e+2, -490298.47, -697769.1, 46465.566, -0.0516466, -0.08022659, -480367.3, 58750.387, 0.0, 10.001093, 9.998341 
1.8451318e+3, 2.5498703e+2, -384210.56, -584619.4, 51805.344, -0.071420744, -0.012889279, -371611.1, 69515.13, 0.0, 10.001104, 9.998433 
1.8451397e+3, 2.64986e+2, -271451.28, -484541.97, 45412.793, -0.08199703, 0.05153321, -262176.8, 80960.164, 0.00000009817215, 10.001222, 9.9984045 
1.8451467e+3, 2.7498448e+2, -125688.87, -346435.8, 40970.668, -0.1026427, 0.003709758, -118330.016, 126820.88, 0.000013983738, 10.001482, 9.998546 
1.8451542e+3, 2.849826e+2, -73246.65, -345274.06, 90371.06, -0.1280113, 0.0037575446, -45961.07, 101207.39, 0.00014297603, 10.001459, 9.997912 
1.8451619e+3, 2.949807e+2, -5678.227, -235683.66, 44706.75, -0.1723982, -0.034239203, 2705.9207, 51892.676, 0.00057426473, 10.00115, 9.998126 
1.8451707e+3, 3.0497795e+2, 2645.5737, -275303.16, 54954.05, -0.07483207, -0.08360511, 13116.255, 13116.255, 0.0014121899, 10.00118, 9.997515 
1.8451782e+3, 3.1497592e+2, 155540.31, -70188.16, -38743.043, -0.07429116, -0.10402155, 162004.86, 162004.86, 0.002578712, 10.001591, 9.998724 
1.8550299e+3, 1.2498248e+2, -2089280.9, -2112304.0, -20997.576, 0.01951147, -0.32584938, -2076846.4, -361683.34, 0.13014582, 9.998242, 9.998109 
1.8550363e+3, 1.3499045e+2, -1605597.6, -1390006.9, 45533.45, -0.22818066, 0.2460403, -1380784.6, 236308.81, 0.08765755, 9.999023, 10.00214 
1.8550457e+3, 1.4498873e+2, -1543939.4, -1601554.6, -31104.336, -0.09453663, -0.013089717, -1530351.8, -11237.062, 0.04753598, 10.000067, 9.999389 
1.8550529e+3, 1.549881e+2, -1421869.9, -1493302.8, -4238.594, -0.1855361, -0.045210525, -1421619.3, -498.20648, 0.01851746, 10.000276, 9.999334 
1.8550606e+3, 1.6498858e+2, -1269996.9, -1264623.1, 8891.217, -0.21927083, 0.027262256, -1258021.6, 65093.293, 0.0041650403, 10.000196, 10.000278 
1.8550704e+3, 1.7498927e+2, -1171751.0, -1147210.4, 74601.875, -0.06620632, 0.021520656, -1083876.4, 141228.27, 0.00029041685, 10.000135, 10.000423 
1.8550788e+3, 1.8498896e+2, -1201505.0, -1361115.9, 8477.016, 0.016266387, 0.06591668, -1201056.0, -73948.43, 0.0000003514084, 10.0003, 9.9982195 
1.8550856e+3, 1.9498798e+2, -1038770.94, -1209964.4, -19374.94, 0.0162553, 0.09534493, -1036605.56, -7484.8525, 0.0, 10.000679, 9.998382 
1.855093e+3, 2.049868e+2, -906123.75, -1047652.4, 5515.5425, -0.018807022, 0.12461405, -905909.1, 25224.006, 0.0, 10.000693, 9.998833 
1.8551004e+3, 2.1498534e+2, -814201.06, -930764.5, 63842.684, -0.061685402, 0.045300644, -786038.3, 47107.777, 0.0, 10.000599, 9.998989 
1.8551086e+3, 2.2498427e+2, -760617.9, -933834.44, 64551.203, -0.03373929, 0.07883648, -739208.3, -4051.842, 0.0, 10.000586, 9.998323 
1.8551178e+3, 2.3498346e+2, -621755.9, -797953.4, 40930.72, 0.06463447, 0.115345694, -612711.9, 24454.098, 0.0, 10.000812, 9.998455 
1.8551259e+3, 2.4498217e+2, -497113.22, -644979.44, 34772.734, 0.036704574, 0.12557545, -489344.13, 49834.195, 0.0, 10.000804, 9.998841 
1.8551329e+3, 2.5498036e+2, -379815.6, -516461.53, 67958.24, -0.10435002, 0.005862898, -351772.84, 89421.195, 0.0, 10.00086, 9.999013 
1.8551402e+3, 2.6497912e+2, -281414.0, -438805.8, 38138.11, -0.18155238, -0.0031896075, -272659.56, 70543.5, 0.00000008466028, 10.000937, 9.998856 
1.8551476e+3, 2.7497834e+2, -137306.5, -304770.22, 70895.51, -0.18570013, -0.022103861, -111324.2, 133883.38, 0.000011476472, 10.001207, 9.9989605 
1.8551555e+3, 2.8497654e+2, -169595.14, -466142.7, 59658.81, -0.1780918, -0.000972386, -158043.13, -10818.212, 0.00012753508, 10.001116, 9.997251 
1.8551636e+3, 2.9497403e+2, -83636.4, -322188.0, 55562.652, -0.15053168, -0.048857283, -71329.81, -22077.178, 0.00053210376, 10.0008335, 9.997683 
1.855172e+3, 3.0497137e+2, -12451.477, -204635.06, 46467.65, -0.09255822, -0.107623726, -1805.8582, -1805.8582, 0.0013364267, 10.000746, 9.998206 
1.85518e+3, 3.149722e+2, 131934.92, 57566.914, -9696.864, -0.10495817, 0.094966836, 133178.52, 133178.52, 0.002472215, 10.000872, 9.999928 
1.8650287e+3, 1.2497495e+2, -1827021.6, -1968636.6, -104932.05, -0.0035824552, -0.16495244, -1771241.5, -55999.402, 0.1378835, 10.000017, 9.998206 
1.8650353e+3, 1.3498189e+2, -1518509.0, -1339872.5, -20284.563, -0.2618991, 0.2805535, -1337598.1, 279581.4, 0.09301642, 9.999661, 10.002205 
1.8650457e+3, 1.4497976e+2, -1656279.4, -1612812.0, -42613.43, -0.040272433, -0.03813535, -1586709.9, -67507.19, 0.050644647, 9.999133, 9.99975 
1.8650526e+3, 1.5497935e+2, -1515286.8, -1495839.3, -6143.726, -0.18313515, -0.09076758, -1494060.9, -72854.805, 0.01991141, 9.9994545, 9.999712 
1.8650605e+3, 1.6498022e+2, -1360315.1, -1293702.0, 4216.331, -0.19486283, -0.003392622, -1293436.3, 29759.475, 0.0045744055, 9.999499, 10.000408 
1.8650702e+3, 1.7498145e+2, -1255832.8, -1167852.8, -41818.18, -0.0506776, 0.023710435, -1151147.9, 74032.664, 0.0003360051, 9.999477, 10.000586 
1.865079e+3, 1.8498111e+2, -1251535.0, -1366621.1, -37720.785, 0.037105203, 0.047726024, -1240273.5, -113090.31, 0.00000050835786, 9.999878, 9.998385 
1.8650869e+3, 1.9497956e+2, -982035.8, -1164288.8, 3653.166, 0.04173399, 0.0051406915, -981962.6, 47238.117, 0.0, 10.000986, 9.998553 
1.8650942e+3, 2.0497859e+2, -816622.2, -990018.2, 28611.049, 0.01700473, 0.0360292, -812023.2, 119187.89, 0.0, 10.001243, 9.998964 
1.865101e+3, 2.1497788e+2, -774057.94, -899977.8, -18201.842, -0.055679295, 0.019160893, -771479.6, 61737.652, 0.0, 10.000806, 9.999105 
1.8651094e+3, 2.2497715e+2, -746100.8, -936144.0, 18216.393, -0.023761123, 0.08540506, -744370.44, -9144.4375, 0.0, 10.000736, 9.998238 
1.8651189e+3, 2.3497643e+2, -583138.25, -788092.0, 22981.707, 0.09255264, 0.14430028, -580592.9, 56644.242, 0.0, 10.001124, 9.998379 
1.8651271e+3, 2.4497525e+2, -428186.63, -580922.7, 47693.516, 0.07529758, 0.1567346, -414517.2, 124731.2, 0.0, 10.001138, 9.9991255 
1.8651336e+3, 2.549735e+2, -373395.8, -483898.72, 35551.43, -0.091436416, 0.019139789, -362946.22, 78314.49, 0.0, 10.000778, 9.999277 
1.8651412e+3, 2.649721e+2, -304058.3, -451403.9, 26405.592, -0.1455486, -0.023825314, -299469.13, 43801.79, 0.000000065173005, 10.000783, 9.998847 
1.8651496e+3, 2.749709e+2, -138751.45, -308087.4, -12963.657, -0.09729489, -0.07699824, -137764.77, 107515.086, 0.000009433609, 10.001199, 9.998949 
1.8651578e+3, 2.849695e+2, -107924.45, -390142.63, 12498.084, -0.058463562, -0.034335773, -107372.055, 39921.277, 0.00011541226, 10.001353, 9.997644 
1.8651654e+3, 2.94968e+2, 5027.677, -238121.28, 31218.05, -0.055234972, -0.014182976, 8971.805, 58283.03, 0.00049646525, 10.001272, 9.998038 
1.8651731e+3, 3.0496517e+2, 90531.875, -128417.016, 93642.69, -0.07081471, -0.12070575, 125118.555, 125118.555, 0.0012601638, 10.001323, 9.998445 
1.8651813e+3, 3.1496677e+2, 262520.5, 158908.25, -102174.414, -0.058193285, 0.13391693, 325272.16, 325272.16, 0.002330116, 10.00155, 10.000306 
1.8750274e+3, 1.2496849e+2, -1790804.4, -1914700.1, -155701.58, -0.20312111, 0.12985387, -1685179.9, 30137.48, 0.14588223, 10.000124, 9.998544 
1.875033e+3, 1.3497214e+2, -1526557.3, -1365928.8, -39719.09, -0.49573708, 0.27303278, -1356644.0, 260637.06, 0.0986057, 9.999695, 10.00201 
1.8750472e+3, 1.4496884e+2, -1567901.0, -1453048.9, -48399.914, 0.14809442, -0.21155474, -1435373.0, 83938.55, 0.053927336, 9.999213, 10.000837 
1.8750538e+3, 1.5497227e+2, -1441966.4, -1348249.6, 21217.547, -0.036038052, 0.019973123, -1343669.8, 77604.78, 0.021407956, 9.999462, 10.000735 
1.8750608e+3, 1.6497341e+2, -1417940.3, -1427424.8, -10666.641, -0.16747034, 0.13132566, -1411009.3, -87747.31, 0.0050250688, 9.999565, 9.999459 
1.8750687e+3, 1.7497198e+2, -1322854.9, -1306620.8, -30161.668, -0.18660684, -0.007649119, -1283503.0, -58227.113, 0.00038988978, 9.999467, 9.999646 
1.8750776e+3, 1.8497084e+2, -1145338.1, -1146848.5, -14918.256, -0.13132074, -0.09422043, -1131156.0, -3871.5134, 0.000000733184, 9.999884, 9.999892 
1.8750876e+3, 1.9497019e+2, -897933.25, -959266.06, 55206.063, 0.006404693, -0.19446547, -865447.94, 163837.53, 0.0, 10.000864, 10.000019 
1.8750955e+3, 2.049696e+2, -894359.9, -1124929.5, -5991.569, 0.011299072, -0.15343885, -894204.3, 37086.56, 0.0, 10.001116, 9.998106 
1.8751016e+3, 2.1496896e+2, -864883.6, -1043512.9, -23008.613, -0.10302102, -0.07367015, -861967.56, -28665.563, 0.0, 10.000609, 9.998218 
1.8751092e+3, 2.2496815e+2, -747769.44, -877026.9, 19218.412, -0.13476941, 0.0027516836, -744972.5, -9658.864, 0.0, 10.000459, 9.998781 
1.8751186e+3, 2.3496717e+2, -577574.1, -718510.4, 52279.918, -0.06602967, -0.025620677, -560298.6, 77027.086, 0.0, 10.000877, 9.99897 
1.875127e+3, 2.4496663e+2, -466040.78, -593371.7, 20206.166, -0.07788792, 0.016198328, -462911.2, 76418.83, 0.0, 10.000847, 9.9991865 
1.875134e+3, 2.5496638e+2, -403554.88, -489627.1, 38753.93, -0.16659778, 0.019189468, -388677.47, 52650.414, 0.0, 10.000541, 9.9993515 
1.8751425e+3, 2.6496488e+2, -381374.84, -555693.3, 27256.766, -0.13370936, -0.006433196, -377212.34, -33871.918, 0.00000004605578, 10.000526, 9.998262 
1.8751523e+3, 2.7496222e+2, -214986.6, -406016.22, 23664.346, 0.018392108, -0.14764977, -212098.77, 33267.863, 0.000008319171, 10.000935, 9.998408 
1.8751603e+3, 2.8496155e+2, -67990.25, -232915.05, -6238.3516, 0.037203845, -0.07138803, -67754.62, 79618.78, 0.00010877432, 10.00103, 9.998883 
1.875167e+3, 2.9496238e+2, 34206.277, -94937.98, 55131.76, -0.041167233, 0.058594007, 54540.4, 103906.09, 0.00047256332, 10.000926, 9.999187 
1.8751733e+3, 3.04959e+2, 11485.4375, -189950.23, 78362.37, -0.224337, -0.14633682, 38379.29, 38379.29, 0.0011935771, 10.000899, 9.99822 
1.8751837e+3, 3.149589e+2, 131626.53, 66633.99, -40829.824, -0.056364734, -0.04525138, 151313.42, 151313.42, 0.0021828366, 10.000825, 10.000003 
1.8850286e+3, 1.2496054e+2, -1685540.1, -1794669.5, -49588.633, -0.11900288, 0.1503163, -1666373.3, 49027.547, 0.15411249, 10.000532, 9.9991865 
1.8850328e+3, 1.3496429e+2, -1760701.8, -1504537.0, -3541.1335, -0.3807082, 0.31321105, -1504488.1, 112871.75, 0.10442951, 9.998142, 10.0017185 
1.8850456e+3, 1.449606e+2, -1757198.9, -1527973.5, 54561.29, 0.1401432, -0.19656016, -1515649.1, 3742.8235, 0.057399224, 9.997892, 10.000911 
1.8850537e+3, 1.5496436e+2, -1478668.1, -1329251.3, 32930.78, 0.023246232, 0.04077528, -1322315.5, 99035.9, 0.023018045, 9.999104, 10.001012 
1.8850613e+3, 1.6496545e+2, -1415903.1, -1464855.8, 7382.7524, -0.081964485, 0.14953366, -1414814.0, -91474.54, 0.005521801, 9.999728, 9.999129 
1.885069e+3, 1.7496355e+2, -1237770.8, -1302849.5, 9556.256, -0.13498902, -0.0071918173, -1236396.5, -11036.986, 0.0004532519, 10.000193, 9.999332 
1.8850778e+3, 1.8496251e+2, -1111712.5, -1098089.3, 34859.746, -0.09726311, -0.082113475, -1069381.9, 57985.742, 0.0000010252129, 9.99998, 10.00017 
1.8850876e+3, 1.9496232e+2, -1083519.5, -1013961.9, -2252.7803, 0.0040515354, -0.16708183, -1013889.0, 15474.872, 0.0, 9.999437, 10.000318 
1.8850958e+3, 2.0496203e+2, -1091084.8, -1175812.3, -34968.973, 0.013090651, -0.13341005, -1078516.6, -147151.08, 0.0, 9.999584, 9.998492 
1.8851022e+3, 2.1496147e+2, -833934.8, -983639.56, 10679.255, -0.08302957, -0.083222955, -833176.9, 197.18826, 0.0, 10.000624, 9.998624 
1.8851103e+3, 2.2496068e+2, -686797.8, -851927.94, 94119.93, -0.08957576, -0.024328724, -644160.8, 91224.125, 0.0, 10.000912, 9.998723 
1.8851197e+3, 2.3495954e+2, -631999.94, -755394.9, 53173.82, -0.028852427, -0.05534598, -612247.9, 25151.2, 0.0, 10.000555, 9.99887 
1.8851282e+3, 2.4495886e+2, -478187.2, -609920.44, 27498.455, -0.033505306, -0.016928257, -472677.5, 66728.086, 0.0, 10.000819, 9.999082 
1.8851355e+3, 2.5495842e+2, -237175.86, -429220.4, -6660.269, -0.12506585, -0.015219423, -236945.16, 204460.69, 0.0, 10.00176, 9.999186 
1.8851441e+3, 2.6495716e+2, -191804.08, -442814.13, 8691.61, -0.07696356, -0.019501185, -191503.48, 151913.16, 0.000000017635879, 10.001764, 9.998425 
1.8851535e+3, 2.7495518e+2, -202696.23, -374441.66, 23674.703, 0.0737128, -0.10957912, -199492.48, 45943.676, 0.000007223604, 10.000942, 9.998599 
1.885162e+3, 2.8495464e+2, -126346.62, -284801.6, 24254.05, 0.11293712, -0.016662152, -122717.28, 24724.82, 0.00010058898, 10.00076, 9.998645 
1.8851696e+3, 2.9495493e+2, 78769.66, -108323.57, -65775.99, 0.087107204, 0.08302258, 99579.73, 149020.73, 0.0004433926, 10.001381, 9.998875 
1.8851748e+3, 3.0495152e+2, 213420.47, -58014.21, -33750.63, -0.21146438, -0.12333997, 217554.13, 217554.13, 0.0011175724, 10.002086, 9.998592 
1.8851855e+3, 3.149508e+2, 345025.06, 145988.8, -192958.9, -0.007727314, -0.118913196, 462617.5, 462617.5, 0.0020292015, 10.002373, 9.999825 
1.8950285e+3, 1.2495243e+2, -1624363.8, -1708068.4, -103316.58, -0.2640056, 0.011199761, -1554744.4, 160735.13, 0.16258536, 10.000754, 9.999759 
1.8950343e+3, 1.3495868e+2, -1783690.6, -1550089.9, -54497.594, -0.084329806, 0.43354648, -1538001.4, 79411.17, 0.110513955, 9.99814, 10.001395 
1.8950404e+3, 1.4495493e+2, -1810800.8, -1642544.9, 89158.7, -0.23186031, -0.00848912, -1604089.1, -84643.95, 0.06108175, 9.99792, 10.000105 
1.8950516e+3, 1.5495548e+2, -1521701.0, -1414974.4, 89393.43, -0.12906925, -0.03266843, -1364228.0, 57209.543, 0.024752133, 9.999098, 10.00042 
1.8950613e+3, 1.649562e+2, -1369954.4, -1397171.3, 7893.512, -0.1059791, 0.047721602, -1367830.9, -44401.035, 0.0060684755, 9.99984, 9.999541 
1.8950707e+3, 1.7495604e+2, -1212339.0, -1247298.3, 35966.277, -0.019994995, 0.025662998, -1189829.8, 35602.418, 0.0005270964, 10.000179, 9.999721 
1.8950792e+3, 1.8495592e+2, -1162596.3, -1209168.6, -808.01526, -0.005527157, 0.06334784, -1162582.3, -35147.555, 0.0000013718216, 10.000011, 9.999387 
1.8950865e+3, 1.9495617e+2, -1151959.5, -1134278.0, -14118.095, -0.09778809, 0.0965549, -1126461.1, -97026.68, 0.0, 9.999354, 9.999527 
1.8950942e+3, 2.0495602e+2, -1000836.06, -964363.7, -8793.133, -0.14160188, 0.11076688, -962354.44, -30920.938, 0.0, 9.999467, 10.000007 
1.8951029e+3, 2.1495537e+2, -753021.1, -772706.44, 63343.22, -0.109548196, -0.00454062, -698760.44, 134673.1, 0.0, 10.000432, 10.000168 
1.895112e+3, 2.2495452e+2, -777633.6, -973667.56, 64652.73, -0.035939395, 0.006102643, -758231.25, -22789.64, 0.0, 10.000626, 9.998023 
1.8951213e+3, 2.3495355e+2, -714541.5, -872755.7, 56733.453, 0.062133063, 0.05598049, -696300.7, -58843.395, 0.0, 10.000327, 9.998169 
1.89513e+3, 2.44952e+2, -549821.5, -700900.44, 47757.08, 0.039311845, 0.06884297, -535991.2, 3483.1777, 0.0, 10.000555, 9.998591 
1.8951379e+3, 2.5494972e+2, -306562.4, -512939.6, 44363.492, -0.0881564, -0.07125122, -297430.03, 144064.33, 0.0, 10.001502, 9.998733 
1.8951458e+3, 2.649488e+2, -176686.81, -345145.66, -36487.293, -0.114027485, -0.055301286, -169123.44, 174377.52, 0.0000000071100716, 10.001477, 9.999234 
1.8951534e+3, 2.7494943e+2, -184181.48, -269092.88, 9525.793, -0.06255497, 0.028958969, -183125.95, 62366.094, 0.0000064443307, 10.000668, 9.999451 
1.8951619e+3, 2.849486e+2, -288533.44, -552355.3, 25876.582, -0.0053070183, 0.1291655, -286019.34, -138517.36, 0.0000894982, 10.000453, 9.996959 
1.8951719e+3, 2.949455e+2, -103759.836, -405837.7, -11357.68, 0.15375072, 0.06122031, -103333.41, -53794.902, 0.00040206578, 10.001024, 9.997008 
1.8951765e+3, 3.0494264e+2, 198353.42, 24698.81, -31553.822, -0.28036657, -0.02903925, 203909.14, 203909.14, 0.0010247865, 10.001627, 9.999365 
1.8951866e+3, 3.1494245e+2, 183676.3, 15868.748, -70700.2, -0.1996835, -0.06750814, 209491.98, 209491.98, 0.001871482, 10.001573, 9.999279 
1.9050269e+3, 1.24945246e+2, -1782234.9, -1642930.4, 89377.586, -0.41187927, -0.057475343, -1599269.9, 116274.9, 0.1713416, 9.998955, 10.001091 
1.9050366e+3, 1.3494974e+2, -1544771.8, -1560930.8, -125635.766, 0.21530256, 0.27020052, -1426956.0, 190539.33, 0.11689223, 10.000482, 10.000176 
1.9050382e+3, 1.4494683e+2, -1514213.8, -1581066.3, 43669.637, -0.33690146, 0.021961123, -1492646.0, 26875.34, 0.06499328, 10.000267, 9.999424 
1.9050507e+3, 1.5494658e+2, -1458386.6, -1417193.1, 34859.613, -0.14836389, -0.051550813, -1397300.1, 24223.844, 0.026617203, 9.9996195, 10.000176 
1.9050612e+3, 1.6494739e+2, -1443613.4, -1371035.6, 4952.1006, -0.044287533, 0.023757458, -1370699.3, -47183.688, 0.0066676727, 9.999086, 10.000082 
1.905071e+3, 1.7494771e+2, -1312259.1, -1230717.5, 15875.814, 0.05712615, -0.004386883, -1227735.6, -2224.0974, 0.0006122247, 9.999235, 10.000277 
1.9050795e+3, 1.8494794e+2, -1223616.3, -1262372.3, 27761.371, 0.04993372, 0.04969416, -1209138.6, -81627.336, 0.0000017786746, 9.999703, 9.999176 
1.9050862e+3, 1.9494858e+2, -954802.5, -1065948.1, 26942.424, -0.121354185, 0.15292284, -948615.8, 80894.195, 0.0, 10.000824, 9.999304 
1.9050942e+3, 2.0494854e+2, -771481.1, -810800.75, 29992.67, -0.14719805, 0.17308155, -755279.1, 176229.47, 0.0, 10.000883, 10.000361 
1.9051039e+3, 2.1494757e+2, -777285.5, -745417.3, -18414.4, -0.026404357, -0.009406548, -737000.1, 96509.31, 0.0, 10.000114, 10.000497 
1.9051133e+3, 2.249467e+2, -807006.2, -965506.1, 13115.005, 0.05131467, -0.029700276, -805928.4, -70412.24, 0.0, 10.000302, 9.998244 
1.9051223e+3, 2.3494595e+2, -523124.1, -763909.5, 44842.53, 0.05631209, 0.023837013, -515044.03, 122484.195, 0.0, 10.001533, 9.998351 
1.905131e+3, 2.4494472e+2, -394324.16, -632658.06, 97260.03, 0.038395695, 0.062030073, -359672.16, 179870.64, 0.0, 10.001682, 9.998499 
1.9051398e+3, 2.5494266e+2, -394216.88, -561687.8, 87563.83, -0.007477973, -0.046477474, -356795.22, 84767.62, 0.0, 10.00094, 9.998657 
1.9051477e+3, 2.649416e+2, -274322.88, -412419.78, 12188.404, -0.029989766, -0.033734165, -273255.38, 70316.51, 0.000000016068412, 10.000874, 9.999069 
1.9051543e+3, 2.7494174e+2, -61652.223, -239174.44, -51624.79, -0.07448727, 0.02426876, -47731.035, 197836.52, 0.000006020835, 10.001579, 9.999239 
1.9051631e+3, 2.8494042e+2, -44205.32, -430374.22, 45315.434, -0.005602516, 0.082224816, -38959.004, 108622.54, 0.00007835106, 10.002089, 9.99702 
1.9051744e+3, 2.94937e+2, 125940.164, -280090.63, 90608.67, 0.24331589, -0.022029215, 145242.52, 194862.0, 0.00035541714, 10.002539, 9.997138 
1.905179e+3, 3.0493543e+2, 286538.34, 38668.957, 115192.57, -0.20598288, 0.020657895, 331805.1, 331805.1, 0.0009238466, 10.002365, 9.999109 
1.9051892e+3, 3.1493402e+2, 111238.51, -121755.92, -56477.234, -0.085484006, -0.09998886, 124206.66, 124206.66, 0.0017193621, 10.001424, 9.998454 
1.9150245e+3, 1.2493894e+2, -1677109.8, -1410919.3, 330026.13, -0.6147607, -0.0659353, -1188161.1, 527435.8, 0.18042894, 9.998944, 10.003089 
1.9150391e+3, 1.34937e+2, -1685361.1, -1869765.8, -102678.85, 0.3928333, -0.20863998, -1639562.8, -21949.969, 0.12358676, 10.000492, 9.997967 
1.915039e+3, 1.4493595e+2, -1516185.3, -1626072.5, -3828.5017, -0.3549433, -0.115162656, -1516052.0, 3571.4915, 0.069141634, 10.00043, 9.999037 
1.9150503e+3, 1.5493765e+2, -1441063.9, -1382744.9, 18119.52, -0.17877448, -0.00891531, -1377573.8, 44036.836, 0.028615344, 9.999627, 10.000412 
1.9150607e+3, 1.649392e+2, -1381875.6, -1267764.0, -8334.538, -0.060411137, 0.08835542, -1267158.5, 56436.918, 0.0073205116, 9.999188, 10.000741 
1.9150697e+3, 1.7493868e+2, -1274839.3, -1147518.5, 29850.492, -0.030801587, -0.0836341, -1140867.5, 84728.89, 0.00070924795, 9.999216, 10.000852 
1.9150783e+3, 1.8493864e+2, -1198136.9, -1221806.4, 50262.035, -0.079916984, -0.09568439, -1158335.1, -30738.559, 0.0000023137907, 9.999745, 9.999441 
1.9150867e+3, 1.949397e+2, -949286.94, -1027954.7, 79089.9, -0.18401279, 0.01841107, -900289.8, 129300.48, 0.0, 10.0007105, 9.9996195 
1.9150954e+3, 2.0493957e+2, -856927.75, -954686.75, -13255.523, -0.15454268, 0.059035316, -855162.25, 76429.07, 0.0, 10.0007305, 9.999448 
1.9151048e+3, 2.1493804e+2, -867525.25, -888498.06, -36942.605, 0.035680458, -0.09122707, -839609.56, -6007.444, 0.0, 9.999919, 9.999605 
1.9151136e+3, 2.2493719e+2, -770230.5, -823882.94, 47373.96, 0.035676565, -0.122367285, -742614.6, -7006.255, 0.0, 10.000018, 9.999357 
1.9151218e+3, 2.34937e+2, -486763.28, -618932.4, 105398.13, -0.1530666, -0.12381495, -428445.53, 209164.4, 0.0, 10.001248, 9.99948 
1.9151308e+3, 2.4493699e+2, -425660.03, -627400.5, 54817.63, -0.18192515, -0.026691085, -411727.06, 127884.21, 0.0, 10.001371, 9.998689 
1.9151407e+3, 2.5493708e+2, -414001.63, -545828.7, 74430.75, -0.025274685, 0.059469245, -380494.16, 61118.867, 0.0, 10.000698, 9.99888 
1.9151492e+3, 2.6493558e+2, -395314.06, -600941.25, 19079.375, 0.004452774, 0.073195614, -393558.75, -49929.582, 0.000000038925435, 10.000596, 9.997914 
1.9151558e+3, 2.7493232e+2, -184406.81, -429180.03, -8442.459, -0.11477089, -0.09642961, -184115.97, 61545.12, 0.0000054500297, 10.001308, 9.998061 
1.9151647e+3, 2.8493023e+2, 20876.477, -221746.78, 42708.047, -0.07589652, -0.13029641, 28174.678, 175854.67, 0.00006657065, 10.001773, 9.998607 
1.9151768e+3, 2.9492927e+2, 179961.47, -74807.78, 128274.93, 0.18787025, -0.15629181, 233356.53, 283043.28, 0.0003045757, 10.002148, 9.998735 
1.9151819e+3, 3.0492985e+2, 132934.9, -185517.98, 54195.777, -0.19920215, 0.088443525, 141905.5, 141905.5, 0.0008128925, 10.001955, 9.997758 
1.9151896e+3, 3.149273e+2, -69337.266, -297280.34, 8375.836, -0.22015394, -0.0330466, -69029.914, -69029.914, 0.0015555569, 10.00063, 9.997594 
1.9250256e+3, 1.2493316e+2, -1617652.4, -1362769.0, 252801.63, -0.40015566, 0.11300481, -1207102.8, 508546.5, 0.18987963, 9.999174, 10.003379 
1.925039e+3, 1.3492754e+2, -1644112.3, -1881936.5, -72024.266, 0.32760307, -0.37830615, -1624000.6, -6297.3286, 0.13060497, 10.000883, 9.997712 
1.9250408e+3, 1.4492896e+2, -1466754.3, -1601306.5, 102304.625, -0.21860361, -0.02222165, -1411587.3, 108102.88, 0.07352615, 10.000841, 9.999007 
1.9250508e+3, 1.5492937e+2, -1339029.4, -1328507.9, 82306.78, -0.11333886, -0.05022641, -1251293.9, 170394.56, 0.030745408, 10.000337, 10.000444 
1.9250606e+3, 1.6493002e+2, -1267573.4, -1237238.1, 70691.71, -0.023561742, -0.032065492, -1180105.1, 143576.83, 0.008026891, 10.00009, 10.000513 
1.9250694e+3, 1.7493014e+2, -1110649.9, -1097888.4, 21138.803, -0.031191573, -0.1161511, -1082188.3, 143489.94, 0.0008187495, 10.000466, 10.000596 
1.9250782e+3, 1.8493041e+2, -1111086.5, -1149578.4, 45828.6, -0.06856633, -0.10083357, -1080626.6, 47048.492, 0.0000031359323, 10.000182, 9.999734 
1.925087e+3, 1.9493097e+2, -1082039.3, -1057960.5, 49743.266, -0.1620163, -0.071371995, -1018820.4, 10851.094, 0.0, 9.999613, 9.999946 
1.925096e+3, 2.0493072e+2, -1041994.9, -1094680.8, -5718.308, -0.10550979, -0.043202683, -1041381.4, -109707.1, 0.0, 9.999676, 9.999001 
1.9251058e+3, 2.1492952e+2, -792970.6, -904642.06, -22258.504, 0.093715325, -0.1114832, -788697.56, 44987.3, 0.0, 10.000655, 9.9991455 
1.9251147e+3, 2.2492868e+2, -656416.4, -730982.5, 78674.445, 0.105112, -0.1304162, -606638.0, 129053.05, 0.0, 10.00067, 9.999667 
1.9251227e+3, 2.3492807e+2, -675446.4, -672141.1, 43798.34, -0.1037929, -0.20482297, -629964.25, 7729.8896, 0.0, 9.999808, 9.999803 
1.9251317e+3, 2.4492818e+2, -615974.7, -699843.5, -5125.411, -0.14131998, -0.12379095, -615662.6, -75969.22, 0.0, 9.999953, 9.998886 
1.9251417e+3, 2.549291e+2, -325046.16, -490750.03, -13890.379, -0.019493666, 0.029515384, -323889.84, 117798.07, 0.0, 10.001224, 9.999027 
1.9251506e+3, 2.6492786e+2, -248902.61, -561654.56, -8883.121, 0.03488221, 0.07640103, -248650.5, 95052.375, 0.000000047147957, 10.001749, 9.997622 
1.925158e+3, 2.749241e+2, -165497.47, -452673.72, -11632.09, -0.024337415, -0.11108862, -165027.1, 80714.49, 0.0000044268, 10.001582, 9.997767 
1.925167e+3, 2.84922e+2, -17663.914, -205564.53, 53255.992, -0.005346084, -0.14850251, -3619.4949, 144141.75, 0.000054025306, 10.001379, 9.998894 
1.9251777e+3, 2.9492173e+2, 84276.34, -100739.57, 402.91858, 0.123008914, -0.12513883, 84277.22, 134037.22, 0.0002523606, 10.001381, 9.99893 
1.9251838e+3, 3.0492142e+2, 90677.63, -206563.94, -38702.043, -0.17244582, 0.024563946, 95634.14, 95634.14, 0.0006949562, 10.0016575, 9.997757 
1.9251925e+3, 3.149204e+2, 190937.33, -108373.836, -55031.49, -0.04763134, 0.06307849, 200734.73, 200734.73, 0.0013694268, 10.002066, 9.998232 
1.9350275e+3, 1.24923505e+2, -1692422.1, -1540189.5, -137994.61, -0.20007116, 0.056278378, -1458710.8, 257033.86, 0.1997211, 9.999283, 10.001847 
1.9350351e+3, 1.3492098e+2, -1537830.5, -1625361.8, -26995.16, -0.18107888, -0.26757872, -1530174.6, 87595.75, 0.13795441, 10.000846, 9.999496 
1.9350432e+3, 1.4492622e+2, -1426398.8, -1543562.3, 63201.39, -0.11905818, 0.3385501, -1398804.9, 120912.74, 0.07814733, 10.000959, 9.999349 
1.9350518e+3, 1.5492177e+2, -1348688.3, -1360737.5, 74018.82, -0.07494999, -0.16049854, -1280449.4, 141307.8, 0.033007, 10.00038, 10.000203 
1.9350605e+3, 1.6491973e+2, -1325738.6, -1381718.3, 67022.92, -0.099828884, -0.34212983, -1281095.9, 42680.96, 0.008786739, 10.000185, 9.999477 
1.93507e+3, 1.7492203e+2, -1179253.8, -1242591.1, 44749.363, -0.065937385, -0.10801952, -1156100.8, 69657.414, 0.00094156526, 10.000471, 9.999605 
1.9350788e+3, 1.8492323e+2, -1076706.8, -1086472.1, 8976.456, -0.08531745, 0.027282618, -1071370.9, 56376.605, 0.0000044945964, 10.000217, 10.00015 
1.9350867e+3, 1.9492258e+2, -1069718.8, -1014139.44, 39825.445, -0.18098457, -0.10221937, -993366.44, 36385.67, 0.0, 9.999529, 10.000291 
1.9350956e+3, 2.049221e+2, -1064277.6, -1108545.0, 14543.916, -0.15581517, -0.11207736, -1059926.9, -128170.63, 0.0, 9.999535, 9.998974 
1.9351058e+3, 2.1492198e+2, -831600.25, -928579.4, 26252.598, 0.026524903, -0.06625096, -824949.7, 8807.963, 0.0, 10.000421, 9.999091 
1.9351155e+3, 2.2492102e+2, -739893.2, -830446.1, 33338.758, 0.09884536, -0.06848993, -728943.06, 6822.7227, 0.0, 10.000354, 9.999136 
1.9351244e+3, 2.3491907e+2, -743504.56, -763700.25, 26448.834, 0.05787049, -0.2243289, -725291.5, -87509.53, 0.0, 9.999596, 9.999274 
1.9351333e+3, 2.4491829e+2, -643312.3, -694932.5, 26966.22, -0.017303856, -0.21175879, -631794.94, -92005.93, 0.0, 9.999684, 9.999054 
1.9351423e+3, 2.5491872e+2, -348517.25, -481008.03, 48298.88, -0.110629074, -0.12686957, -332779.5, 109007.5, 0.0, 10.00098, 9.99921 
1.9351515e+3, 2.649183e+2, -269471.2, -523685.44, -31263.719, -0.081962645, -0.026205253, -265682.78, 78111.06, 0.00000001782158, 10.001412, 9.99804 
1.9351606e+3, 2.749169e+2, -180971.45, -406252.47, -3050.3237, 0.055073455, -0.022295937, -180930.17, 64880.8, 0.0000033385966, 10.001271, 9.998222 
1.935169e+3, 2.849157e+2, -132918.05, -382332.1, 27029.754, 0.024060566, 0.055903133, -130022.37, 17802.83, 0.00004416703, 10.001097, 9.997823 
1.9351768e+3, 2.949144e+2, -31096.652, -262215.84, 20936.563, -0.13006315, 0.079930544, -29215.371, 20623.264, 0.00021030588, 10.001059, 9.997971 
1.9351844e+3, 3.049106e+2, 98220.016, -97210.66, -43898.348, -0.32179007, -0.120613106, 107627.75, 107627.75, 0.0005915191, 10.001254, 9.998704 
1.9351953e+3, 3.1491134e+2, 203014.4, 113814.32, 30324.734, -0.034170557, -0.0072094696, 212347.22, 212347.22, 0.0011872258, 10.00129, 10.000099 
1.9450288e+3, 1.2491507e+2, -1749675.9, -1728909.8, -154146.22, -0.0076066777, -0.028944498, -1584797.4, 131030.1, 0.20999403, 9.999696, 10.000157 
1.9450335e+3, 1.3491353e+2, -1645836.3, -1623791.9, 18217.44, -0.3585589, -0.28060845, -1613521.8, 4322.558, 0.14565058, 9.999732, 10.000059 
1.9450453e+3, 1.449198e+2, -1428241.6, -1554234.0, 43611.547, 0.003631135, 0.38713562, -1414618.6, 105162.97, 0.083007626, 10.000961, 9.99929 
1.9450532e+3, 1.5491469e+2, -1262093.0, -1372186.5, -10086.189, -0.0096316915, -0.13409984, -1261176.6, 160651.1, 0.03539992, 10.001216, 9.99973 
1.9450605e+3, 1.6491213e+2, -1309821.6, -1396655.8, 25468.156, -0.106043436, -0.33380333, -1302903.1, 20949.824, 0.009600047, 10.000392, 9.999277 
1.9450693e+3, 1.7491476e+2, -1344474.0, -1339958.6, 40818.793, -0.123589225, -0.049168915, -1301335.1, -75503.016, 0.0010784023, 9.9994135, 9.999446 
1.9450784e+3, 1.8491599e+2, -1210691.0, -1154797.0, 60852.633, -0.09043748, 0.09780218, -1115780.8, 12040.436, 0.0000066792873, 9.999341, 10.000095 
1.9450875e+3, 1.9491477e+2, -944245.2, -958249.75, 31335.393, -0.095380984, -0.07842684, -919139.25, 110690.66, 0.0, 10.000451, 10.000219 
1.9450966e+3, 2.0491414e+2, -851545.8, -982705.1, 32802.62, -0.06919757, -0.108594544, -843799.5, 88034.92, 0.0, 10.000904, 9.999178 
1.9451061e+3, 2.1491419e+2, -748782.4, -866572.25, 35902.35, -0.0021235838, -0.06322399, -738702.0, 95131.37, 0.0, 10.000895, 9.999291 
1.9451159e+3, 2.2491327e+2, -646697.9, -825866.9, 67585.3, 0.084475115, -0.05504189, -624063.1, 111778.0, 0.0, 10.00115, 9.998784 
1.9451259e+3, 2.3491114e+2, -451986.2, -666675.06, 47419.766, 0.16566052, -0.19019459, -441978.75, 195881.0, 0.0, 10.001766, 9.998904 
1.9451351e+3, 2.4490997e+2, -369198.34, -568277.06, 86456.38, 0.11715369, -0.19494332, -336893.9, 202976.75, 0.0, 10.001629, 9.998973 
1.9451433e+3, 2.5490966e+2, -371842.75, -507533.34, 52887.613, -0.08217868, -0.17055388, -353664.3, 88210.47, 0.0, 10.000894, 9.999064 
1.9451524e+3, 2.6490903e+2, -346090.03, -561718.2, -22814.795, -0.08284379, -0.08599049, -343702.5, 181.21246, 0.000000002142629, 10.000863, 9.9980545 
1.9451624e+3, 2.7490816e+2, -130656.664, -390936.1, -56533.492, 0.08670613, -0.027698006, -118907.76, 126988.625, 0.0000030022966, 10.001608, 9.998192 
1.9451709e+3, 2.849071e+2, -65633.0, -372501.28, 592.9797, 0.083277486, 0.08407594, -65631.85, 82277.67, 0.00003904193, 10.001649, 9.997633 
1.9451782e+3, 2.9490587e+2, -43886.836, -284855.78, 9541.547, -0.090570234, 0.1339084, -43509.613, 6413.951, 0.00018459432, 10.001018, 9.997849 
1.9451866e+3, 3.0490083e+2, 96322.445, -90215.125, 22086.951, -0.21401663, -0.1948218, 98901.98, 98901.98, 0.00051477127, 10.001234, 9.998747 
1.9451974e+3, 3.1490207e+2, 399201.66, 225491.08, -59107.04, 0.006288393, -0.007162409, 417405.8, 417405.8, 0.0010271312, 10.002504, 10.000314 
1.9550303e+3, 1.249106e+2, -1812931.6, -1961410.5, -68081.28, 0.07699823, 0.12003445, -1786440.9, -70570.22, 0.22070916, 9.999992, 9.998326 
1.955034e+3, 1.3490535e+2, -1672247.1, -1701803.0, 84809.414, -0.3287649, -0.40610933, -1600937.8, 16985.232, 0.15369554, 9.999823, 9.999495 
1.9550467e+3, 1.449097e+2, -1438851.6, -1609959.5, 57968.867, -0.01929952, 0.1112779, -1421062.1, 98819.94, 0.08810495, 10.001113, 9.998832 
1.9550543e+3, 1.5490805e+2, -1311588.9, -1480904.3, 6540.7666, -0.05389975, 0.010260524, -1311336.6, 110563.92, 0.037922986, 10.001232, 9.998966 
1.9550604e+3, 1.649072e+2, -1252868.5, -1302242.0, -34491.145, -0.22026455, -0.011384988, -1235139.8, 88770.74, 0.010466628, 10.000495, 9.999879 
1.9550669e+3, 1.7490835e+2, -1298095.8, -1253426.1, 15504.342, -0.3205923, 0.065906405, -1248572.1, -22672.352, 0.0012294218, 9.999448, 10.000025 
1.9550766e+3, 1.8490861e+2, -1238916.6, -1227383.1, 90177.98, -0.23992741, 0.11476487, -1142787.8, -14891.027, 0.000009908067, 9.999407, 9.99956 
1.9550887e+3, 1.9490746e+2, -995608.7, -1044137.6, 83161.805, -0.03230746, -0.000121971156, -933243.8, 96662.08, 0.0, 10.000367, 9.999667 
1.9550984e+3, 2.0490657e+2, -848950.2, -938902.2, 18009.832, -0.0036400824, -0.046886902, -845478.3, 86433.42, 0.0, 10.000733, 9.999562 
1.9551061e+3, 2.1490608e+2, -747819.06, -816577.06, 47901.875, -0.121722855, -0.09961276, -723236.2, 110676.59, 0.0, 10.000693, 9.999727 
1.9551158e+3, 2.2490537e+2, -697700.6, -871174.94, 79179.336, -0.092969865, -0.085497044, -666995.44, 68922.234, 0.0, 10.00088, 9.998609 
1.9551273e+3, 2.3490424e+2, -500705.84, -708142.06, 83445.21, 0.09434441, -0.103705704, -471305.38, 166622.83, 0.0, 10.001519, 9.998733 
1.9551368e+3, 2.449031e+2, -451873.56, -664042.5, 45903.88, 0.09418952, -0.07288262, -442367.9, 97571.52, 0.0, 10.001302, 9.998471 
1.9551446e+3, 2.549018e+2, -439509.34, -591450.6, 41270.758, -0.07281103, -0.10259175, -429022.97, 12929.71, 0.0, 10.00066, 9.99859 
1.9551532e+3, 2.6490018e+2, -414764.06, -643755.44, -11766.113, -0.12931678, -0.074111044, -414161.1, -70190.26, 0.00000003752054, 10.000594, 9.997626 
1.9551627e+3, 2.7489802e+2, -194594.25, -466980.56, -11446.882, -0.06282036, -0.10602033, -194114.05, 51881.93, 0.0000033251551, 10.001371, 9.99778 
1.955172e+3, 2.8489664e+2, -88604.9, -334323.2, -40962.375, -0.0058720387, -0.028155178, -81956.19, 66054.914, 0.000036409245, 10.001285, 9.998068 
1.9551812e+3, 2.9489648e+2, -52034.543, -218946.8, 9913.842, 0.06760664, 0.07942603, -51447.77, -1435.703, 0.00016708692, 10.00068, 9.998455 
1.9551896e+3, 3.0489218e+2, -28303.678, -266614.22, 40753.746, -0.077722274, -0.16247489, -21527.037, -21527.037, 0.00045041088, 10.0008545, 9.997733 
1.9551995e+3, 3.148922e+2, 235445.36, 35589.023, 14210.594, -0.08635256, 0.006854263, 236450.73, 236450.73, 0.0008724613, 10.0019045, 9.999274 
1.9650301e+3, 1.24902844e+2, -2027008.0, -2114293.0, -88537.836, 0.1316717, 0.20037317, -1971940.8, -255993.75, 0.23177752, 9.99883, 9.997781 
1.9650345e+3, 1.3489856e+2, -1559905.1, -1543141.9, 53524.12, -0.26735112, -0.31123042, -1497347.1, 120641.484, 0.1620495, 10.000275, 10.000401 
1.9650482e+3, 1.4490074e+2, -1610821.6, -1679481.0, 78410.55, 0.10219728, -0.0614761, -1559555.0, -39585.652, 0.093428105, 9.99983, 9.998942 
1.9650546e+3, 1.5490165e+2, -1613254.9, -1607029.9, 49661.316, -0.03645234, 0.075799026, -1560383.6, -138418.4, 0.04057487, 9.9990635, 9.99912 
1.9650602e+3, 1.649015e+2, -1434014.6, -1390699.0, 68723.74, -0.19705065, 0.10932655, -1340301.3, -16332.663, 0.011385711, 9.999244, 9.999877 
1.9650671e+3, 1.7490116e+2, -1143539.0, -1181867.6, 47973.863, -0.29295784, 0.040011216, -1111043.3, 114926.73, 0.0013940044, 10.000519, 10.000004 
1.9650769e+3, 1.8490084e+2, -1046743.8, -1171951.0, 141160.48, -0.21761808, 0.04747806, -954927.56, 173044.2, 0.000014255441, 10.0008745, 9.999239 
1.9650893e+3, 1.9490004e+2, -978092.7, -1073201.4, 126038.305, -0.02596418, -0.0005882435, -890936.0, 139042.47, 0.0, 10.000636, 9.999341 
1.9650994e+3, 2.0489907e+2, -868954.44, -992846.6, 63268.766, 0.03649088, -0.018570704, -842355.3, 89630.42, 0.0, 10.000779, 9.999166 
1.9651079e+3, 2.14898e+2, -674181.5, -829747.25, 6764.301, -0.035202533, -0.089356124, -673887.94, 160105.05, 0.0, 10.001383, 9.999308 
1.9651175e+3, 2.2489709e+2, -618851.6, -851114.25, 26881.547, -0.028968679, -0.0675657, -615781.0, 120220.07, 0.0, 10.001506, 9.998449 
1.9651277e+3, 2.348961e+2, -543928.5, -752665.4, -1218.5664, 0.01636425, -0.051451452, -543921.4, 94090.47, 0.0, 10.001307, 9.998541 
1.9651374e+3, 2.4489483e+2, -456442.6, -680613.6, -14516.162, 0.030414665, -0.017166646, -455506.53, 84518.02, 0.0, 10.001282, 9.998395 
1.9651462e+3, 2.5489342e+2, -341974.8, -558148.0, -19256.793, -0.0025669981, -0.044874694, -340272.8, 101764.96, 0.0, 10.00136, 9.9985075 
1.9651552e+3, 2.6489162e+2, -270079.8, -547639.75, 23775.87, -0.026651822, -0.035326228, -268057.9, 75998.16, 0.00000006167767, 10.001499, 9.997846 
1.9651641e+3, 2.7488914e+2, -128759.625, -416587.25, 25373.926, -0.068585046, -0.1177877, -126539.87, 119543.09, 0.000003603985, 10.001758, 9.997936 
1.9651733e+3, 2.8488728e+2, 18003.684, -293958.78, 12866.285, -0.018693907, -0.08804453, 18533.43, 166635.34, 0.00003430298, 10.002069, 9.997966 
1.9651832e+3, 2.9488677e+2, 205356.11, -119289.23, -24789.813, 0.12687084, 0.0071257907, 207238.14, 257344.73, 0.00015136057, 10.002545, 9.998255 
1.965192e+3, 3.0488378e+2, 184258.22, -179512.9, 42837.35, 0.0044540176, -0.08346237, 189234.63, 189234.63, 0.00039140965, 10.002373, 9.997609 
1.9652009e+3, 3.1488234e+2, 132006.73, -16179.754, -64106.926, -0.08337587, -0.04243033, 155890.56, 155890.56, 0.0007269925, 10.00116, 9.999304 
1.9750267e+3, 1.24889895e+2, -1943939.6, -2016571.3, -1598.2571, -0.1989798, -0.027875934, -1943904.4, -227829.36, 0.24301729, 9.999135, 9.99831 
1.975035e+3, 1.348934e+2, -1420048.3, -1281724.1, 83036.836, -0.28150168, 0.013683378, -1242819.0, 375219.5, 0.17062773, 10.000398, 10.002522 
1.9750492e+3, 1.4489266e+2, -1544837.6, -1567542.3, 20057.438, 0.16069609, -0.16466217, -1533142.8, -13096.553, 0.09895461, 9.999927, 9.99967 
1.9750534e+3, 1.5489544e+2, -1536861.9, -1456770.5, 30096.844, -0.08908413, 0.06390087, -1446721.5, -24698.928, 0.04335473, 9.999098, 10.000138 
1.9750603e+3, 1.6489492e+2, -1450707.4, -1450843.6, 102099.82, -0.18346915, 0.03497086, -1348675.6, -24647.533, 0.012356995, 9.999363, 9.999405 
1.9750693e+3, 1.7489308e+2, -1183916.8, -1262990.6, 104920.79, -0.16172688, -0.12648909, -1111330.9, 114712.75, 0.0015709848, 10.000516, 9.999447 
1.9750786e+3, 1.8489249e+2, -1051360.6, -1189967.4, 115269.71, -0.17887422, -0.108958006, -986164.7, 141883.38, 0.000019593592, 10.000904, 9.999105 
1.9750883e+3, 1.948924e+2, -994040.94, -1087802.6, 127590.016, -0.20735696, -0.076703124, -904991.56, 125057.28, 0.0, 10.000562, 9.999275 
1.9750993e+3, 2.0489156e+2, -977516.1, -1178644.3, 74560.87, -0.10632405, -0.022515053, -952890.5, -20832.902, 0.0, 10.000611, 9.997971 
1.9751112e+3, 2.148901e+2, -790699.94, -1020230.3, 41570.59, 0.13190068, -0.013599894, -783403.0, 50669.855, 0.0, 10.001164, 9.998104 
1.9751205e+3, 2.2488856e+2, -684061.25, -918817.4, 5841.3257, 0.10638631, 0.024404682, -683916.0, 52173.547, 0.0, 10.001204, 9.998134 
1.9751275e+3, 2.3488668e+2, -590654.6, -806743.2, 10217.201, -0.17791586, -0.02398028, -590172.6, 47937.836, 0.0, 10.001115, 9.998263 
1.9751365e+3, 2.4488531e+2, -478725.53, -665776.4, -24742.197, -0.22047995, -0.00027952058, -475508.1, 64616.145, 0.0, 10.001012, 9.998631 
1.9751479e+3, 2.548846e+2, -348998.7, -529831.3, -1366.0963, 0.00090986927, 0.014579554, -348988.38, 93141.11, 0.0, 10.001169, 9.998795 
1.9751577e+3, 2.6488334e+2, -277205.9, -486563.97, 17569.172, 0.04916459, 0.031634297, -275741.75, 68398.77, 0.000000055759365, 10.001174, 9.998417 
1.975166e+3, 2.7488142e+2, -123875.57, -338597.2, 53902.035, -0.0704811, -0.059416097, -111104.06, 135054.19, 0.0000036492006, 10.001476, 9.998595 
1.9751748e+3, 2.8487915e+2, -86173.71, -442564.03, 11976.106, -0.12198073, -0.067017525, -85771.72, 62409.348, 0.00003270768, 10.001763, 9.997102 
1.9751841e+3, 2.9487666e+2, 110768.016, -264195.2, 22819.422, -0.06940851, -0.089359105, 112151.65, 162359.75, 0.00013942833, 10.002317, 9.997372 
1.9751926e+3, 3.0487558e+2, 118940.82, -195839.42, -18312.572, -0.18934913, 0.05139394, 120002.586, 120002.586, 0.00034788318, 10.001889, 9.997719 
1.9752033e+3, 3.1487253e+2, 111198.31, 120274.07, -76613.71, -0.012526583, -0.10301441, 192484.17, 192484.17, 0.0006200003, 10.000445, 10.000557 
1.985027e+3, 1.24877915e+2, -1936034.3, -1957508.8, 208744.63, -0.047017634, -0.36723432, -1737750.9, -21559.883, 0.25424254, 9.9989195, 9.998855 
1.9850361e+3, 1.3488701e+2, -1654100.6, -1332014.6, 89359.6, -0.086764276, 0.16293822, -1308883.9, 309216.2, 0.17932345, 9.998192, 10.003225 
1.9850478e+3, 1.4488497e+2, -1898340.5, -1707313.4, 2794.6826, 0.1620031, -0.19001475, -1707272.5, -187152.7, 0.104643695, 9.997371, 9.999952 
1.9850527e+3, 1.5488765e+2, -1520654.8, -1404494.1, -38018.0, -0.06814962, -0.011836995, -1393157.6, 28937.953, 0.046255346, 9.999003, 10.000566 
1.9850604e+3, 1.6488734e+2, -1373299.1, -1424283.1, 64303.77, -0.11217175, -0.038267415, -1329618.8, -5520.5605, 0.013380272, 9.999953, 9.999293 
1.9850707e+3, 1.7488582e+2, -1228741.8, -1297737.5, 71778.555, -0.054279674, -0.15602311, -1183601.3, 42509.133, 0.0017591557, 10.000276, 9.999316 
1.9850802e+3, 1.848851e+2, -1132941.3, -1296964.0, 89537.16, -0.0790794, -0.115396105, -1093532.8, 34584.47, 0.0000256483, 10.000621, 9.998509 
1.9850893e+3, 1.9488439e+2, -926711.06, -1124671.6, 39954.64, -0.18947186, -0.0904251, -918951.1, 111175.484, 0.0, 10.001286, 9.998684 
1.9851e+3, 2.0488316e+2, -835181.44, -1103258.3, 44415.27, -0.1120702, -0.04544832, -828014.25, 104125.05, 0.0, 10.001554, 9.99804 
1.9851124e+3, 2.1488175e+2, -714344.2, -977289.2, 75069.914, 0.12842713, -0.037227657, -694421.5, 139731.03, 0.0, 10.00166, 9.998165 
1.9851223e+3, 2.248801e+2, -630139.7, -933564.75, 96573.73, 0.13299748, 0.004323087, -602010.1, 134160.8, 0.0, 10.001743, 9.997768 
1.9851294e+3, 2.34878e+2, -520736.13, -817647.44, 65789.78, -0.11803882, -0.026826032, -506811.44, 131385.52, 0.0, 10.001783, 9.997862 
1.9851384e+3, 2.4487668e+2, -387185.16, -584765.2, 49472.645, -0.15325233, 0.0063696243, -375489.8, 164721.42, 0.0, 10.001535, 9.998906 
1.985149e+3, 2.5487605e+2, -335466.47, -495497.84, 40636.32, 0.001227269, 0.0040225904, -325739.06, 116475.01, 0.0, 10.001167, 9.999019 
1.9851589e+3, 2.6487496e+2, -268856.22, -471810.8, 85826.98, 0.05721685, 0.028702615, -237427.88, 106794.64, 0.00000004684117, 10.00119, 9.998503 
1.9851682e+3, 2.7487358e+2, -96745.586, -318706.75, 43808.418, -0.0035188708, -0.014464322, -88412.016, 157823.95, 0.000003631824, 10.001638, 9.998646 
1.9851775e+3, 2.8487158e+2, -35819.375, -396883.63, 49163.785, -0.030266274, -0.005207373, -29244.775, 119011.35, 0.000030883682, 10.002039, 9.997268 
1.9851868e+3, 2.9486868e+2, 122456.97, -246304.03, 82235.695, -0.025721055, -0.07928121, 139964.75, 190250.89, 0.00012822116, 10.00238, 9.997444 
1.9851944e+3, 3.0486718e+2, 212675.02, -142459.75, 70508.375, -0.20311774, 0.015677497, 226161.56, 226161.56, 0.0003141248, 10.002458, 9.997816 
1.985205e+3, 3.148649e+2, 352238.53, 220176.75, -85249.766, 0.034996193, -0.07154505, 394039.0, 394039.0, 0.00054965925, 10.002094, 10.000468 
1.9950284e+3, 1.2487306e+2, -1872917.8, -1869880.4, 71044.49, 0.11122511, -0.17820632, -1800338.4, -84103.65, 0.26535824, 9.999107, 9.99936 
1.995037e+3, 1.3487917e+2, -1685001.5, -1412134.4, 32746.406, 0.15248954, 0.12235053, -1408259.6, 209916.03, 0.18805622, 9.9982815, 10.002528 
1.9950436e+3, 1.4487754e+2, -1883879.6, -1712038.6, 24605.236, -0.04273888, -0.1503647, -1708584.9, -188393.02, 0.11045076, 9.997518, 9.999852 
1.9950518e+3, 1.5487814e+2, -1524750.5, -1413396.0, 33545.133, -0.0924439, -0.16475582, -1404071.5, 18114.244, 0.04926506, 9.99902, 10.00049 
1.9950607e+3, 1.6487858e+2, -1340424.4, -1378320.3, 64062.12, -0.13502136, -0.12448766, -1292566.9, 31613.643, 0.014456319, 10.000045, 9.999567 
1.9950709e+3, 1.7487925e+2, -1204732.3, -1249688.6, 89134.04, -0.08534906, -0.053171992, -1135285.8, 90886.07, 0.0019582892, 10.000286, 9.9996395 
1.9950815e+3, 1.8487848e+2, -1199968.9, -1442456.8, 99095.95, -0.062919304, 0.01646266, -1164623.9, -36442.57, 0.000032105352, 10.000654, 9.997494 
1.9950919e+3, 1.9487591e+2, -1014860.06, -1280729.4, 74269.86, -0.088697866, -0.039051805, -995519.8, 34692.438, 0.0, 10.001183, 9.997656 
1.9951019e+3, 2.0487404e+2, -775457.4, -941983.94, 31372.838, -0.12973085, -0.068071194, -769742.94, 162486.77, 0.0, 10.001387, 9.9992285 
1.9951114e+3, 2.1487287e+2, -656134.3, -811553.4, 90400.85, -0.15741715, -0.15984973, -614633.56, 219599.64, 0.0, 10.001466, 9.999394 
1.995122e+3, 2.2487156e+2, -705875.4, -1023205.1, 86801.16, -0.09914155, -0.124125086, -683684.0, 52562.75, 0.0, 10.001449, 9.997296 
1.9951332e+3, 2.3487008e+2, -587652.75, -904849.5, 83952.64, 0.061981604, -0.048926875, -566803.44, 71468.26, 0.0, 10.001555, 9.997373 
1.9951423e+3, 2.4486871e+2, -426159.34, -589300.06, 21025.691, 0.053696994, -0.001194526, -423493.13, 116794.37, 0.0, 10.001204, 9.999036 
1.9951491e+3, 2.5486755e+2, -355066.6, -484932.2, 42544.426, -0.11021212, -0.07595423, -342370.16, 99923.22, 0.0, 10.000946, 9.999196 
1.9951585e+3, 2.648664e+2, -355554.6, -578992.3, 88350.2, -0.13923334, -0.039307836, -324841.47, 19462.148, 0.000000042002604, 10.000884, 9.997912 
1.9951701e+3, 2.7486548e+2, -176286.94, -420083.44, 77900.59, -0.006855865, 0.018563574, -153521.14, 92796.336, 0.0000035134383, 10.001379, 9.998068 
1.9951807e+3, 2.848642e+2, -28229.014, -305328.28, 42400.69, 0.053922907, 0.090505295, -21886.205, 126444.516, 0.00002820436, 10.00171, 9.998055 
1.9951905e+3, 2.9486227e+2, 132601.1, -147894.58, 112516.31, 0.07480573, 0.020811379, 172156.98, 222503.38, 0.00011358975, 10.002044, 9.998281 
1.995197e+3, 3.0485845e+2, 121736.195, -194254.84, 35235.05, -0.25268543, -0.15607572, 125617.46, 125617.46, 0.0002776181, 10.001901, 9.997715 
1.995204e+3, 3.148592e+2, 130258.99, -83999.75, -1355.0741, -0.3378645, 0.05466456, 130267.56, 130267.56, 0.00049017585, 10.001477, 9.998645 
2.0050262e+3, 1.2486572e+2, -2076305.9, -1903864.9, -29728.645, 0.05762278, -0.04521815, -1898883.6, -182577.17, 0.27641812, 9.997451, 9.999895 
2.0050347e+3, 1.3486938e+2, -1614407.8, -1434538.6, -93453.875, 0.06683244, 0.04746624, -1394774.1, 223499.13, 0.1968332, 9.999076, 10.00197 
2.005043e+3, 1.4486918e+2, -1623471.5, -1557227.1, -41042.914, 0.07036498, -0.07209108, -1537608.4, -17332.912, 0.11636926, 9.999183, 10.000103 
2.0050514e+3, 1.5486903e+2, -1464782.0, -1367143.9, -17948.22, -0.03811857, -0.18514296, -1363949.0, 58325.063, 0.05238356, 9.999331, 10.000675 
2.0050603e+3, 1.6486938e+2, -1396586.4, -1431658.6, 28243.844, -0.14227696, -0.15106069, -1380877.5, -56608.473, 0.015589432, 9.999745, 9.999355 
2.0050712e+3, 1.7487022e+2, -1137689.0, -1244099.4, -10134.763, -0.11363312, -0.047741804, -1136732.3, 89528.07, 0.0021699998, 10.000822, 9.999435 
2.0050825e+3, 1.8486932e+2, -1156446.9, -1408311.4, 23052.137, -0.025889942, 0.012484944, -1154354.4, -26083.05, 0.00003871999, 10.000916, 9.997594 
2.0050938e+3, 1.9486664e+2, -1112996.1, -1320793.6, 52456.617, 0.02731534, -0.06043821, -1100504.8, -70202.54, 0.0, 10.000495, 9.997711 
2.0051037e+3, 2.0486484e+2, -918484.75, -987402.9, 42172.355, -0.022442276, -0.09390102, -898483.44, 33835.43, 0.0, 10.000322, 9.999428 
2.0051123e+3, 2.1486382e+2, -768406.3, -843322.8, 1539.0334, -0.17104134, -0.18664117, -768374.7, 65946.805, 0.0, 10.000607, 9.999595 
2.0051228e+3, 2.2486293e+2, -779881.75, -1004598.3, 8039.6084, -0.116479516, -0.14157058, -779594.44, -43263.715, 0.0, 10.000734, 9.997759 
2.0051348e+3, 2.3486212e+2, -661407.8, -884776.4, 38463.57, 0.113620654, -0.039707404, -654970.0, -16622.764, 0.0, 10.000846, 9.997841 
2.005144e+3, 2.4486092e+2, -439398.6, -617288.0, 24942.77, 0.1311735, 0.00856871, -435967.44, 104393.54, 0.0, 10.001161, 9.998883 
2.0051505e+3, 2.5485924e+2, -269712.75, -461235.75, -4877.504, -0.08767451, -0.100203484, -269588.6, 172783.81, 0.0, 10.00159, 9.999053 
2.0051599e+3, 2.648579e+2, -229359.8, -531186.1, 81887.086, -0.12848969, -0.077658355, -208574.75, 135810.5, 0.000000029896977, 10.001782, 9.997816 
2.0051718e+3, 2.7485657e+2, -116891.086, -411340.63, 79201.51, 0.009041733, -0.04195491, -96939.266, 149463.3, 0.0000031274246, 10.001829, 9.99793 
2.0051831e+3, 2.8485543e+2, 23914.256, -268009.7, 71312.46, 0.11712634, 0.04315371, 40403.4, 188817.69, 0.000025154262, 10.002003, 9.998181 
2.0051935e+3, 2.9485422e+2, 167986.7, -124056.35, 32692.873, 0.16486992, 0.04467632, 171601.77, 222024.5, 0.00009776422, 10.002251, 9.998351 
2.0052004e+3, 3.0484986e+2, 310070.75, -98173.36, -14327.801, -0.12937956, -0.19427067, 310572.97, 310572.97, 0.00024035014, 10.003146, 9.997799 
2.0052081e+3, 3.1485024e+2, 506562.78, -58069.613, -77238.78, -0.2141475, -0.006197287, 516938.0, 516938.0, 0.0004337669, 10.004683, 9.997322 
2.0150222e+3, 1.248546e+2, -2036487.4, -1841588.1, 1026.3253, -0.17122662, -0.12929256, -1841582.8, -125164.02, 0.28771394, 9.99755, 10.000275 
2.0150289e+3, 1.348576e+2, -1634399.6, -1484975.3, -61930.457, -0.45987928, -0.07837607, -1462644.8, 155749.03, 0.20582092, 9.999115, 10.001542 
2.0150454e+3, 1.4485982e+2, -1566227.8, -1473502.9, -56746.0, 0.33746105, 0.04055918, -1446587.9, 73783.47, 0.12247417, 9.999309, 10.000679 
2.0150511e+3, 1.5486029e+2, -1425625.3, -1289791.8, -6777.9966, -0.036769297, -0.06723374, -1289454.4, 132906.67, 0.055639356, 9.999333, 10.001235 
2.0150591e+3, 1.6485989e+2, -1424028.9, -1510482.5, 52127.383, -0.29579818, -0.108526036, -1399537.0, -75174.12, 0.016791714, 9.999838, 9.998775 
2.0150709e+3, 1.7485884e+2, -1185630.8, -1334947.1, 39969.582, -0.23997684, -0.12819426, -1175604.8, 50770.17, 0.0023981123, 10.000792, 9.998827 
2.015083e+3, 1.8485777e+2, -1071737.9, -1246275.8, -12400.085, -0.11536143, -0.110199586, -1070861.4, 57524.56, 0.000045425786, 10.000964, 9.998688 
2.0150948e+3, 1.9485651e+2, -1049022.8, -1167681.4, 43272.51, 0.033900388, -0.14766729, -1034918.56, -4521.359, 0.0, 10.00041, 9.998803 
2.015105e+3, 2.0485555e+2, -994288.25, -1106958.0, 38710.637, 0.04904203, -0.117008954, -982270.2, -49863.457, 0.0, 10.000157, 9.998689 
2.0151144e+3, 2.1485469e+2, -857501.5, -978845.06, 25640.29, -0.03616719, -0.11310282, -852306.06, -17889.697, 0.0, 10.000396, 9.998768 
2.0151241e+3, 2.248541e+2, -738706.6, -857578.44, 629.5691, -0.08047368, -0.050686363, -738703.3, -2280.0994, 0.0, 10.000456, 9.998908 
2.0151341e+3, 2.3485386e+2, -599798.56, -720468.06, 56605.86, -0.06780941, -0.013360979, -577401.75, 61024.688, 0.0, 10.000672, 9.999059 
2.0151435e+3, 2.4485287e+2, -515594.3, -703164.06, 30671.984, -0.07023512, 0.0157394, -510706.13, 29729.498, 0.0, 10.00086, 9.998434 
2.0151526e+3, 2.5485098e+2, -337353.66, -546147.44, 23620.846, -0.06739988, -0.06666943, -334714.78, 107737.54, 0.0, 10.001361, 9.998578 
2.0151623e+3, 2.64849e+2, -248158.94, -501368.9, 67859.414, -0.08698273, -0.098821655, -231119.5, 113351.164, 0.0000000091701935, 10.001489, 9.998164 
2.0151728e+3, 2.7484688e+2, -126878.96, -370448.03, 98324.47, -0.090877436, -0.18053345, -92141.375, 154349.58, 0.0000023642951, 10.001573, 9.998331 
2.0151839e+3, 2.8484553e+2, -84151.78, -407866.66, 59455.195, -0.037779793, -0.10390882, -73577.35, 74927.36, 0.000021595964, 10.00165, 9.997383 
2.0151952e+3, 2.9484445e+2, 74371.086, -267346.6, 61850.734, 0.07734592, -0.014993714, 85221.51, 135737.66, 0.000083873885, 10.00201, 9.997488 
2.0152043e+3, 3.0484086e+2, 228137.45, -147008.8, 18394.105, -0.087381706, -0.12262533, 229037.19, 229037.19, 0.00020823472, 10.002662, 9.997673 
2.0152147e+3, 3.1484038e+2, 319324.3, -197898.78, 85354.53, -0.07391111, -0.033980127, 333045.88, 333045.88, 0.0003833975, 10.003701, 9.996788 
2.0250215e+3, 1.2484591e+2, -1716636.1, -1699258.4, 31594.133, -0.10333834, -0.010284542, -1675180.1, 41325.492, 0.29983783, 9.999836, 10.000203 
2.0250276e+3, 1.348463e+2, -1897058.0, -1575199.9, -25133.361, -0.3997365, -0.23944806, -1573249.1, 45256.992, 0.21537028, 9.997256, 10.001632 
2.0250435e+3, 1.4485174e+2, -1720658.6, -1528750.6, 65728.52, 0.29926747, 0.18139707, -1508397.3, 12054.26, 0.12892798, 9.99817, 10.000804 
2.0250504e+3, 1.5485115e+2, -1385450.5, -1279396.8, 32683.186, -0.03876442, -0.027616737, -1270133.6, 152316.89, 0.05909158, 9.999662, 10.001156 
2.0250595e+3, 1.6484997e+2, -1425145.9, -1527873.0, 95592.6, -0.2331807, -0.13231988, -1367991.5, -43531.363, 0.018083457, 9.999939, 9.998586 
2.0250718e+3, 1.7484893e+2, -1320493.8, -1416294.0, 93266.51, -0.17466892, -0.13266101, -1263546.1, -37072.82, 0.0026487417, 9.999979, 9.998639 
2.0250839e+3, 1.8484811e+2, -1187037.5, -1238535.1, 35468.21, -0.05896219, -0.10785885, -1168957.1, -40476.203, 0.000052423693, 9.999896, 9.99925 
2.0250948e+3, 1.9484705e+2, -1077112.0, -1124364.8, 27521.553, 0.047490675, -0.18342604, -1064466.6, -33979.113, 0.0, 9.999954, 9.99932 
2.0251055e+3, 2.0484631e+2, -1003108.75, -1140272.4, 72952.39, 0.08426764, -0.14608353, -971563.06, -39067.992, 0.0, 10.000229, 9.998413 
2.0251158e+3, 2.1484576e+2, -798414.1, -985368.25, 67534.84, 0.032195874, -0.08133161, -776570.25, 57934.984, 0.0, 10.000947, 9.998447 
2.0251255e+3, 2.2484516e+2, -599376.7, -749154.6, 46240.434, -0.018826436, -0.025477104, -586251.25, 150260.8, 0.0, 10.001235, 9.9992695 
2.0251347e+3, 2.3484455e+2, -502024.16, -630114.0, 19304.576, -0.0883025, -0.062287226, -499177.97, 139336.69, 0.0, 10.001165, 9.999431 
2.0251441e+3, 2.448434e+2, -495894.6, -739819.5, -3108.9841, -0.098341815, -0.047831118, -495854.97, 44669.54, 0.0, 10.00122, 9.997992 
2.0251538e+3, 2.5484142e+2, -351280.5, -608828.3, -36575.61, -0.07328634, -0.087891385, -346186.97, 96357.664, 0.0, 10.001516, 9.998064 
2.0251644e+3, 2.6483932e+2, -200755.34, -484664.4, 12896.936, -0.043386027, -0.10417008, -200170.69, 144394.88, 0.000000001074916, 10.001847, 9.998103 
2.0251752e+3, 2.748372e+2, -44969.156, -330933.72, -25122.38, -0.016775833, -0.17985635, -42778.895, 203807.1, 0.0000018159459, 10.002166, 9.998303 
2.0251863e+3, 2.848357e+2, 32541.336, -378531.16, -25406.867, 0.008589658, -0.10310113, 34105.688, 182707.28, 0.000018189116, 10.002535, 9.9971695 
2.0251967e+3, 2.9483435e+2, 185083.88, -223843.86, -18188.453, -0.005742727, -0.017943941, 185891.28, 236508.19, 0.000072171526, 10.002817, 9.997391 
2.0252077e+3, 3.0483112e+2, 255457.9, -185470.38, 6769.186, -0.012337657, -0.07144407, 255561.81, 255561.81, 0.00017992329, 10.002993, 9.9972925 
2.025218e+3, 3.148305e+2, 192795.5, -215030.84, -65747.39, -0.028788716, 0.0655003, 203132.89, 203132.89, 0.00033564074, 10.002548, 9.997263 
2.0350198e+3, 1.2483771e+2, -1752953.3, -1821349.4, -113034.24, -0.3595264, 0.08029221, -1669057.1, 47528.758, 0.3135409, 10.000065, 9.999261 
2.0350304e+3, 1.348353e+2, -1834928.1, -1501430.4, -43411.953, 0.11723675, -0.4508905, -1495872.0, 122740.09, 0.22593072, 9.997387, 10.002238 
2.035037e+3, 1.4484476e+2, -1710554.5, -1559461.8, 125178.03, -0.24412334, 0.346698, -1488800.1, 31717.594, 0.13594478, 9.998385, 10.000507 
2.0350492e+3, 1.548416e+2, -1420684.6, -1361032.3, 86687.12, -0.1650166, -0.06449303, -1299183.8, 123358.695, 0.06282382, 9.999716, 10.000542 
2.035061e+3, 1.6483952e+2, -1402810.5, -1504094.9, 70445.35, -0.12139558, -0.23294485, -1366693.4, -42132.016, 0.019494196, 10.000032, 9.998705 
2.0350735e+3, 1.7484036e+2, -1298218.6, -1377560.3, 105167.53, -0.047356524, -0.06772174, -1225488.4, 1068.3313, 0.0029308582, 10.000006, 9.998892 
2.0350847e+3, 1.8484026e+2, -1179267.6, -1229513.4, 26074.543, -0.021121219, 0.007592666, -1168182.1, -39624.555, 0.00006041413, 9.9999275, 9.9993 
2.0350942e+3, 1.9483829e+2, -1088917.6, -1127228.6, 39349.605, -0.047045864, -0.15826248, -1064308.8, -33736.027, 0.0, 9.9998665, 9.999343 
2.0351045e+3, 2.048371e+2, -1013643.3, -1127520.8, 84248.24, -0.0801452, -0.17267534, -968897.3, -36313.37, 0.0, 10.000083, 9.9985695 
2.0351157e+3, 2.148369e+2, -814031.25, -970575.44, 105890.516, -0.08084156, -0.091684744, -760624.5, 73965.21, 0.0, 10.000746, 9.998648 
2.0351264e+3, 2.2483599e+2, -672190.94, -821390.7, 32879.67, -0.0897557, -0.059013397, -665266.5, 71331.875, 0.0, 10.00091, 9.998924 
2.035136e+3, 2.3483421e+2, -570056.06, -707693.0, 32694.51, -0.0765558, -0.17582473, -562684.56, 75926.92, 0.0, 10.000904, 9.999019 
2.0351455e+3, 2.4483243e+2, -577178.4, -840094.06, -5606.3833, -0.12595429, -0.17790355, -577058.9, -36430.684, 0.0, 10.000926, 9.997446 
2.0351541e+3, 2.5483057e+2, -414898.72, -698609.4, -13181.482, -0.22435527, -0.15615025, -414287.6, 28361.852, 0.0, 10.001331, 9.997539 
2.0351651e+3, 2.6482877e+2, -290086.75, -593817.5, 12617.635, -0.16881184, -0.084297456, -289563.47, 55106.887, 0.000000023664393, 10.0015335, 9.997498 
2.0351787e+3, 2.74827e+2, -121637.08, -437108.22, 5169.176, 0.08049938, -0.07318647, -121552.4, 125139.11, 0.0000019634658, 10.001932, 9.997687 
2.0351897e+3, 2.8482538e+2, -4928.7783, -358294.63, -31907.709, 0.06791994, 0.010082886, -2070.7385, 146638.78, 0.000016146072, 10.002132, 9.997495 
2.0351976e+3, 2.9482386e+2, 172417.78, -176688.89, 17355.137, -0.2255636, 0.036934666, 173278.44, 224003.98, 0.00006227005, 10.002492, 9.997877 
2.0352095e+3, 3.0482036e+2, 100481.35, -351767.16, -23713.574, -0.1707586, -0.02737661, 101721.37, 101721.37, 0.00015436458, 10.002364, 9.9964285 
2.0352189e+3, 3.1481856e+2, 191903.38, -28879.447, -56625.242, -0.26921552, 0.06642172, 205579.2, 205579.2, 0.0002908974, 10.0018015, 9.99887 
2.0450181e+3, 1.24829106e+2, -2159669.3, -2096283.5, -33106.52, -0.38815883, 0.12492505, -2082145.4, -365478.22, 0.3294151, 9.997543, 9.998553 
2.0450298e+3, 1.3482562e+2, -1685765.6, -1473765.0, -86815.29, 0.28528565, -0.45770198, -1442750.9, 175952.45, 0.23787552, 9.998623, 10.001931 
2.0450346e+3, 1.4483395e+2, -1629602.0, -1569677.8, 86344.25, -0.33847314, 0.2695261, -1508244.9, 12375.928, 0.14372098, 9.999176, 10.000031 
2.045049e+3, 1.5483099e+2, -1503307.1, -1447814.9, 2992.4036, -0.12280674, -0.075181976, -1447654.0, -25007.865, 0.06692591, 9.999365, 10.000071 
2.0450616e+3, 1.6482913e+2, -1484328.1, -1500594.9, 47.5162, -0.014944419, -0.21953797, -1484328.0, -159664.42, 0.021061258, 9.999272, 9.999102 
2.0450734e+3, 1.7483017e+2, -1352694.3, -1364207.3, 21147.568, -0.02738642, -0.07300516, -1336533.8, -109877.914, 0.003256253, 9.99945, 9.999259 
2.0450844e+3, 1.8483032e+2, -1217545.5, -1254565.9, -27277.18, -0.0135620395, 0.015481673, -1203091.0, -74436.48, 0.00007088071, 9.999703, 9.999235 
2.0450947e+3, 1.9482864e+2, -1021170.94, -1097717.6, -46473.477, -0.013580231, -0.11599532, -999239.4, 31429.412, 0.0, 10.000361, 9.999299 
2.045105e+3, 2.048275e+2, -919302.1, -1069671.3, 21674.26, -0.04758976, -0.12895197, -916240.4, 16439.432, 0.0, 10.000657, 9.998707 
2.0451161e+3, 2.1482714e+2, -800077.1, -939883.5, 15504.997, -0.11956775, -0.08058557, -798378.2, 36307.04, 0.0, 10.000742, 9.998861 
2.045127e+3, 2.2482614e+2, -704023.56, -873749.75, -45022.664, -0.103112355, -0.053660814, -692820.06, 43874.582, 0.0, 10.000829, 9.99862 
2.0451377e+3, 2.3482409e+2, -579990.44, -750246.7, -65876.79, -0.002910908, -0.16368765, -557477.75, 81234.36, 0.0, 10.000974, 9.998706 
2.0451473e+3, 2.4482211e+2, -479377.28, -760294.06, -20559.604, -0.041441612, -0.18403143, -477880.56, 62849.766, 0.0, 10.001435, 9.997764 
2.0451555e+3, 2.5482023e+2, -254429.48, -581816.8, 6343.953, -0.24826434, -0.19298506, -254306.6, 188442.44, 0.0, 10.002258, 9.997899 
2.0451666e+3, 2.648186e+2, -173554.77, -556266.25, 82424.47, -0.20632453, -0.11561402, -156557.88, 188209.98, 0.00000011200642, 10.002388, 9.997349 
2.0451808e+3, 2.7481714e+2, -150104.61, -476793.3, 69724.02, 0.10445425, -0.053896997, -135846.0, 110941.96, 0.000002326167, 10.001824, 9.997474 
2.045192e+3, 2.8481558e+2, -40200.14, -353586.88, 93236.81, 0.11387488, 0.034970965, -14558.885, 134247.58, 0.000014696717, 10.00178, 9.9977 
2.0452e+3, 2.948139e+2, 141904.95, -162668.13, 82250.59, -0.21948226, 0.036337983, 162697.45, 213521.03, 0.00005375532, 10.002173, 9.998121 
2.045213e+3, 3.048115e+2, 167119.27, -270376.84, 105393.79, -0.0521784, 0.039911665, 191185.06, 191185.06, 0.00013253847, 10.0026, 9.996867 
2.0452222e+3, 3.148086e+2, 414702.47, 120599.1, -38736.258, -0.15490437, -0.0023428034, 419718.84, 419718.84, 0.0002539401, 10.003094, 9.999285 
2.0550185e+3, 1.24818765e+2, -2147472.3, -2141130.5, 112500.445, -0.18932545, -0.000945281, -2031756.3, -314993.97, 0.3476065, 9.997831, 9.998112 
2.0550251e+3, 1.3481773e+2, -1740338.0, -1581826.0, -40785.21, -0.08974238, -0.21757695, -1571947.6, 46827.527, 0.2513395, 9.9986925, 10.000926 
2.0550361e+3, 1.4481917e+2, -1660277.8, -1665809.9, 81862.37, -0.18496422, -0.08440991, -1581134.8, -60372.34, 0.15236652, 9.999315, 9.999292 
2.0550495e+3, 1.548194e+2, -1518559.9, -1494576.4, 21403.447, -0.05747244, -0.065315455, -1482034.3, -59273.742, 0.071473114, 9.999427, 9.99972 
2.0550609e+3, 1.6481887e+2, -1426496.1, -1418543.5, -12327.244, -0.08489445, -0.0867001, -1409567.1, -84801.29, 0.022826005, 9.999422, 9.9996 
2.055071e+3, 1.7481841e+2, -1320449.3, -1300070.3, 34308.617, -0.23069371, -0.13620214, -1274470.0, -47700.008, 0.0036400491, 9.9994545, 9.9997015 
2.0550828e+3, 1.848182e+2, -1222341.9, -1284322.0, -17740.943, -0.20061237, -0.09008118, -1217623.1, -88850.33, 0.00008593674, 9.999771, 9.999007 
2.0550954e+3, 1.948179e+2, -1034253.44, -1120628.9, -13488.974, 0.014536938, -0.06916576, -1032195.9, -1417.9252, 0.0, 10.000324, 9.999168 
2.0551068e+3, 2.048173e+2, -934457.75, -1065047.9, 11650.004, 0.009469372, -0.03028757, -933426.6, -641.87573, 0.0, 10.000502, 9.998812 
2.0551161e+3, 2.1481636e+2, -824139.1, -940920.94, 30860.717, -0.2108732, -0.05107021, -816485.5, 18307.451, 0.0, 10.000526, 9.998958 
2.0551267e+3, 2.2481531e+2, -771313.0, -937561.4, -52399.555, -0.22284985, -0.02139918, -756175.56, -19371.996, 0.0, 10.000512, 9.99833 
2.055139e+3, 2.3481396e+2, -631441.0, -803637.56, -45982.645, 0.0052610943, -0.032989994, -619931.3, 18886.834, 0.0, 10.000749, 9.998446 
2.0551494e+3, 2.4481227e+2, -451186.34, -621065.06, -3370.0032, -0.010727829, -0.067771785, -451119.53, 89712.87, 0.0, 10.001102, 9.998872 
2.0551577e+3, 2.5481018e+2, -218427.8, -436530.13, 52153.297, -0.27404863, -0.21467684, -206598.36, 236247.9, 0.0, 10.00197, 9.999028 
2.0551682e+3, 2.6480862e+2, -211490.08, -551259.25, 47471.0, -0.31397662, -0.2004476, -204982.3, 139878.42, 0.00000017468948, 10.002034, 9.99755 
2.0551811e+3, 2.7480742e+2, -172073.31, -473539.56, 63721.125, -0.0756189, -0.12382309, -159157.86, 87719.81, 0.0000023499456, 10.001608, 9.997602 
2.0551926e+3, 2.84806e+2, -113517.195, -407339.53, 93382.35, -0.0401961, -0.018490927, -86350.35, 62544.895, 0.000012296112, 10.001377, 9.997516 
2.0552029e+3, 2.948042e+2, 82665.08, -212241.5, 119205.86, -0.1832265, -0.031840276, 124823.26, 175737.95, 0.000044415407, 10.001859, 9.997928 
2.0552173e+3, 3.0480325e+2, 172537.97, -114336.38, 94765.73, 0.08096946, 0.06364563, 201015.8, 201015.8, 0.00011238554, 10.002017, 9.9982 
2.0552276e+3, 3.1479973e+2, 204452.08, -111998.99, -90476.016, -0.009729026, -0.1924309, 228493.47, 228493.47, 0.00022337346, 10.002259, 9.998073 
2.0650186e+3, 1.2480516e+2, -2119037.0, -2014447.8, 3485.049, 0.051430017, -0.17256849, -2014331.8, -297436.06, 0.36771804, 9.997528, 9.999105 
2.0650229e+3, 1.34807e+2, -1571595.4, -1524550.0, -123195.016, -0.22929291, -0.10752804, -1422652.1, 196225.08, 0.26616043, 10.000057, 10.00084 
2.0650369e+3, 1.4480564e+2, -1720936.4, -1741872.0, 16738.379, -0.0002261507, -0.23164777, -1711662.1, -190770.2, 0.1618756, 9.999069, 9.9989 
2.0650493e+3, 1.548068e+2, -1544451.3, -1528980.4, -35812.16, -0.009381131, -0.10164957, -1500077.8, -77193.57, 0.07651462, 9.999316, 9.99955 
2.0650603e+3, 1.6480714e+2, -1417293.8, -1378180.3, -49526.742, -0.066544496, -0.04283014, -1344488.9, -19606.98, 0.024829434, 9.999352, 9.999896 
2.0650709e+3, 1.7480646e+2, -1379259.4, -1299651.9, -45532.844, -0.17415708, -0.13895588, -1278977.8, -52090.39, 0.0041003036, 9.998942, 9.999937 
2.0650825e+3, 1.8480623e+2, -1348474.3, -1328832.3, -33399.055, -0.13655402, -0.11371781, -1303840.1, -174949.44, 0.000108260756, 9.998853, 9.999127 
2.0650955e+3, 1.9480656e+2, -1109811.1, -1135235.9, -31918.998, 0.017125478, -0.04670911, -1088166.1, -57275.176, 0.0, 9.999722, 9.99935 
2.065107e+3, 2.0480624e+2, -945322.75, -1030991.0, 15403.486, 0.022394205, -0.004541037, -942637.3, -9742.839, 0.0, 10.000259, 9.999156 
2.0651172e+3, 2.1480508e+2, -790629.94, -889304.94, 23231.914, -0.15263025, -0.07785694, -785433.8, 49468.633, 0.0, 10.000614, 9.999268 
2.0651282e+3, 2.2480403e+2, -695358.7, -909861.5, -9435.927, -0.16402154, -0.05769807, -694944.4, 41968.523, 0.0, 10.001062, 9.998258 
2.0651399e+3, 2.3480299e+2, -511953.97, -751315.06, -15840.408, -0.007989992, -0.033718728, -510910.25, 128016.63, 0.0, 10.001601, 9.998387 
2.0651509e+3, 2.4480188e+2, -347323.66, -543222.06, 20011.357, 0.0014858821, -0.019236313, -345300.34, 195636.14, 0.0, 10.001694, 9.999121 
2.0651604e+3, 2.548005e+2, -292019.13, -441143.34, -17531.232, -0.17039269, -0.12194839, -289985.88, 152957.73, 0.0, 10.001327, 9.999303 
2.0651709e+3, 2.6479882e+2, -277410.56, -568194.0, -29788.828, -0.21613291, -0.13947679, -274390.28, 70567.914, 0.00000012472299, 10.001504, 9.997698 
2.0651823e+3, 2.7479687e+2, -50806.332, -390481.84, -42500.566, -0.12840047, -0.15276654, -45569.355, 201411.78, 0.0000018192295, 10.002343, 9.997816 
2.0651941e+3, 2.8479555e+2, 52652.258, -287788.16, 20813.066, -0.055950694, -0.067335054, 53919.957, 202916.19, 0.000008845643, 10.002338, 9.997884 
2.0652059e+3, 2.947945e+2, 15814.707, -210285.6, 28943.473, -0.028493771, -0.031431746, 19461.006, 70468.18, 0.000033872344, 10.0012665, 9.998224 
2.0652194e+3, 3.0479294e+2, 187488.61, -61879.953, 90277.81, 0.13158345, -0.036974784, 216740.2, 216740.2, 0.00009226449, 10.001852, 9.998683 
2.0652317e+3, 3.1479046e+2, 450331.4, -12503.688, -307851.2, 0.11459289, -0.22586006, 604045.56, 604045.56, 0.00019361054, 10.003975, 9.997969 
2.0750152e+3, 1.247919e+2, -1946825.1, -1716305.1, -115434.43, -0.14312798, -0.04432841, -1668439.5, 48592.543, 0.38886976, 9.997717, 10.001236 
2.0750229e+3, 1.3479315e+2, -1512270.1, -1438646.6, -113711.516, -0.2975063, -0.15050928, -1355936.8, 263075.75, 0.28190908, 10.000193, 10.00157 
2.0750369e+3, 1.4479327e+2, -1700819.5, -1727181.0, -32709.379, 0.03159649, -0.15793525, -1678735.1, -157724.9, 0.17213808, 9.999184, 9.99895 
2.0750478e+3, 1.5479302e+2, -1529794.6, -1501676.4, -12360.202, -0.11335137, -0.17959656, -1497015.6, -73997.4, 0.08207624, 9.999339, 9.999722 
2.0750596e+3, 1.6479382e+2, -1388465.3, -1347932.1, -73533.586, -0.12996913, -0.0958735, -1291923.4, 33090.043, 0.027111659, 9.999476, 10.000049 
2.0750721e+3, 1.7479438e+2, -1370073.8, -1283414.1, -55380.574, 0.017322397, -0.0793508, -1256426.9, -29419.094, 0.0046569863, 9.9989605, 10.000035 
2.0750836e+3, 1.8479449e+2, -1309192.6, -1267458.9, -18232.434, 0.023593456, -0.04313533, -1260615.8, -131608.2, 0.00014131474, 9.9989395, 9.999507 
2.0750943e+3, 1.9479457e+2, -1093483.9, -1085489.5, 8252.647, -0.11532158, -0.0388731, -1080317.0, -49308.43, 0.0000000002137382, 9.999652, 9.999725 
2.0751058e+3, 2.047942e+2, -929430.9, -965433.4, 11778.198, -0.15921251, -0.04771969, -925920.0, 7090.5938, 0.0, 10.000111, 9.9996805 
2.0751187e+3, 2.1479312e+2, -781895.6, -825543.75, 49051.84, -0.0767822, -0.16687201, -750032.0, 84984.05, 0.0, 10.000414, 9.999802 
2.0751303e+3, 2.2479211e+2, -739595.4, -919283.8, 1903.9918, -0.08061183, -0.17614125, -739575.2, -2550.0747, 0.0, 10.000724, 9.998347 
2.0751403e+3, 2.3479113e+2, -548323.6, -759355.56, 17831.982, -0.1590284, -0.15677741, -546827.44, 92211.49, 0.0, 10.00133, 9.998455 
2.075151e+3, 2.4479078e+2, -441531.13, -656002.4, -5517.3726, -0.16794805, -0.04033371, -441389.28, 99655.31, 0.0, 10.001342, 9.998513 
2.0751628e+3, 2.5479096e+2, -369085.75, -547386.0, -18839.438, -0.07524836, 0.07768396, -367116.88, 75926.1, 0.0, 10.001102, 9.998679 
2.075174e+3, 2.647892e+2, -326083.56, -581138.4, -16800.068, -0.093329035, 0.07473192, -324981.75, 20079.2, 0.000000021824269, 10.001136, 9.997784 
2.0751843e+3, 2.7478525e+2, -79608.336, -382641.53, 5886.675, -0.20084803, -0.15268195, -79494.02, 167606.08, 0.00000084431264, 10.002065, 9.998001 
2.075196e+3, 2.8478375e+2, 39028.254, -213597.88, -38245.098, -0.146733, -0.13024236, 44691.24, 193804.97, 0.000005133315, 10.001915, 9.998589 
2.0752084e+3, 2.9478443e+2, 11583.414, -159491.02, 8640.2, 0.084244706, 0.00874096, 12018.685, 63123.64, 0.000023723636, 10.000994, 9.998709 
2.0752195e+3, 3.0478048e+2, 48689.14, -179974.16, 142699.67, -0.10775419, -0.22408812, 117209.68, 117209.68, 0.00007269807, 10.001185, 9.998161 
2.0752332e+3, 3.147819e+2, 334845.94, -1961.9867, -161809.67, -0.2010714, -0.013003579, 399984.84, 399984.84, 0.00016065389, 10.003002, 9.998458 
2.0850146e+3, 1.2477834e+2, -1674168.5, -1591109.8, 447.65448, -0.047008783, -0.018262284, -1591107.3, 126059.72, 0.40993002, 9.999607, 10.001586 
2.085023e+3, 1.347787e+2, -1692063.1, -1519596.1, -157516.92, -0.23763698, -0.23460013, -1426252.9, 192902.75, 0.29801235, 9.9987955, 10.001615 
2.0850362e+3, 1.4478113e+2, -1698317.0, -1668971.4, -42536.367, 0.05270719, -0.043473627, -1638648.3, -117518.03, 0.18298064, 9.998991, 9.999428 
2.085047e+3, 1.5477991e+2, -1555764.6, -1486275.9, -28214.494, -0.09993994, -0.19201781, -1476262.8, -53114.855, 0.088167645, 9.999049, 9.999967 
2.0850591e+3, 1.6478077e+2, -1452030.1, -1374664.0, -68716.46, -0.07436823, -0.110761, -1334490.6, -9347.902, 0.029713616, 9.999014, 10.000099 
2.0850715e+3, 1.7478207e+2, -1264118.6, -1221139.1, -82789.734, 0.06619111, -0.029478727, -1157095.5, 70035.19, 0.005333032, 9.999622, 10.000164 
2.0850833e+3, 1.8478224e+2, -1165384.1, -1182463.6, -12914.524, 0.07235631, -0.0018708578, -1158441.1, -29311.828, 0.00018960002, 9.99986, 9.999659 
2.0850943e+3, 1.9478172e+2, -1019888.56, -1038639.9, -26075.229, -0.085424855, -0.06610174, -1001554.6, 29579.787, 0.000000020895914, 10.000118, 9.999824 
2.0851062e+3, 2.0478143e+2, -922814.06, -936989.3, -38669.797, -0.11564175, -0.07929764, -890587.7, 42547.95, 0.0, 10.000087, 9.999869 
2.0851193e+3, 2.1478117e+2, -825409.06, -820940.06, -56992.87, -0.025947735, -0.14014876, -766137.94, 68997.26, 0.0, 10.000026, 10.000005 
2.0851311e+3, 2.2478056e+2, -753761.06, -877338.3, -57218.402, -0.030309495, -0.14090313, -731337.0, 5802.8574, 0.0, 10.000394, 9.998811 
2.0851415e+3, 2.3477957e+2, -522748.38, -694674.6, -38178.723, -0.1581762, -0.16487484, -514651.56, 124499.15, 0.0, 10.001254, 9.998949 
2.0851526e+3, 2.4477915e+2, -434153.44, -674949.25, -42273.27, -0.15355335, -0.073215544, -426947.72, 114209.336, 0.0, 10.001479, 9.99832 
2.0851643e+3, 2.547791e+2, -385638.53, -585060.8, -53591.44, -0.022057127, 0.048566364, -372149.2, 71011.58, 0.0, 10.001102, 9.998427 
2.0851758e+3, 2.647777e+2, -306238.1, -523273.06, 37158.625, -0.019641839, 0.07623044, -300052.44, 45123.21, 0.0, 10.001069, 9.998211 
2.0851862e+3, 2.7477476e+2, -144692.02, -366337.4, 47171.34, -0.18221787, -0.0951361, -135070.52, 112132.74, 0.000000115745564, 10.001421, 9.998418 
2.085198e+3, 2.8477317e+2, 11856.218, -231569.13, -23194.02, -0.109618306, -0.103535846, 14046.48, 163263.47, 0.0000020138657, 10.0017185, 9.998567 
2.0852107e+3, 2.9477286e+2, 133254.55, -94056.125, -70234.08, 0.18300693, -0.052717295, 153204.45, 204422.31, 0.000014504671, 10.001803, 9.998766 
2.0852205e+3, 3.047705e+2, 212872.33, -81166.51, 184258.78, -0.15488483, -0.14745866, 301577.34, 301577.34, 0.00005340342, 10.002157, 9.998402 
2.0852359e+3, 3.147717e+2, 273860.0, -90353.64, -116871.77, -0.18208705, 0.044940073, 308136.88, 308136.88, 0.0001257325, 10.002696, 9.998051 
2.0950156e+3, 1.24762945e+2, -1759527.9, -1748513.4, 117040.3, -0.0071587763, -0.24515232, -1636850.8, 80464.766, 0.42994058, 9.999742, 10.000075 
2.0950226e+3, 1.3476336e+2, -1719681.3, -1572640.9, -154444.7, -0.17955947, -0.37363082, -1475110.3, 144198.67, 0.31401625, 9.998822, 10.001149 
2.0950337e+3, 1.4476916e+2, -1613690.4, -1533892.8, -47387.113, -0.14005706, 0.121241815, -1511844.4, 9407.929, 0.19429262, 9.9991455, 10.000299 
2.0950463e+3, 1.547674e+2, -1525906.4, -1438991.6, -23123.79, -0.11949916, -0.12422858, -1433222.4, -9949.105, 0.094824284, 9.999108, 10.000264 
2.0950586e+3, 1.6476795e+2, -1433744.3, -1373235.6, -70410.32, -0.07980938, -0.07983915, -1326854.9, -1584.3881, 0.032688897, 9.999165, 10.000038 
2.0950696e+3, 1.747696e+2, -1248401.9, -1198133.5, -53048.72, -0.14361802, 0.02468192, -1164566.0, 62689.746, 0.0061590113, 9.999659, 10.000305 
2.0950814e+3, 1.8476954e+2, -1156901.0, -1186962.8, -18597.072, -0.15322828, 0.02474831, -1148020.0, -18764.145, 0.00026052183, 9.999951, 9.999583 
2.0950952e+3, 1.9476813e+2, -1040308.06, -1067116.3, -8907.824, -0.03194601, -0.115466386, -1037618.06, -6350.2207, 0.00000016154512, 10.000059, 9.999656 
2.0951077e+3, 2.04768e+2, -966897.44, -988447.94, -54608.855, -0.014436608, -0.091526575, -922010.94, 11258.106, 0.0, 9.999915, 9.999597 
2.0951186e+3, 2.147691e+2, -877811.8, -874909.75, -49078.883, -0.11475932, 0.009140036, -827260.44, 8000.091, 0.0, 9.999801, 9.999736 
2.0951307e+3, 2.2476922e+2, -739663.8, -775766.0, -37434.293, -0.16930504, 0.05205794, -716155.75, 21102.42, 0.0, 10.000082, 9.999656 
2.095143e+3, 2.3476829e+2, -502694.53, -587343.2, 8072.5435, -0.14883292, -0.056053422, -501931.56, 137331.28, 0.0, 10.000972, 9.999822 
2.0951545e+3, 2.4476697e+2, -481005.13, -681472.25, -68666.055, -0.14185616, -0.10495232, -459740.56, 81533.92, 0.0, 10.001092, 9.99846 
2.0951648e+3, 2.5476503e+2, -405510.53, -580288.25, -53657.066, -0.12951851, -0.18659997, -390352.34, 52943.61, 0.0, 10.000903, 9.998555 
2.0951755e+3, 2.647644e+2, -305350.78, -452245.0, 34780.15, -0.1693662, -0.12333476, -297532.06, 47770.656, 0.0, 10.000784, 9.998831 
2.0951875e+3, 2.74765e+2, -144451.75, -305070.28, 74968.305, -0.22119468, 0.000094411895, -114898.266, 132396.23, 0.0, 10.001164, 9.998959 
2.0952e+3, 2.847635e+2, -114359.36, -378257.38, -38832.87, -0.12623252, 0.011009431, -108763.71, 40544.973, 0.00000039293647, 10.001234, 9.99779 
2.0952122e+3, 2.9475996e+2, 54600.246, -184047.1, -42912.09, 0.10741301, -0.19508022, 62081.883, 113426.305, 0.000007667558, 10.0014925, 9.998298 
2.0952214e+3, 3.0476144e+2, 152898.2, -26431.652, 179528.95, -0.31216574, 0.07431323, 263908.25, 263908.25, 0.000037309022, 10.001447, 9.999094 
2.0952402e+3, 3.1475946e+2, 83286.85, -230953.84, 116977.945, -0.09400312, -0.104800165, 122050.766, 122050.766, 0.00009614077, 10.001705, 9.997516 
2.1050154e+3, 1.2475113e+2, -2000230.1, -1924674.0, 101009.53, 0.08028664, 0.13270955, -1854609.1, -137175.3, 0.44859928, 9.998229, 9.999362 
2.1050222e+3, 1.3474862e+2, -1752158.9, -1525314.1, -187755.8, -0.06093484, -0.3962649, -1419380.9, 200076.05, 0.3298663, 9.998233, 10.001957 
2.1050327e+3, 1.4475618e+2, -1702147.4, -1533928.3, -55669.65, -0.10711779, 0.217982, -1517173.9, 4209.079, 0.20615475, 9.998369, 10.000659 
2.1050455e+3, 1.5475464e+2, -1647527.6, -1441115.3, -72572.39, -0.05581826, -0.05441933, -1418153.9, 5245.9814, 0.10215144, 9.998059, 10.000741 
2.1050577e+3, 1.6475464e+2, -1542223.6, -1447037.0, -29314.113, -0.050997034, -0.080138445, -1438733.6, -113331.664, 0.036114734, 9.998524, 9.999825 
2.1050692e+3, 1.7475612e+2, -1125277.8, -1160031.3, -54742.516, -0.1898386, 0.027029341, -1085220.3, 142169.83, 0.007176738, 10.0006, 10.000104 
2.1050812e+3, 1.8475647e+2, -1036064.25, -1105550.8, -83624.19, -0.16959012, 0.06468079, -980253.1, 149133.45, 0.0003661867, 10.000682, 9.99979 
2.1050952e+3, 1.9475538e+2, -1191926.5, -1114626.6, -74778.56, 0.017970622, -0.06283268, -1069100.3, -37705.973, 0.00000091193453, 9.998916, 9.999877 
2.1051076e+3, 2.0475519e+2, -1151700.3, -1102932.1, -19283.322, 0.06802699, -0.047534924, -1096228.8, -162832.55, 0.0, 9.9987135, 9.999413 
2.1051191e+3, 2.1475576e+2, -805638.0, -872954.2, -30853.547, -0.065646715, 0.02555539, -793636.4, 41757.72, 0.0, 10.000384, 9.999502 
2.1051311e+3, 2.2475602e+2, -666054.25, -669166.9, -47982.5, -0.11279667, 0.065239675, -619602.9, 117787.16, 0.0, 10.000304, 10.000265 
2.1051434e+3, 2.347558e+2, -805108.75, -661021.3, -54383.74, -0.092762224, -0.031886995, -642799.4, -3414.2188, 0.0, 9.998603, 10.000442 
2.105155e+3, 2.4475473e+2, -759179.0, -798433.3, -54300.44, -0.08743544, -0.09498655, -721067.44, -179674.27, 0.0, 9.999092, 9.998631 
2.105166e+3, 2.547526e+2, -250143.81, -485952.13, -61587.95, -0.13319731, -0.210667, -235027.42, 208389.03, 0.0, 10.00189, 9.998729 
2.1051775e+3, 2.647519e+2, -29238.178, -313887.78, -35914.215, -0.15208675, -0.16241728, -24776.809, 320646.4, 0.0, 10.002634, 9.998903 
2.1051893e+3, 2.7475256e+2, -147166.69, -304421.7, -66213.71, -0.14225775, -0.033957608, -123000.516, 124413.8, 0.0, 10.001119, 9.998996 
2.1052016e+3, 2.8475112e+2, -146061.47, -397429.4, -86964.84, -0.057330426, -0.012365711, -118907.8, 30520.643, 0.00000006547354, 10.001071, 9.997717 
2.1052134e+3, 2.9474744e+2, 205886.88, -130935.39, -104286.49, 0.042233814, -0.21214293, 235561.53, 287029.0, 0.000004738257, 10.002654, 9.998091 
2.1052244e+3, 3.0474925e+2, 362731.97, 10910.049, 76432.62, -0.22162798, 0.12426943, 378619.38, 378619.38, 0.00002905632, 10.003134, 9.998545 
2.1052437e+3, 3.1474578e+2, 226101.45, -38009.914, -102441.48, 0.066977516, -0.13744263, 261177.33, 261177.33, 0.00007991688, 10.002112, 9.998656 
2.115012e+3, 1.2473809e+2, -2033754.0, -2025309.1, -38655.17, -0.18727055, 0.6033984, -1990646.5, -273077.53, 0.46656317, 9.99836, 9.998604 
2.1150208e+3, 1.347346e+2, -1591168.9, -1303155.4, -139039.56, -0.07852384, -0.29139483, -1246987.4, 372611.34, 0.34608045, 9.9983425, 10.004073 
2.1150325e+3, 1.4474185e+2, -1690410.4, -1562214.5, -67926.43, -0.04599556, 0.21515504, -1532917.9, -11392.596, 0.21890919, 9.998587, 10.000357 
2.1150441e+3, 1.547415e+2, -1581771.9, -1345575.6, -78669.2, -0.044791833, 0.012346237, -1321772.3, 101756.38, 0.110347085, 9.998193, 10.001407 
2.1150556e+3, 1.6474071e+2, -1539184.5, -1476679.8, 27007.738, -0.16048291, -0.1228315, -1466626.9, -141088.25, 0.040102176, 9.998673, 9.99955 
2.1150698e+3, 1.7474164e+2, -1163397.3, -1243745.0, 31564.486, -0.20164438, -0.018035918, -1152480.4, 75053.52, 0.008443992, 10.000611, 9.999524 
2.1150827e+3, 1.8474281e+2, -1000944.9, -1039119.4, -163310.86, -0.15161467, 0.10983393, -855609.6, 273913.78, 0.00052604213, 10.000711, 10.000229 
2.1150935e+3, 1.947433e+2, -1165978.6, -1042067.06, -134767.16, -0.056194786, 0.089990534, -955696.5, 75818.82, 0.0000034897541, 9.998843, 10.000402 
2.115106e+3, 2.047428e+2, -1188094.3, -1135473.4, 24928.16, -0.02734961, 0.051472742, -1125539.4, -192020.36, 0.0, 9.99853, 9.999277 
2.1151203e+3, 2.1474124e+2, -853611.06, -910442.4, 41476.67, -0.0111131575, -0.07204116, -831749.8, 3785.3777, 0.0, 10.00014, 9.999354 
2.1151325e+3, 2.2474104e+2, -697324.4, -657260.7, -119739.1, -0.041840475, -0.08460577, -555889.4, 181645.38, 0.0, 9.99997, 10.000508 
2.115142e+3, 2.3474205e+2, -814161.56, -639535.25, -105111.07, -0.11066806, -0.083310746, -590203.2, 49315.605, 0.0, 9.998426, 10.000675 
2.1151535e+3, 2.4474223e+2, -792757.7, -795929.8, 33326.598, -0.16698126, -0.043326758, -760979.44, -219464.38, 0.0, 9.998788, 9.998787 
2.1151677e+3, 2.5474143e+2, -276910.97, -483526.4, 54553.113, -0.16545284, -0.046480183, -263391.78, 180133.73, 0.0, 10.001648, 9.998854 
2.1151805e+3, 2.6474002e+2, -128416.03, -418402.94, -100789.03, -0.1459249, -0.052144676, -96826.555, 248713.0, 0.0, 10.002211, 9.998383 
2.1151912e+3, 2.7473766e+2, -207800.44, -379148.8, -103395.5, -0.09702771, -0.17956181, -159196.2, 88363.73, 0.0, 10.000901, 9.998583 
2.1152024e+3, 2.8473583e+2, -191393.22, -401134.75, -46299.492, -0.14082421, -0.18774799, -181627.52, -32049.37, 0.00000005479561, 10.000682, 9.997878 
2.1152142e+3, 2.9473475e+2, 150688.33, -180580.52, -14926.583, -0.19470507, -0.15525062, 151359.55, 202952.64, 0.0000044706885, 10.002355, 9.997899 
2.1152285e+3, 3.0473363e+2, 87819.195, -326637.94, 18127.814, -0.18882672, 0.013449708, 88610.57, 88610.57, 0.000027145721, 10.002206, 9.996636 
2.115246e+3, 3.147311e+2, 197626.28, 151448.33, -22578.13, 0.025126068, -0.021281073, 206830.84, 206830.84, 0.00007500438, 10.001129, 10.000398 
2.1250124e+3, 1.24714985e+2, -2045876.1, -1747075.5, 188688.63, 0.069872834, -0.3595302, -1655802.1, 61990.895, 0.48543465, 9.996831, 10.001604 
2.125019e+3, 1.347217e+2, -1566953.9, -1320239.8, -90364.06, -0.07765616, -0.18725125, -1290683.1, 329042.16, 0.3637423, 9.998697, 10.003771 
2.125032e+3, 1.4472622e+2, -1691723.5, -1588083.9, -49461.406, 0.0616444, 0.07993457, -1568267.6, -46587.61, 0.23315269, 9.998671, 10.000145 
2.1250434e+3, 1.5472724e+2, -1376266.4, -1262575.0, -118722.08, 0.007749314, 0.025479646, -1187791.1, 235879.22, 0.1197026, 9.999651, 10.00138 
2.1250552e+3, 1.6472703e+2, -1389722.1, -1364432.1, -4039.598, -0.10339451, -0.06931114, -1363802.5, -38128.84, 0.044803485, 9.999512, 9.999931 
2.1250701e+3, 1.7472765e+2, -1442152.0, -1344191.8, 41627.535, -0.1263507, -0.024394467, -1328892.0, -101221.695, 0.01004214, 9.998547, 9.999831 
2.125083e+3, 1.8472874e+2, -1313376.6, -1195631.1, -136647.03, -0.0805805, 0.0834519, -1105714.1, 23946.043, 0.0007722133, 9.998579, 10.00018 
2.125093e+3, 1.9472939e+2, -976762.8, -961861.2, -173241.66, -0.0599545, 0.08257404, -795910.2, 235742.17, 0.000010944595, 10.000161, 10.000333 
2.1251053e+3, 2.0472902e+2, -880830.6, -942257.3, 19195.9, -0.021294722, 0.044913083, -875325.3, 58328.81, 0.0, 10.000465, 9.999659 
2.1251206e+3, 2.1472761e+2, -902797.25, -885192.75, 45018.03, 0.025346482, -0.106106915, -848124.5, -12458.572, 0.0, 9.999619, 9.999756 
2.1251331e+3, 2.2472721e+2, -742440.0, -754518.94, -111577.32, 0.019666567, -0.12623876, -636738.8, 100928.836, 0.0, 9.999973, 9.999846 
2.125142e+3, 2.347278e+2, -393846.3, -513648.88, -185587.05, -0.09921448, -0.097735755, -258732.95, 380927.1, 0.0, 10.001641, 9.999996 
2.125154e+3, 2.4472797e+2, -363522.44, -566224.94, -43030.117, -0.14350356, -0.033413094, -354766.16, 186891.75, 0.0, 10.001658, 9.998973 
2.1251689e+3, 2.547275e+2, -514220.13, -577705.44, -50330.133, -0.11485189, -0.013937724, -486458.84, -42795.16, 0.0, 9.999945, 9.99903 
2.1251822e+3, 2.6472628e+2, -472279.75, -544682.2, -171614.83, -0.061443936, -0.022670498, -333089.5, 12585.511, 0.0, 9.999692, 9.998723 
2.1251926e+3, 2.747239e+2, -182237.31, -327901.94, -157255.03, -0.03968726, -0.18338618, -81767.33, 165928.84, 0.0, 10.000938, 9.998908 
2.1252036e+3, 2.847226e+2, -28077.986, -295789.28, -10085.095, -0.10337386, -0.16935237, -27698.604, 122009.695, 0.000000117451826, 10.001657, 9.998156 
2.1252161e+3, 2.9472238e+2, 79127.39, -186089.69, -14364.748, -0.20583722, -0.060652677, 79903.15, 131615.14, 0.0000050467984, 10.001729, 9.99817 
2.1252319e+3, 3.0471915e+2, 92383.35, -398847.5, 98947.664, -0.031832278, -0.09476039, 111565.164, 111565.164, 0.00002697455, 10.002443, 9.996095 
2.1252488e+3, 3.147177e+2, 440547.28, 259989.86, -15247.918, 0.13307017, 0.06094406, 441825.88, 441825.88, 0.00007158717, 10.002711, 10.000457 
2.135017e+3, 1.3471027e+2, -1736196.4, -1589965.1, -141253.86, -0.19041616, 0.012837046, -1504025.5, 115807.516, 0.38411817, 9.998778, 10.001039 
2.135031e+3, 1.4470913e+2, -1685384.0, -1617320.1, -55321.254, 0.014637439, -0.16937031, -1586401.3, -64552.75, 0.24951555, 9.998842, 9.999858 
2.1350431e+3, 1.5471178e+2, -1404314.0, -1341876.8, -82153.17, -0.030992525, -0.004540152, -1285210.5, 138614.9, 0.13052814, 9.999749, 10.000722 
2.1350557e+3, 1.6471349e+2, -1293350.0, -1209522.3, -53042.723, -0.064432375, 0.07284245, -1183832.1, 141976.69, 0.050404422, 9.999693, 10.000948 
2.1350694e+3, 1.7471401e+2, -1360263.8, -1178034.8, 10883.656, -0.09106824, -0.00091441424, -1177387.0, 50413.22, 0.012084308, 9.998565, 10.000962 
2.1350816e+3, 1.847142e+2, -1342398.5, -1274043.4, -93027.69, -0.12227464, -0.017182328, -1209113.6, -79315.92, 0.001155736, 9.998655, 9.999606 
2.1350928e+3, 1.947137e+2, -1030336.2, -1061723.5, -103874.71, -0.120264366, -0.0688928, -940976.3, 90828.336, 0.000030850606, 10.000107, 9.999676 
2.1351054e+3, 2.047138e+2, -851833.06, -837423.2, -24547.98, -0.104416795, -0.064037904, -819044.6, 114757.3, 0.0, 10.000276, 10.00047 
2.1351194e+3, 2.1471454e+2, -873894.94, -772951.8, 23419.111, -0.061115574, -0.08647606, -767783.1, 68006.234, 0.0, 9.999397, 10.000633 
2.1351321e+3, 2.2471441e+2, -898323.44, -991454.75, -59480.477, -0.09172038, -0.056551848, -869349.1, -131559.08, 0.0, 9.999617, 9.9983835 
2.1351431e+3, 2.3471305e+2, -541000.0, -763186.56, -109359.5, -0.18365388, -0.06771199, -496204.78, 143603.8, 0.0, 10.001404, 9.998396 
2.1351552e+3, 2.4471189e+2, -410760.8, -585030.44, -114585.64, -0.20472574, -0.05581769, -353943.06, 187878.97, 0.0, 10.001325, 9.999 
2.1351692e+3, 2.5471082e+2, -532582.94, -575007.94, -99122.74, -0.10749906, -0.10829304, -452428.3, -8597.579, 0.0, 9.999768, 9.999128 
2.1351819e+3, 2.647105e+2, -457798.5, -436496.25, -139146.3, -0.07433984, -0.08168357, -307594.03, 38238.2, 0.0, 9.999371, 9.999613 
2.135193e+3, 2.7471063e+2, -155943.95, -222855.6, -94916.29, -0.102104485, -0.07792494, -88759.84, 159068.55, 0.00000000014169585, 10.000716, 9.999737 
2.1352051e+3, 2.8471044e+2, -88840.88, -298968.38, -25072.834, -0.17582902, -0.004094384, -85890.56, 63936.855, 0.000000256191, 10.001161, 9.998352 
2.1352185e+3, 2.9470992e+2, 66909.58, -145748.22, 20674.39, -0.16400899, 0.036691118, 68900.875, 120729.84, 0.0000052967753, 10.001438, 9.998584 
2.1352343e+3, 3.0470446e+2, 735.711, -367278.22, 107535.81, -0.08941268, -0.27741072, 29854.328, 29854.328, 0.000025200057, 10.001578, 9.996687 
2.1352492e+3, 3.1470135e+2, 143766.0, -30968.145, 15117.726, -0.15908222, -0.33891678, 145064.33, 145064.33, 0.00006359548, 10.00143, 9.999022 
2.1450171e+3, 1.3469769e+2, -1804609.4, -1731692.8, -47643.793, -0.039458286, 0.049608074, -1708158.3, -88202.805, 0.40760165, 9.998791, 9.999678 
2.1450293e+3, 1.4469525e+2, -1686213.9, -1616556.8, 41920.086, -0.015990077, -0.19813806, -1596884.6, -74899.664, 0.26811564, 9.998843, 9.999852 
2.145042e+3, 1.5469812e+2, -1438623.0, -1366910.6, 34129.98, -0.08639085, -0.0073632356, -1353264.0, 70694.99, 0.14296411, 9.999545, 10.000609 
2.1450557e+3, 1.647e+2, -1319528.4, -1236330.6, 15589.764, -0.022505546, 0.10401664, -1233505.3, 92434.97, 0.057087187, 9.999588, 10.000808 
2.1450694e+3, 1.7469996e+2, -1277439.6, -1147446.6, -37428.273, 0.01974564, -0.021203356, -1137440.3, 90497.27, 0.014719365, 9.999194, 10.000871 
2.1450816e+3, 1.8469974e+2, -1290786.5, -1250040.1, -82312.695, -0.01232665, -0.07102903, -1185616.9, -55677.984, 0.0017550356, 9.999018, 9.999597 
2.1450928e+3, 1.9469935e+2, -1096495.9, -1092526.1, -67994.1, -0.10211457, -0.11278942, -1026487.9, 5456.4165, 0.00008036648, 9.999662, 9.999668 
2.1451052e+3, 2.0469962e+2, -918060.8, -892841.5, -27663.178, -0.10941117, -0.08100437, -875049.6, 58890.844, 0.000000018813253, 9.999927, 10.0002575 
2.1451192e+3, 2.147005e+2, -795045.1, -762632.44, -82567.34, -0.06760562, -0.06514284, -694696.0, 141231.77, 0.0, 10.000039, 10.000403 
2.1451321e+3, 2.2470038e+2, -821061.1, -964251.75, -87733.55, -0.06347536, -0.018166035, -779417.5, -41487.9, 0.0, 10.000186, 9.998302 
2.1451445e+3, 2.3469892e+2, -677357.9, -834475.4, -56152.402, -0.13224119, -0.026441485, -659352.8, -19403.023, 0.0, 10.000499, 9.9983425 
2.145157e+3, 2.4469773e+2, -489304.3, -609128.75, -43107.887, -0.13708398, -0.02089699, -475407.56, 66555.66, 0.0, 10.0007105, 9.999143 
2.1451697e+3, 2.5469673e+2, -370652.53, -481231.1, -48918.734, -0.089831084, -0.07985402, -352118.06, 91852.11, 0.0, 10.000803, 9.999279 
2.1451822e+3, 2.646962e+2, -259526.05, -381126.1, -54889.57, -0.048186645, -0.062403757, -238414.48, 107558.64, 0.0, 10.000882, 9.999272 
2.1451946e+3, 2.7469605e+2, -149121.42, -256172.42, -133534.77, -0.04585326, -0.054541633, -58784.1, 189189.39, 0.00000000016893417, 10.000921, 9.99941 
2.1452071e+3, 2.8469566e+2, -88978.28, -307118.75, -96516.016, -0.07117094, 0.016107224, -52406.293, 97567.93, 0.0000002738674, 10.001147, 9.998316 
2.1452205e+3, 2.9469463e+2, 91355.45, -116382.06, -114366.5, -0.09650056, 0.0151837375, 141980.77, 193960.27, 0.0000047479944, 10.001538, 9.998728 
2.1452363e+3, 3.0469012e+2, 147317.48, -153393.77, 14444.954, -0.044762176, -0.292725, 148009.77, 148009.77, 0.000021563434, 10.001859, 9.998062 
2.145252e+3, 3.146885e+2, 109622.266, -90632.555, -161106.36, -0.0010460821, -0.31735578, 199180.8, 199180.8, 0.000054127682, 10.001282, 9.998698 
2.1550187e+3, 1.3468412e+2, -1806323.6, -1762414.9, -45716.3, 0.12869866, -0.060941853, -1733654.6, -113563.15, 0.43279883, 9.998933, 9.999384 
2.1550259e+3, 1.4468424e+2, -1616542.4, -1561628.5, 17883.025, -0.340139, -0.059190795, -1556318.4, -34224.99, 0.28823382, 9.999205, 10.000061 
2.1550398e+3, 1.5468621e+2, -1407416.4, -1331886.0, 60012.676, -0.30440518, 0.0118243145, -1298744.8, 125326.89, 0.15688464, 9.999664, 10.000844 
2.1550545e+3, 1.6468665e+2, -1388251.6, -1417953.8, -10792.005, -0.1657518, 0.028812753, -1384744.6, -58677.164, 0.06501248, 9.999782, 9.999427 
2.1550693e+3, 1.7468539e+2, -1373290.0, -1345697.5, -50327.094, 0.06868154, -0.07853752, -1307309.9, -79227.03, 0.018139776, 9.999206, 9.999489 
2.1550818e+3, 1.8468522e+2, -1241080.4, -1167728.6, -76407.875, 0.07249059, -0.07695382, -1119650.3, 10434.606, 0.0026903055, 9.999098, 10.000128 
2.1550925e+3, 1.9468622e+2, -1057850.9, -998607.5, -35188.105, -0.14173561, -0.0416538, -982233.0, 49839.184, 0.00019736934, 9.999608, 10.000337 
2.1551044e+3, 2.0468639e+2, -1023529.3, -1081337.9, -37250.24, -0.21709685, 0.0011456287, -1005284.5, -71214.34, 0.0000007869328, 9.999788, 9.999033 
2.1551186e+3, 2.1468541e+2, -911406.8, -966084.6, -68263.68, -0.12786947, -0.039583884, -865211.06, -29129.33, 0.0, 9.999867, 9.999092 
2.1551326e+3, 2.2468506e+2, -785775.4, -821419.2, -87688.84, -0.08678398, -0.004834991, -714115.7, 23971.047, 0.0, 9.999882, 9.999428 
2.1551457e+3, 2.3468523e+2, -621174.56, -668717.2, -30727.877, -0.08230322, 0.023445688, -606096.44, 33989.24, 0.0, 10.000283, 9.999583 
2.1551582e+3, 2.4468525e+2, -528664.56, -602470.5, -51954.715, -0.11841112, 0.07232244, -501840.6, 40243.992, 0.0, 10.000346, 9.999356 
2.1551697e+3, 2.5468484e+2, -389444.97, -473405.4, -33472.92, -0.17822294, 0.056505647, -377733.72, 66351.805, 0.0, 10.000599, 9.999432 
2.155182e+3, 2.646831e+2, -419004.47, -630385.2, -62092.867, -0.1683062, 0.017506303, -402114.34, -56013.086, 0.0, 10.000539, 9.997723 
2.155196e+3, 2.7467975e+2, -287176.63, -499574.25, -114809.83, -0.019508801, -0.13504648, -236980.14, 11154.101, 0.0, 10.00073, 9.997833 
2.1552092e+3, 2.8467762e+2, -184286.14, -390386.88, -93774.91, -0.007683252, -0.14155897, -148005.56, 2148.751, 0.000000100631844, 10.000695, 9.997944 
2.1552217e+3, 2.9467642e+2, 5350.143, -202499.36, -65463.24, -0.16432363, -0.12795158, 24249.615, 76413.31, 0.0000031808167, 10.001149, 9.998321 
2.1552363e+3, 3.0467477e+2, 130685.734, 43212.465, -20265.18, -0.28615928, -0.20983642, 135152.53, 135152.53, 0.000016664693, 10.000931, 9.999826 
2.1552551e+3, 3.1467992e+2, -30253.775, -166370.47, -18252.51, 0.09497497, 0.2225359, -27848.709, -27848.709, 0.000045618737, 10.0004, 9.998586 
2.1650176e+3, 1.3467158e+2, -1777772.3, -1676217.0, 10657.034, 0.15495317, -0.04585669, -1675110.8, -54893.492, 0.45757636, 9.998905, 10.000027 
2.1650252e+3, 1.4467175e+2, -1524934.0, -1500634.9, 18284.422, -0.34678197, -0.047143813, -1490831.5, 31382.387, 0.3088363, 9.999761, 10.000296 
2.1650393e+3, 1.5467325e+2, -1419087.1, -1343939.8, 28536.76, -0.3052481, -0.03720471, -1334331.6, 89863.63, 0.17204043, 9.999599, 10.000773 
2.1650542e+3, 1.6467339e+2, -1513590.3, -1552524.3, -28262.45, -0.13474403, -0.012512414, -1498739.1, -172544.44, 0.07433442, 9.999203, 9.998792 
2.1650688e+3, 1.7467222e+2, -1332450.4, -1393034.8, -21147.135, 0.080222696, -0.054778237, -1325799.1, -97586.41, 0.022589553, 9.999735, 9.998928 
2.1650815e+3, 1.8467207e+2, -1115015.4, -1100119.9, 4791.7925, 0.107246056, -0.022241162, -1098711.5, 31504.213, 0.00413868, 9.9999695, 10.000162 
2.1650928e+3, 1.9467296e+2, -957558.6, -953876.0, -32326.652, -0.08895764, 0.0026711787, -923338.25, 108865.08, 0.00045452762, 10.000325, 10.000305 
2.1651052e+3, 2.0467278e+2, -942923.4, -1086211.6, -19501.148, -0.14848156, 0.032648355, -940316.75, -6112.157, 0.000007502901, 10.0005045, 9.998661 
2.1651192e+3, 2.1467134e+2, -805278.8, -956814.9, -7991.8115, -0.107783556, -0.016250843, -804858.5, 31363.797, 0.0, 10.000773, 9.998722 
2.1651328e+3, 2.246708e+2, -646696.8, -724124.56, -4606.7144, -0.060253516, 0.008737465, -646423.7, 91804.875, 0.0, 10.000722, 9.999681 
2.1651468e+3, 2.3467107e+2, -573282.2, -618963.4, -43453.95, -0.025756638, 0.019480512, -547031.7, 93192.3, 0.0, 10.000495, 9.999823 
2.1651594e+3, 2.4467102e+2, -529207.44, -633960.4, -92502.42, -0.017014803, 0.06570797, -475282.5, 66940.58, 0.0, 10.000462, 9.999087 
2.1651712e+3, 2.5467044e+2, -396696.47, -493900.66, -130422.945, -0.0831052, 0.058729872, -306114.13, 138113.81, 0.0, 10.000655, 9.999245 
2.1651839e+3, 2.646688e+2, -321837.78, -609296.94, -89875.85, -0.09467594, 0.045317207, -296050.8, 50193.24, 0.0, 10.001305, 9.997504 
2.1651973e+3, 2.7466547e+2, -48866.117, -410429.84, -71333.2, -0.026730577, -0.07676314, -35301.617, 212975.36, 0.0, 10.00248, 9.9976015 
2.165211e+3, 2.8466275e+2, 84660.6, -279230.63, -2799.5107, 0.017285528, -0.12501734, 84682.14, 234985.2, 0.0000000029805467, 10.002599, 9.997801 
2.1652237e+3, 2.9466072e+2, 22768.94, -208965.56, -5850.8096, -0.08104457, -0.1684674, 22916.566, 75238.43, 0.000001345268, 10.001339, 9.998181 
2.165238e+3, 3.0466166e+2, 148266.84, 122989.45, 60433.766, -0.16512617, -0.024994517, 197369.36, 197369.36, 0.000010778314, 10.000732, 10.000473 
2.1652555e+3, 3.1466463e+2, 90667.75, -119917.36, -93056.84, 0.08986895, 0.15000452, 125896.0, 125896.0, 0.00003608632, 10.001303, 9.998464 
2.1750152e+3, 1.3466175e+2, -1661493.0, -1530691.3, -66454.54, -0.067828216, 0.28827047, -1502853.3, 117463.88, 0.48078975, 9.999319, 10.001327 
2.1750268e+3, 1.4465861e+2, -1513673.0, -1524633.3, 34031.125, -0.24430092, -0.14486116, -1484683.6, 37655.25, 0.32934, 10.000065, 9.999955 
2.1750402e+3, 1.5465939e+2, -1461142.6, -1433210.3, 24243.965, -0.21373045, -0.1383911, -1419197.5, 5130.803, 0.18832743, 9.999655, 10.000022 
2.175054e+3, 1.6465998e+2, -1482040.8, -1531622.9, -25661.31, -0.13883801, -0.025682896, -1471151.4, -144826.89, 0.0852701, 9.999385, 9.998847 
2.1750674e+3, 1.7466047e+2, -1292891.9, -1326729.0, 9617.256, -0.08146565, 0.0588802, -1290349.5, -62022.605, 0.028395085, 9.999802, 9.999344 
2.1750803e+3, 1.8466033e+2, -1151555.9, -1195381.8, 2381.2063, -0.07824082, 0.0961114, -1151426.9, -21095.318, 0.006367479, 10.000053, 9.999463 
2.1750934e+3, 1.9465932e+2, -1024458.7, -1078254.0, -11639.322, -0.07465974, 0.013099475, -1022048.4, 10291.356, 0.0009868387, 10.000268, 9.999471 
2.1751067e+3, 2.0465858e+2, -936320.25, -1039315.1, -21090.36, -0.09689325, 0.010652436, -932168.9, 2177.401, 0.000047582707, 10.000351, 9.999062 
2.1751198e+3, 2.1465807e+2, -797024.3, -892165.56, 11475.145, -0.13170013, 0.002551906, -795659.9, 40691.668, 0.00000000032497088, 10.0005665, 9.999267 
2.1751331e+3, 2.2465733e+2, -746657.1, -848590.5, -22795.072, -0.14159009, 0.012341024, -741791.75, -3433.7378, 0.0, 10.000372, 9.998993 
2.1751468e+3, 2.3465608e+2, -660128.06, -743475.0, -38683.664, -0.08862692, -0.05541645, -644941.1, -4572.829, 0.0, 10.000265, 9.999072 
2.1751602e+3, 2.4465479e+2, -642606.8, -771484.1, -97412.164, -0.028863123, -0.060345393, -590248.8, -47867.26, 0.0, 10.000055, 9.99833 
2.1751736e+3, 2.5465342e+2, -479665.34, -613505.8, -109387.12, 0.05962016, -0.07950817, -418351.97, 26046.463, 0.0, 10.000435, 9.998524 
2.1751863e+3, 2.6465303e+2, -314358.13, -497057.4, -59536.57, -0.009772736, 0.022258477, -296669.4, 49734.414, 0.0, 10.000911, 9.998455 
2.1751985e+3, 2.746529e+2, -23786.87, -287593.22, -8923.766, -0.19968519, 0.11885701, -23485.35, 224918.55, 0.0, 10.0021925, 9.998575 
2.1752116e+3, 2.846505e+2, 3677.466, -323214.53, -59907.703, -0.21821833, 0.05993981, 14310.55, 164736.38, 0.0, 10.002089, 9.997732 
2.1752256e+3, 2.9464683e+2, -35848.074, -259307.66, -36299.582, -0.059632726, -0.15499665, -30099.33, 22361.078, 0.00000028754212, 10.001039, 9.997973 
2.175241e+3, 3.0464917e+2, -22152.025, -56598.023, 42821.555, -0.0067498237, 0.1959715, 6780.3364, 6780.3364, 0.0000061263827, 10.000048, 9.999535 
2.1752548e+3, 3.1464574e+2, -69545.13, -212224.78, 57907.246, -0.19358389, -0.21324973, -49001.23, -49001.23, 0.000027574106, 10.000317, 9.998279 
2.1850273e+3, 1.4464685e+2, -1782772.6, -1622671.4, -88822.71, -0.06606978, -0.10857839, -1583149.5, -60692.19, 0.34983045, 9.99794, 10.000244 
2.1850406e+3, 1.5464537e+2, -1433126.1, -1495712.8, -33336.234, -0.17352168, -0.22388114, -1418696.6, 5770.0063, 0.2059314, 10.000148, 9.999378 
2.1850547e+3, 1.646466e+2, -1429987.3, -1485389.8, -34234.465, -0.0012445337, -0.027185015, -1413650.4, -87195.43, 0.09816949, 9.999678, 9.999018 
2.185067e+3, 1.7464684e+2, -1267405.1, -1295275.6, -30693.904, -0.09757435, 0.019715952, -1247631.3, -19172.418, 0.036017943, 9.999952, 9.99947 
2.1850793e+3, 1.8464646e+2, -1159302.5, -1246883.9, -26145.97, -0.16875276, 0.047057983, -1152090.9, -21624.592, 0.009796201, 10.00016, 9.999077 
2.1850935e+3, 1.9464557e+2, -1051433.9, -1136248.4, -30562.176, -0.09222046, 0.0123845115, -1041568.5, -9092.812, 0.0020521113, 10.0002365, 9.999094 
2.1851076e+3, 2.0464496e+2, -923636.3, -1022764.44, 8971.871, -0.031948145, 0.039042108, -922830.9, 11651.063, 0.00020967671, 10.000421, 9.999137 
2.1851213e+3, 2.1464446e+2, -692916.94, -831044.7, -19732.324, -0.07402094, 0.022983165, -690153.3, 146332.97, 0.00000086887735, 10.001242, 9.999362 
2.1851346e+3, 2.2464348e+2, -610614.94, -829296.75, -62587.23, -0.0883313, 0.023770757, -593969.4, 144525.69, 0.0, 10.001484, 9.998604 
2.1851474e+3, 2.3464188e+2, -556300.7, -730433.8, -77766.06, -0.07400531, -0.037310094, -526627.56, 113881.72, 0.0, 10.001152, 9.998732 
2.1851608e+3, 2.4464035e+2, -489608.03, -702820.94, -53724.125, -0.003960782, -0.04769352, -476836.0, 65689.23, 0.0, 10.00111, 9.998302 
2.1851748e+3, 2.5463876e+2, -332836.8, -551664.7, -41899.707, 0.08957616, -0.08148058, -325088.5, 119456.01, 0.0, 10.00145, 9.998476 
2.1851878e+3, 2.6463875e+2, -235121.11, -414133.84, 29972.088, 0.042592857, 0.04201661, -230236.19, 116309.68, 0.0, 10.001233, 9.998884 
2.1851997e+3, 2.746397e+2, -234530.83, -341192.94, 10671.585, -0.18714112, 0.20807631, -233473.61, 15061.88, 0.0, 10.0005245, 9.999023 
2.1852131e+3, 2.846377e+2, -199884.86, -384977.22, -38955.316, -0.18768893, 0.13998525, -192020.33, -41467.2, 0.0, 10.000495, 9.998097 
2.1852273e+3, 2.9463303e+2, 451.9238, -228122.78, -35353.234, 0.026563872, -0.18828963, 5795.045, 58390.918, 0.000000027227998, 10.001192, 9.998135 
2.1852429e+3, 3.0463532e+2, 148766.92, -118511.77, 103685.61, 0.13602586, 0.20687832, 184273.02, 184273.02, 0.0000044959556, 10.001752, 9.998339 
2.1852547e+3, 3.146311e+2, 197080.52, 28836.162, -42480.793, -0.28135204, -0.13631189, 207198.23, 207198.23, 0.000025056477, 10.00151, 9.999444 
2.1950258e+3, 1.4463472e+2, -1618481.5, -1351705.6, -208215.77, -0.109121405, 0.075703576, -1237816.1, 284770.47, 0.371045, 9.998068, 10.002914 
2.1950392e+3, 1.5463044e+2, -1422339.5, -1499636.5, -17359.611, -0.35625714, -0.30586424, -1418619.8, 5998.1353, 0.22535217, 10.000272, 9.999292 
2.195056e+3, 1.6463326e+2, -1385390.6, -1418680.0, -69402.74, 0.096022144, 0.0037096648, -1330664.5, -4078.4458, 0.113554515, 9.999794, 9.999419 
2.1950674e+3, 1.7463104e+2, -1294287.6, -1345915.0, -8037.7813, -0.088325895, -0.16877, -1293065.1, -64454.176, 0.046104282, 9.999937, 9.999129 
2.1950784e+3, 1.8463005e+2, -1143466.9, -1232083.9, -27285.92, -0.34223485, -0.18298031, -1135739.1, -5115.0977, 0.015073848, 10.000233, 9.999148 
2.1950923e+3, 1.9463171e+2, -1038763.8, -1102254.3, -23141.447, -0.2642552, 0.017513946, -1031224.4, 1387.0103, 0.004138987, 10.000207, 9.999343 
2.1951075e+3, 2.0463198e+2, -972919.4, -1088555.3, 20014.014, -0.14073637, 0.13622996, -969553.4, -34942.293, 0.00072646124, 10.000265, 9.998757 
2.1951228e+3, 2.1463032e+2, -758997.2, -909064.7, 20256.168, -0.077994145, 0.044089954, -756311.06, 80317.28, 0.000022642807, 10.000994, 9.998938 
2.1951362e+3, 2.246291e+2, -673749.94, -870244.3, -83995.37, -0.08886466, 0.046065815, -642738.75, 95901.91, 0.000000000011542125, 10.001095, 9.998507 
2.1951485e+3, 2.3462826e+2, -589659.75, -751904.44, -77423.26, -0.113736875, 0.062645264, -558642.9, 82005.58, 0.0, 10.000944, 9.998681 
2.1951608e+3, 2.4462746e+2, -514803.9, -651897.9, -54813.152, -0.13567491, 0.10037878, -495583.2, 47073.22, 0.0, 10.000686, 9.998847 
2.1951742e+3, 2.5462627e+2, -328691.38, -487245.0, -17681.76, -0.120891884, 0.046189386, -326743.47, 117925.07, 0.0, 10.001217, 9.999024 
2.1951875e+3, 2.646257e+2, -322317.13, -483828.16, -10781.545, -0.13257772, 0.09753176, -321600.6, 25073.55, 0.0, 10.00078, 9.998607 
2.1952009e+3, 2.7462554e+2, -292699.88, -390573.34, -150.29796, -0.14888236, 0.1729447, -292699.63, -44024.45, 0.0, 10.000246, 9.998797 
2.1952146e+3, 2.8462362e+2, -226811.1, -335552.7, -31795.271, -0.12207646, 0.09691082, -218196.8, -67505.47, 0.0, 10.000067, 9.998632 
2.195229e+3, 2.9461938e+2, -17825.76, -191805.63, 12694.894, 0.025473168, -0.24434985, -16904.324, 35823.56, 0.000000020729713, 10.000879, 9.99853 
2.1952431e+3, 3.046195e+2, -76462.65, -403239.2, 97268.08, -0.06324876, 0.002061862, -49701.49, -49701.49, 0.0000055230016, 10.00102, 9.996701 
2.1952546e+3, 3.1461847e+2, 66827.32, 33549.45, -34059.188, -0.51254755, 0.108099125, 88094.61, 88094.61, 0.000029811183, 10.000432, 9.999942 
2.2050257e+3, 1.4462267e+2, -1298743.5, -1146057.6, 3327.851, -0.05710385, 0.18723495, -1145985.1, 376724.34, 0.39437363, 10.000532, 10.003918 
2.20504e+3, 1.5461747e+2, -1632669.4, -1643061.1, -35698.34, -0.24000216, -0.1892922, -1601790.8, -177039.25, 0.24751917, 9.999013, 9.998911 
2.205056e+3, 1.6461967e+2, -1421095.5, -1400017.3, -89357.945, 0.15427804, 0.050469898, -1320579.1, 6146.4307, 0.13222682, 9.999371, 9.999773 
2.2050676e+3, 1.7461751e+2, -1202238.8, -1304520.3, -8640.056, -0.063238904, -0.12659611, -1201514.0, 27232.803, 0.059555795, 10.000527, 9.999166 
2.2050793e+3, 1.8461646e+2, -1086630.6, -1197372.6, -11423.365, -0.2710953, -0.14727539, -1085464.5, 45294.184, 0.023171267, 10.000602, 9.999213 
2.2050928e+3, 1.9461805e+2, -1013549.8, -1078449.0, -45218.332, -0.24890795, 0.03354495, -990342.6, 42404.094, 0.008108057, 10.00033, 9.999466 
2.2051074e+3, 2.0461842e+2, -981768.25, -1081305.3, 52214.242, -0.1363833, 0.15263653, -959403.3, -24658.375, 0.0021629941, 10.000145, 9.998877 
2.2051238e+3, 2.1461692e+2, -851261.4, -945899.8, 70494.195, -0.040605787, 0.06961009, -813677.44, 23082.262, 0.00023583506, 10.000305, 9.999026 
2.2051378e+3, 2.2461562e+2, -754888.8, -887934.75, 627.1246, -0.010736044, 0.05021626, -754885.9, -16113.371, 0.0000019906881, 10.000437, 9.99871 
2.2051497e+3, 2.3461483e+2, -616983.56, -746163.6, -7104.847, -0.06558923, 0.05226579, -616593.94, 24186.033, 0.0, 10.000653, 9.9988785 
2.2051619e+3, 2.4461412e+2, -499945.0, -658121.75, 39154.13, -0.10162508, 0.098292, -490783.66, 52003.24, 0.0, 10.000824, 9.998748 
2.2051749e+3, 2.5461328e+2, -361774.16, -503609.03, -999.61584, -0.16822289, 0.08746538, -361767.1, 83028.02, 0.0, 10.001034, 9.998983 
2.205188e+3, 2.6461232e+2, -290022.66, -499151.84, -18708.605, -0.1629931, 0.113321036, -288362.2, 58442.402, 0.0, 10.001117, 9.998348 
2.2052018e+3, 2.7461088e+2, -177449.1, -380065.2, -33579.16, -0.1020057, 0.093466245, -172029.08, 76789.47, 0.0, 10.001185, 9.99844 
2.2052163e+3, 2.846093e+2, -67417.63, -254372.3, -33998.496, -0.012593143, 0.06256582, -61426.832, 89405.516, 0.0, 10.001145, 9.998668 
2.2052304e+3, 2.9460624e+2, 47145.91, -149290.5, -78291.19, 0.076214895, -0.14693846, 74531.55, 127389.7, 0.00000007580395, 10.00129, 9.998622 
2.2052442e+3, 3.0460504e+2, -16683.264, -405661.38, 81003.05, -0.07427783, -0.03850575, -488.9394, -488.9394, 0.0000083740215, 10.001528, 9.996461 
2.2052579e+3, 3.1460527e+2, 278952.9, 157291.48, -92444.62, -0.27978432, 0.25164586, 328785.56, 328785.56, 0.000042885644, 10.001745, 10.000159 
2.2150277e+3, 1.4461438e+2, -1354209.1, -1227136.1, 251524.52, -0.02339958, 0.6091138, -1031247.4, 491542.2, 0.4221777, 10.00041, 10.003272 
2.2150427e+3, 1.5460631e+2, -1713247.6, -1789189.1, -24484.324, 0.110896826, 0.12738958, -1706038.1, -281168.66, 0.27423543, 9.998946, 9.997942 
2.2150539e+3, 1.6460547e+2, -1363313.4, -1329841.0, -55908.19, -0.05753114, 0.11351385, -1288217.8, 38658.813, 0.15564767, 9.999583, 10.000175 
2.2150674e+3, 1.7460613e+2, -1158274.9, -1210826.1, 29145.31, -0.17447537, 0.14728656, -1145309.5, 83557.39, 0.07778218, 10.00055, 9.999801 
2.2150818e+3, 1.8460569e+2, -1086294.1, -1206149.0, -39047.496, -0.13093112, 0.15584472, -1074695.3, 56174.723, 0.035576556, 10.000643, 9.99914 
2.215094e+3, 1.9460447e+2, -1034862.7, -1094859.1, -46287.44, -0.17125948, 0.06782, -1009702.75, 23179.844, 0.0154146915, 10.000217, 9.999404 
2.2151074e+3, 2.0460406e+2, -962460.6, -1005528.25, 48938.25, -0.20445643, 0.079855815, -930528.0, 4357.5503, 0.005714695, 9.999985, 9.999475 
2.2151238e+3, 2.1460404e+2, -837567.94, -872066.7, 87477.47, -0.100186504, 0.084852055, -765655.4, 71227.36, 0.0013616167, 10.000111, 9.999625 
2.2151382e+3, 2.2460312e+2, -791305.44, -872738.5, -5491.202, -0.04993063, 0.059880015, -790936.8, -52047.035, 0.00013056793, 10.000051, 9.998999 
2.2151506e+3, 2.346013e+2, -627674.8, -713303.94, 12099.59, -0.06087881, -0.07515105, -625998.0, 14908.795, 0.0000045921656, 10.000411, 9.999222 
2.2151631e+3, 2.4460018e+2, -622635.56, -799486.44, 25958.797, -0.10987971, -0.052057523, -618903.94, -75985.36, 0.000000030624218, 10.000362, 9.997988 
2.2151761e+3, 2.5459963e+2, -455779.53, -631306.25, 17768.564, -0.18523921, 0.03955077, -453998.88, -9072.526, 0.0, 10.000763, 9.998227 
2.2151887e+3, 2.6459816e+2, -377571.3, -579209.56, -33781.45, -0.23138691, 0.075360335, -372062.25, -25120.568, 0.0, 10.000702, 9.997991 
2.2152026e+3, 2.7459565e+2, -242063.58, -445125.16, -19563.182, -0.18205433, -0.02662256, -240196.02, 8770.124, 0.0, 10.000907, 9.998116 
2.215217e+3, 2.845945e+2, -200618.45, -404136.44, -46792.004, -0.09962965, 0.0421589, -190375.73, -39398.33, 0.0, 10.000629, 9.997871 
2.2152315e+3, 2.9459313e+2, -44613.45, -261319.16, -48987.57, 0.014758424, 0.06818657, -34054.055, 18936.775, 0.00000027397763, 10.000978, 9.997989 
2.2152449e+3, 3.0459136e+2, -31526.418, -287990.34, 75290.23, -0.20648664, 0.09010225, -11057.157, -11057.157, 0.000015050563, 10.0009365, 9.997525 
2.2152612e+3, 3.1458968e+2, 52057.523, -46921.598, 83476.95, -0.19251658, 0.08118707, 99612.375, 99612.375, 0.00007034586, 10.000667, 9.999244 
2.2250248e+3, 1.4458431e+2, -2050053.6, -1894266.5, 260424.39, -0.17293547, -0.4433157, -1700336.1, -177250.77, 0.45833316, 9.996768, 9.998858 
2.2250447e+3, 1.5459406e+2, -1363070.3, -1450312.9, -54045.31, 0.32192606, 0.35121366, -1337238.6, 87754.734, 0.30885017, 10.000874, 9.999363 
2.2250527e+3, 1.6459142e+2, -1257353.5, -1311947.1, 20748.533, -0.16454677, 0.11843848, -1250363.1, 76656.09, 0.18666483, 10.00056, 9.999821 
2.2250673e+3, 1.7459248e+2, -1216438.9, -1216500.3, 23892.393, -0.18576324, 0.18383832, -1192577.3, 36427.223, 0.103338934, 10.000035, 10.000009 
2.225083e+3, 1.8459243e+2, -1224031.0, -1260571.6, -31602.604, -0.012306666, 0.20840943, -1205797.5, -74795.54, 0.054786276, 9.999607, 9.999277 
2.225095e+3, 1.9459066e+2, -1000108.9, -1071498.6, -42300.203, -0.099152304, 0.057736576, -980455.5, 52561.9, 0.028543482, 10.000408, 9.999474 
2.2251078e+3, 2.0458978e+2, -856939.7, -940256.44, 54753.746, -0.1688113, 0.008825319, -829798.4, 105224.945, 0.013685946, 10.000668, 9.999588 
2.2251238e+3, 2.1458974e+2, -796513.9, -842586.8, 24924.559, -0.10538257, 0.005956808, -785610.5, 51409.34, 0.005262215, 10.000363, 9.999707 
2.2251384e+3, 2.2458903e+2, -742898.56, -873593.75, -55483.48, -0.034643322, 0.008030936, -722521.44, 16503.943, 0.001420654, 10.000459, 9.998808 
2.2251517e+3, 2.3458762e+2, -554484.4, -697979.6, -94103.695, -0.028208029, -0.066106275, -507896.75, 133143.89, 0.0002619265, 10.000979, 9.9990635 
2.2251643e+3, 2.4458654e+2, -476382.25, -720977.8, -52448.48, -0.049098775, -0.028689953, -465610.2, 77442.266, 0.000035642544, 10.001325, 9.998071 
2.2251777e+3, 2.5458583e+2, -303619.97, -546500.5, -16305.721, -0.12731726, 0.034202185, -302530.2, 142530.27, 0.0000011567587, 10.001714, 9.998378 
2.2251907e+3, 2.6458412e+2, -236065.7, -529263.5, -20740.906, -0.15301394, 0.04528497, -234605.75, 112471.91, 0.0, 10.001741, 9.997841 
2.2252044e+3, 2.7458134e+2, -129919.95, -398732.72, -33502.49, -0.14015938, -0.06509846, -125807.414, 123297.695, 0.0, 10.001743, 9.998027 
2.2252183e+3, 2.8458017e+2, -48550.613, -348499.16, -1361.5654, -0.062373888, 0.013836954, -48544.43, 102572.99, 0.0, 10.001727, 9.9977455 
2.2252329e+3, 2.9457888e+2, 115380.945, -198810.28, 8039.2695, 0.012346721, 0.0770872, 115586.51, 168719.16, 0.00000073017384, 10.002146, 9.997854 
2.2252473e+3, 3.0457827e+2, 158750.55, -115631.8, 117417.51, -0.10037084, 0.16814156, 202137.03, 202137.03, 0.00002755439, 10.001863, 9.998293 
2.2252618e+3, 3.1457475e+2, 23220.158, -16022.71, -14334.767, -0.16091102, -0.04598458, 27898.646, 27898.646, 0.000118261974, 10.000203, 9.999733 
2.235045e+3, 1.5458134e+2, -1218304.4, -1084861.6, -81566.06, 0.19950545, 0.57197654, -1046203.9, 378913.8, 0.35698506, 10.00063, 10.00319 
2.2350524e+3, 1.6457687e+2, -1332090.0, -1496517.9, -6895.931, -0.33926126, 0.012233425, -1331801.3, -4641.7036, 0.23053116, 10.000547, 9.998537 
2.2350676e+3, 1.7457637e+2, -1247710.8, -1264495.1, 5685.5454, -0.21852031, -0.028279763, -1245966.3, -16804.865, 0.14104874, 9.99995, 9.9997015 
2.2350821e+3, 1.8457663e+2, -1203226.0, -1211342.8, -22134.957, -0.121952444, 0.010260628, -1184780.5, -53625.29, 0.08532412, 9.999586, 9.999622 
2.2350952e+3, 1.9457653e+2, -1002169.0, -1046269.06, -5565.742, -0.16147545, 0.0046627135, -1001477.44, 31674.443, 0.05187056, 10.00029, 9.999702 
2.2351086e+3, 2.0457566e+2, -922376.3, -1023697.4, 31297.979, -0.2117465, -0.03233323, -913488.1, 21669.281, 0.030293982, 10.000442, 9.999122 
2.2351235e+3, 2.145739e+2, -854540.1, -913544.0, 21163.512, -0.18334377, -0.16643533, -847734.25, -10561.919, 0.015773455, 10.000147, 9.999324 
2.235138e+3, 2.2457325e+2, -847005.44, -990768.5, -48238.273, -0.15181412, -0.108866766, -832319.75, -93139.414, 0.0069356123, 10.000047, 9.998191 
2.2351518e+3, 2.3457375e+2, -629397.25, -800689.6, -59867.87, -0.11095924, 0.060228184, -610547.3, 30634.594, 0.002541045, 10.000752, 9.99846 
2.2351652e+3, 2.4457325e+2, -492433.47, -649355.6, -54301.86, -0.12281381, 0.15853542, -475475.28, 67712.984, 0.00075579167, 10.000887, 9.998765 
2.2351794e+3, 2.5457194e+2, -280995.13, -427819.56, 8950.774, -0.13787028, 0.061930068, -280451.47, 164745.8, 0.00014769337, 10.001408, 9.999334 
2.2351928e+3, 2.6457012e+2, -337170.78, -605229.25, -47708.746, -0.15269682, 0.027155397, -328932.8, 18280.156, 0.000007045108, 10.001192, 9.997568 
2.2352064e+3, 2.7456763e+2, -188314.19, -448334.94, -22076.674, -0.13050908, -0.03740793, -186453.13, 62784.707, 0.00000000065814787, 10.001443, 9.997817 
2.2352198e+3, 2.845658e+2, -115345.87, -347905.44, -19223.125, -0.12604365, -0.038303055, -113767.62, 37489.953, 0.0, 10.001173, 9.9979925 
2.235234e+3, 2.9456344e+2, 36598.1, -227816.66, 42095.668, -0.11937543, -0.118606165, 43138.105, 96422.3, 0.0000012574419, 10.001609, 9.997888 
2.2352497e+3, 3.0456486e+2, -3463.1587, -231399.4, 37946.086, -0.08842366, 0.1992264, 2687.9863, 2687.9863, 0.000044073433, 10.000973, 9.997898 
2.2352608e+3, 3.1456316e+2, -72892.95, 75148.86, 11071.121, -0.33818743, 0.18171987, 75972.22, 75972.22, 0.00018419352, 9.999066, 10.000868 
2.2450455e+3, 1.54565e+2, -1620828.5, -1460513.3, 129059.89, 0.25525033, 0.14713295, -1388744.3, 36527.55, 0.42759266, 9.998366, 10.000429 
2.2450551e+3, 1.6456343e+2, -1317071.8, -1529066.4, 18379.762, -0.12268333, -0.011388467, -1315490.0, 11797.361, 0.29616648, 10.000862, 9.998173 
2.2450691e+3, 1.7456283e+2, -1202068.4, -1325928.9, -21466.488, -0.07558001, 0.010681598, -1198453.5, 30841.125, 0.19952731, 10.000696, 9.998926 
2.2450827e+3, 1.845625e+2, -1131326.9, -1181917.8, -49857.035, -0.03155625, 0.03686771, -1100715.4, 30580.566, 0.13536815, 10.000126, 9.999565 
2.2450957e+3, 1.945621e+2, -1062362.8, -1078533.9, -76330.34, -0.0906365, -0.00033568512, -993690.9, 39603.504, 0.09319166, 9.999868, 9.999712 
2.2451097e+3, 2.0456135e+2, -1011515.56, -1091972.9, -14499.673, -0.11851173, -0.016866267, -1008982.25, -73683.98, 0.06306426, 9.999866, 9.998971 
2.2451246e+3, 2.1455988e+2, -853327.5, -937128.6, -35028.395, -0.097697385, -0.09739756, -840614.44, -3302.635, 0.0400799, 10.000224, 9.999152 
2.2451389e+3, 2.2455907e+2, -764907.56, -950376.1, -40481.363, -0.0766755, -0.042135604, -756456.9, -17135.035, 0.023131557, 10.000575, 9.998231 
2.245153e+3, 2.3455921e+2, -629945.4, -787547.94, -40206.85, -0.06785941, 0.0805131, -620280.6, 21045.783, 0.011994159, 10.000685, 9.9985895 
2.2451665e+3, 2.4455848e+2, -501178.38, -653510.25, -12917.581, -0.06043635, 0.14929317, -500090.75, 43243.582, 0.0054928027, 10.0007715, 9.998818 
2.2451806e+3, 2.545571e+2, -367311.06, -458333.72, -33355.176, -0.10645707, 0.042378888, -356396.78, 88945.84, 0.002050329, 10.000753, 9.999452 
2.245194e+3, 2.6455557e+2, -386682.38, -601649.9, -79134.164, -0.10903901, 0.0262162, -360693.38, -13338.418, 0.0004876709, 10.00071, 9.997839 
2.2452083e+3, 2.745539e+2, -145631.5, -377550.13, -22416.6, -0.0723462, 0.0060263146, -143484.66, 105887.984, 0.000047167257, 10.001512, 9.998282 
2.2452214e+3, 2.845525e+2, -84237.59, -286197.16, -5878.877, -0.064369395, 0.0014769492, -84066.61, 67320.77, 0.00000034188096, 10.001161, 9.998435 
2.2452345e+3, 2.9454997e+2, -63561.92, -256978.8, 23020.94, -0.15987854, -0.11093546, -60859.668, -7444.9243, 0.0000013302117, 10.000781, 9.99812 
2.245251e+3, 3.0455077e+2, -46825.984, -303884.97, 65824.52, -0.03599936, 0.13651559, -30950.844, -30950.844, 0.0000584347, 10.000828, 9.997483 
2.2452635e+3, 3.1454986e+2, 272056.5, 330049.8, -104810.5, -0.054413132, 0.2820392, 409800.78, 409800.78, 0.00025945, 10.000932, 10.001735 
2.2550598e+3, 1.6455199e+2, -1423587.0, -1614151.4, -11216.973, 0.16666876, 0.16003686, -1422929.0, -95535.43, 0.39765337, 10.000231, 9.997869 
2.2550723e+3, 1.745515e+2, -1294308.8, -1517297.6, -45442.246, 0.09872452, 0.28064048, -1285403.9, -55996.582, 0.29298013, 10.000616, 9.997635 
2.2550847e+3, 1.8454958e+2, -1222989.6, -1315331.0, -109052.12, 0.054542933, 0.25855678, -1150736.9, -19308.615, 0.21888196, 9.999864, 9.99875 
2.2550967e+3, 1.945469e+2, -1118718.8, -1134717.0, -89616.64, -0.035006735, 0.014188832, -1036744.94, -3295.6787, 0.16615056, 9.999608, 9.999417 
2.2551101e+3, 2.0454659e+2, -1052909.4, -1103029.3, -11102.141, -0.10593502, 0.03326332, -1050560.3, -115111.25, 0.12546477, 9.999553, 9.999024 
2.255126e+3, 2.1454738e+2, -890947.94, -959423.8, -9490.464, -0.015705105, 0.1731038, -889656.94, -52216.1, 0.0914258, 9.999996, 9.999087 
2.2551407e+3, 2.2454637e+2, -812157.5, -939693.2, -43053.61, -0.011991425, 0.1983996, -798984.1, -59533.28, 0.062582165, 10.000108, 9.9985285 
2.2551546e+3, 2.3454392e+2, -624298.75, -714425.44, -24322.406, -0.015412538, -0.00061730976, -618153.8, 23321.656, 0.039919913, 10.000413, 9.999226 
2.2551675e+3, 2.4454217e+2, -653422.44, -800859.9, -35804.965, -0.073752075, -0.035276856, -645187.25, -101695.71, 0.023601582, 10.000076, 9.998124 
2.2551809e+3, 2.5454137e+2, -465116.44, -574732.5, -26121.049, -0.1819306, -0.026062272, -459210.16, -13714.273, 0.012405956, 10.000409, 9.998798 
2.2551939e+3, 2.6454037e+2, -432133.63, -564653.0, -86137.56, -0.22367273, 0.032507, -389719.38, -42214.543, 0.005154125, 10.000175, 9.998339 
2.2552095e+3, 2.7453995e+2, -146849.89, -259076.63, 16808.943, -0.13251013, 0.029120378, -144386.38, 105124.67, 0.0013586987, 10.001019, 9.999318 
2.2552222e+3, 2.8453997e+2, -195371.42, -326088.4, -66872.11, -0.13768125, 0.09979021, -167222.64, -15711.56, 0.00015517221, 10.000389, 9.99851 
2.2552346e+3, 2.9453853e+2, -116084.09, -243916.83, 29534.385, -0.27994326, 0.09526977, -109590.36, -56066.79, 0.0000026982873, 10.000338, 9.998382 
2.25525e+3, 3.0453625e+2, -203602.69, -462279.4, 47748.07, -0.28276035, 0.033556737, -195070.48, -195070.48, 0.000065484004, 10.000169, 9.996688 
2.2552663e+3, 3.145317e+2, 122592.4, 265337.8, 104545.87, 0.069221705, -0.075401574, 320550.66, 320550.66, 0.00034262822, 9.999954, 10.00174 
2.2650737e+3, 1.7453256e+2, -1492978.5, -1484072.8, -169650.13, 0.33142155, 0.11390062, -1318817.0, -89220.84, 0.44342524, 9.997988, 9.999305 
2.2650816e+3, 1.8453422e+2, -937789.94, -1215411.8, -47007.613, -0.42117396, 0.13734257, -930046.44, 201538.89, 0.3585124, 10.002761, 9.9980955 
2.2650957e+3, 1.9453241e+2, -1020920.5, -1157679.4, -133537.2, -0.1474876, 0.09775713, -939273.5, 94324.9, 0.29413474, 10.000784, 9.998711 
2.2651096e+3, 2.0453122e+2, -957957.25, -1023402.56, -15920.542, -0.1039388, 0.04179838, -954289.8, -18683.322, 0.24160613, 9.999923, 9.999447 
2.2651228e+3, 2.1453115e+2, -870158.4, -913449.75, -14268.805, -0.302143, 0.066061296, -865878.5, -28273.768, 0.1940874, 9.999906, 9.99949 
2.2651379e+3, 2.2453056e+2, -730138.8, -868273.7, 13316.445, -0.28886384, 0.09140721, -728866.8, 10741.59, 0.14888066, 10.000497, 9.998857 
2.2651547e+3, 2.345296e+2, -515979.47, -649694.9, -33818.96, -0.061693013, 0.0506698, -507912.7, 133703.34, 0.108788945, 10.001229, 9.999292 
2.2651695e+3, 2.4452798e+2, -402101.56, -652445.8, -32487.377, 0.038591653, 0.028386086, -397954.34, 145675.75, 0.07581198, 10.001689, 9.998399 
2.2651836e+3, 2.5452647e+2, -249734.9, -437206.47, 17933.158, -0.011922745, -0.07589712, -248034.88, 197608.31, 0.048806984, 10.0016985, 9.999199 
2.2651963e+3, 2.6452538e+2, -285342.63, -515158.7, -2040.7855, -0.049848866, -0.02908848, -285324.53, 62329.195, 0.026684597, 10.001199, 9.998223 
2.2652109e+3, 2.745255e+2, -136615.56, -278544.53, -8048.47, -0.06453736, 0.038249694, -136160.61, 113495.09, 0.010897145, 10.001099, 9.999195 
2.2652231e+3, 2.8452536e+2, -218392.64, -346408.28, -131217.44, -0.053688556, 0.10819093, -136403.83, 15253.461, 0.002788968, 10.00022, 9.998484 
2.2652373e+3, 2.9452404e+2, 263096.7, -46715.313, -10034.137, -0.14161812, 0.1246738, 263421.3, 317088.78, 0.0003034348, 10.002908, 9.998505 
2.265252e+3, 3.0452076e+2, 241340.64, -257984.14, -34943.83, -0.23492354, -0.08240516, 243774.22, 243774.22, 0.000074942734, 10.003315, 9.996593 
2.2652674e+3, 3.1451565e+2, 82349.13, 48092.813, -19321.678, 0.14688513, -0.058987617, 91041.53, 91041.53, 0.00045627946, 10.000386, 10.000149 
2.275113e+3, 2.0451997e+2, -931071.2, -1111168.5, 48635.996, 0.16632973, 0.5327242, -918776.25, 16948.195, 0.4526298, 10.000693, 9.998416 
2.275125e+3, 2.145163e+2, -749928.9, -782438.56, -41702.875, -0.1194619, 0.1116939, -721424.94, 116328.7, 0.38963944, 10.000806, 10.000108 
2.2751431e+3, 2.2451495e+2, -804914.8, -948577.8, -148236.0, 0.09244364, -0.010971349, -712023.3, 27739.248, 0.32267725, 10.000255, 9.998396 
2.275158e+3, 2.3451585e+2, -700610.94, -803963.25, -43349.918, 0.12993318, 0.16010739, -684836.06, -43083.496, 0.25840095, 10.000153, 9.998673 
2.2751722e+3, 2.445145e+2, -581182.9, -735798.75, -11441.593, 0.028826455, 0.21249159, -580340.75, -36576.355, 0.20062341, 10.000374, 9.998424 
2.2751884e+3, 2.5451195e+2, -298521.22, -318314.2, 35356.97, 0.25825268, -0.17096476, -271701.84, 174086.34, 0.14660953, 10.000841, 10.000524 
2.2752005e+3, 2.6451102e+2, -647351.75, -886439.6, -53599.85, 0.18359855, -0.115496874, -635885.4, -288086.97, 0.09444842, 9.999594, 9.996404 
2.2752129e+3, 2.745115e+2, -318149.2, -507642.75, -15206.583, -0.017773025, 0.09387444, -316936.63, -67138.85, 0.04983968, 10.000497, 9.997862 
2.2752239e+3, 2.8450954e+2, -442969.03, -533570.4, -167924.11, -0.055812754, 0.09503802, -314342.56, -162524.67, 0.019500945, 9.999076, 9.997718 
2.2752419e+3, 2.9450667e+2, 123930.36, -136659.77, 105050.68, -0.007979877, -0.060902264, 161004.5, 214848.9, 0.004786881, 10.002119, 9.998229 
2.2752552e+3, 3.0450413e+2, 32728.475, -362234.84, -196107.47, -0.29947606, -0.22040278, 113558.055, 113558.055, 0.0007184054, 10.002018, 9.996446 
2.2752644e+3, 3.1450287e+2, -432617.88, -592634.25, -10827.553, -0.2681021, 0.24683118, -431888.53, -431888.53, 0.0007782504, 9.998784, 9.996409 
2.2851697e+3, 2.4450581e+2, -186089.47, -157559.31, 94071.89, -0.47269255, -0.3058713, -76677.07, 467161.34, 0.45869297, 10.001747, 10.004563 
2.2851864e+3, 2.5450745e+2, -934180.94, -1294346.6, 210312.8, 0.040519807, 0.4672178, -837386.0, -391556.75, 0.36361384, 9.99914, 9.994639 
2.2851971e+3, 2.6450166e+2, -228941.84, -695940.56, -80546.61, -0.32767388, 0.3750741, -215439.77, 132451.94, 0.26167566, 10.0026455, 9.996348 
2.2852132e+3, 2.744993e+2, 159633.83, -273104.06, 22808.064, -0.20268823, 0.33380327, 160832.64, 410750.25, 0.1640845, 10.004319, 9.997758 
2.2852236e+3, 2.8449517e+2, -95914.61, -343059.4, -86810.58, -0.07855131, 0.16097628, -68469.74, 83489.58, 0.0825175, 10.00127, 9.99804 
2.2852434e+3, 2.9449442e+2, 320893.38, 62923.54, 388786.56, -0.10257255, 0.12913884, 601532.8, 655499.25, 0.030766618, 10.002896, 9.999376 
2.2852615e+3, 3.0449432e+2, 501483.28, 99998.51, 17824.521, 0.039716605, 0.066566065, 502273.1, 502273.1, 0.009050352, 10.004034, 9.998743 
2.2852649e+3, 3.1449145e+2, 102103.945, 33356.945, -18928.3, -0.19975697, 0.16979066, 106970.96, 106970.96, 0.003966804, 10.000807, 9.999728 
2.2952232e+3, 2.7447507e+2, 91489.58, -129008.78, -122980.016, 0.311516, -0.64982045, 146403.84, 396556.1, 0.434636, 10.004412, 9.999168 
2.2952236e+3, 2.8448093e+2, -1267825.8, -1168923.5, -368706.7, -0.32489178, 0.09559317, -846366.5, -694270.94, 0.25417715, 9.994403, 9.995584 
2.295242e+3, 2.9449067e+2, 234225.83, 229497.84, 506635.63, -0.628387, 0.76316506, 738503.0, 792503.4, 0.121773906, 10.00174, 10.001253 
2.29527e+3, 3.044946e+2, -468494.63, -430411.16, -97438.234, 0.3369183, 1.0372168, -350171.47, -350171.47, 0.054056633, 9.997805, 9.997952 
2.295271e+3, 3.1447905e+2, 161320.08, 851983.8, -409913.66, 0.1559708, -0.78586984, 1042640.1, 1042640.1, 0.03162542, 9.998086, 10.006644 
2.3052539e+3, 2.944765e+2, -582955.1, 503458.25, -394404.47, 0.40093648, 0.6918107, 631540.2, 685688.8, 0.36163017, 9.99116, 10.010927 
2.30527e+3, 3.0446514e+2, 768371.8, 674957.9, -72569.14, -0.4998243, -1.6190772, 807965.6, 807965.6, 0.21599722, 10.004732, 10.003646 
2.3052712e+3, 3.1448832e+2, -409876.72, -1102967.4, 381077.75, 0.043156594, 1.1236526, -241335.75, -241335.75, 0.16896398, 10.000223, 9.993004 
2.3451792e+3, 2.7862644e+2, 26099.908, -929622.44, -748867.3, 0.44687834, 1.0312158, 436581.9, 646045.5, 0.47156188, 10.00819, 9.991209 
2.3448522e+3, 2.8860143e+2, 271000.56, 324420.9, -112368.22, -0.641029, -1.0077245, 413209.88, 524912.75, 0.44329932, 10.002242, 10.003716 
2.3582348e+3, 1.7897691e+2, -807309.9, -1519540.0, -452478.28, 0.46928293, -0.80376846, -587617.2, 598413.7, 0.43650234, 10.007143, 9.994266 
2.3579338e+3, 1.8898727e+2, -970749.7, -1150608.3, -85451.24, 0.463497, 0.9829927, -936625.75, 151310.1, 0.37766173, 10.001639, 9.998192 
2.3576252e+3, 1.9897923e+2, -1821382.8, -1533309.8, -121093.46, -0.18024094, 0.5770717, -1489170.5, -499152.03, 0.33358362, 9.994351, 9.998425 
2.3573124e+3, 2.0896496e+2, -1614684.1, -1045324.06, -704224.0, -0.86004114, -0.47422892, -570416.0, 321735.1, 0.30104792, 9.993886, 10.001859 
2.357019e+3, 2.1896724e+2, -1961120.6, -1333529.0, -712758.8, 0.6964974, -0.1230275, -868548.25, -74429.25, 0.27825576, 9.9911175, 10.000184 
2.3567097e+3, 2.2897224e+2, -354535.6, -785216.44, -730200.4, 0.31720158, 0.8763163, 191415.03, 887486.06, 0.26120636, 10.0041065, 9.9976845 
2.3563956e+3, 2.389628e+2, -400057.53, -905051.56, -807644.9, -0.84688145, 0.39358887, 193639.84, 791807.0, 0.2457508, 10.003423, 9.996449 
2.3561004e+3, 2.4895048e+2, -253468.23, -1000208.2, -187396.72, 0.022471176, 0.074792586, -209079.11, 291208.3, 0.2301437, 10.004581, 9.993809 
2.3557967e+3, 2.589341e+2, -793801.44, -956460.0, 281533.2, -0.12143218, -0.5796445, -582085.7, -179638.94, 0.20988446, 9.998068, 9.996738 
2.355477e+3, 2.6893467e+2, 445536.22, 624712.75, 1409.9874, -0.4059996, -0.39948055, 624723.8, 929158.25, 0.17516966, 10.002473, 10.006239 
2.3551689e+3, 2.78936e+2, -533901.4, -1020513.06, 524896.4, -0.36651763, -0.042061146, -198662.53, 7752.427, 0.1316386, 9.999988, 9.994068 
2.3548613e+3, 2.8892428e+2, 269704.66, -289341.56, 104656.57, -0.0055048633, -0.16433255, 288654.6, 397192.56, 0.12165021, 10.0041485, 9.996355 
2.3545647e+3, 2.989181e+2, -736279.44, -295555.3, 488345.72, 0.46422592, -0.5979512, 19844.701, 30455.07, 0.18190022, 9.994526, 10.000744 
2.354266e+3, 3.0893168e+2, -584335.44, -349038.38, -454774.28, 0.58089894, 1.3296899, 3058.594, 3058.594, 0.30748552, 9.996713, 9.999324 
2.3688537e+3, 1.5929948e+2, -1963826.0, -2648521.8, -98306.34, -0.0853429, -0.016467573, -1949991.0, -571124.3, 0.4091777, 9.999346, 9.991195 
2.3685338e+3, 1.692974e+2, -698070.4, -969046.8, 97256.84, -0.70755583, 0.49711755, -666777.44, 614120.7, 0.31914255, 10.005281, 10.000041 
2.3682325e+3, 1.7929192e+2, -760340.06, -1045178.56, 141204.6, 0.12903202, 0.35309586, -702205.1, 480747.9, 0.25440094, 10.003698, 9.999072 
2.3679335e+3, 1.8928431e+2, -709951.94, -769893.25, 265737.6, 0.7282915, 0.086606875, -472500.25, 612530.25, 0.2080314, 10.002187, 10.001151 
2.3676343e+3, 1.9927977e+2, -728116.3, -829822.8, 200106.1, 1.2547866, -0.045398414, -572502.9, 414575.4, 0.17323087, 10.001377, 10.000253 
2.3673186e+3, 2.0927429e+2, -466547.56, -659047.94, 178693.58, 0.34761092, -0.108047955, -359831.03, 529302.0, 0.1462845, 10.002761, 10.000074 
2.3670034e+3, 2.1926852e+2, -222493.45, -587811.25, 216207.08, -0.37141383, -0.23202552, -122115.66, 669074.5, 0.12553653, 10.004193, 9.999194 
2.3667067e+3, 2.2926192e+2, -443814.22, -737267.75, 404563.06, 0.34797075, -0.26547503, -160192.27, 533062.94, 0.1083107, 10.002146, 9.998363 
2.3664095e+3, 2.3925343e+2, -715652.0, -730289.1, 383043.75, 0.9465145, -0.48924676, -339856.94, 255481.58, 0.09200453, 9.998915, 9.999291 
2.3660983e+3, 2.4925432e+2, -511542.28, -125292.35, 247542.88, 0.3705145, -0.11681385, -4451.1904, 492874.72, 0.07587102, 9.997682, 10.003495 
2.3657899e+3, 2.592556e+2, -707451.2, -524009.63, 114615.65, -0.1353734, 0.28483683, -468933.1, -69625.57, 0.059159983, 9.997254, 10.000049 
2.3654798e+3, 2.6925063e+2, 236724.67, 381890.6, -266598.72, 0.11792478, 0.046041664, 585610.3, 886955.2, 0.0404535, 10.001505, 10.003674 
2.365175e+3, 2.792438e+2, 102180.71, -403673.47, 16195.007, 0.4588783, -0.40528965, 102698.664, 306100.0, 0.022688525, 10.003404, 9.996436 
2.3648614e+3, 2.8924003e+2, 33242.52, -738859.7, -84761.81, 0.039948422, 0.26298937, 42438.2, 147885.5, 0.017875807, 10.003919, 9.993097 
2.3645483e+3, 2.992377e+2, -172731.61, -323618.06, 398880.4, -0.5478837, 0.721583, 157777.45, 165260.89, 0.038461395, 9.999939, 9.997643 
2.3642515e+3, 3.0922168e+2, -286787.1, 213024.98, 11676.046, -0.043446835, -0.42316517, 213297.61, 213297.61, 0.08538417, 9.9967, 10.002909 
2.3791672e+3, 1.4960688e+2, -2154015.0, -1142546.3, -141398.17, 0.83600944, -0.03721577, -1123151.4, 350712.2, 0.38968268, 9.991248, 10.007442 
2.3788494e+3, 1.5961024e+2, -1163959.6, -1116180.3, -10546.333, -0.19888465, -0.024999129, -1113955.9, 261870.98, 0.27836236, 10.000647, 10.001756 
2.3785427e+3, 1.69605e+2, -976384.06, -1161823.4, 46087.86, 0.16346948, -0.029808886, -965561.3, 312315.4, 0.19862524, 10.002464, 9.999255 
2.3782375e+3, 1.7960049e+2, -931029.0, -1171999.4, 47264.77, 0.6418311, -0.05089724, -922089.94, 257830.02, 0.1461588, 10.002169, 9.998582 
2.377925e+3, 1.8959662e+2, -877819.44, -943470.5, 184236.67, 0.032587837, 0.08204813, -723506.9, 358452.38, 0.11113541, 10.001121, 10.000018 
2.3776147e+3, 1.9959162e+2, -1033669.8, -1043643.0, 149080.52, -0.43913344, -0.023446957, -889492.5, 94517.586, 0.08556882, 9.999363, 9.999538 
2.3773152e+3, 2.0959082e+2, -669232.5, -687258.1, 186505.98, 0.15209834, 0.32400826, -491521.7, 394499.3, 0.065839775, 10.000812, 10.000578 
2.3770127e+3, 2.1958902e+2, -622250.06, -845622.6, 182746.22, 0.51030153, 0.5335233, -519763.5, 268277.6, 0.050802168, 10.001343, 9.99858 
2.3767029e+3, 2.2958158e+2, -672765.5, -714308.1, 236386.0, 0.12685211, 0.34130767, -456240.0, 233872.02, 0.03888462, 9.999936, 9.999393 
2.376396e+3, 2.3957333e+2, -1131327.5, -1096024.4, 236437.66, -0.006445144, 0.06973129, -876580.25, -284389.3, 0.028499532, 9.996921, 9.9976225 
2.3760909e+3, 2.4956997e+2, -804861.94, -596502.94, 166443.03, 0.17057997, 0.26934582, -504324.0, -10094.614, 0.019239584, 9.997349, 10.000093 
2.3757878e+3, 2.595658e+2, -1092570.4, -1053449.1, 108435.98, 0.31041884, 0.3957529, -962823.6, -566548.25, 0.011432521, 9.9963045, 9.996811 
2.3754776e+3, 2.6955992e+2, -160615.9, -241769.58, -209497.72, 0.1802013, 0.39647424, 12198.382, 310527.63, 0.00541735, 10.000812, 9.999431 
2.375169e+3, 2.795526e+2, -22372.645, -413774.1, -114783.664, -0.109764665, 0.1392538, 8805.594, 209200.36, 0.0017239725, 10.002372, 9.996858 
2.3748565e+3, 2.895446e+2, 406791.97, -33754.883, -188892.36, -0.45392907, 0.06196559, 476692.13, 579160.94, 0.0009962119, 10.004213, 9.9978285 
2.3745508e+3, 2.9954222e+2, 8842.67, -200475.3, 174408.47, -0.3082638, 0.18662928, 107584.32, 112073.77, 0.0037776493, 10.00098, 9.998037 
2.3742564e+3, 3.0953002e+2, 67210.8, 159502.34, 42138.688, 0.48950398, -0.31929705, 175847.38, 175847.38, 0.0111080175, 10.000201, 10.000792 
2.3894534e+3, 1.3991639e+2, -1757931.4, -1809843.3, 395813.5, -0.678345, 0.01949686, -1387223.6, 181611.25, 0.42782596, 9.999403, 9.998403 
2.3891523e+3, 1.4992088e+2, -955998.9, -701686.0, 191159.84, -0.15621178, 0.49862993, -599254.06, 871536.75, 0.2998544, 10.001465, 10.006405 
2.3888491e+3, 1.5991847e+2, -946993.75, -1039608.7, -82356.01, -0.05609026, 0.15578131, -898819.0, 473993.16, 0.19614406, 10.002385, 10.001408 
2.388541e+3, 1.6991274e+2, -981118.6, -1247131.0, -245893.52, 0.16196555, 0.09848699, -834563.94, 440304.38, 0.12585048, 10.002403, 9.998738 
2.3882324e+3, 1.7990677e+2, -966753.94, -1222346.5, -203904.17, 0.34798348, 0.020099409, -853907.75, 323019.44, 0.083471425, 10.001734, 9.998552 
2.3879221e+3, 1.8990254e+2, -916507.3, -979638.25, -122135.8, 0.06868053, 0.097930655, -821923.94, 257045.61, 0.057587944, 10.000762, 9.999902 
2.387612e+3, 1.9989838e+2, -985310.94, -996347.7, -114869.08, -0.2692773, 0.10198128, -875827.75, 105183.195, 0.03970386, 9.999483, 9.999816 
2.3873094e+3, 2.0989645e+2, -845725.7, -733875.6, -82018.695, 0.002489232, 0.2755831, -690529.94, 192498.84, 0.026570952, 9.999254, 10.000979 
2.387007e+3, 2.1989436e+2, -815835.4, -849229.94, -83621.08, 0.31266603, 0.43145147, -747260.8, 37787.36, 0.017417854, 9.999459, 9.999463 
2.3866983e+3, 2.298893e+2, -493079.88, -579055.0, -87804.62, 0.050066672, 0.3979446, -438304.56, 248792.44, 0.011141793, 10.000914, 9.999871 
2.3863901e+3, 2.3988277e+2, -309567.7, -661342.2, -50442.016, -0.20042762, 0.26926437, -302477.56, 286683.25, 0.0065593217, 10.002392, 9.997955 
2.3860854e+3, 2.4987726e+2, -38359.465, -383233.47, -50988.234, -0.0094886655, 0.31191444, -30979.004, 460241.44, 0.0032030866, 10.003225, 9.998747 
2.3857829e+3, 2.5987133e+2, -185330.5, -653332.2, 16290.865, 0.2150775, 0.37052953, -184764.11, 208520.14, 0.0011282732, 10.002647, 9.996476 
2.3854737e+3, 2.698651e+2, -223970.31, -462358.3, -98085.37, 0.107205056, 0.4570105, -188801.27, 106543.42, 0.00023273825, 10.001142, 9.997769 
2.3851651e+3, 2.798576e+2, -477368.28, -453773.53, 49736.58, -0.14705971, 0.31279218, -414454.3, -217039.83, 0.000018977813, 9.998376, 9.998506 
2.384855e+3, 2.8984883e+2, -26815.871, 83426.38, -58575.434, -0.3629156, -0.111297525, 108737.96, 208229.0, 0.000039610317, 9.999793, 10.000736 
2.384552e+3, 2.9984665e+2, -62210.25, -273969.2, 37695.086, 0.15564077, -0.062430438, -55700.3, -54197.273, 0.00031053094, 10.000569, 9.997706 
2.3842524e+3, 3.0983806e+2, -120814.766, -27765.588, -340785.13, 0.61144763, -0.04052117, 269656.1, 269656.1, 0.0010092399, 9.9994955, 9.999661 
2.399782e+3, 1.3023469e+2, -1360813.4, -1296022.9, -152209.16, 0.1788789, 0.25214815, -1172799.8, 490908.47, 0.49043652, 10.002224, 10.00305 
2.399461e+3, 1.4022677e+2, -1457463.1, -1501289.0, -10825.065, 0.3692181, -0.51287985, -1454935.1, 110842.805, 0.36336103, 10.000815, 9.999812 
2.3991548e+3, 1.5022662e+2, -1402918.5, -1453756.0, 293850.34, 0.37005967, -0.03880106, -1133389.6, 334398.75, 0.24041095, 10.000709, 9.999512 
2.3988491e+3, 1.6022594e+2, -1475325.1, -1633922.3, -162.1047, 0.20427357, 0.36484018, -1475325.0, -105519.74, 0.14389461, 9.999857, 9.997856 
2.3985367e+3, 1.7021967e+2, -1149231.0, -1330247.0, -118625.516, -0.038797714, 0.35415834, -1090528.8, 181341.97, 0.08188297, 10.001181, 9.9986105 
2.3982246e+3, 1.8021224e+2, -1052859.3, -1336592.3, -123345.82, -0.13431646, 0.17438866, -1006735.56, 167211.03, 0.047678713, 10.001416, 9.997892 
2.3979203e+3, 1.9020826e+2, -906063.4, -1008762.06, -71685.76, 0.284084, 0.31733668, -869233.3, 206754.38, 0.028905774, 10.001045, 9.999502 
2.3976155e+3, 2.0020469e+2, -1055466.4, -1089949.1, -87279.75, 0.58606744, 0.41434008, -983741.4, -5718.3535, 0.017015342, 9.99939, 9.999186 
2.3973049e+3, 2.1019828e+2, -896104.0, -714613.44, -35735.37, 0.099970765, 0.1438691, -707830.7, 172248.23, 0.00915297, 9.998886, 10.001232 
2.3969959e+3, 2.2019182e+2, -1081921.8, -997393.44, -39472.613, -0.2535885, -0.15462945, -981827.25, -199691.02, 0.0045936005, 9.997887, 9.999191 
2.3966922e+3, 2.3018952e+2, -626157.4, -618748.1, -8087.1455, -0.16455431, 0.06612413, -613557.44, 70604.65, 0.0022051786, 9.99998, 10.0000105 
2.3963886e+3, 2.40186e+2, -545167.3, -786519.3, -18135.365, -0.11999704, 0.20768008, -543812.2, 42388.03, 0.0009056362, 10.00091, 9.99781 
2.396082e+3, 2.5018075e+2, -149105.58, -355815.3, -44099.227, -0.20799929, 0.22464623, -140090.64, 348160.97, 0.00023937336, 10.002329, 9.999253 
2.3957768e+3, 2.6017466e+2, -374766.72, -713041.44, -54761.754, -0.22190349, 0.17495608, -366122.47, 24188.355, 0.000025130046, 10.001307, 9.996714 
2.3954695e+3, 2.7016863e+2, -184897.95, -339785.8, -165302.6, 0.010919145, 0.22404486, -79797.336, 212570.95, 0.00000030344088, 10.001072, 9.998608 
2.3951629e+3, 2.801628e+2, -520875.4, -368557.0, -3719.7727, 0.1657666, 0.09917365, -368466.22, -174043.53, 0.0000000068303647, 9.99769, 9.999438 
2.3948555e+3, 2.9015598e+2, -59322.35, 141810.53, 47356.125, 0.1355144, -0.22689141, 152402.6, 248885.44, 0.0000039429096, 9.999368, 10.001299 
2.3945498e+3, 3.0015308e+2, -483119.84, -710850.94, 93727.016, 0.10062316, -0.15255086, -449506.2, -449506.2, 0.00006190627, 9.998772, 9.995553 
2.3942387e+3, 3.1014988e+2, -118179.49, -59025.453, -68693.22, -0.53558093, 0.46275917, -13812.38, -13812.38, 0.0002690841, 9.99951, 9.999447 
2.4097732e+3, 1.3055266e+2, -2029044.0, -1793401.1, -295494.75, -0.22988245, 0.5152311, -1593104.6, 67488.97, 0.44510007, 9.997011, 10.000269 
2.4094585e+3, 1.4054215e+2, -1358671.1, -1610599.6, -79900.4, 0.2896543, -0.15054032, -1335467.5, 227230.55, 0.31930807, 10.00243, 9.998233 
2.4091509e+3, 1.5053931e+2, -1415055.4, -1513639.8, 172531.9, 0.3023195, 0.13212486, -1284912.5, 179818.27, 0.20041417, 10.000668, 9.99893 
2.4088435e+3, 1.6053587e+2, -1705524.3, -1733887.6, 162555.19, 0.13049544, 0.33544704, -1556533.3, -189764.11, 0.110025235, 9.998161, 9.998004 
2.4085332e+3, 1.7052911e+2, -1159079.4, -1280466.6, 132205.92, -0.021599313, 0.23834097, -1074301.0, 194534.66, 0.054970514, 10.000779, 9.999168 
2.4082235e+3, 1.8052216e+2, -832509.2, -1250597.3, 148209.05, -0.1265717, 0.113593124, -785300.75, 385604.25, 0.027314784, 10.002951, 9.997766 
2.407918e+3, 1.9051796e+2, -584398.25, -1010360.9, 132513.17, 0.20679337, 0.35135236, -546539.44, 526413.7, 0.013986388, 10.003855, 9.998171 
2.4076124e+3, 2.0051344e+2, -468672.6, -888194.44, 82763.01, 0.45372856, 0.51643133, -452935.5, 522067.4, 0.006556314, 10.003693, 9.998523 
2.4073015e+3, 2.1050607e+2, -583429.25, -652787.06, 37699.895, 0.17081973, 0.23922239, -566884.06, 310186.1, 0.002469395, 10.001414, 10.00045 
2.4069917e+3, 2.2049883e+2, -846570.9, -865343.75, 111515.81, -0.17180774, -0.040028792, -744047.1, 35088.953, 0.00078321603, 9.999302, 9.999446 
2.4066873e+3, 2.3049602e+2, -609263.56, -600962.3, 182707.52, -0.23132125, 0.11166574, -422358.28, 258807.38, 0.00023610769, 9.99989, 10.000231 
2.4063843e+3, 2.4049275e+2, -533727.94, -676627.1, 173586.58, -0.24248712, 0.26139736, -417461.4, 165738.66, 0.000047296035, 10.000364, 9.998867 
2.4060796e+3, 2.5048745e+2, -456598.22, -426920.03, 129086.42, -0.13283055, 0.21409565, -311822.6, 173426.67, 0.0000020598873, 9.9998255, 9.999999 
2.4057752e+3, 2.6048163e+2, -608158.94, -667809.1, 125424.48, -0.03100202, 0.12800494, -509062.22, -121758.32, 0.0, 9.998939, 9.998159 
2.4054666e+3, 2.704759e+2, -304822.63, -387056.88, -17504.996, 0.087497175, 0.17611277, -301251.47, -11890.538, 0.0, 10.000159, 9.998747 
2.4051584e+3, 2.8047073e+2, -47489.51, -116804.836, 35421.23, 0.20825557, 0.14858885, -32590.97, 158821.03, 0.0, 10.00069, 9.999756 
2.404852e+3, 2.9046527e+2, 84536.016, 144351.02, -5233.285, 0.22846662, -0.01578981, 144805.44, 238268.23, 0.00000028208012, 10.000487, 10.000861 
2.4045458e+3, 3.0046293e+2, -394841.97, -556942.5, 71488.625, 0.21024142, 0.16546932, -367819.25, -367819.25, 0.000017512673, 9.998724, 9.996684 
2.4042338e+3, 3.1045777e+2, -76173.72, 98057.234, -13112.327, -0.5811655, 0.46320498, 99038.516, 99038.516, 0.0001005609, 9.999031, 10.000869 
2.4197614e+3, 1.308579e+2, -2509756.0, -2365195.5, -141718.97, -0.57665193, -0.20978044, -2278388.5, -620783.8, 0.41411293, 9.995085, 9.996993 
2.4194549e+3, 1.4085813e+2, -1386894.4, -1811724.4, -80489.65, 0.14625531, 0.4440194, -1372155.9, 187459.36, 0.28877336, 10.002816, 9.996632 
2.419146e+3, 1.5085247e+2, -1252303.6, -1362204.4, 40421.832, 0.19391724, 0.42042068, -1239037.8, 222631.81, 0.17287979, 10.001504, 9.999655 
2.4188377e+3, 1.608458e+2, -1527871.3, -1616497.6, 66263.59, 0.15205859, 0.23124114, -1492469.1, -128737.16, 0.08747846, 9.999158, 9.998404 
2.418531e+3, 1.7083938e+2, -1069531.1, -1144790.4, 149195.02, 0.14061655, 0.08394958, -953293.44, 312495.66, 0.038149297, 10.001039, 9.999944 
2.418224e+3, 1.8083341e+2, -1018231.06, -1421186.1, 120948.25, 0.15257227, 0.0049126, -984715.7, 183129.67, 0.01570925, 10.002054, 9.996975 
2.4179158e+3, 1.9082849e+2, -844982.56, -1296727.9, 105218.59, 0.0776877, 0.27946746, -821677.75, 248228.81, 0.0064830934, 10.0027685, 9.996678 
2.4176075e+3, 2.0082302e+2, -869992.3, -1296425.8, -1435.3049, 0.095680565, 0.4950972, -869987.44, 101984.34, 0.0021827125, 10.001908, 9.996562 
2.4172989e+3, 2.1081643e+2, -733756.06, -891969.0, -57871.406, 0.23122089, 0.43828133, -714847.56, 159188.58, 0.00044835047, 10.001119, 9.99892 
2.4169905e+3, 2.2081007e+2, -981348.9, -1013147.0, 88609.92, 0.25923288, 0.34579074, -907222.94, -131126.52, 0.000068581576, 9.99886, 9.998616 
2.4166831e+3, 2.3080641e+2, -624071.2, -533918.5, 208767.42, -0.19515198, 0.38602847, -365416.47, 312714.13, 0.0000096515805, 9.9997, 10.000684 
2.4163781e+3, 2.408023e+2, -707843.6, -719512.1, 136622.75, -0.4337261, 0.38097766, -576930.6, 3238.3481, 0.00000040342232, 9.999173, 9.999108 
2.4160774e+3, 2.5079748e+2, -439354.0, -313364.9, 88279.98, 0.12120669, 0.28818607, -267908.25, 214304.78, 0.0, 9.999584, 10.000852 
2.4157752e+3, 2.6079226e+2, -784319.2, -803510.5, 78674.445, 0.53536725, 0.18653473, -714657.4, -330394.8, 0.0, 9.998054, 9.997665 
2.4154629e+3, 2.7078694e+2, -445226.78, -529241.3, 18221.38, 0.17674631, 0.31495342, -441445.06, -155123.9, 0.0, 9.99965, 9.997942 
2.4151511e+3, 2.807818e+2, -454868.8, -599123.94, 28436.518, -0.1800178, 0.41424653, -449465.6, -261087.4, 0.0, 9.9992285, 9.997146 
2.4148442e+3, 2.907776e+2, -110858.33, -109451.84, -29129.336, -0.18821676, 0.5688584, -81017.26, 9406.211, 0.0000000009564638, 10.000002, 9.999275 
2.4145405e+3, 3.0077416e+2, -556399.44, -438845.5, 55906.06, -0.012408958, 0.67182595, -416503.94, -416503.94, 0.0000015325257, 9.996945, 9.998324 
2.4142346e+3, 3.1076393e+2, -129770.016, 354851.84, -68927.484, -0.12798445, 0.010571727, 364464.66, 364464.66, 0.000021924814, 9.9975195, 10.003345 
2.4297568e+3, 1.3116549e+2, -2237575.8, -1675430.9, 124523.484, -0.15644825, -0.13124925, -1649082.1, 5511.6597, 0.39271495, 9.994508, 10.00206 
2.4294524e+3, 1.4116804e+2, -1141392.5, -1547662.6, 63470.16, -0.14180726, 0.43852705, -1131707.6, 424863.78, 0.26710206, 10.004558, 9.997625 
2.4291433e+3, 1.5115993e+2, -1102892.6, -1535293.5, -102013.47, 0.033058092, 0.34020403, -1080033.8, 378622.13, 0.15331793, 10.003801, 9.997298 
2.4288347e+3, 1.6115166e+2, -1191243.4, -1447792.4, -68640.49, 0.15601154, 0.17406628, -1174033.0, 186706.11, 0.07196278, 10.001537, 9.998432 
2.4285296e+3, 1.7114723e+2, -850840.4, -963775.44, 30465.164, 0.22521405, 0.15227808, -843146.3, 419629.7, 0.027363949, 10.002228, 10.0006485 
2.4282232e+3, 1.811424e+2, -942010.44, -1331829.9, -28403.1, 0.19186488, 0.13455251, -939951.75, 224868.33, 0.009079448, 10.002295, 9.997459 
2.4279127e+3, 1.9113655e+2, -1018637.9, -1366186.5, -45144.465, -0.004968184, 0.28865245, -1012869.6, 54021.09, 0.002868925, 10.001444, 9.996866 
2.4276023e+3, 2.011307e+2, -987857.7, -1263517.3, -37437.355, -0.14555117, 0.44362488, -982863.8, -13904.046, 0.00059867656, 10.000607, 9.997442 
2.4272944e+3, 2.1112539e+2, -543682.9, -785483.5, -6846.1816, 0.05058279, 0.47165254, -543489.2, 327522.0, 0.000045539302, 10.0022, 9.999206 
2.426987e+3, 2.2112009e+2, -326811.03, -650316.06, 187161.1, 0.16584204, 0.4824555, -241191.06, 531869.9, 0.0000022398012, 10.003024, 9.999116 
2.4266806e+3, 2.3111545e+2, -361162.44, -426599.03, 254093.95, -0.106883526, 0.4407419, -137688.95, 537414.94, 0.000000052409952, 10.001551, 10.000549 
2.4263754e+3, 2.4111089e+2, -529669.3, -567267.6, 159861.14, -0.2783725, 0.40941414, -387505.78, 189640.81, 0.0, 10.000062, 9.999714 
2.4260737e+3, 2.511064e+2, -332940.75, -303390.53, 47657.938, 0.17516005, 0.37502295, -268269.94, 210921.2, 0.0, 10.000425, 10.000558 
2.4257705e+3, 2.611019e+2, -273364.28, -382198.06, 4451.3433, 0.5133865, 0.34308192, -273182.53, 108053.766, 0.0, 10.000654, 9.999335 
2.4254583e+3, 2.710977e+2, -77815.1, -188073.86, 75221.766, 0.10565583, 0.41991684, -39683.758, 243596.36, 0.0, 10.001294, 9.999568 
2.425147e+3, 2.8109348e+2, -131682.39, -419745.0, 222102.17, -0.235853, 0.54525614, -10998.022, 174328.06, 0.0, 10.0012, 9.997442 
2.42484e+3, 2.9108846e+2, -24033.693, -259006.58, 168065.86, -0.22214213, 0.764582, 63538.875, 150923.27, 0.0, 10.001225, 9.997741 
2.4245362e+3, 3.0108318e+2, 26068.627, -10598.468, 168052.05, 0.02532185, 0.78495383, 176784.22, 176784.22, 0.000000086511356, 10.000083, 9.99982 
2.4242346e+3, 3.110742e+2, 158576.47, 564978.75, -405627.53, 0.46112183, 0.15719864, 815456.3, 815456.3, 0.0000026170453, 9.998868, 10.00429 
2.4400406e+3, 1.2147312e+2, -2020340.5, -1625195.9, 87116.26, -0.2114988, 0.4073393, -1606842.1, 142758.2, 0.49454325, 9.996106, 10.003216 
2.439753e+3, 1.314725e+2, -1510780.5, -1055110.3, 272088.63, 0.3134938, 0.06350921, -928063.56, 723524.7, 0.3775347, 9.997759, 10.007226 
2.4394509e+3, 1.4147505e+2, -1463972.3, -1709883.3, -41788.156, -0.23375422, 0.27896473, -1457065.1, 96489.26, 0.25111946, 10.001387, 9.997994 
2.4391414e+3, 1.5146562e+2, -1509593.8, -2046096.1, -300984.2, -0.021794455, 0.22159122, -1374669.9, 80989.055, 0.13882844, 10.00193, 9.994648 
2.4388325e+3, 1.6145656e+2, -1339712.5, -1570561.3, -119801.805, 0.276469, 0.16312812, -1288778.0, 68978.89, 0.060861234, 10.000737, 9.997933 
2.4385278e+3, 1.7145404e+2, -1035313.9, -970001.9, 35089.742, 0.3245101, 0.25602326, -954723.5, 305052.28, 0.02025213, 10.000623, 10.0013275 
2.4382214e+3, 1.8145068e+2, -1259740.1, -1454943.0, -65035.734, 0.2819483, 0.3307013, -1240056.9, -78251.27, 0.0052852775, 10.000029, 9.99772 
2.437909e+3, 1.91444e+2, -1038984.8, -1297463.1, -96855.555, -0.029851168, 0.33230776, -1006719.3, 57163.383, 0.0012089658, 10.001038, 9.997525 
2.4375974e+3, 2.0143788e+2, -922995.94, -1126451.4, -36717.844, -0.22075418, 0.3794023, -916572.25, 49379.934, 0.00012403581, 10.0007515, 9.998278 
2.4372894e+3, 2.1143435e+2, -542299.8, -634937.94, 19095.549, -0.17969193, 0.44707, -538518.0, 329465.63, 0.000001917801, 10.001737, 10.000359 
2.4369828e+3, 2.2143011e+2, -631389.3, -861372.2, 134919.47, -0.076875456, 0.48267397, -569106.1, 200915.47, 0.000000018702426, 10.001333, 9.998432 
2.436679e+3, 2.3142426e+2, -477394.0, -566268.94, 165368.33, 0.021651583, 0.37488693, -350596.63, 321480.2, 0.0, 10.0011425, 9.999742 
2.4363747e+3, 2.4141864e+2, -774149.44, -858283.06, 112168.63, 0.08661958, 0.30942896, -696418.8, -122286.83, 0.0, 9.999212, 9.998119 
2.4360684e+3, 2.514149e+2, -487668.7, -497986.38, 58248.55, 0.05925992, 0.4560811, -434350.97, 41825.168, 0.0, 10.000033, 9.9993515 
2.4357617e+3, 2.614114e+2, -381139.16, -326748.88, 15082.455, 0.021693425, 0.56445754, -322846.47, 55368.137, 0.0, 9.999594, 10.000207 
2.4354531e+3, 2.7140915e+2, 93314.47, 285384.5, 85214.07, -0.101690695, 0.5304032, 317740.16, 597967.94, 0.0, 10.000893, 10.00297 
2.4351452e+3, 2.8140572e+2, -339674.03, -544555.6, 187610.56, -0.12599511, 0.48626453, -228358.33, -46101.676, 0.0, 9.999988, 9.997174 
2.4348393e+3, 2.9139745e+2, -290036.2, -597389.44, 162064.6, 0.026196282, 0.48905298, -220371.28, -136021.75, 0.0, 10.00039, 9.995794 
2.434533e+3, 3.0139023e+2, -508520.16, -503481.03, 144300.66, 0.004998025, 0.5240811, -361677.94, -361677.94, 0.0, 9.997583, 9.997627 
2.4342273e+3, 3.113862e+2, -144888.06, 306595.75, -82081.984, 0.11230001, 0.42703483, 321055.53, 321055.53, 0.00000012758136, 9.997548, 10.003026 
2.4500464e+3, 1.21778436e+2, -1311131.3, -1368954.9, -189454.2, 0.44576302, 0.6588565, -1148395.5, 598216.8, 0.48539886, 10.003953, 10.002805 
2.4497446e+3, 1.3177344e+2, -1346527.5, -1139496.1, 175482.05, -0.14145365, 0.0906629, -1039273.2, 609374.1, 0.36593348, 10.000644, 10.004822 
2.4494483e+3, 1.4177524e+2, -1770876.9, -1752763.3, -274094.3, -0.061485093, 0.36447123, -1487576.1, 63047.113, 0.23856215, 9.998571, 9.999132 
2.4491373e+3, 1.517686e+2, -1528614.1, -1718677.4, -367952.03, -0.07385256, 0.2981477, -1243619.9, 209076.94, 0.1275105, 10.000323, 9.997756 
2.4488267e+3, 1.6176227e+2, -1218172.1, -1300764.9, -128003.24, -0.028150829, 0.24465916, -1124968.6, 229796.33, 0.052560914, 10.000645, 9.999855 
2.4485198e+3, 1.7176072e+2, -1293760.8, -1019792.4, -17662.516, 0.028557487, 0.3432038, -1018658.4, 238115.52, 0.01541553, 9.998401, 10.00208 
2.4482127e+3, 1.8175794e+2, -1633687.6, -1539347.0, 15845.461, -0.0119726695, 0.41933432, -1536756.6, -377958.9, 0.0031067657, 9.996982, 9.998626 
2.4479043e+3, 1.9175091e+2, -933431.5, -1177772.0, 45192.434, -0.16943938, 0.32598364, -925340.75, 135534.08, 0.00048131414, 10.001422, 9.99819 
2.4475959e+3, 2.0174447e+2, -375681.5, -816655.56, -27848.514, -0.2718945, 0.29402056, -373929.78, 589015.4, 0.000015932997, 10.004248, 9.998709 
2.4472873e+3, 2.1174124e+2, -530905.9, -653480.94, -113334.555, -0.13595241, 0.4107071, -463348.97, 401626.63, 0.0000000054715246, 10.001903, 10.000147 
2.4469802e+3, 2.2173752e+2, -763368.9, -844142.44, 17858.45, -0.028091501, 0.49806857, -759596.6, 7413.469, 0.0, 9.999993, 9.999203 
2.4466763e+3, 2.317316e+2, -444563.44, -544213.94, 89329.12, 0.06087901, 0.3593059, -392103.56, 276962.03, 0.0, 10.001243, 9.999905 
2.4463716e+3, 2.4172598e+2, -319252.47, -545577.4, 45159.055, 0.08426895, 0.28084013, -310574.53, 260545.4, 0.0, 10.001752, 9.999086 
2.446063e+3, 2.5172243e+2, -402792.03, -422000.88, 78751.36, -0.06242864, 0.40052736, -333061.6, 140098.31, 0.0, 10.00028, 9.999854 
2.4457552e+3, 2.6171935e+2, -425018.63, -309974.38, 99081.63, -0.19497573, 0.53846896, -252927.9, 122265.41, 0.0, 9.998971, 10.000666 
2.4454488e+3, 2.7171677e+2, -92730.74, 98663.4, -68923.586, -0.1356654, 0.527768, 120900.164, 398113.4, 0.0, 9.999903, 10.002226 
2.445143e+3, 2.81713e+2, -82396.84, -268091.2, -158143.02, -0.014261753, 0.45700076, 8140.311, 187385.34, 0.0, 10.000903, 9.998669 
2.444837e+3, 2.9170474e+2, 78334.41, -227001.27, 12034.41, 0.088082716, 0.27275357, 78807.99, 160136.22, 0.0, 10.001927, 9.997656 
2.4445303e+3, 3.0169806e+2, 121139.24, -260794.39, 187341.1, 0.08615655, 0.28083882, 197688.8, 197688.8, 0.0, 10.001947, 9.997235 
2.4442233e+3, 3.1169686e+2, 615267.44, 496364.75, -37938.1, 0.03465322, 0.75736153, 626341.0, 626341.0, 0.000000000000427524, 10.003279, 10.001631 
2.4600457e+3, 1.220804e+2, -1562850.6, -1536120.9, -247893.78, 0.48289698, 0.43093756, -1301232.0, 442421.34, 0.47722483, 10.001088, 10.002083 
2.4597368e+3, 1.3207488e+2, -1675636.6, -1537435.5, 290760.47, -0.54857576, 0.12532163, -1307677.4, 338023.47, 0.3557266, 9.999241, 10.001564 
2.4594456e+3, 1.4207557e+2, -1836302.4, -1613679.4, -75576.62, 0.26282427, 0.4943292, -1590446.9, -42754.75, 0.22774403, 9.9973545, 10.000608 
2.4591331e+3, 1.5207192e+2, -1380131.8, -1220226.3, -158225.03, -0.024806652, 0.37910414, -1122900.6, 326829.97, 0.11809006, 9.999445, 10.001704 
2.4588205e+3, 1.6206867e+2, -1189802.5, -1138226.9, -108439.35, -0.22826217, 0.33404198, -1052551.3, 299212.63, 0.04605504, 10.000199, 10.001227 
2.4585105e+3, 1.7206778e+2, -1181652.9, -912805.4, -118396.62, -0.2767805, 0.42715856, -868099.3, 385667.7, 0.012013259, 9.998989, 10.002521 
2.4582027e+3, 1.8206537e+2, -1528208.8, -1462548.4, 54647.43, -0.2782215, 0.49587542, -1431627.8, -275840.8, 0.0018483637, 9.997654, 9.998822 
2.4579002e+3, 1.9205779e+2, -1015583.56, -1166263.3, 172211.39, -0.2751772, 0.27909392, -902953.06, 154912.56, 0.00018026956, 10.000645, 9.998631 
2.4575962e+3, 2.0205092e+2, -789141.56, -1115646.1, -83401.68, -0.1824489, 0.19741032, -769071.3, 190865.9, 0.0000007906511, 10.00194, 9.9977665 
2.4572864e+3, 2.1204735e+2, -734652.8, -863570.94, -222697.89, 0.058234036, 0.362823, -567272.9, 294701.8, 0.0, 10.001067, 9.99911 
2.4569778e+3, 2.2204344e+2, -936054.0, -948423.56, 19286.229, 0.2244448, 0.50281346, -921985.1, -157971.27, 0.0, 9.999083, 9.998907 
2.4566728e+3, 2.3203848e+2, -536940.25, -494402.78, 129778.22, 0.06864979, 0.39002666, -384162.03, 281897.34, 0.0, 10.000445, 10.000527 
2.456367e+3, 2.4203372e+2, -529089.94, -566205.2, -5864.139, -0.06584912, 0.32098413, -528185.5, 39917.0, 0.0, 10.000128, 9.99969 
2.4560574e+3, 2.5202987e+2, -374494.72, -254089.84, -16074.839, -0.1802893, 0.26174188, -251980.7, 218155.89, 0.0, 9.999869, 10.001169 
2.455749e+3, 2.620259e+2, -794994.1, -818307.3, 62370.49, -0.22959891, 0.3023861, -743200.3, -371024.56, 0.0, 9.997973, 9.997631 
2.4554451e+3, 2.7202088e+2, -470927.13, -545694.1, -33685.668, -0.05657207, 0.4249692, -457989.16, -183754.88, 0.0, 9.99942, 9.997969 
2.4551404e+3, 2.8201616e+2, -180893.11, -122964.5, -101784.99, 0.04643188, 0.47701088, -46102.926, 130179.414, 0.0, 9.999562, 10.000287 
2.4548323e+3, 2.92011e+2, 329618.16, 478939.97, 59946.64, -0.14080994, 0.10927938, 500027.97, 578340.5, 0.0, 10.001252, 10.00279 
2.4545278e+3, 3.020047e+2, -421512.38, -835093.44, 204414.89, -0.0063870144, -0.05995419, -337531.9, -337531.9, 0.0, 9.999789, 9.994285 
2.454224e+3, 3.1200156e+2, -16345.614, -233872.84, 98587.26, 0.048678, 0.5898466, 21686.45, 21686.45, 0.0, 10.001117, 9.997514 
2.4700403e+3, 1.2239021e+2, -1659526.0, -1579403.0, 25750.924, 0.2976952, 0.23944935, -1571840.6, 168765.81, 0.46784827, 9.999778, 10.00185 
2.46973e+3, 1.3238683e+2, -1905748.3, -1777347.5, 455017.22, -0.6777279, 0.3030456, -1382023.9, 260613.0, 0.34520847, 9.998265, 10.000119 
2.469437e+3, 1.4238286e+2, -2036098.1, -1698761.5, 230898.88, 0.12202609, 0.31729317, -1581487.0, -36812.844, 0.21743059, 9.99592, 10.000708 
2.4691291e+3, 1.5237966e+2, -1440399.6, -1175924.8, 113294.76, 0.113047935, 0.20864543, -1134028.9, 312672.44, 0.109704144, 9.998702, 10.002337 
2.4688198e+3, 1.623765e+2, -1226768.0, -1311394.8, 37939.117, 0.02245981, 0.21003172, -1212250.1, 136480.9, 0.040704507, 10.000614, 9.999777 
2.4685076e+3, 1.7237307e+2, -1014320.8, -1123929.6, -106969.89, -0.19543137, 0.31128347, -948933.4, 301835.84, 0.00953522, 10.001366, 9.999953 
2.4681982e+3, 1.8236929e+2, -1030024.2, -1170057.9, 1763.571, -0.33650455, 0.4089521, -1030002.0, 122807.77, 0.0011160366, 10.000791, 9.999332 
2.467897e+3, 1.9236375e+2, -1152988.8, -1107178.4, 125025.79, -0.14401117, 0.2942186, -1002976.94, 51888.793, 0.00006263998, 9.999107, 9.999812 
2.4675936e+3, 2.0235851e+2, -1254465.4, -1191593.8, -78217.125, 0.0031912304, 0.2700606, -1138731.8, -181813.34, 0.0000000031066179, 9.998031, 9.999157 
2.467283e+3, 2.1235462e+2, -792920.25, -828574.7, -132512.19, 0.111156516, 0.34099776, -677041.5, 181916.1, 0.0, 10.000313, 9.999782 
2.4669737e+3, 2.2235027e+2, -585276.06, -759215.44, 114873.55, 0.13585375, 0.42115536, -528163.6, 232837.02, 0.0, 10.001272, 9.999194 
2.466668e+3, 2.3234504e+2, -717127.2, -656923.6, 141346.58, 0.008797581, 0.3441628, -542509.06, 120541.24, 0.0, 9.999398, 9.999988 
2.4663621e+3, 2.4234009e+2, -725280.2, -645980.8, -18220.018, -0.10262841, 0.30532905, -641994.9, -76898.63, 0.0, 9.998596, 9.999908 
2.466054e+3, 2.523355e+2, -207754.55, -226867.75, -121165.45, -0.12817355, 0.21060483, -95769.4, 371366.47, 0.0, 10.0011215, 10.000822 
2.4657466e+3, 2.623307e+2, -105485.39, -434898.7, -89649.914, -0.1305751, 0.19183794, -82667.67, 286513.22, 0.0, 10.00231, 9.998209 
2.4654414e+3, 2.723256e+2, -289252.97, -475311.38, 30258.25, 0.012016502, 0.29374257, -284455.84, -13214.778, 0.0, 10.000599, 9.99794 
2.4651362e+3, 2.8232116e+2, -96039.945, 37367.695, 130471.766, 0.061224252, 0.37869695, 117198.11, 290484.66, 0.0, 9.999521, 10.001425 
2.4648291e+3, 2.9231688e+2, 428898.88, 598071.4, -23685.033, -0.16669428, 0.052119575, 601324.8, 676631.8, 0.0, 10.0015, 10.003573 
2.4645273e+3, 3.0231047e+2, -8552.678, -589203.0, -43599.758, 0.1737149, -0.17919143, -5297.12, -5297.12, 0.0, 10.002198, 9.994879 
2.464221e+3, 3.1230426e+2, -95841.15, -327364.13, 62714.31, 0.0038724546, 0.24525237, -79944.73, -79944.73, 0.0, 10.000443, 9.99734 
2.4800356e+3, 1.2270292e+2, -1710075.3, -1662836.3, 32917.445, 0.23597138, 0.30335417, -1645941.1, 91589.24, 0.45571682, 9.999453, 10.000945 
2.4797244e+3, 1.3269795e+2, -1788221.1, -1846129.0, 171944.36, -0.6732987, 0.32714885, -1642810.0, -3230.677, 0.33319858, 9.999374, 9.998583 
2.4794285e+3, 1.4269078e+2, -1736225.0, -1572981.4, 57050.58, 0.06498592, 0.10505382, -1555019.6, -13372.541, 0.20679392, 9.998113, 10.000515 
2.4791256e+3, 1.5268801e+2, -1428209.8, -1185354.0, 27097.318, 0.31774148, 0.020125624, -1182367.4, 261295.5, 0.10179194, 9.998812, 10.002237 
2.4788198e+3, 1.6268408e+2, -1638587.6, -1791962.5, -69247.664, 0.46415377, 0.04181178, -1611949.4, -266251.22, 0.036105353, 9.99904, 9.997219 
2.4785064e+3, 1.7267764e+2, -1386149.3, -1645060.1, -149138.47, 0.042739578, 0.12666449, -1318118.0, -70340.88, 0.0076701324, 10.000384, 9.996798 
2.4781957e+3, 1.8267238e+2, -1138490.9, -1236192.3, -38645.867, -0.17631274, 0.280781, -1125052.8, 24787.293, 0.000687035, 10.000217, 9.999118 
2.477894e+3, 1.9266985e+2, -1088110.3, -925572.94, 24786.557, 0.10703319, 0.34230798, -921877.06, 129987.09, 0.000019881356, 9.999044, 10.001016 
2.4775898e+3, 2.026667e+2, -1246261.3, -1080717.0, -92542.664, 0.31165174, 0.40863633, -1039330.44, -85436.83, 0.0, 9.997726, 10.000011 
2.4772786e+3, 2.1266258e+2, -809103.44, -695548.75, -104486.445, 0.12173239, 0.31344503, -633409.8, 222521.52, 0.0, 9.999686, 10.000907 
2.4769683e+3, 2.2265787e+2, -876759.06, -1031624.9, 33780.395, -0.017072272, 0.31423846, -869711.4, -111735.414, 0.0, 9.999922, 9.997938 
2.4766621e+3, 2.3265164e+2, -840974.1, -874629.7, 27958.447, -0.0626238, 0.25081083, -825169.9, -165131.92, 0.0, 9.999258, 9.998538 
2.4763566e+3, 2.4264555e+2, -979298.56, -980045.25, 10329.851, -0.042174086, 0.24946482, -969335.3, -407237.56, 0.0, 9.997918, 9.99791 
2.4760522e+3, 2.526398e+2, -400089.75, -478757.38, -27689.102, 0.051024437, 0.17242151, -391321.22, 72830.31, 0.0, 10.000633, 9.999241 
2.4757466e+3, 2.6263463e+2, -240889.6, -356014.94, -120648.2, 0.08911448, 0.15798509, -164775.6, 201423.78, 0.0, 10.000927, 9.999392 
2.4754372e+3, 2.7263114e+2, -196459.83, -83005.04, -52598.438, -0.0058858246, 0.12642942, -62372.285, 205859.38, 0.0, 9.9998865, 10.000935 
2.4751301e+3, 2.8262737e+2, -510125.28, -487047.22, 141166.89, -0.08158058, 0.1916124, -356948.56, -186681.31, 0.0, 9.998195, 9.998452 
2.4748276e+3, 2.926214e+2, 5397.1836, -46178.54, 42993.51, -0.026708124, 0.060380276, 29743.701, 102067.9, 0.0, 10.000654, 9.999476 
2.474529e+3, 3.0261585e+2, -191811.39, -425913.84, -110277.06, 0.5014095, 0.086567454, -148045.89, -148045.89, 0.0, 10.000039, 9.997003 
2.4742146e+3, 3.1261113e+2, -111311.05, 231194.05, -25003.97, -0.31716722, 0.099482685, 233009.8, 233009.8, 0.0, 9.998063, 10.002287 
2.4900287e+3, 1.2300548e+2, -1857995.5, -1788532.6, -143025.72, -0.04220098, 0.42332843, -1676081.8, 58474.36, 0.43991777, 9.998849, 10.00014 
2.4897239e+3, 1.3299556e+2, -1598364.9, -1794558.0, -28430.951, -0.38424334, -0.040504307, -1594328.0, 42332.13, 0.31901658, 10.001056, 9.9981365 
2.4894248e+3, 1.4299375e+2, -1357313.9, -1359213.3, -189855.17, 0.031895723, 0.266914, -1168406.0, 370273.03, 0.19536594, 10.000786, 10.001008 
2.4891181e+3, 1.5299056e+2, -1402505.0, -1105715.5, -227007.66, 0.11764979, 0.07735385, -982902.8, 457795.03, 0.094030365, 9.998726, 10.002899 
2.4888113e+3, 1.629864e+2, -1789257.0, -1723230.4, -218782.44, 0.18314038, -0.016014459, -1534984.5, -192250.77, 0.032013185, 9.997364, 9.998495 
2.488502e+3, 1.7298067e+2, -1434744.5, -1530659.5, -123849.76, 0.07294786, 0.00190525, -1349891.3, -105090.05, 0.0062260167, 9.999424, 9.998041 
2.4881938e+3, 1.82976e+2, -1075477.0, -1153969.1, -1090.8212, -0.04433769, 0.12862647, -1075461.9, 71393.61, 0.00043419475, 10.000362, 9.999615 
2.487889e+3, 1.929737e+2, -950182.56, -887806.56, -18852.553, 0.0388786, 0.23836166, -882551.3, 166326.98, 0.0000058323185, 10.000036, 10.000828 
2.4875827e+3, 2.0297077e+2, -984504.6, -946207.0, -159724.48, 0.09768172, 0.34845644, -804487.56, 146419.08, 0.000000000090419006, 9.999413, 10.000117 
2.4872734e+3, 2.1296643e+2, -810546.7, -729119.06, -211244.5, 0.082753085, 0.24865568, -554700.7, 298247.2, 0.0, 9.999687, 10.000712 
2.486965e+3, 2.2296141e+2, -791278.7, -933070.2, -121647.766, 0.015285411, 0.20777777, -721375.3, 33620.465, 0.0, 10.000169, 9.99849 
2.4866591e+3, 2.3295522e+2, -457835.8, -697790.94, -70195.7, 0.0053999717, 0.1411623, -438809.6, 218247.02, 0.0, 10.001849, 9.998551 
2.4863538e+3, 2.4294928e+2, -265771.94, -577059.2, -35526.527, 0.014424613, 0.15141854, -261768.84, 297345.8, 0.0, 10.002455, 9.998494 
2.4860488e+3, 2.5294405e+2, -361264.3, -485568.5, -5432.5996, 0.06662402, 0.13312395, -361027.34, 100137.555, 0.0, 10.000876, 9.999121 
2.4857427e+3, 2.62939e+2, -346111.5, -383598.44, -127733.625, 0.07505547, 0.14866255, -235753.47, 127459.766, 0.0, 9.999931, 9.99971 
2.4854334e+3, 2.7293497e+2, -31745.207, -41302.082, -256307.47, -0.012315772, 0.09112913, 219828.36, 485079.25, 0.0, 10.000992, 10.000783 
2.485126e+3, 2.8293094e+2, -77062.266, -256558.53, -124172.805, -0.06510451, 0.12542556, -13599.391, 153689.75, 0.0, 10.000876, 9.998793 
2.4848239e+3, 2.9292586e+2, -281027.28, -241993.19, 17818.252, 0.04406386, 0.11794606, -235082.88, -165742.06, 0.0, 9.998762, 9.999118 
2.4845248e+3, 3.0292144e+2, -186135.1, -212840.75, 37204.94, 0.51625204, 0.22240192, -159959.39, -159959.39, 0.0, 9.999062, 9.998952 
2.4842119e+3, 3.129164e+2, 859382.8, 831577.8, -245146.44, -0.28127295, 0.101014614, 1091020.6, 1091020.6, 0.0, 10.003833, 10.003776 
2.500025e+3, 1.2330065e+2, -1654445.8, -1699140.9, -4896.261, 0.06128962, -0.12283798, -1653915.8, 77740.49, 0.42027465, 10.000577, 9.999946 
2.4997246e+3, 1.3329327e+2, -1677842.6, -1836826.1, 109315.17, 0.040904354, -0.31527328, -1622172.4, 11568.394, 0.30251706, 10.00045, 9.998167 
2.4994214e+3, 1.4329652e+2, -1482016.3, -1387332.8, -160240.45, 0.10486532, 0.51599365, -1267587.0, 268127.03, 0.18302314, 9.999536, 10.001402 
2.4991101e+3, 1.5329212e+2, -1298660.5, -1020743.4, -256873.45, -0.105058715, 0.14732307, -867651.56, 570095.4, 0.08629053, 9.999248, 10.003272 
2.4988015e+3, 1.6328791e+2, -1488456.0, -1390157.8, -179311.8, -0.09195704, -0.03555137, -1253381.3, 86400.61, 0.028287582, 9.998633, 10.000165 
2.4984975e+3, 1.7328374e+2, -1202344.5, -1186143.6, -115313.055, 0.117581464, -0.101670936, -1078646.8, 163178.63, 0.0050760456, 9.999966, 10.000156 
2.4981916e+3, 1.8327977e+2, -1166334.0, -1232369.3, -69845.68, 0.1686351, -0.022845238, -1122095.1, 21772.145, 0.00028139996, 10.000004, 9.999228 
2.4978825e+3, 1.9327685e+2, -1067514.0, -1012626.9, -95795.2, -0.11415364, 0.07363322, -940421.7, 105476.055, 0.0000014559199, 9.999662, 10.000116 
2.4975747e+3, 2.032733e+2, -1155272.1, -1148471.0, -188194.16, -0.17281236, 0.20822035, -963646.7, -15712.109, 0.0, 9.998873, 9.998981 
2.4972686e+3, 2.1326873e+2, -900699.06, -834781.44, -220750.39, 0.0809143, 0.14276856, -644543.0, 205438.08, 0.0, 9.999521, 10.000014 
2.4969627e+3, 2.2326371e+2, -914304.44, -1004233.25, -84255.32, 0.23516448, 0.1552523, -863766.2, -111736.05, 0.0, 9.9995, 9.998323 
2.496658e+3, 2.3325755e+2, -525777.75, -652668.44, -22202.611, 0.17547938, 0.016416103, -522005.06, 132082.92, 0.0, 10.001138, 9.999169 
2.4963523e+3, 2.4325234e+2, -493937.66, -652534.2, -92161.12, 0.09247477, 0.03965031, -451655.16, 104482.195, 0.0, 10.000824, 9.998752 
2.4960437e+3, 2.532486e+2, -453773.63, -440601.84, -82841.29, -0.0725627, 0.07780555, -364085.06, 94088.27, 0.0, 9.999964, 9.999829 
2.4957359e+3, 2.6324403e+2, -703781.7, -840150.5, -121018.24, -0.13646181, 0.19924316, -633061.3, -272840.03, 0.0, 9.998836, 9.997076 
2.49543e+3, 2.7323747e+2, -310163.63, -498009.72, -202218.56, 0.013045257, 0.15206632, -181120.56, 81174.09, 0.0, 10.000533, 9.997846 
2.4951237e+3, 2.832326e+2, -163924.53, -111470.1, -186985.34, 0.055249695, 0.21874978, 51118.426, 215462.23, 0.0, 9.999624, 10.000356 
2.4948162e+3, 2.9323095e+2, -211013.03, 151090.13, -46875.65, -0.16335447, 0.21036492, 157059.94, 223409.0, 0.0, 9.997794, 10.002235 
2.4945141e+3, 3.0322728e+2, -561737.8, -593142.3, 172167.1, -0.07422692, 0.2814725, -404558.38, -404558.38, 0.0, 9.997544, 9.997021 
2.4942148e+3, 3.1321883e+2, 330358.4, 144961.64, 47998.305, -0.084843494, 0.05346528, 342047.9, 342047.9, 0.0, 10.0024185, 9.999613 
2.5100243e+3, 1.2360825e+2, -1465200.6, -1473896.3, -18893.068, 0.09914225, 0.079962745, -1450161.5, 278478.56, 0.39734322, 10.001814, 10.001813 
2.509721e+3, 1.3359958e+2, -1732178.8, -1820579.6, 200897.55, 0.08791133, -0.2931865, -1570676.8, 60057.293, 0.28406283, 9.999978, 9.998518 
2.5094151e+3, 1.436009e+2, -1698884.0, -1590511.1, -2243.3772, -0.05915649, 0.3870642, -1590464.6, -57737.72, 0.16993596, 9.998459, 10.000241 
2.5091058e+3, 1.5359624e+2, -1217779.4, -1138437.6, -99770.56, -0.13142875, 0.15846273, -1070740.3, 364029.2, 0.078587286, 10.000546, 10.001746 
2.5087982e+3, 1.6359197e+2, -1134706.6, -1264026.8, -113342.01, -0.10365773, 0.09264997, -1068877.9, 267931.38, 0.024857625, 10.001267, 9.999762 
2.5084943e+3, 1.7358786e+2, -1022048.2, -1116191.8, -123146.836, 0.11133585, 0.071690924, -937283.3, 301566.66, 0.0041356636, 10.001264, 10.000038 
2.5081876e+3, 1.8358341e+2, -1045502.25, -1121984.4, -186537.4, 0.099177346, 0.09587864, -893326.44, 247567.16, 0.00018434241, 10.000567, 9.999714 
2.5078773e+3, 1.9357893e+2, -997001.06, -967882.44, -167838.64, -0.20013365, 0.028132824, -813972.8, 228963.63, 0.00000026313862, 10.00006, 10.000253 
2.5075692e+3, 2.0357469e+2, -952324.06, -1038646.75, -208386.75, -0.27754527, 0.091425665, -782675.75, 162302.9, 0.0, 10.000144, 9.999138 
2.5072652e+3, 2.1357049e+2, -625409.4, -759152.2, -216169.98, 0.11408387, 0.116621785, -466003.8, 381019.06, 0.0, 10.00157, 9.999615 
2.5069603e+3, 2.2356588e+2, -481932.56, -714489.3, -115750.305, 0.28851998, 0.17147179, -434141.47, 314927.53, 0.0, 10.001951, 9.999188 
2.506654e+3, 2.3356028e+2, -561444.0, -626631.75, -80648.23, 0.11982869, 0.045540813, -507052.25, 144068.77, 0.0, 10.00054, 9.999712 
2.506347e+3, 2.4355571e+2, -588804.6, -588085.9, -166303.11, -0.05133227, 0.06826455, -422141.78, 131021.57, 0.0, 9.999576, 9.999816 
2.506038e+3, 2.5355244e+2, -441948.44, -386618.38, -177685.63, -0.20699687, 0.107680105, -234457.02, 220737.28, 0.0, 9.999701, 10.000395 
2.5057304e+3, 2.6354784e+2, -461766.38, -684751.5, -112699.875, -0.2331925, 0.1885014, -414728.66, -57486.492, 0.0, 10.000233, 9.997497 
2.5054267e+3, 2.7354065e+2, -166229.4, -471160.06, -40492.047, 0.011125026, 0.12839393, -160944.05, 98378.14, 0.0, 10.001637, 9.997548 
2.5051212e+3, 2.8353536e+2, 298471.03, 147311.92, -53915.03, 0.088692956, 0.17980368, 315730.6, 477106.53, 0.0, 10.0024805, 10.000798 
2.504812e+3, 2.9353362e+2, 503580.97, 464927.1, -188487.36, -0.17572759, 0.18259118, 673729.7, 737109.7, 0.0, 10.002578, 10.002196 
2.5045094e+3, 3.035301e+2, -19331.943, -409077.22, 65416.367, -0.10283642, 0.29499945, -8645.23, -8645.23, 0.0, 10.001394, 9.996489 
2.5042158e+3, 3.1352115e+2, -204728.38, -300805.97, 89544.1, 0.31871584, 0.12574247, -151150.88, -151150.88, 0.0, 9.999231, 9.998177 
2.5200224e+3, 1.2391593e+2, -1538614.8, -1468064.4, -90172.21, 0.19182202, 0.09710947, -1406513.0, 319111.75, 0.3720952, 10.00053, 10.002388 
2.519716e+3, 1.3390718e+2, -1668875.4, -1806922.3, 54022.47, 0.018647293, -0.27994275, -1650248.0, -22532.295, 0.26429757, 10.000334, 9.998398 
2.519409e+3, 1.4390644e+2, -1675156.6, -1708388.4, -2697.5823, -0.05775887, 0.25265855, -1674939.0, -145210.8, 0.15642525, 9.999288, 9.998962 
2.5191027e+3, 1.5390171e+2, -1375165.9, -1390739.0, -42790.957, -0.026704159, 0.16426362, -1339458.8, 92319.664, 0.071005836, 10.000347, 9.999879 
2.5187966e+3, 1.6389723e+2, -1348683.6, -1493930.5, -40333.71, 0.08634156, 0.25095087, -1338235.0, -4410.3022, 0.021693112, 10.000415, 9.998563 
2.518491e+3, 1.7389274e+2, -1204503.8, -1268502.3, -62644.938, 0.15924686, 0.27427596, -1166158.5, 69710.41, 0.00335279, 10.000466, 9.999322 
2.5181833e+3, 1.8388766e+2, -1157526.4, -1193435.4, -116300.73, 0.10829779, 0.2910157, -1057802.4, 80114.516, 0.00011963712, 9.999898, 9.999531 
2.5178728e+3, 1.9388129e+2, -1010681.94, -962075.5, -138460.42, -0.19026567, -0.0037321977, -845801.56, 194173.47, 0.00000002568285, 9.999892, 10.000353 
2.5175655e+3, 2.0387614e+2, -1069800.4, -1182025.3, -109733.07, -0.19638637, -0.007429758, -1002665.3, -60641.074, 0.0, 9.999741, 9.998341 
2.5172627e+3, 2.1387222e+2, -746484.56, -877224.25, -136074.6, 0.19458224, 0.078856364, -660892.44, 183173.95, 0.0, 10.001001, 9.999056 
2.5169575e+3, 2.2386816e+2, -698032.56, -827710.4, -112518.41, 0.31237957, 0.2296022, -633008.1, 113099.7, 0.0, 10.000653, 9.998986 
2.5166482e+3, 2.3386358e+2, -626686.75, -610889.8, -124443.51, -0.052049045, 0.14492923, -494094.38, 154056.84, 0.0, 10.000008, 10.0000305 
2.5163397e+3, 2.4385954e+2, -734935.25, -667712.2, -178149.67, -0.27624503, 0.21182159, -520031.0, 30157.766, 0.0, 9.998763, 9.999637 
2.516032e+3, 2.5385585e+2, -519689.78, -392563.25, -184088.97, -0.29608786, 0.16604044, -261372.72, 190850.13, 0.0, 9.99917, 10.000567 
2.515726e+3, 2.6385117e+2, -560950.25, -629315.3, -80636.375, -0.26084945, 0.19741473, -507550.44, -153282.27, 0.0, 9.999255, 9.998309 
2.5154227e+3, 2.7384454e+2, -177354.56, -289876.0, 6111.0547, -0.121102236, 0.007238319, -177023.64, 79310.78, 0.0, 10.000905, 9.99907 
2.5151184e+3, 2.8383842e+2, -68707.09, -328884.84, -60923.27, -0.018624231, 0.00021642564, -55147.92, 103246.59, 0.0, 10.001431, 9.997982 
2.5148126e+3, 2.9383337e+2, 179008.44, -41827.09, -168446.94, 0.04657169, -0.028599646, 270001.84, 330442.1, 0.0, 10.002018, 9.998924 
2.5145102e+3, 3.038296e+2, -104048.93, -384180.88, -29794.266, 0.17594592, 0.23447669, -100915.125, -100915.125, 0.0, 10.00069, 9.996947 
2.5142053e+3, 3.1382057e+2, -387887.38, -232216.36, 108255.74, -0.32991135, -0.12655291, -176718.92, -176718.92, 0.0, 9.997512, 9.999407 
2.5300172e+3, 1.2422057e+2, -1703038.5, -1610300.8, 29301.95, -0.01705082, -0.070940696, -1601818.1, 120830.29, 0.34545994, 9.999225, 10.001387 
2.5297126e+3, 1.342152e+2, -1672811.4, -1838205.9, 45418.055, 0.0415863, -0.06615494, -1661160.1, -36454.41, 0.24384509, 10.000406, 9.99816 
2.5294042e+3, 1.4421381e+2, -1534248.0, -1541508.5, -2944.7039, -0.19941868, 0.37874845, -1533203.9, -6482.8574, 0.14280653, 9.999859, 9.999807 
2.5290993e+3, 1.5420844e+2, -1331728.9, -1283162.9, 42376.664, 0.020595253, 0.15688738, -1258604.9, 170165.78, 0.06363834, 10.000266, 10.000698 
2.5287938e+3, 1.6420348e+2, -1333034.6, -1403493.6, 79015.61, 0.16832702, 0.13302615, -1281750.6, 49066.176, 0.0187796, 10.000092, 9.999353 
2.5284868e+3, 1.7419861e+2, -1208008.4, -1218610.1, 127324.29, 0.13736783, 0.07438359, -1085874.8, 146987.9, 0.0026956536, 10.000069, 9.999907 
2.5281787e+3, 1.8419366e+2, -1174977.8, -1252343.0, 92677.71, 0.019982722, 0.113066375, -1113233.8, 21676.99, 0.00007576087, 9.999987, 9.999061 
2.5278696e+3, 1.9418794e+2, -944741.8, -1033725.3, 42122.008, -0.15108225, 0.0062662126, -927965.5, 109001.91, 0.00000000011876218, 10.000726, 9.999478 
2.5275627e+3, 2.041826e+2, -834944.4, -1039810.5, 56915.305, -0.14400382, 0.04003013, -820194.3, 118825.37, 0.0, 10.001154, 9.99864 
2.5272596e+3, 2.1417771e+2, -639137.25, -836789.7, 69587.87, 0.14630184, 0.060489014, -617095.4, 223971.89, 0.0, 10.001678, 9.999048 
2.5269538e+3, 2.2417264e+2, -553664.44, -808555.06, 34567.2, 0.19406198, 0.14759845, -549059.75, 194057.61, 0.0, 10.001749, 9.998609 
2.5266448e+3, 2.3416692e+2, -456402.22, -650783.4, -35131.566, -0.05245001, 0.08325797, -450247.6, 194926.69, 0.0, 10.001551, 9.999083 
2.5263363e+3, 2.4416202e+2, -375747.22, -517174.4, -139188.28, -0.22095032, 0.1369829, -290339.72, 256883.58, 0.0, 10.00121, 9.999508 
2.5260285e+3, 2.541581e+2, -276897.97, -348147.6, -185733.45, -0.23689209, 0.152558, -123403.664, 325859.38, 0.0, 10.001061, 9.999991 
2.5257224e+3, 2.6415372e+2, -262814.53, -337930.34, -114236.33, -0.20212637, 0.1883571, -180120.48, 171184.38, 0.0, 10.000521, 9.999736 
2.525419e+3, 2.7414808e+2, -311716.6, -242884.69, -80195.86, -0.052804157, 0.0010525313, -190031.89, 63323.85, 0.0, 9.999328, 10.00022 
2.5251153e+3, 2.8414235e+2, -393239.47, -527392.3, -63276.89, 0.057922903, -0.0141765, -368103.03, -212692.47, 0.0, 9.999325, 9.9976225 
2.5248104e+3, 2.9413632e+2, 21558.846, -249888.72, -56021.277, 0.09503587, -0.014019165, 32666.016, 90137.52, 0.0, 10.001441, 9.997803 
2.5245073e+3, 3.041311e+2, 86638.41, -218873.19, 53721.367, 0.19357152, 0.16649906, 95809.5, 95809.5, 0.0, 10.001588, 9.997689 
2.5242e+3, 3.1412485e+2, -120058.04, -9491.709, 59214.938, -0.27524966, 0.07252737, 16235.232, 16235.232, 0.0, 9.998811, 10.000386 
2.5400198e+3, 1.2453303e+2, -1648782.5, -1643920.0, 114681.65, 0.6637691, 0.63064635, -1531643.9, 187949.77, 0.31815657, 10.000297, 10.000496 
2.5397104e+3, 1.3452351e+2, -1731297.6, -1856434.1, 3910.2168, 0.2570319, 0.18905175, -1731175.6, -109482.836, 0.22319712, 9.999984, 9.998219 
2.539399e+3, 1.445208e+2, -1488590.3, -1417084.9, -9139.409, -0.25973356, 0.44766897, -1415935.1, 107782.18, 0.12934339, 9.999688, 10.000875 
2.5390965e+3, 1.5451519e+2, -1275668.1, -1167983.8, -28420.617, 0.14310643, 0.10036888, -1160943.1, 264817.72, 0.05657354, 10.000225, 10.0016 
2.5387913e+3, 1.6451019e+2, -1307788.8, -1287724.0, -8432.184, 0.34283012, -0.014822537, -1284651.0, 43150.734, 0.016116831, 9.999872, 10.000232 
2.5384825e+3, 1.7450538e+2, -1161536.4, -1102390.0, -31.90219, 0.13862388, -0.19246812, -1102389.9, 127454.55, 0.0021455006, 9.999995, 10.000726 
2.538174e+3, 1.8450093e+2, -1309328.6, -1483520.9, 25637.768, 0.016877014, -0.08202429, -1305633.6, -173744.33, 0.000046550977, 9.999802, 9.997574 
2.5378668e+3, 1.9449648e+2, -1079607.5, -1263844.3, -10472.717, -0.027498811, 0.054555662, -1079014.1, -45073.336, 0.0, 10.000532, 9.998 
2.5375608e+3, 2.0449127e+2, -953787.6, -1107932.9, 29839.57, 0.004970839, 0.18913044, -948212.9, -12219.882, 0.0, 10.000513, 9.998431 
2.5372556e+3, 2.1448487e+2, -769207.56, -876762.06, 20970.855, 0.066880584, 0.013148822, -765263.3, 72786.03, 0.0, 10.000811, 9.999138 
2.5369498e+3, 2.2447802e+2, -867283.06, -1158449.5, -12253.131, 0.11292469, 0.009901681, -866768.3, -126653.94, 0.0, 10.000585, 9.996741 
2.536643e+3, 2.3447011e+2, -704486.25, -946684.9, -55364.64, 0.07483669, -0.13208747, -692430.44, -50235.05, 0.0, 10.000757, 9.997379 
2.5363353e+3, 2.4446417e+2, -650321.5, -823907.44, -146338.78, 0.0153809, -0.009896018, -566973.2, -22714.379, 0.0, 10.000233, 9.99782 
2.5360262e+3, 2.544599e+2, -492068.6, -597180.4, -183837.61, -0.119473994, 0.06986018, -353422.0, 92886.0, 0.0, 10.000307, 9.998595 
2.53572e+3, 2.6445585e+2, -407296.56, -372484.4, -154621.11, -0.08074729, 0.20881766, -234292.73, 114055.44, 0.0, 9.999521, 9.999935 
2.5354162e+3, 2.7445176e+2, -382796.63, -195625.19, -118251.016, 0.19635834, 0.07401567, -138407.77, 111972.805, 0.0, 9.998603, 10.000856 
2.5351116e+3, 2.8444782e+2, -519970.88, -562699.6, -5173.864, 0.17622463, 0.21164231, -519353.3, -366936.66, 0.0, 9.998454, 9.99778 
2.5348043e+3, 2.9444283e+2, -47499.266, -203571.63, 44575.656, -0.24259457, 0.21789691, -35665.35, 18804.238, 0.0, 10.000725, 9.998434 
2.5345004e+3, 3.0443504e+2, -99547.99, -300741.53, -18544.898, -0.22639777, 0.11598279, -97852.91, -97852.91, 0.0, 10.000451, 9.997623 
2.5341982e+3, 3.14429e+2, -242440.8, 98524.32, 33626.063, 0.026033863, 0.0062784534, 101808.89, 101808.89, 0.0, 9.997403, 10.00178 
2.55001e+3, 1.2483415e+2, -1743457.8, -2006727.4, 298691.94, -0.13053574, 0.15394826, -1548680.9, 167947.45, 0.29081753, 10.001157, 9.997464 
2.5497064e+3, 1.3482834e+2, -1621130.4, -1768338.9, 40304.78, 0.237017, 0.06847078, -1610817.6, 7877.7153, 0.2027681, 10.000577, 9.9985695 
2.5493953e+3, 1.4482424e+2, -1480275.8, -1482132.4, -7229.2544, -0.26483694, 0.20816034, -1473915.4, 46822.227, 0.11625642, 10.000089, 10.000155 
2.5490925e+3, 1.5481877e+2, -1317482.3, -1297448.4, -63384.527, 0.14487332, -0.028923368, -1243294.1, 179490.38, 0.04988728, 10.000364, 10.0006 
2.548787e+3, 1.6481471e+2, -1267002.1, -1288712.1, -127782.02, 0.26249707, 0.012038736, -1149614.9, 175206.33, 0.013707004, 10.000257, 10.000049 
2.5484776e+3, 1.7481159e+2, -1083285.5, -1100664.8, -142311.14, 0.04620258, 0.043316204, -949398.94, 277453.56, 0.0016894786, 10.000672, 10.000436 
2.54817e+3, 1.8480735e+2, -1086752.4, -1315532.6, -133251.9, -0.044366676, 0.15688698, -1025525.94, 103369.414, 0.000027889511, 10.001019, 9.99815 
2.5478646e+3, 1.9480176e+2, -905789.7, -1148084.0, -91225.305, 0.039990284, 0.1440629, -875283.7, 155669.48, 0.0, 10.001536, 9.99834 
2.5475585e+3, 2.0479576e+2, -818791.3, -1043233.2, -82635.81, 0.07082387, 0.1771512, -791648.6, 141362.23, 0.0, 10.001379, 9.998469 
2.547252e+3, 2.1478866e+2, -788171.1, -943006.06, -107430.62, 0.039560284, -0.019417044, -733169.56, 101904.836, 0.0, 10.000803, 9.9987335 
2.5469458e+3, 2.2478211e+2, -753664.44, -990357.06, -98588.53, 0.032282956, -0.032378204, -717979.75, 19156.191, 0.0, 10.000822, 9.997787 
2.54664e+3, 2.3477565e+2, -513662.9, -794839.5, -28842.254, 0.054621845, -0.073963486, -510734.84, 128465.42, 0.0, 10.001746, 9.9979725 
2.546332e+3, 2.4476963e+2, -424235.9, -762141.7, -99948.08, 0.0061882907, 0.03076743, -396886.22, 144377.8, 0.0, 10.001816, 9.99756 
2.546022e+3, 2.547638e+2, -484731.44, -708011.3, -119005.45, -0.13453414, 0.07048641, -433197.3, 10132.844, 0.0, 10.000632, 9.997792 
2.5457153e+3, 2.6475897e+2, -272531.53, -282916.72, -66484.695, -0.076466285, 0.16927873, -211036.95, 134341.5, 0.0, 10.0002365, 10.000247 
2.5454125e+3, 2.7475518e+2, -30610.832, -67593.914, -119503.46, 0.24283531, 0.13007757, 71823.28, 319230.75, 0.0, 10.001094, 10.000602 
2.5451073e+3, 2.8475133e+2, -119363.25, -269092.0, -11646.245, 0.19639993, 0.24471523, -118462.79, 30980.201, 0.0, 10.00062, 9.998812 
2.5447991e+3, 2.9474652e+2, -278899.7, -247156.1, -900.2542, -0.31818923, 0.2232724, -247130.6, -195636.52, 0.0, 9.99872, 9.999168 
2.544496e+3, 3.0473912e+2, -239743.84, -191115.47, -63747.547, -0.16881068, 0.035829376, -147202.61, -147202.61, 0.0, 9.998536, 9.999382 
2.5441918e+3, 3.14732e+2, -648.0869, 179204.69, -86811.77, -0.004532318, -0.2503203, 214270.45, 214270.45, 0.0, 9.998949, 10.001696 
2.5600082e+3, 1.2513831e+2, -1896706.0, -1943894.8, -245039.17, -0.008432014, -0.14100103, -1674127.9, 39506.55, 0.26403108, 9.999267, 9.998713 
2.559702e+3, 1.3513337e+2, -1673082.9, -1823941.6, -21031.365, 0.19048312, -0.123820126, -1670205.8, -54511.418, 0.18292536, 10.000395, 9.998289 
2.559393e+3, 1.4512834e+2, -1544399.9, -1671276.0, 5632.8374, -0.055076312, 0.023482395, -1544150.3, -26400.488, 0.1037245, 10.000307, 9.998708 
2.5590888e+3, 1.5512237e+2, -1401912.3, -1516916.0, -76244.125, 0.17089298, -0.1395956, -1363917.4, 55891.594, 0.043632858, 10.000536, 9.99896 
2.558782e+3, 1.651191e+2, -1317383.8, -1383964.1, -80778.586, 0.21956527, 0.09755711, -1263304.5, 58540.78, 0.011545959, 10.000298, 9.999327 
2.5584733e+3, 1.7511779e+2, -1211353.8, -1252872.3, -125395.195, 0.013414116, 0.37469247, -1105011.0, 118854.6, 0.0013158798, 10.000265, 9.999546 
2.5581667e+3, 1.8511346e+2, -1132148.1, -1237446.3, -91931.47, -0.0116994465, 0.48814857, -1078857.0, 47052.125, 0.000016496271, 10.000397, 9.998964 
2.5578624e+3, 1.9510579e+2, -959808.1, -1095423.3, -83366.69, 0.13333732, 0.16955857, -920154.7, 107824.555, 0.0, 10.000899, 9.999011 
2.5575563e+3, 2.0509869e+2, -983292.1, -1182290.8, -89807.945, 0.18481721, 0.10267796, -948755.7, -18710.459, 0.0, 10.000626, 9.997857 
2.5572485e+3, 2.1509156e+2, -963607.9, -1093274.6, -110806.875, 0.08374417, -0.059128027, -900060.8, -67947.984, 0.0, 10.000008, 9.998063 
2.5569415e+3, 2.2508651e+2, -791780.1, -851390.06, -41435.387, 0.022879614, 0.060073085, -770543.6, -36384.316, 0.0, 9.999991, 9.999094 
2.5566357e+3, 2.3508283e+2, -588850.06, -668391.25, -6110.601, -0.037928678, 0.111262165, -588383.4, 47808.914, 0.0, 10.00061, 9.999346 
2.556328e+3, 2.4507721e+2, -677520.75, -954147.06, -147920.83, -0.097654, 0.22400576, -613321.94, -75072.02, 0.0, 10.000507, 9.996817 
2.556017e+3, 2.5506914e+2, -659514.6, -865255.75, -161242.05, -0.217719, 0.06637885, -571122.7, -130785.86, 0.0, 9.99987, 9.997035 
2.55571e+3, 2.6506308e+2, -502482.0, -536408.1, -38062.18, -0.16328384, 0.15678866, -477774.0, -135377.11, 0.0, 9.999449, 9.998801 
2.5554073e+3, 2.7505818e+2, -232235.45, -324254.4, -75220.98, 0.059125263, 0.10361601, -190068.6, 54370.234, 0.0, 10.000514, 9.999065 
2.5551024e+3, 2.850525e+2, -218595.47, -271023.9, -101538.23, 0.07636444, 0.1099503, -139942.16, 6549.7026, 0.0, 9.99988, 9.999094 
2.554795e+3, 2.9504645e+2, -391833.28, -277043.25, -77547.414, -0.13077307, -0.10843963, -237961.39, -189407.86, 0.0, 9.997934, 9.999287 
2.5544935e+3, 3.0504227e+2, -296757.94, -125191.805, -69809.836, 0.17202741, -0.006055697, -100375.83, -100375.83, 0.0, 9.99795, 10.000004 
2.5541857e+3, 3.1504294e+2, -46582.96, 242083.4, -7355.8843, -0.19942783, 0.3398, 242270.73, 242270.73, 0.0, 9.998538, 10.002199 
2.5700033e+3, 1.254413e+2, -2032260.5, -1759995.4, -134255.95, 0.084189504, -0.20604187, -1704929.8, 5748.1963, 0.23823552, 9.997222, 10.00091 
2.569698e+3, 1.3544047e+2, -1642131.5, -1594927.8, 2012.7838, 0.22007647, 0.011964478, -1594842.0, 17841.936, 0.16394834, 9.999675, 10.000211 
2.5693914e+3, 1.4543568e+2, -1575175.3, -1727184.0, 39128.758, 0.10465147, 0.11436068, -1565694.4, -50960.4, 0.09188186, 10.000265, 9.998354 
2.569085e+3, 1.5542941e+2, -1362689.0, -1559713.3, 14543.931, 0.119297154, -0.010038916, -1361621.3, 55180.223, 0.03784501, 10.001025, 9.998464 
2.5687775e+3, 1.6542488e+2, -1267865.3, -1423441.1, -48500.535, 0.097406104, 0.1581876, -1253983.9, 64868.21, 0.009625426, 10.000898, 9.998764 
2.5684693e+3, 1.7542124e+2, -1266588.9, -1376554.1, -55600.26, -0.01822528, 0.2989939, -1243376.4, -22481.936, 0.0010124295, 10.000257, 9.998722 
2.568163e+3, 1.854165e+2, -1085254.1, -1104601.9, -24847.121, -0.041714102, 0.37353, -1068264.1, 54676.05, 0.000009793076, 10.000208, 9.999973 
2.5678584e+3, 1.9541015e+2, -922296.8, -1002502.1, 8753.18, 0.07149773, 0.13621956, -921352.7, 103642.805, 0.0, 10.000742, 9.999761 
2.5675526e+3, 2.0540422e+2, -848845.2, -1012965.25, -15625.136, 0.12268401, 0.1016172, -847370.8, 79679.02, 0.0, 10.001002, 9.998863 
2.5672457e+3, 2.1539845e+2, -714819.06, -912298.5, 39388.395, 0.12687425, 0.041401953, -707252.7, 121852.71, 0.0, 10.001328, 9.998721 
2.5669384e+3, 2.2539312e+2, -630959.06, -773061.56, 70241.305, 0.055669658, 0.10310196, -602099.75, 129056.195, 0.0, 10.000943, 9.999218 
2.5666317e+3, 2.3538792e+2, -711871.9, -770354.25, 24870.74, -0.052547548, 0.05612333, -702725.56, -69521.43, 0.0, 9.9997635, 9.999124 
2.566324e+3, 2.4538241e+2, -653620.5, -829525.9, -93563.13, -0.11554565, 0.14221533, -613160.8, -77902.18, 0.0, 10.000124, 9.99785 
2.5660145e+3, 2.5537595e+2, -304764.9, -625026.44, -49185.25, -0.15953152, 0.11280144, -297381.3, 139944.28, 0.0, 10.001938, 9.997699 
2.565707e+3, 2.6536912e+2, -238176.89, -530607.6, 56292.99, -0.1467483, 0.14543118, -227714.78, 111678.57, 0.0, 10.00165, 9.997798 
2.565402e+3, 2.7536145e+2, -431517.9, -571976.5, 4611.693, -0.033146378, -0.015789254, -431366.66, -189900.58, 0.0, 9.999638, 9.997813 
2.5650972e+3, 2.8535527e+2, -285698.0, -232802.28, -9717.524, 0.029809386, -0.038888857, -231073.56, -87547.81, 0.0, 9.999013, 9.999786 
2.5647917e+3, 2.9535025e+2, -120242.45, -119917.47, -4919.998, 0.05975112, -0.14861582, -115157.28, -69582.07, 0.0, 9.999552, 9.99962 
2.5644886e+3, 3.0534753e+2, -72002.61, -44166.7, 68042.65, 0.24644415, 0.09750113, 11366.851, 11366.851, 0.0, 9.999438, 9.999904 
2.5641754e+3, 3.1534472e+2, -108706.09, -31554.81, -95756.086, -0.70405513, 0.18822423, 33103.785, 33103.785, 0.0, 9.998906, 10.000218 
2.5800014e+3, 1.2574697e+2, -1639308.3, -1454971.4, 10795.28, 0.49941912, 0.14899915, -1454341.3, 253353.72, 0.21373183, 9.999174, 10.00252 
2.579695e+3, 1.3574724e+2, -1419231.1, -1277716.1, -26167.484, 0.35453779, 0.17635524, -1273032.5, 336645.28, 0.14603193, 10.00028, 10.00248 
2.5793892e+3, 1.4574295e+2, -1601865.4, -1734603.8, -2990.3572, 0.30990213, 0.21823135, -1601798.1, -90078.23, 0.080827504, 10.000124, 9.998349 
2.5790817e+3, 1.5573731e+2, -1514548.8, -1674137.6, -41466.42, 0.13543971, 0.15993583, -1504417.6, -90631.4, 0.032553293, 10.000201, 9.998054 
2.5787735e+3, 1.6573113e+2, -1361461.6, -1549867.5, -70923.17, 0.0606717, 0.22195381, -1337748.1, -21895.021, 0.007938516, 10.000627, 9.997986 
2.5784653e+3, 1.7572413e+2, -1240216.0, -1450108.5, -75248.625, 0.025915008, 0.07984425, -1216026.4, 1898.2133, 0.00076767127, 10.000843, 9.997901 
2.5781593e+3, 1.8571919e+2, -990875.56, -997399.44, 16635.393, 0.017866816, 0.15029125, -977185.3, 142785.08, 0.000005913737, 10.00069, 10.00043 
2.577854e+3, 1.957152e+2, -1004989.25, -982776.0, -4736.142, 0.037032988, 0.07178146, -981808.4, 40193.95, 0.0, 10.000056, 10.000163 
2.5775486e+3, 2.0571138e+2, -933601.3, -958400.25, -20157.451, 0.11751693, 0.18703955, -922335.0, 1701.5278, 0.0, 10.0000725, 9.999653 
2.577243e+3, 2.1570708e+2, -844604.9, -903059.94, 3973.6375, 0.21656473, 0.14916553, -844336.0, -18257.889, 0.0, 10.000182, 9.9993105 
2.576936e+3, 2.257006e+2, -895628.06, -1008355.94, 10020.222, 0.17191848, 0.12742482, -894744.3, -166602.95, 0.0, 9.999801, 9.99809 
2.5766274e+3, 2.3569196e+2, -944043.06, -1004302.0, -22529.838, 0.016151566, -0.17647351, -936551.0, -306324.9, 0.0, 9.99888, 9.997893 
2.5763202e+3, 2.4568708e+2, -694081.0, -714087.2, -26779.482, -0.04314848, -0.018547054, -675497.3, -143225.06, 0.0, 9.999417, 9.998929 
2.576013e+3, 2.5568414e+2, -391512.34, -576971.0, 5191.6133, -0.032550056, 0.15490621, -391367.13, 42931.35, 0.0, 10.001074, 9.99841 
2.5757048e+3, 2.656767e+2, -492365.88, -816977.2, -34924.355, -0.058421902, 0.17942098, -488650.94, -152278.42, 0.0, 10.000721, 9.9962635 
2.5753966e+3, 2.7566567e+2, -690878.25, -859020.75, -54929.563, -0.08936368, -0.19787616, -674524.25, -436040.63, 0.0, 9.998685, 9.996274 
2.5750914e+3, 2.856603e+2, -352255.9, -194034.97, 28201.422, -0.019423064, -0.09334456, -189158.61, -48621.8, 0.0, 9.99836, 10.000331 
2.574787e+3, 2.9565814e+2, -190841.45, -119008.51, 65048.605, 0.061109703, 0.000588224, -80619.44, -38062.457, 0.0, 9.999004, 9.999878 
2.5744814e+3, 3.056568e+2, -209083.78, -186465.13, 81163.71, -0.024846379, 0.41756153, -115826.61, -115826.61, 0.0, 9.998967, 9.999108 
2.5741747e+3, 3.156511e+2, -295623.13, -156994.38, 58297.68, -0.32042214, 0.28480223, -135737.78, -135737.78, 0.0, 9.99791, 9.999834 
2.5899953e+3, 1.2605263e+2, -1468916.9, -1400676.8, 61667.664, 0.10410801, 0.117480665, -1364319.3, 340371.1, 0.19077115, 10.000871, 10.002075 
2.58969e+3, 1.3604935e+2, -1431545.8, -1431826.9, -22401.273, 0.16308893, -0.023100171, -1409284.6, 197429.08, 0.12932457, 10.000907, 10.000928 
2.5893834e+3, 1.4604469e+2, -1565468.3, -1619720.6, -92177.86, 0.13144988, 0.0033945227, -1496508.1, 12255.287, 0.07062259, 9.999964, 9.999216 
2.5890756e+3, 1.5604183e+2, -1582253.4, -1628712.6, -52300.25, -0.0065768897, 0.16741754, -1548256.0, -137451.8, 0.027766839, 9.999367, 9.99878 
2.5887692e+3, 1.6603702e+2, -1256651.8, -1344986.0, 4904.184, -0.030862948, 0.25639427, -1256380.3, 56474.527, 0.0064744665, 10.000654, 9.999391 
2.5884643e+3, 1.7603038e+2, -853797.8, -1156840.3, 76629.414, 0.07200876, 0.05039838, -835522.9, 379394.7, 0.0005723583, 10.002936, 9.998944 
2.588158e+3, 1.8602507e+2, -764227.4, -968967.5, 12787.741, 0.10984914, 0.0772186, -763431.75, 353534.7, 0.0000035552432, 10.002531, 9.9997635 
2.5878507e+3, 1.9602028e+2, -1020092.5, -1085103.9, -21969.955, 0.086314365, 0.029405566, -1013364.3, 5645.025, 0.0, 10.000227, 9.999433 
2.587544e+3, 2.0601617e+2, -986147.44, -944927.9, -50770.133, 0.08581887, 0.12583095, -910743.75, 10305.195, 0.0, 9.999508, 10.000035 
2.587238e+3, 2.1601228e+2, -857701.8, -896866.1, -54218.734, 0.12587121, 0.14714867, -819637.4, 3451.3733, 0.0, 9.999932, 9.999528 
2.5869307e+3, 2.2600687e+2, -760457.6, -843853.2, -53979.613, 0.075989075, 0.1623678, -733946.2, -8803.997, 0.0, 10.000233, 9.99902 
2.5866225e+3, 2.3599993e+2, -654531.25, -814837.75, 10193.123, -0.042737056, -0.010117748, -653885.75, -26675.705, 0.0, 10.00055, 9.998425 
2.586316e+3, 2.459941e+2, -466751.34, -666737.0, 1702.972, -0.07565347, 0.055811338, -466736.84, 62528.7, 0.0, 10.001096, 9.998501 
2.58601e+3, 2.5598904e+2, -327846.16, -597930.75, -82316.516, -0.040771067, 0.10038246, -304735.28, 126577.45, 0.0, 10.0015955, 9.998061 
2.585702e+3, 2.6598233e+2, -320187.34, -592922.4, -159392.22, -0.028803313, 0.12878329, -246788.38, 86590.09, 0.0, 10.001222, 9.997585 
2.585393e+3, 2.759738e+2, -384933.47, -606454.9, -32886.816, 0.00019720933, -0.069676146, -380154.25, -144689.8, 0.0, 10.000227, 9.997315 
2.5850865e+3, 2.859686e+2, -132212.31, -98927.1, 132567.67, 0.026624274, 0.008415409, 18038.549, 155554.27, 0.0, 9.999827, 10.000305 
2.5847816e+3, 2.9596537e+2, -82529.28, -95601.89, 45374.08, -0.0016676766, 0.048981264, -43223.133, -3676.6028, 0.0, 9.999741, 9.999728 
2.5844747e+3, 3.0596423e+2, -217595.89, -150050.39, 3177.2273, -0.14251535, 0.4674358, -149901.27, -149901.27, 0.0, 9.998656, 9.999548 
2.5841707e+3, 3.1595242e+2, -462611.5, -30742.037, -394611.53, 0.011684407, -0.2604342, 203152.16, 203152.16, 0.0, 9.9957695, 10.001759 
2.599991e+3, 1.2635928e+2, -1665979.1, -1844838.5, -19179.195, 0.0071521094, 0.06306597, -1663945.6, 37730.23, 0.16949552, 10.000904, 9.998556 
2.5996846e+3, 1.3635102e+2, -1692302.8, -1820200.4, -91650.33, 0.023477871, -0.30469525, -1644496.3, -40740.676, 0.11391175, 10.000142, 9.9984665 
2.5993773e+3, 1.4634678e+2, -1549491.9, -1507182.3, -77266.66, -0.018401518, -0.17733389, -1448226.8, 57578.06, 0.061296463, 9.999695, 10.000075 
2.59907e+3, 1.5634614e+2, -1489849.3, -1517562.8, -66922.88, -0.072727986, 0.12147225, -1435363.6, -27539.621, 0.023481611, 9.999759, 9.9993305 
2.5987658e+3, 1.6634308e+2, -1148628.6, -1120467.4, 75302.7, 0.017180482, 0.27888903, -1057940.3, 251913.92, 0.005220199, 10.000674, 10.000953 
2.5984642e+3, 1.7633805e+2, -970011.2, -1108959.5, 60028.367, 0.23651095, 0.07697744, -947669.94, 264226.0, 0.00041937284, 10.001727, 9.999875 
2.5981572e+3, 1.8633214e+2, -962703.0, -1209588.6, -90085.21, 0.29005098, 0.07356821, -933327.4, 180623.34, 0.0000020172258, 10.001846, 9.998406 
2.5978473e+3, 1.9632529e+2, -1099297.3, -1293815.0, -108015.4, 0.22380456, -0.060670067, -1051206.1, -35188.742, 0.0, 10.000487, 9.997843 
2.5975394e+3, 2.063203e+2, -966333.06, -964465.25, -30010.836, 0.12543651, 0.03996801, -935373.8, -17304.693, 0.0, 9.999885, 9.999679 
2.597232e+3, 2.1631615e+2, -1022055.5, -1018973.2, -52449.58, 0.02805957, 0.046375588, -968042.1, -147927.58, 0.0, 9.999129, 9.999027 
2.5969246e+3, 2.2631322e+2, -781834.9, -705841.9, -51610.566, -0.07173658, 0.26604715, -679749.5, 42394.26, 0.0, 9.999528, 10.000277 
2.596617e+3, 2.3631015e+2, -777242.06, -806048.44, -14349.243, -0.1536709, 0.3292287, -771314.2, -147142.61, 0.0, 9.999499, 9.9989605 
2.5963113e+3, 2.4630252e+2, -761816.6, -1012080.2, 4484.638, -0.15843709, 0.29676852, -761736.25, -235488.95, 0.0, 10.000062, 9.996594 
2.596006e+3, 2.5629184e+2, -642364.06, -932300.9, -67041.57, -0.13120347, -0.06002214, -627612.7, -199258.14, 0.0, 10.000305, 9.99638 
2.5956985e+3, 2.66287e+2, -274165.6, -261569.36, -197598.77, -0.027034225, 0.08347323, -70168.36, 260231.58, 0.0, 10.00034, 10.00024 
2.5953898e+3, 2.7628475e+2, -386089.1, -398699.2, -64311.094, 0.14918686, 0.22780216, -327774.72, -95357.55, 0.0, 9.999413, 9.999121 
2.5950828e+3, 2.8627902e+2, -365866.9, -404449.06, 103874.06, 0.08814897, 0.27536538, -279507.75, -145034.75, 0.0, 9.999158, 9.998506 
2.5947753e+3, 2.9627135e+2, -380782.44, -446601.7, 10113.588, -0.19973467, 0.029849539, -379263.47, -342713.22, 0.0, 9.998719, 9.997783 
2.594468e+3, 3.0626607e+2, -256665.81, -41702.023, -123961.79, -0.21383257, 0.06494854, 14885.833, 14885.833, 0.0, 9.998015, 10.00052 
2.5941613e+3, 3.162619e+2, -495245.25, 65035.164, -19723.572, -0.1159406, -0.03496629, 65728.63, 65728.63, 0.0, 9.995238, 10.002626 
2.609994e+3, 1.2666123e+2, -1647318.6, -1603306.9, -210105.14, 0.57791984, -0.016425751, -1414058.4, 284667.22, 0.14988421, 10.000072, 10.000792 
2.6096803e+3, 1.3665809e+2, -1756204.0, -1733098.8, -101999.18, 0.031897232, -0.019734964, -1642000.0, -41243.727, 0.09979623, 9.999182, 9.9995365 
2.6093724e+3, 1.4665483e+2, -1566253.9, -1456928.9, -5998.442, -0.08844639, 0.13823594, -1456600.6, 46191.676, 0.05285716, 9.999314, 10.000616 
2.6090676e+3, 1.5665142e+2, -1357259.6, -1438469.3, 18512.664, 0.039856788, 0.1460896, -1353238.5, 51594.098, 0.019694533, 10.000548, 9.999533 
2.608764e+3, 1.6664767e+2, -1108094.1, -1102135.9, 61707.46, 0.13990554, 0.2234838, -1043335.7, 263533.13, 0.004163879, 10.000946, 10.000934 
2.608461e+3, 1.7664333e+2, -1131000.5, -1189949.4, 15491.41, 0.22693832, 0.10953744, -1127177.4, 81728.85, 0.00030229846, 10.000617, 9.999851 
2.608155e+3, 1.8663795e+2, -875314.6, -1071260.9, -101380.6, 0.2884732, 0.10260495, -832302.75, 278652.0, 0.0000010444409, 10.00196, 9.9993305 
2.607847e+3, 1.9663157e+2, -563945.75, -989255.9, -40745.8, 0.29830074, -0.03770048, -560077.4, 452937.2, 0.0, 10.003827, 9.998375 
2.607537e+3, 2.0662618e+2, -505273.8, -837057.3, -41779.87, 0.09459058, 0.04202729, -500093.56, 414978.22, 0.0, 10.003339, 9.998932 
2.607226e+3, 2.1662112e+2, -725979.94, -968297.25, -66776.42, -0.21624638, 0.06632044, -708796.56, 108333.0, 0.0, 10.00139, 9.998333 
2.6069194e+3, 2.266174e+2, -616421.2, -665081.56, -93355.13, -0.19167508, 0.24594964, -544277.9, 174889.39, 0.0, 10.000694, 10.0000515 
2.6066148e+3, 2.3661423e+2, -627505.0, -748856.06, -131976.98, -0.008190892, 0.3528982, -542924.06, 78272.12, 0.0, 10.000424, 9.998971 
2.606309e+3, 2.4660733e+2, -685110.6, -795265.75, -52389.906, 0.03272808, 0.28685606, -664173.44, -140910.8, 0.0, 9.999791, 9.998201 
2.606003e+3, 2.565978e+2, -696480.2, -828756.3, 36423.92, 0.00042632525, -0.05619984, -687113.7, -261757.6, 0.0, 9.999261, 9.9976225 
2.6056945e+3, 2.6659316e+2, -323361.34, -251884.55, -100920.88, 0.0238486, 0.044309024, -180561.0, 146838.58, 0.0, 9.999745, 10.000637 
2.6053852e+3, 2.7659133e+2, -164777.44, -244231.61, -134892.23, 0.12731007, 0.22651404, -63883.914, 165531.23, 0.0, 10.000602, 9.9996395 
2.6050776e+3, 2.8658652e+2, -261134.67, -320607.1, 37126.34, 0.0549665, 0.3086776, -243304.02, -111843.33, 0.0, 9.9996605, 9.998857 
2.6047692e+3, 2.9657975e+2, -530054.44, -507940.84, 97902.805, -0.19621567, 0.17994545, -420472.44, -386945.97, 0.0, 9.997532, 9.997966 
2.6044628e+3, 3.0656955e+2, -207563.47, -9349.58, 8818.085, -0.08903445, -0.28928706, -8958.057, -8958.057, 0.0, 9.998104, 10.000768 
2.60416e+3, 3.1656736e+2, -147088.81, -22582.307, 333807.06, 0.45698026, -0.1689193, 254726.84, 254726.84, 0.0, 9.998532, 10.000463 
2.6199958e+3, 1.2696286e+2, -1450919.3, -1303478.1, -50113.668, 1.1486413, -0.18420364, -1288057.8, 407721.66, 0.13183987, 10.000624, 10.002736 
2.6196766e+3, 1.3696687e+2, -1368666.1, -1389468.8, -73205.08, 0.13438046, 0.344315, -1305127.1, 292613.78, 0.08692974, 10.001327, 10.000969 
2.6193684e+3, 1.4696388e+2, -1273949.6, -1332060.0, 54066.938, -0.015119591, 0.4735742, -1241625.4, 258145.05, 0.045284748, 10.001394, 10.000545 
2.6190665e+3, 1.5695718e+2, -1291853.5, -1432339.5, 24910.256, 0.29432398, 0.15529373, -1287567.3, 114268.86, 0.01638905, 10.001105, 9.999331 
2.6187623e+3, 1.669524e+2, -1118189.5, -1183260.4, 60330.918, 0.32305658, 0.1761071, -1082180.3, 221702.42, 0.0032885466, 10.001251, 10.000215 
2.6184574e+3, 1.7694822e+2, -1131686.3, -1252802.4, 4118.3706, 0.24153948, 0.14290819, -1131546.4, 74376.52, 0.00021471751, 10.000903, 9.999293 
2.6181525e+3, 1.8694374e+2, -811558.4, -883943.0, -39645.742, 0.3129991, 0.1578535, -794069.5, 313892.25, 0.00000047553752, 10.0017395, 10.000721 
2.6178473e+3, 1.9693887e+2, -751956.75, -1008872.1, -36745.473, 0.44641048, 0.022926148, -746804.5, 263198.0, 0.0, 10.002305, 9.998966 
2.6175353e+3, 2.0693316e+2, -772565.56, -1096471.3, -122096.234, 0.08970171, 0.1184059, -731697.75, 180366.3, 0.0, 10.002142, 9.997696 
2.6172203e+3, 2.1692671e+2, -1018689.25, -1271437.3, -133571.06, -0.466015, 0.10879173, -961183.9, -147045.64, 0.0, 10.000186, 9.996815 
2.6169148e+3, 2.269209e+2, -797343.56, -858546.2, -78538.2, -0.24967429, 0.20422487, -743655.56, -27457.523, 0.0, 10.000062, 9.99897 
2.6166135e+3, 2.3691535e+2, -862233.0, -932621.7, -116356.22, 0.32429564, 0.15658766, -775865.0, -157613.86, 0.0, 9.999279, 9.998219 
2.6163077e+3, 2.4691084e+2, -578565.75, -396959.88, -44149.78, 0.38689765, 0.18763597, -386795.6, 133493.22, 0.0, 9.999147, 10.001198 
2.616e+3, 2.5690624e+2, -748802.06, -650283.75, 18699.87, 0.22458436, 0.029422622, -646853.75, -224527.92, 0.0, 9.998148, 9.999351 
2.6156896e+3, 2.6690057e+2, -547127.5, -544797.44, -69703.305, 0.043300588, 0.04843192, -476249.44, -151866.34, 0.0, 9.99909, 9.998888 
2.6153788e+3, 2.7689442e+2, -412946.03, -524031.22, -106495.49, -0.13060021, -0.0640138, -348379.22, -121929.8, 0.0, 9.999684, 9.998124 
2.615071e+3, 2.8689215e+2, -189411.36, -2227.625, -40378.387, -0.13904427, 0.19559246, 6111.13, 134578.47, 0.0, 9.999081, 10.001261 
2.6147637e+3, 2.9689097e+2, -570244.8, -369257.8, 68957.58, -0.08842368, 0.3630353, -347873.97, -317403.28, 0.0, 9.996687, 9.999305 
2.6144588e+3, 3.0687687e+2, -413389.88, -242823.9, 67266.91, 0.13870977, -0.47723207, -219488.19, -219488.19, 0.0, 9.997379, 9.999488 
2.6141495e+3, 3.1688032e+2, -519704.34, -449780.53, -12226.425, -0.11205562, 0.32603046, -447704.34, -447704.34, 0.0, 9.997226, 9.99814 
2.629989e+3, 1.2727451e+2, -1569681.5, -1594410.1, 158843.05, 0.68037546, -0.07459601, -1422722.3, 269999.88, 0.11528824, 10.000837, 10.000348 
2.6296747e+3, 1.3727462e+2, -1157441.0, -1504068.1, 88838.36, 0.04006095, 0.29496917, -1135998.6, 458728.28, 0.07524984, 10.003815, 9.998928 
2.6293674e+3, 1.4726993e+2, -1018709.1, -1307688.6, 57261.14, -0.032497775, 0.39394102, -1007776.44, 488996.84, 0.038529176, 10.003667, 9.99961 
2.6290637e+3, 1.5726253e+2, -1166611.9, -1454249.4, 40463.266, 0.20261116, 0.10471629, -1161028.1, 237815.69, 0.013527696, 10.0023, 9.998617 
2.6287588e+3, 1.6725697e+2, -995647.94, -1196987.0, 67566.234, 0.19081995, 0.10938929, -975075.75, 325823.5, 0.0025719018, 10.002347, 9.999626 
2.6284537e+3, 1.7725228e+2, -901595.1, -1168869.1, 30113.572, 0.047816094, 0.09573166, -898244.3, 304702.97, 0.00015054179, 10.002496, 9.999139 
2.628148e+3, 1.872487e+2, -721627.75, -768476.6, -74010.02, 0.09029416, 0.1615062, -667423.7, 437555.7, 0.0000001940375, 10.001982, 10.001421 
2.6278418e+3, 1.9724521e+2, -935006.9, -1020797.7, -69809.27, 0.16737354, 0.105396055, -895967.25, 111041.336, 0.0, 10.000602, 9.9997425 
2.6275313e+3, 2.0724033e+2, -983114.3, -1155380.1, -133901.47, 0.024343329, 0.22539316, -910035.1, -973.68414, 0.0, 10.000492, 9.998093 
2.6272187e+3, 2.1723454e+2, -850775.2, -1131598.4, -55849.05, -0.25317934, 0.27173394, -840075.8, -28948.54, 0.0, 10.000985, 9.997413 
2.6269126e+3, 2.2722788e+2, -590323.5, -744009.0, 47072.934, -0.12027605, 0.24413417, -577051.5, 136140.53, 0.0, 10.001327, 9.99918 
2.626609e+3, 2.372209e+2, -499234.44, -710235.9, 61370.58, 0.20665447, 0.0725334, -482682.9, 132572.53, 0.0, 10.001409, 9.99876 
2.626302e+3, 2.4721697e+2, -366959.66, -278985.88, 14460.474, 0.27434805, 0.1273973, -276669.94, 240618.61, 0.0, 10.000379, 10.001476 
2.6259938e+3, 2.5721416e+2, -605476.25, -504437.6, -39975.082, 0.19488467, 0.14053887, -490534.8, -71224.84, 0.0, 9.998642, 10.000158 
2.6256838e+3, 2.6720855e+2, -640697.7, -539634.8, -39354.6, 0.02178403, 0.09003673, -526117.75, -204751.58, 0.0, 9.998106, 9.999449 
2.625373e+3, 2.7720162e+2, -583255.5, -516972.22, 50000.895, -0.18391122, -0.107382886, -490126.72, -266688.22, 0.0, 9.997964, 9.999055 
2.625065e+3, 2.871999e+2, -109234.67, 133226.88, 69639.39, -0.15317182, 0.11447277, 151805.06, 277254.72, 0.0, 9.999101, 10.002224 
2.6247588e+3, 2.9720014e+2, 69664.5, 55887.246, 50438.676, -0.008228285, 0.36011815, 113682.78, 141119.69, 0.0, 10.000472, 10.0004425 
2.6244536e+3, 3.071859e+2, -14552.886, -186281.27, 62223.9, 0.19551447, -0.49276352, 5622.882, 5622.882, 0.0, 10.000606, 9.998381 
2.624146e+3, 3.1718886e+2, -115430.93, -111533.98, -211697.94, 0.19369726, 0.4334776, 98224.445, 98224.445, 0.0, 9.999167, 9.999617 
2.639982e+3, 1.2758715e+2, -1652370.5, -1934348.5, 165181.44, 0.3081975, 0.06523822, -1576189.5, 113465.484, 0.10017185, 10.001482, 9.997655 
2.639674e+3, 1.3758223e+2, -1340619.8, -1849492.6, 60197.58, 0.03984824, 0.18770021, -1333595.5, 258117.98, 0.06469282, 10.003576, 9.996617 
2.639367e+3, 1.4757578e+2, -1119524.1, -1489469.3, -16729.178, 0.024705116, 0.2622473, -1118769.1, 375008.6, 0.032530583, 10.00354, 9.998354 
2.639061e+3, 1.5756793e+2, -1277003.9, -1649352.9, -40553.34, 0.1397104, 0.045449406, -1272638.3, 123213.96, 0.011066901, 10.0021715, 9.997323 
2.6387554e+3, 1.6756186e+2, -1103793.4, -1289833.4, 88614.94, 0.06760421, 0.0604749, -1068340.4, 229573.39, 0.0019930317, 10.001808, 9.999217 
2.63845e+3, 1.7755659e+2, -1177265.5, -1365411.5, 48382.01, -0.0888854, 0.03362538, -1165553.1, 34415.793, 0.00010503105, 10.000896, 9.998567 
2.6381427e+3, 1.875539e+2, -848903.3, -755514.1, -73079.43, -0.14776358, 0.16892356, -715485.1, 386510.66, 0.00000008640195, 10.000964, 10.001901 
2.6378345e+3, 1.9755186e+2, -980779.56, -1025200.7, -115368.12, -0.1457585, 0.20419191, -885503.5, 118511.164, 0.0, 10.000352, 9.999783 
2.637527e+3, 2.0754822e+2, -896044.6, -1013441.1, -116652.37, 0.030606177, 0.39202338, -824154.7, 81899.45, 0.0, 10.000689, 9.998967 
2.63722e+3, 2.1754369e+2, -971068.75, -1139045.1, -66303.67, 0.26428393, 0.46225554, -948051.4, -139947.33, 0.0, 9.999989, 9.997856 
2.6369113e+3, 2.2753683e+2, -683793.06, -712113.5, 40759.48, 0.112188734, 0.35316673, -654804.2, 55360.53, 0.0, 10.00042, 9.999797 
2.636602e+3, 2.3752907e+2, -787340.4, -874510.0, 36361.273, -0.14378543, 0.023385124, -774164.5, -161934.28, 0.0, 9.9996195, 9.998488 
2.6362938e+3, 2.4752483e+2, -605516.94, -539709.1, -54526.395, -0.116351105, 0.13669303, -508927.88, 5343.264, 0.0, 9.999472, 10.000083 
2.635986e+3, 2.575217e+2, -840797.4, -723527.1, -89078.68, 0.0004686119, 0.22852139, -675517.56, -259213.16, 0.0, 9.997581, 9.999159 
2.635677e+3, 2.6751736e+2, -562312.5, -238292.13, -45553.56, -0.009620805, 0.2013168, -232009.63, 86334.695, 0.0, 9.997651, 10.00168 
2.6353678e+3, 2.7751237e+2, -674603.56, -444840.4, 60359.133, -0.0677867, -0.03725955, -429949.1, -209559.9, 0.0, 9.99696, 10.000023 
2.6350605e+3, 2.8750932e+2, -274118.16, -42622.426, 120268.48, -0.07477754, 0.070703864, 8549.074, 130962.14, 0.0, 9.998477, 10.001277 
2.634754e+3, 2.975069e+2, -160534.94, -190748.25, 85504.95, -0.118393295, 0.12423575, -88812.41, -64382.383, 0.0, 9.999574, 9.999165 
2.6344472e+3, 3.0749696e+2, -94079.93, -273505.47, 27729.428, -0.07483344, -0.23008482, -89892.21, -89892.21, 0.0, 10.000414, 9.997791 
2.6341388e+3, 3.174965e+2, -167454.64, -141997.31, -93470.555, -0.09321156, 0.36172178, -60392.715, -60392.715, 0.0, 9.999007, 9.999419 
2.6499802e+3, 1.2789635e+2, -1711519.9, -1949098.3, 88346.08, 0.28620437, 0.31705692, -1682268.9, 4363.011, 0.086430125, 10.001064, 9.997692 
2.6496738e+3, 1.3788806e+2, -1421629.9, -1917447.4, 93007.625, 0.056801528, 0.11312177, -1404757.3, 183962.03, 0.055199515, 10.00306, 9.996419 
2.649366e+3, 1.4788167e+2, -1209394.0, -1635207.8, -55647.81, -0.0016006271, 0.24221572, -1202241.8, 288545.1, 0.027235242, 10.0032835, 9.997497 
2.6490584e+3, 1.578752e+2, -1230956.3, -1629771.5, -48407.67, 0.014635529, 0.25184384, -1225164.6, 167689.25, 0.0089680515, 10.002433, 9.997348 
2.6487517e+3, 1.6787066e+2, -1108396.5, -1091505.1, 74305.125, -0.022309972, 0.29976398, -1025167.25, 269730.78, 0.0015322798, 10.000983, 10.0009365 
2.6484454e+3, 1.7786649e+2, -1393592.6, -1346355.3, 136658.22, -0.1311879, 0.24227077, -1231289.8, -34352.3, 0.00007382683, 9.99884, 9.999684 
2.6481384e+3, 1.8786308e+2, -1056676.4, -990162.2, 66168.914, -0.19236445, 0.3497189, -949362.8, 149609.02, 0.000000036839044, 10.0000725, 10.000747 
2.647831e+3, 1.9785997e+2, -744032.4, -973267.6, -40292.41, -0.2574828, 0.41162044, -737156.44, 263847.5, 0.0, 10.002148, 9.999298 
2.6475248e+3, 2.0785537e+2, -625936.2, -865006.4, -149007.52, 0.058131434, 0.50556207, -554442.8, 348608.47, 0.0, 10.002392, 9.999188 
2.6472187e+3, 2.178502e+2, -682505.5, -918049.6, -110894.055, 0.43823245, 0.4988556, -638513.06, 166591.17, 0.0, 10.001505, 9.99867 
2.646908e+3, 2.2784376e+2, -670339.2, -605873.3, -34427.77, 0.19890179, 0.3311978, -590944.5, 116213.234, 0.0, 9.999988, 10.000777 
2.6465958e+3, 2.3783688e+2, -877401.8, -804512.25, 513.3567, -0.24597214, 0.01537388, -804508.6, -195296.58, 0.0, 9.998357, 9.9996195 
2.646288e+3, 2.478329e+2, -697073.44, -593133.8, -9553.035, -0.17179576, 0.10932036, -592263.06, -81011.44, 0.0, 9.998776, 10.000108 
2.645981e+3, 2.5782987e+2, -475850.34, -511090.66, 21472.877, 0.064352885, 0.24923012, -465693.66, -52407.168, 0.0, 9.999774, 9.999608 
2.6456723e+3, 2.6782578e+2, -132966.53, -20135.586, -9250.729, 0.058062993, 0.22060102, -19382.174, 295941.3, 0.0, 10.000447, 10.001878 
2.6453635e+3, 2.7782142e+2, -66040.89, -93737.23, -39178.06, 0.02918249, 0.043884028, -38335.574, 179024.63, 0.0, 10.00074, 10.000654 
2.6450562e+3, 2.8781766e+2, -51689.082, -5253.404, 15710.739, -0.027579235, 0.0736449, -437.4175, 118954.5, 0.0, 10.000136, 10.000804 
2.644748e+3, 2.978142e+2, -233370.25, -232238.53, 6227.2085, -0.1953029, 0.0877743, -226551.53, -205129.23, 0.0, 9.998924, 9.999231 
2.644443e+3, 3.078064e+2, -320698.75, -329038.84, -22235.162, 0.011700796, -0.09344075, -302245.97, -302245.97, 0.0, 9.998475, 9.9984 
2.6441363e+3, 3.1780243e+2, -97272.18, 184703.14, -39684.496, 0.19679631, 0.091768496, 190181.8, 190181.8, 0.0, 9.997987, 10.002213 
2.6599798e+3, 1.2820469e+2, -1331555.5, -1723591.3, 144622.02, 0.46632352, 0.5149903, -1283978.4, 399640.03, 0.073999815, 10.003631, 9.9980135 
2.6596737e+3, 1.3819435e+2, -1423223.8, -1953443.3, 76957.695, 0.17354594, 0.065174274, -1412279.8, 173441.44, 0.046711504, 10.003118, 9.996162 
2.659365e+3, 1.481885e+2, -1323129.9, -1728855.5, -48556.13, 0.028514154, 0.2903202, -1317399.6, 170387.45, 0.022592498, 10.00274, 9.997102 
2.659056e+3, 1.5818395e+2, -1340435.5, -1661560.6, -46796.477, 0.010640786, 0.52895284, -1333755.0, 56087.008, 0.0071954923, 10.001647, 9.997519 
2.658748e+3, 1.6818073e+2, -997009.8, -853664.06, 24417.129, -0.004738519, 0.5956366, -849619.06, 442250.94, 0.001170623, 10.000961, 10.002589 
2.658441e+3, 1.781779e+2, -1306228.6, -1238969.3, 46248.492, -0.0036210024, 0.50826806, -1215416.0, -21525.375, 0.00005271245, 9.999249, 10.00021 
2.6581347e+3, 1.8817335e+2, -1161333.4, -1216444.0, 127716.695, -0.09611245, 0.5734568, -1058233.3, 37702.824, 0.000000014947995, 10.000138, 9.999156 
2.6578292e+3, 1.981684e+2, -1106713.9, -1318755.8, 22018.791, -0.16255178, 0.60594916, -1104451.5, -106463.5, 0.0, 10.000475, 9.997734 
2.657523e+3, 2.0816231e+2, -822219.7, -943131.9, -131828.14, 0.13238984, 0.5954346, -737646.1, 162402.44, 0.0, 10.001135, 9.999167 
2.6572162e+3, 2.1815573e+2, -946478.1, -1058209.4, -123898.555, 0.5173102, 0.43788287, -866432.7, -64320.24, 0.0, 9.999921, 9.99841 
2.6569036e+3, 2.2815008e+2, -672635.8, -477579.63, -73424.06, 0.25615743, 0.2814474, -453030.63, 251126.23, 0.0, 9.999553, 10.001783 
2.6565903e+3, 2.3814479e+2, -978758.44, -792482.6, -41929.31, -0.15850843, 0.0032496175, -783479.75, -177284.67, 0.0, 9.997544, 10.000054 
2.6562834e+3, 2.4814156e+2, -702191.3, -509167.13, 13368.351, -0.0074546603, 0.103534885, -508245.66, -19.480896, 0.0, 9.998474, 10.000787 
2.6559782e+3, 2.5813875e+2, -715289.06, -673830.25, 43195.06, 0.26846105, 0.19054061, -646648.06, -236390.77, 0.0, 9.9984865, 9.999077 
2.6556692e+3, 2.681342e+2, -361108.4, -275912.44, 7844.306, 0.17573641, 0.22329018, -275196.2, 37104.395, 0.0, 9.99971, 10.000379 
2.6553595e+3, 2.7812916e+2, -345973.84, -386951.75, -15189.3955, 0.027544722, 0.10523337, -340957.6, -126609.88, 0.0, 9.999672, 9.999107 
2.6550514e+3, 2.881254e+2, -117495.54, -9598.736, -22417.102, -0.08330579, 0.16895786, -5126.623, 111255.414, 0.0, 9.999739, 10.00088 
2.6547417e+3, 2.981221e+2, -416452.34, -340795.22, -17322.69, -0.30845436, 0.18355985, -337017.6, -318605.3, 0.0, 9.997923, 9.998928 
2.654441e+3, 3.081134e+2, -346243.38, -201115.66, -45125.395, 0.427067, -0.16019148, -188228.86, -188228.86, 0.0, 9.997834, 9.999506 
2.6541293e+3, 3.181128e+2, -211796.33, 299429.44, -59097.453, 0.15623549, 0.19653678, 306172.13, 306172.13, 0.0, 9.996638, 10.003603 
2.66998e+3, 1.2850966e+2, -1069440.1, -1509362.3, 3558.681, 0.294601, 0.4345339, -1069411.3, 611224.94, 0.062782034, 10.005152, 9.998822 
2.669671e+3, 1.3850346e+2, -1416135.9, -1835601.6, 19382.271, -0.016597895, 0.32621595, -1415242.3, 167455.83, 0.039146993, 10.002643, 9.997222 
2.6693618e+3, 1.484976e+2, -1360549.5, -1555034.9, -17948.748, -0.04618904, 0.39837015, -1358906.9, 125851.195, 0.018543638, 10.001705, 9.998771 
2.6690534e+3, 1.5849198e+2, -1390000.5, -1604945.3, 79591.086, 0.016732074, 0.40439865, -1363737.9, 23078.305, 0.005710664, 10.000933, 9.998259 
2.6687455e+3, 1.6848773e+2, -1025210.2, -1072458.0, 75277.516, 0.028901752, 0.45772293, -969936.75, 318920.13, 0.0008890518, 10.001575, 10.000812 
2.6684383e+3, 1.7848384e+2, -953788.75, -1127880.1, 5424.081, -0.003508465, 0.43332627, -953619.94, 237271.92, 0.000037964888, 10.001831, 9.99974 
2.668132e+3, 1.8847877e+2, -969979.9, -956753.75, 95249.766, -0.03848548, 0.35444176, -867887.75, 225047.97, 0.0000000057994387, 10.000679, 10.000693 
2.6678258e+3, 1.9847335e+2, -1252304.3, -1228118.0, 120391.63, -0.08109401, 0.20944935, -1119213.6, -124230.016, 0.0, 9.998681, 9.999235 
2.6675183e+3, 2.0846854e+2, -1049562.8, -986973.7, 46081.67, 0.11183134, 0.25029826, -962564.8, -65532.117, 0.0, 9.999261, 9.999795 
2.66721e+3, 2.1846351e+2, -832411.4, -949167.44, 68797.26, 0.3247164, 0.23024713, -800561.6, -1476.7102, 0.0, 10.000336, 9.998994 
2.6668987e+3, 2.2845878e+2, -554171.5, -543250.56, 29416.494, 0.16543975, 0.22396936, -518792.03, 182335.55, 0.0, 10.000802, 10.000782 
2.6665863e+3, 2.3845415e+2, -473865.8, -590161.1, -25037.502, -0.0876719, 0.14187545, -468704.5, 134462.17, 0.0, 10.001051, 9.999789 
2.6662794e+3, 2.4845006e+2, -355740.34, -344515.78, -28701.162, 0.045670025, 0.16311885, -320883.34, 184322.11, 0.0, 10.00077, 10.000843 
2.665973e+3, 2.5844622e+2, -419612.2, -464577.47, -37378.64, 0.23793723, 0.15083323, -398475.66, 8767.694, 0.0, 10.0000925, 9.9997635 
2.665664e+3, 2.6844203e+2, -361541.75, -272597.9, -2040.6569, 0.12818024, 0.17592302, -272551.1, 36731.445, 0.0, 9.999541, 10.000548 
2.6653543e+3, 2.7843747e+2, -424341.34, -389343.4, 58367.535, -0.012165947, 0.12041976, -345908.13, -134583.11, 0.0, 9.998847, 9.999516 
2.6650456e+3, 2.8843373e+2, -296192.38, -174351.5, 19469.947, -0.12380533, 0.22109307, -171315.88, -57953.617, 0.0, 9.998782, 10.000268 
2.6647362e+3, 2.984299e+2, -296257.6, -283369.63, -49879.6, -0.27624616, 0.27319446, -239519.47, -224118.94, 0.0, 9.998597, 9.999057 
2.664436e+3, 3.0842003e+2, -186920.53, -91497.33, -118293.15, 0.57307863, -0.20967676, -11656.331, -11656.331, 0.0, 9.998705, 9.999893 
2.664121e+3, 3.1842256e+2, 150290.22, 577641.6, -195086.05, -0.02374685, 0.43924576, 653302.9, 653302.9, 0.0, 9.998477, 10.004692 
2.6799798e+3, 1.2881479e+2, -1283588.6, -1529688.1, -27791.129, 0.21955046, 0.3432945, -1280489.3, 397161.4, 0.05267765, 10.003126, 9.999668 
2.6796684e+3, 1.3881321e+2, -1397920.0, -1678151.9, -61444.31, -0.06083502, 0.608725, -1385039.6, 194627.89, 0.03242507, 10.002174, 9.998493 
2.679359e+3, 1.4880711e+2, -1182314.6, -1270919.4, -31766.842, -0.049357146, 0.47626942, -1172102.5, 309619.63, 0.015032841, 10.002023, 10.000572 
2.679051e+3, 1.5879992e+2, -1323198.1, -1556237.6, 32040.963, 0.1159694, 0.15567629, -1318873.1, 64913.96, 0.0044764117, 10.001343, 9.9983835 
2.6787433e+3, 1.6879421e+2, -1246866.5, -1446694.6, 88110.664, 0.11231986, 0.2264267, -1213565.3, 72280.234, 0.00066900725, 10.001292, 9.998355 
2.678436e+3, 1.7878902e+2, -1250752.8, -1368671.9, 7044.723, 0.07644906, 0.28709155, -1250333.4, -62434.23, 0.000027210404, 10.000288, 9.998831 
2.6781288e+3, 1.8878344e+2, -952341.4, -687785.4, 27357.438, 0.06507496, 0.02513877, -684986.0, 404953.13, 0.000000001728097, 9.999748, 10.002973 
2.6778212e+3, 1.9877814e+2, -1302919.1, -1095954.6, 34021.563, 0.09094986, -0.324666, -1090505.5, -98531.74, 0.0, 9.997761, 10.000568 
2.6775125e+3, 2.0877531e+2, -1069408.6, -920022.9, 40117.94, 0.09510936, -0.19092356, -909930.9, -15926.061, 0.0, 9.998842, 10.000427 
2.6772034e+3, 2.1877289e+2, -1115110.0, -1170152.6, 44608.49, 0.111189604, -0.002791457, -1090216.3, -294179.4, 0.0, 9.998837, 9.998201 
2.6768935e+3, 2.2876887e+2, -791872.25, -892462.3, 14623.18, 0.061665602, 0.2085295, -789789.56, -91707.21, 0.0, 10.000207, 9.99865 
2.6765838e+3, 2.3876442e+2, -832981.56, -1006462.3, -25455.428, 0.013959198, 0.33725047, -829323.56, -229192.88, 0.0, 9.999743, 9.997548 
2.6762748e+3, 2.4875861e+2, -514452.16, -466327.94, -36772.715, 0.017026426, 0.275014, -446444.4, 55741.707, 0.0, 10.000039, 10.000251 
2.6759663e+3, 2.587529e+2, -673434.6, -627448.2, -48776.797, 0.021387722, 0.09926752, -596516.8, -192277.77, 0.0, 9.998668, 9.999291 
2.6756567e+3, 2.687496e+2, -355368.72, -116528.55, -32634.818, -0.07181917, 0.12659763, -112149.65, 194115.97, 0.0, 9.999007, 10.001833 
2.6753473e+3, 2.7874658e+2, -617957.75, -522748.53, 26910.746, -0.15404187, 0.107322425, -515668.72, -307378.78, 0.0, 9.99778, 9.999109 
2.6750392e+3, 2.887422e+2, -490068.0, -446102.2, -3637.4856, -0.1889094, 0.25669295, -445803.28, -335466.8, 0.0, 9.998286, 9.998602 
2.6747307e+3, 2.9873723e+2, -572863.1, -593913.06, -65750.88, -0.24250716, 0.33249894, -516800.16, -504409.72, 0.0, 9.997577, 9.9974 
2.674428e+3, 3.0872622e+2, -293859.28, -215050.05, -138437.94, 0.3585245, -0.1821716, -110517.92, -110517.92, 0.0, 9.998398, 9.999137 
2.674115e+3, 3.1872547e+2, -99862.82, 346625.28, -104743.4, -0.09045957, 0.1971594, 369976.22, 369976.22, 0.0, 9.997456, 10.003544 
2.6899734e+3, 1.291198e+2, -1628200.6, -1606664.0, -41090.02, -0.20812161, 0.15583842, -1574954.8, 99699.65, 0.043619107, 10.000355, 10.0003395 
2.6896682e+3, 1.3911957e+2, -1494807.8, -1639113.5, -13226.677, 0.11472884, 0.4619953, -1493605.5, 83055.23, 0.026486209, 10.0011215, 9.999247 
2.6893577e+3, 1.4911453e+2, -1123516.9, -1198837.1, -17333.793, 0.03381341, 0.37619126, -1119719.3, 358985.4, 0.012009438, 10.002192, 10.001013 
2.6890478e+3, 1.5910827e+2, -1124185.8, -1430949.5, -8796.133, -0.050010353, 0.119697414, -1123933.8, 256825.66, 0.003455713, 10.002507, 9.998701 
2.6887396e+3, 1.6910341e+2, -1260221.1, -1468592.6, 46840.83, 0.044254452, 0.25673336, -1250175.8, 32636.537, 0.00049606664, 10.001177, 9.998294 
2.6884317e+3, 1.7909878e+2, -1431355.1, -1475363.6, 66206.62, 0.08867906, 0.3965409, -1383591.9, -198728.36, 0.00001910138, 9.999031, 9.998732 
2.688124e+3, 1.890926e+2, -1099559.4, -828996.44, 20864.98, 0.11221027, 0.121525355, -827396.8, 259514.83, 0.0000000002885943, 9.998949, 10.0024185 
2.687816e+3, 1.9908687e+2, -1134194.0, -1016296.0, -53756.42, 0.111436844, -0.21945877, -995465.7, -6512.8945, 0.0, 9.998811, 10.0006275 
2.687507e+3, 2.0908454e+2, -1003500.3, -860502.8, -66015.18, 0.08929966, -0.0651431, -834687.25, 56291.156, 0.0, 9.999084, 10.000757 
2.6871976e+3, 2.1908273e+2, -989902.56, -1031779.4, -60407.16, 0.038867325, 0.15300511, -946907.9, -153905.08, 0.0, 9.999247, 9.998971 
2.6868886e+3, 2.2907773e+2, -761759.25, -840418.94, -15295.095, -0.02166214, 0.21154435, -758889.9, -63834.883, 0.0, 10.000141, 9.999107 
2.6865792e+3, 2.3907238e+2, -602422.6, -796971.9, 29082.5, -0.07458007, 0.2231273, -598168.2, -1058.4435, 0.0, 10.00077, 9.998535 
2.68627e+3, 2.4906707e+2, -512703.0, -493431.06, 29123.64, -0.03865938, 0.19569597, -472390.7, 26769.465, 0.0, 10.000024, 10.000164 
2.6859608e+3, 2.5906157e+2, -590613.7, -581519.6, 47295.74, -0.012814027, 0.09694228, -538552.9, -137342.28, 0.0, 9.999019, 9.999494 
2.6856518e+3, 2.6905742e+2, -329530.5, -184086.66, -16999.676, -0.04878946, 0.0851465, -182126.13, 121120.07, 0.0, 9.999399, 10.001248 
2.6853427e+3, 2.790537e+2, -331732.03, -413640.06, -71872.695, -0.08133852, 0.0704158, -289964.13, -84686.08, 0.0, 9.999727, 9.998945 
2.685034e+3, 2.8904876e+2, -300913.06, -427244.38, -59101.547, -0.17210166, 0.200707, -277575.0, -170245.39, 0.0, 9.999748, 9.998063 
2.6847252e+3, 2.9904324e+2, -300927.44, -466707.63, -55668.94, -0.23582286, 0.28709123, -283968.66, -274580.47, 0.0, 9.99932, 9.997437 
2.6844212e+3, 3.090323e+2, -197171.98, -166933.17, -73389.46, 0.28720298, -0.22967616, -107121.88, -107121.88, 0.0, 9.998932, 9.999248 
2.6841095e+3, 3.1903028e+2, -120490.016, 236891.7, -23700.955, 0.0035662674, 0.056839004, 238456.66, 238456.66, 0.0, 9.99757, 10.00275 
2.699968e+3, 1.2942639e+2, -1451892.9, -1502261.0, 73140.17, -0.40787983, -0.023556072, -1399722.4, 271919.06, 0.03555001, 10.001441, 10.00059 
2.6996672e+3, 1.3942614e+2, -1422078.8, -1589807.5, 20344.3, 0.3680863, 0.2780788, -1419646.4, 154003.86, 0.021269772, 10.001509, 9.999448 
2.6993564e+3, 1.494221e+2, -1128871.8, -1173318.4, 30262.115, 0.16322859, 0.2610096, -1113549.5, 362135.7, 0.009415533, 10.0020485, 10.001257 
2.6990446e+3, 1.5941718e+2, -1228132.5, -1468965.5, -11552.005, -0.11427879, 0.1322165, -1227579.6, 150148.13, 0.0026134893, 10.001779, 9.998782 
2.6987356e+3, 1.6941354e+2, -1198035.5, -1365366.9, -10709.573, -0.0051214905, 0.3406708, -1197352.9, 82417.664, 0.0003600524, 10.001335, 9.998879 
2.698427e+3, 1.7940983e+2, -1411287.9, -1516821.8, 45861.53, 0.16543469, 0.53508, -1394143.3, -212328.38, 0.000012952271, 9.999479, 9.9981985 
2.698119e+3, 1.8940346e+2, -1122578.3, -1006736.06, 55587.03, 0.18804549, 0.3507459, -984377.8, 99494.07, 0.000000000007316074, 9.999618, 10.000826 
2.6978108e+3, 1.9939722e+2, -1260999.6, -1225222.0, -21267.248, 0.18822269, 0.11267598, -1215320.5, -229394.8, 0.0, 9.998642, 9.999284 
2.6975018e+3, 2.0939478e+2, -984675.06, -845975.25, -50757.035, 0.13789207, 0.28087226, -829385.1, 58566.598, 0.0, 9.999241, 10.000761 
2.6971927e+3, 2.1939269e+2, -1110159.0, -1067634.8, -40458.06, 0.08293712, 0.45796177, -1043192.06, -253216.48, 0.0, 9.998459, 9.999073 
2.6968834e+3, 2.293862e+2, -757428.56, -640268.7, 12178.596, -0.07790447, 0.22540069, -639016.2, 53017.36, 0.0, 9.999502, 10.000678 
2.6965737e+3, 2.3937948e+2, -838098.06, -868572.4, 17647.361, -0.21508825, -0.048990134, -830020.0, -235927.23, 0.0, 9.999094, 9.998819 
2.696265e+3, 2.4937567e+2, -590799.5, -514506.8, -37235.805, -0.07970615, 0.041722514, -499346.03, -3218.0994, 0.0, 9.999506, 10.000218 
2.6959562e+3, 2.5937214e+2, -876725.94, -872632.7, 13584.698, 0.10125717, 0.13845979, -860941.3, -462779.9, 0.0, 9.99788, 9.998001 
2.6956484e+3, 2.693658e+2, -563713.2, -529280.56, -931.94867, 0.14206308, 0.085117094, -529255.4, -229033.34, 0.0, 9.998928, 9.999027 
2.6953402e+3, 2.793593e+2, -602583.44, -700781.3, -47506.04, 0.11829652, -0.017373424, -583363.06, -381079.53, 0.0, 9.998703, 9.997437 
2.6950297e+3, 2.8935418e+2, -338431.75, -359873.66, -58406.195, -0.11950518, 0.08555099, -289770.7, -185437.33, 0.0, 9.9993, 9.998675 
2.694719e+3, 2.993488e+2, -448738.8, -506599.0, -51825.26, -0.35884798, 0.1313741, -418315.66, -411929.75, 0.0, 9.998316, 9.997629 
2.6944152e+3, 3.0933887e+2, -213256.95, -75935.32, -74586.78, 0.20916678, -0.3687253, -43218.156, -43218.156, 0.0, 9.998509, 10.000038 
2.6941022e+3, 3.1933814e+2, -420301.63, -116176.34, -87280.73, -0.069512084, 0.0044575403, -92907.945, -92907.945, 0.0, 9.996608, 10.000771 
2.7099702e+3, 1.2973763e+2, -1506245.4, -1661061.1, 81819.65, -0.03591852, -0.0033486313, -1471019.3, 197566.66, 0.028414996, 10.001666, 9.999365 
2.7096593e+3, 1.3973536e+2, -1430568.8, -1657513.1, 79159.68, -0.21561061, 0.2087953, -1405685.6, 164928.83, 0.016713178, 10.00172, 9.998887 
2.709351e+3, 1.4973156e+2, -1128860.8, -1120967.0, 85281.72, -0.1681034, 0.19864137, -1039540.8, 433106.13, 0.0071980846, 10.0018215, 10.001716 
2.7090427e+3, 1.597273e+2, -1234956.4, -1392767.4, 56875.56, -0.10705569, 0.09422412, -1216594.8, 158088.75, 0.0019202423, 10.001355, 9.999517 
2.708733e+3, 1.6972321e+2, -1027897.2, -1182012.8, 71786.055, 0.0053981794, 0.18056367, -999640.5, 277086.28, 0.00025324232, 10.002062, 9.9998045 
2.7084234e+3, 1.7971916e+2, -1009810.06, -1290623.4, 127031.65, 0.08338152, 0.2876624, -960872.94, 217897.8, 0.000008369746, 10.002043, 9.998521 
2.708115e+3, 1.8971351e+2, -935514.2, -1056965.5, 135470.02, 0.15350142, 0.26248905, -847782.0, 233044.81, 0.0, 10.001491, 9.999595 
2.7078065e+3, 1.9970788e+2, -1019382.56, -1194494.1, 95590.31, 0.17362648, 0.22566125, -977309.94, 5571.686, 0.0, 10.000579, 9.9985895 
2.7074978e+3, 2.0970356e+2, -752660.1, -852041.75, 52712.438, 0.13932955, 0.31236503, -729909.44, 155017.81, 0.0, 10.001203, 9.999855 
2.7071887e+3, 2.196997e+2, -639278.7, -786922.56, -4659.4385, 0.05433465, 0.3906822, -639131.75, 147836.14, 0.0, 10.001343, 9.999644 
2.7068785e+3, 2.2969423e+2, -669427.0, -524290.8, -17183.955, -0.083992854, 0.20966487, -522284.0, 166730.7, 0.0, 9.999709, 10.001434 
2.7065682e+3, 2.3968859e+2, -902554.2, -809293.6, -26853.723, -0.21410139, -0.0055776485, -802114.0, -211051.69, 0.0, 9.998142, 9.999695 
2.7062598e+3, 2.4968462e+2, -583498.44, -525281.1, -68048.15, -0.084141314, 0.055210777, -480377.2, 12721.247, 0.0, 9.999553, 10.00015 
2.7059516e+3, 2.5968078e+2, -408109.25, -634978.7, -44011.914, 0.08524683, 0.15229097, -399870.3, -4735.9663, 0.0, 10.000968, 9.998136 
2.7056438e+3, 2.696736e+2, -374834.66, -552428.7, -25667.719, 0.13992313, 0.074382134, -371199.28, -73994.5, 0.0, 10.000631, 9.998075 
2.7053356e+3, 2.7966598e+2, -399817.78, -566395.56, -19920.082, 0.16226643, -0.050924882, -397468.78, -198189.98, 0.0, 9.999824, 9.997825 
2.7050254e+3, 2.8966087e+2, -206351.36, -199971.08, -992.77356, -0.04428523, -0.009612611, -199820.17, -98493.805, 0.0, 9.999742, 9.999603 
2.7047142e+3, 2.9965588e+2, -221407.72, -300960.84, -2254.0972, -0.28602803, 0.013874035, -221343.9, -217971.52, 0.0, 9.999336, 9.998586 
2.7044088e+3, 3.0964822e+2, -158136.63, -53986.813, -89477.66, 0.1890729, -0.26547682, -2533.7202, -2533.7202, 0.0, 9.998806, 10.000107 
2.704097e+3, 3.196469e+2, -30026.334, 66207.39, -65607.56, 0.08306801, 0.07336306, 99451.36, 99451.36, 0.0, 9.999193, 10.000803 
2.7199718e+3, 1.300498e+2, -1387914.1, -1710362.0, 136829.13, 0.37693745, 0.0040729935, -1337678.0, 327845.75, 0.022191226, 10.002923, 9.998448 
2.719652e+3, 1.4004579e+2, -1417544.1, -1721999.0, 130058.125, -0.6658823, 0.15549599, -1369550.9, 198016.31, 0.01278431, 10.002076, 9.998301 
2.7193454e+3, 1.5004204e+2, -1145482.8, -1112151.4, 110818.63, -0.42372897, 0.1450973, -1016752.3, 452847.13, 0.00532732, 10.00165, 10.001868 
2.7190408e+3, 1.6003796e+2, -1312562.6, -1387630.8, 49894.813, 0.045037225, 0.05055572, -1287660.3, 83973.56, 0.0013580795, 10.00072, 9.999855 
2.7187315e+3, 1.700331e+2, -1021784.9, -1079368.9, 48023.883, 0.10646027, -0.02820686, -994583.4, 279095.94, 0.00016970174, 10.001753, 10.000635 
2.7184212e+3, 1.8002836e+2, -1110028.5, -1388096.3, 60132.016, 0.10655433, -0.04376329, -1097582.1, 78143.125, 0.0000049540654, 10.00162, 9.998061 
2.718112e+3, 1.9002353e+2, -972996.06, -1201720.6, 53984.16, 0.14190932, 0.08587502, -960894.8, 116883.35, 0.0, 10.001803, 9.998415 
2.717803e+3, 2.0001848e+2, -1179672.9, -1447714.1, 62463.5, 0.2195709, 0.22660245, -1165831.4, -185997.84, 0.0, 10.000363, 9.99691 
2.7174947e+3, 2.100121e+2, -921743.5, -1042531.4, 70086.57, 0.17173418, 0.21635231, -889619.56, -7719.4097, 0.0, 10.000705, 9.998692 
2.7171856e+3, 2.2000617e+2, -973086.7, -1058927.3, -13388.265, 0.10561567, 0.19705279, -971047.0, -187085.84, 0.0, 9.999651, 9.99858 
2.716874e+3, 2.3000255e+2, -725712.56, -537251.75, -76884.625, 0.0040844223, 0.20290773, -509865.5, 176127.34, 0.0, 9.999339, 10.001493 
2.7165627e+3, 2.3999915e+2, -1091431.3, -959872.06, -24405.516, -0.087379806, 0.21666262, -955490.56, -367469.28, 0.0, 9.997262, 9.999048 
2.7162546e+3, 2.499939e+2, -687872.5, -595542.56, 41.098896, -0.07509094, 0.1593909, -595542.56, -105473.6, 0.0, 9.999029, 9.999863 
2.7159467e+3, 2.599884e+2, -684254.8, -872303.7, -26877.264, -0.031173429, 0.12400939, -680488.75, -288368.6, 0.0, 9.999616, 9.997173 
2.7156383e+3, 2.6998127e+2, -480026.2, -611671.6, -52872.277, -0.009654196, 0.07288646, -461420.78, -167230.84, 0.0, 10.000063, 9.997913 
2.7153295e+3, 2.7997404e+2, -583031.25, -667210.56, -38644.758, 0.021798655, -0.0031977408, -567981.1, -371720.7, 0.0, 9.998724, 9.9976635 
2.7150205e+3, 2.8996876e+2, -222218.75, -112351.36, -16893.39, -0.023297591, -0.06679473, -109812.47, -11503.084, 0.0, 9.999278, 10.000395 
2.7147102e+3, 2.9996437e+2, -413462.94, -446145.88, -33218.063, -0.17190495, -0.04379085, -392784.38, -392434.53, 0.0, 9.998361, 9.998032 
2.7144033e+3, 3.099606e+2, -309132.88, -227544.98, -135436.5, 0.23111288, 0.12780178, -126892.15, -126892.15, 0.0, 9.998308, 9.99908 
2.7140918e+3, 3.1995353e+2, 43071.68, 322143.56, 282378.22, -0.026653845, -0.100760855, 497580.22, 497580.22, 0.0, 9.998922, 10.002625 
2.729967e+3, 1.3036446e+2, -1209286.9, -1418226.9, 52376.004, -0.12806681, 0.18941431, -1196892.6, 465556.47, 0.016854262, 10.003356, 10.000205 
2.7296552e+3, 1.4036018e+2, -1424080.4, -1736607.0, 170984.42, -0.20687936, 0.17362306, -1348710.6, 215773.66, 0.009467284, 10.002099, 9.9981785 
2.729344e+3, 1.5035394e+2, -1346808.9, -1425143.5, 132455.38, -0.26753, 0.07462584, -1247851.3, 218688.34, 0.0037924994, 10.001229, 9.999894 
2.7290347e+3, 1.6034758e+2, -1466134.0, -1575591.3, 56914.766, -0.2176915, -0.06594717, -1441903.8, -73306.86, 0.0009170214, 10.000154, 9.9988165 
2.728728e+3, 1.7034243e+2, -1076735.3, -1158233.0, 52050.594, 0.035364445, -0.106427744, -1051380.1, 219265.95, 0.0001065257, 10.00158, 10.00018 
2.7284208e+3, 1.803378e+2, -940283.4, -1296508.9, -3896.5806, 0.21066731, -0.07750015, -940240.75, 232450.73, 0.0000025959862, 10.002677, 9.998192 
2.7281106e+3, 1.9033296e+2, -761988.5, -1106780.5, -4311.8696, 0.18697438, 0.053292654, -761934.56, 312809.03, 0.0, 10.003164, 9.998488 
2.7278e+3, 2.0032786e+2, -777014.7, -1163767.4, 17171.492, 0.12879561, 0.17682837, -776253.8, 200544.55, 0.0, 10.002655, 9.997762 
2.72749e+3, 2.1032092e+2, -808729.1, -943184.5, 77217.38, 0.0636522, 0.060814746, -773574.75, 105293.336, 0.0, 10.0012245, 9.999151 
2.72718e+3, 2.203146e+2, -907305.8, -1015138.3, 67528.95, -0.0015033013, -0.0061740465, -874809.5, -93878.266, 0.0, 9.999939, 9.998747 
2.7268705e+3, 2.303119e+2, -630776.9, -611115.6, -19765.232, 0.0826471, 0.17966348, -598871.25, 84086.695, 0.0, 10.000417, 10.000484 
2.7265602e+3, 2.4030912e+2, -622393.75, -805983.94, -31191.65, 0.15287228, 0.35887814, -617239.06, -32253.994, 0.0, 10.000676, 9.998473 
2.7262512e+3, 2.5030118e+2, -651732.4, -725216.1, -48615.566, 0.09105241, 0.15843777, -627536.25, -140475.25, 0.0, 9.999785, 9.998681 
2.7259424e+3, 2.6029345e+2, -736252.4, -818351.1, -108265.11, 0.02298365, -0.01653083, -661515.8, -272381.16, 0.0, 9.99879, 9.997961 
2.725633e+3, 2.7028868e+2, -479970.66, -475854.22, -58262.395, -0.037002277, 0.06196135, -419613.7, -128434.305, 0.0, 9.999386, 9.99922 
2.7253243e+3, 2.8028372e+2, -347039.22, -442898.53, 13193.306, -0.029547628, 0.11695897, -345256.53, -152030.83, 0.0, 9.999711, 9.998758 
2.7250156e+3, 2.9027757e+2, -289942.5, -159763.42, -33134.965, 0.033298887, -0.040877342, -151814.8, -56531.887, 0.0, 9.998726, 10.000387 
2.724706e+3, 3.002726e+2, -455235.8, -424736.22, -68915.51, 0.01770332, -0.07296739, -369403.44, -369403.44, 0.0, 9.997782, 9.998469 
2.724398e+3, 3.1027073e+2, -96531.3, -172310.45, -99077.0, 0.2585909, 0.29662338, -28346.035, -28346.035, 0.0, 9.9998045, 9.998833 
2.7240863e+3, 3.202619e+2, 208437.98, 493684.97, 346688.03, -0.095270276, -0.07175661, 725940.2, 725940.2, 0.0, 9.999389, 10.003679 
2.7399632e+3, 1.3067988e+2, -1385039.6, -1323392.5, 88271.39, -0.36530644, 0.40096155, -1260717.9, 398648.53, 0.012358515, 10.001297, 10.001832 
2.7396595e+3, 1.4067487e+2, -1277433.5, -1721586.5, 36947.17, 0.43433154, 0.21932086, -1274381.0, 287018.63, 0.0067449147, 10.003377, 9.997614 
2.739343e+3, 1.5066603e+2, -1353516.8, -1673102.9, 16813.885, -0.04685063, 0.014671371, -1352634.6, 110844.75, 0.0025850076, 10.002215, 9.997689 
2.7390283e+3, 1.606574e+2, -1535979.6, -1771130.5, 42850.824, -0.4142929, -0.15898222, -1528414.5, -162855.16, 0.0005889778, 10.000377, 9.997354 
2.7387246e+3, 1.7065212e+2, -1157784.5, -1300864.5, 100019.23, 0.009195981, -0.13599877, -1106353.8, 161258.72, 0.00006228534, 10.001441, 9.999279 
2.738421e+3, 1.8064746e+2, -1128716.4, -1440233.1, 33276.973, 0.42638308, -0.018221272, -1125201.4, 44458.617, 0.0000011486238, 10.00168, 9.997668 
2.7381095e+3, 1.9064261e+2, -900548.0, -1102524.9, 13098.635, 0.2927618, 0.059346385, -899702.06, 172007.44, 0.0, 10.002014, 9.9990015 
2.7377975e+3, 2.0063753e+2, -991672.75, -1212104.1, 8426.757, 0.10988319, 0.13011593, -991351.06, -17590.43, 0.0, 10.00105, 9.998181 
2.7374855e+3, 2.106304e+2, -819009.5, -859503.3, 8949.217, -0.04866086, -0.09867248, -817119.9, 58708.84, 0.0, 10.000777, 9.999932 
2.7371743e+3, 2.2062403e+2, -1104720.4, -1214163.3, 29453.455, -0.10592163, -0.20344275, -1097297.3, -319406.94, 0.0, 9.999119, 9.99776 
2.736867e+3, 2.3062176e+2, -799006.0, -861461.25, -19349.89, 0.1989332, 0.13938573, -793496.94, -113579.56, 0.0, 10.0001, 9.998864 
2.7365595e+3, 2.4061856e+2, -955679.56, -1243843.8, -43087.81, 0.47552788, 0.46752763, -949374.8, -367421.38, 0.0, 9.999666, 9.995946 
2.736249e+3, 2.5060713e+2, -831354.94, -1012576.2, -79150.75, 0.3556406, 0.082128644, -801652.94, -317585.84, 0.0, 9.999499, 9.996795 
2.735938e+3, 2.6059708e+2, -888617.5, -893173.44, -90829.9, 0.16544169, -0.19561282, -800037.0, -413871.6, 0.0, 9.99789, 9.997841 
2.7356282e+3, 2.7059612e+2, -385798.3, -169515.72, -23261.186, -0.01200833, 0.056739755, -167042.27, 121126.96, 0.0, 9.998973, 10.001475 
2.7353185e+3, 2.805948e+2, -517677.94, -523480.47, -2052.2175, -0.10208481, 0.30409232, -517025.47, -326848.53, 0.0, 9.9986925, 9.998652 
2.7350107e+3, 2.9058725e+2, -421063.3, -311272.63, -77197.64, 0.11849684, 0.04592816, -271442.2, -179194.42, 0.0, 9.998352, 9.999464 
2.7347013e+3, 3.0058038e+2, -636926.3, -573922.56, -46552.465, 0.20200533, -0.09361805, -549215.0, -549215.0, 0.0, 9.996948, 9.997823 
2.734391e+3, 3.1057784e+2, -110256.85, -97453.055, -5308.305, 0.057854727, 0.13983603, -95538.56, -95538.56, 0.0, 9.999511, 9.999404 
2.7340814e+3, 3.2057345e+2, -112374.26, 133067.38, 79022.27, -0.13232209, 0.2053957, 156308.61, 156308.61, 0.0, 9.998276, 10.001665 
2.7499622e+3, 1.3099353e+2, -1889928.6, -1790420.1, 265573.47, -0.10281101, 0.49322578, -1569980.5, 86307.41, 0.008685325, 9.998804, 9.999821 
2.7496558e+3, 1.4098658e+2, -1151549.4, -1753311.6, 14370.778, -0.00041593317, 0.2745067, -1151206.5, 407144.66, 0.004592608, 10.004624, 9.996798 
2.749341e+3, 1.5097784e+2, -1191230.1, -1616709.6, -83168.47, -0.113425806, 0.10092914, -1175550.9, 284879.3, 0.0016782222, 10.0033865, 9.997544 
2.7490276e+3, 1.6096947e+2, -1421567.8, -1714211.6, 44043.684, -0.20431477, -0.024086157, -1415082.8, -52575.69, 0.0003582281, 10.0011425, 9.997372 
2.7487212e+3, 1.7096435e+2, -1206402.0, -1344019.9, 160678.1, -0.028646953, 0.033903286, -1100419.4, 164138.98, 0.000033741435, 10.001188, 9.9991045 
2.7484152e+3, 1.8095961e+2, -1204694.8, -1409428.1, 80811.65, 0.119105004, 0.15102091, -1176641.1, -10035.236, 0.00000040337267, 10.000833, 9.998278 
2.7481046e+3, 1.9095388e+2, -1088341.1, -1130321.4, 58389.215, 0.1197542, 0.093167886, -1047283.8, 21377.266, 0.0, 10.000409, 9.999594 
2.7477935e+3, 2.0094843e+2, -1122448.3, -1273164.9, 47445.082, 0.064408645, 0.0963928, -1108756.6, -138042.22, 0.0, 10.000032, 9.998276 
2.747482e+3, 2.1094252e+2, -811573.06, -953968.6, 14898.951, -0.025912695, 0.062606335, -810030.9, 62742.977, 0.0, 10.001102, 9.999203 
2.7471712e+3, 2.2093669e+2, -682425.1, -1007023.3, -18570.58, -0.08453474, 0.065646455, -681366.1, 93466.195, 0.0, 10.001873, 9.997885 
2.7468628e+3, 2.3093118e+2, -502466.3, -765245.25, -8695.483, 0.088164695, 0.12161172, -502178.88, 174707.83, 0.0, 10.00219, 9.998599 
2.7465543e+3, 2.4092561e+2, -518317.2, -944254.06, 17914.86, 0.25719973, 0.22866678, -517565.0, 61377.418, 0.0, 10.002179, 9.9968 
2.7462444e+3, 2.5091705e+2, -463585.75, -791284.06, 70875.47, 0.2738538, 0.10861362, -448913.53, 32115.387, 0.0, 10.001784, 9.99724 
2.745934e+3, 2.60909e+2, -372384.8, -607466.4, 141677.36, 0.21583098, 0.029781727, -305837.8, 77271.27, 0.0, 10.001149, 9.998256 
2.745624e+3, 2.7090567e+2, -266184.2, -202249.55, 43409.402, 0.037231084, 0.12956718, -180306.89, 104831.016, 0.0, 10.000058, 10.000787 
2.745314e+3, 2.8090256e+2, -437382.06, -462550.5, -94201.16, -0.058347616, 0.2527599, -354928.28, -167764.58, 0.0, 9.999042, 9.998927 
2.745006e+3, 2.9089534e+2, -200750.84, -217864.77, -145076.03, 0.20762809, 0.053128857, -63979.645, 25249.559, 0.0, 9.999872, 9.999425 
2.7446964e+3, 3.0088836e+2, -148502.31, -332563.9, -57518.027, 0.29089466, -0.07533932, -132006.66, -132006.66, 0.0, 10.00015, 9.997974 
2.7443838e+3, 3.1088433e+2, -115768.586, -144154.33, -75833.125, -0.19802698, 0.049563177, -52811.6, -52811.6, 0.0, 9.999538, 9.999136 
2.744079e+3, 3.2088217e+2, 45440.094, 157311.5, -162112.39, 0.12274504, 0.37671953, 272867.0, 272867.0, 0.0, 9.999413, 10.001309 
2.7599606e+3, 1.3130566e+2, -1708596.5, -1928552.3, 411296.22, 0.21820207, 0.48227698, -1392828.4, 260393.98, 0.005822727, 10.001023, 9.997793 
2.7596515e+3, 1.4129779e+2, -1446275.4, -1956533.0, -21390.201, -0.36847693, 0.3379532, -1445380.3, 109926.484, 0.002969682, 10.002882, 9.996243 
2.7593395e+3, 1.5128991e+2, -1181670.9, -1536483.8, -154861.7, -0.11260394, 0.20117208, -1123588.0, 333790.44, 0.0010279784, 10.003193, 9.998161 
2.759028e+3, 1.6128257e+2, -1281145.1, -1663464.9, 67730.1, 0.1693505, 0.14894246, -1269501.0, 89944.41, 0.0002033788, 10.002179, 9.997243 
2.7587178e+3, 1.7127751e+2, -1157928.1, -1348077.9, 170593.84, -0.034579877, 0.22688405, -1057704.5, 203790.83, 0.000016580547, 10.001635, 9.998868 
2.7584082e+3, 1.8127257e+2, -1259502.6, -1425231.5, 65986.664, -0.18809302, 0.33380017, -1236439.0, -72895.12, 0.00000009587778, 10.000492, 9.998323 
2.7580985e+3, 1.9126575e+2, -1038254.44, -1053370.9, 6752.157, -0.033773895, 0.116065964, -1035677.6, 29929.79, 0.0, 10.000583, 10.0000305 
2.7577895e+3, 2.0125963e+2, -1216473.8, -1430249.6, 58000.707, 0.11848053, 0.06533559, -1201751.3, -234084.81, 0.0, 9.999946, 9.997234 
2.7574798e+3, 2.112557e+2, -932551.7, -1141991.9, 47084.29, 0.11811902, 0.325483, -922453.5, -52740.5, 0.0, 10.000938, 9.99794 
2.7571696e+3, 2.2125074e+2, -917676.94, -1183934.5, 20793.553, 0.07768514, 0.52313584, -916062.9, -144296.06, 0.0, 10.00071, 9.997186 
2.756858e+3, 2.3124048e+2, -555664.44, -746913.4, 4858.4165, -0.12622792, 0.06349562, -555541.1, 118318.47, 0.0, 10.001757, 9.998882 
2.7565467e+3, 2.41232e+2, -658861.6, -941375.0, -1110.8425, -0.23121321, -0.15183419, -658857.25, -82921.195, 0.0, 10.001081, 9.997302 
2.756239e+3, 2.5122997e+2, -474475.0, -618008.44, 34926.23, 0.010307884, 0.20924918, -466427.53, 11530.24, 0.0, 10.001027, 9.998744 
2.7559304e+3, 2.6122645e+2, -711291.1, -978514.8, 92132.88, 0.19399957, 0.5283371, -682605.1, -302610.63, 0.0, 9.999841, 9.996328 
2.75562e+3, 2.712163e+2, -596193.2, -722266.25, -19237.441, 0.107077815, 0.22885036, -593323.06, -311227.8, 0.0, 9.999516, 9.997428 
2.7553096e+3, 2.812071e+2, -695305.44, -742894.4, -108968.82, 0.068531714, 0.027312797, -607563.44, -423379.2, 0.0, 9.9980755, 9.997448 
2.7550012e+3, 2.912019e+2, -252814.33, -192983.36, -118496.02, 0.2156881, -0.0122046415, -100684.92, -14458.541, 0.0, 9.999357, 9.99982 
2.754691e+3, 3.0119672e+2, -373837.84, -571002.2, -83811.09, 0.1384981, 0.05190255, -343026.28, -343026.28, 0.0, 9.999285, 9.996733 
2.754376e+3, 3.1118986e+2, -326120.16, -419865.16, -129922.7, -0.45980254, 0.019561112, -234873.36, -234873.36, 0.0, 9.998938, 9.997502 
2.754075e+3, 3.2118422e+2, 49087.273, 382312.13, 67992.96, 0.16063376, 0.0271712, 395651.75, 395651.75, 0.0, 9.998708, 10.003127 
2.7699563e+3, 1.316082e+2, -1546360.1, -1821807.8, 143978.11, -0.103470385, -0.0014514663, -1484841.5, 165403.22, 0.0036892197, 10.002101, 9.997948 
2.7696517e+3, 1.4160353e+2, -1681064.0, -1821966.9, -61369.94, -0.080468155, 0.07439318, -1658082.8, -105780.85, 0.0018042208, 10.000239, 9.998413 
2.7693382e+3, 1.5160131e+2, -1010843.0, -1110298.4, -56530.844, -0.10607751, 0.20003451, -985280.7, 469040.13, 0.00058557204, 10.002884, 10.001229 
2.7690256e+3, 1.6159755e+2, -931457.56, -1462205.9, 116721.13, -0.068151504, 0.29815194, -906922.6, 449432.22, 0.00010501939, 10.004393, 9.997565 
2.768716e+3, 1.7158899e+2, -1068478.1, -1451870.0, 157058.58, -0.037938025, 0.133178, -1012354.06, 246085.42, 0.0000068884756, 10.002809, 9.997634 
2.7684066e+3, 1.8158144e+2, -1185651.3, -1413523.5, 53644.563, -0.04480609, 0.08101381, -1173654.1, -13140.102, 0.00000000965895, 10.001065, 9.998134 
2.768096e+3, 1.915763e+2, -881915.44, -1003670.25, 34077.367, 0.0038020234, 0.058934487, -873026.6, 189536.28, 0.0, 10.001694, 9.999881 
2.7677858e+3, 2.0157132e+2, -882810.4, -1214807.1, 51289.082, 0.040055208, 0.12233173, -875067.5, 89544.71, 0.0, 10.001952, 9.9977455 
2.7674764e+3, 2.1156609e+2, -789879.6, -1062799.0, 92718.96, 0.09588524, 0.25360528, -761360.4, 105310.0, 0.0, 10.001838, 9.998077 
2.767167e+3, 2.2156039e+2, -741139.75, -1094223.6, 95912.805, 0.081819855, 0.3845692, -716768.0, 51963.145, 0.0, 10.001805, 9.997304 
2.7668557e+3, 2.3155154e+2, -467466.5, -786830.75, 61895.35, -0.117812805, 0.15301155, -455890.28, 214922.69, 0.0, 10.002627, 9.99826 
2.7665448e+3, 2.4154352e+2, -373826.63, -763524.8, -59453.152, -0.2427823, 0.021802079, -364958.16, 207928.44, 0.0, 10.002731, 9.9977665 
2.7662355e+3, 2.515393e+2, -510608.84, -644020.25, -129596.71, 0.023934249, 0.17687044, -431558.06, 43368.652, 0.0, 10.000682, 9.998805 
2.765926e+3, 2.615347e+2, -748695.75, -944218.1, -59389.5, 0.24106872, 0.36818582, -732070.06, -355098.56, 0.0, 9.999267, 9.996846 
2.7656165e+3, 2.7152544e+2, -317604.13, -630556.94, 31141.123, 0.16357096, 0.18606658, -314535.44, -35472.15, 0.0, 10.001514, 9.99715 
2.7653065e+3, 2.8151628e+2, 57460.83, -383289.94, 76958.15, 0.11741996, 0.02941604, 70511.805, 251663.75, 0.0, 10.003128, 9.997494 
2.764997e+3, 2.9151008e+2, 163915.47, -84762.16, -11422.252, 0.13996021, -0.035361543, 164439.02, 247642.3, 0.0, 10.002406, 9.99917 
2.7646855e+3, 3.015042e+2, -79783.18, -454595.6, -31376.846, 0.012906502, 0.017844096, -77174.67, -77174.67, 0.0, 10.001265, 9.996588 
2.7643722e+3, 3.114969e+2, -86695.07, -364552.3, -28915.592, -0.37007657, 0.009947091, -83717.83, -83717.83, 0.0, 10.000751, 9.997013 
2.7640703e+3, 3.2148936e+2, 151161.7, 470850.47, 204495.2, 0.20958425, -0.1351988, 570560.56, 570560.56, 0.0, 9.999109, 10.0035305 
2.779953e+3, 1.3191122e+2, -1318625.5, -1625311.5, 129364.17, -0.2741971, -0.43925154, -1271346.5, 375918.03, 0.0021709697, 10.003282, 9.998728 
2.7796522e+3, 1.4190935e+2, -1589561.6, -1537927.0, 13307.038, 0.3856693, -0.19879717, -1534699.4, 14595.697, 0.0010072378, 9.999735, 10.000661 
2.7793366e+3, 1.5191263e+2, -983224.94, -777146.56, -23232.336, -0.065327995, 0.18151872, -774559.94, 676702.9, 0.00030058212, 10.001592, 10.004206 
2.7790228e+3, 1.6191223e+2, -1189482.0, -1583302.9, 3281.4858, -0.287022, 0.4233748, -1189454.6, 163811.28, 0.000046417692, 10.002631, 9.997585 
2.7787152e+3, 1.7189994e+2, -1172251.9, -1633576.5, 27507.295, 0.065247454, -0.037322402, -1170617.5, 84769.266, 0.0000020738605, 10.002704, 9.9964285 
2.778406e+3, 1.8188973e+2, -1165084.6, -1494577.8, 56723.066, 0.2998577, -0.24152055, -1155593.0, 1894.8789, 0.00000000000031198744, 10.001649, 9.997279 
2.778094e+3, 1.9188702e+2, -941469.44, -1061122.6, 33039.004, 0.13463221, -0.010516804, -932952.8, 126563.414, 0.0, 10.001483, 9.999542 
2.7777827e+3, 2.0188352e+2, -1069749.9, -1320262.9, 50227.23, 0.021779403, 0.23314963, -1060054.6, -98502.375, 0.0, 10.000849, 9.997528 
2.7774733e+3, 2.1187541e+2, -800494.4, -1010374.7, 63032.78, 0.055591054, 0.020039268, -783019.0, 80615.125, 0.0, 10.001611, 9.998517 
2.777164e+3, 2.2186835e+2, -934730.3, -1303524.8, 113337.98, 0.10627048, 0.027015971, -902683.94, -136977.63, 0.0, 10.001061, 9.996199 
2.7768552e+3, 2.318638e+2, -705386.3, -1030568.94, 95906.984, 0.06776349, 0.31371635, -679207.75, -11453.481, 0.0, 10.001633, 9.997015 
2.7765453e+3, 2.4185774e+2, -744630.44, -1089763.1, -87276.16, 0.06888477, 0.5073736, -723815.6, -154001.06, 0.0, 10.000963, 9.996354 
2.776233e+3, 2.5184605e+2, -665147.44, -814942.1, -201365.84, 0.22357374, 0.00047074136, -525201.1, -53277.516, 0.0, 10.000174, 9.997844 
2.7759215e+3, 2.6183674e+2, -826075.8, -897234.56, -6094.6357, 0.32766542, -0.22629276, -825557.56, -451547.75, 0.0, 9.998542, 9.997462 
2.7756134e+3, 2.718339e+2, -259353.45, -365360.5, 129011.695, 0.17746963, 0.020565452, -172881.56, 103152.82, 0.0, 10.000999, 9.9991665 
2.7753043e+3, 2.818295e+2, -166459.55, -556695.44, 68490.74, 0.03693608, 0.22770233, -154787.77, 23285.639, 0.0, 10.002029, 9.996795 
2.7749926e+3, 2.9181927e+2, -67107.38, -364579.44, -43190.723, -0.055384304, -0.114728786, -60963.313, 19202.178, 0.0, 10.001715, 9.997508 
2.7746806e+3, 3.018108e+2, -257568.05, -576822.0, -51535.43, -0.18383746, -0.183883, -249455.13, -249455.13, 0.0, 10.0003805, 9.996136 
2.7743724e+3, 3.1180626e+2, -144904.02, -294451.0, -34771.215, 0.021175718, -0.0062522916, -137214.7, -137214.7, 0.0, 10.000067, 9.997788 
2.7740633e+3, 3.217993e+2, -307322.4, -130409.71, 57152.203, -0.002711054, -0.008215601, -113552.72, -113552.72, 0.0, 9.997794, 10.000015 
2.7899522e+3, 1.3222559e+2, -1195222.3, -1441698.5, -24700.098, -0.37375215, -0.15758246, -1192771.4, 451422.22, 0.0011674941, 10.003639, 9.999815 
2.789647e+3, 1.4222397e+2, -1754551.0, -1754520.4, 52273.797, 0.3080086, 0.110575944, -1702261.9, -156050.77, 0.00050489604, 9.999212, 9.99942 
2.789332e+3, 1.5222153e+2, -1419148.1, -1220061.3, -23429.818, -0.09009858, 0.11750807, -1217341.1, 230896.58, 0.00013439951, 9.999611, 10.002115 
2.7890196e+3, 1.6221823e+2, -1438209.8, -1588175.8, -89187.59, -0.29548314, 0.17016524, -1396672.9, -46402.047, 0.000016423304, 10.0004015, 9.998632 
2.7887127e+3, 1.7221121e+2, -977420.75, -1290748.1, 50022.992, -0.0122994175, 0.029369136, -969628.3, 282708.28, 0.0000003300107, 10.002926, 9.99869 
2.7884042e+3, 1.8220451e+2, -795920.56, -1264052.6, 37554.758, 0.172909, 0.011963564, -792926.94, 361474.5, 0.0, 10.0038805, 9.997822 
2.788092e+3, 1.9219916e+2, -954816.8, -1159506.0, -4077.5745, 0.16217887, 0.06357477, -954735.6, 101723.35, 0.0, 10.001686, 9.998845 
2.7877802e+3, 2.0219406e+2, -1111917.3, -1252918.5, 71476.336, 0.094690114, 0.17949316, -1082022.6, -123510.44, 0.0, 10.000176, 9.99829 
2.7874702e+3, 2.1218783e+2, -631939.2, -857423.06, 149764.45, -0.026383186, 0.10134473, -557224.1, 303347.75, 0.0, 10.002442, 9.999175 
2.7871612e+3, 2.2218148e+2, -509195.56, -1009466.6, 122692.92, -0.05393469, 0.1178649, -480725.03, 281908.0, 0.0, 10.003481, 9.997069 
2.7868524e+3, 2.321753e+2, -802865.25, -1060273.3, 145258.7, 0.12514229, 0.22534795, -737495.0, -72799.836, 0.0, 10.000727, 9.99731 
2.7865428e+3, 2.4216838e+2, -973979.06, -1195132.8, 87977.77, 0.22650395, 0.32936195, -943250.1, -376486.44, 0.0, 9.99929, 9.996441 
2.7862293e+3, 2.5215733e+2, -352913.22, -742928.94, 23108.494, 0.15414226, -0.018005315, -351548.8, 117319.53, 0.0, 10.002591, 9.997204 
2.785917e+3, 2.621478e+2, 35301.477, -506942.78, 147492.55, 0.10978294, -0.20004913, 72823.58, 443781.75, 0.0, 10.00442, 9.997344 
2.78561e+3, 2.721438e+2, -156163.81, -403084.7, 104171.586, 0.10352247, 0.01734734, -118087.26, 154909.14, 0.0, 10.00191, 9.998546 
2.7853018e+3, 2.8213897e+2, -433584.75, -673947.4, -44512.81, 0.08636927, 0.2141557, -425606.25, -250565.69, 0.0, 10.00003, 9.996967 
2.7849904e+3, 2.9212907e+2, -97048.69, -407007.06, -74507.82, -0.02397754, -0.06696155, -80068.68, -2938.7688, 0.0, 10.001533, 9.997327 
2.7846783e+3, 3.0212003e+2, 46503.844, -388976.6, -46849.33, -0.11664884, -0.19818546, 51486.91, 51486.91, 0.0, 10.002147, 9.996607 
2.7843705e+3, 3.1211445e+2, -61418.652, -257263.44, -106999.875, 0.25607976, -0.11944679, -14297.021, -14297.021, 0.0, 10.000464, 9.997944 
2.784057e+3, 3.2210907e+2, -94325.97, -43340.3, 30090.17, -0.06505582, 0.055415712, -29395.805, -29395.805, 0.0, 9.999124, 10.000036 
2.7999514e+3, 1.3254227e+2, -1442658.8, -1457284.1, -155898.9, -0.30129588, 0.23493114, -1293901.1, 347199.66, 0.0005665473, 10.001401, 10.000794 
2.7996415e+3, 1.4253955e+2, -1601137.3, -1919823.8, 56253.023, 0.2757087, 0.39902985, -1591499.3, -48381.33, 0.00022570654, 10.001337, 9.997218 
2.799328e+3, 1.5253003e+2, -1452012.3, -1597172.6, 46025.523, -0.039413814, -0.0014372222, -1438649.3, 6567.9614, 0.00005282333, 10.000975, 9.998831 
2.799017e+3, 1.6252318e+2, -1341478.0, -1403187.3, 68078.484, -0.16807565, -0.1308605, -1297588.5, 49698.45, 0.000004777361, 10.000562, 9.999757 
2.7987102e+3, 1.7252307e+2, -934435.4, -945988.06, 144283.83, -0.06699185, 0.13821265, -795812.3, 453468.9, 0.00000002399446, 10.001867, 10.001518 
2.798402e+3, 1.8252075e+2, -1057955.6, -1403081.6, -13371.901, 0.06012606, 0.39284766, -1057438.3, 93863.16, 0.0, 10.002235, 9.997623 
2.7980894e+3, 1.9251174e+2, -1103051.4, -1318048.5, -108780.01, 0.24900708, 0.13378367, -1057615.3, -4216.736, 0.0, 10.001137, 9.997983 
2.7977774e+3, 2.0250453e+2, -1158814.4, -1287468.4, 130811.63, 0.28737816, 0.10429413, -1077368.8, -121895.02, 0.0, 9.999942, 9.998166 
2.7974674e+3, 2.1250148e+2, -713494.06, -835681.5, 213589.78, -0.06959546, 0.2748423, -552432.3, 305066.4, 0.0, 10.001632, 9.999704 
2.797158e+3, 2.2249666e+2, -724261.56, -1026806.9, 47504.223, -0.2091024, 0.38533306, -716978.0, 42562.63, 0.0, 10.001797, 9.99771 
2.796849e+3, 2.3248622e+2, -816429.9, -936546.3, -11388.348, 0.17307346, -0.061165158, -815359.6, -153721.84, 0.0, 10.000205, 9.998371 
2.7965385e+3, 2.4247746e+2, -1099286.6, -1326490.1, 120751.11, 0.34175342, -0.1703741, -1047098.75, -483378.28, 0.0, 9.998857, 9.995718 
2.7962247e+3, 2.5247192e+2, -510461.94, -890433.8, 138120.58, -0.07467664, 0.072843276, -465560.78, 215.32126, 0.0, 10.001918, 9.99647 
2.7959126e+3, 2.6246506e+2, -362344.97, -973004.7, 108795.36, -0.3123277, 0.29853332, -343540.97, 24304.78, 0.0, 10.00299, 9.994811 
2.7956054e+3, 2.724543e+2, -465658.13, -850057.25, 4914.761, -0.04549686, 0.07719885, -465595.28, -195637.97, 0.0, 10.001173, 9.995792 
2.795298e+3, 2.8244543e+2, -586332.7, -788350.7, -33705.207, 0.17505799, 0.07034943, -580857.6, -408812.06, 0.0, 9.999287, 9.9965105 
2.7949893e+3, 2.924395e+2, -112627.984, -293172.66, -18287.813, 0.18468091, 0.08347481, -110794.195, -36698.707, 0.0, 10.001011, 9.998336 
2.7946776e+3, 3.02432e+2, -134787.6, -507633.7, -114985.92, 0.07800882, 0.060693808, -102177.97, -102177.97, 0.0, 10.001219, 9.996165 
2.7943647e+3, 3.124203e+2, -264907.28, -414341.56, -182179.98, 0.11891393, -0.43699023, -142717.84, -142717.84, 0.0, 9.999486, 9.9972515 
2.7940524e+3, 3.2241946e+2, 132785.45, 690953.44, 175909.92, -0.075066954, 0.006409188, 741766.7, 741766.7, 0.0, 9.998312, 10.005342 
2.809947e+3, 1.3285722e+2, -1666853.8, -1381018.8, 770.2447, -0.34622046, 0.42880186, -1381016.6, 256998.23, 0.00024944692, 9.999054, 10.00247 
2.8096402e+3, 1.4284852e+2, -1312065.6, -1764515.9, 84483.875, 0.2227907, -0.104378074, -1296805.1, 243274.19, 0.00009135431, 10.003294, 9.997331 
2.8093252e+3, 1.528427e+2, -1332843.8, -1633573.4, 135960.36, -0.08283626, -0.06056013, -1280490.0, 161655.86, 0.000018191195, 10.00219, 9.998018 
2.8090134e+3, 1.6283724e+2, -1279416.8, -1357616.6, 190063.27, -0.22170486, 0.0127197355, -1124473.3, 219730.61, 0.000001253609, 10.000906, 9.999907 
2.8087065e+3, 1.7283395e+2, -1164462.5, -1052445.0, 223082.95, -0.10477253, -0.015532882, -878447.25, 367780.63, 0.0000000065346386, 10.0002365, 10.001595 
2.808398e+3, 1.8283024e+2, -1397530.8, -1549247.9, -30401.373, 0.003929073, 0.1027876, -1391665.6, -243403.67, 0.0, 9.999837, 9.997747 
2.808085e+3, 1.928234e+2, -1131342.4, -1363707.8, -68912.29, 0.16048196, 0.09674466, -1112442.4, -62102.05, 0.0, 10.001056, 9.997714 
2.8077734e+3, 2.0281698e+2, -902320.5, -1160065.1, 153532.5, 0.21821834, 0.15922798, -830742.56, 121667.03, 0.0, 10.001602, 9.998257 
2.807465e+3, 2.1281159e+2, -840571.2, -951999.75, 215133.28, -0.017208083, 0.14744203, -674054.94, 180401.88, 0.0, 10.000856, 9.999343 
2.8071558e+3, 2.2280547e+2, -890663.8, -1132915.4, -28308.674, -0.117893964, 0.16235031, -887399.75, -130887.98, 0.0, 10.000699, 9.997524 
2.806846e+3, 2.3279609e+2, -522705.72, -858925.3, -141110.22, 0.18522514, -0.10949053, -471332.03, 187268.77, 0.0, 10.002413, 9.997872 
2.806535e+3, 2.4278797e+2, -341101.94, -830128.6, -28918.264, 0.29214132, -0.18713258, -339397.8, 221278.97, 0.0, 10.0033655, 9.996969 
2.806222e+3, 2.52783e+2, -315517.6, -686769.5, 84102.53, -0.104838684, 0.005849772, -297353.88, 165368.03, 0.0, 10.002622, 9.997589 
2.8059107e+3, 2.6277658e+2, -458027.06, -1010927.3, 106861.68, -0.3140624, 0.19833328, -438092.16, -73306.36, 0.0, 10.002166, 9.994997 
2.805603e+3, 2.7276498e+2, -309119.1, -871704.7, 102331.62, -0.0045327074, -0.0068299305, -291083.66, -24174.746, 0.0, 10.0025015, 9.995091 
2.8052953e+3, 2.8275573e+2, -72722.65, -467183.78, 198445.92, 0.24186586, -0.025931124, 9833.632, 178838.05, 0.0, 10.002344, 9.997291 
2.8049865e+3, 2.9275173e+2, -4050.3044, -207728.8, 192757.34, 0.22608143, 0.1744425, 112116.47, 183153.55, 0.0, 10.001435, 9.998805 
2.8046745e+3, 3.0274493e+2, -179942.78, -475890.13, 34095.637, 0.1223859, 0.19417676, -176065.47, -176065.47, 0.0, 10.000602, 9.996682 
2.80436e+3, 3.1273067e+2, -84065.33, -337804.88, -26783.857, 0.11083671, -0.5240492, -81268.94, -81268.94, 0.0, 10.000656, 9.997258 
2.8040487e+3, 3.227319e+2, 339443.5, 830353.6, 180469.34, 0.10668442, 0.12343229, 889558.0, 889558.0, 0.0, 9.999345, 10.005885 
2.8199437e+3, 1.3316952e+2, -1361390.8, -1057171.0, 124941.62, -0.20096003, 0.3932521, -1012436.25, 622517.3, 0.00010705436, 10.000458, 10.003991 
2.8196386e+3, 1.4315708e+2, -1567236.8, -1854643.0, -41923.582, 0.26715246, -0.59444565, -1561246.4, -24199.582, 0.000035101017, 10.001454, 9.997588 
2.819323e+3, 1.5315618e+2, -1391493.3, -1652301.6, -21770.508, -0.042731598, -0.0760305, -1389688.5, 49377.93, 0.0000055355054, 10.001828, 9.998048 
2.8190106e+3, 1.6315293e+2, -1273226.6, -1413117.9, 105106.94, -0.15897574, 0.23754118, -1216919.1, 124184.164, 0.0000002527922, 10.001254, 9.999366 
2.8187028e+3, 1.7314458e+2, -1229648.4, -1168428.1, 101645.984, -0.037817135, -0.23869488, -1092883.3, 150293.44, 0.0, 10.000228, 10.000819 
2.8183934e+3, 1.8313842e+2, -1442861.1, -1606820.4, -52093.6, 0.04486494, -0.30245632, -1427709.9, -282474.7, 0.0, 9.999708, 9.997419 
2.8180805e+3, 1.9313511e+2, -1114557.8, -1376535.6, -62869.625, 0.08905912, 0.038469404, -1100251.5, -52971.496, 0.0, 10.001252, 9.99755 
2.8177696e+3, 2.0312987e+2, -995506.4, -1285003.0, 137455.22, 0.15047617, 0.26659063, -940640.0, 8698.581, 0.0, 10.00145, 9.997409 
2.8174627e+3, 2.1312009e+2, -942006.56, -1079956.3, 150130.89, 0.15334652, -0.13816297, -845764.0, 5665.684, 0.0, 10.00064, 9.998499 
2.8171542e+3, 2.2311193e+2, -1082315.5, -1395933.0, 12383.388, 0.13954253, -0.20297302, -1081827.4, -328320.06, 0.0, 10.000227, 9.995914 
2.8168434e+3, 2.3310582e+2, -733078.2, -1094841.5, -56655.695, 0.19768026, -0.043450277, -724412.94, -68842.164, 0.0, 10.001675, 9.996556 
2.8165329e+3, 2.4309951e+2, -437755.5, -721856.2, -3227.457, 0.17605557, 0.09397563, -437718.84, 119911.4, 0.0, 10.002175, 9.998251 
2.816221e+3, 2.5309166e+2, -293243.47, -421877.56, 48185.953, 0.008742378, -0.23955996, -277195.28, 182497.97, 0.0, 10.001785, 9.999777 
2.815911e+3, 2.6308435e+2, -569434.25, -982758.5, 92817.82, -0.048495114, -0.27851775, -549547.5, -187788.06, 0.0, 10.00123, 9.995574 
2.8156024e+3, 2.7307633e+2, -362472.6, -800079.75, 116098.234, 0.14689472, -0.2341503, -333579.2, -69730.6, 0.0, 10.001868, 9.99582 
2.8152928e+3, 2.8306988e+2, -222979.8, -538449.9, 165170.39, 0.19259714, -0.004472169, -152325.7, 13592.395, 0.0, 10.001493, 9.997143 
2.814981e+3, 2.930659e+2, -131035.71, -256029.28, 162193.9, -0.0026549166, 0.16556509, -19714.453, 48239.406, 0.0, 10.000674, 9.998765 
2.814668e+3, 3.0305955e+2, -294480.03, -525984.25, 18282.045, -0.12625605, 0.241092, -293045.2, -293045.2, 0.0, 9.999887, 9.99667 
2.814357e+3, 3.1304687e+2, -200230.28, -341111.3, -4659.8486, 0.17648244, -0.38481686, -200076.31, -200076.31, 0.0, 9.999702, 9.997678 
2.8140447e+3, 3.2304457e+2, -353235.66, -297270.75, 140590.23, 0.16263555, 0.1459337, -181905.27, -181905.27, 0.0, 9.998237, 9.998585 
2.8299442e+3, 1.3347524e+2, -1396760.4, -1206671.6, -144798.69, 0.087752484, 0.14941834, -1128510.6, 503452.6, 0.00005058897, 10.000797, 10.002791 
2.8296316e+3, 1.4347002e+2, -1815585.5, -1825574.3, -170056.0, -0.03748856, -0.094009124, -1650450.5, -116453.42, 0.000015386415, 9.999138, 9.998883 
2.82932e+3, 1.5346593e+2, -1393601.0, -1494356.8, -53723.637, -0.05140043, -0.05518328, -1370330.0, 65708.34, 0.0000020566958, 10.00112, 9.9994755 
2.8290093e+3, 1.6346164e+2, -1203144.0, -1416621.6, -31677.668, -0.049042914, 0.07472529, -1198542.6, 139538.6, 0.00000005936716, 10.001871, 9.999045 
2.8286985e+3, 1.734556e+2, -1251674.6, -1319948.8, -39005.53, -0.10641784, -0.06416847, -1233977.6, 6161.0503, 0.0, 10.000621, 9.999614 
2.828388e+3, 1.8345013e+2, -1249230.4, -1380495.3, -121437.87, -0.10827331, -0.045406055, -1176823.9, -34632.42, 0.0, 10.000405, 9.998663 
2.828077e+3, 1.9344527e+2, -844286.94, -1102204.5, -33463.055, -0.0037578084, 0.0051240604, -840016.0, 204225.4, 0.0, 10.002418, 9.998911 
2.8277674e+3, 2.0344001e+2, -707621.75, -1144184.6, 98431.805, 0.071050875, 0.14708276, -686454.7, 259842.08, 0.0, 10.003352, 9.997485 
2.8274596e+3, 2.1343264e+2, -690583.3, -1050114.5, 120878.02, 0.061600655, 0.07269603, -653722.1, 194651.81, 0.0, 10.002686, 9.997747 
2.8271508e+3, 2.2342551e+2, -667773.94, -1024960.25, 38824.188, 0.09225243, 0.08515565, -663602.7, 86841.82, 0.0, 10.00225, 9.997505 
2.8268412e+3, 2.334187e+2, -581285.56, -892307.44, 116607.06, 0.18685545, 0.065560035, -542423.5, 110083.234, 0.0, 10.002028, 9.997833 
2.8265306e+3, 2.4341188e+2, -496637.38, -787580.5, 159047.56, 0.18384327, 0.100774996, -426567.53, 128001.555, 0.0, 10.001859, 9.997983 
2.8262192e+3, 2.5340357e+2, -340947.0, -598722.5, 36880.16, 0.0620938, -0.1233591, -335774.3, 120869.62, 0.0, 10.001992, 9.99853 
2.825909e+3, 2.633959e+2, -367341.16, -757226.8, -24788.203, 0.038471226, -0.18169956, -365771.5, -7055.627, 0.0, 10.001987, 9.996763 
2.8256e+3, 2.7338892e+2, -278891.4, -646220.7, -3298.9434, 0.14060509, -0.13390204, -278861.78, -18072.465, 0.0, 10.001906, 9.9968605 
2.8252897e+3, 2.8338295e+2, -140235.94, -424122.44, 37578.46, 0.17517212, 0.03413957, -135345.86, 27504.295, 0.0, 10.001618, 9.997914 
2.8249776e+3, 2.9337797e+2, -78289.336, -268676.44, 11079.701, 0.033091526, 0.12021828, -77646.72, -12750.311, 0.0, 10.001044, 9.998568 
2.8246644e+3, 3.0337182e+2, -53593.336, -319003.88, -69798.45, -0.085833445, 0.18126953, -36356.91, -36356.91, 0.0, 10.001007, 9.99759 
2.8243533e+3, 3.1336245e+2, 177608.97, -140421.5, -92614.47, 0.19902858, -0.15888613, 202613.53, 202613.53, 0.0, 10.00204, 9.997987 
2.8240404e+3, 3.2335716e+2, -54017.285, -512448.38, 105339.875, 0.17185663, 0.17868996, -30970.557, -30970.557, 0.0, 10.0016165, 9.995568 
2.8399435e+3, 1.337828e+2, -1702426.6, -1585253.6, -74331.86, 0.4349347, 0.031759858, -1549195.5, 79761.414, 0.00002671971, 9.999544, 10.000873 
2.8396246e+3, 1.4378399e+2, -1543360.6, -1561790.0, 5209.085, -0.20482716, 0.5193358, -1541990.1, -11049.218, 0.000008259606, 10.000393, 10.000094 
2.839317e+3, 1.5377542e+2, -1252682.5, -1261957.1, 50634.8, 0.02559941, -0.034537245, -1206473.1, 226542.05, 0.0000013335809, 10.001333, 10.000977 
2.839008e+3, 1.6376962e+2, -1304371.3, -1544486.8, -21044.596, 0.12863863, -0.1065804, -1302540.8, 32528.205, 0.000000073245815, 10.001593, 9.998266 
2.8386945e+3, 1.7376699e+2, -1266289.1, -1476953.0, -71242.85, -0.11176475, 0.21070284, -1244458.3, -7356.756, 0.0, 10.001224, 9.998223 
2.8383827e+3, 1.8376267e+2, -1099679.3, -1163901.1, -38018.496, -0.19714822, 0.37414896, -1082025.6, 57118.313, 0.0, 10.00089, 9.999867 
2.8380746e+3, 1.9375469e+2, -851565.8, -936280.3, -10773.275, -0.026524555, -0.07179884, -850217.2, 190994.6, 0.0, 10.001707, 10.000342 
2.8377655e+3, 2.0374933e+2, -920326.44, -1280885.8, 57046.92, 0.038256936, -0.0065569407, -911515.94, 31749.049, 0.0, 10.00211, 9.997122 
2.8374562e+3, 2.13747e+2, -925562.06, -1241372.8, 64563.543, -0.067450024, 0.45106536, -912872.75, -67567.484, 0.0, 10.001501, 9.996969 
2.8371468e+3, 2.2374229e+2, -708006.8, -807480.7, 20948.043, -0.036827967, 0.66535044, -703775.44, 43578.855, 0.0, 10.00106, 9.999547 
2.8368384e+3, 2.3373307e+2, -530726.9, -603284.2, 67957.75, 0.20900069, 0.12553181, -489970.5, 159455.02, 0.0, 10.001323, 10.000141 
2.8365284e+3, 2.43725e+2, -772049.4, -1225184.4, 135762.58, 0.26136187, 0.03236775, -734487.5, -182989.81, 0.0, 10.001383, 9.995194 
2.8362167e+3, 2.5371763e+2, -708221.0, -1174170.3, 31925.91, 0.07676808, 0.20508939, -706043.7, -252461.83, 0.0, 10.001308, 9.9948845 
2.8359058e+3, 2.6371032e+2, -473385.94, -734851.56, -17872.934, -0.027473073, 0.37826145, -472169.84, -116511.625, 0.0, 10.001094, 9.997286 
2.8355956e+3, 2.7370214e+2, -326854.6, -538682.06, 1381.6648, 0.012501248, 0.14424838, -326845.56, -69112.01, 0.0, 10.001139, 9.997917 
2.8352863e+3, 2.8369486e+2, -248340.89, -457772.6, 18908.764, 0.12372189, 0.117677376, -246647.39, -86846.625, 0.0, 10.000924, 9.997975 
2.834977e+3, 2.9368773e+2, -206602.45, -352277.9, -2175.58, 0.29146034, -0.0280985, -206569.97, -144703.83, 0.0, 10.000368, 9.998297 
2.8346634e+3, 3.0368203e+2, -127536.266, -274851.88, -40017.242, 0.157297, 0.07060326, -117367.75, -117367.75, 0.0, 10.000341, 9.998147 
2.8343487e+3, 3.1367704e+2, 58117.805, -143229.89, -39865.95, -0.016858911, 0.070684165, 65723.766, 65723.766, 0.0, 10.001164, 9.998326 
2.834033e+3, 3.2367036e+2, 116271.97, 69929.44, 124177.0, -0.29996505, 0.0097240815, 219421.06, 219421.06, 0.0, 10.000902, 9.999781 
2.849936e+3, 1.3410036e+2, -2071583.5, -1972354.8, 202407.53, 0.19348626, 0.33879977, -1813569.5, -187721.6, 0.0000133144695, 9.997898, 9.99904 
2.8496248e+3, 1.4409754e+2, -1385653.9, -1542481.8, 147356.4, 0.08168464, 0.58805984, -1297146.8, 230732.34, 0.0000038169696, 10.001713, 9.999593 
2.8493136e+3, 1.5409075e+2, -1283216.3, -1378696.3, 162208.1, -0.09674581, 0.2873824, -1161868.8, 268065.8, 0.0000005153316, 10.001521, 10.000107 
2.8490037e+3, 1.6408417e+2, -1304039.4, -1601985.6, 38779.984, -0.084521405, 0.21605316, -1299074.6, 32920.332, 0.00000002542409, 10.001834, 9.997742 
2.8486934e+3, 1.740779e+2, -1079059.8, -1466574.5, 43648.55, -0.017597739, 0.2459762, -1074204.3, 159858.08, 0.0, 10.002831, 9.997521 
2.8483817e+3, 1.8407202e+2, -841883.94, -1099462.8, -15969.542, -0.08080132, 0.31866136, -840897.6, 295221.97, 0.0, 10.002859, 9.9993725 
2.8480697e+3, 1.9406544e+2, -965379.2, -1076625.6, -44570.1, -0.23671257, 0.104816005, -949725.25, 88449.5, 0.0, 10.001198, 9.999648 
2.8477597e+3, 2.0406008e+2, -1122145.9, -1274474.5, -23426.404, -0.22887474, 0.15551919, -1118624.5, -178398.86, 0.0, 10.0002165, 9.998096 
2.8474528e+3, 2.140559e+2, -1056497.5, -1204334.5, 52589.957, -0.037000563, 0.35431722, -1039698.56, -197421.44, 0.0, 10.000066, 9.997957 
2.8471446e+3, 2.2405104e+2, -709596.94, -763994.94, 35145.418, 0.07763049, 0.47465262, -692355.1, 51970.336, 0.0, 10.000819, 9.999965 
2.8468347e+3, 2.3404387e+2, -291682.16, -481136.53, -13045.231, 0.07025686, 0.1613649, -290788.13, 355592.8, 0.0, 10.002838, 10.000278 
2.8465247e+3, 2.4403678e+2, -384645.53, -973946.75, -34608.86, 0.06878765, 0.1099522, -382619.94, 165826.33, 0.0, 10.0036335, 9.99588 
2.8462136e+3, 2.540295e+2, -495319.4, -1021952.94, 65944.92, 0.026790246, 0.26983595, -487187.38, -36657.105, 0.0, 10.002402, 9.99546 
2.8459027e+3, 2.6402265e+2, -367823.06, -576270.8, 139874.02, 0.013825834, 0.40971637, -297612.56, 54989.785, 0.0, 10.001244, 9.998358 
2.8455928e+3, 2.7401558e+2, -311041.72, -442250.7, 124864.72, 0.055284884, 0.26743206, -235596.06, 19068.184, 0.0, 10.000735, 9.998843 
2.8452832e+3, 2.8400806e+2, -240441.73, -449466.3, 125961.7, 0.17215882, 0.16653532, -181280.05, -24547.85, 0.0, 10.000845, 9.998109 
2.8449738e+3, 2.9399937e+2, -26866.215, -287975.72, 69020.44, 0.34291276, -0.08157385, -9744.414, 49070.5, 0.0, 10.001611, 9.998166 
2.8446603e+3, 3.0399334e+2, 151263.95, -76000.414, 28572.324, 0.19700576, -0.037253257, 154801.1, 154801.1, 0.0, 10.001834, 9.998854 
2.8443447e+3, 3.139907e+2, 132744.53, -62705.02, -6024.377, -0.095662534, 0.18727525, 132930.05, 132930.05, 0.0, 10.001345, 9.998869 
2.8440294e+3, 3.239832e+2, 227878.52, 257636.6, -83699.45, -0.34547946, -0.0363176, 327769.22, 327769.22, 0.0, 10.000814, 10.001242 
2.859929e+3, 1.34417e+2, -1877673.3, -2064051.5, 279297.44, 0.09016563, 0.56608665, -1676428.5, -53681.84, 0.0000059672334, 10.000033, 9.997383 
2.8596258e+3, 1.4441015e+2, -1328491.0, -1596009.4, 35022.93, 0.44792444, 0.53819937, -1323981.9, 200840.88, 0.0000015122073, 10.002501, 9.998825 
2.8593096e+3, 1.5440634e+2, -1375187.0, -1544648.5, 39290.895, -0.1706282, 0.6130347, -1366520.3, 60329.766, 0.0000000966577, 10.001439, 9.998991 
2.8589994e+3, 1.643993e+2, -1411702.3, -1695647.1, 37989.26, -0.24033047, 0.57151693, -1406707.5, -77792.77, 0.00000000026919006, 10.001286, 9.997375 
2.8586936e+3, 1.7438841e+2, -1218479.1, -1581833.6, 71348.72, 0.19868435, 0.15779236, -1204971.1, 26052.762, 0.0, 10.002093, 9.9970875 
2.8583822e+3, 1.8438108e+2, -1001288.4, -1303153.9, -21924.256, 0.13619407, 0.16817713, -999704.3, 133391.08, 0.0, 10.002429, 9.9981575 
2.8580642e+3, 1.9437727e+2, -1020470.0, -1272003.8, -84667.61, -0.42752117, 0.36344314, -994625.9, 40502.754, 0.0, 10.001673, 9.99805 
2.857753e+3, 2.0437162e+2, -943073.94, -1070221.4, 11361.554, -0.44321346, 0.43482098, -942066.7, -4887.006, 0.0, 10.000978, 9.999124 
2.8574502e+3, 2.1436264e+2, -989821.75, -1062497.3, 36004.137, 0.18593742, 0.012102077, -975005.5, -135741.53, 0.0, 10.000071, 9.998947 
2.857143e+3, 2.2435649e+2, -890037.44, -975415.75, 108517.65, 0.33101138, 0.00232044, -816114.25, -74792.414, 0.0, 10.000206, 9.99875 
2.856831e+3, 2.3435298e+2, -627522.4, -822491.4, 59052.773, -0.10116355, 0.15899917, -611031.2, 32323.234, 0.0, 10.001446, 9.998536 
2.85652e+3, 2.4434797e+2, -456452.28, -720524.5, -51238.25, -0.24445486, 0.30665883, -446858.97, 98544.31, 0.0, 10.002096, 9.9982395 
2.8562105e+3, 2.543401e+2, -499451.4, -737266.6, 15463.985, -0.032933548, 0.08389382, -498450.1, -50966.402, 0.0, 10.001289, 9.997862 
2.8559005e+3, 2.6433402e+2, -439698.0, -579125.1, 104978.05, 0.13334028, 0.16183943, -383394.22, -33851.438, 0.0, 10.000709, 9.998551 
2.8555906e+3, 2.7432922e+2, -434756.88, -538215.8, 99203.51, 0.2513733, 0.21380733, -374605.72, -123022.03, 0.0, 10.000093, 9.998484 
2.8552803e+3, 2.8432247e+2, -402977.0, -578133.25, 143562.06, 0.26036045, 0.24042495, -322388.56, -168741.84, 0.0, 10.000135, 9.997488 
2.8549683e+3, 2.9431233e+2, -225493.81, -481272.78, 104668.45, 0.0983326, -0.11816642, -188122.27, -132374.94, 0.0, 10.000806, 9.997173 
2.8546545e+3, 3.043053e+2, 35501.348, -118903.7, -482.98358, -0.11234056, -0.12012907, 35502.855, 35502.855, 0.0, 10.0011635, 9.998797 
2.8543407e+3, 3.1430236e+2, -116078.41, -229924.48, -16992.316, -0.17535661, 0.035199065, -113596.305, -113596.305, 0.0, 10.000019, 9.998283 
2.85403e+3, 3.2429418e+2, -73052.67, -73582.96, -31022.588, 0.07996115, -0.17145175, -42294.098, -42294.098, 0.0, 9.999782, 9.999376 
2.8699237e+3, 1.3472225e+2, -1524321.6, -1728800.9, 201454.06, -0.2433334, 0.39659876, -1400648.3, 219103.94, 0.0000021514043, 10.001704, 9.998911 
2.869622e+3, 1.4471546e+2, -1179638.5, -1434741.0, -162278.25, 0.18506476, 0.2544532, -1100783.5, 421039.7, 0.00000043033984, 10.003122, 9.999632 
2.8693068e+3, 1.547122e+2, -1410145.3, -1529252.6, -101974.414, -0.16171968, 0.33230332, -1351608.1, 72242.63, 0.000000019645139, 10.001022, 9.999318 
2.868997e+3, 1.6470763e+2, -1366659.5, -1430671.4, -77.091644, -0.13112414, 0.4103445, -1366659.5, -40767.043, 0.0, 10.00054, 9.999554 
2.8686902e+3, 1.7470135e+2, -1206034.1, -1356094.1, 139827.8, 0.120587185, 0.26608717, -1122377.9, 105574.805, 0.0, 10.001186, 9.999093 
2.8683797e+3, 1.8469499e+2, -991558.75, -1342517.5, 76423.95, 0.058757737, 0.2829388, -975639.0, 154374.67, 0.0, 10.00258, 9.997858 
2.8680643e+3, 1.9468819e+2, -679906.4, -1193646.3, 95787.195, -0.33823615, 0.26854715, -662627.9, 369450.6, 0.0, 10.004223, 9.997434 
2.8677532e+3, 2.0468129e+2, -417216.03, -820253.44, 81078.64, -0.33846515, 0.2512749, -401517.03, 532625.6, 0.0, 10.0045805, 9.9991 
2.867447e+3, 2.1467315e+2, -541936.56, -868949.75, 58748.684, 0.09133574, -0.036396287, -531702.5, 304514.66, 0.0, 10.003155, 9.998812 
2.867139e+3, 2.2466716e+2, -652349.9, -815281.56, 120422.89, 0.23431632, -0.04781817, -588425.3, 149846.98, 0.0, 10.00152, 9.999263 
2.866828e+3, 2.3466365e+2, -877816.5, -904765.8, 169296.36, 0.0068883286, 0.11125335, -721459.4, -81153.4, 0.0, 9.999403, 9.999022 
2.8665176e+3, 2.4465881e+2, -796796.0, -784121.94, 103138.3, -0.11501508, 0.2106316, -687126.2, -144772.56, 0.0, 9.999214, 9.99923 
2.866207e+3, 2.5465155e+2, -389372.2, -575621.1, 66554.71, -0.09207941, 0.0005366271, -368034.0, 76391.984, 0.0, 10.00145, 9.998935 
2.865897e+3, 2.6464576e+2, -143024.36, -413964.63, 41842.707, 0.036668085, 0.025820507, -136709.56, 209772.25, 0.0, 10.002529, 9.998846 
2.8655875e+3, 2.746412e+2, -117757.64, -383228.13, 21643.793, 0.25317806, 0.12343125, -116004.6, 132518.69, 0.0, 10.002106, 9.99862 
2.8652766e+3, 2.8463537e+2, -227327.1, -394047.34, 102152.1, 0.29197776, 0.18359357, -178838.97, -28259.434, 0.0, 10.000858, 9.99842 
2.8649637e+3, 2.946272e+2, -421632.47, -488304.5, 152913.66, 0.071115024, -0.024701884, -298463.28, -245800.84, 0.0, 9.998976, 9.998044 
2.8646496e+3, 3.046209e+2, -157435.25, -171060.81, 161033.22, -0.17627008, -0.015210129, -3070.772, -3070.772, 0.0, 9.999549, 9.999268 
2.8643367e+3, 3.1461716e+2, 301557.63, 16812.555, 119443.82, -0.24329674, 0.08353325, 345025.8, 345025.8, 0.0, 10.00253, 9.998835 
2.8640282e+3, 3.2460865e+2, 86992.984, -78666.93, -95.806755, 0.27581838, -0.121012025, 86993.04, 86993.04, 0.0, 10.001053, 9.998785 
2.8799194e+3, 1.350266e+2, -1291610.1, -1429271.4, 437670.97, -0.45597985, 0.14970855, -917390.5, 699374.25, 0.00000033823923, 10.002457, 10.000604 
2.8796178e+3, 1.4502095e+2, -1223563.3, -1371303.6, -160266.1, -0.06283312, 0.019095223, -1120962.4, 397858.5, 0.000000039050374, 10.002463, 10.00038 
2.879305e+3, 1.5501708e+2, -1326867.0, -1443024.5, -128674.49, 0.0026321851, -0.015130221, -1243771.1, 177087.92, 0.0000000006124831, 10.001397, 9.99974 
2.8789952e+3, 1.650152e+2, -1131857.3, -1060727.5, 59127.094, 0.08668377, 0.20186652, -1027293.3, 295581.75, 0.0, 10.001089, 10.001784 
2.8786862e+3, 1.7501487e+2, -1054519.8, -1050970.0, 96544.72, 0.06372521, 0.4053196, -956183.9, 268689.9, 0.0, 10.001247, 10.00114 
2.8783765e+3, 1.8500957e+2, -1105119.1, -1408331.6, 80456.24, -0.008095816, 0.4280038, -1085093.0, 41829.824, 0.0, 10.001982, 9.997643 
2.8780663e+3, 1.9499882e+2, -925637.0, -1353628.5, 96840.305, -0.04834722, 0.011494731, -904745.06, 124282.375, 0.0, 10.002828, 9.996982 
2.8777555e+3, 2.0499119e+2, -727414.56, -1061191.3, 29200.791, -0.08337853, -0.01214399, -724879.2, 206221.27, 0.0, 10.002968, 9.99819 
2.8774437e+3, 2.149858e+2, -846536.44, -1155158.9, 6010.1147, -0.0718021, 0.05959161, -846419.44, -13268.661, 0.0, 10.0018015, 9.997464 
2.877134e+3, 2.2498049e+2, -705831.3, -692647.9, 60489.996, 0.07269023, 0.1206507, -638391.5, 96807.516, 0.0, 10.000658, 10.000477 
2.876826e+3, 2.3497519e+2, -951427.56, -854239.2, 69739.17, 0.3491077, -0.03495846, -817833.7, -180588.3, 0.0, 9.99868, 9.999683 
2.876516e+3, 2.4496996e+2, -888292.0, -874865.9, 177599.33, 0.26877365, 0.019521797, -703852.75, -164557.45, 0.0, 9.998874, 9.998765 
2.876203e+3, 2.549639e+2, -628145.7, -790930.3, 150313.1, -0.1479615, -0.039316796, -538603.1, -97245.51, 0.0, 10.000354, 9.997981 
2.8758922e+3, 2.6495814e+2, -315539.66, -489370.75, 33370.14, -0.2145522, 0.036438283, -309353.75, 34062.434, 0.0, 10.00145, 9.998798 
2.875583e+3, 2.7495193e+2, -362519.8, -552737.44, 13527.587, 0.08663005, -0.047820177, -361562.63, -116084.56, 0.0, 10.000782, 9.998058 
2.8752723e+3, 2.8494757e+2, -207822.13, -171352.23, 31966.725, 0.25171232, 0.0910531, -152785.22, -5262.642, 0.0, 10.000147, 10.000263 
2.8749597e+3, 2.9494405e+2, -474582.7, -361537.6, 97204.12, 0.24004665, 0.13905837, -305617.1, -256057.31, 0.0, 9.99804, 9.999358 
2.8746465e+3, 3.0494007e+2, -251825.3, -180708.75, 262328.97, -0.0112293465, 0.2950378, 48460.902, 48460.902, 0.0, 9.998909, 9.999471 
2.8743345e+3, 3.14935e+2, 19657.867, -220928.4, 250270.38, -0.29651022, 0.24556209, 177043.86, 177043.86, 0.0, 10.001174, 9.99784 
2.8740194e+3, 3.249282e+2, -107117.05, -3555.0671, -163627.34, -0.23536298, 0.10010525, 116289.05, 116289.05, 0.0, 9.99933, 9.999977 
2.8899208e+3, 1.3533838e+2, -1442582.6, -1670395.5, 399188.38, -0.27896827, 0.19320795, -1141367.4, 472338.88, 0.0000000028010363, 10.002145, 9.999111 
2.889612e+3, 1.453343e+2, -1364342.1, -1399216.6, -85733.47, -0.3564593, 0.28132865, -1294290.6, 221461.78, 0.0, 10.001317, 10.000734 
2.8893024e+3, 1.5532951e+2, -1258985.4, -1379417.6, -18177.797, -0.014524557, 0.13497917, -1256301.4, 161491.38, 0.0, 10.001667, 10.000069 
2.8889933e+3, 1.6532595e+2, -1036878.9, -1124883.0, 89190.836, 0.15383768, 0.20991804, -981426.5, 338398.03, 0.0, 10.002152, 10.000855 
2.888684e+3, 1.7532344e+2, -975265.56, -1125126.1, 42287.68, 0.018878728, 0.30408043, -964156.3, 257692.2, 0.0, 10.002192, 10.000206 
2.8883737e+3, 1.8531805e+2, -1009146.2, -1242764.6, -53287.027, -0.044338994, 0.29600388, -997565.75, 126334.63, 0.0, 10.002025, 9.998797 
2.888064e+3, 1.9530956e+2, -1099049.9, -1312444.9, 21637.701, -0.04048961, 0.016843546, -1096877.9, -70895.234, 0.0, 10.000978, 9.998203 
2.887753e+3, 2.0530373e+2, -995485.4, -1081728.0, -12552.383, -0.033884138, 0.04604657, -993695.5, -65657.49, 0.0, 10.000571, 9.999228 
2.8874403e+3, 2.1529977e+2, -918158.5, -1063005.4, 74870.98, -0.07733109, 0.18064694, -886414.7, -56340.535, 0.0, 10.000635, 9.998693 
2.88713e+3, 2.2529402e+2, -668820.56, -773167.7, 101960.8, 0.030475082, 0.17860557, -606459.94, 125666.95, 0.0, 10.001216, 9.9997 
2.8868216e+3, 2.3528664e+2, -491948.28, -691469.9, 38535.258, 0.2558092, -0.08200973, -484764.3, 149430.27, 0.0, 10.00191, 9.999302 
2.886511e+3, 2.4528123e+2, -427011.53, -564218.3, 132052.72, 0.2235101, -0.08538074, -346805.16, 189438.7, 0.0, 10.001561, 9.999652 
2.8861994e+3, 2.5527674e+2, -570653.3, -659039.94, 171328.47, -0.11200683, -0.035794284, -437910.22, 375.75406, 0.0, 10.00013, 9.999066 
2.8858885e+3, 2.6527163e+2, -621584.7, -598199.9, 78785.0, -0.15452413, 0.034306854, -530244.4, -189906.42, 0.0, 9.999131, 9.999177 
2.8855783e+3, 2.7526557e+2, -605645.94, -618006.1, 73665.97, 0.06694169, -0.0261654, -537901.3, -295498.44, 0.0, 9.998784, 9.998598 
2.885267e+3, 2.8526112e+2, -375732.9, -264629.6, 30059.715, 0.2325524, 0.0788106, -257018.19, -112567.25, 0.0, 9.998877, 10.000285 
2.8849548e+3, 2.9525813e+2, -273367.38, -226749.44, -35117.21, 0.32904136, 0.19445975, -207909.55, -161425.14, 0.0, 9.999103, 9.999815 
2.8846425e+3, 3.0525437e+2, -74971.5, -62844.934, 197507.05, 0.108475976, 0.31189135, 128691.875, 128691.875, 0.0, 9.999899, 9.999871 
2.884332e+3, 3.1524923e+2, 44551.96, -131448.61, 183050.48, -0.22704618, 0.26613835, 159656.39, 159656.39, 0.0, 10.000876, 9.998697 
2.8840157e+3, 3.2524645e+2, 570032.56, 343973.03, -481536.53, -0.2851981, 0.5347323, 951627.06, 951627.06, 0.0, 10.003615, 10.000524 
2.8999218e+3, 1.356507e+2, -1435348.9, -1908472.1, 243655.81, 0.014643718, 0.21583873, -1332308.4, 278336.25, 0.00000000011876347, 10.003191, 9.997014 
2.8996068e+3, 1.4564855e+2, -1303069.3, -1327810.9, -70890.96, -0.5412439, 0.5756687, -1243477.8, 269198.25, 0.0, 10.001576, 10.00111 
2.8993002e+3, 1.5564275e+2, -1215591.9, -1338407.5, -9795.047, 0.038820315, 0.28586462, -1214815.6, 199901.95, 0.0, 10.001912, 10.000229 
2.8989923e+3, 1.6563703e+2, -1184268.5, -1375551.8, 116168.0, 0.26432368, 0.22481474, -1129436.4, 187333.81, 0.0, 10.002016, 9.999154 
2.898682e+3, 1.7563082e+2, -1264917.9, -1464954.3, 78990.555, 0.115207896, 0.114967756, -1237487.4, -18650.936, 0.0, 10.001123, 9.998379 
2.8983712e+3, 1.8562572e+2, -1054204.8, -1113424.0, -15018.6875, -0.0039714104, 0.15444224, -1050613.6, 70274.72, 0.0, 10.001092, 10.000103 
2.8980604e+3, 1.9562107e+2, -1066031.5, -1158066.6, 21435.771, -0.009450401, 0.10924113, -1061283.9, -38351.32, 0.0, 10.000668, 9.999363 
2.897749e+3, 2.0561747e+2, -878507.2, -853550.3, 10113.976, 0.010984018, 0.22127445, -849966.25, 74999.16, 0.0, 10.000703, 10.000678 
2.8974378e+3, 2.156142e+2, -919945.94, -943520.5, 44705.043, 0.085412174, 0.2566721, -885500.3, -58506.37, 0.0, 10.000198, 9.999686 
2.8971267e+3, 2.2560771e+2, -850111.56, -1034610.8, 110912.62, 0.05438308, 0.20874922, -798098.94, -69043.54, 0.0, 10.000864, 9.998001 
2.8968155e+3, 2.3559831e+2, -781655.6, -1050157.5, 49552.992, -0.03003944, -0.10278065, -772802.4, -141656.03, 0.0, 10.000975, 9.997253 
2.8965056e+3, 2.4559294e+2, -439646.0, -390004.38, 79170.93, -0.022338454, -0.09093312, -331854.66, 201337.8, 0.0, 10.000856, 10.001085 
2.896196e+3, 2.5559005e+2, -705518.3, -612467.1, 98538.08, 0.037921533, -0.056944653, -550023.06, -114812.53, 0.0, 9.998886, 9.9999075 
2.895885e+3, 2.6558614e+2, -694138.94, -591871.25, 65142.242, 0.08175367, 0.07462556, -560190.94, -222941.77, 0.0, 9.998561, 9.999442 
2.8955734e+3, 2.7558112e+2, -749412.56, -718611.5, 63731.664, 0.13335454, 0.060902525, -668446.0, -429138.34, 0.0, 9.998028, 9.998254 
2.8952608e+3, 2.8557533e+2, -567971.44, -518279.2, 21761.916, 0.16303192, 0.12407394, -510096.34, -368724.2, 0.0, 9.998408, 9.99872 
2.894948e+3, 2.9556867e+2, -561075.9, -593496.7, -8220.907, 0.1902871, 0.022061199, -559110.44, -515665.88, 0.0, 9.998256, 9.997661 
2.8946352e+3, 3.0556512e+2, 33282.734, 109282.39, 235093.94, -0.1469152, 0.1981525, 309427.78, 309427.78, 0.0, 10.000345, 10.000645 
2.8943238e+3, 3.1556436e+2, -65870.44, -330301.16, 253875.56, -0.73875374, 0.51272845, 88154.836, 88154.836, 0.0, 10.000972, 9.997153 
2.8940198e+3, 3.2555524e+2, -53463.43, -240525.89, -347690.53, 0.14720589, 0.24320604, 213056.42, 213056.42, 0.0, 10.001028, 9.9973955 
2.9099235e+3, 1.3596044e+2, -1427884.8, -1961894.4, -96133.12, 0.17974299, 0.169746, -1411105.9, 196506.6, 0.0000000000007792345, 10.003457, 9.996549 
2.9096037e+3, 1.459604e+2, -1235719.9, -1175132.4, -61859.016, -0.5713433, 0.6954269, -1136547.6, 373071.4, 0.0, 10.001486, 10.002224 
2.909296e+3, 1.5595093e+2, -1086012.0, -1183471.1, 31365.559, -0.20123371, -0.05871629, -1076790.1, 334896.3, 0.0, 10.002359, 10.001101 
2.9089883e+3, 1.6594543e+2, -1208527.5, -1400042.0, 80333.59, 0.108436465, -0.1379256, -1179293.0, 134444.28, 0.0, 10.001887, 9.999046 
2.9086792e+3, 1.7594199e+2, -1445381.8, -1553359.8, 119207.3, 0.18155694, 0.0573894, -1368507.5, -152724.89, 0.0, 9.999814, 9.9984255 
2.908369e+3, 1.8593848e+2, -1098615.0, -1030765.7, 116302.445, 0.140117, 0.20375577, -943541.06, 174279.08, 0.0, 10.000263, 10.001101 
2.9080582e+3, 1.9593509e+2, -841046.56, -948285.2, 158805.77, 0.031946104, 0.20808846, -727052.3, 292798.63, 0.0, 10.001676, 10.00035 
2.9077467e+3, 2.0593062e+2, -681188.4, -921902.4, 21719.63, 0.03171898, 0.26662853, -679244.3, 242651.42, 0.0, 10.002638, 9.999321 
2.9074347e+3, 2.1592525e+2, -611621.8, -898598.44, -45170.117, 0.04242207, 0.23906796, -604679.94, 219271.0, 0.0, 10.002636, 9.998855 
2.9071236e+3, 2.2591938e+2, -555955.25, -843061.75, 4641.373, -0.01649664, 0.2560553, -555880.2, 170128.45, 0.0, 10.002589, 9.998529 
2.9068118e+3, 2.3591238e+2, -511103.25, -836201.06, 54554.484, -0.174174, 0.16004014, -502192.72, 125883.5, 0.0, 10.002315, 9.998134 
2.906502e+3, 2.4590659e+2, -318620.28, -333831.78, 22870.828, -0.074877925, 0.08276504, -302123.72, 228000.83, 0.0, 10.001555, 10.001178 
2.906193e+3, 2.559018e+2, -429729.88, -417869.16, -30020.365, 0.17909597, -0.067450844, -393199.0, 38958.9, 0.0, 10.000334, 10.000586 
2.905881e+3, 2.6589787e+2, -473439.88, -415076.44, -32378.574, 0.21395509, -0.024911994, -400669.8, -66474.49, 0.0, 9.999564, 10.00027 
2.9055667e+3, 2.7589428e+2, -517886.47, -477156.78, -9546.398, 0.081109904, 0.03944887, -475030.28, -238791.86, 0.0, 9.99889, 9.999551 
2.9052538e+3, 2.8588998e+2, -438413.34, -398584.72, 85030.66, 0.06992662, 0.15428683, -331167.53, -192880.3, 0.0, 9.998993, 9.999278 
2.904942e+3, 2.9588398e+2, -411136.25, -358991.5, 141989.23, 0.20535775, 0.103282556, -240700.75, -200348.94, 0.0, 9.998384, 9.99924 
2.9199243e+3, 1.3627109e+2, -1463501.4, -1966113.9, -225971.13, 0.3511645, 0.18086728, -1376846.4, 227725.19, 0.0, 10.003193, 9.996604 
2.919602e+3, 1.4627202e+2, -1122255.5, -1031324.6, 49500.965, -0.43278953, 0.7431106, -1009578.06, 496984.66, 0.0, 10.001902, 10.002981 
2.919292e+3, 1.5625899e+2, -1137086.1, -1147445.9, 53640.59, -0.3494754, -0.43578166, -1088375.9, 320281.38, 0.0, 10.001756, 10.001636 
2.918984e+3, 1.6625409e+2, -1256306.8, -1416615.8, 8981.042, -0.024913222, -0.484369, -1255805.1, 54897.445, 0.0, 10.001495, 9.999154 
2.918676e+3, 1.76254e+2, -1408942.8, -1514994.5, 47102.38, 0.35191837, 0.031215545, -1391043.5, -178323.94, 0.0, 10.0000105, 9.998609 
2.9183665e+3, 1.8625244e+2, -1059395.8, -909429.56, 156763.56, 0.34139213, 0.29749432, -810639.0, 304099.56, 0.0, 10.000215, 10.001892 
2.9180565e+3, 1.9624943e+2, -1024277.94, -1048747.0, 152535.1, 0.19155726, 0.25198734, -883487.5, 133276.61, 0.0, 10.000509, 10.000224 
2.9177448e+3, 2.0624322e+2, -994487.7, -1326757.8, 24507.275, 0.07796345, 0.26780364, -992689.8, -73859.4, 0.0, 10.001681, 9.996973 
2.9174322e+3, 2.1623486e+2, -933301.7, -1313394.6, -13379.199, -0.012606155, 0.16372332, -932831.3, -111907.77, 0.0, 10.001639, 9.996485 
2.9171205e+3, 2.262303e+2, -555744.7, -684691.56, 37577.754, -0.098839685, 0.3342286, -545593.0, 177378.17, 0.0, 10.001992, 9.999865 
2.916809e+3, 2.3622763e+2, -643642.94, -805778.3, 48163.594, -0.17842887, 0.518155, -630414.8, -5419.9497, 0.0, 10.001128, 9.998877 
2.9164994e+3, 2.462211e+2, -494146.84, -495297.22, -7382.85, -0.0077483715, 0.36299238, -487316.8, 39733.086, 0.0, 10.000813, 10.000368 
2.91619e+3, 2.5621215e+2, -679746.94, -640659.1, -57944.3, 0.32503626, -0.14833441, -599051.5, -169927.13, 0.0, 9.999183, 9.999584 
2.9158762e+3, 2.6620784e+2, -479772.78, -240647.44, -43523.94, 0.25116143, -0.18777852, -232971.88, 98191.45, 0.0, 9.998961, 10.001643 
2.9155588e+3, 2.762061e+2, -605206.44, -394638.2, -625.6606, -0.116267405, -0.106200285, -394636.34, -161452.28, 0.0, 9.997894, 10.000554 
2.9152462e+3, 2.8620586e+2, -367575.2, -126347.64, 110578.445, -0.12907052, 0.24523342, -83329.89, 51858.23, 0.0, 9.998584, 10.001275 
2.9149383e+3, 2.9620242e+2, -369276.1, 78040.914, -42740.35, 0.43870753, 0.15220375, 82088.06, 119310.25, 0.0, 9.997045, 10.0028515 
2.9299176e+3, 1.3658476e+2, -1464903.6, -1740603.0, -255087.86, -0.22821361, 0.19724193, -1312801.0, 288694.25, 0.0, 10.002213, 9.998632 
2.9296058e+3, 1.4658299e+2, -1208416.4, -1236376.8, 74593.42, 0.1402729, 0.48292342, -1146504.4, 357008.06, 0.0, 10.001951, 10.001579 
2.9292896e+3, 1.5657455e+2, -1357452.9, -1394436.0, 43059.887, -0.32364303, -0.08340344, -1329081.9, 76490.2, 0.0, 10.00078, 10.00044 
2.9289794e+3, 1.6656941e+2, -1297748.8, -1399984.6, -9419.657, -0.15554407, -0.12684894, -1296888.1, 10731.497, 0.0, 10.001021, 9.999514 
2.928671e+3, 1.7656618e+2, -1197185.9, -1364057.3, 49132.137, 0.14943984, 0.049499925, -1183794.5, 25865.652, 0.0, 10.00118, 9.999109 
2.9283607e+3, 1.8656252e+2, -1023696.1, -982836.9, 78473.31, 0.12505345, 0.12726861, -922177.44, 189519.86, 0.0, 10.000811, 10.0011215 
2.9280502e+3, 1.965583e+2, -1183255.6, -1138577.9, 41429.78, -0.062182706, 0.048136976, -1113848.1, -100112.555, 0.0, 9.999404, 10.0001545 
2.9277396e+3, 2.0655362e+2, -1024216.4, -1132175.4, 45637.844, -0.10921326, 0.10296545, -1007509.25, -91724.86, 0.0, 10.000536, 9.998886 
2.9274285e+3, 2.1654819e+2, -696597.44, -1016355.94, 179846.64, -0.1609452, 0.13652311, -615839.7, 202004.69, 0.0, 10.00232, 9.998257 
2.9271185e+3, 2.2654338e+2, -439532.4, -691842.0, 185880.95, -0.090378426, 0.25191644, -341039.13, 378855.0, 0.0, 10.002874, 9.999493 
2.9268083e+3, 2.3653919e+2, -417995.28, -671448.7, 124096.8, -0.016850527, 0.35041687, -367353.22, 254581.81, 0.0, 10.002364, 9.999285 
2.926497e+3, 2.465337e+2, -353582.72, -404631.4, 38065.383, 0.070106484, 0.26619667, -333276.22, 190708.39, 0.0, 10.001537, 10.000724 
2.926184e+3, 2.5652683e+2, -425982.8, -435938.8, 41332.105, 0.17960617, -0.028929776, -389330.03, 36715.207, 0.0, 10.000387, 10.000483 
2.9258704e+3, 2.6652297e+2, -304850.0, -80720.98, 80276.79, 0.19374697, -0.09698837, -54934.78, 273144.34, 0.0, 9.999707, 10.002431 
2.925555e+3, 2.7652082e+2, -258313.6, -99283.42, 72206.11, 0.060208887, -0.110977724, -71391.01, 158707.94, 0.0, 9.999513, 10.001869 
2.92524e+3, 2.865209e+2, -313350.94, -75821.164, 101329.266, -0.14079645, 0.20211096, -38468.406, 93628.69, 0.0, 9.998628, 10.001728 
2.924931e+3, 2.9651594e+2, -92822.33, 351832.6, -196559.89, 0.4378236, -0.062822655, 426263.1, 460406.53, 0.0, 9.998026, 10.004359 
2.9399124e+3, 1.3689838e+2, -1499689.0, -1617068.6, -149992.23, -0.47097653, 0.11598242, -1397313.0, 201104.3, 0.0, 10.0013, 9.999953 
2.9396087e+3, 1.4689471e+2, -1242922.3, -1419235.9, 111481.72, 0.7116817, 0.24220605, -1188953.0, 311501.97, 0.0, 10.0024805, 10.000056 
2.9392877e+3, 1.5689175e+2, -1356839.4, -1539546.9, 87280.8, -0.15326221, 0.37852615, -1321846.6, 80626.96, 0.0, 10.001477, 9.999094 
2.9389757e+3, 1.66886e+2, -1209532.5, -1317396.0, 83698.02, -0.20177013, 0.32051143, -1163895.1, 140631.2, 0.0, 10.001539, 9.999789 
2.938666e+3, 1.7687854e+2, -1207918.3, -1387682.8, 98248.47, 0.009893633, 0.045522425, -1164640.5, 41958.984, 0.0, 10.001252, 9.99887 
2.9383543e+3, 1.8687205e+2, -1102975.0, -1171733.9, 93029.03, -0.124620475, -0.075536735, -1038176.1, 70486.42, 0.0, 10.00096, 9.999734 
2.9380426e+3, 1.9686596e+2, -1238734.0, -1246146.1, 70218.48, -0.29702726, -0.2115752, -1172123.9, -161402.84, 0.0, 9.999468, 9.999363 
2.9377335e+3, 2.0686378e+2, -809390.9, -661362.25, 135693.52, -0.30613935, -0.082742564, -580809.94, 331929.78, 0.0, 10.000527, 10.002066 
2.9374254e+3, 2.1686304e+2, -750709.44, -836880.8, 185228.94, -0.2190378, 0.11039964, -603621.1, 211122.6, 0.0, 10.001153, 10.000039 
2.9371175e+3, 2.268572e+2, -678274.56, -921394.8, 153637.58, 0.010939104, 0.0966497, -603923.06, 112879.03, 0.0, 10.001882, 9.998295 
2.9368088e+3, 2.368488e+2, -758534.8, -970940.8, 109635.18, 0.30075827, -0.13189219, -712097.9, -93210.66, 0.0, 10.000767, 9.997933 
2.936494e+3, 2.468456e+2, -473759.0, -358179.13, 12381.165, 0.14617662, 0.006783491, -356867.72, 164053.95, 0.0, 10.000449, 10.0014715 
2.936176e+3, 2.568448e+2, -641718.44, -489842.4, 20734.977, -0.16203119, 0.22133604, -487062.44, -64130.465, 0.0, 9.998883, 10.000791 
2.9358646e+3, 2.668417e+2, -384482.72, -93710.96, 80409.984, 0.096903004, 0.19483493, -72955.88, 252002.2, 0.0, 9.999129, 10.002615 
2.935555e+3, 2.7683738e+2, -474089.13, -240293.14, 69605.02, 0.5521653, -0.06319891, -221139.67, 5853.906, 0.0, 9.998345, 10.001436 
2.935234e+3, 2.8683427e+2, -468780.97, -248653.17, 47165.875, -0.11097742, -0.004620545, -238972.84, -109950.96, 0.0, 9.998174, 10.000678 
2.9349193e+3, 2.9682893e+2, -330340.0, 108358.28, 249478.44, -0.13240182, -0.1926416, 221204.17, 252277.61, 0.0, 9.997273, 10.002946 
2.9499125e+3, 1.3721463e+2, -1779851.8, -1912528.4, 83039.81, -0.12232963, 0.08256932, -1739905.6, -144596.1, 0.0, 10.000045, 9.998561 
2.9496017e+3, 1.4721048e+2, -1159862.0, -1370356.9, 119359.914, 0.15171094, 0.19766095, -1105974.9, 391379.16, 0.0, 10.003018, 10.000142 
2.9492855e+3, 1.5720469e+2, -1265003.8, -1509336.3, 164952.95, -0.17515244, 0.06642652, -1181904.1, 217496.64, 0.0, 10.002116, 9.999024 
2.948975e+3, 1.6719931e+2, -1155374.8, -1373203.6, 169216.13, -0.014358775, 0.09940318, -1063051.9, 238399.94, 0.0, 10.002198, 9.99912 
2.9486653e+3, 1.7719388e+2, -1118468.9, -1384833.4, 161808.73, 0.12250888, 0.112845436, -1042081.1, 161425.94, 0.0, 10.001958, 9.998571 
2.9483527e+3, 1.871881e+2, -954839.6, -1136503.0, 159103.83, -0.010664302, 0.09052508, -862465.4, 243099.9, 0.0, 10.002037, 9.999486 
2.94804e+3, 1.9718215e+2, -934746.4, -1125081.9, 199489.03, -0.23703851, 0.016425774, -808887.5, 198737.25, 0.0, 10.001545, 9.999223 
2.9477313e+3, 2.071781e+2, -660670.94, -692171.2, 192741.6, -0.2380952, 0.031189378, -483037.03, 426623.5, 0.0, 10.001851, 10.001285 
2.9474232e+3, 2.171749e+2, -617125.3, -758770.56, 65964.65, -0.19668026, 0.059602298, -591163.75, 220522.38, 0.0, 10.001856, 10.000277 
2.9471138e+3, 2.2716942e+2, -681718.94, -746533.06, 15664.828, -0.027246479, -0.031804092, -678131.44, 35605.2, 0.0, 10.00103, 9.999939 
2.9468036e+3, 2.3716271e+2, -773261.8, -772097.3, 83220.0, 0.16684678, -0.23900574, -689457.5, -73656.2, 0.0, 9.999649, 9.999864 
2.946488e+3, 2.4716058e+2, -666293.06, -420163.88, 43514.52, 0.05814663, -0.086155064, -412697.22, 105129.72, 0.0, 9.998818, 10.001925 
2.9461703e+3, 2.5716048e+2, -621635.5, -394521.63, 48219.35, -0.17903812, 0.17917731, -384708.06, 35126.957, 0.0, 9.998449, 10.001728 
2.9458585e+3, 2.671584e+2, -384313.22, -101578.72, 119568.984, 0.0920301, 0.21355557, -57793.49, 264059.84, 0.0, 9.999027, 10.00268 
2.9455492e+3, 2.77155e+2, -244859.17, -143332.83, 79783.83, 0.5161517, 0.078118764, -99531.95, 124347.914, 0.0, 9.999816, 10.001445 
2.945231e+3, 2.8714773e+2, -242710.44, -343309.78, 14728.682, 0.10804866, -0.17635798, -240598.38, -114647.64, 0.0, 10.000392, 9.999067 
2.9449168e+3, 2.9714388e+2, -24276.004, 103630.31, 312901.5, 0.11564941, -0.013584274, 359047.4, 387037.56, 0.0, 9.999681, 10.001851 
2.9599118e+3, 1.3753039e+2, -1905115.4, -2095514.8, 197669.42, 0.24389048, 0.067229874, -1780915.4, -188706.02, 0.0, 9.999757, 9.997445 
2.959594e+3, 1.4752573e+2, -1289925.8, -1387255.5, 21289.984, -0.39964828, 0.14378989, -1285472.5, 208786.38, 0.0, 10.001975, 10.000528 
2.959284e+3, 1.5751635e+2, -1249126.6, -1511263.9, 60904.805, -0.076739654, -0.37335122, -1235667.1, 160671.66, 0.0, 10.002265, 9.998948 
2.958975e+3, 1.6751184e+2, -1148569.4, -1466043.4, 109404.86, 0.24301186, -0.2125633, -1114519.3, 183863.98, 0.0, 10.002641, 9.998278 
2.9586652e+3, 1.7750925e+2, -1145823.5, -1473443.5, 138981.73, 0.40931273, 0.15710023, -1094808.9, 105605.26, 0.0, 10.00213, 9.997884 
2.9583526e+3, 1.8750533e+2, -953140.6, -1114485.5, 120185.72, 0.2316552, 0.31977016, -889062.75, 213393.98, 0.0, 10.002066, 9.999569 
2.9580396e+3, 1.9750041e+2, -1129195.0, -1328732.4, 162340.11, 0.056866147, 0.35138693, -1038416.9, -33908.223, 0.0, 10.000777, 9.998179 
2.9577306e+3, 2.0749336e+2, -907515.75, -1045595.0, 217250.72, -0.016162809, 0.22800963, -748598.5, 157976.38, 0.0, 10.001307, 9.999053 
2.9574215e+3, 2.174854e+2, -891712.25, -1042139.5, 112700.26, -0.04853436, -0.018063582, -831432.56, -22785.291, 0.0, 10.000785, 9.998793 
2.9571092e+3, 2.274811e+2, -602885.25, -396445.3, 4138.1855, -0.111131325, -0.114877835, -396362.38, 314319.25, 0.0, 10.000316, 10.002644 
2.956795e+3, 2.3747866e+2, -888088.1, -618467.56, 30642.043, -0.1345857, -0.17345989, -615029.0, -2331.5305, 0.0, 9.998073, 10.001671 
2.9564804e+3, 2.4747676e+2, -725657.6, -397484.5, 13357.113, -0.071172826, -0.10995965, -396941.72, 117778.17, 0.0, 9.998289, 10.002289 
2.956166e+3, 2.5747475e+2, -806818.3, -514784.88, 49045.64, 0.050661903, -0.07474325, -506767.97, -90020.04, 0.0, 9.997457, 10.001336 
2.9558524e+3, 2.6747406e+2, -489592.66, -180580.47, 146472.97, 0.062618256, 0.11376056, -122186.43, 196569.64, 0.0, 9.998541, 10.002296 
2.955539e+3, 2.774734e+2, -532354.3, -448781.06, 92918.93, -0.025930785, 0.29526374, -388685.16, -167924.48, 0.0, 9.998726, 9.999824 
2.9552308e+3, 2.8746146e+2, -455383.44, -656383.5, 21688.703, 0.5291621, -0.27146316, -453069.78, -330188.28, 0.0, 10.000013, 9.997004 
2.9549146e+3, 2.9745638e+2, -404983.9, -314314.53, -80683.66, 0.35355082, -0.06374121, -267101.47, -242163.72, 0.0, 9.998271, 9.999613 
2.969905e+3, 1.378435e+2, -1855399.8, -1821265.0, -16791.453, -0.0029860295, 0.29613373, -1814389.8, -225238.19, 0.0, 9.999023, 9.999672 
2.9695925e+3, 1.4783773e+2, -1493772.6, -1483989.1, -6497.034, -0.1981265, 0.15875538, -1480748.1, 10458.501, 0.0, 10.000543, 10.000555 
2.969281e+3, 1.5783186e+2, -1121525.8, -1416849.0, -8252.355, -0.25914797, -0.01031861, -1121295.4, 271960.44, 0.0, 10.002958, 9.999272 
2.9689717e+3, 1.678262e+2, -917104.56, -1271651.0, 23343.172, -0.0075220014, -0.04281057, -915574.25, 379733.78, 0.0, 10.003828, 9.999065 
2.968662e+3, 1.7782062e+2, -877250.25, -1296421.3, 66434.51, 0.14215487, -0.034338318, -866973.0, 330389.3, 0.0, 10.0037, 9.998356 
2.9683498e+3, 1.8781607e+2, -847596.2, -1132251.6, -5999.717, 0.13510385, 0.08286193, -847469.75, 251941.27, 0.0, 10.002987, 9.999052 
2.968037e+3, 1.978115e+2, -1009814.25, -1217717.4, 36190.73, 0.07265936, 0.1892792, -1003694.5, -2233.383, 0.0, 10.001229, 9.998766 
2.9677272e+3, 2.0780605e+2, -808171.06, -830715.2, 238563.92, -0.029675119, 0.11093968, -580613.06, 322897.97, 0.0, 10.001229, 10.00059 
2.9674175e+3, 2.1780026e+2, -677520.8, -779494.5, 249072.7, -0.17938204, -0.046186924, -474269.84, 331291.22, 0.0, 10.001447, 10.000317 
2.9671046e+3, 2.2779623e+2, -617110.5, -460087.72, 41974.31, -0.12469869, -0.12426845, -449571.7, 258022.89, 0.0, 10.000288, 10.002312 
2.96679e+3, 2.3779319e+2, -790630.7, -542605.8, -42269.656, -0.05822516, -0.19718581, -535599.94, 74018.71, 0.0, 9.998443, 10.002058 
2.9664746e+3, 2.4779144e+2, -641819.0, -331389.25, -43682.043, -0.043168098, -0.15030059, -325359.66, 186276.72, 0.0, 9.99862, 10.002629 
2.9661596e+3, 2.5779e+2, -450903.7, -291194.72, -32018.156, -0.015055045, -0.07940823, -285014.9, 128638.83, 0.0, 9.999496, 10.001915 
2.9658473e+3, 2.6778895e+2, -304906.56, -162134.48, 61898.84, 0.037920684, 0.085567586, -139035.42, 176630.9, 0.0, 9.999926, 10.001847 
2.965534e+3, 2.777876e+2, -295128.66, -315795.44, 22289.473, -0.014002051, 0.2617385, -280893.78, -63213.254, 0.0, 10.000051, 10.000175 
2.9652268e+3, 2.8777787e+2, -129156.79, -379604.03, 121584.97, 0.5318117, -0.15912431, -79841.414, 39938.285, 0.0, 10.001626, 9.998218 
2.9649058e+3, 2.9777622e+2, 301431.03, -568.07043, -93975.59, -0.15771784, 0.3634335, 328286.13, 350087.72, 0.0, 10.003107, 9.999493 
2.9798993e+3, 1.3815574e+2, -1543169.0, -1420814.4, 18692.578, -0.12297609, 0.45864514, -1418022.4, 168078.63, 0.0, 10.00007, 10.00194 
2.9795927e+3, 1.4815e+2, -1368930.6, -1420890.9, 117888.47, 0.19683866, 0.25935712, -1274193.5, 213958.58, 0.0, 10.001402, 10.000587 
2.9792783e+3, 1.5814848e+2, -1505556.1, -1567094.4, 92414.086, -0.2942863, 0.50454646, -1438923.5, -48759.28, 0.0, 10.000204, 9.9996 
2.978968e+3, 1.6814145e+2, -1168585.9, -1253033.5, 82714.36, -0.24929625, 0.24779958, -1117941.4, 174284.34, 0.0, 10.001584, 10.000272 
2.9786584e+3, 1.781321e+2, -1069301.3, -1390818.9, 122399.82, -0.10730457, -0.20770437, -1028007.9, 166301.72, 0.0, 10.002438, 9.998345 
2.9783466e+3, 1.8812598e+2, -978123.25, -1278800.5, 4796.6416, 0.019446092, -0.18650949, -978046.75, 118326.125, 0.0, 10.002509, 9.998283 
2.9780343e+3, 1.9812146e+2, -1033519.3, -1178583.6, 70381.46, 0.13794114, -0.033208415, -1004984.8, -6561.3486, 0.0, 10.000925, 9.99918 
2.9777232e+3, 2.081185e+2, -676615.06, -500889.9, 260437.69, -0.08075712, -0.05369998, -313893.2, 586554.6, 0.0, 10.000938, 10.003028 
2.977413e+3, 2.1811692e+2, -857142.5, -742319.9, 190680.31, -0.27029544, -0.036168195, -600595.44, 201860.02, 0.0, 9.999763, 10.001391 
2.977101e+3, 2.2811316e+2, -864014.2, -736427.9, -51364.293, -0.020876953, -0.054803792, -718319.5, -13827.736, 0.0, 9.999425, 10.000777 
2.9767868e+3, 2.3810764e+2, -1070910.8, -852830.94, -67953.875, 0.29469672, -0.20761286, -833389.6, -226842.81, 0.0, 9.99742, 10.000403 
2.9764694e+3, 2.4810585e+2, -689480.3, -313598.75, 4226.6133, 0.050236262, -0.13869245, -313551.22, 195008.77, 0.0, 9.9983015, 10.002853 
2.976152e+3, 2.5810575e+2, -666899.44, -491986.84, 23120.34, -0.2600469, 0.07762635, -488982.38, -78426.42, 0.0, 9.998585, 10.000964 
2.9758427e+3, 2.681025e+2, -393525.1, -242310.27, 65556.75, 0.06728321, 0.074684024, -217846.86, 94742.234, 0.0, 9.999642, 10.001382 
2.975534e+3, 2.7809834e+2, -472761.97, -374523.1, 44529.008, 0.42363778, -0.015301425, -357343.56, -142710.48, 0.0, 9.998907, 10.0003 
2.9752186e+3, 2.8809717e+2, -4788.81, 95526.266, 179017.38, -0.014355416, 0.16664383, 231280.0, 347923.22, 0.0, 10.000876, 10.001796 
2.9749054e+3, 2.9809722e+2, 169967.27, 57938.805, 12106.14, -0.059003204, 0.5243793, 171260.56, 189901.05, 0.0, 10.0020075, 10.000344 
2.9898936e+3, 1.3846403e+2, -1481684.1, -1348356.0, 515694.94, -0.46744338, -0.06697768, -895034.1, 688036.25, 0.0, 10.0003605, 10.002345 
2.989594e+3, 1.4846121e+2, -1388510.8, -1410120.5, -7035.448, 0.55890346, 0.006431793, -1386422.0, 98670.11, 0.0, 10.0012455, 10.000764 
2.9892784e+3, 1.5846053e+2, -2131671.8, -1840025.0, 92688.984, 0.35172218, 0.34214136, -1813060.3, -425958.22, 0.0, 9.995767, 9.999883 
2.9889667e+3, 1.6845694e+2, -1655762.3, -1350308.4, 241399.98, 0.15440181, 0.35251474, -1217379.1, 71753.336, 0.0, 9.997635, 10.001526 
2.9886553e+3, 1.7845239e+2, -1193477.0, -1279240.6, 250418.5, -0.22251733, 0.25954208, -982295.3, 208875.05, 0.0, 10.000827, 9.999891 
2.9883426e+3, 1.8844625e+2, -962223.9, -1198455.3, 138469.61, -0.20296603, 0.20396228, -898336.44, 194894.44, 0.0, 10.002305, 9.998953 
2.988031e+3, 1.984405e+2, -923780.2, -1134952.0, 202507.42, 0.01582505, 0.22546102, -800985.6, 194304.2, 0.0, 10.001661, 9.999133 
2.9877207e+3, 2.084383e+2, -809635.0, -744548.8, 249089.66, -0.0056922813, 0.41153738, -525885.4, 371425.5, 0.0, 10.000744, 10.001483 
2.9874092e+3, 2.1843565e+2, -893102.5, -801088.06, 20792.938, -0.22168379, 0.47786582, -796607.56, 2727.6536, 0.0, 9.999547, 10.001128 
2.987095e+3, 2.2843061e+2, -673397.6, -521627.84, -140516.48, -0.10705773, 0.27190256, -437814.88, 263569.72, 0.0, 10.000073, 10.002011 
2.9867807e+3, 2.3842667e+2, -421737.0, -359810.66, -34622.59, 0.13198966, 0.14848338, -344325.56, 259098.1, 0.0, 10.000978, 10.002117 
2.9864633e+3, 2.4842322e+2, -110573.56, 19041.572, 121203.44, -0.12796773, -0.013904171, 91675.97, 597124.7, 0.0, 10.001984, 10.00343 
2.9861462e+3, 2.584187e+2, 6349.5957, -144596.95, 173922.0, -0.5091074, -0.2520518, 120468.195, 527950.8, 0.0, 10.002943, 10.001334 
2.9858392e+3, 2.6841387e+2, -56013.29, -267383.03, 123439.29, 0.03390102, -0.26954845, 802.7577, 310336.7, 0.0, 10.002708, 9.999837 
2.9855317e+3, 2.7840975e+2, -54753.992, -163005.45, 28515.555, 0.6064836, -0.19220239, -47701.855, 163879.22, 0.0, 10.001589, 10.000567 
2.9852125e+3, 2.884032e+2, 120967.6, 316933.16, 86718.92, -0.1999422, -0.65222925, 349796.84, 463437.0, 0.0, 10.000885, 10.003511 
2.9849073e+3, 2.9840273e+2, 108408.06, -18266.201, -67200.6, 0.43190435, -0.43868482, 137415.47, 153052.52, 0.0, 10.001398, 10.000388 
2.999894e+3, 1.387786e+2, -1303782.1, -1054598.3, 379296.25, -0.16984518, 0.12249786, -779954.94, 800019.8, 0.0, 10.0004425, 10.004393 
2.9995868e+3, 1.48774e+2, -1388890.8, -1457932.4, -376386.8, 0.23815925, -0.057429843, -1045445.06, 436572.7, 0.0, 10.001428, 10.000293 
2.9992637e+3, 1.58773e+2, -1616389.6, -1719213.0, -217422.31, -0.35015416, 0.2710289, -1444383.3, -60344.973, 0.0, 9.999713, 9.998775 
2.998958e+3, 1.6876566e+2, -1423305.3, -1362629.4, -158434.53, -0.058809787, -0.0523152, -1231654.3, 54455.418, 0.0, 9.999697, 10.000334 
2.998655e+3, 1.787604e+2, -1191967.8, -1272927.4, -421310.25, 0.107742295, -0.23054455, -809197.1, 378960.38, 0.0, 10.000691, 9.999993 
2.9983425e+3, 1.8876143e+2, -950432.94, -932756.9, -354695.5, 0.058526464, 0.13450786, -586789.3, 503352.03, 0.0, 10.0011835, 10.001241 
2.9980284e+3, 1.9875596e+2, -985229.94, -1350513.3, 40677.063, 0.00089038425, 0.044228517, -980755.06, 11435.388, 0.0, 10.001948, 9.99749 
2.9977182e+3, 2.0874657e+2, -883148.9, -1153037.3, 108252.09, 0.094096206, -0.2621833, -845094.6, 49193.01, 0.0, 10.001894, 9.997986 
2.9974067e+3, 2.1874051e+2, -843272.94, -1014343.9, -122974.55, -0.0183347, -0.20425183, -779011.7, 17341.436, 0.0, 10.000916, 9.998946 
2.9970917e+3, 2.2873938e+2, -539383.1, -149133.64, -66475.26, 0.05666976, -0.19991681, -138121.0, 560241.0, 0.0, 9.999736, 10.004571 
2.9967782e+3, 2.387438e+2, -826066.4, -423987.0, 229823.42, 0.25879553, 0.2430839, -319681.38, 280632.9, 0.0, 9.997691, 10.00317 
2.9964644e+3, 2.4874371e+2, -811533.4, -344617.63, 244479.1, 0.30167636, 0.355819, -240033.19, 262269.94, 0.0, 9.997342, 10.002997 
2.996149e+3, 2.58735e+2, -1274928.5, -940661.4, -249818.86, -0.040373903, -0.31295657, -807223.7, -402847.78, 0.0, 9.995003, 9.999581 
2.9958346e+3, 2.6872846e+2, -422094.2, -714662.4, -212155.77, -0.15496361, -0.3788349, -310678.66, -4230.5513, 0.0, 10.00155, 9.997096 
2.9955232e+3, 2.7872747e+2, -888193.8, -840336.0, 1434.3735, 0.030617885, 0.24698384, -840293.0, -631824.06, 0.0, 9.997146, 9.997957 
2.995208e+3, 2.8872138e+2, -147548.25, 117709.83, 142542.23, -0.22349377, -0.09477198, 179782.5, 290303.7, 0.0, 9.99959, 10.002543 
2.994905e+3, 2.9871634e+2, 68527.39, -152672.97, -255586.9, 0.5049818, -0.27841985, 236417.9, 248979.2, 0.0, 10.001952, 9.998969 
