coord_x,coord_y,stress_xx,stress_yy,tau_xy,velocity_x,velocity_y,stress_1,eps,damage,lx,ly
5.0e+0, 1.25e+2, -1715000.0, -1715000.0, 0.0, 0.0, 0.0, -1715000.0, -1715000.0, 0.0, 10.0, 10.0 
5.0e+0, 1.35e+2, -1617000.0, -1617000.0, 0.0, 0.0, 0.0, -1617000.0, -1617000.0, 0.0, 10.0, 10.0 
5.0e+0, 1.45e+2, -1519000.0, -1519000.0, 0.0, 0.0, 0.0, -1519000.0, -1519000.0, 0.0, 10.0, 10.0 
5.0e+0, 1.55e+2, -1421000.0, -1421000.0, 0.0, 0.0, 0.0, -1421000.0, -1421000.0, 0.0, 10.0, 10.0 
5.0e+0, 1.65e+2, -1323000.0, -1323000.0, 0.0, 0.0, 0.0, -1323000.0, -1323000.0, 0.0, 10.0, 10.0 
5.0e+0, 1.75e+2, -1225000.0, -1225000.0, 0.0, 0.0, 0.0, -1225000.0, -1225000.0, 0.0, 10.0, 10.0 
5.0e+0, 1.85e+2, -1127000.0, -1127000.0, 0.0, 0.0, 0.0, -1127000.0, -1127000.0, 0.0, 10.0, 10.0 
5.0e+0, 1.95e+2, -1029000.0, -1029000.0, 0.0, 0.0, 0.0, -1029000.0, -1029000.0, 0.0, 10.0, 10.0 
5.0e+0, 2.05e+2, -931000.0, -931000.0, 0.0, 0.0, 0.0, -931000.0, -931000.0, 0.0, 10.0, 10.0 
5.0e+0, 2.15e+2, -833000.0, -833000.0, 0.0, 0.0, 0.0, -833000.0, -833000.0, 0.0, 10.0, 10.0 
5.0e+0, 2.25e+2, -735000.0, -735000.0, 0.0, 0.0, 0.0, -735000.0, -735000.0, 0.0, 10.0, 10.0 
5.0e+0, 2.35e+2, -637000.0, -637000.0, 0.0, 0.0, 0.0, -637000.0, -637000.0, 0.0, 10.0, 10.0 
5.0e+0, 2.45e+2, -539000.0, -539000.0, 0.0, 0.0, 0.0, -539000.0, -539000.0, 0.0, 10.0, 10.0 
5.0e+0, 2.55e+2, -441000.0, -441000.0, 0.0, 0.0, 0.0, -441000.0, -441000.0, 0.0, 10.0, 10.0 
5.0e+0, 2.65e+2, -343000.0, -343000.0, 0.0, 0.0, 0.0, -343000.0, -343000.0, 0.0, 10.0, 10.0 
5.0e+0, 2.75e+2, -245000.0, -245000.0, 0.0, 0.0, 0.0, -245000.0, -245000.0, 0.0, 10.0, 10.0 
5.0e+0, 2.85e+2, -147000.0, -147000.0, 0.0, 0.0, 0.0, -147000.0, -147000.0, 0.0, 10.0, 10.0 
5.0e+0, 2.95e+2, -49000.0, -49000.0, 0.0, 0.0, 0.0, -49000.0, -49000.0, 0.0, 10.0, 10.0 
5.0e+0, 3.05e+2, 0.0, 0.0, 0.0, 0.0, 0.0, 0.0, 0.0, 0.0, 10.0, 10.0 
5.0e+0, 3.15e+2, 0.0, 0.0, 0.0, 0.0, 0.0, 0.0, 0.0, 0.0, 10.0, 10.0 
1.5e+1, 1.25e+2, -1715000.0, -1715000.0, 0.0, 0.0, 0.0, -1715000.0, -1715000.0, 0.0, 10.0, 10.0 
1.5e+1, 1.35e+2, -1617000.0, -1617000.0, 0.0, 0.0, 0.0, -1617000.0, -1617000.0, 0.0, 10.0, 10.0 
1.5e+1, 1.45e+2, -1519000.0, -1519000.0, 0.0, 0.0, 0.0, -1519000.0, -1519000.0, 0.0, 10.0, 10.0 
1.5e+1, 1.55e+2, -1421000.0, -1421000.0, 0.0, 0.0, 0.0, -1421000.0, -1421000.0, 0.0, 10.0, 10.0 
1.5e+1, 1.65e+2, -1323000.0, -1323000.0, 0.0, 0.0, 0.0, -1323000.0, -1323000.0, 0.0, 10.0, 10.0 
1.5e+1, 1.75e+2, -1225000.0, -1225000.0, 0.0, 0.0, 0.0, -1225000.0, -1225000.0, 0.0, 10.0, 10.0 
1.5e+1, 1.85e+2, -1127000.0, -1127000.0, 0.0, 0.0, 0.0, -1127000.0, -1127000.0, 0.0, 10.0, 10.0 
1.5e+1, 1.95e+2, -1029000.0, -1029000.0, 0.0, 0.0, 0.0, -1029000.0, -1029000.0, 0.0, 10.0, 10.0 
1.5e+1, 2.05e+2, -931000.0, -931000.0, 0.0, 0.0, 0.0, -931000.0, -931000.0, 0.0, 10.0, 10.0 
1.5e+1, 2.15e+2, -833000.0, -833000.0, 0.0, 0.0, 0.0, -833000.0, -833000.0, 0.0, 10.0, 10.0 
1.5e+1, 2.25e+2, -735000.0, -735000.0, 0.0, 0.0, 0.0, -735000.0, -735000.0, 0.0, 10.0, 10.0 
1.5e+1, 2.35e+2, -637000.0, -637000.0, 0.0, 0.0, 0.0, -637000.0, -637000.0, 0.0, 10.0, 10.0 
1.5e+1, 2.45e+2, -539000.0, -539000.0, 0.0, 0.0, 0.0, -539000.0, -539000.0, 0.0, 10.0, 10.0 
1.5e+1, 2.55e+2, -441000.0, -441000.0, 0.0, 0.0, 0.0, -441000.0, -441000.0, 0.0, 10.0, 10.0 
1.5e+1, 2.65e+2, -343000.0, -343000.0, 0.0, 0.0, 0.0, -343000.0, -343000.0, 0.0, 10.0, 10.0 
1.5e+1, 2.75e+2, -245000.0, -245000.0, 0.0, 0.0, 0.0, -245000.0, -245000.0, 0.0, 10.0, 10.0 
1.5e+1, 2.85e+2, -147000.0, -147000.0, 0.0, 0.0, 0.0, -147000.0, -147000.0, 0.0, 10.0, 10.0 
1.5e+1, 2.95e+2, -49000.0, -49000.0, 0.0, 0.0, 0.0, -49000.0, -49000.0, 0.0, 10.0, 10.0 
1.5e+1, 3.05e+2, 0.0, 0.0, 0.0, 0.0, 0.0, 0.0, 0.0, 0.0, 10.0, 10.0 
1.5e+1, 3.15e+2, 0.0, 0.0, 0.0, 0.0, 0.0, 0.0, 0.0, 0.0, 10.0, 10.0 
2.5e+1, 1.25e+2, -1715000.0, -1715000.0, 0.0, 0.0, 0.0, -1715000.0, -1715000.0, 0.0, 10.0, 10.0 
2.5e+1, 1.35e+2, -1617000.0, -1617000.0, 0.0, 0.0, 0.0, -1617000.0, -1617000.0, 0.0, 10.0, 10.0 
2.5e+1, 1.45e+2, -1519000.0, -1519000.0, 0.0, 0.0, 0.0, -1519000.0, -1519000.0, 0.0, 10.0, 10.0 
2.5e+1, 1.55e+2, -1421000.0, -1421000.0, 0.0, 0.0, 0.0, -1421000.0, -1421000.0, 0.0, 10.0, 10.0 
2.5e+1, 1.65e+2, -1323000.0, -1323000.0, 0.0, 0.0, 0.0, -1323000.0, -1323000.0, 0.0, 10.0, 10.0 
2.5e+1, 1.75e+2, -1225000.0, -1225000.0, 0.0, 0.0, 0.0, -1225000.0, -1225000.0, 0.0, 10.0, 10.0 
2.5e+1, 1.85e+2, -1127000.0, -1127000.0, 0.0, 0.0, 0.0, -1127000.0, -1127000.0, 0.0, 10.0, 10.0 
2.5e+1, 1.95e+2, -1029000.0, -1029000.0, 0.0, 0.0, 0.0, -1029000.0, -1029000.0, 0.0, 10.0, 10.0 
2.5e+1, 2.05e+2, -931000.0, -931000.0, 0.0, 0.0, 0.0, -931000.0, -931000.0, 0.0, 10.0, 10.0 
2.5e+1, 2.15e+2, -833000.0, -833000.0, 0.0, 0.0, 0.0, -833000.0, -833000.0, 0.0, 10.0, 10.0 
2.5e+1, 2.25e+2, -735000.0, -735000.0, 0.0, 0.0, 0.0, -735000.0, -735000.0, 0.0, 10.0, 10.0 
2.5e+1, 2.35e+2, -637000.0, -637000.0, 0.0, 0.0, 0.0, -637000.0, -637000.0, 0.0, 10.0, 10.0 
2.5e+1, 2.45e+2, -539000.0, -539000.0, 0.0, 0.0, 0.0, -539000.0, -539000.0, 0.0, 10.0, 10.0 
2.5e+1, 2.55e+2, -441000.0, -441000.0, 0.0, 0.0, 0.0, -441000.0, -441000.0, 0.0, 10.0, 10.0 
2.5e+1, 2.65e+2, -343000.0, -343000.0, 0.0, 0.0, 0.0, -343000.0, -343000.0, 0.0, 10.0, 10.0 
2.5e+1, 2.75e+2, -245000.0, -245000.0, 0.0, 0.0, 0.0, -245000.0, -245000.0, 0.0, 10.0, 10.0 
2.5e+1, 2.85e+2, -147000.0, -147000.0, 0.0, 0.0, 0.0, -147000.0, -147000.0, 0.0, 10.0, 10.0 
2.5e+1, 2.95e+2, -49000.0, -49000.0, 0.0, 0.0, 0.0, -49000.0, -49000.0, 0.0, 10.0, 10.0 
2.5e+1, 3.05e+2, 0.0, 0.0, 0.0, 0.0, 0.0, 0.0, 0.0, 0.0, 10.0, 10.0 
2.5e+1, 3.15e+2, 0.0, 0.0, 0.0, 0.0, 0.0, 0.0, 0.0, 0.0, 10.0, 10.0 
3.5e+1, 1.25e+2, -1715000.0, -1715000.0, 0.0, 0.0, 0.0, -1715000.0, -1715000.0, 0.0, 10.0, 10.0 
3.5e+1, 1.35e+2, -1617000.0, -1617000.0, 0.0, 0.0, 0.0, -1617000.0, -1617000.0, 0.0, 10.0, 10.0 
3.5e+1, 1.45e+2, -1519000.0, -1519000.0, 0.0, 0.0, 0.0, -1519000.0, -1519000.0, 0.0, 10.0, 10.0 
3.5e+1, 1.55e+2, -1421000.0, -1421000.0, 0.0, 0.0, 0.0, -1421000.0, -1421000.0, 0.0, 10.0, 10.0 
3.5e+1, 1.65e+2, -1323000.0, -1323000.0, 0.0, 0.0, 0.0, -1323000.0, -1323000.0, 0.0, 10.0, 10.0 
3.5e+1, 1.75e+2, -1225000.0, -1225000.0, 0.0, 0.0, 0.0, -1225000.0, -1225000.0, 0.0, 10.0, 10.0 
3.5e+1, 1.85e+2, -1127000.0, -1127000.0, 0.0, 0.0, 0.0, -1127000.0, -1127000.0, 0.0, 10.0, 10.0 
3.5e+1, 1.95e+2, -1029000.0, -1029000.0, 0.0, 0.0, 0.0, -1029000.0, -1029000.0, 0.0, 10.0, 10.0 
3.5e+1, 2.05e+2, -931000.0, -931000.0, 0.0, 0.0, 0.0, -931000.0, -931000.0, 0.0, 10.0, 10.0 
3.5e+1, 2.15e+2, -833000.0, -833000.0, 0.0, 0.0, 0.0, -833000.0, -833000.0, 0.0, 10.0, 10.0 
3.5e+1, 2.25e+2, -735000.0, -735000.0, 0.0, 0.0, 0.0, -735000.0, -735000.0, 0.0, 10.0, 10.0 
3.5e+1, 2.35e+2, -637000.0, -637000.0, 0.0, 0.0, 0.0, -637000.0, -637000.0, 0.0, 10.0, 10.0 
3.5e+1, 2.45e+2, -539000.0, -539000.0, 0.0, 0.0, 0.0, -539000.0, -539000.0, 0.0, 10.0, 10.0 
3.5e+1, 2.55e+2, -441000.0, -441000.0, 0.0, 0.0, 0.0, -441000.0, -441000.0, 0.0, 10.0, 10.0 
3.5e+1, 2.65e+2, -343000.0, -343000.0, 0.0, 0.0, 0.0, -343000.0, -343000.0, 0.0, 10.0, 10.0 
3.5e+1, 2.75e+2, -245000.0, -245000.0, 0.0, 0.0, 0.0, -245000.0, -245000.0, 0.0, 10.0, 10.0 
3.5e+1, 2.85e+2, -147000.0, -147000.0, 0.0, 0.0, 0.0, -147000.0, -147000.0, 0.0, 10.0, 10.0 
3.5e+1, 2.95e+2, -49000.0, -49000.0, 0.0, 0.0, 0.0, -49000.0, -49000.0, 0.0, 10.0, 10.0 
3.5e+1, 3.05e+2, 0.0, 0.0, 0.0, 0.0, 0.0, 0.0, 0.0, 0.0, 10.0, 10.0 
3.5e+1, 3.15e+2, 0.0, 0.0, 0.0, 0.0, 0.0, 0.0, 0.0, 0.0, 10.0, 10.0 
4.5e+1, 1.25e+2, -1715000.0, -1715000.0, 0.0, 0.0, 0.0, -1715000.0, -1715000.0, 0.0, 10.0, 10.0 
4.5e+1, 1.35e+2, -1617000.0, -1617000.0, 0.0, 0.0, 0.0, -1617000.0, -1617000.0, 0.0, 10.0, 10.0 
4.5e+1, 1.45e+2, -1519000.0, -1519000.0, 0.0, 0.0, 0.0, -1519000.0, -1519000.0, 0.0, 10.0, 10.0 
4.5e+1, 1.55e+2, -1421000.0, -1421000.0, 0.0, 0.0, 0.0, -1421000.0, -1421000.0, 0.0, 10.0, 10.0 
4.5e+1, 1.65e+2, -1323000.0, -1323000.0, 0.0, 0.0, 0.0, -1323000.0, -1323000.0, 0.0, 10.0, 10.0 
4.5e+1, 1.75e+2, -1225000.0, -1225000.0, 0.0, 0.0, 0.0, -1225000.0, -1225000.0, 0.0, 10.0, 10.0 
4.5e+1, 1.85e+2, -1127000.0, -1127000.0, 0.0, 0.0, 0.0, -1127000.0, -1127000.0, 0.0, 10.0, 10.0 
4.5e+1, 1.95e+2, -1029000.0, -1029000.0, 0.0, 0.0, 0.0, -1029000.0, -1029000.0, 0.0, 10.0, 10.0 
4.5e+1, 2.05e+2, -931000.0, -931000.0, 0.0, 0.0, 0.0, -931000.0, -931000.0, 0.0, 10.0, 10.0 
4.5e+1, 2.15e+2, -833000.0, -833000.0, 0.0, 0.0, 0.0, -833000.0, -833000.0, 0.0, 10.0, 10.0 
4.5e+1, 2.25e+2, -735000.0, -735000.0, 0.0, 0.0, 0.0, -735000.0, -735000.0, 0.0, 10.0, 10.0 
4.5e+1, 2.35e+2, -637000.0, -637000.0, 0.0, 0.0, 0.0, -637000.0, -637000.0, 0.0, 10.0, 10.0 
4.5e+1, 2.45e+2, -539000.0, -539000.0, 0.0, 0.0, 0.0, -539000.0, -539000.0, 0.0, 10.0, 10.0 
4.5e+1, 2.55e+2, -441000.0, -441000.0, 0.0, 0.0, 0.0, -441000.0, -441000.0, 0.0, 10.0, 10.0 
4.5e+1, 2.65e+2, -343000.0, -343000.0, 0.0, 0.0, 0.0, -343000.0, -343000.0, 0.0, 10.0, 10.0 
4.5e+1, 2.75e+2, -245000.0, -245000.0, 0.0, 0.0, 0.0, -245000.0, -245000.0, 0.0, 10.0, 10.0 
4.5e+1, 2.85e+2, -147000.0, -147000.0, 0.0, 0.0, 0.0, -147000.0, -147000.0, 0.0, 10.0, 10.0 
4.5e+1, 2.95e+2, -49000.0, -49000.0, 0.0, 0.0, 0.0, -49000.0, -49000.0, 0.0, 10.0, 10.0 
4.5e+1, 3.05e+2, 0.0, 0.0, 0.0, 0.0, 0.0, 0.0, 0.0, 0.0, 10.0, 10.0 
4.5e+1, 3.15e+2, 0.0, 0.0, 0.0, 0.0, 0.0, 0.0, 0.0, 0.0, 10.0, 10.0 
5.5e+1, 1.25e+2, -1715000.0, -1715000.0, 0.0, 0.0, 0.0, -1715000.0, -1715000.0, 0.0, 10.0, 10.0 
5.5e+1, 1.35e+2, -1617000.0, -1617000.0, 0.0, 0.0, 0.0, -1617000.0, -1617000.0, 0.0, 10.0, 10.0 
5.5e+1, 1.45e+2, -1519000.0, -1519000.0, 0.0, 0.0, 0.0, -1519000.0, -1519000.0, 0.0, 10.0, 10.0 
5.5e+1, 1.55e+2, -1421000.0, -1421000.0, 0.0, 0.0, 0.0, -1421000.0, -1421000.0, 0.0, 10.0, 10.0 
5.5e+1, 1.65e+2, -1323000.0, -1323000.0, 0.0, 0.0, 0.0, -1323000.0, -1323000.0, 0.0, 10.0, 10.0 
5.5e+1, 1.75e+2, -1225000.0, -1225000.0, 0.0, 0.0, 0.0, -1225000.0, -1225000.0, 0.0, 10.0, 10.0 
5.5e+1, 1.85e+2, -1127000.0, -1127000.0, 0.0, 0.0, 0.0, -1127000.0, -1127000.0, 0.0, 10.0, 10.0 
5.5e+1, 1.95e+2, -1029000.0, -1029000.0, 0.0, 0.0, 0.0, -1029000.0, -1029000.0, 0.0, 10.0, 10.0 
5.5e+1, 2.05e+2, -931000.0, -931000.0, 0.0, 0.0, 0.0, -931000.0, -931000.0, 0.0, 10.0, 10.0 
5.5e+1, 2.15e+2, -833000.0, -833000.0, 0.0, 0.0, 0.0, -833000.0, -833000.0, 0.0, 10.0, 10.0 
5.5e+1, 2.25e+2, -735000.0, -735000.0, 0.0, 0.0, 0.0, -735000.0, -735000.0, 0.0, 10.0, 10.0 
5.5e+1, 2.35e+2, -637000.0, -637000.0, 0.0, 0.0, 0.0, -637000.0, -637000.0, 0.0, 10.0, 10.0 
5.5e+1, 2.45e+2, -539000.0, -539000.0, 0.0, 0.0, 0.0, -539000.0, -539000.0, 0.0, 10.0, 10.0 
5.5e+1, 2.55e+2, -441000.0, -441000.0, 0.0, 0.0, 0.0, -441000.0, -441000.0, 0.0, 10.0, 10.0 
5.5e+1, 2.65e+2, -343000.0, -343000.0, 0.0, 0.0, 0.0, -343000.0, -343000.0, 0.0, 10.0, 10.0 
5.5e+1, 2.75e+2, -245000.0, -245000.0, 0.0, 0.0, 0.0, -245000.0, -245000.0, 0.0, 10.0, 10.0 
5.5e+1, 2.85e+2, -147000.0, -147000.0, 0.0, 0.0, 0.0, -147000.0, -147000.0, 0.0, 10.0, 10.0 
5.5e+1, 2.95e+2, -49000.0, -49000.0, 0.0, 0.0, 0.0, -49000.0, -49000.0, 0.0, 10.0, 10.0 
5.5e+1, 3.05e+2, 0.0, 0.0, 0.0, 0.0, 0.0, 0.0, 0.0, 0.0, 10.0, 10.0 
5.5e+1, 3.15e+2, 0.0, 0.0, 0.0, 0.0, 0.0, 0.0, 0.0, 0.0, 10.0, 10.0 
6.5e+1, 1.25e+2, -1715000.0, -1715000.0, 0.0, 0.0, 0.0, -1715000.0, -1715000.0, 0.0, 10.0, 10.0 
6.5e+1, 1.35e+2, -1617000.0, -1617000.0, 0.0, 0.0, 0.0, -1617000.0, -1617000.0, 0.0, 10.0, 10.0 
6.5e+1, 1.45e+2, -1519000.0, -1519000.0, 0.0, 0.0, 0.0, -1519000.0, -1519000.0, 0.0, 10.0, 10.0 
6.5e+1, 1.55e+2, -1421000.0, -1421000.0, 0.0, 0.0, 0.0, -1421000.0, -1421000.0, 0.0, 10.0, 10.0 
6.5e+1, 1.65e+2, -1323000.0, -1323000.0, 0.0, 0.0, 0.0, -1323000.0, -1323000.0, 0.0, 10.0, 10.0 
6.5e+1, 1.75e+2, -1225000.0, -1225000.0, 0.0, 0.0, 0.0, -1225000.0, -1225000.0, 0.0, 10.0, 10.0 
6.5e+1, 1.85e+2, -1127000.0, -1127000.0, 0.0, 0.0, 0.0, -1127000.0, -1127000.0, 0.0, 10.0, 10.0 
6.5e+1, 1.95e+2, -1029000.0, -1029000.0, 0.0, 0.0, 0.0, -1029000.0, -1029000.0, 0.0, 10.0, 10.0 
6.5e+1, 2.05e+2, -931000.0, -931000.0, 0.0, 0.0, 0.0, -931000.0, -931000.0, 0.0, 10.0, 10.0 
6.5e+1, 2.15e+2, -833000.0, -833000.0, 0.0, 0.0, 0.0, -833000.0, -833000.0, 0.0, 10.0, 10.0 
6.5e+1, 2.25e+2, -735000.0, -735000.0, 0.0, 0.0, 0.0, -735000.0, -735000.0, 0.0, 10.0, 10.0 
6.5e+1, 2.35e+2, -637000.0, -637000.0, 0.0, 0.0, 0.0, -637000.0, -637000.0, 0.0, 10.0, 10.0 
6.5e+1, 2.45e+2, -539000.0, -539000.0, 0.0, 0.0, 0.0, -539000.0, -539000.0, 0.0, 10.0, 10.0 
6.5e+1, 2.55e+2, -441000.0, -441000.0, 0.0, 0.0, 0.0, -441000.0, -441000.0, 0.0, 10.0, 10.0 
6.5e+1, 2.65e+2, -343000.0, -343000.0, 0.0, 0.0, 0.0, -343000.0, -343000.0, 0.0, 10.0, 10.0 
6.5e+1, 2.75e+2, -245000.0, -245000.0, 0.0, 0.0, 0.0, -245000.0, -245000.0, 0.0, 10.0, 10.0 
6.5e+1, 2.85e+2, -147000.0, -147000.0, 0.0, 0.0, 0.0, -147000.0, -147000.0, 0.0, 10.0, 10.0 
6.5e+1, 2.95e+2, -49000.0, -49000.0, 0.0, 0.0, 0.0, -49000.0, -49000.0, 0.0, 10.0, 10.0 
6.5e+1, 3.05e+2, 0.0, 0.0, 0.0, 0.0, 0.0, 0.0, 0.0, 0.0, 10.0, 10.0 
6.5e+1, 3.15e+2, 0.0, 0.0, 0.0, 0.0, 0.0, 0.0, 0.0, 0.0, 10.0, 10.0 
7.5e+1, 1.25e+2, -1715000.0, -1715000.0, 0.0, 0.0, 0.0, -1715000.0, -1715000.0, 0.0, 10.0, 10.0 
7.5e+1, 1.35e+2, -1617000.0, -1617000.0, 0.0, 0.0, 0.0, -1617000.0, -1617000.0, 0.0, 10.0, 10.0 
7.5e+1, 1.45e+2, -1519000.0, -1519000.0, 0.0, 0.0, 0.0, -1519000.0, -1519000.0, 0.0, 10.0, 10.0 
7.5e+1, 1.55e+2, -1421000.0, -1421000.0, 0.0, 0.0, 0.0, -1421000.0, -1421000.0, 0.0, 10.0, 10.0 
7.5e+1, 1.65e+2, -1323000.0, -1323000.0, 0.0, 0.0, 0.0, -1323000.0, -1323000.0, 0.0, 10.0, 10.0 
7.5e+1, 1.75e+2, -1225000.0, -1225000.0, 0.0, 0.0, 0.0, -1225000.0, -1225000.0, 0.0, 10.0, 10.0 
7.5e+1, 1.85e+2, -1127000.0, -1127000.0, 0.0, 0.0, 0.0, -1127000.0, -1127000.0, 0.0, 10.0, 10.0 
7.5e+1, 1.95e+2, -1029000.0, -1029000.0, 0.0, 0.0, 0.0, -1029000.0, -1029000.0, 0.0, 10.0, 10.0 
7.5e+1, 2.05e+2, -931000.0, -931000.0, 0.0, 0.0, 0.0, -931000.0, -931000.0, 0.0, 10.0, 10.0 
7.5e+1, 2.15e+2, -833000.0, -833000.0, 0.0, 0.0, 0.0, -833000.0, -833000.0, 0.0, 10.0, 10.0 
7.5e+1, 2.25e+2, -735000.0, -735000.0, 0.0, 0.0, 0.0, -735000.0, -735000.0, 0.0, 10.0, 10.0 
7.5e+1, 2.35e+2, -637000.0, -637000.0, 0.0, 0.0, 0.0, -637000.0, -637000.0, 0.0, 10.0, 10.0 
7.5e+1, 2.45e+2, -539000.0, -539000.0, 0.0, 0.0, 0.0, -539000.0, -539000.0, 0.0, 10.0, 10.0 
7.5e+1, 2.55e+2, -441000.0, -441000.0, 0.0, 0.0, 0.0, -441000.0, -441000.0, 0.0, 10.0, 10.0 
7.5e+1, 2.65e+2, -343000.0, -343000.0, 0.0, 0.0, 0.0, -343000.0, -343000.0, 0.0, 10.0, 10.0 
7.5e+1, 2.75e+2, -245000.0, -245000.0, 0.0, 0.0, 0.0, -245000.0, -245000.0, 0.0, 10.0, 10.0 
7.5e+1, 2.85e+2, -147000.0, -147000.0, 0.0, 0.0, 0.0, -147000.0, -147000.0, 0.0, 10.0, 10.0 
7.5e+1, 2.95e+2, -49000.0, -49000.0, 0.0, 0.0, 0.0, -49000.0, -49000.0, 0.0, 10.0, 10.0 
7.5e+1, 3.05e+2, 0.0, 0.0, 0.0, 0.0, 0.0, 0.0, 0.0, 0.0, 10.0, 10.0 
7.5e+1, 3.15e+2, 0.0, 0.0, 0.0, 0.0, 0.0, 0.0, 0.0, 0.0, 10.0, 10.0 
8.5e+1, 1.25e+2, -1715000.0, -1715000.0, 0.0, 0.0, 0.0, -1715000.0, -1715000.0, 0.0, 10.0, 10.0 
8.5e+1, 1.35e+2, -1617000.0, -1617000.0, 0.0, 0.0, 0.0, -1617000.0, -1617000.0, 0.0, 10.0, 10.0 
8.5e+1, 1.45e+2, -1519000.0, -1519000.0, 0.0, 0.0, 0.0, -1519000.0, -1519000.0, 0.0, 10.0, 10.0 
8.5e+1, 1.55e+2, -1421000.0, -1421000.0, 0.0, 0.0, 0.0, -1421000.0, -1421000.0, 0.0, 10.0, 10.0 
8.5e+1, 1.65e+2, -1323000.0, -1323000.0, 0.0, 0.0, 0.0, -1323000.0, -1323000.0, 0.0, 10.0, 10.0 
8.5e+1, 1.75e+2, -1225000.0, -1225000.0, 0.0, 0.0, 0.0, -1225000.0, -1225000.0, 0.0, 10.0, 10.0 
8.5e+1, 1.85e+2, -1127000.0, -1127000.0, 0.0, 0.0, 0.0, -1127000.0, -1127000.0, 0.0, 10.0, 10.0 
8.5e+1, 1.95e+2, -1029000.0, -1029000.0, 0.0, 0.0, 0.0, -1029000.0, -1029000.0, 0.0, 10.0, 10.0 
8.5e+1, 2.05e+2, -931000.0, -931000.0, 0.0, 0.0, 0.0, -931000.0, -931000.0, 0.0, 10.0, 10.0 
8.5e+1, 2.15e+2, -833000.0, -833000.0, 0.0, 0.0, 0.0, -833000.0, -833000.0, 0.0, 10.0, 10.0 
8.5e+1, 2.25e+2, -735000.0, -735000.0, 0.0, 0.0, 0.0, -735000.0, -735000.0, 0.0, 10.0, 10.0 
8.5e+1, 2.35e+2, -637000.0, -637000.0, 0.0, 0.0, 0.0, -637000.0, -637000.0, 0.0, 10.0, 10.0 
8.5e+1, 2.45e+2, -539000.0, -539000.0, 0.0, 0.0, 0.0, -539000.0, -539000.0, 0.0, 10.0, 10.0 
8.5e+1, 2.55e+2, -441000.0, -441000.0, 0.0, 0.0, 0.0, -441000.0, -441000.0, 0.0, 10.0, 10.0 
8.5e+1, 2.65e+2, -343000.0, -343000.0, 0.0, 0.0, 0.0, -343000.0, -343000.0, 0.0, 10.0, 10.0 
8.5e+1, 2.75e+2, -245000.0, -245000.0, 0.0, 0.0, 0.0, -245000.0, -245000.0, 0.0, 10.0, 10.0 
8.5e+1, 2.85e+2, -147000.0, -147000.0, 0.0, 0.0, 0.0, -147000.0, -147000.0, 0.0, 10.0, 10.0 
8.5e+1, 2.95e+2, -49000.0, -49000.0, 0.0, 0.0, 0.0, -49000.0, -49000.0, 0.0, 10.0, 10.0 
8.5e+1, 3.05e+2, 0.0, 0.0, 0.0, 0.0, 0.0, 0.0, 0.0, 0.0, 10.0, 10.0 
8.5e+1, 3.15e+2, 0.0, 0.0, 0.0, 0.0, 0.0, 0.0, 0.0, 0.0, 10.0, 10.0 
9.5e+1, 1.25e+2, -1715000.0, -1715000.0, 0.0, 0.0, 0.0, -1715000.0, -1715000.0, 0.0, 10.0, 10.0 
9.5e+1, 1.35e+2, -1617000.0, -1617000.0, 0.0, 0.0, 0.0, -1617000.0, -1617000.0, 0.0, 10.0, 10.0 
9.5e+1, 1.45e+2, -1519000.0, -1519000.0, 0.0, 0.0, 0.0, -1519000.0, -1519000.0, 0.0, 10.0, 10.0 
9.5e+1, 1.55e+2, -1421000.0, -1421000.0, 0.0, 0.0, 0.0, -1421000.0, -1421000.0, 0.0, 10.0, 10.0 
9.5e+1, 1.65e+2, -1323000.0, -1323000.0, 0.0, 0.0, 0.0, -1323000.0, -1323000.0, 0.0, 10.0, 10.0 
9.5e+1, 1.75e+2, -1225000.0, -1225000.0, 0.0, 0.0, 0.0, -1225000.0, -1225000.0, 0.0, 10.0, 10.0 
9.5e+1, 1.85e+2, -1127000.0, -1127000.0, 0.0, 0.0, 0.0, -1127000.0, -1127000.0, 0.0, 10.0, 10.0 
9.5e+1, 1.95e+2, -1029000.0, -1029000.0, 0.0, 0.0, 0.0, -1029000.0, -1029000.0, 0.0, 10.0, 10.0 
9.5e+1, 2.05e+2, -931000.0, -931000.0, 0.0, 0.0, 0.0, -931000.0, -931000.0, 0.0, 10.0, 10.0 
9.5e+1, 2.15e+2, -833000.0, -833000.0, 0.0, 0.0, 0.0, -833000.0, -833000.0, 0.0, 10.0, 10.0 
9.5e+1, 2.25e+2, -735000.0, -735000.0, 0.0, 0.0, 0.0, -735000.0, -735000.0, 0.0, 10.0, 10.0 
9.5e+1, 2.35e+2, -637000.0, -637000.0, 0.0, 0.0, 0.0, -637000.0, -637000.0, 0.0, 10.0, 10.0 
9.5e+1, 2.45e+2, -539000.0, -539000.0, 0.0, 0.0, 0.0, -539000.0, -539000.0, 0.0, 10.0, 10.0 
9.5e+1, 2.55e+2, -441000.0, -441000.0, 0.0, 0.0, 0.0, -441000.0, -441000.0, 0.0, 10.0, 10.0 
9.5e+1, 2.65e+2, -343000.0, -343000.0, 0.0, 0.0, 0.0, -343000.0, -343000.0, 0.0, 10.0, 10.0 
9.5e+1, 2.75e+2, -245000.0, -245000.0, 0.0, 0.0, 0.0, -245000.0, -245000.0, 0.0, 10.0, 10.0 
9.5e+1, 2.85e+2, -147000.0, -147000.0, 0.0, 0.0, 0.0, -147000.0, -147000.0, 0.0, 10.0, 10.0 
9.5e+1, 2.95e+2, -49000.0, -49000.0, 0.0, 0.0, 0.0, -49000.0, -49000.0, 0.0, 10.0, 10.0 
9.5e+1, 3.05e+2, 0.0, 0.0, 0.0, 0.0, 0.0, 0.0, 0.0, 0.0, 10.0, 10.0 
9.5e+1, 3.15e+2, 0.0, 0.0, 0.0, 0.0, 0.0, 0.0, 0.0, 0.0, 10.0, 10.0 
1.05e+2, 1.25e+2, -1715000.0, -1715000.0, 0.0, 0.0, 0.0, -1715000.0, -1715000.0, 0.0, 10.0, 10.0 
1.05e+2, 1.35e+2, -1617000.0, -1617000.0, 0.0, 0.0, 0.0, -1617000.0, -1617000.0, 0.0, 10.0, 10.0 
1.05e+2, 1.45e+2, -1519000.0, -1519000.0, 0.0, 0.0, 0.0, -1519000.0, -1519000.0, 0.0, 10.0, 10.0 
1.05e+2, 1.55e+2, -1421000.0, -1421000.0, 0.0, 0.0, 0.0, -1421000.0, -1421000.0, 0.0, 10.0, 10.0 
1.05e+2, 1.65e+2, -1323000.0, -1323000.0, 0.0, 0.0, 0.0, -1323000.0, -1323000.0, 0.0, 10.0, 10.0 
1.05e+2, 1.75e+2, -1225000.0, -1225000.0, 0.0, 0.0, 0.0, -1225000.0, -1225000.0, 0.0, 10.0, 10.0 
1.05e+2, 1.85e+2, -1127000.0, -1127000.0, 0.0, 0.0, 0.0, -1127000.0, -1127000.0, 0.0, 10.0, 10.0 
1.05e+2, 1.95e+2, -1029000.0, -1029000.0, 0.0, 0.0, 0.0, -1029000.0, -1029000.0, 0.0, 10.0, 10.0 
1.05e+2, 2.05e+2, -931000.0, -931000.0, 0.0, 0.0, 0.0, -931000.0, -931000.0, 0.0, 10.0, 10.0 
1.05e+2, 2.15e+2, -833000.0, -833000.0, 0.0, 0.0, 0.0, -833000.0, -833000.0, 0.0, 10.0, 10.0 
1.05e+2, 2.25e+2, -735000.0, -735000.0, 0.0, 0.0, 0.0, -735000.0, -735000.0, 0.0, 10.0, 10.0 
1.05e+2, 2.35e+2, -637000.0, -637000.0, 0.0, 0.0, 0.0, -637000.0, -637000.0, 0.0, 10.0, 10.0 
1.05e+2, 2.45e+2, -539000.0, -539000.0, 0.0, 0.0, 0.0, -539000.0, -539000.0, 0.0, 10.0, 10.0 
1.05e+2, 2.55e+2, -441000.0, -441000.0, 0.0, 0.0, 0.0, -441000.0, -441000.0, 0.0, 10.0, 10.0 
1.05e+2, 2.65e+2, -343000.0, -343000.0, 0.0, 0.0, 0.0, -343000.0, -343000.0, 0.0, 10.0, 10.0 
1.05e+2, 2.75e+2, -245000.0, -245000.0, 0.0, 0.0, 0.0, -245000.0, -245000.0, 0.0, 10.0, 10.0 
1.05e+2, 2.85e+2, -147000.0, -147000.0, 0.0, 0.0, 0.0, -147000.0, -147000.0, 0.0, 10.0, 10.0 
1.05e+2, 2.95e+2, -49000.0, -49000.0, 0.0, 0.0, 0.0, -49000.0, -49000.0, 0.0, 10.0, 10.0 
1.05e+2, 3.05e+2, 0.0, 0.0, 0.0, 0.0, 0.0, 0.0, 0.0, 0.0, 10.0, 10.0 
1.05e+2, 3.15e+2, 0.0, 0.0, 0.0, 0.0, 0.0, 0.0, 0.0, 0.0, 10.0, 10.0 
1.15e+2, 1.25e+2, -1715000.0, -1715000.0, 0.0, 0.0, 0.0, -1715000.0, -1715000.0, 0.0, 10.0, 10.0 
1.15e+2, 1.35e+2, -1617000.0, -1617000.0, 0.0, 0.0, 0.0, -1617000.0, -1617000.0, 0.0, 10.0, 10.0 
1.15e+2, 1.45e+2, -1519000.0, -1519000.0, 0.0, 0.0, 0.0, -1519000.0, -1519000.0, 0.0, 10.0, 10.0 
1.15e+2, 1.55e+2, -1421000.0, -1421000.0, 0.0, 0.0, 0.0, -1421000.0, -1421000.0, 0.0, 10.0, 10.0 
1.15e+2, 1.65e+2, -1323000.0, -1323000.0, 0.0, 0.0, 0.0, -1323000.0, -1323000.0, 0.0, 10.0, 10.0 
1.15e+2, 1.75e+2, -1225000.0, -1225000.0, 0.0, 0.0, 0.0, -1225000.0, -1225000.0, 0.0, 10.0, 10.0 
1.15e+2, 1.85e+2, -1127000.0, -1127000.0, 0.0, 0.0, 0.0, -1127000.0, -1127000.0, 0.0, 10.0, 10.0 
1.15e+2, 1.95e+2, -1029000.0, -1029000.0, 0.0, 0.0, 0.0, -1029000.0, -1029000.0, 0.0, 10.0, 10.0 
1.15e+2, 2.05e+2, -931000.0, -931000.0, 0.0, 0.0, 0.0, -931000.0, -931000.0, 0.0, 10.0, 10.0 
1.15e+2, 2.15e+2, -833000.0, -833000.0, 0.0, 0.0, 0.0, -833000.0, -833000.0, 0.0, 10.0, 10.0 
1.15e+2, 2.25e+2, -735000.0, -735000.0, 0.0, 0.0, 0.0, -735000.0, -735000.0, 0.0, 10.0, 10.0 
1.15e+2, 2.35e+2, -637000.0, -637000.0, 0.0, 0.0, 0.0, -637000.0, -637000.0, 0.0, 10.0, 10.0 
1.15e+2, 2.45e+2, -539000.0, -539000.0, 0.0, 0.0, 0.0, -539000.0, -539000.0, 0.0, 10.0, 10.0 
1.15e+2, 2.55e+2, -441000.0, -441000.0, 0.0, 0.0, 0.0, -441000.0, -441000.0, 0.0, 10.0, 10.0 
1.15e+2, 2.65e+2, -343000.0, -343000.0, 0.0, 0.0, 0.0, -343000.0, -343000.0, 0.0, 10.0, 10.0 
1.15e+2, 2.75e+2, -245000.0, -245000.0, 0.0, 0.0, 0.0, -245000.0, -245000.0, 0.0, 10.0, 10.0 
1.15e+2, 2.85e+2, -147000.0, -147000.0, 0.0, 0.0, 0.0, -147000.0, -147000.0, 0.0, 10.0, 10.0 
1.15e+2, 2.95e+2, -49000.0, -49000.0, 0.0, 0.0, 0.0, -49000.0, -49000.0, 0.0, 10.0, 10.0 
1.15e+2, 3.05e+2, 0.0, 0.0, 0.0, 0.0, 0.0, 0.0, 0.0, 0.0, 10.0, 10.0 
1.15e+2, 3.15e+2, 0.0, 0.0, 0.0, 0.0, 0.0, 0.0, 0.0, 0.0, 10.0, 10.0 
1.25e+2, 1.25e+2, -1715000.0, -1715000.0, 0.0, 0.0, 0.0, -1715000.0, -1715000.0, 0.0, 10.0, 10.0 
1.25e+2, 1.35e+2, -1617000.0, -1617000.0, 0.0, 0.0, 0.0, -1617000.0, -1617000.0, 0.0, 10.0, 10.0 
1.25e+2, 1.45e+2, -1519000.0, -1519000.0, 0.0, 0.0, 0.0, -1519000.0, -1519000.0, 0.0, 10.0, 10.0 
1.25e+2, 1.55e+2, -1421000.0, -1421000.0, 0.0, 0.0, 0.0, -1421000.0, -1421000.0, 0.0, 10.0, 10.0 
1.25e+2, 1.65e+2, -1323000.0, -1323000.0, 0.0, 0.0, 0.0, -1323000.0, -1323000.0, 0.0, 10.0, 10.0 
1.25e+2, 1.75e+2, -1225000.0, -1225000.0, 0.0, 0.0, 0.0, -1225000.0, -1225000.0, 0.0, 10.0, 10.0 
1.25e+2, 1.85e+2, -1127000.0, -1127000.0, 0.0, 0.0, 0.0, -1127000.0, -1127000.0, 0.0, 10.0, 10.0 
1.25e+2, 1.95e+2, -1029000.0, -1029000.0, 0.0, 0.0, 0.0, -1029000.0, -1029000.0, 0.0, 10.0, 10.0 
1.25e+2, 2.05e+2, -931000.0, -931000.0, 0.0, 0.0, 0.0, -931000.0, -931000.0, 0.0, 10.0, 10.0 
1.25e+2, 2.15e+2, -833000.0, -833000.0, 0.0, 0.0, 0.0, -833000.0, -833000.0, 0.0, 10.0, 10.0 
1.25e+2, 2.25e+2, -735000.0, -735000.0, 0.0, 0.0, 0.0, -735000.0, -735000.0, 0.0, 10.0, 10.0 
1.25e+2, 2.35e+2, -637000.0, -637000.0, 0.0, 0.0, 0.0, -637000.0, -637000.0, 0.0, 10.0, 10.0 
1.25e+2, 2.45e+2, -539000.0, -539000.0, 0.0, 0.0, 0.0, -539000.0, -539000.0, 0.0, 10.0, 10.0 
1.25e+2, 2.55e+2, -441000.0, -441000.0, 0.0, 0.0, 0.0, -441000.0, -441000.0, 0.0, 10.0, 10.0 
1.25e+2, 2.65e+2, -343000.0, -343000.0, 0.0, 0.0, 0.0, -343000.0, -343000.0, 0.0, 10.0, 10.0 
1.25e+2, 2.75e+2, -245000.0, -245000.0, 0.0, 0.0, 0.0, -245000.0, -245000.0, 0.0, 10.0, 10.0 
1.25e+2, 2.85e+2, -147000.0, -147000.0, 0.0, 0.0, 0.0, -147000.0, -147000.0, 0.0, 10.0, 10.0 
1.25e+2, 2.95e+2, -49000.0, -49000.0, 0.0, 0.0, 0.0, -49000.0, -49000.0, 0.0, 10.0, 10.0 
1.25e+2, 3.05e+2, 0.0, 0.0, 0.0, 0.0, 0.0, 0.0, 0.0, 0.0, 10.0, 10.0 
1.25e+2, 3.15e+2, 0.0, 0.0, 0.0, 0.0, 0.0, 0.0, 0.0, 0.0, 10.0, 10.0 
1.35e+2, 1.25e+2, -1715000.0, -1715000.0, 0.0, 0.0, 0.0, -1715000.0, -1715000.0, 0.0, 10.0, 10.0 
1.35e+2, 1.35e+2, -1617000.0, -1617000.0, 0.0, 0.0, 0.0, -1617000.0, -1617000.0, 0.0, 10.0, 10.0 
1.35e+2, 1.45e+2, -1519000.0, -1519000.0, 0.0, 0.0, 0.0, -1519000.0, -1519000.0, 0.0, 10.0, 10.0 
1.35e+2, 1.55e+2, -1421000.0, -1421000.0, 0.0, 0.0, 0.0, -1421000.0, -1421000.0, 0.0, 10.0, 10.0 
1.35e+2, 1.65e+2, -1323000.0, -1323000.0, 0.0, 0.0, 0.0, -1323000.0, -1323000.0, 0.0, 10.0, 10.0 
1.35e+2, 1.75e+2, -1225000.0, -1225000.0, 0.0, 0.0, 0.0, -1225000.0, -1225000.0, 0.0, 10.0, 10.0 
1.35e+2, 1.85e+2, -1127000.0, -1127000.0, 0.0, 0.0, 0.0, -1127000.0, -1127000.0, 0.0, 10.0, 10.0 
1.35e+2, 1.95e+2, -1029000.0, -1029000.0, 0.0, 0.0, 0.0, -1029000.0, -1029000.0, 0.0, 10.0, 10.0 
1.35e+2, 2.05e+2, -931000.0, -931000.0, 0.0, 0.0, 0.0, -931000.0, -931000.0, 0.0, 10.0, 10.0 
1.35e+2, 2.15e+2, -833000.0, -833000.0, 0.0, 0.0, 0.0, -833000.0, -833000.0, 0.0, 10.0, 10.0 
1.35e+2, 2.25e+2, -735000.0, -735000.0, 0.0, 0.0, 0.0, -735000.0, -735000.0, 0.0, 10.0, 10.0 
1.35e+2, 2.35e+2, -637000.0, -637000.0, 0.0, 0.0, 0.0, -637000.0, -637000.0, 0.0, 10.0, 10.0 
1.35e+2, 2.45e+2, -539000.0, -539000.0, 0.0, 0.0, 0.0, -539000.0, -539000.0, 0.0, 10.0, 10.0 
1.35e+2, 2.55e+2, -441000.0, -441000.0, 0.0, 0.0, 0.0, -441000.0, -441000.0, 0.0, 10.0, 10.0 
1.35e+2, 2.65e+2, -343000.0, -343000.0, 0.0, 0.0, 0.0, -343000.0, -343000.0, 0.0, 10.0, 10.0 
1.35e+2, 2.75e+2, -245000.0, -245000.0, 0.0, 0.0, 0.0, -245000.0, -245000.0, 0.0, 10.0, 10.0 
1.35e+2, 2.85e+2, -147000.0, -147000.0, 0.0, 0.0, 0.0, -147000.0, -147000.0, 0.0, 10.0, 10.0 
1.35e+2, 2.95e+2, -49000.0, -49000.0, 0.0, 0.0, 0.0, -49000.0, -49000.0, 0.0, 10.0, 10.0 
1.35e+2, 3.05e+2, 0.0, 0.0, 0.0, 0.0, 0.0, 0.0, 0.0, 0.0, 10.0, 10.0 
1.35e+2, 3.15e+2, 0.0, 0.0, 0.0, 0.0, 0.0, 0.0, 0.0, 0.0, 10.0, 10.0 
1.45e+2, 1.25e+2, -1715000.0, -1715000.0, 0.0, 0.0, 0.0, -1715000.0, -1715000.0, 0.0, 10.0, 10.0 
1.45e+2, 1.35e+2, -1617000.0, -1617000.0, 0.0, 0.0, 0.0, -1617000.0, -1617000.0, 0.0, 10.0, 10.0 
1.45e+2, 1.45e+2, -1519000.0, -1519000.0, 0.0, 0.0, 0.0, -1519000.0, -1519000.0, 0.0, 10.0, 10.0 
1.45e+2, 1.55e+2, -1421000.0, -1421000.0, 0.0, 0.0, 0.0, -1421000.0, -1421000.0, 0.0, 10.0, 10.0 
1.45e+2, 1.65e+2, -1323000.0, -1323000.0, 0.0, 0.0, 0.0, -1323000.0, -1323000.0, 0.0, 10.0, 10.0 
1.45e+2, 1.75e+2, -1225000.0, -1225000.0, 0.0, 0.0, 0.0, -1225000.0, -1225000.0, 0.0, 10.0, 10.0 
1.45e+2, 1.85e+2, -1127000.0, -1127000.0, 0.0, 0.0, 0.0, -1127000.0, -1127000.0, 0.0, 10.0, 10.0 
1.45e+2, 1.95e+2, -1029000.0, -1029000.0, 0.0, 0.0, 0.0, -1029000.0, -1029000.0, 0.0, 10.0, 10.0 
1.45e+2, 2.05e+2, -931000.0, -931000.0, 0.0, 0.0, 0.0, -931000.0, -931000.0, 0.0, 10.0, 10.0 
1.45e+2, 2.15e+2, -833000.0, -833000.0, 0.0, 0.0, 0.0, -833000.0, -833000.0, 0.0, 10.0, 10.0 
1.45e+2, 2.25e+2, -735000.0, -735000.0, 0.0, 0.0, 0.0, -735000.0, -735000.0, 0.0, 10.0, 10.0 
1.45e+2, 2.35e+2, -637000.0, -637000.0, 0.0, 0.0, 0.0, -637000.0, -637000.0, 0.0, 10.0, 10.0 
1.45e+2, 2.45e+2, -539000.0, -539000.0, 0.0, 0.0, 0.0, -539000.0, -539000.0, 0.0, 10.0, 10.0 
1.45e+2, 2.55e+2, -441000.0, -441000.0, 0.0, 0.0, 0.0, -441000.0, -441000.0, 0.0, 10.0, 10.0 
1.45e+2, 2.65e+2, -343000.0, -343000.0, 0.0, 0.0, 0.0, -343000.0, -343000.0, 0.0, 10.0, 10.0 
1.45e+2, 2.75e+2, -245000.0, -245000.0, 0.0, 0.0, 0.0, -245000.0, -245000.0, 0.0, 10.0, 10.0 
1.45e+2, 2.85e+2, -147000.0, -147000.0, 0.0, 0.0, 0.0, -147000.0, -147000.0, 0.0, 10.0, 10.0 
1.45e+2, 2.95e+2, -49000.0, -49000.0, 0.0, 0.0, 0.0, -49000.0, -49000.0, 0.0, 10.0, 10.0 
1.45e+2, 3.05e+2, 0.0, 0.0, 0.0, 0.0, 0.0, 0.0, 0.0, 0.0, 10.0, 10.0 
1.45e+2, 3.15e+2, 0.0, 0.0, 0.0, 0.0, 0.0, 0.0, 0.0, 0.0, 10.0, 10.0 
1.55e+2, 1.25e+2, -1715000.0, -1715000.0, 0.0, 0.0, 0.0, -1715000.0, -1715000.0, 0.0, 10.0, 10.0 
1.55e+2, 1.35e+2, -1617000.0, -1617000.0, 0.0, 0.0, 0.0, -1617000.0, -1617000.0, 0.0, 10.0, 10.0 
1.55e+2, 1.45e+2, -1519000.0, -1519000.0, 0.0, 0.0, 0.0, -1519000.0, -1519000.0, 0.0, 10.0, 10.0 
1.55e+2, 1.55e+2, -1421000.0, -1421000.0, 0.0, 0.0, 0.0, -1421000.0, -1421000.0, 0.0, 10.0, 10.0 
1.55e+2, 1.65e+2, -1323000.0, -1323000.0, 0.0, 0.0, 0.0, -1323000.0, -1323000.0, 0.0, 10.0, 10.0 
1.55e+2, 1.75e+2, -1225000.0, -1225000.0, 0.0, 0.0, 0.0, -1225000.0, -1225000.0, 0.0, 10.0, 10.0 
1.55e+2, 1.85e+2, -1127000.0, -1127000.0, 0.0, 0.0, 0.0, -1127000.0, -1127000.0, 0.0, 10.0, 10.0 
1.55e+2, 1.95e+2, -1029000.0, -1029000.0, 0.0, 0.0, 0.0, -1029000.0, -1029000.0, 0.0, 10.0, 10.0 
1.55e+2, 2.05e+2, -931000.0, -931000.0, 0.0, 0.0, 0.0, -931000.0, -931000.0, 0.0, 10.0, 10.0 
1.55e+2, 2.15e+2, -833000.0, -833000.0, 0.0, 0.0, 0.0, -833000.0, -833000.0, 0.0, 10.0, 10.0 
1.55e+2, 2.25e+2, -735000.0, -735000.0, 0.0, 0.0, 0.0, -735000.0, -735000.0, 0.0, 10.0, 10.0 
1.55e+2, 2.35e+2, -637000.0, -637000.0, 0.0, 0.0, 0.0, -637000.0, -637000.0, 0.0, 10.0, 10.0 
1.55e+2, 2.45e+2, -539000.0, -539000.0, 0.0, 0.0, 0.0, -539000.0, -539000.0, 0.0, 10.0, 10.0 
1.55e+2, 2.55e+2, -441000.0, -441000.0, 0.0, 0.0, 0.0, -441000.0, -441000.0, 0.0, 10.0, 10.0 
1.55e+2, 2.65e+2, -343000.0, -343000.0, 0.0, 0.0, 0.0, -343000.0, -343000.0, 0.0, 10.0, 10.0 
1.55e+2, 2.75e+2, -245000.0, -245000.0, 0.0, 0.0, 0.0, -245000.0, -245000.0, 0.0, 10.0, 10.0 
1.55e+2, 2.85e+2, -147000.0, -147000.0, 0.0, 0.0, 0.0, -147000.0, -147000.0, 0.0, 10.0, 10.0 
1.55e+2, 2.95e+2, -49000.0, -49000.0, 0.0, 0.0, 0.0, -49000.0, -49000.0, 0.0, 10.0, 10.0 
1.55e+2, 3.05e+2, 0.0, 0.0, 0.0, 0.0, 0.0, 0.0, 0.0, 0.0, 10.0, 10.0 
1.55e+2, 3.15e+2, 0.0, 0.0, 0.0, 0.0, 0.0, 0.0, 0.0, 0.0, 10.0, 10.0 
1.65e+2, 1.25e+2, -1715000.0, -1715000.0, 0.0, 0.0, 0.0, -1715000.0, -1715000.0, 0.0, 10.0, 10.0 
1.65e+2, 1.35e+2, -1617000.0, -1617000.0, 0.0, 0.0, 0.0, -1617000.0, -1617000.0, 0.0, 10.0, 10.0 
1.65e+2, 1.45e+2, -1519000.0, -1519000.0, 0.0, 0.0, 0.0, -1519000.0, -1519000.0, 0.0, 10.0, 10.0 
1.65e+2, 1.55e+2, -1421000.0, -1421000.0, 0.0, 0.0, 0.0, -1421000.0, -1421000.0, 0.0, 10.0, 10.0 
1.65e+2, 1.65e+2, -1323000.0, -1323000.0, 0.0, 0.0, 0.0, -1323000.0, -1323000.0, 0.0, 10.0, 10.0 
1.65e+2, 1.75e+2, -1225000.0, -1225000.0, 0.0, 0.0, 0.0, -1225000.0, -1225000.0, 0.0, 10.0, 10.0 
1.65e+2, 1.85e+2, -1127000.0, -1127000.0, 0.0, 0.0, 0.0, -1127000.0, -1127000.0, 0.0, 10.0, 10.0 
1.65e+2, 1.95e+2, -1029000.0, -1029000.0, 0.0, 0.0, 0.0, -1029000.0, -1029000.0, 0.0, 10.0, 10.0 
1.65e+2, 2.05e+2, -931000.0, -931000.0, 0.0, 0.0, 0.0, -931000.0, -931000.0, 0.0, 10.0, 10.0 
1.65e+2, 2.15e+2, -833000.0, -833000.0, 0.0, 0.0, 0.0, -833000.0, -833000.0, 0.0, 10.0, 10.0 
1.65e+2, 2.25e+2, -735000.0, -735000.0, 0.0, 0.0, 0.0, -735000.0, -735000.0, 0.0, 10.0, 10.0 
1.65e+2, 2.35e+2, -637000.0, -637000.0, 0.0, 0.0, 0.0, -637000.0, -637000.0, 0.0, 10.0, 10.0 
1.65e+2, 2.45e+2, -539000.0, -539000.0, 0.0, 0.0, 0.0, -539000.0, -539000.0, 0.0, 10.0, 10.0 
1.65e+2, 2.55e+2, -441000.0, -441000.0, 0.0, 0.0, 0.0, -441000.0, -441000.0, 0.0, 10.0, 10.0 
1.65e+2, 2.65e+2, -343000.0, -343000.0, 0.0, 0.0, 0.0, -343000.0, -343000.0, 0.0, 10.0, 10.0 
1.65e+2, 2.75e+2, -245000.0, -245000.0, 0.0, 0.0, 0.0, -245000.0, -245000.0, 0.0, 10.0, 10.0 
1.65e+2, 2.85e+2, -147000.0, -147000.0, 0.0, 0.0, 0.0, -147000.0, -147000.0, 0.0, 10.0, 10.0 
1.65e+2, 2.95e+2, -49000.0, -49000.0, 0.0, 0.0, 0.0, -49000.0, -49000.0, 0.0, 10.0, 10.0 
1.65e+2, 3.05e+2, 0.0, 0.0, 0.0, 0.0, 0.0, 0.0, 0.0, 0.0, 10.0, 10.0 
1.65e+2, 3.15e+2, 0.0, 0.0, 0.0, 0.0, 0.0, 0.0, 0.0, 0.0, 10.0, 10.0 
1.75e+2, 1.25e+2, -1715000.0, -1715000.0, 0.0, 0.0, 0.0, -1715000.0, -1715000.0, 0.0, 10.0, 10.0 
1.75e+2, 1.35e+2, -1617000.0, -1617000.0, 0.0, 0.0, 0.0, -1617000.0, -1617000.0, 0.0, 10.0, 10.0 
1.75e+2, 1.45e+2, -1519000.0, -1519000.0, 0.0, 0.0, 0.0, -1519000.0, -1519000.0, 0.0, 10.0, 10.0 
1.75e+2, 1.55e+2, -1421000.0, -1421000.0, 0.0, 0.0, 0.0, -1421000.0, -1421000.0, 0.0, 10.0, 10.0 
1.75e+2, 1.65e+2, -1323000.0, -1323000.0, 0.0, 0.0, 0.0, -1323000.0, -1323000.0, 0.0, 10.0, 10.0 
1.75e+2, 1.75e+2, -1225000.0, -1225000.0, 0.0, 0.0, 0.0, -1225000.0, -1225000.0, 0.0, 10.0, 10.0 
1.75e+2, 1.85e+2, -1127000.0, -1127000.0, 0.0, 0.0, 0.0, -1127000.0, -1127000.0, 0.0, 10.0, 10.0 
1.75e+2, 1.95e+2, -1029000.0, -1029000.0, 0.0, 0.0, 0.0, -1029000.0, -1029000.0, 0.0, 10.0, 10.0 
1.75e+2, 2.05e+2, -931000.0, -931000.0, 0.0, 0.0, 0.0, -931000.0, -931000.0, 0.0, 10.0, 10.0 
1.75e+2, 2.15e+2, -833000.0, -833000.0, 0.0, 0.0, 0.0, -833000.0, -833000.0, 0.0, 10.0, 10.0 
1.75e+2, 2.25e+2, -735000.0, -735000.0, 0.0, 0.0, 0.0, -735000.0, -735000.0, 0.0, 10.0, 10.0 
1.75e+2, 2.35e+2, -637000.0, -637000.0, 0.0, 0.0, 0.0, -637000.0, -637000.0, 0.0, 10.0, 10.0 
1.75e+2, 2.45e+2, -539000.0, -539000.0, 0.0, 0.0, 0.0, -539000.0, -539000.0, 0.0, 10.0, 10.0 
1.75e+2, 2.55e+2, -441000.0, -441000.0, 0.0, 0.0, 0.0, -441000.0, -441000.0, 0.0, 10.0, 10.0 
1.75e+2, 2.65e+2, -343000.0, -343000.0, 0.0, 0.0, 0.0, -343000.0, -343000.0, 0.0, 10.0, 10.0 
1.75e+2, 2.75e+2, -245000.0, -245000.0, 0.0, 0.0, 0.0, -245000.0, -245000.0, 0.0, 10.0, 10.0 
1.75e+2, 2.85e+2, -147000.0, -147000.0, 0.0, 0.0, 0.0, -147000.0, -147000.0, 0.0, 10.0, 10.0 
1.75e+2, 2.95e+2, -49000.0, -49000.0, 0.0, 0.0, 0.0, -49000.0, -49000.0, 0.0, 10.0, 10.0 
1.75e+2, 3.05e+2, 0.0, 0.0, 0.0, 0.0, 0.0, 0.0, 0.0, 0.0, 10.0, 10.0 
1.75e+2, 3.15e+2, 0.0, 0.0, 0.0, 0.0, 0.0, 0.0, 0.0, 0.0, 10.0, 10.0 
1.85e+2, 1.25e+2, -1715000.0, -1715000.0, 0.0, 0.0, 0.0, -1715000.0, -1715000.0, 0.0, 10.0, 10.0 
1.85e+2, 1.35e+2, -1617000.0, -1617000.0, 0.0, 0.0, 0.0, -1617000.0, -1617000.0, 0.0, 10.0, 10.0 
1.85e+2, 1.45e+2, -1519000.0, -1519000.0, 0.0, 0.0, 0.0, -1519000.0, -1519000.0, 0.0, 10.0, 10.0 
1.85e+2, 1.55e+2, -1421000.0, -1421000.0, 0.0, 0.0, 0.0, -1421000.0, -1421000.0, 0.0, 10.0, 10.0 
1.85e+2, 1.65e+2, -1323000.0, -1323000.0, 0.0, 0.0, 0.0, -1323000.0, -1323000.0, 0.0, 10.0, 10.0 
1.85e+2, 1.75e+2, -1225000.0, -1225000.0, 0.0, 0.0, 0.0, -1225000.0, -1225000.0, 0.0, 10.0, 10.0 
1.85e+2, 1.85e+2, -1127000.0, -1127000.0, 0.0, 0.0, 0.0, -1127000.0, -1127000.0, 0.0, 10.0, 10.0 
1.85e+2, 1.95e+2, -1029000.0, -1029000.0, 0.0, 0.0, 0.0, -1029000.0, -1029000.0, 0.0, 10.0, 10.0 
1.85e+2, 2.05e+2, -931000.0, -931000.0, 0.0, 0.0, 0.0, -931000.0, -931000.0, 0.0, 10.0, 10.0 
1.85e+2, 2.15e+2, -833000.0, -833000.0, 0.0, 0.0, 0.0, -833000.0, -833000.0, 0.0, 10.0, 10.0 
1.85e+2, 2.25e+2, -735000.0, -735000.0, 0.0, 0.0, 0.0, -735000.0, -735000.0, 0.0, 10.0, 10.0 
1.85e+2, 2.35e+2, -637000.0, -637000.0, 0.0, 0.0, 0.0, -637000.0, -637000.0, 0.0, 10.0, 10.0 
1.85e+2, 2.45e+2, -539000.0, -539000.0, 0.0, 0.0, 0.0, -539000.0, -539000.0, 0.0, 10.0, 10.0 
1.85e+2, 2.55e+2, -441000.0, -441000.0, 0.0, 0.0, 0.0, -441000.0, -441000.0, 0.0, 10.0, 10.0 
1.85e+2, 2.65e+2, -343000.0, -343000.0, 0.0, 0.0, 0.0, -343000.0, -343000.0, 0.0, 10.0, 10.0 
1.85e+2, 2.75e+2, -245000.0, -245000.0, 0.0, 0.0, 0.0, -245000.0, -245000.0, 0.0, 10.0, 10.0 
1.85e+2, 2.85e+2, -147000.0, -147000.0, 0.0, 0.0, 0.0, -147000.0, -147000.0, 0.0, 10.0, 10.0 
1.85e+2, 2.95e+2, -49000.0, -49000.0, 0.0, 0.0, 0.0, -49000.0, -49000.0, 0.0, 10.0, 10.0 
1.85e+2, 3.05e+2, 0.0, 0.0, 0.0, 0.0, 0.0, 0.0, 0.0, 0.0, 10.0, 10.0 
1.85e+2, 3.15e+2, 0.0, 0.0, 0.0, 0.0, 0.0, 0.0, 0.0, 0.0, 10.0, 10.0 
1.95e+2, 1.25e+2, -1715000.0, -1715000.0, 0.0, 0.0, 0.0, -1715000.0, -1715000.0, 0.0, 10.0, 10.0 
1.95e+2, 1.35e+2, -1617000.0, -1617000.0, 0.0, 0.0, 0.0, -1617000.0, -1617000.0, 0.0, 10.0, 10.0 
1.95e+2, 1.45e+2, -1519000.0, -1519000.0, 0.0, 0.0, 0.0, -1519000.0, -1519000.0, 0.0, 10.0, 10.0 
1.95e+2, 1.55e+2, -1421000.0, -1421000.0, 0.0, 0.0, 0.0, -1421000.0, -1421000.0, 0.0, 10.0, 10.0 
1.95e+2, 1.65e+2, -1323000.0, -1323000.0, 0.0, 0.0, 0.0, -1323000.0, -1323000.0, 0.0, 10.0, 10.0 
1.95e+2, 1.75e+2, -1225000.0, -1225000.0, 0.0, 0.0, 0.0, -1225000.0, -1225000.0, 0.0, 10.0, 10.0 
1.95e+2, 1.85e+2, -1127000.0, -1127000.0, 0.0, 0.0, 0.0, -1127000.0, -1127000.0, 0.0, 10.0, 10.0 
1.95e+2, 1.95e+2, -1029000.0, -1029000.0, 0.0, 0.0, 0.0, -1029000.0, -1029000.0, 0.0, 10.0, 10.0 
1.95e+2, 2.05e+2, -931000.0, -931000.0, 0.0, 0.0, 0.0, -931000.0, -931000.0, 0.0, 10.0, 10.0 
1.95e+2, 2.15e+2, -833000.0, -833000.0, 0.0, 0.0, 0.0, -833000.0, -833000.0, 0.0, 10.0, 10.0 
1.95e+2, 2.25e+2, -735000.0, -735000.0, 0.0, 0.0, 0.0, -735000.0, -735000.0, 0.0, 10.0, 10.0 
1.95e+2, 2.35e+2, -637000.0, -637000.0, 0.0, 0.0, 0.0, -637000.0, -637000.0, 0.0, 10.0, 10.0 
1.95e+2, 2.45e+2, -539000.0, -539000.0, 0.0, 0.0, 0.0, -539000.0, -539000.0, 0.0, 10.0, 10.0 
1.95e+2, 2.55e+2, -441000.0, -441000.0, 0.0, 0.0, 0.0, -441000.0, -441000.0, 0.0, 10.0, 10.0 
1.95e+2, 2.65e+2, -343000.0, -343000.0, 0.0, 0.0, 0.0, -343000.0, -343000.0, 0.0, 10.0, 10.0 
1.95e+2, 2.75e+2, -245000.0, -245000.0, 0.0, 0.0, 0.0, -245000.0, -245000.0, 0.0, 10.0, 10.0 
1.95e+2, 2.85e+2, -147000.0, -147000.0, 0.0, 0.0, 0.0, -147000.0, -147000.0, 0.0, 10.0, 10.0 
1.95e+2, 2.95e+2, -49000.0, -49000.0, 0.0, 0.0, 0.0, -49000.0, -49000.0, 0.0, 10.0, 10.0 
1.95e+2, 3.05e+2, 0.0, 0.0, 0.0, 0.0, 0.0, 0.0, 0.0, 0.0, 10.0, 10.0 
1.95e+2, 3.15e+2, 0.0, 0.0, 0.0, 0.0, 0.0, 0.0, 0.0, 0.0, 10.0, 10.0 
2.05e+2, 1.25e+2, -1715000.0, -1715000.0, 0.0, 0.0, 0.0, -1715000.0, -1715000.0, 0.0, 10.0, 10.0 
2.05e+2, 1.35e+2, -1617000.0, -1617000.0, 0.0, 0.0, 0.0, -1617000.0, -1617000.0, 0.0, 10.0, 10.0 
2.05e+2, 1.45e+2, -1519000.0, -1519000.0, 0.0, 0.0, 0.0, -1519000.0, -1519000.0, 0.0, 10.0, 10.0 
2.05e+2, 1.55e+2, -1421000.0, -1421000.0, 0.0, 0.0, 0.0, -1421000.0, -1421000.0, 0.0, 10.0, 10.0 
2.05e+2, 1.65e+2, -1323000.0, -1323000.0, 0.0, 0.0, 0.0, -1323000.0, -1323000.0, 0.0, 10.0, 10.0 
2.05e+2, 1.75e+2, -1225000.0, -1225000.0, 0.0, 0.0, 0.0, -1225000.0, -1225000.0, 0.0, 10.0, 10.0 
2.05e+2, 1.85e+2, -1127000.0, -1127000.0, 0.0, 0.0, 0.0, -1127000.0, -1127000.0, 0.0, 10.0, 10.0 
2.05e+2, 1.95e+2, -1029000.0, -1029000.0, 0.0, 0.0, 0.0, -1029000.0, -1029000.0, 0.0, 10.0, 10.0 
2.05e+2, 2.05e+2, -931000.0, -931000.0, 0.0, 0.0, 0.0, -931000.0, -931000.0, 0.0, 10.0, 10.0 
2.05e+2, 2.15e+2, -833000.0, -833000.0, 0.0, 0.0, 0.0, -833000.0, -833000.0, 0.0, 10.0, 10.0 
2.05e+2, 2.25e+2, -735000.0, -735000.0, 0.0, 0.0, 0.0, -735000.0, -735000.0, 0.0, 10.0, 10.0 
2.05e+2, 2.35e+2, -637000.0, -637000.0, 0.0, 0.0, 0.0, -637000.0, -637000.0, 0.0, 10.0, 10.0 
2.05e+2, 2.45e+2, -539000.0, -539000.0, 0.0, 0.0, 0.0, -539000.0, -539000.0, 0.0, 10.0, 10.0 
2.05e+2, 2.55e+2, -441000.0, -441000.0, 0.0, 0.0, 0.0, -441000.0, -441000.0, 0.0, 10.0, 10.0 
2.05e+2, 2.65e+2, -343000.0, -343000.0, 0.0, 0.0, 0.0, -343000.0, -343000.0, 0.0, 10.0, 10.0 
2.05e+2, 2.75e+2, -245000.0, -245000.0, 0.0, 0.0, 0.0, -245000.0, -245000.0, 0.0, 10.0, 10.0 
2.05e+2, 2.85e+2, -147000.0, -147000.0, 0.0, 0.0, 0.0, -147000.0, -147000.0, 0.0, 10.0, 10.0 
2.05e+2, 2.95e+2, -49000.0, -49000.0, 0.0, 0.0, 0.0, -49000.0, -49000.0, 0.0, 10.0, 10.0 
2.05e+2, 3.05e+2, 0.0, 0.0, 0.0, 0.0, 0.0, 0.0, 0.0, 0.0, 10.0, 10.0 
2.05e+2, 3.15e+2, 0.0, 0.0, 0.0, 0.0, 0.0, 0.0, 0.0, 0.0, 10.0, 10.0 
2.15e+2, 1.25e+2, -1715000.0, -1715000.0, 0.0, 0.0, 0.0, -1715000.0, -1715000.0, 0.0, 10.0, 10.0 
2.15e+2, 1.35e+2, -1617000.0, -1617000.0, 0.0, 0.0, 0.0, -1617000.0, -1617000.0, 0.0, 10.0, 10.0 
2.15e+2, 1.45e+2, -1519000.0, -1519000.0, 0.0, 0.0, 0.0, -1519000.0, -1519000.0, 0.0, 10.0, 10.0 
2.15e+2, 1.55e+2, -1421000.0, -1421000.0, 0.0, 0.0, 0.0, -1421000.0, -1421000.0, 0.0, 10.0, 10.0 
2.15e+2, 1.65e+2, -1323000.0, -1323000.0, 0.0, 0.0, 0.0, -1323000.0, -1323000.0, 0.0, 10.0, 10.0 
2.15e+2, 1.75e+2, -1225000.0, -1225000.0, 0.0, 0.0, 0.0, -1225000.0, -1225000.0, 0.0, 10.0, 10.0 
2.15e+2, 1.85e+2, -1127000.0, -1127000.0, 0.0, 0.0, 0.0, -1127000.0, -1127000.0, 0.0, 10.0, 10.0 
2.15e+2, 1.95e+2, -1029000.0, -1029000.0, 0.0, 0.0, 0.0, -1029000.0, -1029000.0, 0.0, 10.0, 10.0 
2.15e+2, 2.05e+2, -931000.0, -931000.0, 0.0, 0.0, 0.0, -931000.0, -931000.0, 0.0, 10.0, 10.0 
2.15e+2, 2.15e+2, -833000.0, -833000.0, 0.0, 0.0, 0.0, -833000.0, -833000.0, 0.0, 10.0, 10.0 
2.15e+2, 2.25e+2, -735000.0, -735000.0, 0.0, 0.0, 0.0, -735000.0, -735000.0, 0.0, 10.0, 10.0 
2.15e+2, 2.35e+2, -637000.0, -637000.0, 0.0, 0.0, 0.0, -637000.0, -637000.0, 0.0, 10.0, 10.0 
2.15e+2, 2.45e+2, -539000.0, -539000.0, 0.0, 0.0, 0.0, -539000.0, -539000.0, 0.0, 10.0, 10.0 
2.15e+2, 2.55e+2, -441000.0, -441000.0, 0.0, 0.0, 0.0, -441000.0, -441000.0, 0.0, 10.0, 10.0 
2.15e+2, 2.65e+2, -343000.0, -343000.0, 0.0, 0.0, 0.0, -343000.0, -343000.0, 0.0, 10.0, 10.0 
2.15e+2, 2.75e+2, -245000.0, -245000.0, 0.0, 0.0, 0.0, -245000.0, -245000.0, 0.0, 10.0, 10.0 
2.15e+2, 2.85e+2, -147000.0, -147000.0, 0.0, 0.0, 0.0, -147000.0, -147000.0, 0.0, 10.0, 10.0 
2.15e+2, 2.95e+2, -49000.0, -49000.0, 0.0, 0.0, 0.0, -49000.0, -49000.0, 0.0, 10.0, 10.0 
2.15e+2, 3.05e+2, 0.0, 0.0, 0.0, 0.0, 0.0, 0.0, 0.0, 0.0, 10.0, 10.0 
2.15e+2, 3.15e+2, 0.0, 0.0, 0.0, 0.0, 0.0, 0.0, 0.0, 0.0, 10.0, 10.0 
2.25e+2, 1.25e+2, -1715000.0, -1715000.0, 0.0, 0.0, 0.0, -1715000.0, -1715000.0, 0.0, 10.0, 10.0 
2.25e+2, 1.35e+2, -1617000.0, -1617000.0, 0.0, 0.0, 0.0, -1617000.0, -1617000.0, 0.0, 10.0, 10.0 
2.25e+2, 1.45e+2, -1519000.0, -1519000.0, 0.0, 0.0, 0.0, -1519000.0, -1519000.0, 0.0, 10.0, 10.0 
2.25e+2, 1.55e+2, -1421000.0, -1421000.0, 0.0, 0.0, 0.0, -1421000.0, -1421000.0, 0.0, 10.0, 10.0 
2.25e+2, 1.65e+2, -1323000.0, -1323000.0, 0.0, 0.0, 0.0, -1323000.0, -1323000.0, 0.0, 10.0, 10.0 
2.25e+2, 1.75e+2, -1225000.0, -1225000.0, 0.0, 0.0, 0.0, -1225000.0, -1225000.0, 0.0, 10.0, 10.0 
2.25e+2, 1.85e+2, -1127000.0, -1127000.0, 0.0, 0.0, 0.0, -1127000.0, -1127000.0, 0.0, 10.0, 10.0 
2.25e+2, 1.95e+2, -1029000.0, -1029000.0, 0.0, 0.0, 0.0, -1029000.0, -1029000.0, 0.0, 10.0, 10.0 
2.25e+2, 2.05e+2, -931000.0, -931000.0, 0.0, 0.0, 0.0, -931000.0, -931000.0, 0.0, 10.0, 10.0 
2.25e+2, 2.15e+2, -833000.0, -833000.0, 0.0, 0.0, 0.0, -833000.0, -833000.0, 0.0, 10.0, 10.0 
2.25e+2, 2.25e+2, -735000.0, -735000.0, 0.0, 0.0, 0.0, -735000.0, -735000.0, 0.0, 10.0, 10.0 
2.25e+2, 2.35e+2, -637000.0, -637000.0, 0.0, 0.0, 0.0, -637000.0, -637000.0, 0.0, 10.0, 10.0 
2.25e+2, 2.45e+2, -539000.0, -539000.0, 0.0, 0.0, 0.0, -539000.0, -539000.0, 0.0, 10.0, 10.0 
2.25e+2, 2.55e+2, -441000.0, -441000.0, 0.0, 0.0, 0.0, -441000.0, -441000.0, 0.0, 10.0, 10.0 
2.25e+2, 2.65e+2, -343000.0, -343000.0, 0.0, 0.0, 0.0, -343000.0, -343000.0, 0.0, 10.0, 10.0 
2.25e+2, 2.75e+2, -245000.0, -245000.0, 0.0, 0.0, 0.0, -245000.0, -245000.0, 0.0, 10.0, 10.0 
2.25e+2, 2.85e+2, -147000.0, -147000.0, 0.0, 0.0, 0.0, -147000.0, -147000.0, 0.0, 10.0, 10.0 
2.25e+2, 2.95e+2, -49000.0, -49000.0, 0.0, 0.0, 0.0, -49000.0, -49000.0, 0.0, 10.0, 10.0 
2.25e+2, 3.05e+2, 0.0, 0.0, 0.0, 0.0, 0.0, 0.0, 0.0, 0.0, 10.0, 10.0 
2.25e+2, 3.15e+2, 0.0, 0.0, 0.0, 0.0, 0.0, 0.0, 0.0, 0.0, 10.0, 10.0 
2.35e+2, 1.25e+2, -1715000.0, -1715000.0, 0.0, 0.0, 0.0, -1715000.0, -1715000.0, 0.0, 10.0, 10.0 
2.35e+2, 1.35e+2, -1617000.0, -1617000.0, 0.0, 0.0, 0.0, -1617000.0, -1617000.0, 0.0, 10.0, 10.0 
2.35e+2, 1.45e+2, -1519000.0, -1519000.0, 0.0, 0.0, 0.0, -1519000.0, -1519000.0, 0.0, 10.0, 10.0 
2.35e+2, 1.55e+2, -1421000.0, -1421000.0, 0.0, 0.0, 0.0, -1421000.0, -1421000.0, 0.0, 10.0, 10.0 
2.35e+2, 1.65e+2, -1323000.0, -1323000.0, 0.0, 0.0, 0.0, -1323000.0, -1323000.0, 0.0, 10.0, 10.0 
2.35e+2, 1.75e+2, -1225000.0, -1225000.0, 0.0, 0.0, 0.0, -1225000.0, -1225000.0, 0.0, 10.0, 10.0 
2.35e+2, 1.85e+2, -1127000.0, -1127000.0, 0.0, 0.0, 0.0, -1127000.0, -1127000.0, 0.0, 10.0, 10.0 
2.35e+2, 1.95e+2, -1029000.0, -1029000.0, 0.0, 0.0, 0.0, -1029000.0, -1029000.0, 0.0, 10.0, 10.0 
2.35e+2, 2.05e+2, -931000.0, -931000.0, 0.0, 0.0, 0.0, -931000.0, -931000.0, 0.0, 10.0, 10.0 
2.35e+2, 2.15e+2, -833000.0, -833000.0, 0.0, 0.0, 0.0, -833000.0, -833000.0, 0.0, 10.0, 10.0 
2.35e+2, 2.25e+2, -735000.0, -735000.0, 0.0, 0.0, 0.0, -735000.0, -735000.0, 0.0, 10.0, 10.0 
2.35e+2, 2.35e+2, -637000.0, -637000.0, 0.0, 0.0, 0.0, -637000.0, -637000.0, 0.0, 10.0, 10.0 
2.35e+2, 2.45e+2, -539000.0, -539000.0, 0.0, 0.0, 0.0, -539000.0, -539000.0, 0.0, 10.0, 10.0 
2.35e+2, 2.55e+2, -441000.0, -441000.0, 0.0, 0.0, 0.0, -441000.0, -441000.0, 0.0, 10.0, 10.0 
2.35e+2, 2.65e+2, -343000.0, -343000.0, 0.0, 0.0, 0.0, -343000.0, -343000.0, 0.0, 10.0, 10.0 
2.35e+2, 2.75e+2, -245000.0, -245000.0, 0.0, 0.0, 0.0, -245000.0, -245000.0, 0.0, 10.0, 10.0 
2.35e+2, 2.85e+2, -147000.0, -147000.0, 0.0, 0.0, 0.0, -147000.0, -147000.0, 0.0, 10.0, 10.0 
2.35e+2, 2.95e+2, -49000.0, -49000.0, 0.0, 0.0, 0.0, -49000.0, -49000.0, 0.0, 10.0, 10.0 
2.35e+2, 3.05e+2, 0.0, 0.0, 0.0, 0.0, 0.0, 0.0, 0.0, 0.0, 10.0, 10.0 
2.35e+2, 3.15e+2, 0.0, 0.0, 0.0, 0.0, 0.0, 0.0, 0.0, 0.0, 10.0, 10.0 
2.45e+2, 1.25e+2, -1715000.0, -1715000.0, 0.0, 0.0, 0.0, -1715000.0, -1715000.0, 0.0, 10.0, 10.0 
2.45e+2, 1.35e+2, -1617000.0, -1617000.0, 0.0, 0.0, 0.0, -1617000.0, -1617000.0, 0.0, 10.0, 10.0 
2.45e+2, 1.45e+2, -1519000.0, -1519000.0, 0.0, 0.0, 0.0, -1519000.0, -1519000.0, 0.0, 10.0, 10.0 
2.45e+2, 1.55e+2, -1421000.0, -1421000.0, 0.0, 0.0, 0.0, -1421000.0, -1421000.0, 0.0, 10.0, 10.0 
2.45e+2, 1.65e+2, -1323000.0, -1323000.0, 0.0, 0.0, 0.0, -1323000.0, -1323000.0, 0.0, 10.0, 10.0 
2.45e+2, 1.75e+2, -1225000.0, -1225000.0, 0.0, 0.0, 0.0, -1225000.0, -1225000.0, 0.0, 10.0, 10.0 
2.45e+2, 1.85e+2, -1127000.0, -1127000.0, 0.0, 0.0, 0.0, -1127000.0, -1127000.0, 0.0, 10.0, 10.0 
2.45e+2, 1.95e+2, -1029000.0, -1029000.0, 0.0, 0.0, 0.0, -1029000.0, -1029000.0, 0.0, 10.0, 10.0 
2.45e+2, 2.05e+2, -931000.0, -931000.0, 0.0, 0.0, 0.0, -931000.0, -931000.0, 0.0, 10.0, 10.0 
2.45e+2, 2.15e+2, -833000.0, -833000.0, 0.0, 0.0, 0.0, -833000.0, -833000.0, 0.0, 10.0, 10.0 
2.45e+2, 2.25e+2, -735000.0, -735000.0, 0.0, 0.0, 0.0, -735000.0, -735000.0, 0.0, 10.0, 10.0 
2.45e+2, 2.35e+2, -637000.0, -637000.0, 0.0, 0.0, 0.0, -637000.0, -637000.0, 0.0, 10.0, 10.0 
2.45e+2, 2.45e+2, -539000.0, -539000.0, 0.0, 0.0, 0.0, -539000.0, -539000.0, 0.0, 10.0, 10.0 
2.45e+2, 2.55e+2, -441000.0, -441000.0, 0.0, 0.0, 0.0, -441000.0, -441000.0, 0.0, 10.0, 10.0 
2.45e+2, 2.65e+2, -343000.0, -343000.0, 0.0, 0.0, 0.0, -343000.0, -343000.0, 0.0, 10.0, 10.0 
2.45e+2, 2.75e+2, -245000.0, -245000.0, 0.0, 0.0, 0.0, -245000.0, -245000.0, 0.0, 10.0, 10.0 
2.45e+2, 2.85e+2, -147000.0, -147000.0, 0.0, 0.0, 0.0, -147000.0, -147000.0, 0.0, 10.0, 10.0 
2.45e+2, 2.95e+2, -49000.0, -49000.0, 0.0, 0.0, 0.0, -49000.0, -49000.0, 0.0, 10.0, 10.0 
2.45e+2, 3.05e+2, 0.0, 0.0, 0.0, 0.0, 0.0, 0.0, 0.0, 0.0, 10.0, 10.0 
2.45e+2, 3.15e+2, 0.0, 0.0, 0.0, 0.0, 0.0, 0.0, 0.0, 0.0, 10.0, 10.0 
2.55e+2, 1.25e+2, -1715000.0, -1715000.0, 0.0, 0.0, 0.0, -1715000.0, -1715000.0, 0.0, 10.0, 10.0 
2.55e+2, 1.35e+2, -1617000.0, -1617000.0, 0.0, 0.0, 0.0, -1617000.0, -1617000.0, 0.0, 10.0, 10.0 
2.55e+2, 1.45e+2, -1519000.0, -1519000.0, 0.0, 0.0, 0.0, -1519000.0, -1519000.0, 0.0, 10.0, 10.0 
2.55e+2, 1.55e+2, -1421000.0, -1421000.0, 0.0, 0.0, 0.0, -1421000.0, -1421000.0, 0.0, 10.0, 10.0 
2.55e+2, 1.65e+2, -1323000.0, -1323000.0, 0.0, 0.0, 0.0, -1323000.0, -1323000.0, 0.0, 10.0, 10.0 
2.55e+2, 1.75e+2, -1225000.0, -1225000.0, 0.0, 0.0, 0.0, -1225000.0, -1225000.0, 0.0, 10.0, 10.0 
2.55e+2, 1.85e+2, -1127000.0, -1127000.0, 0.0, 0.0, 0.0, -1127000.0, -1127000.0, 0.0, 10.0, 10.0 
2.55e+2, 1.95e+2, -1029000.0, -1029000.0, 0.0, 0.0, 0.0, -1029000.0, -1029000.0, 0.0, 10.0, 10.0 
2.55e+2, 2.05e+2, -931000.0, -931000.0, 0.0, 0.0, 0.0, -931000.0, -931000.0, 0.0, 10.0, 10.0 
2.55e+2, 2.15e+2, -833000.0, -833000.0, 0.0, 0.0, 0.0, -833000.0, -833000.0, 0.0, 10.0, 10.0 
2.55e+2, 2.25e+2, -735000.0, -735000.0, 0.0, 0.0, 0.0, -735000.0, -735000.0, 0.0, 10.0, 10.0 
2.55e+2, 2.35e+2, -637000.0, -637000.0, 0.0, 0.0, 0.0, -637000.0, -637000.0, 0.0, 10.0, 10.0 
2.55e+2, 2.45e+2, -539000.0, -539000.0, 0.0, 0.0, 0.0, -539000.0, -539000.0, 0.0, 10.0, 10.0 
2.55e+2, 2.55e+2, -441000.0, -441000.0, 0.0, 0.0, 0.0, -441000.0, -441000.0, 0.0, 10.0, 10.0 
2.55e+2, 2.65e+2, -343000.0, -343000.0, 0.0, 0.0, 0.0, -343000.0, -343000.0, 0.0, 10.0, 10.0 
2.55e+2, 2.75e+2, -245000.0, -245000.0, 0.0, 0.0, 0.0, -245000.0, -245000.0, 0.0, 10.0, 10.0 
2.55e+2, 2.85e+2, -147000.0, -147000.0, 0.0, 0.0, 0.0, -147000.0, -147000.0, 0.0, 10.0, 10.0 
2.55e+2, 2.95e+2, -49000.0, -49000.0, 0.0, 0.0, 0.0, -49000.0, -49000.0, 0.0, 10.0, 10.0 
2.55e+2, 3.05e+2, 0.0, 0.0, 0.0, 0.0, 0.0, 0.0, 0.0, 0.0, 10.0, 10.0 
2.55e+2, 3.15e+2, 0.0, 0.0, 0.0, 0.0, 0.0, 0.0, 0.0, 0.0, 10.0, 10.0 
2.65e+2, 1.25e+2, -1715000.0, -1715000.0, 0.0, 0.0, 0.0, -1715000.0, -1715000.0, 0.0, 10.0, 10.0 
2.65e+2, 1.35e+2, -1617000.0, -1617000.0, 0.0, 0.0, 0.0, -1617000.0, -1617000.0, 0.0, 10.0, 10.0 
2.65e+2, 1.45e+2, -1519000.0, -1519000.0, 0.0, 0.0, 0.0, -1519000.0, -1519000.0, 0.0, 10.0, 10.0 
2.65e+2, 1.55e+2, -1421000.0, -1421000.0, 0.0, 0.0, 0.0, -1421000.0, -1421000.0, 0.0, 10.0, 10.0 
2.65e+2, 1.65e+2, -1323000.0, -1323000.0, 0.0, 0.0, 0.0, -1323000.0, -1323000.0, 0.0, 10.0, 10.0 
2.65e+2, 1.75e+2, -1225000.0, -1225000.0, 0.0, 0.0, 0.0, -1225000.0, -1225000.0, 0.0, 10.0, 10.0 
2.65e+2, 1.85e+2, -1127000.0, -1127000.0, 0.0, 0.0, 0.0, -1127000.0, -1127000.0, 0.0, 10.0, 10.0 
2.65e+2, 1.95e+2, -1029000.0, -1029000.0, 0.0, 0.0, 0.0, -1029000.0, -1029000.0, 0.0, 10.0, 10.0 
2.65e+2, 2.05e+2, -931000.0, -931000.0, 0.0, 0.0, 0.0, -931000.0, -931000.0, 0.0, 10.0, 10.0 
2.65e+2, 2.15e+2, -833000.0, -833000.0, 0.0, 0.0, 0.0, -833000.0, -833000.0, 0.0, 10.0, 10.0 
2.65e+2, 2.25e+2, -735000.0, -735000.0, 0.0, 0.0, 0.0, -735000.0, -735000.0, 0.0, 10.0, 10.0 
2.65e+2, 2.35e+2, -637000.0, -637000.0, 0.0, 0.0, 0.0, -637000.0, -637000.0, 0.0, 10.0, 10.0 
2.65e+2, 2.45e+2, -539000.0, -539000.0, 0.0, 0.0, 0.0, -539000.0, -539000.0, 0.0, 10.0, 10.0 
2.65e+2, 2.55e+2, -441000.0, -441000.0, 0.0, 0.0, 0.0, -441000.0, -441000.0, 0.0, 10.0, 10.0 
2.65e+2, 2.65e+2, -343000.0, -343000.0, 0.0, 0.0, 0.0, -343000.0, -343000.0, 0.0, 10.0, 10.0 
2.65e+2, 2.75e+2, -245000.0, -245000.0, 0.0, 0.0, 0.0, -245000.0, -245000.0, 0.0, 10.0, 10.0 
2.65e+2, 2.85e+2, -147000.0, -147000.0, 0.0, 0.0, 0.0, -147000.0, -147000.0, 0.0, 10.0, 10.0 
2.65e+2, 2.95e+2, -49000.0, -49000.0, 0.0, 0.0, 0.0, -49000.0, -49000.0, 0.0, 10.0, 10.0 
2.65e+2, 3.05e+2, 0.0, 0.0, 0.0, 0.0, 0.0, 0.0, 0.0, 0.0, 10.0, 10.0 
2.65e+2, 3.15e+2, 0.0, 0.0, 0.0, 0.0, 0.0, 0.0, 0.0, 0.0, 10.0, 10.0 
2.75e+2, 1.25e+2, -1715000.0, -1715000.0, 0.0, 0.0, 0.0, -1715000.0, -1715000.0, 0.0, 10.0, 10.0 
2.75e+2, 1.35e+2, -1617000.0, -1617000.0, 0.0, 0.0, 0.0, -1617000.0, -1617000.0, 0.0, 10.0, 10.0 
2.75e+2, 1.45e+2, -1519000.0, -1519000.0, 0.0, 0.0, 0.0, -1519000.0, -1519000.0, 0.0, 10.0, 10.0 
2.75e+2, 1.55e+2, -1421000.0, -1421000.0, 0.0, 0.0, 0.0, -1421000.0, -1421000.0, 0.0, 10.0, 10.0 
2.75e+2, 1.65e+2, -1323000.0, -1323000.0, 0.0, 0.0, 0.0, -1323000.0, -1323000.0, 0.0, 10.0, 10.0 
2.75e+2, 1.75e+2, -1225000.0, -1225000.0, 0.0, 0.0, 0.0, -1225000.0, -1225000.0, 0.0, 10.0, 10.0 
2.75e+2, 1.85e+2, -1127000.0, -1127000.0, 0.0, 0.0, 0.0, -1127000.0, -1127000.0, 0.0, 10.0, 10.0 
2.75e+2, 1.95e+2, -1029000.0, -1029000.0, 0.0, 0.0, 0.0, -1029000.0, -1029000.0, 0.0, 10.0, 10.0 
2.75e+2, 2.05e+2, -931000.0, -931000.0, 0.0, 0.0, 0.0, -931000.0, -931000.0, 0.0, 10.0, 10.0 
2.75e+2, 2.15e+2, -833000.0, -833000.0, 0.0, 0.0, 0.0, -833000.0, -833000.0, 0.0, 10.0, 10.0 
2.75e+2, 2.25e+2, -735000.0, -735000.0, 0.0, 0.0, 0.0, -735000.0, -735000.0, 0.0, 10.0, 10.0 
2.75e+2, 2.35e+2, -637000.0, -637000.0, 0.0, 0.0, 0.0, -637000.0, -637000.0, 0.0, 10.0, 10.0 
2.75e+2, 2.45e+2, -539000.0, -539000.0, 0.0, 0.0, 0.0, -539000.0, -539000.0, 0.0, 10.0, 10.0 
2.75e+2, 2.55e+2, -441000.0, -441000.0, 0.0, 0.0, 0.0, -441000.0, -441000.0, 0.0, 10.0, 10.0 
2.75e+2, 2.65e+2, -343000.0, -343000.0, 0.0, 0.0, 0.0, -343000.0, -343000.0, 0.0, 10.0, 10.0 
2.75e+2, 2.75e+2, -245000.0, -245000.0, 0.0, 0.0, 0.0, -245000.0, -245000.0, 0.0, 10.0, 10.0 
2.75e+2, 2.85e+2, -147000.0, -147000.0, 0.0, 0.0, 0.0, -147000.0, -147000.0, 0.0, 10.0, 10.0 
2.75e+2, 2.95e+2, -49000.0, -49000.0, 0.0, 0.0, 0.0, -49000.0, -49000.0, 0.0, 10.0, 10.0 
2.75e+2, 3.05e+2, 0.0, 0.0, 0.0, 0.0, 0.0, 0.0, 0.0, 0.0, 10.0, 10.0 
2.75e+2, 3.15e+2, 0.0, 0.0, 0.0, 0.0, 0.0, 0.0, 0.0, 0.0, 10.0, 10.0 
2.85e+2, 1.25e+2, -1715000.0, -1715000.0, 0.0, 0.0, 0.0, -1715000.0, -1715000.0, 0.0, 10.0, 10.0 
2.85e+2, 1.35e+2, -1617000.0, -1617000.0, 0.0, 0.0, 0.0, -1617000.0, -1617000.0, 0.0, 10.0, 10.0 
2.85e+2, 1.45e+2, -1519000.0, -1519000.0, 0.0, 0.0, 0.0, -1519000.0, -1519000.0, 0.0, 10.0, 10.0 
2.85e+2, 1.55e+2, -1421000.0, -1421000.0, 0.0, 0.0, 0.0, -1421000.0, -1421000.0, 0.0, 10.0, 10.0 
2.85e+2, 1.65e+2, -1323000.0, -1323000.0, 0.0, 0.0, 0.0, -1323000.0, -1323000.0, 0.0, 10.0, 10.0 
2.85e+2, 1.75e+2, -1225000.0, -1225000.0, 0.0, 0.0, 0.0, -1225000.0, -1225000.0, 0.0, 10.0, 10.0 
2.85e+2, 1.85e+2, -1127000.0, -1127000.0, 0.0, 0.0, 0.0, -1127000.0, -1127000.0, 0.0, 10.0, 10.0 
2.85e+2, 1.95e+2, -1029000.0, -1029000.0, 0.0, 0.0, 0.0, -1029000.0, -1029000.0, 0.0, 10.0, 10.0 
2.85e+2, 2.05e+2, -931000.0, -931000.0, 0.0, 0.0, 0.0, -931000.0, -931000.0, 0.0, 10.0, 10.0 
2.85e+2, 2.15e+2, -833000.0, -833000.0, 0.0, 0.0, 0.0, -833000.0, -833000.0, 0.0, 10.0, 10.0 
2.85e+2, 2.25e+2, -735000.0, -735000.0, 0.0, 0.0, 0.0, -735000.0, -735000.0, 0.0, 10.0, 10.0 
2.85e+2, 2.35e+2, -637000.0, -637000.0, 0.0, 0.0, 0.0, -637000.0, -637000.0, 0.0, 10.0, 10.0 
2.85e+2, 2.45e+2, -539000.0, -539000.0, 0.0, 0.0, 0.0, -539000.0, -539000.0, 0.0, 10.0, 10.0 
2.85e+2, 2.55e+2, -441000.0, -441000.0, 0.0, 0.0, 0.0, -441000.0, -441000.0, 0.0, 10.0, 10.0 
2.85e+2, 2.65e+2, -343000.0, -343000.0, 0.0, 0.0, 0.0, -343000.0, -343000.0, 0.0, 10.0, 10.0 
2.85e+2, 2.75e+2, -245000.0, -245000.0, 0.0, 0.0, 0.0, -245000.0, -245000.0, 0.0, 10.0, 10.0 
2.85e+2, 2.85e+2, -147000.0, -147000.0, 0.0, 0.0, 0.0, -147000.0, -147000.0, 0.0, 10.0, 10.0 
2.85e+2, 2.95e+2, -49000.0, -49000.0, 0.0, 0.0, 0.0, -49000.0, -49000.0, 0.0, 10.0, 10.0 
2.85e+2, 3.05e+2, 0.0, 0.0, 0.0, 0.0, 0.0, 0.0, 0.0, 0.0, 10.0, 10.0 
2.85e+2, 3.15e+2, 0.0, 0.0, 0.0, 0.0, 0.0, 0.0, 0.0, 0.0, 10.0, 10.0 
2.95e+2, 1.25e+2, -1715000.0, -1715000.0, 0.0, 0.0, 0.0, -1715000.0, -1715000.0, 0.0, 10.0, 10.0 
2.95e+2, 1.35e+2, -1617000.0, -1617000.0, 0.0, 0.0, 0.0, -1617000.0, -1617000.0, 0.0, 10.0, 10.0 
2.95e+2, 1.45e+2, -1519000.0, -1519000.0, 0.0, 0.0, 0.0, -1519000.0, -1519000.0, 0.0, 10.0, 10.0 
2.95e+2, 1.55e+2, -1421000.0, -1421000.0, 0.0, 0.0, 0.0, -1421000.0, -1421000.0, 0.0, 10.0, 10.0 
2.95e+2, 1.65e+2, -1323000.0, -1323000.0, 0.0, 0.0, 0.0, -1323000.0, -1323000.0, 0.0, 10.0, 10.0 
2.95e+2, 1.75e+2, -1225000.0, -1225000.0, 0.0, 0.0, 0.0, -1225000.0, -1225000.0, 0.0, 10.0, 10.0 
2.95e+2, 1.85e+2, -1127000.0, -1127000.0, 0.0, 0.0, 0.0, -1127000.0, -1127000.0, 0.0, 10.0, 10.0 
2.95e+2, 1.95e+2, -1029000.0, -1029000.0, 0.0, 0.0, 0.0, -1029000.0, -1029000.0, 0.0, 10.0, 10.0 
2.95e+2, 2.05e+2, -931000.0, -931000.0, 0.0, 0.0, 0.0, -931000.0, -931000.0, 0.0, 10.0, 10.0 
2.95e+2, 2.15e+2, -833000.0, -833000.0, 0.0, 0.0, 0.0, -833000.0, -833000.0, 0.0, 10.0, 10.0 
2.95e+2, 2.25e+2, -735000.0, -735000.0, 0.0, 0.0, 0.0, -735000.0, -735000.0, 0.0, 10.0, 10.0 
2.95e+2, 2.35e+2, -637000.0, -637000.0, 0.0, 0.0, 0.0, -637000.0, -637000.0, 0.0, 10.0, 10.0 
2.95e+2, 2.45e+2, -539000.0, -539000.0, 0.0, 0.0, 0.0, -539000.0, -539000.0, 0.0, 10.0, 10.0 
2.95e+2, 2.55e+2, -441000.0, -441000.0, 0.0, 0.0, 0.0, -441000.0, -441000.0, 0.0, 10.0, 10.0 
2.95e+2, 2.65e+2, -343000.0, -343000.0, 0.0, 0.0, 0.0, -343000.0, -343000.0, 0.0, 10.0, 10.0 
2.95e+2, 2.75e+2, -245000.0, -245000.0, 0.0, 0.0, 0.0, -245000.0, -245000.0, 0.0, 10.0, 10.0 
2.95e+2, 2.85e+2, -147000.0, -147000.0, 0.0, 0.0, 0.0, -147000.0, -147000.0, 0.0, 10.0, 10.0 
2.95e+2, 2.95e+2, -49000.0, -49000.0, 0.0, 0.0, 0.0, -49000.0, -49000.0, 0.0, 10.0, 10.0 
2.95e+2, 3.05e+2, 0.0, 0.0, 0.0, 0.0, 0.0, 0.0, 0.0, 0.0, 10.0, 10.0 
2.95e+2, 3.15e+2, 0.0, 0.0, 0.0, 0.0, 0.0, 0.0, 0.0, 0.0, 10.0, 10.0 
3.05e+2, 1.25e+2, -1715000.0, -1715000.0, 0.0, 0.0, 0.0, -1715000.0, -1715000.0, 0.0, 10.0, 10.0 
3.05e+2, 1.35e+2, -1617000.0, -1617000.0, 0.0, 0.0, 0.0, -1617000.0, -1617000.0, 0.0, 10.0, 10.0 
3.05e+2, 1.45e+2, -1519000.0, -1519000.0, 0.0, 0.0, 0.0, -1519000.0, -1519000.0, 0.0, 10.0, 10.0 
3.05e+2, 1.55e+2, -1421000.0, -1421000.0, 0.0, 0.0, 0.0, -1421000.0, -1421000.0, 0.0, 10.0, 10.0 
3.05e+2, 1.65e+2, -1323000.0, -1323000.0, 0.0, 0.0, 0.0, -1323000.0, -1323000.0, 0.0, 10.0, 10.0 
3.05e+2, 1.75e+2, -1225000.0, -1225000.0, 0.0, 0.0, 0.0, -1225000.0, -1225000.0, 0.0, 10.0, 10.0 
3.05e+2, 1.85e+2, -1127000.0, -1127000.0, 0.0, 0.0, 0.0, -1127000.0, -1127000.0, 0.0, 10.0, 10.0 
3.05e+2, 1.95e+2, -1029000.0, -1029000.0, 0.0, 0.0, 0.0, -1029000.0, -1029000.0, 0.0, 10.0, 10.0 
3.05e+2, 2.05e+2, -931000.0, -931000.0, 0.0, 0.0, 0.0, -931000.0, -931000.0, 0.0, 10.0, 10.0 
3.05e+2, 2.15e+2, -833000.0, -833000.0, 0.0, 0.0, 0.0, -833000.0, -833000.0, 0.0, 10.0, 10.0 
3.05e+2, 2.25e+2, -735000.0, -735000.0, 0.0, 0.0, 0.0, -735000.0, -735000.0, 0.0, 10.0, 10.0 
3.05e+2, 2.35e+2, -637000.0, -637000.0, 0.0, 0.0, 0.0, -637000.0, -637000.0, 0.0, 10.0, 10.0 
3.05e+2, 2.45e+2, -539000.0, -539000.0, 0.0, 0.0, 0.0, -539000.0, -539000.0, 0.0, 10.0, 10.0 
3.05e+2, 2.55e+2, -441000.0, -441000.0, 0.0, 0.0, 0.0, -441000.0, -441000.0, 0.0, 10.0, 10.0 
3.05e+2, 2.65e+2, -343000.0, -343000.0, 0.0, 0.0, 0.0, -343000.0, -343000.0, 0.0, 10.0, 10.0 
3.05e+2, 2.75e+2, -245000.0, -245000.0, 0.0, 0.0, 0.0, -245000.0, -245000.0, 0.0, 10.0, 10.0 
3.05e+2, 2.85e+2, -147000.0, -147000.0, 0.0, 0.0, 0.0, -147000.0, -147000.0, 0.0, 10.0, 10.0 
3.05e+2, 2.95e+2, -49000.0, -49000.0, 0.0, 0.0, 0.0, -49000.0, -49000.0, 0.0, 10.0, 10.0 
3.05e+2, 3.05e+2, 0.0, 0.0, 0.0, 0.0, 0.0, 0.0, 0.0, 0.0, 10.0, 10.0 
3.05e+2, 3.15e+2, 0.0, 0.0, 0.0, 0.0, 0.0, 0.0, 0.0, 0.0, 10.0, 10.0 
3.15e+2, 1.25e+2, -1715000.0, -1715000.0, 0.0, 0.0, 0.0, -1715000.0, -1715000.0, 0.0, 10.0, 10.0 
3.15e+2, 1.35e+2, -1617000.0, -1617000.0, 0.0, 0.0, 0.0, -1617000.0, -1617000.0, 0.0, 10.0, 10.0 
3.15e+2, 1.45e+2, -1519000.0, -1519000.0, 0.0, 0.0, 0.0, -1519000.0, -1519000.0, 0.0, 10.0, 10.0 
3.15e+2, 1.55e+2, -1421000.0, -1421000.0, 0.0, 0.0, 0.0, -1421000.0, -1421000.0, 0.0, 10.0, 10.0 
3.15e+2, 1.65e+2, -1323000.0, -1323000.0, 0.0, 0.0, 0.0, -1323000.0, -1323000.0, 0.0, 10.0, 10.0 
3.15e+2, 1.75e+2, -1225000.0, -1225000.0, 0.0, 0.0, 0.0, -1225000.0, -1225000.0, 0.0, 10.0, 10.0 
3.15e+2, 1.85e+2, -1127000.0, -1127000.0, 0.0, 0.0, 0.0, -1127000.0, -1127000.0, 0.0, 10.0, 10.0 
3.15e+2, 1.95e+2, -1029000.0, -1029000.0, 0.0, 0.0, 0.0, -1029000.0, -1029000.0, 0.0, 10.0, 10.0 
3.15e+2, 2.05e+2, -931000.0, -931000.0, 0.0, 0.0, 0.0, -931000.0, -931000.0, 0.0, 10.0, 10.0 
3.15e+2, 2.15e+2, -833000.0, -833000.0, 0.0, 0.0, 0.0, -833000.0, -833000.0, 0.0, 10.0, 10.0 
3.15e+2, 2.25e+2, -735000.0, -735000.0, 0.0, 0.0, 0.0, -735000.0, -735000.0, 0.0, 10.0, 10.0 
3.15e+2, 2.35e+2, -637000.0, -637000.0, 0.0, 0.0, 0.0, -637000.0, -637000.0, 0.0, 10.0, 10.0 
3.15e+2, 2.45e+2, -539000.0, -539000.0, 0.0, 0.0, 0.0, -539000.0, -539000.0, 0.0, 10.0, 10.0 
3.15e+2, 2.55e+2, -441000.0, -441000.0, 0.0, 0.0, 0.0, -441000.0, -441000.0, 0.0, 10.0, 10.0 
3.15e+2, 2.65e+2, -343000.0, -343000.0, 0.0, 0.0, 0.0, -343000.0, -343000.0, 0.0, 10.0, 10.0 
3.15e+2, 2.75e+2, -245000.0, -245000.0, 0.0, 0.0, 0.0, -245000.0, -245000.0, 0.0, 10.0, 10.0 
3.15e+2, 2.85e+2, -147000.0, -147000.0, 0.0, 0.0, 0.0, -147000.0, -147000.0, 0.0, 10.0, 10.0 
3.15e+2, 2.95e+2, -49000.0, -49000.0, 0.0, 0.0, 0.0, -49000.0, -49000.0, 0.0, 10.0, 10.0 
3.15e+2, 3.05e+2, 0.0, 0.0, 0.0, 0.0, 0.0, 0.0, 0.0, 0.0, 10.0, 10.0 
3.15e+2, 3.15e+2, 0.0, 0.0, 0.0, 0.0, 0.0, 0.0, 0.0, 0.0, 10.0, 10.0 
3.25e+2, 1.25e+2, -1715000.0, -1715000.0, 0.0, 0.0, 0.0, -1715000.0, -1715000.0, 0.0, 10.0, 10.0 
3.25e+2, 1.35e+2, -1617000.0, -1617000.0, 0.0, 0.0, 0.0, -1617000.0, -1617000.0, 0.0, 10.0, 10.0 
3.25e+2, 1.45e+2, -1519000.0, -1519000.0, 0.0, 0.0, 0.0, -1519000.0, -1519000.0, 0.0, 10.0, 10.0 
3.25e+2, 1.55e+2, -1421000.0, -1421000.0, 0.0, 0.0, 0.0, -1421000.0, -1421000.0, 0.0, 10.0, 10.0 
3.25e+2, 1.65e+2, -1323000.0, -1323000.0, 0.0, 0.0, 0.0, -1323000.0, -1323000.0, 0.0, 10.0, 10.0 
3.25e+2, 1.75e+2, -1225000.0, -1225000.0, 0.0, 0.0, 0.0, -1225000.0, -1225000.0, 0.0, 10.0, 10.0 
3.25e+2, 1.85e+2, -1127000.0, -1127000.0, 0.0, 0.0, 0.0, -1127000.0, -1127000.0, 0.0, 10.0, 10.0 
3.25e+2, 1.95e+2, -1029000.0, -1029000.0, 0.0, 0.0, 0.0, -1029000.0, -1029000.0, 0.0, 10.0, 10.0 
3.25e+2, 2.05e+2, -931000.0, -931000.0, 0.0, 0.0, 0.0, -931000.0, -931000.0, 0.0, 10.0, 10.0 
3.25e+2, 2.15e+2, -833000.0, -833000.0, 0.0, 0.0, 0.0, -833000.0, -833000.0, 0.0, 10.0, 10.0 
3.25e+2, 2.25e+2, -735000.0, -735000.0, 0.0, 0.0, 0.0, -735000.0, -735000.0, 0.0, 10.0, 10.0 
3.25e+2, 2.35e+2, -637000.0, -637000.0, 0.0, 0.0, 0.0, -637000.0, -637000.0, 0.0, 10.0, 10.0 
3.25e+2, 2.45e+2, -539000.0, -539000.0, 0.0, 0.0, 0.0, -539000.0, -539000.0, 0.0, 10.0, 10.0 
3.25e+2, 2.55e+2, -441000.0, -441000.0, 0.0, 0.0, 0.0, -441000.0, -441000.0, 0.0, 10.0, 10.0 
3.25e+2, 2.65e+2, -343000.0, -343000.0, 0.0, 0.0, 0.0, -343000.0, -343000.0, 0.0, 10.0, 10.0 
3.25e+2, 2.75e+2, -245000.0, -245000.0, 0.0, 0.0, 0.0, -245000.0, -245000.0, 0.0, 10.0, 10.0 
3.25e+2, 2.85e+2, -147000.0, -147000.0, 0.0, 0.0, 0.0, -147000.0, -147000.0, 0.0, 10.0, 10.0 
3.25e+2, 2.95e+2, -49000.0, -49000.0, 0.0, 0.0, 0.0, -49000.0, -49000.0, 0.0, 10.0, 10.0 
3.25e+2, 3.05e+2, 0.0, 0.0, 0.0, 0.0, 0.0, 0.0, 0.0, 0.0, 10.0, 10.0 
3.25e+2, 3.15e+2, 0.0, 0.0, 0.0, 0.0, 0.0, 0.0, 0.0, 0.0, 10.0, 10.0 
3.35e+2, 1.25e+2, -1715000.0, -1715000.0, 0.0, 0.0, 0.0, -1715000.0, -1715000.0, 0.0, 10.0, 10.0 
3.35e+2, 1.35e+2, -1617000.0, -1617000.0, 0.0, 0.0, 0.0, -1617000.0, -1617000.0, 0.0, 10.0, 10.0 
3.35e+2, 1.45e+2, -1519000.0, -1519000.0, 0.0, 0.0, 0.0, -1519000.0, -1519000.0, 0.0, 10.0, 10.0 
3.35e+2, 1.55e+2, -1421000.0, -1421000.0, 0.0, 0.0, 0.0, -1421000.0, -1421000.0, 0.0, 10.0, 10.0 
3.35e+2, 1.65e+2, -1323000.0, -1323000.0, 0.0, 0.0, 0.0, -1323000.0, -1323000.0, 0.0, 10.0, 10.0 
3.35e+2, 1.75e+2, -1225000.0, -1225000.0, 0.0, 0.0, 0.0, -1225000.0, -1225000.0, 0.0, 10.0, 10.0 
3.35e+2, 1.85e+2, -1127000.0, -1127000.0, 0.0, 0.0, 0.0, -1127000.0, -1127000.0, 0.0, 10.0, 10.0 
3.35e+2, 1.95e+2, -1029000.0, -1029000.0, 0.0, 0.0, 0.0, -1029000.0, -1029000.0, 0.0, 10.0, 10.0 
3.35e+2, 2.05e+2, -931000.0, -931000.0, 0.0, 0.0, 0.0, -931000.0, -931000.0, 0.0, 10.0, 10.0 
3.35e+2, 2.15e+2, -833000.0, -833000.0, 0.0, 0.0, 0.0, -833000.0, -833000.0, 0.0, 10.0, 10.0 
3.35e+2, 2.25e+2, -735000.0, -735000.0, 0.0, 0.0, 0.0, -735000.0, -735000.0, 0.0, 10.0, 10.0 
3.35e+2, 2.35e+2, -637000.0, -637000.0, 0.0, 0.0, 0.0, -637000.0, -637000.0, 0.0, 10.0, 10.0 
3.35e+2, 2.45e+2, -539000.0, -539000.0, 0.0, 0.0, 0.0, -539000.0, -539000.0, 0.0, 10.0, 10.0 
3.35e+2, 2.55e+2, -441000.0, -441000.0, 0.0, 0.0, 0.0, -441000.0, -441000.0, 0.0, 10.0, 10.0 
3.35e+2, 2.65e+2, -343000.0, -343000.0, 0.0, 0.0, 0.0, -343000.0, -343000.0, 0.0, 10.0, 10.0 
3.35e+2, 2.75e+2, -245000.0, -245000.0, 0.0, 0.0, 0.0, -245000.0, -245000.0, 0.0, 10.0, 10.0 
3.35e+2, 2.85e+2, -147000.0, -147000.0, 0.0, 0.0, 0.0, -147000.0, -147000.0, 0.0, 10.0, 10.0 
3.35e+2, 2.95e+2, -49000.0, -49000.0, 0.0, 0.0, 0.0, -49000.0, -49000.0, 0.0, 10.0, 10.0 
3.35e+2, 3.05e+2, 0.0, 0.0, 0.0, 0.0, 0.0, 0.0, 0.0, 0.0, 10.0, 10.0 
3.35e+2, 3.15e+2, 0.0, 0.0, 0.0, 0.0, 0.0, 0.0, 0.0, 0.0, 10.0, 10.0 
3.45e+2, 1.25e+2, -1715000.0, -1715000.0, 0.0, 0.0, 0.0, -1715000.0, -1715000.0, 0.0, 10.0, 10.0 
3.45e+2, 1.35e+2, -1617000.0, -1617000.0, 0.0, 0.0, 0.0, -1617000.0, -1617000.0, 0.0, 10.0, 10.0 
3.45e+2, 1.45e+2, -1519000.0, -1519000.0, 0.0, 0.0, 0.0, -1519000.0, -1519000.0, 0.0, 10.0, 10.0 
3.45e+2, 1.55e+2, -1421000.0, -1421000.0, 0.0, 0.0, 0.0, -1421000.0, -1421000.0, 0.0, 10.0, 10.0 
3.45e+2, 1.65e+2, -1323000.0, -1323000.0, 0.0, 0.0, 0.0, -1323000.0, -1323000.0, 0.0, 10.0, 10.0 
3.45e+2, 1.75e+2, -1225000.0, -1225000.0, 0.0, 0.0, 0.0, -1225000.0, -1225000.0, 0.0, 10.0, 10.0 
3.45e+2, 1.85e+2, -1127000.0, -1127000.0, 0.0, 0.0, 0.0, -1127000.0, -1127000.0, 0.0, 10.0, 10.0 
3.45e+2, 1.95e+2, -1029000.0, -1029000.0, 0.0, 0.0, 0.0, -1029000.0, -1029000.0, 0.0, 10.0, 10.0 
3.45e+2, 2.05e+2, -931000.0, -931000.0, 0.0, 0.0, 0.0, -931000.0, -931000.0, 0.0, 10.0, 10.0 
3.45e+2, 2.15e+2, -833000.0, -833000.0, 0.0, 0.0, 0.0, -833000.0, -833000.0, 0.0, 10.0, 10.0 
3.45e+2, 2.25e+2, -735000.0, -735000.0, 0.0, 0.0, 0.0, -735000.0, -735000.0, 0.0, 10.0, 10.0 
3.45e+2, 2.35e+2, -637000.0, -637000.0, 0.0, 0.0, 0.0, -637000.0, -637000.0, 0.0, 10.0, 10.0 
3.45e+2, 2.45e+2, -539000.0, -539000.0, 0.0, 0.0, 0.0, -539000.0, -539000.0, 0.0, 10.0, 10.0 
3.45e+2, 2.55e+2, -441000.0, -441000.0, 0.0, 0.0, 0.0, -441000.0, -441000.0, 0.0, 10.0, 10.0 
3.45e+2, 2.65e+2, -343000.0, -343000.0, 0.0, 0.0, 0.0, -343000.0, -343000.0, 0.0, 10.0, 10.0 
3.45e+2, 2.75e+2, -245000.0, -245000.0, 0.0, 0.0, 0.0, -245000.0, -245000.0, 0.0, 10.0, 10.0 
3.45e+2, 2.85e+2, -147000.0, -147000.0, 0.0, 0.0, 0.0, -147000.0, -147000.0, 0.0, 10.0, 10.0 
3.45e+2, 2.95e+2, -49000.0, -49000.0, 0.0, 0.0, 0.0, -49000.0, -49000.0, 0.0, 10.0, 10.0 
3.45e+2, 3.05e+2, 0.0, 0.0, 0.0, 0.0, 0.0, 0.0, 0.0, 0.0, 10.0, 10.0 
3.45e+2, 3.15e+2, 0.0, 0.0, 0.0, 0.0, 0.0, 0.0, 0.0, 0.0, 10.0, 10.0 
3.55e+2, 1.25e+2, -1715000.0, -1715000.0, 0.0, 0.0, 0.0, -1715000.0, -1715000.0, 0.0, 10.0, 10.0 
3.55e+2, 1.35e+2, -1617000.0, -1617000.0, 0.0, 0.0, 0.0, -1617000.0, -1617000.0, 0.0, 10.0, 10.0 
3.55e+2, 1.45e+2, -1519000.0, -1519000.0, 0.0, 0.0, 0.0, -1519000.0, -1519000.0, 0.0, 10.0, 10.0 
3.55e+2, 1.55e+2, -1421000.0, -1421000.0, 0.0, 0.0, 0.0, -1421000.0, -1421000.0, 0.0, 10.0, 10.0 
3.55e+2, 1.65e+2, -1323000.0, -1323000.0, 0.0, 0.0, 0.0, -1323000.0, -1323000.0, 0.0, 10.0, 10.0 
3.55e+2, 1.75e+2, -1225000.0, -1225000.0, 0.0, 0.0, 0.0, -1225000.0, -1225000.0, 0.0, 10.0, 10.0 
3.55e+2, 1.85e+2, -1127000.0, -1127000.0, 0.0, 0.0, 0.0, -1127000.0, -1127000.0, 0.0, 10.0, 10.0 
3.55e+2, 1.95e+2, -1029000.0, -1029000.0, 0.0, 0.0, 0.0, -1029000.0, -1029000.0, 0.0, 10.0, 10.0 
3.55e+2, 2.05e+2, -931000.0, -931000.0, 0.0, 0.0, 0.0, -931000.0, -931000.0, 0.0, 10.0, 10.0 
3.55e+2, 2.15e+2, -833000.0, -833000.0, 0.0, 0.0, 0.0, -833000.0, -833000.0, 0.0, 10.0, 10.0 
3.55e+2, 2.25e+2, -735000.0, -735000.0, 0.0, 0.0, 0.0, -735000.0, -735000.0, 0.0, 10.0, 10.0 
3.55e+2, 2.35e+2, -637000.0, -637000.0, 0.0, 0.0, 0.0, -637000.0, -637000.0, 0.0, 10.0, 10.0 
3.55e+2, 2.45e+2, -539000.0, -539000.0, 0.0, 0.0, 0.0, -539000.0, -539000.0, 0.0, 10.0, 10.0 
3.55e+2, 2.55e+2, -441000.0, -441000.0, 0.0, 0.0, 0.0, -441000.0, -441000.0, 0.0, 10.0, 10.0 
3.55e+2, 2.65e+2, -343000.0, -343000.0, 0.0, 0.0, 0.0, -343000.0, -343000.0, 0.0, 10.0, 10.0 
3.55e+2, 2.75e+2, -245000.0, -245000.0, 0.0, 0.0, 0.0, -245000.0, -245000.0, 0.0, 10.0, 10.0 
3.55e+2, 2.85e+2, -147000.0, -147000.0, 0.0, 0.0, 0.0, -147000.0, -147000.0, 0.0, 10.0, 10.0 
3.55e+2, 2.95e+2, -49000.0, -49000.0, 0.0, 0.0, 0.0, -49000.0, -49000.0, 0.0, 10.0, 10.0 
3.55e+2, 3.05e+2, 0.0, 0.0, 0.0, 0.0, 0.0, 0.0, 0.0, 0.0, 10.0, 10.0 
3.55e+2, 3.15e+2, 0.0, 0.0, 0.0, 0.0, 0.0, 0.0, 0.0, 0.0, 10.0, 10.0 
3.65e+2, 1.25e+2, -1715000.0, -1715000.0, 0.0, 0.0, 0.0, -1715000.0, -1715000.0, 0.0, 10.0, 10.0 
3.65e+2, 1.35e+2, -1617000.0, -1617000.0, 0.0, 0.0, 0.0, -1617000.0, -1617000.0, 0.0, 10.0, 10.0 
3.65e+2, 1.45e+2, -1519000.0, -1519000.0, 0.0, 0.0, 0.0, -1519000.0, -1519000.0, 0.0, 10.0, 10.0 
3.65e+2, 1.55e+2, -1421000.0, -1421000.0, 0.0, 0.0, 0.0, -1421000.0, -1421000.0, 0.0, 10.0, 10.0 
3.65e+2, 1.65e+2, -1323000.0, -1323000.0, 0.0, 0.0, 0.0, -1323000.0, -1323000.0, 0.0, 10.0, 10.0 
3.65e+2, 1.75e+2, -1225000.0, -1225000.0, 0.0, 0.0, 0.0, -1225000.0, -1225000.0, 0.0, 10.0, 10.0 
3.65e+2, 1.85e+2, -1127000.0, -1127000.0, 0.0, 0.0, 0.0, -1127000.0, -1127000.0, 0.0, 10.0, 10.0 
3.65e+2, 1.95e+2, -1029000.0, -1029000.0, 0.0, 0.0, 0.0, -1029000.0, -1029000.0, 0.0, 10.0, 10.0 
3.65e+2, 2.05e+2, -931000.0, -931000.0, 0.0, 0.0, 0.0, -931000.0, -931000.0, 0.0, 10.0, 10.0 
3.65e+2, 2.15e+2, -833000.0, -833000.0, 0.0, 0.0, 0.0, -833000.0, -833000.0, 0.0, 10.0, 10.0 
3.65e+2, 2.25e+2, -735000.0, -735000.0, 0.0, 0.0, 0.0, -735000.0, -735000.0, 0.0, 10.0, 10.0 
3.65e+2, 2.35e+2, -637000.0, -637000.0, 0.0, 0.0, 0.0, -637000.0, -637000.0, 0.0, 10.0, 10.0 
3.65e+2, 2.45e+2, -539000.0, -539000.0, 0.0, 0.0, 0.0, -539000.0, -539000.0, 0.0, 10.0, 10.0 
3.65e+2, 2.55e+2, -441000.0, -441000.0, 0.0, 0.0, 0.0, -441000.0, -441000.0, 0.0, 10.0, 10.0 
3.65e+2, 2.65e+2, -343000.0, -343000.0, 0.0, 0.0, 0.0, -343000.0, -343000.0, 0.0, 10.0, 10.0 
3.65e+2, 2.75e+2, -245000.0, -245000.0, 0.0, 0.0, 0.0, -245000.0, -245000.0, 0.0, 10.0, 10.0 
3.65e+2, 2.85e+2, -147000.0, -147000.0, 0.0, 0.0, 0.0, -147000.0, -147000.0, 0.0, 10.0, 10.0 
3.65e+2, 2.95e+2, -49000.0, -49000.0, 0.0, 0.0, 0.0, -49000.0, -49000.0, 0.0, 10.0, 10.0 
3.65e+2, 3.05e+2, 0.0, 0.0, 0.0, 0.0, 0.0, 0.0, 0.0, 0.0, 10.0, 10.0 
3.65e+2, 3.15e+2, 0.0, 0.0, 0.0, 0.0, 0.0, 0.0, 0.0, 0.0, 10.0, 10.0 
3.75e+2, 1.25e+2, -1715000.0, -1715000.0, 0.0, 0.0, 0.0, -1715000.0, -1715000.0, 0.0, 10.0, 10.0 
3.75e+2, 1.35e+2, -1617000.0, -1617000.0, 0.0, 0.0, 0.0, -1617000.0, -1617000.0, 0.0, 10.0, 10.0 
3.75e+2, 1.45e+2, -1519000.0, -1519000.0, 0.0, 0.0, 0.0, -1519000.0, -1519000.0, 0.0, 10.0, 10.0 
3.75e+2, 1.55e+2, -1421000.0, -1421000.0, 0.0, 0.0, 0.0, -1421000.0, -1421000.0, 0.0, 10.0, 10.0 
3.75e+2, 1.65e+2, -1323000.0, -1323000.0, 0.0, 0.0, 0.0, -1323000.0, -1323000.0, 0.0, 10.0, 10.0 
3.75e+2, 1.75e+2, -1225000.0, -1225000.0, 0.0, 0.0, 0.0, -1225000.0, -1225000.0, 0.0, 10.0, 10.0 
3.75e+2, 1.85e+2, -1127000.0, -1127000.0, 0.0, 0.0, 0.0, -1127000.0, -1127000.0, 0.0, 10.0, 10.0 
3.75e+2, 1.95e+2, -1029000.0, -1029000.0, 0.0, 0.0, 0.0, -1029000.0, -1029000.0, 0.0, 10.0, 10.0 
3.75e+2, 2.05e+2, -931000.0, -931000.0, 0.0, 0.0, 0.0, -931000.0, -931000.0, 0.0, 10.0, 10.0 
3.75e+2, 2.15e+2, -833000.0, -833000.0, 0.0, 0.0, 0.0, -833000.0, -833000.0, 0.0, 10.0, 10.0 
3.75e+2, 2.25e+2, -735000.0, -735000.0, 0.0, 0.0, 0.0, -735000.0, -735000.0, 0.0, 10.0, 10.0 
3.75e+2, 2.35e+2, -637000.0, -637000.0, 0.0, 0.0, 0.0, -637000.0, -637000.0, 0.0, 10.0, 10.0 
3.75e+2, 2.45e+2, -539000.0, -539000.0, 0.0, 0.0, 0.0, -539000.0, -539000.0, 0.0, 10.0, 10.0 
3.75e+2, 2.55e+2, -441000.0, -441000.0, 0.0, 0.0, 0.0, -441000.0, -441000.0, 0.0, 10.0, 10.0 
3.75e+2, 2.65e+2, -343000.0, -343000.0, 0.0, 0.0, 0.0, -343000.0, -343000.0, 0.0, 10.0, 10.0 
3.75e+2, 2.75e+2, -245000.0, -245000.0, 0.0, 0.0, 0.0, -245000.0, -245000.0, 0.0, 10.0, 10.0 
3.75e+2, 2.85e+2, -147000.0, -147000.0, 0.0, 0.0, 0.0, -147000.0, -147000.0, 0.0, 10.0, 10.0 
3.75e+2, 2.95e+2, -49000.0, -49000.0, 0.0, 0.0, 0.0, -49000.0, -49000.0, 0.0, 10.0, 10.0 
3.75e+2, 3.05e+2, 0.0, 0.0, 0.0, 0.0, 0.0, 0.0, 0.0, 0.0, 10.0, 10.0 
3.75e+2, 3.15e+2, 0.0, 0.0, 0.0, 0.0, 0.0, 0.0, 0.0, 0.0, 10.0, 10.0 
3.85e+2, 1.25e+2, -1715000.0, -1715000.0, 0.0, 0.0, 0.0, -1715000.0, -1715000.0, 0.0, 10.0, 10.0 
3.85e+2, 1.35e+2, -1617000.0, -1617000.0, 0.0, 0.0, 0.0, -1617000.0, -1617000.0, 0.0, 10.0, 10.0 
3.85e+2, 1.45e+2, -1519000.0, -1519000.0, 0.0, 0.0, 0.0, -1519000.0, -1519000.0, 0.0, 10.0, 10.0 
3.85e+2, 1.55e+2, -1421000.0, -1421000.0, 0.0, 0.0, 0.0, -1421000.0, -1421000.0, 0.0, 10.0, 10.0 
3.85e+2, 1.65e+2, -1323000.0, -1323000.0, 0.0, 0.0, 0.0, -1323000.0, -1323000.0, 0.0, 10.0, 10.0 
3.85e+2, 1.75e+2, -1225000.0, -1225000.0, 0.0, 0.0, 0.0, -1225000.0, -1225000.0, 0.0, 10.0, 10.0 
3.85e+2, 1.85e+2, -1127000.0, -1127000.0, 0.0, 0.0, 0.0, -1127000.0, -1127000.0, 0.0, 10.0, 10.0 
3.85e+2, 1.95e+2, -1029000.0, -1029000.0, 0.0, 0.0, 0.0, -1029000.0, -1029000.0, 0.0, 10.0, 10.0 
3.85e+2, 2.05e+2, -931000.0, -931000.0, 0.0, 0.0, 0.0, -931000.0, -931000.0, 0.0, 10.0, 10.0 
3.85e+2, 2.15e+2, -833000.0, -833000.0, 0.0, 0.0, 0.0, -833000.0, -833000.0, 0.0, 10.0, 10.0 
3.85e+2, 2.25e+2, -735000.0, -735000.0, 0.0, 0.0, 0.0, -735000.0, -735000.0, 0.0, 10.0, 10.0 
3.85e+2, 2.35e+2, -637000.0, -637000.0, 0.0, 0.0, 0.0, -637000.0, -637000.0, 0.0, 10.0, 10.0 
3.85e+2, 2.45e+2, -539000.0, -539000.0, 0.0, 0.0, 0.0, -539000.0, -539000.0, 0.0, 10.0, 10.0 
3.85e+2, 2.55e+2, -441000.0, -441000.0, 0.0, 0.0, 0.0, -441000.0, -441000.0, 0.0, 10.0, 10.0 
3.85e+2, 2.65e+2, -343000.0, -343000.0, 0.0, 0.0, 0.0, -343000.0, -343000.0, 0.0, 10.0, 10.0 
3.85e+2, 2.75e+2, -245000.0, -245000.0, 0.0, 0.0, 0.0, -245000.0, -245000.0, 0.0, 10.0, 10.0 
3.85e+2, 2.85e+2, -147000.0, -147000.0, 0.0, 0.0, 0.0, -147000.0, -147000.0, 0.0, 10.0, 10.0 
3.85e+2, 2.95e+2, -49000.0, -49000.0, 0.0, 0.0, 0.0, -49000.0, -49000.0, 0.0, 10.0, 10.0 
3.85e+2, 3.05e+2, 0.0, 0.0, 0.0, 0.0, 0.0, 0.0, 0.0, 0.0, 10.0, 10.0 
3.85e+2, 3.15e+2, 0.0, 0.0, 0.0, 0.0, 0.0, 0.0, 0.0, 0.0, 10.0, 10.0 
3.95e+2, 1.25e+2, -1715000.0, -1715000.0, 0.0, 0.0, 0.0, -1715000.0, -1715000.0, 0.0, 10.0, 10.0 
3.95e+2, 1.35e+2, -1617000.0, -1617000.0, 0.0, 0.0, 0.0, -1617000.0, -1617000.0, 0.0, 10.0, 10.0 
3.95e+2, 1.45e+2, -1519000.0, -1519000.0, 0.0, 0.0, 0.0, -1519000.0, -1519000.0, 0.0, 10.0, 10.0 
3.95e+2, 1.55e+2, -1421000.0, -1421000.0, 0.0, 0.0, 0.0, -1421000.0, -1421000.0, 0.0, 10.0, 10.0 
3.95e+2, 1.65e+2, -1323000.0, -1323000.0, 0.0, 0.0, 0.0, -1323000.0, -1323000.0, 0.0, 10.0, 10.0 
3.95e+2, 1.75e+2, -1225000.0, -1225000.0, 0.0, 0.0, 0.0, -1225000.0, -1225000.0, 0.0, 10.0, 10.0 
3.95e+2, 1.85e+2, -1127000.0, -1127000.0, 0.0, 0.0, 0.0, -1127000.0, -1127000.0, 0.0, 10.0, 10.0 
3.95e+2, 1.95e+2, -1029000.0, -1029000.0, 0.0, 0.0, 0.0, -1029000.0, -1029000.0, 0.0, 10.0, 10.0 
3.95e+2, 2.05e+2, -931000.0, -931000.0, 0.0, 0.0, 0.0, -931000.0, -931000.0, 0.0, 10.0, 10.0 
3.95e+2, 2.15e+2, -833000.0, -833000.0, 0.0, 0.0, 0.0, -833000.0, -833000.0, 0.0, 10.0, 10.0 
3.95e+2, 2.25e+2, -735000.0, -735000.0, 0.0, 0.0, 0.0, -735000.0, -735000.0, 0.0, 10.0, 10.0 
3.95e+2, 2.35e+2, -637000.0, -637000.0, 0.0, 0.0, 0.0, -637000.0, -637000.0, 0.0, 10.0, 10.0 
3.95e+2, 2.45e+2, -539000.0, -539000.0, 0.0, 0.0, 0.0, -539000.0, -539000.0, 0.0, 10.0, 10.0 
3.95e+2, 2.55e+2, -441000.0, -441000.0, 0.0, 0.0, 0.0, -441000.0, -441000.0, 0.0, 10.0, 10.0 
3.95e+2, 2.65e+2, -343000.0, -343000.0, 0.0, 0.0, 0.0, -343000.0, -343000.0, 0.0, 10.0, 10.0 
3.95e+2, 2.75e+2, -245000.0, -245000.0, 0.0, 0.0, 0.0, -245000.0, -245000.0, 0.0, 10.0, 10.0 
3.95e+2, 2.85e+2, -147000.0, -147000.0, 0.0, 0.0, 0.0, -147000.0, -147000.0, 0.0, 10.0, 10.0 
3.95e+2, 2.95e+2, -49000.0, -49000.0, 0.0, 0.0, 0.0, -49000.0, -49000.0, 0.0, 10.0, 10.0 
3.95e+2, 3.05e+2, 0.0, 0.0, 0.0, 0.0, 0.0, 0.0, 0.0, 0.0, 10.0, 10.0 
3.95e+2, 3.15e+2, 0.0, 0.0, 0.0, 0.0, 0.0, 0.0, 0.0, 0.0, 10.0, 10.0 
4.05e+2, 1.25e+2, -1715000.0, -1715000.0, 0.0, 0.0, 0.0, -1715000.0, -1715000.0, 0.0, 10.0, 10.0 
4.05e+2, 1.35e+2, -1617000.0, -1617000.0, 0.0, 0.0, 0.0, -1617000.0, -1617000.0, 0.0, 10.0, 10.0 
4.05e+2, 1.45e+2, -1519000.0, -1519000.0, 0.0, 0.0, 0.0, -1519000.0, -1519000.0, 0.0, 10.0, 10.0 
4.05e+2, 1.55e+2, -1421000.0, -1421000.0, 0.0, 0.0, 0.0, -1421000.0, -1421000.0, 0.0, 10.0, 10.0 
4.05e+2, 1.65e+2, -1323000.0, -1323000.0, 0.0, 0.0, 0.0, -1323000.0, -1323000.0, 0.0, 10.0, 10.0 
4.05e+2, 1.75e+2, -1225000.0, -1225000.0, 0.0, 0.0, 0.0, -1225000.0, -1225000.0, 0.0, 10.0, 10.0 
4.05e+2, 1.85e+2, -1127000.0, -1127000.0, 0.0, 0.0, 0.0, -1127000.0, -1127000.0, 0.0, 10.0, 10.0 
4.05e+2, 1.95e+2, -1029000.0, -1029000.0, 0.0, 0.0, 0.0, -1029000.0, -1029000.0, 0.0, 10.0, 10.0 
4.05e+2, 2.05e+2, -931000.0, -931000.0, 0.0, 0.0, 0.0, -931000.0, -931000.0, 0.0, 10.0, 10.0 
4.05e+2, 2.15e+2, -833000.0, -833000.0, 0.0, 0.0, 0.0, -833000.0, -833000.0, 0.0, 10.0, 10.0 
4.05e+2, 2.25e+2, -735000.0, -735000.0, 0.0, 0.0, 0.0, -735000.0, -735000.0, 0.0, 10.0, 10.0 
4.05e+2, 2.35e+2, -637000.0, -637000.0, 0.0, 0.0, 0.0, -637000.0, -637000.0, 0.0, 10.0, 10.0 
4.05e+2, 2.45e+2, -539000.0, -539000.0, 0.0, 0.0, 0.0, -539000.0, -539000.0, 0.0, 10.0, 10.0 
4.05e+2, 2.55e+2, -441000.0, -441000.0, 0.0, 0.0, 0.0, -441000.0, -441000.0, 0.0, 10.0, 10.0 
4.05e+2, 2.65e+2, -343000.0, -343000.0, 0.0, 0.0, 0.0, -343000.0, -343000.0, 0.0, 10.0, 10.0 
4.05e+2, 2.75e+2, -245000.0, -245000.0, 0.0, 0.0, 0.0, -245000.0, -245000.0, 0.0, 10.0, 10.0 
4.05e+2, 2.85e+2, -147000.0, -147000.0, 0.0, 0.0, 0.0, -147000.0, -147000.0, 0.0, 10.0, 10.0 
4.05e+2, 2.95e+2, -49000.0, -49000.0, 0.0, 0.0, 0.0, -49000.0, -49000.0, 0.0, 10.0, 10.0 
4.05e+2, 3.05e+2, 0.0, 0.0, 0.0, 0.0, 0.0, 0.0, 0.0, 0.0, 10.0, 10.0 
4.05e+2, 3.15e+2, 0.0, 0.0, 0.0, 0.0, 0.0, 0.0, 0.0, 0.0, 10.0, 10.0 
4.15e+2, 1.25e+2, -1715000.0, -1715000.0, 0.0, 0.0, 0.0, -1715000.0, -1715000.0, 0.0, 10.0, 10.0 
4.15e+2, 1.35e+2, -1617000.0, -1617000.0, 0.0, 0.0, 0.0, -1617000.0, -1617000.0, 0.0, 10.0, 10.0 
4.15e+2, 1.45e+2, -1519000.0, -1519000.0, 0.0, 0.0, 0.0, -1519000.0, -1519000.0, 0.0, 10.0, 10.0 
4.15e+2, 1.55e+2, -1421000.0, -1421000.0, 0.0, 0.0, 0.0, -1421000.0, -1421000.0, 0.0, 10.0, 10.0 
4.15e+2, 1.65e+2, -1323000.0, -1323000.0, 0.0, 0.0, 0.0, -1323000.0, -1323000.0, 0.0, 10.0, 10.0 
4.15e+2, 1.75e+2, -1225000.0, -1225000.0, 0.0, 0.0, 0.0, -1225000.0, -1225000.0, 0.0, 10.0, 10.0 
4.15e+2, 1.85e+2, -1127000.0, -1127000.0, 0.0, 0.0, 0.0, -1127000.0, -1127000.0, 0.0, 10.0, 10.0 
4.15e+2, 1.95e+2, -1029000.0, -1029000.0, 0.0, 0.0, 0.0, -1029000.0, -1029000.0, 0.0, 10.0, 10.0 
4.15e+2, 2.05e+2, -931000.0, -931000.0, 0.0, 0.0, 0.0, -931000.0, -931000.0, 0.0, 10.0, 10.0 
4.15e+2, 2.15e+2, -833000.0, -833000.0, 0.0, 0.0, 0.0, -833000.0, -833000.0, 0.0, 10.0, 10.0 
4.15e+2, 2.25e+2, -735000.0, -735000.0, 0.0, 0.0, 0.0, -735000.0, -735000.0, 0.0, 10.0, 10.0 
4.15e+2, 2.35e+2, -637000.0, -637000.0, 0.0, 0.0, 0.0, -637000.0, -637000.0, 0.0, 10.0, 10.0 
4.15e+2, 2.45e+2, -539000.0, -539000.0, 0.0, 0.0, 0.0, -539000.0, -539000.0, 0.0, 10.0, 10.0 
4.15e+2, 2.55e+2, -441000.0, -441000.0, 0.0, 0.0, 0.0, -441000.0, -441000.0, 0.0, 10.0, 10.0 
4.15e+2, 2.65e+2, -343000.0, -343000.0, 0.0, 0.0, 0.0, -343000.0, -343000.0, 0.0, 10.0, 10.0 
4.15e+2, 2.75e+2, -245000.0, -245000.0, 0.0, 0.0, 0.0, -245000.0, -245000.0, 0.0, 10.0, 10.0 
4.15e+2, 2.85e+2, -147000.0, -147000.0, 0.0, 0.0, 0.0, -147000.0, -147000.0, 0.0, 10.0, 10.0 
4.15e+2, 2.95e+2, -49000.0, -49000.0, 0.0, 0.0, 0.0, -49000.0, -49000.0, 0.0, 10.0, 10.0 
4.15e+2, 3.05e+2, 0.0, 0.0, 0.0, 0.0, 0.0, 0.0, 0.0, 0.0, 10.0, 10.0 
4.15e+2, 3.15e+2, 0.0, 0.0, 0.0, 0.0, 0.0, 0.0, 0.0, 0.0, 10.0, 10.0 
4.25e+2, 1.25e+2, -1715000.0, -1715000.0, 0.0, 0.0, 0.0, -1715000.0, -1715000.0, 0.0, 10.0, 10.0 
4.25e+2, 1.35e+2, -1617000.0, -1617000.0, 0.0, 0.0, 0.0, -1617000.0, -1617000.0, 0.0, 10.0, 10.0 
4.25e+2, 1.45e+2, -1519000.0, -1519000.0, 0.0, 0.0, 0.0, -1519000.0, -1519000.0, 0.0, 10.0, 10.0 
4.25e+2, 1.55e+2, -1421000.0, -1421000.0, 0.0, 0.0, 0.0, -1421000.0, -1421000.0, 0.0, 10.0, 10.0 
4.25e+2, 1.65e+2, -1323000.0, -1323000.0, 0.0, 0.0, 0.0, -1323000.0, -1323000.0, 0.0, 10.0, 10.0 
4.25e+2, 1.75e+2, -1225000.0, -1225000.0, 0.0, 0.0, 0.0, -1225000.0, -1225000.0, 0.0, 10.0, 10.0 
4.25e+2, 1.85e+2, -1127000.0, -1127000.0, 0.0, 0.0, 0.0, -1127000.0, -1127000.0, 0.0, 10.0, 10.0 
4.25e+2, 1.95e+2, -1029000.0, -1029000.0, 0.0, 0.0, 0.0, -1029000.0, -1029000.0, 0.0, 10.0, 10.0 
4.25e+2, 2.05e+2, -931000.0, -931000.0, 0.0, 0.0, 0.0, -931000.0, -931000.0, 0.0, 10.0, 10.0 
4.25e+2, 2.15e+2, -833000.0, -833000.0, 0.0, 0.0, 0.0, -833000.0, -833000.0, 0.0, 10.0, 10.0 
4.25e+2, 2.25e+2, -735000.0, -735000.0, 0.0, 0.0, 0.0, -735000.0, -735000.0, 0.0, 10.0, 10.0 
4.25e+2, 2.35e+2, -637000.0, -637000.0, 0.0, 0.0, 0.0, -637000.0, -637000.0, 0.0, 10.0, 10.0 
4.25e+2, 2.45e+2, -539000.0, -539000.0, 0.0, 0.0, 0.0, -539000.0, -539000.0, 0.0, 10.0, 10.0 
4.25e+2, 2.55e+2, -441000.0, -441000.0, 0.0, 0.0, 0.0, -441000.0, -441000.0, 0.0, 10.0, 10.0 
4.25e+2, 2.65e+2, -343000.0, -343000.0, 0.0, 0.0, 0.0, -343000.0, -343000.0, 0.0, 10.0, 10.0 
4.25e+2, 2.75e+2, -245000.0, -245000.0, 0.0, 0.0, 0.0, -245000.0, -245000.0, 0.0, 10.0, 10.0 
4.25e+2, 2.85e+2, -147000.0, -147000.0, 0.0, 0.0, 0.0, -147000.0, -147000.0, 0.0, 10.0, 10.0 
4.25e+2, 2.95e+2, -49000.0, -49000.0, 0.0, 0.0, 0.0, -49000.0, -49000.0, 0.0, 10.0, 10.0 
4.25e+2, 3.05e+2, 0.0, 0.0, 0.0, 0.0, 0.0, 0.0, 0.0, 0.0, 10.0, 10.0 
4.25e+2, 3.15e+2, 0.0, 0.0, 0.0, 0.0, 0.0, 0.0, 0.0, 0.0, 10.0, 10.0 
4.35e+2, 1.25e+2, -1715000.0, -1715000.0, 0.0, 0.0, 0.0, -1715000.0, -1715000.0, 0.0, 10.0, 10.0 
4.35e+2, 1.35e+2, -1617000.0, -1617000.0, 0.0, 0.0, 0.0, -1617000.0, -1617000.0, 0.0, 10.0, 10.0 
4.35e+2, 1.45e+2, -1519000.0, -1519000.0, 0.0, 0.0, 0.0, -1519000.0, -1519000.0, 0.0, 10.0, 10.0 
4.35e+2, 1.55e+2, -1421000.0, -1421000.0, 0.0, 0.0, 0.0, -1421000.0, -1421000.0, 0.0, 10.0, 10.0 
4.35e+2, 1.65e+2, -1323000.0, -1323000.0, 0.0, 0.0, 0.0, -1323000.0, -1323000.0, 0.0, 10.0, 10.0 
4.35e+2, 1.75e+2, -1225000.0, -1225000.0, 0.0, 0.0, 0.0, -1225000.0, -1225000.0, 0.0, 10.0, 10.0 
4.35e+2, 1.85e+2, -1127000.0, -1127000.0, 0.0, 0.0, 0.0, -1127000.0, -1127000.0, 0.0, 10.0, 10.0 
4.35e+2, 1.95e+2, -1029000.0, -1029000.0, 0.0, 0.0, 0.0, -1029000.0, -1029000.0, 0.0, 10.0, 10.0 
4.35e+2, 2.05e+2, -931000.0, -931000.0, 0.0, 0.0, 0.0, -931000.0, -931000.0, 0.0, 10.0, 10.0 
4.35e+2, 2.15e+2, -833000.0, -833000.0, 0.0, 0.0, 0.0, -833000.0, -833000.0, 0.0, 10.0, 10.0 
4.35e+2, 2.25e+2, -735000.0, -735000.0, 0.0, 0.0, 0.0, -735000.0, -735000.0, 0.0, 10.0, 10.0 
4.35e+2, 2.35e+2, -637000.0, -637000.0, 0.0, 0.0, 0.0, -637000.0, -637000.0, 0.0, 10.0, 10.0 
4.35e+2, 2.45e+2, -539000.0, -539000.0, 0.0, 0.0, 0.0, -539000.0, -539000.0, 0.0, 10.0, 10.0 
4.35e+2, 2.55e+2, -441000.0, -441000.0, 0.0, 0.0, 0.0, -441000.0, -441000.0, 0.0, 10.0, 10.0 
4.35e+2, 2.65e+2, -343000.0, -343000.0, 0.0, 0.0, 0.0, -343000.0, -343000.0, 0.0, 10.0, 10.0 
4.35e+2, 2.75e+2, -245000.0, -245000.0, 0.0, 0.0, 0.0, -245000.0, -245000.0, 0.0, 10.0, 10.0 
4.35e+2, 2.85e+2, -147000.0, -147000.0, 0.0, 0.0, 0.0, -147000.0, -147000.0, 0.0, 10.0, 10.0 
4.35e+2, 2.95e+2, -49000.0, -49000.0, 0.0, 0.0, 0.0, -49000.0, -49000.0, 0.0, 10.0, 10.0 
4.35e+2, 3.05e+2, 0.0, 0.0, 0.0, 0.0, 0.0, 0.0, 0.0, 0.0, 10.0, 10.0 
4.35e+2, 3.15e+2, 0.0, 0.0, 0.0, 0.0, 0.0, 0.0, 0.0, 0.0, 10.0, 10.0 
4.45e+2, 1.25e+2, -1715000.0, -1715000.0, 0.0, 0.0, 0.0, -1715000.0, -1715000.0, 0.0, 10.0, 10.0 
4.45e+2, 1.35e+2, -1617000.0, -1617000.0, 0.0, 0.0, 0.0, -1617000.0, -1617000.0, 0.0, 10.0, 10.0 
4.45e+2, 1.45e+2, -1519000.0, -1519000.0, 0.0, 0.0, 0.0, -1519000.0, -1519000.0, 0.0, 10.0, 10.0 
4.45e+2, 1.55e+2, -1421000.0, -1421000.0, 0.0, 0.0, 0.0, -1421000.0, -1421000.0, 0.0, 10.0, 10.0 
4.45e+2, 1.65e+2, -1323000.0, -1323000.0, 0.0, 0.0, 0.0, -1323000.0, -1323000.0, 0.0, 10.0, 10.0 
4.45e+2, 1.75e+2, -1225000.0, -1225000.0, 0.0, 0.0, 0.0, -1225000.0, -1225000.0, 0.0, 10.0, 10.0 
4.45e+2, 1.85e+2, -1127000.0, -1127000.0, 0.0, 0.0, 0.0, -1127000.0, -1127000.0, 0.0, 10.0, 10.0 
4.45e+2, 1.95e+2, -1029000.0, -1029000.0, 0.0, 0.0, 0.0, -1029000.0, -1029000.0, 0.0, 10.0, 10.0 
4.45e+2, 2.05e+2, -931000.0, -931000.0, 0.0, 0.0, 0.0, -931000.0, -931000.0, 0.0, 10.0, 10.0 
4.45e+2, 2.15e+2, -833000.0, -833000.0, 0.0, 0.0, 0.0, -833000.0, -833000.0, 0.0, 10.0, 10.0 
4.45e+2, 2.25e+2, -735000.0, -735000.0, 0.0, 0.0, 0.0, -735000.0, -735000.0, 0.0, 10.0, 10.0 
4.45e+2, 2.35e+2, -637000.0, -637000.0, 0.0, 0.0, 0.0, -637000.0, -637000.0, 0.0, 10.0, 10.0 
4.45e+2, 2.45e+2, -539000.0, -539000.0, 0.0, 0.0, 0.0, -539000.0, -539000.0, 0.0, 10.0, 10.0 
4.45e+2, 2.55e+2, -441000.0, -441000.0, 0.0, 0.0, 0.0, -441000.0, -441000.0, 0.0, 10.0, 10.0 
4.45e+2, 2.65e+2, -343000.0, -343000.0, 0.0, 0.0, 0.0, -343000.0, -343000.0, 0.0, 10.0, 10.0 
4.45e+2, 2.75e+2, -245000.0, -245000.0, 0.0, 0.0, 0.0, -245000.0, -245000.0, 0.0, 10.0, 10.0 
4.45e+2, 2.85e+2, -147000.0, -147000.0, 0.0, 0.0, 0.0, -147000.0, -147000.0, 0.0, 10.0, 10.0 
4.45e+2, 2.95e+2, -49000.0, -49000.0, 0.0, 0.0, 0.0, -49000.0, -49000.0, 0.0, 10.0, 10.0 
4.45e+2, 3.05e+2, 0.0, 0.0, 0.0, 0.0, 0.0, 0.0, 0.0, 0.0, 10.0, 10.0 
4.45e+2, 3.15e+2, 0.0, 0.0, 0.0, 0.0, 0.0, 0.0, 0.0, 0.0, 10.0, 10.0 
4.55e+2, 1.25e+2, -1715000.0, -1715000.0, 0.0, 0.0, 0.0, -1715000.0, -1715000.0, 0.0, 10.0, 10.0 
4.55e+2, 1.35e+2, -1617000.0, -1617000.0, 0.0, 0.0, 0.0, -1617000.0, -1617000.0, 0.0, 10.0, 10.0 
4.55e+2, 1.45e+2, -1519000.0, -1519000.0, 0.0, 0.0, 0.0, -1519000.0, -1519000.0, 0.0, 10.0, 10.0 
4.55e+2, 1.55e+2, -1421000.0, -1421000.0, 0.0, 0.0, 0.0, -1421000.0, -1421000.0, 0.0, 10.0, 10.0 
4.55e+2, 1.65e+2, -1323000.0, -1323000.0, 0.0, 0.0, 0.0, -1323000.0, -1323000.0, 0.0, 10.0, 10.0 
4.55e+2, 1.75e+2, -1225000.0, -1225000.0, 0.0, 0.0, 0.0, -1225000.0, -1225000.0, 0.0, 10.0, 10.0 
4.55e+2, 1.85e+2, -1127000.0, -1127000.0, 0.0, 0.0, 0.0, -1127000.0, -1127000.0, 0.0, 10.0, 10.0 
4.55e+2, 1.95e+2, -1029000.0, -1029000.0, 0.0, 0.0, 0.0, -1029000.0, -1029000.0, 0.0, 10.0, 10.0 
4.55e+2, 2.05e+2, -931000.0, -931000.0, 0.0, 0.0, 0.0, -931000.0, -931000.0, 0.0, 10.0, 10.0 
4.55e+2, 2.15e+2, -833000.0, -833000.0, 0.0, 0.0, 0.0, -833000.0, -833000.0, 0.0, 10.0, 10.0 
4.55e+2, 2.25e+2, -735000.0, -735000.0, 0.0, 0.0, 0.0, -735000.0, -735000.0, 0.0, 10.0, 10.0 
4.55e+2, 2.35e+2, -637000.0, -637000.0, 0.0, 0.0, 0.0, -637000.0, -637000.0, 0.0, 10.0, 10.0 
4.55e+2, 2.45e+2, -539000.0, -539000.0, 0.0, 0.0, 0.0, -539000.0, -539000.0, 0.0, 10.0, 10.0 
4.55e+2, 2.55e+2, -441000.0, -441000.0, 0.0, 0.0, 0.0, -441000.0, -441000.0, 0.0, 10.0, 10.0 
4.55e+2, 2.65e+2, -343000.0, -343000.0, 0.0, 0.0, 0.0, -343000.0, -343000.0, 0.0, 10.0, 10.0 
4.55e+2, 2.75e+2, -245000.0, -245000.0, 0.0, 0.0, 0.0, -245000.0, -245000.0, 0.0, 10.0, 10.0 
4.55e+2, 2.85e+2, -147000.0, -147000.0, 0.0, 0.0, 0.0, -147000.0, -147000.0, 0.0, 10.0, 10.0 
4.55e+2, 2.95e+2, -49000.0, -49000.0, 0.0, 0.0, 0.0, -49000.0, -49000.0, 0.0, 10.0, 10.0 
4.55e+2, 3.05e+2, 0.0, 0.0, 0.0, 0.0, 0.0, 0.0, 0.0, 0.0, 10.0, 10.0 
4.55e+2, 3.15e+2, 0.0, 0.0, 0.0, 0.0, 0.0, 0.0, 0.0, 0.0, 10.0, 10.0 
4.65e+2, 1.25e+2, -1715000.0, -1715000.0, 0.0, 0.0, 0.0, -1715000.0, -1715000.0, 0.0, 10.0, 10.0 
4.65e+2, 1.35e+2, -1617000.0, -1617000.0, 0.0, 0.0, 0.0, -1617000.0, -1617000.0, 0.0, 10.0, 10.0 
4.65e+2, 1.45e+2, -1519000.0, -1519000.0, 0.0, 0.0, 0.0, -1519000.0, -1519000.0, 0.0, 10.0, 10.0 
4.65e+2, 1.55e+2, -1421000.0, -1421000.0, 0.0, 0.0, 0.0, -1421000.0, -1421000.0, 0.0, 10.0, 10.0 
4.65e+2, 1.65e+2, -1323000.0, -1323000.0, 0.0, 0.0, 0.0, -1323000.0, -1323000.0, 0.0, 10.0, 10.0 
4.65e+2, 1.75e+2, -1225000.0, -1225000.0, 0.0, 0.0, 0.0, -1225000.0, -1225000.0, 0.0, 10.0, 10.0 
4.65e+2, 1.85e+2, -1127000.0, -1127000.0, 0.0, 0.0, 0.0, -1127000.0, -1127000.0, 0.0, 10.0, 10.0 
4.65e+2, 1.95e+2, -1029000.0, -1029000.0, 0.0, 0.0, 0.0, -1029000.0, -1029000.0, 0.0, 10.0, 10.0 
4.65e+2, 2.05e+2, -931000.0, -931000.0, 0.0, 0.0, 0.0, -931000.0, -931000.0, 0.0, 10.0, 10.0 
4.65e+2, 2.15e+2, -833000.0, -833000.0, 0.0, 0.0, 0.0, -833000.0, -833000.0, 0.0, 10.0, 10.0 
4.65e+2, 2.25e+2, -735000.0, -735000.0, 0.0, 0.0, 0.0, -735000.0, -735000.0, 0.0, 10.0, 10.0 
4.65e+2, 2.35e+2, -637000.0, -637000.0, 0.0, 0.0, 0.0, -637000.0, -637000.0, 0.0, 10.0, 10.0 
4.65e+2, 2.45e+2, -539000.0, -539000.0, 0.0, 0.0, 0.0, -539000.0, -539000.0, 0.0, 10.0, 10.0 
4.65e+2, 2.55e+2, -441000.0, -441000.0, 0.0, 0.0, 0.0, -441000.0, -441000.0, 0.0, 10.0, 10.0 
4.65e+2, 2.65e+2, -343000.0, -343000.0, 0.0, 0.0, 0.0, -343000.0, -343000.0, 0.0, 10.0, 10.0 
4.65e+2, 2.75e+2, -245000.0, -245000.0, 0.0, 0.0, 0.0, -245000.0, -245000.0, 0.0, 10.0, 10.0 
4.65e+2, 2.85e+2, -147000.0, -147000.0, 0.0, 0.0, 0.0, -147000.0, -147000.0, 0.0, 10.0, 10.0 
4.65e+2, 2.95e+2, -49000.0, -49000.0, 0.0, 0.0, 0.0, -49000.0, -49000.0, 0.0, 10.0, 10.0 
4.65e+2, 3.05e+2, 0.0, 0.0, 0.0, 0.0, 0.0, 0.0, 0.0, 0.0, 10.0, 10.0 
4.65e+2, 3.15e+2, 0.0, 0.0, 0.0, 0.0, 0.0, 0.0, 0.0, 0.0, 10.0, 10.0 
4.75e+2, 1.25e+2, -1715000.0, -1715000.0, 0.0, 0.0, 0.0, -1715000.0, -1715000.0, 0.0, 10.0, 10.0 
4.75e+2, 1.35e+2, -1617000.0, -1617000.0, 0.0, 0.0, 0.0, -1617000.0, -1617000.0, 0.0, 10.0, 10.0 
4.75e+2, 1.45e+2, -1519000.0, -1519000.0, 0.0, 0.0, 0.0, -1519000.0, -1519000.0, 0.0, 10.0, 10.0 
4.75e+2, 1.55e+2, -1421000.0, -1421000.0, 0.0, 0.0, 0.0, -1421000.0, -1421000.0, 0.0, 10.0, 10.0 
4.75e+2, 1.65e+2, -1323000.0, -1323000.0, 0.0, 0.0, 0.0, -1323000.0, -1323000.0, 0.0, 10.0, 10.0 
4.75e+2, 1.75e+2, -1225000.0, -1225000.0, 0.0, 0.0, 0.0, -1225000.0, -1225000.0, 0.0, 10.0, 10.0 
4.75e+2, 1.85e+2, -1127000.0, -1127000.0, 0.0, 0.0, 0.0, -1127000.0, -1127000.0, 0.0, 10.0, 10.0 
4.75e+2, 1.95e+2, -1029000.0, -1029000.0, 0.0, 0.0, 0.0, -1029000.0, -1029000.0, 0.0, 10.0, 10.0 
4.75e+2, 2.05e+2, -931000.0, -931000.0, 0.0, 0.0, 0.0, -931000.0, -931000.0, 0.0, 10.0, 10.0 
4.75e+2, 2.15e+2, -833000.0, -833000.0, 0.0, 0.0, 0.0, -833000.0, -833000.0, 0.0, 10.0, 10.0 
4.75e+2, 2.25e+2, -735000.0, -735000.0, 0.0, 0.0, 0.0, -735000.0, -735000.0, 0.0, 10.0, 10.0 
4.75e+2, 2.35e+2, -637000.0, -637000.0, 0.0, 0.0, 0.0, -637000.0, -637000.0, 0.0, 10.0, 10.0 
4.75e+2, 2.45e+2, -539000.0, -539000.0, 0.0, 0.0, 0.0, -539000.0, -539000.0, 0.0, 10.0, 10.0 
4.75e+2, 2.55e+2, -441000.0, -441000.0, 0.0, 0.0, 0.0, -441000.0, -441000.0, 0.0, 10.0, 10.0 
4.75e+2, 2.65e+2, -343000.0, -343000.0, 0.0, 0.0, 0.0, -343000.0, -343000.0, 0.0, 10.0, 10.0 
4.75e+2, 2.75e+2, -245000.0, -245000.0, 0.0, 0.0, 0.0, -245000.0, -245000.0, 0.0, 10.0, 10.0 
4.75e+2, 2.85e+2, -147000.0, -147000.0, 0.0, 0.0, 0.0, -147000.0, -147000.0, 0.0, 10.0, 10.0 
4.75e+2, 2.95e+2, -49000.0, -49000.0, 0.0, 0.0, 0.0, -49000.0, -49000.0, 0.0, 10.0, 10.0 
4.75e+2, 3.05e+2, 0.0, 0.0, 0.0, 0.0, 0.0, 0.0, 0.0, 0.0, 10.0, 10.0 
4.75e+2, 3.15e+2, 0.0, 0.0, 0.0, 0.0, 0.0, 0.0, 0.0, 0.0, 10.0, 10.0 
4.85e+2, 1.25e+2, -1715000.0, -1715000.0, 0.0, 0.0, 0.0, -1715000.0, -1715000.0, 0.0, 10.0, 10.0 
4.85e+2, 1.35e+2, -1617000.0, -1617000.0, 0.0, 0.0, 0.0, -1617000.0, -1617000.0, 0.0, 10.0, 10.0 
4.85e+2, 1.45e+2, -1519000.0, -1519000.0, 0.0, 0.0, 0.0, -1519000.0, -1519000.0, 0.0, 10.0, 10.0 
4.85e+2, 1.55e+2, -1421000.0, -1421000.0, 0.0, 0.0, 0.0, -1421000.0, -1421000.0, 0.0, 10.0, 10.0 
4.85e+2, 1.65e+2, -1323000.0, -1323000.0, 0.0, 0.0, 0.0, -1323000.0, -1323000.0, 0.0, 10.0, 10.0 
4.85e+2, 1.75e+2, -1225000.0, -1225000.0, 0.0, 0.0, 0.0, -1225000.0, -1225000.0, 0.0, 10.0, 10.0 
4.85e+2, 1.85e+2, -1127000.0, -1127000.0, 0.0, 0.0, 0.0, -1127000.0, -1127000.0, 0.0, 10.0, 10.0 
4.85e+2, 1.95e+2, -1029000.0, -1029000.0, 0.0, 0.0, 0.0, -1029000.0, -1029000.0, 0.0, 10.0, 10.0 
4.85e+2, 2.05e+2, -931000.0, -931000.0, 0.0, 0.0, 0.0, -931000.0, -931000.0, 0.0, 10.0, 10.0 
4.85e+2, 2.15e+2, -833000.0, -833000.0, 0.0, 0.0, 0.0, -833000.0, -833000.0, 0.0, 10.0, 10.0 
4.85e+2, 2.25e+2, -735000.0, -735000.0, 0.0, 0.0, 0.0, -735000.0, -735000.0, 0.0, 10.0, 10.0 
4.85e+2, 2.35e+2, -637000.0, -637000.0, 0.0, 0.0, 0.0, -637000.0, -637000.0, 0.0, 10.0, 10.0 
4.85e+2, 2.45e+2, -539000.0, -539000.0, 0.0, 0.0, 0.0, -539000.0, -539000.0, 0.0, 10.0, 10.0 
4.85e+2, 2.55e+2, -441000.0, -441000.0, 0.0, 0.0, 0.0, -441000.0, -441000.0, 0.0, 10.0, 10.0 
4.85e+2, 2.65e+2, -343000.0, -343000.0, 0.0, 0.0, 0.0, -343000.0, -343000.0, 0.0, 10.0, 10.0 
4.85e+2, 2.75e+2, -245000.0, -245000.0, 0.0, 0.0, 0.0, -245000.0, -245000.0, 0.0, 10.0, 10.0 
4.85e+2, 2.85e+2, -147000.0, -147000.0, 0.0, 0.0, 0.0, -147000.0, -147000.0, 0.0, 10.0, 10.0 
4.85e+2, 2.95e+2, -49000.0, -49000.0, 0.0, 0.0, 0.0, -49000.0, -49000.0, 0.0, 10.0, 10.0 
4.85e+2, 3.05e+2, 0.0, 0.0, 0.0, 0.0, 0.0, 0.0, 0.0, 0.0, 10.0, 10.0 
4.85e+2, 3.15e+2, 0.0, 0.0, 0.0, 0.0, 0.0, 0.0, 0.0, 0.0, 10.0, 10.0 
4.95e+2, 1.25e+2, -1715000.0, -1715000.0, 0.0, 0.0, 0.0, -1715000.0, -1715000.0, 0.0, 10.0, 10.0 
4.95e+2, 1.35e+2, -1617000.0, -1617000.0, 0.0, 0.0, 0.0, -1617000.0, -1617000.0, 0.0, 10.0, 10.0 
4.95e+2, 1.45e+2, -1519000.0, -1519000.0, 0.0, 0.0, 0.0, -1519000.0, -1519000.0, 0.0, 10.0, 10.0 
4.95e+2, 1.55e+2, -1421000.0, -1421000.0, 0.0, 0.0, 0.0, -1421000.0, -1421000.0, 0.0, 10.0, 10.0 
4.95e+2, 1.65e+2, -1323000.0, -1323000.0, 0.0, 0.0, 0.0, -1323000.0, -1323000.0, 0.0, 10.0, 10.0 
4.95e+2, 1.75e+2, -1225000.0, -1225000.0, 0.0, 0.0, 0.0, -1225000.0, -1225000.0, 0.0, 10.0, 10.0 
4.95e+2, 1.85e+2, -1127000.0, -1127000.0, 0.0, 0.0, 0.0, -1127000.0, -1127000.0, 0.0, 10.0, 10.0 
4.95e+2, 1.95e+2, -1029000.0, -1029000.0, 0.0, 0.0, 0.0, -1029000.0, -1029000.0, 0.0, 10.0, 10.0 
4.95e+2, 2.05e+2, -931000.0, -931000.0, 0.0, 0.0, 0.0, -931000.0, -931000.0, 0.0, 10.0, 10.0 
4.95e+2, 2.15e+2, -833000.0, -833000.0, 0.0, 0.0, 0.0, -833000.0, -833000.0, 0.0, 10.0, 10.0 
4.95e+2, 2.25e+2, -735000.0, -735000.0, 0.0, 0.0, 0.0, -735000.0, -735000.0, 0.0, 10.0, 10.0 
4.95e+2, 2.35e+2, -637000.0, -637000.0, 0.0, 0.0, 0.0, -637000.0, -637000.0, 0.0, 10.0, 10.0 
4.95e+2, 2.45e+2, -539000.0, -539000.0, 0.0, 0.0, 0.0, -539000.0, -539000.0, 0.0, 10.0, 10.0 
4.95e+2, 2.55e+2, -441000.0, -441000.0, 0.0, 0.0, 0.0, -441000.0, -441000.0, 0.0, 10.0, 10.0 
4.95e+2, 2.65e+2, -343000.0, -343000.0, 0.0, 0.0, 0.0, -343000.0, -343000.0, 0.0, 10.0, 10.0 
4.95e+2, 2.75e+2, -245000.0, -245000.0, 0.0, 0.0, 0.0, -245000.0, -245000.0, 0.0, 10.0, 10.0 
4.95e+2, 2.85e+2, -147000.0, -147000.0, 0.0, 0.0, 0.0, -147000.0, -147000.0, 0.0, 10.0, 10.0 
4.95e+2, 2.95e+2, -49000.0, -49000.0, 0.0, 0.0, 0.0, -49000.0, -49000.0, 0.0, 10.0, 10.0 
4.95e+2, 3.05e+2, 0.0, 0.0, 0.0, 0.0, 0.0, 0.0, 0.0, 0.0, 10.0, 10.0 
4.95e+2, 3.15e+2, 0.0, 0.0, 0.0, 0.0, 0.0, 0.0, 0.0, 0.0, 10.0, 10.0 
5.05e+2, 1.25e+2, -1715000.0, -1715000.0, 0.0, 0.0, 0.0, -1715000.0, -1715000.0, 0.0, 10.0, 10.0 
5.05e+2, 1.35e+2, -1617000.0, -1617000.0, 0.0, 0.0, 0.0, -1617000.0, -1617000.0, 0.0, 10.0, 10.0 
5.05e+2, 1.45e+2, -1519000.0, -1519000.0, 0.0, 0.0, 0.0, -1519000.0, -1519000.0, 0.0, 10.0, 10.0 
5.05e+2, 1.55e+2, -1421000.0, -1421000.0, 0.0, 0.0, 0.0, -1421000.0, -1421000.0, 0.0, 10.0, 10.0 
5.05e+2, 1.65e+2, -1323000.0, -1323000.0, 0.0, 0.0, 0.0, -1323000.0, -1323000.0, 0.0, 10.0, 10.0 
5.05e+2, 1.75e+2, -1225000.0, -1225000.0, 0.0, 0.0, 0.0, -1225000.0, -1225000.0, 0.0, 10.0, 10.0 
5.05e+2, 1.85e+2, -1127000.0, -1127000.0, 0.0, 0.0, 0.0, -1127000.0, -1127000.0, 0.0, 10.0, 10.0 
5.05e+2, 1.95e+2, -1029000.0, -1029000.0, 0.0, 0.0, 0.0, -1029000.0, -1029000.0, 0.0, 10.0, 10.0 
5.05e+2, 2.05e+2, -931000.0, -931000.0, 0.0, 0.0, 0.0, -931000.0, -931000.0, 0.0, 10.0, 10.0 
5.05e+2, 2.15e+2, -833000.0, -833000.0, 0.0, 0.0, 0.0, -833000.0, -833000.0, 0.0, 10.0, 10.0 
5.05e+2, 2.25e+2, -735000.0, -735000.0, 0.0, 0.0, 0.0, -735000.0, -735000.0, 0.0, 10.0, 10.0 
5.05e+2, 2.35e+2, -637000.0, -637000.0, 0.0, 0.0, 0.0, -637000.0, -637000.0, 0.0, 10.0, 10.0 
5.05e+2, 2.45e+2, -539000.0, -539000.0, 0.0, 0.0, 0.0, -539000.0, -539000.0, 0.0, 10.0, 10.0 
5.05e+2, 2.55e+2, -441000.0, -441000.0, 0.0, 0.0, 0.0, -441000.0, -441000.0, 0.0, 10.0, 10.0 
5.05e+2, 2.65e+2, -343000.0, -343000.0, 0.0, 0.0, 0.0, -343000.0, -343000.0, 0.0, 10.0, 10.0 
5.05e+2, 2.75e+2, -245000.0, -245000.0, 0.0, 0.0, 0.0, -245000.0, -245000.0, 0.0, 10.0, 10.0 
5.05e+2, 2.85e+2, -147000.0, -147000.0, 0.0, 0.0, 0.0, -147000.0, -147000.0, 0.0, 10.0, 10.0 
5.05e+2, 2.95e+2, -49000.0, -49000.0, 0.0, 0.0, 0.0, -49000.0, -49000.0, 0.0, 10.0, 10.0 
5.05e+2, 3.05e+2, 0.0, 0.0, 0.0, 0.0, 0.0, 0.0, 0.0, 0.0, 10.0, 10.0 
5.05e+2, 3.15e+2, 0.0, 0.0, 0.0, 0.0, 0.0, 0.0, 0.0, 0.0, 10.0, 10.0 
5.15e+2, 1.25e+2, -1715000.0, -1715000.0, 0.0, 0.0, 0.0, -1715000.0, -1715000.0, 0.0, 10.0, 10.0 
5.15e+2, 1.35e+2, -1617000.0, -1617000.0, 0.0, 0.0, 0.0, -1617000.0, -1617000.0, 0.0, 10.0, 10.0 
5.15e+2, 1.45e+2, -1519000.0, -1519000.0, 0.0, 0.0, 0.0, -1519000.0, -1519000.0, 0.0, 10.0, 10.0 
5.15e+2, 1.55e+2, -1421000.0, -1421000.0, 0.0, 0.0, 0.0, -1421000.0, -1421000.0, 0.0, 10.0, 10.0 
5.15e+2, 1.65e+2, -1323000.0, -1323000.0, 0.0, 0.0, 0.0, -1323000.0, -1323000.0, 0.0, 10.0, 10.0 
5.15e+2, 1.75e+2, -1225000.0, -1225000.0, 0.0, 0.0, 0.0, -1225000.0, -1225000.0, 0.0, 10.0, 10.0 
5.15e+2, 1.85e+2, -1127000.0, -1127000.0, 0.0, 0.0, 0.0, -1127000.0, -1127000.0, 0.0, 10.0, 10.0 
5.15e+2, 1.95e+2, -1029000.0, -1029000.0, 0.0, 0.0, 0.0, -1029000.0, -1029000.0, 0.0, 10.0, 10.0 
5.15e+2, 2.05e+2, -931000.0, -931000.0, 0.0, 0.0, 0.0, -931000.0, -931000.0, 0.0, 10.0, 10.0 
5.15e+2, 2.15e+2, -833000.0, -833000.0, 0.0, 0.0, 0.0, -833000.0, -833000.0, 0.0, 10.0, 10.0 
5.15e+2, 2.25e+2, -735000.0, -735000.0, 0.0, 0.0, 0.0, -735000.0, -735000.0, 0.0, 10.0, 10.0 
5.15e+2, 2.35e+2, -637000.0, -637000.0, 0.0, 0.0, 0.0, -637000.0, -637000.0, 0.0, 10.0, 10.0 
5.15e+2, 2.45e+2, -539000.0, -539000.0, 0.0, 0.0, 0.0, -539000.0, -539000.0, 0.0, 10.0, 10.0 
5.15e+2, 2.55e+2, -441000.0, -441000.0, 0.0, 0.0, 0.0, -441000.0, -441000.0, 0.0, 10.0, 10.0 
5.15e+2, 2.65e+2, -343000.0, -343000.0, 0.0, 0.0, 0.0, -343000.0, -343000.0, 0.0, 10.0, 10.0 
5.15e+2, 2.75e+2, -245000.0, -245000.0, 0.0, 0.0, 0.0, -245000.0, -245000.0, 0.0, 10.0, 10.0 
5.15e+2, 2.85e+2, -147000.0, -147000.0, 0.0, 0.0, 0.0, -147000.0, -147000.0, 0.0, 10.0, 10.0 
5.15e+2, 2.95e+2, -49000.0, -49000.0, 0.0, 0.0, 0.0, -49000.0, -49000.0, 0.0, 10.0, 10.0 
5.15e+2, 3.05e+2, 0.0, 0.0, 0.0, 0.0, 0.0, 0.0, 0.0, 0.0, 10.0, 10.0 
5.15e+2, 3.15e+2, 0.0, 0.0, 0.0, 0.0, 0.0, 0.0, 0.0, 0.0, 10.0, 10.0 
5.25e+2, 1.25e+2, -1715000.0, -1715000.0, 0.0, 0.0, 0.0, -1715000.0, -1715000.0, 0.0, 10.0, 10.0 
5.25e+2, 1.35e+2, -1617000.0, -1617000.0, 0.0, 0.0, 0.0, -1617000.0, -1617000.0, 0.0, 10.0, 10.0 
5.25e+2, 1.45e+2, -1519000.0, -1519000.0, 0.0, 0.0, 0.0, -1519000.0, -1519000.0, 0.0, 10.0, 10.0 
5.25e+2, 1.55e+2, -1421000.0, -1421000.0, 0.0, 0.0, 0.0, -1421000.0, -1421000.0, 0.0, 10.0, 10.0 
5.25e+2, 1.65e+2, -1323000.0, -1323000.0, 0.0, 0.0, 0.0, -1323000.0, -1323000.0, 0.0, 10.0, 10.0 
5.25e+2, 1.75e+2, -1225000.0, -1225000.0, 0.0, 0.0, 0.0, -1225000.0, -1225000.0, 0.0, 10.0, 10.0 
5.25e+2, 1.85e+2, -1127000.0, -1127000.0, 0.0, 0.0, 0.0, -1127000.0, -1127000.0, 0.0, 10.0, 10.0 
5.25e+2, 1.95e+2, -1029000.0, -1029000.0, 0.0, 0.0, 0.0, -1029000.0, -1029000.0, 0.0, 10.0, 10.0 
5.25e+2, 2.05e+2, -931000.0, -931000.0, 0.0, 0.0, 0.0, -931000.0, -931000.0, 0.0, 10.0, 10.0 
5.25e+2, 2.15e+2, -833000.0, -833000.0, 0.0, 0.0, 0.0, -833000.0, -833000.0, 0.0, 10.0, 10.0 
5.25e+2, 2.25e+2, -735000.0, -735000.0, 0.0, 0.0, 0.0, -735000.0, -735000.0, 0.0, 10.0, 10.0 
5.25e+2, 2.35e+2, -637000.0, -637000.0, 0.0, 0.0, 0.0, -637000.0, -637000.0, 0.0, 10.0, 10.0 
5.25e+2, 2.45e+2, -539000.0, -539000.0, 0.0, 0.0, 0.0, -539000.0, -539000.0, 0.0, 10.0, 10.0 
5.25e+2, 2.55e+2, -441000.0, -441000.0, 0.0, 0.0, 0.0, -441000.0, -441000.0, 0.0, 10.0, 10.0 
5.25e+2, 2.65e+2, -343000.0, -343000.0, 0.0, 0.0, 0.0, -343000.0, -343000.0, 0.0, 10.0, 10.0 
5.25e+2, 2.75e+2, -245000.0, -245000.0, 0.0, 0.0, 0.0, -245000.0, -245000.0, 0.0, 10.0, 10.0 
5.25e+2, 2.85e+2, -147000.0, -147000.0, 0.0, 0.0, 0.0, -147000.0, -147000.0, 0.0, 10.0, 10.0 
5.25e+2, 2.95e+2, -49000.0, -49000.0, 0.0, 0.0, 0.0, -49000.0, -49000.0, 0.0, 10.0, 10.0 
5.25e+2, 3.05e+2, 0.0, 0.0, 0.0, 0.0, 0.0, 0.0, 0.0, 0.0, 10.0, 10.0 
5.25e+2, 3.15e+2, 0.0, 0.0, 0.0, 0.0, 0.0, 0.0, 0.0, 0.0, 10.0, 10.0 
5.35e+2, 1.25e+2, -1715000.0, -1715000.0, 0.0, 0.0, 0.0, -1715000.0, -1715000.0, 0.0, 10.0, 10.0 
5.35e+2, 1.35e+2, -1617000.0, -1617000.0, 0.0, 0.0, 0.0, -1617000.0, -1617000.0, 0.0, 10.0, 10.0 
5.35e+2, 1.45e+2, -1519000.0, -1519000.0, 0.0, 0.0, 0.0, -1519000.0, -1519000.0, 0.0, 10.0, 10.0 
5.35e+2, 1.55e+2, -1421000.0, -1421000.0, 0.0, 0.0, 0.0, -1421000.0, -1421000.0, 0.0, 10.0, 10.0 
5.35e+2, 1.65e+2, -1323000.0, -1323000.0, 0.0, 0.0, 0.0, -1323000.0, -1323000.0, 0.0, 10.0, 10.0 
5.35e+2, 1.75e+2, -1225000.0, -1225000.0, 0.0, 0.0, 0.0, -1225000.0, -1225000.0, 0.0, 10.0, 10.0 
5.35e+2, 1.85e+2, -1127000.0, -1127000.0, 0.0, 0.0, 0.0, -1127000.0, -1127000.0, 0.0, 10.0, 10.0 
5.35e+2, 1.95e+2, -1029000.0, -1029000.0, 0.0, 0.0, 0.0, -1029000.0, -1029000.0, 0.0, 10.0, 10.0 
5.35e+2, 2.05e+2, -931000.0, -931000.0, 0.0, 0.0, 0.0, -931000.0, -931000.0, 0.0, 10.0, 10.0 
5.35e+2, 2.15e+2, -833000.0, -833000.0, 0.0, 0.0, 0.0, -833000.0, -833000.0, 0.0, 10.0, 10.0 
5.35e+2, 2.25e+2, -735000.0, -735000.0, 0.0, 0.0, 0.0, -735000.0, -735000.0, 0.0, 10.0, 10.0 
5.35e+2, 2.35e+2, -637000.0, -637000.0, 0.0, 0.0, 0.0, -637000.0, -637000.0, 0.0, 10.0, 10.0 
5.35e+2, 2.45e+2, -539000.0, -539000.0, 0.0, 0.0, 0.0, -539000.0, -539000.0, 0.0, 10.0, 10.0 
5.35e+2, 2.55e+2, -441000.0, -441000.0, 0.0, 0.0, 0.0, -441000.0, -441000.0, 0.0, 10.0, 10.0 
5.35e+2, 2.65e+2, -343000.0, -343000.0, 0.0, 0.0, 0.0, -343000.0, -343000.0, 0.0, 10.0, 10.0 
5.35e+2, 2.75e+2, -245000.0, -245000.0, 0.0, 0.0, 0.0, -245000.0, -245000.0, 0.0, 10.0, 10.0 
5.35e+2, 2.85e+2, -147000.0, -147000.0, 0.0, 0.0, 0.0, -147000.0, -147000.0, 0.0, 10.0, 10.0 
5.35e+2, 2.95e+2, -49000.0, -49000.0, 0.0, 0.0, 0.0, -49000.0, -49000.0, 0.0, 10.0, 10.0 
5.35e+2, 3.05e+2, 0.0, 0.0, 0.0, 0.0, 0.0, 0.0, 0.0, 0.0, 10.0, 10.0 
5.35e+2, 3.15e+2, 0.0, 0.0, 0.0, 0.0, 0.0, 0.0, 0.0, 0.0, 10.0, 10.0 
5.45e+2, 1.25e+2, -1715000.0, -1715000.0, 0.0, 0.0, 0.0, -1715000.0, -1715000.0, 0.0, 10.0, 10.0 
5.45e+2, 1.35e+2, -1617000.0, -1617000.0, 0.0, 0.0, 0.0, -1617000.0, -1617000.0, 0.0, 10.0, 10.0 
5.45e+2, 1.45e+2, -1519000.0, -1519000.0, 0.0, 0.0, 0.0, -1519000.0, -1519000.0, 0.0, 10.0, 10.0 
5.45e+2, 1.55e+2, -1421000.0, -1421000.0, 0.0, 0.0, 0.0, -1421000.0, -1421000.0, 0.0, 10.0, 10.0 
5.45e+2, 1.65e+2, -1323000.0, -1323000.0, 0.0, 0.0, 0.0, -1323000.0, -1323000.0, 0.0, 10.0, 10.0 
5.45e+2, 1.75e+2, -1225000.0, -1225000.0, 0.0, 0.0, 0.0, -1225000.0, -1225000.0, 0.0, 10.0, 10.0 
5.45e+2, 1.85e+2, -1127000.0, -1127000.0, 0.0, 0.0, 0.0, -1127000.0, -1127000.0, 0.0, 10.0, 10.0 
5.45e+2, 1.95e+2, -1029000.0, -1029000.0, 0.0, 0.0, 0.0, -1029000.0, -1029000.0, 0.0, 10.0, 10.0 
5.45e+2, 2.05e+2, -931000.0, -931000.0, 0.0, 0.0, 0.0, -931000.0, -931000.0, 0.0, 10.0, 10.0 
5.45e+2, 2.15e+2, -833000.0, -833000.0, 0.0, 0.0, 0.0, -833000.0, -833000.0, 0.0, 10.0, 10.0 
5.45e+2, 2.25e+2, -735000.0, -735000.0, 0.0, 0.0, 0.0, -735000.0, -735000.0, 0.0, 10.0, 10.0 
5.45e+2, 2.35e+2, -637000.0, -637000.0, 0.0, 0.0, 0.0, -637000.0, -637000.0, 0.0, 10.0, 10.0 
5.45e+2, 2.45e+2, -539000.0, -539000.0, 0.0, 0.0, 0.0, -539000.0, -539000.0, 0.0, 10.0, 10.0 
5.45e+2, 2.55e+2, -441000.0, -441000.0, 0.0, 0.0, 0.0, -441000.0, -441000.0, 0.0, 10.0, 10.0 
5.45e+2, 2.65e+2, -343000.0, -343000.0, 0.0, 0.0, 0.0, -343000.0, -343000.0, 0.0, 10.0, 10.0 
5.45e+2, 2.75e+2, -245000.0, -245000.0, 0.0, 0.0, 0.0, -245000.0, -245000.0, 0.0, 10.0, 10.0 
5.45e+2, 2.85e+2, -147000.0, -147000.0, 0.0, 0.0, 0.0, -147000.0, -147000.0, 0.0, 10.0, 10.0 
5.45e+2, 2.95e+2, -49000.0, -49000.0, 0.0, 0.0, 0.0, -49000.0, -49000.0, 0.0, 10.0, 10.0 
5.45e+2, 3.05e+2, 0.0, 0.0, 0.0, 0.0, 0.0, 0.0, 0.0, 0.0, 10.0, 10.0 
5.45e+2, 3.15e+2, 0.0, 0.0, 0.0, 0.0, 0.0, 0.0, 0.0, 0.0, 10.0, 10.0 
5.55e+2, 1.25e+2, -1715000.0, -1715000.0, 0.0, 0.0, 0.0, -1715000.0, -1715000.0, 0.0, 10.0, 10.0 
5.55e+2, 1.35e+2, -1617000.0, -1617000.0, 0.0, 0.0, 0.0, -1617000.0, -1617000.0, 0.0, 10.0, 10.0 
5.55e+2, 1.45e+2, -1519000.0, -1519000.0, 0.0, 0.0, 0.0, -1519000.0, -1519000.0, 0.0, 10.0, 10.0 
5.55e+2, 1.55e+2, -1421000.0, -1421000.0, 0.0, 0.0, 0.0, -1421000.0, -1421000.0, 0.0, 10.0, 10.0 
5.55e+2, 1.65e+2, -1323000.0, -1323000.0, 0.0, 0.0, 0.0, -1323000.0, -1323000.0, 0.0, 10.0, 10.0 
5.55e+2, 1.75e+2, -1225000.0, -1225000.0, 0.0, 0.0, 0.0, -1225000.0, -1225000.0, 0.0, 10.0, 10.0 
5.55e+2, 1.85e+2, -1127000.0, -1127000.0, 0.0, 0.0, 0.0, -1127000.0, -1127000.0, 0.0, 10.0, 10.0 
5.55e+2, 1.95e+2, -1029000.0, -1029000.0, 0.0, 0.0, 0.0, -1029000.0, -1029000.0, 0.0, 10.0, 10.0 
5.55e+2, 2.05e+2, -931000.0, -931000.0, 0.0, 0.0, 0.0, -931000.0, -931000.0, 0.0, 10.0, 10.0 
5.55e+2, 2.15e+2, -833000.0, -833000.0, 0.0, 0.0, 0.0, -833000.0, -833000.0, 0.0, 10.0, 10.0 
5.55e+2, 2.25e+2, -735000.0, -735000.0, 0.0, 0.0, 0.0, -735000.0, -735000.0, 0.0, 10.0, 10.0 
5.55e+2, 2.35e+2, -637000.0, -637000.0, 0.0, 0.0, 0.0, -637000.0, -637000.0, 0.0, 10.0, 10.0 
5.55e+2, 2.45e+2, -539000.0, -539000.0, 0.0, 0.0, 0.0, -539000.0, -539000.0, 0.0, 10.0, 10.0 
5.55e+2, 2.55e+2, -441000.0, -441000.0, 0.0, 0.0, 0.0, -441000.0, -441000.0, 0.0, 10.0, 10.0 
5.55e+2, 2.65e+2, -343000.0, -343000.0, 0.0, 0.0, 0.0, -343000.0, -343000.0, 0.0, 10.0, 10.0 
5.55e+2, 2.75e+2, -245000.0, -245000.0, 0.0, 0.0, 0.0, -245000.0, -245000.0, 0.0, 10.0, 10.0 
5.55e+2, 2.85e+2, -147000.0, -147000.0, 0.0, 0.0, 0.0, -147000.0, -147000.0, 0.0, 10.0, 10.0 
5.55e+2, 2.95e+2, -49000.0, -49000.0, 0.0, 0.0, 0.0, -49000.0, -49000.0, 0.0, 10.0, 10.0 
5.55e+2, 3.05e+2, 0.0, 0.0, 0.0, 0.0, 0.0, 0.0, 0.0, 0.0, 10.0, 10.0 
5.55e+2, 3.15e+2, 0.0, 0.0, 0.0, 0.0, 0.0, 0.0, 0.0, 0.0, 10.0, 10.0 
5.65e+2, 1.25e+2, -1715000.0, -1715000.0, 0.0, 0.0, 0.0, -1715000.0, -1715000.0, 0.0, 10.0, 10.0 
5.65e+2, 1.35e+2, -1617000.0, -1617000.0, 0.0, 0.0, 0.0, -1617000.0, -1617000.0, 0.0, 10.0, 10.0 
5.65e+2, 1.45e+2, -1519000.0, -1519000.0, 0.0, 0.0, 0.0, -1519000.0, -1519000.0, 0.0, 10.0, 10.0 
5.65e+2, 1.55e+2, -1421000.0, -1421000.0, 0.0, 0.0, 0.0, -1421000.0, -1421000.0, 0.0, 10.0, 10.0 
5.65e+2, 1.65e+2, -1323000.0, -1323000.0, 0.0, 0.0, 0.0, -1323000.0, -1323000.0, 0.0, 10.0, 10.0 
5.65e+2, 1.75e+2, -1225000.0, -1225000.0, 0.0, 0.0, 0.0, -1225000.0, -1225000.0, 0.0, 10.0, 10.0 
5.65e+2, 1.85e+2, -1127000.0, -1127000.0, 0.0, 0.0, 0.0, -1127000.0, -1127000.0, 0.0, 10.0, 10.0 
5.65e+2, 1.95e+2, -1029000.0, -1029000.0, 0.0, 0.0, 0.0, -1029000.0, -1029000.0, 0.0, 10.0, 10.0 
5.65e+2, 2.05e+2, -931000.0, -931000.0, 0.0, 0.0, 0.0, -931000.0, -931000.0, 0.0, 10.0, 10.0 
5.65e+2, 2.15e+2, -833000.0, -833000.0, 0.0, 0.0, 0.0, -833000.0, -833000.0, 0.0, 10.0, 10.0 
5.65e+2, 2.25e+2, -735000.0, -735000.0, 0.0, 0.0, 0.0, -735000.0, -735000.0, 0.0, 10.0, 10.0 
5.65e+2, 2.35e+2, -637000.0, -637000.0, 0.0, 0.0, 0.0, -637000.0, -637000.0, 0.0, 10.0, 10.0 
5.65e+2, 2.45e+2, -539000.0, -539000.0, 0.0, 0.0, 0.0, -539000.0, -539000.0, 0.0, 10.0, 10.0 
5.65e+2, 2.55e+2, -441000.0, -441000.0, 0.0, 0.0, 0.0, -441000.0, -441000.0, 0.0, 10.0, 10.0 
5.65e+2, 2.65e+2, -343000.0, -343000.0, 0.0, 0.0, 0.0, -343000.0, -343000.0, 0.0, 10.0, 10.0 
5.65e+2, 2.75e+2, -245000.0, -245000.0, 0.0, 0.0, 0.0, -245000.0, -245000.0, 0.0, 10.0, 10.0 
5.65e+2, 2.85e+2, -147000.0, -147000.0, 0.0, 0.0, 0.0, -147000.0, -147000.0, 0.0, 10.0, 10.0 
5.65e+2, 2.95e+2, -49000.0, -49000.0, 0.0, 0.0, 0.0, -49000.0, -49000.0, 0.0, 10.0, 10.0 
5.65e+2, 3.05e+2, 0.0, 0.0, 0.0, 0.0, 0.0, 0.0, 0.0, 0.0, 10.0, 10.0 
5.65e+2, 3.15e+2, 0.0, 0.0, 0.0, 0.0, 0.0, 0.0, 0.0, 0.0, 10.0, 10.0 
5.75e+2, 1.25e+2, -1715000.0, -1715000.0, 0.0, 0.0, 0.0, -1715000.0, -1715000.0, 0.0, 10.0, 10.0 
5.75e+2, 1.35e+2, -1617000.0, -1617000.0, 0.0, 0.0, 0.0, -1617000.0, -1617000.0, 0.0, 10.0, 10.0 
5.75e+2, 1.45e+2, -1519000.0, -1519000.0, 0.0, 0.0, 0.0, -1519000.0, -1519000.0, 0.0, 10.0, 10.0 
5.75e+2, 1.55e+2, -1421000.0, -1421000.0, 0.0, 0.0, 0.0, -1421000.0, -1421000.0, 0.0, 10.0, 10.0 
5.75e+2, 1.65e+2, -1323000.0, -1323000.0, 0.0, 0.0, 0.0, -1323000.0, -1323000.0, 0.0, 10.0, 10.0 
5.75e+2, 1.75e+2, -1225000.0, -1225000.0, 0.0, 0.0, 0.0, -1225000.0, -1225000.0, 0.0, 10.0, 10.0 
5.75e+2, 1.85e+2, -1127000.0, -1127000.0, 0.0, 0.0, 0.0, -1127000.0, -1127000.0, 0.0, 10.0, 10.0 
5.75e+2, 1.95e+2, -1029000.0, -1029000.0, 0.0, 0.0, 0.0, -1029000.0, -1029000.0, 0.0, 10.0, 10.0 
5.75e+2, 2.05e+2, -931000.0, -931000.0, 0.0, 0.0, 0.0, -931000.0, -931000.0, 0.0, 10.0, 10.0 
5.75e+2, 2.15e+2, -833000.0, -833000.0, 0.0, 0.0, 0.0, -833000.0, -833000.0, 0.0, 10.0, 10.0 
5.75e+2, 2.25e+2, -735000.0, -735000.0, 0.0, 0.0, 0.0, -735000.0, -735000.0, 0.0, 10.0, 10.0 
5.75e+2, 2.35e+2, -637000.0, -637000.0, 0.0, 0.0, 0.0, -637000.0, -637000.0, 0.0, 10.0, 10.0 
5.75e+2, 2.45e+2, -539000.0, -539000.0, 0.0, 0.0, 0.0, -539000.0, -539000.0, 0.0, 10.0, 10.0 
5.75e+2, 2.55e+2, -441000.0, -441000.0, 0.0, 0.0, 0.0, -441000.0, -441000.0, 0.0, 10.0, 10.0 
5.75e+2, 2.65e+2, -343000.0, -343000.0, 0.0, 0.0, 0.0, -343000.0, -343000.0, 0.0, 10.0, 10.0 
5.75e+2, 2.75e+2, -245000.0, -245000.0, 0.0, 0.0, 0.0, -245000.0, -245000.0, 0.0, 10.0, 10.0 
5.75e+2, 2.85e+2, -147000.0, -147000.0, 0.0, 0.0, 0.0, -147000.0, -147000.0, 0.0, 10.0, 10.0 
5.75e+2, 2.95e+2, -49000.0, -49000.0, 0.0, 0.0, 0.0, -49000.0, -49000.0, 0.0, 10.0, 10.0 
5.75e+2, 3.05e+2, 0.0, 0.0, 0.0, 0.0, 0.0, 0.0, 0.0, 0.0, 10.0, 10.0 
5.75e+2, 3.15e+2, 0.0, 0.0, 0.0, 0.0, 0.0, 0.0, 0.0, 0.0, 10.0, 10.0 
5.85e+2, 1.25e+2, -1715000.0, -1715000.0, 0.0, 0.0, 0.0, -1715000.0, -1715000.0, 0.0, 10.0, 10.0 
5.85e+2, 1.35e+2, -1617000.0, -1617000.0, 0.0, 0.0, 0.0, -1617000.0, -1617000.0, 0.0, 10.0, 10.0 
5.85e+2, 1.45e+2, -1519000.0, -1519000.0, 0.0, 0.0, 0.0, -1519000.0, -1519000.0, 0.0, 10.0, 10.0 
5.85e+2, 1.55e+2, -1421000.0, -1421000.0, 0.0, 0.0, 0.0, -1421000.0, -1421000.0, 0.0, 10.0, 10.0 
5.85e+2, 1.65e+2, -1323000.0, -1323000.0, 0.0, 0.0, 0.0, -1323000.0, -1323000.0, 0.0, 10.0, 10.0 
5.85e+2, 1.75e+2, -1225000.0, -1225000.0, 0.0, 0.0, 0.0, -1225000.0, -1225000.0, 0.0, 10.0, 10.0 
5.85e+2, 1.85e+2, -1127000.0, -1127000.0, 0.0, 0.0, 0.0, -1127000.0, -1127000.0, 0.0, 10.0, 10.0 
5.85e+2, 1.95e+2, -1029000.0, -1029000.0, 0.0, 0.0, 0.0, -1029000.0, -1029000.0, 0.0, 10.0, 10.0 
5.85e+2, 2.05e+2, -931000.0, -931000.0, 0.0, 0.0, 0.0, -931000.0, -931000.0, 0.0, 10.0, 10.0 
5.85e+2, 2.15e+2, -833000.0, -833000.0, 0.0, 0.0, 0.0, -833000.0, -833000.0, 0.0, 10.0, 10.0 
5.85e+2, 2.25e+2, -735000.0, -735000.0, 0.0, 0.0, 0.0, -735000.0, -735000.0, 0.0, 10.0, 10.0 
5.85e+2, 2.35e+2, -637000.0, -637000.0, 0.0, 0.0, 0.0, -637000.0, -637000.0, 0.0, 10.0, 10.0 
5.85e+2, 2.45e+2, -539000.0, -539000.0, 0.0, 0.0, 0.0, -539000.0, -539000.0, 0.0, 10.0, 10.0 
5.85e+2, 2.55e+2, -441000.0, -441000.0, 0.0, 0.0, 0.0, -441000.0, -441000.0, 0.0, 10.0, 10.0 
5.85e+2, 2.65e+2, -343000.0, -343000.0, 0.0, 0.0, 0.0, -343000.0, -343000.0, 0.0, 10.0, 10.0 
5.85e+2, 2.75e+2, -245000.0, -245000.0, 0.0, 0.0, 0.0, -245000.0, -245000.0, 0.0, 10.0, 10.0 
5.85e+2, 2.85e+2, -147000.0, -147000.0, 0.0, 0.0, 0.0, -147000.0, -147000.0, 0.0, 10.0, 10.0 
5.85e+2, 2.95e+2, -49000.0, -49000.0, 0.0, 0.0, 0.0, -49000.0, -49000.0, 0.0, 10.0, 10.0 
5.85e+2, 3.05e+2, 0.0, 0.0, 0.0, 0.0, 0.0, 0.0, 0.0, 0.0, 10.0, 10.0 
5.85e+2, 3.15e+2, 0.0, 0.0, 0.0, 0.0, 0.0, 0.0, 0.0, 0.0, 10.0, 10.0 
5.95e+2, 1.25e+2, -1715000.0, -1715000.0, 0.0, 0.0, 0.0, -1715000.0, -1715000.0, 0.0, 10.0, 10.0 
5.95e+2, 1.35e+2, -1617000.0, -1617000.0, 0.0, 0.0, 0.0, -1617000.0, -1617000.0, 0.0, 10.0, 10.0 
5.95e+2, 1.45e+2, -1519000.0, -1519000.0, 0.0, 0.0, 0.0, -1519000.0, -1519000.0, 0.0, 10.0, 10.0 
5.95e+2, 1.55e+2, -1421000.0, -1421000.0, 0.0, 0.0, 0.0, -1421000.0, -1421000.0, 0.0, 10.0, 10.0 
5.95e+2, 1.65e+2, -1323000.0, -1323000.0, 0.0, 0.0, 0.0, -1323000.0, -1323000.0, 0.0, 10.0, 10.0 
5.95e+2, 1.75e+2, -1225000.0, -1225000.0, 0.0, 0.0, 0.0, -1225000.0, -1225000.0, 0.0, 10.0, 10.0 
5.95e+2, 1.85e+2, -1127000.0, -1127000.0, 0.0, 0.0, 0.0, -1127000.0, -1127000.0, 0.0, 10.0, 10.0 
5.95e+2, 1.95e+2, -1029000.0, -1029000.0, 0.0, 0.0, 0.0, -1029000.0, -1029000.0, 0.0, 10.0, 10.0 
5.95e+2, 2.05e+2, -931000.0, -931000.0, 0.0, 0.0, 0.0, -931000.0, -931000.0, 0.0, 10.0, 10.0 
5.95e+2, 2.15e+2, -833000.0, -833000.0, 0.0, 0.0, 0.0, -833000.0, -833000.0, 0.0, 10.0, 10.0 
5.95e+2, 2.25e+2, -735000.0, -735000.0, 0.0, 0.0, 0.0, -735000.0, -735000.0, 0.0, 10.0, 10.0 
5.95e+2, 2.35e+2, -637000.0, -637000.0, 0.0, 0.0, 0.0, -637000.0, -637000.0, 0.0, 10.0, 10.0 
5.95e+2, 2.45e+2, -539000.0, -539000.0, 0.0, 0.0, 0.0, -539000.0, -539000.0, 0.0, 10.0, 10.0 
5.95e+2, 2.55e+2, -441000.0, -441000.0, 0.0, 0.0, 0.0, -441000.0, -441000.0, 0.0, 10.0, 10.0 
5.95e+2, 2.65e+2, -343000.0, -343000.0, 0.0, 0.0, 0.0, -343000.0, -343000.0, 0.0, 10.0, 10.0 
5.95e+2, 2.75e+2, -245000.0, -245000.0, 0.0, 0.0, 0.0, -245000.0, -245000.0, 0.0, 10.0, 10.0 
5.95e+2, 2.85e+2, -147000.0, -147000.0, 0.0, 0.0, 0.0, -147000.0, -147000.0, 0.0, 10.0, 10.0 
5.95e+2, 2.95e+2, -49000.0, -49000.0, 0.0, 0.0, 0.0, -49000.0, -49000.0, 0.0, 10.0, 10.0 
5.95e+2, 3.05e+2, 0.0, 0.0, 0.0, 0.0, 0.0, 0.0, 0.0, 0.0, 10.0, 10.0 
5.95e+2, 3.15e+2, 0.0, 0.0, 0.0, 0.0, 0.0, 0.0, 0.0, 0.0, 10.0, 10.0 
6.05e+2, 1.25e+2, -1715000.0, -1715000.0, 0.0, 0.0, 0.0, -1715000.0, -1715000.0, 0.0, 10.0, 10.0 
6.05e+2, 1.35e+2, -1617000.0, -1617000.0, 0.0, 0.0, 0.0, -1617000.0, -1617000.0, 0.0, 10.0, 10.0 
6.05e+2, 1.45e+2, -1519000.0, -1519000.0, 0.0, 0.0, 0.0, -1519000.0, -1519000.0, 0.0, 10.0, 10.0 
6.05e+2, 1.55e+2, -1421000.0, -1421000.0, 0.0, 0.0, 0.0, -1421000.0, -1421000.0, 0.0, 10.0, 10.0 
6.05e+2, 1.65e+2, -1323000.0, -1323000.0, 0.0, 0.0, 0.0, -1323000.0, -1323000.0, 0.0, 10.0, 10.0 
6.05e+2, 1.75e+2, -1225000.0, -1225000.0, 0.0, 0.0, 0.0, -1225000.0, -1225000.0, 0.0, 10.0, 10.0 
6.05e+2, 1.85e+2, -1127000.0, -1127000.0, 0.0, 0.0, 0.0, -1127000.0, -1127000.0, 0.0, 10.0, 10.0 
6.05e+2, 1.95e+2, -1029000.0, -1029000.0, 0.0, 0.0, 0.0, -1029000.0, -1029000.0, 0.0, 10.0, 10.0 
6.05e+2, 2.05e+2, -931000.0, -931000.0, 0.0, 0.0, 0.0, -931000.0, -931000.0, 0.0, 10.0, 10.0 
6.05e+2, 2.15e+2, -833000.0, -833000.0, 0.0, 0.0, 0.0, -833000.0, -833000.0, 0.0, 10.0, 10.0 
6.05e+2, 2.25e+2, -735000.0, -735000.0, 0.0, 0.0, 0.0, -735000.0, -735000.0, 0.0, 10.0, 10.0 
6.05e+2, 2.35e+2, -637000.0, -637000.0, 0.0, 0.0, 0.0, -637000.0, -637000.0, 0.0, 10.0, 10.0 
6.05e+2, 2.45e+2, -539000.0, -539000.0, 0.0, 0.0, 0.0, -539000.0, -539000.0, 0.0, 10.0, 10.0 
6.05e+2, 2.55e+2, -441000.0, -441000.0, 0.0, 0.0, 0.0, -441000.0, -441000.0, 0.0, 10.0, 10.0 
6.05e+2, 2.65e+2, -343000.0, -343000.0, 0.0, 0.0, 0.0, -343000.0, -343000.0, 0.0, 10.0, 10.0 
6.05e+2, 2.75e+2, -245000.0, -245000.0, 0.0, 0.0, 0.0, -245000.0, -245000.0, 0.0, 10.0, 10.0 
6.05e+2, 2.85e+2, -147000.0, -147000.0, 0.0, 0.0, 0.0, -147000.0, -147000.0, 0.0, 10.0, 10.0 
6.05e+2, 2.95e+2, -49000.0, -49000.0, 0.0, 0.0, 0.0, -49000.0, -49000.0, 0.0, 10.0, 10.0 
6.05e+2, 3.05e+2, 0.0, 0.0, 0.0, 0.0, 0.0, 0.0, 0.0, 0.0, 10.0, 10.0 
6.05e+2, 3.15e+2, 0.0, 0.0, 0.0, 0.0, 0.0, 0.0, 0.0, 0.0, 10.0, 10.0 
6.15e+2, 1.25e+2, -1715000.0, -1715000.0, 0.0, 0.0, 0.0, -1715000.0, -1715000.0, 0.0, 10.0, 10.0 
6.15e+2, 1.35e+2, -1617000.0, -1617000.0, 0.0, 0.0, 0.0, -1617000.0, -1617000.0, 0.0, 10.0, 10.0 
6.15e+2, 1.45e+2, -1519000.0, -1519000.0, 0.0, 0.0, 0.0, -1519000.0, -1519000.0, 0.0, 10.0, 10.0 
6.15e+2, 1.55e+2, -1421000.0, -1421000.0, 0.0, 0.0, 0.0, -1421000.0, -1421000.0, 0.0, 10.0, 10.0 
6.15e+2, 1.65e+2, -1323000.0, -1323000.0, 0.0, 0.0, 0.0, -1323000.0, -1323000.0, 0.0, 10.0, 10.0 
6.15e+2, 1.75e+2, -1225000.0, -1225000.0, 0.0, 0.0, 0.0, -1225000.0, -1225000.0, 0.0, 10.0, 10.0 
6.15e+2, 1.85e+2, -1127000.0, -1127000.0, 0.0, 0.0, 0.0, -1127000.0, -1127000.0, 0.0, 10.0, 10.0 
6.15e+2, 1.95e+2, -1029000.0, -1029000.0, 0.0, 0.0, 0.0, -1029000.0, -1029000.0, 0.0, 10.0, 10.0 
6.15e+2, 2.05e+2, -931000.0, -931000.0, 0.0, 0.0, 0.0, -931000.0, -931000.0, 0.0, 10.0, 10.0 
6.15e+2, 2.15e+2, -833000.0, -833000.0, 0.0, 0.0, 0.0, -833000.0, -833000.0, 0.0, 10.0, 10.0 
6.15e+2, 2.25e+2, -735000.0, -735000.0, 0.0, 0.0, 0.0, -735000.0, -735000.0, 0.0, 10.0, 10.0 
6.15e+2, 2.35e+2, -637000.0, -637000.0, 0.0, 0.0, 0.0, -637000.0, -637000.0, 0.0, 10.0, 10.0 
6.15e+2, 2.45e+2, -539000.0, -539000.0, 0.0, 0.0, 0.0, -539000.0, -539000.0, 0.0, 10.0, 10.0 
6.15e+2, 2.55e+2, -441000.0, -441000.0, 0.0, 0.0, 0.0, -441000.0, -441000.0, 0.0, 10.0, 10.0 
6.15e+2, 2.65e+2, -343000.0, -343000.0, 0.0, 0.0, 0.0, -343000.0, -343000.0, 0.0, 10.0, 10.0 
6.15e+2, 2.75e+2, -245000.0, -245000.0, 0.0, 0.0, 0.0, -245000.0, -245000.0, 0.0, 10.0, 10.0 
6.15e+2, 2.85e+2, -147000.0, -147000.0, 0.0, 0.0, 0.0, -147000.0, -147000.0, 0.0, 10.0, 10.0 
6.15e+2, 2.95e+2, -49000.0, -49000.0, 0.0, 0.0, 0.0, -49000.0, -49000.0, 0.0, 10.0, 10.0 
6.15e+2, 3.05e+2, 0.0, 0.0, 0.0, 0.0, 0.0, 0.0, 0.0, 0.0, 10.0, 10.0 
6.15e+2, 3.15e+2, 0.0, 0.0, 0.0, 0.0, 0.0, 0.0, 0.0, 0.0, 10.0, 10.0 
6.25e+2, 1.25e+2, -1715000.0, -1715000.0, 0.0, 0.0, 0.0, -1715000.0, -1715000.0, 0.0, 10.0, 10.0 
6.25e+2, 1.35e+2, -1617000.0, -1617000.0, 0.0, 0.0, 0.0, -1617000.0, -1617000.0, 0.0, 10.0, 10.0 
6.25e+2, 1.45e+2, -1519000.0, -1519000.0, 0.0, 0.0, 0.0, -1519000.0, -1519000.0, 0.0, 10.0, 10.0 
6.25e+2, 1.55e+2, -1421000.0, -1421000.0, 0.0, 0.0, 0.0, -1421000.0, -1421000.0, 0.0, 10.0, 10.0 
6.25e+2, 1.65e+2, -1323000.0, -1323000.0, 0.0, 0.0, 0.0, -1323000.0, -1323000.0, 0.0, 10.0, 10.0 
6.25e+2, 1.75e+2, -1225000.0, -1225000.0, 0.0, 0.0, 0.0, -1225000.0, -1225000.0, 0.0, 10.0, 10.0 
6.25e+2, 1.85e+2, -1127000.0, -1127000.0, 0.0, 0.0, 0.0, -1127000.0, -1127000.0, 0.0, 10.0, 10.0 
6.25e+2, 1.95e+2, -1029000.0, -1029000.0, 0.0, 0.0, 0.0, -1029000.0, -1029000.0, 0.0, 10.0, 10.0 
6.25e+2, 2.05e+2, -931000.0, -931000.0, 0.0, 0.0, 0.0, -931000.0, -931000.0, 0.0, 10.0, 10.0 
6.25e+2, 2.15e+2, -833000.0, -833000.0, 0.0, 0.0, 0.0, -833000.0, -833000.0, 0.0, 10.0, 10.0 
6.25e+2, 2.25e+2, -735000.0, -735000.0, 0.0, 0.0, 0.0, -735000.0, -735000.0, 0.0, 10.0, 10.0 
6.25e+2, 2.35e+2, -637000.0, -637000.0, 0.0, 0.0, 0.0, -637000.0, -637000.0, 0.0, 10.0, 10.0 
6.25e+2, 2.45e+2, -539000.0, -539000.0, 0.0, 0.0, 0.0, -539000.0, -539000.0, 0.0, 10.0, 10.0 
6.25e+2, 2.55e+2, -441000.0, -441000.0, 0.0, 0.0, 0.0, -441000.0, -441000.0, 0.0, 10.0, 10.0 
6.25e+2, 2.65e+2, -343000.0, -343000.0, 0.0, 0.0, 0.0, -343000.0, -343000.0, 0.0, 10.0, 10.0 
6.25e+2, 2.75e+2, -245000.0, -245000.0, 0.0, 0.0, 0.0, -245000.0, -245000.0, 0.0, 10.0, 10.0 
6.25e+2, 2.85e+2, -147000.0, -147000.0, 0.0, 0.0, 0.0, -147000.0, -147000.0, 0.0, 10.0, 10.0 
6.25e+2, 2.95e+2, -49000.0, -49000.0, 0.0, 0.0, 0.0, -49000.0, -49000.0, 0.0, 10.0, 10.0 
6.25e+2, 3.05e+2, 0.0, 0.0, 0.0, 0.0, 0.0, 0.0, 0.0, 0.0, 10.0, 10.0 
6.25e+2, 3.15e+2, 0.0, 0.0, 0.0, 0.0, 0.0, 0.0, 0.0, 0.0, 10.0, 10.0 
6.35e+2, 1.25e+2, -1715000.0, -1715000.0, 0.0, 0.0, 0.0, -1715000.0, -1715000.0, 0.0, 10.0, 10.0 
6.35e+2, 1.35e+2, -1617000.0, -1617000.0, 0.0, 0.0, 0.0, -1617000.0, -1617000.0, 0.0, 10.0, 10.0 
6.35e+2, 1.45e+2, -1519000.0, -1519000.0, 0.0, 0.0, 0.0, -1519000.0, -1519000.0, 0.0, 10.0, 10.0 
6.35e+2, 1.55e+2, -1421000.0, -1421000.0, 0.0, 0.0, 0.0, -1421000.0, -1421000.0, 0.0, 10.0, 10.0 
6.35e+2, 1.65e+2, -1323000.0, -1323000.0, 0.0, 0.0, 0.0, -1323000.0, -1323000.0, 0.0, 10.0, 10.0 
6.35e+2, 1.75e+2, -1225000.0, -1225000.0, 0.0, 0.0, 0.0, -1225000.0, -1225000.0, 0.0, 10.0, 10.0 
6.35e+2, 1.85e+2, -1127000.0, -1127000.0, 0.0, 0.0, 0.0, -1127000.0, -1127000.0, 0.0, 10.0, 10.0 
6.35e+2, 1.95e+2, -1029000.0, -1029000.0, 0.0, 0.0, 0.0, -1029000.0, -1029000.0, 0.0, 10.0, 10.0 
6.35e+2, 2.05e+2, -931000.0, -931000.0, 0.0, 0.0, 0.0, -931000.0, -931000.0, 0.0, 10.0, 10.0 
6.35e+2, 2.15e+2, -833000.0, -833000.0, 0.0, 0.0, 0.0, -833000.0, -833000.0, 0.0, 10.0, 10.0 
6.35e+2, 2.25e+2, -735000.0, -735000.0, 0.0, 0.0, 0.0, -735000.0, -735000.0, 0.0, 10.0, 10.0 
6.35e+2, 2.35e+2, -637000.0, -637000.0, 0.0, 0.0, 0.0, -637000.0, -637000.0, 0.0, 10.0, 10.0 
6.35e+2, 2.45e+2, -539000.0, -539000.0, 0.0, 0.0, 0.0, -539000.0, -539000.0, 0.0, 10.0, 10.0 
6.35e+2, 2.55e+2, -441000.0, -441000.0, 0.0, 0.0, 0.0, -441000.0, -441000.0, 0.0, 10.0, 10.0 
6.35e+2, 2.65e+2, -343000.0, -343000.0, 0.0, 0.0, 0.0, -343000.0, -343000.0, 0.0, 10.0, 10.0 
6.35e+2, 2.75e+2, -245000.0, -245000.0, 0.0, 0.0, 0.0, -245000.0, -245000.0, 0.0, 10.0, 10.0 
6.35e+2, 2.85e+2, -147000.0, -147000.0, 0.0, 0.0, 0.0, -147000.0, -147000.0, 0.0, 10.0, 10.0 
6.35e+2, 2.95e+2, -49000.0, -49000.0, 0.0, 0.0, 0.0, -49000.0, -49000.0, 0.0, 10.0, 10.0 
6.35e+2, 3.05e+2, 0.0, 0.0, 0.0, 0.0, 0.0, 0.0, 0.0, 0.0, 10.0, 10.0 
6.35e+2, 3.15e+2, 0.0, 0.0, 0.0, 0.0, 0.0, 0.0, 0.0, 0.0, 10.0, 10.0 
6.45e+2, 1.25e+2, -1715000.0, -1715000.0, 0.0, 0.0, 0.0, -1715000.0, -1715000.0, 0.0, 10.0, 10.0 
6.45e+2, 1.35e+2, -1617000.0, -1617000.0, 0.0, 0.0, 0.0, -1617000.0, -1617000.0, 0.0, 10.0, 10.0 
6.45e+2, 1.45e+2, -1519000.0, -1519000.0, 0.0, 0.0, 0.0, -1519000.0, -1519000.0, 0.0, 10.0, 10.0 
6.45e+2, 1.55e+2, -1421000.0, -1421000.0, 0.0, 0.0, 0.0, -1421000.0, -1421000.0, 0.0, 10.0, 10.0 
6.45e+2, 1.65e+2, -1323000.0, -1323000.0, 0.0, 0.0, 0.0, -1323000.0, -1323000.0, 0.0, 10.0, 10.0 
6.45e+2, 1.75e+2, -1225000.0, -1225000.0, 0.0, 0.0, 0.0, -1225000.0, -1225000.0, 0.0, 10.0, 10.0 
6.45e+2, 1.85e+2, -1127000.0, -1127000.0, 0.0, 0.0, 0.0, -1127000.0, -1127000.0, 0.0, 10.0, 10.0 
6.45e+2, 1.95e+2, -1029000.0, -1029000.0, 0.0, 0.0, 0.0, -1029000.0, -1029000.0, 0.0, 10.0, 10.0 
6.45e+2, 2.05e+2, -931000.0, -931000.0, 0.0, 0.0, 0.0, -931000.0, -931000.0, 0.0, 10.0, 10.0 
6.45e+2, 2.15e+2, -833000.0, -833000.0, 0.0, 0.0, 0.0, -833000.0, -833000.0, 0.0, 10.0, 10.0 
6.45e+2, 2.25e+2, -735000.0, -735000.0, 0.0, 0.0, 0.0, -735000.0, -735000.0, 0.0, 10.0, 10.0 
6.45e+2, 2.35e+2, -637000.0, -637000.0, 0.0, 0.0, 0.0, -637000.0, -637000.0, 0.0, 10.0, 10.0 
6.45e+2, 2.45e+2, -539000.0, -539000.0, 0.0, 0.0, 0.0, -539000.0, -539000.0, 0.0, 10.0, 10.0 
6.45e+2, 2.55e+2, -441000.0, -441000.0, 0.0, 0.0, 0.0, -441000.0, -441000.0, 0.0, 10.0, 10.0 
6.45e+2, 2.65e+2, -343000.0, -343000.0, 0.0, 0.0, 0.0, -343000.0, -343000.0, 0.0, 10.0, 10.0 
6.45e+2, 2.75e+2, -245000.0, -245000.0, 0.0, 0.0, 0.0, -245000.0, -245000.0, 0.0, 10.0, 10.0 
6.45e+2, 2.85e+2, -147000.0, -147000.0, 0.0, 0.0, 0.0, -147000.0, -147000.0, 0.0, 10.0, 10.0 
6.45e+2, 2.95e+2, -49000.0, -49000.0, 0.0, 0.0, 0.0, -49000.0, -49000.0, 0.0, 10.0, 10.0 
6.45e+2, 3.05e+2, 0.0, 0.0, 0.0, 0.0, 0.0, 0.0, 0.0, 0.0, 10.0, 10.0 
6.45e+2, 3.15e+2, 0.0, 0.0, 0.0, 0.0, 0.0, 0.0, 0.0, 0.0, 10.0, 10.0 
6.55e+2, 1.25e+2, -1715000.0, -1715000.0, 0.0, 0.0, 0.0, -1715000.0, -1715000.0, 0.0, 10.0, 10.0 
6.55e+2, 1.35e+2, -1617000.0, -1617000.0, 0.0, 0.0, 0.0, -1617000.0, -1617000.0, 0.0, 10.0, 10.0 
6.55e+2, 1.45e+2, -1519000.0, -1519000.0, 0.0, 0.0, 0.0, -1519000.0, -1519000.0, 0.0, 10.0, 10.0 
6.55e+2, 1.55e+2, -1421000.0, -1421000.0, 0.0, 0.0, 0.0, -1421000.0, -1421000.0, 0.0, 10.0, 10.0 
6.55e+2, 1.65e+2, -1323000.0, -1323000.0, 0.0, 0.0, 0.0, -1323000.0, -1323000.0, 0.0, 10.0, 10.0 
6.55e+2, 1.75e+2, -1225000.0, -1225000.0, 0.0, 0.0, 0.0, -1225000.0, -1225000.0, 0.0, 10.0, 10.0 
6.55e+2, 1.85e+2, -1127000.0, -1127000.0, 0.0, 0.0, 0.0, -1127000.0, -1127000.0, 0.0, 10.0, 10.0 
6.55e+2, 1.95e+2, -1029000.0, -1029000.0, 0.0, 0.0, 0.0, -1029000.0, -1029000.0, 0.0, 10.0, 10.0 
6.55e+2, 2.05e+2, -931000.0, -931000.0, 0.0, 0.0, 0.0, -931000.0, -931000.0, 0.0, 10.0, 10.0 
6.55e+2, 2.15e+2, -833000.0, -833000.0, 0.0, 0.0, 0.0, -833000.0, -833000.0, 0.0, 10.0, 10.0 
6.55e+2, 2.25e+2, -735000.0, -735000.0, 0.0, 0.0, 0.0, -735000.0, -735000.0, 0.0, 10.0, 10.0 
6.55e+2, 2.35e+2, -637000.0, -637000.0, 0.0, 0.0, 0.0, -637000.0, -637000.0, 0.0, 10.0, 10.0 
6.55e+2, 2.45e+2, -539000.0, -539000.0, 0.0, 0.0, 0.0, -539000.0, -539000.0, 0.0, 10.0, 10.0 
6.55e+2, 2.55e+2, -441000.0, -441000.0, 0.0, 0.0, 0.0, -441000.0, -441000.0, 0.0, 10.0, 10.0 
6.55e+2, 2.65e+2, -343000.0, -343000.0, 0.0, 0.0, 0.0, -343000.0, -343000.0, 0.0, 10.0, 10.0 
6.55e+2, 2.75e+2, -245000.0, -245000.0, 0.0, 0.0, 0.0, -245000.0, -245000.0, 0.0, 10.0, 10.0 
6.55e+2, 2.85e+2, -147000.0, -147000.0, 0.0, 0.0, 0.0, -147000.0, -147000.0, 0.0, 10.0, 10.0 
6.55e+2, 2.95e+2, -49000.0, -49000.0, 0.0, 0.0, 0.0, -49000.0, -49000.0, 0.0, 10.0, 10.0 
6.55e+2, 3.05e+2, 0.0, 0.0, 0.0, 0.0, 0.0, 0.0, 0.0, 0.0, 10.0, 10.0 
6.55e+2, 3.15e+2, 0.0, 0.0, 0.0, 0.0, 0.0, 0.0, 0.0, 0.0, 10.0, 10.0 
6.65e+2, 1.25e+2, -1715000.0, -1715000.0, 0.0, 0.0, 0.0, -1715000.0, -1715000.0, 0.0, 10.0, 10.0 
6.65e+2, 1.35e+2, -1617000.0, -1617000.0, 0.0, 0.0, 0.0, -1617000.0, -1617000.0, 0.0, 10.0, 10.0 
6.65e+2, 1.45e+2, -1519000.0, -1519000.0, 0.0, 0.0, 0.0, -1519000.0, -1519000.0, 0.0, 10.0, 10.0 
6.65e+2, 1.55e+2, -1421000.0, -1421000.0, 0.0, 0.0, 0.0, -1421000.0, -1421000.0, 0.0, 10.0, 10.0 
6.65e+2, 1.65e+2, -1323000.0, -1323000.0, 0.0, 0.0, 0.0, -1323000.0, -1323000.0, 0.0, 10.0, 10.0 
6.65e+2, 1.75e+2, -1225000.0, -1225000.0, 0.0, 0.0, 0.0, -1225000.0, -1225000.0, 0.0, 10.0, 10.0 
6.65e+2, 1.85e+2, -1127000.0, -1127000.0, 0.0, 0.0, 0.0, -1127000.0, -1127000.0, 0.0, 10.0, 10.0 
6.65e+2, 1.95e+2, -1029000.0, -1029000.0, 0.0, 0.0, 0.0, -1029000.0, -1029000.0, 0.0, 10.0, 10.0 
6.65e+2, 2.05e+2, -931000.0, -931000.0, 0.0, 0.0, 0.0, -931000.0, -931000.0, 0.0, 10.0, 10.0 
6.65e+2, 2.15e+2, -833000.0, -833000.0, 0.0, 0.0, 0.0, -833000.0, -833000.0, 0.0, 10.0, 10.0 
6.65e+2, 2.25e+2, -735000.0, -735000.0, 0.0, 0.0, 0.0, -735000.0, -735000.0, 0.0, 10.0, 10.0 
6.65e+2, 2.35e+2, -637000.0, -637000.0, 0.0, 0.0, 0.0, -637000.0, -637000.0, 0.0, 10.0, 10.0 
6.65e+2, 2.45e+2, -539000.0, -539000.0, 0.0, 0.0, 0.0, -539000.0, -539000.0, 0.0, 10.0, 10.0 
6.65e+2, 2.55e+2, -441000.0, -441000.0, 0.0, 0.0, 0.0, -441000.0, -441000.0, 0.0, 10.0, 10.0 
6.65e+2, 2.65e+2, -343000.0, -343000.0, 0.0, 0.0, 0.0, -343000.0, -343000.0, 0.0, 10.0, 10.0 
6.65e+2, 2.75e+2, -245000.0, -245000.0, 0.0, 0.0, 0.0, -245000.0, -245000.0, 0.0, 10.0, 10.0 
6.65e+2, 2.85e+2, -147000.0, -147000.0, 0.0, 0.0, 0.0, -147000.0, -147000.0, 0.0, 10.0, 10.0 
6.65e+2, 2.95e+2, -49000.0, -49000.0, 0.0, 0.0, 0.0, -49000.0, -49000.0, 0.0, 10.0, 10.0 
6.65e+2, 3.05e+2, 0.0, 0.0, 0.0, 0.0, 0.0, 0.0, 0.0, 0.0, 10.0, 10.0 
6.65e+2, 3.15e+2, 0.0, 0.0, 0.0, 0.0, 0.0, 0.0, 0.0, 0.0, 10.0, 10.0 
6.75e+2, 1.25e+2, -1715000.0, -1715000.0, 0.0, 0.0, 0.0, -1715000.0, -1715000.0, 0.0, 10.0, 10.0 
6.75e+2, 1.35e+2, -1617000.0, -1617000.0, 0.0, 0.0, 0.0, -1617000.0, -1617000.0, 0.0, 10.0, 10.0 
6.75e+2, 1.45e+2, -1519000.0, -1519000.0, 0.0, 0.0, 0.0, -1519000.0, -1519000.0, 0.0, 10.0, 10.0 
6.75e+2, 1.55e+2, -1421000.0, -1421000.0, 0.0, 0.0, 0.0, -1421000.0, -1421000.0, 0.0, 10.0, 10.0 
6.75e+2, 1.65e+2, -1323000.0, -1323000.0, 0.0, 0.0, 0.0, -1323000.0, -1323000.0, 0.0, 10.0, 10.0 
6.75e+2, 1.75e+2, -1225000.0, -1225000.0, 0.0, 0.0, 0.0, -1225000.0, -1225000.0, 0.0, 10.0, 10.0 
6.75e+2, 1.85e+2, -1127000.0, -1127000.0, 0.0, 0.0, 0.0, -1127000.0, -1127000.0, 0.0, 10.0, 10.0 
6.75e+2, 1.95e+2, -1029000.0, -1029000.0, 0.0, 0.0, 0.0, -1029000.0, -1029000.0, 0.0, 10.0, 10.0 
6.75e+2, 2.05e+2, -931000.0, -931000.0, 0.0, 0.0, 0.0, -931000.0, -931000.0, 0.0, 10.0, 10.0 
6.75e+2, 2.15e+2, -833000.0, -833000.0, 0.0, 0.0, 0.0, -833000.0, -833000.0, 0.0, 10.0, 10.0 
6.75e+2, 2.25e+2, -735000.0, -735000.0, 0.0, 0.0, 0.0, -735000.0, -735000.0, 0.0, 10.0, 10.0 
6.75e+2, 2.35e+2, -637000.0, -637000.0, 0.0, 0.0, 0.0, -637000.0, -637000.0, 0.0, 10.0, 10.0 
6.75e+2, 2.45e+2, -539000.0, -539000.0, 0.0, 0.0, 0.0, -539000.0, -539000.0, 0.0, 10.0, 10.0 
6.75e+2, 2.55e+2, -441000.0, -441000.0, 0.0, 0.0, 0.0, -441000.0, -441000.0, 0.0, 10.0, 10.0 
6.75e+2, 2.65e+2, -343000.0, -343000.0, 0.0, 0.0, 0.0, -343000.0, -343000.0, 0.0, 10.0, 10.0 
6.75e+2, 2.75e+2, -245000.0, -245000.0, 0.0, 0.0, 0.0, -245000.0, -245000.0, 0.0, 10.0, 10.0 
6.75e+2, 2.85e+2, -147000.0, -147000.0, 0.0, 0.0, 0.0, -147000.0, -147000.0, 0.0, 10.0, 10.0 
6.75e+2, 2.95e+2, -49000.0, -49000.0, 0.0, 0.0, 0.0, -49000.0, -49000.0, 0.0, 10.0, 10.0 
6.75e+2, 3.05e+2, 0.0, 0.0, 0.0, 0.0, 0.0, 0.0, 0.0, 0.0, 10.0, 10.0 
6.75e+2, 3.15e+2, 0.0, 0.0, 0.0, 0.0, 0.0, 0.0, 0.0, 0.0, 10.0, 10.0 
6.85e+2, 1.25e+2, -1715000.0, -1715000.0, 0.0, 0.0, 0.0, -1715000.0, -1715000.0, 0.0, 10.0, 10.0 
6.85e+2, 1.35e+2, -1617000.0, -1617000.0, 0.0, 0.0, 0.0, -1617000.0, -1617000.0, 0.0, 10.0, 10.0 
6.85e+2, 1.45e+2, -1519000.0, -1519000.0, 0.0, 0.0, 0.0, -1519000.0, -1519000.0, 0.0, 10.0, 10.0 
6.85e+2, 1.55e+2, -1421000.0, -1421000.0, 0.0, 0.0, 0.0, -1421000.0, -1421000.0, 0.0, 10.0, 10.0 
6.85e+2, 1.65e+2, -1323000.0, -1323000.0, 0.0, 0.0, 0.0, -1323000.0, -1323000.0, 0.0, 10.0, 10.0 
6.85e+2, 1.75e+2, -1225000.0, -1225000.0, 0.0, 0.0, 0.0, -1225000.0, -1225000.0, 0.0, 10.0, 10.0 
6.85e+2, 1.85e+2, -1127000.0, -1127000.0, 0.0, 0.0, 0.0, -1127000.0, -1127000.0, 0.0, 10.0, 10.0 
6.85e+2, 1.95e+2, -1029000.0, -1029000.0, 0.0, 0.0, 0.0, -1029000.0, -1029000.0, 0.0, 10.0, 10.0 
6.85e+2, 2.05e+2, -931000.0, -931000.0, 0.0, 0.0, 0.0, -931000.0, -931000.0, 0.0, 10.0, 10.0 
6.85e+2, 2.15e+2, -833000.0, -833000.0, 0.0, 0.0, 0.0, -833000.0, -833000.0, 0.0, 10.0, 10.0 
6.85e+2, 2.25e+2, -735000.0, -735000.0, 0.0, 0.0, 0.0, -735000.0, -735000.0, 0.0, 10.0, 10.0 
6.85e+2, 2.35e+2, -637000.0, -637000.0, 0.0, 0.0, 0.0, -637000.0, -637000.0, 0.0, 10.0, 10.0 
6.85e+2, 2.45e+2, -539000.0, -539000.0, 0.0, 0.0, 0.0, -539000.0, -539000.0, 0.0, 10.0, 10.0 
6.85e+2, 2.55e+2, -441000.0, -441000.0, 0.0, 0.0, 0.0, -441000.0, -441000.0, 0.0, 10.0, 10.0 
6.85e+2, 2.65e+2, -343000.0, -343000.0, 0.0, 0.0, 0.0, -343000.0, -343000.0, 0.0, 10.0, 10.0 
6.85e+2, 2.75e+2, -245000.0, -245000.0, 0.0, 0.0, 0.0, -245000.0, -245000.0, 0.0, 10.0, 10.0 
6.85e+2, 2.85e+2, -147000.0, -147000.0, 0.0, 0.0, 0.0, -147000.0, -147000.0, 0.0, 10.0, 10.0 
6.85e+2, 2.95e+2, -49000.0, -49000.0, 0.0, 0.0, 0.0, -49000.0, -49000.0, 0.0, 10.0, 10.0 
6.85e+2, 3.05e+2, 0.0, 0.0, 0.0, 0.0, 0.0, 0.0, 0.0, 0.0, 10.0, 10.0 
6.85e+2, 3.15e+2, 0.0, 0.0, 0.0, 0.0, 0.0, 0.0, 0.0, 0.0, 10.0, 10.0 
6.95e+2, 1.25e+2, -1715000.0, -1715000.0, 0.0, 0.0, 0.0, -1715000.0, -1715000.0, 0.0, 10.0, 10.0 
6.95e+2, 1.35e+2, -1617000.0, -1617000.0, 0.0, 0.0, 0.0, -1617000.0, -1617000.0, 0.0, 10.0, 10.0 
6.95e+2, 1.45e+2, -1519000.0, -1519000.0, 0.0, 0.0, 0.0, -1519000.0, -1519000.0, 0.0, 10.0, 10.0 
6.95e+2, 1.55e+2, -1421000.0, -1421000.0, 0.0, 0.0, 0.0, -1421000.0, -1421000.0, 0.0, 10.0, 10.0 
6.95e+2, 1.65e+2, -1323000.0, -1323000.0, 0.0, 0.0, 0.0, -1323000.0, -1323000.0, 0.0, 10.0, 10.0 
6.95e+2, 1.75e+2, -1225000.0, -1225000.0, 0.0, 0.0, 0.0, -1225000.0, -1225000.0, 0.0, 10.0, 10.0 
6.95e+2, 1.85e+2, -1127000.0, -1127000.0, 0.0, 0.0, 0.0, -1127000.0, -1127000.0, 0.0, 10.0, 10.0 
6.95e+2, 1.95e+2, -1029000.0, -1029000.0, 0.0, 0.0, 0.0, -1029000.0, -1029000.0, 0.0, 10.0, 10.0 
6.95e+2, 2.05e+2, -931000.0, -931000.0, 0.0, 0.0, 0.0, -931000.0, -931000.0, 0.0, 10.0, 10.0 
6.95e+2, 2.15e+2, -833000.0, -833000.0, 0.0, 0.0, 0.0, -833000.0, -833000.0, 0.0, 10.0, 10.0 
6.95e+2, 2.25e+2, -735000.0, -735000.0, 0.0, 0.0, 0.0, -735000.0, -735000.0, 0.0, 10.0, 10.0 
6.95e+2, 2.35e+2, -637000.0, -637000.0, 0.0, 0.0, 0.0, -637000.0, -637000.0, 0.0, 10.0, 10.0 
6.95e+2, 2.45e+2, -539000.0, -539000.0, 0.0, 0.0, 0.0, -539000.0, -539000.0, 0.0, 10.0, 10.0 
6.95e+2, 2.55e+2, -441000.0, -441000.0, 0.0, 0.0, 0.0, -441000.0, -441000.0, 0.0, 10.0, 10.0 
6.95e+2, 2.65e+2, -343000.0, -343000.0, 0.0, 0.0, 0.0, -343000.0, -343000.0, 0.0, 10.0, 10.0 
6.95e+2, 2.75e+2, -245000.0, -245000.0, 0.0, 0.0, 0.0, -245000.0, -245000.0, 0.0, 10.0, 10.0 
6.95e+2, 2.85e+2, -147000.0, -147000.0, 0.0, 0.0, 0.0, -147000.0, -147000.0, 0.0, 10.0, 10.0 
6.95e+2, 2.95e+2, -49000.0, -49000.0, 0.0, 0.0, 0.0, -49000.0, -49000.0, 0.0, 10.0, 10.0 
6.95e+2, 3.05e+2, 0.0, 0.0, 0.0, 0.0, 0.0, 0.0, 0.0, 0.0, 10.0, 10.0 
6.95e+2, 3.15e+2, 0.0, 0.0, 0.0, 0.0, 0.0, 0.0, 0.0, 0.0, 10.0, 10.0 
7.05e+2, 1.25e+2, -1715000.0, -1715000.0, 0.0, 0.0, 0.0, -1715000.0, -1715000.0, 0.0, 10.0, 10.0 
7.05e+2, 1.35e+2, -1617000.0, -1617000.0, 0.0, 0.0, 0.0, -1617000.0, -1617000.0, 0.0, 10.0, 10.0 
7.05e+2, 1.45e+2, -1519000.0, -1519000.0, 0.0, 0.0, 0.0, -1519000.0, -1519000.0, 0.0, 10.0, 10.0 
7.05e+2, 1.55e+2, -1421000.0, -1421000.0, 0.0, 0.0, 0.0, -1421000.0, -1421000.0, 0.0, 10.0, 10.0 
7.05e+2, 1.65e+2, -1323000.0, -1323000.0, 0.0, 0.0, 0.0, -1323000.0, -1323000.0, 0.0, 10.0, 10.0 
7.05e+2, 1.75e+2, -1225000.0, -1225000.0, 0.0, 0.0, 0.0, -1225000.0, -1225000.0, 0.0, 10.0, 10.0 
7.05e+2, 1.85e+2, -1127000.0, -1127000.0, 0.0, 0.0, 0.0, -1127000.0, -1127000.0, 0.0, 10.0, 10.0 
7.05e+2, 1.95e+2, -1029000.0, -1029000.0, 0.0, 0.0, 0.0, -1029000.0, -1029000.0, 0.0, 10.0, 10.0 
7.05e+2, 2.05e+2, -931000.0, -931000.0, 0.0, 0.0, 0.0, -931000.0, -931000.0, 0.0, 10.0, 10.0 
7.05e+2, 2.15e+2, -833000.0, -833000.0, 0.0, 0.0, 0.0, -833000.0, -833000.0, 0.0, 10.0, 10.0 
7.05e+2, 2.25e+2, -735000.0, -735000.0, 0.0, 0.0, 0.0, -735000.0, -735000.0, 0.0, 10.0, 10.0 
7.05e+2, 2.35e+2, -637000.0, -637000.0, 0.0, 0.0, 0.0, -637000.0, -637000.0, 0.0, 10.0, 10.0 
7.05e+2, 2.45e+2, -539000.0, -539000.0, 0.0, 0.0, 0.0, -539000.0, -539000.0, 0.0, 10.0, 10.0 
7.05e+2, 2.55e+2, -441000.0, -441000.0, 0.0, 0.0, 0.0, -441000.0, -441000.0, 0.0, 10.0, 10.0 
7.05e+2, 2.65e+2, -343000.0, -343000.0, 0.0, 0.0, 0.0, -343000.0, -343000.0, 0.0, 10.0, 10.0 
7.05e+2, 2.75e+2, -245000.0, -245000.0, 0.0, 0.0, 0.0, -245000.0, -245000.0, 0.0, 10.0, 10.0 
7.05e+2, 2.85e+2, -147000.0, -147000.0, 0.0, 0.0, 0.0, -147000.0, -147000.0, 0.0, 10.0, 10.0 
7.05e+2, 2.95e+2, -49000.0, -49000.0, 0.0, 0.0, 0.0, -49000.0, -49000.0, 0.0, 10.0, 10.0 
7.05e+2, 3.05e+2, 0.0, 0.0, 0.0, 0.0, 0.0, 0.0, 0.0, 0.0, 10.0, 10.0 
7.05e+2, 3.15e+2, 0.0, 0.0, 0.0, 0.0, 0.0, 0.0, 0.0, 0.0, 10.0, 10.0 
7.15e+2, 1.25e+2, -1715000.0, -1715000.0, 0.0, 0.0, 0.0, -1715000.0, -1715000.0, 0.0, 10.0, 10.0 
7.15e+2, 1.35e+2, -1617000.0, -1617000.0, 0.0, 0.0, 0.0, -1617000.0, -1617000.0, 0.0, 10.0, 10.0 
7.15e+2, 1.45e+2, -1519000.0, -1519000.0, 0.0, 0.0, 0.0, -1519000.0, -1519000.0, 0.0, 10.0, 10.0 
7.15e+2, 1.55e+2, -1421000.0, -1421000.0, 0.0, 0.0, 0.0, -1421000.0, -1421000.0, 0.0, 10.0, 10.0 
7.15e+2, 1.65e+2, -1323000.0, -1323000.0, 0.0, 0.0, 0.0, -1323000.0, -1323000.0, 0.0, 10.0, 10.0 
7.15e+2, 1.75e+2, -1225000.0, -1225000.0, 0.0, 0.0, 0.0, -1225000.0, -1225000.0, 0.0, 10.0, 10.0 
7.15e+2, 1.85e+2, -1127000.0, -1127000.0, 0.0, 0.0, 0.0, -1127000.0, -1127000.0, 0.0, 10.0, 10.0 
7.15e+2, 1.95e+2, -1029000.0, -1029000.0, 0.0, 0.0, 0.0, -1029000.0, -1029000.0, 0.0, 10.0, 10.0 
7.15e+2, 2.05e+2, -931000.0, -931000.0, 0.0, 0.0, 0.0, -931000.0, -931000.0, 0.0, 10.0, 10.0 
7.15e+2, 2.15e+2, -833000.0, -833000.0, 0.0, 0.0, 0.0, -833000.0, -833000.0, 0.0, 10.0, 10.0 
7.15e+2, 2.25e+2, -735000.0, -735000.0, 0.0, 0.0, 0.0, -735000.0, -735000.0, 0.0, 10.0, 10.0 
7.15e+2, 2.35e+2, -637000.0, -637000.0, 0.0, 0.0, 0.0, -637000.0, -637000.0, 0.0, 10.0, 10.0 
7.15e+2, 2.45e+2, -539000.0, -539000.0, 0.0, 0.0, 0.0, -539000.0, -539000.0, 0.0, 10.0, 10.0 
7.15e+2, 2.55e+2, -441000.0, -441000.0, 0.0, 0.0, 0.0, -441000.0, -441000.0, 0.0, 10.0, 10.0 
7.15e+2, 2.65e+2, -343000.0, -343000.0, 0.0, 0.0, 0.0, -343000.0, -343000.0, 0.0, 10.0, 10.0 
7.15e+2, 2.75e+2, -245000.0, -245000.0, 0.0, 0.0, 0.0, -245000.0, -245000.0, 0.0, 10.0, 10.0 
7.15e+2, 2.85e+2, -147000.0, -147000.0, 0.0, 0.0, 0.0, -147000.0, -147000.0, 0.0, 10.0, 10.0 
7.15e+2, 2.95e+2, -49000.0, -49000.0, 0.0, 0.0, 0.0, -49000.0, -49000.0, 0.0, 10.0, 10.0 
7.15e+2, 3.05e+2, 0.0, 0.0, 0.0, 0.0, 0.0, 0.0, 0.0, 0.0, 10.0, 10.0 
7.15e+2, 3.15e+2, 0.0, 0.0, 0.0, 0.0, 0.0, 0.0, 0.0, 0.0, 10.0, 10.0 
7.25e+2, 1.25e+2, -1715000.0, -1715000.0, 0.0, 0.0, 0.0, -1715000.0, -1715000.0, 0.0, 10.0, 10.0 
7.25e+2, 1.35e+2, -1617000.0, -1617000.0, 0.0, 0.0, 0.0, -1617000.0, -1617000.0, 0.0, 10.0, 10.0 
7.25e+2, 1.45e+2, -1519000.0, -1519000.0, 0.0, 0.0, 0.0, -1519000.0, -1519000.0, 0.0, 10.0, 10.0 
7.25e+2, 1.55e+2, -1421000.0, -1421000.0, 0.0, 0.0, 0.0, -1421000.0, -1421000.0, 0.0, 10.0, 10.0 
7.25e+2, 1.65e+2, -1323000.0, -1323000.0, 0.0, 0.0, 0.0, -1323000.0, -1323000.0, 0.0, 10.0, 10.0 
7.25e+2, 1.75e+2, -1225000.0, -1225000.0, 0.0, 0.0, 0.0, -1225000.0, -1225000.0, 0.0, 10.0, 10.0 
7.25e+2, 1.85e+2, -1127000.0, -1127000.0, 0.0, 0.0, 0.0, -1127000.0, -1127000.0, 0.0, 10.0, 10.0 
7.25e+2, 1.95e+2, -1029000.0, -1029000.0, 0.0, 0.0, 0.0, -1029000.0, -1029000.0, 0.0, 10.0, 10.0 
7.25e+2, 2.05e+2, -931000.0, -931000.0, 0.0, 0.0, 0.0, -931000.0, -931000.0, 0.0, 10.0, 10.0 
7.25e+2, 2.15e+2, -833000.0, -833000.0, 0.0, 0.0, 0.0, -833000.0, -833000.0, 0.0, 10.0, 10.0 
7.25e+2, 2.25e+2, -735000.0, -735000.0, 0.0, 0.0, 0.0, -735000.0, -735000.0, 0.0, 10.0, 10.0 
7.25e+2, 2.35e+2, -637000.0, -637000.0, 0.0, 0.0, 0.0, -637000.0, -637000.0, 0.0, 10.0, 10.0 
7.25e+2, 2.45e+2, -539000.0, -539000.0, 0.0, 0.0, 0.0, -539000.0, -539000.0, 0.0, 10.0, 10.0 
7.25e+2, 2.55e+2, -441000.0, -441000.0, 0.0, 0.0, 0.0, -441000.0, -441000.0, 0.0, 10.0, 10.0 
7.25e+2, 2.65e+2, -343000.0, -343000.0, 0.0, 0.0, 0.0, -343000.0, -343000.0, 0.0, 10.0, 10.0 
7.25e+2, 2.75e+2, -245000.0, -245000.0, 0.0, 0.0, 0.0, -245000.0, -245000.0, 0.0, 10.0, 10.0 
7.25e+2, 2.85e+2, -147000.0, -147000.0, 0.0, 0.0, 0.0, -147000.0, -147000.0, 0.0, 10.0, 10.0 
7.25e+2, 2.95e+2, -49000.0, -49000.0, 0.0, 0.0, 0.0, -49000.0, -49000.0, 0.0, 10.0, 10.0 
7.25e+2, 3.05e+2, 0.0, 0.0, 0.0, 0.0, 0.0, 0.0, 0.0, 0.0, 10.0, 10.0 
7.25e+2, 3.15e+2, 0.0, 0.0, 0.0, 0.0, 0.0, 0.0, 0.0, 0.0, 10.0, 10.0 
7.35e+2, 1.25e+2, -1715000.0, -1715000.0, 0.0, 0.0, 0.0, -1715000.0, -1715000.0, 0.0, 10.0, 10.0 
7.35e+2, 1.35e+2, -1617000.0, -1617000.0, 0.0, 0.0, 0.0, -1617000.0, -1617000.0, 0.0, 10.0, 10.0 
7.35e+2, 1.45e+2, -1519000.0, -1519000.0, 0.0, 0.0, 0.0, -1519000.0, -1519000.0, 0.0, 10.0, 10.0 
7.35e+2, 1.55e+2, -1421000.0, -1421000.0, 0.0, 0.0, 0.0, -1421000.0, -1421000.0, 0.0, 10.0, 10.0 
7.35e+2, 1.65e+2, -1323000.0, -1323000.0, 0.0, 0.0, 0.0, -1323000.0, -1323000.0, 0.0, 10.0, 10.0 
7.35e+2, 1.75e+2, -1225000.0, -1225000.0, 0.0, 0.0, 0.0, -1225000.0, -1225000.0, 0.0, 10.0, 10.0 
7.35e+2, 1.85e+2, -1127000.0, -1127000.0, 0.0, 0.0, 0.0, -1127000.0, -1127000.0, 0.0, 10.0, 10.0 
7.35e+2, 1.95e+2, -1029000.0, -1029000.0, 0.0, 0.0, 0.0, -1029000.0, -1029000.0, 0.0, 10.0, 10.0 
7.35e+2, 2.05e+2, -931000.0, -931000.0, 0.0, 0.0, 0.0, -931000.0, -931000.0, 0.0, 10.0, 10.0 
7.35e+2, 2.15e+2, -833000.0, -833000.0, 0.0, 0.0, 0.0, -833000.0, -833000.0, 0.0, 10.0, 10.0 
7.35e+2, 2.25e+2, -735000.0, -735000.0, 0.0, 0.0, 0.0, -735000.0, -735000.0, 0.0, 10.0, 10.0 
7.35e+2, 2.35e+2, -637000.0, -637000.0, 0.0, 0.0, 0.0, -637000.0, -637000.0, 0.0, 10.0, 10.0 
7.35e+2, 2.45e+2, -539000.0, -539000.0, 0.0, 0.0, 0.0, -539000.0, -539000.0, 0.0, 10.0, 10.0 
7.35e+2, 2.55e+2, -441000.0, -441000.0, 0.0, 0.0, 0.0, -441000.0, -441000.0, 0.0, 10.0, 10.0 
7.35e+2, 2.65e+2, -343000.0, -343000.0, 0.0, 0.0, 0.0, -343000.0, -343000.0, 0.0, 10.0, 10.0 
7.35e+2, 2.75e+2, -245000.0, -245000.0, 0.0, 0.0, 0.0, -245000.0, -245000.0, 0.0, 10.0, 10.0 
7.35e+2, 2.85e+2, -147000.0, -147000.0, 0.0, 0.0, 0.0, -147000.0, -147000.0, 0.0, 10.0, 10.0 
7.35e+2, 2.95e+2, -49000.0, -49000.0, 0.0, 0.0, 0.0, -49000.0, -49000.0, 0.0, 10.0, 10.0 
7.35e+2, 3.05e+2, 0.0, 0.0, 0.0, 0.0, 0.0, 0.0, 0.0, 0.0, 10.0, 10.0 
7.35e+2, 3.15e+2, 0.0, 0.0, 0.0, 0.0, 0.0, 0.0, 0.0, 0.0, 10.0, 10.0 
7.45e+2, 1.25e+2, -1715000.0, -1715000.0, 0.0, 0.0, 0.0, -1715000.0, -1715000.0, 0.0, 10.0, 10.0 
7.45e+2, 1.35e+2, -1617000.0, -1617000.0, 0.0, 0.0, 0.0, -1617000.0, -1617000.0, 0.0, 10.0, 10.0 
7.45e+2, 1.45e+2, -1519000.0, -1519000.0, 0.0, 0.0, 0.0, -1519000.0, -1519000.0, 0.0, 10.0, 10.0 
7.45e+2, 1.55e+2, -1421000.0, -1421000.0, 0.0, 0.0, 0.0, -1421000.0, -1421000.0, 0.0, 10.0, 10.0 
7.45e+2, 1.65e+2, -1323000.0, -1323000.0, 0.0, 0.0, 0.0, -1323000.0, -1323000.0, 0.0, 10.0, 10.0 
7.45e+2, 1.75e+2, -1225000.0, -1225000.0, 0.0, 0.0, 0.0, -1225000.0, -1225000.0, 0.0, 10.0, 10.0 
7.45e+2, 1.85e+2, -1127000.0, -1127000.0, 0.0, 0.0, 0.0, -1127000.0, -1127000.0, 0.0, 10.0, 10.0 
7.45e+2, 1.95e+2, -1029000.0, -1029000.0, 0.0, 0.0, 0.0, -1029000.0, -1029000.0, 0.0, 10.0, 10.0 
7.45e+2, 2.05e+2, -931000.0, -931000.0, 0.0, 0.0, 0.0, -931000.0, -931000.0, 0.0, 10.0, 10.0 
7.45e+2, 2.15e+2, -833000.0, -833000.0, 0.0, 0.0, 0.0, -833000.0, -833000.0, 0.0, 10.0, 10.0 
7.45e+2, 2.25e+2, -735000.0, -735000.0, 0.0, 0.0, 0.0, -735000.0, -735000.0, 0.0, 10.0, 10.0 
7.45e+2, 2.35e+2, -637000.0, -637000.0, 0.0, 0.0, 0.0, -637000.0, -637000.0, 0.0, 10.0, 10.0 
7.45e+2, 2.45e+2, -539000.0, -539000.0, 0.0, 0.0, 0.0, -539000.0, -539000.0, 0.0, 10.0, 10.0 
7.45e+2, 2.55e+2, -441000.0, -441000.0, 0.0, 0.0, 0.0, -441000.0, -441000.0, 0.0, 10.0, 10.0 
7.45e+2, 2.65e+2, -343000.0, -343000.0, 0.0, 0.0, 0.0, -343000.0, -343000.0, 0.0, 10.0, 10.0 
7.45e+2, 2.75e+2, -245000.0, -245000.0, 0.0, 0.0, 0.0, -245000.0, -245000.0, 0.0, 10.0, 10.0 
7.45e+2, 2.85e+2, -147000.0, -147000.0, 0.0, 0.0, 0.0, -147000.0, -147000.0, 0.0, 10.0, 10.0 
7.45e+2, 2.95e+2, -49000.0, -49000.0, 0.0, 0.0, 0.0, -49000.0, -49000.0, 0.0, 10.0, 10.0 
7.45e+2, 3.05e+2, 0.0, 0.0, 0.0, 0.0, 0.0, 0.0, 0.0, 0.0, 10.0, 10.0 
7.45e+2, 3.15e+2, 0.0, 0.0, 0.0, 0.0, 0.0, 0.0, 0.0, 0.0, 10.0, 10.0 
7.55e+2, 1.25e+2, -1715000.0, -1715000.0, 0.0, 0.0, 0.0, -1715000.0, -1715000.0, 0.0, 10.0, 10.0 
7.55e+2, 1.35e+2, -1617000.0, -1617000.0, 0.0, 0.0, 0.0, -1617000.0, -1617000.0, 0.0, 10.0, 10.0 
7.55e+2, 1.45e+2, -1519000.0, -1519000.0, 0.0, 0.0, 0.0, -1519000.0, -1519000.0, 0.0, 10.0, 10.0 
7.55e+2, 1.55e+2, -1421000.0, -1421000.0, 0.0, 0.0, 0.0, -1421000.0, -1421000.0, 0.0, 10.0, 10.0 
7.55e+2, 1.65e+2, -1323000.0, -1323000.0, 0.0, 0.0, 0.0, -1323000.0, -1323000.0, 0.0, 10.0, 10.0 
7.55e+2, 1.75e+2, -1225000.0, -1225000.0, 0.0, 0.0, 0.0, -1225000.0, -1225000.0, 0.0, 10.0, 10.0 
7.55e+2, 1.85e+2, -1127000.0, -1127000.0, 0.0, 0.0, 0.0, -1127000.0, -1127000.0, 0.0, 10.0, 10.0 
7.55e+2, 1.95e+2, -1029000.0, -1029000.0, 0.0, 0.0, 0.0, -1029000.0, -1029000.0, 0.0, 10.0, 10.0 
7.55e+2, 2.05e+2, -931000.0, -931000.0, 0.0, 0.0, 0.0, -931000.0, -931000.0, 0.0, 10.0, 10.0 
7.55e+2, 2.15e+2, -833000.0, -833000.0, 0.0, 0.0, 0.0, -833000.0, -833000.0, 0.0, 10.0, 10.0 
7.55e+2, 2.25e+2, -735000.0, -735000.0, 0.0, 0.0, 0.0, -735000.0, -735000.0, 0.0, 10.0, 10.0 
7.55e+2, 2.35e+2, -637000.0, -637000.0, 0.0, 0.0, 0.0, -637000.0, -637000.0, 0.0, 10.0, 10.0 
7.55e+2, 2.45e+2, -539000.0, -539000.0, 0.0, 0.0, 0.0, -539000.0, -539000.0, 0.0, 10.0, 10.0 
7.55e+2, 2.55e+2, -441000.0, -441000.0, 0.0, 0.0, 0.0, -441000.0, -441000.0, 0.0, 10.0, 10.0 
7.55e+2, 2.65e+2, -343000.0, -343000.0, 0.0, 0.0, 0.0, -343000.0, -343000.0, 0.0, 10.0, 10.0 
7.55e+2, 2.75e+2, -245000.0, -245000.0, 0.0, 0.0, 0.0, -245000.0, -245000.0, 0.0, 10.0, 10.0 
7.55e+2, 2.85e+2, -147000.0, -147000.0, 0.0, 0.0, 0.0, -147000.0, -147000.0, 0.0, 10.0, 10.0 
7.55e+2, 2.95e+2, -49000.0, -49000.0, 0.0, 0.0, 0.0, -49000.0, -49000.0, 0.0, 10.0, 10.0 
7.55e+2, 3.05e+2, 0.0, 0.0, 0.0, 0.0, 0.0, 0.0, 0.0, 0.0, 10.0, 10.0 
7.55e+2, 3.15e+2, 0.0, 0.0, 0.0, 0.0, 0.0, 0.0, 0.0, 0.0, 10.0, 10.0 
7.65e+2, 1.25e+2, -1715000.0, -1715000.0, 0.0, 0.0, 0.0, -1715000.0, -1715000.0, 0.0, 10.0, 10.0 
7.65e+2, 1.35e+2, -1617000.0, -1617000.0, 0.0, 0.0, 0.0, -1617000.0, -1617000.0, 0.0, 10.0, 10.0 
7.65e+2, 1.45e+2, -1519000.0, -1519000.0, 0.0, 0.0, 0.0, -1519000.0, -1519000.0, 0.0, 10.0, 10.0 
7.65e+2, 1.55e+2, -1421000.0, -1421000.0, 0.0, 0.0, 0.0, -1421000.0, -1421000.0, 0.0, 10.0, 10.0 
7.65e+2, 1.65e+2, -1323000.0, -1323000.0, 0.0, 0.0, 0.0, -1323000.0, -1323000.0, 0.0, 10.0, 10.0 
7.65e+2, 1.75e+2, -1225000.0, -1225000.0, 0.0, 0.0, 0.0, -1225000.0, -1225000.0, 0.0, 10.0, 10.0 
7.65e+2, 1.85e+2, -1127000.0, -1127000.0, 0.0, 0.0, 0.0, -1127000.0, -1127000.0, 0.0, 10.0, 10.0 
7.65e+2, 1.95e+2, -1029000.0, -1029000.0, 0.0, 0.0, 0.0, -1029000.0, -1029000.0, 0.0, 10.0, 10.0 
7.65e+2, 2.05e+2, -931000.0, -931000.0, 0.0, 0.0, 0.0, -931000.0, -931000.0, 0.0, 10.0, 10.0 
7.65e+2, 2.15e+2, -833000.0, -833000.0, 0.0, 0.0, 0.0, -833000.0, -833000.0, 0.0, 10.0, 10.0 
7.65e+2, 2.25e+2, -735000.0, -735000.0, 0.0, 0.0, 0.0, -735000.0, -735000.0, 0.0, 10.0, 10.0 
7.65e+2, 2.35e+2, -637000.0, -637000.0, 0.0, 0.0, 0.0, -637000.0, -637000.0, 0.0, 10.0, 10.0 
7.65e+2, 2.45e+2, -539000.0, -539000.0, 0.0, 0.0, 0.0, -539000.0, -539000.0, 0.0, 10.0, 10.0 
7.65e+2, 2.55e+2, -441000.0, -441000.0, 0.0, 0.0, 0.0, -441000.0, -441000.0, 0.0, 10.0, 10.0 
7.65e+2, 2.65e+2, -343000.0, -343000.0, 0.0, 0.0, 0.0, -343000.0, -343000.0, 0.0, 10.0, 10.0 
7.65e+2, 2.75e+2, -245000.0, -245000.0, 0.0, 0.0, 0.0, -245000.0, -245000.0, 0.0, 10.0, 10.0 
7.65e+2, 2.85e+2, -147000.0, -147000.0, 0.0, 0.0, 0.0, -147000.0, -147000.0, 0.0, 10.0, 10.0 
7.65e+2, 2.95e+2, -49000.0, -49000.0, 0.0, 0.0, 0.0, -49000.0, -49000.0, 0.0, 10.0, 10.0 
7.65e+2, 3.05e+2, 0.0, 0.0, 0.0, 0.0, 0.0, 0.0, 0.0, 0.0, 10.0, 10.0 
7.65e+2, 3.15e+2, 0.0, 0.0, 0.0, 0.0, 0.0, 0.0, 0.0, 0.0, 10.0, 10.0 
7.75e+2, 1.25e+2, -1715000.0, -1715000.0, 0.0, 0.0, 0.0, -1715000.0, -1715000.0, 0.0, 10.0, 10.0 
7.75e+2, 1.35e+2, -1617000.0, -1617000.0, 0.0, 0.0, 0.0, -1617000.0, -1617000.0, 0.0, 10.0, 10.0 
7.75e+2, 1.45e+2, -1519000.0, -1519000.0, 0.0, 0.0, 0.0, -1519000.0, -1519000.0, 0.0, 10.0, 10.0 
7.75e+2, 1.55e+2, -1421000.0, -1421000.0, 0.0, 0.0, 0.0, -1421000.0, -1421000.0, 0.0, 10.0, 10.0 
7.75e+2, 1.65e+2, -1323000.0, -1323000.0, 0.0, 0.0, 0.0, -1323000.0, -1323000.0, 0.0, 10.0, 10.0 
7.75e+2, 1.75e+2, -1225000.0, -1225000.0, 0.0, 0.0, 0.0, -1225000.0, -1225000.0, 0.0, 10.0, 10.0 
7.75e+2, 1.85e+2, -1127000.0, -1127000.0, 0.0, 0.0, 0.0, -1127000.0, -1127000.0, 0.0, 10.0, 10.0 
7.75e+2, 1.95e+2, -1029000.0, -1029000.0, 0.0, 0.0, 0.0, -1029000.0, -1029000.0, 0.0, 10.0, 10.0 
7.75e+2, 2.05e+2, -931000.0, -931000.0, 0.0, 0.0, 0.0, -931000.0, -931000.0, 0.0, 10.0, 10.0 
7.75e+2, 2.15e+2, -833000.0, -833000.0, 0.0, 0.0, 0.0, -833000.0, -833000.0, 0.0, 10.0, 10.0 
7.75e+2, 2.25e+2, -735000.0, -735000.0, 0.0, 0.0, 0.0, -735000.0, -735000.0, 0.0, 10.0, 10.0 
7.75e+2, 2.35e+2, -637000.0, -637000.0, 0.0, 0.0, 0.0, -637000.0, -637000.0, 0.0, 10.0, 10.0 
7.75e+2, 2.45e+2, -539000.0, -539000.0, 0.0, 0.0, 0.0, -539000.0, -539000.0, 0.0, 10.0, 10.0 
7.75e+2, 2.55e+2, -441000.0, -441000.0, 0.0, 0.0, 0.0, -441000.0, -441000.0, 0.0, 10.0, 10.0 
7.75e+2, 2.65e+2, -343000.0, -343000.0, 0.0, 0.0, 0.0, -343000.0, -343000.0, 0.0, 10.0, 10.0 
7.75e+2, 2.75e+2, -245000.0, -245000.0, 0.0, 0.0, 0.0, -245000.0, -245000.0, 0.0, 10.0, 10.0 
7.75e+2, 2.85e+2, -147000.0, -147000.0, 0.0, 0.0, 0.0, -147000.0, -147000.0, 0.0, 10.0, 10.0 
7.75e+2, 2.95e+2, -49000.0, -49000.0, 0.0, 0.0, 0.0, -49000.0, -49000.0, 0.0, 10.0, 10.0 
7.75e+2, 3.05e+2, 0.0, 0.0, 0.0, 0.0, 0.0, 0.0, 0.0, 0.0, 10.0, 10.0 
7.75e+2, 3.15e+2, 0.0, 0.0, 0.0, 0.0, 0.0, 0.0, 0.0, 0.0, 10.0, 10.0 
7.85e+2, 1.25e+2, -1715000.0, -1715000.0, 0.0, 0.0, 0.0, -1715000.0, -1715000.0, 0.0, 10.0, 10.0 
7.85e+2, 1.35e+2, -1617000.0, -1617000.0, 0.0, 0.0, 0.0, -1617000.0, -1617000.0, 0.0, 10.0, 10.0 
7.85e+2, 1.45e+2, -1519000.0, -1519000.0, 0.0, 0.0, 0.0, -1519000.0, -1519000.0, 0.0, 10.0, 10.0 
7.85e+2, 1.55e+2, -1421000.0, -1421000.0, 0.0, 0.0, 0.0, -1421000.0, -1421000.0, 0.0, 10.0, 10.0 
7.85e+2, 1.65e+2, -1323000.0, -1323000.0, 0.0, 0.0, 0.0, -1323000.0, -1323000.0, 0.0, 10.0, 10.0 
7.85e+2, 1.75e+2, -1225000.0, -1225000.0, 0.0, 0.0, 0.0, -1225000.0, -1225000.0, 0.0, 10.0, 10.0 
7.85e+2, 1.85e+2, -1127000.0, -1127000.0, 0.0, 0.0, 0.0, -1127000.0, -1127000.0, 0.0, 10.0, 10.0 
7.85e+2, 1.95e+2, -1029000.0, -1029000.0, 0.0, 0.0, 0.0, -1029000.0, -1029000.0, 0.0, 10.0, 10.0 
7.85e+2, 2.05e+2, -931000.0, -931000.0, 0.0, 0.0, 0.0, -931000.0, -931000.0, 0.0, 10.0, 10.0 
7.85e+2, 2.15e+2, -833000.0, -833000.0, 0.0, 0.0, 0.0, -833000.0, -833000.0, 0.0, 10.0, 10.0 
7.85e+2, 2.25e+2, -735000.0, -735000.0, 0.0, 0.0, 0.0, -735000.0, -735000.0, 0.0, 10.0, 10.0 
7.85e+2, 2.35e+2, -637000.0, -637000.0, 0.0, 0.0, 0.0, -637000.0, -637000.0, 0.0, 10.0, 10.0 
7.85e+2, 2.45e+2, -539000.0, -539000.0, 0.0, 0.0, 0.0, -539000.0, -539000.0, 0.0, 10.0, 10.0 
7.85e+2, 2.55e+2, -441000.0, -441000.0, 0.0, 0.0, 0.0, -441000.0, -441000.0, 0.0, 10.0, 10.0 
7.85e+2, 2.65e+2, -343000.0, -343000.0, 0.0, 0.0, 0.0, -343000.0, -343000.0, 0.0, 10.0, 10.0 
7.85e+2, 2.75e+2, -245000.0, -245000.0, 0.0, 0.0, 0.0, -245000.0, -245000.0, 0.0, 10.0, 10.0 
7.85e+2, 2.85e+2, -147000.0, -147000.0, 0.0, 0.0, 0.0, -147000.0, -147000.0, 0.0, 10.0, 10.0 
7.85e+2, 2.95e+2, -49000.0, -49000.0, 0.0, 0.0, 0.0, -49000.0, -49000.0, 0.0, 10.0, 10.0 
7.85e+2, 3.05e+2, 0.0, 0.0, 0.0, 0.0, 0.0, 0.0, 0.0, 0.0, 10.0, 10.0 
7.85e+2, 3.15e+2, 0.0, 0.0, 0.0, 0.0, 0.0, 0.0, 0.0, 0.0, 10.0, 10.0 
7.95e+2, 1.25e+2, -1715000.0, -1715000.0, 0.0, 0.0, 0.0, -1715000.0, -1715000.0, 0.0, 10.0, 10.0 
7.95e+2, 1.35e+2, -1617000.0, -1617000.0, 0.0, 0.0, 0.0, -1617000.0, -1617000.0, 0.0, 10.0, 10.0 
7.95e+2, 1.45e+2, -1519000.0, -1519000.0, 0.0, 0.0, 0.0, -1519000.0, -1519000.0, 0.0, 10.0, 10.0 
7.95e+2, 1.55e+2, -1421000.0, -1421000.0, 0.0, 0.0, 0.0, -1421000.0, -1421000.0, 0.0, 10.0, 10.0 
7.95e+2, 1.65e+2, -1323000.0, -1323000.0, 0.0, 0.0, 0.0, -1323000.0, -1323000.0, 0.0, 10.0, 10.0 
7.95e+2, 1.75e+2, -1225000.0, -1225000.0, 0.0, 0.0, 0.0, -1225000.0, -1225000.0, 0.0, 10.0, 10.0 
7.95e+2, 1.85e+2, -1127000.0, -1127000.0, 0.0, 0.0, 0.0, -1127000.0, -1127000.0, 0.0, 10.0, 10.0 
7.95e+2, 1.95e+2, -1029000.0, -1029000.0, 0.0, 0.0, 0.0, -1029000.0, -1029000.0, 0.0, 10.0, 10.0 
7.95e+2, 2.05e+2, -931000.0, -931000.0, 0.0, 0.0, 0.0, -931000.0, -931000.0, 0.0, 10.0, 10.0 
7.95e+2, 2.15e+2, -833000.0, -833000.0, 0.0, 0.0, 0.0, -833000.0, -833000.0, 0.0, 10.0, 10.0 
7.95e+2, 2.25e+2, -735000.0, -735000.0, 0.0, 0.0, 0.0, -735000.0, -735000.0, 0.0, 10.0, 10.0 
7.95e+2, 2.35e+2, -637000.0, -637000.0, 0.0, 0.0, 0.0, -637000.0, -637000.0, 0.0, 10.0, 10.0 
7.95e+2, 2.45e+2, -539000.0, -539000.0, 0.0, 0.0, 0.0, -539000.0, -539000.0, 0.0, 10.0, 10.0 
7.95e+2, 2.55e+2, -441000.0, -441000.0, 0.0, 0.0, 0.0, -441000.0, -441000.0, 0.0, 10.0, 10.0 
7.95e+2, 2.65e+2, -343000.0, -343000.0, 0.0, 0.0, 0.0, -343000.0, -343000.0, 0.0, 10.0, 10.0 
7.95e+2, 2.75e+2, -245000.0, -245000.0, 0.0, 0.0, 0.0, -245000.0, -245000.0, 0.0, 10.0, 10.0 
7.95e+2, 2.85e+2, -147000.0, -147000.0, 0.0, 0.0, 0.0, -147000.0, -147000.0, 0.0, 10.0, 10.0 
7.95e+2, 2.95e+2, -49000.0, -49000.0, 0.0, 0.0, 0.0, -49000.0, -49000.0, 0.0, 10.0, 10.0 
7.95e+2, 3.05e+2, 0.0, 0.0, 0.0, 0.0, 0.0, 0.0, 0.0, 0.0, 10.0, 10.0 
7.95e+2, 3.15e+2, 0.0, 0.0, 0.0, 0.0, 0.0, 0.0, 0.0, 0.0, 10.0, 10.0 
8.05e+2, 1.25e+2, -1715000.0, -1715000.0, 0.0, 0.0, 0.0, -1715000.0, -1715000.0, 0.0, 10.0, 10.0 
8.05e+2, 1.35e+2, -1617000.0, -1617000.0, 0.0, 0.0, 0.0, -1617000.0, -1617000.0, 0.0, 10.0, 10.0 
8.05e+2, 1.45e+2, -1519000.0, -1519000.0, 0.0, 0.0, 0.0, -1519000.0, -1519000.0, 0.0, 10.0, 10.0 
8.05e+2, 1.55e+2, -1421000.0, -1421000.0, 0.0, 0.0, 0.0, -1421000.0, -1421000.0, 0.0, 10.0, 10.0 
8.05e+2, 1.65e+2, -1323000.0, -1323000.0, 0.0, 0.0, 0.0, -1323000.0, -1323000.0, 0.0, 10.0, 10.0 
8.05e+2, 1.75e+2, -1225000.0, -1225000.0, 0.0, 0.0, 0.0, -1225000.0, -1225000.0, 0.0, 10.0, 10.0 
8.05e+2, 1.85e+2, -1127000.0, -1127000.0, 0.0, 0.0, 0.0, -1127000.0, -1127000.0, 0.0, 10.0, 10.0 
8.05e+2, 1.95e+2, -1029000.0, -1029000.0, 0.0, 0.0, 0.0, -1029000.0, -1029000.0, 0.0, 10.0, 10.0 
8.05e+2, 2.05e+2, -931000.0, -931000.0, 0.0, 0.0, 0.0, -931000.0, -931000.0, 0.0, 10.0, 10.0 
8.05e+2, 2.15e+2, -833000.0, -833000.0, 0.0, 0.0, 0.0, -833000.0, -833000.0, 0.0, 10.0, 10.0 
8.05e+2, 2.25e+2, -735000.0, -735000.0, 0.0, 0.0, 0.0, -735000.0, -735000.0, 0.0, 10.0, 10.0 
8.05e+2, 2.35e+2, -637000.0, -637000.0, 0.0, 0.0, 0.0, -637000.0, -637000.0, 0.0, 10.0, 10.0 
8.05e+2, 2.45e+2, -539000.0, -539000.0, 0.0, 0.0, 0.0, -539000.0, -539000.0, 0.0, 10.0, 10.0 
8.05e+2, 2.55e+2, -441000.0, -441000.0, 0.0, 0.0, 0.0, -441000.0, -441000.0, 0.0, 10.0, 10.0 
8.05e+2, 2.65e+2, -343000.0, -343000.0, 0.0, 0.0, 0.0, -343000.0, -343000.0, 0.0, 10.0, 10.0 
8.05e+2, 2.75e+2, -245000.0, -245000.0, 0.0, 0.0, 0.0, -245000.0, -245000.0, 0.0, 10.0, 10.0 
8.05e+2, 2.85e+2, -147000.0, -147000.0, 0.0, 0.0, 0.0, -147000.0, -147000.0, 0.0, 10.0, 10.0 
8.05e+2, 2.95e+2, -49000.0, -49000.0, 0.0, 0.0, 0.0, -49000.0, -49000.0, 0.0, 10.0, 10.0 
8.05e+2, 3.05e+2, 0.0, 0.0, 0.0, 0.0, 0.0, 0.0, 0.0, 0.0, 10.0, 10.0 
8.05e+2, 3.15e+2, 0.0, 0.0, 0.0, 0.0, 0.0, 0.0, 0.0, 0.0, 10.0, 10.0 
8.15e+2, 1.25e+2, -1715000.0, -1715000.0, 0.0, 0.0, 0.0, -1715000.0, -1715000.0, 0.0, 10.0, 10.0 
8.15e+2, 1.35e+2, -1617000.0, -1617000.0, 0.0, 0.0, 0.0, -1617000.0, -1617000.0, 0.0, 10.0, 10.0 
8.15e+2, 1.45e+2, -1519000.0, -1519000.0, 0.0, 0.0, 0.0, -1519000.0, -1519000.0, 0.0, 10.0, 10.0 
8.15e+2, 1.55e+2, -1421000.0, -1421000.0, 0.0, 0.0, 0.0, -1421000.0, -1421000.0, 0.0, 10.0, 10.0 
8.15e+2, 1.65e+2, -1323000.0, -1323000.0, 0.0, 0.0, 0.0, -1323000.0, -1323000.0, 0.0, 10.0, 10.0 
8.15e+2, 1.75e+2, -1225000.0, -1225000.0, 0.0, 0.0, 0.0, -1225000.0, -1225000.0, 0.0, 10.0, 10.0 
8.15e+2, 1.85e+2, -1127000.0, -1127000.0, 0.0, 0.0, 0.0, -1127000.0, -1127000.0, 0.0, 10.0, 10.0 
8.15e+2, 1.95e+2, -1029000.0, -1029000.0, 0.0, 0.0, 0.0, -1029000.0, -1029000.0, 0.0, 10.0, 10.0 
8.15e+2, 2.05e+2, -931000.0, -931000.0, 0.0, 0.0, 0.0, -931000.0, -931000.0, 0.0, 10.0, 10.0 
8.15e+2, 2.15e+2, -833000.0, -833000.0, 0.0, 0.0, 0.0, -833000.0, -833000.0, 0.0, 10.0, 10.0 
8.15e+2, 2.25e+2, -735000.0, -735000.0, 0.0, 0.0, 0.0, -735000.0, -735000.0, 0.0, 10.0, 10.0 
8.15e+2, 2.35e+2, -637000.0, -637000.0, 0.0, 0.0, 0.0, -637000.0, -637000.0, 0.0, 10.0, 10.0 
8.15e+2, 2.45e+2, -539000.0, -539000.0, 0.0, 0.0, 0.0, -539000.0, -539000.0, 0.0, 10.0, 10.0 
8.15e+2, 2.55e+2, -441000.0, -441000.0, 0.0, 0.0, 0.0, -441000.0, -441000.0, 0.0, 10.0, 10.0 
8.15e+2, 2.65e+2, -343000.0, -343000.0, 0.0, 0.0, 0.0, -343000.0, -343000.0, 0.0, 10.0, 10.0 
8.15e+2, 2.75e+2, -245000.0, -245000.0, 0.0, 0.0, 0.0, -245000.0, -245000.0, 0.0, 10.0, 10.0 
8.15e+2, 2.85e+2, -147000.0, -147000.0, 0.0, 0.0, 0.0, -147000.0, -147000.0, 0.0, 10.0, 10.0 
8.15e+2, 2.95e+2, -49000.0, -49000.0, 0.0, 0.0, 0.0, -49000.0, -49000.0, 0.0, 10.0, 10.0 
8.15e+2, 3.05e+2, 0.0, 0.0, 0.0, 0.0, 0.0, 0.0, 0.0, 0.0, 10.0, 10.0 
8.15e+2, 3.15e+2, 0.0, 0.0, 0.0, 0.0, 0.0, 0.0, 0.0, 0.0, 10.0, 10.0 
8.25e+2, 1.25e+2, -1715000.0, -1715000.0, 0.0, 0.0, 0.0, -1715000.0, -1715000.0, 0.0, 10.0, 10.0 
8.25e+2, 1.35e+2, -1617000.0, -1617000.0, 0.0, 0.0, 0.0, -1617000.0, -1617000.0, 0.0, 10.0, 10.0 
8.25e+2, 1.45e+2, -1519000.0, -1519000.0, 0.0, 0.0, 0.0, -1519000.0, -1519000.0, 0.0, 10.0, 10.0 
8.25e+2, 1.55e+2, -1421000.0, -1421000.0, 0.0, 0.0, 0.0, -1421000.0, -1421000.0, 0.0, 10.0, 10.0 
8.25e+2, 1.65e+2, -1323000.0, -1323000.0, 0.0, 0.0, 0.0, -1323000.0, -1323000.0, 0.0, 10.0, 10.0 
8.25e+2, 1.75e+2, -1225000.0, -1225000.0, 0.0, 0.0, 0.0, -1225000.0, -1225000.0, 0.0, 10.0, 10.0 
8.25e+2, 1.85e+2, -1127000.0, -1127000.0, 0.0, 0.0, 0.0, -1127000.0, -1127000.0, 0.0, 10.0, 10.0 
8.25e+2, 1.95e+2, -1029000.0, -1029000.0, 0.0, 0.0, 0.0, -1029000.0, -1029000.0, 0.0, 10.0, 10.0 
8.25e+2, 2.05e+2, -931000.0, -931000.0, 0.0, 0.0, 0.0, -931000.0, -931000.0, 0.0, 10.0, 10.0 
8.25e+2, 2.15e+2, -833000.0, -833000.0, 0.0, 0.0, 0.0, -833000.0, -833000.0, 0.0, 10.0, 10.0 
8.25e+2, 2.25e+2, -735000.0, -735000.0, 0.0, 0.0, 0.0, -735000.0, -735000.0, 0.0, 10.0, 10.0 
8.25e+2, 2.35e+2, -637000.0, -637000.0, 0.0, 0.0, 0.0, -637000.0, -637000.0, 0.0, 10.0, 10.0 
8.25e+2, 2.45e+2, -539000.0, -539000.0, 0.0, 0.0, 0.0, -539000.0, -539000.0, 0.0, 10.0, 10.0 
8.25e+2, 2.55e+2, -441000.0, -441000.0, 0.0, 0.0, 0.0, -441000.0, -441000.0, 0.0, 10.0, 10.0 
8.25e+2, 2.65e+2, -343000.0, -343000.0, 0.0, 0.0, 0.0, -343000.0, -343000.0, 0.0, 10.0, 10.0 
8.25e+2, 2.75e+2, -245000.0, -245000.0, 0.0, 0.0, 0.0, -245000.0, -245000.0, 0.0, 10.0, 10.0 
8.25e+2, 2.85e+2, -147000.0, -147000.0, 0.0, 0.0, 0.0, -147000.0, -147000.0, 0.0, 10.0, 10.0 
8.25e+2, 2.95e+2, -49000.0, -49000.0, 0.0, 0.0, 0.0, -49000.0, -49000.0, 0.0, 10.0, 10.0 
8.25e+2, 3.05e+2, 0.0, 0.0, 0.0, 0.0, 0.0, 0.0, 0.0, 0.0, 10.0, 10.0 
8.25e+2, 3.15e+2, 0.0, 0.0, 0.0, 0.0, 0.0, 0.0, 0.0, 0.0, 10.0, 10.0 
8.35e+2, 1.25e+2, -1715000.0, -1715000.0, 0.0, 0.0, 0.0, -1715000.0, -1715000.0, 0.0, 10.0, 10.0 
8.35e+2, 1.35e+2, -1617000.0, -1617000.0, 0.0, 0.0, 0.0, -1617000.0, -1617000.0, 0.0, 10.0, 10.0 
8.35e+2, 1.45e+2, -1519000.0, -1519000.0, 0.0, 0.0, 0.0, -1519000.0, -1519000.0, 0.0, 10.0, 10.0 
8.35e+2, 1.55e+2, -1421000.0, -1421000.0, 0.0, 0.0, 0.0, -1421000.0, -1421000.0, 0.0, 10.0, 10.0 
8.35e+2, 1.65e+2, -1323000.0, -1323000.0, 0.0, 0.0, 0.0, -1323000.0, -1323000.0, 0.0, 10.0, 10.0 
8.35e+2, 1.75e+2, -1225000.0, -1225000.0, 0.0, 0.0, 0.0, -1225000.0, -1225000.0, 0.0, 10.0, 10.0 
8.35e+2, 1.85e+2, -1127000.0, -1127000.0, 0.0, 0.0, 0.0, -1127000.0, -1127000.0, 0.0, 10.0, 10.0 
8.35e+2, 1.95e+2, -1029000.0, -1029000.0, 0.0, 0.0, 0.0, -1029000.0, -1029000.0, 0.0, 10.0, 10.0 
8.35e+2, 2.05e+2, -931000.0, -931000.0, 0.0, 0.0, 0.0, -931000.0, -931000.0, 0.0, 10.0, 10.0 
8.35e+2, 2.15e+2, -833000.0, -833000.0, 0.0, 0.0, 0.0, -833000.0, -833000.0, 0.0, 10.0, 10.0 
8.35e+2, 2.25e+2, -735000.0, -735000.0, 0.0, 0.0, 0.0, -735000.0, -735000.0, 0.0, 10.0, 10.0 
8.35e+2, 2.35e+2, -637000.0, -637000.0, 0.0, 0.0, 0.0, -637000.0, -637000.0, 0.0, 10.0, 10.0 
8.35e+2, 2.45e+2, -539000.0, -539000.0, 0.0, 0.0, 0.0, -539000.0, -539000.0, 0.0, 10.0, 10.0 
8.35e+2, 2.55e+2, -441000.0, -441000.0, 0.0, 0.0, 0.0, -441000.0, -441000.0, 0.0, 10.0, 10.0 
8.35e+2, 2.65e+2, -343000.0, -343000.0, 0.0, 0.0, 0.0, -343000.0, -343000.0, 0.0, 10.0, 10.0 
8.35e+2, 2.75e+2, -245000.0, -245000.0, 0.0, 0.0, 0.0, -245000.0, -245000.0, 0.0, 10.0, 10.0 
8.35e+2, 2.85e+2, -147000.0, -147000.0, 0.0, 0.0, 0.0, -147000.0, -147000.0, 0.0, 10.0, 10.0 
8.35e+2, 2.95e+2, -49000.0, -49000.0, 0.0, 0.0, 0.0, -49000.0, -49000.0, 0.0, 10.0, 10.0 
8.35e+2, 3.05e+2, 0.0, 0.0, 0.0, 0.0, 0.0, 0.0, 0.0, 0.0, 10.0, 10.0 
8.35e+2, 3.15e+2, 0.0, 0.0, 0.0, 0.0, 0.0, 0.0, 0.0, 0.0, 10.0, 10.0 
8.45e+2, 1.25e+2, -1715000.0, -1715000.0, 0.0, 0.0, 0.0, -1715000.0, -1715000.0, 0.0, 10.0, 10.0 
8.45e+2, 1.35e+2, -1617000.0, -1617000.0, 0.0, 0.0, 0.0, -1617000.0, -1617000.0, 0.0, 10.0, 10.0 
8.45e+2, 1.45e+2, -1519000.0, -1519000.0, 0.0, 0.0, 0.0, -1519000.0, -1519000.0, 0.0, 10.0, 10.0 
8.45e+2, 1.55e+2, -1421000.0, -1421000.0, 0.0, 0.0, 0.0, -1421000.0, -1421000.0, 0.0, 10.0, 10.0 
8.45e+2, 1.65e+2, -1323000.0, -1323000.0, 0.0, 0.0, 0.0, -1323000.0, -1323000.0, 0.0, 10.0, 10.0 
8.45e+2, 1.75e+2, -1225000.0, -1225000.0, 0.0, 0.0, 0.0, -1225000.0, -1225000.0, 0.0, 10.0, 10.0 
8.45e+2, 1.85e+2, -1127000.0, -1127000.0, 0.0, 0.0, 0.0, -1127000.0, -1127000.0, 0.0, 10.0, 10.0 
8.45e+2, 1.95e+2, -1029000.0, -1029000.0, 0.0, 0.0, 0.0, -1029000.0, -1029000.0, 0.0, 10.0, 10.0 
8.45e+2, 2.05e+2, -931000.0, -931000.0, 0.0, 0.0, 0.0, -931000.0, -931000.0, 0.0, 10.0, 10.0 
8.45e+2, 2.15e+2, -833000.0, -833000.0, 0.0, 0.0, 0.0, -833000.0, -833000.0, 0.0, 10.0, 10.0 
8.45e+2, 2.25e+2, -735000.0, -735000.0, 0.0, 0.0, 0.0, -735000.0, -735000.0, 0.0, 10.0, 10.0 
8.45e+2, 2.35e+2, -637000.0, -637000.0, 0.0, 0.0, 0.0, -637000.0, -637000.0, 0.0, 10.0, 10.0 
8.45e+2, 2.45e+2, -539000.0, -539000.0, 0.0, 0.0, 0.0, -539000.0, -539000.0, 0.0, 10.0, 10.0 
8.45e+2, 2.55e+2, -441000.0, -441000.0, 0.0, 0.0, 0.0, -441000.0, -441000.0, 0.0, 10.0, 10.0 
8.45e+2, 2.65e+2, -343000.0, -343000.0, 0.0, 0.0, 0.0, -343000.0, -343000.0, 0.0, 10.0, 10.0 
8.45e+2, 2.75e+2, -245000.0, -245000.0, 0.0, 0.0, 0.0, -245000.0, -245000.0, 0.0, 10.0, 10.0 
8.45e+2, 2.85e+2, -147000.0, -147000.0, 0.0, 0.0, 0.0, -147000.0, -147000.0, 0.0, 10.0, 10.0 
8.45e+2, 2.95e+2, -49000.0, -49000.0, 0.0, 0.0, 0.0, -49000.0, -49000.0, 0.0, 10.0, 10.0 
8.45e+2, 3.05e+2, 0.0, 0.0, 0.0, 0.0, 0.0, 0.0, 0.0, 0.0, 10.0, 10.0 
8.45e+2, 3.15e+2, 0.0, 0.0, 0.0, 0.0, 0.0, 0.0, 0.0, 0.0, 10.0, 10.0 
8.55e+2, 1.25e+2, -1715000.0, -1715000.0, 0.0, 0.0, 0.0, -1715000.0, -1715000.0, 0.0, 10.0, 10.0 
8.55e+2, 1.35e+2, -1617000.0, -1617000.0, 0.0, 0.0, 0.0, -1617000.0, -1617000.0, 0.0, 10.0, 10.0 
8.55e+2, 1.45e+2, -1519000.0, -1519000.0, 0.0, 0.0, 0.0, -1519000.0, -1519000.0, 0.0, 10.0, 10.0 
8.55e+2, 1.55e+2, -1421000.0, -1421000.0, 0.0, 0.0, 0.0, -1421000.0, -1421000.0, 0.0, 10.0, 10.0 
8.55e+2, 1.65e+2, -1323000.0, -1323000.0, 0.0, 0.0, 0.0, -1323000.0, -1323000.0, 0.0, 10.0, 10.0 
8.55e+2, 1.75e+2, -1225000.0, -1225000.0, 0.0, 0.0, 0.0, -1225000.0, -1225000.0, 0.0, 10.0, 10.0 
8.55e+2, 1.85e+2, -1127000.0, -1127000.0, 0.0, 0.0, 0.0, -1127000.0, -1127000.0, 0.0, 10.0, 10.0 
8.55e+2, 1.95e+2, -1029000.0, -1029000.0, 0.0, 0.0, 0.0, -1029000.0, -1029000.0, 0.0, 10.0, 10.0 
8.55e+2, 2.05e+2, -931000.0, -931000.0, 0.0, 0.0, 0.0, -931000.0, -931000.0, 0.0, 10.0, 10.0 
8.55e+2, 2.15e+2, -833000.0, -833000.0, 0.0, 0.0, 0.0, -833000.0, -833000.0, 0.0, 10.0, 10.0 
8.55e+2, 2.25e+2, -735000.0, -735000.0, 0.0, 0.0, 0.0, -735000.0, -735000.0, 0.0, 10.0, 10.0 
8.55e+2, 2.35e+2, -637000.0, -637000.0, 0.0, 0.0, 0.0, -637000.0, -637000.0, 0.0, 10.0, 10.0 
8.55e+2, 2.45e+2, -539000.0, -539000.0, 0.0, 0.0, 0.0, -539000.0, -539000.0, 0.0, 10.0, 10.0 
8.55e+2, 2.55e+2, -441000.0, -441000.0, 0.0, 0.0, 0.0, -441000.0, -441000.0, 0.0, 10.0, 10.0 
8.55e+2, 2.65e+2, -343000.0, -343000.0, 0.0, 0.0, 0.0, -343000.0, -343000.0, 0.0, 10.0, 10.0 
8.55e+2, 2.75e+2, -245000.0, -245000.0, 0.0, 0.0, 0.0, -245000.0, -245000.0, 0.0, 10.0, 10.0 
8.55e+2, 2.85e+2, -147000.0, -147000.0, 0.0, 0.0, 0.0, -147000.0, -147000.0, 0.0, 10.0, 10.0 
8.55e+2, 2.95e+2, -49000.0, -49000.0, 0.0, 0.0, 0.0, -49000.0, -49000.0, 0.0, 10.0, 10.0 
8.55e+2, 3.05e+2, 0.0, 0.0, 0.0, 0.0, 0.0, 0.0, 0.0, 0.0, 10.0, 10.0 
8.55e+2, 3.15e+2, 0.0, 0.0, 0.0, 0.0, 0.0, 0.0, 0.0, 0.0, 10.0, 10.0 
8.65e+2, 1.25e+2, -1715000.0, -1715000.0, 0.0, 0.0, 0.0, -1715000.0, -1715000.0, 0.0, 10.0, 10.0 
8.65e+2, 1.35e+2, -1617000.0, -1617000.0, 0.0, 0.0, 0.0, -1617000.0, -1617000.0, 0.0, 10.0, 10.0 
8.65e+2, 1.45e+2, -1519000.0, -1519000.0, 0.0, 0.0, 0.0, -1519000.0, -1519000.0, 0.0, 10.0, 10.0 
8.65e+2, 1.55e+2, -1421000.0, -1421000.0, 0.0, 0.0, 0.0, -1421000.0, -1421000.0, 0.0, 10.0, 10.0 
8.65e+2, 1.65e+2, -1323000.0, -1323000.0, 0.0, 0.0, 0.0, -1323000.0, -1323000.0, 0.0, 10.0, 10.0 
8.65e+2, 1.75e+2, -1225000.0, -1225000.0, 0.0, 0.0, 0.0, -1225000.0, -1225000.0, 0.0, 10.0, 10.0 
8.65e+2, 1.85e+2, -1127000.0, -1127000.0, 0.0, 0.0, 0.0, -1127000.0, -1127000.0, 0.0, 10.0, 10.0 
8.65e+2, 1.95e+2, -1029000.0, -1029000.0, 0.0, 0.0, 0.0, -1029000.0, -1029000.0, 0.0, 10.0, 10.0 
8.65e+2, 2.05e+2, -931000.0, -931000.0, 0.0, 0.0, 0.0, -931000.0, -931000.0, 0.0, 10.0, 10.0 
8.65e+2, 2.15e+2, -833000.0, -833000.0, 0.0, 0.0, 0.0, -833000.0, -833000.0, 0.0, 10.0, 10.0 
8.65e+2, 2.25e+2, -735000.0, -735000.0, 0.0, 0.0, 0.0, -735000.0, -735000.0, 0.0, 10.0, 10.0 
8.65e+2, 2.35e+2, -637000.0, -637000.0, 0.0, 0.0, 0.0, -637000.0, -637000.0, 0.0, 10.0, 10.0 
8.65e+2, 2.45e+2, -539000.0, -539000.0, 0.0, 0.0, 0.0, -539000.0, -539000.0, 0.0, 10.0, 10.0 
8.65e+2, 2.55e+2, -441000.0, -441000.0, 0.0, 0.0, 0.0, -441000.0, -441000.0, 0.0, 10.0, 10.0 
8.65e+2, 2.65e+2, -343000.0, -343000.0, 0.0, 0.0, 0.0, -343000.0, -343000.0, 0.0, 10.0, 10.0 
8.65e+2, 2.75e+2, -245000.0, -245000.0, 0.0, 0.0, 0.0, -245000.0, -245000.0, 0.0, 10.0, 10.0 
8.65e+2, 2.85e+2, -147000.0, -147000.0, 0.0, 0.0, 0.0, -147000.0, -147000.0, 0.0, 10.0, 10.0 
8.65e+2, 2.95e+2, -49000.0, -49000.0, 0.0, 0.0, 0.0, -49000.0, -49000.0, 0.0, 10.0, 10.0 
8.65e+2, 3.05e+2, 0.0, 0.0, 0.0, 0.0, 0.0, 0.0, 0.0, 0.0, 10.0, 10.0 
8.65e+2, 3.15e+2, 0.0, 0.0, 0.0, 0.0, 0.0, 0.0, 0.0, 0.0, 10.0, 10.0 
8.75e+2, 1.25e+2, -1715000.0, -1715000.0, 0.0, 0.0, 0.0, -1715000.0, -1715000.0, 0.0, 10.0, 10.0 
8.75e+2, 1.35e+2, -1617000.0, -1617000.0, 0.0, 0.0, 0.0, -1617000.0, -1617000.0, 0.0, 10.0, 10.0 
8.75e+2, 1.45e+2, -1519000.0, -1519000.0, 0.0, 0.0, 0.0, -1519000.0, -1519000.0, 0.0, 10.0, 10.0 
8.75e+2, 1.55e+2, -1421000.0, -1421000.0, 0.0, 0.0, 0.0, -1421000.0, -1421000.0, 0.0, 10.0, 10.0 
8.75e+2, 1.65e+2, -1323000.0, -1323000.0, 0.0, 0.0, 0.0, -1323000.0, -1323000.0, 0.0, 10.0, 10.0 
8.75e+2, 1.75e+2, -1225000.0, -1225000.0, 0.0, 0.0, 0.0, -1225000.0, -1225000.0, 0.0, 10.0, 10.0 
8.75e+2, 1.85e+2, -1127000.0, -1127000.0, 0.0, 0.0, 0.0, -1127000.0, -1127000.0, 0.0, 10.0, 10.0 
8.75e+2, 1.95e+2, -1029000.0, -1029000.0, 0.0, 0.0, 0.0, -1029000.0, -1029000.0, 0.0, 10.0, 10.0 
8.75e+2, 2.05e+2, -931000.0, -931000.0, 0.0, 0.0, 0.0, -931000.0, -931000.0, 0.0, 10.0, 10.0 
8.75e+2, 2.15e+2, -833000.0, -833000.0, 0.0, 0.0, 0.0, -833000.0, -833000.0, 0.0, 10.0, 10.0 
8.75e+2, 2.25e+2, -735000.0, -735000.0, 0.0, 0.0, 0.0, -735000.0, -735000.0, 0.0, 10.0, 10.0 
8.75e+2, 2.35e+2, -637000.0, -637000.0, 0.0, 0.0, 0.0, -637000.0, -637000.0, 0.0, 10.0, 10.0 
8.75e+2, 2.45e+2, -539000.0, -539000.0, 0.0, 0.0, 0.0, -539000.0, -539000.0, 0.0, 10.0, 10.0 
8.75e+2, 2.55e+2, -441000.0, -441000.0, 0.0, 0.0, 0.0, -441000.0, -441000.0, 0.0, 10.0, 10.0 
8.75e+2, 2.65e+2, -343000.0, -343000.0, 0.0, 0.0, 0.0, -343000.0, -343000.0, 0.0, 10.0, 10.0 
8.75e+2, 2.75e+2, -245000.0, -245000.0, 0.0, 0.0, 0.0, -245000.0, -245000.0, 0.0, 10.0, 10.0 
8.75e+2, 2.85e+2, -147000.0, -147000.0, 0.0, 0.0, 0.0, -147000.0, -147000.0, 0.0, 10.0, 10.0 
8.75e+2, 2.95e+2, -49000.0, -49000.0, 0.0, 0.0, 0.0, -49000.0, -49000.0, 0.0, 10.0, 10.0 
8.75e+2, 3.05e+2, 0.0, 0.0, 0.0, 0.0, 0.0, 0.0, 0.0, 0.0, 10.0, 10.0 
8.75e+2, 3.15e+2, 0.0, 0.0, 0.0, 0.0, 0.0, 0.0, 0.0, 0.0, 10.0, 10.0 
8.85e+2, 1.25e+2, -1715000.0, -1715000.0, 0.0, 0.0, 0.0, -1715000.0, -1715000.0, 0.0, 10.0, 10.0 
8.85e+2, 1.35e+2, -1617000.0, -1617000.0, 0.0, 0.0, 0.0, -1617000.0, -1617000.0, 0.0, 10.0, 10.0 
8.85e+2, 1.45e+2, -1519000.0, -1519000.0, 0.0, 0.0, 0.0, -1519000.0, -1519000.0, 0.0, 10.0, 10.0 
8.85e+2, 1.55e+2, -1421000.0, -1421000.0, 0.0, 0.0, 0.0, -1421000.0, -1421000.0, 0.0, 10.0, 10.0 
8.85e+2, 1.65e+2, -1323000.0, -1323000.0, 0.0, 0.0, 0.0, -1323000.0, -1323000.0, 0.0, 10.0, 10.0 
8.85e+2, 1.75e+2, -1225000.0, -1225000.0, 0.0, 0.0, 0.0, -1225000.0, -1225000.0, 0.0, 10.0, 10.0 
8.85e+2, 1.85e+2, -1127000.0, -1127000.0, 0.0, 0.0, 0.0, -1127000.0, -1127000.0, 0.0, 10.0, 10.0 
8.85e+2, 1.95e+2, -1029000.0, -1029000.0, 0.0, 0.0, 0.0, -1029000.0, -1029000.0, 0.0, 10.0, 10.0 
8.85e+2, 2.05e+2, -931000.0, -931000.0, 0.0, 0.0, 0.0, -931000.0, -931000.0, 0.0, 10.0, 10.0 
8.85e+2, 2.15e+2, -833000.0, -833000.0, 0.0, 0.0, 0.0, -833000.0, -833000.0, 0.0, 10.0, 10.0 
8.85e+2, 2.25e+2, -735000.0, -735000.0, 0.0, 0.0, 0.0, -735000.0, -735000.0, 0.0, 10.0, 10.0 
8.85e+2, 2.35e+2, -637000.0, -637000.0, 0.0, 0.0, 0.0, -637000.0, -637000.0, 0.0, 10.0, 10.0 
8.85e+2, 2.45e+2, -539000.0, -539000.0, 0.0, 0.0, 0.0, -539000.0, -539000.0, 0.0, 10.0, 10.0 
8.85e+2, 2.55e+2, -441000.0, -441000.0, 0.0, 0.0, 0.0, -441000.0, -441000.0, 0.0, 10.0, 10.0 
8.85e+2, 2.65e+2, -343000.0, -343000.0, 0.0, 0.0, 0.0, -343000.0, -343000.0, 0.0, 10.0, 10.0 
8.85e+2, 2.75e+2, -245000.0, -245000.0, 0.0, 0.0, 0.0, -245000.0, -245000.0, 0.0, 10.0, 10.0 
8.85e+2, 2.85e+2, -147000.0, -147000.0, 0.0, 0.0, 0.0, -147000.0, -147000.0, 0.0, 10.0, 10.0 
8.85e+2, 2.95e+2, -49000.0, -49000.0, 0.0, 0.0, 0.0, -49000.0, -49000.0, 0.0, 10.0, 10.0 
8.85e+2, 3.05e+2, 0.0, 0.0, 0.0, 0.0, 0.0, 0.0, 0.0, 0.0, 10.0, 10.0 
8.85e+2, 3.15e+2, 0.0, 0.0, 0.0, 0.0, 0.0, 0.0, 0.0, 0.0, 10.0, 10.0 
8.95e+2, 1.25e+2, -1715000.0, -1715000.0, 0.0, 0.0, 0.0, -1715000.0, -1715000.0, 0.0, 10.0, 10.0 
8.95e+2, 1.35e+2, -1617000.0, -1617000.0, 0.0, 0.0, 0.0, -1617000.0, -1617000.0, 0.0, 10.0, 10.0 
8.95e+2, 1.45e+2, -1519000.0, -1519000.0, 0.0, 0.0, 0.0, -1519000.0, -1519000.0, 0.0, 10.0, 10.0 
8.95e+2, 1.55e+2, -1421000.0, -1421000.0, 0.0, 0.0, 0.0, -1421000.0, -1421000.0, 0.0, 10.0, 10.0 
8.95e+2, 1.65e+2, -1323000.0, -1323000.0, 0.0, 0.0, 0.0, -1323000.0, -1323000.0, 0.0, 10.0, 10.0 
8.95e+2, 1.75e+2, -1225000.0, -1225000.0, 0.0, 0.0, 0.0, -1225000.0, -1225000.0, 0.0, 10.0, 10.0 
8.95e+2, 1.85e+2, -1127000.0, -1127000.0, 0.0, 0.0, 0.0, -1127000.0, -1127000.0, 0.0, 10.0, 10.0 
8.95e+2, 1.95e+2, -1029000.0, -1029000.0, 0.0, 0.0, 0.0, -1029000.0, -1029000.0, 0.0, 10.0, 10.0 
8.95e+2, 2.05e+2, -931000.0, -931000.0, 0.0, 0.0, 0.0, -931000.0, -931000.0, 0.0, 10.0, 10.0 
8.95e+2, 2.15e+2, -833000.0, -833000.0, 0.0, 0.0, 0.0, -833000.0, -833000.0, 0.0, 10.0, 10.0 
8.95e+2, 2.25e+2, -735000.0, -735000.0, 0.0, 0.0, 0.0, -735000.0, -735000.0, 0.0, 10.0, 10.0 
8.95e+2, 2.35e+2, -637000.0, -637000.0, 0.0, 0.0, 0.0, -637000.0, -637000.0, 0.0, 10.0, 10.0 
8.95e+2, 2.45e+2, -539000.0, -539000.0, 0.0, 0.0, 0.0, -539000.0, -539000.0, 0.0, 10.0, 10.0 
8.95e+2, 2.55e+2, -441000.0, -441000.0, 0.0, 0.0, 0.0, -441000.0, -441000.0, 0.0, 10.0, 10.0 
8.95e+2, 2.65e+2, -343000.0, -343000.0, 0.0, 0.0, 0.0, -343000.0, -343000.0, 0.0, 10.0, 10.0 
8.95e+2, 2.75e+2, -245000.0, -245000.0, 0.0, 0.0, 0.0, -245000.0, -245000.0, 0.0, 10.0, 10.0 
8.95e+2, 2.85e+2, -147000.0, -147000.0, 0.0, 0.0, 0.0, -147000.0, -147000.0, 0.0, 10.0, 10.0 
8.95e+2, 2.95e+2, -49000.0, -49000.0, 0.0, 0.0, 0.0, -49000.0, -49000.0, 0.0, 10.0, 10.0 
8.95e+2, 3.05e+2, 0.0, 0.0, 0.0, 0.0, 0.0, 0.0, 0.0, 0.0, 10.0, 10.0 
8.95e+2, 3.15e+2, 0.0, 0.0, 0.0, 0.0, 0.0, 0.0, 0.0, 0.0, 10.0, 10.0 
9.05e+2, 1.25e+2, -1715000.0, -1715000.0, 0.0, 0.0, 0.0, -1715000.0, -1715000.0, 0.0, 10.0, 10.0 
9.05e+2, 1.35e+2, -1617000.0, -1617000.0, 0.0, 0.0, 0.0, -1617000.0, -1617000.0, 0.0, 10.0, 10.0 
9.05e+2, 1.45e+2, -1519000.0, -1519000.0, 0.0, 0.0, 0.0, -1519000.0, -1519000.0, 0.0, 10.0, 10.0 
9.05e+2, 1.55e+2, -1421000.0, -1421000.0, 0.0, 0.0, 0.0, -1421000.0, -1421000.0, 0.0, 10.0, 10.0 
9.05e+2, 1.65e+2, -1323000.0, -1323000.0, 0.0, 0.0, 0.0, -1323000.0, -1323000.0, 0.0, 10.0, 10.0 
9.05e+2, 1.75e+2, -1225000.0, -1225000.0, 0.0, 0.0, 0.0, -1225000.0, -1225000.0, 0.0, 10.0, 10.0 
9.05e+2, 1.85e+2, -1127000.0, -1127000.0, 0.0, 0.0, 0.0, -1127000.0, -1127000.0, 0.0, 10.0, 10.0 
9.05e+2, 1.95e+2, -1029000.0, -1029000.0, 0.0, 0.0, 0.0, -1029000.0, -1029000.0, 0.0, 10.0, 10.0 
9.05e+2, 2.05e+2, -931000.0, -931000.0, 0.0, 0.0, 0.0, -931000.0, -931000.0, 0.0, 10.0, 10.0 
9.05e+2, 2.15e+2, -833000.0, -833000.0, 0.0, 0.0, 0.0, -833000.0, -833000.0, 0.0, 10.0, 10.0 
9.05e+2, 2.25e+2, -735000.0, -735000.0, 0.0, 0.0, 0.0, -735000.0, -735000.0, 0.0, 10.0, 10.0 
9.05e+2, 2.35e+2, -637000.0, -637000.0, 0.0, 0.0, 0.0, -637000.0, -637000.0, 0.0, 10.0, 10.0 
9.05e+2, 2.45e+2, -539000.0, -539000.0, 0.0, 0.0, 0.0, -539000.0, -539000.0, 0.0, 10.0, 10.0 
9.05e+2, 2.55e+2, -441000.0, -441000.0, 0.0, 0.0, 0.0, -441000.0, -441000.0, 0.0, 10.0, 10.0 
9.05e+2, 2.65e+2, -343000.0, -343000.0, 0.0, 0.0, 0.0, -343000.0, -343000.0, 0.0, 10.0, 10.0 
9.05e+2, 2.75e+2, -245000.0, -245000.0, 0.0, 0.0, 0.0, -245000.0, -245000.0, 0.0, 10.0, 10.0 
9.05e+2, 2.85e+2, -147000.0, -147000.0, 0.0, 0.0, 0.0, -147000.0, -147000.0, 0.0, 10.0, 10.0 
9.05e+2, 2.95e+2, -49000.0, -49000.0, 0.0, 0.0, 0.0, -49000.0, -49000.0, 0.0, 10.0, 10.0 
9.05e+2, 3.05e+2, 0.0, 0.0, 0.0, 0.0, 0.0, 0.0, 0.0, 0.0, 10.0, 10.0 
9.05e+2, 3.15e+2, 0.0, 0.0, 0.0, 0.0, 0.0, 0.0, 0.0, 0.0, 10.0, 10.0 
9.15e+2, 1.25e+2, -1715000.0, -1715000.0, 0.0, 0.0, 0.0, -1715000.0, -1715000.0, 0.0, 10.0, 10.0 
9.15e+2, 1.35e+2, -1617000.0, -1617000.0, 0.0, 0.0, 0.0, -1617000.0, -1617000.0, 0.0, 10.0, 10.0 
9.15e+2, 1.45e+2, -1519000.0, -1519000.0, 0.0, 0.0, 0.0, -1519000.0, -1519000.0, 0.0, 10.0, 10.0 
9.15e+2, 1.55e+2, -1421000.0, -1421000.0, 0.0, 0.0, 0.0, -1421000.0, -1421000.0, 0.0, 10.0, 10.0 
9.15e+2, 1.65e+2, -1323000.0, -1323000.0, 0.0, 0.0, 0.0, -1323000.0, -1323000.0, 0.0, 10.0, 10.0 
9.15e+2, 1.75e+2, -1225000.0, -1225000.0, 0.0, 0.0, 0.0, -1225000.0, -1225000.0, 0.0, 10.0, 10.0 
9.15e+2, 1.85e+2, -1127000.0, -1127000.0, 0.0, 0.0, 0.0, -1127000.0, -1127000.0, 0.0, 10.0, 10.0 
9.15e+2, 1.95e+2, -1029000.0, -1029000.0, 0.0, 0.0, 0.0, -1029000.0, -1029000.0, 0.0, 10.0, 10.0 
9.15e+2, 2.05e+2, -931000.0, -931000.0, 0.0, 0.0, 0.0, -931000.0, -931000.0, 0.0, 10.0, 10.0 
9.15e+2, 2.15e+2, -833000.0, -833000.0, 0.0, 0.0, 0.0, -833000.0, -833000.0, 0.0, 10.0, 10.0 
9.15e+2, 2.25e+2, -735000.0, -735000.0, 0.0, 0.0, 0.0, -735000.0, -735000.0, 0.0, 10.0, 10.0 
9.15e+2, 2.35e+2, -637000.0, -637000.0, 0.0, 0.0, 0.0, -637000.0, -637000.0, 0.0, 10.0, 10.0 
9.15e+2, 2.45e+2, -539000.0, -539000.0, 0.0, 0.0, 0.0, -539000.0, -539000.0, 0.0, 10.0, 10.0 
9.15e+2, 2.55e+2, -441000.0, -441000.0, 0.0, 0.0, 0.0, -441000.0, -441000.0, 0.0, 10.0, 10.0 
9.15e+2, 2.65e+2, -343000.0, -343000.0, 0.0, 0.0, 0.0, -343000.0, -343000.0, 0.0, 10.0, 10.0 
9.15e+2, 2.75e+2, -245000.0, -245000.0, 0.0, 0.0, 0.0, -245000.0, -245000.0, 0.0, 10.0, 10.0 
9.15e+2, 2.85e+2, -147000.0, -147000.0, 0.0, 0.0, 0.0, -147000.0, -147000.0, 0.0, 10.0, 10.0 
9.15e+2, 2.95e+2, -49000.0, -49000.0, 0.0, 0.0, 0.0, -49000.0, -49000.0, 0.0, 10.0, 10.0 
9.15e+2, 3.05e+2, 0.0, 0.0, 0.0, 0.0, 0.0, 0.0, 0.0, 0.0, 10.0, 10.0 
9.15e+2, 3.15e+2, 0.0, 0.0, 0.0, 0.0, 0.0, 0.0, 0.0, 0.0, 10.0, 10.0 
9.25e+2, 1.25e+2, -1715000.0, -1715000.0, 0.0, 0.0, 0.0, -1715000.0, -1715000.0, 0.0, 10.0, 10.0 
9.25e+2, 1.35e+2, -1617000.0, -1617000.0, 0.0, 0.0, 0.0, -1617000.0, -1617000.0, 0.0, 10.0, 10.0 
9.25e+2, 1.45e+2, -1519000.0, -1519000.0, 0.0, 0.0, 0.0, -1519000.0, -1519000.0, 0.0, 10.0, 10.0 
9.25e+2, 1.55e+2, -1421000.0, -1421000.0, 0.0, 0.0, 0.0, -1421000.0, -1421000.0, 0.0, 10.0, 10.0 
9.25e+2, 1.65e+2, -1323000.0, -1323000.0, 0.0, 0.0, 0.0, -1323000.0, -1323000.0, 0.0, 10.0, 10.0 
9.25e+2, 1.75e+2, -1225000.0, -1225000.0, 0.0, 0.0, 0.0, -1225000.0, -1225000.0, 0.0, 10.0, 10.0 
9.25e+2, 1.85e+2, -1127000.0, -1127000.0, 0.0, 0.0, 0.0, -1127000.0, -1127000.0, 0.0, 10.0, 10.0 
9.25e+2, 1.95e+2, -1029000.0, -1029000.0, 0.0, 0.0, 0.0, -1029000.0, -1029000.0, 0.0, 10.0, 10.0 
9.25e+2, 2.05e+2, -931000.0, -931000.0, 0.0, 0.0, 0.0, -931000.0, -931000.0, 0.0, 10.0, 10.0 
9.25e+2, 2.15e+2, -833000.0, -833000.0, 0.0, 0.0, 0.0, -833000.0, -833000.0, 0.0, 10.0, 10.0 
9.25e+2, 2.25e+2, -735000.0, -735000.0, 0.0, 0.0, 0.0, -735000.0, -735000.0, 0.0, 10.0, 10.0 
9.25e+2, 2.35e+2, -637000.0, -637000.0, 0.0, 0.0, 0.0, -637000.0, -637000.0, 0.0, 10.0, 10.0 
9.25e+2, 2.45e+2, -539000.0, -539000.0, 0.0, 0.0, 0.0, -539000.0, -539000.0, 0.0, 10.0, 10.0 
9.25e+2, 2.55e+2, -441000.0, -441000.0, 0.0, 0.0, 0.0, -441000.0, -441000.0, 0.0, 10.0, 10.0 
9.25e+2, 2.65e+2, -343000.0, -343000.0, 0.0, 0.0, 0.0, -343000.0, -343000.0, 0.0, 10.0, 10.0 
9.25e+2, 2.75e+2, -245000.0, -245000.0, 0.0, 0.0, 0.0, -245000.0, -245000.0, 0.0, 10.0, 10.0 
9.25e+2, 2.85e+2, -147000.0, -147000.0, 0.0, 0.0, 0.0, -147000.0, -147000.0, 0.0, 10.0, 10.0 
9.25e+2, 2.95e+2, -49000.0, -49000.0, 0.0, 0.0, 0.0, -49000.0, -49000.0, 0.0, 10.0, 10.0 
9.25e+2, 3.05e+2, 0.0, 0.0, 0.0, 0.0, 0.0, 0.0, 0.0, 0.0, 10.0, 10.0 
9.25e+2, 3.15e+2, 0.0, 0.0, 0.0, 0.0, 0.0, 0.0, 0.0, 0.0, 10.0, 10.0 
9.35e+2, 1.25e+2, -1715000.0, -1715000.0, 0.0, 0.0, 0.0, -1715000.0, -1715000.0, 0.0, 10.0, 10.0 
9.35e+2, 1.35e+2, -1617000.0, -1617000.0, 0.0, 0.0, 0.0, -1617000.0, -1617000.0, 0.0, 10.0, 10.0 
9.35e+2, 1.45e+2, -1519000.0, -1519000.0, 0.0, 0.0, 0.0, -1519000.0, -1519000.0, 0.0, 10.0, 10.0 
9.35e+2, 1.55e+2, -1421000.0, -1421000.0, 0.0, 0.0, 0.0, -1421000.0, -1421000.0, 0.0, 10.0, 10.0 
9.35e+2, 1.65e+2, -1323000.0, -1323000.0, 0.0, 0.0, 0.0, -1323000.0, -1323000.0, 0.0, 10.0, 10.0 
9.35e+2, 1.75e+2, -1225000.0, -1225000.0, 0.0, 0.0, 0.0, -1225000.0, -1225000.0, 0.0, 10.0, 10.0 
9.35e+2, 1.85e+2, -1127000.0, -1127000.0, 0.0, 0.0, 0.0, -1127000.0, -1127000.0, 0.0, 10.0, 10.0 
9.35e+2, 1.95e+2, -1029000.0, -1029000.0, 0.0, 0.0, 0.0, -1029000.0, -1029000.0, 0.0, 10.0, 10.0 
9.35e+2, 2.05e+2, -931000.0, -931000.0, 0.0, 0.0, 0.0, -931000.0, -931000.0, 0.0, 10.0, 10.0 
9.35e+2, 2.15e+2, -833000.0, -833000.0, 0.0, 0.0, 0.0, -833000.0, -833000.0, 0.0, 10.0, 10.0 
9.35e+2, 2.25e+2, -735000.0, -735000.0, 0.0, 0.0, 0.0, -735000.0, -735000.0, 0.0, 10.0, 10.0 
9.35e+2, 2.35e+2, -637000.0, -637000.0, 0.0, 0.0, 0.0, -637000.0, -637000.0, 0.0, 10.0, 10.0 
9.35e+2, 2.45e+2, -539000.0, -539000.0, 0.0, 0.0, 0.0, -539000.0, -539000.0, 0.0, 10.0, 10.0 
9.35e+2, 2.55e+2, -441000.0, -441000.0, 0.0, 0.0, 0.0, -441000.0, -441000.0, 0.0, 10.0, 10.0 
9.35e+2, 2.65e+2, -343000.0, -343000.0, 0.0, 0.0, 0.0, -343000.0, -343000.0, 0.0, 10.0, 10.0 
9.35e+2, 2.75e+2, -245000.0, -245000.0, 0.0, 0.0, 0.0, -245000.0, -245000.0, 0.0, 10.0, 10.0 
9.35e+2, 2.85e+2, -147000.0, -147000.0, 0.0, 0.0, 0.0, -147000.0, -147000.0, 0.0, 10.0, 10.0 
9.35e+2, 2.95e+2, -49000.0, -49000.0, 0.0, 0.0, 0.0, -49000.0, -49000.0, 0.0, 10.0, 10.0 
9.35e+2, 3.05e+2, 0.0, 0.0, 0.0, 0.0, 0.0, 0.0, 0.0, 0.0, 10.0, 10.0 
9.35e+2, 3.15e+2, 0.0, 0.0, 0.0, 0.0, 0.0, 0.0, 0.0, 0.0, 10.0, 10.0 
9.45e+2, 1.25e+2, -1715000.0, -1715000.0, 0.0, 0.0, 0.0, -1715000.0, -1715000.0, 0.0, 10.0, 10.0 
9.45e+2, 1.35e+2, -1617000.0, -1617000.0, 0.0, 0.0, 0.0, -1617000.0, -1617000.0, 0.0, 10.0, 10.0 
9.45e+2, 1.45e+2, -1519000.0, -1519000.0, 0.0, 0.0, 0.0, -1519000.0, -1519000.0, 0.0, 10.0, 10.0 
9.45e+2, 1.55e+2, -1421000.0, -1421000.0, 0.0, 0.0, 0.0, -1421000.0, -1421000.0, 0.0, 10.0, 10.0 
9.45e+2, 1.65e+2, -1323000.0, -1323000.0, 0.0, 0.0, 0.0, -1323000.0, -1323000.0, 0.0, 10.0, 10.0 
9.45e+2, 1.75e+2, -1225000.0, -1225000.0, 0.0, 0.0, 0.0, -1225000.0, -1225000.0, 0.0, 10.0, 10.0 
9.45e+2, 1.85e+2, -1127000.0, -1127000.0, 0.0, 0.0, 0.0, -1127000.0, -1127000.0, 0.0, 10.0, 10.0 
9.45e+2, 1.95e+2, -1029000.0, -1029000.0, 0.0, 0.0, 0.0, -1029000.0, -1029000.0, 0.0, 10.0, 10.0 
9.45e+2, 2.05e+2, -931000.0, -931000.0, 0.0, 0.0, 0.0, -931000.0, -931000.0, 0.0, 10.0, 10.0 
9.45e+2, 2.15e+2, -833000.0, -833000.0, 0.0, 0.0, 0.0, -833000.0, -833000.0, 0.0, 10.0, 10.0 
9.45e+2, 2.25e+2, -735000.0, -735000.0, 0.0, 0.0, 0.0, -735000.0, -735000.0, 0.0, 10.0, 10.0 
9.45e+2, 2.35e+2, -637000.0, -637000.0, 0.0, 0.0, 0.0, -637000.0, -637000.0, 0.0, 10.0, 10.0 
9.45e+2, 2.45e+2, -539000.0, -539000.0, 0.0, 0.0, 0.0, -539000.0, -539000.0, 0.0, 10.0, 10.0 
9.45e+2, 2.55e+2, -441000.0, -441000.0, 0.0, 0.0, 0.0, -441000.0, -441000.0, 0.0, 10.0, 10.0 
9.45e+2, 2.65e+2, -343000.0, -343000.0, 0.0, 0.0, 0.0, -343000.0, -343000.0, 0.0, 10.0, 10.0 
9.45e+2, 2.75e+2, -245000.0, -245000.0, 0.0, 0.0, 0.0, -245000.0, -245000.0, 0.0, 10.0, 10.0 
9.45e+2, 2.85e+2, -147000.0, -147000.0, 0.0, 0.0, 0.0, -147000.0, -147000.0, 0.0, 10.0, 10.0 
9.45e+2, 2.95e+2, -49000.0, -49000.0, 0.0, 0.0, 0.0, -49000.0, -49000.0, 0.0, 10.0, 10.0 
9.45e+2, 3.05e+2, 0.0, 0.0, 0.0, 0.0, 0.0, 0.0, 0.0, 0.0, 10.0, 10.0 
9.45e+2, 3.15e+2, 0.0, 0.0, 0.0, 0.0, 0.0, 0.0, 0.0, 0.0, 10.0, 10.0 
9.55e+2, 1.25e+2, -1715000.0, -1715000.0, 0.0, 0.0, 0.0, -1715000.0, -1715000.0, 0.0, 10.0, 10.0 
9.55e+2, 1.35e+2, -1617000.0, -1617000.0, 0.0, 0.0, 0.0, -1617000.0, -1617000.0, 0.0, 10.0, 10.0 
9.55e+2, 1.45e+2, -1519000.0, -1519000.0, 0.0, 0.0, 0.0, -1519000.0, -1519000.0, 0.0, 10.0, 10.0 
9.55e+2, 1.55e+2, -1421000.0, -1421000.0, 0.0, 0.0, 0.0, -1421000.0, -1421000.0, 0.0, 10.0, 10.0 
9.55e+2, 1.65e+2, -1323000.0, -1323000.0, 0.0, 0.0, 0.0, -1323000.0, -1323000.0, 0.0, 10.0, 10.0 
9.55e+2, 1.75e+2, -1225000.0, -1225000.0, 0.0, 0.0, 0.0, -1225000.0, -1225000.0, 0.0, 10.0, 10.0 
9.55e+2, 1.85e+2, -1127000.0, -1127000.0, 0.0, 0.0, 0.0, -1127000.0, -1127000.0, 0.0, 10.0, 10.0 
9.55e+2, 1.95e+2, -1029000.0, -1029000.0, 0.0, 0.0, 0.0, -1029000.0, -1029000.0, 0.0, 10.0, 10.0 
9.55e+2, 2.05e+2, -931000.0, -931000.0, 0.0, 0.0, 0.0, -931000.0, -931000.0, 0.0, 10.0, 10.0 
9.55e+2, 2.15e+2, -833000.0, -833000.0, 0.0, 0.0, 0.0, -833000.0, -833000.0, 0.0, 10.0, 10.0 
9.55e+2, 2.25e+2, -735000.0, -735000.0, 0.0, 0.0, 0.0, -735000.0, -735000.0, 0.0, 10.0, 10.0 
9.55e+2, 2.35e+2, -637000.0, -637000.0, 0.0, 0.0, 0.0, -637000.0, -637000.0, 0.0, 10.0, 10.0 
9.55e+2, 2.45e+2, -539000.0, -539000.0, 0.0, 0.0, 0.0, -539000.0, -539000.0, 0.0, 10.0, 10.0 
9.55e+2, 2.55e+2, -441000.0, -441000.0, 0.0, 0.0, 0.0, -441000.0, -441000.0, 0.0, 10.0, 10.0 
9.55e+2, 2.65e+2, -343000.0, -343000.0, 0.0, 0.0, 0.0, -343000.0, -343000.0, 0.0, 10.0, 10.0 
9.55e+2, 2.75e+2, -245000.0, -245000.0, 0.0, 0.0, 0.0, -245000.0, -245000.0, 0.0, 10.0, 10.0 
9.55e+2, 2.85e+2, -147000.0, -147000.0, 0.0, 0.0, 0.0, -147000.0, -147000.0, 0.0, 10.0, 10.0 
9.55e+2, 2.95e+2, -49000.0, -49000.0, 0.0, 0.0, 0.0, -49000.0, -49000.0, 0.0, 10.0, 10.0 
9.55e+2, 3.05e+2, 0.0, 0.0, 0.0, 0.0, 0.0, 0.0, 0.0, 0.0, 10.0, 10.0 
9.55e+2, 3.15e+2, 0.0, 0.0, 0.0, 0.0, 0.0, 0.0, 0.0, 0.0, 10.0, 10.0 
9.65e+2, 1.25e+2, -1715000.0, -1715000.0, 0.0, 0.0, 0.0, -1715000.0, -1715000.0, 0.0, 10.0, 10.0 
9.65e+2, 1.35e+2, -1617000.0, -1617000.0, 0.0, 0.0, 0.0, -1617000.0, -1617000.0, 0.0, 10.0, 10.0 
9.65e+2, 1.45e+2, -1519000.0, -1519000.0, 0.0, 0.0, 0.0, -1519000.0, -1519000.0, 0.0, 10.0, 10.0 
9.65e+2, 1.55e+2, -1421000.0, -1421000.0, 0.0, 0.0, 0.0, -1421000.0, -1421000.0, 0.0, 10.0, 10.0 
9.65e+2, 1.65e+2, -1323000.0, -1323000.0, 0.0, 0.0, 0.0, -1323000.0, -1323000.0, 0.0, 10.0, 10.0 
9.65e+2, 1.75e+2, -1225000.0, -1225000.0, 0.0, 0.0, 0.0, -1225000.0, -1225000.0, 0.0, 10.0, 10.0 
9.65e+2, 1.85e+2, -1127000.0, -1127000.0, 0.0, 0.0, 0.0, -1127000.0, -1127000.0, 0.0, 10.0, 10.0 
9.65e+2, 1.95e+2, -1029000.0, -1029000.0, 0.0, 0.0, 0.0, -1029000.0, -1029000.0, 0.0, 10.0, 10.0 
9.65e+2, 2.05e+2, -931000.0, -931000.0, 0.0, 0.0, 0.0, -931000.0, -931000.0, 0.0, 10.0, 10.0 
9.65e+2, 2.15e+2, -833000.0, -833000.0, 0.0, 0.0, 0.0, -833000.0, -833000.0, 0.0, 10.0, 10.0 
9.65e+2, 2.25e+2, -735000.0, -735000.0, 0.0, 0.0, 0.0, -735000.0, -735000.0, 0.0, 10.0, 10.0 
9.65e+2, 2.35e+2, -637000.0, -637000.0, 0.0, 0.0, 0.0, -637000.0, -637000.0, 0.0, 10.0, 10.0 
9.65e+2, 2.45e+2, -539000.0, -539000.0, 0.0, 0.0, 0.0, -539000.0, -539000.0, 0.0, 10.0, 10.0 
9.65e+2, 2.55e+2, -441000.0, -441000.0, 0.0, 0.0, 0.0, -441000.0, -441000.0, 0.0, 10.0, 10.0 
9.65e+2, 2.65e+2, -343000.0, -343000.0, 0.0, 0.0, 0.0, -343000.0, -343000.0, 0.0, 10.0, 10.0 
9.65e+2, 2.75e+2, -245000.0, -245000.0, 0.0, 0.0, 0.0, -245000.0, -245000.0, 0.0, 10.0, 10.0 
9.65e+2, 2.85e+2, -147000.0, -147000.0, 0.0, 0.0, 0.0, -147000.0, -147000.0, 0.0, 10.0, 10.0 
9.65e+2, 2.95e+2, -49000.0, -49000.0, 0.0, 0.0, 0.0, -49000.0, -49000.0, 0.0, 10.0, 10.0 
9.65e+2, 3.05e+2, 0.0, 0.0, 0.0, 0.0, 0.0, 0.0, 0.0, 0.0, 10.0, 10.0 
9.65e+2, 3.15e+2, 0.0, 0.0, 0.0, 0.0, 0.0, 0.0, 0.0, 0.0, 10.0, 10.0 
9.75e+2, 1.25e+2, -1715000.0, -1715000.0, 0.0, 0.0, 0.0, -1715000.0, -1715000.0, 0.0, 10.0, 10.0 
9.75e+2, 1.35e+2, -1617000.0, -1617000.0, 0.0, 0.0, 0.0, -1617000.0, -1617000.0, 0.0, 10.0, 10.0 
9.75e+2, 1.45e+2, -1519000.0, -1519000.0, 0.0, 0.0, 0.0, -1519000.0, -1519000.0, 0.0, 10.0, 10.0 
9.75e+2, 1.55e+2, -1421000.0, -1421000.0, 0.0, 0.0, 0.0, -1421000.0, -1421000.0, 0.0, 10.0, 10.0 
9.75e+2, 1.65e+2, -1323000.0, -1323000.0, 0.0, 0.0, 0.0, -1323000.0, -1323000.0, 0.0, 10.0, 10.0 
9.75e+2, 1.75e+2, -1225000.0, -1225000.0, 0.0, 0.0, 0.0, -1225000.0, -1225000.0, 0.0, 10.0, 10.0 
9.75e+2, 1.85e+2, -1127000.0, -1127000.0, 0.0, 0.0, 0.0, -1127000.0, -1127000.0, 0.0, 10.0, 10.0 
9.75e+2, 1.95e+2, -1029000.0, -1029000.0, 0.0, 0.0, 0.0, -1029000.0, -1029000.0, 0.0, 10.0, 10.0 
9.75e+2, 2.05e+2, -931000.0, -931000.0, 0.0, 0.0, 0.0, -931000.0, -931000.0, 0.0, 10.0, 10.0 
9.75e+2, 2.15e+2, -833000.0, -833000.0, 0.0, 0.0, 0.0, -833000.0, -833000.0, 0.0, 10.0, 10.0 
9.75e+2, 2.25e+2, -735000.0, -735000.0, 0.0, 0.0, 0.0, -735000.0, -735000.0, 0.0, 10.0, 10.0 
9.75e+2, 2.35e+2, -637000.0, -637000.0, 0.0, 0.0, 0.0, -637000.0, -637000.0, 0.0, 10.0, 10.0 
9.75e+2, 2.45e+2, -539000.0, -539000.0, 0.0, 0.0, 0.0, -539000.0, -539000.0, 0.0, 10.0, 10.0 
9.75e+2, 2.55e+2, -441000.0, -441000.0, 0.0, 0.0, 0.0, -441000.0, -441000.0, 0.0, 10.0, 10.0 
9.75e+2, 2.65e+2, -343000.0, -343000.0, 0.0, 0.0, 0.0, -343000.0, -343000.0, 0.0, 10.0, 10.0 
9.75e+2, 2.75e+2, -245000.0, -245000.0, 0.0, 0.0, 0.0, -245000.0, -245000.0, 0.0, 10.0, 10.0 
9.75e+2, 2.85e+2, -147000.0, -147000.0, 0.0, 0.0, 0.0, -147000.0, -147000.0, 0.0, 10.0, 10.0 
9.75e+2, 2.95e+2, -49000.0, -49000.0, 0.0, 0.0, 0.0, -49000.0, -49000.0, 0.0, 10.0, 10.0 
9.75e+2, 3.05e+2, 0.0, 0.0, 0.0, 0.0, 0.0, 0.0, 0.0, 0.0, 10.0, 10.0 
9.75e+2, 3.15e+2, 0.0, 0.0, 0.0, 0.0, 0.0, 0.0, 0.0, 0.0, 10.0, 10.0 
9.85e+2, 1.25e+2, -1715000.0, -1715000.0, 0.0, 0.0, 0.0, -1715000.0, -1715000.0, 0.0, 10.0, 10.0 
9.85e+2, 1.35e+2, -1617000.0, -1617000.0, 0.0, 0.0, 0.0, -1617000.0, -1617000.0, 0.0, 10.0, 10.0 
9.85e+2, 1.45e+2, -1519000.0, -1519000.0, 0.0, 0.0, 0.0, -1519000.0, -1519000.0, 0.0, 10.0, 10.0 
9.85e+2, 1.55e+2, -1421000.0, -1421000.0, 0.0, 0.0, 0.0, -1421000.0, -1421000.0, 0.0, 10.0, 10.0 
9.85e+2, 1.65e+2, -1323000.0, -1323000.0, 0.0, 0.0, 0.0, -1323000.0, -1323000.0, 0.0, 10.0, 10.0 
9.85e+2, 1.75e+2, -1225000.0, -1225000.0, 0.0, 0.0, 0.0, -1225000.0, -1225000.0, 0.0, 10.0, 10.0 
9.85e+2, 1.85e+2, -1127000.0, -1127000.0, 0.0, 0.0, 0.0, -1127000.0, -1127000.0, 0.0, 10.0, 10.0 
9.85e+2, 1.95e+2, -1029000.0, -1029000.0, 0.0, 0.0, 0.0, -1029000.0, -1029000.0, 0.0, 10.0, 10.0 
9.85e+2, 2.05e+2, -931000.0, -931000.0, 0.0, 0.0, 0.0, -931000.0, -931000.0, 0.0, 10.0, 10.0 
9.85e+2, 2.15e+2, -833000.0, -833000.0, 0.0, 0.0, 0.0, -833000.0, -833000.0, 0.0, 10.0, 10.0 
9.85e+2, 2.25e+2, -735000.0, -735000.0, 0.0, 0.0, 0.0, -735000.0, -735000.0, 0.0, 10.0, 10.0 
9.85e+2, 2.35e+2, -637000.0, -637000.0, 0.0, 0.0, 0.0, -637000.0, -637000.0, 0.0, 10.0, 10.0 
9.85e+2, 2.45e+2, -539000.0, -539000.0, 0.0, 0.0, 0.0, -539000.0, -539000.0, 0.0, 10.0, 10.0 
9.85e+2, 2.55e+2, -441000.0, -441000.0, 0.0, 0.0, 0.0, -441000.0, -441000.0, 0.0, 10.0, 10.0 
9.85e+2, 2.65e+2, -343000.0, -343000.0, 0.0, 0.0, 0.0, -343000.0, -343000.0, 0.0, 10.0, 10.0 
9.85e+2, 2.75e+2, -245000.0, -245000.0, 0.0, 0.0, 0.0, -245000.0, -245000.0, 0.0, 10.0, 10.0 
9.85e+2, 2.85e+2, -147000.0, -147000.0, 0.0, 0.0, 0.0, -147000.0, -147000.0, 0.0, 10.0, 10.0 
9.85e+2, 2.95e+2, -49000.0, -49000.0, 0.0, 0.0, 0.0, -49000.0, -49000.0, 0.0, 10.0, 10.0 
9.85e+2, 3.05e+2, 0.0, 0.0, 0.0, 0.0, 0.0, 0.0, 0.0, 0.0, 10.0, 10.0 
9.85e+2, 3.15e+2, 0.0, 0.0, 0.0, 0.0, 0.0, 0.0, 0.0, 0.0, 10.0, 10.0 
9.95e+2, 1.25e+2, -1715000.0, -1715000.0, 0.0, 0.0, 0.0, -1715000.0, -1715000.0, 0.0, 10.0, 10.0 
9.95e+2, 1.35e+2, -1617000.0, -1617000.0, 0.0, 0.0, 0.0, -1617000.0, -1617000.0, 0.0, 10.0, 10.0 
9.95e+2, 1.45e+2, -1519000.0, -1519000.0, 0.0, 0.0, 0.0, -1519000.0, -1519000.0, 0.0, 10.0, 10.0 
9.95e+2, 1.55e+2, -1421000.0, -1421000.0, 0.0, 0.0, 0.0, -1421000.0, -1421000.0, 0.0, 10.0, 10.0 
9.95e+2, 1.65e+2, -1323000.0, -1323000.0, 0.0, 0.0, 0.0, -1323000.0, -1323000.0, 0.0, 10.0, 10.0 
9.95e+2, 1.75e+2, -1225000.0, -1225000.0, 0.0, 0.0, 0.0, -1225000.0, -1225000.0, 0.0, 10.0, 10.0 
9.95e+2, 1.85e+2, -1127000.0, -1127000.0, 0.0, 0.0, 0.0, -1127000.0, -1127000.0, 0.0, 10.0, 10.0 
9.95e+2, 1.95e+2, -1029000.0, -1029000.0, 0.0, 0.0, 0.0, -1029000.0, -1029000.0, 0.0, 10.0, 10.0 
9.95e+2, 2.05e+2, -931000.0, -931000.0, 0.0, 0.0, 0.0, -931000.0, -931000.0, 0.0, 10.0, 10.0 
9.95e+2, 2.15e+2, -833000.0, -833000.0, 0.0, 0.0, 0.0, -833000.0, -833000.0, 0.0, 10.0, 10.0 
9.95e+2, 2.25e+2, -735000.0, -735000.0, 0.0, 0.0, 0.0, -735000.0, -735000.0, 0.0, 10.0, 10.0 
9.95e+2, 2.35e+2, -637000.0, -637000.0, 0.0, 0.0, 0.0, -637000.0, -637000.0, 0.0, 10.0, 10.0 
9.95e+2, 2.45e+2, -539000.0, -539000.0, 0.0, 0.0, 0.0, -539000.0, -539000.0, 0.0, 10.0, 10.0 
9.95e+2, 2.55e+2, -441000.0, -441000.0, 0.0, 0.0, 0.0, -441000.0, -441000.0, 0.0, 10.0, 10.0 
9.95e+2, 2.65e+2, -343000.0, -343000.0, 0.0, 0.0, 0.0, -343000.0, -343000.0, 0.0, 10.0, 10.0 
9.95e+2, 2.75e+2, -245000.0, -245000.0, 0.0, 0.0, 0.0, -245000.0, -245000.0, 0.0, 10.0, 10.0 
9.95e+2, 2.85e+2, -147000.0, -147000.0, 0.0, 0.0, 0.0, -147000.0, -147000.0, 0.0, 10.0, 10.0 
9.95e+2, 2.95e+2, -49000.0, -49000.0, 0.0, 0.0, 0.0, -49000.0, -49000.0, 0.0, 10.0, 10.0 
9.95e+2, 3.05e+2, 0.0, 0.0, 0.0, 0.0, 0.0, 0.0, 0.0, 0.0, 10.0, 10.0 
9.95e+2, 3.15e+2, 0.0, 0.0, 0.0, 0.0, 0.0, 0.0, 0.0, 0.0, 10.0, 10.0 
1.005e+3, 1.25e+2, -1715000.0, -1715000.0, 0.0, 0.0, 0.0, -1715000.0, -1715000.0, 0.0, 10.0, 10.0 
1.005e+3, 1.35e+2, -1617000.0, -1617000.0, 0.0, 0.0, 0.0, -1617000.0, -1617000.0, 0.0, 10.0, 10.0 
1.005e+3, 1.45e+2, -1519000.0, -1519000.0, 0.0, 0.0, 0.0, -1519000.0, -1519000.0, 0.0, 10.0, 10.0 
1.005e+3, 1.55e+2, -1421000.0, -1421000.0, 0.0, 0.0, 0.0, -1421000.0, -1421000.0, 0.0, 10.0, 10.0 
1.005e+3, 1.65e+2, -1323000.0, -1323000.0, 0.0, 0.0, 0.0, -1323000.0, -1323000.0, 0.0, 10.0, 10.0 
1.005e+3, 1.75e+2, -1225000.0, -1225000.0, 0.0, 0.0, 0.0, -1225000.0, -1225000.0, 0.0, 10.0, 10.0 
1.005e+3, 1.85e+2, -1127000.0, -1127000.0, 0.0, 0.0, 0.0, -1127000.0, -1127000.0, 0.0, 10.0, 10.0 
1.005e+3, 1.95e+2, -1029000.0, -1029000.0, 0.0, 0.0, 0.0, -1029000.0, -1029000.0, 0.0, 10.0, 10.0 
1.005e+3, 2.05e+2, -931000.0, -931000.0, 0.0, 0.0, 0.0, -931000.0, -931000.0, 0.0, 10.0, 10.0 
1.005e+3, 2.15e+2, -833000.0, -833000.0, 0.0, 0.0, 0.0, -833000.0, -833000.0, 0.0, 10.0, 10.0 
1.005e+3, 2.25e+2, -735000.0, -735000.0, 0.0, 0.0, 0.0, -735000.0, -735000.0, 0.0, 10.0, 10.0 
1.005e+3, 2.35e+2, -637000.0, -637000.0, 0.0, 0.0, 0.0, -637000.0, -637000.0, 0.0, 10.0, 10.0 
1.005e+3, 2.45e+2, -539000.0, -539000.0, 0.0, 0.0, 0.0, -539000.0, -539000.0, 0.0, 10.0, 10.0 
1.005e+3, 2.55e+2, -441000.0, -441000.0, 0.0, 0.0, 0.0, -441000.0, -441000.0, 0.0, 10.0, 10.0 
1.005e+3, 2.65e+2, -343000.0, -343000.0, 0.0, 0.0, 0.0, -343000.0, -343000.0, 0.0, 10.0, 10.0 
1.005e+3, 2.75e+2, -245000.0, -245000.0, 0.0, 0.0, 0.0, -245000.0, -245000.0, 0.0, 10.0, 10.0 
1.005e+3, 2.85e+2, -147000.0, -147000.0, 0.0, 0.0, 0.0, -147000.0, -147000.0, 0.0, 10.0, 10.0 
1.005e+3, 2.95e+2, -49000.0, -49000.0, 0.0, 0.0, 0.0, -49000.0, -49000.0, 0.0, 10.0, 10.0 
1.005e+3, 3.05e+2, 0.0, 0.0, 0.0, 0.0, 0.0, 0.0, 0.0, 0.0, 10.0, 10.0 
1.005e+3, 3.15e+2, 0.0, 0.0, 0.0, 0.0, 0.0, 0.0, 0.0, 0.0, 10.0, 10.0 
1.015e+3, 1.25e+2, -1715000.0, -1715000.0, 0.0, 0.0, 0.0, -1715000.0, -1715000.0, 0.0, 10.0, 10.0 
1.015e+3, 1.35e+2, -1617000.0, -1617000.0, 0.0, 0.0, 0.0, -1617000.0, -1617000.0, 0.0, 10.0, 10.0 
1.015e+3, 1.45e+2, -1519000.0, -1519000.0, 0.0, 0.0, 0.0, -1519000.0, -1519000.0, 0.0, 10.0, 10.0 
1.015e+3, 1.55e+2, -1421000.0, -1421000.0, 0.0, 0.0, 0.0, -1421000.0, -1421000.0, 0.0, 10.0, 10.0 
1.015e+3, 1.65e+2, -1323000.0, -1323000.0, 0.0, 0.0, 0.0, -1323000.0, -1323000.0, 0.0, 10.0, 10.0 
1.015e+3, 1.75e+2, -1225000.0, -1225000.0, 0.0, 0.0, 0.0, -1225000.0, -1225000.0, 0.0, 10.0, 10.0 
1.015e+3, 1.85e+2, -1127000.0, -1127000.0, 0.0, 0.0, 0.0, -1127000.0, -1127000.0, 0.0, 10.0, 10.0 
1.015e+3, 1.95e+2, -1029000.0, -1029000.0, 0.0, 0.0, 0.0, -1029000.0, -1029000.0, 0.0, 10.0, 10.0 
1.015e+3, 2.05e+2, -931000.0, -931000.0, 0.0, 0.0, 0.0, -931000.0, -931000.0, 0.0, 10.0, 10.0 
1.015e+3, 2.15e+2, -833000.0, -833000.0, 0.0, 0.0, 0.0, -833000.0, -833000.0, 0.0, 10.0, 10.0 
1.015e+3, 2.25e+2, -735000.0, -735000.0, 0.0, 0.0, 0.0, -735000.0, -735000.0, 0.0, 10.0, 10.0 
1.015e+3, 2.35e+2, -637000.0, -637000.0, 0.0, 0.0, 0.0, -637000.0, -637000.0, 0.0, 10.0, 10.0 
1.015e+3, 2.45e+2, -539000.0, -539000.0, 0.0, 0.0, 0.0, -539000.0, -539000.0, 0.0, 10.0, 10.0 
1.015e+3, 2.55e+2, -441000.0, -441000.0, 0.0, 0.0, 0.0, -441000.0, -441000.0, 0.0, 10.0, 10.0 
1.015e+3, 2.65e+2, -343000.0, -343000.0, 0.0, 0.0, 0.0, -343000.0, -343000.0, 0.0, 10.0, 10.0 
1.015e+3, 2.75e+2, -245000.0, -245000.0, 0.0, 0.0, 0.0, -245000.0, -245000.0, 0.0, 10.0, 10.0 
1.015e+3, 2.85e+2, -147000.0, -147000.0, 0.0, 0.0, 0.0, -147000.0, -147000.0, 0.0, 10.0, 10.0 
1.015e+3, 2.95e+2, -49000.0, -49000.0, 0.0, 0.0, 0.0, -49000.0, -49000.0, 0.0, 10.0, 10.0 
1.015e+3, 3.05e+2, 0.0, 0.0, 0.0, 0.0, 0.0, 0.0, 0.0, 0.0, 10.0, 10.0 
1.015e+3, 3.15e+2, 0.0, 0.0, 0.0, 0.0, 0.0, 0.0, 0.0, 0.0, 10.0, 10.0 
1.025e+3, 1.25e+2, -1715000.0, -1715000.0, 0.0, 0.0, 0.0, -1715000.0, -1715000.0, 0.0, 10.0, 10.0 
1.025e+3, 1.35e+2, -1617000.0, -1617000.0, 0.0, 0.0, 0.0, -1617000.0, -1617000.0, 0.0, 10.0, 10.0 
1.025e+3, 1.45e+2, -1519000.0, -1519000.0, 0.0, 0.0, 0.0, -1519000.0, -1519000.0, 0.0, 10.0, 10.0 
1.025e+3, 1.55e+2, -1421000.0, -1421000.0, 0.0, 0.0, 0.0, -1421000.0, -1421000.0, 0.0, 10.0, 10.0 
1.025e+3, 1.65e+2, -1323000.0, -1323000.0, 0.0, 0.0, 0.0, -1323000.0, -1323000.0, 0.0, 10.0, 10.0 
1.025e+3, 1.75e+2, -1225000.0, -1225000.0, 0.0, 0.0, 0.0, -1225000.0, -1225000.0, 0.0, 10.0, 10.0 
1.025e+3, 1.85e+2, -1127000.0, -1127000.0, 0.0, 0.0, 0.0, -1127000.0, -1127000.0, 0.0, 10.0, 10.0 
1.025e+3, 1.95e+2, -1029000.0, -1029000.0, 0.0, 0.0, 0.0, -1029000.0, -1029000.0, 0.0, 10.0, 10.0 
1.025e+3, 2.05e+2, -931000.0, -931000.0, 0.0, 0.0, 0.0, -931000.0, -931000.0, 0.0, 10.0, 10.0 
1.025e+3, 2.15e+2, -833000.0, -833000.0, 0.0, 0.0, 0.0, -833000.0, -833000.0, 0.0, 10.0, 10.0 
1.025e+3, 2.25e+2, -735000.0, -735000.0, 0.0, 0.0, 0.0, -735000.0, -735000.0, 0.0, 10.0, 10.0 
1.025e+3, 2.35e+2, -637000.0, -637000.0, 0.0, 0.0, 0.0, -637000.0, -637000.0, 0.0, 10.0, 10.0 
1.025e+3, 2.45e+2, -539000.0, -539000.0, 0.0, 0.0, 0.0, -539000.0, -539000.0, 0.0, 10.0, 10.0 
1.025e+3, 2.55e+2, -441000.0, -441000.0, 0.0, 0.0, 0.0, -441000.0, -441000.0, 0.0, 10.0, 10.0 
1.025e+3, 2.65e+2, -343000.0, -343000.0, 0.0, 0.0, 0.0, -343000.0, -343000.0, 0.0, 10.0, 10.0 
1.025e+3, 2.75e+2, -245000.0, -245000.0, 0.0, 0.0, 0.0, -245000.0, -245000.0, 0.0, 10.0, 10.0 
1.025e+3, 2.85e+2, -147000.0, -147000.0, 0.0, 0.0, 0.0, -147000.0, -147000.0, 0.0, 10.0, 10.0 
1.025e+3, 2.95e+2, -49000.0, -49000.0, 0.0, 0.0, 0.0, -49000.0, -49000.0, 0.0, 10.0, 10.0 
1.025e+3, 3.05e+2, 0.0, 0.0, 0.0, 0.0, 0.0, 0.0, 0.0, 0.0, 10.0, 10.0 
1.025e+3, 3.15e+2, 0.0, 0.0, 0.0, 0.0, 0.0, 0.0, 0.0, 0.0, 10.0, 10.0 
1.035e+3, 1.25e+2, -1715000.0, -1715000.0, 0.0, 0.0, 0.0, -1715000.0, -1715000.0, 0.0, 10.0, 10.0 
1.035e+3, 1.35e+2, -1617000.0, -1617000.0, 0.0, 0.0, 0.0, -1617000.0, -1617000.0, 0.0, 10.0, 10.0 
1.035e+3, 1.45e+2, -1519000.0, -1519000.0, 0.0, 0.0, 0.0, -1519000.0, -1519000.0, 0.0, 10.0, 10.0 
1.035e+3, 1.55e+2, -1421000.0, -1421000.0, 0.0, 0.0, 0.0, -1421000.0, -1421000.0, 0.0, 10.0, 10.0 
1.035e+3, 1.65e+2, -1323000.0, -1323000.0, 0.0, 0.0, 0.0, -1323000.0, -1323000.0, 0.0, 10.0, 10.0 
1.035e+3, 1.75e+2, -1225000.0, -1225000.0, 0.0, 0.0, 0.0, -1225000.0, -1225000.0, 0.0, 10.0, 10.0 
1.035e+3, 1.85e+2, -1127000.0, -1127000.0, 0.0, 0.0, 0.0, -1127000.0, -1127000.0, 0.0, 10.0, 10.0 
1.035e+3, 1.95e+2, -1029000.0, -1029000.0, 0.0, 0.0, 0.0, -1029000.0, -1029000.0, 0.0, 10.0, 10.0 
1.035e+3, 2.05e+2, -931000.0, -931000.0, 0.0, 0.0, 0.0, -931000.0, -931000.0, 0.0, 10.0, 10.0 
1.035e+3, 2.15e+2, -833000.0, -833000.0, 0.0, 0.0, 0.0, -833000.0, -833000.0, 0.0, 10.0, 10.0 
1.035e+3, 2.25e+2, -735000.0, -735000.0, 0.0, 0.0, 0.0, -735000.0, -735000.0, 0.0, 10.0, 10.0 
1.035e+3, 2.35e+2, -637000.0, -637000.0, 0.0, 0.0, 0.0, -637000.0, -637000.0, 0.0, 10.0, 10.0 
1.035e+3, 2.45e+2, -539000.0, -539000.0, 0.0, 0.0, 0.0, -539000.0, -539000.0, 0.0, 10.0, 10.0 
1.035e+3, 2.55e+2, -441000.0, -441000.0, 0.0, 0.0, 0.0, -441000.0, -441000.0, 0.0, 10.0, 10.0 
1.035e+3, 2.65e+2, -343000.0, -343000.0, 0.0, 0.0, 0.0, -343000.0, -343000.0, 0.0, 10.0, 10.0 
1.035e+3, 2.75e+2, -245000.0, -245000.0, 0.0, 0.0, 0.0, -245000.0, -245000.0, 0.0, 10.0, 10.0 
1.035e+3, 2.85e+2, -147000.0, -147000.0, 0.0, 0.0, 0.0, -147000.0, -147000.0, 0.0, 10.0, 10.0 
1.035e+3, 2.95e+2, -49000.0, -49000.0, 0.0, 0.0, 0.0, -49000.0, -49000.0, 0.0, 10.0, 10.0 
1.035e+3, 3.05e+2, 0.0, 0.0, 0.0, 0.0, 0.0, 0.0, 0.0, 0.0, 10.0, 10.0 
1.035e+3, 3.15e+2, 0.0, 0.0, 0.0, 0.0, 0.0, 0.0, 0.0, 0.0, 10.0, 10.0 
1.045e+3, 1.25e+2, -1715000.0, -1715000.0, 0.0, 0.0, 0.0, -1715000.0, -1715000.0, 0.0, 10.0, 10.0 
1.045e+3, 1.35e+2, -1617000.0, -1617000.0, 0.0, 0.0, 0.0, -1617000.0, -1617000.0, 0.0, 10.0, 10.0 
1.045e+3, 1.45e+2, -1519000.0, -1519000.0, 0.0, 0.0, 0.0, -1519000.0, -1519000.0, 0.0, 10.0, 10.0 
1.045e+3, 1.55e+2, -1421000.0, -1421000.0, 0.0, 0.0, 0.0, -1421000.0, -1421000.0, 0.0, 10.0, 10.0 
1.045e+3, 1.65e+2, -1323000.0, -1323000.0, 0.0, 0.0, 0.0, -1323000.0, -1323000.0, 0.0, 10.0, 10.0 
1.045e+3, 1.75e+2, -1225000.0, -1225000.0, 0.0, 0.0, 0.0, -1225000.0, -1225000.0, 0.0, 10.0, 10.0 
1.045e+3, 1.85e+2, -1127000.0, -1127000.0, 0.0, 0.0, 0.0, -1127000.0, -1127000.0, 0.0, 10.0, 10.0 
1.045e+3, 1.95e+2, -1029000.0, -1029000.0, 0.0, 0.0, 0.0, -1029000.0, -1029000.0, 0.0, 10.0, 10.0 
1.045e+3, 2.05e+2, -931000.0, -931000.0, 0.0, 0.0, 0.0, -931000.0, -931000.0, 0.0, 10.0, 10.0 
1.045e+3, 2.15e+2, -833000.0, -833000.0, 0.0, 0.0, 0.0, -833000.0, -833000.0, 0.0, 10.0, 10.0 
1.045e+3, 2.25e+2, -735000.0, -735000.0, 0.0, 0.0, 0.0, -735000.0, -735000.0, 0.0, 10.0, 10.0 
1.045e+3, 2.35e+2, -637000.0, -637000.0, 0.0, 0.0, 0.0, -637000.0, -637000.0, 0.0, 10.0, 10.0 
1.045e+3, 2.45e+2, -539000.0, -539000.0, 0.0, 0.0, 0.0, -539000.0, -539000.0, 0.0, 10.0, 10.0 
1.045e+3, 2.55e+2, -441000.0, -441000.0, 0.0, 0.0, 0.0, -441000.0, -441000.0, 0.0, 10.0, 10.0 
1.045e+3, 2.65e+2, -343000.0, -343000.0, 0.0, 0.0, 0.0, -343000.0, -343000.0, 0.0, 10.0, 10.0 
1.045e+3, 2.75e+2, -245000.0, -245000.0, 0.0, 0.0, 0.0, -245000.0, -245000.0, 0.0, 10.0, 10.0 
1.045e+3, 2.85e+2, -147000.0, -147000.0, 0.0, 0.0, 0.0, -147000.0, -147000.0, 0.0, 10.0, 10.0 
1.045e+3, 2.95e+2, -49000.0, -49000.0, 0.0, 0.0, 0.0, -49000.0, -49000.0, 0.0, 10.0, 10.0 
1.045e+3, 3.05e+2, 0.0, 0.0, 0.0, 0.0, 0.0, 0.0, 0.0, 0.0, 10.0, 10.0 
1.045e+3, 3.15e+2, 0.0, 0.0, 0.0, 0.0, 0.0, 0.0, 0.0, 0.0, 10.0, 10.0 
1.055e+3, 1.25e+2, -1715000.0, -1715000.0, 0.0, 0.0, 0.0, -1715000.0, -1715000.0, 0.0, 10.0, 10.0 
1.055e+3, 1.35e+2, -1617000.0, -1617000.0, 0.0, 0.0, 0.0, -1617000.0, -1617000.0, 0.0, 10.0, 10.0 
1.055e+3, 1.45e+2, -1519000.0, -1519000.0, 0.0, 0.0, 0.0, -1519000.0, -1519000.0, 0.0, 10.0, 10.0 
1.055e+3, 1.55e+2, -1421000.0, -1421000.0, 0.0, 0.0, 0.0, -1421000.0, -1421000.0, 0.0, 10.0, 10.0 
1.055e+3, 1.65e+2, -1323000.0, -1323000.0, 0.0, 0.0, 0.0, -1323000.0, -1323000.0, 0.0, 10.0, 10.0 
1.055e+3, 1.75e+2, -1225000.0, -1225000.0, 0.0, 0.0, 0.0, -1225000.0, -1225000.0, 0.0, 10.0, 10.0 
1.055e+3, 1.85e+2, -1127000.0, -1127000.0, 0.0, 0.0, 0.0, -1127000.0, -1127000.0, 0.0, 10.0, 10.0 
1.055e+3, 1.95e+2, -1029000.0, -1029000.0, 0.0, 0.0, 0.0, -1029000.0, -1029000.0, 0.0, 10.0, 10.0 
1.055e+3, 2.05e+2, -931000.0, -931000.0, 0.0, 0.0, 0.0, -931000.0, -931000.0, 0.0, 10.0, 10.0 
1.055e+3, 2.15e+2, -833000.0, -833000.0, 0.0, 0.0, 0.0, -833000.0, -833000.0, 0.0, 10.0, 10.0 
1.055e+3, 2.25e+2, -735000.0, -735000.0, 0.0, 0.0, 0.0, -735000.0, -735000.0, 0.0, 10.0, 10.0 
1.055e+3, 2.35e+2, -637000.0, -637000.0, 0.0, 0.0, 0.0, -637000.0, -637000.0, 0.0, 10.0, 10.0 
1.055e+3, 2.45e+2, -539000.0, -539000.0, 0.0, 0.0, 0.0, -539000.0, -539000.0, 0.0, 10.0, 10.0 
1.055e+3, 2.55e+2, -441000.0, -441000.0, 0.0, 0.0, 0.0, -441000.0, -441000.0, 0.0, 10.0, 10.0 
1.055e+3, 2.65e+2, -343000.0, -343000.0, 0.0, 0.0, 0.0, -343000.0, -343000.0, 0.0, 10.0, 10.0 
1.055e+3, 2.75e+2, -245000.0, -245000.0, 0.0, 0.0, 0.0, -245000.0, -245000.0, 0.0, 10.0, 10.0 
1.055e+3, 2.85e+2, -147000.0, -147000.0, 0.0, 0.0, 0.0, -147000.0, -147000.0, 0.0, 10.0, 10.0 
1.055e+3, 2.95e+2, -49000.0, -49000.0, 0.0, 0.0, 0.0, -49000.0, -49000.0, 0.0, 10.0, 10.0 
1.055e+3, 3.05e+2, 0.0, 0.0, 0.0, 0.0, 0.0, 0.0, 0.0, 0.0, 10.0, 10.0 
1.055e+3, 3.15e+2, 0.0, 0.0, 0.0, 0.0, 0.0, 0.0, 0.0, 0.0, 10.0, 10.0 
1.065e+3, 1.25e+2, -1715000.0, -1715000.0, 0.0, 0.0, 0.0, -1715000.0, -1715000.0, 0.0, 10.0, 10.0 
1.065e+3, 1.35e+2, -1617000.0, -1617000.0, 0.0, 0.0, 0.0, -1617000.0, -1617000.0, 0.0, 10.0, 10.0 
1.065e+3, 1.45e+2, -1519000.0, -1519000.0, 0.0, 0.0, 0.0, -1519000.0, -1519000.0, 0.0, 10.0, 10.0 
1.065e+3, 1.55e+2, -1421000.0, -1421000.0, 0.0, 0.0, 0.0, -1421000.0, -1421000.0, 0.0, 10.0, 10.0 
1.065e+3, 1.65e+2, -1323000.0, -1323000.0, 0.0, 0.0, 0.0, -1323000.0, -1323000.0, 0.0, 10.0, 10.0 
1.065e+3, 1.75e+2, -1225000.0, -1225000.0, 0.0, 0.0, 0.0, -1225000.0, -1225000.0, 0.0, 10.0, 10.0 
1.065e+3, 1.85e+2, -1127000.0, -1127000.0, 0.0, 0.0, 0.0, -1127000.0, -1127000.0, 0.0, 10.0, 10.0 
1.065e+3, 1.95e+2, -1029000.0, -1029000.0, 0.0, 0.0, 0.0, -1029000.0, -1029000.0, 0.0, 10.0, 10.0 
1.065e+3, 2.05e+2, -931000.0, -931000.0, 0.0, 0.0, 0.0, -931000.0, -931000.0, 0.0, 10.0, 10.0 
1.065e+3, 2.15e+2, -833000.0, -833000.0, 0.0, 0.0, 0.0, -833000.0, -833000.0, 0.0, 10.0, 10.0 
1.065e+3, 2.25e+2, -735000.0, -735000.0, 0.0, 0.0, 0.0, -735000.0, -735000.0, 0.0, 10.0, 10.0 
1.065e+3, 2.35e+2, -637000.0, -637000.0, 0.0, 0.0, 0.0, -637000.0, -637000.0, 0.0, 10.0, 10.0 
1.065e+3, 2.45e+2, -539000.0, -539000.0, 0.0, 0.0, 0.0, -539000.0, -539000.0, 0.0, 10.0, 10.0 
1.065e+3, 2.55e+2, -441000.0, -441000.0, 0.0, 0.0, 0.0, -441000.0, -441000.0, 0.0, 10.0, 10.0 
1.065e+3, 2.65e+2, -343000.0, -343000.0, 0.0, 0.0, 0.0, -343000.0, -343000.0, 0.0, 10.0, 10.0 
1.065e+3, 2.75e+2, -245000.0, -245000.0, 0.0, 0.0, 0.0, -245000.0, -245000.0, 0.0, 10.0, 10.0 
1.065e+3, 2.85e+2, -147000.0, -147000.0, 0.0, 0.0, 0.0, -147000.0, -147000.0, 0.0, 10.0, 10.0 
1.065e+3, 2.95e+2, -49000.0, -49000.0, 0.0, 0.0, 0.0, -49000.0, -49000.0, 0.0, 10.0, 10.0 
1.065e+3, 3.05e+2, 0.0, 0.0, 0.0, 0.0, 0.0, 0.0, 0.0, 0.0, 10.0, 10.0 
1.065e+3, 3.15e+2, 0.0, 0.0, 0.0, 0.0, 0.0, 0.0, 0.0, 0.0, 10.0, 10.0 
1.075e+3, 1.25e+2, -1715000.0, -1715000.0, 0.0, 0.0, 0.0, -1715000.0, -1715000.0, 0.0, 10.0, 10.0 
1.075e+3, 1.35e+2, -1617000.0, -1617000.0, 0.0, 0.0, 0.0, -1617000.0, -1617000.0, 0.0, 10.0, 10.0 
1.075e+3, 1.45e+2, -1519000.0, -1519000.0, 0.0, 0.0, 0.0, -1519000.0, -1519000.0, 0.0, 10.0, 10.0 
1.075e+3, 1.55e+2, -1421000.0, -1421000.0, 0.0, 0.0, 0.0, -1421000.0, -1421000.0, 0.0, 10.0, 10.0 
1.075e+3, 1.65e+2, -1323000.0, -1323000.0, 0.0, 0.0, 0.0, -1323000.0, -1323000.0, 0.0, 10.0, 10.0 
1.075e+3, 1.75e+2, -1225000.0, -1225000.0, 0.0, 0.0, 0.0, -1225000.0, -1225000.0, 0.0, 10.0, 10.0 
1.075e+3, 1.85e+2, -1127000.0, -1127000.0, 0.0, 0.0, 0.0, -1127000.0, -1127000.0, 0.0, 10.0, 10.0 
1.075e+3, 1.95e+2, -1029000.0, -1029000.0, 0.0, 0.0, 0.0, -1029000.0, -1029000.0, 0.0, 10.0, 10.0 
1.075e+3, 2.05e+2, -931000.0, -931000.0, 0.0, 0.0, 0.0, -931000.0, -931000.0, 0.0, 10.0, 10.0 
1.075e+3, 2.15e+2, -833000.0, -833000.0, 0.0, 0.0, 0.0, -833000.0, -833000.0, 0.0, 10.0, 10.0 
1.075e+3, 2.25e+2, -735000.0, -735000.0, 0.0, 0.0, 0.0, -735000.0, -735000.0, 0.0, 10.0, 10.0 
1.075e+3, 2.35e+2, -637000.0, -637000.0, 0.0, 0.0, 0.0, -637000.0, -637000.0, 0.0, 10.0, 10.0 
1.075e+3, 2.45e+2, -539000.0, -539000.0, 0.0, 0.0, 0.0, -539000.0, -539000.0, 0.0, 10.0, 10.0 
1.075e+3, 2.55e+2, -441000.0, -441000.0, 0.0, 0.0, 0.0, -441000.0, -441000.0, 0.0, 10.0, 10.0 
1.075e+3, 2.65e+2, -343000.0, -343000.0, 0.0, 0.0, 0.0, -343000.0, -343000.0, 0.0, 10.0, 10.0 
1.075e+3, 2.75e+2, -245000.0, -245000.0, 0.0, 0.0, 0.0, -245000.0, -245000.0, 0.0, 10.0, 10.0 
1.075e+3, 2.85e+2, -147000.0, -147000.0, 0.0, 0.0, 0.0, -147000.0, -147000.0, 0.0, 10.0, 10.0 
1.075e+3, 2.95e+2, -49000.0, -49000.0, 0.0, 0.0, 0.0, -49000.0, -49000.0, 0.0, 10.0, 10.0 
1.075e+3, 3.05e+2, 0.0, 0.0, 0.0, 0.0, 0.0, 0.0, 0.0, 0.0, 10.0, 10.0 
1.075e+3, 3.15e+2, 0.0, 0.0, 0.0, 0.0, 0.0, 0.0, 0.0, 0.0, 10.0, 10.0 
1.085e+3, 1.25e+2, -1715000.0, -1715000.0, 0.0, 0.0, 0.0, -1715000.0, -1715000.0, 0.0, 10.0, 10.0 
1.085e+3, 1.35e+2, -1617000.0, -1617000.0, 0.0, 0.0, 0.0, -1617000.0, -1617000.0, 0.0, 10.0, 10.0 
1.085e+3, 1.45e+2, -1519000.0, -1519000.0, 0.0, 0.0, 0.0, -1519000.0, -1519000.0, 0.0, 10.0, 10.0 
1.085e+3, 1.55e+2, -1421000.0, -1421000.0, 0.0, 0.0, 0.0, -1421000.0, -1421000.0, 0.0, 10.0, 10.0 
1.085e+3, 1.65e+2, -1323000.0, -1323000.0, 0.0, 0.0, 0.0, -1323000.0, -1323000.0, 0.0, 10.0, 10.0 
1.085e+3, 1.75e+2, -1225000.0, -1225000.0, 0.0, 0.0, 0.0, -1225000.0, -1225000.0, 0.0, 10.0, 10.0 
1.085e+3, 1.85e+2, -1127000.0, -1127000.0, 0.0, 0.0, 0.0, -1127000.0, -1127000.0, 0.0, 10.0, 10.0 
1.085e+3, 1.95e+2, -1029000.0, -1029000.0, 0.0, 0.0, 0.0, -1029000.0, -1029000.0, 0.0, 10.0, 10.0 
1.085e+3, 2.05e+2, -931000.0, -931000.0, 0.0, 0.0, 0.0, -931000.0, -931000.0, 0.0, 10.0, 10.0 
1.085e+3, 2.15e+2, -833000.0, -833000.0, 0.0, 0.0, 0.0, -833000.0, -833000.0, 0.0, 10.0, 10.0 
1.085e+3, 2.25e+2, -735000.0, -735000.0, 0.0, 0.0, 0.0, -735000.0, -735000.0, 0.0, 10.0, 10.0 
1.085e+3, 2.35e+2, -637000.0, -637000.0, 0.0, 0.0, 0.0, -637000.0, -637000.0, 0.0, 10.0, 10.0 
1.085e+3, 2.45e+2, -539000.0, -539000.0, 0.0, 0.0, 0.0, -539000.0, -539000.0, 0.0, 10.0, 10.0 
1.085e+3, 2.55e+2, -441000.0, -441000.0, 0.0, 0.0, 0.0, -441000.0, -441000.0, 0.0, 10.0, 10.0 
1.085e+3, 2.65e+2, -343000.0, -343000.0, 0.0, 0.0, 0.0, -343000.0, -343000.0, 0.0, 10.0, 10.0 
1.085e+3, 2.75e+2, -245000.0, -245000.0, 0.0, 0.0, 0.0, -245000.0, -245000.0, 0.0, 10.0, 10.0 
1.085e+3, 2.85e+2, -147000.0, -147000.0, 0.0, 0.0, 0.0, -147000.0, -147000.0, 0.0, 10.0, 10.0 
1.085e+3, 2.95e+2, -49000.0, -49000.0, 0.0, 0.0, 0.0, -49000.0, -49000.0, 0.0, 10.0, 10.0 
1.085e+3, 3.05e+2, 0.0, 0.0, 0.0, 0.0, 0.0, 0.0, 0.0, 0.0, 10.0, 10.0 
1.085e+3, 3.15e+2, 0.0, 0.0, 0.0, 0.0, 0.0, 0.0, 0.0, 0.0, 10.0, 10.0 
1.095e+3, 1.25e+2, -1715000.0, -1715000.0, 0.0, 0.0, 0.0, -1715000.0, -1715000.0, 0.0, 10.0, 10.0 
1.095e+3, 1.35e+2, -1617000.0, -1617000.0, 0.0, 0.0, 0.0, -1617000.0, -1617000.0, 0.0, 10.0, 10.0 
1.095e+3, 1.45e+2, -1519000.0, -1519000.0, 0.0, 0.0, 0.0, -1519000.0, -1519000.0, 0.0, 10.0, 10.0 
1.095e+3, 1.55e+2, -1421000.0, -1421000.0, 0.0, 0.0, 0.0, -1421000.0, -1421000.0, 0.0, 10.0, 10.0 
1.095e+3, 1.65e+2, -1323000.0, -1323000.0, 0.0, 0.0, 0.0, -1323000.0, -1323000.0, 0.0, 10.0, 10.0 
1.095e+3, 1.75e+2, -1225000.0, -1225000.0, 0.0, 0.0, 0.0, -1225000.0, -1225000.0, 0.0, 10.0, 10.0 
1.095e+3, 1.85e+2, -1127000.0, -1127000.0, 0.0, 0.0, 0.0, -1127000.0, -1127000.0, 0.0, 10.0, 10.0 
1.095e+3, 1.95e+2, -1029000.0, -1029000.0, 0.0, 0.0, 0.0, -1029000.0, -1029000.0, 0.0, 10.0, 10.0 
1.095e+3, 2.05e+2, -931000.0, -931000.0, 0.0, 0.0, 0.0, -931000.0, -931000.0, 0.0, 10.0, 10.0 
1.095e+3, 2.15e+2, -833000.0, -833000.0, 0.0, 0.0, 0.0, -833000.0, -833000.0, 0.0, 10.0, 10.0 
1.095e+3, 2.25e+2, -735000.0, -735000.0, 0.0, 0.0, 0.0, -735000.0, -735000.0, 0.0, 10.0, 10.0 
1.095e+3, 2.35e+2, -637000.0, -637000.0, 0.0, 0.0, 0.0, -637000.0, -637000.0, 0.0, 10.0, 10.0 
1.095e+3, 2.45e+2, -539000.0, -539000.0, 0.0, 0.0, 0.0, -539000.0, -539000.0, 0.0, 10.0, 10.0 
1.095e+3, 2.55e+2, -441000.0, -441000.0, 0.0, 0.0, 0.0, -441000.0, -441000.0, 0.0, 10.0, 10.0 
1.095e+3, 2.65e+2, -343000.0, -343000.0, 0.0, 0.0, 0.0, -343000.0, -343000.0, 0.0, 10.0, 10.0 
1.095e+3, 2.75e+2, -245000.0, -245000.0, 0.0, 0.0, 0.0, -245000.0, -245000.0, 0.0, 10.0, 10.0 
1.095e+3, 2.85e+2, -147000.0, -147000.0, 0.0, 0.0, 0.0, -147000.0, -147000.0, 0.0, 10.0, 10.0 
1.095e+3, 2.95e+2, -49000.0, -49000.0, 0.0, 0.0, 0.0, -49000.0, -49000.0, 0.0, 10.0, 10.0 
1.095e+3, 3.05e+2, 0.0, 0.0, 0.0, 0.0, 0.0, 0.0, 0.0, 0.0, 10.0, 10.0 
1.095e+3, 3.15e+2, 0.0, 0.0, 0.0, 0.0, 0.0, 0.0, 0.0, 0.0, 10.0, 10.0 
1.105e+3, 1.25e+2, -1715000.0, -1715000.0, 0.0, 0.0, 0.0, -1715000.0, -1715000.0, 0.0, 10.0, 10.0 
1.105e+3, 1.35e+2, -1617000.0, -1617000.0, 0.0, 0.0, 0.0, -1617000.0, -1617000.0, 0.0, 10.0, 10.0 
1.105e+3, 1.45e+2, -1519000.0, -1519000.0, 0.0, 0.0, 0.0, -1519000.0, -1519000.0, 0.0, 10.0, 10.0 
1.105e+3, 1.55e+2, -1421000.0, -1421000.0, 0.0, 0.0, 0.0, -1421000.0, -1421000.0, 0.0, 10.0, 10.0 
1.105e+3, 1.65e+2, -1323000.0, -1323000.0, 0.0, 0.0, 0.0, -1323000.0, -1323000.0, 0.0, 10.0, 10.0 
1.105e+3, 1.75e+2, -1225000.0, -1225000.0, 0.0, 0.0, 0.0, -1225000.0, -1225000.0, 0.0, 10.0, 10.0 
1.105e+3, 1.85e+2, -1127000.0, -1127000.0, 0.0, 0.0, 0.0, -1127000.0, -1127000.0, 0.0, 10.0, 10.0 
1.105e+3, 1.95e+2, -1029000.0, -1029000.0, 0.0, 0.0, 0.0, -1029000.0, -1029000.0, 0.0, 10.0, 10.0 
1.105e+3, 2.05e+2, -931000.0, -931000.0, 0.0, 0.0, 0.0, -931000.0, -931000.0, 0.0, 10.0, 10.0 
1.105e+3, 2.15e+2, -833000.0, -833000.0, 0.0, 0.0, 0.0, -833000.0, -833000.0, 0.0, 10.0, 10.0 
1.105e+3, 2.25e+2, -735000.0, -735000.0, 0.0, 0.0, 0.0, -735000.0, -735000.0, 0.0, 10.0, 10.0 
1.105e+3, 2.35e+2, -637000.0, -637000.0, 0.0, 0.0, 0.0, -637000.0, -637000.0, 0.0, 10.0, 10.0 
1.105e+3, 2.45e+2, -539000.0, -539000.0, 0.0, 0.0, 0.0, -539000.0, -539000.0, 0.0, 10.0, 10.0 
1.105e+3, 2.55e+2, -441000.0, -441000.0, 0.0, 0.0, 0.0, -441000.0, -441000.0, 0.0, 10.0, 10.0 
1.105e+3, 2.65e+2, -343000.0, -343000.0, 0.0, 0.0, 0.0, -343000.0, -343000.0, 0.0, 10.0, 10.0 
1.105e+3, 2.75e+2, -245000.0, -245000.0, 0.0, 0.0, 0.0, -245000.0, -245000.0, 0.0, 10.0, 10.0 
1.105e+3, 2.85e+2, -147000.0, -147000.0, 0.0, 0.0, 0.0, -147000.0, -147000.0, 0.0, 10.0, 10.0 
1.105e+3, 2.95e+2, -49000.0, -49000.0, 0.0, 0.0, 0.0, -49000.0, -49000.0, 0.0, 10.0, 10.0 
1.105e+3, 3.05e+2, 0.0, 0.0, 0.0, 0.0, 0.0, 0.0, 0.0, 0.0, 10.0, 10.0 
1.105e+3, 3.15e+2, 0.0, 0.0, 0.0, 0.0, 0.0, 0.0, 0.0, 0.0, 10.0, 10.0 
1.115e+3, 1.25e+2, -1715000.0, -1715000.0, 0.0, 0.0, 0.0, -1715000.0, -1715000.0, 0.0, 10.0, 10.0 
1.115e+3, 1.35e+2, -1617000.0, -1617000.0, 0.0, 0.0, 0.0, -1617000.0, -1617000.0, 0.0, 10.0, 10.0 
1.115e+3, 1.45e+2, -1519000.0, -1519000.0, 0.0, 0.0, 0.0, -1519000.0, -1519000.0, 0.0, 10.0, 10.0 
1.115e+3, 1.55e+2, -1421000.0, -1421000.0, 0.0, 0.0, 0.0, -1421000.0, -1421000.0, 0.0, 10.0, 10.0 
1.115e+3, 1.65e+2, -1323000.0, -1323000.0, 0.0, 0.0, 0.0, -1323000.0, -1323000.0, 0.0, 10.0, 10.0 
1.115e+3, 1.75e+2, -1225000.0, -1225000.0, 0.0, 0.0, 0.0, -1225000.0, -1225000.0, 0.0, 10.0, 10.0 
1.115e+3, 1.85e+2, -1127000.0, -1127000.0, 0.0, 0.0, 0.0, -1127000.0, -1127000.0, 0.0, 10.0, 10.0 
1.115e+3, 1.95e+2, -1029000.0, -1029000.0, 0.0, 0.0, 0.0, -1029000.0, -1029000.0, 0.0, 10.0, 10.0 
1.115e+3, 2.05e+2, -931000.0, -931000.0, 0.0, 0.0, 0.0, -931000.0, -931000.0, 0.0, 10.0, 10.0 
1.115e+3, 2.15e+2, -833000.0, -833000.0, 0.0, 0.0, 0.0, -833000.0, -833000.0, 0.0, 10.0, 10.0 
1.115e+3, 2.25e+2, -735000.0, -735000.0, 0.0, 0.0, 0.0, -735000.0, -735000.0, 0.0, 10.0, 10.0 
1.115e+3, 2.35e+2, -637000.0, -637000.0, 0.0, 0.0, 0.0, -637000.0, -637000.0, 0.0, 10.0, 10.0 
1.115e+3, 2.45e+2, -539000.0, -539000.0, 0.0, 0.0, 0.0, -539000.0, -539000.0, 0.0, 10.0, 10.0 
1.115e+3, 2.55e+2, -441000.0, -441000.0, 0.0, 0.0, 0.0, -441000.0, -441000.0, 0.0, 10.0, 10.0 
1.115e+3, 2.65e+2, -343000.0, -343000.0, 0.0, 0.0, 0.0, -343000.0, -343000.0, 0.0, 10.0, 10.0 
1.115e+3, 2.75e+2, -245000.0, -245000.0, 0.0, 0.0, 0.0, -245000.0, -245000.0, 0.0, 10.0, 10.0 
1.115e+3, 2.85e+2, -147000.0, -147000.0, 0.0, 0.0, 0.0, -147000.0, -147000.0, 0.0, 10.0, 10.0 
1.115e+3, 2.95e+2, -49000.0, -49000.0, 0.0, 0.0, 0.0, -49000.0, -49000.0, 0.0, 10.0, 10.0 
1.115e+3, 3.05e+2, 0.0, 0.0, 0.0, 0.0, 0.0, 0.0, 0.0, 0.0, 10.0, 10.0 
1.115e+3, 3.15e+2, 0.0, 0.0, 0.0, 0.0, 0.0, 0.0, 0.0, 0.0, 10.0, 10.0 
1.125e+3, 1.25e+2, -1715000.0, -1715000.0, 0.0, 0.0, 0.0, -1715000.0, -1715000.0, 0.0, 10.0, 10.0 
1.125e+3, 1.35e+2, -1617000.0, -1617000.0, 0.0, 0.0, 0.0, -1617000.0, -1617000.0, 0.0, 10.0, 10.0 
1.125e+3, 1.45e+2, -1519000.0, -1519000.0, 0.0, 0.0, 0.0, -1519000.0, -1519000.0, 0.0, 10.0, 10.0 
1.125e+3, 1.55e+2, -1421000.0, -1421000.0, 0.0, 0.0, 0.0, -1421000.0, -1421000.0, 0.0, 10.0, 10.0 
1.125e+3, 1.65e+2, -1323000.0, -1323000.0, 0.0, 0.0, 0.0, -1323000.0, -1323000.0, 0.0, 10.0, 10.0 
1.125e+3, 1.75e+2, -1225000.0, -1225000.0, 0.0, 0.0, 0.0, -1225000.0, -1225000.0, 0.0, 10.0, 10.0 
1.125e+3, 1.85e+2, -1127000.0, -1127000.0, 0.0, 0.0, 0.0, -1127000.0, -1127000.0, 0.0, 10.0, 10.0 
1.125e+3, 1.95e+2, -1029000.0, -1029000.0, 0.0, 0.0, 0.0, -1029000.0, -1029000.0, 0.0, 10.0, 10.0 
1.125e+3, 2.05e+2, -931000.0, -931000.0, 0.0, 0.0, 0.0, -931000.0, -931000.0, 0.0, 10.0, 10.0 
1.125e+3, 2.15e+2, -833000.0, -833000.0, 0.0, 0.0, 0.0, -833000.0, -833000.0, 0.0, 10.0, 10.0 
1.125e+3, 2.25e+2, -735000.0, -735000.0, 0.0, 0.0, 0.0, -735000.0, -735000.0, 0.0, 10.0, 10.0 
1.125e+3, 2.35e+2, -637000.0, -637000.0, 0.0, 0.0, 0.0, -637000.0, -637000.0, 0.0, 10.0, 10.0 
1.125e+3, 2.45e+2, -539000.0, -539000.0, 0.0, 0.0, 0.0, -539000.0, -539000.0, 0.0, 10.0, 10.0 
1.125e+3, 2.55e+2, -441000.0, -441000.0, 0.0, 0.0, 0.0, -441000.0, -441000.0, 0.0, 10.0, 10.0 
1.125e+3, 2.65e+2, -343000.0, -343000.0, 0.0, 0.0, 0.0, -343000.0, -343000.0, 0.0, 10.0, 10.0 
1.125e+3, 2.75e+2, -245000.0, -245000.0, 0.0, 0.0, 0.0, -245000.0, -245000.0, 0.0, 10.0, 10.0 
1.125e+3, 2.85e+2, -147000.0, -147000.0, 0.0, 0.0, 0.0, -147000.0, -147000.0, 0.0, 10.0, 10.0 
1.125e+3, 2.95e+2, -49000.0, -49000.0, 0.0, 0.0, 0.0, -49000.0, -49000.0, 0.0, 10.0, 10.0 
1.125e+3, 3.05e+2, 0.0, 0.0, 0.0, 0.0, 0.0, 0.0, 0.0, 0.0, 10.0, 10.0 
1.125e+3, 3.15e+2, 0.0, 0.0, 0.0, 0.0, 0.0, 0.0, 0.0, 0.0, 10.0, 10.0 
1.135e+3, 1.25e+2, -1715000.0, -1715000.0, 0.0, 0.0, 0.0, -1715000.0, -1715000.0, 0.0, 10.0, 10.0 
1.135e+3, 1.35e+2, -1617000.0, -1617000.0, 0.0, 0.0, 0.0, -1617000.0, -1617000.0, 0.0, 10.0, 10.0 
1.135e+3, 1.45e+2, -1519000.0, -1519000.0, 0.0, 0.0, 0.0, -1519000.0, -1519000.0, 0.0, 10.0, 10.0 
1.135e+3, 1.55e+2, -1421000.0, -1421000.0, 0.0, 0.0, 0.0, -1421000.0, -1421000.0, 0.0, 10.0, 10.0 
1.135e+3, 1.65e+2, -1323000.0, -1323000.0, 0.0, 0.0, 0.0, -1323000.0, -1323000.0, 0.0, 10.0, 10.0 
1.135e+3, 1.75e+2, -1225000.0, -1225000.0, 0.0, 0.0, 0.0, -1225000.0, -1225000.0, 0.0, 10.0, 10.0 
1.135e+3, 1.85e+2, -1127000.0, -1127000.0, 0.0, 0.0, 0.0, -1127000.0, -1127000.0, 0.0, 10.0, 10.0 
1.135e+3, 1.95e+2, -1029000.0, -1029000.0, 0.0, 0.0, 0.0, -1029000.0, -1029000.0, 0.0, 10.0, 10.0 
1.135e+3, 2.05e+2, -931000.0, -931000.0, 0.0, 0.0, 0.0, -931000.0, -931000.0, 0.0, 10.0, 10.0 
1.135e+3, 2.15e+2, -833000.0, -833000.0, 0.0, 0.0, 0.0, -833000.0, -833000.0, 0.0, 10.0, 10.0 
1.135e+3, 2.25e+2, -735000.0, -735000.0, 0.0, 0.0, 0.0, -735000.0, -735000.0, 0.0, 10.0, 10.0 
1.135e+3, 2.35e+2, -637000.0, -637000.0, 0.0, 0.0, 0.0, -637000.0, -637000.0, 0.0, 10.0, 10.0 
1.135e+3, 2.45e+2, -539000.0, -539000.0, 0.0, 0.0, 0.0, -539000.0, -539000.0, 0.0, 10.0, 10.0 
1.135e+3, 2.55e+2, -441000.0, -441000.0, 0.0, 0.0, 0.0, -441000.0, -441000.0, 0.0, 10.0, 10.0 
1.135e+3, 2.65e+2, -343000.0, -343000.0, 0.0, 0.0, 0.0, -343000.0, -343000.0, 0.0, 10.0, 10.0 
1.135e+3, 2.75e+2, -245000.0, -245000.0, 0.0, 0.0, 0.0, -245000.0, -245000.0, 0.0, 10.0, 10.0 
1.135e+3, 2.85e+2, -147000.0, -147000.0, 0.0, 0.0, 0.0, -147000.0, -147000.0, 0.0, 10.0, 10.0 
1.135e+3, 2.95e+2, -49000.0, -49000.0, 0.0, 0.0, 0.0, -49000.0, -49000.0, 0.0, 10.0, 10.0 
1.135e+3, 3.05e+2, 0.0, 0.0, 0.0, 0.0, 0.0, 0.0, 0.0, 0.0, 10.0, 10.0 
1.135e+3, 3.15e+2, 0.0, 0.0, 0.0, 0.0, 0.0, 0.0, 0.0, 0.0, 10.0, 10.0 
1.145e+3, 1.25e+2, -1715000.0, -1715000.0, 0.0, 0.0, 0.0, -1715000.0, -1715000.0, 0.0, 10.0, 10.0 
1.145e+3, 1.35e+2, -1617000.0, -1617000.0, 0.0, 0.0, 0.0, -1617000.0, -1617000.0, 0.0, 10.0, 10.0 
1.145e+3, 1.45e+2, -1519000.0, -1519000.0, 0.0, 0.0, 0.0, -1519000.0, -1519000.0, 0.0, 10.0, 10.0 
1.145e+3, 1.55e+2, -1421000.0, -1421000.0, 0.0, 0.0, 0.0, -1421000.0, -1421000.0, 0.0, 10.0, 10.0 
1.145e+3, 1.65e+2, -1323000.0, -1323000.0, 0.0, 0.0, 0.0, -1323000.0, -1323000.0, 0.0, 10.0, 10.0 
1.145e+3, 1.75e+2, -1225000.0, -1225000.0, 0.0, 0.0, 0.0, -1225000.0, -1225000.0, 0.0, 10.0, 10.0 
1.145e+3, 1.85e+2, -1127000.0, -1127000.0, 0.0, 0.0, 0.0, -1127000.0, -1127000.0, 0.0, 10.0, 10.0 
1.145e+3, 1.95e+2, -1029000.0, -1029000.0, 0.0, 0.0, 0.0, -1029000.0, -1029000.0, 0.0, 10.0, 10.0 
1.145e+3, 2.05e+2, -931000.0, -931000.0, 0.0, 0.0, 0.0, -931000.0, -931000.0, 0.0, 10.0, 10.0 
1.145e+3, 2.15e+2, -833000.0, -833000.0, 0.0, 0.0, 0.0, -833000.0, -833000.0, 0.0, 10.0, 10.0 
1.145e+3, 2.25e+2, -735000.0, -735000.0, 0.0, 0.0, 0.0, -735000.0, -735000.0, 0.0, 10.0, 10.0 
1.145e+3, 2.35e+2, -637000.0, -637000.0, 0.0, 0.0, 0.0, -637000.0, -637000.0, 0.0, 10.0, 10.0 
1.145e+3, 2.45e+2, -539000.0, -539000.0, 0.0, 0.0, 0.0, -539000.0, -539000.0, 0.0, 10.0, 10.0 
1.145e+3, 2.55e+2, -441000.0, -441000.0, 0.0, 0.0, 0.0, -441000.0, -441000.0, 0.0, 10.0, 10.0 
1.145e+3, 2.65e+2, -343000.0, -343000.0, 0.0, 0.0, 0.0, -343000.0, -343000.0, 0.0, 10.0, 10.0 
1.145e+3, 2.75e+2, -245000.0, -245000.0, 0.0, 0.0, 0.0, -245000.0, -245000.0, 0.0, 10.0, 10.0 
1.145e+3, 2.85e+2, -147000.0, -147000.0, 0.0, 0.0, 0.0, -147000.0, -147000.0, 0.0, 10.0, 10.0 
1.145e+3, 2.95e+2, -49000.0, -49000.0, 0.0, 0.0, 0.0, -49000.0, -49000.0, 0.0, 10.0, 10.0 
1.145e+3, 3.05e+2, 0.0, 0.0, 0.0, 0.0, 0.0, 0.0, 0.0, 0.0, 10.0, 10.0 
1.145e+3, 3.15e+2, 0.0, 0.0, 0.0, 0.0, 0.0, 0.0, 0.0, 0.0, 10.0, 10.0 
1.155e+3, 1.25e+2, -1715000.0, -1715000.0, 0.0, 0.0, 0.0, -1715000.0, -1715000.0, 0.0, 10.0, 10.0 
1.155e+3, 1.35e+2, -1617000.0, -1617000.0, 0.0, 0.0, 0.0, -1617000.0, -1617000.0, 0.0, 10.0, 10.0 
1.155e+3, 1.45e+2, -1519000.0, -1519000.0, 0.0, 0.0, 0.0, -1519000.0, -1519000.0, 0.0, 10.0, 10.0 
1.155e+3, 1.55e+2, -1421000.0, -1421000.0, 0.0, 0.0, 0.0, -1421000.0, -1421000.0, 0.0, 10.0, 10.0 
1.155e+3, 1.65e+2, -1323000.0, -1323000.0, 0.0, 0.0, 0.0, -1323000.0, -1323000.0, 0.0, 10.0, 10.0 
1.155e+3, 1.75e+2, -1225000.0, -1225000.0, 0.0, 0.0, 0.0, -1225000.0, -1225000.0, 0.0, 10.0, 10.0 
1.155e+3, 1.85e+2, -1127000.0, -1127000.0, 0.0, 0.0, 0.0, -1127000.0, -1127000.0, 0.0, 10.0, 10.0 
1.155e+3, 1.95e+2, -1029000.0, -1029000.0, 0.0, 0.0, 0.0, -1029000.0, -1029000.0, 0.0, 10.0, 10.0 
1.155e+3, 2.05e+2, -931000.0, -931000.0, 0.0, 0.0, 0.0, -931000.0, -931000.0, 0.0, 10.0, 10.0 
1.155e+3, 2.15e+2, -833000.0, -833000.0, 0.0, 0.0, 0.0, -833000.0, -833000.0, 0.0, 10.0, 10.0 
1.155e+3, 2.25e+2, -735000.0, -735000.0, 0.0, 0.0, 0.0, -735000.0, -735000.0, 0.0, 10.0, 10.0 
1.155e+3, 2.35e+2, -637000.0, -637000.0, 0.0, 0.0, 0.0, -637000.0, -637000.0, 0.0, 10.0, 10.0 
1.155e+3, 2.45e+2, -539000.0, -539000.0, 0.0, 0.0, 0.0, -539000.0, -539000.0, 0.0, 10.0, 10.0 
1.155e+3, 2.55e+2, -441000.0, -441000.0, 0.0, 0.0, 0.0, -441000.0, -441000.0, 0.0, 10.0, 10.0 
1.155e+3, 2.65e+2, -343000.0, -343000.0, 0.0, 0.0, 0.0, -343000.0, -343000.0, 0.0, 10.0, 10.0 
1.155e+3, 2.75e+2, -245000.0, -245000.0, 0.0, 0.0, 0.0, -245000.0, -245000.0, 0.0, 10.0, 10.0 
1.155e+3, 2.85e+2, -147000.0, -147000.0, 0.0, 0.0, 0.0, -147000.0, -147000.0, 0.0, 10.0, 10.0 
1.155e+3, 2.95e+2, -49000.0, -49000.0, 0.0, 0.0, 0.0, -49000.0, -49000.0, 0.0, 10.0, 10.0 
1.155e+3, 3.05e+2, 0.0, 0.0, 0.0, 0.0, 0.0, 0.0, 0.0, 0.0, 10.0, 10.0 
1.155e+3, 3.15e+2, 0.0, 0.0, 0.0, 0.0, 0.0, 0.0, 0.0, 0.0, 10.0, 10.0 
1.165e+3, 1.25e+2, -1715000.0, -1715000.0, 0.0, 0.0, 0.0, -1715000.0, -1715000.0, 0.0, 10.0, 10.0 
1.165e+3, 1.35e+2, -1617000.0, -1617000.0, 0.0, 0.0, 0.0, -1617000.0, -1617000.0, 0.0, 10.0, 10.0 
1.165e+3, 1.45e+2, -1519000.0, -1519000.0, 0.0, 0.0, 0.0, -1519000.0, -1519000.0, 0.0, 10.0, 10.0 
1.165e+3, 1.55e+2, -1421000.0, -1421000.0, 0.0, 0.0, 0.0, -1421000.0, -1421000.0, 0.0, 10.0, 10.0 
1.165e+3, 1.65e+2, -1323000.0, -1323000.0, 0.0, 0.0, 0.0, -1323000.0, -1323000.0, 0.0, 10.0, 10.0 
1.165e+3, 1.75e+2, -1225000.0, -1225000.0, 0.0, 0.0, 0.0, -1225000.0, -1225000.0, 0.0, 10.0, 10.0 
1.165e+3, 1.85e+2, -1127000.0, -1127000.0, 0.0, 0.0, 0.0, -1127000.0, -1127000.0, 0.0, 10.0, 10.0 
1.165e+3, 1.95e+2, -1029000.0, -1029000.0, 0.0, 0.0, 0.0, -1029000.0, -1029000.0, 0.0, 10.0, 10.0 
1.165e+3, 2.05e+2, -931000.0, -931000.0, 0.0, 0.0, 0.0, -931000.0, -931000.0, 0.0, 10.0, 10.0 
1.165e+3, 2.15e+2, -833000.0, -833000.0, 0.0, 0.0, 0.0, -833000.0, -833000.0, 0.0, 10.0, 10.0 
1.165e+3, 2.25e+2, -735000.0, -735000.0, 0.0, 0.0, 0.0, -735000.0, -735000.0, 0.0, 10.0, 10.0 
1.165e+3, 2.35e+2, -637000.0, -637000.0, 0.0, 0.0, 0.0, -637000.0, -637000.0, 0.0, 10.0, 10.0 
1.165e+3, 2.45e+2, -539000.0, -539000.0, 0.0, 0.0, 0.0, -539000.0, -539000.0, 0.0, 10.0, 10.0 
1.165e+3, 2.55e+2, -441000.0, -441000.0, 0.0, 0.0, 0.0, -441000.0, -441000.0, 0.0, 10.0, 10.0 
1.165e+3, 2.65e+2, -343000.0, -343000.0, 0.0, 0.0, 0.0, -343000.0, -343000.0, 0.0, 10.0, 10.0 
1.165e+3, 2.75e+2, -245000.0, -245000.0, 0.0, 0.0, 0.0, -245000.0, -245000.0, 0.0, 10.0, 10.0 
1.165e+3, 2.85e+2, -147000.0, -147000.0, 0.0, 0.0, 0.0, -147000.0, -147000.0, 0.0, 10.0, 10.0 
1.165e+3, 2.95e+2, -49000.0, -49000.0, 0.0, 0.0, 0.0, -49000.0, -49000.0, 0.0, 10.0, 10.0 
1.165e+3, 3.05e+2, 0.0, 0.0, 0.0, 0.0, 0.0, 0.0, 0.0, 0.0, 10.0, 10.0 
1.165e+3, 3.15e+2, 0.0, 0.0, 0.0, 0.0, 0.0, 0.0, 0.0, 0.0, 10.0, 10.0 
1.175e+3, 1.25e+2, -1715000.0, -1715000.0, 0.0, 0.0, 0.0, -1715000.0, -1715000.0, 0.0, 10.0, 10.0 
1.175e+3, 1.35e+2, -1617000.0, -1617000.0, 0.0, 0.0, 0.0, -1617000.0, -1617000.0, 0.0, 10.0, 10.0 
1.175e+3, 1.45e+2, -1519000.0, -1519000.0, 0.0, 0.0, 0.0, -1519000.0, -1519000.0, 0.0, 10.0, 10.0 
1.175e+3, 1.55e+2, -1421000.0, -1421000.0, 0.0, 0.0, 0.0, -1421000.0, -1421000.0, 0.0, 10.0, 10.0 
1.175e+3, 1.65e+2, -1323000.0, -1323000.0, 0.0, 0.0, 0.0, -1323000.0, -1323000.0, 0.0, 10.0, 10.0 
1.175e+3, 1.75e+2, -1225000.0, -1225000.0, 0.0, 0.0, 0.0, -1225000.0, -1225000.0, 0.0, 10.0, 10.0 
1.175e+3, 1.85e+2, -1127000.0, -1127000.0, 0.0, 0.0, 0.0, -1127000.0, -1127000.0, 0.0, 10.0, 10.0 
1.175e+3, 1.95e+2, -1029000.0, -1029000.0, 0.0, 0.0, 0.0, -1029000.0, -1029000.0, 0.0, 10.0, 10.0 
1.175e+3, 2.05e+2, -931000.0, -931000.0, 0.0, 0.0, 0.0, -931000.0, -931000.0, 0.0, 10.0, 10.0 
1.175e+3, 2.15e+2, -833000.0, -833000.0, 0.0, 0.0, 0.0, -833000.0, -833000.0, 0.0, 10.0, 10.0 
1.175e+3, 2.25e+2, -735000.0, -735000.0, 0.0, 0.0, 0.0, -735000.0, -735000.0, 0.0, 10.0, 10.0 
1.175e+3, 2.35e+2, -637000.0, -637000.0, 0.0, 0.0, 0.0, -637000.0, -637000.0, 0.0, 10.0, 10.0 
1.175e+3, 2.45e+2, -539000.0, -539000.0, 0.0, 0.0, 0.0, -539000.0, -539000.0, 0.0, 10.0, 10.0 
1.175e+3, 2.55e+2, -441000.0, -441000.0, 0.0, 0.0, 0.0, -441000.0, -441000.0, 0.0, 10.0, 10.0 
1.175e+3, 2.65e+2, -343000.0, -343000.0, 0.0, 0.0, 0.0, -343000.0, -343000.0, 0.0, 10.0, 10.0 
1.175e+3, 2.75e+2, -245000.0, -245000.0, 0.0, 0.0, 0.0, -245000.0, -245000.0, 0.0, 10.0, 10.0 
1.175e+3, 2.85e+2, -147000.0, -147000.0, 0.0, 0.0, 0.0, -147000.0, -147000.0, 0.0, 10.0, 10.0 
1.175e+3, 2.95e+2, -49000.0, -49000.0, 0.0, 0.0, 0.0, -49000.0, -49000.0, 0.0, 10.0, 10.0 
1.175e+3, 3.05e+2, 0.0, 0.0, 0.0, 0.0, 0.0, 0.0, 0.0, 0.0, 10.0, 10.0 
1.175e+3, 3.15e+2, 0.0, 0.0, 0.0, 0.0, 0.0, 0.0, 0.0, 0.0, 10.0, 10.0 
1.185e+3, 1.25e+2, -1715000.0, -1715000.0, 0.0, 0.0, 0.0, -1715000.0, -1715000.0, 0.0, 10.0, 10.0 
1.185e+3, 1.35e+2, -1617000.0, -1617000.0, 0.0, 0.0, 0.0, -1617000.0, -1617000.0, 0.0, 10.0, 10.0 
1.185e+3, 1.45e+2, -1519000.0, -1519000.0, 0.0, 0.0, 0.0, -1519000.0, -1519000.0, 0.0, 10.0, 10.0 
1.185e+3, 1.55e+2, -1421000.0, -1421000.0, 0.0, 0.0, 0.0, -1421000.0, -1421000.0, 0.0, 10.0, 10.0 
1.185e+3, 1.65e+2, -1323000.0, -1323000.0, 0.0, 0.0, 0.0, -1323000.0, -1323000.0, 0.0, 10.0, 10.0 
1.185e+3, 1.75e+2, -1225000.0, -1225000.0, 0.0, 0.0, 0.0, -1225000.0, -1225000.0, 0.0, 10.0, 10.0 
1.185e+3, 1.85e+2, -1127000.0, -1127000.0, 0.0, 0.0, 0.0, -1127000.0, -1127000.0, 0.0, 10.0, 10.0 
1.185e+3, 1.95e+2, -1029000.0, -1029000.0, 0.0, 0.0, 0.0, -1029000.0, -1029000.0, 0.0, 10.0, 10.0 
1.185e+3, 2.05e+2, -931000.0, -931000.0, 0.0, 0.0, 0.0, -931000.0, -931000.0, 0.0, 10.0, 10.0 
1.185e+3, 2.15e+2, -833000.0, -833000.0, 0.0, 0.0, 0.0, -833000.0, -833000.0, 0.0, 10.0, 10.0 
1.185e+3, 2.25e+2, -735000.0, -735000.0, 0.0, 0.0, 0.0, -735000.0, -735000.0, 0.0, 10.0, 10.0 
1.185e+3, 2.35e+2, -637000.0, -637000.0, 0.0, 0.0, 0.0, -637000.0, -637000.0, 0.0, 10.0, 10.0 
1.185e+3, 2.45e+2, -539000.0, -539000.0, 0.0, 0.0, 0.0, -539000.0, -539000.0, 0.0, 10.0, 10.0 
1.185e+3, 2.55e+2, -441000.0, -441000.0, 0.0, 0.0, 0.0, -441000.0, -441000.0, 0.0, 10.0, 10.0 
1.185e+3, 2.65e+2, -343000.0, -343000.0, 0.0, 0.0, 0.0, -343000.0, -343000.0, 0.0, 10.0, 10.0 
1.185e+3, 2.75e+2, -245000.0, -245000.0, 0.0, 0.0, 0.0, -245000.0, -245000.0, 0.0, 10.0, 10.0 
1.185e+3, 2.85e+2, -147000.0, -147000.0, 0.0, 0.0, 0.0, -147000.0, -147000.0, 0.0, 10.0, 10.0 
1.185e+3, 2.95e+2, -49000.0, -49000.0, 0.0, 0.0, 0.0, -49000.0, -49000.0, 0.0, 10.0, 10.0 
1.185e+3, 3.05e+2, 0.0, 0.0, 0.0, 0.0, 0.0, 0.0, 0.0, 0.0, 10.0, 10.0 
1.185e+3, 3.15e+2, 0.0, 0.0, 0.0, 0.0, 0.0, 0.0, 0.0, 0.0, 10.0, 10.0 
1.195e+3, 1.25e+2, -1715000.0, -1715000.0, 0.0, 0.0, 0.0, -1715000.0, -1715000.0, 0.0, 10.0, 10.0 
1.195e+3, 1.35e+2, -1617000.0, -1617000.0, 0.0, 0.0, 0.0, -1617000.0, -1617000.0, 0.0, 10.0, 10.0 
1.195e+3, 1.45e+2, -1519000.0, -1519000.0, 0.0, 0.0, 0.0, -1519000.0, -1519000.0, 0.0, 10.0, 10.0 
1.195e+3, 1.55e+2, -1421000.0, -1421000.0, 0.0, 0.0, 0.0, -1421000.0, -1421000.0, 0.0, 10.0, 10.0 
1.195e+3, 1.65e+2, -1323000.0, -1323000.0, 0.0, 0.0, 0.0, -1323000.0, -1323000.0, 0.0, 10.0, 10.0 
1.195e+3, 1.75e+2, -1225000.0, -1225000.0, 0.0, 0.0, 0.0, -1225000.0, -1225000.0, 0.0, 10.0, 10.0 
1.195e+3, 1.85e+2, -1127000.0, -1127000.0, 0.0, 0.0, 0.0, -1127000.0, -1127000.0, 0.0, 10.0, 10.0 
1.195e+3, 1.95e+2, -1029000.0, -1029000.0, 0.0, 0.0, 0.0, -1029000.0, -1029000.0, 0.0, 10.0, 10.0 
1.195e+3, 2.05e+2, -931000.0, -931000.0, 0.0, 0.0, 0.0, -931000.0, -931000.0, 0.0, 10.0, 10.0 
1.195e+3, 2.15e+2, -833000.0, -833000.0, 0.0, 0.0, 0.0, -833000.0, -833000.0, 0.0, 10.0, 10.0 
1.195e+3, 2.25e+2, -735000.0, -735000.0, 0.0, 0.0, 0.0, -735000.0, -735000.0, 0.0, 10.0, 10.0 
1.195e+3, 2.35e+2, -637000.0, -637000.0, 0.0, 0.0, 0.0, -637000.0, -637000.0, 0.0, 10.0, 10.0 
1.195e+3, 2.45e+2, -539000.0, -539000.0, 0.0, 0.0, 0.0, -539000.0, -539000.0, 0.0, 10.0, 10.0 
1.195e+3, 2.55e+2, -441000.0, -441000.0, 0.0, 0.0, 0.0, -441000.0, -441000.0, 0.0, 10.0, 10.0 
1.195e+3, 2.65e+2, -343000.0, -343000.0, 0.0, 0.0, 0.0, -343000.0, -343000.0, 0.0, 10.0, 10.0 
1.195e+3, 2.75e+2, -245000.0, -245000.0, 0.0, 0.0, 0.0, -245000.0, -245000.0, 0.0, 10.0, 10.0 
1.195e+3, 2.85e+2, -147000.0, -147000.0, 0.0, 0.0, 0.0, -147000.0, -147000.0, 0.0, 10.0, 10.0 
1.195e+3, 2.95e+2, -49000.0, -49000.0, 0.0, 0.0, 0.0, -49000.0, -49000.0, 0.0, 10.0, 10.0 
1.195e+3, 3.05e+2, 0.0, 0.0, 0.0, 0.0, 0.0, 0.0, 0.0, 0.0, 10.0, 10.0 
1.195e+3, 3.15e+2, 0.0, 0.0, 0.0, 0.0, 0.0, 0.0, 0.0, 0.0, 10.0, 10.0 
1.205e+3, 1.25e+2, -1715000.0, -1715000.0, 0.0, 0.0, 0.0, -1715000.0, -1715000.0, 0.0, 10.0, 10.0 
1.205e+3, 1.35e+2, -1617000.0, -1617000.0, 0.0, 0.0, 0.0, -1617000.0, -1617000.0, 0.0, 10.0, 10.0 
1.205e+3, 1.45e+2, -1519000.0, -1519000.0, 0.0, 0.0, 0.0, -1519000.0, -1519000.0, 0.0, 10.0, 10.0 
1.205e+3, 1.55e+2, -1421000.0, -1421000.0, 0.0, 0.0, 0.0, -1421000.0, -1421000.0, 0.0, 10.0, 10.0 
1.205e+3, 1.65e+2, -1323000.0, -1323000.0, 0.0, 0.0, 0.0, -1323000.0, -1323000.0, 0.0, 10.0, 10.0 
1.205e+3, 1.75e+2, -1225000.0, -1225000.0, 0.0, 0.0, 0.0, -1225000.0, -1225000.0, 0.0, 10.0, 10.0 
1.205e+3, 1.85e+2, -1127000.0, -1127000.0, 0.0, 0.0, 0.0, -1127000.0, -1127000.0, 0.0, 10.0, 10.0 
1.205e+3, 1.95e+2, -1029000.0, -1029000.0, 0.0, 0.0, 0.0, -1029000.0, -1029000.0, 0.0, 10.0, 10.0 
1.205e+3, 2.05e+2, -931000.0, -931000.0, 0.0, 0.0, 0.0, -931000.0, -931000.0, 0.0, 10.0, 10.0 
1.205e+3, 2.15e+2, -833000.0, -833000.0, 0.0, 0.0, 0.0, -833000.0, -833000.0, 0.0, 10.0, 10.0 
1.205e+3, 2.25e+2, -735000.0, -735000.0, 0.0, 0.0, 0.0, -735000.0, -735000.0, 0.0, 10.0, 10.0 
1.205e+3, 2.35e+2, -637000.0, -637000.0, 0.0, 0.0, 0.0, -637000.0, -637000.0, 0.0, 10.0, 10.0 
1.205e+3, 2.45e+2, -539000.0, -539000.0, 0.0, 0.0, 0.0, -539000.0, -539000.0, 0.0, 10.0, 10.0 
1.205e+3, 2.55e+2, -441000.0, -441000.0, 0.0, 0.0, 0.0, -441000.0, -441000.0, 0.0, 10.0, 10.0 
1.205e+3, 2.65e+2, -343000.0, -343000.0, 0.0, 0.0, 0.0, -343000.0, -343000.0, 0.0, 10.0, 10.0 
1.205e+3, 2.75e+2, -245000.0, -245000.0, 0.0, 0.0, 0.0, -245000.0, -245000.0, 0.0, 10.0, 10.0 
1.205e+3, 2.85e+2, -147000.0, -147000.0, 0.0, 0.0, 0.0, -147000.0, -147000.0, 0.0, 10.0, 10.0 
1.205e+3, 2.95e+2, -49000.0, -49000.0, 0.0, 0.0, 0.0, -49000.0, -49000.0, 0.0, 10.0, 10.0 
1.205e+3, 3.05e+2, 0.0, 0.0, 0.0, 0.0, 0.0, 0.0, 0.0, 0.0, 10.0, 10.0 
1.205e+3, 3.15e+2, 0.0, 0.0, 0.0, 0.0, 0.0, 0.0, 0.0, 0.0, 10.0, 10.0 
1.215e+3, 1.25e+2, -1715000.0, -1715000.0, 0.0, 0.0, 0.0, -1715000.0, -1715000.0, 0.0, 10.0, 10.0 
1.215e+3, 1.35e+2, -1617000.0, -1617000.0, 0.0, 0.0, 0.0, -1617000.0, -1617000.0, 0.0, 10.0, 10.0 
1.215e+3, 1.45e+2, -1519000.0, -1519000.0, 0.0, 0.0, 0.0, -1519000.0, -1519000.0, 0.0, 10.0, 10.0 
1.215e+3, 1.55e+2, -1421000.0, -1421000.0, 0.0, 0.0, 0.0, -1421000.0, -1421000.0, 0.0, 10.0, 10.0 
1.215e+3, 1.65e+2, -1323000.0, -1323000.0, 0.0, 0.0, 0.0, -1323000.0, -1323000.0, 0.0, 10.0, 10.0 
1.215e+3, 1.75e+2, -1225000.0, -1225000.0, 0.0, 0.0, 0.0, -1225000.0, -1225000.0, 0.0, 10.0, 10.0 
1.215e+3, 1.85e+2, -1127000.0, -1127000.0, 0.0, 0.0, 0.0, -1127000.0, -1127000.0, 0.0, 10.0, 10.0 
1.215e+3, 1.95e+2, -1029000.0, -1029000.0, 0.0, 0.0, 0.0, -1029000.0, -1029000.0, 0.0, 10.0, 10.0 
1.215e+3, 2.05e+2, -931000.0, -931000.0, 0.0, 0.0, 0.0, -931000.0, -931000.0, 0.0, 10.0, 10.0 
1.215e+3, 2.15e+2, -833000.0, -833000.0, 0.0, 0.0, 0.0, -833000.0, -833000.0, 0.0, 10.0, 10.0 
1.215e+3, 2.25e+2, -735000.0, -735000.0, 0.0, 0.0, 0.0, -735000.0, -735000.0, 0.0, 10.0, 10.0 
1.215e+3, 2.35e+2, -637000.0, -637000.0, 0.0, 0.0, 0.0, -637000.0, -637000.0, 0.0, 10.0, 10.0 
1.215e+3, 2.45e+2, -539000.0, -539000.0, 0.0, 0.0, 0.0, -539000.0, -539000.0, 0.0, 10.0, 10.0 
1.215e+3, 2.55e+2, -441000.0, -441000.0, 0.0, 0.0, 0.0, -441000.0, -441000.0, 0.0, 10.0, 10.0 
1.215e+3, 2.65e+2, -343000.0, -343000.0, 0.0, 0.0, 0.0, -343000.0, -343000.0, 0.0, 10.0, 10.0 
1.215e+3, 2.75e+2, -245000.0, -245000.0, 0.0, 0.0, 0.0, -245000.0, -245000.0, 0.0, 10.0, 10.0 
1.215e+3, 2.85e+2, -147000.0, -147000.0, 0.0, 0.0, 0.0, -147000.0, -147000.0, 0.0, 10.0, 10.0 
1.215e+3, 2.95e+2, -49000.0, -49000.0, 0.0, 0.0, 0.0, -49000.0, -49000.0, 0.0, 10.0, 10.0 
1.215e+3, 3.05e+2, 0.0, 0.0, 0.0, 0.0, 0.0, 0.0, 0.0, 0.0, 10.0, 10.0 
1.215e+3, 3.15e+2, 0.0, 0.0, 0.0, 0.0, 0.0, 0.0, 0.0, 0.0, 10.0, 10.0 
1.225e+3, 1.25e+2, -1715000.0, -1715000.0, 0.0, 0.0, 0.0, -1715000.0, -1715000.0, 0.0, 10.0, 10.0 
1.225e+3, 1.35e+2, -1617000.0, -1617000.0, 0.0, 0.0, 0.0, -1617000.0, -1617000.0, 0.0, 10.0, 10.0 
1.225e+3, 1.45e+2, -1519000.0, -1519000.0, 0.0, 0.0, 0.0, -1519000.0, -1519000.0, 0.0, 10.0, 10.0 
1.225e+3, 1.55e+2, -1421000.0, -1421000.0, 0.0, 0.0, 0.0, -1421000.0, -1421000.0, 0.0, 10.0, 10.0 
1.225e+3, 1.65e+2, -1323000.0, -1323000.0, 0.0, 0.0, 0.0, -1323000.0, -1323000.0, 0.0, 10.0, 10.0 
1.225e+3, 1.75e+2, -1225000.0, -1225000.0, 0.0, 0.0, 0.0, -1225000.0, -1225000.0, 0.0, 10.0, 10.0 
1.225e+3, 1.85e+2, -1127000.0, -1127000.0, 0.0, 0.0, 0.0, -1127000.0, -1127000.0, 0.0, 10.0, 10.0 
1.225e+3, 1.95e+2, -1029000.0, -1029000.0, 0.0, 0.0, 0.0, -1029000.0, -1029000.0, 0.0, 10.0, 10.0 
1.225e+3, 2.05e+2, -931000.0, -931000.0, 0.0, 0.0, 0.0, -931000.0, -931000.0, 0.0, 10.0, 10.0 
1.225e+3, 2.15e+2, -833000.0, -833000.0, 0.0, 0.0, 0.0, -833000.0, -833000.0, 0.0, 10.0, 10.0 
1.225e+3, 2.25e+2, -735000.0, -735000.0, 0.0, 0.0, 0.0, -735000.0, -735000.0, 0.0, 10.0, 10.0 
1.225e+3, 2.35e+2, -637000.0, -637000.0, 0.0, 0.0, 0.0, -637000.0, -637000.0, 0.0, 10.0, 10.0 
1.225e+3, 2.45e+2, -539000.0, -539000.0, 0.0, 0.0, 0.0, -539000.0, -539000.0, 0.0, 10.0, 10.0 
1.225e+3, 2.55e+2, -441000.0, -441000.0, 0.0, 0.0, 0.0, -441000.0, -441000.0, 0.0, 10.0, 10.0 
1.225e+3, 2.65e+2, -343000.0, -343000.0, 0.0, 0.0, 0.0, -343000.0, -343000.0, 0.0, 10.0, 10.0 
1.225e+3, 2.75e+2, -245000.0, -245000.0, 0.0, 0.0, 0.0, -245000.0, -245000.0, 0.0, 10.0, 10.0 
1.225e+3, 2.85e+2, -147000.0, -147000.0, 0.0, 0.0, 0.0, -147000.0, -147000.0, 0.0, 10.0, 10.0 
1.225e+3, 2.95e+2, -49000.0, -49000.0, 0.0, 0.0, 0.0, -49000.0, -49000.0, 0.0, 10.0, 10.0 
1.225e+3, 3.05e+2, 0.0, 0.0, 0.0, 0.0, 0.0, 0.0, 0.0, 0.0, 10.0, 10.0 
1.225e+3, 3.15e+2, 0.0, 0.0, 0.0, 0.0, 0.0, 0.0, 0.0, 0.0, 10.0, 10.0 
1.235e+3, 1.25e+2, -1715000.0, -1715000.0, 0.0, 0.0, 0.0, -1715000.0, -1715000.0, 0.0, 10.0, 10.0 
1.235e+3, 1.35e+2, -1617000.0, -1617000.0, 0.0, 0.0, 0.0, -1617000.0, -1617000.0, 0.0, 10.0, 10.0 
1.235e+3, 1.45e+2, -1519000.0, -1519000.0, 0.0, 0.0, 0.0, -1519000.0, -1519000.0, 0.0, 10.0, 10.0 
1.235e+3, 1.55e+2, -1421000.0, -1421000.0, 0.0, 0.0, 0.0, -1421000.0, -1421000.0, 0.0, 10.0, 10.0 
1.235e+3, 1.65e+2, -1323000.0, -1323000.0, 0.0, 0.0, 0.0, -1323000.0, -1323000.0, 0.0, 10.0, 10.0 
1.235e+3, 1.75e+2, -1225000.0, -1225000.0, 0.0, 0.0, 0.0, -1225000.0, -1225000.0, 0.0, 10.0, 10.0 
1.235e+3, 1.85e+2, -1127000.0, -1127000.0, 0.0, 0.0, 0.0, -1127000.0, -1127000.0, 0.0, 10.0, 10.0 
1.235e+3, 1.95e+2, -1029000.0, -1029000.0, 0.0, 0.0, 0.0, -1029000.0, -1029000.0, 0.0, 10.0, 10.0 
1.235e+3, 2.05e+2, -931000.0, -931000.0, 0.0, 0.0, 0.0, -931000.0, -931000.0, 0.0, 10.0, 10.0 
1.235e+3, 2.15e+2, -833000.0, -833000.0, 0.0, 0.0, 0.0, -833000.0, -833000.0, 0.0, 10.0, 10.0 
1.235e+3, 2.25e+2, -735000.0, -735000.0, 0.0, 0.0, 0.0, -735000.0, -735000.0, 0.0, 10.0, 10.0 
1.235e+3, 2.35e+2, -637000.0, -637000.0, 0.0, 0.0, 0.0, -637000.0, -637000.0, 0.0, 10.0, 10.0 
1.235e+3, 2.45e+2, -539000.0, -539000.0, 0.0, 0.0, 0.0, -539000.0, -539000.0, 0.0, 10.0, 10.0 
1.235e+3, 2.55e+2, -441000.0, -441000.0, 0.0, 0.0, 0.0, -441000.0, -441000.0, 0.0, 10.0, 10.0 
1.235e+3, 2.65e+2, -343000.0, -343000.0, 0.0, 0.0, 0.0, -343000.0, -343000.0, 0.0, 10.0, 10.0 
1.235e+3, 2.75e+2, -245000.0, -245000.0, 0.0, 0.0, 0.0, -245000.0, -245000.0, 0.0, 10.0, 10.0 
1.235e+3, 2.85e+2, -147000.0, -147000.0, 0.0, 0.0, 0.0, -147000.0, -147000.0, 0.0, 10.0, 10.0 
1.235e+3, 2.95e+2, -49000.0, -49000.0, 0.0, 0.0, 0.0, -49000.0, -49000.0, 0.0, 10.0, 10.0 
1.235e+3, 3.05e+2, 0.0, 0.0, 0.0, 0.0, 0.0, 0.0, 0.0, 0.0, 10.0, 10.0 
1.235e+3, 3.15e+2, 0.0, 0.0, 0.0, 0.0, 0.0, 0.0, 0.0, 0.0, 10.0, 10.0 
1.245e+3, 1.25e+2, -1715000.0, -1715000.0, 0.0, 0.0, 0.0, -1715000.0, -1715000.0, 0.0, 10.0, 10.0 
1.245e+3, 1.35e+2, -1617000.0, -1617000.0, 0.0, 0.0, 0.0, -1617000.0, -1617000.0, 0.0, 10.0, 10.0 
1.245e+3, 1.45e+2, -1519000.0, -1519000.0, 0.0, 0.0, 0.0, -1519000.0, -1519000.0, 0.0, 10.0, 10.0 
1.245e+3, 1.55e+2, -1421000.0, -1421000.0, 0.0, 0.0, 0.0, -1421000.0, -1421000.0, 0.0, 10.0, 10.0 
1.245e+3, 1.65e+2, -1323000.0, -1323000.0, 0.0, 0.0, 0.0, -1323000.0, -1323000.0, 0.0, 10.0, 10.0 
1.245e+3, 1.75e+2, -1225000.0, -1225000.0, 0.0, 0.0, 0.0, -1225000.0, -1225000.0, 0.0, 10.0, 10.0 
1.245e+3, 1.85e+2, -1127000.0, -1127000.0, 0.0, 0.0, 0.0, -1127000.0, -1127000.0, 0.0, 10.0, 10.0 
1.245e+3, 1.95e+2, -1029000.0, -1029000.0, 0.0, 0.0, 0.0, -1029000.0, -1029000.0, 0.0, 10.0, 10.0 
1.245e+3, 2.05e+2, -931000.0, -931000.0, 0.0, 0.0, 0.0, -931000.0, -931000.0, 0.0, 10.0, 10.0 
1.245e+3, 2.15e+2, -833000.0, -833000.0, 0.0, 0.0, 0.0, -833000.0, -833000.0, 0.0, 10.0, 10.0 
1.245e+3, 2.25e+2, -735000.0, -735000.0, 0.0, 0.0, 0.0, -735000.0, -735000.0, 0.0, 10.0, 10.0 
1.245e+3, 2.35e+2, -637000.0, -637000.0, 0.0, 0.0, 0.0, -637000.0, -637000.0, 0.0, 10.0, 10.0 
1.245e+3, 2.45e+2, -539000.0, -539000.0, 0.0, 0.0, 0.0, -539000.0, -539000.0, 0.0, 10.0, 10.0 
1.245e+3, 2.55e+2, -441000.0, -441000.0, 0.0, 0.0, 0.0, -441000.0, -441000.0, 0.0, 10.0, 10.0 
1.245e+3, 2.65e+2, -343000.0, -343000.0, 0.0, 0.0, 0.0, -343000.0, -343000.0, 0.0, 10.0, 10.0 
1.245e+3, 2.75e+2, -245000.0, -245000.0, 0.0, 0.0, 0.0, -245000.0, -245000.0, 0.0, 10.0, 10.0 
1.245e+3, 2.85e+2, -147000.0, -147000.0, 0.0, 0.0, 0.0, -147000.0, -147000.0, 0.0, 10.0, 10.0 
1.245e+3, 2.95e+2, -49000.0, -49000.0, 0.0, 0.0, 0.0, -49000.0, -49000.0, 0.0, 10.0, 10.0 
1.245e+3, 3.05e+2, 0.0, 0.0, 0.0, 0.0, 0.0, 0.0, 0.0, 0.0, 10.0, 10.0 
1.245e+3, 3.15e+2, 0.0, 0.0, 0.0, 0.0, 0.0, 0.0, 0.0, 0.0, 10.0, 10.0 
1.255e+3, 1.25e+2, -1715000.0, -1715000.0, 0.0, 0.0, 0.0, -1715000.0, -1715000.0, 0.0, 10.0, 10.0 
1.255e+3, 1.35e+2, -1617000.0, -1617000.0, 0.0, 0.0, 0.0, -1617000.0, -1617000.0, 0.0, 10.0, 10.0 
1.255e+3, 1.45e+2, -1519000.0, -1519000.0, 0.0, 0.0, 0.0, -1519000.0, -1519000.0, 0.0, 10.0, 10.0 
1.255e+3, 1.55e+2, -1421000.0, -1421000.0, 0.0, 0.0, 0.0, -1421000.0, -1421000.0, 0.0, 10.0, 10.0 
1.255e+3, 1.65e+2, -1323000.0, -1323000.0, 0.0, 0.0, 0.0, -1323000.0, -1323000.0, 0.0, 10.0, 10.0 
1.255e+3, 1.75e+2, -1225000.0, -1225000.0, 0.0, 0.0, 0.0, -1225000.0, -1225000.0, 0.0, 10.0, 10.0 
1.255e+3, 1.85e+2, -1127000.0, -1127000.0, 0.0, 0.0, 0.0, -1127000.0, -1127000.0, 0.0, 10.0, 10.0 
1.255e+3, 1.95e+2, -1029000.0, -1029000.0, 0.0, 0.0, 0.0, -1029000.0, -1029000.0, 0.0, 10.0, 10.0 
1.255e+3, 2.05e+2, -931000.0, -931000.0, 0.0, 0.0, 0.0, -931000.0, -931000.0, 0.0, 10.0, 10.0 
1.255e+3, 2.15e+2, -833000.0, -833000.0, 0.0, 0.0, 0.0, -833000.0, -833000.0, 0.0, 10.0, 10.0 
1.255e+3, 2.25e+2, -735000.0, -735000.0, 0.0, 0.0, 0.0, -735000.0, -735000.0, 0.0, 10.0, 10.0 
1.255e+3, 2.35e+2, -637000.0, -637000.0, 0.0, 0.0, 0.0, -637000.0, -637000.0, 0.0, 10.0, 10.0 
1.255e+3, 2.45e+2, -539000.0, -539000.0, 0.0, 0.0, 0.0, -539000.0, -539000.0, 0.0, 10.0, 10.0 
1.255e+3, 2.55e+2, -441000.0, -441000.0, 0.0, 0.0, 0.0, -441000.0, -441000.0, 0.0, 10.0, 10.0 
1.255e+3, 2.65e+2, -343000.0, -343000.0, 0.0, 0.0, 0.0, -343000.0, -343000.0, 0.0, 10.0, 10.0 
1.255e+3, 2.75e+2, -245000.0, -245000.0, 0.0, 0.0, 0.0, -245000.0, -245000.0, 0.0, 10.0, 10.0 
1.255e+3, 2.85e+2, -147000.0, -147000.0, 0.0, 0.0, 0.0, -147000.0, -147000.0, 0.0, 10.0, 10.0 
1.255e+3, 2.95e+2, -49000.0, -49000.0, 0.0, 0.0, 0.0, -49000.0, -49000.0, 0.0, 10.0, 10.0 
1.255e+3, 3.05e+2, 0.0, 0.0, 0.0, 0.0, 0.0, 0.0, 0.0, 0.0, 10.0, 10.0 
1.255e+3, 3.15e+2, 0.0, 0.0, 0.0, 0.0, 0.0, 0.0, 0.0, 0.0, 10.0, 10.0 
1.265e+3, 1.25e+2, -1715000.0, -1715000.0, 0.0, 0.0, 0.0, -1715000.0, -1715000.0, 0.0, 10.0, 10.0 
1.265e+3, 1.35e+2, -1617000.0, -1617000.0, 0.0, 0.0, 0.0, -1617000.0, -1617000.0, 0.0, 10.0, 10.0 
1.265e+3, 1.45e+2, -1519000.0, -1519000.0, 0.0, 0.0, 0.0, -1519000.0, -1519000.0, 0.0, 10.0, 10.0 
1.265e+3, 1.55e+2, -1421000.0, -1421000.0, 0.0, 0.0, 0.0, -1421000.0, -1421000.0, 0.0, 10.0, 10.0 
1.265e+3, 1.65e+2, -1323000.0, -1323000.0, 0.0, 0.0, 0.0, -1323000.0, -1323000.0, 0.0, 10.0, 10.0 
1.265e+3, 1.75e+2, -1225000.0, -1225000.0, 0.0, 0.0, 0.0, -1225000.0, -1225000.0, 0.0, 10.0, 10.0 
1.265e+3, 1.85e+2, -1127000.0, -1127000.0, 0.0, 0.0, 0.0, -1127000.0, -1127000.0, 0.0, 10.0, 10.0 
1.265e+3, 1.95e+2, -1029000.0, -1029000.0, 0.0, 0.0, 0.0, -1029000.0, -1029000.0, 0.0, 10.0, 10.0 
1.265e+3, 2.05e+2, -931000.0, -931000.0, 0.0, 0.0, 0.0, -931000.0, -931000.0, 0.0, 10.0, 10.0 
1.265e+3, 2.15e+2, -833000.0, -833000.0, 0.0, 0.0, 0.0, -833000.0, -833000.0, 0.0, 10.0, 10.0 
1.265e+3, 2.25e+2, -735000.0, -735000.0, 0.0, 0.0, 0.0, -735000.0, -735000.0, 0.0, 10.0, 10.0 
1.265e+3, 2.35e+2, -637000.0, -637000.0, 0.0, 0.0, 0.0, -637000.0, -637000.0, 0.0, 10.0, 10.0 
1.265e+3, 2.45e+2, -539000.0, -539000.0, 0.0, 0.0, 0.0, -539000.0, -539000.0, 0.0, 10.0, 10.0 
1.265e+3, 2.55e+2, -441000.0, -441000.0, 0.0, 0.0, 0.0, -441000.0, -441000.0, 0.0, 10.0, 10.0 
1.265e+3, 2.65e+2, -343000.0, -343000.0, 0.0, 0.0, 0.0, -343000.0, -343000.0, 0.0, 10.0, 10.0 
1.265e+3, 2.75e+2, -245000.0, -245000.0, 0.0, 0.0, 0.0, -245000.0, -245000.0, 0.0, 10.0, 10.0 
1.265e+3, 2.85e+2, -147000.0, -147000.0, 0.0, 0.0, 0.0, -147000.0, -147000.0, 0.0, 10.0, 10.0 
1.265e+3, 2.95e+2, -49000.0, -49000.0, 0.0, 0.0, 0.0, -49000.0, -49000.0, 0.0, 10.0, 10.0 
1.265e+3, 3.05e+2, 0.0, 0.0, 0.0, 0.0, 0.0, 0.0, 0.0, 0.0, 10.0, 10.0 
1.265e+3, 3.15e+2, 0.0, 0.0, 0.0, 0.0, 0.0, 0.0, 0.0, 0.0, 10.0, 10.0 
1.275e+3, 1.25e+2, -1715000.0, -1715000.0, 0.0, 0.0, 0.0, -1715000.0, -1715000.0, 0.0, 10.0, 10.0 
1.275e+3, 1.35e+2, -1617000.0, -1617000.0, 0.0, 0.0, 0.0, -1617000.0, -1617000.0, 0.0, 10.0, 10.0 
1.275e+3, 1.45e+2, -1519000.0, -1519000.0, 0.0, 0.0, 0.0, -1519000.0, -1519000.0, 0.0, 10.0, 10.0 
1.275e+3, 1.55e+2, -1421000.0, -1421000.0, 0.0, 0.0, 0.0, -1421000.0, -1421000.0, 0.0, 10.0, 10.0 
1.275e+3, 1.65e+2, -1323000.0, -1323000.0, 0.0, 0.0, 0.0, -1323000.0, -1323000.0, 0.0, 10.0, 10.0 
1.275e+3, 1.75e+2, -1225000.0, -1225000.0, 0.0, 0.0, 0.0, -1225000.0, -1225000.0, 0.0, 10.0, 10.0 
1.275e+3, 1.85e+2, -1127000.0, -1127000.0, 0.0, 0.0, 0.0, -1127000.0, -1127000.0, 0.0, 10.0, 10.0 
1.275e+3, 1.95e+2, -1029000.0, -1029000.0, 0.0, 0.0, 0.0, -1029000.0, -1029000.0, 0.0, 10.0, 10.0 
1.275e+3, 2.05e+2, -931000.0, -931000.0, 0.0, 0.0, 0.0, -931000.0, -931000.0, 0.0, 10.0, 10.0 
1.275e+3, 2.15e+2, -833000.0, -833000.0, 0.0, 0.0, 0.0, -833000.0, -833000.0, 0.0, 10.0, 10.0 
1.275e+3, 2.25e+2, -735000.0, -735000.0, 0.0, 0.0, 0.0, -735000.0, -735000.0, 0.0, 10.0, 10.0 
1.275e+3, 2.35e+2, -637000.0, -637000.0, 0.0, 0.0, 0.0, -637000.0, -637000.0, 0.0, 10.0, 10.0 
1.275e+3, 2.45e+2, -539000.0, -539000.0, 0.0, 0.0, 0.0, -539000.0, -539000.0, 0.0, 10.0, 10.0 
1.275e+3, 2.55e+2, -441000.0, -441000.0, 0.0, 0.0, 0.0, -441000.0, -441000.0, 0.0, 10.0, 10.0 
1.275e+3, 2.65e+2, -343000.0, -343000.0, 0.0, 0.0, 0.0, -343000.0, -343000.0, 0.0, 10.0, 10.0 
1.275e+3, 2.75e+2, -245000.0, -245000.0, 0.0, 0.0, 0.0, -245000.0, -245000.0, 0.0, 10.0, 10.0 
1.275e+3, 2.85e+2, -147000.0, -147000.0, 0.0, 0.0, 0.0, -147000.0, -147000.0, 0.0, 10.0, 10.0 
1.275e+3, 2.95e+2, -49000.0, -49000.0, 0.0, 0.0, 0.0, -49000.0, -49000.0, 0.0, 10.0, 10.0 
1.275e+3, 3.05e+2, 0.0, 0.0, 0.0, 0.0, 0.0, 0.0, 0.0, 0.0, 10.0, 10.0 
1.275e+3, 3.15e+2, 0.0, 0.0, 0.0, 0.0, 0.0, 0.0, 0.0, 0.0, 10.0, 10.0 
1.285e+3, 1.25e+2, -1715000.0, -1715000.0, 0.0, 0.0, 0.0, -1715000.0, -1715000.0, 0.0, 10.0, 10.0 
1.285e+3, 1.35e+2, -1617000.0, -1617000.0, 0.0, 0.0, 0.0, -1617000.0, -1617000.0, 0.0, 10.0, 10.0 
1.285e+3, 1.45e+2, -1519000.0, -1519000.0, 0.0, 0.0, 0.0, -1519000.0, -1519000.0, 0.0, 10.0, 10.0 
1.285e+3, 1.55e+2, -1421000.0, -1421000.0, 0.0, 0.0, 0.0, -1421000.0, -1421000.0, 0.0, 10.0, 10.0 
1.285e+3, 1.65e+2, -1323000.0, -1323000.0, 0.0, 0.0, 0.0, -1323000.0, -1323000.0, 0.0, 10.0, 10.0 
1.285e+3, 1.75e+2, -1225000.0, -1225000.0, 0.0, 0.0, 0.0, -1225000.0, -1225000.0, 0.0, 10.0, 10.0 
1.285e+3, 1.85e+2, -1127000.0, -1127000.0, 0.0, 0.0, 0.0, -1127000.0, -1127000.0, 0.0, 10.0, 10.0 
1.285e+3, 1.95e+2, -1029000.0, -1029000.0, 0.0, 0.0, 0.0, -1029000.0, -1029000.0, 0.0, 10.0, 10.0 
1.285e+3, 2.05e+2, -931000.0, -931000.0, 0.0, 0.0, 0.0, -931000.0, -931000.0, 0.0, 10.0, 10.0 
1.285e+3, 2.15e+2, -833000.0, -833000.0, 0.0, 0.0, 0.0, -833000.0, -833000.0, 0.0, 10.0, 10.0 
1.285e+3, 2.25e+2, -735000.0, -735000.0, 0.0, 0.0, 0.0, -735000.0, -735000.0, 0.0, 10.0, 10.0 
1.285e+3, 2.35e+2, -637000.0, -637000.0, 0.0, 0.0, 0.0, -637000.0, -637000.0, 0.0, 10.0, 10.0 
1.285e+3, 2.45e+2, -539000.0, -539000.0, 0.0, 0.0, 0.0, -539000.0, -539000.0, 0.0, 10.0, 10.0 
1.285e+3, 2.55e+2, -441000.0, -441000.0, 0.0, 0.0, 0.0, -441000.0, -441000.0, 0.0, 10.0, 10.0 
1.285e+3, 2.65e+2, -343000.0, -343000.0, 0.0, 0.0, 0.0, -343000.0, -343000.0, 0.0, 10.0, 10.0 
1.285e+3, 2.75e+2, -245000.0, -245000.0, 0.0, 0.0, 0.0, -245000.0, -245000.0, 0.0, 10.0, 10.0 
1.285e+3, 2.85e+2, -147000.0, -147000.0, 0.0, 0.0, 0.0, -147000.0, -147000.0, 0.0, 10.0, 10.0 
1.285e+3, 2.95e+2, -49000.0, -49000.0, 0.0, 0.0, 0.0, -49000.0, -49000.0, 0.0, 10.0, 10.0 
1.285e+3, 3.05e+2, 0.0, 0.0, 0.0, 0.0, 0.0, 0.0, 0.0, 0.0, 10.0, 10.0 
1.285e+3, 3.15e+2, 0.0, 0.0, 0.0, 0.0, 0.0, 0.0, 0.0, 0.0, 10.0, 10.0 
1.295e+3, 1.25e+2, -1715000.0, -1715000.0, 0.0, 0.0, 0.0, -1715000.0, -1715000.0, 0.0, 10.0, 10.0 
1.295e+3, 1.35e+2, -1617000.0, -1617000.0, 0.0, 0.0, 0.0, -1617000.0, -1617000.0, 0.0, 10.0, 10.0 
1.295e+3, 1.45e+2, -1519000.0, -1519000.0, 0.0, 0.0, 0.0, -1519000.0, -1519000.0, 0.0, 10.0, 10.0 
1.295e+3, 1.55e+2, -1421000.0, -1421000.0, 0.0, 0.0, 0.0, -1421000.0, -1421000.0, 0.0, 10.0, 10.0 
1.295e+3, 1.65e+2, -1323000.0, -1323000.0, 0.0, 0.0, 0.0, -1323000.0, -1323000.0, 0.0, 10.0, 10.0 
1.295e+3, 1.75e+2, -1225000.0, -1225000.0, 0.0, 0.0, 0.0, -1225000.0, -1225000.0, 0.0, 10.0, 10.0 
1.295e+3, 1.85e+2, -1127000.0, -1127000.0, 0.0, 0.0, 0.0, -1127000.0, -1127000.0, 0.0, 10.0, 10.0 
1.295e+3, 1.95e+2, -1029000.0, -1029000.0, 0.0, 0.0, 0.0, -1029000.0, -1029000.0, 0.0, 10.0, 10.0 
1.295e+3, 2.05e+2, -931000.0, -931000.0, 0.0, 0.0, 0.0, -931000.0, -931000.0, 0.0, 10.0, 10.0 
1.295e+3, 2.15e+2, -833000.0, -833000.0, 0.0, 0.0, 0.0, -833000.0, -833000.0, 0.0, 10.0, 10.0 
1.295e+3, 2.25e+2, -735000.0, -735000.0, 0.0, 0.0, 0.0, -735000.0, -735000.0, 0.0, 10.0, 10.0 
1.295e+3, 2.35e+2, -637000.0, -637000.0, 0.0, 0.0, 0.0, -637000.0, -637000.0, 0.0, 10.0, 10.0 
1.295e+3, 2.45e+2, -539000.0, -539000.0, 0.0, 0.0, 0.0, -539000.0, -539000.0, 0.0, 10.0, 10.0 
1.295e+3, 2.55e+2, -441000.0, -441000.0, 0.0, 0.0, 0.0, -441000.0, -441000.0, 0.0, 10.0, 10.0 
1.295e+3, 2.65e+2, -343000.0, -343000.0, 0.0, 0.0, 0.0, -343000.0, -343000.0, 0.0, 10.0, 10.0 
1.295e+3, 2.75e+2, -245000.0, -245000.0, 0.0, 0.0, 0.0, -245000.0, -245000.0, 0.0, 10.0, 10.0 
1.295e+3, 2.85e+2, -147000.0, -147000.0, 0.0, 0.0, 0.0, -147000.0, -147000.0, 0.0, 10.0, 10.0 
1.295e+3, 2.95e+2, -49000.0, -49000.0, 0.0, 0.0, 0.0, -49000.0, -49000.0, 0.0, 10.0, 10.0 
1.295e+3, 3.05e+2, 0.0, 0.0, 0.0, 0.0, 0.0, 0.0, 0.0, 0.0, 10.0, 10.0 
1.295e+3, 3.15e+2, 0.0, 0.0, 0.0, 0.0, 0.0, 0.0, 0.0, 0.0, 10.0, 10.0 
1.305e+3, 1.25e+2, -1715000.0, -1715000.0, 0.0, 0.0, 0.0, -1715000.0, -1715000.0, 0.0, 10.0, 10.0 
1.305e+3, 1.35e+2, -1617000.0, -1617000.0, 0.0, 0.0, 0.0, -1617000.0, -1617000.0, 0.0, 10.0, 10.0 
1.305e+3, 1.45e+2, -1519000.0, -1519000.0, 0.0, 0.0, 0.0, -1519000.0, -1519000.0, 0.0, 10.0, 10.0 
1.305e+3, 1.55e+2, -1421000.0, -1421000.0, 0.0, 0.0, 0.0, -1421000.0, -1421000.0, 0.0, 10.0, 10.0 
1.305e+3, 1.65e+2, -1323000.0, -1323000.0, 0.0, 0.0, 0.0, -1323000.0, -1323000.0, 0.0, 10.0, 10.0 
1.305e+3, 1.75e+2, -1225000.0, -1225000.0, 0.0, 0.0, 0.0, -1225000.0, -1225000.0, 0.0, 10.0, 10.0 
1.305e+3, 1.85e+2, -1127000.0, -1127000.0, 0.0, 0.0, 0.0, -1127000.0, -1127000.0, 0.0, 10.0, 10.0 
1.305e+3, 1.95e+2, -1029000.0, -1029000.0, 0.0, 0.0, 0.0, -1029000.0, -1029000.0, 0.0, 10.0, 10.0 
1.305e+3, 2.05e+2, -931000.0, -931000.0, 0.0, 0.0, 0.0, -931000.0, -931000.0, 0.0, 10.0, 10.0 
1.305e+3, 2.15e+2, -833000.0, -833000.0, 0.0, 0.0, 0.0, -833000.0, -833000.0, 0.0, 10.0, 10.0 
1.305e+3, 2.25e+2, -735000.0, -735000.0, 0.0, 0.0, 0.0, -735000.0, -735000.0, 0.0, 10.0, 10.0 
1.305e+3, 2.35e+2, -637000.0, -637000.0, 0.0, 0.0, 0.0, -637000.0, -637000.0, 0.0, 10.0, 10.0 
1.305e+3, 2.45e+2, -539000.0, -539000.0, 0.0, 0.0, 0.0, -539000.0, -539000.0, 0.0, 10.0, 10.0 
1.305e+3, 2.55e+2, -441000.0, -441000.0, 0.0, 0.0, 0.0, -441000.0, -441000.0, 0.0, 10.0, 10.0 
1.305e+3, 2.65e+2, -343000.0, -343000.0, 0.0, 0.0, 0.0, -343000.0, -343000.0, 0.0, 10.0, 10.0 
1.305e+3, 2.75e+2, -245000.0, -245000.0, 0.0, 0.0, 0.0, -245000.0, -245000.0, 0.0, 10.0, 10.0 
1.305e+3, 2.85e+2, -147000.0, -147000.0, 0.0, 0.0, 0.0, -147000.0, -147000.0, 0.0, 10.0, 10.0 
1.305e+3, 2.95e+2, -49000.0, -49000.0, 0.0, 0.0, 0.0, -49000.0, -49000.0, 0.0, 10.0, 10.0 
1.305e+3, 3.05e+2, 0.0, 0.0, 0.0, 0.0, 0.0, 0.0, 0.0, 0.0, 10.0, 10.0 
1.305e+3, 3.15e+2, 0.0, 0.0, 0.0, 0.0, 0.0, 0.0, 0.0, 0.0, 10.0, 10.0 
1.315e+3, 1.25e+2, -1715000.0, -1715000.0, 0.0, 0.0, 0.0, -1715000.0, -1715000.0, 0.0, 10.0, 10.0 
1.315e+3, 1.35e+2, -1617000.0, -1617000.0, 0.0, 0.0, 0.0, -1617000.0, -1617000.0, 0.0, 10.0, 10.0 
1.315e+3, 1.45e+2, -1519000.0, -1519000.0, 0.0, 0.0, 0.0, -1519000.0, -1519000.0, 0.0, 10.0, 10.0 
1.315e+3, 1.55e+2, -1421000.0, -1421000.0, 0.0, 0.0, 0.0, -1421000.0, -1421000.0, 0.0, 10.0, 10.0 
1.315e+3, 1.65e+2, -1323000.0, -1323000.0, 0.0, 0.0, 0.0, -1323000.0, -1323000.0, 0.0, 10.0, 10.0 
1.315e+3, 1.75e+2, -1225000.0, -1225000.0, 0.0, 0.0, 0.0, -1225000.0, -1225000.0, 0.0, 10.0, 10.0 
1.315e+3, 1.85e+2, -1127000.0, -1127000.0, 0.0, 0.0, 0.0, -1127000.0, -1127000.0, 0.0, 10.0, 10.0 
1.315e+3, 1.95e+2, -1029000.0, -1029000.0, 0.0, 0.0, 0.0, -1029000.0, -1029000.0, 0.0, 10.0, 10.0 
1.315e+3, 2.05e+2, -931000.0, -931000.0, 0.0, 0.0, 0.0, -931000.0, -931000.0, 0.0, 10.0, 10.0 
1.315e+3, 2.15e+2, -833000.0, -833000.0, 0.0, 0.0, 0.0, -833000.0, -833000.0, 0.0, 10.0, 10.0 
1.315e+3, 2.25e+2, -735000.0, -735000.0, 0.0, 0.0, 0.0, -735000.0, -735000.0, 0.0, 10.0, 10.0 
1.315e+3, 2.35e+2, -637000.0, -637000.0, 0.0, 0.0, 0.0, -637000.0, -637000.0, 0.0, 10.0, 10.0 
1.315e+3, 2.45e+2, -539000.0, -539000.0, 0.0, 0.0, 0.0, -539000.0, -539000.0, 0.0, 10.0, 10.0 
1.315e+3, 2.55e+2, -441000.0, -441000.0, 0.0, 0.0, 0.0, -441000.0, -441000.0, 0.0, 10.0, 10.0 
1.315e+3, 2.65e+2, -343000.0, -343000.0, 0.0, 0.0, 0.0, -343000.0, -343000.0, 0.0, 10.0, 10.0 
1.315e+3, 2.75e+2, -245000.0, -245000.0, 0.0, 0.0, 0.0, -245000.0, -245000.0, 0.0, 10.0, 10.0 
1.315e+3, 2.85e+2, -147000.0, -147000.0, 0.0, 0.0, 0.0, -147000.0, -147000.0, 0.0, 10.0, 10.0 
1.315e+3, 2.95e+2, -49000.0, -49000.0, 0.0, 0.0, 0.0, -49000.0, -49000.0, 0.0, 10.0, 10.0 
1.315e+3, 3.05e+2, 0.0, 0.0, 0.0, 0.0, 0.0, 0.0, 0.0, 0.0, 10.0, 10.0 
1.315e+3, 3.15e+2, 0.0, 0.0, 0.0, 0.0, 0.0, 0.0, 0.0, 0.0, 10.0, 10.0 
1.325e+3, 1.25e+2, -1715000.0, -1715000.0, 0.0, 0.0, 0.0, -1715000.0, -1715000.0, 0.0, 10.0, 10.0 
1.325e+3, 1.35e+2, -1617000.0, -1617000.0, 0.0, 0.0, 0.0, -1617000.0, -1617000.0, 0.0, 10.0, 10.0 
1.325e+3, 1.45e+2, -1519000.0, -1519000.0, 0.0, 0.0, 0.0, -1519000.0, -1519000.0, 0.0, 10.0, 10.0 
1.325e+3, 1.55e+2, -1421000.0, -1421000.0, 0.0, 0.0, 0.0, -1421000.0, -1421000.0, 0.0, 10.0, 10.0 
1.325e+3, 1.65e+2, -1323000.0, -1323000.0, 0.0, 0.0, 0.0, -1323000.0, -1323000.0, 0.0, 10.0, 10.0 
1.325e+3, 1.75e+2, -1225000.0, -1225000.0, 0.0, 0.0, 0.0, -1225000.0, -1225000.0, 0.0, 10.0, 10.0 
1.325e+3, 1.85e+2, -1127000.0, -1127000.0, 0.0, 0.0, 0.0, -1127000.0, -1127000.0, 0.0, 10.0, 10.0 
1.325e+3, 1.95e+2, -1029000.0, -1029000.0, 0.0, 0.0, 0.0, -1029000.0, -1029000.0, 0.0, 10.0, 10.0 
1.325e+3, 2.05e+2, -931000.0, -931000.0, 0.0, 0.0, 0.0, -931000.0, -931000.0, 0.0, 10.0, 10.0 
1.325e+3, 2.15e+2, -833000.0, -833000.0, 0.0, 0.0, 0.0, -833000.0, -833000.0, 0.0, 10.0, 10.0 
1.325e+3, 2.25e+2, -735000.0, -735000.0, 0.0, 0.0, 0.0, -735000.0, -735000.0, 0.0, 10.0, 10.0 
1.325e+3, 2.35e+2, -637000.0, -637000.0, 0.0, 0.0, 0.0, -637000.0, -637000.0, 0.0, 10.0, 10.0 
1.325e+3, 2.45e+2, -539000.0, -539000.0, 0.0, 0.0, 0.0, -539000.0, -539000.0, 0.0, 10.0, 10.0 
1.325e+3, 2.55e+2, -441000.0, -441000.0, 0.0, 0.0, 0.0, -441000.0, -441000.0, 0.0, 10.0, 10.0 
1.325e+3, 2.65e+2, -343000.0, -343000.0, 0.0, 0.0, 0.0, -343000.0, -343000.0, 0.0, 10.0, 10.0 
1.325e+3, 2.75e+2, -245000.0, -245000.0, 0.0, 0.0, 0.0, -245000.0, -245000.0, 0.0, 10.0, 10.0 
1.325e+3, 2.85e+2, -147000.0, -147000.0, 0.0, 0.0, 0.0, -147000.0, -147000.0, 0.0, 10.0, 10.0 
1.325e+3, 2.95e+2, -49000.0, -49000.0, 0.0, 0.0, 0.0, -49000.0, -49000.0, 0.0, 10.0, 10.0 
1.325e+3, 3.05e+2, 0.0, 0.0, 0.0, 0.0, 0.0, 0.0, 0.0, 0.0, 10.0, 10.0 
1.325e+3, 3.15e+2, 0.0, 0.0, 0.0, 0.0, 0.0, 0.0, 0.0, 0.0, 10.0, 10.0 
1.335e+3, 1.25e+2, -1715000.0, -1715000.0, 0.0, 0.0, 0.0, -1715000.0, -1715000.0, 0.0, 10.0, 10.0 
1.335e+3, 1.35e+2, -1617000.0, -1617000.0, 0.0, 0.0, 0.0, -1617000.0, -1617000.0, 0.0, 10.0, 10.0 
1.335e+3, 1.45e+2, -1519000.0, -1519000.0, 0.0, 0.0, 0.0, -1519000.0, -1519000.0, 0.0, 10.0, 10.0 
1.335e+3, 1.55e+2, -1421000.0, -1421000.0, 0.0, 0.0, 0.0, -1421000.0, -1421000.0, 0.0, 10.0, 10.0 
1.335e+3, 1.65e+2, -1323000.0, -1323000.0, 0.0, 0.0, 0.0, -1323000.0, -1323000.0, 0.0, 10.0, 10.0 
1.335e+3, 1.75e+2, -1225000.0, -1225000.0, 0.0, 0.0, 0.0, -1225000.0, -1225000.0, 0.0, 10.0, 10.0 
1.335e+3, 1.85e+2, -1127000.0, -1127000.0, 0.0, 0.0, 0.0, -1127000.0, -1127000.0, 0.0, 10.0, 10.0 
1.335e+3, 1.95e+2, -1029000.0, -1029000.0, 0.0, 0.0, 0.0, -1029000.0, -1029000.0, 0.0, 10.0, 10.0 
1.335e+3, 2.05e+2, -931000.0, -931000.0, 0.0, 0.0, 0.0, -931000.0, -931000.0, 0.0, 10.0, 10.0 
1.335e+3, 2.15e+2, -833000.0, -833000.0, 0.0, 0.0, 0.0, -833000.0, -833000.0, 0.0, 10.0, 10.0 
1.335e+3, 2.25e+2, -735000.0, -735000.0, 0.0, 0.0, 0.0, -735000.0, -735000.0, 0.0, 10.0, 10.0 
1.335e+3, 2.35e+2, -637000.0, -637000.0, 0.0, 0.0, 0.0, -637000.0, -637000.0, 0.0, 10.0, 10.0 
1.335e+3, 2.45e+2, -539000.0, -539000.0, 0.0, 0.0, 0.0, -539000.0, -539000.0, 0.0, 10.0, 10.0 
1.335e+3, 2.55e+2, -441000.0, -441000.0, 0.0, 0.0, 0.0, -441000.0, -441000.0, 0.0, 10.0, 10.0 
1.335e+3, 2.65e+2, -343000.0, -343000.0, 0.0, 0.0, 0.0, -343000.0, -343000.0, 0.0, 10.0, 10.0 
1.335e+3, 2.75e+2, -245000.0, -245000.0, 0.0, 0.0, 0.0, -245000.0, -245000.0, 0.0, 10.0, 10.0 
1.335e+3, 2.85e+2, -147000.0, -147000.0, 0.0, 0.0, 0.0, -147000.0, -147000.0, 0.0, 10.0, 10.0 
1.335e+3, 2.95e+2, -49000.0, -49000.0, 0.0, 0.0, 0.0, -49000.0, -49000.0, 0.0, 10.0, 10.0 
1.335e+3, 3.05e+2, 0.0, 0.0, 0.0, 0.0, 0.0, 0.0, 0.0, 0.0, 10.0, 10.0 
1.335e+3, 3.15e+2, 0.0, 0.0, 0.0, 0.0, 0.0, 0.0, 0.0, 0.0, 10.0, 10.0 
1.345e+3, 1.25e+2, -1715000.0, -1715000.0, 0.0, 0.0, 0.0, -1715000.0, -1715000.0, 0.0, 10.0, 10.0 
1.345e+3, 1.35e+2, -1617000.0, -1617000.0, 0.0, 0.0, 0.0, -1617000.0, -1617000.0, 0.0, 10.0, 10.0 
1.345e+3, 1.45e+2, -1519000.0, -1519000.0, 0.0, 0.0, 0.0, -1519000.0, -1519000.0, 0.0, 10.0, 10.0 
1.345e+3, 1.55e+2, -1421000.0, -1421000.0, 0.0, 0.0, 0.0, -1421000.0, -1421000.0, 0.0, 10.0, 10.0 
1.345e+3, 1.65e+2, -1323000.0, -1323000.0, 0.0, 0.0, 0.0, -1323000.0, -1323000.0, 0.0, 10.0, 10.0 
1.345e+3, 1.75e+2, -1225000.0, -1225000.0, 0.0, 0.0, 0.0, -1225000.0, -1225000.0, 0.0, 10.0, 10.0 
1.345e+3, 1.85e+2, -1127000.0, -1127000.0, 0.0, 0.0, 0.0, -1127000.0, -1127000.0, 0.0, 10.0, 10.0 
1.345e+3, 1.95e+2, -1029000.0, -1029000.0, 0.0, 0.0, 0.0, -1029000.0, -1029000.0, 0.0, 10.0, 10.0 
1.345e+3, 2.05e+2, -931000.0, -931000.0, 0.0, 0.0, 0.0, -931000.0, -931000.0, 0.0, 10.0, 10.0 
1.345e+3, 2.15e+2, -833000.0, -833000.0, 0.0, 0.0, 0.0, -833000.0, -833000.0, 0.0, 10.0, 10.0 
1.345e+3, 2.25e+2, -735000.0, -735000.0, 0.0, 0.0, 0.0, -735000.0, -735000.0, 0.0, 10.0, 10.0 
1.345e+3, 2.35e+2, -637000.0, -637000.0, 0.0, 0.0, 0.0, -637000.0, -637000.0, 0.0, 10.0, 10.0 
1.345e+3, 2.45e+2, -539000.0, -539000.0, 0.0, 0.0, 0.0, -539000.0, -539000.0, 0.0, 10.0, 10.0 
1.345e+3, 2.55e+2, -441000.0, -441000.0, 0.0, 0.0, 0.0, -441000.0, -441000.0, 0.0, 10.0, 10.0 
1.345e+3, 2.65e+2, -343000.0, -343000.0, 0.0, 0.0, 0.0, -343000.0, -343000.0, 0.0, 10.0, 10.0 
1.345e+3, 2.75e+2, -245000.0, -245000.0, 0.0, 0.0, 0.0, -245000.0, -245000.0, 0.0, 10.0, 10.0 
1.345e+3, 2.85e+2, -147000.0, -147000.0, 0.0, 0.0, 0.0, -147000.0, -147000.0, 0.0, 10.0, 10.0 
1.345e+3, 2.95e+2, -49000.0, -49000.0, 0.0, 0.0, 0.0, -49000.0, -49000.0, 0.0, 10.0, 10.0 
1.345e+3, 3.05e+2, 0.0, 0.0, 0.0, 0.0, 0.0, 0.0, 0.0, 0.0, 10.0, 10.0 
1.345e+3, 3.15e+2, 0.0, 0.0, 0.0, 0.0, 0.0, 0.0, 0.0, 0.0, 10.0, 10.0 
1.355e+3, 1.25e+2, -1715000.0, -1715000.0, 0.0, 0.0, 0.0, -1715000.0, -1715000.0, 0.0, 10.0, 10.0 
1.355e+3, 1.35e+2, -1617000.0, -1617000.0, 0.0, 0.0, 0.0, -1617000.0, -1617000.0, 0.0, 10.0, 10.0 
1.355e+3, 1.45e+2, -1519000.0, -1519000.0, 0.0, 0.0, 0.0, -1519000.0, -1519000.0, 0.0, 10.0, 10.0 
1.355e+3, 1.55e+2, -1421000.0, -1421000.0, 0.0, 0.0, 0.0, -1421000.0, -1421000.0, 0.0, 10.0, 10.0 
1.355e+3, 1.65e+2, -1323000.0, -1323000.0, 0.0, 0.0, 0.0, -1323000.0, -1323000.0, 0.0, 10.0, 10.0 
1.355e+3, 1.75e+2, -1225000.0, -1225000.0, 0.0, 0.0, 0.0, -1225000.0, -1225000.0, 0.0, 10.0, 10.0 
1.355e+3, 1.85e+2, -1127000.0, -1127000.0, 0.0, 0.0, 0.0, -1127000.0, -1127000.0, 0.0, 10.0, 10.0 
1.355e+3, 1.95e+2, -1029000.0, -1029000.0, 0.0, 0.0, 0.0, -1029000.0, -1029000.0, 0.0, 10.0, 10.0 
1.355e+3, 2.05e+2, -931000.0, -931000.0, 0.0, 0.0, 0.0, -931000.0, -931000.0, 0.0, 10.0, 10.0 
1.355e+3, 2.15e+2, -833000.0, -833000.0, 0.0, 0.0, 0.0, -833000.0, -833000.0, 0.0, 10.0, 10.0 
1.355e+3, 2.25e+2, -735000.0, -735000.0, 0.0, 0.0, 0.0, -735000.0, -735000.0, 0.0, 10.0, 10.0 
1.355e+3, 2.35e+2, -637000.0, -637000.0, 0.0, 0.0, 0.0, -637000.0, -637000.0, 0.0, 10.0, 10.0 
1.355e+3, 2.45e+2, -539000.0, -539000.0, 0.0, 0.0, 0.0, -539000.0, -539000.0, 0.0, 10.0, 10.0 
1.355e+3, 2.55e+2, -441000.0, -441000.0, 0.0, 0.0, 0.0, -441000.0, -441000.0, 0.0, 10.0, 10.0 
1.355e+3, 2.65e+2, -343000.0, -343000.0, 0.0, 0.0, 0.0, -343000.0, -343000.0, 0.0, 10.0, 10.0 
1.355e+3, 2.75e+2, -245000.0, -245000.0, 0.0, 0.0, 0.0, -245000.0, -245000.0, 0.0, 10.0, 10.0 
1.355e+3, 2.85e+2, -147000.0, -147000.0, 0.0, 0.0, 0.0, -147000.0, -147000.0, 0.0, 10.0, 10.0 
1.355e+3, 2.95e+2, -49000.0, -49000.0, 0.0, 0.0, 0.0, -49000.0, -49000.0, 0.0, 10.0, 10.0 
1.355e+3, 3.05e+2, 0.0, 0.0, 0.0, 0.0, 0.0, 0.0, 0.0, 0.0, 10.0, 10.0 
1.355e+3, 3.15e+2, 0.0, 0.0, 0.0, 0.0, 0.0, 0.0, 0.0, 0.0, 10.0, 10.0 
1.365e+3, 1.25e+2, -1715000.0, -1715000.0, 0.0, 0.0, 0.0, -1715000.0, -1715000.0, 0.0, 10.0, 10.0 
1.365e+3, 1.35e+2, -1617000.0, -1617000.0, 0.0, 0.0, 0.0, -1617000.0, -1617000.0, 0.0, 10.0, 10.0 
1.365e+3, 1.45e+2, -1519000.0, -1519000.0, 0.0, 0.0, 0.0, -1519000.0, -1519000.0, 0.0, 10.0, 10.0 
1.365e+3, 1.55e+2, -1421000.0, -1421000.0, 0.0, 0.0, 0.0, -1421000.0, -1421000.0, 0.0, 10.0, 10.0 
1.365e+3, 1.65e+2, -1323000.0, -1323000.0, 0.0, 0.0, 0.0, -1323000.0, -1323000.0, 0.0, 10.0, 10.0 
1.365e+3, 1.75e+2, -1225000.0, -1225000.0, 0.0, 0.0, 0.0, -1225000.0, -1225000.0, 0.0, 10.0, 10.0 
1.365e+3, 1.85e+2, -1127000.0, -1127000.0, 0.0, 0.0, 0.0, -1127000.0, -1127000.0, 0.0, 10.0, 10.0 
1.365e+3, 1.95e+2, -1029000.0, -1029000.0, 0.0, 0.0, 0.0, -1029000.0, -1029000.0, 0.0, 10.0, 10.0 
1.365e+3, 2.05e+2, -931000.0, -931000.0, 0.0, 0.0, 0.0, -931000.0, -931000.0, 0.0, 10.0, 10.0 
1.365e+3, 2.15e+2, -833000.0, -833000.0, 0.0, 0.0, 0.0, -833000.0, -833000.0, 0.0, 10.0, 10.0 
1.365e+3, 2.25e+2, -735000.0, -735000.0, 0.0, 0.0, 0.0, -735000.0, -735000.0, 0.0, 10.0, 10.0 
1.365e+3, 2.35e+2, -637000.0, -637000.0, 0.0, 0.0, 0.0, -637000.0, -637000.0, 0.0, 10.0, 10.0 
1.365e+3, 2.45e+2, -539000.0, -539000.0, 0.0, 0.0, 0.0, -539000.0, -539000.0, 0.0, 10.0, 10.0 
1.365e+3, 2.55e+2, -441000.0, -441000.0, 0.0, 0.0, 0.0, -441000.0, -441000.0, 0.0, 10.0, 10.0 
1.365e+3, 2.65e+2, -343000.0, -343000.0, 0.0, 0.0, 0.0, -343000.0, -343000.0, 0.0, 10.0, 10.0 
1.365e+3, 2.75e+2, -245000.0, -245000.0, 0.0, 0.0, 0.0, -245000.0, -245000.0, 0.0, 10.0, 10.0 
1.365e+3, 2.85e+2, -147000.0, -147000.0, 0.0, 0.0, 0.0, -147000.0, -147000.0, 0.0, 10.0, 10.0 
1.365e+3, 2.95e+2, -49000.0, -49000.0, 0.0, 0.0, 0.0, -49000.0, -49000.0, 0.0, 10.0, 10.0 
1.365e+3, 3.05e+2, 0.0, 0.0, 0.0, 0.0, 0.0, 0.0, 0.0, 0.0, 10.0, 10.0 
1.365e+3, 3.15e+2, 0.0, 0.0, 0.0, 0.0, 0.0, 0.0, 0.0, 0.0, 10.0, 10.0 
1.375e+3, 1.25e+2, -1715000.0, -1715000.0, 0.0, 0.0, 0.0, -1715000.0, -1715000.0, 0.0, 10.0, 10.0 
1.375e+3, 1.35e+2, -1617000.0, -1617000.0, 0.0, 0.0, 0.0, -1617000.0, -1617000.0, 0.0, 10.0, 10.0 
1.375e+3, 1.45e+2, -1519000.0, -1519000.0, 0.0, 0.0, 0.0, -1519000.0, -1519000.0, 0.0, 10.0, 10.0 
1.375e+3, 1.55e+2, -1421000.0, -1421000.0, 0.0, 0.0, 0.0, -1421000.0, -1421000.0, 0.0, 10.0, 10.0 
1.375e+3, 1.65e+2, -1323000.0, -1323000.0, 0.0, 0.0, 0.0, -1323000.0, -1323000.0, 0.0, 10.0, 10.0 
1.375e+3, 1.75e+2, -1225000.0, -1225000.0, 0.0, 0.0, 0.0, -1225000.0, -1225000.0, 0.0, 10.0, 10.0 
1.375e+3, 1.85e+2, -1127000.0, -1127000.0, 0.0, 0.0, 0.0, -1127000.0, -1127000.0, 0.0, 10.0, 10.0 
1.375e+3, 1.95e+2, -1029000.0, -1029000.0, 0.0, 0.0, 0.0, -1029000.0, -1029000.0, 0.0, 10.0, 10.0 
1.375e+3, 2.05e+2, -931000.0, -931000.0, 0.0, 0.0, 0.0, -931000.0, -931000.0, 0.0, 10.0, 10.0 
1.375e+3, 2.15e+2, -833000.0, -833000.0, 0.0, 0.0, 0.0, -833000.0, -833000.0, 0.0, 10.0, 10.0 
1.375e+3, 2.25e+2, -735000.0, -735000.0, 0.0, 0.0, 0.0, -735000.0, -735000.0, 0.0, 10.0, 10.0 
1.375e+3, 2.35e+2, -637000.0, -637000.0, 0.0, 0.0, 0.0, -637000.0, -637000.0, 0.0, 10.0, 10.0 
1.375e+3, 2.45e+2, -539000.0, -539000.0, 0.0, 0.0, 0.0, -539000.0, -539000.0, 0.0, 10.0, 10.0 
1.375e+3, 2.55e+2, -441000.0, -441000.0, 0.0, 0.0, 0.0, -441000.0, -441000.0, 0.0, 10.0, 10.0 
1.375e+3, 2.65e+2, -343000.0, -343000.0, 0.0, 0.0, 0.0, -343000.0, -343000.0, 0.0, 10.0, 10.0 
1.375e+3, 2.75e+2, -245000.0, -245000.0, 0.0, 0.0, 0.0, -245000.0, -245000.0, 0.0, 10.0, 10.0 
1.375e+3, 2.85e+2, -147000.0, -147000.0, 0.0, 0.0, 0.0, -147000.0, -147000.0, 0.0, 10.0, 10.0 
1.375e+3, 2.95e+2, -49000.0, -49000.0, 0.0, 0.0, 0.0, -49000.0, -49000.0, 0.0, 10.0, 10.0 
1.375e+3, 3.05e+2, 0.0, 0.0, 0.0, 0.0, 0.0, 0.0, 0.0, 0.0, 10.0, 10.0 
1.375e+3, 3.15e+2, 0.0, 0.0, 0.0, 0.0, 0.0, 0.0, 0.0, 0.0, 10.0, 10.0 
1.385e+3, 1.25e+2, -1715000.0, -1715000.0, 0.0, 0.0, 0.0, -1715000.0, -1715000.0, 0.0, 10.0, 10.0 
1.385e+3, 1.35e+2, -1617000.0, -1617000.0, 0.0, 0.0, 0.0, -1617000.0, -1617000.0, 0.0, 10.0, 10.0 
1.385e+3, 1.45e+2, -1519000.0, -1519000.0, 0.0, 0.0, 0.0, -1519000.0, -1519000.0, 0.0, 10.0, 10.0 
1.385e+3, 1.55e+2, -1421000.0, -1421000.0, 0.0, 0.0, 0.0, -1421000.0, -1421000.0, 0.0, 10.0, 10.0 
1.385e+3, 1.65e+2, -1323000.0, -1323000.0, 0.0, 0.0, 0.0, -1323000.0, -1323000.0, 0.0, 10.0, 10.0 
1.385e+3, 1.75e+2, -1225000.0, -1225000.0, 0.0, 0.0, 0.0, -1225000.0, -1225000.0, 0.0, 10.0, 10.0 
1.385e+3, 1.85e+2, -1127000.0, -1127000.0, 0.0, 0.0, 0.0, -1127000.0, -1127000.0, 0.0, 10.0, 10.0 
1.385e+3, 1.95e+2, -1029000.0, -1029000.0, 0.0, 0.0, 0.0, -1029000.0, -1029000.0, 0.0, 10.0, 10.0 
1.385e+3, 2.05e+2, -931000.0, -931000.0, 0.0, 0.0, 0.0, -931000.0, -931000.0, 0.0, 10.0, 10.0 
1.385e+3, 2.15e+2, -833000.0, -833000.0, 0.0, 0.0, 0.0, -833000.0, -833000.0, 0.0, 10.0, 10.0 
1.385e+3, 2.25e+2, -735000.0, -735000.0, 0.0, 0.0, 0.0, -735000.0, -735000.0, 0.0, 10.0, 10.0 
1.385e+3, 2.35e+2, -637000.0, -637000.0, 0.0, 0.0, 0.0, -637000.0, -637000.0, 0.0, 10.0, 10.0 
1.385e+3, 2.45e+2, -539000.0, -539000.0, 0.0, 0.0, 0.0, -539000.0, -539000.0, 0.0, 10.0, 10.0 
1.385e+3, 2.55e+2, -441000.0, -441000.0, 0.0, 0.0, 0.0, -441000.0, -441000.0, 0.0, 10.0, 10.0 
1.385e+3, 2.65e+2, -343000.0, -343000.0, 0.0, 0.0, 0.0, -343000.0, -343000.0, 0.0, 10.0, 10.0 
1.385e+3, 2.75e+2, -245000.0, -245000.0, 0.0, 0.0, 0.0, -245000.0, -245000.0, 0.0, 10.0, 10.0 
1.385e+3, 2.85e+2, -147000.0, -147000.0, 0.0, 0.0, 0.0, -147000.0, -147000.0, 0.0, 10.0, 10.0 
1.385e+3, 2.95e+2, -49000.0, -49000.0, 0.0, 0.0, 0.0, -49000.0, -49000.0, 0.0, 10.0, 10.0 
1.385e+3, 3.05e+2, 0.0, 0.0, 0.0, 0.0, 0.0, 0.0, 0.0, 0.0, 10.0, 10.0 
1.385e+3, 3.15e+2, 0.0, 0.0, 0.0, 0.0, 0.0, 0.0, 0.0, 0.0, 10.0, 10.0 
1.395e+3, 1.25e+2, -1715000.0, -1715000.0, 0.0, 0.0, 0.0, -1715000.0, -1715000.0, 0.0, 10.0, 10.0 
1.395e+3, 1.35e+2, -1617000.0, -1617000.0, 0.0, 0.0, 0.0, -1617000.0, -1617000.0, 0.0, 10.0, 10.0 
1.395e+3, 1.45e+2, -1519000.0, -1519000.0, 0.0, 0.0, 0.0, -1519000.0, -1519000.0, 0.0, 10.0, 10.0 
1.395e+3, 1.55e+2, -1421000.0, -1421000.0, 0.0, 0.0, 0.0, -1421000.0, -1421000.0, 0.0, 10.0, 10.0 
1.395e+3, 1.65e+2, -1323000.0, -1323000.0, 0.0, 0.0, 0.0, -1323000.0, -1323000.0, 0.0, 10.0, 10.0 
1.395e+3, 1.75e+2, -1225000.0, -1225000.0, 0.0, 0.0, 0.0, -1225000.0, -1225000.0, 0.0, 10.0, 10.0 
1.395e+3, 1.85e+2, -1127000.0, -1127000.0, 0.0, 0.0, 0.0, -1127000.0, -1127000.0, 0.0, 10.0, 10.0 
1.395e+3, 1.95e+2, -1029000.0, -1029000.0, 0.0, 0.0, 0.0, -1029000.0, -1029000.0, 0.0, 10.0, 10.0 
1.395e+3, 2.05e+2, -931000.0, -931000.0, 0.0, 0.0, 0.0, -931000.0, -931000.0, 0.0, 10.0, 10.0 
1.395e+3, 2.15e+2, -833000.0, -833000.0, 0.0, 0.0, 0.0, -833000.0, -833000.0, 0.0, 10.0, 10.0 
1.395e+3, 2.25e+2, -735000.0, -735000.0, 0.0, 0.0, 0.0, -735000.0, -735000.0, 0.0, 10.0, 10.0 
1.395e+3, 2.35e+2, -637000.0, -637000.0, 0.0, 0.0, 0.0, -637000.0, -637000.0, 0.0, 10.0, 10.0 
1.395e+3, 2.45e+2, -539000.0, -539000.0, 0.0, 0.0, 0.0, -539000.0, -539000.0, 0.0, 10.0, 10.0 
1.395e+3, 2.55e+2, -441000.0, -441000.0, 0.0, 0.0, 0.0, -441000.0, -441000.0, 0.0, 10.0, 10.0 
1.395e+3, 2.65e+2, -343000.0, -343000.0, 0.0, 0.0, 0.0, -343000.0, -343000.0, 0.0, 10.0, 10.0 
1.395e+3, 2.75e+2, -245000.0, -245000.0, 0.0, 0.0, 0.0, -245000.0, -245000.0, 0.0, 10.0, 10.0 
1.395e+3, 2.85e+2, -147000.0, -147000.0, 0.0, 0.0, 0.0, -147000.0, -147000.0, 0.0, 10.0, 10.0 
1.395e+3, 2.95e+2, -49000.0, -49000.0, 0.0, 0.0, 0.0, -49000.0, -49000.0, 0.0, 10.0, 10.0 
1.395e+3, 3.05e+2, 0.0, 0.0, 0.0, 0.0, 0.0, 0.0, 0.0, 0.0, 10.0, 10.0 
1.395e+3, 3.15e+2, 0.0, 0.0, 0.0, 0.0, 0.0, 0.0, 0.0, 0.0, 10.0, 10.0 
1.405e+3, 1.25e+2, -1715000.0, -1715000.0, 0.0, 0.0, 0.0, -1715000.0, -1715000.0, 0.0, 10.0, 10.0 
1.405e+3, 1.35e+2, -1617000.0, -1617000.0, 0.0, 0.0, 0.0, -1617000.0, -1617000.0, 0.0, 10.0, 10.0 
1.405e+3, 1.45e+2, -1519000.0, -1519000.0, 0.0, 0.0, 0.0, -1519000.0, -1519000.0, 0.0, 10.0, 10.0 
1.405e+3, 1.55e+2, -1421000.0, -1421000.0, 0.0, 0.0, 0.0, -1421000.0, -1421000.0, 0.0, 10.0, 10.0 
1.405e+3, 1.65e+2, -1323000.0, -1323000.0, 0.0, 0.0, 0.0, -1323000.0, -1323000.0, 0.0, 10.0, 10.0 
1.405e+3, 1.75e+2, -1225000.0, -1225000.0, 0.0, 0.0, 0.0, -1225000.0, -1225000.0, 0.0, 10.0, 10.0 
1.405e+3, 1.85e+2, -1127000.0, -1127000.0, 0.0, 0.0, 0.0, -1127000.0, -1127000.0, 0.0, 10.0, 10.0 
1.405e+3, 1.95e+2, -1029000.0, -1029000.0, 0.0, 0.0, 0.0, -1029000.0, -1029000.0, 0.0, 10.0, 10.0 
1.405e+3, 2.05e+2, -931000.0, -931000.0, 0.0, 0.0, 0.0, -931000.0, -931000.0, 0.0, 10.0, 10.0 
1.405e+3, 2.15e+2, -833000.0, -833000.0, 0.0, 0.0, 0.0, -833000.0, -833000.0, 0.0, 10.0, 10.0 
1.405e+3, 2.25e+2, -735000.0, -735000.0, 0.0, 0.0, 0.0, -735000.0, -735000.0, 0.0, 10.0, 10.0 
1.405e+3, 2.35e+2, -637000.0, -637000.0, 0.0, 0.0, 0.0, -637000.0, -637000.0, 0.0, 10.0, 10.0 
1.405e+3, 2.45e+2, -539000.0, -539000.0, 0.0, 0.0, 0.0, -539000.0, -539000.0, 0.0, 10.0, 10.0 
1.405e+3, 2.55e+2, -441000.0, -441000.0, 0.0, 0.0, 0.0, -441000.0, -441000.0, 0.0, 10.0, 10.0 
1.405e+3, 2.65e+2, -343000.0, -343000.0, 0.0, 0.0, 0.0, -343000.0, -343000.0, 0.0, 10.0, 10.0 
1.405e+3, 2.75e+2, -245000.0, -245000.0, 0.0, 0.0, 0.0, -245000.0, -245000.0, 0.0, 10.0, 10.0 
1.405e+3, 2.85e+2, -147000.0, -147000.0, 0.0, 0.0, 0.0, -147000.0, -147000.0, 0.0, 10.0, 10.0 
1.405e+3, 2.95e+2, -49000.0, -49000.0, 0.0, 0.0, 0.0, -49000.0, -49000.0, 0.0, 10.0, 10.0 
1.405e+3, 3.05e+2, 0.0, 0.0, 0.0, 0.0, 0.0, 0.0, 0.0, 0.0, 10.0, 10.0 
1.405e+3, 3.15e+2, 0.0, 0.0, 0.0, 0.0, 0.0, 0.0, 0.0, 0.0, 10.0, 10.0 
1.415e+3, 1.25e+2, -1715000.0, -1715000.0, 0.0, 0.0, 0.0, -1715000.0, -1715000.0, 0.0, 10.0, 10.0 
1.415e+3, 1.35e+2, -1617000.0, -1617000.0, 0.0, 0.0, 0.0, -1617000.0, -1617000.0, 0.0, 10.0, 10.0 
1.415e+3, 1.45e+2, -1519000.0, -1519000.0, 0.0, 0.0, 0.0, -1519000.0, -1519000.0, 0.0, 10.0, 10.0 
1.415e+3, 1.55e+2, -1421000.0, -1421000.0, 0.0, 0.0, 0.0, -1421000.0, -1421000.0, 0.0, 10.0, 10.0 
1.415e+3, 1.65e+2, -1323000.0, -1323000.0, 0.0, 0.0, 0.0, -1323000.0, -1323000.0, 0.0, 10.0, 10.0 
1.415e+3, 1.75e+2, -1225000.0, -1225000.0, 0.0, 0.0, 0.0, -1225000.0, -1225000.0, 0.0, 10.0, 10.0 
1.415e+3, 1.85e+2, -1127000.0, -1127000.0, 0.0, 0.0, 0.0, -1127000.0, -1127000.0, 0.0, 10.0, 10.0 
1.415e+3, 1.95e+2, -1029000.0, -1029000.0, 0.0, 0.0, 0.0, -1029000.0, -1029000.0, 0.0, 10.0, 10.0 
1.415e+3, 2.05e+2, -931000.0, -931000.0, 0.0, 0.0, 0.0, -931000.0, -931000.0, 0.0, 10.0, 10.0 
1.415e+3, 2.15e+2, -833000.0, -833000.0, 0.0, 0.0, 0.0, -833000.0, -833000.0, 0.0, 10.0, 10.0 
1.415e+3, 2.25e+2, -735000.0, -735000.0, 0.0, 0.0, 0.0, -735000.0, -735000.0, 0.0, 10.0, 10.0 
1.415e+3, 2.35e+2, -637000.0, -637000.0, 0.0, 0.0, 0.0, -637000.0, -637000.0, 0.0, 10.0, 10.0 
1.415e+3, 2.45e+2, -539000.0, -539000.0, 0.0, 0.0, 0.0, -539000.0, -539000.0, 0.0, 10.0, 10.0 
1.415e+3, 2.55e+2, -441000.0, -441000.0, 0.0, 0.0, 0.0, -441000.0, -441000.0, 0.0, 10.0, 10.0 
1.415e+3, 2.65e+2, -343000.0, -343000.0, 0.0, 0.0, 0.0, -343000.0, -343000.0, 0.0, 10.0, 10.0 
1.415e+3, 2.75e+2, -245000.0, -245000.0, 0.0, 0.0, 0.0, -245000.0, -245000.0, 0.0, 10.0, 10.0 
1.415e+3, 2.85e+2, -147000.0, -147000.0, 0.0, 0.0, 0.0, -147000.0, -147000.0, 0.0, 10.0, 10.0 
1.415e+3, 2.95e+2, -49000.0, -49000.0, 0.0, 0.0, 0.0, -49000.0, -49000.0, 0.0, 10.0, 10.0 
1.415e+3, 3.05e+2, 0.0, 0.0, 0.0, 0.0, 0.0, 0.0, 0.0, 0.0, 10.0, 10.0 
1.415e+3, 3.15e+2, 0.0, 0.0, 0.0, 0.0, 0.0, 0.0, 0.0, 0.0, 10.0, 10.0 
1.425e+3, 1.25e+2, -1715000.0, -1715000.0, 0.0, 0.0, 0.0, -1715000.0, -1715000.0, 0.0, 10.0, 10.0 
1.425e+3, 1.35e+2, -1617000.0, -1617000.0, 0.0, 0.0, 0.0, -1617000.0, -1617000.0, 0.0, 10.0, 10.0 
1.425e+3, 1.45e+2, -1519000.0, -1519000.0, 0.0, 0.0, 0.0, -1519000.0, -1519000.0, 0.0, 10.0, 10.0 
1.425e+3, 1.55e+2, -1421000.0, -1421000.0, 0.0, 0.0, 0.0, -1421000.0, -1421000.0, 0.0, 10.0, 10.0 
1.425e+3, 1.65e+2, -1323000.0, -1323000.0, 0.0, 0.0, 0.0, -1323000.0, -1323000.0, 0.0, 10.0, 10.0 
1.425e+3, 1.75e+2, -1225000.0, -1225000.0, 0.0, 0.0, 0.0, -1225000.0, -1225000.0, 0.0, 10.0, 10.0 
1.425e+3, 1.85e+2, -1127000.0, -1127000.0, 0.0, 0.0, 0.0, -1127000.0, -1127000.0, 0.0, 10.0, 10.0 
1.425e+3, 1.95e+2, -1029000.0, -1029000.0, 0.0, 0.0, 0.0, -1029000.0, -1029000.0, 0.0, 10.0, 10.0 
1.425e+3, 2.05e+2, -931000.0, -931000.0, 0.0, 0.0, 0.0, -931000.0, -931000.0, 0.0, 10.0, 10.0 
1.425e+3, 2.15e+2, -833000.0, -833000.0, 0.0, 0.0, 0.0, -833000.0, -833000.0, 0.0, 10.0, 10.0 
1.425e+3, 2.25e+2, -735000.0, -735000.0, 0.0, 0.0, 0.0, -735000.0, -735000.0, 0.0, 10.0, 10.0 
1.425e+3, 2.35e+2, -637000.0, -637000.0, 0.0, 0.0, 0.0, -637000.0, -637000.0, 0.0, 10.0, 10.0 
1.425e+3, 2.45e+2, -539000.0, -539000.0, 0.0, 0.0, 0.0, -539000.0, -539000.0, 0.0, 10.0, 10.0 
1.425e+3, 2.55e+2, -441000.0, -441000.0, 0.0, 0.0, 0.0, -441000.0, -441000.0, 0.0, 10.0, 10.0 
1.425e+3, 2.65e+2, -343000.0, -343000.0, 0.0, 0.0, 0.0, -343000.0, -343000.0, 0.0, 10.0, 10.0 
1.425e+3, 2.75e+2, -245000.0, -245000.0, 0.0, 0.0, 0.0, -245000.0, -245000.0, 0.0, 10.0, 10.0 
1.425e+3, 2.85e+2, -147000.0, -147000.0, 0.0, 0.0, 0.0, -147000.0, -147000.0, 0.0, 10.0, 10.0 
1.425e+3, 2.95e+2, -49000.0, -49000.0, 0.0, 0.0, 0.0, -49000.0, -49000.0, 0.0, 10.0, 10.0 
1.425e+3, 3.05e+2, 0.0, 0.0, 0.0, 0.0, 0.0, 0.0, 0.0, 0.0, 10.0, 10.0 
1.425e+3, 3.15e+2, 0.0, 0.0, 0.0, 0.0, 0.0, 0.0, 0.0, 0.0, 10.0, 10.0 
1.435e+3, 1.25e+2, -1715000.0, -1715000.0, 0.0, 0.0, 0.0, -1715000.0, -1715000.0, 0.0, 10.0, 10.0 
1.435e+3, 1.35e+2, -1617000.0, -1617000.0, 0.0, 0.0, 0.0, -1617000.0, -1617000.0, 0.0, 10.0, 10.0 
1.435e+3, 1.45e+2, -1519000.0, -1519000.0, 0.0, 0.0, 0.0, -1519000.0, -1519000.0, 0.0, 10.0, 10.0 
1.435e+3, 1.55e+2, -1421000.0, -1421000.0, 0.0, 0.0, 0.0, -1421000.0, -1421000.0, 0.0, 10.0, 10.0 
1.435e+3, 1.65e+2, -1323000.0, -1323000.0, 0.0, 0.0, 0.0, -1323000.0, -1323000.0, 0.0, 10.0, 10.0 
1.435e+3, 1.75e+2, -1225000.0, -1225000.0, 0.0, 0.0, 0.0, -1225000.0, -1225000.0, 0.0, 10.0, 10.0 
1.435e+3, 1.85e+2, -1127000.0, -1127000.0, 0.0, 0.0, 0.0, -1127000.0, -1127000.0, 0.0, 10.0, 10.0 
1.435e+3, 1.95e+2, -1029000.0, -1029000.0, 0.0, 0.0, 0.0, -1029000.0, -1029000.0, 0.0, 10.0, 10.0 
1.435e+3, 2.05e+2, -931000.0, -931000.0, 0.0, 0.0, 0.0, -931000.0, -931000.0, 0.0, 10.0, 10.0 
1.435e+3, 2.15e+2, -833000.0, -833000.0, 0.0, 0.0, 0.0, -833000.0, -833000.0, 0.0, 10.0, 10.0 
1.435e+3, 2.25e+2, -735000.0, -735000.0, 0.0, 0.0, 0.0, -735000.0, -735000.0, 0.0, 10.0, 10.0 
1.435e+3, 2.35e+2, -637000.0, -637000.0, 0.0, 0.0, 0.0, -637000.0, -637000.0, 0.0, 10.0, 10.0 
1.435e+3, 2.45e+2, -539000.0, -539000.0, 0.0, 0.0, 0.0, -539000.0, -539000.0, 0.0, 10.0, 10.0 
1.435e+3, 2.55e+2, -441000.0, -441000.0, 0.0, 0.0, 0.0, -441000.0, -441000.0, 0.0, 10.0, 10.0 
1.435e+3, 2.65e+2, -343000.0, -343000.0, 0.0, 0.0, 0.0, -343000.0, -343000.0, 0.0, 10.0, 10.0 
1.435e+3, 2.75e+2, -245000.0, -245000.0, 0.0, 0.0, 0.0, -245000.0, -245000.0, 0.0, 10.0, 10.0 
1.435e+3, 2.85e+2, -147000.0, -147000.0, 0.0, 0.0, 0.0, -147000.0, -147000.0, 0.0, 10.0, 10.0 
1.435e+3, 2.95e+2, -49000.0, -49000.0, 0.0, 0.0, 0.0, -49000.0, -49000.0, 0.0, 10.0, 10.0 
1.435e+3, 3.05e+2, 0.0, 0.0, 0.0, 0.0, 0.0, 0.0, 0.0, 0.0, 10.0, 10.0 
1.435e+3, 3.15e+2, 0.0, 0.0, 0.0, 0.0, 0.0, 0.0, 0.0, 0.0, 10.0, 10.0 
1.445e+3, 1.25e+2, -1715000.0, -1715000.0, 0.0, 0.0, 0.0, -1715000.0, -1715000.0, 0.0, 10.0, 10.0 
1.445e+3, 1.35e+2, -1617000.0, -1617000.0, 0.0, 0.0, 0.0, -1617000.0, -1617000.0, 0.0, 10.0, 10.0 
1.445e+3, 1.45e+2, -1519000.0, -1519000.0, 0.0, 0.0, 0.0, -1519000.0, -1519000.0, 0.0, 10.0, 10.0 
1.445e+3, 1.55e+2, -1421000.0, -1421000.0, 0.0, 0.0, 0.0, -1421000.0, -1421000.0, 0.0, 10.0, 10.0 
1.445e+3, 1.65e+2, -1323000.0, -1323000.0, 0.0, 0.0, 0.0, -1323000.0, -1323000.0, 0.0, 10.0, 10.0 
1.445e+3, 1.75e+2, -1225000.0, -1225000.0, 0.0, 0.0, 0.0, -1225000.0, -1225000.0, 0.0, 10.0, 10.0 
1.445e+3, 1.85e+2, -1127000.0, -1127000.0, 0.0, 0.0, 0.0, -1127000.0, -1127000.0, 0.0, 10.0, 10.0 
1.445e+3, 1.95e+2, -1029000.0, -1029000.0, 0.0, 0.0, 0.0, -1029000.0, -1029000.0, 0.0, 10.0, 10.0 
1.445e+3, 2.05e+2, -931000.0, -931000.0, 0.0, 0.0, 0.0, -931000.0, -931000.0, 0.0, 10.0, 10.0 
1.445e+3, 2.15e+2, -833000.0, -833000.0, 0.0, 0.0, 0.0, -833000.0, -833000.0, 0.0, 10.0, 10.0 
1.445e+3, 2.25e+2, -735000.0, -735000.0, 0.0, 0.0, 0.0, -735000.0, -735000.0, 0.0, 10.0, 10.0 
1.445e+3, 2.35e+2, -637000.0, -637000.0, 0.0, 0.0, 0.0, -637000.0, -637000.0, 0.0, 10.0, 10.0 
1.445e+3, 2.45e+2, -539000.0, -539000.0, 0.0, 0.0, 0.0, -539000.0, -539000.0, 0.0, 10.0, 10.0 
1.445e+3, 2.55e+2, -441000.0, -441000.0, 0.0, 0.0, 0.0, -441000.0, -441000.0, 0.0, 10.0, 10.0 
1.445e+3, 2.65e+2, -343000.0, -343000.0, 0.0, 0.0, 0.0, -343000.0, -343000.0, 0.0, 10.0, 10.0 
1.445e+3, 2.75e+2, -245000.0, -245000.0, 0.0, 0.0, 0.0, -245000.0, -245000.0, 0.0, 10.0, 10.0 
1.445e+3, 2.85e+2, -147000.0, -147000.0, 0.0, 0.0, 0.0, -147000.0, -147000.0, 0.0, 10.0, 10.0 
1.445e+3, 2.95e+2, -49000.0, -49000.0, 0.0, 0.0, 0.0, -49000.0, -49000.0, 0.0, 10.0, 10.0 
1.445e+3, 3.05e+2, 0.0, 0.0, 0.0, 0.0, 0.0, 0.0, 0.0, 0.0, 10.0, 10.0 
1.445e+3, 3.15e+2, 0.0, 0.0, 0.0, 0.0, 0.0, 0.0, 0.0, 0.0, 10.0, 10.0 
1.455e+3, 1.25e+2, -1715000.0, -1715000.0, 0.0, 0.0, 0.0, -1715000.0, -1715000.0, 0.0, 10.0, 10.0 
1.455e+3, 1.35e+2, -1617000.0, -1617000.0, 0.0, 0.0, 0.0, -1617000.0, -1617000.0, 0.0, 10.0, 10.0 
1.455e+3, 1.45e+2, -1519000.0, -1519000.0, 0.0, 0.0, 0.0, -1519000.0, -1519000.0, 0.0, 10.0, 10.0 
1.455e+3, 1.55e+2, -1421000.0, -1421000.0, 0.0, 0.0, 0.0, -1421000.0, -1421000.0, 0.0, 10.0, 10.0 
1.455e+3, 1.65e+2, -1323000.0, -1323000.0, 0.0, 0.0, 0.0, -1323000.0, -1323000.0, 0.0, 10.0, 10.0 
1.455e+3, 1.75e+2, -1225000.0, -1225000.0, 0.0, 0.0, 0.0, -1225000.0, -1225000.0, 0.0, 10.0, 10.0 
1.455e+3, 1.85e+2, -1127000.0, -1127000.0, 0.0, 0.0, 0.0, -1127000.0, -1127000.0, 0.0, 10.0, 10.0 
1.455e+3, 1.95e+2, -1029000.0, -1029000.0, 0.0, 0.0, 0.0, -1029000.0, -1029000.0, 0.0, 10.0, 10.0 
1.455e+3, 2.05e+2, -931000.0, -931000.0, 0.0, 0.0, 0.0, -931000.0, -931000.0, 0.0, 10.0, 10.0 
1.455e+3, 2.15e+2, -833000.0, -833000.0, 0.0, 0.0, 0.0, -833000.0, -833000.0, 0.0, 10.0, 10.0 
1.455e+3, 2.25e+2, -735000.0, -735000.0, 0.0, 0.0, 0.0, -735000.0, -735000.0, 0.0, 10.0, 10.0 
1.455e+3, 2.35e+2, -637000.0, -637000.0, 0.0, 0.0, 0.0, -637000.0, -637000.0, 0.0, 10.0, 10.0 
1.455e+3, 2.45e+2, -539000.0, -539000.0, 0.0, 0.0, 0.0, -539000.0, -539000.0, 0.0, 10.0, 10.0 
1.455e+3, 2.55e+2, -441000.0, -441000.0, 0.0, 0.0, 0.0, -441000.0, -441000.0, 0.0, 10.0, 10.0 
1.455e+3, 2.65e+2, -343000.0, -343000.0, 0.0, 0.0, 0.0, -343000.0, -343000.0, 0.0, 10.0, 10.0 
1.455e+3, 2.75e+2, -245000.0, -245000.0, 0.0, 0.0, 0.0, -245000.0, -245000.0, 0.0, 10.0, 10.0 
1.455e+3, 2.85e+2, -147000.0, -147000.0, 0.0, 0.0, 0.0, -147000.0, -147000.0, 0.0, 10.0, 10.0 
1.455e+3, 2.95e+2, -49000.0, -49000.0, 0.0, 0.0, 0.0, -49000.0, -49000.0, 0.0, 10.0, 10.0 
1.455e+3, 3.05e+2, 0.0, 0.0, 0.0, 0.0, 0.0, 0.0, 0.0, 0.0, 10.0, 10.0 
1.455e+3, 3.15e+2, 0.0, 0.0, 0.0, 0.0, 0.0, 0.0, 0.0, 0.0, 10.0, 10.0 
1.465e+3, 1.25e+2, -1715000.0, -1715000.0, 0.0, 0.0, 0.0, -1715000.0, -1715000.0, 0.0, 10.0, 10.0 
1.465e+3, 1.35e+2, -1617000.0, -1617000.0, 0.0, 0.0, 0.0, -1617000.0, -1617000.0, 0.0, 10.0, 10.0 
1.465e+3, 1.45e+2, -1519000.0, -1519000.0, 0.0, 0.0, 0.0, -1519000.0, -1519000.0, 0.0, 10.0, 10.0 
1.465e+3, 1.55e+2, -1421000.0, -1421000.0, 0.0, 0.0, 0.0, -1421000.0, -1421000.0, 0.0, 10.0, 10.0 
1.465e+3, 1.65e+2, -1323000.0, -1323000.0, 0.0, 0.0, 0.0, -1323000.0, -1323000.0, 0.0, 10.0, 10.0 
1.465e+3, 1.75e+2, -1225000.0, -1225000.0, 0.0, 0.0, 0.0, -1225000.0, -1225000.0, 0.0, 10.0, 10.0 
1.465e+3, 1.85e+2, -1127000.0, -1127000.0, 0.0, 0.0, 0.0, -1127000.0, -1127000.0, 0.0, 10.0, 10.0 
1.465e+3, 1.95e+2, -1029000.0, -1029000.0, 0.0, 0.0, 0.0, -1029000.0, -1029000.0, 0.0, 10.0, 10.0 
1.465e+3, 2.05e+2, -931000.0, -931000.0, 0.0, 0.0, 0.0, -931000.0, -931000.0, 0.0, 10.0, 10.0 
1.465e+3, 2.15e+2, -833000.0, -833000.0, 0.0, 0.0, 0.0, -833000.0, -833000.0, 0.0, 10.0, 10.0 
1.465e+3, 2.25e+2, -735000.0, -735000.0, 0.0, 0.0, 0.0, -735000.0, -735000.0, 0.0, 10.0, 10.0 
1.465e+3, 2.35e+2, -637000.0, -637000.0, 0.0, 0.0, 0.0, -637000.0, -637000.0, 0.0, 10.0, 10.0 
1.465e+3, 2.45e+2, -539000.0, -539000.0, 0.0, 0.0, 0.0, -539000.0, -539000.0, 0.0, 10.0, 10.0 
1.465e+3, 2.55e+2, -441000.0, -441000.0, 0.0, 0.0, 0.0, -441000.0, -441000.0, 0.0, 10.0, 10.0 
1.465e+3, 2.65e+2, -343000.0, -343000.0, 0.0, 0.0, 0.0, -343000.0, -343000.0, 0.0, 10.0, 10.0 
1.465e+3, 2.75e+2, -245000.0, -245000.0, 0.0, 0.0, 0.0, -245000.0, -245000.0, 0.0, 10.0, 10.0 
1.465e+3, 2.85e+2, -147000.0, -147000.0, 0.0, 0.0, 0.0, -147000.0, -147000.0, 0.0, 10.0, 10.0 
1.465e+3, 2.95e+2, -49000.0, -49000.0, 0.0, 0.0, 0.0, -49000.0, -49000.0, 0.0, 10.0, 10.0 
1.465e+3, 3.05e+2, 0.0, 0.0, 0.0, 0.0, 0.0, 0.0, 0.0, 0.0, 10.0, 10.0 
1.465e+3, 3.15e+2, 0.0, 0.0, 0.0, 0.0, 0.0, 0.0, 0.0, 0.0, 10.0, 10.0 
1.475e+3, 1.25e+2, -1715000.0, -1715000.0, 0.0, 0.0, 0.0, -1715000.0, -1715000.0, 0.0, 10.0, 10.0 
1.475e+3, 1.35e+2, -1617000.0, -1617000.0, 0.0, 0.0, 0.0, -1617000.0, -1617000.0, 0.0, 10.0, 10.0 
1.475e+3, 1.45e+2, -1519000.0, -1519000.0, 0.0, 0.0, 0.0, -1519000.0, -1519000.0, 0.0, 10.0, 10.0 
1.475e+3, 1.55e+2, -1421000.0, -1421000.0, 0.0, 0.0, 0.0, -1421000.0, -1421000.0, 0.0, 10.0, 10.0 
1.475e+3, 1.65e+2, -1323000.0, -1323000.0, 0.0, 0.0, 0.0, -1323000.0, -1323000.0, 0.0, 10.0, 10.0 
1.475e+3, 1.75e+2, -1225000.0, -1225000.0, 0.0, 0.0, 0.0, -1225000.0, -1225000.0, 0.0, 10.0, 10.0 
1.475e+3, 1.85e+2, -1127000.0, -1127000.0, 0.0, 0.0, 0.0, -1127000.0, -1127000.0, 0.0, 10.0, 10.0 
1.475e+3, 1.95e+2, -1029000.0, -1029000.0, 0.0, 0.0, 0.0, -1029000.0, -1029000.0, 0.0, 10.0, 10.0 
1.475e+3, 2.05e+2, -931000.0, -931000.0, 0.0, 0.0, 0.0, -931000.0, -931000.0, 0.0, 10.0, 10.0 
1.475e+3, 2.15e+2, -833000.0, -833000.0, 0.0, 0.0, 0.0, -833000.0, -833000.0, 0.0, 10.0, 10.0 
1.475e+3, 2.25e+2, -735000.0, -735000.0, 0.0, 0.0, 0.0, -735000.0, -735000.0, 0.0, 10.0, 10.0 
1.475e+3, 2.35e+2, -637000.0, -637000.0, 0.0, 0.0, 0.0, -637000.0, -637000.0, 0.0, 10.0, 10.0 
1.475e+3, 2.45e+2, -539000.0, -539000.0, 0.0, 0.0, 0.0, -539000.0, -539000.0, 0.0, 10.0, 10.0 
1.475e+3, 2.55e+2, -441000.0, -441000.0, 0.0, 0.0, 0.0, -441000.0, -441000.0, 0.0, 10.0, 10.0 
1.475e+3, 2.65e+2, -343000.0, -343000.0, 0.0, 0.0, 0.0, -343000.0, -343000.0, 0.0, 10.0, 10.0 
1.475e+3, 2.75e+2, -245000.0, -245000.0, 0.0, 0.0, 0.0, -245000.0, -245000.0, 0.0, 10.0, 10.0 
1.475e+3, 2.85e+2, -147000.0, -147000.0, 0.0, 0.0, 0.0, -147000.0, -147000.0, 0.0, 10.0, 10.0 
1.475e+3, 2.95e+2, -49000.0, -49000.0, 0.0, 0.0, 0.0, -49000.0, -49000.0, 0.0, 10.0, 10.0 
1.475e+3, 3.05e+2, 0.0, 0.0, 0.0, 0.0, 0.0, 0.0, 0.0, 0.0, 10.0, 10.0 
1.475e+3, 3.15e+2, 0.0, 0.0, 0.0, 0.0, 0.0, 0.0, 0.0, 0.0, 10.0, 10.0 
1.485e+3, 1.25e+2, -1715000.0, -1715000.0, 0.0, 0.0, 0.0, -1715000.0, -1715000.0, 0.0, 10.0, 10.0 
1.485e+3, 1.35e+2, -1617000.0, -1617000.0, 0.0, 0.0, 0.0, -1617000.0, -1617000.0, 0.0, 10.0, 10.0 
1.485e+3, 1.45e+2, -1519000.0, -1519000.0, 0.0, 0.0, 0.0, -1519000.0, -1519000.0, 0.0, 10.0, 10.0 
1.485e+3, 1.55e+2, -1421000.0, -1421000.0, 0.0, 0.0, 0.0, -1421000.0, -1421000.0, 0.0, 10.0, 10.0 
1.485e+3, 1.65e+2, -1323000.0, -1323000.0, 0.0, 0.0, 0.0, -1323000.0, -1323000.0, 0.0, 10.0, 10.0 
1.485e+3, 1.75e+2, -1225000.0, -1225000.0, 0.0, 0.0, 0.0, -1225000.0, -1225000.0, 0.0, 10.0, 10.0 
1.485e+3, 1.85e+2, -1127000.0, -1127000.0, 0.0, 0.0, 0.0, -1127000.0, -1127000.0, 0.0, 10.0, 10.0 
1.485e+3, 1.95e+2, -1029000.0, -1029000.0, 0.0, 0.0, 0.0, -1029000.0, -1029000.0, 0.0, 10.0, 10.0 
1.485e+3, 2.05e+2, -931000.0, -931000.0, 0.0, 0.0, 0.0, -931000.0, -931000.0, 0.0, 10.0, 10.0 
1.485e+3, 2.15e+2, -833000.0, -833000.0, 0.0, 0.0, 0.0, -833000.0, -833000.0, 0.0, 10.0, 10.0 
1.485e+3, 2.25e+2, -735000.0, -735000.0, 0.0, 0.0, 0.0, -735000.0, -735000.0, 0.0, 10.0, 10.0 
1.485e+3, 2.35e+2, -637000.0, -637000.0, 0.0, 0.0, 0.0, -637000.0, -637000.0, 0.0, 10.0, 10.0 
1.485e+3, 2.45e+2, -539000.0, -539000.0, 0.0, 0.0, 0.0, -539000.0, -539000.0, 0.0, 10.0, 10.0 
1.485e+3, 2.55e+2, -441000.0, -441000.0, 0.0, 0.0, 0.0, -441000.0, -441000.0, 0.0, 10.0, 10.0 
1.485e+3, 2.65e+2, -343000.0, -343000.0, 0.0, 0.0, 0.0, -343000.0, -343000.0, 0.0, 10.0, 10.0 
1.485e+3, 2.75e+2, -245000.0, -245000.0, 0.0, 0.0, 0.0, -245000.0, -245000.0, 0.0, 10.0, 10.0 
1.485e+3, 2.85e+2, -147000.0, -147000.0, 0.0, 0.0, 0.0, -147000.0, -147000.0, 0.0, 10.0, 10.0 
1.485e+3, 2.95e+2, -49000.0, -49000.0, 0.0, 0.0, 0.0, -49000.0, -49000.0, 0.0, 10.0, 10.0 
1.485e+3, 3.05e+2, 0.0, 0.0, 0.0, 0.0, 0.0, 0.0, 0.0, 0.0, 10.0, 10.0 
1.485e+3, 3.15e+2, 0.0, 0.0, 0.0, 0.0, 0.0, 0.0, 0.0, 0.0, 10.0, 10.0 
1.495e+3, 1.25e+2, -1715000.0, -1715000.0, 0.0, 0.0, 0.0, -1715000.0, -1715000.0, 0.0, 10.0, 10.0 
1.495e+3, 1.35e+2, -1617000.0, -1617000.0, 0.0, 0.0, 0.0, -1617000.0, -1617000.0, 0.0, 10.0, 10.0 
1.495e+3, 1.45e+2, -1519000.0, -1519000.0, 0.0, 0.0, 0.0, -1519000.0, -1519000.0, 0.0, 10.0, 10.0 
1.495e+3, 1.55e+2, -1421000.0, -1421000.0, 0.0, 0.0, 0.0, -1421000.0, -1421000.0, 0.0, 10.0, 10.0 
1.495e+3, 1.65e+2, -1323000.0, -1323000.0, 0.0, 0.0, 0.0, -1323000.0, -1323000.0, 0.0, 10.0, 10.0 
1.495e+3, 1.75e+2, -1225000.0, -1225000.0, 0.0, 0.0, 0.0, -1225000.0, -1225000.0, 0.0, 10.0, 10.0 
1.495e+3, 1.85e+2, -1127000.0, -1127000.0, 0.0, 0.0, 0.0, -1127000.0, -1127000.0, 0.0, 10.0, 10.0 
1.495e+3, 1.95e+2, -1029000.0, -1029000.0, 0.0, 0.0, 0.0, -1029000.0, -1029000.0, 0.0, 10.0, 10.0 
1.495e+3, 2.05e+2, -931000.0, -931000.0, 0.0, 0.0, 0.0, -931000.0, -931000.0, 0.0, 10.0, 10.0 
1.495e+3, 2.15e+2, -833000.0, -833000.0, 0.0, 0.0, 0.0, -833000.0, -833000.0, 0.0, 10.0, 10.0 
1.495e+3, 2.25e+2, -735000.0, -735000.0, 0.0, 0.0, 0.0, -735000.0, -735000.0, 0.0, 10.0, 10.0 
1.495e+3, 2.35e+2, -637000.0, -637000.0, 0.0, 0.0, 0.0, -637000.0, -637000.0, 0.0, 10.0, 10.0 
1.495e+3, 2.45e+2, -539000.0, -539000.0, 0.0, 0.0, 0.0, -539000.0, -539000.0, 0.0, 10.0, 10.0 
1.495e+3, 2.55e+2, -441000.0, -441000.0, 0.0, 0.0, 0.0, -441000.0, -441000.0, 0.0, 10.0, 10.0 
1.495e+3, 2.65e+2, -343000.0, -343000.0, 0.0, 0.0, 0.0, -343000.0, -343000.0, 0.0, 10.0, 10.0 
1.495e+3, 2.75e+2, -245000.0, -245000.0, 0.0, 0.0, 0.0, -245000.0, -245000.0, 0.0, 10.0, 10.0 
1.495e+3, 2.85e+2, -147000.0, -147000.0, 0.0, 0.0, 0.0, -147000.0, -147000.0, 0.0, 10.0, 10.0 
1.495e+3, 2.95e+2, -49000.0, -49000.0, 0.0, 0.0, 0.0, -49000.0, -49000.0, 0.0, 10.0, 10.0 
1.495e+3, 3.05e+2, 0.0, 0.0, 0.0, 0.0, 0.0, 0.0, 0.0, 0.0, 10.0, 10.0 
1.495e+3, 3.15e+2, 0.0, 0.0, 0.0, 0.0, 0.0, 0.0, 0.0, 0.0, 10.0, 10.0 
1.505e+3, 1.25e+2, -1715000.0, -1715000.0, 0.0, 0.0, 0.0, -1715000.0, -1715000.0, 0.0, 10.0, 10.0 
1.505e+3, 1.35e+2, -1617000.0, -1617000.0, 0.0, 0.0, 0.0, -1617000.0, -1617000.0, 0.0, 10.0, 10.0 
1.505e+3, 1.45e+2, -1519000.0, -1519000.0, 0.0, 0.0, 0.0, -1519000.0, -1519000.0, 0.0, 10.0, 10.0 
1.505e+3, 1.55e+2, -1421000.0, -1421000.0, 0.0, 0.0, 0.0, -1421000.0, -1421000.0, 0.0, 10.0, 10.0 
1.505e+3, 1.65e+2, -1323000.0, -1323000.0, 0.0, 0.0, 0.0, -1323000.0, -1323000.0, 0.0, 10.0, 10.0 
1.505e+3, 1.75e+2, -1225000.0, -1225000.0, 0.0, 0.0, 0.0, -1225000.0, -1225000.0, 0.0, 10.0, 10.0 
1.505e+3, 1.85e+2, -1127000.0, -1127000.0, 0.0, 0.0, 0.0, -1127000.0, -1127000.0, 0.0, 10.0, 10.0 
1.505e+3, 1.95e+2, -1029000.0, -1029000.0, 0.0, 0.0, 0.0, -1029000.0, -1029000.0, 0.0, 10.0, 10.0 
1.505e+3, 2.05e+2, -931000.0, -931000.0, 0.0, 0.0, 0.0, -931000.0, -931000.0, 0.0, 10.0, 10.0 
1.505e+3, 2.15e+2, -833000.0, -833000.0, 0.0, 0.0, 0.0, -833000.0, -833000.0, 0.0, 10.0, 10.0 
1.505e+3, 2.25e+2, -735000.0, -735000.0, 0.0, 0.0, 0.0, -735000.0, -735000.0, 0.0, 10.0, 10.0 
1.505e+3, 2.35e+2, -637000.0, -637000.0, 0.0, 0.0, 0.0, -637000.0, -637000.0, 0.0, 10.0, 10.0 
1.505e+3, 2.45e+2, -539000.0, -539000.0, 0.0, 0.0, 0.0, -539000.0, -539000.0, 0.0, 10.0, 10.0 
1.505e+3, 2.55e+2, -441000.0, -441000.0, 0.0, 0.0, 0.0, -441000.0, -441000.0, 0.0, 10.0, 10.0 
1.505e+3, 2.65e+2, -343000.0, -343000.0, 0.0, 0.0, 0.0, -343000.0, -343000.0, 0.0, 10.0, 10.0 
1.505e+3, 2.75e+2, -245000.0, -245000.0, 0.0, 0.0, 0.0, -245000.0, -245000.0, 0.0, 10.0, 10.0 
1.505e+3, 2.85e+2, -147000.0, -147000.0, 0.0, 0.0, 0.0, -147000.0, -147000.0, 0.0, 10.0, 10.0 
1.505e+3, 2.95e+2, -49000.0, -49000.0, 0.0, 0.0, 0.0, -49000.0, -49000.0, 0.0, 10.0, 10.0 
1.505e+3, 3.05e+2, 0.0, 0.0, 0.0, 0.0, 0.0, 0.0, 0.0, 0.0, 10.0, 10.0 
1.505e+3, 3.15e+2, 0.0, 0.0, 0.0, 0.0, 0.0, 0.0, 0.0, 0.0, 10.0, 10.0 
1.515e+3, 1.25e+2, -1715000.0, -1715000.0, 0.0, 0.0, 0.0, -1715000.0, -1715000.0, 0.0, 10.0, 10.0 
1.515e+3, 1.35e+2, -1617000.0, -1617000.0, 0.0, 0.0, 0.0, -1617000.0, -1617000.0, 0.0, 10.0, 10.0 
1.515e+3, 1.45e+2, -1519000.0, -1519000.0, 0.0, 0.0, 0.0, -1519000.0, -1519000.0, 0.0, 10.0, 10.0 
1.515e+3, 1.55e+2, -1421000.0, -1421000.0, 0.0, 0.0, 0.0, -1421000.0, -1421000.0, 0.0, 10.0, 10.0 
1.515e+3, 1.65e+2, -1323000.0, -1323000.0, 0.0, 0.0, 0.0, -1323000.0, -1323000.0, 0.0, 10.0, 10.0 
1.515e+3, 1.75e+2, -1225000.0, -1225000.0, 0.0, 0.0, 0.0, -1225000.0, -1225000.0, 0.0, 10.0, 10.0 
1.515e+3, 1.85e+2, -1127000.0, -1127000.0, 0.0, 0.0, 0.0, -1127000.0, -1127000.0, 0.0, 10.0, 10.0 
1.515e+3, 1.95e+2, -1029000.0, -1029000.0, 0.0, 0.0, 0.0, -1029000.0, -1029000.0, 0.0, 10.0, 10.0 
1.515e+3, 2.05e+2, -931000.0, -931000.0, 0.0, 0.0, 0.0, -931000.0, -931000.0, 0.0, 10.0, 10.0 
1.515e+3, 2.15e+2, -833000.0, -833000.0, 0.0, 0.0, 0.0, -833000.0, -833000.0, 0.0, 10.0, 10.0 
1.515e+3, 2.25e+2, -735000.0, -735000.0, 0.0, 0.0, 0.0, -735000.0, -735000.0, 0.0, 10.0, 10.0 
1.515e+3, 2.35e+2, -637000.0, -637000.0, 0.0, 0.0, 0.0, -637000.0, -637000.0, 0.0, 10.0, 10.0 
1.515e+3, 2.45e+2, -539000.0, -539000.0, 0.0, 0.0, 0.0, -539000.0, -539000.0, 0.0, 10.0, 10.0 
1.515e+3, 2.55e+2, -441000.0, -441000.0, 0.0, 0.0, 0.0, -441000.0, -441000.0, 0.0, 10.0, 10.0 
1.515e+3, 2.65e+2, -343000.0, -343000.0, 0.0, 0.0, 0.0, -343000.0, -343000.0, 0.0, 10.0, 10.0 
1.515e+3, 2.75e+2, -245000.0, -245000.0, 0.0, 0.0, 0.0, -245000.0, -245000.0, 0.0, 10.0, 10.0 
1.515e+3, 2.85e+2, -147000.0, -147000.0, 0.0, 0.0, 0.0, -147000.0, -147000.0, 0.0, 10.0, 10.0 
1.515e+3, 2.95e+2, -49000.0, -49000.0, 0.0, 0.0, 0.0, -49000.0, -49000.0, 0.0, 10.0, 10.0 
1.515e+3, 3.05e+2, 0.0, 0.0, 0.0, 0.0, 0.0, 0.0, 0.0, 0.0, 10.0, 10.0 
1.515e+3, 3.15e+2, 0.0, 0.0, 0.0, 0.0, 0.0, 0.0, 0.0, 0.0, 10.0, 10.0 
1.525e+3, 1.25e+2, -1715000.0, -1715000.0, 0.0, 0.0, 0.0, -1715000.0, -1715000.0, 0.0, 10.0, 10.0 
1.525e+3, 1.35e+2, -1617000.0, -1617000.0, 0.0, 0.0, 0.0, -1617000.0, -1617000.0, 0.0, 10.0, 10.0 
1.525e+3, 1.45e+2, -1519000.0, -1519000.0, 0.0, 0.0, 0.0, -1519000.0, -1519000.0, 0.0, 10.0, 10.0 
1.525e+3, 1.55e+2, -1421000.0, -1421000.0, 0.0, 0.0, 0.0, -1421000.0, -1421000.0, 0.0, 10.0, 10.0 
1.525e+3, 1.65e+2, -1323000.0, -1323000.0, 0.0, 0.0, 0.0, -1323000.0, -1323000.0, 0.0, 10.0, 10.0 
1.525e+3, 1.75e+2, -1225000.0, -1225000.0, 0.0, 0.0, 0.0, -1225000.0, -1225000.0, 0.0, 10.0, 10.0 
1.525e+3, 1.85e+2, -1127000.0, -1127000.0, 0.0, 0.0, 0.0, -1127000.0, -1127000.0, 0.0, 10.0, 10.0 
1.525e+3, 1.95e+2, -1029000.0, -1029000.0, 0.0, 0.0, 0.0, -1029000.0, -1029000.0, 0.0, 10.0, 10.0 
1.525e+3, 2.05e+2, -931000.0, -931000.0, 0.0, 0.0, 0.0, -931000.0, -931000.0, 0.0, 10.0, 10.0 
1.525e+3, 2.15e+2, -833000.0, -833000.0, 0.0, 0.0, 0.0, -833000.0, -833000.0, 0.0, 10.0, 10.0 
1.525e+3, 2.25e+2, -735000.0, -735000.0, 0.0, 0.0, 0.0, -735000.0, -735000.0, 0.0, 10.0, 10.0 
1.525e+3, 2.35e+2, -637000.0, -637000.0, 0.0, 0.0, 0.0, -637000.0, -637000.0, 0.0, 10.0, 10.0 
1.525e+3, 2.45e+2, -539000.0, -539000.0, 0.0, 0.0, 0.0, -539000.0, -539000.0, 0.0, 10.0, 10.0 
1.525e+3, 2.55e+2, -441000.0, -441000.0, 0.0, 0.0, 0.0, -441000.0, -441000.0, 0.0, 10.0, 10.0 
1.525e+3, 2.65e+2, -343000.0, -343000.0, 0.0, 0.0, 0.0, -343000.0, -343000.0, 0.0, 10.0, 10.0 
1.525e+3, 2.75e+2, -245000.0, -245000.0, 0.0, 0.0, 0.0, -245000.0, -245000.0, 0.0, 10.0, 10.0 
1.525e+3, 2.85e+2, -147000.0, -147000.0, 0.0, 0.0, 0.0, -147000.0, -147000.0, 0.0, 10.0, 10.0 
1.525e+3, 2.95e+2, -49000.0, -49000.0, 0.0, 0.0, 0.0, -49000.0, -49000.0, 0.0, 10.0, 10.0 
1.525e+3, 3.05e+2, 0.0, 0.0, 0.0, 0.0, 0.0, 0.0, 0.0, 0.0, 10.0, 10.0 
1.525e+3, 3.15e+2, 0.0, 0.0, 0.0, 0.0, 0.0, 0.0, 0.0, 0.0, 10.0, 10.0 
1.535e+3, 1.25e+2, -1715000.0, -1715000.0, 0.0, 0.0, 0.0, -1715000.0, -1715000.0, 0.0, 10.0, 10.0 
1.535e+3, 1.35e+2, -1617000.0, -1617000.0, 0.0, 0.0, 0.0, -1617000.0, -1617000.0, 0.0, 10.0, 10.0 
1.535e+3, 1.45e+2, -1519000.0, -1519000.0, 0.0, 0.0, 0.0, -1519000.0, -1519000.0, 0.0, 10.0, 10.0 
1.535e+3, 1.55e+2, -1421000.0, -1421000.0, 0.0, 0.0, 0.0, -1421000.0, -1421000.0, 0.0, 10.0, 10.0 
1.535e+3, 1.65e+2, -1323000.0, -1323000.0, 0.0, 0.0, 0.0, -1323000.0, -1323000.0, 0.0, 10.0, 10.0 
1.535e+3, 1.75e+2, -1225000.0, -1225000.0, 0.0, 0.0, 0.0, -1225000.0, -1225000.0, 0.0, 10.0, 10.0 
1.535e+3, 1.85e+2, -1127000.0, -1127000.0, 0.0, 0.0, 0.0, -1127000.0, -1127000.0, 0.0, 10.0, 10.0 
1.535e+3, 1.95e+2, -1029000.0, -1029000.0, 0.0, 0.0, 0.0, -1029000.0, -1029000.0, 0.0, 10.0, 10.0 
1.535e+3, 2.05e+2, -931000.0, -931000.0, 0.0, 0.0, 0.0, -931000.0, -931000.0, 0.0, 10.0, 10.0 
1.535e+3, 2.15e+2, -833000.0, -833000.0, 0.0, 0.0, 0.0, -833000.0, -833000.0, 0.0, 10.0, 10.0 
1.535e+3, 2.25e+2, -735000.0, -735000.0, 0.0, 0.0, 0.0, -735000.0, -735000.0, 0.0, 10.0, 10.0 
1.535e+3, 2.35e+2, -637000.0, -637000.0, 0.0, 0.0, 0.0, -637000.0, -637000.0, 0.0, 10.0, 10.0 
1.535e+3, 2.45e+2, -539000.0, -539000.0, 0.0, 0.0, 0.0, -539000.0, -539000.0, 0.0, 10.0, 10.0 
1.535e+3, 2.55e+2, -441000.0, -441000.0, 0.0, 0.0, 0.0, -441000.0, -441000.0, 0.0, 10.0, 10.0 
1.535e+3, 2.65e+2, -343000.0, -343000.0, 0.0, 0.0, 0.0, -343000.0, -343000.0, 0.0, 10.0, 10.0 
1.535e+3, 2.75e+2, -245000.0, -245000.0, 0.0, 0.0, 0.0, -245000.0, -245000.0, 0.0, 10.0, 10.0 
1.535e+3, 2.85e+2, -147000.0, -147000.0, 0.0, 0.0, 0.0, -147000.0, -147000.0, 0.0, 10.0, 10.0 
1.535e+3, 2.95e+2, -49000.0, -49000.0, 0.0, 0.0, 0.0, -49000.0, -49000.0, 0.0, 10.0, 10.0 
1.535e+3, 3.05e+2, 0.0, 0.0, 0.0, 0.0, 0.0, 0.0, 0.0, 0.0, 10.0, 10.0 
1.535e+3, 3.15e+2, 0.0, 0.0, 0.0, 0.0, 0.0, 0.0, 0.0, 0.0, 10.0, 10.0 
1.545e+3, 1.25e+2, -1715000.0, -1715000.0, 0.0, 0.0, 0.0, -1715000.0, -1715000.0, 0.0, 10.0, 10.0 
1.545e+3, 1.35e+2, -1617000.0, -1617000.0, 0.0, 0.0, 0.0, -1617000.0, -1617000.0, 0.0, 10.0, 10.0 
1.545e+3, 1.45e+2, -1519000.0, -1519000.0, 0.0, 0.0, 0.0, -1519000.0, -1519000.0, 0.0, 10.0, 10.0 
1.545e+3, 1.55e+2, -1421000.0, -1421000.0, 0.0, 0.0, 0.0, -1421000.0, -1421000.0, 0.0, 10.0, 10.0 
1.545e+3, 1.65e+2, -1323000.0, -1323000.0, 0.0, 0.0, 0.0, -1323000.0, -1323000.0, 0.0, 10.0, 10.0 
1.545e+3, 1.75e+2, -1225000.0, -1225000.0, 0.0, 0.0, 0.0, -1225000.0, -1225000.0, 0.0, 10.0, 10.0 
1.545e+3, 1.85e+2, -1127000.0, -1127000.0, 0.0, 0.0, 0.0, -1127000.0, -1127000.0, 0.0, 10.0, 10.0 
1.545e+3, 1.95e+2, -1029000.0, -1029000.0, 0.0, 0.0, 0.0, -1029000.0, -1029000.0, 0.0, 10.0, 10.0 
1.545e+3, 2.05e+2, -931000.0, -931000.0, 0.0, 0.0, 0.0, -931000.0, -931000.0, 0.0, 10.0, 10.0 
1.545e+3, 2.15e+2, -833000.0, -833000.0, 0.0, 0.0, 0.0, -833000.0, -833000.0, 0.0, 10.0, 10.0 
1.545e+3, 2.25e+2, -735000.0, -735000.0, 0.0, 0.0, 0.0, -735000.0, -735000.0, 0.0, 10.0, 10.0 
1.545e+3, 2.35e+2, -637000.0, -637000.0, 0.0, 0.0, 0.0, -637000.0, -637000.0, 0.0, 10.0, 10.0 
1.545e+3, 2.45e+2, -539000.0, -539000.0, 0.0, 0.0, 0.0, -539000.0, -539000.0, 0.0, 10.0, 10.0 
1.545e+3, 2.55e+2, -441000.0, -441000.0, 0.0, 0.0, 0.0, -441000.0, -441000.0, 0.0, 10.0, 10.0 
1.545e+3, 2.65e+2, -343000.0, -343000.0, 0.0, 0.0, 0.0, -343000.0, -343000.0, 0.0, 10.0, 10.0 
1.545e+3, 2.75e+2, -245000.0, -245000.0, 0.0, 0.0, 0.0, -245000.0, -245000.0, 0.0, 10.0, 10.0 
1.545e+3, 2.85e+2, -147000.0, -147000.0, 0.0, 0.0, 0.0, -147000.0, -147000.0, 0.0, 10.0, 10.0 
1.545e+3, 2.95e+2, -49000.0, -49000.0, 0.0, 0.0, 0.0, -49000.0, -49000.0, 0.0, 10.0, 10.0 
1.545e+3, 3.05e+2, 0.0, 0.0, 0.0, 0.0, 0.0, 0.0, 0.0, 0.0, 10.0, 10.0 
1.545e+3, 3.15e+2, 0.0, 0.0, 0.0, 0.0, 0.0, 0.0, 0.0, 0.0, 10.0, 10.0 
1.555e+3, 1.25e+2, -1715000.0, -1715000.0, 0.0, 0.0, 0.0, -1715000.0, -1715000.0, 0.0, 10.0, 10.0 
1.555e+3, 1.35e+2, -1617000.0, -1617000.0, 0.0, 0.0, 0.0, -1617000.0, -1617000.0, 0.0, 10.0, 10.0 
1.555e+3, 1.45e+2, -1519000.0, -1519000.0, 0.0, 0.0, 0.0, -1519000.0, -1519000.0, 0.0, 10.0, 10.0 
1.555e+3, 1.55e+2, -1421000.0, -1421000.0, 0.0, 0.0, 0.0, -1421000.0, -1421000.0, 0.0, 10.0, 10.0 
1.555e+3, 1.65e+2, -1323000.0, -1323000.0, 0.0, 0.0, 0.0, -1323000.0, -1323000.0, 0.0, 10.0, 10.0 
1.555e+3, 1.75e+2, -1225000.0, -1225000.0, 0.0, 0.0, 0.0, -1225000.0, -1225000.0, 0.0, 10.0, 10.0 
1.555e+3, 1.85e+2, -1127000.0, -1127000.0, 0.0, 0.0, 0.0, -1127000.0, -1127000.0, 0.0, 10.0, 10.0 
1.555e+3, 1.95e+2, -1029000.0, -1029000.0, 0.0, 0.0, 0.0, -1029000.0, -1029000.0, 0.0, 10.0, 10.0 
1.555e+3, 2.05e+2, -931000.0, -931000.0, 0.0, 0.0, 0.0, -931000.0, -931000.0, 0.0, 10.0, 10.0 
1.555e+3, 2.15e+2, -833000.0, -833000.0, 0.0, 0.0, 0.0, -833000.0, -833000.0, 0.0, 10.0, 10.0 
1.555e+3, 2.25e+2, -735000.0, -735000.0, 0.0, 0.0, 0.0, -735000.0, -735000.0, 0.0, 10.0, 10.0 
1.555e+3, 2.35e+2, -637000.0, -637000.0, 0.0, 0.0, 0.0, -637000.0, -637000.0, 0.0, 10.0, 10.0 
1.555e+3, 2.45e+2, -539000.0, -539000.0, 0.0, 0.0, 0.0, -539000.0, -539000.0, 0.0, 10.0, 10.0 
1.555e+3, 2.55e+2, -441000.0, -441000.0, 0.0, 0.0, 0.0, -441000.0, -441000.0, 0.0, 10.0, 10.0 
1.555e+3, 2.65e+2, -343000.0, -343000.0, 0.0, 0.0, 0.0, -343000.0, -343000.0, 0.0, 10.0, 10.0 
1.555e+3, 2.75e+2, -245000.0, -245000.0, 0.0, 0.0, 0.0, -245000.0, -245000.0, 0.0, 10.0, 10.0 
1.555e+3, 2.85e+2, -147000.0, -147000.0, 0.0, 0.0, 0.0, -147000.0, -147000.0, 0.0, 10.0, 10.0 
1.555e+3, 2.95e+2, -49000.0, -49000.0, 0.0, 0.0, 0.0, -49000.0, -49000.0, 0.0, 10.0, 10.0 
1.555e+3, 3.05e+2, 0.0, 0.0, 0.0, 0.0, 0.0, 0.0, 0.0, 0.0, 10.0, 10.0 
1.555e+3, 3.15e+2, 0.0, 0.0, 0.0, 0.0, 0.0, 0.0, 0.0, 0.0, 10.0, 10.0 
1.565e+3, 1.25e+2, -1715000.0, -1715000.0, 0.0, 0.0, 0.0, -1715000.0, -1715000.0, 0.0, 10.0, 10.0 
1.565e+3, 1.35e+2, -1617000.0, -1617000.0, 0.0, 0.0, 0.0, -1617000.0, -1617000.0, 0.0, 10.0, 10.0 
1.565e+3, 1.45e+2, -1519000.0, -1519000.0, 0.0, 0.0, 0.0, -1519000.0, -1519000.0, 0.0, 10.0, 10.0 
1.565e+3, 1.55e+2, -1421000.0, -1421000.0, 0.0, 0.0, 0.0, -1421000.0, -1421000.0, 0.0, 10.0, 10.0 
1.565e+3, 1.65e+2, -1323000.0, -1323000.0, 0.0, 0.0, 0.0, -1323000.0, -1323000.0, 0.0, 10.0, 10.0 
1.565e+3, 1.75e+2, -1225000.0, -1225000.0, 0.0, 0.0, 0.0, -1225000.0, -1225000.0, 0.0, 10.0, 10.0 
1.565e+3, 1.85e+2, -1127000.0, -1127000.0, 0.0, 0.0, 0.0, -1127000.0, -1127000.0, 0.0, 10.0, 10.0 
1.565e+3, 1.95e+2, -1029000.0, -1029000.0, 0.0, 0.0, 0.0, -1029000.0, -1029000.0, 0.0, 10.0, 10.0 
1.565e+3, 2.05e+2, -931000.0, -931000.0, 0.0, 0.0, 0.0, -931000.0, -931000.0, 0.0, 10.0, 10.0 
1.565e+3, 2.15e+2, -833000.0, -833000.0, 0.0, 0.0, 0.0, -833000.0, -833000.0, 0.0, 10.0, 10.0 
1.565e+3, 2.25e+2, -735000.0, -735000.0, 0.0, 0.0, 0.0, -735000.0, -735000.0, 0.0, 10.0, 10.0 
1.565e+3, 2.35e+2, -637000.0, -637000.0, 0.0, 0.0, 0.0, -637000.0, -637000.0, 0.0, 10.0, 10.0 
1.565e+3, 2.45e+2, -539000.0, -539000.0, 0.0, 0.0, 0.0, -539000.0, -539000.0, 0.0, 10.0, 10.0 
1.565e+3, 2.55e+2, -441000.0, -441000.0, 0.0, 0.0, 0.0, -441000.0, -441000.0, 0.0, 10.0, 10.0 
1.565e+3, 2.65e+2, -343000.0, -343000.0, 0.0, 0.0, 0.0, -343000.0, -343000.0, 0.0, 10.0, 10.0 
1.565e+3, 2.75e+2, -245000.0, -245000.0, 0.0, 0.0, 0.0, -245000.0, -245000.0, 0.0, 10.0, 10.0 
1.565e+3, 2.85e+2, -147000.0, -147000.0, 0.0, 0.0, 0.0, -147000.0, -147000.0, 0.0, 10.0, 10.0 
1.565e+3, 2.95e+2, -49000.0, -49000.0, 0.0, 0.0, 0.0, -49000.0, -49000.0, 0.0, 10.0, 10.0 
1.565e+3, 3.05e+2, 0.0, 0.0, 0.0, 0.0, 0.0, 0.0, 0.0, 0.0, 10.0, 10.0 
1.565e+3, 3.15e+2, 0.0, 0.0, 0.0, 0.0, 0.0, 0.0, 0.0, 0.0, 10.0, 10.0 
1.575e+3, 1.25e+2, -1715000.0, -1715000.0, 0.0, 0.0, 0.0, -1715000.0, -1715000.0, 0.0, 10.0, 10.0 
1.575e+3, 1.35e+2, -1617000.0, -1617000.0, 0.0, 0.0, 0.0, -1617000.0, -1617000.0, 0.0, 10.0, 10.0 
1.575e+3, 1.45e+2, -1519000.0, -1519000.0, 0.0, 0.0, 0.0, -1519000.0, -1519000.0, 0.0, 10.0, 10.0 
1.575e+3, 1.55e+2, -1421000.0, -1421000.0, 0.0, 0.0, 0.0, -1421000.0, -1421000.0, 0.0, 10.0, 10.0 
1.575e+3, 1.65e+2, -1323000.0, -1323000.0, 0.0, 0.0, 0.0, -1323000.0, -1323000.0, 0.0, 10.0, 10.0 
1.575e+3, 1.75e+2, -1225000.0, -1225000.0, 0.0, 0.0, 0.0, -1225000.0, -1225000.0, 0.0, 10.0, 10.0 
1.575e+3, 1.85e+2, -1127000.0, -1127000.0, 0.0, 0.0, 0.0, -1127000.0, -1127000.0, 0.0, 10.0, 10.0 
1.575e+3, 1.95e+2, -1029000.0, -1029000.0, 0.0, 0.0, 0.0, -1029000.0, -1029000.0, 0.0, 10.0, 10.0 
1.575e+3, 2.05e+2, -931000.0, -931000.0, 0.0, 0.0, 0.0, -931000.0, -931000.0, 0.0, 10.0, 10.0 
1.575e+3, 2.15e+2, -833000.0, -833000.0, 0.0, 0.0, 0.0, -833000.0, -833000.0, 0.0, 10.0, 10.0 
1.575e+3, 2.25e+2, -735000.0, -735000.0, 0.0, 0.0, 0.0, -735000.0, -735000.0, 0.0, 10.0, 10.0 
1.575e+3, 2.35e+2, -637000.0, -637000.0, 0.0, 0.0, 0.0, -637000.0, -637000.0, 0.0, 10.0, 10.0 
1.575e+3, 2.45e+2, -539000.0, -539000.0, 0.0, 0.0, 0.0, -539000.0, -539000.0, 0.0, 10.0, 10.0 
1.575e+3, 2.55e+2, -441000.0, -441000.0, 0.0, 0.0, 0.0, -441000.0, -441000.0, 0.0, 10.0, 10.0 
1.575e+3, 2.65e+2, -343000.0, -343000.0, 0.0, 0.0, 0.0, -343000.0, -343000.0, 0.0, 10.0, 10.0 
1.575e+3, 2.75e+2, -245000.0, -245000.0, 0.0, 0.0, 0.0, -245000.0, -245000.0, 0.0, 10.0, 10.0 
1.575e+3, 2.85e+2, -147000.0, -147000.0, 0.0, 0.0, 0.0, -147000.0, -147000.0, 0.0, 10.0, 10.0 
1.575e+3, 2.95e+2, -49000.0, -49000.0, 0.0, 0.0, 0.0, -49000.0, -49000.0, 0.0, 10.0, 10.0 
1.575e+3, 3.05e+2, 0.0, 0.0, 0.0, 0.0, 0.0, 0.0, 0.0, 0.0, 10.0, 10.0 
1.575e+3, 3.15e+2, 0.0, 0.0, 0.0, 0.0, 0.0, 0.0, 0.0, 0.0, 10.0, 10.0 
1.585e+3, 1.25e+2, -1715000.0, -1715000.0, 0.0, 0.0, 0.0, -1715000.0, -1715000.0, 0.0, 10.0, 10.0 
1.585e+3, 1.35e+2, -1617000.0, -1617000.0, 0.0, 0.0, 0.0, -1617000.0, -1617000.0, 0.0, 10.0, 10.0 
1.585e+3, 1.45e+2, -1519000.0, -1519000.0, 0.0, 0.0, 0.0, -1519000.0, -1519000.0, 0.0, 10.0, 10.0 
1.585e+3, 1.55e+2, -1421000.0, -1421000.0, 0.0, 0.0, 0.0, -1421000.0, -1421000.0, 0.0, 10.0, 10.0 
1.585e+3, 1.65e+2, -1323000.0, -1323000.0, 0.0, 0.0, 0.0, -1323000.0, -1323000.0, 0.0, 10.0, 10.0 
1.585e+3, 1.75e+2, -1225000.0, -1225000.0, 0.0, 0.0, 0.0, -1225000.0, -1225000.0, 0.0, 10.0, 10.0 
1.585e+3, 1.85e+2, -1127000.0, -1127000.0, 0.0, 0.0, 0.0, -1127000.0, -1127000.0, 0.0, 10.0, 10.0 
1.585e+3, 1.95e+2, -1029000.0, -1029000.0, 0.0, 0.0, 0.0, -1029000.0, -1029000.0, 0.0, 10.0, 10.0 
1.585e+3, 2.05e+2, -931000.0, -931000.0, 0.0, 0.0, 0.0, -931000.0, -931000.0, 0.0, 10.0, 10.0 
1.585e+3, 2.15e+2, -833000.0, -833000.0, 0.0, 0.0, 0.0, -833000.0, -833000.0, 0.0, 10.0, 10.0 
1.585e+3, 2.25e+2, -735000.0, -735000.0, 0.0, 0.0, 0.0, -735000.0, -735000.0, 0.0, 10.0, 10.0 
1.585e+3, 2.35e+2, -637000.0, -637000.0, 0.0, 0.0, 0.0, -637000.0, -637000.0, 0.0, 10.0, 10.0 
1.585e+3, 2.45e+2, -539000.0, -539000.0, 0.0, 0.0, 0.0, -539000.0, -539000.0, 0.0, 10.0, 10.0 
1.585e+3, 2.55e+2, -441000.0, -441000.0, 0.0, 0.0, 0.0, -441000.0, -441000.0, 0.0, 10.0, 10.0 
1.585e+3, 2.65e+2, -343000.0, -343000.0, 0.0, 0.0, 0.0, -343000.0, -343000.0, 0.0, 10.0, 10.0 
1.585e+3, 2.75e+2, -245000.0, -245000.0, 0.0, 0.0, 0.0, -245000.0, -245000.0, 0.0, 10.0, 10.0 
1.585e+3, 2.85e+2, -147000.0, -147000.0, 0.0, 0.0, 0.0, -147000.0, -147000.0, 0.0, 10.0, 10.0 
1.585e+3, 2.95e+2, -49000.0, -49000.0, 0.0, 0.0, 0.0, -49000.0, -49000.0, 0.0, 10.0, 10.0 
1.585e+3, 3.05e+2, 0.0, 0.0, 0.0, 0.0, 0.0, 0.0, 0.0, 0.0, 10.0, 10.0 
1.585e+3, 3.15e+2, 0.0, 0.0, 0.0, 0.0, 0.0, 0.0, 0.0, 0.0, 10.0, 10.0 
1.595e+3, 1.25e+2, -1715000.0, -1715000.0, 0.0, 0.0, 0.0, -1715000.0, -1715000.0, 0.0, 10.0, 10.0 
1.595e+3, 1.35e+2, -1617000.0, -1617000.0, 0.0, 0.0, 0.0, -1617000.0, -1617000.0, 0.0, 10.0, 10.0 
1.595e+3, 1.45e+2, -1519000.0, -1519000.0, 0.0, 0.0, 0.0, -1519000.0, -1519000.0, 0.0, 10.0, 10.0 
1.595e+3, 1.55e+2, -1421000.0, -1421000.0, 0.0, 0.0, 0.0, -1421000.0, -1421000.0, 0.0, 10.0, 10.0 
1.595e+3, 1.65e+2, -1323000.0, -1323000.0, 0.0, 0.0, 0.0, -1323000.0, -1323000.0, 0.0, 10.0, 10.0 
1.595e+3, 1.75e+2, -1225000.0, -1225000.0, 0.0, 0.0, 0.0, -1225000.0, -1225000.0, 0.0, 10.0, 10.0 
1.595e+3, 1.85e+2, -1127000.0, -1127000.0, 0.0, 0.0, 0.0, -1127000.0, -1127000.0, 0.0, 10.0, 10.0 
1.595e+3, 1.95e+2, -1029000.0, -1029000.0, 0.0, 0.0, 0.0, -1029000.0, -1029000.0, 0.0, 10.0, 10.0 
1.595e+3, 2.05e+2, -931000.0, -931000.0, 0.0, 0.0, 0.0, -931000.0, -931000.0, 0.0, 10.0, 10.0 
1.595e+3, 2.15e+2, -833000.0, -833000.0, 0.0, 0.0, 0.0, -833000.0, -833000.0, 0.0, 10.0, 10.0 
1.595e+3, 2.25e+2, -735000.0, -735000.0, 0.0, 0.0, 0.0, -735000.0, -735000.0, 0.0, 10.0, 10.0 
1.595e+3, 2.35e+2, -637000.0, -637000.0, 0.0, 0.0, 0.0, -637000.0, -637000.0, 0.0, 10.0, 10.0 
1.595e+3, 2.45e+2, -539000.0, -539000.0, 0.0, 0.0, 0.0, -539000.0, -539000.0, 0.0, 10.0, 10.0 
1.595e+3, 2.55e+2, -441000.0, -441000.0, 0.0, 0.0, 0.0, -441000.0, -441000.0, 0.0, 10.0, 10.0 
1.595e+3, 2.65e+2, -343000.0, -343000.0, 0.0, 0.0, 0.0, -343000.0, -343000.0, 0.0, 10.0, 10.0 
1.595e+3, 2.75e+2, -245000.0, -245000.0, 0.0, 0.0, 0.0, -245000.0, -245000.0, 0.0, 10.0, 10.0 
1.595e+3, 2.85e+2, -147000.0, -147000.0, 0.0, 0.0, 0.0, -147000.0, -147000.0, 0.0, 10.0, 10.0 
1.595e+3, 2.95e+2, -49000.0, -49000.0, 0.0, 0.0, 0.0, -49000.0, -49000.0, 0.0, 10.0, 10.0 
1.595e+3, 3.05e+2, 0.0, 0.0, 0.0, 0.0, 0.0, 0.0, 0.0, 0.0, 10.0, 10.0 
1.595e+3, 3.15e+2, 0.0, 0.0, 0.0, 0.0, 0.0, 0.0, 0.0, 0.0, 10.0, 10.0 
1.605e+3, 1.25e+2, -1715000.0, -1715000.0, 0.0, 0.0, 0.0, -1715000.0, -1715000.0, 0.0, 10.0, 10.0 
1.605e+3, 1.35e+2, -1617000.0, -1617000.0, 0.0, 0.0, 0.0, -1617000.0, -1617000.0, 0.0, 10.0, 10.0 
1.605e+3, 1.45e+2, -1519000.0, -1519000.0, 0.0, 0.0, 0.0, -1519000.0, -1519000.0, 0.0, 10.0, 10.0 
1.605e+3, 1.55e+2, -1421000.0, -1421000.0, 0.0, 0.0, 0.0, -1421000.0, -1421000.0, 0.0, 10.0, 10.0 
1.605e+3, 1.65e+2, -1323000.0, -1323000.0, 0.0, 0.0, 0.0, -1323000.0, -1323000.0, 0.0, 10.0, 10.0 
1.605e+3, 1.75e+2, -1225000.0, -1225000.0, 0.0, 0.0, 0.0, -1225000.0, -1225000.0, 0.0, 10.0, 10.0 
1.605e+3, 1.85e+2, -1127000.0, -1127000.0, 0.0, 0.0, 0.0, -1127000.0, -1127000.0, 0.0, 10.0, 10.0 
1.605e+3, 1.95e+2, -1029000.0, -1029000.0, 0.0, 0.0, 0.0, -1029000.0, -1029000.0, 0.0, 10.0, 10.0 
1.605e+3, 2.05e+2, -931000.0, -931000.0, 0.0, 0.0, 0.0, -931000.0, -931000.0, 0.0, 10.0, 10.0 
1.605e+3, 2.15e+2, -833000.0, -833000.0, 0.0, 0.0, 0.0, -833000.0, -833000.0, 0.0, 10.0, 10.0 
1.605e+3, 2.25e+2, -735000.0, -735000.0, 0.0, 0.0, 0.0, -735000.0, -735000.0, 0.0, 10.0, 10.0 
1.605e+3, 2.35e+2, -637000.0, -637000.0, 0.0, 0.0, 0.0, -637000.0, -637000.0, 0.0, 10.0, 10.0 
1.605e+3, 2.45e+2, -539000.0, -539000.0, 0.0, 0.0, 0.0, -539000.0, -539000.0, 0.0, 10.0, 10.0 
1.605e+3, 2.55e+2, -441000.0, -441000.0, 0.0, 0.0, 0.0, -441000.0, -441000.0, 0.0, 10.0, 10.0 
1.605e+3, 2.65e+2, -343000.0, -343000.0, 0.0, 0.0, 0.0, -343000.0, -343000.0, 0.0, 10.0, 10.0 
1.605e+3, 2.75e+2, -245000.0, -245000.0, 0.0, 0.0, 0.0, -245000.0, -245000.0, 0.0, 10.0, 10.0 
1.605e+3, 2.85e+2, -147000.0, -147000.0, 0.0, 0.0, 0.0, -147000.0, -147000.0, 0.0, 10.0, 10.0 
1.605e+3, 2.95e+2, -49000.0, -49000.0, 0.0, 0.0, 0.0, -49000.0, -49000.0, 0.0, 10.0, 10.0 
1.605e+3, 3.05e+2, 0.0, 0.0, 0.0, 0.0, 0.0, 0.0, 0.0, 0.0, 10.0, 10.0 
1.605e+3, 3.15e+2, 0.0, 0.0, 0.0, 0.0, 0.0, 0.0, 0.0, 0.0, 10.0, 10.0 
1.615e+3, 1.25e+2, -1715000.0, -1715000.0, 0.0, 0.0, 0.0, -1715000.0, -1715000.0, 0.0, 10.0, 10.0 
1.615e+3, 1.35e+2, -1617000.0, -1617000.0, 0.0, 0.0, 0.0, -1617000.0, -1617000.0, 0.0, 10.0, 10.0 
1.615e+3, 1.45e+2, -1519000.0, -1519000.0, 0.0, 0.0, 0.0, -1519000.0, -1519000.0, 0.0, 10.0, 10.0 
1.615e+3, 1.55e+2, -1421000.0, -1421000.0, 0.0, 0.0, 0.0, -1421000.0, -1421000.0, 0.0, 10.0, 10.0 
1.615e+3, 1.65e+2, -1323000.0, -1323000.0, 0.0, 0.0, 0.0, -1323000.0, -1323000.0, 0.0, 10.0, 10.0 
1.615e+3, 1.75e+2, -1225000.0, -1225000.0, 0.0, 0.0, 0.0, -1225000.0, -1225000.0, 0.0, 10.0, 10.0 
1.615e+3, 1.85e+2, -1127000.0, -1127000.0, 0.0, 0.0, 0.0, -1127000.0, -1127000.0, 0.0, 10.0, 10.0 
1.615e+3, 1.95e+2, -1029000.0, -1029000.0, 0.0, 0.0, 0.0, -1029000.0, -1029000.0, 0.0, 10.0, 10.0 
1.615e+3, 2.05e+2, -931000.0, -931000.0, 0.0, 0.0, 0.0, -931000.0, -931000.0, 0.0, 10.0, 10.0 
1.615e+3, 2.15e+2, -833000.0, -833000.0, 0.0, 0.0, 0.0, -833000.0, -833000.0, 0.0, 10.0, 10.0 
1.615e+3, 2.25e+2, -735000.0, -735000.0, 0.0, 0.0, 0.0, -735000.0, -735000.0, 0.0, 10.0, 10.0 
1.615e+3, 2.35e+2, -637000.0, -637000.0, 0.0, 0.0, 0.0, -637000.0, -637000.0, 0.0, 10.0, 10.0 
1.615e+3, 2.45e+2, -539000.0, -539000.0, 0.0, 0.0, 0.0, -539000.0, -539000.0, 0.0, 10.0, 10.0 
1.615e+3, 2.55e+2, -441000.0, -441000.0, 0.0, 0.0, 0.0, -441000.0, -441000.0, 0.0, 10.0, 10.0 
1.615e+3, 2.65e+2, -343000.0, -343000.0, 0.0, 0.0, 0.0, -343000.0, -343000.0, 0.0, 10.0, 10.0 
1.615e+3, 2.75e+2, -245000.0, -245000.0, 0.0, 0.0, 0.0, -245000.0, -245000.0, 0.0, 10.0, 10.0 
1.615e+3, 2.85e+2, -147000.0, -147000.0, 0.0, 0.0, 0.0, -147000.0, -147000.0, 0.0, 10.0, 10.0 
1.615e+3, 2.95e+2, -49000.0, -49000.0, 0.0, 0.0, 0.0, -49000.0, -49000.0, 0.0, 10.0, 10.0 
1.615e+3, 3.05e+2, 0.0, 0.0, 0.0, 0.0, 0.0, 0.0, 0.0, 0.0, 10.0, 10.0 
1.615e+3, 3.15e+2, 0.0, 0.0, 0.0, 0.0, 0.0, 0.0, 0.0, 0.0, 10.0, 10.0 
1.625e+3, 1.25e+2, -1715000.0, -1715000.0, 0.0, 0.0, 0.0, -1715000.0, -1715000.0, 0.0, 10.0, 10.0 
1.625e+3, 1.35e+2, -1617000.0, -1617000.0, 0.0, 0.0, 0.0, -1617000.0, -1617000.0, 0.0, 10.0, 10.0 
1.625e+3, 1.45e+2, -1519000.0, -1519000.0, 0.0, 0.0, 0.0, -1519000.0, -1519000.0, 0.0, 10.0, 10.0 
1.625e+3, 1.55e+2, -1421000.0, -1421000.0, 0.0, 0.0, 0.0, -1421000.0, -1421000.0, 0.0, 10.0, 10.0 
1.625e+3, 1.65e+2, -1323000.0, -1323000.0, 0.0, 0.0, 0.0, -1323000.0, -1323000.0, 0.0, 10.0, 10.0 
1.625e+3, 1.75e+2, -1225000.0, -1225000.0, 0.0, 0.0, 0.0, -1225000.0, -1225000.0, 0.0, 10.0, 10.0 
1.625e+3, 1.85e+2, -1127000.0, -1127000.0, 0.0, 0.0, 0.0, -1127000.0, -1127000.0, 0.0, 10.0, 10.0 
1.625e+3, 1.95e+2, -1029000.0, -1029000.0, 0.0, 0.0, 0.0, -1029000.0, -1029000.0, 0.0, 10.0, 10.0 
1.625e+3, 2.05e+2, -931000.0, -931000.0, 0.0, 0.0, 0.0, -931000.0, -931000.0, 0.0, 10.0, 10.0 
1.625e+3, 2.15e+2, -833000.0, -833000.0, 0.0, 0.0, 0.0, -833000.0, -833000.0, 0.0, 10.0, 10.0 
1.625e+3, 2.25e+2, -735000.0, -735000.0, 0.0, 0.0, 0.0, -735000.0, -735000.0, 0.0, 10.0, 10.0 
1.625e+3, 2.35e+2, -637000.0, -637000.0, 0.0, 0.0, 0.0, -637000.0, -637000.0, 0.0, 10.0, 10.0 
1.625e+3, 2.45e+2, -539000.0, -539000.0, 0.0, 0.0, 0.0, -539000.0, -539000.0, 0.0, 10.0, 10.0 
1.625e+3, 2.55e+2, -441000.0, -441000.0, 0.0, 0.0, 0.0, -441000.0, -441000.0, 0.0, 10.0, 10.0 
1.625e+3, 2.65e+2, -343000.0, -343000.0, 0.0, 0.0, 0.0, -343000.0, -343000.0, 0.0, 10.0, 10.0 
1.625e+3, 2.75e+2, -245000.0, -245000.0, 0.0, 0.0, 0.0, -245000.0, -245000.0, 0.0, 10.0, 10.0 
1.625e+3, 2.85e+2, -147000.0, -147000.0, 0.0, 0.0, 0.0, -147000.0, -147000.0, 0.0, 10.0, 10.0 
1.625e+3, 2.95e+2, -49000.0, -49000.0, 0.0, 0.0, 0.0, -49000.0, -49000.0, 0.0, 10.0, 10.0 
1.625e+3, 3.05e+2, 0.0, 0.0, 0.0, 0.0, 0.0, 0.0, 0.0, 0.0, 10.0, 10.0 
1.625e+3, 3.15e+2, 0.0, 0.0, 0.0, 0.0, 0.0, 0.0, 0.0, 0.0, 10.0, 10.0 
1.635e+3, 1.25e+2, -1715000.0, -1715000.0, 0.0, 0.0, 0.0, -1715000.0, -1715000.0, 0.0, 10.0, 10.0 
1.635e+3, 1.35e+2, -1617000.0, -1617000.0, 0.0, 0.0, 0.0, -1617000.0, -1617000.0, 0.0, 10.0, 10.0 
1.635e+3, 1.45e+2, -1519000.0, -1519000.0, 0.0, 0.0, 0.0, -1519000.0, -1519000.0, 0.0, 10.0, 10.0 
1.635e+3, 1.55e+2, -1421000.0, -1421000.0, 0.0, 0.0, 0.0, -1421000.0, -1421000.0, 0.0, 10.0, 10.0 
1.635e+3, 1.65e+2, -1323000.0, -1323000.0, 0.0, 0.0, 0.0, -1323000.0, -1323000.0, 0.0, 10.0, 10.0 
1.635e+3, 1.75e+2, -1225000.0, -1225000.0, 0.0, 0.0, 0.0, -1225000.0, -1225000.0, 0.0, 10.0, 10.0 
1.635e+3, 1.85e+2, -1127000.0, -1127000.0, 0.0, 0.0, 0.0, -1127000.0, -1127000.0, 0.0, 10.0, 10.0 
1.635e+3, 1.95e+2, -1029000.0, -1029000.0, 0.0, 0.0, 0.0, -1029000.0, -1029000.0, 0.0, 10.0, 10.0 
1.635e+3, 2.05e+2, -931000.0, -931000.0, 0.0, 0.0, 0.0, -931000.0, -931000.0, 0.0, 10.0, 10.0 
1.635e+3, 2.15e+2, -833000.0, -833000.0, 0.0, 0.0, 0.0, -833000.0, -833000.0, 0.0, 10.0, 10.0 
1.635e+3, 2.25e+2, -735000.0, -735000.0, 0.0, 0.0, 0.0, -735000.0, -735000.0, 0.0, 10.0, 10.0 
1.635e+3, 2.35e+2, -637000.0, -637000.0, 0.0, 0.0, 0.0, -637000.0, -637000.0, 0.0, 10.0, 10.0 
1.635e+3, 2.45e+2, -539000.0, -539000.0, 0.0, 0.0, 0.0, -539000.0, -539000.0, 0.0, 10.0, 10.0 
1.635e+3, 2.55e+2, -441000.0, -441000.0, 0.0, 0.0, 0.0, -441000.0, -441000.0, 0.0, 10.0, 10.0 
1.635e+3, 2.65e+2, -343000.0, -343000.0, 0.0, 0.0, 0.0, -343000.0, -343000.0, 0.0, 10.0, 10.0 
1.635e+3, 2.75e+2, -245000.0, -245000.0, 0.0, 0.0, 0.0, -245000.0, -245000.0, 0.0, 10.0, 10.0 
1.635e+3, 2.85e+2, -147000.0, -147000.0, 0.0, 0.0, 0.0, -147000.0, -147000.0, 0.0, 10.0, 10.0 
1.635e+3, 2.95e+2, -49000.0, -49000.0, 0.0, 0.0, 0.0, -49000.0, -49000.0, 0.0, 10.0, 10.0 
1.635e+3, 3.05e+2, 0.0, 0.0, 0.0, 0.0, 0.0, 0.0, 0.0, 0.0, 10.0, 10.0 
1.635e+3, 3.15e+2, 0.0, 0.0, 0.0, 0.0, 0.0, 0.0, 0.0, 0.0, 10.0, 10.0 
1.645e+3, 1.25e+2, -1715000.0, -1715000.0, 0.0, 0.0, 0.0, -1715000.0, -1715000.0, 0.0, 10.0, 10.0 
1.645e+3, 1.35e+2, -1617000.0, -1617000.0, 0.0, 0.0, 0.0, -1617000.0, -1617000.0, 0.0, 10.0, 10.0 
1.645e+3, 1.45e+2, -1519000.0, -1519000.0, 0.0, 0.0, 0.0, -1519000.0, -1519000.0, 0.0, 10.0, 10.0 
1.645e+3, 1.55e+2, -1421000.0, -1421000.0, 0.0, 0.0, 0.0, -1421000.0, -1421000.0, 0.0, 10.0, 10.0 
1.645e+3, 1.65e+2, -1323000.0, -1323000.0, 0.0, 0.0, 0.0, -1323000.0, -1323000.0, 0.0, 10.0, 10.0 
1.645e+3, 1.75e+2, -1225000.0, -1225000.0, 0.0, 0.0, 0.0, -1225000.0, -1225000.0, 0.0, 10.0, 10.0 
1.645e+3, 1.85e+2, -1127000.0, -1127000.0, 0.0, 0.0, 0.0, -1127000.0, -1127000.0, 0.0, 10.0, 10.0 
1.645e+3, 1.95e+2, -1029000.0, -1029000.0, 0.0, 0.0, 0.0, -1029000.0, -1029000.0, 0.0, 10.0, 10.0 
1.645e+3, 2.05e+2, -931000.0, -931000.0, 0.0, 0.0, 0.0, -931000.0, -931000.0, 0.0, 10.0, 10.0 
1.645e+3, 2.15e+2, -833000.0, -833000.0, 0.0, 0.0, 0.0, -833000.0, -833000.0, 0.0, 10.0, 10.0 
1.645e+3, 2.25e+2, -735000.0, -735000.0, 0.0, 0.0, 0.0, -735000.0, -735000.0, 0.0, 10.0, 10.0 
1.645e+3, 2.35e+2, -637000.0, -637000.0, 0.0, 0.0, 0.0, -637000.0, -637000.0, 0.0, 10.0, 10.0 
1.645e+3, 2.45e+2, -539000.0, -539000.0, 0.0, 0.0, 0.0, -539000.0, -539000.0, 0.0, 10.0, 10.0 
1.645e+3, 2.55e+2, -441000.0, -441000.0, 0.0, 0.0, 0.0, -441000.0, -441000.0, 0.0, 10.0, 10.0 
1.645e+3, 2.65e+2, -343000.0, -343000.0, 0.0, 0.0, 0.0, -343000.0, -343000.0, 0.0, 10.0, 10.0 
1.645e+3, 2.75e+2, -245000.0, -245000.0, 0.0, 0.0, 0.0, -245000.0, -245000.0, 0.0, 10.0, 10.0 
1.645e+3, 2.85e+2, -147000.0, -147000.0, 0.0, 0.0, 0.0, -147000.0, -147000.0, 0.0, 10.0, 10.0 
1.645e+3, 2.95e+2, -49000.0, -49000.0, 0.0, 0.0, 0.0, -49000.0, -49000.0, 0.0, 10.0, 10.0 
1.645e+3, 3.05e+2, 0.0, 0.0, 0.0, 0.0, 0.0, 0.0, 0.0, 0.0, 10.0, 10.0 
1.645e+3, 3.15e+2, 0.0, 0.0, 0.0, 0.0, 0.0, 0.0, 0.0, 0.0, 10.0, 10.0 
1.655e+3, 1.25e+2, -1715000.0, -1715000.0, 0.0, 0.0, 0.0, -1715000.0, -1715000.0, 0.0, 10.0, 10.0 
1.655e+3, 1.35e+2, -1617000.0, -1617000.0, 0.0, 0.0, 0.0, -1617000.0, -1617000.0, 0.0, 10.0, 10.0 
1.655e+3, 1.45e+2, -1519000.0, -1519000.0, 0.0, 0.0, 0.0, -1519000.0, -1519000.0, 0.0, 10.0, 10.0 
1.655e+3, 1.55e+2, -1421000.0, -1421000.0, 0.0, 0.0, 0.0, -1421000.0, -1421000.0, 0.0, 10.0, 10.0 
1.655e+3, 1.65e+2, -1323000.0, -1323000.0, 0.0, 0.0, 0.0, -1323000.0, -1323000.0, 0.0, 10.0, 10.0 
1.655e+3, 1.75e+2, -1225000.0, -1225000.0, 0.0, 0.0, 0.0, -1225000.0, -1225000.0, 0.0, 10.0, 10.0 
1.655e+3, 1.85e+2, -1127000.0, -1127000.0, 0.0, 0.0, 0.0, -1127000.0, -1127000.0, 0.0, 10.0, 10.0 
1.655e+3, 1.95e+2, -1029000.0, -1029000.0, 0.0, 0.0, 0.0, -1029000.0, -1029000.0, 0.0, 10.0, 10.0 
1.655e+3, 2.05e+2, -931000.0, -931000.0, 0.0, 0.0, 0.0, -931000.0, -931000.0, 0.0, 10.0, 10.0 
1.655e+3, 2.15e+2, -833000.0, -833000.0, 0.0, 0.0, 0.0, -833000.0, -833000.0, 0.0, 10.0, 10.0 
1.655e+3, 2.25e+2, -735000.0, -735000.0, 0.0, 0.0, 0.0, -735000.0, -735000.0, 0.0, 10.0, 10.0 
1.655e+3, 2.35e+2, -637000.0, -637000.0, 0.0, 0.0, 0.0, -637000.0, -637000.0, 0.0, 10.0, 10.0 
1.655e+3, 2.45e+2, -539000.0, -539000.0, 0.0, 0.0, 0.0, -539000.0, -539000.0, 0.0, 10.0, 10.0 
1.655e+3, 2.55e+2, -441000.0, -441000.0, 0.0, 0.0, 0.0, -441000.0, -441000.0, 0.0, 10.0, 10.0 
1.655e+3, 2.65e+2, -343000.0, -343000.0, 0.0, 0.0, 0.0, -343000.0, -343000.0, 0.0, 10.0, 10.0 
1.655e+3, 2.75e+2, -245000.0, -245000.0, 0.0, 0.0, 0.0, -245000.0, -245000.0, 0.0, 10.0, 10.0 
1.655e+3, 2.85e+2, -147000.0, -147000.0, 0.0, 0.0, 0.0, -147000.0, -147000.0, 0.0, 10.0, 10.0 
1.655e+3, 2.95e+2, -49000.0, -49000.0, 0.0, 0.0, 0.0, -49000.0, -49000.0, 0.0, 10.0, 10.0 
1.655e+3, 3.05e+2, 0.0, 0.0, 0.0, 0.0, 0.0, 0.0, 0.0, 0.0, 10.0, 10.0 
1.655e+3, 3.15e+2, 0.0, 0.0, 0.0, 0.0, 0.0, 0.0, 0.0, 0.0, 10.0, 10.0 
1.665e+3, 1.25e+2, -1715000.0, -1715000.0, 0.0, 0.0, 0.0, -1715000.0, -1715000.0, 0.0, 10.0, 10.0 
1.665e+3, 1.35e+2, -1617000.0, -1617000.0, 0.0, 0.0, 0.0, -1617000.0, -1617000.0, 0.0, 10.0, 10.0 
1.665e+3, 1.45e+2, -1519000.0, -1519000.0, 0.0, 0.0, 0.0, -1519000.0, -1519000.0, 0.0, 10.0, 10.0 
1.665e+3, 1.55e+2, -1421000.0, -1421000.0, 0.0, 0.0, 0.0, -1421000.0, -1421000.0, 0.0, 10.0, 10.0 
1.665e+3, 1.65e+2, -1323000.0, -1323000.0, 0.0, 0.0, 0.0, -1323000.0, -1323000.0, 0.0, 10.0, 10.0 
1.665e+3, 1.75e+2, -1225000.0, -1225000.0, 0.0, 0.0, 0.0, -1225000.0, -1225000.0, 0.0, 10.0, 10.0 
1.665e+3, 1.85e+2, -1127000.0, -1127000.0, 0.0, 0.0, 0.0, -1127000.0, -1127000.0, 0.0, 10.0, 10.0 
1.665e+3, 1.95e+2, -1029000.0, -1029000.0, 0.0, 0.0, 0.0, -1029000.0, -1029000.0, 0.0, 10.0, 10.0 
1.665e+3, 2.05e+2, -931000.0, -931000.0, 0.0, 0.0, 0.0, -931000.0, -931000.0, 0.0, 10.0, 10.0 
1.665e+3, 2.15e+2, -833000.0, -833000.0, 0.0, 0.0, 0.0, -833000.0, -833000.0, 0.0, 10.0, 10.0 
1.665e+3, 2.25e+2, -735000.0, -735000.0, 0.0, 0.0, 0.0, -735000.0, -735000.0, 0.0, 10.0, 10.0 
1.665e+3, 2.35e+2, -637000.0, -637000.0, 0.0, 0.0, 0.0, -637000.0, -637000.0, 0.0, 10.0, 10.0 
1.665e+3, 2.45e+2, -539000.0, -539000.0, 0.0, 0.0, 0.0, -539000.0, -539000.0, 0.0, 10.0, 10.0 
1.665e+3, 2.55e+2, -441000.0, -441000.0, 0.0, 0.0, 0.0, -441000.0, -441000.0, 0.0, 10.0, 10.0 
1.665e+3, 2.65e+2, -343000.0, -343000.0, 0.0, 0.0, 0.0, -343000.0, -343000.0, 0.0, 10.0, 10.0 
1.665e+3, 2.75e+2, -245000.0, -245000.0, 0.0, 0.0, 0.0, -245000.0, -245000.0, 0.0, 10.0, 10.0 
1.665e+3, 2.85e+2, -147000.0, -147000.0, 0.0, 0.0, 0.0, -147000.0, -147000.0, 0.0, 10.0, 10.0 
1.665e+3, 2.95e+2, -49000.0, -49000.0, 0.0, 0.0, 0.0, -49000.0, -49000.0, 0.0, 10.0, 10.0 
1.665e+3, 3.05e+2, 0.0, 0.0, 0.0, 0.0, 0.0, 0.0, 0.0, 0.0, 10.0, 10.0 
1.665e+3, 3.15e+2, 0.0, 0.0, 0.0, 0.0, 0.0, 0.0, 0.0, 0.0, 10.0, 10.0 
1.675e+3, 1.25e+2, -1715000.0, -1715000.0, 0.0, 0.0, 0.0, -1715000.0, -1715000.0, 0.0, 10.0, 10.0 
1.675e+3, 1.35e+2, -1617000.0, -1617000.0, 0.0, 0.0, 0.0, -1617000.0, -1617000.0, 0.0, 10.0, 10.0 
1.675e+3, 1.45e+2, -1519000.0, -1519000.0, 0.0, 0.0, 0.0, -1519000.0, -1519000.0, 0.0, 10.0, 10.0 
1.675e+3, 1.55e+2, -1421000.0, -1421000.0, 0.0, 0.0, 0.0, -1421000.0, -1421000.0, 0.0, 10.0, 10.0 
1.675e+3, 1.65e+2, -1323000.0, -1323000.0, 0.0, 0.0, 0.0, -1323000.0, -1323000.0, 0.0, 10.0, 10.0 
1.675e+3, 1.75e+2, -1225000.0, -1225000.0, 0.0, 0.0, 0.0, -1225000.0, -1225000.0, 0.0, 10.0, 10.0 
1.675e+3, 1.85e+2, -1127000.0, -1127000.0, 0.0, 0.0, 0.0, -1127000.0, -1127000.0, 0.0, 10.0, 10.0 
1.675e+3, 1.95e+2, -1029000.0, -1029000.0, 0.0, 0.0, 0.0, -1029000.0, -1029000.0, 0.0, 10.0, 10.0 
1.675e+3, 2.05e+2, -931000.0, -931000.0, 0.0, 0.0, 0.0, -931000.0, -931000.0, 0.0, 10.0, 10.0 
1.675e+3, 2.15e+2, -833000.0, -833000.0, 0.0, 0.0, 0.0, -833000.0, -833000.0, 0.0, 10.0, 10.0 
1.675e+3, 2.25e+2, -735000.0, -735000.0, 0.0, 0.0, 0.0, -735000.0, -735000.0, 0.0, 10.0, 10.0 
1.675e+3, 2.35e+2, -637000.0, -637000.0, 0.0, 0.0, 0.0, -637000.0, -637000.0, 0.0, 10.0, 10.0 
1.675e+3, 2.45e+2, -539000.0, -539000.0, 0.0, 0.0, 0.0, -539000.0, -539000.0, 0.0, 10.0, 10.0 
1.675e+3, 2.55e+2, -441000.0, -441000.0, 0.0, 0.0, 0.0, -441000.0, -441000.0, 0.0, 10.0, 10.0 
1.675e+3, 2.65e+2, -343000.0, -343000.0, 0.0, 0.0, 0.0, -343000.0, -343000.0, 0.0, 10.0, 10.0 
1.675e+3, 2.75e+2, -245000.0, -245000.0, 0.0, 0.0, 0.0, -245000.0, -245000.0, 0.0, 10.0, 10.0 
1.675e+3, 2.85e+2, -147000.0, -147000.0, 0.0, 0.0, 0.0, -147000.0, -147000.0, 0.0, 10.0, 10.0 
1.675e+3, 2.95e+2, -49000.0, -49000.0, 0.0, 0.0, 0.0, -49000.0, -49000.0, 0.0, 10.0, 10.0 
1.675e+3, 3.05e+2, 0.0, 0.0, 0.0, 0.0, 0.0, 0.0, 0.0, 0.0, 10.0, 10.0 
1.675e+3, 3.15e+2, 0.0, 0.0, 0.0, 0.0, 0.0, 0.0, 0.0, 0.0, 10.0, 10.0 
1.685e+3, 1.25e+2, -1715000.0, -1715000.0, 0.0, 0.0, 0.0, -1715000.0, -1715000.0, 0.0, 10.0, 10.0 
1.685e+3, 1.35e+2, -1617000.0, -1617000.0, 0.0, 0.0, 0.0, -1617000.0, -1617000.0, 0.0, 10.0, 10.0 
1.685e+3, 1.45e+2, -1519000.0, -1519000.0, 0.0, 0.0, 0.0, -1519000.0, -1519000.0, 0.0, 10.0, 10.0 
1.685e+3, 1.55e+2, -1421000.0, -1421000.0, 0.0, 0.0, 0.0, -1421000.0, -1421000.0, 0.0, 10.0, 10.0 
1.685e+3, 1.65e+2, -1323000.0, -1323000.0, 0.0, 0.0, 0.0, -1323000.0, -1323000.0, 0.0, 10.0, 10.0 
1.685e+3, 1.75e+2, -1225000.0, -1225000.0, 0.0, 0.0, 0.0, -1225000.0, -1225000.0, 0.0, 10.0, 10.0 
1.685e+3, 1.85e+2, -1127000.0, -1127000.0, 0.0, 0.0, 0.0, -1127000.0, -1127000.0, 0.0, 10.0, 10.0 
1.685e+3, 1.95e+2, -1029000.0, -1029000.0, 0.0, 0.0, 0.0, -1029000.0, -1029000.0, 0.0, 10.0, 10.0 
1.685e+3, 2.05e+2, -931000.0, -931000.0, 0.0, 0.0, 0.0, -931000.0, -931000.0, 0.0, 10.0, 10.0 
1.685e+3, 2.15e+2, -833000.0, -833000.0, 0.0, 0.0, 0.0, -833000.0, -833000.0, 0.0, 10.0, 10.0 
1.685e+3, 2.25e+2, -735000.0, -735000.0, 0.0, 0.0, 0.0, -735000.0, -735000.0, 0.0, 10.0, 10.0 
1.685e+3, 2.35e+2, -637000.0, -637000.0, 0.0, 0.0, 0.0, -637000.0, -637000.0, 0.0, 10.0, 10.0 
1.685e+3, 2.45e+2, -539000.0, -539000.0, 0.0, 0.0, 0.0, -539000.0, -539000.0, 0.0, 10.0, 10.0 
1.685e+3, 2.55e+2, -441000.0, -441000.0, 0.0, 0.0, 0.0, -441000.0, -441000.0, 0.0, 10.0, 10.0 
1.685e+3, 2.65e+2, -343000.0, -343000.0, 0.0, 0.0, 0.0, -343000.0, -343000.0, 0.0, 10.0, 10.0 
1.685e+3, 2.75e+2, -245000.0, -245000.0, 0.0, 0.0, 0.0, -245000.0, -245000.0, 0.0, 10.0, 10.0 
1.685e+3, 2.85e+2, -147000.0, -147000.0, 0.0, 0.0, 0.0, -147000.0, -147000.0, 0.0, 10.0, 10.0 
1.685e+3, 2.95e+2, -49000.0, -49000.0, 0.0, 0.0, 0.0, -49000.0, -49000.0, 0.0, 10.0, 10.0 
1.685e+3, 3.05e+2, 0.0, 0.0, 0.0, 0.0, 0.0, 0.0, 0.0, 0.0, 10.0, 10.0 
1.685e+3, 3.15e+2, 0.0, 0.0, 0.0, 0.0, 0.0, 0.0, 0.0, 0.0, 10.0, 10.0 
1.695e+3, 1.25e+2, -1715000.0, -1715000.0, 0.0, 0.0, 0.0, -1715000.0, -1715000.0, 0.0, 10.0, 10.0 
1.695e+3, 1.35e+2, -1617000.0, -1617000.0, 0.0, 0.0, 0.0, -1617000.0, -1617000.0, 0.0, 10.0, 10.0 
1.695e+3, 1.45e+2, -1519000.0, -1519000.0, 0.0, 0.0, 0.0, -1519000.0, -1519000.0, 0.0, 10.0, 10.0 
1.695e+3, 1.55e+2, -1421000.0, -1421000.0, 0.0, 0.0, 0.0, -1421000.0, -1421000.0, 0.0, 10.0, 10.0 
1.695e+3, 1.65e+2, -1323000.0, -1323000.0, 0.0, 0.0, 0.0, -1323000.0, -1323000.0, 0.0, 10.0, 10.0 
1.695e+3, 1.75e+2, -1225000.0, -1225000.0, 0.0, 0.0, 0.0, -1225000.0, -1225000.0, 0.0, 10.0, 10.0 
1.695e+3, 1.85e+2, -1127000.0, -1127000.0, 0.0, 0.0, 0.0, -1127000.0, -1127000.0, 0.0, 10.0, 10.0 
1.695e+3, 1.95e+2, -1029000.0, -1029000.0, 0.0, 0.0, 0.0, -1029000.0, -1029000.0, 0.0, 10.0, 10.0 
1.695e+3, 2.05e+2, -931000.0, -931000.0, 0.0, 0.0, 0.0, -931000.0, -931000.0, 0.0, 10.0, 10.0 
1.695e+3, 2.15e+2, -833000.0, -833000.0, 0.0, 0.0, 0.0, -833000.0, -833000.0, 0.0, 10.0, 10.0 
1.695e+3, 2.25e+2, -735000.0, -735000.0, 0.0, 0.0, 0.0, -735000.0, -735000.0, 0.0, 10.0, 10.0 
1.695e+3, 2.35e+2, -637000.0, -637000.0, 0.0, 0.0, 0.0, -637000.0, -637000.0, 0.0, 10.0, 10.0 
1.695e+3, 2.45e+2, -539000.0, -539000.0, 0.0, 0.0, 0.0, -539000.0, -539000.0, 0.0, 10.0, 10.0 
1.695e+3, 2.55e+2, -441000.0, -441000.0, 0.0, 0.0, 0.0, -441000.0, -441000.0, 0.0, 10.0, 10.0 
1.695e+3, 2.65e+2, -343000.0, -343000.0, 0.0, 0.0, 0.0, -343000.0, -343000.0, 0.0, 10.0, 10.0 
1.695e+3, 2.75e+2, -245000.0, -245000.0, 0.0, 0.0, 0.0, -245000.0, -245000.0, 0.0, 10.0, 10.0 
1.695e+3, 2.85e+2, -147000.0, -147000.0, 0.0, 0.0, 0.0, -147000.0, -147000.0, 0.0, 10.0, 10.0 
1.695e+3, 2.95e+2, -49000.0, -49000.0, 0.0, 0.0, 0.0, -49000.0, -49000.0, 0.0, 10.0, 10.0 
1.695e+3, 3.05e+2, 0.0, 0.0, 0.0, 0.0, 0.0, 0.0, 0.0, 0.0, 10.0, 10.0 
1.695e+3, 3.15e+2, 0.0, 0.0, 0.0, 0.0, 0.0, 0.0, 0.0, 0.0, 10.0, 10.0 
1.705e+3, 1.25e+2, -1715000.0, -1715000.0, 0.0, 0.0, 0.0, -1715000.0, -1715000.0, 0.0, 10.0, 10.0 
1.705e+3, 1.35e+2, -1617000.0, -1617000.0, 0.0, 0.0, 0.0, -1617000.0, -1617000.0, 0.0, 10.0, 10.0 
1.705e+3, 1.45e+2, -1519000.0, -1519000.0, 0.0, 0.0, 0.0, -1519000.0, -1519000.0, 0.0, 10.0, 10.0 
1.705e+3, 1.55e+2, -1421000.0, -1421000.0, 0.0, 0.0, 0.0, -1421000.0, -1421000.0, 0.0, 10.0, 10.0 
1.705e+3, 1.65e+2, -1323000.0, -1323000.0, 0.0, 0.0, 0.0, -1323000.0, -1323000.0, 0.0, 10.0, 10.0 
1.705e+3, 1.75e+2, -1225000.0, -1225000.0, 0.0, 0.0, 0.0, -1225000.0, -1225000.0, 0.0, 10.0, 10.0 
1.705e+3, 1.85e+2, -1127000.0, -1127000.0, 0.0, 0.0, 0.0, -1127000.0, -1127000.0, 0.0, 10.0, 10.0 
1.705e+3, 1.95e+2, -1029000.0, -1029000.0, 0.0, 0.0, 0.0, -1029000.0, -1029000.0, 0.0, 10.0, 10.0 
1.705e+3, 2.05e+2, -931000.0, -931000.0, 0.0, 0.0, 0.0, -931000.0, -931000.0, 0.0, 10.0, 10.0 
1.705e+3, 2.15e+2, -833000.0, -833000.0, 0.0, 0.0, 0.0, -833000.0, -833000.0, 0.0, 10.0, 10.0 
1.705e+3, 2.25e+2, -735000.0, -735000.0, 0.0, 0.0, 0.0, -735000.0, -735000.0, 0.0, 10.0, 10.0 
1.705e+3, 2.35e+2, -637000.0, -637000.0, 0.0, 0.0, 0.0, -637000.0, -637000.0, 0.0, 10.0, 10.0 
1.705e+3, 2.45e+2, -539000.0, -539000.0, 0.0, 0.0, 0.0, -539000.0, -539000.0, 0.0, 10.0, 10.0 
1.705e+3, 2.55e+2, -441000.0, -441000.0, 0.0, 0.0, 0.0, -441000.0, -441000.0, 0.0, 10.0, 10.0 
1.705e+3, 2.65e+2, -343000.0, -343000.0, 0.0, 0.0, 0.0, -343000.0, -343000.0, 0.0, 10.0, 10.0 
1.705e+3, 2.75e+2, -245000.0, -245000.0, 0.0, 0.0, 0.0, -245000.0, -245000.0, 0.0, 10.0, 10.0 
1.705e+3, 2.85e+2, -147000.0, -147000.0, 0.0, 0.0, 0.0, -147000.0, -147000.0, 0.0, 10.0, 10.0 
1.705e+3, 2.95e+2, -49000.0, -49000.0, 0.0, 0.0, 0.0, -49000.0, -49000.0, 0.0, 10.0, 10.0 
1.705e+3, 3.05e+2, 0.0, 0.0, 0.0, 0.0, 0.0, 0.0, 0.0, 0.0, 10.0, 10.0 
1.705e+3, 3.15e+2, 0.0, 0.0, 0.0, 0.0, 0.0, 0.0, 0.0, 0.0, 10.0, 10.0 
1.715e+3, 1.25e+2, -1715000.0, -1715000.0, 0.0, 0.0, 0.0, -1715000.0, -1715000.0, 0.0, 10.0, 10.0 
1.715e+3, 1.35e+2, -1617000.0, -1617000.0, 0.0, 0.0, 0.0, -1617000.0, -1617000.0, 0.0, 10.0, 10.0 
1.715e+3, 1.45e+2, -1519000.0, -1519000.0, 0.0, 0.0, 0.0, -1519000.0, -1519000.0, 0.0, 10.0, 10.0 
1.715e+3, 1.55e+2, -1421000.0, -1421000.0, 0.0, 0.0, 0.0, -1421000.0, -1421000.0, 0.0, 10.0, 10.0 
1.715e+3, 1.65e+2, -1323000.0, -1323000.0, 0.0, 0.0, 0.0, -1323000.0, -1323000.0, 0.0, 10.0, 10.0 
1.715e+3, 1.75e+2, -1225000.0, -1225000.0, 0.0, 0.0, 0.0, -1225000.0, -1225000.0, 0.0, 10.0, 10.0 
1.715e+3, 1.85e+2, -1127000.0, -1127000.0, 0.0, 0.0, 0.0, -1127000.0, -1127000.0, 0.0, 10.0, 10.0 
1.715e+3, 1.95e+2, -1029000.0, -1029000.0, 0.0, 0.0, 0.0, -1029000.0, -1029000.0, 0.0, 10.0, 10.0 
1.715e+3, 2.05e+2, -931000.0, -931000.0, 0.0, 0.0, 0.0, -931000.0, -931000.0, 0.0, 10.0, 10.0 
1.715e+3, 2.15e+2, -833000.0, -833000.0, 0.0, 0.0, 0.0, -833000.0, -833000.0, 0.0, 10.0, 10.0 
1.715e+3, 2.25e+2, -735000.0, -735000.0, 0.0, 0.0, 0.0, -735000.0, -735000.0, 0.0, 10.0, 10.0 
1.715e+3, 2.35e+2, -637000.0, -637000.0, 0.0, 0.0, 0.0, -637000.0, -637000.0, 0.0, 10.0, 10.0 
1.715e+3, 2.45e+2, -539000.0, -539000.0, 0.0, 0.0, 0.0, -539000.0, -539000.0, 0.0, 10.0, 10.0 
1.715e+3, 2.55e+2, -441000.0, -441000.0, 0.0, 0.0, 0.0, -441000.0, -441000.0, 0.0, 10.0, 10.0 
1.715e+3, 2.65e+2, -343000.0, -343000.0, 0.0, 0.0, 0.0, -343000.0, -343000.0, 0.0, 10.0, 10.0 
1.715e+3, 2.75e+2, -245000.0, -245000.0, 0.0, 0.0, 0.0, -245000.0, -245000.0, 0.0, 10.0, 10.0 
1.715e+3, 2.85e+2, -147000.0, -147000.0, 0.0, 0.0, 0.0, -147000.0, -147000.0, 0.0, 10.0, 10.0 
1.715e+3, 2.95e+2, -49000.0, -49000.0, 0.0, 0.0, 0.0, -49000.0, -49000.0, 0.0, 10.0, 10.0 
1.715e+3, 3.05e+2, 0.0, 0.0, 0.0, 0.0, 0.0, 0.0, 0.0, 0.0, 10.0, 10.0 
1.715e+3, 3.15e+2, 0.0, 0.0, 0.0, 0.0, 0.0, 0.0, 0.0, 0.0, 10.0, 10.0 
1.725e+3, 1.25e+2, -1715000.0, -1715000.0, 0.0, 0.0, 0.0, -1715000.0, -1715000.0, 0.0, 10.0, 10.0 
1.725e+3, 1.35e+2, -1617000.0, -1617000.0, 0.0, 0.0, 0.0, -1617000.0, -1617000.0, 0.0, 10.0, 10.0 
1.725e+3, 1.45e+2, -1519000.0, -1519000.0, 0.0, 0.0, 0.0, -1519000.0, -1519000.0, 0.0, 10.0, 10.0 
1.725e+3, 1.55e+2, -1421000.0, -1421000.0, 0.0, 0.0, 0.0, -1421000.0, -1421000.0, 0.0, 10.0, 10.0 
1.725e+3, 1.65e+2, -1323000.0, -1323000.0, 0.0, 0.0, 0.0, -1323000.0, -1323000.0, 0.0, 10.0, 10.0 
1.725e+3, 1.75e+2, -1225000.0, -1225000.0, 0.0, 0.0, 0.0, -1225000.0, -1225000.0, 0.0, 10.0, 10.0 
1.725e+3, 1.85e+2, -1127000.0, -1127000.0, 0.0, 0.0, 0.0, -1127000.0, -1127000.0, 0.0, 10.0, 10.0 
1.725e+3, 1.95e+2, -1029000.0, -1029000.0, 0.0, 0.0, 0.0, -1029000.0, -1029000.0, 0.0, 10.0, 10.0 
1.725e+3, 2.05e+2, -931000.0, -931000.0, 0.0, 0.0, 0.0, -931000.0, -931000.0, 0.0, 10.0, 10.0 
1.725e+3, 2.15e+2, -833000.0, -833000.0, 0.0, 0.0, 0.0, -833000.0, -833000.0, 0.0, 10.0, 10.0 
1.725e+3, 2.25e+2, -735000.0, -735000.0, 0.0, 0.0, 0.0, -735000.0, -735000.0, 0.0, 10.0, 10.0 
1.725e+3, 2.35e+2, -637000.0, -637000.0, 0.0, 0.0, 0.0, -637000.0, -637000.0, 0.0, 10.0, 10.0 
1.725e+3, 2.45e+2, -539000.0, -539000.0, 0.0, 0.0, 0.0, -539000.0, -539000.0, 0.0, 10.0, 10.0 
1.725e+3, 2.55e+2, -441000.0, -441000.0, 0.0, 0.0, 0.0, -441000.0, -441000.0, 0.0, 10.0, 10.0 
1.725e+3, 2.65e+2, -343000.0, -343000.0, 0.0, 0.0, 0.0, -343000.0, -343000.0, 0.0, 10.0, 10.0 
1.725e+3, 2.75e+2, -245000.0, -245000.0, 0.0, 0.0, 0.0, -245000.0, -245000.0, 0.0, 10.0, 10.0 
1.725e+3, 2.85e+2, -147000.0, -147000.0, 0.0, 0.0, 0.0, -147000.0, -147000.0, 0.0, 10.0, 10.0 
1.725e+3, 2.95e+2, -49000.0, -49000.0, 0.0, 0.0, 0.0, -49000.0, -49000.0, 0.0, 10.0, 10.0 
1.725e+3, 3.05e+2, 0.0, 0.0, 0.0, 0.0, 0.0, 0.0, 0.0, 0.0, 10.0, 10.0 
1.725e+3, 3.15e+2, 0.0, 0.0, 0.0, 0.0, 0.0, 0.0, 0.0, 0.0, 10.0, 10.0 
1.735e+3, 1.25e+2, -1715000.0, -1715000.0, 0.0, 0.0, 0.0, -1715000.0, -1715000.0, 0.0, 10.0, 10.0 
1.735e+3, 1.35e+2, -1617000.0, -1617000.0, 0.0, 0.0, 0.0, -1617000.0, -1617000.0, 0.0, 10.0, 10.0 
1.735e+3, 1.45e+2, -1519000.0, -1519000.0, 0.0, 0.0, 0.0, -1519000.0, -1519000.0, 0.0, 10.0, 10.0 
1.735e+3, 1.55e+2, -1421000.0, -1421000.0, 0.0, 0.0, 0.0, -1421000.0, -1421000.0, 0.0, 10.0, 10.0 
1.735e+3, 1.65e+2, -1323000.0, -1323000.0, 0.0, 0.0, 0.0, -1323000.0, -1323000.0, 0.0, 10.0, 10.0 
1.735e+3, 1.75e+2, -1225000.0, -1225000.0, 0.0, 0.0, 0.0, -1225000.0, -1225000.0, 0.0, 10.0, 10.0 
1.735e+3, 1.85e+2, -1127000.0, -1127000.0, 0.0, 0.0, 0.0, -1127000.0, -1127000.0, 0.0, 10.0, 10.0 
1.735e+3, 1.95e+2, -1029000.0, -1029000.0, 0.0, 0.0, 0.0, -1029000.0, -1029000.0, 0.0, 10.0, 10.0 
1.735e+3, 2.05e+2, -931000.0, -931000.0, 0.0, 0.0, 0.0, -931000.0, -931000.0, 0.0, 10.0, 10.0 
1.735e+3, 2.15e+2, -833000.0, -833000.0, 0.0, 0.0, 0.0, -833000.0, -833000.0, 0.0, 10.0, 10.0 
1.735e+3, 2.25e+2, -735000.0, -735000.0, 0.0, 0.0, 0.0, -735000.0, -735000.0, 0.0, 10.0, 10.0 
1.735e+3, 2.35e+2, -637000.0, -637000.0, 0.0, 0.0, 0.0, -637000.0, -637000.0, 0.0, 10.0, 10.0 
1.735e+3, 2.45e+2, -539000.0, -539000.0, 0.0, 0.0, 0.0, -539000.0, -539000.0, 0.0, 10.0, 10.0 
1.735e+3, 2.55e+2, -441000.0, -441000.0, 0.0, 0.0, 0.0, -441000.0, -441000.0, 0.0, 10.0, 10.0 
1.735e+3, 2.65e+2, -343000.0, -343000.0, 0.0, 0.0, 0.0, -343000.0, -343000.0, 0.0, 10.0, 10.0 
1.735e+3, 2.75e+2, -245000.0, -245000.0, 0.0, 0.0, 0.0, -245000.0, -245000.0, 0.0, 10.0, 10.0 
1.735e+3, 2.85e+2, -147000.0, -147000.0, 0.0, 0.0, 0.0, -147000.0, -147000.0, 0.0, 10.0, 10.0 
1.735e+3, 2.95e+2, -49000.0, -49000.0, 0.0, 0.0, 0.0, -49000.0, -49000.0, 0.0, 10.0, 10.0 
1.735e+3, 3.05e+2, 0.0, 0.0, 0.0, 0.0, 0.0, 0.0, 0.0, 0.0, 10.0, 10.0 
1.735e+3, 3.15e+2, 0.0, 0.0, 0.0, 0.0, 0.0, 0.0, 0.0, 0.0, 10.0, 10.0 
1.745e+3, 1.25e+2, -1715000.0, -1715000.0, 0.0, 0.0, 0.0, -1715000.0, -1715000.0, 0.0, 10.0, 10.0 
1.745e+3, 1.35e+2, -1617000.0, -1617000.0, 0.0, 0.0, 0.0, -1617000.0, -1617000.0, 0.0, 10.0, 10.0 
1.745e+3, 1.45e+2, -1519000.0, -1519000.0, 0.0, 0.0, 0.0, -1519000.0, -1519000.0, 0.0, 10.0, 10.0 
1.745e+3, 1.55e+2, -1421000.0, -1421000.0, 0.0, 0.0, 0.0, -1421000.0, -1421000.0, 0.0, 10.0, 10.0 
1.745e+3, 1.65e+2, -1323000.0, -1323000.0, 0.0, 0.0, 0.0, -1323000.0, -1323000.0, 0.0, 10.0, 10.0 
1.745e+3, 1.75e+2, -1225000.0, -1225000.0, 0.0, 0.0, 0.0, -1225000.0, -1225000.0, 0.0, 10.0, 10.0 
1.745e+3, 1.85e+2, -1127000.0, -1127000.0, 0.0, 0.0, 0.0, -1127000.0, -1127000.0, 0.0, 10.0, 10.0 
1.745e+3, 1.95e+2, -1029000.0, -1029000.0, 0.0, 0.0, 0.0, -1029000.0, -1029000.0, 0.0, 10.0, 10.0 
1.745e+3, 2.05e+2, -931000.0, -931000.0, 0.0, 0.0, 0.0, -931000.0, -931000.0, 0.0, 10.0, 10.0 
1.745e+3, 2.15e+2, -833000.0, -833000.0, 0.0, 0.0, 0.0, -833000.0, -833000.0, 0.0, 10.0, 10.0 
1.745e+3, 2.25e+2, -735000.0, -735000.0, 0.0, 0.0, 0.0, -735000.0, -735000.0, 0.0, 10.0, 10.0 
1.745e+3, 2.35e+2, -637000.0, -637000.0, 0.0, 0.0, 0.0, -637000.0, -637000.0, 0.0, 10.0, 10.0 
1.745e+3, 2.45e+2, -539000.0, -539000.0, 0.0, 0.0, 0.0, -539000.0, -539000.0, 0.0, 10.0, 10.0 
1.745e+3, 2.55e+2, -441000.0, -441000.0, 0.0, 0.0, 0.0, -441000.0, -441000.0, 0.0, 10.0, 10.0 
1.745e+3, 2.65e+2, -343000.0, -343000.0, 0.0, 0.0, 0.0, -343000.0, -343000.0, 0.0, 10.0, 10.0 
1.745e+3, 2.75e+2, -245000.0, -245000.0, 0.0, 0.0, 0.0, -245000.0, -245000.0, 0.0, 10.0, 10.0 
1.745e+3, 2.85e+2, -147000.0, -147000.0, 0.0, 0.0, 0.0, -147000.0, -147000.0, 0.0, 10.0, 10.0 
1.745e+3, 2.95e+2, -49000.0, -49000.0, 0.0, 0.0, 0.0, -49000.0, -49000.0, 0.0, 10.0, 10.0 
1.745e+3, 3.05e+2, 0.0, 0.0, 0.0, 0.0, 0.0, 0.0, 0.0, 0.0, 10.0, 10.0 
1.745e+3, 3.15e+2, 0.0, 0.0, 0.0, 0.0, 0.0, 0.0, 0.0, 0.0, 10.0, 10.0 
1.755e+3, 1.25e+2, -1715000.0, -1715000.0, 0.0, 0.0, 0.0, -1715000.0, -1715000.0, 0.0, 10.0, 10.0 
1.755e+3, 1.35e+2, -1617000.0, -1617000.0, 0.0, 0.0, 0.0, -1617000.0, -1617000.0, 0.0, 10.0, 10.0 
1.755e+3, 1.45e+2, -1519000.0, -1519000.0, 0.0, 0.0, 0.0, -1519000.0, -1519000.0, 0.0, 10.0, 10.0 
1.755e+3, 1.55e+2, -1421000.0, -1421000.0, 0.0, 0.0, 0.0, -1421000.0, -1421000.0, 0.0, 10.0, 10.0 
1.755e+3, 1.65e+2, -1323000.0, -1323000.0, 0.0, 0.0, 0.0, -1323000.0, -1323000.0, 0.0, 10.0, 10.0 
1.755e+3, 1.75e+2, -1225000.0, -1225000.0, 0.0, 0.0, 0.0, -1225000.0, -1225000.0, 0.0, 10.0, 10.0 
1.755e+3, 1.85e+2, -1127000.0, -1127000.0, 0.0, 0.0, 0.0, -1127000.0, -1127000.0, 0.0, 10.0, 10.0 
1.755e+3, 1.95e+2, -1029000.0, -1029000.0, 0.0, 0.0, 0.0, -1029000.0, -1029000.0, 0.0, 10.0, 10.0 
1.755e+3, 2.05e+2, -931000.0, -931000.0, 0.0, 0.0, 0.0, -931000.0, -931000.0, 0.0, 10.0, 10.0 
1.755e+3, 2.15e+2, -833000.0, -833000.0, 0.0, 0.0, 0.0, -833000.0, -833000.0, 0.0, 10.0, 10.0 
1.755e+3, 2.25e+2, -735000.0, -735000.0, 0.0, 0.0, 0.0, -735000.0, -735000.0, 0.0, 10.0, 10.0 
1.755e+3, 2.35e+2, -637000.0, -637000.0, 0.0, 0.0, 0.0, -637000.0, -637000.0, 0.0, 10.0, 10.0 
1.755e+3, 2.45e+2, -539000.0, -539000.0, 0.0, 0.0, 0.0, -539000.0, -539000.0, 0.0, 10.0, 10.0 
1.755e+3, 2.55e+2, -441000.0, -441000.0, 0.0, 0.0, 0.0, -441000.0, -441000.0, 0.0, 10.0, 10.0 
1.755e+3, 2.65e+2, -343000.0, -343000.0, 0.0, 0.0, 0.0, -343000.0, -343000.0, 0.0, 10.0, 10.0 
1.755e+3, 2.75e+2, -245000.0, -245000.0, 0.0, 0.0, 0.0, -245000.0, -245000.0, 0.0, 10.0, 10.0 
1.755e+3, 2.85e+2, -147000.0, -147000.0, 0.0, 0.0, 0.0, -147000.0, -147000.0, 0.0, 10.0, 10.0 
1.755e+3, 2.95e+2, -49000.0, -49000.0, 0.0, 0.0, 0.0, -49000.0, -49000.0, 0.0, 10.0, 10.0 
1.755e+3, 3.05e+2, 0.0, 0.0, 0.0, 0.0, 0.0, 0.0, 0.0, 0.0, 10.0, 10.0 
1.755e+3, 3.15e+2, 0.0, 0.0, 0.0, 0.0, 0.0, 0.0, 0.0, 0.0, 10.0, 10.0 
1.765e+3, 1.25e+2, -1715000.0, -1715000.0, 0.0, 0.0, 0.0, -1715000.0, -1715000.0, 0.0, 10.0, 10.0 
1.765e+3, 1.35e+2, -1617000.0, -1617000.0, 0.0, 0.0, 0.0, -1617000.0, -1617000.0, 0.0, 10.0, 10.0 
1.765e+3, 1.45e+2, -1519000.0, -1519000.0, 0.0, 0.0, 0.0, -1519000.0, -1519000.0, 0.0, 10.0, 10.0 
1.765e+3, 1.55e+2, -1421000.0, -1421000.0, 0.0, 0.0, 0.0, -1421000.0, -1421000.0, 0.0, 10.0, 10.0 
1.765e+3, 1.65e+2, -1323000.0, -1323000.0, 0.0, 0.0, 0.0, -1323000.0, -1323000.0, 0.0, 10.0, 10.0 
1.765e+3, 1.75e+2, -1225000.0, -1225000.0, 0.0, 0.0, 0.0, -1225000.0, -1225000.0, 0.0, 10.0, 10.0 
1.765e+3, 1.85e+2, -1127000.0, -1127000.0, 0.0, 0.0, 0.0, -1127000.0, -1127000.0, 0.0, 10.0, 10.0 
1.765e+3, 1.95e+2, -1029000.0, -1029000.0, 0.0, 0.0, 0.0, -1029000.0, -1029000.0, 0.0, 10.0, 10.0 
1.765e+3, 2.05e+2, -931000.0, -931000.0, 0.0, 0.0, 0.0, -931000.0, -931000.0, 0.0, 10.0, 10.0 
1.765e+3, 2.15e+2, -833000.0, -833000.0, 0.0, 0.0, 0.0, -833000.0, -833000.0, 0.0, 10.0, 10.0 
1.765e+3, 2.25e+2, -735000.0, -735000.0, 0.0, 0.0, 0.0, -735000.0, -735000.0, 0.0, 10.0, 10.0 
1.765e+3, 2.35e+2, -637000.0, -637000.0, 0.0, 0.0, 0.0, -637000.0, -637000.0, 0.0, 10.0, 10.0 
1.765e+3, 2.45e+2, -539000.0, -539000.0, 0.0, 0.0, 0.0, -539000.0, -539000.0, 0.0, 10.0, 10.0 
1.765e+3, 2.55e+2, -441000.0, -441000.0, 0.0, 0.0, 0.0, -441000.0, -441000.0, 0.0, 10.0, 10.0 
1.765e+3, 2.65e+2, -343000.0, -343000.0, 0.0, 0.0, 0.0, -343000.0, -343000.0, 0.0, 10.0, 10.0 
1.765e+3, 2.75e+2, -245000.0, -245000.0, 0.0, 0.0, 0.0, -245000.0, -245000.0, 0.0, 10.0, 10.0 
1.765e+3, 2.85e+2, -147000.0, -147000.0, 0.0, 0.0, 0.0, -147000.0, -147000.0, 0.0, 10.0, 10.0 
1.765e+3, 2.95e+2, -49000.0, -49000.0, 0.0, 0.0, 0.0, -49000.0, -49000.0, 0.0, 10.0, 10.0 
1.765e+3, 3.05e+2, 0.0, 0.0, 0.0, 0.0, 0.0, 0.0, 0.0, 0.0, 10.0, 10.0 
1.765e+3, 3.15e+2, 0.0, 0.0, 0.0, 0.0, 0.0, 0.0, 0.0, 0.0, 10.0, 10.0 
1.775e+3, 1.25e+2, -1715000.0, -1715000.0, 0.0, 0.0, 0.0, -1715000.0, -1715000.0, 0.0, 10.0, 10.0 
1.775e+3, 1.35e+2, -1617000.0, -1617000.0, 0.0, 0.0, 0.0, -1617000.0, -1617000.0, 0.0, 10.0, 10.0 
1.775e+3, 1.45e+2, -1519000.0, -1519000.0, 0.0, 0.0, 0.0, -1519000.0, -1519000.0, 0.0, 10.0, 10.0 
1.775e+3, 1.55e+2, -1421000.0, -1421000.0, 0.0, 0.0, 0.0, -1421000.0, -1421000.0, 0.0, 10.0, 10.0 
1.775e+3, 1.65e+2, -1323000.0, -1323000.0, 0.0, 0.0, 0.0, -1323000.0, -1323000.0, 0.0, 10.0, 10.0 
1.775e+3, 1.75e+2, -1225000.0, -1225000.0, 0.0, 0.0, 0.0, -1225000.0, -1225000.0, 0.0, 10.0, 10.0 
1.775e+3, 1.85e+2, -1127000.0, -1127000.0, 0.0, 0.0, 0.0, -1127000.0, -1127000.0, 0.0, 10.0, 10.0 
1.775e+3, 1.95e+2, -1029000.0, -1029000.0, 0.0, 0.0, 0.0, -1029000.0, -1029000.0, 0.0, 10.0, 10.0 
1.775e+3, 2.05e+2, -931000.0, -931000.0, 0.0, 0.0, 0.0, -931000.0, -931000.0, 0.0, 10.0, 10.0 
1.775e+3, 2.15e+2, -833000.0, -833000.0, 0.0, 0.0, 0.0, -833000.0, -833000.0, 0.0, 10.0, 10.0 
1.775e+3, 2.25e+2, -735000.0, -735000.0, 0.0, 0.0, 0.0, -735000.0, -735000.0, 0.0, 10.0, 10.0 
1.775e+3, 2.35e+2, -637000.0, -637000.0, 0.0, 0.0, 0.0, -637000.0, -637000.0, 0.0, 10.0, 10.0 
1.775e+3, 2.45e+2, -539000.0, -539000.0, 0.0, 0.0, 0.0, -539000.0, -539000.0, 0.0, 10.0, 10.0 
1.775e+3, 2.55e+2, -441000.0, -441000.0, 0.0, 0.0, 0.0, -441000.0, -441000.0, 0.0, 10.0, 10.0 
1.775e+3, 2.65e+2, -343000.0, -343000.0, 0.0, 0.0, 0.0, -343000.0, -343000.0, 0.0, 10.0, 10.0 
1.775e+3, 2.75e+2, -245000.0, -245000.0, 0.0, 0.0, 0.0, -245000.0, -245000.0, 0.0, 10.0, 10.0 
1.775e+3, 2.85e+2, -147000.0, -147000.0, 0.0, 0.0, 0.0, -147000.0, -147000.0, 0.0, 10.0, 10.0 
1.775e+3, 2.95e+2, -49000.0, -49000.0, 0.0, 0.0, 0.0, -49000.0, -49000.0, 0.0, 10.0, 10.0 
1.775e+3, 3.05e+2, 0.0, 0.0, 0.0, 0.0, 0.0, 0.0, 0.0, 0.0, 10.0, 10.0 
1.775e+3, 3.15e+2, 0.0, 0.0, 0.0, 0.0, 0.0, 0.0, 0.0, 0.0, 10.0, 10.0 
1.785e+3, 1.25e+2, -1715000.0, -1715000.0, 0.0, 0.0, 0.0, -1715000.0, -1715000.0, 0.0, 10.0, 10.0 
1.785e+3, 1.35e+2, -1617000.0, -1617000.0, 0.0, 0.0, 0.0, -1617000.0, -1617000.0, 0.0, 10.0, 10.0 
1.785e+3, 1.45e+2, -1519000.0, -1519000.0, 0.0, 0.0, 0.0, -1519000.0, -1519000.0, 0.0, 10.0, 10.0 
1.785e+3, 1.55e+2, -1421000.0, -1421000.0, 0.0, 0.0, 0.0, -1421000.0, -1421000.0, 0.0, 10.0, 10.0 
1.785e+3, 1.65e+2, -1323000.0, -1323000.0, 0.0, 0.0, 0.0, -1323000.0, -1323000.0, 0.0, 10.0, 10.0 
1.785e+3, 1.75e+2, -1225000.0, -1225000.0, 0.0, 0.0, 0.0, -1225000.0, -1225000.0, 0.0, 10.0, 10.0 
1.785e+3, 1.85e+2, -1127000.0, -1127000.0, 0.0, 0.0, 0.0, -1127000.0, -1127000.0, 0.0, 10.0, 10.0 
1.785e+3, 1.95e+2, -1029000.0, -1029000.0, 0.0, 0.0, 0.0, -1029000.0, -1029000.0, 0.0, 10.0, 10.0 
1.785e+3, 2.05e+2, -931000.0, -931000.0, 0.0, 0.0, 0.0, -931000.0, -931000.0, 0.0, 10.0, 10.0 
1.785e+3, 2.15e+2, -833000.0, -833000.0, 0.0, 0.0, 0.0, -833000.0, -833000.0, 0.0, 10.0, 10.0 
1.785e+3, 2.25e+2, -735000.0, -735000.0, 0.0, 0.0, 0.0, -735000.0, -735000.0, 0.0, 10.0, 10.0 
1.785e+3, 2.35e+2, -637000.0, -637000.0, 0.0, 0.0, 0.0, -637000.0, -637000.0, 0.0, 10.0, 10.0 
1.785e+3, 2.45e+2, -539000.0, -539000.0, 0.0, 0.0, 0.0, -539000.0, -539000.0, 0.0, 10.0, 10.0 
1.785e+3, 2.55e+2, -441000.0, -441000.0, 0.0, 0.0, 0.0, -441000.0, -441000.0, 0.0, 10.0, 10.0 
1.785e+3, 2.65e+2, -343000.0, -343000.0, 0.0, 0.0, 0.0, -343000.0, -343000.0, 0.0, 10.0, 10.0 
1.785e+3, 2.75e+2, -245000.0, -245000.0, 0.0, 0.0, 0.0, -245000.0, -245000.0, 0.0, 10.0, 10.0 
1.785e+3, 2.85e+2, -147000.0, -147000.0, 0.0, 0.0, 0.0, -147000.0, -147000.0, 0.0, 10.0, 10.0 
1.785e+3, 2.95e+2, -49000.0, -49000.0, 0.0, 0.0, 0.0, -49000.0, -49000.0, 0.0, 10.0, 10.0 
1.785e+3, 3.05e+2, 0.0, 0.0, 0.0, 0.0, 0.0, 0.0, 0.0, 0.0, 10.0, 10.0 
1.785e+3, 3.15e+2, 0.0, 0.0, 0.0, 0.0, 0.0, 0.0, 0.0, 0.0, 10.0, 10.0 
1.795e+3, 1.25e+2, -1715000.0, -1715000.0, 0.0, 0.0, 0.0, -1715000.0, -1715000.0, 0.0, 10.0, 10.0 
1.795e+3, 1.35e+2, -1617000.0, -1617000.0, 0.0, 0.0, 0.0, -1617000.0, -1617000.0, 0.0, 10.0, 10.0 
1.795e+3, 1.45e+2, -1519000.0, -1519000.0, 0.0, 0.0, 0.0, -1519000.0, -1519000.0, 0.0, 10.0, 10.0 
1.795e+3, 1.55e+2, -1421000.0, -1421000.0, 0.0, 0.0, 0.0, -1421000.0, -1421000.0, 0.0, 10.0, 10.0 
1.795e+3, 1.65e+2, -1323000.0, -1323000.0, 0.0, 0.0, 0.0, -1323000.0, -1323000.0, 0.0, 10.0, 10.0 
1.795e+3, 1.75e+2, -1225000.0, -1225000.0, 0.0, 0.0, 0.0, -1225000.0, -1225000.0, 0.0, 10.0, 10.0 
1.795e+3, 1.85e+2, -1127000.0, -1127000.0, 0.0, 0.0, 0.0, -1127000.0, -1127000.0, 0.0, 10.0, 10.0 
1.795e+3, 1.95e+2, -1029000.0, -1029000.0, 0.0, 0.0, 0.0, -1029000.0, -1029000.0, 0.0, 10.0, 10.0 
1.795e+3, 2.05e+2, -931000.0, -931000.0, 0.0, 0.0, 0.0, -931000.0, -931000.0, 0.0, 10.0, 10.0 
1.795e+3, 2.15e+2, -833000.0, -833000.0, 0.0, 0.0, 0.0, -833000.0, -833000.0, 0.0, 10.0, 10.0 
1.795e+3, 2.25e+2, -735000.0, -735000.0, 0.0, 0.0, 0.0, -735000.0, -735000.0, 0.0, 10.0, 10.0 
1.795e+3, 2.35e+2, -637000.0, -637000.0, 0.0, 0.0, 0.0, -637000.0, -637000.0, 0.0, 10.0, 10.0 
1.795e+3, 2.45e+2, -539000.0, -539000.0, 0.0, 0.0, 0.0, -539000.0, -539000.0, 0.0, 10.0, 10.0 
1.795e+3, 2.55e+2, -441000.0, -441000.0, 0.0, 0.0, 0.0, -441000.0, -441000.0, 0.0, 10.0, 10.0 
1.795e+3, 2.65e+2, -343000.0, -343000.0, 0.0, 0.0, 0.0, -343000.0, -343000.0, 0.0, 10.0, 10.0 
1.795e+3, 2.75e+2, -245000.0, -245000.0, 0.0, 0.0, 0.0, -245000.0, -245000.0, 0.0, 10.0, 10.0 
1.795e+3, 2.85e+2, -147000.0, -147000.0, 0.0, 0.0, 0.0, -147000.0, -147000.0, 0.0, 10.0, 10.0 
1.795e+3, 2.95e+2, -49000.0, -49000.0, 0.0, 0.0, 0.0, -49000.0, -49000.0, 0.0, 10.0, 10.0 
1.795e+3, 3.05e+2, 0.0, 0.0, 0.0, 0.0, 0.0, 0.0, 0.0, 0.0, 10.0, 10.0 
1.795e+3, 3.15e+2, 0.0, 0.0, 0.0, 0.0, 0.0, 0.0, 0.0, 0.0, 10.0, 10.0 
1.805e+3, 1.25e+2, -1715000.0, -1715000.0, 0.0, 0.0, 0.0, -1715000.0, -1715000.0, 0.0, 10.0, 10.0 
1.805e+3, 1.35e+2, -1617000.0, -1617000.0, 0.0, 0.0, 0.0, -1617000.0, -1617000.0, 0.0, 10.0, 10.0 
1.805e+3, 1.45e+2, -1519000.0, -1519000.0, 0.0, 0.0, 0.0, -1519000.0, -1519000.0, 0.0, 10.0, 10.0 
1.805e+3, 1.55e+2, -1421000.0, -1421000.0, 0.0, 0.0, 0.0, -1421000.0, -1421000.0, 0.0, 10.0, 10.0 
1.805e+3, 1.65e+2, -1323000.0, -1323000.0, 0.0, 0.0, 0.0, -1323000.0, -1323000.0, 0.0, 10.0, 10.0 
1.805e+3, 1.75e+2, -1225000.0, -1225000.0, 0.0, 0.0, 0.0, -1225000.0, -1225000.0, 0.0, 10.0, 10.0 
1.805e+3, 1.85e+2, -1127000.0, -1127000.0, 0.0, 0.0, 0.0, -1127000.0, -1127000.0, 0.0, 10.0, 10.0 
1.805e+3, 1.95e+2, -1029000.0, -1029000.0, 0.0, 0.0, 0.0, -1029000.0, -1029000.0, 0.0, 10.0, 10.0 
1.805e+3, 2.05e+2, -931000.0, -931000.0, 0.0, 0.0, 0.0, -931000.0, -931000.0, 0.0, 10.0, 10.0 
1.805e+3, 2.15e+2, -833000.0, -833000.0, 0.0, 0.0, 0.0, -833000.0, -833000.0, 0.0, 10.0, 10.0 
1.805e+3, 2.25e+2, -735000.0, -735000.0, 0.0, 0.0, 0.0, -735000.0, -735000.0, 0.0, 10.0, 10.0 
1.805e+3, 2.35e+2, -637000.0, -637000.0, 0.0, 0.0, 0.0, -637000.0, -637000.0, 0.0, 10.0, 10.0 
1.805e+3, 2.45e+2, -539000.0, -539000.0, 0.0, 0.0, 0.0, -539000.0, -539000.0, 0.0, 10.0, 10.0 
1.805e+3, 2.55e+2, -441000.0, -441000.0, 0.0, 0.0, 0.0, -441000.0, -441000.0, 0.0, 10.0, 10.0 
1.805e+3, 2.65e+2, -343000.0, -343000.0, 0.0, 0.0, 0.0, -343000.0, -343000.0, 0.0, 10.0, 10.0 
1.805e+3, 2.75e+2, -245000.0, -245000.0, 0.0, 0.0, 0.0, -245000.0, -245000.0, 0.0, 10.0, 10.0 
1.805e+3, 2.85e+2, -147000.0, -147000.0, 0.0, 0.0, 0.0, -147000.0, -147000.0, 0.0, 10.0, 10.0 
1.805e+3, 2.95e+2, -49000.0, -49000.0, 0.0, 0.0, 0.0, -49000.0, -49000.0, 0.0, 10.0, 10.0 
1.805e+3, 3.05e+2, 0.0, 0.0, 0.0, 0.0, 0.0, 0.0, 0.0, 0.0, 10.0, 10.0 
1.805e+3, 3.15e+2, 0.0, 0.0, 0.0, 0.0, 0.0, 0.0, 0.0, 0.0, 10.0, 10.0 
1.815e+3, 1.25e+2, -1715000.0, -1715000.0, 0.0, 0.0, 0.0, -1715000.0, -1715000.0, 0.0, 10.0, 10.0 
1.815e+3, 1.35e+2, -1617000.0, -1617000.0, 0.0, 0.0, 0.0, -1617000.0, -1617000.0, 0.0, 10.0, 10.0 
1.815e+3, 1.45e+2, -1519000.0, -1519000.0, 0.0, 0.0, 0.0, -1519000.0, -1519000.0, 0.0, 10.0, 10.0 
1.815e+3, 1.55e+2, -1421000.0, -1421000.0, 0.0, 0.0, 0.0, -1421000.0, -1421000.0, 0.0, 10.0, 10.0 
1.815e+3, 1.65e+2, -1323000.0, -1323000.0, 0.0, 0.0, 0.0, -1323000.0, -1323000.0, 0.0, 10.0, 10.0 
1.815e+3, 1.75e+2, -1225000.0, -1225000.0, 0.0, 0.0, 0.0, -1225000.0, -1225000.0, 0.0, 10.0, 10.0 
1.815e+3, 1.85e+2, -1127000.0, -1127000.0, 0.0, 0.0, 0.0, -1127000.0, -1127000.0, 0.0, 10.0, 10.0 
1.815e+3, 1.95e+2, -1029000.0, -1029000.0, 0.0, 0.0, 0.0, -1029000.0, -1029000.0, 0.0, 10.0, 10.0 
1.815e+3, 2.05e+2, -931000.0, -931000.0, 0.0, 0.0, 0.0, -931000.0, -931000.0, 0.0, 10.0, 10.0 
1.815e+3, 2.15e+2, -833000.0, -833000.0, 0.0, 0.0, 0.0, -833000.0, -833000.0, 0.0, 10.0, 10.0 
1.815e+3, 2.25e+2, -735000.0, -735000.0, 0.0, 0.0, 0.0, -735000.0, -735000.0, 0.0, 10.0, 10.0 
1.815e+3, 2.35e+2, -637000.0, -637000.0, 0.0, 0.0, 0.0, -637000.0, -637000.0, 0.0, 10.0, 10.0 
1.815e+3, 2.45e+2, -539000.0, -539000.0, 0.0, 0.0, 0.0, -539000.0, -539000.0, 0.0, 10.0, 10.0 
1.815e+3, 2.55e+2, -441000.0, -441000.0, 0.0, 0.0, 0.0, -441000.0, -441000.0, 0.0, 10.0, 10.0 
1.815e+3, 2.65e+2, -343000.0, -343000.0, 0.0, 0.0, 0.0, -343000.0, -343000.0, 0.0, 10.0, 10.0 
1.815e+3, 2.75e+2, -245000.0, -245000.0, 0.0, 0.0, 0.0, -245000.0, -245000.0, 0.0, 10.0, 10.0 
1.815e+3, 2.85e+2, -147000.0, -147000.0, 0.0, 0.0, 0.0, -147000.0, -147000.0, 0.0, 10.0, 10.0 
1.815e+3, 2.95e+2, -49000.0, -49000.0, 0.0, 0.0, 0.0, -49000.0, -49000.0, 0.0, 10.0, 10.0 
1.815e+3, 3.05e+2, 0.0, 0.0, 0.0, 0.0, 0.0, 0.0, 0.0, 0.0, 10.0, 10.0 
1.815e+3, 3.15e+2, 0.0, 0.0, 0.0, 0.0, 0.0, 0.0, 0.0, 0.0, 10.0, 10.0 
1.825e+3, 1.25e+2, -1715000.0, -1715000.0, 0.0, 0.0, 0.0, -1715000.0, -1715000.0, 0.0, 10.0, 10.0 
1.825e+3, 1.35e+2, -1617000.0, -1617000.0, 0.0, 0.0, 0.0, -1617000.0, -1617000.0, 0.0, 10.0, 10.0 
1.825e+3, 1.45e+2, -1519000.0, -1519000.0, 0.0, 0.0, 0.0, -1519000.0, -1519000.0, 0.0, 10.0, 10.0 
1.825e+3, 1.55e+2, -1421000.0, -1421000.0, 0.0, 0.0, 0.0, -1421000.0, -1421000.0, 0.0, 10.0, 10.0 
1.825e+3, 1.65e+2, -1323000.0, -1323000.0, 0.0, 0.0, 0.0, -1323000.0, -1323000.0, 0.0, 10.0, 10.0 
1.825e+3, 1.75e+2, -1225000.0, -1225000.0, 0.0, 0.0, 0.0, -1225000.0, -1225000.0, 0.0, 10.0, 10.0 
1.825e+3, 1.85e+2, -1127000.0, -1127000.0, 0.0, 0.0, 0.0, -1127000.0, -1127000.0, 0.0, 10.0, 10.0 
1.825e+3, 1.95e+2, -1029000.0, -1029000.0, 0.0, 0.0, 0.0, -1029000.0, -1029000.0, 0.0, 10.0, 10.0 
1.825e+3, 2.05e+2, -931000.0, -931000.0, 0.0, 0.0, 0.0, -931000.0, -931000.0, 0.0, 10.0, 10.0 
1.825e+3, 2.15e+2, -833000.0, -833000.0, 0.0, 0.0, 0.0, -833000.0, -833000.0, 0.0, 10.0, 10.0 
1.825e+3, 2.25e+2, -735000.0, -735000.0, 0.0, 0.0, 0.0, -735000.0, -735000.0, 0.0, 10.0, 10.0 
1.825e+3, 2.35e+2, -637000.0, -637000.0, 0.0, 0.0, 0.0, -637000.0, -637000.0, 0.0, 10.0, 10.0 
1.825e+3, 2.45e+2, -539000.0, -539000.0, 0.0, 0.0, 0.0, -539000.0, -539000.0, 0.0, 10.0, 10.0 
1.825e+3, 2.55e+2, -441000.0, -441000.0, 0.0, 0.0, 0.0, -441000.0, -441000.0, 0.0, 10.0, 10.0 
1.825e+3, 2.65e+2, -343000.0, -343000.0, 0.0, 0.0, 0.0, -343000.0, -343000.0, 0.0, 10.0, 10.0 
1.825e+3, 2.75e+2, -245000.0, -245000.0, 0.0, 0.0, 0.0, -245000.0, -245000.0, 0.0, 10.0, 10.0 
1.825e+3, 2.85e+2, -147000.0, -147000.0, 0.0, 0.0, 0.0, -147000.0, -147000.0, 0.0, 10.0, 10.0 
1.825e+3, 2.95e+2, -49000.0, -49000.0, 0.0, 0.0, 0.0, -49000.0, -49000.0, 0.0, 10.0, 10.0 
1.825e+3, 3.05e+2, 0.0, 0.0, 0.0, 0.0, 0.0, 0.0, 0.0, 0.0, 10.0, 10.0 
1.825e+3, 3.15e+2, 0.0, 0.0, 0.0, 0.0, 0.0, 0.0, 0.0, 0.0, 10.0, 10.0 
1.835e+3, 1.25e+2, -1715000.0, -1715000.0, 0.0, 0.0, 0.0, -1715000.0, -1715000.0, 0.0, 10.0, 10.0 
1.835e+3, 1.35e+2, -1617000.0, -1617000.0, 0.0, 0.0, 0.0, -1617000.0, -1617000.0, 0.0, 10.0, 10.0 
1.835e+3, 1.45e+2, -1519000.0, -1519000.0, 0.0, 0.0, 0.0, -1519000.0, -1519000.0, 0.0, 10.0, 10.0 
1.835e+3, 1.55e+2, -1421000.0, -1421000.0, 0.0, 0.0, 0.0, -1421000.0, -1421000.0, 0.0, 10.0, 10.0 
1.835e+3, 1.65e+2, -1323000.0, -1323000.0, 0.0, 0.0, 0.0, -1323000.0, -1323000.0, 0.0, 10.0, 10.0 
1.835e+3, 1.75e+2, -1225000.0, -1225000.0, 0.0, 0.0, 0.0, -1225000.0, -1225000.0, 0.0, 10.0, 10.0 
1.835e+3, 1.85e+2, -1127000.0, -1127000.0, 0.0, 0.0, 0.0, -1127000.0, -1127000.0, 0.0, 10.0, 10.0 
1.835e+3, 1.95e+2, -1029000.0, -1029000.0, 0.0, 0.0, 0.0, -1029000.0, -1029000.0, 0.0, 10.0, 10.0 
1.835e+3, 2.05e+2, -931000.0, -931000.0, 0.0, 0.0, 0.0, -931000.0, -931000.0, 0.0, 10.0, 10.0 
1.835e+3, 2.15e+2, -833000.0, -833000.0, 0.0, 0.0, 0.0, -833000.0, -833000.0, 0.0, 10.0, 10.0 
1.835e+3, 2.25e+2, -735000.0, -735000.0, 0.0, 0.0, 0.0, -735000.0, -735000.0, 0.0, 10.0, 10.0 
1.835e+3, 2.35e+2, -637000.0, -637000.0, 0.0, 0.0, 0.0, -637000.0, -637000.0, 0.0, 10.0, 10.0 
1.835e+3, 2.45e+2, -539000.0, -539000.0, 0.0, 0.0, 0.0, -539000.0, -539000.0, 0.0, 10.0, 10.0 
1.835e+3, 2.55e+2, -441000.0, -441000.0, 0.0, 0.0, 0.0, -441000.0, -441000.0, 0.0, 10.0, 10.0 
1.835e+3, 2.65e+2, -343000.0, -343000.0, 0.0, 0.0, 0.0, -343000.0, -343000.0, 0.0, 10.0, 10.0 
1.835e+3, 2.75e+2, -245000.0, -245000.0, 0.0, 0.0, 0.0, -245000.0, -245000.0, 0.0, 10.0, 10.0 
1.835e+3, 2.85e+2, -147000.0, -147000.0, 0.0, 0.0, 0.0, -147000.0, -147000.0, 0.0, 10.0, 10.0 
1.835e+3, 2.95e+2, -49000.0, -49000.0, 0.0, 0.0, 0.0, -49000.0, -49000.0, 0.0, 10.0, 10.0 
1.835e+3, 3.05e+2, 0.0, 0.0, 0.0, 0.0, 0.0, 0.0, 0.0, 0.0, 10.0, 10.0 
1.835e+3, 3.15e+2, 0.0, 0.0, 0.0, 0.0, 0.0, 0.0, 0.0, 0.0, 10.0, 10.0 
1.845e+3, 1.25e+2, -1715000.0, -1715000.0, 0.0, 0.0, 0.0, -1715000.0, -1715000.0, 0.0, 10.0, 10.0 
1.845e+3, 1.35e+2, -1617000.0, -1617000.0, 0.0, 0.0, 0.0, -1617000.0, -1617000.0, 0.0, 10.0, 10.0 
1.845e+3, 1.45e+2, -1519000.0, -1519000.0, 0.0, 0.0, 0.0, -1519000.0, -1519000.0, 0.0, 10.0, 10.0 
1.845e+3, 1.55e+2, -1421000.0, -1421000.0, 0.0, 0.0, 0.0, -1421000.0, -1421000.0, 0.0, 10.0, 10.0 
1.845e+3, 1.65e+2, -1323000.0, -1323000.0, 0.0, 0.0, 0.0, -1323000.0, -1323000.0, 0.0, 10.0, 10.0 
1.845e+3, 1.75e+2, -1225000.0, -1225000.0, 0.0, 0.0, 0.0, -1225000.0, -1225000.0, 0.0, 10.0, 10.0 
1.845e+3, 1.85e+2, -1127000.0, -1127000.0, 0.0, 0.0, 0.0, -1127000.0, -1127000.0, 0.0, 10.0, 10.0 
1.845e+3, 1.95e+2, -1029000.0, -1029000.0, 0.0, 0.0, 0.0, -1029000.0, -1029000.0, 0.0, 10.0, 10.0 
1.845e+3, 2.05e+2, -931000.0, -931000.0, 0.0, 0.0, 0.0, -931000.0, -931000.0, 0.0, 10.0, 10.0 
1.845e+3, 2.15e+2, -833000.0, -833000.0, 0.0, 0.0, 0.0, -833000.0, -833000.0, 0.0, 10.0, 10.0 
1.845e+3, 2.25e+2, -735000.0, -735000.0, 0.0, 0.0, 0.0, -735000.0, -735000.0, 0.0, 10.0, 10.0 
1.845e+3, 2.35e+2, -637000.0, -637000.0, 0.0, 0.0, 0.0, -637000.0, -637000.0, 0.0, 10.0, 10.0 
1.845e+3, 2.45e+2, -539000.0, -539000.0, 0.0, 0.0, 0.0, -539000.0, -539000.0, 0.0, 10.0, 10.0 
1.845e+3, 2.55e+2, -441000.0, -441000.0, 0.0, 0.0, 0.0, -441000.0, -441000.0, 0.0, 10.0, 10.0 
1.845e+3, 2.65e+2, -343000.0, -343000.0, 0.0, 0.0, 0.0, -343000.0, -343000.0, 0.0, 10.0, 10.0 
1.845e+3, 2.75e+2, -245000.0, -245000.0, 0.0, 0.0, 0.0, -245000.0, -245000.0, 0.0, 10.0, 10.0 
1.845e+3, 2.85e+2, -147000.0, -147000.0, 0.0, 0.0, 0.0, -147000.0, -147000.0, 0.0, 10.0, 10.0 
1.845e+3, 2.95e+2, -49000.0, -49000.0, 0.0, 0.0, 0.0, -49000.0, -49000.0, 0.0, 10.0, 10.0 
1.845e+3, 3.05e+2, 0.0, 0.0, 0.0, 0.0, 0.0, 0.0, 0.0, 0.0, 10.0, 10.0 
1.845e+3, 3.15e+2, 0.0, 0.0, 0.0, 0.0, 0.0, 0.0, 0.0, 0.0, 10.0, 10.0 
1.855e+3, 1.25e+2, -1715000.0, -1715000.0, 0.0, 0.0, 0.0, -1715000.0, -1715000.0, 0.0, 10.0, 10.0 
1.855e+3, 1.35e+2, -1617000.0, -1617000.0, 0.0, 0.0, 0.0, -1617000.0, -1617000.0, 0.0, 10.0, 10.0 
1.855e+3, 1.45e+2, -1519000.0, -1519000.0, 0.0, 0.0, 0.0, -1519000.0, -1519000.0, 0.0, 10.0, 10.0 
1.855e+3, 1.55e+2, -1421000.0, -1421000.0, 0.0, 0.0, 0.0, -1421000.0, -1421000.0, 0.0, 10.0, 10.0 
1.855e+3, 1.65e+2, -1323000.0, -1323000.0, 0.0, 0.0, 0.0, -1323000.0, -1323000.0, 0.0, 10.0, 10.0 
1.855e+3, 1.75e+2, -1225000.0, -1225000.0, 0.0, 0.0, 0.0, -1225000.0, -1225000.0, 0.0, 10.0, 10.0 
1.855e+3, 1.85e+2, -1127000.0, -1127000.0, 0.0, 0.0, 0.0, -1127000.0, -1127000.0, 0.0, 10.0, 10.0 
1.855e+3, 1.95e+2, -1029000.0, -1029000.0, 0.0, 0.0, 0.0, -1029000.0, -1029000.0, 0.0, 10.0, 10.0 
1.855e+3, 2.05e+2, -931000.0, -931000.0, 0.0, 0.0, 0.0, -931000.0, -931000.0, 0.0, 10.0, 10.0 
1.855e+3, 2.15e+2, -833000.0, -833000.0, 0.0, 0.0, 0.0, -833000.0, -833000.0, 0.0, 10.0, 10.0 
1.855e+3, 2.25e+2, -735000.0, -735000.0, 0.0, 0.0, 0.0, -735000.0, -735000.0, 0.0, 10.0, 10.0 
1.855e+3, 2.35e+2, -637000.0, -637000.0, 0.0, 0.0, 0.0, -637000.0, -637000.0, 0.0, 10.0, 10.0 
1.855e+3, 2.45e+2, -539000.0, -539000.0, 0.0, 0.0, 0.0, -539000.0, -539000.0, 0.0, 10.0, 10.0 
1.855e+3, 2.55e+2, -441000.0, -441000.0, 0.0, 0.0, 0.0, -441000.0, -441000.0, 0.0, 10.0, 10.0 
1.855e+3, 2.65e+2, -343000.0, -343000.0, 0.0, 0.0, 0.0, -343000.0, -343000.0, 0.0, 10.0, 10.0 
1.855e+3, 2.75e+2, -245000.0, -245000.0, 0.0, 0.0, 0.0, -245000.0, -245000.0, 0.0, 10.0, 10.0 
1.855e+3, 2.85e+2, -147000.0, -147000.0, 0.0, 0.0, 0.0, -147000.0, -147000.0, 0.0, 10.0, 10.0 
1.855e+3, 2.95e+2, -49000.0, -49000.0, 0.0, 0.0, 0.0, -49000.0, -49000.0, 0.0, 10.0, 10.0 
1.855e+3, 3.05e+2, 0.0, 0.0, 0.0, 0.0, 0.0, 0.0, 0.0, 0.0, 10.0, 10.0 
1.855e+3, 3.15e+2, 0.0, 0.0, 0.0, 0.0, 0.0, 0.0, 0.0, 0.0, 10.0, 10.0 
1.865e+3, 1.25e+2, -1715000.0, -1715000.0, 0.0, 0.0, 0.0, -1715000.0, -1715000.0, 0.0, 10.0, 10.0 
1.865e+3, 1.35e+2, -1617000.0, -1617000.0, 0.0, 0.0, 0.0, -1617000.0, -1617000.0, 0.0, 10.0, 10.0 
1.865e+3, 1.45e+2, -1519000.0, -1519000.0, 0.0, 0.0, 0.0, -1519000.0, -1519000.0, 0.0, 10.0, 10.0 
1.865e+3, 1.55e+2, -1421000.0, -1421000.0, 0.0, 0.0, 0.0, -1421000.0, -1421000.0, 0.0, 10.0, 10.0 
1.865e+3, 1.65e+2, -1323000.0, -1323000.0, 0.0, 0.0, 0.0, -1323000.0, -1323000.0, 0.0, 10.0, 10.0 
1.865e+3, 1.75e+2, -1225000.0, -1225000.0, 0.0, 0.0, 0.0, -1225000.0, -1225000.0, 0.0, 10.0, 10.0 
1.865e+3, 1.85e+2, -1127000.0, -1127000.0, 0.0, 0.0, 0.0, -1127000.0, -1127000.0, 0.0, 10.0, 10.0 
1.865e+3, 1.95e+2, -1029000.0, -1029000.0, 0.0, 0.0, 0.0, -1029000.0, -1029000.0, 0.0, 10.0, 10.0 
1.865e+3, 2.05e+2, -931000.0, -931000.0, 0.0, 0.0, 0.0, -931000.0, -931000.0, 0.0, 10.0, 10.0 
1.865e+3, 2.15e+2, -833000.0, -833000.0, 0.0, 0.0, 0.0, -833000.0, -833000.0, 0.0, 10.0, 10.0 
1.865e+3, 2.25e+2, -735000.0, -735000.0, 0.0, 0.0, 0.0, -735000.0, -735000.0, 0.0, 10.0, 10.0 
1.865e+3, 2.35e+2, -637000.0, -637000.0, 0.0, 0.0, 0.0, -637000.0, -637000.0, 0.0, 10.0, 10.0 
1.865e+3, 2.45e+2, -539000.0, -539000.0, 0.0, 0.0, 0.0, -539000.0, -539000.0, 0.0, 10.0, 10.0 
1.865e+3, 2.55e+2, -441000.0, -441000.0, 0.0, 0.0, 0.0, -441000.0, -441000.0, 0.0, 10.0, 10.0 
1.865e+3, 2.65e+2, -343000.0, -343000.0, 0.0, 0.0, 0.0, -343000.0, -343000.0, 0.0, 10.0, 10.0 
1.865e+3, 2.75e+2, -245000.0, -245000.0, 0.0, 0.0, 0.0, -245000.0, -245000.0, 0.0, 10.0, 10.0 
1.865e+3, 2.85e+2, -147000.0, -147000.0, 0.0, 0.0, 0.0, -147000.0, -147000.0, 0.0, 10.0, 10.0 
1.865e+3, 2.95e+2, -49000.0, -49000.0, 0.0, 0.0, 0.0, -49000.0, -49000.0, 0.0, 10.0, 10.0 
1.865e+3, 3.05e+2, 0.0, 0.0, 0.0, 0.0, 0.0, 0.0, 0.0, 0.0, 10.0, 10.0 
1.865e+3, 3.15e+2, 0.0, 0.0, 0.0, 0.0, 0.0, 0.0, 0.0, 0.0, 10.0, 10.0 
1.875e+3, 1.25e+2, -1715000.0, -1715000.0, 0.0, 0.0, 0.0, -1715000.0, -1715000.0, 0.0, 10.0, 10.0 
1.875e+3, 1.35e+2, -1617000.0, -1617000.0, 0.0, 0.0, 0.0, -1617000.0, -1617000.0, 0.0, 10.0, 10.0 
1.875e+3, 1.45e+2, -1519000.0, -1519000.0, 0.0, 0.0, 0.0, -1519000.0, -1519000.0, 0.0, 10.0, 10.0 
1.875e+3, 1.55e+2, -1421000.0, -1421000.0, 0.0, 0.0, 0.0, -1421000.0, -1421000.0, 0.0, 10.0, 10.0 
1.875e+3, 1.65e+2, -1323000.0, -1323000.0, 0.0, 0.0, 0.0, -1323000.0, -1323000.0, 0.0, 10.0, 10.0 
1.875e+3, 1.75e+2, -1225000.0, -1225000.0, 0.0, 0.0, 0.0, -1225000.0, -1225000.0, 0.0, 10.0, 10.0 
1.875e+3, 1.85e+2, -1127000.0, -1127000.0, 0.0, 0.0, 0.0, -1127000.0, -1127000.0, 0.0, 10.0, 10.0 
1.875e+3, 1.95e+2, -1029000.0, -1029000.0, 0.0, 0.0, 0.0, -1029000.0, -1029000.0, 0.0, 10.0, 10.0 
1.875e+3, 2.05e+2, -931000.0, -931000.0, 0.0, 0.0, 0.0, -931000.0, -931000.0, 0.0, 10.0, 10.0 
1.875e+3, 2.15e+2, -833000.0, -833000.0, 0.0, 0.0, 0.0, -833000.0, -833000.0, 0.0, 10.0, 10.0 
1.875e+3, 2.25e+2, -735000.0, -735000.0, 0.0, 0.0, 0.0, -735000.0, -735000.0, 0.0, 10.0, 10.0 
1.875e+3, 2.35e+2, -637000.0, -637000.0, 0.0, 0.0, 0.0, -637000.0, -637000.0, 0.0, 10.0, 10.0 
1.875e+3, 2.45e+2, -539000.0, -539000.0, 0.0, 0.0, 0.0, -539000.0, -539000.0, 0.0, 10.0, 10.0 
1.875e+3, 2.55e+2, -441000.0, -441000.0, 0.0, 0.0, 0.0, -441000.0, -441000.0, 0.0, 10.0, 10.0 
1.875e+3, 2.65e+2, -343000.0, -343000.0, 0.0, 0.0, 0.0, -343000.0, -343000.0, 0.0, 10.0, 10.0 
1.875e+3, 2.75e+2, -245000.0, -245000.0, 0.0, 0.0, 0.0, -245000.0, -245000.0, 0.0, 10.0, 10.0 
1.875e+3, 2.85e+2, -147000.0, -147000.0, 0.0, 0.0, 0.0, -147000.0, -147000.0, 0.0, 10.0, 10.0 
1.875e+3, 2.95e+2, -49000.0, -49000.0, 0.0, 0.0, 0.0, -49000.0, -49000.0, 0.0, 10.0, 10.0 
1.875e+3, 3.05e+2, 0.0, 0.0, 0.0, 0.0, 0.0, 0.0, 0.0, 0.0, 10.0, 10.0 
1.875e+3, 3.15e+2, 0.0, 0.0, 0.0, 0.0, 0.0, 0.0, 0.0, 0.0, 10.0, 10.0 
1.885e+3, 1.25e+2, -1715000.0, -1715000.0, 0.0, 0.0, 0.0, -1715000.0, -1715000.0, 0.0, 10.0, 10.0 
1.885e+3, 1.35e+2, -1617000.0, -1617000.0, 0.0, 0.0, 0.0, -1617000.0, -1617000.0, 0.0, 10.0, 10.0 
1.885e+3, 1.45e+2, -1519000.0, -1519000.0, 0.0, 0.0, 0.0, -1519000.0, -1519000.0, 0.0, 10.0, 10.0 
1.885e+3, 1.55e+2, -1421000.0, -1421000.0, 0.0, 0.0, 0.0, -1421000.0, -1421000.0, 0.0, 10.0, 10.0 
1.885e+3, 1.65e+2, -1323000.0, -1323000.0, 0.0, 0.0, 0.0, -1323000.0, -1323000.0, 0.0, 10.0, 10.0 
1.885e+3, 1.75e+2, -1225000.0, -1225000.0, 0.0, 0.0, 0.0, -1225000.0, -1225000.0, 0.0, 10.0, 10.0 
1.885e+3, 1.85e+2, -1127000.0, -1127000.0, 0.0, 0.0, 0.0, -1127000.0, -1127000.0, 0.0, 10.0, 10.0 
1.885e+3, 1.95e+2, -1029000.0, -1029000.0, 0.0, 0.0, 0.0, -1029000.0, -1029000.0, 0.0, 10.0, 10.0 
1.885e+3, 2.05e+2, -931000.0, -931000.0, 0.0, 0.0, 0.0, -931000.0, -931000.0, 0.0, 10.0, 10.0 
1.885e+3, 2.15e+2, -833000.0, -833000.0, 0.0, 0.0, 0.0, -833000.0, -833000.0, 0.0, 10.0, 10.0 
1.885e+3, 2.25e+2, -735000.0, -735000.0, 0.0, 0.0, 0.0, -735000.0, -735000.0, 0.0, 10.0, 10.0 
1.885e+3, 2.35e+2, -637000.0, -637000.0, 0.0, 0.0, 0.0, -637000.0, -637000.0, 0.0, 10.0, 10.0 
1.885e+3, 2.45e+2, -539000.0, -539000.0, 0.0, 0.0, 0.0, -539000.0, -539000.0, 0.0, 10.0, 10.0 
1.885e+3, 2.55e+2, -441000.0, -441000.0, 0.0, 0.0, 0.0, -441000.0, -441000.0, 0.0, 10.0, 10.0 
1.885e+3, 2.65e+2, -343000.0, -343000.0, 0.0, 0.0, 0.0, -343000.0, -343000.0, 0.0, 10.0, 10.0 
1.885e+3, 2.75e+2, -245000.0, -245000.0, 0.0, 0.0, 0.0, -245000.0, -245000.0, 0.0, 10.0, 10.0 
1.885e+3, 2.85e+2, -147000.0, -147000.0, 0.0, 0.0, 0.0, -147000.0, -147000.0, 0.0, 10.0, 10.0 
1.885e+3, 2.95e+2, -49000.0, -49000.0, 0.0, 0.0, 0.0, -49000.0, -49000.0, 0.0, 10.0, 10.0 
1.885e+3, 3.05e+2, 0.0, 0.0, 0.0, 0.0, 0.0, 0.0, 0.0, 0.0, 10.0, 10.0 
1.885e+3, 3.15e+2, 0.0, 0.0, 0.0, 0.0, 0.0, 0.0, 0.0, 0.0, 10.0, 10.0 
1.895e+3, 1.25e+2, -1715000.0, -1715000.0, 0.0, 0.0, 0.0, -1715000.0, -1715000.0, 0.0, 10.0, 10.0 
1.895e+3, 1.35e+2, -1617000.0, -1617000.0, 0.0, 0.0, 0.0, -1617000.0, -1617000.0, 0.0, 10.0, 10.0 
1.895e+3, 1.45e+2, -1519000.0, -1519000.0, 0.0, 0.0, 0.0, -1519000.0, -1519000.0, 0.0, 10.0, 10.0 
1.895e+3, 1.55e+2, -1421000.0, -1421000.0, 0.0, 0.0, 0.0, -1421000.0, -1421000.0, 0.0, 10.0, 10.0 
1.895e+3, 1.65e+2, -1323000.0, -1323000.0, 0.0, 0.0, 0.0, -1323000.0, -1323000.0, 0.0, 10.0, 10.0 
1.895e+3, 1.75e+2, -1225000.0, -1225000.0, 0.0, 0.0, 0.0, -1225000.0, -1225000.0, 0.0, 10.0, 10.0 
1.895e+3, 1.85e+2, -1127000.0, -1127000.0, 0.0, 0.0, 0.0, -1127000.0, -1127000.0, 0.0, 10.0, 10.0 
1.895e+3, 1.95e+2, -1029000.0, -1029000.0, 0.0, 0.0, 0.0, -1029000.0, -1029000.0, 0.0, 10.0, 10.0 
1.895e+3, 2.05e+2, -931000.0, -931000.0, 0.0, 0.0, 0.0, -931000.0, -931000.0, 0.0, 10.0, 10.0 
1.895e+3, 2.15e+2, -833000.0, -833000.0, 0.0, 0.0, 0.0, -833000.0, -833000.0, 0.0, 10.0, 10.0 
1.895e+3, 2.25e+2, -735000.0, -735000.0, 0.0, 0.0, 0.0, -735000.0, -735000.0, 0.0, 10.0, 10.0 
1.895e+3, 2.35e+2, -637000.0, -637000.0, 0.0, 0.0, 0.0, -637000.0, -637000.0, 0.0, 10.0, 10.0 
1.895e+3, 2.45e+2, -539000.0, -539000.0, 0.0, 0.0, 0.0, -539000.0, -539000.0, 0.0, 10.0, 10.0 
1.895e+3, 2.55e+2, -441000.0, -441000.0, 0.0, 0.0, 0.0, -441000.0, -441000.0, 0.0, 10.0, 10.0 
1.895e+3, 2.65e+2, -343000.0, -343000.0, 0.0, 0.0, 0.0, -343000.0, -343000.0, 0.0, 10.0, 10.0 
1.895e+3, 2.75e+2, -245000.0, -245000.0, 0.0, 0.0, 0.0, -245000.0, -245000.0, 0.0, 10.0, 10.0 
1.895e+3, 2.85e+2, -147000.0, -147000.0, 0.0, 0.0, 0.0, -147000.0, -147000.0, 0.0, 10.0, 10.0 
1.895e+3, 2.95e+2, -49000.0, -49000.0, 0.0, 0.0, 0.0, -49000.0, -49000.0, 0.0, 10.0, 10.0 
1.895e+3, 3.05e+2, 0.0, 0.0, 0.0, 0.0, 0.0, 0.0, 0.0, 0.0, 10.0, 10.0 
1.895e+3, 3.15e+2, 0.0, 0.0, 0.0, 0.0, 0.0, 0.0, 0.0, 0.0, 10.0, 10.0 
1.905e+3, 1.25e+2, -1715000.0, -1715000.0, 0.0, 0.0, 0.0, -1715000.0, -1715000.0, 0.0, 10.0, 10.0 
1.905e+3, 1.35e+2, -1617000.0, -1617000.0, 0.0, 0.0, 0.0, -1617000.0, -1617000.0, 0.0, 10.0, 10.0 
1.905e+3, 1.45e+2, -1519000.0, -1519000.0, 0.0, 0.0, 0.0, -1519000.0, -1519000.0, 0.0, 10.0, 10.0 
1.905e+3, 1.55e+2, -1421000.0, -1421000.0, 0.0, 0.0, 0.0, -1421000.0, -1421000.0, 0.0, 10.0, 10.0 
1.905e+3, 1.65e+2, -1323000.0, -1323000.0, 0.0, 0.0, 0.0, -1323000.0, -1323000.0, 0.0, 10.0, 10.0 
1.905e+3, 1.75e+2, -1225000.0, -1225000.0, 0.0, 0.0, 0.0, -1225000.0, -1225000.0, 0.0, 10.0, 10.0 
1.905e+3, 1.85e+2, -1127000.0, -1127000.0, 0.0, 0.0, 0.0, -1127000.0, -1127000.0, 0.0, 10.0, 10.0 
1.905e+3, 1.95e+2, -1029000.0, -1029000.0, 0.0, 0.0, 0.0, -1029000.0, -1029000.0, 0.0, 10.0, 10.0 
1.905e+3, 2.05e+2, -931000.0, -931000.0, 0.0, 0.0, 0.0, -931000.0, -931000.0, 0.0, 10.0, 10.0 
1.905e+3, 2.15e+2, -833000.0, -833000.0, 0.0, 0.0, 0.0, -833000.0, -833000.0, 0.0, 10.0, 10.0 
1.905e+3, 2.25e+2, -735000.0, -735000.0, 0.0, 0.0, 0.0, -735000.0, -735000.0, 0.0, 10.0, 10.0 
1.905e+3, 2.35e+2, -637000.0, -637000.0, 0.0, 0.0, 0.0, -637000.0, -637000.0, 0.0, 10.0, 10.0 
1.905e+3, 2.45e+2, -539000.0, -539000.0, 0.0, 0.0, 0.0, -539000.0, -539000.0, 0.0, 10.0, 10.0 
1.905e+3, 2.55e+2, -441000.0, -441000.0, 0.0, 0.0, 0.0, -441000.0, -441000.0, 0.0, 10.0, 10.0 
1.905e+3, 2.65e+2, -343000.0, -343000.0, 0.0, 0.0, 0.0, -343000.0, -343000.0, 0.0, 10.0, 10.0 
1.905e+3, 2.75e+2, -245000.0, -245000.0, 0.0, 0.0, 0.0, -245000.0, -245000.0, 0.0, 10.0, 10.0 
1.905e+3, 2.85e+2, -147000.0, -147000.0, 0.0, 0.0, 0.0, -147000.0, -147000.0, 0.0, 10.0, 10.0 
1.905e+3, 2.95e+2, -49000.0, -49000.0, 0.0, 0.0, 0.0, -49000.0, -49000.0, 0.0, 10.0, 10.0 
1.905e+3, 3.05e+2, 0.0, 0.0, 0.0, 0.0, 0.0, 0.0, 0.0, 0.0, 10.0, 10.0 
1.905e+3, 3.15e+2, 0.0, 0.0, 0.0, 0.0, 0.0, 0.0, 0.0, 0.0, 10.0, 10.0 
1.915e+3, 1.25e+2, -1715000.0, -1715000.0, 0.0, 0.0, 0.0, -1715000.0, -1715000.0, 0.0, 10.0, 10.0 
1.915e+3, 1.35e+2, -1617000.0, -1617000.0, 0.0, 0.0, 0.0, -1617000.0, -1617000.0, 0.0, 10.0, 10.0 
1.915e+3, 1.45e+2, -1519000.0, -1519000.0, 0.0, 0.0, 0.0, -1519000.0, -1519000.0, 0.0, 10.0, 10.0 
1.915e+3, 1.55e+2, -1421000.0, -1421000.0, 0.0, 0.0, 0.0, -1421000.0, -1421000.0, 0.0, 10.0, 10.0 
1.915e+3, 1.65e+2, -1323000.0, -1323000.0, 0.0, 0.0, 0.0, -1323000.0, -1323000.0, 0.0, 10.0, 10.0 
1.915e+3, 1.75e+2, -1225000.0, -1225000.0, 0.0, 0.0, 0.0, -1225000.0, -1225000.0, 0.0, 10.0, 10.0 
1.915e+3, 1.85e+2, -1127000.0, -1127000.0, 0.0, 0.0, 0.0, -1127000.0, -1127000.0, 0.0, 10.0, 10.0 
1.915e+3, 1.95e+2, -1029000.0, -1029000.0, 0.0, 0.0, 0.0, -1029000.0, -1029000.0, 0.0, 10.0, 10.0 
1.915e+3, 2.05e+2, -931000.0, -931000.0, 0.0, 0.0, 0.0, -931000.0, -931000.0, 0.0, 10.0, 10.0 
1.915e+3, 2.15e+2, -833000.0, -833000.0, 0.0, 0.0, 0.0, -833000.0, -833000.0, 0.0, 10.0, 10.0 
1.915e+3, 2.25e+2, -735000.0, -735000.0, 0.0, 0.0, 0.0, -735000.0, -735000.0, 0.0, 10.0, 10.0 
1.915e+3, 2.35e+2, -637000.0, -637000.0, 0.0, 0.0, 0.0, -637000.0, -637000.0, 0.0, 10.0, 10.0 
1.915e+3, 2.45e+2, -539000.0, -539000.0, 0.0, 0.0, 0.0, -539000.0, -539000.0, 0.0, 10.0, 10.0 
1.915e+3, 2.55e+2, -441000.0, -441000.0, 0.0, 0.0, 0.0, -441000.0, -441000.0, 0.0, 10.0, 10.0 
1.915e+3, 2.65e+2, -343000.0, -343000.0, 0.0, 0.0, 0.0, -343000.0, -343000.0, 0.0, 10.0, 10.0 
1.915e+3, 2.75e+2, -245000.0, -245000.0, 0.0, 0.0, 0.0, -245000.0, -245000.0, 0.0, 10.0, 10.0 
1.915e+3, 2.85e+2, -147000.0, -147000.0, 0.0, 0.0, 0.0, -147000.0, -147000.0, 0.0, 10.0, 10.0 
1.915e+3, 2.95e+2, -49000.0, -49000.0, 0.0, 0.0, 0.0, -49000.0, -49000.0, 0.0, 10.0, 10.0 
1.915e+3, 3.05e+2, 0.0, 0.0, 0.0, 0.0, 0.0, 0.0, 0.0, 0.0, 10.0, 10.0 
1.915e+3, 3.15e+2, 0.0, 0.0, 0.0, 0.0, 0.0, 0.0, 0.0, 0.0, 10.0, 10.0 
1.925e+3, 1.25e+2, -1715000.0, -1715000.0, 0.0, 0.0, 0.0, -1715000.0, -1715000.0, 0.0, 10.0, 10.0 
1.925e+3, 1.35e+2, -1617000.0, -1617000.0, 0.0, 0.0, 0.0, -1617000.0, -1617000.0, 0.0, 10.0, 10.0 
1.925e+3, 1.45e+2, -1519000.0, -1519000.0, 0.0, 0.0, 0.0, -1519000.0, -1519000.0, 0.0, 10.0, 10.0 
1.925e+3, 1.55e+2, -1421000.0, -1421000.0, 0.0, 0.0, 0.0, -1421000.0, -1421000.0, 0.0, 10.0, 10.0 
1.925e+3, 1.65e+2, -1323000.0, -1323000.0, 0.0, 0.0, 0.0, -1323000.0, -1323000.0, 0.0, 10.0, 10.0 
1.925e+3, 1.75e+2, -1225000.0, -1225000.0, 0.0, 0.0, 0.0, -1225000.0, -1225000.0, 0.0, 10.0, 10.0 
1.925e+3, 1.85e+2, -1127000.0, -1127000.0, 0.0, 0.0, 0.0, -1127000.0, -1127000.0, 0.0, 10.0, 10.0 
1.925e+3, 1.95e+2, -1029000.0, -1029000.0, 0.0, 0.0, 0.0, -1029000.0, -1029000.0, 0.0, 10.0, 10.0 
1.925e+3, 2.05e+2, -931000.0, -931000.0, 0.0, 0.0, 0.0, -931000.0, -931000.0, 0.0, 10.0, 10.0 
1.925e+3, 2.15e+2, -833000.0, -833000.0, 0.0, 0.0, 0.0, -833000.0, -833000.0, 0.0, 10.0, 10.0 
1.925e+3, 2.25e+2, -735000.0, -735000.0, 0.0, 0.0, 0.0, -735000.0, -735000.0, 0.0, 10.0, 10.0 
1.925e+3, 2.35e+2, -637000.0, -637000.0, 0.0, 0.0, 0.0, -637000.0, -637000.0, 0.0, 10.0, 10.0 
1.925e+3, 2.45e+2, -539000.0, -539000.0, 0.0, 0.0, 0.0, -539000.0, -539000.0, 0.0, 10.0, 10.0 
1.925e+3, 2.55e+2, -441000.0, -441000.0, 0.0, 0.0, 0.0, -441000.0, -441000.0, 0.0, 10.0, 10.0 
1.925e+3, 2.65e+2, -343000.0, -343000.0, 0.0, 0.0, 0.0, -343000.0, -343000.0, 0.0, 10.0, 10.0 
1.925e+3, 2.75e+2, -245000.0, -245000.0, 0.0, 0.0, 0.0, -245000.0, -245000.0, 0.0, 10.0, 10.0 
1.925e+3, 2.85e+2, -147000.0, -147000.0, 0.0, 0.0, 0.0, -147000.0, -147000.0, 0.0, 10.0, 10.0 
1.925e+3, 2.95e+2, -49000.0, -49000.0, 0.0, 0.0, 0.0, -49000.0, -49000.0, 0.0, 10.0, 10.0 
1.925e+3, 3.05e+2, 0.0, 0.0, 0.0, 0.0, 0.0, 0.0, 0.0, 0.0, 10.0, 10.0 
1.925e+3, 3.15e+2, 0.0, 0.0, 0.0, 0.0, 0.0, 0.0, 0.0, 0.0, 10.0, 10.0 
1.935e+3, 1.25e+2, -1715000.0, -1715000.0, 0.0, 0.0, 0.0, -1715000.0, -1715000.0, 0.0, 10.0, 10.0 
1.935e+3, 1.35e+2, -1617000.0, -1617000.0, 0.0, 0.0, 0.0, -1617000.0, -1617000.0, 0.0, 10.0, 10.0 
1.935e+3, 1.45e+2, -1519000.0, -1519000.0, 0.0, 0.0, 0.0, -1519000.0, -1519000.0, 0.0, 10.0, 10.0 
1.935e+3, 1.55e+2, -1421000.0, -1421000.0, 0.0, 0.0, 0.0, -1421000.0, -1421000.0, 0.0, 10.0, 10.0 
1.935e+3, 1.65e+2, -1323000.0, -1323000.0, 0.0, 0.0, 0.0, -1323000.0, -1323000.0, 0.0, 10.0, 10.0 
1.935e+3, 1.75e+2, -1225000.0, -1225000.0, 0.0, 0.0, 0.0, -1225000.0, -1225000.0, 0.0, 10.0, 10.0 
1.935e+3, 1.85e+2, -1127000.0, -1127000.0, 0.0, 0.0, 0.0, -1127000.0, -1127000.0, 0.0, 10.0, 10.0 
1.935e+3, 1.95e+2, -1029000.0, -1029000.0, 0.0, 0.0, 0.0, -1029000.0, -1029000.0, 0.0, 10.0, 10.0 
1.935e+3, 2.05e+2, -931000.0, -931000.0, 0.0, 0.0, 0.0, -931000.0, -931000.0, 0.0, 10.0, 10.0 
1.935e+3, 2.15e+2, -833000.0, -833000.0, 0.0, 0.0, 0.0, -833000.0, -833000.0, 0.0, 10.0, 10.0 
1.935e+3, 2.25e+2, -735000.0, -735000.0, 0.0, 0.0, 0.0, -735000.0, -735000.0, 0.0, 10.0, 10.0 
1.935e+3, 2.35e+2, -637000.0, -637000.0, 0.0, 0.0, 0.0, -637000.0, -637000.0, 0.0, 10.0, 10.0 
1.935e+3, 2.45e+2, -539000.0, -539000.0, 0.0, 0.0, 0.0, -539000.0, -539000.0, 0.0, 10.0, 10.0 
1.935e+3, 2.55e+2, -441000.0, -441000.0, 0.0, 0.0, 0.0, -441000.0, -441000.0, 0.0, 10.0, 10.0 
1.935e+3, 2.65e+2, -343000.0, -343000.0, 0.0, 0.0, 0.0, -343000.0, -343000.0, 0.0, 10.0, 10.0 
1.935e+3, 2.75e+2, -245000.0, -245000.0, 0.0, 0.0, 0.0, -245000.0, -245000.0, 0.0, 10.0, 10.0 
1.935e+3, 2.85e+2, -147000.0, -147000.0, 0.0, 0.0, 0.0, -147000.0, -147000.0, 0.0, 10.0, 10.0 
1.935e+3, 2.95e+2, -49000.0, -49000.0, 0.0, 0.0, 0.0, -49000.0, -49000.0, 0.0, 10.0, 10.0 
1.935e+3, 3.05e+2, 0.0, 0.0, 0.0, 0.0, 0.0, 0.0, 0.0, 0.0, 10.0, 10.0 
1.935e+3, 3.15e+2, 0.0, 0.0, 0.0, 0.0, 0.0, 0.0, 0.0, 0.0, 10.0, 10.0 
1.945e+3, 1.25e+2, -1715000.0, -1715000.0, 0.0, 0.0, 0.0, -1715000.0, -1715000.0, 0.0, 10.0, 10.0 
1.945e+3, 1.35e+2, -1617000.0, -1617000.0, 0.0, 0.0, 0.0, -1617000.0, -1617000.0, 0.0, 10.0, 10.0 
1.945e+3, 1.45e+2, -1519000.0, -1519000.0, 0.0, 0.0, 0.0, -1519000.0, -1519000.0, 0.0, 10.0, 10.0 
1.945e+3, 1.55e+2, -1421000.0, -1421000.0, 0.0, 0.0, 0.0, -1421000.0, -1421000.0, 0.0, 10.0, 10.0 
1.945e+3, 1.65e+2, -1323000.0, -1323000.0, 0.0, 0.0, 0.0, -1323000.0, -1323000.0, 0.0, 10.0, 10.0 
1.945e+3, 1.75e+2, -1225000.0, -1225000.0, 0.0, 0.0, 0.0, -1225000.0, -1225000.0, 0.0, 10.0, 10.0 
1.945e+3, 1.85e+2, -1127000.0, -1127000.0, 0.0, 0.0, 0.0, -1127000.0, -1127000.0, 0.0, 10.0, 10.0 
1.945e+3, 1.95e+2, -1029000.0, -1029000.0, 0.0, 0.0, 0.0, -1029000.0, -1029000.0, 0.0, 10.0, 10.0 
1.945e+3, 2.05e+2, -931000.0, -931000.0, 0.0, 0.0, 0.0, -931000.0, -931000.0, 0.0, 10.0, 10.0 
1.945e+3, 2.15e+2, -833000.0, -833000.0, 0.0, 0.0, 0.0, -833000.0, -833000.0, 0.0, 10.0, 10.0 
1.945e+3, 2.25e+2, -735000.0, -735000.0, 0.0, 0.0, 0.0, -735000.0, -735000.0, 0.0, 10.0, 10.0 
1.945e+3, 2.35e+2, -637000.0, -637000.0, 0.0, 0.0, 0.0, -637000.0, -637000.0, 0.0, 10.0, 10.0 
1.945e+3, 2.45e+2, -539000.0, -539000.0, 0.0, 0.0, 0.0, -539000.0, -539000.0, 0.0, 10.0, 10.0 
1.945e+3, 2.55e+2, -441000.0, -441000.0, 0.0, 0.0, 0.0, -441000.0, -441000.0, 0.0, 10.0, 10.0 
1.945e+3, 2.65e+2, -343000.0, -343000.0, 0.0, 0.0, 0.0, -343000.0, -343000.0, 0.0, 10.0, 10.0 
1.945e+3, 2.75e+2, -245000.0, -245000.0, 0.0, 0.0, 0.0, -245000.0, -245000.0, 0.0, 10.0, 10.0 
1.945e+3, 2.85e+2, -147000.0, -147000.0, 0.0, 0.0, 0.0, -147000.0, -147000.0, 0.0, 10.0, 10.0 
1.945e+3, 2.95e+2, -49000.0, -49000.0, 0.0, 0.0, 0.0, -49000.0, -49000.0, 0.0, 10.0, 10.0 
1.945e+3, 3.05e+2, 0.0, 0.0, 0.0, 0.0, 0.0, 0.0, 0.0, 0.0, 10.0, 10.0 
1.945e+3, 3.15e+2, 0.0, 0.0, 0.0, 0.0, 0.0, 0.0, 0.0, 0.0, 10.0, 10.0 
1.955e+3, 1.25e+2, -1715000.0, -1715000.0, 0.0, 0.0, 0.0, -1715000.0, -1715000.0, 0.0, 10.0, 10.0 
1.955e+3, 1.35e+2, -1617000.0, -1617000.0, 0.0, 0.0, 0.0, -1617000.0, -1617000.0, 0.0, 10.0, 10.0 
1.955e+3, 1.45e+2, -1519000.0, -1519000.0, 0.0, 0.0, 0.0, -1519000.0, -1519000.0, 0.0, 10.0, 10.0 
1.955e+3, 1.55e+2, -1421000.0, -1421000.0, 0.0, 0.0, 0.0, -1421000.0, -1421000.0, 0.0, 10.0, 10.0 
1.955e+3, 1.65e+2, -1323000.0, -1323000.0, 0.0, 0.0, 0.0, -1323000.0, -1323000.0, 0.0, 10.0, 10.0 
1.955e+3, 1.75e+2, -1225000.0, -1225000.0, 0.0, 0.0, 0.0, -1225000.0, -1225000.0, 0.0, 10.0, 10.0 
1.955e+3, 1.85e+2, -1127000.0, -1127000.0, 0.0, 0.0, 0.0, -1127000.0, -1127000.0, 0.0, 10.0, 10.0 
1.955e+3, 1.95e+2, -1029000.0, -1029000.0, 0.0, 0.0, 0.0, -1029000.0, -1029000.0, 0.0, 10.0, 10.0 
1.955e+3, 2.05e+2, -931000.0, -931000.0, 0.0, 0.0, 0.0, -931000.0, -931000.0, 0.0, 10.0, 10.0 
1.955e+3, 2.15e+2, -833000.0, -833000.0, 0.0, 0.0, 0.0, -833000.0, -833000.0, 0.0, 10.0, 10.0 
1.955e+3, 2.25e+2, -735000.0, -735000.0, 0.0, 0.0, 0.0, -735000.0, -735000.0, 0.0, 10.0, 10.0 
1.955e+3, 2.35e+2, -637000.0, -637000.0, 0.0, 0.0, 0.0, -637000.0, -637000.0, 0.0, 10.0, 10.0 
1.955e+3, 2.45e+2, -539000.0, -539000.0, 0.0, 0.0, 0.0, -539000.0, -539000.0, 0.0, 10.0, 10.0 
1.955e+3, 2.55e+2, -441000.0, -441000.0, 0.0, 0.0, 0.0, -441000.0, -441000.0, 0.0, 10.0, 10.0 
1.955e+3, 2.65e+2, -343000.0, -343000.0, 0.0, 0.0, 0.0, -343000.0, -343000.0, 0.0, 10.0, 10.0 
1.955e+3, 2.75e+2, -245000.0, -245000.0, 0.0, 0.0, 0.0, -245000.0, -245000.0, 0.0, 10.0, 10.0 
1.955e+3, 2.85e+2, -147000.0, -147000.0, 0.0, 0.0, 0.0, -147000.0, -147000.0, 0.0, 10.0, 10.0 
1.955e+3, 2.95e+2, -49000.0, -49000.0, 0.0, 0.0, 0.0, -49000.0, -49000.0, 0.0, 10.0, 10.0 
1.955e+3, 3.05e+2, 0.0, 0.0, 0.0, 0.0, 0.0, 0.0, 0.0, 0.0, 10.0, 10.0 
1.955e+3, 3.15e+2, 0.0, 0.0, 0.0, 0.0, 0.0, 0.0, 0.0, 0.0, 10.0, 10.0 
1.965e+3, 1.25e+2, -1715000.0, -1715000.0, 0.0, 0.0, 0.0, -1715000.0, -1715000.0, 0.0, 10.0, 10.0 
1.965e+3, 1.35e+2, -1617000.0, -1617000.0, 0.0, 0.0, 0.0, -1617000.0, -1617000.0, 0.0, 10.0, 10.0 
1.965e+3, 1.45e+2, -1519000.0, -1519000.0, 0.0, 0.0, 0.0, -1519000.0, -1519000.0, 0.0, 10.0, 10.0 
1.965e+3, 1.55e+2, -1421000.0, -1421000.0, 0.0, 0.0, 0.0, -1421000.0, -1421000.0, 0.0, 10.0, 10.0 
1.965e+3, 1.65e+2, -1323000.0, -1323000.0, 0.0, 0.0, 0.0, -1323000.0, -1323000.0, 0.0, 10.0, 10.0 
1.965e+3, 1.75e+2, -1225000.0, -1225000.0, 0.0, 0.0, 0.0, -1225000.0, -1225000.0, 0.0, 10.0, 10.0 
1.965e+3, 1.85e+2, -1127000.0, -1127000.0, 0.0, 0.0, 0.0, -1127000.0, -1127000.0, 0.0, 10.0, 10.0 
1.965e+3, 1.95e+2, -1029000.0, -1029000.0, 0.0, 0.0, 0.0, -1029000.0, -1029000.0, 0.0, 10.0, 10.0 
1.965e+3, 2.05e+2, -931000.0, -931000.0, 0.0, 0.0, 0.0, -931000.0, -931000.0, 0.0, 10.0, 10.0 
1.965e+3, 2.15e+2, -833000.0, -833000.0, 0.0, 0.0, 0.0, -833000.0, -833000.0, 0.0, 10.0, 10.0 
1.965e+3, 2.25e+2, -735000.0, -735000.0, 0.0, 0.0, 0.0, -735000.0, -735000.0, 0.0, 10.0, 10.0 
1.965e+3, 2.35e+2, -637000.0, -637000.0, 0.0, 0.0, 0.0, -637000.0, -637000.0, 0.0, 10.0, 10.0 
1.965e+3, 2.45e+2, -539000.0, -539000.0, 0.0, 0.0, 0.0, -539000.0, -539000.0, 0.0, 10.0, 10.0 
1.965e+3, 2.55e+2, -441000.0, -441000.0, 0.0, 0.0, 0.0, -441000.0, -441000.0, 0.0, 10.0, 10.0 
1.965e+3, 2.65e+2, -343000.0, -343000.0, 0.0, 0.0, 0.0, -343000.0, -343000.0, 0.0, 10.0, 10.0 
1.965e+3, 2.75e+2, -245000.0, -245000.0, 0.0, 0.0, 0.0, -245000.0, -245000.0, 0.0, 10.0, 10.0 
1.965e+3, 2.85e+2, -147000.0, -147000.0, 0.0, 0.0, 0.0, -147000.0, -147000.0, 0.0, 10.0, 10.0 
1.965e+3, 2.95e+2, -49000.0, -49000.0, 0.0, 0.0, 0.0, -49000.0, -49000.0, 0.0, 10.0, 10.0 
1.965e+3, 3.05e+2, 0.0, 0.0, 0.0, 0.0, 0.0, 0.0, 0.0, 0.0, 10.0, 10.0 
1.965e+3, 3.15e+2, 0.0, 0.0, 0.0, 0.0, 0.0, 0.0, 0.0, 0.0, 10.0, 10.0 
1.975e+3, 1.25e+2, -1715000.0, -1715000.0, 0.0, 0.0, 0.0, -1715000.0, -1715000.0, 0.0, 10.0, 10.0 
1.975e+3, 1.35e+2, -1617000.0, -1617000.0, 0.0, 0.0, 0.0, -1617000.0, -1617000.0, 0.0, 10.0, 10.0 
1.975e+3, 1.45e+2, -1519000.0, -1519000.0, 0.0, 0.0, 0.0, -1519000.0, -1519000.0, 0.0, 10.0, 10.0 
1.975e+3, 1.55e+2, -1421000.0, -1421000.0, 0.0, 0.0, 0.0, -1421000.0, -1421000.0, 0.0, 10.0, 10.0 
1.975e+3, 1.65e+2, -1323000.0, -1323000.0, 0.0, 0.0, 0.0, -1323000.0, -1323000.0, 0.0, 10.0, 10.0 
1.975e+3, 1.75e+2, -1225000.0, -1225000.0, 0.0, 0.0, 0.0, -1225000.0, -1225000.0, 0.0, 10.0, 10.0 
1.975e+3, 1.85e+2, -1127000.0, -1127000.0, 0.0, 0.0, 0.0, -1127000.0, -1127000.0, 0.0, 10.0, 10.0 
1.975e+3, 1.95e+2, -1029000.0, -1029000.0, 0.0, 0.0, 0.0, -1029000.0, -1029000.0, 0.0, 10.0, 10.0 
1.975e+3, 2.05e+2, -931000.0, -931000.0, 0.0, 0.0, 0.0, -931000.0, -931000.0, 0.0, 10.0, 10.0 
1.975e+3, 2.15e+2, -833000.0, -833000.0, 0.0, 0.0, 0.0, -833000.0, -833000.0, 0.0, 10.0, 10.0 
1.975e+3, 2.25e+2, -735000.0, -735000.0, 0.0, 0.0, 0.0, -735000.0, -735000.0, 0.0, 10.0, 10.0 
1.975e+3, 2.35e+2, -637000.0, -637000.0, 0.0, 0.0, 0.0, -637000.0, -637000.0, 0.0, 10.0, 10.0 
1.975e+3, 2.45e+2, -539000.0, -539000.0, 0.0, 0.0, 0.0, -539000.0, -539000.0, 0.0, 10.0, 10.0 
1.975e+3, 2.55e+2, -441000.0, -441000.0, 0.0, 0.0, 0.0, -441000.0, -441000.0, 0.0, 10.0, 10.0 
1.975e+3, 2.65e+2, -343000.0, -343000.0, 0.0, 0.0, 0.0, -343000.0, -343000.0, 0.0, 10.0, 10.0 
1.975e+3, 2.75e+2, -245000.0, -245000.0, 0.0, 0.0, 0.0, -245000.0, -245000.0, 0.0, 10.0, 10.0 
1.975e+3, 2.85e+2, -147000.0, -147000.0, 0.0, 0.0, 0.0, -147000.0, -147000.0, 0.0, 10.0, 10.0 
1.975e+3, 2.95e+2, -49000.0, -49000.0, 0.0, 0.0, 0.0, -49000.0, -49000.0, 0.0, 10.0, 10.0 
1.975e+3, 3.05e+2, 0.0, 0.0, 0.0, 0.0, 0.0, 0.0, 0.0, 0.0, 10.0, 10.0 
1.975e+3, 3.15e+2, 0.0, 0.0, 0.0, 0.0, 0.0, 0.0, 0.0, 0.0, 10.0, 10.0 
1.985e+3, 1.25e+2, -1715000.0, -1715000.0, 0.0, 0.0, 0.0, -1715000.0, -1715000.0, 0.0, 10.0, 10.0 
1.985e+3, 1.35e+2, -1617000.0, -1617000.0, 0.0, 0.0, 0.0, -1617000.0, -1617000.0, 0.0, 10.0, 10.0 
1.985e+3, 1.45e+2, -1519000.0, -1519000.0, 0.0, 0.0, 0.0, -1519000.0, -1519000.0, 0.0, 10.0, 10.0 
1.985e+3, 1.55e+2, -1421000.0, -1421000.0, 0.0, 0.0, 0.0, -1421000.0, -1421000.0, 0.0, 10.0, 10.0 
1.985e+3, 1.65e+2, -1323000.0, -1323000.0, 0.0, 0.0, 0.0, -1323000.0, -1323000.0, 0.0, 10.0, 10.0 
1.985e+3, 1.75e+2, -1225000.0, -1225000.0, 0.0, 0.0, 0.0, -1225000.0, -1225000.0, 0.0, 10.0, 10.0 
1.985e+3, 1.85e+2, -1127000.0, -1127000.0, 0.0, 0.0, 0.0, -1127000.0, -1127000.0, 0.0, 10.0, 10.0 
1.985e+3, 1.95e+2, -1029000.0, -1029000.0, 0.0, 0.0, 0.0, -1029000.0, -1029000.0, 0.0, 10.0, 10.0 
1.985e+3, 2.05e+2, -931000.0, -931000.0, 0.0, 0.0, 0.0, -931000.0, -931000.0, 0.0, 10.0, 10.0 
1.985e+3, 2.15e+2, -833000.0, -833000.0, 0.0, 0.0, 0.0, -833000.0, -833000.0, 0.0, 10.0, 10.0 
1.985e+3, 2.25e+2, -735000.0, -735000.0, 0.0, 0.0, 0.0, -735000.0, -735000.0, 0.0, 10.0, 10.0 
1.985e+3, 2.35e+2, -637000.0, -637000.0, 0.0, 0.0, 0.0, -637000.0, -637000.0, 0.0, 10.0, 10.0 
1.985e+3, 2.45e+2, -539000.0, -539000.0, 0.0, 0.0, 0.0, -539000.0, -539000.0, 0.0, 10.0, 10.0 
1.985e+3, 2.55e+2, -441000.0, -441000.0, 0.0, 0.0, 0.0, -441000.0, -441000.0, 0.0, 10.0, 10.0 
1.985e+3, 2.65e+2, -343000.0, -343000.0, 0.0, 0.0, 0.0, -343000.0, -343000.0, 0.0, 10.0, 10.0 
1.985e+3, 2.75e+2, -245000.0, -245000.0, 0.0, 0.0, 0.0, -245000.0, -245000.0, 0.0, 10.0, 10.0 
1.985e+3, 2.85e+2, -147000.0, -147000.0, 0.0, 0.0, 0.0, -147000.0, -147000.0, 0.0, 10.0, 10.0 
1.985e+3, 2.95e+2, -49000.0, -49000.0, 0.0, 0.0, 0.0, -49000.0, -49000.0, 0.0, 10.0, 10.0 
1.985e+3, 3.05e+2, 0.0, 0.0, 0.0, 0.0, 0.0, 0.0, 0.0, 0.0, 10.0, 10.0 
1.985e+3, 3.15e+2, 0.0, 0.0, 0.0, 0.0, 0.0, 0.0, 0.0, 0.0, 10.0, 10.0 
1.995e+3, 1.25e+2, -1715000.0, -1715000.0, 0.0, 0.0, 0.0, -1715000.0, -1715000.0, 0.0, 10.0, 10.0 
1.995e+3, 1.35e+2, -1617000.0, -1617000.0, 0.0, 0.0, 0.0, -1617000.0, -1617000.0, 0.0, 10.0, 10.0 
1.995e+3, 1.45e+2, -1519000.0, -1519000.0, 0.0, 0.0, 0.0, -1519000.0, -1519000.0, 0.0, 10.0, 10.0 
1.995e+3, 1.55e+2, -1421000.0, -1421000.0, 0.0, 0.0, 0.0, -1421000.0, -1421000.0, 0.0, 10.0, 10.0 
1.995e+3, 1.65e+2, -1323000.0, -1323000.0, 0.0, 0.0, 0.0, -1323000.0, -1323000.0, 0.0, 10.0, 10.0 
1.995e+3, 1.75e+2, -1225000.0, -1225000.0, 0.0, 0.0, 0.0, -1225000.0, -1225000.0, 0.0, 10.0, 10.0 
1.995e+3, 1.85e+2, -1127000.0, -1127000.0, 0.0, 0.0, 0.0, -1127000.0, -1127000.0, 0.0, 10.0, 10.0 
1.995e+3, 1.95e+2, -1029000.0, -1029000.0, 0.0, 0.0, 0.0, -1029000.0, -1029000.0, 0.0, 10.0, 10.0 
1.995e+3, 2.05e+2, -931000.0, -931000.0, 0.0, 0.0, 0.0, -931000.0, -931000.0, 0.0, 10.0, 10.0 
1.995e+3, 2.15e+2, -833000.0, -833000.0, 0.0, 0.0, 0.0, -833000.0, -833000.0, 0.0, 10.0, 10.0 
1.995e+3, 2.25e+2, -735000.0, -735000.0, 0.0, 0.0, 0.0, -735000.0, -735000.0, 0.0, 10.0, 10.0 
1.995e+3, 2.35e+2, -637000.0, -637000.0, 0.0, 0.0, 0.0, -637000.0, -637000.0, 0.0, 10.0, 10.0 
1.995e+3, 2.45e+2, -539000.0, -539000.0, 0.0, 0.0, 0.0, -539000.0, -539000.0, 0.0, 10.0, 10.0 
1.995e+3, 2.55e+2, -441000.0, -441000.0, 0.0, 0.0, 0.0, -441000.0, -441000.0, 0.0, 10.0, 10.0 
1.995e+3, 2.65e+2, -343000.0, -343000.0, 0.0, 0.0, 0.0, -343000.0, -343000.0, 0.0, 10.0, 10.0 
1.995e+3, 2.75e+2, -245000.0, -245000.0, 0.0, 0.0, 0.0, -245000.0, -245000.0, 0.0, 10.0, 10.0 
1.995e+3, 2.85e+2, -147000.0, -147000.0, 0.0, 0.0, 0.0, -147000.0, -147000.0, 0.0, 10.0, 10.0 
1.995e+3, 2.95e+2, -49000.0, -49000.0, 0.0, 0.0, 0.0, -49000.0, -49000.0, 0.0, 10.0, 10.0 
1.995e+3, 3.05e+2, 0.0, 0.0, 0.0, 0.0, 0.0, 0.0, 0.0, 0.0, 10.0, 10.0 
1.995e+3, 3.15e+2, 0.0, 0.0, 0.0, 0.0, 0.0, 0.0, 0.0, 0.0, 10.0, 10.0 
2.005e+3, 1.25e+2, -1715000.0, -1715000.0, 0.0, 0.0, 0.0, -1715000.0, -1715000.0, 0.0, 10.0, 10.0 
2.005e+3, 1.35e+2, -1617000.0, -1617000.0, 0.0, 0.0, 0.0, -1617000.0, -1617000.0, 0.0, 10.0, 10.0 
2.005e+3, 1.45e+2, -1519000.0, -1519000.0, 0.0, 0.0, 0.0, -1519000.0, -1519000.0, 0.0, 10.0, 10.0 
2.005e+3, 1.55e+2, -1421000.0, -1421000.0, 0.0, 0.0, 0.0, -1421000.0, -1421000.0, 0.0, 10.0, 10.0 
2.005e+3, 1.65e+2, -1323000.0, -1323000.0, 0.0, 0.0, 0.0, -1323000.0, -1323000.0, 0.0, 10.0, 10.0 
2.005e+3, 1.75e+2, -1225000.0, -1225000.0, 0.0, 0.0, 0.0, -1225000.0, -1225000.0, 0.0, 10.0, 10.0 
2.005e+3, 1.85e+2, -1127000.0, -1127000.0, 0.0, 0.0, 0.0, -1127000.0, -1127000.0, 0.0, 10.0, 10.0 
2.005e+3, 1.95e+2, -1029000.0, -1029000.0, 0.0, 0.0, 0.0, -1029000.0, -1029000.0, 0.0, 10.0, 10.0 
2.005e+3, 2.05e+2, -931000.0, -931000.0, 0.0, 0.0, 0.0, -931000.0, -931000.0, 0.0, 10.0, 10.0 
2.005e+3, 2.15e+2, -833000.0, -833000.0, 0.0, 0.0, 0.0, -833000.0, -833000.0, 0.0, 10.0, 10.0 
2.005e+3, 2.25e+2, -735000.0, -735000.0, 0.0, 0.0, 0.0, -735000.0, -735000.0, 0.0, 10.0, 10.0 
2.005e+3, 2.35e+2, -637000.0, -637000.0, 0.0, 0.0, 0.0, -637000.0, -637000.0, 0.0, 10.0, 10.0 
2.005e+3, 2.45e+2, -539000.0, -539000.0, 0.0, 0.0, 0.0, -539000.0, -539000.0, 0.0, 10.0, 10.0 
2.005e+3, 2.55e+2, -441000.0, -441000.0, 0.0, 0.0, 0.0, -441000.0, -441000.0, 0.0, 10.0, 10.0 
2.005e+3, 2.65e+2, -343000.0, -343000.0, 0.0, 0.0, 0.0, -343000.0, -343000.0, 0.0, 10.0, 10.0 
2.005e+3, 2.75e+2, -245000.0, -245000.0, 0.0, 0.0, 0.0, -245000.0, -245000.0, 0.0, 10.0, 10.0 
2.005e+3, 2.85e+2, -147000.0, -147000.0, 0.0, 0.0, 0.0, -147000.0, -147000.0, 0.0, 10.0, 10.0 
2.005e+3, 2.95e+2, -49000.0, -49000.0, 0.0, 0.0, 0.0, -49000.0, -49000.0, 0.0, 10.0, 10.0 
2.005e+3, 3.05e+2, 0.0, 0.0, 0.0, 0.0, 0.0, 0.0, 0.0, 0.0, 10.0, 10.0 
2.005e+3, 3.15e+2, 0.0, 0.0, 0.0, 0.0, 0.0, 0.0, 0.0, 0.0, 10.0, 10.0 
2.015e+3, 1.25e+2, -1715000.0, -1715000.0, 0.0, 0.0, 0.0, -1715000.0, -1715000.0, 0.0, 10.0, 10.0 
2.015e+3, 1.35e+2, -1617000.0, -1617000.0, 0.0, 0.0, 0.0, -1617000.0, -1617000.0, 0.0, 10.0, 10.0 
2.015e+3, 1.45e+2, -1519000.0, -1519000.0, 0.0, 0.0, 0.0, -1519000.0, -1519000.0, 0.0, 10.0, 10.0 
2.015e+3, 1.55e+2, -1421000.0, -1421000.0, 0.0, 0.0, 0.0, -1421000.0, -1421000.0, 0.0, 10.0, 10.0 
2.015e+3, 1.65e+2, -1323000.0, -1323000.0, 0.0, 0.0, 0.0, -1323000.0, -1323000.0, 0.0, 10.0, 10.0 
2.015e+3, 1.75e+2, -1225000.0, -1225000.0, 0.0, 0.0, 0.0, -1225000.0, -1225000.0, 0.0, 10.0, 10.0 
2.015e+3, 1.85e+2, -1127000.0, -1127000.0, 0.0, 0.0, 0.0, -1127000.0, -1127000.0, 0.0, 10.0, 10.0 
2.015e+3, 1.95e+2, -1029000.0, -1029000.0, 0.0, 0.0, 0.0, -1029000.0, -1029000.0, 0.0, 10.0, 10.0 
2.015e+3, 2.05e+2, -931000.0, -931000.0, 0.0, 0.0, 0.0, -931000.0, -931000.0, 0.0, 10.0, 10.0 
2.015e+3, 2.15e+2, -833000.0, -833000.0, 0.0, 0.0, 0.0, -833000.0, -833000.0, 0.0, 10.0, 10.0 
2.015e+3, 2.25e+2, -735000.0, -735000.0, 0.0, 0.0, 0.0, -735000.0, -735000.0, 0.0, 10.0, 10.0 
2.015e+3, 2.35e+2, -637000.0, -637000.0, 0.0, 0.0, 0.0, -637000.0, -637000.0, 0.0, 10.0, 10.0 
2.015e+3, 2.45e+2, -539000.0, -539000.0, 0.0, 0.0, 0.0, -539000.0, -539000.0, 0.0, 10.0, 10.0 
2.015e+3, 2.55e+2, -441000.0, -441000.0, 0.0, 0.0, 0.0, -441000.0, -441000.0, 0.0, 10.0, 10.0 
2.015e+3, 2.65e+2, -343000.0, -343000.0, 0.0, 0.0, 0.0, -343000.0, -343000.0, 0.0, 10.0, 10.0 
2.015e+3, 2.75e+2, -245000.0, -245000.0, 0.0, 0.0, 0.0, -245000.0, -245000.0, 0.0, 10.0, 10.0 
2.015e+3, 2.85e+2, -147000.0, -147000.0, 0.0, 0.0, 0.0, -147000.0, -147000.0, 0.0, 10.0, 10.0 
2.015e+3, 2.95e+2, -49000.0, -49000.0, 0.0, 0.0, 0.0, -49000.0, -49000.0, 0.0, 10.0, 10.0 
2.015e+3, 3.05e+2, 0.0, 0.0, 0.0, 0.0, 0.0, 0.0, 0.0, 0.0, 10.0, 10.0 
2.015e+3, 3.15e+2, 0.0, 0.0, 0.0, 0.0, 0.0, 0.0, 0.0, 0.0, 10.0, 10.0 
2.025e+3, 1.25e+2, -1715000.0, -1715000.0, 0.0, 0.0, 0.0, -1715000.0, -1715000.0, 0.0, 10.0, 10.0 
2.025e+3, 1.35e+2, -1617000.0, -1617000.0, 0.0, 0.0, 0.0, -1617000.0, -1617000.0, 0.0, 10.0, 10.0 
2.025e+3, 1.45e+2, -1519000.0, -1519000.0, 0.0, 0.0, 0.0, -1519000.0, -1519000.0, 0.0, 10.0, 10.0 
2.025e+3, 1.55e+2, -1421000.0, -1421000.0, 0.0, 0.0, 0.0, -1421000.0, -1421000.0, 0.0, 10.0, 10.0 
2.025e+3, 1.65e+2, -1323000.0, -1323000.0, 0.0, 0.0, 0.0, -1323000.0, -1323000.0, 0.0, 10.0, 10.0 
2.025e+3, 1.75e+2, -1225000.0, -1225000.0, 0.0, 0.0, 0.0, -1225000.0, -1225000.0, 0.0, 10.0, 10.0 
2.025e+3, 1.85e+2, -1127000.0, -1127000.0, 0.0, 0.0, 0.0, -1127000.0, -1127000.0, 0.0, 10.0, 10.0 
2.025e+3, 1.95e+2, -1029000.0, -1029000.0, 0.0, 0.0, 0.0, -1029000.0, -1029000.0, 0.0, 10.0, 10.0 
2.025e+3, 2.05e+2, -931000.0, -931000.0, 0.0, 0.0, 0.0, -931000.0, -931000.0, 0.0, 10.0, 10.0 
2.025e+3, 2.15e+2, -833000.0, -833000.0, 0.0, 0.0, 0.0, -833000.0, -833000.0, 0.0, 10.0, 10.0 
2.025e+3, 2.25e+2, -735000.0, -735000.0, 0.0, 0.0, 0.0, -735000.0, -735000.0, 0.0, 10.0, 10.0 
2.025e+3, 2.35e+2, -637000.0, -637000.0, 0.0, 0.0, 0.0, -637000.0, -637000.0, 0.0, 10.0, 10.0 
2.025e+3, 2.45e+2, -539000.0, -539000.0, 0.0, 0.0, 0.0, -539000.0, -539000.0, 0.0, 10.0, 10.0 
2.025e+3, 2.55e+2, -441000.0, -441000.0, 0.0, 0.0, 0.0, -441000.0, -441000.0, 0.0, 10.0, 10.0 
2.025e+3, 2.65e+2, -343000.0, -343000.0, 0.0, 0.0, 0.0, -343000.0, -343000.0, 0.0, 10.0, 10.0 
2.025e+3, 2.75e+2, -245000.0, -245000.0, 0.0, 0.0, 0.0, -245000.0, -245000.0, 0.0, 10.0, 10.0 
2.025e+3, 2.85e+2, -147000.0, -147000.0, 0.0, 0.0, 0.0, -147000.0, -147000.0, 0.0, 10.0, 10.0 
2.025e+3, 2.95e+2, -49000.0, -49000.0, 0.0, 0.0, 0.0, -49000.0, -49000.0, 0.0, 10.0, 10.0 
2.025e+3, 3.05e+2, 0.0, 0.0, 0.0, 0.0, 0.0, 0.0, 0.0, 0.0, 10.0, 10.0 
2.025e+3, 3.15e+2, 0.0, 0.0, 0.0, 0.0, 0.0, 0.0, 0.0, 0.0, 10.0, 10.0 
2.035e+3, 1.25e+2, -1715000.0, -1715000.0, 0.0, 0.0, 0.0, -1715000.0, -1715000.0, 0.0, 10.0, 10.0 
2.035e+3, 1.35e+2, -1617000.0, -1617000.0, 0.0, 0.0, 0.0, -1617000.0, -1617000.0, 0.0, 10.0, 10.0 
2.035e+3, 1.45e+2, -1519000.0, -1519000.0, 0.0, 0.0, 0.0, -1519000.0, -1519000.0, 0.0, 10.0, 10.0 
2.035e+3, 1.55e+2, -1421000.0, -1421000.0, 0.0, 0.0, 0.0, -1421000.0, -1421000.0, 0.0, 10.0, 10.0 
2.035e+3, 1.65e+2, -1323000.0, -1323000.0, 0.0, 0.0, 0.0, -1323000.0, -1323000.0, 0.0, 10.0, 10.0 
2.035e+3, 1.75e+2, -1225000.0, -1225000.0, 0.0, 0.0, 0.0, -1225000.0, -1225000.0, 0.0, 10.0, 10.0 
2.035e+3, 1.85e+2, -1127000.0, -1127000.0, 0.0, 0.0, 0.0, -1127000.0, -1127000.0, 0.0, 10.0, 10.0 
2.035e+3, 1.95e+2, -1029000.0, -1029000.0, 0.0, 0.0, 0.0, -1029000.0, -1029000.0, 0.0, 10.0, 10.0 
2.035e+3, 2.05e+2, -931000.0, -931000.0, 0.0, 0.0, 0.0, -931000.0, -931000.0, 0.0, 10.0, 10.0 
2.035e+3, 2.15e+2, -833000.0, -833000.0, 0.0, 0.0, 0.0, -833000.0, -833000.0, 0.0, 10.0, 10.0 
2.035e+3, 2.25e+2, -735000.0, -735000.0, 0.0, 0.0, 0.0, -735000.0, -735000.0, 0.0, 10.0, 10.0 
2.035e+3, 2.35e+2, -637000.0, -637000.0, 0.0, 0.0, 0.0, -637000.0, -637000.0, 0.0, 10.0, 10.0 
2.035e+3, 2.45e+2, -539000.0, -539000.0, 0.0, 0.0, 0.0, -539000.0, -539000.0, 0.0, 10.0, 10.0 
2.035e+3, 2.55e+2, -441000.0, -441000.0, 0.0, 0.0, 0.0, -441000.0, -441000.0, 0.0, 10.0, 10.0 
2.035e+3, 2.65e+2, -343000.0, -343000.0, 0.0, 0.0, 0.0, -343000.0, -343000.0, 0.0, 10.0, 10.0 
2.035e+3, 2.75e+2, -245000.0, -245000.0, 0.0, 0.0, 0.0, -245000.0, -245000.0, 0.0, 10.0, 10.0 
2.035e+3, 2.85e+2, -147000.0, -147000.0, 0.0, 0.0, 0.0, -147000.0, -147000.0, 0.0, 10.0, 10.0 
2.035e+3, 2.95e+2, -49000.0, -49000.0, 0.0, 0.0, 0.0, -49000.0, -49000.0, 0.0, 10.0, 10.0 
2.035e+3, 3.05e+2, 0.0, 0.0, 0.0, 0.0, 0.0, 0.0, 0.0, 0.0, 10.0, 10.0 
2.035e+3, 3.15e+2, 0.0, 0.0, 0.0, 0.0, 0.0, 0.0, 0.0, 0.0, 10.0, 10.0 
2.045e+3, 1.25e+2, -1715000.0, -1715000.0, 0.0, 0.0, 0.0, -1715000.0, -1715000.0, 0.0, 10.0, 10.0 
2.045e+3, 1.35e+2, -1617000.0, -1617000.0, 0.0, 0.0, 0.0, -1617000.0, -1617000.0, 0.0, 10.0, 10.0 
2.045e+3, 1.45e+2, -1519000.0, -1519000.0, 0.0, 0.0, 0.0, -1519000.0, -1519000.0, 0.0, 10.0, 10.0 
2.045e+3, 1.55e+2, -1421000.0, -1421000.0, 0.0, 0.0, 0.0, -1421000.0, -1421000.0, 0.0, 10.0, 10.0 
2.045e+3, 1.65e+2, -1323000.0, -1323000.0, 0.0, 0.0, 0.0, -1323000.0, -1323000.0, 0.0, 10.0, 10.0 
2.045e+3, 1.75e+2, -1225000.0, -1225000.0, 0.0, 0.0, 0.0, -1225000.0, -1225000.0, 0.0, 10.0, 10.0 
2.045e+3, 1.85e+2, -1127000.0, -1127000.0, 0.0, 0.0, 0.0, -1127000.0, -1127000.0, 0.0, 10.0, 10.0 
2.045e+3, 1.95e+2, -1029000.0, -1029000.0, 0.0, 0.0, 0.0, -1029000.0, -1029000.0, 0.0, 10.0, 10.0 
2.045e+3, 2.05e+2, -931000.0, -931000.0, 0.0, 0.0, 0.0, -931000.0, -931000.0, 0.0, 10.0, 10.0 
2.045e+3, 2.15e+2, -833000.0, -833000.0, 0.0, 0.0, 0.0, -833000.0, -833000.0, 0.0, 10.0, 10.0 
2.045e+3, 2.25e+2, -735000.0, -735000.0, 0.0, 0.0, 0.0, -735000.0, -735000.0, 0.0, 10.0, 10.0 
2.045e+3, 2.35e+2, -637000.0, -637000.0, 0.0, 0.0, 0.0, -637000.0, -637000.0, 0.0, 10.0, 10.0 
2.045e+3, 2.45e+2, -539000.0, -539000.0, 0.0, 0.0, 0.0, -539000.0, -539000.0, 0.0, 10.0, 10.0 
2.045e+3, 2.55e+2, -441000.0, -441000.0, 0.0, 0.0, 0.0, -441000.0, -441000.0, 0.0, 10.0, 10.0 
2.045e+3, 2.65e+2, -343000.0, -343000.0, 0.0, 0.0, 0.0, -343000.0, -343000.0, 0.0, 10.0, 10.0 
2.045e+3, 2.75e+2, -245000.0, -245000.0, 0.0, 0.0, 0.0, -245000.0, -245000.0, 0.0, 10.0, 10.0 
2.045e+3, 2.85e+2, -147000.0, -147000.0, 0.0, 0.0, 0.0, -147000.0, -147000.0, 0.0, 10.0, 10.0 
2.045e+3, 2.95e+2, -49000.0, -49000.0, 0.0, 0.0, 0.0, -49000.0, -49000.0, 0.0, 10.0, 10.0 
2.045e+3, 3.05e+2, 0.0, 0.0, 0.0, 0.0, 0.0, 0.0, 0.0, 0.0, 10.0, 10.0 
2.045e+3, 3.15e+2, 0.0, 0.0, 0.0, 0.0, 0.0, 0.0, 0.0, 0.0, 10.0, 10.0 
2.055e+3, 1.25e+2, -1715000.0, -1715000.0, 0.0, 0.0, 0.0, -1715000.0, -1715000.0, 0.0, 10.0, 10.0 
2.055e+3, 1.35e+2, -1617000.0, -1617000.0, 0.0, 0.0, 0.0, -1617000.0, -1617000.0, 0.0, 10.0, 10.0 
2.055e+3, 1.45e+2, -1519000.0, -1519000.0, 0.0, 0.0, 0.0, -1519000.0, -1519000.0, 0.0, 10.0, 10.0 
2.055e+3, 1.55e+2, -1421000.0, -1421000.0, 0.0, 0.0, 0.0, -1421000.0, -1421000.0, 0.0, 10.0, 10.0 
2.055e+3, 1.65e+2, -1323000.0, -1323000.0, 0.0, 0.0, 0.0, -1323000.0, -1323000.0, 0.0, 10.0, 10.0 
2.055e+3, 1.75e+2, -1225000.0, -1225000.0, 0.0, 0.0, 0.0, -1225000.0, -1225000.0, 0.0, 10.0, 10.0 
2.055e+3, 1.85e+2, -1127000.0, -1127000.0, 0.0, 0.0, 0.0, -1127000.0, -1127000.0, 0.0, 10.0, 10.0 
2.055e+3, 1.95e+2, -1029000.0, -1029000.0, 0.0, 0.0, 0.0, -1029000.0, -1029000.0, 0.0, 10.0, 10.0 
2.055e+3, 2.05e+2, -931000.0, -931000.0, 0.0, 0.0, 0.0, -931000.0, -931000.0, 0.0, 10.0, 10.0 
2.055e+3, 2.15e+2, -833000.0, -833000.0, 0.0, 0.0, 0.0, -833000.0, -833000.0, 0.0, 10.0, 10.0 
2.055e+3, 2.25e+2, -735000.0, -735000.0, 0.0, 0.0, 0.0, -735000.0, -735000.0, 0.0, 10.0, 10.0 
2.055e+3, 2.35e+2, -637000.0, -637000.0, 0.0, 0.0, 0.0, -637000.0, -637000.0, 0.0, 10.0, 10.0 
2.055e+3, 2.45e+2, -539000.0, -539000.0, 0.0, 0.0, 0.0, -539000.0, -539000.0, 0.0, 10.0, 10.0 
2.055e+3, 2.55e+2, -441000.0, -441000.0, 0.0, 0.0, 0.0, -441000.0, -441000.0, 0.0, 10.0, 10.0 
2.055e+3, 2.65e+2, -343000.0, -343000.0, 0.0, 0.0, 0.0, -343000.0, -343000.0, 0.0, 10.0, 10.0 
2.055e+3, 2.75e+2, -245000.0, -245000.0, 0.0, 0.0, 0.0, -245000.0, -245000.0, 0.0, 10.0, 10.0 
2.055e+3, 2.85e+2, -147000.0, -147000.0, 0.0, 0.0, 0.0, -147000.0, -147000.0, 0.0, 10.0, 10.0 
2.055e+3, 2.95e+2, -49000.0, -49000.0, 0.0, 0.0, 0.0, -49000.0, -49000.0, 0.0, 10.0, 10.0 
2.055e+3, 3.05e+2, 0.0, 0.0, 0.0, 0.0, 0.0, 0.0, 0.0, 0.0, 10.0, 10.0 
2.055e+3, 3.15e+2, 0.0, 0.0, 0.0, 0.0, 0.0, 0.0, 0.0, 0.0, 10.0, 10.0 
2.065e+3, 1.25e+2, -1715000.0, -1715000.0, 0.0, 0.0, 0.0, -1715000.0, -1715000.0, 0.0, 10.0, 10.0 
2.065e+3, 1.35e+2, -1617000.0, -1617000.0, 0.0, 0.0, 0.0, -1617000.0, -1617000.0, 0.0, 10.0, 10.0 
2.065e+3, 1.45e+2, -1519000.0, -1519000.0, 0.0, 0.0, 0.0, -1519000.0, -1519000.0, 0.0, 10.0, 10.0 
2.065e+3, 1.55e+2, -1421000.0, -1421000.0, 0.0, 0.0, 0.0, -1421000.0, -1421000.0, 0.0, 10.0, 10.0 
2.065e+3, 1.65e+2, -1323000.0, -1323000.0, 0.0, 0.0, 0.0, -1323000.0, -1323000.0, 0.0, 10.0, 10.0 
2.065e+3, 1.75e+2, -1225000.0, -1225000.0, 0.0, 0.0, 0.0, -1225000.0, -1225000.0, 0.0, 10.0, 10.0 
2.065e+3, 1.85e+2, -1127000.0, -1127000.0, 0.0, 0.0, 0.0, -1127000.0, -1127000.0, 0.0, 10.0, 10.0 
2.065e+3, 1.95e+2, -1029000.0, -1029000.0, 0.0, 0.0, 0.0, -1029000.0, -1029000.0, 0.0, 10.0, 10.0 
2.065e+3, 2.05e+2, -931000.0, -931000.0, 0.0, 0.0, 0.0, -931000.0, -931000.0, 0.0, 10.0, 10.0 
2.065e+3, 2.15e+2, -833000.0, -833000.0, 0.0, 0.0, 0.0, -833000.0, -833000.0, 0.0, 10.0, 10.0 
2.065e+3, 2.25e+2, -735000.0, -735000.0, 0.0, 0.0, 0.0, -735000.0, -735000.0, 0.0, 10.0, 10.0 
2.065e+3, 2.35e+2, -637000.0, -637000.0, 0.0, 0.0, 0.0, -637000.0, -637000.0, 0.0, 10.0, 10.0 
2.065e+3, 2.45e+2, -539000.0, -539000.0, 0.0, 0.0, 0.0, -539000.0, -539000.0, 0.0, 10.0, 10.0 
2.065e+3, 2.55e+2, -441000.0, -441000.0, 0.0, 0.0, 0.0, -441000.0, -441000.0, 0.0, 10.0, 10.0 
2.065e+3, 2.65e+2, -343000.0, -343000.0, 0.0, 0.0, 0.0, -343000.0, -343000.0, 0.0, 10.0, 10.0 
2.065e+3, 2.75e+2, -245000.0, -245000.0, 0.0, 0.0, 0.0, -245000.0, -245000.0, 0.0, 10.0, 10.0 
2.065e+3, 2.85e+2, -147000.0, -147000.0, 0.0, 0.0, 0.0, -147000.0, -147000.0, 0.0, 10.0, 10.0 
2.065e+3, 2.95e+2, -49000.0, -49000.0, 0.0, 0.0, 0.0, -49000.0, -49000.0, 0.0, 10.0, 10.0 
2.065e+3, 3.05e+2, 0.0, 0.0, 0.0, 0.0, 0.0, 0.0, 0.0, 0.0, 10.0, 10.0 
2.065e+3, 3.15e+2, 0.0, 0.0, 0.0, 0.0, 0.0, 0.0, 0.0, 0.0, 10.0, 10.0 
2.075e+3, 1.25e+2, -1715000.0, -1715000.0, 0.0, 0.0, 0.0, -1715000.0, -1715000.0, 0.0, 10.0, 10.0 
2.075e+3, 1.35e+2, -1617000.0, -1617000.0, 0.0, 0.0, 0.0, -1617000.0, -1617000.0, 0.0, 10.0, 10.0 
2.075e+3, 1.45e+2, -1519000.0, -1519000.0, 0.0, 0.0, 0.0, -1519000.0, -1519000.0, 0.0, 10.0, 10.0 
2.075e+3, 1.55e+2, -1421000.0, -1421000.0, 0.0, 0.0, 0.0, -1421000.0, -1421000.0, 0.0, 10.0, 10.0 
2.075e+3, 1.65e+2, -1323000.0, -1323000.0, 0.0, 0.0, 0.0, -1323000.0, -1323000.0, 0.0, 10.0, 10.0 
2.075e+3, 1.75e+2, -1225000.0, -1225000.0, 0.0, 0.0, 0.0, -1225000.0, -1225000.0, 0.0, 10.0, 10.0 
2.075e+3, 1.85e+2, -1127000.0, -1127000.0, 0.0, 0.0, 0.0, -1127000.0, -1127000.0, 0.0, 10.0, 10.0 
2.075e+3, 1.95e+2, -1029000.0, -1029000.0, 0.0, 0.0, 0.0, -1029000.0, -1029000.0, 0.0, 10.0, 10.0 
2.075e+3, 2.05e+2, -931000.0, -931000.0, 0.0, 0.0, 0.0, -931000.0, -931000.0, 0.0, 10.0, 10.0 
2.075e+3, 2.15e+2, -833000.0, -833000.0, 0.0, 0.0, 0.0, -833000.0, -833000.0, 0.0, 10.0, 10.0 
2.075e+3, 2.25e+2, -735000.0, -735000.0, 0.0, 0.0, 0.0, -735000.0, -735000.0, 0.0, 10.0, 10.0 
2.075e+3, 2.35e+2, -637000.0, -637000.0, 0.0, 0.0, 0.0, -637000.0, -637000.0, 0.0, 10.0, 10.0 
2.075e+3, 2.45e+2, -539000.0, -539000.0, 0.0, 0.0, 0.0, -539000.0, -539000.0, 0.0, 10.0, 10.0 
2.075e+3, 2.55e+2, -441000.0, -441000.0, 0.0, 0.0, 0.0, -441000.0, -441000.0, 0.0, 10.0, 10.0 
2.075e+3, 2.65e+2, -343000.0, -343000.0, 0.0, 0.0, 0.0, -343000.0, -343000.0, 0.0, 10.0, 10.0 
2.075e+3, 2.75e+2, -245000.0, -245000.0, 0.0, 0.0, 0.0, -245000.0, -245000.0, 0.0, 10.0, 10.0 
2.075e+3, 2.85e+2, -147000.0, -147000.0, 0.0, 0.0, 0.0, -147000.0, -147000.0, 0.0, 10.0, 10.0 
2.075e+3, 2.95e+2, -49000.0, -49000.0, 0.0, 0.0, 0.0, -49000.0, -49000.0, 0.0, 10.0, 10.0 
2.075e+3, 3.05e+2, 0.0, 0.0, 0.0, 0.0, 0.0, 0.0, 0.0, 0.0, 10.0, 10.0 
2.075e+3, 3.15e+2, 0.0, 0.0, 0.0, 0.0, 0.0, 0.0, 0.0, 0.0, 10.0, 10.0 
2.085e+3, 1.25e+2, -1715000.0, -1715000.0, 0.0, 0.0, 0.0, -1715000.0, -1715000.0, 0.0, 10.0, 10.0 
2.085e+3, 1.35e+2, -1617000.0, -1617000.0, 0.0, 0.0, 0.0, -1617000.0, -1617000.0, 0.0, 10.0, 10.0 
2.085e+3, 1.45e+2, -1519000.0, -1519000.0, 0.0, 0.0, 0.0, -1519000.0, -1519000.0, 0.0, 10.0, 10.0 
2.085e+3, 1.55e+2, -1421000.0, -1421000.0, 0.0, 0.0, 0.0, -1421000.0, -1421000.0, 0.0, 10.0, 10.0 
2.085e+3, 1.65e+2, -1323000.0, -1323000.0, 0.0, 0.0, 0.0, -1323000.0, -1323000.0, 0.0, 10.0, 10.0 
2.085e+3, 1.75e+2, -1225000.0, -1225000.0, 0.0, 0.0, 0.0, -1225000.0, -1225000.0, 0.0, 10.0, 10.0 
2.085e+3, 1.85e+2, -1127000.0, -1127000.0, 0.0, 0.0, 0.0, -1127000.0, -1127000.0, 0.0, 10.0, 10.0 
2.085e+3, 1.95e+2, -1029000.0, -1029000.0, 0.0, 0.0, 0.0, -1029000.0, -1029000.0, 0.0, 10.0, 10.0 
2.085e+3, 2.05e+2, -931000.0, -931000.0, 0.0, 0.0, 0.0, -931000.0, -931000.0, 0.0, 10.0, 10.0 
2.085e+3, 2.15e+2, -833000.0, -833000.0, 0.0, 0.0, 0.0, -833000.0, -833000.0, 0.0, 10.0, 10.0 
2.085e+3, 2.25e+2, -735000.0, -735000.0, 0.0, 0.0, 0.0, -735000.0, -735000.0, 0.0, 10.0, 10.0 
2.085e+3, 2.35e+2, -637000.0, -637000.0, 0.0, 0.0, 0.0, -637000.0, -637000.0, 0.0, 10.0, 10.0 
2.085e+3, 2.45e+2, -539000.0, -539000.0, 0.0, 0.0, 0.0, -539000.0, -539000.0, 0.0, 10.0, 10.0 
2.085e+3, 2.55e+2, -441000.0, -441000.0, 0.0, 0.0, 0.0, -441000.0, -441000.0, 0.0, 10.0, 10.0 
2.085e+3, 2.65e+2, -343000.0, -343000.0, 0.0, 0.0, 0.0, -343000.0, -343000.0, 0.0, 10.0, 10.0 
2.085e+3, 2.75e+2, -245000.0, -245000.0, 0.0, 0.0, 0.0, -245000.0, -245000.0, 0.0, 10.0, 10.0 
2.085e+3, 2.85e+2, -147000.0, -147000.0, 0.0, 0.0, 0.0, -147000.0, -147000.0, 0.0, 10.0, 10.0 
2.085e+3, 2.95e+2, -49000.0, -49000.0, 0.0, 0.0, 0.0, -49000.0, -49000.0, 0.0, 10.0, 10.0 
2.085e+3, 3.05e+2, 0.0, 0.0, 0.0, 0.0, 0.0, 0.0, 0.0, 0.0, 10.0, 10.0 
2.085e+3, 3.15e+2, 0.0, 0.0, 0.0, 0.0, 0.0, 0.0, 0.0, 0.0, 10.0, 10.0 
2.095e+3, 1.25e+2, -1715000.0, -1715000.0, 0.0, 0.0, 0.0, -1715000.0, -1715000.0, 0.0, 10.0, 10.0 
2.095e+3, 1.35e+2, -1617000.0, -1617000.0, 0.0, 0.0, 0.0, -1617000.0, -1617000.0, 0.0, 10.0, 10.0 
2.095e+3, 1.45e+2, -1519000.0, -1519000.0, 0.0, 0.0, 0.0, -1519000.0, -1519000.0, 0.0, 10.0, 10.0 
2.095e+3, 1.55e+2, -1421000.0, -1421000.0, 0.0, 0.0, 0.0, -1421000.0, -1421000.0, 0.0, 10.0, 10.0 
2.095e+3, 1.65e+2, -1323000.0, -1323000.0, 0.0, 0.0, 0.0, -1323000.0, -1323000.0, 0.0, 10.0, 10.0 
2.095e+3, 1.75e+2, -1225000.0, -1225000.0, 0.0, 0.0, 0.0, -1225000.0, -1225000.0, 0.0, 10.0, 10.0 
2.095e+3, 1.85e+2, -1127000.0, -1127000.0, 0.0, 0.0, 0.0, -1127000.0, -1127000.0, 0.0, 10.0, 10.0 
2.095e+3, 1.95e+2, -1029000.0, -1029000.0, 0.0, 0.0, 0.0, -1029000.0, -1029000.0, 0.0, 10.0, 10.0 
2.095e+3, 2.05e+2, -931000.0, -931000.0, 0.0, 0.0, 0.0, -931000.0, -931000.0, 0.0, 10.0, 10.0 
2.095e+3, 2.15e+2, -833000.0, -833000.0, 0.0, 0.0, 0.0, -833000.0, -833000.0, 0.0, 10.0, 10.0 
2.095e+3, 2.25e+2, -735000.0, -735000.0, 0.0, 0.0, 0.0, -735000.0, -735000.0, 0.0, 10.0, 10.0 
2.095e+3, 2.35e+2, -637000.0, -637000.0, 0.0, 0.0, 0.0, -637000.0, -637000.0, 0.0, 10.0, 10.0 
2.095e+3, 2.45e+2, -539000.0, -539000.0, 0.0, 0.0, 0.0, -539000.0, -539000.0, 0.0, 10.0, 10.0 
2.095e+3, 2.55e+2, -441000.0, -441000.0, 0.0, 0.0, 0.0, -441000.0, -441000.0, 0.0, 10.0, 10.0 
2.095e+3, 2.65e+2, -343000.0, -343000.0, 0.0, 0.0, 0.0, -343000.0, -343000.0, 0.0, 10.0, 10.0 
2.095e+3, 2.75e+2, -245000.0, -245000.0, 0.0, 0.0, 0.0, -245000.0, -245000.0, 0.0, 10.0, 10.0 
2.095e+3, 2.85e+2, -147000.0, -147000.0, 0.0, 0.0, 0.0, -147000.0, -147000.0, 0.0, 10.0, 10.0 
2.095e+3, 2.95e+2, -49000.0, -49000.0, 0.0, 0.0, 0.0, -49000.0, -49000.0, 0.0, 10.0, 10.0 
2.095e+3, 3.05e+2, 0.0, 0.0, 0.0, 0.0, 0.0, 0.0, 0.0, 0.0, 10.0, 10.0 
2.095e+3, 3.15e+2, 0.0, 0.0, 0.0, 0.0, 0.0, 0.0, 0.0, 0.0, 10.0, 10.0 
2.105e+3, 1.25e+2, -1715000.0, -1715000.0, 0.0, 0.0, 0.0, -1715000.0, -1715000.0, 0.0, 10.0, 10.0 
2.105e+3, 1.35e+2, -1617000.0, -1617000.0, 0.0, 0.0, 0.0, -1617000.0, -1617000.0, 0.0, 10.0, 10.0 
2.105e+3, 1.45e+2, -1519000.0, -1519000.0, 0.0, 0.0, 0.0, -1519000.0, -1519000.0, 0.0, 10.0, 10.0 
2.105e+3, 1.55e+2, -1421000.0, -1421000.0, 0.0, 0.0, 0.0, -1421000.0, -1421000.0, 0.0, 10.0, 10.0 
2.105e+3, 1.65e+2, -1323000.0, -1323000.0, 0.0, 0.0, 0.0, -1323000.0, -1323000.0, 0.0, 10.0, 10.0 
2.105e+3, 1.75e+2, -1225000.0, -1225000.0, 0.0, 0.0, 0.0, -1225000.0, -1225000.0, 0.0, 10.0, 10.0 
2.105e+3, 1.85e+2, -1127000.0, -1127000.0, 0.0, 0.0, 0.0, -1127000.0, -1127000.0, 0.0, 10.0, 10.0 
2.105e+3, 1.95e+2, -1029000.0, -1029000.0, 0.0, 0.0, 0.0, -1029000.0, -1029000.0, 0.0, 10.0, 10.0 
2.105e+3, 2.05e+2, -931000.0, -931000.0, 0.0, 0.0, 0.0, -931000.0, -931000.0, 0.0, 10.0, 10.0 
2.105e+3, 2.15e+2, -833000.0, -833000.0, 0.0, 0.0, 0.0, -833000.0, -833000.0, 0.0, 10.0, 10.0 
2.105e+3, 2.25e+2, -735000.0, -735000.0, 0.0, 0.0, 0.0, -735000.0, -735000.0, 0.0, 10.0, 10.0 
2.105e+3, 2.35e+2, -637000.0, -637000.0, 0.0, 0.0, 0.0, -637000.0, -637000.0, 0.0, 10.0, 10.0 
2.105e+3, 2.45e+2, -539000.0, -539000.0, 0.0, 0.0, 0.0, -539000.0, -539000.0, 0.0, 10.0, 10.0 
2.105e+3, 2.55e+2, -441000.0, -441000.0, 0.0, 0.0, 0.0, -441000.0, -441000.0, 0.0, 10.0, 10.0 
2.105e+3, 2.65e+2, -343000.0, -343000.0, 0.0, 0.0, 0.0, -343000.0, -343000.0, 0.0, 10.0, 10.0 
2.105e+3, 2.75e+2, -245000.0, -245000.0, 0.0, 0.0, 0.0, -245000.0, -245000.0, 0.0, 10.0, 10.0 
2.105e+3, 2.85e+2, -147000.0, -147000.0, 0.0, 0.0, 0.0, -147000.0, -147000.0, 0.0, 10.0, 10.0 
2.105e+3, 2.95e+2, -49000.0, -49000.0, 0.0, 0.0, 0.0, -49000.0, -49000.0, 0.0, 10.0, 10.0 
2.105e+3, 3.05e+2, 0.0, 0.0, 0.0, 0.0, 0.0, 0.0, 0.0, 0.0, 10.0, 10.0 
2.105e+3, 3.15e+2, 0.0, 0.0, 0.0, 0.0, 0.0, 0.0, 0.0, 0.0, 10.0, 10.0 
2.115e+3, 1.25e+2, -1715000.0, -1715000.0, 0.0, 0.0, 0.0, -1715000.0, -1715000.0, 0.0, 10.0, 10.0 
2.115e+3, 1.35e+2, -1617000.0, -1617000.0, 0.0, 0.0, 0.0, -1617000.0, -1617000.0, 0.0, 10.0, 10.0 
2.115e+3, 1.45e+2, -1519000.0, -1519000.0, 0.0, 0.0, 0.0, -1519000.0, -1519000.0, 0.0, 10.0, 10.0 
2.115e+3, 1.55e+2, -1421000.0, -1421000.0, 0.0, 0.0, 0.0, -1421000.0, -1421000.0, 0.0, 10.0, 10.0 
2.115e+3, 1.65e+2, -1323000.0, -1323000.0, 0.0, 0.0, 0.0, -1323000.0, -1323000.0, 0.0, 10.0, 10.0 
2.115e+3, 1.75e+2, -1225000.0, -1225000.0, 0.0, 0.0, 0.0, -1225000.0, -1225000.0, 0.0, 10.0, 10.0 
2.115e+3, 1.85e+2, -1127000.0, -1127000.0, 0.0, 0.0, 0.0, -1127000.0, -1127000.0, 0.0, 10.0, 10.0 
2.115e+3, 1.95e+2, -1029000.0, -1029000.0, 0.0, 0.0, 0.0, -1029000.0, -1029000.0, 0.0, 10.0, 10.0 
2.115e+3, 2.05e+2, -931000.0, -931000.0, 0.0, 0.0, 0.0, -931000.0, -931000.0, 0.0, 10.0, 10.0 
2.115e+3, 2.15e+2, -833000.0, -833000.0, 0.0, 0.0, 0.0, -833000.0, -833000.0, 0.0, 10.0, 10.0 
2.115e+3, 2.25e+2, -735000.0, -735000.0, 0.0, 0.0, 0.0, -735000.0, -735000.0, 0.0, 10.0, 10.0 
2.115e+3, 2.35e+2, -637000.0, -637000.0, 0.0, 0.0, 0.0, -637000.0, -637000.0, 0.0, 10.0, 10.0 
2.115e+3, 2.45e+2, -539000.0, -539000.0, 0.0, 0.0, 0.0, -539000.0, -539000.0, 0.0, 10.0, 10.0 
2.115e+3, 2.55e+2, -441000.0, -441000.0, 0.0, 0.0, 0.0, -441000.0, -441000.0, 0.0, 10.0, 10.0 
2.115e+3, 2.65e+2, -343000.0, -343000.0, 0.0, 0.0, 0.0, -343000.0, -343000.0, 0.0, 10.0, 10.0 
2.115e+3, 2.75e+2, -245000.0, -245000.0, 0.0, 0.0, 0.0, -245000.0, -245000.0, 0.0, 10.0, 10.0 
2.115e+3, 2.85e+2, -147000.0, -147000.0, 0.0, 0.0, 0.0, -147000.0, -147000.0, 0.0, 10.0, 10.0 
2.115e+3, 2.95e+2, -49000.0, -49000.0, 0.0, 0.0, 0.0, -49000.0, -49000.0, 0.0, 10.0, 10.0 
2.115e+3, 3.05e+2, 0.0, 0.0, 0.0, 0.0, 0.0, 0.0, 0.0, 0.0, 10.0, 10.0 
2.115e+3, 3.15e+2, 0.0, 0.0, 0.0, 0.0, 0.0, 0.0, 0.0, 0.0, 10.0, 10.0 
2.125e+3, 1.25e+2, -1715000.0, -1715000.0, 0.0, 0.0, 0.0, -1715000.0, -1715000.0, 0.0, 10.0, 10.0 
2.125e+3, 1.35e+2, -1617000.0, -1617000.0, 0.0, 0.0, 0.0, -1617000.0, -1617000.0, 0.0, 10.0, 10.0 
2.125e+3, 1.45e+2, -1519000.0, -1519000.0, 0.0, 0.0, 0.0, -1519000.0, -1519000.0, 0.0, 10.0, 10.0 
2.125e+3, 1.55e+2, -1421000.0, -1421000.0, 0.0, 0.0, 0.0, -1421000.0, -1421000.0, 0.0, 10.0, 10.0 
2.125e+3, 1.65e+2, -1323000.0, -1323000.0, 0.0, 0.0, 0.0, -1323000.0, -1323000.0, 0.0, 10.0, 10.0 
2.125e+3, 1.75e+2, -1225000.0, -1225000.0, 0.0, 0.0, 0.0, -1225000.0, -1225000.0, 0.0, 10.0, 10.0 
2.125e+3, 1.85e+2, -1127000.0, -1127000.0, 0.0, 0.0, 0.0, -1127000.0, -1127000.0, 0.0, 10.0, 10.0 
2.125e+3, 1.95e+2, -1029000.0, -1029000.0, 0.0, 0.0, 0.0, -1029000.0, -1029000.0, 0.0, 10.0, 10.0 
2.125e+3, 2.05e+2, -931000.0, -931000.0, 0.0, 0.0, 0.0, -931000.0, -931000.0, 0.0, 10.0, 10.0 
2.125e+3, 2.15e+2, -833000.0, -833000.0, 0.0, 0.0, 0.0, -833000.0, -833000.0, 0.0, 10.0, 10.0 
2.125e+3, 2.25e+2, -735000.0, -735000.0, 0.0, 0.0, 0.0, -735000.0, -735000.0, 0.0, 10.0, 10.0 
2.125e+3, 2.35e+2, -637000.0, -637000.0, 0.0, 0.0, 0.0, -637000.0, -637000.0, 0.0, 10.0, 10.0 
2.125e+3, 2.45e+2, -539000.0, -539000.0, 0.0, 0.0, 0.0, -539000.0, -539000.0, 0.0, 10.0, 10.0 
2.125e+3, 2.55e+2, -441000.0, -441000.0, 0.0, 0.0, 0.0, -441000.0, -441000.0, 0.0, 10.0, 10.0 
2.125e+3, 2.65e+2, -343000.0, -343000.0, 0.0, 0.0, 0.0, -343000.0, -343000.0, 0.0, 10.0, 10.0 
2.125e+3, 2.75e+2, -245000.0, -245000.0, 0.0, 0.0, 0.0, -245000.0, -245000.0, 0.0, 10.0, 10.0 
2.125e+3, 2.85e+2, -147000.0, -147000.0, 0.0, 0.0, 0.0, -147000.0, -147000.0, 0.0, 10.0, 10.0 
2.125e+3, 2.95e+2, -49000.0, -49000.0, 0.0, 0.0, 0.0, -49000.0, -49000.0, 0.0, 10.0, 10.0 
2.125e+3, 3.05e+2, 0.0, 0.0, 0.0, 0.0, 0.0, 0.0, 0.0, 0.0, 10.0, 10.0 
2.125e+3, 3.15e+2, 0.0, 0.0, 0.0, 0.0, 0.0, 0.0, 0.0, 0.0, 10.0, 10.0 
2.135e+3, 1.25e+2, -1715000.0, -1715000.0, 0.0, 0.0, 0.0, -1715000.0, -1715000.0, 0.0, 10.0, 10.0 
2.135e+3, 1.35e+2, -1617000.0, -1617000.0, 0.0, 0.0, 0.0, -1617000.0, -1617000.0, 0.0, 10.0, 10.0 
2.135e+3, 1.45e+2, -1519000.0, -1519000.0, 0.0, 0.0, 0.0, -1519000.0, -1519000.0, 0.0, 10.0, 10.0 
2.135e+3, 1.55e+2, -1421000.0, -1421000.0, 0.0, 0.0, 0.0, -1421000.0, -1421000.0, 0.0, 10.0, 10.0 
2.135e+3, 1.65e+2, -1323000.0, -1323000.0, 0.0, 0.0, 0.0, -1323000.0, -1323000.0, 0.0, 10.0, 10.0 
2.135e+3, 1.75e+2, -1225000.0, -1225000.0, 0.0, 0.0, 0.0, -1225000.0, -1225000.0, 0.0, 10.0, 10.0 
2.135e+3, 1.85e+2, -1127000.0, -1127000.0, 0.0, 0.0, 0.0, -1127000.0, -1127000.0, 0.0, 10.0, 10.0 
2.135e+3, 1.95e+2, -1029000.0, -1029000.0, 0.0, 0.0, 0.0, -1029000.0, -1029000.0, 0.0, 10.0, 10.0 
2.135e+3, 2.05e+2, -931000.0, -931000.0, 0.0, 0.0, 0.0, -931000.0, -931000.0, 0.0, 10.0, 10.0 
2.135e+3, 2.15e+2, -833000.0, -833000.0, 0.0, 0.0, 0.0, -833000.0, -833000.0, 0.0, 10.0, 10.0 
2.135e+3, 2.25e+2, -735000.0, -735000.0, 0.0, 0.0, 0.0, -735000.0, -735000.0, 0.0, 10.0, 10.0 
2.135e+3, 2.35e+2, -637000.0, -637000.0, 0.0, 0.0, 0.0, -637000.0, -637000.0, 0.0, 10.0, 10.0 
2.135e+3, 2.45e+2, -539000.0, -539000.0, 0.0, 0.0, 0.0, -539000.0, -539000.0, 0.0, 10.0, 10.0 
2.135e+3, 2.55e+2, -441000.0, -441000.0, 0.0, 0.0, 0.0, -441000.0, -441000.0, 0.0, 10.0, 10.0 
2.135e+3, 2.65e+2, -343000.0, -343000.0, 0.0, 0.0, 0.0, -343000.0, -343000.0, 0.0, 10.0, 10.0 
2.135e+3, 2.75e+2, -245000.0, -245000.0, 0.0, 0.0, 0.0, -245000.0, -245000.0, 0.0, 10.0, 10.0 
2.135e+3, 2.85e+2, -147000.0, -147000.0, 0.0, 0.0, 0.0, -147000.0, -147000.0, 0.0, 10.0, 10.0 
2.135e+3, 2.95e+2, -49000.0, -49000.0, 0.0, 0.0, 0.0, -49000.0, -49000.0, 0.0, 10.0, 10.0 
2.135e+3, 3.05e+2, 0.0, 0.0, 0.0, 0.0, 0.0, 0.0, 0.0, 0.0, 10.0, 10.0 
2.135e+3, 3.15e+2, 0.0, 0.0, 0.0, 0.0, 0.0, 0.0, 0.0, 0.0, 10.0, 10.0 
2.145e+3, 1.25e+2, -1715000.0, -1715000.0, 0.0, 0.0, 0.0, -1715000.0, -1715000.0, 0.0, 10.0, 10.0 
2.145e+3, 1.35e+2, -1617000.0, -1617000.0, 0.0, 0.0, 0.0, -1617000.0, -1617000.0, 0.0, 10.0, 10.0 
2.145e+3, 1.45e+2, -1519000.0, -1519000.0, 0.0, 0.0, 0.0, -1519000.0, -1519000.0, 0.0, 10.0, 10.0 
2.145e+3, 1.55e+2, -1421000.0, -1421000.0, 0.0, 0.0, 0.0, -1421000.0, -1421000.0, 0.0, 10.0, 10.0 
2.145e+3, 1.65e+2, -1323000.0, -1323000.0, 0.0, 0.0, 0.0, -1323000.0, -1323000.0, 0.0, 10.0, 10.0 
2.145e+3, 1.75e+2, -1225000.0, -1225000.0, 0.0, 0.0, 0.0, -1225000.0, -1225000.0, 0.0, 10.0, 10.0 
2.145e+3, 1.85e+2, -1127000.0, -1127000.0, 0.0, 0.0, 0.0, -1127000.0, -1127000.0, 0.0, 10.0, 10.0 
2.145e+3, 1.95e+2, -1029000.0, -1029000.0, 0.0, 0.0, 0.0, -1029000.0, -1029000.0, 0.0, 10.0, 10.0 
2.145e+3, 2.05e+2, -931000.0, -931000.0, 0.0, 0.0, 0.0, -931000.0, -931000.0, 0.0, 10.0, 10.0 
2.145e+3, 2.15e+2, -833000.0, -833000.0, 0.0, 0.0, 0.0, -833000.0, -833000.0, 0.0, 10.0, 10.0 
2.145e+3, 2.25e+2, -735000.0, -735000.0, 0.0, 0.0, 0.0, -735000.0, -735000.0, 0.0, 10.0, 10.0 
2.145e+3, 2.35e+2, -637000.0, -637000.0, 0.0, 0.0, 0.0, -637000.0, -637000.0, 0.0, 10.0, 10.0 
2.145e+3, 2.45e+2, -539000.0, -539000.0, 0.0, 0.0, 0.0, -539000.0, -539000.0, 0.0, 10.0, 10.0 
2.145e+3, 2.55e+2, -441000.0, -441000.0, 0.0, 0.0, 0.0, -441000.0, -441000.0, 0.0, 10.0, 10.0 
2.145e+3, 2.65e+2, -343000.0, -343000.0, 0.0, 0.0, 0.0, -343000.0, -343000.0, 0.0, 10.0, 10.0 
2.145e+3, 2.75e+2, -245000.0, -245000.0, 0.0, 0.0, 0.0, -245000.0, -245000.0, 0.0, 10.0, 10.0 
2.145e+3, 2.85e+2, -147000.0, -147000.0, 0.0, 0.0, 0.0, -147000.0, -147000.0, 0.0, 10.0, 10.0 
2.145e+3, 2.95e+2, -49000.0, -49000.0, 0.0, 0.0, 0.0, -49000.0, -49000.0, 0.0, 10.0, 10.0 
2.145e+3, 3.05e+2, 0.0, 0.0, 0.0, 0.0, 0.0, 0.0, 0.0, 0.0, 10.0, 10.0 
2.145e+3, 3.15e+2, 0.0, 0.0, 0.0, 0.0, 0.0, 0.0, 0.0, 0.0, 10.0, 10.0 
2.155e+3, 1.25e+2, -1715000.0, -1715000.0, 0.0, 0.0, 0.0, -1715000.0, -1715000.0, 0.0, 10.0, 10.0 
2.155e+3, 1.35e+2, -1617000.0, -1617000.0, 0.0, 0.0, 0.0, -1617000.0, -1617000.0, 0.0, 10.0, 10.0 
2.155e+3, 1.45e+2, -1519000.0, -1519000.0, 0.0, 0.0, 0.0, -1519000.0, -1519000.0, 0.0, 10.0, 10.0 
2.155e+3, 1.55e+2, -1421000.0, -1421000.0, 0.0, 0.0, 0.0, -1421000.0, -1421000.0, 0.0, 10.0, 10.0 
2.155e+3, 1.65e+2, -1323000.0, -1323000.0, 0.0, 0.0, 0.0, -1323000.0, -1323000.0, 0.0, 10.0, 10.0 
2.155e+3, 1.75e+2, -1225000.0, -1225000.0, 0.0, 0.0, 0.0, -1225000.0, -1225000.0, 0.0, 10.0, 10.0 
2.155e+3, 1.85e+2, -1127000.0, -1127000.0, 0.0, 0.0, 0.0, -1127000.0, -1127000.0, 0.0, 10.0, 10.0 
2.155e+3, 1.95e+2, -1029000.0, -1029000.0, 0.0, 0.0, 0.0, -1029000.0, -1029000.0, 0.0, 10.0, 10.0 
2.155e+3, 2.05e+2, -931000.0, -931000.0, 0.0, 0.0, 0.0, -931000.0, -931000.0, 0.0, 10.0, 10.0 
2.155e+3, 2.15e+2, -833000.0, -833000.0, 0.0, 0.0, 0.0, -833000.0, -833000.0, 0.0, 10.0, 10.0 
2.155e+3, 2.25e+2, -735000.0, -735000.0, 0.0, 0.0, 0.0, -735000.0, -735000.0, 0.0, 10.0, 10.0 
2.155e+3, 2.35e+2, -637000.0, -637000.0, 0.0, 0.0, 0.0, -637000.0, -637000.0, 0.0, 10.0, 10.0 
2.155e+3, 2.45e+2, -539000.0, -539000.0, 0.0, 0.0, 0.0, -539000.0, -539000.0, 0.0, 10.0, 10.0 
2.155e+3, 2.55e+2, -441000.0, -441000.0, 0.0, 0.0, 0.0, -441000.0, -441000.0, 0.0, 10.0, 10.0 
2.155e+3, 2.65e+2, -343000.0, -343000.0, 0.0, 0.0, 0.0, -343000.0, -343000.0, 0.0, 10.0, 10.0 
2.155e+3, 2.75e+2, -245000.0, -245000.0, 0.0, 0.0, 0.0, -245000.0, -245000.0, 0.0, 10.0, 10.0 
2.155e+3, 2.85e+2, -147000.0, -147000.0, 0.0, 0.0, 0.0, -147000.0, -147000.0, 0.0, 10.0, 10.0 
2.155e+3, 2.95e+2, -49000.0, -49000.0, 0.0, 0.0, 0.0, -49000.0, -49000.0, 0.0, 10.0, 10.0 
2.155e+3, 3.05e+2, 0.0, 0.0, 0.0, 0.0, 0.0, 0.0, 0.0, 0.0, 10.0, 10.0 
2.155e+3, 3.15e+2, 0.0, 0.0, 0.0, 0.0, 0.0, 0.0, 0.0, 0.0, 10.0, 10.0 
2.165e+3, 1.25e+2, -1715000.0, -1715000.0, 0.0, 0.0, 0.0, -1715000.0, -1715000.0, 0.0, 10.0, 10.0 
2.165e+3, 1.35e+2, -1617000.0, -1617000.0, 0.0, 0.0, 0.0, -1617000.0, -1617000.0, 0.0, 10.0, 10.0 
2.165e+3, 1.45e+2, -1519000.0, -1519000.0, 0.0, 0.0, 0.0, -1519000.0, -1519000.0, 0.0, 10.0, 10.0 
2.165e+3, 1.55e+2, -1421000.0, -1421000.0, 0.0, 0.0, 0.0, -1421000.0, -1421000.0, 0.0, 10.0, 10.0 
2.165e+3, 1.65e+2, -1323000.0, -1323000.0, 0.0, 0.0, 0.0, -1323000.0, -1323000.0, 0.0, 10.0, 10.0 
2.165e+3, 1.75e+2, -1225000.0, -1225000.0, 0.0, 0.0, 0.0, -1225000.0, -1225000.0, 0.0, 10.0, 10.0 
2.165e+3, 1.85e+2, -1127000.0, -1127000.0, 0.0, 0.0, 0.0, -1127000.0, -1127000.0, 0.0, 10.0, 10.0 
2.165e+3, 1.95e+2, -1029000.0, -1029000.0, 0.0, 0.0, 0.0, -1029000.0, -1029000.0, 0.0, 10.0, 10.0 
2.165e+3, 2.05e+2, -931000.0, -931000.0, 0.0, 0.0, 0.0, -931000.0, -931000.0, 0.0, 10.0, 10.0 
2.165e+3, 2.15e+2, -833000.0, -833000.0, 0.0, 0.0, 0.0, -833000.0, -833000.0, 0.0, 10.0, 10.0 
2.165e+3, 2.25e+2, -735000.0, -735000.0, 0.0, 0.0, 0.0, -735000.0, -735000.0, 0.0, 10.0, 10.0 
2.165e+3, 2.35e+2, -637000.0, -637000.0, 0.0, 0.0, 0.0, -637000.0, -637000.0, 0.0, 10.0, 10.0 
2.165e+3, 2.45e+2, -539000.0, -539000.0, 0.0, 0.0, 0.0, -539000.0, -539000.0, 0.0, 10.0, 10.0 
2.165e+3, 2.55e+2, -441000.0, -441000.0, 0.0, 0.0, 0.0, -441000.0, -441000.0, 0.0, 10.0, 10.0 
2.165e+3, 2.65e+2, -343000.0, -343000.0, 0.0, 0.0, 0.0, -343000.0, -343000.0, 0.0, 10.0, 10.0 
2.165e+3, 2.75e+2, -245000.0, -245000.0, 0.0, 0.0, 0.0, -245000.0, -245000.0, 0.0, 10.0, 10.0 
2.165e+3, 2.85e+2, -147000.0, -147000.0, 0.0, 0.0, 0.0, -147000.0, -147000.0, 0.0, 10.0, 10.0 
2.165e+3, 2.95e+2, -49000.0, -49000.0, 0.0, 0.0, 0.0, -49000.0, -49000.0, 0.0, 10.0, 10.0 
2.165e+3, 3.05e+2, 0.0, 0.0, 0.0, 0.0, 0.0, 0.0, 0.0, 0.0, 10.0, 10.0 
2.165e+3, 3.15e+2, 0.0, 0.0, 0.0, 0.0, 0.0, 0.0, 0.0, 0.0, 10.0, 10.0 
2.175e+3, 1.25e+2, -1715000.0, -1715000.0, 0.0, 0.0, 0.0, -1715000.0, -1715000.0, 0.0, 10.0, 10.0 
2.175e+3, 1.35e+2, -1617000.0, -1617000.0, 0.0, 0.0, 0.0, -1617000.0, -1617000.0, 0.0, 10.0, 10.0 
2.175e+3, 1.45e+2, -1519000.0, -1519000.0, 0.0, 0.0, 0.0, -1519000.0, -1519000.0, 0.0, 10.0, 10.0 
2.175e+3, 1.55e+2, -1421000.0, -1421000.0, 0.0, 0.0, 0.0, -1421000.0, -1421000.0, 0.0, 10.0, 10.0 
2.175e+3, 1.65e+2, -1323000.0, -1323000.0, 0.0, 0.0, 0.0, -1323000.0, -1323000.0, 0.0, 10.0, 10.0 
2.175e+3, 1.75e+2, -1225000.0, -1225000.0, 0.0, 0.0, 0.0, -1225000.0, -1225000.0, 0.0, 10.0, 10.0 
2.175e+3, 1.85e+2, -1127000.0, -1127000.0, 0.0, 0.0, 0.0, -1127000.0, -1127000.0, 0.0, 10.0, 10.0 
2.175e+3, 1.95e+2, -1029000.0, -1029000.0, 0.0, 0.0, 0.0, -1029000.0, -1029000.0, 0.0, 10.0, 10.0 
2.175e+3, 2.05e+2, -931000.0, -931000.0, 0.0, 0.0, 0.0, -931000.0, -931000.0, 0.0, 10.0, 10.0 
2.175e+3, 2.15e+2, -833000.0, -833000.0, 0.0, 0.0, 0.0, -833000.0, -833000.0, 0.0, 10.0, 10.0 
2.175e+3, 2.25e+2, -735000.0, -735000.0, 0.0, 0.0, 0.0, -735000.0, -735000.0, 0.0, 10.0, 10.0 
2.175e+3, 2.35e+2, -637000.0, -637000.0, 0.0, 0.0, 0.0, -637000.0, -637000.0, 0.0, 10.0, 10.0 
2.175e+3, 2.45e+2, -539000.0, -539000.0, 0.0, 0.0, 0.0, -539000.0, -539000.0, 0.0, 10.0, 10.0 
2.175e+3, 2.55e+2, -441000.0, -441000.0, 0.0, 0.0, 0.0, -441000.0, -441000.0, 0.0, 10.0, 10.0 
2.175e+3, 2.65e+2, -343000.0, -343000.0, 0.0, 0.0, 0.0, -343000.0, -343000.0, 0.0, 10.0, 10.0 
2.175e+3, 2.75e+2, -245000.0, -245000.0, 0.0, 0.0, 0.0, -245000.0, -245000.0, 0.0, 10.0, 10.0 
2.175e+3, 2.85e+2, -147000.0, -147000.0, 0.0, 0.0, 0.0, -147000.0, -147000.0, 0.0, 10.0, 10.0 
2.175e+3, 2.95e+2, -49000.0, -49000.0, 0.0, 0.0, 0.0, -49000.0, -49000.0, 0.0, 10.0, 10.0 
2.175e+3, 3.05e+2, 0.0, 0.0, 0.0, 0.0, 0.0, 0.0, 0.0, 0.0, 10.0, 10.0 
2.175e+3, 3.15e+2, 0.0, 0.0, 0.0, 0.0, 0.0, 0.0, 0.0, 0.0, 10.0, 10.0 
2.185e+3, 1.25e+2, -1715000.0, -1715000.0, 0.0, 0.0, 0.0, -1715000.0, -1715000.0, 0.0, 10.0, 10.0 
2.185e+3, 1.35e+2, -1617000.0, -1617000.0, 0.0, 0.0, 0.0, -1617000.0, -1617000.0, 0.0, 10.0, 10.0 
2.185e+3, 1.45e+2, -1519000.0, -1519000.0, 0.0, 0.0, 0.0, -1519000.0, -1519000.0, 0.0, 10.0, 10.0 
2.185e+3, 1.55e+2, -1421000.0, -1421000.0, 0.0, 0.0, 0.0, -1421000.0, -1421000.0, 0.0, 10.0, 10.0 
2.185e+3, 1.65e+2, -1323000.0, -1323000.0, 0.0, 0.0, 0.0, -1323000.0, -1323000.0, 0.0, 10.0, 10.0 
2.185e+3, 1.75e+2, -1225000.0, -1225000.0, 0.0, 0.0, 0.0, -1225000.0, -1225000.0, 0.0, 10.0, 10.0 
2.185e+3, 1.85e+2, -1127000.0, -1127000.0, 0.0, 0.0, 0.0, -1127000.0, -1127000.0, 0.0, 10.0, 10.0 
2.185e+3, 1.95e+2, -1029000.0, -1029000.0, 0.0, 0.0, 0.0, -1029000.0, -1029000.0, 0.0, 10.0, 10.0 
2.185e+3, 2.05e+2, -931000.0, -931000.0, 0.0, 0.0, 0.0, -931000.0, -931000.0, 0.0, 10.0, 10.0 
2.185e+3, 2.15e+2, -833000.0, -833000.0, 0.0, 0.0, 0.0, -833000.0, -833000.0, 0.0, 10.0, 10.0 
2.185e+3, 2.25e+2, -735000.0, -735000.0, 0.0, 0.0, 0.0, -735000.0, -735000.0, 0.0, 10.0, 10.0 
2.185e+3, 2.35e+2, -637000.0, -637000.0, 0.0, 0.0, 0.0, -637000.0, -637000.0, 0.0, 10.0, 10.0 
2.185e+3, 2.45e+2, -539000.0, -539000.0, 0.0, 0.0, 0.0, -539000.0, -539000.0, 0.0, 10.0, 10.0 
2.185e+3, 2.55e+2, -441000.0, -441000.0, 0.0, 0.0, 0.0, -441000.0, -441000.0, 0.0, 10.0, 10.0 
2.185e+3, 2.65e+2, -343000.0, -343000.0, 0.0, 0.0, 0.0, -343000.0, -343000.0, 0.0, 10.0, 10.0 
2.185e+3, 2.75e+2, -245000.0, -245000.0, 0.0, 0.0, 0.0, -245000.0, -245000.0, 0.0, 10.0, 10.0 
2.185e+3, 2.85e+2, -147000.0, -147000.0, 0.0, 0.0, 0.0, -147000.0, -147000.0, 0.0, 10.0, 10.0 
2.185e+3, 2.95e+2, -49000.0, -49000.0, 0.0, 0.0, 0.0, -49000.0, -49000.0, 0.0, 10.0, 10.0 
2.185e+3, 3.05e+2, 0.0, 0.0, 0.0, 0.0, 0.0, 0.0, 0.0, 0.0, 10.0, 10.0 
2.185e+3, 3.15e+2, 0.0, 0.0, 0.0, 0.0, 0.0, 0.0, 0.0, 0.0, 10.0, 10.0 
2.195e+3, 1.25e+2, -1715000.0, -1715000.0, 0.0, 0.0, 0.0, -1715000.0, -1715000.0, 0.0, 10.0, 10.0 
2.195e+3, 1.35e+2, -1617000.0, -1617000.0, 0.0, 0.0, 0.0, -1617000.0, -1617000.0, 0.0, 10.0, 10.0 
2.195e+3, 1.45e+2, -1519000.0, -1519000.0, 0.0, 0.0, 0.0, -1519000.0, -1519000.0, 0.0, 10.0, 10.0 
2.195e+3, 1.55e+2, -1421000.0, -1421000.0, 0.0, 0.0, 0.0, -1421000.0, -1421000.0, 0.0, 10.0, 10.0 
2.195e+3, 1.65e+2, -1323000.0, -1323000.0, 0.0, 0.0, 0.0, -1323000.0, -1323000.0, 0.0, 10.0, 10.0 
2.195e+3, 1.75e+2, -1225000.0, -1225000.0, 0.0, 0.0, 0.0, -1225000.0, -1225000.0, 0.0, 10.0, 10.0 
2.195e+3, 1.85e+2, -1127000.0, -1127000.0, 0.0, 0.0, 0.0, -1127000.0, -1127000.0, 0.0, 10.0, 10.0 
2.195e+3, 1.95e+2, -1029000.0, -1029000.0, 0.0, 0.0, 0.0, -1029000.0, -1029000.0, 0.0, 10.0, 10.0 
2.195e+3, 2.05e+2, -931000.0, -931000.0, 0.0, 0.0, 0.0, -931000.0, -931000.0, 0.0, 10.0, 10.0 
2.195e+3, 2.15e+2, -833000.0, -833000.0, 0.0, 0.0, 0.0, -833000.0, -833000.0, 0.0, 10.0, 10.0 
2.195e+3, 2.25e+2, -735000.0, -735000.0, 0.0, 0.0, 0.0, -735000.0, -735000.0, 0.0, 10.0, 10.0 
2.195e+3, 2.35e+2, -637000.0, -637000.0, 0.0, 0.0, 0.0, -637000.0, -637000.0, 0.0, 10.0, 10.0 
2.195e+3, 2.45e+2, -539000.0, -539000.0, 0.0, 0.0, 0.0, -539000.0, -539000.0, 0.0, 10.0, 10.0 
2.195e+3, 2.55e+2, -441000.0, -441000.0, 0.0, 0.0, 0.0, -441000.0, -441000.0, 0.0, 10.0, 10.0 
2.195e+3, 2.65e+2, -343000.0, -343000.0, 0.0, 0.0, 0.0, -343000.0, -343000.0, 0.0, 10.0, 10.0 
2.195e+3, 2.75e+2, -245000.0, -245000.0, 0.0, 0.0, 0.0, -245000.0, -245000.0, 0.0, 10.0, 10.0 
2.195e+3, 2.85e+2, -147000.0, -147000.0, 0.0, 0.0, 0.0, -147000.0, -147000.0, 0.0, 10.0, 10.0 
2.195e+3, 2.95e+2, -49000.0, -49000.0, 0.0, 0.0, 0.0, -49000.0, -49000.0, 0.0, 10.0, 10.0 
2.195e+3, 3.05e+2, 0.0, 0.0, 0.0, 0.0, 0.0, 0.0, 0.0, 0.0, 10.0, 10.0 
2.195e+3, 3.15e+2, 0.0, 0.0, 0.0, 0.0, 0.0, 0.0, 0.0, 0.0, 10.0, 10.0 
2.205e+3, 1.25e+2, -1715000.0, -1715000.0, 0.0, 0.0, 0.0, -1715000.0, -1715000.0, 0.0, 10.0, 10.0 
2.205e+3, 1.35e+2, -1617000.0, -1617000.0, 0.0, 0.0, 0.0, -1617000.0, -1617000.0, 0.0, 10.0, 10.0 
2.205e+3, 1.45e+2, -1519000.0, -1519000.0, 0.0, 0.0, 0.0, -1519000.0, -1519000.0, 0.0, 10.0, 10.0 
2.205e+3, 1.55e+2, -1421000.0, -1421000.0, 0.0, 0.0, 0.0, -1421000.0, -1421000.0, 0.0, 10.0, 10.0 
2.205e+3, 1.65e+2, -1323000.0, -1323000.0, 0.0, 0.0, 0.0, -1323000.0, -1323000.0, 0.0, 10.0, 10.0 
2.205e+3, 1.75e+2, -1225000.0, -1225000.0, 0.0, 0.0, 0.0, -1225000.0, -1225000.0, 0.0, 10.0, 10.0 
2.205e+3, 1.85e+2, -1127000.0, -1127000.0, 0.0, 0.0, 0.0, -1127000.0, -1127000.0, 0.0, 10.0, 10.0 
2.205e+3, 1.95e+2, -1029000.0, -1029000.0, 0.0, 0.0, 0.0, -1029000.0, -1029000.0, 0.0, 10.0, 10.0 
2.205e+3, 2.05e+2, -931000.0, -931000.0, 0.0, 0.0, 0.0, -931000.0, -931000.0, 0.0, 10.0, 10.0 
2.205e+3, 2.15e+2, -833000.0, -833000.0, 0.0, 0.0, 0.0, -833000.0, -833000.0, 0.0, 10.0, 10.0 
2.205e+3, 2.25e+2, -735000.0, -735000.0, 0.0, 0.0, 0.0, -735000.0, -735000.0, 0.0, 10.0, 10.0 
2.205e+3, 2.35e+2, -637000.0, -637000.0, 0.0, 0.0, 0.0, -637000.0, -637000.0, 0.0, 10.0, 10.0 
2.205e+3, 2.45e+2, -539000.0, -539000.0, 0.0, 0.0, 0.0, -539000.0, -539000.0, 0.0, 10.0, 10.0 
2.205e+3, 2.55e+2, -441000.0, -441000.0, 0.0, 0.0, 0.0, -441000.0, -441000.0, 0.0, 10.0, 10.0 
2.205e+3, 2.65e+2, -343000.0, -343000.0, 0.0, 0.0, 0.0, -343000.0, -343000.0, 0.0, 10.0, 10.0 
2.205e+3, 2.75e+2, -245000.0, -245000.0, 0.0, 0.0, 0.0, -245000.0, -245000.0, 0.0, 10.0, 10.0 
2.205e+3, 2.85e+2, -147000.0, -147000.0, 0.0, 0.0, 0.0, -147000.0, -147000.0, 0.0, 10.0, 10.0 
2.205e+3, 2.95e+2, -49000.0, -49000.0, 0.0, 0.0, 0.0, -49000.0, -49000.0, 0.0, 10.0, 10.0 
2.205e+3, 3.05e+2, 0.0, 0.0, 0.0, 0.0, 0.0, 0.0, 0.0, 0.0, 10.0, 10.0 
2.205e+3, 3.15e+2, 0.0, 0.0, 0.0, 0.0, 0.0, 0.0, 0.0, 0.0, 10.0, 10.0 
2.215e+3, 1.25e+2, -1715000.0, -1715000.0, 0.0, 0.0, 0.0, -1715000.0, -1715000.0, 0.0, 10.0, 10.0 
2.215e+3, 1.35e+2, -1617000.0, -1617000.0, 0.0, 0.0, 0.0, -1617000.0, -1617000.0, 0.0, 10.0, 10.0 
2.215e+3, 1.45e+2, -1519000.0, -1519000.0, 0.0, 0.0, 0.0, -1519000.0, -1519000.0, 0.0, 10.0, 10.0 
2.215e+3, 1.55e+2, -1421000.0, -1421000.0, 0.0, 0.0, 0.0, -1421000.0, -1421000.0, 0.0, 10.0, 10.0 
2.215e+3, 1.65e+2, -1323000.0, -1323000.0, 0.0, 0.0, 0.0, -1323000.0, -1323000.0, 0.0, 10.0, 10.0 
2.215e+3, 1.75e+2, -1225000.0, -1225000.0, 0.0, 0.0, 0.0, -1225000.0, -1225000.0, 0.0, 10.0, 10.0 
2.215e+3, 1.85e+2, -1127000.0, -1127000.0, 0.0, 0.0, 0.0, -1127000.0, -1127000.0, 0.0, 10.0, 10.0 
2.215e+3, 1.95e+2, -1029000.0, -1029000.0, 0.0, 0.0, 0.0, -1029000.0, -1029000.0, 0.0, 10.0, 10.0 
2.215e+3, 2.05e+2, -931000.0, -931000.0, 0.0, 0.0, 0.0, -931000.0, -931000.0, 0.0, 10.0, 10.0 
2.215e+3, 2.15e+2, -833000.0, -833000.0, 0.0, 0.0, 0.0, -833000.0, -833000.0, 0.0, 10.0, 10.0 
2.215e+3, 2.25e+2, -735000.0, -735000.0, 0.0, 0.0, 0.0, -735000.0, -735000.0, 0.0, 10.0, 10.0 
2.215e+3, 2.35e+2, -637000.0, -637000.0, 0.0, 0.0, 0.0, -637000.0, -637000.0, 0.0, 10.0, 10.0 
2.215e+3, 2.45e+2, -539000.0, -539000.0, 0.0, 0.0, 0.0, -539000.0, -539000.0, 0.0, 10.0, 10.0 
2.215e+3, 2.55e+2, -441000.0, -441000.0, 0.0, 0.0, 0.0, -441000.0, -441000.0, 0.0, 10.0, 10.0 
2.215e+3, 2.65e+2, -343000.0, -343000.0, 0.0, 0.0, 0.0, -343000.0, -343000.0, 0.0, 10.0, 10.0 
2.215e+3, 2.75e+2, -245000.0, -245000.0, 0.0, 0.0, 0.0, -245000.0, -245000.0, 0.0, 10.0, 10.0 
2.215e+3, 2.85e+2, -147000.0, -147000.0, 0.0, 0.0, 0.0, -147000.0, -147000.0, 0.0, 10.0, 10.0 
2.215e+3, 2.95e+2, -49000.0, -49000.0, 0.0, 0.0, 0.0, -49000.0, -49000.0, 0.0, 10.0, 10.0 
2.215e+3, 3.05e+2, 0.0, 0.0, 0.0, 0.0, 0.0, 0.0, 0.0, 0.0, 10.0, 10.0 
2.215e+3, 3.15e+2, 0.0, 0.0, 0.0, 0.0, 0.0, 0.0, 0.0, 0.0, 10.0, 10.0 
2.225e+3, 1.25e+2, -1715000.0, -1715000.0, 0.0, 0.0, 0.0, -1715000.0, -1715000.0, 0.0, 10.0, 10.0 
2.225e+3, 1.35e+2, -1617000.0, -1617000.0, 0.0, 0.0, 0.0, -1617000.0, -1617000.0, 0.0, 10.0, 10.0 
2.225e+3, 1.45e+2, -1519000.0, -1519000.0, 0.0, 0.0, 0.0, -1519000.0, -1519000.0, 0.0, 10.0, 10.0 
2.225e+3, 1.55e+2, -1421000.0, -1421000.0, 0.0, 0.0, 0.0, -1421000.0, -1421000.0, 0.0, 10.0, 10.0 
2.225e+3, 1.65e+2, -1323000.0, -1323000.0, 0.0, 0.0, 0.0, -1323000.0, -1323000.0, 0.0, 10.0, 10.0 
2.225e+3, 1.75e+2, -1225000.0, -1225000.0, 0.0, 0.0, 0.0, -1225000.0, -1225000.0, 0.0, 10.0, 10.0 
2.225e+3, 1.85e+2, -1127000.0, -1127000.0, 0.0, 0.0, 0.0, -1127000.0, -1127000.0, 0.0, 10.0, 10.0 
2.225e+3, 1.95e+2, -1029000.0, -1029000.0, 0.0, 0.0, 0.0, -1029000.0, -1029000.0, 0.0, 10.0, 10.0 
2.225e+3, 2.05e+2, -931000.0, -931000.0, 0.0, 0.0, 0.0, -931000.0, -931000.0, 0.0, 10.0, 10.0 
2.225e+3, 2.15e+2, -833000.0, -833000.0, 0.0, 0.0, 0.0, -833000.0, -833000.0, 0.0, 10.0, 10.0 
2.225e+3, 2.25e+2, -735000.0, -735000.0, 0.0, 0.0, 0.0, -735000.0, -735000.0, 0.0, 10.0, 10.0 
2.225e+3, 2.35e+2, -637000.0, -637000.0, 0.0, 0.0, 0.0, -637000.0, -637000.0, 0.0, 10.0, 10.0 
2.225e+3, 2.45e+2, -539000.0, -539000.0, 0.0, 0.0, 0.0, -539000.0, -539000.0, 0.0, 10.0, 10.0 
2.225e+3, 2.55e+2, -441000.0, -441000.0, 0.0, 0.0, 0.0, -441000.0, -441000.0, 0.0, 10.0, 10.0 
2.225e+3, 2.65e+2, -343000.0, -343000.0, 0.0, 0.0, 0.0, -343000.0, -343000.0, 0.0, 10.0, 10.0 
2.225e+3, 2.75e+2, -245000.0, -245000.0, 0.0, 0.0, 0.0, -245000.0, -245000.0, 0.0, 10.0, 10.0 
2.225e+3, 2.85e+2, -147000.0, -147000.0, 0.0, 0.0, 0.0, -147000.0, -147000.0, 0.0, 10.0, 10.0 
2.225e+3, 2.95e+2, -49000.0, -49000.0, 0.0, 0.0, 0.0, -49000.0, -49000.0, 0.0, 10.0, 10.0 
2.225e+3, 3.05e+2, 0.0, 0.0, 0.0, 0.0, 0.0, 0.0, 0.0, 0.0, 10.0, 10.0 
2.225e+3, 3.15e+2, 0.0, 0.0, 0.0, 0.0, 0.0, 0.0, 0.0, 0.0, 10.0, 10.0 
2.235e+3, 1.25e+2, -1715000.0, -1715000.0, 0.0, 0.0, 0.0, -1715000.0, -1715000.0, 0.0, 10.0, 10.0 
2.235e+3, 1.35e+2, -1617000.0, -1617000.0, 0.0, 0.0, 0.0, -1617000.0, -1617000.0, 0.0, 10.0, 10.0 
2.235e+3, 1.45e+2, -1519000.0, -1519000.0, 0.0, 0.0, 0.0, -1519000.0, -1519000.0, 0.0, 10.0, 10.0 
2.235e+3, 1.55e+2, -1421000.0, -1421000.0, 0.0, 0.0, 0.0, -1421000.0, -1421000.0, 0.0, 10.0, 10.0 
2.235e+3, 1.65e+2, -1323000.0, -1323000.0, 0.0, 0.0, 0.0, -1323000.0, -1323000.0, 0.0, 10.0, 10.0 
2.235e+3, 1.75e+2, -1225000.0, -1225000.0, 0.0, 0.0, 0.0, -1225000.0, -1225000.0, 0.0, 10.0, 10.0 
2.235e+3, 1.85e+2, -1127000.0, -1127000.0, 0.0, 0.0, 0.0, -1127000.0, -1127000.0, 0.0, 10.0, 10.0 
2.235e+3, 1.95e+2, -1029000.0, -1029000.0, 0.0, 0.0, 0.0, -1029000.0, -1029000.0, 0.0, 10.0, 10.0 
2.235e+3, 2.05e+2, -931000.0, -931000.0, 0.0, 0.0, 0.0, -931000.0, -931000.0, 0.0, 10.0, 10.0 
2.235e+3, 2.15e+2, -833000.0, -833000.0, 0.0, 0.0, 0.0, -833000.0, -833000.0, 0.0, 10.0, 10.0 
2.235e+3, 2.25e+2, -735000.0, -735000.0, 0.0, 0.0, 0.0, -735000.0, -735000.0, 0.0, 10.0, 10.0 
2.235e+3, 2.35e+2, -637000.0, -637000.0, 0.0, 0.0, 0.0, -637000.0, -637000.0, 0.0, 10.0, 10.0 
2.235e+3, 2.45e+2, -539000.0, -539000.0, 0.0, 0.0, 0.0, -539000.0, -539000.0, 0.0, 10.0, 10.0 
2.235e+3, 2.55e+2, -441000.0, -441000.0, 0.0, 0.0, 0.0, -441000.0, -441000.0, 0.0, 10.0, 10.0 
2.235e+3, 2.65e+2, -343000.0, -343000.0, 0.0, 0.0, 0.0, -343000.0, -343000.0, 0.0, 10.0, 10.0 
2.235e+3, 2.75e+2, -245000.0, -245000.0, 0.0, 0.0, 0.0, -245000.0, -245000.0, 0.0, 10.0, 10.0 
2.235e+3, 2.85e+2, -147000.0, -147000.0, 0.0, 0.0, 0.0, -147000.0, -147000.0, 0.0, 10.0, 10.0 
2.235e+3, 2.95e+2, -49000.0, -49000.0, 0.0, 0.0, 0.0, -49000.0, -49000.0, 0.0, 10.0, 10.0 
2.235e+3, 3.05e+2, 0.0, 0.0, 0.0, 0.0, 0.0, 0.0, 0.0, 0.0, 10.0, 10.0 
2.235e+3, 3.15e+2, 0.0, 0.0, 0.0, 0.0, 0.0, 0.0, 0.0, 0.0, 10.0, 10.0 
2.245e+3, 1.25e+2, -1715000.0, -1715000.0, 0.0, 0.0, 0.0, -1715000.0, -1715000.0, 0.0, 10.0, 10.0 
2.245e+3, 1.35e+2, -1617000.0, -1617000.0, 0.0, 0.0, 0.0, -1617000.0, -1617000.0, 0.0, 10.0, 10.0 
2.245e+3, 1.45e+2, -1519000.0, -1519000.0, 0.0, 0.0, 0.0, -1519000.0, -1519000.0, 0.0, 10.0, 10.0 
2.245e+3, 1.55e+2, -1421000.0, -1421000.0, 0.0, 0.0, 0.0, -1421000.0, -1421000.0, 0.0, 10.0, 10.0 
2.245e+3, 1.65e+2, -1323000.0, -1323000.0, 0.0, 0.0, 0.0, -1323000.0, -1323000.0, 0.0, 10.0, 10.0 
2.245e+3, 1.75e+2, -1225000.0, -1225000.0, 0.0, 0.0, 0.0, -1225000.0, -1225000.0, 0.0, 10.0, 10.0 
2.245e+3, 1.85e+2, -1127000.0, -1127000.0, 0.0, 0.0, 0.0, -1127000.0, -1127000.0, 0.0, 10.0, 10.0 
2.245e+3, 1.95e+2, -1029000.0, -1029000.0, 0.0, 0.0, 0.0, -1029000.0, -1029000.0, 0.0, 10.0, 10.0 
2.245e+3, 2.05e+2, -931000.0, -931000.0, 0.0, 0.0, 0.0, -931000.0, -931000.0, 0.0, 10.0, 10.0 
2.245e+3, 2.15e+2, -833000.0, -833000.0, 0.0, 0.0, 0.0, -833000.0, -833000.0, 0.0, 10.0, 10.0 
2.245e+3, 2.25e+2, -735000.0, -735000.0, 0.0, 0.0, 0.0, -735000.0, -735000.0, 0.0, 10.0, 10.0 
2.245e+3, 2.35e+2, -637000.0, -637000.0, 0.0, 0.0, 0.0, -637000.0, -637000.0, 0.0, 10.0, 10.0 
2.245e+3, 2.45e+2, -539000.0, -539000.0, 0.0, 0.0, 0.0, -539000.0, -539000.0, 0.0, 10.0, 10.0 
2.245e+3, 2.55e+2, -441000.0, -441000.0, 0.0, 0.0, 0.0, -441000.0, -441000.0, 0.0, 10.0, 10.0 
2.245e+3, 2.65e+2, -343000.0, -343000.0, 0.0, 0.0, 0.0, -343000.0, -343000.0, 0.0, 10.0, 10.0 
2.245e+3, 2.75e+2, -245000.0, -245000.0, 0.0, 0.0, 0.0, -245000.0, -245000.0, 0.0, 10.0, 10.0 
2.245e+3, 2.85e+2, -147000.0, -147000.0, 0.0, 0.0, 0.0, -147000.0, -147000.0, 0.0, 10.0, 10.0 
2.245e+3, 2.95e+2, -49000.0, -49000.0, 0.0, 0.0, 0.0, -49000.0, -49000.0, 0.0, 10.0, 10.0 
2.245e+3, 3.05e+2, 0.0, 0.0, 0.0, 0.0, 0.0, 0.0, 0.0, 0.0, 10.0, 10.0 
2.245e+3, 3.15e+2, 0.0, 0.0, 0.0, 0.0, 0.0, 0.0, 0.0, 0.0, 10.0, 10.0 
2.255e+3, 1.25e+2, -1715000.0, -1715000.0, 0.0, 0.0, 0.0, -1715000.0, -1715000.0, 0.0, 10.0, 10.0 
2.255e+3, 1.35e+2, -1617000.0, -1617000.0, 0.0, 0.0, 0.0, -1617000.0, -1617000.0, 0.0, 10.0, 10.0 
2.255e+3, 1.45e+2, -1519000.0, -1519000.0, 0.0, 0.0, 0.0, -1519000.0, -1519000.0, 0.0, 10.0, 10.0 
2.255e+3, 1.55e+2, -1421000.0, -1421000.0, 0.0, 0.0, 0.0, -1421000.0, -1421000.0, 0.0, 10.0, 10.0 
2.255e+3, 1.65e+2, -1323000.0, -1323000.0, 0.0, 0.0, 0.0, -1323000.0, -1323000.0, 0.0, 10.0, 10.0 
2.255e+3, 1.75e+2, -1225000.0, -1225000.0, 0.0, 0.0, 0.0, -1225000.0, -1225000.0, 0.0, 10.0, 10.0 
2.255e+3, 1.85e+2, -1127000.0, -1127000.0, 0.0, 0.0, 0.0, -1127000.0, -1127000.0, 0.0, 10.0, 10.0 
2.255e+3, 1.95e+2, -1029000.0, -1029000.0, 0.0, 0.0, 0.0, -1029000.0, -1029000.0, 0.0, 10.0, 10.0 
2.255e+3, 2.05e+2, -931000.0, -931000.0, 0.0, 0.0, 0.0, -931000.0, -931000.0, 0.0, 10.0, 10.0 
2.255e+3, 2.15e+2, -833000.0, -833000.0, 0.0, 0.0, 0.0, -833000.0, -833000.0, 0.0, 10.0, 10.0 
2.255e+3, 2.25e+2, -735000.0, -735000.0, 0.0, 0.0, 0.0, -735000.0, -735000.0, 0.0, 10.0, 10.0 
2.255e+3, 2.35e+2, -637000.0, -637000.0, 0.0, 0.0, 0.0, -637000.0, -637000.0, 0.0, 10.0, 10.0 
2.255e+3, 2.45e+2, -539000.0, -539000.0, 0.0, 0.0, 0.0, -539000.0, -539000.0, 0.0, 10.0, 10.0 
2.255e+3, 2.55e+2, -441000.0, -441000.0, 0.0, 0.0, 0.0, -441000.0, -441000.0, 0.0, 10.0, 10.0 
2.255e+3, 2.65e+2, -343000.0, -343000.0, 0.0, 0.0, 0.0, -343000.0, -343000.0, 0.0, 10.0, 10.0 
2.255e+3, 2.75e+2, -245000.0, -245000.0, 0.0, 0.0, 0.0, -245000.0, -245000.0, 0.0, 10.0, 10.0 
2.255e+3, 2.85e+2, -147000.0, -147000.0, 0.0, 0.0, 0.0, -147000.0, -147000.0, 0.0, 10.0, 10.0 
2.255e+3, 2.95e+2, -49000.0, -49000.0, 0.0, 0.0, 0.0, -49000.0, -49000.0, 0.0, 10.0, 10.0 
2.255e+3, 3.05e+2, 0.0, 0.0, 0.0, 0.0, 0.0, 0.0, 0.0, 0.0, 10.0, 10.0 
2.255e+3, 3.15e+2, 0.0, 0.0, 0.0, 0.0, 0.0, 0.0, 0.0, 0.0, 10.0, 10.0 
2.265e+3, 1.25e+2, -1715000.0, -1715000.0, 0.0, 0.0, 0.0, -1715000.0, -1715000.0, 0.0, 10.0, 10.0 
2.265e+3, 1.35e+2, -1617000.0, -1617000.0, 0.0, 0.0, 0.0, -1617000.0, -1617000.0, 0.0, 10.0, 10.0 
2.265e+3, 1.45e+2, -1519000.0, -1519000.0, 0.0, 0.0, 0.0, -1519000.0, -1519000.0, 0.0, 10.0, 10.0 
2.265e+3, 1.55e+2, -1421000.0, -1421000.0, 0.0, 0.0, 0.0, -1421000.0, -1421000.0, 0.0, 10.0, 10.0 
2.265e+3, 1.65e+2, -1323000.0, -1323000.0, 0.0, 0.0, 0.0, -1323000.0, -1323000.0, 0.0, 10.0, 10.0 
2.265e+3, 1.75e+2, -1225000.0, -1225000.0, 0.0, 0.0, 0.0, -1225000.0, -1225000.0, 0.0, 10.0, 10.0 
2.265e+3, 1.85e+2, -1127000.0, -1127000.0, 0.0, 0.0, 0.0, -1127000.0, -1127000.0, 0.0, 10.0, 10.0 
2.265e+3, 1.95e+2, -1029000.0, -1029000.0, 0.0, 0.0, 0.0, -1029000.0, -1029000.0, 0.0, 10.0, 10.0 
2.265e+3, 2.05e+2, -931000.0, -931000.0, 0.0, 0.0, 0.0, -931000.0, -931000.0, 0.0, 10.0, 10.0 
2.265e+3, 2.15e+2, -833000.0, -833000.0, 0.0, 0.0, 0.0, -833000.0, -833000.0, 0.0, 10.0, 10.0 
2.265e+3, 2.25e+2, -735000.0, -735000.0, 0.0, 0.0, 0.0, -735000.0, -735000.0, 0.0, 10.0, 10.0 
2.265e+3, 2.35e+2, -637000.0, -637000.0, 0.0, 0.0, 0.0, -637000.0, -637000.0, 0.0, 10.0, 10.0 
2.265e+3, 2.45e+2, -539000.0, -539000.0, 0.0, 0.0, 0.0, -539000.0, -539000.0, 0.0, 10.0, 10.0 
2.265e+3, 2.55e+2, -441000.0, -441000.0, 0.0, 0.0, 0.0, -441000.0, -441000.0, 0.0, 10.0, 10.0 
2.265e+3, 2.65e+2, -343000.0, -343000.0, 0.0, 0.0, 0.0, -343000.0, -343000.0, 0.0, 10.0, 10.0 
2.265e+3, 2.75e+2, -245000.0, -245000.0, 0.0, 0.0, 0.0, -245000.0, -245000.0, 0.0, 10.0, 10.0 
2.265e+3, 2.85e+2, -147000.0, -147000.0, 0.0, 0.0, 0.0, -147000.0, -147000.0, 0.0, 10.0, 10.0 
2.265e+3, 2.95e+2, -49000.0, -49000.0, 0.0, 0.0, 0.0, -49000.0, -49000.0, 0.0, 10.0, 10.0 
2.265e+3, 3.05e+2, 0.0, 0.0, 0.0, 0.0, 0.0, 0.0, 0.0, 0.0, 10.0, 10.0 
2.265e+3, 3.15e+2, 0.0, 0.0, 0.0, 0.0, 0.0, 0.0, 0.0, 0.0, 10.0, 10.0 
2.275e+3, 1.25e+2, -1715000.0, -1715000.0, 0.0, 0.0, 0.0, -1715000.0, -1715000.0, 0.0, 10.0, 10.0 
2.275e+3, 1.35e+2, -1617000.0, -1617000.0, 0.0, 0.0, 0.0, -1617000.0, -1617000.0, 0.0, 10.0, 10.0 
2.275e+3, 1.45e+2, -1519000.0, -1519000.0, 0.0, 0.0, 0.0, -1519000.0, -1519000.0, 0.0, 10.0, 10.0 
2.275e+3, 1.55e+2, -1421000.0, -1421000.0, 0.0, 0.0, 0.0, -1421000.0, -1421000.0, 0.0, 10.0, 10.0 
2.275e+3, 1.65e+2, -1323000.0, -1323000.0, 0.0, 0.0, 0.0, -1323000.0, -1323000.0, 0.0, 10.0, 10.0 
2.275e+3, 1.75e+2, -1225000.0, -1225000.0, 0.0, 0.0, 0.0, -1225000.0, -1225000.0, 0.0, 10.0, 10.0 
2.275e+3, 1.85e+2, -1127000.0, -1127000.0, 0.0, 0.0, 0.0, -1127000.0, -1127000.0, 0.0, 10.0, 10.0 
2.275e+3, 1.95e+2, -1029000.0, -1029000.0, 0.0, 0.0, 0.0, -1029000.0, -1029000.0, 0.0, 10.0, 10.0 
2.275e+3, 2.05e+2, -931000.0, -931000.0, 0.0, 0.0, 0.0, -931000.0, -931000.0, 0.0, 10.0, 10.0 
2.275e+3, 2.15e+2, -833000.0, -833000.0, 0.0, 0.0, 0.0, -833000.0, -833000.0, 0.0, 10.0, 10.0 
2.275e+3, 2.25e+2, -735000.0, -735000.0, 0.0, 0.0, 0.0, -735000.0, -735000.0, 0.0, 10.0, 10.0 
2.275e+3, 2.35e+2, -637000.0, -637000.0, 0.0, 0.0, 0.0, -637000.0, -637000.0, 0.0, 10.0, 10.0 
2.275e+3, 2.45e+2, -539000.0, -539000.0, 0.0, 0.0, 0.0, -539000.0, -539000.0, 0.0, 10.0, 10.0 
2.275e+3, 2.55e+2, -441000.0, -441000.0, 0.0, 0.0, 0.0, -441000.0, -441000.0, 0.0, 10.0, 10.0 
2.275e+3, 2.65e+2, -343000.0, -343000.0, 0.0, 0.0, 0.0, -343000.0, -343000.0, 0.0, 10.0, 10.0 
2.275e+3, 2.75e+2, -245000.0, -245000.0, 0.0, 0.0, 0.0, -245000.0, -245000.0, 0.0, 10.0, 10.0 
2.275e+3, 2.85e+2, -147000.0, -147000.0, 0.0, 0.0, 0.0, -147000.0, -147000.0, 0.0, 10.0, 10.0 
2.275e+3, 2.95e+2, -49000.0, -49000.0, 0.0, 0.0, 0.0, -49000.0, -49000.0, 0.0, 10.0, 10.0 
2.275e+3, 3.05e+2, 0.0, 0.0, 0.0, 0.0, 0.0, 0.0, 0.0, 0.0, 10.0, 10.0 
2.275e+3, 3.15e+2, 0.0, 0.0, 0.0, 0.0, 0.0, 0.0, 0.0, 0.0, 10.0, 10.0 
2.285e+3, 1.25e+2, -1715000.0, -1715000.0, 0.0, 0.0, 0.0, -1715000.0, -1715000.0, 0.0, 10.0, 10.0 
2.285e+3, 1.35e+2, -1617000.0, -1617000.0, 0.0, 0.0, 0.0, -1617000.0, -1617000.0, 0.0, 10.0, 10.0 
2.285e+3, 1.45e+2, -1519000.0, -1519000.0, 0.0, 0.0, 0.0, -1519000.0, -1519000.0, 0.0, 10.0, 10.0 
2.285e+3, 1.55e+2, -1421000.0, -1421000.0, 0.0, 0.0, 0.0, -1421000.0, -1421000.0, 0.0, 10.0, 10.0 
2.285e+3, 1.65e+2, -1323000.0, -1323000.0, 0.0, 0.0, 0.0, -1323000.0, -1323000.0, 0.0, 10.0, 10.0 
2.285e+3, 1.75e+2, -1225000.0, -1225000.0, 0.0, 0.0, 0.0, -1225000.0, -1225000.0, 0.0, 10.0, 10.0 
2.285e+3, 1.85e+2, -1127000.0, -1127000.0, 0.0, 0.0, 0.0, -1127000.0, -1127000.0, 0.0, 10.0, 10.0 
2.285e+3, 1.95e+2, -1029000.0, -1029000.0, 0.0, 0.0, 0.0, -1029000.0, -1029000.0, 0.0, 10.0, 10.0 
2.285e+3, 2.05e+2, -931000.0, -931000.0, 0.0, 0.0, 0.0, -931000.0, -931000.0, 0.0, 10.0, 10.0 
2.285e+3, 2.15e+2, -833000.0, -833000.0, 0.0, 0.0, 0.0, -833000.0, -833000.0, 0.0, 10.0, 10.0 
2.285e+3, 2.25e+2, -735000.0, -735000.0, 0.0, 0.0, 0.0, -735000.0, -735000.0, 0.0, 10.0, 10.0 
2.285e+3, 2.35e+2, -637000.0, -637000.0, 0.0, 0.0, 0.0, -637000.0, -637000.0, 0.0, 10.0, 10.0 
2.285e+3, 2.45e+2, -539000.0, -539000.0, 0.0, 0.0, 0.0, -539000.0, -539000.0, 0.0, 10.0, 10.0 
2.285e+3, 2.55e+2, -441000.0, -441000.0, 0.0, 0.0, 0.0, -441000.0, -441000.0, 0.0, 10.0, 10.0 
2.285e+3, 2.65e+2, -343000.0, -343000.0, 0.0, 0.0, 0.0, -343000.0, -343000.0, 0.0, 10.0, 10.0 
2.285e+3, 2.75e+2, -245000.0, -245000.0, 0.0, 0.0, 0.0, -245000.0, -245000.0, 0.0, 10.0, 10.0 
2.285e+3, 2.85e+2, -147000.0, -147000.0, 0.0, 0.0, 0.0, -147000.0, -147000.0, 0.0, 10.0, 10.0 
2.285e+3, 2.95e+2, -49000.0, -49000.0, 0.0, 0.0, 0.0, -49000.0, -49000.0, 0.0, 10.0, 10.0 
2.285e+3, 3.05e+2, 0.0, 0.0, 0.0, 0.0, 0.0, 0.0, 0.0, 0.0, 10.0, 10.0 
2.285e+3, 3.15e+2, 0.0, 0.0, 0.0, 0.0, 0.0, 0.0, 0.0, 0.0, 10.0, 10.0 
2.295e+3, 1.25e+2, -1715000.0, -1715000.0, 0.0, 0.0, 0.0, -1715000.0, -1715000.0, 0.0, 10.0, 10.0 
2.295e+3, 1.35e+2, -1617000.0, -1617000.0, 0.0, 0.0, 0.0, -1617000.0, -1617000.0, 0.0, 10.0, 10.0 
2.295e+3, 1.45e+2, -1519000.0, -1519000.0, 0.0, 0.0, 0.0, -1519000.0, -1519000.0, 0.0, 10.0, 10.0 
2.295e+3, 1.55e+2, -1421000.0, -1421000.0, 0.0, 0.0, 0.0, -1421000.0, -1421000.0, 0.0, 10.0, 10.0 
2.295e+3, 1.65e+2, -1323000.0, -1323000.0, 0.0, 0.0, 0.0, -1323000.0, -1323000.0, 0.0, 10.0, 10.0 
2.295e+3, 1.75e+2, -1225000.0, -1225000.0, 0.0, 0.0, 0.0, -1225000.0, -1225000.0, 0.0, 10.0, 10.0 
2.295e+3, 1.85e+2, -1127000.0, -1127000.0, 0.0, 0.0, 0.0, -1127000.0, -1127000.0, 0.0, 10.0, 10.0 
2.295e+3, 1.95e+2, -1029000.0, -1029000.0, 0.0, 0.0, 0.0, -1029000.0, -1029000.0, 0.0, 10.0, 10.0 
2.295e+3, 2.05e+2, -931000.0, -931000.0, 0.0, 0.0, 0.0, -931000.0, -931000.0, 0.0, 10.0, 10.0 
2.295e+3, 2.15e+2, -833000.0, -833000.0, 0.0, 0.0, 0.0, -833000.0, -833000.0, 0.0, 10.0, 10.0 
2.295e+3, 2.25e+2, -735000.0, -735000.0, 0.0, 0.0, 0.0, -735000.0, -735000.0, 0.0, 10.0, 10.0 
2.295e+3, 2.35e+2, -637000.0, -637000.0, 0.0, 0.0, 0.0, -637000.0, -637000.0, 0.0, 10.0, 10.0 
2.295e+3, 2.45e+2, -539000.0, -539000.0, 0.0, 0.0, 0.0, -539000.0, -539000.0, 0.0, 10.0, 10.0 
2.295e+3, 2.55e+2, -441000.0, -441000.0, 0.0, 0.0, 0.0, -441000.0, -441000.0, 0.0, 10.0, 10.0 
2.295e+3, 2.65e+2, -343000.0, -343000.0, 0.0, 0.0, 0.0, -343000.0, -343000.0, 0.0, 10.0, 10.0 
2.295e+3, 2.75e+2, -245000.0, -245000.0, 0.0, 0.0, 0.0, -245000.0, -245000.0, 0.0, 10.0, 10.0 
2.295e+3, 2.85e+2, -147000.0, -147000.0, 0.0, 0.0, 0.0, -147000.0, -147000.0, 0.0, 10.0, 10.0 
2.295e+3, 2.95e+2, -49000.0, -49000.0, 0.0, 0.0, 0.0, -49000.0, -49000.0, 0.0, 10.0, 10.0 
2.295e+3, 3.05e+2, 0.0, 0.0, 0.0, 0.0, 0.0, 0.0, 0.0, 0.0, 10.0, 10.0 
2.295e+3, 3.15e+2, 0.0, 0.0, 0.0, 0.0, 0.0, 0.0, 0.0, 0.0, 10.0, 10.0 
2.305e+3, 1.25e+2, -1715000.0, -1715000.0, 0.0, 0.0, 0.0, -1715000.0, -1715000.0, 0.0, 10.0, 10.0 
2.305e+3, 1.35e+2, -1617000.0, -1617000.0, 0.0, 0.0, 0.0, -1617000.0, -1617000.0, 0.0, 10.0, 10.0 
2.305e+3, 1.45e+2, -1519000.0, -1519000.0, 0.0, 0.0, 0.0, -1519000.0, -1519000.0, 0.0, 10.0, 10.0 
2.305e+3, 1.55e+2, -1421000.0, -1421000.0, 0.0, 0.0, 0.0, -1421000.0, -1421000.0, 0.0, 10.0, 10.0 
2.305e+3, 1.65e+2, -1323000.0, -1323000.0, 0.0, 0.0, 0.0, -1323000.0, -1323000.0, 0.0, 10.0, 10.0 
2.305e+3, 1.75e+2, -1225000.0, -1225000.0, 0.0, 0.0, 0.0, -1225000.0, -1225000.0, 0.0, 10.0, 10.0 
2.305e+3, 1.85e+2, -1127000.0, -1127000.0, 0.0, 0.0, 0.0, -1127000.0, -1127000.0, 0.0, 10.0, 10.0 
2.305e+3, 1.95e+2, -1029000.0, -1029000.0, 0.0, 0.0, 0.0, -1029000.0, -1029000.0, 0.0, 10.0, 10.0 
2.305e+3, 2.05e+2, -931000.0, -931000.0, 0.0, 0.0, 0.0, -931000.0, -931000.0, 0.0, 10.0, 10.0 
2.305e+3, 2.15e+2, -833000.0, -833000.0, 0.0, 0.0, 0.0, -833000.0, -833000.0, 0.0, 10.0, 10.0 
2.305e+3, 2.25e+2, -735000.0, -735000.0, 0.0, 0.0, 0.0, -735000.0, -735000.0, 0.0, 10.0, 10.0 
2.305e+3, 2.35e+2, -637000.0, -637000.0, 0.0, 0.0, 0.0, -637000.0, -637000.0, 0.0, 10.0, 10.0 
2.305e+3, 2.45e+2, -539000.0, -539000.0, 0.0, 0.0, 0.0, -539000.0, -539000.0, 0.0, 10.0, 10.0 
2.305e+3, 2.55e+2, -441000.0, -441000.0, 0.0, 0.0, 0.0, -441000.0, -441000.0, 0.0, 10.0, 10.0 
2.305e+3, 2.65e+2, -343000.0, -343000.0, 0.0, 0.0, 0.0, -343000.0, -343000.0, 0.0, 10.0, 10.0 
2.305e+3, 2.75e+2, -245000.0, -245000.0, 0.0, 0.0, 0.0, -245000.0, -245000.0, 0.0, 10.0, 10.0 
2.305e+3, 2.85e+2, -147000.0, -147000.0, 0.0, 0.0, 0.0, -147000.0, -147000.0, 0.0, 10.0, 10.0 
2.305e+3, 2.95e+2, -49000.0, -49000.0, 0.0, 0.0, 0.0, -49000.0, -49000.0, 0.0, 10.0, 10.0 
2.305e+3, 3.05e+2, 0.0, 0.0, 0.0, 0.0, 0.0, 0.0, 0.0, 0.0, 10.0, 10.0 
2.305e+3, 3.15e+2, 0.0, 0.0, 0.0, 0.0, 0.0, 0.0, 0.0, 0.0, 10.0, 10.0 
2.315e+3, 1.25e+2, -1715000.0, -1715000.0, 0.0, 0.0, 0.0, -1715000.0, -1715000.0, 0.0, 10.0, 10.0 
2.315e+3, 1.35e+2, -1617000.0, -1617000.0, 0.0, 0.0, 0.0, -1617000.0, -1617000.0, 0.0, 10.0, 10.0 
2.315e+3, 1.45e+2, -1519000.0, -1519000.0, 0.0, 0.0, 0.0, -1519000.0, -1519000.0, 0.0, 10.0, 10.0 
2.315e+3, 1.55e+2, -1421000.0, -1421000.0, 0.0, 0.0, 0.0, -1421000.0, -1421000.0, 0.0, 10.0, 10.0 
2.315e+3, 1.65e+2, -1323000.0, -1323000.0, 0.0, 0.0, 0.0, -1323000.0, -1323000.0, 0.0, 10.0, 10.0 
2.315e+3, 1.75e+2, -1225000.0, -1225000.0, 0.0, 0.0, 0.0, -1225000.0, -1225000.0, 0.0, 10.0, 10.0 
2.315e+3, 1.85e+2, -1127000.0, -1127000.0, 0.0, 0.0, 0.0, -1127000.0, -1127000.0, 0.0, 10.0, 10.0 
2.315e+3, 1.95e+2, -1029000.0, -1029000.0, 0.0, 0.0, 0.0, -1029000.0, -1029000.0, 0.0, 10.0, 10.0 
2.315e+3, 2.05e+2, -931000.0, -931000.0, 0.0, 0.0, 0.0, -931000.0, -931000.0, 0.0, 10.0, 10.0 
2.315e+3, 2.15e+2, -833000.0, -833000.0, 0.0, 0.0, 0.0, -833000.0, -833000.0, 0.0, 10.0, 10.0 
2.315e+3, 2.25e+2, -735000.0, -735000.0, 0.0, 0.0, 0.0, -735000.0, -735000.0, 0.0, 10.0, 10.0 
2.315e+3, 2.35e+2, -637000.0, -637000.0, 0.0, 0.0, 0.0, -637000.0, -637000.0, 0.0, 10.0, 10.0 
2.315e+3, 2.45e+2, -539000.0, -539000.0, 0.0, 0.0, 0.0, -539000.0, -539000.0, 0.0, 10.0, 10.0 
2.315e+3, 2.55e+2, -441000.0, -441000.0, 0.0, 0.0, 0.0, -441000.0, -441000.0, 0.0, 10.0, 10.0 
2.315e+3, 2.65e+2, -343000.0, -343000.0, 0.0, 0.0, 0.0, -343000.0, -343000.0, 0.0, 10.0, 10.0 
2.315e+3, 2.75e+2, -245000.0, -245000.0, 0.0, 0.0, 0.0, -245000.0, -245000.0, 0.0, 10.0, 10.0 
2.315e+3, 2.85e+2, -147000.0, -147000.0, 0.0, 0.0, 0.0, -147000.0, -147000.0, 0.0, 10.0, 10.0 
2.315e+3, 2.95e+2, -49000.0, -49000.0, 0.0, 0.0, 0.0, -49000.0, -49000.0, 0.0, 10.0, 10.0 
2.315e+3, 3.05e+2, 0.0, 0.0, 0.0, 0.0, 0.0, 0.0, 0.0, 0.0, 10.0, 10.0 
2.315e+3, 3.15e+2, 0.0, 0.0, 0.0, 0.0, 0.0, 0.0, 0.0, 0.0, 10.0, 10.0 
2.325e+3, 1.25e+2, -1715000.0, -1715000.0, 0.0, 0.0, 0.0, -1715000.0, -1715000.0, 0.0, 10.0, 10.0 
2.325e+3, 1.35e+2, -1617000.0, -1617000.0, 0.0, 0.0, 0.0, -1617000.0, -1617000.0, 0.0, 10.0, 10.0 
2.325e+3, 1.45e+2, -1519000.0, -1519000.0, 0.0, 0.0, 0.0, -1519000.0, -1519000.0, 0.0, 10.0, 10.0 
2.325e+3, 1.55e+2, -1421000.0, -1421000.0, 0.0, 0.0, 0.0, -1421000.0, -1421000.0, 0.0, 10.0, 10.0 
2.325e+3, 1.65e+2, -1323000.0, -1323000.0, 0.0, 0.0, 0.0, -1323000.0, -1323000.0, 0.0, 10.0, 10.0 
2.325e+3, 1.75e+2, -1225000.0, -1225000.0, 0.0, 0.0, 0.0, -1225000.0, -1225000.0, 0.0, 10.0, 10.0 
2.325e+3, 1.85e+2, -1127000.0, -1127000.0, 0.0, 0.0, 0.0, -1127000.0, -1127000.0, 0.0, 10.0, 10.0 
2.325e+3, 1.95e+2, -1029000.0, -1029000.0, 0.0, 0.0, 0.0, -1029000.0, -1029000.0, 0.0, 10.0, 10.0 
2.325e+3, 2.05e+2, -931000.0, -931000.0, 0.0, 0.0, 0.0, -931000.0, -931000.0, 0.0, 10.0, 10.0 
2.325e+3, 2.15e+2, -833000.0, -833000.0, 0.0, 0.0, 0.0, -833000.0, -833000.0, 0.0, 10.0, 10.0 
2.325e+3, 2.25e+2, -735000.0, -735000.0, 0.0, 0.0, 0.0, -735000.0, -735000.0, 0.0, 10.0, 10.0 
2.325e+3, 2.35e+2, -637000.0, -637000.0, 0.0, 0.0, 0.0, -637000.0, -637000.0, 0.0, 10.0, 10.0 
2.325e+3, 2.45e+2, -539000.0, -539000.0, 0.0, 0.0, 0.0, -539000.0, -539000.0, 0.0, 10.0, 10.0 
2.325e+3, 2.55e+2, -441000.0, -441000.0, 0.0, 0.0, 0.0, -441000.0, -441000.0, 0.0, 10.0, 10.0 
2.325e+3, 2.65e+2, -343000.0, -343000.0, 0.0, 0.0, 0.0, -343000.0, -343000.0, 0.0, 10.0, 10.0 
2.325e+3, 2.75e+2, -245000.0, -245000.0, 0.0, 0.0, 0.0, -245000.0, -245000.0, 0.0, 10.0, 10.0 
2.325e+3, 2.85e+2, -147000.0, -147000.0, 0.0, 0.0, 0.0, -147000.0, -147000.0, 0.0, 10.0, 10.0 
2.325e+3, 2.95e+2, -49000.0, -49000.0, 0.0, 0.0, 0.0, -49000.0, -49000.0, 0.0, 10.0, 10.0 
2.325e+3, 3.05e+2, 0.0, 0.0, 0.0, 0.0, 0.0, 0.0, 0.0, 0.0, 10.0, 10.0 
2.325e+3, 3.15e+2, 0.0, 0.0, 0.0, 0.0, 0.0, 0.0, 0.0, 0.0, 10.0, 10.0 
2.335e+3, 1.25e+2, -1715000.0, -1715000.0, 0.0, 0.0, 0.0, -1715000.0, -1715000.0, 0.0, 10.0, 10.0 
2.335e+3, 1.35e+2, -1617000.0, -1617000.0, 0.0, 0.0, 0.0, -1617000.0, -1617000.0, 0.0, 10.0, 10.0 
2.335e+3, 1.45e+2, -1519000.0, -1519000.0, 0.0, 0.0, 0.0, -1519000.0, -1519000.0, 0.0, 10.0, 10.0 
2.335e+3, 1.55e+2, -1421000.0, -1421000.0, 0.0, 0.0, 0.0, -1421000.0, -1421000.0, 0.0, 10.0, 10.0 
2.335e+3, 1.65e+2, -1323000.0, -1323000.0, 0.0, 0.0, 0.0, -1323000.0, -1323000.0, 0.0, 10.0, 10.0 
2.335e+3, 1.75e+2, -1225000.0, -1225000.0, 0.0, 0.0, 0.0, -1225000.0, -1225000.0, 0.0, 10.0, 10.0 
2.335e+3, 1.85e+2, -1127000.0, -1127000.0, 0.0, 0.0, 0.0, -1127000.0, -1127000.0, 0.0, 10.0, 10.0 
2.335e+3, 1.95e+2, -1029000.0, -1029000.0, 0.0, 0.0, 0.0, -1029000.0, -1029000.0, 0.0, 10.0, 10.0 
2.335e+3, 2.05e+2, -931000.0, -931000.0, 0.0, 0.0, 0.0, -931000.0, -931000.0, 0.0, 10.0, 10.0 
2.335e+3, 2.15e+2, -833000.0, -833000.0, 0.0, 0.0, 0.0, -833000.0, -833000.0, 0.0, 10.0, 10.0 
2.335e+3, 2.25e+2, -735000.0, -735000.0, 0.0, 0.0, 0.0, -735000.0, -735000.0, 0.0, 10.0, 10.0 
2.335e+3, 2.35e+2, -637000.0, -637000.0, 0.0, 0.0, 0.0, -637000.0, -637000.0, 0.0, 10.0, 10.0 
2.335e+3, 2.45e+2, -539000.0, -539000.0, 0.0, 0.0, 0.0, -539000.0, -539000.0, 0.0, 10.0, 10.0 
2.335e+3, 2.55e+2, -441000.0, -441000.0, 0.0, 0.0, 0.0, -441000.0, -441000.0, 0.0, 10.0, 10.0 
2.335e+3, 2.65e+2, -343000.0, -343000.0, 0.0, 0.0, 0.0, -343000.0, -343000.0, 0.0, 10.0, 10.0 
2.335e+3, 2.75e+2, -245000.0, -245000.0, 0.0, 0.0, 0.0, -245000.0, -245000.0, 0.0, 10.0, 10.0 
2.335e+3, 2.85e+2, -147000.0, -147000.0, 0.0, 0.0, 0.0, -147000.0, -147000.0, 0.0, 10.0, 10.0 
2.335e+3, 2.95e+2, -49000.0, -49000.0, 0.0, 0.0, 0.0, -49000.0, -49000.0, 0.0, 10.0, 10.0 
2.335e+3, 3.05e+2, 0.0, 0.0, 0.0, 0.0, 0.0, 0.0, 0.0, 0.0, 10.0, 10.0 
2.335e+3, 3.15e+2, 0.0, 0.0, 0.0, 0.0, 0.0, 0.0, 0.0, 0.0, 10.0, 10.0 
2.345e+3, 1.25e+2, -1715000.0, -1715000.0, 0.0, 0.0, 0.0, -1715000.0, -1715000.0, 0.0, 10.0, 10.0 
2.345e+3, 1.35e+2, -1617000.0, -1617000.0, 0.0, 0.0, 0.0, -1617000.0, -1617000.0, 0.0, 10.0, 10.0 
2.345e+3, 1.45e+2, -1519000.0, -1519000.0, 0.0, 0.0, 0.0, -1519000.0, -1519000.0, 0.0, 10.0, 10.0 
2.345e+3, 1.55e+2, -1421000.0, -1421000.0, 0.0, 0.0, 0.0, -1421000.0, -1421000.0, 0.0, 10.0, 10.0 
2.345e+3, 1.65e+2, -1323000.0, -1323000.0, 0.0, 0.0, 0.0, -1323000.0, -1323000.0, 0.0, 10.0, 10.0 
2.345e+3, 1.75e+2, -1225000.0, -1225000.0, 0.0, 0.0, 0.0, -1225000.0, -1225000.0, 0.0, 10.0, 10.0 
2.345e+3, 1.85e+2, -1127000.0, -1127000.0, 0.0, 0.0, 0.0, -1127000.0, -1127000.0, 0.0, 10.0, 10.0 
2.345e+3, 1.95e+2, -1029000.0, -1029000.0, 0.0, 0.0, 0.0, -1029000.0, -1029000.0, 0.0, 10.0, 10.0 
2.345e+3, 2.05e+2, -931000.0, -931000.0, 0.0, 0.0, 0.0, -931000.0, -931000.0, 0.0, 10.0, 10.0 
2.345e+3, 2.15e+2, -833000.0, -833000.0, 0.0, 0.0, 0.0, -833000.0, -833000.0, 0.0, 10.0, 10.0 
2.345e+3, 2.25e+2, -735000.0, -735000.0, 0.0, 0.0, 0.0, -735000.0, -735000.0, 0.0, 10.0, 10.0 
2.345e+3, 2.35e+2, -637000.0, -637000.0, 0.0, 0.0, 0.0, -637000.0, -637000.0, 0.0, 10.0, 10.0 
2.345e+3, 2.45e+2, -539000.0, -539000.0, 0.0, 0.0, 0.0, -539000.0, -539000.0, 0.0, 10.0, 10.0 
2.345e+3, 2.55e+2, -441000.0, -441000.0, 0.0, 0.0, 0.0, -441000.0, -441000.0, 0.0, 10.0, 10.0 
2.345e+3, 2.65e+2, -343000.0, -343000.0, 0.0, 0.0, 0.0, -343000.0, -343000.0, 0.0, 10.0, 10.0 
2.345e+3, 2.75e+2, -245000.0, -245000.0, 0.0, 0.0, 0.0, -245000.0, -245000.0, 0.0, 10.0, 10.0 
2.345e+3, 2.85e+2, -147000.0, -147000.0, 0.0, 0.0, 0.0, -147000.0, -147000.0, 0.0, 10.0, 10.0 
2.345e+3, 2.95e+2, -49000.0, -49000.0, 0.0, 0.0, 0.0, -49000.0, -49000.0, 0.0, 10.0, 10.0 
2.345e+3, 3.05e+2, 0.0, 0.0, 0.0, 0.0, 0.0, 0.0, 0.0, 0.0, 10.0, 10.0 
2.345e+3, 3.15e+2, 0.0, 0.0, 0.0, 0.0, 0.0, 0.0, 0.0, 0.0, 10.0, 10.0 
2.355e+3, 1.25e+2, -1715000.0, -1715000.0, 0.0, 0.0, 0.0, -1715000.0, -1715000.0, 0.0, 10.0, 10.0 
2.355e+3, 1.35e+2, -1617000.0, -1617000.0, 0.0, 0.0, 0.0, -1617000.0, -1617000.0, 0.0, 10.0, 10.0 
2.355e+3, 1.45e+2, -1519000.0, -1519000.0, 0.0, 0.0, 0.0, -1519000.0, -1519000.0, 0.0, 10.0, 10.0 
2.355e+3, 1.55e+2, -1421000.0, -1421000.0, 0.0, 0.0, 0.0, -1421000.0, -1421000.0, 0.0, 10.0, 10.0 
2.355e+3, 1.65e+2, -1323000.0, -1323000.0, 0.0, 0.0, 0.0, -1323000.0, -1323000.0, 0.0, 10.0, 10.0 
2.355e+3, 1.75e+2, -1225000.0, -1225000.0, 0.0, 0.0, 0.0, -1225000.0, -1225000.0, 0.0, 10.0, 10.0 
2.355e+3, 1.85e+2, -1127000.0, -1127000.0, 0.0, 0.0, 0.0, -1127000.0, -1127000.0, 0.0, 10.0, 10.0 
2.355e+3, 1.95e+2, -1029000.0, -1029000.0, 0.0, 0.0, 0.0, -1029000.0, -1029000.0, 0.0, 10.0, 10.0 
2.355e+3, 2.05e+2, -931000.0, -931000.0, 0.0, 0.0, 0.0, -931000.0, -931000.0, 0.0, 10.0, 10.0 
2.355e+3, 2.15e+2, -833000.0, -833000.0, 0.0, 0.0, 0.0, -833000.0, -833000.0, 0.0, 10.0, 10.0 
2.355e+3, 2.25e+2, -735000.0, -735000.0, 0.0, 0.0, 0.0, -735000.0, -735000.0, 0.0, 10.0, 10.0 
2.355e+3, 2.35e+2, -637000.0, -637000.0, 0.0, 0.0, 0.0, -637000.0, -637000.0, 0.0, 10.0, 10.0 
2.355e+3, 2.45e+2, -539000.0, -539000.0, 0.0, 0.0, 0.0, -539000.0, -539000.0, 0.0, 10.0, 10.0 
2.355e+3, 2.55e+2, -441000.0, -441000.0, 0.0, 0.0, 0.0, -441000.0, -441000.0, 0.0, 10.0, 10.0 
2.355e+3, 2.65e+2, -343000.0, -343000.0, 0.0, 0.0, 0.0, -343000.0, -343000.0, 0.0, 10.0, 10.0 
2.355e+3, 2.75e+2, -245000.0, -245000.0, 0.0, 0.0, 0.0, -245000.0, -245000.0, 0.0, 10.0, 10.0 
2.355e+3, 2.85e+2, -147000.0, -147000.0, 0.0, 0.0, 0.0, -147000.0, -147000.0, 0.0, 10.0, 10.0 
2.355e+3, 2.95e+2, -49000.0, -49000.0, 0.0, 0.0, 0.0, -49000.0, -49000.0, 0.0, 10.0, 10.0 
2.355e+3, 3.05e+2, 0.0, 0.0, 0.0, 0.0, 0.0, 0.0, 0.0, 0.0, 10.0, 10.0 
2.355e+3, 3.15e+2, 0.0, 0.0, 0.0, 0.0, 0.0, 0.0, 0.0, 0.0, 10.0, 10.0 
2.365e+3, 1.25e+2, -1715000.0, -1715000.0, 0.0, 0.0, 0.0, -1715000.0, -1715000.0, 0.0, 10.0, 10.0 
2.365e+3, 1.35e+2, -1617000.0, -1617000.0, 0.0, 0.0, 0.0, -1617000.0, -1617000.0, 0.0, 10.0, 10.0 
2.365e+3, 1.45e+2, -1519000.0, -1519000.0, 0.0, 0.0, 0.0, -1519000.0, -1519000.0, 0.0, 10.0, 10.0 
2.365e+3, 1.55e+2, -1421000.0, -1421000.0, 0.0, 0.0, 0.0, -1421000.0, -1421000.0, 0.0, 10.0, 10.0 
2.365e+3, 1.65e+2, -1323000.0, -1323000.0, 0.0, 0.0, 0.0, -1323000.0, -1323000.0, 0.0, 10.0, 10.0 
2.365e+3, 1.75e+2, -1225000.0, -1225000.0, 0.0, 0.0, 0.0, -1225000.0, -1225000.0, 0.0, 10.0, 10.0 
2.365e+3, 1.85e+2, -1127000.0, -1127000.0, 0.0, 0.0, 0.0, -1127000.0, -1127000.0, 0.0, 10.0, 10.0 
2.365e+3, 1.95e+2, -1029000.0, -1029000.0, 0.0, 0.0, 0.0, -1029000.0, -1029000.0, 0.0, 10.0, 10.0 
2.365e+3, 2.05e+2, -931000.0, -931000.0, 0.0, 0.0, 0.0, -931000.0, -931000.0, 0.0, 10.0, 10.0 
2.365e+3, 2.15e+2, -833000.0, -833000.0, 0.0, 0.0, 0.0, -833000.0, -833000.0, 0.0, 10.0, 10.0 
2.365e+3, 2.25e+2, -735000.0, -735000.0, 0.0, 0.0, 0.0, -735000.0, -735000.0, 0.0, 10.0, 10.0 
2.365e+3, 2.35e+2, -637000.0, -637000.0, 0.0, 0.0, 0.0, -637000.0, -637000.0, 0.0, 10.0, 10.0 
2.365e+3, 2.45e+2, -539000.0, -539000.0, 0.0, 0.0, 0.0, -539000.0, -539000.0, 0.0, 10.0, 10.0 
2.365e+3, 2.55e+2, -441000.0, -441000.0, 0.0, 0.0, 0.0, -441000.0, -441000.0, 0.0, 10.0, 10.0 
2.365e+3, 2.65e+2, -343000.0, -343000.0, 0.0, 0.0, 0.0, -343000.0, -343000.0, 0.0, 10.0, 10.0 
2.365e+3, 2.75e+2, -245000.0, -245000.0, 0.0, 0.0, 0.0, -245000.0, -245000.0, 0.0, 10.0, 10.0 
2.365e+3, 2.85e+2, -147000.0, -147000.0, 0.0, 0.0, 0.0, -147000.0, -147000.0, 0.0, 10.0, 10.0 
2.365e+3, 2.95e+2, -49000.0, -49000.0, 0.0, 0.0, 0.0, -49000.0, -49000.0, 0.0, 10.0, 10.0 
2.365e+3, 3.05e+2, 0.0, 0.0, 0.0, 0.0, 0.0, 0.0, 0.0, 0.0, 10.0, 10.0 
2.365e+3, 3.15e+2, 0.0, 0.0, 0.0, 0.0, 0.0, 0.0, 0.0, 0.0, 10.0, 10.0 
2.375e+3, 1.25e+2, -1715000.0, -1715000.0, 0.0, 0.0, 0.0, -1715000.0, -1715000.0, 0.0, 10.0, 10.0 
2.375e+3, 1.35e+2, -1617000.0, -1617000.0, 0.0, 0.0, 0.0, -1617000.0, -1617000.0, 0.0, 10.0, 10.0 
2.375e+3, 1.45e+2, -1519000.0, -1519000.0, 0.0, 0.0, 0.0, -1519000.0, -1519000.0, 0.0, 10.0, 10.0 
2.375e+3, 1.55e+2, -1421000.0, -1421000.0, 0.0, 0.0, 0.0, -1421000.0, -1421000.0, 0.0, 10.0, 10.0 
2.375e+3, 1.65e+2, -1323000.0, -1323000.0, 0.0, 0.0, 0.0, -1323000.0, -1323000.0, 0.0, 10.0, 10.0 
2.375e+3, 1.75e+2, -1225000.0, -1225000.0, 0.0, 0.0, 0.0, -1225000.0, -1225000.0, 0.0, 10.0, 10.0 
2.375e+3, 1.85e+2, -1127000.0, -1127000.0, 0.0, 0.0, 0.0, -1127000.0, -1127000.0, 0.0, 10.0, 10.0 
2.375e+3, 1.95e+2, -1029000.0, -1029000.0, 0.0, 0.0, 0.0, -1029000.0, -1029000.0, 0.0, 10.0, 10.0 
2.375e+3, 2.05e+2, -931000.0, -931000.0, 0.0, 0.0, 0.0, -931000.0, -931000.0, 0.0, 10.0, 10.0 
2.375e+3, 2.15e+2, -833000.0, -833000.0, 0.0, 0.0, 0.0, -833000.0, -833000.0, 0.0, 10.0, 10.0 
2.375e+3, 2.25e+2, -735000.0, -735000.0, 0.0, 0.0, 0.0, -735000.0, -735000.0, 0.0, 10.0, 10.0 
2.375e+3, 2.35e+2, -637000.0, -637000.0, 0.0, 0.0, 0.0, -637000.0, -637000.0, 0.0, 10.0, 10.0 
2.375e+3, 2.45e+2, -539000.0, -539000.0, 0.0, 0.0, 0.0, -539000.0, -539000.0, 0.0, 10.0, 10.0 
2.375e+3, 2.55e+2, -441000.0, -441000.0, 0.0, 0.0, 0.0, -441000.0, -441000.0, 0.0, 10.0, 10.0 
2.375e+3, 2.65e+2, -343000.0, -343000.0, 0.0, 0.0, 0.0, -343000.0, -343000.0, 0.0, 10.0, 10.0 
2.375e+3, 2.75e+2, -245000.0, -245000.0, 0.0, 0.0, 0.0, -245000.0, -245000.0, 0.0, 10.0, 10.0 
2.375e+3, 2.85e+2, -147000.0, -147000.0, 0.0, 0.0, 0.0, -147000.0, -147000.0, 0.0, 10.0, 10.0 
2.375e+3, 2.95e+2, -49000.0, -49000.0, 0.0, 0.0, 0.0, -49000.0, -49000.0, 0.0, 10.0, 10.0 
2.375e+3, 3.05e+2, 0.0, 0.0, 0.0, 0.0, 0.0, 0.0, 0.0, 0.0, 10.0, 10.0 
2.375e+3, 3.15e+2, 0.0, 0.0, 0.0, 0.0, 0.0, 0.0, 0.0, 0.0, 10.0, 10.0 
2.385e+3, 1.25e+2, -1715000.0, -1715000.0, 0.0, 0.0, 0.0, -1715000.0, -1715000.0, 0.0, 10.0, 10.0 
2.385e+3, 1.35e+2, -1617000.0, -1617000.0, 0.0, 0.0, 0.0, -1617000.0, -1617000.0, 0.0, 10.0, 10.0 
2.385e+3, 1.45e+2, -1519000.0, -1519000.0, 0.0, 0.0, 0.0, -1519000.0, -1519000.0, 0.0, 10.0, 10.0 
2.385e+3, 1.55e+2, -1421000.0, -1421000.0, 0.0, 0.0, 0.0, -1421000.0, -1421000.0, 0.0, 10.0, 10.0 
2.385e+3, 1.65e+2, -1323000.0, -1323000.0, 0.0, 0.0, 0.0, -1323000.0, -1323000.0, 0.0, 10.0, 10.0 
2.385e+3, 1.75e+2, -1225000.0, -1225000.0, 0.0, 0.0, 0.0, -1225000.0, -1225000.0, 0.0, 10.0, 10.0 
2.385e+3, 1.85e+2, -1127000.0, -1127000.0, 0.0, 0.0, 0.0, -1127000.0, -1127000.0, 0.0, 10.0, 10.0 
2.385e+3, 1.95e+2, -1029000.0, -1029000.0, 0.0, 0.0, 0.0, -1029000.0, -1029000.0, 0.0, 10.0, 10.0 
2.385e+3, 2.05e+2, -931000.0, -931000.0, 0.0, 0.0, 0.0, -931000.0, -931000.0, 0.0, 10.0, 10.0 
2.385e+3, 2.15e+2, -833000.0, -833000.0, 0.0, 0.0, 0.0, -833000.0, -833000.0, 0.0, 10.0, 10.0 
2.385e+3, 2.25e+2, -735000.0, -735000.0, 0.0, 0.0, 0.0, -735000.0, -735000.0, 0.0, 10.0, 10.0 
2.385e+3, 2.35e+2, -637000.0, -637000.0, 0.0, 0.0, 0.0, -637000.0, -637000.0, 0.0, 10.0, 10.0 
2.385e+3, 2.45e+2, -539000.0, -539000.0, 0.0, 0.0, 0.0, -539000.0, -539000.0, 0.0, 10.0, 10.0 
2.385e+3, 2.55e+2, -441000.0, -441000.0, 0.0, 0.0, 0.0, -441000.0, -441000.0, 0.0, 10.0, 10.0 
2.385e+3, 2.65e+2, -343000.0, -343000.0, 0.0, 0.0, 0.0, -343000.0, -343000.0, 0.0, 10.0, 10.0 
2.385e+3, 2.75e+2, -245000.0, -245000.0, 0.0, 0.0, 0.0, -245000.0, -245000.0, 0.0, 10.0, 10.0 
2.385e+3, 2.85e+2, -147000.0, -147000.0, 0.0, 0.0, 0.0, -147000.0, -147000.0, 0.0, 10.0, 10.0 
2.385e+3, 2.95e+2, -49000.0, -49000.0, 0.0, 0.0, 0.0, -49000.0, -49000.0, 0.0, 10.0, 10.0 
2.385e+3, 3.05e+2, 0.0, 0.0, 0.0, 0.0, 0.0, 0.0, 0.0, 0.0, 10.0, 10.0 
2.385e+3, 3.15e+2, 0.0, 0.0, 0.0, 0.0, 0.0, 0.0, 0.0, 0.0, 10.0, 10.0 
2.395e+3, 1.25e+2, -1715000.0, -1715000.0, 0.0, 0.0, 0.0, -1715000.0, -1715000.0, 0.0, 10.0, 10.0 
2.395e+3, 1.35e+2, -1617000.0, -1617000.0, 0.0, 0.0, 0.0, -1617000.0, -1617000.0, 0.0, 10.0, 10.0 
2.395e+3, 1.45e+2, -1519000.0, -1519000.0, 0.0, 0.0, 0.0, -1519000.0, -1519000.0, 0.0, 10.0, 10.0 
2.395e+3, 1.55e+2, -1421000.0, -1421000.0, 0.0, 0.0, 0.0, -1421000.0, -1421000.0, 0.0, 10.0, 10.0 
2.395e+3, 1.65e+2, -1323000.0, -1323000.0, 0.0, 0.0, 0.0, -1323000.0, -1323000.0, 0.0, 10.0, 10.0 
2.395e+3, 1.75e+2, -1225000.0, -1225000.0, 0.0, 0.0, 0.0, -1225000.0, -1225000.0, 0.0, 10.0, 10.0 
2.395e+3, 1.85e+2, -1127000.0, -1127000.0, 0.0, 0.0, 0.0, -1127000.0, -1127000.0, 0.0, 10.0, 10.0 
2.395e+3, 1.95e+2, -1029000.0, -1029000.0, 0.0, 0.0, 0.0, -1029000.0, -1029000.0, 0.0, 10.0, 10.0 
2.395e+3, 2.05e+2, -931000.0, -931000.0, 0.0, 0.0, 0.0, -931000.0, -931000.0, 0.0, 10.0, 10.0 
2.395e+3, 2.15e+2, -833000.0, -833000.0, 0.0, 0.0, 0.0, -833000.0, -833000.0, 0.0, 10.0, 10.0 
2.395e+3, 2.25e+2, -735000.0, -735000.0, 0.0, 0.0, 0.0, -735000.0, -735000.0, 0.0, 10.0, 10.0 
2.395e+3, 2.35e+2, -637000.0, -637000.0, 0.0, 0.0, 0.0, -637000.0, -637000.0, 0.0, 10.0, 10.0 
2.395e+3, 2.45e+2, -539000.0, -539000.0, 0.0, 0.0, 0.0, -539000.0, -539000.0, 0.0, 10.0, 10.0 
2.395e+3, 2.55e+2, -441000.0, -441000.0, 0.0, 0.0, 0.0, -441000.0, -441000.0, 0.0, 10.0, 10.0 
2.395e+3, 2.65e+2, -343000.0, -343000.0, 0.0, 0.0, 0.0, -343000.0, -343000.0, 0.0, 10.0, 10.0 
2.395e+3, 2.75e+2, -245000.0, -245000.0, 0.0, 0.0, 0.0, -245000.0, -245000.0, 0.0, 10.0, 10.0 
2.395e+3, 2.85e+2, -147000.0, -147000.0, 0.0, 0.0, 0.0, -147000.0, -147000.0, 0.0, 10.0, 10.0 
2.395e+3, 2.95e+2, -49000.0, -49000.0, 0.0, 0.0, 0.0, -49000.0, -49000.0, 0.0, 10.0, 10.0 
2.395e+3, 3.05e+2, 0.0, 0.0, 0.0, 0.0, 0.0, 0.0, 0.0, 0.0, 10.0, 10.0 
2.395e+3, 3.15e+2, 0.0, 0.0, 0.0, 0.0, 0.0, 0.0, 0.0, 0.0, 10.0, 10.0 
2.405e+3, 1.25e+2, -1715000.0, -1715000.0, 0.0, 0.0, 0.0, -1715000.0, -1715000.0, 0.0, 10.0, 10.0 
2.405e+3, 1.35e+2, -1617000.0, -1617000.0, 0.0, 0.0, 0.0, -1617000.0, -1617000.0, 0.0, 10.0, 10.0 
2.405e+3, 1.45e+2, -1519000.0, -1519000.0, 0.0, 0.0, 0.0, -1519000.0, -1519000.0, 0.0, 10.0, 10.0 
2.405e+3, 1.55e+2, -1421000.0, -1421000.0, 0.0, 0.0, 0.0, -1421000.0, -1421000.0, 0.0, 10.0, 10.0 
2.405e+3, 1.65e+2, -1323000.0, -1323000.0, 0.0, 0.0, 0.0, -1323000.0, -1323000.0, 0.0, 10.0, 10.0 
2.405e+3, 1.75e+2, -1225000.0, -1225000.0, 0.0, 0.0, 0.0, -1225000.0, -1225000.0, 0.0, 10.0, 10.0 
2.405e+3, 1.85e+2, -1127000.0, -1127000.0, 0.0, 0.0, 0.0, -1127000.0, -1127000.0, 0.0, 10.0, 10.0 
2.405e+3, 1.95e+2, -1029000.0, -1029000.0, 0.0, 0.0, 0.0, -1029000.0, -1029000.0, 0.0, 10.0, 10.0 
2.405e+3, 2.05e+2, -931000.0, -931000.0, 0.0, 0.0, 0.0, -931000.0, -931000.0, 0.0, 10.0, 10.0 
2.405e+3, 2.15e+2, -833000.0, -833000.0, 0.0, 0.0, 0.0, -833000.0, -833000.0, 0.0, 10.0, 10.0 
2.405e+3, 2.25e+2, -735000.0, -735000.0, 0.0, 0.0, 0.0, -735000.0, -735000.0, 0.0, 10.0, 10.0 
2.405e+3, 2.35e+2, -637000.0, -637000.0, 0.0, 0.0, 0.0, -637000.0, -637000.0, 0.0, 10.0, 10.0 
2.405e+3, 2.45e+2, -539000.0, -539000.0, 0.0, 0.0, 0.0, -539000.0, -539000.0, 0.0, 10.0, 10.0 
2.405e+3, 2.55e+2, -441000.0, -441000.0, 0.0, 0.0, 0.0, -441000.0, -441000.0, 0.0, 10.0, 10.0 
2.405e+3, 2.65e+2, -343000.0, -343000.0, 0.0, 0.0, 0.0, -343000.0, -343000.0, 0.0, 10.0, 10.0 
2.405e+3, 2.75e+2, -245000.0, -245000.0, 0.0, 0.0, 0.0, -245000.0, -245000.0, 0.0, 10.0, 10.0 
2.405e+3, 2.85e+2, -147000.0, -147000.0, 0.0, 0.0, 0.0, -147000.0, -147000.0, 0.0, 10.0, 10.0 
2.405e+3, 2.95e+2, -49000.0, -49000.0, 0.0, 0.0, 0.0, -49000.0, -49000.0, 0.0, 10.0, 10.0 
2.405e+3, 3.05e+2, 0.0, 0.0, 0.0, 0.0, 0.0, 0.0, 0.0, 0.0, 10.0, 10.0 
2.405e+3, 3.15e+2, 0.0, 0.0, 0.0, 0.0, 0.0, 0.0, 0.0, 0.0, 10.0, 10.0 
2.415e+3, 1.25e+2, -1715000.0, -1715000.0, 0.0, 0.0, 0.0, -1715000.0, -1715000.0, 0.0, 10.0, 10.0 
2.415e+3, 1.35e+2, -1617000.0, -1617000.0, 0.0, 0.0, 0.0, -1617000.0, -1617000.0, 0.0, 10.0, 10.0 
2.415e+3, 1.45e+2, -1519000.0, -1519000.0, 0.0, 0.0, 0.0, -1519000.0, -1519000.0, 0.0, 10.0, 10.0 
2.415e+3, 1.55e+2, -1421000.0, -1421000.0, 0.0, 0.0, 0.0, -1421000.0, -1421000.0, 0.0, 10.0, 10.0 
2.415e+3, 1.65e+2, -1323000.0, -1323000.0, 0.0, 0.0, 0.0, -1323000.0, -1323000.0, 0.0, 10.0, 10.0 
2.415e+3, 1.75e+2, -1225000.0, -1225000.0, 0.0, 0.0, 0.0, -1225000.0, -1225000.0, 0.0, 10.0, 10.0 
2.415e+3, 1.85e+2, -1127000.0, -1127000.0, 0.0, 0.0, 0.0, -1127000.0, -1127000.0, 0.0, 10.0, 10.0 
2.415e+3, 1.95e+2, -1029000.0, -1029000.0, 0.0, 0.0, 0.0, -1029000.0, -1029000.0, 0.0, 10.0, 10.0 
2.415e+3, 2.05e+2, -931000.0, -931000.0, 0.0, 0.0, 0.0, -931000.0, -931000.0, 0.0, 10.0, 10.0 
2.415e+3, 2.15e+2, -833000.0, -833000.0, 0.0, 0.0, 0.0, -833000.0, -833000.0, 0.0, 10.0, 10.0 
2.415e+3, 2.25e+2, -735000.0, -735000.0, 0.0, 0.0, 0.0, -735000.0, -735000.0, 0.0, 10.0, 10.0 
2.415e+3, 2.35e+2, -637000.0, -637000.0, 0.0, 0.0, 0.0, -637000.0, -637000.0, 0.0, 10.0, 10.0 
2.415e+3, 2.45e+2, -539000.0, -539000.0, 0.0, 0.0, 0.0, -539000.0, -539000.0, 0.0, 10.0, 10.0 
2.415e+3, 2.55e+2, -441000.0, -441000.0, 0.0, 0.0, 0.0, -441000.0, -441000.0, 0.0, 10.0, 10.0 
2.415e+3, 2.65e+2, -343000.0, -343000.0, 0.0, 0.0, 0.0, -343000.0, -343000.0, 0.0, 10.0, 10.0 
2.415e+3, 2.75e+2, -245000.0, -245000.0, 0.0, 0.0, 0.0, -245000.0, -245000.0, 0.0, 10.0, 10.0 
2.415e+3, 2.85e+2, -147000.0, -147000.0, 0.0, 0.0, 0.0, -147000.0, -147000.0, 0.0, 10.0, 10.0 
2.415e+3, 2.95e+2, -49000.0, -49000.0, 0.0, 0.0, 0.0, -49000.0, -49000.0, 0.0, 10.0, 10.0 
2.415e+3, 3.05e+2, 0.0, 0.0, 0.0, 0.0, 0.0, 0.0, 0.0, 0.0, 10.0, 10.0 
2.415e+3, 3.15e+2, 0.0, 0.0, 0.0, 0.0, 0.0, 0.0, 0.0, 0.0, 10.0, 10.0 
2.425e+3, 1.25e+2, -1715000.0, -1715000.0, 0.0, 0.0, 0.0, -1715000.0, -1715000.0, 0.0, 10.0, 10.0 
2.425e+3, 1.35e+2, -1617000.0, -1617000.0, 0.0, 0.0, 0.0, -1617000.0, -1617000.0, 0.0, 10.0, 10.0 
2.425e+3, 1.45e+2, -1519000.0, -1519000.0, 0.0, 0.0, 0.0, -1519000.0, -1519000.0, 0.0, 10.0, 10.0 
2.425e+3, 1.55e+2, -1421000.0, -1421000.0, 0.0, 0.0, 0.0, -1421000.0, -1421000.0, 0.0, 10.0, 10.0 
2.425e+3, 1.65e+2, -1323000.0, -1323000.0, 0.0, 0.0, 0.0, -1323000.0, -1323000.0, 0.0, 10.0, 10.0 
2.425e+3, 1.75e+2, -1225000.0, -1225000.0, 0.0, 0.0, 0.0, -1225000.0, -1225000.0, 0.0, 10.0, 10.0 
2.425e+3, 1.85e+2, -1127000.0, -1127000.0, 0.0, 0.0, 0.0, -1127000.0, -1127000.0, 0.0, 10.0, 10.0 
2.425e+3, 1.95e+2, -1029000.0, -1029000.0, 0.0, 0.0, 0.0, -1029000.0, -1029000.0, 0.0, 10.0, 10.0 
2.425e+3, 2.05e+2, -931000.0, -931000.0, 0.0, 0.0, 0.0, -931000.0, -931000.0, 0.0, 10.0, 10.0 
2.425e+3, 2.15e+2, -833000.0, -833000.0, 0.0, 0.0, 0.0, -833000.0, -833000.0, 0.0, 10.0, 10.0 
2.425e+3, 2.25e+2, -735000.0, -735000.0, 0.0, 0.0, 0.0, -735000.0, -735000.0, 0.0, 10.0, 10.0 
2.425e+3, 2.35e+2, -637000.0, -637000.0, 0.0, 0.0, 0.0, -637000.0, -637000.0, 0.0, 10.0, 10.0 
2.425e+3, 2.45e+2, -539000.0, -539000.0, 0.0, 0.0, 0.0, -539000.0, -539000.0, 0.0, 10.0, 10.0 
2.425e+3, 2.55e+2, -441000.0, -441000.0, 0.0, 0.0, 0.0, -441000.0, -441000.0, 0.0, 10.0, 10.0 
2.425e+3, 2.65e+2, -343000.0, -343000.0, 0.0, 0.0, 0.0, -343000.0, -343000.0, 0.0, 10.0, 10.0 
2.425e+3, 2.75e+2, -245000.0, -245000.0, 0.0, 0.0, 0.0, -245000.0, -245000.0, 0.0, 10.0, 10.0 
2.425e+3, 2.85e+2, -147000.0, -147000.0, 0.0, 0.0, 0.0, -147000.0, -147000.0, 0.0, 10.0, 10.0 
2.425e+3, 2.95e+2, -49000.0, -49000.0, 0.0, 0.0, 0.0, -49000.0, -49000.0, 0.0, 10.0, 10.0 
2.425e+3, 3.05e+2, 0.0, 0.0, 0.0, 0.0, 0.0, 0.0, 0.0, 0.0, 10.0, 10.0 
2.425e+3, 3.15e+2, 0.0, 0.0, 0.0, 0.0, 0.0, 0.0, 0.0, 0.0, 10.0, 10.0 
2.435e+3, 1.25e+2, -1715000.0, -1715000.0, 0.0, 0.0, 0.0, -1715000.0, -1715000.0, 0.0, 10.0, 10.0 
2.435e+3, 1.35e+2, -1617000.0, -1617000.0, 0.0, 0.0, 0.0, -1617000.0, -1617000.0, 0.0, 10.0, 10.0 
2.435e+3, 1.45e+2, -1519000.0, -1519000.0, 0.0, 0.0, 0.0, -1519000.0, -1519000.0, 0.0, 10.0, 10.0 
2.435e+3, 1.55e+2, -1421000.0, -1421000.0, 0.0, 0.0, 0.0, -1421000.0, -1421000.0, 0.0, 10.0, 10.0 
2.435e+3, 1.65e+2, -1323000.0, -1323000.0, 0.0, 0.0, 0.0, -1323000.0, -1323000.0, 0.0, 10.0, 10.0 
2.435e+3, 1.75e+2, -1225000.0, -1225000.0, 0.0, 0.0, 0.0, -1225000.0, -1225000.0, 0.0, 10.0, 10.0 
2.435e+3, 1.85e+2, -1127000.0, -1127000.0, 0.0, 0.0, 0.0, -1127000.0, -1127000.0, 0.0, 10.0, 10.0 
2.435e+3, 1.95e+2, -1029000.0, -1029000.0, 0.0, 0.0, 0.0, -1029000.0, -1029000.0, 0.0, 10.0, 10.0 
2.435e+3, 2.05e+2, -931000.0, -931000.0, 0.0, 0.0, 0.0, -931000.0, -931000.0, 0.0, 10.0, 10.0 
2.435e+3, 2.15e+2, -833000.0, -833000.0, 0.0, 0.0, 0.0, -833000.0, -833000.0, 0.0, 10.0, 10.0 
2.435e+3, 2.25e+2, -735000.0, -735000.0, 0.0, 0.0, 0.0, -735000.0, -735000.0, 0.0, 10.0, 10.0 
2.435e+3, 2.35e+2, -637000.0, -637000.0, 0.0, 0.0, 0.0, -637000.0, -637000.0, 0.0, 10.0, 10.0 
2.435e+3, 2.45e+2, -539000.0, -539000.0, 0.0, 0.0, 0.0, -539000.0, -539000.0, 0.0, 10.0, 10.0 
2.435e+3, 2.55e+2, -441000.0, -441000.0, 0.0, 0.0, 0.0, -441000.0, -441000.0, 0.0, 10.0, 10.0 
2.435e+3, 2.65e+2, -343000.0, -343000.0, 0.0, 0.0, 0.0, -343000.0, -343000.0, 0.0, 10.0, 10.0 
2.435e+3, 2.75e+2, -245000.0, -245000.0, 0.0, 0.0, 0.0, -245000.0, -245000.0, 0.0, 10.0, 10.0 
2.435e+3, 2.85e+2, -147000.0, -147000.0, 0.0, 0.0, 0.0, -147000.0, -147000.0, 0.0, 10.0, 10.0 
2.435e+3, 2.95e+2, -49000.0, -49000.0, 0.0, 0.0, 0.0, -49000.0, -49000.0, 0.0, 10.0, 10.0 
2.435e+3, 3.05e+2, 0.0, 0.0, 0.0, 0.0, 0.0, 0.0, 0.0, 0.0, 10.0, 10.0 
2.435e+3, 3.15e+2, 0.0, 0.0, 0.0, 0.0, 0.0, 0.0, 0.0, 0.0, 10.0, 10.0 
2.445e+3, 1.25e+2, -1715000.0, -1715000.0, 0.0, 0.0, 0.0, -1715000.0, -1715000.0, 0.0, 10.0, 10.0 
2.445e+3, 1.35e+2, -1617000.0, -1617000.0, 0.0, 0.0, 0.0, -1617000.0, -1617000.0, 0.0, 10.0, 10.0 
2.445e+3, 1.45e+2, -1519000.0, -1519000.0, 0.0, 0.0, 0.0, -1519000.0, -1519000.0, 0.0, 10.0, 10.0 
2.445e+3, 1.55e+2, -1421000.0, -1421000.0, 0.0, 0.0, 0.0, -1421000.0, -1421000.0, 0.0, 10.0, 10.0 
2.445e+3, 1.65e+2, -1323000.0, -1323000.0, 0.0, 0.0, 0.0, -1323000.0, -1323000.0, 0.0, 10.0, 10.0 
2.445e+3, 1.75e+2, -1225000.0, -1225000.0, 0.0, 0.0, 0.0, -1225000.0, -1225000.0, 0.0, 10.0, 10.0 
2.445e+3, 1.85e+2, -1127000.0, -1127000.0, 0.0, 0.0, 0.0, -1127000.0, -1127000.0, 0.0, 10.0, 10.0 
2.445e+3, 1.95e+2, -1029000.0, -1029000.0, 0.0, 0.0, 0.0, -1029000.0, -1029000.0, 0.0, 10.0, 10.0 
2.445e+3, 2.05e+2, -931000.0, -931000.0, 0.0, 0.0, 0.0, -931000.0, -931000.0, 0.0, 10.0, 10.0 
2.445e+3, 2.15e+2, -833000.0, -833000.0, 0.0, 0.0, 0.0, -833000.0, -833000.0, 0.0, 10.0, 10.0 
2.445e+3, 2.25e+2, -735000.0, -735000.0, 0.0, 0.0, 0.0, -735000.0, -735000.0, 0.0, 10.0, 10.0 
2.445e+3, 2.35e+2, -637000.0, -637000.0, 0.0, 0.0, 0.0, -637000.0, -637000.0, 0.0, 10.0, 10.0 
2.445e+3, 2.45e+2, -539000.0, -539000.0, 0.0, 0.0, 0.0, -539000.0, -539000.0, 0.0, 10.0, 10.0 
2.445e+3, 2.55e+2, -441000.0, -441000.0, 0.0, 0.0, 0.0, -441000.0, -441000.0, 0.0, 10.0, 10.0 
2.445e+3, 2.65e+2, -343000.0, -343000.0, 0.0, 0.0, 0.0, -343000.0, -343000.0, 0.0, 10.0, 10.0 
2.445e+3, 2.75e+2, -245000.0, -245000.0, 0.0, 0.0, 0.0, -245000.0, -245000.0, 0.0, 10.0, 10.0 
2.445e+3, 2.85e+2, -147000.0, -147000.0, 0.0, 0.0, 0.0, -147000.0, -147000.0, 0.0, 10.0, 10.0 
2.445e+3, 2.95e+2, -49000.0, -49000.0, 0.0, 0.0, 0.0, -49000.0, -49000.0, 0.0, 10.0, 10.0 
2.445e+3, 3.05e+2, 0.0, 0.0, 0.0, 0.0, 0.0, 0.0, 0.0, 0.0, 10.0, 10.0 
2.445e+3, 3.15e+2, 0.0, 0.0, 0.0, 0.0, 0.0, 0.0, 0.0, 0.0, 10.0, 10.0 
2.455e+3, 1.25e+2, -1715000.0, -1715000.0, 0.0, 0.0, 0.0, -1715000.0, -1715000.0, 0.0, 10.0, 10.0 
2.455e+3, 1.35e+2, -1617000.0, -1617000.0, 0.0, 0.0, 0.0, -1617000.0, -1617000.0, 0.0, 10.0, 10.0 
2.455e+3, 1.45e+2, -1519000.0, -1519000.0, 0.0, 0.0, 0.0, -1519000.0, -1519000.0, 0.0, 10.0, 10.0 
2.455e+3, 1.55e+2, -1421000.0, -1421000.0, 0.0, 0.0, 0.0, -1421000.0, -1421000.0, 0.0, 10.0, 10.0 
2.455e+3, 1.65e+2, -1323000.0, -1323000.0, 0.0, 0.0, 0.0, -1323000.0, -1323000.0, 0.0, 10.0, 10.0 
2.455e+3, 1.75e+2, -1225000.0, -1225000.0, 0.0, 0.0, 0.0, -1225000.0, -1225000.0, 0.0, 10.0, 10.0 
2.455e+3, 1.85e+2, -1127000.0, -1127000.0, 0.0, 0.0, 0.0, -1127000.0, -1127000.0, 0.0, 10.0, 10.0 
2.455e+3, 1.95e+2, -1029000.0, -1029000.0, 0.0, 0.0, 0.0, -1029000.0, -1029000.0, 0.0, 10.0, 10.0 
2.455e+3, 2.05e+2, -931000.0, -931000.0, 0.0, 0.0, 0.0, -931000.0, -931000.0, 0.0, 10.0, 10.0 
2.455e+3, 2.15e+2, -833000.0, -833000.0, 0.0, 0.0, 0.0, -833000.0, -833000.0, 0.0, 10.0, 10.0 
2.455e+3, 2.25e+2, -735000.0, -735000.0, 0.0, 0.0, 0.0, -735000.0, -735000.0, 0.0, 10.0, 10.0 
2.455e+3, 2.35e+2, -637000.0, -637000.0, 0.0, 0.0, 0.0, -637000.0, -637000.0, 0.0, 10.0, 10.0 
2.455e+3, 2.45e+2, -539000.0, -539000.0, 0.0, 0.0, 0.0, -539000.0, -539000.0, 0.0, 10.0, 10.0 
2.455e+3, 2.55e+2, -441000.0, -441000.0, 0.0, 0.0, 0.0, -441000.0, -441000.0, 0.0, 10.0, 10.0 
2.455e+3, 2.65e+2, -343000.0, -343000.0, 0.0, 0.0, 0.0, -343000.0, -343000.0, 0.0, 10.0, 10.0 
2.455e+3, 2.75e+2, -245000.0, -245000.0, 0.0, 0.0, 0.0, -245000.0, -245000.0, 0.0, 10.0, 10.0 
2.455e+3, 2.85e+2, -147000.0, -147000.0, 0.0, 0.0, 0.0, -147000.0, -147000.0, 0.0, 10.0, 10.0 
2.455e+3, 2.95e+2, -49000.0, -49000.0, 0.0, 0.0, 0.0, -49000.0, -49000.0, 0.0, 10.0, 10.0 
2.455e+3, 3.05e+2, 0.0, 0.0, 0.0, 0.0, 0.0, 0.0, 0.0, 0.0, 10.0, 10.0 
2.455e+3, 3.15e+2, 0.0, 0.0, 0.0, 0.0, 0.0, 0.0, 0.0, 0.0, 10.0, 10.0 
2.465e+3, 1.25e+2, -1715000.0, -1715000.0, 0.0, 0.0, 0.0, -1715000.0, -1715000.0, 0.0, 10.0, 10.0 
2.465e+3, 1.35e+2, -1617000.0, -1617000.0, 0.0, 0.0, 0.0, -1617000.0, -1617000.0, 0.0, 10.0, 10.0 
2.465e+3, 1.45e+2, -1519000.0, -1519000.0, 0.0, 0.0, 0.0, -1519000.0, -1519000.0, 0.0, 10.0, 10.0 
2.465e+3, 1.55e+2, -1421000.0, -1421000.0, 0.0, 0.0, 0.0, -1421000.0, -1421000.0, 0.0, 10.0, 10.0 
2.465e+3, 1.65e+2, -1323000.0, -1323000.0, 0.0, 0.0, 0.0, -1323000.0, -1323000.0, 0.0, 10.0, 10.0 
2.465e+3, 1.75e+2, -1225000.0, -1225000.0, 0.0, 0.0, 0.0, -1225000.0, -1225000.0, 0.0, 10.0, 10.0 
2.465e+3, 1.85e+2, -1127000.0, -1127000.0, 0.0, 0.0, 0.0, -1127000.0, -1127000.0, 0.0, 10.0, 10.0 
2.465e+3, 1.95e+2, -1029000.0, -1029000.0, 0.0, 0.0, 0.0, -1029000.0, -1029000.0, 0.0, 10.0, 10.0 
2.465e+3, 2.05e+2, -931000.0, -931000.0, 0.0, 0.0, 0.0, -931000.0, -931000.0, 0.0, 10.0, 10.0 
2.465e+3, 2.15e+2, -833000.0, -833000.0, 0.0, 0.0, 0.0, -833000.0, -833000.0, 0.0, 10.0, 10.0 
2.465e+3, 2.25e+2, -735000.0, -735000.0, 0.0, 0.0, 0.0, -735000.0, -735000.0, 0.0, 10.0, 10.0 
2.465e+3, 2.35e+2, -637000.0, -637000.0, 0.0, 0.0, 0.0, -637000.0, -637000.0, 0.0, 10.0, 10.0 
2.465e+3, 2.45e+2, -539000.0, -539000.0, 0.0, 0.0, 0.0, -539000.0, -539000.0, 0.0, 10.0, 10.0 
2.465e+3, 2.55e+2, -441000.0, -441000.0, 0.0, 0.0, 0.0, -441000.0, -441000.0, 0.0, 10.0, 10.0 
2.465e+3, 2.65e+2, -343000.0, -343000.0, 0.0, 0.0, 0.0, -343000.0, -343000.0, 0.0, 10.0, 10.0 
2.465e+3, 2.75e+2, -245000.0, -245000.0, 0.0, 0.0, 0.0, -245000.0, -245000.0, 0.0, 10.0, 10.0 
2.465e+3, 2.85e+2, -147000.0, -147000.0, 0.0, 0.0, 0.0, -147000.0, -147000.0, 0.0, 10.0, 10.0 
2.465e+3, 2.95e+2, -49000.0, -49000.0, 0.0, 0.0, 0.0, -49000.0, -49000.0, 0.0, 10.0, 10.0 
2.465e+3, 3.05e+2, 0.0, 0.0, 0.0, 0.0, 0.0, 0.0, 0.0, 0.0, 10.0, 10.0 
2.465e+3, 3.15e+2, 0.0, 0.0, 0.0, 0.0, 0.0, 0.0, 0.0, 0.0, 10.0, 10.0 
2.475e+3, 1.25e+2, -1715000.0, -1715000.0, 0.0, 0.0, 0.0, -1715000.0, -1715000.0, 0.0, 10.0, 10.0 
2.475e+3, 1.35e+2, -1617000.0, -1617000.0, 0.0, 0.0, 0.0, -1617000.0, -1617000.0, 0.0, 10.0, 10.0 
2.475e+3, 1.45e+2, -1519000.0, -1519000.0, 0.0, 0.0, 0.0, -1519000.0, -1519000.0, 0.0, 10.0, 10.0 
2.475e+3, 1.55e+2, -1421000.0, -1421000.0, 0.0, 0.0, 0.0, -1421000.0, -1421000.0, 0.0, 10.0, 10.0 
2.475e+3, 1.65e+2, -1323000.0, -1323000.0, 0.0, 0.0, 0.0, -1323000.0, -1323000.0, 0.0, 10.0, 10.0 
2.475e+3, 1.75e+2, -1225000.0, -1225000.0, 0.0, 0.0, 0.0, -1225000.0, -1225000.0, 0.0, 10.0, 10.0 
2.475e+3, 1.85e+2, -1127000.0, -1127000.0, 0.0, 0.0, 0.0, -1127000.0, -1127000.0, 0.0, 10.0, 10.0 
2.475e+3, 1.95e+2, -1029000.0, -1029000.0, 0.0, 0.0, 0.0, -1029000.0, -1029000.0, 0.0, 10.0, 10.0 
2.475e+3, 2.05e+2, -931000.0, -931000.0, 0.0, 0.0, 0.0, -931000.0, -931000.0, 0.0, 10.0, 10.0 
2.475e+3, 2.15e+2, -833000.0, -833000.0, 0.0, 0.0, 0.0, -833000.0, -833000.0, 0.0, 10.0, 10.0 
2.475e+3, 2.25e+2, -735000.0, -735000.0, 0.0, 0.0, 0.0, -735000.0, -735000.0, 0.0, 10.0, 10.0 
2.475e+3, 2.35e+2, -637000.0, -637000.0, 0.0, 0.0, 0.0, -637000.0, -637000.0, 0.0, 10.0, 10.0 
2.475e+3, 2.45e+2, -539000.0, -539000.0, 0.0, 0.0, 0.0, -539000.0, -539000.0, 0.0, 10.0, 10.0 
2.475e+3, 2.55e+2, -441000.0, -441000.0, 0.0, 0.0, 0.0, -441000.0, -441000.0, 0.0, 10.0, 10.0 
2.475e+3, 2.65e+2, -343000.0, -343000.0, 0.0, 0.0, 0.0, -343000.0, -343000.0, 0.0, 10.0, 10.0 
2.475e+3, 2.75e+2, -245000.0, -245000.0, 0.0, 0.0, 0.0, -245000.0, -245000.0, 0.0, 10.0, 10.0 
2.475e+3, 2.85e+2, -147000.0, -147000.0, 0.0, 0.0, 0.0, -147000.0, -147000.0, 0.0, 10.0, 10.0 
2.475e+3, 2.95e+2, -49000.0, -49000.0, 0.0, 0.0, 0.0, -49000.0, -49000.0, 0.0, 10.0, 10.0 
2.475e+3, 3.05e+2, 0.0, 0.0, 0.0, 0.0, 0.0, 0.0, 0.0, 0.0, 10.0, 10.0 
2.475e+3, 3.15e+2, 0.0, 0.0, 0.0, 0.0, 0.0, 0.0, 0.0, 0.0, 10.0, 10.0 
2.485e+3, 1.25e+2, -1715000.0, -1715000.0, 0.0, 0.0, 0.0, -1715000.0, -1715000.0, 0.0, 10.0, 10.0 
2.485e+3, 1.35e+2, -1617000.0, -1617000.0, 0.0, 0.0, 0.0, -1617000.0, -1617000.0, 0.0, 10.0, 10.0 
2.485e+3, 1.45e+2, -1519000.0, -1519000.0, 0.0, 0.0, 0.0, -1519000.0, -1519000.0, 0.0, 10.0, 10.0 
2.485e+3, 1.55e+2, -1421000.0, -1421000.0, 0.0, 0.0, 0.0, -1421000.0, -1421000.0, 0.0, 10.0, 10.0 
2.485e+3, 1.65e+2, -1323000.0, -1323000.0, 0.0, 0.0, 0.0, -1323000.0, -1323000.0, 0.0, 10.0, 10.0 
2.485e+3, 1.75e+2, -1225000.0, -1225000.0, 0.0, 0.0, 0.0, -1225000.0, -1225000.0, 0.0, 10.0, 10.0 
2.485e+3, 1.85e+2, -1127000.0, -1127000.0, 0.0, 0.0, 0.0, -1127000.0, -1127000.0, 0.0, 10.0, 10.0 
2.485e+3, 1.95e+2, -1029000.0, -1029000.0, 0.0, 0.0, 0.0, -1029000.0, -1029000.0, 0.0, 10.0, 10.0 
2.485e+3, 2.05e+2, -931000.0, -931000.0, 0.0, 0.0, 0.0, -931000.0, -931000.0, 0.0, 10.0, 10.0 
2.485e+3, 2.15e+2, -833000.0, -833000.0, 0.0, 0.0, 0.0, -833000.0, -833000.0, 0.0, 10.0, 10.0 
2.485e+3, 2.25e+2, -735000.0, -735000.0, 0.0, 0.0, 0.0, -735000.0, -735000.0, 0.0, 10.0, 10.0 
2.485e+3, 2.35e+2, -637000.0, -637000.0, 0.0, 0.0, 0.0, -637000.0, -637000.0, 0.0, 10.0, 10.0 
2.485e+3, 2.45e+2, -539000.0, -539000.0, 0.0, 0.0, 0.0, -539000.0, -539000.0, 0.0, 10.0, 10.0 
2.485e+3, 2.55e+2, -441000.0, -441000.0, 0.0, 0.0, 0.0, -441000.0, -441000.0, 0.0, 10.0, 10.0 
2.485e+3, 2.65e+2, -343000.0, -343000.0, 0.0, 0.0, 0.0, -343000.0, -343000.0, 0.0, 10.0, 10.0 
2.485e+3, 2.75e+2, -245000.0, -245000.0, 0.0, 0.0, 0.0, -245000.0, -245000.0, 0.0, 10.0, 10.0 
2.485e+3, 2.85e+2, -147000.0, -147000.0, 0.0, 0.0, 0.0, -147000.0, -147000.0, 0.0, 10.0, 10.0 
2.485e+3, 2.95e+2, -49000.0, -49000.0, 0.0, 0.0, 0.0, -49000.0, -49000.0, 0.0, 10.0, 10.0 
2.485e+3, 3.05e+2, 0.0, 0.0, 0.0, 0.0, 0.0, 0.0, 0.0, 0.0, 10.0, 10.0 
2.485e+3, 3.15e+2, 0.0, 0.0, 0.0, 0.0, 0.0, 0.0, 0.0, 0.0, 10.0, 10.0 
2.495e+3, 1.25e+2, -1715000.0, -1715000.0, 0.0, 0.0, 0.0, -1715000.0, -1715000.0, 0.0, 10.0, 10.0 
2.495e+3, 1.35e+2, -1617000.0, -1617000.0, 0.0, 0.0, 0.0, -1617000.0, -1617000.0, 0.0, 10.0, 10.0 
2.495e+3, 1.45e+2, -1519000.0, -1519000.0, 0.0, 0.0, 0.0, -1519000.0, -1519000.0, 0.0, 10.0, 10.0 
2.495e+3, 1.55e+2, -1421000.0, -1421000.0, 0.0, 0.0, 0.0, -1421000.0, -1421000.0, 0.0, 10.0, 10.0 
2.495e+3, 1.65e+2, -1323000.0, -1323000.0, 0.0, 0.0, 0.0, -1323000.0, -1323000.0, 0.0, 10.0, 10.0 
2.495e+3, 1.75e+2, -1225000.0, -1225000.0, 0.0, 0.0, 0.0, -1225000.0, -1225000.0, 0.0, 10.0, 10.0 
2.495e+3, 1.85e+2, -1127000.0, -1127000.0, 0.0, 0.0, 0.0, -1127000.0, -1127000.0, 0.0, 10.0, 10.0 
2.495e+3, 1.95e+2, -1029000.0, -1029000.0, 0.0, 0.0, 0.0, -1029000.0, -1029000.0, 0.0, 10.0, 10.0 
2.495e+3, 2.05e+2, -931000.0, -931000.0, 0.0, 0.0, 0.0, -931000.0, -931000.0, 0.0, 10.0, 10.0 
2.495e+3, 2.15e+2, -833000.0, -833000.0, 0.0, 0.0, 0.0, -833000.0, -833000.0, 0.0, 10.0, 10.0 
2.495e+3, 2.25e+2, -735000.0, -735000.0, 0.0, 0.0, 0.0, -735000.0, -735000.0, 0.0, 10.0, 10.0 
2.495e+3, 2.35e+2, -637000.0, -637000.0, 0.0, 0.0, 0.0, -637000.0, -637000.0, 0.0, 10.0, 10.0 
2.495e+3, 2.45e+2, -539000.0, -539000.0, 0.0, 0.0, 0.0, -539000.0, -539000.0, 0.0, 10.0, 10.0 
2.495e+3, 2.55e+2, -441000.0, -441000.0, 0.0, 0.0, 0.0, -441000.0, -441000.0, 0.0, 10.0, 10.0 
2.495e+3, 2.65e+2, -343000.0, -343000.0, 0.0, 0.0, 0.0, -343000.0, -343000.0, 0.0, 10.0, 10.0 
2.495e+3, 2.75e+2, -245000.0, -245000.0, 0.0, 0.0, 0.0, -245000.0, -245000.0, 0.0, 10.0, 10.0 
2.495e+3, 2.85e+2, -147000.0, -147000.0, 0.0, 0.0, 0.0, -147000.0, -147000.0, 0.0, 10.0, 10.0 
2.495e+3, 2.95e+2, -49000.0, -49000.0, 0.0, 0.0, 0.0, -49000.0, -49000.0, 0.0, 10.0, 10.0 
2.495e+3, 3.05e+2, 0.0, 0.0, 0.0, 0.0, 0.0, 0.0, 0.0, 0.0, 10.0, 10.0 
2.495e+3, 3.15e+2, 0.0, 0.0, 0.0, 0.0, 0.0, 0.0, 0.0, 0.0, 10.0, 10.0 
2.505e+3, 1.25e+2, -1715000.0, -1715000.0, 0.0, 0.0, 0.0, -1715000.0, -1715000.0, 0.0, 10.0, 10.0 
2.505e+3, 1.35e+2, -1617000.0, -1617000.0, 0.0, 0.0, 0.0, -1617000.0, -1617000.0, 0.0, 10.0, 10.0 
2.505e+3, 1.45e+2, -1519000.0, -1519000.0, 0.0, 0.0, 0.0, -1519000.0, -1519000.0, 0.0, 10.0, 10.0 
2.505e+3, 1.55e+2, -1421000.0, -1421000.0, 0.0, 0.0, 0.0, -1421000.0, -1421000.0, 0.0, 10.0, 10.0 
2.505e+3, 1.65e+2, -1323000.0, -1323000.0, 0.0, 0.0, 0.0, -1323000.0, -1323000.0, 0.0, 10.0, 10.0 
2.505e+3, 1.75e+2, -1225000.0, -1225000.0, 0.0, 0.0, 0.0, -1225000.0, -1225000.0, 0.0, 10.0, 10.0 
2.505e+3, 1.85e+2, -1127000.0, -1127000.0, 0.0, 0.0, 0.0, -1127000.0, -1127000.0, 0.0, 10.0, 10.0 
2.505e+3, 1.95e+2, -1029000.0, -1029000.0, 0.0, 0.0, 0.0, -1029000.0, -1029000.0, 0.0, 10.0, 10.0 
2.505e+3, 2.05e+2, -931000.0, -931000.0, 0.0, 0.0, 0.0, -931000.0, -931000.0, 0.0, 10.0, 10.0 
2.505e+3, 2.15e+2, -833000.0, -833000.0, 0.0, 0.0, 0.0, -833000.0, -833000.0, 0.0, 10.0, 10.0 
2.505e+3, 2.25e+2, -735000.0, -735000.0, 0.0, 0.0, 0.0, -735000.0, -735000.0, 0.0, 10.0, 10.0 
2.505e+3, 2.35e+2, -637000.0, -637000.0, 0.0, 0.0, 0.0, -637000.0, -637000.0, 0.0, 10.0, 10.0 
2.505e+3, 2.45e+2, -539000.0, -539000.0, 0.0, 0.0, 0.0, -539000.0, -539000.0, 0.0, 10.0, 10.0 
2.505e+3, 2.55e+2, -441000.0, -441000.0, 0.0, 0.0, 0.0, -441000.0, -441000.0, 0.0, 10.0, 10.0 
2.505e+3, 2.65e+2, -343000.0, -343000.0, 0.0, 0.0, 0.0, -343000.0, -343000.0, 0.0, 10.0, 10.0 
2.505e+3, 2.75e+2, -245000.0, -245000.0, 0.0, 0.0, 0.0, -245000.0, -245000.0, 0.0, 10.0, 10.0 
2.505e+3, 2.85e+2, -147000.0, -147000.0, 0.0, 0.0, 0.0, -147000.0, -147000.0, 0.0, 10.0, 10.0 
2.505e+3, 2.95e+2, -49000.0, -49000.0, 0.0, 0.0, 0.0, -49000.0, -49000.0, 0.0, 10.0, 10.0 
2.505e+3, 3.05e+2, 0.0, 0.0, 0.0, 0.0, 0.0, 0.0, 0.0, 0.0, 10.0, 10.0 
2.505e+3, 3.15e+2, 0.0, 0.0, 0.0, 0.0, 0.0, 0.0, 0.0, 0.0, 10.0, 10.0 
2.515e+3, 1.25e+2, -1715000.0, -1715000.0, 0.0, 0.0, 0.0, -1715000.0, -1715000.0, 0.0, 10.0, 10.0 
2.515e+3, 1.35e+2, -1617000.0, -1617000.0, 0.0, 0.0, 0.0, -1617000.0, -1617000.0, 0.0, 10.0, 10.0 
2.515e+3, 1.45e+2, -1519000.0, -1519000.0, 0.0, 0.0, 0.0, -1519000.0, -1519000.0, 0.0, 10.0, 10.0 
2.515e+3, 1.55e+2, -1421000.0, -1421000.0, 0.0, 0.0, 0.0, -1421000.0, -1421000.0, 0.0, 10.0, 10.0 
2.515e+3, 1.65e+2, -1323000.0, -1323000.0, 0.0, 0.0, 0.0, -1323000.0, -1323000.0, 0.0, 10.0, 10.0 
2.515e+3, 1.75e+2, -1225000.0, -1225000.0, 0.0, 0.0, 0.0, -1225000.0, -1225000.0, 0.0, 10.0, 10.0 
2.515e+3, 1.85e+2, -1127000.0, -1127000.0, 0.0, 0.0, 0.0, -1127000.0, -1127000.0, 0.0, 10.0, 10.0 
2.515e+3, 1.95e+2, -1029000.0, -1029000.0, 0.0, 0.0, 0.0, -1029000.0, -1029000.0, 0.0, 10.0, 10.0 
2.515e+3, 2.05e+2, -931000.0, -931000.0, 0.0, 0.0, 0.0, -931000.0, -931000.0, 0.0, 10.0, 10.0 
2.515e+3, 2.15e+2, -833000.0, -833000.0, 0.0, 0.0, 0.0, -833000.0, -833000.0, 0.0, 10.0, 10.0 
2.515e+3, 2.25e+2, -735000.0, -735000.0, 0.0, 0.0, 0.0, -735000.0, -735000.0, 0.0, 10.0, 10.0 
2.515e+3, 2.35e+2, -637000.0, -637000.0, 0.0, 0.0, 0.0, -637000.0, -637000.0, 0.0, 10.0, 10.0 
2.515e+3, 2.45e+2, -539000.0, -539000.0, 0.0, 0.0, 0.0, -539000.0, -539000.0, 0.0, 10.0, 10.0 
2.515e+3, 2.55e+2, -441000.0, -441000.0, 0.0, 0.0, 0.0, -441000.0, -441000.0, 0.0, 10.0, 10.0 
2.515e+3, 2.65e+2, -343000.0, -343000.0, 0.0, 0.0, 0.0, -343000.0, -343000.0, 0.0, 10.0, 10.0 
2.515e+3, 2.75e+2, -245000.0, -245000.0, 0.0, 0.0, 0.0, -245000.0, -245000.0, 0.0, 10.0, 10.0 
2.515e+3, 2.85e+2, -147000.0, -147000.0, 0.0, 0.0, 0.0, -147000.0, -147000.0, 0.0, 10.0, 10.0 
2.515e+3, 2.95e+2, -49000.0, -49000.0, 0.0, 0.0, 0.0, -49000.0, -49000.0, 0.0, 10.0, 10.0 
2.515e+3, 3.05e+2, 0.0, 0.0, 0.0, 0.0, 0.0, 0.0, 0.0, 0.0, 10.0, 10.0 
2.515e+3, 3.15e+2, 0.0, 0.0, 0.0, 0.0, 0.0, 0.0, 0.0, 0.0, 10.0, 10.0 
2.525e+3, 1.25e+2, -1715000.0, -1715000.0, 0.0, 0.0, 0.0, -1715000.0, -1715000.0, 0.0, 10.0, 10.0 
2.525e+3, 1.35e+2, -1617000.0, -1617000.0, 0.0, 0.0, 0.0, -1617000.0, -1617000.0, 0.0, 10.0, 10.0 
2.525e+3, 1.45e+2, -1519000.0, -1519000.0, 0.0, 0.0, 0.0, -1519000.0, -1519000.0, 0.0, 10.0, 10.0 
2.525e+3, 1.55e+2, -1421000.0, -1421000.0, 0.0, 0.0, 0.0, -1421000.0, -1421000.0, 0.0, 10.0, 10.0 
2.525e+3, 1.65e+2, -1323000.0, -1323000.0, 0.0, 0.0, 0.0, -1323000.0, -1323000.0, 0.0, 10.0, 10.0 
2.525e+3, 1.75e+2, -1225000.0, -1225000.0, 0.0, 0.0, 0.0, -1225000.0, -1225000.0, 0.0, 10.0, 10.0 
2.525e+3, 1.85e+2, -1127000.0, -1127000.0, 0.0, 0.0, 0.0, -1127000.0, -1127000.0, 0.0, 10.0, 10.0 
2.525e+3, 1.95e+2, -1029000.0, -1029000.0, 0.0, 0.0, 0.0, -1029000.0, -1029000.0, 0.0, 10.0, 10.0 
2.525e+3, 2.05e+2, -931000.0, -931000.0, 0.0, 0.0, 0.0, -931000.0, -931000.0, 0.0, 10.0, 10.0 
2.525e+3, 2.15e+2, -833000.0, -833000.0, 0.0, 0.0, 0.0, -833000.0, -833000.0, 0.0, 10.0, 10.0 
2.525e+3, 2.25e+2, -735000.0, -735000.0, 0.0, 0.0, 0.0, -735000.0, -735000.0, 0.0, 10.0, 10.0 
2.525e+3, 2.35e+2, -637000.0, -637000.0, 0.0, 0.0, 0.0, -637000.0, -637000.0, 0.0, 10.0, 10.0 
2.525e+3, 2.45e+2, -539000.0, -539000.0, 0.0, 0.0, 0.0, -539000.0, -539000.0, 0.0, 10.0, 10.0 
2.525e+3, 2.55e+2, -441000.0, -441000.0, 0.0, 0.0, 0.0, -441000.0, -441000.0, 0.0, 10.0, 10.0 
2.525e+3, 2.65e+2, -343000.0, -343000.0, 0.0, 0.0, 0.0, -343000.0, -343000.0, 0.0, 10.0, 10.0 
2.525e+3, 2.75e+2, -245000.0, -245000.0, 0.0, 0.0, 0.0, -245000.0, -245000.0, 0.0, 10.0, 10.0 
2.525e+3, 2.85e+2, -147000.0, -147000.0, 0.0, 0.0, 0.0, -147000.0, -147000.0, 0.0, 10.0, 10.0 
2.525e+3, 2.95e+2, -49000.0, -49000.0, 0.0, 0.0, 0.0, -49000.0, -49000.0, 0.0, 10.0, 10.0 
2.525e+3, 3.05e+2, 0.0, 0.0, 0.0, 0.0, 0.0, 0.0, 0.0, 0.0, 10.0, 10.0 
2.525e+3, 3.15e+2, 0.0, 0.0, 0.0, 0.0, 0.0, 0.0, 0.0, 0.0, 10.0, 10.0 
2.535e+3, 1.25e+2, -1715000.0, -1715000.0, 0.0, 0.0, 0.0, -1715000.0, -1715000.0, 0.0, 10.0, 10.0 
2.535e+3, 1.35e+2, -1617000.0, -1617000.0, 0.0, 0.0, 0.0, -1617000.0, -1617000.0, 0.0, 10.0, 10.0 
2.535e+3, 1.45e+2, -1519000.0, -1519000.0, 0.0, 0.0, 0.0, -1519000.0, -1519000.0, 0.0, 10.0, 10.0 
2.535e+3, 1.55e+2, -1421000.0, -1421000.0, 0.0, 0.0, 0.0, -1421000.0, -1421000.0, 0.0, 10.0, 10.0 
2.535e+3, 1.65e+2, -1323000.0, -1323000.0, 0.0, 0.0, 0.0, -1323000.0, -1323000.0, 0.0, 10.0, 10.0 
2.535e+3, 1.75e+2, -1225000.0, -1225000.0, 0.0, 0.0, 0.0, -1225000.0, -1225000.0, 0.0, 10.0, 10.0 
2.535e+3, 1.85e+2, -1127000.0, -1127000.0, 0.0, 0.0, 0.0, -1127000.0, -1127000.0, 0.0, 10.0, 10.0 
2.535e+3, 1.95e+2, -1029000.0, -1029000.0, 0.0, 0.0, 0.0, -1029000.0, -1029000.0, 0.0, 10.0, 10.0 
2.535e+3, 2.05e+2, -931000.0, -931000.0, 0.0, 0.0, 0.0, -931000.0, -931000.0, 0.0, 10.0, 10.0 
2.535e+3, 2.15e+2, -833000.0, -833000.0, 0.0, 0.0, 0.0, -833000.0, -833000.0, 0.0, 10.0, 10.0 
2.535e+3, 2.25e+2, -735000.0, -735000.0, 0.0, 0.0, 0.0, -735000.0, -735000.0, 0.0, 10.0, 10.0 
2.535e+3, 2.35e+2, -637000.0, -637000.0, 0.0, 0.0, 0.0, -637000.0, -637000.0, 0.0, 10.0, 10.0 
2.535e+3, 2.45e+2, -539000.0, -539000.0, 0.0, 0.0, 0.0, -539000.0, -539000.0, 0.0, 10.0, 10.0 
2.535e+3, 2.55e+2, -441000.0, -441000.0, 0.0, 0.0, 0.0, -441000.0, -441000.0, 0.0, 10.0, 10.0 
2.535e+3, 2.65e+2, -343000.0, -343000.0, 0.0, 0.0, 0.0, -343000.0, -343000.0, 0.0, 10.0, 10.0 
2.535e+3, 2.75e+2, -245000.0, -245000.0, 0.0, 0.0, 0.0, -245000.0, -245000.0, 0.0, 10.0, 10.0 
2.535e+3, 2.85e+2, -147000.0, -147000.0, 0.0, 0.0, 0.0, -147000.0, -147000.0, 0.0, 10.0, 10.0 
2.535e+3, 2.95e+2, -49000.0, -49000.0, 0.0, 0.0, 0.0, -49000.0, -49000.0, 0.0, 10.0, 10.0 
2.535e+3, 3.05e+2, 0.0, 0.0, 0.0, 0.0, 0.0, 0.0, 0.0, 0.0, 10.0, 10.0 
2.535e+3, 3.15e+2, 0.0, 0.0, 0.0, 0.0, 0.0, 0.0, 0.0, 0.0, 10.0, 10.0 
2.545e+3, 1.25e+2, -1715000.0, -1715000.0, 0.0, 0.0, 0.0, -1715000.0, -1715000.0, 0.0, 10.0, 10.0 
2.545e+3, 1.35e+2, -1617000.0, -1617000.0, 0.0, 0.0, 0.0, -1617000.0, -1617000.0, 0.0, 10.0, 10.0 
2.545e+3, 1.45e+2, -1519000.0, -1519000.0, 0.0, 0.0, 0.0, -1519000.0, -1519000.0, 0.0, 10.0, 10.0 
2.545e+3, 1.55e+2, -1421000.0, -1421000.0, 0.0, 0.0, 0.0, -1421000.0, -1421000.0, 0.0, 10.0, 10.0 
2.545e+3, 1.65e+2, -1323000.0, -1323000.0, 0.0, 0.0, 0.0, -1323000.0, -1323000.0, 0.0, 10.0, 10.0 
2.545e+3, 1.75e+2, -1225000.0, -1225000.0, 0.0, 0.0, 0.0, -1225000.0, -1225000.0, 0.0, 10.0, 10.0 
2.545e+3, 1.85e+2, -1127000.0, -1127000.0, 0.0, 0.0, 0.0, -1127000.0, -1127000.0, 0.0, 10.0, 10.0 
2.545e+3, 1.95e+2, -1029000.0, -1029000.0, 0.0, 0.0, 0.0, -1029000.0, -1029000.0, 0.0, 10.0, 10.0 
2.545e+3, 2.05e+2, -931000.0, -931000.0, 0.0, 0.0, 0.0, -931000.0, -931000.0, 0.0, 10.0, 10.0 
2.545e+3, 2.15e+2, -833000.0, -833000.0, 0.0, 0.0, 0.0, -833000.0, -833000.0, 0.0, 10.0, 10.0 
2.545e+3, 2.25e+2, -735000.0, -735000.0, 0.0, 0.0, 0.0, -735000.0, -735000.0, 0.0, 10.0, 10.0 
2.545e+3, 2.35e+2, -637000.0, -637000.0, 0.0, 0.0, 0.0, -637000.0, -637000.0, 0.0, 10.0, 10.0 
2.545e+3, 2.45e+2, -539000.0, -539000.0, 0.0, 0.0, 0.0, -539000.0, -539000.0, 0.0, 10.0, 10.0 
2.545e+3, 2.55e+2, -441000.0, -441000.0, 0.0, 0.0, 0.0, -441000.0, -441000.0, 0.0, 10.0, 10.0 
2.545e+3, 2.65e+2, -343000.0, -343000.0, 0.0, 0.0, 0.0, -343000.0, -343000.0, 0.0, 10.0, 10.0 
2.545e+3, 2.75e+2, -245000.0, -245000.0, 0.0, 0.0, 0.0, -245000.0, -245000.0, 0.0, 10.0, 10.0 
2.545e+3, 2.85e+2, -147000.0, -147000.0, 0.0, 0.0, 0.0, -147000.0, -147000.0, 0.0, 10.0, 10.0 
2.545e+3, 2.95e+2, -49000.0, -49000.0, 0.0, 0.0, 0.0, -49000.0, -49000.0, 0.0, 10.0, 10.0 
2.545e+3, 3.05e+2, 0.0, 0.0, 0.0, 0.0, 0.0, 0.0, 0.0, 0.0, 10.0, 10.0 
2.545e+3, 3.15e+2, 0.0, 0.0, 0.0, 0.0, 0.0, 0.0, 0.0, 0.0, 10.0, 10.0 
2.555e+3, 1.25e+2, -1715000.0, -1715000.0, 0.0, 0.0, 0.0, -1715000.0, -1715000.0, 0.0, 10.0, 10.0 
2.555e+3, 1.35e+2, -1617000.0, -1617000.0, 0.0, 0.0, 0.0, -1617000.0, -1617000.0, 0.0, 10.0, 10.0 
2.555e+3, 1.45e+2, -1519000.0, -1519000.0, 0.0, 0.0, 0.0, -1519000.0, -1519000.0, 0.0, 10.0, 10.0 
2.555e+3, 1.55e+2, -1421000.0, -1421000.0, 0.0, 0.0, 0.0, -1421000.0, -1421000.0, 0.0, 10.0, 10.0 
2.555e+3, 1.65e+2, -1323000.0, -1323000.0, 0.0, 0.0, 0.0, -1323000.0, -1323000.0, 0.0, 10.0, 10.0 
2.555e+3, 1.75e+2, -1225000.0, -1225000.0, 0.0, 0.0, 0.0, -1225000.0, -1225000.0, 0.0, 10.0, 10.0 
2.555e+3, 1.85e+2, -1127000.0, -1127000.0, 0.0, 0.0, 0.0, -1127000.0, -1127000.0, 0.0, 10.0, 10.0 
2.555e+3, 1.95e+2, -1029000.0, -1029000.0, 0.0, 0.0, 0.0, -1029000.0, -1029000.0, 0.0, 10.0, 10.0 
2.555e+3, 2.05e+2, -931000.0, -931000.0, 0.0, 0.0, 0.0, -931000.0, -931000.0, 0.0, 10.0, 10.0 
2.555e+3, 2.15e+2, -833000.0, -833000.0, 0.0, 0.0, 0.0, -833000.0, -833000.0, 0.0, 10.0, 10.0 
2.555e+3, 2.25e+2, -735000.0, -735000.0, 0.0, 0.0, 0.0, -735000.0, -735000.0, 0.0, 10.0, 10.0 
2.555e+3, 2.35e+2, -637000.0, -637000.0, 0.0, 0.0, 0.0, -637000.0, -637000.0, 0.0, 10.0, 10.0 
2.555e+3, 2.45e+2, -539000.0, -539000.0, 0.0, 0.0, 0.0, -539000.0, -539000.0, 0.0, 10.0, 10.0 
2.555e+3, 2.55e+2, -441000.0, -441000.0, 0.0, 0.0, 0.0, -441000.0, -441000.0, 0.0, 10.0, 10.0 
2.555e+3, 2.65e+2, -343000.0, -343000.0, 0.0, 0.0, 0.0, -343000.0, -343000.0, 0.0, 10.0, 10.0 
2.555e+3, 2.75e+2, -245000.0, -245000.0, 0.0, 0.0, 0.0, -245000.0, -245000.0, 0.0, 10.0, 10.0 
2.555e+3, 2.85e+2, -147000.0, -147000.0, 0.0, 0.0, 0.0, -147000.0, -147000.0, 0.0, 10.0, 10.0 
2.555e+3, 2.95e+2, -49000.0, -49000.0, 0.0, 0.0, 0.0, -49000.0, -49000.0, 0.0, 10.0, 10.0 
2.555e+3, 3.05e+2, 0.0, 0.0, 0.0, 0.0, 0.0, 0.0, 0.0, 0.0, 10.0, 10.0 
2.555e+3, 3.15e+2, 0.0, 0.0, 0.0, 0.0, 0.0, 0.0, 0.0, 0.0, 10.0, 10.0 
2.565e+3, 1.25e+2, -1715000.0, -1715000.0, 0.0, 0.0, 0.0, -1715000.0, -1715000.0, 0.0, 10.0, 10.0 
2.565e+3, 1.35e+2, -1617000.0, -1617000.0, 0.0, 0.0, 0.0, -1617000.0, -1617000.0, 0.0, 10.0, 10.0 
2.565e+3, 1.45e+2, -1519000.0, -1519000.0, 0.0, 0.0, 0.0, -1519000.0, -1519000.0, 0.0, 10.0, 10.0 
2.565e+3, 1.55e+2, -1421000.0, -1421000.0, 0.0, 0.0, 0.0, -1421000.0, -1421000.0, 0.0, 10.0, 10.0 
2.565e+3, 1.65e+2, -1323000.0, -1323000.0, 0.0, 0.0, 0.0, -1323000.0, -1323000.0, 0.0, 10.0, 10.0 
2.565e+3, 1.75e+2, -1225000.0, -1225000.0, 0.0, 0.0, 0.0, -1225000.0, -1225000.0, 0.0, 10.0, 10.0 
2.565e+3, 1.85e+2, -1127000.0, -1127000.0, 0.0, 0.0, 0.0, -1127000.0, -1127000.0, 0.0, 10.0, 10.0 
2.565e+3, 1.95e+2, -1029000.0, -1029000.0, 0.0, 0.0, 0.0, -1029000.0, -1029000.0, 0.0, 10.0, 10.0 
2.565e+3, 2.05e+2, -931000.0, -931000.0, 0.0, 0.0, 0.0, -931000.0, -931000.0, 0.0, 10.0, 10.0 
2.565e+3, 2.15e+2, -833000.0, -833000.0, 0.0, 0.0, 0.0, -833000.0, -833000.0, 0.0, 10.0, 10.0 
2.565e+3, 2.25e+2, -735000.0, -735000.0, 0.0, 0.0, 0.0, -735000.0, -735000.0, 0.0, 10.0, 10.0 
2.565e+3, 2.35e+2, -637000.0, -637000.0, 0.0, 0.0, 0.0, -637000.0, -637000.0, 0.0, 10.0, 10.0 
2.565e+3, 2.45e+2, -539000.0, -539000.0, 0.0, 0.0, 0.0, -539000.0, -539000.0, 0.0, 10.0, 10.0 
2.565e+3, 2.55e+2, -441000.0, -441000.0, 0.0, 0.0, 0.0, -441000.0, -441000.0, 0.0, 10.0, 10.0 
2.565e+3, 2.65e+2, -343000.0, -343000.0, 0.0, 0.0, 0.0, -343000.0, -343000.0, 0.0, 10.0, 10.0 
2.565e+3, 2.75e+2, -245000.0, -245000.0, 0.0, 0.0, 0.0, -245000.0, -245000.0, 0.0, 10.0, 10.0 
2.565e+3, 2.85e+2, -147000.0, -147000.0, 0.0, 0.0, 0.0, -147000.0, -147000.0, 0.0, 10.0, 10.0 
2.565e+3, 2.95e+2, -49000.0, -49000.0, 0.0, 0.0, 0.0, -49000.0, -49000.0, 0.0, 10.0, 10.0 
2.565e+3, 3.05e+2, 0.0, 0.0, 0.0, 0.0, 0.0, 0.0, 0.0, 0.0, 10.0, 10.0 
2.565e+3, 3.15e+2, 0.0, 0.0, 0.0, 0.0, 0.0, 0.0, 0.0, 0.0, 10.0, 10.0 
2.575e+3, 1.25e+2, -1715000.0, -1715000.0, 0.0, 0.0, 0.0, -1715000.0, -1715000.0, 0.0, 10.0, 10.0 
2.575e+3, 1.35e+2, -1617000.0, -1617000.0, 0.0, 0.0, 0.0, -1617000.0, -1617000.0, 0.0, 10.0, 10.0 
2.575e+3, 1.45e+2, -1519000.0, -1519000.0, 0.0, 0.0, 0.0, -1519000.0, -1519000.0, 0.0, 10.0, 10.0 
2.575e+3, 1.55e+2, -1421000.0, -1421000.0, 0.0, 0.0, 0.0, -1421000.0, -1421000.0, 0.0, 10.0, 10.0 
2.575e+3, 1.65e+2, -1323000.0, -1323000.0, 0.0, 0.0, 0.0, -1323000.0, -1323000.0, 0.0, 10.0, 10.0 
2.575e+3, 1.75e+2, -1225000.0, -1225000.0, 0.0, 0.0, 0.0, -1225000.0, -1225000.0, 0.0, 10.0, 10.0 
2.575e+3, 1.85e+2, -1127000.0, -1127000.0, 0.0, 0.0, 0.0, -1127000.0, -1127000.0, 0.0, 10.0, 10.0 
2.575e+3, 1.95e+2, -1029000.0, -1029000.0, 0.0, 0.0, 0.0, -1029000.0, -1029000.0, 0.0, 10.0, 10.0 
2.575e+3, 2.05e+2, -931000.0, -931000.0, 0.0, 0.0, 0.0, -931000.0, -931000.0, 0.0, 10.0, 10.0 
2.575e+3, 2.15e+2, -833000.0, -833000.0, 0.0, 0.0, 0.0, -833000.0, -833000.0, 0.0, 10.0, 10.0 
2.575e+3, 2.25e+2, -735000.0, -735000.0, 0.0, 0.0, 0.0, -735000.0, -735000.0, 0.0, 10.0, 10.0 
2.575e+3, 2.35e+2, -637000.0, -637000.0, 0.0, 0.0, 0.0, -637000.0, -637000.0, 0.0, 10.0, 10.0 
2.575e+3, 2.45e+2, -539000.0, -539000.0, 0.0, 0.0, 0.0, -539000.0, -539000.0, 0.0, 10.0, 10.0 
2.575e+3, 2.55e+2, -441000.0, -441000.0, 0.0, 0.0, 0.0, -441000.0, -441000.0, 0.0, 10.0, 10.0 
2.575e+3, 2.65e+2, -343000.0, -343000.0, 0.0, 0.0, 0.0, -343000.0, -343000.0, 0.0, 10.0, 10.0 
2.575e+3, 2.75e+2, -245000.0, -245000.0, 0.0, 0.0, 0.0, -245000.0, -245000.0, 0.0, 10.0, 10.0 
2.575e+3, 2.85e+2, -147000.0, -147000.0, 0.0, 0.0, 0.0, -147000.0, -147000.0, 0.0, 10.0, 10.0 
2.575e+3, 2.95e+2, -49000.0, -49000.0, 0.0, 0.0, 0.0, -49000.0, -49000.0, 0.0, 10.0, 10.0 
2.575e+3, 3.05e+2, 0.0, 0.0, 0.0, 0.0, 0.0, 0.0, 0.0, 0.0, 10.0, 10.0 
2.575e+3, 3.15e+2, 0.0, 0.0, 0.0, 0.0, 0.0, 0.0, 0.0, 0.0, 10.0, 10.0 
2.585e+3, 1.25e+2, -1715000.0, -1715000.0, 0.0, 0.0, 0.0, -1715000.0, -1715000.0, 0.0, 10.0, 10.0 
2.585e+3, 1.35e+2, -1617000.0, -1617000.0, 0.0, 0.0, 0.0, -1617000.0, -1617000.0, 0.0, 10.0, 10.0 
2.585e+3, 1.45e+2, -1519000.0, -1519000.0, 0.0, 0.0, 0.0, -1519000.0, -1519000.0, 0.0, 10.0, 10.0 
2.585e+3, 1.55e+2, -1421000.0, -1421000.0, 0.0, 0.0, 0.0, -1421000.0, -1421000.0, 0.0, 10.0, 10.0 
2.585e+3, 1.65e+2, -1323000.0, -1323000.0, 0.0, 0.0, 0.0, -1323000.0, -1323000.0, 0.0, 10.0, 10.0 
2.585e+3, 1.75e+2, -1225000.0, -1225000.0, 0.0, 0.0, 0.0, -1225000.0, -1225000.0, 0.0, 10.0, 10.0 
2.585e+3, 1.85e+2, -1127000.0, -1127000.0, 0.0, 0.0, 0.0, -1127000.0, -1127000.0, 0.0, 10.0, 10.0 
2.585e+3, 1.95e+2, -1029000.0, -1029000.0, 0.0, 0.0, 0.0, -1029000.0, -1029000.0, 0.0, 10.0, 10.0 
2.585e+3, 2.05e+2, -931000.0, -931000.0, 0.0, 0.0, 0.0, -931000.0, -931000.0, 0.0, 10.0, 10.0 
2.585e+3, 2.15e+2, -833000.0, -833000.0, 0.0, 0.0, 0.0, -833000.0, -833000.0, 0.0, 10.0, 10.0 
2.585e+3, 2.25e+2, -735000.0, -735000.0, 0.0, 0.0, 0.0, -735000.0, -735000.0, 0.0, 10.0, 10.0 
2.585e+3, 2.35e+2, -637000.0, -637000.0, 0.0, 0.0, 0.0, -637000.0, -637000.0, 0.0, 10.0, 10.0 
2.585e+3, 2.45e+2, -539000.0, -539000.0, 0.0, 0.0, 0.0, -539000.0, -539000.0, 0.0, 10.0, 10.0 
2.585e+3, 2.55e+2, -441000.0, -441000.0, 0.0, 0.0, 0.0, -441000.0, -441000.0, 0.0, 10.0, 10.0 
2.585e+3, 2.65e+2, -343000.0, -343000.0, 0.0, 0.0, 0.0, -343000.0, -343000.0, 0.0, 10.0, 10.0 
2.585e+3, 2.75e+2, -245000.0, -245000.0, 0.0, 0.0, 0.0, -245000.0, -245000.0, 0.0, 10.0, 10.0 
2.585e+3, 2.85e+2, -147000.0, -147000.0, 0.0, 0.0, 0.0, -147000.0, -147000.0, 0.0, 10.0, 10.0 
2.585e+3, 2.95e+2, -49000.0, -49000.0, 0.0, 0.0, 0.0, -49000.0, -49000.0, 0.0, 10.0, 10.0 
2.585e+3, 3.05e+2, 0.0, 0.0, 0.0, 0.0, 0.0, 0.0, 0.0, 0.0, 10.0, 10.0 
2.585e+3, 3.15e+2, 0.0, 0.0, 0.0, 0.0, 0.0, 0.0, 0.0, 0.0, 10.0, 10.0 
2.595e+3, 1.25e+2, -1715000.0, -1715000.0, 0.0, 0.0, 0.0, -1715000.0, -1715000.0, 0.0, 10.0, 10.0 
2.595e+3, 1.35e+2, -1617000.0, -1617000.0, 0.0, 0.0, 0.0, -1617000.0, -1617000.0, 0.0, 10.0, 10.0 
2.595e+3, 1.45e+2, -1519000.0, -1519000.0, 0.0, 0.0, 0.0, -1519000.0, -1519000.0, 0.0, 10.0, 10.0 
2.595e+3, 1.55e+2, -1421000.0, -1421000.0, 0.0, 0.0, 0.0, -1421000.0, -1421000.0, 0.0, 10.0, 10.0 
2.595e+3, 1.65e+2, -1323000.0, -1323000.0, 0.0, 0.0, 0.0, -1323000.0, -1323000.0, 0.0, 10.0, 10.0 
2.595e+3, 1.75e+2, -1225000.0, -1225000.0, 0.0, 0.0, 0.0, -1225000.0, -1225000.0, 0.0, 10.0, 10.0 
2.595e+3, 1.85e+2, -1127000.0, -1127000.0, 0.0, 0.0, 0.0, -1127000.0, -1127000.0, 0.0, 10.0, 10.0 
2.595e+3, 1.95e+2, -1029000.0, -1029000.0, 0.0, 0.0, 0.0, -1029000.0, -1029000.0, 0.0, 10.0, 10.0 
2.595e+3, 2.05e+2, -931000.0, -931000.0, 0.0, 0.0, 0.0, -931000.0, -931000.0, 0.0, 10.0, 10.0 
2.595e+3, 2.15e+2, -833000.0, -833000.0, 0.0, 0.0, 0.0, -833000.0, -833000.0, 0.0, 10.0, 10.0 
2.595e+3, 2.25e+2, -735000.0, -735000.0, 0.0, 0.0, 0.0, -735000.0, -735000.0, 0.0, 10.0, 10.0 
2.595e+3, 2.35e+2, -637000.0, -637000.0, 0.0, 0.0, 0.0, -637000.0, -637000.0, 0.0, 10.0, 10.0 
2.595e+3, 2.45e+2, -539000.0, -539000.0, 0.0, 0.0, 0.0, -539000.0, -539000.0, 0.0, 10.0, 10.0 
2.595e+3, 2.55e+2, -441000.0, -441000.0, 0.0, 0.0, 0.0, -441000.0, -441000.0, 0.0, 10.0, 10.0 
2.595e+3, 2.65e+2, -343000.0, -343000.0, 0.0, 0.0, 0.0, -343000.0, -343000.0, 0.0, 10.0, 10.0 
2.595e+3, 2.75e+2, -245000.0, -245000.0, 0.0, 0.0, 0.0, -245000.0, -245000.0, 0.0, 10.0, 10.0 
2.595e+3, 2.85e+2, -147000.0, -147000.0, 0.0, 0.0, 0.0, -147000.0, -147000.0, 0.0, 10.0, 10.0 
2.595e+3, 2.95e+2, -49000.0, -49000.0, 0.0, 0.0, 0.0, -49000.0, -49000.0, 0.0, 10.0, 10.0 
2.595e+3, 3.05e+2, 0.0, 0.0, 0.0, 0.0, 0.0, 0.0, 0.0, 0.0, 10.0, 10.0 
2.595e+3, 3.15e+2, 0.0, 0.0, 0.0, 0.0, 0.0, 0.0, 0.0, 0.0, 10.0, 10.0 
2.605e+3, 1.25e+2, -1715000.0, -1715000.0, 0.0, 0.0, 0.0, -1715000.0, -1715000.0, 0.0, 10.0, 10.0 
2.605e+3, 1.35e+2, -1617000.0, -1617000.0, 0.0, 0.0, 0.0, -1617000.0, -1617000.0, 0.0, 10.0, 10.0 
2.605e+3, 1.45e+2, -1519000.0, -1519000.0, 0.0, 0.0, 0.0, -1519000.0, -1519000.0, 0.0, 10.0, 10.0 
2.605e+3, 1.55e+2, -1421000.0, -1421000.0, 0.0, 0.0, 0.0, -1421000.0, -1421000.0, 0.0, 10.0, 10.0 
2.605e+3, 1.65e+2, -1323000.0, -1323000.0, 0.0, 0.0, 0.0, -1323000.0, -1323000.0, 0.0, 10.0, 10.0 
2.605e+3, 1.75e+2, -1225000.0, -1225000.0, 0.0, 0.0, 0.0, -1225000.0, -1225000.0, 0.0, 10.0, 10.0 
2.605e+3, 1.85e+2, -1127000.0, -1127000.0, 0.0, 0.0, 0.0, -1127000.0, -1127000.0, 0.0, 10.0, 10.0 
2.605e+3, 1.95e+2, -1029000.0, -1029000.0, 0.0, 0.0, 0.0, -1029000.0, -1029000.0, 0.0, 10.0, 10.0 
2.605e+3, 2.05e+2, -931000.0, -931000.0, 0.0, 0.0, 0.0, -931000.0, -931000.0, 0.0, 10.0, 10.0 
2.605e+3, 2.15e+2, -833000.0, -833000.0, 0.0, 0.0, 0.0, -833000.0, -833000.0, 0.0, 10.0, 10.0 
2.605e+3, 2.25e+2, -735000.0, -735000.0, 0.0, 0.0, 0.0, -735000.0, -735000.0, 0.0, 10.0, 10.0 
2.605e+3, 2.35e+2, -637000.0, -637000.0, 0.0, 0.0, 0.0, -637000.0, -637000.0, 0.0, 10.0, 10.0 
2.605e+3, 2.45e+2, -539000.0, -539000.0, 0.0, 0.0, 0.0, -539000.0, -539000.0, 0.0, 10.0, 10.0 
2.605e+3, 2.55e+2, -441000.0, -441000.0, 0.0, 0.0, 0.0, -441000.0, -441000.0, 0.0, 10.0, 10.0 
2.605e+3, 2.65e+2, -343000.0, -343000.0, 0.0, 0.0, 0.0, -343000.0, -343000.0, 0.0, 10.0, 10.0 
2.605e+3, 2.75e+2, -245000.0, -245000.0, 0.0, 0.0, 0.0, -245000.0, -245000.0, 0.0, 10.0, 10.0 
2.605e+3, 2.85e+2, -147000.0, -147000.0, 0.0, 0.0, 0.0, -147000.0, -147000.0, 0.0, 10.0, 10.0 
2.605e+3, 2.95e+2, -49000.0, -49000.0, 0.0, 0.0, 0.0, -49000.0, -49000.0, 0.0, 10.0, 10.0 
2.605e+3, 3.05e+2, 0.0, 0.0, 0.0, 0.0, 0.0, 0.0, 0.0, 0.0, 10.0, 10.0 
2.605e+3, 3.15e+2, 0.0, 0.0, 0.0, 0.0, 0.0, 0.0, 0.0, 0.0, 10.0, 10.0 
2.615e+3, 1.25e+2, -1715000.0, -1715000.0, 0.0, 0.0, 0.0, -1715000.0, -1715000.0, 0.0, 10.0, 10.0 
2.615e+3, 1.35e+2, -1617000.0, -1617000.0, 0.0, 0.0, 0.0, -1617000.0, -1617000.0, 0.0, 10.0, 10.0 
2.615e+3, 1.45e+2, -1519000.0, -1519000.0, 0.0, 0.0, 0.0, -1519000.0, -1519000.0, 0.0, 10.0, 10.0 
2.615e+3, 1.55e+2, -1421000.0, -1421000.0, 0.0, 0.0, 0.0, -1421000.0, -1421000.0, 0.0, 10.0, 10.0 
2.615e+3, 1.65e+2, -1323000.0, -1323000.0, 0.0, 0.0, 0.0, -1323000.0, -1323000.0, 0.0, 10.0, 10.0 
2.615e+3, 1.75e+2, -1225000.0, -1225000.0, 0.0, 0.0, 0.0, -1225000.0, -1225000.0, 0.0, 10.0, 10.0 
2.615e+3, 1.85e+2, -1127000.0, -1127000.0, 0.0, 0.0, 0.0, -1127000.0, -1127000.0, 0.0, 10.0, 10.0 
2.615e+3, 1.95e+2, -1029000.0, -1029000.0, 0.0, 0.0, 0.0, -1029000.0, -1029000.0, 0.0, 10.0, 10.0 
2.615e+3, 2.05e+2, -931000.0, -931000.0, 0.0, 0.0, 0.0, -931000.0, -931000.0, 0.0, 10.0, 10.0 
2.615e+3, 2.15e+2, -833000.0, -833000.0, 0.0, 0.0, 0.0, -833000.0, -833000.0, 0.0, 10.0, 10.0 
2.615e+3, 2.25e+2, -735000.0, -735000.0, 0.0, 0.0, 0.0, -735000.0, -735000.0, 0.0, 10.0, 10.0 
2.615e+3, 2.35e+2, -637000.0, -637000.0, 0.0, 0.0, 0.0, -637000.0, -637000.0, 0.0, 10.0, 10.0 
2.615e+3, 2.45e+2, -539000.0, -539000.0, 0.0, 0.0, 0.0, -539000.0, -539000.0, 0.0, 10.0, 10.0 
2.615e+3, 2.55e+2, -441000.0, -441000.0, 0.0, 0.0, 0.0, -441000.0, -441000.0, 0.0, 10.0, 10.0 
2.615e+3, 2.65e+2, -343000.0, -343000.0, 0.0, 0.0, 0.0, -343000.0, -343000.0, 0.0, 10.0, 10.0 
2.615e+3, 2.75e+2, -245000.0, -245000.0, 0.0, 0.0, 0.0, -245000.0, -245000.0, 0.0, 10.0, 10.0 
2.615e+3, 2.85e+2, -147000.0, -147000.0, 0.0, 0.0, 0.0, -147000.0, -147000.0, 0.0, 10.0, 10.0 
2.615e+3, 2.95e+2, -49000.0, -49000.0, 0.0, 0.0, 0.0, -49000.0, -49000.0, 0.0, 10.0, 10.0 
2.615e+3, 3.05e+2, 0.0, 0.0, 0.0, 0.0, 0.0, 0.0, 0.0, 0.0, 10.0, 10.0 
2.615e+3, 3.15e+2, 0.0, 0.0, 0.0, 0.0, 0.0, 0.0, 0.0, 0.0, 10.0, 10.0 
2.625e+3, 1.25e+2, -1715000.0, -1715000.0, 0.0, 0.0, 0.0, -1715000.0, -1715000.0, 0.0, 10.0, 10.0 
2.625e+3, 1.35e+2, -1617000.0, -1617000.0, 0.0, 0.0, 0.0, -1617000.0, -1617000.0, 0.0, 10.0, 10.0 
2.625e+3, 1.45e+2, -1519000.0, -1519000.0, 0.0, 0.0, 0.0, -1519000.0, -1519000.0, 0.0, 10.0, 10.0 
2.625e+3, 1.55e+2, -1421000.0, -1421000.0, 0.0, 0.0, 0.0, -1421000.0, -1421000.0, 0.0, 10.0, 10.0 
2.625e+3, 1.65e+2, -1323000.0, -1323000.0, 0.0, 0.0, 0.0, -1323000.0, -1323000.0, 0.0, 10.0, 10.0 
2.625e+3, 1.75e+2, -1225000.0, -1225000.0, 0.0, 0.0, 0.0, -1225000.0, -1225000.0, 0.0, 10.0, 10.0 
2.625e+3, 1.85e+2, -1127000.0, -1127000.0, 0.0, 0.0, 0.0, -1127000.0, -1127000.0, 0.0, 10.0, 10.0 
2.625e+3, 1.95e+2, -1029000.0, -1029000.0, 0.0, 0.0, 0.0, -1029000.0, -1029000.0, 0.0, 10.0, 10.0 
2.625e+3, 2.05e+2, -931000.0, -931000.0, 0.0, 0.0, 0.0, -931000.0, -931000.0, 0.0, 10.0, 10.0 
2.625e+3, 2.15e+2, -833000.0, -833000.0, 0.0, 0.0, 0.0, -833000.0, -833000.0, 0.0, 10.0, 10.0 
2.625e+3, 2.25e+2, -735000.0, -735000.0, 0.0, 0.0, 0.0, -735000.0, -735000.0, 0.0, 10.0, 10.0 
2.625e+3, 2.35e+2, -637000.0, -637000.0, 0.0, 0.0, 0.0, -637000.0, -637000.0, 0.0, 10.0, 10.0 
2.625e+3, 2.45e+2, -539000.0, -539000.0, 0.0, 0.0, 0.0, -539000.0, -539000.0, 0.0, 10.0, 10.0 
2.625e+3, 2.55e+2, -441000.0, -441000.0, 0.0, 0.0, 0.0, -441000.0, -441000.0, 0.0, 10.0, 10.0 
2.625e+3, 2.65e+2, -343000.0, -343000.0, 0.0, 0.0, 0.0, -343000.0, -343000.0, 0.0, 10.0, 10.0 
2.625e+3, 2.75e+2, -245000.0, -245000.0, 0.0, 0.0, 0.0, -245000.0, -245000.0, 0.0, 10.0, 10.0 
2.625e+3, 2.85e+2, -147000.0, -147000.0, 0.0, 0.0, 0.0, -147000.0, -147000.0, 0.0, 10.0, 10.0 
2.625e+3, 2.95e+2, -49000.0, -49000.0, 0.0, 0.0, 0.0, -49000.0, -49000.0, 0.0, 10.0, 10.0 
2.625e+3, 3.05e+2, 0.0, 0.0, 0.0, 0.0, 0.0, 0.0, 0.0, 0.0, 10.0, 10.0 
2.625e+3, 3.15e+2, 0.0, 0.0, 0.0, 0.0, 0.0, 0.0, 0.0, 0.0, 10.0, 10.0 
2.635e+3, 1.25e+2, -1715000.0, -1715000.0, 0.0, 0.0, 0.0, -1715000.0, -1715000.0, 0.0, 10.0, 10.0 
2.635e+3, 1.35e+2, -1617000.0, -1617000.0, 0.0, 0.0, 0.0, -1617000.0, -1617000.0, 0.0, 10.0, 10.0 
2.635e+3, 1.45e+2, -1519000.0, -1519000.0, 0.0, 0.0, 0.0, -1519000.0, -1519000.0, 0.0, 10.0, 10.0 
2.635e+3, 1.55e+2, -1421000.0, -1421000.0, 0.0, 0.0, 0.0, -1421000.0, -1421000.0, 0.0, 10.0, 10.0 
2.635e+3, 1.65e+2, -1323000.0, -1323000.0, 0.0, 0.0, 0.0, -1323000.0, -1323000.0, 0.0, 10.0, 10.0 
2.635e+3, 1.75e+2, -1225000.0, -1225000.0, 0.0, 0.0, 0.0, -1225000.0, -1225000.0, 0.0, 10.0, 10.0 
2.635e+3, 1.85e+2, -1127000.0, -1127000.0, 0.0, 0.0, 0.0, -1127000.0, -1127000.0, 0.0, 10.0, 10.0 
2.635e+3, 1.95e+2, -1029000.0, -1029000.0, 0.0, 0.0, 0.0, -1029000.0, -1029000.0, 0.0, 10.0, 10.0 
2.635e+3, 2.05e+2, -931000.0, -931000.0, 0.0, 0.0, 0.0, -931000.0, -931000.0, 0.0, 10.0, 10.0 
2.635e+3, 2.15e+2, -833000.0, -833000.0, 0.0, 0.0, 0.0, -833000.0, -833000.0, 0.0, 10.0, 10.0 
2.635e+3, 2.25e+2, -735000.0, -735000.0, 0.0, 0.0, 0.0, -735000.0, -735000.0, 0.0, 10.0, 10.0 
2.635e+3, 2.35e+2, -637000.0, -637000.0, 0.0, 0.0, 0.0, -637000.0, -637000.0, 0.0, 10.0, 10.0 
2.635e+3, 2.45e+2, -539000.0, -539000.0, 0.0, 0.0, 0.0, -539000.0, -539000.0, 0.0, 10.0, 10.0 
2.635e+3, 2.55e+2, -441000.0, -441000.0, 0.0, 0.0, 0.0, -441000.0, -441000.0, 0.0, 10.0, 10.0 
2.635e+3, 2.65e+2, -343000.0, -343000.0, 0.0, 0.0, 0.0, -343000.0, -343000.0, 0.0, 10.0, 10.0 
2.635e+3, 2.75e+2, -245000.0, -245000.0, 0.0, 0.0, 0.0, -245000.0, -245000.0, 0.0, 10.0, 10.0 
2.635e+3, 2.85e+2, -147000.0, -147000.0, 0.0, 0.0, 0.0, -147000.0, -147000.0, 0.0, 10.0, 10.0 
2.635e+3, 2.95e+2, -49000.0, -49000.0, 0.0, 0.0, 0.0, -49000.0, -49000.0, 0.0, 10.0, 10.0 
2.635e+3, 3.05e+2, 0.0, 0.0, 0.0, 0.0, 0.0, 0.0, 0.0, 0.0, 10.0, 10.0 
2.635e+3, 3.15e+2, 0.0, 0.0, 0.0, 0.0, 0.0, 0.0, 0.0, 0.0, 10.0, 10.0 
2.645e+3, 1.25e+2, -1715000.0, -1715000.0, 0.0, 0.0, 0.0, -1715000.0, -1715000.0, 0.0, 10.0, 10.0 
2.645e+3, 1.35e+2, -1617000.0, -1617000.0, 0.0, 0.0, 0.0, -1617000.0, -1617000.0, 0.0, 10.0, 10.0 
2.645e+3, 1.45e+2, -1519000.0, -1519000.0, 0.0, 0.0, 0.0, -1519000.0, -1519000.0, 0.0, 10.0, 10.0 
2.645e+3, 1.55e+2, -1421000.0, -1421000.0, 0.0, 0.0, 0.0, -1421000.0, -1421000.0, 0.0, 10.0, 10.0 
2.645e+3, 1.65e+2, -1323000.0, -1323000.0, 0.0, 0.0, 0.0, -1323000.0, -1323000.0, 0.0, 10.0, 10.0 
2.645e+3, 1.75e+2, -1225000.0, -1225000.0, 0.0, 0.0, 0.0, -1225000.0, -1225000.0, 0.0, 10.0, 10.0 
2.645e+3, 1.85e+2, -1127000.0, -1127000.0, 0.0, 0.0, 0.0, -1127000.0, -1127000.0, 0.0, 10.0, 10.0 
2.645e+3, 1.95e+2, -1029000.0, -1029000.0, 0.0, 0.0, 0.0, -1029000.0, -1029000.0, 0.0, 10.0, 10.0 
2.645e+3, 2.05e+2, -931000.0, -931000.0, 0.0, 0.0, 0.0, -931000.0, -931000.0, 0.0, 10.0, 10.0 
2.645e+3, 2.15e+2, -833000.0, -833000.0, 0.0, 0.0, 0.0, -833000.0, -833000.0, 0.0, 10.0, 10.0 
2.645e+3, 2.25e+2, -735000.0, -735000.0, 0.0, 0.0, 0.0, -735000.0, -735000.0, 0.0, 10.0, 10.0 
2.645e+3, 2.35e+2, -637000.0, -637000.0, 0.0, 0.0, 0.0, -637000.0, -637000.0, 0.0, 10.0, 10.0 
2.645e+3, 2.45e+2, -539000.0, -539000.0, 0.0, 0.0, 0.0, -539000.0, -539000.0, 0.0, 10.0, 10.0 
2.645e+3, 2.55e+2, -441000.0, -441000.0, 0.0, 0.0, 0.0, -441000.0, -441000.0, 0.0, 10.0, 10.0 
2.645e+3, 2.65e+2, -343000.0, -343000.0, 0.0, 0.0, 0.0, -343000.0, -343000.0, 0.0, 10.0, 10.0 
2.645e+3, 2.75e+2, -245000.0, -245000.0, 0.0, 0.0, 0.0, -245000.0, -245000.0, 0.0, 10.0, 10.0 
2.645e+3, 2.85e+2, -147000.0, -147000.0, 0.0, 0.0, 0.0, -147000.0, -147000.0, 0.0, 10.0, 10.0 
2.645e+3, 2.95e+2, -49000.0, -49000.0, 0.0, 0.0, 0.0, -49000.0, -49000.0, 0.0, 10.0, 10.0 
2.645e+3, 3.05e+2, 0.0, 0.0, 0.0, 0.0, 0.0, 0.0, 0.0, 0.0, 10.0, 10.0 
2.645e+3, 3.15e+2, 0.0, 0.0, 0.0, 0.0, 0.0, 0.0, 0.0, 0.0, 10.0, 10.0 
2.655e+3, 1.25e+2, -1715000.0, -1715000.0, 0.0, 0.0, 0.0, -1715000.0, -1715000.0, 0.0, 10.0, 10.0 
2.655e+3, 1.35e+2, -1617000.0, -1617000.0, 0.0, 0.0, 0.0, -1617000.0, -1617000.0, 0.0, 10.0, 10.0 
2.655e+3, 1.45e+2, -1519000.0, -1519000.0, 0.0, 0.0, 0.0, -1519000.0, -1519000.0, 0.0, 10.0, 10.0 
2.655e+3, 1.55e+2, -1421000.0, -1421000.0, 0.0, 0.0, 0.0, -1421000.0, -1421000.0, 0.0, 10.0, 10.0 
2.655e+3, 1.65e+2, -1323000.0, -1323000.0, 0.0, 0.0, 0.0, -1323000.0, -1323000.0, 0.0, 10.0, 10.0 
2.655e+3, 1.75e+2, -1225000.0, -1225000.0, 0.0, 0.0, 0.0, -1225000.0, -1225000.0, 0.0, 10.0, 10.0 
2.655e+3, 1.85e+2, -1127000.0, -1127000.0, 0.0, 0.0, 0.0, -1127000.0, -1127000.0, 0.0, 10.0, 10.0 
2.655e+3, 1.95e+2, -1029000.0, -1029000.0, 0.0, 0.0, 0.0, -1029000.0, -1029000.0, 0.0, 10.0, 10.0 
2.655e+3, 2.05e+2, -931000.0, -931000.0, 0.0, 0.0, 0.0, -931000.0, -931000.0, 0.0, 10.0, 10.0 
2.655e+3, 2.15e+2, -833000.0, -833000.0, 0.0, 0.0, 0.0, -833000.0, -833000.0, 0.0, 10.0, 10.0 
2.655e+3, 2.25e+2, -735000.0, -735000.0, 0.0, 0.0, 0.0, -735000.0, -735000.0, 0.0, 10.0, 10.0 
2.655e+3, 2.35e+2, -637000.0, -637000.0, 0.0, 0.0, 0.0, -637000.0, -637000.0, 0.0, 10.0, 10.0 
2.655e+3, 2.45e+2, -539000.0, -539000.0, 0.0, 0.0, 0.0, -539000.0, -539000.0, 0.0, 10.0, 10.0 
2.655e+3, 2.55e+2, -441000.0, -441000.0, 0.0, 0.0, 0.0, -441000.0, -441000.0, 0.0, 10.0, 10.0 
2.655e+3, 2.65e+2, -343000.0, -343000.0, 0.0, 0.0, 0.0, -343000.0, -343000.0, 0.0, 10.0, 10.0 
2.655e+3, 2.75e+2, -245000.0, -245000.0, 0.0, 0.0, 0.0, -245000.0, -245000.0, 0.0, 10.0, 10.0 
2.655e+3, 2.85e+2, -147000.0, -147000.0, 0.0, 0.0, 0.0, -147000.0, -147000.0, 0.0, 10.0, 10.0 
2.655e+3, 2.95e+2, -49000.0, -49000.0, 0.0, 0.0, 0.0, -49000.0, -49000.0, 0.0, 10.0, 10.0 
2.655e+3, 3.05e+2, 0.0, 0.0, 0.0, 0.0, 0.0, 0.0, 0.0, 0.0, 10.0, 10.0 
2.655e+3, 3.15e+2, 0.0, 0.0, 0.0, 0.0, 0.0, 0.0, 0.0, 0.0, 10.0, 10.0 
2.665e+3, 1.25e+2, -1715000.0, -1715000.0, 0.0, 0.0, 0.0, -1715000.0, -1715000.0, 0.0, 10.0, 10.0 
2.665e+3, 1.35e+2, -1617000.0, -1617000.0, 0.0, 0.0, 0.0, -1617000.0, -1617000.0, 0.0, 10.0, 10.0 
2.665e+3, 1.45e+2, -1519000.0, -1519000.0, 0.0, 0.0, 0.0, -1519000.0, -1519000.0, 0.0, 10.0, 10.0 
2.665e+3, 1.55e+2, -1421000.0, -1421000.0, 0.0, 0.0, 0.0, -1421000.0, -1421000.0, 0.0, 10.0, 10.0 
2.665e+3, 1.65e+2, -1323000.0, -1323000.0, 0.0, 0.0, 0.0, -1323000.0, -1323000.0, 0.0, 10.0, 10.0 
2.665e+3, 1.75e+2, -1225000.0, -1225000.0, 0.0, 0.0, 0.0, -1225000.0, -1225000.0, 0.0, 10.0, 10.0 
2.665e+3, 1.85e+2, -1127000.0, -1127000.0, 0.0, 0.0, 0.0, -1127000.0, -1127000.0, 0.0, 10.0, 10.0 
2.665e+3, 1.95e+2, -1029000.0, -1029000.0, 0.0, 0.0, 0.0, -1029000.0, -1029000.0, 0.0, 10.0, 10.0 
2.665e+3, 2.05e+2, -931000.0, -931000.0, 0.0, 0.0, 0.0, -931000.0, -931000.0, 0.0, 10.0, 10.0 
2.665e+3, 2.15e+2, -833000.0, -833000.0, 0.0, 0.0, 0.0, -833000.0, -833000.0, 0.0, 10.0, 10.0 
2.665e+3, 2.25e+2, -735000.0, -735000.0, 0.0, 0.0, 0.0, -735000.0, -735000.0, 0.0, 10.0, 10.0 
2.665e+3, 2.35e+2, -637000.0, -637000.0, 0.0, 0.0, 0.0, -637000.0, -637000.0, 0.0, 10.0, 10.0 
2.665e+3, 2.45e+2, -539000.0, -539000.0, 0.0, 0.0, 0.0, -539000.0, -539000.0, 0.0, 10.0, 10.0 
2.665e+3, 2.55e+2, -441000.0, -441000.0, 0.0, 0.0, 0.0, -441000.0, -441000.0, 0.0, 10.0, 10.0 
2.665e+3, 2.65e+2, -343000.0, -343000.0, 0.0, 0.0, 0.0, -343000.0, -343000.0, 0.0, 10.0, 10.0 
2.665e+3, 2.75e+2, -245000.0, -245000.0, 0.0, 0.0, 0.0, -245000.0, -245000.0, 0.0, 10.0, 10.0 
2.665e+3, 2.85e+2, -147000.0, -147000.0, 0.0, 0.0, 0.0, -147000.0, -147000.0, 0.0, 10.0, 10.0 
2.665e+3, 2.95e+2, -49000.0, -49000.0, 0.0, 0.0, 0.0, -49000.0, -49000.0, 0.0, 10.0, 10.0 
2.665e+3, 3.05e+2, 0.0, 0.0, 0.0, 0.0, 0.0, 0.0, 0.0, 0.0, 10.0, 10.0 
2.665e+3, 3.15e+2, 0.0, 0.0, 0.0, 0.0, 0.0, 0.0, 0.0, 0.0, 10.0, 10.0 
2.675e+3, 1.25e+2, -1715000.0, -1715000.0, 0.0, 0.0, 0.0, -1715000.0, -1715000.0, 0.0, 10.0, 10.0 
2.675e+3, 1.35e+2, -1617000.0, -1617000.0, 0.0, 0.0, 0.0, -1617000.0, -1617000.0, 0.0, 10.0, 10.0 
2.675e+3, 1.45e+2, -1519000.0, -1519000.0, 0.0, 0.0, 0.0, -1519000.0, -1519000.0, 0.0, 10.0, 10.0 
2.675e+3, 1.55e+2, -1421000.0, -1421000.0, 0.0, 0.0, 0.0, -1421000.0, -1421000.0, 0.0, 10.0, 10.0 
2.675e+3, 1.65e+2, -1323000.0, -1323000.0, 0.0, 0.0, 0.0, -1323000.0, -1323000.0, 0.0, 10.0, 10.0 
2.675e+3, 1.75e+2, -1225000.0, -1225000.0, 0.0, 0.0, 0.0, -1225000.0, -1225000.0, 0.0, 10.0, 10.0 
2.675e+3, 1.85e+2, -1127000.0, -1127000.0, 0.0, 0.0, 0.0, -1127000.0, -1127000.0, 0.0, 10.0, 10.0 
2.675e+3, 1.95e+2, -1029000.0, -1029000.0, 0.0, 0.0, 0.0, -1029000.0, -1029000.0, 0.0, 10.0, 10.0 
2.675e+3, 2.05e+2, -931000.0, -931000.0, 0.0, 0.0, 0.0, -931000.0, -931000.0, 0.0, 10.0, 10.0 
2.675e+3, 2.15e+2, -833000.0, -833000.0, 0.0, 0.0, 0.0, -833000.0, -833000.0, 0.0, 10.0, 10.0 
2.675e+3, 2.25e+2, -735000.0, -735000.0, 0.0, 0.0, 0.0, -735000.0, -735000.0, 0.0, 10.0, 10.0 
2.675e+3, 2.35e+2, -637000.0, -637000.0, 0.0, 0.0, 0.0, -637000.0, -637000.0, 0.0, 10.0, 10.0 
2.675e+3, 2.45e+2, -539000.0, -539000.0, 0.0, 0.0, 0.0, -539000.0, -539000.0, 0.0, 10.0, 10.0 
2.675e+3, 2.55e+2, -441000.0, -441000.0, 0.0, 0.0, 0.0, -441000.0, -441000.0, 0.0, 10.0, 10.0 
2.675e+3, 2.65e+2, -343000.0, -343000.0, 0.0, 0.0, 0.0, -343000.0, -343000.0, 0.0, 10.0, 10.0 
2.675e+3, 2.75e+2, -245000.0, -245000.0, 0.0, 0.0, 0.0, -245000.0, -245000.0, 0.0, 10.0, 10.0 
2.675e+3, 2.85e+2, -147000.0, -147000.0, 0.0, 0.0, 0.0, -147000.0, -147000.0, 0.0, 10.0, 10.0 
2.675e+3, 2.95e+2, -49000.0, -49000.0, 0.0, 0.0, 0.0, -49000.0, -49000.0, 0.0, 10.0, 10.0 
2.675e+3, 3.05e+2, 0.0, 0.0, 0.0, 0.0, 0.0, 0.0, 0.0, 0.0, 10.0, 10.0 
2.675e+3, 3.15e+2, 0.0, 0.0, 0.0, 0.0, 0.0, 0.0, 0.0, 0.0, 10.0, 10.0 
2.685e+3, 1.25e+2, -1715000.0, -1715000.0, 0.0, 0.0, 0.0, -1715000.0, -1715000.0, 0.0, 10.0, 10.0 
2.685e+3, 1.35e+2, -1617000.0, -1617000.0, 0.0, 0.0, 0.0, -1617000.0, -1617000.0, 0.0, 10.0, 10.0 
2.685e+3, 1.45e+2, -1519000.0, -1519000.0, 0.0, 0.0, 0.0, -1519000.0, -1519000.0, 0.0, 10.0, 10.0 
2.685e+3, 1.55e+2, -1421000.0, -1421000.0, 0.0, 0.0, 0.0, -1421000.0, -1421000.0, 0.0, 10.0, 10.0 
2.685e+3, 1.65e+2, -1323000.0, -1323000.0, 0.0, 0.0, 0.0, -1323000.0, -1323000.0, 0.0, 10.0, 10.0 
2.685e+3, 1.75e+2, -1225000.0, -1225000.0, 0.0, 0.0, 0.0, -1225000.0, -1225000.0, 0.0, 10.0, 10.0 
2.685e+3, 1.85e+2, -1127000.0, -1127000.0, 0.0, 0.0, 0.0, -1127000.0, -1127000.0, 0.0, 10.0, 10.0 
2.685e+3, 1.95e+2, -1029000.0, -1029000.0, 0.0, 0.0, 0.0, -1029000.0, -1029000.0, 0.0, 10.0, 10.0 
2.685e+3, 2.05e+2, -931000.0, -931000.0, 0.0, 0.0, 0.0, -931000.0, -931000.0, 0.0, 10.0, 10.0 
2.685e+3, 2.15e+2, -833000.0, -833000.0, 0.0, 0.0, 0.0, -833000.0, -833000.0, 0.0, 10.0, 10.0 
2.685e+3, 2.25e+2, -735000.0, -735000.0, 0.0, 0.0, 0.0, -735000.0, -735000.0, 0.0, 10.0, 10.0 
2.685e+3, 2.35e+2, -637000.0, -637000.0, 0.0, 0.0, 0.0, -637000.0, -637000.0, 0.0, 10.0, 10.0 
2.685e+3, 2.45e+2, -539000.0, -539000.0, 0.0, 0.0, 0.0, -539000.0, -539000.0, 0.0, 10.0, 10.0 
2.685e+3, 2.55e+2, -441000.0, -441000.0, 0.0, 0.0, 0.0, -441000.0, -441000.0, 0.0, 10.0, 10.0 
2.685e+3, 2.65e+2, -343000.0, -343000.0, 0.0, 0.0, 0.0, -343000.0, -343000.0, 0.0, 10.0, 10.0 
2.685e+3, 2.75e+2, -245000.0, -245000.0, 0.0, 0.0, 0.0, -245000.0, -245000.0, 0.0, 10.0, 10.0 
2.685e+3, 2.85e+2, -147000.0, -147000.0, 0.0, 0.0, 0.0, -147000.0, -147000.0, 0.0, 10.0, 10.0 
2.685e+3, 2.95e+2, -49000.0, -49000.0, 0.0, 0.0, 0.0, -49000.0, -49000.0, 0.0, 10.0, 10.0 
2.685e+3, 3.05e+2, 0.0, 0.0, 0.0, 0.0, 0.0, 0.0, 0.0, 0.0, 10.0, 10.0 
2.685e+3, 3.15e+2, 0.0, 0.0, 0.0, 0.0, 0.0, 0.0, 0.0, 0.0, 10.0, 10.0 
2.695e+3, 1.25e+2, -1715000.0, -1715000.0, 0.0, 0.0, 0.0, -1715000.0, -1715000.0, 0.0, 10.0, 10.0 
2.695e+3, 1.35e+2, -1617000.0, -1617000.0, 0.0, 0.0, 0.0, -1617000.0, -1617000.0, 0.0, 10.0, 10.0 
2.695e+3, 1.45e+2, -1519000.0, -1519000.0, 0.0, 0.0, 0.0, -1519000.0, -1519000.0, 0.0, 10.0, 10.0 
2.695e+3, 1.55e+2, -1421000.0, -1421000.0, 0.0, 0.0, 0.0, -1421000.0, -1421000.0, 0.0, 10.0, 10.0 
2.695e+3, 1.65e+2, -1323000.0, -1323000.0, 0.0, 0.0, 0.0, -1323000.0, -1323000.0, 0.0, 10.0, 10.0 
2.695e+3, 1.75e+2, -1225000.0, -1225000.0, 0.0, 0.0, 0.0, -1225000.0, -1225000.0, 0.0, 10.0, 10.0 
2.695e+3, 1.85e+2, -1127000.0, -1127000.0, 0.0, 0.0, 0.0, -1127000.0, -1127000.0, 0.0, 10.0, 10.0 
2.695e+3, 1.95e+2, -1029000.0, -1029000.0, 0.0, 0.0, 0.0, -1029000.0, -1029000.0, 0.0, 10.0, 10.0 
2.695e+3, 2.05e+2, -931000.0, -931000.0, 0.0, 0.0, 0.0, -931000.0, -931000.0, 0.0, 10.0, 10.0 
2.695e+3, 2.15e+2, -833000.0, -833000.0, 0.0, 0.0, 0.0, -833000.0, -833000.0, 0.0, 10.0, 10.0 
2.695e+3, 2.25e+2, -735000.0, -735000.0, 0.0, 0.0, 0.0, -735000.0, -735000.0, 0.0, 10.0, 10.0 
2.695e+3, 2.35e+2, -637000.0, -637000.0, 0.0, 0.0, 0.0, -637000.0, -637000.0, 0.0, 10.0, 10.0 
2.695e+3, 2.45e+2, -539000.0, -539000.0, 0.0, 0.0, 0.0, -539000.0, -539000.0, 0.0, 10.0, 10.0 
2.695e+3, 2.55e+2, -441000.0, -441000.0, 0.0, 0.0, 0.0, -441000.0, -441000.0, 0.0, 10.0, 10.0 
2.695e+3, 2.65e+2, -343000.0, -343000.0, 0.0, 0.0, 0.0, -343000.0, -343000.0, 0.0, 10.0, 10.0 
2.695e+3, 2.75e+2, -245000.0, -245000.0, 0.0, 0.0, 0.0, -245000.0, -245000.0, 0.0, 10.0, 10.0 
2.695e+3, 2.85e+2, -147000.0, -147000.0, 0.0, 0.0, 0.0, -147000.0, -147000.0, 0.0, 10.0, 10.0 
2.695e+3, 2.95e+2, -49000.0, -49000.0, 0.0, 0.0, 0.0, -49000.0, -49000.0, 0.0, 10.0, 10.0 
2.695e+3, 3.05e+2, 0.0, 0.0, 0.0, 0.0, 0.0, 0.0, 0.0, 0.0, 10.0, 10.0 
2.695e+3, 3.15e+2, 0.0, 0.0, 0.0, 0.0, 0.0, 0.0, 0.0, 0.0, 10.0, 10.0 
2.705e+3, 1.25e+2, -1715000.0, -1715000.0, 0.0, 0.0, 0.0, -1715000.0, -1715000.0, 0.0, 10.0, 10.0 
2.705e+3, 1.35e+2, -1617000.0, -1617000.0, 0.0, 0.0, 0.0, -1617000.0, -1617000.0, 0.0, 10.0, 10.0 
2.705e+3, 1.45e+2, -1519000.0, -1519000.0, 0.0, 0.0, 0.0, -1519000.0, -1519000.0, 0.0, 10.0, 10.0 
2.705e+3, 1.55e+2, -1421000.0, -1421000.0, 0.0, 0.0, 0.0, -1421000.0, -1421000.0, 0.0, 10.0, 10.0 
2.705e+3, 1.65e+2, -1323000.0, -1323000.0, 0.0, 0.0, 0.0, -1323000.0, -1323000.0, 0.0, 10.0, 10.0 
2.705e+3, 1.75e+2, -1225000.0, -1225000.0, 0.0, 0.0, 0.0, -1225000.0, -1225000.0, 0.0, 10.0, 10.0 
2.705e+3, 1.85e+2, -1127000.0, -1127000.0, 0.0, 0.0, 0.0, -1127000.0, -1127000.0, 0.0, 10.0, 10.0 
2.705e+3, 1.95e+2, -1029000.0, -1029000.0, 0.0, 0.0, 0.0, -1029000.0, -1029000.0, 0.0, 10.0, 10.0 
2.705e+3, 2.05e+2, -931000.0, -931000.0, 0.0, 0.0, 0.0, -931000.0, -931000.0, 0.0, 10.0, 10.0 
2.705e+3, 2.15e+2, -833000.0, -833000.0, 0.0, 0.0, 0.0, -833000.0, -833000.0, 0.0, 10.0, 10.0 
2.705e+3, 2.25e+2, -735000.0, -735000.0, 0.0, 0.0, 0.0, -735000.0, -735000.0, 0.0, 10.0, 10.0 
2.705e+3, 2.35e+2, -637000.0, -637000.0, 0.0, 0.0, 0.0, -637000.0, -637000.0, 0.0, 10.0, 10.0 
2.705e+3, 2.45e+2, -539000.0, -539000.0, 0.0, 0.0, 0.0, -539000.0, -539000.0, 0.0, 10.0, 10.0 
2.705e+3, 2.55e+2, -441000.0, -441000.0, 0.0, 0.0, 0.0, -441000.0, -441000.0, 0.0, 10.0, 10.0 
2.705e+3, 2.65e+2, -343000.0, -343000.0, 0.0, 0.0, 0.0, -343000.0, -343000.0, 0.0, 10.0, 10.0 
2.705e+3, 2.75e+2, -245000.0, -245000.0, 0.0, 0.0, 0.0, -245000.0, -245000.0, 0.0, 10.0, 10.0 
2.705e+3, 2.85e+2, -147000.0, -147000.0, 0.0, 0.0, 0.0, -147000.0, -147000.0, 0.0, 10.0, 10.0 
2.705e+3, 2.95e+2, -49000.0, -49000.0, 0.0, 0.0, 0.0, -49000.0, -49000.0, 0.0, 10.0, 10.0 
2.705e+3, 3.05e+2, 0.0, 0.0, 0.0, 0.0, 0.0, 0.0, 0.0, 0.0, 10.0, 10.0 
2.705e+3, 3.15e+2, 0.0, 0.0, 0.0, 0.0, 0.0, 0.0, 0.0, 0.0, 10.0, 10.0 
2.715e+3, 1.25e+2, -1715000.0, -1715000.0, 0.0, 0.0, 0.0, -1715000.0, -1715000.0, 0.0, 10.0, 10.0 
2.715e+3, 1.35e+2, -1617000.0, -1617000.0, 0.0, 0.0, 0.0, -1617000.0, -1617000.0, 0.0, 10.0, 10.0 
2.715e+3, 1.45e+2, -1519000.0, -1519000.0, 0.0, 0.0, 0.0, -1519000.0, -1519000.0, 0.0, 10.0, 10.0 
2.715e+3, 1.55e+2, -1421000.0, -1421000.0, 0.0, 0.0, 0.0, -1421000.0, -1421000.0, 0.0, 10.0, 10.0 
2.715e+3, 1.65e+2, -1323000.0, -1323000.0, 0.0, 0.0, 0.0, -1323000.0, -1323000.0, 0.0, 10.0, 10.0 
2.715e+3, 1.75e+2, -1225000.0, -1225000.0, 0.0, 0.0, 0.0, -1225000.0, -1225000.0, 0.0, 10.0, 10.0 
2.715e+3, 1.85e+2, -1127000.0, -1127000.0, 0.0, 0.0, 0.0, -1127000.0, -1127000.0, 0.0, 10.0, 10.0 
2.715e+3, 1.95e+2, -1029000.0, -1029000.0, 0.0, 0.0, 0.0, -1029000.0, -1029000.0, 0.0, 10.0, 10.0 
2.715e+3, 2.05e+2, -931000.0, -931000.0, 0.0, 0.0, 0.0, -931000.0, -931000.0, 0.0, 10.0, 10.0 
2.715e+3, 2.15e+2, -833000.0, -833000.0, 0.0, 0.0, 0.0, -833000.0, -833000.0, 0.0, 10.0, 10.0 
2.715e+3, 2.25e+2, -735000.0, -735000.0, 0.0, 0.0, 0.0, -735000.0, -735000.0, 0.0, 10.0, 10.0 
2.715e+3, 2.35e+2, -637000.0, -637000.0, 0.0, 0.0, 0.0, -637000.0, -637000.0, 0.0, 10.0, 10.0 
2.715e+3, 2.45e+2, -539000.0, -539000.0, 0.0, 0.0, 0.0, -539000.0, -539000.0, 0.0, 10.0, 10.0 
2.715e+3, 2.55e+2, -441000.0, -441000.0, 0.0, 0.0, 0.0, -441000.0, -441000.0, 0.0, 10.0, 10.0 
2.715e+3, 2.65e+2, -343000.0, -343000.0, 0.0, 0.0, 0.0, -343000.0, -343000.0, 0.0, 10.0, 10.0 
2.715e+3, 2.75e+2, -245000.0, -245000.0, 0.0, 0.0, 0.0, -245000.0, -245000.0, 0.0, 10.0, 10.0 
2.715e+3, 2.85e+2, -147000.0, -147000.0, 0.0, 0.0, 0.0, -147000.0, -147000.0, 0.0, 10.0, 10.0 
2.715e+3, 2.95e+2, -49000.0, -49000.0, 0.0, 0.0, 0.0, -49000.0, -49000.0, 0.0, 10.0, 10.0 
2.715e+3, 3.05e+2, 0.0, 0.0, 0.0, 0.0, 0.0, 0.0, 0.0, 0.0, 10.0, 10.0 
2.715e+3, 3.15e+2, 0.0, 0.0, 0.0, 0.0, 0.0, 0.0, 0.0, 0.0, 10.0, 10.0 
2.725e+3, 1.25e+2, -1715000.0, -1715000.0, 0.0, 0.0, 0.0, -1715000.0, -1715000.0, 0.0, 10.0, 10.0 
2.725e+3, 1.35e+2, -1617000.0, -1617000.0, 0.0, 0.0, 0.0, -1617000.0, -1617000.0, 0.0, 10.0, 10.0 
2.725e+3, 1.45e+2, -1519000.0, -1519000.0, 0.0, 0.0, 0.0, -1519000.0, -1519000.0, 0.0, 10.0, 10.0 
2.725e+3, 1.55e+2, -1421000.0, -1421000.0, 0.0, 0.0, 0.0, -1421000.0, -1421000.0, 0.0, 10.0, 10.0 
2.725e+3, 1.65e+2, -1323000.0, -1323000.0, 0.0, 0.0, 0.0, -1323000.0, -1323000.0, 0.0, 10.0, 10.0 
2.725e+3, 1.75e+2, -1225000.0, -1225000.0, 0.0, 0.0, 0.0, -1225000.0, -1225000.0, 0.0, 10.0, 10.0 
2.725e+3, 1.85e+2, -1127000.0, -1127000.0, 0.0, 0.0, 0.0, -1127000.0, -1127000.0, 0.0, 10.0, 10.0 
2.725e+3, 1.95e+2, -1029000.0, -1029000.0, 0.0, 0.0, 0.0, -1029000.0, -1029000.0, 0.0, 10.0, 10.0 
2.725e+3, 2.05e+2, -931000.0, -931000.0, 0.0, 0.0, 0.0, -931000.0, -931000.0, 0.0, 10.0, 10.0 
2.725e+3, 2.15e+2, -833000.0, -833000.0, 0.0, 0.0, 0.0, -833000.0, -833000.0, 0.0, 10.0, 10.0 
2.725e+3, 2.25e+2, -735000.0, -735000.0, 0.0, 0.0, 0.0, -735000.0, -735000.0, 0.0, 10.0, 10.0 
2.725e+3, 2.35e+2, -637000.0, -637000.0, 0.0, 0.0, 0.0, -637000.0, -637000.0, 0.0, 10.0, 10.0 
2.725e+3, 2.45e+2, -539000.0, -539000.0, 0.0, 0.0, 0.0, -539000.0, -539000.0, 0.0, 10.0, 10.0 
2.725e+3, 2.55e+2, -441000.0, -441000.0, 0.0, 0.0, 0.0, -441000.0, -441000.0, 0.0, 10.0, 10.0 
2.725e+3, 2.65e+2, -343000.0, -343000.0, 0.0, 0.0, 0.0, -343000.0, -343000.0, 0.0, 10.0, 10.0 
2.725e+3, 2.75e+2, -245000.0, -245000.0, 0.0, 0.0, 0.0, -245000.0, -245000.0, 0.0, 10.0, 10.0 
2.725e+3, 2.85e+2, -147000.0, -147000.0, 0.0, 0.0, 0.0, -147000.0, -147000.0, 0.0, 10.0, 10.0 
2.725e+3, 2.95e+2, -49000.0, -49000.0, 0.0, 0.0, 0.0, -49000.0, -49000.0, 0.0, 10.0, 10.0 
2.725e+3, 3.05e+2, 0.0, 0.0, 0.0, 0.0, 0.0, 0.0, 0.0, 0.0, 10.0, 10.0 
2.725e+3, 3.15e+2, 0.0, 0.0, 0.0, 0.0, 0.0, 0.0, 0.0, 0.0, 10.0, 10.0 
2.735e+3, 1.25e+2, -1715000.0, -1715000.0, 0.0, 0.0, 0.0, -1715000.0, -1715000.0, 0.0, 10.0, 10.0 
2.735e+3, 1.35e+2, -1617000.0, -1617000.0, 0.0, 0.0, 0.0, -1617000.0, -1617000.0, 0.0, 10.0, 10.0 
2.735e+3, 1.45e+2, -1519000.0, -1519000.0, 0.0, 0.0, 0.0, -1519000.0, -1519000.0, 0.0, 10.0, 10.0 
2.735e+3, 1.55e+2, -1421000.0, -1421000.0, 0.0, 0.0, 0.0, -1421000.0, -1421000.0, 0.0, 10.0, 10.0 
2.735e+3, 1.65e+2, -1323000.0, -1323000.0, 0.0, 0.0, 0.0, -1323000.0, -1323000.0, 0.0, 10.0, 10.0 
2.735e+3, 1.75e+2, -1225000.0, -1225000.0, 0.0, 0.0, 0.0, -1225000.0, -1225000.0, 0.0, 10.0, 10.0 
2.735e+3, 1.85e+2, -1127000.0, -1127000.0, 0.0, 0.0, 0.0, -1127000.0, -1127000.0, 0.0, 10.0, 10.0 
2.735e+3, 1.95e+2, -1029000.0, -1029000.0, 0.0, 0.0, 0.0, -1029000.0, -1029000.0, 0.0, 10.0, 10.0 
2.735e+3, 2.05e+2, -931000.0, -931000.0, 0.0, 0.0, 0.0, -931000.0, -931000.0, 0.0, 10.0, 10.0 
2.735e+3, 2.15e+2, -833000.0, -833000.0, 0.0, 0.0, 0.0, -833000.0, -833000.0, 0.0, 10.0, 10.0 
2.735e+3, 2.25e+2, -735000.0, -735000.0, 0.0, 0.0, 0.0, -735000.0, -735000.0, 0.0, 10.0, 10.0 
2.735e+3, 2.35e+2, -637000.0, -637000.0, 0.0, 0.0, 0.0, -637000.0, -637000.0, 0.0, 10.0, 10.0 
2.735e+3, 2.45e+2, -539000.0, -539000.0, 0.0, 0.0, 0.0, -539000.0, -539000.0, 0.0, 10.0, 10.0 
2.735e+3, 2.55e+2, -441000.0, -441000.0, 0.0, 0.0, 0.0, -441000.0, -441000.0, 0.0, 10.0, 10.0 
2.735e+3, 2.65e+2, -343000.0, -343000.0, 0.0, 0.0, 0.0, -343000.0, -343000.0, 0.0, 10.0, 10.0 
2.735e+3, 2.75e+2, -245000.0, -245000.0, 0.0, 0.0, 0.0, -245000.0, -245000.0, 0.0, 10.0, 10.0 
2.735e+3, 2.85e+2, -147000.0, -147000.0, 0.0, 0.0, 0.0, -147000.0, -147000.0, 0.0, 10.0, 10.0 
2.735e+3, 2.95e+2, -49000.0, -49000.0, 0.0, 0.0, 0.0, -49000.0, -49000.0, 0.0, 10.0, 10.0 
2.735e+3, 3.05e+2, 0.0, 0.0, 0.0, 0.0, 0.0, 0.0, 0.0, 0.0, 10.0, 10.0 
2.735e+3, 3.15e+2, 0.0, 0.0, 0.0, 0.0, 0.0, 0.0, 0.0, 0.0, 10.0, 10.0 
2.745e+3, 1.25e+2, -1715000.0, -1715000.0, 0.0, 0.0, 0.0, -1715000.0, -1715000.0, 0.0, 10.0, 10.0 
2.745e+3, 1.35e+2, -1617000.0, -1617000.0, 0.0, 0.0, 0.0, -1617000.0, -1617000.0, 0.0, 10.0, 10.0 
2.745e+3, 1.45e+2, -1519000.0, -1519000.0, 0.0, 0.0, 0.0, -1519000.0, -1519000.0, 0.0, 10.0, 10.0 
2.745e+3, 1.55e+2, -1421000.0, -1421000.0, 0.0, 0.0, 0.0, -1421000.0, -1421000.0, 0.0, 10.0, 10.0 
2.745e+3, 1.65e+2, -1323000.0, -1323000.0, 0.0, 0.0, 0.0, -1323000.0, -1323000.0, 0.0, 10.0, 10.0 
2.745e+3, 1.75e+2, -1225000.0, -1225000.0, 0.0, 0.0, 0.0, -1225000.0, -1225000.0, 0.0, 10.0, 10.0 
2.745e+3, 1.85e+2, -1127000.0, -1127000.0, 0.0, 0.0, 0.0, -1127000.0, -1127000.0, 0.0, 10.0, 10.0 
2.745e+3, 1.95e+2, -1029000.0, -1029000.0, 0.0, 0.0, 0.0, -1029000.0, -1029000.0, 0.0, 10.0, 10.0 
2.745e+3, 2.05e+2, -931000.0, -931000.0, 0.0, 0.0, 0.0, -931000.0, -931000.0, 0.0, 10.0, 10.0 
2.745e+3, 2.15e+2, -833000.0, -833000.0, 0.0, 0.0, 0.0, -833000.0, -833000.0, 0.0, 10.0, 10.0 
2.745e+3, 2.25e+2, -735000.0, -735000.0, 0.0, 0.0, 0.0, -735000.0, -735000.0, 0.0, 10.0, 10.0 
2.745e+3, 2.35e+2, -637000.0, -637000.0, 0.0, 0.0, 0.0, -637000.0, -637000.0, 0.0, 10.0, 10.0 
2.745e+3, 2.45e+2, -539000.0, -539000.0, 0.0, 0.0, 0.0, -539000.0, -539000.0, 0.0, 10.0, 10.0 
2.745e+3, 2.55e+2, -441000.0, -441000.0, 0.0, 0.0, 0.0, -441000.0, -441000.0, 0.0, 10.0, 10.0 
2.745e+3, 2.65e+2, -343000.0, -343000.0, 0.0, 0.0, 0.0, -343000.0, -343000.0, 0.0, 10.0, 10.0 
2.745e+3, 2.75e+2, -245000.0, -245000.0, 0.0, 0.0, 0.0, -245000.0, -245000.0, 0.0, 10.0, 10.0 
2.745e+3, 2.85e+2, -147000.0, -147000.0, 0.0, 0.0, 0.0, -147000.0, -147000.0, 0.0, 10.0, 10.0 
2.745e+3, 2.95e+2, -49000.0, -49000.0, 0.0, 0.0, 0.0, -49000.0, -49000.0, 0.0, 10.0, 10.0 
2.745e+3, 3.05e+2, 0.0, 0.0, 0.0, 0.0, 0.0, 0.0, 0.0, 0.0, 10.0, 10.0 
2.745e+3, 3.15e+2, 0.0, 0.0, 0.0, 0.0, 0.0, 0.0, 0.0, 0.0, 10.0, 10.0 
2.755e+3, 1.25e+2, -1715000.0, -1715000.0, 0.0, 0.0, 0.0, -1715000.0, -1715000.0, 0.0, 10.0, 10.0 
2.755e+3, 1.35e+2, -1617000.0, -1617000.0, 0.0, 0.0, 0.0, -1617000.0, -1617000.0, 0.0, 10.0, 10.0 
2.755e+3, 1.45e+2, -1519000.0, -1519000.0, 0.0, 0.0, 0.0, -1519000.0, -1519000.0, 0.0, 10.0, 10.0 
2.755e+3, 1.55e+2, -1421000.0, -1421000.0, 0.0, 0.0, 0.0, -1421000.0, -1421000.0, 0.0, 10.0, 10.0 
2.755e+3, 1.65e+2, -1323000.0, -1323000.0, 0.0, 0.0, 0.0, -1323000.0, -1323000.0, 0.0, 10.0, 10.0 
2.755e+3, 1.75e+2, -1225000.0, -1225000.0, 0.0, 0.0, 0.0, -1225000.0, -1225000.0, 0.0, 10.0, 10.0 
2.755e+3, 1.85e+2, -1127000.0, -1127000.0, 0.0, 0.0, 0.0, -1127000.0, -1127000.0, 0.0, 10.0, 10.0 
2.755e+3, 1.95e+2, -1029000.0, -1029000.0, 0.0, 0.0, 0.0, -1029000.0, -1029000.0, 0.0, 10.0, 10.0 
2.755e+3, 2.05e+2, -931000.0, -931000.0, 0.0, 0.0, 0.0, -931000.0, -931000.0, 0.0, 10.0, 10.0 
2.755e+3, 2.15e+2, -833000.0, -833000.0, 0.0, 0.0, 0.0, -833000.0, -833000.0, 0.0, 10.0, 10.0 
2.755e+3, 2.25e+2, -735000.0, -735000.0, 0.0, 0.0, 0.0, -735000.0, -735000.0, 0.0, 10.0, 10.0 
2.755e+3, 2.35e+2, -637000.0, -637000.0, 0.0, 0.0, 0.0, -637000.0, -637000.0, 0.0, 10.0, 10.0 
2.755e+3, 2.45e+2, -539000.0, -539000.0, 0.0, 0.0, 0.0, -539000.0, -539000.0, 0.0, 10.0, 10.0 
2.755e+3, 2.55e+2, -441000.0, -441000.0, 0.0, 0.0, 0.0, -441000.0, -441000.0, 0.0, 10.0, 10.0 
2.755e+3, 2.65e+2, -343000.0, -343000.0, 0.0, 0.0, 0.0, -343000.0, -343000.0, 0.0, 10.0, 10.0 
2.755e+3, 2.75e+2, -245000.0, -245000.0, 0.0, 0.0, 0.0, -245000.0, -245000.0, 0.0, 10.0, 10.0 
2.755e+3, 2.85e+2, -147000.0, -147000.0, 0.0, 0.0, 0.0, -147000.0, -147000.0, 0.0, 10.0, 10.0 
2.755e+3, 2.95e+2, -49000.0, -49000.0, 0.0, 0.0, 0.0, -49000.0, -49000.0, 0.0, 10.0, 10.0 
2.755e+3, 3.05e+2, 0.0, 0.0, 0.0, 0.0, 0.0, 0.0, 0.0, 0.0, 10.0, 10.0 
2.755e+3, 3.15e+2, 0.0, 0.0, 0.0, 0.0, 0.0, 0.0, 0.0, 0.0, 10.0, 10.0 
2.765e+3, 1.25e+2, -1715000.0, -1715000.0, 0.0, 0.0, 0.0, -1715000.0, -1715000.0, 0.0, 10.0, 10.0 
2.765e+3, 1.35e+2, -1617000.0, -1617000.0, 0.0, 0.0, 0.0, -1617000.0, -1617000.0, 0.0, 10.0, 10.0 
2.765e+3, 1.45e+2, -1519000.0, -1519000.0, 0.0, 0.0, 0.0, -1519000.0, -1519000.0, 0.0, 10.0, 10.0 
2.765e+3, 1.55e+2, -1421000.0, -1421000.0, 0.0, 0.0, 0.0, -1421000.0, -1421000.0, 0.0, 10.0, 10.0 
2.765e+3, 1.65e+2, -1323000.0, -1323000.0, 0.0, 0.0, 0.0, -1323000.0, -1323000.0, 0.0, 10.0, 10.0 
2.765e+3, 1.75e+2, -1225000.0, -1225000.0, 0.0, 0.0, 0.0, -1225000.0, -1225000.0, 0.0, 10.0, 10.0 
2.765e+3, 1.85e+2, -1127000.0, -1127000.0, 0.0, 0.0, 0.0, -1127000.0, -1127000.0, 0.0, 10.0, 10.0 
2.765e+3, 1.95e+2, -1029000.0, -1029000.0, 0.0, 0.0, 0.0, -1029000.0, -1029000.0, 0.0, 10.0, 10.0 
2.765e+3, 2.05e+2, -931000.0, -931000.0, 0.0, 0.0, 0.0, -931000.0, -931000.0, 0.0, 10.0, 10.0 
2.765e+3, 2.15e+2, -833000.0, -833000.0, 0.0, 0.0, 0.0, -833000.0, -833000.0, 0.0, 10.0, 10.0 
2.765e+3, 2.25e+2, -735000.0, -735000.0, 0.0, 0.0, 0.0, -735000.0, -735000.0, 0.0, 10.0, 10.0 
2.765e+3, 2.35e+2, -637000.0, -637000.0, 0.0, 0.0, 0.0, -637000.0, -637000.0, 0.0, 10.0, 10.0 
2.765e+3, 2.45e+2, -539000.0, -539000.0, 0.0, 0.0, 0.0, -539000.0, -539000.0, 0.0, 10.0, 10.0 
2.765e+3, 2.55e+2, -441000.0, -441000.0, 0.0, 0.0, 0.0, -441000.0, -441000.0, 0.0, 10.0, 10.0 
2.765e+3, 2.65e+2, -343000.0, -343000.0, 0.0, 0.0, 0.0, -343000.0, -343000.0, 0.0, 10.0, 10.0 
2.765e+3, 2.75e+2, -245000.0, -245000.0, 0.0, 0.0, 0.0, -245000.0, -245000.0, 0.0, 10.0, 10.0 
2.765e+3, 2.85e+2, -147000.0, -147000.0, 0.0, 0.0, 0.0, -147000.0, -147000.0, 0.0, 10.0, 10.0 
2.765e+3, 2.95e+2, -49000.0, -49000.0, 0.0, 0.0, 0.0, -49000.0, -49000.0, 0.0, 10.0, 10.0 
2.765e+3, 3.05e+2, 0.0, 0.0, 0.0, 0.0, 0.0, 0.0, 0.0, 0.0, 10.0, 10.0 
2.765e+3, 3.15e+2, 0.0, 0.0, 0.0, 0.0, 0.0, 0.0, 0.0, 0.0, 10.0, 10.0 
2.775e+3, 1.25e+2, -1715000.0, -1715000.0, 0.0, 0.0, 0.0, -1715000.0, -1715000.0, 0.0, 10.0, 10.0 
2.775e+3, 1.35e+2, -1617000.0, -1617000.0, 0.0, 0.0, 0.0, -1617000.0, -1617000.0, 0.0, 10.0, 10.0 
2.775e+3, 1.45e+2, -1519000.0, -1519000.0, 0.0, 0.0, 0.0, -1519000.0, -1519000.0, 0.0, 10.0, 10.0 
2.775e+3, 1.55e+2, -1421000.0, -1421000.0, 0.0, 0.0, 0.0, -1421000.0, -1421000.0, 0.0, 10.0, 10.0 
2.775e+3, 1.65e+2, -1323000.0, -1323000.0, 0.0, 0.0, 0.0, -1323000.0, -1323000.0, 0.0, 10.0, 10.0 
2.775e+3, 1.75e+2, -1225000.0, -1225000.0, 0.0, 0.0, 0.0, -1225000.0, -1225000.0, 0.0, 10.0, 10.0 
2.775e+3, 1.85e+2, -1127000.0, -1127000.0, 0.0, 0.0, 0.0, -1127000.0, -1127000.0, 0.0, 10.0, 10.0 
2.775e+3, 1.95e+2, -1029000.0, -1029000.0, 0.0, 0.0, 0.0, -1029000.0, -1029000.0, 0.0, 10.0, 10.0 
2.775e+3, 2.05e+2, -931000.0, -931000.0, 0.0, 0.0, 0.0, -931000.0, -931000.0, 0.0, 10.0, 10.0 
2.775e+3, 2.15e+2, -833000.0, -833000.0, 0.0, 0.0, 0.0, -833000.0, -833000.0, 0.0, 10.0, 10.0 
2.775e+3, 2.25e+2, -735000.0, -735000.0, 0.0, 0.0, 0.0, -735000.0, -735000.0, 0.0, 10.0, 10.0 
2.775e+3, 2.35e+2, -637000.0, -637000.0, 0.0, 0.0, 0.0, -637000.0, -637000.0, 0.0, 10.0, 10.0 
2.775e+3, 2.45e+2, -539000.0, -539000.0, 0.0, 0.0, 0.0, -539000.0, -539000.0, 0.0, 10.0, 10.0 
2.775e+3, 2.55e+2, -441000.0, -441000.0, 0.0, 0.0, 0.0, -441000.0, -441000.0, 0.0, 10.0, 10.0 
2.775e+3, 2.65e+2, -343000.0, -343000.0, 0.0, 0.0, 0.0, -343000.0, -343000.0, 0.0, 10.0, 10.0 
2.775e+3, 2.75e+2, -245000.0, -245000.0, 0.0, 0.0, 0.0, -245000.0, -245000.0, 0.0, 10.0, 10.0 
2.775e+3, 2.85e+2, -147000.0, -147000.0, 0.0, 0.0, 0.0, -147000.0, -147000.0, 0.0, 10.0, 10.0 
2.775e+3, 2.95e+2, -49000.0, -49000.0, 0.0, 0.0, 0.0, -49000.0, -49000.0, 0.0, 10.0, 10.0 
2.775e+3, 3.05e+2, 0.0, 0.0, 0.0, 0.0, 0.0, 0.0, 0.0, 0.0, 10.0, 10.0 
2.775e+3, 3.15e+2, 0.0, 0.0, 0.0, 0.0, 0.0, 0.0, 0.0, 0.0, 10.0, 10.0 
2.785e+3, 1.25e+2, -1715000.0, -1715000.0, 0.0, 0.0, 0.0, -1715000.0, -1715000.0, 0.0, 10.0, 10.0 
2.785e+3, 1.35e+2, -1617000.0, -1617000.0, 0.0, 0.0, 0.0, -1617000.0, -1617000.0, 0.0, 10.0, 10.0 
2.785e+3, 1.45e+2, -1519000.0, -1519000.0, 0.0, 0.0, 0.0, -1519000.0, -1519000.0, 0.0, 10.0, 10.0 
2.785e+3, 1.55e+2, -1421000.0, -1421000.0, 0.0, 0.0, 0.0, -1421000.0, -1421000.0, 0.0, 10.0, 10.0 
2.785e+3, 1.65e+2, -1323000.0, -1323000.0, 0.0, 0.0, 0.0, -1323000.0, -1323000.0, 0.0, 10.0, 10.0 
2.785e+3, 1.75e+2, -1225000.0, -1225000.0, 0.0, 0.0, 0.0, -1225000.0, -1225000.0, 0.0, 10.0, 10.0 
2.785e+3, 1.85e+2, -1127000.0, -1127000.0, 0.0, 0.0, 0.0, -1127000.0, -1127000.0, 0.0, 10.0, 10.0 
2.785e+3, 1.95e+2, -1029000.0, -1029000.0, 0.0, 0.0, 0.0, -1029000.0, -1029000.0, 0.0, 10.0, 10.0 
2.785e+3, 2.05e+2, -931000.0, -931000.0, 0.0, 0.0, 0.0, -931000.0, -931000.0, 0.0, 10.0, 10.0 
2.785e+3, 2.15e+2, -833000.0, -833000.0, 0.0, 0.0, 0.0, -833000.0, -833000.0, 0.0, 10.0, 10.0 
2.785e+3, 2.25e+2, -735000.0, -735000.0, 0.0, 0.0, 0.0, -735000.0, -735000.0, 0.0, 10.0, 10.0 
2.785e+3, 2.35e+2, -637000.0, -637000.0, 0.0, 0.0, 0.0, -637000.0, -637000.0, 0.0, 10.0, 10.0 
2.785e+3, 2.45e+2, -539000.0, -539000.0, 0.0, 0.0, 0.0, -539000.0, -539000.0, 0.0, 10.0, 10.0 
2.785e+3, 2.55e+2, -441000.0, -441000.0, 0.0, 0.0, 0.0, -441000.0, -441000.0, 0.0, 10.0, 10.0 
2.785e+3, 2.65e+2, -343000.0, -343000.0, 0.0, 0.0, 0.0, -343000.0, -343000.0, 0.0, 10.0, 10.0 
2.785e+3, 2.75e+2, -245000.0, -245000.0, 0.0, 0.0, 0.0, -245000.0, -245000.0, 0.0, 10.0, 10.0 
2.785e+3, 2.85e+2, -147000.0, -147000.0, 0.0, 0.0, 0.0, -147000.0, -147000.0, 0.0, 10.0, 10.0 
2.785e+3, 2.95e+2, -49000.0, -49000.0, 0.0, 0.0, 0.0, -49000.0, -49000.0, 0.0, 10.0, 10.0 
2.785e+3, 3.05e+2, 0.0, 0.0, 0.0, 0.0, 0.0, 0.0, 0.0, 0.0, 10.0, 10.0 
2.785e+3, 3.15e+2, 0.0, 0.0, 0.0, 0.0, 0.0, 0.0, 0.0, 0.0, 10.0, 10.0 
2.795e+3, 1.25e+2, -1715000.0, -1715000.0, 0.0, 0.0, 0.0, -1715000.0, -1715000.0, 0.0, 10.0, 10.0 
2.795e+3, 1.35e+2, -1617000.0, -1617000.0, 0.0, 0.0, 0.0, -1617000.0, -1617000.0, 0.0, 10.0, 10.0 
2.795e+3, 1.45e+2, -1519000.0, -1519000.0, 0.0, 0.0, 0.0, -1519000.0, -1519000.0, 0.0, 10.0, 10.0 
2.795e+3, 1.55e+2, -1421000.0, -1421000.0, 0.0, 0.0, 0.0, -1421000.0, -1421000.0, 0.0, 10.0, 10.0 
2.795e+3, 1.65e+2, -1323000.0, -1323000.0, 0.0, 0.0, 0.0, -1323000.0, -1323000.0, 0.0, 10.0, 10.0 
2.795e+3, 1.75e+2, -1225000.0, -1225000.0, 0.0, 0.0, 0.0, -1225000.0, -1225000.0, 0.0, 10.0, 10.0 
2.795e+3, 1.85e+2, -1127000.0, -1127000.0, 0.0, 0.0, 0.0, -1127000.0, -1127000.0, 0.0, 10.0, 10.0 
2.795e+3, 1.95e+2, -1029000.0, -1029000.0, 0.0, 0.0, 0.0, -1029000.0, -1029000.0, 0.0, 10.0, 10.0 
2.795e+3, 2.05e+2, -931000.0, -931000.0, 0.0, 0.0, 0.0, -931000.0, -931000.0, 0.0, 10.0, 10.0 
2.795e+3, 2.15e+2, -833000.0, -833000.0, 0.0, 0.0, 0.0, -833000.0, -833000.0, 0.0, 10.0, 10.0 
2.795e+3, 2.25e+2, -735000.0, -735000.0, 0.0, 0.0, 0.0, -735000.0, -735000.0, 0.0, 10.0, 10.0 
2.795e+3, 2.35e+2, -637000.0, -637000.0, 0.0, 0.0, 0.0, -637000.0, -637000.0, 0.0, 10.0, 10.0 
2.795e+3, 2.45e+2, -539000.0, -539000.0, 0.0, 0.0, 0.0, -539000.0, -539000.0, 0.0, 10.0, 10.0 
2.795e+3, 2.55e+2, -441000.0, -441000.0, 0.0, 0.0, 0.0, -441000.0, -441000.0, 0.0, 10.0, 10.0 
2.795e+3, 2.65e+2, -343000.0, -343000.0, 0.0, 0.0, 0.0, -343000.0, -343000.0, 0.0, 10.0, 10.0 
2.795e+3, 2.75e+2, -245000.0, -245000.0, 0.0, 0.0, 0.0, -245000.0, -245000.0, 0.0, 10.0, 10.0 
2.795e+3, 2.85e+2, -147000.0, -147000.0, 0.0, 0.0, 0.0, -147000.0, -147000.0, 0.0, 10.0, 10.0 
2.795e+3, 2.95e+2, -49000.0, -49000.0, 0.0, 0.0, 0.0, -49000.0, -49000.0, 0.0, 10.0, 10.0 
2.795e+3, 3.05e+2, 0.0, 0.0, 0.0, 0.0, 0.0, 0.0, 0.0, 0.0, 10.0, 10.0 
2.795e+3, 3.15e+2, 0.0, 0.0, 0.0, 0.0, 0.0, 0.0, 0.0, 0.0, 10.0, 10.0 
2.805e+3, 1.25e+2, -1715000.0, -1715000.0, 0.0, 0.0, 0.0, -1715000.0, -1715000.0, 0.0, 10.0, 10.0 
2.805e+3, 1.35e+2, -1617000.0, -1617000.0, 0.0, 0.0, 0.0, -1617000.0, -1617000.0, 0.0, 10.0, 10.0 
2.805e+3, 1.45e+2, -1519000.0, -1519000.0, 0.0, 0.0, 0.0, -1519000.0, -1519000.0, 0.0, 10.0, 10.0 
2.805e+3, 1.55e+2, -1421000.0, -1421000.0, 0.0, 0.0, 0.0, -1421000.0, -1421000.0, 0.0, 10.0, 10.0 
2.805e+3, 1.65e+2, -1323000.0, -1323000.0, 0.0, 0.0, 0.0, -1323000.0, -1323000.0, 0.0, 10.0, 10.0 
2.805e+3, 1.75e+2, -1225000.0, -1225000.0, 0.0, 0.0, 0.0, -1225000.0, -1225000.0, 0.0, 10.0, 10.0 
2.805e+3, 1.85e+2, -1127000.0, -1127000.0, 0.0, 0.0, 0.0, -1127000.0, -1127000.0, 0.0, 10.0, 10.0 
2.805e+3, 1.95e+2, -1029000.0, -1029000.0, 0.0, 0.0, 0.0, -1029000.0, -1029000.0, 0.0, 10.0, 10.0 
2.805e+3, 2.05e+2, -931000.0, -931000.0, 0.0, 0.0, 0.0, -931000.0, -931000.0, 0.0, 10.0, 10.0 
2.805e+3, 2.15e+2, -833000.0, -833000.0, 0.0, 0.0, 0.0, -833000.0, -833000.0, 0.0, 10.0, 10.0 
2.805e+3, 2.25e+2, -735000.0, -735000.0, 0.0, 0.0, 0.0, -735000.0, -735000.0, 0.0, 10.0, 10.0 
2.805e+3, 2.35e+2, -637000.0, -637000.0, 0.0, 0.0, 0.0, -637000.0, -637000.0, 0.0, 10.0, 10.0 
2.805e+3, 2.45e+2, -539000.0, -539000.0, 0.0, 0.0, 0.0, -539000.0, -539000.0, 0.0, 10.0, 10.0 
2.805e+3, 2.55e+2, -441000.0, -441000.0, 0.0, 0.0, 0.0, -441000.0, -441000.0, 0.0, 10.0, 10.0 
2.805e+3, 2.65e+2, -343000.0, -343000.0, 0.0, 0.0, 0.0, -343000.0, -343000.0, 0.0, 10.0, 10.0 
2.805e+3, 2.75e+2, -245000.0, -245000.0, 0.0, 0.0, 0.0, -245000.0, -245000.0, 0.0, 10.0, 10.0 
2.805e+3, 2.85e+2, -147000.0, -147000.0, 0.0, 0.0, 0.0, -147000.0, -147000.0, 0.0, 10.0, 10.0 
2.805e+3, 2.95e+2, -49000.0, -49000.0, 0.0, 0.0, 0.0, -49000.0, -49000.0, 0.0, 10.0, 10.0 
2.805e+3, 3.05e+2, 0.0, 0.0, 0.0, 0.0, 0.0, 0.0, 0.0, 0.0, 10.0, 10.0 
2.805e+3, 3.15e+2, 0.0, 0.0, 0.0, 0.0, 0.0, 0.0, 0.0, 0.0, 10.0, 10.0 
2.815e+3, 1.25e+2, -1715000.0, -1715000.0, 0.0, 0.0, 0.0, -1715000.0, -1715000.0, 0.0, 10.0, 10.0 
2.815e+3, 1.35e+2, -1617000.0, -1617000.0, 0.0, 0.0, 0.0, -1617000.0, -1617000.0, 0.0, 10.0, 10.0 
2.815e+3, 1.45e+2, -1519000.0, -1519000.0, 0.0, 0.0, 0.0, -1519000.0, -1519000.0, 0.0, 10.0, 10.0 
2.815e+3, 1.55e+2, -1421000.0, -1421000.0, 0.0, 0.0, 0.0, -1421000.0, -1421000.0, 0.0, 10.0, 10.0 
2.815e+3, 1.65e+2, -1323000.0, -1323000.0, 0.0, 0.0, 0.0, -1323000.0, -1323000.0, 0.0, 10.0, 10.0 
2.815e+3, 1.75e+2, -1225000.0, -1225000.0, 0.0, 0.0, 0.0, -1225000.0, -1225000.0, 0.0, 10.0, 10.0 
2.815e+3, 1.85e+2, -1127000.0, -1127000.0, 0.0, 0.0, 0.0, -1127000.0, -1127000.0, 0.0, 10.0, 10.0 
2.815e+3, 1.95e+2, -1029000.0, -1029000.0, 0.0, 0.0, 0.0, -1029000.0, -1029000.0, 0.0, 10.0, 10.0 
2.815e+3, 2.05e+2, -931000.0, -931000.0, 0.0, 0.0, 0.0, -931000.0, -931000.0, 0.0, 10.0, 10.0 
2.815e+3, 2.15e+2, -833000.0, -833000.0, 0.0, 0.0, 0.0, -833000.0, -833000.0, 0.0, 10.0, 10.0 
2.815e+3, 2.25e+2, -735000.0, -735000.0, 0.0, 0.0, 0.0, -735000.0, -735000.0, 0.0, 10.0, 10.0 
2.815e+3, 2.35e+2, -637000.0, -637000.0, 0.0, 0.0, 0.0, -637000.0, -637000.0, 0.0, 10.0, 10.0 
2.815e+3, 2.45e+2, -539000.0, -539000.0, 0.0, 0.0, 0.0, -539000.0, -539000.0, 0.0, 10.0, 10.0 
2.815e+3, 2.55e+2, -441000.0, -441000.0, 0.0, 0.0, 0.0, -441000.0, -441000.0, 0.0, 10.0, 10.0 
2.815e+3, 2.65e+2, -343000.0, -343000.0, 0.0, 0.0, 0.0, -343000.0, -343000.0, 0.0, 10.0, 10.0 
2.815e+3, 2.75e+2, -245000.0, -245000.0, 0.0, 0.0, 0.0, -245000.0, -245000.0, 0.0, 10.0, 10.0 
2.815e+3, 2.85e+2, -147000.0, -147000.0, 0.0, 0.0, 0.0, -147000.0, -147000.0, 0.0, 10.0, 10.0 
2.815e+3, 2.95e+2, -49000.0, -49000.0, 0.0, 0.0, 0.0, -49000.0, -49000.0, 0.0, 10.0, 10.0 
2.815e+3, 3.05e+2, 0.0, 0.0, 0.0, 0.0, 0.0, 0.0, 0.0, 0.0, 10.0, 10.0 
2.815e+3, 3.15e+2, 0.0, 0.0, 0.0, 0.0, 0.0, 0.0, 0.0, 0.0, 10.0, 10.0 
2.825e+3, 1.25e+2, -1715000.0, -1715000.0, 0.0, 0.0, 0.0, -1715000.0, -1715000.0, 0.0, 10.0, 10.0 
2.825e+3, 1.35e+2, -1617000.0, -1617000.0, 0.0, 0.0, 0.0, -1617000.0, -1617000.0, 0.0, 10.0, 10.0 
2.825e+3, 1.45e+2, -1519000.0, -1519000.0, 0.0, 0.0, 0.0, -1519000.0, -1519000.0, 0.0, 10.0, 10.0 
2.825e+3, 1.55e+2, -1421000.0, -1421000.0, 0.0, 0.0, 0.0, -1421000.0, -1421000.0, 0.0, 10.0, 10.0 
2.825e+3, 1.65e+2, -1323000.0, -1323000.0, 0.0, 0.0, 0.0, -1323000.0, -1323000.0, 0.0, 10.0, 10.0 
2.825e+3, 1.75e+2, -1225000.0, -1225000.0, 0.0, 0.0, 0.0, -1225000.0, -1225000.0, 0.0, 10.0, 10.0 
2.825e+3, 1.85e+2, -1127000.0, -1127000.0, 0.0, 0.0, 0.0, -1127000.0, -1127000.0, 0.0, 10.0, 10.0 
2.825e+3, 1.95e+2, -1029000.0, -1029000.0, 0.0, 0.0, 0.0, -1029000.0, -1029000.0, 0.0, 10.0, 10.0 
2.825e+3, 2.05e+2, -931000.0, -931000.0, 0.0, 0.0, 0.0, -931000.0, -931000.0, 0.0, 10.0, 10.0 
2.825e+3, 2.15e+2, -833000.0, -833000.0, 0.0, 0.0, 0.0, -833000.0, -833000.0, 0.0, 10.0, 10.0 
2.825e+3, 2.25e+2, -735000.0, -735000.0, 0.0, 0.0, 0.0, -735000.0, -735000.0, 0.0, 10.0, 10.0 
2.825e+3, 2.35e+2, -637000.0, -637000.0, 0.0, 0.0, 0.0, -637000.0, -637000.0, 0.0, 10.0, 10.0 
2.825e+3, 2.45e+2, -539000.0, -539000.0, 0.0, 0.0, 0.0, -539000.0, -539000.0, 0.0, 10.0, 10.0 
2.825e+3, 2.55e+2, -441000.0, -441000.0, 0.0, 0.0, 0.0, -441000.0, -441000.0, 0.0, 10.0, 10.0 
2.825e+3, 2.65e+2, -343000.0, -343000.0, 0.0, 0.0, 0.0, -343000.0, -343000.0, 0.0, 10.0, 10.0 
2.825e+3, 2.75e+2, -245000.0, -245000.0, 0.0, 0.0, 0.0, -245000.0, -245000.0, 0.0, 10.0, 10.0 
2.825e+3, 2.85e+2, -147000.0, -147000.0, 0.0, 0.0, 0.0, -147000.0, -147000.0, 0.0, 10.0, 10.0 
2.825e+3, 2.95e+2, -49000.0, -49000.0, 0.0, 0.0, 0.0, -49000.0, -49000.0, 0.0, 10.0, 10.0 
2.825e+3, 3.05e+2, 0.0, 0.0, 0.0, 0.0, 0.0, 0.0, 0.0, 0.0, 10.0, 10.0 
2.825e+3, 3.15e+2, 0.0, 0.0, 0.0, 0.0, 0.0, 0.0, 0.0, 0.0, 10.0, 10.0 
2.835e+3, 1.25e+2, -1715000.0, -1715000.0, 0.0, 0.0, 0.0, -1715000.0, -1715000.0, 0.0, 10.0, 10.0 
2.835e+3, 1.35e+2, -1617000.0, -1617000.0, 0.0, 0.0, 0.0, -1617000.0, -1617000.0, 0.0, 10.0, 10.0 
2.835e+3, 1.45e+2, -1519000.0, -1519000.0, 0.0, 0.0, 0.0, -1519000.0, -1519000.0, 0.0, 10.0, 10.0 
2.835e+3, 1.55e+2, -1421000.0, -1421000.0, 0.0, 0.0, 0.0, -1421000.0, -1421000.0, 0.0, 10.0, 10.0 
2.835e+3, 1.65e+2, -1323000.0, -1323000.0, 0.0, 0.0, 0.0, -1323000.0, -1323000.0, 0.0, 10.0, 10.0 
2.835e+3, 1.75e+2, -1225000.0, -1225000.0, 0.0, 0.0, 0.0, -1225000.0, -1225000.0, 0.0, 10.0, 10.0 
2.835e+3, 1.85e+2, -1127000.0, -1127000.0, 0.0, 0.0, 0.0, -1127000.0, -1127000.0, 0.0, 10.0, 10.0 
2.835e+3, 1.95e+2, -1029000.0, -1029000.0, 0.0, 0.0, 0.0, -1029000.0, -1029000.0, 0.0, 10.0, 10.0 
2.835e+3, 2.05e+2, -931000.0, -931000.0, 0.0, 0.0, 0.0, -931000.0, -931000.0, 0.0, 10.0, 10.0 
2.835e+3, 2.15e+2, -833000.0, -833000.0, 0.0, 0.0, 0.0, -833000.0, -833000.0, 0.0, 10.0, 10.0 
2.835e+3, 2.25e+2, -735000.0, -735000.0, 0.0, 0.0, 0.0, -735000.0, -735000.0, 0.0, 10.0, 10.0 
2.835e+3, 2.35e+2, -637000.0, -637000.0, 0.0, 0.0, 0.0, -637000.0, -637000.0, 0.0, 10.0, 10.0 
2.835e+3, 2.45e+2, -539000.0, -539000.0, 0.0, 0.0, 0.0, -539000.0, -539000.0, 0.0, 10.0, 10.0 
2.835e+3, 2.55e+2, -441000.0, -441000.0, 0.0, 0.0, 0.0, -441000.0, -441000.0, 0.0, 10.0, 10.0 
2.835e+3, 2.65e+2, -343000.0, -343000.0, 0.0, 0.0, 0.0, -343000.0, -343000.0, 0.0, 10.0, 10.0 
2.835e+3, 2.75e+2, -245000.0, -245000.0, 0.0, 0.0, 0.0, -245000.0, -245000.0, 0.0, 10.0, 10.0 
2.835e+3, 2.85e+2, -147000.0, -147000.0, 0.0, 0.0, 0.0, -147000.0, -147000.0, 0.0, 10.0, 10.0 
2.835e+3, 2.95e+2, -49000.0, -49000.0, 0.0, 0.0, 0.0, -49000.0, -49000.0, 0.0, 10.0, 10.0 
2.835e+3, 3.05e+2, 0.0, 0.0, 0.0, 0.0, 0.0, 0.0, 0.0, 0.0, 10.0, 10.0 
2.835e+3, 3.15e+2, 0.0, 0.0, 0.0, 0.0, 0.0, 0.0, 0.0, 0.0, 10.0, 10.0 
2.845e+3, 1.25e+2, -1715000.0, -1715000.0, 0.0, 0.0, 0.0, -1715000.0, -1715000.0, 0.0, 10.0, 10.0 
2.845e+3, 1.35e+2, -1617000.0, -1617000.0, 0.0, 0.0, 0.0, -1617000.0, -1617000.0, 0.0, 10.0, 10.0 
2.845e+3, 1.45e+2, -1519000.0, -1519000.0, 0.0, 0.0, 0.0, -1519000.0, -1519000.0, 0.0, 10.0, 10.0 
2.845e+3, 1.55e+2, -1421000.0, -1421000.0, 0.0, 0.0, 0.0, -1421000.0, -1421000.0, 0.0, 10.0, 10.0 
2.845e+3, 1.65e+2, -1323000.0, -1323000.0, 0.0, 0.0, 0.0, -1323000.0, -1323000.0, 0.0, 10.0, 10.0 
2.845e+3, 1.75e+2, -1225000.0, -1225000.0, 0.0, 0.0, 0.0, -1225000.0, -1225000.0, 0.0, 10.0, 10.0 
2.845e+3, 1.85e+2, -1127000.0, -1127000.0, 0.0, 0.0, 0.0, -1127000.0, -1127000.0, 0.0, 10.0, 10.0 
2.845e+3, 1.95e+2, -1029000.0, -1029000.0, 0.0, 0.0, 0.0, -1029000.0, -1029000.0, 0.0, 10.0, 10.0 
2.845e+3, 2.05e+2, -931000.0, -931000.0, 0.0, 0.0, 0.0, -931000.0, -931000.0, 0.0, 10.0, 10.0 
2.845e+3, 2.15e+2, -833000.0, -833000.0, 0.0, 0.0, 0.0, -833000.0, -833000.0, 0.0, 10.0, 10.0 
2.845e+3, 2.25e+2, -735000.0, -735000.0, 0.0, 0.0, 0.0, -735000.0, -735000.0, 0.0, 10.0, 10.0 
2.845e+3, 2.35e+2, -637000.0, -637000.0, 0.0, 0.0, 0.0, -637000.0, -637000.0, 0.0, 10.0, 10.0 
2.845e+3, 2.45e+2, -539000.0, -539000.0, 0.0, 0.0, 0.0, -539000.0, -539000.0, 0.0, 10.0, 10.0 
2.845e+3, 2.55e+2, -441000.0, -441000.0, 0.0, 0.0, 0.0, -441000.0, -441000.0, 0.0, 10.0, 10.0 
2.845e+3, 2.65e+2, -343000.0, -343000.0, 0.0, 0.0, 0.0, -343000.0, -343000.0, 0.0, 10.0, 10.0 
2.845e+3, 2.75e+2, -245000.0, -245000.0, 0.0, 0.0, 0.0, -245000.0, -245000.0, 0.0, 10.0, 10.0 
2.845e+3, 2.85e+2, -147000.0, -147000.0, 0.0, 0.0, 0.0, -147000.0, -147000.0, 0.0, 10.0, 10.0 
2.845e+3, 2.95e+2, -49000.0, -49000.0, 0.0, 0.0, 0.0, -49000.0, -49000.0, 0.0, 10.0, 10.0 
2.845e+3, 3.05e+2, 0.0, 0.0, 0.0, 0.0, 0.0, 0.0, 0.0, 0.0, 10.0, 10.0 
2.845e+3, 3.15e+2, 0.0, 0.0, 0.0, 0.0, 0.0, 0.0, 0.0, 0.0, 10.0, 10.0 
2.855e+3, 1.25e+2, -1715000.0, -1715000.0, 0.0, 0.0, 0.0, -1715000.0, -1715000.0, 0.0, 10.0, 10.0 
2.855e+3, 1.35e+2, -1617000.0, -1617000.0, 0.0, 0.0, 0.0, -1617000.0, -1617000.0, 0.0, 10.0, 10.0 
2.855e+3, 1.45e+2, -1519000.0, -1519000.0, 0.0, 0.0, 0.0, -1519000.0, -1519000.0, 0.0, 10.0, 10.0 
2.855e+3, 1.55e+2, -1421000.0, -1421000.0, 0.0, 0.0, 0.0, -1421000.0, -1421000.0, 0.0, 10.0, 10.0 
2.855e+3, 1.65e+2, -1323000.0, -1323000.0, 0.0, 0.0, 0.0, -1323000.0, -1323000.0, 0.0, 10.0, 10.0 
2.855e+3, 1.75e+2, -1225000.0, -1225000.0, 0.0, 0.0, 0.0, -1225000.0, -1225000.0, 0.0, 10.0, 10.0 
2.855e+3, 1.85e+2, -1127000.0, -1127000.0, 0.0, 0.0, 0.0, -1127000.0, -1127000.0, 0.0, 10.0, 10.0 
2.855e+3, 1.95e+2, -1029000.0, -1029000.0, 0.0, 0.0, 0.0, -1029000.0, -1029000.0, 0.0, 10.0, 10.0 
2.855e+3, 2.05e+2, -931000.0, -931000.0, 0.0, 0.0, 0.0, -931000.0, -931000.0, 0.0, 10.0, 10.0 
2.855e+3, 2.15e+2, -833000.0, -833000.0, 0.0, 0.0, 0.0, -833000.0, -833000.0, 0.0, 10.0, 10.0 
2.855e+3, 2.25e+2, -735000.0, -735000.0, 0.0, 0.0, 0.0, -735000.0, -735000.0, 0.0, 10.0, 10.0 
2.855e+3, 2.35e+2, -637000.0, -637000.0, 0.0, 0.0, 0.0, -637000.0, -637000.0, 0.0, 10.0, 10.0 
2.855e+3, 2.45e+2, -539000.0, -539000.0, 0.0, 0.0, 0.0, -539000.0, -539000.0, 0.0, 10.0, 10.0 
2.855e+3, 2.55e+2, -441000.0, -441000.0, 0.0, 0.0, 0.0, -441000.0, -441000.0, 0.0, 10.0, 10.0 
2.855e+3, 2.65e+2, -343000.0, -343000.0, 0.0, 0.0, 0.0, -343000.0, -343000.0, 0.0, 10.0, 10.0 
2.855e+3, 2.75e+2, -245000.0, -245000.0, 0.0, 0.0, 0.0, -245000.0, -245000.0, 0.0, 10.0, 10.0 
2.855e+3, 2.85e+2, -147000.0, -147000.0, 0.0, 0.0, 0.0, -147000.0, -147000.0, 0.0, 10.0, 10.0 
2.855e+3, 2.95e+2, -49000.0, -49000.0, 0.0, 0.0, 0.0, -49000.0, -49000.0, 0.0, 10.0, 10.0 
2.855e+3, 3.05e+2, 0.0, 0.0, 0.0, 0.0, 0.0, 0.0, 0.0, 0.0, 10.0, 10.0 
2.855e+3, 3.15e+2, 0.0, 0.0, 0.0, 0.0, 0.0, 0.0, 0.0, 0.0, 10.0, 10.0 
2.865e+3, 1.25e+2, -1715000.0, -1715000.0, 0.0, 0.0, 0.0, -1715000.0, -1715000.0, 0.0, 10.0, 10.0 
2.865e+3, 1.35e+2, -1617000.0, -1617000.0, 0.0, 0.0, 0.0, -1617000.0, -1617000.0, 0.0, 10.0, 10.0 
2.865e+3, 1.45e+2, -1519000.0, -1519000.0, 0.0, 0.0, 0.0, -1519000.0, -1519000.0, 0.0, 10.0, 10.0 
2.865e+3, 1.55e+2, -1421000.0, -1421000.0, 0.0, 0.0, 0.0, -1421000.0, -1421000.0, 0.0, 10.0, 10.0 
2.865e+3, 1.65e+2, -1323000.0, -1323000.0, 0.0, 0.0, 0.0, -1323000.0, -1323000.0, 0.0, 10.0, 10.0 
2.865e+3, 1.75e+2, -1225000.0, -1225000.0, 0.0, 0.0, 0.0, -1225000.0, -1225000.0, 0.0, 10.0, 10.0 
2.865e+3, 1.85e+2, -1127000.0, -1127000.0, 0.0, 0.0, 0.0, -1127000.0, -1127000.0, 0.0, 10.0, 10.0 
2.865e+3, 1.95e+2, -1029000.0, -1029000.0, 0.0, 0.0, 0.0, -1029000.0, -1029000.0, 0.0, 10.0, 10.0 
2.865e+3, 2.05e+2, -931000.0, -931000.0, 0.0, 0.0, 0.0, -931000.0, -931000.0, 0.0, 10.0, 10.0 
2.865e+3, 2.15e+2, -833000.0, -833000.0, 0.0, 0.0, 0.0, -833000.0, -833000.0, 0.0, 10.0, 10.0 
2.865e+3, 2.25e+2, -735000.0, -735000.0, 0.0, 0.0, 0.0, -735000.0, -735000.0, 0.0, 10.0, 10.0 
2.865e+3, 2.35e+2, -637000.0, -637000.0, 0.0, 0.0, 0.0, -637000.0, -637000.0, 0.0, 10.0, 10.0 
2.865e+3, 2.45e+2, -539000.0, -539000.0, 0.0, 0.0, 0.0, -539000.0, -539000.0, 0.0, 10.0, 10.0 
2.865e+3, 2.55e+2, -441000.0, -441000.0, 0.0, 0.0, 0.0, -441000.0, -441000.0, 0.0, 10.0, 10.0 
2.865e+3, 2.65e+2, -343000.0, -343000.0, 0.0, 0.0, 0.0, -343000.0, -343000.0, 0.0, 10.0, 10.0 
2.865e+3, 2.75e+2, -245000.0, -245000.0, 0.0, 0.0, 0.0, -245000.0, -245000.0, 0.0, 10.0, 10.0 
2.865e+3, 2.85e+2, -147000.0, -147000.0, 0.0, 0.0, 0.0, -147000.0, -147000.0, 0.0, 10.0, 10.0 
2.865e+3, 2.95e+2, -49000.0, -49000.0, 0.0, 0.0, 0.0, -49000.0, -49000.0, 0.0, 10.0, 10.0 
2.865e+3, 3.05e+2, 0.0, 0.0, 0.0, 0.0, 0.0, 0.0, 0.0, 0.0, 10.0, 10.0 
2.865e+3, 3.15e+2, 0.0, 0.0, 0.0, 0.0, 0.0, 0.0, 0.0, 0.0, 10.0, 10.0 
2.875e+3, 1.25e+2, -1715000.0, -1715000.0, 0.0, 0.0, 0.0, -1715000.0, -1715000.0, 0.0, 10.0, 10.0 
2.875e+3, 1.35e+2, -1617000.0, -1617000.0, 0.0, 0.0, 0.0, -1617000.0, -1617000.0, 0.0, 10.0, 10.0 
2.875e+3, 1.45e+2, -1519000.0, -1519000.0, 0.0, 0.0, 0.0, -1519000.0, -1519000.0, 0.0, 10.0, 10.0 
2.875e+3, 1.55e+2, -1421000.0, -1421000.0, 0.0, 0.0, 0.0, -1421000.0, -1421000.0, 0.0, 10.0, 10.0 
2.875e+3, 1.65e+2, -1323000.0, -1323000.0, 0.0, 0.0, 0.0, -1323000.0, -1323000.0, 0.0, 10.0, 10.0 
2.875e+3, 1.75e+2, -1225000.0, -1225000.0, 0.0, 0.0, 0.0, -1225000.0, -1225000.0, 0.0, 10.0, 10.0 
2.875e+3, 1.85e+2, -1127000.0, -1127000.0, 0.0, 0.0, 0.0, -1127000.0, -1127000.0, 0.0, 10.0, 10.0 
2.875e+3, 1.95e+2, -1029000.0, -1029000.0, 0.0, 0.0, 0.0, -1029000.0, -1029000.0, 0.0, 10.0, 10.0 
2.875e+3, 2.05e+2, -931000.0, -931000.0, 0.0, 0.0, 0.0, -931000.0, -931000.0, 0.0, 10.0, 10.0 
2.875e+3, 2.15e+2, -833000.0, -833000.0, 0.0, 0.0, 0.0, -833000.0, -833000.0, 0.0, 10.0, 10.0 
2.875e+3, 2.25e+2, -735000.0, -735000.0, 0.0, 0.0, 0.0, -735000.0, -735000.0, 0.0, 10.0, 10.0 
2.875e+3, 2.35e+2, -637000.0, -637000.0, 0.0, 0.0, 0.0, -637000.0, -637000.0, 0.0, 10.0, 10.0 
2.875e+3, 2.45e+2, -539000.0, -539000.0, 0.0, 0.0, 0.0, -539000.0, -539000.0, 0.0, 10.0, 10.0 
2.875e+3, 2.55e+2, -441000.0, -441000.0, 0.0, 0.0, 0.0, -441000.0, -441000.0, 0.0, 10.0, 10.0 
2.875e+3, 2.65e+2, -343000.0, -343000.0, 0.0, 0.0, 0.0, -343000.0, -343000.0, 0.0, 10.0, 10.0 
2.875e+3, 2.75e+2, -245000.0, -245000.0, 0.0, 0.0, 0.0, -245000.0, -245000.0, 0.0, 10.0, 10.0 
2.875e+3, 2.85e+2, -147000.0, -147000.0, 0.0, 0.0, 0.0, -147000.0, -147000.0, 0.0, 10.0, 10.0 
2.875e+3, 2.95e+2, -49000.0, -49000.0, 0.0, 0.0, 0.0, -49000.0, -49000.0, 0.0, 10.0, 10.0 
2.875e+3, 3.05e+2, 0.0, 0.0, 0.0, 0.0, 0.0, 0.0, 0.0, 0.0, 10.0, 10.0 
2.875e+3, 3.15e+2, 0.0, 0.0, 0.0, 0.0, 0.0, 0.0, 0.0, 0.0, 10.0, 10.0 
2.885e+3, 1.25e+2, -1715000.0, -1715000.0, 0.0, 0.0, 0.0, -1715000.0, -1715000.0, 0.0, 10.0, 10.0 
2.885e+3, 1.35e+2, -1617000.0, -1617000.0, 0.0, 0.0, 0.0, -1617000.0, -1617000.0, 0.0, 10.0, 10.0 
2.885e+3, 1.45e+2, -1519000.0, -1519000.0, 0.0, 0.0, 0.0, -1519000.0, -1519000.0, 0.0, 10.0, 10.0 
2.885e+3, 1.55e+2, -1421000.0, -1421000.0, 0.0, 0.0, 0.0, -1421000.0, -1421000.0, 0.0, 10.0, 10.0 
2.885e+3, 1.65e+2, -1323000.0, -1323000.0, 0.0, 0.0, 0.0, -1323000.0, -1323000.0, 0.0, 10.0, 10.0 
2.885e+3, 1.75e+2, -1225000.0, -1225000.0, 0.0, 0.0, 0.0, -1225000.0, -1225000.0, 0.0, 10.0, 10.0 
2.885e+3, 1.85e+2, -1127000.0, -1127000.0, 0.0, 0.0, 0.0, -1127000.0, -1127000.0, 0.0, 10.0, 10.0 
2.885e+3, 1.95e+2, -1029000.0, -1029000.0, 0.0, 0.0, 0.0, -1029000.0, -1029000.0, 0.0, 10.0, 10.0 
2.885e+3, 2.05e+2, -931000.0, -931000.0, 0.0, 0.0, 0.0, -931000.0, -931000.0, 0.0, 10.0, 10.0 
2.885e+3, 2.15e+2, -833000.0, -833000.0, 0.0, 0.0, 0.0, -833000.0, -833000.0, 0.0, 10.0, 10.0 
2.885e+3, 2.25e+2, -735000.0, -735000.0, 0.0, 0.0, 0.0, -735000.0, -735000.0, 0.0, 10.0, 10.0 
2.885e+3, 2.35e+2, -637000.0, -637000.0, 0.0, 0.0, 0.0, -637000.0, -637000.0, 0.0, 10.0, 10.0 
2.885e+3, 2.45e+2, -539000.0, -539000.0, 0.0, 0.0, 0.0, -539000.0, -539000.0, 0.0, 10.0, 10.0 
2.885e+3, 2.55e+2, -441000.0, -441000.0, 0.0, 0.0, 0.0, -441000.0, -441000.0, 0.0, 10.0, 10.0 
2.885e+3, 2.65e+2, -343000.0, -343000.0, 0.0, 0.0, 0.0, -343000.0, -343000.0, 0.0, 10.0, 10.0 
2.885e+3, 2.75e+2, -245000.0, -245000.0, 0.0, 0.0, 0.0, -245000.0, -245000.0, 0.0, 10.0, 10.0 
2.885e+3, 2.85e+2, -147000.0, -147000.0, 0.0, 0.0, 0.0, -147000.0, -147000.0, 0.0, 10.0, 10.0 
2.885e+3, 2.95e+2, -49000.0, -49000.0, 0.0, 0.0, 0.0, -49000.0, -49000.0, 0.0, 10.0, 10.0 
2.885e+3, 3.05e+2, 0.0, 0.0, 0.0, 0.0, 0.0, 0.0, 0.0, 0.0, 10.0, 10.0 
2.885e+3, 3.15e+2, 0.0, 0.0, 0.0, 0.0, 0.0, 0.0, 0.0, 0.0, 10.0, 10.0 
2.895e+3, 1.25e+2, -1715000.0, -1715000.0, 0.0, 0.0, 0.0, -1715000.0, -1715000.0, 0.0, 10.0, 10.0 
2.895e+3, 1.35e+2, -1617000.0, -1617000.0, 0.0, 0.0, 0.0, -1617000.0, -1617000.0, 0.0, 10.0, 10.0 
2.895e+3, 1.45e+2, -1519000.0, -1519000.0, 0.0, 0.0, 0.0, -1519000.0, -1519000.0, 0.0, 10.0, 10.0 
2.895e+3, 1.55e+2, -1421000.0, -1421000.0, 0.0, 0.0, 0.0, -1421000.0, -1421000.0, 0.0, 10.0, 10.0 
2.895e+3, 1.65e+2, -1323000.0, -1323000.0, 0.0, 0.0, 0.0, -1323000.0, -1323000.0, 0.0, 10.0, 10.0 
2.895e+3, 1.75e+2, -1225000.0, -1225000.0, 0.0, 0.0, 0.0, -1225000.0, -1225000.0, 0.0, 10.0, 10.0 
2.895e+3, 1.85e+2, -1127000.0, -1127000.0, 0.0, 0.0, 0.0, -1127000.0, -1127000.0, 0.0, 10.0, 10.0 
2.895e+3, 1.95e+2, -1029000.0, -1029000.0, 0.0, 0.0, 0.0, -1029000.0, -1029000.0, 0.0, 10.0, 10.0 
2.895e+3, 2.05e+2, -931000.0, -931000.0, 0.0, 0.0, 0.0, -931000.0, -931000.0, 0.0, 10.0, 10.0 
2.895e+3, 2.15e+2, -833000.0, -833000.0, 0.0, 0.0, 0.0, -833000.0, -833000.0, 0.0, 10.0, 10.0 
2.895e+3, 2.25e+2, -735000.0, -735000.0, 0.0, 0.0, 0.0, -735000.0, -735000.0, 0.0, 10.0, 10.0 
2.895e+3, 2.35e+2, -637000.0, -637000.0, 0.0, 0.0, 0.0, -637000.0, -637000.0, 0.0, 10.0, 10.0 
2.895e+3, 2.45e+2, -539000.0, -539000.0, 0.0, 0.0, 0.0, -539000.0, -539000.0, 0.0, 10.0, 10.0 
2.895e+3, 2.55e+2, -441000.0, -441000.0, 0.0, 0.0, 0.0, -441000.0, -441000.0, 0.0, 10.0, 10.0 
2.895e+3, 2.65e+2, -343000.0, -343000.0, 0.0, 0.0, 0.0, -343000.0, -343000.0, 0.0, 10.0, 10.0 
2.895e+3, 2.75e+2, -245000.0, -245000.0, 0.0, 0.0, 0.0, -245000.0, -245000.0, 0.0, 10.0, 10.0 
2.895e+3, 2.85e+2, -147000.0, -147000.0, 0.0, 0.0, 0.0, -147000.0, -147000.0, 0.0, 10.0, 10.0 
2.895e+3, 2.95e+2, -49000.0, -49000.0, 0.0, 0.0, 0.0, -49000.0, -49000.0, 0.0, 10.0, 10.0 
2.895e+3, 3.05e+2, 0.0, 0.0, 0.0, 0.0, 0.0, 0.0, 0.0, 0.0, 10.0, 10.0 
2.895e+3, 3.15e+2, 0.0, 0.0, 0.0, 0.0, 0.0, 0.0, 0.0, 0.0, 10.0, 10.0 
2.905e+3, 1.25e+2, -1715000.0, -1715000.0, 0.0, 0.0, 0.0, -1715000.0, -1715000.0, 0.0, 10.0, 10.0 
2.905e+3, 1.35e+2, -1617000.0, -1617000.0, 0.0, 0.0, 0.0, -1617000.0, -1617000.0, 0.0, 10.0, 10.0 
2.905e+3, 1.45e+2, -1519000.0, -1519000.0, 0.0, 0.0, 0.0, -1519000.0, -1519000.0, 0.0, 10.0, 10.0 
2.905e+3, 1.55e+2, -1421000.0, -1421000.0, 0.0, 0.0, 0.0, -1421000.0, -1421000.0, 0.0, 10.0, 10.0 
2.905e+3, 1.65e+2, -1323000.0, -1323000.0, 0.0, 0.0, 0.0, -1323000.0, -1323000.0, 0.0, 10.0, 10.0 
2.905e+3, 1.75e+2, -1225000.0, -1225000.0, 0.0, 0.0, 0.0, -1225000.0, -1225000.0, 0.0, 10.0, 10.0 
2.905e+3, 1.85e+2, -1127000.0, -1127000.0, 0.0, 0.0, 0.0, -1127000.0, -1127000.0, 0.0, 10.0, 10.0 
2.905e+3, 1.95e+2, -1029000.0, -1029000.0, 0.0, 0.0, 0.0, -1029000.0, -1029000.0, 0.0, 10.0, 10.0 
2.905e+3, 2.05e+2, -931000.0, -931000.0, 0.0, 0.0, 0.0, -931000.0, -931000.0, 0.0, 10.0, 10.0 
2.905e+3, 2.15e+2, -833000.0, -833000.0, 0.0, 0.0, 0.0, -833000.0, -833000.0, 0.0, 10.0, 10.0 
2.905e+3, 2.25e+2, -735000.0, -735000.0, 0.0, 0.0, 0.0, -735000.0, -735000.0, 0.0, 10.0, 10.0 
2.905e+3, 2.35e+2, -637000.0, -637000.0, 0.0, 0.0, 0.0, -637000.0, -637000.0, 0.0, 10.0, 10.0 
2.905e+3, 2.45e+2, -539000.0, -539000.0, 0.0, 0.0, 0.0, -539000.0, -539000.0, 0.0, 10.0, 10.0 
2.905e+3, 2.55e+2, -441000.0, -441000.0, 0.0, 0.0, 0.0, -441000.0, -441000.0, 0.0, 10.0, 10.0 
2.905e+3, 2.65e+2, -343000.0, -343000.0, 0.0, 0.0, 0.0, -343000.0, -343000.0, 0.0, 10.0, 10.0 
2.905e+3, 2.75e+2, -245000.0, -245000.0, 0.0, 0.0, 0.0, -245000.0, -245000.0, 0.0, 10.0, 10.0 
2.905e+3, 2.85e+2, -147000.0, -147000.0, 0.0, 0.0, 0.0, -147000.0, -147000.0, 0.0, 10.0, 10.0 
2.915e+3, 1.25e+2, -1715000.0, -1715000.0, 0.0, 0.0, 0.0, -1715000.0, -1715000.0, 0.0, 10.0, 10.0 
2.915e+3, 1.35e+2, -1617000.0, -1617000.0, 0.0, 0.0, 0.0, -1617000.0, -1617000.0, 0.0, 10.0, 10.0 
2.915e+3, 1.45e+2, -1519000.0, -1519000.0, 0.0, 0.0, 0.0, -1519000.0, -1519000.0, 0.0, 10.0, 10.0 
2.915e+3, 1.55e+2, -1421000.0, -1421000.0, 0.0, 0.0, 0.0, -1421000.0, -1421000.0, 0.0, 10.0, 10.0 
2.915e+3, 1.65e+2, -1323000.0, -1323000.0, 0.0, 0.0, 0.0, -1323000.0, -1323000.0, 0.0, 10.0, 10.0 
2.915e+3, 1.75e+2, -1225000.0, -1225000.0, 0.0, 0.0, 0.0, -1225000.0, -1225000.0, 0.0, 10.0, 10.0 
2.915e+3, 1.85e+2, -1127000.0, -1127000.0, 0.0, 0.0, 0.0, -1127000.0, -1127000.0, 0.0, 10.0, 10.0 
2.915e+3, 1.95e+2, -1029000.0, -1029000.0, 0.0, 0.0, 0.0, -1029000.0, -1029000.0, 0.0, 10.0, 10.0 
2.915e+3, 2.05e+2, -931000.0, -931000.0, 0.0, 0.0, 0.0, -931000.0, -931000.0, 0.0, 10.0, 10.0 
2.915e+3, 2.15e+2, -833000.0, -833000.0, 0.0, 0.0, 0.0, -833000.0, -833000.0, 0.0, 10.0, 10.0 
2.915e+3, 2.25e+2, -735000.0, -735000.0, 0.0, 0.0, 0.0, -735000.0, -735000.0, 0.0, 10.0, 10.0 
2.915e+3, 2.35e+2, -637000.0, -637000.0, 0.0, 0.0, 0.0, -637000.0, -637000.0, 0.0, 10.0, 10.0 
2.915e+3, 2.45e+2, -539000.0, -539000.0, 0.0, 0.0, 0.0, -539000.0, -539000.0, 0.0, 10.0, 10.0 
2.915e+3, 2.55e+2, -441000.0, -441000.0, 0.0, 0.0, 0.0, -441000.0, -441000.0, 0.0, 10.0, 10.0 
2.915e+3, 2.65e+2, -343000.0, -343000.0, 0.0, 0.0, 0.0, -343000.0, -343000.0, 0.0, 10.0, 10.0 
2.915e+3, 2.75e+2, -245000.0, -245000.0, 0.0, 0.0, 0.0, -245000.0, -245000.0, 0.0, 10.0, 10.0 
2.915e+3, 2.85e+2, -147000.0, -147000.0, 0.0, 0.0, 0.0, -147000.0, -147000.0, 0.0, 10.0, 10.0 
2.925e+3, 1.25e+2, -1715000.0, -1715000.0, 0.0, 0.0, 0.0, -1715000.0, -1715000.0, 0.0, 10.0, 10.0 
2.925e+3, 1.35e+2, -1617000.0, -1617000.0, 0.0, 0.0, 0.0, -1617000.0, -1617000.0, 0.0, 10.0, 10.0 
2.925e+3, 1.45e+2, -1519000.0, -1519000.0, 0.0, 0.0, 0.0, -1519000.0, -1519000.0, 0.0, 10.0, 10.0 
2.925e+3, 1.55e+2, -1421000.0, -1421000.0, 0.0, 0.0, 0.0, -1421000.0, -1421000.0, 0.0, 10.0, 10.0 
2.925e+3, 1.65e+2, -1323000.0, -1323000.0, 0.0, 0.0, 0.0, -1323000.0, -1323000.0, 0.0, 10.0, 10.0 
2.925e+3, 1.75e+2, -1225000.0, -1225000.0, 0.0, 0.0, 0.0, -1225000.0, -1225000.0, 0.0, 10.0, 10.0 
2.925e+3, 1.85e+2, -1127000.0, -1127000.0, 0.0, 0.0, 0.0, -1127000.0, -1127000.0, 0.0, 10.0, 10.0 
2.925e+3, 1.95e+2, -1029000.0, -1029000.0, 0.0, 0.0, 0.0, -1029000.0, -1029000.0, 0.0, 10.0, 10.0 
2.925e+3, 2.05e+2, -931000.0, -931000.0, 0.0, 0.0, 0.0, -931000.0, -931000.0, 0.0, 10.0, 10.0 
2.925e+3, 2.15e+2, -833000.0, -833000.0, 0.0, 0.0, 0.0, -833000.0, -833000.0, 0.0, 10.0, 10.0 
2.925e+3, 2.25e+2, -735000.0, -735000.0, 0.0, 0.0, 0.0, -735000.0, -735000.0, 0.0, 10.0, 10.0 
2.925e+3, 2.35e+2, -637000.0, -637000.0, 0.0, 0.0, 0.0, -637000.0, -637000.0, 0.0, 10.0, 10.0 
2.925e+3, 2.45e+2, -539000.0, -539000.0, 0.0, 0.0, 0.0, -539000.0, -539000.0, 0.0, 10.0, 10.0 
2.925e+3, 2.55e+2, -441000.0, -441000.0, 0.0, 0.0, 0.0, -441000.0, -441000.0, 0.0, 10.0, 10.0 
2.925e+3, 2.65e+2, -343000.0, -343000.0, 0.0, 0.0, 0.0, -343000.0, -343000.0, 0.0, 10.0, 10.0 
2.925e+3, 2.75e+2, -245000.0, -245000.0, 0.0, 0.0, 0.0, -245000.0, -245000.0, 0.0, 10.0, 10.0 
2.925e+3, 2.85e+2, -147000.0, -147000.0, 0.0, 0.0, 0.0, -147000.0, -147000.0, 0.0, 10.0, 10.0 
2.935e+3, 1.25e+2, -1715000.0, -1715000.0, 0.0, 0.0, 0.0, -1715000.0, -1715000.0, 0.0, 10.0, 10.0 
2.935e+3, 1.35e+2, -1617000.0, -1617000.0, 0.0, 0.0, 0.0, -1617000.0, -1617000.0, 0.0, 10.0, 10.0 
2.935e+3, 1.45e+2, -1519000.0, -1519000.0, 0.0, 0.0, 0.0, -1519000.0, -1519000.0, 0.0, 10.0, 10.0 
2.935e+3, 1.55e+2, -1421000.0, -1421000.0, 0.0, 0.0, 0.0, -1421000.0, -1421000.0, 0.0, 10.0, 10.0 
2.935e+3, 1.65e+2, -1323000.0, -1323000.0, 0.0, 0.0, 0.0, -1323000.0, -1323000.0, 0.0, 10.0, 10.0 
2.935e+3, 1.75e+2, -1225000.0, -1225000.0, 0.0, 0.0, 0.0, -1225000.0, -1225000.0, 0.0, 10.0, 10.0 
2.935e+3, 1.85e+2, -1127000.0, -1127000.0, 0.0, 0.0, 0.0, -1127000.0, -1127000.0, 0.0, 10.0, 10.0 
2.935e+3, 1.95e+2, -1029000.0, -1029000.0, 0.0, 0.0, 0.0, -1029000.0, -1029000.0, 0.0, 10.0, 10.0 
2.935e+3, 2.05e+2, -931000.0, -931000.0, 0.0, 0.0, 0.0, -931000.0, -931000.0, 0.0, 10.0, 10.0 
2.935e+3, 2.15e+2, -833000.0, -833000.0, 0.0, 0.0, 0.0, -833000.0, -833000.0, 0.0, 10.0, 10.0 
2.935e+3, 2.25e+2, -735000.0, -735000.0, 0.0, 0.0, 0.0, -735000.0, -735000.0, 0.0, 10.0, 10.0 
2.935e+3, 2.35e+2, -637000.0, -637000.0, 0.0, 0.0, 0.0, -637000.0, -637000.0, 0.0, 10.0, 10.0 
2.935e+3, 2.45e+2, -539000.0, -539000.0, 0.0, 0.0, 0.0, -539000.0, -539000.0, 0.0, 10.0, 10.0 
2.935e+3, 2.55e+2, -441000.0, -441000.0, 0.0, 0.0, 0.0, -441000.0, -441000.0, 0.0, 10.0, 10.0 
2.935e+3, 2.65e+2, -343000.0, -343000.0, 0.0, 0.0, 0.0, -343000.0, -343000.0, 0.0, 10.0, 10.0 
2.935e+3, 2.75e+2, -245000.0, -245000.0, 0.0, 0.0, 0.0, -245000.0, -245000.0, 0.0, 10.0, 10.0 
2.935e+3, 2.85e+2, -147000.0, -147000.0, 0.0, 0.0, 0.0, -147000.0, -147000.0, 0.0, 10.0, 10.0 
2.945e+3, 1.25e+2, -1715000.0, -1715000.0, 0.0, 0.0, 0.0, -1715000.0, -1715000.0, 0.0, 10.0, 10.0 
2.945e+3, 1.35e+2, -1617000.0, -1617000.0, 0.0, 0.0, 0.0, -1617000.0, -1617000.0, 0.0, 10.0, 10.0 
2.945e+3, 1.45e+2, -1519000.0, -1519000.0, 0.0, 0.0, 0.0, -1519000.0, -1519000.0, 0.0, 10.0, 10.0 
2.945e+3, 1.55e+2, -1421000.0, -1421000.0, 0.0, 0.0, 0.0, -1421000.0, -1421000.0, 0.0, 10.0, 10.0 
2.945e+3, 1.65e+2, -1323000.0, -1323000.0, 0.0, 0.0, 0.0, -1323000.0, -1323000.0, 0.0, 10.0, 10.0 
2.945e+3, 1.75e+2, -1225000.0, -1225000.0, 0.0, 0.0, 0.0, -1225000.0, -1225000.0, 0.0, 10.0, 10.0 
2.945e+3, 1.85e+2, -1127000.0, -1127000.0, 0.0, 0.0, 0.0, -1127000.0, -1127000.0, 0.0, 10.0, 10.0 
2.945e+3, 1.95e+2, -1029000.0, -1029000.0, 0.0, 0.0, 0.0, -1029000.0, -1029000.0, 0.0, 10.0, 10.0 
2.945e+3, 2.05e+2, -931000.0, -931000.0, 0.0, 0.0, 0.0, -931000.0, -931000.0, 0.0, 10.0, 10.0 
2.945e+3, 2.15e+2, -833000.0, -833000.0, 0.0, 0.0, 0.0, -833000.0, -833000.0, 0.0, 10.0, 10.0 
2.945e+3, 2.25e+2, -735000.0, -735000.0, 0.0, 0.0, 0.0, -735000.0, -735000.0, 0.0, 10.0, 10.0 
2.945e+3, 2.35e+2, -637000.0, -637000.0, 0.0, 0.0, 0.0, -637000.0, -637000.0, 0.0, 10.0, 10.0 
2.945e+3, 2.45e+2, -539000.0, -539000.0, 0.0, 0.0, 0.0, -539000.0, -539000.0, 0.0, 10.0, 10.0 
2.945e+3, 2.55e+2, -441000.0, -441000.0, 0.0, 0.0, 0.0, -441000.0, -441000.0, 0.0, 10.0, 10.0 
2.945e+3, 2.65e+2, -343000.0, -343000.0, 0.0, 0.0, 0.0, -343000.0, -343000.0, 0.0, 10.0, 10.0 
2.945e+3, 2.75e+2, -245000.0, -245000.0, 0.0, 0.0, 0.0, -245000.0, -245000.0, 0.0, 10.0, 10.0 
2.945e+3, 2.85e+2, -147000.0, -147000.0, 0.0, 0.0, 0.0, -147000.0, -147000.0, 0.0, 10.0, 10.0 
2.955e+3, 1.25e+2, -1715000.0, -1715000.0, 0.0, 0.0, 0.0, -1715000.0, -1715000.0, 0.0, 10.0, 10.0 
2.955e+3, 1.35e+2, -1617000.0, -1617000.0, 0.0, 0.0, 0.0, -1617000.0, -1617000.0, 0.0, 10.0, 10.0 
2.955e+3, 1.45e+2, -1519000.0, -1519000.0, 0.0, 0.0, 0.0, -1519000.0, -1519000.0, 0.0, 10.0, 10.0 
2.955e+3, 1.55e+2, -1421000.0, -1421000.0, 0.0, 0.0, 0.0, -1421000.0, -1421000.0, 0.0, 10.0, 10.0 
2.955e+3, 1.65e+2, -1323000.0, -1323000.0, 0.0, 0.0, 0.0, -1323000.0, -1323000.0, 0.0, 10.0, 10.0 
2.955e+3, 1.75e+2, -1225000.0, -1225000.0, 0.0, 0.0, 0.0, -1225000.0, -1225000.0, 0.0, 10.0, 10.0 
2.955e+3, 1.85e+2, -1127000.0, -1127000.0, 0.0, 0.0, 0.0, -1127000.0, -1127000.0, 0.0, 10.0, 10.0 
2.955e+3, 1.95e+2, -1029000.0, -1029000.0, 0.0, 0.0, 0.0, -1029000.0, -1029000.0, 0.0, 10.0, 10.0 
2.955e+3, 2.05e+2, -931000.0, -931000.0, 0.0, 0.0, 0.0, -931000.0, -931000.0, 0.0, 10.0, 10.0 
2.955e+3, 2.15e+2, -833000.0, -833000.0, 0.0, 0.0, 0.0, -833000.0, -833000.0, 0.0, 10.0, 10.0 
2.955e+3, 2.25e+2, -735000.0, -735000.0, 0.0, 0.0, 0.0, -735000.0, -735000.0, 0.0, 10.0, 10.0 
2.955e+3, 2.35e+2, -637000.0, -637000.0, 0.0, 0.0, 0.0, -637000.0, -637000.0, 0.0, 10.0, 10.0 
2.955e+3, 2.45e+2, -539000.0, -539000.0, 0.0, 0.0, 0.0, -539000.0, -539000.0, 0.0, 10.0, 10.0 
2.955e+3, 2.55e+2, -441000.0, -441000.0, 0.0, 0.0, 0.0, -441000.0, -441000.0, 0.0, 10.0, 10.0 
2.955e+3, 2.65e+2, -343000.0, -343000.0, 0.0, 0.0, 0.0, -343000.0, -343000.0, 0.0, 10.0, 10.0 
2.955e+3, 2.75e+2, -245000.0, -245000.0, 0.0, 0.0, 0.0, -245000.0, -245000.0, 0.0, 10.0, 10.0 
2.955e+3, 2.85e+2, -147000.0, -147000.0, 0.0, 0.0, 0.0, -147000.0, -147000.0, 0.0, 10.0, 10.0 
2.965e+3, 1.25e+2, -1715000.0, -1715000.0, 0.0, 0.0, 0.0, -1715000.0, -1715000.0, 0.0, 10.0, 10.0 
2.965e+3, 1.35e+2, -1617000.0, -1617000.0, 0.0, 0.0, 0.0, -1617000.0, -1617000.0, 0.0, 10.0, 10.0 
2.965e+3, 1.45e+2, -1519000.0, -1519000.0, 0.0, 0.0, 0.0, -1519000.0, -1519000.0, 0.0, 10.0, 10.0 
2.965e+3, 1.55e+2, -1421000.0, -1421000.0, 0.0, 0.0, 0.0, -1421000.0, -1421000.0, 0.0, 10.0, 10.0 
2.965e+3, 1.65e+2, -1323000.0, -1323000.0, 0.0, 0.0, 0.0, -1323000.0, -1323000.0, 0.0, 10.0, 10.0 
2.965e+3, 1.75e+2, -1225000.0, -1225000.0, 0.0, 0.0, 0.0, -1225000.0, -1225000.0, 0.0, 10.0, 10.0 
2.965e+3, 1.85e+2, -1127000.0, -1127000.0, 0.0, 0.0, 0.0, -1127000.0, -1127000.0, 0.0, 10.0, 10.0 
2.965e+3, 1.95e+2, -1029000.0, -1029000.0, 0.0, 0.0, 0.0, -1029000.0, -1029000.0, 0.0, 10.0, 10.0 
2.965e+3, 2.05e+2, -931000.0, -931000.0, 0.0, 0.0, 0.0, -931000.0, -931000.0, 0.0, 10.0, 10.0 
2.965e+3, 2.15e+2, -833000.0, -833000.0, 0.0, 0.0, 0.0, -833000.0, -833000.0, 0.0, 10.0, 10.0 
2.965e+3, 2.25e+2, -735000.0, -735000.0, 0.0, 0.0, 0.0, -735000.0, -735000.0, 0.0, 10.0, 10.0 
2.965e+3, 2.35e+2, -637000.0, -637000.0, 0.0, 0.0, 0.0, -637000.0, -637000.0, 0.0, 10.0, 10.0 
2.965e+3, 2.45e+2, -539000.0, -539000.0, 0.0, 0.0, 0.0, -539000.0, -539000.0, 0.0, 10.0, 10.0 
2.965e+3, 2.55e+2, -441000.0, -441000.0, 0.0, 0.0, 0.0, -441000.0, -441000.0, 0.0, 10.0, 10.0 
2.965e+3, 2.65e+2, -343000.0, -343000.0, 0.0, 0.0, 0.0, -343000.0, -343000.0, 0.0, 10.0, 10.0 
2.965e+3, 2.75e+2, -245000.0, -245000.0, 0.0, 0.0, 0.0, -245000.0, -245000.0, 0.0, 10.0, 10.0 
2.965e+3, 2.85e+2, -147000.0, -147000.0, 0.0, 0.0, 0.0, -147000.0, -147000.0, 0.0, 10.0, 10.0 
2.975e+3, 1.25e+2, -1715000.0, -1715000.0, 0.0, 0.0, 0.0, -1715000.0, -1715000.0, 0.0, 10.0, 10.0 
2.975e+3, 1.35e+2, -1617000.0, -1617000.0, 0.0, 0.0, 0.0, -1617000.0, -1617000.0, 0.0, 10.0, 10.0 
2.975e+3, 1.45e+2, -1519000.0, -1519000.0, 0.0, 0.0, 0.0, -1519000.0, -1519000.0, 0.0, 10.0, 10.0 
2.975e+3, 1.55e+2, -1421000.0, -1421000.0, 0.0, 0.0, 0.0, -1421000.0, -1421000.0, 0.0, 10.0, 10.0 
2.975e+3, 1.65e+2, -1323000.0, -1323000.0, 0.0, 0.0, 0.0, -1323000.0, -1323000.0, 0.0, 10.0, 10.0 
2.975e+3, 1.75e+2, -1225000.0, -1225000.0, 0.0, 0.0, 0.0, -1225000.0, -1225000.0, 0.0, 10.0, 10.0 
2.975e+3, 1.85e+2, -1127000.0, -1127000.0, 0.0, 0.0, 0.0, -1127000.0, -1127000.0, 0.0, 10.0, 10.0 
2.975e+3, 1.95e+2, -1029000.0, -1029000.0, 0.0, 0.0, 0.0, -1029000.0, -1029000.0, 0.0, 10.0, 10.0 
2.975e+3, 2.05e+2, -931000.0, -931000.0, 0.0, 0.0, 0.0, -931000.0, -931000.0, 0.0, 10.0, 10.0 
2.975e+3, 2.15e+2, -833000.0, -833000.0, 0.0, 0.0, 0.0, -833000.0, -833000.0, 0.0, 10.0, 10.0 
2.975e+3, 2.25e+2, -735000.0, -735000.0, 0.0, 0.0, 0.0, -735000.0, -735000.0, 0.0, 10.0, 10.0 
2.975e+3, 2.35e+2, -637000.0, -637000.0, 0.0, 0.0, 0.0, -637000.0, -637000.0, 0.0, 10.0, 10.0 
2.975e+3, 2.45e+2, -539000.0, -539000.0, 0.0, 0.0, 0.0, -539000.0, -539000.0, 0.0, 10.0, 10.0 
2.975e+3, 2.55e+2, -441000.0, -441000.0, 0.0, 0.0, 0.0, -441000.0, -441000.0, 0.0, 10.0, 10.0 
2.975e+3, 2.65e+2, -343000.0, -343000.0, 0.0, 0.0, 0.0, -343000.0, -343000.0, 0.0, 10.0, 10.0 
2.975e+3, 2.75e+2, -245000.0, -245000.0, 0.0, 0.0, 0.0, -245000.0, -245000.0, 0.0, 10.0, 10.0 
2.975e+3, 2.85e+2, -147000.0, -147000.0, 0.0, 0.0, 0.0, -147000.0, -147000.0, 0.0, 10.0, 10.0 
2.985e+3, 1.25e+2, -1715000.0, -1715000.0, 0.0, 0.0, 0.0, -1715000.0, -1715000.0, 0.0, 10.0, 10.0 
2.985e+3, 1.35e+2, -1617000.0, -1617000.0, 0.0, 0.0, 0.0, -1617000.0, -1617000.0, 0.0, 10.0, 10.0 
2.985e+3, 1.45e+2, -1519000.0, -1519000.0, 0.0, 0.0, 0.0, -1519000.0, -1519000.0, 0.0, 10.0, 10.0 
2.985e+3, 1.55e+2, -1421000.0, -1421000.0, 0.0, 0.0, 0.0, -1421000.0, -1421000.0, 0.0, 10.0, 10.0 
2.985e+3, 1.65e+2, -1323000.0, -1323000.0, 0.0, 0.0, 0.0, -1323000.0, -1323000.0, 0.0, 10.0, 10.0 
2.985e+3, 1.75e+2, -1225000.0, -1225000.0, 0.0, 0.0, 0.0, -1225000.0, -1225000.0, 0.0, 10.0, 10.0 
2.985e+3, 1.85e+2, -1127000.0, -1127000.0, 0.0, 0.0, 0.0, -1127000.0, -1127000.0, 0.0, 10.0, 10.0 
2.985e+3, 1.95e+2, -1029000.0, -1029000.0, 0.0, 0.0, 0.0, -1029000.0, -1029000.0, 0.0, 10.0, 10.0 
2.985e+3, 2.05e+2, -931000.0, -931000.0, 0.0, 0.0, 0.0, -931000.0, -931000.0, 0.0, 10.0, 10.0 
2.985e+3, 2.15e+2, -833000.0, -833000.0, 0.0, 0.0, 0.0, -833000.0, -833000.0, 0.0, 10.0, 10.0 
2.985e+3, 2.25e+2, -735000.0, -735000.0, 0.0, 0.0, 0.0, -735000.0, -735000.0, 0.0, 10.0, 10.0 
2.985e+3, 2.35e+2, -637000.0, -637000.0, 0.0, 0.0, 0.0, -637000.0, -637000.0, 0.0, 10.0, 10.0 
2.985e+3, 2.45e+2, -539000.0, -539000.0, 0.0, 0.0, 0.0, -539000.0, -539000.0, 0.0, 10.0, 10.0 
2.985e+3, 2.55e+2, -441000.0, -441000.0, 0.0, 0.0, 0.0, -441000.0, -441000.0, 0.0, 10.0, 10.0 
2.985e+3, 2.65e+2, -343000.0, -343000.0, 0.0, 0.0, 0.0, -343000.0, -343000.0, 0.0, 10.0, 10.0 
2.985e+3, 2.75e+2, -245000.0, -245000.0, 0.0, 0.0, 0.0, -245000.0, -245000.0, 0.0, 10.0, 10.0 
2.985e+3, 2.85e+2, -147000.0, -147000.0, 0.0, 0.0, 0.0, -147000.0, -147000.0, 0.0, 10.0, 10.0 
2.995e+3, 1.25e+2, -1715000.0, -1715000.0, 0.0, 0.0, 0.0, -1715000.0, -1715000.0, 0.0, 10.0, 10.0 
2.995e+3, 1.35e+2, -1617000.0, -1617000.0, 0.0, 0.0, 0.0, -1617000.0, -1617000.0, 0.0, 10.0, 10.0 
2.995e+3, 1.45e+2, -1519000.0, -1519000.0, 0.0, 0.0, 0.0, -1519000.0, -1519000.0, 0.0, 10.0, 10.0 
2.995e+3, 1.55e+2, -1421000.0, -1421000.0, 0.0, 0.0, 0.0, -1421000.0, -1421000.0, 0.0, 10.0, 10.0 
2.995e+3, 1.65e+2, -1323000.0, -1323000.0, 0.0, 0.0, 0.0, -1323000.0, -1323000.0, 0.0, 10.0, 10.0 
2.995e+3, 1.75e+2, -1225000.0, -1225000.0, 0.0, 0.0, 0.0, -1225000.0, -1225000.0, 0.0, 10.0, 10.0 
2.995e+3, 1.85e+2, -1127000.0, -1127000.0, 0.0, 0.0, 0.0, -1127000.0, -1127000.0, 0.0, 10.0, 10.0 
2.995e+3, 1.95e+2, -1029000.0, -1029000.0, 0.0, 0.0, 0.0, -1029000.0, -1029000.0, 0.0, 10.0, 10.0 
2.995e+3, 2.05e+2, -931000.0, -931000.0, 0.0, 0.0, 0.0, -931000.0, -931000.0, 0.0, 10.0, 10.0 
2.995e+3, 2.15e+2, -833000.0, -833000.0, 0.0, 0.0, 0.0, -833000.0, -833000.0, 0.0, 10.0, 10.0 
2.995e+3, 2.25e+2, -735000.0, -735000.0, 0.0, 0.0, 0.0, -735000.0, -735000.0, 0.0, 10.0, 10.0 
2.995e+3, 2.35e+2, -637000.0, -637000.0, 0.0, 0.0, 0.0, -637000.0, -637000.0, 0.0, 10.0, 10.0 
2.995e+3, 2.45e+2, -539000.0, -539000.0, 0.0, 0.0, 0.0, -539000.0, -539000.0, 0.0, 10.0, 10.0 
2.995e+3, 2.55e+2, -441000.0, -441000.0, 0.0, 0.0, 0.0, -441000.0, -441000.0, 0.0, 10.0, 10.0 
2.995e+3, 2.65e+2, -343000.0, -343000.0, 0.0, 0.0, 0.0, -343000.0, -343000.0, 0.0, 10.0, 10.0 
2.995e+3, 2.75e+2, -245000.0, -245000.0, 0.0, 0.0, 0.0, -245000.0, -245000.0, 0.0, 10.0, 10.0 
2.995e+3, 2.85e+2, -147000.0, -147000.0, 0.0, 0.0, 0.0, -147000.0, -147000.0, 0.0, 10.0, 10.0 
