coord_x,coord_y,stress_xx,stress_yy,tau_xy,velocity_x,velocity_y,stress_1,eps,damage,lx,ly
4.999376e+0, 1.2688234e+2, -2217488.0, -2138434.0, -128832.984, 0.0709435, -0.023967775, -2043200.8, -346658.75, 0.0013838684, 9.997304, 9.998388 
4.9985614e+0, 1.3688166e+2, -1912795.0, -1719256.0, -19126.465, -0.03348843, -0.10852147, -1717384.0, -118828.06, 0.00083884824, 9.99778, 10.00036 
4.9986595e+0, 1.4688365e+2, -1822956.9, -1611319.5, 17761.78, -0.017987223, 0.033659387, -1609839.1, -109299.08, 0.00038804737, 9.997666, 10.000477 
4.999141e+0, 1.5688413e+2, -1775215.9, -1525356.6, 31989.691, 0.049897645, 0.029423567, -1521325.9, -118789.1, 0.00011853608, 9.997271, 10.000584 
4.998979e+0, 1.6688515e+2, -1618418.1, -1298904.0, 16067.139, 0.035101138, 0.018292936, -1298098.1, 6428.3374, 0.000016042439, 9.997243, 10.00148 
4.998533e+0, 1.7688623e+2, -1507009.5, -1212570.4, -29502.527, -0.018018318, -0.033107366, -1209643.4, -3129.308, 0.00000013955699, 9.997415, 10.001318 
4.998911e+0, 1.8688738e+2, -1402935.1, -1204532.1, -13499.999, -0.0024483195, 0.00005011086, -1203617.8, -95115.37, 0.0, 9.997858, 10.000486 
4.9996638e+0, 1.9688858e+2, -1212454.1, -1045845.5, 17061.867, 0.044742312, 0.058506284, -1044116.2, -33625.313, 0.0, 9.998423, 10.000632 
4.9995428e+0, 2.068895e+2, -1046786.8, -846847.9, 2762.2615, 0.024062436, 0.051333968, -846809.7, 65670.11, 0.0, 9.998594, 10.001241 
4.9990004e+0, 2.1689019e+2, -965859.5, -782586.7, -24766.033, -0.029722616, -0.01616991, -779299.0, 35170.992, 0.0, 9.998586, 10.001014 
4.9991474e+0, 2.2689123e+2, -898963.44, -815682.44, -1862.2739, -0.02945596, 0.049870085, -815640.8, -99178.07, 0.0, 9.998874, 9.999974 
4.9996263e+0, 2.3689237e+2, -715682.75, -640266.0, 27183.207, -0.0029037376, 0.14944136, -631489.44, -13032.052, 0.0, 9.9993, 10.000301 
4.9998674e+0, 2.4689296e+2, -502658.4, -330072.44, -6670.073, 0.015531793, 0.09478951, -329815.03, 190631.6, 0.0, 9.999414, 10.001705 
4.9999985e+0, 2.5689316e+2, -445489.4, -312298.13, -63908.55, 0.029538453, -0.06474536, -286593.8, 135840.6, 0.0, 9.999395, 10.001163 
5.000484e+0, 2.668916e+2, -402777.22, -503023.6, -79268.0, 0.04058746, -0.19463311, -359114.75, -34667.246, 0.0, 10.000147, 9.9988165 
5.0011384e+0, 2.7688926e+2, -169210.28, -383158.72, -105961.82, 0.050056353, -0.32275987, -125614.28, 100858.54, 0.0000000003138508, 10.001264, 9.998428 
5.0014913e+0, 2.8688845e+2, -115163.414, -513489.44, -53855.813, 0.055742417, -0.13649866, -108010.27, 20474.621, 0.0000002419935, 10.001855, 9.996574 
5.0016606e+0, 2.96888e+2, 47112.164, -356649.4, 46006.438, 0.05682285, 0.14809357, 52287.996, 82782.19, 0.000011320525, 10.002173, 9.996827 
5.0011694e+0, 3.0688277e+2, 167726.63, -143014.97, 24821.604, 0.011233328, -0.12691131, 169696.84, 169696.84, 0.000101990714, 10.002105, 9.997996 
5.0003606e+0, 3.168804e+2, 265970.4, 133111.89, -51226.31, -0.054512993, -0.1859298, 283427.88, 283427.88, 0.00034448536, 10.001782, 10.000051 
1.4998104e+1, 1.2687932e+2, -1999966.0, -1678335.3, -117772.27, 0.20983498, 0.04490141, -1639822.0, 56763.254, 0.0013567447, 9.997271, 10.001564 
1.4995682e+1, 1.3688084e+2, -1730960.9, -1338186.9, -6785.369, -0.10090431, -0.12287561, -1338069.8, 260494.27, 0.00082020013, 9.997767, 10.002986 
1.4995982e+1, 1.4688385e+2, -1795267.8, -1549507.6, -274.208, -0.0534162, -0.010329599, -1549507.4, -48974.05, 0.00037697676, 9.997649, 10.000913 
1.4997426e+1, 1.568847e+2, -1769674.3, -1509137.4, 21615.95, 0.14966694, -0.013855521, -1507356.1, -104829.805, 0.00011338852, 9.9972515, 10.000707 
1.4996941e+1, 1.6688533e+2, -1707845.5, -1478903.1, 20249.965, 0.10574815, 0.005659673, -1477125.9, -172603.45, 0.000014715236, 9.997222, 10.0002575 
1.4995606e+1, 1.768858e+2, -1566904.9, -1331791.0, -19729.828, -0.053804778, 0.015521194, -1330146.9, -123626.32, 0.00000010097208, 9.997394, 10.000512 
1.4996728e+1, 1.8688643e+2, -1340231.5, -1067771.5, 6376.023, -0.0077704242, -0.028105518, -1067622.4, 40889.086, 0.0, 9.997832, 10.001439 
1.4998993e+1, 1.9688714e+2, -1170445.4, -953376.3, 35866.566, 0.13430077, -0.10958202, -947603.56, 62895.57, 0.0, 9.998402, 10.001279 
1.4998622e+1, 2.0688742e+2, -1101236.1, -953510.6, -3.5337625, 0.07136489, -0.16361015, -953510.6, -41016.645, 0.0, 9.99857, 10.000522 
1.4997007e+1, 2.1688749e+2, -999310.3, -844887.9, -20252.629, -0.08848835, -0.21773934, -842275.94, -27783.186, 0.0, 9.998557, 10.000603 
1.499743e+1, 2.2688851e+2, -837011.56, -679641.9, 12782.206, -0.089441955, -0.19289172, -678610.4, 37872.24, 0.0, 9.998846, 10.000922 
1.4998879e+1, 2.3689002e+2, -685584.75, -571371.25, 42143.625, -0.009101282, -0.14348266, -557504.3, 60964.07, 0.0, 9.999274, 10.000789 
1.4999601e+1, 2.4689063e+2, -617712.75, -562646.9, -10940.722, 0.046665564, -0.11915347, -560552.75, -40090.16, 0.0, 9.999389, 10.000123 
1.4999995e+1, 2.568908e+2, -546162.75, -513965.0, -55669.26, 0.088512, -0.12124942, -472113.56, -49651.9, 0.0, 9.999365, 9.999795 
1.500145e+1, 2.6689047e+2, -448818.22, -592413.7, -38493.363, 0.12147286, -0.038333416, -439150.28, -114681.0, 0.0, 10.000122, 9.998216 
1.5003414e+1, 2.7688992e+2, -172091.83, -381653.06, -67579.27, 0.1498924, 0.075393274, -152189.1, 74291.984, 0.0, 10.001234, 9.998455 
1.5004465e+1, 2.8688884e+2, 78268.04, -103492.63, -43131.793, 0.16691183, 0.062980145, 87983.87, 216472.61, 0.0000001217643, 10.001824, 9.999406 
1.5004978e+1, 2.9688722e+2, 181328.05, -71476.695, 56265.684, 0.16963571, -0.04307055, 193285.3, 223782.33, 0.0000104093915, 10.002149, 9.998799 
1.500351e+1, 3.0688283e+2, 31083.158, -419753.06, 12219.469, 0.034162812, -0.19890378, 31414.113, 31414.113, 0.00009692182, 10.002082, 9.996109 
1.500106e+1, 3.168826e+2, 130939.09, -133473.02, -59869.832, -0.1662145, 0.14950679, 143863.45, 143863.45, 0.0003312695, 10.00173, 9.998245 
2.4995667e+1, 1.2687863e+2, -1811323.0, -1498212.4, 66193.65, 0.19362894, 0.07117017, -1484793.8, 211802.22, 0.0013173001, 9.998195, 10.002354 
2.4993284e+1, 1.3688101e+2, -1909438.0, -1349746.4, 5112.274, -0.040081553, -0.08595567, -1349699.8, 248864.58, 0.0007929643, 9.996231, 10.003649 
2.4993289e+1, 1.4688405e+2, -1943986.5, -1588600.6, -8800.906, -0.029365672, -0.012742954, -1588382.8, -87851.805, 0.0003608832, 9.9964905, 10.001203 
2.4994244e+1, 1.5688443e+2, -1668289.8, -1443250.1, 98.14203, 0.07550649, -0.09311591, -1443250.1, -40723.87, 0.00010595725, 9.997875, 10.000858 
2.4994187e+1, 1.6688508e+2, -1555538.5, -1454321.4, 29577.861, 0.045539636, -0.053317543, -1446311.9, -141789.13, 0.000012859101, 9.998481, 9.999818 
2.4993739e+1, 1.7688578e+2, -1409262.9, -1296976.1, 44356.637, -0.042447656, 0.025220823, -1281568.1, -75047.914, 0.00000006033416, 9.998657, 10.00014 
2.4994807e+1, 1.8688625e+2, -1269648.3, -1040186.4, 37594.313, -0.008290868, -0.0159839, -1034184.06, 74329.68, 0.0, 9.998344, 10.00138 
2.4996576e+1, 1.9688658e+2, -1263245.0, -1007264.4, -7889.1934, 0.08248786, -0.12871642, -1007021.5, 3483.9072, 0.0, 9.9978075, 10.001192 
2.4996714e+1, 2.0688684e+2, -1202931.3, -1028162.6, -32240.893, 0.053187314, -0.16853447, -1022404.6, -109903.51, 0.0, 9.99798, 10.000296 
2.4996077e+1, 2.1688703e+2, -1021904.0, -874111.7, -17057.354, -0.032841433, -0.19047716, -872168.56, -57669.395, 0.0, 9.998481, 10.000439 
2.4996845e+1, 2.2688755e+2, -833886.4, -669318.6, -5611.322, -0.031118656, -0.21452782, -669127.5, 47364.438, 0.0, 9.998824, 10.001006 
2.4998319e+1, 2.3688826e+2, -718895.25, -598366.7, -39725.223, 0.016982237, -0.25147396, -586451.5, 32030.674, 0.0, 9.999093, 10.0006895 
2.4999286e+1, 2.4688883e+2, -618354.94, -655356.1, -68446.75, 0.05702294, -0.18098146, -565952.56, -45472.875, 0.0, 9.999785, 9.99929 
2.5000012e+1, 2.5688922e+2, -401501.53, -511519.2, -57575.5, 0.09009105, -0.079827935, -376880.53, 45601.047, 0.0, 10.000649, 9.999189 
2.500169e+1, 2.6688933e+2, -297697.78, -475840.1, 38201.348, 0.091515414, 0.04797124, -289851.38, 34634.12, 0.0, 10.000973, 9.998607 
2.500386e+1, 2.7688932e+2, -170270.05, -332865.9, 76432.766, 0.08109849, 0.17225207, -139982.48, 86507.875, 0.0, 10.00104, 9.998882 
2.5005415e+1, 2.8688812e+2, 26136.773, -59799.83, 8607.728, 0.11351966, 0.098019876, 26990.475, 155487.11, 0.000000049416002, 10.001163, 10.000028 
2.500659e+1, 2.9688618e+2, 92914.89, -61147.137, -49530.008, 0.15834203, -0.10458187, 107464.44, 137970.47, 0.0000092590135, 10.001311, 9.999275 
2.5006092e+1, 3.0688208e+2, 133179.2, -384798.3, -32625.217, 0.0463195, -0.24280374, 135226.05, 135226.05, 0.00009030626, 10.002851, 9.99598 
2.5004816e+1, 3.1688252e+2, 588903.44, 50736.676, 13807.364, -0.1276319, 0.18782163, 589257.44, 589257.44, 0.0003138686, 10.005047, 9.997914 
3.4992027e+1, 1.2688023e+2, -1925079.8, -1730821.1, -15607.792, -0.00008592122, 0.045129407, -1729575.1, -33000.996, 0.0012647449, 9.998182, 10.000761 
3.4991345e+1, 1.3688216e+2, -1999134.5, -1535452.6, -46530.31, 0.1392701, 0.0049557034, -1530829.4, 67727.336, 0.0007565008, 9.996233, 10.002372 
3.4990543e+1, 1.4688425e+2, -1932760.6, -1562222.3, 42000.6, 0.042972643, 0.022510903, -1557521.1, -56987.97, 0.00033951344, 9.996479, 10.001389 
3.4989524e+1, 1.5688333e+2, -1656127.8, -1412819.1, 46360.05, -0.18928222, -0.2047368, -1404285.0, -1748.4673, 0.000096218435, 9.997857, 10.001075 
3.499065e+1, 1.6688432e+2, -1531379.8, -1400784.6, 35223.527, -0.16114025, -0.16057763, -1391890.1, -87362.555, 0.000010539653, 9.998467, 10.000191 
3.4992868e+1, 1.7688617e+2, -1403142.8, -1282846.6, 47761.094, -0.000095699834, -0.0049953246, -1266190.4, -59677.063, 0.000000028001644, 9.9986515, 10.000239 
3.4993115e+1, 1.8688685e+2, -1345206.1, -1194271.8, 15050.694, -0.016718656, 0.033006005, -1192785.5, -84276.4, 0.0, 9.998332, 10.00033 
3.499239e+1, 1.9688694e+2, -1322722.5, -1125544.6, -19440.836, -0.122097075, 0.0025820779, -1123646.1, -113136.41, 0.0, 9.997784, 10.000394 
3.4993762e+1, 2.0688775e+2, -1186423.6, -984865.56, -14674.9, -0.04334296, 0.03215919, -983802.7, -71301.32, 0.0, 9.997946, 10.000607 
3.4996164e+1, 2.168888e+2, -1017643.7, -858143.25, 2289.933, 0.12379114, 0.066887304, -858110.4, -43620.71, 0.0, 9.998451, 10.000563 
3.4997344e+1, 2.268883e+2, -889155.7, -776419.75, 2398.2632, 0.13264923, -0.02066176, -776368.75, -59877.586, 0.0, 9.998795, 10.000284 
3.4997904e+1, 2.3688713e+2, -764249.44, -686991.0, -23078.162, 0.06222445, -0.17327632, -680622.25, -62123.266, 0.0, 9.999069, 10.000093 
3.499887e+1, 2.4688745e+2, -626736.75, -665571.4, -36629.965, 0.03272484, -0.09856996, -604695.8, -84197.57, 0.0, 9.999757, 9.999233 
3.5000014e+1, 2.5688842e+2, -390571.3, -482569.47, -29016.723, 0.020296201, 0.06461905, -382183.94, 40310.176, 0.0, 10.000625, 9.9994 
3.5001183e+1, 2.6688817e+2, -199450.61, -269782.66, 38547.19, -0.061186783, 0.061452, -182438.72, 142057.52, 0.0, 10.000963, 10.000027 
3.5002396e+1, 2.7688733e+2, -112047.75, -206186.3, 81370.71, -0.17450331, -0.031905424, -65113.25, 161387.77, 0.0, 10.001017, 9.9997635 
3.5004294e+1, 2.868863e+2, -85935.18, -286136.1, 11455.329, -0.11896693, -0.034780107, -85281.85, 43226.887, 0.000000018573564, 10.001139, 9.998484 
3.5006443e+1, 2.9688486e+2, 23208.129, -199837.28, -28621.041, 0.008870012, -0.03409607, 26822.203, 57343.395, 0.000007912584, 10.001287, 9.998333 
3.5008866e+1, 3.0688047e+2, 245165.52, -148162.11, 50649.805, 0.03635925, -0.26528412, 251583.11, 251583.11, 0.00008249428, 10.002832, 9.997615 
3.501154e+1, 3.1688017e+2, 666594.5, 219019.34, 87921.7, 0.030699765, -0.064544395, 683246.3, 683246.3, 0.0002934394, 10.005016, 9.999086 
4.4988835e+1, 1.2688068e+2, -2523008.0, -2104220.3, -35024.89, 0.05339512, -0.039214507, -2101311.3, -404746.03, 0.0012008992, 9.994444, 10.000011 
4.498807e+1, 1.3688281e+2, -1857178.3, -1549401.0, -9877.906, 0.124605015, 0.024372736, -1549084.3, 49467.035, 0.0007119072, 9.997558, 10.001643 
4.4987774e+1, 1.4688493e+2, -1666987.6, -1461403.6, 78968.625, 0.022415398, 0.09036646, -1434572.1, 65957.71, 0.00031359482, 9.998424, 10.001147 
4.4987503e+1, 1.5688379e+2, -1620750.1, -1409952.6, 41081.875, -0.18990465, -0.13493386, -1402229.3, 307.13718, 0.000084590996, 9.998158, 10.000955 
4.4988865e+1, 1.6688466e+2, -1609074.4, -1387880.8, 4532.928, -0.14715242, -0.12423132, -1387787.9, -83261.195, 0.000007991499, 9.997717, 10.000644 
4.4991058e+1, 1.7688645e+2, -1591867.8, -1345689.6, 22840.277, 0.025491565, -0.015657103, -1343588.5, -137078.94, 0.000000008983813, 9.997235, 10.000493 
4.4991302e+1, 1.8688701e+2, -1467281.4, -1324651.8, 28758.502, -0.00348046, 0.036868248, -1319071.5, -210564.17, 0.0, 9.997802, 9.999694 
4.4990584e+1, 1.9688696e+2, -1202285.9, -1127675.1, 23107.379, -0.13307604, 0.053726062, -1121098.4, -110586.39, 0.0, 9.998869, 9.999858 
4.499226e+1, 2.0688768e+2, -957154.56, -887973.2, 29519.469, -0.06797289, 0.104028404, -877089.56, 35415.555, 0.0, 9.999576, 10.000488 
4.4995135e+1, 2.1688868e+2, -795097.1, -776696.9, 10350.89, 0.09580478, 0.14738314, -772048.4, 42445.188, 0.0, 10.000091, 10.000331 
4.4996715e+1, 2.2688794e+2, -682714.4, -761231.25, -2341.8584, 0.10287046, 0.088394165, -682644.6, 33854.695, 0.0, 10.000578, 9.999528 
4.4997656e+1, 2.3688637e+2, -517556.4, -630286.75, -34280.074, 0.033368096, -0.029686846, -507950.72, 110562.63, 0.0, 10.001034, 9.999536 
4.4998917e+1, 2.4688612e+2, -456994.56, -555067.25, -35033.734, 0.011546172, -0.004461091, -445765.44, 74750.8, 0.0, 10.0008, 9.999493 
4.5000374e+1, 2.5688645e+2, -425258.28, -468199.84, -4917.388, 0.014170461, 0.06859193, -424702.34, -2188.0415, 0.0, 10.000251, 9.999682 
4.500211e+1, 2.6688588e+2, -211153.84, -233910.19, 31118.094, -0.050530773, -0.0020704004, -189398.97, 135117.75, 0.0, 10.000704, 10.000399 
4.500403e+1, 2.7688482e+2, -10078.8545, -144394.22, -6837.23, -0.14318638, -0.14679635, -9731.708, 216789.23, 0.0, 10.00166, 9.999883 
4.5006245e+1, 2.8688404e+2, 47926.805, -327251.7, -71300.61, -0.1048904, -0.075131066, 61020.15, 189549.55, 0.000000014301867, 10.002518, 9.997539 
4.5008525e+1, 2.9688302e+2, 274299.06, -148596.69, -70988.055, -0.011306417, 0.058542594, 285897.16, 316440.53, 0.000006683786, 10.003315, 9.997711 
4.5011607e+1, 3.0687848e+2, 321592.4, -26659.37, -10606.091, 0.022077871, -0.20314899, 321915.1, 321915.1, 0.00007463375, 10.002986, 9.998381 
4.5015323e+1, 3.1687766e+2, 254201.7, 56615.97, -49817.895, 0.061684802, -0.1264895, 266051.75, 266051.75, 0.00027258482, 10.002008, 9.999426 
5.498588e+1, 1.2688003e+2, -2512097.3, -2086422.6, 76984.07, 0.30086946, -0.169823, -2072927.8, -376359.22, 0.0011290752, 9.994464, 10.000124 
5.4983354e+1, 1.3688304e+2, -1864741.4, -1568196.1, 86677.31, -0.10754994, -0.021625843, -1544719.8, 53827.6, 0.0006616755, 9.99757, 10.001509 
5.49849e+1, 1.4688616e+2, -1716517.0, -1564773.4, 68923.016, -0.11276418, 0.19292472, -1538142.0, -37621.22, 0.0002845946, 9.9984255, 10.000436 
5.4988104e+1, 1.5688582e+2, -1653742.3, -1478887.1, 32038.521, 0.048092145, 0.117087185, -1473201.6, -70676.05, 0.00007188515, 9.998161, 10.00048 
5.498877e+1, 1.6688609e+2, -1573341.3, -1312695.8, -17275.979, 0.06690664, 0.057262298, -1311555.6, -7035.847, 0.0000055425044, 9.997714, 10.001163 
5.4988265e+1, 1.7688668e+2, -1567033.3, -1290118.4, 16048.908, 0.017639576, -0.0067827003, -1289191.4, -82682.39, 0.00000000116644, 9.99722, 10.000881 
5.498929e+1, 1.8688674e+2, -1485767.4, -1358383.4, 67626.125, 0.010890935, -0.0038608555, -1329177.8, -220669.61, 0.0, 9.997784, 9.999471 
5.499106e+1, 1.9688657e+2, -1223803.5, -1168868.5, 61145.215, 0.022206225, 0.021838851, -1129304.6, -118792.19, 0.0, 9.998857, 9.99958 
5.4992145e+1, 2.0688659e+2, -996178.56, -964517.2, 46950.83, -0.04160428, 0.044843726, -930800.0, -18287.545, 0.0, 9.999557, 9.999972 
5.4992926e+1, 2.1688668e+2, -839208.0, -863177.8, 30818.385, -0.13921899, 0.050587915, -818126.1, -3615.0652, 0.0, 10.000068, 9.999749 
5.4994905e+1, 2.2688645e+2, -740060.25, -875807.3, 13965.998, -0.1407743, 0.110879794, -738638.3, -22121.895, 0.0, 10.00056, 9.99875 
5.499749e+1, 2.36886e+2, -556928.9, -708443.3, -22973.3, -0.091989756, 0.181191, -553522.1, 65003.05, 0.0, 10.001018, 9.999007 
5.4999363e+1, 2.4688484e+2, -418009.1, -469801.06, -58648.145, -0.028148493, 0.10132943, -379794.2, 140739.44, 0.0, 10.000783, 10.000086 
5.5000967e+1, 2.568833e+2, -405053.16, -418791.25, -13899.602, 0.043626726, -0.07008978, -396417.9, 26124.236, 0.0, 10.00022, 10.000035 
5.500439e+1, 2.668824e+2, -262210.72, -335877.2, 65555.06, 0.10223165, -0.14522085, -223849.84, 100697.39, 0.0, 10.000687, 9.999708 
5.5008686e+1, 2.7688184e+2, -59718.96, -238490.75, 29212.094, 0.15190864, -0.17337571, -55066.65, 171483.48, 0.0, 10.001624, 9.999252 
5.50112e+1, 2.868814e+2, 18568.658, -383547.1, -42333.277, 0.13505045, -0.021591479, 22977.023, 151535.45, 0.00000001499631, 10.002497, 9.997163 
5.5012774e+1, 2.9688057e+2, 250279.45, -193901.55, -49294.883, 0.076553956, 0.172189, 255684.39, 286257.06, 0.000005774703, 10.003295, 9.99741 
5.501426e+1, 3.0687618e+2, 313902.3, -39155.758, -47824.813, -0.015714183, -0.05938017, 320265.9, 320265.9, 0.00006760057, 10.002972, 9.998301 
5.5016017e+1, 3.16875e+2, 219885.73, -7113.228, -78413.555, -0.08060431, -0.0066249757, 244338.48, 244338.48, 0.00025331444, 10.001981, 9.998997 
6.498233e+1, 1.268794e+2, -2004353.9, -1745689.3, -16250.686, 0.3497939, -0.11506789, -1744672.4, -48093.113, 0.0010533662, 9.997532, 10.000977 
6.4979875e+1, 1.3688214e+2, -1932729.6, -1534041.6, 34930.027, -0.1731249, -0.066370375, -1531004.4, 67551.125, 0.00060913287, 9.996816, 10.002102 
6.498205e+1, 1.468858e+2, -1967900.6, -1697621.6, 34480.957, -0.15463908, 0.18442135, -1693292.0, -192768.39, 0.000254567, 9.996749, 10.000333 
6.498611e+1, 1.5688622e+2, -1826799.8, -1580412.3, 43247.48, 0.089206114, 0.19145063, -1573041.6, -170517.78, 0.00005931439, 9.997054, 10.000315 
6.498682e+1, 1.6688606e+2, -1534583.3, -1343762.6, -19795.459, 0.077500395, 0.12297493, -1341730.8, -37207.74, 0.0000034805446, 9.998193, 10.000718 
6.498599e+1, 1.7688568e+2, -1230895.3, -1170082.8, -61289.68, -0.05417346, 0.005908204, -1132071.4, 74449.945, 0.00000000000024211628, 9.999705, 10.000509 
6.498789e+1, 1.8688527e+2, -1160924.3, -1201657.9, -22433.64, -0.017577987, -0.024713939, -1150991.4, -42467.734, 0.0, 10.000014, 9.999469 
6.4991105e+1, 1.968848e+2, -1103193.5, -1120602.9, -16945.63, 0.09840197, -0.026340993, -1092847.6, -82319.5, 0.0, 9.999725, 9.999492 
6.4992243e+1, 2.068844e+2, -1050190.1, -1041436.0, -29732.787, 0.021054985, -0.017461473, -1015759.8, -103227.46, 0.0, 9.999409, 9.999513 
6.499239e+1, 2.1688399e+2, -1008299.06, -985412.56, -41864.934, -0.14868756, -0.016036047, -953455.1, -138918.2, 0.0, 9.999087, 9.99938 
6.4994323e+1, 2.268838e+2, -962822.4, -985248.8, -8826.85, -0.17757404, 0.06682228, -959765.0, -243222.39, 0.0, 9.999036, 9.998735 
6.499717e+1, 2.368837e+2, -830079.1, -838896.2, 8889.587, -0.1312616, 0.17145714, -824564.94, -206015.98, 0.0, 9.999138, 9.999019 
6.499972e+1, 2.4688256e+2, -513911.75, -512616.63, -28537.707, -0.035463918, 0.090033986, -484719.16, 35837.414, 0.0, 10.0001, 10.000124 
6.50022e+1, 2.5688085e+2, -236358.84, -355799.22, -27629.8, 0.08431791, -0.09815175, -230277.0, 192288.2, 0.0, 10.001453, 9.999877 
6.500568e+1, 2.668798e+2, -165853.02, -402100.16, 25752.063, 0.105911344, -0.12279193, -163078.5, 161495.47, 0.0, 10.001839, 9.998694 
6.5009654e+1, 2.7687904e+2, -92109.02, -339221.4, -35536.246, 0.080663495, -0.07207895, -87100.22, 139482.39, 0.0, 10.001768, 9.99849 
6.5013087e+1, 2.8687808e+2, -17048.459, -355771.34, -65144.375, 0.09786097, 0.038111143, -4951.6763, 123643.47, 0.000000013847158, 10.002058, 9.997563 
6.501617e+1, 2.968767e+2, 157337.63, -203561.63, -24042.754, 0.12811615, 0.13537331, 158932.28, 189544.63, 0.0000050256726, 10.002505, 9.997723 
6.5017676e+1, 3.06873e+2, 351254.44, -37917.38, -24475.926, 0.014349493, -0.035556268, 352787.75, 352787.75, 0.00006135474, 10.003307, 9.998143 
6.5018684e+1, 3.1687263e+2, 509974.0, 68759.42, -73086.86, -0.12206345, 0.11946368, 521765.66, 521765.66, 0.00023568289, 10.004258, 9.998419 
7.497806e+1, 1.2687866e+2, -1888033.8, -1508305.1, -49456.863, 0.15747647, 0.118657514, -1501969.5, 194628.69, 0.0009785703, 9.997551, 10.002595 
7.4977523e+1, 1.3688008e+2, -1842597.9, -1346783.0, 15445.343, -0.09442476, -0.11334197, -1346302.3, 252274.02, 0.0005580426, 9.996815, 10.003387 
7.497914e+1, 1.4688385e+2, -1929635.5, -1617714.4, 43472.566, -0.12521246, 0.06439733, -1611768.9, -111230.055, 0.00022607559, 9.996747, 10.000882 
7.4981445e+1, 1.5688492e+2, -1812133.6, -1552784.4, 64662.586, -0.08794019, 0.08673523, -1537556.4, -135024.72, 0.000048170983, 9.997065, 10.000501 
7.498292e+1, 1.6688456e+2, -1633174.1, -1547682.0, 38389.54, -0.13631123, 0.07158057, -1532973.9, -228437.6, 0.0000019773436, 9.99819, 9.999319 
7.4984133e+1, 1.768835e+2, -1308739.5, -1331275.1, -13601.032, -0.2159286, 0.023716263, -1302345.1, -95798.38, 0.0, 9.999703, 9.999402 
7.4987006e+1, 1.8688257e+2, -1145188.0, -1168373.8, -34864.38, -0.11282967, -0.026296714, -1120039.6, -11486.131, 0.0, 10.000012, 9.999698 
7.499066e+1, 1.968817e+2, -1097866.8, -1105736.1, -26876.027, 0.07657555, -0.089322686, -1074638.9, -64080.29, 0.0, 9.999711, 9.9996 
7.499251e+1, 2.068811e+2, -1080436.8, -1101122.1, -43167.086, 0.10150654, -0.08101012, -1046390.56, -133826.11, 0.0, 9.999393, 9.99911 
7.4993455e+1, 2.1688057e+2, -1024007.94, -1013697.5, -49662.375, 0.04344012, -0.053302433, -968923.5, -154352.33, 0.0, 9.999066, 9.999197 
7.499488e+1, 2.2688001e+2, -912639.56, -874968.5, -7419.409, -0.029442368, -0.046563074, -873559.9, -156981.86, 0.0, 9.999012, 9.999503 
7.4996597e+1, 2.3687942e+2, -798435.06, -764777.1, 23766.764, -0.10597544, -0.064051986, -752484.4, -133899.5, 0.0, 9.999103, 9.999544 
7.4999917e+1, 2.4687923e+2, -552991.2, -586723.56, 22305.645, -0.03050304, -0.04106951, -541892.94, -21307.75, 0.0, 10.000071, 9.999629 
7.500398e+1, 2.568792e+2, -285416.94, -453367.97, 15435.909, 0.113394305, -0.011729096, -284010.06, 138572.77, 0.0, 10.001434, 9.999215 
7.5005907e+1, 2.668781e+2, -260853.48, -598364.75, 21643.594, -0.059451245, 0.067651995, -259471.2, 65125.26, 0.0, 10.001831, 9.997353 
7.500687e+1, 2.7687648e+2, -154635.92, -466717.84, -31307.783, -0.37904334, 0.15542908, -151526.14, 75092.05, 0.0, 10.001756, 9.997622 
7.5011826e+1, 2.868742e+2, 63258.27, -185378.89, -49499.17, -0.23824278, 0.10281876, 72750.29, 201389.55, 0.000000011324871, 10.002044, 9.99874 
7.501863e+1, 2.9687145e+2, 217186.52, -72707.0, -2006.4382, 0.119258404, -0.054110076, 217200.39, 247862.58, 0.000004299147, 10.002477, 9.998635 
7.502177e+1, 3.068689e+2, 327833.3, -80692.45, 13012.764, 0.08870974, -0.12903656, 328247.4, 328247.4, 0.00005532779, 10.0032835, 9.997859 
7.502322e+1, 3.168704e+2, 453682.4, -41341.957, -38430.086, -0.10547614, 0.24796899, 456648.1, 456648.1, 0.00021830676, 10.004227, 9.997676 
8.4973353e+1, 1.2687743e+2, -2300080.3, -1692780.6, 8409.862, 0.07685328, 0.22481869, -1692664.1, 3951.0393, 0.0009093487, 9.9946575, 10.002727 
8.497431e+1, 1.3687846e+2, -2030907.9, -1435211.8, -35551.414, -0.030805286, -0.046667647, -1433097.5, 165498.8, 0.0005120121, 9.995515, 10.003407 
8.4976244e+1, 1.4688171e+2, -1971913.0, -1622948.4, -42427.836, -0.07089838, 0.07115727, -1617864.0, -117302.26, 0.00020159004, 9.996392, 10.001018 
8.497822e+1, 1.5688202e+2, -1770682.6, -1522330.0, -52084.74, -0.12743872, 0.005451178, -1511849.1, -109290.07, 0.000039447743, 9.997306, 10.000593 
8.498056e+1, 1.6688184e+2, -1724729.8, -1606628.4, -17489.57, -0.16194513, 0.012499907, -1604092.8, -299530.44, 0.0000010481418, 9.997626, 9.9991865 
8.4983224e+1, 1.7688145e+2, -1618515.4, -1492279.3, 18252.178, -0.17304908, 0.044327512, -1489693.1, -283124.97, 0.0, 9.997629, 9.999297 
8.498622e+1, 1.8688071e+2, -1412603.1, -1305233.1, 2522.897, -0.10109547, 0.021512114, -1305173.9, -196599.97, 0.0, 9.99821, 9.999632 
8.498936e+1, 1.9687979e+2, -1196052.3, -1163260.5, -14664.92, 0.009139849, -0.039725363, -1157659.0, -147079.34, 0.0, 9.999081, 9.999512 
8.4991723e+1, 2.0687896e+2, -1045554.0, -1111493.0, -32568.262, 0.067244925, -0.03461954, -1032180.44, -119592.54, 0.0, 9.999746, 9.998876 
8.499367e+1, 2.1687816e+2, -855663.56, -949129.3, -31053.639, 0.09884023, -0.010994513, -846286.8, -31689.176, 0.0, 10.000289, 9.999055 
8.499527e+1, 2.2687745e+2, -659856.8, -725315.7, -6629.3145, 0.02836613, -0.027969614, -659192.1, 57412.156, 0.0, 10.000625, 9.999754 
8.499674e+1, 2.368768e+2, -538133.1, -632080.1, -13392.729, -0.08804155, -0.07581411, -536261.25, 82348.2, 0.0, 10.000856, 9.99961 
8.5000265e+1, 2.468766e+2, -458488.3, -622896.0, -15669.1, -0.050796773, -0.013952579, -457008.25, 63603.266, 0.0, 10.001077, 9.998894 
8.500478e+1, 2.5687656e+2, -341107.2, -539588.3, -47074.254, 0.05703754, 0.086510494, -330508.44, 92104.35, 0.0, 10.001312, 9.99868 
8.500713e+1, 2.6687506e+2, -303201.6, -581520.0, 14633.819, -0.09598241, 0.12877867, -302434.25, 22195.361, 0.0, 10.001379, 9.997687 
8.5008544e+1, 2.7687287e+2, -192250.88, -448667.94, 82409.016, -0.36631274, 0.1289636, -168049.84, 58604.023, 0.0, 10.001346, 9.997941 
8.501344e+1, 2.8687087e+2, -12059.234, -204549.45, 68948.96, -0.25022677, 0.07875231, 10089.409, 138760.89, 0.000000007967864, 10.001449, 9.998898 
8.501992e+1, 2.968688e+2, 105391.38, -108077.95, 41625.098, 0.045213174, -0.026668292, 113220.836, 143908.55, 0.0000036091901, 10.001629, 9.9988 
8.502376e+1, 3.0686638e+2, 127765.93, -168764.83, 63928.625, 0.032976992, -0.10069743, 140961.05, 140961.05, 0.000049314654, 10.001866, 9.99794 
8.5026413e+1, 3.168666e+2, 116057.29, -232029.58, 29105.0, -0.09606969, 0.14573036, 118474.09, 118474.09, 0.00020064443, 10.00202, 9.99743 
9.496805e+1, 1.2687562e+2, -2398306.5, -1888078.3, 34495.3, 0.07146724, 0.20065966, -1885756.6, -189125.73, 0.0008487389, 9.994629, 10.001399 
9.49702e+1, 1.3687724e+2, -2115879.8, -1615062.0, -2618.087, 0.002491197, 0.13337983, -1615048.3, -16432.453, 0.00047347447, 9.995532, 10.002164 
9.49733e+1, 1.4687935e+2, -1988097.3, -1659509.6, -8406.247, -0.008349395, 0.20268758, -1659294.8, -158702.25, 0.00018256163, 9.996406, 10.00076 
9.4976366e+1, 1.5687752e+2, -1771199.4, -1524701.0, -20472.33, -0.050060853, -0.054055616, -1523012.3, -120405.945, 0.00003354367, 9.99731, 10.000575 
9.497967e+1, 1.6687793e+2, -1646640.8, -1442102.3, -18951.213, -0.018671073, -0.053505596, -1440361.1, -135760.0, 0.00000057940093, 9.997617, 10.000319 
9.498323e+1, 1.7687954e+2, -1559137.3, -1368215.4, 25339.545, 0.060816452, 0.0691503, -1364909.5, -158323.63, 0.0, 9.997624, 10.000152 
9.4985497e+1, 1.868797e+2, -1437877.5, -1355966.9, 34741.04, 0.0018765029, 0.12106616, -1343216.8, -234631.98, 0.0, 9.998202, 9.999286 
9.498711e+1, 1.9687907e+2, -1219312.8, -1208488.3, 18423.45, -0.12928592, 0.12248099, -1194698.5, -184107.25, 0.0, 9.999069, 9.999206 
9.4989794e+1, 2.0687802e+2, -1053886.8, -1125911.3, -13097.521, -0.10446036, 0.12307268, -1051579.0, -138976.39, 0.0, 9.999732, 9.998782 
9.499297e+1, 2.1687676e+2, -867282.0, -969191.25, -10293.411, -0.00481848, 0.108411565, -866252.75, -51636.39, 0.0, 10.00027, 9.998927 
9.499542e+1, 2.2687614e+2, -682262.3, -766234.25, 686.9289, -0.022912716, 0.122745045, -682256.7, 34364.656, 0.0, 10.000602, 9.999483 
9.499754e+1, 2.3687583e+2, -570117.0, -692657.0, -3676.3364, -0.098218866, 0.13840853, -570006.8, 48615.6, 0.0, 10.000831, 9.999207 
9.500074e+1, 2.4687463e+2, -529069.7, -765417.6, -8433.57, -0.11585843, 0.17414273, -528769.2, -8133.747, 0.0, 10.00106, 9.997923 
9.5004517e+1, 2.568729e+2, -372731.4, -600416.2, -37804.297, -0.104849465, 0.19596854, -366618.6, 56036.438, 0.0, 10.001292, 9.998272 
9.500929e+1, 2.6687065e+2, -165784.06, -293504.13, 11671.405, -0.02200911, 0.059289373, -164726.27, 159947.22, 0.0, 10.001366, 9.999673 
9.501455e+1, 2.768682e+2, -92252.55, -237482.22, 83465.88, 0.0952763, -0.15733406, -54235.254, 172455.22, 0.0, 10.0013275, 9.999403 
9.501782e+1, 2.8686804e+2, -72400.87, -325906.72, 73967.71, 0.039476562, -0.035408374, -52397.098, 76295.09, 0.0000000042394483, 10.001432, 9.998071 
9.5020014e+1, 2.968687e+2, 62923.35, -193900.3, 52261.992, -0.11283115, 0.21506901, 73151.03, 103840.17, 0.000002925069, 10.0016165, 9.998218 
9.5023644e+1, 3.068654e+2, 157971.83, -102181.74, 69938.77, -0.16799033, 0.047360208, 175581.89, 175581.89, 0.000043225835, 10.001852, 9.998404 
9.5028114e+1, 3.1686127e+2, 128315.01, -197502.88, 39571.445, -0.13823369, -0.18267277, 133052.19, 133052.19, 0.00018229416, 10.001981, 9.997687 
1.04963094e+2, 1.2687095e+2, -2377446.5, -1889767.9, -79610.89, 0.108024284, 0.11800256, -1877100.8, -180425.23, 0.0007977204, 9.994813, 10.001299 
1.0496597e+2, 1.3687378e+2, -1953235.8, -1561916.9, -37432.344, -0.03315729, 0.19610906, -1558368.5, 40283.12, 0.0004431459, 9.996749, 10.001943 
1.04970396e+2, 1.468761e+2, -1773799.0, -1550090.4, -14706.699, -0.010558413, 0.29319346, -1549127.8, -48500.87, 0.00016917764, 9.997846, 10.000817 
1.0497497e+2, 1.5687387e+2, -1592722.5, -1431431.5, -12293.822, 0.022317084, -0.007922778, -1430499.9, -27855.893, 0.000030278157, 9.9985, 10.000643 
1.0497859e+2, 1.6687417e+2, -1451472.5, -1330853.8, -67693.02, 0.050158672, -0.029953038, -1300501.3, 4138.294, 0.0000004316036, 9.99888, 10.000475 
1.0498187e+2, 1.7687586e+2, -1325594.1, -1236575.6, -93590.18, 0.08763914, 0.08209701, -1177449.9, 29173.566, 0.0, 9.999148, 10.0003195 
1.0498439e+2, 1.8687633e+2, -1208826.5, -1223638.8, -58959.73, -0.0026852444, 0.14779833, -1156809.5, -48190.297, 0.0, 9.999678, 9.999481 
1.049865e+2, 1.9687611e+2, -1028224.7, -1100933.6, -43450.496, -0.15768267, 0.1716126, -1007925.9, 2695.9744, 0.0, 10.000307, 9.999349 
1.0498947e+2, 2.0687497e+2, -990832.8, -1099785.6, -78391.21, -0.13086821, 0.15979473, -949847.9, -37213.844, 0.0, 10.00019, 9.998739 
1.0499288e+2, 2.1687336e+2, -954789.94, -1020681.6, -72488.13, -0.011642783, 0.116265565, -908111.94, -93461.0, 0.0, 9.999718, 9.9988365 
1.04996145e+2, 2.2687261e+2, -793696.8, -858950.44, -47378.836, 0.020521156, 0.13877113, -768797.44, -52140.25, 0.0, 10.000007, 9.999134 
1.0499935e+2, 2.3687223e+2, -613965.25, -745076.06, -62156.37, 0.009971496, 0.1813409, -589182.8, 29475.78, 0.0, 10.000668, 9.998925 
1.05002396e+2, 2.4687052e+2, -575842.5, -788578.1, -30773.258, -0.039431904, 0.17869505, -571480.44, -50804.445, 0.0, 10.000737, 9.997922 
1.05005406e+2, 2.5686806e+2, -482078.7, -643575.56, 5361.714, -0.10368453, 0.12958832, -481900.88, -59199.117, 0.0, 10.000496, 9.998361 
1.05010584e+2, 2.6686615e+2, -290272.28, -299731.13, 2414.5647, 0.025546964, -0.0043930416, -289691.56, 35024.137, 0.0, 10.000281, 10.00015 
1.0501677e+2, 2.768646e+2, -247060.44, -276061.13, -34083.22, 0.24649546, -0.18000492, -224521.27, 2201.6885, 0.0, 10.000109, 9.999724 
1.05019756e+2, 2.868645e+2, -169882.66, -405721.78, -25970.715, 0.11711127, -0.045767214, -167056.61, -38332.13, 0.0000000012344323, 10.000903, 9.997778 
1.0502112e+2, 2.968649e+2, 126388.56, -187553.44, -13923.526, -0.19015506, 0.2043592, 127004.87, 157730.48, 0.0000022309773, 10.002157, 9.998 
1.0502554e+2, 3.0686215e+2, 341353.75, -14333.771, -9210.479, -0.22524609, 0.101028286, 341592.1, 341592.1, 0.00003695323, 10.003111, 9.998403 
1.0503157e+2, 3.1685755e+2, 394880.84, -74273.69, -82014.555, -0.08154804, -0.17534317, 408804.84, 408804.84, 0.0001628002, 10.003837, 9.997641 
1.149584e+2, 1.2686324e+2, -2292277.5, -1720190.5, -11553.635, 0.14197354, -0.038257107, -1719957.3, -23206.412, 0.0007564603, 9.994843, 10.002448 
1.1496152e+2, 1.3686799e+2, -1895493.6, -1442040.3, 27523.947, -0.15929766, 0.13542862, -1440375.8, 158328.47, 0.00042056636, 9.996747, 10.0027685 
1.1496743e+2, 1.4687192e+2, -1750368.9, -1499440.6, 9309.758, -0.09697778, 0.34137946, -1499095.6, 1569.2697, 0.00016082273, 9.997839, 10.001167 
1.1497399e+2, 1.568711e+2, -1580793.3, -1408806.8, 11700.358, 0.06811076, 0.14602788, -1408014.4, -5342.2837, 0.000029173776, 9.998511, 10.000792 
1.1497727e+2, 1.668706e+2, -1505633.8, -1447056.4, -59833.23, 0.02470061, 0.08369129, -1409728.0, -105050.29, 0.0000005105562, 9.998896, 9.999671 
1.14979066e+2, 1.7687036e+2, -1361646.1, -1312426.4, -79535.81, -0.113405496, 0.08271921, -1253780.1, -47098.957, 0.0, 9.999149, 9.9998 
1.1498281e+2, 1.8687057e+2, -1159838.8, -1117882.5, -35365.586, -0.1330489, 0.10026265, -1097741.1, 10936.445, 0.0, 9.999662, 10.000215 
1.14987485e+2, 1.9687092e+2, -987528.4, -1013451.6, -25777.066, -0.09470545, 0.108227514, -971637.6, 39033.887, 0.0, 10.000296, 9.999954 
1.1499075e+2, 2.0686983e+2, -993242.7, -1101113.9, -98942.984, -0.026463877, 0.076506786, -934489.5, -21807.215, 0.0, 10.000174, 9.998738 
1.1499334e+2, 2.1686798e+2, -962396.3, -1032945.5, -81509.27, 0.05815661, 0.009105577, -908856.2, -94154.42, 0.0, 9.9997015, 9.99876 
1.14997365e+2, 2.2686681e+2, -825456.4, -921026.25, -23352.89, 0.13867052, 0.018851168, -820055.25, -103343.19, 0.0, 9.999989, 9.998717 
1.1500211e+2, 2.3686594e+2, -627892.25, -770055.75, -40927.133, 0.21447322, 0.050839745, -616951.8, 1766.3074, 0.0, 10.000648, 9.998764 
1.15005165e+2, 2.4686423e+2, -512292.7, -649586.44, -41343.117, 0.16076486, -0.002842676, -500804.38, 19928.965, 0.0, 10.00071, 9.998889 
1.150074e+2, 2.568621e+2, -444486.47, -558522.7, -1906.5042, 0.041827105, -0.11367407, -444454.63, -21701.59, 0.0, 10.000467, 9.998958 
1.1501095e+2, 2.6686168e+2, -364497.97, -450641.28, -6537.9375, 0.03053189, -0.062036276, -364004.6, -39248.41, 0.0, 10.000268, 9.999121 
1.15015164e+2, 2.7686203e+2, -304366.3, -393731.16, -29276.207, 0.07071449, 0.05659876, -295629.5, -68877.95, 0.0, 10.0001, 9.998922 
1.1501921e+2, 2.868603e+2, -155889.28, -372158.53, 20109.877, -0.030668076, 0.04340603, -154035.25, -25266.725, 0.00000000006210851, 10.000888, 9.998016 
1.1502314e+2, 2.968574e+2, 132004.11, -169733.86, 32697.113, -0.20765655, -0.058171477, 135506.6, 166303.77, 0.0000015849012, 10.002131, 9.998136 
1.1502933e+2, 3.0685663e+2, 306458.56, -78914.9, 18938.553, -0.15935417, 0.059027106, 307387.03, 307387.03, 0.000030721083, 10.003081, 9.997972 
1.15036644e+2, 3.168553e+2, 364757.16, -127756.6, -54845.66, 0.031590093, 0.15483251, 370790.78, 370790.78, 0.00014243544, 10.003798, 9.997292 
1.24953814e+2, 1.2685734e+2, -1909060.4, -1524683.6, 34874.113, 0.0724963, -0.049444612, -1521545.1, 175261.72, 0.0007247361, 9.997429, 10.002543 
1.2495782e+2, 1.3686083e+2, -1941662.1, -1471707.6, -7153.4775, -0.18650894, 0.007187662, -1471598.8, 127171.195, 0.00040489552, 9.9964695, 10.002696 
1.2496441e+2, 1.4686501e+2, -1971315.0, -1612197.4, -65438.535, -0.10688527, 0.24332228, -1600644.8, -99914.69, 0.00015657058, 9.996355, 10.001108 
1.2497147e+2, 1.5686513e+2, -1842298.3, -1536098.9, -97382.97, 0.055693645, 0.14928092, -1507751.8, -105020.12, 0.000029665785, 9.996724, 10.00078 
1.2497511e+2, 1.66865e+2, -1683345.9, -1512606.8, -122883.836, -0.015334729, 0.1156487, -1448348.8, -143614.77, 0.0000007617598, 9.997592, 9.999849 
1.249772e+2, 1.7686489e+2, -1422000.8, -1326609.3, -78568.1, -0.18889612, 0.11073412, -1282392.9, -75657.59, 0.0, 9.9986725, 9.999932 
1.2498185e+2, 1.8686485e+2, -1316500.1, -1203385.3, -68417.95, -0.14169194, 0.10213429, -1171174.6, -62439.816, 0.0, 9.99863, 10.000127 
1.24987714e+2, 1.968648e+2, -1317999.5, -1171110.0, -118775.62, 0.012622316, 0.07637362, -1104906.0, -94172.03, 0.0, 9.998028, 9.999964 
1.24991104e+2, 2.0686418e+2, -1172406.1, -1143347.0, -176058.13, 0.0641476, 0.06899982, -981219.94, -68480.27, 0.0, 9.998753, 9.999133 
1.2499332e+2, 2.1686324e+2, -878559.6, -954530.75, -132659.77, 0.06659759, 0.055418063, -778554.2, 36194.72, 0.0, 10.000111, 9.999102 
1.2499745e+2, 2.2686176e+2, -710305.1, -853206.9, -34527.977, 0.11209626, 0.012225301, -702399.8, 14361.256, 0.0, 10.00072, 9.998832 
1.2500252e+2, 2.3685998e+2, -572477.7, -724104.9, -20522.426, 0.1776836, -0.059493087, -569749.1, 49025.62, 0.0, 10.000946, 9.998936 
1.2500618e+2, 2.4685879e+2, -422967.34, -565876.1, -49032.723, 0.17050163, -0.08818058, -407761.84, 113022.516, 0.0, 10.001148, 9.999251 
1.2500912e+2, 2.568579e+2, -308091.1, -478215.3, -54039.96, 0.12492034, -0.107722394, -292376.8, 130415.35, 0.0, 10.001339, 9.999091 
1.2501206e+2, 2.6685756e+2, -172462.1, -446680.75, -47427.004, 0.030440303, -0.004414089, -164491.14, 160304.98, 0.0, 10.001967, 9.998331 
1.2501507e+2, 2.7685747e+2, 45400.53, -293140.44, -56070.68, -0.08278618, 0.14045194, 54445.547, 281244.38, 0.0, 10.002799, 9.998312 
1.2502006e+2, 2.8685462e+2, 131469.03, -220034.88, 191.77809, -0.12928784, 0.038244236, 131469.13, 260293.8, 0.0, 10.0028, 9.998141 
1.2502596e+2, 2.9685053e+2, 173363.73, -136445.0, 2425.2183, -0.14802049, -0.19623601, 173382.72, 204244.38, 0.0000010474641, 10.002359, 9.998256 
1.2503275e+2, 3.0685064e+2, 204681.36, -126948.5, 13601.828, -0.08781055, 0.0030801047, 205238.31, 205238.31, 0.000024841802, 10.002369, 9.997991 
1.2503982e+2, 3.1685013e+2, 199902.23, -180684.13, -32021.355, 0.034469273, 0.17439675, 202577.61, 202577.61, 0.00012196453, 10.002547, 9.997534 
1.3494919e+2, 1.268534e+2, -1976180.6, -1666472.4, -8798.994, -0.14529395, 0.09787019, -1666222.5, 30619.533, 0.0007016644, 9.997441, 10.001562 
1.3495488e+2, 1.3685241e+2, -2011051.3, -1619197.9, -34459.746, -0.1323947, -0.18272969, -1616190.5, -17342.523, 0.00039489288, 9.996488, 10.001674 
1.349613e+2, 1.4685532e+2, -2003461.1, -1683267.9, -54418.74, -0.056693356, -0.0005981656, -1674271.9, -173449.39, 0.00015526546, 9.99637, 10.000614 
1.349673e+2, 1.568559e+2, -1856405.0, -1564934.8, -77159.75, -0.038153857, -0.0036081292, -1545768.9, -142945.72, 0.000031126172, 9.996719, 10.000586 
1.34972e+2, 1.6685738e+2, -1604664.5, -1346785.4, -82954.35, -0.08950738, 0.06296898, -1322405.5, -17596.469, 0.0000011270397, 9.9975815, 10.000992 
1.3497621e+2, 1.7685942e+2, -1368819.6, -1215856.5, -47198.44, -0.15992264, 0.1620471, -1202465.3, 4321.403, 0.0, 9.998673, 10.00069 
1.3498145e+2, 1.8685916e+2, -1379892.1, -1334449.5, -94780.32, -0.048142906, 0.15348046, -1259705.1, -150913.92, 0.0, 9.998626, 9.999229 
1.3498709e+2, 1.9685768e+2, -1360420.4, -1257029.4, -126553.586, 0.1430752, 0.07347572, -1172020.0, -161210.31, 0.0, 9.998016, 9.999381 
1.3499048e+2, 2.0685802e+2, -1119657.6, -1029897.44, -125491.1, 0.12237658, 0.13717711, -941502.5, -28696.18, 0.0, 9.998735, 9.99992 
1.3499278e+2, 2.1685918e+2, -829585.06, -847202.3, -86237.125, -0.002873182, 0.2533806, -751707.9, 63084.656, 0.0, 10.000086, 9.99985 
1.3499632e+2, 2.2685744e+2, -668301.44, -761747.2, -27314.08, -0.077348165, 0.11855407, -660903.25, 55901.07, 0.0, 10.000702, 9.999468 
1.3500051e+2, 2.368543e+2, -540601.7, -655660.5, -10517.1875, -0.12272015, -0.15287128, -539648.25, 79180.58, 0.0, 10.000934, 9.999412 
1.3500537e+2, 2.4685419e+2, -442516.78, -601163.3, -43830.79, -0.029115088, -0.081121, -431212.7, 89616.914, 0.0, 10.001127, 9.999019 
1.3501053e+2, 2.568555e+2, -331257.06, -522097.1, -41008.293, 0.12723058, 0.14396028, -322818.22, 100001.17, 0.0, 10.001322, 9.998798 
1.3501383e+2, 2.668539e+2, -215365.27, -531398.1, -16621.686, 0.008767881, 0.16744058, -214493.45, 110341.97, 0.0, 10.001949, 9.997757 
1.3501634e+2, 2.7685082e+2, 9734.591, -360534.72, -30404.023, -0.23982057, 0.07242762, 12214.555, 239079.42, 0.0, 10.002771, 9.997862 
1.3502218e+2, 2.8684753e+2, 130748.36, -217126.55, -18462.516, -0.20004305, -0.059316557, 131725.47, 260618.44, 0.0, 10.002783, 9.998169 
1.3502955e+2, 2.9684424e+2, 179017.61, -122272.78, -7359.9204, -0.028977193, -0.21677105, 179197.28, 210117.16, 0.0000006413962, 10.002347, 9.998361 
1.3503575e+2, 3.0684417e+2, 234756.84, -56902.234, 20033.639, -0.025768844, -0.07170175, 236126.5, 236126.5, 0.000019439243, 10.002344, 9.99848 
1.3504095e+2, 3.16842e+2, 252932.77, -59811.773, -20004.846, -0.115826175, -0.11704622, 254207.19, 254207.19, 0.00010201916, 10.00251, 9.998378 
1.4494558e+2, 1.2684788e+2, -2045367.4, -1771468.0, -99282.45, -0.23999035, 0.20272523, -1739266.1, -42367.53, 0.0006852014, 9.997278, 10.000919 
1.4495273e+2, 1.3684556e+2, -1839081.5, -1610992.3, -104538.945, -0.06964774, -0.1318083, -1570328.9, 28590.627, 0.00038852147, 9.997982, 10.001012 
1.449592e+2, 1.4684805e+2, -1742806.4, -1558280.3, -79002.67, 0.006753643, 0.03537979, -1529077.8, -28179.771, 0.00015533686, 9.998163, 10.000607 
1.4496441e+2, 1.5684879e+2, -1650421.9, -1454855.9, -65402.52, -0.06559994, 0.04779408, -1434999.6, -32103.938, 0.00003278088, 9.998091, 10.000678 
1.4496972e+2, 1.6685028e+2, -1488102.3, -1228633.6, -70531.96, -0.100609675, 0.08000759, -1210700.3, 94178.84, 0.0000015078091, 9.998115, 10.001545 
1.4497524e+2, 1.7685227e+2, -1409263.0, -1190211.9, -83326.45, -0.09886226, 0.119851284, -1162117.9, 44736.484, 0.0, 9.998197, 10.001099 
1.4498083e+2, 1.8685219e+2, -1308024.4, -1314033.9, -109985.15, -0.00031242974, 0.122294866, -1201003.0, -92145.24, 0.0, 9.999184, 9.999099 
1.4498633e+2, 1.9685103e+2, -982907.7, -1080042.4, -88853.73, 0.13649665, 0.08556513, -930214.1, 80661.36, 0.0, 10.000624, 9.99934 
1.4499024e+2, 2.0685166e+2, -749797.56, -807058.6, -77783.76, 0.10787675, 0.15655585, -695542.5, 217327.02, 0.0, 10.001083, 10.000319 
1.4499335e+2, 2.1685311e+2, -667392.94, -728380.2, -79940.21, 0.00022095935, 0.26388198, -612327.8, 202524.14, 0.0, 10.001026, 10.000213 
1.4499684e+2, 2.2685198e+2, -710986.9, -762008.3, -82155.5, -0.07631215, 0.16461581, -650472.5, 66386.16, 0.0, 10.000325, 9.999648 
1.4500053e+2, 2.3684958e+2, -766973.7, -753050.1, -95832.664, -0.1328693, -0.048965875, -663926.7, -45049.26, 0.0, 9.999331, 9.999516 
1.450054e+2, 2.4684921e+2, -659074.1, -728468.9, -103461.09, -0.06793878, 0.0048599667, -584647.25, -63766.695, 0.0, 9.999734, 9.998818 
1.4501084e+2, 2.568498e+2, -413006.44, -574888.5, -101829.22, 0.053828094, 0.17474838, -363868.1, 59008.336, 0.0, 10.000823, 9.998674 
1.4501543e+2, 2.6684767e+2, -275762.28, -543574.0, -38242.258, -0.0018191875, 0.13905197, -270408.5, 54487.38, 0.0, 10.001463, 9.997907 
1.4501962e+2, 2.7684408e+2, -117877.37, -409683.03, -8122.5547, -0.14070867, -0.016840883, -117651.445, 109276.05, 0.0, 10.0018425, 9.9979725 
1.4502528e+2, 2.8684124e+2, 6820.625, -282037.56, -4211.878, -0.12442048, -0.106496185, 6882.026, 135833.84, 0.0, 10.001948, 9.998127 
1.4503156e+2, 2.968389e+2, 115697.84, -156475.42, 2556.8503, -0.040517572, -0.16570006, 115721.86, 146693.31, 0.0000003644557, 10.001925, 9.998327 
1.4503779e+2, 3.0683842e+2, 240084.4, -52372.156, 27312.334, -0.056696355, -0.06012708, 242613.23, 242613.23, 0.000014553311, 10.002371, 9.998497 
1.450434e+2, 3.168348e+2, 344285.78, 31357.834, -52631.957, -0.1402928, -0.2535174, 352900.88, 352900.88, 0.0000830137, 10.002926, 9.998809 
1.5494289e+2, 1.2684071e+2, -2060305.5, -1809214.0, -78653.29, -0.24827968, 0.2645849, -1786610.9, -89633.59, 0.0006720001, 9.997303, 10.000651 
1.5495129e+2, 1.368403e+2, -1857381.5, -1652730.8, -82923.49, -0.015341989, 0.16299498, -1623348.9, -24364.105, 0.00038301162, 9.997993, 10.000724 
1.5495801e+2, 1.4684321e+2, -1707300.4, -1485536.9, -83956.164, 0.067094326, 0.3572464, -1457338.0, 43618.36, 0.00015494693, 9.998168, 10.001104 
1.5496278e+2, 1.5684381e+2, -1621038.9, -1396099.8, -65952.16, -0.043769836, 0.3084002, -1378188.8, 24760.25, 0.000033834087, 9.998101, 10.001076 
1.5496825e+2, 1.6684371e+2, -1490389.0, -1233326.3, -70149.125, -0.06451199, 0.16797869, -1215429.4, 89514.48, 0.0000017896223, 9.998114, 10.0015135 
1.5497425e+2, 1.7684348e+2, -1403452.6, -1176934.8, -69547.07, -0.022473432, -0.013725493, -1157286.3, 49652.01, 0.0, 9.998191, 10.001193 
1.549799e+2, 1.8684398e+2, -1267416.5, -1228425.6, -55679.453, -0.015801681, 0.008089599, -1188927.3, -79992.96, 0.0, 9.999177, 9.999691 
1.5498535e+2, 1.9684482e+2, -951548.44, -1011433.0, -42229.125, -0.029895851, 0.112654075, -929723.56, 81208.02, 0.0, 10.000609, 9.999818 
1.5499029e+2, 2.0684507e+2, -751398.3, -807641.94, -81344.15, -0.00022230357, 0.12815213, -693452.06, 219477.34, 0.0, 10.00107, 10.000321 
1.5499495e+2, 2.1684505e+2, -672989.94, -735339.9, -86897.58, 0.052837424, 0.08689322, -611844.44, 203083.03, 0.0, 10.001004, 10.000175 
1.5499893e+2, 2.2684537e+2, -733427.56, -804611.2, -123512.04, 0.09719094, 0.15027809, -640481.44, 76442.734, 0.0, 10.000311, 9.999363 
1.5500253e+2, 2.3684578e+2, -788932.25, -793486.3, -118319.66, 0.12973459, 0.24809366, -672867.75, -53946.723, 0.0, 9.99931, 9.9992485 
1.5500621e+2, 2.4684387e+2, -674034.06, -754448.1, -63794.527, 0.035667975, 0.16843833, -638833.25, -117895.99, 0.0, 9.999712, 9.9986515 
1.5501003e+2, 2.568408e+2, -413752.38, -572627.06, -63051.82, -0.115769334, -0.013151368, -391770.66, 31192.504, 0.0, 10.000806, 9.998698 
1.5501674e+2, 2.6683876e+2, -217605.17, -419382.25, -25221.89, -0.020353107, -0.08956308, -214500.23, 110477.53, 0.0, 10.00145, 9.998766 
1.5502486e+2, 2.768372e+2, -72834.52, -312241.47, 4594.668, 0.19418298, -0.13136135, -72746.375, 154241.05, 0.0, 10.001824, 9.998651 
1.5502931e+2, 2.8683573e+2, -3400.745, -297796.88, -7371.2056, 0.08097534, -0.105629005, -3216.2976, 125785.34, 0.0, 10.0019245, 9.998031 
1.5503192e+2, 2.9683444e+2, 102045.38, -180705.86, 9692.463, -0.20253189, -0.045291305, 102377.24, 133393.88, 0.00000019831394, 10.001905, 9.998173 
1.5503876e+2, 3.0683342e+2, 203784.5, -120179.695, 49297.91, -0.19822313, 0.037559517, 211120.11, 211120.11, 0.000010333069, 10.002345, 9.998039 
1.5504695e+2, 3.1682867e+2, 343892.6, 38483.26, -21893.078, -0.0854575, -0.2292895, 345454.0, 345454.0, 0.0000654706, 10.002897, 9.998868 
1.6494021e+2, 1.2683184e+2, -2232028.0, -1854018.4, -78596.01, -0.17937945, 0.23152377, -1838328.0, -141262.13, 0.00065764156, 9.995957, 10.000995 
1.6494921e+2, 1.3683277e+2, -1837385.8, -1622190.9, -47933.867, -0.024571614, 0.24311039, -1611996.8, -12936.351, 0.00037533525, 9.998048, 10.0009 
1.6495648e+2, 1.468357e+2, -1595936.9, -1425197.3, -91201.58, 0.062181998, 0.4270299, -1385644.1, 115386.484, 0.00015252095, 9.998902, 10.001163 
1.6496164e+2, 1.5683576e+2, -1480425.8, -1335003.8, -109934.81, -0.01552732, 0.32122073, -1275909.8, 127116.414, 0.000033788867, 9.99909, 10.001018 
1.6496731e+2, 1.6683516e+2, -1389275.5, -1244931.4, -151316.8, -0.014968175, 0.16277863, -1149456.3, 155571.36, 0.0000018950186, 9.999064, 10.000976 
1.6497342e+2, 1.7683443e+2, -1316493.8, -1162593.4, -188097.16, 0.040612247, -0.017534876, -1036315.0, 170714.83, 0.0, 9.998911, 10.000941 
1.6497883e+2, 1.8683551e+2, -1298142.5, -1136445.1, -150362.4, -0.0057141148, 0.016015982, -1046573.75, 62444.934, 0.0, 9.9985075, 10.000645 
1.6498387e+2, 1.9683741e+2, -1282507.1, -1084982.8, -114865.23, -0.10562963, 0.13545606, -1032259.0, -21257.396, 0.0, 9.997972, 10.000583 
1.6498926e+2, 2.0683748e+2, -1191426.9, -1030070.25, -153308.2, -0.05936325, 0.10513168, -937507.7, -24506.79, 0.0, 9.998092, 10.000231 
1.6499484e+2, 2.168366e+2, -1033116.0, -916538.94, -167179.73, 0.065857984, -0.011339711, -797777.7, 17230.629, 0.0, 9.998564, 10.00011 
1.6499959e+2, 2.268373e+2, -789339.44, -825375.3, -180311.2, 0.15359157, 0.08912156, -626148.2, 90854.484, 0.0, 9.999902, 9.999415 
1.6500385e+2, 2.368387e+2, -444943.63, -622815.06, -151843.44, 0.214479, 0.27995583, -357907.78, 261083.44, 0.0, 10.001653, 9.99929 
1.6500758e+2, 2.4683656e+2, -316825.53, -581502.8, -73970.875, 0.08073586, 0.17563103, -297555.47, 223453.58, 0.0, 10.002165, 9.998654 
1.6501115e+2, 2.5683266e+2, -230222.61, -476980.84, -70834.445, -0.14311881, -0.08719064, -211334.63, 211706.64, 0.0, 10.002033, 9.998764 
1.6501787e+2, 2.6683092e+2, -197379.84, -366591.25, -70047.555, -0.048270486, -0.16098401, -172145.73, 152906.67, 0.0, 10.001396, 9.999156 
1.6502611e+2, 2.768302e+2, -241383.86, -361509.1, -72248.98, 0.20386179, -0.15671326, -207492.05, 19561.576, 0.0, 10.000528, 9.998935 
1.6503078e+2, 2.8682896e+2, -156824.48, -394593.25, -74443.94, 0.08386108, -0.104995504, -135439.86, -6372.9697, 0.0, 10.000975, 9.99782 
1.6503364e+2, 2.9682773e+2, 108071.74, -198824.33, -72259.62, -0.22485536, -0.021962265, 124234.3, 155318.3, 0.000000103924, 10.002046, 9.997976 
1.650412e+2, 3.0682656e+2, 210198.92, -129819.016, -22414.39, -0.19089296, 0.06278214, 211670.14, 211670.14, 0.000006944009, 10.002433, 9.997934 
1.6505016e+2, 3.168224e+2, 296330.9, 47166.402, -71782.77, -0.027683845, -0.14191389, 315531.47, 315531.47, 0.000049939055, 10.00243, 9.999148 
1.7493735e+2, 1.2682131e+2, -2165146.5, -1712265.8, -4125.055, -0.06909712, 0.107359335, -1712228.3, -15064.479, 0.0006375972, 9.995945, 10.001971 
1.7494641e+2, 1.36823e+2, -1791471.0, -1529096.1, 19628.762, -0.11339171, 0.10836861, -1527635.8, 71510.5, 0.00036289106, 9.998055, 10.001536 
1.7495458e+2, 1.4682539e+2, -1620396.3, -1477848.1, -86250.82, -0.023460368, 0.23620255, -1437233.0, 63888.41, 0.00014707113, 9.99891, 10.000797 
1.7496094e+2, 1.568246e+2, -1514253.8, -1406141.0, -103666.445, -0.0020375324, 0.08060315, -1343283.6, 59844.16, 0.00003249045, 9.999093, 10.000528 
1.7496686e+2, 1.6682455e+2, -1463844.1, -1399372.9, -158998.0, 0.02804498, 0.062181093, -1269375.6, 35754.887, 0.0000018022155, 9.999063, 9.999917 
1.7497273e+2, 1.7682509e+2, -1359457.0, -1252931.5, -195773.13, 0.075200655, 0.110848546, -1103305.0, 103824.29, 0.0, 9.998915, 10.0003195 
1.7497757e+2, 1.8682672e+2, -1205780.0, -943103.7, -172955.22, 0.012819252, 0.14484212, -857270.9, 251840.52, 0.0, 9.998499, 10.001977 
1.7498183e+2, 1.9682881e+2, -1209924.0, -931683.2, -127148.44, -0.11041107, 0.15225886, -882332.9, 128753.08, 0.0, 9.997958, 10.001643 
1.7498712e+2, 2.0682882e+2, -1206521.4, -1057710.3, -137953.64, -0.08497771, 0.08431301, -975375.94, -62291.566, 0.0, 9.998075, 10.00005 
1.7499298e+2, 2.1682778e+2, -1041552.6, -929925.5, -139049.89, 0.01864002, -0.033900987, -835905.75, -20810.846, 0.0, 9.998546, 10.000027 
1.7499873e+2, 2.2682782e+2, -763909.7, -767154.1, -113806.266, 0.07393797, -0.01878934, -651714.06, 65379.906, 0.0, 9.99988, 9.999825 
1.750044e+2, 2.3682836e+2, -422284.88, -571955.25, -95218.73, 0.10042839, 0.046277907, -376013.03, 243074.84, 0.0, 10.001635, 9.999649 
1.7500946e+2, 2.4682729e+2, -309316.28, -562534.0, -80220.445, 0.047388624, 0.026043115, -286041.44, 235054.61, 0.0, 10.00215, 9.998793 
1.750142e+2, 2.5682542e+2, -225854.19, -461962.53, -78858.8, -0.047102183, -0.050437395, -201938.3, 221172.92, 0.0, 10.0020075, 9.998879 
1.750188e+2, 2.668242e+2, -202439.84, -372862.88, -105999.086, -0.09706816, -0.0754508, -151648.39, 173471.34, 0.0, 10.00138, 9.999121 
1.750234e+2, 2.7682316e+2, -250178.67, -376706.38, -90121.36, -0.12357752, -0.09667129, -203332.69, 23793.549, 0.0, 10.000514, 9.998838 
1.7502964e+2, 2.8682107e+2, -183313.88, -447585.8, -35295.508, -0.13156988, -0.10480754, -178681.11, -49533.516, 0.0, 10.000966, 9.99746 
1.7503667e+2, 2.9681876e+2, 86514.914, -241216.81, -36223.035, -0.13190304, -0.09327573, 90470.77, 121644.48, 0.00000004563321, 10.002033, 9.997692 
1.7504503e+2, 3.0681786e+2, 228621.61, -87661.48, -23739.88, -0.054155365, 0.015874019, 230393.56, 230393.56, 0.0000044345684, 10.002419, 9.998229 
1.7505299e+2, 3.168161e+2, 326349.7, 116037.8, -64321.78, -0.0014483988, 0.014731155, 344462.0, 344462.0, 0.00003672069, 10.002401, 9.999637 
1.8493567e+2, 1.2681174e+2, -1598651.9, -1495307.5, 36639.24, -0.033928417, 0.042586416, -1483635.8, 213615.61, 0.0006079269, 10.000079, 10.001465 
1.8494472e+2, 1.3681227e+2, -1780274.8, -1577739.0, -56473.44, -0.10355084, -0.01199635, -1563056.8, 36188.742, 0.00034396173, 9.998365, 10.001053 
1.8495286e+2, 1.4681418e+2, -1767052.0, -1530760.0, -173072.64, -0.032142345, 0.07907228, -1439352.6, 61873.652, 0.00013809922, 9.997826, 10.000957 
1.8495907e+2, 1.5681359e+2, -1672120.1, -1458196.3, -152849.77, -0.03717915, -0.072342664, -1378600.1, 24631.873, 0.000029920388, 9.99791, 10.000741 
1.8496531e+2, 1.6681483e+2, -1537424.8, -1391234.0, -115497.43, 0.002061891, 0.005091849, -1327645.1, -22421.242, 0.0000015280342, 9.998373, 10.000306 
1.8497169e+2, 1.7681712e+2, -1325895.5, -1205208.1, -53103.156, 0.07668456, 0.19269696, -1185169.5, 22037.863, 0.0, 9.999006, 10.000607 
1.8497668e+2, 1.8681851e+2, -1116670.9, -912586.3, -81464.1, 0.043207377, 0.19754177, -884056.7, 225135.48, 0.0, 9.999163, 10.001864 
1.8498093e+2, 1.9681938e+2, -1048877.9, -859677.4, -139819.78, -0.051724512, 0.093098134, -785461.8, 225716.28, 0.0, 9.999087, 10.001592 
1.8498614e+2, 2.0681982e+2, -984338.25, -925590.25, -136728.7, -0.06012579, 0.056544937, -815115.9, 98056.43, 0.0, 9.9994955, 10.00027 
1.849919e+2, 2.1682e+2, -798521.9, -793331.0, -111548.01, -0.022194607, 0.040890314, -684348.25, 130822.65, 0.0, 10.000131, 10.000199 
1.8499792e+2, 2.268196e+2, -760102.8, -774357.8, -96879.73, 0.002750983, 0.008346674, -670088.75, 47085.164, 0.0, 9.999938, 9.999751 
1.8500407e+2, 2.3681891e+2, -758329.8, -730980.9, -120355.42, 0.021814737, -0.0445073, -623525.56, -4346.1772, 0.0, 9.999313, 9.999677 
1.8500964e+2, 2.4681847e+2, -706893.9, -702280.4, -114178.15, -0.00065495016, -0.029982928, -590385.7, -69203.76, 0.0, 9.999196, 9.999255 
1.8501486e+2, 2.5681815e+2, -589306.8, -604882.2, -91349.016, -0.0467426, 0.0041604172, -505414.13, -82230.99, 0.0, 9.999372, 9.999167 
1.8501954e+2, 2.6681718e+2, -383446.25, -512580.28, -122288.586, -0.11050347, 0.020963972, -309725.9, 15465.625, 0.0, 10.000365, 9.998649 
1.85024e+2, 2.768157e+2, -95285.31, -339544.3, -139599.67, -0.17749183, 0.0044565815, -31932.521, 195272.38, 0.0, 10.00174, 9.998502 
1.8503083e+2, 2.868133e+2, -18016.338, -337252.7, -55982.29, -0.15629038, -0.04227723, -8483.756, 120744.555, 0.0, 10.001968, 9.997735 
1.8503885e+2, 2.9681066e+2, 36327.996, -249940.11, -17499.402, -0.09412512, -0.08748753, 37393.758, 68647.46, 0.000000013949684, 10.001623, 9.9978285 
1.8504715e+2, 3.068092e+2, 79828.47, -197120.22, -26408.725, -0.038517278, -0.024866903, 82324.21, 82324.21, 0.0000026902987, 10.0015545, 9.997895 
1.8505438e+2, 3.1680787e+2, 187292.52, 18513.344, -110743.555, -0.057585172, 0.048777282, 242135.61, 242135.61, 0.000025864601, 10.001577, 9.999365 
1.9493513e+2, 1.2680312e+2, -1733362.0, -1784369.3, -33864.574, -0.10757793, 0.035110995, -1716471.8, -19142.611, 0.0005661583, 10.00012, 9.999461 
1.9494408e+2, 1.3680053e+2, -1893842.0, -1814665.6, -110108.25, -0.0071316934, -0.12427068, -1737245.1, -137886.33, 0.00031763376, 9.99837, 9.999425 
1.9495128e+2, 1.4680205e+2, -1720310.3, -1432934.1, -171604.11, 0.025118887, -0.045517914, -1352804.9, 148540.7, 0.00012543336, 9.99782, 10.001633 
1.94956e+2, 1.5680277e+2, -1610219.3, -1327556.6, -144523.73, -0.13914712, -0.1348461, -1266745.3, 136593.31, 0.000026112697, 9.997898, 10.001644 
1.9496258e+2, 1.66806e+2, -1408406.6, -1120892.9, -91582.055, -0.112236224, -0.0069107763, -1094199.4, 211108.23, 0.0000011234973, 9.998361, 10.002168 
1.9497027e+2, 1.7681053e+2, -1240077.4, -1026758.8, -30689.81, 0.028591963, 0.22451413, -1022431.3, 184832.63, 0.0, 9.999002, 10.001833 
1.9497617e+2, 1.868109e+2, -1229142.6, -1144827.0, -85249.59, 0.070299804, 0.171506, -1091880.9, 17379.898, 0.0, 9.999156, 10.000275 
1.949811e+2, 1.9680914e+2, -1132650.3, -1032237.75, -136403.13, 0.05198354, -0.04187066, -937094.5, 74183.66, 0.0, 9.99908, 10.000411 
1.9498625e+2, 2.0681047e+2, -942791.1, -835274.2, -113395.68, -0.0024190291, 0.022529952, -763539.44, 149725.38, 0.0, 9.999479, 10.000897 
1.9499156e+2, 2.1681328e+2, -772222.8, -734466.6, -93662.164, -0.0734258, 0.20840552, -657799.0, 157437.78, 0.0, 10.000113, 10.000612 
1.9499712e+2, 2.2681266e+2, -802340.4, -857403.94, -122836.375, -0.073861845, 0.16966307, -703988.2, 13254.732, 0.0, 9.999918, 9.99919 
1.9500281e+2, 2.3681031e+2, -782551.06, -777118.75, -137649.03, -0.040194508, 0.006325224, -642159.1, -22892.979, 0.0, 9.999295, 9.999369 
1.9500807e+2, 2.4681008e+2, -653554.4, -588521.7, -110288.375, -0.08077603, 0.0065178378, -506056.13, 15210.931, 0.0, 9.999183, 10.000044 
1.9501314e+2, 2.5681084e+2, -558041.5, -536047.3, -75688.586, -0.16018893, 0.07505669, -470561.1, -47303.84, 0.0, 9.999354, 9.999649 
1.9501998e+2, 2.668099e+2, -448128.16, -643675.75, -70627.66, -0.10551588, 0.12892161, -425286.94, -100019.34, 0.0, 10.000352, 9.997755 
1.9502772e+2, 2.7680796e+2, -137907.38, -423955.03, -96931.11, 0.017716361, 0.14737599, -108155.47, 119134.05, 0.0, 10.00172, 9.997934 
1.950343e+2, 2.8680563e+2, 43437.09, -206938.4, -71088.26, -0.010484827, 0.08140174, 62212.92, 191522.1, 0.0, 10.001957, 9.998636 
1.9504021e+2, 2.9680344e+2, 70684.445, -173596.78, -25731.432, -0.12576191, -0.008457001, 73365.45, 104690.28, 0.0000000023315327, 10.001599, 9.998365 
1.9504757e+2, 3.0680045e+2, 12318.909, -330075.4, -27206.7, -0.15397574, -0.061877582, 14467.277, 14467.277, 0.0000015022686, 10.00153, 9.996992 
1.950543e+2, 3.1679785e+2, 111510.48, -130865.61, -95329.56, -0.23229161, -0.025901161, 144511.5, 144511.5, 0.000017416096, 10.001545, 9.998354 
2.0493528e+2, 1.267942e+2, -1848650.0, -1822546.5, -135880.89, -0.061443564, 0.09668053, -1699092.0, -1671.8777, 0.0005126348, 9.999251, 9.999619 
2.0494331e+2, 1.3679147e+2, -1743923.5, -1733156.0, -51649.18, 0.03201461, -0.085924804, -1686610.8, -87161.49, 0.00028421695, 9.99936, 9.999507 
2.0494977e+2, 1.4679329e+2, -1546851.3, -1334133.9, -63314.918, 0.03598247, 0.012998075, -1316714.8, 184718.08, 0.000109345194, 9.998945, 10.001769 
2.0495358e+2, 1.5679488e+2, -1542501.8, -1278086.0, -76321.71, -0.19000898, -0.0056936615, -1257637.6, 145780.56, 0.000021261263, 9.998288, 10.001797 
2.0496026e+2, 1.667976e+2, -1407740.4, -1100136.4, -94788.32, -0.17602494, 0.055414997, -1073273.3, 232117.19, 0.00000067965186, 9.99828, 10.002346 
2.0496859e+2, 1.7680098e+2, -1292862.0, -1042934.5, -164421.34, -0.019045794, 0.15458049, -961378.75, 245976.42, 0.0, 9.998607, 10.00191 
2.0497498e+2, 1.8680127e+2, -1298138.8, -1223134.0, -211505.47, 0.049311884, 0.11543899, -1045831.8, 63521.652, 0.0, 9.998878, 9.999872 
2.0498028e+2, 1.9679998e+2, -1151419.4, -1079639.4, -176787.3, 0.061332174, -0.011253459, -935135.8, 76233.2, 0.0, 9.999115, 10.000071 
2.0498581e+2, 2.0680116e+2, -970205.3, -852520.3, -143376.13, 0.01484294, 0.054174744, -756381.7, 156976.28, 0.0, 9.999306, 10.000864 
2.049915e+2, 2.1680354e+2, -865086.6, -773013.25, -178788.94, -0.056609053, 0.20019265, -634429.06, 180904.78, 0.0, 9.99945, 10.000668 
2.0499712e+2, 2.2680347e+2, -812531.94, -814238.75, -190662.5, -0.051733136, 0.1887245, -622720.94, 94613.48, 0.0, 9.999643, 9.999618 
2.0500268e+2, 2.3680215e+2, -677062.7, -693296.1, -133974.36, -0.009653914, 0.08494005, -550959.44, 68388.164, 0.0, 9.999877, 9.999664 
2.0500807e+2, 2.468018e+2, -516283.94, -550848.8, -115611.78, -0.05131384, 0.077829294, -416669.97, 104680.26, 0.0, 10.000249, 9.999787 
2.0501342e+2, 2.568019e+2, -375859.53, -468085.4, -157841.39, -0.13343833, 0.10547294, -257533.08, 165814.88, 0.0, 10.000693, 9.99947 
2.0502083e+2, 2.668008e+2, -388000.56, -595395.6, -113919.086, -0.07070466, 0.1378479, -337650.25, -12290.279, 0.0, 10.000679, 9.997931 
2.0502928e+2, 2.767989e+2, -314590.0, -489968.9, -72164.79, 0.06788137, 0.14663301, -288713.63, -61333.33, 0.0, 10.000423, 9.998105 
2.0503595e+2, 2.86797e+2, -195672.42, -308429.63, -79927.83, 0.04521215, 0.10683183, -154239.95, -24843.92, 0.0, 10.000254, 9.99876 
2.0504165e+2, 2.9679534e+2, -130703.11, -253305.86, -85750.35, -0.06760253, 0.06038869, -86595.84, -55189.203, 0.000000000097020676, 10.000143, 9.998519 
2.0504895e+2, 3.0679208e+2, -68338.875, -332126.22, -15864.356, -0.13065666, -0.04465819, -67388.21, -67388.21, 0.00000074711346, 10.000816, 9.997326 
2.050557e+2, 3.1678954e+2, 159616.94, -103778.44, 5664.1514, -0.26108477, -0.038166713, 159738.69, 159738.69, 0.000011534893, 10.001863, 9.998387 
2.1493603e+2, 1.2678501e+2, -1683928.5, -1478680.3, -135813.61, 0.07927388, 0.22873299, -1411077.9, 286446.75, 0.00045092413, 9.999241, 10.001985 
2.1494238e+2, 1.3678516e+2, -1613680.3, -1466870.5, -50531.848, -0.0016314323, 0.110219106, -1451158.9, 148357.3, 0.00024584652, 9.999375, 10.0013275 
2.149482e+2, 1.4678802e+2, -1573246.9, -1391956.3, -89696.5, -0.018095471, 0.25994572, -1355078.9, 146408.58, 0.00009091271, 9.99896, 10.001366 
2.1495177e+2, 1.567899e+2, -1584878.1, -1366126.3, -92501.82, -0.20470798, 0.31388184, -1332255.3, 71215.625, 0.000015871614, 9.998289, 10.001192 
2.1495831e+2, 1.6678962e+2, -1517657.0, -1325653.9, -83193.03, -0.20145346, 0.19166256, -1294622.5, 10849.862, 0.00000031009594, 9.998269, 10.000803 
2.1496661e+2, 1.767884e+2, -1373050.1, -1205529.3, -150953.73, -0.08044743, -0.019141505, -1116654.6, 90826.945, 0.0, 9.998591, 10.0008 
2.1497302e+2, 1.8678957e+2, -1245702.0, -1110205.9, -204718.64, -0.036612596, 0.027702233, -962316.5, 147154.5, 0.0, 9.99886, 10.000657 
2.1497843e+2, 1.9679189e+2, -1116377.0, -1003715.6, -166641.72, -0.040772147, 0.18543752, -884141.2, 127309.875, 0.0, 9.999103, 10.000597 
2.1498477e+2, 2.0679192e+2, -1021598.25, -955363.2, -139643.05, -0.022832928, 0.15512578, -844964.3, 68487.18, 0.0, 9.999289, 10.000167 
2.1499164e+2, 2.167908e+2, -890764.2, -820731.3, -171210.75, 0.0084992815, 0.017390234, -680992.9, 134469.2, 0.0, 9.999426, 10.000351 
2.1499783e+2, 2.2679202e+2, -716551.75, -610697.6, -184213.94, 0.05158782, 0.06494707, -471958.2, 245490.5, 0.0, 9.999624, 10.001024 
2.1500364e+2, 2.3679435e+2, -615879.1, -560335.06, -121926.2, 0.09631511, 0.19191882, -463057.94, 156365.83, 0.0, 9.999853, 10.000587 
2.1500961e+2, 2.4679364e+2, -609507.2, -742511.94, -100453.69, 0.073522195, 0.18635331, -555537.56, -34106.348, 0.0, 10.000238, 9.998479 
2.1501563e+2, 2.567913e+2, -438343.06, -593064.44, -144066.14, 0.015396893, 0.09504651, -352180.88, 71274.59, 0.0, 10.000672, 9.998623 
2.1502203e+2, 2.6678976e+2, -304046.38, -417428.7, -125358.375, -0.021092264, 0.048674855, -223156.25, 102312.63, 0.0, 10.000665, 9.999157 
2.1502863e+2, 2.7678853e+2, -255819.53, -362890.9, -80176.195, -0.044146646, 0.004749722, -212948.3, 14529.249, 0.0, 10.000402, 9.998986 
2.1503577e+2, 2.8678736e+2, -239956.97, -396749.22, -87430.57, -0.0030097938, 0.03786119, -200922.03, -71433.14, 0.0, 10.000239, 9.99816 
2.1504313e+2, 2.967864e+2, -147376.92, -288516.2, -81391.83, 0.06221068, 0.116302066, -110221.42, -78722.11, 0.0, 10.000143, 9.998279 
2.1505122e+2, 3.067841e+2, 38552.934, -108904.21, 22805.783, 0.012949031, 0.025520502, 41999.527, 41999.527, 0.00000035021336, 10.000813, 9.998859 
2.1505843e+2, 3.1678292e+2, 222989.23, 33911.047, 53371.438, -0.18277897, 0.020268138, 237014.19, 237014.19, 0.0000079753145, 10.001836, 9.999347 
2.2493462e+2, 1.2677646e+2, -1611758.1, -1371460.5, 59186.684, 0.0057440493, 0.17123082, -1357673.5, 339934.56, 0.00038622326, 9.999428, 10.002631 
2.2494088e+2, 1.3677779e+2, -1634189.9, -1438205.0, 9738.615, -0.07321709, 0.110520005, -1437722.3, 161864.33, 0.00020573678, 9.999073, 10.001671 
2.2494742e+2, 1.4678036e+2, -1558374.9, -1470627.9, -84498.2, -0.016099235, 0.26528668, -1419292.0, 82269.13, 0.00007189719, 9.9994335, 10.000598 
2.2495192e+2, 1.567816e+2, -1366653.8, -1344854.0, -120409.766, -0.11009496, 0.33173066, -1234851.8, 168700.9, 0.000010694928, 10.000151, 10.000441 
2.2495809e+2, 1.6678046e+2, -1360420.3, -1328599.0, -88119.84, -0.119584866, 0.19352734, -1254964.9, 50598.668, 0.000000092361944, 9.9996805, 10.000107 
2.2496535e+2, 1.7677821e+2, -1408045.3, -1282120.9, -89709.7, -0.065386236, -0.05101888, -1235483.5, -27900.484, 0.0, 9.998603, 10.000274 
2.2497152e+2, 1.8677962e+2, -1249367.9, -1082914.3, -117521.23, -0.065399386, 0.025374323, -1022134.3, 87435.78, 0.0, 9.998709, 10.0009165 
2.2497705e+2, 1.9678281e+2, -1058781.1, -952026.5, -126795.91, -0.101228654, 0.24497409, -867830.75, 143710.58, 0.0, 9.999396, 10.000812 
2.2498336e+2, 2.0678265e+2, -1043983.75, -962040.94, -98424.984, -0.08228884, 0.18670492, -896400.25, 17142.535, 0.0, 9.999119, 10.000201 
2.2499013e+2, 2.1678083e+2, -1043180.6, -893896.6, -73758.586, -0.031675745, -0.026876254, -863601.7, -48042.12, 0.0, 9.998377, 10.000354 
2.2499695e+2, 2.2678195e+2, -815709.75, -669728.7, -105857.84, 0.034589436, 0.017034879, -614136.56, 103410.91, 0.0, 9.998992, 10.000923 
2.250038e+2, 2.3678452e+2, -559383.6, -546465.56, -162063.38, 0.10498185, 0.1765833, -390732.56, 228788.75, 0.0, 10.000298, 10.000469 
2.2501038e+2, 2.4678373e+2, -552235.0, -736720.6, -137258.48, 0.102154605, 0.18247761, -479103.6, 42426.13, 0.0, 10.000729, 9.9982815 
2.2501677e+2, 2.5678122e+2, -438843.3, -606013.0, -106598.11, 0.05955511, 0.0936009, -386967.5, 36588.402, 0.0, 10.000724, 9.998508 
2.25023e+2, 2.6677975e+2, -260238.94, -367552.38, -112522.73, 0.00034463868, 0.041389927, -189234.48, 136334.0, 0.0, 10.000841, 9.999416 
2.2502917e+2, 2.7677876e+2, -152824.9, -291805.66, -137195.58, -0.060640797, -0.0063924324, -68524.72, 159049.72, 0.0, 10.001023, 9.999175 
2.2503646e+2, 2.8677768e+2, -46713.355, -325338.22, -132045.08, -0.027237797, 0.04218741, 5921.754, 135508.03, 0.0, 10.0016575, 9.997969 
2.2504425e+2, 2.9677677e+2, 183954.48, -135324.0, -105678.69, 0.046438754, 0.14107208, 215764.13, 247363.34, 0.0, 10.002448, 9.99822 
2.2505276e+2, 3.0677524e+2, 265347.2, 71694.28, -40687.77, 0.025759231, 0.0960305, 273548.63, 273548.63, 0.00000022631835, 10.002062, 9.999497 
2.2506064e+2, 3.16775e+2, 136548.33, 21545.813, -72019.08, -0.10756438, 0.11978097, 171205.31, 171205.31, 0.0000058579526, 10.001115, 9.999608 
2.3493084e+2, 1.2676865e+2, -1690465.0, -1538133.9, 43447.574, -0.32280445, -0.07603468, -1526613.1, 171056.08, 0.0003226795, 9.999442, 10.001481 
2.3493879e+2, 1.3676925e+2, -1717530.3, -1611421.8, 2746.118, -0.19465394, -0.08967553, -1611350.8, -11690.067, 0.0001666326, 9.999073, 10.0004835 
2.3494737e+2, 1.4677024e+2, -1641296.9, -1639815.9, -57970.305, 0.032403186, 0.022623109, -1582581.4, -80926.73, 0.00005400246, 9.999422, 9.999442 
2.3495398e+2, 1.5676989e+2, -1429855.4, -1477649.5, -103185.016, 0.0750677, 0.04375698, -1347836.4, 55828.188, 0.000006396683, 10.000158, 9.999526 
2.3495953e+2, 1.6677e+2, -1346625.8, -1300566.8, -132738.7, 0.050785996, 0.056824207, -1188874.6, 116790.28, 0.000000013163342, 9.999683, 10.0002985 
2.3496476e+2, 1.767704e+2, -1400129.1, -1264863.1, -117525.734, 0.010805837, 0.05904794, -1196899.1, 10760.172, 0.0, 9.998598, 10.000394 
2.3497036e+2, 1.8677144e+2, -1272091.3, -1124819.9, -91137.43, -0.053397767, 0.109496735, -1081288.0, 28362.287, 0.0, 9.998689, 10.000638 
2.3497611e+2, 1.9677274e+2, -1067160.4, -966519.56, -107865.32, -0.13776834, 0.16804402, -897814.44, 113825.31, 0.0, 9.999385, 10.000716 
2.3498154e+2, 2.0677336e+2, -992685.25, -851346.6, -129318.58, -0.18041518, 0.14501914, -774647.56, 138984.6, 0.0, 9.999102, 10.00097 
2.3498689e+2, 2.1677361e+2, -1023414.4, -845078.6, -86534.85, -0.19679052, 0.06778611, -809991.94, 5634.358, 0.0, 9.998345, 10.000704 
2.3499444e+2, 2.2677329e+2, -932347.5, -906950.94, -57372.203, -0.11926882, 0.047390517, -860888.5, -143258.19, 0.0, 9.998971, 9.999305 
2.350031e+2, 2.3677261e+2, -644481.3, -717849.5, -119326.15, 0.0021925678, 0.04213713, -556327.7, 63312.195, 0.0, 10.0002775, 9.999301 
2.3501031e+2, 2.467721e+2, -490797.7, -608282.8, -139913.36, 0.018693576, 0.06935116, -397795.63, 123850.15, 0.0, 10.000722, 9.999167 
2.3501675e+2, 2.5677162e+2, -400387.22, -519737.38, -104363.53, -0.018443203, 0.09880374, -339842.25, 83807.664, 0.0, 10.000695, 9.999115 
2.3502366e+2, 2.667707e+2, -310464.9, -467235.6, -108157.62, -0.019396318, 0.116493836, -255275.06, 70383.914, 0.0, 10.000822, 9.998742 
2.3503079e+2, 2.767694e+2, -190726.95, -366966.63, -123923.54, -0.0037065693, 0.107350074, -126787.1, 100884.32, 0.0, 10.001006, 9.998669 
2.3503792e+2, 2.8676787e+2, -37051.832, -298240.34, -102010.77, -0.049447425, 0.116773054, -1932.3015, 127756.234, 0.0, 10.001629, 9.998169 
2.35045e+2, 2.9676637e+2, 185652.03, -123156.38, -85217.83, -0.1296751, 0.13593608, 207607.52, 239314.13, 0.0, 10.002409, 9.998324 
2.350536e+2, 3.067655e+2, 245807.88, 39144.836, -78152.086, -0.099844985, 0.16755414, 272033.88, 272033.88, 0.00000035232202, 10.002029, 9.9992895 
2.3506217e+2, 3.167658e+2, 100042.13, -46087.99, -90541.99, -0.074424334, 0.26410443, 143322.92, 143322.92, 0.000004583004, 10.001079, 9.999163 
2.449315e+2, 1.267626e+2, -1636238.0, -1686659.0, 11168.981, -0.2554108, -0.120576546, -1633874.8, 63847.508, 0.00026302057, 10.000572, 9.999915 
2.4493822e+2, 1.3676207e+2, -1685549.5, -1742548.6, -63711.277, -0.19889025, -0.090537824, -1644254.0, -44522.14, 0.0001305452, 9.9999275, 9.999171 
2.4494672e+2, 1.4676206e+2, -1604525.5, -1617798.8, -42890.82, 0.014807446, -0.026046503, -1567760.9, -66024.984, 0.000038366878, 9.999652, 9.999484 
2.4495362e+2, 1.5676118e+2, -1511291.1, -1514510.8, -4497.435, 0.051664878, -0.06239253, -1508124.0, -104376.4, 0.000003303544, 9.999588, 9.99955 
2.4495934e+2, 1.667618e+2, -1291308.1, -1284355.6, -29046.36, 0.042666797, 0.0065904288, -1258578.3, 47164.55, 0.00000000018007511, 10.000111, 10.000204 
2.4496469e+2, 1.767632e+2, -1074125.5, -1125130.1, -42931.785, 0.030562317, 0.11930704, -1049692.8, 158036.11, 0.0, 10.000912, 10.000239 
2.449702e+2, 1.8676357e+2, -1096407.4, -1087538.6, -38538.086, -0.0076151653, 0.13345902, -1053180.6, 56546.105, 0.0, 10.000097, 10.000216 
2.4497576e+2, 1.9676334e+2, -1223263.0, -1082451.4, -62721.75, -0.067417346, 0.07995322, -1058565.1, -46834.06, 0.0, 9.998487, 10.000353 
2.4498129e+2, 2.0676418e+2, -1002543.0, -866950.56, -97977.58, -0.11288046, 0.09900121, -815600.1, 98121.41, 0.0, 9.999079, 10.000875 
2.4498694e+2, 2.1676552e+2, -682855.1, -703293.25, -124194.33, -0.14530894, 0.14086199, -568460.1, 247245.28, 0.0, 10.000776, 10.000509 
2.4499433e+2, 2.2676478e+2, -726704.5, -883997.3, -75966.06, -0.11362571, 0.1281115, -696006.94, 21708.01, 0.0, 10.000712, 9.998624 
2.4500257e+2, 2.3676296e+2, -754043.3, -824300.4, -69954.76, -0.05154443, 0.07234935, -710892.3, -91154.445, 0.0, 9.999757, 9.99882 
2.4501008e+2, 2.4676242e+2, -574519.5, -598589.9, -78193.695, -0.03727859, 0.091408364, -507440.22, 14303.698, 0.0, 9.999935, 9.999611 
2.4501717e+2, 2.5676253e+2, -375747.13, -473213.66, -81145.664, -0.046978574, 0.13555066, -329825.47, 93915.86, 0.0, 10.000716, 9.999423 
2.450244e+2, 2.6676178e+2, -338102.3, -514942.03, -88058.484, -0.025244184, 0.17506684, -301732.88, 24016.695, 0.0, 10.000777, 9.998437 
2.4503165e+2, 2.7676046e+2, -284907.25, -432228.1, -79821.17, 0.012102607, 0.19271302, -249952.39, -22188.383, 0.0, 10.000442, 9.998494 
2.450387e+2, 2.8675887e+2, -256098.92, -351239.9, -26909.436, -0.045762073, 0.17755885, -249015.33, -119234.695, 0.0, 9.999897, 9.998639 
2.4504557e+2, 2.967573e+2, -244412.11, -287771.03, 3374.956, -0.15192565, 0.14541411, -244150.97, -212354.1, 0.0000000013688052, 9.999275, 9.998701 
2.4505413e+2, 3.067569e+2, -134517.39, -153370.67, 21588.432, -0.11823911, 0.21392219, -120387.25, -120387.25, 0.00000049095377, 9.999457, 9.999207 
2.4506289e+2, 3.167568e+2, -64701.957, -140565.31, 21397.123, -0.055100355, 0.28070435, -59083.1, -59083.1, 0.0000033431768, 10.000015, 9.999024 
2.5493655e+2, 1.2675837e+2, -1776690.6, -1979906.8, -16316.414, 0.18091466, 0.044425968, -1775388.9, -77622.07, 0.00020976436, 10.000577, 9.997902 
2.5493917e+2, 1.3675623e+2, -1784754.3, -1954308.5, -84327.734, -0.100028105, 0.11064573, -1749955.8, -150155.4, 0.00009902971, 9.999949, 9.997709 
2.549454e+2, 1.4675581e+2, -1513296.0, -1429975.5, -47704.66, -0.086817324, 0.12203926, -1408300.9, 93503.87, 0.000025643241, 9.99966, 10.000769 
2.5495067e+2, 1.5675554e+2, -1441424.4, -1368589.9, 542.03613, -0.20551997, 0.017121915, -1368585.8, 35215.484, 0.0000014046367, 9.999583, 10.000554 
2.549574e+2, 1.6675593e+2, -1321562.1, -1344841.3, 1591.8916, -0.16654669, 0.04586721, -1321453.8, -15657.067, 0.0, 10.0001, 9.999794 
2.549651e+2, 1.7675667e+2, -1104603.0, -1189506.6, -26376.906, -0.023617191, 0.1331907, -1097075.8, 110715.67, 0.0, 10.0009165, 9.999796 
2.5497097e+2, 1.86756e+2, -1134796.0, -1167310.0, -102635.19, 0.05552969, 0.095533416, -1047138.25, 62661.57, 0.0, 10.000098, 9.999667 
2.549759e+2, 1.967546e+2, -1269322.0, -1173247.9, -100831.32, 0.092338294, -0.020317314, -1109595.6, -97780.22, 0.0, 9.998469, 9.999738 
2.549826e+2, 2.067551e+2, -1073899.8, -1009668.9, -33461.17, 0.10590567, 0.046016507, -995404.9, -81593.75, 0.0, 9.999055, 9.9999075 
2.5499028e+2, 2.1675655e+2, -738285.94, -814220.3, -74992.97, 0.10708892, 0.19426122, -692196.9, 123600.164, 0.0, 10.000759, 9.999756 
2.5499654e+2, 2.2675645e+2, -708279.06, -843855.4, -114695.42, 0.035059053, 0.26035115, -642837.06, 74964.17, 0.0, 10.000703, 9.998904 
2.5500214e+2, 2.367555e+2, -741655.56, -792926.25, -93246.016, -0.07375107, 0.26742586, -670585.25, -50769.816, 0.0, 9.999732, 9.999049 
2.5500956e+2, 2.4675469e+2, -576768.44, -599533.94, -49637.094, -0.085984655, 0.24823223, -537225.7, -15401.433, 0.0, 9.999919, 9.999612 
2.550179e+2, 2.567539e+2, -376522.13, -470798.25, -56592.652, -0.048063416, 0.20174076, -350007.44, 73823.05, 0.0, 10.0007, 9.999448 
2.5502512e+2, 2.6675296e+2, -335348.75, -507108.25, -101920.22, -0.03398746, 0.21759051, -287950.34, 37890.04, 0.0, 10.000768, 9.998496 
2.5503173e+2, 2.7675182e+2, -275964.63, -409392.56, -92675.84, -0.031648092, 0.24862944, -228487.67, -634.9897, 0.0, 10.000422, 9.998662 
2.5503877e+2, 2.8675064e+2, -206109.34, -245793.9, -53556.2, -0.03427642, 0.22364928, -168837.86, -38974.813, 0.0, 9.99989, 9.999367 
2.5504595e+2, 2.9674953e+2, -201271.23, -196832.11, -11837.748, -0.04698153, 0.1649489, -187007.64, -155136.27, 0.0000000027819003, 9.999268, 9.9993305 
2.550543e+2, 3.0674946e+2, -133485.19, -146090.27, 41461.297, -0.049860884, 0.23152807, -97850.13, -97850.13, 0.00000035934053, 9.999436, 9.999267 
2.5506267e+2, 3.1674805e+2, -57093.387, -117936.32, 52985.285, -0.08773885, 0.16785632, -26417.342, -26417.342, 0.000001952308, 9.999986, 9.999194 
2.649376e+2, 1.2675221e+2, -1805301.0, -1935992.8, -92153.41, 0.25575328, 0.13356853, -1757676.4, -59842.414, 0.00016526908, 10.000128, 9.998419 
2.6494014e+2, 1.3675074e+2, -1587083.1, -1814035.1, 14724.996, -0.052537613, 0.21584386, -1586131.8, 13726.13, 0.000073295, 10.001109, 9.998113 
2.6494595e+2, 1.4675008e+2, -1368865.1, -1379213.6, 26467.549, -0.05060307, 0.19473498, -1347070.9, 154792.2, 0.000016155976, 10.000731, 10.000599 
2.649504e+2, 1.5674946e+2, -1433869.9, -1382504.1, -34036.164, -0.19608578, 0.071320295, -1365548.3, 38313.813, 0.00000046134082, 9.999715, 10.000392 
2.6495677e+2, 1.667493e+2, -1493670.4, -1447914.3, -32993.023, -0.18292741, 0.06268563, -1430643.3, -124780.89, 0.0, 9.999008, 9.999613 
2.6496437e+2, 1.7674936e+2, -1474885.8, -1393980.5, -45292.77, -0.06407998, 0.10160342, -1373705.5, -165841.88, 0.0, 9.998488, 9.999561 
2.649705e+2, 1.8674868e+2, -1234674.3, -1273218.6, -110044.805, 0.023404548, 0.102760606, -1142226.8, -32353.932, 0.0, 9.99966, 9.999153 
2.649759e+2, 1.967476e+2, -837794.6, -1024447.44, -109394.18, 0.086873785, 0.07005959, -787326.4, 224560.2, 0.0, 10.001684, 9.999212 
2.6498297e+2, 2.0674719e+2, -770552.4, -927460.6, -19481.256, 0.121638715, 0.101113044, -768169.8, 145721.28, 0.0, 10.001416, 9.999334 
2.6499096e+2, 2.1674712e+2, -884587.3, -932062.3, -35194.867, 0.13962355, 0.15257436, -865873.1, -49981.94, 0.0, 9.999961, 9.99933 
2.6499712e+2, 2.2674695e+2, -798852.9, -857489.2, -70632.945, 0.059237488, 0.21355395, -751695.1, -33800.176, 0.0, 9.999951, 9.999173 
2.6500237e+2, 2.3674671e+2, -587792.6, -699612.5, -52463.61, -0.06948936, 0.26557273, -567032.2, 52868.688, 0.0, 10.000702, 9.999224 
2.650098e+2, 2.4674608e+2, -498616.1, -591519.25, -11139.11, -0.08505653, 0.2727131, -497299.16, 24609.6, 0.0, 10.000581, 9.9993515 
2.6501834e+2, 2.567452e+2, -484426.16, -536056.6, -38634.605, -0.040685017, 0.2393758, -463775.72, -39857.703, 0.0, 10.000015, 9.99933 
2.6502568e+2, 2.667443e+2, -363690.66, -467552.13, -63526.94, -0.035048675, 0.23917249, -333569.75, -7642.7993, 0.0, 10.000347, 9.998968 
2.6503235e+2, 2.7674338e+2, -146112.5, -306546.3, -30311.846, -0.04580385, 0.2430732, -140576.52, 87359.4, 0.0, 10.001147, 9.999015 
2.650396e+2, 2.867422e+2, -4701.989, -179581.61, -44734.867, -0.014190596, 0.2209232, 6076.981, 136023.02, 0.0, 10.001409, 9.99909 
2.65047e+2, 2.9674098e+2, 85816.84, -81693.08, -80167.266, 0.031976234, 0.17652701, 118000.16, 149956.38, 0.0000000015775828, 10.001339, 9.9991255 
2.6505476e+2, 3.0674085e+2, 73188.03, -40243.44, -39505.063, -0.013672919, 0.24628094, 85590.484, 85590.484, 0.00000017508441, 10.000822, 9.9993305 
2.6506236e+2, 3.167387e+2, -11814.804, -52688.723, -23911.803, -0.120178945, 0.09852089, -796.33954, -796.33954, 0.0000010268939, 10.000105, 9.999589 
2.749345e+2, 1.2674399e+2, -1587558.1, -1482663.1, -56519.92, -0.08130932, 0.14327714, -1458005.3, 239919.67, 0.00013112096, 10.000126, 10.001527 
2.7494103e+2, 1.3674559e+2, -1424715.0, -1473586.6, 38812.5, -0.07913711, 0.2213395, -1403286.6, 196617.8, 0.000054122807, 10.0011, 10.00045 
2.7494833e+2, 1.4674486e+2, -1486116.0, -1621564.3, -14518.212, 0.109808885, 0.1937817, -1484577.3, 17333.152, 0.000009862749, 10.000726, 9.998941 
2.7495283e+2, 1.567429e+2, -1526718.4, -1577566.8, -68093.02, 0.06861728, 0.10123687, -1479457.9, -75528.03, 0.00000011248763, 9.999725, 9.99905 
2.7495745e+2, 1.6674185e+2, -1488744.8, -1437944.5, -55796.336, -0.01950465, 0.054508347, -1402038.9, -96098.75, 0.0, 9.999009, 9.9996805 
2.7496246e+2, 1.7674126e+2, -1479542.0, -1399577.3, -47702.363, -0.108176745, 0.019391505, -1377317.3, -169371.48, 0.0, 9.998471, 9.999532 
2.7496877e+2, 1.867416e+2, -1272964.5, -1346861.1, -32822.523, -0.12084386, 0.15413952, -1260491.1, -150545.05, 0.0, 9.999636, 9.998659 
2.7497572e+2, 1.9674242e+2, -869196.0, -1087834.0, -52854.4, -0.10284395, 0.35899487, -857089.2, 154854.88, 0.0, 10.0016775, 9.998779 
2.7498233e+2, 2.0674054e+2, -783473.1, -952218.75, -77355.39, -0.08590235, 0.2721998, -753379.2, 160581.63, 0.0, 10.001407, 9.999169 
2.7498886e+2, 2.1673724e+2, -894435.94, -946764.75, -74433.586, -0.06833992, 0.016428212, -841702.06, -25714.225, 0.0, 9.999936, 9.999241 
2.7499595e+2, 2.2673626e+2, -785089.56, -824772.0, -43003.117, -0.058294248, -0.013496161, -757571.1, -39574.883, 0.0, 9.999933, 9.999407 
2.7500325e+2, 2.3673654e+2, -582974.56, -685168.6, -30553.729, -0.053451315, 0.06594353, -574536.4, 45458.29, 0.0, 10.000682, 9.999333 
2.7501076e+2, 2.4673656e+2, -536388.8, -666523.4, -34789.38, -0.04948071, 0.16337053, -527672.25, -5674.377, 0.0, 10.0005665, 9.998842 
2.7501833e+2, 2.5673637e+2, -506783.94, -578597.9, -50803.258, -0.045971468, 0.24887693, -480479.3, -56475.16, 0.0, 9.999997, 9.999046 
2.7502593e+2, 2.6673582e+2, -304525.6, -338306.25, -35398.527, -0.046819907, 0.24234946, -282194.25, 43815.07, 0.0, 10.000323, 9.9998665 
2.7503347e+2, 2.7673507e+2, -113789.99, -231369.78, -3625.2676, -0.050428364, 0.17588082, -113678.32, 114335.7, 0.0, 10.001115, 9.999545 
2.7504116e+2, 2.867335e+2, -97193.66, -367117.06, -47954.86, -0.001259145, 0.16891654, -88927.12, 41102.773, 0.0, 10.001388, 9.997812 
2.7504873e+2, 2.9673156e+2, 10929.976, -233872.83, -85110.74, 0.065289244, 0.17896745, 37612.246, 69663.81, 0.00000000023047185, 10.001323, 9.998088 
2.7505544e+2, 3.0673116e+2, 75960.76, -30158.67, -68359.78, -0.027558874, 0.257402, 109436.55, 109436.55, 0.00000009864051, 10.000806, 9.999405 
2.7506182e+2, 3.1672862e+2, 21778.316, 30401.584, -38399.43, -0.1933221, 0.05777954, 64730.688, 64730.688, 0.0000007170346, 10.0000515, 10.000182 
2.8493392e+2, 1.2673739e+2, -1532944.9, -1395197.6, 124204.1, -0.15517257, 0.08484077, -1322049.4, 375939.66, 0.000106857166, 10.000238, 10.002076 
2.8494078e+2, 1.3673936e+2, -1704089.3, -1562099.9, 17255.166, -0.108839676, 0.14094223, -1560033.0, 39929.324, 0.000041325715, 9.998982, 10.000865 
2.8494874e+2, 1.4673866e+2, -1693951.4, -1777159.8, -26347.986, 0.1376654, 0.1303534, -1686310.0, -184340.63, 0.0000062880904, 9.999539, 9.998446 
2.8495386e+2, 1.5673696e+2, -1360880.8, -1547513.0, -2727.627, 0.1345501, 0.11003741, -1360840.9, 43149.316, 0.000000028346124, 10.001074, 9.99861 
2.8495815e+2, 1.6673583e+2, -1161374.6, -1301861.8, 4506.8994, 0.033182226, 0.085785374, -1161230.1, 144771.55, 0.0, 10.001353, 9.999483 
2.849623e+2, 1.76735e+2, -1125986.0, -1248957.9, -2192.2502, -0.09392527, 0.047463663, -1125946.9, 82061.57, 0.0, 10.000988, 9.999351 
2.8496885e+2, 1.8673499e+2, -1124424.1, -1283835.1, 73988.57, -0.12840123, 0.15782972, -1095376.3, 14634.585, 0.0, 10.000692, 9.998581 
2.8497654e+2, 1.9673535e+2, -1062732.1, -1196583.4, 72866.41, -0.12389186, 0.3276213, -1030720.7, -18709.29, 0.0, 10.000413, 9.998643 
2.8498307e+2, 2.0673333e+2, -905110.25, -1050618.3, 10139.481, -0.121367574, 0.25181147, -904407.1, 9623.336, 0.0, 10.000743, 9.998812 
2.8498906e+2, 2.1673004e+2, -704568.0, -889346.56, -2970.4465, -0.117056735, 0.03138616, -704520.25, 111539.266, 0.0, 10.001389, 9.998935 
2.8499612e+2, 2.2672878e+2, -589559.06, -738464.1, 30227.25, -0.10148909, -0.01078305, -583656.94, 134413.31, 0.0, 10.001312, 9.999335 
2.8500375e+2, 2.367286e+2, -562784.75, -681338.8, 14049.749, -0.07931242, 0.02995621, -561142.5, 58928.914, 0.0, 10.000851, 9.999276 
2.8501132e+2, 2.4672835e+2, -532329.8, -670135.1, 12950.245, -0.053239737, 0.10704389, -531123.4, -9047.422, 0.0, 10.000622, 9.99879 
2.850188e+2, 2.5672802e+2, -439219.25, -558802.94, 28703.375, -0.025012178, 0.18761137, -432686.5, -8603.919, 0.0, 10.00052, 9.998932 
2.850261e+2, 2.6672757e+2, -391636.28, -423622.53, 4265.4287, -0.040558036, 0.21700563, -391077.25, -64988.977, 0.0, 9.999908, 9.999481 
2.850333e+2, 2.76727e+2, -439783.8, -424020.94, -59350.242, -0.07536343, 0.2047497, -372031.1, -143937.19, 0.0, 9.9990225, 9.999233 
2.850411e+2, 2.8672522e+2, -404095.44, -512604.4, -55283.813, -0.03720628, 0.18578143, -380891.25, -250778.66, 0.0, 9.999268, 9.997835 
2.850491e+2, 2.9672283e+2, -166358.28, -324364.94, -6468.1563, 0.02908348, 0.15409993, -166093.95, -133956.19, 0.00000000083608903, 10.000131, 9.998039 
2.8505567e+2, 3.0672225e+2, -40215.504, -144078.44, -13993.668, -0.05912659, 0.24638364, -38363.145, -38363.145, 0.00000014515044, 10.000258, 9.998883 
2.850619e+2, 3.1672013e+2, -5282.047, 13909.242, -28815.162, -0.17981666, 0.13562422, 34684.473, 34684.473, 0.00000086647884, 9.999877, 10.000152 
2.9493585e+2, 1.267325e+2, -1676414.0, -1694080.3, 78268.31, 0.0019584321, -0.038713943, -1606481.9, 91543.01, 0.00009036305, 10.000241, 10.000025 
2.9493928e+2, 1.3673207e+2, -1813028.3, -1787473.5, -13639.632, -0.1603728, -0.025982214, -1781561.3, -181529.97, 0.00003357825, 9.998979, 9.999321 
2.9494703e+2, 1.4673151e+2, -1648409.5, -1680546.1, 30062.342, 0.009005943, 0.0018437562, -1630390.6, -128350.71, 0.0000046865553, 9.99953, 9.999114 
2.949534e+2, 1.5673159e+2, -1329872.4, -1478923.5, 45325.617, -0.022506112, 0.09559929, -1317171.4, 86871.62, 0.00000001715619, 10.001059, 9.999086 
2.9495877e+2, 1.6673127e+2, -1196005.3, -1373227.9, -10569.74, -0.04441016, 0.15968941, -1195377.1, 110669.49, 0.0, 10.001349, 9.998997 
2.949639e+2, 1.7673062e+2, -1147915.6, -1296813.0, -12927.589, -0.039197538, 0.18864793, -1146801.6, 61249.934, 0.0, 10.000997, 9.999019 
2.949707e+2, 1.8672882e+2, -1101694.4, -1233403.0, 61531.336, -0.016224533, 0.11166399, -1077421.6, 32645.73, 0.0, 10.00068, 9.998933 
2.9497832e+2, 1.9672641e+2, -1051666.4, -1170276.4, 69611.66, 0.009584307, -0.029614376, -1019522.7, -7433.8516, 0.0, 10.000398, 9.998831 
2.9498506e+2, 2.0672555e+2, -948893.9, -1136571.0, 34203.676, 0.0013099093, 0.037821956, -942854.7, -28754.533, 0.0, 10.000723, 9.998232 
2.949914e+2, 2.167255e+2, -746681.6, -970426.8, 17083.613, -0.024578597, 0.1987522, -745384.75, 70721.6, 0.0, 10.001363, 9.99839 
2.949976e+2, 2.2672446e+2, -619155.6, -793754.0, 10769.13, -0.08725287, 0.22315358, -618493.94, 99623.266, 0.0, 10.001286, 9.998968 
2.9500377e+2, 2.3672289e+2, -583370.3, -718037.8, 469.14127, -0.16631778, 0.16060992, -583368.7, 36762.027, 0.0, 10.000824, 9.999037 
2.9501137e+2, 2.4672148e+2, -505153.66, -610930.06, 7928.9756, -0.11341759, 0.10750879, -504562.6, 17580.027, 0.0, 10.000609, 9.999203 
2.9501966e+2, 2.5672016e+2, -436947.94, -551331.6, 22588.857, 0.0051973565, 0.04875943, -432648.6, -8494.749, 0.0, 10.000506, 9.99899 
2.9502612e+2, 2.667195e+2, -511330.47, -670555.8, -30792.998, -0.031335898, 0.15390055, -505582.8, -179418.08, 0.0, 9.999902, 9.997789 
2.9503164e+2, 2.767191e+2, -523729.78, -596186.6, -80378.02, -0.1458851, 0.32483125, -471792.88, -243616.86, 0.0, 9.999013, 9.998056 
2.9503936e+2, 2.867173e+2, -314520.9, -322388.6, -24860.973, -0.14324532, 0.27404863, -293284.47, -163090.4, 0.0, 9.999252, 9.999148 
2.9504806e+2, 2.9671478e+2, -107715.836, -194540.97, 22541.627, -0.091154374, 0.1033928, -102212.4, -69997.45, 0.000000000815003, 10.000095, 9.998948 
2.9505533e+2, 3.0671415e+2, -121525.16, -307185.63, -27275.12, -0.12173407, 0.21441005, -117601.14, -117601.14, 0.00000014882718, 10.000232, 9.997777 
2.9506242e+2, 3.1671295e+2, -50714.84, -78624.92, -30153.738, -0.12636559, 0.30806163, -31443.52, -31443.52, 0.0000009608549, 9.999864, 9.999525 
3.0493638e+2, 1.2672754e+2, -1964240.8, -1915714.4, -49399.41, 0.11319045, 0.023008607, -1884941.1, -186867.16, 0.000079028214, 9.998625, 9.999284 
3.0493847e+2, 1.3672613e+2, -1668270.5, -1768044.4, -54727.77, -0.19624332, 0.0025561734, -1644104.5, -44011.38, 0.000029149944, 10.000185, 9.998875 
3.0494618e+2, 1.4672564e+2, -1496290.9, -1538200.4, 37118.73, -0.06111116, 0.021065231, -1474620.5, 27479.93, 0.000004277796, 10.000281, 9.999725 
3.049531e+2, 1.5672664e+2, -1499438.8, -1515391.3, 42384.652, -0.08916918, 0.1466355, -1464286.4, -60194.434, 0.000000032166714, 9.9997, 9.999491 
3.0495918e+2, 1.6672602e+2, -1399670.4, -1528345.4, -17623.191, -0.082899116, 0.19601527, -1397300.4, -91202.14, 0.0, 10.0001955, 9.998489 
3.0496502e+2, 1.7672446e+2, -1140661.9, -1335112.3, -30840.133, -0.036370303, 0.18171848, -1135887.8, 72225.38, 0.0, 10.0012245, 9.998646 
3.0497167e+2, 1.8672237e+2, -1039273.1, -1177559.3, 10587.672, -0.001892505, 0.077500015, -1038467.2, 71663.336, 0.0, 10.000999, 9.999163 
3.049787e+2, 1.9672005e+2, -1078100.9, -1168247.1, 14528.322, 0.019664317, -0.07720545, -1075817.3, -63668.293, 0.0, 10.00016, 9.998958 
3.0498573e+2, 2.0671926e+2, -1048551.56, -1235438.3, 22654.594, 0.018112006, 0.019598613, -1045844.56, -131684.06, 0.0, 10.000256, 9.99778 
3.0499277e+2, 2.1671925e+2, -855615.2, -1070130.4, 6347.4824, 0.006102224, 0.23118858, -855427.56, -39258.598, 0.0, 10.000813, 9.997974 
3.0499882e+2, 2.2671832e+2, -686168.06, -846630.1, -11955.129, -0.07517345, 0.29335004, -685282.25, 32897.918, 0.0, 10.000914, 9.998783 
3.0500433e+2, 2.3671687e+2, -599645.94, -745247.9, -11428.47, -0.19116256, 0.2618992, -598754.3, 21438.604, 0.0, 10.000797, 9.998863 
3.0501178e+2, 2.4671504e+2, -477889.9, -611426.06, -11769.663, -0.14581227, 0.17912498, -476860.5, 45347.844, 0.0, 10.000852, 9.9990835 
3.0502018e+2, 2.5671294e+2, -373508.47, -537081.5, -40167.35, -0.017743438, 0.05782359, -364177.2, 60048.25, 0.0, 10.001011, 9.998845 
3.0502662e+2, 2.6671174e+2, -315971.72, -609416.6, -41478.543, -0.04551393, 0.1302289, -310221.4, 16019.897, 0.0, 10.001388, 9.997492 
3.0503204e+2, 2.767109e+2, -119792.99, -419289.88, 6887.948, -0.15040238, 0.28630576, -119634.664, 108622.11, 0.0, 10.001869, 9.997892 
3.0503935e+2, 2.867097e+2, -14335.11, -120919.45, 58215.152, -0.16091132, 0.2710126, 11297.11, 141565.64, 0.0, 10.001072, 9.999654 
3.0504748e+2, 2.9670832e+2, -154684.23, -169956.83, 45547.125, -0.12895289, 0.16441298, -116137.7, -83860.25, 0.0, 9.999572, 9.999367 
3.0505484e+2, 3.0670744e+2, -255557.3, -374256.16, 42617.566, -0.14510544, 0.23307654, -241840.92, -241840.92, 0.000000046207905, 9.999325, 9.997752 
3.0506265e+2, 3.167065e+2, -65983.16, -70401.78, 113530.06, -0.077165455, 0.35467547, 45359.094, 45359.094, 0.0000006302649, 9.9997015, 9.999656 
3.1493536e+2, 1.2672251e+2, -1923672.9, -1830944.6, 16345.283, 0.14203277, 0.27570677, -1828147.8, -130011.836, 0.000070953254, 9.998624, 9.9998665 
3.1493834e+2, 1.3672158e+2, -1618028.8, -1666438.1, -9459.702, -0.23372643, 0.23586768, -1616245.9, -16098.603, 0.00002673591, 10.0002, 9.999564 
3.1494623e+2, 1.4672115e+2, -1457381.6, -1459452.3, 11682.315, -0.091549456, 0.19612738, -1446688.9, 55461.145, 0.0000044998383, 10.000287, 10.000264 
3.1495288e+2, 1.5672211e+2, -1476246.0, -1464759.5, 31813.715, -0.08541823, 0.26566097, -1438174.8, -34037.785, 0.00000006594377, 9.999688, 9.999843 
3.149592e+2, 1.6672012e+2, -1439901.5, -1608131.1, 21175.486, -0.09997355, 0.19394542, -1437277.0, -131120.69, 0.0, 10.000179, 9.997949 
3.1496564e+2, 1.7671649e+2, -1172996.4, -1399360.0, -2160.5051, -0.102077894, 0.02498675, -1172975.8, 35217.926, 0.0, 10.001212, 9.998212 
3.149717e+2, 1.8671565e+2, -1031804.6, -1161646.3, -23347.389, -0.10535479, 0.05838337, -1027734.06, 82466.42, 0.0, 10.000996, 9.999274 
3.1497753e+2, 1.9671625e+2, -1077309.4, -1163431.0, -6315.5576, -0.11547462, 0.1857016, -1076848.8, -64657.023, 0.0, 10.000144, 9.998999 
3.149849e+2, 2.0671445e+2, -1076326.1, -1284613.3, 42559.875, -0.090039834, 0.19606958, -1067965.4, -153753.55, 0.0, 10.00022, 9.997458 
3.149931e+2, 2.1671134e+2, -877815.9, -1109702.4, 25416.72, -0.0432097, 0.13093309, -875062.7, -58815.395, 0.0, 10.000786, 9.997715 
3.1499967e+2, 2.2671041e+2, -689173.56, -849263.25, -17427.605, -0.08339647, 0.20295349, -687298.3, 30960.518, 0.0, 10.000897, 9.998774 
3.1500536e+2, 2.3671052e+2, -610962.4, -764652.9, -11356.36, -0.17042518, 0.3304328, -610127.75, 10130.628, 0.0, 10.000779, 9.998739 
3.1501245e+2, 2.4670894e+2, -527115.9, -709336.44, -8130.7456, -0.16627325, 0.31772807, -526753.8, -4480.1655, 0.0, 10.000834, 9.998419 
3.1502026e+2, 2.5670645e+2, -401497.4, -589320.56, -31124.123, -0.11267818, 0.21672733, -396474.2, 27823.133, 0.0, 10.000987, 9.998497 
3.150275e+2, 2.6670435e+2, -240772.02, -450158.56, -23894.473, -0.09925323, 0.15176643, -238079.88, 88237.65, 0.0, 10.001372, 9.998594 
3.1503436e+2, 2.7670243e+2, -62855.65, -295309.6, 15604.472, -0.108971894, 0.09040226, -61812.81, 166523.52, 0.0, 10.0018425, 9.998757 
3.1504095e+2, 2.8670236e+2, -39371.48, -166805.84, -785.4194, -0.10934591, 0.17261165, -39366.637, 90970.03, 0.0, 10.001047, 9.99935 
3.1504726e+2, 2.9670337e+2, -161044.83, -181019.13, 2124.6926, -0.111892365, 0.32977295, -160821.31, -128495.086, 0.0, 9.999563, 9.999294 
3.1505415e+2, 3.0670202e+2, -183329.39, -225794.08, 55611.1, -0.14961168, 0.2997511, -145035.2, -145035.2, 0.0000000033307248, 9.999329, 9.998771 
3.1506243e+2, 3.1670064e+2, -6475.296, 57812.992, 130848.73, -0.07899388, 0.26955214, 160407.98, 160407.98, 0.0000003754494, 9.999679, 10.000548 
3.2493377e+2, 1.2671521e+2, -1738693.9, -1696553.9, 64407.234, 0.07102938, 0.29441607, -1649857.9, 48353.836, 0.000065481014, 9.9997, 10.000269 
3.2493842e+2, 1.367154e+2, -1663725.6, -1639464.3, 39.416504, -0.21755731, 0.31391585, -1639464.3, -39253.37, 0.000025738174, 9.999676, 10.000003 
3.2494652e+2, 1.4671476e+2, -1575930.6, -1522690.6, -47929.746, -0.051223457, 0.24068509, -1494484.6, 7730.1606, 0.000005011868, 9.999504, 10.000206 
3.2495257e+2, 1.5671504e+2, -1524976.4, -1477781.0, -66651.48, -0.06358024, 0.24662581, -1430673.1, -26464.91, 0.000000115129794, 9.999312, 9.999933 
3.2495913e+2, 1.6671343e+2, -1474105.0, -1538770.8, 13611.055, -0.09179421, 0.16470301, -1471356.9, -165134.23, 0.0, 9.999578, 9.9987135 
3.2496625e+2, 1.7671077e+2, -1298066.0, -1404197.6, 78731.22, -0.10710952, 0.019594355, -1256186.6, -47937.98, 0.0, 10.000118, 9.998704 
3.249725e+2, 1.8671015e+2, -1082897.4, -1280308.6, 26048.46, -0.12532428, 0.10345155, -1079518.1, 30738.021, 0.0, 10.00105, 9.998434 
3.249783e+2, 1.9671056e+2, -829057.5, -1111577.0, -34420.64, -0.15169044, 0.29303378, -824924.4, 187329.98, 0.0, 10.002139, 9.998395 
3.2498544e+2, 2.0670848e+2, -823486.3, -1100589.5, 22622.299, -0.1310265, 0.26841742, -821651.6, 92623.64, 0.0, 10.001687, 9.998015 
3.2499328e+2, 2.167051e+2, -902106.7, -1075817.3, 70216.21, -0.08318375, 0.11971703, -877274.2, -60966.125, 0.0, 10.000423, 9.998121 
3.2500017e+2, 2.2670363e+2, -801377.44, -944554.3, 52186.25, -0.09351996, 0.14433359, -784375.2, -66051.766, 0.0, 10.000302, 9.998408 
3.250065e+2, 2.3670311e+2, -633350.2, -815014.1, 27624.348, -0.13519934, 0.24304044, -629242.44, -8912.203, 0.0, 10.000791, 9.99839 
3.2501343e+2, 2.4670176e+2, -551952.9, -751410.8, 38544.715, -0.14845525, 0.2846764, -544763.4, -22418.42, 0.0, 10.000792, 9.998153 
3.250207e+2, 2.5669998e+2, -473580.03, -635012.75, 42093.74, -0.14510402, 0.27996224, -463263.34, -38899.566, 0.0, 10.00054, 9.998398 
3.2502806e+2, 2.6669815e+2, -349325.16, -428149.38, 45551.91, -0.123445176, 0.20519775, -328501.97, -2122.3145, 0.0, 10.000305, 9.99926 
3.2503548e+2, 2.766962e+2, -287923.9, -357962.6, 46002.844, -0.0908279, 0.078676395, -265127.9, -36733.227, 0.0, 10.000096, 9.999171 
3.2504207e+2, 2.866957e+2, -158738.72, -316946.8, -16143.355, -0.07853785, 0.14982924, -157108.28, -26708.81, 0.0, 10.000624, 9.998526 
3.250481e+2, 2.9669607e+2, 77845.805, -138722.02, -56195.684, -0.08391798, 0.32727346, 91559.27, 123956.805, 0.0, 10.001518, 9.998646 
3.250546e+2, 3.0669397e+2, 97444.14, -56566.793, -52946.04, -0.12751281, 0.22818732, 113889.87, 113889.87, 0.00000000034834213, 10.001117, 9.999071 
3.2506278e+2, 3.1669274e+2, 37278.867, 85706.01, -39302.598, -0.025708513, 0.1890605, 107655.1, 107655.1, 0.00000040668434, 9.999951, 10.000608 
3.3493146e+2, 1.2670554e+2, -1717760.9, -1659130.0, 72060.61, -0.14243425, 0.07517948, -1610650.0, 87651.625, 0.000062317085, 9.999726, 10.000511 
3.3493865e+2, 1.3670745e+2, -1651181.0, -1610731.0, -1806.3256, -0.1637561, 0.23030487, -1610650.5, -10366.345, 0.000025687143, 9.999666, 10.000203 
3.3494702e+2, 1.4670645e+2, -1627771.4, -1626107.5, -55931.473, 0.044965733, 0.15191862, -1571001.8, -68706.73, 0.00000555994, 9.999487, 9.999504 
3.3495212e+2, 1.567054e+2, -1539792.5, -1507464.5, -67235.8, -0.044893365, 0.089509666, -1454477.0, -50170.99, 0.00000016881297, 9.9993105, 9.999728 
3.3495888e+2, 1.66706e+2, -1328310.6, -1236637.5, 32145.002, -0.07923415, 0.11402157, -1226489.4, 79807.3, 0.0, 9.9995775, 10.000789 
3.349668e+2, 1.7670734e+2, -1200483.3, -1199502.0, 105395.805, -0.06778092, 0.16672893, -1094595.6, 113682.26, 0.0, 10.000106, 10.000117 
3.3497402e+2, 1.8670587e+2, -1213288.0, -1545827.1, 67524.55, -0.07937863, 0.21297973, -1200099.8, -89802.195, 0.0, 10.001028, 9.996622 
3.3498093e+2, 1.967029e+2, -918518.94, -1296099.8, -5291.3667, -0.10830494, 0.24235727, -918444.8, 93892.664, 0.0, 10.002133, 9.997131 
3.3498725e+2, 2.0670134e+2, -723705.56, -889791.5, -27856.893, -0.12274463, 0.23654124, -719157.75, 195193.5, 0.0, 10.001673, 9.999468 
3.3499327e+2, 2.1670045e+2, -830453.44, -920540.94, 34785.22, -0.12898462, 0.19612645, -818585.44, -2233.688, 0.0, 10.000396, 9.999199 
3.3500022e+2, 2.2669797e+2, -856226.6, -1052615.8, 69324.93, -0.12085135, 0.11660903, -834220.9, -115846.664, 0.0, 10.000277, 9.99768 
3.350076e+2, 2.3669462e+2, -676774.6, -899999.5, 43403.734, -0.10562315, 0.004989685, -668632.25, -48223.836, 0.0, 10.000768, 9.997819 
3.350146e+2, 2.4669349e+2, -543817.2, -731841.7, 27365.852, -0.11281084, 0.08328495, -539915.25, -17493.082, 0.0, 10.00078, 9.998292 
3.350214e+2, 2.5669354e+2, -465516.25, -615510.8, 34335.617, -0.13365942, 0.24725416, -458030.03, -33605.082, 0.0, 10.000528, 9.998537 
3.3502835e+2, 2.6669306e+2, -336495.84, -399377.53, 35207.324, -0.13090529, 0.28980222, -320734.13, 5693.882, 0.0, 10.000296, 9.999463 
3.3503538e+2, 2.7669215e+2, -292933.34, -364481.9, 45600.46, -0.11575047, 0.2465628, -270749.0, -42316.47, 0.0, 10.00008, 9.999134 
3.3504266e+2, 2.866897e+2, -253345.69, -511238.72, 16946.893, -0.086438596, 0.2021245, -252236.83, -121779.81, 0.0, 10.000611, 9.997197 
3.3504987e+2, 2.9668662e+2, -9429.249, -316820.7, -31443.238, -0.063288674, 0.16366099, -6245.87, 26244.508, 0.0, 10.001503, 9.99743 
3.3505604e+2, 3.0668327e+2, 62213.367, -124380.89, -97304.1, -0.09598502, 0.020627521, 103721.445, 103721.445, 0.0000000021431403, 10.001095, 9.998614 
3.3506346e+2, 3.1668285e+2, -21333.217, -26651.682, -77003.625, 0.036109284, 0.10519271, 53057.08, 53057.08, 0.00000030591622, 9.999915, 9.999852 
3.4493127e+2, 1.2669839e+2, -1727216.1, -1696843.6, 96799.2, -0.13434441, 0.050146606, -1614046.6, 84322.22, 0.00006045153, 9.999799, 10.000219 
3.449378e+2, 1.3669983e+2, -1905256.0, -1748758.6, -29440.863, -0.12929428, 0.17532064, -1743403.4, -143046.58, 0.000025769237, 9.997982, 10.000071 
3.4494618e+2, 1.4669879e+2, -1785770.3, -1703090.0, -2822.5208, 0.06689114, 0.09847951, -1702993.8, -200624.52, 0.000005876301, 9.998403, 9.999499 
3.449516e+2, 1.5669806e+2, -1424185.8, -1450190.1, 23750.492, -0.066316366, 0.06681294, -1410111.3, -5732.4746, 0.0000002059256, 10.000092, 9.999746 
3.449586e+2, 1.666993e+2, -1236878.5, -1172779.8, 19284.496, -0.09225464, 0.14730646, -1167425.3, 138938.97, 0.0, 10.000119, 10.000964 
3.4496668e+2, 1.7670147e+2, -1308533.8, -1224720.0, -45973.39, -0.04597602, 0.264961, -1204419.6, 3918.7983, 0.0, 9.9992485, 10.000355 
3.449744e+2, 1.867e+2, -1486650.5, -1616785.4, 9215.007, -0.037908148, 0.26774207, -1486001.3, -375643.75, 0.0, 9.998891, 9.997166 
3.4498194e+2, 1.966966e+2, -1367274.3, -1461221.1, 105128.8, -0.05364454, 0.20046389, -1299101.9, -286702.06, 0.0, 9.998834, 9.997588 
3.4498835e+2, 2.0669532e+2, -984957.6, -1015750.9, 64292.18, -0.08776657, 0.20435219, -934244.2, -19833.469, 0.0, 9.999875, 9.999473 
3.449942e+2, 2.1669507e+2, -671665.2, -841456.4, 16154.624, -0.12957607, 0.22589463, -670141.8, 146264.27, 0.0, 10.001471, 9.999228 
3.4500098e+2, 2.2669272e+2, -641576.06, -932068.06, 54706.535, -0.14062308, 0.15080287, -631615.06, 86811.5, 0.0, 10.00168, 9.9978285 
3.4500828e+2, 2.3668928e+2, -609550.25, -851540.7, 89945.45, -0.13492967, 0.01515599, -579780.7, 40679.49, 0.0, 10.001165, 9.997957 
3.4501547e+2, 2.4668795e+2, -480576.53, -695418.44, 96221.445, -0.12342631, 0.062917754, -443782.97, 78691.75, 0.0, 10.001191, 9.998343 
3.4502262e+2, 2.5668767e+2, -330994.03, -560055.1, 89757.44, -0.10902967, 0.19292094, -300012.94, 124466.48, 0.0, 10.001491, 9.998457 
3.450292e+2, 2.6668698e+2, -253043.22, -431363.75, 35302.652, -0.117983416, 0.25631225, -246308.6, 80176.98, 0.0, 10.0011835, 9.998814 
3.4503546e+2, 2.766859e+2, -264156.9, -411680.75, -13865.736, -0.13766149, 0.26083666, -262864.97, -34371.03, 0.0, 10.0005455, 9.998583 
3.4504297e+2, 2.8668314e+2, -291781.53, -533872.06, 28869.16, -0.102544315, 0.20895036, -288386.5, -157864.83, 0.0, 10.00037, 9.997156 
3.4505093e+2, 2.9667962e+2, -166091.45, -400843.72, 63147.152, -0.05101104, 0.13430619, -150183.22, -117625.3, 0.0, 10.000461, 9.997356 
3.450567e+2, 3.0667624e+2, -63923.375, -196421.88, 12585.503, -0.09540772, -0.0050750934, -62738.523, -62738.523, 0.00000000001455702, 10.000266, 9.998523 
3.4506333e+2, 3.16676e+2, -69271.41, -107084.78, 53685.81, 0.039573155, 0.109562755, -31260.355, -31260.355, 0.00000006268299, 9.999824, 9.999349 
3.5493317e+2, 1.2669379e+2, -1789050.5, -1822513.3, 36697.07, 0.06297209, 0.22211471, -1765450.5, -67037.21, 0.00005848329, 9.99979, 9.999357 
3.5493574e+2, 1.3669255e+2, -1940409.3, -1820120.6, -77950.46, -0.13804299, 0.15290692, -1781808.8, -181380.23, 0.000025162211, 9.997979, 9.999579 
3.5494384e+2, 1.4669183e+2, -1736036.9, -1603135.0, 60425.555, -0.012248554, 0.08704095, -1579769.6, -77332.53, 0.0000057861466, 9.998413, 10.000182 
3.5495096e+2, 1.56693e+2, -1404652.6, -1411163.9, 74850.586, -0.1442065, 0.18136977, -1332986.9, 71439.57, 0.00000020730299, 10.000097, 10.000013 
3.5495824e+2, 1.6669336e+2, -1360944.9, -1428175.9, -15900.684, -0.1472457, 0.2639471, -1357373.9, -50948.434, 0.0, 10.000112, 9.999214 
3.5496578e+2, 1.7669316e+2, -1377885.9, -1365423.1, -72882.56, -0.06372634, 0.31423444, -1298506.0, -90075.11, 0.0, 9.999236, 9.999393 
3.5497352e+2, 1.866925e+2, -1284728.9, -1194136.9, 4533.991, -0.021083118, 0.26972327, -1193910.5, -83474.22, 0.0, 9.998874, 10.0000725 
3.549813e+2, 1.966916e+2, -1216506.9, -1144141.1, 114792.43, -0.005788834, 0.16599952, -1059964.1, -47522.414, 0.0, 9.998815, 9.999773 
3.549887e+2, 2.0669039e+2, -1089294.8, -1227536.0, 124449.69, -0.04040359, 0.16908394, -1016058.9, -101604.79, 0.0, 9.999854, 9.998029 
3.5499597e+2, 2.1668893e+2, -747131.0, -992697.56, 66586.58, -0.104067765, 0.21077654, -730237.8, 86233.07, 0.0, 10.001448, 9.998199 
3.5500237e+2, 2.266879e+2, -573069.2, -785718.2, 33381.953, -0.17272142, 0.24940582, -567951.94, 150528.3, 0.0, 10.001662, 9.998842 
3.550084e+2, 2.3668705e+2, -553643.44, -731747.06, 77265.26, -0.24137191, 0.27196288, -524796.4, 95689.484, 0.0, 10.001149, 9.998787 
3.55016e+2, 2.4668503e+2, -486522.7, -703413.25, 105836.125, -0.19475694, 0.22182402, -443436.9, 79066.3, 0.0, 10.001172, 9.998299 
3.550243e+2, 2.5668237e+2, -353898.9, -601550.9, 96450.586, -0.09074479, 0.1177882, -320767.6, 103759.67, 0.0, 10.001465, 9.998183 
3.5503057e+2, 2.6667994e+2, -360759.88, -651008.3, 10457.228, -0.102781124, 0.106182605, -360383.63, -33831.39, 0.0, 10.001166, 9.9973135 
3.5503566e+2, 2.7667755e+2, -339603.88, -567073.3, -30894.357, -0.17575257, 0.12721509, -335482.56, -106904.41, 0.0, 10.000541, 9.997517 
3.55043e+2, 2.86676e+2, -208449.61, -361847.5, 30340.313, -0.14159131, 0.17268524, -202666.66, -72073.29, 0.0, 10.000372, 9.998337 
3.5505134e+2, 2.9667503e+2, -95899.875, -251067.3, 65559.88, -0.06257511, 0.22982435, -71909.33, -39307.73, 0.0, 10.0004425, 9.998393 
3.5505655e+2, 3.0667275e+2, -45711.727, -154454.42, -3636.6497, -0.13916847, 0.1455664, -45590.242, -45590.242, 0.0, 10.000249, 9.998819 
3.550623e+2, 3.1667238e+2, -90290.016, -141274.53, 40170.633, -0.051378246, 0.21793078, -68205.65, -68205.65, 0.00000000080141854, 9.999784, 9.99913 
3.6493257e+2, 1.2668598e+2, -1881796.8, -1811136.9, -150617.95, 0.06903905, 0.3106536, -1691760.8, 6734.2607, 0.000055231107, 9.998912, 9.999861 
3.6493433e+2, 1.366848e+2, -1679826.3, -1622160.3, -176050.11, -0.14834942, 0.18276061, -1472597.6, 127909.664, 0.0000235055, 9.9994545, 10.000226 
3.6494252e+2, 1.4668477e+2, -1580850.5, -1455109.8, 40244.965, -0.019362245, 0.120840564, -1443332.0, 59175.105, 0.00000526637, 9.999166, 10.000833 
3.6495042e+2, 1.5668686e+2, -1602570.9, -1454359.8, 47542.99, -0.12928157, 0.24435984, -1440420.0, -35934.336, 0.00000017249042, 9.998514, 10.000479 
3.6495796e+2, 1.6668658e+2, -1570309.4, -1588752.4, 4779.6597, -0.1245904, 0.2749141, -1569144.3, -262651.97, 0.0, 9.998933, 9.998681 
3.6496556e+2, 1.7668498e+2, -1294951.1, -1353561.8, 33011.91, -0.04504291, 0.23493661, -1280113.6, -71599.09, 0.0, 9.999925, 9.999146 
3.6497325e+2, 1.8668526e+2, -965328.0, -913879.7, 61213.594, -0.013983109, 0.22794205, -873204.75, 237304.52, 0.0, 10.000519, 10.001206 
3.6498103e+2, 1.9668649e+2, -850969.56, -866826.9, 37660.68, -0.015076964, 0.22779405, -820412.0, 192078.13, 0.0, 10.000884, 10.000681 
3.6498857e+2, 2.0668553e+2, -1046183.8, -1225002.3, 67359.73, -0.058874827, 0.22889493, -1023649.56, -109148.88, 0.0, 10.000233, 9.997862 
3.64996e+2, 2.1668336e+2, -1103376.8, -1175213.3, 97354.59, -0.12552543, 0.2157039, -1035525.8, -218998.31, 0.0, 9.999053, 9.9981 
3.6500278e+2, 2.2668257e+2, -911798.4, -921922.94, 62986.03, -0.17547473, 0.26872388, -853671.5, -135136.11, 0.0, 9.999214, 9.999089 
3.6500928e+2, 2.3668244e+2, -691872.3, -772198.8, 44843.49, -0.21344794, 0.34054044, -671835.7, -51301.945, 0.0, 10.000081, 9.999027 
3.6501688e+2, 2.4668044e+2, -648849.06, -757124.1, 60021.875, -0.16262455, 0.26721624, -622156.56, -99607.28, 0.0, 9.999951, 9.998519 
3.6502492e+2, 2.5667736e+2, -657140.1, -734176.9, 73311.766, -0.06876057, 0.10248659, -612843.75, -188269.22, 0.0, 9.999323, 9.998306 
3.6503166e+2, 2.6667446e+2, -488826.03, -753561.9, 79413.33, -0.075630896, 0.05855542, -466831.56, -140228.27, 0.0, 10.000463, 9.99695 
3.6503762e+2, 2.7667156e+2, -73342.23, -475943.22, 108192.24, -0.13209178, 0.067158796, -46109.465, 182524.7, 0.0, 10.002526, 9.99719 
3.6504495e+2, 2.8667015e+2, 94736.74, -224546.19, 100547.22, -0.08846565, 0.1414152, 123762.02, 254411.05, 0.0, 10.002492, 9.998261 
3.6505276e+2, 2.9666954e+2, 23481.303, -200235.63, 40998.37, -0.003692706, 0.24620749, 30757.982, 63412.38, 0.0, 10.001293, 9.998334 
3.6505744e+2, 3.066679e+2, 53053.33, -86946.484, -51779.76, -0.10342794, 0.2175127, 70123.11, 70123.11, 0.0, 10.000849, 9.998992 
3.6506286e+2, 3.1666717e+2, 53680.547, -84510.93, -31057.725, -0.027689042, 0.23597576, 60339.7, 60339.7, 0.000000005350106, 10.000832, 9.999017 
3.7492916e+2, 1.2667486e+2, -1742278.5, -1526786.6, -120147.35, -0.17257808, 0.3199339, -1473149.3, 225465.84, 0.000050234245, 9.998927, 10.001807 
3.749336e+2, 1.3667656e+2, -1547106.3, -1351836.4, -163967.64, -0.17284252, 0.26919934, -1258636.4, 341956.9, 0.000020862959, 9.999472, 10.002075 
3.749423e+2, 1.466776e+2, -1536519.1, -1363131.5, 11900.66, 0.035873163, 0.20043704, -1362318.5, 140260.97, 0.000004428325, 9.9991665, 10.001464 
3.7494984e+2, 1.5667962e+2, -1558768.4, -1361318.9, 33925.26, -0.042774253, 0.25422764, -1355652.5, 48904.383, 0.00000011962439, 9.998507, 10.0011215 
3.7495774e+2, 1.6667897e+2, -1522393.5, -1489382.0, 41372.117, -0.046745554, 0.18087804, -1461344.6, -154779.75, 0.0, 9.998929, 9.999366 
3.7496588e+2, 1.7667687e+2, -1261720.4, -1286531.5, 69381.516, -0.0071033603, 0.024420336, -1203644.1, 4945.4033, 0.0, 9.999929, 9.999606 
3.749736e+2, 1.8667819e+2, -1012226.44, -1009019.06, 73886.016, -0.03508439, 0.14076796, -936719.3, 173857.45, 0.0, 10.000512, 10.000554 
3.749811e+2, 1.9668128e+2, -878943.7, -921230.1, 43872.27, -0.10060164, 0.38726756, -851385.7, 161159.3, 0.0, 10.000871, 10.000312 
3.749878e+2, 2.0668079e+2, -973108.56, -1069931.8, 20063.908, -0.15823132, 0.38781497, -969115.56, -54565.152, 0.0, 10.0002165, 9.998935 
3.749942e+2, 2.1667834e+2, -1048825.1, -1056678.4, 67102.68, -0.2111282, 0.24164963, -985534.3, -168958.22, 0.0, 9.99903, 9.998923 
3.7500215e+2, 2.2667673e+2, -950706.56, -998256.06, 94242.77, -0.16487429, 0.20898913, -877285.94, -158693.69, 0.0, 9.999195, 9.998575 
3.7501088e+2, 2.3667552e+2, -719141.1, -822109.4, 70298.02, -0.06847472, 0.22170223, -683490.75, -62887.04, 0.0, 10.000053, 9.998697 
3.7501803e+2, 2.466742e+2, -618376.5, -688084.5, 33941.785, -0.04277184, 0.20007706, -604580.25, -81967.516, 0.0, 9.9999275, 9.999003 
3.7502438e+2, 2.566727e+2, -622534.6, -660163.75, 68350.6, -0.058101982, 0.14570831, -570456.4, -145835.22, 0.0, 9.999314, 9.998818 
3.7503237e+2, 2.666705e+2, -439331.97, -649401.56, 156820.1, -0.050559968, 0.11164661, -355621.3, -28982.121, 0.0, 10.000457, 9.997668 
3.7504122e+2, 2.7666786e+2, -50877.477, -419399.84, 168589.67, -0.028946687, 0.07437029, 14610.54, 243273.52, 0.0, 10.002485, 9.997599 
3.7504867e+2, 2.866655e+2, -3118.6436, -417963.72, 53301.977, 0.03291569, 0.11470394, 3620.4622, 134309.48, 0.0, 10.00245, 9.996953 
3.750552e+2, 2.9666334e+2, -56076.42, -361103.6, 5001.3833, 0.10622228, 0.18954621, -55994.44, -23278.816, 0.0, 10.001276, 9.997236 
3.7505934e+2, 3.0666178e+2, 53324.133, -86752.5, -52920.723, -0.0030140209, 0.21505962, 71069.46, 71069.46, 0.00000000024645194, 10.000847, 9.998998 
3.7506473e+2, 3.166604e+2, 47148.81, -90870.164, -32663.793, 0.06736637, 0.17092453, 54488.734, 54488.734, 0.000000015170198, 10.000799, 9.99899 
3.8492674e+2, 1.266654e+2, -1973011.0, -1617748.4, 154798.06, -0.22421369, 0.18464619, -1559762.8, 138943.17, 0.000043715605, 9.997268, 10.001977 
3.8493237e+2, 1.3666879e+2, -1792732.9, -1440080.4, -54384.723, -0.14976819, 0.2745807, -1431883.9, 168785.0, 0.0000174898, 9.997656, 10.002345 
3.8494098e+2, 1.466703e+2, -1716577.1, -1439256.3, 29497.531, 0.05197055, 0.2349042, -1436153.4, 66498.086, 0.0000034194288, 9.99788, 10.001564 
3.84948e+2, 1.5667196e+2, -1605391.4, -1357487.1, 15304.305, -0.05352134, 0.24017192, -1356545.9, 48087.594, 0.00000006772674, 9.99807, 10.001361 
3.8495642e+2, 1.6667211e+2, -1487834.4, -1370643.1, 62696.816, -0.056383573, 0.18254186, -1343423.0, -36790.742, 0.0, 9.998723, 10.000282 
3.849657e+2, 1.7667143e+2, -1259262.1, -1209176.0, 97796.51, -0.0037463394, 0.078755006, -1133267.0, 75373.375, 0.0, 9.999619, 10.000284 
3.8497344e+2, 1.8667232e+2, -1217930.4, -1169287.1, 78100.94, -0.04286972, 0.15443432, -1111808.4, -1175.7213, 0.0, 9.999362, 10.00001 
3.8498047e+2, 1.9667394e+2, -1245801.3, -1130918.6, 54934.465, -0.12885526, 0.3095245, -1108878.5, -96261.22, 0.0, 9.998492, 10.000021 
3.8498744e+2, 2.0667404e+2, -1041620.9, -993628.75, 49654.426, -0.17105478, 0.32285327, -962476.2, -47860.047, 0.0, 9.999272, 9.999915 
3.849944e+2, 2.1667323e+2, -717024.6, -809925.56, 86526.6, -0.18924941, 0.24333467, -665268.7, 151354.66, 0.0, 10.000928, 9.999706 
3.8500273e+2, 2.266718e+2, -676335.7, -882478.94, 129728.16, -0.12126746, 0.20483997, -613717.4, 104920.41, 0.0, 10.001156, 9.998422 
3.850118e+2, 2.3667002e+2, -644869.5, -803997.3, 127572.7, -0.009607905, 0.17376153, -574083.1, 46573.258, 0.0, 10.000644, 9.998535 
3.8501918e+2, 2.4666867e+2, -413222.47, -607800.44, 79037.016, 0.006103206, 0.16885506, -385163.94, 137502.39, 0.0, 10.001412, 9.99884 
3.8502574e+2, 2.5666755e+2, -116050.625, -424711.75, 60781.195, -0.031745207, 0.1637223, -104512.94, 320159.2, 0.0, 10.002829, 9.998742 
3.8503364e+2, 2.666656e+2, -149938.17, -467873.78, 114137.68, -0.061369807, 0.13823429, -113206.78, 213479.66, 0.0, 10.00226, 9.998046 
3.8504222e+2, 2.766632e+2, -303075.47, -511708.56, 93049.94, -0.08324069, 0.086318634, -267605.63, -38899.582, 0.0, 10.000621, 9.997863 
3.8504952e+2, 2.8666037e+2, -368759.0, -624833.94, -41.954758, -0.0050598807, 0.083600454, -368759.0, -238022.78, 0.0, 10.000068, 9.99668 
3.8505602e+2, 2.966573e+2, -239621.2, -484762.94, 29917.145, 0.11811047, 0.09654007, -236022.92, -203251.08, 0.00000000071802503, 10.000163, 9.996923 
3.850605e+2, 3.0665573e+2, 54325.418, -135775.78, 18483.127, 0.018760592, 0.1610899, 56105.82, 56105.82, 0.000000063093836, 10.00107, 9.9985485 
3.8506645e+2, 3.1665346e+2, 255056.2, -14557.874, -10363.359, 0.083141655, 0.07011939, 255453.97, 255453.97, 0.00000039774258, 10.00233, 9.998776 
3.9492527e+2, 1.2665768e+2, -2093480.6, -1867255.8, 186139.84, -0.10767387, -0.101153776, -1762555.4, -63789.027, 0.000036372046, 9.99727, 10.000264 
3.949306e+2, 1.3666151e+2, -1892403.5, -1644147.1, -41076.293, -0.09440543, 0.19345357, -1637527.1, -36793.13, 0.000013744367, 9.997646, 10.000949 
3.9493844e+2, 1.4666289e+2, -1748800.1, -1506324.0, 35436.805, 0.0048724483, 0.22471331, -1501251.3, 1472.2771, 0.0000023661473, 9.997878, 10.001105 
3.9494476e+2, 1.5666386e+2, -1616575.0, -1382677.6, 28418.701, -0.18787575, 0.20369238, -1379274.3, 25441.367, 0.000000028035489, 9.998077, 10.0011835 
3.9495403e+2, 1.6666602e+2, -1406553.8, -1201491.8, 94346.7, -0.17265606, 0.2854646, -1164689.0, 142005.34, 0.0, 9.99872, 10.001446 
3.9496487e+2, 1.7666872e+2, -1197404.1, -1077571.4, 122520.91, -0.04963646, 0.40450624, -1001101.0, 207565.8, 0.0, 9.999605, 10.001196 
3.9497274e+2, 1.8666765e+2, -1251216.0, -1234550.1, 42839.32, -0.05156648, 0.27322224, -1199240.9, -88564.19, 0.0, 9.999345, 9.999571 
3.9497912e+2, 1.9666456e+2, -1262569.3, -1161805.3, 38896.984, -0.118120685, -0.0038391165, -1148537.3, -135830.4, 0.0, 9.998476, 9.999817 
3.9498731e+2, 2.0666526e+2, -982899.75, -866281.3, 110921.54, -0.1135934, 0.030246204, -799276.7, 115421.625, 0.0, 9.99925, 10.000799 
3.949965e+2, 2.1666802e+2, -668139.6, -699054.6, 137914.9, -0.07520285, 0.21987353, -544818.7, 271850.63, 0.0, 10.000891, 10.0004835 
3.9500457e+2, 2.2666779e+2, -666806.25, -857450.25, 107412.58, -0.056964543, 0.2572936, -618518.56, 100153.32, 0.0, 10.001131, 9.998608 
3.9501202e+2, 2.3666586e+2, -645831.5, -801462.75, 121698.09, -0.051964168, 0.19502449, -579197.5, 41494.695, 0.0, 10.000626, 9.998562 
3.9502025e+2, 2.4666388e+2, -473092.1, -726884.9, 132387.25, -0.03273538, 0.17270683, -416606.16, 106104.15, 0.0, 10.001391, 9.998034 
3.950288e+2, 2.5666186e+2, -166715.78, -520909.84, 98521.55, -0.011112551, 0.1583969, -141155.83, 283571.66, 0.0, 10.00279, 9.9981 
3.9503527e+2, 2.666598e+2, -149928.63, -461354.16, 50825.22, -0.12507123, 0.1398736, -141843.73, 184901.08, 0.0, 10.002233, 9.998104 
3.9504063e+2, 2.7665758e+2, -293320.84, -488260.44, 43589.027, -0.30684042, 0.10491789, -284018.16, -55255.246, 0.0, 10.000609, 9.99803 
3.9504755e+2, 2.866547e+2, -317043.88, -517309.1, 1311.7897, -0.21422368, 0.049493987, -317035.28, -186245.08, 0.0, 10.000069, 9.9974165 
3.9505517e+2, 2.9665142e+2, -208314.61, -415329.78, 43276.3, 0.015578174, -0.030283267, -199631.92, -166809.03, 0.000000022790346, 10.000146, 9.997408 
3.950608e+2, 3.066498e+2, -8613.188, -265313.25, 68700.26, -0.054745, 0.05639468, 8616.504, 8616.504, 0.0000006398021, 10.001063, 9.9976635 
3.950678e+2, 3.1664637e+2, 224709.44, -71997.44, 31231.836, -0.019490642, -0.06654548, 227961.31, 227961.31, 0.0000029825492, 10.002309, 9.99839 
4.049237e+2, 1.2665294e+2, -1815188.5, -1804850.4, 142059.34, -0.09722113, -0.012070914, -1667866.1, 30941.115, 0.00002910368, 9.999484, 9.999627 
4.0492886e+2, 1.3665454e+2, -1769482.5, -1641582.9, -25331.541, -0.08780909, 0.111786634, -1636748.5, -35951.207, 0.00001003053, 9.998735, 10.000442 
4.049368e+2, 1.4665538e+2, -1625095.0, -1488852.5, 110456.09, 0.0046936995, 0.13226038, -1427200.8, 75592.29, 0.0000013962007, 9.998911, 10.000728 
4.0494385e+2, 1.5665638e+2, -1409202.9, -1315470.0, 98524.414, -0.16356532, 0.1512895, -1253233.3, 151552.72, 0.000000006286357, 9.99964, 10.000892 
4.0495285e+2, 1.6665885e+2, -1363518.6, -1169472.6, 93715.016, -0.17278391, 0.27008092, -1131603.3, 175159.44, 0.0, 9.998969, 10.001545 
4.049629e+2, 1.76662e+2, -1486836.1, -1200891.1, 43110.2, -0.10422289, 0.42631257, -1194533.0, 14198.334, 0.0, 9.997549, 10.001341 
4.0497103e+2, 1.8666123e+2, -1394105.6, -1255863.1, 2534.7283, -0.09607415, 0.2917964, -1255816.6, -145078.03, 0.0, 9.99816, 9.999995 
4.049783e+2, 1.9665828e+2, -1039878.06, -1018379.56, 58879.0, -0.11499807, -0.01074765, -969276.6, 43490.246, 0.0, 9.999848, 10.000139 
4.049872e+2, 2.066589e+2, -900783.6, -848722.56, 103500.19, -0.08408744, 0.011826984, -768029.75, 146729.78, 0.0, 9.99991, 10.0006 
4.0499693e+2, 2.1666142e+2, -933065.1, -834979.94, 45427.45, -0.029162433, 0.19632089, -817173.25, -439.77258, 0.0, 9.999107, 10.000409 
4.0500516e+2, 2.2666149e+2, -838657.8, -873613.75, 8922.344, -0.035737947, 0.23220423, -836512.1, -117780.414, 0.0, 9.999663, 9.999204 
4.0501255e+2, 2.3666012e+2, -562481.25, -705731.0, 51121.344, -0.076358065, 0.16965163, -546108.9, 74635.15, 0.0, 10.000954, 9.9990635 
4.0502095e+2, 2.4665831e+2, -525709.4, -744162.2, 119414.47, -0.07745695, 0.13765141, -473101.84, 49658.684, 0.0, 10.000996, 9.998104 
4.0502986e+2, 2.5665623e+2, -513358.8, -683540.3, 140106.08, -0.060204472, 0.10930379, -434528.4, -9749.014, 0.0, 10.000389, 9.99814 
4.050366e+2, 2.6665413e+2, -400479.13, -598964.75, 79824.19, -0.13190794, 0.098821506, -372360.1, -45561.81, 0.0, 10.000583, 9.997954 
4.0504214e+2, 2.7665204e+2, -204669.75, -451201.53, 61263.24, -0.2456619, 0.084511735, -190285.13, 38532.605, 0.0, 10.001242, 9.997979 
4.0504903e+2, 2.8664947e+2, 40324.016, -298189.03, 38065.203, -0.18686983, 0.037503038, 44551.586, 175392.61, 0.0, 10.002319, 9.997838 
4.0505645e+2, 2.9664654e+2, 306971.34, -141641.39, 52626.125, -0.042726945, -0.046763755, 313062.13, 345929.66, 0.00000014139067, 10.003574, 9.997638 
4.050627e+2, 3.066447e+2, 305610.72, -211260.17, 65216.652, -0.10060312, 0.05951346, 313712.5, 313712.5, 0.0000022682207, 10.003644, 9.99679 
4.0507054e+2, 3.1664035e+2, 316862.3, -61753.926, 8026.538, -0.012349672, -0.07084445, 317032.38, 317032.38, 0.000008732948, 10.003085, 9.998088 
4.149219e+2, 1.2665126e+2, -1774419.0, -1730218.1, 122999.02, -0.23917808, 0.45975986, -1627349.9, 71478.68, 0.000022517497, 9.999525, 10.000118 
4.14927e+2, 1.3664794e+2, -1735321.9, -1578520.1, -46110.258, -0.15112498, 0.03570103, -1565965.8, 34892.195, 0.0000067670235, 9.998765, 10.000861 
4.149361e+2, 1.466478e+2, -1644578.9, -1531566.9, 138511.5, 0.036692124, -0.041355055, -1438478.9, 64380.6, 0.0000006540361, 9.998923, 10.000427 
4.1494527e+2, 1.5664954e+2, -1437653.0, -1373559.3, 116452.82, 0.0107869115, 0.08399079, -1284824.3, 120019.7, 0.0000000002364484, 9.9996395, 10.000492 
4.1495293e+2, 1.666506e+2, -1434905.4, -1315971.1, 36860.58, -0.06766257, 0.13478126, -1305473.8, 1363.4221, 0.0, 9.9989605, 10.000544 
4.1495967e+2, 1.7665127e+2, -1532870.8, -1293514.4, 9382.261, -0.18752877, 0.13975406, -1293147.3, -84312.67, 0.0, 9.997537, 10.0007105 
4.1496825e+2, 1.86653e+2, -1306268.0, -1069855.0, 65840.13, -0.19570874, 0.20784277, -1052755.6, 58063.266, 0.0, 9.998145, 10.001278 
4.1497797e+2, 1.9665518e+2, -982159.06, -893635.25, 109815.875, -0.13646051, 0.29259723, -819496.8, 193300.23, 0.0, 9.999829, 10.001003 
4.14987e+2, 2.06655e+2, -994892.3, -1038519.4, 70187.6, -0.09681605, 0.27153283, -943206.7, -28407.344, 0.0, 9.999886, 9.99931 
4.1499564e+2, 2.1665345e+2, -1000997.94, -968914.56, 28755.145, -0.07334906, 0.17715822, -952029.1, -135213.97, 0.0, 9.999079, 9.999502 
4.1500443e+2, 2.2665289e+2, -771753.44, -731853.44, 56806.957, -0.07815225, 0.13124992, -691595.2, 27221.945, 0.0, 9.999648, 10.000186 
4.1501328e+2, 2.3665284e+2, -496998.16, -564154.8, 90689.66, -0.10145677, 0.09903735, -433870.13, 186941.75, 0.0, 10.00093, 10.000048 
4.1502133e+2, 2.4665196e+2, -462688.97, -608758.4, 94600.6, -0.14570226, 0.065807335, -416210.72, 106606.12, 0.0, 10.000977, 9.9990425 
4.1502893e+2, 2.5665057e+2, -465243.03, -580366.94, 125681.64, -0.197317, 0.0153827295, -384568.75, 40259.535, 0.0, 10.000376, 9.998855 
4.1503754e+2, 2.666487e+2, -424953.7, -649796.4, 102456.45, -0.100256495, 0.015001932, -385270.2, -58422.992, 0.0, 10.000582, 9.997605 
4.1504663e+2, 2.7664655e+2, -226748.39, -493129.47, 92198.164, 0.07441918, 0.030058868, -197950.6, 30919.791, 0.0, 10.001223, 9.997701 
4.1505376e+2, 2.8664458e+2, 45832.742, -280337.8, 85222.1, 0.052543465, 0.050228592, 66757.28, 197645.8, 0.0, 10.002294, 9.9979725 
4.1505972e+2, 2.9664257e+2, 302011.56, -146241.67, 91013.71, -0.07661804, 0.045078468, 319786.22, 352692.16, 0.00000037944778, 10.003551, 9.997617 
4.1506603e+2, 3.0664042e+2, 241254.33, -343462.5, 45852.03, -0.13744931, 0.17078155, 244828.08, 244828.08, 0.0000044468325, 10.003636, 9.995885 
4.1507447e+2, 3.1663525e+2, 294880.28, -99840.46, -13194.182, 0.06155922, 0.045944557, 295320.84, 295320.84, 0.000015839796, 10.00305, 9.997844 
4.2492056e+2, 1.2664288e+2, -2082738.1, -1837399.1, 71617.19, -0.20993173, 0.3661969, -1818023.5, -119117.34, 0.000016808834, 9.997229, 10.000492 
4.2492557e+2, 1.3664035e+2, -1767216.5, -1554195.0, -132732.53, -0.15011346, -0.02130351, -1490522.1, 110405.31, 0.000004238484, 9.998371, 10.00122 
4.249343e+2, 1.4664072e+2, -1744124.5, -1571045.6, 63335.277, 0.0032480815, -0.06676233, -1550345.0, -47421.246, 0.00000021832761, 9.998203, 10.000505 
4.2494357e+2, 1.5664242e+2, -1768325.8, -1529445.8, 65525.4, -0.009859075, 0.046852034, -1512652.6, -107743.62, 0.0, 9.997353, 10.000527 
4.2495126e+2, 1.6664289e+2, -1616417.3, -1419666.9, 38516.64, -0.07049493, 0.046963375, -1412395.5, -105487.77, 0.0, 9.997789, 10.000394 
4.2495802e+2, 1.7664273e+2, -1337580.8, -1215217.9, 74353.15, -0.17552741, -0.016171219, -1180110.4, 28802.557, 0.0, 9.998944, 10.000569 
4.2496717e+2, 1.86645e+2, -1169921.6, -1017995.5, 113767.445, -0.1679681, 0.118232474, -957161.56, 153731.94, 0.0, 9.99914, 10.001157 
4.2497775e+2, 1.9664842e+2, -1135086.4, -975353.6, 46339.77, -0.09004362, 0.34016106, -962883.6, 49978.34, 0.0, 9.998815, 10.000933 
4.249869e+2, 2.0664835e+2, -1068669.9, -1049170.1, 25202.564, -0.0633729, 0.32009104, -1031897.25, -117033.82, 0.0, 9.999273, 9.999531 
4.2499524e+2, 2.166463e+2, -832640.7, -869070.75, 94585.44, -0.070999995, 0.15463227, -754532.3, 62350.895, 0.0, 10.000152, 9.999674 
4.250044e+2, 2.2664553e+2, -681877.56, -688465.1, 132487.16, -0.07696251, 0.07960419, -552643.25, 166243.72, 0.0, 10.000271, 10.00018 
4.2501393e+2, 2.366454e+2, -630225.5, -623175.75, 82540.5, -0.08366619, 0.042195994, -544084.9, 76797.164, 0.0, 9.999997, 10.000088 
4.250221e+2, 2.4664497e+2, -579230.7, -637230.7, 7996.1675, -0.12030623, 0.036994845, -578148.5, -55264.703, 0.0, 10.000056, 9.99929 
4.2502955e+2, 2.5664428e+2, -454683.72, -543038.1, -7161.9033, -0.17083573, 0.031207485, -454106.94, -29216.8, 0.0, 10.00031, 9.999143 
4.250386e+2, 2.6664275e+2, -329231.34, -550830.56, 25587.676, -0.07321606, 0.02640314, -326315.16, 589.74475, 0.0, 10.001013, 9.998078 
4.250485e+2, 2.7664077e+2, -95144.92, -385291.84, 70274.51, 0.104465574, 0.0125119155, -79020.32, 149903.9, 0.0, 10.00194, 9.9980955 
4.2505616e+2, 2.8663898e+2, 5264.762, -314924.38, 67127.42, 0.07746334, 0.039122652, 18768.47, 149709.7, 0.00000000005013419, 10.00208, 9.997839 
4.2506254e+2, 2.9663712e+2, 46884.258, -272782.3, 47419.23, -0.061477862, 0.060944255, 53770.082, 86729.0, 0.00000056577227, 10.001815, 9.997584 
4.2506906e+2, 3.0663493e+2, 51149.555, -411003.16, 40021.535, -0.124050386, 0.17007253, 54589.734, 54589.734, 0.000006249052, 10.002222, 9.996108 
4.250772e+2, 3.166306e+2, 320921.9, -13821.8125, 50047.945, 0.039876018, 0.110090405, 328244.47, 328244.47, 0.000022093813, 10.00292, 9.998496 
4.349196e+2, 1.2662767e+2, -2066627.5, -1801126.4, 127922.055, -0.039025158, -0.307375, -1749521.9, -50480.484, 0.000012096729, 9.997219, 10.000744 
4.3492454e+2, 1.3663174e+2, -1745965.0, -1511129.0, -101214.62, -0.0949594, -0.05835883, -1473526.5, 127479.33, 0.0000025410188, 9.998376, 10.001513 
4.349314e+2, 1.4663416e+2, -1712120.0, -1504254.6, 28740.107, -0.111323975, 0.059549555, -1500354.1, 2631.8184, 0.000000047491298, 9.9982, 10.000965 
4.3493855e+2, 1.5663503e+2, -1735350.9, -1458230.1, 46273.855, -0.25192392, 0.042690467, -1450707.5, -45726.867, 0.0, 9.997341, 10.001021 
4.3494776e+2, 1.6663572e+2, -1569653.0, -1319791.5, 81679.664, -0.20526595, 0.0077234576, -1295459.9, 11514.255, 0.0, 9.997777, 10.001086 
4.3495792e+2, 1.766364e+2, -1314404.1, -1165853.6, 111638.66, -0.08353174, -0.039453976, -1106039.4, 102927.055, 0.0, 9.9989395, 10.00091 
4.3496776e+2, 1.8663721e+2, -1279990.1, -1243090.1, 98419.086, -0.026764425, 0.024392067, -1161406.6, -50444.086, 0.0, 9.999126, 9.999617 
4.349775e+2, 1.9663799e+2, -1209127.3, -1123323.6, 42784.703, 0.0039715916, 0.13050634, -1105635.9, -92674.19, 0.0, 9.998792, 9.9999275 
4.349868e+2, 2.0663895e+2, -952564.9, -802035.8, 57361.977, -0.0047226776, 0.15818867, -782668.7, 132283.03, 0.0, 9.999247, 10.001241 
4.3499574e+2, 2.1663997e+2, -747706.8, -685231.6, 122767.945, -0.04159802, 0.12979344, -589789.5, 227147.98, 0.0, 10.000122, 10.000949 
4.3500498e+2, 2.2663935e+2, -756956.5, -837727.25, 119653.41, -0.049147204, 0.07700786, -671056.8, 47884.332, 0.0, 10.000242, 9.999169 
4.3501437e+2, 2.366378e+2, -699007.6, -758489.25, 76169.93, -0.038245518, -0.002147015, -646978.2, -26023.12, 0.0, 9.999966, 9.999173 
4.350232e+2, 2.4663736e+2, -610664.1, -699233.06, 15013.124, -0.017868599, 0.05231702, -608188.5, -85227.04, 0.0, 10.000042, 9.998873 
4.350316e+2, 2.566374e+2, -466268.38, -564642.1, 7959.2026, 0.00060279405, 0.15986955, -465628.56, -40664.035, 0.0, 10.000298, 9.999001 
4.3503973e+2, 2.6663634e+2, -239861.78, -363546.88, 60005.723, -0.06373595, 0.13483246, -215534.8, 111436.28, 0.0, 10.001005, 9.99937 
4.3504772e+2, 2.7663466e+2, -24954.533, -237252.66, 99739.625, -0.1687934, 0.025922555, 14552.221, 243532.25, 0.0, 10.001928, 9.99912 
4.3505624e+2, 2.866326e+2, -23859.367, -372291.9, 55228.965, -0.12635773, 0.0015063656, -15314.735, 115684.91, 0.0000000012875508, 10.0020685, 9.997449 
4.350649e+2, 2.9663014e+2, 36108.582, -291822.66, 47026.71, -0.010330787, 0.003335924, 42719.152, 75745.59, 0.0000007409375, 10.001798, 9.997463 
4.3507183e+2, 3.0662817e+2, 142565.56, -217742.16, 65780.734, -0.072669655, 0.0632132, 154199.4, 154199.4, 0.000007806458, 10.002211, 9.997438 
4.3507874e+2, 3.1662622e+2, 424121.2, 203552.48, 74770.06, -0.10785702, 0.10279966, 447077.97, 447077.97, 0.00002760484, 10.002909, 9.999995 
4.4491696e+2, 1.2661757e+2, -1936383.6, -1715011.5, 170328.55, -0.062065907, -0.48832607, -1622564.1, 76573.086, 0.000008573877, 9.998016, 10.00095 
4.449225e+2, 1.3662353e+2, -1892732.0, -1559792.5, -88517.31, -0.07796664, -0.06897361, -1537721.9, 63363.254, 0.0000015653503, 9.997279, 10.001707 
4.4492897e+2, 1.4662685e+2, -1821803.9, -1531015.5, 19484.557, -0.12880461, 0.119150884, -1529715.6, -26658.457, 0.000000013935479, 9.997335, 10.001198 
4.449359e+2, 1.5662767e+2, -1651082.0, -1395756.9, 20580.111, -0.27309325, 0.07228016, -1394108.8, 10944.1045, 0.0, 9.997827, 10.001215 
4.449457e+2, 1.666283e+2, -1522067.6, -1308863.4, 44235.887, -0.20601219, 0.0272004, -1300049.6, 6996.7803, 0.0, 9.998151, 10.000983 
4.4495678e+2, 1.7662892e+2, -1401023.6, -1216002.3, 9200.622, -0.059601564, -0.0146090435, -1215545.9, -6507.788, 0.0, 9.998381, 10.000836 
4.449667e+2, 1.866292e+2, -1334964.4, -1257174.6, 36353.023, -0.021339178, -0.00663631, -1242830.9, -131793.28, 0.0, 9.998696, 9.999726 
4.449761e+2, 1.9662918e+2, -1167830.3, -1094552.5, 101116.11, -0.026260003, 0.0084461, -1023642.0, -10599.506, 0.0, 9.999034, 10.000009 
4.4498566e+2, 2.0663038e+2, -980857.56, -820396.6, 88980.69, -0.03205105, 0.059030857, -780816.8, 134213.83, 0.0, 9.999076, 10.001194 
4.4499522e+2, 2.166322e+2, -914685.8, -769573.7, 19137.205, -0.045198858, 0.115575746, -767092.3, 49918.08, 0.0, 9.998992, 10.000913 
4.4500488e+2, 2.266318e+2, -868559.56, -884293.94, 20131.318, -0.04065265, 0.083488524, -854812.8, -135799.84, 0.0, 9.999444, 9.999236 
4.450146e+2, 2.3663017e+2, -662639.6, -736106.2, 55867.586, -0.023485532, -0.010846212, -632510.94, -11482.403, 0.0, 10.000189, 9.999224 
4.4502378e+2, 2.4662976e+2, -487887.44, -635622.25, 55609.563, -0.004315123, 0.04291981, -469295.03, 53739.566, 0.0, 10.000869, 9.998909 
4.450326e+2, 2.5662994e+2, -284463.78, -470962.72, 77614.945, 0.010283494, 0.16040145, -256389.13, 168646.75, 0.0, 10.001524, 9.999051 
4.4504085e+2, 2.6662883e+2, -93537.79, -283706.63, 91838.19, -0.09680792, 0.1218825, -56428.035, 270615.03, 0.0, 10.001971, 9.99945 
4.4504893e+2, 2.76627e+2, 39324.73, -191187.7, 35767.49, -0.2621358, -0.011618934, 44747.05, 273800.94, 0.0, 10.002306, 9.999251 
4.4505766e+2, 2.8662512e+2, 60815.57, -282518.66, -22150.51, -0.20869629, -0.048260592, 62238.73, 193309.53, 0.000000003757639, 10.002436, 9.99789 
4.4506675e+2, 2.9662308e+2, 160284.69, -184749.56, 33282.2, -0.038628392, -0.050874308, 163465.78, 196557.9, 0.0000009041157, 10.002451, 9.997881 
4.4507465e+2, 3.0662072e+2, 316698.16, -119163.69, 59924.3, -0.068268776, -0.054242343, 324786.72, 324786.72, 0.000009274553, 10.003342, 9.997573 
4.450824e+2, 3.1661952e+2, 685199.6, 339399.94, -32462.588, -0.11885878, 0.04791591, 688220.75, 688220.75, 0.000031995307, 10.00465, 10.000095 
4.5491248e+2, 1.2661274e+2, -1923273.0, -1691279.1, 148052.14, -0.32364747, -0.16200866, -1619194.4, 79997.9, 0.000006189794, 9.998033, 10.001104 
4.5491946e+2, 1.366157e+2, -1887068.6, -1546674.5, -109988.836, -0.115577385, -0.055190943, -1514227.6, 86938.125, 0.0000010596042, 9.997274, 10.0018 
4.5492703e+2, 1.4661877e+2, -1822116.8, -1530252.1, 39073.313, -0.061725494, 0.10604981, -1525111.8, -21973.404, 0.000000007555667, 9.99733, 10.001205 
4.549356e+2, 1.5662038e+2, -1658599.0, -1412663.0, 40789.055, -0.08888897, 0.1365152, -1406074.5, -949.0833, 0.0, 9.997835, 10.001094 
4.5494503e+2, 1.6662064e+2, -1584159.5, -1438839.5, 50171.586, -0.088661015, 0.110423654, -1423200.9, -116076.45, 0.0, 9.998156, 10.00009 
4.549546e+2, 1.766203e+2, -1434426.6, -1284311.1, 20255.08, -0.12286052, 0.05938318, -1281626.3, -72498.09, 0.0, 9.998376, 10.00037 
4.5496392e+2, 1.8662097e+2, -1214339.4, -1001431.9, 48478.684, -0.1698294, 0.023751361, -990913.06, 120205.805, 0.0, 9.998676, 10.001491 
4.5497343e+2, 1.9662204e+2, -1089679.8, -923700.8, 113702.12, -0.20301825, -0.024214225, -865923.0, 147181.02, 0.0, 9.9990015, 10.001195 
4.5498347e+2, 2.0662265e+2, -1112769.6, -1087897.6, 82637.56, -0.16572696, 0.023820665, -1016765.6, -101665.62, 0.0, 9.999047, 9.9993725 
4.549937e+2, 2.1662301e+2, -1013088.0, -965183.75, 22490.398, -0.10075954, 0.11235503, -956279.8, -139177.8, 0.0, 9.998957, 9.999586 
4.5500407e+2, 2.2662292e+2, -792163.9, -720352.8, 46697.75, -0.06986271, 0.10111123, -697352.6, 21749.559, 0.0, 9.99942, 10.000373 
4.5501447e+2, 2.3662256e+2, -593251.0, -585924.1, 84984.01, -0.058653653, 0.02024782, -504524.63, 116577.375, 0.0, 10.000164, 10.000265 
4.5502377e+2, 2.4662223e+2, -457841.9, -568383.44, 78699.625, -0.09514767, 0.012822378, -416943.6, 106159.16, 0.0, 10.000847, 9.999383 
4.5503247e+2, 2.566219e+2, -273545.72, -439875.6, 102290.67, -0.15794566, 0.030222358, -224878.23, 200226.47, 0.0, 10.001488, 9.999283 
4.55042e+2, 2.666202e+2, -174847.06, -447122.25, 103348.945, -0.1863816, -0.012797036, -140062.31, 187058.84, 0.0, 10.001946, 9.99834 
4.550519e+2, 2.7661774e+2, -15697.51, -300271.53, 49052.69, -0.19678871, -0.10058512, -7479.5044, 221666.39, 0.0, 10.002282, 9.998514 
4.5506033e+2, 2.8661653e+2, 146153.38, -99682.26, -23274.648, -0.18894139, -0.10974211, 148337.52, 279492.13, 0.0000000010501781, 10.002412, 9.999159 
4.5506793e+2, 2.9661584e+2, 223543.88, -50298.758, 43484.33, -0.16673347, -0.099361375, 230283.05, 263439.22, 0.0000008676792, 10.002435, 9.998815 
4.550774e+2, 3.0661252e+2, 243169.0, -266996.0, 109180.766, -0.12670732, -0.18555334, 265552.75, 265552.75, 0.0000097854745, 10.003325, 9.996564 
4.55088e+2, 3.166105e+2, 593151.3, 158992.16, 16989.803, -0.033724897, -0.0562383, 593815.1, 593815.1, 0.00003296349, 10.004608, 9.998874 
4.6490934e+2, 1.2660743e+2, -2225378.8, -1780036.5, 138570.89, -0.32212776, 0.15693842, -1740440.0, -41188.41, 0.0000045812567, 9.9957285, 10.001603 
4.6491632e+2, 1.3660789e+2, -1958420.5, -1551138.9, -113063.03, -0.12303148, -0.02777172, -1521857.3, 79387.32, 0.0000007444035, 9.996651, 10.002074 
4.6492445e+2, 1.466101e+2, -1804623.9, -1559411.3, 52088.387, -0.061462976, 0.054007582, -1548805.3, -45581.645, 0.0000000034677494, 9.997616, 10.000867 
4.6493483e+2, 1.5661141e+2, -1562720.6, -1395447.3, 16638.877, 0.011132686, 0.09125351, -1393808.1, 11404.703, 0.0, 9.998618, 10.000835 
4.6494398e+2, 1.6661197e+2, -1528794.4, -1390519.0, 39831.383, -0.024055965, 0.09535923, -1379866.0, -72657.34, 0.0, 9.998446, 10.0002775 
4.649521e+2, 1.7661227e+2, -1532775.6, -1316248.1, 90551.95, -0.17013067, 0.08781447, -1283371.1, -74164.98, 0.0, 9.997636, 10.000505 
4.6496174e+2, 1.8661289e+2, -1356699.8, -1086746.5, 82551.21, -0.2103778, 0.049497135, -1063503.8, 47693.12, 0.0, 9.997771, 10.001341 
4.6497247e+2, 1.966135e+2, -1187676.0, -996801.94, 552.4361, -0.16709283, -0.025590096, -996800.4, 16385.084, 0.0, 9.998438, 10.000966 
4.6498284e+2, 2.0661348e+2, -1160963.1, -1173281.1, -25311.6, -0.124306865, -0.00078270404, -1141072.0, -225883.67, 0.0, 9.998982, 9.998819 
4.6499294e+2, 2.1661307e+2, -969468.75, -987970.94, 4358.639, -0.09339736, 0.06609805, -968493.4, -151294.34, 0.0, 9.999439, 9.999199 
4.6500355e+2, 2.2661342e+2, -759418.56, -647610.5, 36567.34, -0.062316854, 0.08270076, -636713.06, 82482.164, 0.0, 9.999403, 10.000879 
4.6501437e+2, 2.3661408e+2, -706709.3, -584333.25, 26895.043, -0.03150392, 0.054936197, -578683.25, 42501.008, 0.0, 9.9991455, 10.000766 
4.6502408e+2, 2.466137e+2, -605029.06, -584046.7, 24057.236, -0.08463226, -0.008831138, -568292.56, -45109.324, 0.0, 9.999598, 9.999876 
4.6503314e+2, 2.5661266e+2, -399575.28, -455852.2, 40654.484, -0.18223976, -0.10442027, -378271.25, 46916.965, 0.0, 10.000425, 9.999685 
4.6504325e+2, 2.6661152e+2, -421377.84, -571216.75, 67551.38, -0.16977449, -0.10856615, -395420.56, -68220.0, 0.0, 10.000274, 9.998296 
4.650538e+2, 2.7661023e+2, -407470.56, -494577.78, 95028.5, -0.09898994, -0.07522749, -346490.28, -117272.92, 0.0, 9.999615, 9.998466 
4.6506256e+2, 2.8660914e+2, -68354.94, -214924.28, 34088.863, -0.13284913, -0.06615357, -60814.527, 70411.414, 0.00000000020707537, 10.000989, 9.999052 
4.650704e+2, 2.96608e+2, 363108.16, 3786.641, -7699.52, -0.21440692, -0.09010146, 363273.1, 396504.4, 0.00000095355574, 10.003453, 9.998695 
4.6508092e+2, 3.0660382e+2, 325353.25, -257092.22, 33647.457, -0.1406532, -0.24124405, 327290.6, 327290.6, 0.00000974774, 10.004015, 9.996302 
4.650926e+2, 3.166015e+2, 378178.75, -19348.389, -11568.009, 0.027984394, -0.11022365, 378515.1, 378515.1, 0.000031488697, 10.003451, 9.998203 
4.749075e+2, 1.2660171e+2, -2170329.3, -1665538.6, 178010.89, -0.08807927, 0.4709987, -1609079.3, 90235.65, 0.0000033199578, 9.995722, 10.002392 
4.7491303e+2, 1.3660017e+2, -1926821.4, -1485195.6, -75072.78, -0.119493954, 0.017091542, -1472782.8, 128538.305, 0.00000048107097, 9.996648, 10.002526 
4.7492126e+2, 1.4660083e+2, -1852182.3, -1664165.5, 89573.59, -0.14825898, -0.03153732, -1628323.9, -125011.2, 0.000000000765976, 9.997637, 10.000141 
4.7493345e+2, 1.5660073e+2, -1588828.1, -1451657.0, 46097.31, 0.008475289, -0.0684748, -1437605.1, -32289.45, 0.0, 9.998627, 10.000446 
4.7494242e+2, 1.6660228e+2, -1438651.6, -1202672.5, 7223.6113, -0.028973226, -0.02235776, -1202451.5, 104848.03, 0.0, 9.998444, 10.001568 
4.7494924e+2, 1.7660484e+2, -1481884.8, -1207489.5, 69905.14, -0.22394441, 0.0719754, -1190706.9, 18565.25, 0.0, 9.997626, 10.001256 
4.7496003e+2, 1.8660496e+2, -1503515.8, -1389871.1, 105764.4, -0.16151594, 0.07424328, -1326631.4, -215360.03, 0.0, 9.997762, 9.999268 
4.7497323e+2, 1.9660363e+2, -1302210.1, -1233243.4, 26772.81, 0.062226776, 0.0055327145, -1224070.4, -210783.63, 0.0, 9.99843, 9.999348 
4.7498387e+2, 2.0660286e+2, -1114417.5, -1072003.5, -9249.037, 0.07375217, -0.015495196, -1070074.3, -154778.5, 0.0, 9.998962, 9.999524 
4.7499296e+2, 2.1660243e+2, -933261.0, -905562.2, 18737.967, -0.041297548, -0.02005589, -896111.0, -78809.74, 0.0, 9.999412, 9.999778 
4.7500327e+2, 2.2660328e+2, -770770.56, -667796.06, 23829.492, -0.03485828, 0.030542228, -662549.06, 56742.887, 0.0, 9.999386, 10.00075 
4.7501427e+2, 2.3660474e+2, -712940.94, -590247.06, 25640.09, 0.040934123, 0.092598036, -585104.44, 36170.87, 0.0, 9.999115, 10.000739 
4.7502464e+2, 2.4660411e+2, -572610.5, -513203.84, 54321.914, 0.007916616, -0.021433337, -480994.66, 42281.305, 0.0, 9.999581, 10.000371 
4.7503456e+2, 2.5660235e+2, -361688.47, -374821.66, 64697.137, -0.08527741, -0.24264595, -303225.53, 122060.82, 0.0, 10.000414, 10.000248 
4.7504455e+2, 2.6660284e+2, -351144.16, -424569.13, 38984.85, -0.06783028, -0.16316165, -334306.44, -7025.165, 0.0, 10.000271, 9.999303 
4.7505456e+2, 2.7660447e+2, -363790.97, -403806.94, 88952.836, 0.010100168, 0.06246417, -292623.7, -63354.797, 0.0, 9.999614, 9.999089 
4.7506434e+2, 2.866029e+2, -170229.66, -426819.13, 126689.88, -0.0582785, 0.08205654, -118219.47, 13065.621, 0.000000007840556, 10.00099, 9.997597 
4.75074e+2, 2.965995e+2, 279893.72, -165653.61, 70935.12, -0.20297472, -0.024570448, 290914.63, 324232.16, 0.0000011852446, 10.003437, 9.9975395 
4.7508505e+2, 3.0659458e+2, 356443.6, -189750.88, 10964.166, -0.12882105, -0.22614889, 356663.6, 356663.6, 0.000009833826, 10.004003, 9.996768 
4.750961e+2, 3.1659263e+2, 369120.25, -37425.918, -23210.117, 0.022128563, -0.1046158, 370441.03, 370441.03, 0.000030180205, 10.0034485, 9.99808 
4.8490515e+2, 1.2659054e+2, -2099666.0, -1686052.5, 209176.3, 0.07471926, 0.24098256, -1598710.1, 100706.516, 0.0000022837717, 9.996434, 10.001909 
4.8491016e+2, 1.365907e+2, -1939140.8, -1540569.8, -154170.25, -0.077310525, 0.016704002, -1487896.6, 113514.83, 0.0000002759338, 9.996772, 10.002087 
4.8491758e+2, 1.4659175e+2, -2001469.5, -1695174.8, 19516.033, -0.22123927, 0.004978532, -1693936.3, -190535.88, 0.000000000009128432, 9.99644, 10.000504 
4.8492974e+2, 1.5659107e+2, -1994434.1, -1614931.4, 54090.1, -0.07778592, -0.12534091, -1607372.5, -201964.98, 0.0, 9.995704, 10.000736 
4.8493978e+2, 1.6659261e+2, -1692953.5, -1337834.3, -5706.0474, -0.050020855, -0.088661894, -1337742.5, -30350.658, 0.0, 9.996757, 10.001454 
4.8494822e+2, 1.7659545e+2, -1319231.4, -1148943.3, -51952.082, -0.14643437, 0.046789065, -1134345.0, 75017.42, 0.0, 9.998828, 10.00108 
4.849593e+2, 1.8659544e+2, -1313912.4, -1351352.8, 11250.057, -0.08620164, 0.07114043, -1310792.0, -199427.75, 0.0, 9.99929, 9.998794 
4.8497206e+2, 1.9659375e+2, -1263291.1, -1246639.0, 50657.867, 0.0816835, 0.012557062, -1203627.5, -190242.94, 0.0, 9.998838, 9.999058 
4.849831e+2, 2.0659305e+2, -1038114.2, -965280.3, 73776.64, 0.092791125, -0.026879227, -919422.2, -4031.0237, 0.0, 9.999187, 10.000148 
4.849931e+2, 2.1659288e+2, -821005.56, -806601.56, 87933.45, 0.008464154, -0.06598025, -725575.6, 91814.76, 0.0, 9.9999895, 10.000178 
4.8500323e+2, 2.2659345e+2, -690215.25, -711126.5, 39808.906, -0.018050352, -0.017498571, -659511.8, 59872.74, 0.0, 10.000295, 10.000012 
4.8501346e+2, 2.3659433e+2, -577836.44, -590074.2, -4556.095, -0.009568273, 0.05978204, -576326.5, 45050.246, 0.0, 10.000321, 10.000158 
4.8502424e+2, 2.4659394e+2, -433660.4, -422513.03, 18777.537, -0.030987415, -0.019504491, -408499.44, 114877.18, 0.0, 10.000432, 10.000585 
4.8503524e+2, 2.5659284e+2, -314827.4, -325123.94, 4159.264, -0.07034988, -0.19526537, -313357.2, 112023.76, 0.0, 10.00062, 10.00049 
4.8504567e+2, 2.6659334e+2, -115077.86, -266596.2, -57325.652, -0.053538334, -0.14986779, -95833.44, 231540.86, 0.0, 10.001706, 9.999696 
4.8505583e+2, 2.7659455e+2, 185323.98, -111007.484, -51651.72, -0.0040406785, -0.0020539544, 194069.0, 423432.06, 0.0, 10.003269, 9.999339 
4.8506653e+2, 2.86593e+2, 164146.88, -322787.56, 34487.156, -0.0626655, 0.038785227, 166577.3, 297957.47, 0.0000000047988187, 10.003533, 9.997086 
4.850775e+2, 2.965899e+2, 201974.63, -245447.78, 39593.113, -0.176809, 0.013006, 205451.27, 238864.25, 0.0000011040358, 10.00308, 9.997164 
4.85089e+2, 3.0658537e+2, 366237.7, -133722.94, -9045.887, -0.12619254, -0.16080919, 366401.3, 366401.3, 0.0000092067485, 10.003848, 9.997227 
4.850996e+2, 3.1658325e+2, 633820.94, 86229.164, -46875.242, -0.06288644, -0.09454142, 637804.56, 637804.56, 0.000028532691, 10.005282, 9.99805 
4.949022e+2, 1.2657367e+2, -2220941.0, -1944529.9, 219835.89, 0.12460539, -0.55160683, -1823065.3, -123507.05, 0.0000015131136, 9.996461, 10.000125 
4.9490768e+2, 1.3657945e+2, -2034738.3, -1738558.5, -147690.8, -0.0030237925, -0.028341025, -1677499.6, -75983.64, 0.00000014199817, 9.996768, 10.000731 
4.9491337e+2, 1.465829e+2, -1897894.0, -1479048.6, -10355.016, -0.29134485, 0.16837767, -1478792.8, 24693.607, 0.0, 9.996432, 10.001991 
4.9492353e+2, 1.5658258e+2, -1927675.9, -1470341.5, 43247.63, -0.27168125, -0.07013648, -1466287.6, -60799.926, 0.0, 9.99568, 10.001738 
4.9493596e+2, 1.6658303e+2, -1802014.6, -1562768.3, 71830.3, -0.10997241, -0.092816815, -1542859.0, -235374.38, 0.0, 9.99675, 9.999915 
4.9494907e+2, 1.7658406e+2, -1396398.3, -1309908.5, 14053.799, 0.051805522, 0.011505465, -1307682.3, -98204.74, 0.0, 9.998831, 9.999973 
4.949595e+2, 1.8658428e+2, -1235963.4, -1186441.0, -8218.985, 0.0037178535, 0.036881212, -1185112.6, -73636.5, 0.0, 9.999279, 9.99993 
4.9496883e+2, 1.965839e+2, -1192582.6, -1095071.4, 41367.766, -0.12667902, -0.003064235, -1079886.4, -66407.33, 0.0, 9.998818, 10.000108 
4.9498054e+2, 2.0658404e+2, -1001494.3, -885064.06, 102605.94, -0.08672258, -0.034296658, -825308.94, 90165.43, 0.0, 9.999168, 10.000708 
4.9499342e+2, 2.1658443e+2, -807384.0, -773269.94, 116411.75, 0.034672026, -0.07087498, -672672.25, 144793.88, 0.0, 9.999966, 10.00042 
4.9500343e+2, 2.265839e+2, -789143.5, -912059.7, 38729.066, -0.032996215, -0.06265295, -777958.4, -58485.27, 0.0, 10.000274, 9.998644 
4.9501193e+2, 2.3658285e+2, -661059.4, -759392.25, -1546.5328, -0.19912483, -0.044183012, -661035.06, -39546.42, 0.0, 10.000305, 9.999005 
4.9502283e+2, 2.4658316e+2, -439223.4, -430860.25, 23735.695, -0.21688382, -0.0019131876, -410940.6, 112544.53, 0.0, 10.000419, 10.000533 
4.9503505e+2, 2.565841e+2, -323672.97, -338254.97, 21447.47, -0.15431008, 0.034008436, -308311.1, 117161.12, 0.0, 10.000595, 10.000413 
4.9504653e+2, 2.6658294e+2, -134878.78, -301915.34, 835.3104, -0.14300859, -0.07012996, -134874.61, 192605.03, 0.0, 10.00168, 9.999465 
4.9505758e+2, 2.765805e+2, 171339.92, -132940.13, -2394.2568, -0.15965743, -0.2657562, 171358.77, 400857.94, 0.0, 10.003237, 9.999204 
4.9506912e+2, 2.8657946e+2, 187470.1, -267262.25, 15522.743, -0.1620152, -0.19045982, 187999.36, 319509.88, 0.00000000050236565, 10.003505, 9.997479 
4.9508086e+2, 2.9657918e+2, 228178.14, -188184.88, 36309.742, -0.15262021, 0.025811909, 231320.89, 264838.3, 0.00000078728175, 10.003069, 9.997562 
4.950927e+2, 3.0657607e+2, 394276.25, -72420.68, 45175.11, -0.14417738, -0.046299804, 398608.88, 398608.88, 0.000007677553, 10.003835, 9.997654 
4.9510297e+2, 3.1657332e+2, 629201.06, 86993.74, 16003.925, -0.26165873, -0.085758775, 629673.06, 629673.06, 0.000025314863, 10.005237, 9.998077 
5.0489724e+2, 1.2656203e+2, -2291728.0, -1909760.1, 31287.04, 0.019794725, -0.5845658, -1907214.4, -207541.98, 0.0000009949754, 9.995697, 10.000723 
5.049041e+2, 1.3656782e+2, -2306523.3, -1829169.3, -159308.7, 0.06317145, -0.10840022, -1780886.4, -179257.3, 0.000000065122016, 9.994734, 10.001092 
5.0491005e+2, 1.465719e+2, -1972924.9, -1521060.1, 4197.4575, -0.23815098, 0.14313152, -1521021.1, -17427.277, 0.0, 9.995946, 10.001936 
5.049209e+2, 1.5657258e+2, -1551138.8, -1301032.5, -63417.164, -0.2319358, 0.010461483, -1285871.5, 119716.09, 0.0, 9.998313, 10.001631 
5.0493413e+2, 1.6657262e+2, -1523559.8, -1466966.9, -14141.301, -0.07104301, -0.028826931, -1463630.0, -156040.75, 0.0, 9.998823, 9.999571 
5.04948e+2, 1.7657247e+2, -1488299.3, -1374257.6, 10467.298, 0.08876177, -0.0080852555, -1373304.9, -163711.25, 0.0, 9.998286, 9.999793 
5.049585e+2, 1.8657297e+2, -1260045.9, -1123172.4, -12464.517, 0.0043480266, 0.013536903, -1122046.5, -10458.313, 0.0, 9.998789, 10.000603 
5.0496763e+2, 1.9657367e+2, -1001721.94, -945490.7, -2490.061, -0.17876475, 0.015695397, -945380.6, 68197.96, 0.0, 9.99988, 10.000623 
5.049795e+2, 2.0657405e+2, -965914.6, -909481.9, -11644.816, -0.12622242, 0.0075797634, -907173.44, 8398.773, 0.0, 9.999588, 10.0003395 
5.049927e+2, 2.1657418e+2, -1033023.5, -908107.44, -65265.574, 0.04332124, -0.018454926, -880229.44, -62661.098, 0.0, 9.9985285, 10.000187 
5.050032e+2, 2.2657335e+2, -948454.25, -939046.44, -49210.71, -0.012473065, -0.056005634, -894315.3, -174738.34, 0.0, 9.998966, 9.999088 
5.0501233e+2, 2.3657197e+2, -649760.9, -721375.8, 35645.008, -0.18527988, -0.11287178, -635043.7, -13451.117, 0.0, 10.000244, 9.999294 
5.050233e+2, 2.4657245e+2, -471369.6, -504993.4, 64076.906, -0.21457443, -0.035819296, -421935.8, 101652.56, 0.0, 10.000453, 10.000008 
5.050353e+2, 2.5657383e+2, -433022.22, -443873.63, 31771.426, -0.16455624, 0.09356301, -406216.53, 19357.947, 0.0, 10.000077, 9.999933 
5.050475e+2, 2.6657212e+2, -326278.47, -429367.1, 40533.71, -0.1517829, -0.023522167, -312249.94, 15337.96, 0.0, 10.000519, 9.999148 
5.050599e+2, 2.7656868e+2, -107615.44, -284674.66, 19995.332, -0.15935992, -0.28757727, -105385.445, 124231.54, 0.0, 10.001396, 9.999046 
5.05072e+2, 2.865676e+2, 46613.754, -251110.14, 20528.758, -0.15418936, -0.25428838, 48022.59, 179649.28, 0.00000000000000024545718, 10.002175, 9.99823 
5.0508404e+2, 2.9656783e+2, 241029.72, -115921.56, 67069.21, -0.13402168, -0.061433047, 253215.66, 286841.0, 0.00000052219707, 10.002879, 9.998148 
5.0509655e+2, 3.065657e+2, 338162.28, -140876.0, 82035.21, -0.1279062, -0.03804324, 351821.34, 351821.34, 0.000006011741, 10.003628, 9.997285 
5.051075e+2, 3.1656298e+2, 476398.4, -33442.453, -7579.604, -0.2845106, -0.039187677, 476511.06, 476511.06, 0.00002116609, 10.004393, 9.997654 
5.1489e+2, 1.2655593e+2, -2076281.9, -1465188.8, -18101.125, -0.27924287, 0.18137202, -1464653.0, 235103.95, 0.00000067894854, 9.995702, 10.003773 
5.1489925e+2, 1.3655584e+2, -2154987.8, -1512946.3, -174104.2, 0.09949996, -0.21538745, -1468773.1, 132976.77, 0.000000029496794, 9.994723, 10.003267 
5.149076e+2, 1.4655876e+2, -2089082.6, -1766668.6, 94554.49, -0.08260463, -0.0724377, -1740984.6, -237261.92, 0.0, 9.995963, 10.000244 
5.1492196e+2, 1.5656097e+2, -1637608.8, -1484943.5, 11377.248, 0.03275799, 0.11275192, -1484100.4, -78392.41, 0.0, 9.998333, 10.000359 
5.1493424e+2, 1.665613e+2, -1461632.3, -1338159.3, -37853.418, 0.05702321, 0.10465718, -1327478.4, -19772.063, 0.0, 9.998823, 10.000454 
5.1494485e+2, 1.7656071e+2, -1435636.3, -1262309.5, -44.68419, -0.056240752, -0.008207501, -1262309.5, -52598.723, 0.0, 9.998275, 10.0005665 
5.1495624e+2, 1.8656157e+2, -1244583.8, -1089051.0, 27500.975, -0.109132454, 0.005894067, -1084331.5, 27368.773, 0.0, 9.998781, 10.000839 
5.1496845e+2, 1.9656311e+2, -1005422.9, -949569.56, 28487.326, -0.09336, 0.07076538, -937603.56, 76079.24, 0.0, 9.999864, 10.000603 
5.1497996e+2, 2.0656306e+2, -1061086.1, -1103855.9, -54774.01, -0.04053355, 0.09672006, -1023670.44, -107985.67, 0.0, 9.999574, 9.999012 
5.1499104e+2, 2.1656208e+2, -1087821.1, -1018496.7, -91138.38, 0.018376885, 0.0870678, -955651.6, -137954.0, 0.0, 9.998513, 9.999437 
5.150026e+2, 2.2656174e+2, -792857.94, -613032.5, -2709.8743, 0.025605453, 0.00003369576, -612991.7, 106704.89, 0.0, 9.998951, 10.001334 
5.150145e+2, 2.3656169e+2, -531117.8, -470802.03, 75810.27, 0.009721835, -0.1446883, -419371.34, 202317.23, 0.0, 10.000224, 10.001024 
5.1502544e+2, 2.4656181e+2, -543855.4, -651833.2, 46675.938, -0.046139263, -0.11881734, -526475.94, -2789.7095, 0.0, 10.000437, 9.999007 
5.1503575e+2, 2.5656196e+2, -497886.78, -575774.44, 25766.635, -0.123861544, -0.015612645, -490134.34, -64446.53, 0.0, 10.000065, 9.999035 
5.1504856e+2, 2.6656088e+2, -356675.56, -489429.53, 71999.055, -0.09932674, -0.009713786, -325125.2, 2574.0713, 0.0, 10.000507, 9.998741 
5.150627e+2, 2.7655903e+2, -121528.71, -311783.72, 54322.168, -0.023899257, -0.075289436, -107111.06, 122606.15, 0.0, 10.001388, 9.998864 
5.1507515e+2, 2.865573e+2, 119377.87, -96842.68, 44383.08, -0.05959335, -0.15916549, 128133.71, 259863.17, 0.000000000053284984, 10.002163, 9.999295 
5.1508677e+2, 2.9655573e+2, 288283.38, -12629.705, 94175.86, -0.14416586, -0.25182158, 315326.88, 349064.66, 0.00000035287385, 10.002856, 9.998868 
5.1510054e+2, 3.065542e+2, 255167.06, -306191.53, 107246.21, -0.09770558, -0.13477741, 274958.4, 274958.4, 0.0000046297387, 10.003601, 9.996162 
5.151132e+2, 3.1655225e+2, 409544.53, -164233.94, 32895.54, -0.16940503, 0.05201376, 411424.34, 411424.34, 0.000017378621, 10.004361, 9.99677 
5.248845e+2, 1.2654607e+2, -2409095.3, -1573770.5, 114251.55, -0.2697618, 0.4499912, -1558425.6, 141438.97, 0.0000005002885, 9.993196, 10.004239 
5.248944e+2, 1.3654476e+2, -1888942.5, -1353611.9, -234600.78, 0.06502716, -0.10047762, -1265352.8, 336511.9, 0.000000016983103, 9.996408, 10.003551 
5.2490383e+2, 1.4654683e+2, -1929559.5, -1705629.1, 36676.656, -0.114530206, -0.04833115, -1699775.0, -195931.45, 0.0, 9.997128, 10.000099 
5.249202e+2, 1.5654844e+2, -1931690.1, -1628623.5, 60741.77, 0.13147785, 0.09240851, -1616902.8, -211069.6, 0.0, 9.996325, 10.000342 
5.2493274e+2, 1.6654934e+2, -1700596.3, -1378109.1, 33071.438, 0.121144116, 0.1019165, -1374752.6, -66928.38, 0.0, 9.996853, 10.001136 
5.249424e+2, 1.7654994e+2, -1418255.5, -1204363.3, 52568.867, -0.12556449, 0.042094946, -1192141.6, 17673.39, 0.0, 9.998174, 10.001018 
5.2495444e+2, 1.865504e+2, -1348548.8, -1232631.3, 26297.586, -0.14389163, 0.043784082, -1226944.3, -115134.51, 0.0, 9.998467, 10.000006 
5.249684e+2, 1.9655062e+2, -1299624.6, -1165009.8, -57061.715, 0.0020655554, 0.06070241, -1144077.0, -130268.87, 0.0, 9.998159, 9.999947 
5.249798e+2, 2.0655034e+2, -1146160.4, -1107923.5, -94735.98, 0.030455783, 0.072724886, -1030396.1, -114583.37, 0.0, 9.998836, 9.999338 
5.249899e+2, 2.1654975e+2, -838530.9, -863967.4, -11593.601, -0.018989114, 0.07042828, -834039.7, -16218.8955, 0.0, 10.00008, 9.999741 
5.2500206e+2, 2.2655016e+2, -574383.06, -484053.5, 38258.574, 0.009887292, 0.0322333, -470027.28, 249784.5, 0.0, 10.000351, 10.001548 
5.250154e+2, 2.3655102e+2, -544081.44, -463689.13, -38683.465, 0.08770167, -0.041926086, -448098.72, 173695.73, 0.0, 10.00008, 10.001144 
5.2502704e+2, 2.4655035e+2, -540831.8, -693710.44, -95433.88, 0.059752002, -0.07459921, -494998.5, 28800.844, 0.0, 10.000646, 9.998618 
5.250376e+2, 2.5654885e+2, -292309.56, -515319.88, -77378.37, -0.027626328, -0.09638566, -268091.44, 157725.52, 0.0, 10.001647, 9.998689 
5.250503e+2, 2.6654825e+2, -187458.16, -417989.8, -202.75587, -0.03776384, -0.021472657, -187457.98, 140366.7, 0.0, 10.00171, 9.998654 
5.250642e+2, 2.7654806e+2, -150313.3, -338236.94, 6900.644, -0.0090209115, 0.08574188, -150060.23, 79768.02, 0.0, 10.001245, 9.998754 
5.2507704e+2, 2.8654587e+2, 55478.414, -161786.44, -31453.104, -0.07142736, -0.021403605, 59940.207, 191785.66, 0.0, 10.00187, 9.998991 
5.250895e+2, 2.965427e+2, 305566.6, -31331.941, -88499.49, -0.17184882, -0.24483617, 327399.53, 361269.0, 0.00000021005809, 10.00309, 9.998629 
5.251041e+2, 3.0654112e+2, 309344.78, -253425.9, -52728.71, -0.103052974, -0.13341874, 314242.56, 314242.56, 0.0000034765715, 10.0038595, 9.996399 
5.251177e+2, 3.1653935e+2, 449898.8, -87688.53, -24363.168, -0.15133283, 0.04683627, 451000.7, 451000.7, 0.000014175966, 10.00439, 9.997283 
5.3488064e+2, 1.2653232e+2, -2567585.8, -1900804.1, 224634.13, 0.011102545, 0.20476177, -1832187.6, -132191.95, 0.00000041209, 9.993191, 10.001996 
5.3488964e+2, 1.3653463e+2, -2009004.3, -1605874.1, -133263.11, -0.05649792, 0.24542743, -1565804.0, 36169.223, 0.000000018082496, 9.996425, 10.00181 
5.348986e+2, 1.465361e+2, -1823313.0, -1490490.0, 1791.4548, -0.35401025, 0.22697891, -1490480.4, 13476.05, 0.0, 9.997147, 10.001568 
5.3491557e+2, 1.56535e+2, -1841477.9, -1438992.1, 41673.5, 0.0377295, -0.052139506, -1434722.6, -28759.242, 0.0, 9.996313, 10.001649 
5.349294e+2, 1.6653676e+2, -1668220.0, -1309399.6, 81961.06, 0.093558595, -0.0380033, -1291564.8, 16377.986, 0.0, 9.996845, 10.001611 
5.349405e+2, 1.7654023e+2, -1410341.8, -1188297.8, 95765.94, -0.1362043, 0.14269301, -1152701.3, 57204.723, 0.0, 9.998176, 10.001127 
5.349533e+2, 1.8653946e+2, -1485995.9, -1514703.6, 12348.253, -0.112791136, 0.1295894, -1481415.3, -369498.8, 0.0, 9.998455, 9.998076 
5.349674e+2, 1.9653621e+2, -1395146.6, -1358700.9, -59700.57, 0.087385125, -0.013258216, -1314504.0, -300549.5, 0.0, 9.99814, 9.998627 
5.349791e+2, 2.0653592e+2, -1008525.94, -819880.75, -49192.918, 0.066770524, -0.06151182, -807823.44, 108132.69, 0.0, 9.998823, 10.001324 
5.349893e+2, 2.1653725e+2, -743910.6, -663336.3, 29220.24, -0.089026734, -0.066134, -653855.25, 164082.2, 0.0, 10.000059, 10.00113 
5.350016e+2, 2.2653861e+2, -705453.0, -752959.0, 26029.816, -0.07944812, 0.041060947, -693967.44, 25954.793, 0.0, 10.000336, 9.999708 
5.35015e+2, 2.3653989e+2, -651557.2, -685284.25, -39901.426, 0.030663641, 0.18968605, -625102.06, -3191.7344, 0.0, 10.000072, 9.999627 
5.35028e+2, 2.4653807e+2, -529925.4, -667143.44, -58730.58, 0.08504409, 0.09169143, -508221.2, 15706.772, 0.0, 10.000629, 9.998809 
5.350406e+2, 2.565345e+2, -280060.8, -488638.2, -46220.152, 0.103238285, -0.15471406, -270277.44, 155684.81, 0.0, 10.001638, 9.998877 
5.3505254e+2, 2.6653427e+2, -173951.77, -384752.3, -19929.008, 0.015313011, -0.063343935, -172084.22, 155880.13, 0.0, 10.001691, 9.998891 
5.3506416e+2, 2.7653584e+2, -154857.31, -345091.22, 595.6143, -0.13316642, 0.19537151, -154855.44, 75094.47, 0.0, 10.001232, 9.998713 
5.350776e+2, 2.865334e+2, -61431.027, -401540.6, 12957.634, -0.20568572, 0.15877655, -60938.08, 71036.086, 0.0, 10.001857, 9.997352 
5.3509206e+2, 2.965288e+2, 222240.72, -200021.89, -44191.137, -0.22779761, -0.045467257, 226815.89, 260835.42, 0.00000012588598, 10.003071, 9.997479 
5.3510755e+2, 3.0652657e+2, 411723.38, -33828.824, -34450.656, -0.1528933, -0.035561047, 414371.4, 414371.4, 0.0000026860089, 10.003834, 9.997919 
5.35121e+2, 3.165243e+2, 573771.25, 180396.7, 10376.232, -0.26586476, -0.063135654, 574044.75, 574044.75, 0.000011826763, 10.004348, 9.999144 
5.4487586e+2, 1.2651739e+2, -2228458.3, -1840765.6, 120768.89, 0.08316672, 0.04615101, -1806223.0, -106085.18, 0.00000036785775, 9.995964, 10.001073 
5.448861e+2, 1.3652049e+2, -2154478.5, -1758861.5, -141835.84, -0.017554313, 0.26737988, -1713265.8, -111151.83, 0.000000024396927, 9.995785, 10.001071 
5.4489464e+2, 1.4652243e+2, -1936836.3, -1456844.0, -58986.094, -0.4027637, 0.2813819, -1449701.5, 54392.035, 0.0, 9.995989, 10.0023575 
5.4491115e+2, 1.5652183e+2, -1787718.3, -1344711.1, -69880.375, -0.040845446, -0.023676138, -1333949.6, 72143.59, 0.0, 9.996387, 10.002261 
5.4492635e+2, 1.665235e+2, -1608735.1, -1315823.6, -33051.96, 0.08209625, -0.025657745, -1312140.4, -4066.7854, 0.0, 9.997413, 10.001289 
5.4494e+2, 1.765265e+2, -1339423.8, -1175210.6, -89118.375, -0.027846932, 0.142576, -1136141.4, 73901.36, 0.0, 9.998758, 10.000934 
5.4495305e+2, 1.8652597e+2, -1303619.8, -1364031.4, -114325.82, -0.030371629, 0.12972842, -1215576.8, -103526.06, 0.0, 9.999433, 9.998641 
5.4496604e+2, 1.965234e+2, -1126314.5, -1173261.5, -694.98157, 0.062038895, -0.003185743, -1126304.3, -112223.27, 0.0, 9.9997425, 9.999127 
5.449779e+2, 2.065235e+2, -853595.3, -732107.94, 9238.529, 0.017685635, -0.039481997, -731409.44, 184668.17, 0.0, 9.999827, 10.001442 
5.44989e+2, 2.1652505e+2, -787625.75, -686409.44, -56995.43, -0.114279054, -0.033130787, -660796.44, 157259.45, 0.0, 9.999765, 10.001113 
5.450015e+2, 2.2652571e+2, -789547.9, -883606.1, -70122.766, -0.10915397, 0.048831984, -752143.94, -32094.87, 0.0, 10.000147, 9.998902 
5.45015e+2, 2.3652574e+2, -595687.94, -735336.3, -60325.61, -0.019208215, 0.15585735, -573237.56, 48814.08, 0.0, 10.000787, 9.9989395 
5.4502845e+2, 2.4652399e+2, -457380.13, -636259.56, -45420.727, 0.04488632, 0.09559471, -446507.8, 77561.65, 0.0, 10.001141, 9.998776 
5.450419e+2, 2.565212e+2, -330794.47, -521381.5, -55137.543, 0.09043003, -0.06653082, -315992.56, 110103.27, 0.0, 10.001326, 9.998802 
5.450546e+2, 2.6652038e+2, -150460.1, -409526.63, -69492.38, 0.03759818, -0.01628131, -132996.56, 195106.63, 0.0, 10.002005, 9.998571 
5.450669e+2, 2.7652052e+2, 65185.72, -281433.72, -93165.51, -0.068817474, 0.13318753, 88640.0, 318741.3, 0.0, 10.00293, 9.998332 
5.450806e+2, 2.8651804e+2, 40796.04, -434260.1, -47417.26, -0.13927099, 0.15211524, 45482.707, 177610.58, 0.0, 10.002914, 9.996616 
5.450952e+2, 2.9651415e+2, 79030.86, -335482.03, -39731.086, -0.18306434, 0.09355127, 82804.73, 116974.59, 0.00000008559371, 10.002376, 9.9968815 
5.451115e+2, 3.065112e+2, 317316.9, -62373.836, -44216.09, -0.102628954, 0.044798475, 322398.0, 322398.0, 0.000002211129, 10.003107, 9.998073 
5.451262e+2, 3.1650776e+2, 637950.9, 264965.7, -95865.14, -0.18690366, -0.11767218, 661147.6, 661147.6, 0.00001028925, 10.004556, 9.999625 
5.548701e+2, 1.2650122e+2, -2184098.8, -1764851.8, 85482.664, -0.1020676, -0.0141070075, -1748092.1, -47800.79, 0.0000003291145, 9.99603, 10.001563 
5.548838e+2, 1.3650228e+2, -2128862.8, -1705665.8, -145762.17, 0.16633712, -0.043007713, -1660319.6, -58032.273, 0.000000025104656, 9.995786, 10.001435 
5.5489194e+2, 1.4650576e+2, -1934319.1, -1453596.8, -46533.402, -0.27331933, 0.10976227, -1449133.9, 55121.07, 0.0, 9.995993, 10.00238 
5.549068e+2, 1.5650894e+2, -1797047.4, -1365116.8, -48326.008, -0.11894598, 0.18309455, -1359775.9, 46446.656, 0.0, 9.99639, 10.00212 
5.549237e+2, 1.6650954e+2, -1690019.5, -1484114.5, 14888.812, 0.073494114, 0.14504439, -1483043.5, -174826.38, 0.0, 9.997413, 10.000133 
5.5494094e+2, 1.765087e+2, -1376278.4, -1249505.5, -43836.117, 0.18574852, 0.03899116, -1235824.1, -25597.596, 0.0, 9.998752, 10.000425 
5.549537e+2, 1.865099e+2, -1085974.9, -912276.0, -105430.125, 0.0860206, 0.042995937, -862529.94, 249683.03, 0.0, 9.99943, 10.001745 
5.549643e+2, 1.9651219e+2, -961358.56, -830501.2, 10379.5625, -0.09498406, 0.09185709, -829683.0, 184504.36, 0.0, 9.999738, 10.001485 
5.549763e+2, 2.065131e+2, -978052.25, -988125.25, 4870.3857, -0.1369696, 0.13844211, -976082.5, -59905.516, 0.0, 9.999818, 9.999689 
5.5498874e+2, 2.1651314e+2, -892349.56, -899884.9, -54165.418, -0.11364638, 0.16666894, -841820.94, -23644.627, 0.0, 9.999748, 9.999656 
5.5500185e+2, 2.265114e+2, -778011.3, -852724.44, -47843.324, -0.09658822, 0.05766141, -754667.8, -34475.582, 0.0, 10.000119, 9.9991255 
5.5501515e+2, 2.365086e+2, -588810.56, -714765.1, -36421.207, -0.07830991, -0.14279984, -579037.25, 43180.88, 0.0, 10.000759, 9.999093 
5.550284e+2, 2.4650817e+2, -478562.88, -675090.44, -39708.07, -0.07547533, -0.062584504, -470843.16, 53380.39, 0.0, 10.001119, 9.99852 
5.5504155e+2, 2.5650898e+2, -357352.9, -573692.75, -41392.625, -0.08127374, 0.16191775, -349703.66, 76514.48, 0.0, 10.001313, 9.998449 
5.550564e+2, 2.6650652e+2, -213947.77, -537571.44, -35143.98, 0.011598458, 0.11594785, -210175.28, 118066.125, 0.0, 10.001988, 9.997699 
5.5507207e+2, 2.7650213e+2, 11619.919, -389802.66, -63935.535, 0.15873228, -0.099513695, 21557.092, 251839.13, 0.0, 10.002914, 9.997595 
5.55086e+2, 2.8649986e+2, 49056.81, -415785.66, -69257.65, 0.10436009, -0.039467596, 59156.2, 191462.66, 0.0, 10.002907, 9.996748 
5.5509883e+2, 2.9649878e+2, 75759.08, -342181.9, -46754.684, -0.058946032, 0.17061679, 80925.61, 115246.7, 0.00000008067422, 10.002372, 9.996839 
5.551159e+2, 3.06495e+2, 234387.67, -230541.48, 9601.58, 0.02646281, 0.10864324, 234585.88, 234585.88, 0.0000016756385, 10.00309, 9.996924 
5.5513304e+2, 3.1648964e+2, 576576.56, 147316.5, -24840.252, 0.033652447, -0.13582738, 578009.2, 578009.2, 0.0000083612285, 10.004511, 9.998837 
5.648641e+2, 1.264852e+2, -2315462.5, -1686865.1, 8166.011, -0.22918183, 0.027997818, -1686759.0, 13694.391, 0.00000027083397, 9.994531, 10.002812 
5.6488013e+2, 1.3648658e+2, -2226912.3, -1652865.8, -148867.05, 0.2789366, -0.08668302, -1616556.8, -14116.067, 0.000000017878008, 9.994677, 10.002333 
5.6488895e+2, 1.4649016e+2, -1957373.8, -1553311.5, -21068.48, -0.1789845, 0.08435924, -1552215.9, -47807.906, 0.0, 9.99622, 10.001584 
5.649042e+2, 1.564936e+2, -1541788.5, -1313539.3, -96559.164, -0.11283087, 0.2615806, -1278171.1, 128206.7, 0.0, 9.998448, 10.001481 
5.649212e+2, 1.6649394e+2, -1521889.0, -1368477.1, -23045.438, 0.034152977, 0.20808493, -1365090.0, -56714.305, 0.0, 9.998415, 10.000446 
5.6493825e+2, 1.7649259e+2, -1586072.6, -1306267.3, 26835.645, 0.124186404, 0.018078245, -1303716.6, -93327.586, 0.0, 9.997115, 10.000829 
5.6495166e+2, 1.8649472e+2, -1305346.8, -914003.5, -70006.43, 0.040044803, 0.043991596, -901857.2, 210507.6, 0.0, 9.9974785, 10.002671 
5.6496346e+2, 1.9649874e+2, -1045877.3, -789897.2, -123260.625, -0.10410504, 0.17570692, -740194.75, 274125.53, 0.0, 9.998811, 10.002209 
5.6497633e+2, 2.0649958e+2, -1068861.6, -1083870.6, -147911.08, -0.08957326, 0.21141917, -928264.75, -11954.087, 0.0, 9.999425, 9.999219 
5.649896e+2, 2.1649852e+2, -935414.5, -964934.1, -112781.39, 0.0029325862, 0.1778145, -836431.2, -18109.414, 0.0, 9.999648, 9.999257 
5.6500286e+2, 2.2649647e+2, -777784.1, -854308.5, -60724.92, 0.0007761332, 0.055693332, -744272.25, -23931.105, 0.0, 10.000124, 9.999114 
5.6501615e+2, 2.3649383e+2, -595421.1, -719061.5, -72846.63, -0.049689874, -0.12857655, -561698.8, 60666.75, 0.0, 10.000718, 9.999083 
5.650293e+2, 2.4649353e+2, -495058.1, -692769.1, -85394.164, -0.09105778, -0.028621756, -463282.16, 61086.85, 0.0, 10.001053, 9.998426 
5.6504244e+2, 2.5649443e+2, -375599.9, -598186.25, -74385.48, -0.12409643, 0.21357141, -353029.84, 73331.984, 0.0, 10.001259, 9.998304 
5.6505823e+2, 2.6649144e+2, -257727.6, -605621.3, -15804.138, 0.0003934167, 0.14543381, -257011.13, 71379.26, 0.0, 10.001897, 9.997272 
5.6507546e+2, 2.7648622e+2, -32602.754, -446198.94, -19485.158, 0.2120904, -0.11281678, -31686.807, 198753.03, 0.0, 10.002771, 9.997272 
5.650897e+2, 2.8648373e+2, 140165.34, -358313.22, -37133.27, 0.15978344, -0.063687004, 142916.34, 275381.22, 0.00000000039546985, 10.003474, 9.99687 
5.651023e+2, 2.9648292e+2, 320407.16, -227930.1, -18093.201, -0.035495676, 0.15792283, 321003.53, 355478.9, 0.00000015215677, 10.004069, 9.996809 
5.651193e+2, 3.0647886e+2, 296498.66, -292516.1, 67338.85, 0.02151609, 0.11430425, 304099.06, 304099.06, 0.0000014965399, 10.003909, 9.996108 
5.65137e+2, 3.164741e+2, 346531.3, -47728.46, 59927.285, 0.042463735, 0.016377117, 355438.97, 355438.97, 0.000006770891, 10.003293, 9.998084 
5.7485765e+2, 1.264695e+2, -2174152.0, -1400003.8, -14179.714, -0.33348766, 0.18500312, -1399744.1, 300878.6, 0.00000019303324, 9.994549, 10.004778 
5.7487506e+2, 1.3647361e+2, -2125107.0, -1441997.6, -129157.52, 0.30319586, 0.151728, -1418393.1, 184179.03, 0.000000007774616, 9.994673, 10.003784 
5.7488567e+2, 1.464758e+2, -2073724.8, -1796951.4, 63621.81, -0.1375402, 0.21693549, -1783027.1, -278475.44, 0.0, 9.996228, 9.999909 
5.749035e+2, 1.5647578e+2, -1620860.4, -1480691.6, -30097.822, -0.037923515, 0.21233708, -1474502.1, -67942.875, 0.0, 9.998465, 10.000325 
5.7491875e+2, 1.6647671e+2, -1391081.9, -1101350.3, -76415.26, -0.05313035, 0.16251418, -1082431.5, 226118.19, 0.0, 9.998429, 10.0022745 
5.7493174e+2, 1.7647824e+2, -1491398.1, -1108428.8, -6948.4175, -0.23501153, 0.08214461, -1108302.6, 102227.195, 0.0, 9.997107, 10.002192 
5.749468e+2, 1.8648049e+2, -1398129.0, -1101514.3, -20355.064, -0.19388191, 0.1353372, -1100123.9, 12381.63, 0.0, 9.99746, 10.001391 
5.749635e+2, 1.9648305e+2, -1117970.3, -932617.9, -77167.04, 0.016717313, 0.24705157, -904697.1, 109782.59, 0.0, 9.998783, 10.001241 
5.749782e+2, 2.0648293e+2, -1014962.56, -969078.7, -141528.88, 0.14824134, 0.18059736, -848644.4, 67834.28, 0.0, 9.99941, 10.000015 
5.7499146e+2, 2.1648116e+2, -892544.94, -872688.56, -100315.164, 0.21777669, -0.0015706802, -781811.5, 36681.047, 0.0, 9.999632, 9.999899 
5.7500464e+2, 2.264809e+2, -796816.1, -888537.4, -39529.414, 0.163389, 0.03998246, -782131.1, -61635.105, 0.0, 10.000101, 9.99889 
5.750178e+2, 2.3648141e+2, -611585.6, -748061.06, -50858.47, 0.0449715, 0.19585328, -594717.7, 27776.393, 0.0, 10.000699, 9.998893 
5.7503104e+2, 2.4648008e+2, -490746.94, -684036.5, -80356.83, -0.021717051, 0.19569857, -461703.88, 62802.227, 0.0, 10.001051, 9.998489 
5.7504433e+2, 2.5647756e+2, -371329.06, -588524.25, -61796.33, -0.059651386, 0.09126826, -354977.78, 71549.14, 0.0, 10.001255, 9.998374 
5.7506e+2, 2.6647517e+2, -256482.02, -603490.94, 15528.837, -0.01077772, 0.07297707, -255788.48, 72761.586, 0.0, 10.001895, 9.99729 
5.7507694e+2, 2.7647266e+2, -32275.89, -442476.7, 13613.429, 0.080242604, 0.08705785, -31824.596, 198750.9, 0.0, 10.002754, 9.997308 
5.750917e+2, 2.8646967e+2, 144124.52, -343284.78, -17440.033, 0.014047276, 0.07682532, 144747.75, 277351.63, 0.000000002757487, 10.003448, 9.996985 
5.751054e+2, 2.964665e+2, 316457.34, -230048.8, 139.28206, -0.13265945, 0.056144547, 316457.4, 351090.5, 0.0000002248513, 10.004044, 9.996805 
5.7512176e+2, 3.0646262e+2, 260352.31, -368763.1, 42088.68, -0.12758207, 0.0597461, 263155.63, 263155.63, 0.0000015583029, 10.003908, 9.995588 
5.7513815e+2, 3.1646085e+2, 297424.0, -149048.5, 54655.72, -0.18016687, 0.3108635, 304017.4, 304017.4, 0.0000065122667, 10.003286, 9.997395 
5.848533e+2, 1.2645504e+2, -2076246.0, -1451233.9, 164049.94, -0.281424, 0.26429135, -1410791.8, 289976.28, 0.00000011738098, 9.995651, 10.003889 
5.848703e+2, 1.3645887e+2, -1757379.3, -1339427.8, -149243.03, 0.22021769, 0.28813916, -1291607.3, 311115.28, 0.0000000014227642, 9.997521, 10.003111 
5.8488166e+2, 1.4646035e+2, -1884897.3, -1659448.0, 48217.484, -0.21116696, 0.28769344, -1649568.6, -144861.0, 0.0, 9.99733, 10.0003195 
5.849014e+2, 1.5645969e+2, -1976140.4, -1609538.8, 102186.26, 0.037401564, 0.17664173, -1582979.6, -176261.73, 0.0, 9.995847, 10.000703 
5.849167e+2, 1.664612e+2, -1722482.5, -1234621.5, 25446.652, 0.015849931, 0.15449554, -1233297.8, 75404.01, 0.0, 9.996039, 10.002511 
5.8492863e+2, 1.7646398e+2, -1461674.3, -1079147.9, -21603.229, -0.2635542, 0.17606917, -1077931.8, 132738.67, 0.0, 9.997248, 10.002322 
5.849442e+2, 1.8646568e+2, -1376897.0, -1155336.4, -14027.98, -0.219136, 0.20015693, -1154451.8, -41799.813, 0.0, 9.997879, 10.000824 
5.849623e+2, 1.9646664e+2, -1240218.8, -1042814.7, -22383.617, 0.052167714, 0.20815788, -1040308.44, -25666.453, 0.0, 9.998161, 10.000787 
5.8497727e+2, 2.064662e+2, -1071971.9, -979060.56, -98648.94, 0.15078562, 0.121836625, -916476.1, 167.64159, 0.0, 9.998939, 10.000175 
5.8499044e+2, 2.1646494e+2, -827952.75, -825919.06, -108894.19, 0.13433932, -0.028542684, -718036.94, 100615.8, 0.0, 10.0000105, 10.000036 
5.850045e+2, 2.2646521e+2, -727071.5, -866561.0, -61355.895, 0.114069335, 0.06732687, -703924.5, 16726.523, 0.0, 10.000635, 9.998783 
5.8501923e+2, 2.3646624e+2, -574799.9, -744080.25, -63732.113, 0.099073865, 0.28657123, -553488.44, 69155.84, 0.0, 10.001012, 9.998772 
5.850336e+2, 2.4646425e+2, -325466.34, -617541.06, -79581.47, 0.06392639, 0.23411623, -305190.38, 219471.48, 0.0, 10.002244, 9.998372 
5.8504766e+2, 2.564605e+2, 13712.507, -415445.13, -84801.82, 0.013695607, 0.014519795, 29861.707, 456555.56, 0.0, 10.003954, 9.998263 
5.850628e+2, 2.6645842e+2, 3583.19, -481891.53, -52306.66, -0.007082151, 0.03984475, 9154.937, 337868.8, 0.0, 10.003699, 9.997254 
5.8507854e+2, 2.7645722e+2, -95089.64, -480156.44, -54673.36, -0.013409793, 0.18528269, -87477.375, 143250.98, 0.0, 10.002351, 9.997243 
5.8509415e+2, 2.8645402e+2, 47873.54, -401670.1, -51347.746, -0.057541326, 0.16468458, 53663.992, 186422.64, 0.000000002408673, 10.002836, 9.996879 
5.851098e+2, 2.9644984e+2, 354375.78, -216383.42, -62019.203, -0.11423512, 0.052054904, 361037.1, 395833.97, 0.00000021722738, 10.004327, 9.99676 
5.8512616e+2, 3.0644563e+2, 372088.3, -280921.94, -35413.797, -0.10808615, 0.007504248, 374003.25, 374003.25, 0.0000016855442, 10.004536, 9.995886 
5.8514196e+2, 3.1644434e+2, 401338.78, -107069.98, 38256.566, -0.16295114, 0.27917814, 404201.38, 404201.38, 0.000007544574, 10.004034, 9.997321 
5.948509e+2, 1.2644202e+2, -2344935.3, -2019802.4, 211199.77, -0.09356018, 0.26008537, -1915848.3, -214961.38, 0.000000058921596, 9.995699, 9.999967 
5.948658e+2, 1.3644238e+2, -1958109.4, -1768330.4, -92809.58, 0.011682402, 0.31861567, -1730488.4, -127596.49, 0.000000000010343272, 9.997573, 10.000145 
5.948769e+2, 1.4644383e+2, -1699138.6, -1280910.1, -12684.961, -0.42636716, 0.29506662, -1280525.8, 224350.22, 0.0, 9.997357, 10.002904 
5.948978e+2, 1.5644538e+2, -1837667.1, -1318470.3, 61366.625, 0.09453478, 0.15367733, -1311315.6, 95537.38, 0.0, 9.995828, 10.002709 
5.9491485e+2, 1.6644749e+2, -1825268.3, -1442302.8, 71094.23, 0.22662939, 0.18519032, -1429530.6, -120699.64, 0.0, 9.996016, 10.001097 
5.949289e+2, 1.7644987e+2, -1544818.1, -1251587.4, 20785.506, 0.031857226, 0.30355585, -1250121.4, -39311.05, 0.0, 9.997247, 10.00114 
5.949438e+2, 1.8645029e+2, -1366956.0, -1132682.4, -5826.3037, -0.044842508, 0.24236603, -1132537.5, -19733.586, 0.0, 9.997872, 10.000981 
5.9495986e+2, 1.9644949e+2, -1238497.8, -1035563.9, -6256.689, -0.01669976, 0.059675142, -1035371.1, -20564.088, 0.0, 9.998145, 10.000844 
5.9497374e+2, 2.0644946e+2, -1106961.8, -1046737.8, -60069.4, -0.10266473, 0.036610518, -1009655.56, -92849.69, 0.0, 9.998918, 9.999722 
5.949865e+2, 2.1644983e+2, -858818.06, -884447.1, -69754.016, -0.26396665, 0.095939994, -800711.25, 18091.193, 0.0, 9.999986, 9.999647 
5.9500235e+2, 2.264494e+2, -728767.1, -865419.0, -49398.605, -0.16351153, 0.13666771, -712780.2, 8026.105, 0.0, 10.000616, 9.998799 
5.950202e+2, 2.3644835e+2, -581558.4, -751434.56, -40356.7, 0.09340842, 0.14629032, -572458.5, 50357.297, 0.0, 10.000984, 9.998734 
5.950367e+2, 2.4644612e+2, -351391.9, -666152.94, -15615.397, 0.14798115, 0.089657776, -350619.1, 174216.83, 0.0, 10.002219, 9.998051 
5.950523e+2, 2.5644317e+2, -9588.03, -456912.22, -35236.047, 0.08050469, -0.015229861, -6829.473, 420032.84, 0.0, 10.003924, 9.9979925 
5.950666e+2, 2.6644132e+2, -5648.42, -497026.38, -105694.35, -0.002503576, 0.046542186, 16121.701, 345003.3, 0.0, 10.003681, 9.997161 
5.9508014e+2, 2.764399e+2, -104807.945, -499673.8, -88792.875, -0.093696795, 0.18213093, -85760.07, 145138.36, 0.0, 10.002347, 9.997111 
5.950968e+2, 2.8643683e+2, 24172.637, -448753.13, 3844.0398, -0.078074105, 0.19796216, 24203.88, 157132.83, 0.000000006018714, 10.002826, 9.99656 
5.9511524e+2, 2.9643294e+2, 341630.13, -235680.16, -15646.174, 0.0011677719, 0.1450686, 342053.84, 377019.94, 0.00000036931098, 10.0042925, 9.996646 
5.9513235e+2, 3.0642793e+2, 442095.6, -126222.31, -56028.453, 0.058545716, -0.037584923, 447566.6, 447566.6, 0.0000029562243, 10.0044985, 9.996966 
5.9514815e+2, 3.1642488e+2, 435257.66, -30097.139, 28304.676, 0.043549303, -0.04769226, 436972.94, 436972.94, 0.000011230185, 10.0040045, 9.997866 
6.0484713e+2, 1.2642641e+2, -2403155.5, -2085730.9, -43.152786, -0.026242604, 0.3015304, -2085730.9, -384692.5, 0.000000021349177, 9.995461, 9.999632 
6.048625e+2, 1.3642521e+2, -2238139.0, -1923548.5, -18631.254, 0.01905932, 0.23155133, -1922449.0, -319389.72, 0.0, 9.995741, 9.999964 
6.0487336e+2, 1.4642686e+2, -1816696.6, -1302537.5, 9508.442, -0.46501735, 0.21683228, -1302361.6, 202679.69, 0.0, 9.996402, 10.003215 
6.0489386e+2, 1.5642981e+2, -1614722.3, -1187826.9, -86307.484, 0.045580015, 0.18462448, -1171038.0, 235966.38, 0.0, 9.997263, 10.002912 
6.049118e+2, 1.6643183e+2, -1609934.0, -1393545.6, -58695.92, 0.23567739, 0.22814813, -1378649.6, -69665.77, 0.0, 9.997734, 10.000602 
6.049275e+2, 1.7643322e+2, -1472052.1, -1261091.9, -48037.11, 0.13948753, 0.30091327, -1250668.5, -39694.707, 0.0, 9.997941, 10.000739 
6.049426e+2, 1.8643337e+2, -1357057.0, -1107470.4, -68354.24, 0.046876926, 0.21935874, -1089976.4, 22993.459, 0.0, 9.997851, 10.0011635 
6.0495776e+2, 1.9643274e+2, -1306831.4, -1051008.3, -61592.902, -0.0070330547, 0.03356622, -1036951.3, -21980.83, 0.0, 9.997605, 10.000997 
6.049724e+2, 2.0643306e+2, -1147426.8, -1078194.1, -46888.953, -0.11608814, 0.045142837, -1054527.8, -137561.92, 0.0, 9.998693, 9.999613 
6.0498667e+2, 2.1643384e+2, -784029.56, -858574.3, -42055.11, -0.26456848, 0.15644269, -765107.06, 53852.035, 0.0, 10.000539, 9.99956 
6.050031e+2, 2.2643273e+2, -629036.7, -808430.4, -46119.105, -0.1844632, 0.12853763, -617874.75, 103093.19, 0.0, 10.001258, 9.998884 
6.050207e+2, 2.364304e+2, -528607.2, -721077.5, -31828.756, 0.031995818, 0.0028040695, -523480.22, 99506.57, 0.0, 10.001327, 9.998777 
6.05038e+2, 2.4642834e+2, -492980.7, -767576.0, 22656.14, 0.09729059, -0.02152932, -491123.94, 33882.063, 0.0, 10.001392, 9.997752 
6.0505486e+2, 2.564264e+2, -386042.06, -670560.3, -4086.0503, 0.071195714, 0.0022106806, -385983.4, 41042.36, 0.0, 10.001472, 9.997707 
6.050697e+2, 2.664243e+2, -177430.9, -598589.44, -98930.695, -0.00027527628, 0.06068656, -155349.67, 173698.48, 0.0, 10.002574, 9.997001 
6.0508335e+2, 2.764219e+2, 157470.88, -391223.88, -89548.88, -0.09650852, 0.11815976, 171715.75, 402789.38, 0.0, 10.004223, 9.996957 
6.0510045e+2, 2.864188e+2, 210118.34, -379157.75, 15093.078, -0.061838042, 0.14397378, 210504.67, 343610.25, 0.000000026208514, 10.00419, 9.996381 
6.0511947e+2, 2.964154e+2, 180358.77, -320599.22, 1396.0975, 0.050439253, 0.15674694, 180362.66, 215502.23, 0.0000007866267, 10.003214, 9.996582 
6.0513663e+2, 3.0641085e+2, 360130.88, -78738.56, -44239.684, 0.08917362, -0.017292693, 364545.97, 364545.97, 0.000005008982, 10.003557, 9.9977455 
6.0515285e+2, 3.164076e+2, 550567.75, 74623.375, 11944.467, 0.085811734, -0.12433417, 550867.3, 550867.3, 0.000016252097, 10.004596, 9.998296 
6.1484176e+2, 1.2640819e+2, -2156376.5, -1574020.1, -27374.977, -0.1216378, 0.40137652, -1572736.1, 128487.21, 0.0000000039655865, 9.995467, 10.003136 
6.148605e+2, 1.3640742e+2, -2045773.3, -1520323.5, -2390.2751, 0.23760946, 0.024756687, -1520312.6, 82911.15, 0.0, 9.995724, 10.002738 
6.148711e+2, 1.4640944e+2, -1962544.9, -1606218.3, 40835.23, -0.3324954, 0.047629356, -1601598.5, -96395.27, 0.0, 9.996402, 10.001132 
6.148894e+2, 1.564129e+2, -1731991.5, -1438088.4, -56263.664, -0.1313229, 0.27030388, -1427685.6, -20513.166, 0.0, 9.997289, 10.0011835 
6.149073e+2, 1.6641413e+2, -1576388.4, -1328925.6, -53898.727, 0.015963001, 0.28413695, -1317695.9, -8534.611, 0.0, 9.997756, 10.001035 
6.1492443e+2, 1.7641398e+2, -1441972.0, -1201816.8, -42045.895, 0.035458725, 0.16084276, -1194668.1, 16493.727, 0.0, 9.997953, 10.001141 
6.149404e+2, 1.8641491e+2, -1343598.9, -1075306.0, -81367.66, 0.03662315, 0.12581336, -1052557.6, 60592.652, 0.0, 9.997834, 10.001391 
6.1495614e+2, 1.9641641e+2, -1293360.1, -1019230.4, -57946.0, 0.06530958, 0.1312481, -1007484.9, 7647.0874, 0.0, 9.997589, 10.001222 
6.1497325e+2, 2.0641702e+2, -1134694.0, -1047596.94, 21654.06, 0.09787244, 0.14965503, -1042510.4, -125386.734, 0.0, 9.998675, 9.999831 
6.1499107e+2, 2.1641697e+2, -773323.1, -830369.6, 20302.002, 0.11730216, 0.15516245, -766835.75, 52286.81, 0.0, 10.000512, 9.999766 
6.1500657e+2, 2.2641522e+2, -621777.8, -786987.2, -45329.72, 0.034637507, 0.046201218, -610157.6, 110977.74, 0.0, 10.001231, 9.999043 
6.1502075e+2, 2.3641244e+2, -524273.3, -707264.25, -27485.184, -0.100676656, -0.14346348, -520234.2, 102922.98, 0.0, 10.001307, 9.998881 
6.150374e+2, 2.4641092e+2, -515499.56, -810525.94, 22796.494, -0.10323568, -0.10200378, -513748.5, 11423.912, 0.0, 10.001375, 9.997465 
6.150554e+2, 2.564101e+2, -409197.94, -715613.2, 9115.887, -0.030222338, 0.062266007, -408926.97, 18257.514, 0.0, 10.001459, 9.997405 
6.1507213e+2, 2.664073e+2, -195490.22, -634037.94, -36490.402, -0.01915125, 0.08255386, -192474.67, 136738.77, 0.0, 10.002563, 9.996761 
6.150881e+2, 2.7640325e+2, 140662.19, -421758.25, -38738.48, -0.04346323, -0.004869233, 143317.88, 374571.5, 0.0, 10.004204, 9.996757 
6.1510503e+2, 2.863999e+2, 204839.0, -386530.7, -23749.295, -0.025242757, 0.008849681, 205791.23, 339079.25, 0.0000000322073, 10.004176, 9.996337 
6.151223e+2, 2.963971e+2, 180456.61, -320215.2, -20678.07, 0.014815413, 0.08417606, 181309.17, 216626.7, 0.0000010087751, 10.003213, 9.996584 
6.1513907e+2, 3.063943e+2, 390114.88, -11975.14, -4046.6655, -0.029598888, 0.058879048, 390155.6, 390155.6, 0.000006637063, 10.003539, 9.998212 
6.1515594e+2, 3.1639242e+2, 562311.56, 110493.78, 52600.727, -0.07234988, 0.04279652, 568354.56, 568354.56, 0.000021363838, 10.004546, 9.998565 
6.248363e+2, 1.2638871e+2, -2046595.4, -1398368.3, 30090.893, -0.2163959, 0.28958872, -1396974.5, 304439.25, 0.00000000008306351, 9.995682, 10.004243 
6.2485695e+2, 1.3639034e+2, -1939633.6, -1361402.8, -100734.49, 0.3059221, 0.03685318, -1344356.1, 259030.92, 0.0, 9.995989, 10.003699 
6.248683e+2, 1.4639258e+2, -1975176.1, -1671412.3, -31207.217, -0.2628305, 0.06832999, -1668239.3, -162874.31, 0.0, 9.9965725, 10.000601 
6.248864e+2, 1.5639502e+2, -1762308.9, -1499415.9, -19903.338, -0.15693876, 0.24248324, -1497917.6, -90570.73, 0.0, 9.997283, 10.000764 
6.249042e+2, 1.6639596e+2, -1644002.0, -1328976.1, -10099.51, -0.04296592, 0.22941807, -1328652.6, -19314.48, 0.0, 9.99715, 10.0013275 
6.249212e+2, 1.7639597e+2, -1638211.1, -1273725.4, -8550.562, -0.013471445, 0.09177819, -1273524.9, -62189.324, 0.0, 9.996512, 10.001341 
6.249375e+2, 1.8639715e+2, -1448600.3, -1168432.1, -48203.098, -0.006255472, 0.09634079, -1160370.6, -47048.426, 0.0, 9.997294, 10.001014 
6.249539e+2, 1.9639896e+2, -1121943.5, -970355.3, -75125.71, 0.02401212, 0.16908623, -939431.94, 75871.58, 0.0, 9.998905, 10.000925 
6.249725e+2, 2.0639941e+2, -1032194.25, -974542.8, -6709.081, 0.12983043, 0.17251329, -973772.4, -56475.57, 0.0, 9.999276, 10.000043 
6.2499225e+2, 2.1639894e+2, -993354.06, -917232.9, -13615.758, 0.26394504, 0.115809575, -914870.75, -95572.52, 0.0, 9.998924, 9.999933 
6.250081e+2, 2.263974e+2, -887669.5, -942060.3, -98592.77, 0.15518337, 0.034603164, -812590.2, -91280.24, 0.0, 9.999519, 9.998805 
6.250219e+2, 2.3639517e+2, -629550.94, -777060.3, -114052.81, -0.0878116, -0.073964395, -567482.94, 55845.55, 0.0, 10.000661, 9.998715 
6.250385e+2, 2.4639371e+2, -448805.34, -744367.06, -46594.047, -0.13709547, -0.0384216, -441634.0, 83708.945, 0.0, 10.001681, 9.997773 
6.250569e+2, 2.563926e+2, -216260.8, -586900.8, -16680.14, -0.0753992, 0.06730006, -215511.64, 211844.05, 0.0, 10.00263, 9.997724 
6.2507474e+2, 2.6638988e+2, -83654.16, -544204.44, -552.4388, -0.04245851, 0.059385758, -83653.49, 245729.3, 0.0, 10.003183, 9.997078 
6.2509215e+2, 2.7638605e+2, 62823.61, -422881.25, 27518.178, -0.024416, -0.035661057, 64377.71, 295797.22, 0.0, 10.003513, 9.997082 
6.251094e+2, 2.8638285e+2, 215980.58, -341256.28, 42477.152, -0.0022082927, -0.042683844, 219199.94, 352651.63, 0.00000002238418, 10.004073, 9.996702 
6.2512636e+2, 2.963801e+2, 417638.66, -181435.06, 70980.57, 0.01896536, 0.0020586695, 425933.88, 461414.03, 0.0000014644203, 10.004735, 9.996807 
6.2514275e+2, 3.0637792e+2, 489873.5, -29018.738, 64133.3, -0.054955337, 0.06473646, 497682.63, 497682.63, 0.000009703971, 10.004505, 9.997631 
6.2515986e+2, 3.1637597e+2, 408152.47, -20112.186, 36712.215, -0.086405896, 0.09856899, 411276.75, 411276.75, 0.000029527293, 10.003724, 9.998068 
6.3483083e+2, 1.263679e+2, -2141430.8, -1599299.4, 9758.017, -0.3455841, -0.05304144, -1599123.8, 102486.31, 0.0, 9.995704, 10.0028515 
6.348519e+2, 1.3637404e+2, -2007362.8, -1503522.4, -87002.82, 0.19696087, 0.2753948, -1488921.9, 114627.24, 0.0, 9.9959955, 10.002722 
6.3486475e+2, 1.4637628e+2, -1897961.9, -1514778.3, -7890.6455, -0.27859995, 0.28955418, -1514615.8, -9089.153, 0.0, 9.996584, 10.001672 
6.348849e+2, 1.5637611e+2, -1693027.9, -1360546.0, 2131.5151, -0.04245378, 0.09722552, -1360532.4, 46995.434, 0.0, 9.997301, 10.00171 
6.349023e+2, 1.663773e+2, -1632777.0, -1303980.9, -37516.754, 0.048350666, 0.057201874, -1299754.4, 9760.37, 0.0, 9.997145, 10.0015 
6.349176e+2, 1.7637922e+2, -1639832.4, -1274109.9, -19487.709, -0.024381459, 0.093551196, -1273074.5, -61580.33, 0.0, 9.996498, 10.001345 
6.349339e+2, 1.8638013e+2, -1523175.5, -1320701.3, 11972.665, -0.100507915, 0.12923008, -1319995.8, -206510.19, 0.0, 9.997283, 9.999974 
6.349511e+2, 1.9638038e+2, -1183387.3, -1096355.1, -23022.604, -0.14910322, 0.14815274, -1090640.3, -75155.03, 0.0, 9.9988985, 10.000064 
6.349701e+2, 2.063802e+2, -1018478.94, -943567.8, -23853.744, -0.03937315, 0.115427725, -936617.06, -19131.846, 0.0, 9.999264, 10.000263 
6.349901e+2, 2.1637973e+2, -988542.56, -903557.4, -17453.824, 0.1532799, 0.036861807, -900112.5, -80626.17, 0.0, 9.998906, 10.000036 
6.350077e+2, 2.2637923e+2, -936258.5, -1036387.25, -57431.53, 0.15698865, 0.09057504, -910133.44, -188641.64, 0.0, 9.999493, 9.998168 
6.3502395e+2, 2.3637863e+2, -662061.6, -840070.75, -70103.89, 0.051658865, 0.20646343, -637768.5, -14267.606, 0.0, 10.000641, 9.998292 
6.3504136e+2, 2.4637675e+2, -389121.28, -616517.75, -11929.13, -0.024205258, 0.16911025, -388497.2, 137019.94, 0.0, 10.001664, 9.998661 
6.3505954e+2, 2.5637403e+2, -156478.05, -457961.0, 17659.338, -0.08424067, 0.023266362, -155447.19, 272091.4, 0.0, 10.002609, 9.998621 
6.3507754e+2, 2.663719e+2, -27140.975, -422351.28, 9394.882, -0.08670687, -0.007508277, -26917.768, 302638.47, 0.0, 10.003163, 9.997925 
6.350954e+2, 2.7637014e+2, 116344.11, -304233.78, 42773.52, -0.055299073, 0.016911551, 120650.164, 352222.44, 0.0, 10.00348, 9.997912 
6.351134e+2, 2.863675e+2, 264848.6, -232956.94, 65373.72, -0.009724095, -0.014986125, 273290.56, 406888.03, 0.00000009614687, 10.004043, 9.997462 
6.3513136e+2, 2.9636428e+2, 443922.94, -120089.89, 88825.79, 0.04209952, -0.087281965, 457581.25, 493209.28, 0.0000029931305, 10.004704, 9.997245 
6.3514775e+2, 3.0636173e+2, 375955.84, -260997.77, 33025.492, -0.007813265, 0.0063798632, 377663.63, 377663.63, 0.000015411697, 10.004487, 9.996046 
6.351645e+2, 3.1635842e+2, 321673.2, -197154.5, 10128.001, -0.0022285674, 0.06103667, 321870.8, 321870.8, 0.0000417821, 10.003715, 9.996856 
6.44827e+2, 1.2635043e+2, -2203024.0, -1783100.9, 18912.768, -0.29932442, -0.06719295, -1782250.8, -80475.89, 0.0, 9.995945, 10.0014715 
6.448477e+2, 1.3635528e+2, -1978617.3, -1604736.5, -62543.285, 0.15054923, 0.26098529, -1594551.6, 9181.14, 0.0, 9.996693, 10.001688 
6.448611e+2, 1.4635745e+2, -1854204.1, -1420672.0, -14865.15, -0.29631844, 0.2750904, -1420162.9, 85548.43, 0.0, 9.996571, 10.002326 
6.44882e+2, 1.5635793e+2, -1849348.0, -1372741.5, -39112.977, 0.010765602, 0.08026262, -1369553.0, 38150.31, 0.0, 9.995957, 10.002274 
6.448998e+2, 1.6635934e+2, -1695767.0, -1341662.6, -85771.13, 0.10606834, 0.041747708, -1321981.1, -12293.575, 0.0, 9.99674, 10.001438 
6.449153e+2, 1.763612e+2, -1376692.1, -1153980.6, -87058.72, 0.0037205543, 0.08237296, -1123988.1, 87679.83, 0.0, 9.998329, 10.001289 
6.4493227e+2, 1.8636191e+2, -1294852.9, -1216757.4, -772.4388, -0.06687484, 0.10202011, -1216749.8, -103088.5, 0.0, 9.998877, 9.999919 
6.4495057e+2, 1.9636178e+2, -1205044.1, -1118054.5, 31494.906, -0.090034805, 0.09132439, -1107848.9, -92185.805, 0.0, 9.998801, 9.999959 
6.4496905e+2, 2.063615e+2, -1073481.3, -1022451.6, 6871.859, -0.064405166, 0.07554417, -1021542.4, -103876.44, 0.0, 9.999117, 9.99979 
6.449876e+2, 2.16361e+2, -904096.5, -908396.5, -39027.24, -0.018889658, 0.04351694, -867160.06, -47489.87, 0.0, 9.999682, 9.99963 
6.4500636e+2, 2.2636056e+2, -784695.94, -951654.94, -28894.268, 0.027716046, 0.11529347, -779836.8, -58160.926, 0.0, 10.000478, 9.998279 
6.4502513e+2, 2.3636006e+2, -544653.2, -772939.94, 6903.294, 0.078476205, 0.2296448, -544444.6, 79238.74, 0.0, 10.001402, 9.998386 
6.4504397e+2, 2.46358e+2, -367497.0, -615600.1, 27915.225, 0.06005859, 0.17418306, -364394.9, 161306.69, 0.0, 10.001859, 9.998571 
6.450626e+2, 2.563549e+2, -239257.7, -496819.25, -21537.3, -0.0025381471, 0.0012976774, -237469.19, 190258.05, 0.0, 10.002038, 9.99863 
6.4508045e+2, 2.6635334e+2, -153462.17, -405649.28, -77451.55, -0.045881417, -0.016613806, -131574.89, 198164.36, 0.0, 10.001961, 9.998617 
6.450978e+2, 2.763526e+2, -90306.21, -334097.16, -53105.4, -0.074167445, 0.04306285, -79240.45, 152503.4, 0.000000000000000000046744374, 10.001761, 9.998532 
6.4511645e+2, 2.8635043e+2, 65784.69, -309625.03, -24761.322, -0.028984128, 0.024800804, 67410.85, 201174.97, 0.00000029928944, 10.002598, 9.997627 
6.451358e+2, 2.9634738e+2, 356647.63, -150180.78, -52087.063, 0.056631397, -0.04843867, 361945.25, 397739.2, 0.0000051308543, 10.004058, 9.997348 
6.4515275e+2, 3.0634457e+2, 450032.78, -252198.88, -92271.61, 0.016439557, 0.030232918, 461954.66, 461954.66, 0.000022318512, 10.005107, 9.99581 
6.451697e+2, 3.1634045e+2, 639563.06, -32070.584, -30752.854, 0.041464094, 0.022863947, 640968.2, 640968.2, 0.00005627507, 10.005847, 9.9969635 
6.548251e+2, 1.2633662e+2, -2296321.5, -1982902.5, 18881.748, -0.09783269, 0.2627259, -1981769.1, -279863.47, 0.0, 9.995974, 10.000088 
6.5484446e+2, 1.3633408e+2, -2054395.5, -1770405.9, -39924.68, 0.15348777, -0.015375257, -1764899.8, -160961.81, 0.0, 9.996727, 10.000535 
6.548573e+2, 1.4633597e+2, -1836828.8, -1386836.3, -43686.145, -0.33469895, 0.008744002, -1382634.4, 123285.93, 0.0, 9.996581, 10.002552 
6.5487766e+2, 1.5634042e+2, -1841237.0, -1352931.4, -50452.76, -0.020896314, 0.1921279, -1347773.0, 60100.535, 0.0, 9.995945, 10.002417 
6.548966e+2, 1.6634208e+2, -1718972.4, -1390383.4, -27352.457, 0.107852146, 0.19125813, -1388122.1, -78266.09, 0.0, 9.99674, 10.001104 
6.5491414e+2, 1.7634198e+2, -1383273.0, -1176004.6, -34600.965, 0.052647877, 0.064128004, -1170381.0, 41475.883, 0.0, 9.998361, 10.001124 
6.549327e+2, 1.8634246e+2, -1224152.4, -1070738.8, -7791.8335, 0.08077927, 0.014324468, -1070344.0, 43505.2, 0.0, 9.99888, 10.000918 
6.5495217e+2, 1.9634327e+2, -1159893.1, -1016892.94, 33171.375, 0.18588267, -0.0028971247, -1009572.94, 6263.9375, 0.0, 9.998773, 10.000667 
6.5496916e+2, 2.0634331e+2, -1161838.9, -1202147.4, 26572.0, 0.03713552, 0.05313228, -1148642.5, -230803.78, 0.0, 9.999099, 9.998567 
6.5498483e+2, 2.1634276e+2, -971553.7, -1045683.6, -14222.231, -0.27105063, 0.13523425, -968918.75, -149068.7, 0.0, 9.999668, 9.998695 
6.550041e+2, 2.2634143e+2, -727615.3, -826400.44, 4095.9692, -0.24809328, 0.10822634, -727445.75, -5583.5864, 0.0, 10.00045, 9.999151 
6.550256e+2, 2.3633955e+2, -506047.97, -685895.56, 39817.066, -0.022136426, 0.0003275758, -497627.03, 126248.48, 0.0, 10.001373, 9.998997 
6.550462e+2, 2.4633747e+2, -446008.1, -774198.7, 32948.09, 0.09833372, -0.02072084, -442733.03, 83163.13, 0.0, 10.001839, 9.997493 
6.5506613e+2, 2.5633526e+2, -302906.56, -622209.5, -14658.051, 0.14955744, -0.00043557156, -302235.1, 125686.4, 0.0, 10.00201, 9.99778 
6.5508354e+2, 2.6633415e+2, -114105.79, -324256.84, -86898.29, 0.06603933, 0.030344686, -82828.18, 247103.1, 0.0, 10.001959, 9.999181 
6.550994e+2, 2.7633354e+2, -59320.55, -269920.47, -51013.27, -0.097522706, 0.04868544, -47614.38, 184318.55, 0.0000000002377775, 10.0017605, 9.998976 
6.551186e+2, 2.8633177e+2, 35436.91, -370878.53, 28992.795, -0.078414425, 0.07829284, 37495.273, 171445.67, 0.00000071351513, 10.002591, 9.997209 
6.5513974e+2, 2.9632938e+2, 336460.7, -182647.31, 1349.5354, 0.045047536, 0.10757836, 336464.2, 372441.56, 0.000007946054, 10.004018, 9.997142 
6.551578e+2, 3.0632648e+2, 518423.47, -100779.164, -63910.945, 0.0040329387, 0.12786978, 524951.25, 524951.25, 0.000030782165, 10.005067, 9.99687 
6.551753e+2, 3.163221e+2, 727398.25, 160876.45, -6396.7085, 0.013766425, -0.015436606, 727470.5, 727470.5, 0.00007350771, 10.005802, 9.998311 
6.6482145e+2, 1.2631805e+2, -2168763.8, -1872169.5, -88261.75, -0.08836772, 0.25513145, -1847891.5, -145806.47, 0.0, 9.996631, 10.000534 
6.6484153e+2, 1.3631529e+2, -2064298.0, -1733497.3, 5242.5195, 0.20385103, -0.094371885, -1733414.1, -129297.15, 0.0, 9.996476, 10.000914 
6.648545e+2, 1.4631696e+2, -1788736.0, -1413610.6, 25702.164, -0.29229525, -0.082844794, -1411857.9, 94243.19, 0.0, 9.997127, 10.002104 
6.648743e+2, 1.5632115e+2, -1528499.8, -1253237.9, -32864.42, -0.065026894, 0.1194234, -1249368.5, 158689.03, 0.0, 9.998311, 10.00196 
6.648937e+2, 1.6632274e+2, -1475637.1, -1326725.9, -16475.25, 0.052229214, 0.15791236, -1324924.9, -14882.182, 0.0, 9.998648, 10.000616 
6.649124e+2, 1.7632267e+2, -1397058.3, -1226992.0, -43682.9, 0.040615633, 0.0821078, -1216428.0, -4382.232, 0.0, 9.998468, 10.000714 
6.649317e+2, 1.8632305e+2, -1261918.3, -1085845.9, -84484.59, 0.11055284, 0.03620306, -1051865.6, 62174.113, 0.0, 9.99861, 10.000946 
6.649516e+2, 1.9632357e+2, -1133957.3, -1002249.5, -118290.766, 0.2515094, -0.0075717433, -932717.1, 83312.0, 0.0, 9.998936, 10.000692 
6.649694e+2, 2.063235e+2, -1076680.5, -1156574.3, -67661.37, 0.11612266, 0.033847753, -1038053.7, -120022.32, 0.0, 9.99966, 9.9986105 
6.649858e+2, 2.1632294e+2, -824653.06, -963309.94, -18283.443, -0.18983056, 0.108963676, -822282.7, -2240.3308, 0.0, 10.000629, 9.9987955 
6.650052e+2, 2.2632171e+2, -634287.6, -739792.0, 3512.1445, -0.19935507, 0.06802916, -634170.8, 87881.8, 0.0, 10.0009165, 9.999519 
6.6502655e+2, 2.3632002e+2, -571015.56, -682921.9, -2026.8593, -0.028726537, -0.056371335, -570978.9, 53084.547, 0.0, 10.00078, 9.999304 
6.650472e+2, 2.4631825e+2, -588355.75, -841668.2, 24731.838, 0.07168178, -0.060911395, -585963.7, -59881.98, 0.0, 10.000855, 9.997503 
6.6506743e+2, 2.5631636e+2, -440397.8, -696449.44, 56153.695, 0.12583996, -0.007788945, -428624.3, -519.25, 0.0, 10.001096, 9.997713 
6.6508555e+2, 2.66315e+2, -100076.87, -378654.97, -15095.831, 0.05816474, 0.032306343, -99261.23, 230857.48, 0.0, 10.002319, 9.9986315 
6.651024e+2, 2.7631384e+2, 251638.48, -174031.94, -68400.7, -0.08202263, 0.048833307, 262359.72, 494487.25, 0.0000000023427176, 10.004131, 9.998491 
6.651221e+2, 2.8631186e+2, 248042.31, -274547.4, -21745.092, -0.0603575, 0.08009303, 248945.56, 383093.3, 0.0000013172003, 10.004077, 9.997156 
6.651433e+2, 2.9630938e+2, 175097.78, -262560.88, -20589.71, 0.054180734, 0.109624356, 176064.3, 212239.44, 0.000011808055, 10.002915, 9.997125 
6.6516197e+2, 3.0630648e+2, 307005.13, -184284.27, -77725.51, 0.0006248148, 0.119733, 319008.6, 319008.6, 0.00004228095, 10.003541, 9.997027 
6.6518074e+2, 3.163029e+2, 662961.25, 172274.17, -103393.68, 0.0053072628, 0.04243675, 683857.7, 683857.7, 0.000096397685, 10.005183, 9.998686 
6.748158e+2, 1.2629442e+2, -1991798.8, -1515834.9, -121203.45, -0.32643306, -0.11532265, -1486748.1, 215568.34, 0.0, 9.996676, 10.002956 
6.7483884e+2, 1.3629906e+2, -1918958.5, -1436044.9, 6921.0244, 0.28220174, 0.02770944, -1435945.8, 168322.55, 0.0, 9.996494, 10.002945 
6.7485285e+2, 1.4630067e+2, -1869493.4, -1586289.4, 69391.41, -0.1844433, 0.011659986, -1570200.9, -63950.074, 0.0, 9.997148, 10.000911 
6.7487186e+2, 1.5630016e+2, -1600296.9, -1412266.6, 7670.735, -0.14784482, -0.13918605, -1411954.1, -3699.198, 0.0, 9.998353, 10.000849 
6.7489105e+2, 1.6630124e+2, -1516046.6, -1416839.6, -26639.62, -0.08200357, -0.06551022, -1410138.8, -99890.92, 0.0, 9.9986725, 9.999989 
6.7490995e+2, 1.7630328e+2, -1443891.6, -1326137.3, -46782.13, -0.05181467, 0.1338344, -1309814.1, -97579.88, 0.0, 9.998474, 10.000033 
6.749292e+2, 1.8630359e+2, -1334399.5, -1233032.4, -75399.87, -0.0008297121, 0.16793214, -1192864.6, -78631.9, 0.0, 9.998597, 9.999941 
6.749489e+2, 1.9630271e+2, -1186412.4, -1106294.6, -102808.21, 0.08479054, 0.08112911, -1036016.56, -19776.686, 0.0, 9.998917, 9.999987 
6.7496943e+2, 2.0630209e+2, -984465.94, -960651.06, -33625.21, 0.15430047, 0.022450037, -936887.2, -18643.172, 0.0, 9.9996395, 9.999966 
6.7499036e+2, 2.1630155e+2, -746658.25, -796167.56, 14622.468, 0.20848297, -0.034338456, -742662.06, 77584.82, 0.0, 10.000606, 9.999955 
6.750097e+2, 2.2630145e+2, -648908.75, -764286.2, -3341.0825, 0.15646489, -0.005271782, -648812.06, 73435.03, 0.0, 10.000891, 9.999364 
6.75028e+2, 2.3630151e+2, -573261.5, -682250.5, -3725.884, 0.04162258, 0.059316564, -573134.25, 51112.527, 0.0, 10.000758, 9.999318 
6.7504704e+2, 2.4630032e+2, -514822.5, -686155.0, 31182.723, -0.034554277, 0.050910037, -509323.7, 16934.44, 0.0, 10.000842, 9.998577 
6.750665e+2, 2.5629827e+2, -392434.84, -593401.06, 73826.15, -0.08684572, -0.018608557, -368229.72, 60047.832, 0.0, 10.001081, 9.998427 
6.750865e+2, 2.66296e+2, -218947.55, -621691.5, 52695.926, -0.08513129, -0.0055919588, -212166.86, 118134.14, 0.0, 10.002302, 9.996971 
6.751069e+2, 2.7629352e+2, 148073.7, -379828.94, -11388.868, -0.050126158, 0.041096814, 148319.28, 380646.94, 0.0000000015372758, 10.004091, 9.997097 
6.7512685e+2, 2.862907e+2, 266069.9, -231065.55, -66881.195, 0.0048038242, 0.031052161, 274910.44, 409266.28, 0.0000016329882, 10.004051, 9.997467 
6.7514634e+2, 2.962876e+2, 186333.88, -237869.36, -47241.652, 0.06619905, -0.030311966, 191531.28, 227917.13, 0.000015726333, 10.00291, 9.997297 
6.751654e+2, 3.0628476e+2, 254668.89, -292674.9, -13637.874, -0.012089112, 0.01772445, 255008.5, 255008.5, 0.000056446886, 10.00354, 9.996282 
6.751857e+2, 3.1628275e+2, 619671.94, 86671.46, -41931.55, -0.025758209, 0.17464927, 622950.56, 622950.56, 0.00012608735, 10.005164, 9.998105 
6.8481195e+2, 1.262742e+2, -2283736.5, -1630134.5, -43959.215, -0.27432054, -0.20562539, -1627191.1, 75321.89, 0.0, 9.994563, 10.003191 
6.848352e+2, 1.3628013e+2, -1860819.1, -1385819.3, -79397.03, 0.25642672, 0.043124452, -1372899.4, 231551.6, 0.0, 9.996804, 10.003137 
6.8485045e+2, 1.462817e+2, -1800591.4, -1594473.1, -48344.297, -0.16297492, 0.03518895, -1583697.5, -77263.67, 0.0, 9.997802, 10.000537 
6.848709e+2, 1.5628016e+2, -1662002.3, -1479796.9, -55075.477, -0.06550608, -0.18006101, -1464442.9, -55994.69, 0.0, 9.998094, 10.00051 
6.8489033e+2, 1.6628085e+2, -1558604.9, -1441461.9, -57854.25, -0.0038837483, -0.12887782, -1417706.4, -107262.15, 0.0, 9.998398, 9.999954 
6.849089e+2, 1.762829e+2, -1419005.5, -1326706.8, -34776.57, -0.012780508, 0.07478817, -1315070.5, -102641.41, 0.0, 9.998696, 9.999927 
6.84928e+2, 1.8628295e+2, -1234138.1, -1253658.6, 625.8792, -0.030767974, 0.121115915, -1234118.1, -119686.49, 0.0, 9.999581, 9.999326 
6.849475e+2, 1.9628163e+2, -943958.44, -1039566.75, -3321.7207, -0.03362353, 0.04988477, -943843.2, 72602.79, 0.0, 10.000803, 9.999532 
6.84969e+2, 2.0628117e+2, -813654.06, -822159.44, 13361.582, 0.10447343, -0.00069580047, -803884.7, 114563.586, 0.0, 10.000576, 10.000462 
6.8499154e+2, 2.1628118e+2, -885062.4, -820690.75, -5496.011, 0.31962603, -0.05176378, -820224.9, 218.94771, 0.0, 9.999474, 10.000332 
6.8501115e+2, 2.262812e+2, -844414.9, -904750.4, -38601.445, 0.2766309, -0.0041737524, -825591.2, -103146.45, 0.0, 9.999744, 9.998952 
6.8502915e+2, 2.3628111e+2, -577384.6, -714337.8, -63585.12, 0.079365216, 0.08703819, -552415.44, 72034.42, 0.0, 10.000858, 9.99905 
6.850482e+2, 2.4628034e+2, -353028.5, -535323.3, -55495.348, -0.038513597, 0.09686744, -337463.28, 188993.13, 0.0, 10.001637, 9.99923 
6.8506783e+2, 2.5627908e+2, -189841.58, -433928.5, -45001.656, -0.10913989, 0.04130234, -181809.08, 246655.77, 0.0, 10.002206, 9.998981 
6.850888e+2, 2.6627657e+2, -245992.64, -645688.75, 7616.077, -0.07728805, 0.013957242, -245847.56, 84641.49, 0.0, 10.002163, 9.996875 
6.8511045e+2, 2.7627325e+2, -194728.84, -555572.94, 50128.734, 0.017459834, -0.012923127, -187894.38, 44629.367, 0.00000000039754933, 10.001778, 9.997005 
6.851305e+2, 2.8627035e+2, 48623.895, -341347.84, 6763.0713, 0.04217246, -0.025987383, 48741.15, 183293.67, 0.0000016862078, 10.002579, 9.997418 
6.851494e+2, 2.9626763e+2, 353480.6, -166045.06, 758.85236, 0.018433912, -0.04427217, 353481.7, 390060.16, 0.000018911569, 10.004096, 9.99722 
6.851693e+2, 3.0626404e+2, 461410.97, -238998.11, 77929.84, -0.05714047, -0.04669828, 469976.94, 469976.94, 0.000070288996, 10.005151, 9.995879 
6.851913e+2, 3.162616e+2, 687600.7, 68072.984, 59247.305, -0.010050155, 0.10664854, 693215.8, 693215.8, 0.00015765429, 10.005849, 9.997649 
6.9480985e+2, 1.2625769e+2, -2437868.5, -1945230.8, 25215.313, 0.055905472, 0.00071262073, -1943943.5, -241271.94, 0.0, 9.994546, 10.001035 
6.948305e+2, 1.3625853e+2, -1986024.9, -1646462.1, -3133.2473, 0.101255596, -0.050098687, -1646433.3, -41767.703, 0.0, 9.996809, 10.001344 
6.948474e+2, 1.4625998e+2, -1764825.5, -1523096.1, -41896.38, -0.25482136, -0.019972995, -1516040.6, -9389.203, 0.0, 9.997814, 10.00102 
6.948714e+2, 1.5626128e+2, -1623562.9, -1405862.1, -41595.402, 0.16968995, 0.0014791492, -1398185.4, 10451.615, 0.0, 9.9981165, 10.001007 
6.948916e+2, 1.662617e+2, -1519616.3, -1363523.1, -49183.133, 0.27611881, -0.026519129, -1349318.8, -38687.973, 0.0, 9.998409, 10.000484 
6.949092e+2, 1.7626151e+2, -1387944.8, -1262940.8, -17552.027, 0.14591348, -0.097333945, -1260523.0, -47892.848, 0.0, 9.998695, 10.000366 
6.9492793e+2, 1.8626106e+2, -1247827.8, -1278493.1, 46548.887, 0.0075084907, -0.110736445, -1214151.4, -99515.17, 0.0, 9.999568, 9.999161 
6.949475e+2, 1.9626035e+2, -959875.75, -1069895.8, 35000.023, -0.11872771, -0.10537598, -949685.3, 66961.62, 0.0, 10.000791, 9.99933 
6.9496804e+2, 2.0626077e+2, -843716.8, -880213.94, -31061.54, -0.053006787, -0.036262464, -825940.0, 92703.74, 0.0, 10.000559, 10.000071 
6.949891e+2, 2.162618e+2, -918602.94, -886402.94, -35050.246, 0.125131, 0.0557511, -863931.9, -43298.895, 0.0, 9.999455, 9.99989 
6.9500965e+2, 2.2626096e+2, -893865.0, -1003768.75, 1942.4937, 0.14519292, 0.07347991, -893830.7, -171185.64, 0.0, 9.999728, 9.9982815 
6.9503e+2, 2.3625885e+2, -618596.06, -797167.4, -21364.402, 0.06854667, 0.027765457, -616075.56, 8596.508, 0.0, 10.000843, 9.998489 
6.9505066e+2, 2.4625838e+2, -339623.4, -502018.16, -34725.188, 0.039502338, 0.07738549, -332509.66, 194166.3, 0.0, 10.001616, 9.99947 
6.950715e+2, 2.5625882e+2, -164771.6, -378000.2, -25734.623, 0.03906515, 0.16982889, -161709.66, 266956.66, 0.0, 10.00219, 9.999373 
6.950923e+2, 2.6625678e+2, -148808.89, -442478.56, -9622.623, 0.06398757, 0.09094844, -148493.92, 182188.58, 0.0, 10.002156, 9.998274 
6.951132e+2, 2.7625307e+2, -114434.5, -386641.8, 45214.805, 0.10521433, -0.111168675, -107120.64, 125595.18, 0.000000005475359, 10.001768, 9.998171 
6.95133e+2, 2.862508e+2, 17001.969, -401815.25, 62049.926, 0.035883024, -0.08974448, 26001.598, 160739.73, 0.0000019378085, 10.002559, 9.997011 
6.951522e+2, 2.9624933e+2, 326607.34, -218196.63, 55668.85, -0.107064694, 0.055029932, 332237.5, 368991.97, 0.00002191721, 10.004081, 9.996868 
6.951735e+2, 3.062442e+2, 453054.1, -249298.75, 102821.97, -0.14918976, -0.07840826, 467797.38, 467797.38, 0.0000826305, 10.005122, 9.995822 
6.951975e+2, 3.162394e+2, 654924.5, 15594.614, 84217.82, 0.018758869, -0.15564431, 665832.25, 665832.25, 0.00018676382, 10.005781, 9.997322 
7.0480615e+2, 1.2623776e+2, -2193848.8, -1893257.4, -101463.55, 0.13538037, 0.10349887, -1862214.6, -159346.48, 0.0, 9.996497, 10.000456 
7.048274e+2, 1.3623722e+2, -1924398.0, -1670359.0, -14392.621, 0.08965997, -0.031285428, -1669546.3, -64668.77, 0.0, 9.997466, 10.000863 
7.048451e+2, 1.4623842e+2, -1777012.1, -1536379.3, -76466.21, -0.2607745, 0.0006539261, -1514136.5, -7270.0938, 0.0, 9.99776, 10.0009575 
7.048691e+2, 1.5624009e+2, -1675941.9, -1428646.0, -117816.96, 0.15046497, 0.06549528, -1381502.6, 27345.904, 0.0, 9.997751, 10.001025 
7.048898e+2, 1.662405e+2, -1461375.5, -1270572.4, -116324.24, 0.2540625, 0.0014838922, -1215532.0, 95308.25, 0.0, 9.998534, 10.001058 
7.049083e+2, 1.7624003e+2, -1194293.9, -1107827.0, -86785.38, 0.13551569, -0.15566927, -1054102.5, 158735.78, 0.0, 9.999765, 10.000909 
7.049279e+2, 1.8623987e+2, -1179393.1, -1216719.4, -10829.261, 0.037128057, -0.1769354, -1176478.9, -61639.105, 0.0, 9.999913, 9.999418 
7.049484e+2, 1.962398e+2, -1153655.1, -1147135.9, 2617.967, -0.03365643, -0.13160989, -1146214.8, -129370.375, 0.0, 9.999387, 9.999478 
7.049685e+2, 2.0624013e+2, -954543.56, -999945.94, -62385.65, -0.028550262, -0.04547008, -910857.1, 7986.504, 0.0, 10.000077, 9.999486 
7.049885e+2, 2.1624061e+2, -653758.4, -811926.9, -81189.53, 0.021961436, 0.050587967, -619502.2, 201338.4, 0.0, 10.001505, 9.999415 
7.0500964e+2, 2.2623962e+2, -532780.44, -809008.5, 9034.009, 0.057344258, 0.06542843, -532485.3, 190368.22, 0.0, 10.002122, 9.998463 
7.0503163e+2, 2.3623765e+2, -409888.84, -685095.6, 42755.51, 0.08479068, 0.013415991, -403399.47, 221477.69, 0.0, 10.002233, 9.998587 
7.0505327e+2, 2.4623676e+2, -277212.16, -525807.8, 14115.152, 0.108020686, 0.044968825, -276413.25, 250472.14, 0.0, 10.002274, 9.99899 
7.050746e+2, 2.562365e+2, -180250.52, -424997.47, -36142.88, 0.1263993, 0.11094077, -175024.72, 253860.27, 0.0, 10.002254, 9.999018 
7.050951e+2, 2.6623476e+2, -98851.76, -363829.2, -94030.34, 0.11608311, 0.051546097, -68875.2, 262023.31, 0.0, 10.002267, 9.998759 
7.0511496e+2, 2.76232e+2, -7838.4063, -288474.44, -101601.695, 0.09037355, -0.10200262, 25083.441, 258005.13, 0.000000016180524, 10.002302, 9.998586 
7.0513576e+2, 2.8623006e+2, 82902.43, -388510.34, -42089.793, 0.029482605, -0.055033453, 86630.91, 221571.63, 0.0000025350105, 10.003087, 9.996851 
7.051569e+2, 2.9622856e+2, 360114.97, -207612.72, -38452.824, -0.056327846, 0.10208809, 362707.6, 399665.53, 0.000025288062, 10.0043335, 9.99682 
7.0517886e+2, 3.062234e+2, 414515.7, -193228.97, 8509.621, -0.09456062, -0.07337778, 414634.8, 414634.8, 0.00009365393, 10.004537, 9.996486 
7.052026e+2, 3.1621876e+2, 416715.28, -70177.15, 30279.191, 0.04590504, -0.192354, 418591.06, 418591.06, 0.00021085526, 10.004018, 9.997581 
7.1480036e+2, 1.2621422e+2, -2108736.8, -1729310.4, -82023.78, -0.106040396, 0.09458908, -1712337.9, -9232.68, 0.0, 9.9965515, 10.001554 
7.1482617e+2, 1.3621621e+2, -1852848.0, -1533730.0, 16381.772, 0.21088332, 0.10020768, -1532891.3, 72195.47, 0.0, 9.997514, 10.001778 
7.148436e+2, 1.4621711e+2, -1818462.6, -1629229.6, -82359.375, -0.19195597, 0.097041756, -1598405.5, -91327.1, 0.0, 9.997788, 10.000308 
7.1486384e+2, 1.5621658e+2, -1710082.3, -1501184.0, -111880.55, -0.15409489, 0.0076612774, -1452574.6, -43491.0, 0.0, 9.997754, 10.000527 
7.1488476e+2, 1.6621718e+2, -1417430.0, -1177809.5, -70730.35, -0.103308156, -0.05022833, -1158489.3, 152584.03, 0.0, 9.998528, 10.001698 
7.149061e+2, 1.7621844e+2, -1147116.6, -1014975.56, -45962.863, -0.07139916, -0.09757313, -1000560.7, 212492.7, 0.0, 9.999785, 10.001538 
7.1492785e+2, 1.8621936e+2, -1131470.4, -1119118.8, -34179.082, 0.03714524, -0.075832464, -1090562.0, 24480.535, 0.0, 9.999919, 10.000087 
7.149502e+2, 1.9621994e+2, -1121960.6, -1077217.6, -7036.9736, 0.2034699, -0.030543039, -1076137.0, -59098.387, 0.0, 9.999365, 9.99997 
7.149705e+2, 2.0621923e+2, -1013658.25, -1113922.5, -10391.095, 0.16385941, -0.028447976, -1012592.7, -93544.61, 0.0, 10.000043, 9.998717 
7.1498966e+2, 2.1621759e+2, -696900.06, -894194.6, -31532.521, -0.008825614, -0.069459036, -691982.94, 129083.8, 0.0, 10.001474, 9.998864 
7.150112e+2, 2.2621718e+2, -464834.25, -661186.7, 10360.153, -0.0050515626, -0.03041034, -464289.16, 258781.23, 0.0, 10.002091, 9.999494 
7.150341e+2, 2.3621744e+2, -359170.34, -576081.8, 48333.336, 0.11091749, 0.04121678, -348887.88, 276177.6, 0.0, 10.0022135, 9.999346 
7.1505594e+2, 2.4621549e+2, -363307.84, -699100.6, 11226.669, 0.1488651, -0.0005277771, -362932.9, 164151.88, 0.0, 10.002251, 9.997811 
7.15077e+2, 2.5621206e+2, -258891.75, -584182.2, -34811.27, 0.13606028, -0.12994514, -255208.11, 173912.2, 0.0, 10.002235, 9.997934 
7.150969e+2, 2.662105e+2, -127054.805, -420329.3, -94422.62, 0.064704455, -0.10477956, -99284.16, 231852.39, 0.0, 10.002258, 9.998375 
7.1511596e+2, 2.7620998e+2, -30117.13, -335320.47, -92844.35, -0.042561818, 0.0037466732, -4092.5322, 229048.78, 0.000000020828322, 10.002304, 9.998263 
7.151386e+2, 2.8620818e+2, 88837.69, -374759.22, 3841.3184, 0.0049744, 0.072347425, 88869.516, 224029.11, 0.0000033704525, 10.003081, 9.996948 
7.151633e+2, 2.9620546e+2, 371206.78, -174015.22, 4411.825, 0.14488158, 0.10055258, 371242.47, 408429.66, 0.000029429311, 10.00429, 9.997072 
7.1518517e+2, 3.0620158e+2, 500648.03, -3283.324, -11950.975, 0.08363516, -0.0362772, 500931.28, 500931.28, 0.00010392173, 10.004492, 9.997811 
7.152065e+2, 3.1619954e+2, 471497.63, 47633.0, 11331.297, 0.0280431, -0.021043163, 471800.34, 471800.34, 0.0002284896, 10.004003, 9.998397 
7.247964e+2, 1.2619103e+2, -1999304.3, -1662417.1, 29937.502, -0.18424113, -0.0069311275, -1659777.4, 43554.684, 0.0, 9.997229, 10.00169 
7.2482365e+2, 1.361944e+2, -1914758.9, -1545011.5, 55637.3, 0.23367918, 0.12062759, -1536820.9, 68479.336, 0.0, 9.997011, 10.001941 
7.2484183e+2, 1.4619568e+2, -1833392.8, -1612289.4, -22003.486, -0.12960003, 0.13662614, -1610120.9, -102832.91, 0.0, 9.997584, 10.000521 
7.248619e+2, 1.5619478e+2, -1559807.3, -1415818.5, 10293.427, -0.1618185, -0.012330141, -1415086.4, -5789.923, 0.0, 9.998732, 10.000642 
7.248831e+2, 1.6619535e+2, -1403487.0, -1239889.9, 18003.402, -0.1421791, -0.043819353, -1237932.1, 73356.33, 0.0, 9.998921, 10.001081 
7.249048e+2, 1.7619681e+2, -1373254.0, -1182870.1, -58137.277, -0.11117245, -0.009254045, -1166520.9, 46749.383, 0.0, 9.998491, 10.001009 
7.249272e+2, 1.8619767e+2, -1232967.3, -1161076.6, -106634.195, 0.018016342, 0.02474438, -1084492.4, 30768.172, 0.0, 9.999189, 10.000152 
7.2495025e+2, 1.9619799e+2, -936387.94, -977366.56, -124191.24, 0.21791472, 0.036743056, -831007.2, 186250.3, 0.0, 10.000596, 10.000061 
7.249715e+2, 2.0619701e+2, -820663.0, -995262.9, -81789.76, 0.19717667, -0.0032736477, -788335.0, 130932.79, 0.0, 10.001259, 9.998946 
7.249915e+2, 2.1619509e+2, -688391.5, -865182.9, -37141.64, 0.03701431, -0.092893, -680905.5, 140381.97, 0.0, 10.001422, 9.999089 
7.250132e+2, 2.2619472e+2, -528536.6, -663441.44, -20853.809, 0.019477414, -0.07548942, -525386.56, 197902.17, 0.0, 10.001524, 9.999755 
7.2503585e+2, 2.361952e+2, -436158.78, -589242.06, -44509.08, 0.09267924, -0.0064878473, -424158.47, 201120.9, 0.0, 10.001578, 9.999565 
7.2505766e+2, 2.4619332e+2, -445130.56, -752474.6, -51096.59, 0.12615544, -0.046249986, -436858.3, 90440.03, 0.0, 10.001749, 9.997687 
7.2507906e+2, 2.5618982e+2, -307934.6, -632026.94, -19881.955, 0.13370101, -0.16983135, -306719.44, 122616.63, 0.0, 10.002002, 9.99772 
7.250995e+2, 2.6618803e+2, -83021.03, -497268.2, -47157.16, 0.06848094, -0.1071188, -77720.57, 253636.27, 0.0, 10.002984, 9.997498 
7.2511935e+2, 2.7618718e+2, 226492.56, -293878.44, -90233.19, -0.040925644, 0.056619406, 241695.02, 475062.78, 0.000000011844985, 10.004422, 9.99753 
7.2514236e+2, 2.8618494e+2, 265533.6, -248210.45, -20752.932, 0.025534237, 0.09080117, 266370.56, 401760.25, 0.000004377371, 10.004122, 9.9973135 
7.251672e+2, 2.961817e+2, 168756.73, -235863.48, -1972.904, 0.1969484, 0.031229995, 168766.36, 206185.44, 0.0000345144, 10.002747, 9.99739 
7.251893e+2, 3.0617854e+2, 317163.72, -91069.734, -41820.703, 0.12119434, -0.04656144, 321403.9, 321403.9, 0.000113769085, 10.003224, 9.997824 
7.252107e+2, 3.161773e+2, 570612.25, 60515.73, -119543.12, 0.017479764, 0.050551634, 597237.9, 597237.9, 0.00024038789, 10.0048275, 9.998093 
7.3479444e+2, 1.2616815e+2, -2049988.3, -1781389.4, 10168.749, -0.11213644, -0.21745422, -1781005.0, -77456.58, 0.0, 9.997285, 10.000849 
7.3481977e+2, 1.361718e+2, -1956764.8, -1633632.9, 51660.297, 0.14066291, 0.021173377, -1625574.6, -20056.588, 0.0, 9.997016, 10.001332 
7.348398e+2, 1.4617419e+2, -1756050.1, -1449562.3, 21567.975, -0.09387319, 0.112818934, -1448052.0, 59442.754, 0.0, 9.997578, 10.001637 
7.348635e+2, 1.5617482e+2, -1502751.0, -1305628.3, 52581.56, 0.11629403, 0.0065086214, -1292479.5, 117005.82, 0.0, 9.998768, 10.001378 
7.348848e+2, 1.661751e+2, -1535214.6, -1521575.8, -1091.3358, 0.13386974, 0.02165125, -1521489.0, -210004.48, 0.0, 9.998952, 9.999136 
7.3490447e+2, 1.7617513e+2, -1497460.5, -1440474.5, -65890.98, 0.010261517, 0.106964976, -1397179.9, -183690.52, 0.0, 9.9984865, 9.999247 
7.349259e+2, 1.8617474e+2, -1272913.1, -1236959.1, -55055.348, -0.032453377, 0.12224034, -1197020.1, -81525.72, 0.0, 9.999163, 9.999642 
7.349486e+2, 1.9617392e+2, -959972.1, -1023399.5, -74225.766, -0.014685129, 0.071565956, -910968.9, 106532.0, 0.0, 10.000586, 9.999749 
7.349712e+2, 2.0617346e+2, -735066.94, -816543.44, -77844.05, 0.047027584, 0.029751508, -687945.6, 231557.16, 0.0, 10.001251, 10.000178 
7.34994e+2, 2.1617317e+2, -617879.6, -716345.0, -29328.48, 0.13768034, -0.022307465, -609806.0, 211696.53, 0.0, 10.001409, 10.000119 
7.350157e+2, 2.261723e+2, -569103.25, -741748.0, -21341.783, 0.11417912, -0.06959795, -566504.1, 157003.94, 0.0, 10.001498, 9.999229 
7.350366e+2, 2.3617096e+2, -463559.16, -642935.3, -40167.848, 0.01664987, -0.13194354, -454975.13, 170543.42, 0.0, 10.001564, 9.999204 
7.350584e+2, 2.4617015e+2, -382926.9, -619742.75, -44173.13, 0.024995508, -0.09795906, -374955.63, 152570.69, 0.0, 10.001735, 9.998606 
7.3508066e+2, 2.561696e+2, -264203.25, -537553.1, -3763.5886, 0.10138547, -0.018328967, -264151.44, 165381.66, 0.0, 10.0019865, 9.998376 
7.3510283e+2, 2.6616725e+2, -182348.33, -698682.7, 6609.8223, 0.10744706, 0.039587695, -182263.72, 149295.94, 0.0, 10.002963, 9.996125 
7.351249e+2, 2.7616367e+2, 140027.4, -464091.66, -44307.4, 0.071451925, 0.06115174, 143259.72, 376860.1, 0.000000051096855, 10.00438, 9.996381 
7.35147e+2, 2.8616038e+2, 305798.53, -158908.19, -73139.89, 0.07207442, 0.0060986895, 317038.13, 452668.7, 0.0000056415383, 10.004098, 9.997938 
7.3516893e+2, 2.9615727e+2, 197507.8, -175770.73, -37507.895, 0.09090836, -0.10433594, 201239.38, 238893.1, 0.000038905622, 10.002745, 9.997802 
7.3519146e+2, 3.0615434e+2, 230294.44, -270140.0, 20224.402, 0.0116782095, -0.10327219, 231110.45, 231110.45, 0.00011987696, 10.0032215, 9.9965925 
7.3521525e+2, 3.1615245e+2, 470100.66, -137201.06, -55932.742, -0.021442266, 0.049420398, 475209.13, 475209.13, 0.0002444895, 10.004787, 9.996749 
7.4479204e+2, 1.2614681e+2, -2280180.8, -1880559.9, -77072.41, 0.004539741, -0.11972582, -1866210.6, -162452.16, 0.0, 9.9956665, 10.000943 
7.4481606e+2, 1.3614884e+2, -1895122.9, -1597496.1, 26466.135, 0.053246103, -0.05031703, -1595160.9, 10580.325, 0.0, 9.9974165, 10.001384 
7.44837e+2, 1.4615111e+2, -1734328.6, -1455846.1, -44155.883, -0.14381817, 0.036680713, -1449012.5, 58706.49, 0.0, 9.9978, 10.001487 
7.4486226e+2, 1.561525e+2, -1715038.5, -1424587.5, -109945.31, 0.18554583, 0.022563338, -1387663.5, 22040.63, 0.0, 9.997385, 10.001227 
7.448844e+2, 1.6615285e+2, -1601556.3, -1563476.8, -95882.68, 0.22040425, 0.05769726, -1484761.8, -173058.08, 0.0, 9.99854, 9.999047 
7.4490446e+2, 1.7615253e+2, -1177754.9, -1293744.6, -25007.38, 0.050884295, 0.116452985, -1172593.0, 41119.11, 0.0, 10.000713, 9.999177 
7.4492586e+2, 1.861517e+2, -986263.5, -1094908.4, 52260.258, -0.04645462, 0.09012642, -965206.5, 150514.0, 0.0, 10.001109, 9.9996805 
7.4494827e+2, 1.9615045e+2, -995250.9, -1036563.25, 70103.7, -0.09046767, -0.010411729, -942823.5, 74906.45, 0.0, 10.000322, 9.999787 
7.449716e+2, 2.0615052e+2, -856976.6, -874400.6, 33474.8, -0.004124612, -0.0037382692, -831098.7, 88628.375, 0.0, 10.000404, 10.000192 
7.449955e+2, 2.1615136e+2, -674955.0, -745923.75, -13038.862, 0.16684249, 0.05708365, -672635.25, 149081.89, 0.0, 10.00103, 10.000097 
7.4501747e+2, 2.2615024e+2, -593379.94, -795373.0, -35838.4, 0.14680736, 0.0067886245, -587209.8, 136516.83, 0.0, 10.001518, 9.998849 
7.450382e+2, 2.3614773e+2, -437209.4, -665271.44, -46668.84, 0.0033014964, -0.13316464, -428029.0, 197720.81, 0.0, 10.001897, 9.998889 
7.450603e+2, 2.4614707e+2, -246841.64, -532023.0, -63899.504, -0.0010407944, -0.08309927, -233178.53, 294577.72, 0.0, 10.002573, 9.998805 
7.450833e+2, 2.5614747e+2, -39408.0, -405598.06, -81625.03, 0.08534103, 0.073627345, -22037.484, 407715.25, 0.0, 10.003429, 9.998587 
7.4510616e+2, 2.661451e+2, -93251.62, -623853.2, -19282.793, 0.11985498, 0.10197045, -92551.77, 239225.61, 0.0, 10.003436, 9.996411 
7.4512905e+2, 2.7614084e+2, -60714.645, -537786.3, 43453.332, 0.12309395, 0.026994629, -56789.066, 177032.44, 0.00000017449423, 10.002903, 9.996586 
7.451508e+2, 2.8613698e+2, 141264.64, -288475.38, -5907.295, 0.09823078, -0.06504589, 141345.83, 277201.97, 0.0000068291897, 10.0031805, 9.997492 
7.4517196e+2, 2.9613346e+2, 345340.97, -154909.19, -45675.3, 0.053734396, -0.17331906, 349477.16, 387361.72, 0.000040626986, 10.003974, 9.997355 
7.451953e+2, 3.0613074e+2, 418233.63, -216396.03, 71173.28, 0.0023464225, -0.1135974, 426117.72, 426117.72, 0.00012003712, 10.00467, 9.996265 
7.452209e+2, 3.1612825e+2, 522759.44, -146236.72, 48982.88, 0.041446354, 0.010634142, 526326.9, 526326.9, 0.0002406697, 10.00529, 9.9964485 
7.5478894e+2, 1.2612732e+2, -2214654.8, -1739045.6, -20591.154, 0.123440586, 0.31828845, -1738155.9, -34195.9, 0.0, 9.99564, 10.001927 
7.548124e+2, 1.3612555e+2, -1843350.9, -1494899.8, 84502.93, -0.047663756, -0.088688836, -1475488.4, 130481.0, 0.0, 9.997436, 10.002078 
7.548333e+2, 1.4612637e+2, -1837370.6, -1674350.3, -66398.55, -0.29846612, -0.09413619, -1650728.8, -142767.08, 0.0, 9.997819, 9.999981 
7.54858e+2, 1.5612775e+2, -1791853.5, -1583991.1, -116222.58, 0.020953538, 0.038142685, -1532007.6, -122053.58, 0.0, 9.997383, 10.000136 
7.548817e+2, 1.6612856e+2, -1470697.1, -1292407.1, -15729.811, 0.08985044, 0.063539036, -1291030.0, 20916.53, 0.0, 9.998542, 10.000907 
7.549046e+2, 1.76129e+2, -1055757.1, -1045873.7, 47789.137, -0.012495178, 0.013960912, -1002771.44, 211167.44, 0.0, 10.000734, 10.000871 
7.54927e+2, 1.8612862e+2, -943933.44, -1007831.7, 20874.582, -0.042973373, -0.07619869, -937718.5, 178220.05, 0.0, 10.001113, 10.000276 
7.549493e+2, 1.9612756e+2, -971183.8, -982254.4, 48587.61, -0.020182941, -0.21370634, -927817.2, 90127.305, 0.0, 10.000301, 10.000172 
7.549723e+2, 2.0612815e+2, -945628.5, -1050722.6, 55125.97, 0.03286709, -0.105413325, -922017.4, -2076.8748, 0.0, 10.000374, 9.998995 
7.549959e+2, 2.161297e+2, -754256.94, -905404.06, 11238.924, 0.107634544, 0.14538, -753425.8, 68505.22, 0.0, 10.001008, 9.999013 
7.550185e+2, 2.2612855e+2, -613227.94, -830212.94, -22912.404, 0.09850363, 0.15268251, -610834.9, 113109.266, 0.0, 10.001491, 9.998624 
7.550404e+2, 2.3612556e+2, -459406.53, -705515.7, -27375.348, 0.035413608, -0.012924954, -456398.25, 169574.63, 0.0, 10.00187, 9.998626 
7.550632e+2, 2.461241e+2, -288455.22, -610927.56, -32549.393, 0.031599373, -0.0007037297, -285202.6, 242784.98, 0.0, 10.002542, 9.998277 
7.550865e+2, 2.561235e+2, -61560.492, -445317.6, -52334.543, 0.067694, 0.10693382, -54551.43, 375442.84, 0.0, 10.003402, 9.998328 
7.551093e+2, 2.6612157e+2, 35731.395, -349902.53, -40810.285, 0.08837681, 0.08178226, 40002.89, 372012.63, 0.0, 10.003412, 9.998303 
7.551317e+2, 2.7611858e+2, 43708.035, -318177.6, 30773.645, 0.09786996, -0.04753057, 46306.277, 280338.28, 0.0000002213921, 10.002892, 9.998099 
7.5515395e+2, 2.8611475e+2, 36851.02, -505669.44, 22276.994, 0.085968524, -0.12386722, 37764.223, 173831.58, 0.000006837531, 10.003181, 9.996 
7.5517595e+2, 2.9611033e+2, 255232.19, -340611.78, -14134.408, 0.061373115, -0.17202048, 255567.28, 293678.53, 0.00003935738, 10.003965, 9.996085 
7.5520056e+2, 3.0610773e+2, 447654.9, -142180.03, 96016.91, 0.06609997, -0.07600447, 462891.53, 462891.53, 0.00011569032, 10.004618, 9.996798 
7.5522745e+2, 3.1610474e+2, 551725.6, -54251.63, 79485.94, 0.15801217, -0.056546725, 561978.3, 561978.3, 0.00023106925, 10.005156, 9.997144 
7.647862e+2, 1.2610325e+2, -1711162.8, -1485851.6, -34581.41, 0.12187534, 0.3220324, -1480663.5, 223535.5, 0.0, 9.99904, 10.002027 
7.648101e+2, 1.361023e+2, -1871905.1, -1498818.3, -1793.1826, -0.014444027, -0.011821569, -1498809.6, 107391.31, 0.0, 9.997197, 10.002166 
7.6483095e+2, 1.4610326e+2, -1906302.6, -1689419.0, -79790.734, -0.27806044, -0.016540602, -1663227.4, -155035.31, 0.0, 9.997264, 10.000146 
7.64855e+2, 1.5610431e+2, -1580575.3, -1459248.0, -6233.4097, -0.07554457, 0.066680826, -1458928.6, -48741.37, 0.0, 9.998732, 10.000344 
7.648794e+2, 1.6610518e+2, -1395371.0, -1195934.9, 92478.055, 0.0021271233, 0.05735339, -1159653.4, 152524.06, 0.0, 9.9987955, 10.001449 
7.649039e+2, 1.761059e+2, -1431117.5, -1171986.3, 50855.117, -0.005384031, -0.017890159, -1162363.3, 51801.223, 0.0, 9.997921, 10.001361 
7.6492727e+2, 1.8610615e+2, -1308197.4, -1175921.1, -44534.535, -0.0051262695, -0.07165616, -1162324.9, -46166.895, 0.0, 9.99858, 10.000343 
7.6494974e+2, 1.9610593e+2, -977439.25, -979000.7, -59908.95, 0.0043885694, -0.1314683, -918305.94, 99851.24, 0.0, 10.000236, 10.000222 
7.649729e+2, 2.0610608e+2, -909430.1, -1057376.8, -27291.492, 0.03832527, -0.055764265, -904556.25, 15601.142, 0.0, 10.000726, 9.998779 
7.6499647e+2, 2.1610637e+2, -850753.9, -973834.75, 787.543, 0.09109761, 0.08937012, -850748.8, -28589.328, 0.0, 10.000437, 9.998819 
7.650195e+2, 2.2610533e+2, -709044.3, -876199.06, 23195.783, 0.08521463, 0.116246134, -705885.2, 18286.387, 0.0, 10.000832, 9.998626 
7.6504225e+2, 2.3610336e+2, -492787.38, -725721.75, 29960.105, 0.04072803, 0.0528395, -488995.6, 137195.34, 0.0, 10.001663, 9.998586 
7.6506567e+2, 2.461015e+2, -391766.22, -709290.1, 35467.06, 0.052605808, 0.05137485, -387852.84, 140357.06, 0.0, 10.00204, 9.997843 
7.650895e+2, 2.560996e+2, -274659.13, -586822.1, 17613.273, 0.10289552, 0.06993944, -273668.47, 156561.14, 0.0, 10.002109, 9.997975 
7.6511246e+2, 2.6609758e+2, -44155.508, -355505.22, -43692.777, 0.10564676, 0.03488071, -38140.168, 294105.4, 0.0, 10.002721, 9.998598 
7.6513475e+2, 2.7609527e+2, 174092.0, -228416.17, -90426.24, 0.07888889, -0.053644355, 193473.63, 427733.88, 0.00000016204108, 10.003671, 9.998342 
7.651576e+2, 2.8609192e+2, 196069.63, -453075.2, -70328.37, 0.08261187, -0.08120626, 203601.61, 339893.66, 0.000006158057, 10.004379, 9.995786 
7.651808e+2, 2.9608783e+2, 386131.13, -292604.28, -26705.209, 0.105987065, -0.07454042, 387180.25, 425515.22, 0.000037086735, 10.004933, 9.995948 
7.65205e+2, 3.0608532e+2, 349394.22, -131429.72, 67361.13, 0.10060651, 0.010260992, 358652.9, 358652.9, 0.00010963453, 10.003687, 9.997321 
7.652303e+2, 3.1608164e+2, 29982.37, -214430.02, 49186.953, 0.13530147, -0.097177505, 39509.656, 39509.656, 0.00021917585, 10.001181, 9.997953 
7.747837e+2, 1.2607437e+2, -1759876.9, -1609695.1, -114876.19, -0.049391452, -0.14014228, -1547544.6, 156932.5, 0.00000000003061157, 9.999136, 10.001133 
7.748088e+2, 1.360791e+2, -1908474.6, -1582026.3, -62441.105, 0.14304763, 0.18113261, -1570490.5, 35945.563, 0.0, 9.997226, 10.001583 
7.748301e+2, 1.4608191e+2, -1769550.3, -1406925.6, -26717.51, -0.091802254, 0.27969745, -1404967.8, 103441.18, 0.0, 9.997269, 10.002082 
7.748534e+2, 1.5608229e+2, -1462796.4, -1222043.8, 44093.5, -0.11676916, 0.105660334, -1214222.3, 196180.17, 0.0, 9.998759, 10.001961 
7.748776e+2, 1.6608277e+2, -1454777.1, -1320481.1, 56903.227, -0.05736681, 0.0348308, -1299613.1, 12782.227, 0.0, 9.998801, 10.000592 
7.749025e+2, 1.760833e+2, -1490376.1, -1290277.5, 28711.582, 0.058438573, 0.024172703, -1286239.3, -71851.02, 0.0, 9.997898, 10.000563 
7.749263e+2, 1.8608432e+2, -1344763.3, -1242861.0, 16876.13, 0.04902823, 0.10959118, -1240138.9, -123760.52, 0.0, 9.998542, 9.999903 
7.749496e+2, 1.9608556e+2, -1001988.8, -1026671.56, -3398.2725, -0.038311522, 0.23819765, -1001529.5, 16838.465, 0.0, 10.000218, 9.999907 
7.7497315e+2, 2.0608434e+2, -858347.06, -944938.2, -41132.785, -0.007818816, 0.14593312, -841923.2, 78454.68, 0.0, 10.000701, 9.999561 
7.74997e+2, 2.160814e+2, -805949.94, -873251.0, -4204.3823, 0.10142494, -0.108582616, -805688.3, 16713.838, 0.0, 10.000404, 9.999525 
7.7502036e+2, 2.2608057e+2, -699461.0, -848635.6, 52011.36, 0.08974794, -0.102251716, -683117.3, 41291.42, 0.0, 10.000798, 9.998831 
7.7504355e+2, 2.3608105e+2, -486147.16, -705986.94, 59563.676, 0.0014169342, 0.059978813, -471046.22, 155358.45, 0.0, 10.001636, 9.998735 
7.750676e+2, 2.460792e+2, -417391.66, -756147.2, 35646.406, 0.04418471, 0.06909483, -413681.3, 114742.555, 0.0, 10.002013, 9.997535 
7.750924e+2, 2.560757e+2, -305894.75, -648510.25, 26541.871, 0.1738817, -0.037859928, -303850.78, 126608.39, 0.0, 10.002093, 9.9975605 
7.751157e+2, 2.660731e+2, -135410.9, -540682.4, -7893.926, 0.15622738, -0.040389616, -135257.2, 197227.58, 0.0, 10.002704, 9.9973345 
7.751381e+2, 2.7607095e+2, 97189.66, -379731.22, -51894.855, 0.04290234, 0.007625623, 102771.13, 337276.44, 0.00000014054619, 10.0036335, 9.99732 
7.751618e+2, 2.8606847e+2, 260961.39, -308030.9, -48948.098, 0.06297803, 0.057760317, 265141.5, 401671.34, 0.0000058111045, 10.004336, 9.996801 
7.751864e+2, 2.9606575e+2, 445907.1, -158941.16, -12472.804, 0.16944268, 0.09958442, 446164.2, 484721.5, 0.000035096124, 10.004891, 9.996887 
7.7520865e+2, 3.0606344e+2, 384946.72, -58290.496, -26701.977, 0.09567762, 0.13699538, 386549.53, 386549.53, 0.00010362886, 10.003691, 9.997822 
7.7522963e+2, 3.160591e+2, 100505.44, -86661.25, -30553.313, -0.057647914, -0.08910104, 105366.734, 105366.734, 0.00020844629, 10.001255, 9.998797 
7.8478026e+2, 1.260507e+2, -2391203.3, -1936032.9, -13548.539, -0.09512152, -0.20864327, -1935630.0, -230923.47, 0.0000000009851104, 9.994901, 10.000936 
7.848059e+2, 1.3605551e+2, -2001153.4, -1644763.0, 83397.97, 0.15696146, 0.14312756, -1626212.9, -19546.664, 0.0, 9.996677, 10.001412 
7.848283e+2, 1.4605875e+2, -1736354.9, -1362652.1, 98193.09, 0.002598886, 0.2765716, -1338422.1, 170213.03, 0.0, 9.997375, 10.002336 
7.848528e+2, 1.5605979e+2, -1649043.1, -1291655.3, 36935.855, 0.015473689, 0.14350171, -1287877.9, 122743.79, 0.0, 9.997397, 10.002137 
7.84877e+2, 1.6606016e+2, -1565842.3, -1420249.4, 4310.601, 0.033969477, 0.07781241, -1420121.9, -107505.7, 0.0, 9.998241, 10.000174 
7.849012e+2, 1.7606011e+2, -1266192.0, -1224053.9, 6335.5386, 0.054250415, 0.04902472, -1223122.0, -8505.658, 0.0, 9.999624, 10.00018 
7.8492534e+2, 1.8606082e+2, -1171598.4, -1181490.8, 33911.684, 0.039347563, 0.13186002, -1142274.1, -25663.43, 0.0, 9.999827, 9.999703 
7.849497e+2, 1.9606194e+2, -1158418.4, -1116328.9, 27823.768, 0.0079081105, 0.26824707, -1102487.5, -83884.984, 0.0, 9.999211, 9.999773 
7.8497356e+2, 2.0606066e+2, -989324.2, -973527.6, -24456.307, 0.02037229, 0.16048533, -955725.8, -35113.973, 0.0, 9.999651, 9.999871 
7.849971e+2, 2.1605776e+2, -735784.44, -807305.7, -25756.908, 0.06385307, -0.121090606, -727474.25, 95159.266, 0.0, 10.000751, 9.999808 
7.850212e+2, 2.2605693e+2, -621499.44, -809747.75, 17267.85, 0.067004874, -0.13060999, -619928.6, 104710.805, 0.0, 10.001329, 9.99884 
7.8504544e+2, 2.3605733e+2, -495441.38, -704984.5, 6726.2363, 0.04640956, 0.020758016, -495225.7, 131410.5, 0.0, 10.001552, 9.998779 
7.8506994e+2, 2.4605563e+2, -389126.56, -712476.7, 1759.2295, 0.074618086, 0.030608613, -389117.0, 139535.78, 0.0, 10.002083, 9.997798 
7.8509444e+2, 2.560525e+2, -188772.11, -572015.44, 30589.768, 0.13516194, -0.06715052, -186345.86, 244337.36, 0.0, 10.002815, 9.997736 
7.8511816e+2, 2.660498e+2, -102479.88, -592119.25, 50269.7, 0.11112378, -0.0526815, -97372.13, 235338.77, 0.0, 10.003219, 9.996733 
7.851414e+2, 2.760473e+2, 27860.27, -467196.34, 48466.91, 0.03404724, 0.018072838, 32560.637, 267298.63, 0.0000001311964, 10.003392, 9.996833 
7.851656e+2, 2.8604472e+2, 145401.44, -316128.97, 37159.766, 0.059786037, 0.0537457, 148374.17, 285138.3, 0.000005628595, 10.003337, 9.997227 
7.851902e+2, 2.9604197e+2, 210152.8, -236526.83, 24948.91, 0.15597567, 0.054146715, 211541.97, 250332.16, 0.000033151067, 10.0031185, 9.997205 
7.852126e+2, 3.0603957e+2, 390146.13, -123803.67, -65303.023, 0.10505943, 0.1000408, 398313.8, 398313.8, 0.00009843992, 10.004018, 9.997215 
7.852335e+2, 3.1603548e+2, 728855.2, 190291.33, -151646.67, -0.012938511, -0.04075571, 768619.3, 768619.3, 0.00020036566, 10.005689, 9.9985695 
7.947755e+2, 1.2603283e+2, -2366934.5, -1865396.8, 53003.95, -0.060257312, 0.15668304, -1859856.3, -154975.39, 0.0000000034592607, 9.994818, 10.00146 
7.948011e+2, 1.3603163e+2, -1979148.6, -1600798.8, 149558.17, 0.0026906722, -0.14044021, -1548820.6, 58069.25, 0.0, 9.996687, 10.001708 
7.9482555e+2, 1.4603372e+2, -1841286.5, -1585356.0, 96529.45, -0.0137693845, -0.04967631, -1553030.8, -44159.9, 0.0, 9.9973955, 10.000797 
7.9485315e+2, 1.5603685e+2, -1745621.4, -1491341.0, 44756.2, 0.30989122, 0.17629898, -1483693.4, -72848.89, 0.0, 9.997392, 10.000771 
7.948776e+2, 1.6603743e+2, -1565366.6, -1414970.5, 55413.555, 0.26130465, 0.18957785, -1396758.6, -83919.266, 0.0, 9.998225, 10.000217 
7.948999e+2, 1.760363e+2, -1260274.8, -1217744.9, 53308.766, -0.037406184, 0.051486555, -1181616.3, 33232.348, 0.0, 9.999648, 10.000213 
7.949243e+2, 1.860356e+2, -1167157.4, -1172471.0, 8089.8013, -0.05398208, -0.012845556, -1161299.3, -44444.305, 0.0, 9.999826, 9.999766 
7.9495007e+2, 1.9603504e+2, -1158546.9, -1113743.3, 13114.235, 0.1217683, -0.049882066, -1110186.9, -91325.805, 0.0, 9.999194, 9.999802 
7.949741e+2, 2.060351e+2, -1005578.06, -997569.5, 15434.083, 0.10546867, -0.017694507, -985628.7, -64769.184, 0.0, 9.999614, 9.9997225 
7.9499686e+2, 2.1603549e+2, -750250.8, -832113.25, 14344.439, -0.03837106, 0.045564886, -747810.06, 75043.61, 0.0, 10.000727, 9.999651 
7.950218e+2, 2.260344e+2, -637778.25, -835624.5, 23631.836, -0.0014748268, 0.027638583, -634994.7, 89868.75, 0.0, 10.001296, 9.998679 
7.950482e+2, 2.3603223e+2, -504552.22, -717345.9, 19089.217, 0.15762043, -0.06281849, -502853.34, 124031.4, 0.0, 10.001521, 9.998711 
7.9507256e+2, 2.4603084e+2, -337014.1, -597987.2, 27667.523, 0.12673458, -0.06345708, -334113.13, 194783.1, 0.0, 10.002055, 9.998597 
7.9509556e+2, 2.560299e+2, -143559.81, -470863.16, 58103.363, -0.03165002, -0.021613324, -133551.27, 297351.0, 0.0, 10.002781, 9.998448 
7.951198e+2, 2.6602757e+2, -102937.88, -584969.4, 54507.344, -0.04799143, -0.0064704465, -96851.14, 236073.75, 0.0, 10.003183, 9.996799 
7.9514486e+2, 2.7602422e+2, 27205.986, -463145.94, 56644.004, 0.032480896, -0.025042454, 33664.273, 268623.84, 0.000000103459534, 10.003368, 9.996873 
7.951689e+2, 2.860206e+2, 133410.88, -338057.9, 28073.697, 0.05733303, -0.084071904, 135076.64, 272071.75, 0.000005134647, 10.0033245, 9.997081 
7.9519224e+2, 2.960167e+2, 185728.98, -281061.47, 26782.883, 0.04489083, -0.1872693, 187260.67, 226292.92, 0.00003068803, 10.003092, 9.996913 
7.9521656e+2, 3.0601385e+2, 272945.25, -359492.5, -583.8016, 0.10063393, -0.087053165, 272945.78, 272945.78, 0.000093895615, 10.0039835, 9.995613 
7.9524153e+2, 3.1601068e+2, 634465.06, 7191.107, -78247.125, 0.20961082, 0.022522362, 644078.44, 644078.44, 0.00019552502, 10.005631, 9.997338 
8.0477184e+2, 1.260106e+2, -1937450.9, -1617888.9, -20197.46, -0.038487546, 0.24430262, -1616617.5, 88479.84, 0.0000000057252847, 9.997583, 10.001831 
8.0479825e+2, 1.3600835e+2, -1804237.3, -1491239.0, 52616.59, 0.0027883237, -0.19053885, -1482630.6, 124481.9, 0.0, 9.997772, 10.001943 
8.048231e+2, 1.460095e+2, -1794115.4, -1641798.4, 7932.059, -0.02556006, -0.16296032, -1641386.4, -132284.19, 0.0, 9.99806, 10.00009 
8.048503e+2, 1.5601182e+2, -1624004.8, -1498776.5, 14496.43, 0.23776829, 0.05334722, -1497120.3, -86034.53, 0.0, 9.998514, 10.000177 
8.048755e+2, 1.660127e+2, -1482750.4, -1331715.9, 85638.32, 0.21987683, 0.1010773, -1293054.4, 20024.15, 0.0, 9.998604, 10.0006075 
8.0489945e+2, 1.7601262e+2, -1414810.0, -1250729.5, 103948.23, 0.019477166, 0.029609952, -1200346.8, 14730.6875, 0.0, 9.998412, 10.000581 
8.0492413e+2, 1.8601206e+2, -1340137.9, -1239794.9, 50171.207, 0.010673816, -0.04746745, -1219013.4, -101931.24, 0.0, 9.998572, 9.999907 
8.049492e+2, 1.96011e+2, -1185797.1, -1115572.3, 62066.676, 0.12831351, -0.14844462, -1079374.5, -60282.363, 0.0, 9.998964, 9.999897 
8.0497366e+2, 2.0601131e+2, -1027119.56, -1041695.56, 101472.016, 0.10763296, -0.07961859, -932674.2, -11584.83, 0.0, 9.999611, 9.999423 
8.049978e+2, 2.1601242e+2, -820166.94, -894707.0, 82007.4, 0.0013543984, 0.08578069, -767357.75, 55721.293, 0.0, 10.000376, 9.999388 
8.05023e+2, 2.2601134e+2, -738165.6, -894588.4, 64115.418, 0.026066443, 0.08378879, -715244.4, 9845.791, 0.0, 10.000651, 9.998585 
8.05049e+2, 2.3600867e+2, -645396.94, -791558.0, 63835.438, 0.13922693, -0.046100438, -621442.8, 5673.8447, 0.0, 10.000582, 9.998653 
8.0507386e+2, 2.4600719e+2, -467272.53, -634820.6, 77770.86, 0.108659, -0.06824883, -436738.25, 92389.984, 0.0, 10.001045, 9.998834 
8.05098e+2, 2.560064e+2, -259851.89, -498550.28, 60743.527, -0.0152999805, -0.036719844, -245283.17, 185847.78, 0.0, 10.00186, 9.998703 
8.0512285e+2, 2.6600423e+2, -198966.2, -590988.9, 39534.01, -0.018712362, -0.032519054, -195019.08, 138131.64, 0.0, 10.002352, 9.997159 
8.0514807e+2, 2.7600116e+2, -60720.84, -472475.88, 58525.633, 0.060979832, -0.062131256, -52563.773, 182619.19, 0.00000004701224, 10.002622, 9.9971695 
8.051722e+2, 2.8599778e+2, 84348.18, -391994.0, 35013.727, 0.06863734, -0.095710374, 86908.12, 224125.0, 0.0000039224306, 10.003118, 9.996812 
8.051955e+2, 2.9599404e+2, 268315.63, -268519.63, 21595.248, 0.028101373, -0.15155932, 269182.94, 308436.22, 0.00002707446, 10.0037775, 9.99667 
8.0522054e+2, 3.0599052e+2, 280012.06, -370043.47, 79638.336, 0.099001266, -0.103222795, 289626.34, 289626.34, 0.000089992216, 10.004095, 9.995486 
8.052467e+2, 3.159871e+2, 420286.66, -95171.13, 103186.336, 0.24863532, -0.0040298216, 440175.5, 440175.5, 0.00019661635, 10.004158, 9.997343 
8.1476915e+2, 1.2598369e+2, -1910151.6, -1586438.3, -23850.557, -0.08108922, 0.026107874, -1584690.4, 120667.84, 0.000000004999778, 9.997691, 10.001995 
8.147974e+2, 1.3598575e+2, -1787304.5, -1463655.9, 56579.363, 0.14058681, 0.00341114, -1454049.9, 153283.69, 0.0, 9.997807, 10.002113 
8.1482095e+2, 1.4598629e+2, -1783988.0, -1620619.6, 20812.635, -0.054530967, -0.046339605, -1618009.9, -108682.086, 0.0, 9.998059, 10.000236 
8.148441e+2, 1.5598468e+2, -1603112.0, -1464769.1, 32654.021, -0.24111153, -0.23587905, -1457449.0, -46103.273, 0.0, 9.998552, 10.000393 
8.1487066e+2, 1.6598593e+2, -1426530.1, -1220905.5, 75430.12, -0.12427192, -0.20282426, -1196202.8, 117131.38, 0.0, 9.998628, 10.001357 
8.148998e+2, 1.759891e+2, -1365998.0, -1149063.6, 100195.016, 0.20824344, -0.023515007, -1109868.4, 105434.12, 0.0, 9.998406, 10.001284 
8.149247e+2, 1.8599026e+2, -1330948.6, -1211158.1, 64581.3, 0.21867281, 0.028171716, -1182972.9, -65681.82, 0.0, 9.998533, 10.000121 
8.1494695e+2, 1.9598985e+2, -1178681.1, -1096736.5, 80999.01, 0.004049917, -0.02782123, -1046936.7, -27641.73, 0.0, 9.998945, 10.000036 
8.149722e+2, 2.0598932e+2, -1062402.6, -1107339.9, 128435.46, 0.006491523, -0.025238972, -954485.25, -33184.42, 0.0, 9.99958, 9.998986 
8.1499976e+2, 2.159886e+2, -851680.06, -954653.0, 109791.47, 0.16086364, 0.00040248322, -781902.25, 41406.785, 0.0, 10.000352, 9.998989 
8.1502473e+2, 2.2598772e+2, -743407.75, -899028.94, 58509.51, 0.13001041, 0.037685476, -723864.06, 1455.4003, 0.0, 10.000623, 9.998568 
8.150479e+2, 2.3598662e+2, -652115.94, -800506.44, 66316.73, -0.028393133, 0.065881096, -626798.2, 534.20074, 0.0, 10.000559, 9.998604 
8.1507385e+2, 2.4598464e+2, -490520.44, -679106.4, 106429.35, 0.000527655, 0.015017776, -442622.06, 86726.625, 0.0, 10.001026, 9.998539 
8.151016e+2, 2.5598198e+2, -275238.5, -528220.0, 91616.01, 0.15962301, -0.11018265, -245545.38, 185823.22, 0.0, 10.001846, 9.998508 
8.1512713e+2, 2.659799e+2, -157773.75, -501577.88, 47885.81, 0.17614941, -0.12983781, -151228.7, 182159.22, 0.0, 10.002336, 9.99778 
8.15151e+2, 2.759781e+2, -30220.434, -400919.97, 72042.3, 0.09315741, -0.0894153, -16711.887, 218695.83, 0.000000004527389, 10.002586, 9.997678 
8.151753e+2, 2.8597608e+2, 55411.14, -448793.0, 57092.043, 0.067157425, 0.011648262, 61794.96, 199225.05, 0.0000024062651, 10.0031, 9.996431 
8.1519985e+2, 2.9597378e+2, 253009.94, -302098.16, 46302.62, 0.083225764, 0.13567589, 256845.63, 296301.2, 0.000023299492, 10.003781, 9.996439 
8.152245e+2, 3.0596933e+2, 364601.22, -192215.97, 81232.69, 0.08903729, 0.036524642, 376210.03, 376210.03, 0.00008871281, 10.004088, 9.996709 
8.152492e+2, 3.1596467e+2, 489983.88, 61137.57, 114579.836, 0.07777532, -0.1140909, 518677.63, 518677.63, 0.0002058749, 10.004107, 9.998441 
8.247663e+2, 1.2595679e+2, -2254587.5, -1779174.5, -40155.035, -0.023053456, -0.13607812, -1775806.8, -70189.3, 0.0000000017683296, 9.995448, 10.001748 
8.247948e+2, 1.359604e+2, -2041204.5, -1607721.8, -4902.177, 0.18786927, 0.024835944, -1607666.3, -84.46578, 0.0, 9.99616, 10.001918 
8.248186e+2, 1.4596167e+2, -1902926.4, -1586413.4, -10353.559, -0.025203483, 0.0131359575, -1586075.1, -76506.414, 0.0, 9.996849, 10.001053 
8.2484174e+2, 1.559603e+2, -1692540.9, -1428815.9, 43970.996, -0.27772197, -0.23335066, -1421677.8, -10096.457, 0.0, 9.997599, 10.001099 
8.2486856e+2, 1.6596164e+2, -1536462.8, -1294993.1, 44439.938, -0.16603673, -0.21295303, -1287074.1, 26494.932, 0.0, 9.997967, 10.001164 
8.2489794e+2, 1.759648e+2, -1427144.6, -1199853.5, -4234.917, 0.20196491, -0.016825173, -1199774.6, 15765.352, 0.0, 9.998081, 10.001089 
8.2492334e+2, 1.8596606e+2, -1286416.5, -1194964.6, -48150.77, 0.21164815, 0.0582411, -1174287.6, -56759.055, 0.0, 9.998862, 10.000073 
8.249461e+2, 1.9596587e+2, -1015537.06, -1016525.8, -58255.78, -0.025283812, 0.027861152, -957773.56, 61757.133, 0.0, 10.000061, 10.000047 
8.249719e+2, 2.0596518e+2, -966140.5, -1008715.1, -4441.7993, -0.0030753203, -0.010228162, -965682.0, -44145.637, 0.0, 10.000016, 9.999453 
8.2499987e+2, 2.1596408e+2, -1005872.7, -980679.7, 45217.5, 0.20180996, -0.06781236, -946336.94, -122791.78, 0.0, 9.999085, 9.99942 
8.250253e+2, 2.2596334e+2, -849766.5, -947138.2, 63296.656, 0.16920091, -0.03900018, -818597.6, -93044.305, 0.0, 9.999877, 9.998599 
8.2504904e+2, 2.3596267e+2, -466774.9, -710274.94, 66822.48, -0.025206916, 0.031368636, -449642.56, 177919.67, 0.0, 10.001829, 9.9986105 
8.250754e+2, 2.4596071e+2, -305260.84, -619429.3, 89957.18, -0.011780709, -0.004950618, -281326.44, 248253.61, 0.0, 10.002429, 9.998272 
8.2510346e+2, 2.5595775e+2, -253823.53, -543936.0, 73242.03, 0.14581518, -0.13173097, -236381.44, 195223.45, 0.0, 10.0021105, 9.998271 
8.251294e+2, 2.659557e+2, -172474.98, -515481.2, 7232.254, 0.17711122, -0.13584612, -172322.55, 161302.81, 0.0, 10.002263, 9.99772 
8.2515395e+2, 2.7595407e+2, -11845.058, -393828.88, -21076.795, 0.12409878, -0.06922863, -10685.619, 224958.22, 0.0, 10.002721, 9.997661 
8.25179e+2, 2.8595227e+2, 104869.71, -385983.25, -8582.196, 0.11576179, 0.033244617, 105019.72, 242683.53, 0.0000015183963, 10.003275, 9.996778 
8.2520425e+2, 2.9595014e+2, 299655.97, -236116.31, 27325.62, 0.14087595, 0.13908018, 301046.03, 340732.3, 0.000021564689, 10.003917, 9.996824 
8.2522875e+2, 3.0594575e+2, 387429.75, -124253.95, 29591.713, 0.11174333, -0.000948432, 389135.4, 389135.4, 0.00009155905, 10.003997, 9.99722 
8.252528e+2, 3.159421e+2, 439667.8, 68154.21, 9877.94, 0.04805304, -0.09649904, 439930.28, 439930.28, 0.00022156868, 10.003624, 9.99872 
8.3476293e+2, 1.2593006e+2, -2309581.8, -1886662.6, -13621.386, 0.08969288, -0.2361033, -1886224.4, -180351.16, 0.000000000051048894, 9.995415, 10.001028 
8.347902e+2, 1.3593224e+2, -2077144.5, -1686326.8, 24941.486, 0.11373292, -0.14565003, -1684741.5, -76883.5, 0.0, 9.996173, 10.001372 
8.3481616e+2, 1.4593565e+2, -1799906.8, -1374661.9, 14664.434, 0.041895412, 0.0033245762, -1374156.8, 135668.6, 0.0, 9.996858, 10.002502 
8.3484346e+2, 1.5593895e+2, -1607623.5, -1250482.6, 71923.055, 0.13256665, 0.07695955, -1236542.5, 175247.9, 0.0, 9.997588, 10.002328 
8.3486915e+2, 1.6594012e+2, -1621320.9, -1468628.1, 47540.945, 0.095693804, 0.08961277, -1455036.1, -141255.23, 0.0, 9.997953, 9.999981 
8.3489376e+2, 1.7593975e+2, -1502505.9, -1360455.3, 6504.861, -0.02510175, 0.05366196, -1360158.0, -144368.64, 0.0, 9.9980955, 9.999982 
8.349197e+2, 1.8593942e+2, -1309702.6, -1242878.6, -5019.0957, -0.040025298, 0.03751665, -1242503.8, -124708.734, 0.0, 9.99886, 9.999746 
8.3494663e+2, 1.9593897e+2, -1027416.44, -1039852.75, -19673.838, 0.01906003, 0.013977894, -1013001.5, 6798.299, 0.0, 10.000053, 9.999891 
8.349726e+2, 2.0593886e+2, -871403.6, -807364.6, -43311.625, 0.06470833, -0.036299665, -785521.9, 136274.13, 0.0, 9.999995, 10.000844 
8.3499795e+2, 2.159389e+2, -920581.0, -797638.9, 21470.867, 0.10238769, -0.12188174, -793997.0, 29790.08, 0.0, 9.999059, 10.0006895 
8.350247e+2, 2.259382e+2, -850296.7, -939931.94, 134312.84, 0.12254664, -0.14661713, -753521.4, -27730.139, 0.0, 9.999841, 9.998668 
8.3505243e+2, 2.3593691e+2, -469327.25, -707562.94, 134027.39, 0.12815383, -0.14611578, -409134.2, 218671.4, 0.0, 10.001793, 9.998649 
8.350785e+2, 2.4593543e+2, -326963.9, -656990.56, 74843.1, 0.056505907, -0.123977326, -310784.28, 219037.33, 0.0, 10.002396, 9.99803 
8.351034e+2, 2.5593367e+2, -278190.0, -589407.9, 66052.76, -0.068558924, -0.10470502, -264751.3, 167088.63, 0.0, 10.002087, 9.997971 
8.351296e+2, 2.659316e+2, -223849.94, -619194.4, 23646.688, -0.026695812, -0.055999808, -222440.6, 111422.56, 0.0, 10.002249, 9.997015 
8.351568e+2, 2.7592918e+2, -50873.91, -472528.78, 109.53178, 0.13514498, -0.0047748145, -50873.883, 185017.03, 0.0, 10.0027075, 9.9971285 
8.35183e+2, 2.8592646e+2, 174840.0, -235672.47, 14918.319, 0.19569542, -0.024203498, 175381.42, 313298.22, 0.0000012583888, 10.003257, 9.997817 
8.3520854e+2, 2.9592338e+2, 357879.53, -103957.16, 50489.797, 0.1813753, -0.11651996, 363334.84, 403277.94, 0.00002249952, 10.003871, 9.997754 
8.352331e+2, 3.0591992e+2, 376585.72, -142779.34, 15745.868, 0.14440535, -0.19797571, 377062.66, 377062.66, 0.000099447396, 10.00398, 9.997102 
8.35257e+2, 3.1591928e+2, 409768.5, -56.28767, 7741.1714, 0.10469642, 0.020565588, 409914.66, 409914.66, 0.00024248942, 10.003646, 9.998243 
8.4475905e+2, 1.2590477e+2, -2150232.0, -1798084.4, 27020.19, 0.113436915, -0.19244175, -1796023.3, -89904.24, 0.0, 9.996457, 10.001132 
8.447862e+2, 1.3590573e+2, -1903081.0, -1594853.4, 112792.125, 0.04287535, -0.23032711, -1557987.8, 50126.78, 0.0, 9.997341, 10.001432 
8.448131e+2, 1.4590918e+2, -1746069.5, -1350397.1, 40537.707, 0.036917448, -0.0817861, -1346286.6, 163795.25, 0.0, 9.997239, 10.002482 
8.4484184e+2, 1.5591343e+2, -1763161.1, -1328012.6, -15374.887, 0.271177, 0.09052075, -1327470.1, 84568.58, 0.0, 9.996536, 10.002302 
8.448675e+2, 1.659145e+2, -1745964.1, -1526295.4, -3903.44, 0.18960574, 0.095246084, -1526226.0, -212196.1, 0.0, 9.99709, 10.000001 
8.4489125e+2, 1.7591335e+2, -1440010.8, -1323728.9, 41243.383, -0.1048243, -0.022842158, -1310585.9, -94540.44, 0.0, 9.9985, 10.000038 
8.4491783e+2, 1.8591312e+2, -1307520.5, -1203048.3, 84269.13, -0.10044177, -0.05063324, -1156138.5, -38089.15, 0.0, 9.998708, 10.000093 
8.449466e+2, 1.9591343e+2, -1301940.5, -1140185.9, 118111.35, 0.11228381, -0.032535076, -1077915.0, -57868.848, 0.0, 9.998033, 10.000178 
8.449727e+2, 2.0591344e+2, -1035217.25, -911675.2, 58030.03, 0.13515337, -0.07323491, -888692.8, 33348.875, 0.0, 9.998977, 10.000619 
8.4499717e+2, 2.1591307e+2, -647051.25, -687402.25, -3990.8936, 0.028992044, -0.17487733, -646660.3, 177377.4, 0.0, 10.001029, 10.000497 
8.4502447e+2, 2.2591221e+2, -638399.0, -811472.4, 63792.402, 0.054589625, -0.21977201, -617427.25, 108615.55, 0.0, 10.001188, 9.998896 
8.4505373e+2, 2.3591095e+2, -715491.75, -803490.0, 70716.81, 0.16939369, -0.23990719, -676203.5, -48148.656, 0.0, 10.00001, 9.998846 
8.450804e+2, 2.4590985e+2, -628283.3, -813811.2, 32633.879, 0.11211671, -0.18142882, -622710.5, -92642.266, 0.0, 10.000377, 9.997925 
8.4510535e+2, 2.5590876e+2, -321470.2, -616716.5, 29354.254, -0.0633269, -0.087761976, -318579.97, 113503.875, 0.0, 10.00182, 9.99791 
8.4513175e+2, 2.6590675e+2, -155711.73, -554836.1, 31299.295, -0.05294713, -0.045213412, -153272.16, 180834.17, 0.0, 10.0025835, 9.997295 
8.451591e+2, 2.7590397e+2, -6161.791, -421127.47, 75703.516, 0.09015042, -0.054462355, 7217.6587, 243352.08, 0.0000000050987805, 10.002892, 9.997391 
8.4518576e+2, 2.8590113e+2, 158501.19, -249461.42, 77444.27, 0.14846234, -0.09923402, 172707.84, 310869.1, 0.0000017148438, 10.00317, 9.997765 
8.452118e+2, 2.95898e+2, 281478.63, -147537.86, 30410.465, 0.14890222, -0.19027856, 283623.5, 323812.53, 0.000025355132, 10.003374, 9.997694 
8.452371e+2, 3.0589473e+2, 365820.6, -169393.38, -39402.906, 0.1467356, -0.23877369, 368705.94, 368705.94, 0.00011065849, 10.003998, 9.996911 
8.45262e+2, 3.158946e+2, 554688.5, 8528.767, -57009.35, 0.17441806, 0.052891232, 560575.75, 560575.75, 0.00026690355, 10.004914, 9.997689 
8.547544e+2, 1.2588121e+2, -2077494.5, -1663203.5, 56006.02, -0.0069844867, 0.012930471, -1655765.8, 50586.08, 0.0, 9.99652, 10.002031 
8.547828e+2, 1.3588116e+2, -1851883.8, -1494615.3, 141362.39, -0.03449132, -0.21500234, -1445448.0, 162900.6, 0.0, 9.99737, 10.002107 
8.548094e+2, 1.4588232e+2, -1851417.4, -1574971.9, 11702.06, -0.058201164, -0.23951143, -1574477.4, -64140.543, 0.0, 9.99726, 10.000934 
8.5483664e+2, 1.5588357e+2, -1852428.5, -1517486.9, -32474.365, 0.095689066, -0.21487227, -1514367.4, -102039.96, 0.0, 9.9965515, 10.000996 
8.548635e+2, 1.6588461e+2, -1659741.6, -1347242.9, 48478.902, 0.08183006, -0.21884485, -1339895.0, -25577.113, 0.0, 9.9970875, 10.001232 
8.548903e+2, 1.7588551e+2, -1351909.8, -1143601.6, 90403.875, -0.048805144, -0.2568513, -1109839.4, 106469.25, 0.0, 9.998508, 10.001272 
8.5491776e+2, 1.8588717e+2, -1234850.5, -1051356.0, 57107.383, 0.022082949, -0.20753369, -1035034.75, 83256.305, 0.0, 9.998701, 10.00114 
8.5494584e+2, 1.9588926e+2, -1246899.9, -1025874.2, 103810.87, 0.23521164, -0.11625491, -984763.25, 35505.863, 0.0, 9.998027, 10.000967 
8.549723e+2, 2.0588891e+2, -1169773.9, -1184713.5, 133970.02, 0.19079402, -0.12624763, -1043065.6, -120792.72, 0.0, 9.99895, 9.998759 
8.5499763e+2, 2.158867e+2, -765654.9, -929691.9, 64445.273, -0.03593816, -0.22690552, -743365.0, 80931.23, 0.0, 10.001009, 9.998844 
8.550246e+2, 2.2588544e+2, -617778.3, -760174.5, 15847.119, -0.052982386, -0.25925037, -616036.0, 110271.234, 0.0, 10.001154, 9.999264 
8.5505277e+2, 2.3588476e+2, -694232.25, -754925.9, 36963.633, 0.08041302, -0.2559654, -676754.0, -48444.023, 0.0, 9.99999, 9.999189 
8.55081e+2, 2.4588399e+2, -629432.06, -811475.3, 84964.09, 0.13520548, -0.18172769, -595939.3, -65619.45, 0.0, 10.000356, 9.997952 
8.551092e+2, 2.55883e+2, -318053.2, -599739.7, 81891.05, 0.13758436, -0.07830389, -295976.3, 136359.9, 0.0, 10.001776, 9.998049 
8.551357e+2, 2.6588112e+2, -75798.086, -378687.7, 40247.457, 0.08048406, -0.096241795, -70541.31, 263813.13, 0.0, 10.00254, 9.998527 
8.5516083e+2, 2.7587852e+2, 58710.324, -276510.9, 87177.07, -0.023061002, -0.21160084, 80026.05, 316400.72, 0.0000001292932, 10.00285, 9.9984045 
8.5518706e+2, 2.8587615e+2, 79866.41, -407203.25, 83082.77, -0.033416037, -0.19269063, 93648.42, 232046.42, 0.000003149254, 10.003145, 9.996694 
8.55214e+2, 2.9587385e+2, 210968.98, -293306.72, 42892.797, 0.029957145, -0.09923995, 214591.34, 255016.63, 0.000029414192, 10.003367, 9.996697 
8.552406e+2, 3.0587006e+2, 346345.84, -210089.52, -6810.832, 0.10386216, -0.13799828, 346429.2, 346429.2, 0.00012176361, 10.004001, 9.996629 
8.552674e+2, 3.158681e+2, 505708.9, -89286.48, -18507.523, 0.21834444, 0.003670472, 506284.03, 506284.03, 0.00029112629, 10.004898, 9.9970255 
8.647508e+2, 1.2585495e+2, -2029627.5, -1622978.4, 31893.137, -0.026181983, -0.0016904428, -1620492.3, 86115.42, 0.00000000000000000000885557, 9.996784, 10.002174 
8.647796e+2, 1.3585529e+2, -2029060.5, -1575191.3, 47432.45, -0.025589118, -0.19923522, -1570287.1, 38312.848, 0.0, 9.996127, 10.002156 
8.6480623e+2, 1.4585619e+2, -1954444.1, -1635888.6, -33243.773, -0.06762537, -0.24646318, -1632456.4, -121865.34, 0.0, 9.996603, 10.000832 
8.6483306e+2, 1.5585679e+2, -1649607.3, -1426475.3, 27068.861, 0.013857497, -0.27546975, -1423238.4, -10650.017, 0.0, 9.99797, 10.0009365 
8.648605e+2, 1.65858e+2, -1495489.8, -1217014.5, 122077.18, 0.02646559, -0.2861203, -1171076.6, 143499.45, 0.0, 9.997992, 10.00169 
8.648884e+2, 1.7585965e+2, -1538564.3, -1188001.1, 101541.09, -0.0090674395, -0.29476961, -1160713.6, 55843.55, 0.0, 9.997029, 10.001678 
8.6491615e+2, 1.8586147e+2, -1414994.5, -1141167.3, 4094.208, 0.052171938, -0.24694903, -1141106.0, -22568.826, 0.0, 9.997479, 10.001108 
8.649438e+2, 1.9586329e+2, -1120561.8, -972322.44, -32220.656, 0.18520549, -0.17785233, -965621.94, 54895.87, 0.0, 9.998932, 10.000895 
8.64971e+2, 2.0586295e+2, -1120190.6, -1214274.3, 49947.87, 0.14868936, -0.15629216, -1098619.6, -176095.77, 0.0, 9.999519, 9.998282 
8.6499804e+2, 2.1586101e+2, -1025303.44, -1102111.8, 76309.18, -0.0075893905, -0.18289551, -978279.44, -153730.8, 0.0, 9.999433, 9.998421 
8.6502546e+2, 2.258598e+2, -762407.1, -816719.75, 30206.676, -0.026929732, -0.19603908, -748944.4, -22384.25, 0.0, 10.0001, 9.999384 
8.650532e+2, 2.35859e+2, -498697.03, -646145.6, 29699.303, 0.054694712, -0.21781193, -492939.75, 135623.4, 0.0, 10.001272, 9.999316 
8.650817e+2, 2.4585807e+2, -469694.94, -715618.9, 93177.68, 0.12279032, -0.17460188, -438378.8, 92194.51, 0.0, 10.001375, 9.998117 
8.6511075e+2, 2.5585693e+2, -458870.88, -648735.6, 96757.97, 0.18004692, -0.10539661, -418251.56, 14338.166, 0.0, 10.0007305, 9.998214 
8.6513776e+2, 2.65855e+2, -287706.06, -467572.1, 23879.455, 0.12059111, -0.14160763, -284589.75, 50017.75, 0.0000000005766255, 10.001024, 9.998644 
8.651632e+2, 2.758524e+2, -61434.62, -326731.7, -12325.122, -0.021032196, -0.26619017, -60863.254, 175764.13, 0.000000514823, 10.001985, 9.998478 
8.651899e+2, 2.8585035e+2, 42142.258, -453912.16, -11005.032, -0.05215987, -0.20785324, 42386.29, 181035.44, 0.0000053955687, 10.003005, 9.996442 
8.652174e+2, 2.9584852e+2, 301430.3, -272875.4, 3471.9631, 0.001787311, -0.03742224, 301451.3, 342124.88, 0.00003455936, 10.004092, 9.996488 
8.652447e+2, 3.0584472e+2, 501176.78, -137869.02, 1836.3666, 0.059881307, -0.067773245, 501182.06, 501182.06, 0.00013247912, 10.0050745, 9.996609 
8.652723e+2, 3.1584162e+2, 628276.7, -63068.727, 3611.0112, 0.17656054, -0.040574227, 628295.5, 628295.5, 0.00031255998, 10.005879, 9.996734 
8.747481e+2, 1.2582587e+2, -2076217.5, -1727717.3, 5253.7485, 0.014514873, -0.25869194, -1727638.1, -20750.914, 0.0000000055054987, 9.996814, 10.001443 
8.747765e+2, 1.3582811e+2, -2072740.0, -1661158.3, 28358.49, 0.05458918, -0.18964648, -1659213.5, -50344.043, 0.0, 9.99611, 10.001574 
8.748035e+2, 1.458309e+2, -1858857.9, -1438912.4, 17846.867, -0.003679639, -0.09430424, -1438155.3, 72688.336, 0.0, 9.996605, 10.002184 
8.7483114e+2, 1.5583336e+2, -1557261.5, -1242881.5, 75577.164, 0.01791697, -0.07313098, -1225656.4, 187162.56, 0.0, 9.998004, 10.002181 
8.748583e+2, 1.6583496e+2, -1515778.4, -1264848.3, 83484.45, 0.011013412, -0.08601126, -1239611.3, 75190.52, 0.0, 9.998014, 10.00135 
8.7488544e+2, 1.7583591e+2, -1567488.3, -1248087.8, 74229.805, -0.008128715, -0.12849778, -1231679.4, -14889.525, 0.0, 9.997028, 10.001267 
8.749128e+2, 1.8583608e+2, -1499208.6, -1310830.6, 57961.234, -0.031966195, -0.16440763, -1294425.5, -175638.4, 0.0, 9.9974575, 9.999956 
8.749403e+2, 1.9583553e+2, -1189030.0, -1113835.0, 19381.633, -0.060811933, -0.21926266, -1109133.4, -88340.93, 0.0, 9.998926, 9.9999275 
8.7496895e+2, 2.0583555e+2, -1060254.0, -1082656.8, 43152.168, -0.011329773, -0.16640805, -1026873.06, -104078.46, 0.0, 9.99949, 9.9992 
8.749985e+2, 2.1583599e+2, -970219.44, -982663.4, 79050.1, 0.09402085, -0.04742922, -897146.8, -72351.945, 0.0, 9.999409, 9.999252 
8.75027e+2, 2.2583532e+2, -776128.1, -838302.56, 71983.09, 0.11492004, -0.0350037, -728806.25, -2004.9086, 0.0, 10.00007, 9.999252 
8.750546e+2, 2.3583373e+2, -508943.5, -661425.5, 69196.34, 0.07596968, -0.12256616, -482224.2, 146589.67, 0.0, 10.001243, 9.9992285 
8.750824e+2, 2.4583218e+2, -451746.3, -672041.9, 64968.293, 0.05828789, -0.15700056, -434013.63, 96814.35, 0.0, 10.001349, 9.998428 
8.751102e+2, 2.5583053e+2, -446943.75, -621442.4, 78471.23, 0.052263636, -0.16673686, -416846.66, 15997.407, 0.0, 10.00072, 9.998405 
8.7513816e+2, 2.6582837e+2, -351828.53, -605308.44, 58553.254, 0.05505998, -0.18401414, -338956.53, -4091.1816, 0.0000000691861, 10.001041, 9.997691 
8.751661e+2, 2.7582565e+2, -118653.28, -445721.53, 27028.629, 0.06752642, -0.22539459, -116434.7, 120457.05, 0.000001269736, 10.001984, 9.997662 
8.75194e+2, 2.858237e+2, 75130.945, -381803.94, 27850.967, 0.061938252, -0.14607824, 76822.25, 215735.63, 0.000008177336, 10.002992, 9.996942 
8.7522185e+2, 2.9582214e+2, 329594.53, -205210.64, 45571.586, 0.04129203, 0.00094532606, 333449.97, 374382.8, 0.000040999803, 10.004053, 9.996971 
8.752492e+2, 3.0581877e+2, 513836.63, -103394.336, 33379.88, 0.005090916, -0.02712639, 515636.56, 515636.56, 0.00014405351, 10.005039, 9.996863 
8.7527674e+2, 3.1581497e+2, 625957.7, -58375.652, 41222.51, 0.023069931, -0.0873603, 628431.9, 628431.9, 0.00033039402, 10.00584, 9.996786 
8.847449e+2, 1.2579866e+2, -2334762.0, -1846177.1, -2010.3767, 0.10481648, -0.30968627, -1846168.8, -139015.92, 0.00000006865043, 9.99502, 10.001496 
8.847725e+2, 1.3580123e+2, -2140549.0, -1691056.1, 69225.875, 0.06840743, -0.20790571, -1680636.3, -71503.51, 0.0, 9.995635, 10.001597 
8.847997e+2, 1.4580445e+2, -1939704.6, -1441935.1, 74281.58, 0.0061742864, -0.087465875, -1431086.6, 80015.75, 0.0, 9.995901, 10.0025015 
8.848285e+2, 1.5580748e+2, -1825720.9, -1343679.4, 45714.473, 0.0611679, -0.039812304, -1339382.4, 73688.68, 0.0, 9.996042, 10.002434 
8.848563e+2, 1.6580902e+2, -1705172.3, -1404432.8, -2488.273, 0.05735097, -0.04520029, -1404412.1, -89357.49, 0.0, 9.996926, 10.000917 
8.8488334e+2, 1.7580947e+2, -1406942.4, -1218195.0, -21426.38, 0.017954338, -0.09278619, -1215793.4, 1255.6931, 0.0, 9.998336, 10.000842 
8.8491106e+2, 1.8580897e+2, -1266854.3, -1234887.5, 26067.008, -0.03080751, -0.15988544, -1220293.8, -101240.516, 0.0, 9.999203, 9.9996395 
8.849392e+2, 1.9580762e+2, -1102889.6, -1100079.1, 43859.547, -0.09032908, -0.2615502, -1057602.3, -36536.293, 0.0, 9.999637, 9.999681 
8.8496846e+2, 2.0580778e+2, -960155.25, -982630.94, 48020.97, -0.03076176, -0.21163115, -922074.7, 990.9977, 0.0, 9.999952, 9.999662 
8.849985e+2, 2.1580891e+2, -834307.2, -874623.25, 47518.3, 0.1184308, -0.06595086, -802848.0, 22208.658, 0.0, 10.000158, 9.999632 
8.850275e+2, 2.2580834e+2, -751239.8, -883813.5, 39389.324, 0.14667343, -0.035414923, -740419.8, -13356.056, 0.0, 10.000487, 9.998737 
8.850558e+2, 2.358064e+2, -588704.4, -749350.0, 699.05615, 0.08688387, -0.105912425, -588701.3, 40382.22, 0.0, 10.00091, 9.998784 
8.8508373e+2, 2.458047e+2, -380557.78, -603732.3, -31885.035, 0.040729903, -0.14924434, -376091.72, 155007.42, 0.0, 10.001688, 9.998736 
8.8511145e+2, 2.5580305e+2, -135469.8, -442304.2, -20550.953, 0.0057147546, -0.1902942, -134099.47, 299013.4, 0.00000000006372724, 10.002726, 9.998674 
8.8514e+2, 2.6580116e+2, -19741.293, -462050.5, 12825.738, 0.019407425, -0.18328515, -19369.695, 315761.63, 0.00000025387644, 10.0034, 9.997539 
8.85169e+2, 2.7579895e+2, 143844.06, -330488.38, 31913.09, 0.07097619, -0.15884562, 145981.55, 383135.97, 0.0000021793016, 10.003844, 9.997554 
8.851977e+2, 2.8579646e+2, 229301.42, -284815.66, 39861.156, 0.08183136, -0.1355285, 232373.63, 371553.84, 0.00001103343, 10.003956, 9.997143 
8.8522595e+2, 2.9579374e+2, 304758.22, -194602.42, 34778.6, 0.06483248, -0.12786129, 307168.78, 348377.8, 0.00004783983, 10.003786, 9.997171 
8.8525367e+2, 3.0579108e+2, 435155.75, -121223.63, 33506.234, -0.018057939, -0.101059325, 437166.3, 437166.3, 0.00015537339, 10.004411, 9.997044 
8.852815e+2, 3.157884e+2, 600084.0, -60578.94, 27599.197, -0.064831816, -0.06939997, 601234.94, 601234.94, 0.00034386103, 10.005616, 9.996881 
8.947408e+2, 1.2577364e+2, -2274933.8, -1719422.8, 18005.264, 0.19036525, -0.12677397, -1718839.8, -11437.709, 0.00000033567557, 9.995005, 10.002376 
8.947674e+2, 1.3577484e+2, -2090839.6, -1588658.5, 92625.76, -0.0017789805, -0.24207659, -1572118.8, 37268.69, 0.00000000007521531, 9.995637, 10.002299 
8.9479506e+2, 1.4577694e+2, -1993923.8, -1556419.8, 76422.234, -0.05992863, -0.22580795, -1543454.8, -32088.945, 0.0, 9.995906, 10.001715 
8.9482516e+2, 1.5577905e+2, -1883594.4, -1459767.4, 56991.566, 0.1178259, -0.1897854, -1452237.6, -38892.48, 0.0, 9.996023, 10.001647 
8.94854e+2, 1.6578011e+2, -1746838.1, -1488603.5, 49947.035, 0.14135551, -0.17626812, -1479279.5, -163943.88, 0.0, 9.996916, 10.000345 
8.948821e+2, 1.7578028e+2, -1437080.5, -1286305.0, 31281.973, 0.0529573, -0.1963995, -1280072.5, -62737.176, 0.0, 9.998357, 10.000366 
8.9491093e+2, 1.8578012e+2, -1228187.9, -1155325.9, 39028.58, 0.03825751, -0.23611306, -1138367.4, -19031.309, 0.0, 9.999207, 10.000182 
8.9494056e+2, 1.9577964e+2, -1068618.8, -1026796.8, 60653.152, 0.07891643, -0.30694574, -983551.1, 37787.207, 0.0, 9.999628, 10.000188 
8.9496946e+2, 2.0577961e+2, -962921.6, -984622.0, 53160.793, 0.07736161, -0.2954672, -919515.06, 3821.8298, 0.0, 9.999933, 9.9996605 
8.9499795e+2, 2.1577984e+2, -842632.6, -887009.4, 57124.824, 0.04546998, -0.24134041, -803538.3, 21795.504, 0.0, 10.000135, 9.999559 
8.95027e+2, 2.2577892e+2, -818470.25, -1016676.6, 51958.65, 0.046398807, -0.19409597, -805675.56, -78329.04, 0.0, 10.000458, 9.99784 
8.950565e+2, 2.3577707e+2, -648949.56, -868650.9, 20811.564, 0.06790017, -0.16795363, -646995.56, -17623.986, 0.0, 10.000883, 9.997977 
8.950855e+2, 2.457757e+2, -364001.7, -563412.25, 5638.8867, 0.052860983, -0.15546125, -363842.34, 167544.06, 0.0, 10.001662, 9.999026 
8.9511424e+2, 2.5577456e+2, -120380.79, -399816.38, 19167.547, 0.014090054, -0.17508641, -119072.15, 314322.9, 0.0000000002378373, 10.002678, 9.998989 
8.9514315e+2, 2.6577348e+2, 15236.451, -380519.94, 26884.533, -0.009177915, -0.13461612, 17054.422, 352458.84, 0.00000030747992, 10.00336, 9.998119 
8.9517194e+2, 2.7577227e+2, 172154.02, -258351.33, 48460.47, -0.023892578, -0.06716085, 177541.61, 414957.13, 0.0000026197797, 10.003786, 9.998078 
8.952008e+2, 2.8576875e+2, 219743.81, -297884.63, 30810.668, -0.0019057282, -0.17021541, 221571.3, 361020.66, 0.000013141425, 10.003923, 9.997068 
8.952297e+2, 2.9576346e+2, 300283.94, -205622.34, 33582.42, 0.05175849, -0.40916714, 302503.44, 344004.03, 0.00005419451, 10.003789, 9.997096 
8.952579e+2, 3.057618e+2, 440841.06, -108091.78, 74671.766, -0.033823356, -0.2827682, 450817.4, 450817.4, 0.00016616088, 10.004409, 9.997131 
8.9528644e+2, 3.157616e+2, 599458.2, -47700.266, 72891.67, -0.13470547, -0.0149534745, 607566.6, 607566.6, 0.0003561554, 10.005559, 9.996993 
9.047362e+2, 1.2574747e+2, -1941684.3, -1512792.1, 36370.29, 0.13389318, -0.087649085, -1509729.8, 197929.31, 0.0000010657902, 9.997086, 10.002793 
9.047633e+2, 1.3574882e+2, -2083148.5, -1549554.0, 68665.85, 0.03298683, -0.22722802, -1540859.4, 68779.93, 0.000000007369457, 9.995538, 10.002615 
9.0479124e+2, 1.4575016e+2, -2054604.1, -1650347.3, 96871.98, -0.014502531, -0.26911646, -1628332.8, -116709.305, 0.0, 9.99577, 10.001134 
9.048215e+2, 1.5575089e+2, -1729605.0, -1448952.8, 87335.164, 0.098206535, -0.3147121, -1423994.8, -10378.159, 0.0, 9.997352, 10.0010805 
9.04851e+2, 1.6575152e+2, -1637753.6, -1471287.5, 94210.445, 0.110170566, -0.30110934, -1428809.1, -113197.055, 0.0, 9.997812, 10.000034 
9.0487987e+2, 1.75752e+2, -1591137.4, -1391340.1, 91562.734, 0.048715908, -0.25995106, -1355726.9, -138116.7, 0.0, 9.997436, 10.00009 
9.049097e+2, 1.8575229e+2, -1424417.4, -1253655.4, 93799.18, 0.06365924, -0.23999394, -1212197.1, -92589.74, 0.0, 9.997877, 10.000148 
9.0494037e+2, 1.9575234e+2, -1176747.4, -1084947.8, 67682.43, 0.13874796, -0.25321686, -1049069.1, -27464.105, 0.0, 9.99891, 10.000135 
9.0496963e+2, 2.0575193e+2, -1018156.8, -1028300.8, 23837.816, 0.11998218, -0.27212453, -998857.4, -75250.08, 0.0, 9.999631, 9.999505 
9.049978e+2, 2.1575105e+2, -855523.0, -908398.75, 11378.597, 0.02971098, -0.31116953, -853178.4, -27564.309, 0.0, 10.000114, 9.999423 
9.0502715e+2, 2.2574995e+2, -778206.06, -981686.06, 55503.17, 0.011579814, -0.28116038, -764051.2, -36423.387, 0.0, 10.000669, 9.997979 
9.0505725e+2, 2.3574862e+2, -585409.1, -827635.6, 95644.43, 0.045971707, -0.21807553, -552197.1, 77450.57, 0.0, 10.001273, 9.998074 
9.050872e+2, 2.4574746e+2, -409160.88, -620963.75, 90119.06, 0.06383278, -0.170762, -376006.38, 155655.23, 0.0, 10.001506, 9.998706 
9.0511686e+2, 2.5574636e+2, -317894.84, -525741.56, 52692.664, 0.07202958, -0.15374874, -305299.63, 128372.36, 0.0, 10.00146, 9.998708 
9.051461e+2, 2.657452e+2, -219379.67, -487556.75, 22478.605, 0.044887636, -0.11237549, -217508.56, 118174.36, 0.0000002007212, 10.001725, 9.998169 
9.05175e+2, 2.7574378e+2, -53537.934, -365579.28, 2870.9983, -0.009351395, -0.07108803, -53511.52, 184184.06, 0.0000025589381, 10.002225, 9.998095 
9.052041e+2, 2.857403e+2, 103308.664, -387500.53, -28091.94, -0.023186028, -0.15331322, 104911.3, 244640.63, 0.000014744336, 10.003266, 9.996771 
9.052333e+2, 2.9573527e+2, 419407.8, -177111.48, -47851.355, -0.0032422836, -0.3346906, 423221.97, 465000.9, 0.00006127146, 10.004737, 9.996834 
9.052623e+2, 3.0573353e+2, 600924.6, -34634.742, -13066.706, -0.08512341, -0.2033345, 601193.1, 601193.1, 0.00017914487, 10.005524, 9.997102 
9.05292e+2, 3.15732e+2, 629865.06, -17195.486, -31875.27, -0.13625622, -0.06214131, 631431.5, 631431.5, 0.0003727429, 10.005699, 9.997137 
9.147307e+2, 1.2572017e+2, -1933690.5, -1517513.1, -21807.738, -0.1374688, -0.2072732, -1516373.5, 191549.72, 0.000002613721, 9.99718, 10.002715 
9.1476005e+2, 1.3572326e+2, -2087824.6, -1562495.6, 17920.387, 0.15511698, -0.16398636, -1561885.0, 48002.242, 0.00000007607973, 9.995554, 10.002518 
9.147884e+2, 1.4572425e+2, -2080289.4, -1707915.6, 156547.56, 0.12690605, -0.21482001, -1650848.1, -138974.02, 0.0, 9.995783, 10.000736 
9.1481775e+2, 1.5572307e+2, -1746375.8, -1495973.1, 145418.58, -0.021204604, -0.41482174, -1429284.0, -15399.658, 0.0, 9.997401, 10.000736 
9.1484714e+2, 1.6572337e+2, -1636943.6, -1474373.6, 77034.16, -0.062406376, -0.41579714, -1443669.8, -127787.14, 0.0, 9.997835, 10.000001 
9.1487664e+2, 1.7572477e+2, -1596467.8, -1403066.4, 83074.85, -0.019723399, -0.27852994, -1372282.0, -154409.88, 0.0, 9.997437, 10.000009 
9.1490716e+2, 1.8572558e+2, -1470844.5, -1345286.4, 131543.92, 0.023748258, -0.17018212, -1262308.8, -142442.4, 0.0, 9.997856, 9.999529 
9.149385e+2, 1.9572581e+2, -1222266.5, -1175388.1, 107280.0, 0.06620711, -0.10213174, -1089016.5, -67151.086, 0.0, 9.998892, 9.999524 
9.149687e+2, 2.0572475e+2, -1045606.94, -1079770.8, 39880.66, 0.0717859, -0.13851279, -1019303.9, -95427.69, 0.0, 9.999606, 9.999164 
9.149982e+2, 2.157226e+2, -876489.2, -942993.0, 32185.969, 0.0499648, -0.27278015, -863463.4, -37566.926, 0.0, 10.000075, 9.999204 
9.15028e+2, 2.2572148e+2, -702483.5, -819021.56, 75542.52, 0.025882514, -0.29686213, -665348.4, 62558.97, 0.0, 10.000643, 9.99911 
9.150581e+2, 2.3572102e+2, -519505.2, -686934.1, 118359.66, 0.0010564327, -0.25683942, -458246.84, 171665.28, 0.0, 10.001254, 9.99905 
9.150885e+2, 2.4572003e+2, -476514.25, -755048.7, 85616.99, 0.05011395, -0.19069727, -452301.72, 79622.56, 0.0, 10.001482, 9.997797 
9.1511923e+2, 2.5571853e+2, -381362.44, -655441.2, 54991.477, 0.15710036, -0.12325098, -370740.53, 63202.66, 0.0, 10.00145, 9.997823 
9.15149e+2, 2.6571634e+2, -248699.73, -553264.44, 39655.04, 0.1602832, -0.114785306, -243621.23, 92345.055, 0.00000011562638, 10.001744, 9.997709 
9.151782e+2, 2.7571353e+2, -83046.16, -431594.16, 26648.658, 0.084716596, -0.1679129, -81020.48, 156973.02, 0.0000025826089, 10.002243, 9.997633 
9.152075e+2, 2.8571114e+2, 66437.39, -463378.22, 25478.518, -0.007534266, -0.094058745, 67659.82, 207679.39, 0.000017158924, 10.003264, 9.996252 
9.1523695e+2, 2.9570895e+2, 376864.56, -253784.72, 10328.894, -0.11330958, 0.06152995, 377033.7, 419079.13, 0.000070163296, 10.004685, 9.996333 
9.152669e+2, 3.0570617e+2, 583812.9, -56490.633, -3079.51, -0.18312936, 0.11985631, 583827.7, 583827.7, 0.00019559318, 10.005466, 9.996979 
9.15298e+2, 3.1569988e+2, 632787.56, 1500.6953, -16048.878, -0.11713414, -0.20519634, 633195.25, 633195.25, 0.00039462498, 10.005646, 9.997292 
9.247262e+2, 1.2569223e+2, -2463343.5, -1844267.8, -81642.58, -0.13919991, -0.2548996, -1833681.9, -125489.664, 0.0000053718704, 9.99386, 10.002069 
9.247561e+2, 1.3569455e+2, -1900952.8, -1544103.8, -103362.89, 0.13534899, -0.22068384, -1516326.5, 93841.69, 0.00000033393198, 9.997144, 10.001878 
9.2478526e+2, 1.4569578e+2, -1759130.4, -1544421.9, 25387.682, 0.13289744, -0.22227272, -1541460.8, -29305.998, 0.0, 9.997956, 10.000806 
9.248154e+2, 1.5569557e+2, -1803920.6, -1515007.1, 42005.73, 0.03590751, -0.32891074, -1509023.8, -94868.6, 0.0, 9.996978, 10.000805 
9.248453e+2, 1.6569585e+2, -1690180.6, -1491859.3, 3481.982, -0.0057970863, -0.33835566, -1491798.1, -175645.92, 0.0, 9.9974375, 10.000071 
9.2487496e+2, 1.7569648e+2, -1372329.8, -1288743.0, 12931.967, -0.0027032716, -0.2842811, -1286788.0, -68640.9, 0.0, 9.998951, 10.000062 
9.2490566e+2, 1.8569681e+2, -1247280.0, -1248493.4, 84479.875, 0.009887222, -0.22107562, -1163404.6, -43259.316, 0.0, 9.999436, 9.999434 
9.2493707e+2, 1.9569676e+2, -1199476.5, -1176688.9, 95883.33, 0.02785147, -0.16944191, -1091524.8, -69377.52, 0.0, 9.999101, 9.999416 
9.2496794e+2, 2.0569576e+2, -1068596.8, -1129522.8, 66354.734, 0.035796452, -0.17581971, -1026046.44, -101887.26, 0.0, 9.999617, 9.9988165 
9.249984e+2, 2.1569392e+2, -791919.44, -936288.1, 50116.406, 0.038994417, -0.2439918, -776227.56, 49952.008, 0.0, 10.000801, 9.9989 
9.25029e+2, 2.2569314e+2, -593401.8, -716856.75, 45752.164, 0.044327594, -0.24528688, -578294.75, 149892.3, 0.0, 10.001178, 9.999554 
9.250596e+2, 2.3569304e+2, -536720.3, -649554.75, 33851.77, 0.052460745, -0.21176568, -527343.56, 102841.8, 0.0, 10.000941, 9.999455 
9.2509025e+2, 2.4569185e+2, -453870.88, -770563.1, 33229.855, 0.068933435, -0.17097077, -450421.72, 81776.61, 0.0, 10.001749, 9.997562 
9.2512083e+2, 2.556897e+2, -120813.74, -558257.7, 47687.766, 0.089721225, -0.14380829, -115675.44, 318548.13, 0.0, 10.003359, 9.997572 
9.251512e+2, 2.65687e+2, 72367.72, -457360.0, 41713.47, 0.08800234, -0.15007126, 75632.336, 411885.44, 0.00000007319143, 10.004202, 9.997186 
9.251814e+2, 2.756837e+2, 209608.17, -338873.75, 19074.957, 0.07560057, -0.19934326, 210270.75, 448557.63, 0.0000027897247, 10.004464, 9.9972 
9.2521155e+2, 2.8568143e+2, 300353.16, -290212.8, 75382.41, 0.007171363, -0.12199716, 309823.44, 450134.22, 0.000020132902, 10.004607, 9.996795 
9.2524165e+2, 2.9567987e+2, 403226.3, -190100.4, 129729.39, -0.10430761, 0.03916983, 430351.25, 472678.88, 0.00008098721, 10.004641, 9.996795 
9.2527205e+2, 3.0567706e+2, 460564.7, -184308.05, 122418.76, -0.17404932, 0.10637214, 483021.88, 483021.88, 0.00021666187, 10.004909, 9.996369 
9.253036e+2, 3.1566995e+2, 568147.6, -65208.254, 64038.29, -0.09374518, -0.24235632, 574557.6, 574557.6, 0.00042412884, 10.00535, 9.996974 
9.347225e+2, 1.2566356e+2, -2566189.8, -2037824.8, 46672.84, 0.102782816, -0.24482311, -2033733.6, -325266.78, 0.000009857008, 9.993776, 10.000783 
9.347514e+2, 1.3566257e+2, -1977567.8, -1717973.3, 12112.798, -0.054806627, -0.40814486, -1717409.4, -106925.74, 0.0000009955157, 9.997209, 10.000652 
9.347817e+2, 1.4566465e+2, -1710378.5, -1464957.5, -19343.922, -0.029223302, -0.2929623, -1463442.1, 49023.992, 0.00000000002439963, 9.998045, 10.001311 
9.3481463e+2, 1.5566847e+2, -1767998.8, -1443228.8, 10243.14, 0.25574407, -0.045839243, -1442906.0, -28477.822, 0.0, 9.996986, 10.001295 
9.3484545e+2, 1.6566908e+2, -1679214.3, -1465503.1, 58817.613, 0.27315202, -0.056295298, -1450384.9, -133964.84, 0.0, 9.997424, 10.0002575 
9.348748e+2, 1.756671e+2, -1353956.6, -1257848.8, 67498.336, 0.085318565, -0.279411, -1223046.3, -4610.7764, 0.0, 9.9989805, 10.00026 
9.3490505e+2, 1.8566594e+2, -1216467.5, -1186457.3, 68700.98, 0.004874357, -0.3975198, -1131141.9, -10697.39, 0.0, 9.999444, 9.999857 
9.34936e+2, 1.9566524e+2, -1174033.5, -1122012.8, 89033.445, 0.0049251504, -0.4569341, -1055268.1, -32818.22, 0.0, 9.999091, 9.999796 
9.3496716e+2, 2.0566499e+2, -1098064.6, -1187608.3, 108119.54, -0.007218467, -0.38511512, -1025813.56, -101357.61, 0.0, 9.999601, 9.998426 
9.349985e+2, 2.1566503e+2, -822583.94, -995103.2, 92998.95, -0.026118217, -0.2269621, -781999.06, 44464.16, 0.0, 10.000777, 9.99851 
9.3503016e+2, 2.2566496e+2, -613406.3, -752195.44, 34122.203, 0.044556625, -0.1239236, -605470.8, 122995.33, 0.0, 10.001152, 9.999322 
9.350619e+2, 2.356647e+2, -552734.4, -678539.25, 31594.668, 0.1855333, -0.08547629, -545245.5, 85221.47, 0.0, 10.000922, 9.999267 
9.350924e+2, 2.4566293e+2, -427427.03, -709650.3, 91200.6, 0.105926566, -0.115466624, -400520.7, 131962.73, 0.0, 10.001724, 9.9979925 
9.351219e+2, 2.5565997e+2, -102329.12, -509288.75, 106404.555, -0.14338335, -0.21506742, -76187.58, 358325.16, 0.0, 10.003311, 9.997932 
9.351527e+2, 2.6565713e+2, 24801.334, -545832.75, 49894.688, -0.17925216, -0.2176942, 29131.135, 365674.2, 0.00000003612581, 10.004155, 9.996602 
9.3518466e+2, 2.7565423e+2, 171655.84, -408484.75, 32614.787, -0.049770065, -0.16757484, 173483.64, 412059.16, 0.0000027028154, 10.004421, 9.996743 
9.3521607e+2, 2.8565127e+2, 403595.38, -68250.61, 75480.17, -0.0009101176, -0.22064728, 415375.66, 555977.75, 0.000022318061, 10.004578, 9.998333 
9.352472e+2, 2.9564822e+2, 497710.97, 7170.406, 132187.77, -0.012647084, -0.3621504, 531064.3, 573688.4, 0.000092399416, 10.004637, 9.998152 
9.3527776e+2, 3.0564624e+2, 388735.38, -336810.4, 133548.3, -0.0916347, -0.21801448, 412536.3, 412536.3, 0.00024216998, 10.004921, 9.9953165 
9.353088e+2, 3.1564176e+2, 515044.16, -174938.34, 83046.04, -0.10807331, -0.2043073, 524898.8, 524898.8, 0.00046297986, 10.005347, 9.996222 
9.4471765e+2, 1.2563294e+2, -2332417.8, -1919398.6, 2827.0542, 0.17169487, -0.26819658, -1919379.3, -210613.66, 0.000016753027, 9.995353, 10.000839 
9.4474804e+2, 1.3563225e+2, -2281009.8, -1860514.4, 51271.992, -0.005831942, -0.4032972, -1854353.0, -243573.16, 0.000002343361, 9.995116, 10.000684 
9.4477874e+2, 1.4563444e+2, -2043721.0, -1617093.5, -2371.796, -0.009055644, -0.2811093, -1617080.4, -104318.305, 0.0000000053592455, 9.995728, 10.001383 
9.4481134e+2, 1.5563816e+2, -1751795.8, -1427475.5, -8634.189, 0.23134314, -0.05253534, -1427245.8, -12519.092, 0.0, 9.997062, 10.001369 
9.4484276e+2, 1.6563888e+2, -1633982.4, -1402218.5, 57602.07, 0.2628371, -0.07221024, -1388691.8, -71974.75, 0.0, 9.997555, 10.00063 
9.448734e+2, 1.7563732e+2, -1565761.8, -1321753.0, 74121.02, 0.13449767, -0.29293144, -1301002.4, -82275.2, 0.0, 9.997367, 10.000598 
9.449042e+2, 1.8563633e+2, -1447839.0, -1319489.4, 48877.26, 0.06281457, -0.39800563, -1302995.8, -182260.84, 0.0, 9.997954, 9.999657 
9.449353e+2, 1.9563563e+2, -1178644.5, -1142620.6, 17110.227, 0.03393744, -0.4357893, -1135789.3, -113047.02, 0.0, 9.999145, 9.999624 
9.44967e+2, 2.056355e+2, -1036750.5, -1123690.5, 61031.18, 0.007938353, -0.36041158, -1005290.94, -80544.26, 0.0, 9.999874, 9.998733 
9.449991e+2, 2.1563573e+2, -887218.1, -995415.4, 93161.516, -0.013487582, -0.21333869, -833586.9, -6837.534, 0.0, 10.000206, 9.998779 
9.45031e+2, 2.2563529e+2, -665217.7, -833760.94, 41399.016, 0.027982917, -0.13314438, -655598.0, 73157.82, 0.0, 10.001041, 9.998816 
9.450628e+2, 2.3563421e+2, -388394.16, -649530.6, 14337.727, 0.12088095, -0.12536693, -387609.3, 243157.14, 0.0, 10.00227, 9.998816 
9.450939e+2, 2.4563234e+2, -293370.25, -614060.7, 63807.9, 0.05592188, -0.15981123, -281140.75, 251643.25, 0.0, 10.002509, 9.998272 
9.4512457e+2, 2.5562978e+2, -277723.88, -560449.6, 64059.7, -0.12778758, -0.24386194, -263886.53, 170921.0, 0.0, 10.001963, 9.99823 
9.4515604e+2, 2.6562747e+2, -202816.47, -620324.3, 52036.516, -0.16811955, -0.22666314, -196428.58, 140403.42, 0.000000027783642, 10.002437, 9.996918 
9.4518816e+2, 2.7562517e+2, 89863.266, -417531.13, 93992.76, -0.09780185, -0.15016195, 106715.336, 345573.7, 0.000002328807, 10.003727, 9.997016 
9.4522023e+2, 2.8562185e+2, 376050.94, -122972.03, 75777.8, -0.040293686, -0.22863226, 387304.22, 528192.5, 0.000023751198, 10.00457, 9.997961 
9.4525224e+2, 2.9561776e+2, 531127.5, -12923.75, -4356.747, 0.012027172, -0.4348628, 531162.4, 574083.3, 0.000103127626, 10.00503, 9.997823 
9.4528335e+2, 3.0561575e+2, 565651.5, -240019.28, 14432.231, -0.08055182, -0.28659692, 565909.94, 565909.94, 0.00026897024, 10.006087, 9.995423 
9.453147e+2, 3.156121e+2, 869438.2, 33883.664, 35138.08, -0.16644894, -0.19605705, 870913.25, 870913.25, 0.0005074902, 10.007617, 9.99657 
9.547113e+2, 1.2560035e+2, -2210271.0, -1690739.5, -9276.149, -0.011850207, -0.3218562, -1690573.9, 18515.662, 0.00002677623, 9.995456, 10.002358 
9.5474595e+2, 1.3560392e+2, -2187655.0, -1657566.0, 43096.95, 0.28309992, -0.18383361, -1654085.1, -43031.83, 0.0000047533053, 9.995074, 10.002096 
9.5477647e+2, 1.4560537e+2, -2082422.8, -1685092.0, 49559.5, 0.19364919, -0.17875353, -1679003.6, -165963.98, 0.000000046136613, 9.995672, 10.000944 
9.548054e+2, 1.556044e+2, -1774719.3, -1479923.0, 43226.043, -0.07519205, -0.37548897, -1473715.5, -58663.73, 0.0, 9.997083, 10.0009985 
9.548369e+2, 1.6560511e+2, -1592217.0, -1320730.5, 47818.36, -0.082723975, -0.40922597, -1312554.3, 4490.038, 0.0, 9.997576, 10.001179 
9.548706e+2, 1.7560713e+2, -1533735.9, -1254393.8, 71984.78, 0.1203852, -0.32756707, -1236934.9, -17913.064, 0.0, 9.99736, 10.001065 
9.549032e+2, 1.8560806e+2, -1511562.5, -1447867.9, 92139.93, 0.16774008, -0.21588811, -1382226.6, -261210.89, 0.0, 9.997937, 9.998785 
9.549351e+2, 1.9560803e+2, -1232523.6, -1253221.6, 62174.094, 0.09499774, -0.10025459, -1179843.1, -156819.39, 0.0, 9.999137, 9.998871 
9.549673e+2, 2.0560734e+2, -967394.25, -976741.7, 70054.52, 0.06212587, -0.09806043, -901857.75, 23172.996, 0.0, 9.999859, 9.99975 
9.5500004e+2, 2.1560605e+2, -827010.6, -865114.6, 109167.46, 0.059597936, -0.2048276, -735245.1, 91792.67, 0.0, 10.00018, 9.999688 
9.550316e+2, 2.2560415e+2, -725360.25, -949639.25, 84619.07, -0.020018008, -0.2734046, -697016.1, 32039.66, 0.0, 10.001004, 9.998037 
9.5506227e+2, 2.3560163e+2, -445354.9, -758292.2, 58600.02, -0.1604706, -0.3292528, -434741.53, 196341.8, 0.0, 10.002227, 9.99809 
9.550948e+2, 2.4560012e+2, -288726.16, -596816.44, 41052.934, -0.107281856, -0.30402112, -283349.7, 249749.78, 0.0, 10.002476, 9.998405 
9.5512885e+2, 2.5559926e+2, -264623.2, -532720.94, 49539.785, 0.10177974, -0.23286399, -255761.98, 179345.39, 0.0, 10.00196, 9.998422 
9.5516115e+2, 2.6559803e+2, -121237.81, -452062.2, 98155.2, 0.092283875, -0.17623317, -94307.51, 242812.19, 0.000000030362223, 10.00244, 9.998073 
9.551919e+2, 2.7559638e+2, 153645.56, -280135.72, 140489.88, -0.09554761, -0.1503411, 195171.17, 434307.7, 0.000002140531, 10.003704, 9.997973 
9.552238e+2, 2.855931e+2, 224071.67, -431564.63, 88376.81, -0.13208897, -0.16116068, 235775.53, 376945.94, 0.000025691728, 10.0045395, 9.995855 
9.552567e+2, 2.9558843e+2, 395908.75, -291985.75, 16853.594, -0.043333385, -0.21152471, 396321.4, 439539.5, 0.000113533766, 10.005018, 9.995912 
9.552887e+2, 3.0558556e+2, 637330.0, -77464.12, 71766.68, -0.15081094, -0.11779587, 644464.3, 644464.3, 0.0002945042, 10.006031, 9.996568 
9.5532095e+2, 3.1558123e+2, 938385.8, 216314.3, 93645.016, -0.30325896, -0.21410473, 950332.9, 950332.9, 0.00055298966, 10.007449, 9.997906 
9.647068e+2, 1.2556802e+2, -1915786.8, -1451944.9, -62563.76, -0.0789141, -0.28652686, -1443654.4, 265756.94, 0.000040530904, 9.99706, 10.0032215 
9.6474206e+2, 1.3557231e+2, -1973199.4, -1463985.0, -77853.44, 0.34242058, -0.16004162, -1452348.0, 159014.38, 0.000008656152, 9.996155, 10.002903 
9.647728e+2, 1.4557391e+2, -2039548.0, -1640851.6, -9314.874, 0.2576578, -0.18911788, -1640634.0, -127288.6, 0.00000019058375, 9.99587, 10.001148 
9.6480143e+2, 1.5557256e+2, -1904059.0, -1521221.0, 24880.045, -0.11795072, -0.4430628, -1519610.8, -104249.0, 0.0, 9.996111, 10.001182 
9.6483344e+2, 1.6557363e+2, -1674446.1, -1372263.6, 20725.764, -0.15444025, -0.44454658, -1370848.8, -53495.617, 0.0, 9.997066, 10.001071 
9.648681e+2, 1.7557654e+2, -1355524.9, -1177662.8, -8757.346, 0.078162216, -0.26315296, -1177232.6, 42092.766, 0.0, 9.998625, 10.00098 
9.6490175e+2, 1.8557787e+2, -1255675.5, -1313405.0, 42332.21, 0.1474403, -0.111902595, -1233303.6, -111986.85, 0.0, 9.999645, 9.998886 
9.6493465e+2, 1.9557784e+2, -1070776.6, -1162361.0, 80346.305, 0.09129094, -0.0045384536, -1024089.3, -764.90344, 0.0, 10.000194, 9.998985 
9.6496737e+2, 2.0557691e+2, -888764.75, -911220.4, 63569.293, 0.060876023, -0.046110522, -835439.3, 89892.93, 0.0, 10.000289, 9.9999895 
9.65e+2, 2.1557513e+2, -832251.0, -843810.25, 40224.38, 0.050241478, -0.22334944, -797393.1, 29948.014, 0.0, 10.000046, 9.999898 
9.650319e+2, 2.2557318e+2, -822125.75, -1008178.1, 56376.97, -0.046599623, -0.29891685, -806375.9, -77017.08, 0.0, 10.000387, 9.997935 
9.650634e+2, 2.3557101e+2, -605009.5, -845842.75, 73701.54, -0.20788, -0.31243286, -584245.1, 47139.03, 0.0, 10.001176, 9.997995 
9.650967e+2, 2.4556942e+2, -360500.22, -652005.94, 41721.53, -0.13807724, -0.27821577, -354646.4, 178754.86, 0.0, 10.002074, 9.998219 
9.6513146e+2, 2.5556824e+2, -116029.164, -481933.5, 23223.984, 0.11610401, -0.22327925, -114561.03, 320851.75, 0.0, 10.003076, 9.998231 
9.6516436e+2, 2.6556695e+2, 54791.17, -384662.75, 31979.38, 0.117184795, -0.15224743, 57106.14, 394531.75, 0.000000012060779, 10.003732, 9.997912 
9.651958e+2, 2.755655e+2, 195791.98, -280285.16, -24738.484, -0.085849255, -0.087290265, 197074.02, 436514.56, 0.0000023356106, 10.0040865, 9.997786 
9.652284e+2, 2.8556207e+2, 206885.67, -515784.9, -61882.492, -0.1336233, -0.064565346, 212146.39, 353623.84, 0.0000285896, 10.004744, 9.99518 
9.652619e+2, 2.955571e+2, 444520.78, -337523.94, -40033.844, -0.051393535, -0.083149135, 446564.8, 490096.44, 0.00012379754, 10.005651, 9.995294 
9.652945e+2, 3.0555364e+2, 563977.3, -89059.25, 5742.9106, -0.13211392, -0.029773364, 564027.8, 564027.8, 0.0003176887, 10.0054245, 9.996778 
9.6532744e+2, 3.1554902e+2, 493683.66, 48541.617, -44069.066, -0.22563098, -0.17460567, 498004.56, 498004.56, 0.00059553643, 10.004196, 9.998312 
9.747041e+2, 1.2553613e+2, -1895341.1, -1428732.6, -91275.27, -0.062605835, -0.15166289, -1411513.4, 298215.72, 0.000058506626, 9.997136, 10.003346 
9.7473615e+2, 1.3553728e+2, -1952910.4, -1436635.4, -110572.54, 0.13002667, -0.3503628, -1413950.4, 197758.98, 0.00001444443, 9.996215, 10.003062 
9.747675e+2, 1.455399e+2, -1975454.4, -1516486.5, -4653.444, 0.14125378, -0.3280178, -1516439.4, -2757.999, 0.0000005546723, 9.995903, 10.001989 
9.7479975e+2, 1.5554284e+2, -1851058.6, -1410934.0, 37183.17, 0.10238915, -0.2386194, -1407814.8, 7840.7383, 0.0, 9.996106, 10.001943 
9.748326e+2, 1.655447e+2, -1730919.5, -1488769.4, 78128.43, 0.051375728, -0.15317053, -1465749.9, -148108.78, 0.0, 9.997062, 10.000273 
9.748659e+2, 1.7554562e+2, -1400484.9, -1277655.5, 49952.086, -0.008216926, -0.08970664, -1259905.9, -40268.87, 0.0, 9.998651, 10.000283 
9.7489965e+2, 1.8554571e+2, -1174856.8, -1148446.5, 59842.49, -0.02320917, -0.088965766, -1100369.5, 21268.723, 0.0, 9.999657, 10.000013 
9.749339e+2, 1.9554509e+2, -999184.3, -1013127.06, 100910.36, 0.0020595146, -0.15624408, -905004.8, 118639.52, 0.0, 10.000189, 10.000012 
9.7496694e+2, 2.055442e+2, -929998.7, -995958.2, 51703.23, -0.015200338, -0.20949614, -901652.4, 23998.582, 0.0, 10.000282, 9.999412 
9.7499883e+2, 2.1554302e+2, -870910.9, -920333.25, 34773.977, -0.06537423, -0.27037743, -852962.1, -25303.0, 0.0, 10.000027, 9.999384 
9.7503203e+2, 2.2554246e+2, -786055.94, -927964.7, 83286.41, -0.075609356, -0.21395133, -747597.56, -17932.807, 0.0, 10.000364, 9.998496 
9.750662e+2, 2.355423e+2, -573282.1, -774522.94, 104982.5, -0.04910288, -0.08153056, -528486.6, 103182.5, 0.0, 10.001153, 9.998495 
9.750996e+2, 2.4554032e+2, -397936.4, -727463.6, 76075.125, -0.05567656, -0.083295934, -381221.44, 152467.84, 0.0, 10.002062, 9.997707 
9.7513247e+2, 2.5553674e+2, -157274.8, -563805.25, 61093.766, -0.09158227, -0.21472272, -148292.06, 287431.3, 0.0, 10.003057, 9.99768 
9.751659e+2, 2.655343e+2, -45877.613, -590920.3, 44495.793, -0.10364203, -0.15897141, -42268.992, 295480.06, 0.0000000034767167, 10.003719, 9.996501 
9.751998e+2, 2.7553272e+2, 106937.44, -467190.3, -5443.902, -0.09238125, 0.03078735, 106989.055, 346757.94, 0.0000028249754, 10.004096, 9.996497 
9.752338e+2, 2.855291e+2, 251187.25, -425557.8, -26260.242, -0.06895914, 0.06378812, 252204.72, 394011.9, 0.000031665713, 10.00475, 9.995798 
9.752677e+2, 2.9552385e+2, 477387.5, -263220.78, -3336.8098, -0.03726193, -0.04281648, 477402.53, 521263.25, 0.00013345787, 10.00562, 9.995822 
9.7530067e+2, 3.0552003e+2, 518199.38, -179814.98, -37921.65, -0.056165148, -0.019617286, 520253.53, 520253.53, 0.0003395966, 10.005411, 9.996159 
9.753339e+2, 3.1551537e+2, 477747.06, -5438.1416, -79307.17, -0.00030070668, -0.103315465, 490431.1, 490431.1, 0.0006354105, 10.00429, 9.997894 
9.847008e+2, 1.2550436e+2, -2361896.5, -1715597.3, 50556.3, 0.043032248, -0.1490477, -1711666.4, -1627.0482, 0.00008108169, 9.994206, 10.002787 
9.847313e+2, 1.3550457e+2, -2067847.6, -1549062.0, -38742.855, 0.05555848, -0.38738635, -1546184.6, 65847.76, 0.000022462764, 9.995676, 10.002548 
9.8476326e+2, 1.4550753e+2, -1846764.9, -1433026.9, 28041.174, 0.090838075, -0.31932667, -1431135.1, 82867.4, 0.0000013019285, 9.9966955, 10.002178 
9.847975e+2, 1.5551169e+2, -1647367.0, -1291619.9, 16808.691, 0.20767722, -0.12559997, -1290827.5, 125136.516, 0.0, 9.997416, 10.002128 
9.848312e+2, 1.6551349e+2, -1630102.0, -1449018.3, 83293.63, 0.18264605, -0.05086931, -1416533.1, -98583.45, 0.0, 9.997793, 10.000194 
9.8486465e+2, 1.7551331e+2, -1521985.1, -1339298.1, 105804.5, 0.05009283, -0.08993193, -1290862.5, -70906.79, 0.0, 9.997834, 10.000252 
9.8489875e+2, 1.8551315e+2, -1351114.0, -1166566.0, 113226.22, -0.0028842604, -0.14490086, -1112776.0, 9181.541, 0.0, 9.998157, 10.000612 
9.849334e+2, 1.9551295e+2, -1175322.3, -1036623.94, 110390.4, 0.0067042173, -0.22786526, -975606.94, 48349.855, 0.0, 9.9987135, 10.000563 
9.849668e+2, 2.0551257e+2, -989385.3, -1065429.1, 67372.484, -0.0357888, -0.2379934, -950046.3, -24086.766, 0.0, 10.000044, 9.999054 
9.8499924e+2, 2.1551193e+2, -607918.5, -830185.0, 62613.82, -0.11808203, -0.21018389, -591493.6, 236472.61, 0.0, 10.00199, 9.999055 
9.850332e+2, 2.2551128e+2, -440417.2, -781974.4, 75181.68, -0.11245027, -0.137676, -424601.0, 305372.78, 0.0, 10.00283, 9.998311 
9.850682e+2, 2.3551051e+2, -354666.38, -690959.6, 38632.555, -0.032882582, -0.046912093, -350285.44, 281697.53, 0.0, 10.00275, 9.998301 
9.851021e+2, 2.4550821e+2, -248496.9, -679206.94, 21982.479, -0.06032339, -0.05880866, -247377.88, 286627.63, 0.0, 10.003197, 9.997492 
9.851351e+2, 2.5550455e+2, -23641.979, -524042.34, 21220.068, -0.17737769, -0.17486899, -22743.729, 413296.16, 0.0, 10.004083, 9.997458 
9.851692e+2, 2.6550135e+2, 112282.59, -549707.0, 48976.008, -0.19802275, -0.171098, 115886.37, 453958.5, 0.00000001775074, 10.004956, 9.996189 
9.852043e+2, 2.7549842e+2, 338094.88, -384476.2, 71719.75, -0.13578574, -0.084883794, 345144.72, 585247.94, 0.0000034646175, 10.005812, 9.996239 
9.8523897e+2, 2.854948e+2, 471469.06, -256762.05, 72254.47, -0.08151045, -0.06953846, 478568.88, 620708.2, 0.000033823046, 10.005996, 9.996359 
9.852732e+2, 2.9549065e+2, 508479.47, -194546.27, 88084.09, -0.035475817, -0.1222531, 519347.75, 563527.5, 0.00014065419, 10.005604, 9.996303 
9.853066e+2, 3.054868e+2, 609969.7, -247637.89, 52832.92, -0.048910603, -0.07156526, 613212.25, 613212.25, 0.0003587331, 10.006519, 9.995162 
9.8534036e+2, 3.15482e+2, 1026105.1, 159660.77, -26163.701, 0.0018248146, -0.07241146, 1026894.5, 1026894.5, 0.0006714755, 10.008484, 9.997016 
9.9469656e+2, 1.2547284e+2, -2467585.0, -1919072.9, 118244.83, 0.19718055, -0.3000644, -1894668.3, -184328.03, 0.000108580556, 9.994143, 10.001422 
9.947276e+2, 1.3547456e+2, -2159209.5, -1735894.6, 19975.133, 0.119094834, -0.25556138, -1734954.1, -122626.445, 0.000033028722, 9.995666, 10.001272 
9.9476004e+2, 1.4547707e+2, -1879137.0, -1508825.9, 54754.574, 0.09597698, -0.1438163, -1500899.4, 13406.577, 0.0000026281716, 9.996727, 10.001645 
9.9479455e+2, 1.554791e+2, -1672272.6, -1355825.8, 45753.28, 0.16776095, -0.10904338, -1349343.4, 66943.984, 0.00000000019976186, 9.997464, 10.001665 
9.948293e+2, 1.6547988e+2, -1578658.6, -1346270.5, 81558.195, 0.21097517, -0.15282339, -1320504.0, -2224.4126, 0.0, 9.997811, 10.000888 
9.948644e+2, 1.7547953e+2, -1474926.4, -1243282.0, 109786.375, 0.23973653, -0.27796164, -1199517.8, 20763.564, 0.0, 9.99784, 10.000909 
9.9489886e+2, 1.8548018e+2, -1350807.9, -1162486.0, 132105.2, 0.19643097, -0.28750214, -1094418.5, 27855.965, 0.0, 9.99814, 10.0006485 
9.949329e+2, 1.9548152e+2, -1175005.4, -1033149.8, 135431.69, 0.08981038, -0.22023718, -951196.94, 73064.44, 0.0, 9.998698, 10.000595 
9.94967e+2, 2.054821e+2, -1001974.9, -1083818.1, 137512.16, -0.019133443, -0.129946, -899424.6, 26832.766, 0.0, 10.000011, 9.998942 
9.9500114e+2, 2.1548194e+2, -623299.2, -853980.1, 133527.39, -0.12536798, -0.042410403, -562194.25, 266067.84, 0.0, 10.001954, 9.998911 
9.950354e+2, 2.2547977e+2, -510165.28, -917923.8, 69216.82, -0.17244019, -0.067186, -498736.13, 231549.05, 0.0, 10.002791, 9.997396 
9.950695e+2, 2.3547581e+2, -419115.53, -819088.6, 38942.145, -0.17111394, -0.20294751, -415359.34, 216965.03, 0.0, 10.002725, 9.997435 
9.951042e+2, 2.4547324e+2, -249653.4, -675926.56, 53769.58, -0.17071576, -0.20318033, -242975.6, 291373.38, 0.0, 10.003171, 9.997527 
9.9513924e+2, 2.5547174e+2, -22808.205, -516556.88, 57817.613, -0.16873783, -0.10830968, -16128.179, 420234.03, 0.0, 10.004055, 9.997525 
9.9517417e+2, 2.6546815e+2, 153731.52, -452997.88, 79828.23, -0.19193293, -0.18131746, 164058.83, 502453.2, 0.000000028383612, 10.0049095, 9.996877 
9.952091e+2, 2.754627e+2, 374136.94, -292900.13, 103714.18, -0.23547615, -0.41525358, 389890.84, 630334.1, 0.000003553966, 10.005736, 9.996906 
9.952439e+2, 2.854592e+2, 498124.28, -184738.14, 54472.07, -0.18753678, -0.4468748, 502442.22, 644916.7, 0.00003392817, 10.005925, 9.996886 
9.9527854e+2, 2.954574e+2, 540382.94, -127607.5, 77554.22, -0.061970394, -0.31964588, 549268.9, 593759.56, 0.00014337078, 10.005601, 9.996763 
9.9531245e+2, 3.0545393e+2, 508332.53, -450566.34, 122824.74, -0.11568571, -0.18254876, 523815.1, 523815.1, 0.00037046048, 10.006482, 9.993788 
9.9534655e+2, 3.1544864e+2, 906339.9, -45096.684, 53363.418, -0.22956963, -0.09385526, 909323.5, 909323.5, 0.0006975787, 10.008291, 9.995703 
1.0046926e+3, 1.2544152e+2, -2044064.1, -1772218.4, 99485.98, 0.2462804, -0.34810317, -1739699.9, -29056.012, 0.00014134821, 9.997297, 10.000907 
1.0047238e+3, 1.3544361e+2, -1983051.6, -1705478.3, 47544.273, 0.112987265, -0.2184925, -1697560.4, -84931.15, 0.000046426092, 9.997113, 10.00078 
1.0047567e+3, 1.4544544e+2, -1887995.0, -1599234.9, 96137.94, 0.07711042, -0.11126056, -1570155.8, -55539.84, 0.00000474816, 9.997044, 10.000869 
1.0047913e+3, 1.5544592e+2, -1786013.9, -1493763.8, 60097.234, 0.12742856, -0.15517044, -1481888.1, -65273.8, 0.000000004412824, 9.9970455, 10.00092 
1.0048265e+3, 1.654463e+2, -1560665.1, -1312032.8, 84136.484, 0.16147713, -0.21454807, -1286237.4, 32372.473, 0.0, 9.997821, 10.0011215 
1.00486234e+3, 1.7544658e+2, -1252105.6, -1112976.5, 72906.71, 0.18808644, -0.30036992, -1081771.0, 138832.23, 0.0, 9.99927, 10.001114 
1.0048974e+3, 1.854474e+2, -1100635.6, -1108697.1, 47216.918, 0.15166901, -0.27004856, -1057277.8, 65317.586, 0.0, 10.000147, 10.000051 
1.00493215e+3, 1.9544852e+2, -954915.6, -990301.75, -2124.4204, 0.06126437, -0.16221777, -954788.56, 69798.95, 0.0, 10.000486, 10.000026 
1.0049672e+3, 2.0544891e+2, -927346.8, -1038232.3, 3237.2998, -0.018138453, -0.0666256, -927252.4, -665.9432, 0.0, 10.000487, 9.999023 
1.00500256e+3, 2.1544859e+2, -877663.7, -965781.44, 8317.928, -0.08355512, -0.0012994085, -876885.4, -48293.754, 0.0, 10.000167, 9.9990015 
1.0050375e+3, 2.2544627e+2, -759148.2, -1007024.94, 3090.3723, -0.13693058, -0.058050785, -759109.7, -28495.27, 0.0, 10.000949, 9.997671 
1.0050721e+3, 2.3544219e+2, -413202.72, -786491.94, 56048.816, -0.1813161, -0.23590246, -404968.7, 227684.0, 0.0, 10.002638, 9.997698 
1.0051074e+3, 2.4543962e+2, -212720.86, -668765.06, 97375.94, -0.17739756, -0.24235275, -192799.11, 341877.16, 0.0, 10.003468, 9.997435 
1.0051434e+3, 2.554383e+2, -102737.17, -561250.8, 87747.98, -0.12873045, -0.12161439, -86518.13, 350170.06, 0.0, 10.00354, 9.997462 
1.0051789e+3, 2.6543492e+2, -5193.0366, -506000.13, 92830.37, -0.14620124, -0.18096197, 11460.364, 350178.13, 0.000000015092224, 10.003719, 9.997084 
1.005214e+3, 2.7542973e+2, 127816.92, -392724.03, 77947.31, -0.22098546, -0.41053155, 139238.38, 380001.63, 0.0000030175775, 10.003965, 9.99707 
1.0052491e+3, 2.8542596e+2, 283947.56, -358937.8, -28742.414, -0.19232926, -0.44199097, 285230.03, 428027.56, 0.000032670778, 10.004759, 9.99625 
1.0052842e+3, 2.9542345e+2, 553525.1, -186571.05, -93967.375, -0.0703146, -0.3199995, 565269.5, 610092.1, 0.00014379807, 10.005976, 9.996175 
1.0053189e+3, 3.0541927e+2, 489414.3, -405522.9, -13316.514, -0.089877225, -0.24567087, 489612.44, 489612.44, 0.0003778857, 10.00612, 9.994268 
1.0053541e+3, 3.154141e+2, 506850.9, -184945.88, 38077.79, -0.14210762, -0.19862358, 508940.47, 508940.47, 0.00071703375, 10.005313, 9.99617 
1.0146888e+3, 1.254106e+2, -1995265.1, -1700008.9, 95543.92, 0.12023394, -0.27923834, -1671788.4, 39160.926, 0.0001798155, 9.9974165, 10.001348 
1.0147199e+3, 1.3541177e+2, -1943748.8, -1642537.8, 42649.723, 0.004034498, -0.28939664, -1636615.3, -23678.494, 0.000062927356, 9.997189, 10.001178 
1.01475306e+3, 1.4541264e+2, -1962391.4, -1760713.6, 93891.84, 0.008300773, -0.23723619, -1723769.5, -208837.72, 0.000007860604, 9.997073, 9.999747 
1.0147877e+3, 1.5541212e+2, -1863434.0, -1653314.0, 63217.316, 0.06450428, -0.26824588, -1635760.8, -218816.36, 0.000000028517778, 9.99704, 9.999828 
1.0148228e+3, 1.6541283e+2, -1577185.1, -1348033.5, 137207.31, 0.007807474, -0.23074122, -1283854.0, 35085.516, 0.0, 9.997825, 10.000873 
1.0148583e+3, 1.754145e+2, -1265311.1, -1151661.5, 128061.49, -0.13558248, -0.15201955, -1068383.5, 152536.72, 0.0, 9.999314, 10.000829 
1.0148944e+3, 1.8541487e+2, -1187105.4, -1292043.1, 56310.813, -0.16690807, -0.0860612, -1162607.4, -39688.195, 0.0, 10.000164, 9.998784 
1.014931e+3, 1.95414e+2, -1038381.56, -1164171.3, 10200.611, -0.10208689, -0.0529019, -1037559.75, -12624.754, 0.0, 10.000486, 9.998834 
1.01496726e+3, 2.0541304e+2, -912246.6, -1002151.2, -12535.02, -0.051755775, -0.05016262, -910531.6, 16414.816, 0.0, 10.000466, 9.999282 
1.0150034e+3, 2.1541193e+2, -858194.25, -922852.44, 525.5905, -0.01315314, -0.08985496, -858190.0, -29235.293, 0.0, 10.000153, 9.999305 
1.0150395e+3, 2.254108e+2, -662397.7, -798524.56, 63643.895, -0.0280267, -0.1158179, -637277.56, 93684.086, 0.0, 10.0009165, 9.999116 
1.0150756e+3, 2.3540959e+2, -321133.06, -588344.7, 118273.47, -0.08702654, -0.15136167, -276303.7, 356664.7, 0.0, 10.002606, 9.999074 
1.0151116e+3, 2.4540739e+2, -233944.27, -702754.56, 95740.14, -0.09988775, -0.176787, -215146.05, 319841.34, 0.0, 10.003425, 9.997222 
1.0151474e+3, 2.5540426e+2, -121814.54, -595722.8, 91027.09, -0.07496198, -0.21475467, -104931.734, 332086.22, 0.0, 10.003514, 9.997239 
1.01518326e+3, 2.6540157e+2, -25181.111, -541220.75, 99334.11, -0.08421025, -0.18135642, -6720.3857, 332323.0, 0.000000007760538, 10.003694, 9.996854 
1.01521894e+3, 2.753992e+2, 111001.36, -432348.4, 90093.66, -0.122142784, -0.104788885, 125550.35, 366615.47, 0.0000024806773, 10.003983, 9.99679 
1.0152545e+3, 2.8539497e+2, 163092.23, -610432.5, 14820.501, -0.12071709, -0.08636879, 163376.1, 306485.06, 0.000030964646, 10.004763, 9.994521 
1.01529e+3, 2.9538897e+2, 435717.84, -421133.13, -45098.67, -0.08181524, -0.13477162, 438084.97, 483257.6, 0.00014375648, 10.005929, 9.994588 
1.01532586e+3, 3.0538318e+2, 631722.94, -97379.234, -39330.234, -0.0074675884, -0.26022118, 633838.4, 633838.4, 0.00038486818, 10.006068, 9.996409 
1.0153627e+3, 3.1537837e+2, 646422.6, 110375.68, 17326.01, 0.1794708, -0.38894165, 646982.0, 646982.0, 0.0007355568, 10.005292, 9.998211 
1.0246849e+3, 1.253779e+2, -2216844.8, -1751914.4, -43577.996, 0.08820208, -0.15900043, -1747865.0, -36588.51, 0.00022439056, 9.995659, 10.001838 
1.0247174e+3, 1.353784e+2, -1920384.6, -1575827.3, -110384.61, 0.039063852, -0.2867803, -1543497.3, 69769.09, 0.0000828242, 9.997106, 10.001677 
1.0247511e+3, 1.4537913e+2, -1808054.8, -1688340.8, -16407.158, 0.06481194, -0.27079898, -1686132.8, -170872.38, 0.000012107546, 9.998138, 9.999731 
1.0247853e+3, 1.55379e+2, -1602654.3, -1530660.6, 34385.996, 0.030479984, -0.26118705, -1516876.3, -99607.81, 0.00000009714164, 9.998841, 9.999801 
1.0248206e+3, 1.6537975e+2, -1412657.3, -1328058.3, 159289.86, -0.05675885, -0.1899152, -1205547.3, 113716.5, 0.0, 9.999209, 10.000343 
1.0248572e+3, 1.7538118e+2, -1310213.1, -1231766.4, 121214.06, -0.1709662, -0.08242597, -1143587.5, 77660.984, 0.0, 9.999259, 10.000307 
1.0248939e+3, 1.8538097e+2, -1305742.1, -1385464.5, 66427.87, -0.19609047, -0.031189494, -1268133.5, -144879.86, 0.0, 9.999504, 9.998461 
1.02493055e+3, 1.9537926e+2, -1143170.3, -1247249.3, 88496.3, -0.15074414, -0.04973187, -1092546.8, -67269.72, 0.0, 9.999912, 9.998538 
1.0249674e+3, 2.0537777e+2, -830898.0, -950160.94, 107673.336, -0.096778326, -0.09088398, -767446.3, 159845.4, 0.0, 10.000968, 9.999398 
1.0250045e+3, 2.1537642e+2, -498809.56, -738781.06, 105376.98, -0.033478294, -0.16721217, -459105.34, 370194.3, 0.0, 10.002574, 9.999403 
1.0250415e+3, 2.2537544e+2, -355713.63, -681341.94, 100442.55, -0.028615668, -0.17046528, -327223.94, 404081.38, 0.0, 10.003153, 9.998845 
1.0250784e+3, 2.353747e+2, -310305.06, -611329.2, 22181.002, -0.06966982, -0.12946528, -308679.44, 324630.53, 0.0, 10.002806, 9.998818 
1.0251149e+3, 2.4537253e+2, -295387.2, -713746.25, -53754.223, -0.07588423, -0.14791724, -288590.8, 246738.44, 0.0, 10.00293, 9.99738 
1.025151e+3, 2.55369e+2, -120842.695, -581090.94, -37648.19, -0.05513149, -0.2368588, -117783.414, 319578.63, 0.0, 10.003462, 9.997364 
1.0251872e+3, 2.653662e+2, 39803.98, -558619.56, -4673.394, -0.069293074, -0.19840509, 39840.477, 379230.1, 0.000000007856636, 10.004343, 9.996425 
1.0252237e+3, 2.7536395e+2, 301191.97, -383707.22, -32254.297, -0.10964865, -0.06720695, 302707.56, 544120.8, 0.0000019531917, 10.005479, 9.996403 
1.0252599e+3, 2.8535986e+2, 352445.72, -500703.97, -47456.02, -0.111675404, -0.01964103, 355077.3, 498534.03, 0.000028742243, 10.005985, 9.994684 
1.0252959e+3, 2.9535422e+2, 447709.66, -393374.7, 18394.846, -0.07853425, -0.0558607, 448111.78, 493629.25, 0.00014213606, 10.005923, 9.994777 
1.0253319e+3, 3.053485e+2, 665651.5, -20125.85, 3617.0256, 0.007183366, -0.20958266, 665670.56, 665670.56, 0.00038960745, 10.006038, 9.996957 
1.0253688e+3, 3.1534418e+2, 808387.44, 238326.78, -56600.133, 0.2201492, -0.3434201, 813952.8, 813952.8, 0.0007518655, 10.006198, 9.998653 
1.0346809e+3, 1.2534334e+2, -2185541.8, -1680952.9, 6896.127, 0.11308935, 0.020250347, -1680858.6, 30768.068, 0.00027553758, 9.995634, 10.0023365 
1.0347162e+3, 1.3534348e+2, -1881773.3, -1493157.1, -59570.62, 0.2148868, -0.1965816, -1484230.6, 129388.1, 0.000106410545, 9.997096, 10.00225 
1.034751e+3, 1.4534494e+2, -1717048.9, -1508824.0, 6026.3716, 0.23649164, -0.19597258, -1508649.8, 6951.904, 0.000017580353, 9.998175, 10.000947 
1.03478394e+3, 1.5534663e+2, -1511259.1, -1357533.4, 62705.227, 0.005879354, -0.12861438, -1335200.3, 82385.625, 0.00000023822265, 9.99891, 10.000957 
1.0348199e+3, 1.6534716e+2, -1464719.0, -1449787.3, 157243.98, -0.046206474, -0.09053983, -1299832.0, 19749.42, 0.0, 9.999264, 9.999483 
1.034859e+3, 1.7534658e+2, -1363952.1, -1348941.5, 124402.5, 0.078415684, -0.09671313, -1231818.1, -10230.451, 0.0, 9.999277, 9.999496 
1.03489585e+3, 1.8534563e+2, -1263414.8, -1293547.8, 79065.73, 0.056753308, -0.112920195, -1197992.8, -74394.56, 0.0, 9.999489, 9.999098 
1.034931e+3, 1.9534431e+2, -1102479.3, -1160116.1, 106833.305, -0.09857176, -0.1593522, -1020645.7, 4967.428, 0.0, 9.999898, 9.999143 
1.0349677e+3, 2.0534317e+2, -836696.7, -955974.8, 164705.97, -0.16990967, -0.19385087, -721164.8, 206457.14, 0.0, 10.00094, 9.999372 
1.03500575e+3, 2.1534212e+2, -509624.88, -754691.4, 165171.14, -0.1634768, -0.23811674, -426498.44, 403127.88, 0.0, 10.0025425, 9.9993105 
1.0350433e+3, 2.2534026e+2, -499434.94, -970256.5, 84001.125, -0.15619151, -0.2227476, -484896.88, 246747.88, 0.0, 10.003113, 9.996881 
1.0350805e+3, 2.3533764e+2, -446208.78, -887412.25, 13042.1, -0.14864221, -0.17203699, -445823.56, 187852.53, 0.0, 10.002777, 9.996937 
1.0351173e+3, 2.4533515e+2, -265515.84, -646079.0, -34621.348, -0.12591885, -0.1579444, -262391.84, 273308.78, 0.0, 10.002902, 9.997859 
1.0351542e+3, 2.5533262e+2, -88033.2, -515770.34, -12727.731, -0.08657419, -0.19650589, -87654.81, 350065.1, 0.0, 10.0034685, 9.997811 
1.0351912e+3, 2.65329e+2, -6469.9634, -650521.5, 38155.82, -0.113344766, -0.22759095, -4217.3604, 335537.2, 0.0000000019051263, 10.004325, 9.995803 
1.0352283e+3, 2.7532434e+2, 253212.08, -468000.22, 15775.369, -0.19672272, -0.2758954, 253556.97, 495360.78, 0.0000015560943, 10.005408, 9.995861 
1.0352651e+3, 2.8532103e+2, 470276.75, -234145.02, -47413.21, -0.18316393, -0.22064267, 473453.72, 617292.06, 0.000026639833, 10.005893, 9.996557 
1.03530176e+3, 2.9531896e+2, 568007.5, -136862.5, 22141.127, -0.082884595, -0.084794216, 568702.3, 614561.75, 0.00013866586, 10.005891, 9.996556 
1.0353373e+3, 3.0531493e+2, 601887.06, -146588.67, 10304.801, -0.054181967, -0.110738955, 602028.9, 602028.9, 0.00038985978, 10.006017, 9.996095 
1.03537254e+3, 3.1531116e+2, 734159.94, 90675.33, -43139.016, -0.023273265, -0.10209476, 737039.06, 737039.06, 0.00076079235, 10.006169, 9.997652 
1.0446771e+3, 1.2530789e+2, -2147241.5, -1664371.9, 123883.69, 0.16382705, 0.009783742, -1634443.6, 77531.2, 0.0003338259, 9.995902, 10.002321 
1.04471266e+3, 1.3530841e+2, -2086298.4, -1587746.0, 8677.353, 0.22340742, -0.17241488, -1587595.0, 26369.295, 0.00013404706, 9.995672, 10.002287 
1.04474865e+3, 1.453101e+2, -1914204.3, -1586998.1, 48124.34, 0.2584588, -0.16077039, -1580067.0, -64122.285, 0.000024406929, 9.996753, 10.001095 
1.0447827e+3, 1.5531199e+2, -1492585.8, -1335181.4, 12302.343, 0.004736472, -0.086020395, -1334225.6, 83699.69, 0.0000004785213, 9.99898, 10.001078 
1.0448194e+3, 1.653121e+2, -1443724.5, -1470591.4, 24371.814, -0.030791067, -0.07765242, -1429329.1, -109404.79, 0.0, 9.999549, 9.999199 
1.04485855e+3, 1.7531064e+2, -1471151.4, -1428308.9, 32715.8, 0.14604335, -0.14537367, -1410625.3, -188685.31, 0.0, 9.998668, 9.99924 
1.0448959e+3, 1.8530951e+2, -1286545.3, -1254680.4, 56825.957, 0.13547075, -0.19122982, -1211595.6, -87645.17, 0.0, 9.999111, 9.999546 
1.0449318e+3, 1.9530864e+2, -956690.6, -1043544.4, 65570.945, -0.044434506, -0.23431472, -921469.9, 104486.95, 0.0, 10.000699, 9.9995575 
1.0449689e+3, 2.0530768e+2, -805675.75, -1009626.06, 90600.12, -0.16123311, -0.23776887, -771242.3, 156721.98, 0.0, 10.00145, 9.998756 
1.0450071e+3, 2.1530652e+2, -712989.56, -917569.4, 40158.91, -0.21706615, -0.22965784, -705388.8, 124585.086, 0.0, 10.001429, 9.998725 
1.0450452e+3, 2.253044e+2, -672243.8, -1058572.6, 1368.192, -0.21717566, -0.20918928, -672238.94, 59757.402, 0.0, 10.001946, 9.996836 
1.045083e+3, 2.3530139e+2, -424150.47, -882334.8, 66993.11, -0.16997571, -0.19361673, -414556.03, 219474.47, 0.0, 10.002951, 9.996889 
1.0451205e+3, 2.4529871e+2, -156060.8, -619002.06, 72372.914, -0.13506648, -0.18426777, -145010.3, 391046.5, 0.0, 10.003758, 9.997635 
1.0451577e+3, 2.552962e+2, 27900.154, -479872.16, 38477.984, -0.10816518, -0.200491, 30799.387, 468876.3, 0.0, 10.004356, 9.997626 
1.04519546e+3, 2.6529253e+2, 37766.156, -588788.75, 97597.48, -0.11300386, -0.25009817, 52616.77, 392728.7, 0.000000000078032865, 10.00446, 9.996158 
1.0452335e+3, 2.7528766e+2, 90813.83, -505548.72, 139396.88, -0.1462361, -0.35093886, 121788.38, 363949.3, 0.0000015050709, 10.00412, 9.996219 
1.0452708e+3, 2.8528464e+2, 296775.0, -262237.5, 66075.24, -0.1386246, -0.31182188, 304478.9, 448669.78, 0.000024906392, 10.004455, 9.997061 
1.0453072e+3, 2.9528326e+2, 517116.66, -108779.17, 34166.94, -0.08882077, -0.15993688, 518976.25, 565179.94, 0.00013373572, 10.005315, 9.9970255 
1.045343e+3, 3.0527928e+2, 581006.1, -237172.2, -8698.261, -0.08812845, -0.165963, 581098.56, 581098.56, 0.0003839526, 10.006219, 9.995377 
1.0453787e+3, 3.1527546e+2, 815808.94, 38459.535, -58292.973, -0.069411084, -0.09082456, 820156.0, 820156.0, 0.0007558567, 10.007128, 9.996831 
1.05467334e+3, 1.2527166e+2, -2183756.8, -1747972.8, 111961.805, 0.19294949, -0.21403332, -1720890.5, -8571.89, 0.00039971265, 9.995936, 10.001731 
1.0547063e+3, 1.3527332e+2, -2128219.0, -1671805.1, 6019.783, 0.023982247, -0.22727476, -1671725.8, -57424.816, 0.00016604259, 9.995658, 10.0017185 
1.0547437e+3, 1.4527465e+2, -1989538.3, -1741396.6, 131450.08, 0.09148354, -0.16891219, -1684711.5, -168423.27, 0.000032768716, 9.996739, 10.000044 
1.05478175e+3, 1.5527509e+2, -1563884.3, -1484349.0, 94124.195, 0.0055579427, -0.1347248, -1421936.3, -3649.5767, 0.0000008393984, 9.9989805, 10.000055 
1.054819e+3, 1.6527459e+2, -1421948.5, -1427238.3, -12479.501, -0.032348584, -0.15158279, -1411836.6, -91544.14, 0.0, 9.999557, 9.999492 
1.0548557e+3, 1.7527327e+2, -1447720.1, -1384741.8, 3001.322, 0.0010634875, -0.23617318, -1384599.1, -162293.53, 0.0, 9.998687, 9.99953 
1.05489366e+3, 1.8527254e+2, -1268788.8, -1216117.1, 113313.6, 0.009376499, -0.26986453, -1126119.3, -1809.0387, 0.0, 9.999104, 9.999815 
1.0549328e+3, 1.9527231e+2, -943255.4, -1013232.2, 125324.734, -0.011701687, -0.2756357, -848126.6, 178181.0, 0.0, 10.000686, 9.999774 
1.0549709e+3, 2.0527138e+2, -895430.75, -1190034.3, 86438.39, -0.090115406, -0.22355182, -871941.94, 56376.234, 0.0, 10.001426, 9.997529 
1.05500855e+3, 2.1526971e+2, -797045.44, -1086296.9, 42301.703, -0.21491233, -0.14322406, -790985.94, 39355.703, 0.0, 10.001403, 9.997581 
1.05504684e+3, 2.2526792e+2, -549356.6, -795881.9, 36076.637, -0.234581, -0.12866846, -544185.6, 188174.1, 0.0, 10.001911, 9.998655 
1.055086e+3, 2.3526591e+2, -306219.97, -630550.2, 105520.45, -0.15626256, -0.19488956, -274911.3, 359462.3, 0.0, 10.002918, 9.998634 
1.05512425e+3, 2.452632e+2, -224138.0, -749981.25, 90881.38, -0.12507969, -0.22733337, -208874.06, 327524.13, 0.0, 10.003714, 9.9967575 
1.0551619e+3, 2.5525975e+2, -35935.043, -602650.9, 60933.793, -0.13557778, -0.24956614, -29457.428, 408975.7, 0.0, 10.004311, 9.996808 
1.0552001e+3, 2.6525658e+2, 117287.99, -410309.25, 81813.984, -0.09047299, -0.27193892, 129683.58, 470146.56, 0.0000000000003855639, 10.004404, 9.997409 
1.055239e+3, 2.752536e+2, 169056.7, -333857.88, 128244.125, 0.0028976682, -0.31124774, 199871.14, 442359.63, 0.000001333413, 10.004079, 9.997417 
1.0552764e+3, 2.8525048e+2, 237423.38, -372941.22, 94029.99, -0.008958476, -0.30340198, 251580.83, 396098.03, 0.000022674685, 10.0044, 9.996326 
1.0553122e+3, 2.9524714e+2, 459291.4, -218148.98, 68981.76, -0.11312745, -0.27412575, 466244.25, 512793.97, 0.00012732774, 10.005264, 9.996301 
1.05534896e+3, 3.0524176e+2, 529950.2, -328483.63, 24716.375, -0.115880236, -0.35541263, 530661.25, 530661.25, 0.00037267755, 10.006153, 9.994782 
1.0553867e+3, 3.1523728e+2, 754760.56, -67660.79, -12964.666, 0.01315569, -0.28628898, 754964.9, 754964.9, 0.00073916925, 10.007033, 9.99615 
1.0646697e+3, 1.2523498e+2, -2169126.8, -1777155.3, 42372.496, 0.23229079, -0.3461775, -1772627.0, -59956.605, 0.00047318285, 9.996196, 10.001404 
1.0647023e+3, 1.3523725e+2, -1765441.3, -1531686.1, -47108.24, -0.062089097, -0.2653936, -1522549.6, 92099.67, 0.00020250746, 9.998295, 10.001409 
1.0647409e+3, 1.4523824e+2, -1691676.5, -1647534.5, 115855.51, 0.03260087, -0.2047287, -1551666.4, -35024.926, 0.000042863663, 9.9990015, 9.999596 
1.0647804e+3, 1.5523762e+2, -1679373.3, -1587525.4, 118655.945, 0.00826512, -0.23072502, -1506216.3, -87566.07, 0.0000013547858, 9.998401, 9.999623 
1.0648181e+3, 1.6523692e+2, -1489589.3, -1464657.9, 12928.11, -0.04493821, -0.24598889, -1459164.4, -138505.77, 0.0, 9.999115, 9.999449 
1.0648546e+3, 1.7523617e+2, -1109947.6, -1226235.9, -1289.9572, -0.087897256, -0.26837823, -1109933.3, 112733.836, 0.0, 10.00103, 9.999489 
1.0648931e+3, 1.8523575e+2, -914614.6, -1073950.5, 80942.21, -0.08450875, -0.2536192, -880710.44, 243959.27, 0.0, 10.001658, 9.999561 
1.0649331e+3, 1.9523561e+2, -902583.7, -1021136.2, 47846.063, -0.052425604, -0.22461909, -885683.0, 140984.78, 0.0, 10.001084, 9.999527 
1.0649723e+3, 2.0523444e+2, -946929.06, -1230254.4, 29967.07, -0.07672535, -0.17768127, -943794.1, -15112.342, 0.0, 10.001135, 9.9973955 
1.0650107e+3, 2.1523227e+2, -752632.06, -1076625.9, 63776.652, -0.14243309, -0.135002, -740529.94, 90180.78, 0.0, 10.0017605, 9.997473 
1.06504954e+3, 2.2523052e+2, -504707.88, -721182.1, 54088.258, -0.1535132, -0.13446218, -491945.78, 240781.33, 0.0, 10.001991, 9.999131 
1.0650887e+3, 2.3522906e+2, -433185.2, -639876.3, 20813.217, -0.11494822, -0.1931362, -431110.2, 203622.78, 0.0, 10.001827, 9.999095 
1.0651275e+3, 2.4522655e+2, -459924.4, -888621.56, -216.07166, -0.09650729, -0.21560797, -459924.3, 76831.75, 0.0, 10.002208, 9.996529 
1.0651658e+3, 2.5522298e+2, -227023.19, -719445.94, 9290.576, -0.09670172, -0.22612643, -226847.95, 211947.56, 0.0, 10.003107, 9.996585 
1.0652042e+3, 2.652201e+2, -781.79205, -426406.3, -15980.708, -0.061701756, -0.22527726, -182.61604, 340640.84, 0.0, 10.003412, 9.997779 
1.0652426e+3, 2.7521783e+2, 53784.246, -348634.63, -34903.695, 0.006271064, -0.23016754, 56789.168, 299630.28, 0.0000008123776, 10.003111, 9.997784 
1.0652804e+3, 2.8521472e+2, 123614.055, -407827.72, -13580.628, -0.0043603787, -0.2467378, 123960.87, 268829.06, 0.000019173982, 10.003535, 9.996501 
1.0653174e+3, 2.9521075e+2, 382004.8, -234881.77, 19013.234, -0.08479255, -0.2951703, 382590.28, 429494.94, 0.00011790599, 10.004647, 9.996481 
1.06535494e+3, 3.0520517e+2, 432551.97, -360507.56, 21554.063, -0.07813748, -0.41071627, 433137.34, 433137.34, 0.00035557168, 10.005419, 9.994913 
1.0653933e+3, 3.152011e+2, 575297.25, -149419.19, 23419.215, 0.050745495, -0.3117435, 576053.25, 576053.25, 0.0007142478, 10.005777, 9.99619 
1.074666e+3, 1.251979e+2, -2166942.3, -1780230.1, 106541.25, 0.22961317, -0.37652528, -1752820.3, -39789.902, 0.00055371417, 9.996231, 10.001364 
1.0747008e+3, 1.3520029e+2, -1756137.4, -1529754.4, 31311.793, -0.040821604, -0.2808542, -1525503.4, 89505.81, 0.00024334127, 9.998369, 10.001386 
1.0747402e+3, 1.4520088e+2, -1667359.9, -1614853.1, 88276.94, 0.074764244, -0.2683189, -1549008.5, -32004.531, 0.00005483326, 9.999075, 9.999785 
1.0747786e+3, 1.5519956e+2, -1664995.4, -1560409.6, 98228.79, -0.008909803, -0.38233563, -1501421.6, -82405.97, 0.000002073113, 9.99841, 9.999805 
1.07481666e+3, 1.651991e+2, -1516328.3, -1521286.5, 84206.35, -0.091550976, -0.3637357, -1434564.5, -113542.64, 0.0000000000166348, 9.999118, 9.99906 
1.07485525e+3, 1.7519939e+2, -1129878.5, -1281326.0, 72056.44, -0.1357171, -0.2415383, -1101073.8, 121949.74, 0.0, 10.001083, 9.999086 
1.0748939e+3, 1.8519925e+2, -967293.94, -1189286.4, 54977.77, -0.1656986, -0.13960692, -954424.44, 170603.77, 0.0, 10.001686, 9.998755 
1.0749329e+3, 1.9519861e+2, -956595.06, -1132455.0, 26790.82, -0.19160849, -0.07881726, -952604.25, 74432.59, 0.0, 10.00108, 9.998766 
1.07497275e+3, 2.0519692e+2, -882394.75, -1090290.8, 49825.7, -0.14362524, -0.09644205, -871070.1, 57984.48, 0.0, 10.001108, 9.99837 
1.07501365e+3, 2.151942e+2, -690445.94, -943596.7, 88723.13, -0.021070348, -0.20643505, -662447.3, 168633.9, 0.0, 10.001739, 9.9984 
1.0750531e+3, 2.2519225e+2, -566987.8, -842263.9, 44534.773, 0.00398218, -0.22974645, -559962.2, 173136.19, 0.0, 10.001958, 9.998315 
1.0750911e+3, 2.3519096e+2, -490478.56, -754918.25, 16870.979, -0.06291627, -0.18958655, -489406.53, 145700.7, 0.0, 10.001809, 9.998314 
1.0751299e+3, 2.4518883e+2, -438397.7, -840395.5, 31789.963, -0.068892986, -0.15229087, -435899.28, 101229.92, 0.0, 10.00219, 9.996871 
1.0751697e+3, 2.5518584e+2, -207199.63, -674898.75, 45425.69, -0.017299583, -0.13870993, -202828.45, 236335.61, 0.0, 10.003087, 9.996903 
1.07520774e+3, 2.6518306e+2, -34766.1, -492532.44, -27615.986, -0.042589054, -0.11979902, -33106.11, 308086.8, 0.000000000031670343, 10.003393, 9.9973345 
1.07524425e+3, 2.751805e+2, 30424.816, -406302.9, -41645.29, -0.13735946, -0.11357649, 34360.543, 277577.06, 0.0000005600569, 10.003149, 9.997371 
1.0752826e+3, 2.851775e+2, 197827.44, -263731.25, 25593.68, -0.13083506, -0.14571467, 199242.3, 344483.6, 0.000015868249, 10.003577, 9.997472 
1.0753226e+3, 2.951741e+2, 451256.44, -93482.19, 62024.695, -0.033957135, -0.23388052, 458229.38, 505497.1, 0.00010703076, 10.004652, 9.997452 
1.0753612e+3, 3.0516937e+2, 479998.9, -257438.5, 31773.877, -0.00041881972, -0.35015267, 481365.4, 481365.4, 0.00033501192, 10.005401, 9.995629 
1.0753988e+3, 3.1516653e+2, 616177.94, -62371.6, 40607.742, 0.0123835085, -0.19886403, 618599.44, 618599.44, 0.0006854145, 10.005768, 9.996795 
1.08466245e+3, 1.2515932e+2, -2017475.0, -1755677.5, 10905.955, 0.21125865, -0.36793232, -1755224.0, -41815.242, 0.00064071716, 9.997473, 10.00093 
1.0846989e+3, 1.3516162e+2, -1841491.8, -1617992.9, -95238.21, -0.052438185, -0.2349665, -1582915.0, 32476.336, 0.00028839763, 9.997993, 10.000959 
1.0847393e+3, 1.451622e+2, -1661697.1, -1557811.5, -77697.98, 0.08758143, -0.22657068, -1516292.9, 1093.1412, 0.00006873226, 9.998886, 10.000265 
1.08477734e+3, 1.5516113e+2, -1386808.4, -1373915.5, -51745.336, -0.04097024, -0.36044043, -1328216.6, 91175.51, 0.0000030594845, 10.000097, 10.00027 
1.08481616e+3, 1.651608e+2, -1352258.5, -1442215.5, -25109.635, -0.10812204, -0.3491005, -1345724.4, -24328.877, 0.000000000186287, 10.000245, 9.999056 
1.08485594e+3, 1.7516117e+2, -1379308.8, -1403054.5, -14864.485, -0.077589735, -0.220235, -1372157.5, -148760.81, 0.0, 9.999381, 9.999068 
1.084895e+3, 1.8516071e+2, -1327205.1, -1403848.6, -13090.317, -0.095190726, -0.1294552, -1325031.0, -199625.19, 0.0, 9.99939, 9.99839 
1.0849336e+3, 1.9515944e+2, -1108716.0, -1243882.6, -10686.504, -0.16847333, -0.094440736, -1107876.3, -80453.484, 0.0, 10.000204, 9.998421 
1.0849735e+3, 2.0515789e+2, -870574.06, -1017198.3, 36840.734, -0.15972808, -0.10967885, -861838.0, 67600.4, 0.0, 10.000902, 9.998967 
1.0850148e+3, 2.1515605e+2, -692888.06, -881383.56, 41173.535, -0.06972533, -0.19175495, -684286.94, 147166.4, 0.0, 10.0014515, 9.998962 
1.08505465e+3, 2.2515398e+2, -584433.94, -923596.56, -14765.136, -0.036568608, -0.22102444, -583792.4, 149679.86, 0.0, 10.002148, 9.997668 
1.0850934e+3, 2.3515165e+2, -363694.34, -762922.9, -35549.5, -0.054114368, -0.22130755, -360553.53, 274941.9, 0.0, 10.002979, 9.997696 
1.0851328e+3, 2.451496e+2, -231906.73, -664498.5, 507.55472, -0.038544826, -0.17901972, -231906.13, 305610.63, 0.0, 10.003277, 9.997555 
1.085173e+3, 2.5514778e+2, -168084.64, -580127.06, 36296.688, 0.0069751283, -0.11691589, -164911.7, 274625.13, 0.0, 10.003032, 9.997578 
1.0852113e+3, 2.651452e+2, 8565.855, -516172.44, 361.79257, -0.04196422, -0.09165934, 8566.105, 350129.7, 0.000000020287489, 10.003884, 9.996934 
1.0852483e+3, 2.7514184e+2, 381810.13, -282245.28, -15962.356, -0.17771538, -0.12034671, 382193.63, 625790.9, 0.0000009604281, 10.005763, 9.996963 
1.08528696e+3, 2.851388e+2, 581202.3, -93459.32, -11038.272, -0.17140694, -0.13297148, 581382.9, 727008.0, 0.000015063418, 10.006281, 9.997337 
1.08532764e+3, 2.9513597e+2, 559392.6, -52690.457, -58416.52, -0.030473607, -0.1472362, 564917.94, 612565.6, 0.00009980819, 10.005457, 9.99734 
1.0853667e+3, 3.051318e+2, 567308.8, -151414.48, -96902.03, 0.008669087, -0.23369302, 580144.44, 580144.44, 0.00031878852, 10.005724, 9.9962015 
1.08540475e+3, 3.151295e+2, 831140.4, 95763.06, -103089.76, -0.01689427, -0.08780392, 845318.8, 845318.8, 0.00066315616, 10.007014, 9.997277 
1.0946593e+3, 1.2511928e+2, -2069783.9, -1882658.0, 4271.7607, 0.13952738, -0.31315145, -1882560.5, -168754.56, 0.000734217, 9.997549, 10.000024 
1.0946961e+3, 1.3512123e+2, -1904743.8, -1752904.3, -79178.625, -0.12661159, -0.11985429, -1719128.8, -103331.97, 0.00033773432, 9.998004, 10.000031 
1.09473765e+3, 1.451222e+2, -1603906.1, -1440487.6, -36377.48, 0.040456872, -0.06674828, -1432755.6, 85032.8, 0.0000845864, 9.998898, 10.001065 
1.09477684e+3, 1.551224e+2, -1326339.8, -1257928.1, -6232.27, -0.10796236, -0.15164709, -1257365.0, 162414.34, 0.0000043925156, 10.000138, 10.001047 
1.09481625e+3, 1.6512217e+2, -1319718.0, -1384536.8, -63397.25, -0.112098224, -0.19078422, -1280926.4, 40852.504, 0.0000000006358386, 10.000283, 9.999435 
1.0948568e+3, 1.751214e+2, -1350230.8, -1347693.0, -47409.734, 0.07129302, -0.21044195, -1301535.1, -77747.63, 0.0, 9.999394, 9.999447 
1.0948965e+3, 1.8512006e+2, -1324373.1, -1390185.9, 14776.253, 0.11211476, -0.2326433, -1321207.8, -195404.88, 0.0, 9.999361, 9.998496 
1.09493546e+3, 1.951181e+2, -1104026.6, -1229496.6, 22263.203, 0.002726119, -0.27672485, -1100193.4, -72368.055, 0.0, 10.000183, 9.99853 
1.0949746e+3, 2.0511739e+2, -861166.7, -991030.3, 54104.313, -0.13941823, -0.22484563, -841579.75, 88253.33, 0.0, 10.000874, 9.999162 
1.0950138e+3, 2.1511783e+2, -682473.2, -854899.25, 63692.28, -0.3063731, -0.09690552, -661497.6, 170329.39, 0.0, 10.001427, 9.999158 
1.0950542e+3, 2.2511575e+2, -627273.1, -1000680.0, 12905.209, -0.29387897, -0.111423835, -626827.7, 107020.68, 0.0, 10.002096, 9.997163 
1.0950958e+3, 2.3511115e+2, -404165.1, -838090.7, -2871.3389, -0.11079021, -0.28788918, -404146.1, 231750.9, 0.0, 10.002938, 9.9972 
1.09513626e+3, 2.4510887e+2, -166771.94, -518915.34, -11366.931, -0.02710341, -0.2951097, -166405.4, 371513.0, 0.0, 10.003234, 9.998576 
1.09517545e+3, 2.5510883e+2, -97527.08, -431495.1, 28215.959, -0.036849078, -0.15779322, -95159.97, 344753.66, 0.0, 10.003022, 9.998604 
1.09521486e+3, 2.651066e+2, -24455.031, -573995.8, 67432.05, -0.07496392, -0.13297643, -16301.671, 325633.44, 0.00000010014453, 10.003838, 9.99656 
1.0952543e+3, 2.751021e+2, 337928.53, -347190.88, 55270.69, -0.14731209, -0.23779242, 342358.75, 586341.5, 0.0000018001379, 10.005648, 9.9965725 
1.09529346e+3, 2.8509873e+2, 481147.34, -271629.8, -44104.316, -0.1543604, -0.20393427, 483722.56, 629741.6, 0.000016489967, 10.006151, 9.996177 
1.0953324e+3, 2.9509643e+2, 469756.13, -223566.11, -83059.82, -0.08768836, -0.0518665, 479567.8, 527612.2, 0.0000973857, 10.005385, 9.996203 
1.0953717e+3, 3.0509254e+2, 587913.06, -87985.57, -45442.473, -0.062497683, -0.07509972, 590954.56, 590954.56, 0.00030984893, 10.005638, 9.996679 
1.09541126e+3, 3.1509027e+2, 839947.06, 141890.22, -40971.11, -0.07663047, 0.029190248, 842343.5, 842343.5, 0.0006502444, 10.006889, 9.997659 
1.10465564e+3, 1.2507951e+2, -2116266.5, -1894805.3, 3182.0337, 0.0450986, -0.2013629, -1894759.6, -180559.61, 0.00083503575, 9.997187, 10.000113 
1.1046941e+3, 1.3508031e+2, -1830142.9, -1711168.1, 11040.927, -0.1380886, -0.12975414, -1710152.3, -93953.234, 0.0003918232, 9.998485, 10.000089 
1.1047369e+3, 1.4508092e+2, -1606765.1, -1460431.6, 43442.49, 0.08081862, -0.106856845, -1448506.5, 69687.414, 0.000102570426, 9.9989605, 10.000896 
1.104776e+3, 1.5508172e+2, -1577666.5, -1396970.5, -7838.5547, -0.115526676, -0.1154929, -1396631.0, 23550.66, 0.0000061708192, 9.998494, 10.000882 
1.1048155e+3, 1.6508168e+2, -1487872.1, -1424032.5, -103527.44, -0.14456598, -0.14431597, -1347615.8, -25436.146, 0.0000000015512864, 9.998957, 9.999803 
1.1048562e+3, 1.7508079e+2, -1181267.3, -1222055.4, -92053.37, 0.040358167, -0.21212913, -1107375.9, 116811.7, 0.0, 10.000376, 9.99983 
1.1048965e+3, 1.8507965e+2, -1045481.7, -1206975.5, -7980.0894, 0.10619186, -0.255247, -1045088.3, 81110.75, 0.0, 10.001064, 9.998933 
1.1049364e+3, 1.9507816e+2, -957894.94, -1111195.0, 20069.566, 0.04385278, -0.29509932, -955311.06, 72903.53, 0.0, 10.000982, 9.998957 
1.10497594e+3, 2.0507745e+2, -890518.0, -1060828.1, 37721.53, -0.07845416, -0.24068764, -882537.1, 47685.813, 0.0, 10.00091, 9.998667 
1.10501535e+3, 2.1507737e+2, -802202.0, -966173.7, -11795.551, -0.24826741, -0.11213562, -801357.8, 30867.117, 0.0, 10.000841, 9.998675 
1.105056e+3, 2.2507566e+2, -751004.5, -1014187.25, -34178.31, -0.25549847, -0.08596392, -746638.4, -12394.068, 0.0, 10.001049, 9.997572 
1.1050979e+3, 2.3507228e+2, -589892.8, -883093.8, 13299.945, -0.11171395, -0.18078001, -589290.75, 46990.273, 0.0, 10.0014715, 9.997596 
1.10513866e+3, 2.4506994e+2, -312428.28, -606753.6, -5291.806, -0.05314381, -0.20767239, -312333.16, 225969.23, 0.0, 10.00231, 9.998418 
1.1051784e+3, 2.5506854e+2, -31380.057, -418508.72, -58171.36, -0.073976666, -0.18915933, -22827.943, 417481.53, 0.0, 10.003561, 9.998434 
1.1052185e+3, 2.65066e+2, -44042.457, -574638.5, -49647.477, -0.079497255, -0.18596299, -39436.953, 302896.22, 0.00000018749917, 10.003662, 9.996641 
1.10525906e+3, 2.7506235e+2, -99532.43, -549663.0, -34504.832, -0.074589096, -0.21458979, -96902.81, 147470.45, 0.0000025324416, 10.002604, 9.99665 
1.10529855e+3, 2.8505918e+2, 797.2872, -479294.72, -65173.074, -0.07424816, -0.17339808, 9487.315, 155895.14, 0.000018656816, 10.002745, 9.996391 
1.1053373e+3, 2.950565e+2, 291466.38, -285125.06, -14245.53, -0.06983191, -0.08224556, 291818.13, 340255.1, 0.00009869876, 10.004054, 9.996421 
1.10537656e+3, 3.0505258e+2, 479303.8, -118609.34, 77593.67, -0.088855624, -0.12767771, 489209.34, 489209.34, 0.00030812845, 10.004788, 9.996882 
1.1054165e+3, 3.1505075e+2, 558213.1, 25849.059, 54791.156, -0.12624036, -0.00056943286, 563793.75, 563793.75, 0.0006457911, 10.004871, 9.997829 
1.1146513e+3, 1.2504016e+2, -2029972.1, -1716745.6, 23774.395, -0.12458992, -0.027175404, -1714951.4, -362.5122, 0.000944546, 9.997194, 10.0013275 
1.114693e+3, 1.3503894e+2, -1744712.6, -1539052.4, 67028.23, -0.0937929, -0.27563643, -1519135.5, 97460.39, 0.00045159098, 9.998507, 10.001259 
1.1147371e+3, 1.4503841e+2, -1689035.6, -1638645.5, 25840.164, 0.20556748, -0.3645647, -1627750.3, -109149.51, 0.00012308804, 9.998988, 9.999662 
1.1147748e+3, 1.5503901e+2, -1665230.5, -1576767.1, -24721.598, -0.0833357, -0.26831955, -1570327.3, -149728.19, 0.000008505592, 9.998482, 9.999656 
1.1148136e+3, 1.6503932e+2, -1465989.8, -1375345.8, -52343.85, -0.23149167, -0.21845606, -1351429.3, -28831.365, 0.0000000033697685, 9.99894, 10.000146 
1.1148542e+3, 1.7503935e+2, -1152883.5, -1169610.5, -36279.29, -0.19791047, -0.22937801, -1124016.1, 100580.94, 0.0, 10.0004, 10.000181 
1.1148951e+3, 1.850395e+2, -987769.8, -1090333.9, -15473.952, -0.14283566, -0.19998655, -985486.06, 141108.14, 0.0, 10.001079, 9.999725 
1.1149362e+3, 1.9503972e+2, -903636.25, -998883.75, 17429.994, -0.07493235, -0.15028255, -900546.9, 128043.055, 0.0, 10.000982, 9.999727 
1.1149775e+3, 2.0503816e+2, -979005.94, -1240324.6, 30780.537, -0.002351339, -0.15544985, -975429.25, -44822.113, 0.0, 10.00089, 9.997445 
1.1150194e+3, 2.1503477e+2, -889281.56, -1143857.6, -12012.226, 0.0781639, -0.2381411, -888716.0, -56069.566, 0.0, 10.000824, 9.997465 
1.11506015e+3, 2.2503372e+2, -664518.8, -826401.5, -21394.07, 0.054833543, -0.14960049, -661739.2, 72920.82, 0.0, 10.001016, 9.998877 
1.1150997e+3, 2.35035e+2, -500833.6, -693881.75, 29885.857, -0.072683975, 0.09053244, -496312.8, 140335.23, 0.0, 10.001454, 9.998903 
1.1151402e+3, 2.4503277e+2, -409963.3, -802369.75, 38206.035, -0.13189141, 0.07569586, -406278.03, 132390.73, 0.0, 10.002276, 9.997092 
1.1151813e+3, 2.5502694e+2, -130671.414, -616330.1, -9122.665, -0.1257615, -0.21494423, -130500.11, 310222.84, 0.0, 10.00352, 9.997097 
1.11522205e+3, 2.6502353e+2, -17103.924, -509157.94, -90684.46, -0.07836509, -0.2576519, -923.07434, 341833.4, 0.00000020790911, 10.003623, 9.99711 
1.1152624e+3, 2.7502248e+2, -60306.953, -475102.28, -69869.65, 0.01280439, -0.071392804, -48854.08, 195915.1, 0.0000030041272, 10.002633, 9.997147 
1.1153024e+3, 2.8502014e+2, 107238.664, -267083.2, -17992.693, 0.03977637, -0.047691092, 108101.54, 254893.2, 0.000021402564, 10.00278, 9.997832 
1.1153419e+3, 2.950163e+2, 390271.06, -79765.02, 34752.51, -0.0044783335, -0.21604094, 392826.63, 441651.9, 0.00010325015, 10.004048, 9.997836 
1.1153812e+3, 3.0501205e+2, 467146.13, -133761.1, 73922.484, -0.091710575, -0.36096925, 476106.3, 476106.3, 0.00031195465, 10.004749, 9.996795 
1.1154205e+3, 3.1501085e+2, 546607.56, 7033.417, 60853.457, -0.21311674, -0.16528557, 553385.5, 553385.5, 0.0006475571, 10.0048485, 9.997711 
1.1246488e+3, 1.2499787e+2, -1710044.3, -1526840.4, -14859.513, -0.16653325, -0.092029914, -1525643.0, 189361.08, 0.0010643419, 9.999237, 10.001649 
1.12469114e+3, 1.3499764e+2, -1679117.6, -1477155.4, -25400.049, -0.12846498, -0.26856998, -1474009.9, 142990.05, 0.00051804923, 9.998825, 10.001531 
1.124736e+3, 1.449974e+2, -1703867.0, -1654410.9, -69513.46, 0.20733923, -0.33558464, -1605358.1, -86356.13, 0.00014661087, 9.998926, 9.999582 
1.1247739e+3, 1.5499778e+2, -1526197.4, -1518495.0, -37131.88, -0.04745867, -0.2534901, -1485015.1, -64010.848, 0.00001150662, 9.999477, 9.999576 
1.1248131e+3, 1.6499807e+2, -1348203.3, -1319310.1, -2178.154, -0.2057705, -0.20256148, -1319146.9, 3857.4417, 0.0000000061074554, 9.999753, 10.000137 
1.124854e+3, 1.7499821e+2, -1253238.4, -1219529.9, -18989.295, -0.22302699, -0.19924355, -1210994.0, 14008.104, 0.0, 9.999719, 10.000166 
1.124895e+3, 1.8499847e+2, -1136127.3, -1178024.9, -56687.734, -0.20073006, -0.15186256, -1096641.4, 30357.62, 0.0, 10.000125, 9.999586 
1.1249363e+3, 1.9499877e+2, -914093.94, -1019485.5, -99874.945, -0.1519092, -0.078394726, -853865.6, 175129.77, 0.0, 10.000976, 9.999592 
1.1249783e+3, 2.0499724e+2, -880675.75, -1154646.1, -72819.81, -0.035694208, -0.08943787, -862523.3, 68488.66, 0.0, 10.001408, 9.997778 
1.1250212e+3, 2.149938e+2, -779011.5, -1052915.9, -4805.782, 0.15113112, -0.20892029, -778927.25, 54122.066, 0.0, 10.001423, 9.997798 
1.1250624e+3, 2.2499257e+2, -580495.94, -816945.44, 9605.816, 0.14465459, -0.14418006, -580106.4, 154957.48, 0.0, 10.001725, 9.998603 
1.1251017e+3, 2.3499346e+2, -394730.3, -673994.94, -62459.734, -0.05505636, 0.08646643, -381397.25, 255658.89, 0.0, 10.002319, 9.998625 
1.12514235e+3, 2.449912e+2, -375787.3, -795250.1, -63296.84, -0.14123787, 0.09043325, -366443.94, 172634.72, 0.0, 10.002555, 9.9970045 
1.1251842e+3, 2.5498578e+2, -298816.13, -706854.6, -24943.996, -0.11822145, -0.1489362, -297296.94, 143834.61, 0.0, 10.002409, 9.997008 
1.12522535e+3, 2.6498267e+2, -53938.54, -473084.63, -65223.32, -0.07974472, -0.18240695, -44023.67, 299138.63, 0.00000016860811, 10.003139, 9.997588 
1.12526566e+3, 2.7498174e+2, 276522.88, -259280.22, -51084.9, -0.024783479, -0.031587716, 281349.94, 526521.1, 0.0000038179373, 10.004722, 9.997621 
1.1253058e+3, 2.8497958e+2, 429069.2, -123400.57, -58447.305, -0.0045984355, -0.007504393, 435184.8, 582375.94, 0.000026252228, 10.005044, 9.997728 
1.1253457e+3, 2.9497606e+2, 388070.25, -91998.445, -119148.46, -0.021961432, -0.13455765, 416015.1, 465238.13, 0.00011242625, 10.004089, 9.997729 
1.125386e+3, 3.0497172e+2, 434289.6, -122806.43, -87706.766, -0.06350925, -0.292321, 447771.5, 447771.5, 0.00032226928, 10.004414, 9.99703 
1.12542674e+3, 3.1497008e+2, 719268.4, 111804.44, -82474.695, -0.11444468, -0.1578629, 730266.75, 730266.75, 0.00065625255, 10.005948, 9.997905 
1.1346489e+3, 1.2495239e+2, -1742270.5, -1621396.0, -68992.23, -0.09407624, -0.43252936, -1590113.1, 125334.37, 0.0011953667, 9.99936, 10.00094 
1.1346885e+3, 1.349565e+2, -1729584.1, -1587871.0, -44234.363, -0.27480182, -0.09577426, -1575197.1, 42213.785, 0.00059164723, 9.99885, 10.000762 
1.13473326e+3, 1.4495824e+2, -1618165.9, -1478425.3, -50274.652, 0.044534232, 0.012109825, -1462217.8, 57178.08, 0.00017336896, 9.998932, 10.000789 
1.1347736e+3, 1.5495832e+2, -1435646.1, -1340950.8, -11754.684, -0.03075851, -0.05439806, -1339513.5, 81881.18, 0.000015247707, 9.999518, 10.000775 
1.1348141e+3, 1.6495813e+2, -1373077.1, -1379182.6, -5632.4683, -0.08366175, -0.08971168, -1369723.3, -46327.04, 0.000000009421829, 9.999785, 9.999712 
1.1348554e+3, 1.7495751e+2, -1280277.8, -1280954.0, -18782.531, -0.05052402, -0.12044461, -1261830.4, -36428.77, 0.0, 9.999738, 9.999738 
1.13489635e+3, 1.8495663e+2, -1214644.9, -1339918.1, -28189.313, -0.08199976, -0.111789435, -1208594.0, -81181.04, 0.0, 10.000121, 9.998476 
1.13493666e+3, 1.9495538e+2, -994102.8, -1181255.4, -66583.08, -0.20380953, -0.08112071, -972832.1, 56598.527, 0.0, 10.000957, 9.998489 
1.134978e+3, 2.0495468e+2, -753338.3, -886350.44, -76738.664, -0.19725196, -0.046334688, -718296.94, 213140.6, 0.0, 10.001388, 9.999632 
1.1350206e+3, 2.149545e+2, -650510.7, -782602.56, -4281.9585, -0.046215057, -0.027919138, -650372.0, 183061.63, 0.0, 10.001405, 9.999664 
1.1350625e+3, 2.2495227e+2, -712077.75, -1084117.0, 27664.734, -0.0064563574, -0.06490533, -710031.9, 25423.13, 0.0, 10.001698, 9.996782 
1.1351036e+3, 2.3494788e+2, -527670.44, -944418.0, -37244.633, -0.0827025, -0.18106934, -524368.06, 113134.91, 0.0, 10.002292, 9.996781 
1.1351451e+3, 2.4494544e+2, -308261.53, -645152.44, -69069.76, -0.105334625, -0.15474103, -294650.66, 244879.42, 0.0, 10.002512, 9.998056 
1.135187e+3, 2.54945e+2, -224866.45, -548672.2, -26350.793, -0.07216595, -0.0025862, -222736.08, 218799.78, 0.0, 10.002388, 9.998105 
1.1352283e+3, 2.6494333e+2, -28621.586, -410065.94, -6225.6636, -0.09945204, 0.030264685, -28520.002, 315031.6, 0.00000020663475, 10.003092, 9.998046 
1.13526866e+3, 2.7494025e+2, 295828.78, -200328.92, 11365.222, -0.1932627, -0.081369825, 296088.97, 541667.25, 0.0000055002247, 10.004638, 9.998068 
1.1353088e+3, 2.8493765e+2, 310881.0, -349951.13, -95327.37, -0.20808426, -0.046892326, 324357.47, 471962.13, 0.00003348379, 10.004964, 9.996211 
1.1353486e+3, 2.9493555e+2, 285345.6, -308723.34, -147525.88, -0.13716371, 0.12255784, 319963.6, 369594.13, 0.00012661699, 10.004101, 9.996237 
1.1353906e+3, 3.0493143e+2, 467352.0, -48974.51, -27329.588, -0.033157803, 0.032496836, 468794.56, 468794.56, 0.0003406231, 10.004389, 9.99755 
1.13543496e+3, 3.1492865e+2, 725318.5, 169336.56, -10763.584, 0.09950838, -0.0009982553, 725526.8, 725526.8, 0.00067662634, 10.005751, 9.998395 
1.1446482e+3, 1.24910474e+2, -2077392.6, -1811728.5, -46616.39, 0.009754139, -0.43856612, -1803786.0, -87926.52, 0.0013373722, 9.997184, 10.000685 
1.1446872e+3, 1.349147e+2, -1716887.5, -1617052.5, 39569.184, -0.2786079, -0.058044516, -1603271.6, 14551.876, 0.000672049, 9.999082, 10.000454 
1.1447321e+3, 1.4491642e+2, -1473897.9, -1395805.0, -6784.1714, -0.005812971, 0.05513604, -1395220.0, 124588.71, 0.0002032588, 9.999866, 10.000907 
1.1447729e+3, 1.549164e+2, -1457913.8, -1339096.8, -62004.82, -0.033636328, -0.033503503, -1312633.5, 109173.84, 0.000019742625, 9.999312, 10.000887 
1.1448138e+3, 1.6491619e+2, -1446727.9, -1412116.6, -69773.086, -0.04465281, -0.07640778, -1357535.1, -33726.734, 0.000000013934886, 9.9992695, 9.999735 
1.14485584e+3, 1.7491572e+2, -1272518.8, -1274306.3, -52601.76, 0.024578162, -0.09594717, -1220803.1, 5009.1665, 0.0, 9.999782, 9.999761 
1.144897e+3, 1.8491465e+2, -1247235.5, -1372098.8, 781.6956, -0.005195429, -0.09789953, -1247230.6, -119405.305, 0.0, 9.999976, 9.9983225 
1.14493735e+3, 1.9491288e+2, -1168309.8, -1282226.0, 29512.604, -0.15958185, -0.10297303, -1161117.9, -131269.95, 0.0, 9.999837, 9.998333 
1.1449788e+3, 2.049121e+2, -909596.56, -966437.9, -390.05847, -0.20774257, -0.068989515, -909593.9, 22262.143, 0.0, 10.000331, 9.999594 
1.145021e+3, 2.1491224e+2, -640655.9, -782532.4, -75894.38, -0.1379252, -0.013320268, -607708.6, 226140.9, 0.0, 10.001493, 9.999622 
1.1450635e+3, 2.2491004e+2, -638258.8, -1001758.6, -45657.72, -0.08101175, -0.06375562, -632611.6, 103258.17, 0.0, 10.0020075, 9.997196 
1.1451061e+3, 2.3490542e+2, -566105.25, -915882.6, 49017.67, -0.041256875, -0.24186449, -559365.8, 78551.77, 0.0, 10.001828, 9.9972 
1.1451482e+3, 2.4490334e+2, -378428.88, -666185.5, 69812.04, -0.02610358, -0.2090516, -362386.3, 177554.56, 0.0, 10.001974, 9.99817 
1.1451897e+3, 2.5490376e+2, -210769.5, -528785.94, 36590.734, -0.03897762, 0.016132709, -206613.7, 235326.11, 0.0, 10.002433, 9.998218 
1.1452312e+3, 2.6490223e+2, -108237.914, -457128.28, 23899.713, -0.079111494, 0.05965801, -106608.35, 237346.56, 0.00000038376965, 10.002583, 9.997969 
1.14527255e+3, 2.7489853e+2, -33074.93, -369165.7, -1054.3074, -0.1495193, -0.10341459, -33071.62, 212915.47, 0.0000075917305, 10.002422, 9.997975 
1.1453131e+3, 2.8489566e+2, 54071.992, -508108.8, -81638.37, -0.17831238, -0.075122654, 65687.305, 213703.94, 0.00004126663, 10.003348, 9.995902 
1.145353e+3, 2.9489362e+2, 441226.88, -269180.03, -57057.45, -0.16008708, 0.13057867, 445780.34, 495823.84, 0.00014262299, 10.005329, 9.995916 
1.1453947e+3, 3.0488935e+2, 561396.0, -12674.329, 37720.605, -0.09254722, 0.04646995, 563863.9, 563863.9, 0.00036304072, 10.005072, 9.99747 
1.1454381e+3, 3.1488642e+2, 247912.34, -68543.75, 3439.7822, 0.031048564, 0.0024491993, 247949.73, 247949.73, 0.00070616713, 10.002498, 9.998323 
1.1546461e+3, 1.2487293e+2, -2067243.0, -1771698.3, -10115.709, 0.08718321, -0.047845844, -1771352.5, -55119.184, 0.001489488, 9.997105, 10.000994 
1.1546878e+3, 1.348725e+2, -1695848.5, -1579111.0, 121690.9, -0.14441293, -0.16054067, -1502514.6, 115720.39, 0.00075867696, 9.999105, 10.000703 
1.15473256e+3, 1.4487186e+2, -1543553.8, -1556097.9, -25246.365, 0.05559907, -0.23821516, -1523812.0, -3571.0806, 0.0002361324, 9.9999275, 9.99978 
1.15477175e+3, 1.5487185e+2, -1532671.8, -1502115.5, -82673.266, -0.07882246, -0.21282898, -1433320.5, -11077.162, 0.000024990082, 9.99934, 9.999759 
1.15481235e+3, 1.6487215e+2, -1412531.1, -1339250.6, -55335.72, -0.12323694, -0.1708165, -1309524.1, 14717.105, 0.000000023716384, 9.999263, 10.000238 
1.1548551e+3, 1.7487283e+2, -1234360.1, -1197291.3, -31555.229, -0.024600402, -0.12771323, -1179229.9, 47004.11, 0.0, 9.999791, 10.000285 
1.1548971e+3, 1.848726e+2, -1188955.8, -1255301.1, -6552.859, 0.006921043, -0.11109261, -1188314.8, -60079.45, 0.0, 9.999989, 9.999121 
1.15493834e+3, 1.9487138e+2, -1111858.1, -1166029.3, 25898.66, -0.04257691, -0.14395966, -1101468.8, -71222.48, 0.0, 9.999836, 9.999134 
1.15498014e+3, 2.0486958e+2, -1047739.75, -1247846.4, 38598.914, -0.093844466, -0.15491323, -1040552.5, -108286.375, 0.0, 10.000308, 9.997672 
1.15502246e+3, 2.1486713e+2, -781669.1, -1068038.3, -30364.836, -0.14489627, -0.16552588, -778484.8, 55810.992, 0.0, 10.001458, 9.99768 
1.1550653e+3, 2.248659e+2, -469642.47, -640696.25, -54685.93, -0.09763015, -0.14411435, -453653.84, 282654.16, 0.0, 10.00196, 9.999699 
1.1551087e+3, 2.3486596e+2, -387571.53, -542263.25, 43363.652, 0.052609872, -0.11109103, -376245.03, 262056.69, 0.0, 10.001813, 9.999774 
1.1551511e+3, 2.4486476e+2, -438163.63, -780574.0, 82048.32, 0.07447706, -0.082669064, -419518.5, 120794.33, 0.0, 10.001934, 9.997404 
1.1551921e+3, 2.548622e+2, -273269.06, -648960.06, 54443.676, -0.03895796, -0.08123844, -265538.38, 176804.47, 0.0, 10.002391, 9.997412 
1.1552341e+3, 2.6485947e+2, -155526.61, -548138.06, 15414.876, -0.04185915, -0.08211089, -154922.31, 189448.89, 0.0000005356376, 10.00255, 9.99736 
1.155277e+3, 2.748566e+2, -74460.13, -451885.75, -2379.4304, 0.06276332, -0.10412868, -74445.13, 171952.7, 0.000008957139, 10.002408, 9.997414 
1.1553186e+3, 2.8485367e+2, 96635.58, -403983.6, -6576.8247, 0.037232593, -0.09213612, 96721.96, 245149.06, 0.000047151985, 10.003279, 9.996651 
1.1553588e+3, 2.948505e+2, 470177.78, -171809.95, 24751.605, -0.12371954, -0.07359182, 471130.66, 521591.16, 0.00015592111, 10.005165, 9.996665 
1.1553982e+3, 3.0484575e+2, 496282.16, -120033.914, -54331.56, -0.2433564, -0.20851684, 501035.13, 501035.13, 0.00038437737, 10.004954, 9.99679 
1.15543716e+3, 3.1484345e+2, 221285.1, -148365.39, -79875.56, -0.3161464, -0.12092713, 237806.5, 237806.5, 0.00073754217, 10.002604, 9.9977255 
1.1646435e+3, 1.248323e+2, -1744573.0, -1611253.4, -69797.1, 0.021191161, 0.11678761, -1581398.1, 135238.16, 0.0016512593, 9.999297, 10.001038 
1.1646869e+3, 1.348302e+2, -1769261.4, -1617695.9, 64216.832, -0.09858722, -0.15850392, -1594146.8, 24504.86, 0.0008513687, 9.998614, 10.000675 
1.1647319e+3, 1.448289e+2, -1759612.6, -1672679.5, -79279.43, 0.080649525, -0.29555812, -1625732.8, -105069.91, 0.00027198074, 9.998503, 9.999666 
1.164771e+3, 1.5482913e+2, -1603171.4, -1545261.5, -64505.367, -0.05980065, -0.2355812, -1503510.5, -80847.734, 0.00003101119, 9.998904, 9.999669 
1.1648119e+3, 1.6482958e+2, -1390470.6, -1347526.9, 10617.569, -0.102647446, -0.16723269, -1345045.1, -20385.438, 0.00000004774233, 9.999496, 10.000067 
1.1648552e+3, 1.7483024e+2, -1177752.8, -1189410.6, -22233.055, 0.0016194318, -0.10802728, -1160597.3, 66056.336, 0.0, 10.000264, 10.00011 
1.1648977e+3, 1.8483004e+2, -1034560.5, -1138545.5, -55398.758, 0.032846075, -0.09908385, -1010577.75, 118076.1, 0.0, 10.000864, 9.999501 
1.1649391e+3, 1.9482885e+2, -871495.94, -1006177.6, -58469.375, -0.026461076, -0.16484238, -849654.6, 181006.64, 0.0, 10.001298, 9.999528 
1.1649812e+3, 2.0482711e+2, -913630.4, -1201637.6, 15536.093, -0.054714847, -0.18006898, -912794.7, 19885.445, 0.0, 10.001317, 9.997499 
1.1650246e+3, 2.148248e+2, -880865.06, -1132978.5, 73405.64, -0.042895786, -0.16077234, -861049.6, -26338.473, 0.0, 10.00086, 9.997518 
1.1650675e+3, 2.2482389e+2, -624332.1, -709624.25, 25794.654, -0.006465207, -0.102800645, -617137.94, 119583.93, 0.0, 10.00087, 9.999751 
1.16511025e+3, 2.3482443e+2, -451934.1, -567909.7, -66708.01, 0.052814614, -0.02699572, -421533.28, 217178.48, 0.0, 10.0013485, 9.99982 
1.1651525e+3, 2.4482332e+2, -440103.66, -740564.2, -71440.086, 0.036801174, -0.0086075505, -423982.44, 116738.98, 0.0, 10.001744, 9.99777 
1.165194e+3, 2.5482044e+2, -300049.56, -621874.44, -19153.943, -0.058068313, -0.06983277, -298913.6, 143838.3, 0.0, 10.00203, 9.997775 
1.1652366e+3, 2.6481754e+2, -162297.23, -549425.25, 6226.8784, -0.042136, -0.10616041, -162197.11, 182583.88, 0.00000056359414, 10.0025, 9.997372 
1.1652799e+3, 2.7481458e+2, 30600.045, -401875.0, 22330.242, 0.08421406, -0.13925178, 31749.979, 278559.16, 0.0000092835935, 10.003134, 9.997408 
1.165322e+3, 2.8481206e+2, 93036.19, -322430.2, 43838.53, 0.079034865, -0.11922998, 97611.484, 246444.81, 0.000049926817, 10.002893, 9.997396 
1.1653625e+3, 2.9481003e+2, 27612.102, -298675.22, 66004.88, -0.06622179, -0.06640498, 40458.492, 91312.48, 0.00016427247, 10.001756, 9.997434 
1.1654022e+3, 3.048055e+2, 151258.88, -345823.44, 9238.38, -0.22168215, -0.19629967, 151430.52, 151430.52, 0.00040097133, 10.002836, 9.99626 
1.16544105e+3, 3.1480247e+2, 710870.2, 41344.496, -11053.03, -0.36993685, -0.12354502, 711052.6, 711052.6, 0.00076387706, 10.00617, 9.997315 
1.1746401e+3, 1.2478824e+2, -1748404.1, -1647224.8, -135941.47, -0.2607983, 0.012068679, -1552764.9, 164306.89, 0.0018234614, 9.999415, 10.000735 
1.1746847e+3, 1.3478789e+2, -1796640.8, -1676681.1, 35464.156, -0.1763749, -0.046930104, -1666981.0, -47907.684, 0.0009506097, 9.998617, 10.000272 
1.17473e+3, 1.4478786e+2, -1692743.0, -1525502.4, -64752.01, 0.038350586, -0.08856984, -1503362.6, 17709.002, 0.00031097958, 9.998464, 10.000694 
1.1747705e+3, 1.5478851e+2, -1527295.8, -1391614.1, -43761.938, 0.0047715087, -0.089899845, -1378724.0, 44338.797, 0.00003785508, 9.998918, 10.000718 
1.1748124e+3, 1.6478862e+2, -1451207.3, -1477814.0, 38324.33, 0.0017153311, -0.06491641, -1423943.0, -98881.15, 0.00000010132158, 9.999514, 9.999166 
1.17485635e+3, 1.7478807e+2, -1239659.1, -1322387.3, 8313.115, 0.08855313, -0.03403523, -1238832.0, -11762.061, 0.0, 10.000279, 9.999191 
1.1748987e+3, 1.8478702e+2, -1039369.25, -1149276.3, -42223.168, 0.054966047, -0.059940685, -1025021.4, 104058.74, 0.0, 10.000868, 9.999425 
1.1749392e+3, 1.9478536e+2, -874704.06, -1013361.3, -40766.8, -0.13177583, -0.16904081, -863606.4, 167486.23, 0.0, 10.001299, 9.999477 
1.174982e+3, 2.0478474e+2, -806589.75, -976137.94, -5082.313, -0.11357572, -0.14721856, -806437.5, 126660.625, 0.0, 10.0013, 9.999057 
1.1750272e+3, 2.1478522e+2, -769854.44, -901995.0, 57199.02, 0.14262486, -0.0052349004, -748534.7, 86561.26, 0.0, 10.000853, 9.999109 
1.17507e+3, 2.2478405e+2, -791811.7, -1049921.1, 39270.367, 0.17028502, 0.057534687, -785969.1, -48857.984, 0.0, 10.000837, 9.99743 
1.1751105e+3, 2.3478098e+2, -623836.44, -916975.2, -45249.05, -0.056923177, 0.010676042, -617010.7, 22135.246, 0.0, 10.001313, 9.99744 
1.1751522e+3, 2.4477911e+2, -350842.8, -546299.5, -61245.01, -0.15597415, 0.010640622, -333237.8, 207927.13, 0.0, 10.001703, 9.999126 
1.1751954e+3, 2.547786e+2, -200336.89, -410732.66, -5153.333, -0.1161785, 0.038410008, -200210.75, 242955.84, 0.0, 10.00201, 9.999235 
1.1752384e+3, 2.6477647e+2, -132668.66, -474698.78, 26989.814, -0.09248471, -0.02308217, -130551.98, 214632.55, 0.0000005132723, 10.002444, 9.9979105 
1.17528126e+3, 2.7477252e+2, 56527.617, -330383.2, 49469.285, -0.08808636, -0.20536616, 62752.47, 309973.25, 0.000009280944, 10.00306, 9.997932 
1.1753235e+3, 2.847709e+2, 133897.0, -231969.03, -1918.1593, -0.06079542, -0.15631442, 133907.06, 283142.97, 0.000050485156, 10.002866, 9.998034 
1.17536485e+3, 2.9477173e+2, 88046.69, -194980.13, 20732.111, -0.013143992, 0.11824104, 89557.28, 140785.58, 0.00016771047, 10.0018425, 9.998106 
1.1754065e+3, 3.047679e+2, 128807.195, -390443.53, 125722.5, -0.07241577, 0.042283826, 157645.83, 157645.83, 0.00040888228, 10.0028305, 9.9959545 
1.1754486e+3, 3.147632e+2, 653127.3, -3429.5513, 120968.516, -0.22825216, -0.023172537, 674706.2, 674706.2, 0.00077462516, 10.005852, 9.997158 
1.1846396e+3, 1.2474488e+2, -1831325.4, -1706781.5, -168607.98, -0.20982948, -0.004430216, -1589313.5, 128186.17, 0.0020081834, 9.998944, 10.000547 
1.1846838e+3, 1.3474481e+2, -1755761.3, -1682052.3, 26442.697, -0.13263237, -0.011812088, -1673547.4, -54046.945, 0.0010574218, 9.999012, 10.000042 
1.184728e+3, 1.4474532e+2, -1516117.8, -1398669.6, -48279.957, -0.031742655, -0.0065191085, -1381370.9, 140122.77, 0.00035351914, 9.999502, 10.0010605 
1.18477e+3, 1.5474656e+2, -1293050.1, -1236386.9, -87240.484, 0.010878232, 0.012727811, -1172992.9, 250484.4, 0.00004562391, 10.000347, 10.001092 
1.1848126e+3, 1.6474651e+2, -1308435.3, -1413701.0, -16050.133, 0.036619764, 0.0049593453, -1306042.4, 19433.994, 0.00000019883093, 10.000513, 9.9991255 
1.18485644e+3, 1.74745e+2, -1293138.9, -1352133.5, 18197.727, 0.096400954, -0.055633813, -1287977.1, -60484.777, 0.0, 9.999933, 9.999152 
1.18489906e+3, 1.8474376e+2, -1193502.5, -1241640.9, 17506.594, 0.053118374, -0.08987237, -1187809.3, -58304.5, 0.0, 9.999893, 9.999257 
1.18494004e+3, 1.947428e+2, -1012622.25, -1097747.3, 4081.6519, -0.12287243, -0.11339891, -1012427.0, 19086.094, 0.0, 10.000435, 9.9993105 
1.184983e+3, 2.047424e+2, -863716.9, -982940.25, -32470.248, -0.09839074, -0.069445826, -855447.25, 78069.5, 0.0, 10.000812, 9.99925 
1.1850281e+3, 2.1474257e+2, -735476.25, -863589.44, -79353.766, 0.15589671, 0.022216711, -697551.1, 137964.6, 0.0, 10.000996, 9.999305 
1.185071e+3, 2.2474109e+2, -722946.75, -1018105.44, -41951.48, 0.16968505, 0.04812854, -717099.9, 20432.852, 0.0, 10.00132, 9.997414 
1.18511155e+3, 2.347378e+2, -558407.75, -885773.8, 41222.945, -0.084269814, -0.019815031, -553296.6, 86272.82, 0.0, 10.001767, 9.997434 
1.1851538e+3, 2.4473584e+2, -327250.13, -563538.1, 50494.426, -0.16622509, -0.018769432, -316911.84, 224678.25, 0.0, 10.00199, 9.998868 
1.1851979e+3, 2.5473526e+2, -224306.05, -453967.25, -23682.72, -0.06045039, 0.03279693, -221889.31, 221704.58, 0.0, 10.001986, 9.99895 
1.1852412e+3, 2.6473367e+2, -150588.33, -408637.16, -42531.523, -0.033107694, 0.0072631678, -143759.03, 201848.1, 0.0000005059796, 10.001995, 9.998583 
1.1852836e+3, 2.7473092e+2, -49878.047, -304621.9, -14861.226, -0.09432091, -0.12370736, -49014.004, 198616.63, 0.000009346627, 10.001996, 9.998623 
1.1853259e+3, 2.8472933e+2, 104218.445, -285796.94, -83074.445, -0.09263603, -0.08759035, 121176.234, 270821.22, 0.000050141156, 10.002837, 9.997675 
1.1853679e+3, 2.947289e+2, 462111.1, -60196.094, -136584.44, -0.02546133, 0.10260935, 495671.78, 547322.06, 0.00016699197, 10.004614, 9.997698 
1.1854102e+3, 3.047252e+2, 372069.66, -189344.81, -50464.145, -0.03639825, 0.021195268, 376569.66, 376569.66, 0.00040456667, 10.004142, 9.996704 
1.18545316e+3, 3.1472188e+2, 37804.223, -190996.77, 8097.6772, -0.10150675, 0.023292087, 38090.457, 38090.457, 0.00076071627, 10.001144, 9.998135 
1.1946427e+3, 1.2470266e+2, -1832031.6, -1708880.1, -169810.98, 0.19630873, 0.091305256, -1589825.5, 128090.46, 0.0022081332, 9.9989395, 10.000539 
1.1946844e+3, 1.3470112e+2, -1749346.4, -1679604.5, 34002.516, 0.034336798, -0.062412657, -1665770.6, -45839.367, 0.0011730703, 9.999053, 10.000041 
1.19472645e+3, 1.4470127e+2, -1539044.8, -1458644.3, -16290.197, -0.14784074, -0.068631224, -1455469.0, 66459.56, 0.00040013902, 9.999553, 10.000627 
1.1947697e+3, 1.5470326e+2, -1315811.6, -1294100.8, -54380.094, -0.06765063, 0.06635402, -1249503.3, 174403.47, 0.00005450229, 10.000389, 10.000676 
1.1948125e+3, 1.6470326e+2, -1242054.9, -1282754.4, -41964.957, -0.026146142, 0.043222696, -1215765.9, 110137.266, 0.00000035173326, 10.000542, 10.0000105 
1.19485535e+3, 1.7470105e+2, -1226089.4, -1217500.8, -2931.9646, 0.0010493926, -0.17926963, -1216595.4, 11324.846, 0.0, 9.99995, 10.00007 
1.1948983e+3, 1.847003e+2, -1213404.6, -1283347.8, 35453.84, 0.003983784, -0.19729535, -1198576.8, -68649.85, 0.0, 9.999892, 9.998974 
1.19494155e+3, 1.9470122e+2, -1036477.44, -1145710.3, 26801.514, -0.020763474, -0.0012188735, -1030255.75, 1666.2319, 0.0, 10.000423, 9.99899 
1.1949845e+3, 2.0470022e+2, -949605.94, -1155274.0, -29471.006, -0.028669799, 0.055552047, -945466.25, -11531.189, 0.0, 10.000787, 9.998078 
1.1950273e+3, 2.1469697e+2, -822314.1, -1037970.8, -70877.69, -0.020523597, -0.07523274, -801105.25, 34863.832, 0.0, 10.00097, 9.998119 
1.1950703e+3, 2.2469513e+2, -577453.5, -707217.94, -28203.242, -0.02934742, -0.12962864, -571588.8, 166397.1, 0.0, 10.001282, 9.999567 
1.19511366e+3, 2.3469491e+2, -403793.13, -559189.3, 59472.39, -0.0546515, -0.11548937, -383644.6, 256338.14, 0.0, 10.001742, 9.999689 
1.19515724e+3, 2.446935e+2, -455518.94, -823483.94, 46964.113, -0.021989206, -0.091064736, -449619.4, 92377.9, 0.0, 10.001962, 9.997098 
1.1952012e+3, 2.5469062e+2, -361795.47, -730805.5, -18770.3, 0.07490847, -0.08014567, -360843.13, 83189.586, 0.0, 10.001946, 9.997067 
1.1952444e+3, 2.646893e+2, -105494.56, -309410.22, -41412.484, 0.09668992, -0.016358081, -97405.164, 248642.69, 0.0000006389743, 10.001968, 9.999279 
1.1952867e+3, 2.746897e+2, 9098.872, -185600.7, -11884.167, 0.027094776, 0.08711231, 9821.581, 257861.14, 0.000009277396, 10.002011, 9.999433 
1.1953291e+3, 2.8468752e+2, 15855.475, -463509.25, -19628.45, -0.044389244, 0.08232418, 16657.854, 166717.19, 0.00004968803, 10.0028105, 9.996469 
1.1953716e+3, 2.946823e+2, 348533.63, -259422.98, -58125.113, -0.11867979, -0.08215154, 354040.94, 406153.72, 0.00016406225, 10.004453, 9.996407 
1.1954135e+3, 3.0467802e+2, 462005.4, 22074.824, -150870.22, -0.12596412, -0.22254395, 508773.22, 508773.22, 0.00039144215, 10.004035, 9.99821 
1.195455e+3, 3.1467885e+2, 189668.23, 88900.28, -95664.086, -0.029327264, 0.027436266, 247405.31, 247405.31, 0.00072727393, 10.001298, 9.999985 
1.204642e+3, 1.24659784e+2, -1902646.5, -1730268.5, -104702.836, 0.26411736, 0.084633484, -1680843.3, 37494.08, 0.0024257244, 9.998415, 10.00064 
1.2046841e+3, 1.3465881e+2, -1834143.0, -1707576.5, 78933.17, 0.13618349, -0.02370962, -1669690.5, -49343.563, 0.0012988481, 9.998423, 10.000152 
1.2047251e+3, 1.4465882e+2, -1731628.5, -1605630.5, 51453.61, -0.16635077, -0.028705938, -1587288.5, -64942.492, 0.00045139206, 9.9984665, 10.00014 
1.2047692e+3, 1.546596e+2, -1628093.3, -1499736.1, 2273.5781, -0.052826263, 0.035376523, -1499695.9, -75359.27, 0.00006471426, 9.998487, 10.00018 
1.2048122e+3, 1.6465934e+2, -1472833.5, -1371061.3, -21436.83, -0.0028200583, 0.001186722, -1366730.1, -40394.36, 0.00000057087306, 9.998859, 10.000214 
1.204855e+3, 1.7465796e+2, -1252662.1, -1206709.0, -41487.99, -0.0024951764, -0.15953565, -1182260.1, 46083.965, 0.0, 9.999667, 10.000278 
1.2048982e+3, 1.8465759e+2, -1181832.1, -1272109.5, -11828.265, 0.00033699878, -0.1473795, -1180308.1, -49961.01, 0.0, 10.000126, 9.998936 
1.2049419e+3, 1.9465834e+2, -1077202.1, -1169442.0, -3787.9177, 0.00275316, 0.0375407, -1077046.9, -44702.418, 0.0, 10.000165, 9.998948 
1.2049852e+3, 2.0465714e+2, -984513.25, -1154570.1, 8668.138, -0.010675857, 0.06738881, -984072.56, -49713.277, 0.0, 10.000475, 9.99823 
1.2050281e+3, 2.1465366e+2, -794606.75, -1006487.7, 62728.145, -0.041342694, -0.10406029, -777428.56, 58965.652, 0.0, 10.001082, 9.9982815 
1.2050714e+3, 2.2465205e+2, -531466.3, -661798.4, 90056.586, -0.04929515, -0.15324724, -485471.22, 252936.63, 0.0, 10.001497, 9.999776 
1.2051155e+3, 2.3465262e+2, -395381.88, -532631.2, 20978.64, -0.03360507, -0.08237639, -392246.9, 248150.31, 0.0, 10.001706, 9.999889 
1.2051594e+3, 2.4465139e+2, -436129.28, -791745.56, -3002.3462, 0.013327919, -0.05609021, -436103.94, 106305.06, 0.0, 10.001997, 9.997297 
1.2052034e+3, 2.5464812e+2, -289329.56, -672515.75, 74209.04, 0.0936346, -0.10718369, -275460.0, 168986.64, 0.00000000020898414, 10.002343, 9.997277 
1.2052468e+3, 2.6464638e+2, -46700.617, -389753.28, 85484.17, 0.10400376, -0.04736213, -26579.287, 319887.66, 0.00000074892756, 10.002848, 9.998299 
1.2052896e+3, 2.7464637e+2, 166377.61, -226028.89, -18319.623, 0.03074624, 0.11619178, 167231.02, 415698.97, 0.000008958339, 10.0035925, 9.998392 
1.2053321e+3, 2.8464407e+2, 140716.38, -308085.66, -36419.742, -0.031576652, 0.110023335, 143652.58, 294142.7, 0.000049073045, 10.003259, 9.997319 
1.20537475e+3, 2.9463908e+2, 8682.303, -319448.47, 64299.715, -0.0827049, -0.11952065, 20832.422, 73369.33, 0.00016120463, 10.001673, 9.997331 
1.2054166e+3, 3.0463523e+2, 175768.97, -186891.56, 2022.8705, -0.10945347, -0.23736335, 175780.25, 175780.25, 0.00037863138, 10.002371, 9.997572 
1.20545805e+3, 3.1463608e+2, 785253.44, 318428.0, -101872.0, -0.07161255, 0.08317858, 806515.8, 806515.8, 0.0006928704, 10.005644, 9.99947 
1.21463686e+3, 1.24616325e+2, -1895680.9, -1715651.5, -67074.125, -0.09779822, -0.05125702, -1693409.4, 25353.582, 0.0026624324, 9.998409, 10.000745 
1.21468246e+3, 1.3461825e+2, -1824176.5, -1685690.9, 82992.47, 0.1424652, 0.11639681, -1646848.9, -26105.209, 0.0014356553, 9.998415, 10.000305 
1.21472426e+3, 1.446183e+2, -1770057.6, -1683130.1, 53081.65, -0.098559126, 0.13080458, -1657988.1, -135245.9, 0.0005075534, 9.998453, 9.999617 
1.21476844e+3, 1.5461569e+2, -1669923.0, -1581494.5, 7019.119, 0.040613323, -0.08888985, -1580940.9, -156175.2, 0.000076397075, 9.998463, 9.999632 
1.214812e+3, 1.6461475e+2, -1515474.1, -1455890.3, 7288.464, 0.09153103, -0.13402155, -1455011.6, -128238.04, 0.0000008702971, 9.998841, 9.999641 
1.21485546e+3, 1.7461585e+2, -1290267.1, -1288313.3, -8454.531, 0.07469804, 0.0088847205, -1280779.4, -52016.625, 0.0, 9.999678, 9.999716 
1.2148985e+3, 1.8461576e+2, -1166936.8, -1242782.9, -12794.392, 0.02365565, 0.06924663, -1164836.6, -34072.758, 0.0, 10.000133, 9.999133 
1.2149413e+3, 1.9461425e+2, -1061526.3, -1136213.4, -757.62476, -0.07930637, 0.0034526458, -1061518.6, -28738.867, 0.0, 10.000161, 9.999179 
1.21498495e+3, 2.0461315e+2, -884474.7, -943371.56, 26433.516, -0.07339115, -0.036563743, -874351.1, 60438.176, 0.0, 10.00046, 9.999687 
1.2150302e+3, 2.146126e+2, -692079.1, -787625.0, 86322.38, 0.06773643, -0.06602623, -641192.0, 195599.13, 0.0, 10.001056, 9.999796 
1.2150742e+3, 2.2461188e+2, -653353.44, -908905.56, 93351.2, 0.089055255, -0.026157364, -622885.5, 115912.89, 0.0, 10.001469, 9.9980955 
1.21511705e+3, 2.3461089e+2, -524660.0, -795418.6, 31469.334, -0.0388653, 0.068543695, -521050.56, 119761.98, 0.0, 10.001678, 9.998099 
1.2151604e+3, 2.4460948e+2, -304511.88, -507084.94, 7093.5625, -0.079631105, 0.074673146, -304263.78, 238561.84, 0.0, 10.001948, 9.999274 
1.2152046e+3, 2.5460762e+2, -144167.94, -362901.88, 85750.58, -0.015197134, -0.051352974, -114559.03, 330278.4, 0.00000000018849695, 10.002309, 9.999418 
1.2152484e+3, 2.6460493e+2, -226631.81, -754914.1, 106393.31, -0.016294496, -0.07895697, -206009.75, 140855.75, 0.00000061447383, 10.002807, 9.995814 
1.2152918e+3, 2.7460122e+2, -35369.63, -621334.8, 16114.746, -0.097643316, -0.01693614, -34926.79, 213986.5, 0.00000822272, 10.003489, 9.995729 
1.215335e+3, 2.8459907e+2, 306798.06, 54117.16, -91585.81, -0.08501113, 0.0078071025, 336502.06, 487438.16, 0.00004769158, 10.003183, 9.999845 
1.2153777e+3, 2.945987e+2, 210883.56, 85941.6, 1019.6828, 0.041575618, -0.033704005, 210891.88, 263821.22, 0.0001584042, 10.001734, 10.000087 
1.2154199e+3, 3.0459613e+2, 10877.674, -533464.56, 108328.34, -0.015151242, -0.05178775, 31643.662, 31643.662, 0.00036871943, 10.002389, 9.995186 
1.21546194e+3, 3.1459358e+2, 575271.1, -54714.664, 32553.156, -0.2541676, 0.19109854, 576948.75, 576948.75, 0.0006671892, 10.005374, 9.997033 
1.22463524e+3, 1.24574125e+2, -1602663.9, -1625694.6, -13627.655, -0.18752421, -0.06579142, -1596337.8, 122837.87, 0.0029179724, 10.000635, 10.000297 
1.22468166e+3, 1.3457586e+2, -1623448.1, -1635304.0, 32660.756, 0.1479883, 0.12510502, -1596181.6, 24977.756, 0.0015834377, 9.999994, 9.999891 
1.2247228e+3, 1.445757e+2, -1593663.9, -1599516.8, 17410.697, -0.13470082, 0.14275895, -1578935.4, -55775.188, 0.00056846405, 9.999675, 9.999598 
1.2247672e+3, 1.5457302e+2, -1476158.6, -1488548.0, 6677.5405, 0.014497002, -0.08261081, -1473244.9, -48060.9, 0.00008951281, 9.999797, 9.999624 
1.22481115e+3, 1.6457197e+2, -1382875.4, -1438280.1, 55231.742, 0.070135705, -0.11961725, -1348788.0, -21594.324, 0.0000012652538, 9.999953, 9.999226 
1.22485496e+3, 1.7457287e+2, -1256555.1, -1317727.3, 46679.676, 0.045154564, 0.046309423, -1231333.5, -2147.06, 0.0, 10.000114, 9.9993 
1.2248985e+3, 1.8457249e+2, -1112507.0, -1189949.8, 43996.46, 0.0044699153, 0.08589211, -1092619.3, 38570.844, 0.0, 10.000393, 9.999372 
1.22494176e+3, 1.9457057e+2, -945609.06, -1050157.3, 53394.66, -0.066463515, -0.047885913, -923159.8, 110047.016, 0.0, 10.000829, 9.999449 
1.22498594e+3, 2.0456961e+2, -776664.75, -896698.5, 41938.887, -0.0541466, -0.086491756, -763463.5, 171750.45, 0.0, 10.0012245, 9.9996395 
1.22503124e+3, 2.1456979e+2, -623306.56, -763454.3, -22069.785, 0.059607815, -0.03386025, -619913.3, 217296.25, 0.0, 10.001568, 9.999716 
1.22507565e+3, 2.2456907e+2, -627128.9, -927440.44, -34481.074, 0.07549977, 0.024975453, -623220.7, 115997.46, 0.0, 10.001784, 9.997812 
1.2251188e+3, 2.3456721e+2, -520885.44, -826288.56, 5468.707, -0.02936657, 0.063968465, -520787.56, 120454.58, 0.0, 10.001843, 9.997807 
1.2251624e+3, 2.4456568e+2, -308601.75, -512496.88, -20099.703, -0.06828817, 0.073724814, -306639.25, 236617.98, 0.0, 10.001941, 9.99924 
1.22520655e+3, 2.5456452e+2, -173429.28, -380227.22, -101590.33, -0.029479375, 0.025401609, -131873.28, 313388.7, 0.0, 10.002128, 9.999383 
1.2252506e+3, 2.645619e+2, -295175.84, -741662.75, -63361.63, -0.027810527, -0.013042821, -286358.22, 60930.734, 0.0000003685213, 10.002136, 9.996227 
1.22529455e+3, 2.7455744e+2, -234973.02, -668882.7, 54138.152, -0.07588069, -0.06889081, -228320.28, 21022.225, 0.000007319039, 10.001905, 9.996165 
1.2253379e+3, 2.845554e+2, 154570.47, -96043.09, -44627.77, -0.055583376, -0.019176384, 162280.33, 313645.7, 0.000046575948, 10.002472, 9.999152 
1.2253805e+3, 2.9455626e+2, 486745.97, 133315.16, -194876.42, 0.04455926, 0.13486761, 573099.3, 626451.56, 0.0001561588, 10.004003, 9.99932 
1.2254232e+3, 3.0455387e+2, 291158.47, -323754.94, -95726.92, 0.0065913927, 0.14525343, 305716.16, 305716.16, 0.0003609069, 10.003998, 9.995848 
1.2254666e+3, 3.1454948e+2, 164732.72, -158524.17, 38905.12, -0.1441333, 0.12914008, 169349.16, 169349.16, 0.0006495456, 10.002135, 9.997881 
1.2346378e+3, 1.24533705e+2, -1658563.1, -1768622.1, 16655.918, -0.009732408, 0.07783262, -1656097.8, 63472.293, 0.0031899144, 10.000745, 9.999265 
1.2346815e+3, 1.345316e+2, -1686788.6, -1780257.9, 7421.0825, 0.1356255, -0.00939733, -1686203.0, -64609.016, 0.0017411282, 10.000054, 9.998867 
1.2347207e+3, 1.4453092e+2, -1551334.1, -1527617.8, 18574.363, -0.30943996, -0.014037448, -1517439.1, 6162.144, 0.0006337289, 9.999734, 10.000068 
1.2347653e+3, 1.5453182e+2, -1428030.8, -1405696.4, 13943.946, -0.16279806, 0.0630833, -1398999.0, 26590.754, 0.00010392506, 9.999862, 10.000166 
1.2348093e+3, 1.6453129e+2, -1394500.0, -1470894.4, 58434.91, -0.10043962, 0.06284448, -1362885.6, -35292.348, 0.0000017603737, 9.999989, 9.998985 
1.2348534e+3, 1.7452912e+2, -1272201.1, -1356981.3, 54548.26, -0.122498535, -0.052672025, -1245508.4, -15894.21, 0.0, 10.000139, 9.99902 
1.234898e+3, 1.8452774e+2, -1092203.0, -1150372.9, 56814.582, -0.08314024, -0.11092808, -1057461.4, 74164.234, 0.0, 10.000403, 9.999639 
1.2349435e+3, 1.9452734e+2, -923997.06, -1006463.3, 71979.36, 0.024492323, -0.119383715, -882277.2, 151348.05, 0.0, 10.000831, 9.999749 
1.2349879e+3, 2.0452656e+2, -889064.2, -1126386.4, 51141.234, 0.031213626, -0.08056925, -878512.75, 57119.55, 0.0, 10.001207, 9.998072 
1.2350313e+3, 2.1452531e+2, -742628.94, -1006056.7, -7169.2056, -0.08460391, -0.0087429, -742433.94, 95214.586, 0.0, 10.001545, 9.998061 
1.23507544e+3, 2.2452372e+2, -562533.2, -783484.75, -34706.43, -0.11215042, 0.002736515, -557209.9, 182456.19, 0.0, 10.001741, 9.998822 
1.2351206e+3, 2.3452173e+2, -447209.63, -663781.2, 9716.05, -0.029987542, -0.085328475, -446774.63, 194910.38, 0.0, 10.001804, 9.998941 
1.23516515e+3, 2.4452017e+2, -444919.94, -791985.9, -16109.277, 0.016763356, -0.046691243, -444173.8, 99528.336, 0.0, 10.001922, 9.997332 
1.2352091e+3, 2.545191e+2, -320794.3, -680931.44, -87315.31, 0.017053658, 0.11750393, -300741.28, 144976.08, 0.0, 10.002098, 9.997335 
1.2352533e+3, 2.6451737e+2, -96659.055, -319048.44, -70256.92, 0.030870844, 0.137218, -76323.164, 271412.66, 0.00000016286783, 10.002093, 9.99915 
1.2352977e+3, 2.7451482e+2, -14341.908, -207313.75, 46471.848, 0.05942191, -0.04354122, -3733.6394, 246024.25, 0.0000066111284, 10.001894, 9.999339 
1.2353412e+3, 2.8451303e+2, -89147.89, -599113.94, 6780.2056, 0.02653338, 0.025690455, -89057.766, 62721.688, 0.000046430763, 10.002453, 9.995709 
1.23538315e+3, 2.9451203e+2, 208269.1, -423434.6, -123178.77, -0.082903065, 0.37010285, 231438.48, 285240.06, 0.00015647136, 10.0039015, 9.995546 
1.2354264e+3, 3.0450878e+2, 496724.38, 122550.1, -149208.58, -0.068488, 0.3480982, 548937.9, 548937.9, 0.00036020688, 10.003916, 9.998955 
1.2354717e+3, 3.1450394e+2, 415852.4, 356279.34, -21559.582, 0.16164239, -0.06087733, 422836.13, 422836.13, 0.00064615504, 10.002169, 10.001405 
1.2446382e+3, 1.24490514e+2, -1947715.3, -1872334.9, -60577.867, 0.073006295, 0.114412874, -1838679.3, -118683.68, 0.003475539, 9.998609, 9.999576 
1.24468066e+3, 1.344883e+2, -1924469.0, -1859865.0, -38979.688, 0.14619245, -0.016218692, -1841542.5, -219523.1, 0.0019075654, 9.998275, 9.999174 
1.2447196e+3, 1.4448765e+2, -1753837.0, -1640714.1, 46205.344, -0.32409257, -0.026606198, -1624240.4, -100214.36, 0.0007030745, 9.998414, 9.999926 
1.24476455e+3, 1.5448897e+2, -1537562.8, -1475913.6, -17124.006, -0.18353547, 0.110171616, -1471476.5, -45464.92, 0.00011956255, 9.99919, 10.000007 
1.24480896e+3, 1.6448851e+2, -1431212.0, -1474064.5, 5585.8467, -0.116520196, 0.11839203, -1430495.9, -102481.52, 0.0000023468863, 9.999679, 9.99911 
1.24485314e+3, 1.7448603e+2, -1311488.3, -1361296.9, 27114.895, -0.12980579, -0.04089975, -1299576.3, -69539.625, 0.0, 9.99981, 9.999146 
1.2448981e+3, 1.8448439e+2, -1153845.9, -1226381.0, 39351.195, -0.091055766, -0.110476136, -1136598.5, -4548.4478, 0.0, 10.000178, 9.999224 
1.24494396e+3, 1.9448379e+2, -956290.4, -1071048.1, -5782.015, 0.0044173487, -0.09684021, -955999.75, 78053.27, 0.0, 10.000822, 9.999307 
1.24498874e+3, 2.0448273e+2, -909037.75, -1138718.1, -13729.355, 0.010064705, -0.060516838, -908220.0, 27843.104, 0.0, 10.001079, 9.998049 
1.2450323e+3, 2.1448113e+2, -845482.9, -1053622.6, 45685.336, -0.088079885, -0.023748366, -835896.75, 2184.7356, 0.0, 10.00083, 9.998079 
1.2450768e+3, 2.2447935e+2, -683507.8, -860155.8, 59051.73, -0.1095276, -0.0250762, -665585.7, 74514.55, 0.0, 10.000992, 9.998656 
1.2451221e+3, 2.3447733e+2, -477862.56, -698204.2, 2067.7334, -0.044426378, -0.09932458, -477843.16, 164276.66, 0.0, 10.001677, 9.998766 
1.2451669e+3, 2.4447548e+2, -422891.66, -784219.44, -14307.056, -0.0031824247, -0.07768585, -422326.03, 121813.91, 0.0, 10.002082, 9.997308 
1.2452111e+3, 2.544739e+2, -312371.34, -677285.2, 51787.824, 0.008426571, 0.03558007, -305164.06, 140996.27, 0.0, 10.002159, 9.997331 
1.2452554e+3, 2.6447266e+2, -55347.97, -291576.8, 52615.66, 0.025277145, 0.10060207, -44158.777, 304015.78, 0.000000050542315, 10.00235, 9.999211 
1.2452998e+3, 2.7447182e+2, 99940.89, -146975.28, -53157.28, 0.046894353, 0.08487808, 110898.56, 361080.13, 0.000006130949, 10.00266, 9.999383 
1.2453435e+3, 2.8447005e+2, -30587.42, -538280.4, -63370.297, 0.018613763, 0.1423035, -22797.07, 129405.12, 0.0000467863, 10.002721, 9.995995 
1.2453864e+3, 2.9446703e+2, 26824.994, -473017.4, 74658.305, -0.073097214, 0.25544018, 37737.973, 91977.91, 0.00016088782, 10.002498, 9.995876 
1.2454298e+3, 3.0446354e+2, 331044.22, -17746.154, 60657.64, -0.06325362, 0.20962504, 341292.0, 341292.0, 0.00037290514, 10.003032, 9.998415 
1.24547474e+3, 3.144594e+2, 708666.2, 431346.75, -87514.88, 0.13825725, -0.06581133, 733974.06, 733974.06, 0.00066849956, 10.004468, 10.000813 
1.2546359e+3, 1.2444439e+2, -1824142.9, -1611295.5, -23431.979, -0.026031777, 0.033850696, -1608746.5, 111708.1, 0.0037739007, 9.9985695, 10.001395 
1.2546791e+3, 1.344461e+2, -1801440.0, -1599151.4, -51320.152, 0.16252428, 0.11640555, -1586876.4, 35557.156, 0.0020822603, 9.998243, 10.000981 
1.2547193e+3, 1.4444621e+2, -1813184.9, -1759342.0, 72393.32, -0.18456234, 0.12288955, -1709026.5, -184595.44, 0.0007764397, 9.998392, 9.999124 
1.254765e+3, 1.5444449e+2, -1601370.3, -1609682.6, 15533.201, -0.055428565, 0.04923259, -1589446.9, -162997.64, 0.00013646827, 9.999193, 9.999088 
1.25481e+3, 1.6444351e+2, -1398152.1, -1407520.6, 7926.7515, 0.015510409, 0.03339359, -1393629.0, -65171.188, 0.0000030208696, 9.999683, 9.999566 
1.2548544e+3, 1.7444368e+2, -1271032.6, -1281723.5, 33596.35, 0.016401656, 0.085104644, -1242359.1, -11906.515, 0.0, 9.9998255, 9.999687 
1.2548988e+3, 1.844426e+2, -1231332.6, -1388712.4, 59592.723, -0.034519, 0.09534758, -1211313.9, -78852.06, 0.0, 10.000184, 9.998108 
1.2549432e+3, 1.9443993e+2, -1041077.75, -1246920.4, 20350.145, -0.15239933, 0.022613151, -1039085.2, -4595.454, 0.0, 10.000819, 9.998102 
1.2549883e+3, 2.0443808e+2, -807606.0, -922156.06, -26015.115, -0.14250916, -0.02802795, -801974.6, 134531.6, 0.0, 10.001054, 9.999549 
1.2550344e+3, 2.1443728e+2, -732656.44, -814001.8, 37244.992, 0.02725489, -0.075750604, -718179.75, 120328.375, 0.0, 10.000808, 9.999735 
1.2550794e+3, 2.2443593e+2, -776244.0, -1047686.25, 78744.89, 0.056112733, -0.059909355, -755054.4, -14533.622, 0.0, 10.000968, 9.997381 
1.2551232e+3, 2.3443395e+2, -585197.75, -911398.4, 31479.23, -0.091741584, 0.011501314, -582187.7, 60359.113, 0.0, 10.001634, 9.997324 
1.2551674e+3, 2.4443164e+2, -310946.06, -540965.6, -12400.0205, -0.14186686, -0.017213807, -310279.53, 234291.14, 0.0, 10.002036, 9.9990015 
1.2552123e+3, 2.5442895e+2, -185469.61, -407167.2, 55376.895, -0.07160392, -0.20062345, -172406.92, 274184.84, 0.0, 10.002132, 9.999199 
1.2552568e+3, 2.6442775e+2, -234138.48, -656960.75, 60601.02, -0.060742483, -0.110754065, -225624.28, 122982.09, 0.00000007625481, 10.00232, 9.996718 
1.2553008e+3, 2.7442843e+2, -102880.04, -551578.0, -33728.875, -0.12245837, 0.29757106, -100358.79, 150254.27, 0.0000061180435, 10.002584, 9.996641 
1.255345e+3, 2.8442654e+2, 197796.3, -45946.62, -69381.23, -0.0965922, 0.32633817, 216161.81, 368794.88, 0.00004818149, 10.002642, 9.999415 
1.2553899e+3, 2.944214e+2, 287800.88, 75582.71, 63825.64, 0.03550363, -0.1507058, 305517.66, 360187.03, 0.00017152917, 10.002468, 9.9996605 
1.2554334e+3, 3.0441803e+2, 76592.7, -537535.25, 102473.83, -0.009165044, -0.21396339, 93240.28, 93240.28, 0.00040414638, 10.002991, 9.994865 
1.2554759e+3, 3.144157e+2, 398021.56, -170424.81, -18692.93, -0.20440799, 0.07835352, 398635.6, 398635.6, 0.0007261946, 10.004276, 9.996768 
1.2646335e+3, 1.2439996e+2, -1820120.5, -1584769.4, 151009.42, -0.089631625, -0.012001256, -1510999.5, 209888.64, 0.004085261, 9.998505, 10.001605 
1.264677e+3, 1.3440256e+2, -1667695.3, -1524567.4, -72489.39, 0.103238575, 0.14988643, -1494268.1, 128590.914, 0.0022650692, 9.999132, 10.001057 
1.2647186e+3, 1.4440268e+2, -1680062.0, -1705353.0, 17039.826, -0.12600715, 0.15916759, -1671488.1, -146631.55, 0.00085386867, 9.999358, 9.9990225 
1.2647642e+3, 1.5440004e+2, -1615278.1, -1628933.4, 18162.445, -0.023545016, 0.004898248, -1602702.4, -175818.84, 0.00015477135, 9.99916, 9.998967 
1.2648095e+3, 1.6439873e+2, -1450443.6, -1437076.5, 34013.715, 0.04195115, -0.036714822, -1409095.9, -80200.5, 0.0000038088367, 9.999345, 9.999525 
1.2648545e+3, 1.7439923e+2, -1242812.6, -1272328.6, 10751.017, 0.053069707, 0.052812748, -1239311.9, -8424.932, 0.0, 10.000039, 9.999648 
1.2648992e+3, 1.8439844e+2, -1191622.3, -1348077.3, 58097.21, -0.0059972457, 0.085084446, -1172408.3, -39515.082, 0.0, 10.000363, 9.9983015 
1.2649436e+3, 1.9439605e+2, -1117319.1, -1259375.4, 119856.17, -0.15184769, 0.01866209, -1049025.8, -14107.666, 0.0, 10.000194, 9.998318 
1.2649888e+3, 2.0439416e+2, -903660.9, -996408.2, 79944.69, -0.15511553, -0.034260623, -857613.4, 79321.28, 0.0, 10.000517, 9.999295 
1.2650351e+3, 2.1439295e+2, -657509.75, -811176.56, -8013.302, 0.014108517, -0.095966645, -657093.0, 181848.27, 0.0, 10.001466, 9.999436 
1.2650806e+3, 2.2439152e+2, -651660.7, -979724.3, -1013.797, 0.051207032, -0.07463433, -651657.56, 89297.414, 0.0, 10.00179, 9.997451 
1.2651248e+3, 2.3438992e+2, -620976.8, -916503.9, 55840.773, -0.07452178, 0.026466567, -610777.5, 32199.404, 0.0, 10.001338, 9.99743 
1.2651694e+3, 2.4438785e+2, -395324.16, -586783.44, 33045.598, -0.10894512, 0.01639879, -389781.03, 155217.61, 0.0, 10.001484, 9.998949 
1.2652148e+3, 2.5438514e+2, -149940.66, -398298.97, -40637.863, -0.034648877, -0.16221908, -143460.33, 303560.22, 0.0, 10.002409, 9.999126 
1.2652594e+3, 2.6438358e+2, -208203.06, -654200.75, -53475.227, -0.033933412, -0.09893655, -201880.98, 147157.36, 0.00000015326442, 10.002541, 9.996632 
1.2653027e+3, 2.743835e+2, -234147.72, -622490.5, 25717.07, -0.12679665, 0.23867351, -232452.06, 18599.008, 0.000006713193, 10.001717, 9.9965725 
1.2653469e+3, 2.843813e+2, 55729.137, -118462.0, 7814.208, -0.11131932, 0.24325907, 56078.98, 209152.02, 0.000050966704, 10.001682, 9.999376 
1.2653923e+3, 2.9437664e+2, 307816.0, 79902.32, -123194.99, 0.035225984, -0.18022738, 361678.0, 416783.34, 0.00018813205, 10.002629, 9.999611 
1.2654361e+3, 3.0437392e+2, 76178.945, -526234.2, -103011.45, -0.01013928, -0.17698666, 93306.73, 93306.73, 0.0004524062, 10.002947, 9.994961 
1.2654789e+3, 3.1437126e+2, 140438.44, -297452.75, 36021.29, -0.21501046, 0.07746738, 143381.8, 143381.8, 0.00081808, 10.00252, 9.996738 
1.274631e+3, 1.24358006e+2, -1933525.0, -1831293.0, 206341.08, -0.20357949, 0.0050777933, -1669830.9, 51456.273, 0.0044096503, 9.998547, 9.999895 
1.2746745e+3, 1.3435769e+2, -1797430.4, -1803478.9, -48021.5, -0.05878726, 0.073092856, -1752338.0, -129043.055, 0.0024558255, 9.999176, 9.999122 
1.2747175e+3, 1.4435698e+2, -1627435.1, -1610208.5, 5861.324, -0.18382576, 0.06915226, -1608403.4, -83099.625, 0.00093550276, 9.9994135, 9.999652 
1.2747625e+3, 1.5435572e+2, -1558774.1, -1516844.5, 12583.002, -0.11919475, -0.022454897, -1513358.3, -86044.79, 0.00017466526, 9.999178, 9.999729 
1.2748078e+3, 1.6435425e+2, -1490550.6, -1523099.4, 55556.344, -0.068345554, -0.09068434, -1448934.0, -119608.484, 0.0000047674703, 9.999352, 9.998934 
1.2748535e+3, 1.7435263e+2, -1284736.1, -1365704.1, 38632.055, -0.049135417, -0.1469438, -1269261.4, -37921.79, 0.0, 10.000064, 9.998998 
1.2748992e+3, 1.8435183e+2, -1081653.4, -1125154.5, 50082.184, -0.03229616, -0.15246469, -1048802.6, 84542.0, 0.0, 10.000383, 9.999824 
1.2749451e+3, 1.9435216e+2, -999394.4, -1016623.0, 115318.164, -0.015005284, -0.11304968, -892369.2, 142968.2, 0.0, 10.000199, 9.999984 
1.2749903e+3, 2.0435108e+2, -1045951.9, -1287163.6, 109773.46, -0.045403767, -0.08012793, -1003475.0, -66127.53, 0.0, 10.000496, 9.997311 
1.275035e+3, 2.1434826e+2, -818353.6, -1137134.3, 30444.375, -0.14121804, -0.08320274, -815472.1, 23907.9, 0.0, 10.0014305, 9.997217 
1.2750803e+3, 2.2434624e+2, -565934.44, -790727.06, -18198.465, -0.14325407, -0.06466329, -564470.7, 176931.31, 0.0, 10.001743, 9.998772 
1.2751266e+3, 2.3434536e+2, -516269.47, -692232.7, 40759.582, -0.019038225, -0.044516183, -507286.63, 136123.1, 0.0, 10.001309, 9.998983 
1.2751727e+3, 2.443441e+2, -513208.47, -827012.5, 61247.79, 0.06278116, 0.021777514, -501677.9, 43746.2, 0.0, 10.001462, 9.997312 
1.2752186e+3, 2.5434238e+2, -291011.56, -672230.3, -472.51996, 0.089745104, 0.12639497, -291010.97, 156435.75, 0.0, 10.002326, 9.997286 
1.275263e+3, 2.6434016e+2, -78410.49, -369376.22, -80263.88, 0.07123467, 0.12588558, -57738.14, 291731.78, 0.00000020123079, 10.00247, 9.998623 
1.2753056e+3, 2.743371e+2, -74202.63, -293440.3, -2611.2458, -0.0086654145, -0.052448757, -74171.54, 177323.22, 0.0000075115454, 10.00173, 9.998826 
1.2753491e+3, 2.8433448e+2, -151157.61, -555990.0, 36031.957, -0.06397146, -0.074449554, -147975.61, 5545.6895, 0.000055155855, 10.001717, 9.996354 
1.2753937e+3, 2.9433247e+2, 61186.88, -415139.9, -76284.82, -0.08279783, 0.10205458, 73105.83, 128653.74, 0.00020861672, 10.002553, 9.996246 
1.2754384e+3, 3.0433092e+2, 277334.0, -87971.84, -109630.84, -0.08742614, 0.25395444, 307709.28, 307709.28, 0.00051064143, 10.002859, 9.998013 
1.2754837e+3, 3.143264e+2, 361017.84, 173059.72, 32516.508, 0.0020495176, -0.018716244, 366484.2, 366484.2, 0.000932739, 10.002469, 9.999996 
1.2846291e+3, 1.2431259e+2, -1998725.5, -1839517.1, 13652.466, -0.20171839, -0.04480844, -1838354.9, -116627.42, 0.0047468157, 9.997993, 10.000108 
1.2846719e+3, 1.3431177e+2, -2030513.3, -1901161.8, -99077.92, -0.14664422, -0.038233288, -1847518.5, -223778.02, 0.0026545508, 9.997519, 9.999249 
1.2847163e+3, 1.4431143e+2, -1814014.1, -1668207.5, 56483.016, -0.15627797, -0.024663629, -1648887.0, -123141.59, 0.0010215283, 9.997995, 9.999939 
1.2847616e+3, 1.5431108e+2, -1443642.5, -1430771.8, 22191.857, -0.14340709, -0.054083705, -1414101.0, 13645.028, 0.00019628371, 9.999832, 10.000009 
1.2848073e+3, 1.6430992e+2, -1311678.6, -1447121.4, 45044.277, -0.102959946, -0.10186829, -1298066.3, 31689.266, 0.0000059623408, 10.0006275, 9.998839 
1.2848534e+3, 1.7430791e+2, -1296399.9, -1384722.4, 63210.277, -0.051508762, -0.18672873, -1263452.4, -31677.922, 0.0, 10.000044, 9.998874 
1.2848997e+3, 1.8430695e+2, -1146099.6, -1177427.5, 48215.34, -0.01095939, -0.19327736, -1111067.6, 22714.318, 0.0, 10.000042, 9.999625 
1.2849458e+3, 1.9430736e+2, -919397.9, -1003043.06, -33356.574, 0.016381685, -0.122871466, -907724.8, 128049.86, 0.0, 10.000861, 9.999756 
1.2849912e+3, 2.0430622e+2, -945386.4, -1229786.6, -42286.656, -0.026962405, -0.08735972, -939232.06, -1446.4221, 0.0, 10.00115, 9.997389 
1.2850358e+3, 2.143031e+2, -918833.94, -1171465.9, 45460.02, -0.16209677, -0.1261717, -910902.6, -71082.85, 0.0, 10.000683, 9.997339 
1.2850812e+3, 2.2430104e+2, -689462.44, -849361.75, 54073.36, -0.17530663, -0.12014126, -672893.3, 68948.305, 0.0, 10.000892, 9.998778 
1.285128e+3, 2.3430039e+2, -417309.16, -643840.06, -5614.5063, -0.035074957, -0.07944585, -417170.1, 226677.22, 0.0, 10.001987, 9.998989 
1.285174e+3, 2.4429916e+2, -450467.72, -823902.94, -14907.41, 0.049333174, 0.0034129834, -449873.56, 95988.5, 0.0, 10.002007, 9.997073 
1.2852195e+3, 2.542973e+2, -551991.44, -823842.94, 26906.318, 0.06381106, 0.116634116, -549354.0, -101466.09, 0.0, 10.000646, 9.997054 
1.2852642e+3, 2.6429486e+2, -293199.94, -436461.84, -4675.5845, 0.047852904, 0.09159922, -293047.5, 56864.668, 0.00000014147287, 10.000838, 9.998946 
1.2853079e+3, 2.7429157e+2, 148263.34, -147287.73, -60291.29, -0.015125294, -0.14702769, 160089.33, 412024.6, 0.00000765521, 10.003086, 9.999178 
1.2853518e+3, 2.8428894e+2, 112458.67, -477962.75, -42907.965, -0.05673252, -0.1628573, 115560.65, 269521.9, 0.00005963982, 10.003739, 9.995917 
1.2853962e+3, 2.9428738e+2, -4607.4644, -500011.16, 24196.088, -0.06441515, 0.104418874, -3428.5051, 52560.01, 0.00023270336, 10.00233, 9.995771 
1.2854409e+3, 3.042862e+2, 186577.02, -80690.055, 47013.477, -0.05317533, 0.30321586, 194605.72, 194605.72, 0.0005778234, 10.002011, 9.998473 
1.2854868e+3, 3.142816e+2, 475619.53, 256307.55, -11402.955, 0.05422607, -0.034852162, 476210.8, 476210.8, 0.0010639481, 10.003131, 10.000253 
1.2946275e+3, 1.2426341e+2, -1828444.9, -1497175.8, -35018.848, -0.17216434, -0.16506284, -1493514.4, 228698.98, 0.0050962004, 9.998029, 10.002453 
1.294669e+3, 1.3426475e+2, -1862331.3, -1542129.0, -119262.41, -0.16923517, -0.19024833, -1502590.6, 121605.33, 0.0028611089, 9.997476, 10.001735 
1.2947153e+3, 1.4426616e+2, -1825501.8, -1685784.3, 117911.375, -0.05837368, -0.12765756, -1618590.8, -92410.484, 0.00111182, 9.997963, 9.999837 
1.2947617e+3, 1.5426624e+2, -1456824.8, -1464457.9, 96076.46, -0.11020031, -0.08972587, -1364489.0, 63691.35, 0.000219555, 9.999856, 9.999767 
1.2948081e+3, 1.6426589e+2, -1275351.9, -1381595.9, 25999.39, -0.08000107, -0.06571686, -1269330.8, 60853.355, 0.0000074533, 10.000669, 9.9992695 
1.2948543e+3, 1.7426525e+2, -1262538.6, -1317714.3, 41885.7, 0.03346156, -0.058140293, -1239971.6, -7781.92, 0.0, 10.000057, 9.999328 
1.2949002e+3, 1.8426396e+2, -1285323.1, -1467907.3, 72586.39, 0.04285152, -0.027916051, -1259983.1, -125779.75, 0.0, 10.000044, 9.997633 
1.2949456e+3, 1.9426173e+2, -1068941.9, -1317380.5, -258.25443, -0.07759168, -0.0046770843, -1068941.5, -32712.727, 0.0, 10.0008745, 9.997595 
1.2949914e+3, 2.0425953e+2, -798964.0, -926302.6, -59586.906, -0.124466784, -0.05556735, -775430.2, 162818.81, 0.0, 10.001149, 9.999474 
1.2950374e+3, 2.1425752e+2, -753004.6, -823068.56, 29310.322, -0.07228276, -0.22502513, -742360.2, 97900.52, 0.0, 10.000661, 9.999743 
1.2950832e+3, 2.2425596e+2, -781013.8, -1029845.1, 87387.914, -0.07057979, -0.24096397, -753390.3, -11116.423, 0.0, 10.00085, 9.99756 
1.2951288e+3, 2.3425502e+2, -529813.1, -865172.44, 39888.293, -0.13909498, -0.080697164, -525134.0, 119155.15, 0.0, 10.001932, 9.997496 
1.2951739e+3, 2.4425314e+2, -385315.1, -679312.7, -61150.504, -0.16164246, -0.030700272, -373103.25, 173208.17, 0.0, 10.0019655, 9.998086 
1.2952183e+3, 2.5425005e+2, -464413.38, -647148.9, -20802.176, -0.12281519, -0.15938282, -462075.22, -13732.574, 0.0, 10.000667, 9.998258 
1.2952633e+3, 2.6424778e+2, -369691.7, -604366.5, 68368.53, -0.116746515, -0.17737608, -351226.6, -862.061, 0.000000052184554, 10.0008745, 9.997777 
1.2953095e+3, 2.742466e+2, 39188.176, -347021.34, 31396.521, -0.15469687, -0.07599604, 41723.88, 294097.7, 0.000006761853, 10.002972, 9.997861 
1.295355e+3, 2.8424457e+2, 215340.58, -234994.92, -85251.516, -0.11115916, -0.0435335, 230938.97, 385332.9, 0.000062792315, 10.003609, 9.997652 
1.2953995e+3, 2.9424152e+2, 130745.22, -219156.86, -23978.08, 0.04068842, -0.11839594, 132380.73, 188807.67, 0.00025878826, 10.002326, 9.997706 
1.2954439e+3, 3.0424014e+2, 69824.09, -324914.22, 79624.76, 0.04750683, 0.03232287, 85280.414, 85280.414, 0.00065176375, 10.002027, 9.996783 
1.2954888e+3, 3.1423676e+2, 286911.88, -89867.734, 47004.914, -0.06727969, 0.01118725, 292687.4, 292687.4, 0.0012059646, 10.00294, 9.997961 
1.3046253e+3, 1.2421731e+2, -2010388.0, -1576786.6, 125088.22, -0.1248618, -0.16595092, -1543288.4, 179376.58, 0.0054552136, 9.996755, 10.002515 
1.3046668e+3, 1.342186e+2, -1612680.0, -1411019.4, -119861.805, -0.21586268, -0.20662661, -1355217.6, 269430.13, 0.003073975, 9.999141, 10.001836 
1.3047145e+3, 1.4422032e+2, -1547805.0, -1541640.1, 6574.7397, 0.010876764, -0.120335005, -1537461.1, -10832.601, 0.0012055306, 9.999834, 9.999918 
1.3047615e+3, 1.5422022e+2, -1670047.6, -1559094.4, 2297.4136, -0.03758541, -0.10547559, -1559046.8, -130417.13, 0.000244213, 9.998367, 9.999829 
1.304808e+3, 1.6421995e+2, -1650052.8, -1550340.0, -60596.168, -0.02237301, -0.081994936, -1521726.4, -191093.9, 0.000009295233, 9.99805, 9.999373 
1.304854e+3, 1.7421973e+2, -1355236.9, -1351593.4, -77632.32, 0.040450517, -0.040154062, -1275761.4, -43127.35, 0.0, 9.999376, 9.999425 
1.3049e+3, 1.8421833e+2, -1274243.0, -1468769.6, 12119.129, 0.031377472, -0.019939885, -1273490.9, -138842.06, 0.0, 10.000143, 9.99758 
1.3049461e+3, 1.9421539e+2, -1184150.5, -1376589.1, 93736.66, -0.066428, -0.064409144, -1146039.3, -109358.016, 0.0, 10.000102, 9.997558 
1.3049921e+3, 2.0421325e+2, -908452.44, -940550.5, 50901.95, -0.10322181, -0.12657428, -871129.4, 67571.53, 0.0, 10.000236, 9.999813 
1.305038e+3, 2.1421228e+2, -729615.8, -770531.0, -18400.922, -0.063213564, -0.22749403, -722557.8, 118144.6, 0.0, 10.000649, 10.000108 
1.305084e+3, 2.2421104e+2, -771268.56, -1003491.7, 27867.748, -0.0634345, -0.23815286, -767971.1, -25259.275, 0.0, 10.000821, 9.997755 
1.3051303e+3, 2.3420943e+2, -702385.44, -926746.2, 95764.23, -0.11325765, -0.16430172, -667069.25, -22337.295, 0.0, 10.000653, 9.997689 
1.3051757e+3, 2.4420741e+2, -468123.13, -717614.3, 29119.0, -0.14747605, -0.14070193, -464769.63, 81984.97, 0.0, 10.00139, 9.998098 
1.3052197e+3, 2.542049e+2, -74976.016, -461218.78, -23237.297, -0.1676564, -0.20903403, -73583.02, 375196.97, 0.0, 10.003346, 9.998245 
1.3052648e+3, 2.6420283e+2, 1024.8541, -461231.78, 37852.457, -0.17706507, -0.19329946, 4103.94, 354904.9, 0.000000019202236, 10.003579, 9.9974575 
1.3053115e+3, 2.7420115e+2, -190843.31, -496062.28, 57497.938, -0.17061119, -0.105007134, -180371.02, 72445.44, 0.0000058574187, 10.001553, 9.997521 
1.3053572e+3, 2.8419888e+2, -104690.25, -330447.6, -41563.27, -0.1117048, -0.10241076, -97281.34, 57556.727, 0.00006594774, 10.001154, 9.9981785 
1.3054019e+3, 2.9419604e+2, 273816.38, -81045.92, -77249.414, 0.010109543, -0.21584469, 289903.4, 346768.72, 0.00028475493, 10.003013, 9.998323 
1.3054465e+3, 3.0419475e+2, 264555.72, -261413.34, 6620.7896, 0.03070966, -0.07671658, 264639.03, 264639.03, 0.0007251385, 10.003487, 9.996525 
1.3054916e+3, 3.1419146e+2, 116918.38, -244745.61, 70544.65, -0.0066895084, -0.052546185, 130191.41, 130191.41, 0.0013470033, 10.002078, 9.997317 
1.3146216e+3, 1.24174856e+2, -2197751.0, -1966844.0, 166378.05, -0.16596968, -0.04098983, -1879785.4, -156709.97, 0.005819013, 9.996754, 9.999837 
1.3146651e+3, 1.3417369e+2, -1787163.5, -1785027.6, -25301.158, -0.30834046, -0.0645122, -1760771.9, -135679.4, 0.0032902497, 9.999197, 9.999234 
1.3147146e+3, 1.441741e+2, -1519316.8, -1506350.1, -48137.836, 0.023833847, 0.019609882, -1464260.9, 62828.406, 0.0013013786, 9.99993, 10.000118 
1.3147607e+3, 1.5417305e+2, -1645093.6, -1503518.8, -57494.39, 0.05874763, -0.09814665, -1483111.5, -54017.188, 0.00026992275, 9.99835, 10.00022 
1.3148066e+3, 1.6417202e+2, -1673941.1, -1593295.1, -23099.76, 0.052674185, -0.15641409, -1587147.3, -256046.0, 0.00001153221, 9.998014, 9.9991 
1.3148522e+3, 1.7417125e+2, -1373808.8, -1394178.0, -26164.736, -0.054818194, -0.1404537, -1355916.4, -122807.875, 0.0, 9.999389, 9.999128 
1.314899e+3, 1.8417005e+2, -1136493.6, -1187468.0, 10437.206, -0.07720447, -0.17461841, -1134439.4, 679.1051, 0.0, 10.00016, 9.999503 
1.3149472e+3, 1.9416831e+2, -1037229.4, -1070482.8, 92832.26, 0.031858705, -0.30737066, -959546.6, 77585.125, 0.0, 10.000093, 9.999663 
1.3149936e+3, 2.041673e+2, -1006663.2, -1139937.4, 62727.33, 0.02293885, -0.30508536, -981784.06, -42642.94, 0.0, 10.000215, 9.998455 
1.3150376e+3, 2.141674e+2, -848207.8, -1012990.1, 433.258, -0.15396225, -0.13812031, -848206.7, -7062.124, 0.0, 10.000629, 9.998455 
1.3150835e+3, 2.2416632e+2, -669348.44, -786081.1, 20507.553, -0.17936404, -0.11393273, -665850.5, 77304.72, 0.0, 10.000793, 9.999263 
1.3151321e+3, 2.3416363e+2, -580426.8, -670416.25, 91491.08, 0.011270725, -0.3231903, -523464.97, 121710.72, 0.0, 10.000636, 9.999459 
1.315179e+3, 2.4416189e+2, -539378.56, -854098.7, 91945.95, 0.05661617, -0.32317656, -514485.38, 32706.78, 0.0, 10.001342, 9.997186 
1.3152236e+3, 2.541617e+2, -169965.88, -633694.2, 55392.246, -0.10268696, -0.051890012, -163441.1, 285760.4, 0.0, 10.00324, 9.997112 
1.3152686e+3, 2.6415977e+2, 15004.263, -413521.0, -26837.424, -0.16907957, 0.02520139, 16678.48, 367901.4, 0.000000054232096, 10.003493, 9.997828 
1.3153136e+3, 2.7415535e+2, -156864.0, -426507.4, -12954.492, -0.105407596, -0.2124965, -156243.06, 97019.336, 0.0000056747863, 10.001555, 9.997997 
1.3153586e+3, 2.8415206e+2, -133687.4, -402023.97, 15619.205, -0.09262867, -0.3083077, -132781.31, 22510.768, 0.00007077781, 10.001203, 9.9976635 
1.3154031e+3, 2.9415077e+2, 224403.27, -169088.36, -492.3293, -0.1554396, -0.21334307, 224403.88, 281708.97, 0.000310223, 10.00295, 9.997749 
1.3154484e+3, 3.0414984e+2, 323404.75, -128911.16, -37121.047, -0.110268295, -0.051655024, 326430.97, 326430.97, 0.00079265307, 10.003441, 9.997458 
1.3154952e+3, 3.141459e+2, 166815.73, -140410.45, 30830.967, 0.14076014, -0.19615036, 169879.16, 169879.16, 0.0014745404, 10.002079, 9.998034 
1.324619e+3, 1.2412901e+2, -2164334.3, -2001861.3, -78009.67, -0.09550955, 0.0637294, -1970470.6, -246945.8, 0.006183249, 9.997202, 9.99938 
1.3246636e+3, 1.3412686e+2, -2004558.0, -1905591.1, -24843.166, -0.29500675, -0.03921309, -1899704.9, -274153.56, 0.0035072896, 9.997777, 9.999089 
1.3247143e+3, 1.441269e+2, -1717717.9, -1609091.0, -7282.6978, 0.06560001, 0.017713835, -1608604.9, -81053.25, 0.0013982238, 9.998608, 10.000047 
1.32476e+3, 1.5412572e+2, -1399813.6, -1397496.4, -60770.906, 0.08176793, -0.10495913, -1337873.1, 91685.15, 0.00029637254, 10.000079, 10.000118 
1.3248058e+3, 1.6412458e+2, -1276742.4, -1375363.6, -8413.834, 0.05022744, -0.17916209, -1276029.8, 55536.383, 0.000014169166, 10.000629, 9.9993305 
1.3248514e+3, 1.7412376e+2, -1288202.5, -1323306.0, 26724.973, -0.09959979, -0.19425775, -1273781.0, -40208.03, 0.0, 9.999851, 9.999389 
1.3248982e+3, 1.84123e+2, -1222046.3, -1142030.3, 33027.785, -0.11285966, -0.23626171, -1130158.8, 5418.785, 0.0, 9.999209, 10.00027 
1.324947e+3, 1.9412231e+2, -1162497.5, -1041237.4, 10553.72, 0.07403549, -0.34303927, -1040325.7, -2746.8816, 0.0, 9.998851, 10.000463 
1.3249938e+3, 2.04122e+2, -1168185.4, -1233651.5, 7597.672, 0.08513704, -0.30691287, -1167315.1, -227733.17, 0.0, 9.999173, 9.998317 
1.3250381e+3, 2.141223e+2, -895931.7, -1059075.0, 48033.457, -0.15159203, -0.09618444, -882840.0, -41253.164, 0.0, 10.000404, 9.998247 
1.3250843e+3, 2.2412124e+2, -603313.1, -754709.44, 54114.742, -0.20121193, -0.058846876, -585959.6, 157639.1, 0.0, 10.001255, 9.999254 
1.325133e+3, 2.3411834e+2, -443957.8, -603316.9, -10733.902, 0.008032387, -0.28891483, -443238.06, 202381.75, 0.0, 10.001574, 9.999466 
1.3251804e+3, 2.4411649e+2, -478269.8, -776535.06, -8305.052, 0.07119177, -0.3200889, -478038.75, 69597.01, 0.0, 10.001552, 9.997616 
1.325226e+3, 2.541162e+2, -455855.4, -716823.25, 60534.688, -0.06990908, -0.1016125, -442497.4, 7145.8384, 0.0, 10.001044, 9.997596 
1.3252711e+3, 2.6411447e+2, -294306.4, -561978.5, 3125.6855, -0.13439374, -0.03351282, -294269.94, 57392.03, 0.00000008813443, 10.001367, 9.997833 
1.3253158e+3, 2.741106e+2, 31853.164, -338870.25, -27420.664, -0.09721691, -0.21323869, 33870.367, 287567.63, 0.000005758402, 10.002866, 9.997971 
1.3253605e+3, 2.8410724e+2, 186717.92, -289737.06, 22618.447, -0.108261764, -0.30019873, 187789.27, 343518.03, 0.000075127005, 10.00359, 9.997285 
1.3254058e+3, 2.941048e+2, 245811.86, -202330.19, 11148.052, -0.18543184, -0.27304876, 246089.02, 303841.88, 0.00033038916, 10.003286, 9.997357 
1.3254516e+3, 3.0410346e+2, 350498.34, -44061.12, -56565.637, -0.1258935, -0.16474976, 358447.66, 358447.66, 0.00084619236, 10.003328, 9.998089 
1.3254982e+3, 3.1410107e+2, 467612.5, 57345.504, -23173.537, 0.15750472, -0.22221515, 468917.28, 468917.28, 0.0015748155, 10.003915, 9.998512 
1.3346174e+3, 1.2407913e+2, -2007821.3, -1698057.9, -140758.2, 0.010141875, 0.121539995, -1643652.3, 80368.73, 0.0065457188, 9.997284, 10.001432 
1.3346624e+3, 1.3407801e+2, -1824113.1, -1520145.8, -8099.119, -0.17480183, -0.13838334, -1519930.1, 106094.49, 0.0037237175, 9.997731, 10.001758 
1.3347133e+3, 1.4407872e+2, -1742429.3, -1659323.5, 44914.273, 0.117414296, -0.14373037, -1639688.6, -111674.53, 0.0014951822, 9.998592, 9.999714 
1.3347593e+3, 1.5407835e+2, -1431645.0, -1479753.5, 1958.163, -0.00050383486, -0.12785356, -1431565.4, -1545.383, 0.00032323142, 10.000143, 9.999525 
1.3348053e+3, 1.6407783e+2, -1215939.9, -1267401.1, -34273.508, -0.06812355, -0.13862999, -1198813.3, 133211.77, 0.000017128494, 10.000704, 10.000038 
1.3348511e+3, 1.7407745e+2, -1226355.3, -1200981.3, -3216.224, -0.110529386, -0.19266126, -1200579.9, 33445.84, 0.00000000003443261, 9.999876, 10.000217 
1.3348976e+3, 1.8407731e+2, -1249496.9, -1203707.9, 14198.531, -0.089231916, -0.19842777, -1199662.5, -63637.69, 0.0, 9.999225, 9.999842 
1.3349454e+3, 1.9407745e+2, -1198271.3, -1118787.9, -1778.0502, 0.035304222, -0.16809002, -1118748.1, -80726.28, 0.0, 9.998862, 9.999927 
1.3349926e+3, 2.0407738e+2, -1098196.4, -1084987.3, 45338.8, 0.05460748, -0.1277939, -1045774.5, -105751.45, 0.0, 9.999154, 9.999348 
1.335039e+3, 2.1407701e+2, -817619.94, -891484.94, 96083.055, -0.07716857, -0.09860754, -751615.75, 90413.46, 0.0, 10.000377, 9.999414 
1.335086e+3, 2.2407581e+2, -709258.56, -964826.6, 65695.234, -0.14934239, -0.074092045, -693360.25, 50682.184, 0.0, 10.001211, 9.997832 
1.335133e+3, 2.3407352e+2, -567881.06, -849500.2, 5905.3247, -0.13744225, -0.07745492, -567757.3, 78307.23, 0.0, 10.001525, 9.9978 
1.3351801e+3, 2.4407117e+2, -373258.6, -547465.9, -26502.768, -0.121870816, -0.14156085, -369315.88, 178769.27, 0.0, 10.001501, 9.999215 
1.3352267e+3, 2.540687e+2, -323872.28, -440617.5, 42091.246, -0.094916426, -0.33051562, -310279.4, 139824.08, 0.0, 10.001031, 9.9995 
1.3352728e+3, 2.6406705e+2, -318317.88, -607342.1, 47156.816, -0.10011964, -0.3431213, -310818.44, 41298.918, 0.00000008397673, 10.001347, 9.997533 
1.335318e+3, 2.7406663e+2, -19021.285, -418710.34, 31443.715, -0.15989062, -0.12969217, -16562.717, 237561.28, 0.0000056271715, 10.002757, 9.997476 
1.3353635e+3, 2.84064e+2, 150335.45, -339050.13, 13155.352, -0.17974627, -0.10167901, 150688.83, 306839.9, 0.0000764955, 10.003472, 9.9970045 
1.3354097e+3, 2.9405838e+2, 214214.06, -250680.36, 6255.477, -0.12982753, -0.36785862, 214298.22, 272504.75, 0.0003400778, 10.003208, 9.9970665 
1.3354555e+3, 3.040558e+2, 367468.84, 4181.3247, -35267.68, -0.06438907, -0.3808091, 370860.94, 370860.94, 0.0008788174, 10.003277, 9.998442 
1.335501e+3, 3.1405663e+2, 455603.7, 82309.42, 13543.3, 0.031485625, -0.16237071, 456094.4, 456094.4, 0.0016415936, 10.003712, 9.998778 
1.3446161e+3, 1.240295e+2, -1658775.4, -1496586.1, -8044.294, 0.06254467, -0.02757597, -1496188.1, 228314.17, 0.0069055543, 9.999544, 10.001726 
1.3446613e+3, 1.340296e+2, -1650044.3, -1373030.3, 12924.772, -0.10167015, -0.224961, -1372428.5, 254064.23, 0.0039389143, 9.998647, 10.002332 
1.3447115e+3, 1.4403059e+2, -1838389.6, -1704016.6, 22218.816, 0.12737206, -0.23524323, -1700438.0, -171957.58, 0.0015916337, 9.997938, 9.999718 
1.3447578e+3, 1.5403059e+2, -1780095.5, -1652635.3, 17721.201, -0.033100426, -0.17206676, -1650217.3, -219732.13, 0.0003501717, 9.997791, 9.999465 
1.3448043e+3, 1.6403057e+2, -1598544.3, -1437396.6, -36567.293, -0.09294504, -0.13740516, -1429487.1, -96999.18, 0.000020254476, 9.998025, 10.00016 
1.3448508e+3, 1.7403072e+2, -1365668.9, -1253092.4, -64751.72, -0.06176557, -0.15042558, -1223583.5, 10901.641, 0.0000000014653116, 9.998858, 10.00035 
1.3448976e+3, 1.8403079e+2, -1205702.9, -1198433.6, -59457.344, -0.021823933, -0.13260756, -1142499.9, -6016.8535, 0.0, 9.999594, 9.9997 
1.3449448e+3, 1.9403078e+2, -1022741.9, -1051741.3, -53091.36, 0.038391758, -0.10368956, -982205.8, 56276.246, 0.0, 10.000146, 9.999766 
1.3449922e+3, 2.0403032e+2, -901884.25, -981649.94, -1209.7279, 0.041979793, -0.09450543, -901865.9, 38620.31, 0.0, 10.000469, 9.99942 
1.3450396e+3, 2.1402936e+2, -801772.06, -872981.94, -34547.285, -0.043125387, -0.1349025, -787766.25, 54730.42, 0.0, 10.000442, 9.999506 
1.3450868e+3, 2.2402817e+2, -801328.06, -964801.94, -59620.3, -0.11966871, -0.12856422, -781894.3, -37385.832, 0.0, 10.000386, 9.998232 
1.3451335e+3, 2.3402683e+2, -714791.7, -868953.8, 24985.85, -0.17936686, -0.08026521, -710843.2, -64322.49, 0.0, 10.000297, 9.998259 
1.3451803e+3, 2.4402486e+2, -514628.72, -635929.25, 29717.535, -0.184928, -0.12367386, -507739.47, 40798.34, 0.0, 10.000626, 9.999027 
1.3452277e+3, 2.5402197e+2, -261229.1, -439401.97, -60255.633, -0.11869346, -0.3313719, -242764.92, 207797.05, 0.0, 10.001593, 9.999237 
1.3452743e+3, 2.640201e+2, -212830.45, -518424.0, -109541.23, -0.10259295, -0.36439377, -177621.55, 174956.9, 0.00000006157407, 10.001911, 9.997869 
1.3453199e+3, 2.7401972e+2, -204258.14, -461781.1, -71553.664, -0.16237704, -0.18072686, -185712.3, 68870.77, 0.0000055913592, 10.001288, 9.997883 
1.3453658e+3, 2.840177e+2, -125114.41, -429805.44, -24619.111, -0.1689939, -0.13407665, -123137.99, 33465.93, 0.00007682173, 10.0014, 9.997378 
1.3454127e+3, 2.9401338e+2, 161501.61, -229701.16, 4280.4604, -0.097892866, -0.3087681, 161548.44, 220195.36, 0.00034345183, 10.002648, 9.997478 
1.3454588e+3, 3.0401066e+2, 362447.25, 21794.773, -33444.24, -0.04023747, -0.3688298, 365699.66, 365699.66, 0.0008946951, 10.003146, 9.998634 
1.3455035e+3, 3.140107e+2, 293384.2, 25977.639, -14407.885, -0.0075266403, -0.24060363, 294158.25, 294158.25, 0.0016793038, 10.002493, 9.998978 
1.3546151e+3, 1.2398013e+2, -1761783.6, -1744503.3, -82237.63, -0.009187538, -0.44841295, -1670453.1, 54513.38, 0.0072628423, 9.999691, 9.999948 
1.3546598e+3, 1.3398191e+2, -1768715.0, -1628821.3, -20690.863, -0.1067001, -0.29715014, -1625825.3, 1127.7045, 0.004152666, 9.998696, 10.000543 
1.3547087e+3, 1.439827e+2, -1817614.3, -1668002.5, 6721.845, 0.05933192, -0.23907173, -1667701.1, -138752.47, 0.0016872559, 9.99796, 9.999957 
1.3547555e+3, 1.5398261e+2, -1751380.3, -1587221.0, 12357.36, -0.031329256, -0.23355311, -1586296.0, -155343.44, 0.0003769789, 9.997762, 9.99993 
1.3548028e+3, 1.6398278e+2, -1637969.9, -1512673.1, -10786.15, -0.03631253, -0.18098803, -1511751.4, -178796.94, 0.000023370363, 9.997991, 9.999663 
1.3548505e+3, 1.7398359e+2, -1406050.8, -1337653.5, -30692.93, 0.029578054, -0.07111622, -1325900.0, -90948.99, 0.0000000068048798, 9.998858, 9.999771 
1.3548979e+3, 1.8398355e+2, -1194449.6, -1180376.8, -40597.87, 0.06299364, -0.03657848, -1146210.0, -9258.172, 0.0, 9.999611, 9.999818 
1.3549452e+3, 1.9398233e+2, -1005643.56, -1022029.2, -30910.457, 0.064943135, -0.14752091, -981858.6, 57100.324, 0.0, 10.000165, 9.999964 
1.3549924e+3, 2.0398091e+2, -962905.06, -1108712.3, -3561.9775, 0.028911546, -0.20606399, -962818.06, -21847.168, 0.0, 10.000467, 9.99855 
1.3550398e+3, 2.1397936e+2, -873490.6, -1017671.6, -33434.38, -0.0711946, -0.20675564, -866114.8, -23126.148, 0.0, 10.000421, 9.998525 
1.355087e+3, 2.239784e+2, -659192.4, -661371.2, -65884.68, -0.1361015, -0.21996711, -594388.1, 150608.2, 0.0, 10.000348, 10.000335 
1.3551341e+3, 2.3397836e+2, -546925.6, -515133.72, 22720.744, -0.14425711, -0.28387645, -503300.38, 143687.72, 0.0, 10.000272, 10.000701 
1.3551813e+3, 2.4397762e+2, -645479.6, -899411.1, 57530.445, -0.14848045, -0.2584503, -633053.7, -84059.94, 0.0, 10.000588, 9.997238 
1.3552287e+3, 2.5397584e+2, -428862.13, -772158.06, -17427.973, -0.15717596, -0.1291402, -427979.63, 23039.588, 0.0, 10.001525, 9.996987 
1.3552757e+3, 2.6397347e+2, -163241.72, -401695.53, -123737.984, -0.15867703, -0.12455966, -110636.9, 242408.22, 0.000000036385206, 10.001848, 9.998703 
1.3553213e+3, 2.739703e+2, -126509.13, -294486.16, -88182.516, -0.14055896, -0.33972156, -88718.234, 166352.4, 0.000005925218, 10.001262, 9.999046 
1.3553677e+3, 2.839686e+2, -60777.797, -294427.75, 13627.527, -0.11937162, -0.36403316, -59985.664, 97098.46, 0.00007720777, 10.001393, 9.99831 
1.3554153e+3, 2.9396927e+2, 211564.97, -105662.71, 56109.273, -0.10570119, -0.13187635, 221196.78, 280275.7, 0.00034341367, 10.002563, 9.998372 
1.3554615e+3, 3.0396733e+2, 364292.78, 31549.668, -55215.55, -0.07000682, -0.16428219, 373215.97, 373215.97, 0.0008962013, 10.0031185, 9.9987135 
1.3555059e+3, 3.1396353e+2, 314811.56, 49262.18, -34814.1, -0.022949275, -0.4240098, 319299.9, 319299.9, 0.0016848329, 10.002584, 9.999096 
1.3646132e+3, 1.2393198e+2, -2236489.0, -2009218.5, -271089.75, -0.008128474, -0.5190293, -1828910.5, -103474.875, 0.0076198755, 9.99659, 9.999628 
1.3646586e+3, 1.3393465e+2, -1883841.5, -1743103.0, -91799.16, -0.059628844, -0.22650203, -1697805.0, -70387.836, 0.004366158, 9.998155, 10.000023 
1.3647066e+3, 1.4393502e+2, -1632625.8, -1539031.3, -8955.286, 0.015912931, -0.19439207, -1538182.0, -8764.235, 0.0017823466, 9.999066, 10.000307 
1.3647541e+3, 1.5393502e+2, -1484502.4, -1412443.0, -7155.138, -0.0039428296, -0.2235333, -1411739.5, 19678.85, 0.0004035849, 9.999391, 10.000347 
1.3648018e+3, 1.6393517e+2, -1451343.0, -1448839.4, -13654.745, 0.021789942, -0.18437688, -1436379.1, -102959.734, 0.000026350568, 9.999382, 9.999429 
1.3648495e+3, 1.7393586e+2, -1429557.3, -1383355.1, -18249.078, 0.05579722, -0.054886803, -1377016.6, -141597.67, 0.000000016360648, 9.998846, 9.999462 
1.3648972e+3, 1.8393564e+2, -1326278.1, -1263674.6, -5564.5845, 0.07252042, -0.016058784, -1263183.9, -125760.81, 0.0, 9.998798, 9.999636 
1.3649449e+3, 1.9393405e+2, -1103494.9, -1087928.0, -26355.373, 0.074274674, -0.14592408, -1068230.8, -28796.787, 0.0, 9.999578, 9.999793 
1.3649926e+3, 2.039325e+2, -1033529.06, -1121172.5, -6569.7183, 0.034458656, -0.2179375, -1033039.3, -91592.58, 0.0, 9.999895, 9.998738 
1.3650395e+3, 2.1393114e+2, -992221.8, -1047239.56, 45522.477, -0.07730853, -0.22277433, -966542.0, -123081.305, 0.0, 9.9994955, 9.998765 
1.3650869e+3, 2.2393024e+2, -755633.06, -704663.44, 24233.225, -0.13199373, -0.2446059, -694981.2, 50485.906, 0.0, 9.999676, 10.000358 
1.3651347e+3, 2.3393007e+2, -485513.0, -487705.6, -68798.484, -0.1003749, -0.322337, -417802.06, 229659.55, 0.0, 10.000702, 10.000681 
1.3651825e+3, 2.4392965e+2, -550582.4, -808305.4, -69081.31, -0.08564468, -0.27777645, -533233.4, 16231.389, 0.0, 10.001044, 9.997643 
1.3652301e+3, 2.53929e+2, -563149.0, -783051.4, 38473.797, -0.10650114, -0.085385405, -556612.0, -105132.414, 0.0, 10.000374, 9.997464 
1.365277e+3, 2.63927e+2, -360528.88, -495606.7, 26422.793, -0.12455359, -0.06874756, -355544.2, -2042.5524, 0.000000033203506, 10.000496, 9.998706 
1.3653226e+3, 2.7392325e+2, -43311.8, -259929.6, -28004.299, -0.13930167, -0.33823815, -39749.977, 215783.58, 0.000006027052, 10.001862, 9.998994 
1.3653694e+3, 2.8392154e+2, 124880.95, -164639.25, 12084.243, -0.13709778, -0.37762177, 125384.46, 282931.38, 0.00007555986, 10.002501, 9.998667 
1.3654174e+3, 2.939229e+2, 167457.92, -79447.79, 14622.795, -0.109584436, -0.11516687, 168320.92, 227853.69, 0.00033532447, 10.002058, 9.998793 
1.3654643e+3, 3.0392057e+2, 290758.6, -111361.8, -98790.36, -0.08316494, -0.16639417, 313717.88, 313717.88, 0.0008756662, 10.003081, 9.997746 
1.3655093e+3, 3.139162e+2, 804845.8, 191156.02, -162739.6, -0.11704604, -0.37145683, 845330.7, 845330.7, 0.0016472602, 10.00637, 9.998246 
1.3746104e+3, 1.238855e+2, -2151035.0, -1812885.0, -231138.05, 0.050754923, -0.1711953, -1695584.1, 30323.936, 0.0079810945, 9.996508, 10.001014 
1.3746575e+3, 1.3388808e+2, -1821768.5, -1609924.6, -32490.084, 0.025800806, 0.018240908, -1605053.6, 22830.383, 0.0045821774, 9.998137, 10.000945 
1.3747053e+3, 1.4388782e+2, -1591042.9, -1471062.6, 2403.694, -0.026087817, -0.08577433, -1471014.5, 58871.453, 0.0018779465, 9.999138, 10.000743 
1.3747539e+3, 1.5388796e+2, -1447392.5, -1350696.6, 7796.699, 0.027245859, -0.1390912, -1350072.0, 81809.28, 0.00043006244, 9.9994545, 10.00074 
1.3748017e+3, 1.6388789e+2, -1441616.0, -1442987.0, -33573.527, 0.053786997, -0.14340398, -1408721.0, -74839.55, 0.000029160963, 9.999437, 9.999446 
1.3748476e+3, 1.7388773e+2, -1427418.9, -1385322.3, -38147.773, -0.004182392, -0.09761577, -1362801.4, -126913.87, 0.000000027808229, 9.998869, 9.99944 
1.374895e+3, 1.8388711e+2, -1360162.4, -1337874.5, 15443.622, -0.019180987, -0.072383404, -1329973.9, -192078.08, 0.0, 9.998811, 9.999123 
1.3749442e+3, 1.9388595e+2, -1143127.4, -1171451.8, 4985.43, 0.043382507, -0.103022255, -1142275.5, -102368.52, 0.0, 9.999579, 9.999221 
1.3749924e+3, 2.0388505e+2, -948914.8, -945517.56, -20312.877, 0.034363087, -0.13090351, -926832.44, 15081.367, 0.0, 9.999891, 9.9999485 
1.3750389e+3, 2.1388465e+2, -892853.4, -839486.2, 31384.758, -0.08352317, -0.18201861, -824974.9, 18938.068, 0.0, 9.999484, 10.000198 
1.3750866e+3, 2.2388369e+2, -897154.9, -990098.9, 54056.688, -0.1290494, -0.2040669, -872340.3, -126419.555, 0.0, 9.999638, 9.998418 
1.3751358e+3, 2.3388197e+2, -657914.56, -833326.56, -25864.412, -0.069339745, -0.20472132, -654180.4, -6239.8076, 0.0, 10.000649, 9.998333 
1.3751842e+3, 2.4388103e+2, -392671.25, -469114.3, -90016.875, -0.023451142, -0.18581718, -333097.47, 216852.67, 0.0, 10.000992, 9.999999 
1.3752316e+3, 2.538814e+2, -359095.34, -356936.66, 12502.898, 0.0039115963, -0.17984624, -345466.6, 106476.53, 0.0, 10.0003605, 10.000398 
1.3752784e+3, 2.6388058e+2, -409534.97, -599667.6, 63218.438, -0.030027661, -0.17948695, -390433.97, -36484.027, 0.000000022673568, 10.000504, 9.99799 
1.3753241e+3, 2.7387816e+2, -134656.81, -433756.56, 26303.836, -0.17540492, -0.20206015, -132361.19, 123615.08, 0.0000059199137, 10.001795, 9.997832 
1.3753709e+3, 2.8387615e+2, 105659.55, -188597.34, 559.7887, -0.23626657, -0.1989383, 105660.61, 263655.9, 0.00007240238, 10.002428, 9.998539 
1.375419e+3, 2.9387465e+2, 161491.78, -84422.19, 1989.0856, -0.1365878, -0.22020566, 161507.86, 221512.86, 0.00031832908, 10.002022, 9.998779 
1.3754672e+3, 3.0387086e+2, 152048.23, -387280.44, 10095.723, -0.11257771, -0.33297655, 152237.16, 152237.16, 0.0008297434, 10.003027, 9.995876 
1.3755137e+3, 3.1386828e+2, 635707.5, -88785.07, -19647.248, -0.31892997, -0.15094851, 636239.94, 636239.94, 0.0015627325, 10.006062, 9.996469 
1.3846077e+3, 1.2383835e+2, -1886131.6, -1615319.4, -66789.01, 0.07195514, -0.027720459, -1599743.4, 126632.76, 0.008351057, 9.998017, 10.001649 
1.3846564e+3, 1.338397e+2, -1760069.4, -1572995.4, 48015.754, 0.105934314, 0.025976228, -1561391.1, 66968.98, 0.004803759, 9.99853, 10.001009 
1.3847038e+3, 1.4383875e+2, -1678675.1, -1534584.6, -4102.3726, -0.05252384, -0.13998078, -1534467.9, -4101.0894, 0.0019753822, 9.998629, 10.000552 
1.3847527e+3, 1.538393e+2, -1623454.1, -1460625.1, -55037.973, 0.028534723, -0.12766348, -1443767.0, -11407.987, 0.00045665295, 9.998349, 10.000521 
1.3848008e+3, 1.638393e+2, -1545041.0, -1480641.3, -101768.84, 0.07528055, -0.11982847, -1406099.8, -71740.91, 0.00003186285, 9.998689, 9.999543 
1.3848475e+3, 1.738385e+2, -1231430.9, -1276214.6, -99158.266, 0.021780683, -0.1479005, -1152167.6, 84201.08, 0.000000039188958, 10.000158, 9.999564 
1.3848948e+3, 1.8383779e+2, -1076904.8, -1204660.6, -33545.152, 0.00030724128, -0.13866575, -1068632.4, 69745.39, 0.0, 10.000768, 9.999092 
1.3849437e+3, 1.9383736e+2, -1084878.8, -1146647.5, -10062.827, 0.030018536, -0.09265614, -1083280.8, -42897.074, 0.0, 9.999996, 9.999188 
1.384992e+3, 2.0383696e+2, -970723.4, -963187.9, -44086.105, 0.014444866, -0.063505806, -922708.8, 19678.266, 0.0, 9.999773, 9.999884 
1.385039e+3, 2.1383671e+2, -751147.94, -779451.56, -108888.22, -0.0714502, -0.09158573, -655495.75, 188890.16, 0.0, 10.00049, 10.000127 
1.3850868e+3, 2.2383566e+2, -775212.44, -941281.44, -90433.91, -0.103855275, -0.11183159, -735474.7, 10920.756, 0.0, 10.000519, 9.998329 
1.3851358e+3, 2.3383352e+2, -831672.7, -926253.1, -13480.373, -0.06113194, -0.14256388, -829788.9, -181369.22, 0.0, 9.999496, 9.998252 
1.3851844e+3, 2.4383242e+2, -574360.2, -508923.13, -20415.375, -0.022019632, -0.15603948, -503076.28, 47354.31, 0.0, 9.99955, 10.000415 
1.3852324e+3, 2.5383297e+2, -186755.56, -220718.38, -95701.31, 0.006974224, -0.17840569, -106540.73, 345879.53, 0.0, 10.001325, 10.000865 
1.3852796e+3, 2.638327e+2, -157106.5, -443035.5, -118969.016, -0.017337002, -0.16246824, -114080.48, 240340.83, 0.0000000049794013, 10.0020895, 9.9983 
1.385326e+3, 2.738313e+2, -184930.44, -423826.84, -64470.977, -0.1352653, -0.10975032, -168642.2, 87795.84, 0.0000059839426, 10.001302, 9.9981365 
1.3853729e+3, 2.8382948e+2, -79994.74, -313881.03, -23985.578, -0.19171011, -0.09248388, -77560.305, 80895.87, 0.00006977794, 10.001314, 9.998214 
1.3854215e+3, 2.9382682e+2, 228953.83, -93177.45, -57855.54, -0.13480867, -0.18870895, 239029.67, 299507.7, 0.00029839875, 10.002675, 9.998399 
1.38547e+3, 3.0382246e+2, 199335.94, -339690.06, 22743.656, -0.124206096, -0.34370887, 200293.89, 200293.89, 0.0007724434, 10.003248, 9.996098 
1.3855177e+3, 3.1382057e+2, 179153.7, -224513.55, 144287.16, -0.31291324, -0.12708461, 225424.08, 225424.08, 0.0014545535, 10.002551, 9.997228 
1.3946055e+3, 1.237908e+2, -1886619.0, -1633935.0, -22782.367, 0.038094368, -0.09437321, -1631897.4, 94937.63, 0.008733579, 9.998096, 10.00148 
1.3946556e+3, 1.3378929e+2, -1819770.8, -1705212.5, 64906.52, 0.16011912, -0.23883632, -1675925.1, -47079.605, 0.005033633, 9.998567, 10.000084 
1.394702e+3, 1.4378767e+2, -1737852.9, -1661875.4, -16152.473, -0.08362627, -0.38218403, -1658584.0, -127723.164, 0.002076125, 9.998645, 9.999672 
1.3947505e+3, 1.5378909e+2, -1688236.4, -1590369.8, -65309.727, -0.021677563, -0.19555521, -1557695.4, -124843.91, 0.00048381835, 9.998331, 9.9996395 
1.3947992e+3, 1.637894e+2, -1534817.9, -1464045.8, -57955.16, 0.055327035, -0.109399505, -1431527.6, -96676.56, 0.000034571214, 9.998702, 9.999654 
1.3948484e+3, 1.7378816e+2, -1209003.6, -1238124.1, -41590.33, 0.116001, -0.20824939, -1179498.5, 57364.93, 0.00000005013657, 10.000191, 9.999813 
1.3948967e+3, 1.837876e+2, -1036255.44, -1130779.5, -57993.844, 0.1114726, -0.21681896, -1008704.5, 130164.77, 0.0, 10.000812, 9.999578 
1.3949434e+3, 1.9378829e+2, -1046036.0, -1069778.3, -40394.16, 0.015545187, -0.111382134, -1015804.75, 25058.947, 0.0, 10.0000105, 9.99971 
1.394991e+3, 2.0378828e+2, -1063855.3, -1156010.9, -26565.402, -0.049152322, -0.014340264, -1056745.8, -113879.94, 0.0, 9.999768, 9.998563 
1.3950394e+3, 2.1378736e+2, -865754.4, -1010397.94, -79274.37, -0.065357625, 0.045097295, -830768.8, 14110.057, 0.0, 10.000461, 9.998554 
1.3950874e+3, 2.237862e+2, -664751.1, -707150.7, -124396.336, -0.0798506, 0.031240936, -559761.06, 187129.7, 0.0, 10.000492, 9.999952 
1.395135e+3, 2.3378482e+2, -686508.2, -624807.8, -50321.168, -0.091183044, -0.13052002, -596632.94, 52266.125, 0.0, 9.999493, 10.000324 
1.395183e+3, 2.4378389e+2, -670605.8, -708338.6, 31352.682, -0.098220676, -0.1825614, -652880.8, -101974.88, 0.0, 9.99954, 9.999053 
1.3952324e+3, 2.537838e+2, -325044.75, -491394.28, -22632.986, -0.10815358, -0.08997311, -322020.34, 130889.21, 0.0, 10.00125, 9.999042 
1.395281e+3, 2.6378345e+2, -87548.92, -280757.66, -136542.78, -0.09776064, -0.027933529, -16892.018, 338021.78, 0.0000000011462398, 10.0020075, 9.999455 
1.395328e+3, 2.7378288e+2, -78070.695, -196118.86, -90665.53, -0.051393356, -0.047924537, -28909.375, 228007.47, 0.000005942459, 10.001274, 9.999716 
1.3953756e+3, 2.8378162e+2, -113636.84, -387422.13, 13433.752, -0.052426368, -0.039723434, -112979.27, 45948.645, 0.00006702102, 10.001326, 9.9977045 
1.395424e+3, 2.937791e+2, 159769.28, -220001.25, -84.08858, -0.1337274, -0.04452369, 159769.31, 220722.83, 0.00027987466, 10.002597, 9.997568 
1.3954729e+3, 3.0377492e+2, 328882.63, -54472.11, 2954.8772, -0.15084152, -0.22108403, 328905.4, 328905.4, 0.0007224757, 10.003177, 9.998091 
1.3955216e+3, 3.137727e+2, 370800.0, 178478.58, 116336.54, -0.18320635, -0.27694112, 425573.28, 425573.28, 0.0013609978, 10.002527, 10.000012 
1.4046042e+3, 1.23742014e+2, -1709640.8, -1578967.0, -65376.684, 0.04564581, -0.17028835, -1551875.4, 175433.2, 0.009133226, 9.999434, 10.001219 
1.4046548e+3, 1.3374001e+2, -1822423.9, -1777477.1, -8904.914, 0.23098867, -0.30384743, -1775777.1, -146450.63, 0.005275387, 9.998847, 9.999455 
1.4047007e+3, 1.4373901e+2, -1729823.1, -1667392.9, -29016.855, -0.080667414, -0.3441545, -1655989.3, -124651.58, 0.0021822979, 9.998747, 9.999581 
1.4047492e+3, 1.5374002e+2, -1458883.4, -1479092.0, -10756.223, -0.043635726, -0.19720048, -1454229.9, -20896.963, 0.00051218417, 9.999906, 9.99964 
1.4047983e+3, 1.6374026e+2, -1309933.9, -1358004.0, 31643.457, 0.0353414, -0.11941019, -1294232.4, 41101.344, 0.000037386584, 10.000256, 9.999633 
1.4048484e+3, 1.7373946e+2, -1342668.6, -1305042.1, 22467.064, 0.14582703, -0.17233741, -1294551.8, -57210.043, 0.00000006103049, 9.999279, 9.999795 
1.404897e+3, 1.8373893e+2, -1306271.6, -1278857.8, -24661.742, 0.16002767, -0.17002474, -1264349.8, -125002.51, 0.0, 9.999039, 9.999416 
1.4049436e+3, 1.9373898e+2, -1036403.44, -1085059.9, -66457.37, 0.021158842, -0.10981837, -989961.3, 51386.902, 0.0, 10.000165, 9.999531 
1.4049909e+3, 2.0373856e+2, -962616.75, -1110982.5, -49642.973, -0.058807362, -0.044789784, -947538.6, -4183.788, 0.0, 10.0004835, 9.998526 
1.4050394e+3, 2.1373752e+2, -1009471.56, -1080361.6, 7338.1226, -0.046090834, 0.006300298, -1008719.94, -163351.14, 0.0, 9.999479, 9.998547 
1.4050877e+3, 2.2373661e+2, -811980.44, -752423.44, 235.25636, -0.047367774, 0.006609121, -752422.5, -5044.3223, 0.0, 9.999379, 10.000172 
1.405135e+3, 2.3373601e+2, -478188.2, -496774.2, -62261.992, -0.07626114, -0.10085647, -424529.5, 224849.55, 0.0, 10.000808, 10.000567 
1.4051834e+3, 2.4373537e+2, -442559.6, -620373.06, -16573.596, -0.099255085, -0.12946516, -441028.0, 110355.47, 0.0, 10.001208, 9.998849 
1.4052327e+3, 2.5373468e+2, -528780.7, -619845.06, 30256.08, -0.12620406, -0.06844403, -519644.72, -66251.84, 0.0, 9.999982, 9.998771 
1.4052816e+3, 2.6373386e+2, -388055.3, -421044.8, -36367.875, -0.107812546, -0.041792534, -364616.38, -9214.98, 0.0000000047036606, 9.999926, 9.999493 
1.4053297e+3, 2.7373305e+2, 7419.9053, -146379.42, -99633.14, -0.01947501, -0.090603985, 56378.58, 313784.38, 0.0000060153247, 10.001828, 9.999788 
1.405378e+3, 2.8373197e+2, 80483.19, -298315.8, -50249.87, -0.011643167, -0.06781459, 87035.77, 246451.6, 0.000064346226, 10.002681, 9.99766 
1.405426e+3, 2.937303e+2, 43833.855, -280717.66, -24479.57, -0.13414761, 0.016268503, 45669.863, 107105.72, 0.0002689041, 10.001821, 9.997521 
1.4054753e+3, 3.0372685e+2, 163413.92, -120748.625, -21080.436, -0.16522561, -0.09044843, 164969.25, 164969.25, 0.00069600175, 10.001978, 9.998217 
1.4055245e+3, 3.1372398e+2, 602635.9, 349573.0, -63832.164, -0.19282423, -0.22367144, 617825.06, 617825.06, 0.0013114165, 10.003873, 10.000538 
1.4146042e+3, 1.2369183e+2, -1726264.3, -1630013.3, -48063.605, 0.10218015, -0.26740345, -1610122.8, 117675.91, 0.009556688, 9.999512, 10.000825 
1.4146543e+3, 1.3369209e+2, -1842861.1, -1822574.6, -39336.367, 0.30165774, -0.14171994, -1792094.8, -162293.56, 0.0055341963, 9.998862, 9.999136 
1.4146994e+3, 1.4369322e+2, -1667577.4, -1549600.6, 1617.523, -0.06588007, 0.014412535, -1549578.4, -17784.922, 0.0022969088, 9.998787, 10.000374 
1.4147489e+3, 1.5369241e+2, -1382156.3, -1333828.3, 38219.746, -0.05775947, -0.117855914, -1312774.5, 121026.37, 0.0005425403, 9.999963, 10.000612 
1.4147982e+3, 1.6369204e+2, -1310646.9, -1374558.6, 2145.4607, -0.009054042, -0.14793597, -1310575.0, 25229.816, 0.000040406845, 10.000319, 9.999491 
1.414847e+3, 1.7369264e+2, -1363759.0, -1348804.3, -13854.931, 0.08961338, -0.032029014, -1340537.8, -102736.55, 0.00000007226826, 9.999279, 9.999495 
1.4148955e+3, 1.8369202e+2, -1364690.3, -1403340.8, 5801.503, 0.11547348, 0.013809949, -1363838.3, -224028.55, 0.0, 9.999047, 9.99856 
1.4149438e+3, 1.9368954e+2, -1102718.5, -1223541.5, -21279.744, 0.02326683, -0.085298106, -1099080.3, -57243.773, 0.0, 10.000166, 9.99858 
1.4149916e+3, 2.0368774e+2, -879342.9, -937587.9, -81829.33, -0.03420187, -0.1531935, -821608.25, 122245.93, 0.0, 10.000478, 9.999721 
1.415039e+3, 2.1368724e+2, -904373.75, -857932.56, -29987.91, -0.031871833, -0.20196047, -843226.0, 2629.3628, 0.0, 9.999459, 10.000083 
1.415087e+3, 2.2368695e+2, -894168.0, -917730.56, 39198.24, -0.03137777, -0.17768304, -865018.9, -117161.54, 0.0, 9.999353, 9.999051 
1.4151362e+3, 2.3368719e+2, -589004.3, -718176.3, -3842.6152, -0.040367868, -0.05211545, -588890.1, 60968.637, 0.0, 10.000772, 9.999063 
1.4151849e+3, 2.4368685e+2, -388102.9, -508146.4, -52155.23, -0.05488507, 0.0022669062, -368608.75, 183254.25, 0.0, 10.001203, 9.999627 
1.415233e+3, 2.536856e+2, -444768.38, -452937.7, -14138.469, -0.07912169, -0.10718782, -434136.34, 19734.844, 0.0, 10.000009, 9.999907 
1.4152817e+3, 2.6368397e+2, -450478.44, -560485.6, 17637.453, -0.07989529, -0.18379629, -447719.78, -91835.195, 0.000000079284355, 9.999964, 9.998518 
1.4153312e+3, 2.7368194e+2, -87320.48, -337783.0, -21686.35, -0.0554449, -0.22689125, -85456.63, 172447.63, 0.0000071917057, 10.001802, 9.998486 
1.41538e+3, 2.8368065e+2, 99545.5, -252152.14, -69573.23, -0.079282984, -0.16748987, 112808.4, 272727.3, 0.000065903274, 10.002647, 9.997995 
1.4154276e+3, 2.9368043e+2, 87143.17, -197221.27, -52157.34, -0.15407676, 0.0052228807, 96407.88, 158333.13, 0.0002735358, 10.001841, 9.998091 
1.4154768e+3, 3.0367824e+2, 66506.73, -322505.9, 35417.277, -0.19185768, 0.058887172, 69704.97, 69704.97, 0.0007033967, 10.00198, 9.996827 
1.4155266e+3, 3.136745e+2, 466291.7, 114344.84, 19535.424, -0.36710522, -0.0012309816, 467372.72, 467372.72, 0.0013181124, 10.003661, 9.9990225 
1.4246032e+3, 1.2364212e+2, -1858330.1, -1723515.5, -44122.74, 0.105062865, -0.2559927, -1710358.8, 17927.508, 0.010011913, 9.998741, 10.000546 
1.4246528e+3, 1.336421e+2, -1813355.5, -1792177.9, -63489.55, 0.27828696, -0.1686713, -1738400.1, -108107.64, 0.0058154534, 9.9990015, 9.999275 
1.424698e+3, 1.4364432e+2, -1610045.3, -1482483.3, 16740.934, -0.096254565, 0.07295734, -1480322.8, 51951.66, 0.002423067, 9.999014, 10.000727 
1.4247486e+3, 1.5364374e+2, -1499988.5, -1347526.3, 9008.077, -0.016304934, -0.076268, -1346995.9, 87283.125, 0.00057589856, 9.998962, 10.001004 
1.4247984e+3, 1.6364345e+2, -1473976.3, -1454392.6, -66073.85, 0.04364007, -0.119601466, -1397389.0, -61107.05, 0.00004378684, 9.999205, 9.9994755 
1.424846e+3, 1.7364389e+2, -1251866.0, -1302090.4, -74955.49, 0.045328625, -0.010899102, -1197927.9, 40352.273, 0.00000008454083, 10.000082, 9.999425 
1.4248943e+3, 1.836432e+2, -1176744.3, -1323589.6, -6480.059, 0.039477464, 0.037105426, -1176458.9, -36169.13, 0.0, 10.000389, 9.998459 
1.4249435e+3, 1.9364084e+2, -1168072.6, -1266120.3, 28010.209, 0.02449172, -0.039942224, -1160635.0, -118318.83, 0.0, 9.999764, 9.998481 
1.424992e+3, 2.0363899e+2, -989759.75, -977030.4, -34462.223, 0.0076259165, -0.113131486, -948350.0, -4015.722, 0.0, 9.99966, 9.999842 
1.4250389e+3, 2.1363814e+2, -741886.56, -762744.1, -94203.25, -0.019031018, -0.21234629, -657536.56, 188801.06, 0.0, 10.0005, 10.0002365 
1.4250872e+3, 2.2363776e+2, -667885.3, -827294.94, -25603.549, -0.024765164, -0.19758844, -663873.94, 84466.07, 0.0, 10.000985, 9.998887 
1.4251372e+3, 2.3363833e+2, -584856.94, -740817.44, 22480.959, -0.004060598, -0.01663327, -581681.06, 68657.836, 0.0, 10.0009, 9.99885 
1.4251864e+3, 2.4363795e+2, -403214.88, -529674.25, -19404.268, -0.0061906367, 0.050706334, -400304.4, 152039.36, 0.0, 10.00117, 9.99949 
1.4252342e+3, 2.5363606e+2, -140018.1, -319741.8, -80243.15, -0.053918794, -0.11086429, -109405.41, 344952.2, 0.00000000006254562, 10.002165, 9.99978 
1.425283e+3, 2.636341e+2, -71979.02, -393715.4, -43770.754, -0.0817706, -0.20211336, -66130.53, 290242.88, 0.00000036239143, 10.002639, 9.998371 
1.4253326e+3, 2.736324e+2, -30327.297, -325387.6, -7817.093, -0.0922577, -0.19972616, -30120.342, 228269.44, 0.000010031926, 10.002261, 9.998349 
1.4253819e+3, 2.836308e+2, 34100.574, -311591.72, -42292.535, -0.11552011, -0.15131584, 39199.5, 199606.55, 0.00007404044, 10.00232, 9.997745 
1.4254302e+3, 2.9362944e+2, 265383.75, -140565.33, -94796.35, -0.13298461, -0.06538073, 286429.3, 348853.8, 0.00029423018, 10.003202, 9.997819 
1.4254797e+3, 3.0362737e+2, 207520.52, -302157.66, -10198.743, -0.15226348, 0.034998793, 207724.52, 207724.52, 0.0007421981, 10.003153, 9.996401 
1.4255288e+3, 3.1362396e+2, 121073.09, -91639.18, 38833.844, -0.3851809, 0.048451956, 127941.05, 127941.05, 0.0013782199, 10.001461, 9.998658 
1.4346011e+3, 1.23593055e+2, -1869914.3, -1747028.4, 6766.947, 0.024138577, -0.1252388, -1746656.9, -17886.412, 0.010506618, 9.998737, 10.000385 
1.4346501e+3, 1.3359006e+2, -1763810.3, -1695599.6, -56801.867, 0.122141674, -0.398613, -1663450.6, -32650.469, 0.006123269, 9.999025, 9.999927 
1.4346959e+3, 1.4359207e+2, -1613033.6, -1501562.9, 10612.172, -0.20472102, -0.20587914, -1500561.5, 32220.646, 0.002563054, 9.9990635, 10.000575 
1.4347485e+3, 1.5359396e+2, -1519377.5, -1386251.4, 6571.6, 0.06746519, -0.08080427, -1385927.8, 48839.754, 0.0006133788, 9.998955, 10.000743 
1.4347988e+3, 1.6359457e+2, -1464999.6, -1439923.6, -40800.52, 0.17586975, -0.023936573, -1409778.0, -73013.76, 0.000047750204, 9.999217, 9.999572 
1.4348456e+3, 1.7359316e+2, -1238021.9, -1281592.6, -39412.395, -0.006862378, -0.11314005, -1214774.6, 24004.264, 0.00000010052836, 10.000112, 9.999555 
1.4348935e+3, 1.8359241e+2, -1125023.0, -1222882.6, -27233.469, -0.091446646, -0.108647875, -1117954.8, 22833.533, 0.0, 10.000418, 9.999137 
1.434943e+3, 1.9359292e+2, -1111618.5, -1151493.3, 5683.38, 0.0025021136, 0.026024263, -1110824.3, -68037.69, 0.0, 9.999775, 9.999263 
1.4349918e+3, 2.0359242e+2, -1056851.0, -1116364.5, -12697.924, 0.037099574, 0.08204209, -1054255.0, -109461.13, 0.0, 9.999657, 9.998889 
1.4350393e+3, 2.1359028e+2, -832275.3, -945578.4, -59473.566, -0.03181694, -0.024010649, -806789.75, 40025.055, 0.0, 10.000477, 9.998992 
1.4350879e+3, 2.2358902e+2, -624582.3, -729513.94, -27632.635, -0.04921555, -0.054922123, -617750.3, 131075.94, 0.0, 10.000948, 9.999579 
1.4351381e+3, 2.3358946e+2, -521031.47, -595643.8, 21144.404, 0.01399928, 0.012634861, -515456.0, 135363.39, 0.0, 10.000848, 9.999873 
1.4351879e+3, 2.4358872e+2, -476893.8, -674665.1, 9683.005, 0.020233693, 0.02603983, -476420.84, 76404.41, 0.0, 10.001128, 9.998519 
1.4352362e+3, 2.5358605e+2, -240937.97, -514805.9, -37591.207, -0.069766276, -0.08227248, -235871.89, 218979.6, 0.000000006122379, 10.0021, 9.998472 
1.435285e+3, 2.6358426e+2, -39510.945, -315164.75, -50954.008, -0.1288273, -0.10711735, -30393.756, 326473.88, 0.0000008787704, 10.002585, 9.998941 
1.4353344e+3, 2.735842e+2, 28092.955, -199549.17, -18548.643, -0.14807679, -0.02785366, 29594.426, 288459.0, 0.000014099222, 10.002238, 9.9992285 
1.4353839e+3, 2.8358227e+2, -22265.607, -425747.56, -18752.432, -0.15239522, -0.02700844, -21395.936, 139486.22, 0.00008672284, 10.002303, 9.99697 
1.4354336e+3, 2.935774e+2, 174238.52, -307821.38, -53559.277, -0.11133815, -0.18812284, 180117.52, 243050.89, 0.0003265314, 10.003101, 9.996722 
1.4354834e+3, 3.035744e+2, 222902.53, -248543.69, -57719.15, -0.08870938, -0.13771005, 229866.23, 229866.23, 0.000809197, 10.003061, 9.996815 
1.4355311e+3, 3.135725e+2, 164118.61, -19325.479, -17471.863, -0.30192918, -0.034821156, 165767.86, 165767.86, 0.0014917563, 10.00153, 9.999127 
1.4445992e+3, 1.23543724e+2, -1870006.3, -1736843.5, 128017.44, -0.020846065, -0.091327004, -1659128.3, 70127.68, 0.011047917, 9.998694, 10.000481 
1.4446485e+3, 1.3354093e+2, -1734029.9, -1585410.9, 24056.25, 0.061931096, -0.42748556, -1581614.0, 49666.04, 0.00646129, 9.99881, 10.000792 
1.4446945e+3, 1.4354299e+2, -1697309.1, -1597708.8, 85795.48, -0.20877887, -0.25938055, -1548307.5, -15046.744, 0.0027186894, 9.998741, 10.000059 
1.444747e+3, 1.5354447e+2, -1607643.8, -1510123.6, 41397.715, 0.05545051, -0.10502315, -1494920.4, -59666.72, 0.0006559602, 9.998713, 10.0 
1.4447975e+3, 1.635449e+2, -1490704.9, -1407539.9, 12717.654, 0.15348637, -0.041295517, -1405638.5, -68384.984, 0.000052490832, 9.998858, 9.999963 
1.4448449e+3, 1.735438e+2, -1302713.3, -1245329.5, 46247.047, -0.03245007, -0.15745762, -1219597.0, 19665.504, 0.00000012546444, 9.999386, 10.000149 
1.4448933e+3, 1.8354341e+2, -1182786.5, -1232442.1, 43583.06, -0.10425407, -0.15597914, -1157455.5, -16188.851, 0.0, 9.999941, 9.999302 
1.4449431e+3, 1.9354445e+2, -989013.1, -1081714.8, 16008.207, 0.012433661, 0.019476896, -986326.56, 56934.203, 0.0, 10.000572, 9.999357 
1.4449921e+3, 2.0354421e+2, -923559.06, -1122888.8, -10267.547, 0.055214554, 0.12516142, -923031.56, 22235.715, 0.0, 10.000885, 9.99825 
1.4450397e+3, 2.1354194e+2, -860363.2, -1044118.9, -25323.236, -0.030787472, 0.082044184, -856937.25, -9643.777, 0.0, 10.000657, 9.998227 
1.4450884e+3, 2.2354026e+2, -678573.75, -750869.3, 3982.3826, -0.05915702, 0.05072222, -678355.06, 70955.11, 0.0, 10.000565, 9.999611 
1.4451386e+3, 2.3353979e+2, -522155.1, -578404.2, -16740.76, 0.00019139548, 0.01031419, -517549.78, 133758.6, 0.0, 10.000763, 10.000029 
1.4451887e+3, 2.4353854e+2, -520159.47, -715204.4, -18891.41, 0.0074603166, -0.025579622, -518346.56, 34970.31, 0.0, 10.0009165, 9.998341 
1.4452375e+3, 2.5353616e+2, -409788.44, -623475.4, 4237.401, -0.081354946, -0.08264401, -409704.44, 45636.793, 0.000000012932129, 10.00105, 9.998236 
1.4452867e+3, 2.6353452e+2, -221682.2, -444693.8, 6597.838, -0.13887428, -0.06658764, -221487.17, 135870.11, 0.0000016431604, 10.001511, 9.998568 
1.4453365e+3, 2.735343e+2, 56473.293, -230048.25, -54932.684, -0.15601026, 0.039245512, 66644.09, 326001.16, 0.000019264668, 10.002624, 9.998831 
1.4453861e+3, 2.8353208e+2, 73843.06, -362617.38, -93065.26, -0.15824588, 0.028557569, 92858.65, 254236.17, 0.0001032448, 10.002896, 9.997114 
1.4454357e+3, 2.935268e+2, -10715.468, -367907.7, -51775.19, -0.11989093, -0.19848748, -3362.0117, 60067.9, 0.00037109866, 10.001708, 9.996976 
1.4454855e+3, 3.0352423e+2, 34147.53, -327216.97, 15833.969, -0.09696728, -0.12607786, 34840.004, 34840.004, 0.0009072359, 10.001716, 9.996923 
1.4455338e+3, 3.135227e+2, 490774.5, 116995.01, 6337.4956, -0.29541096, 0.007426319, 490881.9, 490881.9, 0.0016634632, 10.003888, 9.998927 
1.4545976e+3, 1.2349404e+2, -1835753.1, -1681451.6, 162110.53, -0.057110336, -0.2022007, -1579069.5, 150674.08, 0.011640448, 9.998755, 10.000839 
1.4546475e+3, 1.3349536e+2, -1656250.3, -1430782.5, 29263.428, 0.09286404, -0.22812417, -1427046.4, 204680.0, 0.0068325973, 9.998831, 10.001852 
1.4546943e+3, 1.4349765e+2, -1760632.0, -1736426.9, 82097.85, -0.11309135, -0.053590935, -1665544.4, -131839.9, 0.0028915813, 9.998767, 9.999098 
1.4547442e+3, 1.5349543e+2, -1695826.4, -1696089.3, 42932.336, -0.08310917, -0.14377213, -1653025.3, -217289.9, 0.00070428615, 9.998725, 9.998718 
1.4547943e+3, 1.6349447e+2, -1436394.9, -1304334.3, 26958.998, -0.06697371, -0.17686513, -1299042.9, 38706.117, 0.000058062662, 9.998893, 10.000658 
1.4548442e+3, 1.7349587e+2, -1226353.8, -1092048.1, 69251.77, -0.05316255, -0.14401184, -1062736.9, 176992.84, 0.00000016567238, 9.999401, 10.001199 
1.4548941e+3, 1.8349639e+2, -1208164.9, -1286021.3, 64967.133, -0.020634562, -0.09844974, -1171355.9, -29632.57, 0.0, 9.999946, 9.998931 
1.4549439e+3, 1.9349548e+2, -1033960.0, -1175710.5, 42085.773, 0.035482094, -0.055794526, -1022406.4, 21331.518, 0.0, 10.000576, 9.99871 
1.4549927e+3, 2.0349436e+2, -950026.2, -1176200.5, -18385.865, 0.041113745, 0.014818087, -948541.3, -2786.1853, 0.0, 10.0008745, 9.99789 
1.4550403e+3, 2.1349314e+2, -882808.06, -1085882.9, -31819.713, -0.038903717, 0.10474, -877939.0, -30165.104, 0.0, 10.000636, 9.997951 
1.4550886e+3, 2.2349152e+2, -723543.8, -842307.94, 7041.5645, -0.083531946, 0.123036765, -723127.75, 26663.607, 0.0, 10.00055, 9.998994 
1.4551388e+3, 2.334894e+2, -573284.4, -678107.06, -5046.3853, -0.06458637, -0.015916899, -573042.0, 78763.06, 0.0, 10.000735, 9.999358 
1.4551887e+3, 2.434875e+2, -485734.53, -641525.4, -14326.434, -0.064851746, -0.09938239, -484428.03, 69390.125, 0.0, 10.000902, 9.998857 
1.4552382e+3, 2.534863e+2, -361141.1, -518148.56, 13157.363, -0.11031816, -0.11092603, -360046.13, 95781.71, 0.000000017460069, 10.00103, 9.99897 
1.4552882e+3, 2.634848e+2, -308275.66, -621670.25, 42151.605, -0.14305338, -0.069429405, -302705.28, 55137.375, 0.000002726617, 10.0014925, 9.997363 
1.455339e+3, 2.734829e+2, -62819.13, -460669.1, -4376.45, -0.15227841, 0.015455156, -62770.992, 197094.75, 0.000025068905, 10.002549, 9.997282 
1.455389e+3, 2.8348038e+2, 132819.28, -230175.03, -119946.836, -0.16150054, 0.024080765, 168873.19, 330764.7, 0.00012308941, 10.00285, 9.99805 
1.455437e+3, 2.9347733e+2, 99053.08, -161995.06, -89602.234, -0.1651683, -0.11308484, 126848.6, 190765.48, 0.00042673646, 10.001798, 9.998351 
1.4554863e+3, 3.034763e+2, 38287.766, -342739.6, 78402.61, -0.1807063, 0.041878518, 53789.695, 53789.695, 0.0010330351, 10.001815, 9.996771 
1.4555365e+3, 3.1347424e+2, 395960.4, -33983.67, 96276.44, -0.40919593, 0.1646851, 416534.8, 416534.8, 0.0018894668, 10.003683, 9.997991 
1.4645961e+3, 1.23445585e+2, -1747343.9, -1697736.0, 165728.1, -0.104144834, -0.18228629, -1554966.0, 175254.72, 0.012283002, 9.999627, 10.000301 
1.4646454e+3, 1.3344768e+2, -1788447.5, -1523544.1, -102141.266, 0.054509625, -0.10392455, -1488734.8, 143463.48, 0.00723705, 9.998059, 10.00158 
1.464693e+3, 1.4344935e+2, -1920163.9, -1766122.9, -13805.863, -0.037976027, 0.008104901, -1764895.3, -230713.05, 0.0030819494, 9.997471, 9.999518 
1.4647429e+3, 1.5344723e+2, -1638613.9, -1606773.1, 89962.19, -0.08139387, -0.12808202, -1531333.5, -95125.33, 0.0007585455, 9.998847, 9.999276 
1.464793e+3, 1.6344629e+2, -1357502.6, -1305839.4, 108433.38, -0.090141505, -0.17427316, -1220203.3, 118016.305, 0.00006440502, 9.999612, 10.0002985 
1.4648436e+3, 1.7344755e+2, -1271404.9, -1171377.3, 23563.236, -0.02264348, -0.10498976, -1166104.5, 74099.92, 0.00000022299002, 9.999351, 10.000671 
1.464894e+3, 1.8344775e+2, -1295263.9, -1316944.8, -19736.404, 0.019241577, -0.063191645, -1283586.8, -141384.56, 0.0, 9.999307, 9.999023 
1.4649436e+3, 1.9344632e+2, -1151141.4, -1208268.6, 16326.767, 0.007684193, -0.09087008, -1146804.5, -102584.56, 0.0, 9.999673, 9.9989195 
1.4649928e+3, 2.0344505e+2, -1037726.06, -1206958.0, 8607.554, -0.008260499, -0.051102463, -1037289.4, -91052.04, 0.0, 10.000222, 9.997994 
1.465041e+3, 2.1344429e+2, -805196.0, -1040392.4, 14842.741, -0.033089165, 0.076298065, -804263.06, 43988.953, 0.0, 10.00113, 9.998027 
1.4650899e+3, 2.2344284e+2, -612302.75, -843650.25, 60975.793, -0.043377772, 0.12687749, -597215.4, 153053.33, 0.0, 10.001555, 9.9985 
1.4651398e+3, 2.3344032e+2, -549608.5, -733161.94, 45696.887, -0.037858456, 0.007326159, -538861.25, 113426.43, 0.0, 10.001183, 9.998767 
1.4651896e+3, 2.434381e+2, -461266.56, -647061.4, 41610.426, -0.062359683, -0.06950794, -452373.25, 101931.516, 0.0, 10.001154, 9.998694 
1.4652391e+3, 2.5343665e+2, -242005.75, -470028.16, 8104.2314, -0.1523645, -0.09492129, -241718.08, 214597.98, 0.000000044837254, 10.001894, 9.99888 
1.4652894e+3, 2.634349e+2, -198884.83, -565478.3, 39002.816, -0.19601525, -0.07615098, -194781.16, 163551.69, 0.0000038968087, 10.00224, 9.997385 
1.465341e+3, 2.7343267e+2, -151768.95, -499401.0, 92983.69, -0.15776588, -0.023204898, -128460.71, 131897.22, 0.000030358568, 10.001917, 9.997323 
1.4653917e+3, 2.8343013e+2, 57112.94, -274312.1, 22445.375, -0.1401927, -0.019588577, 58626.117, 221009.61, 0.00014178392, 10.002365, 9.997979 
1.46544e+3, 2.9342753e+2, 460302.75, 1144.6748, -54321.145, -0.15749343, -0.101038694, 466641.75, 531046.2, 0.0004830399, 10.004338, 9.998246 
1.4654896e+3, 3.0342644e+2, 451290.72, -123220.9, 31113.313, -0.17004088, 0.04545447, 452970.78, 452970.78, 0.0011688304, 10.004571, 9.996946 
1.4655396e+3, 3.1342357e+2, 71764.26, -215773.78, 74016.05, -0.3359429, 0.06725967, 89698.38, 89698.38, 0.0021412917, 10.001553, 9.9977665 
1.4745949e+3, 1.23398885e+2, -1838840.0, -1913710.8, 114221.33, -0.20402147, -0.00057307974, -1756075.9, -25393.416, 0.012969953, 9.999731, 9.998763 
1.474642e+3, 1.3339785e+2, -1909528.6, -1780635.3, -166826.39, -0.087577626, -0.06328339, -1666240.1, -33543.04, 0.0076708426, 9.998083, 9.9998 
1.4746906e+3, 1.4339781e+2, -1788264.3, -1493897.1, 14940.241, -0.01980189, -0.097015366, -1493140.8, 41556.574, 0.0032881629, 9.997472, 10.0013895 
1.474743e+3, 1.5339996e+2, -1456578.8, -1231908.8, 146795.69, 0.051421903, -0.054390416, -1159397.5, 277272.75, 0.00081847684, 9.9988575, 10.001845 
1.4747943e+3, 1.6340072e+2, -1455914.1, -1521893.0, 105442.89, 0.076806575, -0.015317665, -1378420.5, -39759.215, 0.000071419374, 9.999657, 9.9987955 
1.4748436e+3, 1.7339891e+2, -1424499.4, -1497190.5, 13740.531, 0.045264423, -0.037536446, -1421988.8, -181302.56, 0.0000002932695, 9.999379, 9.998425 
1.474893e+3, 1.8339744e+2, -1254464.4, -1235320.6, -13499.31, -0.007534222, -0.054708213, -1228344.0, -85639.56, 0.0, 9.999317, 9.999579 
1.4749421e+3, 1.9339705e+2, -1074838.1, -1050550.5, 32643.578, -0.09828047, -0.08421381, -1027865.06, 16841.42, 0.0, 9.999674, 10.000003 
1.4749919e+3, 2.0339641e+2, -1001527.9, -1130893.5, 35640.207, -0.12514146, -0.06722969, -992358.9, -45645.61, 0.0, 10.000215, 9.998522 
1.4750421e+3, 2.133955e+2, -782951.0, -984027.7, 50676.28, -0.03234251, 0.0053853528, -770901.44, 77825.74, 0.0, 10.001087, 9.998434 
1.4750923e+3, 2.2339424e+2, -647812.75, -908245.9, 50790.266, 0.038168035, 0.06893504, -638258.06, 112484.18, 0.0, 10.00151, 9.998081 
1.4751418e+3, 2.3339252e+2, -591035.06, -812908.25, 34331.434, 0.053776767, 0.08099991, -585844.25, 66912.734, 0.0, 10.001157, 9.998231 
1.4751911e+3, 2.4339026e+2, -515719.84, -764722.2, 61509.234, -0.015160494, 0.066227585, -501354.4, 53422.734, 0.0, 10.001165, 9.997885 
1.4752401e+3, 2.533872e+2, -312482.8, -601940.7, 41840.17, -0.22878984, -0.03285476, -306556.3, 150249.34, 0.000000082863835, 10.00183, 9.998007 
1.4752902e+3, 2.6338473e+2, -135427.5, -416978.6, 33370.516, -0.31905317, -0.07945567, -131526.36, 227301.47, 0.0000048986644, 10.002164, 9.998443 
1.4753427e+3, 2.7338344e+2, -56604.13, -291652.94, 84483.05, -0.1929865, -0.07456529, -29389.557, 231446.92, 0.00003468843, 10.001877, 9.998767 
1.4753942e+3, 2.8338113e+2, -17838.344, -423897.63, 80401.93, -0.12047512, -0.0882213, -2497.8743, 160358.69, 0.00015695216, 10.002332, 9.996971 
1.4754444e+3, 2.9337734e+2, 338774.63, -222384.95, 29948.74, -0.13629223, -0.14966708, 340368.44, 405262.13, 0.00053465937, 10.004208, 9.996775 
1.4754947e+3, 3.033748e+2, 466382.75, -62626.16, -46239.945, -0.10799831, -0.08803581, 470394.1, 470394.1, 0.0012992219, 10.004447, 9.997421 
1.4755431e+3, 3.133712e+2, 110093.9, -147213.7, -28658.727, -0.14833067, -0.21424775, 113247.24, 113247.24, 0.002378915, 10.001608, 9.998207 
1.4845942e+3, 1.23350345e+2, -2183236.3, -2048410.0, 83136.914, -0.1028494, 0.03729818, -2008789.1, -277627.47, 0.013700781, 9.997238, 9.999042 
1.4846398e+3, 1.3334931e+2, -1821368.9, -1741250.4, -65397.793, -0.13835935, -0.024111936, -1704618.0, -71442.5, 0.00813248, 9.998698, 9.999778 
1.484689e+3, 1.4334846e+2, -1538556.1, -1398165.3, 144020.02, -0.004471128, -0.13042513, -1308144.6, 227038.48, 0.0035089266, 9.999303, 10.001161 
1.4847419e+3, 1.5335056e+2, -1545282.1, -1302355.4, 61306.04, 0.08728593, -0.069480576, -1287760.8, 149395.14, 0.0008836724, 9.99838, 10.001585 
1.4847933e+3, 1.6335131e+2, -1703045.6, -1651372.4, -58383.43, 0.11166393, -0.009121281, -1613364.1, -274216.94, 0.00007901186, 9.998015, 9.998694 
1.4848426e+3, 1.7334972e+2, -1505890.9, -1542222.6, 5989.9063, 0.049099233, -0.0007286451, -1504928.9, -263757.3, 0.00000037325287, 9.998853, 9.998366 
1.484892e+3, 1.8334848e+2, -1221560.5, -1229052.4, 65528.156, -0.015646279, 0.01003412, -1159671.3, -16482.344, 0.0, 9.999585, 9.999494 
1.4849418e+3, 1.9334815e+2, -1013748.56, -1030619.3, 22240.68, -0.09924623, -0.0025830937, -998397.3, 46793.37, 0.0, 10.000136, 9.999915 
1.4849919e+3, 2.0334755e+2, -947350.2, -1059340.6, -30849.225, -0.11984405, 0.006152062, -939414.6, 7781.863, 0.0, 10.000401, 9.998918 
1.4850426e+3, 2.1334656e+2, -886932.4, -980306.7, -19827.594, -0.02578249, 0.02229519, -882896.5, -33688.324, 0.0, 10.000143, 9.998913 
1.4850931e+3, 2.2334528e+2, -789613.2, -962095.25, 16021.656, 0.036855914, 0.053111468, -788137.56, -36916.043, 0.0, 10.0004835, 9.998199 
1.485143e+3, 2.3334375e+2, -460140.1, -745263.7, 35690.258, 0.021670131, 0.0802935, -455740.47, 197494.58, 0.0, 10.002038, 9.998267 
1.4851928e+3, 2.4334157e+2, -339622.88, -733634.44, 70019.77, -0.036190845, 0.09129095, -327549.6, 227706.11, 0.0, 10.002608, 9.997401 
1.4852422e+3, 2.5333843e+2, -418492.72, -717387.5, 58122.594, -0.17047594, 0.041823752, -407588.13, 49699.008, 0.00000011463164, 10.001379, 9.997432 
1.4852925e+3, 2.633357e+2, -303768.88, -473389.38, 66785.99, -0.24393703, -0.006642527, -280629.38, 78682.88, 0.000005857849, 10.000904, 9.998661 
1.4853442e+3, 2.7333394e+2, -13771.89, -229976.44, 43195.227, -0.2244306, -0.08829192, -5461.409, 255861.84, 0.000039061, 10.001996, 9.999133 
1.4853957e+3, 2.8333166e+2, 48665.477, -350466.3, 51142.152, -0.19066043, -0.13131304, 55114.305, 218454.95, 0.00017242816, 10.002616, 9.997335 
1.4854477e+3, 2.933289e+2, 90577.57, -303957.0, 114128.875, -0.119901426, -0.11990317, 121213.29, 186579.75, 0.00058650563, 10.002333, 9.99712 
1.4854985e+3, 3.0332613e+2, 219589.86, -176782.25, 63069.617, -0.05981157, -0.10558855, 229383.34, 229383.34, 0.0014188082, 10.002722, 9.997472 
1.4855461e+3, 3.1332177e+2, 492644.97, 11090.347, -373.843, -0.12866066, -0.3086215, 492645.25, 492645.25, 0.0025795107, 10.00436, 9.99797 
1.4945942e+3, 1.2330014e+2, -2023779.1, -1710848.3, 111849.305, 0.18218255, -0.058286685, -1674981.4, 56674.902, 0.014485426, 9.997205, 10.001379 
1.4946388e+3, 1.3330247e+2, -1679742.6, -1455183.9, 248.72012, -0.09843043, 0.015521609, -1455183.6, 178445.38, 0.008627366, 9.99873, 10.001734 
1.4946881e+3, 1.4330181e+2, -1699960.9, -1758684.0, 123099.48, -0.014664951, -0.07763804, -1602769.8, -67136.42, 0.0037456865, 9.999403, 9.99864 
1.4947392e+3, 1.5329897e+2, -1778903.8, -1794058.5, 23453.75, -0.006949637, -0.17971265, -1761833.6, -324168.38, 0.0009542572, 9.998405, 9.9982 
1.4947899e+3, 1.6329782e+2, -1611354.6, -1462287.4, -43297.67, -0.022363147, -0.1689821, -1450623.9, -110943.71, 0.00008722728, 9.998017, 9.999993 
1.4948405e+3, 1.7329998e+2, -1350494.0, -1219278.4, 40320.66, -0.035589486, 0.0029717467, -1207878.8, 33781.773, 0.0000004647829, 9.998849, 10.0005865 
1.4948915e+3, 1.8330094e+2, -1267777.1, -1331110.3, 85385.39, -0.033025373, 0.13472098, -1208375.4, -64721.297, 0.0, 9.999607, 9.998785 
1.4949428e+3, 1.9329976e+2, -1102175.0, -1218838.8, 44471.68, -0.016534876, 0.15985829, -1087156.1, -41484.56, 0.0, 10.000154, 9.998616 
1.4949934e+3, 2.0329851e+2, -931275.2, -1025495.94, -39028.703, -0.0144385975, 0.17138503, -917208.56, 30478.256, 0.0, 10.000395, 9.999154 
1.4950426e+3, 2.1329746e+2, -850240.4, -899660.6, -27540.195, -0.03392978, 0.1271384, -837949.8, 11744.874, 0.0, 10.000124, 9.9994755 
1.4950924e+3, 2.23296e+2, -752649.4, -882515.06, 58734.254, -0.07227512, 0.08436678, -730026.6, 21679.336, 0.0, 10.000464, 9.998758 
1.4951433e+3, 2.3329408e+2, -434402.6, -670903.4, 96053.68, -0.14581242, 0.016745415, -400306.47, 253414.94, 0.0, 10.001948, 9.998822 
1.4951943e+3, 2.4329206e+2, -366141.75, -768126.25, 36416.152, -0.14674982, 0.021149749, -362869.44, 192870.64, 0.0, 10.002517, 9.99721 
1.495245e+3, 2.532902e+2, -444851.3, -766848.3, 13900.56, -0.015060836, 0.12722813, -444252.34, 13509.712, 0.00000015644366, 10.001359, 9.997101 
1.4952955e+3, 2.6328763e+2, -335643.03, -550283.8, 92975.336, -0.016053837, 0.13992201, -300970.2, 58817.41, 0.000006865855, 10.000943, 9.998117 
1.4953455e+3, 2.7328402e+2, -62655.066, -319180.56, 90817.36, -0.2744606, -0.06484424, -33758.258, 228059.3, 0.000043952572, 10.001942, 9.998548 
1.4953966e+3, 2.8328168e+2, 136610.38, -145093.19, 46743.93, -0.36432806, -0.14489932, 144164.19, 307999.13, 0.00018902046, 10.002516, 9.9987955 
1.4954498e+3, 2.932819e+2, 218390.55, -30640.959, 103114.77, -0.1296526, -0.02265632, 255543.69, 321370.1, 0.000634646, 10.002302, 9.99901 
1.4955014e+3, 3.032799e+2, 195333.56, -234023.25, 105330.42, -0.04374824, -0.024895146, 219781.3, 219781.3, 0.0015128606, 10.002744, 9.997071 
1.4955488e+3, 3.1327447e+2, 424335.66, -117534.23, 65273.664, -0.30221885, -0.25404966, 432087.63, 432087.63, 0.0027195495, 10.0043, 9.997114 
1.5045919e+3, 1.2324986e+2, -2116390.0, -1679965.0, 99460.03, 0.28441754, -0.098682895, -1658367.1, 73783.64, 0.015336173, 9.99625, 10.002049 
1.504637e+3, 1.33253e+2, -1787476.4, -1476877.0, -115125.03, -0.091413155, 0.02436997, -1438858.9, 195256.0, 0.0091627855, 9.997864, 10.002002 
1.5046877e+3, 1.4325276e+2, -1786420.3, -1856161.9, -64055.867, 0.027677735, -0.017709136, -1748358.8, -212242.8, 0.0040015904, 9.999054, 9.998137 
1.5047377e+3, 1.5324925e+2, -1655668.9, -1809502.8, 23941.246, -0.045215406, -0.12130599, -1652029.0, -213871.3, 0.001031135, 9.999569, 9.997537 
1.504788e+3, 1.6324763e+2, -1336328.1, -1309357.1, 71356.58, -0.09837556, -0.12444031, -1250222.9, 89954.81, 0.000096309515, 9.999817, 10.0001745 
1.5048394e+3, 1.7324981e+2, -1211432.8, -1111915.0, 16493.52, -0.06940186, 0.012243411, -1109252.8, 132901.88, 0.000000575819, 9.999631, 10.000945 
1.5048909e+3, 1.8325076e+2, -1282124.0, -1351021.3, 3358.0886, -0.036869545, 0.12722264, -1281960.6, -137813.92, 0.0, 9.999574, 9.998658 
1.5049426e+3, 1.9324958e+2, -1157005.3, -1268823.4, 35352.496, -0.018802922, 0.17548992, -1146765.9, -100599.93, 0.0, 9.999886, 9.9984 
1.5049936e+3, 2.032484e+2, -951278.0, -1039184.94, -12674.09, -0.010265125, 0.2079373, -949487.2, -1305.6906, 0.0, 10.000281, 9.999113 
1.505043e+3, 2.1324748e+2, -744087.1, -847947.9, -49648.387, -0.018503228, 0.1793693, -724172.3, 126014.79, 0.0, 10.000856, 9.999476 
1.5050931e+3, 2.2324598e+2, -685505.75, -852600.1, 4448.2407, -0.05553598, 0.13321222, -685387.44, 66811.086, 0.0, 10.000943, 9.998732 
1.5051441e+3, 2.3324357e+2, -700023.56, -802539.6, -5557.776, -0.15531798, 0.021848619, -699723.1, -45504.31, 0.0, 10.000141, 9.998788 
1.5051952e+3, 2.432415e+2, -649170.44, -837152.0, -54625.38, -0.16558845, -0.0012607056, -634449.7, -78212.05, 0.0, 10.0002985, 9.997797 
1.5052468e+3, 2.5324035e+2, -239885.13, -588110.8, -12469.05, -0.016345294, 0.108164676, -239439.2, 218811.28, 0.00000020302433, 10.002428, 9.997809 
1.5052977e+3, 2.6323828e+2, -25747.254, -445358.0, 88774.03, 0.004331872, 0.14405708, -7738.836, 352532.53, 0.0000077496, 10.003275, 9.99771 
1.5053475e+3, 2.7323475e+2, -147182.56, -433082.75, 72478.92, -0.22815265, 0.010160627, -129858.14, 132446.47, 0.000048343012, 10.001673, 9.997895 
1.5053989e+3, 2.8323227e+2, -47866.0, -208815.66, 33577.582, -0.29391953, -0.05149759, -41141.906, 123183.02, 0.00020365651, 10.001144, 9.999014 
1.5054531e+3, 2.93232e+2, 327675.94, 66051.34, -10267.135, -0.050740074, -0.018457044, 328078.25, 394397.2, 0.0006716893, 10.002872, 9.999396 
1.505505e+3, 3.0322957e+2, 399341.7, -142529.2, -46269.82, -0.014239025, -0.07769639, 403264.25, 403264.25, 0.0015705773, 10.004183, 9.9970045 
1.5055521e+3, 3.1322616e+2, 463808.03, -99024.914, -48012.914, -0.39329368, -0.087891325, 467874.44, 467874.44, 0.0027837132, 10.004564, 9.99712 
1.5145864e+3, 1.2320001e+2, -2203456.3, -1868309.9, 104556.07, 0.10754084, -0.04291535, -1838366.6, -105727.164, 0.016257107, 9.996283, 10.000736 
1.5146342e+3, 1.3320075e+2, -1903573.0, -1713959.8, -55034.02, -0.14808242, -0.0017327829, -1699144.1, -64508.465, 0.009740974, 9.997851, 10.000369 
1.5146874e+3, 1.4320116e+2, -1667455.3, -1622928.6, -45180.918, 0.10073787, 0.052274775, -1594823.6, -58189.81, 0.0042781597, 9.999104, 9.999718 
1.5147372e+3, 1.5320162e+2, -1485851.5, -1470894.0, 46477.484, -0.03855316, 0.124363795, -1431297.4, 7333.406, 0.0011151112, 9.999625, 9.999834 
1.5147874e+3, 1.6320126e+2, -1391201.1, -1442228.5, 67939.55, -0.13786899, 0.15086016, -1344142.6, -3507.7827, 0.000106548556, 9.999894, 9.999226 
1.514839e+3, 1.7319936e+2, -1319316.1, -1346446.4, 9537.087, -0.073129304, 0.033161588, -1316299.0, -73646.86, 0.0000007145684, 9.999672, 9.999316 
1.5148902e+3, 1.8319784e+2, -1247419.3, -1286669.6, 8177.8896, -0.04836623, -0.019409573, -1245783.5, -101116.07, 0.0, 9.999603, 9.999088 
1.5149415e+3, 1.9319762e+2, -1096638.4, -1144362.8, 48951.215, -0.12578869, 0.04158935, -1066043.0, -19369.264, 0.0, 9.999888, 9.999253 
1.5149926e+3, 2.0319723e+2, -974675.06, -1087365.9, 3798.4756, -0.13518453, 0.1178312, -974547.2, -25867.043, 0.0, 10.000274, 9.998789 
1.5150441e+3, 2.1319671e+2, -787995.4, -933456.75, -25842.281, -0.0018411101, 0.18435597, -783540.7, 67144.086, 0.0, 10.000828, 9.998905 
1.5150951e+3, 2.2319528e+2, -731183.0, -939996.25, -19604.436, 0.05669376, 0.20274973, -729358.4, 23339.97, 0.0, 10.00091, 9.998149 
1.5151453e+3, 2.3319232e+2, -743383.56, -888910.7, -32202.713, -0.04152995, 0.09530842, -736576.06, -81849.66, 0.0, 10.000129, 9.9982 
1.5151958e+3, 2.4318998e+2, -561813.44, -658072.3, 4293.42, -0.1286529, 0.028016506, -561622.3, -4875.022, 0.0, 10.000302, 9.999028 
1.5152474e+3, 2.5318906e+2, -137751.48, -357467.56, 69857.83, -0.17929143, 0.00425903, -117421.57, 341329.75, 0.00000026346208, 10.002345, 9.999436 
1.5152991e+3, 2.631877e+2, -61256.363, -494831.84, 46455.85, -0.18793729, 0.028964622, -56334.67, 304428.34, 0.0000083363275, 10.003168, 9.997422 
1.5153502e+3, 2.7318585e+2, -196677.0, -534357.56, 12743.608, -0.12271696, 0.12746298, -196196.77, 66589.66, 0.000050807932, 10.001672, 9.997199 
1.5154026e+3, 2.8318334e+2, -98737.77, -333826.7, 75285.49, -0.041546468, 0.14113304, -76694.96, 88116.39, 0.00021498118, 10.00122, 9.998124 
1.5154572e+3, 2.9317963e+2, 256713.86, -70697.74, 62863.81, 0.07577188, -0.08022031, 268368.97, 335207.84, 0.0006995247, 10.002822, 9.998484 
1.5155092e+3, 3.0317575e+2, 389118.56, -130754.305, -20599.957, -0.0014330349, -0.23503354, 389933.53, 389933.53, 0.0016002683, 10.004043, 9.997152 
1.515556e+3, 3.1317657e+2, 508062.34, 18368.262, -20546.559, -0.45909366, 0.13657486, 508922.94, 508922.94, 0.0027856515, 10.004467, 9.997968 
1.524582e+3, 1.2314897e+2, -2264668.5, -1922551.1, -22215.773, 0.081872776, 0.07010357, -1921114.5, -187969.9, 0.017244658, 9.995975, 10.000511 
1.5246314e+3, 1.331486e+2, -2003548.1, -1778999.0, -22307.436, -0.17574798, 0.014303113, -1776804.4, -141651.42, 0.010359608, 9.997235, 10.000222 
1.5246862e+3, 1.4314952e+2, -1737898.6, -1580219.8, 3620.6052, 0.123409525, 0.10122438, -1580136.6, -42990.664, 0.0045741852, 9.998303, 10.000391 
1.5247364e+3, 1.5315126e+2, -1522846.6, -1393466.6, -23547.178, -0.03251501, 0.21555257, -1389314.4, 49814.4, 0.0012060112, 9.998966, 10.00068 
1.524787e+3, 1.6315135e+2, -1470329.9, -1508660.3, -59770.777, -0.13305439, 0.25032842, -1426726.9, -85599.46, 0.000118081814, 9.999482, 9.998966 
1.5248388e+3, 1.731485e+2, -1321208.1, -1400907.5, -44171.87, -0.03640661, 0.0883224, -1301567.0, -58412.25, 0.0000008766353, 9.999899, 9.99883 
1.5248904e+3, 1.831464e+2, -1158733.4, -1229143.0, 497.67297, -0.010614644, 0.002460503, -1158729.9, -13554.731, 0.0, 10.000153, 9.999218 
1.5249407e+3, 1.931463e+2, -1044754.25, -1091161.5, -5725.0527, -0.16555686, 0.052318268, -1044058.44, 3119.0063, 0.0, 10.00012, 9.999509 
1.5249921e+3, 2.0314588e+2, -981861.94, -1094624.9, -50898.605, -0.20395097, 0.110844, -962285.94, -13103.274, 0.0, 10.000245, 9.998749 
1.5250447e+3, 2.1314496e+2, -805948.8, -953287.75, -51793.926, -0.00073007814, 0.1469798, -789563.9, 61628.063, 0.0, 10.000754, 9.998802 
1.5250966e+3, 2.2314338e+2, -676543.94, -930532.3, -25459.672, 0.10300896, 0.16531381, -674017.06, 79190.44, 0.0, 10.001359, 9.997994 
1.5251465e+3, 2.3314093e+2, -461215.03, -771530.7, -16186.802, -0.010377476, 0.1239445, -460372.97, 194858.75, 0.0, 10.002146, 9.998034 
1.5251972e+3, 2.4313869e+2, -286577.72, -532597.06, 17187.885, -0.10456313, 0.08031897, -285382.72, 271869.28, 0.0, 10.002219, 9.99897 
1.5252493e+3, 2.5313717e+2, -349182.4, -461987.53, -35065.035, -0.15138552, -0.0010256361, -339171.06, 120090.586, 0.0000003530132, 10.000902, 9.999414 
1.525301e+3, 2.6313576e+2, -388476.94, -615150.06, -101686.43, -0.1683277, 0.006939202, -349546.28, 11727.66, 0.00000861748, 10.000761, 9.997756 
1.5253522e+3, 2.7313492e+2, 32864.65, -376070.7, -66995.85, -0.14904894, 0.16688691, 43560.805, 306848.84, 0.000051456984, 10.003047, 9.9976225 
1.5254048e+3, 2.8313294e+2, 303257.94, -166651.88, 49239.824, -0.071657926, 0.21826898, 308362.13, 473670.75, 0.00022517524, 10.004104, 9.997884 
1.5254602e+3, 2.9312876e+2, 205062.45, -141166.17, 62133.832, 0.12963606, -0.008361187, 215875.25, 283217.1, 0.00072377286, 10.002657, 9.998085 
1.525513e+3, 3.0312428e+2, 123184.51, -288005.8, 35794.37, 0.075895235, -0.18813284, 126277.164, 126277.164, 0.0016157482, 10.002339, 9.996895 
1.5255602e+3, 3.1312457e+2, 522801.78, 45456.94, -1097.4617, -0.4718087, 0.15551847, 522804.3, 522804.3, 0.0027559246, 10.00448, 9.998153 
1.534579e+3, 1.2309689e+2, -2190796.3, -1785694.1, -41982.176, 0.1837163, 0.26437962, -1781389.1, -47723.16, 0.018294634, 9.996037, 10.001425 
1.5346284e+3, 1.3309675e+2, -1894104.3, -1556350.8, 30787.832, -0.18319394, 0.08488295, -1553567.3, 82097.18, 0.011016667, 9.997242, 10.001758 
1.5346839e+3, 1.4309809e+2, -1758716.1, -1626994.3, 30190.13, 0.06276383, 0.13471644, -1620404.5, -82754.99, 0.0048880493, 9.998318, 10.000066 
1.5347351e+3, 1.53098e+2, -1578162.4, -1503584.4, 1191.719, -0.049304243, 0.13996555, -1503565.4, -63912.85, 0.0013030368, 9.99895, 9.999932 
1.5347867e+3, 1.6309771e+2, -1438207.4, -1448581.1, -47574.355, -0.10451037, 0.16276574, -1395538.0, -53880.63, 0.00013086536, 9.999503, 9.999371 
1.5348394e+3, 1.7309727e+2, -1271958.4, -1304607.6, -26985.463, 0.028404709, 0.18055958, -1256744.0, -13081.9795, 0.0000010420176, 9.99992, 9.999483 
1.5348911e+3, 1.8309662e+2, -1166285.1, -1252388.0, -1089.0096, 0.05227834, 0.2055595, -1166271.4, -20602.756, 0.0, 10.000182, 9.999044 
1.5349409e+3, 1.9309577e+2, -1066660.9, -1140678.8, -5556.464, -0.16169979, 0.21345337, -1066246.0, -18570.117, 0.0, 10.000135, 9.999162 
1.5349919e+3, 2.0309438e+2, -967863.0, -1066808.5, -38644.227, -0.2417758, 0.18830484, -954558.94, -4870.3716, 0.0, 10.000245, 9.998942 
1.535045e+3, 2.130922e+2, -788102.56, -910123.06, -30252.922, -0.035077162, 0.06806669, -781013.7, 70694.74, 0.0, 10.000726, 9.999112 
1.5350974e+3, 2.2309032e+2, -664619.6, -897033.06, -1776.7523, 0.060547814, 0.0260948, -664606.06, 89119.85, 0.0, 10.001318, 9.998246 
1.5351479e+3, 2.3308939e+2, -450958.56, -740375.2, 14448.416, -0.07711652, 0.11254903, -450239.06, 205496.14, 0.0, 10.002102, 9.998271 
1.5351991e+3, 2.4308768e+2, -376767.03, -711317.56, -22245.14, -0.123421244, 0.15822193, -375294.38, 182457.53, 0.0, 10.002181, 9.997762 
1.5352519e+3, 2.5308472e+2, -456038.44, -687047.0, -81810.445, 0.024782201, 0.08315357, -430000.56, 29780.344, 0.0000004707298, 10.000916, 9.997863 
1.5353036e+3, 2.6308253e+2, -327328.75, -494374.4, -39992.836, 0.016612064, 0.07018142, -318247.63, 43555.223, 0.000008627056, 10.000782, 9.998577 
1.5353535e+3, 2.7308217e+2, 114844.34, -182349.08, 22598.848, -0.31628686, 0.148412, 116552.96, 380359.94, 0.00005220266, 10.002946, 9.9990015 
1.5354058e+3, 2.8308114e+2, 301180.78, -138090.81, 12751.219, -0.37939075, 0.20404784, 301550.63, 467366.22, 0.00023559046, 10.003958, 9.998153 
1.5354626e+3, 2.9307896e+2, 206037.77, -137426.33, 2518.4167, 0.1038802, 0.16956286, 206056.23, 273888.53, 0.0007465957, 10.002649, 9.998114 
1.5355164e+3, 3.030747e+2, 86528.625, -379975.75, 80981.86, 0.19084118, 0.03708555, 100186.63, 100186.63, 0.0016288373, 10.002401, 9.996236 
1.5355645e+3, 3.130704e+2, 492184.56, -6455.491, 90133.06, -0.49728903, -0.008722867, 507976.7, 507976.7, 0.002727945, 10.004431, 9.997819 
1.5445752e+3, 1.2304316e+2, -2359599.5, -1819767.6, -82840.555, 0.2752665, 0.3550608, -1807341.3, -73142.125, 0.019406972, 9.994684, 10.001838 
1.5446253e+3, 1.3304341e+2, -1948672.4, -1464783.8, 5283.2236, -0.16388597, 0.11680897, -1464726.0, 171463.11, 0.0117135905, 9.996364, 10.002809 
1.5446813e+3, 1.43045e+2, -1851631.4, -1670128.8, -34512.656, 0.019784402, 0.12837423, -1663787.8, -125618.7, 0.0052204016, 9.997671, 10.00008 
1.5447333e+3, 1.5304428e+2, -1714283.6, -1595210.5, -37914.367, -0.063543595, 0.09157496, -1584163.1, -143983.81, 0.0014059248, 9.998121, 9.999705 
1.5447856e+3, 1.6304393e+2, -1532446.8, -1474434.6, -54644.72, -0.10261545, 0.11689372, -1441574.8, -99389.164, 0.00014487762, 9.998769, 9.999549 
1.5448388e+3, 1.7304467e+2, -1241290.5, -1260160.6, -65632.086, 0.0051626046, 0.22419898, -1184418.8, 59761.195, 0.000001197513, 9.999995, 9.999755 
1.5448911e+3, 1.8304454e+2, -1090467.5, -1214423.1, -79943.92, 0.024734396, 0.28693268, -1051290.6, 94890.93, 0.0, 10.000698, 9.999057 
1.544941e+3, 1.9304292e+2, -1039456.5, -1131052.5, -75485.49, -0.15917748, 0.22264603, -996962.3, 51232.62, 0.0, 10.0003395, 9.999128 
1.5449922e+3, 2.0304109e+2, -970927.44, -1084398.6, -74925.27, -0.22200179, 0.16436353, -933680.44, 16530.742, 0.0, 10.000303, 9.998791 
1.545046e+3, 2.1303928e+2, -751322.9, -913396.94, -103016.695, -0.03000473, 0.09934283, -701289.56, 150939.73, 0.0, 10.001075, 9.99892 
1.5450987e+3, 2.230376e+2, -611486.94, -873417.7, -101828.61, 0.05611942, 0.09056015, -576557.8, 177688.31, 0.0, 10.001696, 9.998224 
1.5451497e+3, 2.3303646e+2, -460280.6, -742263.44, -108697.336, -0.094020836, 0.15729447, -423244.8, 233012.45, 0.0, 10.0020275, 9.998293 
1.5452012e+3, 2.4303462e+2, -353145.63, -703987.56, -147049.66, -0.12989125, 0.19263712, -299664.63, 258610.39, 0.000000000009610117, 10.002373, 9.997714 
1.545254e+3, 2.5303176e+2, -184621.9, -562203.25, -117428.02, 0.06826744, 0.13466682, -151081.16, 309221.44, 0.0000005675007, 10.002814, 9.997802 
1.5453058e+3, 2.6302937e+2, -49599.953, -375904.66, -7362.9785, 0.077714, 0.11357061, -49433.89, 312891.63, 0.000008574752, 10.002764, 9.998433 
1.5453558e+3, 2.730282e+2, -73456.87, -293976.16, -46742.902, -0.3099655, 0.1278901, -63958.055, 200378.58, 0.000053640204, 10.001742, 9.998815 
1.5454078e+3, 2.8302678e+2, -71594.445, -343354.03, -139716.9, -0.4205112, 0.16495489, -12579.059, 153771.0, 0.00024584457, 10.001514, 9.997913 
1.5454645e+3, 2.9302523e+2, 233362.77, -154125.36, -180987.0, 0.02610703, 0.22543155, 304747.1, 373111.56, 0.0007696394, 10.002976, 9.997837 
1.5455192e+3, 3.0302164e+2, 342550.13, -276716.06, -56827.4, 0.14801827, 0.18804123, 347721.72, 347721.72, 0.001652309, 10.00426, 9.996043 
1.5455703e+3, 3.1301627e+2, 603829.56, 49269.996, -6650.9478, -0.36419117, 0.05951775, 603909.3, 603909.3, 0.0027323053, 10.005183, 9.997844 
1.55457e+3, 1.2298769e+2, -2372256.3, -1845067.6, -78953.86, 0.3102753, 0.32547325, -1833497.1, -98753.266, 0.020587768, 9.99468, 10.001666 
1.5546218e+3, 1.3298848e+2, -1918022.3, -1399156.3, 71181.01, -0.13095112, 0.10320331, -1389568.5, 247159.2, 0.012455585, 9.996349, 10.003276 
1.5546784e+3, 1.4299008e+2, -1820727.1, -1610761.5, -12929.37, -0.03285693, 0.07159061, -1609968.4, -71262.12, 0.0055746003, 9.997685, 10.000483 
1.5547311e+3, 1.5299009e+2, -1688685.8, -1545177.1, -20272.09, -0.09774729, 0.070529245, -1542368.4, -101659.67, 0.001515748, 9.99813, 10.000045 
1.5547839e+3, 1.6299014e+2, -1533729.1, -1480806.4, -17515.992, -0.15649505, 0.118455306, -1475534.3, -132823.33, 0.00016035176, 9.998783, 9.999499 
1.5548375e+3, 1.7299065e+2, -1250314.5, -1282300.8, -17209.076, -0.12950723, 0.21717376, -1242814.4, 1894.2003, 0.0000013687348, 10.000007, 9.9996 
1.5548903e+3, 1.8299012e+2, -1074759.0, -1186555.3, -85399.78, -0.12442059, 0.24242933, -1028589.94, 118124.445, 0.0, 10.000718, 9.999238 
1.5549411e+3, 1.9298781e+2, -1022398.06, -1095512.5, -88175.77, -0.17686558, 0.083005846, -963501.6, 85232.16, 0.0, 10.000339, 9.999373 
1.554993e+3, 2.0298612e+2, -1007873.94, -1160634.9, -57729.98, -0.16480187, 0.043592237, -988511.4, -37761.523, 0.0, 10.000295, 9.998276 
1.5550472e+3, 2.1298617e+2, -803782.3, -1018684.5, -70355.21, -0.00597221, 0.23571703, -782798.25, 69956.375, 0.0, 10.001052, 9.998213 
1.5551004e+3, 2.2298518e+2, -637058.75, -918873.4, -87987.984, 0.054597646, 0.35086885, -611843.4, 142924.72, 0.0, 10.00166, 9.99793 
1.5551516e+3, 2.329822e+2, -479791.2, -775147.4, -92214.266, -0.088332824, 0.25469878, -453365.03, 203431.94, 0.0, 10.001992, 9.998084 
1.5552032e+3, 2.4297962e+2, -290570.7, -566367.25, -132574.11, -0.15090777, 0.187804, -237179.08, 321641.06, 0.0, 10.002336, 9.998679 
1.5552558e+3, 2.529783e+2, -103627.5, -383061.88, -99370.88, -0.030946804, 0.16037452, -71893.63, 388933.38, 0.0000005355393, 10.002763, 9.999061 
1.5553078e+3, 2.629763e+2, -127226.945, -523723.47, -39574.957, -0.002313193, 0.14248532, -123315.484, 239527.47, 0.000008556659, 10.002702, 9.997449 
1.5553588e+3, 2.7297315e+2, -179878.45, -517276.84, -80827.56, -0.17403951, 0.10483547, -161514.78, 103361.29, 0.000055621294, 10.001754, 9.997273 
1.555411e+3, 2.8297016e+2, -116532.22, -447991.16, -100582.43, -0.2475548, 0.10762663, -88398.125, 78510.11, 0.00025768706, 10.00156, 9.997175 
1.5554659e+3, 2.9296815e+2, 195211.78, -229791.95, -116012.23, -0.116238244, 0.1777662, 224817.1, 293749.2, 0.0007980417, 10.00296, 9.997325 
1.5555212e+3, 3.0296567e+2, 333695.9, -275561.16, -16241.236, -0.058181267, 0.27913383, 334128.56, 334128.56, 0.0016984205, 10.004175, 9.996093 
1.5555777e+3, 3.1296197e+2, 604155.8, 80227.78, 46517.832, -0.1485607, 0.29849046, 608253.9, 608253.9, 0.0027937314, 10.005057, 9.998116 
1.5645653e+3, 1.2293171e+2, -2140786.5, -1815949.3, -32437.422, 0.28342485, 0.21175572, -1812741.8, -77453.78, 0.021849003, 9.996619, 10.000935 
1.5646191e+3, 1.3293335e+2, -1771620.9, -1387075.3, 78473.85, -0.07679055, 0.12910323, -1371677.6, 265590.56, 0.013250772, 9.997604, 10.00276 
1.5646762e+3, 1.4293464e+2, -1722927.0, -1540440.1, -85796.91, -0.03131343, 0.08905897, -1506437.9, 32814.7, 0.0059556314, 9.998264, 10.000686 
1.5647294e+3, 1.5293513e+2, -1601289.8, -1460375.6, -107911.89, -0.08912158, 0.10391516, -1401956.0, 39292.94, 0.0016345053, 9.998558, 10.000418 
1.5647824e+3, 1.6293548e+2, -1506556.4, -1408856.0, -74325.87, -0.15460296, 0.13884991, -1368764.3, -25517.629, 0.00017771397, 9.998721, 10.000021 
1.5648364e+3, 1.7293581e+2, -1403477.6, -1289073.1, -22170.566, -0.16913073, 0.1635094, -1284926.9, -39683.445, 0.0000016137079, 9.998674, 10.00019 
1.5648897e+3, 1.8293531e+2, -1305233.6, -1293533.9, -56488.504, -0.17047264, 0.15567361, -1242593.1, -95345.414, 0.0, 9.99912, 9.999272 
1.5649417e+3, 1.929335e+2, -972574.8, -1082506.4, -89941.82, -0.16359168, 0.054354995, -922133.0, 127131.336, 0.0, 10.0007305, 9.999271 
1.5649945e+3, 2.0293203e+2, -819221.94, -1107830.1, -77935.62, -0.11201474, 0.05915078, -799521.06, 151758.61, 0.0, 10.001753, 9.997934 
1.5650485e+3, 2.1293177e+2, -772344.6, -1044435.25, -76526.75, 0.034299176, 0.25506893, -752298.06, 100990.35, 0.0, 10.001449, 9.99784 
1.565102e+3, 2.2293045e+2, -687334.94, -965149.9, -64757.258, 0.08195712, 0.36839178, -672981.94, 82323.72, 0.0, 10.001414, 9.99773 
1.5651536e+3, 2.3292726e+2, -480124.9, -790236.6, -68325.945, -0.08732504, 0.26555333, -465738.28, 191599.13, 0.0, 10.00206, 9.997946 
1.5652052e+3, 2.4292457e+2, -281638.28, -565024.1, -142327.36, -0.18444799, 0.19896877, -222498.05, 336863.94, 0.0, 10.002402, 9.998661 
1.565257e+3, 2.5292346e+2, -199187.03, -424468.22, -202824.8, -0.118649855, 0.19152656, -79823.74, 381543.03, 0.00000039469393, 10.002087, 9.999102 
1.5653093e+3, 2.629216e+2, -210460.44, -560094.4, -166197.06, -0.06975944, 0.18584967, -144067.05, 219313.8, 0.000008163994, 10.00212, 9.997478 
1.5653618e+3, 2.7291828e+2, -5300.3667, -433326.03, -109645.44, -0.079832405, 0.13180493, 21152.213, 286566.34, 0.000057337416, 10.002949, 9.997277 
1.565415e+3, 2.829148e+2, 141939.11, -379567.03, -31097.059, -0.08661585, 0.102096595, 143786.86, 311237.63, 0.00027075387, 10.003576, 9.9966755 
1.5654694e+3, 2.9291183e+2, 262834.8, -270411.03, -56337.617, -0.0857012, 0.14027329, 268721.9, 338207.22, 0.0008320664, 10.003735, 9.996677 
1.5655248e+3, 3.0290958e+2, 315863.03, -275335.25, 46451.188, -0.084710844, 0.2994006, 319490.5, 319490.5, 0.001767537, 10.004014, 9.996172 
1.5655825e+3, 3.1290644e+2, 557133.1, 60874.793, 102336.32, -0.13078146, 0.3552424, 577408.2, 577408.2, 0.002916089, 10.004717, 9.998144 
1.5745606e+3, 1.228752e+2, -2215822.0, -2001841.1, -25059.86, 0.13302775, -0.012849637, -1998945.5, -263114.84, 0.023204513, 9.996753, 9.999594 
1.5746172e+3, 1.3287818e+2, -1878722.1, -1623533.4, 114879.37, -0.021406524, 0.20425655, -1579437.4, 58371.92, 0.014108494, 9.997677, 10.001084 
1.5746748e+3, 1.4287874e+2, -1717014.1, -1545125.9, -77018.8, 0.007567489, 0.19615062, -1515665.1, 24142.69, 0.0063687824, 9.99833, 10.000625 
1.5747282e+3, 1.5287948e+2, -1569741.3, -1405539.4, -97619.24, -0.049603205, 0.20121944, -1360086.1, 81713.95, 0.00176415, 9.998596, 10.000779 
1.5747814e+3, 1.6287996e+2, -1421331.6, -1239119.5, -78051.56, -0.11835344, 0.18198693, -1210257.4, 133535.28, 0.00019721544, 9.99875, 10.001174 
1.5748352e+3, 1.7288014e+2, -1311269.6, -1096542.3, -23615.117, -0.12763007, 0.062131636, -1093975.9, 151808.75, 0.0000019795527, 9.998667, 10.001518 
1.574889e+3, 1.828801e+2, -1310700.0, -1306730.8, -9693.606, -0.13160378, 0.02020954, -1298820.6, -151038.72, 0.0, 9.999123, 9.999182 
1.5749425e+3, 1.9287997e+2, -1006191.44, -1154700.9, -25228.754, -0.14173482, 0.13295484, -1002022.6, 47764.105, 0.0, 10.000734, 9.998777 
1.5749963e+3, 2.028789e+2, -831545.2, -1131400.4, -77744.91, -0.09984545, 0.21250843, -812586.56, 139214.0, 0.0, 10.001743, 9.997776 
1.5750504e+3, 2.1287611e+2, -783255.44, -1060743.5, -87573.05, 0.068039425, 0.16681829, -757929.56, 95900.63, 0.0, 10.001421, 9.997743 
1.5751037e+3, 2.2287346e+2, -698924.3, -982717.0, -50746.15, 0.1141086, 0.15564294, -690123.2, 65735.37, 0.0, 10.001383, 9.997626 
1.5751553e+3, 2.3287155e+2, -495733.25, -810364.44, -41009.125, -0.11374823, 0.19141129, -490475.97, 167403.48, 0.0, 10.002004, 9.997837 
1.5752068e+3, 2.4286945e+2, -357589.63, -701456.5, -149394.22, -0.26148206, 0.22588822, -301751.8, 258149.4, 0.0, 10.00231, 9.997767 
1.5752581e+3, 2.528674e+2, -283362.3, -586840.56, -210971.36, -0.2161235, 0.2312039, -175229.02, 286691.34, 0.00000029448665, 10.002035, 9.99801 
1.5753105e+3, 2.6286542e+2, -152687.63, -439157.38, -142233.28, -0.1478313, 0.2441779, -94064.79, 269873.03, 0.000007127328, 10.002108, 9.998318 
1.5753649e+3, 2.728635e+2, 86871.805, -236031.67, -74462.42, -0.051707435, 0.20031598, 103215.78, 369168.03, 0.000057487865, 10.002921, 9.998647 
1.5754196e+3, 2.828604e+2, 114079.45, -433796.72, -25300.64, 0.0262273, 0.14467056, 115245.34, 283225.84, 0.0002811222, 10.003555, 9.996316 
1.5754744e+3, 2.9285604e+2, 209305.03, -384531.3, -46471.082, 0.06552488, 0.1170418, 212919.66, 282946.8, 0.0008677902, 10.003746, 9.995889 
1.5755297e+3, 3.0285332e+2, 317341.56, -268619.28, 67403.65, 0.017337682, 0.26905206, 324995.1, 324995.1, 0.0018535465, 10.003997, 9.996228 
1.5755853e+3, 3.1284994e+2, 507326.84, 15565.111, 142430.05, -0.31635725, 0.27848983, 545600.4, 545600.4, 0.0030831015, 10.004466, 9.997954 
1.5845565e+3, 1.2281884e+2, -2160328.0, -1990549.9, -123098.27, 0.05097753, -0.07626806, -1925908.5, -189528.34, 0.024665277, 9.997203, 9.9994545 
1.5846153e+3, 1.3282242e+2, -2004596.8, -1757657.3, 95824.914, 0.055674918, 0.26335016, -1724835.0, -86478.555, 0.0150364665, 9.997136, 10.000417 
1.5846728e+3, 1.4282231e+2, -1876312.8, -1603416.4, -33935.848, 0.041587796, 0.22225705, -1599259.6, -58896.08, 0.0068181083, 9.99716, 10.000787 
1.5847266e+3, 1.5282328e+2, -1639550.1, -1398373.1, -55371.055, -0.020862078, 0.2172502, -1386268.1, 56083.285, 0.0019058621, 9.997937, 10.001147 
1.5847802e+3, 1.6282395e+2, -1433465.3, -1245395.5, -73658.086, -0.08926837, 0.19325675, -1219981.4, 124359.91, 0.0002187055, 9.998672, 10.001165 
1.5848343e+3, 1.7282404e+2, -1228367.3, -1068568.8, -136837.44, -0.09404531, 0.07329934, -990011.8, 256322.86, 0.000002466339, 9.999294, 10.001404 
1.5848887e+3, 1.8282396e+2, -1199622.1, -1239000.9, -157613.6, -0.10108396, 0.03456317, -1060472.9, 87859.68, 0.0, 9.999828, 9.999307 
1.584943e+3, 1.9282404e+2, -1064411.1, -1157059.8, -125133.56, -0.13832982, 0.15096116, -977302.5, 73032.68, 0.0, 10.000233, 9.998999 
1.584997e+3, 2.028231e+2, -931121.0, -1137416.8, -142609.52, -0.121240005, 0.21636035, -858266.1, 94080.83, 0.0, 10.000882, 9.998153 
1.5850516e+3, 2.1282026e+2, -654294.44, -951049.5, -125383.1, 0.028916284, 0.12582171, -608412.3, 245962.61, 0.0, 10.002101, 9.998171 
1.585105e+3, 2.2281764e+2, -543966.0, -926655.7, -85274.16, 0.086138405, 0.0993168, -525824.5, 230577.33, 0.0, 10.002527, 9.997459 
1.585157e+3, 2.3281592e+2, -628835.4, -911721.2, -103550.555, -0.07339301, 0.18656328, -594981.94, 63440.28, 0.0, 10.00125, 9.997504 
1.5852088e+3, 2.428137e+2, -614545.06, -840477.9, -174916.55, -0.19400136, 0.23643205, -519287.56, 41158.727, 0.0, 10.000622, 9.99762 
1.5852596e+3, 2.5281087e+2, -361093.2, -636470.0, -170341.78, -0.22659352, 0.17428203, -279750.97, 182722.75, 0.00000023115544, 10.001554, 9.997899 
1.585312e+3, 2.6280853e+2, -114799.61, -443724.9, -71838.63, -0.20897883, 0.16680922, -99794.29, 264700.78, 0.0000061293663, 10.002474, 9.998105 
1.5853676e+3, 2.7280733e+2, 130537.66, -241991.28, -112662.51, -0.10074594, 0.21968897, 161959.4, 428462.16, 0.00005820115, 10.003348, 9.998396 
1.585423e+3, 2.828046e+2, 204808.83, -370068.8, -124793.11, -0.0070957947, 0.20658973, 230729.86, 399257.16, 0.00029076563, 10.004103, 9.996485 
1.5854783e+3, 2.9279953e+2, 357783.47, -281422.97, -90527.36, 0.044475432, 0.08553672, 370357.03, 440935.34, 0.0009054088, 10.004638, 9.996161 
1.5855339e+3, 3.0279654e+2, 392650.0, -190511.66, 38558.91, 0.035771526, 0.17942822, 395188.47, 395188.47, 0.001949271, 10.00433, 9.996604 
1.585589e+3, 3.127941e+2, 148248.39, -162348.6, 94934.29, -0.24531072, 0.24498712, 174966.77, 174966.77, 0.0032680614, 10.002003, 9.997919 
1.5945533e+3, 1.227631e+2, -2058066.8, -1801810.1, -131396.7, 0.01643668, 0.07830695, -1746412.0, -9478.142, 0.026239868, 9.997297, 10.000707 
1.594613e+3, 1.3276608e+2, -1968131.0, -1688294.8, 87948.34, 0.13731231, 0.30356544, -1662949.5, -24039.814, 0.016040104, 9.997156, 10.000886 
1.5946698e+3, 1.427653e+2, -1848880.4, -1547334.1, -15051.002, 0.045848668, 0.15106586, -1546584.8, -5665.567, 0.0073062, 9.997161, 10.001173 
1.5947244e+3, 1.5276657e+2, -1615055.0, -1348717.6, -21401.852, -0.021096263, 0.14148138, -1347008.9, 95893.93, 0.002060233, 9.997938, 10.001491 
1.5947787e+3, 1.6276748e+2, -1517462.4, -1425344.4, -50124.297, -0.09177282, 0.16999385, -1403330.8, -58439.21, 0.00024185247, 9.998694, 9.999919 
1.5948336e+3, 1.7276749e+2, -1343894.9, -1315622.1, -112315.0, -0.090683065, 0.20517455, -1216557.4, 30335.96, 0.0000030340082, 9.999321, 9.999697 
1.5948884e+3, 1.8276694e+2, -1171508.4, -1186631.0, -146013.25, -0.10406506, 0.20972368, -1032860.75, 116038.805, 0.0, 9.999852, 9.999655 
1.5949428e+3, 1.9276576e+2, -1002333.25, -1027580.75, -108748.875, -0.17036983, 0.11560953, -905477.9, 145431.55, 0.0, 10.000229, 9.999891 
1.5949972e+3, 2.0276462e+2, -868430.2, -1007038.6, -106094.93, -0.19549768, 0.07290089, -811009.44, 141909.6, 0.0, 10.000876, 9.999051 
1.5950522e+3, 2.1276414e+2, -597601.06, -822915.3, -76633.63, -0.10949198, 0.12655182, -574007.2, 280916.06, 0.0, 10.002053, 9.999073 
1.5951064e+3, 2.2276296e+2, -567244.94, -964552.2, -117123.74, -0.034382176, 0.19684325, -535288.0, 221647.92, 0.0, 10.002476, 9.997227 
1.595159e+3, 2.3276038e+2, -669927.56, -994529.75, -149407.64, 0.0034173531, 0.25074345, -611628.8, 47336.566, 0.0, 10.001234, 9.996945 
1.5952109e+3, 2.4275735e+2, -585146.2, -775726.8, -157183.39, -0.02060922, 0.23573081, -496624.5, 64372.496, 0.0, 10.000604, 9.998075 
1.5952615e+3, 2.5275385e+2, -310067.72, -527224.1, -130268.51, -0.18000934, 0.033104748, -249060.81, 213966.75, 0.00000009760233, 10.001538, 9.998658 
1.5953137e+3, 2.6275098e+2, -198814.89, -614305.3, -41926.53, -0.27973753, -0.027570179, -194626.38, 170426.7, 0.0000054247644, 10.002451, 9.996948 
1.5953694e+3, 2.7274993e+2, 2515.978, -491681.44, -72347.0, -0.23713739, 0.20069566, 12889.327, 279953.7, 0.00006082951, 10.003276, 9.996717 
1.5954252e+3, 2.8274742e+2, 223225.31, -300443.84, -98445.46, -0.19194028, 0.29035982, 241120.7, 410210.06, 0.0003011857, 10.003968, 9.997028 
1.595481e+3, 2.9274216e+2, 412565.94, -126066.69, -62956.348, -0.1417816, 0.041261025, 419826.5, 490965.7, 0.0009367565, 10.004461, 9.997314 
1.5955374e+3, 3.027391e+2, 415563.84, -113289.15, -24461.412, -0.04622704, 0.035375554, 416692.88, 416692.88, 0.0020272518, 10.004202, 9.997198 
1.5955931e+3, 3.127387e+2, 163608.17, -147101.56, 14858.759, -0.021773037, 0.26065654, 164317.14, 164317.14, 0.0034172528, 10.002076, 9.99799 
1.604551e+3, 1.22706406e+2, -1932062.0, -1632090.4, -128275.33, 0.037913557, 0.17496051, -1584717.9, 152777.1, 0.027939666, 9.99769, 10.001699 
1.604611e+3, 1.3270885e+2, -1869991.4, -1599160.1, 42002.016, 0.21156248, 0.30250442, -1592795.8, 46674.883, 0.01712635, 9.997657, 10.001254 
1.604667e+3, 1.427081e+2, -1770712.6, -1495602.8, -40195.867, 0.043178793, 0.12703851, -1489850.1, 51626.406, 0.007836914, 9.997643, 10.001292 
1.6047226e+3, 1.527091e+2, -1550500.6, -1310553.8, -66326.03, -0.00008186414, 0.08299044, -1293440.5, 150022.03, 0.0022287087, 9.9983635, 10.001538 
1.6047779e+3, 1.6270983e+2, -1508744.8, -1462155.0, -89256.47, -0.05830635, 0.108360074, -1393203.6, -47750.316, 0.00026665046, 9.998932, 9.999554 
1.6048327e+3, 1.7271008e+2, -1394542.1, -1390037.0, -69095.625, -0.092646025, 0.21460225, -1323157.1, -75701.414, 0.0000036433328, 9.999194, 9.999245 
1.6048877e+3, 1.8270959e+2, -1240512.3, -1203130.4, -55494.44, -0.11096909, 0.24478093, -1163263.8, -13800.959, 0.0, 9.999305, 9.999805 
1.6049427e+3, 1.9270787e+2, -1136721.9, -1057608.3, -65445.47, -0.12070663, 0.06537258, -1020693.8, 30781.84, 0.0, 9.999147, 10.000208 
1.6049978e+3, 2.0270675e+2, -1061472.4, -1052678.4, -65147.504, -0.12785253, -0.012093587, -991779.7, -38295.906, 0.0, 9.999356, 9.999465 
1.6050531e+3, 2.1270756e+2, -791677.9, -868238.25, -69766.07, -0.12235214, 0.1279646, -750379.94, 105096.484, 0.0, 10.00052, 9.999496 
1.6051076e+3, 2.2270705e+2, -700193.9, -984736.2, -162179.45, -0.088241726, 0.22667651, -626726.2, 130756.48, 0.0, 10.001384, 9.99761 
1.6051601e+3, 2.3270378e+2, -598377.25, -918030.2, -153516.66, -0.0077806334, 0.17426199, -536591.75, 122925.27, 0.0, 10.0015545, 9.997312 
1.6052124e+3, 2.4270056e+2, -427880.7, -745967.56, -98029.08, 0.010452957, 0.1318531, -400096.63, 161453.58, 0.0, 10.001881, 9.997665 
1.6052641e+3, 2.5269812e+2, -195104.75, -541450.8, -158576.19, -0.11311287, 0.0997438, -133468.69, 330104.84, 0.000000007673713, 10.002636, 9.998029 
1.605317e+3, 2.6269546e+2, -126929.336, -591611.0, -120873.78, -0.21077457, 0.10462942, -97368.02, 268230.66, 0.0000049766613, 10.003001, 9.996838 
1.6053718e+3, 2.7269247e+2, -112481.89, -543838.6, -54211.98, -0.25517863, 0.13608891, -105772.99, 161853.4, 0.000062948304, 10.002465, 9.996751 
1.6054273e+3, 2.8268903e+2, -44364.18, -404576.3, -10185.813, -0.26372257, 0.12201891, -44076.383, 125582.14, 0.00030846125, 10.002017, 9.997255 
1.6054836e+3, 2.9268536e+2, 64893.324, -259764.47, -33008.805, -0.18213546, 0.0045774863, 68215.42, 139908.7, 0.00095227413, 10.001919, 9.9976225 
1.6055402e+3, 3.02683e+2, 209418.56, -146077.11, -25983.77, -0.060012378, 0.024554966, 211307.72, 211307.72, 0.0020632895, 10.002502, 9.997788 
1.6055961e+3, 3.1268278e+2, 554105.8, 102918.45, -1360.0549, -0.04461074, 0.20683052, 554109.9, 554109.9, 0.0034844272, 10.004519, 9.998527 
1.6145492e+3, 1.2264872e+2, -1875081.6, -1537555.1, -95496.52, 0.09662569, 0.19636771, -1512409.5, 225653.92, 0.02978273, 9.997775, 10.002329 
1.614609e+3, 1.3265067e+2, -1845112.4, -1563767.0, 32813.266, 0.2569769, 0.2510904, -1559990.8, 80048.8, 0.018308382, 9.997715, 10.001478 
1.6146642e+3, 1.4265083e+2, -1774499.6, -1517446.1, -24526.125, 0.0052188514, 0.15633748, -1515126.9, 26907.508, 0.008418617, 9.997701, 10.001115 
1.6147211e+3, 1.526508e+2, -1568212.1, -1357945.3, -37329.266, 0.018010793, 0.044919197, -1351514.8, 92515.914, 0.0024150687, 9.998405, 10.001195 
1.6147771e+3, 1.6265096e+2, -1459026.3, -1373466.9, -80888.766, -0.016024144, 0.0071410136, -1324742.0, 21285.428, 0.0002938315, 9.998988, 10.000137 
1.6148315e+3, 1.7265181e+2, -1331292.8, -1266836.1, -57928.8, -0.117665105, 0.094391085, -1232774.1, 15247.684, 0.000004294035, 9.99922, 10.000082 
1.6148865e+3, 1.8265189e+2, -1239444.8, -1204163.1, -59031.813, -0.14844437, 0.1295023, -1160192.6, -10170.411, 0.0, 9.999318, 9.999791 
1.6149428e+3, 1.9265044e+2, -1156281.3, -1099756.9, -68196.086, -0.016310029, 0.0016088606, -1054198.6, -2165.2866, 0.0, 9.999151, 9.999919 
1.6149989e+3, 2.0264953e+2, -1071490.3, -1068314.4, -36853.57, 0.050514024, -0.031667966, -1033014.56, -78973.82, 0.0, 9.999332, 9.999369 
1.6150545e+3, 2.1265055e+2, -800272.75, -878400.75, -22348.395, -0.032090615, 0.13413048, -794331.8, 61702.406, 0.0, 10.000485, 9.999443 
1.6151087e+3, 2.2264999e+2, -645064.06, -857862.8, -150503.75, -0.100083426, 0.19719751, -567147.94, 190893.58, 0.0, 10.001327, 9.99851 
1.6151606e+3, 2.3264612e+2, -519452.4, -745273.6, -145262.61, -0.124454744, -0.032845616, -448379.25, 211698.0, 0.0, 10.001514, 9.998518 
1.6152129e+3, 2.4264325e+2, -515783.94, -921216.2, -77448.445, -0.12173154, -0.067660674, -501492.94, 60613.402, 0.0, 10.001843, 9.996483 
1.6152674e+3, 2.5264353e+2, -337873.16, -824410.7, -122518.21, -0.053586766, 0.35203642, -308762.78, 155350.19, 0.00000000987263, 10.002573, 9.996119 
1.6153215e+3, 2.6264167e+2, -91717.8, -498671.53, -126852.56, -0.04293338, 0.526621, -55414.75, 310719.9, 0.000004852554, 10.002912, 9.99752 
1.6153748e+3, 2.7263477e+2, -17570.66, -333410.9, -69133.0, -0.19273634, 0.03032197, -3101.292, 265089.53, 0.000062990264, 10.002408, 9.998224 
1.6154292e+3, 2.8262943e+2, -47287.21, -407625.34, -20229.32, -0.26744175, -0.26004517, -46155.098, 124080.11, 0.00031075932, 10.002002, 9.997242 
1.615486e+3, 2.92629e+2, 36014.03, -320831.9, -28430.27, -0.12727138, -0.018985102, 38264.902, 110507.11, 0.000954639, 10.001924, 9.997201 
1.6155429e+3, 3.026279e+2, 239109.97, -81861.42, 33643.43, -0.041783743, 0.13700089, 242598.48, 242598.48, 0.0020610846, 10.002493, 9.998234 
1.615598e+3, 3.1262615e+2, 579827.94, 210533.86, 74062.805, -0.29625514, 0.09756416, 594127.7, 594127.7, 0.0034670702, 10.004294, 9.999374 
1.6245468e+3, 1.22590974e+2, -1905594.0, -1587639.8, 10413.676, 0.093012854, 0.15984564, -1587299.1, 151326.31, 0.03179242, 9.997717, 10.002 
1.624607e+3, 1.3259187e+2, -1767776.6, -1569887.9, 29035.72, 0.26633325, 0.14571947, -1565715.6, 74897.266, 0.019603958, 9.998435, 10.001085 
1.6246621e+3, 1.4259262e+2, -1657312.5, -1477140.0, -53046.87, -0.0021461581, 0.14224866, -1462682.0, 79920.82, 0.009062119, 9.998581, 10.000967 
1.6247195e+3, 1.5259285e+2, -1610870.1, -1385455.4, -52082.1, 0.052025348, 0.06365213, -1374003.6, 70594.5, 0.002624408, 9.99815, 10.001126 
1.624776e+3, 1.6259308e+2, -1584134.8, -1397847.4, -77204.49, 0.042292938, 0.026089193, -1370010.6, -23416.14, 0.00032476612, 9.997987, 10.000445 
1.6248305e+3, 1.7259362e+2, -1389191.6, -1247605.4, -88861.69, -0.09607978, 0.042692576, -1204784.9, 43805.08, 0.000005034694, 9.9986315, 10.000491 
1.6248858e+3, 1.8259376e+2, -1224933.6, -1171335.8, -105082.29, -0.14406222, 0.051750984, -1089689.0, 60899.67, 0.0, 9.999312, 10.000017 
1.6249426e+3, 1.9259337e+2, -1017738.0, -1005478.7, -87949.34, 0.016378539, 0.009896591, -923445.6, 129144.55, 0.0, 10.000004, 10.000144 
1.624999e+3, 2.0259301e+2, -934427.1, -1010827.1, -27431.176, 0.09857019, 0.018644026, -925598.3, 28994.969, 0.0, 10.000304, 9.999301 
1.6250545e+3, 2.1259312e+2, -936702.6, -960004.94, -23082.994, -0.012814373, 0.107998, -922497.0, -65900.55, 0.0, 9.999615, 9.999308 
1.625109e+3, 2.2259238e+2, -871573.2, -916606.94, -143693.34, -0.11016, 0.14229825, -748643.25, 9962.962, 0.0, 9.999557, 9.998959 
1.6251612e+3, 2.3259e+2, -538953.4, -687731.56, -181831.92, -0.17089912, 0.006863769, -416882.34, 243744.48, 0.0, 10.001095, 9.999116 
1.6252142e+3, 2.4258797e+2, -465678.94, -871758.0, -121676.51, -0.16266079, 0.008742948, -432011.4, 130636.03, 0.0, 10.002081, 9.996703 
1.6252697e+3, 2.525871e+2, -464783.5, -874949.8, -45717.973, -0.011569566, 0.30235648, -459749.47, 4914.239, 0.000000011745934, 10.001652, 9.996214 
1.6253245e+3, 2.6258466e+2, -313828.22, -613543.56, 18060.855, 0.042591944, 0.41555437, -312743.8, 53946.71, 0.0000048598445, 10.001425, 9.997445 
1.6253771e+3, 2.725789e+2, -108195.52, -390662.25, -34305.363, -0.16323696, 0.04360396, -104088.875, 164649.22, 0.000061827406, 10.001852, 9.998095 
1.6254313e+3, 2.8257436e+2, 14258.964, -369076.75, -34941.17, -0.25903255, -0.16343802, 17417.832, 188193.88, 0.00031000903, 10.002392, 9.997316 
1.625489e+3, 2.9257345e+2, 224284.6, -214361.64, -17144.77, -0.05856284, 0.01872684, 224953.69, 297738.75, 0.0009500043, 10.003152, 9.997338 
1.6255462e+3, 3.0257133e+2, 338266.4, -87559.04, 52075.43, 0.021253392, 0.0802038, 344542.38, 344542.38, 0.0020340013, 10.0034, 9.997761 
1.6256008e+3, 3.1256884e+2, 289866.56, 29081.2, -3037.6536, -0.34057397, 0.031131582, 289901.94, 289901.94, 0.0033887892, 10.002448, 9.9990225 
1.6345432e+3, 1.2253334e+2, -2003300.4, -1799234.8, 84676.28, -0.02915159, 0.047468062, -1768675.1, -29497.371, 0.03398967, 9.997772, 10.000488 
1.6346048e+3, 1.3253245e+2, -1840810.5, -1738657.1, 50762.66, 0.20739372, -0.02200172, -1717722.1, -76532.46, 0.02102759, 9.998508, 9.999884 
1.6346605e+3, 1.4253344e+2, -1653522.4, -1488530.5, -67698.58, -0.0077195484, 0.076169915, -1464308.8, 78873.93, 0.009775217, 9.99866, 10.000852 
1.6347179e+3, 1.5253529e+2, -1591279.3, -1352246.3, -67936.2, 0.07814299, 0.14325097, -1334287.3, 110876.88, 0.002860367, 9.998175, 10.001346 
1.6347744e+3, 1.6253638e+2, -1582648.4, -1396333.9, -64707.863, 0.09230898, 0.17601705, -1376065.5, -28912.326, 0.00036087315, 9.997992, 10.000454 
1.6348296e+3, 1.7253555e+2, -1394609.3, -1262624.9, -61459.703, -0.04617698, 0.06409926, -1238438.0, 10722.195, 0.000005927034, 9.998643, 10.000385 
1.634885e+3, 1.8253519e+2, -1187139.3, -1098017.1, -81885.42, -0.12467274, 0.01090449, -1049353.1, 101809.68, 0.0, 9.999331, 10.000511 
1.6349418e+3, 1.9253665e+2, -966491.75, -904211.2, -60129.023, -0.045493823, 0.08767086, -867637.2, 185509.7, 0.0, 10.000019, 10.000835 
1.634998e+3, 2.0253712e+2, -934864.56, -1007940.94, -46288.137, -0.009401868, 0.13446037, -912431.3, 42710.918, 0.0, 10.00029, 9.999327 
1.6350532e+3, 2.1253532e+2, -955170.4, -993785.7, -47262.977, -0.08604512, 0.051483795, -923423.4, -66260.52, 0.0, 9.999592, 9.999088 
1.635108e+3, 2.2253415e+2, -882251.4, -926529.9, -105417.766, -0.15334739, 0.058946718, -796673.2, -37496.164, 0.0, 9.999502, 9.998918 
1.6351621e+3, 2.3253527e+2, -547059.7, -690158.3, -117873.08, -0.17641713, 0.27193758, -480720.0, 180447.38, 0.0, 10.001032, 9.999127 
1.6352165e+3, 2.4253447e+2, -377289.72, -669689.56, -123841.39, -0.14601597, 0.34242553, -331888.22, 231287.16, 0.0, 10.002, 9.998132 
1.6352713e+3, 2.5252903e+2, -336470.3, -601038.94, -64273.492, -0.0047796057, -0.0038029393, -321682.47, 143542.23, 0.000000006263202, 10.001622, 9.998108 
1.6353257e+3, 2.625248e+2, -361019.2, -715972.6, 19744.602, 0.03282795, -0.16052556, -359924.25, 7340.0605, 0.000005059976, 10.001436, 9.996741 
1.6353786e+3, 2.7252448e+2, -216940.56, -615294.2, -14421.922, -0.18705086, 0.15512654, -216419.11, 52852.613, 0.00006027021, 10.001843, 9.996559 
1.6354334e+3, 2.8252295e+2, 12264.741, -364788.03, -10599.861, -0.2689969, 0.3404714, 12562.494, 183850.42, 0.00030506434, 10.002353, 9.997366 
1.6354927e+3, 2.9251838e+2, 250473.9, -140404.89, 15264.748, -0.003936079, 0.10691695, 251069.13, 324394.22, 0.00093549, 10.003067, 9.997888 
1.6355503e+3, 3.0251333e+2, 246194.84, -260385.73, 27465.064, 0.08941953, -0.10903442, 247679.55, 247679.55, 0.0019868761, 10.003322, 9.996612 
1.6356039e+3, 3.125107e+2, 210281.31, -142921.03, -27736.807, -0.266462, -0.015729213, 212446.2, 212446.2, 0.0032756377, 10.002486, 9.997818 
1.6445416e+3, 1.2247472e+2, -1747926.3, -1755359.0, 42767.285, -0.043506756, -0.044397924, -1708714.1, 31031.46, 0.036383986, 9.999883, 9.999772 
1.6446029e+3, 1.3247396e+2, -1810215.5, -1749387.6, 17203.914, 0.178097, -0.067912504, -1744859.0, -103099.66, 0.022584815, 9.998846, 9.99964 
1.6446589e+3, 1.4247528e+2, -1748884.6, -1561312.8, -42959.82, 0.006788702, 0.08789147, -1551941.8, -8190.0273, 0.010560797, 9.998125, 10.000607 
1.644716e+3, 1.524771e+2, -1512985.3, -1341550.9, -77790.63, 0.05321649, 0.17629315, -1311514.8, 134221.45, 0.0031241647, 9.998835, 10.001099 
1.6447724e+3, 1.6247809e+2, -1385682.8, -1281642.5, -89220.98, 0.057188198, 0.21003686, -1230384.0, 117343.195, 0.0004029895, 9.999253, 10.000637 
1.6448283e+3, 1.724773e+2, -1350252.4, -1200659.1, -60463.71, -0.020124482, 0.06869459, -1179276.8, 70454.77, 0.0000070009137, 9.998774, 10.000749 
1.6448845e+3, 1.8247709e+2, -1315560.8, -1153144.8, -54491.61, -0.06082321, 0.004904551, -1136556.6, 15174.852, 0.0, 9.998426, 10.000568 
1.6449413e+3, 1.9247885e+2, -1167406.9, -1009114.25, -88809.51, -0.023319546, 0.11811951, -969301.44, 84413.4, 0.0, 9.998677, 10.000763 
1.6449974e+3, 2.0247954e+2, -1080716.4, -1030995.2, -110435.33, -0.022621341, 0.17537229, -942656.8, 13052.066, 0.0, 9.99908, 9.999751 
1.6450524e+3, 2.1247779e+2, -889282.5, -892577.0, -66111.984, -0.11956686, 0.039225087, -824797.25, 32928.188, 0.0, 9.99975, 9.999699 
1.6451074e+3, 2.2247666e+2, -770093.2, -877045.0, -55817.402, -0.18303308, 0.014384909, -746269.3, 13467.666, 0.0, 10.00029, 9.998878 
1.645163e+3, 2.3247764e+2, -647967.56, -768542.06, -82985.586, -0.14707264, 0.23366344, -605682.1, 56048.895, 0.0, 10.000461, 9.998867 
1.6452183e+3, 2.424769e+2, -521292.16, -694552.4, -139291.72, -0.09030989, 0.31345809, -443888.88, 119850.68, 0.0, 10.000825, 9.998525 
1.6452727e+3, 2.5247225e+2, -278379.84, -512051.4, -181066.94, -0.020773174, -0.0067557488, -179725.86, 286054.66, 0.000000005166704, 10.001753, 9.998661 
1.6453269e+3, 2.624687e+2, -208759.1, -630313.6, -131173.9, -0.017953372, -0.13316347, -171275.11, 196538.47, 0.000005473011, 10.002432, 9.996846 
1.6453807e+3, 2.7246848e+2, -116274.766, -574122.56, -78896.93, -0.18146528, 0.19791524, -103060.53, 166760.5, 0.000058417012, 10.002566, 9.996493 
1.645436e+3, 2.8246668e+2, 59493.17, -327710.6, -4253.0522, -0.2356912, 0.36071807, 59539.883, 231379.47, 0.0002946905, 10.002622, 9.997487 
1.6454948e+3, 2.924616e+2, 177619.13, -152282.14, -5310.9224, -0.039310645, 0.05736668, 177704.61, 251584.45, 0.0009098472, 10.002471, 9.99809 
1.6455522e+3, 3.0245674e+2, 138555.23, -365667.88, 25217.078, 0.0010252099, -0.13652548, 139813.23, 139813.23, 0.001929389, 10.002805, 9.996137 
1.6456074e+3, 3.124547e+2, 485008.94, -55071.492, 20215.008, -0.26277483, 0.0837048, 485764.53, 485764.53, 0.0031615868, 10.004574, 9.997415 
1.6545421e+3, 1.22415e+2, -1701228.8, -1704847.6, 33333.574, 0.010601985, -0.11802528, -1669655.5, 70676.45, 0.03897044, 10.000079, 10.000031 
1.6546015e+3, 1.3241668e+2, -1744035.9, -1627946.4, -31673.596, 0.16533828, 0.029973766, -1619866.9, 22452.68, 0.024272982, 9.998902, 10.000455 
1.6546571e+3, 1.424184e+2, -1774557.9, -1618029.6, -34191.664, 0.026506206, 0.18651493, -1610886.8, -66578.984, 0.0114189135, 9.998136, 10.000215 
1.6547136e+3, 1.5241827e+2, -1563513.8, -1461537.9, -44593.844, -0.05629091, 0.15869355, -1444788.3, 1525.9457, 0.0034161112, 9.998895, 10.000247 
1.6547701e+3, 1.6241817e+2, -1346295.9, -1219115.9, -100566.96, -0.10867695, 0.1218664, -1163721.0, 184596.19, 0.00045137366, 9.999332, 10.00103 
1.6548268e+3, 1.7241892e+2, -1285940.6, -1075743.4, -78829.164, -0.040993217, 0.05432156, -1049465.6, 200837.88, 0.000008273259, 9.998805, 10.001594 
1.6548838e+3, 1.824195e+2, -1343442.5, -1214001.6, -54612.97, 0.02597736, 0.034495756, -1194038.5, -41744.387, 0.0, 9.998438, 10.000146 
1.6549407e+3, 1.9241996e+2, -1229392.0, -1138681.6, -75976.66, 0.06153533, 0.09776986, -1095552.0, -41257.88, 0.0, 9.998677, 9.999875 
1.654997e+3, 2.0242019e+2, -1030707.3, -917279.9, -90498.44, 0.03219676, 0.1380252, -867192.75, 89100.875, 0.0, 9.999041, 10.000548 
1.6550519e+3, 2.1242048e+2, -796337.6, -692691.7, -39021.35, -0.13825779, 0.07321173, -679643.4, 178641.19, 0.0, 9.999721, 10.001085 
1.6551071e+3, 2.2241986e+2, -774382.25, -879817.0, -48985.223, -0.23111212, 0.012296254, -755136.6, 5150.1255, 0.0, 10.0002575, 9.998878 
1.6551638e+3, 2.3241733e+2, -685101.5, -840544.75, -73617.125, -0.10872209, -0.07780678, -655771.1, 6544.346, 0.0, 10.000435, 9.998388 
1.6552196e+3, 2.4241552e+2, -570435.6, -786024.9, -112092.64, -0.028105425, -0.053772092, -522716.78, 41620.902, 0.0, 10.000776, 9.997922 
1.6552737e+3, 2.5241643e+2, -330784.72, -607878.75, -140019.42, -0.07871675, 0.24725242, -272352.75, 193980.63, 0.00000000856411, 10.0017, 9.998025 
1.6553281e+3, 2.6241583e+2, -165766.48, -534861.8, -119048.4, -0.13104056, 0.42975634, -130700.04, 237641.72, 0.0000057188686, 10.002396, 9.997524 
1.6553833e+3, 2.7241102e+2, -44405.176, -410808.75, -68423.96, -0.17343006, 0.193216, -32044.355, 238339.98, 0.000056708228, 10.0025, 9.997649 
1.6554391e+3, 2.8240627e+2, 64517.77, -300711.75, -7493.7095, -0.19017473, -0.021413555, 64671.46, 237096.84, 0.0002843833, 10.002547, 9.997711 
1.6554959e+3, 2.9240325e+2, 176072.28, -162645.06, -5471.7773, -0.16675545, -0.11359619, 176160.64, 250609.14, 0.0008865622, 10.002499, 9.998007 
1.6555525e+3, 3.024011e+2, 139587.66, -362216.22, 70764.76, -0.2388591, -0.031203775, 149376.02, 149376.02, 0.0018892542, 10.002808, 9.996156 
1.6556107e+3, 3.1240028e+2, 441286.4, -64743.8, 103958.93, -0.3668793, 0.30037883, 461811.25, 461811.25, 0.0030955793, 10.004233, 9.997508 
1.6645421e+3, 1.2235659e+2, -1666088.3, -1674735.5, 32018.955, 0.012272024, -0.061093412, -1638102.4, 102806.484, 0.041736465, 10.000265, 10.000166 
1.6645996e+3, 1.3235873e+2, -1675258.6, -1552513.0, -106387.13, 0.08078037, 0.09747757, -1491065.5, 151824.17, 0.026087236, 9.999197, 10.000845 
1.6646552e+3, 1.4235994e+2, -1739758.9, -1596325.3, -71290.516, 0.039313797, 0.18013059, -1566920.1, -22039.201, 0.012349877, 9.998359, 10.00025 
1.664712e+3, 1.523596e+2, -1663331.9, -1516685.1, -14509.078, -0.04649686, 0.13639812, -1515263.4, -68373.98, 0.003737191, 9.998244, 10.000178 
1.6647688e+3, 1.623595e+2, -1480284.5, -1280278.5, -43348.902, -0.10542124, 0.10453251, -1271287.4, 77605.16, 0.00050616945, 9.998406, 10.001051 
1.6648254e+3, 1.7236084e+2, -1208895.0, -1032894.7, -86697.82, -0.07458432, 0.089156136, -997361.25, 253512.31, 0.000009797576, 9.999317, 10.001635 
1.6648822e+3, 1.8236163e+2, -1141730.6, -1125089.3, -97494.14, -0.022137145, 0.09035533, -1035561.4, 117301.04, 0.0, 9.999849, 10.000079 
1.6649395e+3, 1.9236137e+2, -1142329.3, -1101185.1, -69727.79, 0.06965058, 0.086646244, -1049058.0, 5811.0635, 0.0, 9.999299, 9.999827 
1.6649963e+3, 2.0236127e+2, -1018594.0, -902732.1, -33667.273, 0.08071648, 0.09265711, -893659.44, 63211.863, 0.0, 9.999085, 10.000631 
1.6650517e+3, 2.1236221e+2, -772896.0, -668107.56, -65282.4, -0.1115227, 0.083523124, -636794.3, 222061.61, 0.0, 9.999823, 10.001211 
1.6651075e+3, 2.2236204e+2, -740349.56, -832730.5, -142251.38, -0.22233996, 0.049725756, -636977.3, 123876.49, 0.0, 10.000367, 9.999145 
1.6651638e+3, 2.3235922e+2, -686001.2, -808774.75, -132445.97, -0.11336196, -0.09524107, -601407.56, 61476.695, 0.0, 10.000296, 9.998669 
1.66522e+3, 2.4235731e+2, -605651.44, -805671.44, -88519.39, -0.034998335, -0.09658859, -572103.7, -7196.7256, 0.0, 10.000543, 9.997902 
1.6652752e+3, 2.523586e+2, -337285.94, -624885.1, -73821.29, -0.07342377, 0.25071493, -319444.22, 147455.89, 0.0000000057748837, 10.001714, 9.997904 
1.6653307e+3, 2.6235813e+2, -132285.6, -456767.1, -68397.695, -0.10366558, 0.43259528, -118457.305, 250449.61, 0.0000055479773, 10.002371, 9.998066 
1.6653858e+3, 2.7235287e+2, -111531.63, -360916.28, -66346.85, -0.11575889, 0.08095972, -94979.2, 175970.95, 0.000054972716, 10.001683, 9.998383 
1.6654415e+3, 2.8234816e+2, -57538.1, -361327.6, 14471.22, -0.13461971, -0.1775867, -56850.313, 116139.3, 0.00027642155, 10.001714, 9.997696 
1.6654985e+3, 2.9234657e+2, 331145.88, -116140.65, 7742.9253, -0.20119402, -0.102240875, 331279.88, 406282.4, 0.0008722256, 10.003692, 9.997749 
1.6655552e+3, 3.023454e+2, 351469.2, -261294.9, 25743.371, -0.30893055, 0.093917206, 352548.8, 352548.8, 0.0018777479, 10.004272, 9.996143 
1.6656141e+3, 3.1234235e+2, -2874.0095, -302583.2, 37710.426, -0.27123478, 0.20576099, 1798.0143, 1798.0143, 0.0030954618, 10.001259, 9.997312 
1.6745414e+3, 1.2229989e+2, -1648178.9, -1659085.5, -1761.1597, -0.094268866, 0.14923449, -1647901.6, 93571.484, 0.044670317, 10.000355, 10.000238 
1.6745967e+3, 1.3230014e+2, -1680405.0, -1578010.9, -146343.52, -0.11939944, 0.13453399, -1474167.4, 169301.67, 0.028026333, 9.999259, 10.000646 
1.6746533e+3, 1.4229977e+2, -1694061.4, -1516028.5, -87371.13, 0.0061776307, 0.053057466, -1480314.6, 65157.91, 0.013357116, 9.998415, 10.00078 
1.6747114e+3, 1.5230116e+2, -1605348.1, -1400286.4, -14253.873, 0.07606812, 0.10354389, -1399300.4, 48160.973, 0.004090086, 9.998256, 10.000976 
1.6747688e+3, 1.6230227e+2, -1507386.4, -1338947.6, -18751.488, 0.06723548, 0.15698363, -1336885.4, 12566.134, 0.0005678562, 9.998414, 10.000648 
1.6748239e+3, 1.7230311e+2, -1266155.3, -1157415.4, -48709.664, -0.13733213, 0.17338404, -1138787.3, 112654.41, 0.000011659807, 9.999337, 10.000773 
1.67488e+3, 1.8230346e+2, -1113977.6, -1073901.9, -107100.98, -0.23689455, 0.17254464, -984980.44, 168456.3, 0.0, 9.999875, 10.000419 
1.6749379e+3, 1.9230308e+2, -1085068.1, -988108.6, -90765.09, -0.02601626, 0.0855792, -933687.5, 121752.055, 0.0, 9.99932, 10.000595 
1.6749954e+3, 2.0230274e+2, -1061200.0, -987918.1, -21702.031, 0.093230404, 0.040153824, -981973.44, -24531.338, 0.0, 9.999071, 10.000053 
1.6750519e+3, 2.1230306e+2, -853000.6, -830024.44, -32196.797, -0.062319223, 0.07033664, -807327.6, 52111.355, 0.0, 9.999798, 10.0001135 
1.6751081e+3, 2.2230315e+2, -721861.4, -778644.9, -138110.53, -0.18358405, 0.11715239, -609254.5, 152183.83, 0.0, 10.000301, 9.999546 
1.6751635e+3, 2.3230307e+2, -623235.7, -673449.94, -132635.55, -0.1749821, 0.15872493, -513351.84, 150087.84, 0.0, 10.000275, 9.999607 
1.6752195e+3, 2.4230203e+2, -570681.06, -732049.5, -58429.14, -0.1370466, 0.16651727, -551746.44, 13703.525, 0.0, 10.000533, 9.998413 
1.6752772e+3, 2.5229907e+2, -319675.06, -575547.7, -24223.572, -0.037520923, 0.048159692, -317402.0, 150076.22, 0.0000000017385277, 10.001659, 9.998268 
1.6753341e+3, 2.6229614e+2, -119393.74, -412024.34, -79585.055, 0.019779071, -0.049236007, -99149.9, 270354.56, 0.0000048816705, 10.002286, 9.998418 
1.6753882e+3, 2.7229393e+2, -88923.55, -310987.56, -92219.73, -0.036451288, -0.13391164, -55620.58, 215899.67, 0.000051379237, 10.001667, 9.998736 
1.6754435e+3, 2.8229177e+2, -77770.33, -400380.63, 61281.523, -0.09862873, -0.14372796, -66521.78, 107015.24, 0.00026518977, 10.001701, 9.997433 
1.6755022e+3, 2.9229113e+2, 277003.44, -193590.67, 91349.586, -0.19093727, 0.06819668, 294113.7, 369659.0, 0.0008537965, 10.003538, 9.997293 
1.6755597e+3, 3.022895e+2, 319866.66, -277709.9, -43156.727, -0.27580628, 0.24245417, 322967.3, 322967.3, 0.0018697943, 10.004061, 9.996134 
1.6756174e+3, 3.1228188e+2, -30078.285, -369884.84, -48201.563, -0.061473943, -0.10112382, -23373.2, -23373.2, 0.003122325, 10.00131, 9.996823 
1.6845413e+3, 1.2224267e+2, -1867450.8, -1735165.9, 58777.004, -0.035732526, 0.21656965, -1712823.5, 29213.863, 0.04776628, 9.998715, 10.000481 
1.6845949e+3, 1.3224238e+2, -1683450.3, -1574888.8, -64486.46, -0.2151725, 0.1383644, -1544878.9, 99158.27, 0.030093629, 9.999225, 10.00067 
1.6846521e+3, 1.422415e+2, -1481685.0, -1422929.4, 5081.6997, -0.010140007, 0.0045666546, -1422493.1, 123551.27, 0.0144471, 9.999913, 10.000707 
1.6847105e+3, 1.5224321e+2, -1288537.6, -1257322.9, 10427.422, 0.07810782, 0.09778026, -1254160.0, 193869.1, 0.004479329, 10.00048, 10.000889 
1.6847683e+3, 1.6224451e+2, -1224716.6, -1229407.5, -40776.05, 0.08833852, 0.18437977, -1186218.6, 163799.02, 0.0006375465, 10.000471, 10.000407 
1.6848235e+3, 1.7224498e+2, -1327170.5, -1216029.4, -38777.65, -0.09286763, 0.19129898, -1203837.3, 48175.836, 0.00001399049, 9.999044, 10.000511 
1.6848792e+3, 1.8224505e+2, -1358900.6, -1199624.4, -58421.586, -0.19010152, 0.18055187, -1180493.5, -26481.707, 0.0, 9.9982395, 10.000339 
1.6849367e+3, 1.9224463e+2, -1072555.4, -988318.06, -98573.836, -0.05910555, 0.09525927, -923241.7, 132772.2, 0.0, 9.999437, 10.000538 
1.6849941e+3, 2.0224418e+2, -907499.94, -929521.06, -64782.168, 0.0147040645, 0.047258362, -852799.3, 105217.94, 0.0, 10.000195, 9.999909 
1.6850512e+3, 2.1224424e+2, -920833.2, -877098.6, -22177.639, -0.084964715, 0.06897775, -867820.7, -7802.8394, 0.0, 9.999405, 9.99997 
1.6851078e+3, 2.2224444e+2, -848412.9, -817563.94, -54274.707, -0.17179768, 0.12766667, -776564.5, -14547.605, 0.0, 9.9993305, 9.99975 
1.6851637e+3, 2.3224533e+2, -445298.4, -547919.3, -81408.086, -0.20735052, 0.23177128, -400379.78, 263627.75, 0.0, 10.0013275, 9.999963 
1.6852202e+3, 2.4224475e+2, -273039.34, -570870.94, -72284.92, -0.19095954, 0.2561021, -256422.61, 309589.4, 0.0, 10.002509, 9.998564 
1.6852783e+3, 2.5224063e+2, -379962.7, -602174.75, -82487.945, -0.06287516, 0.017425876, -352689.47, 115360.516, 0.0000000018399801, 10.001231, 9.998293 
1.6853355e+3, 2.622372e+2, -363846.25, -522572.63, -137146.52, 0.022474432, -0.13328306, -284755.4, 85325.375, 0.0000039092515, 10.00058, 9.998479 
1.6853899e+3, 2.7223638e+2, -28849.18, -268991.2, -166978.89, -0.026071962, -0.08298195, 56747.02, 328831.72, 0.000046342717, 10.002037, 9.998841 
1.6854459e+3, 2.8223518e+2, 98846.63, -302094.9, -16191.76, -0.076293275, -0.012240391, 99499.46, 273593.44, 0.00025182753, 10.00286, 9.99755 
1.685505e+3, 2.922336e+2, 25617.906, -296826.84, 41567.035, -0.1451589, 0.09711786, 30890.193, 107000.4, 0.0008279381, 10.001735, 9.997451 
1.6855626e+3, 3.0223128e+2, 1373.0896, -323081.9, -56600.27, -0.23039944, 0.15589751, 10963.378, 10963.378, 0.0018460181, 10.001391, 9.9971075 
1.6856189e+3, 3.122252e+2, 321965.25, -104292.43, 8632.917, -0.12667882, -0.15426727, 322140.03, 322140.03, 0.0031298026, 10.003307, 9.997692 
1.6945417e+3, 1.22184984e+2, -1839839.3, -1682261.9, 40973.137, 0.14448148, 0.11108733, -1672244.9, 70355.414, 0.051028147, 9.998714, 10.000866 
1.6945942e+3, 1.3218562e+2, -1662179.5, -1541308.1, -29273.973, -0.20633459, 0.09940936, -1534591.5, 110000.0, 0.032295942, 9.999253, 10.000898 
1.6946518e+3, 1.4218532e+2, -1521065.5, -1525419.1, 29002.07, -0.022700172, 0.037167996, -1494158.8, 52435.145, 0.015627254, 10.0, 9.999953 
1.6947095e+3, 1.5218593e+2, -1353270.4, -1413818.6, 34474.71, -0.07812487, 0.12628941, -1337664.0, 110927.3, 0.004910431, 10.000572, 9.999767 
1.6947669e+3, 1.621863e+2, -1213819.1, -1229785.8, -78994.64, -0.096706256, 0.19196634, -1142405.4, 208184.86, 0.0007170378, 10.000566, 10.0003605 
1.6948238e+3, 1.7218651e+2, -1294659.6, -1159246.6, -94294.51, 0.038965788, 0.1417538, -1110868.6, 141718.58, 0.000016975888, 9.9990835, 10.000885 
1.6948803e+3, 1.8218641e+2, -1396295.4, -1278788.5, -41454.227, 0.105165094, 0.11065685, -1265636.3, -111048.76, 0.0, 9.998242, 9.999795 
1.6949362e+3, 1.9218598e+2, -1135612.5, -1120407.1, -46315.453, -0.04685153, 0.10949832, -1081074.5, -24482.088, 0.0, 9.999439, 9.999632 
1.6949923e+3, 2.0218554e+2, -894049.06, -893778.9, -77580.55, -0.17750926, 0.11203169, -816333.3, 142263.6, 0.0, 10.000162, 10.000171 
1.6950493e+3, 2.1218576e+2, -872296.94, -774603.1, -52268.395, -0.2009423, 0.0821503, -751909.8, 108683.195, 0.0, 9.999393, 10.000683 
1.6951066e+3, 2.2218588e+2, -849092.06, -808773.1, -8832.997, -0.21943638, 0.084939376, -806922.94, -44332.67, 0.0, 9.999287, 9.999831 
1.6951647e+3, 2.3218612e+2, -468401.75, -579890.56, 2545.1628, -0.23767444, 0.13844691, -468343.7, 196243.36, 0.0, 10.001256, 9.99978 
1.6952223e+3, 2.4218549e+2, -306038.63, -615259.2, -88807.82, -0.22972688, 0.17774774, -282348.13, 284244.72, 0.0, 10.002404, 9.998311 
1.6952784e+3, 2.52183e+2, -405675.53, -648252.9, -130102.555, -0.15776558, 0.13326791, -349094.53, 119523.22, 0.0000000033657745, 10.001201, 9.997992 
1.6953346e+3, 2.6218075e+2, -380119.66, -555729.75, -107909.695, -0.10488355, 0.13048409, -328805.22, 41834.406, 0.0000030031388, 10.000574, 9.998256 
1.6953911e+3, 2.7218e+2, -51701.36, -299078.3, -101284.46, -0.10365953, 0.19926281, -15523.073, 257122.33, 0.000041356147, 10.001964, 9.998669 
1.6954483e+3, 2.8217825e+2, 113908.95, -248922.5, -34719.914, -0.099285685, 0.21257903, 117201.48, 291861.16, 0.00023869949, 10.00276, 9.997967 
1.6955072e+3, 2.9217413e+2, 65497.004, -209605.14, 2395.6582, -0.093594335, 0.010731108, 65517.863, 142212.83, 0.0007962462, 10.001708, 9.998066 
1.6955644e+3, 3.0217078e+2, 116282.99, -77672.555, -15508.462, -0.19581889, -0.13595413, 117515.2, 117515.2, 0.0017946321, 10.00137, 9.9988 
1.6956188e+3, 3.1217143e+2, 438337.06, 179042.61, 99479.68, -0.46572563, 0.022077784, 472105.28, 472105.28, 0.0030776067, 10.0031395, 9.99972 
1.7045414e+3, 1.2212788e+2, -1862054.9, -1713155.4, 9729.036, 0.27446327, 0.09298432, -1712522.4, 30636.951, 0.054460447, 9.998639, 10.000683 
1.7045929e+3, 1.3212866e+2, -1660357.8, -1567205.4, -55521.832, -0.23846339, 0.11797757, -1541310.8, 103841.06, 0.034638863, 9.999388, 10.000653 
1.7046511e+3, 1.4212872e+2, -1535134.1, -1530815.3, -25656.746, -0.069028504, 0.10823964, -1507227.3, 39924.61, 0.016903277, 9.999903, 9.99996 
1.7047086e+3, 1.52129e+2, -1592610.5, -1514238.9, 50264.09, -0.11779072, 0.15245621, -1489690.8, -40540.36, 0.00538814, 9.998864, 9.999897 
1.704766e+3, 1.6212904e+2, -1556574.0, -1415515.5, 3683.3594, -0.11886089, 0.18393189, -1415419.4, -64268.145, 0.0008082668, 9.998303, 10.000175 
1.704823e+3, 1.7212918e+2, -1255073.1, -1174129.3, -61759.57, 0.03432478, 0.1544067, -1140762.0, 112388.55, 0.000020835996, 9.999509, 10.000578 
1.7048796e+3, 1.8212903e+2, -1097854.1, -1160367.8, -14635.9, 0.115609705, 0.14630714, -1094597.3, 60555.555, 0.0, 10.000397, 9.999573 
1.704936e+3, 1.9212855e+2, -1054012.1, -1098797.9, 33353.563, -0.017579483, 0.15753, -1036231.6, 20926.512, 0.0, 10.000077, 9.999473 
1.7049925e+3, 2.0212807e+2, -945855.7, -933129.56, 15657.644, -0.14770968, 0.16931783, -922591.44, 36571.375, 0.0, 9.999869, 10.00004 
1.7050484e+3, 2.121282e+2, -759267.0, -733832.0, -29765.605, -0.25567985, 0.14368668, -714180.9, 146978.34, 0.0, 10.000232, 10.000558 
1.7051055e+3, 2.22128e+2, -683847.8, -748966.6, 3604.8237, -0.30173427, 0.12855332, -683648.8, 79510.4, 0.0, 10.00051, 9.99965 
1.705166e+3, 2.3212722e+2, -600641.5, -667710.94, 13289.989, -0.17430256, 0.0988951, -598104.06, 67061.516, 0.0, 10.000453, 9.99956 
1.7052251e+3, 2.421261e+2, -557735.6, -719047.4, -95606.21, -0.084546976, 0.10220286, -513307.84, 53867.39, 0.0, 10.000601, 9.998466 
1.7052796e+3, 2.5212482e+2, -344069.97, -581649.0, -114075.24, -0.14870402, 0.14616749, -298165.5, 171022.81, 0.0000000026261497, 10.001471, 9.998316 
1.7053351e+3, 2.6212314e+2, -195599.36, -502132.88, -44430.297, -0.1764429, 0.19051233, -189289.33, 181915.34, 0.0000021613648, 10.002007, 9.997928 
1.7053927e+3, 2.7212122e+2, -161856.23, -422334.44, -68169.79, -0.09340634, 0.20343436, -145094.17, 128128.56, 0.000036385776, 10.001509, 9.998042 
1.7054509e+3, 2.8211877e+2, -91786.98, -314664.1, -37240.035, -0.033081673, 0.1767295, -85729.27, 89514.88, 0.0002227913, 10.001213, 9.998254 
1.7055093e+3, 2.921151e+2, 129909.805, -106102.414, -11717.614, -0.0546687, -0.041499194, 130490.14, 207762.88, 0.00075158395, 10.001849, 9.998706 
1.7055666e+3, 3.0211166e+2, 256831.63, -57674.35, -35071.29, -0.1442201, -0.22048685, 260695.05, 260695.05, 0.0017015715, 10.0025625, 9.998355 
1.7056221e+3, 3.1211326e+2, 397635.25, 89131.8, -99136.41, -0.4313073, 0.11534307, 426745.53, 426745.53, 0.0029375046, 10.003171, 9.999076 
1.7145401e+3, 1.2207119e+2, -1916079.8, -1836644.8, -16832.781, 0.2731896, 0.13455167, -1833225.0, -89508.16, 0.058051143, 9.998692, 9.999802 
1.7145911e+3, 1.3207167e+2, -1712591.1, -1683349.8, -18162.648, -0.35014528, 0.21108416, -1674654.3, -28937.12, 0.037118543, 9.999422, 9.999824 
1.7146498e+3, 1.4207177e+2, -1472680.4, -1411202.4, -46910.81, -0.1942962, 0.23055767, -1385856.5, 161861.9, 0.018276531, 9.99994, 10.000782 
1.714708e+3, 1.520724e+2, -1487527.5, -1297166.1, 9165.678, -0.048762187, 0.17079699, -1296725.8, 152980.92, 0.005915651, 9.998857, 10.001401 
1.7147654e+3, 1.6207276e+2, -1582551.3, -1463133.6, 25494.496, 0.020071551, 0.14922272, -1457918.5, -106218.44, 0.0009130136, 9.998276, 9.999863 
1.7148206e+3, 1.7207302e+2, -1327521.9, -1329172.1, -7262.988, -0.13188484, 0.2278167, -1321037.3, -67334.62, 0.000025810483, 9.999528, 9.999506 
1.7148767e+3, 1.8207294e+2, -1084946.6, -1143098.3, -12499.301, -0.20608093, 0.2901604, -1082373.8, 73333.55, 0.0, 10.000435, 9.999674 
1.7149362e+3, 1.9207235e+2, -1010566.7, -1014880.2, 21757.969, -0.0019720662, 0.23846701, -990858.9, 66851.93, 0.0, 10.000098, 10.00004 
1.7149943e+3, 2.0207168e+2, -982971.8, -1008358.8, 20120.205, 0.06947576, 0.21557552, -971875.7, -12160.475, 0.0, 9.999861, 9.999528 
1.7150484e+3, 2.1207152e+2, -831440.06, -876109.0, -11729.897, -0.27416173, 0.24643251, -828547.2, 33169.96, 0.0, 10.000196, 9.9995985 
1.7151044e+3, 2.2207068e+2, -727912.6, -826402.44, 4031.0806, -0.44296354, 0.24752708, -727747.9, 35977.184, 0.0, 10.000448, 9.999149 
1.7151675e+3, 2.320685e+2, -627370.56, -714934.94, 14876.069, -0.04884405, 0.11362773, -624912.3, 40831.508, 0.0, 10.000417, 9.999253 
1.7152284e+3, 2.4206658e+2, -524614.5, -643272.25, -72861.25, 0.19484255, 0.034126777, -489982.34, 77777.48, 0.0, 10.000566, 9.999004 
1.7152819e+3, 2.5206605e+2, -290348.9, -457369.6, -75432.29, -0.07079582, 0.072254755, -261324.77, 208437.2, 0.0000000000058928205, 10.001412, 9.999198 
1.7153364e+3, 2.6206446e+2, -238164.17, -575570.0, -50990.68, -0.23208815, 0.080740936, -230626.56, 141148.95, 0.0000014626683, 10.001937, 9.99746 
1.7153947e+3, 2.7206033e+2, -235803.06, -575262.1, -81702.19, -0.03046687, -0.02905977, -217162.31, 56653.297, 0.000031753894, 10.001503, 9.996997 
1.7154531e+3, 2.8205702e+2, -78339.72, -292574.75, -23154.246, 0.083365954, -0.08105978, -75865.805, 99980.38, 0.0002048342, 10.001238, 9.998394 
1.715511e+3, 2.920562e+2, 165158.44, -21101.844, 23649.107, -0.058531523, -0.06741462, 168114.2, 245960.53, 0.0006960156, 10.001798, 9.999315 
1.7155693e+3, 3.0205357e+2, 80879.61, -396477.5, -10785.651, -0.12559468, -0.123082146, 81123.18, 81123.18, 0.001576833, 10.002439, 9.996092 
1.7156279e+3, 3.1205088e+2, 186968.0, -310752.6, -43497.203, -0.15659796, 0.09881318, 190740.75, 190740.75, 0.0027307097, 10.003006, 9.996409 
1.7245382e+3, 1.2201407e+2, -1832969.9, -1789496.3, -61364.863, 0.19590415, 0.15743382, -1746132.1, -1852.3578, 0.06177432, 9.9992485, 9.999845 
1.7245899e+3, 1.3201514e+2, -1781823.0, -1711558.8, 48850.656, -0.35965863, 0.28652644, -1686519.0, -40244.324, 0.039721623, 9.998942, 9.999848 
1.7246494e+3, 1.4201543e+2, -1599469.3, -1461090.1, 28022.85, -0.16232613, 0.32038638, -1455630.6, 92643.15, 0.019743169, 9.99901, 10.000883 
1.7247072e+3, 1.5201543e+2, -1390915.4, -1232283.4, -28969.975, -0.036387, 0.18114805, -1227158.4, 223107.67, 0.006494274, 9.999445, 10.001566 
1.7247641e+3, 1.6201535e+2, -1378328.0, -1387082.9, -44932.543, -0.001395087, 0.112807445, -1337560.3, 14702.115, 0.001032908, 9.999767, 9.999668 
1.7248194e+3, 1.7201573e+2, -1325816.8, -1363469.1, -22018.05, -0.20154361, 0.2320938, -1315673.6, -61408.703, 0.00003215152, 9.999688, 9.99919 
1.7248756e+3, 1.8201575e+2, -1205093.5, -1189757.1, -6867.5605, -0.28882706, 0.32276186, -1187131.4, -30862.434, 0.0, 9.999564, 9.99977 
1.7249356e+3, 1.920152e+2, -1063290.1, -1009080.5, -6876.2715, -0.033862587, 0.25062227, -1008221.9, 50048.71, 0.0, 9.999603, 10.000317 
1.7249942e+3, 2.0201443e+2, -1032051.75, -1064115.5, -3457.4546, 0.09443375, 0.2088753, -1031683.2, -71407.836, 0.0, 9.999661, 9.999243 
1.725049e+3, 2.1201375e+2, -925377.9, -978327.75, -5492.9985, -0.18577263, 0.2377596, -924814.06, -62530.41, 0.0, 9.9998, 9.999089 
1.7251056e+3, 2.220126e+2, -808384.75, -885818.8, 42783.605, -0.32146385, 0.24736398, -789400.44, -25104.56, 0.0, 9.999991, 9.99896 
1.7251681e+3, 2.3201074e+2, -630963.5, -722189.8, 65638.664, -0.008884849, 0.15319446, -596645.44, 69666.77, 0.0, 10.000424, 9.999198 
1.7252286e+3, 2.4200903e+2, -497118.53, -629326.5, -13231.182, 0.17700534, 0.097511835, -495807.38, 72519.23, 0.0, 10.000761, 9.9990015 
1.7252828e+3, 2.5200826e+2, -384215.03, -501367.06, -80751.87, -0.06671631, 0.11015057, -343031.28, 127299.09, 0.0000000000049057277, 10.00077, 9.999202 
1.7253381e+3, 2.620064e+2, -357513.72, -620316.44, -77162.195, -0.18845177, 0.09319667, -336532.9, 35812.164, 0.0000011502509, 10.001061, 9.997573 
1.7253974e+3, 2.7200225e+2, -96864.08, -487036.94, -36582.305, 0.054886702, -0.037678234, -93463.78, 180920.64, 0.000028657565, 10.002368, 9.997183 
1.725456e+3, 2.819989e+2, 169602.94, -220119.19, 47369.66, 0.16753364, -0.09356939, 175277.95, 351693.22, 0.00019054933, 10.003145, 9.997973 
1.7255124e+3, 2.9199806e+2, 161987.7, -102923.484, -5434.8877, -0.085928686, -0.021090018, 162099.16, 240518.08, 0.0006451403, 10.002126, 9.998591 
1.7255709e+3, 3.0199543e+2, -56493.547, -472172.78, -10654.51, -0.13529043, -0.016123807, -56220.637, -56220.637, 0.0014572614, 10.001527, 9.996018 
1.7256318e+3, 3.1199184e+2, 176511.81, -213553.25, 168571.25, -0.023873147, 0.08578337, 239265.94, 239265.94, 0.0025272742, 10.002478, 9.997343 
1.7345351e+3, 1.2195656e+2, -1752767.3, -1642171.9, -113853.12, -0.053024523, 0.15418881, -1570898.0, 173950.0, 0.06561491, 9.99932, 10.000883 
1.7345898e+3, 1.319591e+2, -1709861.3, -1571850.9, 45792.8, -0.27304912, 0.3314249, -1558038.8, 88784.88, 0.042436883, 9.998964, 10.000824 
1.7346503e+3, 1.4195968e+2, -1645335.3, -1557073.8, 42165.25, 0.03195686, 0.3568062, -1540168.3, 8649.184, 0.021297567, 9.999018, 10.000211 
1.7347059e+3, 1.5195808e+2, -1478805.8, -1425093.5, -8541.948, -0.10968514, 0.1808246, -1423767.8, 27060.701, 0.0071235094, 9.999489, 10.000214 
1.7347614e+3, 1.6195676e+2, -1371612.5, -1390763.4, -46965.39, -0.23922001, 0.07684368, -1333256.4, 19582.322, 0.0011691477, 9.999839, 9.999611 
1.734819e+3, 1.7195721e+2, -1287609.5, -1293901.5, -26525.322, -0.19397536, 0.16592443, -1264044.3, -9206.355, 0.00004011834, 9.9997225, 9.999657 
1.7348766e+3, 1.8195738e+2, -1195062.5, -1173322.6, -11536.644, -0.1442681, 0.2379311, -1168341.8, -11503.277, 0.0, 9.999583, 9.999875 
1.7349342e+3, 1.91957e+2, -1068537.5, -1020164.3, -4052.6748, -0.12831716, 0.18837494, -1019827.1, 39011.61, 0.0, 9.999601, 10.000243 
1.7349918e+3, 2.0195621e+2, -1037538.75, -1073357.3, -2847.4373, -0.10493508, 0.15092427, -1037313.8, -76469.76, 0.0, 9.99965, 9.999186 
1.7350502e+3, 2.1195492e+2, -934582.75, -992919.25, 3127.1963, -0.025245447, 0.12500066, -934415.6, -71557.19, 0.0, 9.999776, 9.9990015 
1.735109e+3, 2.2195375e+2, -808839.6, -877051.9, 53612.113, 0.018217865, 0.1363596, -779404.56, -14532.949, 0.0, 9.999948, 9.999042 
1.7351678e+3, 2.3195377e+2, -624609.8, -700994.5, 87183.66, -0.0683048, 0.2135535, -567620.0, 99252.414, 0.0, 10.000385, 9.999365 
1.735226e+3, 2.419532e+2, -541341.56, -709726.25, -8736.211, -0.14825761, 0.2798295, -540889.5, 27988.49, 0.0, 10.0007105, 9.998474 
1.7352825e+3, 2.5195116e+2, -444477.63, -624446.8, -75283.92, -0.15218124, 0.2457634, -417138.3, 53756.89, 0.000000000000012544113, 10.000758, 9.9983635 
1.7353402e+3, 2.6194882e+2, -318085.34, -535266.94, -40523.67, -0.08373975, 0.20964587, -310770.47, 62144.785, 0.0000010511417, 10.001046, 9.998165 
1.7354004e+3, 2.719465e+2, -23940.639, -317959.84, 19646.559, 0.13102272, 0.14978124, -22633.652, 252300.27, 0.000028117367, 10.00229, 9.9983835 
1.7354593e+3, 2.819438e+2, 91202.64, -357490.0, 29538.459, 0.17936066, 0.11042825, 93138.87, 270096.44, 0.00018317033, 10.003033, 9.997086 
1.7355137e+3, 2.9194018e+2, 32733.084, -378493.47, -38277.027, -0.15775457, 0.07830337, 36265.57, 115258.7, 0.0006110962, 10.0021515, 9.996689 
1.7355718e+3, 3.0193704e+2, 64853.293, -233918.55, 6914.8687, -0.2003362, 0.10819008, 65013.246, 65013.246, 0.0013777206, 10.001588, 9.9976225 
1.7356338e+3, 3.1193456e+2, 381866.06, 291387.47, 196787.58, -0.055990323, 0.0093932375, 538547.4, 538547.4, 0.0024016618, 10.00215, 10.000973 
1.7445321e+3, 1.2190006e+2, -2021703.1, -1699667.4, -93914.305, -0.15637483, 0.20778106, -1674280.6, 71121.89, 0.06957688, 9.997146, 10.001517 
1.7445885e+3, 1.319019e+2, -1793274.1, -1571032.8, 58113.83, -0.23861566, 0.27291426, -1556754.0, 90627.17, 0.045260757, 9.998207, 10.001204 
1.7446497e+3, 1.4190206e+2, -1649118.6, -1583405.5, 32903.39, 0.08407461, 0.23881306, -1569762.8, -20385.648, 0.022935338, 9.999105, 9.999984 
1.7447048e+3, 1.5190083e+2, -1580386.8, -1527348.5, 32500.35, -0.11905355, 0.14558591, -1511920.9, -60534.336, 0.0078018596, 9.999029, 9.999729 
1.7447603e+3, 1.6189975e+2, -1516621.0, -1462051.5, 36582.785, -0.28074965, 0.097239934, -1443699.0, -90303.19, 0.0013223152, 9.998858, 9.99959 
1.7448185e+3, 1.7189977e+2, -1409276.4, -1331577.8, 29850.664, -0.1583933, 0.12582129, -1321433.9, -66035.69, 0.000049909977, 9.998809, 9.999833 
1.7448765e+3, 1.8189956e+2, -1302311.8, -1240878.1, 38788.53, -0.06630951, 0.15416543, -1222117.0, -64715.426, 0.0000000000000006446772, 9.998915, 9.999737 
1.7449333e+3, 1.9189921e+2, -1093682.3, -1057390.5, 34185.117, -0.14089918, 0.13055371, -1036833.75, 22568.523, 0.0, 9.999542, 10.000015 
1.7449908e+3, 2.0189853e+2, -975492.6, -1036866.56, 28549.88, -0.16555022, 0.11557364, -964265.56, -2858.383, 0.0, 10.00005, 9.999242 
1.7450503e+3, 2.1189743e+2, -868098.06, -940312.7, 41403.08, -0.0045771427, 0.09111601, -849269.5, 14150.126, 0.0, 10.000143, 9.999185 
1.7451096e+3, 2.2189644e+2, -779633.2, -888528.0, 107826.11, 0.09102006, 0.11626229, -713287.44, 52143.86, 0.0, 10.000257, 9.998814 
1.7451683e+3, 2.3189661e+2, -639066.2, -752405.6, 99336.94, -0.054857064, 0.24511997, -581371.2, 86061.49, 0.0, 10.000482, 9.998962 
1.7452264e+3, 2.4189585e+2, -539891.25, -736844.9, -9497.448, -0.16581291, 0.32910895, -539434.4, 30006.988, 0.0, 10.000842, 9.998224 
1.7452839e+3, 2.5189286e+2, -326364.1, -585107.4, -40754.63, -0.119066805, 0.21470955, -320096.66, 151370.42, 0.0, 10.001649, 9.998201 
1.7453422e+3, 2.6189005e+2, -161512.55, -467204.97, 10284.958, -0.026921757, 0.14608964, -161166.9, 212323.92, 0.0000010008785, 10.002154, 9.998099 
1.7454019e+3, 2.7188876e+2, -114570.74, -363506.13, -15505.392, 0.09610721, 0.19482532, -113608.68, 161891.94, 0.00002867182, 10.00168, 9.9983635 
1.7454605e+3, 2.8188646e+2, -109264.31, -457595.94, -31860.146, 0.09806048, 0.19816822, -106374.21, 71147.71, 0.0001789266, 10.001674, 9.997049 
1.7455167e+3, 2.9188165e+2, 203046.64, -303066.9, 2275.8467, -0.10952569, 0.05235155, 203056.88, 282627.13, 0.000595069, 10.003351, 9.996629 
1.7455761e+3, 3.0187905e+2, 424984.25, -1688.221, 57201.5, -0.027417546, 0.120515496, 432519.84, 432519.84, 0.0013559671, 10.003809, 9.998152 
1.7456353e+3, 3.1187776e+2, 118774.125, 242274.97, 19098.664, 0.008252413, 0.06047738, 245161.03, 245161.03, 0.0023952515, 10.000005, 10.001657 
1.7545295e+3, 1.2184513e+2, -2023016.5, -1684890.4, -85465.95, -0.13430306, 0.35078946, -1664515.5, 81422.01, 0.07366958, 9.997069, 10.001662 
1.7545861e+3, 1.3184354e+2, -1820617.3, -1620173.3, 107446.19, -0.2847961, 0.10003799, -1573462.9, 74484.055, 0.048192136, 9.998181, 10.000872 
1.7546472e+3, 1.4184244e+2, -1628153.8, -1547537.6, 42087.414, -0.06515012, -0.046868443, -1529569.8, 20383.602, 0.024652572, 9.999132, 10.000221 
1.7547041e+3, 1.5184376e+2, -1544357.5, -1456781.5, 30258.557, -0.08672668, 0.069041684, -1447343.9, 4595.5684, 0.008527423, 9.999045, 10.000205 
1.7547604e+3, 1.6184452e+2, -1514041.6, -1462624.1, 31660.549, -0.12926824, 0.17563559, -1447548.9, -93617.02, 0.0014925194, 9.9988785, 9.99958 
1.7548177e+3, 1.7184345e+2, -1422793.8, -1361554.6, 30079.459, -0.10924834, 0.11376028, -1349251.8, -93306.89, 0.00006156021, 9.998812, 9.999631 
1.754875e+3, 1.818423e+2, -1323231.6, -1287245.6, 54152.68, -0.0927662, 0.07074094, -1248175.0, -90217.08, 0.0000000010737394, 9.998924, 9.999413 
1.7549333e+3, 1.9184186e+2, -1122490.5, -1118859.8, 62912.617, -0.1030244, 0.07604661, -1057736.4, 2224.59, 0.0, 9.999545, 9.999594 
1.7549913e+3, 2.0184135e+2, -966854.7, -1016282.3, 35353.543, -0.11852122, 0.100532964, -948433.3, 13531.895, 0.0, 10.000034, 9.999391 
1.755049e+3, 2.1184112e+2, -841633.75, -882896.2, 45871.055, -0.13507524, 0.12876338, -811967.8, 52000.645, 0.0, 10.000126, 9.999591 
1.7551075e+3, 2.2184053e+2, -820764.44, -965595.1, 112437.41, -0.120903686, 0.18252014, -759440.6, 6535.6963, 0.0, 10.00022, 9.998303 
1.755169e+3, 2.3183922e+2, -710170.0, -895936.3, 112676.97, -0.0040553985, 0.25311854, -657027.9, 10965.59, 0.0, 10.000462, 9.997988 
1.7552295e+3, 2.4183702e+2, -546998.1, -745187.1, 14417.763, 0.06625044, 0.25818673, -545954.75, 24061.855, 0.0, 10.000811, 9.998184 
1.7552866e+3, 2.518333e+2, -303146.1, -529788.06, -4182.0264, -0.0007562612, 0.036743015, -303068.94, 168977.48, 0.0, 10.001613, 9.998601 
1.755344e+3, 2.6183012e+2, -216111.61, -565879.3, 5210.7007, -0.0453633, -0.070989005, -216034.0, 158038.28, 0.0000009484334, 10.0020895, 9.997453 
1.755402e+3, 2.718292e+2, -192700.34, -527483.44, -26756.914, -0.055948198, 0.115424834, -190575.33, 85508.34, 0.00002877745, 10.001685, 9.997234 
1.7554602e+3, 2.8182697e+2, -62897.42, -367128.75, 11603.638, -0.087272696, 0.18240243, -62455.49, 115652.0, 0.00017793888, 10.001696, 9.997662 
1.7555211e+3, 2.9182237e+2, 270850.6, -113847.38, 78892.55, 0.0046828445, -0.074316494, 286401.0, 366552.7, 0.00060204027, 10.003141, 9.998032 
1.7555828e+3, 3.0182132e+2, 364069.63, -61262.24, -23092.756, 0.28508127, 0.057030514, 365319.72, 365319.72, 0.0013964588, 10.003517, 9.997883 
1.7556363e+3, 3.1182182e+2, -6505.8384, -57614.71, -162851.97, 0.122578435, 0.28458607, 132784.47, 132784.47, 0.0024969531, 10.000187, 9.999502 
1.764528e+3, 1.2178731e+2, -1780979.4, -1622920.6, -104606.06, -0.0380758, 0.2559164, -1570846.8, 175650.4, 0.07790593, 9.99897, 10.001205 
1.7645845e+3, 1.3178526e+2, -1754979.5, -1663958.6, 59473.04, -0.2763269, 0.02794713, -1634580.9, 13933.766, 0.05123237, 9.998968, 10.000172 
1.7646445e+3, 1.4178471e+2, -1665435.8, -1543992.1, -43657.363, -0.20315313, -0.023962885, -1529926.9, 20591.5, 0.026445003, 9.998784, 10.000413 
1.7647025e+3, 1.5178607e+2, -1568331.1, -1400873.5, -64205.73, -0.10879764, 0.043767143, -1379089.8, 73413.15, 0.009296644, 9.998588, 10.000816 
1.7647597e+3, 1.6178699e+2, -1539376.3, -1448648.9, -28998.217, -0.06391983, 0.118219934, -1440172.5, -85679.46, 0.0016790463, 9.998596, 9.999807 
1.7648168e+3, 1.7178653e+2, -1325270.3, -1311808.5, -11052.278, -0.09184325, 0.11037933, -1305598.9, -49098.465, 0.000074904594, 9.999471, 9.99965 
1.7648742e+3, 1.8178566e+2, -1174162.4, -1245466.4, 21770.156, -0.10607788, 0.10490359, -1168041.1, -9529.969, 0.000000009428086, 10.000079, 9.999141 
1.7649327e+3, 1.9178446e+2, -1113709.8, -1159776.8, 20558.361, -0.08934737, 0.07286961, -1105869.5, -45346.64, 0.0, 9.999802, 9.999186 
1.7649913e+3, 2.0178337e+2, -1036352.9, -1052042.3, -5808.244, -0.087781936, 0.070086956, -1034436.7, -71903.38, 0.0, 9.999573, 9.999368 
1.7650488e+3, 2.1178359e+2, -877436.4, -877684.06, -16618.852, -0.13356543, 0.12811868, -860940.94, 3590.4204, 0.0, 9.999795, 9.99978 
1.7651075e+3, 2.2178319e+2, -819430.4, -969404.75, 67015.125, -0.12805222, 0.19177958, -793848.6, -27312.314, 0.0, 10.000254, 9.998259 
1.7651701e+3, 2.3178115e+2, -585994.3, -853201.06, 121543.6, 0.032573123, 0.20581475, -538980.1, 129580.375, 0.0, 10.001393, 9.99783 
1.7652316e+3, 2.4177855e+2, -352207.4, -648274.8, 51123.816, 0.13603866, 0.1782586, -343628.13, 226959.78, 0.0, 10.002137, 9.998211 
1.7652884e+3, 2.5177547e+2, -320269.28, -524262.9, 413.32712, 0.04366455, 0.01558758, -320268.44, 152342.92, 0.0, 10.001443, 9.998719 
1.7653456e+3, 2.617728e+2, -347302.28, -635079.8, 30588.014, -0.035310254, -0.049618006, -344086.97, 30546.043, 0.0000007065843, 10.001218, 9.9973955 
1.7654034e+3, 2.7177137e+2, -45685.203, -469847.06, 62518.168, -0.10322563, 0.09732898, -36662.44, 239987.78, 0.000027133234, 10.002754, 9.997112 
1.765462e+3, 2.8176895e+2, 182813.6, -225614.63, 103453.94, -0.13702032, 0.14483306, 207523.31, 386199.63, 0.00018007947, 10.0032835, 9.9978695 
1.7655234e+3, 2.917653e+2, -71973.81, -235025.53, 80427.35, 0.07344869, -0.057097174, -38978.82, 41732.113, 0.0006274738, 10.000599, 9.998418 
1.7655851e+3, 3.0176446e+2, -169612.47, -313719.8, 9728.835, 0.3625308, 0.066895634, -168958.63, -168958.63, 0.001470529, 9.999821, 9.99793 
1.7656384e+3, 3.1176403e+2, 641526.75, 149742.7, -108301.48, 0.063862145, 0.22417757, 664320.6, 664320.6, 0.002629111, 10.005099, 9.998565 
1.7745285e+3, 1.2172638e+2, -1843229.8, -1783961.1, -122546.11, 0.0891319, -0.10823354, -1687517.1, 59565.34, 0.08231803, 9.999132, 9.999965 
1.7745839e+3, 1.3172711e+2, -1826837.4, -1832136.3, 53021.887, -0.23130193, 0.061945733, -1776398.8, -127314.09, 0.054393712, 9.999043, 9.9989805 
1.7746417e+3, 1.4172913e+2, -1653220.1, -1526850.8, -57446.55, -0.36266354, 0.34338108, -1504639.8, 46430.97, 0.02831169, 9.998814, 10.000523 
1.7747e+3, 1.5172781e+2, -1513273.4, -1289215.3, -71329.14, -0.21323839, 0.07719822, -1268434.9, 184642.56, 0.010105246, 9.998593, 10.001588 
1.7747577e+3, 1.6172701e+2, -1506142.1, -1384812.0, -11511.843, -0.1254419, -0.086724415, -1383729.5, -28648.84, 0.0018804772, 9.998616, 10.000237 
1.7748156e+3, 1.7172891e+2, -1304341.4, -1275070.4, 25669.662, -0.1319008, 0.115310654, -1260157.1, -3091.706, 0.00008970714, 9.999498, 9.999889 
1.7748739e+3, 1.8172969e+2, -1182489.4, -1275365.0, 21313.225, -0.132356, 0.26641184, -1177832.0, -18771.066, 0.000000028818846, 10.00013, 9.998913 
1.7749321e+3, 1.9172698e+2, -1143611.3, -1225558.0, 8469.135, -0.1243693, 0.12702733, -1142745.1, -81656.92, 0.0, 9.999816, 9.99873 
1.7749904e+3, 2.0172463e+2, -1046683.1, -1076136.8, -6354.2886, -0.1055366, 0.031183226, -1045370.75, -82259.34, 0.0, 9.99958, 9.999199 
1.7750496e+3, 2.1172477e+2, -884409.2, -889575.8, -3672.0786, -0.028242314, 0.089999124, -882502.75, -17394.436, 0.0, 9.999779, 9.999709 
1.7751093e+3, 2.2172439e+2, -800275.75, -920520.3, 98646.34, 0.034664467, 0.14665891, -744874.06, 22237.52, 0.0, 10.000209, 9.998618 
1.7751715e+3, 2.3172235e+2, -552849.4, -774623.0, 171059.47, 0.034320276, 0.10579587, -459880.3, 209254.27, 0.0, 10.001341, 9.9984 
1.7752324e+3, 2.4172023e+2, -359000.2, -640355.1, 45240.84, 0.02237602, 0.08694331, -351904.56, 219252.4, 0.0, 10.002044, 9.998309 
1.7752893e+3, 2.517191e+2, -337176.6, -551186.94, -24039.521, 0.0012517194, 0.1288394, -334509.5, 138655.42, 0.0, 10.001409, 9.998551 
1.7753468e+3, 2.6171756e+2, -319617.5, -574035.8, 64052.25, -0.025794977, 0.17421997, -304401.72, 70775.805, 0.00000032347444, 10.001201, 9.997825 
1.7754063e+3, 2.7171493e+2, -13389.076, -375673.53, 131104.1, -0.09195825, 0.13682695, 29077.256, 306280.88, 0.00002298493, 10.002637, 9.997818 
1.7754655e+3, 2.8171209e+2, 151508.8, -258348.55, 43777.742, -0.11247101, 0.09991038, 156132.63, 335364.5, 0.00017734611, 10.003142, 9.997713 
1.775524e+3, 2.917098e+2, -93461.75, -307611.63, -23318.453, 0.08377783, 0.08339996, -90952.055, -9698.807, 0.00064377766, 10.000718, 9.997864 
1.7755832e+3, 3.0170795e+2, -120350.5, -252050.63, 125277.33, 0.20358965, 0.123246804, -44670.918, -44670.918, 0.0015120655, 9.999996, 9.998268 
1.7756413e+3, 3.117063e+2, 558578.44, 112658.055, 88197.13, -0.1498217, 0.10715112, 575388.94, 575388.94, 0.002672559, 10.004537, 9.998572 
1.7845273e+3, 1.2166864e+2, -1854894.3, -1876861.6, -127565.484, 0.06462145, -0.15050197, -1737840.4, 9803.255, 0.08696164, 9.999437, 9.999154 
1.7845832e+3, 1.3166896e+2, -1902804.9, -1921590.0, 84246.17, -0.17531325, 0.032749563, -1827429.4, -177775.4, 0.057701517, 9.998753, 9.9985075 
1.78464e+3, 1.416714e+2, -1777911.4, -1585937.5, 28129.754, -0.37194288, 0.38783842, -1581900.6, -30262.373, 0.030258754, 9.997968, 10.000513 
1.7846984e+3, 1.5167004e+2, -1549423.0, -1283519.3, -22093.684, -0.19729014, 0.09824619, -1281696.0, 171949.11, 0.0109521225, 9.998253, 10.001786 
1.7847563e+3, 1.6166924e+2, -1478129.3, -1332920.1, 26744.094, -0.09983055, -0.09080575, -1328151.1, 27496.35, 0.0020959692, 9.998648, 10.000577 
1.7848147e+3, 1.7167132e+2, -1312482.5, -1231673.0, 78176.11, -0.13666031, 0.08727806, -1184077.5, 73551.14, 0.000105867584, 9.999246, 10.000307 
1.7848736e+3, 1.8167225e+2, -1227417.0, -1304239.3, 75893.76, -0.15274133, 0.2280358, -1180767.6, -21146.232, 0.0000000562377, 9.999864, 9.998842 
1.7849322e+3, 1.9166972e+2, -1034583.75, -1207808.4, 63563.87, -0.13275746, 0.13408488, -1013762.1, 47886.77, 0.0, 10.000724, 9.998413 
1.784991e+3, 2.0166735e+2, -813220.75, -993287.9, 47353.383, -0.082214385, 0.067246854, -801527.3, 162146.53, 0.0, 10.001313, 9.998934 
1.7850505e+3, 2.1166693e+2, -729480.6, -839901.4, 26145.867, 0.061142735, 0.09126481, -723602.56, 142073.8, 0.0, 10.000954, 9.999483 
1.7851105e+3, 2.2166614e+2, -746217.2, -889259.5, 131713.4, 0.1471473, 0.12085635, -667859.44, 99823.74, 0.0, 10.000558, 9.998666 
1.785172e+3, 2.3166442e+2, -694560.3, -821105.94, 178593.98, 0.016029349, 0.09621239, -568362.1, 101339.95, 0.0, 10.0002775, 9.998591 
1.7852324e+3, 2.4166276e+2, -587854.4, -718794.5, 38957.117, -0.070310496, 0.100243516, -577140.56, -5420.9893, 0.0, 10.000334, 9.998595 
1.7852908e+3, 2.5166216e+2, -308534.16, -499867.28, -9217.013, 0.032775067, 0.16390273, -308091.2, 165631.38, 0.0, 10.001435, 9.998894 
1.7853494e+3, 2.6166093e+2, -162785.78, -470221.7, 106584.75, 0.08053142, 0.2053034, -129448.88, 246283.7, 0.00000018312008, 10.00215, 9.998083 
1.7854081e+3, 2.716579e+2, -172878.22, -434053.84, 135964.4, -0.09169587, 0.1105672, -114946.81, 162815.38, 0.000018531657, 10.001451, 9.997992 
1.7854671e+3, 2.81655e+2, -107296.305, -394766.6, 28650.66, -0.15039857, 0.06083401, -104468.66, 75322.31, 0.00016923725, 10.001425, 9.9976 
1.785527e+3, 2.9165342e+2, 353796.6, -113874.086, -32786.234, 0.15246686, 0.1361913, 356083.9, 437889.25, 0.0006405078, 10.003891, 9.997666 
1.7855854e+3, 3.0165088e+2, 541467.94, 56463.145, 110922.836, 0.2080117, 0.11916674, 565632.56, 565632.56, 0.0014948774, 10.004593, 9.998178 
1.7856431e+3, 3.1164873e+2, -200741.95, -264121.75, -10939.599, -0.13490105, 0.06432723, -198906.88, -198906.88, 0.0025834802, 9.999361, 9.998464 
1.7945243e+3, 1.2161473e+2, -1866051.6, -1912690.5, -144056.7, -0.1948755, 0.18232274, -1743439.1, 4736.8823, 0.09190124, 9.999489, 9.998883 
1.7945822e+3, 1.3161105e+2, -1871761.4, -1863263.6, 53574.527, -0.13134317, -0.060540818, -1813769.8, -163549.73, 0.06119029, 9.998774, 9.998898 
1.7946391e+3, 1.4161137e+2, -1788227.8, -1614244.9, 23395.244, -0.24168913, 0.062361546, -1611153.9, -58932.434, 0.03230053, 9.997991, 10.000311 
1.7946978e+3, 1.5161285e+2, -1582280.0, -1354467.5, -4125.388, -0.069083355, 0.10312026, -1354392.9, 99811.82, 0.011841973, 9.998264, 10.00129 
1.7947559e+3, 1.6161397e+2, -1458763.5, -1300013.9, 43621.52, -0.005974678, 0.1306321, -1288817.1, 67373.74, 0.0023264778, 9.9986725, 10.000795 
1.794814e+3, 1.7161378e+2, -1269828.4, -1146681.1, 102327.16, -0.12395917, 0.032197665, -1088830.5, 169358.75, 0.00012352158, 9.999256, 10.000889 
1.7948727e+3, 1.8161324e+2, -1217583.6, -1289964.6, 103164.88, -0.20060235, -0.01818332, -1144445.5, 15747.618, 0.000000085167756, 9.9998865, 9.99893 
1.7949328e+3, 1.9161257e+2, -1047252.7, -1238197.4, 98917.2, -0.13727844, 0.08877928, -1005249.3, 56956.332, 0.0, 10.000736, 9.998201 
1.7949925e+3, 2.0161153e+2, -839461.3, -1046731.5, 46667.063, -0.045716163, 0.18070665, -829438.8, 134782.05, 0.0, 10.001305, 9.998572 
1.795052e+3, 2.1160997e+2, -759908.44, -902984.6, 13239.112, 0.1133505, 0.13281263, -758693.7, 107542.3, 0.0, 10.000948, 9.999056 
1.7951114e+3, 2.2160833e+2, -765842.2, -926957.4, 117651.46, 0.18413393, 0.11291963, -703811.6, 64440.508, 0.0, 10.0005455, 9.998413 
1.7951714e+3, 2.3160718e+2, -709961.94, -852128.75, 173120.19, -0.045720007, 0.1667661, -593899.8, 76365.05, 0.0, 10.000274, 9.998381 
1.7952317e+3, 2.416059e+2, -558551.9, -655638.1, 66624.66, -0.17138919, 0.2086631, -524661.5, 47616.098, 0.0, 10.000321, 9.999037 
1.795293e+3, 2.5160468e+2, -263768.38, -389577.03, 40086.35, 0.10432933, 0.13695766, -252081.34, 222203.08, 0.0, 10.001359, 9.999689 
1.795353e+3, 2.6160297e+2, -172036.89, -461339.06, 97952.13, 0.23968072, 0.07329944, -141992.38, 234305.22, 0.00000012581046, 10.002026, 9.998205 
1.795409e+3, 2.7160025e+2, -194654.2, -477363.72, 112626.13, -0.13000578, 0.024864605, -155272.11, 123054.6, 0.000016560381, 10.00144, 9.997703 
1.7954671e+3, 2.8159758e+2, -109430.82, -406736.7, 86244.766, -0.28386208, 0.02845195, -86223.766, 94130.49, 0.00016528118, 10.001453, 9.997505 
1.7955317e+3, 2.915963e+2, 328230.47, -119165.7, 76778.836, 0.23627383, 0.12923178, 341039.94, 423405.34, 0.0006345581, 10.003683, 9.99773 
1.7955908e+3, 3.0159327e+2, 454015.53, -48332.742, 84.47488, 0.29020855, 0.07952341, 454015.56, 454015.56, 0.0014500081, 10.004263, 9.997616 
1.7956436e+3, 3.115905e+2, -174844.63, -246489.22, -168281.1, -0.023251748, 0.036082998, -38615.28, -38615.28, 0.0024239137, 9.999526, 9.998506 
1.8045229e+3, 1.2155768e+2, -1864743.8, -1856094.6, -153172.63, -0.2568212, 0.23829508, -1707185.5, 41552.258, 0.097200245, 9.999274, 9.999387 
1.8045814e+3, 1.3155426e+2, -1726413.5, -1675846.8, 51765.836, -0.08816895, -0.07350748, -1643519.8, 7254.972, 0.06490086, 9.999272, 9.999945 
1.8046375e+3, 1.4155455e+2, -1655010.0, -1567546.6, 85576.92, -0.22635539, -0.019809423, -1515174.9, 37598.887, 0.034457777, 9.998981, 10.000159 
1.8046968e+3, 1.515562e+2, -1453925.3, -1378163.8, 55775.824, -0.040211085, 0.10165735, -1348621.3, 106136.92, 0.0127833225, 9.999511, 10.000528 
1.8047553e+3, 1.6155715e+2, -1317139.4, -1283861.9, 72972.56, 0.03391806, 0.18021919, -1225655.1, 131093.16, 0.0025744103, 9.999881, 10.000318 
1.8048136e+3, 1.7155609e+2, -1230142.5, -1164816.0, 53547.74, -0.108393386, 0.030249929, -1134755.6, 123999.22, 0.00014305822, 9.999703, 10.000542 
1.8048725e+3, 1.8155499e+2, -1237279.0, -1270771.3, 26563.078, -0.19363594, -0.060234133, -1222624.0, -61860.402, 0.00000010953618, 9.999624, 9.999187 
1.8049334e+3, 1.9155492e+2, -1092670.9, -1193207.5, 76259.23, -0.10268365, 0.053355288, -1051602.6, 11166.241, 0.0, 10.000133, 9.998798 
1.8049937e+3, 2.0155442e+2, -924249.06, -1092941.5, 67387.56, -0.0056850826, 0.16171414, -900635.25, 64142.816, 0.0, 10.000755, 9.998515 
1.8050528e+3, 2.1155295e+2, -667461.56, -902347.8, 26928.092, 0.07263591, 0.15849271, -664413.94, 202380.69, 0.0, 10.001781, 9.998654 
1.8051118e+3, 2.2155133e+2, -477109.03, -778910.4, 123285.586, 0.09333683, 0.16632308, -433149.88, 335662.13, 0.0, 10.002495, 9.998488 
1.8051721e+3, 2.3155019e+2, -422318.06, -676865.3, 202753.34, -0.06289242, 0.19070138, -310201.84, 360620.75, 0.0, 10.002094, 9.998706 
1.8052329e+3, 2.4154869e+2, -402766.34, -593703.3, 122775.3, -0.12300153, 0.19263497, -342709.88, 230125.69, 0.0, 10.001449, 9.998918 
1.805294e+3, 2.5154662e+2, -442748.84, -515753.1, 17365.814, 0.13720435, 0.06733461, -438828.5, 36023.023, 0.0, 10.000307, 9.999327 
1.8053538e+3, 2.6154462e+2, -473771.4, -582707.7, 49911.758, 0.2478843, -0.008679073, -454361.53, -77492.81, 0.000000046918622, 9.999862, 9.998408 
1.8054105e+3, 2.7154344e+2, -80640.945, -365455.1, 112845.15, -0.13308187, 0.058539934, -41351.01, 237532.14, 0.000015746857, 10.001989, 9.998199 
1.8054695e+3, 2.8154188e+2, 191459.38, -251911.86, 114779.914, -0.2708917, 0.12890206, 219411.39, 400312.66, 0.00016267167, 10.003468, 9.997602 
1.8055344e+3, 2.915394e+2, 38000.086, -263538.28, 75138.24, 0.26659513, 0.12164186, 55685.95, 138609.56, 0.000624589, 10.001698, 9.997698 
1.8055926e+3, 3.01536e+2, -98968.66, -316467.53, -9398.325, 0.2670165, 0.03610203, -98563.3, -98563.3, 0.0013975229, 10.000467, 9.997597 
1.805646e+3, 3.1153494e+2, 419565.06, 84442.85, -95622.25, 0.08170971, 0.16847791, 444929.72, 444929.72, 0.0022717845, 10.00339, 9.998938 
1.8145235e+3, 1.2149672e+2, -1764903.4, -1662789.6, -121054.33, -0.1137557, -0.06581428, -1582465.6, 166870.89, 0.10291468, 9.999312, 10.000775 
1.814581e+3, 1.3149878e+2, -1599546.5, -1431050.3, 38162.945, -0.06349313, 0.0014598558, -1422809.8, 228506.66, 0.06887483, 9.999312, 10.0017185 
1.814635e+3, 1.4150141e+2, -1649393.5, -1568964.6, 92527.625, -0.3739916, 0.17235933, -1508290.3, 45000.152, 0.036753505, 9.999036, 10.000126 
1.814695e+3, 1.515002e+2, -1516329.9, -1521430.0, 84242.19, -0.15066543, 0.09230837, -1434599.1, 20705.049, 0.01378539, 9.999571, 9.999512 
1.8147546e+3, 1.6149876e+2, -1395444.3, -1463172.6, 72896.25, -0.025467515, 0.03840371, -1348930.3, 8389.943, 0.002842686, 9.999949, 9.999054 
1.8148132e+3, 1.714982e+2, -1323166.9, -1369137.6, 45628.547, -0.10981114, 0.07919295, -1295061.3, -35735.156, 0.00016504708, 9.999744, 9.999123 
1.8148723e+3, 1.814975e+2, -1204026.5, -1205977.5, 34635.625, -0.15515558, 0.110843495, -1170352.6, -9019.718, 0.00000012908751, 9.999644, 9.999621 
1.8149339e+3, 1.9149677e+2, -994273.3, -987425.06, 99111.86, -0.05281904, 0.034359876, -891678.2, 171660.17, 0.0, 10.000129, 10.000211 
1.8149947e+3, 2.01496e+2, -908573.44, -1062534.4, 97941.95, 0.012683989, 0.012543701, -860980.2, 104365.62, 0.0, 10.00076, 9.998724 
1.815053e+3, 2.1149573e+2, -701227.25, -968263.75, 68961.46, -0.07769067, 0.16042948, -684469.75, 182884.22, 0.0, 10.001757, 9.998217 
1.8151118e+3, 2.2149503e+2, -459012.94, -727003.1, 122734.83, -0.1462452, 0.27676687, -411298.03, 358066.44, 0.0, 10.002432, 9.998876 
1.815174e+3, 2.3149338e+2, -371721.72, -558952.8, 187706.22, -0.06557673, 0.17593537, -255581.48, 415794.66, 0.0, 10.00204, 9.999541 
1.8152358e+3, 2.4149111e+2, -455076.88, -692270.56, 85294.36, 0.034920808, 0.0651107, -427590.38, 145803.77, 0.0, 10.001401, 9.998265 
1.8152939e+3, 2.514879e+2, -538423.6, -723914.4, -22347.975, 0.11384576, -0.045166966, -535769.1, -60344.246, 0.0, 10.000343, 9.997882 
1.815352e+3, 2.6148567e+2, -448360.94, -546157.1, 92039.68, 0.09381066, -0.05269172, -393036.56, -15589.272, 0.000000056350853, 9.999927, 9.998631 
1.8154123e+3, 2.7148727e+2, -20615.295, -213372.83, 206505.33, -0.13278097, 0.195379, 110894.76, 390329.25, 0.000014334833, 10.001871, 9.999304 
1.815474e+3, 2.8148732e+2, 176311.9, -231091.42, 95765.84, -0.1714055, 0.34576285, 197700.16, 379136.75, 0.00015432545, 10.003236, 9.99786 
1.8155354e+3, 2.9148233e+2, 29043.572, -287563.84, 3365.7625, 0.21401413, 0.09910336, 29079.35, 112563.09, 0.0005981924, 10.001712, 9.997532 
1.8155915e+3, 3.0147877e+2, -59382.387, -258838.31, 26524.934, 0.1047154, -0.0021713912, -55915.2, -55915.2, 0.0013376832, 10.000583, 9.997933 
1.8156484e+3, 3.1147945e+2, 425654.22, 163323.3, 110035.51, -0.015458122, 0.24666478, 465696.78, 465696.78, 0.0021666302, 10.003111, 9.999613 
1.8245222e+3, 1.21438876e+2, -1982452.1, -1740452.9, -6702.647, -0.08805716, -0.13928886, -1740267.4, 9635.942, 0.10907774, 9.997708, 10.000928 
1.8245795e+3, 1.314421e+2, -1727486.9, -1492778.8, -22682.965, -0.05966618, 0.038604405, -1490606.6, 161265.98, 0.07313931, 9.998407, 10.001709 
1.8246332e+3, 1.4144474e+2, -1702739.8, -1594785.0, -48661.684, -0.41925403, 0.21559688, -1576088.3, -22241.23, 0.039204508, 9.998683, 10.000106 
1.8246944e+3, 1.5144318e+2, -1515676.1, -1519714.3, 14329.442, -0.14941804, 0.10280182, -1503224.3, -47360.168, 0.014855209, 9.999584, 9.999508 
1.824755e+3, 1.6144136e+2, -1351913.6, -1475695.5, 64322.246, 0.022020057, 0.024690071, -1324541.8, 33341.35, 0.0031336718, 10.00039, 9.998758 
1.8248135e+3, 1.7144065e+2, -1209660.5, -1363987.3, 99221.03, -0.07586737, 0.089119256, -1161129.9, 98760.73, 0.00019006866, 10.000733, 9.998684 
1.8248725e+3, 1.8143971e+2, -1038346.8, -1146746.5, 127553.484, -0.13971058, 0.13313784, -953955.5, 207943.73, 0.00000015151502, 10.0008745, 9.999434 
1.8249339e+3, 1.9143866e+2, -942330.3, -969539.56, 87034.74, -0.061527647, 0.033079453, -867843.3, 196064.22, 0.0, 10.000526, 10.00014 
1.8249947e+3, 2.0143762e+2, -959690.5, -1063406.9, 29514.436, -0.014299579, -0.015260032, -951879.8, 14037.143, 0.0, 10.000309, 9.998935 
1.8250534e+3, 2.114374e+2, -815800.56, -980256.1, 55341.344, -0.12269339, 0.105423264, -798911.9, 69011.234, 0.0, 10.000791, 9.998597 
1.825113e+3, 2.2143683e+2, -645630.44, -820419.0, 114222.89, -0.1780858, 0.20925155, -589203.2, 180728.47, 0.0, 10.001163, 9.998846 
1.8251759e+3, 2.3143539e+2, -555971.6, -676252.6, 87003.13, -0.007781894, 0.1514518, -510346.22, 161597.05, 0.0, 10.000897, 9.999286 
1.8252377e+3, 2.4143334e+2, -513323.1, -707908.25, -30352.986, 0.14209877, 0.078467906, -508698.3, 65262.33, 0.0, 10.000954, 9.998371 
1.8252951e+3, 2.514304e+2, -223800.5, -538007.9, -25624.363, 0.106374346, -0.032743175, -221724.48, 254263.02, 0.0, 10.002358, 9.998188 
1.8253526e+3, 2.6142818e+2, 1062.9108, -337252.34, 157006.55, 0.019421283, -0.05382783, 62698.18, 440706.3, 0.00000009873202, 10.003054, 9.998556 
1.8254139e+3, 2.714292e+2, -182997.1, -325214.25, 175417.36, -0.10730742, 0.1561425, -64823.668, 215178.66, 0.000014097946, 10.0009, 9.999002 
1.825476e+3, 2.8142878e+2, -338341.34, -451031.38, 33553.805, -0.085952185, 0.27760783, -329107.25, -147098.03, 0.00014668093, 9.999589, 9.998101 
1.8255372e+3, 2.9142472e+2, 136690.77, -169537.08, -21213.336, 0.21840194, 0.07337726, 138153.28, 222199.73, 0.0005665578, 10.002174, 9.998113 
1.8255937e+3, 3.01422e+2, 388168.06, -119149.05, 8080.6514, 0.123033494, 0.037837185, 388296.72, 388296.72, 0.0012819148, 10.003996, 9.997248 
1.8256506e+3, 3.1142056e+2, 249624.48, -94304.91, 6910.925, -0.044446625, 0.21056673, 249763.3, 249763.3, 0.0021140666, 10.0026245, 9.998087 
1.8345182e+3, 1.2138493e+2, -2089167.1, -1946242.1, 55063.883, -0.24886815, 0.060508262, -1927488.6, -177058.25, 0.11569034, 9.997649, 9.999536 
1.8345773e+3, 1.3138416e+2, -1881819.1, -1789096.3, -10922.402, -0.11249883, 0.038133197, -1787827.0, -135382.84, 0.07769921, 9.998365, 9.999605 
1.834632e+3, 1.413842e+2, -1706856.3, -1607897.8, -33841.17, -0.38291737, 0.09823445, -1597431.9, -42983.95, 0.04181763, 9.998694, 10.000014 
1.8346949e+3, 1.5138498e+2, -1437068.9, -1364980.8, 49911.04, -0.047634497, 0.13493861, -1339459.5, 116979.93, 0.015997248, 9.999611, 10.000571 
1.8347567e+3, 1.6138513e+2, -1291490.9, -1358668.1, 81264.0, 0.15883712, 0.1532561, -1237147.5, 121288.586, 0.0034491862, 10.000426, 9.999545 
1.8348147e+3, 1.7138346e+2, -1161566.5, -1273941.0, 113571.77, -0.024887959, 0.05931639, -1091043.3, 169404.42, 0.00021871291, 10.000772, 9.999284 
1.834873e+3, 1.813816e+2, -1091463.6, -1267177.0, 121129.82, -0.18016025, -0.003108319, -1029683.3, 132779.34, 0.00000018976193, 10.000914, 9.998591 
1.8349333e+3, 1.9138055e+2, -1053467.9, -1204675.6, 74568.2, -0.15558125, 0.044142157, -1022881.56, 41594.996, 0.0, 10.000542, 9.99852 
1.834994e+3, 2.0137933e+2, -949306.7, -1041467.94, 35877.74, -0.11939621, 0.08225486, -936986.7, 29504.732, 0.0, 10.000303, 9.99909 
1.8350545e+3, 2.1137807e+2, -737911.25, -815349.7, 78593.28, -0.09007853, 0.0016005815, -689017.2, 179484.64, 0.0, 10.000772, 9.99974 
1.8351156e+3, 2.2137679e+2, -683548.4, -888964.94, 112399.31, -0.039098438, -0.02653511, -633998.4, 136515.11, 0.0, 10.001115, 9.998401 
1.8351775e+3, 2.3137619e+2, -652214.7, -870103.4, 79879.21, 0.08609491, 0.11389878, -626068.1, 46456.188, 0.0, 10.000867, 9.997972 
1.8352391e+3, 2.413753e+2, -468389.75, -605280.1, 3085.6235, 0.17412293, 0.22149342, -468320.25, 106215.44, 0.0, 10.000909, 9.999101 
1.835297e+3, 2.5137386e+2, -103623.43, -271102.94, 35634.69, 0.088565975, 0.09828078, -96356.71, 380184.8, 0.0, 10.002281, 10.000061 
1.8353552e+3, 2.61372e+2, -34886.47, -393089.4, 114311.38, -0.016135696, -0.0051811375, -1515.7533, 377038.0, 0.000000089696776, 10.002966, 9.998219 
1.8354148e+3, 2.7136934e+2, -292373.78, -552566.44, 89807.07, -0.08747827, -0.030246241, -264386.7, 16198.793, 0.000014790434, 10.000894, 9.997448 
1.8354757e+3, 2.813668e+2, -319734.22, -422397.5, 71824.96, -0.05815197, -0.022111423, -282783.56, -100169.016, 0.00014292239, 9.999629, 9.99828 
1.8355393e+3, 2.9136655e+2, 205650.84, -11534.005, 90375.31, 0.22680385, 0.056868266, 238338.33, 322950.72, 0.00054012553, 10.002112, 9.9992285 
1.835599e+3, 3.0136544e+2, 261511.86, -350584.47, -4432.545, 0.25417957, 0.15419798, 261543.95, 261543.95, 0.0012335866, 10.003859, 9.995724 
1.8356517e+3, 3.113598e+2, -32244.969, -653509.25, -8723.4795, -0.19206274, 0.18380514, -32122.502, -32122.502, 0.002081833, 10.0025015, 9.99431 
1.844516e+3, 1.21327996e+2, -1998995.3, -1890339.5, -13667.476, -0.24123247, 0.12506081, -1888646.6, -137656.48, 0.12272786, 9.998209, 9.999652 
1.8445759e+3, 1.3132676e+2, -1876411.6, -1804640.8, 8160.2563, -0.094091535, 0.06749318, -1803724.6, -150716.52, 0.08254445, 9.998487, 9.999435 
1.8446313e+3, 1.4132622e+2, -1750143.8, -1660137.5, 105989.1, -0.31399465, 0.0897044, -1589993.0, -34975.79, 0.04459436, 9.998534, 9.999733 
1.8446943e+3, 1.5132692e+2, -1508217.0, -1442416.1, 102704.875, -0.045351107, 0.15359487, -1367470.8, 89539.54, 0.017215712, 9.999305, 10.000191 
1.8447563e+3, 1.6132692e+2, -1340925.4, -1375784.1, 33046.164, 0.11731539, 0.18340574, -1320993.9, 38014.645, 0.0037916328, 10.000064, 9.9995985 
1.844815e+3, 1.7132497e+2, -1135365.0, -1224023.6, 25357.67, -0.043945566, 0.036233272, -1128624.8, 132395.81, 0.00025177147, 10.000807, 9.999603 
1.844874e+3, 1.8132298e+2, -1056450.1, -1274570.3, 12231.75, -0.16488238, -0.052463803, -1055766.4, 107269.03, 0.00000025167606, 10.001261, 9.998368 
1.8449344e+3, 1.9132224e+2, -1051699.5, -1263663.6, 22585.92, -0.1025174, 0.07484068, -1049319.5, 15729.5205, 0.0, 10.00081, 9.997984 
1.8449947e+3, 2.0132127e+2, -932874.7, -1031834.94, 61644.344, -0.04530063, 0.17393988, -903308.56, 63755.004, 0.0, 10.000414, 9.999098 
1.8450552e+3, 2.1131982e+2, -740982.0, -782929.7, 56412.246, -0.07551586, 0.0502847, -701770.75, 167303.03, 0.0, 10.000612, 10.000037 
1.8451159e+3, 2.2131826e+2, -718301.75, -889593.1, 55206.69, -0.07918898, -0.032397, -702050.6, 69035.89, 0.0, 10.000816, 9.998533 
1.8451779e+3, 2.3131712e+2, -634072.9, -858075.4, 97209.734, 0.033806365, 0.051614173, -597770.4, 75331.49, 0.0, 10.000983, 9.997993 
1.8452393e+3, 2.4131604e+2, -431588.88, -582436.56, 95919.93, 0.122103654, 0.1367171, -384990.63, 190124.33, 0.0, 10.001143, 9.999143 
1.8452984e+3, 2.5131568e+2, -251399.89, -334577.63, 18695.842, 0.06695841, 0.1133212, -247390.86, 229721.36, 0.0, 10.00124, 10.000121 
1.8453574e+3, 2.6131448e+2, -280158.63, -510340.03, -23264.191, 0.014879896, 0.07395767, -277830.88, 101288.41, 0.00000009817215, 10.001279, 9.998224 
1.8454166e+3, 2.7131113e+2, -249294.83, -527480.6, 11562.571, 0.010754029, -0.01891597, -248815.06, 32341.178, 0.000013823804, 10.001175, 9.997479 
1.8454769e+3, 2.813082e+2, -101100.54, -345582.3, 134984.22, 0.03291749, -0.04412865, -41232.74, 141955.16, 0.00013379921, 10.001256, 9.998025 
1.8455403e+3, 2.9130802e+2, 184979.56, -71530.45, 95168.445, 0.12860934, 0.0818945, 216431.72, 301618.2, 0.00050557987, 10.002185, 9.998784 
1.8456014e+3, 3.013061e+2, 159354.02, -324967.38, -92580.15, 0.17063868, 0.11067678, 176447.81, 176447.81, 0.0011686218, 10.002837, 9.99639 
1.8456551e+3, 3.1130052e+2, 52536.473, -450973.2, 100320.336, -0.07266782, 0.023480931, 71788.41, 71788.41, 0.0020099676, 10.002369, 9.9957695 
1.8545158e+3, 1.2126766e+2, -1852951.3, -1623723.4, 15523.419, -0.077837266, 0.04344605, -1622676.9, 128910.4, 0.13014582, 9.998273, 10.001584 
1.854575e+3, 1.3126993e+2, -1724324.1, -1509250.1, 8364.521, -0.017406391, 0.12453734, -1508925.4, 144637.97, 0.08765755, 9.998512, 10.001545 
1.8546306e+3, 1.4127122e+2, -1780903.4, -1731540.1, 124051.64, -0.23460476, 0.20051269, -1629738.6, -74188.57, 0.04753598, 9.99856, 9.999235 
1.8546921e+3, 1.5126908e+2, -1650884.1, -1739050.8, 137908.17, -0.17645766, 0.15539175, -1550184.9, -92609.61, 0.01851746, 9.999307, 9.998148 
1.8547536e+3, 1.612666e+2, -1391944.4, -1489838.8, 60314.87, -0.15588483, 0.1045802, -1363214.5, -3612.7722, 0.0041650403, 10.0000925, 9.998804 
1.8548146e+3, 1.7126508e+2, -1133224.3, -1228104.8, 54666.41, -0.16401967, 0.01587951, -1108283.6, 153326.64, 0.00029041685, 10.000836, 9.999563 
1.8548757e+3, 1.8126377e+2, -1025297.9, -1219257.3, 7771.324, -0.12159023, -0.014493192, -1024987.0, 138631.63, 0.0000003514084, 10.001299, 9.998731 
1.854937e+3, 1.9126372e+2, -1007477.75, -1177953.9, 4029.948, 0.07551236, 0.12799057, -1007382.56, 58242.91, 0.0, 10.000834, 9.99856 
1.8549974e+3, 2.0126343e+2, -943009.1, -1053801.3, 57300.227, 0.18287931, 0.26063162, -918705.5, 48928.28, 0.0, 10.000415, 9.998948 
1.8550554e+3, 2.1126254e+2, -781086.56, -862425.7, 68424.18, -0.09300623, 0.23925784, -742157.9, 127482.586, 0.0, 10.000593, 9.999502 
1.8551141e+3, 2.2126104e+2, -678336.0, -800798.5, 61153.465, -0.3140269, 0.17960073, -653028.2, 118624.12, 0.0, 10.000788, 9.99916 
1.8551765e+3, 2.3125817e+2, -548230.94, -674787.1, 107148.75, -0.17806476, -0.026766656, -487070.4, 186606.22, 0.0, 10.0009575, 9.999267 
1.8552388e+3, 2.4125566e+2, -479602.25, -671154.56, 98411.68, -0.034863394, -0.15024348, -438054.22, 137644.14, 0.0, 10.001091, 9.998561 
1.855299e+3, 2.5125584e+2, -370733.16, -573853.9, 26288.34, 0.018946208, 0.022297664, -367386.03, 110313.2, 0.0, 10.001201, 9.998498 
1.8553591e+3, 2.6125562e+2, -261617.23, -472492.38, -23528.879, 0.075713, 0.18079868, -259023.84, 120680.195, 0.00000008466028, 10.001275, 9.998489 
1.8554191e+3, 2.7125412e+2, -153424.36, -330965.88, 11993.013, 0.15106304, 0.16072701, -152617.89, 129100.625, 0.000011312339, 10.001182, 9.998829 
1.8554792e+3, 2.8125232e+2, -141159.16, -430429.0, 149645.89, 0.14980905, 0.17005467, -77675.96, 106060.25, 0.00011834512, 10.001259, 9.997443 
1.8555403e+3, 2.9124907e+2, 50298.984, -337646.84, 140095.23, -0.07917285, 0.14355128, 95600.32, 181368.77, 0.0004615144, 10.002122, 9.996991 
1.855601e+3, 3.012442e+2, 298862.28, -6701.7017, -85457.21, -0.13168655, -0.05611481, 321138.22, 321138.22, 0.0010851047, 10.002718, 9.9986315 
1.8556611e+3, 3.1124398e+2, 426109.22, 371703.88, 25694.633, 0.28657055, -0.056202915, 436325.78, 436325.78, 0.0018883394, 10.002194, 10.001499 
1.864513e+3, 1.2120761e+2, -2149784.3, -1678147.8, 52904.22, -0.06308022, 0.024904672, -1672286.3, 79892.0, 0.1378835, 9.995897, 10.002305 
1.8645726e+3, 1.3121094e+2, -1800892.5, -1500498.0, -105117.05, -0.040043373, 0.16179816, -1467368.3, 186773.55, 0.09301642, 9.997791, 10.001977 
1.8646303e+3, 1.4121217e+2, -1670700.9, -1683390.1, -86058.2, -0.1326779, 0.20635772, -1590753.8, -34625.39, 0.050644647, 9.999351, 9.999174 
1.8646912e+3, 1.5120968e+2, -1610451.5, -1759116.9, 32114.07, -0.19524364, 0.16026631, -1603811.0, -145653.45, 0.01991141, 9.999757, 9.9977865 
1.8647523e+3, 1.6120702e+2, -1431620.9, -1519259.4, 59530.18, -0.25719142, 0.11764956, -1401521.4, -41334.56, 0.0045744055, 9.999871, 9.998703 
1.8648143e+3, 1.7120582e+2, -1309367.1, -1307153.8, 58212.89, -0.19168535, 0.061383754, -1250037.0, 12155.905, 0.0003360051, 9.999605, 9.999608 
1.8648762e+3, 1.812047e+2, -1285092.0, -1307865.1, 9145.579, -0.08032778, 0.03698099, -1281873.9, -117674.48, 0.00000050835786, 9.999366, 9.999055 
1.8649371e+3, 1.912043e+2, -1157284.0, -1195271.5, -10618.692, 0.107042976, 0.097790085, -1154517.3, -88309.88, 0.0, 9.9995775, 9.999049 
1.8649976e+3, 2.0120376e+2, -1004984.8, -1075409.8, 64004.863, 0.20187694, 0.17135698, -967145.7, 1070.4795, 0.0, 9.99996, 9.999018 
1.865056e+3, 2.1120344e+2, -745094.06, -865566.9, 105506.4, -0.09337169, 0.22020306, -683839.6, 186379.61, 0.0, 10.00093, 9.999315 
1.8651152e+3, 2.2120255e+2, -548657.5, -721758.56, 86760.83, -0.3235187, 0.2298008, -512658.28, 259568.5, 0.0, 10.001608, 9.999308 
1.8651773e+3, 2.3120011e+2, -518771.3, -622219.25, 52486.234, -0.18338798, 0.038494233, -496805.56, 177440.5, 0.0, 10.000997, 9.999608 
1.8652394e+3, 2.4119776e+2, -570443.0, -729639.06, 29889.004, -0.028549312, -0.088941984, -565016.3, 11249.716, 0.0, 10.000541, 9.998417 
1.8653002e+3, 2.51197e+2, -401154.0, -638267.5, 35167.91, 0.02956449, 0.03074081, -396047.97, 82229.02, 0.0, 10.00121, 9.998046 
1.8653606e+3, 2.6119608e+2, -177384.27, -438726.47, 33343.258, 0.08243285, 0.14951022, -173197.27, 207092.08, 0.000000065173005, 10.001896, 9.998417 
1.8654203e+3, 2.7119488e+2, 19888.012, -232968.17, -16559.436, 0.13216971, 0.1496644, 20967.871, 303267.56, 0.000009221533, 10.0023155, 9.998954 
1.8654807e+3, 2.811932e+2, 59784.66, -306951.47, 84832.25, 0.131387, 0.15816934, 78457.086, 262771.94, 0.000106402105, 10.002528, 9.997677 
1.8655427e+3, 2.9119015e+2, 49561.133, -299163.56, 185172.61, -0.021357173, 0.12450952, 129543.28, 215888.86, 0.00042743483, 10.001963, 9.997321 
1.8656036e+3, 3.0118603e+2, 114331.664, -93953.19, 19411.06, -0.05822494, -0.02526688, 116125.23, 116125.23, 0.0010143189, 10.001436, 9.9986515 
1.8656622e+3, 3.1118596e+2, 403232.5, 389106.78, -198489.63, 0.21599476, -0.006560301, 594784.9, 594784.9, 0.001764529, 10.001913, 10.001752 
1.8745065e+3, 1.211482e+2, -2219733.0, -1794111.4, 109176.305, -0.29208314, 0.08986657, -1767740.4, -14981.848, 0.14588223, 9.995815, 10.001467 
1.8745686e+3, 1.3114968e+2, -1918199.1, -1722061.1, -38208.53, -0.20495504, 0.1876612, -1714880.9, -60135.723, 0.0986057, 9.997757, 10.000354 
1.8746305e+3, 1.4114858e+2, -1638197.1, -1628456.4, -60891.727, -0.040056735, 0.10107349, -1572240.5, -15482.983, 0.053927336, 9.999399, 9.999529 
1.8746918e+3, 1.5114857e+2, -1496924.1, -1529239.6, 42218.902, -0.11166648, 0.16823478, -1467876.6, -9117.388, 0.021407956, 9.99978, 9.999353 
1.8747526e+3, 1.611483e+2, -1380601.9, -1421287.1, 53263.957, -0.19943674, 0.23605077, -1343928.1, 16834.326, 0.0050250688, 9.9999, 9.999364 
1.8748143e+3, 1.711473e+2, -1301976.0, -1294475.9, 48417.047, -0.1405264, 0.17979106, -1249663.9, 13103.644, 0.00038988978, 9.999611, 9.999696 
1.8748754e+3, 1.8114588e+2, -1265603.6, -1267962.9, 8614.279, -0.069782265, 0.10913642, -1258088.5, -93311.28, 0.000000733184, 9.999367, 9.99933 
1.8749352e+3, 1.9114392e+2, -1131264.6, -1140938.1, 2007.8687, -0.032604277, -0.01890152, -1130864.5, -64069.363, 0.0, 9.999574, 9.999425 
1.8749951e+3, 2.0114219e+2, -987264.1, -1040804.94, 89392.82, -0.025951505, -0.09844489, -920719.3, 48092.215, 0.0, 9.999963, 9.999258 
1.8750566e+3, 2.1114253e+2, -737830.94, -848455.1, 146684.63, -0.105319336, 0.0014211138, -636376.3, 234433.88, 0.0, 10.000913, 9.999446 
1.8751183e+3, 2.2114283e+2, -578524.1, -770254.6, 82911.984, -0.14831299, 0.12966059, -547643.4, 225166.31, 0.0, 10.001547, 9.999005 
1.8751799e+3, 2.311428e+2, -564927.2, -705678.8, 28859.38, -0.015951237, 0.2303424, -559239.75, 115572.04, 0.0, 10.000944, 9.999061 
1.8752411e+3, 2.4114202e+2, -562052.2, -704830.8, 36483.69, 0.09767366, 0.2893246, -553269.8, 23550.89, 0.0, 10.0005045, 9.998608 
1.8753016e+3, 2.5113907e+2, -357993.56, -551671.44, 67424.08, 0.071224086, 0.13783008, -336833.4, 142013.72, 0.0, 10.00122, 9.99864 
1.8753618e+3, 2.61136e+2, -201458.4, -492876.84, 48494.645, 0.01819225, 0.011961044, -193600.36, 187274.83, 0.000000045934687, 10.001909, 9.998041 
1.8754208e+3, 2.711336e+2, -52764.523, -378230.6, 3224.1592, -0.050786845, -0.018819936, -52732.586, 230165.45, 0.000007964092, 10.002287, 9.997973 
1.8754815e+3, 2.8113136e+2, 110432.61, -184933.14, 74269.16, -0.048574556, -0.030093092, 128055.94, 312975.78, 0.00009951089, 10.002457, 9.9985485 
1.875547e+3, 2.9113108e+2, 177501.56, -16410.39, 161878.53, 0.22500807, 0.035520162, 269238.78, 356160.34, 0.00040644757, 10.00189, 9.9993 
1.8756084e+3, 3.0113077e+2, -3618.9895, -331635.3, 11850.724, 0.27410078, 0.17783621, -3191.3987, -3191.3987, 0.00096497237, 10.001401, 9.997035 
1.8756613e+3, 3.111252e+2, 113108.71, -192814.45, -171748.36, -0.0742243, -0.00043559234, 190135.7, 190135.7, 0.0016668347, 10.001842, 9.997776 
1.8845026e+3, 1.21087104e+2, -2047519.0, -1741231.5, 52393.215, -0.2888745, 0.09721606, -1732517.1, 20839.299, 0.15411249, 9.997106, 10.001234 
1.8845655e+3, 1.3108823e+2, -2017775.5, -1839617.1, -5785.2705, -0.25286755, 0.2129852, -1839429.5, -184080.77, 0.10442951, 9.997363, 9.99974 
1.8846299e+3, 1.4108619e+2, -1851805.3, -1694420.1, 11283.97, 0.060482237, 0.065171756, -1693615.1, -136243.92, 0.057399224, 9.9977865, 9.999851 
1.8846914e+3, 1.5108703e+2, -1667351.8, -1510121.9, 48896.54, -0.027760718, 0.13926496, -1496156.1, -36793.848, 0.023018045, 9.998192, 10.000245 
1.8847525e+3, 1.6108766e+2, -1550894.1, -1442366.6, 11804.861, -0.13527769, 0.21983469, -1441097.4, -79742.734, 0.005521801, 9.998473, 9.9999075 
1.8848133e+3, 1.7108713e+2, -1434192.6, -1319132.1, 9019.35, -0.122426406, 0.17160268, -1318429.4, -55073.168, 0.0004532519, 9.998539, 10.000046 
1.8848741e+3, 1.8108602e+2, -1341605.1, -1278035.1, 5130.5806, -0.09256717, 0.10226225, -1277623.8, -112260.445, 0.0000010252129, 9.998729, 9.999564 
1.8849342e+3, 1.9108407e+2, -1101586.4, -1108646.5, -6262.9727, -0.080243796, -0.04264445, -1097927.1, -30548.176, 0.0, 9.999696, 9.999585 
1.8849948e+3, 2.0108232e+2, -918444.2, -1008976.75, 59243.125, -0.068649106, -0.13535382, -889153.2, 80241.12, 0.0, 10.000448, 9.999239 
1.8850574e+3, 2.1108243e+2, -853908.56, -917624.8, 85235.69, -0.061948474, -0.047206745, -794771.9, 76624.99, 0.0, 10.000187, 9.999315 
1.88512e+3, 2.2108257e+2, -815243.9, -895784.8, 6831.1895, -0.04001006, 0.08059748, -814668.6, -41269.24, 0.0, 9.99998, 9.998894 
1.8851808e+3, 2.3108302e+2, -638073.9, -750399.8, -28579.354, 0.029241543, 0.2368736, -631220.56, 44177.734, 0.0, 10.000486, 9.998971 
1.8852416e+3, 2.4108252e+2, -469225.3, -661396.1, 26460.486, 0.0794558, 0.33212748, -465648.5, 111756.53, 0.0, 10.001155, 9.998592 
1.8853027e+3, 2.5107902e+2, -209211.28, -478173.4, 30121.48, 0.024995595, 0.123985976, -205879.2, 273556.94, 0.0, 10.002243, 9.99865 
1.8853635e+3, 2.6107553e+2, -33667.55, -405491.34, -30281.898, -0.028287856, -0.038388643, -31217.488, 350249.72, 0.00000001758332, 10.003033, 9.998102 
1.8854229e+3, 2.7107418e+2, -23598.596, -346248.84, -34048.996, -0.04414854, 0.023451293, -20044.582, 263436.66, 0.0000068331174, 10.002422, 9.998124 
1.8854839e+3, 2.8107274e+2, 21326.064, -208710.08, 77203.2, 0.013912612, 0.07646673, 44834.133, 230330.53, 0.00009140763, 10.001772, 9.998713 
1.8855491e+3, 2.9107156e+2, 156992.7, -9201.383, 49867.527, 0.28353998, 0.04012656, 170807.42, 258314.45, 0.0003824645, 10.001675, 9.999454 
1.8856092e+3, 3.0107135e+2, 87649.96, -246165.03, -111577.88, 0.2268129, 0.16463728, 121510.33, 121510.33, 0.0009156102, 10.001841, 9.997418 
1.885663e+3, 3.1106734e+2, 234449.98, -139546.73, -41753.62, -0.110548176, 0.11425672, 239054.73, 239054.73, 0.0015828582, 10.002678, 9.997746 
1.8945017e+3, 1.2102398e+2, -1997320.4, -1673684.4, 19658.572, -0.098829664, 0.022098001, -1672494.6, 81480.73, 0.16258536, 9.99721, 10.001729 
1.8945633e+3, 1.3102658e+2, -1979117.6, -1753251.5, 12518.879, -0.18901038, 0.23065832, -1752559.8, -96607.56, 0.110513955, 9.997339, 10.000343 
1.8946283e+3, 1.4102533e+2, -1836543.6, -1656055.4, 28135.785, 0.13457826, 0.107629225, -1651771.1, -93805.07, 0.06108175, 9.997749, 10.000136 
1.89469e+3, 1.5102516e+2, -1670615.5, -1511486.6, 67921.46, 0.030456178, 0.073772624, -1486438.4, -26472.658, 0.024752133, 9.998162, 10.000254 
1.894751e+3, 1.6102499e+2, -1523774.9, -1387095.6, 15328.8, -0.09920287, 0.0640916, -1385397.5, -23432.703, 0.0060684755, 9.998474, 10.000288 
1.8948114e+3, 1.7102508e+2, -1390636.9, -1230176.4, 11992.154, -0.15939394, 0.021894908, -1229285.1, 34675.594, 0.0005270964, 9.998539, 10.000659 
1.8948719e+3, 1.8102497e+2, -1324086.6, -1243003.9, 29014.57, -0.18042544, 0.000048387534, -1233690.9, -67731.945, 0.0000013718216, 9.9987335, 9.999803 
1.894934e+3, 1.9102478e+2, -1105187.5, -1114554.8, 35670.656, -0.06129349, 0.028356776, -1073894.4, -5935.337, 0.0, 9.999687, 9.999549 
1.8949962e+3, 2.0102423e+2, -939002.75, -1054270.8, 63984.438, 0.042296495, 0.068007834, -910522.4, 59441.55, 0.0, 10.000453, 9.998928 
1.8950582e+3, 2.11023e+2, -888010.75, -987454.25, 73698.57, 0.018788805, 0.06774828, -848829.56, 23150.56, 0.0, 10.0001745, 9.998846 
1.89512e+3, 2.2102162e+2, -817213.56, -891917.94, 13327.033, -0.020314652, 0.07235338, -814907.25, -40909.82, 0.0, 9.999941, 9.99894 
1.8951802e+3, 2.3102082e+2, -617227.1, -704458.9, -3306.7336, -0.06667906, 0.07647839, -617101.94, 58902.887, 0.0, 10.00047, 9.999297 
1.8952407e+3, 2.4101958e+2, -488025.03, -693438.3, 57131.29, -0.1086725, 0.0793934, -473204.47, 104812.05, 0.0, 10.0011215, 9.998389 
1.8953033e+3, 2.5101686e+2, -260846.97, -565145.06, 77948.555, -0.119493105, -0.0022656866, -242041.9, 238001.73, 0.0, 10.002151, 9.9981 
1.8953659e+3, 2.6101458e+2, -25410.082, -353213.94, -28290.928, -0.08830914, -0.018290007, -22986.37, 359080.13, 0.0000000071100716, 10.002878, 9.998537 
1.8954268e+3, 2.710161e+2, 38459.625, -201615.53, -60447.77, 0.094174765, 0.23558287, 52820.535, 336874.66, 0.0000061749074, 10.00235, 9.999154 
1.8954879e+3, 2.810166e+2, -11756.47, -273457.28, 56701.832, 0.24618463, 0.42931423, 0.7214556, 186051.98, 0.000081688406, 10.00175, 9.99828 
1.8955494e+3, 2.9101175e+2, 53647.35, -218052.67, 58943.555, 0.16602753, 0.1366759, 65883.695, 153984.16, 0.00034978846, 10.001637, 9.998042 
1.8956071e+3, 3.0100846e+2, 208678.81, 18124.883, -93751.555, -0.17724434, -0.013771986, 247069.55, 247069.55, 0.00085449126, 10.001795, 9.999251 
1.8956666e+3, 3.110118e+2, 412699.97, 222056.8, 58015.945, -0.007782184, 0.34294367, 428967.16, 428967.16, 0.0014994281, 10.002729, 10.000206 
1.9044994e+3, 1.2096163e+2, -2185388.0, -1773729.9, 13145.764, 0.029129716, 0.038749907, -1773310.5, -18723.21, 0.1713416, 9.996032, 10.001503 
1.9045608e+3, 1.3096422e+2, -1954535.9, -1686665.8, 16532.98, -0.16141623, 0.21201572, -1685649.1, -29085.576, 0.11689223, 9.997281, 10.000823 
1.904626e+3, 1.4096381e+2, -1704542.8, -1562972.3, 9139.498, 0.12399769, 0.13167089, -1562384.6, -3816.9692, 0.06499328, 9.998527, 10.000399 
1.9046879e+3, 1.5096337e+2, -1638919.8, -1485602.3, 33176.65, 0.014040534, 0.057327848, -1478731.0, -18161.566, 0.026617203, 9.998324, 10.000357 
1.904749e+3, 1.6096295e+2, -1578379.5, -1398405.8, -5973.995, -0.10566069, 0.011589692, -1398207.8, -35636.89, 0.0066676727, 9.998033, 10.000422 
1.9048098e+3, 1.7096357e+2, -1371257.3, -1204043.8, -42366.543, -0.14821814, 0.008677563, -1193922.1, 70640.6, 0.0006122247, 9.9986, 10.000804 
1.904871e+3, 1.8096395e+2, -1255743.1, -1199911.3, -45973.508, -0.14606364, 0.02409405, -1174041.9, -7484.388, 0.0000017786746, 9.999163, 9.999891 
1.9049339e+3, 1.9096377e+2, -1133398.6, -1123173.0, -37290.867, -0.010732427, 0.0512419, -1090646.1, -22088.654, 0.0, 9.9994755, 9.999593 
1.9049966e+3, 2.0096318e+2, -1052748.4, -1114885.0, -14302.147, 0.101716496, 0.0855832, -1049614.5, -79051.44, 0.0, 9.99971, 9.998863 
1.9050583e+3, 2.1096186e+2, -934924.7, -1027238.4, 1604.8069, 0.04635641, 0.09198842, -934896.8, -62316.406, 0.0, 9.999934, 9.998684 
1.9051199e+3, 2.2096033e+2, -760181.94, -849577.44, -17169.951, -0.023751864, 0.09066266, -756997.56, 17601.494, 0.0, 10.000272, 9.99907 
1.9051804e+3, 2.3095912e+2, -496432.13, -608752.56, -25741.969, -0.10042233, 0.02512606, -490813.56, 185794.53, 0.0, 10.001143, 9.999627 
1.9052415e+3, 2.4095775e+2, -397032.5, -633507.6, 27046.285, -0.15153527, -0.010487291, -393978.56, 184640.56, 0.0, 10.001679, 9.998528 
1.9053048e+3, 2.5095606e+2, -482814.16, -667710.6, 64279.152, -0.086200826, 0.008123949, -462663.6, 17973.791, 0.0, 10.000612, 9.998129 
1.905368e+3, 2.6095444e+2, -475771.6, -585111.6, -7840.1875, 0.007876923, 0.05600814, -475212.28, -92556.5, 0.000000016068412, 9.999858, 9.998392 
1.9054283e+3, 2.7095464e+2, -151227.31, -322371.13, -117028.07, 0.09812312, 0.20421992, -91822.945, 192834.08, 0.0000058983674, 10.001172, 9.99889 
1.9054887e+3, 2.8095433e+2, 60589.117, -246108.38, -62379.848, 0.14240932, 0.33739975, 72791.22, 259454.11, 0.00007285699, 10.002278, 9.998212 
1.90555e+3, 2.909509e+2, 69358.805, -213198.39, -3962.5757, 0.07817467, 0.18723476, 69414.37, 158113.14, 0.0003141569, 10.001775, 9.997998 
1.905609e+3, 3.0094746e+2, 245458.83, 19792.553, -74798.62, -0.13562383, 0.036355473, 267999.8, 267999.8, 0.00078521925, 10.002114, 9.999113 
1.9056717e+3, 3.109488e+2, 842446.9, 421108.2, -56168.79, 0.09174394, 0.20271443, 849806.25, 849806.25, 0.0014132871, 10.005713, 10.000144 
1.9144948e+3, 1.20900296e+2, -2277892.5, -1950454.3, 15238.829, -0.031229803, 0.15767628, -1949746.5, -194556.66, 0.18042894, 9.995973, 10.000315 
1.9145575e+3, 1.3090116e+2, -1939744.1, -1653685.6, 80109.81, -0.20413925, 0.16204017, -1632779.0, 24403.53, 0.12358676, 9.997267, 10.001074 
1.9146232e+3, 1.4090164e+2, -1675240.1, -1525382.5, 22815.975, -0.015021254, 0.14671528, -1521985.8, 37190.375, 0.069141634, 9.998609, 10.000638 
1.9146846e+3, 1.5090165e+2, -1620294.0, -1449064.6, 19013.66, -0.11352212, 0.09115754, -1446978.8, 14194.901, 0.028615344, 9.998333, 10.000605 
1.9147462e+3, 1.609016e+2, -1583156.4, -1416383.8, 719.00415, -0.19877678, 0.07105115, -1416380.6, -53208.99, 0.0073205116, 9.998061, 10.000287 
1.9148088e+3, 1.7090267e+2, -1395360.6, -1261980.1, -15864.699, -0.113545425, 0.14429606, -1260119.0, 5042.68, 0.00070924795, 9.998628, 10.000396 
1.9148713e+3, 1.8090305e+2, -1257884.1, -1211787.8, -32891.324, -0.015326541, 0.19341218, -1194673.0, -27515.271, 0.0000023137907, 9.999191, 9.999798 
1.9149338e+3, 1.9090107e+2, -1125547.9, -1109004.8, -24882.037, 0.051949445, 0.033784308, -1091055.4, -21881.107, 0.0, 9.999481, 9.999691 
1.9149959e+3, 2.0089906e+2, -1043600.4, -1097993.0, -6830.331, 0.08127321, -0.08388825, -1042755.8, -71563.31, 0.0, 9.999712, 9.9989805 
1.9150577e+3, 2.1089897e+2, -928077.3, -1011902.2, 13228.121, -0.0021597557, 0.03155232, -926039.4, -52841.504, 0.0, 9.999925, 9.998795 
1.9151194e+3, 2.2089872e+2, -749860.1, -820314.06, 6804.3423, -0.07789237, 0.14268766, -749209.0, 25994.998, 0.0, 10.000234, 9.999291 
1.9151814e+3, 2.3089775e+2, -481794.78, -565062.75, 13449.221, -0.0977003, 0.0730707, -479676.4, 197532.98, 0.0, 10.001085, 9.999957 
1.9152437e+3, 2.4089673e+2, -377852.0, -575227.1, 11258.652, -0.09211717, 0.036266245, -377211.88, 202003.8, 0.0, 10.0015955, 9.998971 
1.9153069e+3, 2.5089636e+2, -452015.53, -599896.5, 17765.898, 0.073331796, 0.13836673, -449911.13, 31309.451, 0.0, 10.000592, 9.998607 
1.9153698e+3, 2.6089495e+2, -519119.53, -677598.25, 1604.0717, 0.2092351, 0.1929131, -519103.3, -135866.42, 0.000000038925435, 9.999869, 9.997752 
1.915428e+3, 2.7089024e+2, -246026.97, -519060.66, -55482.164, -0.030000519, -0.027494742, -235183.31, 50103.3, 0.000005404383, 10.001171, 9.99754 
1.9154866e+3, 2.808868e+2, 73577.0, -219325.77, -54840.38, -0.2809874, -0.12265748, 83508.08, 270831.3, 0.00006308154, 10.002276, 9.998398 
1.9155507e+3, 2.9088882e+2, 143133.19, -82569.1, -21003.262, -0.029693939, 0.18723732, 145071.06, 234376.06, 0.0002740922, 10.001859, 9.998864 
1.9156149e+3, 3.0088767e+2, 130998.26, -222908.58, 2253.2283, 0.22965829, 0.27185076, 131012.6, 131012.6, 0.0007026541, 10.002141, 9.997427 
1.915676e+3, 3.108821e+2, 650555.7, 135465.5, 162216.9, -0.03719509, 0.0030827743, 697385.06, 697385.06, 0.0013040918, 10.005228, 9.99841 
1.9244921e+3, 1.2083736e+2, -1942491.5, -1888088.4, -87831.23, 0.009100822, 0.24684115, -1823343.0, -67534.01, 0.18987963, 9.998692, 9.999442 
1.9245556e+3, 1.3083684e+2, -1789882.1, -1556642.6, 7528.598, -0.1463052, 0.107544914, -1556399.9, 101415.016, 0.13060497, 9.998121, 10.001422 
1.9246207e+3, 1.408382e+2, -1789779.6, -1540178.3, -50416.016, -0.059223138, 0.14602779, -1530379.5, 29418.863, 0.07352615, 9.997664, 10.000983 
1.9246826e+3, 1.508388e+2, -1657339.1, -1436186.4, -71638.97, -0.13090947, 0.123052105, -1415008.1, 46781.867, 0.030745408, 9.997946, 10.000884 
1.9247442e+3, 1.608391e+2, -1565272.3, -1409146.4, -72612.984, -0.17188032, 0.11609479, -1380595.8, -16810.314, 0.008026891, 9.998209, 10.0002575 
1.9248073e+3, 1.7083949e+2, -1457480.0, -1317164.9, -77601.555, -0.08179632, 0.14623213, -1282708.5, -16926.402, 0.0008187495, 9.998331, 10.000154 
1.9248703e+3, 1.8083937e+2, -1346225.3, -1240170.8, -73102.13, 0.00780219, 0.15884699, -1202888.5, -35105.035, 0.0000031359323, 9.998528, 9.999923 
1.9249326e+3, 1.9083813e+2, -1109405.9, -1055439.4, -43686.59, 0.0026001907, 0.03970882, -1031074.6, 38718.277, 0.0, 9.999397, 10.000094 
1.9249947e+3, 2.0083685e+2, -953824.3, -1023185.06, -11009.324, -0.020350449, -0.041693598, -952118.8, 19684.928, 0.0, 10.000197, 9.999259 
1.9250573e+3, 2.1083659e+2, -841368.0, -950690.2, 2076.1775, -0.04837751, 0.03780811, -841328.56, 32480.82, 0.0, 10.0004425, 9.998961 
1.9251198e+3, 2.2083618e+2, -718305.8, -808624.56, -5952.0103, -0.055882044, 0.124577165, -717915.25, 57900.547, 0.0, 10.000469, 9.999257 
1.9251822e+3, 2.3083559e+2, -665100.44, -674796.9, -38949.246, -0.056530572, 0.10808869, -630698.9, 47120.344, 0.0, 9.999913, 9.999772 
1.9252443e+3, 2.4083471e+2, -675963.0, -719122.44, -73846.93, -0.048178498, 0.10110129, -620607.3, -40781.957, 0.0, 9.999555, 9.998965 
1.9253075e+3, 2.5083357e+2, -464167.72, -596470.4, -103282.43, 0.09986606, 0.11981346, -407668.1, 74169.04, 0.0, 10.00047, 9.998692 
1.9253705e+3, 2.608316e+2, -285525.25, -567035.6, -93679.13, 0.24430984, 0.11677212, -257201.16, 126656.9, 0.000000047147957, 10.00148, 9.997739 
1.9254301e+3, 2.7082783e+2, -91579.41, -442778.78, -61258.03, 0.022183135, -0.0054581272, -81201.15, 204697.66, 0.000004361137, 10.0022335, 9.997549 
1.925489e+3, 2.8082508e+2, 154592.81, -167733.81, -27010.338, -0.26975754, -0.040956438, 156840.55, 344769.78, 0.000051495666, 10.002789, 9.998505 
1.925552e+3, 2.9082638e+2, 332926.0, 16290.596, -60428.457, -0.12783265, 0.18896633, 344066.53, 433983.3, 0.00023024327, 10.003139, 9.998923 
1.9256178e+3, 3.008247e+2, 300054.8, -184497.28, -14824.926, 0.26151615, 0.24151355, 300507.97, 300507.97, 0.00060977024, 10.003475, 9.997054 
1.9256796e+3, 3.108201e+2, 81476.18, -142941.52, 232437.56, 0.03591534, 0.103705816, 227372.05, 227372.05, 0.0011666642, 10.00132, 9.998382 
1.9344918e+3, 1.2077261e+2, -1944590.9, -1938799.5, -130585.22, 0.08898314, 0.3089394, -1811077.9, -54630.977, 0.1997211, 9.99889, 9.998997 
1.9345549e+3, 1.3077113e+2, -1752180.4, -1493933.4, -15373.425, -0.009216385, 0.04465923, -1493021.4, 165440.34, 0.13795441, 9.998144, 10.001916 
1.9346184e+3, 1.4077345e+2, -1765622.4, -1492976.8, -53820.88, -0.0416923, 0.13322134, -1482736.9, 77698.06, 0.07814733, 9.997653, 10.001345 
1.9346811e+3, 1.5077484e+2, -1639387.4, -1399091.5, -54974.797, -0.05080449, 0.16134642, -1387111.6, 75307.39, 0.033007, 9.99794, 10.001151 
1.9347437e+3, 1.6077547e+2, -1551412.0, -1395693.5, -68650.32, -0.048349842, 0.16668421, -1369750.4, -5339.232, 0.008786739, 9.998266, 10.000326 
1.9348055e+3, 1.707739e+2, -1460673.4, -1331834.6, -73714.76, -0.07376164, 0.0067450935, -1298357.5, -31932.115, 0.00094156526, 9.998357, 10.000045 
1.9348675e+3, 1.807726e+2, -1319244.1, -1186667.9, -52984.53, -0.11334752, -0.0998168, -1168094.5, 342.51807, 0.0000044945964, 9.998536, 10.000286 
1.93493e+3, 1.9077487e+2, -1060079.5, -952033.25, -4580.683, -0.18934576, 0.06541959, -951839.4, 118574.7, 0.0, 9.999392, 10.000807 
1.9349927e+3, 2.0077653e+2, -925546.44, -964781.94, 6409.1816, -0.23766588, 0.21660095, -924526.0, 47871.13, 0.0, 10.000195, 9.999662 
1.9350567e+3, 2.1077466e+2, -832727.0, -928431.25, 12204.715, -0.115694456, 0.11305841, -831195.06, 43220.47, 0.0, 10.000419, 9.999128 
1.9351208e+3, 2.2077262e+2, -748710.5, -861031.56, -18340.13, 0.0099035, 0.034896906, -745791.75, 30644.127, 0.0, 10.000418, 9.998923 
1.9351825e+3, 2.307726e+2, -717047.75, -776283.9, -59111.594, -0.0030731033, 0.13370384, -680549.2, -2111.2441, 0.0, 9.999885, 9.999087 
1.9352439e+3, 2.4077182e+2, -707019.1, -784130.1, -62828.605, -0.047955435, 0.19653037, -671859.25, -91412.26, 0.0, 9.999553, 9.998522 
1.9353068e+3, 2.5076792e+2, -484999.22, -638125.0, -59686.758, -0.010087085, -0.031082727, -464482.84, 18001.732, 0.0, 10.000462, 9.99841 
1.9353704e+3, 2.6076472e+2, -256392.22, -498990.22, -61461.227, 0.1041405, -0.14909229, -241709.86, 142806.02, 0.00000001782158, 10.001445, 9.998223 
1.9354339e+3, 2.7076685e+2, -25199.719, -293783.22, -32490.682, 0.1912984, 0.22446436, -21325.197, 265173.78, 0.0000032380601, 10.002181, 9.9986 
1.9354951e+3, 2.80768e+2, 146347.86, -165246.34, -20512.79, 0.0650378, 0.50329196, 147692.44, 336183.8, 0.000041892385, 10.002705, 9.998561 
1.935554e+3, 2.9076344e+2, 277904.8, -75706.78, -39839.29, -0.24331373, 0.19250476, 282337.72, 372872.75, 0.00019371208, 10.003036, 9.998343 
1.9356185e+3, 3.0075926e+2, 323245.3, -107929.3, -45077.09, -0.00386252, 0.019350544, 327907.47, 327907.47, 0.00052765995, 10.003355, 9.99764 
1.9356814e+3, 3.107598e+2, 192330.19, 55072.664, 37265.492, 0.099169314, 0.27327898, 201795.11, 201795.11, 0.0010305103, 10.00148, 9.999656 
1.9444904e+3, 1.2070789e+2, -2198982.3, -2053071.8, -72665.06, 0.16120353, 0.3060743, -2023057.6, -265974.84, 0.20999403, 9.997103, 9.999071 
1.9445531e+3, 1.3070674e+2, -1929659.5, -1551571.0, 3381.8274, 0.08387665, 0.05648434, -1551540.8, 107553.766, 0.14565058, 9.996835, 10.002091 
1.9446157e+3, 1.4070958e+2, -1917802.8, -1559912.0, -25938.994, 0.0028471246, 0.18343759, -1558041.8, 3020.9146, 0.083007626, 9.996605, 10.0013485 
1.944679e+3, 1.5071054e+2, -1720123.8, -1444540.3, -42146.406, -0.0070538474, 0.17389281, -1438238.6, 24812.512, 0.03539992, 9.997418, 10.001079 
1.9447422e+3, 1.6071078e+2, -1537920.5, -1353439.6, -69973.16, -0.0038129392, 0.13627957, -1329902.1, 35144.758, 0.009600047, 9.998205, 10.000648 
1.944804e+3, 1.7071001e+2, -1342519.0, -1206566.1, -37497.313, -0.06465099, 0.0018123105, -1196909.8, 70142.18, 0.0010784023, 9.99887, 10.000658 
1.944866e+3, 1.8070945e+2, -1193011.3, -1133417.9, 23255.521, -0.12410508, -0.07391863, -1125416.9, 43638.555, 0.0000066792873, 9.999443, 10.000208 
1.9449295e+3, 1.9071129e+2, -1031590.9, -1006861.5, -14149.72, -0.15993577, 0.09963808, -1000435.25, 70604.04, 0.0, 9.999894, 10.000184 
1.9449933e+3, 2.0071249e+2, -930517.9, -957923.94, -102053.13, -0.16354382, 0.24854042, -841251.9, 131776.98, 0.0, 10.000124, 9.999742 
1.9450572e+3, 2.1071082e+2, -925692.06, -906703.75, -99360.82, -0.042586192, 0.119698614, -816384.56, 58658.418, 0.0, 9.999497, 9.999721 
1.9451208e+3, 2.2070907e+2, -943366.9, -945242.3, -80914.46, 0.06840202, 0.025564605, -863384.7, -86326.03, 0.0, 9.999048, 9.9990015 
1.9451824e+3, 2.307089e+2, -714307.44, -807502.44, -89076.55, 0.012098656, 0.13294636, -660376.56, 18687.227, 0.0, 10.0000515, 9.99879 
1.9452438e+3, 2.40708e+2, -505258.5, -704323.75, -57474.727, -0.06875288, 0.2105102, -489855.97, 91219.78, 0.0, 10.0010195, 9.998361 
1.9453067e+3, 2.507044e+2, -389958.75, -600451.8, -40801.543, -0.073533215, 0.026998987, -382326.6, 100783.82, 0.0, 10.001145, 9.998338 
1.9453707e+3, 2.607015e+2, -268052.78, -480080.47, -29389.83, 0.009345306, -0.06525932, -264054.38, 121084.27, 0.000000002142629, 10.001262, 9.998439 
1.9454353e+3, 2.7070296e+2, -65514.418, -274468.4, -47153.758, 0.15112247, 0.20762764, -55366.29, 231759.22, 0.0000029349435, 10.001735, 9.998949 
1.9454975e+3, 2.807033e+2, 47577.992, -211646.9, -80831.055, 0.09920443, 0.38394427, 70717.125, 259840.6, 0.00003707627, 10.002015, 9.998576 
1.9455563e+3, 2.9069966e+2, 80318.77, -161980.64, -89160.15, -0.2143914, 0.17457217, 109591.086, 200749.42, 0.00017166346, 10.00165, 9.998411 
1.9456206e+3, 3.0069664e+2, 142360.81, -192470.77, -34577.18, -0.037872415, 0.10451975, 145894.22, 145894.22, 0.0004667538, 10.002094, 9.997666 
1.9456837e+3, 3.1069493e+2, 684999.0, 258692.63, -132191.4, 0.0073878025, 0.15452448, 722662.2, 722662.2, 0.0009083676, 10.005011, 9.999355 
1.9544871e+3, 1.206435e+2, -2154717.5, -1949535.0, -57305.402, 0.13591102, 0.23939678, -1934615.0, -176901.28, 0.22070916, 9.997043, 9.999812 
1.9545498e+3, 1.3064407e+2, -1951900.1, -1585647.4, -8664.02, 0.096667506, 0.16678832, -1585442.5, 74266.5, 0.15369554, 9.9967985, 10.001844 
1.9546127e+3, 1.406469e+2, -1940912.3, -1612670.5, -13916.818, 0.039455198, 0.3219517, -1612081.5, -50402.977, 0.08810495, 9.99662, 10.000979 
1.954676e+3, 1.5064585e+2, -1756110.1, -1514612.3, -4946.9365, -0.030636834, 0.15529609, -1514510.9, -50824.066, 0.037922986, 9.997402, 10.0006 
1.9547395e+3, 1.6064493e+2, -1492866.0, -1268484.1, -43817.684, -0.086367965, 0.01861626, -1260230.9, 105462.78, 0.010466628, 9.998236, 10.001222 
1.9548027e+3, 1.7064789e+2, -1242225.9, -1007574.5, -10353.185, -0.08071287, 0.13854642, -1007118.56, 260542.39, 0.0012294218, 9.998902, 10.002011 
1.9548662e+3, 1.8065012e+2, -1225880.9, -1210137.5, 42700.938, -0.051057164, 0.25835717, -1174588.8, -4951.9683, 0.000009908067, 9.999479, 9.999664 
1.9549318e+3, 1.9064747e+2, -1171792.3, -1302609.3, 5658.5938, 0.071434066, 0.15175779, -1171547.9, -99879.91, 0.0, 9.99991, 9.998147 
1.9549967e+3, 2.0064461e+2, -957914.6, -1010495.8, -112299.39, 0.17652257, 0.05092197, -868869.44, 104830.84, 0.0, 10.000105, 9.999391 
1.9550586e+3, 2.1064502e+2, -860516.56, -765309.56, -123865.68, 0.14936578, 0.05958085, -680214.94, 195477.47, 0.0, 9.999471, 10.000705 
1.95512e+3, 2.2064537e+2, -914049.8, -879463.75, -68429.87, 0.09192478, 0.09229482, -826175.6, -48490.336, 0.0, 9.999023, 9.999467 
1.9551818e+3, 2.3064438e+2, -716772.75, -804002.56, -40480.957, -0.030714788, 0.10603058, -700881.6, -21184.055, 0.0, 10.000016, 9.998831 
1.955244e+3, 2.4064314e+2, -508032.0, -697142.25, -39093.13, -0.14213201, 0.14375499, -500269.28, 81443.46, 0.0, 10.000964, 9.998435 
1.9553073e+3, 2.5064272e+2, -390095.0, -590548.4, -35834.063, -0.11709273, 0.2657573, -383881.72, 99836.96, 0.0, 10.001102, 9.998427 
1.955371e+3, 2.6064157e+2, -277312.16, -487157.4, -20049.494, -0.071113035, 0.33989432, -275413.72, 110316.91, 0.00000003752054, 10.001206, 9.998419 
1.9554344e+3, 2.706366e+2, -87244.07, -314106.84, -24458.383, -0.09433844, -0.014890681, -84637.13, 203138.02, 0.00000331544, 10.001705, 9.998694 
1.955497e+3, 2.8063214e+2, 33413.633, -228764.36, -89075.266, -0.14889291, -0.28634274, 60813.527, 250628.25, 0.00003537652, 10.0019655, 9.998481 
1.9555591e+3, 2.9063508e+2, 110861.74, -101564.43, -102504.63, -0.08593993, 0.14394468, 152257.66, 244044.94, 0.00015855723, 10.0016575, 9.998827 
1.9556235e+3, 3.00636e+2, 123666.16, -236472.77, 26719.158, 0.054746762, 0.42451182, 125637.69, 125637.69, 0.00041665725, 10.002112, 9.997356 
1.9556873e+3, 3.106259e+2, 547210.9, 6864.433, -90649.89, -0.12712543, -0.24496466, 562013.06, 562013.06, 0.0007860337, 10.004884, 9.997672 
1.9644845e+3, 1.2057907e+2, -1988859.4, -1798631.5, -15665.959, 0.14506896, 0.17612036, -1797350.0, -39005.96, 0.23177752, 9.997895, 10.000429 
1.9645467e+3, 1.3058057e+2, -1703575.6, -1492136.4, -5923.447, 0.049965546, 0.18992618, -1491970.5, 168359.25, 0.1620495, 9.998545, 10.001773 
1.9646099e+3, 1.405831e+2, -1634953.5, -1492583.5, 18564.727, 0.032696776, 0.3237533, -1490202.5, 72100.664, 0.093428105, 9.998827, 10.000779 
1.9646738e+3, 1.5058151e+2, -1542228.0, -1450512.8, 39343.34, -0.05298992, 0.13419306, -1435948.4, 28369.162, 0.04057487, 9.999043, 10.000249 
1.9647376e+3, 1.6058019e+2, -1371704.8, -1245028.3, -8823.23, -0.11731258, -0.008162159, -1244416.6, 121912.46, 0.011385711, 9.999222, 10.000908 
1.9648017e+3, 1.7058359e+2, -1172944.1, -999179.56, -94233.87, -0.06673058, 0.18343791, -957887.94, 310406.0, 0.0013940044, 9.999503, 10.001774 
1.9648662e+3, 1.8058616e+2, -1193810.5, -1196843.5, -125730.74, 0.008379998, 0.3562861, -1069587.1, 100680.87, 0.000014255441, 9.999705, 9.999651 
1.9649316e+3, 1.9058318e+2, -1204578.5, -1301669.1, -36080.855, 0.11573617, 0.20996255, -1192638.5, -120336.945, 0.0, 9.99961, 9.998302 
1.9649966e+3, 2.0058012e+2, -1030977.3, -1042735.4, -21634.697, 0.19535708, 0.07568209, -1014437.1, -40101.984, 0.0, 9.999587, 9.999422 
1.9650578e+3, 2.1058072e+2, -755937.44, -723000.5, -97613.55, 0.12012978, 0.10826211, -640475.94, 235850.45, 0.0, 10.000223, 10.000633 
1.9651191e+3, 2.2058125e+2, -650122.94, -742897.9, -93030.95, 0.030761568, 0.16030899, -592555.8, 185762.61, 0.0, 10.000799, 9.99955 
1.9651818e+3, 2.3058e+2, -589632.0, -728242.7, -63088.89, -0.041047685, 0.1370569, -565217.3, 115114.266, 0.0, 10.000817, 9.99897 
1.9652452e+3, 2.4057858e+2, -537191.9, -706725.75, -64003.234, -0.079832084, 0.14497674, -515742.78, 66604.51, 0.0, 10.000734, 9.998486 
1.9653086e+3, 2.5057852e+2, -462603.22, -624328.75, -82744.59, -0.047608487, 0.3034587, -427770.47, 56580.19, 0.0, 10.000605, 9.998434 
1.9653718e+3, 2.6057765e+2, -376103.44, -542316.06, -57539.85, -0.053994782, 0.40776244, -358128.16, 28232.666, 0.00000006167767, 10.0005665, 9.998346 
1.9654347e+3, 2.7057275e+2, -212167.8, -391126.5, -57204.465, -0.17636994, 0.07677466, -195444.97, 92959.6, 0.000003603985, 10.00093, 9.998531 
1.965498e+3, 2.8056824e+2, -52041.31, -310168.94, -115014.77, -0.19620524, -0.17732698, -8229.833, 182214.73, 0.0000340466, 10.001554, 9.998119 
1.9655626e+3, 2.9056963e+2, 234755.9, -80329.56, -173415.2, 0.06920339, 0.14578481, 311504.75, 403935.03, 0.00014734037, 10.002679, 9.998482 
1.9656263e+3, 3.0056933e+2, 295074.53, -168130.0, -56019.332, 0.076581344, 0.32326594, 301753.13, 301753.13, 0.00037193403, 10.003346, 9.997239 
1.9656909e+3, 3.1056088e+2, 330539.25, -125464.016, -101063.71, -0.1727697, -0.15628713, 351934.13, 351934.13, 0.00067169673, 10.003493, 9.997446 
1.9744822e+3, 1.2051484e+2, -1935812.0, -1728257.1, 29077.834, 0.1266749, 0.1292364, -1724260.4, 34710.76, 0.24301729, 9.998008, 10.000938 
1.9745438e+3, 1.305162e+2, -1682960.1, -1474667.4, 8845.236, -0.09529433, 0.10951695, -1474292.4, 186664.84, 0.17062773, 9.998624, 10.001898 
1.9746079e+3, 1.405181e+2, -1622098.1, -1495716.9, 27192.615, -0.06602606, 0.17105085, -1490114.4, 72822.73, 0.09895461, 9.998945, 10.000709 
1.9746722e+3, 1.5051758e+2, -1548528.6, -1486545.8, 50727.875, -0.10522393, 0.112480596, -1458091.5, 6850.8916, 0.04335473, 9.999134, 9.999958 
1.9747368e+3, 1.6051677e+2, -1448023.8, -1419277.0, -2733.6821, -0.12879753, 0.077334285, -1419019.4, -52068.086, 0.012356995, 9.999292, 9.99967 
1.9748014e+3, 1.7051697e+2, -1307763.6, -1289892.0, -82775.836, -0.043223392, 0.13157713, -1215571.1, 53381.42, 0.0015709848, 9.999546, 9.999759 
1.974866e+3, 1.805172e+2, -1159254.8, -1129183.8, -128928.0, 0.024018517, 0.20406866, -1014417.5, 156535.45, 0.000019593592, 9.999723, 10.000107 
1.9749294e+3, 1.9051829e+2, -1035943.56, -949885.94, -37916.754, -0.05944249, 0.26796684, -935563.56, 137377.94, 0.0, 9.999606, 10.000716 
1.9749926e+3, 2.00519e+2, -1001934.56, -979379.7, -9174.053, -0.14449644, 0.32183614, -976119.5, -1185.565, 0.0, 9.999573, 9.999864 
1.9750553e+3, 2.1051799e+2, -841968.1, -894791.8, -66153.64, -0.15203291, 0.27414095, -797148.75, 79795.94, 0.0, 10.000193, 9.999469 
1.975118e+3, 2.2051667e+2, -684223.1, -805123.4, -82858.35, -0.14403579, 0.23578674, -642107.56, 136850.83, 0.0, 10.000756, 9.999143 
1.9751824e+3, 2.3051563e+2, -579095.0, -701250.9, -61464.652, -0.043779716, 0.22369292, -553521.8, 127445.42, 0.0, 10.000792, 9.999168 
1.9752473e+3, 2.405142e+2, -539695.9, -705854.0, -69481.695, 0.07799953, 0.21778785, -514470.6, 68509.484, 0.0, 10.000705, 9.998507 
1.9753104e+3, 2.5051197e+2, -467051.8, -642036.75, -85120.805, 0.095987126, 0.16792645, -432476.75, 52528.06, 0.0, 10.000637, 9.998299 
1.9753729e+3, 2.6051003e+2, -375820.97, -557037.0, -53774.785, 0.014180723, 0.17742066, -361065.16, 25961.428, 0.000000055759365, 10.000632, 9.998213 
1.9754358e+3, 2.7051073e+2, -216080.28, -410391.94, -35633.945, -0.14568497, 0.42214406, -209751.64, 79268.27, 0.0000036492006, 10.000977, 9.998378 
1.9755004e+3, 2.805102e+2, -92211.47, -393940.22, -81004.31, -0.1082027, 0.5890771, -71839.87, 119184.67, 0.00003269789, 10.001552, 9.997546 
1.9755666e+3, 2.9050335e+2, 180369.06, -214551.83, -124245.68, 0.20987035, 0.17431197, 216205.89, 309292.06, 0.00013817217, 10.00276, 9.997525 
1.9756287e+3, 3.0049774e+2, 281608.72, -196032.17, -59046.71, -0.0047785514, -0.10527224, 288799.9, 288799.9, 0.0003392859, 10.003362, 9.997035 
1.9756962e+3, 3.1049842e+2, 352587.7, -11565.573, 32873.652, 0.023952689, 0.2929027, 355531.53, 355531.53, 0.0005905419, 10.0032015, 9.998371 
1.9844794e+3, 1.2045067e+2, -1980340.9, -1762063.5, 29341.598, 0.081190795, 0.12796623, -1758188.1, 1411.2266, 0.25424254, 9.997816, 10.000724 
1.9845414e+3, 1.3045178e+2, -1819843.1, -1524453.9, -30990.766, -0.13190949, 0.08282696, -1521237.5, 140351.66, 0.17932345, 9.997652, 10.001968 
1.984607e+3, 1.4045386e+2, -1797597.5, -1568089.3, 13.164904, 0.026746863, 0.15921222, -1568089.3, -4521.356, 0.104643695, 9.99772, 10.000751 
1.9846718e+3, 1.5045403e+2, -1556569.8, -1480127.9, 49893.215, -0.037923403, 0.16302991, -1455498.4, 10068.278, 0.046255346, 9.999052, 10.000034 
1.9847365e+3, 1.6045356e+2, -1341684.4, -1415712.8, 19366.863, -0.10379297, 0.16627544, -1336923.9, 30648.605, 0.013380272, 10.000238, 9.999234 
1.984801e+3, 1.7045228e+2, -1305647.3, -1384001.1, 1316.4386, -0.038480308, 0.15189846, -1305625.3, -36036.035, 0.0017591557, 9.999971, 9.998906 
1.9848652e+3, 1.804513e+2, -1179922.4, -1137814.0, 20107.229, 0.014412468, 0.16224353, -1129755.0, 41847.117, 0.0000256483, 9.999575, 10.000117 
1.9849285e+3, 1.9045301e+2, -947499.5, -828097.8, 4821.433, -0.093004085, 0.22698325, -827903.44, 245678.56, 0.0, 9.999868, 10.001427 
1.9849919e+3, 2.0045435e+2, -920828.25, -951155.9, -62604.254, -0.18710454, 0.29735786, -871577.5, 103988.29, 0.0, 10.000184, 9.999757 
1.9850552e+3, 2.1045326e+2, -872442.25, -998290.75, -109477.06, -0.1655495, 0.30532035, -809094.2, 68486.52, 0.0, 10.00037, 9.998668 
1.9851187e+3, 2.2045177e+2, -733380.25, -847280.9, -105481.04, -0.12418901, 0.31374183, -670457.4, 109141.9, 0.0, 10.000504, 9.998973 
1.9851834e+3, 2.3045073e+2, -590475.06, -659754.9, -81272.73, -0.009649635, 0.27728593, -536768.06, 144838.3, 0.0, 10.000528, 9.999569 
1.9852482e+3, 2.4044932e+2, -533856.8, -701269.06, -61551.848, 0.11335147, 0.24098139, -513662.28, 69954.94, 0.0, 10.000757, 9.998505 
1.9853114e+3, 2.5044653e+2, -279531.75, -594943.4, -83299.234, 0.06871433, 0.16675526, -258884.28, 226763.33, 0.0, 10.002119, 9.997907 
1.9853741e+3, 2.604441e+2, 9905.101, -368154.84, -79408.32, -0.049557686, 0.15467072, 25906.861, 413581.34, 0.00000004684117, 10.003265, 9.998244 
1.9854379e+3, 2.7044526e+2, 46250.996, -242177.42, -56952.875, -0.09490609, 0.4151404, 57089.58, 346751.9, 0.000003631824, 10.002602, 9.99875 
1.9855034e+3, 2.8044498e+2, -20462.207, -416520.72, -28036.807, 0.023145938, 0.60030484, -18487.342, 173175.83, 0.00003088302, 10.002293, 9.997034 
1.9855691e+3, 2.9043707e+2, 265201.75, -317558.5, -71379.27, 0.13338424, 0.18594664, 273817.25, 367555.3, 0.00012805517, 10.003971, 9.996231 
1.9856301e+3, 3.0043074e+2, 426284.44, -160282.83, -121686.09, -0.23545937, -0.0584303, 450526.84, 450526.84, 0.00031165374, 10.00451, 9.996721 
1.9856988e+3, 3.1043294e+2, 18507.16, -135683.3, -6757.9263, 0.14112104, 0.469247, 18802.783, 18802.783, 0.0005365878, 10.000726, 9.998718 
1.9944757e+3, 1.20386794e+2, -2059513.8, -1937427.9, -1486.1876, -0.07653492, 0.1897694, -1937409.8, -177183.17, 0.26535824, 9.997855, 9.999501 
1.9945395e+3, 1.3038744e+2, -1829676.1, -1537990.5, -35530.76, -0.07234229, 0.12917122, -1533724.9, 128500.13, 0.18805622, 9.9976225, 10.001886 
1.9946073e+3, 1.4039063e+2, -1784419.6, -1544554.1, 22856.373, 0.30679697, 0.32221285, -1542395.6, 21798.754, 0.11045076, 9.997719, 10.000934 
1.9946724e+3, 1.5039085e+2, -1525837.0, -1418061.1, 107335.4, 0.13940762, 0.29315308, -1351845.8, 114344.87, 0.04926506, 9.999055, 10.000487 
1.994737e+3, 1.6039042e+2, -1306520.9, -1349755.0, 34793.516, -0.06954406, 0.25368875, -1287175.9, 81017.695, 0.014456319, 10.000274, 9.999672 
1.9948004e+3, 1.7038962e+2, -1275575.6, -1328670.3, -14107.503, -0.07743174, 0.2461346, -1272060.0, -1856.8389, 0.0019582892, 9.999998, 9.999274 
1.994864e+3, 1.8038855e+2, -1203796.0, -1194324.1, 19301.697, -0.053802747, 0.23105167, -1179185.9, -6971.031, 0.000032105352, 9.999603, 9.999717 
1.9949292e+3, 1.903873e+2, -1020562.56, -978355.5, 21891.86, -0.0049547805, 0.091941096, -969051.56, 105171.305, 0.0, 9.999866, 10.000397 
1.9949943e+3, 2.003861e+2, -971190.56, -1053900.5, -53741.965, 0.04400457, 0.0027810463, -944733.8, 31497.787, 0.0, 10.000173, 9.999059 
1.9950576e+3, 2.103864e+2, -908169.06, -1067030.4, -99135.84, 0.057132706, 0.19905984, -860567.7, 17668.479, 0.0, 10.000345, 9.998211 
1.9951208e+3, 2.2038645e+2, -729493.06, -835153.1, -101084.664, 0.054914728, 0.39401814, -668265.56, 111976.79, 0.0, 10.0004835, 9.999067 
1.9951843e+3, 2.303853e+2, -553249.56, -580571.44, -74561.98, 0.035726167, 0.30026954, -491107.44, 191142.03, 0.0, 10.000515, 10.000121 
1.9952478e+3, 2.4038379e+2, -548371.75, -720228.25, -31844.047, 0.0035174233, 0.21583426, -542661.0, 41598.977, 0.0, 10.00071, 9.998397 
1.9953112e+3, 2.5038186e+2, -329849.5, -693589.94, -20838.346, -0.13218223, 0.28130886, -328659.6, 157622.6, 0.0, 10.002095, 9.997239 
1.9953753e+3, 2.6037952e+2, 12249.927, -355421.7, -71386.445, -0.25112382, 0.32319707, 25623.725, 413931.44, 0.000000042002604, 10.003229, 9.99835 
1.9954407e+3, 2.7037665e+2, 98102.76, -133755.16, -87971.84, -0.053628948, 0.11941029, 127702.38, 418031.3, 0.0000035134383, 10.002592, 9.999501 
1.9955069e+3, 2.8037357e+2, -65190.035, -496644.2, -6167.608, 0.15312052, -0.018178914, -65101.89, 127251.33, 0.00002820436, 10.00224, 9.996509 
1.99557e+3, 2.9037037e+2, 138945.48, -563815.9, 5930.786, -0.15229791, 0.17208248, 138995.53, 233385.9, 0.00011358282, 10.0039, 9.9945755 
1.995631e+3, 3.0036715e+2, 367387.66, -250059.7, -190622.67, -0.581108, 0.37119466, 421496.3, 421496.3, 0.00027720892, 10.004379, 9.996161 
1.9956987e+3, 3.1036544e+2, 16662.469, -192354.78, -63457.523, 0.059286725, 0.48925173, 34419.58, 34419.58, 0.00048464816, 10.000953, 9.998216 
2.0044737e+3, 1.20322764e+2, -2038515.6, -1984713.9, -24049.443, -0.071441166, 0.24363583, -1975531.1, -214675.88, 0.27641812, 9.998246, 9.99899 
2.0045374e+3, 1.3032241e+2, -1636176.4, -1466969.0, -14078.96, -0.08253818, 0.1028473, -1465805.6, 197059.36, 0.1968332, 9.999029, 10.001818 
2.0046058e+3, 1.40327e+2, -1486966.6, -1416518.9, 38688.95, 0.30618417, 0.4394634, -1399421.1, 165400.5, 0.11636926, 9.999853, 10.000895 
2.0046715e+3, 1.5032652e+2, -1498599.1, -1415808.3, 85364.27, 0.14861049, 0.3459731, -1362332.0, 104492.09, 0.05238356, 9.999279, 10.000401 
2.0047365e+3, 1.603253e+2, -1531135.4, -1447130.0, -23646.35, -0.04519314, 0.23434591, -1440931.3, -72097.5, 0.015589432, 9.998672, 9.999778 
2.0048003e+3, 1.7032516e+2, -1345530.3, -1331435.8, -93505.01, -0.04211851, 0.27051178, -1244712.9, 26123.693, 0.0021699998, 9.999387, 9.999549 
2.004864e+3, 1.8032472e+2, -1144692.3, -1183219.6, -62135.023, 0.0006072629, 0.30322123, -1098903.3, 73938.836, 0.00003871999, 10.000091, 9.999556 
2.0049295e+3, 1.9032283e+2, -1060132.1, -1059243.9, -36440.793, 0.06542747, 0.14631489, -1023244.56, 51612.566, 0.0, 9.999861, 9.999843 
2.0049946e+3, 2.0032096e+2, -1047733.8, -1094270.9, -51747.18, 0.12086358, 0.028681142, -1014264.4, -37391.64, 0.0, 9.999666, 9.999025 
2.0050585e+3, 2.1032104e+2, -823745.6, -981188.25, -30214.389, 0.10321117, 0.17681488, -818146.44, 60730.105, 0.0, 10.0007305, 9.998613 
2.005122e+3, 2.2032093e+2, -560019.9, -768266.94, -4710.957, 0.07635819, 0.32645634, -559913.4, 220968.67, 0.0, 10.001716, 9.998933 
2.005185e+3, 2.3031937e+2, -432397.94, -594522.9, -70491.81, 0.03756435, 0.24491476, -406035.0, 276859.75, 0.0, 10.001657, 9.999478 
2.0052484e+3, 2.4031754e+2, -412039.56, -655770.7, -56997.234, -0.017158723, 0.17692117, -399369.25, 185540.69, 0.0, 10.001636, 9.998399 
2.005313e+3, 2.5031626e+2, -240782.17, -586350.94, 40496.617, -0.16997212, 0.26303774, -236099.89, 250824.28, 0.0, 10.002422, 9.997818 
2.0053779e+3, 2.6031443e+2, -32000.229, -411072.1, 8870.379, -0.27085334, 0.324723, -31792.773, 357150.4, 0.000000029896977, 10.003082, 9.998033 
2.0054433e+3, 2.7031073e+2, 21256.422, -290153.84, -149443.5, -0.044897087, 0.12565327, 81369.38, 372345.06, 0.0000031274246, 10.0025835, 9.998427 
2.0055087e+3, 2.8030697e+2, -47842.57, -447096.28, -84904.71, 0.13707656, -0.013091703, -30536.969, 162472.3, 0.000025154262, 10.002174, 9.996884 
2.005573e+3, 2.9030487e+2, 78915.984, -437698.16, 113997.88, -0.15637183, 0.16663264, 102952.78, 197985.56, 0.00009776422, 10.002828, 9.995955 
2.0056368e+3, 3.003023e+2, 250484.84, -348107.75, 3318.0996, -0.37957615, 0.3476975, 250503.23, 250503.23, 0.00024000998, 10.003741, 9.995804 
2.0057002e+3, 3.10299e+2, 427896.4, -190565.95, -10040.362, -0.058260642, 0.44104522, 428059.38, 428059.38, 0.00042951325, 10.004612, 9.99648 
2.0144734e+3, 1.2025837e+2, -2004640.1, -1924041.9, -48393.723, 0.08155519, 0.26469424, -1901365.0, -139877.6, 0.28771394, 9.998292, 9.999383 
2.0145352e+3, 1.3025661e+2, -1636795.9, -1477645.3, 24514.357, -0.20235582, -0.018326, -1473954.9, 189554.94, 0.20582092, 9.999072, 10.001726 
2.014602e+3, 1.4026289e+2, -1497843.4, -1458750.1, 39234.184, -0.06402231, 0.5005581, -1434463.1, 130987.04, 0.12247417, 9.999947, 10.000529 
2.0146684e+3, 1.5026085e+2, -1543204.1, -1512375.1, 55902.207, -0.06796174, 0.31448907, -1469801.1, -2332.8127, 0.055639356, 9.9993, 9.999698 
2.0147347e+3, 1.6025807e+2, -1550743.3, -1483815.0, -22501.758, -0.07137503, 0.10515383, -1476953.3, -107459.19, 0.016791714, 9.9986515, 9.999537 
2.0148005e+3, 1.7025882e+2, -1333360.6, -1308380.0, -55832.31, 0.048537772, 0.22400406, -1263658.0, 7832.601, 0.0023981123, 9.999391, 9.999709 
2.0148657e+3, 1.8025973e+2, -1135993.3, -1172273.0, -56349.926, 0.15654974, 0.37795433, -1094935.4, 78549.914, 0.000045425786, 10.000117, 9.9996195 
2.0149295e+3, 1.9025953e+2, -1064185.4, -1067995.6, -47775.438, 0.09420485, 0.3945998, -1018277.06, 57208.336, 0.0, 9.999862, 9.9997835 
2.014993e+3, 2.0025884e+2, -1004254.3, -1003042.2, -35909.273, 0.0059424266, 0.3811051, -967733.9, 9755.77, 0.0, 9.9996605, 9.999655 
2.0150575e+3, 2.102572e+2, -745362.1, -808237.94, 19026.682, -0.04937214, 0.24893048, -740052.9, 139449.17, 0.0, 10.000687, 9.999823 
2.0151219e+3, 2.2025518e+2, -597099.5, -831374.6, 9834.922, -0.08203074, 0.13141742, -596687.4, 184831.31, 0.0, 10.001651, 9.998532 
2.015186e+3, 2.3025282e+2, -560175.1, -860417.3, -74318.21, -0.026176581, 0.11792401, -542786.44, 140756.8, 0.0, 10.001655, 9.997656 
2.0152502e+3, 2.4025047e+2, -404635.53, -644766.1, -41969.4, 0.008890495, 0.12919256, -397511.6, 188056.25, 0.0, 10.001656, 9.998464 
2.015316e+3, 2.5024968e+2, -129102.92, -342117.3, 76704.11, -0.08954058, 0.13044244, -104357.3, 383216.8, 0.0, 10.00237, 9.999521 
2.0153819e+3, 2.6024875e+2, -102563.31, -520759.72, 7742.662, -0.16313155, 0.17747587, -102420.016, 287162.3, 0.0000000091701935, 10.002925, 9.9973545 
2.0154454e+3, 2.702468e+2, -171133.69, -677708.25, -163540.06, -0.08502765, 0.37468028, -122925.03, 168683.0, 0.0000023642951, 10.002533, 9.9957905 
2.0155089e+3, 2.8024423e+2, 20691.326, -305844.66, -75669.52, -0.03577202, 0.51400274, 37374.203, 231012.52, 0.000021595964, 10.002182, 9.997849 
2.0155776e+3, 2.9024017e+2, 338905.25, 110232.59, 145910.64, 0.018990405, 0.17384088, 409940.72, 505609.56, 0.00008386982, 10.002785, 9.999742 
2.0156462e+3, 3.0023617e+2, 195801.86, -400638.06, 25768.79, 0.19450691, -0.045463715, 196913.11, 196913.11, 0.00020755024, 10.003493, 9.995557 
2.0157023e+3, 3.102352e+2, 202355.6, -553331.56, -33711.652, -0.30727908, 0.53060603, 203856.52, 203856.52, 0.0003781892, 10.0042095, 9.994158 
2.0244719e+3, 1.2019388e+2, -1907929.5, -1786043.6, -81616.66, 0.11498413, 0.31098217, -1745127.3, 16993.898, 0.29983783, 9.998539, 10.000253 
2.0245337e+3, 1.3019079e+2, -1722659.3, -1541131.4, 18020.084, -0.21878003, -0.10011555, -1539359.9, 124794.87, 0.21537028, 9.99858, 10.001427 
2.0246002e+3, 1.4019793e+2, -1665957.4, -1543065.1, 16158.067, -0.14728625, 0.52669525, -1540976.1, 25111.04, 0.12892798, 9.998772, 10.000442 
2.0246671e+3, 1.5019572e+2, -1537501.3, -1497995.1, 59253.668, -0.1074409, 0.3204769, -1455288.8, 12817.958, 0.05909158, 9.999292, 9.999802 
2.0247337e+3, 1.6019265e+2, -1392206.9, -1406477.9, 51252.64, -0.055760197, 0.07189374, -1347595.4, 22539.785, 0.018083457, 9.99975, 9.999531 
2.0248002e+3, 1.7019343e+2, -1274427.4, -1295280.1, 10880.603, 0.083551, 0.2026115, -1269784.0, 2348.058, 0.0026487417, 9.999879, 9.999554 
2.0248659e+3, 1.8019444e+2, -1161859.5, -1200717.9, -15704.777, 0.19705611, 0.38120314, -1156306.0, 17820.516, 0.000052423693, 10.000009, 9.999475 
2.0249294e+3, 1.9019446e+2, -952463.56, -1027426.6, -24170.107, 0.07057054, 0.43008867, -945346.25, 130778.875, 0.0, 10.000684, 9.999663 
2.0249926e+3, 2.001939e+2, -779798.75, -900199.06, -22402.168, -0.06889374, 0.43965736, -775765.6, 202362.69, 0.0, 10.001226, 9.999605 
2.0250575e+3, 2.101919e+2, -738797.1, -806352.0, -52732.758, -0.09403124, 0.27532786, -709951.44, 170192.11, 0.0, 10.000736, 9.999811 
2.0251226e+3, 2.2018962e+2, -783348.25, -934294.94, -104411.09, -0.08632039, 0.13566078, -729988.75, 52174.03, 0.0, 10.000433, 9.998409 
2.0251873e+3, 2.3018757e+2, -504453.8, -856611.25, -87441.22, -0.0473663, 0.17319985, -483937.3, 200249.02, 0.0, 10.002143, 9.997443 
2.0252523e+3, 2.401855e+2, -128945.01, -511682.13, -2685.0483, -0.018168328, 0.22914912, -128926.17, 457283.63, 0.0, 10.003557, 9.998461 
2.0253183e+3, 2.5018463e+2, -204691.47, -360594.5, -4198.2476, -0.05022983, 0.21250278, -204578.5, 283637.9, 0.0, 10.001784, 9.999672 
2.0253842e+3, 2.6018366e+2, -481815.8, -664302.9, -95270.36, -0.06903501, 0.23444772, -441143.38, -50919.105, 0.000000001074916, 10.000146, 9.997709 
2.0254472e+3, 2.7018163e+2, -263330.2, -661993.5, -65332.395, -0.08299656, 0.3802993, -252896.67, 39351.355, 0.0000018159459, 10.001641, 9.996329 
2.0255107e+3, 2.80179e+2, 166339.61, -232042.03, 138224.64, -0.11363022, 0.46832812, 209600.92, 403878.06, 0.000018189116, 10.003163, 9.997884 
2.0255797e+3, 2.9017565e+2, 226770.64, 12539.838, 100420.29, 0.009743887, 0.2322629, 266481.47, 362784.44, 0.00007216491, 10.002204, 9.999347 
2.0256492e+3, 3.001725e+2, -36495.574, -380191.25, -135191.45, 0.29566944, 0.093547545, 10307.925, 10307.925, 0.0001790655, 10.001295, 9.996764 
2.0257059e+3, 3.1017074e+2, 4357.9785, -401073.75, 47856.094, -0.21592389, 0.37069437, 9930.201, 9930.201, 0.00032928202, 10.001739, 9.996405 
2.0344687e+3, 1.20129295e+2, -1816136.0, -1634074.6, -84399.68, -0.064588904, 0.3822659, -1600968.8, 161787.88, 0.3135409, 9.99853, 10.001699 
2.0345327e+3, 1.3012514e+2, -1769821.1, -1613016.6, 24070.143, -0.15267634, -0.1201578, -1609404.9, 55393.645, 0.22593072, 9.998549, 10.000824 
2.034601e+3, 1.4013208e+2, -1650962.4, -1510659.5, 24835.96, 0.062026776, 0.52445793, -1506392.9, 60340.457, 0.13594478, 9.998743, 10.000717 
2.0346676e+3, 1.5013117e+2, -1465967.6, -1353809.8, 82106.86, 0.030915875, 0.3609101, -1310458.4, 158281.13, 0.06282382, 9.999294, 10.000845 
2.0347337e+3, 1.6012925e+2, -1366647.9, -1367159.9, 62904.18, -0.027574476, 0.14192425, -1303999.3, 66756.414, 0.019494196, 9.999808, 9.999777 
2.0347995e+3, 1.7012903e+2, -1307049.6, -1372611.1, 16373.857, 0.032311056, 0.20996945, -1303187.8, -30427.236, 0.0029308582, 9.999913, 9.99901 
2.0348647e+3, 1.8012872e+2, -1186096.8, -1252688.0, -12.327305, 0.080355786, 0.30716303, -1186096.8, -11330.415, 0.00006041413, 10.000016, 9.999115 
2.0349288e+3, 1.901275e+2, -964583.56, -1053199.1, 8310.882, -0.035132613, 0.25473347, -963810.9, 112965.77, 0.0, 10.000686, 9.999486 
2.0349929e+3, 2.0012604e+2, -829502.8, -1003876.4, -22859.865, -0.1430964, 0.20589648, -826555.8, 152233.63, 0.0, 10.001226, 9.998894 
2.0350584e+3, 2.1012507e+2, -826716.5, -985571.44, -72486.586, -0.05898243, 0.25160822, -798612.44, 82189.43, 0.0, 10.000719, 9.998591 
2.035124e+3, 2.2012408e+2, -782713.2, -922919.8, -75788.39, 0.023881964, 0.3283003, -749577.2, 33238.03, 0.0, 10.00039, 9.9985075 
2.0351893e+3, 2.3012333e+2, -427544.97, -677253.6, -4357.3447, -0.048502553, 0.3958006, -427468.94, 257356.95, 0.0, 10.002057, 9.998715 
2.0352547e+3, 2.4012227e+2, -154838.72, -532890.0, -10960.425, -0.120489694, 0.4609487, -154521.22, 432317.6, 0.0, 10.003416, 9.9983835 
2.0353197e+3, 2.5012076e+2, -296984.03, -548975.4, -82193.53, -0.06691858, 0.4820244, -272544.72, 216308.69, 0.0, 10.001765, 9.998391 
2.0353846e+3, 2.601189e+2, -394645.56, -493319.9, -93222.516, -0.021533027, 0.47454706, -338509.56, 52360.55, 0.000000023664393, 10.000191, 9.99886 
2.0354487e+3, 2.701153e+2, -30815.23, -189988.64, 11326.705, -0.08369111, 0.1826291, -30013.27, 262883.2, 0.0000019634658, 10.001685, 9.99955 
2.0355134e+3, 2.8011146e+2, 112972.766, -334113.0, 134415.14, -0.14749359, -0.059494704, 150272.45, 345198.9, 0.000016146072, 10.003136, 9.997192 
2.0355801e+3, 2.901111e+2, -40317.656, -536269.2, 60486.703, -0.13875122, 0.32279912, -33047.223, 63890.043, 0.00006226661, 10.002176, 9.995592 
2.035647e+3, 3.001107e+2, 96015.01, -58446.84, -128938.0, -0.045021918, 0.649543, 169082.53, 169082.53, 0.00015333219, 10.001104, 9.99906 
2.035711e+3, 3.10104e+2, 413747.9, 466698.66, 73975.914, 0.12329491, -0.15368657, 518794.16, 518794.16, 0.00028302532, 10.001677, 10.00239 
2.0444661e+3, 1.2006393e+2, -1873128.5, -1614408.4, -65778.266, -0.10648725, 0.37405425, -1598645.0, 164752.98, 0.3294151, 9.99784, 10.002249 
2.0445311e+3, 1.3006e+2, -1802460.0, -1650421.6, 38515.383, -0.13475299, -0.0978145, -1641221.4, 24215.639, 0.23787552, 9.998448, 10.000563 
2.0446004e+3, 1.4006622e+2, -1673088.9, -1532431.8, 51987.79, 0.17237128, 0.49588215, -1515302.8, 52076.402, 0.14372098, 9.998643, 10.000607 
2.0446672e+3, 1.5006588e+2, -1618513.1, -1426352.1, 34741.3, 0.12477192, 0.3944213, -1420264.0, 49116.914, 0.06692591, 9.998246, 10.000816 
2.0447329e+3, 1.6006456e+2, -1633113.4, -1484621.5, -37458.04, 0.026325203, 0.23563555, -1475707.6, -104315.46, 0.021061258, 9.997928, 9.999878 
2.0447983e+3, 1.7006375e+2, -1415222.8, -1400623.8, -37684.43, -0.0028972784, 0.22661754, -1369538.4, -96138.164, 0.003256253, 9.999066, 9.999228 
2.0448637e+3, 1.8006277e+2, -1146418.0, -1220738.1, -6978.2817, -0.018506464, 0.23823231, -1145768.5, 29641.295, 0.00007088071, 10.000237, 9.999228 
2.044929e+3, 1.9006161e+2, -1046486.8, -1089267.6, 5120.383, -0.030948963, 0.1874014, -1045882.5, 31537.271, 0.0, 10.000119, 9.999509 
2.0449944e+3, 2.0006032e+2, -1043947.3, -1127442.8, -8202.882, -0.025410287, 0.15970416, -1043149.06, -63717.367, 0.0, 9.999843, 9.998714 
2.0450595e+3, 2.1005952e+2, -940523.44, -1078869.6, -12483.99, 0.035980593, 0.25497535, -939405.94, -57960.723, 0.0, 10.0001135, 9.9982395 
2.0451248e+3, 2.2005874e+2, -781863.6, -918536.94, 51786.617, 0.07880305, 0.37631065, -764457.94, 19000.965, 0.0, 10.000376, 9.998546 
2.0451905e+3, 2.3005827e+2, -667745.8, -748287.4, 86349.39, -0.02904474, 0.44029862, -612738.3, 72727.7, 0.0, 10.000211, 9.999118 
2.0452562e+3, 2.4005747e+2, -620207.9, -749058.06, 18836.637, -0.1208141, 0.4967381, -617510.6, -30034.926, 0.0, 10.000178, 9.998459 
2.0453212e+3, 2.5005558e+2, -392445.5, -617801.4, -21024.408, -0.04466428, 0.49328393, -390500.8, 98993.95, 0.0, 10.0012, 9.998192 
2.0453861e+3, 2.6005337e+2, -80396.29, -338075.06, 43215.215, 0.023434663, 0.46436813, -73341.81, 318173.56, 0.00000011200642, 10.002331, 9.998897 
2.0454511e+3, 2.700505e+2, 233960.66, -37993.605, 2678.7104, -0.06923782, 0.22764811, 233987.03, 527520.0, 0.000002326167, 10.003404, 9.999762 
2.0455167e+3, 2.8004733e+2, 263037.63, -247400.33, -62231.266, -0.15307976, 0.03402109, 270515.16, 466070.38, 0.000014696717, 10.004096, 9.99733 
2.0455824e+3, 2.9004568e+2, -59547.58, -525730.44, 711.03845, -0.099803425, 0.2793267, -59546.492, 38033.11, 0.000053728807, 10.001965, 9.995765 
2.0456481e+3, 3.0004486e+2, -35943.984, -77103.81, 33828.56, 0.020848854, 0.53285354, -16927.13, -16927.13, 0.00013095436, 10.000009, 9.999457 
2.0457114e+3, 3.100416e+2, 545465.94, 586411.9, -44663.945, -0.0023160765, 0.03854767, 615071.5, 615071.5, 0.00024437715, 10.002345, 10.002891 
2.0544647e+3, 1.1999754e+2, -1920657.4, -1680988.6, -29651.695, -0.055022452, 0.24808362, -1677374.6, 86672.61, 0.3476065, 9.997799, 10.001599 
2.0545287e+3, 1.2999542e+2, -1792587.3, -1635785.8, 55125.4, -0.21191062, -0.037204564, -1618345.5, 47724.28, 0.2513395, 9.9984455, 10.000716 
2.0545986e+3, 1.4000031e+2, -1708640.5, -1604935.4, 51081.547, 0.12103022, 0.42574993, -1584000.5, -15975.636, 0.15236652, 9.998661, 10.000048 
2.0546652e+3, 1.4999989e+2, -1711695.6, -1612179.8, 17043.605, 0.13566825, 0.42552474, -1609341.6, -139310.2, 0.071473114, 9.998223, 9.999531 
2.0547312e+3, 1.5999854e+2, -1647371.9, -1504647.8, -25575.006, 0.072851546, 0.3623708, -1500203.3, -128157.16, 0.022826005, 9.997886, 9.999761 
2.0547968e+3, 1.6999751e+2, -1345833.5, -1254397.0, 17642.424, -0.04844421, 0.25951838, -1251111.0, 22941.21, 0.0036400491, 9.999054, 10.000238 
2.0548625e+3, 1.7999652e+2, -1100019.3, -1129542.1, 12183.439, -0.13406664, 0.17654, -1095640.8, 80416.96, 0.00008593674, 10.000255, 9.999847 
2.0549299e+3, 1.8999664e+2, -1032592.25, -1062867.3, -4411.2407, 0.05763235, 0.22674479, -1031962.56, 46093.086, 0.0, 10.000127, 9.999689 
2.0549968e+3, 1.9999658e+2, -1021204.06, -1079897.9, -9337.511, 0.25041676, 0.30018422, -1019754.4, -39697.785, 0.0, 9.999844, 9.999038 
2.0550609e+3, 2.0999515e+2, -912939.4, -1016487.44, 2782.2283, 0.1714882, 0.28843194, -912864.7, -30789.818, 0.0, 10.00009, 9.998678 
2.0551248e+3, 2.1999343e+2, -789538.5, -923526.1, 51321.625, 0.05225759, 0.2821649, -772139.9, 11956.114, 0.0, 10.000329, 9.998533 
2.0551907e+3, 2.2999236e+2, -700321.0, -813545.9, 81582.5, -0.01635452, 0.32101524, -657632.56, 28475.178, 0.0, 10.000197, 9.998677 
2.0552568e+3, 2.399911e+2, -616065.5, -724152.75, 37451.063, -0.064214155, 0.35948825, -604357.4, -16236.543, 0.0, 10.000111, 9.998661 
2.0553225e+3, 2.4998906e+2, -344910.63, -507808.22, 25532.93, -0.0137783205, 0.27474612, -341002.3, 149139.39, 0.0, 10.001155, 9.998968 
2.0553884e+3, 2.5998703e+2, -151217.97, -471652.5, 77378.484, 0.035586793, 0.23136646, -133511.08, 258650.88, 0.00000017468948, 10.002272, 9.99801 
2.0554544e+3, 2.6998684e+2, 51791.85, -394384.6, 51837.637, -0.068218656, 0.4661869, 57735.273, 351896.8, 0.0000023499456, 10.003298, 9.99737 
2.0555203e+3, 2.7998585e+2, 273497.84, -164635.69, -80963.54, -0.18544635, 0.64252514, 287980.53, 484149.47, 0.000012296112, 10.003843, 9.9980135 
2.0555857e+3, 2.8997946e+2, 164604.88, -53788.215, -90088.016, 0.03506822, 0.13963191, 196970.1, 295199.84, 0.000044338212, 10.001936, 9.999019 
2.0556514e+3, 2.9997522e+2, -113937.055, -246195.44, 19557.914, 0.36426306, -0.14308412, -111105.516, -110834.97, 0.00011039118, 10.000063, 9.998259 
2.0557088e+3, 3.0998152e+2, 249959.25, -18791.879, 134214.58, -0.5024416, 0.70853764, 305505.63, 305505.63, 0.00021361552, 10.002286, 9.99877 
2.0644633e+3, 1.1993223e+2, -1985415.3, -1818258.8, 15082.628, 0.071882755, 0.25021243, -1816908.8, -52221.145, 0.36771804, 9.997999, 10.000247 
2.0645268e+3, 1.2993076e+2, -1786359.4, -1648259.6, 12151.862, -0.21474643, 0.08107696, -1647198.5, 19507.166, 0.26616043, 9.99858, 10.000508 
2.0645969e+3, 1.3993385e+2, -1711097.6, -1607170.5, -8892.421, 0.11355775, 0.37814933, -1606415.1, -37737.27, 0.1618756, 9.998657, 10.0000305 
2.064664e+3, 1.4993377e+2, -1555247.5, -1519204.8, 42274.785, 0.15654713, 0.40226772, -1491270.4, -20589.963, 0.07651462, 9.999226, 9.999682 
2.0647302e+3, 1.5993291e+2, -1380228.4, -1383236.3, 98495.43, 0.1211901, 0.375869, -1283225.4, 89464.35, 0.024829434, 9.9997425, 9.999709 
2.0647961e+3, 1.6993162e+2, -1328267.8, -1272740.1, 76298.69, -0.008059176, 0.26283437, -1219310.9, 55387.094, 0.0041003036, 9.999283, 10.000005 
2.0648621e+3, 1.7993037e+2, -1326043.8, -1237614.8, -14592.046, -0.10039667, 0.17134845, -1235269.0, -58563.504, 0.000108260756, 9.998704, 9.99985 
2.0649295e+3, 1.8993065e+2, -1176719.5, -1105385.4, -51486.496, 0.06985303, 0.21884331, -1078418.5, 283.73615, 0.0, 9.999017, 9.999932 
2.0649964e+3, 1.9993083e+2, -1041793.6, -1059406.8, -34521.434, 0.2392431, 0.29005134, -1014973.2, -34271.82, 0.0, 9.999568, 9.999314 
2.0650607e+3, 2.0992993e+2, -789647.9, -924378.3, -22348.145, 0.13077949, 0.3058754, -786037.6, 96676.695, 0.0, 10.000793, 9.998973 
2.065125e+3, 2.1992874e+2, -554383.56, -781391.5, -253.49731, 0.0040630554, 0.32581866, -554383.3, 230346.95, 0.0, 10.00182, 9.998791 
2.0651911e+3, 2.2992747e+2, -567387.75, -720666.44, 36722.53, 0.006942876, 0.31907123, -559043.94, 127698.14, 0.0, 10.000996, 9.998925 
2.0652576e+3, 2.3992583e+2, -626428.06, -752203.9, 62278.668, 0.018906878, 0.3046409, -600808.75, -12051.488, 0.0, 10.000145, 9.998448 
2.0653233e+3, 2.4992336e+2, -405720.8, -620390.75, -6071.393, -0.039627563, 0.23981495, -405549.22, 85235.47, 0.0, 10.001103, 9.998217 
2.0653895e+3, 2.5992116e+2, -171165.72, -485660.5, -36485.223, -0.07046394, 0.24009444, -166988.47, 225820.72, 0.00000012472299, 10.002155, 9.997969 
2.0654571e+3, 2.6992133e+2, -155080.44, -403921.7, 78878.984, -0.029046707, 0.45491233, -132183.77, 162620.34, 0.0000018192295, 10.001503, 9.998163 
2.0655237e+3, 2.799205e+2, -160687.11, -330089.53, 89295.02, -0.03859193, 0.5767345, -122311.54, 74496.305, 0.000008845643, 10.000666, 9.998411 
2.0655861e+3, 2.8991482e+2, 74324.51, -115165.516, -113003.13, -0.065763764, 0.13932218, 127045.85, 225909.84, 0.000033785323, 10.001403, 9.99885 
2.0656508e+3, 2.9991195e+2, 235662.94, -202721.05, -94574.375, 0.17906477, 0.043205995, 255195.56, 256089.95, 0.00009042026, 10.002966, 9.997181 
2.065715e+3, 3.0991372e+2, 379129.13, -175824.02, 150519.11, -0.14902186, 0.60434407, 417325.25, 417325.25, 0.00018499592, 10.004094, 9.996829 
2.0744626e+3, 1.1986829e+2, -2142526.5, -2138997.3, 78951.97, 0.19821806, 0.4185542, -2061790.1, -296473.53, 0.38886976, 9.99798, 9.998056 
2.074526e+3, 1.298661e+2, -1830622.3, -1731401.8, 15293.518, -0.16681983, 0.27482986, -1729097.9, -61753.28, 0.28190908, 9.998574, 9.999894 
2.0745954e+3, 1.3986672e+2, -1668299.4, -1533010.1, -421.07324, 0.11685037, 0.36051172, -1533008.8, 36330.66, 0.17213808, 9.99868, 10.000584 
2.074663e+3, 1.4986739e+2, -1426702.5, -1276695.9, 66308.88, 0.15651184, 0.31297138, -1251587.5, 219741.98, 0.08207624, 9.999286, 10.00144 
2.07473e+3, 1.5986758e+2, -1360136.4, -1356888.6, 100291.71, 0.13270405, 0.25706628, -1258207.6, 115115.85, 0.027111659, 9.999812, 9.99986 
2.0747964e+3, 1.6986607e+2, -1435283.3, -1498901.6, 53595.87, 0.09906393, 0.23455226, -1404768.0, -129430.88, 0.0046569863, 9.9993, 9.998445 
2.0748623e+3, 1.7986429e+2, -1370516.1, -1332755.6, -20218.445, 0.060540523, 0.22430196, -1323972.8, -146618.86, 0.00014131474, 9.9987135, 9.999194 
2.0749275e+3, 1.8986355e+2, -1157220.4, -1063897.1, -30316.375, -0.012784514, 0.16450515, -1054913.5, 24447.146, 0.0000000002137382, 9.999008, 10.000224 
2.0749924e+3, 1.9986297e+2, -1026981.5, -1023806.7, -1338.3431, -0.093296014, 0.1321934, -1023317.75, -41951.215, 0.0, 9.999548, 9.999567 
2.0750588e+3, 2.0986381e+2, -788801.1, -910610.9, 32615.297, -0.11420245, 0.3047791, -780617.94, 102746.46, 0.0, 10.00074, 9.999095 
2.0751257e+3, 2.1986456e+2, -532752.56, -716032.3, 4376.7446, -0.100923754, 0.49790764, -532648.1, 252714.58, 0.0, 10.001734, 9.999279 
2.0751922e+3, 2.2986339e+2, -512004.38, -597648.06, -1478.117, 0.015801013, 0.42461106, -511978.88, 175391.97, 0.0, 10.000961, 9.999787 
2.0752583e+3, 2.3986131e+2, -667997.75, -838466.44, 60394.508, 0.088656686, 0.31548283, -648769.7, -59381.813, 0.0, 10.000141, 9.997859 
2.0753233e+3, 2.4985825e+2, -554583.2, -932169.4, 48901.867, -0.14178759, 0.36291435, -548352.6, -56927.043, 0.0, 10.001108, 9.996077 
2.0753889e+3, 2.598556e+2, -146044.23, -410983.53, -20888.31, -0.317169, 0.46553642, -144407.47, 249050.66, 0.000000021824269, 10.002064, 9.998523 
2.0754588e+3, 2.6985407e+2, 77060.23, 86474.05, 48040.734, 0.011525158, 0.24460438, 130037.91, 425498.03, 0.00000084431264, 10.001468, 10.00155 
2.0755269e+3, 2.7985147e+2, -153116.84, -300984.88, 70283.414, 0.21218714, -0.067626186, -125041.08, 72431.61, 0.000005133315, 10.000616, 9.998631 
2.0755842e+3, 2.8985083e+2, -129634.17, -554607.06, -68852.98, -0.38392848, 0.2134571, -118757.19, -19266.229, 0.000023668894, 10.001461, 9.995808 
2.0756473e+3, 2.9985347e+2, 151730.6, -352392.5, -27278.092, -0.4833584, 0.91309667, 153202.33, 154681.8, 0.00007118321, 10.002892, 9.996171 
2.0757277e+3, 3.098423e+2, 281398.28, -286912.4, 123194.79, 0.7137666, 0.15496567, 306954.47, 306954.47, 0.00015313624, 10.0037365, 9.9962225 
2.0844622e+3, 1.1980228e+2, -1802945.8, -2047011.8, 89482.06, 0.25586405, 0.41174942, -1773654.3, -7691.2573, 0.40993002, 10.000615, 9.997418 
2.0845246e+3, 1.2980026e+2, -1720243.8, -1670529.5, 27865.672, -0.15690617, 0.2929531, -1658045.4, 9943.875, 0.29801235, 9.999295, 9.999986 
2.0845942e+3, 1.3980038e+2, -1782323.6, -1596152.8, 75554.38, 0.17898649, 0.32181314, -1569349.3, 639.02216, 0.18298064, 9.997971, 10.000439 
2.0846619e+3, 1.4980109e+2, -1554321.8, -1380070.3, 34600.21, 0.16526744, 0.31335643, -1373451.3, 98528.45, 0.088167645, 9.99859, 10.001013 
2.0847291e+3, 1.598014e+2, -1421787.8, -1394460.9, -81830.34, 0.08932467, 0.30605042, -1325161.1, 48813.684, 0.029713616, 9.999423, 9.9997835 
2.0847954e+3, 1.6979992e+2, -1354250.6, -1422965.1, -58678.234, 0.091755845, 0.26957944, -1320611.1, -44623.8, 0.005333032, 9.999708, 9.998763 
2.0848618e+3, 1.797982e+2, -1202435.6, -1236559.1, 857.68164, 0.09625962, 0.23722945, -1202414.0, -24411.309, 0.00018960002, 9.999801, 9.999332 
2.0849262e+3, 1.897976e+2, -1083193.3, -1029195.75, -10367.854, -0.036870036, 0.19032732, -1027273.44, 52734.76, 0.000000020895914, 9.999528, 10.000208 
2.0849907e+3, 1.9979717e+2, -1072604.1, -1039338.3, 11250.899, -0.17380947, 0.17089812, -1035890.5, -53877.445, 0.0, 9.999208, 9.999623 
2.0850581e+3, 2.0979764e+2, -990480.44, -989238.06, 52379.55, -0.17214437, 0.2949371, -937476.0, -53462.938, 0.0, 9.999277, 9.999258 
2.0851257e+3, 2.1979807e+2, -840601.4, -849200.44, 17152.533, -0.123028815, 0.43907064, -827217.7, -41204.53, 0.0, 9.999554, 9.999418 
2.0851928e+3, 2.2979727e+2, -522926.78, -596666.1, -53442.418, 0.026295997, 0.3959858, -494869.84, 193148.45, 0.0, 10.000853, 9.99985 
2.0852596e+3, 2.3979574e+2, -367430.6, -666333.8, -12169.723, 0.12943597, 0.3307502, -366935.9, 223094.94, 0.0, 10.002087, 9.998105 
2.0853245e+3, 2.4979316e+2, -411247.9, -810381.5, 119723.09, -0.12299126, 0.38735065, -378090.56, 113972.27, 0.0, 10.001868, 9.996542 
2.0853904e+3, 2.5979087e+2, -226349.86, -422636.94, 169104.92, -0.31917977, 0.48024404, -128971.96, 265118.72, 0.0, 10.001391, 9.998767 
2.0854597e+3, 2.697891e+2, 4108.919, 45912.527, 36329.29, 0.014858427, 0.23114625, 66923.76, 363020.13, 0.000000115745564, 10.000987, 10.001505 
2.0855278e+3, 2.7978638e+2, -100017.6, -287962.34, -62800.285, 0.25131154, -0.08541673, -80964.836, 117147.01, 0.0000020138657, 10.0010195, 9.998531 
2.0855874e+3, 2.8978655e+2, 114414.82, -455699.2, -34131.16, -0.27359605, 0.29742202, 116450.89, 216575.1, 0.000014484927, 10.0032215, 9.995637 
2.085652e+3, 2.9978973e+2, 462947.47, -207950.31, 93483.51, -0.3692503, 1.0677488, 475730.0, 477838.56, 0.00005217082, 10.005022, 9.996156 
2.085729e+3, 3.09778e+2, 118561.86, -202984.16, 113108.76, 0.5856269, 0.21226442, 154363.39, 154363.39, 0.00011918752, 10.001928, 9.997661 
2.0944619e+3, 1.1973421e+2, -1730688.4, -1859857.9, 43265.184, 0.14037146, 0.23519114, -1717536.0, 49090.2, 0.42994058, 10.000745, 9.998666 
2.0945232e+3, 1.2973298e+2, -1658937.0, -1581169.6, -22203.748, -0.2329809, 0.09891331, -1575276.6, 93364.37, 0.31401625, 9.999335, 10.000832 
2.094593e+3, 1.3973486e+2, -1845825.9, -1726597.1, 59855.246, 0.26949698, 0.26121044, -1701733.5, -131110.75, 0.19429262, 9.997958, 9.999553 
2.0946601e+3, 1.4973485e+2, -1756976.1, -1788794.4, 73542.95, 0.15564032, 0.41418314, -1697641.3, -225009.63, 0.094824284, 9.998574, 9.998156 
2.0947269e+3, 1.5973419e+2, -1446264.4, -1449405.3, -64973.234, -0.05325562, 0.5366565, -1382842.6, -8196.406, 0.032688897, 9.999436, 9.999396 
2.0947935e+3, 1.6973306e+2, -1188900.5, -1087709.0, -51355.805, -0.063374266, 0.37587404, -1066212.1, 210438.47, 0.0061590113, 9.999735, 10.001065 
2.0948601e+3, 1.7973201e+2, -1125979.5, -1085007.5, -2266.9822, -0.041061386, 0.21140757, -1084882.5, 93770.42, 0.00026052183, 9.999833, 10.000355 
2.0949255e+3, 1.8973269e+2, -1109604.1, -1088122.6, -21209.285, -0.03228522, 0.2944684, -1075089.5, 5556.7017, 0.00000016154512, 9.999542, 9.999798 
2.0949912e+3, 1.9973318e+2, -1082605.1, -1057230.8, 3820.2727, -0.031737953, 0.4028436, -1056668.0, -74025.31, 0.0, 9.999198, 9.999503 
2.0950581e+3, 2.0973137e+2, -980970.06, -960823.6, 61284.72, -0.06759667, 0.28362706, -908789.75, -24128.783, 0.0, 9.999241, 9.999469 
2.0951255e+3, 2.1972927e+2, -862249.5, -881686.75, 46995.734, -0.09501403, 0.16249162, -823978.0, -37296.19, 0.0, 9.9995, 9.999221 
2.0951934e+3, 2.2972918e+2, -582272.1, -703543.2, 8487.614, 0.008543037, 0.2457487, -581680.94, 107002.95, 0.0, 10.000785, 9.999148 
2.0952612e+3, 2.397291e+2, -322230.5, -540752.56, 7332.839, 0.09834868, 0.35908523, -321984.7, 268701.2, 0.0, 10.001951, 9.999031 
2.0953271e+3, 2.4972789e+2, -231784.75, -419645.97, 103082.03, -0.027665723, 0.32706946, -186256.17, 306442.53, 0.0, 10.001786, 9.999266 
2.0953932e+3, 2.5972652e+2, -237596.13, -420346.03, 142504.42, -0.15469585, 0.3015554, -159687.61, 235024.75, 0.0, 10.001285, 9.998832 
2.09546e+3, 2.6972568e+2, -199288.63, -383090.06, 26713.594, -0.048963413, 0.35928816, -195484.81, 101234.45, 0.0, 10.001015, 9.998544 
2.0955269e+3, 2.797244e+2, -124401.555, -345773.13, -18352.154, 0.06367176, 0.4138886, -122890.44, 75840.91, 0.00000039293647, 10.001062, 9.998108 
2.095595e+3, 2.8972232e+2, 239206.06, -171362.95, 73519.73, 0.16315039, 0.43307465, 251974.02, 352734.03, 0.000007650347, 10.003108, 9.997649 
2.0956634e+3, 2.997206e+2, 445727.03, -128535.625, 65320.418, 0.26741886, 0.5718654, 453063.3, 455847.88, 0.000036311332, 10.004558, 9.996909 
2.0957224e+3, 3.0971646e+2, 332950.88, 253621.42, 6885.14, -0.27889147, 0.4094773, 333544.0, 333544.0, 0.00009098789, 10.001888, 10.000822 
2.1044607e+3, 1.1966664e+2, -1821824.0, -1827283.8, 59291.766, 0.041497618, 0.16901661, -1765199.4, 2088.2737, 0.44859928, 9.999522, 9.999446 
2.1045229e+3, 1.2966585e+2, -1590714.5, -1535654.6, -113651.36, -0.1866345, 0.039643038, -1446246.4, 223051.27, 0.3298663, 9.999972, 10.001024 
2.1045917e+3, 1.3966888e+2, -1569927.5, -1598683.0, -61683.08, 0.28497294, 0.3072226, -1520968.6, 50299.734, 0.20615475, 9.9999275, 9.999513 
2.1046592e+3, 1.4966817e+2, -1621780.8, -1751977.8, 120959.734, 0.16751677, 0.4109738, -1549514.5, -76229.87, 0.10215144, 9.999627, 9.997894 
2.1047261e+3, 1.5966673e+2, -1484727.0, -1456781.5, 147089.63, -0.03725609, 0.47151843, -1323002.5, 52304.684, 0.036114734, 9.999121, 9.999505 
2.1047924e+3, 1.6966675e+2, -1277877.3, -1063888.3, 67455.33, -0.07481342, 0.37230298, -1044399.4, 232901.73, 0.007176738, 9.998826, 10.001669 
2.1048586e+3, 1.7966689e+2, -1301563.1, -1163150.9, 4133.4946, -0.07075459, 0.2795452, -1163027.5, 16264.712, 0.0003661867, 9.998594, 10.000421 
2.1049248e+3, 1.8966688e+2, -1245543.9, -1213945.9, -45897.77, -0.014138844, 0.33337095, -1181204.0, -99911.31, 0.00000091193453, 9.998868, 9.999261 
2.104991e+3, 1.996665e+2, -1074259.8, -1062518.8, -13039.744, 0.039120957, 0.39649555, -1054089.0, -70791.2, 0.0, 9.99929, 9.999424 
2.1050581e+3, 2.0966473e+2, -805407.75, -831951.4, 60331.996, -0.013829468, 0.25484923, -756905.06, 128408.34, 0.0, 10.000253, 9.9998665 
2.1051258e+3, 2.1966286e+2, -627261.1, -756673.25, 59539.05, -0.06758214, 0.12279409, -604036.7, 183293.31, 0.0, 10.001062, 9.999324 
2.1051936e+3, 2.2966291e+2, -648002.4, -759036.7, 37960.75, -0.0197914, 0.23522913, -636265.0, 53067.547, 0.0, 10.000442, 9.998928 
2.105261e+3, 2.3966311e+2, -634807.4, -664751.8, 52682.67, 0.035496622, 0.38577068, -595010.7, -3676.9082, 0.0, 9.999693, 9.999267 
2.1053278e+3, 2.4966212e+2, -482314.2, -460204.75, 18650.334, -0.019673223, 0.31725168, -449579.0, 43763.7, 0.0, 9.999735, 9.999972 
2.1053946e+3, 2.5966063e+2, -394687.06, -478074.5, -20949.086, -0.07185717, 0.22781315, -389720.0, 5635.539, 0.0, 10.000124, 9.998998 
2.1054612e+3, 2.6966023e+2, -54799.89, -355133.0, 6999.997, -0.059409406, 0.3581789, -54636.83, 242724.4, 0.0, 10.0021925, 9.998163 
2.1055283e+3, 2.7966017e+2, 331993.63, -128369.305, 80224.66, -0.028373417, 0.55728763, 345573.3, 544937.56, 0.00000006547354, 10.004208, 9.99809 
2.105597e+3, 2.896567e+2, 158710.25, -170672.67, 48711.33, 0.11870184, 0.41762567, 165763.0, 267164.25, 0.000004735315, 10.0023985, 9.99799 
2.105665e+3, 2.9965097e+2, -108833.516, -336182.44, 3090.553, 0.23917948, 0.120586574, -108791.51, -105332.555, 0.000028510507, 10.000458, 9.997474 
2.1057251e+3, 3.0965286e+2, 815451.06, 634971.7, -3824.9297, -0.31170166, 0.47559452, 815532.06, 815532.06, 0.00007646736, 10.004543, 10.002171 
2.1144582e+3, 1.1959955e+2, -1847322.6, -1832677.5, 151999.38, -0.15773204, 0.21665728, -1687824.4, 80123.44, 0.46656317, 9.999453, 9.999689 
2.1145244e+3, 1.2959887e+2, -1625010.9, -1600735.9, -124566.53, -0.038269587, 0.13831629, -1487716.9, 182243.45, 0.34608045, 10.000023, 10.00045 
2.1145906e+3, 1.3960218e+2, -1502882.0, -1487628.4, -58016.41, 0.16007313, 0.46041065, -1436739.6, 135189.45, 0.21890919, 10.00006, 10.00034 
2.1146587e+3, 1.4960085e+2, -1429775.5, -1373102.5, 93106.305, 0.16142654, 0.28739056, -1304116.1, 169824.44, 0.110347085, 9.999713, 10.0005455 
2.1147266e+3, 1.5959898e+2, -1423210.5, -1337212.4, 133841.92, 0.108348615, 0.08261641, -1239632.0, 136324.81, 0.040102176, 9.999155, 10.000326 
2.1147922e+3, 1.696009e+2, -1365685.9, -1248600.9, 63304.37, 0.039116304, 0.24562292, -1220918.9, 57019.58, 0.008443992, 9.998836, 10.000389 
2.1148577e+3, 1.7960282e+2, -1369409.4, -1303028.8, 3558.7551, -0.02064538, 0.4456149, -1302838.5, -122917.5, 0.00052604213, 9.998592, 9.99946 
2.1149236e+3, 1.8960017e+2, -1291732.5, -1311024.6, -27026.713, -0.007360467, 0.3112728, -1272682.0, -190734.14, 0.0000034897541, 9.998872, 9.998594 
2.1149898e+3, 1.9959706e+2, -1084385.4, -1078370.5, 11781.279, 0.0025569063, 0.1530431, -1069218.9, -85239.81, 0.0, 9.999266, 9.999329 
2.1150582e+3, 2.0959762e+2, -773668.4, -756577.8, 104934.09, -0.0398267, 0.20712106, -659841.6, 226129.86, 0.0, 10.00021, 10.000407 
2.1151267e+3, 2.1959855e+2, -615918.25, -708961.56, 64835.023, -0.081468575, 0.3058247, -582641.1, 205319.27, 0.0, 10.000959, 9.999701 
2.1151932e+3, 2.2959824e+2, -642073.4, -734832.8, 9629.377, -0.08428453, 0.35834345, -641084.3, 48882.223, 0.0, 10.000388, 9.999122 
2.1152593e+3, 2.3959756e+2, -668105.6, -720343.0, 38316.47, -0.09951572, 0.41243204, -647852.56, -55875.887, 0.0, 9.999634, 9.998913 
2.1153264e+3, 2.4959572e+2, -559029.1, -623074.4, 32904.125, -0.117427394, 0.348581, -545137.3, -51142.055, 0.0, 9.999746, 9.99885 
2.1153943e+3, 2.5959328e+2, -385848.13, -454880.4, 26381.281, -0.10194178, 0.2467799, -376920.78, 19097.98, 0.0, 10.000111, 9.999161 
2.1154633e+3, 2.69593e+2, 51131.81, -113680.94, 103350.14, -0.052965812, 0.25966507, 100907.37, 398927.8, 0.0, 10.002096, 9.999871 
2.1155317e+3, 2.795935e+2, 311396.66, -107537.64, 81963.18, -0.09935316, 0.38880852, 326861.63, 526875.4, 0.00000005479561, 10.00394, 9.998357 
2.1155944e+3, 2.8958943e+2, 78555.8, -351153.53, -41402.496, -0.35942876, 0.25722465, 82508.57, 184560.4, 0.0000044705935, 10.002448, 9.996728 
2.1156591e+3, 2.9958075e+2, -61651.727, -246100.5, 26976.023, -0.39924052, -0.2780492, -57787.387, -53652.242, 0.00002695633, 10.000533, 9.998033 
2.1157354e+3, 3.0958822e+2, 647332.7, 407886.34, 275061.3, 0.25416476, 0.52391124, 827596.75, 827596.75, 0.00007316576, 10.004005, 10.000883 
2.1244614e+3, 1.1953703e+2, -1870613.6, -2111027.0, 96550.695, 0.21338812, 0.5591576, -1836639.6, -68080.66, 0.48543465, 10.000272, 9.997144 
2.1245247e+3, 1.29532e+2, -1857940.8, -1673008.5, -34510.313, 0.09557105, 0.0836173, -1666778.4, 3837.913, 0.3637423, 9.998066, 10.000554 
2.1245891e+3, 1.3953608e+2, -1623767.8, -1512942.6, 80782.14, 0.10240421, 0.4687693, -1470394.5, 102183.23, 0.23315269, 9.998974, 10.000696 
2.1246575e+3, 1.4953522e+2, -1484061.8, -1315386.4, 119875.586, 0.12924898, 0.27304715, -1253153.3, 221427.98, 0.1197026, 9.998932, 10.001391 
2.1247256e+3, 1.5953365e+2, -1479869.9, -1359613.1, 51485.81, 0.1443027, 0.031766437, -1340582.1, 36009.46, 0.044803485, 9.998738, 10.000359 
2.1247913e+3, 1.6953503e+2, -1399199.4, -1371115.3, -18827.139, 0.0747139, 0.21206445, -1361670.3, -83089.2, 0.01004214, 9.999077, 9.999424 
2.1248567e+3, 1.795363e+2, -1254684.9, -1285956.6, -37054.29, 0.008453154, 0.4327195, -1230102.6, -49530.016, 0.0007722133, 9.999539, 9.999118 
2.1249232e+3, 1.8953374e+2, -1040206.0, -1144667.3, 8629.438, 0.009958619, 0.28598654, -1039497.94, 43100.523, 0.000010944595, 10.000406, 9.998991 
2.1249898e+3, 1.995309e+2, -812349.44, -937845.2, 103397.05, 0.012047813, 0.121747054, -754150.0, 230476.17, 0.0, 10.001099, 9.999407 
2.1250576e+3, 2.0953183e+2, -811251.1, -808563.5, 131159.14, -0.066680804, 0.23267134, -678741.25, 207875.19, 0.0, 10.000106, 10.000096 
2.1251257e+3, 2.1953306e+2, -910438.75, -853800.5, 43207.63, -0.13653727, 0.38528302, -830458.5, -41854.605, 0.0, 9.998959, 9.999667 
2.1251921e+3, 2.2953229e+2, -792313.3, -772907.6, -19632.197, -0.14918716, 0.37150344, -760711.44, -70098.29, 0.0, 9.999219, 9.999419 
2.125258e+3, 2.3953104e+2, -632529.7, -678647.25, 40130.285, -0.16090138, 0.33934692, -609305.1, -16678.143, 0.0, 9.999778, 9.999128 
2.125326e+3, 2.4952945e+2, -415035.53, -543529.25, 115261.555, -0.15445513, 0.29022318, -347324.5, 147317.42, 0.0, 10.000692, 9.9989395 
2.1253948e+3, 2.595276e+2, -190846.75, -400052.25, 172969.6, -0.098486245, 0.24511355, -93310.39, 303348.8, 0.0, 10.001615, 9.998813 
2.1254648e+3, 2.6952678e+2, -137186.48, -294275.6, 109070.3, -0.037867982, 0.2791199, -81322.78, 217346.47, 0.0, 10.001194, 9.999062 
2.1255337e+3, 2.795264e+2, -161196.48, -333126.72, -29987.123, -0.09349902, 0.37459227, -156116.39, 44558.953, 0.000000117451826, 10.000676, 9.998382 
2.1255969e+3, 2.895231e+2, 290711.22, -131569.5, -63137.285, -0.39181197, 0.25152975, 299949.1, 402650.84, 0.0000050467984, 10.003414, 9.997763 
2.1256626e+3, 2.9951674e+2, 766418.5, 70347.305, 55138.64, -0.3907604, -0.11998316, 770759.2, 775517.6, 0.00002692745, 10.006534, 9.997344 
2.1257378e+3, 3.0952075e+2, 118671.71, -145621.7, 2974.8433, 0.25896415, 0.5510077, 118705.195, 118705.195, 0.00007081512, 10.0016575, 9.998198 
2.1345232e+3, 1.2946515e+2, -1811157.5, -1595371.9, 7481.944, 0.16348112, -0.14417355, -1595112.8, 76152.734, 0.38411817, 9.997968, 10.001434 
2.1345879e+3, 1.394707e+2, -1637958.6, -1536833.9, 97467.25, 0.072742164, 0.32291317, -1477594.5, 95617.164, 0.24951555, 9.998966, 10.000529 
2.1346553e+3, 1.4947142e+2, -1568726.4, -1482545.5, 123250.03, 0.032329924, 0.3779836, -1395070.4, 80134.62, 0.13052814, 9.998937, 10.000135 
2.1347229e+3, 1.5947084e+2, -1539551.9, -1491672.1, 52236.027, 0.01606465, 0.34853977, -1458151.4, -80940.26, 0.050404422, 9.998773, 9.999428 
2.1347895e+3, 1.69469e+2, -1439513.8, -1466833.5, -1051.4362, -0.007602867, 0.2799906, -1439473.4, -160243.19, 0.012084308, 9.999124, 9.998746 
2.134856e+3, 1.7946707e+2, -1228793.0, -1243737.8, -14222.75, -0.028621495, 0.22780319, -1220199.1, -38949.477, 0.001155736, 9.999586, 9.999387 
2.1349233e+3, 1.8946737e+2, -934703.9, -932034.2, 46125.855, 0.005037261, 0.2543979, -887223.9, 196022.25, 0.000030850606, 10.000429, 10.000442 
2.1349907e+3, 1.994679e+2, -795673.75, -897699.06, 97233.37, 0.026367752, 0.3050563, -736883.75, 248356.94, 0.0, 10.001073, 9.999696 
2.1350572e+3, 2.0946723e+2, -895382.4, -977129.06, 84849.77, -0.11681177, 0.3338405, -842074.44, 45175.01, 0.0, 10.000075, 9.998956 
2.1351233e+3, 2.1946631e+2, -949268.8, -920848.3, 26488.586, -0.2697351, 0.36633894, -904999.0, -115737.95, 0.0, 9.998901, 9.999232 
2.1351902e+3, 2.2946504e+2, -770661.4, -723017.2, 5403.365, -0.2420336, 0.28716743, -722412.06, -31139.559, 0.0, 9.999196, 9.999773 
2.1352573e+3, 2.3946346e+2, -590692.94, -580589.7, 63178.367, -0.19789428, 0.17986313, -522261.3, 71024.4, 0.0, 9.999732, 9.999821 
2.1353264e+3, 2.4946304e+2, -342022.16, -384146.34, 152503.98, -0.16743423, 0.1474024, -209132.7, 286152.94, 0.0, 10.00066, 10.000048 
2.1353963e+3, 2.59463e+2, -257318.97, -514431.6, 175718.97, -0.10616685, 0.21595004, -168150.95, 229132.11, 0.0, 10.00152, 9.998069 
2.1354659e+3, 2.6946142e+2, -344465.53, -728697.3, 84213.875, -0.050272446, 0.40196285, -326818.47, -27508.227, 0.00000000014169585, 10.001214, 9.996068 
2.1355344e+3, 2.7945852e+2, -179203.36, -368999.1, 4985.6367, -0.08800936, 0.48308736, -179072.48, 22277.588, 0.000000256191, 10.000683, 9.998122 
2.135603e+3, 2.8945687e+2, 454508.63, 243535.05, 81746.164, -0.0945843, 0.3313397, 482475.56, 585832.6, 0.0000052967753, 10.003246, 10.000429 
2.1356733e+3, 2.994566e+2, 566246.4, -184389.28, 39214.72, 0.010899718, 0.42725325, 568289.5, 573638.94, 0.000025183504, 10.005886, 9.995882 
2.1357334e+3, 3.094481e+2, -186001.47, -737550.5, -258695.84, -0.34343818, 0.2821558, -83655.47, -83655.47, 0.00006321881, 10.001529, 9.9941845 
2.144521e+3, 1.2940058e+2, -1787867.3, -1596797.9, -47589.414, 0.16312744, 0.05749673, -1585601.0, 86299.13, 0.40760165, 9.998186, 10.001364 
2.1445873e+3, 1.3940307e+2, -1559467.1, -1535866.5, -77617.33, 0.13473225, 0.24056225, -1469157.6, 104716.2, 0.26811564, 9.999746, 10.000142 
2.1446542e+3, 1.4940405e+2, -1469591.4, -1503507.0, -74182.65, 0.024027321, 0.38009456, -1410453.0, 65414.277, 0.14296411, 9.99995, 9.999475 
2.1447214e+3, 1.5940426e+2, -1384107.6, -1423505.0, -100828.09, -0.047255117, 0.48779494, -1301072.0, 76796.164, 0.057087187, 9.999898, 9.999363 
2.1447885e+3, 1.6940168e+2, -1288456.5, -1312184.9, -61726.477, -0.015490341, 0.29741827, -1237464.4, 42425.785, 0.014719365, 9.999817, 9.999476 
2.1448557e+3, 1.7939895e+2, -1211918.1, -1199047.4, 11454.45, 0.030842887, 0.10061088, -1192344.4, -10431.448, 0.0017550356, 9.999557, 9.999704 
2.1449229e+3, 1.8940009e+2, -1191455.8, -1086673.3, -29623.139, 0.016430179, 0.22093514, -1078878.4, 5025.5405, 0.00008036648, 9.99881, 10.00016 
2.1449898e+3, 1.9940156e+2, -1221592.1, -1088507.8, -83205.73, -0.011255152, 0.38993058, -1048508.56, -62615.926, 0.000000018813253, 9.998089, 9.999824 
2.1450564e+3, 2.0940088e+2, -1002229.25, -955706.8, -11721.871, -0.12440747, 0.36971506, -952920.25, -65019.992, 0.0, 9.999033, 9.999601 
2.145123e+3, 2.1939978e+2, -749880.56, -805603.94, 51657.4, -0.22514068, 0.33057728, -719050.1, 70861.414, 0.0, 10.000179, 9.9994135 
2.1451904e+3, 2.2939852e+2, -613094.5, -695585.5, 4715.265, -0.16786686, 0.27882707, -612825.8, 79097.875, 0.0, 10.000483, 9.999346 
2.1452583e+3, 2.3939702e+2, -482227.44, -560572.1, 11431.37, -0.0967303, 0.2193769, -480593.53, 113343.95, 0.0, 10.000616, 9.999534 
2.1453273e+3, 2.493963e+2, -323348.03, -382986.56, 24565.852, -0.12623824, 0.17444202, -314532.22, 181408.2, 0.0, 10.000819, 9.999981 
2.1453969e+3, 2.5939596e+2, -324385.28, -558821.8, 531.1835, -0.14630865, 0.2192121, -324384.06, 73556.82, 0.0, 10.001103, 9.99797 
2.1454665e+3, 2.6939413e+2, -209498.7, -685236.8, 39216.465, -0.13525726, 0.4063536, -206287.64, 93682.33, 0.00000000016893417, 10.002231, 9.995879 
2.1455356e+3, 2.7939117e+2, 186740.38, -213782.61, 104950.92, -0.14547104, 0.492457, 212574.78, 414585.75, 0.0000002738674, 10.003266, 9.997957 
2.1456061e+3, 2.893898e+2, 258143.81, 154368.66, 47511.074, -0.01997871, 0.38741788, 276609.78, 380627.3, 0.0000047479944, 10.001882, 10.000468 
2.1456778e+3, 2.9939094e+2, -162515.66, -533471.7, -67367.74, 0.17946407, 0.6083025, -150660.17, -144660.98, 0.00002151286, 10.000803, 9.995966 
2.1457365e+3, 3.0938005e+2, 522629.44, -292394.6, -133565.88, -0.3943603, 0.21099257, 543959.94, 543959.94, 0.00005359743, 10.005959, 9.995089 
2.1545176e+3, 1.2933928e+2, -1867674.5, -1726262.4, 39224.215, -0.005834122, 0.81734455, -1716111.3, -43599.46, 0.43279883, 9.998226, 10.000075 
2.1545881e+3, 1.3933276e+2, -1591072.0, -1628516.4, -78074.04, 0.21789467, 0.21337025, -1529506.8, 45062.87, 0.28823382, 9.999878, 9.999341 
2.1546547e+3, 1.4933261e+2, -1464872.4, -1509501.1, -78314.9, 0.0810683, 0.26743045, -1405754.9, 70818.414, 0.15688464, 10.000028, 9.999402 
2.1547207e+3, 1.5933353e+2, -1316923.6, -1300905.9, -104610.51, -0.08599721, 0.4388837, -1203998.1, 174568.61, 0.06501248, 9.999975, 10.000197 
2.1547888e+3, 1.693329e+2, -1128185.8, -988033.75, -64401.76, 0.01944584, 0.2586721, -962935.0, 317627.94, 0.018139776, 9.999853, 10.0017185 
2.1548565e+3, 1.7933196e+2, -1181136.6, -1146015.6, -6489.7036, 0.14575815, 0.058230657, -1144854.8, 37707.125, 0.0026903055, 9.999597, 10.000053 
2.1549214e+3, 1.893318e+2, -1333348.6, -1386625.8, -58360.758, 0.014492995, 0.18816464, -1295834.3, -211262.33, 0.00019736934, 9.998831, 9.998092 
2.1549863e+3, 1.993318e+2, -1234397.3, -1115200.6, -82734.15, -0.14936805, 0.37607124, -1072833.8, -86250.95, 0.0000007869328, 9.998087, 9.999642 
2.1550551e+3, 2.0933257e+2, -844030.8, -621177.7, 39593.066, -0.120490596, 0.33702743, -614352.44, 274218.4, 0.0, 9.999001, 10.001917 
2.1551247e+3, 2.193332e+2, -704820.3, -692978.2, 78599.07, -0.05118116, 0.27188867, -620077.44, 170480.67, 0.0, 10.0001, 10.000222 
2.155193e+3, 2.2933249e+2, -707216.2, -875778.7, 11850.413, 0.030297736, 0.33853948, -706387.2, -13818.415, 0.0, 10.000421, 9.998137 
2.1552607e+3, 2.3933135e+2, -577375.1, -737469.0, 16160.308, 0.0887395, 0.43474078, -575760.1, 18824.857, 0.0, 10.00053, 9.998358 
2.1553285e+3, 2.4932915e+2, -405795.7, -547442.6, 38315.445, -0.06256138, 0.35484388, -396095.63, 100510.086, 0.0, 10.0007925, 9.998864 
2.1553968e+3, 2.5932658e+2, -307561.72, -508670.3, 27245.063, -0.26364303, 0.25260445, -303936.06, 94693.45, 0.0, 10.001045, 9.998338 
2.1554668e+3, 2.693249e+2, -69771.38, -385005.28, 92063.625, -0.31652865, 0.28956884, -44853.914, 255795.64, 0.0, 10.002191, 9.997957 
2.1555372e+3, 2.7932364e+2, 159808.81, -232027.2, 94909.25, -0.30970556, 0.39932328, 181586.98, 384252.94, 0.000000100631844, 10.00312, 9.997893 
2.1556064e+3, 2.8932226e+2, 90024.805, -196612.83, -13299.981, -0.15634547, 0.460809, 90640.6, 195320.77, 0.0000031808088, 10.001881, 9.998061 
2.155677e+3, 2.9931983e+2, -108153.99, -354469.94, -5010.6895, 0.010028062, 0.46548724, -108052.1, -101347.086, 0.000016571294, 10.000561, 9.997285 
2.1557444e+3, 3.0931702e+2, 662251.1, 121196.945, 184453.84, -0.21271814, 0.47622135, 719150.5, 719150.5, 0.000044980578, 10.005399, 9.998222 
2.1645163e+3, 1.2927032e+2, -1627910.1, -1653621.8, 6990.039, -0.011098701, 0.8363201, -1626132.6, 47056.414, 0.45757636, 10.000324, 9.999675 
2.1645878e+3, 1.3926287e+2, -1695342.0, -1678757.8, -27009.121, 0.26147193, 0.16437866, -1658796.5, -83541.29, 0.3088363, 9.999091, 9.9993305 
2.1646547e+3, 1.492628e+2, -1589293.4, -1536332.4, -6165.3203, 0.14843516, 0.20555411, -1535624.1, -58366.47, 0.17204043, 9.998979, 9.999688 
2.1647207e+3, 1.5926409e+2, -1467208.0, -1346185.4, -8584.369, -0.012940768, 0.383525, -1345579.5, 33667.91, 0.07433442, 9.998783, 10.000437 
2.1647881e+3, 1.6926433e+2, -1266792.0, -1036436.75, -93242.33, 0.042538676, 0.26832134, -1003425.25, 277810.8, 0.022589553, 9.998793, 10.001901 
2.1648552e+3, 1.7926414e+2, -1290881.5, -1179331.5, -163658.11, 0.12873721, 0.12677662, -1062205.3, 121023.36, 0.00413868, 9.998754, 10.000234 
2.1649204e+3, 1.8926366e+2, -1285777.9, -1351078.6, -112548.28, 0.04483972, 0.21155116, -1201239.6, -115997.88, 0.00045452762, 9.999097, 9.998212 
2.1649858e+3, 1.9926317e+2, -1032120.5, -1004131.1, 16969.623, -0.04942677, 0.338368, -996129.94, -8873.326, 0.000007502901, 9.99941, 9.999768 
2.165055e+3, 2.0926401e+2, -776169.5, -574170.0, 41655.78, -0.031876437, 0.29457587, -565917.0, 323325.5, 0.0, 9.999406, 10.002044 
2.1651247e+3, 2.192648e+2, -805403.94, -726876.8, -55269.367, 0.005808188, 0.23360918, -698344.1, 92882.75, 0.0, 9.9993515, 10.000348 
2.1651928e+3, 2.2926407e+2, -772494.2, -894599.94, -78068.91, 0.050955415, 0.28922245, -734440.0, -41202.83, 0.0, 9.99992, 9.998245 
2.165261e+3, 2.3926295e+2, -577865.2, -753868.8, 22348.55, 0.09545636, 0.3842749, -575071.75, 20181.229, 0.0, 10.00059, 9.99822 
2.1653296e+3, 2.4926111e+2, -375749.8, -575926.0, 93340.48, -0.029290382, 0.3744584, -338980.03, 158292.64, 0.0, 10.001193, 9.998467 
2.1653984e+3, 2.5925872e+2, -207195.48, -469135.4, 123078.18, -0.19733286, 0.32026994, -158439.63, 240857.23, 0.0, 10.001771, 9.99826 
2.165469e+3, 2.6925635e+2, -48073.457, -341052.8, 96183.37, -0.28144884, 0.26965013, -19319.121, 282002.53, 0.0, 10.0022, 9.998253 
2.1655399e+3, 2.7925476e+2, 79470.055, -278395.44, -5683.2295, -0.28944093, 0.32502842, 79560.29, 282899.13, 0.0000000029805467, 10.002598, 9.997826 
2.1656081e+3, 2.8925365e+2, 227131.28, -161292.25, -70581.52, -0.21522473, 0.45280424, 239559.2, 344911.22, 0.0000013452404, 10.002978, 9.997763 
2.1656777e+3, 2.992505e+2, 291667.6, -157679.0, 72515.51, -0.07821155, 0.39144573, 303080.28, 310466.34, 0.000010696579, 10.003251, 9.997362 
2.1657488e+3, 3.0924988e+2, 320839.34, -11961.769, 58042.27, -0.13762093, 0.59528357, 330671.72, 330671.72, 0.000035608395, 10.002957, 9.998452 
2.1745181e+3, 1.291917e+2, -1585029.5, -1601877.6, -67468.06, 0.11878881, -0.06828744, -1525461.6, 148487.25, 0.48078975, 10.000698, 10.000174 
2.1745864e+3, 1.391934e+2, -1633267.9, -1559346.8, -22337.846, 0.216532, 0.09083739, -1553121.0, 22808.777, 0.32934, 9.999095, 10.000219 
2.1746539e+3, 1.4919488e+2, -1544363.6, -1443907.3, -2565.4312, 0.18290089, 0.20727044, -1443841.8, 34075.56, 0.18832743, 9.998948, 10.000389 
2.1747208e+3, 1.5919608e+2, -1487424.1, -1399807.3, -7729.4517, 0.121622846, 0.3266906, -1399130.6, -19222.232, 0.0852701, 9.998833, 10.00003 
2.1747863e+3, 1.6919595e+2, -1405929.9, -1327518.9, -88961.35, 0.01872398, 0.3298623, -1269507.1, 12402.434, 0.028395085, 9.998818, 9.99985 
2.1748517e+3, 1.791954e+2, -1298147.6, -1206887.6, -161606.28, -0.07157785, 0.31768918, -1084593.0, 99321.7, 0.006367479, 9.998805, 10.00002 
2.17492e+3, 1.8919545e+2, -1116680.3, -1008647.4, -95616.41, 0.07636563, 0.2925012, -952844.5, 133070.92, 0.0009868387, 9.999128, 10.000547 
2.1749881e+3, 1.9919546e+2, -997366.75, -933889.94, 21024.209, 0.24581558, 0.27402827, -927558.1, 60357.9, 0.000047582707, 9.999412, 10.000253 
2.1750556e+3, 2.0919512e+2, -923542.3, -873334.1, 41644.07, 0.113062374, 0.24242142, -849812.6, 40103.28, 0.00000000032497088, 9.9993725, 10.000006 
2.1751231e+3, 2.1919452e+2, -857853.6, -820848.56, -46654.508, -0.08241057, 0.21559191, -789161.6, 2756.3086, 0.0, 9.999289, 9.999731 
2.1751909e+3, 2.2919326e+2, -685410.5, -706535.6, -46782.387, -0.119371764, 0.14051409, -648013.06, 45915.77, 0.0, 9.999888, 9.999551 
2.1752596e+3, 2.3919195e+2, -536770.2, -639986.2, 42468.08, -0.11197602, 0.09417933, -521543.13, 74397.86, 0.0, 10.00048, 9.999048 
2.1753304e+3, 2.4919207e+2, -375344.28, -559287.6, 115429.11, -0.05980043, 0.24619034, -319726.44, 178216.72, 0.0, 10.001135, 9.998605 
2.1754019e+3, 2.5919196e+2, -249411.84, -537104.2, 134114.8, -0.022607733, 0.4175429, -196589.52, 203358.8, 0.0, 10.001691, 9.9978285 
2.175473e+3, 2.6918834e+2, -145814.48, -527214.3, 117843.17, -0.095064975, 0.3436723, -112341.54, 189646.03, 0.0, 10.00213, 9.997008 
2.1755432e+3, 2.7918452e+2, 36372.72, -313101.6, 12461.199, -0.1988161, 0.27362844, 36816.484, 240845.22, 0.0, 10.002378, 9.9976845 
2.1756104e+3, 2.891836e+2, 299642.44, -6124.9995, -49995.863, -0.27735406, 0.33251092, 307609.66, 413647.2, 0.00000028754212, 10.002959, 9.998837 
2.1756797e+3, 2.9918143e+2, 200047.34, -298663.1, 63101.0, -0.20293339, 0.32651666, 207907.53, 215966.98, 0.0000061160813, 10.003089, 9.996446 
2.1757524e+3, 3.0918e+2, 95841.24, -399188.75, 35512.555, -0.07729819, 0.68388784, 98375.875, 98375.875, 0.00002746077, 10.002593, 9.995984 
2.1845855e+3, 1.3912517e+2, -1870912.9, -1574919.3, -52608.504, 0.34227163, 0.20703395, -1565846.9, 10756.262, 0.34983045, 9.997049, 10.001065 
2.1846516e+3, 1.4912702e+2, -1665624.3, -1434596.4, -66190.14, 0.1485743, 0.29214182, -1416976.5, 61608.168, 0.2059314, 9.997804, 10.001058 
2.1847194e+3, 1.5912737e+2, -1573764.0, -1408692.6, -69604.0, 0.17280413, 0.27199388, -1383261.4, -2680.3936, 0.09816949, 9.998124, 10.000308 
2.1847849e+3, 1.6912766e+2, -1525167.0, -1412557.1, -52818.57, 0.042657793, 0.33055642, -1391660.6, -109080.19, 0.036017943, 9.998152, 9.999579 
2.1848498e+3, 1.7912775e+2, -1416560.1, -1275512.1, -4209.768, -0.08644979, 0.40436673, -1275386.6, -90804.516, 0.009796201, 9.998048, 9.999909 
2.1849185e+3, 1.8912752e+2, -1263886.6, -1069092.5, -56175.863, 0.09283083, 0.3492861, -1054053.3, 32530.656, 0.0020521113, 9.998079, 10.000631 
2.1849874e+3, 1.9912711e+2, -1187494.6, -1043290.94, -70828.695, 0.3037217, 0.28440496, -1014321.6, -25734.736, 0.00020967671, 9.998202, 10.000077 
2.1850552e+3, 2.0912635e+2, -914034.2, -931514.4, 17560.254, 0.118328065, 0.26093063, -903159.2, -12567.172, 0.00000086887735, 9.99972, 9.999436 
2.1851225e+3, 2.191254e+2, -571128.44, -697666.2, 16818.633, -0.1355485, 0.24831669, -568931.2, 223667.67, 0.0, 10.001307, 9.999612 
2.1851905e+3, 2.2912437e+2, -463773.5, -537268.56, -38449.344, -0.19374578, 0.16237518, -447335.22, 247270.34, 0.0, 10.001144, 10.000106 
2.185259e+3, 2.3912337e+2, -491360.78, -606708.44, 13066.863, -0.18242207, 0.09829438, -489899.06, 106713.6, 0.0, 10.000731, 9.999162 
2.185331e+3, 2.4912284e+2, -364113.2, -609562.6, 53476.773, -0.08944701, 0.22075394, -352968.1, 145653.45, 0.0, 10.001437, 9.998125 
2.1854036e+3, 2.5912222e+2, -185116.05, -502095.88, 36258.426, -0.008375493, 0.3745375, -181021.44, 219611.5, 0.0, 10.002116, 9.997864 
2.1854743e+3, 2.6911944e+2, -175277.11, -465089.44, 84767.695, -0.10086628, 0.3420313, -152304.28, 150358.34, 0.0, 10.001602, 9.997687 
2.1855447e+3, 2.7911657e+2, -103735.45, -343860.03, 122221.49, -0.19653755, 0.2978908, -52470.434, 152222.33, 0.0, 10.0012455, 9.998029 
2.1856132e+3, 2.8911522e+2, 315148.44, -27878.744, 22211.082, -0.27026403, 0.3333609, 316580.63, 423286.75, 0.000000027227998, 10.003194, 9.998576 
2.1856828e+3, 2.9911286e+2, 455422.4, -195324.0, 27553.727, -0.26606295, 0.32946786, 456587.0, 465317.3, 0.0000044959556, 10.004891, 9.996309 
2.1857549e+3, 3.091107e+2, 237375.48, -144989.03, 73627.66, -0.06641889, 0.59374225, 251063.16, 251063.16, 0.000025056414, 10.002742, 9.997664 
2.1945845e+3, 1.3905849e+2, -1829017.6, -1500917.3, 11432.892, 0.5447018, 0.57398003, -1500519.4, 76754.75, 0.371045, 9.99693, 10.001904 
2.1946476e+3, 1.4905919e+2, -1633581.6, -1373889.1, -40165.105, -0.0065374835, 0.48388478, -1367818.9, 111441.875, 0.22535217, 9.997755, 10.001615 
2.1947165e+3, 1.590578e+2, -1507398.6, -1289142.0, -62396.953, 0.08511186, 0.23080328, -1272562.9, 108704.38, 0.113554515, 9.998153, 10.0012045 
2.1947834e+3, 1.6905923e+2, -1412471.5, -1182878.4, -48775.246, 0.08633357, 0.26384676, -1172946.1, 110304.34, 0.046104282, 9.998154, 10.001186 
2.1948494e+3, 1.7906103e+2, -1409826.8, -1266274.5, -1919.1376, 0.05231896, 0.37606066, -1266248.8, -81016.97, 0.015073848, 9.998063, 9.999969 
2.194916e+3, 1.8905988e+2, -1418748.9, -1389577.1, -49166.74, 0.06261088, 0.38519067, -1352878.4, -265631.53, 0.004138987, 9.998079, 9.99843 
2.1949829e+3, 1.9905807e+2, -1258541.0, -1190017.6, -45243.62, 0.06918334, 0.37682444, -1167526.8, -178257.48, 0.00072646124, 9.998197, 9.999072 
2.195053e+3, 2.0905751e+2, -866426.3, -819842.25, 89223.75, -0.05195386, 0.34395453, -750920.44, 140352.28, 0.000022642807, 9.999666, 10.000226 
2.195123e+3, 2.1905722e+2, -565285.2, -653477.94, 45851.91, -0.19821706, 0.3261512, -545766.4, 247505.55, 0.000000000011542125, 10.001168, 9.999982 
2.1951914e+3, 2.290571e+2, -487795.9, -574546.8, -58539.49, -0.21094121, 0.334968, -458313.28, 236956.95, 0.0, 10.001085, 9.999879 
2.1952598e+3, 2.390567e+2, -546303.75, -691838.7, 8572.899, -0.17941579, 0.3607993, -545800.5, 51471.582, 0.0, 10.000619, 9.998625 
2.1953318e+3, 2.4905342e+2, -440791.16, -757185.1, 92123.03, -0.14704058, 0.2891797, -415922.75, 83384.74, 0.0, 10.00139, 9.997132 
2.1954039e+3, 2.5904974e+2, -189094.25, -470341.22, 42697.676, -0.18688364, 0.21392928, -182754.97, 218592.44, 0.0, 10.001963, 9.998144 
2.1954736e+3, 2.690494e+2, -33778.777, -155509.56, 56623.87, -0.3100935, 0.26159814, -11512.596, 291836.22, 0.0, 10.00155, 9.999829 
2.1955444e+3, 2.7904987e+2, -62864.742, -242397.7, 133828.1, -0.339341, 0.36629602, 8514.61, 213856.25, 0.0, 10.001182, 9.998754 
2.1956167e+3, 2.8904817e+2, 180826.1, -261283.92, 114010.7, -0.24338903, 0.4424089, 208495.34, 315857.1, 0.000000020729713, 10.002993, 9.997072 
2.1956858e+3, 2.990441e+2, 406874.56, -162632.94, 19930.516, -0.44872943, 0.3895069, 407571.22, 416976.03, 0.0000055230016, 10.00436, 9.996761 
2.1957566e+3, 3.0903894e+2, 451508.16, 324130.56, 69242.83, -0.16412158, 0.10001956, 481898.22, 481898.22, 0.000029811183, 10.002663, 10.000915 
2.2045814e+3, 1.3899025e+2, -1640471.3, -1501208.5, -8210.707, 0.4952568, 0.7071699, -1500726.1, 77224.266, 0.39437363, 9.998584, 10.001146 
2.204646e+3, 1.4899099e+2, -1645358.8, -1355445.9, -19812.152, 0.0753934, 0.6261513, -1354098.3, 125837.82, 0.24751917, 9.997521, 10.001923 
2.204715e+3, 1.5898915e+2, -1494855.0, -1269252.5, -59693.043, 0.13625143, 0.29149744, -1254431.8, 127513.47, 0.13222682, 9.998128, 10.001401 
2.2047819e+3, 1.6899034e+2, -1349767.8, -1174999.5, -170291.16, 0.11934384, 0.30755064, -1070980.8, 212949.52, 0.059555795, 9.998639, 10.001065 
2.2048475e+3, 1.789919e+2, -1286886.3, -1212467.0, -226729.86, 0.052744128, 0.40821144, -1019913.75, 165999.95, 0.023171267, 9.998929, 9.999941 
2.2049142e+3, 1.8899073e+2, -1214116.0, -1298735.8, -167867.33, 0.031059662, 0.42135683, -1083308.8, 4619.6177, 0.008108057, 9.999511, 9.998373 
2.2049814e+3, 1.9898887e+2, -1000154.94, -1070075.4, -15022.906, 0.03323015, 0.41769132, -997063.8, -7113.8525, 0.0021629941, 9.999978, 9.999046 
2.205052e+3, 2.0898835e+2, -943021.94, -849745.2, 97505.74, -0.037818924, 0.38561955, -788297.94, 103654.96, 0.00023583506, 9.999096, 10.000301 
2.2051233e+3, 2.1898814e+2, -1025618.75, -885390.3, 20793.947, -0.12003003, 0.37297595, -882371.9, -88420.06, 0.0000019906881, 9.998066, 9.999877 
2.2051917e+3, 2.2898796e+2, -783530.9, -761739.4, -105245.93, -0.15924133, 0.407879, -666826.7, 29125.24, 0.0, 9.999255, 9.9994755 
2.2052602e+3, 2.3898713e+2, -516118.5, -686007.6, -33579.176, -0.16212352, 0.43116635, -509722.28, 88236.93, 0.0, 10.000857, 9.998554 
2.2053325e+3, 2.4898389e+2, -392971.56, -673730.0, 118942.336, -0.1751554, 0.3297153, -349357.28, 150635.39, 0.0, 10.001497, 9.997631 
2.2054051e+3, 2.589808e+2, -210488.16, -491374.06, 125862.73, -0.22821751, 0.27594608, -162342.53, 239682.3, 0.0, 10.001855, 9.99806 
2.2054753e+3, 2.6898047e+2, -54514.086, -250680.72, -27386.688, -0.2831184, 0.38078615, -50762.4, 253265.02, 0.0, 10.001766, 9.999077 
2.2055463e+3, 2.789799e+2, -48086.508, -256546.27, -85206.63, -0.24441522, 0.4440763, -17690.84, 188340.83, 0.0, 10.001379, 9.998558 
2.2056186e+3, 2.8897673e+2, -53951.637, -292355.1, -21921.83, -0.21306594, 0.34638527, -51952.63, 56110.855, 0.00000007580395, 10.001033, 9.997802 
2.2056885e+3, 2.989748e+2, -21980.756, -315096.75, 19648.252, -0.41490594, 0.42427543, -20669.553, -10587.905, 0.0000083740215, 10.001143, 9.997284 
2.2057612e+3, 3.0896854e+2, 846209.3, 470454.38, -34530.91, -0.10079566, 0.03888992, 849356.25, 849356.25, 0.000042885644, 10.005551, 10.000534 
2.2145772e+3, 1.3892116e+2, -1793955.9, -1774609.0, -237166.06, 0.19819976, 0.68700737, -1546919.1, 31704.129, 0.4221777, 9.99868, 9.998956 
2.2146465e+3, 1.4892198e+2, -1647294.1, -1361024.4, 2031.3846, 0.39313984, 0.69485545, -1361009.9, 119603.83, 0.27423543, 9.997514, 10.001922 
2.2147146e+3, 1.5892129e+2, -1527796.4, -1334616.8, -41800.832, 0.2939646, 0.4748658, -1325959.8, 56656.32, 0.15564767, 9.9981365, 10.000895 
2.2147803e+3, 1.6892093e+2, -1474426.0, -1433134.8, -160592.36, 0.10923378, 0.47971523, -1291866.4, -7245.5947, 0.07778218, 9.998641, 9.999226 
2.2148445e+3, 1.7892025e+2, -1297132.6, -1249475.4, -215905.97, -0.14256191, 0.5120662, -1056087.0, 130542.43, 0.035576556, 9.998993, 9.9996605 
2.2149128e+3, 1.8891981e+2, -1066558.8, -997344.5, -141190.72, -0.038583335, 0.4618191, -886581.5, 202048.97, 0.0154146915, 9.999532, 10.000444 
2.2149824e+3, 1.9891936e+2, -927657.7, -922363.7, -21213.092, 0.14454575, 0.4091621, -903633.06, 86997.41, 0.005714695, 9.999986, 10.000061 
2.2150527e+3, 2.0891884e+2, -982547.6, -931993.75, 54080.65, 0.12219966, 0.38545588, -897574.5, -4941.2925, 0.0013616167, 9.999093, 9.99974 
2.2151226e+3, 2.1891831e+2, -1079086.9, -985063.25, 15633.1455, 0.0384371, 0.4045519, -982532.1, -187895.39, 0.00013056793, 9.998014, 9.999219 
2.2151917e+3, 2.2891694e+2, -829950.2, -853327.06, -35988.137, -0.07325602, 0.38318625, -803800.0, -107149.305, 0.0000045921656, 9.999226, 9.998863 
2.2152607e+3, 2.3891486e+2, -518523.8, -653504.0, 6055.766, -0.18607254, 0.32341096, -518252.7, 80419.61, 0.000000030624218, 10.000709, 9.998841 
2.2153334e+3, 2.4891405e+2, -294779.13, -443603.56, 132443.7, -0.21484186, 0.33919132, -217275.2, 283404.34, 0.0, 10.001386, 9.999265 
2.215407e+3, 2.5891444e+2, -262378.66, -549660.5, 116443.26, -0.20854177, 0.511694, -221109.48, 181565.7, 0.0, 10.001654, 9.99775 
2.2154787e+3, 2.6891243e+2, -294403.53, -714486.4, -36360.76, -0.09466784, 0.6760446, -291279.5, 13419.757, 0.0, 10.001629, 9.995953 
2.2155501e+3, 2.7890724e+2, -151813.45, -430878.13, -91694.49, -0.02209753, 0.5505513, -124381.27, 82374.125, 0.0, 10.0012245, 9.997423 
2.2156191e+3, 2.8890124e+2, 107022.7, 24868.377, -22339.47, -0.23486538, 0.0592433, 112704.336, 221511.84, 0.00000027397763, 10.001129, 9.999923 
2.2156906e+3, 2.989045e+2, 54758.082, -185475.25, 73581.71, -0.30104434, 0.44706354, 75504.05, 86270.59, 0.000015050563, 10.001298, 9.998085 
2.2157654e+3, 3.0889913e+2, 453096.66, -163609.92, 233240.4, -0.22372848, 0.2897156, 531373.5, 531373.5, 0.00007034586, 10.004759, 9.996563 
2.2245762e+3, 1.388469e+2, -1364224.0, -1610600.0, -283750.78, 0.01507651, 0.04514839, -1178074.3, 401271.9, 0.45833313, 10.003429, 9.998395 
2.2246446e+3, 1.4885296e+2, -1680562.9, -1478283.1, 80568.88, 0.4595835, 0.65980065, -1450114.8, 31173.469, 0.30885017, 9.9978695, 10.000712 
2.2247122e+3, 1.5885107e+2, -1566346.9, -1435110.8, -33578.62, 0.25078672, 0.4391075, -1427018.3, -43712.71, 0.18666483, 9.99829, 10.00005 
2.2247785e+3, 1.6885065e+2, -1479558.3, -1441818.0, -81174.24, 0.0871436, 0.46868885, -1377349.4, -92037.35, 0.103338934, 9.998668, 9.999143 
2.2248438e+3, 1.7885034e+2, -1315255.3, -1280160.3, -22132.496, -0.08762416, 0.5460115, -1269463.0, -82145.33, 0.054786276, 9.99895, 9.999461 
2.2249123e+3, 1.8884961e+2, -1091467.1, -1043858.5, -66112.65, -0.028975023, 0.49367726, -997395.25, 91925.63, 0.028543482, 9.999494, 10.000142 
2.2249816e+3, 1.9884866e+2, -940398.75, -955521.3, -120708.99, 0.0915009, 0.41963392, -827014.44, 164310.5, 0.013685946, 10.000029, 9.999809 
2.225052e+3, 2.0884782e+2, -881137.5, -907379.9, -99170.97, 0.123492904, 0.39039785, -794223.44, 99107.3, 0.005262215, 9.999899, 9.999522 
2.225122e+3, 2.1884695e+2, -837703.94, -887415.0, -72848.336, 0.12611777, 0.3992324, -785587.56, 9750.242, 0.001420654, 9.999735, 9.999068 
2.2251916e+3, 2.2884588e+2, -699791.9, -787708.1, -44243.08, -0.010814877, 0.4089026, -681382.0, 15967.273, 0.0002619265, 10.0001, 9.998897 
2.2252612e+3, 2.3884417e+2, -559136.75, -687148.1, 14836.265, -0.16333306, 0.39238587, -557439.75, 41927.434, 0.000035642544, 10.000479, 9.998727 
2.2253345e+3, 2.4884276e+2, -472189.3, -553661.9, 21245.334, -0.16429204, 0.36523044, -466982.06, 34398.04, 0.0000011567587, 10.000247, 9.999071 
2.2254083e+3, 2.5884217e+2, -507152.13, -649211.0, -69216.625, -0.11085534, 0.4562286, -479004.34, -75619.516, 0.0, 9.9998865, 9.997916 
2.2254798e+3, 2.6884058e+2, -349360.44, -650823.25, -40023.08, -0.0875705, 0.6050028, -344137.38, -38733.496, 0.0, 10.000874, 9.996748 
2.2255503e+3, 2.7883643e+2, -72894.51, -400078.06, 129897.9, -0.11296421, 0.51614475, -27594.605, 179853.86, 0.0, 10.001793, 9.997368 
2.225621e+3, 2.888301e+2, 363188.88, -22457.092, 81152.44, -0.2770348, 0.10086959, 379570.13, 489077.13, 0.00000073017384, 10.003614, 9.998407 
2.2256948e+3, 2.9883263e+2, 647956.5, 120084.53, -53999.117, -0.21468705, 0.5059392, 653423.75, 664900.9, 0.00002755439, 10.005288, 9.998266 
2.2257668e+3, 3.0882746e+2, -218885.56, -319600.44, 102485.11, -0.2498042, 0.24165724, -155054.27, -155054.27, 0.000118261974, 9.999429, 9.998047 
2.2346398e+3, 1.4878422e+2, -1864297.4, -1807938.8, 89481.76, 0.21405163, 0.5561564, -1742304.1, -260348.31, 0.35698506, 9.997706, 9.998435 
2.234707e+3, 1.5877812e+2, -1669033.5, -1640617.8, -23409.568, -0.081951484, 0.14340913, -1627441.9, -243424.86, 0.23053116, 9.998254, 9.998658 
2.2347763e+3, 1.6877915e+2, -1372246.0, -1220109.3, -60252.22, 0.015820647, 0.24162152, -1199137.9, 86869.28, 0.14104874, 9.998619, 10.000778 
2.2348452e+3, 1.7878196e+2, -1320951.0, -1286208.8, -4653.6167, 0.18660639, 0.49353108, -1285596.3, -97616.734, 0.08532412, 9.998923, 9.999431 
2.2349124e+3, 1.8878004e+2, -1280168.8, -1431630.9, -40193.383, 0.039088126, 0.5090939, -1270163.6, -180163.95, 0.05187056, 9.999475, 9.997479 
2.234979e+3, 1.9877693e+2, -1057999.6, -1193424.8, -111227.45, -0.17002034, 0.4651162, -995494.94, -3463.0593, 0.030293982, 9.999996, 9.998186 
2.2350498e+3, 2.0877524e+2, -877649.5, -896376.2, -102767.96, -0.060664464, 0.3945795, -783819.2, 110227.305, 0.015773455, 9.999881, 9.999613 
2.2351213e+3, 2.18774e+2, -835351.2, -852747.94, -72609.68, 0.09567791, 0.35489818, -770920.75, 25135.094, 0.0069356123, 9.9996195, 9.999354 
2.2351916e+3, 2.2877456e+2, -663869.25, -699519.8, -24743.773, -0.008535268, 0.47268215, -651198.7, 46850.87, 0.002541045, 10.000044, 9.999525 
2.2352616e+3, 2.3877478e+2, -611639.7, -759364.6, 8711.196, -0.15342584, 0.6142085, -611127.8, -11080.528, 0.00075579167, 10.000333, 9.998294 
2.2353354e+3, 2.4877031e+2, -609694.5, -813861.7, 7376.5464, -0.076918505, 0.41252092, -609428.3, -107336.88, 0.00014769337, 10.000142, 9.99733 
2.2354092e+3, 2.58765e+2, -515425.53, -613029.8, -62102.4, -0.008843095, 0.16922425, -485244.4, -81100.73, 0.000007045108, 9.999678, 9.998254 
2.2354788e+3, 2.6876518e+2, -93914.086, -95857.555, 3882.7659, -0.27026802, 0.21458425, -90883.305, 215255.73, 0.00000000065814787, 10.000783, 10.000592 
2.2355479e+3, 2.7876663e+2, -21412.777, -270965.28, 140914.27, -0.5255978, 0.34926867, 42028.785, 250150.6, 0.0, 10.00172, 9.998274 
2.2356233e+3, 2.887629e+2, 5922.939, -690625.7, 157669.97, -0.3812804, 0.44874722, 39950.62, 150116.45, 0.0000012574419, 10.003322, 9.993945 
2.2356994e+3, 2.98759e+2, 516998.25, -20082.27, -85299.125, -0.27324015, 0.5856767, 530219.94, 542432.06, 0.000044073433, 10.004747, 9.997548 
2.2357674e+3, 3.087564e+2, 190818.44, 418795.97, -278654.1, -0.11737099, 0.24635437, 605874.56, 605874.56, 0.00018419352, 9.999969, 10.002844 
2.2446452e+3, 1.4871383e+2, -1607822.6, -1588128.1, -141424.27, 0.9362834, 0.6289801, -1456208.8, 26442.89, 0.42759266, 9.999105, 9.999294 
2.244706e+3, 1.5870893e+2, -1413643.0, -1467057.0, -23859.777, -0.053458653, 0.24193208, -1404537.3, -19838.518, 0.29616648, 9.999773, 9.999129 
2.2447751e+3, 1.6870956e+2, -1218022.1, -1228845.5, -136584.22, -0.0030244517, 0.34864464, -1086742.4, 199950.34, 0.19952731, 10.000216, 10.000021 
2.2448456e+3, 1.7871141e+2, -1153844.8, -1270220.3, -244281.34, 0.29781112, 0.575357, -960916.6, 227758.83, 0.13536815, 10.000475, 9.998889 
2.2449128e+3, 1.887087e+2, -1180921.9, -1403291.8, -200125.13, 0.14308332, 0.54645497, -1063169.8, 27533.883, 0.09319166, 10.000238, 9.997323 
2.2449793e+3, 1.9870505e+2, -1081006.1, -1240971.0, -94249.58, -0.10304248, 0.4651187, -1037375.56, -44634.727, 0.06306426, 9.999959, 9.997902 
2.2450493e+3, 2.0870316e+2, -915614.06, -974747.1, -103548.95, -0.07160301, 0.42640305, -837493.25, 57263.797, 0.0400799, 9.999872, 9.999093 
2.2451198e+3, 2.187017e+2, -803786.2, -891523.9, -100891.58, -0.004968273, 0.4187569, -737638.75, 59129.35, 0.023131557, 10.000047, 9.9989 
2.2451907e+3, 2.2870125e+2, -720652.1, -773379.0, -124437.94, -0.071515344, 0.47544372, -619815.6, 78956.484, 0.011994159, 9.999839, 9.999128 
2.2452617e+3, 2.3870043e+2, -700066.56, -808606.2, -138741.13, -0.11410733, 0.55921054, -605358.8, -4578.6284, 0.0054928027, 9.999736, 9.998253 
2.2453354e+3, 2.4869728e+2, -574027.6, -686686.56, -21760.268, -0.04605363, 0.42493272, -569970.7, -67160.23, 0.002050329, 9.999901, 9.998327 
2.245408e+3, 2.5869337e+2, -511036.56, -579767.44, 75629.7, -0.040473565, 0.23646887, -462330.72, -57483.094, 0.0004876709, 9.999567, 9.998543 
2.2454791e+3, 2.6869267e+2, -115906.15, -199519.23, -18093.744, -0.3045693, 0.2432617, -112158.65, 194694.31, 0.000047167257, 10.001028, 9.99977 
2.2455506e+3, 2.7869388e+2, 136526.38, -173995.11, -161488.2, -0.45157266, 0.41388068, 205284.23, 414124.6, 0.00000034188096, 10.002719, 9.998458 
2.2456272e+3, 2.8869203e+2, -51455.754, -541359.5, 32630.582, -0.24751896, 0.60020095, -49291.914, 61571.473, 0.0000013302117, 10.002158, 9.995532 
2.2457011e+3, 2.9868713e+2, -126171.63, -350654.66, 159148.95, -0.29596236, 0.49186018, -43665.75, -30749.54, 0.0000584347, 10.000392, 9.997381 
2.245774e+3, 3.086845e+2, 1363939.0, 684003.3, -269535.06, 0.029162813, 0.3934029, 1457822.8, 1457822.8, 0.00025944764, 10.009283, 10.000192 
2.2547099e+3, 1.5864396e+2, -1353755.3, -1277430.0, -8692.595, 0.3314806, 0.80484337, -1276452.5, 108894.36, 0.39765337, 9.99936, 10.001118 
2.2547755e+3, 1.6864209e+2, -1430713.6, -1695664.6, -164007.61, 0.0019775948, 0.81433517, -1352361.6, -64993.527, 0.29298013, 10.000182, 9.996676 
2.2548452e+3, 1.7863852e+2, -1270190.3, -1478057.5, -263987.1, 0.18609382, 0.8020262, -1090413.8, 98994.46, 0.21888196, 10.000327, 9.997496 
2.254914e+3, 1.8863523e+2, -1047870.1, -1089663.6, -198148.89, 0.23560053, 0.5972776, -869519.2, 221917.45, 0.16615056, 10.000185, 9.999632 
2.2549824e+3, 1.9863266e+2, -1024456.75, -1099230.4, -101922.54, 0.23077776, 0.40713492, -953280.3, 40175.063, 0.12546477, 9.99988, 9.99892 
2.2550501e+3, 2.0863129e+2, -997387.1, -1145099.9, -100157.58, 0.04424348, 0.46892968, -946799.56, -51334.39, 0.0914258, 9.999856, 9.997922 
2.2551177e+3, 2.1862991e+2, -895852.94, -1062577.4, -99428.12, -0.22306202, 0.5801096, -849464.6, -51988.508, 0.062582165, 9.999957, 9.997766 
2.255189e+3, 2.2862606e+2, -817634.9, -968979.7, -127938.24, -0.224569, 0.4205449, -744665.06, -45149.613, 0.039919913, 9.999797, 9.997808 
2.2552615e+3, 2.386216e+2, -734763.75, -806328.44, -139480.66, -0.10826745, 0.25955662, -626548.8, -24987.662, 0.023601582, 9.999433, 9.998406 
2.2553347e+3, 2.4862358e+2, -359161.97, -208821.98, -23012.445, -0.101842016, 0.39867195, -205378.38, 298159.3, 0.012405956, 9.99978, 10.001686 
2.2554055e+3, 2.5862607e+2, -507693.84, -548470.9, 50518.98, -0.24134223, 0.58731186, -473604.3, -68096.29, 0.005154125, 9.9994755, 9.9987955 
2.2554803e+3, 2.6862276e+2, -473831.34, -892952.7, 48526.336, -0.268314, 0.6282123, -468286.25, -160738.88, 0.0013586987, 10.000825, 9.995101 
2.2555572e+3, 2.78619e+2, 10526.816, -315657.7, -129296.37, -0.056361526, 0.6975135, 55561.047, 265153.78, 0.00015517221, 10.002236, 9.997701 
2.2556321e+3, 2.886179e+2, 353058.13, 345769.4, -40735.918, 0.048973456, 0.5795347, 390312.38, 501907.38, 0.0000026982873, 10.002015, 10.001667 
2.2557007e+3, 2.986167e+2, -56717.434, -258384.02, 185464.55, -0.38487265, 0.31514585, 53552.207, 67148.13, 0.000065484004, 10.000651, 9.997868 
2.2557813e+3, 3.0861023e+2, 663817.75, -613842.06, 442873.34, -0.12802616, 0.46491367, 802316.9, 802316.9, 0.00034260706, 10.008586, 9.991627 
2.2647741e+3, 1.685688e+2, -1500159.5, -1475461.1, 140745.8, -0.00096666295, 0.4633186, -1346523.8, -58448.434, 0.44342524, 9.998336, 9.9991865 
2.2648415e+3, 1.7856866e+2, -1002348.06, -1342195.0, 293543.2, -0.34494656, 0.5225621, -833093.7, 356987.1, 0.3585124, 10.003063, 9.997412 
2.2649121e+3, 1.8856569e+2, -968310.8, -1340714.5, 85111.06, -0.06395883, 0.562119, -949781.06, 142333.27, 0.29413474, 10.002384, 9.996707 
2.2649837e+3, 1.9856274e+2, -948576.7, -1243947.4, -97678.22, 0.3098773, 0.58518004, -919197.06, 74950.59, 0.24160613, 10.0013, 9.997254 
2.2650513e+3, 2.0856033e+2, -817791.7, -1081853.3, -99928.055, 0.1312065, 0.6185313, -784239.44, 111930.12, 0.1940874, 10.001352, 9.997672 
2.2651187e+3, 2.185578e+2, -666465.25, -1008596.9, -56929.8, -0.19742014, 0.6476716, -657241.0, 140950.1, 0.14888066, 10.001928, 9.997212 
2.2651891e+3, 2.2855374e+2, -814189.06, -1029168.7, -102467.44, -0.1611227, 0.52987754, -773174.2, -72944.85, 0.108788945, 10.000072, 9.997273 
2.265261e+3, 2.3854937e+2, -947898.2, -979899.6, -1764.482, 0.0051122066, 0.4211483, -947801.2, -345530.44, 0.07581198, 9.998202, 9.997837 
2.2653347e+3, 2.4854988e+2, -413673.56, -411426.66, -59038.734, -0.059963837, 0.52762735, -353500.7, 150761.69, 0.048806984, 10.000094, 10.0001955 
2.265406e+3, 2.5855052e+2, -157811.06, -493484.06, -299902.7, -0.24779284, 0.6985219, 18024.838, 424278.06, 0.026684597, 10.002386, 9.9978 
2.2654817e+3, 2.68547e+2, -217138.95, -669277.7, -116838.14, -0.21589407, 0.6879995, -188731.38, 119562.96, 0.010897145, 10.002106, 9.996037 
2.2655584e+3, 2.78543e+2, -379206.28, -509856.9, 11623.717, 0.044461034, 0.6616875, -378180.2, -167839.27, 0.002788968, 9.999574, 9.997653 
2.2656345e+3, 2.8854156e+2, 359905.5, 189406.22, -145664.92, 0.08913991, 0.61714005, 443433.13, 555781.1, 0.0003034348, 10.002747, 10.00024 
2.2657053e+3, 2.9854137e+2, 786653.6, 205984.31, -300983.44, -0.26365077, 0.51866144, 914511.8, 928851.9, 0.000074942734, 10.006253, 9.998342 
2.2657871e+3, 3.0853325e+2, 120692.05, -694430.25, 531946.5, -0.12909651, 0.4162037, 383260.13, 383260.13, 0.00045608202, 10.004014, 9.9933 
2.2749822e+3, 1.9849518e+2, -1310000.4, -1977285.0, -112654.53, 0.03928485, 0.9876441, -1291494.6, -296676.13, 0.4526298, 10.001037, 9.992327 
2.2750522e+3, 2.084902e+2, -768652.3, -967194.75, -52005.813, 0.10366902, 0.87345314, -755854.9, 141016.44, 0.38963944, 10.001812, 9.998254 
2.2751223e+3, 2.1848553e+2, -737850.5, -1061684.6, -86695.03, -0.038148586, 0.6571897, -716101.6, 82809.76, 0.32267725, 10.001632, 9.996991 
2.2751911e+3, 2.2848347e+2, -917319.75, -1058192.9, -223823.72, 0.055631317, 0.73808604, -753111.1, -52189.168, 0.25840095, 9.999281, 9.997437 
2.2752607e+3, 2.3848228e+2, -1105389.9, -1198559.5, -42731.832, 0.13848898, 0.93538016, -1088759.5, -485835.97, 0.20062341, 9.997749, 9.996546 
2.2753355e+3, 2.4847636e+2, -805878.4, -1210235.8, 37403.777, 0.023789471, 0.7829668, -802447.56, -297464.25, 0.14660953, 10.000015, 9.994708 
2.2754093e+3, 2.5846833e+2, -426625.13, -902381.75, -255346.72, -0.16390742, 0.6254485, -315522.0, 91544.65, 0.09444842, 10.001758, 9.995273 
2.2754842e+3, 2.6846665e+2, 82492.336, 90465.414, -168912.47, -0.17646128, 0.49500576, 255438.38, 564521.06, 0.04983968, 10.001623, 10.001611 
2.2755559e+3, 2.7846625e+2, -444955.25, -469040.53, -72247.45, -0.14678338, 0.37401125, -383753.66, -172668.45, 0.019500945, 9.998857, 9.998252 
2.2756343e+3, 2.8846395e+2, -226779.73, -922678.44, 12619.745, -0.16673894, 0.71162444, -226550.95, -113438.414, 0.004786881, 10.002327, 9.992784 
2.2757134e+3, 2.9846373e+2, 765400.1, 216690.56, -268481.3, -0.069602594, 1.1568027, 874910.94, 890030.5, 0.0007184006, 10.006084, 9.998466 
2.2757915e+3, 3.0845514e+2, 628988.0, 447460.63, 285837.3, -0.06502354, 0.3209268, 838126.0, 838126.0, 0.0007753206, 10.003798, 10.001183 
2.2852558e+3, 2.3839326e+2, -151423.69, 36688.215, -271326.5, -0.35271704, 0.515208, 229798.75, 833604.6, 0.45869297, 10.001727, 10.007041 
2.2853395e+3, 2.48388e+2, -249977.45, -687015.2, -371961.88, 0.25370067, 0.10651848, -37096.133, 468754.22, 0.36361384, 10.004238, 9.99677 
2.2854072e+3, 2.5838736e+2, -829650.94, -891435.4, -154068.47, -0.32963264, 0.47417396, -703408.1, -295548.88, 0.26167566, 9.997948, 9.997221 
2.2854829e+3, 2.6838776e+2, -381925.63, -219212.2, -177146.17, -0.26007226, 0.5132815, -105633.84, 204219.03, 0.1640845, 9.998579, 10.001086 
2.2855537e+3, 2.783877e+2, -815583.1, -696098.5, -456606.44, -0.111240305, 0.5149776, -295342.63, -83492.625, 0.0825175, 9.996479, 9.997858 
2.2856346e+3, 2.8838307e+2, -325388.6, -867907.5, 244504.42, -0.28708977, 0.5660995, -231457.55, -117558.305, 0.030766098, 10.001141, 9.993764 
2.2857185e+3, 2.9838133e+2, 840751.2, 344370.78, 249891.98, -0.15826996, 0.71281, 944760.4, 960681.5, 0.009032894, 10.006196, 9.999338 
2.2857952e+3, 3.0837768e+2, 621151.2, 214865.34, 16756.09, -0.11793918, 0.44356504, 621841.1, 621841.1, 0.0038111592, 10.004669, 9.999187 
2.295481e+3, 2.6830807e+2, -278892.84, -708093.0, -105713.555, -0.29224014, 0.44907823, -254268.05, 56359.445, 0.43463188, 10.001956, 9.995916 
2.2955528e+3, 2.7830854e+2, -996314.56, -971190.1, -597709.2, 0.12878738, 0.9832896, -385911.16, -173287.67, 0.25414488, 9.996112, 9.996111 
2.2956344e+3, 2.8830114e+2, 40689.457, 172590.55, 356176.34, -0.35545927, 0.25304726, 468870.7, 583559.4, 0.12145293, 10.000135, 10.001648 
2.2957203e+3, 2.9829645e+2, 292923.8, 258797.28, 199143.2, -0.6039129, -0.5800068, 475733.44, 492461.44, 0.052399732, 10.00182, 10.000866 
2.2957985e+3, 3.0830267e+2, 66756.336, -1075159.5, -209385.02, -0.21041363, 0.7500061, 103939.055, 103939.055, 0.026402464, 10.005427, 9.989904 
2.3056355e+3, 2.8821054e+2, 272247.6, -335853.34, -950956.8, -0.78184813, 0.13526388, 966578.56, 1082174.8, 0.35377368, 10.00644, 9.996408 
2.3057193e+3, 2.9822588e+2, -4749151.5, -1803681.1, -953813.94, 1.0570943, 1.3778707, -1521791.0, -1504346.9, 0.19531311, 9.965582, 10.004163 
2.3058072e+3, 3.082123e+2, 1134168.3, -622864.1, 830651.44, -0.40666336, 0.69396514, 1464689.9, 1464689.9, 0.1239725, 10.014276, 9.989084 
2.3158196e+3, 3.081133e+2, 3269097.8, 1240707.4, -133383.0, -0.5287144, 0.71809363, 3277831.0, 3277831.0, 0.37856692, 10.039444, 9.99444 
2.3477258e+3, 2.758756e+2, -425435.1, -172722.92, 103112.695, -0.83239627, 0.723766, -135989.8, 100410.95, 0.44338256, 9.997342, 10.001541 
2.347315e+3, 2.8584385e+2, 32370.826, -896928.9, -473273.97, 0.8439746, -1.1812478, 230961.3, 369666.78, 0.34222868, 10.005212, 9.992063 
2.3469035e+3, 2.958485e+2, -309672.78, -311983.34, 1010372.44, 0.9345339, 0.4532986, 699545.06, 740228.5, 0.2600013, 9.999733, 9.998621 
2.34648e+3, 3.0583334e+2, 440444.47, 429356.2, -266786.72, -0.5135108, 0.1019264, 701744.6, 701744.6, 0.20050505, 10.003533, 10.001695 
2.3617974e+3, 1.7639813e+2, -3456178.8, -2278542.8, -543354.9, 0.882561, -0.13477573, -2066148.5, -854901.6, 0.43639567, 9.983949, 9.999908 
2.3613851e+3, 1.8638851e+2, -2017933.5, -1451305.1, 27472.816, 0.04320466, -0.31380314, -1449976.3, -336628.78, 0.37759688, 9.992857, 10.000548 
2.3609848e+3, 1.9637834e+2, -767174.06, -819442.2, 204655.81, 0.24505462, -0.6218729, -586990.44, 428447.6, 0.33353463, 10.001533, 10.000704 
2.3605844e+3, 2.0636839e+2, -381873.8, -687970.0, 245046.77, 0.5046154, -0.77008, -246007.33, 671519.3, 0.30096963, 10.004964, 9.999259 
2.360182e+3, 2.163579e+2, -192849.05, -634997.56, 213069.89, 0.8137761, -0.9239525, -106884.87, 712734.6, 0.27811465, 10.0060215, 9.998358 
2.3597744e+3, 2.2634226e+2, -102780.13, -1355083.4, 346292.13, 0.5284369, -1.0262694, -13401.12, 708372.9, 0.26099673, 10.009728, 9.990536 
2.3593625e+3, 2.3632956e+2, 822944.4, -591482.3, 243570.6, -0.028765405, -0.5509755, 863713.2, 1487620.9, 0.24555968, 10.016362, 9.991939 
2.3589534e+3, 2.4631709e+2, 282506.72, -862384.6, 473334.06, -0.00130514, -0.17359485, 452852.53, 978895.75, 0.22998938, 10.010195, 9.99254 
2.3585488e+3, 2.5630218e+2, -1094897.6, -1275612.4, 829389.4, 0.21544962, 0.034178935, -350958.2, 77246.53, 0.20965737, 9.997194, 9.995086 
2.3581299e+3, 2.6629248e+2, -652208.2, -180283.2, 168880.73, -0.25489366, -0.11619268, -126075.055, 204231.5, 0.17420463, 9.995536, 10.003031 
2.3577163e+3, 2.7627835e+2, -833155.3, -1017531.75, 221019.5, -0.73530936, -0.6396406, -685868.5, -453424.38, 0.124012634, 9.997534, 9.995221 
2.3573017e+3, 2.8626838e+2, 597208.7, 107718.0, -398141.1, -0.083365194, -0.48173988, 819813.94, 954351.9, 0.08040157, 10.005245, 9.998842 
2.3568979e+3, 2.9626745e+2, 381788.28, 505471.7, 500538.44, 1.1167686, 0.01800348, 947974.25, 984517.75, 0.052718915, 10.001399, 10.00299 
2.356482e+3, 3.062515e+2, 69588.836, -983484.8, 135254.2, 0.047291, -0.12056576, 86683.07, 86683.07, 0.035745006, 10.004807, 9.991041 
2.372603e+3, 1.5681599e+2, -923345.9, -262902.34, 70416.38, -0.034157988, -0.17985056, -255478.02, 1147687.3, 0.40914345, 9.998379, 10.013544 
2.3722051e+3, 1.6680408e+2, -885957.8, -1268973.6, 8731.037, 1.3888127, -0.9072986, -885758.9, 419506.75, 0.31913835, 10.004854, 9.997461 
2.371789e+3, 1.7679396e+2, -619969.25, -1007442.06, -37143.35, 0.661498, -0.8963784, -616440.8, 590937.6, 0.25439996, 10.005428, 9.998679 
2.3713815e+3, 1.8678644e+2, -496079.22, -669345.3, 59135.805, 0.30780658, -0.8608812, -477820.28, 631629.06, 0.20803122, 10.004053, 10.001323 
2.370978e+3, 1.967806e+2, -662738.5, -768727.25, -23878.172, 0.18327099, -0.7740961, -657607.4, 353887.16, 0.17323056, 10.001957, 10.000574 
2.370573e+3, 2.0677379e+2, -879008.6, -1183124.1, -167465.4, 0.01274964, -0.51555634, -804866.9, 108690.96, 0.14628343, 10.001072, 9.997142 
2.3701672e+3, 2.1676718e+2, -760639.75, -1040919.9, -275266.75, -0.06109853, -0.11828334, -591893.06, 223729.64, 0.1255341, 10.001097, 9.997482 
2.3697633e+3, 2.2675346e+2, -972944.1, -1284585.4, -127369.33, 0.019566778, -0.37200072, -927511.2, -209757.61, 0.10829949, 9.999648, 9.995753 
2.3693587e+3, 2.3673503e+2, -1034338.2, -1235353.1, -11332.602, 0.082820274, -0.9478093, -1033701.3, -413771.0, 0.09199207, 9.998469, 9.9959755 
2.3689476e+3, 2.4672121e+2, -929445.4, -1091191.4, -132179.92, 0.116293415, -1.1578828, -855360.4, -333287.4, 0.075866595, 9.998282, 9.996414 
2.3685391e+3, 2.5670734e+2, -1028265.25, -1265170.3, 24776.871, 0.3432621, -1.1836147, -1025701.7, -601480.2, 0.059156448, 9.997856, 9.994665 
2.3681252e+3, 2.666985e+2, -383078.66, -392413.78, -66528.0, 0.36141253, -1.0177004, -321054.7, 5259.7427, 0.040403455, 9.999289, 9.999346 
2.3677136e+3, 2.7669218e+2, -683581.4, -848469.7, 345140.0, 0.0330794, -0.6003378, -411175.34, -182795.44, 0.021696234, 9.998454, 9.995791 
2.3672952e+3, 2.8668332e+2, 45859.215, -218310.84, -203402.64, -0.18676342, -0.2907554, 156300.66, 286764.8, 0.009437312, 10.001803, 9.997833 
2.366883e+3, 2.9667568e+2, 598996.56, 423661.34, 61928.2, 0.15141949, -0.28848714, 618663.56, 651196.6, 0.0042111157, 10.003986, 10.000748 
2.3664822e+3, 3.0666152e+2, -218136.13, -955745.94, 68756.36, 0.61631876, -0.27120116, -211781.73, -211781.73, 0.0022396976, 10.00251, 9.992009 
2.3830137e+3, 1.4724438e+2, -1805469.5, -1886077.1, 356943.1, 1.3108641, 0.035797622, -1486562.0, 10403.418, 0.38966462, 9.998594, 9.997446 
2.3825988e+3, 1.5722977e+2, -1297880.5, -1607135.8, 86457.3, 0.36402053, -0.3464884, -1275351.3, 123755.734, 0.2783617, 10.001748, 9.99725 
2.3821914e+3, 1.6721794e+2, -1076056.8, -1524815.4, 40012.953, 0.42891914, -0.38272905, -1072517.0, 228705.89, 0.19862524, 10.003102, 9.996439 
2.3817873e+3, 1.7720808e+2, -1013318.94, -1411937.8, 98630.91, 0.8340019, -0.19064009, -990249.6, 213071.88, 0.1461588, 10.002474, 9.996885 
2.3813829e+3, 1.8719755e+2, -802787.9, -1015931.25, 168248.02, 0.8494296, -0.23792367, -710199.06, 395220.28, 0.11113541, 10.002197, 9.999117 
2.3809777e+3, 1.9718723e+2, -766447.56, -1020539.94, 46418.97, 0.73476636, -0.37040687, -758233.06, 249278.88, 0.08556882, 10.001907, 9.9985285 
2.3805706e+3, 2.0717528e+2, -951551.5, -1373535.0, 14231.996, 0.4314729, -0.44982383, -951072.06, -41438.67, 0.065839775, 10.00115, 9.995773 
2.3801611e+3, 2.1716294e+2, -845354.1, -1112826.4, -35168.31, 0.028942445, -0.4528129, -840807.4, -29043.29, 0.050802168, 10.000511, 9.997206 
2.3797566e+3, 2.2715507e+2, -625105.2, -454479.3, 15289.097, 0.19400729, -0.45272443, -453120.16, 260715.03, 0.038884565, 9.999182, 10.001753 
2.3793542e+3, 2.3714732e+2, -799655.8, -663680.94, 22690.436, 0.590058, -0.49731198, -659994.5, -44095.723, 0.028499383, 9.99811, 10.000088 
2.378938e+3, 2.4713778e+2, -782918.75, -919733.0, -115349.54, 0.16013068, -0.48821372, -717217.5, -199221.25, 0.019239577, 9.998866, 9.997316 
2.3785202e+3, 2.5712687e+2, -733729.8, -966742.06, 35259.133, -0.5187099, -0.34113336, -728511.3, -308396.88, 0.011432521, 9.999188, 9.996094 
2.378114e+3, 2.6711932e+2, -68668.87, -21752.873, -55566.09, 0.1209415, -0.20772928, 15103.872, 337292.56, 0.0054169935, 10.00055, 10.001286 
2.3777148e+3, 2.7711192e+2, -344164.6, -373042.3, 170800.22, 1.0817627, -0.19515082, -187194.02, 37063.203, 0.0016796534, 9.99933, 9.998694 
2.3772892e+3, 2.870965e+2, -121242.64, -697930.8, -98851.37, -0.14465675, -0.4538955, -104768.91, 21640.3, 0.00032765517, 10.002286, 9.99435 
2.3768632e+3, 2.9708433e+2, 284196.16, -185257.5, 55358.15, -1.4751108, -0.4717407, 290635.7, 319166.78, 0.000094859715, 10.00355, 9.996892 
2.3764853e+3, 3.0707166e+2, 291550.7, 37367.563, 27570.523, 1.3994596, -0.49209878, 294506.78, 294506.78, 0.00010848933, 10.002463, 9.999027 
2.3933996e+3, 1.3764575e+2, -1630540.1, -1928935.3, -212617.08, -0.15516685, -1.3478764, -1519995.6, 71008.516, 0.42780015, 10.001057, 9.996708 
2.3930044e+3, 1.4764489e+2, -1198361.4, -1411193.6, -1969.5068, 0.94773144, -0.46779123, -1198343.1, 294683.3, 0.29985303, 10.002864, 9.998926 
2.392595e+3, 1.5763584e+2, -1006104.0, -1312112.0, 3966.0317, 0.48721457, -0.41440162, -1006052.6, 389069.78, 0.19614404, 10.003414, 9.998613 
2.392187e+3, 1.6762662e+2, -907556.56, -1170802.1, -3268.7908, 0.53100586, -0.41597074, -907516.0, 389695.63, 0.12585048, 10.002904, 9.999138 
2.3917803e+3, 1.7761746e+2, -994818.9, -1267160.1, 150590.28, 0.7744091, -0.39122128, -927962.7, 271335.16, 0.083471425, 10.001844, 9.998209 
2.3913746e+3, 1.8760562e+2, -1003809.75, -1450272.9, 288134.8, 0.64948964, -0.42843556, -862549.9, 238864.34, 0.057587944, 10.002042, 9.996173 
2.390969e+3, 1.9759303e+2, -746954.8, -1190533.1, 138750.77, 0.4176438, -0.48670384, -707129.3, 296409.2, 0.03970386, 10.002743, 9.99694 
2.3905638e+3, 2.0758167e+2, -685743.0, -957624.56, 114504.336, 0.42825145, -0.5964959, -643944.8, 261709.16, 0.026570952, 10.001822, 9.998287 
2.390158e+3, 2.1757074e+2, -696191.9, -817652.94, 195484.94, 0.4914229, -0.66665226, -552221.25, 255545.05, 0.017417854, 10.000659, 9.99914 
2.3897497e+3, 2.2756523e+2, -527260.94, -380786.28, 174055.1, 0.38532463, -0.48523667, -265188.0, 444628.94, 0.011141793, 9.999781, 10.001921 
2.3893413e+3, 2.3756017e+2, -647782.06, -569768.9, 114527.695, 0.27123246, -0.25645262, -487787.4, 124072.12, 0.0065593217, 9.999119, 10.000214 
2.3889287e+3, 2.475503e+2, -480106.5, -655942.9, 24984.781, 0.089665815, -0.3248093, -476625.3, 37330.863, 0.0032030866, 10.000524, 9.998273 
2.3885168e+3, 2.5753874e+2, -313886.94, -671637.3, 166719.38, -0.12039663, -0.36037314, -248238.75, 167834.03, 0.0011282732, 10.00177, 9.996818 
2.388108e+3, 2.6752922e+2, -106294.18, -313670.5, -58604.79, 0.20309189, -0.27301243, -90878.37, 227288.1, 0.00023273825, 10.001612, 9.998687 
2.3877019e+3, 2.775195e+2, -310038.4, -333612.56, -60720.348, 0.6632733, -0.31874645, -259971.66, -39711.586, 0.000018040813, 9.999592, 9.99876 
2.3872839e+3, 2.8750557e+2, -198819.75, -428580.56, -78451.664, 0.02860787, -0.6360293, -174588.08, -52189.95, 0.000003904983, 10.00051, 9.997003 
2.3868677e+3, 2.9749623e+2, 89660.27, -233484.31, 230700.28, -0.44692233, -0.5021674, 209740.64, 234233.08, 0.000011089317, 10.002015, 9.997287 
2.3864734e+3, 3.0748332e+2, 238950.98, 269803.7, -127193.53, 0.9525749, -0.6115216, 382502.94, 382502.94, 0.000035732806, 10.00106, 10.001268 
2.4038099e+3, 1.280676e+2, -1661040.0, -1649154.6, 11711.622, 0.8416001, -0.37662894, -1641964.3, 42915.684, 0.4904179, 9.999945, 9.999911 
2.4034e+3, 1.38053e+2, -1653996.9, -1607236.8, 27898.55, 0.6231981, -1.002204, -1594216.9, -7202.335, 0.36336002, 9.999114, 9.999823 
2.4029943e+3, 1.4804627e+2, -1505444.1, -1480376.3, 107625.586, 0.6094729, -0.8825556, -1384557.3, 104528.86, 0.24041094, 9.999519, 9.999948 
2.4025899e+3, 1.5804163e+2, -1387524.5, -1368991.6, 41847.9, 0.594945, -0.4963716, -1335396.5, 55744.805, 0.14389461, 9.999549, 9.999975 
2.4021813e+3, 1.6803427e+2, -1048804.0, -1066091.9, -77596.73, 0.595234, -0.47288185, -979371.25, 313840.47, 0.08188297, 10.000924, 10.000807 
2.4017724e+3, 1.7802571e+2, -905645.75, -1141814.5, -33555.992, 0.6099709, -0.5557321, -900970.5, 294319.56, 0.047678713, 10.002065, 9.998962 
2.4013655e+3, 1.8801361e+2, -1165345.4, -1666757.1, 239888.05, 0.37423927, -0.5893546, -1069064.6, 28347.45, 0.028905774, 10.001458, 9.994948 
2.4009594e+3, 1.980004e+2, -1095251.0, -1413111.8, 250937.89, 0.069778666, -0.581731, -957148.25, 42399.887, 0.017015342, 10.000518, 9.996482 
2.4005564e+3, 2.0799045e+2, -793316.5, -766465.56, 150387.8, 0.3721016, -0.66846484, -628905.2, 272743.16, 0.00915297, 9.999988, 10.000496 
2.4001539e+3, 2.1798152e+2, -746386.0, -705711.7, 132926.98, 0.8511089, -0.74286413, -591575.1, 212161.63, 0.0045936005, 9.999703, 10.000371 
2.3997417e+3, 2.2797683e+2, -533188.0, -479913.25, 99912.414, 0.4385969, -0.48342213, -403148.28, 302634.25, 0.0022051786, 10.000166, 10.001028 
2.3993276e+3, 2.3797245e+2, -462300.47, -516079.22, 62081.395, -0.22993284, -0.11978311, -421535.3, 186289.05, 0.0009056362, 10.000551, 9.999895 
2.3989204e+3, 2.4796209e+2, -322915.06, -433208.78, 25105.24, 0.037997283, -0.31588978, -317469.44, 192451.72, 0.00023937336, 10.000997, 9.999559 
2.3985173e+3, 2.5794932e+2, -446308.72, -712882.6, 95447.445, 0.5784401, -0.62331724, -415657.8, -3616.6223, 0.000025130046, 10.000728, 9.99706 
2.3981014e+3, 2.6793665e+2, -375130.25, -836892.75, -102113.64, 0.21903571, -0.6292901, -353556.84, -39389.29, 0.00000030344088, 10.001439, 9.995192 
2.3976831e+3, 2.7792463e+2, -217652.3, -354134.25, -75649.77, -0.3835456, -0.62507886, -184012.36, 32277.26, 0.000000006555133, 10.000417, 9.998277 
2.3972803e+3, 2.8791556e+2, 179083.53, 295804.38, 21195.445, 0.43377495, -0.77471304, 299534.1, 417912.84, 0.00000087940674, 10.0007105, 10.001916 
2.3968834e+3, 2.9791102e+2, 27924.014, -114371.57, 211401.1, 1.669708, -0.5208019, 179828.75, 200251.6, 0.0000067991245, 10.000865, 9.998712 
2.3964505e+3, 3.0790043e+2, 203125.4, 43755.875, -86460.37, -0.6797439, -0.29040617, 241020.64, 241020.64, 0.000025901541, 10.001603, 9.999515 
2.4138024e+3, 1.2847883e+2, -1769534.9, -1717079.1, 37823.11, 1.0711612, -0.13803332, -1697279.9, -16421.398, 0.44509953, 9.999056, 9.999744 
2.4133904e+3, 1.384644e+2, -1629905.6, -1635526.0, 61501.715, 0.57546115, -0.6989071, -1571149.9, 11840.436, 0.31930807, 9.999423, 9.999526 
2.4129848e+3, 1.4845583e+2, -1565569.5, -1541773.6, 125291.14, 0.5498029, -0.71421933, -1427816.8, 57258.44, 0.20041417, 9.999212, 9.999601 
2.4125808e+3, 1.5844847e+2, -1509232.5, -1502369.4, 80482.1, 0.62447894, -0.56298125, -1425245.6, -38094.047, 0.110025235, 9.999042, 9.999245 
2.4121732e+3, 1.6843985e+2, -1191951.6, -1343169.0, -40378.0, 0.53152156, -0.5102783, -1181845.4, 107394.67, 0.054970514, 10.000792, 9.99882 
2.4117647e+3, 1.7843072e+2, -760542.6, -1034276.7, -84916.93, 0.41040275, -0.49371096, -736339.94, 454991.94, 0.027314784, 10.002868, 9.999324 
2.4113579e+3, 1.8842211e+2, -793478.44, -923320.25, 133379.16, 0.29061785, -0.5300524, -710059.44, 383352.44, 0.013986388, 10.001594, 10.000006 
2.4109519e+3, 1.9841321e+2, -1050183.8, -1077230.9, 292125.1, 0.16912784, -0.54778665, -771269.4, 224225.28, 0.006556314, 9.999491, 9.999275 
2.410546e+3, 2.0840429e+2, -1059351.0, -1105180.4, 204931.17, 0.25619197, -0.48656783, -876057.44, 21530.703, 0.002469395, 9.999076, 9.998599 
2.4101406e+3, 2.1839511e+2, -891796.1, -923439.2, 140982.47, 0.4187597, -0.40621316, -765750.2, 33935.277, 0.00078321603, 9.999348, 9.999033 
2.4097317e+3, 2.2838666e+2, -483202.53, -528594.6, 122223.375, 0.18997547, -0.42966846, -381585.84, 320180.53, 0.00023610769, 10.0008545, 10.000338 
2.4093218e+3, 2.3837823e+2, -196333.13, -395247.47, 53000.355, -0.16606675, -0.4300399, -183092.61, 420752.16, 0.000047296035, 10.002451, 9.9997835 
2.4089131e+3, 2.4836892e+2, -316992.28, -380290.34, -95082.336, 0.03179279, -0.5370301, -248429.98, 257500.4, 0.0000020598873, 10.000865, 9.999977 
2.4085063e+3, 2.5835866e+2, -760707.75, -732698.1, -11504.776, 0.41189575, -0.66713, -728578.56, -320553.16, 0.0, 9.998061, 9.9981785 
2.4080932e+3, 2.683469e+2, -527190.4, -774276.25, 21518.824, 0.222619, -0.6943898, -525330.25, -215187.64, 0.0, 9.999887, 9.99633 
2.4076787e+3, 2.7833548e+2, 93926.04, -135523.2, 94013.58, -0.15939584, -0.7124004, 127526.37, 339785.63, 0.0, 10.002255, 9.998897 
2.4072713e+3, 2.8832805e+2, 71924.78, 189817.53, -59023.16, 0.34769237, -0.6806525, 214288.23, 328622.63, 0.0000001537889, 10.000185, 10.001464 
2.4068694e+3, 2.9832375e+2, -516304.28, -475331.1, 64096.957, 1.2453225, -0.3348128, -428526.38, -412147.97, 0.000003139397, 9.997574, 9.997803 
2.406448e+3, 3.0830932e+2, 588175.94, 89115.766, 7442.7974, -0.3929374, -0.44362965, 588286.94, 588286.94, 0.000016358594, 10.004963, 9.998145 
2.4237949e+3, 1.2888344e+2, -1829120.4, -1690781.8, -47285.934, 1.23889, -0.3525731, -1676163.5, 732.81805, 0.4141129, 9.998389, 10.000232 
2.4233809e+3, 1.3887435e+2, -1708446.6, -1696504.8, -17069.26, 0.52969325, -0.43553385, -1684392.1, -105414.43, 0.28877336, 9.999019, 9.999259 
2.4229753e+3, 1.4886446e+2, -1635976.0, -1621685.5, 32806.766, 0.5001618, -0.5476787, -1595254.9, -114181.555, 0.17287979, 9.998925, 9.99913 
2.4225713e+3, 1.5885462e+2, -1615125.0, -1632640.3, -5212.2393, 0.59892386, -0.60604143, -1613691.3, -230520.61, 0.08747846, 9.998647, 9.998551 
2.4221644e+3, 1.6884539e+2, -1473493.8, -1590343.1, 35941.03, 0.43178743, -0.5406336, -1463324.0, -178055.55, 0.038149297, 9.999288, 9.997849 
2.4217565e+3, 1.7883639e+2, -1100613.9, -1117400.8, 45881.543, 0.22635831, -0.43315727, -1062364.4, 124999.36, 0.01570925, 10.000125, 10.000045 
2.4213506e+3, 1.8883057e+2, -744014.9, -473795.72, 32072.68, 0.25527847, -0.4773068, -470041.16, 619369.56, 0.0064830934, 10.00009, 10.003819 
2.4209446e+3, 1.9882515e+2, -918328.06, -819026.75, 27885.633, 0.31375813, -0.50782794, -811731.9, 179719.23, 0.0021827125, 9.999566, 10.001003 
2.4205357e+3, 2.08817e+2, -1136920.9, -1334199.0, 48343.895, 0.12938721, -0.33462903, -1125710.9, -232171.25, 0.00044835047, 9.999371, 9.996881 
2.4201266e+3, 2.1880765e+2, -995074.0, -1110247.1, 99584.92, -0.0824081, -0.12443802, -937624.2, -141980.25, 0.000068581576, 9.999242, 9.997801 
2.4197216e+3, 2.287959e+2, -729160.0, -702085.7, 145229.63, -0.05983259, -0.41634867, -569763.7, 127991.2, 0.0000096515805, 9.999423, 9.999829 
2.4193174e+3, 2.3878355e+2, -611705.9, -627695.75, 15217.701, 0.0070541934, -0.77112764, -602510.8, -2643.1755, 0.00000040342232, 9.999735, 9.999508 
2.4189048e+3, 2.4877566e+2, -464755.1, -427941.0, -218156.52, -0.014473876, -0.74523354, -227416.38, 274523.8, 0.0, 9.999763, 10.000175 
2.418492e+3, 2.5876856e+2, -577652.8, -514194.2, -101126.83, -0.01770919, -0.6186256, -439935.84, -35929.65, 0.0, 9.998728, 9.999383 
2.4180855e+3, 2.6875883e+2, -341668.88, -409626.3, 71961.79, 0.26364052, -0.66714686, -296067.1, 10035.6, 0.0, 9.999958, 9.99881 
2.417679e+3, 2.7874896e+2, -65735.8, -230713.3, 18359.568, 0.48157862, -0.71048456, -63717.344, 144484.94, 0.0, 10.001184, 9.998794 
2.417258e+3, 2.8874147e+2, -127880.484, -249924.0, -221526.55, -0.16025284, -0.46332487, 40875.188, 151156.66, 0.0000000009564638, 10.00026, 9.998434 
2.4168418e+3, 2.98735e+2, -491208.63, -605019.3, 126624.71, -0.51297414, -0.10137963, -409290.2, -396938.5, 0.0000004799063, 9.9983015, 9.996599 
2.4164572e+3, 3.0871686e+2, 361588.6, -211901.1, 280172.25, 0.7623844, -0.56422025, 475741.63, 475741.63, 0.000005513329, 10.003994, 9.996666 
2.4337845e+3, 1.2928714e+2, -1699844.1, -1626886.8, -14322.506, 1.1265365, -0.50941855, -1624175.9, 48759.332, 0.39271492, 9.99911, 10.000554 
2.4333726e+3, 1.3928118e+2, -1631198.1, -1650747.9, -14362.691, 0.5827884, -0.2953652, -1623599.6, -48608.3, 0.26710206, 9.99951, 9.999334 
2.4329661e+3, 1.4927004e+2, -1645132.1, -1726246.9, -6965.3164, 0.49868685, -0.46300888, -1644538.4, -167437.13, 0.15331793, 9.99927, 9.998267 
2.4325608e+3, 1.5925844e+2, -1530748.8, -1524031.6, -36268.363, 0.49609497, -0.64223754, -1490966.6, -111750.02, 0.07196278, 9.998915, 9.99918 
2.4321538e+3, 1.692514e+2, -1329207.5, -1235938.0, 56932.953, 0.31170204, -0.5507589, -1208978.1, 72308.984, 0.027363949, 9.999031, 10.00043 
2.4317469e+3, 1.7924495e+2, -1190376.5, -1093096.1, 123688.234, 0.13042344, -0.40480462, -1008827.94, 174524.17, 0.009079448, 9.999223, 10.00063 
2.4313428e+3, 1.8923739e+2, -1001343.7, -895556.1, 15781.227, 0.32962665, -0.44308224, -893252.06, 192170.19, 0.002868925, 9.999612, 10.001121 
2.4309385e+3, 1.9922951e+2, -903496.1, -891243.9, -107641.91, 0.5464644, -0.49878424, -789553.9, 197940.61, 0.00059867656, 10.000007, 10.000291 
2.4305286e+3, 2.0922072e+2, -940587.5, -999709.6, -73272.766, 0.285391, -0.52287, -891137.44, -1554.0073, 0.000045539302, 9.999686, 9.999022 
2.4301182e+3, 2.1921155e+2, -928575.25, -926606.44, 47870.28, -0.04020927, -0.50126904, -879710.44, -88032.56, 0.0000022398012, 9.999062, 9.999131 
2.4297124e+3, 2.2920267e+2, -1013521.25, -853725.6, 85139.44, 0.032118138, -0.52939683, -816865.6, -123102.92, 0.000000052409952, 9.997556, 9.9996805 
2.4293081e+3, 2.3919332e+2, -1160336.6, -896375.25, -1497.149, 0.19232391, -0.5806349, -896366.75, -300515.88, 0.0, 9.996026, 9.999432 
2.4288967e+3, 2.4918436e+2, -826481.75, -680050.25, -194297.81, 0.1935497, -0.6036778, -545631.25, -47691.72, 0.0, 9.997642, 9.9994545 
2.4284846e+3, 2.5917578e+2, -446616.6, -428855.44, -141822.3, 0.15282321, -0.5788131, -295635.97, 104388.85, 0.0, 9.999542, 9.999559 
2.4280772e+3, 2.691676e+2, -384309.97, -328877.03, -75203.3, 0.30366722, -0.5538875, -276445.28, 25659.645, 0.0, 9.999217, 9.999725 
2.4276699e+3, 2.7915943e+2, -421583.53, -381146.88, -148027.36, 0.4754404, -0.51163405, -251963.48, -47778.133, 0.0, 9.998644, 9.9989805 
2.4272504e+3, 2.8915036e+2, 2971.8923, -240371.61, -272111.2, -0.119287595, -0.40929806, 179374.83, 285652.25, 0.0, 10.001392, 9.99794 
2.4268344e+3, 2.9914144e+2, 285810.22, -66886.984, 109365.32, -0.5219827, -0.29730347, 316969.7, 325339.22, 0.000000008678429, 10.00299, 9.998009 
2.426451e+3, 3.0913046e+2, -1026992.7, -607311.25, 122198.79, 1.1605344, -0.31849855, -574323.44, -574323.44, 0.0000009202062, 9.993302, 9.999104 
2.4441753e+3, 1.19698524e+2, -1590849.9, -1552050.0, 165175.81, 0.6940958, -0.6870056, -1405138.8, 361764.0, 0.49453825, 10.001039, 10.002027 
2.4437732e+3, 1.296917e+2, -1622533.4, -1624749.1, -309.85245, 0.87309533, -0.6289743, -1622490.9, 46475.152, 0.37753466, 10.000126, 10.000049 
2.4433646e+3, 1.3968657e+2, -1546687.5, -1637577.8, -22388.44, 0.6081728, -0.29676986, -1541472.0, 29546.28, 0.25111946, 10.000291, 9.999061 
2.4429573e+3, 1.4967515e+2, -1608895.3, -1763481.8, -1118.9347, 0.49009824, -0.4604115, -1608887.1, -135753.97, 0.13882844, 9.999755, 9.997777 
2.4425508e+3, 1.5966313e+2, -1490377.5, -1423436.6, 18645.89, 0.41451177, -0.653992, -1418593.4, -43340.484, 0.060861234, 9.9988785, 9.999871 
2.4421439e+3, 1.6965763e+2, -1218663.4, -970150.8, 55932.848, 0.23207872, -0.575484, -958142.25, 319160.84, 0.02025213, 9.998883, 10.002344 
2.4417374e+3, 1.7965269e+2, -1237327.5, -1127805.1, 52842.85, 0.08346124, -0.43089008, -1106466.6, 72881.31, 0.0052852775, 9.998959, 10.000516 
2.4413344e+3, 1.896434e+2, -1198434.3, -1278270.5, 20904.514, 0.36490536, -0.4656224, -1193291.8, -111850.05, 0.0012089658, 9.999503, 9.998543 
2.4409316e+3, 1.9963337e+2, -949084.1, -966534.44, -53105.03, 0.6717871, -0.52155584, -903992.25, 79550.38, 0.00012403581, 9.999931, 9.99981 
2.440521e+3, 2.0962456e+2, -822219.25, -691094.25, -67013.37, 0.40139052, -0.69963384, -662905.8, 222721.0, 0.000001917801, 9.999434, 10.001254 
2.4401098e+3, 2.1961592e+2, -883908.4, -766742.2, -9437.062, 0.063427985, -0.82786, -765986.94, 21721.389, 0.000000018702426, 9.998784, 10.000361 
2.4397032e+3, 2.2961e+2, -799616.1, -744206.56, 34060.883, 0.1354443, -0.6055381, -728005.8, -38240.156, 0.0, 9.999001, 9.999732 
2.4392976e+3, 2.3960385e+2, -777750.25, -750648.3, 964.8262, 0.3050777, -0.33679467, -750614.06, -158787.36, 0.0, 9.9988, 9.999103 
2.4388884e+3, 2.4959356e+2, -693292.75, -713615.06, -78752.16, 0.42080086, -0.42828047, -624048.9, -130113.305, 0.0, 9.998959, 9.998592 
2.4384788e+3, 2.5958303e+2, -509660.63, -500434.25, -60646.023, 0.44164136, -0.52043265, -444226.2, -48180.094, 0.0, 9.999251, 9.9992285 
2.4380676e+3, 2.69576e+2, -327306.53, -266547.28, -42213.37, 0.25427675, -0.38879612, -244918.36, 53195.31, 0.0, 9.999432, 10.000064 
2.4376573e+3, 2.7956897e+2, -284544.94, -256430.97, -69474.85, 0.14750555, -0.2701123, -199605.27, 575.0652, 0.0, 9.99931, 9.999534 
2.437247e+3, 2.8955734e+2, 18659.133, -159087.34, -80214.29, 0.21381614, -0.4960189, 49505.504, 151798.77, 0.0, 10.001165, 9.998623 
2.4368364e+3, 2.995465e+2, 325895.1, 251836.13, 9006.15, 0.16801158, -0.6753419, 326974.6, 331373.7, 0.0, 10.001915, 10.0007515 
2.4364279e+3, 3.095439e+2, -507155.84, 219333.44, -77871.016, 0.33181027, -0.31428236, 227586.53, 227586.53, 0.00000009975268, 9.994441, 10.004203 
2.4541706e+3, 1.20106176e+2, -1559052.0, -1593942.6, 64503.758, 0.866736, -0.5627966, -1509676.1, 253224.2, 0.48539653, 10.001844, 10.001005 
2.4537621e+3, 1.3009483e+2, -1571790.5, -1649565.1, 7083.171, 0.5192883, -0.87236404, -1571150.8, 93861.03, 0.36593348, 10.0009365, 9.999394 
2.4533567e+3, 1.40089e+2, -1443823.9, -1560981.3, -16024.259, 0.57115483, -0.56030405, -1441671.8, 125401.02, 0.23856215, 10.001151, 9.999164 
2.4529493e+3, 1.5007985e+2, -1482296.0, -1610467.6, -21633.975, 0.49145675, -0.5549545, -1478742.9, -9576.378, 0.1275105, 10.0002365, 9.998579 
2.4525417e+3, 1.6007008e+2, -1400065.0, -1331728.1, 35896.785, 0.42433184, -0.59827673, -1316338.0, 54926.652, 0.052560914, 9.999285, 10.000307 
2.4521355e+3, 1.7006308e+2, -1211308.6, -1009951.2, 57831.48, 0.30932638, -0.64717615, -994523.56, 278803.2, 0.01541553, 9.9991255, 10.001933 
2.4517292e+3, 1.800562e+2, -1215558.8, -1126677.3, 38955.77, 0.1955077, -0.6600072, -1112020.3, 63367.883, 0.0031067657, 9.999142, 10.000431 
2.4513248e+3, 1.9004723e+2, -1154080.8, -1219782.4, 57396.754, 0.24421002, -0.6765011, -1120798.6, -43317.902, 0.00048131414, 9.999647, 9.998872 
2.4509199e+3, 2.0003842e+2, -900480.6, -891534.0, 3828.9158, 0.32473725, -0.64814806, -890119.1, 89454.32, 0.000015932997, 10.000051, 10.000249 
2.4505107e+3, 2.1003336e+2, -826514.3, -661014.44, -72023.83, 0.25474826, -0.47155273, -634060.3, 247566.45, 0.0000000054715246, 9.999268, 10.001535 
2.4501011e+3, 2.2002771e+2, -834392.4, -633471.0, 9000.974, 0.13677801, -0.34762564, -633068.56, 150614.39, 0.0, 9.998663, 10.00133 
2.4496946e+3, 2.3001805e+2, -477963.3, -439355.72, 115874.8, 0.07513501, -0.61644, -341187.8, 344579.78, 0.0, 10.000567, 10.00107 
2.4492884e+3, 2.4000858e+2, -224433.69, -390149.47, 47179.22, 0.09176241, -0.7969139, -211943.22, 375909.66, 0.0, 10.0021925, 9.999936 
2.4488792e+3, 2.5000232e+2, -459979.5, -569927.6, -57513.04, 0.32053536, -0.51224333, -435392.9, 54533.46, 0.0, 10.000421, 9.998878 
2.4484697e+3, 2.5999576e+2, -586706.3, -475319.13, 51817.92, 0.48311186, -0.23621465, -454941.22, -62938.613, 0.0, 9.998441, 9.999796 
2.448059e+3, 2.6998624e+2, -257019.33, -175044.89, 128407.48, 0.2703986, -0.40077952, -81241.77, 212847.73, 0.0, 9.999642, 10.000603 
2.447649e+3, 2.799767e+2, 36621.64, -2386.2556, 86239.19, 0.09567166, -0.57563245, 105534.9, 301709.75, 0.0, 10.001085, 10.000422 
2.4472386e+3, 2.8996757e+2, -87114.72, -87521.72, 57134.48, 0.17732388, -0.64694136, -30183.377, 68080.0, 0.0, 9.999884, 9.999743 
2.4468291e+3, 2.9995838e+2, -224314.63, -179685.98, 99033.33, 0.28480688, -0.6789336, -100484.15, -100129.63, 0.0, 9.998801, 9.999309 
2.4464175e+3, 3.099533e+2, 707052.25, 563605.3, -223029.9, 0.17491089, -0.2774549, 869607.6, 869607.6, 0.000000000000427524, 10.003925, 10.001941 
2.4641633e+3, 1.2051264e+2, -1925169.0, -1799133.0, 7648.9, 0.881346, -0.5365749, -1798670.5, -39748.33, 0.4772223, 9.998467, 10.000147 
2.4637525e+3, 1.3050044e+2, -1824807.0, -1847983.3, 16698.777, 0.3330174, -0.87609065, -1816069.4, -155026.02, 0.3557266, 9.999119, 9.998837 
2.4633482e+3, 1.4049383e+2, -1647969.8, -1643797.0, -40115.863, 0.47513562, -0.6048367, -1605713.3, -42601.234, 0.22774403, 9.999362, 9.999443 
2.4629407e+3, 1.504864e+2, -1508575.0, -1478043.8, -14171.2705, 0.47115073, -0.5374068, -1472480.0, -7293.383, 0.11809006, 9.999445, 9.999866 
2.4625334e+3, 1.6047846e+2, -1371635.8, -1290013.1, 87021.11, 0.46054268, -0.50041974, -1234708.6, 132556.17, 0.04605504, 9.999373, 10.000568 
2.4621272e+3, 1.7047e+2, -1210381.8, -1095278.5, 107504.09, 0.37275153, -0.6409199, -1030890.3, 238449.38, 0.012013259, 9.999523, 10.001143 
2.461721e+3, 1.8046147e+2, -1181057.8, -1097456.5, 70522.87, 0.25770646, -0.7579865, -1057276.8, 114139.37, 0.0018483637, 9.999335, 10.000541 
2.4613139e+3, 1.9045301e+2, -1350769.0, -1202139.8, 133909.7, 0.07825394, -0.80516195, -1123305.9, -49802.99, 0.00018026956, 9.997826, 9.9998665 
2.4609073e+3, 2.0044541e+2, -1350323.6, -1062483.6, 99939.63, -0.03716609, -0.726055, -1031186.94, -55603.332, 0.0000007906511, 9.99678, 10.000654 
2.4604996e+3, 2.1044335e+2, -1046078.56, -781407.94, 17129.135, 0.091351576, -0.24398737, -780303.94, 97309.56, 0.0, 9.997838, 10.001396 
2.460092e+3, 2.2043994e+2, -786267.7, -544260.3, 112539.92, 0.18466178, 0.10435125, -500015.3, 279636.84, 0.0, 9.998705, 10.001931 
2.4596858e+3, 2.3042636e+2, -618827.56, -370214.0, 217853.84, -0.008121633, -0.6642678, -243697.2, 438069.7, 0.0, 9.99901, 10.0022955 
2.4592793e+3, 2.4041355e+2, -589316.8, -486379.0, 16085.527, -0.14974222, -1.2874141, -483923.94, 99952.91, 0.0, 9.999334, 10.000664 
2.458869e+3, 2.5041196e+2, -577785.25, -573764.3, -138658.02, 0.1325554, -0.59068143, -437102.2, 48804.98, 0.0, 9.999374, 9.999365 
2.458459e+3, 2.6040956e+2, -484542.03, -371608.94, 35256.633, 0.40311304, 0.053127773, -361505.97, 26438.355, 0.0, 9.998889, 10.000306 
2.4580508e+3, 2.703963e+2, -232684.08, -114533.79, 163166.25, 0.30246538, -0.54332554, -77.68158, 289983.34, 0.0, 9.999582, 10.001059 
2.4576418e+3, 2.8038386e+2, 7789.1445, 58230.61, 32593.35, 0.12033333, -1.0578973, 74221.67, 266390.16, 0.0, 10.00054, 10.001122 
2.4572268e+3, 2.9037958e+2, 76715.766, 95658.99, -68146.91, -0.15122938, -0.74168247, 154989.36, 249199.42, 0.0, 10.000529, 10.000713 
2.4568176e+3, 3.0037197e+2, -387557.88, -809978.25, 91159.38, 0.055909988, -0.5368578, -368725.06, -368725.06, 0.0, 10.000019, 9.994413 
2.4564172e+3, 3.103564e+2, 130374.87, -592001.1, 37427.766, 0.5333762, -0.40823194, 132308.9, 132308.9, 0.0, 10.003712, 9.994114 
2.4741556e+3, 1.209213e+2, -1824225.4, -1773012.9, 43004.906, 1.0388141, -0.25894436, -1748568.1, 6371.1123, 0.46784535, 9.999248, 9.999951 
2.4737437e+3, 1.3091014e+2, -1843178.6, -1929767.9, 25685.357, 0.36378273, -0.42625338, -1836132.8, -179081.78, 0.34520847, 9.999321, 9.998156 
2.4733372e+3, 1.4090213e+2, -1546953.9, -1480990.9, -23847.62, 0.272561, -0.2833994, -1473272.5, 85859.734, 0.21743059, 9.999466, 10.000669 
2.4729316e+3, 1.5089585e+2, -1325002.0, -1148637.9, 11765.638, 0.43394035, -0.31092507, -1147856.5, 313331.5, 0.109704144, 9.999637, 10.002305 
2.4725258e+3, 1.6088921e+2, -1285101.0, -1201927.0, 136543.6, 0.5683925, -0.3243664, -1100777.8, 262469.6, 0.040704507, 9.999778, 10.000991 
2.4721192e+3, 1.7088085e+2, -1228343.4, -1234244.3, 148262.78, 0.39962003, -0.36284038, -1083001.6, 182323.86, 0.00953522, 9.999964, 9.999968 
2.4717116e+3, 1.8087244e+2, -1062604.3, -917713.44, 50660.758, 0.19035459, -0.4126955, -901757.25, 265646.16, 0.0011160366, 9.999622, 10.001632 
2.4713016e+3, 1.908651e+2, -1316326.9, -894198.75, 92166.49, -0.036241427, -0.5646657, -874952.8, 194515.98, 0.00006263998, 9.996799, 10.002475 
2.4708925e+3, 2.0085798e+2, -1593427.9, -1063497.3, 203234.38, -0.17088996, -0.6462923, -994530.1, -22995.498, 0.0000000031066179, 9.994639, 10.001665 
2.4704881e+3, 2.1085246e+2, -1214984.0, -907516.06, 202221.28, 0.062180102, -0.48265606, -807227.25, 66366.414, 0.0, 9.996882, 10.000994 
2.4700835e+3, 2.208466e+2, -819080.44, -612044.0, 218835.97, 0.26542908, -0.32774815, -473477.1, 302178.03, 0.0, 9.998714, 10.001456 
2.4696772e+3, 2.3083739e+2, -965475.5, -610205.9, 203529.75, 0.20559874, -0.584097, -517695.38, 160042.48, 0.0, 9.996944, 10.001646 
2.4692702e+3, 2.4082805e+2, -1130678.1, -738547.0, 26469.701, 0.12258819, -0.81119275, -736768.3, -156946.03, 0.0, 9.9955845, 10.000742 
2.468859e+3, 2.5082228e+2, -763666.94, -596203.5, -77461.29, 0.1333895, -0.5747012, -565868.3, -83983.92, 0.0, 9.997819, 9.999955 
2.468448e+3, 2.6081595e+2, -371814.13, -346968.5, 59441.27, 0.18698844, -0.36086044, -298665.78, 85285.46, 0.0, 9.999807, 10.000018 
2.468041e+3, 2.7080396e+2, -338964.2, -286241.66, 90111.73, 0.20679258, -0.7413134, -218714.48, 67343.95, 0.0, 9.999369, 9.999986 
2.467633e+3, 2.80793e+2, -253868.95, -246648.94, -58412.992, 0.097183965, -0.99310035, -191734.5, -3577.9695, 0.0, 9.999518, 9.999515 
2.467219e+3, 2.9078755e+2, 313097.2, -8552.233, -266264.84, -0.28375623, -0.6290332, 463337.7, 553555.1, 0.0, 10.003097, 9.998762 
2.4668127e+3, 3.0077863e+2, 353471.44, -554022.44, -183777.1, 0.07817637, -0.41204223, 389275.63, 389275.63, 0.0, 10.005556, 9.993504 
2.4664108e+3, 3.107611e+2, -134903.17, -692557.94, 60517.367, 0.45799163, -0.48619187, -128411.336, -128411.336, 0.0, 10.001786, 9.994355 
2.484148e+3, 1.2133265e+2, -1469248.3, -1623555.1, 83377.65, 0.95136523, 0.044756953, -1432803.8, 318120.75, 0.45571485, 10.003457, 9.999657 
2.4837358e+3, 1.3132073e+2, -1700269.5, -1887657.3, 184914.34, 0.3939769, -0.16433415, -1586666.8, 66374.984, 0.33319858, 10.000601, 9.997897 
2.4833277e+3, 1.4131173e+2, -1666535.4, -1480555.8, 157001.61, 0.22718456, -0.10085464, -1391072.0, 164058.47, 0.20679392, 9.998432, 10.001249 
2.482922e+3, 1.5130582e+2, -1380783.4, -1082217.9, 86481.836, 0.36841807, -0.16435952, -1058976.9, 398202.44, 0.10179194, 9.998767, 10.003217 
2.4825166e+3, 1.6129957e+2, -1405121.0, -1257649.1, 111897.984, 0.5226886, -0.20050225, -1197377.0, 161855.05, 0.036105353, 9.998933, 10.001006 
2.4821104e+3, 1.7129126e+2, -1518242.9, -1425891.0, 181161.92, 0.40152112, -0.2015353, -1285112.8, -23801.135, 0.0076701324, 9.998205, 9.999493 
2.4817026e+3, 1.8128313e+2, -1284868.4, -959999.06, 61593.063, 0.20862179, -0.20092645, -948713.5, 214674.36, 0.000687035, 9.997831, 10.0022 
2.4812903e+3, 1.9127673e+2, -1015367.75, -599146.0, -61996.254, -0.060298517, -0.38604623, -590107.94, 475330.3, 0.000019881356, 9.998237, 10.003801 
2.4808799e+3, 2.0126982e+2, -1044502.1, -763961.4, 23005.684, -0.20842002, -0.56658727, -762087.3, 205407.66, 0.0, 9.998259, 10.001979 
2.4804772e+3, 2.1126093e+2, -1049008.1, -862229.0, 112020.86, 0.061990466, -0.7434984, -809775.25, 59805.773, 0.0, 9.998186, 10.0006695 
2.4800745e+3, 2.2125289e+2, -950448.6, -759719.56, 63859.008, 0.32951826, -0.7762958, -740313.2, 31347.963, 0.0, 9.998172, 10.000708 
2.4796683e+3, 2.3124884e+2, -998281.06, -733982.4, 25483.934, 0.4130596, -0.44196162, -731547.6, -57841.83, 0.0, 9.997184, 10.000685 
2.4792607e+3, 2.4124336e+2, -994885.6, -692751.25, -41247.938, 0.40935442, -0.21938783, -687221.2, -111459.125, 0.0, 9.996599, 10.000573 
2.4788484e+3, 2.5123182e+2, -575922.5, -457165.3, -70233.83, 0.13165717, -0.6045164, -424573.22, 53296.523, 0.0, 9.998892, 10.000401 
2.4784373e+3, 2.6122037e+2, -310414.25, -412385.88, -17311.375, -0.06024135, -0.915865, -307555.5, 72421.12, 0.0, 10.000621, 9.999195 
2.4780308e+3, 2.712114e+2, -353180.78, -473646.47, -10197.425, 0.046611417, -0.8615586, -352323.7, -70262.88, 0.0, 10.000036, 9.998389 
2.4776235e+3, 2.8120255e+2, -393001.06, -609315.6, -34882.19, 0.0064920424, -0.71404755, -387515.22, -203367.31, 0.0, 9.999821, 9.996889 
2.4772134e+3, 2.911926e+2, -31676.4, -514036.84, -97133.71, -0.34058586, -0.49835837, -12851.128, 73411.72, 0.0, 10.002181, 9.995733 
2.476811e+3, 3.0118257e+2, 299682.2, -329292.0, -175391.33, 0.16640764, -0.24708608, 345284.3, 345284.3, 0.0, 10.004067, 9.995785 
2.4764028e+3, 3.1117207e+2, 308282.3, 162046.64, -144040.88, 0.25926986, -0.13101678, 396700.8, 396700.8, 0.0, 10.001952, 10.000206 
2.4941404e+3, 1.2174627e+2, -1335763.8, -1517257.3, 34920.973, 0.60461223, 0.23520546, -1329276.5, 417602.7, 0.43991756, 10.00459, 10.0003805 
2.4937294e+3, 1.3173278e+2, -1581691.0, -1745669.5, 112934.836, 0.4945502, -0.17548841, -1524122.0, 124882.09, 0.31901658, 10.001186, 9.998649 
2.4933203e+3, 1.417234e+2, -1714534.6, -1606225.0, 200414.44, 0.48012754, -0.16495118, -1452777.6, 98314.18, 0.19536594, 9.99859, 10.000189 
2.4929109e+3, 1.517156e+2, -1530846.1, -1388666.6, 141226.8, 0.2225733, -0.19762115, -1301646.4, 151516.67, 0.094030365, 9.998823, 10.000871 
2.4925034e+3, 1.6170762e+2, -1397871.9, -1224350.1, 101511.37, 0.13018118, -0.25256667, -1177574.5, 177659.98, 0.032013185, 9.998862, 10.001259 
2.4921003e+3, 1.7169891e+2, -1480731.0, -1219061.5, 171767.2, 0.43743572, -0.42812183, -1133975.8, 123334.055, 0.0062260167, 9.997651, 10.001178 
2.4916956e+3, 1.816903e+2, -1490608.4, -1230759.5, 144908.14, 0.5975492, -0.53648424, -1166059.4, -6672.658, 0.00043419475, 9.99717, 10.000646 
2.4912849e+3, 1.9168265e+2, -1084692.0, -1019804.7, -25295.605, 0.32688764, -0.52231896, -1011108.9, 50352.707, 0.0000058323185, 9.999432, 10.000333 
2.4908753e+3, 2.0167501e+2, -723159.3, -707764.56, -100435.99, 0.1217748, -0.5194859, -614731.44, 348803.03, 0.000000000090419006, 10.000892, 10.001093 
2.4904695e+3, 2.1166721e+2, -872399.44, -722012.6, -69501.42, 0.22169633, -0.6216854, -694812.2, 170793.53, 0.0, 9.999158, 10.001158 
2.4900639e+3, 2.2165962e+2, -1009095.9, -763873.1, -76968.1, 0.30866468, -0.661995, -741716.94, 25960.176, 0.0, 9.997674, 10.000908 
2.4896558e+3, 2.3165391e+2, -946924.56, -719984.0, -95914.164, 0.2542074, -0.4968143, -684877.56, -15139.259, 0.0, 9.997589, 10.00058 
2.489248e+3, 2.4164754e+2, -803907.44, -641644.7, -86478.84, 0.19886935, -0.3551697, -604197.44, -32392.398, 0.0, 9.998094, 10.000185 
2.48884e+3, 2.5163776e+2, -376015.94, -426324.03, -119408.79, 0.13162696, -0.52198887, -279140.53, 194758.06, 0.0, 10.000531, 9.999821 
2.4884321e+3, 2.616275e+2, -92255.664, -387376.7, -173023.63, 0.080920935, -0.6684461, -12415.039, 363581.84, 0.0, 10.002441, 9.998494 
2.4880244e+3, 2.71618e+2, -156137.11, -460961.13, -203909.9, 0.11625842, -0.61083513, -53973.652, 224116.94, 0.0, 10.001735, 9.99766 
2.487616e+3, 2.816086e+2, -226511.23, -398122.38, -150841.88, 0.05860453, -0.5161592, -138777.56, 41406.418, 0.0, 10.000393, 9.998058 
2.487207e+3, 2.9159874e+2, -465890.38, -483874.3, -575.2733, -0.13703099, -0.49374792, -465872.0, -383584.84, 0.0, 9.998164, 9.997875 
2.4868041e+3, 3.0158973e+2, -527616.25, -574438.7, 138791.63, 0.27800044, -0.31127056, -410275.22, -410275.22, 0.0, 9.99778, 9.997095 
2.4863937e+3, 3.1158116e+2, 478181.28, 312930.88, -83587.586, -0.038569685, -0.059016936, 513088.25, 513088.25, 0.0, 10.002874, 10.000761 
2.504133e+3, 1.2215489e+2, -1645566.5, -1625085.6, -170021.64, 0.41481125, 0.1820211, -1464996.4, 277882.16, 0.42027465, 10.000624, 10.001049 
2.503722e+3, 1.321433e+2, -1675766.6, -1686441.6, -143133.16, 0.525143, -0.16640091, -1537871.5, 107109.836, 0.30251706, 9.999909, 9.999725 
2.5033128e+3, 1.4213425e+2, -1684888.3, -1640357.6, 53529.43, 0.6519188, -0.19570433, -1604647.6, -57584.73, 0.18302314, 9.998987, 9.999659 
2.502901e+3, 1.5212546e+2, -1541971.1, -1539638.0, 136945.97, 0.115003884, -0.23065813, -1403853.6, 45291.3, 0.08629053, 9.999391, 9.9994955 
2.5024918e+3, 1.6211644e+2, -1305600.5, -1186422.3, 103396.38, -0.13168691, -0.29725584, -1126672.9, 224554.14, 0.028287582, 9.99953, 10.001199 
2.5020903e+3, 1.721072e+2, -1285827.5, -1060195.4, 49472.574, 0.44151703, -0.58294046, -1049824.5, 203479.33, 0.0050760456, 9.998714, 10.001758 
2.501687e+3, 1.8209803e+2, -1480248.0, -1405579.8, 52061.22, 0.8477202, -0.7414921, -1378849.8, -223464.7, 0.00028139996, 9.998017, 9.999044 
2.501279e+3, 1.9208921e+2, -1457982.0, -1496188.8, 85245.01, 0.65153605, -0.6130147, -1389726.0, -332246.56, 0.0000014559199, 9.998153, 9.997686 
2.5008702e+3, 2.0208085e+2, -1076930.8, -947461.4, 39674.3, 0.44538665, -0.47722346, -936270.9, 23295.367, 0.0, 9.99875, 10.000488 
2.5004616e+3, 2.1207407e+2, -825742.94, -660450.44, 12127.543, 0.34283864, -0.48865128, -659565.4, 202059.34, 0.0, 9.999302, 10.001517 
2.500053e+3, 2.2206677e+2, -773756.44, -662181.3, -8540.216, 0.23653623, -0.5070487, -661531.4, 102159.27, 0.0, 9.99935, 10.0008 
2.4996433e+3, 2.3205814e+2, -786445.2, -665193.6, -47213.91, 0.03609445, -0.60932976, -648977.75, 16801.729, 0.0, 9.9988, 10.00037 
2.4992354e+3, 2.4204999e+2, -749292.1, -686386.2, 418.31955, -0.069472626, -0.6041574, -686383.44, -118519.41, 0.0, 9.998756, 9.999575 
2.4988325e+3, 2.5204337e+2, -437276.44, -538984.4, 29063.662, 0.12977266, -0.38309807, -429557.2, 40375.953, 0.0, 10.000458, 9.999092 
2.4984282e+3, 2.620355e+2, -240766.08, -521159.5, -103393.95, 0.27384362, -0.21454115, -206763.4, 165251.0, 0.0, 10.001688, 9.997942 
2.4980186e+3, 2.7202427e+2, -295797.97, -572197.0, -154731.66, 0.20246273, -0.28200406, -226534.27, 47595.0, 0.0, 10.000967, 9.997267 
2.497609e+3, 2.8201374e+2, -90938.875, -23479.738, -155239.0, 0.13882789, -0.36365393, 101651.734, 277883.72, 0.0, 9.999969, 10.000854 
2.4971999e+3, 2.9200608e+2, -55439.223, 186060.64, -68792.58, 0.16573675, -0.5210984, 204281.8, 282574.78, 0.0, 9.998938, 10.002113 
2.496794e+3, 3.01998e+2, -358499.97, -507751.5, 211749.27, 0.25985274, -0.5222555, -208611.25, -208611.25, 0.0, 9.998979, 9.996989 
2.4963842e+3, 3.1198812e+2, 215957.33, -213704.17, 148067.08, -0.4835304, -0.21475457, 262040.56, 262040.56, 0.0, 10.002773, 9.9972 
2.514124e+3, 1.2255767e+2, -1558480.5, -1487056.1, -146219.17, 0.3029638, -0.034044586, -1372251.3, 366679.38, 0.3973432, 10.000738, 10.002344 
2.5137123e+3, 1.325502e+2, -1551349.1, -1462759.0, -158459.36, 0.43305683, -0.14016894, -1342520.1, 298475.53, 0.28406283, 9.999993, 10.00158 
2.513304e+3, 1.425426e+2, -1509968.4, -1404060.8, 52184.56, 0.69993865, -0.19955276, -1382668.5, 160393.86, 0.16993596, 9.999476, 10.001231 
2.5128934e+3, 1.5253502e+2, -1386513.1, -1316639.0, 161212.95, 0.21059886, -0.2452802, -1186620.9, 258505.72, 0.078587286, 9.999837, 10.000881 
2.5124842e+3, 1.6252655e+2, -1337961.3, -1355093.6, 119893.18, -0.05032425, -0.2896876, -1226328.6, 120873.984, 0.024857625, 9.999978, 9.999797 
2.5120795e+3, 1.7251657e+2, -1353223.3, -1363370.4, 2645.4805, 0.28503567, -0.40971336, -1352575.0, -103275.55, 0.0041356636, 9.999412, 9.999336 
2.511675e+3, 1.8250713e+2, -1299979.3, -1165535.6, -13258.633, 0.5878086, -0.49702364, -1164240.6, -12850.83, 0.00018434241, 9.998593, 10.00041 
2.5112692e+3, 1.9249928e+2, -1369981.4, -1152733.0, 103801.016, 0.7037639, -0.5163202, -1111111.1, -57647.57, 0.00000026313862, 9.99746, 10.000374 
2.510862e+3, 2.0249133e+2, -1246833.9, -974154.8, 223880.64, 0.66571563, -0.5172547, -848366.5, 107171.79, 0.0, 9.997356, 10.000968 
2.5104532e+3, 2.1248366e+2, -802253.06, -705510.5, 209023.98, 0.34745404, -0.56204647, -539333.9, 318273.9, 0.0, 9.999706, 10.001012 
2.5100446e+3, 2.2247534e+2, -606564.75, -737345.5, 91679.85, 0.14300966, -0.58435756, -559344.75, 200341.98, 0.0, 10.00116, 9.999411 
2.5096366e+3, 2.3246558e+2, -685673.75, -799350.1, -10647.145, 0.19173267, -0.6248635, -684685.1, -22896.04, 0.0, 10.000271, 9.99874 
2.5092292e+3, 2.4245667e+2, -594128.56, -595989.9, 85389.22, 0.18943088, -0.591051, -509664.94, 54216.848, 0.0, 9.999758, 9.999706 
2.5088248e+3, 2.5245035e+2, -414215.22, -452831.2, 163189.4, 0.11413665, -0.3924972, -269195.56, 196750.98, 0.0, 10.000289, 9.999767 
2.5084192e+3, 2.6244316e+2, -386205.75, -504645.28, 20242.117, 0.11228545, -0.2109781, -382841.75, -14821.184, 0.0, 10.000318, 9.998714 
2.5080103e+3, 2.724333e+2, -492765.53, -569823.25, -28.744055, 0.21913166, -0.20026337, -492765.5, -222643.38, 0.0, 9.999196, 9.998135 
2.507601e+3, 2.8242308e+2, -219199.89, -136447.0, 73526.43, 0.22939098, -0.27675393, -93454.336, 78767.44, 0.0, 9.999309, 10.000395 
2.5071916e+3, 2.9241312e+2, 352948.22, 262390.03, -35694.438, 0.074003324, -0.5518108, 365325.78, 439627.25, 0.0, 10.002238, 10.001059 
2.506785e+3, 3.024035e+2, 253468.31, -279449.3, 45861.11, 0.050202616, -0.6267939, 257386.16, 257386.16, 0.0, 10.0034685, 9.996398 
2.506381e+3, 3.1239322e+2, -144194.47, -480467.75, 92757.71, -0.17452587, -0.34400448, -120305.266, -120305.266, 0.0, 10.000712, 9.996364 
2.5241137e+3, 1.22963406e+2, -2089928.8, -1694963.3, -13877.851, 0.24347736, -0.20518546, -1694476.3, 40469.508, 0.3720946, 9.996457, 10.001979 
2.5237027e+3, 1.3295795e+2, -1711086.1, -1509585.3, -132834.77, 0.36899602, -0.1389119, -1443615.3, 193383.77, 0.26429734, 9.998567, 10.001803 
2.523295e+3, 1.4295147e+2, -1490905.0, -1310867.8, 14219.858, 0.66194904, -0.1406787, -1309751.5, 229304.98, 0.15642525, 9.999226, 10.002085 
2.522885e+3, 1.5294375e+2, -1505696.9, -1269030.0, 79806.38, 0.2732913, -0.3109994, -1244633.4, 196482.53, 0.071005836, 9.998516, 10.001849 
2.5224763e+3, 1.6293545e+2, -1646707.5, -1604968.8, 47480.32, 0.048299324, -0.36664468, -1573973.8, -230784.58, 0.021693112, 9.998304, 9.998879 
2.5220695e+3, 1.7292596e+2, -1556297.9, -1623663.5, 60999.094, 0.19361974, -0.30815214, -1520299.9, -275008.25, 0.00335279, 9.998742, 9.997868 
2.5216636e+3, 1.8291694e+2, -1098350.1, -953247.9, 77502.125, 0.390599, -0.29303038, -919637.56, 227745.67, 0.00011963712, 9.999479, 10.001445 
2.521259e+3, 1.9290954e+2, -776497.5, -668510.2, 44224.805, 0.66467226, -0.43695343, -652710.25, 396734.97, 0.00000002568285, 10.000675, 10.002155 
2.520853e+3, 2.0290183e+2, -753864.7, -762063.2, 104768.516, 0.7306584, -0.53013873, -653115.25, 298397.13, 0.0, 10.000855, 10.000734 
2.5204444e+3, 2.1289344e+2, -882385.44, -837351.6, 107266.33, 0.30213833, -0.5927987, -750264.4, 103327.32, 0.0, 9.999573, 10.000167 
2.5200364e+3, 2.2288427e+2, -957009.2, -1072771.4, -56843.816, 0.084690936, -0.60577404, -933764.2, -178082.16, 0.0, 9.999455, 9.997941 
2.5196305e+3, 2.3287377e+2, -751715.44, -1011504.9, -89679.79, 0.36926597, -0.58274853, -723765.0, -65972.13, 0.0, 10.000573, 9.99715 
2.519224e+3, 2.4286437e+2, -413030.9, -473057.44, 72435.445, 0.45154548, -0.5188481, -364636.97, 195253.19, 0.0, 10.000846, 10.000033 
2.5188163e+3, 2.5285763e+2, -402214.28, -357427.72, 140105.38, 0.038250696, -0.4474659, -237937.34, 224017.86, 0.0, 9.999987, 10.000571 
2.5184083e+3, 2.6285076e+2, -412221.3, -406096.25, -73726.74, -0.14360471, -0.32311243, -335368.44, 28654.434, 0.0, 9.999648, 9.999723 
2.518001e+3, 2.7284342e+2, -313935.75, -354029.44, -97405.74, 0.19591248, -0.18732357, -234535.36, 31563.338, 0.0, 9.999859, 9.999302 
2.517593e+3, 2.828336e+2, -211087.38, -382154.78, 88517.2, 0.26529452, -0.2140722, -173530.42, -5337.061, 0.0, 10.000423, 9.998179 
2.5171822e+3, 2.9281962e+2, 106246.25, -232495.33, 56079.48, -0.26755014, -0.58429843, 115288.945, 185605.4, 0.0, 10.002162, 9.997699 
2.516778e+3, 3.0280763e+2, 162335.86, -370111.5, -3287.5774, -0.20656796, -0.6711398, 162356.16, 162356.16, 0.0, 10.003018, 9.996008 
2.516376e+3, 3.1279364e+2, -62543.8, -373162.8, 68779.28, 0.068615824, -0.81015, -47995.625, -47995.625, 0.0, 10.001027, 9.996929 
2.5341037e+3, 1.23370744e+2, -2211123.3, -2004593.9, 122280.81, 0.4169854, -0.56843853, -1947807.9, -216872.42, 0.34545884, 9.996766, 9.999553 
2.5336924e+3, 1.3336666e+2, -1832847.6, -1754504.4, -60122.53, 0.34104, -0.13198394, -1721918.5, -88929.52, 0.24384478, 9.998637, 9.999707 
2.533284e+3, 1.4336047e+2, -1478100.3, -1305029.3, 14575.063, 0.4723166, 0.022820896, -1303810.5, 231238.73, 0.14280652, 9.999347, 10.00203 
2.5328752e+3, 1.5334961e+2, -1491296.3, -1218826.3, 42705.305, 0.27549297, -0.4855172, -1212289.6, 224843.42, 0.06363834, 9.998417, 10.002248 
2.5324675e+3, 1.6334063e+2, -1572360.9, -1381985.1, 70012.6, 0.21142225, -0.6981411, -1359010.0, -19800.295, 0.0187796, 9.99801, 10.000546 
2.5320622e+3, 1.7333482e+2, -1409796.9, -1321073.9, 142540.48, 0.4244193, -0.4623222, -1216151.3, 25123.95, 0.0026956536, 9.998742, 9.999941 
2.5316566e+3, 1.8332744e+2, -1131857.4, -1187429.5, 230977.97, 0.49911013, -0.32020682, -927000.2, 216353.78, 0.00007576087, 10.000198, 9.999479 
2.5312498e+3, 1.9331783e+2, -650487.4, -932356.7, 115494.516, 0.33851185, -0.39405265, -609209.06, 436239.5, 0.00000000011876218, 10.0029335, 9.99925 
2.530843e+3, 2.0330894e+2, -507871.88, -824757.9, -71414.805, 0.2806361, -0.3703393, -492521.16, 455015.06, 0.0, 10.003332, 9.999104 
2.530436e+3, 2.1330148e+2, -989157.1, -1032742.75, -139280.63, 0.3409324, -0.2118038, -869974.7, -20362.402, 0.0, 9.999461, 9.998875 
2.5300285e+3, 2.2329262e+2, -1107154.4, -1045985.06, -110738.03, 0.30090085, -0.16627246, -961685.75, -209984.95, 0.0, 9.997999, 9.99882 
2.529621e+3, 2.3328151e+2, -566243.75, -770153.6, -43385.582, 0.18195207, -0.33715907, -557396.56, 96413.164, 0.0, 10.00119, 9.998507 
2.529214e+3, 2.4327159e+2, -185698.05, -347478.8, 10684.697, 0.121604, -0.41791034, -184995.42, 370911.1, 0.0, 10.002327, 10.000185 
2.5288078e+3, 2.5326425e+2, -503586.9, -427429.97, -685.40857, 0.07287401, -0.38833165, -427423.8, 30552.262, 0.0, 9.999388, 10.000374 
2.528401e+3, 2.6325652e+2, -578213.3, -497139.06, -118338.06, 0.030525038, -0.33811745, -412587.6, -52538.38, 0.0, 9.998573, 9.99961 
2.527993e+3, 2.7324817e+2, -38394.44, -232995.77, -161990.3, 0.12546605, -0.30394587, 53271.23, 315401.22, 0.0, 10.00179, 9.999212 
2.5275853e+3, 2.8323823e+2, 187219.75, -220936.5, -51099.055, 0.1276967, -0.34548408, 193519.83, 357745.16, 0.0, 10.003323, 9.997873 
2.527177e+3, 2.9322514e+2, -11778.658, -339903.75, -5827.119, -0.16242947, -0.5924504, -11675.208, 54672.117, 0.0, 10.001584, 9.997232 
2.5267732e+3, 3.0321363e+2, 7267.2886, -291096.88, 86202.29, -0.07554134, -0.6475626, 30381.834, 30381.834, 0.0, 10.001309, 9.997365 
2.5263703e+3, 3.1320372e+2, 499475.78, 133239.14, 212378.28, 0.05157566, -0.54963064, 596780.06, 596780.06, 0.0, 10.003865, 9.99905 
2.5440937e+3, 1.23779215e+2, -2093920.3, -1970590.8, -101345.05, 0.50680685, -0.52783144, -1913624.3, -186693.64, 0.3181562, 9.997726, 9.99932 
2.5436828e+3, 1.3377453e+2, -1786189.9, -1823885.3, -120872.34, 0.32395568, -0.11890334, -1682704.6, -53714.797, 0.22319707, 9.999366, 9.998892 
2.543274e+3, 1.4376764e+2, -1418706.6, -1301724.9, -36154.59, 0.31974602, 0.019775236, -1291452.8, 239604.13, 0.12934339, 9.999961, 10.001723 
2.5428656e+3, 1.5375528e+2, -1375264.8, -1198555.6, -74283.49, 0.2506601, -0.6229747, -1171478.1, 261676.7, 0.05657354, 9.99941, 10.001901 
2.5424588e+3, 1.6374633e+2, -1325541.8, -1167916.1, -68633.55, 0.29629284, -0.8626567, -1142220.5, 193010.55, 0.016116831, 9.999291, 10.001414 
2.5420547e+3, 1.7374313e+2, -1147133.3, -1066795.0, -80051.305, 0.5424862, -0.511176, -1017399.8, 219870.31, 0.0021455006, 9.999992, 10.001091 
2.541649e+3, 1.8373674e+2, -1224019.8, -1428210.9, 47823.586, 0.51799446, -0.28894523, -1213374.0, -74033.414, 0.000046550977, 10.000416, 9.997727 
2.541241e+3, 1.9372542e+2, -1191007.1, -1446349.9, 92647.234, 0.039379537, -0.33638057, -1160933.5, -119474.43, 0.0, 10.000335, 9.996974 
2.5408337e+3, 2.0371568e+2, -958158.25, -1174220.4, -139690.97, -0.077876315, -0.22071442, -889598.6, 53963.645, 0.0, 10.000802, 9.997933 
2.540428e+3, 2.1370883e+2, -841856.8, -1084124.4, -167801.58, 0.38528898, 0.10057179, -756034.6, 89602.73, 0.0, 10.000999, 9.997786 
2.5400206e+3, 2.2370027e+2, -651681.44, -709956.1, 39254.52, 0.46484223, 0.20737441, -631932.1, 115791.6, 0.0, 10.00062, 9.999872 
2.5396115e+3, 2.3368901e+2, -591363.8, -623010.75, 82976.04, -0.09472232, -0.121569894, -522715.97, 127112.14, 0.0, 10.000329, 9.999939 
2.539204e+3, 2.4367882e+2, -476899.16, -521308.84, -76914.41, -0.26806507, -0.30126452, -419048.5, 132874.6, 0.0, 10.000464, 9.999893 
2.5388e+3, 2.5367078e+2, -463135.28, -479247.6, -121856.78, 0.14132293, -0.28675216, -349068.66, 104930.34, 0.0, 9.999963, 9.999746 
2.5383937e+3, 2.6366165e+2, -425847.53, -482944.34, -64243.54, 0.269881, -0.3221424, -384094.84, -28010.988, 0.0, 9.999857, 9.999099 
2.537985e+3, 2.7365097e+2, -153381.0, -343291.66, -44745.37, -0.006452612, -0.48134708, -143366.52, 114814.92, 0.0, 10.001229, 9.99873 
2.5375783e+3, 2.8364083e+2, 42108.645, -242963.25, -83053.69, -0.059021242, -0.5279115, 64540.605, 224818.72, 0.0, 10.002106, 9.998317 
2.5371733e+3, 2.9363075e+2, -1837.0912, -256469.22, -61504.63, 0.1253104, -0.5472766, 12240.62, 74621.0, 0.0, 10.001308, 9.997941 
2.536769e+3, 3.036207e+2, 184901.58, 28657.645, 150667.95, 0.16928719, -0.5825043, 276496.66, 276496.66, 0.0, 10.001495, 9.999486 
2.536362e+3, 3.136174e+2, 769335.56, 694285.0, 240640.33, -0.38223225, -0.07305809, 975358.9, 975358.9, 0.0, 10.003815, 10.002959 
2.5540847e+3, 1.2418856e+2, -1831134.4, -1613281.9, -55546.26, 0.5840257, 0.013471353, -1599936.6, 123000.13, 0.290817, 9.9983425, 10.001797 
2.553675e+3, 1.3418e+2, -1573431.1, -1514001.3, -38106.824, 0.36274043, -0.15834591, -1495393.3, 129623.23, 0.20276809, 9.999905, 10.000955 
2.553265e+3, 1.4417125e+2, -1419052.3, -1397314.0, -32322.74, 0.23671536, -0.2752102, -1374081.9, 153013.64, 0.11625642, 10.000428, 10.000721 
2.5528565e+3, 1.541607e+2, -1409620.8, -1360074.8, -97546.516, 0.18869688, -0.5887296, -1284204.8, 144981.88, 0.04988728, 9.999845, 10.000512 
2.552449e+3, 1.6415241e+2, -1341327.0, -1345586.9, -70180.055, 0.19720912, -0.6118006, -1273244.5, 58019.81, 0.013707004, 9.999915, 9.999886 
2.5520447e+3, 1.7414793e+2, -1128934.4, -1219378.5, -133165.02, 0.30053544, -0.23720127, -1033522.3, 199796.23, 0.0016894786, 10.000806, 9.999652 
2.5516394e+3, 1.8414104e+2, -1068347.8, -1147048.4, -90314.414, 0.31984255, -0.07733948, -1009183.4, 126207.29, 0.000027889511, 10.000611, 9.999551 
2.5512335e+3, 1.9413072e+2, -1244951.6, -1222985.3, 10303.427, 0.18772687, -0.24687204, -1218908.9, -181419.69, 0.0, 9.998907, 9.999184 
2.5508273e+3, 2.0412093e+2, -1069792.5, -1066404.5, -16357.557, 0.14980902, -0.32037744, -1051653.5, -112068.625, 0.0, 9.999342, 9.999375 
2.550421e+3, 2.1411236e+2, -496334.47, -774230.7, 23886.12, 0.31247205, -0.28893667, -494296.3, 347375.4, 0.0, 10.002745, 9.999077 
2.5500134e+3, 2.241038e+2, -331199.5, -627539.3, 65356.594, 0.29815516, -0.21496092, -317425.6, 426332.97, 0.0, 10.00314, 9.999221 
2.5496036e+3, 2.3409519e+2, -812887.6, -828612.6, 21162.328, -0.017844519, -0.17311393, -798174.44, -152329.36, 0.0, 9.999241, 9.999047 
2.5491962e+3, 2.4408607e+2, -882561.7, -846506.6, -16161.612, -0.11529243, -0.14156292, -840322.8, -292386.63, 0.0, 9.998257, 9.99871 
2.5487924e+3, 2.5407678e+2, -342675.16, -562011.6, -76385.35, 0.13929014, -0.12561102, -318695.2, 131334.05, 0.0, 10.001391, 9.998487 
2.5483868e+3, 2.6406685e+2, -42067.215, -229539.14, -121271.83, 0.24882104, -0.20430927, 17472.023, 369594.63, 0.0, 10.002189, 9.99972 
2.5479785e+3, 2.7405614e+2, -335281.56, -342679.47, -75543.984, 0.13666789, -0.44256458, -263346.03, -9130.452, 0.0, 9.999596, 9.999521 
2.5475714e+3, 2.8404644e+2, -389840.16, -386892.3, -11340.762, 0.060555495, -0.50707215, -376930.1, -220625.48, 0.0, 9.998864, 9.998883 
2.5471652e+3, 2.940379e+2, -51359.91, -219743.23, 2559.7637, 0.053343214, -0.4229463, -51321.008, 7070.2437, 0.0, 10.000703, 9.998486 
2.5467625e+3, 3.0402806e+2, 206135.19, -101799.9, 166232.1, 0.13099341, -0.40754297, 278749.0, 278749.0, 0.0, 10.002281, 9.998197 
2.5463545e+3, 3.140215e+2, 398039.28, 187355.98, 8396.022, -0.6557682, -0.08379612, 398373.34, 398373.34, 0.0, 10.002702, 9.999998 
2.5640753e+3, 1.2459565e+2, -1766199.3, -1549468.0, 75012.79, 0.61350155, 0.07633072, -1526038.3, 192910.94, 0.26402977, 9.998642, 10.002189 
2.563666e+3, 1.3458627e+2, -1719603.1, -1510046.9, 25905.004, 0.37997806, -0.23940945, -1506892.0, 114139.99, 0.18292515, 9.998535, 10.001598 
2.5632566e+3, 1.4457704e+2, -1686877.3, -1634114.9, -35918.996, 0.22851765, -0.39323038, -1615930.0, -92814.22, 0.1037245, 9.9989805, 9.999685 
2.562848e+3, 1.5456785e+2, -1499789.8, -1543113.8, -59182.727, 0.20086752, -0.46108827, -1458429.3, -33227.54, 0.043632858, 9.999803, 9.999253 
2.5624406e+3, 1.6455962e+2, -1394261.5, -1482871.4, 48643.094, 0.16333047, -0.35856596, -1372770.6, -45486.258, 0.011545959, 10.000055, 9.99886 
2.562035e+3, 1.7455298e+2, -1370132.9, -1464243.9, 48405.46, 0.10933855, -0.08908715, -1349680.5, -120321.36, 0.0013158798, 9.999721, 9.998489 
2.56163e+3, 1.8454516e+2, -1080147.3, -973410.3, 24910.08, 0.16420835, -0.014913873, -967883.06, 163553.44, 0.000016496271, 9.99976, 10.001154 
2.561226e+3, 1.9453588e+2, -1014021.06, -918320.5, 26453.113, 0.32951602, -0.25558367, -911495.2, 122021.875, 0.0, 9.999653, 10.000921 
2.5608206e+3, 2.0452619e+2, -923199.75, -878011.0, 51119.086, 0.3456875, -0.46027857, -844715.6, 90890.29, 0.0, 9.999837, 10.000434 
2.560414e+3, 2.1451616e+2, -730828.75, -770376.56, 48764.89, 0.18713908, -0.68486786, -697981.1, 139721.25, 0.0, 10.000631, 10.000123 
2.560006e+3, 2.2450775e+2, -670558.44, -905773.2, -128534.71, 0.1276565, -0.6123611, -613945.6, 125842.46, 0.0, 10.001306, 9.998195 
2.5595963e+3, 2.3450154e+2, -676475.75, -897997.94, -134610.98, 0.13549505, -0.22708714, -612914.94, 28943.76, 0.0, 10.000766, 9.997837 
2.559189e+3, 2.4449314e+2, -632065.56, -868251.6, 75046.47, 0.1126818, -0.0007868734, -610237.4, -66287.914, 0.0, 10.000578, 9.99745 
2.558785e+3, 2.5448245e+2, -431733.47, -756894.44, 77279.05, 0.068316974, -0.00042275185, -414301.53, 31760.256, 0.0, 10.00143, 9.997138 
2.5583798e+3, 2.6447222e+2, -54244.055, -141373.72, -160997.25, 0.15504938, -0.06912182, 68978.44, 417137.38, 0.0, 10.001694, 10.0005665 
2.557972e+3, 2.744625e+2, -144051.48, -143352.13, -163724.02, 0.35059234, -0.3083132, 20022.586, 270261.9, 0.0, 10.000441, 10.000488 
2.557564e+3, 2.8445315e+2, -191359.03, -246211.36, 13166.131, 0.22520277, -0.40936208, -188362.48, -36041.04, 0.0, 10.000012, 9.999307 
2.557155e+3, 2.944452e+2, 28662.29, -140136.52, 38703.86, -0.25154522, -0.31293955, 37113.563, 91510.62, 0.0, 10.00107, 9.998858 
2.5567552e+3, 3.044356e+2, -81162.99, -652700.56, 174320.0, -0.027091248, -0.1295515, -32191.195, -32191.195, 0.0, 10.002074, 9.994519 
2.556351e+3, 3.1442124e+2, 85365.81, -332029.56, 88766.375, -0.50509274, -0.19231229, 103459.2, 103459.2, 0.0, 10.002164, 9.99668 
2.5740653e+3, 1.250006e+2, -1790206.5, -1693524.4, 82472.03, 0.54074425, -0.36642757, -1646270.0, 68692.65, 0.23823376, 9.9991665, 10.000645 
2.5736567e+3, 1.3499337e+2, -1793949.6, -1658283.3, 36101.477, 0.42261198, -0.32676733, -1649274.6, -32237.625, 0.16394804, 9.998587, 10.000385 
2.5732484e+3, 1.4498581e+2, -1713224.9, -1658832.4, 33476.2, 0.3668476, -0.24195318, -1642897.5, -123785.62, 0.09188185, 9.998851, 9.999577 
2.572842e+3, 1.5497793e+2, -1469036.6, -1529294.8, 22632.281, 0.4096986, -0.16217273, -1461483.1, -40295.793, 0.03784501, 10.0000105, 9.999248 
2.5724345e+3, 1.6496867e+2, -1316021.4, -1351851.5, 92719.484, 0.3480282, -0.19529393, -1239502.0, 83774.15, 0.009625426, 10.000218, 9.999666 
2.572027e+3, 1.7495851e+2, -1343162.5, -1355239.9, 118122.945, 0.18620141, -0.34422112, -1230924.0, -5549.47, 0.0010124295, 9.999505, 9.999326 
2.5716212e+3, 1.8494898e+2, -1151423.8, -1076115.0, 146525.27, 0.16066873, -0.4460645, -962483.25, 164981.47, 0.000009793076, 9.999568, 10.000537 
2.5712174e+3, 1.9494009e+2, -949700.9, -958224.75, 106696.08, 0.28488797, -0.5585769, -847181.6, 182363.69, 0.0, 10.000395, 10.00029 
2.570812e+3, 2.0493165e+2, -965801.2, -1045497.8, 31395.484, 0.29157034, -0.5369173, -954919.2, -23290.068, 0.0, 10.000175, 9.999117 
2.570405e+3, 2.1492372e+2, -1068287.0, -1067297.5, -29204.445, 0.17253843, -0.42482018, -1038583.6, -204868.58, 0.0, 9.998894, 9.998915 
2.5699985e+3, 2.2491544e+2, -834758.6, -914080.25, -108233.53, 0.17528257, -0.31539047, -759148.1, -23347.775, 0.0, 9.999882, 9.998809 
2.569592e+3, 2.3490728e+2, -279707.6, -632874.2, -78198.57, 0.30752426, -0.19256967, -263167.4, 374714.5, 0.0, 10.003167, 9.998493 
2.5691852e+3, 2.4489778e+2, -106346.836, -505427.8, 68423.5, 0.26795354, -0.15933946, -94941.4, 445035.66, 0.0, 10.003726, 9.998421 
2.5687784e+3, 2.5488693e+2, -365255.2, -621217.25, 128648.87, 0.068695, -0.25630084, -311770.88, 130314.58, 0.0, 10.001441, 9.998061 
2.5683713e+3, 2.648773e+2, -241926.7, -394416.84, -38581.445, 0.031556472, -0.23526952, -232720.98, 111458.99, 0.0, 10.001125, 9.99909 
2.567964e+3, 2.748688e+2, 90558.016, -200957.38, -135996.2, 0.16783905, -0.18087281, 144149.94, 390409.88, 0.0, 10.002802, 9.998946 
2.5675565e+3, 2.8485864e+2, 202001.02, -172022.45, -62054.19, 0.09726106, -0.23458582, 212027.63, 360383.4, 0.0, 10.003222, 9.998263 
2.5671488e+3, 2.94848e+2, 127793.09, -201585.92, -112821.35, -0.19752982, -0.319332, 162731.47, 213188.8, 0.0, 10.002221, 9.997881 
2.5667492e+3, 3.048383e+2, -253276.5, -637347.3, 60670.832, 0.06614594, -0.15181072, -243920.38, -243920.38, 0.0, 10.000467, 9.995396 
2.5663424e+3, 3.1482163e+2, -308359.88, -208048.33, 90982.234, -0.5444279, -0.5430521, -154312.97, -154312.97, 0.0, 9.998121, 9.999466 
2.584056e+3, 1.2540606e+2, -2007150.4, -1893811.3, -83829.875, 0.51780725, -0.55878145, -1849293.5, -138313.38, 0.21372773, 9.998165, 9.999626 
2.5836474e+3, 1.3540004e+2, -1728814.3, -1760492.3, -110412.21, 0.41430196, -0.3260039, -1633110.8, -20059.336, 0.14603141, 9.999613, 9.999194 
2.5832406e+3, 1.4539318e+2, -1477757.0, -1517959.3, -55695.523, 0.41813797, -0.138203, -1438646.3, 76476.46, 0.0808275, 10.000397, 9.999808 
2.5828353e+3, 1.553856e+2, -1349925.6, -1459150.3, -37350.09, 0.5284683, -0.06922701, -1338375.0, 78819.5, 0.032553293, 10.000804, 9.999346 
2.582428e+3, 1.6537589e+2, -1227008.8, -1252928.0, -29069.762, 0.4767859, -0.18770978, -1208140.8, 111143.59, 0.007938516, 10.000585, 10.000174 
2.5820193e+3, 1.7536435e+2, -1305339.3, -1288500.8, -18198.242, 0.27162156, -0.5436707, -1276868.5, -55479.496, 0.00076767127, 9.99956, 9.999762 
2.581613e+3, 1.853541e+2, -1233618.9, -1227166.9, 53450.117, 0.19732231, -0.70184225, -1176845.5, -53360.836, 0.000005913737, 9.999488, 9.999539 
2.5812092e+3, 1.9534528e+2, -1092894.4, -1150252.3, 20535.303, 0.23583081, -0.7266702, -1086300.4, -60731.504, 0.0, 9.999949, 9.999186 
2.5808033e+3, 2.0533772e+2, -1020202.3, -1215631.4, -87466.586, 0.2166276, -0.50462073, -986773.7, -59123.266, 0.0, 10.000423, 9.997835 
2.5803956e+3, 2.1533152e+2, -933905.06, -1152090.0, -97049.24, 0.13100646, -0.10057062, -896984.75, -67256.99, 0.0, 10.00046, 9.997586 
2.5799906e+3, 2.2532292e+2, -651495.94, -733160.94, -32422.955, 0.21404722, -0.003329846, -640188.8, 91626.516, 0.0, 10.00073, 9.999652 
2.579588e+3, 2.3531245e+2, -483218.1, -639418.06, -3181.4197, 0.42279363, -0.20178616, -483153.3, 150756.72, 0.0, 10.001373, 9.999318 
2.5791815e+3, 2.4530195e+2, -292829.88, -458863.88, -54747.547, 0.35791293, -0.37697256, -276402.84, 259604.03, 0.0, 10.001851, 9.999647 
2.5787714e+3, 2.552914e+2, -295881.38, -460579.78, -21793.695, 0.042975005, -0.57556915, -293046.34, 145058.47, 0.0, 10.001371, 9.999201 
2.5783628e+3, 2.6528242e+2, -353012.44, -703275.75, -51340.152, -0.12597524, -0.44292024, -345642.28, -5445.2207, 0.0, 10.001442, 9.996828 
2.577955e+3, 2.752749e+2, -171803.3, -595957.3, -84266.2, -0.17668384, -0.06315254, -155675.47, 86606.2, 0.0, 10.002144, 9.996557 
2.5775495e+3, 2.852635e+2, -21034.898, -460090.6, -73831.19, -0.10943308, -0.042020656, -8952.036, 135446.05, 0.0, 10.002455, 9.996662 
2.5771454e+3, 2.95249e+2, -24123.514, -445590.1, -99336.51, 0.028134294, -0.35507143, -1884.1439, 44655.457, 0.0, 10.001902, 9.9963665 
2.576743e+3, 3.0523852e+2, -9034.065, -100051.04, 428.08813, 0.20053983, -0.37298614, -9032.052, -9032.052, 0.0, 10.000323, 9.999159 
2.5763354e+3, 3.152275e+2, -131024.0, 130944.06, 22413.564, -0.25701496, -0.569279, 132847.89, 132847.89, 0.0, 9.998213, 10.001769 
2.5940466e+3, 1.2581141e+2, -1996081.8, -1966499.1, -20796.83, 0.57722604, -0.48405558, -1955770.0, -248759.45, 0.1907622, 9.998556, 9.998953 
2.5936383e+3, 1.3580531e+2, -1702989.4, -1802620.3, -58493.832, 0.34732527, -0.17205982, -1675973.1, -66886.484, 0.12932305, 10.000009, 9.99873 
2.5932318e+3, 1.457966e+2, -1359311.8, -1372203.1, -43725.684, 0.3143502, -0.19254501, -1321559.3, 189613.9, 0.07062257, 10.000854, 10.000652 
2.5928274e+3, 1.5578634e+2, -1225558.6, -1301189.5, -31563.752, 0.44698325, -0.46716228, -1214116.8, 199147.77, 0.027766839, 10.001248, 10.000234 
2.5924206e+3, 1.6577807e+2, -1190681.3, -1242451.4, -74612.23, 0.47849467, -0.47950634, -1137591.5, 177749.31, 0.0064744665, 10.000853, 10.000118 
2.5920126e+3, 1.7577107e+2, -1263751.3, -1277100.6, -72742.91, 0.43097448, -0.37231687, -1197377.5, 20030.313, 0.0005723583, 9.999862, 9.999701 
2.591606e+3, 1.8576248e+2, -1289635.0, -1367117.0, 30035.95, 0.3736658, -0.31174555, -1279355.4, -159862.75, 0.0000035552432, 9.999579, 9.998537 
2.5912017e+3, 1.9575314e+2, -1168602.3, -1293146.4, -15923.895, 0.31889918, -0.28843188, -1166598.5, -145011.72, 0.0, 9.999874, 9.99824 
2.5907955e+3, 2.05744e+2, -943384.7, -1148259.3, -78584.76, 0.17638426, -0.1982796, -916713.6, 6967.969, 0.0, 10.00083, 9.998099 
2.5903878e+3, 2.1573533e+2, -654082.0, -981619.75, -68898.26, -0.01844398, -0.059471693, -640179.2, 185595.5, 0.0, 10.002217, 9.99792 
2.5899822e+3, 2.2572541e+2, -498337.63, -600468.7, -84456.41, 0.045706917, -0.13975254, -450708.8, 277159.7, 0.0, 10.001541, 10.000162 
2.5895783e+3, 2.3571463e+2, -744439.0, -715781.44, -64980.992, 0.29820842, -0.42006773, -663568.2, -33605.99, 0.0, 9.999365, 9.999755 
2.589172e+3, 2.4570492e+2, -656871.75, -689967.25, -50533.742, 0.24333584, -0.50825435, -620245.4, -88192.9, 0.0, 9.9995985, 9.999138 
2.5887635e+3, 2.5569606e+2, -290566.53, -506645.06, -91828.75, -0.046470575, -0.4986227, -256813.69, 177325.69, 0.0, 10.001624, 9.998756 
2.5883564e+3, 2.6568708e+2, -253193.34, -586095.44, -161317.28, -0.1095233, -0.38255775, -187848.75, 148383.17, 0.0, 10.0018635, 9.997411 
2.5879496e+3, 2.756784e+2, -351799.78, -626374.9, -97809.06, 0.01098471, -0.17298652, -320521.34, -82195.72, 0.0, 10.000681, 9.997041 
2.587545e+3, 2.8566778e+2, -276881.53, -513198.9, 31847.924, 0.13786258, -0.12390733, -272664.72, -132230.45, 0.0, 10.0004225, 9.997263 
2.5871405e+3, 2.956553e+2, -137555.92, -422713.2, 90473.516, 0.24826622, -0.26892057, -111273.305, -68716.38, 0.0, 10.000811, 9.997037 
2.586735e+3, 3.056451e+2, 13987.001, -27866.809, 89541.23, 0.18039949, -0.30075055, 85014.25, 85014.25, 0.0, 10.000226, 9.999703 
2.5863302e+3, 3.1563896e+2, -17932.898, 334308.8, 88040.14, 0.22670607, -0.06435291, 355088.0, 355088.0, 0.0, 9.998343, 10.003107 
2.6040375e+3, 1.2621653e+2, -2031887.4, -1952288.6, -99644.31, 0.6300959, -0.3097101, -1884789.5, -181740.92, 0.16948101, 9.998183, 9.999229 
2.6036295e+3, 1.3620995e+2, -1819976.9, -1838490.6, -48370.586, 0.31170952, -0.09380155, -1779985.4, -174857.89, 0.11390852, 9.999126, 9.998903 
2.6032233e+3, 1.4620087e+2, -1571098.8, -1411633.1, -54428.457, 0.26524177, -0.19590655, -1394827.0, 112388.414, 0.061296362, 9.999051, 10.001218 
2.602819e+3, 1.561901e+2, -1616928.8, -1443117.5, -56803.16, 0.4064197, -0.58604795, -1426200.3, -16891.035, 0.023481611, 9.998328, 10.000649 
2.6024127e+3, 1.6618265e+2, -1437407.1, -1390017.4, -112631.69, 0.4908779, -0.5266103, -1298615.1, 12763.967, 0.005220199, 9.999286, 9.999859 
2.6020056e+3, 1.7617771e+2, -1166258.5, -1277858.0, -117750.81, 0.54281855, -0.19426122, -1091755.3, 121674.87, 0.00041937284, 10.00075, 9.999272 
2.6015994e+3, 1.8616979e+2, -1111916.6, -1337762.6, 19378.47, 0.48978263, -0.021540338, -1110266.0, 5245.211, 0.0000020172258, 10.001039, 9.998041 
2.601194e+3, 1.961601e+2, -1107862.0, -1319662.5, 41445.676, 0.3602128, 0.017881822, -1100040.6, -82430.164, 0.0, 10.000533, 9.997747 
2.600788e+3, 2.0614971e+2, -917418.25, -1076838.0, 47129.55, 0.15452112, -0.015574982, -904527.6, 15186.206, 0.0, 10.000762, 9.998617 
2.6003805e+3, 2.1613894e+2, -773840.94, -984806.94, 60332.26, -0.10939355, -0.13218735, -757805.9, 64013.2, 0.0, 10.001178, 9.998393 
2.599974e+3, 2.26128e+2, -503625.66, -604329.56, -86544.4, -0.10350328, -0.3308198, -453851.4, 270067.0, 0.0, 10.00151, 10.000156 
2.5995678e+3, 2.3611708e+2, -486887.0, -604271.94, -105174.06, 0.093096636, -0.6220499, -425137.0, 200874.9, 0.0, 10.00119, 9.999648 
2.5991622e+3, 2.4610832e+2, -516399.1, -713978.9, 7221.373, 0.06397755, -0.5657401, -516135.5, 11961.382, 0.0, 10.000956, 9.998323 
2.598756e+3, 2.5610113e+2, -438581.0, -658584.3, -21088.412, -0.15233144, -0.30661136, -436577.8, -6402.9136, 0.0, 10.000952, 9.998043 
2.5983506e+3, 2.6609173e+2, -264789.4, -452310.78, -185819.44, -0.03747837, -0.26354006, -150415.69, 181854.63, 0.0, 10.001176, 9.998667 
2.5979456e+3, 2.760812e+2, -232982.31, -427024.78, -128838.12, 0.32952756, -0.36966464, -168720.02, 65654.8, 0.0, 10.000881, 9.998321 
2.597541e+3, 2.860722e+2, -138928.66, -291417.03, 23553.281, 0.49972302, -0.29775983, -135373.52, 1090.8131, 0.0, 10.000679, 9.998675 
2.597135e+3, 2.960641e+2, -93223.734, -272085.66, 79317.44, 0.41097763, -0.14670871, -63117.45, -24573.277, 0.0, 10.000541, 9.998214 
2.5967252e+3, 3.060552e+2, -93145.53, -215533.56, 5517.221, 0.034631286, -0.04693824, -92897.32, -92897.32, 0.0, 10.000069, 9.998493 
2.596316e+3, 3.160405e+2, -222225.7, -126724.95, 96186.39, -0.2662841, -0.5407554, -67088.555, -67088.555, 0.0, 9.998505, 9.999859 
2.6140285e+3, 1.266208e+2, -1842045.3, -1666317.6, -50444.79, 0.7026353, -0.073042594, -1652866.5, 46234.414, 0.14986815, 9.998579, 10.0010605 
2.613621e+3, 1.3661307e+2, -1671338.1, -1574366.8, -9074.4, 0.37449932, -0.13734576, -1573524.9, 27656.633, 0.09979259, 9.9992895, 10.000658 
2.6132149e+3, 1.466068e+2, -1594887.9, -1394594.1, -65560.71, 0.3406152, -0.047193427, -1375043.0, 128199.46, 0.05285704, 9.998777, 10.001457 
2.6128092e+3, 1.5660089e+2, -1687562.1, -1464936.6, -60243.547, 0.5013186, 0.03610124, -1449679.9, -44383.72, 0.019694533, 9.997778, 10.000767 
2.612404e+3, 1.6659173e+2, -1518561.1, -1492876.9, -12668.578, 0.53705275, -0.044846844, -1487679.9, -180295.58, 0.004163879, 9.999001, 9.999288 
2.6119983e+3, 1.7658153e+2, -1078143.8, -1262890.3, -42321.02, 0.50500095, -0.18001276, -1068910.4, 140573.72, 0.00030229846, 10.001472, 9.999016 
2.6115924e+3, 1.8657161e+2, -873593.6, -1060797.5, 16669.295, 0.42189738, -0.27772823, -872120.94, 239454.98, 0.0000010444409, 10.001972, 9.999488 
2.6111868e+3, 1.9656183e+2, -891067.9, -1053841.1, 74921.67, 0.31708947, -0.3818937, -861833.4, 151830.83, 0.0, 10.001308, 9.999198 
2.6107818e+3, 2.065527e+2, -818744.2, -893458.9, 124104.64, 0.29531056, -0.41569826, -726496.25, 189254.03, 0.0, 10.00085, 9.999831 
2.610377e+3, 2.1654391e+2, -813253.6, -914230.0, 156404.03, 0.30067977, -0.43950468, -699390.75, 118444.07, 0.0, 10.000523, 9.999182 
2.6099697e+3, 2.2653401e+2, -615065.25, -894005.2, 50744.19, 0.124830544, -0.4364058, -606120.8, 113810.98, 0.0, 10.00177, 9.9980345 
2.6095608e+3, 2.3652369e+2, -225259.08, -670169.56, -40978.91, -0.09410191, -0.45535725, -221516.17, 400516.6, 0.0, 10.003816, 9.997923 
2.6091546e+3, 2.4651477e+2, -237429.08, -551947.4, -43366.37, -0.09836826, -0.3509987, -231559.19, 292564.38, 0.0, 10.002765, 9.998559 
2.6087496e+3, 2.565069e+2, -561799.94, -693252.25, -29808.436, -0.024940953, -0.17253906, -555356.4, -129149.36, 0.0, 9.999995, 9.998265 
2.6083434e+3, 2.6649687e+2, -410403.47, -495347.2, -97273.734, 0.02733172, -0.21123308, -346733.72, -18429.066, 0.0, 10.0000725, 9.998896 
2.607937e+3, 2.7648568e+2, -96685.6, -326435.2, -92835.086, 0.15272725, -0.39883393, -63862.83, 166546.58, 0.0, 10.001677, 9.99862 
2.607532e+3, 2.8647622e+2, -18158.408, -183925.36, -47838.668, 0.36021373, -0.41053772, -5343.354, 127156.78, 0.0, 10.001314, 9.999097 
2.6071274e+3, 2.964681e+2, -191094.27, -274401.16, -39327.875, 0.4751265, -0.30891117, -175461.66, -140882.92, 0.0, 9.999694, 9.998595 
2.6067176e+3, 3.0646095e+2, -197511.6, -284771.34, -72329.484, 0.1321477, -0.0482136, -156671.83, -156671.83, 0.0, 9.999469, 9.9982815 
2.6063043e+3, 3.1644368e+2, -118779.7, -248018.27, -34940.64, -0.54682595, -0.77970296, -109938.11, -109938.11, 0.0, 9.999998, 9.998274 
2.6240194e+3, 1.2702587e+2, -1434759.5, -1451260.5, 129668.445, 0.5626053, -0.094962925, -1313079.3, 382052.6, 0.13182732, 10.001585, 10.001264 
2.6236126e+3, 1.3701844e+2, -1818685.8, -1618090.1, 63964.33, 0.44806862, -0.14999218, -1599429.6, -2221.5537, 0.08692741, 9.998216, 10.000844 
2.623206e+3, 1.4701295e+2, -1705185.3, -1466512.4, -28246.941, 0.44285136, 0.028318647, -1463214.9, 36048.86, 0.045284707, 9.998117, 10.001263 
2.6228002e+3, 1.5700856e+2, -1512075.4, -1415174.5, -33041.656, 0.55773544, 0.28271973, -1404980.4, -3672.4158, 0.01638905, 9.999153, 10.000448 
2.6223952e+3, 1.6699882e+2, -1397242.8, -1463535.1, 89657.55, 0.5599651, 0.17693366, -1334800.5, -31396.951, 0.0032885466, 9.999948, 9.999041 
2.621991e+3, 1.7698643e+2, -1204488.1, -1323318.3, 84548.586, 0.4794867, -0.15397604, -1160565.9, 44958.785, 0.00021471751, 10.0006, 9.999033 
2.621585e+3, 1.8697539e+2, -969095.75, -949458.4, 60005.61, 0.3621878, -0.44068378, -898473.44, 209146.38, 0.00000047553752, 10.000647, 10.000892 
2.621179e+3, 1.969653e+2, -987386.3, -972880.75, 103274.44, 0.2479451, -0.7121144, -876604.7, 133096.0, 0.0, 10.000111, 10.000334 
2.6207757e+3, 2.0695707e+2, -784958.5, -817245.8, 101351.47, 0.40061915, -0.7306293, -698473.0, 213301.75, 0.0, 10.000814, 10.000377 
2.6203737e+3, 2.1694991e+2, -647896.44, -833365.9, 63374.59, 0.64731556, -0.6558735, -628309.9, 185534.1, 0.0, 10.001649, 9.999203 
2.619965e+3, 2.2694091e+2, -753219.9, -1173685.6, 44243.51, 0.31383398, -0.46062604, -748614.75, -32675.041, 0.0, 10.001739, 9.996134 
2.619554e+3, 2.3693119e+2, -679853.06, -1068572.4, 18573.102, -0.2878804, -0.2327817, -678967.7, -60920.633, 0.0, 10.001469, 9.996326 
2.6191476e+3, 2.469219e+2, -430465.72, -613686.1, -99664.016, -0.22694683, -0.11663924, -386704.78, 133439.97, 0.0, 10.001302, 9.99884 
2.618743e+3, 2.5691292e+2, -490730.47, -636450.44, -80707.82, 0.12524365, -0.07846936, -454859.9, -32623.12, 0.0, 10.000381, 9.998475 
2.6183355e+3, 2.6690227e+2, -347704.28, -471915.97, -21627.318, 0.046100497, -0.18277045, -344046.3, -19710.785, 0.0, 10.000522, 9.998847 
2.617927e+3, 2.7689096e+2, -170080.83, -376587.53, -15537.156, -0.21364549, -0.37708914, -168918.39, 57518.344, 0.0, 10.00123, 9.9985 
2.617522e+3, 2.8688022e+2, -40568.55, -202616.5, -80511.23, 0.022754122, -0.5036894, -7369.3145, 121167.8, 0.0, 10.001193, 9.999032 
2.6171187e+3, 2.9687008e+2, -114866.44, -247724.36, -68489.33, 0.44043568, -0.5977008, -85882.64, -55248.996, 0.0, 10.000251, 9.99852 
2.616712e+3, 3.0686447e+2, -136150.27, -249494.69, -46477.297, 0.40128177, -0.17825127, -119529.38, -119529.38, 0.0, 9.999827, 9.998375 
2.6162988e+3, 3.1685293e+2, -118744.73, -219822.31, -200321.02, -0.28256953, -0.34206027, 37314.348, 37314.348, 0.0, 9.999817, 9.998593 
2.634009e+3, 1.2743202e+2, -1488717.1, -1692883.6, 38985.055, 0.14847775, -0.46517196, -1481526.3, 209608.16, 0.11527723, 10.002156, 9.999088 
2.6336038e+3, 1.3742702e+2, -1930237.9, -1864611.9, -6642.325, 0.5630903, -0.052347198, -1863946.3, -270750.1, 0.07524778, 9.998241, 9.999152 
2.6331976e+3, 1.4741766e+2, -1735169.6, -1555154.9, 61922.676, 0.60151327, -0.14936893, -1535911.4, -40620.516, 0.038529117, 9.99824, 10.000583 
2.6327914e+3, 1.5740731e+2, -1433237.1, -1412426.1, 47399.496, 0.5380963, -0.4185676, -1374303.5, 23088.313, 0.013527696, 9.999858, 10.000116 
2.6323876e+3, 1.6740088e+2, -1273417.9, -1317409.3, 133843.98, 0.56011397, -0.2221924, -1159774.3, 139684.2, 0.0025719018, 10.00042, 9.999821 
2.6319844e+3, 1.7739545e+2, -1155734.8, -1192641.3, 135573.1, 0.5872106, 0.0740989, -1037364.8, 164151.31, 0.00015054179, 10.000458, 9.999999 
2.6315773e+3, 1.8738642e+2, -985077.4, -848813.94, 98926.016, 0.3959997, -0.103802525, -796827.9, 306764.78, 0.0000001940375, 10.000078, 10.00185 
2.6311693e+3, 1.9737625e+2, -1042756.6, -978805.75, 156043.94, 0.14275514, -0.45932767, -851494.8, 154179.73, 0.0, 9.9996395, 10.000517 
2.6307666e+3, 2.0736696e+2, -929781.4, -1163554.3, 175615.36, 0.2151656, -0.43276173, -835710.0, 72055.72, 0.0, 10.0010195, 9.997895 
2.6303655e+3, 2.1735828e+2, -556471.06, -957287.8, 27063.156, 0.4134809, -0.27489632, -554652.0, 255205.92, 0.0, 10.002997, 9.997696 
2.6299572e+3, 2.2734825e+2, -636572.6, -919070.56, -67967.49, 0.18218315, -0.23520154, -621070.7, 90887.93, 0.0, 10.001684, 9.997906 
2.6295462e+3, 2.3733792e+2, -942300.56, -1052265.8, 20698.521, -0.22456081, -0.23162085, -938533.56, -324471.63, 0.0, 9.999051, 9.997596 
2.62914e+3, 2.4732819e+2, -720956.75, -825060.75, 17622.963, -0.14901574, -0.16119935, -718054.4, -201891.08, 0.0, 9.999626, 9.998191 
2.628736e+3, 2.5731882e+2, -343915.4, -577831.94, -8989.874, 0.15160276, -0.095631815, -343570.4, 74691.195, 0.0, 10.001456, 9.998345 
2.6283297e+3, 2.6730877e+2, -144480.11, -247943.33, 30459.285, 0.1743439, -0.2020144, -136179.0, 184174.31, 0.0, 10.001367, 9.999983 
2.627922e+3, 2.7729848e+2, -243935.47, -338419.94, 86347.59, 0.07943697, -0.3849864, -192751.4, 29690.469, 0.0, 10.000396, 9.999164 
2.6275158e+3, 2.8728756e+2, -93457.29, -323937.2, 52772.61, 0.11064763, -0.48780596, -81948.69, 42594.99, 0.0, 10.0012455, 9.998165 
2.62711e+3, 2.9727665e+2, 209361.69, -152033.42, 7221.798, 0.21440883, -0.570375, 209505.94, 236154.42, 0.0, 10.002745, 9.997968 
2.626705e+3, 3.0726966e+2, 143737.1, -55582.64, -22410.998, 0.4527235, -0.29023454, 146225.86, 146225.86, 0.0, 10.001524, 9.998876 
2.6262948e+3, 3.172594e+2, -210687.22, -301170.7, -108686.98, 0.22641857, -0.3563007, -138201.84, -138201.84, 0.0, 9.999367, 9.998238 
2.644e+3, 1.2783886e+2, -2101817.8, -2028854.3, -231925.06, 0.05860184, -0.5235603, -1830559.3, -143417.16, 0.10015699, 9.997918, 9.998822 
2.6435947e+3, 1.3783412e+2, -1777295.1, -1855453.1, -88009.13, 0.6108452, -0.07122437, -1720078.9, -130876.89, 0.06468897, 9.999608, 9.998542 
2.6431888e+3, 1.4782314e+2, -1509013.1, -1544351.9, 81171.19, 0.6579224, -0.26205304, -1443610.5, 47702.563, 0.03253032, 10.000223, 9.999695 
2.6427832e+3, 1.5781015e+2, -1396422.8, -1463309.4, 52492.094, 0.5281839, -0.7206017, -1367625.6, 25814.309, 0.011066901, 10.000397, 9.999516 
2.64238e+3, 1.678051e+2, -1188973.5, -1209579.4, 90866.59, 0.53915274, -0.40707505, -1107827.6, 187665.72, 0.0019930317, 10.000722, 10.000413 
2.641977e+3, 1.7780311e+2, -1093651.1, -1123549.9, 64350.664, 0.5871813, 0.16990761, -1042536.25, 154982.03, 0.00010503105, 10.000724, 10.000349 
2.6415697e+3, 1.8779548e+2, -830054.7, -775758.2, -51850.77, 0.3876663, 0.10185478, -744378.44, 355205.53, 0.00000008640195, 10.001148, 10.001835 
2.6411608e+3, 1.9778575e+2, -847753.1, -970291.94, -53708.31, 0.08960436, -0.22129995, -827545.4, 174119.67, 0.0, 10.001354, 9.99975 
2.6407582e+3, 2.0777582e+2, -1072943.6, -1463918.6, 70457.12, 0.06443419, -0.12080541, -1060634.1, -156864.61, 0.0, 10.001045, 9.995811 
2.6403573e+3, 2.1776591e+2, -976050.56, -1280351.1, -8054.163, 0.13823882, 0.097535335, -975837.56, -169956.8, 0.0, 10.000644, 9.9966135 
2.639949e+3, 2.2775517e+2, -711176.7, -720779.7, -194586.78, 0.048386347, -0.035287958, -521332.2, 186649.55, 0.0, 10.000156, 10.000009 
2.639538e+3, 2.3774429e+2, -861640.2, -871295.8, -88601.46, -0.11729715, -0.2927636, -777735.1, -167656.58, 0.0, 9.99899, 9.998877 
2.6391324e+3, 2.4773432e+2, -783295.75, -933598.94, 41837.887, -0.041285284, -0.25796723, -772434.75, -260253.81, 0.0, 9.999527, 9.997495 
2.638729e+3, 2.5772482e+2, -489240.22, -671381.4, 31810.494, 0.12302728, -0.14838217, -483844.47, -69561.07, 0.0, 10.000553, 9.998145 
2.6383242e+3, 2.6771584e+2, -132085.97, -103630.45, -31222.111, 0.33444872, -0.224747, -83547.15, 232817.39, 0.0, 10.0008545, 10.001221 
2.637919e+3, 2.7770695e+2, -197606.14, -260856.3, 16070.697, 0.54252, -0.39031097, -193757.1, 24681.55, 0.0, 10.000471, 9.999667 
2.637511e+3, 2.876963e+2, -154718.38, -480477.6, 67047.88, 0.31151703, -0.4188003, -141458.31, -20919.693, 0.0, 10.001367, 9.997036 
2.6371008e+3, 2.9768535e+2, 140518.39, -255417.58, 19459.002, -0.13848284, -0.39769137, 141472.44, 164117.28, 0.0, 10.002571, 9.997347 
2.636697e+3, 3.076756e+2, 220922.75, 54648.703, -121610.47, 0.34369668, -0.4178235, 285097.88, 285097.88, 0.0, 10.001721, 9.999552 
2.6362914e+3, 3.1766543e+2, -194373.02, -406933.9, 84884.22, 0.7117958, -0.5125949, -164635.6, -164635.6, 0.0, 9.999985, 9.997209 
2.6539928e+3, 1.2824607e+2, -1920830.5, -1656841.3, -122833.42, 0.37782517, -0.24166432, -1608528.9, 74633.47, 0.08641156, 9.997886, 10.001438 
2.6535854e+3, 1.3823825e+2, -1583399.9, -1593655.6, 6640.928, 0.50177836, -0.32652473, -1580137.5, 5104.4487, 0.055193286, 10.000208, 10.000047 
2.6531804e+3, 1.4823066e+2, -1507949.5, -1664451.1, 107847.97, 0.5586934, -0.15341349, -1452954.8, 34366.46, 0.027234323, 10.000766, 9.9986 
2.6527765e+3, 1.5822268e+2, -1375828.0, -1514309.1, 76719.484, 0.5933947, -0.0005479879, -1341723.8, 47679.813, 0.008968034, 10.000802, 9.9989605 
2.6523715e+3, 1.6821317e+2, -1149883.8, -1174016.3, 109909.22, 0.44661802, -0.11889316, -1051380.5, 240113.25, 0.0015322798, 10.000949, 10.000537 
2.6519668e+3, 1.7820399e+2, -1077336.5, -1196309.9, 70777.05, 0.26792908, -0.25411266, -1044367.5, 149212.16, 0.00007382683, 10.001184, 9.999621 
2.6515624e+3, 1.8819489e+2, -918704.8, -1145531.0, -74109.28, 0.3192287, -0.2515763, -896638.4, 199028.03, 0.000000036839044, 10.0019455, 9.998915 
2.6511583e+3, 1.9818583e+2, -766407.7, -1101384.4, -168219.23, 0.39722678, -0.24170145, -696514.4, 301238.5, 0.0, 10.002656, 9.998211 
2.6507536e+3, 2.0817666e+2, -961189.3, -1230344.5, -86692.164, 0.29525423, -0.12466768, -935683.6, -35833.297, 0.0, 10.001057, 9.997393 
2.6503485e+3, 2.1816748e+2, -1126003.8, -1180655.9, -85148.85, 0.17305008, 0.008684334, -1063903.6, -261953.47, 0.0, 9.998879, 9.998141 
2.6499408e+3, 2.2815779e+2, -835732.06, -673000.9, -206145.5, 0.17678751, -0.13737111, -532744.44, 171293.97, 0.0, 9.998842, 10.000974 
2.6495326e+3, 2.3814802e+2, -725732.1, -690870.0, -129255.84, 0.21108164, -0.37943488, -577875.2, 28247.576, 0.0, 9.99942, 9.99991 
2.6491264e+3, 2.4813926e+2, -713730.9, -767000.56, 28455.377, 0.21079506, -0.33937857, -701389.8, -193179.63, 0.0, 9.999428, 9.998689 
2.6487213e+3, 2.5813088e+2, -648185.5, -695054.25, 64657.844, 0.22514075, -0.21930416, -602846.3, -192548.31, 0.0, 9.999234, 9.998613 
2.6483166e+3, 2.681225e+2, -366159.56, -384974.47, -45670.02, 0.37911037, -0.15346523, -328938.16, -16557.479, 0.0, 10.000007, 9.99968 
2.6479122e+3, 2.7811405e+2, -161133.92, -316342.56, -97715.95, 0.60955983, -0.1434606, -113955.08, 100505.61, 0.0, 10.001049, 9.999003 
2.6475057e+3, 2.8810325e+2, 2170.5127, -249325.38, 6159.4736, 0.45280683, -0.26796216, 2321.2761, 118881.25, 0.0, 10.001774, 9.99843 
2.6470968e+3, 2.9809216e+2, 148118.77, -161214.67, 25064.326, 0.04778638, -0.3904401, 150136.5, 168797.97, 0.0, 10.002245, 9.998141 
2.6466888e+3, 3.0808282e+2, 294030.4, 11426.803, -171751.2, 0.16582474, -0.35393402, 375135.16, 375135.16, 0.0, 10.002585, 9.998829 
2.6462835e+3, 3.1807333e+2, 205154.19, -230596.19, 74176.84, 0.5893095, -0.31082237, 217435.05, 217435.05, 0.0, 10.00283, 9.997045 
2.663984e+3, 1.2865269e+2, -1749266.5, -1622711.8, 13296.585, 0.4626577, -0.1298666, -1621329.9, 57847.984, 0.07397893, 9.999287, 10.0009775 
2.663577e+3, 1.386422e+2, -1414352.4, -1562051.4, -96400.17, 0.37533063, -0.46322116, -1366765.8, 214518.64, 0.04670333, 10.001643, 9.999594 
2.6631728e+3, 1.4863649e+2, -1344802.6, -1619950.3, -40575.953, 0.4650897, -0.08715844, -1338943.6, 144401.94, 0.022590833, 10.002049, 9.998289 
2.66277e+3, 1.5863164e+2, -1281867.5, -1515596.6, -960.5367, 0.60954046, 0.39697844, -1281863.6, 103534.71, 0.007195384, 10.00166, 9.998543 
2.662364e+3, 1.686192e+2, -1224041.0, -1249037.0, 12343.039, 0.41284564, 0.006759423, -1218973.4, 68539.51, 0.001170623, 10.000585, 10.000204 
2.6619577e+3, 1.7860514e+2, -1416221.4, -1465538.9, -12476.679, 0.12609947, -0.58824116, -1413244.6, -223603.6, 0.00005271245, 9.99932, 9.998677 
2.6615557e+3, 1.8859543e+2, -1191523.3, -1476718.5, 4195.5845, 0.2878732, -0.5012536, -1191461.6, -99722.28, 0.000000014947995, 10.000959, 9.997107 
2.6611543e+3, 1.9858694e+2, -834265.2, -1232527.9, 596.6991, 0.5656661, -0.25447124, -834264.3, 159565.06, 0.0, 10.002624, 9.997331 
2.6607478e+3, 2.0857808e+2, -819839.5, -989037.94, -25950.03, 0.4504816, -0.16304156, -815949.0, 79973.445, 0.0, 10.001271, 9.998955 
2.66034e+3, 2.1856934e+2, -1011303.25, -985544.56, -48773.11, 0.22824478, -0.12885757, -947978.94, -149965.64, 0.0, 9.999072, 9.999392 
2.659933e+3, 2.2856061e+2, -707370.9, -559402.2, -137964.17, 0.3266152, -0.2518459, -476836.9, 223254.86, 0.0, 9.999515, 10.001416 
2.6595265e+3, 2.3855197e+2, -555315.3, -530230.4, -107040.22, 0.49457663, -0.43045577, -435000.3, 167165.64, 0.0, 10.000268, 10.000601 
2.6591203e+3, 2.4854445e+2, -475913.3, -488482.88, -5407.874, 0.43333492, -0.38873228, -473906.9, 30330.27, 0.0, 10.000361, 10.000152 
2.6587135e+3, 2.585372e+2, -525063.75, -626973.8, 30958.979, 0.30344236, -0.28256473, -516396.03, -110087.12, 0.0, 10.00004, 9.9987 
2.6583084e+3, 2.68529e+2, -460812.88, -699218.44, -30782.201, 0.36151275, -0.048640445, -456902.5, -148502.98, 0.0, 10.000495, 9.997297 
2.657904e+3, 2.785205e+2, -229919.78, -441780.34, -51068.367, 0.4959735, 0.16576324, -218252.44, -7759.5156, 0.0, 10.000972, 9.998183 
2.6575005e+3, 2.8850946e+2, 115615.805, 61952.26, 12458.274, 0.56653726, -0.10990468, 118367.01, 230957.5, 0.0, 10.001435, 10.000737 
2.6570946e+3, 2.984982e+2, 133214.36, -58933.688, -802.7328, 0.42694452, -0.46555775, 133217.72, 147903.78, 0.0, 10.001656, 9.999138 
2.6566803e+3, 3.0849096e+2, 180895.64, -204871.16, -185143.34, -0.122806825, -0.15660296, 255373.53, 255373.53, 0.0, 10.00249, 9.997399 
2.6562768e+3, 3.1847855e+2, 309682.47, -95438.37, 68524.3, 0.44945517, -0.30485928, 320959.13, 320959.13, 0.0, 10.003133, 9.997856 
2.6739734e+3, 1.2905772e+2, -2005485.9, -2265968.3, 135019.16, 0.26749107, -0.27873293, -1948129.3, -272933.44, 0.06275853, 9.999803, 9.996281 
2.6735696e+3, 1.3904503e+2, -1491312.6, -1848986.8, -49231.67, 0.26649857, -0.39166614, -1484660.0, 92680.28, 0.039137237, 10.002149, 9.997371 
2.673166e+3, 1.490374e+2, -1194615.8, -1390987.4, -50925.992, 0.3784834, -0.23586689, -1182194.6, 297221.94, 0.018541422, 10.002427, 9.999687 
2.6727632e+3, 1.5903077e+2, -1174021.1, -1401437.6, -28972.19, 0.5517489, -0.04725551, -1170388.1, 211091.17, 0.005710546, 10.002124, 9.999102 
2.6723588e+3, 1.6902007e+2, -1316911.9, -1405414.4, -64431.125, 0.62821776, -0.2077136, -1282999.5, 581.3325, 0.0008890518, 10.000438, 9.999193 
2.6719534e+3, 1.7900875e+2, -1446953.8, -1410163.1, -32322.953, 0.60990655, -0.45304954, -1391367.6, -205679.53, 0.000037964888, 9.998813, 9.999284 
2.6715487e+3, 1.8900156e+2, -1029464.6, -1075177.6, 152046.9, 0.31254742, -0.33162102, -898565.9, 189194.5, 0.0000000057994387, 10.000687, 9.999992 
2.671144e+3, 1.9899502e+2, -656090.6, -947447.5, 154264.58, 0.04934324, -0.13854699, -589590.44, 400237.53, 0.0, 10.002985, 9.999107 
2.6707387e+3, 2.0898566e+2, -781661.56, -981675.0, 22749.383, 0.20604663, -0.1279182, -779106.7, 112818.22, 0.0, 10.001582, 9.998855 
2.6703328e+3, 2.1897595e+2, -959229.0, -1003415.0, 15886.487, 0.3939197, -0.161165, -954110.2, -160085.39, 0.0, 9.999599, 9.999011 
2.6699254e+3, 2.2896747e+2, -669400.8, -684551.25, -25430.479, 0.35379687, -0.1503616, -650441.3, 45664.46, 0.0, 10.000386, 10.000135 
2.6695177e+3, 2.3895937e+2, -385583.13, -512038.88, -55508.477, 0.30096364, -0.15663202, -364674.47, 233506.25, 0.0, 10.001705, 10.000029 
2.669112e+3, 2.4895097e+2, -214317.22, -313062.44, -25363.707, 0.31115726, -0.21138151, -208183.33, 292073.72, 0.0, 10.0019455, 10.000595 
2.6687065e+3, 2.5894254e+2, -265249.72, -500756.75, -23699.645, 0.32438985, -0.25980332, -262888.44, 139446.72, 0.0, 10.001813, 9.9987135 
2.6683012e+3, 2.6893288e+2, -357837.4, -720775.06, -42364.27, 0.3723005, -0.1267644, -352958.0, -48519.07, 0.0, 10.001501, 9.996666 
2.6678964e+3, 2.7892315e+2, -235522.22, -464063.88, -18379.172, 0.47128016, 0.02171502, -234053.63, -27508.793, 0.0, 10.001023, 9.997994 
2.6674926e+3, 2.8891307e+2, -54965.215, -3453.5864, -21690.77, 0.5300275, -0.16077141, 4463.31, 113099.01, 0.0, 10.000208, 10.000878 
2.667087e+3, 2.9890305e+2, -169615.44, -200003.2, -90612.68, 0.44416478, -0.40682015, -92931.625, -82209.58, 0.0, 9.999556, 9.999183 
2.6666746e+3, 3.088955e+2, 167651.83, -203438.25, -167850.7, -0.09999807, -0.13978349, 232308.34, 232308.34, 0.0, 10.002394, 9.997437 
2.666275e+3, 3.1888258e+2, 620658.06, 90704.055, 17020.951, 0.6307105, -0.34853688, 621204.2, 621204.2, 0.0, 10.005129, 9.998154 
2.6839668e+3, 1.2946151e+2, -2020943.5, -2445830.5, 7160.151, 0.38564086, -0.30730787, -2020822.9, -349589.38, 0.052648008, 10.000463, 9.994716 
2.683563e+3, 1.3944855e+2, -1651500.1, -2012382.3, 23882.479, 0.23744261, -0.32856968, -1649926.5, -76541.86, 0.03241374, 10.001408, 9.9966 
2.683159e+3, 1.4943963e+2, -1317619.6, -1375722.4, -29986.342, 0.3137256, -0.32780504, -1304919.9, 170552.19, 0.015030355, 10.001218, 10.000376 
2.682756e+3, 1.5943152e+2, -1384503.4, -1509775.6, -74500.02, 0.48811606, -0.34804335, -1349807.4, 27739.4, 0.0044762446, 10.000704, 9.999046 
2.6823524e+3, 1.69422e+2, -1244666.5, -1475054.9, -118584.484, 0.7430617, -0.32645753, -1194536.8, 85103.78, 0.00066900725, 10.00139, 9.998258 
2.681948e+3, 1.7941278e+2, -1033295.3, -1174117.3, -43170.336, 0.8994878, -0.29862088, -1021114.6, 160617.61, 0.000027210404, 10.001506, 9.999613 
2.681541e+3, 1.8940732e+2, -987489.06, -814902.06, 89008.14, 0.3133728, -0.17420429, -777223.7, 306562.7, 0.000000001728097, 9.9999485, 10.002135 
2.6811337e+3, 1.9940227e+2, -1219023.5, -1076954.3, -44162.902, -0.32193145, -0.04748394, -1064345.1, -78508.8, 0.0, 9.998517, 10.000377 
2.6807296e+3, 2.0939298e+2, -1012724.3, -1076298.5, -173184.84, 0.01944393, -0.100209326, -868433.56, 19496.59, 0.0, 9.9999275, 9.999005 
2.6803258e+3, 2.1938294e+2, -810251.44, -998303.7, -70441.47, 0.4893216, -0.1759611, -786791.75, 3240.2327, 0.0, 10.000918, 9.998417 
2.6799172e+3, 2.293746e+2, -650858.94, -836082.0, -27065.904, 0.2961731, -0.041375503, -646984.94, 45131.35, 0.0, 10.001217, 9.998693 
2.6795083e+3, 2.3936668e+2, -509565.78, -672272.3, -47759.7, 0.007925552, 0.1019691, -496582.72, 97612.13, 0.0, 10.001293, 9.999129 
2.679104e+3, 2.4935727e+2, -253214.44, -334586.4, -65695.36, 0.122628964, -0.035212386, -216626.69, 279652.5, 0.0, 10.00169, 10.000568 
2.6787e+3, 2.5934747e+2, -296266.9, -537483.75, -88718.02, 0.29019257, -0.22130471, -267151.3, 131215.58, 0.0, 10.001701, 9.998513 
2.6782948e+3, 2.6933604e+2, -370731.44, -731927.6, -93220.28, 0.36990094, -0.25924388, -348091.5, -47607.945, 0.0, 10.001428, 9.996623 
2.6778892e+3, 2.7932477e+2, -274674.6, -515961.7, -49975.203, 0.43327034, -0.26482764, -264733.34, -62132.156, 0.0, 10.000888, 9.99771 
2.6774833e+3, 2.893159e+2, -74652.305, -102260.81, -68578.81, 0.39264345, -0.2684391, -18502.215, 86182.43, 0.0, 10.000439, 10.000092 
2.6770768e+3, 2.993075e+2, -135015.27, -231375.45, -69224.4, 0.25168383, -0.28309965, -98854.75, -92092.484, 0.0, 9.999992, 9.99876 
2.676671e+3, 3.0929792e+2, 234631.7, -107289.43, -49042.94, 0.13194235, -0.2457362, 241527.05, 241527.05, 0.0, 10.002561, 9.998021 
2.67627e+3, 3.192892e+2, 530088.4, -34180.336, -14202.0625, 0.42054272, -0.0650881, 530445.6, 530445.6, 0.0, 10.004853, 9.997427 
2.693965e+3, 1.2986311e+2, -1734020.9, -1951667.4, 41606.594, 0.94109523, -0.267259, -1726338.4, -59037.2, 0.043587413, 10.000854, 9.99792 
2.6935574e+3, 1.3985287e+2, -1518054.8, -1747802.9, 54974.668, 0.33046383, -0.29480815, -1505577.8, 63834.324, 0.026475849, 10.001474, 9.998376 
2.693152e+3, 1.4984424e+2, -1387862.8, -1469754.3, -24635.42, 0.30363193, -0.272163, -1381023.0, 90478.055, 0.0120076295, 10.000992, 9.999828 
2.6927477e+3, 1.5983583e+2, -1437542.1, -1593367.9, -45485.88, 0.42248645, -0.25795922, -1425236.5, -51650.44, 0.003455632, 10.000586, 9.998519 
2.6923436e+3, 1.698259e+2, -1195335.4, -1505333.0, -40239.203, 0.5091303, -0.22584641, -1190197.4, 85487.96, 0.00049606664, 10.001955, 9.997771 
2.6919392e+3, 1.7981619e+2, -875360.7, -1181545.5, -59409.137, 0.56372476, -0.19232519, -864237.6, 313544.9, 0.00001910138, 10.002948, 9.998856 
2.691534e+3, 1.8980852e+2, -1158727.9, -1054370.3, -97545.46, 0.45366797, -0.1663102, -995924.75, 83937.1, 0.0000000002885943, 9.9994545, 10.000718 
2.6911286e+3, 1.9980164e+2, -1525139.4, -1164022.9, -172115.86, 0.28514522, -0.13557823, -1095131.5, -113199.28, 0.0, 9.996137, 10.000924 
2.690722e+3, 2.0979515e+2, -941237.75, -744699.7, -117624.75, 0.17916112, -0.12294413, -689696.44, 194295.17, 0.0, 9.999117, 10.001683 
2.6903158e+3, 2.1978807e+2, -484087.44, -705061.1, -49942.984, 0.14273152, -0.13709567, -473323.94, 312732.72, 0.0, 10.002574, 9.999621 
2.6899084e+3, 2.297774e+2, -555701.7, -852933.44, -72725.57, 0.061414264, -0.22897564, -538861.56, 149297.7, 0.0, 10.00214, 9.99813 
2.689501e+3, 2.3976682e+2, -585965.6, -798653.0, -58538.383, -0.010356479, -0.28983226, -570918.56, 19343.318, 0.0, 10.001158, 9.998318 
2.6890972e+3, 2.4975821e+2, -373374.25, -541924.8, -85242.85, 0.11987177, -0.22779779, -337780.16, 154565.8, 0.0, 10.001519, 9.999219 
2.6886937e+3, 2.5974962e+2, -268282.25, -534368.1, -167884.89, 0.28040656, -0.1881881, -187115.56, 207313.86, 0.0, 10.001949, 9.9984045 
2.6882875e+3, 2.6973888e+2, -262793.78, -513874.44, -159611.19, 0.34583965, -0.26649708, -185267.36, 111269.17, 0.0, 10.0014715, 9.998092 
2.6878813e+3, 2.7972814e+2, -254873.14, -464576.06, -58887.914, 0.40072063, -0.33860147, -239468.14, -40824.008, 0.0, 10.000857, 9.998067 
2.687475e+3, 2.8971985e+2, -30482.633, -199850.52, -73303.96, 0.30821055, -0.21728651, -3162.8203, 97560.93, 0.0, 10.00128, 9.998999 
2.687069e+3, 2.9971164e+2, 73596.445, -227424.72, -69478.08, 0.17994429, -0.10932252, 88858.72, 91661.125, 0.0, 10.001855, 9.997877 
2.6866686e+3, 3.0969915e+2, 202986.84, -176917.52, -61926.082, 0.4278602, -0.30571496, 212826.23, 212826.23, 0.0, 10.00257, 9.99754 
2.6862642e+3, 3.1969073e+2, 349543.75, -123171.266, -95438.09, 0.24432425, -0.06633622, 368084.84, 368084.84, 0.0, 10.003636, 9.997397 
2.7039585e+3, 1.3026373e+2, -1494256.4, -1530080.0, -110607.37, 0.9703877, -0.23441735, -1400119.9, 263259.06, 0.035524342, 10.001237, 10.000663 
2.7035502e+3, 1.4025441e+2, -1816763.3, -1761669.6, -101125.164, 0.39355755, -0.4283266, -1684406.5, -118937.82, 0.021263413, 9.998844, 9.9995575 
2.7031446e+3, 1.5024753e+2, -1566647.0, -1598725.5, -144648.7, 0.3280367, -0.25136018, -1437151.0, 30395.186, 0.009414606, 9.999953, 9.999444 
2.7027398e+3, 1.6024029e+2, -1393359.4, -1574447.0, -114380.76, 0.37481627, -0.09767489, -1338022.6, 31603.674, 0.0026133016, 10.000917, 9.998492 
2.702335e+3, 1.7023015e+2, -1365084.1, -1529786.0, 441.64774, 0.32913646, -0.13390559, -1365083.0, -93357.055, 0.00036005196, 10.000553, 9.998276 
2.7019304e+3, 1.802199e+2, -1337894.5, -1474411.9, -2429.3147, 0.29175574, -0.1715367, -1337851.3, -164024.19, 0.000012952271, 10.000075, 9.998239 
2.7015263e+3, 1.9021042e+2, -1161312.3, -1240223.3, -94043.33, 0.5366121, -0.18264441, -1098783.0, -22855.104, 0.000000000007316074, 10.000213, 9.999091 
2.701122e+3, 2.0020182e+2, -989386.5, -901034.56, -61131.78, 0.7159895, -0.19197859, -869787.6, 108230.64, 0.0, 9.999799, 10.000973 
2.7007145e+3, 2.1019734e+2, -605922.94, -374414.88, -23544.748, 0.27141923, -0.11955431, -372044.6, 508009.0, 0.0, 10.000528, 10.003545 
2.7003068e+3, 2.2019233e+2, -606325.8, -692166.06, -144166.31, -0.19261825, -0.09431675, -498826.3, 283266.03, 0.0, 10.001431, 10.000266 
2.6999003e+3, 2.3017938e+2, -600644.94, -897981.8, -215501.56, -0.1352081, -0.42846015, -487505.72, 196705.72, 0.0, 10.001935, 9.997916 
2.6994944e+3, 2.4016629e+2, -570721.1, -890671.44, -128223.86, -0.0055981684, -0.7130267, -525675.8, 60659.266, 0.0, 10.001698, 9.997427 
2.6990908e+3, 2.5015855e+2, -509507.72, -771086.5, -90747.57, 0.14062142, -0.44214898, -481108.6, 7310.2163, 0.0, 10.001288, 9.997755 
2.698687e+3, 2.6015133e+2, -414349.94, -605284.3, -157652.05, 0.26277193, -0.15248863, -325512.63, 64984.65, 0.0, 10.00095, 9.998405 
2.6982802e+3, 2.7014187e+2, -126648.14, -260336.75, -201418.45, 0.30289042, -0.23174512, 18728.082, 311317.44, 0.0, 10.001595, 9.999779 
2.6978734e+3, 2.8013232e+2, -101154.49, -366125.6, -110845.75, 0.32155797, -0.32134324, -60899.773, 133781.27, 0.0, 10.001804, 9.998295 
2.6974678e+3, 2.9012415e+2, -6941.434, -338186.06, -102804.55, 0.24028221, -0.10447683, 22370.922, 119130.97, 0.0, 10.002077, 9.997672 
2.6970625e+3, 3.0011523e+2, 46878.785, -377728.84, -68258.91, 0.14862037, 0.06542505, 57582.117, 57582.117, 0.0, 10.002254, 9.996663 
2.696666e+3, 3.1009957e+2, 136020.08, -318828.72, -41280.04, 0.702556, -0.34954697, 139736.11, 139736.11, 0.0, 10.002572, 9.996577 
2.6962578e+3, 3.2008746e+2, 362934.28, -30963.363, 15722.775, 0.023171786, -0.42402413, 363560.88, 363560.88, 0.0, 10.003336, 9.998193 
2.7139455e+3, 1.3066217e+2, -1306376.9, -1206214.4, -236436.4, 0.3317152, -0.27561584, -1014613.4, 644866.6, 0.02839456, 10.001492, 10.002833 
2.7135414e+3, 1.4065069e+2, -1790653.1, -1639226.1, -125854.59, 0.46835825, -0.8507321, -1568065.9, -6484.989, 0.016709715, 9.998536, 10.000545 
2.7131373e+3, 1.5064795e+2, -1574066.0, -1590714.8, -74371.76, 0.42168146, -0.2856788, -1507554.3, -43929.293, 0.007197697, 9.999856, 9.999544 
2.7127331e+3, 1.6064464e+2, -1214011.3, -1281641.4, -105655.9, 0.4065813, 0.20575617, -1136891.0, 228781.17, 0.0019202112, 10.001257, 10.000339 
2.7123275e+3, 1.7063446e+2, -1214965.4, -1115719.3, -17284.26, 0.3918397, -0.10747952, -1112795.3, 154967.95, 0.00025324232, 10.000102, 10.001344 
2.7119222e+3, 1.8062408e+2, -1405935.1, -1409510.8, 75682.88, 0.34240535, -0.39156792, -1332018.9, -162161.14, 0.000008369746, 9.999165, 9.999127 
2.7115157e+3, 1.9061609e+2, -1131030.5, -1331449.8, 57672.676, 0.24042928, -0.18984693, -1115619.6, -43672.96, 0.0, 10.000875, 9.998148 
2.7111104e+3, 2.0060822e+2, -750423.06, -1007864.4, 45645.367, 0.19202484, 0.006727685, -742569.56, 231464.25, 0.0, 10.002405, 9.998977 
2.7107072e+3, 2.1059993e+2, -685793.3, -769652.6, -50020.586, 0.21172723, 0.0015121407, -662453.1, 213661.23, 0.0, 10.001541, 10.00033 
2.7103034e+3, 2.2059171e+2, -744944.5, -832691.4, -239072.88, 0.16916136, -0.045358237, -545752.7, 232438.7, 0.0, 10.000795, 9.999601 
2.7098954e+3, 2.3058125e+2, -492217.5, -681161.3, -259866.78, 0.01872601, -0.23237766, -310183.2, 370103.06, 0.0, 10.001972, 9.99939 
2.709488e+3, 2.4057072e+2, -335542.03, -655669.8, -193699.66, -0.042677455, -0.40261582, -244329.17, 338054.13, 0.0, 10.00279, 9.998507 
2.7090842e+3, 2.5056195e+2, -509738.9, -702814.75, -146802.25, 0.20902176, -0.30672106, -430576.88, 53895.203, 0.0, 10.000995, 9.998365 
2.7086803e+3, 2.605536e+2, -627237.8, -728133.25, -92980.62, 0.4345953, -0.16643648, -571901.0, -185343.02, 0.0, 9.999585, 9.998206 
2.7082747e+3, 2.7054465e+2, -116077.43, -369151.38, -146166.63, 0.36405227, -0.10815955, -49284.92, 239360.83, 0.0, 10.002158, 9.998755 
2.7078685e+3, 2.8053513e+2, 252075.98, -286933.06, -193351.53, 0.2976876, -0.10526136, 314260.3, 504998.2, 0.0, 10.004636, 9.997463 
2.7074635e+3, 2.9052338e+2, 307749.53, -266119.75, -224358.02, 0.2525937, -0.18051986, 385051.1, 477900.63, 0.0, 10.004602, 9.996942 
2.7070582e+3, 3.0051193e+2, 329836.5, -167880.81, -170233.81, 0.20451316, -0.23817551, 382490.97, 382490.97, 0.0, 10.003892, 9.997309 
2.7066588e+3, 3.1050113e+2, 226385.7, -80780.08, -42722.99, 0.57230556, -0.3215101, 232217.23, 232217.23, 0.0, 10.00238, 9.998294 
2.7062503e+3, 3.2049018e+2, -61154.992, -201256.11, 106828.47, -0.09832831, -0.40203267, -3458.1353, -3458.1353, 0.0, 10.00029, 9.998479 
2.723936e+3, 1.3106515e+2, -1444101.6, -1325843.1, -10744.293, 0.069194995, -0.2877858, -1324875.0, 330656.06, 0.022163955, 10.00078, 10.002309 
2.7235332e+3, 1.4105232e+2, -1543662.6, -1527414.9, -531.72345, 0.5257781, -0.945775, -1527397.5, 30248.785, 0.012778689, 10.000266, 10.000485 
2.7231297e+3, 1.5105066e+2, -1552779.6, -1521810.3, 123031.93, 0.4923425, -0.3009433, -1413292.4, 46386.84, 0.005326891, 9.999742, 10.000076 
2.7227262e+3, 1.6104859e+2, -1393548.9, -1266834.3, 55758.008, 0.4398896, 0.26438397, -1245793.1, 115920.86, 0.0013580788, 9.999594, 10.0012455 
2.72232e+3, 1.7103869e+2, -1021452.75, -865533.8, -47778.508, 0.4092709, -0.14432514, -852057.7, 411742.3, 0.00016970174, 10.0007715, 10.002736 
2.7219135e+3, 1.810287e+2, -1071385.8, -1214368.9, -38111.727, 0.30985388, -0.50788516, -1061861.6, 104026.7, 0.0000049540654, 10.00135, 9.999407 
2.721506e+3, 1.9102177e+2, -1052762.4, -1323989.0, 37060.234, -0.029792756, -0.19520582, -1047789.7, 20176.182, 0.0, 10.001577, 9.997844 
2.7211002e+3, 2.0101437e+2, -993156.56, -1327776.6, 57774.164, -0.24238016, 0.117573604, -983462.4, -13412.655, 0.0, 10.001633, 9.997147 
2.7207005e+3, 2.1100292e+2, -882423.5, -1195542.6, 41603.023, 0.18271902, 0.064875275, -876990.1, -4821.1196, 0.0, 10.001621, 9.997365 
2.7202994e+3, 2.2099195e+2, -735948.3, -894982.2, -31471.037, 0.50823134, -0.006145171, -729947.0, 44333.47, 0.0, 10.001152, 9.999003 
2.7198908e+3, 2.3098433e+2, -569922.5, -575005.75, -80514.81, 0.1863815, 0.017933233, -491909.22, 184440.98, 0.0, 10.000821, 10.000674 
2.719482e+3, 2.409765e+2, -581583.9, -665347.8, -134210.02, -0.06985056, 0.012968213, -482872.75, 95548.27, 0.0, 10.000634, 9.999484 
2.7190778e+3, 2.5096622e+2, -425470.13, -560698.7, -169229.28, 0.28132337, -0.13193429, -310847.66, 169670.0, 0.0, 10.001141, 9.999269 
2.718674e+3, 2.6095623e+2, -427854.97, -712379.6, -38489.066, 0.57733345, -0.1946184, -422740.3, -40127.21, 0.0, 10.001295, 9.997499 
2.7182692e+3, 2.7094752e+2, -173324.97, -593715.6, 1335.613, 0.41526783, 0.03831268, -173320.72, 111380.31, 0.0, 10.002611, 9.996996 
2.7178648e+3, 2.809374e+2, 57870.008, -514948.88, -94844.734, 0.25544432, 0.14899114, 73165.54, 259966.73, 0.0, 10.003874, 9.996271 
2.71746e+3, 2.9092053e+2, 184798.16, -383997.97, -175321.48, 0.27339867, -0.36957586, 234495.7, 323456.03, 0.0, 10.003993, 9.996433 
2.717054e+3, 3.0090627e+2, 384375.75, 37238.52, -157538.88, 0.20893316, -0.7151523, 445209.72, 445209.72, 0.0, 10.003493, 9.998913 
2.7166495e+3, 3.1090426e+2, 434761.3, 362506.0, -91976.414, 0.19932346, -0.19316575, 497451.0, 497451.0, 0.0, 10.002325, 10.001367 
2.716244e+3, 3.2089615e+2, -65671.34, -291318.6, 11352.01, 0.022861138, -0.18423773, -65101.68, -65101.68, 0.0, 10.0006485, 9.997679 
2.733931e+3, 1.3147525e+2, -1734205.3, -1975682.4, 49562.977, 0.30200627, -0.18261544, -1724428.3, -72921.664, 0.016811427, 10.000947, 9.997729 
2.7335256e+3, 1.414626e+2, -1515933.3, -1575022.8, 29955.47, 0.51836604, -0.47380474, -1503404.0, 50231.863, 0.009456607, 10.000713, 9.999944 
2.7331215e+3, 1.514565e+2, -1449709.1, -1296935.1, 150969.27, 0.5317467, -0.38094744, -1204127.9, 251568.66, 0.003791648, 9.999705, 10.001633 
2.7327177e+3, 1.6145065e+2, -1518917.4, -1462915.0, 153944.73, 0.5008368, -0.25165895, -1334445.6, 23310.922, 0.00091702, 9.999328, 10.000011 
2.7323115e+3, 1.714421e+2, -1171589.3, -1267111.6, 43552.152, 0.26512498, -0.24696885, -1154713.6, 105130.2, 0.0001065257, 10.001191, 9.999759 
2.7319056e+3, 1.8143332e+2, -872739.0, -1107276.4, -62577.66, 0.07166878, -0.28551885, -857087.0, 304844.56, 0.0000025959862, 10.002667, 9.999496 
2.731501e+3, 1.9142444e+2, -861493.75, -1030976.1, -1219.7697, 0.08327462, -0.3156949, -861484.94, 202533.47, 0.0, 10.002016, 9.999652 
2.731097e+3, 2.0141602e+2, -894028.8, -1080419.5, 90622.97, 0.10435155, -0.28101334, -857232.3, 108870.41, 0.0, 10.001447, 9.998924 
2.7306938e+3, 2.1140786e+2, -735028.4, -950767.44, 182132.27, 0.17642982, -0.15733565, -631218.9, 236969.63, 0.0, 10.001885, 9.998911 
2.7302906e+3, 2.2139959e+2, -650547.25, -870674.9, 133989.73, 0.26925614, -0.037451208, -587211.8, 183062.98, 0.0, 10.001814, 9.998842 
2.7298832e+3, 2.3139164e+2, -832349.9, -841765.3, 19504.318, 0.29667893, 0.08280508, -816993.2, -144637.66, 0.0, 9.999643, 9.999399 
2.7294764e+3, 2.4138297e+2, -947538.25, -925595.3, 23550.803, 0.295524, 0.12078029, -910585.75, -336145.66, 0.0, 9.99849, 9.998723 
2.7290717e+3, 2.5137082e+2, -352438.56, -578518.0, 12876.883, 0.32100606, -0.13910238, -351707.5, 124843.35, 0.0, 10.001881, 9.99879 
2.728667e+3, 2.6135918e+2, 47989.656, -479774.75, 50022.52, 0.35663626, -0.32546037, 52689.04, 431347.28, 0.0, 10.004554, 9.997523 
2.728263e+3, 2.7134955e+2, -46652.637, -507770.75, 99437.44, 0.28626725, -0.18983364, -26123.498, 254629.64, 0.0, 10.003375, 9.997224 
2.7278593e+3, 2.813391e+2, -191471.72, -613935.75, 85079.38, 0.25747558, -0.11132333, -174981.39, 7874.8135, 0.0, 10.002072, 9.996458 
2.7274552e+3, 2.9132444e+2, -65923.71, -487692.13, 51836.36, 0.32610077, -0.40255457, -59646.33, 25351.797, 0.0, 10.002214, 9.996574 
2.727049e+3, 3.0131158e+2, 180138.73, -113638.99, 49156.39, 0.2657238, -0.5790881, 188145.61, 188145.61, 0.0, 10.002342, 9.998416 
2.7266425e+3, 3.1130773e+2, 346424.88, 210220.66, -73193.52, 0.10585325, -0.13379477, 378298.7, 378298.7, 0.0, 10.002213, 10.000357 
2.726238e+3, 3.2129717e+2, 356284.1, -279459.94, 5755.4927, -0.012835713, -0.24542463, 356336.2, 356336.2, 0.0, 10.004387, 9.995951 
2.743925e+3, 1.318811e+2, -1829135.8, -2149313.5, -157327.28, 0.40969673, -0.24149475, -1764769.0, -117239.19, 0.01230584, 10.000892, 9.996544 
2.743519e+3, 1.4187199e+2, -1376193.9, -1504724.9, 8249.581, 0.5682788, -0.12279463, -1375666.5, 173963.23, 0.0067305295, 10.001685, 9.999951 
2.7431136e+3, 1.5186282e+2, -1200660.5, -1095962.1, 54489.11, 0.4916283, -0.4077842, -1072750.1, 378960.75, 0.0025834579, 10.001072, 10.002355 
2.7427086e+3, 1.6185421e+2, -1455282.9, -1589472.8, 83369.52, 0.41380918, -0.5641347, -1415362.9, -61571.8, 0.00058897777, 10.000443, 9.998608 
2.7423036e+3, 1.7184652e+2, -1406194.5, -1642068.0, 95532.84, 0.16117266, -0.2697737, -1372356.4, -116475.51, 0.00006228534, 10.000694, 9.997425 
2.7418986e+3, 1.8183829e+2, -1154679.5, -1264912.5, -6068.9946, -0.013717557, -0.08773755, -1154346.4, 3624.9753, 0.0000011486238, 10.000825, 9.99931 
2.741496e+3, 1.918278e+2, -942939.1, -937551.0, -48382.656, 0.25335562, -0.37677154, -891787.44, 168278.86, 0.0, 10.000881, 10.000835 
2.741093e+3, 2.0181856e+2, -940997.2, -951837.94, -3807.5894, 0.41033992, -0.5595857, -939793.5, 22357.121, 0.0, 10.000483, 10.000274 
2.740687e+3, 2.1181314e+2, -853540.4, -825443.1, 39535.207, 0.14085534, -0.33249754, -797534.6, 66671.42, 0.0, 10.000291, 10.000538 
2.740281e+3, 2.2180727e+2, -928724.9, -1050871.6, -87299.98, 0.011233817, -0.090677835, -883256.06, -116987.72, 0.0, 10.000114, 9.998429 
2.739876e+3, 2.3179871e+2, -806878.44, -990877.25, -164874.4, 0.39968082, 0.07798015, -710072.5, -41711.652, 0.0, 10.000526, 9.99795 
2.7394706e+3, 2.4178895e+2, -722322.94, -943749.2, 14872.311, 0.6329346, 0.13456668, -721328.5, -150867.95, 0.0, 10.000584, 9.997594 
2.7390653e+3, 2.5177532e+2, -408087.9, -697707.06, 83836.836, 0.3064734, -0.19996877, -385570.2, 87012.83, 0.0, 10.001886, 9.99797 
2.7386603e+3, 2.6176232e+2, -176278.75, -576567.5, 15113.668, 0.042231392, -0.47446, -175708.92, 198991.38, 0.0, 10.002967, 9.997624 
2.7382565e+3, 2.7175167e+2, -122161.02, -460206.8, -5596.995, 0.119302884, -0.5128762, -122068.38, 154733.5, 0.0, 10.002494, 9.997974 
2.737853e+3, 2.8174144e+2, -208174.31, -575905.75, 16491.748, 0.23267199, -0.48056814, -207436.19, -28534.8, 0.0, 10.0017605, 9.996872 
2.7374497e+3, 2.9173177e+2, -68878.38, -453775.3, 17881.809, 0.38142878, -0.3130892, -68049.41, 12950.858, 0.0, 10.002032, 9.9969 
2.7370438e+3, 3.0172163e+2, 26478.775, -405745.16, 22410.56, 0.32365394, -0.1817478, 27637.643, 27637.643, 0.0, 10.00222, 9.996472 
2.7366367e+3, 3.1171054e+2, 133654.84, -253053.28, -79162.766, 0.10936451, -0.1685449, 149232.67, 149232.67, 0.0, 10.002294, 9.997142 
2.7362314e+3, 3.2169625e+2, 206695.98, -587658.1, 322434.13, -0.35335168, -0.35419083, 321098.22, 321098.22, 0.0, 10.00431, 9.993908 
2.7539173e+3, 1.322803e+2, -1495665.5, -1523547.1, -101489.21, 0.37737867, -0.6270803, -1407164.1, 236460.28, 0.008633353, 10.001146, 10.000738 
2.7535143e+3, 1.422795e+2, -1264309.4, -1345825.4, 31727.07, 0.72702265, 0.026982816, -1253416.4, 292218.28, 0.004576788, 10.0019865, 10.000903 
2.7531046e+3, 1.5227e+2, -1201118.4, -1181437.4, 42651.813, 0.27930635, -0.23640351, -1147505.6, 300216.22, 0.0016756183, 10.001434, 10.0015955 
2.7526978e+3, 1.6226073e+2, -1396687.3, -1580912.3, 71356.7, 0.052835237, -0.3933293, -1372281.6, -22469.7, 0.00035820744, 10.000918, 9.998437 
2.7522972e+3, 1.7225266e+2, -1416981.4, -1630642.0, 109657.71, 0.27861017, -0.14443293, -1370718.5, -118812.41, 0.000033741435, 10.000532, 9.997585 
2.751895e+3, 1.8224433e+2, -1274862.5, -1394338.9, 34409.543, 0.41346043, 0.04267963, -1265661.0, -111662.625, 0.00000040337267, 10.000292, 9.998673 
2.75149e+3, 1.922347e+2, -1102590.4, -1151340.5, -37947.184, 0.4019708, -0.039416213, -1081864.1, -25774.988, 0.0, 10.000378, 9.999605 
2.751085e+3, 2.0222521e+2, -1019704.5, -1055088.6, -65791.23, 0.3772417, -0.14646532, -969268.06, -11090.481, 0.0, 10.000211, 9.999703 
2.7506793e+3, 2.1221605e+2, -1039962.6, -962093.56, -82396.12, 0.23979744, -0.25267524, -909896.25, -49632.184, 0.0, 9.999191, 10.000149 
2.7502736e+3, 2.2220741e+2, -1049240.5, -1059385.4, -167496.08, 0.17575559, -0.28300995, -886740.06, -124392.49, 0.0, 9.999095, 9.998846 
2.7498686e+3, 2.3219906e+2, -571944.6, -802428.3, -170939.83, 0.35730937, -0.16908768, -481028.53, 183405.17, 0.0, 10.001829, 9.9986105 
2.7494636e+3, 2.4218976e+2, -304674.22, -752169.75, -30638.336, 0.48025197, -0.10867786, -302586.28, 263940.3, 0.0, 10.003477, 9.997515 
2.749059e+3, 2.5217757e+2, -452639.63, -763353.06, 2039.6268, 0.31084892, -0.26776597, -452626.25, 16013.14, 0.0, 10.001774, 9.997564 
2.7486545e+3, 2.62166e+2, -552627.0, -769955.44, -40446.887, 0.182936, -0.3763026, -545343.5, -174595.81, 0.0, 10.000454, 9.99749 
2.748251e+3, 2.7215636e+2, -352616.47, -573903.94, -88841.11, 0.24768549, -0.3067416, -321363.13, -48520.0, 0.0, 10.000963, 9.997908 
2.7478474e+3, 2.8214663e+2, -242438.84, -553907.44, -98456.31, 0.33886358, -0.24272184, -213926.52, -38986.92, 0.0, 10.001387, 9.997187 
2.7474433e+3, 2.921364e+2, -108189.26, -413448.53, -98895.734, 0.39282876, -0.18612458, -78950.336, -1908.8367, 0.0, 10.001536, 9.9974 
2.7470377e+3, 3.0212605e+2, -10333.364, -403357.9, -47928.887, 0.29979667, -0.12902443, -4572.9214, -4572.9214, 0.0, 10.001882, 9.996656 
2.7466318e+3, 3.1211436e+2, 252839.38, -216225.14, -8085.6978, 0.17327839, -0.17223412, 252978.7, 252978.7, 0.0, 10.003187, 9.996983 
2.746227e+3, 3.2210076e+2, -355745.13, -802536.6, 454220.75, -0.23723887, -0.27087086, -72956.98, -72956.98, 0.0, 10.000227, 9.994391 
2.763909e+3, 1.3268523e+2, -1484482.3, -1290099.6, -28001.057, 0.31317288, -0.58768606, -1286146.5, 353513.63, 0.0057730973, 10.000267, 10.002758 
2.7635077e+3, 1.4268467e+2, -1672566.1, -1585595.6, -16595.977, 0.7759807, -0.031468667, -1582536.3, -40873.223, 0.0029531594, 9.999379, 10.0005045 
2.7630967e+3, 1.5267543e+2, -1363313.1, -1381412.6, -37882.08, 0.18019722, -0.17550784, -1333414.9, 110336.21, 0.0010250356, 10.000856, 10.000492 
2.7626896e+3, 1.6266626e+2, -1303520.0, -1556843.5, -24564.436, -0.09467711, -0.25259787, -1301160.0, 44683.027, 0.00020334971, 10.001662, 9.998248 
2.762291e+3, 1.7265774e+2, -1228185.8, -1495159.4, 25365.479, 0.3949616, -0.09022515, -1225797.1, 22142.494, 0.000016580547, 10.001652, 9.997977 
2.7618903e+3, 1.8264946e+2, -1140942.6, -1385889.5, -11269.062, 0.6781883, 0.086698495, -1140425.3, 9605.694, 0.00000009587778, 10.001482, 9.998157 
2.7614832e+3, 1.9264106e+2, -980937.44, -1198284.1, -15561.935, 0.46231604, 0.20773877, -979828.9, 72285.01, 0.0, 10.0016775, 9.998658 
2.7610767e+3, 2.0263152e+2, -903566.7, -1088156.0, -32821.895, 0.30855384, 0.19003199, -897904.3, 56301.504, 0.0, 10.0014105, 9.998898 
2.7606717e+3, 2.1261904e+2, -883967.06, -958630.75, -64770.82, 0.33376256, -0.17784047, -846539.8, 9781.946, 0.0, 10.000592, 9.999488 
2.7602667e+3, 2.226078e+2, -852468.56, -939208.0, -66559.98, 0.32558405, -0.4293719, -816395.44, -57968.586, 0.0, 10.000334, 9.99908 
2.7598614e+3, 2.325994e+2, -460652.06, -671258.25, -68724.49, 0.2547352, -0.38331726, -440210.2, 220298.23, 0.0, 10.002246, 9.999314 
2.7594566e+3, 2.4259056e+2, -346204.56, -784749.75, -69267.125, 0.23354818, -0.31895098, -335524.1, 227070.13, 0.0, 10.00326, 9.9973955 
2.759053e+3, 2.5257993e+2, -414139.56, -777168.5, -73140.34, 0.3262123, -0.29621574, -399957.8, 64738.492, 0.0, 10.002187, 9.997272 
2.7586493e+3, 2.625701e+2, -467272.3, -767279.7, -43646.82, 0.39331037, -0.2004584, -461051.3, -94257.74, 0.0, 10.001204, 9.997153 
2.7582458e+3, 2.725619e+2, -302992.94, -596816.4, -57298.453, 0.42678753, 0.052089892, -292214.56, -23333.635, 0.0, 10.001498, 9.9975 
2.757842e+3, 2.8255242e+2, -192401.97, -504076.66, -78213.76, 0.43384808, 0.1620844, -173875.7, -2897.5103, 0.0, 10.001611, 9.997425 
2.7574363e+3, 2.9253957e+2, -74482.83, -346527.66, -90801.95, 0.35187787, -0.095180735, -46959.863, 26141.426, 0.0, 10.001533, 9.9978695 
2.7570304e+3, 3.0252808e+2, 41137.055, -248830.72, -8684.773, 0.20691967, -0.21961735, 41396.938, 41396.938, 0.0, 10.001674, 9.99782 
2.756628e+3, 3.1251925e+2, 320874.97, -19530.35, 35250.3, 0.2770439, -0.12230194, 324486.97, 324486.97, 0.0, 10.002943, 9.99845 
2.756223e+3, 3.2250848e+2, -264868.28, -528488.25, 109955.1, 0.13155824, -0.10076397, -225027.47, -225027.47, 0.0, 9.999903, 9.9964 
2.7739e+3, 1.3309671e+2, -1579336.4, -1485946.9, -101917.24, 0.17813168, -0.08045681, -1420536.6, 215091.81, 0.0036443742, 10.00023, 10.001432 
2.7734977e+3, 1.4308482e+2, -1836863.3, -1847200.4, 33423.74, 0.68162996, -0.49498808, -1808210.8, -270469.34, 0.0017885888, 9.999025, 9.998881 
2.7730912e+3, 1.5307705e+2, -1481010.5, -1623270.0, 32522.69, 0.38489515, -0.3255048, -1473928.0, -34108.56, 0.0005834371, 10.000841, 9.998837 
2.7726868e+3, 1.6306877e+2, -1210138.5, -1474704.1, -14537.283, 0.23645024, -0.22537187, -1209342.1, 132561.6, 0.00010500734, 10.002126, 9.998588 
2.772285e+3, 1.730593e+2, -1091396.1, -1333052.9, 26185.064, 0.36741593, -0.23688777, -1088591.4, 155411.36, 0.0000068884756, 10.002174, 9.998837 
2.7718818e+3, 1.8305065e+2, -950794.3, -1174841.0, 1423.7167, 0.4391194, -0.18957563, -950785.25, 195306.7, 0.00000000965895, 10.002276, 9.999218 
2.7714762e+3, 1.9304317e+2, -793422.1, -1006421.3, 35551.926, 0.35683924, -0.06675693, -787644.8, 260520.36, 0.0, 10.002518, 9.999575 
2.7710706e+3, 2.0303471e+2, -769119.6, -1048886.0, 12388.3, 0.30504155, -0.0126477415, -768572.1, 181676.55, 0.0, 10.002451, 9.998652 
2.7706647e+3, 2.1302404e+2, -754691.5, -971965.06, -22869.047, 0.32249233, -0.12723169, -752310.5, 100044.41, 0.0, 10.001823, 9.9987955 
2.7702594e+3, 2.2301407e+2, -703331.8, -954080.4, 28521.453, 0.29554284, -0.16897155, -700128.56, 54325.793, 0.0, 10.001735, 9.998298 
2.769855e+3, 2.3300576e+2, -444954.72, -755175.3, 3514.3257, 0.17443386, -0.023344146, -444914.9, 211623.77, 0.0, 10.002751, 9.998489 
2.7694508e+3, 2.4299619e+2, -324382.44, -753426.75, -76214.74, 0.15633674, 0.013178694, -311246.0, 247386.16, 0.0, 10.003346, 9.997549 
2.7690476e+3, 2.5298378e+2, -251284.58, -661976.94, -82954.84, 0.3334217, -0.17366792, -235161.66, 225585.77, 0.0, 10.003168, 9.997583 
2.7686438e+3, 2.6297274e+2, -200241.3, -602958.1, -14782.344, 0.4216816, -0.22028573, -199699.4, 163152.92, 0.0, 10.002902, 9.997452 
2.7682388e+3, 2.7296433e+2, -102101.305, -474542.53, -4236.285, 0.2978442, -0.01471836, -102053.125, 162885.55, 0.0, 10.002769, 9.997725 
2.7678344e+3, 2.8295478e+2, -74515.96, -435658.9, -23817.215, 0.28188357, 0.07942061, -72951.99, 94082.71, 0.0, 10.002374, 9.997519 
2.7674302e+3, 2.9294246e+2, -41428.8, -327361.75, -62086.633, 0.39962432, -0.11658903, -28529.426, 40624.207, 0.0, 10.001741, 9.9978895 
2.767024e+3, 3.0293137e+2, 3102.3242, -222524.48, 24733.88, 0.25859487, -0.21975183, 5781.9023, 5781.9023, 0.0, 10.001233, 9.998199 
2.766618e+3, 3.1292284e+2, 76099.04, -82197.81, 24997.982, -0.08080434, -0.13573551, 79952.86, 79952.86, 0.0, 10.001055, 9.998911 
2.7662176e+3, 3.2291403e+2, 44401.24, -185601.39, -161656.94, 0.32927296, -0.014224958, 127789.11, 127789.11, 0.0, 10.001209, 9.998116 
2.783893e+3, 1.33504e+2, -1698909.5, -1744852.9, -83472.34, 0.3046145, 0.018732244, -1635305.6, -3668.9065, 0.0021378004, 10.000333, 9.999581 
2.7834886e+3, 1.4348891e+2, -1288915.8, -1717446.0, 47778.965, 0.5231715, -0.572264, -1283653.3, 250132.86, 0.0009964783, 10.00338, 9.997672 
2.7830857e+3, 1.534809e+2, -1375442.0, -1680540.3, 112944.79, 0.48636433, -0.33378395, -1338181.4, 97685.95, 0.00029941666, 10.002031, 9.997875 
2.7826825e+3, 1.6347243e+2, -1360322.6, -1510623.0, 69464.7, 0.44788736, -0.20006308, -1333135.8, 4816.715, 0.00004641634, 10.000956, 9.998904 
2.7822778e+3, 1.7346235e+2, -1298621.1, -1366379.0, 75157.234, 0.31941164, -0.32358846, -1250059.9, -10007.938, 0.0000020738605, 10.000479, 9.999424 
2.7818736e+3, 1.8345329e+2, -1198126.6, -1238162.9, 26278.955, 0.24024673, -0.36611947, -1185109.8, -42968.957, 0.00000000000031198744, 10.000347, 9.999711 
2.7814698e+3, 1.9344594e+2, -964862.25, -1020307.4, 11834.108, 0.29764342, -0.29526553, -962442.06, 81770.016, 0.0, 10.001061, 10.00017 
2.7810648e+3, 2.0343821e+2, -976747.44, -1206862.4, -70550.94, 0.31637093, -0.18900155, -956839.5, -10549.155, 0.0, 10.001277, 9.998138 
2.7806577e+3, 2.1342938e+2, -899707.75, -1113311.6, -89644.086, 0.2718421, -0.064074755, -867072.56, -18687.283, 0.0, 10.001139, 9.998154 
2.780252e+3, 2.234209e+2, -870661.9, -1126837.0, 38079.1, 0.21381265, 0.110281475, -865121.44, -114645.18, 0.0, 10.000985, 9.997475 
2.7798492e+3, 2.334128e+2, -677232.8, -960883.25, 69139.18, 0.13334677, 0.35487968, -661277.75, -8715.424, 0.0, 10.00156, 9.997652 
2.7794456e+3, 2.4340248e+2, -517490.97, -839665.5, -26381.242, 0.12762095, 0.372112, -515345.03, 39318.832, 0.0, 10.001992, 9.997616 
2.779042e+3, 2.53388e+2, -337144.75, -662628.8, -56974.164, 0.30334967, -0.05030763, -327459.9, 129334.87, 0.0, 10.002406, 9.997948 
2.7786377e+3, 2.6337537e+2, -257602.5, -592876.3, -5603.8267, 0.33454284, -0.28998733, -257508.86, 101401.43, 0.0, 10.002342, 9.997799 
2.778231e+3, 2.73366e+2, -167592.6, -462444.44, -2427.171, 0.07190212, -0.21749024, -167572.61, 93427.0, 0.0, 10.002127, 9.998124 
2.7778262e+3, 2.833564e+2, -171739.25, -487488.25, -42018.28, 0.05118321, -0.151563, -166243.33, -3150.3257, 0.0, 10.001731, 9.997474 
2.7774245e+3, 2.9334575e+2, -101999.92, -380195.84, -71777.195, 0.48379576, -0.16417189, -84572.46, -19373.832, 0.0, 10.001435, 9.997675 
2.777018e+3, 3.0333543e+2, -23753.916, -250134.4, 30135.813, 0.2872361, -0.1674716, -19810.91, -19810.91, 0.0, 10.001103, 9.998078 
2.7766043e+3, 3.1332567e+2, 27588.838, -118180.36, 22114.918, -0.7681335, -0.19689856, 30870.072, 30870.072, 0.0, 10.000762, 9.998814 
2.776213e+3, 3.2331884e+2, 124771.914, 11226.676, -165889.11, 0.570962, 0.072477415, 243334.19, 243334.19, 0.0, 10.000999, 9.999612 
2.7938902e+3, 1.3390677e+2, -1814372.0, -2086269.8, 198154.4, 0.7558469, -0.32597864, -1710014.3, -82324.97, 0.0011463661, 10.000755, 9.997039 
2.7934822e+3, 1.4389975e+2, -1130412.8, -1596949.6, 34713.05, 0.24897903, 0.033049744, -1127844.0, 401928.3, 0.0004998057, 10.00426, 9.99808 
2.7930784e+3, 1.5388869e+2, -1293958.0, -1557582.3, 79385.59, 0.3461528, -0.10076737, -1271898.4, 159979.22, 0.00013405627, 10.002223, 9.9986315 
2.792675e+3, 1.6387859e+2, -1394875.5, -1520073.9, 85873.09, 0.42263114, -0.16940948, -1351206.9, -17231.56, 0.00001642319, 10.000682, 9.998972 
2.79227e+3, 1.7386942e+2, -1395984.3, -1428867.5, 91392.945, 0.3405675, -0.18104169, -1319565.8, -83499.34, 0.0000003300107, 9.999871, 9.99929 
2.791866e+3, 1.8386026e+2, -1345062.0, -1403148.9, 73620.04, 0.31865242, -0.18736483, -1294963.5, -156806.14, 0.0, 9.999711, 9.998893 
2.7914634e+3, 1.9385104e+2, -1127375.8, -1208990.3, 35606.32, 0.43856293, -0.19719648, -1114025.5, -73776.68, 0.0, 10.00041, 9.999192 
2.7910584e+3, 2.0384207e+2, -1050841.3, -1255920.0, -92988.69, 0.4144505, -0.1512472, -1014956.5, -72616.85, 0.0, 10.00084, 9.997999 
2.7906492e+3, 2.1383296e+2, -960463.06, -1150687.5, -105107.39, 0.15195638, -0.046776783, -913822.4, -69387.39, 0.0, 10.000768, 9.998072 
2.790244e+3, 2.2382419e+2, -841698.44, -992759.9, 59936.273, 0.12229561, 0.0590048, -820806.94, -74282.46, 0.0, 10.000655, 9.998548 
2.7898446e+3, 2.3381576e+2, -749324.5, -867022.44, 133032.58, 0.4055136, 0.15913647, -662705.75, -14099.04, 0.0, 10.0005045, 9.998799 
2.7894413e+3, 2.4380587e+2, -712837.6, -947872.56, 85952.48, 0.42782238, 0.16975734, -684759.1, -134056.73, 0.0, 10.000717, 9.9974785 
2.7890337e+3, 2.5379327e+2, -482943.28, -781362.7, 40773.777, 0.101711154, -0.016665261, -477472.53, -24650.105, 0.0, 10.001596, 9.997531 
2.7886283e+3, 2.637812e+2, -341379.44, -629293.06, 37664.043, 0.036782764, -0.16848963, -336533.88, 18402.56, 0.0, 10.001748, 9.9978285 
2.788226e+3, 2.737704e+2, -335127.16, -536437.06, 15956.775, 0.26682344, -0.23902412, -333870.2, -76831.3, 0.0, 10.00096, 9.998165 
2.787822e+3, 2.8376034e+2, -317076.13, -501337.2, -2223.441, 0.36419472, -0.23266244, -317049.3, -157914.4, 0.0, 10.000524, 9.997944 
2.7874157e+3, 2.937511e+2, -154630.98, -350829.84, -1322.81, 0.32123828, -0.14560714, -154622.08, -93396.34, 0.0, 10.000862, 9.998143 
2.7870077e+3, 3.0374134e+2, -120188.96, -341739.88, 98052.59, 0.011936907, -0.089301504, -83026.89, -83026.89, 0.0, 10.000651, 9.997656 
2.7865982e+3, 3.1373104e+2, -150072.78, -265892.34, 46271.902, -0.60167927, -0.11137591, -133856.78, -133856.78, 0.0, 9.999818, 9.998246 
2.7862042e+3, 3.2372358e+2, -67138.016, 79325.234, -120693.62, 0.5550018, 0.06992763, 147266.63, 147266.63, 0.0, 9.999019, 10.001009 
2.8038839e+3, 1.3431062e+2, -1721643.4, -2105369.5, 208168.08, 0.7723781, -0.38525525, -1630406.9, -6671.8203, 0.0005526283, 10.001663, 9.996476 
2.803477e+3, 1.4430702e+2, -1411104.0, -1662266.8, -47007.074, 0.23526393, 0.29658473, -1402594.6, 123192.92, 0.00022309172, 10.002052, 9.998689 
2.803071e+3, 1.5429525e+2, -1328218.9, -1488775.4, -16928.893, 0.23689099, 0.0077219107, -1326453.3, 101445.484, 0.000052593867, 10.001639, 9.999378 
2.8026667e+3, 1.6428494e+2, -1332426.9, -1515634.8, 20922.695, 0.3186777, -0.11666541, -1330067.8, -69.70204, 0.0000047753, 10.001236, 9.998729 
2.8022623e+3, 1.7427646e+2, -1237418.0, -1383774.1, 30310.943, 0.34657693, -0.045079518, -1231388.9, 693.9727, 0.00000002399446, 10.001087, 9.999011 
2.8018588e+3, 1.8426724e+2, -1223767.0, -1439725.6, 68007.234, 0.3792292, -0.00792183, -1204135.5, -69959.945, 0.0, 10.000979, 9.99803 
2.8014565e+3, 1.9425681e+2, -1059822.5, -1275501.3, 64599.92, 0.49409366, -0.05713569, -1041954.0, -5673.014, 0.0, 10.001319, 9.998297 
2.801051e+3, 2.0424674e+2, -968511.0, -1224048.9, -67125.01, 0.42080644, -0.06306414, -951951.56, -13569.695, 0.0, 10.0014515, 9.997924 
2.8006408e+3, 2.1423702e+2, -835587.6, -1080183.4, -60831.785, 0.06120835, -0.033343986, -821293.9, 19185.299, 0.0, 10.001588, 9.9981575 
2.8002363e+3, 2.2422753e+2, -649315.56, -802206.1, 84951.336, 0.07883863, -0.03856355, -611477.8, 131092.05, 0.0, 10.001574, 9.999416 
2.7998397e+3, 2.3421833e+2, -515282.97, -637925.3, 78209.984, 0.65615433, -0.11989631, -477220.63, 167431.86, 0.0, 10.00163, 9.99983 
2.7994365e+3, 2.4420896e+2, -664972.06, -974613.94, 23951.955, 0.6524204, -0.097784966, -663130.25, -116388.5, 0.0, 10.001261, 9.997039 
2.7990246e+3, 2.5419894e+2, -619107.9, -901748.94, 18768.154, -0.14453568, 0.013291, -617867.06, -169022.33, 0.0, 10.000901, 9.99704 
2.798619e+3, 2.6418793e+2, -528614.94, -738644.44, -18056.613, -0.25358602, -0.001981073, -527073.9, -176120.17, 0.0, 10.000553, 9.997651 
2.798222e+3, 2.741757e+2, -438090.9, -603273.8, -34779.22, 0.5875619, -0.20848912, -431066.84, -177996.16, 0.0, 10.000326, 9.998012 
2.7978182e+3, 2.841654e+2, -324151.34, -448832.4, -17040.11, 0.7477974, -0.24437678, -321864.44, -166695.98, 0.0, 10.00022, 9.998462 
2.797405e+3, 2.9415745e+2, -136434.23, -265701.13, -8628.257, -0.020263122, -0.101046704, -135860.86, -78616.86, 0.0, 10.000647, 9.998842 
2.7969965e+3, 3.041483e+2, -219896.83, -482100.16, 49969.918, -0.36543864, 0.012416006, -210696.55, -210696.55, 0.0, 10.000354, 9.996841 
2.7965966e+3, 3.1413776e+2, -257558.4, -426762.13, 8910.659, 0.08184466, 0.060582343, -257090.45, -257090.45, 0.0, 9.999536, 9.997284 
2.7961886e+3, 3.241276e+2, 18670.277, 247988.48, -112977.195, -0.13722517, -0.03041612, 294296.94, 294296.94, 0.0, 9.999091, 10.002118 
2.813874e+3, 1.3471405e+2, -1495589.8, -1694267.5, 209470.81, 0.37751907, -0.28719512, -1363096.4, 256690.47, 0.00023935542, 10.001881, 9.999206 
2.8134748e+3, 1.4470765e+2, -1408486.1, -1554555.3, -51021.816, 0.668914, -0.06349966, -1392429.4, 129428.48, 0.00008922653, 10.001598, 9.999651 
2.813064e+3, 1.5469934e+2, -1305268.0, -1404222.1, -11130.599, 0.17640899, -0.07165696, -1304031.4, 119911.64, 0.000018026803, 10.001473, 10.000043 
2.8126577e+3, 1.6469087e+2, -1298080.1, -1502047.6, 34492.5, 0.09249914, -0.04039271, -1292405.0, 33623.56, 0.0000012520117, 10.001482, 9.998702 
2.8122553e+3, 1.7468233e+2, -1169151.8, -1365249.9, 46553.81, 0.3173842, 0.043444447, -1158661.0, 69453.33, 0.0000000065346386, 10.001623, 9.998877 
2.8118518e+3, 1.8467341e+2, -1101967.5, -1363237.1, 91191.266, 0.33644596, 0.11883668, -1073287.3, 56917.574, 0.0, 10.001771, 9.998152 
2.8114474e+3, 1.9466388e+2, -973492.94, -1233739.1, 101680.055, 0.19356577, 0.16208997, -938477.1, 93825.6, 0.0, 10.00192, 9.998289 
2.8110427e+3, 2.0465398e+2, -820882.56, -1070295.3, -17299.428, 0.20106083, 0.14182276, -819688.4, 114710.33, 0.0, 10.002103, 9.998661 
2.8106374e+3, 2.1464361e+2, -672296.5, -924581.06, 7471.2246, 0.29169, 0.04969534, -672075.44, 164417.75, 0.0, 10.002372, 9.998845 
2.810233e+3, 2.2463256e+2, -597564.56, -962245.5, 139289.11, 0.2917935, -0.06450994, -550450.25, 188146.38, 0.0, 10.002736, 9.997753 
2.8098306e+3, 2.3462066e+2, -419091.34, -797333.25, 49388.98, 0.27284557, -0.22405165, -412748.75, 227960.98, 0.0, 10.003181, 9.997985 
2.8094265e+3, 2.4461076e+2, -472637.78, -818265.4, -111424.31, 0.26902077, -0.18962067, -439830.6, 102976.04, 0.0, 10.002317, 9.997594 
2.8090194e+3, 2.546028e+2, -709297.0, -867450.94, -90910.57, 0.15499802, 0.054752566, -667883.75, -222994.48, 0.0, 9.999965, 9.997719 
2.8086144e+3, 2.6459295e+2, -752537.06, -816340.0, -34895.758, 0.15448995, 0.10378807, -737158.3, -390170.38, 0.0, 9.998889, 9.997921 
2.8082117e+3, 2.7458087e+2, -557328.56, -651367.94, -46674.77, 0.41075456, -0.097595006, -538095.8, -288989.72, 0.0, 9.9994545, 9.998112 
2.8078067e+3, 2.8457093e+2, -340788.8, -406644.5, -18435.57, 0.43058643, -0.12892446, -335979.22, -184777.92, 0.0, 9.999872, 9.998923 
2.8073978e+3, 2.945634e+2, -167215.34, -239837.67, -33976.9, 0.028791016, 0.021502743, -153797.95, -100527.336, 0.0, 10.000247, 9.99922 
2.8069898e+3, 3.045542e+2, -298118.34, -500516.66, -16209.089, -0.18788642, 0.10323997, -296828.47, -296828.47, 0.0, 9.999756, 9.996992 
2.8065878e+3, 3.145431e+2, -407229.56, -488138.7, -13124.972, 0.14473818, 0.0805076, -405153.72, -405153.72, 0.0, 9.998473, 9.997368 
2.8061786e+3, 3.2453325e+2, 125658.195, 174925.98, -23352.832, -0.23401085, 0.060362868, 184235.92, 184235.92, 0.0, 10.000359, 10.001011 
2.8238672e+3, 1.3511895e+2, -1460673.8, -1429829.6, 142966.92, 0.3371416, -0.1579931, -1301455.4, 314371.22, 0.00009998426, 10.001105, 10.00137 
2.823468e+3, 1.4511117e+2, -1836455.1, -1755007.9, -26967.773, 0.78677815, -0.18308076, -1746888.3, -228983.3, 0.00003385652, 9.99866, 9.999682 
2.8230563e+3, 1.5510462e+2, -1506948.5, -1484001.3, -22149.744, 0.14330947, -0.034021787, -1470529.9, -50552.44, 0.000005500025, 10.000025, 10.000186 
2.82265e+3, 1.6509692e+2, -1364506.9, -1557936.1, 7988.114, 0.014495217, 0.07212613, -1364177.5, -42119.574, 0.0000002527922, 10.001138, 9.998484 
2.822249e+3, 1.7508794e+2, -1103836.4, -1347568.5, 20103.67, 0.30918366, 0.11425749, -1102189.3, 121958.61, 0.0, 10.002151, 9.99874 
2.821845e+3, 1.8507917e+2, -1042388.25, -1345845.6, 45245.207, 0.28644982, 0.21124984, -1035785.9, 90450.92, 0.0, 10.002229, 9.998056 
2.8214392e+3, 1.9507034e+2, -1017416.0, -1254183.5, 58455.566, 0.00037039607, 0.31417686, -1003770.3, 24557.297, 0.0, 10.00162, 9.998292 
2.8210354e+3, 2.050606e+2, -866867.1, -1056010.8, -68789.93, 0.076635115, 0.29152676, -844495.0, 85923.63, 0.0, 10.001648, 9.998975 
2.8206336e+3, 2.150499e+2, -641428.0, -865660.8, -73185.74, 0.5012665, 0.11054311, -619655.5, 212855.19, 0.0, 10.002411, 9.999226 
2.8202286e+3, 2.2503768e+2, -784403.2, -1242261.5, 90660.52, 0.40743786, -0.0648935, -767105.06, -32480.527, 0.0, 10.002277, 9.996052 
2.819821e+3, 2.3502366e+2, -775772.44, -1163534.9, 106178.04, -0.18344875, -0.27105877, -748602.25, -111839.38, 0.0, 10.001567, 9.996252 
2.8194165e+3, 2.4501337e+2, -582105.56, -780395.5, -101054.266, -0.12826107, -0.21987283, -539681.9, -816.28827, 0.0, 10.001184, 9.998403 
2.8190157e+3, 2.550067e+2, -512824.06, -676337.8, -96194.02, 0.56507915, 0.07761388, -468337.22, -27403.854, 0.0, 10.000909, 9.998571 
2.8186095e+3, 2.6499778e+2, -552560.0, -724979.25, 18353.969, 0.5964505, 0.18269911, -550627.9, -207603.94, 0.0, 10.000281, 9.997882 
2.818199e+3, 2.749863e+2, -476601.47, -607796.44, -18894.996, 0.012024121, 0.037500497, -473934.38, -228794.78, 0.0, 9.99999, 9.998153 
2.8177935e+3, 2.8497678e+2, -363839.63, -399315.78, -25637.3, -0.08699397, 0.036836334, -350402.22, -203170.34, 0.0, 9.999638, 9.999086 
2.817392e+3, 2.9496923e+2, -262457.1, -266887.5, -48935.117, 0.27510738, 0.16128229, -215687.08, -166386.55, 0.0, 9.999508, 9.99939 
2.816985e+3, 3.0495965e+2, -329019.47, -444850.16, -88748.1, 0.1385411, 0.16642483, -280961.16, -280961.16, 0.0, 9.999235, 9.99763 
2.8165746e+3, 3.1494796e+2, -329579.66, -369399.03, -67829.93, -0.24263623, 0.008038702, -278797.78, -278797.78, 0.0, 9.9986515, 9.998101 
2.8161773e+3, 3.2494056e+2, -39211.54, -200095.27, 196114.31, 0.3338486, 0.31686762, 92317.62, 92317.62, 0.0, 10.000475, 9.998389 
2.8338623e+3, 1.3552655e+2, -1419689.5, -1276106.6, -95259.55, 0.56968015, 0.08149148, -1228615.3, 383229.47, 0.00004580229, 10.000755, 10.002613 
2.833455e+3, 1.4551932e+2, -1930885.6, -1864101.8, 53722.67, 0.4329657, 0.095027894, -1834239.1, -320324.44, 0.000014274378, 9.998281, 9.999115 
2.833049e+3, 1.5551162e+2, -1607179.5, -1613935.5, 53065.99, 0.27484542, 0.20463265, -1557384.1, -141385.78, 0.0000019516297, 9.999692, 9.999453 
2.8326455e+3, 1.6550247e+2, -1377306.6, -1576537.8, 60661.695, 0.26074743, 0.21486947, -1360289.8, -42198.082, 0.00000005936716, 10.001092, 9.998375 
2.8322434e+3, 1.7549205e+2, -1073323.6, -1359500.9, 63579.05, 0.3225043, 0.13573313, -1059834.3, 160360.14, 0.0, 10.00245, 9.998523 
2.8318402e+3, 1.8548226e+2, -987632.75, -1304301.6, 3239.2024, 0.372714, 0.13531375, -987599.6, 134689.5, 0.0, 10.002513, 9.998216 
2.8314364e+3, 1.9547288e+2, -1031134.75, -1252016.8, 16535.545, 0.4110851, 0.17908987, -1029903.7, -5524.506, 0.0, 10.001479, 9.998379 
2.8310314e+3, 2.0546275e+2, -928588.3, -1184252.1, -48800.0, 0.36402473, 0.155413, -919590.25, 6885.147, 0.0, 10.001645, 9.9980955 
2.8306258e+3, 2.1545185e+2, -659317.4, -978582.6, -87989.07, 0.27772394, 0.054310236, -636673.7, 191903.69, 0.0, 10.002729, 9.998302 
2.8302208e+3, 2.254416e+2, -625607.56, -861396.06, 6646.6514, 0.2118783, -0.019696636, -625420.4, 105253.29, 0.0, 10.002057, 9.998769 
2.8298157e+3, 2.3543149e+2, -834924.5, -909090.9, 123912.3, 0.08924725, -0.09233082, -742665.44, -109895.25, 0.0, 9.999938, 9.998787 
2.829411e+3, 2.4542184e+2, -685413.6, -789806.3, 108441.47, 0.09061697, -0.101948485, -617260.44, -82397.414, 0.0, 10.000308, 9.998752 
2.8290066e+3, 2.554129e+2, -210293.67, -509720.63, 96213.34, 0.2732635, -0.045888763, -182043.3, 254906.77, 0.0, 10.00289, 9.99876 
2.8286007e+3, 2.6540303e+2, -262493.53, -759360.9, 71555.42, 0.30363926, 0.052399095, -252393.9, 86656.69, 0.0, 10.003041, 9.996302 
2.8281927e+3, 2.7539212e+2, -412024.13, -745963.5, -29793.242, 0.09831111, 0.13544345, -409386.88, -168221.97, 0.0, 10.001192, 9.996613 
2.8277862e+3, 2.8538144e+2, -479193.25, -542581.44, -80443.52, 0.080538586, 0.13251466, -424425.34, -281154.56, 0.0, 9.999242, 9.998285 
2.827382e+3, 2.953711e+2, -638800.06, -542709.7, -152800.69, 0.27360043, 0.0614719, -430578.75, -385210.72, 0.0, 9.997341, 9.998535 
2.8269747e+3, 3.0536106e+2, -443993.47, -337118.44, -97005.31, 0.115632966, -0.014155465, -279805.78, -279805.78, 0.0, 9.997755, 9.999074 
2.8265658e+3, 3.153511e+2, -17963.37, -83668.57, -59656.305, -0.2064009, -0.13884658, 17288.129, 17288.129, 0.0, 10.000219, 9.999304 
2.82617e+3, 3.2534453e+2, -319414.84, -509228.84, 197160.53, 0.43591532, 0.27789482, -195507.73, -195507.73, 0.0, 9.999341, 9.99679 
2.8438547e+3, 1.3593279e+2, -1541078.3, -1444711.1, -251592.86, 0.57999545, 0.18070157, -1236729.4, 371140.06, 0.000024267947, 10.000411, 10.001621 
2.8434438e+3, 1.45926e+2, -1554848.9, -1673719.8, 40297.652, 0.18004604, 0.2698381, -1542475.8, -32538.38, 0.0000074734667, 10.0008335, 9.999186 
2.8430423e+3, 1.5591784e+2, -1309575.6, -1482638.9, 117713.86, 0.3416777, 0.32317728, -1250010.5, 162011.36, 0.0000012508747, 10.001798, 9.99933 
2.8426403e+3, 1.6590789e+2, -1312632.9, -1591016.6, 121312.984, 0.3813326, 0.28751028, -1267186.6, 46935.734, 0.000000073245815, 10.001752, 9.997953 
2.842237e+3, 1.7589651e+2, -1284645.6, -1490569.9, 114107.45, 0.29168463, 0.14692542, -1233914.1, -17679.06, 0.0, 10.00115, 9.99824 
2.8418347e+3, 1.858862e+2, -1106984.6, -1298339.9, 43634.55, 0.421369, 0.079148896, -1097504.4, 20827.166, 0.0, 10.001437, 9.998767 
2.8414333e+3, 1.9587646e+2, -911399.75, -1149556.9, 107293.48, 0.7271119, 0.034776766, -870192.4, 150226.3, 0.0, 10.002122, 9.998766 
2.841027e+3, 2.0586598e+2, -925684.6, -1288668.5, 109346.99, 0.5522369, 0.023157364, -895289.56, 27230.865, 0.0, 10.002138, 9.997135 
2.8406176e+3, 2.1585475e+2, -814549.0, -1128972.4, 82838.67, 0.027972508, -0.0066622957, -794059.4, 30574.926, 0.0, 10.002002, 9.997615 
2.8402126e+3, 2.2584656e+2, -619275.25, -584946.06, 13615.983, 0.05215317, 0.040669885, -580201.4, 146511.02, 0.0, 10.000934, 10.001206 
2.839811e+3, 2.3584044e+2, -774065.25, -616540.94, 30148.887, 0.46362498, 0.118322544, -610967.9, 17798.398, 0.0, 9.999239, 10.001127 
2.8394052e+3, 2.4583116e+2, -753279.44, -824190.5, 114230.53, 0.3148861, 0.030500622, -669128.44, -138276.05, 0.0, 9.999854, 9.998733 
2.8389966e+3, 2.5581956e+2, -317345.1, -590193.8, 79102.52, -0.19525291, -0.19310366, -296070.97, 136891.4, 0.0, 10.002284, 9.998498 
2.8385913e+3, 2.6580876e+2, -421633.47, -1040996.75, -58727.06, -0.11603152, -0.08595081, -416114.25, -81041.3, 0.0, 10.00283, 9.994473 
2.838188e+3, 2.7579826e+2, -437865.8, -961840.1, -87938.305, 0.36908033, 0.21987882, -423500.97, -186314.78, 0.0, 10.001883, 9.994805 
2.8377804e+3, 2.8578565e+2, -432392.1, -653960.9, -114624.78, 0.38715565, 0.17679852, -383765.0, -244452.44, 0.0, 10.000143, 9.997087 
2.8373697e+3, 2.9577148e+2, -600155.75, -642389.5, -151917.53, 0.09915556, -0.15502125, -467894.47, -426445.56, 0.0, 9.99811, 9.997485 
2.8369626e+3, 3.0576113e+2, -255267.28, -67986.72, 36805.37, -0.05825477, -0.29056352, -61013.2, -61013.2, 0.0, 9.998282, 10.000671 
2.836561e+3, 3.157536e+2, 85380.66, 102053.164, 44120.863, 0.07205173, -0.3312689, 138618.4, 138618.4, 0.0, 10.000334, 10.00053 
2.8361568e+3, 3.2574674e+2, -429217.28, -675768.6, 101282.18, -0.043156836, 0.058632538, -392946.8, -392946.8, 0.0, 9.999082, 9.995769 
2.8538454e+3, 1.3633607e+2, -1813585.3, -2022482.1, -210829.34, 0.42085722, 0.0050990167, -1682749.9, -78834.96, 0.000012981825, 10.0004225, 9.997672 
2.853436e+3, 1.4632958e+2, -1375402.0, -1406102.1, 80593.07, 0.07307698, 0.22054331, -1308710.1, 197277.45, 0.000003738906, 10.001252, 10.0008335 
2.853035e+3, 1.5632229e+2, -1149658.0, -1271322.9, 162423.69, 0.20493647, 0.21442191, -1037048.6, 371003.8, 0.00000051506584, 10.002295, 10.000552 
2.8526327e+3, 1.6631295e+2, -1302817.3, -1617164.3, 102339.5, 0.26695517, 0.2064134, -1272435.8, 37710.598, 0.00000002542409, 10.001948, 9.997684 
2.852229e+3, 1.7630218e+2, -1352494.5, -1521594.9, 112441.36, 0.20389892, 0.17231134, -1296361.4, -84102.92, 0.0, 10.000674, 9.998257 
2.8518265e+3, 1.862931e+2, -993710.4, -991657.94, 152550.64, 0.28219795, 0.10418204, -840130.06, 274211.4, 0.0, 10.001147, 10.000998 
2.8514254e+3, 1.9628482e+2, -706790.3, -852786.1, 233149.34, 0.48407438, 0.00812399, -535478.4, 480930.7, 0.0, 10.002677, 10.000534 
2.8510204e+3, 2.0627475e+2, -859415.25, -1259557.9, 187719.31, 0.42827123, -0.022230322, -785138.1, 133368.45, 0.0, 10.002598, 9.997113 
2.8506124e+3, 2.162635e+2, -900089.1, -1186526.6, 180062.7, 0.16712934, -0.028867453, -813233.56, 7389.326, 0.0, 10.001483, 9.997466 
2.8502062e+3, 2.2625464e+2, -862810.1, -926732.0, 49748.094, 0.18015538, 0.07647165, -835640.94, -112928.805, 0.0, 10.0002165, 9.999199 
2.849801e+3, 2.3624727e+2, -961877.06, -920597.94, -27442.8, 0.39564377, 0.23119116, -906899.5, -282115.44, 0.0, 9.998858, 9.999216 
2.849397e+3, 2.4623707e+2, -863957.94, -991459.0, 104535.41, 0.3265668, 0.1881917, -805267.56, -278384.22, 0.0, 9.999584, 9.997714 
2.8489923e+3, 2.56225e+2, -470040.6, -751244.4, 13904.34, 0.030198881, 0.00648663, -469354.75, -40353.445, 0.0, 10.001611, 9.997716 
2.8485876e+3, 2.6621422e+2, -284675.4, -759212.9, -121935.016, 0.07475298, 0.04001332, -255177.19, 75931.3, 0.0, 10.002845, 9.996399 
2.8481832e+3, 2.7620417e+2, -39993.816, -574691.75, -47785.645, 0.36605757, 0.20956029, -35756.816, 197454.33, 0.0, 10.003772, 9.996553 
2.8477734e+3, 2.8619254e+2, 2412.451, -396935.22, -47780.055, 0.3278963, 0.16548243, 8049.5366, 143374.88, 0.0, 10.002921, 9.997517 
2.8473607e+3, 2.9617962e+2, -150523.33, -384838.13, 282.76553, 0.04996648, -0.05581256, -150522.98, -113073.75, 0.0, 10.001038, 9.997839 
2.8469545e+3, 3.0616927e+2, 20404.396, -2447.1343, 264871.13, -0.034188643, -0.15506151, 274096.06, 274096.06, 0.0, 10.00048, 10.000058 
2.8465548e+3, 3.1616092e+2, 129392.664, 70373.76, 151698.78, 0.20952219, -0.20717575, 254425.53, 254425.53, 0.0, 10.000897, 10.000027 
2.8461462e+3, 3.2615232e+2, -445315.9, -498517.38, 36533.645, -0.13595162, -0.046873055, -426724.78, -426724.78, 0.0, 9.998173, 9.997432 
2.8638363e+3, 1.3673997e+2, -1754890.0, -2195264.8, -234315.72, 0.27959788, 0.006106644, -1653539.9, -53582.402, 0.0000059629515, 10.001756, 9.995821 
2.863429e+3, 1.4673294e+2, -1309669.3, -1320815.1, 11787.256, 0.080797836, 0.20134093, -1302203.9, 199834.02, 0.0000015122073, 10.001514, 10.001283 
2.8630275e+3, 1.5672539e+2, -1464885.4, -1373568.8, 9661.462, 0.123920135, 0.10112667, -1372557.8, 31541.174, 0.0000000966577, 9.999942, 10.000979 
2.8626254e+3, 1.6671687e+2, -1472180.8, -1625319.5, -16729.84, 0.20752303, 0.10804978, -1470374.4, -164191.19, 0.00000000026919006, 10.000493, 9.998322 
2.862222e+3, 1.7670758e+2, -1145601.3, -1342386.0, 87549.945, 0.21632601, 0.14570715, -1112289.1, 95992.984, 0.0, 10.00177, 9.998958 
2.861819e+3, 1.8669993e+2, -901386.75, -833587.1, 110653.375, 0.19334134, 0.12966782, -751757.25, 358593.94, 0.0, 10.001294, 10.002017 
2.8614166e+3, 1.9669294e+2, -996673.0, -899530.25, 73092.086, 0.22743191, 0.03814264, -860342.7, 152062.72, 0.0, 10.00029, 10.001364 
2.8610128e+3, 2.066833e+2, -1109033.8, -1349969.6, -15163.448, 0.30626827, -0.016155299, -1108083.1, -193584.81, 0.0, 10.000776, 9.997364 
2.8606078e+3, 2.1667211e+2, -860353.75, -1176541.3, 17486.1, 0.36523944, -0.061573423, -859389.6, -42776.38, 0.0, 10.001809, 9.997375 
2.8601998e+3, 2.266624e+2, -731603.5, -1116792.6, -64426.86, 0.3158063, 0.07794303, -721113.1, -2399.1301, 0.0, 10.002221, 9.996928 
2.859791e+3, 2.3665331e+2, -623786.1, -1009050.0, -49355.73, 0.24451607, 0.2865058, -617563.75, 3244.6575, 0.0, 10.002268, 9.996971 
2.859389e+3, 2.4664234e+2, -603728.5, -988140.8, 193014.8, 0.3005492, 0.3264646, -523541.7, -620.86975, 0.0, 10.001904, 9.996621 
2.8589898e+3, 2.5663018e+2, -480152.4, -828030.1, 112564.125, 0.40032008, 0.24942301, -446906.78, -21862.93, 0.0, 10.001857, 9.997071 
2.8585848e+3, 2.666198e+2, -210461.63, -424943.84, -65818.16, 0.34400246, 0.20199269, -191874.73, 135269.69, 0.0, 10.0020685, 9.999068 
2.858177e+3, 2.7661023e+2, -54124.297, -305933.75, -41847.16, 0.23108487, 0.14737892, -47352.03, 181882.55, 0.0, 10.002487, 9.99902 
2.857766e+3, 2.8660083e+2, -20676.62, -306408.6, -150540.23, 0.13992481, 0.16783115, 43997.875, 175321.1, 0.0, 10.002329, 9.998425 
2.8573534e+3, 2.9659128e+2, -28063.996, -258942.63, -85637.17, 0.053000543, 0.18760249, 232.41965, 33645.76, 0.0, 10.001587, 9.998444 
2.8569475e+3, 3.0658105e+2, -71576.305, -228087.97, 239145.56, 0.024900755, 0.16023138, 101791.74, 101791.74, 0.0, 10.000625, 9.998442 
2.8565475e+3, 3.1657085e+2, -69511.016, -149255.7, 129498.016, 0.2184858, 0.08449538, 26114.02, 26114.02, 0.0, 10.000053, 9.998932 
2.8561378e+3, 3.2655966e+2, -212742.45, -14221.229, -146105.4, 0.032912876, -0.15781327, 63151.848, 63151.848, 0.0, 9.998108, 10.000819 
2.8738296e+3, 1.3714476e+2, -1665660.9, -2066283.3, -153155.78, 0.21251205, 0.20745283, -1613818.9, -17825.746, 0.0000021472997, 10.001958, 9.996616 
2.8734243e+3, 1.4713553e+2, -1412396.6, -1507534.4, -71066.11, 0.2763024, 0.22172166, -1374448.4, 123645.44, 0.00000043033984, 10.001377, 10.00007 
2.8730193e+3, 1.5712507e+2, -1599279.1, -1491230.4, -57873.62, 0.15623134, -0.046037868, -1466084.1, -65898.03, 0.000000019645139, 9.999233, 10.000514 
2.872619e+3, 1.6711777e+2, -1312386.6, -1220517.1, 49011.277, 0.32695886, -0.073127136, -1199279.6, 102973.72, 0.0, 10.000153, 10.001272 
2.8722194e+3, 1.771116e+2, -927454.44, -1018489.6, 142739.25, 0.5231982, 0.002320991, -823151.0, 381162.0, 0.0, 10.002305, 10.000929 
2.8718138e+3, 1.8710482e+2, -1058325.5, -1176253.6, 1470.1724, 0.37431347, 0.131402, -1058307.1, 48073.273, 0.0, 10.001334, 9.999659 
2.8714067e+3, 1.970976e+2, -1310528.6, -1242651.8, -67244.31, 0.14065883, 0.24718338, -1201266.8, -192815.08, 0.0, 9.998943, 9.999664 
2.8710046e+3, 2.0708731e+2, -1123026.4, -1176019.1, -28320.947, 0.29539514, 0.0976791, -1110739.5, -200190.19, 0.0, 9.999906, 9.998967 
2.8706038e+3, 2.1707557e+2, -683834.44, -950553.8, 7355.876, 0.57093114, -0.15836804, -683631.75, 129028.9, 0.0, 10.002413, 9.998629 
2.8701973e+3, 2.2706592e+2, -371660.3, -900756.0, -49125.637, 0.5025735, -0.09181616, -367137.75, 347617.72, 0.0, 10.004519, 9.997294 
2.8697884e+3, 2.3705706e+2, -22695.525, -692764.3, 5877.046, 0.2905529, 0.10988667, -22643.982, 594200.56, 0.0, 10.006289, 9.997204 
2.869385e+3, 2.4704616e+2, -146819.77, -758833.0, 182824.9, 0.30145165, 0.15173523, -96364.61, 422592.16, 0.0, 10.0049925, 9.996714 
2.868984e+3, 2.570343e+2, -393810.9, -755979.56, 141058.03, 0.41014168, 0.10819769, -345354.6, 75724.9, 0.0, 10.002313, 9.997351 
2.8685775e+3, 2.6702505e+2, -354345.16, -433031.66, -8794.156, 0.3296402, 0.13686101, -353374.28, -30203.238, 0.0, 10.00082, 9.999609 
2.8681687e+3, 2.7701685e+2, -388801.06, -427317.53, -55686.1, 0.15089384, 0.17196745, -349137.13, -123887.37, 0.0, 10.000026, 9.999363 
2.8677595e+3, 2.8700736e+2, -189321.03, -434394.34, -163558.47, 0.16434957, 0.19428132, -107488.88, 19852.543, 0.0, 10.0014, 9.997979 
2.86735e+3, 2.9699734e+2, 287910.78, -122636.22, -184992.44, 0.24500495, 0.19837353, 358969.34, 388407.9, 0.0, 10.003849, 9.998281 
2.8669417e+3, 3.0698794e+2, 43863.492, -96256.21, 24622.441, 0.14641292, 0.20489492, 48064.313, 48064.313, 0.0, 10.0011, 9.999108 
2.8665367e+3, 3.1697896e+2, -586245.0, -327176.16, 46003.63, 0.15877567, 0.18800981, -319249.7, -319249.7, 0.0, 9.996207, 9.9995575 
2.8661284e+3, 3.269687e+2, 14753.875, 203590.17, -77329.53, 0.07105938, -0.047047157, 231215.64, 231215.64, 0.0, 9.999251, 10.001734 
2.8838247e+3, 1.3754922e+2, -1594483.8, -1937600.6, -157512.34, 0.3340094, 0.35844442, -1533142.1, 58893.54, 0.00000033679078, 10.002059, 9.997441 
2.8834182e+3, 1.4753853e+2, -1471727.6, -1614609.8, -71476.33, 0.34904408, 0.22715709, -1442110.9, 52036.777, 0.000000039050374, 10.001318, 9.9993515 
2.8830117e+3, 1.5752706e+2, -1317448.6, -1387499.1, 3479.613, 0.21565469, -0.0715498, -1317276.3, 78976.22, 0.0000000006124831, 10.001311, 10.00022 
2.8826123e+3, 1.6752054e+2, -1162128.4, -979319.1, 90979.86, 0.4386237, -0.093941234, -941758.1, 356550.75, 0.0, 10.000474, 10.002761 
2.8822145e+3, 1.7751585e+2, -1258089.4, -1090314.6, 35973.02, 0.71104836, -0.033229284, -1082926.9, 117420.97, 0.0, 9.999662, 10.001706 
2.8818077e+3, 1.8750921e+2, -1369226.9, -1487955.9, -122244.97, 0.48040092, 0.16007859, -1292694.4, -190276.23, 0.0, 9.999938, 9.998177 
2.8813976e+3, 1.9750153e+2, -1176870.3, -1285663.1, -32254.137, 0.11021843, 0.36558458, -1168026.6, -163523.25, 0.0, 10.000346, 9.998686 
2.8809968e+3, 2.0749101e+2, -882775.44, -938616.06, 91300.07, 0.28691888, 0.17348881, -815222.0, 91380.0, 0.0, 10.001041, 10.000052 
2.8805992e+3, 2.1747923e+2, -651261.7, -825685.3, 60679.914, 0.6742485, -0.2000505, -632228.75, 176478.56, 0.0, 10.002177, 9.999602 
2.8801945e+3, 2.2746961e+2, -508752.5, -890038.44, -27132.48, 0.6035613, -0.2114255, -506831.4, 203965.4, 0.0, 10.00326, 9.997973 
2.8797865e+3, 2.3746076e+2, -273205.34, -747634.25, 5408.9595, 0.3453577, -0.08185859, -273143.7, 339737.47, 0.0, 10.004303, 9.997777 
2.8793815e+3, 2.4745025e+2, -389212.72, -822544.94, 70604.0, 0.2865084, -0.053656, -377999.2, 136989.77, 0.0, 10.003118, 9.997169 
2.878977e+3, 2.5743893e+2, -550817.6, -789114.8, 68040.25, 0.31809005, -0.08852441, -532758.8, -115651.77, 0.0, 10.001062, 9.99772 
2.878569e+3, 2.6743084e+2, -415964.97, -482370.34, -27865.2, 0.2153976, 0.048109937, -405821.53, -86631.445, 0.0, 10.000498, 9.999419 
2.8781596e+3, 2.774238e+2, -354998.25, -460975.97, -52926.273, 0.075158805, 0.22058704, -333093.78, -111832.71, 0.0, 10.000484, 9.998906 
2.877753e+3, 2.874133e+2, -251097.75, -557077.94, -49778.33, 0.22827347, 0.21176538, -243203.27, -119836.51, 0.0, 10.001374, 9.997148 
2.8773478e+3, 2.9740125e+2, 114216.805, -242618.2, -89747.51, 0.48350492, 0.0968983, 135517.66, 161004.98, 0.0, 10.002812, 9.997954 
2.8769353e+3, 3.07393e+2, 67462.83, 97882.47, -136003.61, 0.24742824, 0.1338007, 219524.1, 219524.1, 0.0, 10.000478, 10.000743 
2.876523e+3, 3.1738657e+2, -463323.8, -142567.22, -32768.363, 0.011860238, 0.21758604, -139253.83, -139253.83, 0.0, 9.99652, 10.000674 
2.8761184e+3, 3.273795e+2, -14091.245, 102715.875, 220910.98, -0.052626107, 0.29240862, 272813.16, 272813.16, 0.0, 9.99948, 10.000906 
2.893821e+3, 1.3795282e+2, -1557129.3, -1824189.1, -261084.58, 0.5914578, 0.36301446, -1397409.5, 190682.42, 0.00000000011162854, 10.001863, 9.998325 
2.8934106e+3, 1.4794248e+2, -1461242.8, -1571684.0, -27569.68, 0.263622, 0.21933623, -1454743.0, 35452.504, 0.0, 10.001213, 9.9997015 
2.893007e+3, 1.5793435e+2, -1255186.4, -1368129.9, 36594.918, 0.36947706, 0.2362606, -1244365.9, 147904.03, 0.0, 10.001763, 10.000142 
2.8926054e+3, 1.6792709e+2, -1278044.3, -1226987.3, 28276.799, 0.4764111, 0.24820913, -1214420.0, 79916.72, 0.0, 10.000485, 10.001055 
2.8922033e+3, 1.7792025e+2, -1452312.3, -1263352.3, -42845.59, 0.5229639, 0.25614917, -1254091.1, -57691.37, 0.0, 9.998667, 10.000992 
2.8917983e+3, 1.8791223e+2, -1260361.1, -1186918.6, -70078.016, 0.42173806, 0.19607273, -1144523.6, -46047.74, 0.0, 9.999587, 10.000414 
2.8913927e+3, 1.9790372e+2, -937844.2, -1022939.0, 61963.195, 0.29243785, 0.12117567, -905226.94, 95331.44, 0.0, 10.001332, 10.000017 
2.8909904e+3, 2.0789509e+2, -817713.56, -1020949.56, 143227.34, 0.27191472, 0.13523547, -743717.5, 158923.98, 0.0, 10.001944, 9.999067 
2.8905895e+3, 2.1788593e+2, -697616.44, -912171.25, 64371.79, 0.30250305, 0.12263547, -679785.25, 124943.375, 0.0, 10.002107, 9.999053 
2.890186e+3, 2.2787578e+2, -611371.9, -856144.1, -28724.807, 0.34373567, 0.03408633, -608046.1, 98779.6, 0.0, 10.002205, 9.998703 
2.8897813e+3, 2.3786548e+2, -494247.34, -735548.5, -24938.486, 0.35727495, -0.058076847, -491696.9, 117227.59, 0.0, 10.002269, 9.998835 
2.8893754e+3, 2.4785715e+2, -569992.0, -711552.5, 11253.587, 0.34468406, 0.035389505, -569103.0, -58094.945, 0.0, 10.001024, 9.998933 
2.888969e+3, 2.5784907e+2, -699061.9, -721852.4, 67927.26, 0.3191061, 0.16047072, -641580.7, -228489.86, 0.0, 9.99946, 9.998942 
2.8885612e+3, 2.678396e+2, -476356.3, -554009.6, 72189.11, 0.21400604, 0.14550696, -433214.8, -118029.72, 0.0, 10.000283, 9.9990225 
2.888153e+3, 2.7782986e+2, -140436.48, -342493.03, 15540.386, 0.08609596, 0.09576649, -139248.25, 78033.15, 0.0, 10.001912, 9.9990225 
2.8877458e+3, 2.878208e+2, -172056.95, -332838.38, 50545.91, 0.21020511, 0.13258733, -157486.86, -38114.977, 0.0, 10.00111, 9.998812 
2.8873393e+3, 2.9781157e+2, -277414.34, -320201.7, 99092.766, 0.4113749, 0.16163751, -197432.16, -175967.31, 0.0, 9.9996605, 9.998925 
2.8869256e+3, 3.078032e+2, -189416.73, -128179.53, -28879.975, 0.17783263, 0.22974578, -116708.33, -116708.33, 0.0, 9.999175, 9.999829 
2.8865123e+3, 3.1779537e+2, -141830.27, -83125.836, 13542.666, -0.046636503, 0.29029363, -80152.266, -80152.266, 0.0, 9.999166, 9.999839 
2.886112e+3, 3.277864e+2, 109455.195, 161449.45, 352890.0, 0.11241993, 0.23938757, 489298.63, 489298.63, 0.0, 10.000327, 10.0009575 
2.9038146e+3, 1.3835846e+2, -1763593.0, -1735661.4, -146804.2, 0.71151584, 0.49957547, -1602160.1, -18033.125, 0.00000000011825356, 9.999675, 9.999989 
2.903403e+3, 1.4834733e+2, -1441759.5, -1555136.3, 30427.656, 0.19372796, 0.21900399, -1434109.6, 52123.637, 0.0, 10.001332, 9.999762 
2.9030016e+3, 1.5834154e+2, -1496271.9, -1511099.1, 72076.98, 0.5080677, 0.46394584, -1431228.3, -42941.645, 0.0, 10.00025, 9.999887 
2.9025978e+3, 1.6833344e+2, -1356233.4, -1388980.9, 83060.74, 0.51343817, 0.47796828, -1287947.9, 2415.7012, 0.0, 10.000517, 9.999921 
2.9021934e+3, 1.7832461e+2, -1177719.3, -1184445.4, 93522.555, 0.3757569, 0.39902723, -1087499.4, 104948.25, 0.0, 10.000808, 10.000499 
2.90179e+3, 1.8831564e+2, -936349.6, -877574.44, 54467.71, 0.3807746, 0.18930875, -845072.06, 249455.56, 0.0, 10.00118, 10.001762 
2.9013875e+3, 1.983066e+2, -837042.9, -889893.94, 74188.2, 0.44019464, -0.069756195, -784714.4, 211892.81, 0.0, 10.001683, 10.000754 
2.900984e+3, 2.0829973e+2, -952346.2, -1152764.4, 144480.4, 0.2324168, 0.13174793, -876724.56, 21951.299, 0.0, 10.001331, 9.998447 
2.90058e+3, 2.18293e+2, -912184.4, -1054236.0, 130572.01, -0.034914315, 0.4185929, -834570.6, -33824.766, 0.0, 10.000816, 9.998695 
2.9001775e+3, 2.2828232e+2, -827759.94, -907571.0, 30096.717, 0.09731428, 0.2673889, -817682.8, -114831.516, 0.0, 10.000495, 9.999177 
2.899775e+3, 2.3827079e+2, -706919.9, -742814.06, -8748.773, 0.35027832, -0.0027507008, -704901.0, -99937.086, 0.0, 10.00041, 9.99968 
2.8993684e+3, 2.482649e+2, -474335.1, -467395.63, -56174.855, 0.37660283, 0.19225934, -414583.44, 92437.805, 0.0, 10.000839, 10.000695 
2.8989604e+3, 2.5826013e+2, -401389.28, -461899.63, -2127.1565, 0.32019293, 0.47342676, -401314.6, 7753.0537, 0.0, 10.001013, 9.999978 
2.8985536e+3, 2.6824877e+2, -404474.72, -570749.06, 67908.64, 0.21761183, 0.26005775, -380264.94, -69087.29, 0.0, 10.001005, 9.998555 
2.8981468e+3, 2.7823573e+2, -218724.22, -346900.8, -9372.571, 0.10916471, -0.09317654, -218042.5, -4738.7104, 0.0, 10.001226, 9.999326 
2.897738e+3, 2.882294e+2, 7745.6216, 34160.387, -77848.086, 0.12166953, 0.03624853, 99913.5, 215278.36, 0.0, 10.00114, 10.001319 
2.8973284e+3, 2.982247e+2, -67853.29, -118227.88, -12505.803, 0.16362423, 0.2954362, -64919.51, -47508.855, 0.0, 10.000694, 9.999802 
2.896915e+3, 3.082153e+2, 7103.288, -278854.78, -113110.195, 0.0073165335, 0.35276413, 46434.21, 46434.21, 0.0, 10.0016165, 9.99759 
2.8965026e+3, 3.182044e+2, 135547.52, -180764.83, -12950.907, -0.086894654, 0.32853225, 136076.89, 136076.89, 0.0, 10.002115, 9.997723 
2.896106e+3, 3.2819122e+2, 315934.44, 319242.16, 329193.9, 0.23335347, -0.05991691, 646786.4, 646786.4, 0.0, 10.001501, 10.001464 
2.913806e+3, 1.387666e+2, -1531322.9, -1282757.8, 159785.03, 0.69529, 0.7812632, -1204611.5, 375524.66, 0.0000000000007792345, 9.999759, 10.00307 
2.9133958e+3, 1.4875306e+2, -1467760.4, -1587689.8, -14294.307, 0.15601872, 0.18225887, -1466080.1, 16179.611, 0.0, 10.001212, 9.999607 
2.912994e+3, 1.5874766e+2, -1538290.1, -1519036.5, 67730.87, 0.59491843, 0.48721156, -1460251.8, -75942.32, 0.0, 9.999882, 10.000019 
2.9125917e+3, 1.6873877e+2, -1293307.5, -1276423.1, 161597.53, 0.61533827, 0.37055153, -1123047.5, 163343.14, 0.0, 10.000573, 10.000676 
2.912188e+3, 1.7872904e+2, -1050750.0, -1139427.4, 181612.86, 0.4674346, 0.15743397, -908141.8, 280338.13, 0.0, 10.001716, 10.000386 
2.911784e+3, 1.8872035e+2, -947508.56, -1092758.5, 91884.9, 0.406442, 0.10863075, -903013.0, 187548.33, 0.0, 10.001983, 9.999904 
2.9113808e+3, 1.9871198e+2, -839391.3, -949803.6, 45312.137, 0.40337968, 0.081534564, -823176.8, 169463.14, 0.0, 10.001899, 10.000244 
2.910978e+3, 2.0870517e+2, -855288.3, -886522.75, 117525.45, 0.3476848, 0.17433286, -752347.0, 142358.63, 0.0, 10.001013, 10.000446 
2.9105747e+3, 2.1869844e+2, -972856.56, -965091.6, 151769.92, 0.24420431, 0.28956005, -817154.5, -20382.652, 0.0, 9.999858, 9.9997835 
2.91017e+3, 2.286884e+2, -1073831.8, -1092322.9, 67470.41, 0.22921488, 0.21280056, -1014976.4, -316103.75, 0.0, 9.999042, 9.998631 
2.909765e+3, 2.3867764e+2, -998500.75, -925415.9, 44898.96, 0.26854992, 0.079660684, -904068.2, -303087.7, 0.0, 9.9985485, 9.999337 
2.9093602e+3, 2.4867094e+2, -487821.38, -509390.22, 26246.463, 0.31490424, 0.22362432, -470230.1, 32817.484, 0.0, 10.0008955, 10.000376 
2.9089552e+3, 2.5866494e+2, -35438.0, -319904.8, -46876.395, 0.33368233, 0.41154256, -27912.47, 377194.4, 0.0, 10.003661, 9.999678 
2.9085472e+3, 2.6865405e+2, -283455.2, -536363.7, -84080.91, 0.2376908, 0.2650609, -258053.33, 49159.1, 0.0, 10.001955, 9.998325 
2.9081386e+3, 2.786421e+2, -451462.3, -432394.88, -115287.29, 0.116180174, 0.022824049, -326247.78, -116920.27, 0.0, 9.999526, 9.999545 
2.907731e+3, 2.8863567e+2, 100768.31, 134343.2, -138840.98, 0.121382765, 0.09247472, 257407.95, 368794.88, 0.0, 10.001581, 10.001778 
2.9073223e+3, 2.9863042e+2, 461007.6, 138754.28, -154923.06, 0.09969593, 0.23577903, 523404.88, 536840.56, 0.0, 10.004341, 9.999799 
2.9237986e+3, 1.391719e+2, -1437435.8, -1195257.0, 349758.56, 0.72668713, 0.6834841, -946219.8, 629940.8, 0.0, 10.000285, 10.003397 
2.9233882e+3, 1.4915967e+2, -1514945.8, -1604148.8, -4665.725, 0.114284664, 0.20383541, -1514702.4, -36428.836, 0.0, 10.000901, 9.999627 
2.9229867e+3, 1.5915373e+2, -1275501.9, -1396623.6, 117640.055, 0.60629565, 0.45328546, -1203749.5, 176580.05, 0.0, 10.001728, 9.999962 
2.922585e+3, 1.691445e+2, -1011295.56, -1129890.4, 190296.9, 0.6335257, 0.30289385, -871271.4, 411141.8, 0.0, 10.002474, 10.000768 
2.922182e+3, 1.7913452e+2, -891219.3, -1112678.5, 139088.44, 0.49524057, 0.052640762, -824166.4, 360337.3, 0.0, 10.003048, 9.999926 
2.921778e+3, 1.8912591e+2, -966163.4, -1252666.8, 81789.61, 0.39489576, 0.113738306, -944458.75, 142129.19, 0.0, 10.002523, 9.99854 
2.921374e+3, 1.9911772e+2, -875694.56, -1008408.94, 100976.59, 0.36179268, 0.2207308, -821223.1, 167446.25, 0.0, 10.001837, 9.99987 
2.9209724e+3, 2.0911084e+2, -669578.5, -632374.25, 83452.75, 0.46658635, 0.2201314, -565475.5, 325258.78, 0.0, 10.001603, 10.001892 
2.9205698e+3, 2.191039e+2, -735861.56, -773302.94, 35287.79, 0.5366614, 0.16991553, -714636.1, 78163.14, 0.0, 10.001174, 10.000457 
2.9201624e+3, 2.2909465e+2, -909136.44, -1045960.5, -10449.439, 0.34565058, 0.16990694, -908343.0, -213450.86, 0.0, 10.000344, 9.99831 
2.9197544e+3, 2.3908493e+2, -884887.5, -929486.75, 71870.0, 0.15056124, 0.16844316, -831937.06, -234945.75, 0.0, 9.999605, 9.998794 
2.9193524e+3, 2.4907658e+2, -602936.3, -662850.0, 126158.8, 0.22481853, 0.22643253, -503226.44, -4149.507, 0.0, 10.000542, 9.999488 
2.9189503e+3, 2.5906846e+2, -333295.34, -527074.25, -33975.004, 0.33085597, 0.2749974, -327511.2, 73648.055, 0.0, 10.001905, 9.999096 
2.9185408e+3, 2.690588e+2, -349357.47, -571836.75, -163400.98, 0.22840558, 0.27548024, -262925.3, 40327.66, 0.0, 10.00151, 9.998303 
2.91813e+3, 2.7904895e+2, -312397.72, -348635.6, -78227.48, 0.080236584, 0.23043066, -250218.23, -44870.324, 0.0, 10.0004, 9.99971 
2.9177243e+3, 2.890412e+2, 100027.12, 94017.68, 17669.977, 0.11960076, 0.18531351, 114946.03, 222364.25, 0.0, 10.001781, 10.001393 
2.9173177e+3, 2.9903314e+2, 341127.9, 62491.098, -13496.372, 0.03512128, 0.06376218, 341780.13, 351272.4, 0.0, 10.003575, 9.999663 
2.9337925e+3, 1.3957484e+2, -1683929.1, -1694342.0, 246290.58, 0.8763532, 0.22456928, -1442790.0, 129402.55, 0.0, 10.00019, 10.00002 
2.93338e+3, 1.4956743e+2, -1485517.5, -1534137.4, 51862.527, 0.04486068, 0.2941908, -1452550.1, 21717.94, 0.0, 10.000819, 10.000164 
2.9329798e+3, 1.5955973e+2, -1214039.6, -1391900.1, 169071.89, 0.47595608, 0.3366629, -1111936.1, 264408.88, 0.0, 10.002216, 9.999774 
2.9325786e+3, 1.695515e+2, -1019882.1, -1293805.5, 210418.11, 0.4895865, 0.3923345, -905777.56, 372646.53, 0.0, 10.003063, 9.999375 
2.9321763e+3, 1.795429e+2, -821796.94, -1108033.9, 108972.195, 0.35559863, 0.39709845, -785032.56, 395473.94, 0.0, 10.003611, 9.9997 
2.9317722e+3, 1.8953359e+2, -836976.3, -1055254.1, 49042.938, 0.34523296, 0.305644, -826463.6, 256134.42, 0.0, 10.002807, 9.999768 
2.9313686e+3, 1.9952436e+2, -870045.4, -1011459.25, 128717.56, 0.40538687, 0.22835307, -793892.94, 190796.38, 0.0, 10.001875, 9.999841 
2.930967e+3, 2.0951715e+2, -723884.8, -864442.06, 95356.445, 0.5225996, 0.3301698, -675706.94, 211055.1, 0.0, 10.0021105, 10.000053 
2.9305643e+3, 2.1951006e+2, -569064.2, -724414.7, -49431.813, 0.5836937, 0.41713148, -554669.06, 234163.38, 0.0, 10.0024185, 10.000203 
2.9301554e+3, 2.2950138e+2, -578664.7, -693893.8, -84521.75, 0.332653, 0.35049054, -533988.6, 156924.5, 0.0, 10.001748, 10.000072 
2.9297462e+3, 2.3949225e+2, -676070.25, -792218.56, 47550.33, 0.07627539, 0.26589525, -659086.8, -66087.33, 0.0, 10.000841, 9.999158 
2.929344e+3, 2.4948281e+2, -803194.1, -936999.7, 101794.76, 0.17637289, 0.3178116, -748284.94, -253185.3, 0.0, 9.999919, 9.99791 
2.9289418e+3, 2.5947356e+2, -690924.6, -683051.06, -61320.92, 0.31010023, 0.3728868, -625540.7, -228343.02, 0.0, 9.999349, 9.999269 
2.928533e+3, 2.694653e+2, -285396.88, -313311.38, -97394.56, 0.18306695, 0.34981444, -200964.55, 98309.58, 0.0, 10.000918, 10.000384 
2.928123e+3, 2.7945712e+2, 69493.44, -87293.23, 20109.986, 0.027658079, 0.30320683, 72031.72, 273379.63, 0.0, 10.002634, 10.00045 
2.927719e+3, 2.894487e+2, -653.6068, -125942.04, 80891.18, 0.20991868, 0.2724754, 39013.863, 142440.7, 0.0, 10.001749, 9.999942 
2.927312e+3, 2.994387e+2, -21478.723, -232269.6, 64142.86, 0.069698855, 0.10304378, -3494.6436, 2028.8003, 0.0, 10.001474, 9.9987135 
2.943785e+3, 1.3997856e+2, -1882857.6, -1921577.9, -39683.18, 0.92583245, 0.17374037, -1858063.8, -289834.72, 0.0, 9.99944, 9.998809 
2.943373e+3, 1.4997187e+2, -1467401.8, -1466437.1, -93323.32, 0.07709283, 0.2788846, -1373594.9, 96705.03, 0.0, 10.00073, 10.000658 
2.942973e+3, 1.5996395e+2, -1299113.8, -1423928.0, 30602.459, 0.43629482, 0.23399411, -1292014.4, 80364.914, 0.0, 10.001612, 9.999844 
2.9425722e+3, 1.6995664e+2, -1229903.5, -1437547.5, 148304.88, 0.40310946, 0.38829055, -1152691.4, 121760.25, 0.0, 10.001831, 9.998968 
2.9421705e+3, 1.7994907e+2, -1078071.1, -1232433.0, 101910.28, 0.25688878, 0.5241364, -1027413.9, 149112.7, 0.0, 10.001878, 9.99967 
2.941766e+3, 1.8994004e+2, -992157.94, -1051001.6, -26960.914, 0.30509073, 0.40928662, -981673.2, 96944.46, 0.0, 10.001412, 10.0004635 
2.9413623e+3, 1.9993074e+2, -1021820.9, -1114410.0, 38068.88, 0.42873898, 0.2580352, -1008178.6, -27467.285, 0.0, 10.0009775, 9.999561 
2.9409608e+3, 2.0992318e+2, -877930.94, -1097492.5, 113869.555, 0.5146879, 0.42691907, -829540.6, 53250.164, 0.0, 10.001757, 9.998619 
2.9405582e+3, 2.1991582e+2, -580191.1, -749043.06, 19111.406, 0.53840107, 0.60583967, -578055.0, 206811.77, 0.0, 10.002453, 10.000014 
2.9401487e+3, 2.2990769e+2, -384333.47, -422803.6, -87919.66, 0.292301, 0.49007913, -313569.34, 373367.3, 0.0, 10.002342, 10.001632 
2.9397386e+3, 2.3989907e+2, -543350.75, -724386.25, -2263.3618, 0.039830524, 0.32913026, -543322.44, 45689.64, 0.0, 10.001757, 9.999176 
2.9393354e+3, 2.4988893e+2, -734630.6, -1064271.5, 86159.98, 0.12271336, 0.41818696, -713469.0, -222346.19, 0.0, 10.001083, 9.996478 
2.9389325e+3, 2.5987902e+2, -499031.8, -552867.1, 1906.1246, 0.2419525, 0.50464845, -498964.4, -105732.766, 0.0, 10.000511, 9.999606 
2.9385248e+3, 2.6987186e+2, -100388.445, 19689.21, -64766.98, 0.10223293, 0.4249763, 47964.723, 343257.44, 0.0, 10.001152, 10.002553 
2.9381165e+3, 2.79865e+2, -6147.1943, -93908.86, -60460.863, -0.035050213, 0.3200328, 24678.354, 222027.47, 0.0, 10.001996, 10.000706 
2.9377136e+3, 2.8985634e+2, -89981.02, -355496.34, -39004.5, 0.3054265, 0.37709647, -84369.805, 15063.178, 0.0, 10.00192, 9.998292 
2.9373062e+3, 2.998448e+2, -40450.242, -345971.06, 175757.42, 0.10387675, 0.21861659, 39655.004, 41205.72, 0.0, 10.00183, 9.997745 
2.9537767e+3, 1.403806e+2, -1748038.8, -1684910.9, -31182.68, 0.9574813, 0.3969603, -1672105.5, -107806.6, 0.0, 9.999544, 10.000415 
2.953368e+3, 1.5037078e+2, -1434039.4, -1399929.3, -99353.32, 0.3184771, 0.10902453, -1316177.8, 150216.58, 0.0, 10.000693, 10.001157 
2.9529682e+3, 1.6036458e+2, -1216294.4, -1234785.5, -3120.695, 0.5867201, 0.1692435, -1215782.0, 152669.16, 0.0, 10.001494, 10.001217 
2.952567e+3, 1.7035672e+2, -1131926.4, -1147449.6, 112075.42, 0.50391775, 0.0662503, -1027344.1, 243178.33, 0.0, 10.001428, 10.001164 
2.9521644e+3, 1.80349e+2, -1135730.5, -1211665.9, 76737.58, 0.31855217, 0.015751638, -1088081.5, 84513.53, 0.0, 10.001234, 10.000135 
2.9517588e+3, 1.903426e+2, -1173385.8, -1287058.1, -75328.87, 0.31260502, 0.24973638, -1135856.8, -61188.36, 0.0, 10.00078, 9.999158 
2.9513544e+3, 2.0033576e+2, -1046514.6, -1076495.1, -100.74115, 0.37157026, 0.4311912, -1046514.3, -69769.32, 0.0, 10.000557, 10.000036 
2.9509526e+3, 2.1032755e+2, -733829.06, -802644.4, 154326.03, 0.34460422, 0.36449245, -610121.56, 268701.72, 0.0, 10.001719, 10.000687 
2.9505503e+3, 2.2031914e+2, -501750.88, -666663.4, 78899.68, 0.2993403, 0.28448245, -470083.53, 310818.8, 0.0, 10.00276, 10.000446 
2.9501435e+3, 2.3031077e+2, -378919.3, -564068.2, -81916.875, 0.32404238, 0.23408587, -347879.84, 335100.3, 0.0, 10.003005, 10.000334 
2.9497358e+3, 2.403024e+2, -327779.25, -608173.3, -60985.207, 0.31409594, 0.19334653, -315089.38, 269969.34, 0.0, 10.0031395, 9.999319 
2.9493302e+3, 2.5029406e+2, -371673.6, -734150.3, 86223.13, 0.17150062, 0.34889305, -352208.78, 134938.6, 0.0, 10.002854, 9.997926 
2.9489246e+3, 2.6028535e+2, -276368.3, -566080.8, 48141.34, 0.06482091, 0.4837671, -268578.16, 120662.82, 0.0, 10.002516, 9.998574 
2.948518e+3, 2.7027518e+2, -275779.44, -464568.44, -172411.2, 0.08567675, 0.39308393, -173613.66, 117727.63, 0.0, 10.0016365, 9.999008 
2.9481113e+3, 2.8026566e+2, -200961.44, -306133.2, -307275.5, 0.13994133, 0.30122134, 58195.383, 251628.13, 0.0, 10.00112, 9.999701 
2.9477096e+3, 2.9025882e+2, 121582.28, -98840.78, -194486.66, 0.49572286, 0.43196172, 234914.13, 330411.5, 0.0, 10.002685, 9.999698 
2.947301e+3, 3.0025008e+2, 288142.28, -50515.31, 60741.313, 0.11386958, 0.4243272, 298707.2, 298707.2, 0.0, 10.003451, 9.998997 
2.9637673e+3, 1.4078118e+2, -1809314.1, -1580542.9, -12261.136, 0.86763334, 0.4703234, -1579887.6, -19505.809, 0.0, 9.998592, 10.001581 
2.9633626e+3, 1.5077089e+2, -1428906.9, -1314771.4, -15385.373, 0.5153277, 0.049279887, -1312733.8, 149743.61, 0.0, 10.000405, 10.001866 
2.9629618e+3, 1.6076685e+2, -1099016.9, -1062931.0, 41793.516, 0.60102004, 0.24558243, -1035452.0, 329057.6, 0.0, 10.001833, 10.002226 
2.962561e+3, 1.7075844e+2, -1155084.5, -991843.94, 47551.035, 0.5931484, -0.04692314, -979002.75, 287580.4, 0.0, 10.000577, 10.002631 
2.9621583e+3, 1.8075043e+2, -1332777.1, -1273702.9, -11930.462, 0.46540165, -0.26094896, -1271384.4, -102728.086, 0.0, 9.99977, 10.000408 
2.9617518e+3, 1.9074567e+2, -1089707.6, -1313414.3, -65949.766, 0.3362152, 0.17367779, -1071712.9, -996.1219, 0.0, 10.00167, 9.99854 
2.9613468e+3, 2.0074023e+2, -679617.9, -860323.56, 84540.625, 0.29669517, 0.5309867, -646234.06, 326548.03, 0.0, 10.002933, 10.000371 
2.9609454e+3, 2.1073134e+2, -614584.25, -585045.3, 123504.91, 0.20311192, 0.28356633, -475429.9, 399431.3, 0.0, 10.001865, 10.002105 
2.9605424e+3, 2.2072202e+2, -784009.3, -827974.06, -58636.71, 0.115711756, -0.0044037024, -743369.94, 33573.99, 0.0, 10.000942, 10.000214 
2.9601383e+3, 2.3071322e+2, -643705.8, -857663.94, -166420.61, 0.3534544, 0.011474819, -552845.7, 126186.0, 0.0, 10.001897, 9.998857 
2.959733e+3, 2.4070509e+2, -376964.66, -593841.75, -113116.836, 0.5526073, 0.07919906, -328704.97, 252408.34, 0.0, 10.00265, 9.999656 
2.9593253e+3, 2.5069875e+2, -299878.75, -480092.38, -3402.8464, 0.19867176, 0.26423982, -299814.53, 183361.48, 0.0, 10.002416, 9.99987 
2.958917e+3, 2.606911e+2, -461515.56, -852669.75, -43375.207, -0.12446664, 0.40688506, -456763.4, -71509.81, 0.0, 10.002109, 9.9967985 
2.958511e+3, 2.7067724e+2, -530161.44, -1104129.0, -158430.33, 0.06843644, 0.3424867, -489334.5, -201932.13, 0.0, 10.002125, 9.994381 
2.9581064e+3, 2.806643e+2, -139430.52, -377207.38, -142582.81, 0.32098556, 0.2730559, -72673.266, 116866.266, 0.0, 10.001997, 9.99878 
2.957706e+3, 2.9065946e+2, 271228.4, 215385.4, -58102.207, 0.6523635, 0.4617303, 307769.88, 399351.16, 0.0, 10.002661, 10.001869 
2.9572955e+3, 3.0065486e+2, 257892.14, 95276.68, -30614.03, 0.008642685, 0.66457754, 263464.6, 263464.6, 0.0, 10.002563, 10.000421 
2.9737565e+3, 1.4118119e+2, -1748833.5, -1490817.8, -53262.055, 0.7253927, 0.44486272, -1480255.3, 76212.87, 0.0, 9.998707, 10.002151 
2.973356e+3, 1.5117379e+2, -1348024.4, -1146929.1, 76895.18, 0.61827034, 0.21670157, -1120896.0, 337638.38, 0.0, 10.000376, 10.003044 
2.9729536e+3, 1.6117327e+2, -1061093.5, -1014028.6, 22427.955, 0.35944918, 0.67449754, -1005052.8, 355481.7, 0.0, 10.001927, 10.002525 
2.9725543e+3, 1.7116535e+2, -1242316.3, -1090218.6, -45920.87, 0.68661064, 0.46060732, -1077429.8, 185179.39, 0.0, 10.00019, 10.002158 
2.9721534e+3, 1.8115693e+2, -1315793.6, -1155141.5, -21204.836, 0.8309895, 0.22178195, -1152389.8, 12299.359, 0.0, 9.999358, 10.001441 
2.9717475e+3, 1.911506e+2, -820062.56, -940482.1, 30685.36, 0.49774733, 0.30145213, -812694.2, 254058.89, 0.0, 10.0024185, 10.000768 
2.9713428e+3, 2.0114379e+2, -492413.44, -850340.4, 80104.88, 0.26809928, 0.39074555, -475303.7, 493519.0, 0.0, 10.004502, 9.99971 
2.9709405e+3, 2.1113409e+2, -812279.25, -1011875.75, -42701.566, 0.34233728, 0.3113346, -803527.44, 67390.96, 0.0, 10.001907, 9.999174 
2.970537e+3, 2.2112471e+2, -1009058.3, -1014766.25, -213988.47, 0.36790147, 0.2317452, -797904.75, -24894.309, 0.0, 9.999669, 9.9995775 
2.9701307e+3, 2.31117e+2, -713399.2, -835134.4, -203993.36, 0.3250212, 0.30622217, -561386.1, 113702.336, 0.0, 10.001085, 9.999453 
2.969725e+3, 2.4110924e+2, -356001.72, -532069.25, -170221.94, 0.3072016, 0.3559807, -252396.64, 324769.03, 0.0, 10.002517, 10.00017 
2.9693192e+3, 2.5110126e+2, -296878.53, -421889.7, -134041.1, 0.21939884, 0.31547752, -211485.63, 267754.47, 0.0, 10.002141, 10.00041 
2.9689127e+3, 2.6109287e+2, -349556.94, -626263.94, -154534.63, 0.08014304, 0.28950247, -280491.44, 100829.06, 0.0, 10.002064, 9.998396 
2.9685044e+3, 2.7108225e+2, -153356.03, -648653.5, -31680.814, -0.08974177, 0.31937703, -151337.84, 132094.02, 0.0, 10.003492, 9.996877 
2.968097e+3, 2.8107157e+2, 203090.4, -225819.45, 124107.375, -0.13157243, 0.33637887, 236412.7, 421955.8, 0.0, 10.004358, 9.998712 
2.9676962e+3, 2.9106387e+2, 95757.945, -100751.61, 64867.53, 0.26239648, 0.42807537, 115239.305, 202855.19, 0.0, 10.002426, 9.99984 
2.9672882e+3, 3.0105588e+2, -172886.72, -287202.84, -130522.32, -0.0015550199, 0.50341225, -87555.766, -87555.766, 0.0, 10.000384, 9.998859 
2.9837486e+3, 1.4158228e+2, -1529274.4, -1332693.4, -7540.059, 0.7769644, 0.4299387, -1332404.5, 220140.17, 0.0, 10.000029, 10.002599 
2.983348e+3, 1.5157714e+2, -1619635.1, -1251861.1, 116475.04, 0.674623, 0.41192263, -1218076.8, 236509.25, 0.0, 9.998443, 10.003243 
2.982944e+3, 1.6157575e+2, -1729910.5, -1372358.3, -43709.555, 0.20392141, 0.7628421, -1367092.5, -10497.019, 0.0, 9.997512, 10.002194 
2.982545e+3, 1.7156911e+2, -1567038.0, -1291290.3, -122947.445, 0.6280814, 0.71110326, -1244433.8, 14229.676, 0.0, 9.998172, 10.001742 
2.9821455e+3, 1.8156138e+2, -1342217.5, -1115341.8, 9499.689, 0.90943676, 0.5536601, -1114944.8, 45795.348, 0.0, 9.99898, 10.00189 
2.9817423e+3, 1.9155416e+2, -941462.3, -824288.2, 24763.11, 0.5816616, 0.4070146, -819269.8, 243534.14, 0.0, 10.000833, 10.002329 
2.9813388e+3, 2.0154671e+2, -877935.6, -1100414.6, -79391.04, 0.3098461, 0.3114658, -852510.7, 112362.15, 0.0, 10.002148, 9.9991255 
2.9809353e+3, 2.1153675e+2, -988321.7, -1343795.6, -108507.914, 0.4599595, 0.37896627, -957817.44, -90839.19, 0.0, 10.001778, 9.996949 
2.980531e+3, 2.215278e+2, -838700.6, -955709.8, -66119.95, 0.5573996, 0.49865773, -808918.0, -39844.758, 0.0, 10.000969, 9.999348 
2.9801232e+3, 2.3152141e+2, -648898.56, -690832.3, -16860.582, 0.23131397, 0.6466815, -642960.25, 28177.791, 0.0, 10.001097, 10.000413 
2.979716e+3, 2.4151374e+2, -491735.56, -570036.56, -39054.1, -0.007852784, 0.64909816, -475587.03, 97626.37, 0.0, 10.001491, 10.000395 
2.979313e+3, 2.515037e+2, -370408.5, -438014.1, -60261.79, 0.21841677, 0.3978349, -335116.34, 140190.05, 0.0, 10.001569, 10.000575 
2.978909e+3, 2.6149458e+2, -245278.19, -321061.0, -63992.992, 0.30477047, 0.2297618, -208799.83, 168590.67, 0.0, 10.00171, 10.000654 
2.9784974e+3, 2.714886e+2, 16269.578, -102759.484, 3049.0894, -0.3255172, 0.35983494, 16347.633, 295794.34, 0.0, 10.002661, 10.0010195 
2.9780868e+3, 2.8148144e+2, -11562.601, -381450.4, 45369.12, -0.7906265, 0.4350515, -6079.078, 175437.55, 0.0, 10.00313, 9.998223 
2.9776844e+3, 2.914697e+2, -204279.0, -605922.4, 1263.484, -0.3273654, 0.3939222, -204275.02, -120641.58, 0.0, 10.001961, 9.99658 
2.977282e+3, 3.0145565e+2, -386799.0, -640357.0, -110368.12, 0.12981823, 0.1769619, -345488.63, -345488.63, 0.0, 10.000053, 9.996565 
2.9937413e+3, 1.4198771e+2, -1421075.5, -1298298.5, -3404.0154, 0.7966584, 0.6966267, -1298204.3, 250376.08, 0.0, 10.000818, 10.002477 
2.9933387e+3, 1.5197845e+2, -1779092.6, -1473320.6, 6968.063, 0.6970236, 0.388946, -1473161.9, -22505.832, 0.0, 9.997925, 10.00201 
2.9929325e+3, 1.6196842e+2, -1943721.6, -1536147.5, -44813.453, 0.18214652, -0.019053897, -1531278.4, -178531.84, 0.0, 9.996297, 10.001666 
2.9925302e+3, 1.7196351e+2, -1702336.3, -1379943.4, -108263.65, 0.22593082, 0.13214146, -1346961.4, -92160.14, 0.0, 9.997336, 10.001551 
2.99213e+3, 1.8195862e+2, -1372449.3, -1150274.3, 31891.828, 0.2564161, 0.27593768, -1145787.0, 11066.8955, 0.0, 9.998864, 10.001703 
2.991733e+3, 1.9195266e+2, -1064692.8, -954693.75, 25414.56, 0.3956657, 0.31093326, -949105.75, 109803.68, 0.0, 10.000326, 10.001667 
2.9913345e+3, 2.0194654e+2, -917281.56, -896576.8, -147502.55, 0.55914277, 0.3407127, -759063.8, 201902.73, 0.0, 10.000914, 10.001119 
2.9909292e+3, 2.119406e+2, -719385.25, -791343.2, -59949.273, 0.49648595, 0.4660712, -685447.1, 177577.44, 0.0, 10.0018015, 10.000729 
2.990522e+3, 2.2193335e+2, -535989.7, -663436.6, 29334.305, 0.29733634, 0.4861124, -529562.0, 235533.45, 0.0, 10.002387, 10.000674 
2.9901135e+3, 2.3192514e+2, -639945.4, -667317.44, 51324.133, -0.01774665, 0.4313345, -600513.9, 66660.305, 0.0, 10.001042, 10.000621 
2.9897076e+3, 2.4191788e+2, -620067.9, -630589.3, 74726.125, -0.12974417, 0.46324486, -550417.5, 18826.842, 0.0, 10.000589, 10.000419 
2.989306e+3, 2.5191033e+2, -416216.4, -519160.0, 53702.76, 0.15881456, 0.5113289, -393301.8, 78016.91, 0.0, 10.00148, 10.000089 
2.9889017e+3, 2.6190242e+2, -278795.56, -356150.9, 3203.993, 0.2716545, 0.52135813, -278663.1, 94733.95, 0.0, 10.001518, 10.000545 
2.988492e+3, 2.718957e+2, -234232.56, -215318.47, -39670.277, -0.17719777, 0.58330846, -183993.58, 91472.58, 0.0, 10.00089, 10.001127 
2.9880822e+3, 2.8188866e+2, -227718.8, -280609.28, -76520.664, -0.54179955, 0.6006042, -173202.55, 4333.6885, 0.0, 10.000733, 10.000103 
2.9876783e+3, 2.918783e+2, -150992.84, -297911.16, 75631.164, -0.22954485, 0.44528547, -119018.05, -39384.59, 0.0, 10.001092, 9.999172 
2.9872733e+3, 3.0186695e+2, -369483.66, -437525.34, 21074.254, 0.14643924, 0.3182044, -363485.22, -363485.22, 0.0, 9.999227, 9.998495 
3.0037376e+3, 1.423927e+2, -1684531.0, -1429827.0, 99037.04, 1.1952375, 0.8265441, -1395850.5, 148762.33, 0.0, 9.999082, 10.00237 
3.0033338e+3, 1.523837e+2, -1069424.5, -1161611.5, 178860.4, 1.05688, 0.5558854, -930813.75, 515867.03, 0.0, 10.002946, 10.001706 
3.0029297e+3, 1.6237183e+2, -868562.2, -1041578.2, 175355.83, 0.7934801, 0.023381311, -759536.8, 589249.0, 0.0, 10.003727, 10.001499 
3.0025214e+3, 1.7237052e+2, -714054.56, -901425.4, 165131.28, 0.17966478, 0.5535656, -617883.94, 632921.94, 0.0, 10.004021, 10.001648 
3.002121e+3, 1.8236627e+2, -623999.25, -890459.2, 363042.78, 0.07024933, 0.78088415, -370511.9, 782343.25, 0.0, 10.004385, 10.00085 
3.001729e+3, 1.9235742e+2, -563680.25, -874650.2, 220120.4, 0.6070211, 0.6570175, -449668.3, 605278.3, 0.0, 10.004367, 10.000306 
3.0013317e+3, 2.0234735e+2, -241084.97, -416560.1, 902.29706, 0.9093064, 0.35445502, -241080.33, 715965.94, 0.0, 10.004839, 10.002547 
3.0009228e+3, 2.1234542e+2, -182332.02, -93039.586, 18762.58, 0.43993527, 0.55436766, -89257.305, 769800.9, 0.0, 10.003578, 10.004668 
3.0005145e+3, 2.2234118e+2, -488464.25, -610504.06, -11129.629, 0.12392116, 0.62585455, -487457.56, 273635.72, 0.0, 10.002576, 10.00094 
3.000109e+3, 2.3232941e+2, -500941.53, -676941.8, -87462.414, 0.23394075, 0.26566374, -464870.34, 198333.36, 0.0, 10.0023, 9.999932 
2.9997045e+3, 2.4232021e+2, -656880.7, -699338.06, -57678.29, 0.2977567, 0.1075538, -616648.44, -51356.13, 0.0, 10.000547, 9.999957 
2.9992992e+3, 2.5231257e+2, -481457.22, -653195.94, -71394.59, 0.15676598, 0.19924141, -455654.16, 11720.61, 0.0, 10.0014925, 9.999127 
2.998892e+3, 2.623057e+2, -297881.0, -486029.8, -158887.31, -0.048482846, 0.36665097, -207306.63, 162144.52, 0.0, 10.001907, 9.99945 
2.9984835e+3, 2.722998e+2, -225137.14, -356957.9, -215827.77, -0.30971465, 0.61467034, -65380.07, 206140.98, 0.0, 10.001598, 9.999795 
2.998077e+3, 2.82294e+2, 105640.336, 250963.34, -170375.2, -0.3564191, 0.69620425, 363524.4, 537106.75, 0.0, 10.001428, 10.003414 
2.997675e+3, 2.922893e+2, 288588.13, 489425.88, 104591.41, 0.12993915, 0.60870475, 534001.2, 609615.25, 0.0, 10.001708, 10.004244 
2.9972637e+3, 3.0228457e+2, -153932.28, 118738.71, -108368.92, 0.18499544, 0.66677845, 156561.73, 156561.73, 0.0, 9.998914, 10.002395 
